    1C
    1UUSER                                                              
    1UDATE              11.october.2022                                 
    1UTIME              19:05:04                                        
    1UHOST                                                              
    1UPGM               CalculiX                                        
    1UVERSION           Version 2.20                             
    1UCOMPILETIME       Sun Jul 31 18:08:37 CEST 2022                    
    1UDIR                                                               
    1UDBN                                                               
    1UMAT    1MESH_MATERIAL                                             
    2C                           409                                     1
 -1         1 0.00000E+00 0.00000E+00 0.00000E+00
 -1         2 1.66667E-02 0.00000E+00 0.00000E+00
 -1         3 3.33333E-02 0.00000E+00 0.00000E+00
 -1         5 6.66667E-02 0.00000E+00 0.00000E+00
 -1         8 0.00000E+00 6.25000E-03 0.00000E+00
 -1         9 1.66667E-02 6.25000E-03 0.00000E+00
 -1        10 3.33333E-02 6.25000E-03 0.00000E+00
 -1        12 6.66667E-02 6.25000E-03 0.00000E+00
 -1        15 0.00000E+00 1.25000E-02 0.00000E+00
 -1        16 1.66667E-02 1.25000E-02 0.00000E+00
 -1        17 3.33333E-02 1.25000E-02 0.00000E+00
 -1        18 5.00000E-02 1.25000E-02 0.00000E+00
 -1        19 6.66667E-02 1.25000E-02 0.00000E+00
 -1        20 8.33333E-02 1.25000E-02 0.00000E+00
 -1        21 1.00000E-01 1.25000E-02 0.00000E+00
 -1        24 3.33333E-02 1.87500E-02 0.00000E+00
 -1        25 5.00000E-02 1.87500E-02 0.00000E+00
 -1        26 6.66667E-02 1.87500E-02 0.00000E+00
 -1        27 8.33333E-02 1.87500E-02 0.00000E+00
 -1        28 1.00000E-01 1.87500E-02 0.00000E+00
 -1        32 5.00000E-02 2.50000E-02 0.00000E+00
 -1        33 6.66667E-02 2.50000E-02 0.00000E+00
 -1        34 8.33333E-02 2.50000E-02 0.00000E+00
 -1        35 1.00000E-01 2.50000E-02 0.00000E+00
 -1        51 0.00000E+00 1.04167E-03 0.00000E+00
 -1        52 0.00000E+00 2.08333E-03 0.00000E+00
 -1        53 0.00000E+00 3.12500E-03 0.00000E+00
 -1        54 0.00000E+00 4.16667E-03 0.00000E+00
 -1        55 0.00000E+00 5.20833E-03 0.00000E+00
 -1        56 1.04167E-03 3.90630E-04 0.00000E+00
 -1        57 2.08333E-03 7.81250E-04 0.00000E+00
 -1        58 3.12500E-03 1.17188E-03 0.00000E+00
 -1        59 4.16667E-03 1.56250E-03 0.00000E+00
 -1        60 5.20833E-03 1.95312E-03 0.00000E+00
 -1        61 6.25000E-03 2.34375E-03 0.00000E+00
 -1        62 7.29167E-03 2.73438E-03 0.00000E+00
 -1        63 8.33333E-03 3.12500E-03 0.00000E+00
 -1        64 9.37500E-03 3.51563E-03 0.00000E+00
 -1        65 1.04167E-02 3.90625E-03 0.00000E+00
 -1        66 1.14583E-02 4.29688E-03 0.00000E+00
 -1        67 1.25000E-02 4.68750E-03 0.00000E+00
 -1        68 1.35417E-02 5.07813E-03 0.00000E+00
 -1        69 1.45833E-02 5.46875E-03 0.00000E+00
 -1        70 1.56250E-02 5.85938E-03 0.00000E+00
 -1        86 1.66667E-02 1.04167E-03 0.00000E+00
 -1        87 1.66667E-02 2.08333E-03 0.00000E+00
 -1        88 1.66667E-02 3.12500E-03 0.00000E+00
 -1        89 1.66667E-02 4.16667E-03 0.00000E+00
 -1        90 1.66667E-02 5.20833E-03 0.00000E+00
 -1       121 3.33333E-02 1.04167E-03 0.00000E+00
 -1       122 3.33333E-02 2.08333E-03 0.00000E+00
 -1       123 3.33333E-02 3.12500E-03 0.00000E+00
 -1       124 3.33333E-02 4.16667E-03 0.00000E+00
 -1       125 3.33333E-02 5.20833E-03 0.00000E+00
 -1       191 6.66667E-02 1.04167E-03 0.00000E+00
 -1       192 6.66667E-02 2.08333E-03 0.00000E+00
 -1       193 6.66667E-02 3.12500E-03 0.00000E+00
 -1       194 6.66667E-02 4.16667E-03 0.00000E+00
 -1       195 6.66667E-02 5.20833E-03 0.00000E+00
 -1       251 1.04167E-03 6.25000E-03 0.00000E+00
 -1       252 2.08333E-03 6.25000E-03 0.00000E+00
 -1       253 3.12500E-03 6.25000E-03 0.00000E+00
 -1       254 4.16667E-03 6.25000E-03 0.00000E+00
 -1       255 5.20833E-03 6.25000E-03 0.00000E+00
 -1       256 6.25000E-03 6.25000E-03 0.00000E+00
 -1       257 7.29167E-03 6.25000E-03 0.00000E+00
 -1       258 8.33333E-03 6.25000E-03 0.00000E+00
 -1       259 9.37500E-03 6.25000E-03 0.00000E+00
 -1       260 1.04167E-02 6.25000E-03 0.00000E+00
 -1       261 1.14583E-02 6.25000E-03 0.00000E+00
 -1       262 1.25000E-02 6.25000E-03 0.00000E+00
 -1       263 1.35417E-02 6.25000E-03 0.00000E+00
 -1       264 1.45833E-02 6.25000E-03 0.00000E+00
 -1       265 1.56250E-02 6.25000E-03 0.00000E+00
 -1       266 0.00000E+00 7.29167E-03 0.00000E+00
 -1       267 0.00000E+00 8.33333E-03 0.00000E+00
 -1       268 0.00000E+00 9.37500E-03 0.00000E+00
 -1       269 0.00000E+00 1.04167E-02 0.00000E+00
 -1       270 0.00000E+00 1.14583E-02 0.00000E+00
 -1       271 1.04167E-03 6.64063E-03 0.00000E+00
 -1       272 2.08333E-03 7.03125E-03 0.00000E+00
 -1       273 3.12500E-03 7.42188E-03 0.00000E+00
 -1       274 4.16667E-03 7.81250E-03 0.00000E+00
 -1       275 5.20833E-03 8.20313E-03 0.00000E+00
 -1       276 6.25000E-03 8.59375E-03 0.00000E+00
 -1       277 7.29167E-03 8.98438E-03 0.00000E+00
 -1       278 8.33333E-03 9.37500E-03 0.00000E+00
 -1       279 9.37500E-03 9.76562E-03 0.00000E+00
 -1       280 1.04167E-02 1.01562E-02 0.00000E+00
 -1       281 1.14583E-02 1.05469E-02 0.00000E+00
 -1       282 1.25000E-02 1.09375E-02 0.00000E+00
 -1       283 1.35417E-02 1.13281E-02 0.00000E+00
 -1       284 1.45833E-02 1.17188E-02 0.00000E+00
 -1       285 1.56250E-02 1.21094E-02 0.00000E+00
 -1       301 1.66667E-02 7.29167E-03 0.00000E+00
 -1       302 1.66667E-02 8.33333E-03 0.00000E+00
 -1       303 1.66667E-02 9.37500E-03 0.00000E+00
 -1       304 1.66667E-02 1.04167E-02 0.00000E+00
 -1       305 1.66667E-02 1.14583E-02 0.00000E+00
 -1       306 1.77083E-02 6.64063E-03 0.00000E+00
 -1       307 1.87500E-02 7.03125E-03 0.00000E+00
 -1       308 1.97917E-02 7.42188E-03 0.00000E+00
 -1       309 2.08333E-02 7.81250E-03 0.00000E+00
 -1       310 2.18750E-02 8.20313E-03 0.00000E+00
 -1       311 2.29167E-02 8.59375E-03 0.00000E+00
 -1       312 2.39583E-02 8.98438E-03 0.00000E+00
 -1       313 2.50000E-02 9.37500E-03 0.00000E+00
 -1       314 2.60417E-02 9.76562E-03 0.00000E+00
 -1       315 2.70833E-02 1.01562E-02 0.00000E+00
 -1       316 2.81250E-02 1.05469E-02 0.00000E+00
 -1       317 2.91667E-02 1.09375E-02 0.00000E+00
 -1       318 3.02083E-02 1.13281E-02 0.00000E+00
 -1       319 3.12500E-02 1.17188E-02 0.00000E+00
 -1       320 3.22917E-02 1.21094E-02 0.00000E+00
 -1       336 3.33333E-02 7.29167E-03 0.00000E+00
 -1       337 3.33333E-02 8.33333E-03 0.00000E+00
 -1       338 3.33333E-02 9.37500E-03 0.00000E+00
 -1       339 3.33333E-02 1.04167E-02 0.00000E+00
 -1       340 3.33333E-02 1.14583E-02 0.00000E+00
 -1       406 6.66667E-02 7.29167E-03 0.00000E+00
 -1       407 6.66667E-02 8.33333E-03 0.00000E+00
 -1       408 6.66667E-02 9.37500E-03 0.00000E+00
 -1       409 6.66667E-02 1.04167E-02 0.00000E+00
 -1       410 6.66667E-02 1.14583E-02 0.00000E+00
 -1       521 1.77083E-02 1.28906E-02 0.00000E+00
 -1       522 1.87500E-02 1.32813E-02 0.00000E+00
 -1       523 1.97917E-02 1.36719E-02 0.00000E+00
 -1       524 2.08333E-02 1.40625E-02 0.00000E+00
 -1       525 2.18750E-02 1.44531E-02 0.00000E+00
 -1       526 2.29167E-02 1.48437E-02 0.00000E+00
 -1       527 2.39583E-02 1.52344E-02 0.00000E+00
 -1       528 2.50000E-02 1.56250E-02 0.00000E+00
 -1       529 2.60417E-02 1.60156E-02 0.00000E+00
 -1       530 2.70833E-02 1.64062E-02 0.00000E+00
 -1       531 2.81250E-02 1.67969E-02 0.00000E+00
 -1       532 2.91667E-02 1.71875E-02 0.00000E+00
 -1       533 3.02083E-02 1.75781E-02 0.00000E+00
 -1       534 3.12500E-02 1.79687E-02 0.00000E+00
 -1       535 3.22917E-02 1.83594E-02 0.00000E+00
 -1       536 3.43750E-02 1.25000E-02 0.00000E+00
 -1       537 3.54167E-02 1.25000E-02 0.00000E+00
 -1       538 3.64583E-02 1.25000E-02 0.00000E+00
 -1       539 3.75000E-02 1.25000E-02 0.00000E+00
 -1       540 3.85417E-02 1.25000E-02 0.00000E+00
 -1       541 3.95833E-02 1.25000E-02 0.00000E+00
 -1       542 4.06250E-02 1.25000E-02 0.00000E+00
 -1       543 4.16667E-02 1.25000E-02 0.00000E+00
 -1       544 4.27083E-02 1.25000E-02 0.00000E+00
 -1       545 4.37500E-02 1.25000E-02 0.00000E+00
 -1       546 4.47917E-02 1.25000E-02 0.00000E+00
 -1       547 4.58333E-02 1.25000E-02 0.00000E+00
 -1       548 4.68750E-02 1.25000E-02 0.00000E+00
 -1       549 4.79167E-02 1.25000E-02 0.00000E+00
 -1       550 4.89583E-02 1.25000E-02 0.00000E+00
 -1       551 3.33333E-02 1.35417E-02 0.00000E+00
 -1       552 3.33333E-02 1.45833E-02 0.00000E+00
 -1       553 3.33333E-02 1.56250E-02 0.00000E+00
 -1       554 3.33333E-02 1.66667E-02 0.00000E+00
 -1       555 3.33333E-02 1.77083E-02 0.00000E+00
 -1       556 3.43750E-02 1.28906E-02 0.00000E+00
 -1       557 3.54167E-02 1.32813E-02 0.00000E+00
 -1       558 3.64583E-02 1.36719E-02 0.00000E+00
 -1       559 3.75000E-02 1.40625E-02 0.00000E+00
 -1       560 3.85417E-02 1.44531E-02 0.00000E+00
 -1       561 3.95833E-02 1.48437E-02 0.00000E+00
 -1       562 4.06250E-02 1.52344E-02 0.00000E+00
 -1       563 4.16667E-02 1.56250E-02 0.00000E+00
 -1       564 4.27083E-02 1.60156E-02 0.00000E+00
 -1       565 4.37500E-02 1.64062E-02 0.00000E+00
 -1       566 4.47917E-02 1.67969E-02 0.00000E+00
 -1       567 4.58333E-02 1.71875E-02 0.00000E+00
 -1       568 4.68750E-02 1.75781E-02 0.00000E+00
 -1       569 4.79167E-02 1.79687E-02 0.00000E+00
 -1       570 4.89583E-02 1.83594E-02 0.00000E+00
 -1       571 5.10417E-02 1.25000E-02 0.00000E+00
 -1       572 5.20833E-02 1.25000E-02 0.00000E+00
 -1       573 5.31250E-02 1.25000E-02 0.00000E+00
 -1       574 5.41667E-02 1.25000E-02 0.00000E+00
 -1       575 5.52083E-02 1.25000E-02 0.00000E+00
 -1       576 5.62500E-02 1.25000E-02 0.00000E+00
 -1       577 5.72917E-02 1.25000E-02 0.00000E+00
 -1       578 5.83333E-02 1.25000E-02 0.00000E+00
 -1       579 5.93750E-02 1.25000E-02 0.00000E+00
 -1       580 6.04167E-02 1.25000E-02 0.00000E+00
 -1       581 6.14583E-02 1.25000E-02 0.00000E+00
 -1       582 6.25000E-02 1.25000E-02 0.00000E+00
 -1       583 6.35417E-02 1.25000E-02 0.00000E+00
 -1       584 6.45833E-02 1.25000E-02 0.00000E+00
 -1       585 6.56250E-02 1.25000E-02 0.00000E+00
 -1       586 5.00000E-02 1.35417E-02 0.00000E+00
 -1       587 5.00000E-02 1.45833E-02 0.00000E+00
 -1       588 5.00000E-02 1.56250E-02 0.00000E+00
 -1       589 5.00000E-02 1.66667E-02 0.00000E+00
 -1       590 5.00000E-02 1.77083E-02 0.00000E+00
 -1       591 5.10417E-02 1.28906E-02 0.00000E+00
 -1       592 5.20833E-02 1.32813E-02 0.00000E+00
 -1       593 5.31250E-02 1.36719E-02 0.00000E+00
 -1       594 5.41667E-02 1.40625E-02 0.00000E+00
 -1       595 5.52083E-02 1.44531E-02 0.00000E+00
 -1       596 5.62500E-02 1.48437E-02 0.00000E+00
 -1       597 5.72917E-02 1.52344E-02 0.00000E+00
 -1       598 5.83333E-02 1.56250E-02 0.00000E+00
 -1       599 5.93750E-02 1.60156E-02 0.00000E+00
 -1       600 6.04167E-02 1.64062E-02 0.00000E+00
 -1       601 6.14583E-02 1.67969E-02 0.00000E+00
 -1       602 6.25000E-02 1.71875E-02 0.00000E+00
 -1       603 6.35417E-02 1.75781E-02 0.00000E+00
 -1       604 6.45833E-02 1.79687E-02 0.00000E+00
 -1       605 6.56250E-02 1.83594E-02 0.00000E+00
 -1       606 6.77083E-02 1.25000E-02 0.00000E+00
 -1       607 6.87500E-02 1.25000E-02 0.00000E+00
 -1       608 6.97917E-02 1.25000E-02 0.00000E+00
 -1       609 7.08333E-02 1.25000E-02 0.00000E+00
 -1       610 7.18750E-02 1.25000E-02 0.00000E+00
 -1       611 7.29167E-02 1.25000E-02 0.00000E+00
 -1       612 7.39583E-02 1.25000E-02 0.00000E+00
 -1       613 7.50000E-02 1.25000E-02 0.00000E+00
 -1       614 7.60417E-02 1.25000E-02 0.00000E+00
 -1       615 7.70833E-02 1.25000E-02 0.00000E+00
 -1       616 7.81250E-02 1.25000E-02 0.00000E+00
 -1       617 7.91667E-02 1.25000E-02 0.00000E+00
 -1       618 8.02083E-02 1.25000E-02 0.00000E+00
 -1       619 8.12500E-02 1.25000E-02 0.00000E+00
 -1       620 8.22917E-02 1.25000E-02 0.00000E+00
 -1       621 6.66667E-02 1.35417E-02 0.00000E+00
 -1       622 6.66667E-02 1.45833E-02 0.00000E+00
 -1       623 6.66667E-02 1.56250E-02 0.00000E+00
 -1       624 6.66667E-02 1.66667E-02 0.00000E+00
 -1       625 6.66667E-02 1.77083E-02 0.00000E+00
 -1       626 6.77083E-02 1.28906E-02 0.00000E+00
 -1       627 6.87500E-02 1.32813E-02 0.00000E+00
 -1       628 6.97917E-02 1.36719E-02 0.00000E+00
 -1       629 7.08333E-02 1.40625E-02 0.00000E+00
 -1       630 7.18750E-02 1.44531E-02 0.00000E+00
 -1       631 7.29167E-02 1.48437E-02 0.00000E+00
 -1       632 7.39583E-02 1.52344E-02 0.00000E+00
 -1       633 7.50000E-02 1.56250E-02 0.00000E+00
 -1       634 7.60417E-02 1.60156E-02 0.00000E+00
 -1       635 7.70833E-02 1.64062E-02 0.00000E+00
 -1       636 7.81250E-02 1.67969E-02 0.00000E+00
 -1       637 7.91667E-02 1.71875E-02 0.00000E+00
 -1       638 8.02083E-02 1.75781E-02 0.00000E+00
 -1       639 8.12500E-02 1.79687E-02 0.00000E+00
 -1       640 8.22917E-02 1.83594E-02 0.00000E+00
 -1       656 8.33333E-02 1.35417E-02 0.00000E+00
 -1       657 8.33333E-02 1.45833E-02 0.00000E+00
 -1       658 8.33333E-02 1.56250E-02 0.00000E+00
 -1       659 8.33333E-02 1.66667E-02 0.00000E+00
 -1       660 8.33333E-02 1.77083E-02 0.00000E+00
 -1       661 8.43750E-02 1.28906E-02 0.00000E+00
 -1       662 8.54167E-02 1.32813E-02 0.00000E+00
 -1       663 8.64583E-02 1.36719E-02 0.00000E+00
 -1       664 8.75000E-02 1.40625E-02 0.00000E+00
 -1       665 8.85417E-02 1.44531E-02 0.00000E+00
 -1       666 8.95833E-02 1.48437E-02 0.00000E+00
 -1       667 9.06250E-02 1.52344E-02 0.00000E+00
 -1       668 9.16667E-02 1.56250E-02 0.00000E+00
 -1       669 9.27083E-02 1.60156E-02 0.00000E+00
 -1       670 9.37500E-02 1.64062E-02 0.00000E+00
 -1       671 9.47917E-02 1.67969E-02 0.00000E+00
 -1       672 9.58333E-02 1.71875E-02 0.00000E+00
 -1       673 9.68750E-02 1.75781E-02 0.00000E+00
 -1       674 9.79167E-02 1.79687E-02 0.00000E+00
 -1       675 9.89583E-02 1.83594E-02 0.00000E+00
 -1       676 1.00000E-01 1.35417E-02 0.00000E+00
 -1       677 1.00000E-01 1.45833E-02 0.00000E+00
 -1       678 1.00000E-01 1.56250E-02 0.00000E+00
 -1       679 1.00000E-01 1.66667E-02 0.00000E+00
 -1       680 1.00000E-01 1.77083E-02 0.00000E+00
 -1       771 3.43750E-02 1.91406E-02 0.00000E+00
 -1       772 3.54167E-02 1.95312E-02 0.00000E+00
 -1       773 3.64583E-02 1.99219E-02 0.00000E+00
 -1       774 3.75000E-02 2.03125E-02 0.00000E+00
 -1       775 3.85417E-02 2.07031E-02 0.00000E+00
 -1       776 3.95833E-02 2.10938E-02 0.00000E+00
 -1       777 4.06250E-02 2.14844E-02 0.00000E+00
 -1       778 4.16667E-02 2.18750E-02 0.00000E+00
 -1       779 4.27083E-02 2.22656E-02 0.00000E+00
 -1       780 4.37500E-02 2.26563E-02 0.00000E+00
 -1       781 4.47917E-02 2.30469E-02 0.00000E+00
 -1       782 4.58333E-02 2.34375E-02 0.00000E+00
 -1       783 4.68750E-02 2.38281E-02 0.00000E+00
 -1       784 4.79167E-02 2.42187E-02 0.00000E+00
 -1       785 4.89583E-02 2.46094E-02 0.00000E+00
 -1       786 5.10417E-02 1.87500E-02 0.00000E+00
 -1       787 5.20833E-02 1.87500E-02 0.00000E+00
 -1       788 5.31250E-02 1.87500E-02 0.00000E+00
 -1       789 5.41667E-02 1.87500E-02 0.00000E+00
 -1       790 5.52083E-02 1.87500E-02 0.00000E+00
 -1       791 5.62500E-02 1.87500E-02 0.00000E+00
 -1       792 5.72917E-02 1.87500E-02 0.00000E+00
 -1       793 5.83333E-02 1.87500E-02 0.00000E+00
 -1       794 5.93750E-02 1.87500E-02 0.00000E+00
 -1       795 6.04167E-02 1.87500E-02 0.00000E+00
 -1       796 6.14583E-02 1.87500E-02 0.00000E+00
 -1       797 6.25000E-02 1.87500E-02 0.00000E+00
 -1       798 6.35417E-02 1.87500E-02 0.00000E+00
 -1       799 6.45833E-02 1.87500E-02 0.00000E+00
 -1       800 6.56250E-02 1.87500E-02 0.00000E+00
 -1       801 5.00000E-02 1.97917E-02 0.00000E+00
 -1       802 5.00000E-02 2.08333E-02 0.00000E+00
 -1       803 5.00000E-02 2.18750E-02 0.00000E+00
 -1       804 5.00000E-02 2.29167E-02 0.00000E+00
 -1       805 5.00000E-02 2.39583E-02 0.00000E+00
 -1       806 5.10417E-02 1.91406E-02 0.00000E+00
 -1       807 5.20833E-02 1.95312E-02 0.00000E+00
 -1       808 5.31250E-02 1.99219E-02 0.00000E+00
 -1       809 5.41667E-02 2.03125E-02 0.00000E+00
 -1       810 5.52083E-02 2.07031E-02 0.00000E+00
 -1       811 5.62500E-02 2.10938E-02 0.00000E+00
 -1       812 5.72917E-02 2.14844E-02 0.00000E+00
 -1       813 5.83333E-02 2.18750E-02 0.00000E+00
 -1       814 5.93750E-02 2.22656E-02 0.00000E+00
 -1       815 6.04167E-02 2.26563E-02 0.00000E+00
 -1       816 6.14583E-02 2.30469E-02 0.00000E+00
 -1       817 6.25000E-02 2.34375E-02 0.00000E+00
 -1       818 6.35417E-02 2.38281E-02 0.00000E+00
 -1       819 6.45833E-02 2.42187E-02 0.00000E+00
 -1       820 6.56250E-02 2.46094E-02 0.00000E+00
 -1       821 6.77083E-02 1.87500E-02 0.00000E+00
 -1       822 6.87500E-02 1.87500E-02 0.00000E+00
 -1       823 6.97917E-02 1.87500E-02 0.00000E+00
 -1       824 7.08333E-02 1.87500E-02 0.00000E+00
 -1       825 7.18750E-02 1.87500E-02 0.00000E+00
 -1       826 7.29167E-02 1.87500E-02 0.00000E+00
 -1       827 7.39583E-02 1.87500E-02 0.00000E+00
 -1       828 7.50000E-02 1.87500E-02 0.00000E+00
 -1       829 7.60417E-02 1.87500E-02 0.00000E+00
 -1       830 7.70833E-02 1.87500E-02 0.00000E+00
 -1       831 7.81250E-02 1.87500E-02 0.00000E+00
 -1       832 7.91667E-02 1.87500E-02 0.00000E+00
 -1       833 8.02083E-02 1.87500E-02 0.00000E+00
 -1       834 8.12500E-02 1.87500E-02 0.00000E+00
 -1       835 8.22917E-02 1.87500E-02 0.00000E+00
 -1       836 6.66667E-02 1.97917E-02 0.00000E+00
 -1       837 6.66667E-02 2.08333E-02 0.00000E+00
 -1       838 6.66667E-02 2.18750E-02 0.00000E+00
 -1       839 6.66667E-02 2.29167E-02 0.00000E+00
 -1       840 6.66667E-02 2.39583E-02 0.00000E+00
 -1       856 8.43750E-02 1.87500E-02 0.00000E+00
 -1       857 8.54167E-02 1.87500E-02 0.00000E+00
 -1       858 8.64583E-02 1.87500E-02 0.00000E+00
 -1       859 8.75000E-02 1.87500E-02 0.00000E+00
 -1       860 8.85417E-02 1.87500E-02 0.00000E+00
 -1       861 8.95833E-02 1.87500E-02 0.00000E+00
 -1       862 9.06250E-02 1.87500E-02 0.00000E+00
 -1       863 9.16667E-02 1.87500E-02 0.00000E+00
 -1       864 9.27083E-02 1.87500E-02 0.00000E+00
 -1       865 9.37500E-02 1.87500E-02 0.00000E+00
 -1       866 9.47917E-02 1.87500E-02 0.00000E+00
 -1       867 9.58333E-02 1.87500E-02 0.00000E+00
 -1       868 9.68750E-02 1.87500E-02 0.00000E+00
 -1       869 9.79167E-02 1.87500E-02 0.00000E+00
 -1       870 9.89583E-02 1.87500E-02 0.00000E+00
 -1       871 8.33333E-02 1.97917E-02 0.00000E+00
 -1       872 8.33333E-02 2.08333E-02 0.00000E+00
 -1       873 8.33333E-02 2.18750E-02 0.00000E+00
 -1       874 8.33333E-02 2.29167E-02 0.00000E+00
 -1       875 8.33333E-02 2.39583E-02 0.00000E+00
 -1       876 8.43750E-02 1.91406E-02 0.00000E+00
 -1       877 8.54167E-02 1.95312E-02 0.00000E+00
 -1       878 8.64583E-02 1.99219E-02 0.00000E+00
 -1       879 8.75000E-02 2.03125E-02 0.00000E+00
 -1       880 8.85417E-02 2.07031E-02 0.00000E+00
 -1       881 8.95833E-02 2.10938E-02 0.00000E+00
 -1       882 9.06250E-02 2.14844E-02 0.00000E+00
 -1       883 9.16667E-02 2.18750E-02 0.00000E+00
 -1       884 9.27083E-02 2.22656E-02 0.00000E+00
 -1       885 9.37500E-02 2.26563E-02 0.00000E+00
 -1       886 9.47917E-02 2.30469E-02 0.00000E+00
 -1       887 9.58333E-02 2.34375E-02 0.00000E+00
 -1       888 9.68750E-02 2.38281E-02 0.00000E+00
 -1       889 9.79167E-02 2.42187E-02 0.00000E+00
 -1       890 9.89583E-02 2.46094E-02 0.00000E+00
 -1       891 1.00000E-01 1.97917E-02 0.00000E+00
 -1       892 1.00000E-01 2.08333E-02 0.00000E+00
 -1       893 1.00000E-01 2.18750E-02 0.00000E+00
 -1       894 1.00000E-01 2.29167E-02 0.00000E+00
 -1       895 1.00000E-01 2.39583E-02 0.00000E+00
 -1       956 6.77083E-02 2.50000E-02 0.00000E+00
 -1       957 6.87500E-02 2.50000E-02 0.00000E+00
 -1       958 6.97917E-02 2.50000E-02 0.00000E+00
 -1       959 7.08333E-02 2.50000E-02 0.00000E+00
 -1       960 7.18750E-02 2.50000E-02 0.00000E+00
 -1       961 7.29167E-02 2.50000E-02 0.00000E+00
 -1       962 7.39583E-02 2.50000E-02 0.00000E+00
 -1       963 7.50000E-02 2.50000E-02 0.00000E+00
 -1       964 7.60417E-02 2.50000E-02 0.00000E+00
 -1       965 7.70833E-02 2.50000E-02 0.00000E+00
 -1       966 7.81250E-02 2.50000E-02 0.00000E+00
 -1       967 7.91667E-02 2.50000E-02 0.00000E+00
 -1       968 8.02083E-02 2.50000E-02 0.00000E+00
 -1       969 8.12500E-02 2.50000E-02 0.00000E+00
 -1       970 8.22917E-02 2.50000E-02 0.00000E+00
 -1       971 8.43750E-02 2.50000E-02 0.00000E+00
 -1       972 8.54167E-02 2.50000E-02 0.00000E+00
 -1       973 8.64583E-02 2.50000E-02 0.00000E+00
 -1       974 8.75000E-02 2.50000E-02 0.00000E+00
 -1       975 8.85417E-02 2.50000E-02 0.00000E+00
 -1       976 8.95833E-02 2.50000E-02 0.00000E+00
 -1       977 9.06250E-02 2.50000E-02 0.00000E+00
 -1       978 9.16667E-02 2.50000E-02 0.00000E+00
 -1       979 9.27083E-02 2.50000E-02 0.00000E+00
 -1       980 9.37500E-02 2.50000E-02 0.00000E+00
 -1       981 9.47917E-02 2.50000E-02 0.00000E+00
 -1       982 9.58333E-02 2.50000E-02 0.00000E+00
 -1       983 9.68750E-02 2.50000E-02 0.00000E+00
 -1       984 9.79167E-02 2.50000E-02 0.00000E+00
 -1       985 9.89583E-02 2.50000E-02 0.00000E+00
 -3
    3C                           211                                     1
 -1         1   12    0    1
 -2         1        52        51
 -1         2   12    0    1
 -2        52        54        53
 -1         3   12    0    1
 -2        54         8        55
 -1         4   12    0    1
 -2         1        57        56
 -1         5   12    0    1
 -2        57        59        58
 -1         6   12    0    1
 -2        59        61        60
 -1         7   12    0    1
 -2        61        63        62
 -1         8   12    0    1
 -2        63        65        64
 -1         9   12    0    1
 -2        65        67        66
 -1        10   12    0    1
 -2        67        69        68
 -1        11   12    0    1
 -2        69         9        70
 -1        12   12    0    1
 -2         2        87        86
 -1        13   12    0    1
 -2        87        89        88
 -1        14   12    0    1
 -2        89         9        90
 -1        15   12    0    1
 -2         3       122       121
 -1        16   12    0    1
 -2       122       124       123
 -1        17   12    0    1
 -2       124        10       125
 -1        18   12    0    1
 -2         5       192       191
 -1        19   12    0    1
 -2       192       194       193
 -1        20   12    0    1
 -2       194        12       195
 -1        21   12    0    1
 -2         8       252       251
 -1        22   12    0    1
 -2       252       254       253
 -1        23   12    0    1
 -2       254       256       255
 -1        24   12    0    1
 -2       256       258       257
 -1        25   12    0    1
 -2       258       260       259
 -1        26   12    0    1
 -2       260       262       261
 -1        27   12    0    1
 -2       262       264       263
 -1        28   12    0    1
 -2       264         9       265
 -1        29   12    0    1
 -2         8       267       266
 -1        30   12    0    1
 -2       267       269       268
 -1        31   12    0    1
 -2       269        15       270
 -1        32   12    0    1
 -2         8       272       271
 -1        33   12    0    1
 -2       272       274       273
 -1        34   12    0    1
 -2       274       276       275
 -1        35   12    0    1
 -2       276       278       277
 -1        36   12    0    1
 -2       278       280       279
 -1        37   12    0    1
 -2       280       282       281
 -1        38   12    0    1
 -2       282       284       283
 -1        39   12    0    1
 -2       284        16       285
 -1        40   12    0    1
 -2         9       302       301
 -1        41   12    0    1
 -2       302       304       303
 -1        42   12    0    1
 -2       304        16       305
 -1        43   12    0    1
 -2         9       307       306
 -1        44   12    0    1
 -2       307       309       308
 -1        45   12    0    1
 -2       309       311       310
 -1        46   12    0    1
 -2       311       313       312
 -1        47   12    0    1
 -2       313       315       314
 -1        48   12    0    1
 -2       315       317       316
 -1        49   12    0    1
 -2       317       319       318
 -1        50   12    0    1
 -2       319        17       320
 -1        51   12    0    1
 -2        10       337       336
 -1        52   12    0    1
 -2       337       339       338
 -1        53   12    0    1
 -2       339        17       340
 -1        54   12    0    1
 -2        12       407       406
 -1        55   12    0    1
 -2       407       409       408
 -1        56   12    0    1
 -2       409        19       410
 -1        57   12    0    1
 -2        16       522       521
 -1        58   12    0    1
 -2       522       524       523
 -1        59   12    0    1
 -2       524       526       525
 -1        60   12    0    1
 -2       526       528       527
 -1        61   12    0    1
 -2       528       530       529
 -1        62   12    0    1
 -2       530       532       531
 -1        63   12    0    1
 -2       532       534       533
 -1        64   12    0    1
 -2       534        24       535
 -1        65   12    0    1
 -2        17       537       536
 -1        66   12    0    1
 -2       537       539       538
 -1        67   12    0    1
 -2       539       541       540
 -1        68   12    0    1
 -2       541       543       542
 -1        69   12    0    1
 -2       543       545       544
 -1        70   12    0    1
 -2       545       547       546
 -1        71   12    0    1
 -2       547       549       548
 -1        72   12    0    1
 -2       549        18       550
 -1        73   12    0    1
 -2        17       552       551
 -1        74   12    0    1
 -2       552       554       553
 -1        75   12    0    1
 -2       554        24       555
 -1        76   12    0    1
 -2        17       557       556
 -1        77   12    0    1
 -2       557       559       558
 -1        78   12    0    1
 -2       559       561       560
 -1        79   12    0    1
 -2       561       563       562
 -1        80   12    0    1
 -2       563       565       564
 -1        81   12    0    1
 -2       565       567       566
 -1        82   12    0    1
 -2       567       569       568
 -1        83   12    0    1
 -2       569        25       570
 -1        84   12    0    1
 -2        18       572       571
 -1        85   12    0    1
 -2       572       574       573
 -1        86   12    0    1
 -2       574       576       575
 -1        87   12    0    1
 -2       576       578       577
 -1        88   12    0    1
 -2       578       580       579
 -1        89   12    0    1
 -2       580       582       581
 -1        90   12    0    1
 -2       582       584       583
 -1        91   12    0    1
 -2       584        19       585
 -1        92   12    0    1
 -2        18       587       586
 -1        93   12    0    1
 -2       587       589       588
 -1        94   12    0    1
 -2       589        25       590
 -1        95   12    0    1
 -2        18       592       591
 -1        96   12    0    1
 -2       592       594       593
 -1        97   12    0    1
 -2       594       596       595
 -1        98   12    0    1
 -2       596       598       597
 -1        99   12    0    1
 -2       598       600       599
 -1       100   12    0    1
 -2       600       602       601
 -1       101   12    0    1
 -2       602       604       603
 -1       102   12    0    1
 -2       604        26       605
 -1       103   12    0    1
 -2        19       607       606
 -1       104   12    0    1
 -2       607       609       608
 -1       105   12    0    1
 -2       609       611       610
 -1       106   12    0    1
 -2       611       613       612
 -1       107   12    0    1
 -2       613       615       614
 -1       108   12    0    1
 -2       615       617       616
 -1       109   12    0    1
 -2       617       619       618
 -1       110   12    0    1
 -2       619        20       620
 -1       111   12    0    1
 -2        19       622       621
 -1       112   12    0    1
 -2       622       624       623
 -1       113   12    0    1
 -2       624        26       625
 -1       114   12    0    1
 -2        19       627       626
 -1       115   12    0    1
 -2       627       629       628
 -1       116   12    0    1
 -2       629       631       630
 -1       117   12    0    1
 -2       631       633       632
 -1       118   12    0    1
 -2       633       635       634
 -1       119   12    0    1
 -2       635       637       636
 -1       120   12    0    1
 -2       637       639       638
 -1       121   12    0    1
 -2       639        27       640
 -1       122   12    0    1
 -2        20       657       656
 -1       123   12    0    1
 -2       657       659       658
 -1       124   12    0    1
 -2       659        27       660
 -1       125   12    0    1
 -2        20       662       661
 -1       126   12    0    1
 -2       662       664       663
 -1       127   12    0    1
 -2       664       666       665
 -1       128   12    0    1
 -2       666       668       667
 -1       129   12    0    1
 -2       668       670       669
 -1       130   12    0    1
 -2       670       672       671
 -1       131   12    0    1
 -2       672       674       673
 -1       132   12    0    1
 -2       674        28       675
 -1       133   12    0    1
 -2        21       677       676
 -1       134   12    0    1
 -2       677       679       678
 -1       135   12    0    1
 -2       679        28       680
 -1       136   12    0    1
 -2        24       772       771
 -1       137   12    0    1
 -2       772       774       773
 -1       138   12    0    1
 -2       774       776       775
 -1       139   12    0    1
 -2       776       778       777
 -1       140   12    0    1
 -2       778       780       779
 -1       141   12    0    1
 -2       780       782       781
 -1       142   12    0    1
 -2       782       784       783
 -1       143   12    0    1
 -2       784        32       785
 -1       144   12    0    1
 -2        25       787       786
 -1       145   12    0    1
 -2       787       789       788
 -1       146   12    0    1
 -2       789       791       790
 -1       147   12    0    1
 -2       791       793       792
 -1       148   12    0    1
 -2       793       795       794
 -1       149   12    0    1
 -2       795       797       796
 -1       150   12    0    1
 -2       797       799       798
 -1       151   12    0    1
 -2       799        26       800
 -1       152   12    0    1
 -2        25       802       801
 -1       153   12    0    1
 -2       802       804       803
 -1       154   12    0    1
 -2       804        32       805
 -1       155   12    0    1
 -2        25       807       806
 -1       156   12    0    1
 -2       807       809       808
 -1       157   12    0    1
 -2       809       811       810
 -1       158   12    0    1
 -2       811       813       812
 -1       159   12    0    1
 -2       813       815       814
 -1       160   12    0    1
 -2       815       817       816
 -1       161   12    0    1
 -2       817       819       818
 -1       162   12    0    1
 -2       819        33       820
 -1       163   12    0    1
 -2        26       822       821
 -1       164   12    0    1
 -2       822       824       823
 -1       165   12    0    1
 -2       824       826       825
 -1       166   12    0    1
 -2       826       828       827
 -1       167   12    0    1
 -2       828       830       829
 -1       168   12    0    1
 -2       830       832       831
 -1       169   12    0    1
 -2       832       834       833
 -1       170   12    0    1
 -2       834        27       835
 -1       171   12    0    1
 -2        26       837       836
 -1       172   12    0    1
 -2       837       839       838
 -1       173   12    0    1
 -2       839        33       840
 -1       174   12    0    1
 -2        27       857       856
 -1       175   12    0    1
 -2       857       859       858
 -1       176   12    0    1
 -2       859       861       860
 -1       177   12    0    1
 -2       861       863       862
 -1       178   12    0    1
 -2       863       865       864
 -1       179   12    0    1
 -2       865       867       866
 -1       180   12    0    1
 -2       867       869       868
 -1       181   12    0    1
 -2       869        28       870
 -1       182   12    0    1
 -2        27       872       871
 -1       183   12    0    1
 -2       872       874       873
 -1       184   12    0    1
 -2       874        34       875
 -1       185   12    0    1
 -2        27       877       876
 -1       186   12    0    1
 -2       877       879       878
 -1       187   12    0    1
 -2       879       881       880
 -1       188   12    0    1
 -2       881       883       882
 -1       189   12    0    1
 -2       883       885       884
 -1       190   12    0    1
 -2       885       887       886
 -1       191   12    0    1
 -2       887       889       888
 -1       192   12    0    1
 -2       889        35       890
 -1       193   12    0    1
 -2        28       892       891
 -1       194   12    0    1
 -2       892       894       893
 -1       195   12    0    1
 -2       894        35       895
 -1       196   12    0    1
 -2        33       957       956
 -1       197   12    0    1
 -2       957       959       958
 -1       198   12    0    1
 -2       959       961       960
 -1       199   12    0    1
 -2       961       963       962
 -1       200   12    0    1
 -2       963       965       964
 -1       201   12    0    1
 -2       965       967       966
 -1       202   12    0    1
 -2       967       969       968
 -1       203   12    0    1
 -2       969        34       970
 -1       204   12    0    1
 -2        34       972       971
 -1       205   12    0    1
 -2       972       974       973
 -1       206   12    0    1
 -2       974       976       975
 -1       207   12    0    1
 -2       976       978       977
 -1       208   12    0    1
 -2       978       980       979
 -1       209   12    0    1
 -2       980       982       981
 -1       210   12    0    1
 -2       982       984       983
 -1       211   12    0    1
 -2       984        35       985
 -3
    1PSTEP                         1           1           1          
  100CL  101 2.50000E-01         409                     0    1           1
 -4  DISP        4    1
 -5  D1          1    2    1    0
 -5  D2          1    2    2    0
 -5  D3          1    2    3    0
 -5  ALL         1    2    0    0    1ALL
 -1         1 6.52465E-05 0.00000E+00 0.00000E+00
 -1         2 6.02847E-05 2.24153E-29-1.65436E-24
 -1         3 5.60753E-05-8.06000E-27-3.30872E-24
 -1         5 4.00585E-05 5.17482E-26 1.65436E-24
 -1         8 5.20789E-05-4.68936E-07 0.00000E+00
 -1         9 5.29075E-05 3.10682E-07 0.00000E+00
 -1        10 5.17563E-05-7.90297E-07 0.00000E+00
 -1        12 3.97718E-05 2.72263E-07-8.27181E-25
 -1        15 3.64149E-05-5.01562E-07 0.00000E+00
 -1        16 3.76733E-05 2.50073E-07 0.00000E+00
 -1        17 3.84065E-05-1.62322E-06 0.00000E+00
 -1        18 3.83853E-05 7.33665E-08 0.00000E+00
 -1        19 3.89121E-05 5.43051E-07 0.00000E+00
 -1        20 3.89841E-05 8.10375E-06 0.00000E+00
 -1        21 3.87133E-05 1.53292E-05 0.00000E+00
 -1        24 9.83118E-06-2.14802E-06 0.00000E+00
 -1        25 3.74683E-05 1.35654E-07 0.00000E+00
 -1        26 3.79644E-05 7.56697E-07 0.00000E+00
 -1        27 3.72119E-05 6.89302E-06 0.00000E+00
 -1        28 3.69684E-05 1.50965E-05 0.00000E+00
 -1        32 0.00000E+00 0.00000E+00 0.00000E+00
 -1        33 3.63664E-05 1.01491E-06 0.00000E+00
 -1        34 3.56385E-05 6.88234E-06 0.00000E+00
 -1        35 3.49470E-05 1.49737E-05 0.00000E+00
 -1        51 6.43897E-05-7.81566E-08 0.00000E+00
 -1        52 6.28019E-05-1.53959E-07 0.00000E+00
 -1        53 6.06273E-05-2.30006E-07 0.00000E+00
 -1        54 5.80153E-05-3.07010E-07 0.00000E+00
 -1        55 5.51157E-05-3.85497E-07 3.30872E-24
 -1        56 6.46442E-05-3.64451E-07 1.32349E-23
 -1        57 6.41017E-05-9.56042E-07 0.00000E+00
 -1        58 6.36209E-05-1.70841E-06 0.00000E+00
 -1        59 6.31741E-05-2.56322E-06-1.32349E-23
 -1        60 6.27412E-05-3.45559E-06 0.00000E+00
 -1        61 6.22977E-05-4.32162E-06 0.00000E+00
 -1        62 6.18205E-05-5.09797E-06-2.64698E-23
 -1        63 6.12865E-05-5.72293E-06 0.00000E+00
 -1        64 6.06745E-05-6.13959E-06 0.00000E+00
 -1        65 5.99643E-05-6.29428E-06 0.00000E+00
 -1        66 5.91389E-05-6.14184E-06 0.00000E+00
 -1        67 5.81837E-05-5.64172E-06-1.32349E-23
 -1        68 5.70869E-05-4.76492E-06 1.32349E-23
 -1        69 5.58430E-05-3.48694E-06 0.00000E+00
 -1        70 5.44434E-05-1.79903E-06 0.00000E+00
 -1        86 6.00883E-05 5.53602E-08 0.00000E+00
 -1        87 5.94985E-05 1.10279E-07 0.00000E+00
 -1        88 5.85034E-05 1.64846E-07 0.00000E+00
 -1        89 5.70901E-05 2.17091E-07 0.00000E+00
 -1        90 5.52335E-05 2.69258E-07 0.00000E+00
 -1       121 5.59550E-05-1.31369E-07 0.00000E+00
 -1       122 5.55942E-05-2.62794E-07 1.65436E-24
 -1       123 5.49932E-05-3.94333E-07 0.00000E+00
 -1       124 5.41527E-05-5.26051E-07 1.65436E-24
 -1       125 5.30733E-05-6.57985E-07 0.00000E+00
 -1       191 4.00505E-05 4.53801E-08 0.00000E+00
 -1       192 4.00267E-05 9.07595E-08 0.00000E+00
 -1       193 3.99868E-05 1.36139E-07 1.65436E-24
 -1       194 3.99311E-05 1.81516E-07 0.00000E+00
 -1       195 3.98594E-05 2.26891E-07-1.65436E-24
 -1       251 5.21199E-05 1.69862E-06 0.00000E+00
 -1       252 5.21718E-05 2.99380E-06-5.16988E-26
 -1       253 5.22238E-05 3.55965E-06-8.27181E-25
 -1       254 5.22778E-05 3.53749E-06 0.00000E+00
 -1       255 5.23317E-05 3.05194E-06 0.00000E+00
 -1       256 5.23857E-05 2.22655E-06 0.00000E+00
 -1       257 5.24396E-05 1.17516E-06-1.65436E-24
 -1       258 5.24934E-05 1.10834E-08 8.27181E-25
 -1       259 5.25472E-05-1.15561E-06 0.00000E+00
 -1       260 5.26011E-05-2.21484E-06-8.27181E-25
 -1       261 5.26551E-05-3.05343E-06-1.65436E-24
 -1       262 5.27090E-05-3.55775E-06-8.27181E-25
 -1       263 5.27629E-05-3.60456E-06 0.00000E+00
 -1       264 5.28148E-05-3.06958E-06 0.00000E+00
 -1       265 5.28668E-05-1.81200E-06 0.00000E+00
 -1       266 4.94683E-05-4.80866E-07 0.00000E+00
 -1       267 4.68576E-05-4.85512E-07 0.00000E+00
 -1       268 4.42469E-05-4.90620E-07 8.27181E-25
 -1       269 4.16363E-05-4.94361E-07 2.06795E-25
 -1       270 3.90256E-05-4.98070E-07-2.06795E-25
 -1       271 5.04945E-05 1.47068E-06 0.00000E+00
 -1       272 4.91521E-05 2.69259E-06 0.00000E+00
 -1       273 4.80450E-05 3.29159E-06 2.64698E-23
 -1       274 4.71338E-05 3.35745E-06 1.32349E-23
 -1       275 4.63854E-05 2.98845E-06 0.00000E+00
 -1       276 4.57613E-05 2.28575E-06 0.00000E+00
 -1       277 4.52227E-05 1.35428E-06-2.64698E-23
 -1       278 4.47296E-05 3.01074E-07-1.32349E-23
 -1       279 4.42415E-05-7.65581E-07 0.00000E+00
 -1       280 4.37178E-05-1.73722E-06 0.00000E+00
 -1       281 4.31185E-05-2.50646E-06 0.00000E+00
 -1       282 4.24044E-05-2.96779E-06-1.32349E-23
 -1       283 4.15367E-05-3.01909E-06-2.64698E-23
 -1       284 4.04808E-05-2.56130E-06-1.32349E-23
 -1       285 3.91981E-05-1.50266E-06 0.00000E+00
 -1       301 5.03280E-05 2.97469E-07-3.30872E-24
 -1       302 4.77488E-05 2.92059E-07-8.27181E-25
 -1       303 4.51818E-05 2.86875E-07 0.00000E+00
 -1       304 4.26390E-05 2.80822E-07-1.65436E-24
 -1       305 4.01323E-05 2.73542E-07 0.00000E+00
 -1       306 5.12781E-05 2.19022E-06 0.00000E+00
 -1       307 4.99062E-05 3.30547E-06 0.00000E+00
 -1       308 4.88064E-05 3.70239E-06-2.64698E-23
 -1       309 4.79518E-05 3.43196E-06 0.00000E+00
 -1       310 4.73067E-05 2.60219E-06 0.00000E+00
 -1       311 4.68250E-05 1.33311E-06-1.32349E-23
 -1       312 4.64492E-05-2.19598E-07 0.00000E+00
 -1       313 4.61186E-05-1.89355E-06-1.32349E-23
 -1       314 4.57688E-05-3.51635E-06-2.64698E-23
 -1       315 4.53362E-05-4.91687E-06 1.32349E-23
 -1       316 4.47634E-05-5.94223E-06 2.64698E-23
 -1       317 4.39972E-05-6.44852E-06-1.32349E-23
 -1       318 4.29983E-05-6.33373E-06-2.64698E-23
 -1       319 4.17386E-05-5.50916E-06 0.00000E+00
 -1       320 4.01989E-05-3.94700E-06 0.00000E+00
 -1       336 5.01878E-05-9.28141E-07 0.00000E+00
 -1       337 4.83540E-05-1.06649E-06 0.00000E+00
 -1       338 4.62565E-05-1.20531E-06 0.00000E+00
 -1       339 4.38977E-05-1.34447E-06 0.00000E+00
 -1       340 4.12800E-05-1.48427E-06 0.00000E+00
 -1       406 3.96683E-05 3.17627E-07 1.65436E-24
 -1       407 3.95488E-05 3.62975E-07 0.00000E+00
 -1       408 3.94135E-05 4.08293E-07 1.65436E-24
 -1       409 3.92622E-05 4.53526E-07 8.27181E-25
 -1       410 3.90950E-05 4.98584E-07 0.00000E+00
 -1       521 3.54067E-05 1.64800E-06 2.64698E-23
 -1       522 3.34277E-05 2.13143E-06 0.00000E+00
 -1       523 3.17717E-05 1.76434E-06 5.29396E-23
 -1       524 3.03957E-05 6.23768E-07 0.00000E+00
 -1       525 2.92440E-05-1.11689E-06 0.00000E+00
 -1       526 2.82414E-05-3.26173E-06 0.00000E+00
 -1       527 2.72986E-05-5.56708E-06 5.29396E-23
 -1       528 2.63221E-05-7.78291E-06-2.64698E-23
 -1       529 2.52226E-05-9.66935E-06 0.00000E+00
 -1       530 2.39159E-05-1.10008E-05 2.64698E-23
 -1       531 2.23411E-05-1.16163E-05 0.00000E+00
 -1       532 2.04503E-05-1.13853E-05 0.00000E+00
 -1       533 1.82291E-05-1.02760E-05 5.29396E-23
 -1       534 1.56875E-05-8.29127E-06-2.64698E-23
 -1       535 1.28532E-05-5.54196E-06 2.64698E-23
 -1       536 3.83979E-05 1.04656E-06-1.65436E-24
 -1       537 3.83948E-05 3.05760E-06 0.00000E+00
 -1       538 3.83924E-05 4.47721E-06 0.00000E+00
 -1       539 3.83913E-05 5.37273E-06 0.00000E+00
 -1       540 3.83906E-05 5.81206E-06 0.00000E+00
 -1       541 3.83901E-05 5.86313E-06 0.00000E+00
 -1       542 3.83896E-05 5.59420E-06 0.00000E+00
 -1       543 3.83891E-05 5.07357E-06 0.00000E+00
 -1       544 3.83885E-05 4.36975E-06 0.00000E+00
 -1       545 3.83877E-05 3.55124E-06 0.00000E+00
 -1       546 3.83870E-05 2.68667E-06 3.23117E-27
 -1       547 3.83863E-05 1.84464E-06 0.00000E+00
 -1       548 3.83857E-05 1.09376E-06 0.00000E+00
 -1       549 3.83853E-05 5.02604E-07-5.16988E-26
 -1       550 3.83849E-05 1.39658E-07-2.06795E-25
 -1       551 3.46128E-05-1.70412E-06 3.30872E-24
 -1       552 3.00760E-05-1.78672E-06-4.13590E-25
 -1       553 2.50610E-05-1.87164E-06 1.65436E-24
 -1       554 1.98364E-05-1.95888E-06 0.00000E+00
 -1       555 1.46710E-05-2.04729E-06 0.00000E+00
 -1       556 3.74138E-05 9.54632E-07-6.61744E-24
 -1       557 3.66554E-05 2.92374E-06 0.00000E+00
 -1       558 3.61059E-05 4.34038E-06 0.00000E+00
 -1       559 3.57418E-05 5.26523E-06 0.00000E+00
 -1       560 3.55401E-05 5.75879E-06 0.00000E+00
 -1       561 3.54775E-05 5.88189E-06 0.00000E+00
 -1       562 3.55312E-05 5.69537E-06 0.00000E+00
 -1       563 3.56780E-05 5.26013E-06 0.00000E+00
 -1       564 3.58952E-05 4.63711E-06 0.00000E+00
 -1       565 3.61599E-05 3.88723E-06 0.00000E+00
 -1       566 3.64493E-05 3.07146E-06 0.00000E+00
 -1       567 3.67405E-05 2.25076E-06 2.06795E-25
 -1       568 3.70108E-05 1.48607E-06 0.00000E+00
 -1       569 3.72373E-05 8.38271E-07 0.00000E+00
 -1       570 3.73972E-05 3.68282E-07 0.00000E+00
 -1       571 3.84173E-05 1.23689E-07-6.20385E-25
 -1       572 3.84500E-05 1.52289E-07 4.13590E-25
 -1       573 3.84829E-05 1.63029E-07 4.13590E-25
 -1       574 3.85158E-05 1.59978E-07-4.13590E-25
 -1       575 3.85489E-05 1.47224E-07 8.27181E-25
 -1       576 3.85819E-05 1.28879E-07 0.00000E+00
 -1       577 3.86149E-05 1.09060E-07 0.00000E+00
 -1       578 3.86480E-05 9.18867E-08 0.00000E+00
 -1       579 3.86810E-05 8.14795E-08 0.00000E+00
 -1       580 3.87140E-05 8.19583E-08 0.00000E+00
 -1       581 3.87471E-05 9.74427E-08 0.00000E+00
 -1       582 3.87801E-05 1.32047E-07 0.00000E+00
 -1       583 3.88131E-05 1.89883E-07 0.00000E+00
 -1       584 3.88462E-05 2.75018E-07 0.00000E+00
 -1       585 3.88792E-05 3.91497E-07 1.65436E-24
 -1       586 3.82212E-05 8.43997E-08 8.27181E-25
 -1       587 3.80431E-05 9.51525E-08 0.00000E+00
 -1       588 3.78649E-05 1.05785E-07 0.00000E+00
 -1       589 3.77004E-05 1.16248E-07 0.00000E+00
 -1       590 3.75638E-05 1.26425E-07 0.00000E+00
 -1       591 3.83512E-05 1.40382E-07-2.58494E-26
 -1       592 3.83226E-05 1.89389E-07 0.00000E+00
 -1       593 3.82993E-05 2.23813E-07 0.00000E+00
 -1       594 3.82802E-05 2.46740E-07 0.00000E+00
 -1       595 3.82642E-05 2.61299E-07 0.00000E+00
 -1       596 3.82501E-05 2.70593E-07 1.03398E-25
 -1       597 3.82368E-05 2.77724E-07 0.00000E+00
 -1       598 3.82232E-05 2.85795E-07-1.03398E-25
 -1       599 3.82081E-05 2.97903E-07 0.00000E+00
 -1       600 3.81903E-05 3.17150E-07 0.00000E+00
 -1       601 3.81687E-05 3.46635E-07 0.00000E+00
 -1       602 3.81420E-05 3.89462E-07 5.16988E-26
 -1       603 3.81093E-05 4.48733E-07 1.29247E-25
 -1       604 3.80694E-05 5.27579E-07 0.00000E+00
 -1       605 3.80211E-05 6.29085E-07 0.00000E+00
 -1       606 3.89182E-05 7.69705E-07 0.00000E+00
 -1       607 3.89232E-05 1.04358E-06 0.00000E+00
 -1       608 3.89279E-05 1.36191E-06-1.65436E-24
 -1       609 3.89324E-05 1.72155E-06 0.00000E+00
 -1       610 3.89368E-05 2.11939E-06 0.00000E+00
 -1       611 3.89412E-05 2.55222E-06 0.00000E+00
 -1       612 3.89456E-05 3.01687E-06 0.00000E+00
 -1       613 3.89499E-05 3.51013E-06 0.00000E+00
 -1       614 3.89543E-05 4.02883E-06 0.00000E+00
 -1       615 3.89586E-05 4.56977E-06 0.00000E+00
 -1       616 3.89629E-05 5.12976E-06-8.27181E-25
 -1       617 3.89672E-05 5.70561E-06 2.06795E-25
 -1       618 3.89715E-05 6.29412E-06 0.00000E+00
 -1       619 3.89758E-05 6.89211E-06-4.13590E-25
 -1       620 3.89800E-05 7.49638E-06 0.00000E+00
 -1       621 3.87316E-05 5.78684E-07 0.00000E+00
 -1       622 3.85637E-05 6.14490E-07 0.00000E+00
 -1       623 3.84057E-05 6.50291E-07-8.27181E-25
 -1       624 3.82550E-05 6.86035E-07 0.00000E+00
 -1       625 3.81088E-05 7.21717E-07 0.00000E+00
 -1       626 3.88652E-05 7.80911E-07 1.65436E-24
 -1       627 3.88040E-05 1.05789E-06-1.65436E-24
 -1       628 3.87295E-05 1.37036E-06 1.65436E-24
 -1       629 3.86432E-05 1.71445E-06-8.27181E-25
 -1       630 3.85465E-05 2.08630E-06 0.00000E+00
 -1       631 3.84408E-05 2.48201E-06 8.27181E-25
 -1       632 3.83276E-05 2.89767E-06 0.00000E+00
 -1       633 3.82084E-05 3.32939E-06 8.27181E-25
 -1       634 3.80846E-05 3.77327E-06 0.00000E+00
 -1       635 3.79578E-05 4.22540E-06 0.00000E+00
 -1       636 3.78293E-05 4.68189E-06-8.27181E-25
 -1       637 3.77006E-05 5.13883E-06 4.13590E-25
 -1       638 3.75731E-05 5.59232E-06-8.27181E-25
 -1       639 3.74484E-05 6.03846E-06 0.00000E+00
 -1       640 3.73277E-05 6.47335E-06 0.00000E+00
 -1       656 3.84795E-05 7.90680E-06 3.30872E-24
 -1       657 3.81528E-05 7.70194E-06 0.00000E+00
 -1       658 3.79346E-05 7.49770E-06 0.00000E+00
 -1       659 3.77546E-05 7.29363E-06 1.65436E-24
 -1       660 3.75383E-05 7.08892E-06 0.00000E+00
 -1       661 3.87973E-05 8.69908E-06 4.13590E-25
 -1       662 3.86215E-05 9.26930E-06-4.13590E-25
 -1       663 3.84548E-05 9.81490E-06 0.00000E+00
 -1       664 3.82972E-05 1.03370E-05-4.13590E-25
 -1       665 3.81481E-05 1.08366E-05-8.27181E-25
 -1       666 3.80072E-05 1.13145E-05 0.00000E+00
 -1       667 3.78741E-05 1.17718E-05 0.00000E+00
 -1       668 3.77483E-05 1.22092E-05 0.00000E+00
 -1       669 3.76297E-05 1.26278E-05 0.00000E+00
 -1       670 3.75179E-05 1.30282E-05-4.13590E-25
 -1       671 3.74125E-05 1.34115E-05 8.27181E-25
 -1       672 3.73131E-05 1.37784E-05-4.13590E-25
 -1       673 3.72197E-05 1.41297E-05 0.00000E+00
 -1       674 3.71314E-05 1.44660E-05 4.13590E-25
 -1       675 3.70485E-05 1.47883E-05 0.00000E+00
 -1       676 3.84221E-05 1.52902E-05-8.27181E-25
 -1       677 3.81310E-05 1.52512E-05 0.00000E+00
 -1       678 3.78400E-05 1.52122E-05 8.27181E-25
 -1       679 3.75492E-05 1.51733E-05 0.00000E+00
 -1       680 3.72586E-05 1.51345E-05-8.27181E-25
 -1       771 7.88777E-06 1.52859E-06 1.32349E-23
 -1       772 6.19446E-06 4.53076E-06-1.32349E-23
 -1       773 4.74042E-06 6.89911E-06-2.64698E-23
 -1       774 3.50914E-06 8.67596E-06 0.00000E+00
 -1       775 2.48450E-06 9.90411E-06-2.64698E-23
 -1       776 1.64986E-06 1.06272E-05 0.00000E+00
 -1       777 9.88463E-07 1.08891E-05 1.32349E-23
 -1       778 4.83323E-07 1.07347E-05 0.00000E+00
 -1       779 1.17391E-07 1.02090E-05 1.32349E-23
 -1       780-1.26559E-07 9.35757E-06 0.00000E+00
 -1       781-2.65780E-07 8.22628E-06-1.32349E-23
 -1       782-3.17661E-07 6.86145E-06 0.00000E+00
 -1       783-2.99605E-07 5.30954E-06 0.00000E+00
 -1       784-2.29070E-07 3.61734E-06-6.61744E-24
 -1       785-1.23574E-07 1.83174E-06 1.32349E-23
 -1       786 3.74976E-05 1.36465E-07 4.13590E-25
 -1       787 3.75285E-05 1.37797E-07 4.13590E-25
 -1       788 3.75593E-05 1.40273E-07 8.27181E-25
 -1       789 3.75904E-05 1.44515E-07 4.13590E-25
 -1       790 3.76216E-05 1.51271E-07 0.00000E+00
 -1       791 3.76528E-05 1.61292E-07-4.13590E-25
 -1       792 3.76841E-05 1.75558E-07 0.00000E+00
 -1       793 3.77153E-05 1.95058E-07 4.13590E-25
 -1       794 3.77465E-05 2.21147E-07 0.00000E+00
 -1       795 3.77778E-05 2.55192E-07 4.13590E-25
 -1       796 3.78090E-05 2.99118E-07-8.27181E-25
 -1       797 3.78402E-05 3.54866E-07 0.00000E+00
 -1       798 3.78715E-05 4.25211E-07-8.27181E-25
 -1       799 3.79026E-05 5.12945E-07 4.13590E-25
 -1       800 3.79338E-05 6.22090E-07 8.27181E-25
 -1       801 3.49382E-05 1.38463E-07 4.13590E-25
 -1       802 2.74132E-05 1.17173E-07 0.00000E+00
 -1       803 1.75260E-05 7.70280E-08-1.65436E-24
 -1       804 7.90865E-06 3.58200E-08 0.00000E+00
 -1       805 1.18968E-06 1.72448E-08 0.00000E+00
 -1       806 3.74295E-05 1.15570E-07 8.27181E-25
 -1       807 3.73890E-05 9.56848E-08 0.00000E+00
 -1       808 3.73472E-05 7.84201E-08-8.27181E-25
 -1       809 3.73034E-05 6.58291E-08 4.13590E-25
 -1       810 3.72571E-05 5.99609E-08-8.27181E-25
 -1       811 3.72076E-05 6.28343E-08 0.00000E+00
 -1       812 3.71539E-05 7.64662E-08-8.27181E-25
 -1       813 3.70955E-05 1.02868E-07 4.13590E-25
 -1       814 3.70315E-05 1.44053E-07-8.27181E-25
 -1       815 3.69612E-05 2.02029E-07 0.00000E+00
 -1       816 3.68839E-05 2.78806E-07 8.27181E-25
 -1       817 3.67988E-05 3.76394E-07 8.27181E-25
 -1       818 3.67051E-05 4.96801E-07-8.27181E-25
 -1       819 3.66022E-05 6.42029E-07 4.13590E-25
 -1       820 3.64893E-05 8.14079E-07 8.27181E-25
 -1       821 3.79201E-05 9.20662E-07 0.00000E+00
 -1       822 3.78730E-05 1.11795E-06-4.13590E-25
 -1       823 3.78261E-05 1.35334E-06-1.65436E-24
 -1       824 3.77786E-05 1.63150E-06 0.00000E+00
 -1       825 3.77312E-05 1.95280E-06-1.65436E-24
 -1       826 3.76836E-05 2.31749E-06 0.00000E+00
 -1       827 3.76360E-05 2.72142E-06 0.00000E+00
 -1       828 3.75883E-05 3.16039E-06 8.27181E-25
 -1       829 3.75407E-05 3.62661E-06 0.00000E+00
 -1       830 3.74930E-05 4.11225E-06 8.27181E-25
 -1       831 3.74454E-05 4.60752E-06 0.00000E+00
 -1       832 3.73979E-05 5.10258E-06-8.27181E-25
 -1       833 3.73503E-05 5.58763E-06 1.65436E-24
 -1       834 3.73034E-05 6.05290E-06 0.00000E+00
 -1       835 3.72562E-05 6.49060E-06 4.13590E-25
 -1       836 3.77701E-05 7.99676E-07 0.00000E+00
 -1       837 3.75191E-05 8.43610E-07 0.00000E+00
 -1       838 3.72322E-05 8.87466E-07 0.00000E+00
 -1       839 3.69305E-05 9.31044E-07 4.13590E-25
 -1       840 3.66349E-05 9.74553E-07 0.00000E+00
 -1       856 3.71984E-05 7.30551E-06 0.00000E+00
 -1       857 3.71833E-05 7.76990E-06 0.00000E+00
 -1       858 3.71683E-05 8.27798E-06-4.13590E-25
 -1       859 3.71530E-05 8.82150E-06 2.06795E-25
 -1       860 3.71377E-05 9.39222E-06 0.00000E+00
 -1       861 3.71223E-05 9.98185E-06 2.06795E-25
 -1       862 3.71069E-05 1.05821E-05 0.00000E+00
 -1       863 3.70915E-05 1.11847E-05 2.06795E-25
 -1       864 3.70761E-05 1.17814E-05 4.13590E-25
 -1       865 3.70607E-05 1.23638E-05 2.06795E-25
 -1       866 3.70453E-05 1.29237E-05 0.00000E+00
 -1       867 3.70299E-05 1.34527E-05 0.00000E+00
 -1       868 3.70146E-05 1.39428E-05 0.00000E+00
 -1       869 3.69992E-05 1.43855E-05 2.06795E-25
 -1       870 3.69839E-05 1.47728E-05 0.00000E+00
 -1       871 3.68969E-05 6.89265E-06 2.06795E-25
 -1       872 3.66317E-05 6.89124E-06 0.00000E+00
 -1       873 3.63949E-05 6.88965E-06 0.00000E+00
 -1       874 3.61648E-05 6.88780E-06-1.03398E-25
 -1       875 3.59198E-05 6.88572E-06 0.00000E+00
 -1       876 3.71025E-05 7.30977E-06 0.00000E+00
 -1       877 3.69848E-05 7.75176E-06 0.00000E+00
 -1       878 3.68588E-05 8.21592E-06 0.00000E+00
 -1       879 3.67257E-05 8.69944E-06 0.00000E+00
 -1       880 3.65864E-05 9.19944E-06 0.00000E+00
 -1       881 3.64420E-05 9.71307E-06 8.27181E-25
 -1       882 3.62935E-05 1.02375E-05 0.00000E+00
 -1       883 3.61421E-05 1.07699E-05 0.00000E+00
 -1       884 3.59887E-05 1.13074E-05 0.00000E+00
 -1       885 3.58345E-05 1.18472E-05 0.00000E+00
 -1       886 3.56805E-05 1.23864E-05 0.00000E+00
 -1       887 3.55277E-05 1.29223E-05-4.13590E-25
 -1       888 3.53771E-05 1.34518E-05-8.27181E-25
 -1       889 3.52298E-05 1.39723E-05 4.13590E-25
 -1       890 3.50867E-05 1.44807E-05 4.13590E-25
 -1       891 3.66881E-05 1.50759E-05-4.13590E-25
 -1       892 3.63989E-05 1.50553E-05 0.00000E+00
 -1       893 3.60904E-05 1.50347E-05 0.00000E+00
 -1       894 3.57524E-05 1.50142E-05 0.00000E+00
 -1       895 3.53746E-05 1.49936E-05 2.06795E-25
 -1       956 3.63217E-05 1.27455E-06 0.00000E+00
 -1       957 3.62763E-05 1.56334E-06 0.00000E+00
 -1       958 3.62308E-05 1.87826E-06 0.00000E+00
 -1       959 3.61852E-05 2.21610E-06-4.13590E-25
 -1       960 3.61395E-05 2.57364E-06 0.00000E+00
 -1       961 3.60939E-05 2.94766E-06-4.13590E-25
 -1       962 3.60482E-05 3.33491E-06-8.27181E-25
 -1       963 3.60025E-05 3.73217E-06 0.00000E+00
 -1       964 3.59569E-05 4.13620E-06-1.65436E-24
 -1       965 3.59112E-05 4.54376E-06-8.27181E-25
 -1       966 3.58655E-05 4.95162E-06 0.00000E+00
 -1       967 3.58198E-05 5.35654E-06 0.00000E+00
 -1       968 3.57742E-05 5.75528E-06 3.30872E-24
 -1       969 3.57286E-05 6.14463E-06 8.27181E-25
 -1       970 3.56832E-05 6.52135E-06 1.65436E-24
 -1       971 3.55958E-05 7.25316E-06 0.00000E+00
 -1       972 3.55525E-05 7.66251E-06-4.13590E-25
 -1       973 3.55092E-05 8.10614E-06-1.65436E-24
 -1       974 3.54657E-05 8.57961E-06 8.27181E-25
 -1       975 3.54223E-05 9.07849E-06-1.65436E-24
 -1       976 3.53788E-05 9.59835E-06 4.13590E-25
 -1       977 3.53353E-05 1.01347E-05 0.00000E+00
 -1       978 3.52918E-05 1.06832E-05 0.00000E+00
 -1       979 3.52483E-05 1.12394E-05 0.00000E+00
 -1       980 3.52048E-05 1.17987E-05-8.27181E-25
 -1       981 3.51614E-05 1.23569E-05 0.00000E+00
 -1       982 3.51179E-05 1.29093E-05-8.27181E-25
 -1       983 3.50745E-05 1.34517E-05-1.65436E-24
 -1       984 3.50313E-05 1.39795E-05 0.00000E+00
 -1       985 3.49883E-05 1.44883E-05 0.00000E+00
 -3
    1PSTEP                         2           1           1          
  100CL  101 2.50000E-01         409                     0    1           1
 -4  STRESS      6    1
 -5  SXX         1    4    1    1
 -5  SYY         1    4    2    2
 -5  SZZ         1    4    3    3
 -5  SXY         1    4    1    2
 -5  SYZ         1    4    2    3
 -5  SZX         1    4    3    1
 -1         1-8.63691E+05-3.98527E+05-1.75181E+05-5.58286E+05 2.36469E-11 1.48430E-09
 -1         2 1.44494E+03 1.60252E+05 4.70769E+03 2.67880E+02-9.10063E-11 4.73676E-09
 -1         3-2.17421E+01-3.75528E+05 4.13225E+01-7.78594E+01 9.86189E-11-5.24778E-09
 -1         5-2.14377E+00 1.29837E+05 3.39958E+00-5.15056E-02 5.38300E-11-2.22417E-08
 -1         8-4.06897E+05-1.77328E+05-1.38380E+04-3.08569E+05 1.43700E-10 3.76895E-09
 -1         9-6.98085E+05-1.82485E+05-6.93187E+04-2.42670E+05 1.92085E-09 2.61643E-09
 -1        10-1.07218E+02-3.83387E+05-3.61032E+02-4.81319E+02-6.23459E-10-4.00819E-09
 -1        12-7.48240E-01 1.29844E+05 1.10194E+02-1.07066E-01 7.53442E-11-3.64344E-08
 -1        15 1.07570E+03 5.91150E+02 3.47717E+03 1.21439E+00-1.32682E-08-5.28167E-06
 -1        16-1.96290E+06-6.33139E+05-3.05214E+05-6.44234E+05 5.95901E-09-1.02834E-09
 -1        17-4.32626E+05-2.68077E+05-8.31672E+04-2.53304E+05-2.79906E-09-2.86673E-10
 -1        18 1.60408E+04 1.58397E+03-5.96332E+03-3.05514E+04 3.53907E-10-8.91077E-10
 -1        19 4.06944E+04 4.85268E+04-2.23882E+02 7.97655E+03-3.14230E-10-9.33142E-10
 -1        20-1.68582E+04-1.92371E+05-4.24132E+04 1.43415E+04 1.88008E-09 3.13321E-09
 -1        21-1.82293E+01-1.11628E+05-3.60561E+02-2.22965E+01-2.82302E-09 2.04169E-09
 -1        24-1.72194E+06-6.03103E+05-2.46005E+05-7.35749E+05-8.36614E-09-4.44318E-09
 -1        25 1.47959E+04-3.61406E+03 8.70745E+03-5.51409E+04 1.95132E-10 3.42061E-09
 -1        26-9.41571E+03 3.31641E+04-6.58162E+03-4.73453E+03 8.26731E-10 2.79914E-10
 -1        27-3.08066E+04-1.05563E+05-3.96012E+04 2.37902E+04 2.41914E-09-1.44761E-10
 -1        28 8.62011E+03-3.08392E+04 6.29987E+03 9.89509E+03 2.69253E-09-1.53048E-09
 -1        32-4.12952E+05-6.50167E+04 1.76725E+05-2.77050E+05-8.01083E-09 7.47225E-09
 -1        33-6.03906E+04 3.10511E+04 1.10086E+04-1.80252E+04 6.11881E-10 4.76878E-10
 -1        34-7.83963E+04-7.80315E+03 1.86219E+02 2.41065E+04 2.01054E-09 4.88096E-10
 -1        35-8.77242E+03-1.22689E+04-4.77792E+02 1.94405E+04 3.80101E-09 2.42350E-09
 -1        51 8.23833E+03-2.04684E+05 1.98471E+04-5.03594E+05 2.91038E-11 8.42556E-09
 -1        52 3.99371E+03-2.02635E+05 1.30328E+04-5.87345E+05 2.65572E-10 1.07684E-09
 -1        53 2.40237E+03-2.07402E+05 1.13520E+04-5.01890E+05 3.89264E-10 2.19006E-09
 -1        54 7.88791E+03-2.05311E+05 1.82972E+04-5.89162E+05 4.00178E-11-3.27964E-09
 -1        55 1.81403E+04-2.11912E+05 3.29196E+04-5.01681E+05 3.49246E-10 1.53159E-09
 -1        56-1.65909E+06-1.87711E+05-1.29568E+05-6.39996E+05 2.16460E-10-7.43603E-09
 -1        57-1.71175E+06-3.04244E+05-8.73235E+04-6.34318E+05-7.27596E-10 2.29193E-10
 -1        58-1.68485E+06-2.29000E+05-3.05063E+04-6.32200E+05 3.71983E-10 2.31194E-09
 -1        59-1.68196E+06-2.55840E+05-1.82118E+04-6.43688E+05 1.34605E-10-3.20142E-10
 -1        60-1.68864E+06-2.34735E+05-7.13175E+03-6.31124E+05-6.72117E-10-1.58866E-09
 -1        61-1.67785E+06-2.48848E+05-4.05637E+03-6.44618E+05 3.64992E-10-1.23453E-09
 -1        62-1.68890E+06-2.35818E+05-1.95456E+03-6.31325E+05-1.36083E-10-1.78531E-10
 -1        63-1.67818E+06-2.47104E+05-1.61124E+03-6.43673E+05 5.38421E-10 2.31819E-09
 -1        64-1.68829E+06-2.36473E+05-1.84634E+03-6.32058E+05 1.16950E-09-7.01868E-09
 -1        65-1.68019E+06-2.46258E+05-3.70561E+03-6.41719E+05 3.71813E-10-3.03100E-09
 -1        66-1.68687E+06-2.36701E+05-6.50906E+03-6.33253E+05-7.03153E-10 4.13365E-10
 -1        67-1.68612E+06-2.50347E+05-1.65312E+04-6.38256E+05-7.49196E-10-9.04038E-10
 -1        68-1.68237E+06-2.32563E+05-2.77368E+04-6.35448E+05 6.73708E-10 1.05501E-09
 -1        69-1.71509E+06-2.92398E+05-7.93062E+04-6.27561E+05 9.78616E-10-3.49246E-10
 -1        70-1.65811E+06-1.95905E+05-1.17727E+05-6.43491E+05-6.09361E-10 1.49885E-09
 -1        86-7.23921E+02 1.58852E+05 5.05396E+03-1.33947E+02 6.59725E-10 2.33388E-09
 -1        87 4.80722E+03 1.61888E+05 1.05298E+04 5.48155E+02 1.08821E-09 1.23839E-09
 -1        88-4.07628E+03 1.57216E+05 1.61368E+04-4.14221E+02 1.59253E-09-5.01302E-10
 -1        89 3.03805E+04 1.73786E+05 4.34953E+04 1.16833E+03 2.47383E-09 1.64302E-09
 -1        90-2.62134E+04 1.46958E+05 6.14614E+04-7.53939E+02 2.76486E-09 5.04542E-10
 -1       121-3.54920E+01-3.75652E+05 3.04257E+01 3.89085E+01 4.44373E-11 2.18279E-09
 -1       122-6.07623E+00-3.75519E+05 8.88770E+01-1.55704E+02 6.61906E-10 2.03727E-09
 -1       123-4.70625E+01-3.75663E+05 1.32075E+02 1.16668E+02 3.02052E-10-5.05042E-09
 -1       124 1.78696E+02-3.75410E+05 3.72134E+02-3.72450E+02 1.44303E-09 1.15301E-09
 -1       125-1.71651E+02-3.75764E+05 5.41502E+02 2.55602E+02 4.34738E-10-1.63254E-09
 -1       191-2.36350E+00 1.29848E+05 4.07948E+00 2.55928E-02 8.72905E-11-1.02636E-08
 -1       192-2.45577E+00 1.29837E+05 7.19765E+00 1.57171E-01 1.28143E-10-4.18277E-09
 -1       193-3.19335E+00 1.29847E+05 1.34017E+01-1.83888E-01 1.37825E-10-2.30511E-09
 -1       194-3.46002E+00 1.29838E+05 2.72250E+01 4.95048E-01 4.35527E-11-4.77121E-09
 -1       195-4.78859E+00 1.29847E+05 5.32706E+01-3.14298E-01 1.92649E-10-1.64050E-08
 -1       251 1.43837E+05-2.54014E+04 5.93872E+04 2.15391E+03 8.96989E-11 3.65981E-09
 -1       252 1.70430E+05 2.94032E+04 4.20578E+04-7.51752E+03-1.06752E-10 2.67391E-09
 -1       253 1.53958E+05-3.93434E+03 1.53742E+04 1.62305E+03 2.10036E-10 2.09184E-10
 -1       254 1.58549E+05 4.54869E+03 9.69621E+03-6.67409E+03-1.80066E-10-7.06677E-10
 -1       255 1.55685E+05-6.08273E+02 3.97253E+03 1.31059E+03 2.90953E-10 1.76897E-09
 -1       256 1.56497E+05 7.20685E+02 2.41062E+03-6.21097E+03-2.45464E-10 3.54507E-09
 -1       257 1.55995E+05-1.06686E+02 1.24255E+03 1.15992E+03 1.34015E-10-1.84210E-09
 -1       258 1.56183E+05 2.23526E+02 1.10186E+03-6.05848E+03-8.41696E-11 1.30805E-09
 -1       259 1.55994E+05-1.08911E+02 1.26360E+03 1.15810E+03-2.78312E-10-3.72313E-09
 -1       260 1.56505E+05 7.40198E+02 2.47051E+03-6.20424E+03 3.77334E-10-3.57480E-09
 -1       261 1.55677E+05-6.25346E+02 4.08193E+03 1.30568E+03 3.86137E-10 1.36447E-09
 -1       262 1.58608E+05 4.67749E+03 9.96634E+03-6.65956E+03 2.16687E-10 8.77662E-10
 -1       263 1.53906E+05-4.04533E+03 1.58097E+04 1.61343E+03-4.99483E-10 3.95812E-09
 -1       264 1.70810E+05 3.02342E+04 4.32411E+04-7.49423E+03-1.13582E-09 3.39651E-09
 -1       265 1.43508E+05-2.61177E+04 6.10703E+04 2.14022E+03-8.59586E-10 4.47835E-09
 -1       266-1.94739E+04-9.10661E+03 4.56882E+04-2.59832E+01-2.08365E-08-8.31788E-06
 -1       267 2.25754E+04 1.06130E+04 3.22933E+04 2.99810E+01-4.12092E-08-1.64310E-05
 -1       268-3.02733E+03-1.50314E+03 1.20032E+04-3.81998E+00-3.30792E-08-1.31755E-05
 -1       269 3.57437E+03 1.79888E+03 7.80195E+03 4.44982E+00-2.48516E-08-9.93021E-06
 -1       270-5.36517E+02-2.95573E+02 3.76611E+03-6.03848E-01-1.83737E-08-7.31709E-06
 -1       271-1.91320E+06-2.37732E+05-1.47112E+05-7.44055E+05 9.20409E-10 9.09495E-10
 -1       272-1.95293E+06-3.58263E+05-9.45997E+04-7.57990E+05-6.70525E-10-3.32602E-09
 -1       273-1.94086E+06-2.74392E+05-3.47471E+04-7.37547E+05-3.70619E-11 2.06637E-09
 -1       274-1.92076E+06-3.13189E+05-1.94687E+04-7.67903E+05-8.00128E-10 7.86258E-10
 -1       275-1.94495E+06-2.77919E+05-8.08293E+03-7.36114E+05-2.98314E-10-1.72622E-09
 -1       276-1.91595E+06-3.09003E+05-4.30367E+03-7.70194E+05 5.16366E-10 3.61842E-09
 -1       277-1.94581E+06-2.77964E+05-2.10442E+03-7.35586E+05-9.18135E-10 2.27226E-09
 -1       278-1.91513E+06-3.08873E+05-1.53191E+03-7.70826E+05 7.06564E-11 3.24331E-09
 -1       279-1.94586E+06-2.77956E+05-1.64280E+03-7.35556E+05-1.16461E-09-3.53907E-09
 -1       280-1.91569E+06-3.08878E+05-3.01036E+03-7.70342E+05 1.10958E-09 9.86120E-10
 -1       281-1.94519E+06-2.78027E+05-5.49775E+03-7.36013E+05-8.07177E-10 1.76306E-09
 -1       282-1.91919E+06-3.11386E+05-1.31382E+04-7.68402E+05 1.83127E-09 1.34150E-09
 -1       283-1.94220E+06-2.75899E+05-2.34336E+04-7.37232E+05 7.56245E-10-2.94858E-09
 -1       284-1.94136E+06-3.41173E+05-6.37271E+04-7.60994E+05 7.90351E-10-1.22964E-09
 -1       285-1.92320E+06-2.51596E+05-9.91589E+04-7.42023E+05 5.96629E-10 3.35422E-09
 -1       301 7.33620E+03-4.64387E+03 5.73659E+04-1.42832E+04-6.54836E-10-2.30548E-09
 -1       302 7.87586E+03 9.92310E+03 4.14358E+04-2.10033E+04 7.87509E-10-1.34014E-09
 -1       303 3.29942E+02 5.07282E+02 3.81580E+04-1.43046E+04-3.65617E-10-3.73188E-09
 -1       304 1.48806E+04 1.63815E+04 6.42039E+04-2.09481E+04 2.87400E-10 4.06908E-09
 -1       305 1.47526E+04-1.10722E+04 1.07744E+05-1.43081E+04-8.18545E-10 3.30738E-09
 -1       306-2.06293E+06-2.35939E+05-1.57125E+05-8.02708E+05 1.47702E-09-1.66619E-09
 -1       307-2.13766E+06-3.75145E+05-1.07156E+05-7.82877E+05 1.77306E-09-3.07045E-09
 -1       308-2.09771E+06-2.85632E+05-3.69618E+04-7.88988E+05 1.14278E-09-7.83984E-10
 -1       309-2.09531E+06-3.19414E+05-2.24225E+04-8.01454E+05 3.12269E-10 9.47693E-10
 -1       310-2.10512E+06-2.90714E+05-8.67222E+03-7.84482E+05-2.64393E-10-8.91760E-10
 -1       311-2.08591E+06-3.14424E+05-5.04031E+03-8.07832E+05 2.45066E-09 2.51651E-09
 -1       312-2.10714E+06-2.90444E+05-2.46232E+03-7.82702E+05-2.43645E-10 2.74093E-09
 -1       313-2.08416E+06-3.14432E+05-2.22178E+03-8.09340E+05-1.99228E-09-2.01442E-09
 -1       314-2.10689E+06-2.90675E+05-2.66690E+03-7.82995E+05-4.29935E-10 1.02364E-09
 -1       315-2.08694E+06-3.13685E+05-5.63605E+03-8.06692E+05-3.35064E-10 5.91558E-09
 -1       316-2.10433E+06-2.91238E+05-9.79593E+03-7.85313E+05 8.54371E-10 4.67980E-09
 -1       317-2.09782E+06-3.19136E+05-2.53739E+04-7.99249E+05-3.48791E-10 6.10180E-09
 -1       318-2.09598E+06-2.85420E+05-4.18427E+04-7.90340E+05-1.28784E-09 2.38470E-09
 -1       319-2.14543E+06-3.82660E+05-1.21343E+05-7.78731E+05-1.78989E-09-1.55524E-09
 -1       320-2.05691E+06-2.28778E+05-1.77881E+05-8.05448E+05 3.08864E-09-1.28057E-09
 -1       336 1.43051E+02-3.91153E+05-1.36843E+03 2.25473E+02-3.69391E-09-4.06544E-10
 -1       337-5.20850E+02-3.91511E+05-1.82355E+03-6.13117E+02-6.49146E-09 3.60160E-10
 -1       338 1.83866E+02-3.91108E+05-2.66412E+03 3.86939E+02-4.80327E-09 2.21917E-10
 -1       339-2.91757E+03-3.92973E+05-6.14144E+03-9.33499E+02-8.44204E-09 4.50495E-09
 -1       340 2.01551E+03-3.89702E+05-9.56285E+03 5.44101E+02-5.58293E-09 1.69803E-09
 -1       406 7.68202E+00 1.29842E+05 2.17572E+02 4.16749E-01 3.19204E-10-1.70826E-08
 -1       407 7.51032E+01 1.29882E+05 4.62401E+02-5.65750E+00 4.72085E-11 3.06045E-10
 -1       408 2.37276E+02 1.29808E+05 9.23550E+02 5.28961E+00 3.34126E-10-6.73026E-10
 -1       409 9.97906E+02 1.30177E+05 2.07924E+03-4.74665E+01-8.02061E-11-6.30735E-10
 -1       410 2.86851E+03 1.29546E+05 4.24474E+03 4.30882E+01 3.46517E-10 8.22638E-10
 -1       521-3.88849E+06-4.47794E+05-2.90968E+05-1.51068E+06 1.60435E-09-5.64614E-09
 -1       522-4.02788E+06-7.00011E+05-1.97785E+05-1.47306E+06-7.27596E-10-1.68075E-09
 -1       523-3.95325E+06-5.37815E+05-6.84089E+04-1.48490E+06 1.85810E-09-1.22236E-09
 -1       524-3.94908E+06-5.98808E+05-4.12928E+04-1.50786E+06-9.41327E-10 7.23958E-10
 -1       525-3.96680E+06-5.46794E+05-1.59878E+04-1.47664E+06 2.87287E-10 5.95719E-10
 -1       526-3.93295E+06-5.88814E+05-9.22238E+03-1.51816E+06 1.80724E-09-1.05615E-10
 -1       527-3.96937E+06-5.47430E+05-4.42674E+03-1.47476E+06 1.66420E-09-1.78591E-09
 -1       528-3.93299E+06-5.85349E+05-3.79569E+03-1.51680E+06-3.75167E-11 1.40687E-11
 -1       529-3.96670E+06-5.50248E+05-4.44581E+03-1.47799E+06 7.65795E-10 2.13322E-09
 -1       530-3.94270E+06-5.78562E+05-9.08705E+03-1.50618E+06-2.38288E-09 4.97494E-09
 -1       531-3.95953E+06-5.54357E+05-1.59413E+04-1.48526E+06 3.86137E-10 3.43789E-09
 -1       532-3.96593E+06-5.81338E+05-4.09199E+04-1.48787E+06-4.60176E-10-2.30011E-09
 -1       533-3.94351E+06-5.47828E+05-6.79051E+04-1.49615E+06 9.27685E-11-2.06637E-09
 -1       534-4.04654E+06-6.79910E+05-1.96295E+05-1.45159E+06 1.43791E-09 3.07773E-09
 -1       535-3.87962E+06-4.57825E+05-2.88677E+05-1.52095E+06-5.63159E-09 3.89991E-09
 -1       536-6.42827E+03-1.09803E+04 2.53132E+04 2.53239E+02-8.69719E-10-2.20098E-10
 -1       537 5.14210E+03 1.27061E+04 1.80097E+04-9.89318E+02-3.94456E-09 2.54113E-09
 -1       538-2.10747E+03-1.72081E+03 6.53378E+03 2.36304E+02-4.31001E-10 2.27055E-09
 -1       539 5.73132E+01 1.98728E+03 4.15681E+03-9.73115E+02 7.89214E-10 2.02880E-09
 -1       540-1.34788E+03-2.67873E+02 1.65217E+03 2.37044E+02 2.16637E-10 4.12069E-09
 -1       541-8.65146E+02 3.06923E+02 9.79501E+02-9.75359E+02 2.99622E-10 2.76401E-09
 -1       542-1.18767E+03-3.98553E+01 3.97699E+02 2.38544E+02 6.99284E-10 8.50150E-10
 -1       543-1.07484E+03 3.86993E+01 1.99410E+02-9.77797E+02-1.42490E-10-5.23428E-10
 -1       544-1.13989E+03 1.38913E+00 3.32720E+01 2.39481E+02-8.28990E-11 1.08791E-10
 -1       545-1.15301E+03-4.57251E+01-1.07263E+02-9.79001E+02-2.39092E-10 3.04208E-10
 -1       546-1.11026E+03 4.50764E+01-2.56325E+02 2.39748E+02 1.42526E-10-1.57641E-09
 -1       547-1.28950E+03-3.35331E+02-6.81757E+02-9.78815E+02-1.38043E-09-1.41773E-09
 -1       548-1.00324E+03 2.90676E+02-1.10660E+03 2.39295E+02-1.24719E-09-6.33463E-10
 -1       549-2.08183E+03-2.14365E+03-3.02232E+03-9.76657E+02-7.08644E-10 2.96012E-09
 -1       550-3.16823E+02 1.85119E+03-4.30057E+03 2.37589E+02 1.23208E-11 3.50155E-11
 -1       551 2.98278E+03-2.06410E+05 1.16082E+04-3.54178E+05-1.50521E-08 5.14046E-09
 -1       552 5.84168E+03-2.05743E+05 1.48420E+04-5.03888E+05-1.12814E-08 1.44373E-08
 -1       553 3.57893E+03-2.08459E+05 2.31367E+04-3.53069E+05-1.85901E-08 6.62112E-09
 -1       554 1.69052E+04-1.97748E+05 4.91149E+04-5.04367E+05-1.16161E-08 3.53964E-09
 -1       555 1.78854E+04-2.17933E+05 8.83771E+04-3.53577E+05-1.90485E-08-7.91260E-10
 -1       556 2.81081E+04-6.54873E+04 2.29932E+04-8.83218E+04-5.09317E-09-6.14455E-09
 -1       557 5.47636E+04-8.80204E+04 1.20069E+04-1.10239E+05-7.23958E-10 4.29304E-09
 -1       558 2.85813E+04-6.88729E+04 4.95489E+03-8.53715E+04-6.08998E-09-3.88263E-09
 -1       559 5.18045E+04-9.13737E+04 2.48139E+03-1.11389E+05 1.87902E-09-6.46651E-10
 -1       560 2.82264E+04-6.86183E+04 1.07785E+03-8.55564E+04 1.66256E-09-2.01726E-09
 -1       561 5.10933E+04-9.12858E+04 5.49026E+02-1.11829E+05-1.65528E-10-1.54614E-09
 -1       562 2.79070E+04-6.83888E+04 2.30376E+02-8.57915E+04-4.11092E-10 1.83945E-10
 -1       563 5.07003E+04-9.11201E+04 1.27145E+02-1.12079E+05-6.69388E-10-9.09836E-10
 -1       564 2.77071E+04-6.82553E+04 4.80279E+01-8.59359E+04-1.05683E-09-7.51788E-09
 -1       565 5.04988E+04-9.10360E+04 2.01383E+01-1.12204E+05-1.82445E-09-4.37922E-09
 -1       566 2.76399E+04-6.82077E+04-1.77515E+01-8.59866E+04-1.71531E-09-3.76713E-09
 -1       567 5.04661E+04-9.10194E+04-6.75863E+01-1.12191E+05 3.20438E-09-6.11635E-10
 -1       568 2.77225E+04-6.82639E+04-1.68554E+02-8.59596E+04-4.92946E-10 8.76753E-10
 -1       569 5.02635E+04-9.09071E+04-3.99704E+02-1.11753E+05-1.48430E-09 4.30737E-09
 -1       570 2.82361E+04-6.87831E+04-8.11378E+02-8.60519E+04 6.23913E-10-1.13687E-09
 -1       571 9.41875E+04 3.41603E+03 5.05864E+03-2.36167E+04 5.41604E-10 2.62639E-09
 -1       572 9.49419E+04 1.18843E+03 2.47816E+03-2.58880E+04 4.77485E-10-1.23782E-09
 -1       573 9.44942E+04 2.83374E+02 1.10088E+03-2.35551E+04 3.71983E-10 1.71804E-09
 -1       574 9.45847E+04 9.14028E+01 5.51406E+02-2.59573E+04 3.82329E-10-1.02818E-09
 -1       575 9.45304E+04 1.17186E+01 2.59840E+02-2.35469E+04 1.59957E-10 5.24483E-09
 -1       576 9.45371E+04 2.14252E+00 1.32163E+02-2.59666E+04-7.86329E-10-1.28216E-09
 -1       577 9.45358E+04-2.92980E+00 6.50511E+01-2.35458E+04-1.70456E-09 1.49225E-09
 -1       578 9.45313E+04-1.76376E+00 3.53525E+01-2.59677E+04-1.05592E-09 2.91629E-09
 -1       579 9.45392E+04-2.61343E+00 2.15676E+01-2.35458E+04 3.11047E-10-2.33513E-10
 -1       580 9.45349E+04-2.57974E+00 1.99434E+01-2.59661E+04 5.78893E-10 1.47520E-09
 -1       581 9.45442E+04-3.37073E+00 2.70965E+01-2.35473E+04 6.78483E-10 1.59889E-09
 -1       582 9.45461E+04 1.98149E+00 5.13701E+01-2.59520E+04 1.59184E-09-2.42835E-09
 -1       583 9.45488E+04 1.66719E+01 9.89369E+01-2.35600E+04 1.20417E-09-1.24237E-09
 -1       584 9.45879E+04 9.52150E+01 2.21456E+02-2.58467E+04-7.45558E-10-6.76658E-09
 -1       585 9.45307E+04 2.92032E+02 4.50397E+02-2.36527E+04-4.64752E-10-4.23825E-09
 -1       586-1.18229E+03 3.06436E+04-1.55179E+03-8.05653E+04 2.58751E-10-9.91577E-10
 -1       587-2.70714E+02 3.04385E+04-1.89461E+02-8.86556E+04 4.35193E-10-1.45451E-09
 -1       588 3.05732E+02 3.04772E+04 1.06606E+03-8.05163E+04 2.46928E-10-1.79466E-09
 -1       589 1.58669E+03 3.10570E+04 3.12665E+03-8.85822E+04 3.86535E-10-3.94584E-09
 -1       590 4.58890E+03 3.00746E+04 6.70542E+03-8.06390E+04 1.89630E-10 2.56932E-10
 -1       591-2.04503E+04-5.87748E+03-6.83484E+03-1.06301E+04-5.16570E-09 1.20144E-09
 -1       592-2.10875E+04-7.55914E+03-3.70203E+03-1.24160E+04-3.22234E-09 1.06459E-08
 -1       593-2.11411E+04-5.37396E+03-1.54117E+03-1.11233E+04-5.04184E-09-3.72665E-10
 -1       594-2.01345E+04-6.56590E+03-7.68682E+02-1.24631E+04-1.25539E-09-9.59574E-10
 -1       595-2.11938E+04-5.37183E+03-3.53260E+02-1.11459E+04 5.21709E-10 3.07658E-09
 -1       596-2.00699E+04-6.52045E+03-1.80091E+02-1.24562E+04-1.57769E-10 1.98825E-09
 -1       597-2.12005E+04-5.37625E+03-9.91450E+01-1.11467E+04-6.90207E-10-1.63391E-09
 -1       598-2.00638E+04-6.51871E+03-8.16796E+01-1.24544E+04-1.52454E-10-6.99288E-10
 -1       599-2.12001E+04-5.37618E+03-1.06770E+02-1.11466E+04 2.74724E-10-2.20882E-09
 -1       600-2.00709E+04-6.52096E+03-2.00343E+02-1.24563E+04-1.61958E-09-9.00116E-09
 -1       601-2.11920E+04-5.37121E+03-3.96191E+02-1.11454E+04-4.14957E-10-4.62524E-09
 -1       602-2.01438E+04-6.57189E+03-8.64120E+02-1.24635E+04-3.12866E-10-2.43500E-09
 -1       603-2.11323E+04-5.37426E+03-1.73310E+03-1.11203E+04 7.43512E-11 1.10242E-09
 -1       604-2.12192E+04-7.68497E+03-4.16342E+03-1.24056E+04 1.93518E-09 5.14240E-09
 -1       605-2.03510E+04-5.94378E+03-7.68650E+03-1.05696E+04-2.11571E-10-1.05229E-09
 -1       606 1.34737E+04-4.53082E+03-8.16380E+03 1.31973E+04-9.27230E-10 4.36557E-10
 -1       607 1.20759E+04-1.46131E+03-4.06536E+03 1.48147E+04 4.34738E-10 1.88425E-09
 -1       608 1.28746E+04-2.45397E+02-1.81993E+03 1.30919E+04 9.89621E-09 1.45224E-09
 -1       609 1.27187E+04-6.60129E+01-9.19438E+02 1.49313E+04 1.55778E-08 4.45266E-09
 -1       610 1.28072E+04 9.63546E+00-4.38759E+02 1.30802E+04 5.69162E-09 1.04626E-09
 -1       611 1.27797E+04 1.26078E+01-2.21455E+02 1.49440E+04-4.29486E-09-9.03924E-10
 -1       612 1.27925E+04 1.38234E+01-1.05708E+02 1.30790E+04-2.36469E-10-1.28250E-09
 -1       613 1.27836E+04 1.37734E+01-4.83121E+01 1.49456E+04-2.16005E-10-2.89924E-09
 -1       614 1.27858E+04 1.17251E+01-1.33926E+01 1.30786E+04 1.46520E-09 5.96287E-10
 -1       615 1.27820E+04 1.41532E+01 1.49155E+01 1.49459E+04 2.16914E-09-1.67915E-10
 -1       616 1.27806E+04 1.25904E+01 4.97128E+01 1.30787E+04-2.00043E-09-1.11663E-09
 -1       617 1.27878E+04 2.50667E+01 1.15184E+02 1.49457E+04-7.56017E-11-6.00835E-09
 -1       618 1.27703E+04 4.60390E+01 2.32925E+02 1.30788E+04 6.36646E-11-2.20280E-09
 -1       619 1.28699E+04 2.05454E+02 5.23487E+02 1.49454E+04-2.86036E-10 4.49745E-10
 -1       620 1.26927E+04 5.99013E+02 1.05237E+03 1.30785E+04 1.45309E-09-2.33626E-09
 -1       621 1.64705E+02 1.02559E+05 1.41885E+03 3.23317E+03-7.13385E-11 2.80352E-10
 -1       622 1.88207E+02 1.02910E+05 1.20333E+03 4.71742E+03-7.38396E-11 1.40389E-09
 -1       623 8.39799E+00 1.02661E+05 1.38275E+03 3.21785E+03-8.77947E-11-8.93067E-10
 -1       624 6.26034E+02 1.03313E+05 2.62483E+03 4.73253E+03-9.58664E-11-5.08533E-09
 -1       625 6.28182E+02 1.02156E+05 4.56269E+03 3.21817E+03-1.11640E-10-3.09279E-09
 -1       626 8.46221E+04 2.34850E+04 1.69156E+03 4.57972E+04-4.43833E-10-2.31830E-09
 -1       627 8.34598E+04 2.43406E+04 8.14726E+02 4.76552E+04-1.09594E-09-5.21595E-10
 -1       628 8.46905E+04 2.26828E+04 3.44436E+02 4.60540E+04 9.58153E-10 1.53955E-09
 -1       629 8.32199E+04 2.41471E+04 1.68635E+02 4.77700E+04 3.73939E-09 3.20509E-09
 -1       630 8.46982E+04 2.26429E+04 7.81423E+01 4.60630E+04-5.75938E-09 9.12991E-10
 -1       631 8.31936E+04 2.41416E+04 4.19086E+01 4.77737E+04-1.89393E-08-1.98959E-10
 -1       632 8.46967E+04 2.26444E+04 2.77326E+01 4.60608E+04 6.58474E-10 1.92568E-09
 -1       633 8.31897E+04 2.41432E+04 3.08749E+01 4.77722E+04 1.17143E-08-1.74421E-08
 -1       634 8.46935E+04 2.26439E+04 5.00389E+01 4.60596E+04 9.78503E-09-3.97267E-09
 -1       635 8.31928E+04 2.41435E+04 1.01457E+02 4.77727E+04-3.83238E-10-5.60692E-09
 -1       636 8.46886E+04 2.26433E+04 2.05011E+02 4.60584E+04 2.21428E-09 8.52071E-09
 -1       637 8.32345E+04 2.41762E+04 4.50628E+02 4.77706E+04 4.21402E-10-1.04956E-09
 -1       638 8.46703E+04 2.27441E+04 9.26280E+02 4.60117E+04 5.15456E-10-7.14635E-10
 -1       639 8.37177E+04 2.48544E+04 2.19137E+03 4.76258E+04-1.94450E-09-5.30486E-09
 -1       640 8.46034E+04 2.47624E+04 4.54793E+03 4.51547E+04 7.34417E-11 1.01147E-09
 -1       656 2.29453E+04-5.80820E+05-5.54064E+04-4.99148E+02 3.63798E-12-3.82690E-09
 -1       657-3.03174E+04-6.05853E+05-4.58206E+04 3.81032E+03 2.85581E-10 8.09468E-10
 -1       658 7.27384E+03-5.87966E+05-2.81202E+04-7.81705E+02 1.71667E-10-1.11438E-09
 -1       659-3.25008E+04-6.06878E+05-4.86881E+04 3.99563E+03-2.54204E-10-4.31712E-10
 -1       660 2.51225E+04-5.79796E+05-6.03456E+04-6.84456E+02-6.22094E-10-1.73329E-09
 -1       661 8.26636E+04 8.96805E+03 7.92088E+03 3.22570E+04 1.10867E-09 2.57160E-09
 -1       662 8.67573E+04 1.52122E+04 5.33731E+03 3.09150E+04 5.90745E-10-3.36695E-09
 -1       663 8.42121E+04 1.15160E+04 1.86704E+03 3.18135E+04-9.84073E-10-1.13732E-09
 -1       664 8.49682E+04 1.22268E+04 1.11614E+03 3.14513E+04-4.05066E-10-1.15938E-09
 -1       665 8.44411E+04 1.18697E+04 4.40338E+02 3.17523E+04-1.88345E-09-1.96877E-09
 -1       666 8.47020E+04 1.18175E+04 2.56682E+02 3.15274E+04-4.25376E-09-2.83040E-10
 -1       667 8.44768E+04 1.19147E+04 1.35377E+02 3.17414E+04-8.07432E-10 1.53702E-09
 -1       668 8.46664E+04 1.17785E+04 1.35483E+02 3.15414E+04 2.38992E-09-1.89929E-09
 -1       669 8.44765E+04 1.19077E+04 1.81590E+02 3.17386E+04 2.66240E-11-3.43206E-10
 -1       670 8.47174E+04 1.18692E+04 3.93501E+02 3.15350E+04 2.46290E-09-5.10454E-10
 -1       671 8.44260E+04 1.18259E+04 6.98192E+02 3.17470E+04-6.17959E-10 9.71909E-10
 -1       672 8.51295E+04 1.25433E+04 1.78581E+03 3.14309E+04-3.18903E-09-1.38311E-09
 -1       673 8.40667E+04 1.12507E+04 2.99261E+03 3.18363E+04-1.31888E-09-2.85684E-09
 -1       674 8.79835E+04 1.73464E+04 8.55860E+03 3.05882E+04 1.64277E-10 1.11902E-09
 -1       675 8.15907E+04 7.15716E+03 1.27032E+04 3.25392E+04 4.94992E-10 6.93035E-10
 -1       676 9.35360E+00-1.11598E+05-4.34565E+02 1.11485E+01-2.92346E-10-1.26426E-10
 -1       677-1.15354E+02-1.11703E+05-7.95263E+02-2.22960E+01-1.61305E-09-3.32733E-09
 -1       678 7.70099E+01-1.11523E+05-1.40579E+03 1.11398E+01-1.64471E-09 1.95771E-09
 -1       679-1.40592E+03-1.12551E+05-3.33928E+03-2.22533E+01-1.93057E-09 1.95829E-09
 -1       680 8.38960E+02-1.10749E+05-5.38187E+03 1.09776E+01-1.01409E-10 5.27331E-10
 -1       771-1.20096E+06-2.08282E+05-2.90828E+04-4.96871E+05-4.47471E-09-3.71801E-09
 -1       772-1.19330E+06-2.24812E+05-1.56561E+04-5.15275E+05-3.72347E-09 1.64482E-09
 -1       773-1.20469E+06-2.05402E+05-6.66635E+03-4.98499E+05-1.25874E-09 1.88447E-09
 -1       774-1.18900E+06-2.21237E+05-3.27060E+03-5.16629E+05 3.95812E-09-1.07048E-09
 -1       775-1.20534E+06-2.05032E+05-1.59333E+03-4.98591E+05 1.38243E-10-3.52884E-10
 -1       776-1.18884E+06-2.21180E+05-7.50681E+02-5.17194E+05 1.02955E-09 1.26875E-10
 -1       777-1.20573E+06-2.04771E+05-4.27267E+02-4.98623E+05 4.05998E-09-6.31189E-10
 -1       778-1.18891E+06-2.21249E+05-2.01301E+02-5.17654E+05 3.89991E-09-5.67479E-09
 -1       779-1.20602E+06-2.04547E+05-1.78398E+02-4.98648E+05 2.86673E-09-2.68756E-09
 -1       780-1.18901E+06-2.21315E+05-1.56536E+02-5.18027E+05 5.93900E-10-3.89264E-10
 -1       781-1.20624E+06-2.04364E+05-2.73486E+02-4.98664E+05-3.66890E-09-1.00840E-09
 -1       782-1.18913E+06-2.21392E+05-5.21429E+02-5.18303E+05-4.20823E-09-1.78983E-09
 -1       783-1.20635E+06-2.04248E+05-1.04075E+03-4.98663E+05 9.19499E-10-2.47695E-09
 -1       784-1.18980E+06-2.22090E+05-2.47513E+03-5.18443E+05-2.72030E-09-2.36469E-11
 -1       785-1.20597E+06-2.04517E+05-4.57401E+03-4.98334E+05-5.39694E-09 2.77532E-09
 -1       786 8.72505E+04-4.66333E+03 1.07879E+04 2.14216E+00 4.15325E-08 1.93677E-09
 -1       787 9.19252E+04 5.39863E+03 7.63242E+03-8.80038E+00 8.24175E-08 3.33193E-09
 -1       788 8.90541E+04-7.31024E+02 2.79215E+03 2.61848E+00 1.34183E-07 1.03034E-09
 -1       789 8.98242E+04 8.45836E+02 1.75434E+03-1.03246E+01 1.86016E-07-1.33412E-09
 -1       790 8.93518E+04-1.14197E+02 7.13824E+02 3.66644E+00 2.68033E-07-1.84039E-09
 -1       791 8.94769E+04 1.32684E+02 4.19126E+02-1.31397E+01 3.49969E-07 8.80654E-09
 -1       792 8.94016E+04-1.84067E+01 1.91321E+02 5.43358E+00 5.01854E-07-5.48352E-09
 -1       793 8.94208E+04 2.58699E+01 1.25450E+02-1.76524E+01 6.54420E-07 3.95566E-09
 -1       794 8.94079E+04-7.45266E+00 9.30505E+01 8.17926E+00 9.60192E-07-6.95297E-09
 -1       795 8.94263E+04 3.85016E+01 1.34775E+02-2.45169E+01 1.26429E-06 1.14392E-08
 -1       796 8.93960E+04-3.10297E+01 2.02000E+02 1.22982E+01 6.32221E-07-1.80991E-09
 -1       797 8.95180E+04 2.27467E+02 4.76370E+02-3.47206E+01 1.98701E-09 2.60123E-10
 -1       798 8.93163E+04-1.96279E+02 7.52003E+02 1.83831E+01-1.87863E-11 2.50935E-10
 -1       799 9.00818E+04 1.44921E+03 2.05006E+03-4.98319E+01-4.82473E-10 2.81304E-09
 -1       800 8.88320E+04-1.25179E+03 2.89605E+03 2.74096E+01 5.53246E-12 1.92767E-09
 -1       801-4.62122E+03 9.40361E+03 8.36740E+03 9.21601E+03 5.10659E-09-3.35569E-09
 -1       802 1.28788E+04 4.04728E+04 2.46975E+04-3.79465E+04 1.36913E-08-1.86408E-09
 -1       803-8.00475E+03 1.93589E+04 3.26041E+04 8.87501E+03 1.08575E-08 7.89300E-09
 -1       804 6.29240E+04 6.63330E+04 9.01862E+04-3.82727E+04 1.28157E-08 1.09390E-08
 -1       805-5.46704E+04-1.63657E+04 1.19476E+05 9.54163E+03 4.54747E-09 1.35511E-08
 -1       806-1.02698E+05-2.19952E+04-8.72165E+03-4.27601E+04-4.85693E-09 3.77077E-09
 -1       807-1.03212E+05-2.07459E+04-4.28472E+03-4.50725E+04-1.04201E-08 2.33285E-09
 -1       808-1.02946E+05-1.88442E+04-1.81765E+03-4.42398E+04-9.77650E-09 5.81546E-09
 -1       809-1.02298E+05-1.95562E+04-8.88618E+02-4.51962E+04-9.80367E-09 9.39247E-09
 -1       810-1.02985E+05-1.87328E+04-4.06876E+02-4.43053E+04-5.36795E-09 4.50370E-09
 -1       811-1.02228E+05-1.95090E+04-2.01796E+02-4.51862E+04 9.07278E-10 5.34499E-09
 -1       812-1.02992E+05-1.87407E+04-1.00649E+02-4.43054E+04-1.30353E-09 2.34093E-09
 -1       813-1.02219E+05-1.95101E+04-6.35102E+01-4.51814E+04-3.10320E-09-9.02452E-09
 -1       814-1.02992E+05-1.87433E+04-5.94631E+01-4.43044E+04-7.73298E-10-2.71962E-09
 -1       815-1.02221E+05-1.95109E+04-9.31954E+01-4.51808E+04 2.76941E-10-1.10725E-09
 -1       816-1.02987E+05-1.87419E+04-1.74513E+02-4.43036E+04-8.85166E-10 3.79532E-09
 -1       817-1.02252E+05-1.95274E+04-3.74441E+02-4.51787E+04 4.82032E-10 4.60932E-09
 -1       818-1.02966E+05-1.87937E+04-7.62964E+02-4.42793E+04 3.31511E-10-1.13255E-09
 -1       819-1.02674E+05-1.99852E+04-1.79612E+03-4.50778E+04-4.08363E-10 1.60799E-09
 -1       820-1.02822E+05-2.01515E+04-3.65517E+03-4.37011E+04-2.38106E-09-4.07181E-09
 -1       821-1.32678E+05 7.36632E+03-1.70383E+04-7.07616E-01-4.24941E-10 1.27966E-09
 -1       822-1.40061E+05-8.52776E+03-1.20563E+04-9.44737E+01-1.26984E-09 1.03614E-09
 -1       823-1.35527E+05 1.15478E+03-4.41298E+03-2.45620E+01 9.71262E-10 1.06388E-09
 -1       824-1.36742E+05-1.33660E+03-2.77723E+03-4.33706E+01-4.38453E-10 3.00702E-09
 -1       825-1.35997E+05 1.80827E+02-1.14078E+03-5.18124E+01-1.35843E-09 3.47092E-09
 -1       826-1.36196E+05-2.13268E+02-6.90208E+02 8.72311E+00-2.66050E-09-1.71951E-11
 -1       827-1.36073E+05 3.22657E+01-3.55924E+02-7.66568E+01-2.87034E-09-5.05132E-09
 -1       828-1.36120E+05-6.52048E+01-3.16161E+02 5.08423E+01 2.85084E-08 1.01215E-09
 -1       829-1.36073E+05 3.28776E+01-3.61294E+02-9.39324E+01 9.47497E-06-8.77641E-09
 -1       830-1.36200E+05-2.18476E+02-7.06259E+02 7.42428E+01 1.88612E-05-6.51477E-09
 -1       831-1.35994E+05 1.85444E+02-1.16900E+03-1.00058E+02-1.19386E-06-3.09643E-09
 -1       832-1.36761E+05-1.37088E+03-2.84850E+03 7.42383E+01-2.12414E-05 4.69072E-09
 -1       833-1.35512E+05 1.18445E+03-4.52608E+03-9.39276E+01-1.06692E-05 1.26875E-08
 -1       834-1.40164E+05-8.74692E+03-1.23663E+04 5.16876E+01-3.48125E-08 5.75665E-09
 -1       835-1.32591E+05 7.55566E+03-1.74764E+04-7.75044E+01 2.04950E-09 1.00681E-09
 -1       836-4.42738E+02 1.25837E+05 7.57524E+03-1.10400E+04 8.78345E-10 5.18980E-09
 -1       837 1.66172E+03 1.28185E+05 6.46417E+03-2.21941E+04 1.37629E-09 7.13794E-09
 -1       838-1.65878E+02 1.26493E+05 6.66301E+03-1.10010E+04 1.14551E-09 2.05603E-09
 -1       839 4.26904E+03 1.30135E+05 1.26804E+04-2.22089E+04 1.54250E-09-2.26726E-09
 -1       840-1.28902E+03 1.23878E+05 2.02514E+04-1.10248E+04 1.16052E-09 6.26642E-10
 -1       856-4.17906E+04 3.56300E+03-9.38821E+03-1.96654E+02-1.39988E-09 1.11777E-09
 -1       857-4.56698E+04-4.17981E+03-6.46399E+03 2.15948E+03-1.79352E-09-1.49157E-10
 -1       858-4.33232E+04 4.99465E+02-2.43647E+03-2.02449E+02-2.07396E-09 2.06740E-09
 -1       859-4.39087E+04-5.82089E+02-1.47178E+03 2.16847E+03-9.06851E-10 1.59952E-09
 -1       860-4.35526E+04 6.96294E+01-6.18832E+02-2.05678E+02 8.96421E-11 1.88533E-09
 -1       861-4.36440E+04-7.85794E+01-3.44863E+02 2.17281E+03-1.71610E-09-2.02778E-09
 -1       862-4.35884E+04 9.38623E+00-1.52161E+02-2.06799E+02 2.62661E-09-3.46849E-09
 -1       863-4.36018E+04-7.60901E+00-7.54177E+01 2.17331E+03 5.20697E-09 1.90354E-09
 -1       864-4.35949E+04 1.80411E-01-2.39984E+01-2.06186E+02 2.72665E-09-2.30749E-09
 -1       865-4.35902E+04 8.62679E+00 1.31364E+01 2.17010E+03 3.42479E-09-2.98211E-09
 -1       866-4.35996E+04-6.84392E+00 4.98382E+01-2.03583E+02 3.15922E-10-8.90513E-10
 -1       867-4.35620E+04 5.80631E+01 1.37023E+02 2.16308E+03 4.66869E-10-1.31962E-09
 -1       868-4.36223E+04-4.85394E+01 2.31896E+02-1.99165E+02 1.56379E-09 2.26254E-09
 -1       869-4.33897E+04 4.04247E+02 6.21734E+02 2.15074E+03-2.77726E-09 3.55783E-10
 -1       870-4.37706E+04-3.43863E+02 9.02769E+02-1.91252E+02-1.53364E-10 4.78792E-10
 -1       871-1.92242E+03-4.01702E+03-6.30001E+03 4.13145E+04 1.05683E-09 1.63300E-09
 -1       872-8.29528E+02-5.42283E+03-2.56556E+03 5.35600E+04 1.88243E-09 4.26712E-09
 -1       873-9.84661E+00-4.75433E+03 3.76721E+02 4.12224E+04 1.21690E-09 1.01181E-09
 -1       874 9.85086E+02-3.83725E+03 3.59790E+03 5.35796E+04 2.07103E-09 1.14267E-09
 -1       875 2.32162E+03-5.61544E+03 7.97463E+03 4.12971E+04 6.96673E-10 1.23464E-10
 -1       876 1.03542E+05 1.78272E+04 5.55283E+03 4.19880E+04-2.11838E-09-1.50294E-09
 -1       877 1.03858E+05 1.90469E+04 2.96523E+03 4.36327E+04-2.58660E-09-1.03057E-10
 -1       878 1.04062E+05 1.72116E+04 1.24237E+03 4.24436E+04 1.80705E-09 7.14522E-10
 -1       879 1.03103E+05 1.82950E+04 6.18806E+02 4.36736E+04 2.78249E-10 5.08976E-10
 -1       880 1.04101E+05 1.72040E+04 2.88129E+02 4.24622E+04 4.43231E-09 3.68738E-09
 -1       881 1.03053E+05 1.82633E+04 1.53389E+02 4.36668E+04 1.17807E-08-1.49942E-09
 -1       882 1.04105E+05 1.72081E+04 9.74009E+01 4.24627E+04 7.30779E-09 9.38829E-10
 -1       883 1.03049E+05 1.82619E+04 1.03480E+02 4.36652E+04 1.98020E-09 2.42332E-09
 -1       884 1.04103E+05 1.72067E+04 1.63543E+02 4.24628E+04 2.47942E-09 2.77262E-09
 -1       885 1.03062E+05 1.82643E+04 3.28150E+02 4.36695E+04 2.07560E-09 5.34254E-09
 -1       886 1.04091E+05 1.71972E+04 6.61103E+02 4.24615E+04 1.60477E-09 1.14750E-09
 -1       887 1.03178E+05 1.83404E+04 1.44404E+03 4.36859E+04-1.92028E-09-1.69348E-09
 -1       888 1.03999E+05 1.72135E+04 2.90986E+03 4.24153E+04 2.27146E-10 3.40356E-09
 -1       889 1.04913E+05 2.01406E+04 6.95178E+03 4.36302E+04 5.90198E-10 4.65468E-09
 -1       890 1.02812E+05 1.86227E+04 1.30198E+04 4.13063E+04 2.02510E-09 3.53566E-09
 -1       891-6.07199E+01-5.89018E+04-6.92495E+02 1.12060E+04-3.78577E-10-4.89280E-09
 -1       892-1.06021E+02-5.90709E+04-7.54732E+02 1.69629E+04-1.14233E-09-1.30726E-08
 -1       893-1.27663E+01-5.89259E+04-1.07938E+03 1.12079E+04 3.47086E-10-4.86943E-09
 -1       894-5.81490E+02-5.94921E+04-2.24267E+03 1.69033E+04-6.57792E-10-2.48747E-10
 -1       895-4.51987E+02-5.84646E+04-3.95117E+03 1.12651E+04 8.69818E-10 1.19326E-09
 -1       956-1.30015E+05-1.87598E+03-4.72201E+03 8.59191E+03-2.18438E-09-3.08472E-09
 -1       957-1.30947E+05-6.34347E+02-2.42430E+03 1.03403E+04-6.39147E-10-2.57359E-09
 -1       958-1.30431E+05-5.18712E+01-1.09202E+03 8.53639E+03 2.53021E-09-1.32877E-09
 -1       959-1.30504E+05-1.19062E+01-5.57893E+02 1.04004E+04-6.38011E-10-3.50383E-10
 -1       960-1.30466E+05 1.27556E+01-2.71833E+02 8.53140E+03-2.50543E-09-1.87356E-10
 -1       961-1.30469E+05 1.02527E+01-1.44188E+02 1.04059E+04-3.53361E-09 3.31767E-09
 -1       962-1.30472E+05 9.81153E+00-8.22887E+01 8.53082E+03-1.33082E-09 3.01793E-09
 -1       963-1.30467E+05 1.00464E+01-6.57060E+01 1.04067E+04-2.25521E-09 4.65150E-09
 -1       964-1.30473E+05 1.02349E+01-7.92362E+01 8.53061E+03-1.46650E-09 4.89536E-10
 -1       965-1.30471E+05 1.12470E+01-1.36482E+02 1.04067E+04 1.09322E-10 1.16734E-09
 -1       966-1.30469E+05 1.39767E+01-2.55869E+02 8.53086E+03-2.35667E-09-1.31337E-09
 -1       967-1.30505E+05-8.54745E+00-5.24622E+02 1.04036E+04 1.57314E-09-2.56676E-09
 -1       968-1.30438E+05-4.57967E+01-1.02645E+03 8.53374E+03 2.58615E-09 4.57035E-10
 -1       969-1.30923E+05-5.92768E+02-2.27898E+03 1.03686E+04 1.18780E-09 1.46342E-09
 -1       970-1.30047E+05-1.75993E+03-4.43871E+03 8.56660E+03-3.31511E-10 1.57161E-09
 -1       971-1.23602E+05-6.54555E+02-3.63950E+03 6.10467E+03-2.57705E-09-1.91454E-09
 -1       972-1.24487E+05-4.71656E+02-1.98242E+03 8.51328E+03-1.89607E-09 2.07388E-09
 -1       973-1.24004E+05-5.80842E+00-8.87297E+02 6.05525E+03-1.32854E-09 4.45652E-11
 -1       974-1.24064E+05-8.42259E+00-4.59820E+02 8.56614E+03 7.29415E-10 6.44729E-09
 -1       975-1.24033E+05 9.57858E+00-2.29099E+02 6.05147E+03 1.18143E-09 1.73355E-09
 -1       976-1.24036E+05 9.15634E+00-1.31258E+02 8.57042E+03-2.78368E-09-4.07778E-09
 -1       977-1.24038E+05 8.38694E+00-9.33546E+01 6.05095E+03 1.08366E-09 3.30544E-09
 -1       978-1.24036E+05 1.04112E+01-1.06794E+02 8.57114E+03 4.72284E-09 4.89194E-10
 -1       979-1.24037E+05 1.07553E+01-1.69346E+02 6.05075E+03 3.00452E-09-5.57179E-10
 -1       980-1.24048E+05 1.12248E+01-3.25583E+02 8.57118E+03 2.42843E-09 3.11741E-09
 -1       981-1.24027E+05 1.89329E+01-6.29742E+02 6.05090E+03-8.68454E-10-1.80762E-11
 -1       982-1.24135E+05-3.48439E+01-1.30119E+03 8.56899E+03-1.57968E-10-4.75982E-10
 -1       983-1.23948E+05-2.06691E+01-2.52778E+03 6.05299E+03 9.66679E-10 9.12678E-10
 -1       984-1.25353E+05-1.35374E+03-5.66042E+03 8.53545E+03-1.05638E-09 7.01675E-10
 -1       985-1.22805E+05-1.86956E+03-1.03943E+04 6.08582E+03 1.78807E-09 3.58204E-09
 -3
    1PSTEP                         3           2           1          
  100CL  102 3.12500E-01         409                     0    2           1
 -4  DISP        4    1
 -5  D1          1    2    1    0
 -5  D2          1    2    2    0
 -5  D3          1    2    3    0
 -5  ALL         1    2    0    0    1ALL
 -1         1 8.16758E-05 0.00000E+00 0.00000E+00
 -1         2 7.54085E-05 1.57723E-29 1.65436E-24
 -1         3 7.03865E-05-4.41797E-27 3.30872E-24
 -1         5 5.01671E-05 3.11741E-26 0.00000E+00
 -1         8 6.52004E-05-5.91664E-07 0.00000E+00
 -1         9 6.62575E-05 3.94649E-07 0.00000E+00
 -1        10 6.49383E-05-9.90613E-07 6.61744E-24
 -1        12 4.98121E-05 3.40566E-07 0.00000E+00
 -1        15 4.55978E-05-6.38654E-07 0.00000E+00
 -1        16 4.71678E-05 3.13369E-07 0.00000E+00
 -1        17 4.81507E-05-2.03879E-06 0.00000E+00
 -1        18 4.80887E-05 1.34240E-07 0.00000E+00
 -1        19 4.87472E-05 6.79272E-07 0.00000E+00
 -1        20 4.88367E-05 1.00929E-05 0.00000E+00
 -1        21 4.84999E-05 1.90859E-05 0.00000E+00
 -1        24 1.23127E-05-2.71540E-06 0.00000E+00
 -1        25 4.69556E-05 2.12278E-07 0.00000E+00
 -1        26 4.75776E-05 9.46481E-07 0.00000E+00
 -1        27 4.66358E-05 8.57900E-06 0.00000E+00
 -1        28 4.63312E-05 1.87949E-05 0.00000E+00
 -1        32 0.00000E+00 0.00000E+00 0.00000E+00
 -1        33 4.55939E-05 1.26930E-06 0.00000E+00
 -1        34 4.46836E-05 8.56555E-06 0.00000E+00
 -1        35 4.38186E-05 1.86413E-05 0.00000E+00
 -1        51 8.06040E-05-9.81546E-08 0.00000E+00
 -1        52 7.86176E-05-1.93505E-07 0.00000E+00
 -1        53 7.58967E-05-2.89379E-07 0.00000E+00
 -1        54 7.26285E-05-3.86686E-07 0.00000E+00
 -1        55 6.90004E-05-4.86028E-07 3.10193E-25
 -1        56 8.09273E-05-4.65340E-07 1.32349E-23
 -1        57 8.02607E-05-1.23361E-06-1.32349E-23
 -1        58 7.96766E-05-2.21771E-06-2.64698E-23
 -1        59 7.91387E-05-3.33944E-06 0.00000E+00
 -1        60 7.86193E-05-4.51104E-06 2.64698E-23
 -1        61 7.80850E-05-5.64578E-06-1.32349E-23
 -1        62 7.75048E-05-6.65800E-06 0.00000E+00
 -1        63 7.68476E-05-7.46474E-06 0.00000E+00
 -1        64 7.60853E-05-7.99121E-06 2.64698E-23
 -1        65 7.51921E-05-8.16807E-06 0.00000E+00
 -1        66 7.41470E-05-7.94011E-06-2.64698E-23
 -1        67 7.29328E-05-7.25979E-06 1.32349E-23
 -1        68 7.15376E-05-6.09816E-06 0.00000E+00
 -1        69 6.99579E-05-4.43396E-06 0.00000E+00
 -1        70 6.81878E-05-2.26961E-06 0.00000E+00
 -1        86 7.51676E-05 7.05459E-08 0.00000E+00
 -1        87 7.44443E-05 1.40501E-07 8.27181E-25
 -1        88 7.32198E-05 2.09933E-07 8.27181E-25
 -1        89 7.14738E-05 2.76315E-07 0.00000E+00
 -1        90 6.91668E-05 3.42381E-07 0.00000E+00
 -1       121 7.02346E-05-1.64558E-07 0.00000E+00
 -1       122 6.97792E-05-3.29206E-07 0.00000E+00
 -1       123 6.90207E-05-4.94034E-07-6.61744E-24
 -1       124 6.79602E-05-6.59143E-07 3.30872E-24
 -1       125 6.65987E-05-8.24595E-07-3.30872E-24
 -1       191 5.01573E-05 5.67652E-08 3.30872E-24
 -1       192 5.01277E-05 1.13529E-07 0.00000E+00
 -1       193 5.00784E-05 1.70293E-07 3.30872E-24
 -1       194 5.00094E-05 2.27055E-07 0.00000E+00
 -1       195 4.99206E-05 2.83813E-07 0.00000E+00
 -1       251 6.52523E-05 2.11602E-06 0.00000E+00
 -1       252 6.53185E-05 3.72322E-06 0.00000E+00
 -1       253 6.53850E-05 4.41658E-06 8.27181E-25
 -1       254 6.54539E-05 4.37996E-06-8.27181E-25
 -1       255 6.55228E-05 3.77063E-06 0.00000E+00
 -1       256 6.55918E-05 2.74421E-06 0.00000E+00
 -1       257 6.56605E-05 1.44101E-06 0.00000E+00
 -1       258 6.57291E-05 5.58426E-10 0.00000E+00
 -1       259 6.57977E-05-1.44271E-06 0.00000E+00
 -1       260 6.58665E-05-2.75434E-06 0.00000E+00
 -1       261 6.59354E-05-3.79500E-06 0.00000E+00
 -1       262 6.60042E-05-4.42465E-06-8.27181E-25
 -1       263 6.60732E-05-4.48812E-06 0.00000E+00
 -1       264 6.61396E-05-3.82862E-06-1.03398E-25
 -1       265 6.62058E-05-2.26298E-06 3.30872E-24
 -1       266 6.19333E-05-6.07612E-07 0.00000E+00
 -1       267 5.86662E-05-6.14454E-07 0.00000E+00
 -1       268 5.53991E-05-6.21873E-07-8.27181E-25
 -1       269 5.21320E-05-6.27584E-07-2.06795E-25
 -1       270 4.88649E-05-6.33255E-07 0.00000E+00
 -1       271 6.32151E-05 1.84021E-06 0.00000E+00
 -1       272 6.15311E-05 3.37882E-06 0.00000E+00
 -1       273 6.01421E-05 4.13756E-06-2.64698E-23
 -1       274 5.89998E-05 4.22544E-06 0.00000E+00
 -1       275 5.80631E-05 3.76395E-06 0.00000E+00
 -1       276 5.72840E-05 2.87954E-06 0.00000E+00
 -1       277 5.66134E-05 1.70458E-06-2.64698E-23
 -1       278 5.60006E-05 3.74802E-07 0.00000E+00
 -1       279 5.53941E-05-9.72041E-07-2.64698E-23
 -1       280 5.47425E-05-2.19794E-06-1.32349E-23
 -1       281 5.39947E-05-3.16657E-06 0.00000E+00
 -1       282 5.31013E-05-3.74464E-06 0.00000E+00
 -1       283 5.20137E-05-3.80415E-06 2.64698E-23
 -1       284 5.06888E-05-3.22229E-06 0.00000E+00
 -1       285 4.90794E-05-1.88711E-06 2.64698E-23
 -1       301 6.30236E-05 3.77197E-07-3.30872E-24
 -1       302 5.97911E-05 3.69487E-07 0.00000E+00
 -1       303 5.65746E-05 3.62069E-07 0.00000E+00
 -1       304 5.33887E-05 3.53580E-07 0.00000E+00
 -1       305 5.02483E-05 3.43584E-07-6.61744E-24
 -1       306 6.42111E-05 2.77064E-06 2.64698E-23
 -1       307 6.24792E-05 4.21232E-06-1.32349E-23
 -1       308 6.10913E-05 4.74632E-06 2.64698E-23
 -1       309 6.00231E-05 4.41147E-06-1.32349E-23
 -1       310 5.92317E-05 3.33729E-06 2.64698E-23
 -1       311 5.86594E-05 1.67395E-06 0.00000E+00
 -1       312 5.82289E-05-3.69266E-07-2.64698E-23
 -1       313 5.78576E-05-2.57169E-06 0.00000E+00
 -1       314 5.74573E-05-4.69644E-06-2.64698E-23
 -1       315 5.69407E-05-6.50907E-06 0.00000E+00
 -1       316 5.62318E-05-7.80670E-06-2.64698E-23
 -1       317 5.52613E-05-8.40200E-06 0.00000E+00
 -1       318 5.39834E-05-8.17788E-06 0.00000E+00
 -1       319 5.23695E-05-7.04000E-06-1.32349E-23
 -1       320 5.04087E-05-4.98979E-06 0.00000E+00
 -1       336 6.29618E-05-1.16368E-06-3.30872E-24
 -1       337 6.06523E-05-1.33752E-06 1.65436E-24
 -1       338 5.80126E-05-1.51210E-06-6.61744E-24
 -1       339 5.50464E-05-1.68729E-06 1.65436E-24
 -1       340 5.17576E-05-1.86347E-06 0.00000E+00
 -1       406 4.96839E-05 3.97310E-07 0.00000E+00
 -1       407 4.95359E-05 4.54033E-07 0.00000E+00
 -1       408 4.93682E-05 5.10718E-07 0.00000E+00
 -1       409 4.91809E-05 5.67296E-07 0.00000E+00
 -1       410 4.89738E-05 6.23654E-07-1.65436E-24
 -1       521 4.43509E-05 2.00900E-06 0.00000E+00
 -1       522 4.19427E-05 2.43169E-06-2.64698E-23
 -1       523 3.99912E-05 1.64988E-06 0.00000E+00
 -1       524 3.84393E-05-2.32416E-07 0.00000E+00
 -1       525 3.71969E-05-2.94458E-06 5.29396E-23
 -1       526 3.61455E-05-6.17534E-06-2.64698E-23
 -1       527 3.51428E-05-9.53757E-06 0.00000E+00
 -1       528 3.40423E-05-1.26378E-05 0.00000E+00
 -1       529 3.27113E-05-1.51201E-05 0.00000E+00
 -1       530 3.10293E-05-1.66619E-05 0.00000E+00
 -1       531 2.89250E-05-1.70766E-05 0.00000E+00
 -1       532 2.63517E-05-1.62376E-05 0.00000E+00
 -1       533 2.33262E-05-1.42001E-05 0.00000E+00
 -1       534 1.99028E-05-1.10789E-05 2.64698E-23
 -1       535 1.61697E-05-7.15321E-06 0.00000E+00
 -1       536 4.81368E-05 1.31664E-06 0.00000E+00
 -1       537 4.81302E-05 3.85777E-06 0.00000E+00
 -1       538 4.81248E-05 5.66288E-06 0.00000E+00
 -1       539 4.81213E-05 6.81039E-06 0.00000E+00
 -1       540 4.81183E-05 7.38256E-06-2.06795E-25
 -1       541 4.81157E-05 7.46171E-06-5.16988E-26
 -1       542 4.81130E-05 7.13298E-06 0.00000E+00
 -1       543 4.81103E-05 6.48154E-06 0.00000E+00
 -1       544 4.81073E-05 5.59442E-06 0.00000E+00
 -1       545 4.81043E-05 4.55860E-06 2.58494E-26
 -1       546 4.81011E-05 3.46197E-06-5.16988E-26
 -1       547 4.80981E-05 2.39240E-06-1.29247E-26
 -1       548 4.80952E-05 1.43758E-06 1.29247E-26
 -1       549 4.80926E-05 6.85229E-07-5.16988E-26
 -1       550 4.80901E-05 2.21936E-07-2.06795E-25
 -1       551 4.33945E-05-2.14217E-06 0.00000E+00
 -1       552 3.77075E-05-2.24851E-06 0.00000E+00
 -1       553 3.14204E-05-2.35838E-06-3.30872E-24
 -1       554 2.48690E-05-2.47147E-06 3.30872E-24
 -1       555 1.83887E-05-2.58594E-06 0.00000E+00
 -1       556 4.69040E-05 1.19568E-06 0.00000E+00
 -1       557 4.59513E-05 3.66770E-06 0.00000E+00
 -1       558 4.52605E-05 5.44766E-06 0.00000E+00
 -1       559 4.48024E-05 6.61145E-06 0.00000E+00
 -1       560 4.45478E-05 7.23476E-06 0.00000E+00
 -1       561 4.44677E-05 7.39369E-06 0.00000E+00
 -1       562 4.45333E-05 7.16440E-06 0.00000E+00
 -1       563 4.47159E-05 6.62310E-06 0.00000E+00
 -1       564 4.49867E-05 5.84606E-06 0.00000E+00
 -1       565 4.53173E-05 4.90954E-06 0.00000E+00
 -1       566 4.56789E-05 3.88987E-06 0.00000E+00
 -1       567 4.60431E-05 2.86334E-06-2.06795E-25
 -1       568 4.63814E-05 1.90626E-06 0.00000E+00
 -1       569 4.66651E-05 1.09484E-06 0.00000E+00
 -1       570 4.68658E-05 5.05334E-07 0.00000E+00
 -1       571 4.81286E-05 1.94599E-07 8.27181E-25
 -1       572 4.81695E-05 2.27736E-07-2.06795E-25
 -1       573 4.82106E-05 2.38492E-07 1.24077E-24
 -1       574 4.82518E-05 2.31965E-07 0.00000E+00
 -1       575 4.82931E-05 2.13276E-07 0.00000E+00
 -1       576 4.83344E-05 1.87579E-07-4.13590E-25
 -1       577 4.83757E-05 1.60032E-07-1.65436E-24
 -1       578 4.84170E-05 1.35797E-07 0.00000E+00
 -1       579 4.84583E-05 1.20037E-07-1.65436E-24
 -1       580 4.84996E-05 1.17915E-07 0.00000E+00
 -1       581 4.85409E-05 1.34591E-07-1.65436E-24
 -1       582 4.85822E-05 1.75222E-07 0.00000E+00
 -1       583 4.86235E-05 2.44958E-07 0.00000E+00
 -1       584 4.86648E-05 3.48899E-07 0.00000E+00
 -1       585 4.87061E-05 4.92112E-07 0.00000E+00
 -1       586 4.78858E-05 1.48060E-07 0.00000E+00
 -1       587 4.76654E-05 1.61530E-07 1.03398E-25
 -1       588 4.74448E-05 1.74850E-07-4.13590E-25
 -1       589 4.72414E-05 1.87959E-07 0.00000E+00
 -1       590 4.70727E-05 2.00711E-07 0.00000E+00
 -1       591 4.80469E-05 2.15525E-07-5.16988E-26
 -1       592 4.80120E-05 2.74255E-07 0.00000E+00
 -1       593 4.79838E-05 3.14718E-07 0.00000E+00
 -1       594 4.79608E-05 3.40779E-07 2.06795E-25
 -1       595 4.79418E-05 3.56352E-07 0.00000E+00
 -1       596 4.79251E-05 3.65322E-07 2.06795E-25
 -1       597 4.79095E-05 3.71573E-07-4.13590E-25
 -1       598 4.78935E-05 3.78987E-07 0.00000E+00
 -1       599 4.78755E-05 3.91443E-07-2.06795E-25
 -1       600 4.78542E-05 4.12823E-07 2.06795E-25
 -1       601 4.78281E-05 4.47005E-07 2.06795E-25
 -1       602 4.77958E-05 4.97876E-07-1.03398E-25
 -1       603 4.77558E-05 5.69319E-07-5.16988E-26
 -1       604 4.77069E-05 6.65250E-07 5.16988E-26
 -1       605 4.76474E-05 7.89533E-07 0.00000E+00
 -1       606 4.87549E-05 9.60408E-07-1.65436E-24
 -1       607 4.87611E-05 1.30054E-06 0.00000E+00
 -1       608 4.87669E-05 1.69622E-06 0.00000E+00
 -1       609 4.87725E-05 2.14352E-06 0.00000E+00
 -1       610 4.87781E-05 2.63853E-06 0.00000E+00
 -1       611 4.87835E-05 3.17727E-06 0.00000E+00
 -1       612 4.87890E-05 3.75575E-06 0.00000E+00
 -1       613 4.87944E-05 4.37000E-06-8.27181E-25
 -1       614 4.87998E-05 5.01602E-06 0.00000E+00
 -1       615 4.88051E-05 5.68983E-06 0.00000E+00
 -1       616 4.88105E-05 6.38744E-06 0.00000E+00
 -1       617 4.88158E-05 7.10486E-06 4.13590E-25
 -1       618 4.88212E-05 7.83810E-06 0.00000E+00
 -1       619 4.88264E-05 8.58319E-06 0.00000E+00
 -1       620 4.88317E-05 9.33612E-06 2.06795E-25
 -1       621 4.85239E-05 7.23837E-07 0.00000E+00
 -1       622 4.83165E-05 7.68620E-07-8.27181E-25
 -1       623 4.81215E-05 8.13396E-07 0.00000E+00
 -1       624 4.79356E-05 8.58102E-07 0.00000E+00
 -1       625 4.77554E-05 9.02730E-07 8.27181E-25
 -1       626 4.86895E-05 9.74418E-07 0.00000E+00
 -1       627 4.86138E-05 1.31843E-06 0.00000E+00
 -1       628 4.85215E-05 1.70677E-06 0.00000E+00
 -1       629 4.84144E-05 2.13461E-06 0.00000E+00
 -1       630 4.82944E-05 2.59712E-06 0.00000E+00
 -1       631 4.81631E-05 3.08943E-06 0.00000E+00
 -1       632 4.80225E-05 3.60665E-06 0.00000E+00
 -1       633 4.78744E-05 4.14392E-06-8.27181E-25
 -1       634 4.77206E-05 4.69637E-06 1.65436E-24
 -1       635 4.75628E-05 5.25912E-06 8.27181E-25
 -1       636 4.74031E-05 5.82730E-06-1.65436E-24
 -1       637 4.72431E-05 6.39604E-06 0.00000E+00
 -1       638 4.70847E-05 6.96046E-06-8.27181E-25
 -1       639 4.69297E-05 7.51570E-06 0.00000E+00
 -1       640 4.67797E-05 8.05685E-06 8.27181E-25
 -1       656 4.82080E-05 9.84663E-06 0.00000E+00
 -1       657 4.78012E-05 9.59047E-06-3.30872E-24
 -1       658 4.75305E-05 9.33509E-06 0.00000E+00
 -1       659 4.73084E-05 9.07993E-06 0.00000E+00
 -1       660 4.70412E-05 8.82395E-06-3.30872E-24
 -1       661 4.86041E-05 1.08346E-05-8.27181E-25
 -1       662 4.83852E-05 1.15448E-05-4.13590E-25
 -1       663 4.81779E-05 1.22241E-05 0.00000E+00
 -1       664 4.79818E-05 1.28740E-05-8.27181E-25
 -1       665 4.77964E-05 1.34958E-05 1.65436E-24
 -1       666 4.76212E-05 1.40906E-05 8.27181E-25
 -1       667 4.74557E-05 1.46595E-05 0.00000E+00
 -1       668 4.72995E-05 1.52039E-05 0.00000E+00
 -1       669 4.71521E-05 1.57246E-05 0.00000E+00
 -1       670 4.70131E-05 1.62229E-05-8.27181E-25
 -1       671 4.68822E-05 1.66997E-05 0.00000E+00
 -1       672 4.67588E-05 1.71561E-05 0.00000E+00
 -1       673 4.66428E-05 1.75930E-05 0.00000E+00
 -1       674 4.65332E-05 1.80112E-05 0.00000E+00
 -1       675 4.64304E-05 1.84119E-05 0.00000E+00
 -1       676 4.81379E-05 1.90371E-05 0.00000E+00
 -1       677 4.77759E-05 1.89883E-05 8.27181E-25
 -1       678 4.74142E-05 1.89396E-05 0.00000E+00
 -1       679 4.70527E-05 1.88910E-05 0.00000E+00
 -1       680 4.66917E-05 1.88424E-05 0.00000E+00
 -1       771 9.87009E-06 1.90794E-06 0.00000E+00
 -1       772 7.74153E-06 5.68682E-06 0.00000E+00
 -1       773 5.91367E-06 8.67091E-06 2.64698E-23
 -1       774 4.36600E-06 1.09123E-05-1.32349E-23
 -1       775 3.07847E-06 1.24639E-05 0.00000E+00
 -1       776 2.03032E-06 1.33797E-05 0.00000E+00
 -1       777 1.20056E-06 1.37146E-05 0.00000E+00
 -1       778 5.67903E-07 1.35243E-05 0.00000E+00
 -1       779 1.10952E-07 1.28655E-05 0.00000E+00
 -1       780-1.91974E-07 1.17951E-05 0.00000E+00
 -1       781-3.62603E-07 1.03711E-05 0.00000E+00
 -1       782-4.22865E-07 8.65176E-06 0.00000E+00
 -1       783-3.94726E-07 6.69570E-06 0.00000E+00
 -1       784-3.00241E-07 4.56210E-06-1.32349E-23
 -1       785-1.61547E-07 2.31027E-06 0.00000E+00
 -1       786 4.69922E-05 2.11399E-07 4.13590E-25
 -1       787 4.70310E-05 2.11824E-07 0.00000E+00
 -1       788 4.70696E-05 2.14073E-07 0.00000E+00
 -1       789 4.71087E-05 2.18670E-07 0.00000E+00
 -1       790 4.71477E-05 2.26348E-07 0.00000E+00
 -1       791 4.71869E-05 2.37846E-07 0.00000E+00
 -1       792 4.72260E-05 2.54241E-07 8.27181E-25
 -1       793 4.72652E-05 2.76621E-07-8.27181E-25
 -1       794 4.73044E-05 3.06605E-07 0.00000E+00
 -1       795 4.73435E-05 3.45824E-07 8.27181E-25
 -1       796 4.73827E-05 3.96733E-07 0.00000E+00
 -1       797 4.74219E-05 4.61806E-07 4.13590E-25
 -1       798 4.74610E-05 5.44777E-07 8.27181E-25
 -1       799 4.75000E-05 6.49410E-07 0.00000E+00
 -1       800 4.75391E-05 7.81398E-07 0.00000E+00
 -1       801 4.37846E-05 2.15255E-07 0.00000E+00
 -1       802 3.43497E-05 1.80414E-07 0.00000E+00
 -1       803 2.19539E-05 1.16000E-07-1.65436E-24
 -1       804 9.89872E-06 5.11033E-08 0.00000E+00
 -1       805 1.48065E-06 2.13990E-08-6.61744E-24
 -1       806 4.69079E-05 1.84878E-07 0.00000E+00
 -1       807 4.68581E-05 1.57633E-07 0.00000E+00
 -1       808 4.68068E-05 1.33581E-07 0.00000E+00
 -1       809 4.67531E-05 1.15301E-07 0.00000E+00
 -1       810 4.66962E-05 1.05363E-07 0.00000E+00
 -1       811 4.66352E-05 1.06302E-07 0.00000E+00
 -1       812 4.65692E-05 1.20649E-07 1.65436E-24
 -1       813 4.64971E-05 1.50930E-07-4.13590E-25
 -1       814 4.64182E-05 1.99668E-07 0.00000E+00
 -1       815 4.63314E-05 2.69387E-07 0.00000E+00
 -1       816 4.62357E-05 3.62608E-07 0.00000E+00
 -1       817 4.61304E-05 4.81851E-07 0.00000E+00
 -1       818 4.60143E-05 6.29637E-07-8.27181E-25
 -1       819 4.58867E-05 8.08475E-07 0.00000E+00
 -1       820 4.57466E-05 1.02088E-06-1.65436E-24
 -1       821 4.75221E-05 1.14391E-06 0.00000E+00
 -1       822 4.74632E-05 1.37313E-06 0.00000E+00
 -1       823 4.74045E-05 1.64454E-06-1.65436E-24
 -1       824 4.73451E-05 1.96840E-06 0.00000E+00
 -1       825 4.72858E-05 2.34841E-06 0.00000E+00
 -1       826 4.72262E-05 2.78811E-06-8.27181E-25
 -1       827 4.71666E-05 3.28352E-06 1.65436E-24
 -1       828 4.71070E-05 3.83053E-06-8.27181E-25
 -1       829 4.70474E-05 4.41853E-06 1.65436E-24
 -1       830 4.69877E-05 5.03679E-06 0.00000E+00
 -1       831 4.69281E-05 5.67082E-06 0.00000E+00
 -1       832 4.68686E-05 6.30603E-06 0.00000E+00
 -1       833 4.68091E-05 6.92770E-06 0.00000E+00
 -1       834 4.67503E-05 7.52116E-06 4.13590E-25
 -1       835 4.66913E-05 8.07528E-06 4.13590E-25
 -1       836 4.73371E-05 1.00022E-06 0.00000E+00
 -1       837 4.70256E-05 1.05515E-06 0.00000E+00
 -1       838 4.66692E-05 1.10997E-06 3.30872E-24
 -1       839 4.62943E-05 1.16445E-06-4.13590E-25
 -1       840 4.59271E-05 1.21885E-06-2.06795E-25
 -1       856 4.66189E-05 9.09217E-06 0.00000E+00
 -1       857 4.66001E-05 9.67020E-06 1.03398E-25
 -1       858 4.65813E-05 1.03029E-05 4.13590E-25
 -1       859 4.65622E-05 1.09798E-05 0.00000E+00
 -1       860 4.65430E-05 1.16908E-05-4.13590E-25
 -1       861 4.65238E-05 1.24255E-05 0.00000E+00
 -1       862 4.65045E-05 1.31734E-05-4.13590E-25
 -1       863 4.64852E-05 1.39243E-05 0.00000E+00
 -1       864 4.64659E-05 1.46677E-05 0.00000E+00
 -1       865 4.64466E-05 1.53934E-05-2.06795E-25
 -1       866 4.64274E-05 1.60908E-05 0.00000E+00
 -1       867 4.64081E-05 1.67498E-05 0.00000E+00
 -1       868 4.63889E-05 1.73599E-05-8.27181E-25
 -1       869 4.63697E-05 1.79109E-05-4.13590E-25
 -1       870 4.63505E-05 1.83926E-05-8.27181E-25
 -1       871 4.62445E-05 8.57852E-06 2.06795E-25
 -1       872 4.59155E-05 8.57674E-06 0.00000E+00
 -1       873 4.56219E-05 8.57473E-06 0.00000E+00
 -1       874 4.53367E-05 8.57241E-06-5.16988E-26
 -1       875 4.50329E-05 8.56980E-06 0.00000E+00
 -1       876 4.65001E-05 9.09751E-06 0.00000E+00
 -1       877 4.63537E-05 9.64757E-06-8.27181E-25
 -1       878 4.61971E-05 1.02254E-05 0.00000E+00
 -1       879 4.60316E-05 1.08273E-05 0.00000E+00
 -1       880 4.58583E-05 1.14499E-05 0.00000E+00
 -1       881 4.56787E-05 1.20896E-05 0.00000E+00
 -1       882 4.54940E-05 1.27427E-05 1.65436E-24
 -1       883 4.53056E-05 1.34058E-05-8.27181E-25
 -1       884 4.51147E-05 1.40752E-05 0.00000E+00
 -1       885 4.49228E-05 1.47476E-05 0.00000E+00
 -1       886 4.47311E-05 1.54192E-05 1.65436E-24
 -1       887 4.45410E-05 1.60866E-05-8.27181E-25
 -1       888 4.43537E-05 1.67462E-05 1.65436E-24
 -1       889 4.41703E-05 1.73943E-05-4.13590E-25
 -1       890 4.39924E-05 1.80275E-05 0.00000E+00
 -1       891 4.59831E-05 1.87692E-05 0.00000E+00
 -1       892 4.56239E-05 1.87434E-05 4.13590E-25
 -1       893 4.52406E-05 1.87176E-05 0.00000E+00
 -1       894 4.48205E-05 1.86919E-05-2.06795E-25
 -1       895 4.43507E-05 1.86663E-05-1.03398E-25
 -1       956 4.55380E-05 1.59131E-06-8.27181E-25
 -1       957 4.54813E-05 1.94979E-06 4.13590E-25
 -1       958 4.54243E-05 2.34098E-06 0.00000E+00
 -1       959 4.53673E-05 2.76084E-06-8.27181E-25
 -1       960 4.53102E-05 3.20537E-06 0.00000E+00
 -1       961 4.52531E-05 3.67051E-06 0.00000E+00
 -1       962 4.51960E-05 4.15222E-06 0.00000E+00
 -1       963 4.51389E-05 4.64645E-06 8.27181E-25
 -1       964 4.50818E-05 5.14916E-06-1.65436E-24
 -1       965 4.50246E-05 5.65629E-06 0.00000E+00
 -1       966 4.49675E-05 6.16380E-06 1.65436E-24
 -1       967 4.49104E-05 6.66764E-06-8.27181E-25
 -1       968 4.48533E-05 7.16375E-06-1.65436E-24
 -1       969 4.47964E-05 7.64811E-06-8.27181E-25
 -1       970 4.47396E-05 8.11667E-06 0.00000E+00
 -1       971 4.46302E-05 9.02668E-06 0.00000E+00
 -1       972 4.45761E-05 9.53598E-06-4.13590E-25
 -1       973 4.45219E-05 1.00881E-05 0.00000E+00
 -1       974 4.44675E-05 1.06775E-05 8.27181E-25
 -1       975 4.44132E-05 1.12987E-05 0.00000E+00
 -1       976 4.43588E-05 1.19462E-05 0.00000E+00
 -1       977 4.43044E-05 1.26142E-05-1.65436E-24
 -1       978 4.42500E-05 1.32975E-05 0.00000E+00
 -1       979 4.41956E-05 1.39902E-05 0.00000E+00
 -1       980 4.41411E-05 1.46870E-05 8.27181E-25
 -1       981 4.40868E-05 1.53823E-05-1.65436E-24
 -1       982 4.40324E-05 1.60704E-05-8.27181E-25
 -1       983 4.39781E-05 1.67460E-05 0.00000E+00
 -1       984 4.39241E-05 1.74033E-05-8.27181E-25
 -1       985 4.38703E-05 1.80369E-05 1.65436E-24
 -3
    1PSTEP                         4           2           1          
  100CL  102 3.12500E-01         409                     0    2           1
 -4  STRESS      6    1
 -5  SXX         1    4    1    1
 -5  SYY         1    4    2    2
 -5  SZZ         1    4    3    3
 -5  SXY         1    4    1    2
 -5  SYZ         1    4    2    3
 -5  SZX         1    4    3    1
 -1         1-1.07871E+06-4.96915E+05-2.19322E+05-6.97898E+05 6.54836E-11 7.05768E-10
 -1         2 1.81037E+03 2.04233E+05 5.90944E+03 4.18770E+02-1.02091E-10-5.22954E-09
 -1         3-3.57752E+01-4.70316E+05 5.25659E+01-1.22225E+02 1.75294E-10-6.40648E-09
 -1         5-3.18820E+00 1.62416E+05 4.25437E+00-2.28581E-02 8.19594E-11 6.92580E-09
 -1         8-5.07939E+05-2.21428E+05-1.71416E+04-3.85634E+05 2.05546E-10-4.26735E-09
 -1         9-8.71632E+05-2.25528E+05-8.62378E+04-3.01405E+05 2.26428E-09-1.65019E-09
 -1        10-1.41792E+02-4.80159E+05-4.55151E+02-7.60366E+02-8.13543E-10-1.50269E-08
 -1        12-1.44233E+00 1.62424E+05 1.37929E+02 1.11511E-01 1.01629E-10 3.28123E-09
 -1        15 1.34482E+03 7.39052E+02 4.34712E+03 1.89999E+00-2.13957E-09-6.65559E-07
 -1        16-2.45691E+06-7.90120E+05-3.81980E+05-8.03122E+05 6.92671E-09-4.75363E-10
 -1        17-5.41921E+05-3.34262E+05-1.04292E+05-3.15077E+05-3.56667E-09-6.85395E-10
 -1        18 1.85310E+04 1.61590E+03-7.83331E+03-3.82444E+04 4.84306E-10-2.10161E-09
 -1        19 5.08863E+04 6.06950E+04-2.81066E+02 9.96709E+03-4.42651E-10-2.15696E-09
 -1        20-2.10931E+04-2.40511E+05-5.30322E+04 1.78836E+04 3.32701E-09-5.56308E-10
 -1        21-2.27750E+01-1.39534E+05-4.50721E+02-3.46519E+01-6.28602E-09 3.91667E-09
 -1        24-2.15815E+06-7.49341E+05-3.08057E+05-9.13407E+05-1.00214E-08-5.87897E-09
 -1        25 1.91615E+04-2.41295E+03 1.13975E+04-6.90678E+04 2.42153E-10 1.49921E-09
 -1        26-1.17361E+04 4.14867E+04-8.21615E+03-5.94575E+03 9.99898E-10-1.23123E-10
 -1        27-3.85297E+04-1.31977E+05-4.95136E+04 2.97411E+04 4.05066E-09-3.16550E-09
 -1        28 1.07839E+04-3.85431E+04 7.87670E+03 1.23693E+04 2.40126E-09-2.26217E-09
 -1        32-5.14539E+05-7.51762E+04 2.22447E+05-3.46924E+05-1.03755E-08 9.12370E-09
 -1        33-7.54780E+04 3.88243E+04 1.37628E+04-2.25650E+04 6.78047E-10 5.86851E-09
 -1        34-9.80063E+04-9.75339E+03 2.31646E+02 3.01297E+04 1.99374E-09-1.59237E-10
 -1        35-1.09717E+04-1.53293E+04-5.98029E+02 2.43022E+04 2.61130E-09 3.68649E-10
 -1        51 9.89350E+03-2.54398E+05 2.43883E+04-6.29822E+05 1.89175E-10 7.23230E-09
 -1        52 5.22673E+03-2.52451E+05 1.61586E+04-7.34572E+05 3.96540E-10-3.27418E-10
 -1        53 3.43686E+03-2.59076E+05 1.41177E+04-6.27676E+05 3.23780E-10-2.99042E-09
 -1        54 1.07549E+04-2.56974E+05 2.28868E+04-7.36848E+05-1.38243E-10-9.83709E-09
 -1        55 2.35524E+04-2.65379E+05 4.11824E+04-6.27389E+05 6.91216E-10 2.56478E-09
 -1        56-2.07185E+06-2.34188E+05-1.61884E+05-7.99000E+05 7.63976E-11-3.89991E-09
 -1        57-2.13688E+06-3.80582E+05-1.09108E+05-7.92766E+05-1.50976E-10-3.92902E-10
 -1        58-2.10424E+06-2.85578E+05-3.81077E+04-7.89007E+05 2.31921E-11 5.45697E-11
 -1        59-2.09940E+06-3.20343E+05-2.27493E+04-8.04779E+05-5.87988E-10-8.73547E-09
 -1        60-2.10902E+06-2.92697E+05-8.90605E+03-7.87607E+05-8.85620E-10-7.32643E-09
 -1        61-2.09434E+06-3.11526E+05-5.06455E+03-8.05848E+05-6.05269E-10 6.08537E-09
 -1        62-2.10923E+06-2.94178E+05-2.44172E+03-7.88003E+05-9.34733E-10-2.25421E-09
 -1        63-2.09512E+06-3.08948E+05-2.00769E+03-8.04197E+05-4.69356E-10 5.14612E-09
 -1        64-2.10819E+06-2.95275E+05-2.30982E+03-7.89237E+05-6.52562E-11 7.44762E-10
 -1        65-2.09826E+06-3.07244E+05-4.62029E+03-8.01000E+05 2.64663E-10-1.83149E-09
 -1        66-2.10604E+06-2.95937E+05-8.13558E+03-7.91158E+05-1.16472E-09-6.11999E-09
 -1        67-2.10644E+06-3.11577E+05-2.06409E+04-7.95783E+05-1.65278E-09 2.53249E-09
 -1        68-2.10002E+06-2.91168E+05-3.46526E+04-7.94360E+05-3.00133E-10-1.08594E-09
 -1        69-2.14343E+06-3.63367E+05-9.90806E+04-7.81566E+05 1.45337E-09-9.45874E-11
 -1        70-2.06936E+06-2.45709E+05-1.47082E+05-8.04819E+05 1.34605E-10 1.31695E-09
 -1        86-9.07809E+02 2.02423E+05 6.33316E+03-2.09397E+02 7.98991E-10-3.12738E-09
 -1        87 6.02553E+03 2.06292E+05 1.32105E+04 8.60324E+02 1.33878E-09 6.84292E-09
 -1        88-5.11098E+03 2.00365E+05 2.02275E+04-6.50954E+02 2.00271E-09 3.81704E-09
 -1        89 3.80896E+04 2.21237E+05 5.45472E+04 1.84893E+03 3.03680E-09-6.80656E-09
 -1        90-3.28679E+04 1.87488E+05 7.70542E+04-1.19773E+03 3.47791E-09 6.69161E-09
 -1       121-5.60170E+01-4.70500E+05 3.27240E+01 6.10696E+01 4.65050E-11 8.86757E-10
 -1       122-1.59222E+01-4.70304E+05 1.12014E+02-2.44344E+02 8.84784E-10 5.41695E-09
 -1       123-7.03017E+01-4.70513E+05 1.59867E+02 1.83017E+02 3.45068E-10-2.48747E-09
 -1       124 2.16190E+02-4.70169E+05 4.66200E+02-5.64950E+02 1.83331E-09-5.08589E-09
 -1       125-2.25966E+02-4.70640E+05 6.71757E+02 3.81540E+02 5.72527E-10 4.19277E-10
 -1       191-3.48810E+00 1.62429E+05 5.07964E+00 1.11441E-02 1.16917E-10-3.51974E-10
 -1       192-3.57892E+00 1.62416E+05 9.00856E+00 2.76343E-01 1.56858E-10-6.82803E-09
 -1       193-4.52720E+00 1.62429E+05 1.67485E+01-2.89448E-01 1.70949E-10-8.84029E-10
 -1       194-4.83646E+00 1.62417E+05 3.40772E+01 7.76361E-01 7.83147E-11 2.79579E-09
 -1       195-6.52446E+00 1.62428E+05 6.66526E+01-4.92213E-01 2.82402E-10 2.45427E-09
 -1       251 1.83980E+05-3.19331E+04 7.46073E+04 2.93787E+03 5.36602E-11 2.13186E-09
 -1       252 2.17703E+05 3.69538E+04 5.28884E+04-9.78150E+03 2.89617E-10-1.07066E-08
 -1       253 1.96776E+05-4.94494E+03 1.93115E+04 2.08875E+03-1.24999E-10-1.72895E-09
 -1       254 2.02651E+05 5.71482E+03 1.21963E+04-8.43874E+03-4.15753E-10-2.79942E-09
 -1       255 1.98979E+05-7.64090E+02 4.98980E+03 1.59526E+03 1.76726E-10 3.65867E-09
 -1       256 2.00023E+05 9.06354E+02 3.03148E+03-7.70928E+03-1.56376E-10 5.67599E-09
 -1       257 1.99380E+05-1.33751E+02 1.56101E+03 1.35928E+03 3.85668E-10 6.94138E-09
 -1       258 1.99615E+05 2.82274E+02 1.38356E+03-7.47081E+03-7.91183E-10 1.34022E-09
 -1       259 1.99379E+05-1.36376E+02 1.58583E+03 1.35680E+03-1.35870E-10 3.44204E-09
 -1       260 2.00032E+05 9.29386E+02 3.10200E+03-7.69994E+03-4.54492E-10-7.92846E-09
 -1       261 1.98971E+05-7.84220E+02 5.11879E+03 1.58840E+03 5.16877E-10-2.32444E-09
 -1       262 2.02719E+05 5.86670E+03 1.25144E+04-8.41851E+03 5.66160E-11 6.68706E-10
 -1       263 1.96716E+05-5.07575E+03 1.98250E+04 2.07538E+03-6.97753E-10 2.68119E-09
 -1       264 2.18148E+05 3.79332E+04 5.42826E+04-9.74889E+03-1.27918E-09 6.52199E-09
 -1       265 1.83594E+05-3.27771E+04 7.65917E+04 2.91862E+03-8.28436E-10 7.71252E-10
 -1       266-2.43457E+04-1.13841E+04 5.71218E+04-4.06539E+01-3.25599E-09-1.04658E-06
 -1       267 2.82235E+04 1.32683E+04 4.03729E+04 4.69064E+01-6.42831E-09-2.07202E-06
 -1       268-3.78471E+03-1.87917E+03 1.50064E+04-5.97670E+00-5.20231E-09-1.66386E-06
 -1       269 4.46864E+03 2.24896E+03 9.75394E+03 6.96195E+00-3.88991E-09-1.26138E-06
 -1       270-6.70748E+02-3.69522E+02 4.70837E+03-9.44784E-01-2.91777E-09-9.19618E-07
 -1       271-2.39276E+06-2.97958E+05-1.84132E+05-9.31411E+05 9.80435E-10-6.06815E-09
 -1       272-2.44375E+06-4.47374E+05-1.18384E+05-9.47121E+05 7.55563E-10-4.49836E-09
 -1       273-2.42775E+06-3.43457E+05-4.34933E+04-9.22835E+05 1.14437E-09-2.93221E-09
 -1       274-2.40292E+06-3.91580E+05-2.43512E+04-9.60323E+05 6.78483E-10 1.12959E-09
 -1       275-2.43314E+06-3.47582E+05-1.01170E+04-9.20737E+05 4.45652E-11-4.25825E-09
 -1       276-2.39656E+06-3.86739E+05-5.37942E+03-9.63710E+05-6.25732E-10-1.22441E-10
 -1       277-2.43436E+06-3.47480E+05-2.63101E+03-9.19914E+05-1.46429E-10-2.22531E-09
 -1       278-2.39540E+06-3.86724E+05-1.91385E+03-9.64696E+05 8.19398E-10-1.39380E-10
 -1       279-2.43443E+06-3.47461E+05-2.05338E+03-9.19867E+05-8.52424E-10 4.89968E-09
 -1       280-2.39620E+06-3.86614E+05-3.76235E+03-9.63937E+05 1.10231E-09 4.29009E-09
 -1       281-2.43346E+06-3.47691E+05-6.88267E+03-9.20583E+05-2.21917E-10 1.43882E-09
 -1       282-2.40090E+06-3.89384E+05-1.64323E+04-9.61027E+05 5.72072E-10 4.26371E-09
 -1       283-2.42947E+06-3.45303E+05-2.93388E+04-9.22397E+05 2.35559E-10 3.89264E-10
 -1       284-2.42919E+06-4.26070E+05-7.97505E+04-9.50993E+05-1.22270E-09-1.14596E-09
 -1       285-2.40533E+06-3.15263E+05-1.24136E+05-9.28806E+05 5.24778E-10 1.79716E-09
 -1       301 9.17782E+03-5.60513E+03 7.16122E+04-1.76423E+04-5.45697E-10-1.88140E-09
 -1       302 9.86205E+03 1.25678E+04 5.17513E+04-2.59610E+04 1.06115E-09 8.55380E-10
 -1       303 4.32972E+02 8.21061E+02 4.76998E+04-1.76796E+04-4.10182E-10-6.74481E-09
 -1       304 1.86449E+04 2.06695E+04 8.03038E+04-2.58896E+04 9.16771E-10 1.24510E-09
 -1       305 1.84790E+04-1.36596E+04 1.34798E+05-1.76661E+04-6.54836E-10 2.68255E-09
 -1       306-2.57337E+06-2.96119E+05-1.96203E+05-1.00386E+06 1.83354E-09-2.57569E-09
 -1       307-2.67090E+06-4.65548E+05-1.33780E+05-9.73988E+05 1.91312E-09-3.94357E-09
 -1       308-2.61799E+06-3.57029E+05-4.61645E+04-9.85400E+05 1.05365E-09-2.61934E-10
 -1       309-2.61576E+06-3.98191E+05-2.79644E+04-9.99772E+05-1.43370E-09 6.82257E-09
 -1       310-2.62828E+06-3.62277E+05-1.08344E+04-9.78512E+05-3.29223E-10-1.85310E-09
 -1       311-2.60246E+06-3.93625E+05-6.28045E+03-1.00970E+06 3.10149E-09-1.35697E-09
 -1       312-2.63135E+06-3.61349E+05-3.07066E+03-9.75609E+05-2.88480E-10 2.36594E-09
 -1       313-2.59989E+06-3.94053E+05-2.76851E+03-1.01208E+06-1.51766E-09 1.34776E-09
 -1       314-2.63089E+06-3.61801E+05-3.32923E+03-9.76163E+05-1.63936E-10-8.97558E-10
 -1       315-2.60428E+06-3.92118E+05-7.01547E+03-1.00758E+06-6.86953E-10 3.31875E-09
 -1       316-2.62689E+06-3.63361E+05-1.22405E+04-9.80042E+05 1.77678E-09-1.80808E-09
 -1       317-2.61983E+06-3.96880E+05-3.16370E+04-9.95903E+05-2.35843E-09 8.85848E-10
 -1       318-2.61529E+06-3.57306E+05-5.22466E+04-9.87702E+05-1.62072E-09 5.42786E-09
 -1       319-2.68162E+06-4.73920E+05-1.51466E+05-9.67698E+05-1.08412E-09 4.90945E-09
 -1       320-2.56539E+06-2.87642E+05-2.22058E+05-1.00779E+06 6.15546E-09 1.01863E-10
 -1       336 1.67145E+02-4.89915E+05-1.72678E+03 3.78269E+02-4.55339E-09 4.66753E-09
 -1       337-6.61152E+02-4.90336E+05-2.29789E+03-9.89259E+02-8.30275E-09 6.69888E-09
 -1       338 2.21162E+02-4.89856E+05-3.36955E+03 6.09649E+02-5.86681E-09 4.01815E-09
 -1       339-3.68880E+03-4.92189E+05-7.75813E+03-1.44740E+03-1.03996E-08-3.54703E-10
 -1       340 2.53648E+03-4.88081E+05-1.20886E+04 8.33608E+02-6.85714E-09 2.69210E-09
 -1       406 9.08560E+00 1.62422E+05 2.72305E+02 3.72888E-01 3.36399E-10 5.22778E-09
 -1       407 9.35037E+01 1.62472E+05 5.78775E+02-6.68357E+00 4.65548E-11 2.21371E-09
 -1       408 2.96473E+02 1.62380E+05 1.15594E+03 6.38552E+00 4.29623E-10-1.91130E-09
 -1       409 1.24857E+03 1.62842E+05 2.60246E+03-5.83737E+01 7.38964E-11-6.15728E-09
 -1       410 3.58996E+03 1.62052E+05 5.31286E+03 5.33999E+01 4.92946E-10-1.30149E-09
 -1       521-4.86124E+06-5.61573E+05-3.64043E+05-1.89116E+06 3.76895E-09-9.64792E-09
 -1       522-5.03733E+06-8.74816E+05-2.47368E+05-1.84116E+06 5.71163E-10-5.31873E-09
 -1       523-4.94596E+06-6.70499E+05-8.55932E+04-1.85455E+06-8.54925E-11-1.55705E-09
 -1       524-4.93283E+06-7.54256E+05-5.15884E+04-1.89190E+06-6.79961E-10-1.87356E-10
 -1       525-4.96514E+06-6.79295E+05-1.99803E+04-1.84140E+06 1.47634E-09-3.50792E-09
 -1       526-4.91080E+06-7.43809E+05-1.15155E+04-1.90731E+06 6.98321E-11 5.86624E-11
 -1       527-4.96804E+06-6.80402E+05-5.52862E+03-1.83941E+06 7.51584E-10 1.56820E-09
 -1       528-4.91393E+06-7.36150E+05-4.69515E+03-1.90164E+06-6.63590E-10-8.95625E-10
 -1       529-4.96184E+06-6.87007E+05-5.61532E+03-1.84697E+06 9.09495E-13-6.08907E-10
 -1       530-4.93304E+06-7.20337E+05-1.12579E+04-1.87976E+06-2.36400E-09 1.51567E-09
 -1       531-4.94862E+06-6.96491E+05-2.00123E+04-1.86104E+06-4.40423E-10 8.18545E-11
 -1       532-4.97000E+06-7.16103E+05-5.11014E+04-1.84815E+06 6.27836E-11-7.22503E-09
 -1       533-4.92502E+06-6.91648E+05-8.49465E+04-1.87846E+06 5.82986E-10-5.54792E-09
 -1       534-5.07535E+06-8.35657E+05-2.45647E+05-1.79867E+06 7.27596E-11 5.52609E-09
 -1       535-4.84447E+06-5.79347E+05-3.61134E+05-1.90997E+06-7.54517E-09 6.12636E-09
 -1       536-1.38575E+04-1.34910E+04 3.10757E+04 2.78728E+02-8.69136E-10 7.32871E-09
 -1       537 5.27947E+02 1.56100E+04 2.21410E+04-1.17316E+03-4.73733E-09-3.93970E-09
 -1       538-8.53275E+03-2.11451E+03 8.01521E+03 2.73074E+02-2.14854E-10 5.66524E-09
 -1       539-5.75425E+03 2.44088E+03 5.11912E+03-1.18445E+03 2.08264E-09 4.84005E-09
 -1       540-7.58190E+03-3.29121E+02 2.02305E+03 2.90028E+02 4.42682E-10 3.91344E-09
 -1       541-6.92119E+03 3.76370E+02 1.20922E+03-1.21501E+03-1.10262E-09 2.00008E-09
 -1       542-7.36996E+03-4.86546E+01 4.83471E+02 3.03615E+02-1.22467E-09-5.51665E-11
 -1       543-7.20474E+03 4.60201E+01 2.42012E+02-1.23655E+03 2.68656E-10-9.67361E-10
 -1       544-7.30108E+03 2.96753E+00 3.01924E+01 3.11575E+02-6.74518E-11-7.95666E-11
 -1       545-7.31690E+03-6.38810E+01-1.54911E+02-1.24661E+03-7.76321E-11-2.89624E-09
 -1       546-7.25907E+03 6.20966E+01-3.55163E+02 3.13674E+02 3.48202E-10 3.75402E-09
 -1       547-7.50240E+03-4.59901E+02-9.36267E+02-1.24486E+03-1.22346E-09 2.34358E-09
 -1       548-7.11535E+03 3.98532E+02-1.51873E+03 3.09828E+02-1.57793E-09-1.87123E-09
 -1       549-8.57820E+03-2.93811E+03-4.14166E+03-1.23032E+03-6.91740E-10-4.42355E-10
 -1       550-6.18148E+03 2.53711E+03-5.89878E+03 2.99134E+02-2.34479E-13 7.90806E-10
 -1       551 4.25750E+03-2.57686E+05 1.43386E+04-4.42109E+05-1.91358E-08-6.64295E-09
 -1       552 8.67350E+03-2.57586E+05 1.85594E+04-6.29091E+05-1.49848E-08-1.14596E-10
 -1       553 5.53074E+03-2.60968E+05 2.89365E+04-4.40702E+05-2.40216E-08 6.58474E-10
 -1       554 2.27673E+04-2.48084E+05 6.14577E+04-6.29691E+05-1.50831E-08 2.87457E-09
 -1       555 2.33792E+04-2.72747E+05 1.10507E+05-4.41308E+05-2.36541E-08-2.54840E-09
 -1       556 3.58901E+04-8.22476E+04 2.85991E+04-1.10133E+05-2.14641E-09-3.01952E-09
 -1       557 6.93047E+04-1.10352E+05 1.49598E+04-1.37558E+05 1.86265E-09-3.61297E-10
 -1       558 3.62945E+04-8.63551E+04 6.13762E+03-1.06564E+05-5.31873E-09-6.06087E-09
 -1       559 6.53740E+04-1.14451E+05 3.08577E+03-1.39150E+05 3.94357E-09-3.01588E-09
 -1       560 3.57022E+04-8.59443E+04 1.32183E+03-1.06901E+05 1.70621E-09 2.74304E-09
 -1       561 6.43080E+04-1.14264E+05 6.81549E+02-1.39815E+05-2.89219E-10 3.71074E-10
 -1       562 3.51953E+04-8.55904E+04 2.78402E+02-1.07270E+05-5.96629E-10-6.27233E-09
 -1       563 6.36969E+04-1.14005E+05 1.59510E+02-1.40205E+05 6.47560E-10-2.21246E-09
 -1       564 3.48795E+04-8.53824E+04 5.91952E+01-1.07497E+05 1.60435E-09-1.19871E-09
 -1       565 6.33832E+04-1.13872E+05 2.80759E+01-1.40401E+05-1.56433E-09-4.84852E-09
 -1       566 3.47717E+04-8.53080E+04-2.01174E+01-1.07577E+05-3.90628E-09-1.25228E-08
 -1       567 6.33387E+04-1.13850E+05-8.17277E+01-1.40387E+05 2.95063E-09-4.06726E-09
 -1       568 3.48933E+04-8.53897E+04-2.11841E+02-1.07530E+05-1.16233E-09 7.96717E-10
 -1       569 6.31419E+04-1.13732E+05-5.00092E+02-1.39804E+05-3.73620E-09-7.94535E-09
 -1       570 3.55926E+04-8.60738E+04-1.02919E+03-1.07606E+05 1.07684E-09-2.16733E-09
 -1       571 1.17769E+05 4.27040E+03 6.32552E+03-2.95933E+04-3.81988E-11 4.20960E-09
 -1       572 1.18712E+05 1.48537E+03 3.09888E+03-3.24392E+04-9.50422E-11 4.85500E-09
 -1       573 1.18151E+05 3.54004E+02 1.37662E+03-2.95160E+04 1.07775E-10-8.39918E-10
 -1       574 1.18263E+05 1.14405E+02 6.89577E+02-3.25259E+04-9.84983E-10-2.77055E-09
 -1       575 1.18195E+05 1.49256E+01 3.24958E+02-2.95057E+04 4.80668E-10 2.00816E-09
 -1       576 1.18203E+05 3.15719E+00 1.65314E+02-3.25376E+04-3.59819E-10 7.66863E-09
 -1       577 1.18202E+05-3.29552E+00 8.13722E+01-2.95043E+04-1.04700E-09 3.15981E-09
 -1       578 1.18196E+05-1.91022E+00 4.42387E+01-3.25389E+04-2.15323E-10 1.44269E-09
 -1       579 1.18207E+05-3.35694E+00 2.69568E+01-2.95043E+04 4.85670E-10-3.52679E-09
 -1       580 1.18202E+05-3.67966E+00 2.49165E+01-3.25371E+04-3.02862E-10-3.77304E-09
 -1       581 1.18215E+05-5.32197E+00 3.37323E+01-2.95062E+04 4.94765E-10 6.12090E-10
 -1       582 1.18219E+05 6.85834E-01 6.39846E+01-3.25194E+04 9.49058E-10 1.11663E-09
 -1       583 1.18223E+05 1.80840E+01 1.23012E+02-2.95220E+04 9.88621E-10 3.36411E-09
 -1       584 1.18274E+05 1.15040E+02 2.75484E+02-3.23876E+04-5.28416E-10-1.21304E-10
 -1       585 1.18204E+05 3.59205E+02 5.59969E+02-2.96381E+04-9.01764E-10-1.51795E-09
 -1       586-1.46389E+03 3.83985E+04-1.93030E+03-1.00805E+05 3.21052E-10 1.49839E-10
 -1       587-3.26757E+02 3.81417E+04-2.31997E+02-1.10928E+05 5.60249E-10-4.76493E-09
 -1       588 3.89812E+02 3.81912E+04 1.33417E+03-1.00744E+05 3.09228E-10 4.46425E-09
 -1       589 1.98938E+03 3.89195E+04 3.90801E+03-1.10836E+05 4.68390E-10 1.22304E-09
 -1       590 5.73623E+03 3.76978E+04 8.37816E+03-1.00897E+05 2.31012E-10-5.28416E-10
 -1       591-2.56524E+04-7.36480E+03-8.55417E+03-1.33264E+04 5.10624E-10-1.35055E-08
 -1       592-2.64496E+04-9.46961E+03-4.63329E+03-1.55617E+04 9.51491E-09-2.93812E-09
 -1       593-2.65171E+04-6.73454E+03-1.92887E+03-1.39438E+04 9.37405E-09 1.03080E-08
 -1       594-2.52571E+04-8.22647E+03-9.62039E+02-1.56208E+04 4.85329E-10 3.04985E-09
 -1       595-2.65832E+04-6.73180E+03-4.42120E+02-1.39720E+04-1.09827E-09 4.95987E-10
 -1       596-2.51763E+04-8.16957E+03-2.25384E+02-1.56122E+04 8.28265E-10 9.61080E-10
 -1       597-2.65915E+04-6.73732E+03-1.24076E+02-1.39731E+04-2.94346E-10 1.26317E-09
 -1       598-2.51687E+04-8.16739E+03-1.02213E+02-1.56099E+04 2.70177E-10 1.80177E-09
 -1       599-2.65910E+04-6.73726E+03-1.33617E+02-1.39730E+04-5.63034E-10-8.80277E-10
 -1       600-2.51775E+04-8.17024E+03-2.50706E+02-1.56123E+04-7.27141E-10 4.91752E-10
 -1       601-2.65807E+04-6.73113E+03-4.95813E+02-1.39714E+04-1.24714E-09-4.48722E-10
 -1       602-2.52685E+04-8.23403E+03-1.08136E+03-1.56210E+04-5.27507E-10-5.21317E-09
 -1       603-2.65058E+04-6.73511E+03-2.16884E+03-1.39399E+04-8.74252E-11-5.83873E-09
 -1       604-2.66139E+04-9.62703E+03-5.21011E+03-1.55484E+04-4.49745E-10 2.06830E-09
 -1       605-2.55279E+04-7.44789E+03-9.61892E+03-1.32504E+04 3.18266E-10-3.00133E-10
 -1       606 1.68513E+04-5.66789E+03-1.02109E+04 1.64909E+04 3.63798E-10-4.58840E-10
 -1       607 1.51028E+04-1.82803E+03-5.08468E+03 1.85119E+04 1.80444E-09-1.95541E-09
 -1       608 1.60998E+04-3.07230E+02-2.27648E+03 1.63593E+04 2.07729E-08-2.38845E-09
 -1       609 1.59040E+04-8.15834E+01-1.15000E+03 1.86574E+04 3.43621E-08-5.41877E-09
 -1       610 1.60132E+04 1.31172E+01-5.48954E+02 1.63446E+04 1.37352E-08-4.85147E-09
 -1       611 1.59778E+04 1.80718E+01-2.77017E+02 1.86734E+04-5.43469E-09-2.33513E-09
 -1       612 1.59929E+04 1.95428E+01-1.32340E+02 1.63431E+04 9.28594E-09-3.85171E-09
 -1       613 1.59808E+04 2.06259E+01-6.04479E+01 1.86753E+04 1.83716E-08-2.79579E-09
 -1       614 1.59830E+04 1.78705E+01-1.68262E+01 1.63426E+04 1.06938E-08 2.42039E-09
 -1       615 1.59772E+04 2.19534E+01 1.86464E+01 1.86757E+04 4.94038E-09 2.80238E-09
 -1       616 1.59754E+04 1.96659E+01 6.21371E+01 1.63428E+04-9.04947E-11-2.87537E-09
 -1       617 1.59834E+04 3.62094E+01 1.44053E+02 1.86754E+04 2.33297E-09-1.02909E-08
 -1       618 1.59617E+04 6.19702E+01 2.91284E+02 1.63429E+04 4.82032E-10-1.48498E-09
 -1       619 1.60854E+04 2.62159E+02 6.54668E+02 1.86750E+04-1.30149E-09 1.56660E-09
 -1       620 1.58643E+04 7.53738E+02 1.31606E+03 1.63425E+04 1.19189E-09 1.71644E-09
 -1       621 2.05900E+02 1.28284E+05 1.77711E+03 4.07613E+03-2.43951E-10 2.68403E-09
 -1       622 2.35234E+02 1.28724E+05 1.50684E+03 5.94956E+03-1.70814E-10 6.10015E-09
 -1       623 1.01887E+01 1.28412E+05 1.73102E+03 4.05690E+03-1.49726E-10-3.25434E-09
 -1       624 7.83146E+02 1.29227E+05 3.28552E+03 5.96845E+03-1.63993E-10-6.47765E-09
 -1       625 7.86027E+02 1.27779E+05 5.71095E+03 4.05740E+03-1.14142E-10 1.24061E-10
 -1       626 1.05793E+05 2.93596E+04 2.11030E+03 5.72569E+04-2.96586E-09-2.37105E-09
 -1       627 1.04340E+05 3.04306E+04 1.01653E+03 5.95777E+04-7.80756E-09-1.00914E-08
 -1       628 1.05877E+05 2.83593E+04 4.29629E+02 5.75763E+04-3.08955E-09-5.22459E-09
 -1       629 1.04039E+05 3.01899E+04 2.10421E+02 5.97198E+04 2.32649E-09-2.87230E-09
 -1       630 1.05885E+05 2.83102E+04 9.74414E+01 5.75866E+04-6.91807E-09-2.01760E-09
 -1       631 1.04004E+05 3.01835E+04 5.23149E+01 5.97233E+04-9.74978E-09 2.35881E-08
 -1       632 1.05882E+05 2.83128E+04 3.46087E+01 5.75832E+04-1.39203E-08-1.11525E-08
 -1       633 1.03999E+05 3.01859E+04 3.86007E+01 5.97207E+04-2.16278E-09 6.70161E-09
 -1       634 1.05878E+05 2.83125E+04 6.25603E+01 5.75813E+04 9.10177E-10 2.68255E-09
 -1       635 1.04002E+05 3.01866E+04 1.26870E+02 5.97211E+04 6.85532E-11 1.43200E-09
 -1       636 1.05871E+05 2.83118E+04 2.56334E+02 5.75796E+04 4.09443E-10 9.78253E-09
 -1       637 1.04054E+05 3.02274E+04 5.63427E+02 5.97184E+04 5.50708E-10-6.48015E-10
 -1       638 1.05848E+05 2.84378E+04 1.15809E+03 5.75213E+04 5.67582E-10 1.51886E-10
 -1       639 1.04659E+05 3.10752E+04 2.73976E+03 5.95376E+04-1.12061E-09 2.30784E-10
 -1       640 1.05766E+05 3.09608E+04 5.68594E+03 5.64500E+04-1.27511E-09-4.05907E-09
 -1       656 2.86900E+04-7.26167E+05-6.92727E+04-5.11118E+02 7.27596E-11-8.55920E-10
 -1       657-3.79084E+04-7.57456E+05-5.72875E+04 4.75296E+03-4.41105E-10-7.44102E-09
 -1       658 9.09524E+03-7.35097E+05-3.51559E+04-9.53705E+02 6.55632E-10 5.67965E-09
 -1       659-4.06383E+04-7.58741E+05-6.08728E+04 5.04427E+03 4.94765E-10 2.55216E-09
 -1       660 3.14125E+04-7.24884E+05-7.54459E+04-8.02418E+02-3.45608E-10 1.96883E-09
 -1       661 1.03313E+05 1.12211E+04 9.90077E+03 4.03326E+04 1.96519E-09 5.20231E-10
 -1       662 1.08441E+05 1.90152E+04 6.67143E+03 3.86431E+04 1.24533E-09-1.34776E-09
 -1       663 1.05250E+05 1.44046E+04 2.33373E+03 3.97768E+04 5.20401E-10-4.84874E-10
 -1       664 1.06202E+05 1.52862E+04 1.39517E+03 3.93162E+04 3.41061E-11-5.08081E-10
 -1       665 1.05537E+05 1.48456E+04 5.50399E+02 3.96989E+04-2.37151E-09-6.74916E-10
 -1       666 1.05867E+05 1.47767E+04 3.20870E+02 3.94137E+04-4.34758E-09 2.98393E-09
 -1       667 1.05583E+05 1.49009E+04 1.69206E+02 3.96842E+04 2.17042E-10 1.24133E-09
 -1       668 1.05821E+05 1.47298E+04 1.69369E+02 3.94334E+04 1.89731E-09 5.31454E-10
 -1       669 1.05583E+05 1.48912E+04 2.26971E+02 3.96797E+04 4.63046E-10 8.12818E-10
 -1       670 1.05883E+05 1.48449E+04 4.91875E+02 3.94274E+04 4.59792E-09 5.18412E-10
 -1       671 1.05521E+05 1.47882E+04 8.72702E+02 3.96893E+04-3.63276E-10 9.67361E-10
 -1       672 1.06396E+05 1.56890E+04 2.23217E+03 3.92990E+04-1.52062E-09 3.52043E-09
 -1       673 1.05072E+05 1.40684E+04 3.74059E+03 3.98000E+04-3.82761E-09 3.73893E-09
 -1       674 1.09962E+05 2.16938E+04 1.06976E+04 3.82472E+04-4.36563E-09 1.78170E-09
 -1       675 1.01978E+05 8.95135E+03 1.58782E+04 4.06779E+04 2.91038E-10 4.68754E-09
 -1       676 1.16949E+01-1.39497E+05-5.43231E+02 1.73263E+01-6.04416E-10 6.53033E-09
 -1       677-1.44194E+02-1.39628E+05-9.94137E+02-3.46471E+01-2.79459E-09-2.20654E-10
 -1       678 9.62760E+01-1.39403E+05-1.75735E+03 1.73088E+01-6.34373E-11 8.87533E-10
 -1       679-1.75756E+03-1.40689E+05-4.17442E+03-3.45692E+01-7.09861E-10 4.38862E-09
 -1       680 1.04883E+03-1.38436E+05-6.72782E+03 1.70493E+01 6.35282E-10 3.66712E-09
 -1       771-1.50055E+06-2.60814E+05-3.64794E+04-6.21064E+05-5.82804E-09-5.25324E-09
 -1       772-1.49116E+06-2.81065E+05-1.96111E+04-6.43616E+05-3.00861E-09 6.00448E-09
 -1       773-1.50534E+06-2.57110E+05-8.39819E+03-6.23107E+05-2.12458E-09 2.31375E-09
 -1       774-1.48583E+06-2.76647E+05-4.10659E+03-6.45509E+05 4.40559E-09-9.88621E-10
 -1       775-1.50628E+06-2.56544E+05-2.03446E+03-6.23229E+05-8.80391E-10 4.18368E-10
 -1       776-1.48566E+06-2.76613E+05-9.48948E+02-6.46397E+05 4.62023E-10 1.21827E-09
 -1       777-1.50688E+06-2.56126E+05-5.62469E+02-6.23277E+05 4.61660E-09-5.61158E-10
 -1       778-1.48579E+06-2.76727E+05-2.57708E+02-6.47127E+05 9.40236E-09 8.84938E-10
 -1       779-1.50735E+06-2.55769E+05-2.40161E+02-6.23317E+05 3.07045E-09-3.22143E-09
 -1       780-1.48594E+06-2.76829E+05-1.98683E+02-6.47718E+05-6.31189E-10 1.79625E-11
 -1       781-1.50769E+06-2.55482E+05-3.50765E+02-6.23345E+05-3.75439E-09-1.06911E-09
 -1       782-1.48611E+06-2.76939E+05-6.53604E+02-6.48153E+05-5.95264E-09-2.31751E-09
 -1       783-1.50789E+06-2.55296E+05-1.30631E+03-6.23349E+05 2.92857E-10-2.98758E-09
 -1       784-1.48697E+06-2.77820E+05-3.10065E+03-6.48383E+05-3.28828E-09-7.27596E-11
 -1       785-1.50744E+06-2.55613E+05-5.73155E+03-6.22940E+05-9.19954E-09-4.47335E-09
 -1       786 1.09394E+05-5.83719E+03 1.35037E+04 1.53042E+00 9.27607E-08 2.78305E-10
 -1       787 1.15245E+05 6.75761E+03 9.55380E+03-7.39010E+00 1.84072E-07-3.51406E-10
 -1       788 1.11651E+05-9.15042E+02 3.49509E+03 2.49232E+00 2.64715E-07 2.87059E-09
 -1       789 1.12615E+05 1.05876E+03 2.19601E+03-9.96291E+00 3.45477E-07 2.15849E-09
 -1       790 1.12024E+05-1.42945E+02 8.93567E+02 4.10326E+00 4.73072E-07-4.89251E-09
 -1       791 1.12180E+05 1.66091E+02 5.24702E+02-1.41300E+01 6.01053E-07 7.05935E-09
 -1       792 1.12086E+05-2.30460E+01 2.39591E+02 6.65950E+00 8.40155E-07-4.62899E-09
 -1       793 1.12110E+05 3.24258E+01 1.57254E+02-2.06582E+01 1.07727E-06 6.04408E-09
 -1       794 1.12094E+05-9.36794E+00 1.16873E+02 1.06316E+01 5.38715E-07-4.70489E-09
 -1       795 1.12117E+05 4.84812E+01 1.69618E+02-3.07389E+01 1.66569E-09 4.28835E-09
 -1       796 1.12079E+05-3.90894E+01 2.54418E+02 1.67404E+01-7.43738E-11 9.56817E-11
 -1       797 1.12233E+05 2.86582E+02 6.00162E+02-4.62044E+01-3.67898E-10 3.31372E-09
 -1       798 1.11979E+05-2.47293E+02 9.47452E+02 2.60973E+01-9.50826E-11 2.44029E-09
 -1       799 1.12943E+05 1.82589E+03 2.58296E+03-7.00173E+01-3.85938E-10-2.17014E-09
 -1       800 1.11368E+05-1.57716E+03 3.64879E+03 4.05534E+01-1.28273E-10 6.75755E-10
 -1       801-6.31976E+03 1.02773E+04 9.84362E+03 1.16047E+04 6.38784E-09-2.83558E-09
 -1       802 1.65579E+04 5.68739E+04 3.18431E+04-4.77923E+04 1.71781E-08-2.88688E-09
 -1       803-9.84032E+03 2.68165E+04 4.09208E+04 1.10147E+04 1.35387E-08 9.51363E-09
 -1       804 7.92070E+04 9.01464E+04 1.13916E+05-4.83124E+04 1.59962E-08 1.19137E-08
 -1       805-6.89882E+04-2.28519E+04 1.48571E+05 1.21237E+04 5.67525E-09 1.58101E-08
 -1       806-1.28351E+05-2.75176E+04-1.09139E+04-5.34699E+04-5.96106E-09 7.83075E-10
 -1       807-1.28991E+05-2.59571E+04-5.36171E+03-5.63665E+04-1.41527E-08-8.85558E-09
 -1       808-1.28661E+05-2.35745E+04-2.27449E+03-5.53213E+04-1.04402E-08 1.03168E-08
 -1       809-1.27847E+05-2.44684E+04-1.11195E+03-5.65214E+04-1.19479E-08-2.80039E-09
 -1       810-1.28710E+05-2.34352E+04-5.09140E+02-5.54031E+04-5.97743E-09 4.16674E-09
 -1       811-1.27760E+05-2.44095E+04-2.52506E+02-5.65087E+04-2.65709E-09-9.17453E-11
 -1       812-1.28719E+05-2.34453E+04-1.25956E+02-5.54031E+04-1.99452E-09 3.77793E-09
 -1       813-1.27749E+05-2.44108E+04-7.94568E+01-5.65024E+04-1.94655E-09 1.73804E-09
 -1       814-1.28718E+05-2.34487E+04-7.44067E+01-5.54017E+04-1.52136E-09 1.11868E-10
 -1       815-1.27751E+05-2.44120E+04-1.16536E+02-5.65012E+04-3.24690E-10 4.01963E-09
 -1       816-1.28711E+05-2.34473E+04-2.18244E+02-5.54006E+04-1.33741E-09 3.34603E-09
 -1       817-1.27789E+05-2.44327E+04-4.68139E+02-5.64981E+04 2.84899E-10 2.13129E-09
 -1       818-1.28684E+05-2.35124E+04-9.53940E+02-5.53700E+04-1.61890E-09-9.19636E-09
 -1       819-1.28317E+05-2.50051E+04-2.24551E+03-5.63714E+04-2.95358E-10-1.46383E-09
 -1       820-1.28504E+05-2.52100E+04-4.56981E+03-5.46468E+04-2.18597E-09-7.26345E-09
 -1       821-1.65957E+05 9.21273E+03-2.13082E+04 9.50327E+00-4.74204E-10 1.04683E-09
 -1       822-1.75190E+05-1.06653E+04-1.50779E+04-1.85387E+02-1.62207E-09-1.09026E-09
 -1       823-1.69520E+05 1.44422E+03-5.51892E+03-2.34040E+01 1.13906E-09 3.77440E-10
 -1       824-1.71038E+05-1.67163E+03-3.47306E+03-1.08097E+02-1.07448E-10 1.73770E-09
 -1       825-1.70108E+05 2.26122E+02-1.42676E+03-6.77890E+01-2.20440E-09 1.52903E-09
 -1       826-1.70355E+05-2.66703E+02-8.62933E+02-1.96010E+01-4.52496E-09-1.56193E-09
 -1       827-1.70203E+05 4.03133E+01-4.45209E+02-1.11902E+02-3.24601E-09-1.39947E-09
 -1       828-1.70261E+05-8.15131E+01-3.95225E+02 5.70020E+01-3.39959E-09-8.94355E-10
 -1       829-1.70202E+05 4.10816E+01-4.51851E+02-1.44393E+02 1.53388E-11 5.34637E-09
 -1       830-1.70361E+05-2.73192E+02-8.83178E+02 1.02021E+02 6.54335E-10 1.17329E-08
 -1       831-1.70103E+05 2.31889E+02-1.46190E+03-1.56922E+02-1.73096E-09 1.57434E-09
 -1       832-1.71062E+05-1.71440E+03-3.56224E+03 1.04156E+02-1.08091E-09-3.75940E-09
 -1       833-1.69501E+05 1.48125E+03-5.66021E+03-1.46527E+02-1.27292E-09-9.27685E-10
 -1       834-1.75318E+05-1.09390E+04-1.54652E+04 6.41539E+01-5.11204E-10-1.21690E-09
 -1       835-1.65848E+05 9.44919E+03-2.18556E+04-1.16916E+02 3.68235E-09 2.34559E-09
 -1       836-5.53325E+02 1.57355E+05 9.47349E+03-1.38439E+04 1.19144E-09 8.20614E-09
 -1       837 2.08145E+03 1.60291E+05 8.08377E+03-2.78218E+04 1.70644E-09 4.58931E-09
 -1       838-2.05553E+02 1.58175E+05 8.33137E+03-1.37957E+04 1.49794E-09 3.24235E-09
 -1       839 5.34126E+03 1.62726E+05 1.58543E+04-2.78397E+04 1.96633E-09 1.47354E-09
 -1       840-1.60974E+03 1.54905E+05 2.53199E+04-1.38254E+04 1.31331E-09 3.43448E-09
 -1       856-5.21845E+04 4.45192E+03-1.17309E+04-2.51133E+02-2.09911E-09 2.76623E-09
 -1       857-5.70313E+04-5.22221E+03-8.07682E+03 2.68992E+03-3.51976E-09 2.93937E-09
 -1       858-5.40994E+04 6.23990E+02-3.04446E+03-2.59688E+02-2.55991E-09 9.05857E-10
 -1       859-5.48313E+04-7.26653E+02-1.83897E+03 2.70334E+03 1.76126E-09 6.27978E-10
 -1       860-5.43859E+04 8.69254E+01-7.73246E+02-2.64616E+02 5.76421E-10 4.32578E-11
 -1       861-5.45008E+04-9.74372E+01-4.30891E+02 2.71002E+03-2.28714E-09 2.32284E-09
 -1       862-5.44305E+04 1.16597E+01-1.90102E+02-2.66373E+02 2.73224E-09-2.74352E-09
 -1       863-5.44481E+04-8.74432E+00-9.41870E+01 2.71080E+03 7.26523E-09 7.14266E-10
 -1       864-5.44387E+04 1.46504E-01-2.99088E+01-2.65405E+02 3.32412E-09-1.09056E-09
 -1       865-5.44334E+04 1.15292E+01 1.66229E+01 2.70582E+03 5.54292E-09-3.36453E-09
 -1       866-5.44447E+04-8.68461E+00 6.25611E+01-2.61389E+02-1.40744E-10-2.57891E-10
 -1       867-5.43975E+04 7.34631E+01 1.72059E+02 2.69496E+03-2.22047E-09 2.65140E-09
 -1       868-5.44733E+04-6.10535E+01 2.90937E+02-2.54546E+02 1.19755E-09-3.63508E-09
 -1       869-5.41807E+04 5.07804E+02 7.80412E+02 2.67635E+03-1.15051E-09-1.85379E-09
 -1       870-5.46596E+04-4.31773E+02 1.13274E+03-2.42778E+02 1.26670E-09-5.67923E-10
 -1       871-2.41275E+03-5.02686E+03-7.87833E+03 5.16501E+04 1.60253E-09 2.68301E-11
 -1       872-1.04522E+03-6.78563E+03-3.20813E+03 6.69595E+04 2.28783E-09-1.80262E-09
 -1       873-1.80118E+01-5.95372E+03 4.70324E+02 5.15354E+04 1.00283E-09-5.76279E-09
 -1       874 1.22412E+03-4.80509E+03 4.49705E+03 6.69839E+04 4.02406E-09-5.15831E-09
 -1       875 2.89446E+03-7.02743E+03 9.96717E+03 5.16292E+04 1.70303E-09-4.53065E-09
 -1       876 1.29423E+05 2.22972E+04 6.94104E+03 5.25009E+04-2.19302E-09-6.89397E-10
 -1       877 1.29817E+05 2.38232E+04 3.70657E+03 5.45577E+04-4.49472E-09 5.07953E-10
 -1       878 1.30073E+05 2.15281E+04 1.55295E+03 5.30706E+04 4.92719E-10 1.78875E-09
 -1       879 1.28872E+05 2.28833E+04 7.73525E+02 5.46083E+04-1.33946E-09 1.76823E-09
 -1       880 1.30121E+05 2.15189E+04 3.60153E+02 5.30938E+04-2.35639E-09 3.79703E-09
 -1       881 1.28810E+05 2.28435E+04 1.91747E+02 5.45995E+04 1.83263E-09 1.20241E-08
 -1       882 1.30126E+05 2.15241E+04 1.21755E+02 5.30945E+04 2.05546E-10 9.65251E-10
 -1       883 1.28806E+05 2.28418E+04 1.29366E+02 5.45973E+04 7.10770E-10 5.90978E-09
 -1       884 1.30123E+05 2.15225E+04 2.04450E+02 5.30946E+04-1.64104E-09 1.49987E-09
 -1       885 1.28822E+05 2.28447E+04 4.10226E+02 5.46026E+04 9.78545E-10-6.48441E-09
 -1       886 1.30108E+05 2.15105E+04 8.26439E+02 5.30930E+04 3.23939E-09 1.20292E-09
 -1       887 1.28967E+05 2.29399E+04 1.80517E+03 5.46232E+04-2.26169E-09-3.82101E-10
 -1       888 1.29993E+05 2.15309E+04 3.63752E+03 5.30353E+04 6.45770E-10-1.50203E-09
 -1       889 1.31135E+05 2.51903E+04 8.69008E+03 5.45537E+04 1.24174E-10-5.28689E-09
 -1       890 1.28510E+05 2.32921E+04 1.62755E+04 5.16485E+04 9.26775E-10-4.56566E-09
 -1       891-7.78631E+01-7.36256E+04-8.66135E+02 1.40171E+04 1.09014E-09-5.33896E-09
 -1       892-1.35697E+02-7.38356E+04-9.43692E+02 2.12157E+04 1.08730E-09-1.11768E-08
 -1       893-1.85722E+01-7.36548E+04-1.34952E+03 1.40196E+04 5.76733E-10 5.53223E-09
 -1       894-7.31101E+02-7.43598E+04-2.80358E+03 2.11409E+04 6.26414E-10 9.84164E-09
 -1       895-5.69028E+02-7.30763E+04-4.93975E+03 1.40912E+04 1.08093E-09 5.55428E-09
 -1       956-1.62530E+05-2.34533E+03-5.90490E+03 1.07364E+04-2.21144E-09-8.52651E-11
 -1       957-1.63696E+05-7.92100E+02-3.03154E+03 1.29233E+04-7.27596E-12 3.36945E-09
 -1       958-1.63052E+05-6.38632E+01-1.36561E+03 1.06667E+04 2.55113E-09 1.03739E-09
 -1       959-1.63143E+05-1.31898E+01-6.97626E+02 1.29986E+04-1.48020E-09 4.58465E-09
 -1       960-1.63096E+05 1.74479E+01-3.39948E+02 1.06603E+04-2.41971E-09 2.38344E-09
 -1       961-1.63101E+05 1.49588E+01-1.80292E+02 1.30057E+04-4.27735E-09 3.86081E-10
 -1       962-1.63104E+05 1.41083E+01-1.02896E+02 1.06595E+04-1.85014E-09 1.66995E-09
 -1       963-1.63098E+05 1.49698E+01-8.21336E+01 1.30068E+04-2.45421E-09-3.04067E-09
 -1       964-1.63105E+05 1.48123E+01-9.90425E+01 1.06592E+04-1.57030E-09-3.03089E-10
 -1       965-1.63104E+05 1.65656E+01-1.70591E+02 1.30068E+04-6.79279E-12-4.46505E-09
 -1       966-1.63100E+05 1.94980E+01-3.19833E+02 1.06595E+04-2.93511E-09-4.02224E-10
 -1       967-1.63146E+05-8.25653E+00-6.55782E+02 1.30029E+04 8.52140E-10-2.57739E-09
 -1       968-1.63061E+05-5.53752E+01-1.28312E+03 1.06632E+04 2.67914E-09-3.61864E-09
 -1       969-1.63668E+05-7.38809E+02-2.84885E+03 1.29590E+04 2.35025E-09 7.01277E-10
 -1       970-1.62573E+05-2.19838E+03-5.54870E+03 1.07045E+04 6.15955E-10-8.12179E-10
 -1       971-1.54510E+05-8.17720E+02-4.54958E+03 7.61120E+03-2.35013E-09 3.54234E-10
 -1       972-1.55616E+05-5.88091E+02-2.47802E+03 1.06200E+04-2.81921E-09 2.90515E-09
 -1       973-1.55014E+05-6.24519E+00-1.10923E+03 7.54907E+03-2.42972E-09-9.71795E-10
 -1       974-1.55089E+05-8.46202E+00-5.74779E+02 1.06866E+04 1.41199E-09 7.67841E-10
 -1       975-1.55051E+05 1.34784E+01-2.86425E+02 7.54411E+03 7.18273E-10 3.46120E-10
 -1       976-1.55056E+05 1.39512E+01-1.64065E+02 1.06923E+04-1.55148E-09-3.85745E-09
 -1       977-1.55057E+05 1.23112E+01-1.16702E+02 7.54330E+03-2.74099E-10 6.72117E-10
 -1       978-1.55056E+05 1.57744E+01-1.33478E+02 1.06934E+04 7.85712E-09 3.56010E-09
 -1       979-1.55056E+05 1.54213E+01-2.11676E+02 7.54298E+03 2.79158E-09 2.86798E-09
 -1       980-1.55071E+05 1.68589E+01-4.06977E+02 1.06935E+04 4.76305E-09-4.25928E-10
 -1       981-1.55043E+05 2.56202E+01-7.87208E+02 7.54318E+03 1.75100E-09 3.73572E-09
 -1       982-1.55180E+05-4.08529E+01-1.62657E+03 1.06907E+04-2.52953E-10 2.05888E-09
 -1       983-1.54945E+05-2.40786E+01-3.15996E+03 7.54591E+03 2.39265E-09-2.35286E-09
 -1       984-1.56701E+05-1.68994E+03-7.07608E+03 1.06486E+04-2.11969E-09 1.14824E-09
 -1       985-1.53516E+05-2.33559E+03-1.29939E+04 7.58746E+03 1.83377E-09 2.46109E-09
 -3
    1PSTEP                         5           3           1          
  100CL  103 3.75000E-01         409                     0    3           1
 -4  DISP        4    1
 -5  D1          1    2    1    0
 -5  D2          1    2    2    0
 -5  D3          1    2    3    0
 -5  ALL         1    2    0    0    1ALL
 -1         1 9.81878E-05 0.00000E+00 0.00000E+00
 -1         2 9.05803E-05 7.69122E-30 1.65436E-24
 -1         3 8.48700E-05-2.15640E-27 6.61744E-24
 -1         5 6.03435E-05 3.01350E-26 0.00000E+00
 -1         8 7.84011E-05-7.16407E-07 0.00000E+00
 -1         9 7.96861E-05 4.80676E-07 0.00000E+00
 -1        10 7.82676E-05-1.19311E-06-3.30872E-24
 -1        12 5.99218E-05 4.08975E-07 0.00000E+00
 -1        15 5.48541E-05-7.80262E-07 0.00000E+00
 -1        16 5.67376E-05 3.76139E-07 0.00000E+00
 -1        17 5.79877E-05-2.46060E-06 0.00000E+00
 -1        18 5.78662E-05 2.16567E-07 0.00000E+00
 -1        19 5.86567E-05 8.15698E-07 0.00000E+00
 -1        20 5.87634E-05 1.20633E-05 0.00000E+00
 -1        21 5.83613E-05 2.28038E-05 0.00000E+00
 -1        24 1.48056E-05-3.29804E-06 0.00000E+00
 -1        25 5.65240E-05 3.10438E-07 0.00000E+00
 -1        26 5.72726E-05 1.13653E-06 0.00000E+00
 -1        27 5.61412E-05 1.02460E-05 0.00000E+00
 -1        28 5.57753E-05 2.24544E-05 0.00000E+00
 -1        32 0.00000E+00 0.00000E+00 0.00000E+00
 -1        33 5.49105E-05 1.52400E-06 0.00000E+00
 -1        34 5.38177E-05 1.02297E-05 0.00000E+00
 -1        35 5.27788E-05 2.22701E-05 0.00000E+00
 -1        51 9.69008E-05-1.18306E-07 0.00000E+00
 -1        52 9.45155E-05-2.33414E-07 0.00000E+00
 -1        53 9.12479E-05-3.49411E-07 0.00000E+00
 -1        54 8.73228E-05-4.67409E-07 0.00000E+00
 -1        55 8.29652E-05-5.88071E-07 2.79173E-24
 -1        56 9.72949E-05-5.71454E-07 2.64698E-23
 -1        57 9.65097E-05-1.53156E-06 0.00000E+00
 -1        58 9.58309E-05-2.77027E-06 0.00000E+00
 -1        59 9.52121E-05-4.18675E-06 0.00000E+00
 -1        60 9.46169E-05-5.66677E-06-2.64698E-23
 -1        61 9.40018E-05-7.09704E-06 0.00000E+00
 -1        62 9.33264E-05-8.36615E-06 0.00000E+00
 -1        63 9.25504E-05-9.36686E-06 0.00000E+00
 -1        64 9.16384E-05-1.00047E-05 2.64698E-23
 -1        65 9.05583E-05-1.01938E-05 1.32349E-23
 -1        66 8.92857E-05-9.86984E-06 2.64698E-23
 -1        67 8.78015E-05-8.98028E-06 0.00000E+00
 -1        68 8.60950E-05-7.50031E-06 0.00000E+00
 -1        69 8.41667E-05-5.41686E-06-1.32349E-23
 -1        70 8.20159E-05-2.75006E-06 0.00000E+00
 -1        86 9.02969E-05 8.61861E-08 1.65436E-24
 -1        87 8.94458E-05 1.71621E-07 8.27181E-25
 -1        88 8.80000E-05 2.56333E-07 0.00000E+00
 -1        89 8.59302E-05 3.37217E-07 0.00000E+00
 -1        90 8.31789E-05 4.17454E-07 0.00000E+00
 -1       121 8.46858E-05-1.98061E-07-6.61744E-24
 -1       122 8.41336E-05-3.96254E-07 3.30872E-24
 -1       123 8.32140E-05-5.94710E-07-6.61744E-24
 -1       124 8.19285E-05-7.93575E-07 0.00000E+00
 -1       125 8.02788E-05-9.92944E-07 0.00000E+00
 -1       191 6.03318E-05 6.81680E-08 0.00000E+00
 -1       192 6.02967E-05 1.36335E-07 0.00000E+00
 -1       193 6.02381E-05 2.04500E-07 0.00000E+00
 -1       194 6.01561E-05 2.72664E-07 1.65436E-24
 -1       195 6.00507E-05 3.40822E-07 0.00000E+00
 -1       251 7.84638E-05 2.53032E-06 0.00000E+00
 -1       252 7.85441E-05 4.44486E-06-5.16988E-26
 -1       253 7.86251E-05 5.26037E-06 1.65436E-24
 -1       254 7.87091E-05 5.20599E-06 8.27181E-25
 -1       255 7.87929E-05 4.47215E-06 0.00000E+00
 -1       256 7.88768E-05 3.24690E-06 0.00000E+00
 -1       257 7.89604E-05 1.69626E-06 3.30872E-24
 -1       258 7.90438E-05-1.48867E-08-1.65436E-24
 -1       259 7.91272E-05-1.72891E-06 0.00000E+00
 -1       260 7.92107E-05-3.28812E-06 1.65436E-24
 -1       261 7.92946E-05-4.52791E-06 0.00000E+00
 -1       262 7.93784E-05-5.28258E-06-8.27181E-25
 -1       263 7.94624E-05-5.36465E-06 0.00000E+00
 -1       264 7.95433E-05-4.58428E-06 0.00000E+00
 -1       265 7.96237E-05-2.71323E-06-3.30872E-24
 -1       266 7.44766E-05-7.36788E-07 0.00000E+00
 -1       267 7.05521E-05-7.46244E-07 0.00000E+00
 -1       268 6.66276E-05-7.56391E-07 0.00000E+00
 -1       269 6.27031E-05-7.64489E-07-2.06795E-25
 -1       270 5.87786E-05-7.72538E-07-4.13590E-25
 -1       271 7.60132E-05 2.21086E-06 0.00000E+00
 -1       272 7.39852E-05 4.07188E-06 0.00000E+00
 -1       273 7.23119E-05 4.99632E-06 0.00000E+00
 -1       274 7.09365E-05 5.11089E-06-1.32349E-23
 -1       275 6.98105E-05 4.55946E-06 2.64698E-23
 -1       276 6.88760E-05 3.49353E-06 0.00000E+00
 -1       277 6.80740E-05 2.07320E-06-2.64698E-23
 -1       278 6.73426E-05 4.63508E-07 0.00000E+00
 -1       279 6.66191E-05-1.16751E-06-2.64698E-23
 -1       280 6.58408E-05-2.65147E-06 1.32349E-23
 -1       281 6.49455E-05-3.82239E-06-2.64698E-23
 -1       282 6.38732E-05-4.51880E-06-1.32349E-23
 -1       283 6.25657E-05-4.58685E-06-2.64698E-23
 -1       284 6.09716E-05-3.88060E-06 1.32349E-23
 -1       285 5.90353E-05-2.26914E-06-2.64698E-23
 -1       301 7.57943E-05 4.58537E-07 3.30872E-24
 -1       302 7.19056E-05 4.48075E-07-1.65436E-24
 -1       303 6.80377E-05 4.37979E-07-3.30872E-24
 -1       304 6.42086E-05 4.26623E-07 0.00000E+00
 -1       305 6.04360E-05 4.13497E-07-6.61744E-24
 -1       306 7.72196E-05 3.36280E-06 2.64698E-23
 -1       307 7.51222E-05 5.14731E-06 1.32349E-23
 -1       308 7.34438E-05 5.82745E-06 2.64698E-23
 -1       309 7.21665E-05 5.41830E-06-1.32349E-23
 -1       310 7.12413E-05 4.06908E-06 0.00000E+00
 -1       311 7.05980E-05 1.96118E-06 0.00000E+00
 -1       312 7.01362E-05-6.33502E-07 0.00000E+00
 -1       313 6.97476E-05-3.42540E-06-2.64698E-23
 -1       314 6.93158E-05-6.10115E-06-5.29396E-23
 -1       315 6.87257E-05-8.35171E-06-1.32349E-23
 -1       316 6.78806E-05-9.91907E-06 2.64698E-23
 -1       317 6.66942E-05-1.05702E-05 0.00000E+00
 -1       318 6.51174E-05-1.01809E-05-2.64698E-23
 -1       319 6.31247E-05-8.66257E-06 1.32349E-23
 -1       320 6.07214E-05-6.06613E-06 0.00000E+00
 -1       336 7.58749E-05-1.40189E-06 0.00000E+00
 -1       337 7.30808E-05-1.61179E-06 3.30872E-24
 -1       338 6.98895E-05-1.82277E-06 6.61744E-24
 -1       339 6.63062E-05-2.03470E-06-3.30872E-24
 -1       340 6.23368E-05-2.24806E-06 0.00000E+00
 -1       406 5.97694E-05 4.77115E-07 0.00000E+00
 -1       407 5.95937E-05 5.45230E-07 0.00000E+00
 -1       408 5.93945E-05 6.13300E-07-3.30872E-24
 -1       409 5.91719E-05 6.81239E-07 0.00000E+00
 -1       410 5.89259E-05 7.48914E-07 0.00000E+00
 -1       521 5.34331E-05 2.19939E-06-5.29396E-23
 -1       522 5.07805E-05 2.06568E-06 0.00000E+00
 -1       523 4.88174E-05 1.06318E-07 5.29396E-23
 -1       524 4.74403E-05-3.46385E-06-2.64698E-23
 -1       525 4.64752E-05-8.14385E-06 0.00000E+00
 -1       526 4.57080E-05-1.33654E-05 0.00000E+00
 -1       527 4.48958E-05-1.84659E-05 5.29396E-23
 -1       528 4.37956E-05-2.27913E-05 0.00000E+00
 -1       529 4.22134E-05-2.58209E-05-5.29396E-23
 -1       530 3.99844E-05-2.71184E-05 0.00000E+00
 -1       531 3.70530E-05-2.65452E-05 0.00000E+00
 -1       532 3.34112E-05-2.40835E-05 0.00000E+00
 -1       533 2.91694E-05-2.00399E-05 0.00000E+00
 -1       534 2.44934E-05-1.48177E-05-2.64698E-23
 -1       535 1.95971E-05-9.03223E-06 0.00000E+00
 -1       536 5.79671E-05 1.59411E-06 3.30872E-24
 -1       537 5.79556E-05 4.68926E-06 0.00000E+00
 -1       538 5.79459E-05 6.90802E-06-8.27181E-25
 -1       539 5.79388E-05 8.33382E-06-2.06795E-25
 -1       540 5.79324E-05 9.06040E-06-4.13590E-25
 -1       541 5.79265E-05 9.18166E-06 0.00000E+00
 -1       542 5.79206E-05 8.79924E-06 0.00000E+00
 -1       543 5.79145E-05 8.01492E-06 0.00000E+00
 -1       544 5.79082E-05 6.93556E-06 0.00000E+00
 -1       545 5.79016E-05 5.66811E-06 1.03398E-25
 -1       546 5.78950E-05 4.32192E-06-2.06795E-25
 -1       547 5.78885E-05 3.00634E-06 5.16988E-26
 -1       548 5.78821E-05 1.83033E-06 0.00000E+00
 -1       549 5.78762E-05 9.02839E-07 2.58494E-26
 -1       550 5.78705E-05 3.29683E-07-2.06795E-25
 -1       551 5.22603E-05-2.58745E-06 0.00000E+00
 -1       552 4.54126E-05-2.71887E-06-8.27181E-25
 -1       553 3.78412E-05-2.85531E-06-4.96308E-24
 -1       554 2.99485E-05-2.99599E-06 0.00000E+00
 -1       555 2.21369E-05-3.13827E-06 0.00000E+00
 -1       556 5.64837E-05 1.43799E-06-1.32349E-23
 -1       557 5.53339E-05 4.41937E-06 0.00000E+00
 -1       558 5.44996E-05 6.56804E-06 0.00000E+00
 -1       559 5.39457E-05 7.97520E-06 0.00000E+00
 -1       560 5.36369E-05 8.73177E-06 0.00000E+00
 -1       561 5.35383E-05 8.92921E-06 0.00000E+00
 -1       562 5.36152E-05 8.65905E-06 0.00000E+00
 -1       563 5.38330E-05 8.01290E-06 0.00000E+00
 -1       564 5.41573E-05 7.08244E-06 0.00000E+00
 -1       565 5.45536E-05 5.95936E-06-8.27181E-25
 -1       566 5.49877E-05 4.73540E-06-8.27181E-25
 -1       567 5.54251E-05 3.50232E-06-2.06795E-25
 -1       568 5.58317E-05 2.35185E-06 0.00000E+00
 -1       569 5.61732E-05 1.37561E-06 0.00000E+00
 -1       570 5.64151E-05 6.65263E-07 0.00000E+00
 -1       571 5.79142E-05 2.85655E-07 6.20385E-25
 -1       572 5.79632E-05 3.21991E-07-6.20385E-25
 -1       573 5.80126E-05 3.31401E-07-8.27181E-25
 -1       574 5.80621E-05 3.20019E-07 4.13590E-25
 -1       575 5.81116E-05 2.94004E-07-8.27181E-25
 -1       576 5.81612E-05 2.59557E-07 0.00000E+00
 -1       577 5.82107E-05 2.22884E-07 1.65436E-24
 -1       578 5.82603E-05 1.90194E-07 8.27181E-25
 -1       579 5.83099E-05 1.67698E-07 3.30872E-24
 -1       580 5.83595E-05 1.61607E-07 0.00000E+00
 -1       581 5.84091E-05 1.78130E-07 0.00000E+00
 -1       582 5.84587E-05 2.23471E-07 0.00000E+00
 -1       583 5.85082E-05 3.03826E-07 0.00000E+00
 -1       584 5.85578E-05 4.25329E-07 0.00000E+00
 -1       585 5.86073E-05 5.94078E-07-3.30872E-24
 -1       586 5.76258E-05 2.33186E-07-8.27181E-25
 -1       587 5.73643E-05 2.49387E-07 0.00000E+00
 -1       588 5.71025E-05 2.65410E-07 4.13590E-25
 -1       589 5.68613E-05 2.81178E-07 0.00000E+00
 -1       590 5.66617E-05 2.96519E-07 0.00000E+00
 -1       591 5.78173E-05 3.10842E-07-5.16988E-26
 -1       592 5.77766E-05 3.78004E-07 0.00000E+00
 -1       593 5.77440E-05 4.23202E-07 0.00000E+00
 -1       594 5.77176E-05 4.51080E-07 0.00000E+00
 -1       595 5.76960E-05 4.66342E-07 0.00000E+00
 -1       596 5.76773E-05 4.73656E-07 0.00000E+00
 -1       597 5.76598E-05 4.77689E-07 4.13590E-25
 -1       598 5.76417E-05 4.83105E-07 0.00000E+00
 -1       599 5.76214E-05 4.94565E-07 0.00000E+00
 -1       600 5.75971E-05 5.16733E-07 1.03398E-25
 -1       601 5.75671E-05 5.54271E-07-2.06795E-25
 -1       602 5.75296E-05 6.11847E-07 1.03398E-25
 -1       603 5.74829E-05 6.94128E-07 0.00000E+00
 -1       604 5.74253E-05 8.05818E-07 0.00000E+00
 -1       605 5.73552E-05 9.51560E-07 0.00000E+00
 -1       606 5.86659E-05 1.15022E-06-1.65436E-24
 -1       607 5.86733E-05 1.55550E-06 0.00000E+00
 -1       608 5.86803E-05 2.02738E-06 0.00000E+00
 -1       609 5.86870E-05 2.56119E-06 0.00000E+00
 -1       610 5.86936E-05 3.15222E-06 0.00000E+00
 -1       611 5.87002E-05 3.79570E-06 0.00000E+00
 -1       612 5.87066E-05 4.48684E-06 0.00000E+00
 -1       613 5.87131E-05 5.22088E-06 8.27181E-25
 -1       614 5.87195E-05 5.99302E-06 0.00000E+00
 -1       615 5.87259E-05 6.79848E-06 0.00000E+00
 -1       616 5.87323E-05 7.63250E-06 0.00000E+00
 -1       617 5.87386E-05 8.49027E-06 0.00000E+00
 -1       618 5.87450E-05 9.36702E-06 0.00000E+00
 -1       619 5.87512E-05 1.02580E-05 0.00000E+00
 -1       620 5.87575E-05 1.11583E-05-2.06795E-25
 -1       621 5.83917E-05 8.69205E-07 1.65436E-24
 -1       622 5.81459E-05 9.22976E-07 0.00000E+00
 -1       623 5.79151E-05 9.76739E-07 0.00000E+00
 -1       624 5.76954E-05 1.03042E-06 0.00000E+00
 -1       625 5.74826E-05 1.08400E-06 0.00000E+00
 -1       626 5.85885E-05 1.16703E-06 3.30872E-24
 -1       627 5.84987E-05 1.57695E-06 0.00000E+00
 -1       628 5.83891E-05 2.04003E-06 3.30872E-24
 -1       629 5.82617E-05 2.55047E-06 0.00000E+00
 -1       630 5.81187E-05 3.10247E-06 0.00000E+00
 -1       631 5.79624E-05 3.69019E-06-1.65436E-24
 -1       632 5.77948E-05 4.30777E-06 0.00000E+00
 -1       633 5.76181E-05 4.94939E-06 0.00000E+00
 -1       634 5.74347E-05 5.60920E-06 1.65436E-24
 -1       635 5.72466E-05 6.28133E-06 0.00000E+00
 -1       636 5.70561E-05 6.95998E-06 1.65436E-24
 -1       637 5.68653E-05 7.63928E-06 8.27181E-25
 -1       638 5.66764E-05 8.31338E-06-1.65436E-24
 -1       639 5.64915E-05 8.97645E-06 4.13590E-25
 -1       640 5.63127E-05 9.62263E-06 0.00000E+00
 -1       656 5.80117E-05 1.17677E-05 0.00000E+00
 -1       657 5.75257E-05 1.14602E-05 0.00000E+00
 -1       658 5.72035E-05 1.11536E-05 6.61744E-24
 -1       659 5.69408E-05 1.08473E-05 0.00000E+00
 -1       660 5.66242E-05 1.05400E-05 3.30872E-24
 -1       661 5.84854E-05 1.29501E-05 8.27181E-25
 -1       662 5.82240E-05 1.37989E-05-8.27181E-25
 -1       663 5.79764E-05 1.46106E-05-1.65436E-24
 -1       664 5.77425E-05 1.53870E-05 0.00000E+00
 -1       665 5.75212E-05 1.61296E-05-1.65436E-24
 -1       666 5.73122E-05 1.68399E-05 0.00000E+00
 -1       667 5.71148E-05 1.75193E-05 0.00000E+00
 -1       668 5.69285E-05 1.81692E-05 0.00000E+00
 -1       669 5.67528E-05 1.87909E-05-1.65436E-24
 -1       670 5.65872E-05 1.93858E-05 8.27181E-25
 -1       671 5.64312E-05 1.99549E-05 0.00000E+00
 -1       672 5.62842E-05 2.04996E-05 0.00000E+00
 -1       673 5.61460E-05 2.10210E-05 1.65436E-24
 -1       674 5.60156E-05 2.15200E-05 4.13590E-25
 -1       675 5.58933E-05 2.19979E-05 4.13590E-25
 -1       676 5.79295E-05 2.27452E-05 0.00000E+00
 -1       677 5.74978E-05 2.26867E-05 8.27181E-25
 -1       678 5.70664E-05 2.26281E-05 0.00000E+00
 -1       679 5.66354E-05 2.25698E-05 0.00000E+00
 -1       680 5.62050E-05 2.25115E-05 0.00000E+00
 -1       771 1.18553E-05 2.29145E-06 2.64698E-23
 -1       772 9.28398E-06 6.86442E-06-1.32349E-23
 -1       773 7.07602E-06 1.04792E-05-2.64698E-23
 -1       774 5.20691E-06 1.31975E-05 1.32349E-23
 -1       775 3.65267E-06 1.50819E-05-2.64698E-23
 -1       776 2.38837E-06 1.61970E-05-1.32349E-23
 -1       777 1.38878E-06 1.66084E-05-2.64698E-23
 -1       778 6.28251E-07 1.63831E-05 0.00000E+00
 -1       779 8.09283E-08 1.55891E-05-2.64698E-23
 -1       780-2.79407E-07 1.42954E-05-1.32349E-23
 -1       781-4.79062E-07 1.25718E-05-2.64698E-23
 -1       782-5.44634E-07 1.04892E-05 0.00000E+00
 -1       783-5.02772E-07 8.11869E-06 2.64698E-23
 -1       784-3.80270E-07 5.53212E-06 0.00000E+00
 -1       785-2.04022E-07 2.80163E-06 2.64698E-23
 -1       786 5.65681E-05 3.06757E-07 0.00000E+00
 -1       787 5.66148E-05 3.05360E-07 4.13590E-25
 -1       788 5.66613E-05 3.06587E-07 0.00000E+00
 -1       789 5.67083E-05 3.10782E-07-8.27181E-25
 -1       790 5.67553E-05 3.18607E-07 0.00000E+00
 -1       791 5.68024E-05 3.30734E-07 8.27181E-25
 -1       792 5.68495E-05 3.48298E-07 1.65436E-24
 -1       793 5.68967E-05 3.72443E-07-8.27181E-25
 -1       794 5.69438E-05 4.05026E-07-1.65436E-24
 -1       795 5.69909E-05 4.47918E-07-8.27181E-25
 -1       796 5.70381E-05 5.04102E-07 1.65436E-24
 -1       797 5.70852E-05 5.76588E-07-8.27181E-25
 -1       798 5.71323E-05 6.70143E-07 0.00000E+00
 -1       799 5.71793E-05 7.89575E-07 0.00000E+00
 -1       800 5.72263E-05 9.42484E-07 0.00000E+00
 -1       801 5.27065E-05 3.12788E-07-4.13590E-25
 -1       802 4.13425E-05 2.60313E-07 0.00000E+00
 -1       803 2.64133E-05 1.65011E-07 3.30872E-24
 -1       804 1.18980E-05 7.01878E-08 0.00000E+00
 -1       805 1.76783E-06 2.60492E-08-1.32349E-23
 -1       806 5.64679E-05 2.74482E-07-1.65436E-24
 -1       807 5.64094E-05 2.38610E-07 0.00000E+00
 -1       808 5.63491E-05 2.06480E-07 0.00000E+00
 -1       809 5.62859E-05 1.81197E-07 0.00000E+00
 -1       810 5.62189E-05 1.65859E-07 0.00000E+00
 -1       811 5.61470E-05 1.63520E-07 0.00000E+00
 -1       812 5.60690E-05 1.77228E-07 1.65436E-24
 -1       813 5.59839E-05 2.10026E-07 8.27181E-25
 -1       814 5.58905E-05 2.64955E-07 0.00000E+00
 -1       815 5.57877E-05 3.45052E-07-8.27181E-25
 -1       816 5.56743E-05 4.53354E-07-8.27181E-25
 -1       817 5.55491E-05 5.92899E-07-4.13590E-25
 -1       818 5.54112E-05 7.66718E-07-8.27181E-25
 -1       819 5.52593E-05 9.77836E-07-4.13590E-25
 -1       820 5.50925E-05 1.22928E-06-1.65436E-24
 -1       821 5.72059E-05 1.36255E-06 0.00000E+00
 -1       822 5.71352E-05 1.61169E-06 0.00000E+00
 -1       823 5.70647E-05 1.90279E-06 0.00000E+00
 -1       824 5.69935E-05 2.25454E-06 0.00000E+00
 -1       825 5.69222E-05 2.67658E-06 0.00000E+00
 -1       826 5.68507E-05 3.17829E-06 0.00000E+00
 -1       827 5.67791E-05 3.75713E-06 1.65436E-24
 -1       828 5.67075E-05 4.41031E-06 0.00000E+00
 -1       829 5.66358E-05 5.12392E-06 0.00000E+00
 -1       830 5.65641E-05 5.88383E-06-8.27181E-25
 -1       831 5.64924E-05 6.66901E-06 1.65436E-24
 -1       832 5.64209E-05 7.45831E-06 0.00000E+00
 -1       833 5.63494E-05 8.22998E-06 0.00000E+00
 -1       834 5.62788E-05 8.96234E-06 8.27181E-25
 -1       835 5.62079E-05 9.63956E-06 0.00000E+00
 -1       836 5.69871E-05 1.20104E-06 0.00000E+00
 -1       837 5.66164E-05 1.26696E-06 0.00000E+00
 -1       838 5.61917E-05 1.33277E-06 0.00000E+00
 -1       839 5.57447E-05 1.39815E-06 0.00000E+00
 -1       840 5.53072E-05 1.46344E-06 0.00000E+00
 -1       856 5.61209E-05 1.08586E-05-2.06795E-25
 -1       857 5.60983E-05 1.15490E-05 1.03398E-25
 -1       858 5.60758E-05 1.23050E-05 0.00000E+00
 -1       859 5.60528E-05 1.31142E-05 2.06795E-25
 -1       860 5.60298E-05 1.39642E-05 8.27181E-25
 -1       861 5.60066E-05 1.48426E-05-4.13590E-25
 -1       862 5.59835E-05 1.57370E-05 8.27181E-25
 -1       863 5.59603E-05 1.66350E-05 4.13590E-25
 -1       864 5.59371E-05 1.75239E-05-8.27181E-25
 -1       865 5.59139E-05 1.83915E-05 4.13590E-25
 -1       866 5.58908E-05 1.92253E-05 8.27181E-25
 -1       867 5.58676E-05 2.00129E-05 0.00000E+00
 -1       868 5.58446E-05 2.07419E-05 0.00000E+00
 -1       869 5.58215E-05 2.13999E-05 0.00000E+00
 -1       870 5.57985E-05 2.19749E-05 0.00000E+00
 -1       871 5.56749E-05 1.02454E-05 0.00000E+00
 -1       872 5.52832E-05 1.02432E-05 0.00000E+00
 -1       873 5.49341E-05 1.02408E-05 0.00000E+00
 -1       874 5.45951E-05 1.02380E-05-1.03398E-25
 -1       875 5.42337E-05 1.02348E-05 0.00000E+00
 -1       876 5.59795E-05 1.08650E-05-1.65436E-24
 -1       877 5.58051E-05 1.15219E-05 8.27181E-25
 -1       878 5.56183E-05 1.22121E-05 0.00000E+00
 -1       879 5.54208E-05 1.29313E-05 0.00000E+00
 -1       880 5.52140E-05 1.36752E-05 0.00000E+00
 -1       881 5.49996E-05 1.44396E-05 8.27181E-25
 -1       882 5.47791E-05 1.52202E-05 1.65436E-24
 -1       883 5.45541E-05 1.60127E-05 0.00000E+00
 -1       884 5.43263E-05 1.68129E-05 1.65436E-24
 -1       885 5.40971E-05 1.76165E-05 8.27181E-25
 -1       886 5.38682E-05 1.84193E-05 1.65436E-24
 -1       887 5.36412E-05 1.92170E-05 0.00000E+00
 -1       888 5.34176E-05 2.00054E-05 0.00000E+00
 -1       889 5.31987E-05 2.07800E-05 0.00000E+00
 -1       890 5.29862E-05 2.15366E-05 0.00000E+00
 -1       891 5.53607E-05 2.24236E-05 0.00000E+00
 -1       892 5.49327E-05 2.23927E-05 4.13590E-25
 -1       893 5.44759E-05 2.23617E-05-4.13590E-25
 -1       894 5.39749E-05 2.23308E-05-2.06795E-25
 -1       895 5.34142E-05 2.23000E-05-6.20385E-25
 -1       956 5.48434E-05 1.90709E-06-1.65436E-24
 -1       957 5.47753E-05 2.33402E-06 8.27181E-25
 -1       958 5.47070E-05 2.80023E-06-1.65436E-24
 -1       959 5.46385E-05 3.30089E-06-8.27181E-25
 -1       960 5.45700E-05 3.83118E-06-1.65436E-24
 -1       961 5.45014E-05 4.38625E-06 0.00000E+00
 -1       962 5.44329E-05 4.96122E-06 0.00000E+00
 -1       963 5.43643E-05 5.55124E-06 0.00000E+00
 -1       964 5.42957E-05 6.15145E-06 1.65436E-24
 -1       965 5.42271E-05 6.75697E-06 0.00000E+00
 -1       966 5.41585E-05 7.36295E-06-1.65436E-24
 -1       967 5.40900E-05 7.96451E-06 8.27181E-25
 -1       968 5.40214E-05 8.55680E-06-1.65436E-24
 -1       969 5.39531E-05 9.13497E-06-8.27181E-25
 -1       970 5.38849E-05 9.69418E-06-1.65436E-24
 -1       971 5.37536E-05 1.07800E-05 0.00000E+00
 -1       972 5.36886E-05 1.13880E-05 8.27181E-25
 -1       973 5.36235E-05 1.20474E-05 1.65436E-24
 -1       974 5.35583E-05 1.27515E-05 0.00000E+00
 -1       975 5.34930E-05 1.34938E-05 0.00000E+00
 -1       976 5.34277E-05 1.42675E-05 0.00000E+00
 -1       977 5.33623E-05 1.50661E-05-1.65436E-24
 -1       978 5.32970E-05 1.58827E-05 0.00000E+00
 -1       979 5.32316E-05 1.67109E-05 0.00000E+00
 -1       980 5.31663E-05 1.75439E-05 0.00000E+00
 -1       981 5.31009E-05 1.83750E-05-1.65436E-24
 -1       982 5.30356E-05 1.91977E-05 0.00000E+00
 -1       983 5.29705E-05 2.00051E-05 1.65436E-24
 -1       984 5.29056E-05 2.07908E-05 8.27181E-25
 -1       985 5.28410E-05 2.15479E-05 0.00000E+00
 -3
    1PSTEP                         6           3           1          
  100CL  103 3.75000E-01         409                     0    3           1
 -4  STRESS      6    1
 -5  SXX         1    4    1    1
 -5  SYY         1    4    2    2
 -5  SZZ         1    4    3    3
 -5  SXY         1    4    1    2
 -5  SYZ         1    4    2    3
 -5  SZX         1    4    3    1
 -1         1-1.29376E+06-5.94930E+05-2.63703E+05-8.37587E+05 3.63798E-12 3.92902E-10
 -1         2 2.17723E+03 2.49537E+05 7.12014E+03 6.02073E+02-1.04222E-10 2.81977E-09
 -1         3-5.37136E+01-5.65960E+05 6.42376E+01-1.77526E+02 1.80652E-10 2.50111E-09
 -1         5-4.40596E+00 1.95047E+05 5.11134E+00 2.15446E-02 5.86833E-11 2.20480E-08
 -1         8-6.08962E+05-2.65441E+05-2.04676E+04-4.62547E+05 1.65528E-10-2.56841E-09
 -1         9-1.04516E+06-2.67602E+05-1.03035E+05-3.59438E+05 2.75322E-09-2.06637E-10
 -1        10-1.79474E+02-5.77809E+05-5.52275E+02-1.10853E+03-8.26276E-10 8.21530E-10
 -1        12-2.30953E+00 1.95058E+05 1.65743E+02 4.22825E-01 1.24786E-10-3.01952E-10
 -1        15 1.61368E+03 8.86806E+02 5.21620E+03 2.73857E+00-3.65333E-10-8.58307E-08
 -1        16-2.95062E+06-9.47731E+05-4.58867E+05-9.62637E+05 8.44011E-09-2.90068E-09
 -1        17-6.51727E+05-4.00117E+05-1.25551E+05-3.76047E+05-4.36412E-09 2.41853E-09
 -1        18 2.02296E+04 1.45770E+03-9.90056E+03-4.59660E+04 5.76506E-10-2.32649E-09
 -1        19 6.10874E+04 7.28788E+04-3.38836E+02 1.19562E+04-5.40422E-10-4.58385E-09
 -1        20-2.53409E+04-2.88679E+05-6.36595E+04 2.14062E+04 1.51780E-09 6.83637E-10
 -1        21-2.73125E+01-1.67440E+05-5.40884E+02-4.95980E+01-4.82455E-09-4.62112E-09
 -1        24-2.59914E+06-8.91680E+05-3.70389E+05-1.08614E+06-1.25826E-08-6.29128E-09
 -1        25 2.37275E+04-6.81636E+02 1.42188E+04-8.30800E+04 3.20233E-10 2.05764E-09
 -1        26-1.40458E+04 4.98219E+04-9.84680E+03-7.16754E+03 1.19417E-09 1.99739E-09
 -1        27-4.62599E+04-1.58405E+05-5.94317E+04 3.56948E+04 3.83291E-09-3.92674E-09
 -1        28 1.29510E+04-4.62453E+04 9.45429E+03 1.48428E+04-3.67208E-11 2.19224E-09
 -1        32-6.15601E+05-8.36626E+04 2.68624E+05-4.17148E+05-1.24492E-08 1.05377E-08
 -1        33-9.05642E+04 4.66022E+04 1.65181E+04-2.71164E+04 8.92821E-10 1.48096E-10
 -1        34-1.17623E+05-1.17040E+04 2.76651E+02 3.61530E+04 2.00920E-09 6.91216E-10
 -1        35-1.31733E+04-1.83872E+04-7.18592E+02 2.91644E+04 5.23639E-09-2.72000E-09
 -1        51 1.13907E+04-3.03431E+05 2.87712E+04-7.56056E+05 5.82077E-11 3.15777E-09
 -1        52 6.55485E+03-3.01832E+05 1.92360E+04-8.81810E+05 2.76486E-10 3.16504E-09
 -1        53 4.64504E+03-3.10584E+05 1.68549E+04-7.53460E+05-4.36557E-11-5.90808E-09
 -1        54 1.39801E+04-3.08678E+05 2.74798E+04-8.84543E+05-6.25732E-10-4.45289E-09
 -1        55 2.93128E+04-3.18947E+05 4.94512E+04-7.53085E+05 2.54659E-10-2.20462E-09
 -1        56-2.48462E+06-2.80548E+05-1.94247E+05-9.57887E+05 1.88811E-09 1.64437E-09
 -1        57-2.56163E+06-4.57244E+05-1.30925E+05-9.51536E+05-3.22871E-11-2.14641E-09
 -1        58-2.52375E+06-3.41937E+05-4.57172E+04-9.45552E+05-3.49246E-10 9.65883E-10
 -1        59-2.51631E+06-3.85289E+05-2.72912E+04-9.66366E+05 3.35604E-10-8.52742E-09
 -1        60-2.52955E+06-3.50419E+05-1.06810E+04-9.43798E+05-3.81078E-10-5.73118E-09
 -1        61-2.51035E+06-3.74592E+05-6.07232E+03-9.67513E+05-1.40523E-09-6.69161E-10
 -1        62-2.52963E+06-3.52376E+05-2.93005E+03-9.44478E+05-1.02159E-09-5.63517E-09
 -1        63-2.51181E+06-3.70947E+05-2.40122E+03-9.64880E+05-1.65528E-09-1.75879E-09
 -1        64-2.52801E+06-3.54076E+05-2.77658E+03-9.46394E+05 8.85620E-10-4.08977E-09
 -1        65-2.51642E+06-3.68030E+05-5.53052E+03-9.60027E+05 9.28367E-10-9.98989E-09
 -1        66-2.52495E+06-3.55369E+05-9.76657E+03-9.49268E+05 8.86985E-10 2.20462E-09
 -1        67-2.52723E+06-3.72232E+05-2.47489E+04-9.52627E+05 1.75896E-09 1.24801E-08
 -1        68-2.51722E+06-3.50148E+05-4.15750E+04-9.53682E+05 3.57386E-09-1.95178E-09
 -1        69-2.57257E+06-4.33483E+05-1.18875E+05-9.34566E+05-4.36557E-11 5.12955E-09
 -1        70-2.48002E+06-2.95980E+05-1.76463E+05-9.66683E+05-1.45883E-09 9.99717E-09
 -1        86-1.09264E+03 2.47299E+05 7.61892E+03-3.01055E+02 9.32232E-10 6.26682E-09
 -1        87 7.24989E+03 2.52026E+05 1.59096E+04 1.24211E+03 1.56001E-09-2.51114E-09
 -1        88-6.15151E+03 2.44812E+05 2.43404E+04-9.41105E+02 2.35741E-09 8.30084E-10
 -1        89 4.58426E+04 2.70052E+05 6.56697E+04 2.69244E+03 3.58432E-09-4.76302E-09
 -1        90-3.95619E+04 2.29287E+05 9.27346E+04-1.75101E+03 4.16185E-09-5.38068E-09
 -1       121-8.18463E+01-5.66218E+05 3.26247E+01 8.86863E+01 7.40101E-11 2.43381E-09
 -1       122-2.94695E+01-5.65947E+05 1.35609E+02-3.54798E+02 1.05530E-09-1.39926E-09
 -1       123-9.87215E+01-5.66234E+05 1.85375E+02 2.65652E+02 4.83141E-10-5.58339E-09
 -1       124 2.50903E+02-5.65787E+05 5.60960E+02-8.00996E+02 2.29909E-09 4.54202E-09
 -1       125-2.85464E+02-5.66387E+05 8.00020E+02 5.34608E+02 6.82121E-10 4.96493E-09
 -1       191-4.79468E+00 1.95064E+05 6.07368E+00-1.12286E-02 1.10454E-10 6.81666E-09
 -1       192-4.87575E+00 1.95048E+05 1.08244E+01 4.25428E-01 1.47276E-10-5.13319E-09
 -1       193-6.04382E+00 1.95063E+05 2.00960E+01-4.17294E-01 1.80301E-10-2.23599E-09
 -1       194-6.38763E+00 1.95049E+05 4.09489E+01 1.11641E+00 8.49525E-11-4.54202E-09
 -1       195-8.44462E+00 1.95062E+05 8.00642E+01-7.07273E-01 3.00957E-10-8.51196E-09
 -1       251 2.24163E+05-3.84684E+04 8.98136E+04 3.81833E+03 1.04706E-10 2.29556E-09
 -1       252 2.65147E+05 4.45041E+04 6.37320E+04-1.21932E+04 1.08059E-10 4.37103E-09
 -1       253 2.39672E+05-5.95532E+03 2.32449E+04 2.57547E+03-1.07661E-10-2.72121E-09
 -1       254 2.46868E+05 6.87985E+03 1.46998E+04-1.02370E+04-9.11740E-10-2.51680E-09
 -1       255 2.42364E+05-9.19607E+02 6.00621E+03 1.86235E+03 4.02679E-10 8.36826E-09
 -1       256 2.43646E+05 1.09212E+03 3.65287E+03-9.18586E+03 4.87887E-10 9.28884E-09
 -1       257 2.42860E+05-1.60643E+02 1.87940E+03 1.52428E+03 1.71326E-10 2.72996E-09
 -1       258 2.43141E+05 3.41492E+02 1.66507E+03-8.84470E+03-2.35947E-10 4.44757E-10
 -1       259 2.42859E+05-1.63650E+02 1.90782E+03 1.52121E+03-1.05004E-10-2.89469E-09
 -1       260 2.43656E+05 1.11851E+03 3.73355E+03-9.17420E+03-2.13873E-11-6.98765E-09
 -1       261 2.42354E+05-9.42657E+02 6.15388E+03 1.85377E+03 1.17717E-09-1.67802E-10
 -1       262 2.46945E+05 7.05375E+03 1.50638E+04-1.02116E+04 8.94602E-10 6.71457E-09
 -1       263 2.39604E+05-6.10503E+03 2.38327E+04 2.55866E+03-6.17320E-10 4.00814E-09
 -1       264 2.65653E+05 4.56251E+04 6.53273E+04-1.21520E+04-2.03795E-09 5.19231E-09
 -1       265 2.23723E+05-3.94342E+04 9.20854E+04 3.79393E+03-8.35257E-10 2.54659E-11
 -1       266-2.92126E+04-1.36589E+04 6.85451E+04-5.86002E+01-5.20231E-10-1.29109E-07
 -1       267 3.38658E+04 1.59211E+04 4.84445E+04 6.76090E+01-1.00408E-09-2.61231E-07
 -1       268-4.54133E+03-2.25479E+03 1.80067E+04-8.61478E+00-7.72161E-10-2.14835E-07
 -1       269 5.36200E+03 2.69859E+03 1.17040E+04 1.00347E+01-5.80371E-10-1.62725E-07
 -1       270-8.04842E+02-4.43396E+02 5.64968E+03-1.36179E+00-4.92037E-10-1.14762E-07
 -1       271-2.87203E+06-3.58404E+05-2.21184E+05-1.11900E+06 6.25732E-10-1.38243E-09
 -1       272-2.93488E+06-5.36087E+05-1.42180E+05-1.13572E+06 9.53605E-10 1.11686E-09
 -1       273-2.91451E+06-4.12599E+05-5.22485E+04-1.10818E+06-1.75987E-10 2.22281E-09
 -1       274-2.88513E+06-4.69819E+05-2.92311E+04-1.15253E+06-6.32099E-11 6.33190E-09
 -1       275-2.92131E+06-4.17200E+05-1.21535E+04-1.10529E+06-1.38425E-09 2.96495E-09
 -1       276-2.87706E+06-4.64493E+05-6.45298E+03-1.15724E+06-8.38327E-10-2.31921E-10
 -1       277-2.92296E+06-4.16882E+05-3.15685E+03-1.10410E+06-2.07706E-09-1.58343E-09
 -1       278-2.87552E+06-4.64659E+05-2.29439E+03-1.15866E+06 9.12678E-10 4.89570E-09
 -1       279-2.92305E+06-4.16845E+05-2.46274E+03-1.10403E+06-9.17908E-10-1.09003E-09
 -1       280-2.87659E+06-4.64388E+05-4.51174E+03-1.15757E+06-7.88532E-10-1.73441E-09
 -1       281-2.92172E+06-4.17293E+05-8.26785E+03-1.10506E+06 1.28694E-09-4.91582E-09
 -1       282-2.88263E+06-4.67265E+05-1.97199E+04-1.15349E+06-3.60160E-10-2.15732E-09
 -1       283-2.91662E+06-4.14759E+05-3.52450E+04-1.10759E+06 2.75122E-10-3.16504E-09
 -1       284-2.91725E+06-5.10604E+05-9.57612E+04-1.14052E+06-5.79348E-10-6.20821E-09
 -1       285-2.88721E+06-3.79133E+05-1.49110E+05-1.11578E+06 6.16637E-10-1.08412E-09
 -1       301 1.10260E+04-6.66573E+03 8.58234E+04-2.13844E+04-4.58385E-10 1.66557E-09
 -1       302 1.18599E+04 1.50985E+04 6.20492E+04-3.14889E+04 1.14210E-09-4.24279E-10
 -1       303 5.46873E+02 1.03144E+03 5.72387E+04-2.14420E+04-9.78616E-10-1.06365E-09
 -1       304 2.24281E+04 2.48530E+04 9.64128E+04-3.13977E+04 7.54881E-10-7.21002E-10
 -1       305 2.22201E+04-1.63498E+04 1.61878E+05-2.14071E+04-6.47560E-10 4.36603E-09
 -1       306-3.08070E+06-3.56745E+05-2.35088E+05-1.20491E+06 2.58660E-09-5.90808E-09
 -1       307-3.20283E+06-5.54259E+05-1.60260E+05-1.16274E+06 1.79853E-09 6.21731E-09
 -1       308-3.13566E+06-4.28313E+05-5.53319E+04-1.18114E+06-4.35193E-10 2.65572E-10
 -1       309-3.13383E+06-4.76430E+05-3.34585E+04-1.19695E+06-1.81561E-09-3.84352E-09
 -1       310-3.14940E+06-4.33136E+05-1.29921E+04-1.17120E+06-3.92419E-10-1.45337E-09
 -1       311-3.11583E+06-4.73173E+05-7.50651E+03-1.21147E+06 5.27223E-10-1.65267E-09
 -1       312-3.15378E+06-4.31238E+05-3.67395E+03-1.16682E+06 1.63283E-10 7.67159E-10
 -1       313-3.11231E+06-4.74176E+05-3.30877E+03-1.21492E+06-2.09114E-09 3.06250E-09
 -1       314-3.15297E+06-4.32063E+05-3.99063E+03-1.16781E+06-1.52284E-09 1.60185E-09
 -1       315-3.11892E+06-4.70370E+05-8.37290E+03-1.20775E+06-5.28928E-10-3.59796E-09
 -1       316-3.14704E+06-4.35168E+05-1.46857E+04-1.17388E+06 3.89809E-09-1.05138E-09
 -1       317-3.14025E+06-4.73263E+05-3.78464E+04-1.19047E+06-2.90726E-10-3.49291E-09
 -1       318-3.13154E+06-4.29520E+05-6.26086E+04-1.18489E+06-4.27372E-09 2.67028E-09
 -1       319-3.21727E+06-5.62750E+05-1.81442E+05-1.15350E+06-3.73166E-09-2.40289E-09
 -1       320-3.07045E+06-3.47239E+05-2.66013E+05-1.21034E+06 7.43603E-09-9.89530E-10
 -1       336 1.86562E+02-5.89583E+05-2.09551E+03 5.72859E+02-5.57247E-09 2.16733E-09
 -1       337-8.06233E+02-5.90060E+05-2.78625E+03-1.46176E+03-1.00349E-08 3.68618E-09
 -1       338 2.55881E+02-5.89511E+05-4.10190E+03 8.86617E+02-6.95491E-09 1.58252E-10
 -1       339-4.48812E+03-5.92322E+05-9.43429E+03-2.08168E+03-1.25092E-08-6.96673E-09
 -1       340 3.07369E+03-5.87353E+05-1.47105E+04 1.18864E+03-8.30096E-09 8.98581E-10
 -1       406 1.03138E+01 1.95055E+05 3.27185E+02 2.72404E-01 4.67281E-10 6.80757E-10
 -1       407 1.11786E+02 1.95115E+05 6.95477E+02-7.55497E+00 2.71143E-11-3.97904E-09
 -1       408 3.55661E+02 1.95005E+05 1.38898E+03 7.38819E+00 4.72482E-10 5.54792E-11
 -1       409 1.49978E+03 1.95559E+05 3.12713E+03-6.88505E+01 8.20819E-11-3.69778E-09
 -1       410 4.31326E+03 1.94610E+05 6.38393E+03 6.34762E+01 4.56566E-10-8.63565E-10
 -1       521-5.83745E+06-6.74292E+05-4.37495E+05-2.27078E+06 2.75031E-09-8.99308E-09
 -1       522-6.04063E+06-1.05661E+06-2.96906E+05-2.21732E+06-3.66890E-09-3.03044E-09
 -1       523-5.94675E+06-7.97257E+05-1.02901E+05-2.21767E+06-3.47427E-10-4.94038E-09
 -1       524-5.90487E+06-9.22957E+05-6.18467E+04-2.29185E+06 7.26232E-10-7.15681E-09
 -1       525-5.97280E+06-8.04218E+05-2.39472E+04-2.19770E+06-7.21911E-10-3.16140E-09
 -1       526-5.87852E+06-9.10651E+05-1.37816E+04-2.31091E+06 3.21967E-09 4.57396E-09
 -1       527-5.97330E+06-8.08798E+05-6.67902E+03-2.19902E+06 4.19277E-09 7.88987E-10
 -1       528-5.89275E+06-8.89835E+05-5.42737E+03-2.29008E+06 2.98587E-09 3.71983E-10
 -1       529-5.95789E+06-8.25420E+05-6.98645E+03-2.21807E+06-2.18643E-09 2.93267E-09
 -1       530-5.93289E+06-8.52987E+05-1.32052E+04-2.24295E+06-3.20051E-09-3.58568E-09
 -1       531-5.93252E+06-8.46174E+05-2.42338E+04-2.24564E+06-2.05182E-09-3.80169E-10
 -1       532-5.99278E+06-8.33558E+05-6.12252E+04-2.18935E+06-9.36410E-10-8.14180E-09
 -1       533-5.89865E+06-8.45028E+05-1.01979E+05-2.27187E+06 4.44925E-09-8.33825E-09
 -1       534-6.12248E+06-9.75359E+05-2.95173E+05-2.12847E+06 3.62525E-09 7.65431E-09
 -1       535-5.80485E+06-7.06949E+05-4.33768E+05-2.30626E+06-7.63976E-09 7.39237E-09
 -1       536-2.43117E+04-1.58819E+04 3.65556E+04 2.60974E+02-1.19655E-09 5.56975E-09
 -1       537-7.18625E+03 1.83754E+04 2.60809E+04-1.28578E+03-5.87661E-09 3.78759E-09
 -1       538-1.80347E+04-2.48995E+03 9.42044E+03 2.85355E+02-1.38868E-10 2.91266E-09
 -1       539-1.46103E+04 2.87310E+03 6.04243E+03-1.36029E+03 2.53828E-09-1.14574E-09
 -1       540-1.68967E+04-3.87727E+02 2.37225E+03 3.35477E+02 8.76653E-10 1.50692E-09
 -1       541-1.60236E+04 4.42440E+02 1.43206E+03-1.44883E+03-8.74959E-10 6.87521E-10
 -1       542-1.66274E+04-5.69779E+01 5.61914E+02 3.73879E+02 4.49539E-10-1.38908E-09
 -1       543-1.63930E+04 5.22237E+01 2.81402E+02-1.50986E+03 2.48665E-10-5.16133E-09
 -1       544-1.65315E+04 5.17393E+00 2.10775E+01 3.96510E+02 5.39000E-10-5.12564E-09
 -1       545-1.65485E+04-8.55503E+01-2.13308E+02-1.53859E+03 1.29278E-10 1.15750E-09
 -1       546-1.64738E+04 8.21409E+01-4.72117E+02 4.02613E+02 6.15814E-10-5.30434E-10
 -1       547-1.67912E+04-6.05732E+02-1.23463E+03-1.53405E+03-1.73854E-09-1.18725E-09
 -1       548-1.62885E+04 5.24741E+02-2.00162E+03 3.91962E+02-2.00192E-09-6.21185E-10
 -1       549-1.81943E+04-3.86747E+03-5.45070E+03-1.49472E+03-1.11805E-09 3.85620E-09
 -1       550-1.50680E+04 3.33944E+03-7.77017E+03 3.63286E+02 5.64313E-11 8.61291E-10
 -1       551 5.74145E+03-3.08916E+05 1.69938E+04-5.29638E+05-2.27155E-08 6.14091E-09
 -1       552 1.20586E+04-3.09681E+05 2.22771E+04-7.53759E+05-1.81753E-08 1.76624E-08
 -1       553 7.91107E+03-3.13730E+05 3.47422E+04-5.27920E+05-2.86527E-08 7.93807E-09
 -1       554 2.93000E+04-2.98889E+05 7.38286E+04-7.54481E+05-1.75423E-08 2.79067E-09
 -1       555 2.93006E+04-3.27808E+05 1.32658E+05-5.28610E+05-2.83253E-08-2.43745E-09
 -1       556 4.40238E+04-9.92084E+04 3.41516E+04-1.31877E+05-5.76983E-09-1.01863E-09
 -1       557 8.42524E+04-1.32871E+05 1.78954E+04-1.64836E+05-1.79716E-09 3.48518E-09
 -1       558 4.42822E+04-1.03987E+05 7.29822E+03-1.27739E+05-6.27188E-09-5.32782E-09
 -1       559 7.92540E+04-1.37680E+05 3.68408E+03-1.66936E+05 2.72121E-09 1.08139E-09
 -1       560 4.33911E+04-1.03382E+05 1.55537E+03-1.28272E+05 6.91216E-10-4.07636E-09
 -1       561 7.77595E+04-1.37363E+05 8.12188E+02-1.67874E+05-1.45519E-10-1.05069E-09
 -1       562 4.26516E+04-1.02876E+05 3.22396E+02-1.28807E+05-9.60426E-10 1.10322E-09
 -1       563 7.68801E+04-1.36987E+05 1.92109E+02-1.68436E+05-3.29237E-10-3.03777E-09
 -1       564 4.21922E+04-1.02576E+05 6.99639E+01-1.29136E+05-1.39153E-09 1.15961E-09
 -1       565 7.64278E+04-1.36795E+05 3.72260E+01-1.68719E+05-8.03993E-09 1.09685E-09
 -1       566 4.20334E+04-1.02468E+05-2.15840E+01-1.29252E+05-7.19137E-09-8.07267E-09
 -1       567 7.63693E+04-1.36766E+05-9.46211E+01-1.68707E+05 4.62387E-09 2.52112E-09
 -1       568 4.22011E+04-1.02580E+05-2.55333E+02-1.29181E+05-1.22236E-09 2.72667E-09
 -1       569 7.62008E+04-1.36650E+05-6.00166E+02-1.67965E+05 2.71757E-09 1.52213E-08
 -1       570 4.31092E+04-1.03443E+05-1.25211E+03-1.29224E+05 1.28784E-09-1.88720E-10
 -1       571 1.41370E+05 5.12540E+03 7.59390E+03-3.56036E+04-2.04636E-10 8.36621E-09
 -1       572 1.42501E+05 1.78249E+03 3.72036E+03-3.90273E+04-1.14551E-09 2.86491E-10
 -1       573 1.41826E+05 4.24672E+02 1.65271E+03-3.55104E+04-1.10731E-09 1.85241E-09
 -1       574 1.41960E+05 1.37582E+02 8.27943E+02-3.91316E+04-3.55612E-10 2.99679E-10
 -1       575 1.41878E+05 1.83410E+01 3.90172E+02-3.54981E+04 1.91449E-10 1.17689E-09
 -1       576 1.41887E+05 4.47183E+00 1.98527E+02-3.91456E+04 1.51573E-10-3.86490E-09
 -1       577 1.41886E+05-3.41794E+00 9.77255E+01-3.54965E+04 1.86037E-09 5.49926E-09
 -1       578 1.41879E+05-1.83379E+00 5.31500E+01-3.91472E+04-3.86535E-11-9.59517E-10
 -1       579 1.41892E+05-4.04622E+00 3.23496E+01-3.54965E+04-8.88122E-10 2.61025E-10
 -1       580 1.41888E+05-4.86652E+00 2.98916E+01-3.91451E+04-1.77874E-09-2.66709E-09
 -1       581 1.41904E+05-7.63942E+00 4.03239E+01-3.54986E+04-1.27147E-09-3.35149E-09
 -1       582 1.41911E+05-1.24501E+00 7.65318E+01-3.91239E+04 1.81899E-10 3.82988E-09
 -1       583 1.41917E+05 1.84620E+01 1.46868E+02-3.55176E+04-5.30235E-10 4.43038E-09
 -1       584 1.41981E+05 1.33379E+02 3.29080E+02-3.89654E+04-9.26320E-10 4.32806E-10
 -1       585 1.41898E+05 4.24223E+02 6.68534E+02-3.56573E+04 3.26509E-10 7.09406E-10
 -1       586-1.73977E+03 4.61964E+04-2.30440E+03-1.21102E+05 3.75621E-10 2.36093E-09
 -1       587-3.78246E+02 4.58877E+04-2.72164E+02-1.33262E+05 6.03904E-10-5.92894E-09
 -1       588 4.76829E+02 4.59483E+04 1.60336E+03-1.21028E+05 3.67436E-10-2.11003E-09
 -1       589 2.39458E+03 4.68268E+04 4.69004E+03-1.33152E+05 5.76620E-10-9.42237E-10
 -1       590 6.88436E+03 4.53681E+04 1.00510E+04-1.21213E+05 3.01952E-10 3.90628E-09
 -1       591-3.08930E+04-8.85937E+03-1.02780E+04-1.60387E+04-4.45272E-09-9.04492E-10
 -1       592-3.18508E+04-1.13883E+04-5.56698E+03-1.87245E+04-1.09085E-08 3.12900E-09
 -1       593-3.19322E+04-8.10202E+03-2.31758E+03-1.67807E+04-3.84807E-09 4.78303E-09
 -1       594-3.04182E+04-9.89460E+03-1.15590E+03-1.87957E+04-1.87782E-09-1.77553E-09
 -1       595-3.20117E+04-8.09863E+03-5.31211E+02-1.68147E+04-1.66875E-09 1.10892E-09
 -1       596-3.03212E+04-9.82620E+03-2.70791E+02-1.87856E+04 1.49033E-09-4.12606E-09
 -1       597-3.20217E+04-8.10523E+03-1.49069E+02-1.68160E+04-2.19703E-10 1.11413E-09
 -1       598-3.03120E+04-9.82358E+03-1.22794E+02-1.87828E+04-3.95630E-11 4.72062E-09
 -1       599-3.20211E+04-8.10521E+03-1.60528E+02-1.68158E+04-1.38465E-09-4.64985E-09
 -1       600-3.03225E+04-9.82704E+03-3.01187E+02-1.87854E+04-8.53674E-10 1.10542E-08
 -1       601-3.20086E+04-8.09796E+03-5.95676E+02-1.68139E+04-4.37581E-10-7.18501E-10
 -1       602-3.04316E+04-9.90375E+03-1.29911E+03-1.87957E+04 3.87104E-10 2.33797E-10
 -1       603-3.19183E+04-8.10291E+03-2.60563E+03-1.67759E+04-1.37697E-09-3.15367E-10
 -1       604-3.20476E+04-1.15774E+04-6.25926E+03-1.87082E+04 3.58000E-10-9.33142E-10
 -1       605-3.07432E+04-8.95933E+03-1.15559E+04-1.59473E+04 1.02523E-09 4.88535E-09
 -1       606 2.02313E+04-6.80702E+03-1.22610E+04 1.97809E+04-2.91675E-09 1.67211E-09
 -1       607 1.81315E+04-2.19544E+03-6.10543E+03 2.22050E+04-7.00766E-10-4.57931E-09
 -1       608 1.93263E+04-3.69309E+02-2.73377E+03 1.96230E+04-7.27960E-09 1.43473E-10
 -1       609 1.90901E+04-9.68317E+01-1.38090E+03 2.23794E+04-2.22067E-08 5.63864E-09
 -1       610 1.92196E+04 1.69868E+01-6.59377E+02 1.96054E+04-1.50385E-08-1.59366E-09
 -1       611 1.91759E+04 2.44099E+01-3.32672E+02 2.23985E+04-8.71296E-09 7.67614E-10
 -1       612 1.91930E+04 2.61226E+01-1.59060E+02 1.96036E+04 5.79257E-09 2.50247E-09
 -1       613 1.91771E+04 2.87875E+01-7.26092E+01 2.24008E+04 1.65328E-08-2.08911E-09
 -1       614 1.91792E+04 2.52530E+01-2.02936E+01 1.96030E+04 1.09717E-08-5.49721E-09
 -1       615 1.91710E+04 3.14009E+01 2.23810E+01 2.24012E+04 4.94947E-09-5.61090E-09
 -1       616 1.91687E+04 2.82616E+01 7.45669E+01 1.96032E+04-2.09275E-09-2.11730E-09
 -1       617 1.91771E+04 4.92443E+01 1.72966E+02 2.24008E+04-3.04681E-10 1.91812E-09
 -1       618 1.91514E+04 7.96217E+01 3.49725E+02 1.96033E+04 3.66299E-10-3.01975E-09
 -1       619 1.92989E+04 3.20965E+02 7.86040E+02 2.24003E+04-1.12175E-09-1.12641E-09
 -1       620 1.90340E+04 9.10475E+02 1.58013E+03 1.96027E+04-7.92397E-11 2.91220E-09
 -1       621 2.47072E+02 1.54045E+05 2.13660E+03 4.93729E+03-3.70150E-10-3.93084E-09
 -1       622 2.82228E+02 1.54574E+05 1.81133E+03 7.20902E+03-2.57501E-10 2.68778E-09
 -1       623 1.18584E+01 1.54198E+05 2.08033E+03 4.91408E+03-1.79142E-10 1.09196E-09
 -1       624 9.40529E+02 1.55178E+05 3.94807E+03 7.23173E+03-2.76884E-10 1.35580E-09
 -1       625 9.44223E+02 1.53438E+05 6.86243E+03 4.91481E+03-1.14824E-10-6.00662E-09
 -1       626 1.26975E+05 3.52354E+04 2.52750E+03 6.87214E+04 4.22915E-10-1.04683E-09
 -1       627 1.25231E+05 3.65223E+04 1.21765E+03 7.15044E+04 4.31100E-09-1.24146E-09
 -1       628 1.27074E+05 3.40379E+04 5.14482E+02 6.91028E+04 2.13095E-09-1.04455E-09
 -1       629 1.24868E+05 3.62349E+04 2.52071E+02 7.16730E+04 1.47020E-09 5.20652E-09
 -1       630 1.27082E+05 3.39801E+04 1.16652E+02 6.91140E+04-7.26686E-10 1.55444E-09
 -1       631 1.24825E+05 3.62279E+04 6.26958E+01 7.16761E+04-1.14892E-09-3.66109E-09
 -1       632 1.27077E+05 3.39839E+04 4.14639E+01 6.91092E+04 1.85810E-09 6.56703E-09
 -1       633 1.24817E+05 3.62312E+04 4.63310E+01 7.16721E+04-1.45974E-09 6.33736E-09
 -1       634 1.27071E+05 3.39840E+04 7.50890E+01 6.91065E+04 3.16300E-09 5.52427E-09
 -1       635 1.24820E+05 3.62322E+04 1.52306E+02 7.16721E+04 2.18529E-09 3.20460E-09
 -1       636 1.27063E+05 3.39833E+04 3.07696E+02 6.91043E+04 5.51722E-10 9.38189E-09
 -1       637 1.24883E+05 3.62813E+04 6.76305E+02 7.16688E+04-8.46612E-10 2.29215E-09
 -1       638 1.27035E+05 3.41344E+04 1.39004E+03 6.90344E+04-5.75710E-10 3.10615E-09
 -1       639 1.25609E+05 3.72985E+04 3.28846E+03 7.14522E+04-2.87673E-09-2.25509E-09
 -1       640 1.26937E+05 3.71621E+04 6.82458E+03 6.77487E+04-8.80618E-10 3.52884E-10
 -1       656 3.44387E+04-8.71590E+05-8.31464E+04-4.78428E+02-3.78350E-10-4.36913E-09
 -1       657-4.55050E+04-9.09135E+05-6.87605E+04 5.68997E+03 1.07502E-09 2.26393E-09
 -1       658 1.09180E+04-8.82303E+05-4.21947E+04-1.11737E+03 8.27868E-10 3.47425E-09
 -1       659-4.87819E+04-9.10681E+05-7.30643E+04 6.11206E+03-2.21007E-10 1.53232E-10
 -1       660 3.77070E+04-8.70047E+05-9.05539E+04-9.00509E+02 1.20053E-10-6.01077E-10
 -1       661 1.23947E+05 1.34776E+04 1.18800E+04 4.84095E+04 2.48065E-09 2.39652E-09
 -1       662 1.30113E+05 2.28166E+04 8.00508E+03 4.63676E+04 4.36017E-09 1.79352E-09
 -1       663 1.26273E+05 1.72958E+04 2.80025E+03 4.77406E+04-1.67347E-09-7.36918E-10
 -1       664 1.27424E+05 1.83452E+04 1.67411E+03 4.71787E+04 1.43793E-09 9.58366E-10
 -1       665 1.26619E+05 1.78236E+04 6.60417E+02 4.76457E+04-2.82111E-09 1.12206E-09
 -1       666 1.27020E+05 1.77364E+04 3.85045E+02 4.72985E+04-6.28415E-09 5.01306E-09
 -1       667 1.26675E+05 1.78888E+04 2.03019E+02 4.76267E+04-3.06200E-09-3.72697E-11
 -1       668 1.26962E+05 1.76824E+04 2.03252E+02 4.73247E+04 2.17909E-09-3.93013E-09
 -1       669 1.26677E+05 1.78760E+04 2.72336E+02 4.76201E+04 3.59864E-09-7.37927E-10
 -1       670 1.27034E+05 1.78225E+04 5.90225E+02 4.73198E+04 4.11932E-09-5.83441E-10
 -1       671 1.26603E+05 1.77515E+04 1.04716E+03 4.76305E+04-6.27676E-10-1.10157E-09
 -1       672 1.27648E+05 1.88371E+04 2.67839E+03 4.71679E+04-1.30052E-09-3.81385E-09
 -1       673 1.26066E+05 1.68870E+04 4.48832E+03 4.77623E+04-2.22104E-09-2.09548E-09
 -1       674 1.31925E+05 2.60437E+04 1.28359E+04 4.59075E+04-2.96723E-11-1.74077E-09
 -1       675 1.22354E+05 1.07465E+04 1.90522E+04 4.88149E+04-1.20008E-09 7.84894E-10
 -1       676 1.40377E+01-1.67395E+05-6.51902E+02 2.47996E+01 2.89816E-10 3.42260E-09
 -1       677-1.73030E+02-1.67553E+05-1.19302E+03-4.95856E+01-2.73329E-09 3.78335E-09
 -1       678 1.15547E+02-1.67283E+05-2.10893E+03 2.47689E+01 1.61026E-09 5.52401E-09
 -1       679-2.10924E+03-1.68826E+05-5.00964E+03-4.94574E+01-3.22188E-09-4.30708E-09
 -1       680 1.25875E+03-1.66123E+05-8.07391E+03 2.43868E+01-2.14823E-09 1.38983E-09
 -1       771-1.79985E+06-3.13613E+05-4.39202E+04-7.45335E+05-6.97401E-09-4.50382E-09
 -1       772-1.78877E+06-3.37441E+05-2.35787E+04-7.71876E+05-5.08589E-09 1.95723E-09
 -1       773-1.80575E+06-3.09044E+05-1.01568E+04-7.47794E+05-2.33558E-09 1.83354E-09
 -1       774-1.78240E+06-3.32207E+05-4.94987E+03-7.74395E+05 5.82440E-09-3.64707E-10
 -1       775-1.80703E+06-3.08238E+05-2.49462E+03-7.47948E+05 7.56700E-10 5.80258E-10
 -1       776-1.78224E+06-3.32212E+05-1.15197E+03-7.75684E+05-1.32059E-09 1.58252E-09
 -1       777-1.80789E+06-3.07624E+05-7.10753E+02-7.48016E+05 5.50790E-09-6.80302E-10
 -1       778-1.78245E+06-3.32382E+05-3.16964E+02-7.76752E+05 1.45046E-08 8.13407E-09
 -1       779-1.80857E+06-3.07101E+05-3.09945E+02-7.48076E+05 1.56433E-09-3.74075E-09
 -1       780-1.78268E+06-3.32528E+05-2.42161E+02-7.77615E+05-1.63891E-09 1.06866E-11
 -1       781-1.80907E+06-3.06681E+05-4.32003E+02-7.48119E+05-5.84623E-09-1.11640E-09
 -1       782-1.78291E+06-3.32675E+05-7.86020E+02-7.78251E+05-7.70524E-09-2.19211E-09
 -1       783-1.80937E+06-3.06408E+05-1.57314E+03-7.48132E+05-1.16415E-09-2.99787E-09
 -1       784-1.78397E+06-3.33742E+05-3.72616E+03-7.78596E+05-4.05998E-09-2.93994E-10
 -1       785-1.80887E+06-3.06763E+05-6.88984E+03-7.47645E+05-4.51473E-09 5.81076E-09
 -1       786 1.31660E+05-7.01426E+03 1.62271E+04 3.64991E-01 1.81022E-07 6.60111E-09
 -1       787 1.38691E+05 8.12031E+03 1.14805E+04-4.91505E+00 3.59869E-07 8.52287E-09
 -1       788 1.34373E+05-1.09956E+03 4.19999E+03 2.04105E+00 4.69517E-07 1.44701E-09
 -1       789 1.35531E+05 1.27226E+03 2.63892E+03-8.87661E+00 5.79093E-07 1.34314E-08
 -1       790 1.34820E+05-1.71771E+02 1.07382E+03 4.32659E+00 7.56946E-07-1.90312E-09
 -1       791 1.35009E+05 1.99592E+02 6.30593E+02-1.45775E+01 9.35861E-07 8.20612E-09
 -1       792 1.34895E+05-2.77000E+01 2.88034E+02 7.74203E+00 1.28195E-06-8.46769E-09
 -1       793 1.34924E+05 3.90160E+01 1.89227E+02-2.32972E+01 1.62500E-06 7.41213E-09
 -1       794 1.34905E+05-1.13017E+01 1.40907E+02 1.30465E+01 8.13060E-07-2.67600E-09
 -1       795 1.34933E+05 5.85928E+01 2.04890E+02-3.69612E+01 2.61656E-09 4.01798E-09
 -1       796 1.34887E+05-4.72625E+01 3.07553E+02 2.14063E+01 6.84606E-11 2.36381E-09
 -1       797 1.35073E+05 3.46535E+02 7.25705E+02-5.85790E+01-2.81526E-10 4.75414E-09
 -1       798 1.34765E+05-2.99032E+02 1.14568E+03 3.46647E+01 1.22157E-10 3.81942E-09
 -1       799 1.35932E+05 2.20794E+03 3.12347E+03-9.31249E+01-8.58249E-10 7.15090E-10
 -1       800 1.34027E+05-1.90716E+03 4.41223E+03 5.59524E+01-6.60494E-11 6.83940E-09
 -1       801-8.18302E+03 8.83730E+03 1.09004E+04 1.40527E+04 7.72889E-09-4.99290E-09
 -1       802 2.03464E+04 7.41896E+04 3.92733E+04-5.78386E+04 2.07401E-08-3.62382E-09
 -1       803-1.15844E+04 3.36800E+04 4.92331E+04 1.31470E+04 1.63582E-08 1.33938E-08
 -1       804 9.56431E+04 1.15294E+05 1.38028E+05-5.85972E+04 1.92595E-08 1.63306E-08
 -1       805-8.35213E+04-3.20582E+04 1.77184E+05 1.48094E+04 6.76664E-09 1.79518E-08
 -1       806-1.54001E+05-3.30485E+04-1.31104E+04-6.41876E+04-4.60386E-09-1.15870E-09
 -1       807-1.54767E+05-3.11770E+04-6.44082E+03-6.76707E+04-1.95581E-09 1.61654E-08
 -1       808-1.54373E+05-2.83118E+04-2.73223E+03-6.64113E+04-7.19410E-10 2.77669E-09
 -1       809-1.53392E+05-2.93889E+04-1.33572E+03-6.78567E+04 1.01967E-08 2.39146E-09
 -1       810-1.54432E+05-2.81446E+04-6.11602E+02-6.65095E+04 3.82579E-09 4.24188E-09
 -1       811-1.53287E+05-2.93182E+04-3.03311E+02-6.78413E+04-7.09406E-10 3.17584E-09
 -1       812-1.54442E+05-2.81568E+04-1.51317E+02-6.65094E+04-2.14004E-09 2.60479E-09
 -1       813-1.53274E+05-2.93199E+04-9.54294E+01-6.78334E+04 7.80574E-10 9.86165E-09
 -1       814-1.54441E+05-2.81612E+04-8.93813E+01-6.65075E+04-9.38599E-10-3.33716E-09
 -1       815-1.53275E+05-2.93214E+04-1.39896E+02-6.78315E+04-1.68802E-09-4.79758E-09
 -1       816-1.54432E+05-2.81598E+04-2.62021E+02-6.65059E+04-2.86263E-09-1.01022E-09
 -1       817-1.53321E+05-2.93464E+04-5.61882E+02-6.78272E+04 1.18234E-11 3.87467E-09
 -1       818-1.54399E+05-2.82384E+04-1.14503E+03-6.64689E+04-1.98497E-09 2.32831E-10
 -1       819-1.53954E+05-3.00334E+04-2.69510E+03-6.76744E+04-3.54521E-09 2.78783E-09
 -1       820-1.54182E+05-3.02761E+04-5.48488E+03-6.56006E+04-7.78073E-10 1.08377E-08
 -1       821-1.99280E+05 1.10611E+04-2.55823E+04 2.76415E+01-4.51776E-10 5.38239E-09
 -1       822-2.10366E+05-1.28051E+04-1.81027E+04-3.14552E+02-1.85386E-09 3.89309E-09
 -1       823-2.03559E+05 1.73399E+03-6.62595E+03-1.13957E+01 9.63929E-10-3.62161E-09
 -1       824-2.05380E+05-2.00704E+03-4.16947E+03-2.08789E+02 5.05551E-11 6.96048E-10
 -1       825-2.04265E+05 2.71448E+02-1.71311E+03-7.81253E+01-2.75325E-09 1.57081E-09
 -1       826-2.04558E+05-3.20176E+02-1.03558E+03-6.87283E+01-4.69009E-09 6.45515E-09
 -1       827-2.04380E+05 4.83296E+01-5.34715E+02-1.51459E+02-3.50164E-09 5.09374E-10
 -1       828-2.04446E+05-9.78009E+01-4.74160E+02 6.21050E+01-4.85264E-09 4.68531E-09
 -1       829-2.04378E+05 4.92626E+01-5.42554E+02-2.08961E+02-5.29106E-10-2.96630E-09
 -1       830-2.04568E+05-3.27933E+02-1.06021E+03 1.43707E+02 1.92649E-09-4.44828E-10
 -1       831-2.04258E+05 2.78361E+02-1.75506E+03-2.33062E+02-1.68649E-09 9.14838E-10
 -1       832-2.05410E+05-2.05825E+03-4.27666E+03 1.51516E+02-1.97188E-09 1.15210E-09
 -1       833-2.03536E+05 1.77833E+03-6.79550E+03-2.16770E+02-1.06850E-09 2.37242E-09
 -1       834-2.10519E+05-1.31332E+04-1.85670E+04 8.49217E+01-4.67764E-10 4.25348E-09
 -1       835-1.99151E+05 1.13447E+04-2.62394E+04-1.66462E+02 3.61757E-09-8.53106E-10
 -1       836-6.63921E+02 1.88899E+05 1.13737E+04-1.66635E+04 1.39471E-09 1.70166E-09
 -1       837 2.50289E+03 1.92422E+05 9.70493E+03-3.34777E+04 2.00066E-09 4.23415E-09
 -1       838-2.44539E+02 1.89882E+05 1.00009E+04-1.66063E+04 1.73168E-09 1.92040E-09
 -1       839 6.41552E+03 1.95342E+05 1.90300E+04-3.34983E+04 2.28101E-09 4.88551E-09
 -1       840-1.92992E+03 1.85958E+05 3.03910E+04-1.66418E+04 1.65346E-09 6.11408E-09
 -1       856-6.25494E+04 5.33993E+03-1.40713E+04-3.07638E+02-2.86622E-09-2.01089E-09
 -1       857-6.83629E+04-6.26340E+03-9.68807E+03 3.21667E+03-3.77329E-09-4.91809E-09
 -1       858-6.48462E+04 7.48352E+02-3.65189E+03-3.19474E+02-2.08900E-09-7.42102E-09
 -1       859-6.57245E+04-8.70815E+02-2.20580E+03 3.23540E+03-2.12481E-10 3.50838E-10
 -1       860-6.51897E+04 1.04172E+02-9.27510E+02-3.26458E+02 1.75093E-09-1.77266E-09
 -1       861-6.53285E+04-1.15985E+02-5.16827E+02 3.24491E+03-4.12612E-09-4.12288E-09
 -1       862-6.52432E+04 1.39013E+01-2.27993E+02-3.28993E+02 5.35645E-09-3.85998E-09
 -1       863-6.52653E+04-9.58047E+00-1.12912E+02 3.24604E+03 7.43513E-09-2.16794E-09
 -1       864-6.52530E+04 7.83489E-02-3.57695E+01-3.27590E+02 2.66675E-09-8.55066E-09
 -1       865-6.52474E+04 1.47267E+01 2.02184E+01 3.23890E+03 2.33990E-09-6.03108E-09
 -1       866-6.52604E+04-1.05841E+01 7.54381E+01-3.21858E+02-2.17278E-09-3.98416E-09
 -1       867-6.52036E+04 8.92514E+01 2.07524E+02 3.22338E+03-1.55993E-10 1.70502E-09
 -1       868-6.52951E+04-7.37588E+01 3.50595E+02-3.12066E+02 1.36936E-10 2.97514E-09
 -1       869-6.49414E+04 6.12673E+02 9.40891E+02 3.19722E+03-6.01096E-09-3.17623E-09
 -1       870-6.55199E+04-5.20738E+02 1.36516E+03-2.95699E+02 6.34088E-10-1.09128E-09
 -1       871-2.90692E+03-6.04014E+03-9.45833E+03 6.19913E+04 1.42973E-09-8.44011E-10
 -1       872-1.26410E+03-8.15261E+03-3.85133E+03 8.03665E+04 3.09683E-09 2.23440E-09
 -1       873-2.83140E+01-7.15870E+03 5.63651E+02 6.18540E+04 1.02591E-09-5.72902E-09
 -1       874 1.46046E+03-5.77761E+03 5.39612E+03 8.03956E+04 3.56022E-09-1.09632E-08
 -1       875 3.46445E+03-8.44393E+03 1.19594E+04 6.19671E+04 1.77533E-09-3.36286E-09
 -1       876 1.55304E+05 2.67727E+04 8.32930E+03 6.30211E+04-2.95029E-09 6.49379E-10
 -1       877 1.55776E+05 2.86055E+04 4.44795E+03 6.54902E+04-5.31509E-09-2.10719E-09
 -1       878 1.56084E+05 2.58502E+04 1.86354E+03 6.37048E+04 3.51315E-09 3.30203E-09
 -1       879 1.54643E+05 2.74775E+04 9.28257E+02 6.55503E+04-2.68869E-10 3.37252E-09
 -1       880 1.56141E+05 2.58394E+04 4.32175E+02 6.37327E+04 6.19639E-09-2.26248E-09
 -1       881 1.54568E+05 2.74297E+04 2.30110E+02 6.55394E+04 1.45776E-08 8.78161E-09
 -1       882 1.56147E+05 2.58459E+04 1.46111E+02 6.37335E+04 6.06747E-09 2.44791E-09
 -1       883 1.54562E+05 2.74276E+04 1.55260E+02 6.55364E+04 1.78125E-09 6.74710E-09
 -1       884 1.56144E+05 2.58440E+04 2.45368E+02 6.37336E+04-6.10044E-10-3.98111E-09
 -1       885 1.54582E+05 2.74311E+04 4.92323E+02 6.55427E+04 2.11575E-09-8.85581E-09
 -1       886 1.56125E+05 2.58296E+04 9.91813E+02 6.37317E+04 2.01197E-09 2.06603E-09
 -1       887 1.54756E+05 2.75453E+04 2.16636E+03 6.55676E+04-5.20456E-09-2.81318E-10
 -1       888 1.55988E+05 2.58540E+04 4.36531E+03 6.36623E+04 5.54280E-10 2.43631E-09
 -1       889 1.57358E+05 3.02459E+04 1.04287E+04 6.54844E+04 1.58576E-09-6.47560E-10
 -1       890 1.54209E+05 2.79672E+04 1.95318E+04 6.19977E+04 4.83396E-09 2.93767E-09
 -1       891-9.57555E+01-8.83496E+04-1.04000E+03 1.68316E+04 7.11907E-10-3.65151E-09
 -1       892-1.66585E+02-8.86000E+04-1.13278E+03 2.54725E+04 1.02887E-10-7.57473E-09
 -1       893-2.53856E+01-8.83837E+04-1.61980E+03 1.68347E+04 5.04315E-10-3.78350E-10
 -1       894-8.82359E+02-8.92262E+04-3.36464E+03 2.53825E+04-2.27374E-12 8.98763E-09
 -1       895-6.87655E+02-8.76872E+04-5.92872E+03 1.69207E+04 1.84787E-09 5.75756E-09
 -1       956-1.95054E+05-2.81488E+03-7.08883E+03 1.28804E+04-3.37332E-09-3.18016E-09
 -1       957-1.96454E+05-9.49570E+02-3.63928E+03 1.55066E+04-1.12050E-09-1.41949E-09
 -1       958-1.95681E+05-7.54982E+01-1.63946E+03 1.27964E+04 3.12684E-09 2.25134E-09
 -1       959-1.95792E+05-1.38327E+01-8.37473E+02 1.55973E+04 2.16460E-10 4.36785E-09
 -1       960-1.95736E+05 2.27122E+01-4.08131E+02 1.27886E+04-3.68846E-09-6.83940E-10
 -1       961-1.95742E+05 2.04887E+01-2.16420E+02 1.56061E+04-5.27928E-09-2.81648E-09
 -1       962-1.95746E+05 1.91153E+01-1.23520E+02 1.27876E+04-2.65527E-09-3.73905E-09
 -1       963-1.95739E+05 2.08260E+01-9.85634E+01 1.56075E+04-2.95705E-09 6.29484E-09
 -1       964-1.95748E+05 2.01709E+01-1.18850E+02 1.27872E+04 4.22347E-11-2.41585E-10
 -1       965-1.95746E+05 2.28558E+01-2.04700E+02 1.56075E+04 2.64738E-09-4.19084E-09
 -1       966-1.95742E+05 2.58038E+01-3.83806E+02 1.27876E+04-1.71019E-09-9.10291E-10
 -1       967-1.95798E+05-7.02697E+00-7.86964E+02 1.56028E+04 5.51381E-12 1.51090E-10
 -1       968-1.95694E+05-6.42349E+01-1.53984E+03 1.27920E+04-2.51021E-10-1.36424E-10
 -1       969-1.96424E+05-8.84046E+02-3.41886E+03 1.55500E+04 1.71326E-10 1.64347E-09
 -1       970-1.95108E+05-2.63630E+03-6.65899E+03 1.28420E+04 7.77391E-10 7.37145E-10
 -1       971-1.85424E+05-9.80714E+02-5.45970E+03 9.10995E+03-3.95858E-09 1.47584E-09
 -1       972-1.86752E+05-7.03966E+02-2.97361E+03 1.27181E+04-1.62140E-09-4.15662E-09
 -1       973-1.86029E+05-6.30292E+00-1.33120E+03 9.03496E+03-2.27465E-09-1.10867E-09
 -1       974-1.86121E+05-7.71201E+00-6.89735E+02 1.27986E+04-1.33241E-10 1.43314E-09
 -1       975-1.86074E+05 1.79524E+01-3.43770E+02 9.02873E+03 7.30324E-10 3.41402E-10
 -1       976-1.86081E+05 1.97111E+01-1.96870E+02 1.28059E+04-3.24053E-09 1.92512E-09
 -1       977-1.86082E+05 1.69385E+01-1.40054E+02 9.02758E+03 7.73525E-10 5.10425E-09
 -1       978-1.86082E+05 2.22045E+01-1.60158E+02 1.28075E+04 8.03794E-09-4.63672E-10
 -1       979-1.86081E+05 2.08501E+01-2.54006E+02 9.02711E+03 3.54834E-09 4.31618E-09
 -1       980-1.86100E+05 2.35869E+01-4.88376E+02 1.28077E+04 5.63769E-09 1.15330E-09
 -1       981-1.86066E+05 3.30611E+01-9.44700E+02 9.02737E+03-8.12292E-10-1.11299E-09
 -1       982-1.86230E+05-4.58194E+01-1.95201E+03 1.28042E+04-1.48651E-09-5.67017E-09
 -1       983-1.85948E+05-2.68134E+01-3.79228E+03 9.03078E+03 4.16117E-09 8.51969E-10
 -1       984-1.88056E+05-2.02530E+03-8.49208E+03 1.27534E+04 1.93529E-09-1.18803E-11
 -1       985-1.84232E+05-2.80113E+03-1.55941E+04 9.08125E+03 4.95902E-10 1.69439E-09
 -3
    1PSTEP                         7           4           1          
  100CL  104 4.68750E-01         409                     0    4           1
 -4  DISP        4    1
 -5  D1          1    2    1    0
 -5  D2          1    2    2    0
 -5  D3          1    2    3    0
 -5  ALL         1    2    0    0    1ALL
 -1         1 1.27159E-04 0.00000E+00 0.00000E+00
 -1         2 1.16584E-04 5.04902E-30 1.65436E-24
 -1         3 1.11432E-04-7.86296E-28-6.61744E-24
 -1         5 7.80551E-05 3.15292E-27-3.30872E-24
 -1         8 1.02752E-04-8.86067E-07 0.00000E+00
 -1         9 1.03446E-04 4.53134E-07 0.00000E+00
 -1        10 1.02625E-04-1.56389E-06 3.30872E-24
 -1        12 7.75674E-05 5.12394E-07 0.00000E+00
 -1        15 7.36865E-05-9.77574E-07 0.00000E+00
 -1        16 7.63284E-05 2.98279E-07 0.00000E+00
 -1        17 7.57289E-05-3.23804E-06 0.00000E+00
 -1        18 7.51130E-05 7.86957E-07 0.00000E+00
 -1        19 7.61045E-05 1.02196E-06 0.00000E+00
 -1        20 7.62363E-05 1.46075E-05 0.00000E+00
 -1        21 7.57354E-05 2.75114E-05 0.00000E+00
 -1        24 1.86695E-05-4.38595E-06 0.00000E+00
 -1        25 7.36321E-05 9.05434E-07 0.00000E+00
 -1        26 7.45614E-05 1.42329E-06 0.00000E+00
 -1        27 7.31427E-05 1.23305E-05 0.00000E+00
 -1        28 7.26897E-05 2.70746E-05 0.00000E+00
 -1        32 0.00000E+00 0.00000E+00 0.00000E+00
 -1        33 7.18048E-05 1.90774E-06 0.00000E+00
 -1        34 7.04356E-05 1.23099E-05 0.00000E+00
 -1        35 6.91346E-05 2.68439E-05 0.00000E+00
 -1        51 1.25573E-04-1.45657E-07 0.00000E+00
 -1        52 1.22631E-04-2.87399E-07 0.00000E+00
 -1        53 1.18601E-04-4.30631E-07 0.00000E+00
 -1        54 1.13759E-04-5.76787E-07 0.00000E+00
 -1        55 1.08384E-04-7.26594E-07-1.13737E-24
 -1        56 1.26016E-04-7.43512E-07 0.00000E+00
 -1        57 1.25018E-04-2.00593E-06-1.32349E-23
 -1        58 1.24163E-04-3.64144E-06 0.00000E+00
 -1        59 1.23387E-04-5.51331E-06-2.64698E-23
 -1        60 1.22641E-04-7.46405E-06 0.00000E+00
 -1        61 1.21864E-04-9.33691E-06 0.00000E+00
 -1        62 1.21000E-04-1.09793E-05 5.29396E-23
 -1        63 1.19996E-04-1.22461E-05 0.00000E+00
 -1        64 1.18806E-04-1.30151E-05 0.00000E+00
 -1        65 1.17389E-04-1.31793E-05 0.00000E+00
 -1        66 1.15718E-04-1.26687E-05 5.29396E-23
 -1        67 1.13777E-04-1.14337E-05-2.64698E-23
 -1        68 1.11560E-04-9.46945E-06 0.00000E+00
 -1        69 1.09081E-04-6.79078E-06 0.00000E+00
 -1        70 1.06353E-04-3.46158E-06-2.64698E-23
 -1        86 1.16241E-04 8.34322E-08 0.00000E+00
 -1        87 1.15213E-04 1.65873E-07 0.00000E+00
 -1        88 1.13467E-04 2.47275E-07 8.27181E-25
 -1        89 1.10969E-04 3.23757E-07-4.13590E-25
 -1        90 1.07652E-04 3.99087E-07 0.00000E+00
 -1       121 1.11186E-04-2.59263E-07 0.00000E+00
 -1       122 1.10449E-04-5.18759E-07 3.30872E-24
 -1       123 1.09221E-04-7.78722E-07 6.61744E-24
 -1       124 1.07506E-04-1.03940E-06-3.30872E-24
 -1       125 1.05306E-04-1.30098E-06 0.00000E+00
 -1       191 7.80416E-05 8.54062E-08 0.00000E+00
 -1       192 7.80010E-05 1.70811E-07 0.00000E+00
 -1       193 7.79332E-05 2.56214E-07 3.30872E-24
 -1       194 7.78384E-05 3.41614E-07 0.00000E+00
 -1       195 7.77165E-05 4.27008E-07 3.30872E-24
 -1       251 1.02775E-04 3.14224E-06 0.00000E+00
 -1       252 1.02818E-04 5.56385E-06 0.00000E+00
 -1       253 1.02862E-04 6.63820E-06 0.00000E+00
 -1       254 1.02910E-04 6.62167E-06 0.00000E+00
 -1       255 1.02958E-04 5.74305E-06 0.00000E+00
 -1       256 1.03006E-04 4.22932E-06-8.27181E-25
 -1       257 1.03053E-04 2.29115E-06 0.00000E+00
 -1       258 1.03100E-04 1.38392E-07-8.27181E-25
 -1       259 1.03146E-04-2.02474E-06 0.00000E+00
 -1       260 1.03193E-04-3.99395E-06 8.27181E-25
 -1       261 1.03241E-04-5.55998E-06-8.27181E-25
 -1       262 1.03289E-04-6.51279E-06 0.00000E+00
 -1       263 1.03337E-04-6.62654E-06-5.16988E-26
 -1       264 1.03381E-04-5.67368E-06 0.00000E+00
 -1       265 1.03424E-04-3.39961E-06 0.00000E+00
 -1       266 9.79075E-05-9.13268E-07 6.61744E-24
 -1       267 9.30634E-05-9.27062E-07 0.00000E+00
 -1       268 8.82192E-05-9.41706E-07 0.00000E+00
 -1       269 8.33749E-05-9.53834E-07-4.13590E-25
 -1       270 7.85308E-05-9.65904E-07 4.13590E-25
 -1       271 9.98032E-05 2.76641E-06 2.64698E-23
 -1       272 9.72807E-05 5.15517E-06 0.00000E+00
 -1       273 9.51846E-05 6.41973E-06 0.00000E+00
 -1       274 9.34512E-05 6.69935E-06-2.64698E-23
 -1       275 9.20256E-05 6.15755E-06-5.29396E-23
 -1       276 9.08405E-05 4.97001E-06 0.00000E+00
 -1       277 8.98261E-05 3.32539E-06 0.00000E+00
 -1       278 8.89089E-05 1.42023E-06 0.00000E+00
 -1       279 8.80137E-05-5.43873E-07 0.00000E+00
 -1       280 8.70649E-05-2.36423E-06 0.00000E+00
 -1       281 8.59878E-05-3.84103E-06 5.29396E-23
 -1       282 8.47105E-05-4.78053E-06 0.00000E+00
 -1       283 8.31635E-05-4.99949E-06 0.00000E+00
 -1       284 8.12865E-05-4.32598E-06 2.64698E-23
 -1       285 7.90147E-05-2.60871E-06 0.00000E+00
 -1       301 9.87472E-05 4.20327E-07 0.00000E+00
 -1       302 9.40699E-05 4.02695E-07 1.65436E-24
 -1       303 8.94519E-05 3.85752E-07 0.00000E+00
 -1       304 8.49307E-05 3.67595E-07-3.30872E-24
 -1       305 8.05439E-05 3.47607E-07 0.00000E+00
 -1       306 1.00403E-04 3.85198E-06 2.64698E-23
 -1       307 9.78404E-05 5.82971E-06 0.00000E+00
 -1       308 9.58379E-05 6.33035E-06 0.00000E+00
 -1       309 9.43835E-05 5.34350E-06-2.64698E-23
 -1       310 9.34034E-05 3.08755E-06 5.29396E-23
 -1       311 9.27919E-05-1.62395E-07 0.00000E+00
 -1       312 9.23920E-05-3.98162E-06 0.00000E+00
 -1       313 9.20356E-05-7.91894E-06 2.64698E-23
 -1       314 9.15486E-05-1.15049E-05 0.00000E+00
 -1       315 9.07628E-05-1.42868E-05 0.00000E+00
 -1       316 8.95533E-05-1.59332E-05 0.00000E+00
 -1       317 8.78162E-05-1.61658E-05-2.64698E-23
 -1       318 8.55225E-05-1.49185E-05-5.29396E-23
 -1       319 8.26812E-05-1.21908E-05 0.00000E+00
 -1       320 7.93609E-05-8.21092E-06 0.00000E+00
 -1       336 9.94396E-05-1.83846E-06 0.00000E+00
 -1       337 9.57237E-05-2.11492E-06 0.00000E+00
 -1       338 9.14851E-05-2.39330E-06 0.00000E+00
 -1       339 8.67329E-05-2.67345E-06 0.00000E+00
 -1       340 8.14770E-05-2.95605E-06 0.00000E+00
 -1       406 7.73913E-05 5.97765E-07 0.00000E+00
 -1       407 7.71881E-05 6.83104E-07 0.00000E+00
 -1       408 7.69577E-05 7.68385E-07-3.30872E-24
 -1       409 7.67003E-05 8.53502E-07 0.00000E+00
 -1       410 7.64158E-05 9.38288E-07 3.30872E-24
 -1       521 7.45267E-05-3.59202E-06 0.00000E+00
 -1       522 7.75279E-05-2.09413E-05 2.64698E-23
 -1       523 8.42508E-05-4.88278E-05 1.05879E-22
 -1       524 9.32747E-05-8.34852E-05 5.29396E-23
 -1       525 1.02823E-04-1.19688E-04-1.05879E-22
 -1       526 1.11076E-04-1.52084E-04-5.29396E-23
 -1       527 1.16437E-04-1.76142E-04-1.05879E-22
 -1       528 1.17455E-04-1.88030E-04 0.00000E+00
 -1       529 1.13500E-04-1.86505E-04 0.00000E+00
 -1       530 1.04318E-04-1.71413E-04 0.00000E+00
 -1       531 9.07996E-05-1.45429E-04 0.00000E+00
 -1       532 7.42678E-05-1.12073E-04 0.00000E+00
 -1       533 5.67694E-05-7.63786E-05 0.00000E+00
 -1       534 4.04760E-05-4.35462E-05-2.64698E-23
 -1       535 2.72311E-05-1.82122E-05 0.00000E+00
 -1       536 7.56716E-05 2.27223E-06 3.30872E-24
 -1       537 7.56252E-05 6.82439E-06-8.27181E-25
 -1       538 7.55824E-05 1.03763E-05-1.65436E-24
 -1       539 7.55438E-05 1.28876E-05 0.00000E+00
 -1       540 7.55072E-05 1.43966E-05 0.00000E+00
 -1       541 7.54718E-05 1.49431E-05-4.13590E-25
 -1       542 7.54365E-05 1.46400E-05 0.00000E+00
 -1       543 7.54008E-05 1.36013E-05 0.00000E+00
 -1       544 7.53644E-05 1.19965E-05-8.27181E-25
 -1       545 7.53274E-05 9.99616E-06 0.00000E+00
 -1       546 7.52900E-05 7.80074E-06 8.27181E-25
 -1       547 7.52527E-05 5.61092E-06 4.13590E-25
 -1       548 7.52158E-05 3.62697E-06 0.00000E+00
 -1       549 7.51802E-05 2.04886E-06 2.06795E-25
 -1       550 7.51450E-05 1.04604E-06 0.00000E+00
 -1       551 6.81988E-05-3.40911E-06 0.00000E+00
 -1       552 5.91973E-05-3.58873E-06 1.65436E-24
 -1       553 4.92303E-05-3.77688E-06 6.61744E-24
 -1       554 3.88116E-05-3.97164E-06-3.30872E-24
 -1       555 2.84547E-05-4.16850E-06-1.32349E-23
 -1       556 7.37374E-05 1.91911E-06 0.00000E+00
 -1       557 7.22100E-05 5.87824E-06 0.00000E+00
 -1       558 7.10963E-05 8.74875E-06 0.00000E+00
 -1       559 7.03502E-05 1.06487E-05 0.00000E+00
 -1       560 6.99257E-05 1.16960E-05 0.00000E+00
 -1       561 6.97775E-05 1.20092E-05 0.00000E+00
 -1       562 6.98603E-05 1.17068E-05 0.00000E+00
 -1       563 7.01293E-05 1.09078E-05 0.00000E+00
 -1       564 7.05397E-05 9.73092E-06 0.00000E+00
 -1       565 7.10469E-05 8.29520E-06 0.00000E+00
 -1       566 7.16063E-05 6.71961E-06-8.27181E-25
 -1       567 7.21735E-05 5.12320E-06 4.13590E-25
 -1       568 7.27041E-05 3.62495E-06 0.00000E+00
 -1       569 7.31536E-05 2.34374E-06 0.00000E+00
 -1       570 7.34774E-05 1.39848E-06 0.00000E+00
 -1       571 7.51732E-05 8.39513E-07-8.27181E-25
 -1       572 7.52347E-05 8.50930E-07-6.20385E-25
 -1       573 7.52966E-05 8.28580E-07-8.27181E-25
 -1       574 7.53586E-05 7.80220E-07 8.27181E-25
 -1       575 7.54208E-05 7.13641E-07 1.65436E-24
 -1       576 7.54830E-05 6.36686E-07 0.00000E+00
 -1       577 7.55451E-05 5.57201E-07 0.00000E+00
 -1       578 7.56073E-05 4.83043E-07 0.00000E+00
 -1       579 7.56695E-05 4.22063E-07 3.30872E-24
 -1       580 7.57317E-05 3.82119E-07 3.30872E-24
 -1       581 7.57939E-05 3.71062E-07 0.00000E+00
 -1       582 7.58561E-05 3.96739E-07-3.30872E-24
 -1       583 7.59183E-05 4.66987E-07 3.30872E-24
 -1       584 7.59804E-05 5.89565E-07 0.00000E+00
 -1       585 7.60426E-05 7.72184E-07-3.30872E-24
 -1       586 7.48439E-05 8.07919E-07-8.27181E-25
 -1       587 7.45486E-05 8.28369E-07 0.00000E+00
 -1       588 7.42533E-05 8.48596E-07 0.00000E+00
 -1       589 7.39846E-05 8.68503E-07 0.00000E+00
 -1       590 7.37689E-05 8.87869E-07 0.00000E+00
 -1       591 7.50641E-05 8.71765E-07-1.03398E-25
 -1       592 7.50254E-05 9.23008E-07 0.00000E+00
 -1       593 7.49966E-05 9.47082E-07 0.00000E+00
 -1       594 7.49756E-05 9.49747E-07-2.06795E-25
 -1       595 7.49604E-05 9.36839E-07-4.13590E-25
 -1       596 7.49488E-05 9.14150E-07 0.00000E+00
 -1       597 7.49387E-05 8.87470E-07 4.13590E-25
 -1       598 7.49279E-05 8.62585E-07 0.00000E+00
 -1       599 7.49143E-05 8.45279E-07 0.00000E+00
 -1       600 7.48956E-05 8.41337E-07-2.06795E-25
 -1       601 7.48698E-05 8.56544E-07 0.00000E+00
 -1       602 7.48347E-05 8.96689E-07-1.03398E-25
 -1       603 7.47882E-05 9.67563E-07 4.13590E-25
 -1       604 7.47282E-05 1.07500E-06 1.03398E-25
 -1       605 7.46526E-05 1.22477E-06 4.13590E-25
 -1       606 7.61160E-05 1.41345E-06 0.00000E+00
 -1       607 7.61252E-05 1.89282E-06 0.00000E+00
 -1       608 7.61338E-05 2.45492E-06 0.00000E+00
 -1       609 7.61421E-05 3.09392E-06 0.00000E+00
 -1       610 7.61503E-05 3.80399E-06 0.00000E+00
 -1       611 7.61584E-05 4.57919E-06 0.00000E+00
 -1       612 7.61664E-05 5.41359E-06 0.00000E+00
 -1       613 7.61744E-05 6.30127E-06 0.00000E+00
 -1       614 7.61823E-05 7.23627E-06-1.65436E-24
 -1       615 7.61902E-05 8.21264E-06 8.27181E-25
 -1       616 7.61980E-05 9.22448E-06 1.65436E-24
 -1       617 7.62058E-05 1.02658E-05 0.00000E+00
 -1       618 7.62136E-05 1.13307E-05 8.27181E-25
 -1       619 7.62213E-05 1.24133E-05 0.00000E+00
 -1       620 7.62290E-05 1.35075E-05 0.00000E+00
 -1       621 7.58010E-05 1.08889E-06 0.00000E+00
 -1       622 7.55234E-05 1.15615E-06 8.27181E-25
 -1       623 7.52661E-05 1.22340E-06 0.00000E+00
 -1       624 7.50237E-05 1.29055E-06-8.27181E-25
 -1       625 7.47907E-05 1.35758E-06-1.65436E-24
 -1       626 7.60294E-05 1.43458E-06 0.00000E+00
 -1       627 7.59275E-05 1.91985E-06 3.30872E-24
 -1       628 7.58011E-05 2.47101E-06 0.00000E+00
 -1       629 7.56526E-05 3.08082E-06 0.00000E+00
 -1       630 7.54849E-05 3.74209E-06-3.30872E-24
 -1       631 7.53005E-05 4.44752E-06-1.65436E-24
 -1       632 7.51023E-05 5.18984E-06 0.00000E+00
 -1       633 7.48930E-05 5.96178E-06 0.00000E+00
 -1       634 7.46753E-05 6.75606E-06 0.00000E+00
 -1       635 7.44519E-05 7.56541E-06 0.00000E+00
 -1       636 7.42256E-05 8.38257E-06 0.00000E+00
 -1       637 7.39991E-05 9.20024E-06 8.27181E-25
 -1       638 7.37750E-05 1.00112E-05-1.65436E-24
 -1       639 7.35561E-05 1.08081E-05-8.27181E-25
 -1       640 7.33448E-05 1.15836E-05 8.27181E-25
 -1       656 7.53266E-05 1.42370E-05-6.61744E-24
 -1       657 7.47475E-05 1.38517E-05-3.30872E-24
 -1       658 7.43739E-05 1.34677E-05-6.61744E-24
 -1       659 7.40771E-05 1.30839E-05 0.00000E+00
 -1       660 7.37141E-05 1.26990E-05 0.00000E+00
 -1       661 7.59002E-05 1.56843E-05 0.00000E+00
 -1       662 7.55851E-05 1.67130E-05 8.27181E-25
 -1       663 7.52873E-05 1.76949E-05 1.65436E-24
 -1       664 7.50068E-05 1.86325E-05-8.27181E-25
 -1       665 7.47423E-05 1.95275E-05 1.65436E-24
 -1       666 7.44931E-05 2.03820E-05 0.00000E+00
 -1       667 7.42584E-05 2.11980E-05 1.65436E-24
 -1       668 7.40375E-05 2.19771E-05 8.27181E-25
 -1       669 7.38298E-05 2.27212E-05 0.00000E+00
 -1       670 7.36347E-05 2.34318E-05-8.27181E-25
 -1       671 7.34515E-05 2.41106E-05 0.00000E+00
 -1       672 7.32796E-05 2.47590E-05 8.27181E-25
 -1       673 7.31185E-05 2.53785E-05 0.00000E+00
 -1       674 7.29671E-05 2.59701E-05 0.00000E+00
 -1       675 7.28257E-05 2.65356E-05 4.13590E-25
 -1       676 7.52266E-05 2.74382E-05 0.00000E+00
 -1       677 7.47179E-05 2.73650E-05-8.27181E-25
 -1       678 7.42097E-05 2.72918E-05 0.00000E+00
 -1       679 7.37021E-05 2.72189E-05 8.27181E-25
 -1       680 7.31954E-05 2.71459E-05 1.65436E-24
 -1       771 1.47579E-05 3.16395E-06 0.00000E+00
 -1       772 1.13588E-05 9.34903E-06-1.32349E-23
 -1       773 8.45102E-06 1.42444E-05 0.00000E+00
 -1       774 6.00193E-06 1.79306E-05-1.32349E-23
 -1       775 3.97956E-06 2.04898E-05 0.00000E+00
 -1       776 2.35046E-06 2.20076E-05 1.32349E-23
 -1       777 1.08074E-06 2.25710E-05 2.64698E-23
 -1       778 1.35801E-07 2.22699E-05 0.00000E+00
 -1       779-5.19260E-07 2.11952E-05 2.64698E-23
 -1       780-9.19962E-07 1.94404E-05 1.32349E-23
 -1       781-1.10196E-06 1.70998E-05 0.00000E+00
 -1       782-1.10139E-06 1.42695E-05 1.32349E-23
 -1       783-9.54481E-07 1.10461E-05 0.00000E+00
 -1       784-6.97710E-07 7.52762E-06 0.00000E+00
 -1       785-3.67687E-07 3.81250E-06 0.00000E+00
 -1       786 7.36868E-05 8.64552E-07-4.13590E-25
 -1       787 7.37447E-05 8.29613E-07 0.00000E+00
 -1       788 7.38025E-05 8.00169E-07 1.65436E-24
 -1       789 7.38608E-05 7.75782E-07-8.27181E-25
 -1       790 7.39192E-05 7.56700E-07 1.65436E-24
 -1       791 7.39776E-05 7.43180E-07-8.27181E-25
 -1       792 7.40361E-05 7.36233E-07 0.00000E+00
 -1       793 7.40947E-05 7.36886E-07 8.27181E-25
 -1       794 7.41532E-05 7.47189E-07-1.65436E-24
 -1       795 7.42117E-05 7.69220E-07-8.27181E-25
 -1       796 7.42702E-05 8.06636E-07-1.65436E-24
 -1       797 7.43287E-05 8.63137E-07-8.27181E-25
 -1       798 7.43872E-05 9.44994E-07-1.65436E-24
 -1       799 7.44455E-05 1.05855E-06 0.00000E+00
 -1       800 7.45039E-05 1.21440E-06 0.00000E+00
 -1       801 6.86582E-05 8.44989E-07-1.65436E-24
 -1       802 5.37667E-05 6.87929E-07 0.00000E+00
 -1       803 3.42204E-05 4.57977E-07-3.30872E-24
 -1       804 1.52923E-05 2.32720E-07 0.00000E+00
 -1       805 2.16131E-06 9.35861E-08 1.32349E-23
 -1       806 7.35757E-05 8.23269E-07 1.65436E-24
 -1       807 7.35159E-05 7.42198E-07 0.00000E+00
 -1       808 7.34535E-05 6.66734E-07 0.00000E+00
 -1       809 7.33872E-05 6.00688E-07 0.00000E+00
 -1       810 7.33159E-05 5.47866E-07 0.00000E+00
 -1       811 7.32382E-05 5.12016E-07 1.65436E-24
 -1       812 7.31526E-05 4.96879E-07 1.65436E-24
 -1       813 7.30579E-05 5.06190E-07 8.27181E-25
 -1       814 7.29526E-05 5.43679E-07 1.65436E-24
 -1       815 7.28354E-05 6.13075E-07 1.65436E-24
 -1       816 7.27048E-05 7.18101E-07 0.00000E+00
 -1       817 7.25594E-05 8.62482E-07-8.27181E-25
 -1       818 7.23980E-05 1.04994E-06 0.00000E+00
 -1       819 7.22191E-05 1.28418E-06 8.27181E-25
 -1       820 7.20214E-05 1.56890E-06 0.00000E+00
 -1       821 7.44779E-05 1.65231E-06-8.27181E-25
 -1       822 7.43893E-05 1.86930E-06-8.27181E-25
 -1       823 7.43010E-05 2.11402E-06 0.00000E+00
 -1       824 7.42117E-05 2.42616E-06-1.65436E-24
 -1       825 7.41223E-05 2.83287E-06-3.30872E-24
 -1       826 7.40327E-05 3.36094E-06-1.65436E-24
 -1       827 7.39431E-05 4.01464E-06 0.00000E+00
 -1       828 7.38533E-05 4.79778E-06-1.65436E-24
 -1       829 7.37634E-05 5.69014E-06-3.30872E-24
 -1       830 7.36734E-05 6.67105E-06-1.65436E-24
 -1       831 7.35834E-05 7.70347E-06 0.00000E+00
 -1       832 7.34937E-05 8.75012E-06 0.00000E+00
 -1       833 7.34039E-05 9.77107E-06 1.65436E-24
 -1       834 7.33153E-05 1.07265E-05 8.27181E-25
 -1       835 7.32263E-05 1.15888E-05 8.27181E-25
 -1       836 7.42379E-05 1.50394E-06 0.00000E+00
 -1       837 7.38080E-05 1.58637E-06 0.00000E+00
 -1       838 7.33106E-05 1.66865E-06 0.00000E+00
 -1       839 7.27849E-05 1.75040E-06 0.00000E+00
 -1       840 7.22699E-05 1.83202E-06 0.00000E+00
 -1       856 7.31177E-05 1.30639E-05 2.06795E-25
 -1       857 7.30897E-05 1.38944E-05 0.00000E+00
 -1       858 7.30618E-05 1.48069E-05 0.00000E+00
 -1       859 7.30333E-05 1.57859E-05 0.00000E+00
 -1       860 7.30048E-05 1.68159E-05 8.27181E-25
 -1       861 7.29761E-05 1.78815E-05-4.13590E-25
 -1       862 7.29474E-05 1.89672E-05 8.27181E-25
 -1       863 7.29187E-05 2.00572E-05 0.00000E+00
 -1       864 7.28900E-05 2.11361E-05 0.00000E+00
 -1       865 7.28613E-05 2.21883E-05 4.13590E-25
 -1       866 7.28326E-05 2.31983E-05 8.27181E-25
 -1       867 7.28040E-05 2.41505E-05-4.13590E-25
 -1       868 7.27754E-05 2.50295E-05 0.00000E+00
 -1       869 7.27468E-05 2.58201E-05 0.00000E+00
 -1       870 7.27184E-05 2.65068E-05 0.00000E+00
 -1       871 7.25926E-05 1.23297E-05 0.00000E+00
 -1       872 7.21361E-05 1.23270E-05 0.00000E+00
 -1       873 7.17329E-05 1.23239E-05 0.00000E+00
 -1       874 7.13422E-05 1.23203E-05-1.55096E-25
 -1       875 7.09232E-05 1.23163E-05-4.13590E-25
 -1       876 7.29528E-05 1.30720E-05 1.65436E-24
 -1       877 7.27470E-05 1.38608E-05 0.00000E+00
 -1       878 7.25257E-05 1.46912E-05 0.00000E+00
 -1       879 7.22910E-05 1.55578E-05 0.00000E+00
 -1       880 7.20448E-05 1.64554E-05 0.00000E+00
 -1       881 7.17889E-05 1.73785E-05 0.00000E+00
 -1       882 7.15255E-05 1.83218E-05 3.30872E-24
 -1       883 7.12565E-05 1.92801E-05 1.65436E-24
 -1       884 7.09838E-05 2.02480E-05 0.00000E+00
 -1       885 7.07096E-05 2.12203E-05 1.65436E-24
 -1       886 7.04356E-05 2.21914E-05 0.00000E+00
 -1       887 7.01640E-05 2.31563E-05 0.00000E+00
 -1       888 6.98966E-05 2.41094E-05 0.00000E+00
 -1       889 6.96352E-05 2.50455E-05 0.00000E+00
 -1       890 6.93817E-05 2.59592E-05 8.27181E-25
 -1       891 7.22030E-05 2.70360E-05 0.00000E+00
 -1       892 7.16996E-05 2.69973E-05 4.13590E-25
 -1       893 7.11603E-05 2.69586E-05 0.00000E+00
 -1       894 7.05657E-05 2.69199E-05 0.00000E+00
 -1       895 6.98968E-05 2.68814E-05-2.06795E-25
 -1       956 7.17208E-05 2.35703E-06 0.00000E+00
 -1       957 7.16354E-05 2.86121E-06 0.00000E+00
 -1       958 7.15498E-05 3.41456E-06 0.00000E+00
 -1       959 7.14641E-05 4.01101E-06 1.65436E-24
 -1       960 7.13782E-05 4.64450E-06-3.30872E-24
 -1       961 7.12923E-05 5.30892E-06-8.27181E-25
 -1       962 7.12064E-05 5.99816E-06 3.30872E-24
 -1       963 7.11205E-05 6.70612E-06 8.27181E-25
 -1       964 7.10345E-05 7.42666E-06 0.00000E+00
 -1       965 7.09486E-05 8.15369E-06 0.00000E+00
 -1       966 7.08627E-05 8.88108E-06 0.00000E+00
 -1       967 7.07767E-05 9.60272E-06-1.65436E-24
 -1       968 7.06909E-05 1.03125E-05-3.30872E-24
 -1       969 7.06052E-05 1.10043E-05 0.00000E+00
 -1       970 7.05197E-05 1.16721E-05-3.30872E-24
 -1       971 7.03553E-05 1.29657E-05-1.65436E-24
 -1       972 7.02740E-05 1.36936E-05 0.00000E+00
 -1       973 7.01925E-05 1.44857E-05 1.65436E-24
 -1       974 7.01108E-05 1.53337E-05 0.00000E+00
 -1       975 7.00290E-05 1.62292E-05 1.65436E-24
 -1       976 6.99472E-05 1.71640E-05 8.27181E-25
 -1       977 6.98654E-05 1.81298E-05-1.65436E-24
 -1       978 6.97835E-05 1.91183E-05 0.00000E+00
 -1       979 6.97017E-05 2.01211E-05 0.00000E+00
 -1       980 6.96198E-05 2.11300E-05 0.00000E+00
 -1       981 6.95380E-05 2.21365E-05-3.30872E-24
 -1       982 6.94562E-05 2.31324E-05 1.65436E-24
 -1       983 6.93746E-05 2.41094E-05-3.30872E-24
 -1       984 6.92933E-05 2.50591E-05-8.27181E-25
 -1       985 6.92124E-05 2.59733E-05-1.65436E-24
 -3
    1PSTEP                         8           4           1          
  100CL  104 4.68750E-01         409                     0    4           1
 -4  STRESS      6    1
 -5  SXX         1    4    1    1
 -5  SYY         1    4    2    2
 -5  SZZ         1    4    3    3
 -5  SXY         1    4    1    2
 -5  SYZ         1    4    2    3
 -5  SZX         1    4    3    1
 -1         1-1.66228E+06-7.54112E+05-3.41802E+05-1.05172E+06 1.81899E-11-4.46744E-09
 -1         2 2.65836E+03 2.42421E+05 8.71190E+03 7.05763E+02-1.47566E-10 1.13388E-08
 -1         3-9.81548E+01-7.40568E+05 8.60248E+01-3.08598E+02 2.24723E-10-1.84627E-09
 -1         5-5.84613E+00 2.44380E+05 6.40383E+00 1.10038E-01 1.01105E-10-1.76092E-08
 -1         8-7.84245E+05-3.32710E+05-3.40194E+04-5.65313E+05 3.27418E-11 2.85945E-09
 -1         9-1.37649E+06-3.63427E+05-1.40758E+05-4.61575E+05 3.36440E-09 1.24564E-09
 -1        10-2.57551E+02-7.56086E+05-7.53714E+02-1.93344E+03-8.97671E-10-2.48318E-09
 -1        12-3.22203E+00 2.44393E+05 2.07658E+02 9.96754E-01 1.89999E-10-1.65142E-09
 -1        15 1.97988E+03 1.08806E+03 6.39996E+03 4.14748E+00-1.98952E-12 3.65681E-09
 -1        16-3.52161E+06-1.21100E+06-5.55510E+05-1.24211E+06 1.11953E-08-1.05162E-08
 -1        17-8.49751E+05-5.15327E+05-1.64638E+05-4.75486E+05-5.51081E-09 6.72298E-10
 -1        18 4.79427E+03-3.15552E+03-1.74694E+04-5.81952E+04 8.95625E-10 4.91355E-09
 -1        19 7.65708E+04 9.12290E+04-4.39016E+02 1.49550E+04-5.18412E-10-4.62933E-09
 -1        20-3.22208E+04-3.61750E+05-7.98146E+04 2.64951E+04 2.54734E-09 7.53759E-09
 -1        21-3.40901E+01-2.09299E+05-6.75697E+02-7.30526E+01-7.59826E-09-1.70807E-08
 -1        24-3.25451E+06-1.02177E+06-4.49738E+05-1.25876E+06-2.01665E-08-9.99232E-09
 -1        25 2.28978E+04-3.31891E+04 1.00799E+04-1.05066E+05 3.32875E-10 7.56027E-09
 -1        26-1.79809E+04 6.22316E+04-1.23882E+04-8.79300E+03 1.55997E-09 1.49434E-09
 -1        27-5.77810E+04-1.98426E+05-7.44245E+04 4.47140E+04 4.69906E-09-6.86062E-10
 -1        28 1.62004E+04-5.78446E+04 1.18248E+04 1.84747E+04 8.51230E-10-3.61980E-09
 -1        32-7.84880E+05-1.82763E+05 3.18773E+05-5.24330E+05-1.64509E-08 1.19655E-08
 -1        33-1.13527E+05 5.83060E+04 2.06725E+04-3.37258E+04 1.11000E-09 2.08259E-09
 -1        34-1.47272E+05-1.46739E+04 3.46431E+02 4.53328E+04 3.68279E-09-1.86128E-09
 -1        35-1.64752E+04-2.29886E+04-9.01007E+02 3.64589E+04 5.10597E-09-6.25732E-10
 -1        51 1.40490E+04-3.66909E+05 3.63632E+04-9.31479E+05 3.34694E-10-2.03727E-10
 -1        52 8.82650E+03-3.65878E+05 2.43231E+04-1.08641E+06 4.29281E-10-1.67347E-09
 -1        53 6.64603E+03-3.78225E+05 2.10124E+04-9.28241E+05 2.83762E-10-1.33150E-08
 -1        54 1.90754E+04-3.76905E+05 3.40759E+04-1.08978E+06 4.43833E-10-3.26945E-08
 -1        55 3.79175E+04-3.89898E+05 6.10591E+04-9.27722E+05 3.78350E-10-4.97312E-09
 -1        56-3.19001E+06-3.59179E+05-2.51162E+05-1.22963E+06-1.48066E-09 1.11468E-08
 -1        57-3.28903E+06-5.88291E+05-1.69301E+05-1.22202E+06-1.63709E-09 4.22187E-09
 -1        58-3.24114E+06-4.38049E+05-5.90933E+04-1.21303E+06-1.37516E-09 1.09139E-10
 -1        59-3.22980E+06-4.95827E+05-3.52745E+04-1.24194E+06-1.00158E-10 9.33642E-09
 -1        60-3.24870E+06-4.48934E+05-1.37974E+04-1.21066E+06-9.06084E-10-7.86713E-10
 -1        61-3.22238E+06-4.81676E+05-7.83739E+03-1.24305E+06-1.15881E-09 1.46116E-09
 -1        62-3.24842E+06-4.51872E+05-3.78230E+03-1.21200E+06 1.42813E-09-6.61402E-09
 -1        63-3.22538E+06-4.75787E+05-3.07184E+03-1.23827E+06 7.02698E-10 2.22599E-09
 -1        64-3.24558E+06-4.54858E+05-3.56778E+03-1.21537E+06-1.04046E-09 4.86807E-09
 -1        65-3.23299E+06-4.70292E+05-7.04987E+03-1.23002E+06-1.58366E-09-1.63100E-08
 -1        66-3.24070E+06-4.57480E+05-1.24926E+04-1.22015E+06 2.88424E-09 3.47427E-09
 -1        67-3.24866E+06-4.73858E+05-3.16131E+04-1.21853E+06 6.63704E-10 1.06479E-08
 -1        68-3.22996E+06-4.51631E+05-5.31310E+04-1.22674E+06 1.19280E-09-1.63345E-09
 -1        69-3.30804E+06-5.50917E+05-1.51971E+05-1.19406E+06 1.73441E-09-1.76606E-08
 -1        70-3.18195E+06-3.82765E+05-2.25547E+05-1.24385E+06-5.82077E-10-1.93540E-09
 -1        86-1.33570E+03 2.39571E+05 9.30013E+03-3.52908E+02 1.13619E-09-4.77888E-09
 -1        87 8.85527E+03 2.45468E+05 1.94508E+04 1.45712E+03 1.88925E-09-4.31143E-09
 -1        88-7.51615E+03 2.36528E+05 2.97269E+04-1.10428E+03 2.84490E-09-4.25456E-09
 -1        89 5.60044E+04 2.67516E+05 8.02457E+04 3.17908E+03 4.35739E-09-1.10631E-08
 -1        90-4.83347E+04 2.17548E+05 1.13286E+05-2.07435E+03 4.96948E-09-1.57263E-08
 -1       121-1.44841E+02-7.40999E+05 2.43068E+01 1.54116E+02 1.04578E-10 1.85719E-09
 -1       122-6.53070E+01-7.40552E+05 1.78324E+02-6.16497E+02 1.34125E-09 2.58842E-09
 -1       123-1.65897E+02-7.41021E+05 2.22015E+02 4.61284E+02 5.15143E-10 2.58842E-09
 -1       124 3.04814E+02-7.40350E+05 7.29164E+02-1.35203E+03 2.96313E-09 2.18824E-09
 -1       125-4.08249E+02-7.41222E+05 1.01611E+03 8.88903E+02 1.09549E-09 7.25777E-09
 -1       191-6.34929E+00 2.44400E+05 7.59294E+00-5.57123E-02 1.47038E-10-5.95310E-09
 -1       192-6.43513E+00 2.44380E+05 1.35620E+01 6.61840E-01 2.31467E-10 5.88443E-09
 -1       193-7.91508E+00 2.44400E+05 2.51619E+01-6.10805E-01 2.32393E-10-1.58934E-09
 -1       194-8.33046E+00 2.44382E+05 5.13054E+01 1.63049E+00 7.75913E-11-2.28283E-10
 -1       195-1.09241E+01 2.44398E+05 1.00296E+02-1.03189E+00 3.53360E-10 1.40699E-09
 -1       251 1.19915E+05-4.12700E+04 9.61957E+04 3.90555E+03-1.66438E-10 3.19415E-09
 -1       252 1.64720E+05 4.77189E+04 6.84163E+04-1.37142E+04-5.74232E-10 4.32919E-10
 -1       253 1.36687E+05-6.39114E+03 2.48775E+04 2.96568E+03-4.70664E-10-3.47245E-09
 -1       254 1.44838E+05 7.37429E+03 1.58053E+04-1.22474E+04-9.10177E-10-3.43448E-09
 -1       255 1.39682E+05-9.87354E+02 6.42933E+03 2.43890E+03-3.56806E-10 3.03385E-09
 -1       256 1.41197E+05 1.17675E+03 3.93997E+03-1.14660E+04 7.51626E-10 1.95752E-09
 -1       257 1.40272E+05-1.73402E+02 2.03617E+03 2.18418E+03 1.42109E-10-4.90064E-09
 -1       258 1.40591E+05 3.83705E+02 1.83534E+03-1.12049E+04-1.14066E-10-2.77709E-09
 -1       259 1.40270E+05-1.83905E+02 2.13584E+03 2.17782E+03-3.36513E-11-5.15342E-09
 -1       260 1.41228E+05 1.26929E+03 4.22163E+03-1.14414E+04 1.30439E-09-5.19958E-09
 -1       261 1.39651E+05-1.06793E+03 6.94692E+03 2.42067E+03 1.22901E-09 2.34877E-09
 -1       262 1.45100E+05 7.98335E+03 1.70783E+04-1.21960E+04-1.47111E-10-1.15870E-09
 -1       263 1.36451E+05-6.91508E+03 2.69359E+04 2.93250E+03-3.71188E-10 1.32295E-08
 -1       264 1.66488E+05 5.16429E+04 7.40004E+04-1.36386E+04-7.23389E-10 2.79397E-09
 -1       265 1.18377E+05-4.46513E+04 1.04149E+05 3.86312E+03-7.95353E-10-2.53203E-09
 -1       266-3.58413E+04-1.67568E+04 8.41063E+04-8.87544E+01-4.72937E-11-6.12414E-09
 -1       267 4.15512E+04 1.95344E+04 5.94388E+04 1.02391E+02-7.27596E-12-1.41864E-08
 -1       268-5.57188E+03-2.76640E+03 2.20935E+04-1.30472E+01 4.72937E-11-1.24801E-08
 -1       269 6.57882E+03 3.31103E+03 1.43601E+04 1.51971E+01-6.82121E-13-5.51828E-09
 -1       270-9.87488E+02-5.44018E+02 6.93183E+03-2.06240E+00-8.93579E-11-4.95497E-10
 -1       271-3.50733E+06-4.38844E+05-2.69926E+05-1.36791E+06 9.31323E-10-2.79397E-09
 -1       272-3.58901E+06-6.50483E+05-1.73489E+05-1.38220E+06-2.23599E-09 5.11136E-10
 -1       273-3.55982E+06-5.04331E+05-6.37694E+04-1.35395E+06 5.84805E-10 1.10194E-08
 -1       274-3.52714E+06-5.70780E+05-3.56432E+04-1.40415E+06-1.25965E-09-9.82254E-10
 -1       275-3.56867E+06-5.09378E+05-1.48369E+04-1.34980E+06 3.61069E-10-1.31877E-10
 -1       276-3.51651E+06-5.65150E+05-7.85901E+03-1.41100E+06-1.18052E-09 9.02583E-09
 -1       277-3.57103E+06-5.08607E+05-3.84732E+03-1.34795E+06-1.69985E-09-2.68722E-09
 -1       278-3.51422E+06-5.65820E+05-2.78626E+03-1.41334E+06 2.58240E-09-7.18194E-09
 -1       279-3.57128E+06-5.08422E+05-2.98325E+03-1.34772E+06-2.46462E-09-8.46603E-09
 -1       280-3.51551E+06-5.65507E+05-5.46466E+03-1.41204E+06 1.96724E-09 6.66432E-09
 -1       281-3.56956E+06-5.09086E+05-1.00174E+04-1.34910E+06-1.94041E-09-2.46473E-09
 -1       282-3.52321E+06-5.68564E+05-2.38905E+04-1.40654E+06-4.36557E-11 1.54068E-09
 -1       283-3.56304E+06-5.06367E+05-4.27223E+04-1.35255E+06-3.86081E-10-5.07498E-09
 -1       284-3.56596E+06-6.20302E+05-1.16076E+05-1.38982E+06-7.45786E-10 1.98452E-09
 -1       285-3.52689E+06-4.63680E+05-1.80770E+05-1.36306E+06 2.15732E-09-7.26141E-09
 -1       301 1.44188E+04-1.75149E+04 1.10175E+05-4.49534E+04-8.84029E-10 9.53128E-09
 -1       302 1.55215E+04 1.03485E+04 7.88096E+04-6.61970E+04 1.56206E-09 9.52491E-09
 -1       303 8.65007E+02-7.48924E+03 7.14016E+04-4.50562E+04-8.40373E-10-8.50014E-09
 -1       304 2.78047E+04 2.17943E+04 1.18869E+05-6.59699E+04 1.15688E-09-5.76256E-09
 -1       305 2.74074E+04-2.87054E+04 1.98843E+05-4.51058E+04-8.29459E-10 2.52840E-10
 -1       306-3.92370E+06-4.58017E+05-2.98021E+05-1.53857E+06 2.61934E-09-1.67056E-08
 -1       307-4.08478E+06-7.01398E+05-2.03050E+05-1.47693E+06 3.17323E-09 9.05857E-10
 -1       308-3.99697E+06-5.45278E+05-7.01923E+04-1.50441E+06 3.71074E-10 8.77844E-09
 -1       309-3.99082E+06-6.09274E+05-4.23090E+04-1.52790E+06-1.31780E-09-2.49202E-09
 -1       310-4.01726E+06-5.48284E+05-1.64803E+04-1.48823E+06-5.47629E-10-1.28111E-08
 -1       311-3.96460E+06-6.08952E+05-9.49172E+03-1.55092E+06 4.00678E-09-9.86756E-09
 -1       312-4.02346E+06-5.45076E+05-4.64084E+03-1.48174E+06-4.22034E-10-3.95539E-09
 -1       313-3.96145E+06-6.08824E+05-4.16780E+03-1.55364E+06-5.46606E-10-1.25203E-08
 -1       314-4.02045E+06-5.48340E+05-5.11745E+03-1.48556E+06-1.42563E-09-1.26431E-08
 -1       315-3.97564E+06-5.97668E+05-1.05320E+04-1.53699E+06-1.34060E-09-1.18212E-09
 -1       316-4.00893E+06-5.56518E+05-1.87972E+04-1.49813E+06 2.34422E-09 6.08452E-10
 -1       317-4.01097E+06-5.93116E+05-4.80414E+04-1.50552E+06-1.12709E-09-1.47975E-09
 -1       318-3.98498E+06-5.53364E+05-7.97570E+04-1.51676E+06-4.61841E-09 1.41008E-08
 -1       319-4.11559E+06-7.01359E+05-2.31047E+05-1.45224E+06-5.29235E-09 4.85670E-09
 -1       320-3.90516E+06-4.50104E+05-3.38646E+05-1.55097E+06 8.10542E-09 4.35102E-09
 -1       336 2.08492E+02-7.71576E+05-2.82426E+03 1.04183E+03-7.22002E-09 5.10227E-09
 -1       337-1.09558E+03-7.72140E+05-3.78238E+03-2.58676E+03-1.32211E-08-5.84441E-09
 -1       338 3.22189E+02-7.71469E+05-5.63664E+03 1.53985E+03-9.48057E-09-5.72072E-09
 -1       339-6.16835E+03-7.75287E+05-1.29638E+04-3.56708E+03-1.68545E-08 8.70659E-09
 -1       340 4.20344E+03-7.68504E+05-2.02429E+04 2.01462E+03-1.10804E-08 2.23099E-09
 -1       406 1.25784E+01 2.44389E+05 4.09906E+02 1.70962E-02 5.36517E-10-2.41016E-10
 -1       407 1.39728E+02 2.44465E+05 8.71336E+02-8.06332E+00 8.07177E-12-5.31941E-09
 -1       408 4.45260E+02 2.44326E+05 1.74016E+03 8.19845E+00 6.27097E-10-3.75621E-09
 -1       409 1.87867E+03 2.45021E+05 3.91774E+03-7.87518E+01-6.20730E-11-1.06436E-08
 -1       410 5.40351E+03 2.43831E+05 7.99788E+03 7.34702E+01 6.51198E-10 7.00311E-10
 -1       521-7.36885E+06-7.74758E+05-5.67403E+05-2.72050E+06 2.48838E-09-8.44011E-10
 -1       522-7.07942E+06-1.58260E+06-3.49494E+05-3.07773E+06-2.57296E-08-7.66522E-09
 -1       523-7.58229E+06-7.76221E+05-1.31595E+05-2.48238E+06-4.31282E-09-1.99143E-08
 -1       524-6.87774E+06-1.54887E+06-7.23589E+04-3.38045E+06 3.30517E-08-4.40878E-08
 -1       525-7.60878E+06-7.75591E+05-2.94034E+04-2.44682E+06 3.20215E-08-1.97415E-08
 -1       526-6.89746E+06-1.42196E+06-4.04905E+03-3.23433E+06 1.40135E-08-6.06042E-09
 -1       527-7.53752E+06-9.20684E+05-2.68853E+04-2.61140E+06 2.11730E-08 4.86580E-09
 -1       528-7.12194E+06-1.09215E+06 2.05930E+04-2.79421E+06-1.17579E-08 2.03036E-08
 -1       529-7.34395E+06-1.13428E+06-3.24229E+04-2.85633E+06-7.45058E-09 1.13978E-08
 -1       530-7.56556E+06-7.07027E+05 3.00828E+03-2.38636E+06-2.78160E-08 2.76159E-08
 -1       531-7.11633E+06-1.28931E+06-3.49971E+04-3.03424E+06-2.63717E-08 7.10679E-09
 -1       532-7.90633E+06-5.16706E+05-7.10372E+04-2.20105E+06 2.47455E-08-3.47591E-08
 -1       533-7.04430E+06-1.29614E+06-1.24885E+05-3.07420E+06 1.54469E-08-5.43696E-08
 -1       534-7.89532E+06-8.08793E+05-3.52039E+05-2.23041E+06-1.59744E-08 3.74348E-08
 -1       535-7.11097E+06-1.01403E+06-5.54742E+05-2.98904E+06-9.47330E-09 3.09665E-08
 -1       536-1.08972E+05-1.73553E+04 3.99669E+04-6.99572E+02-8.10701E-10 7.60701E-09
 -1       537-9.01640E+04 2.00913E+04 2.85329E+04 1.18218E+02-1.00250E-08-1.26784E-09
 -1       538-1.02352E+05-2.73228E+03 1.02557E+04-2.89621E+02 3.17101E-10 2.29375E-09
 -1       539-9.79684E+04 3.15479E+03 6.68882E+03-7.55130E+02 3.02825E-09 5.18867E-09
 -1       540-1.01171E+05-4.33186E+02 2.53334E+03 1.73795E+02 3.27290E-10 9.91736E-09
 -1       541-9.95300E+04 4.89981E+02 1.63163E+03-1.61590E+03-4.55628E-10 1.51303E-09
 -1       542-1.00798E+05-6.44703E+01 5.45029E+02 5.71104E+02 5.02880E-10 1.46986E-09
 -1       543-1.00145E+05 4.34044E+01 2.75803E+02-2.27793E+03-6.28233E-10 7.72233E-09
 -1       544-1.00566E+05 2.02391E+01-1.24807E+02 8.35829E+02-6.99458E-10 5.43821E-10
 -1       545-1.00542E+05-1.96410E+02-5.41499E+02-2.63402E+03-2.08034E-09 9.39892E-10
 -1       546-1.00407E+05 1.80218E+02-1.05995E+03 9.27205E+02 3.12774E-10-1.52932E-09
 -1       547-1.01084E+05-1.31047E+03-2.68692E+03-2.62941E+03-3.13499E-09-4.46562E-09
 -1       548-1.00025E+05 1.13341E+03-4.33753E+03 8.31223E+02-3.44872E-09-5.44696E-09
 -1       549-1.04063E+05-8.35169E+03-1.17692E+04-2.25950E+03-1.70524E-09-7.95444E-09
 -1       550-9.74212E+04 7.21082E+03-1.68003E+04 5.57273E+02 9.94049E-11-5.82077E-11
 -1       551 8.71577E+03-3.98685E+05 2.08265E+04-6.75127E+05-3.10392E-08-3.49246E-10
 -1       552 1.92025E+04-4.01805E+05 2.77942E+04-9.61016E+05-2.38288E-08 5.37693E-09
 -1       553 1.30937E+04-4.06994E+05 4.31658E+04-6.72812E+05-3.67290E-08 2.03727E-10
 -1       554 4.15519E+04-3.90404E+05 9.17306E+04-9.62015E+05-2.34504E-08 6.99981E-09
 -1       555 3.97689E+04-4.24630E+05 1.64574E+05-6.73559E+05-3.78714E-08-1.88447E-09
 -1       556 6.12661E+04-1.29218E+05 4.37143E+04-1.69029E+05-5.54428E-09-3.63798E-11
 -1       557 1.13584E+05-1.72580E+05 2.29817E+04-2.11740E+05-5.82077E-10 3.99268E-10
 -1       558 6.10582E+04-1.35031E+05 9.26420E+03-1.64022E+05-3.20142E-09 7.10133E-09
 -1       559 1.06465E+05-1.78538E+05 4.71250E+03-2.14913E+05 6.50471E-09 9.95442E-09
 -1       560 5.94767E+04-1.33982E+05 1.93181E+03-1.65017E+05 1.67347E-09 4.89035E-09
 -1       561 1.04017E+05-1.77905E+05 1.03417E+03-2.16462E+05 1.25146E-09 2.44427E-09
 -1       562 5.82037E+04-1.33130E+05 3.85613E+02-1.65934E+05 1.12050E-09-2.11435E-09
 -1       563 1.02522E+05-1.77262E+05 2.49327E+02-2.17419E+05-6.98492E-10-9.50297E-09
 -1       564 5.74085E+04-1.32617E+05 8.72165E+01-1.66499E+05 3.25235E-09 3.87899E-10
 -1       565 1.01741E+05-1.76927E+05 5.91284E+01-2.17910E+05 3.14049E-09 1.02846E-08
 -1       566 5.71193E+04-1.32426E+05-1.53196E+01-1.66708E+05-5.15956E-09-5.94810E-09
 -1       567 1.01632E+05-1.76874E+05-9.90581E+01-2.17916E+05 4.07863E-09-7.55244E-09
 -1       568 5.73683E+04-1.32590E+05-3.00240E+02-1.66593E+05-2.38288E-10 7.14863E-10
 -1       569 1.01570E+05-1.76764E+05-7.02700E+02-2.16885E+05-1.58616E-09 1.27475E-08
 -1       570 5.86692E+04-1.33762E+05-1.51388E+03-1.66557E+05 1.16415E-09 1.20599E-09
 -1       571 1.77328E+05 6.45184E+03 9.55895E+03-4.50363E+04 4.38831E-10 6.43081E-09
 -1       572 1.78749E+05 2.24522E+03 4.68329E+03-4.93682E+04-6.76664E-10-5.53882E-09
 -1       573 1.77898E+05 5.36579E+02 2.08050E+03-4.49190E+04-2.77396E-10-7.10497E-09
 -1       574 1.78065E+05 1.76503E+02 1.04238E+03-4.94992E+04 7.07132E-11-1.65028E-09
 -1       575 1.77961E+05 2.64658E+01 4.91261E+02-4.49036E+04 9.17908E-10 4.25189E-10
 -1       576 1.77972E+05 9.71887E+00 2.50062E+02-4.95167E+04 4.35421E-11 4.94674E-09
 -1       577 1.77970E+05-8.13515E-01 1.23156E+02-4.49015E+04 1.92972E-09-5.36602E-10
 -1       578 1.77963E+05 1.21358E+00 6.71287E+01-4.95188E+04 1.13300E-09-6.07906E-09
 -1       579 1.77981E+05-2.83811E+00 4.09747E+01-4.49015E+04-3.46517E-10-6.63931E-09
 -1       580 1.77977E+05-4.52405E+00 3.81702E+01-4.95162E+04-1.36924E-09-6.48879E-09
 -1       581 1.78000E+05-9.87784E+00 5.15632E+01-4.49042E+04-1.29876E-09 3.13094E-09
 -1       582 1.78012E+05-2.91684E+00 9.82288E+01-4.94894E+04 2.89219E-10 3.85262E-09
 -1       583 1.78023E+05 2.00944E+01 1.88149E+02-4.49282E+04 8.88576E-10-3.06977E-09
 -1       584 1.78110E+05 1.66022E+02 4.21992E+02-4.92885E+04-3.87445E-10-9.38917E-09
 -1       585 1.78005E+05 5.37269E+02 8.56625E+02-4.51055E+04-3.36513E-10-3.11047E-10
 -1       586-2.12180E+03 5.83254E+04-2.81077E+03-1.53357E+05 4.56566E-10-7.68136E-09
 -1       587-4.41963E+02 5.79476E+04-2.92002E+02-1.68758E+05 7.13044E-10-4.11319E-09
 -1       588 6.16602E+02 5.80192E+04 2.05156E+03-1.53265E+05 3.53793E-10 3.09137E-09
 -1       589 3.03598E+03 5.91435E+04 5.94521E+03-1.68617E+05 4.98403E-10 4.32010E-09
 -1       590 8.70498E+03 5.73105E+04 1.27185E+04-1.53500E+05 2.02817E-10 6.53927E-10
 -1       591-3.89462E+04-1.10883E+04-1.28781E+04-2.01242E+04-5.35010E-09 9.78343E-09
 -1       592-4.01670E+04-1.42361E+04-6.97530E+03-2.34658E+04-3.63752E-09 2.34741E-09
 -1       593-4.02482E+04-1.01395E+04-2.90389E+03-2.10544E+04-5.27234E-09 1.70019E-09
 -1       594-3.83727E+04-1.23641E+04-1.44830E+03-2.35550E+04-7.42887E-10 5.12688E-09
 -1       595-4.03480E+04-1.01351E+04-6.65580E+02-2.10971E+04-1.01215E-09 1.59339E-08
 -1       596-3.82513E+04-1.22783E+04-3.39267E+02-2.35424E+04-2.00669E-09 3.58352E-09
 -1       597-4.03607E+04-1.01433E+04-1.86743E+02-2.10988E+04-9.79824E-10 3.08745E-09
 -1       598-3.82397E+04-1.22751E+04-1.53790E+02-2.35389E+04 3.67663E-10 2.04693E-09
 -1       599-4.03598E+04-1.01434E+04-2.01032E+02-2.10985E+04-2.89197E-09-1.98381E-08
 -1       600-3.82526E+04-1.22795E+04-3.77134E+02-2.35420E+04-3.68800E-10-6.03723E-09
 -1       601-4.03438E+04-1.01345E+04-7.45924E+02-2.10959E+04-6.13340E-10-4.11603E-09
 -1       602-3.83888E+04-1.23756E+04-1.62669E+03-2.35545E+04-1.28739E-09-8.08768E-09
 -1       603-4.02304E+04-1.01410E+04-3.26274E+03-2.10481E+04-4.06999E-10-1.64619E-10
 -1       604-4.04113E+04-1.44717E+04-7.83758E+03-2.34446E+04 8.96307E-10 8.62838E-09
 -1       605-3.87588E+04-1.12133E+04-1.44698E+04-2.00100E+04 5.87647E-10-2.99406E-09
 -1       606 2.51802E+04-8.54371E+03-1.53838E+04 2.45714E+04-3.77713E-09-4.24370E-09
 -1       607 2.25454E+04-2.75639E+03-7.66023E+03 2.75829E+04-3.04226E-09-2.82080E-09
 -1       608 2.40400E+04-4.65031E+02-3.43044E+03 2.43756E+04-5.53882E-09 1.88288E-09
 -1       609 2.37421E+04-1.20634E+02-1.73261E+03 2.77991E+04-1.58507E-08 6.07361E-09
 -1       610 2.39014E+04 2.24932E+01-8.27669E+02 2.43537E+04-1.16033E-08 6.93876E-09
 -1       611 2.38447E+04 3.42346E+01-4.17450E+02 2.78228E+04-9.79981E-09 6.29939E-09
 -1       612 2.38641E+04 3.64280E+01-1.99803E+02 2.43515E+04 5.36056E-09 7.56472E-10
 -1       613 2.38422E+04 4.20079E+01-9.10873E+01 2.78256E+04 1.25629E-08-1.72099E-09
 -1       614 2.38436E+04 3.73149E+01-2.55031E+01 2.43508E+04 6.82030E-09 1.01008E-08
 -1       615 2.38313E+04 4.70600E+01 2.82997E+01 2.78260E+04 5.49971E-09-1.36424E-12
 -1       616 2.38280E+04 4.25754E+01 9.39400E+01 2.43510E+04-2.82080E-09 3.16618E-09
 -1       617 2.38368E+04 7.07888E+01 2.17971E+02 2.78255E+04 1.11663E-09 7.77845E-10
 -1       618 2.38046E+04 1.08259E+02 4.40635E+02 2.43511E+04 1.28694E-09-1.64118E-09
 -1       619 2.39889E+04 4.13883E+02 9.90390E+02 2.78249E+04 7.06336E-10 2.84172E-09
 -1       620 2.36560E+04 1.15556E+03 1.99087E+03 2.43501E+04 2.15107E-09 3.86353E-09
 -1       621 3.04191E+02 1.92700E+05 2.64600E+03 6.64537E+03-2.63853E-10-2.29784E-09
 -1       622 3.48304E+02 1.93355E+05 2.25258E+03 9.70395E+03-1.68200E-10-3.43425E-09
 -1       623 1.41603E+01 1.92887E+05 2.59929E+03 6.61425E+03-1.26960E-10 1.86958E-09
 -1       624 1.17764E+03 1.94115E+05 4.94355E+03 9.73433E+03-2.37151E-10-1.94359E-09
 -1       625 1.18285E+03 1.91934E+05 8.59775E+03 6.61529E+03-9.77707E-11-1.03532E-09
 -1       626 1.59260E+05 4.40599E+04 3.17218E+03 8.60142E+04-1.01991E-08 7.82893E-09
 -1       627 1.57089E+05 4.56574E+04 1.52852E+03 8.94846E+04-1.54232E-08 8.50991E-09
 -1       628 1.59379E+05 4.25595E+04 6.45580E+02 8.64928E+04-7.16318E-09-5.62750E-10
 -1       629 1.56631E+05 4.52964E+04 3.16449E+02 8.96918E+04 1.89175E-10 1.66523E-09
 -1       630 1.59385E+05 4.24888E+04 1.46305E+02 8.65051E+04-2.00453E-09-2.89731E-09
 -1       631 1.56574E+05 4.52886E+04 7.87280E+01 8.96933E+04-3.53657E-09-8.99537E-09
 -1       632 1.59377E+05 4.24947E+04 5.19881E+01 8.64978E+04-1.80580E-09 2.78533E-11
 -1       633 1.56562E+05 4.52935E+04 5.81587E+01 8.96869E+04-1.68052E-09-6.83713E-10
 -1       634 1.59368E+05 4.24956E+04 9.41843E+01 8.64936E+04 5.19140E-09-9.48944E-10
 -1       635 1.56566E+05 4.52951E+04 1.91033E+02 8.96862E+04 7.80346E-10 4.22529E-09
 -1       636 1.59357E+05 4.24950E+04 3.85853E+02 8.64906E+04 9.13587E-10 8.11792E-09
 -1       637 1.56644E+05 4.53566E+04 8.48053E+02 8.96821E+04-1.33829E-09-5.40558E-09
 -1       638 1.59324E+05 4.26841E+04 1.74291E+03 8.64033E+04 1.28921E-09-6.63795E-09
 -1       639 1.57556E+05 4.66316E+04 4.12321E+03 8.94111E+04-3.47427E-10-1.24874E-09
 -1       640 1.59202E+05 4.64795E+04 8.55673E+03 8.47915E+04-3.70028E-09-1.12805E-08
 -1       656 4.31363E+04-1.09182E+06-1.04133E+05-3.66296E+02 7.78527E-10-5.78893E-09
 -1       657-5.70004E+04-1.13883E+06-8.61193E+04 7.03870E+03 4.54747E-10-5.01279E-09
 -1       658 1.36780E+04-1.10523E+06-5.28482E+04-1.36917E+03 1.33673E-09-7.84487E-09
 -1       659-6.11177E+04-1.14078E+06-9.15272E+04 7.70770E+03 9.50422E-10 5.83217E-10
 -1       660 4.72436E+04-1.08988E+06-1.13436E+05-1.03528E+03-3.63798E-11-1.51790E-09
 -1       661 1.54042E+05 1.67688E+04 1.47879E+04 6.02025E+04 1.97247E-09 4.33556E-09
 -1       662 1.61752E+05 2.83593E+04 9.96458E+03 5.76223E+04 3.99041E-09 1.53159E-09
 -1       663 1.56940E+05 2.15185E+04 3.48568E+03 5.93664E+04 1.17893E-10 5.93070E-09
 -1       664 1.58399E+05 2.27991E+04 2.08399E+03 5.86382E+04 7.74293E-10 5.88642E-10
 -1       665 1.57373E+05 2.21729E+04 8.22070E+02 5.92455E+04-2.74667E-09-3.08066E-09
 -1       666 1.57891E+05 2.20461E+04 4.79390E+02 5.87927E+04-8.89322E-09 2.71180E-09
 -1       667 1.57445E+05 2.22518E+04 2.52749E+02 5.92193E+04-1.04558E-09 1.52875E-09
 -1       668 1.57814E+05 2.19831E+04 2.53183E+02 5.88301E+04 1.75614E-09-1.08095E-08
 -1       669 1.57449E+05 2.22340E+04 3.39233E+02 5.92088E+04 1.21177E-09 8.43475E-09
 -1       670 1.57901E+05 2.21615E+04 7.35341E+02 5.88282E+04 3.69110E-09 4.90679E-09
 -1       671 1.57359E+05 2.20770E+04 1.30456E+03 5.92197E+04 7.11168E-10 3.44255E-09
 -1       672 1.58662E+05 2.34288E+04 3.33681E+03 5.86428E+04-1.51104E-09 1.10555E-09
 -1       673 1.56691E+05 2.09985E+04 5.59164E+03 5.93821E+04 2.15687E-09-6.23345E-09
 -1       674 1.63988E+05 3.24094E+04 1.59910E+04 5.70759E+04-3.03373E-10-4.62137E-09
 -1       675 1.52068E+05 1.33476E+04 2.37355E+04 6.06919E+04 8.56744E-10 1.08048E-09
 -1       676 1.75423E+01-2.09243E+05-8.14388E+02 3.65272E+01 3.31909E-10-7.60575E-09
 -1       677-2.16145E+02-2.09440E+05-1.49041E+03-7.30221E+01-5.24008E-09 3.18266E-09
 -1       678 1.44368E+02-2.09103E+05-2.63465E+03 3.64697E+01-1.54830E-09-2.55597E-09
 -1       679-2.63515E+03-2.11030E+05-6.25857E+03-7.27963E+01-4.08033E-09-6.30503E-09
 -1       680 1.57268E+03-2.07653E+05-1.00867E+04 3.58833E+01-1.40153E-09 2.23381E-09
 -1       771-2.24588E+06-3.98124E+05-5.57040E+04-9.36972E+05-9.34961E-09-8.41101E-09
 -1       772-2.23047E+06-4.28660E+05-2.98013E+04-9.71089E+05-6.47196E-09 4.77030E-09
 -1       773-2.25379E+06-3.91964E+05-1.30287E+04-9.40072E+05-4.58385E-09 4.34375E-09
 -1       774-2.22260E+06-4.22272E+05-6.29691E+03-9.75012E+05 8.11997E-09-3.63798E-10
 -1       775-2.25586E+06-3.90586E+05-3.30815E+03-9.40333E+05-3.84171E-09 9.93168E-10
 -1       776-2.22260E+06-4.22357E+05-1.49099E+03-9.77263E+05-3.83807E-09 1.92267E-09
 -1       777-2.25736E+06-3.89489E+05-1.00713E+03-9.40492E+05 1.94268E-09 1.29330E-09
 -1       778-2.22307E+06-4.22616E+05-4.19897E+02-9.79147E+05 4.30737E-09 3.27054E-09
 -1       779-2.25856E+06-3.88557E+05-4.52657E+02-9.40636E+05-5.09317E-10-2.73212E-09
 -1       780-2.22354E+06-4.22826E+05-3.01401E+02-9.80672E+05-4.92946E-10 2.72848E-11
 -1       781-2.25948E+06-3.87813E+05-5.47857E+02-9.40746E+05-6.84304E-09-1.02000E-09
 -1       782-2.22398E+06-4.23020E+05-9.25718E+02-9.81793E+05-9.91531E-09-2.70347E-09
 -1       783-2.26005E+06-3.87321E+05-1.85895E+03-9.40805E+05-3.11411E-09-4.12217E-09
 -1       784-2.22532E+06-4.24284E+05-4.37203E+03-9.82427E+05-5.53246E-09-1.19826E-10
 -1       785-2.25956E+06-3.87652E+05-8.09130E+03-9.40257E+05-7.45695E-09 6.38556E-09
 -1       786 1.63440E+05-8.75739E+03 2.02603E+04-9.17271E+00 9.47639E-07 1.38634E-08
 -1       787 1.72219E+05 1.01383E+04 1.43338E+04 1.53533E+00 1.88725E-06 9.18499E-09
 -1       788 1.66827E+05-1.37282E+03 5.24391E+03-4.67373E+00 1.99761E-06 2.22371E-10
 -1       789 1.68274E+05 1.58844E+03 3.29479E+03-7.12817E+00 2.10425E-06 7.39828E-09
 -1       790 1.67386E+05-2.14457E+02 1.34066E+03-5.09407E-01 2.34086E-06-1.86382E-08
 -1       791 1.67621E+05 2.49170E+02 7.87151E+02-1.64227E+01 2.58000E-06 4.42168E-09
 -1       792 1.67480E+05-3.45620E+01 3.59274E+02 4.62093E+00 3.16287E-06-2.26408E-08
 -1       793 1.67516E+05 4.85466E+01 2.35466E+02-2.90870E+01 3.74011E-06 5.23121E-09
 -1       794 1.67492E+05-1.39666E+01 1.74481E+02 1.21551E+01 1.87153E-06-9.90824E-09
 -1       795 1.67526E+05 7.20810E+01 2.52472E+02-4.86352E+01 6.28834E-09 6.38448E-09
 -1       796 1.67470E+05-5.80793E+01 3.78228E+02 2.41694E+01 1.25711E-10 5.62846E-09
 -1       797 1.67698E+05 4.25781E+02 8.91864E+02-8.04598E+01-5.10291E-10-2.90251E-09
 -1       798 1.67320E+05-3.67407E+02 1.40775E+03 4.39803E+01 5.42415E-11 2.15613E-09
 -1       799 1.68754E+05 2.71282E+03 3.83786E+03-1.33637E+02-6.67106E-10 1.31371E-09
 -1       800 1.66413E+05-2.34328E+03 5.42114E+03 7.73467E+01-5.00764E-11 4.51337E-10
 -1       801-4.87982E+03-1.76211E+05-5.50840E+03 1.88846E+04 1.01400E-08-6.04496E-09
 -1       802 1.76267E+04-7.59369E+04 3.84947E+04-7.27974E+04 2.70825E-08-4.78730E-09
 -1       803-1.18845E+04-1.33574E+05 5.39464E+04 2.12021E+04 2.13695E-08 1.50525E-08
 -1       804 1.12291E+05-2.14740E+04 1.62955E+05-7.30968E+04 2.51384E-08 2.19163E-08
 -1       805-9.96652E+04-2.30310E+05 2.02443E+05 1.91801E+04 8.94943E-09 2.10496E-08
 -1       806-1.93090E+05-4.12268E+04-1.63534E+04-8.02576E+04 4.16321E-10 3.34740E-09
 -1       807-1.94065E+05-3.88722E+04-8.03409E+03-8.45790E+04 1.12323E-09 2.51362E-10
 -1       808-1.93553E+05-3.53198E+04-3.40805E+03-8.30325E+04 3.06954E-11-3.64113E-09
 -1       809-1.92351E+05-3.66404E+04-1.66611E+03-8.48091E+04-2.13731E-11-5.64455E-10
 -1       810-1.93625E+05-3.51116E+04-7.62907E+02-8.31549E+04 8.18545E-12 5.34442E-10
 -1       811-1.92220E+05-3.65522E+04-3.78369E+02-8.47891E+04 5.33964E-09 2.14918E-08
 -1       812-1.93637E+05-3.51272E+04-1.88874E+02-8.31545E+04-3.23325E-09-4.88922E-09
 -1       813-1.92203E+05-3.65544E+04-1.19190E+02-8.47786E+04 3.57159E-09 7.64885E-09
 -1       814-1.93635E+05-3.51332E+04-1.11879E+02-8.31518E+04 3.41061E-10-2.32330E-09
 -1       815-1.92204E+05-3.65565E+04-1.75135E+02-8.47753E+04 3.30670E-09 1.16796E-08
 -1       816-1.93623E+05-3.51321E+04-3.28209E+02-8.31494E+04-1.44064E-09 2.26601E-09
 -1       817-1.92260E+05-3.65879E+04-7.03573E+02-8.47689E+04-1.70530E-09-1.00681E-08
 -1       818-1.93581E+05-3.52311E+04-1.43393E+03-8.31025E+04-1.27329E-11-1.26238E-09
 -1       819-1.93051E+05-3.74485E+04-3.37468E+03-8.45766E+04-8.96989E-10 2.41357E-09
 -1       820-1.93308E+05-3.77828E+04-6.86816E+03-8.20145E+04 3.36513E-11 8.86178E-09
 -1       821-2.49744E+05 1.38491E+04-3.20285E+04 8.65916E+01-2.97346E-10-4.11274E-09
 -1       822-2.63625E+05-1.60327E+04-2.26648E+04-6.07797E+02-2.65108E-09 2.85831E-09
 -1       823-2.55101E+05 2.17118E+03-8.29547E+03 5.52171E+01 1.24269E-09-4.02179E-09
 -1       824-2.57378E+05-2.51306E+03-5.21948E+03-4.63812E+02-1.07462E-10-2.77754E-09
 -1       825-2.55989E+05 3.39783E+02-2.14539E+03-5.73979E+01-3.36811E-09 4.63615E-10
 -1       826-2.56345E+05-4.00744E+02-1.29493E+03-2.01486E+02-4.52649E-09 8.79945E-09
 -1       827-2.56134E+05 6.02689E+01-6.70492E+02-2.07113E+02-3.94995E-09-4.68407E-09
 -1       828-2.56205E+05-1.22243E+02-5.92443E+02 7.84425E+01-4.90372E-09-2.58141E-09
 -1       829-2.56129E+05 6.15385E+01-6.80208E+02-3.37332E+02-2.98771E-10-2.19498E-09
 -1       830-2.56363E+05-4.10745E+02-1.32802E+03 2.70162E+02 1.50583E-09 2.92482E-09
 -1       831-2.55977E+05 3.48745E+02-2.19920E+03-3.98836E+02-2.61694E-09 4.13286E-09
 -1       832-2.57420E+05-2.57913E+03-5.35897E+03 3.01788E+02-1.42804E-09 5.51267E-10
 -1       833-2.55072E+05 2.22839E+03-8.51574E+03-3.68957E+02-6.11514E-10 2.48883E-09
 -1       834-2.63817E+05-1.64577E+04-2.32661E+04 1.63604E+02-8.78527E-10 2.03909E-09
 -1       835-2.49580E+05 1.42165E+04-3.28821E+04-2.60643E+02 5.08562E-09 4.24734E-09
 -1       836-8.31411E+02 2.36224E+05 1.42345E+04-2.06396E+04 1.71485E-09 2.49929E-09
 -1       837 3.13696E+03 2.40629E+05 1.21471E+04-4.14502E+04 2.39311E-09 1.67142E-09
 -1       838-3.03410E+02 2.37450E+05 1.25174E+04-2.05699E+04 2.09957E-09 4.18333E-09
 -1       839 8.03523E+03 2.44281E+05 2.38180E+04-4.14751E+04 2.61389E-09 1.57097E-09
 -1       840-2.41252E+03 2.32539E+05 3.80377E+04-2.06132E+04 1.74623E-09-1.24169E-09
 -1       856-7.72365E+04 6.65138E+03-1.75280E+04-3.93133E+02-3.72665E-09-1.02591E-09
 -1       857-8.44772E+04-7.80097E+03-1.20677E+04 3.99973E+03-2.40553E-09 1.46201E-09
 -1       858-8.00971E+04 9.31965E+02-4.54904E+03-4.10769E+02-3.38702E-09 7.20320E-10
 -1       859-8.11919E+04-1.08343E+03-2.74750E+03 4.02787E+03 2.54742E-09 8.51344E-10
 -1       860-8.05248E+04 1.29597E+02-1.15526E+03-4.21403E+02 1.52019E-09-2.52442E-09
 -1       861-8.06991E+04-1.43003E+02-6.43548E+02 4.04241E+03-6.56552E-09 2.94817E-09
 -1       862-8.05914E+04 1.71625E+01-2.83581E+02-4.25335E+02 6.19224E-09-9.81387E-10
 -1       863-8.06204E+04-1.03395E+01-1.39770E+02 4.04416E+03 9.28144E-09-1.76464E-09
 -1       864-8.06037E+04-1.55841E-01-4.29474E+01-4.23159E+02 6.95178E-09-5.15032E-09
 -1       865-8.05972E+04 2.05503E+01 2.88445E+01 4.03322E+03 7.47187E-09-5.96917E-09
 -1       866-8.06134E+04-1.41114E+01 1.00315E+02-4.14384E+02 1.47244E-09-2.58142E-09
 -1       867-8.05389E+04 1.18371E+02 2.73947E+02 4.00941E+03-1.98966E-10 2.28454E-10
 -1       868-8.06593E+04-9.73632E+01 4.61775E+02-3.99356E+02 9.48432E-10-9.56641E-09
 -1       869-8.01925E+04 8.07448E+02 1.23944E+03 3.96997E+03-3.91242E-09-1.39818E-08
 -1       870-8.09557E+04-6.86153E+02 1.79745E+03-3.74942E+02 2.66346E-09-6.61055E-09
 -1       871-3.66161E+03-7.65788E+03-1.18659E+04 7.77969E+04 2.09002E-09-5.18867E-09
 -1       872-1.59762E+03-1.03113E+04-4.83377E+03 1.00858E+05 4.27553E-09-5.32236E-09
 -1       873-4.39602E+01-9.07190E+03 6.99144E+02 7.76256E+04 1.90676E-09-1.08369E-08
 -1       874 1.81713E+03-7.33985E+03 6.75010E+03 1.00894E+05 4.59113E-09-3.58193E-09
 -1       875 4.32296E+03-1.06742E+04 1.49637E+04 7.77684E+04 2.12822E-09-3.86126E-09
 -1       876 1.94392E+05 3.35247E+04 1.04148E+04 7.89017E+04-4.18424E-09 3.32784E-09
 -1       877 1.94981E+05 3.58168E+04 5.56175E+03 8.19882E+04-2.97450E-09-8.64463E-09
 -1       878 1.95365E+05 3.23719E+04 2.33012E+03 7.97569E+04-1.15983E-09-1.10540E-08
 -1       879 1.93564E+05 3.44061E+04 1.16073E+03 8.20622E+04 2.04182E-09 3.42064E-09
 -1       880 1.95436E+05 3.23589E+04 5.40379E+02 7.97918E+04 3.40856E-09-4.79304E-10
 -1       881 1.93470E+05 3.43462E+04 2.87778E+02 8.20477E+04 5.17400E-09 4.23306E-10
 -1       882 1.95444E+05 3.23674E+04 1.82758E+02 7.97927E+04 6.68899E-09-9.15405E-09
 -1       883 1.93464E+05 3.43434E+04 1.94289E+02 8.20436E+04 2.71871E-09-5.57810E-09
 -1       884 1.95440E+05 3.23652E+04 3.07097E+02 7.97929E+04-2.04068E-10 2.68159E-09
 -1       885 1.93488E+05 3.43478E+04 6.16205E+02 8.20513E+04 2.19491E-09 2.96762E-09
 -1       886 1.95416E+05 3.23472E+04 1.24136E+03 7.97904E+04 3.82941E-09 3.86558E-09
 -1       887 1.93706E+05 3.44908E+04 2.71140E+03 8.20827E+04-4.22619E-09 1.72486E-09
 -1       888 1.95245E+05 3.23774E+04 5.46352E+03 7.97036E+04 5.75881E-10 7.52698E-09
 -1       889 1.96962E+05 3.78706E+04 1.30520E+04 8.19791E+04 1.25994E-09-1.14619E-09
 -1       890 1.93018E+05 3.50216E+04 2.44453E+04 7.76195E+04 3.09547E-09 1.04774E-09
 -1       891-1.23101E+02-1.10526E+05-1.30344E+03 2.10255E+04 7.49424E-10 6.17194E-09
 -1       892-2.13832E+02-1.10837E+05-1.41862E+03 3.18151E+04 1.14778E-09 1.28903E-08
 -1       893-3.63819E+01-1.10567E+05-2.02784E+03 2.10295E+04 1.43723E-09 1.39557E-08
 -1       894-1.11177E+03-1.11616E+05-4.21103E+03 3.17021E+04-1.97861E-09 8.63452E-09
 -1       895-8.68270E+02-1.09692E+05-7.42076E+03 2.11369E+04-5.74914E-10 7.82666E-09
 -1       956-2.44302E+05-3.52190E+03-8.87074E+03 1.61642E+04-4.41560E-09-8.72024E-09
 -1       957-2.46054E+05-1.18661E+03-4.55393E+03 1.94644E+04-2.86309E-09 2.26612E-09
 -1       958-2.45088E+05-9.29898E+01-2.05164E+03 1.60586E+04 1.90903E-09-4.39877E-09
 -1       959-2.45228E+05-1.44083E+01-1.04794E+03 1.95785E+04 8.10360E-10 7.55517E-09
 -1       960-2.45158E+05 3.10426E+01-5.10774E+02 1.60486E+04-4.03816E-10 1.24965E-09
 -1       961-2.45168E+05 2.95411E+01-2.70805E+02 1.95899E+04-5.05770E-09-4.14445E-09
 -1       962-2.45172E+05 2.73165E+01-1.54601E+02 1.60471E+04-3.37491E-09 1.14767E-09
 -1       963-2.45165E+05 3.05653E+01-1.23366E+02 1.95919E+04-6.00176E-09 1.04217E-09
 -1       964-2.45175E+05 2.90229E+01-1.48827E+02 1.60466E+04-1.80592E-09 4.12354E-09
 -1       965-2.45174E+05 3.33000E+01-2.56382E+02 1.95920E+04 2.31213E-09-3.14799E-10
 -1       966-2.45168E+05 3.60684E+01-4.80792E+02 1.60470E+04-1.75703E-09 4.16173E-09
 -1       967-2.45238E+05-4.35392E+00-9.85872E+02 1.95859E+04-3.47086E-10 5.67456E-09
 -1       968-2.45107E+05-7.71262E+01-1.92915E+03 1.60527E+04-7.35554E-10 1.21645E-10
 -1       969-2.46021E+05-1.10371E+03-4.28326E+03 1.95190E+04 4.46107E-10 3.41970E-09
 -1       970-2.44372E+05-3.30008E+03-8.34277E+03 1.61164E+04 1.19371E-09-2.22735E-09
 -1       971-2.32047E+05-1.22494E+03-6.82203E+03 1.13358E+04-3.56749E-09-1.42015E-09
 -1       972-2.33706E+05-8.77182E+02-3.71536E+03 1.58361E+04-2.43767E-09-7.17705E-10
 -1       973-2.32804E+05-6.26698E+00-1.66352E+03 1.12414E+04-3.49382E-09 1.74384E-09
 -1       974-2.32920E+05-5.95324E+00-8.61807E+02 1.59377E+04 4.22006E-10 3.45767E-09
 -1       975-2.32862E+05 2.51285E+01-4.29666E+02 1.12330E+04 1.75851E-09 2.89788E-09
 -1       976-2.32873E+05 2.92898E+01-2.46023E+02 1.59477E+04-1.39289E-09 4.85443E-10
 -1       977-2.32873E+05 2.45819E+01-1.75130E+02 1.12313E+04 3.41856E-09-2.25123E-09
 -1       978-2.32875E+05 3.29754E+01-2.00322E+02 1.59502E+04 1.32952E-08 5.70708E-10
 -1       979-2.32873E+05 2.98120E+01-3.17836E+02 1.12305E+04 3.28885E-09 3.86103E-09
 -1       980-2.32898E+05 3.48564E+01-6.11184E+02 1.59506E+04 4.81825E-09-1.56774E-09
 -1       981-2.32853E+05 4.50445E+01-1.18237E+03 1.12309E+04 1.77067E-09 1.73259E-09
 -1       982-2.33060E+05-5.22845E+01-2.44316E+03 1.59459E+04 3.54362E-10-8.09693E-09
 -1       983-2.32705E+05-3.03223E+01-4.74661E+03 1.12354E+04 1.58275E-09 1.11118E-09
 -1       984-2.35344E+05-2.53066E+03-1.06292E+04 1.58820E+04-3.21074E-09 6.65761E-09
 -1       985-2.30557E+05-3.50329E+03-1.95187E+04 1.12994E+04 4.20278E-09 4.66844E-09
 -3
    1PSTEP                         9           5           1          
  100CL  105 5.03906E-01         409                     0    5           1
 -4  DISP        4    1
 -5  D1          1    2    1    0
 -5  D2          1    2    2    0
 -5  D3          1    2    3    0
 -5  ALL         1    2    0    0    1ALL
 -1         1 1.53102E-04 0.00000E+00 0.00000E+00
 -1         2 1.38039E-04-2.13485E-30-4.13590E-25
 -1         3 1.37158E-04 3.66701E-28 0.00000E+00
 -1         5 9.23271E-05 8.80084E-28-3.30872E-24
 -1         8 1.28118E-04-8.82654E-07 0.00000E+00
 -1         9 1.25564E-04-6.66368E-08 0.00000E+00
 -1        10 1.25945E-04-1.90832E-06 0.00000E+00
 -1        12 9.19326E-05 5.53008E-07 0.00000E+00
 -1        15 9.83356E-05-9.77777E-07-4.13590E-25
 -1        16 1.02133E-04-2.44128E-07 0.00000E+00
 -1        17 9.18829E-05-3.97053E-06 0.00000E+00
 -1        18 8.96711E-05 2.54519E-06 0.00000E+00
 -1        19 9.07494E-05 1.10304E-06 0.00000E+00
 -1        20 9.08888E-05 1.41216E-05 0.00000E+00
 -1        21 9.03430E-05 2.62220E-05 0.00000E+00
 -1        24 2.04734E-05-5.45199E-06 0.00000E+00
 -1        25 8.87669E-05 2.67502E-06 0.00000E+00
 -1        26 8.97130E-05 1.53400E-06 0.00000E+00
 -1        27 8.81811E-05 1.16563E-05 0.00000E+00
 -1        28 8.77150E-05 2.57527E-05 0.00000E+00
 -1        32 0.00000E+00 0.00000E+00 0.00000E+00
 -1        33 8.74246E-05 2.05483E-06 0.00000E+00
 -1        34 8.59427E-05 1.16335E-05 0.00000E+00
 -1        35 8.45392E-05 2.55041E-05 0.00000E+00
 -1        51 1.51480E-04-1.45887E-07 0.00000E+00
 -1        52 1.48470E-04-2.86881E-07 0.00000E+00
 -1        53 1.44346E-04-4.29257E-07 0.00000E+00
 -1        54 1.39390E-04-5.74583E-07-3.30872E-24
 -1        55 1.33885E-04-7.23664E-07-3.72231E-24
 -1        56 1.51739E-04-8.02423E-07 0.00000E+00
 -1        57 1.50499E-04-2.08808E-06 0.00000E+00
 -1        58 1.49388E-04-3.71220E-06 0.00000E+00
 -1        59 1.48344E-04-5.54234E-06 2.64698E-23
 -1        60 1.47319E-04-7.42390E-06 0.00000E+00
 -1        61 1.46254E-04-9.20414E-06 2.64698E-23
 -1        62 1.45097E-04-1.07369E-05-5.29396E-23
 -1        63 1.43796E-04-1.18854E-05-2.64698E-23
 -1        64 1.42309E-04-1.25401E-05-5.29396E-23
 -1        65 1.40603E-04-1.26092E-05-2.64698E-23
 -1        66 1.38659E-04-1.20429E-05 0.00000E+00
 -1        67 1.36466E-04-1.08134E-05 2.64698E-23
 -1        68 1.34031E-04-8.94144E-06 0.00000E+00
 -1        69 1.31377E-04-6.46712E-06 2.64698E-23
 -1        70 1.28526E-04-3.48006E-06-2.64698E-23
 -1        86 1.37691E-04-3.62426E-09 0.00000E+00
 -1        87 1.36649E-04-8.24756E-09-4.13590E-25
 -1        88 1.34914E-04-1.38739E-08 0.00000E+00
 -1        89 1.32486E-04-2.42510E-08-1.65436E-24
 -1        90 1.29369E-04-3.53263E-08 0.00000E+00
 -1       121 1.36845E-04-3.15828E-07 0.00000E+00
 -1       122 1.35905E-04-6.32035E-07-6.61744E-24
 -1       123 1.34341E-04-9.48998E-07 0.00000E+00
 -1       124 1.32156E-04-1.26711E-06-3.30872E-24
 -1       125 1.29355E-04-1.58668E-06 1.32349E-23
 -1       191 9.23161E-05 9.21740E-08 3.30872E-24
 -1       192 9.22832E-05 1.84346E-07 4.96308E-24
 -1       193 9.22285E-05 2.76518E-07-3.30872E-24
 -1       194 9.21518E-05 3.68687E-07 0.00000E+00
 -1       195 9.20532E-05 4.60851E-07 3.30872E-24
 -1       251 1.27945E-04 3.39898E-06 0.00000E+00
 -1       252 1.27784E-04 6.31856E-06 3.30872E-24
 -1       253 1.27626E-04 7.94513E-06 0.00000E+00
 -1       254 1.27470E-04 8.35586E-06-3.30872E-24
 -1       255 1.27315E-04 7.72393E-06 0.00000E+00
 -1       256 1.27158E-04 6.22916E-06-3.30872E-24
 -1       257 1.27001E-04 4.11941E-06-6.61744E-24
 -1       258 1.26843E-04 1.64648E-06-3.30872E-24
 -1       259 1.26685E-04-9.09265E-07-6.61744E-24
 -1       260 1.26527E-04-3.26687E-06 0.00000E+00
 -1       261 1.26370E-04-5.16100E-06 6.61744E-24
 -1       262 1.26213E-04-6.32932E-06 0.00000E+00
 -1       263 1.26057E-04-6.56674E-06 0.00000E+00
 -1       264 1.25899E-04-5.67404E-06 0.00000E+00
 -1       265 1.25739E-04-3.54136E-06 0.00000E+00
 -1       266 1.23154E-04-9.10578E-07 0.00000E+00
 -1       267 1.18190E-04-9.24961E-07 1.65436E-24
 -1       268 1.13227E-04-9.40201E-07 0.00000E+00
 -1       269 1.08263E-04-9.52900E-07 0.00000E+00
 -1       270 1.03299E-04-9.65541E-07 4.13590E-25
 -1       271 1.25120E-04 2.93476E-06-2.64698E-23
 -1       272 1.22524E-04 5.55570E-06 0.00000E+00
 -1       273 1.20337E-04 7.09965E-06 0.00000E+00
 -1       274 1.18503E-04 7.68502E-06 2.64698E-23
 -1       275 1.16976E-04 7.45374E-06 5.29396E-23
 -1       276 1.15695E-04 6.55970E-06-2.64698E-23
 -1       277 1.14600E-04 5.16996E-06 0.00000E+00
 -1       278 1.13625E-04 3.46009E-06 0.00000E+00
 -1       279 1.12701E-04 1.61177E-06-5.29396E-23
 -1       280 1.11760E-04-1.90818E-07 0.00000E+00
 -1       281 1.10733E-04-1.76447E-06 0.00000E+00
 -1       282 1.09555E-04-2.92994E-06 0.00000E+00
 -1       283 1.08161E-04-3.51594E-06 0.00000E+00
 -1       284 1.06493E-04-3.35988E-06-1.32349E-23
 -1       285 1.04490E-04-2.31676E-06 0.00000E+00
 -1       301 1.21346E-04-1.06999E-07 0.00000E+00
 -1       302 1.17171E-04-1.28646E-07 0.00000E+00
 -1       303 1.13101E-04-1.49117E-07 0.00000E+00
 -1       304 1.09197E-04-1.70197E-07 3.30872E-24
 -1       305 1.05521E-04-1.92730E-07-1.32349E-23
 -1       306 1.22577E-04 2.23540E-06-2.64698E-23
 -1       307 1.20405E-04 2.18701E-06 2.64698E-23
 -1       308 1.19064E-04-6.43575E-08 0.00000E+00
 -1       309 1.18439E-04-4.27388E-06-2.64698E-23
 -1       310 1.18316E-04-9.83954E-06 0.00000E+00
 -1       311 1.18443E-04-1.60856E-05-2.64698E-23
 -1       312 1.18526E-04-2.22134E-05 0.00000E+00
 -1       313 1.18272E-04-2.74321E-05 2.64698E-23
 -1       314 1.17448E-04-3.11128E-05 5.29396E-23
 -1       315 1.15849E-04-3.27149E-05 0.00000E+00
 -1       316 1.13406E-04-3.20699E-05 5.29396E-23
 -1       317 1.10102E-04-2.91366E-05 0.00000E+00
 -1       318 1.06069E-04-2.42822E-05-5.29396E-23
 -1       319 1.01495E-04-1.79769E-05 0.00000E+00
 -1       320 9.66431E-05-1.09586E-05 0.00000E+00
 -1       336 1.21896E-04-2.24471E-06 1.32349E-23
 -1       337 1.17178E-04-2.58408E-06-3.30872E-24
 -1       338 1.11803E-04-2.92654E-06 6.61744E-24
 -1       339 1.05785E-04-3.27195E-06-3.30872E-24
 -1       340 9.91391E-05-3.62122E-06 6.61744E-24
 -1       406 9.17902E-05 6.45150E-07 0.00000E+00
 -1       407 9.16258E-05 7.37260E-07-1.65436E-24
 -1       408 9.14395E-05 8.29310E-07 0.00000E+00
 -1       409 9.12312E-05 9.21187E-07-1.65436E-24
 -1       410 9.10011E-05 1.01271E-06-3.30872E-24
 -1       521 1.03676E-04-1.35067E-05 5.29396E-23
 -1       522 1.15398E-04-5.64849E-05 0.00000E+00
 -1       523 1.34364E-04-1.22050E-04 0.00000E+00
 -1       524 1.57354E-04-2.01090E-04 5.29396E-23
 -1       525 1.80747E-04-2.81496E-04 1.05879E-22
 -1       526 2.00906E-04-3.51034E-04 0.00000E+00
 -1       527 2.14542E-04-3.99903E-04 0.00000E+00
 -1       528 2.18466E-04-4.20138E-04-5.29396E-23
 -1       529 2.11115E-04-4.09982E-04 0.00000E+00
 -1       530 1.91800E-04-3.70211E-04 5.29396E-23
 -1       531 1.62679E-04-3.07733E-04 0.00000E+00
 -1       532 1.27136E-04-2.31145E-04-5.29396E-23
 -1       533 9.03492E-05-1.51869E-04-1.05879E-22
 -1       534 5.76941E-05-8.14978E-05 5.29396E-23
 -1       535 3.33418E-05-2.98838E-05 0.00000E+00
 -1       536 9.17319E-05 4.53363E-06-6.61744E-24
 -1       537 9.15688E-05 1.49175E-05 1.65436E-24
 -1       538 9.13986E-05 2.59792E-05 3.30872E-24
 -1       539 9.12348E-05 3.65138E-05 0.00000E+00
 -1       540 9.10857E-05 4.54348E-05 0.00000E+00
 -1       541 9.09565E-05 5.16630E-05 1.65436E-24
 -1       542 9.08411E-05 5.47260E-05 0.00000E+00
 -1       543 9.07302E-05 5.41666E-05-1.65436E-24
 -1       544 9.06126E-05 5.03420E-05-3.30872E-24
 -1       545 9.04804E-05 4.36250E-05 0.00000E+00
 -1       546 9.03348E-05 3.50398E-05 0.00000E+00
 -1       547 9.01823E-05 2.56197E-05 0.00000E+00
 -1       548 9.00331E-05 1.65860E-05-3.30872E-24
 -1       549 8.98978E-05 9.15865E-06 0.00000E+00
 -1       550 8.97763E-05 4.19633E-06-8.27181E-25
 -1       551 8.24548E-05-4.18890E-06-6.61744E-24
 -1       552 7.12179E-05-4.42103E-06-3.30872E-24
 -1       553 5.87824E-05-4.66603E-06-3.30872E-24
 -1       554 4.57676E-05-4.92013E-06-6.61744E-24
 -1       555 3.27928E-05-5.17649E-06 0.00000E+00
 -1       556 8.93593E-05 2.56439E-06 0.00000E+00
 -1       557 8.74082E-05 7.62703E-06 0.00000E+00
 -1       558 8.59680E-05 1.13489E-05 0.00000E+00
 -1       559 8.49828E-05 1.38722E-05 0.00000E+00
 -1       560 8.43970E-05 1.53388E-05 0.00000E+00
 -1       561 8.41553E-05 1.58916E-05 0.00000E+00
 -1       562 8.42032E-05 1.56735E-05 0.00000E+00
 -1       563 8.44864E-05 1.48278E-05 0.00000E+00
 -1       564 8.49508E-05 1.34978E-05 0.00000E+00
 -1       565 8.55426E-05 1.18269E-05 0.00000E+00
 -1       566 8.62081E-05 9.95860E-06 0.00000E+00
 -1       567 8.68938E-05 8.03642E-06 0.00000E+00
 -1       568 8.75460E-05 6.20390E-06 0.00000E+00
 -1       569 8.81112E-05 4.60440E-06 0.00000E+00
 -1       570 8.85357E-05 3.38133E-06 0.00000E+00
 -1       571 8.97366E-05 2.48713E-06-8.27181E-25
 -1       572 8.98034E-05 2.38491E-06-4.13590E-25
 -1       573 8.98707E-05 2.24670E-06 0.00000E+00
 -1       574 8.99382E-05 2.08107E-06 0.00000E+00
 -1       575 9.00058E-05 1.89662E-06 0.00000E+00
 -1       576 9.00734E-05 1.70200E-06 8.27181E-25
 -1       577 9.01410E-05 1.50590E-06 0.00000E+00
 -1       578 9.02087E-05 1.31699E-06 0.00000E+00
 -1       579 9.02763E-05 1.14394E-06 3.30872E-24
 -1       580 9.03439E-05 9.95417E-07 0.00000E+00
 -1       581 9.04116E-05 8.80109E-07 0.00000E+00
 -1       582 9.04792E-05 8.06673E-07-3.30872E-24
 -1       583 9.05468E-05 7.83769E-07 0.00000E+00
 -1       584 9.06144E-05 8.19964E-07-3.30872E-24
 -1       585 9.06820E-05 9.23773E-07 0.00000E+00
 -1       586 8.94902E-05 2.56816E-06 8.27181E-25
 -1       587 8.92822E-05 2.59059E-06-2.06795E-25
 -1       588 8.90763E-05 2.61279E-06 0.00000E+00
 -1       589 8.89023E-05 2.63462E-06 0.00000E+00
 -1       590 8.87896E-05 2.65584E-06 0.00000E+00
 -1       591 8.96605E-05 2.52435E-06-1.55096E-25
 -1       592 8.96601E-05 2.46945E-06 0.00000E+00
 -1       593 8.96697E-05 2.38713E-06 4.13590E-25
 -1       594 8.96871E-05 2.28330E-06-4.13590E-25
 -1       595 8.97102E-05 2.16398E-06 0.00000E+00
 -1       596 8.97368E-05 2.03514E-06-2.06795E-25
 -1       597 8.97648E-05 1.90272E-06 4.13590E-25
 -1       598 8.97919E-05 1.77270E-06 2.06795E-25
 -1       599 8.98158E-05 1.65101E-06 0.00000E+00
 -1       600 8.98344E-05 1.54362E-06-2.06795E-25
 -1       601 8.98454E-05 1.45648E-06 0.00000E+00
 -1       602 8.98466E-05 1.39554E-06-1.03398E-25
 -1       603 8.98359E-05 1.36678E-06 1.03398E-25
 -1       604 8.98112E-05 1.37620E-06-1.03398E-25
 -1       605 8.97701E-05 1.42972E-06 0.00000E+00
 -1       606 9.07616E-05 1.43589E-06 0.00000E+00
 -1       607 9.07713E-05 1.86108E-06 0.00000E+00
 -1       608 9.07804E-05 2.37319E-06 0.00000E+00
 -1       609 9.07892E-05 2.96611E-06 1.65436E-24
 -1       610 9.07979E-05 3.63370E-06 0.00000E+00
 -1       611 9.08064E-05 4.36973E-06 0.00000E+00
 -1       612 9.08149E-05 5.16796E-06 0.00000E+00
 -1       613 9.08233E-05 6.02216E-06 0.00000E+00
 -1       614 9.08317E-05 6.92608E-06 0.00000E+00
 -1       615 9.08400E-05 7.87348E-06 0.00000E+00
 -1       616 9.08483E-05 8.85813E-06 0.00000E+00
 -1       617 9.08566E-05 9.87378E-06 0.00000E+00
 -1       618 9.08648E-05 1.09142E-05 0.00000E+00
 -1       619 9.08730E-05 1.19731E-05 0.00000E+00
 -1       620 9.08811E-05 1.30443E-05-4.13590E-25
 -1       621 9.05147E-05 1.17494E-06 0.00000E+00
 -1       622 9.03144E-05 1.24717E-06 0.00000E+00
 -1       623 9.01414E-05 1.31938E-06 1.65436E-24
 -1       624 8.99883E-05 1.39148E-06 0.00000E+00
 -1       625 8.98479E-05 1.46345E-06 1.65436E-24
 -1       626 9.07023E-05 1.45906E-06 0.00000E+00
 -1       627 9.06273E-05 1.89104E-06 0.00000E+00
 -1       628 9.05266E-05 2.39177E-06 0.00000E+00
 -1       629 9.04031E-05 2.95360E-06 0.00000E+00
 -1       630 9.02595E-05 3.56887E-06 0.00000E+00
 -1       631 9.00988E-05 4.22985E-06 0.00000E+00
 -1       632 8.99237E-05 4.92882E-06 0.00000E+00
 -1       633 8.97373E-05 5.65808E-06 0.00000E+00
 -1       634 8.95425E-05 6.40991E-06 0.00000E+00
 -1       635 8.93420E-05 7.17658E-06-1.65436E-24
 -1       636 8.91389E-05 7.95040E-06-1.65436E-24
 -1       637 8.89359E-05 8.72363E-06 8.27181E-25
 -1       638 8.87360E-05 9.48856E-06 0.00000E+00
 -1       639 8.85419E-05 1.02375E-05-8.27181E-25
 -1       640 8.83564E-05 1.09627E-05 0.00000E+00
 -1       656 9.00140E-05 1.37204E-05 6.61744E-24
 -1       657 8.94918E-05 1.33033E-05 3.30872E-24
 -1       658 8.91902E-05 1.28874E-05-1.32349E-23
 -1       659 8.89731E-05 1.24719E-05 0.00000E+00
 -1       660 8.86875E-05 1.20551E-05 0.00000E+00
 -1       661 9.05658E-05 1.51730E-05 0.00000E+00
 -1       662 9.02658E-05 1.61712E-05 8.27181E-25
 -1       663 8.99851E-05 1.71176E-05 0.00000E+00
 -1       664 8.97233E-05 1.80152E-05 8.27181E-25
 -1       665 8.94790E-05 1.88662E-05 0.00000E+00
 -1       666 8.92514E-05 1.96730E-05 0.00000E+00
 -1       667 8.90397E-05 2.04378E-05 0.00000E+00
 -1       668 8.88429E-05 2.11627E-05 0.00000E+00
 -1       669 8.86603E-05 2.18498E-05-1.65436E-24
 -1       670 8.84912E-05 2.25011E-05 0.00000E+00
 -1       671 8.83348E-05 2.31183E-05 0.00000E+00
 -1       672 8.81904E-05 2.37034E-05 0.00000E+00
 -1       673 8.80574E-05 2.42579E-05 1.65436E-24
 -1       674 8.79345E-05 2.47834E-05 0.00000E+00
 -1       675 8.78220E-05 2.52817E-05 0.00000E+00
 -1       676 8.99038E-05 2.61433E-05 0.00000E+00
 -1       677 8.94649E-05 2.60647E-05-8.27181E-25
 -1       678 8.90263E-05 2.59860E-05 0.00000E+00
 -1       679 8.85883E-05 2.59077E-05-8.27181E-25
 -1       680 8.81511E-05 2.58293E-05 1.65436E-24
 -1       771 1.56791E-05 4.17692E-06 0.00000E+00
 -1       772 1.15423E-05 1.20689E-05 0.00000E+00
 -1       773 8.03453E-06 1.83176E-05-5.29396E-23
 -1       774 5.11412E-06 2.30240E-05 2.64698E-23
 -1       775 2.73996E-06 2.62918E-05-5.29396E-23
 -1       776 8.69149E-07 2.82291E-05 0.00000E+00
 -1       777-5.41690E-07 2.89463E-05-5.29396E-23
 -1       778-1.53692E-06 2.85574E-05 0.00000E+00
 -1       779-2.16120E-06 2.71784E-05 2.64698E-23
 -1       780-2.46001E-06 2.49282E-05 0.00000E+00
 -1       781-2.47898E-06 2.19272E-05 0.00000E+00
 -1       782-2.26436E-06 1.82984E-05 1.32349E-23
 -1       783-1.86247E-06 1.41655E-05-2.64698E-23
 -1       784-1.32004E-06 9.65390E-06 1.32349E-23
 -1       785-6.83852E-07 4.88970E-06 0.00000E+00
 -1       786 8.88225E-05 2.50256E-06-4.13590E-25
 -1       787 8.88814E-05 2.34470E-06-4.13590E-25
 -1       788 8.89402E-05 2.19920E-06 1.65436E-24
 -1       789 8.89995E-05 2.06386E-06 0.00000E+00
 -1       790 8.90590E-05 1.93786E-06 1.65436E-24
 -1       791 8.91185E-05 1.82041E-06 8.27181E-25
 -1       792 8.91780E-05 1.71190E-06 0.00000E+00
 -1       793 8.92376E-05 1.61273E-06 0.00000E+00
 -1       794 8.92972E-05 1.52460E-06 0.00000E+00
 -1       795 8.93568E-05 1.44923E-06 8.27181E-25
 -1       796 8.94164E-05 1.39010E-06 1.65436E-24
 -1       797 8.94759E-05 1.35072E-06-8.27181E-25
 -1       798 8.95355E-05 1.33733E-06 0.00000E+00
 -1       799 8.95949E-05 1.35624E-06 8.27181E-25
 -1       800 8.96543E-05 1.41818E-06-1.65436E-24
 -1       801 8.27567E-05 2.36392E-06 0.00000E+00
 -1       802 6.44488E-05 1.89757E-06-3.30872E-24
 -1       803 4.05299E-05 1.32448E-06 0.00000E+00
 -1       804 1.77644E-05 7.69922E-07 0.00000E+00
 -1       805 2.25186E-06 3.42682E-07-2.64698E-23
 -1       806 8.87539E-05 2.45723E-06-1.65436E-24
 -1       807 8.87354E-05 2.24548E-06-8.27181E-25
 -1       808 8.87124E-05 2.04426E-06 0.00000E+00
 -1       809 8.86837E-05 1.85731E-06 8.27181E-25
 -1       810 8.86482E-05 1.68833E-06-1.65436E-24
 -1       811 8.86045E-05 1.54097E-06 1.65436E-24
 -1       812 8.85513E-05 1.41887E-06 1.65436E-24
 -1       813 8.84873E-05 1.32566E-06-8.27181E-25
 -1       814 8.84111E-05 1.26498E-06 0.00000E+00
 -1       815 8.83213E-05 1.24045E-06-1.65436E-24
 -1       816 8.82167E-05 1.25569E-06 1.65436E-24
 -1       817 8.80957E-05 1.31432E-06-8.27181E-25
 -1       818 8.79572E-05 1.41995E-06 3.30872E-24
 -1       819 8.77999E-05 1.57620E-06-8.27181E-25
 -1       820 8.76224E-05 1.78665E-06 0.00000E+00
 -1       821 8.96228E-05 1.65792E-06-8.27181E-25
 -1       822 8.95271E-05 1.74507E-06 8.27181E-25
 -1       823 8.94317E-05 1.84805E-06 0.00000E+00
 -1       824 8.93353E-05 2.01938E-06-1.65436E-24
 -1       825 8.92389E-05 2.29797E-06 0.00000E+00
 -1       826 8.91421E-05 2.72222E-06 0.00000E+00
 -1       827 8.90453E-05 3.30153E-06-3.30872E-24
 -1       828 8.89484E-05 4.04464E-06-1.65436E-24
 -1       829 8.88513E-05 4.92763E-06-3.30872E-24
 -1       830 8.87542E-05 5.92598E-06 1.65436E-24
 -1       831 8.86570E-05 6.99219E-06 0.00000E+00
 -1       832 8.85600E-05 8.07845E-06-1.65436E-24
 -1       833 8.84631E-05 9.13297E-06 3.30872E-24
 -1       834 8.83673E-05 1.01041E-05-8.27181E-25
 -1       835 8.82713E-05 1.09567E-05 0.00000E+00
 -1       836 8.94791E-05 1.62070E-06 0.00000E+00
 -1       837 8.91336E-05 1.70934E-06-8.27181E-25
 -1       838 8.87158E-05 1.79780E-06 0.00000E+00
 -1       839 8.82653E-05 1.88570E-06-8.27181E-25
 -1       840 8.78218E-05 1.97346E-06 4.13590E-25
 -1       856 8.81554E-05 1.23349E-05 0.00000E+00
 -1       857 8.81266E-05 1.31178E-05 2.06795E-25
 -1       858 8.80980E-05 1.39885E-05-8.27181E-25
 -1       859 8.80687E-05 1.49307E-05 0.00000E+00
 -1       860 8.80393E-05 1.59277E-05 0.00000E+00
 -1       861 8.80098E-05 1.69629E-05 0.00000E+00
 -1       862 8.79803E-05 1.80196E-05 0.00000E+00
 -1       863 8.79507E-05 1.90812E-05-4.13590E-25
 -1       864 8.79212E-05 2.01309E-05 0.00000E+00
 -1       865 8.78916E-05 2.11522E-05 0.00000E+00
 -1       866 8.78621E-05 2.21282E-05-8.27181E-25
 -1       867 8.78326E-05 2.30425E-05-4.13590E-25
 -1       868 8.78032E-05 2.38785E-05 0.00000E+00
 -1       869 8.77739E-05 2.46197E-05 4.13590E-25
 -1       870 8.77446E-05 2.52499E-05 8.27181E-25
 -1       871 8.77012E-05 1.16553E-05 0.00000E+00
 -1       872 8.73229E-05 1.16523E-05 0.00000E+00
 -1       873 8.70024E-05 1.16489E-05-4.13590E-25
 -1       874 8.66951E-05 1.16449E-05-5.16988E-26
 -1       875 8.63565E-05 1.16405E-05 6.20385E-25
 -1       876 8.80185E-05 1.23438E-05 0.00000E+00
 -1       877 8.78389E-05 1.30822E-05 0.00000E+00
 -1       878 8.76428E-05 1.38651E-05-3.30872E-24
 -1       879 8.74322E-05 1.46870E-05 0.00000E+00
 -1       880 8.72093E-05 1.55420E-05-3.30872E-24
 -1       881 8.69761E-05 1.64245E-05-1.65436E-24
 -1       882 8.67347E-05 1.73287E-05 0.00000E+00
 -1       883 8.64872E-05 1.82490E-05 0.00000E+00
 -1       884 8.62359E-05 1.91797E-05 0.00000E+00
 -1       885 8.59828E-05 2.01150E-05-1.65436E-24
 -1       886 8.57300E-05 2.10494E-05-3.30872E-24
 -1       887 8.54797E-05 2.19769E-05 8.27181E-25
 -1       888 8.52339E-05 2.28921E-05 0.00000E+00
 -1       889 8.49945E-05 2.37890E-05 0.00000E+00
 -1       890 8.47635E-05 2.46621E-05 0.00000E+00
 -1       891 8.72989E-05 2.57111E-05 1.65436E-24
 -1       892 8.68650E-05 2.56694E-05 8.27181E-25
 -1       893 8.63925E-05 2.56277E-05 8.27181E-25
 -1       894 8.58611E-05 2.55860E-05 2.06795E-25
 -1       895 8.52500E-05 2.55445E-05 6.20385E-25
 -1       956 8.73337E-05 2.44102E-06 0.00000E+00
 -1       957 8.72413E-05 2.88622E-06 0.00000E+00
 -1       958 8.71487E-05 3.38421E-06-3.30872E-24
 -1       959 8.70558E-05 3.92835E-06-8.27181E-25
 -1       960 8.69629E-05 4.51202E-06-1.65436E-24
 -1       961 8.68699E-05 5.12856E-06 0.00000E+00
 -1       962 8.67769E-05 5.77129E-06 0.00000E+00
 -1       963 8.66839E-05 6.43355E-06 0.00000E+00
 -1       964 8.65909E-05 7.10865E-06-3.30872E-24
 -1       965 8.64979E-05 7.78990E-06 0.00000E+00
 -1       966 8.64049E-05 8.47065E-06 0.00000E+00
 -1       967 8.63119E-05 9.14421E-06 0.00000E+00
 -1       968 8.62190E-05 9.80389E-06 0.00000E+00
 -1       969 8.61263E-05 1.04431E-05 1.65436E-24
 -1       970 8.60338E-05 1.10551E-05 0.00000E+00
 -1       971 8.58561E-05 1.22300E-05-1.65436E-24
 -1       972 8.57683E-05 1.29037E-05-1.65436E-24
 -1       973 8.56804E-05 1.36460E-05-1.65436E-24
 -1       974 8.55923E-05 1.44482E-05 0.00000E+00
 -1       975 8.55041E-05 1.53013E-05-1.65436E-24
 -1       976 8.54158E-05 1.61965E-05 0.00000E+00
 -1       977 8.53276E-05 1.71248E-05-3.30872E-24
 -1       978 8.52393E-05 1.80774E-05-1.65436E-24
 -1       979 8.51510E-05 1.90454E-05 3.30872E-24
 -1       980 8.50627E-05 2.00198E-05 1.65436E-24
 -1       981 8.49744E-05 2.09918E-05 0.00000E+00
 -1       982 8.48862E-05 2.19525E-05 0.00000E+00
 -1       983 8.47981E-05 2.28929E-05-3.30872E-24
 -1       984 8.47105E-05 2.38042E-05 0.00000E+00
 -1       985 8.46232E-05 2.46775E-05 1.65436E-24
 -3
    1PSTEP                        10           5           1          
  100CL  105 5.03906E-01         409                     0    5           1
 -4  STRESS      6    1
 -5  SXX         1    4    1    1
 -5  SYY         1    4    2    2
 -5  SZZ         1    4    3    3
 -5  SXY         1    4    1    2
 -5  SYZ         1    4    2    3
 -5  SZX         1    4    3    1
 -1         1-1.94913E+06-8.55130E+05-4.06959E+05-1.14606E+06 9.82254E-11 3.20142E-10
 -1         2 2.64699E+03-6.65726E+03 8.65519E+03-2.43661E+01-1.23066E-10 6.87322E-09
 -1         3-1.62080E+02-9.01756E+05 1.08500E+02-4.77583E+02 1.83949E-10 1.07029E-08
 -1         5-4.10501E+00 2.63739E+05 6.88257E+00 1.16027E-01 9.62612E-11-1.62663E-09
 -1         8-9.26743E+05-3.63494E+05-6.67647E+04-5.64397E+05-1.81899E-11 7.93807E-09
 -1         9-1.77036E+06-5.22926E+05-2.03627E+05-5.56465E+05 3.79805E-09-1.59489E-09
 -1        10-3.44136E+02-9.20676E+05-9.39280E+02-2.99524E+03-1.53068E-09-2.82191E-09
 -1        12-1.28344E+00 2.63754E+05 2.23023E+02 9.68572E-01 1.61020E-10 6.50675E-09
 -1        15 1.99979E+03 1.09901E+03 6.46433E+03 4.29252E+00-1.28921E-10-4.02706E-09
 -1        16-3.21181E+06-1.25159E+06-5.15777E+05-1.30620E+06 1.15445E-08 6.40284E-10
 -1        17-1.06811E+06-6.25952E+05-2.08986E+05-5.61796E+05-5.98520E-09-6.14091E-10
 -1        18-4.54045E+04-1.56873E+04-3.14040E+04-6.55580E+04 2.13652E-09 1.46747E-09
 -1        19 8.30167E+04 9.82235E+04-5.25435E+02 1.61794E+04-4.72028E-10-3.36586E-09
 -1        20-3.67392E+04-3.92220E+05-8.66656E+04 2.77593E+04 2.74789E-09 4.41347E-09
 -1        21-3.65870E+01-2.24996E+05-7.24501E+02-6.77740E+01-1.41287E-09-9.47066E-09
 -1        24-3.22497E+06-9.05053E+05-4.08732E+05-1.18560E+06-3.00109E-08-1.36206E-08
 -1        25-8.23727E+03-1.79544E+05-2.35780E+04-1.14261E+05 2.74485E-10 1.74534E-08
 -1        26-2.16361E+04 6.63620E+04-1.38233E+04-8.42904E+03 1.48648E-09 2.13354E-09
 -1        27-6.16659E+04-2.14818E+05-8.04458E+04 4.84230E+04 6.28089E-09-6.09119E-09
 -1        28 1.73912E+04-6.23907E+04 1.27251E+04 1.95264E+04 2.50623E-09-4.52012E-09
 -1        32-9.20376E+05-5.52322E+05 2.62467E+05-5.58553E+05-2.03072E-08 1.31094E-08
 -1        33-1.23504E+05 6.28214E+04 2.23142E+04-3.51699E+04 7.94879E-10 6.90458E-09
 -1        34-1.59244E+05-1.59586E+04 3.84620E+02 4.93509E+04 2.40031E-09 1.63618E-09
 -1        35-1.76944E+04-2.47906E+04-9.73447E+02 3.91942E+04 3.16500E-09-4.90218E-09
 -1        51 1.72851E+04-3.62487E+05 4.33988E+04-9.52189E+05 1.16415E-10-2.99769E-09
 -1        52 1.00476E+04-3.60426E+05 2.80283E+04-1.11053E+06 2.76486E-10-1.00699E-08
 -1        53 7.02353E+03-3.73895E+05 2.29000E+04-9.48858E+05 5.52973E-10-2.08092E-09
 -1        54 1.97829E+04-3.72562E+05 3.55814E+04-1.11399E+06 1.30967E-09-1.79862E-08
 -1        55 3.90435E+04-3.85982E+05 6.28067E+04-9.48317E+05 8.44011E-10 2.76486E-10
 -1        56-3.73303E+06-4.18921E+05-2.99256E+05-1.44046E+06-9.09495E-10 4.03088E-09
 -1        57-3.85670E+06-6.86521E+05-2.01769E+05-1.42500E+06 1.30967E-09-1.50430E-09
 -1        58-3.79369E+06-5.13250E+05-7.03925E+04-1.42100E+06-3.03862E-09 3.32147E-09
 -1        59-3.78652E+06-5.75802E+05-4.20216E+04-1.44816E+06-1.02159E-09-6.24095E-09
 -1        60-3.80251E+06-5.26430E+05-1.64260E+04-1.41839E+06-1.80989E-09 5.48698E-09
 -1        61-3.77795E+06-5.58643E+05-9.31981E+03-1.44915E+06 1.63436E-09 1.60940E-08
 -1        62-3.80208E+06-5.30018E+05-4.47261E+03-1.42009E+06 1.19599E-09-1.48302E-09
 -1        63-3.78157E+06-5.51612E+05-3.60016E+03-1.44348E+06 9.30299E-10-3.84625E-09
 -1        64-3.79876E+06-5.33484E+05-4.11141E+03-1.42400E+06 9.37007E-10-2.63117E-09
 -1        65-3.79024E+06-5.45430E+05-8.11769E+03-1.43423E+06 7.48059E-10-6.95582E-09
 -1        66-3.79333E+06-5.36299E+05-1.43107E+04-1.42926E+06 1.97588E-10-7.02676E-09
 -1        67-3.80763E+06-5.50210E+05-3.62971E+04-1.42188E+06 1.75632E-09-1.12959E-08
 -1        68-3.78150E+06-5.29065E+05-6.09173E+04-1.43625E+06 2.37287E-09-6.46833E-09
 -1        69-3.87442E+06-6.40076E+05-1.74424E+05-1.39540E+06-2.54659E-10-5.48789E-09
 -1        70-3.72732E+06-4.49116E+05-2.58765E+05-1.45490E+06-1.43700E-09 2.05764E-08
 -1        86-1.33038E+03-9.53364E+03 9.23249E+03 1.21618E+01 1.15779E-09-9.83619E-10
 -1        87 8.80601E+03-3.68221E+03 1.93118E+04-3.75064E+01 1.92540E-09 6.34071E-09
 -1        88-7.46974E+03-1.25077E+04 2.95301E+04 2.52966E+01 2.82671E-09-1.08173E-10
 -1        89 5.56408E+04 1.80379E+04 7.96638E+04 3.36279E+01 4.29281E-09-4.83760E-09
 -1        90-4.80049E+04-3.12348E+04 1.12557E+05-5.84708E+01 4.54747E-09 3.72131E-09
 -1       121-2.34032E+02-9.02426E+05 2.44500E+00 2.38412E+02 1.02879E-10 3.01588E-09
 -1       122-1.20126E+02-9.01742E+05 2.20095E+02-9.53812E+02 1.81537E-09 9.17589E-09
 -1       123-2.57921E+02-9.02454E+05 2.42121E+02 7.13127E+02 6.18797E-10 1.23309E-08
 -1       124 3.36317E+02-9.01508E+05 8.86708E+02-2.05520E+03 3.58796E-09 5.69707E-09
 -1       125-5.49724E+02-9.02701E+05 1.20286E+03 1.33813E+03 1.07002E-09 8.29459E-09
 -1       191-4.53837E+00 2.63762E+05 8.27076E+00-5.84435E-02 1.15933E-10 3.48791E-09
 -1       192-4.73703E+00 2.63740E+05 1.45702E+01 5.89615E-01 1.68273E-10 1.47929E-09
 -1       193-6.21892E+00 2.63762E+05 2.71394E+01-5.34194E-01 1.91834E-10-3.44335E-09
 -1       194-6.77098E+00 2.63742E+05 5.51056E+01 1.42730E+00 5.64793E-11-5.02587E-09
 -1       195-9.44862E+00 2.63760E+05 1.07832E+02-9.01627E-01 2.55966E-10-6.01176E-10
 -1       251-4.53553E+05-1.95643E+04 4.54078E+04-1.28039E+03-2.84217E-12 9.73705E-09
 -1       252-4.31276E+05 2.26067E+04 3.25009E+04-4.89366E+03 1.54205E-09-4.50791E-09
 -1       253-4.45768E+05-3.05515E+03 1.16705E+04 1.10969E+03 8.20819E-11 7.04767E-09
 -1       254-4.40717E+05 3.50314E+03 7.62284E+03-9.25345E+03 1.54375E-09-2.07126E-09
 -1       255-4.44179E+05-4.83338E+02 3.00859E+03 3.07922E+03-6.22833E-10 3.71426E-09
 -1       256-4.42867E+05 5.81499E+02 1.97455E+03-1.23878E+04 6.35538E-10 8.55792E-09
 -1       257-4.43688E+05-9.25188E+01 1.05582E+03 4.24408E+03-6.91472E-10-4.55250E-09
 -1       258-4.43416E+05 2.52013E+02 1.09784E+03-1.37090E+04-3.28946E-11-3.48673E-09
 -1       259-4.43666E+05-1.28610E+02 1.41838E+03 4.40052E+03-8.85976E-10 6.36345E-09
 -1       260-4.42853E+05 9.14117E+02 2.96234E+03-1.29888E+04-6.37968E-10 2.64254E-09
 -1       261-4.44230E+05-7.67501E+02 4.87042E+03 3.52381E+03 1.70331E-09-5.72459E-09
 -1       262-4.39851E+05 5.67888E+03 1.21575E+04-1.03545E+04 1.20849E-10-1.87993E-08
 -1       263-4.46602E+05-4.92467E+03 1.90267E+04 1.76618E+03-8.67431E-10-8.10451E-09
 -1       264-4.24810E+05 3.66320E+04 5.24855E+04-6.33359E+03-3.88863E-09-2.95404E-09
 -1       265-4.59186E+05-3.16633E+04 7.37962E+04-4.97169E+02-1.43518E-09 6.87578E-09
 -1       266-3.62018E+04-1.69253E+04 8.49526E+04-9.18586E+01-6.91216E-11 6.15867E-09
 -1       267 4.19691E+04 1.97309E+04 6.00367E+04 1.05972E+02 5.45697E-11 9.16469E-10
 -1       268-5.62793E+03-2.79422E+03 2.23158E+04-1.35035E+01-5.54792E-11 2.69137E-09
 -1       269 6.64499E+03 3.34434E+03 1.45045E+04 1.57286E+01 4.72937E-11-1.01792E-09
 -1       270-9.97421E+02-5.49491E+02 7.00155E+03-2.13452E+00-5.45697E-11 2.62806E-09
 -1       271-3.47675E+06-4.35022E+05-2.65938E+05-1.35533E+06 5.92991E-10-1.10595E-09
 -1       272-3.56250E+06-6.38455E+05-1.70955E+05-1.36355E+06 4.20414E-10-1.66183E-08
 -1       273-3.52834E+06-4.99730E+05-6.28287E+04-1.34171E+06 8.88122E-10-4.77667E-09
 -1       274-3.50154E+06-5.59809E+05-3.51228E+04-1.38494E+06-4.98403E-10 4.16821E-09
 -1       275-3.53705E+06-5.04725E+05-1.46271E+04-1.33762E+06 6.54836E-11-2.59297E-09
 -1       276-3.49085E+06-5.54421E+05-7.74111E+03-1.39181E+06-1.19326E-09 5.31600E-09
 -1       277-3.53953E+06-5.03824E+05-3.79789E+03-1.33563E+06-1.17552E-09 7.19501E-09
 -1       278-3.48822E+06-5.55491E+05-2.74022E+03-1.39463E+06 3.62900E-09 5.68248E-09
 -1       279-3.54004E+06-5.03347E+05-2.92499E+03-1.33509E+06-5.94753E-10-3.60387E-09
 -1       280-3.48895E+06-5.55812E+05-5.36357E+03-1.39417E+06-2.00248E-09-4.15866E-10
 -1       281-3.53875E+06-5.03582E+05-9.79283E+03-1.33603E+06-1.28239E-10-8.59018E-09
 -1       282-3.49583E+06-5.59611E+05-2.34223E+04-1.38985E+06 1.86265E-09 1.17552E-09
 -1       283-3.53283E+06-5.00415E+05-4.18058E+04-1.33889E+06 5.40240E-10 1.49885E-09
 -1       284-3.53689E+06-6.11263E+05-1.13740E+05-1.37468E+06 1.07531E-09 8.30369E-09
 -1       285-3.49794E+06-4.58028E+05-1.77015E+05-1.34861E+06 2.03363E-09-3.34694E-09
 -1       301 1.76977E+04-3.52008E+04 1.32239E+05-7.38292E+04-8.47649E-10-8.79163E-09
 -1       302 1.88218E+04-1.75430E+03 9.08664E+04-1.08663E+05 1.40335E-09-2.40125E-08
 -1       303 1.03450E+03-2.25832E+04 7.65263E+04-7.39514E+04-7.53062E-10-1.11941E-08
 -1       304 2.79741E+04 7.05758E+03 1.21023E+05-1.08276E+05 1.07866E-09 9.44965E-10
 -1       305 2.72991E+04-4.33825E+04 1.98964E+05-7.42070E+04-6.54836E-10-4.62205E-09
 -1       306-4.73074E+06-5.44958E+05-3.56688E+05-1.84307E+06 3.92174E-09-1.39407E-08
 -1       307-4.89303E+06-8.62478E+05-2.42394E+05-1.79946E+06-1.72258E-09 1.00772E-09
 -1       308-4.82564E+06-6.40990E+05-8.40212E+04-1.79261E+06 1.69439E-09 8.71296E-09
 -1       309-4.77386E+06-7.61286E+05-5.05354E+04-1.87196E+06 8.77009E-10 7.24685E-09
 -1       310-4.85005E+06-6.43425E+05-1.95649E+04-1.77183E+06-2.02920E-09 1.60981E-10
 -1       311-4.74939E+06-7.54256E+05-1.13518E+04-1.89205E+06 9.32459E-09-8.41692E-09
 -1       312-4.85048E+06-6.47329E+05-5.62478E+03-1.77298E+06 6.67569E-10-5.67258E-09
 -1       313-4.76382E+06-7.33480E+05-4.61804E+03-1.87033E+06-5.06839E-09 2.76134E-09
 -1       314-4.83487E+06-6.64675E+05-6.59188E+03-1.79302E+06-5.34783E-10-5.86033E-09
 -1       315-4.80517E+06-6.94615E+05-1.21003E+04-1.82054E+06-4.93128E-09-1.04887E-09
 -1       316-4.80835E+06-6.86811E+05-2.29561E+04-1.82215E+06-1.92904E-09-1.61817E-08
 -1       317-4.86746E+06-6.71694E+05-5.76044E+04-1.76410E+06 5.29887E-09-7.70069E-09
 -1       318-4.77320E+06-6.87641E+05-9.58618E+04-1.84971E+06-9.61882E-09 1.32604E-08
 -1       319-4.99476E+06-8.02959E+05-2.78264E+05-1.70234E+06-3.92538E-09 9.50968E-09
 -1       320-4.68291E+06-5.57228E+05-4.07381E+05-1.88398E+06 8.67294E-09-5.77711E-09
 -1       336 1.98891E+02-9.39667E+05-3.51362E+03 1.65131E+03-9.41100E-09 2.45927E-09
 -1       337-1.36993E+03-9.40250E+05-4.70319E+03-4.03748E+03-1.68313E-08-4.55748E-09
 -1       338 3.58195E+02-9.39530E+05-7.07306E+03 2.37627E+03-1.19508E-08-6.66478E-09
 -1       339-7.72166E+03-9.44240E+05-1.62371E+04-5.45925E+03-2.15191E-08 8.46012E-09
 -1       340 5.23044E+03-9.35820E+05-2.53892E+04 3.06120E+03-1.42591E-08 1.56197E-08
 -1       406 1.57931E+01 2.63750E+05 4.40346E+02-7.94937E-02 4.05862E-10-1.83309E-09
 -1       407 1.52227E+02 2.63831E+05 9.35794E+02-6.30644E+00-9.12053E-11-1.17780E-09
 -1       408 4.80450E+02 2.63682E+05 1.86902E+03 6.52230E+00 5.20799E-10-7.33053E-09
 -1       409 2.01963E+03 2.64428E+05 4.20760E+03-6.34197E+01 1.35060E-10-4.28759E-09
 -1       410 5.80504E+03 2.63151E+05 8.58968E+03 5.94360E+01 5.96629E-10-1.37334E-09
 -1       521-7.80816E+06-7.58658E+05-6.72920E+05-2.62886E+06-2.05910E-09 7.33417E-09
 -1       522-6.37457E+06-1.92531E+06-2.84034E+05-3.59952E+06-6.05360E-08-2.33922E-08
 -1       523-7.96804E+06-5.11564E+05-1.44169E+05-2.10534E+06 1.94632E-09-4.22660E-08
 -1       524-6.39353E+06-2.03192E+06-5.62328E+04-4.27978E+06 7.68920E-08-6.31489E-08
 -1       525-7.97746E+06-5.10062E+05-3.49788E+04-2.07021E+06 6.17001E-08-4.97048E-08
 -1       526-6.25139E+06-1.76389E+06 5.74362E+04-3.76032E+06 2.62698E-08-2.92130E-08
 -1       527-7.95061E+06-8.95288E+05-1.11741E+05-2.52481E+06 2.15368E-08-1.91430E-08
 -1       528-6.54430E+06-1.01119E+06 1.34350E+05-2.59328E+06-3.59651E-08 6.25732E-10
 -1       529-7.50288E+06-1.39085E+06-1.24950E+05-3.09233E+06 8.44011E-09-8.68022E-09
 -1       530-7.79083E+06-1.13161E+05 7.42461E+04-1.80338E+06-2.17551E-08 2.32467E-08
 -1       531-6.85416E+06-1.68377E+06-4.81097E+04-3.40990E+06-7.83402E-08-2.02199E-08
 -1       532-8.72908E+06 3.10720E+05-5.30195E+04-1.60875E+06 7.52461E-08-6.48952E-08
 -1       533-6.74527E+06-1.69037E+06-1.27356E+05-3.44461E+06 3.07700E-08-1.04163E-07
 -1       534-8.23396E+06-1.64355E+05-2.88566E+05-1.67991E+06-3.77186E-08 7.78819E-08
 -1       535-7.22935E+06-1.29583E+06-6.40975E+05-3.22884E+06-1.11468E-08 5.45115E-08
 -1       536-3.23192E+05-1.36854E+04 3.06853E+04-6.56338E+03-1.06658E-09 1.38407E-08
 -1       537-3.06545E+05 1.58140E+04 2.23020E+04 1.33878E+04-1.96128E-08 1.00952E-08
 -1       538-3.16299E+05-2.03873E+03 8.03784E+03-7.56635E+03 5.16545E-09 1.12545E-08
 -1       539-3.10814E+05 2.52790E+03 5.66907E+03 1.20561E+04 2.31640E-08 1.82217E-08
 -1       540-3.18876E+05-4.46210E+02 1.32337E+03-5.23087E+03 1.21577E-09 8.72274E-09
 -1       541-3.05313E+05 6.87957E+02 3.06070E+03 5.06479E+03-3.63772E-09 1.19704E-08
 -1       542-3.21635E+05-3.37346E+02-9.13086E+02-5.73930E+02 5.29838E-10 6.37289E-09
 -1       543-3.04940E+05 3.11783E+02 2.01825E+03-4.40891E+03 1.08722E-09-7.84308E-09
 -1       544-3.19237E+05-8.47731E+01-1.27078E+03 4.24127E+03-6.97185E-10-4.71366E-09
 -1       545-3.11456E+05-3.83876E+02-5.30304E+02-1.19509E+04 3.74030E-10-9.08713E-09
 -1       546-3.15280E+05 4.90568E+02-2.38307E+03 6.96833E+03 2.00617E-09-1.40911E-08
 -1       547-3.15541E+05-2.86757E+03-5.67439E+03-1.41189E+04-1.53234E-08-1.35261E-08
 -1       548-3.15227E+05 2.46090E+03-9.61668E+03 6.41015E+03-1.51952E-08-1.38721E-08
 -1       549-3.17273E+05-1.76288E+04-2.43322E+04-9.90932E+03-8.10667E-09-8.94261E-09
 -1       550-3.13418E+05 1.51302E+04-3.74800E+04 2.75740E+03 5.47800E-10-1.05501E-10
 -1       551 1.22939E+04-4.85957E+05 2.25613E+04-8.12992E+05-3.97777E-08-1.86265E-09
 -1       552 2.77524E+04-4.92675E+05 2.97536E+04-1.15756E+06-3.02462E-08 1.63345E-08
 -1       553 1.94503E+04-4.98368E+05 4.49546E+04-8.10059E+05-4.59040E-08 1.33587E-08
 -1       554 5.21792E+04-4.84440E+05 9.49191E+04-1.15881E+06-2.93076E-08-4.90490E-09
 -1       555 4.70658E+04-5.16704E+05 1.69552E+05-8.10876E+05-4.77885E-08-8.90213E-09
 -1       556 8.24694E+04-1.55893E+05 5.29017E+04-2.00106E+05-8.48377E-09-3.68163E-09
 -1       557 1.45938E+05-2.07842E+05 2.78994E+04-2.51389E+05 7.27596E-11 3.34967E-09
 -1       558 8.16248E+04-1.62600E+05 1.11110E+04-1.94375E+05-4.48199E-09 1.30967E-10
 -1       559 1.36498E+05-2.14829E+05 5.69451E+03-2.55773E+05 6.26460E-09-8.91123E-09
 -1       560 7.92072E+04-1.61017E+05 2.25680E+03-1.95944E+05 2.69938E-09-2.06273E-09
 -1       561 1.32909E+05-2.13798E+05 1.23998E+03-2.58057E+05 9.85892E-10-2.47383E-09
 -1       562 7.72768E+04-1.59745E+05 4.24489E+02-1.97333E+05-1.38243E-10-5.39330E-09
 -1       563 1.30642E+05-2.12819E+05 3.02598E+02-2.59508E+05-8.73115E-10-9.89462E-09
 -1       564 7.60448E+04-1.58956E+05 9.81645E+01-1.98206E+05 4.32919E-10-1.20672E-08
 -1       565 1.29408E+05-2.12287E+05 8.90064E+01-2.60285E+05 5.76256E-09 3.05772E-09
 -1       566 7.55481E+04-1.58632E+05 8.23697E+00-1.98561E+05 3.18323E-09 6.38465E-09
 -1       567 1.29165E+05-2.12171E+05-6.29565E+01-2.60369E+05 8.70227E-09 9.47512E-09
 -1       568 7.58219E+04-1.58814E+05-2.61879E+02-1.98438E+05 3.05590E-10 8.37645E-09
 -1       569 1.29231E+05-2.12032E+05-6.18902E+02-2.59122E+05-7.44240E-09 7.96717E-10
 -1       570 7.74329E+04-1.60182E+05-1.41463E+03-1.98345E+05 5.31873E-09 1.14733E-08
 -1       571 1.92851E+05 7.09257E+03 1.04930E+04-4.97584E+04 1.83263E-10 3.53111E-09
 -1       572 1.94410E+05 2.47646E+03 5.14102E+03-5.45509E+04 4.54293E-10-4.70209E-09
 -1       573 1.93476E+05 6.00055E+02 2.28388E+03-4.96326E+04 1.00226E-09 9.09495E-12
 -1       574 1.93658E+05 2.06226E+02 1.14437E+03-5.46923E+04-8.52651E-11 1.84036E-09
 -1       575 1.93544E+05 4.03638E+01 5.39409E+02-4.96160E+04-1.75760E-10 4.95629E-09
 -1       576 1.93555E+05 2.30507E+01 2.74731E+02-5.47112E+04 7.08098E-10 4.20096E-09
 -1       577 1.93555E+05 9.93403E+00 1.35551E+02-4.96138E+04 3.18801E-09 6.22231E-09
 -1       578 1.93547E+05 1.28283E+01 7.44019E+01-5.47135E+04-1.16188E-10 1.24505E-08
 -1       579 1.93569E+05 6.43925E+00 4.62553E+01-4.96138E+04-1.67802E-09-5.74619E-09
 -1       580 1.93566E+05 4.94886E+00 4.45934E+01-5.47106E+04-3.82124E-09-6.99401E-09
 -1       581 1.93593E+05-2.98923E+00 6.17315E+01-4.96167E+04-1.36424E-09 3.11047E-09
 -1       582 1.93609E+05 6.12696E+00 1.18908E+02-5.46807E+04-1.50294E-09-6.04450E-09
 -1       583 1.93622E+05 3.27212E+01 2.28308E+02-4.96437E+04 6.64841E-10-8.77662E-10
 -1       584 1.93730E+05 2.10741E+02 5.12567E+02-5.44554E+04-6.98492E-10 4.76348E-11
 -1       585 1.93602E+05 6.60739E+02 1.04056E+03-4.98424E+04 7.85803E-10-4.60568E-09
 -1       586-2.22996E+03 6.39746E+04-2.88523E+03-1.70921E+05 1.04592E-10-2.95290E-09
 -1       587-4.64300E+02 6.35959E+04-1.90620E+02-1.88098E+05 2.98314E-10 7.04858E-10
 -1       588 6.77787E+02 6.36525E+04 2.37257E+03-1.70824E+05 1.04592E-10 2.27737E-09
 -1       589 3.38682E+03 6.49375E+04 6.72869E+03-1.87929E+05 2.94676E-10-1.04105E-08
 -1       590 9.76776E+03 6.28744E+04 1.43415E+04-1.71094E+05-6.50289E-11-1.94632E-09
 -1       591-4.21717E+04-1.17542E+04-1.38773E+04-2.14667E+04 4.65036E-10-5.39239E-09
 -1       592-4.35874E+04-1.50463E+04-7.51655E+03-2.49540E+04 2.11270E-09-6.75573E-09
 -1       593-4.35733E+04-1.07332E+04-3.12918E+03-2.24706E+04-1.23157E-09-7.87350E-09
 -1       594-4.16554E+04-1.30273E+04-1.56066E+03-2.50481E+04 6.51085E-10 1.82973E-09
 -1       595-4.36807E+04-1.07286E+04-7.17181E+02-2.25167E+04-9.92429E-10 7.37646E-09
 -1       596-4.15246E+04-1.29348E+04-3.65526E+02-2.50344E+04 7.38737E-10-9.49868E-10
 -1       597-4.36944E+04-1.07375E+04-2.01094E+02-2.25185E+04-1.37792E-09-5.88744E-09
 -1       598-4.15121E+04-1.29313E+04-1.65422E+02-2.50305E+04 1.85594E-10-7.49910E-09
 -1       599-4.36933E+04-1.07376E+04-2.16017E+02-2.25182E+04 9.91690E-10 2.98417E-09
 -1       600-4.15259E+04-1.29360E+04-4.05059E+02-2.50338E+04 1.11572E-09 1.32678E-09
 -1       601-4.36762E+04-1.07281E+04-8.01075E+02-2.25154E+04 8.42192E-10-1.53817E-08
 -1       602-4.16721E+04-1.30394E+04-1.74689E+03-2.50472E+04 2.63697E-09-7.01357E-09
 -1       603-4.35544E+04-1.07351E+04-3.50382E+03-2.24640E+04 5.30008E-10 5.93241E-09
 -1       604-4.38427E+04-1.52917E+04-8.41667E+03-2.49307E+04-2.22462E-09 7.69364E-09
 -1       605-4.19752E+04-1.18856E+04-1.55389E+04-2.13480E+04 1.04762E-09-4.48472E-09
 -1       606 2.65326E+04-9.28643E+03-1.67138E+04 2.58194E+04-4.33283E-09-2.28465E-09
 -1       607 2.36705E+04-2.99914E+03-8.32249E+03 2.89848E+04-1.11777E-09-1.50239E-08
 -1       608 2.52933E+04-5.09164E+02-3.72705E+03 2.56143E+04-1.71149E-08-1.06022E-08
 -1       609 2.49701E+04-1.35283E+02-1.88239E+03 2.92120E+04-4.11819E-08 5.20936E-09
 -1       610 2.51423E+04 2.07808E+01-8.99230E+02 2.55913E+04-2.17751E-08 8.60928E-09
 -1       611 2.50811E+04 3.32289E+01-4.53484E+02 2.92368E+04-6.40466E-09-1.57365E-09
 -1       612 2.51014E+04 3.61482E+01-2.16977E+02 2.55891E+04-1.56779E-08 1.27852E-09
 -1       613 2.50780E+04 4.18801E+01-9.87112E+01 2.92398E+04-2.87650E-08-1.82990E-09
 -1       614 2.50788E+04 3.72782E+01-2.72207E+01 2.55883E+04-1.45765E-08-4.40878E-10
 -1       615 2.50660E+04 4.75268E+01 3.17738E+01 2.92402E+04 3.48882E-09 7.03358E-09
 -1       616 2.50616E+04 4.31359E+01 1.04079E+02 2.55885E+04-2.00635E-09 2.30693E-09
 -1       617 2.50720E+04 7.37690E+01 2.41056E+02 2.92397E+04 1.15506E-10-4.75029E-09
 -1       618 2.50358E+04 1.15745E+02 4.87114E+02 2.55886E+04 7.87168E-10 5.66752E-09
 -1       619 2.52401E+04 4.53006E+02 1.09475E+03 2.92390E+04 1.16859E-09-3.03430E-09
 -1       620 2.48715E+04 1.27338E+03 2.20060E+03 2.55876E+04 1.66540E-09 4.21551E-09
 -1       621 3.07147E+02 2.06875E+05 2.70596E+03 8.74024E+03-1.77863E-10-5.30417E-09
 -1       622 3.55744E+02 2.07544E+05 2.34562E+03 1.27491E+04-1.85310E-11 1.30736E-08
 -1       623 1.53684E+01 2.07059E+05 2.76118E+03 8.69912E+03-1.75518E-10-1.20781E-09
 -1       624 1.26659E+03 2.08377E+05 5.29886E+03 1.27898E+04-1.69678E-10-8.14413E-09
 -1       625 1.27278E+03 2.06033E+05 9.23802E+03 8.69971E+03-1.19144E-10 8.24684E-10
 -1       626 1.73325E+05 4.74112E+04 3.50996E+03 9.28497E+04-6.76937E-09-2.00398E-08
 -1       627 1.71036E+05 4.90668E+04 1.69137E+03 9.65619E+04 3.49246E-10-1.44137E-08
 -1       628 1.73450E+05 4.57580E+04 7.14377E+02 9.33869E+04 7.08224E-09 1.25465E-08
 -1       629 1.70536E+05 4.86597E+04 3.50120E+02 9.67826E+04 7.07951E-09 2.26994E-08
 -1       630 1.73457E+05 4.56804E+04 1.61830E+02 9.34014E+04-3.08319E-10-2.27703E-09
 -1       631 1.70475E+05 4.86503E+04 8.69717E+01 9.67835E+04-3.94539E-09-7.62012E-09
 -1       632 1.73448E+05 4.56869E+04 5.71430E+01 9.33935E+04-5.53246E-09-5.85203E-09
 -1       633 1.70462E+05 4.86555E+04 6.35340E+01 9.67764E+04-2.74940E-09-3.95556E-09
 -1       634 1.73438E+05 4.56879E+04 1.02513E+02 9.33890E+04 4.92810E-09 4.57294E-09
 -1       635 1.70466E+05 4.86571E+04 2.07658E+02 9.67758E+04 4.25803E-09 8.22956E-09
 -1       636 1.73427E+05 4.56871E+04 4.19302E+02 9.33859E+04 1.44917E-09 1.86446E-11
 -1       637 1.70552E+05 4.87238E+04 9.21518E+02 9.67717E+04 6.34577E-09 8.53288E-09
 -1       638 1.73391E+05 4.58924E+04 1.89380E+03 9.32914E+04 1.33059E-09-2.63162E-09
 -1       639 1.71543E+05 5.01087E+04 4.48017E+03 9.64773E+04-3.15276E-09 1.89766E-09
 -1       640 1.73258E+05 5.00166E+04 9.29741E+03 9.15410E+04 5.57066E-11 2.05819E-09
 -1       656 4.66650E+04-1.18219E+06-1.12649E+05-3.84434E+02-4.36557E-11-3.06059E-09
 -1       657-6.16705E+04-1.23304E+06-9.31774E+04 7.35607E+03 6.76664E-10-2.37640E-09
 -1       658 1.48052E+04-1.19669E+06-5.71993E+04-1.54809E+03 1.27045E-09-5.55501E-09
 -1       659-6.61806E+04-1.23518E+06-9.91012E+04 8.14675E+03-5.51154E-10-3.96177E-10
 -1       660 5.11643E+04-1.18006E+06-1.22838E+05-1.17509E+03-3.56522E-10 2.47847E-09
 -1       661 1.61996E+05 1.76051E+04 1.56392E+04 6.33249E+04 2.32512E-09 2.68028E-09
 -1       662 1.70203E+05 2.98102E+04 1.05383E+04 6.05361E+04 1.93882E-09-7.82165E-09
 -1       663 1.65062E+05 2.26269E+04 3.68635E+03 6.24392E+04 4.21096E-10 3.06500E-10
 -1       664 1.66655E+05 2.39324E+04 2.20406E+03 6.16132E+04-2.66141E-10-1.95257E-11
 -1       665 1.65522E+05 2.33178E+04 8.69433E+02 6.23100E+04-3.11150E-09-5.92874E-09
 -1       666 1.66115E+05 2.31382E+04 5.07152E+02 6.17791E+04-6.70161E-09 1.17288E-08
 -1       667 1.65599E+05 2.34004E+04 2.67528E+02 6.22812E+04-2.06046E-09 1.65890E-08
 -1       668 1.66032E+05 2.30734E+04 2.68349E+02 6.18205E+04 1.89709E-09-2.05159E-10
 -1       669 1.65604E+05 2.33806E+04 3.59827E+02 6.22692E+04-9.14469E-11 1.01871E-08
 -1       670 1.66123E+05 2.32641E+04 7.80275E+02 6.18200E+04 6.56367E-09 9.40605E-09
 -1       671 1.65509E+05 2.32135E+04 1.38435E+03 6.22802E+04 1.91132E-09 1.43598E-09
 -1       672 1.66930E+05 2.46099E+04 3.54097E+03 6.16243E+04 7.69518E-10-9.41787E-09
 -1       673 1.64801E+05 2.20686E+04 5.93377E+03 6.24520E+04-6.35964E-10-1.70508E-09
 -1       674 1.72580E+05 3.41407E+04 1.69693E+04 5.99625E+04 1.61907E-09-6.37920E-09
 -1       675 1.59895E+05 1.39493E+04 2.51878E+04 6.38415E+04 2.78078E-09-1.82536E-09
 -1       676 1.88061E+01-2.24936E+05-8.73210E+02 3.38878E+01 1.18362E-09-2.91814E-09
 -1       677-2.31798E+02-2.25147E+05-1.59807E+03-6.77414E+01-4.44788E-09-1.21847E-08
 -1       678 1.54798E+02-2.24785E+05-2.82497E+03 3.38303E+01 1.18325E-09-9.25819E-09
 -1       679-2.82559E+03-2.26852E+05-6.71073E+03-6.75182E+01-1.69985E-09 1.42921E-09
 -1       680 1.68634E+03-2.23231E+05-1.08154E+04 3.32780E+01 1.13414E-09 4.70461E-09
 -1       771-2.40604E+06-4.43772E+05-6.31997E+04-1.02270E+06-1.31768E-08-1.05792E-08
 -1       772-2.38404E+06-4.81199E+05-3.36395E+04-1.06479E+06-1.09067E-08 1.27875E-09
 -1       773-2.41567E+06-4.36217E+05-1.50231E+04-1.02626E+06-4.23461E-09 5.64978E-09
 -1       774-2.37563E+06-4.74206E+05-7.17535E+03-1.07027E+06 8.44011E-09-4.24188E-09
 -1       775-2.41866E+06-4.34162E+05-3.98637E+03-1.02678E+06-2.38651E-09 9.85892E-10
 -1       776-2.37616E+06-4.74255E+05-1.73807E+03-1.07364E+06-3.12866E-09 2.30648E-09
 -1       777-2.42094E+06-4.32484E+05-1.30863E+03-1.02718E+06 2.30648E-09 1.28239E-09
 -1       778-2.37717E+06-4.74471E+05-4.95771E+02-1.07647E+06 4.11819E-09 4.22187E-09
 -1       779-2.42280E+06-4.31057E+05-5.90481E+02-1.02753E+06-4.50382E-09-3.57250E-09
 -1       780-2.37811E+06-4.74635E+05-2.92421E+02-1.07876E+06-2.48838E-09 2.14641E-10
 -1       781-2.42423E+06-4.29923E+05-5.39108E+02-1.02780E+06-1.00408E-08-9.86802E-10
 -1       782-2.37890E+06-4.74774E+05-7.54985E+02-1.08044E+06-1.37807E-08-6.82167E-09
 -1       783-2.42516E+06-4.29165E+05-1.52631E+03-1.02798E+06-2.65572E-09-5.58032E-09
 -1       784-2.38025E+06-4.75773E+05-3.51496E+03-1.08142E+06-6.53654E-09-2.23054E-10
 -1       785-2.42501E+06-4.29248E+05-6.52077E+03-1.02760E+06-1.35296E-08 2.10184E-09
 -1       786 1.66253E+05-9.24042E+03 2.13779E+04-3.88073E+01 5.74937E-06 2.56487E-08
 -1       787 1.75517E+05 1.06975E+04 1.51244E+04 8.58958E+00 1.14541E-05 1.60496E-08
 -1       788 1.69827E+05-1.44854E+03 5.53298E+03-2.81423E+01 1.05893E-05-2.19607E-08
 -1       789 1.71353E+05 1.67602E+03 3.47616E+03-9.60422E+00 9.70032E-06 1.23271E-08
 -1       790 1.70417E+05-2.26256E+02 1.41387E+03-2.06147E+01 9.14454E-06-1.71791E-08
 -1       791 1.70665E+05 2.62710E+02 8.29006E+02-2.42428E+01 8.58135E-06 2.23355E-08
 -1       792 1.70515E+05-3.62918E+01 3.76145E+02-1.35036E+01 4.29479E-06-6.71622E-09
 -1       793 1.70553E+05 4.98938E+01 2.41980E+02-4.01286E+01 1.28635E-08-3.35108E-10
 -1       794 1.70529E+05-1.35782E+01 1.72361E+02-4.72872E+00 1.20512E-09 3.12644E-09
 -1       795 1.70560E+05 6.74309E+01 2.39365E+02-6.18096E+01-1.10476E-09 5.36448E-09
 -1       796 1.70508E+05-5.38126E+01 3.52523E+02 8.17782E+00 8.91679E-10-4.57166E-09
 -1       797 1.70719E+05 3.93884E+02 8.26232E+02-9.53731E+01-1.20551E-09-9.50625E-09
 -1       798 1.70370E+05-3.39793E+02 1.30254E+03 2.88355E+01 1.62197E-10-4.55447E-09
 -1       799 1.71695E+05 2.50883E+03 3.54958E+03-1.50460E+02-6.56171E-10 3.95175E-10
 -1       800 1.69531E+05-2.16706E+03 5.01349E+03 6.32656E+01 2.93632E-11 1.08525E-09
 -1       801 2.00433E+04-9.17647E+05-7.67337E+04 2.48255E+04 1.22382E-08-3.86399E-09
 -1       802-1.53753E+04-7.95605E+05-7.83524E+03-7.16199E+04 3.36486E-08-1.78898E-09
 -1       803-4.18482E+03-8.57554E+05 2.65961E+04 4.66499E+04 2.65100E-08 2.49108E-08
 -1       804 8.72458E+04-7.35864E+05 1.27391E+05-6.62272E+04 3.00643E-08 2.52688E-08
 -1       805-8.28930E+04-9.76866E+05 1.48897E+05 1.94272E+04 1.10449E-08 2.45348E-08
 -1       806-2.10306E+05-4.37674E+04-1.73154E+04-8.62347E+04-3.30238E-09-5.66297E-09
 -1       807-2.11446E+05-4.11662E+04-8.50673E+03-9.06866E+04 1.31899E-09 8.71609E-09
 -1       808-2.10790E+05-3.75191E+04-3.60857E+03-8.91789E+04-4.07294E-09 8.62016E-09
 -1       809-2.09638E+05-3.87961E+04-1.76421E+03-9.09214E+04-3.07114E-09 4.26303E-09
 -1       810-2.10865E+05-3.72994E+04-8.07928E+02-8.93089E+04-2.92425E-09 2.76282E-09
 -1       811-2.09499E+05-3.87020E+04-4.00868E+02-9.08991E+04-1.84809E-09-2.50270E-09
 -1       812-2.10878E+05-3.73164E+04-2.00490E+02-8.93085E+04-3.51474E-09-9.47398E-09
 -1       813-2.09481E+05-3.87043E+04-1.27069E+02-9.08874E+04 3.39605E-09-4.45880E-09
 -1       814-2.10875E+05-3.73228E+04-1.20268E+02-8.93057E+04-3.38741E-09-1.13939E-08
 -1       815-2.09483E+05-3.87063E+04-1.89132E+02-9.08836E+04-1.21327E-09 5.13739E-09
 -1       816-2.10862E+05-3.73217E+04-3.55059E+02-8.93031E+04 3.36695E-09 1.08012E-08
 -1       817-2.09544E+05-3.87403E+04-7.61279E+02-9.08767E+04 1.08139E-09 7.15318E-09
 -1       818-2.10816E+05-3.74287E+04-1.55171E+03-8.92524E+04 4.99313E-10 4.69754E-10
 -1       819-2.10398E+05-3.96730E+04-3.65177E+03-9.06706E+04-1.20963E-09-5.63386E-09
 -1       820-2.10523E+05-4.01883E+04-7.43214E+03-8.80738E+04 1.17325E-10 3.10365E-09
 -1       821-2.69776E+05 1.49263E+04-3.45194E+04 1.52591E+02 3.32683E-10 2.17915E-09
 -1       822-2.84735E+05-1.72797E+04-2.44275E+04-7.53796E+02-1.73556E-09 5.48698E-09
 -1       823-2.75549E+05 2.34019E+03-8.94054E+03 1.33773E+02 5.72408E-10 3.79714E-10
 -1       824-2.78001E+05-2.70856E+03-5.62500E+03-5.96901E+02 2.21493E-10-1.82899E-09
 -1       825-2.76509E+05 3.66173E+02-2.31285E+03-4.30688E+00-2.17573E-09 5.76654E-09
 -1       826-2.76883E+05-4.31765E+02-1.39453E+03-2.59224E+02-4.57993E-09 1.92217E-09
 -1       827-2.76667E+05 6.48144E+01-7.23991E+02-2.03910E+02-3.57026E-09-8.13293E-09
 -1       828-2.76732E+05-1.31764E+02-6.38335E+02 1.20501E+02-5.57131E-09-5.68246E-09
 -1       829-2.76659E+05 6.64532E+01-7.35618E+02-3.84039E+02-5.58087E-10-6.65278E-09
 -1       830-2.76908E+05-4.44130E+02-1.43562E+03 3.88111E+02 2.00061E-09 2.74866E-10
 -1       831-2.76492E+05 3.77242E+02-2.37840E+03-4.71525E+02-2.70933E-09 1.00567E-09
 -1       832-2.78052E+05-2.78945E+03-5.79581E+03 4.35498E+02-2.00178E-09 4.73699E-09
 -1       833-2.75515E+05 2.41014E+03-9.21045E+03-4.31426E+02-1.65010E-09-2.02090E-09
 -1       834-2.84968E+05-1.77999E+04-2.51629E+04 2.45045E+02-1.02589E-09 3.56385E-09
 -1       835-2.69578E+05 1.53759E+04-3.55648E+04-2.81061E+02 4.63981E-09 8.68749E-09
 -1       836-9.00106E+02 2.53882E+05 1.53337E+04-2.08689E+04 1.24419E-09 9.82254E-11
 -1       837 3.37011E+03 2.58633E+05 1.30928E+04-4.19186E+04 1.84946E-09-2.50111E-10
 -1       838-3.31933E+02 2.55202E+05 1.35029E+04-2.07971E+04 1.80171E-09-2.10468E-09
 -1       839 8.66340E+03 2.62578E+05 2.57036E+04-4.19469E+04 2.43381E-09-5.09191E-09
 -1       840-2.60714E+03 2.49900E+05 4.10545E+04-2.08391E+04 1.64800E-09 6.00448E-09
 -1       856-7.94974E+04 7.06721E+03-1.86241E+04-4.14295E+02-1.86481E-09-1.19962E-09
 -1       857-8.71898E+04-8.28908E+03-1.28222E+04 4.29045E+03-2.05478E-09-5.87647E-09
 -1       858-8.25368E+04 9.90223E+02-4.83343E+03-4.33948E+02-1.07906E-09 3.43971E-09
 -1       859-8.36996E+04-1.15141E+03-2.91906E+03 4.32176E+03 2.29925E-09 3.75576E-09
 -1       860-8.29912E+04 1.37709E+02-1.22713E+03-4.45724E+02 1.04370E-09 4.99881E-10
 -1       861-8.31763E+04-1.52068E+02-6.82981E+02 4.33788E+03-6.11544E-09-1.70007E-09
 -1       862-8.30619E+04 1.82106E+01-2.99779E+02-4.50093E+02 1.97343E-09 3.11169E-09
 -1       863-8.30924E+04-1.07211E+01-1.45233E+02 4.33986E+03 7.74619E-09-3.22736E-09
 -1       864-8.30752E+04-5.24557E-01-3.95219E+01-4.47709E+02 5.30608E-09-7.24043E-09
 -1       865-8.30659E+04 2.48022E+01 4.42736E+01 4.32781E+03 8.31717E-09-4.70497E-09
 -1       866-8.30870E+04-1.77350E+01 1.30855E+02-4.38049E+02 1.81797E-09 3.18408E-10
 -1       867-8.29931E+04 1.48382E+02 3.48885E+02 4.30159E+03-4.22128E-09 8.04070E-09
 -1       868-8.31449E+04-1.23097E+02 5.86106E+02-4.21482E+02 8.38611E-10 8.60513E-09
 -1       869-8.25553E+04 1.02153E+03 1.57059E+03 4.25820E+03-1.18300E-09-9.49777E-09
 -1       870-8.35201E+04-8.68950E+02 2.27782E+03-3.94664E+02 1.23094E-09-5.27348E-09
 -1       871-3.97123E+03-8.62128E+03-1.29066E+04 8.48623E+04 2.36378E-09 2.00089E-09
 -1       872-1.72082E+03-1.15140E+04-5.26788E+03 1.10020E+05 3.98177E-09-1.05911E-09
 -1       873-3.52771E+01-1.01631E+04 7.34219E+02 8.46758E+04 1.17507E-09-1.07337E-08
 -1       874 1.97889E+03-8.29652E+03 7.28046E+03 1.10058E+05 2.97223E-09-5.30190E-09
 -1       875 4.67934E+03-1.18905E+04 1.61569E+04 8.48318E+04 2.58296E-09 2.99588E-09
 -1       876 2.10106E+05 3.61727E+04 1.12090E+04 8.52089E+04-7.07928E-09-1.12086E-08
 -1       877 2.10750E+05 3.86296E+04 5.98585E+03 8.85197E+04-3.51019E-09-8.11144E-09
 -1       878 2.11153E+05 3.49322E+04 2.50779E+03 8.61294E+04 7.48196E-09 3.55499E-09
 -1       879 2.09225E+05 3.71110E+04 1.24927E+03 8.85989E+04 1.57729E-09 4.45664E-09
 -1       880 2.11229E+05 3.49185E+04 5.81628E+02 8.61669E+04 2.04182E-10-4.86858E-09
 -1       881 2.09124E+05 3.70465E+04 3.09845E+02 8.85829E+04 1.40506E-09-6.35873E-09
 -1       882 2.11237E+05 3.49277E+04 1.96930E+02 8.61680E+04 3.82522E-09-3.70846E-09
 -1       883 2.09117E+05 3.70435E+04 2.09622E+02 8.85782E+04 1.60389E-09-6.67910E-12
 -1       884 2.11232E+05 3.49254E+04 3.31568E+02 8.61681E+04 9.36666E-10 4.51536E-09
 -1       885 2.09143E+05 3.70482E+04 6.65455E+02 8.85866E+04 4.55771E-09 8.57744E-09
 -1       886 2.11207E+05 3.49059E+04 1.34064E+03 8.61655E+04 2.73354E-09-2.38015E-09
 -1       887 2.09379E+05 3.72026E+04 2.92827E+03 8.86205E+04-5.00688E-09 2.99656E-09
 -1       888 2.11022E+05 3.49385E+04 5.90050E+03 8.60718E+04 3.48206E-09-4.08272E-09
 -1       889 2.12895E+05 4.08530E+04 1.40958E+04 8.85091E+04 1.39167E-08 3.29442E-09
 -1       890 2.08618E+05 3.77942E+04 2.64004E+04 8.38208E+04 6.44104E-09-2.94312E-09
 -1       891-1.30157E+02-1.19205E+05-1.41127E+03 2.24622E+04 3.24383E-09 1.67688E-09
 -1       892-2.26751E+02-1.19543E+05-1.53378E+03 3.39930E+04 2.66937E-10 1.93847E-09
 -1       893-3.65912E+01-1.19248E+05-2.19031E+03 2.24667E+04 1.65232E-09 2.09002E-09
 -1       894-1.19640E+03-1.20381E+05-4.54672E+03 3.38719E+04-7.91260E-11-3.13776E-09
 -1       895-9.35651E+02-1.18302E+05-8.01195E+03 2.25818E+04-1.10151E-09-5.38239E-09
 -1       956-2.64554E+05-3.79519E+03-9.55271E+03 1.76617E+04-2.16323E-09 1.02102E-09
 -1       957-2.66440E+05-1.28042E+03-4.90397E+03 2.12685E+04-2.00589E-09-9.66588E-09
 -1       958-2.65402E+05-1.02172E+02-2.20939E+03 1.75481E+04 1.03137E-09 2.95404E-09
 -1       959-2.65552E+05-1.75478E+01-1.12850E+03 2.13917E+04-2.66027E-09 1.39758E-08
 -1       960-2.65478E+05 3.18935E+01-5.50091E+02 1.75373E+04-3.83761E-09-5.02746E-09
 -1       961-2.65488E+05 3.01922E+01-2.91707E+02 2.14040E+04-4.96925E-09 1.09962E-08
 -1       962-2.65493E+05 2.81787E+01-1.66683E+02 1.75356E+04-7.11452E-10-6.66205E-11
 -1       963-2.65485E+05 3.14933E+01-1.33265E+02 2.14063E+04-2.21235E-09-2.67096E-09
 -1       964-2.65497E+05 3.01166E+01-1.61115E+02 1.75350E+04-7.10656E-10-1.26624E-09
 -1       965-2.65495E+05 3.44226E+01-2.77847E+02 2.14063E+04 2.13769E-09-5.30531E-09
 -1       966-2.65488E+05 3.76166E+01-5.21244E+02 1.75356E+04-4.92662E-09 2.25941E-09
 -1       967-2.65564E+05-6.65930E+00-1.06892E+03 2.13995E+04-5.32020E-09 8.47126E-09
 -1       968-2.65422E+05-8.54617E+01-2.09175E+03 1.75420E+04-4.55793E-09-4.39405E-09
 -1       969-2.66412E+05-1.19911E+03-4.64429E+03 2.13246E+04-2.13026E-09 5.28703E-09
 -1       970-2.64624E+05-3.58050E+03-9.04607E+03 1.76128E+04-5.59794E-10 1.11868E-10
 -1       971-2.50502E+05-1.31672E+03-7.32155E+03 1.21362E+04-3.30783E-09-4.22963E-09
 -1       972-2.52283E+05-9.43688E+02-3.98734E+03 1.69500E+04-3.48336E-09 1.15642E-09
 -1       973-2.51316E+05-8.38746E+00-1.78540E+03 1.20351E+04-5.27098E-09-1.33582E-09
 -1       974-2.51440E+05-8.23302E+00-9.24955E+02 1.70592E+04-2.10412E-09-6.49436E-09
 -1       975-2.51379E+05 2.57059E+01-4.61283E+02 1.20260E+04-2.14413E-09-4.77735E-09
 -1       976-2.51390E+05 2.99472E+01-2.64280E+02 1.70702E+04-1.02457E-08 7.70501E-09
 -1       977-2.51391E+05 2.53915E+01-1.88458E+02 1.20239E+04-3.35535E-09-3.81397E-09
 -1       978-2.51392E+05 3.41198E+01-2.15996E+02 1.70731E+04 7.45160E-09-5.43810E-09
 -1       979-2.51391E+05 3.11654E+01-3.43110E+02 1.20231E+04 5.58111E-09 7.67454E-09
 -1       980-2.51418E+05 3.62070E+01-6.60040E+02 1.70736E+04 5.16089E-09 3.49701E-10
 -1       981-2.51370E+05 4.76071E+01-1.27703E+03 1.20234E+04 5.98334E-10-9.09597E-09
 -1       982-2.51593E+05-5.80004E+01-2.63887E+03 1.70685E+04 4.57931E-10 7.61767E-09
 -1       983-2.51209E+05-3.39348E+01-5.12691E+03 1.20283E+04 2.17506E-09 8.11883E-09
 -1       984-2.54059E+05-2.73519E+03-1.14809E+04 1.70000E+04-3.92902E-09 6.85122E-09
 -1       985-2.48889E+05-3.78532E+03-2.10826E+04 1.20967E+04 1.22327E-09 1.09321E-08
 -3
    1PSTEP                        11           6           1          
  100CL  106 5.39062E-01         409                     0    6           1
 -4  DISP        4    1
 -5  D1          1    2    1    0
 -5  D2          1    2    2    0
 -5  D3          1    2    3    0
 -5  ALL         1    2    0    0    1ALL
 -1         1 1.83310E-04 0.00000E+00 0.00000E+00
 -1         2 1.62834E-04-1.52346E-30 3.30872E-24
 -1         3 1.65741E-04 1.01003E-26 0.00000E+00
 -1         5 1.07300E-04 1.81225E-26 3.30872E-24
 -1         8 1.57900E-04-8.70992E-07 0.00000E+00
 -1         9 1.51703E-04-6.45088E-07 0.00000E+00
 -1        10 1.51733E-04-2.29112E-06 0.00000E+00
 -1        12 1.07038E-04 5.92474E-07-1.65436E-24
 -1        15 1.27583E-04-9.68749E-07 0.00000E+00
 -1        16 1.32628E-04-8.44656E-07 0.00000E+00
 -1        17 1.09435E-04-4.79456E-06 0.00000E+00
 -1        18 1.05083E-04 4.81458E-06 0.00000E+00
 -1        19 1.06252E-04 1.18186E-06 0.00000E+00
 -1        20 1.06398E-04 1.31186E-05 0.00000E+00
 -1        21 1.05803E-04 2.38101E-05 0.00000E+00
 -1        24 2.23669E-05-6.67441E-06 0.00000E+00
 -1        25 1.05016E-04 4.95454E-06 0.00000E+00
 -1        26 1.05918E-04 1.64132E-06 0.00000E+00
 -1        27 1.04280E-04 1.04569E-05 0.00000E+00
 -1        28 1.03811E-04 2.33084E-05 0.00000E+00
 -1        32 0.00000E+00 0.00000E+00 0.00000E+00
 -1        33 1.04342E-04 2.19898E-06 0.00000E+00
 -1        34 1.02742E-04 1.04317E-05 0.00000E+00
 -1        35 1.01233E-04 2.30416E-05 0.00000E+00
 -1        51 1.81661E-04-1.44897E-07 0.00000E+00
 -1        52 1.78601E-04-2.83830E-07 0.00000E+00
 -1        53 1.74408E-04-4.23990E-07 0.00000E+00
 -1        54 1.69367E-04-5.67081E-07 0.00000E+00
 -1        55 1.63768E-04-7.13992E-07 2.48154E-24
 -1        56 1.81706E-04-8.47986E-07 0.00000E+00
 -1        57 1.80187E-04-2.10809E-06-2.64698E-23
 -1        58 1.78775E-04-3.64217E-06 5.29396E-23
 -1        59 1.77408E-04-5.32947E-06 0.00000E+00
 -1        60 1.76045E-04-7.02793E-06 5.29396E-23
 -1        61 1.74633E-04-8.59939E-06-2.64698E-23
 -1        62 1.73125E-04-9.91536E-06 0.00000E+00
 -1        63 1.71476E-04-1.08584E-05 0.00000E+00
 -1        64 1.69656E-04-1.13419E-05-5.29396E-23
 -1        65 1.67637E-04-1.12979E-05 2.64698E-23
 -1        66 1.65411E-04-1.07022E-05 0.00000E+00
 -1        67 1.62979E-04-9.55264E-06 0.00000E+00
 -1        68 1.60355E-04-7.89381E-06 5.29396E-23
 -1        69 1.57571E-04-5.78743E-06 2.64698E-23
 -1        70 1.54655E-04-3.33937E-06 0.00000E+00
 -1        86 1.62501E-04-1.00725E-07-3.30872E-24
 -1        87 1.61501E-04-2.02405E-07 1.65436E-24
 -1        88 1.59871E-04-3.04954E-07-3.30872E-24
 -1        89 1.57648E-04-4.11920E-07 3.30872E-24
 -1        90 1.54902E-04-5.19006E-07 1.32349E-23
 -1       121 1.65348E-04-3.78406E-07 1.32349E-23
 -1       122 1.64173E-04-7.57404E-07-6.61744E-24
 -1       123 1.62217E-04-1.13758E-06 1.32349E-23
 -1       124 1.59487E-04-1.51954E-06 0.00000E+00
 -1       125 1.55989E-04-1.90377E-06 0.00000E+00
 -1       191 1.07293E-04 9.87504E-08 0.00000E+00
 -1       192 1.07271E-04 1.97499E-07 4.96308E-24
 -1       193 1.07234E-04 2.96248E-07 0.00000E+00
 -1       194 1.07183E-04 3.94995E-07 0.00000E+00
 -1       195 1.07118E-04 4.93738E-07-3.30872E-24
 -1       251 1.57508E-04 3.86256E-06 1.32349E-23
 -1       252 1.57117E-04 7.92545E-06 0.00000E+00
 -1       253 1.56729E-04 1.10165E-05 1.32349E-23
 -1       254 1.56344E-04 1.28498E-05-6.61744E-24
 -1       255 1.55961E-04 1.33755E-05 1.32349E-23
 -1       256 1.55577E-04 1.25647E-05-6.61744E-24
 -1       257 1.55192E-04 1.06393E-05 1.32349E-23
 -1       258 1.54804E-04 7.83873E-06-6.61744E-24
 -1       259 1.54416E-04 4.56692E-06 0.00000E+00
 -1       260 1.54027E-04 1.23518E-06-6.61744E-24
 -1       261 1.53639E-04-1.73391E-06 0.00000E+00
 -1       262 1.53253E-04-3.92354E-06 6.61744E-24
 -1       263 1.52869E-04-5.06331E-06 0.00000E+00
 -1       264 1.52484E-04-4.89929E-06 6.61744E-24
 -1       265 1.52098E-04-3.42265E-06-1.32349E-23
 -1       266 1.52847E-04-8.99387E-07-6.61744E-24
 -1       267 1.47794E-04-9.14205E-07 0.00000E+00
 -1       268 1.42741E-04-9.29882E-07-1.65436E-24
 -1       269 1.37689E-04-9.43013E-07-4.13590E-25
 -1       270 1.32636E-04-9.56084E-07-4.13590E-25
 -1       271 1.54878E-04 3.08637E-06 2.64698E-23
 -1       272 1.52233E-04 5.91602E-06-1.32349E-23
 -1       273 1.49979E-04 7.71814E-06 5.29396E-23
 -1       274 1.48067E-04 8.59103E-06 0.00000E+00
 -1       275 1.46459E-04 8.65548E-06 0.00000E+00
 -1       276 1.45103E-04 8.04392E-06 2.64698E-23
 -1       277 1.43946E-04 6.90187E-06 0.00000E+00
 -1       278 1.42929E-04 5.38382E-06-2.64698E-23
 -1       279 1.41992E-04 3.65131E-06 0.00000E+00
 -1       280 1.41074E-04 1.86965E-06 0.00000E+00
 -1       281 1.40112E-04 2.04951E-07 0.00000E+00
 -1       282 1.39046E-04-1.17858E-06 2.64698E-23
 -1       283 1.37815E-04-2.12220E-06-5.29396E-23
 -1       284 1.36368E-04-2.47324E-06 1.32349E-23
 -1       285 1.34645E-04-2.09352E-06-2.64698E-23
 -1       301 1.48171E-04-6.92815E-07-6.61744E-24
 -1       302 1.44667E-04-7.18117E-07 3.30872E-24
 -1       303 1.41276E-04-7.41902E-07 0.00000E+00
 -1       304 1.38083E-04-7.65845E-07 3.30872E-24
 -1       305 1.35173E-04-7.91074E-07 0.00000E+00
 -1       306 1.49790E-04-2.26825E-06 5.29396E-23
 -1       307 1.50860E-04-1.21817E-05 2.64698E-23
 -1       308 1.54331E-04-2.87122E-05 0.00000E+00
 -1       309 1.59392E-04-4.97576E-05 2.64698E-23
 -1       310 1.64965E-04-7.22513E-05 5.29396E-23
 -1       311 1.69930E-04-9.30296E-05-2.64698E-23
 -1       312 1.73286E-04-1.09293E-04 0.00000E+00
 -1       313 1.74107E-04-1.18558E-04 0.00000E+00
 -1       314 1.71964E-04-1.19820E-04 5.29396E-23
 -1       315 1.66613E-04-1.12622E-04 0.00000E+00
 -1       316 1.58493E-04-9.82750E-05 0.00000E+00
 -1       317 1.48258E-04-7.85622E-05 0.00000E+00
 -1       318 1.37038E-04-5.63789E-05 0.00000E+00
 -1       319 1.26067E-04-3.47725E-05 0.00000E+00
 -1       320 1.16489E-04-1.66879E-05 0.00000E+00
 -1       336 1.46685E-04-2.69695E-06 0.00000E+00
 -1       337 1.40810E-04-3.10731E-06 6.61744E-24
 -1       338 1.34125E-04-3.52242E-06 1.32349E-23
 -1       339 1.26652E-04-3.94220E-06 0.00000E+00
 -1       340 1.18414E-04-4.36780E-06-6.61744E-24
 -1       406 1.06943E-04 6.91197E-07 0.00000E+00
 -1       407 1.06834E-04 7.89888E-07 3.30872E-24
 -1       408 1.06711E-04 8.88517E-07 3.30872E-24
 -1       409 1.06572E-04 9.86966E-07 0.00000E+00
 -1       410 1.06420E-04 1.08504E-06 3.30872E-24
 -1       521 1.36634E-04-2.11791E-05 0.00000E+00
 -1       522 1.54362E-04-8.31036E-05-5.29396E-23
 -1       523 1.81433E-04-1.76436E-04-1.05879E-22
 -1       524 2.13432E-04-2.88119E-04 5.29396E-23
 -1       525 2.45731E-04-4.00938E-04 0.00000E+00
 -1       526 2.73700E-04-4.97573E-04-5.29396E-23
 -1       527 2.92922E-04-5.64390E-04 0.00000E+00
 -1       528 2.98842E-04-5.90496E-04 5.29396E-23
 -1       529 2.88886E-04-5.73857E-04 0.00000E+00
 -1       530 2.61737E-04-5.16081E-04 0.00000E+00
 -1       531 2.20350E-04-4.27159E-04-1.05879E-22
 -1       532 1.69686E-04-3.19319E-04 0.00000E+00
 -1       533 1.17514E-04-2.08460E-04 0.00000E+00
 -1       534 7.18630E-05-1.10659E-04 0.00000E+00
 -1       535 3.87333E-05-3.95044E-05-5.29396E-23
 -1       536 1.09221E-04 7.95862E-06 0.00000E+00
 -1       537 1.08908E-04 2.74998E-05 3.30872E-24
 -1       538 1.08516E-04 5.09764E-05 3.30872E-24
 -1       539 1.08100E-04 7.55151E-05-1.65436E-24
 -1       540 1.07730E-04 9.79643E-05 3.30872E-24
 -1       541 1.07460E-04 1.15184E-04-1.65436E-24
 -1       542 1.07280E-04 1.25378E-04 0.00000E+00
 -1       543 1.07150E-04 1.26791E-04 1.65436E-24
 -1       544 1.06998E-04 1.19891E-04-3.30872E-24
 -1       545 1.06765E-04 1.05194E-04 0.00000E+00
 -1       546 1.06447E-04 8.52035E-05-3.30872E-24
 -1       547 1.06072E-04 6.24494E-05 0.00000E+00
 -1       548 1.05707E-04 4.01773E-05 0.00000E+00
 -1       549 1.05417E-04 2.16300E-05 0.00000E+00
 -1       550 1.05213E-04 9.09261E-06 0.00000E+00
 -1       551 9.78690E-05-5.06892E-06 0.00000E+00
 -1       552 8.41505E-05-5.36393E-06 1.65436E-24
 -1       553 6.90048E-05-5.67733E-06 6.61744E-24
 -1       554 5.31687E-05-6.00278E-06-6.61744E-24
 -1       555 3.73788E-05-6.33035E-06 0.00000E+00
 -1       556 1.06298E-04 3.31511E-06 0.00000E+00
 -1       557 1.03855E-04 9.64734E-06 0.00000E+00
 -1       558 1.02033E-04 1.43576E-05 0.00000E+00
 -1       559 1.00763E-04 1.76142E-05 0.00000E+00
 -1       560 9.99807E-05 1.95852E-05 0.00000E+00
 -1       561 9.96190E-05 2.04399E-05 0.00000E+00
 -1       562 9.96134E-05 2.03477E-05-1.32349E-23
 -1       563 9.98992E-05 1.94784E-05 0.00000E+00
 -1       564 1.00412E-04 1.80018E-05 0.00000E+00
 -1       565 1.01088E-04 1.60882E-05 0.00000E+00
 -1       566 1.01864E-04 1.39076E-05 0.00000E+00
 -1       567 1.02676E-04 1.16304E-05-3.10193E-25
 -1       568 1.03461E-04 9.42669E-06 0.00000E+00
 -1       569 1.04155E-04 7.46667E-06 0.00000E+00
 -1       570 1.04694E-04 5.92042E-06 0.00000E+00
 -1       571 1.05154E-04 4.60680E-06-1.65436E-24
 -1       572 1.05226E-04 4.35294E-06-6.20385E-25
 -1       573 1.05299E-04 4.06192E-06 0.00000E+00
 -1       574 1.05372E-04 3.74308E-06 0.00000E+00
 -1       575 1.05446E-04 3.40583E-06-1.65436E-24
 -1       576 1.05519E-04 3.05960E-06 0.00000E+00
 -1       577 1.05592E-04 2.71384E-06 3.30872E-24
 -1       578 1.05666E-04 2.37802E-06 0.00000E+00
 -1       579 1.05739E-04 2.06160E-06 0.00000E+00
 -1       580 1.05812E-04 1.77403E-06 0.00000E+00
 -1       581 1.05886E-04 1.52478E-06 0.00000E+00
 -1       582 1.05959E-04 1.32329E-06 0.00000E+00
 -1       583 1.06033E-04 1.17902E-06-6.61744E-24
 -1       584 1.06106E-04 1.10129E-06 0.00000E+00
 -1       585 1.06179E-04 1.09939E-06 0.00000E+00
 -1       586 1.05032E-04 4.83941E-06 0.00000E+00
 -1       587 1.04954E-04 4.86364E-06-3.10193E-25
 -1       588 1.04882E-04 4.88761E-06 8.27181E-25
 -1       589 1.04846E-04 4.91117E-06 0.00000E+00
 -1       590 1.04881E-04 4.93402E-06 0.00000E+00
 -1       591 1.05125E-04 4.64971E-06-1.55096E-25
 -1       592 1.05177E-04 4.45227E-06 0.00000E+00
 -1       593 1.05239E-04 4.22885E-06 0.00000E+00
 -1       594 1.05307E-04 3.98532E-06 0.00000E+00
 -1       595 1.05381E-04 3.72762E-06-8.27181E-25
 -1       596 1.05458E-04 3.46163E-06 0.00000E+00
 -1       597 1.05536E-04 3.19324E-06 8.27181E-25
 -1       598 1.05612E-04 2.92834E-06 0.00000E+00
 -1       599 1.05685E-04 2.67280E-06 0.00000E+00
 -1       600 1.05753E-04 2.43250E-06-2.06795E-25
 -1       601 1.05812E-04 2.21334E-06-4.13590E-25
 -1       602 1.05861E-04 2.02117E-06 2.06795E-25
 -1       603 1.05899E-04 1.86191E-06 4.13590E-25
 -1       604 1.05921E-04 1.74148E-06-5.16988E-26
 -1       605 1.05928E-04 1.66574E-06 0.00000E+00
 -1       606 1.06265E-04 1.42912E-06 0.00000E+00
 -1       607 1.06275E-04 1.77219E-06 0.00000E+00
 -1       608 1.06285E-04 2.20544E-06 0.00000E+00
 -1       609 1.06294E-04 2.72251E-06-1.65436E-24
 -1       610 1.06303E-04 3.31705E-06 0.00000E+00
 -1       611 1.06312E-04 3.98258E-06 0.00000E+00
 -1       612 1.06321E-04 4.71264E-06 0.00000E+00
 -1       613 1.06330E-04 5.50076E-06 0.00000E+00
 -1       614 1.06339E-04 6.34045E-06 0.00000E+00
 -1       615 1.06347E-04 7.22525E-06 0.00000E+00
 -1       616 1.06356E-04 8.14868E-06 0.00000E+00
 -1       617 1.06365E-04 9.10426E-06 0.00000E+00
 -1       618 1.06373E-04 1.00855E-05 0.00000E+00
 -1       619 1.06382E-04 1.10860E-05 0.00000E+00
 -1       620 1.06390E-04 1.20992E-05 4.13590E-25
 -1       621 1.06114E-04 1.25854E-06 1.65436E-24
 -1       622 1.06022E-04 1.33555E-06 0.00000E+00
 -1       623 1.05965E-04 1.41253E-06 0.00000E+00
 -1       624 1.05935E-04 1.48939E-06-8.27181E-25
 -1       625 1.05923E-04 1.56611E-06 0.00000E+00
 -1       626 1.06244E-04 1.45458E-06 0.00000E+00
 -1       627 1.06206E-04 1.80556E-06 0.00000E+00
 -1       628 1.06143E-04 2.22720E-06 0.00000E+00
 -1       629 1.06056E-04 2.71146E-06-1.65436E-24
 -1       630 1.05948E-04 3.25027E-06 0.00000E+00
 -1       631 1.05823E-04 3.83552E-06-1.65436E-24
 -1       632 1.05684E-04 4.45908E-06 3.30872E-24
 -1       633 1.05533E-04 5.11285E-06 1.65436E-24
 -1       634 1.05374E-04 5.78873E-06 0.00000E+00
 -1       635 1.05209E-04 6.47858E-06-1.65436E-24
 -1       636 1.05043E-04 7.17430E-06-3.30872E-24
 -1       637 1.04877E-04 7.86780E-06 8.27181E-25
 -1       638 1.04715E-04 8.55093E-06-1.65436E-24
 -1       639 1.04560E-04 9.21559E-06 8.27181E-25
 -1       640 1.04415E-04 9.85366E-06 0.00000E+00
 -1       656 1.05592E-04 1.26855E-05-6.61744E-24
 -1       657 1.05160E-04 1.22352E-05 0.00000E+00
 -1       658 1.04963E-04 1.17862E-05 1.32349E-23
 -1       659 1.04859E-04 1.13376E-05 3.30872E-24
 -1       660 1.04685E-04 1.08875E-05 6.61744E-24
 -1       661 1.06101E-04 1.41092E-05-8.27181E-25
 -1       662 1.05829E-04 1.50405E-05 0.00000E+00
 -1       663 1.05578E-04 1.59146E-05 0.00000E+00
 -1       664 1.05348E-04 1.67348E-05 0.00000E+00
 -1       665 1.05138E-04 1.75038E-05-1.65436E-24
 -1       666 1.04945E-04 1.82245E-05 8.27181E-25
 -1       667 1.04770E-04 1.88995E-05 1.65436E-24
 -1       668 1.04611E-04 1.95314E-05 0.00000E+00
 -1       669 1.04468E-04 2.01227E-05 0.00000E+00
 -1       670 1.04338E-04 2.06757E-05 8.27181E-25
 -1       671 1.04222E-04 2.11926E-05 1.65436E-24
 -1       672 1.04119E-04 2.16757E-05 0.00000E+00
 -1       673 1.04028E-04 2.21270E-05 1.65436E-24
 -1       674 1.03947E-04 2.25484E-05 8.27181E-25
 -1       675 1.03876E-04 2.29422E-05-4.13590E-25
 -1       676 1.05470E-04 2.37260E-05 0.00000E+00
 -1       677 1.05137E-04 2.36419E-05-1.65436E-24
 -1       678 1.04805E-04 2.35579E-05 0.00000E+00
 -1       679 1.04473E-04 2.34741E-05-8.27181E-25
 -1       680 1.04142E-04 2.33903E-05 0.00000E+00
 -1       771 1.66419E-05 5.14308E-06 0.00000E+00
 -1       772 1.17275E-05 1.48353E-05 0.00000E+00
 -1       773 7.58749E-06 2.25143E-05 0.00000E+00
 -1       774 4.17060E-06 2.83022E-05-5.29396E-23
 -1       775 1.42609E-06 3.23245E-05 0.00000E+00
 -1       776-6.98937E-07 3.47124E-05 0.00000E+00
 -1       777-2.25791E-06 3.56006E-05 5.29396E-23
 -1       778-3.30549E-06 3.51282E-05 0.00000E+00
 -1       779-3.89665E-06 3.34371E-05-5.29396E-23
 -1       780-4.08740E-06 3.06731E-05-2.64698E-23
 -1       781-3.93386E-06 2.69841E-05 0.00000E+00
 -1       782-3.49296E-06 2.25210E-05 0.00000E+00
 -1       783-2.82165E-06 1.74362E-05 2.64698E-23
 -1       784-1.97744E-06 1.18840E-05-1.32349E-23
 -1       785-1.01781E-06 6.01977E-06 0.00000E+00
 -1       786 1.05069E-04 4.60988E-06 4.13590E-25
 -1       787 1.05125E-04 4.29099E-06 0.00000E+00
 -1       788 1.05181E-04 3.99344E-06 1.65436E-24
 -1       789 1.05237E-04 3.71288E-06 8.27181E-25
 -1       790 1.05294E-04 3.44717E-06-1.65436E-24
 -1       791 1.05351E-04 3.19420E-06 8.27181E-25
 -1       792 1.05408E-04 2.95355E-06-1.65436E-24
 -1       793 1.05464E-04 2.72481E-06 0.00000E+00
 -1       794 1.05521E-04 2.50912E-06 0.00000E+00
 -1       795 1.05578E-04 2.30768E-06-8.27181E-25
 -1       796 1.05635E-04 2.12353E-06-1.65436E-24
 -1       797 1.05692E-04 1.95977E-06 0.00000E+00
 -1       798 1.05748E-04 1.82216E-06-1.65436E-24
 -1       799 1.05805E-04 1.71653E-06 0.00000E+00
 -1       800 1.05862E-04 1.65288E-06 0.00000E+00
 -1       801 9.77474E-05 4.31961E-06 0.00000E+00
 -1       802 7.52373E-05 3.44276E-06 0.00000E+00
 -1       803 4.62370E-05 2.41660E-06 0.00000E+00
 -1       804 1.96850E-05 1.44776E-06 0.00000E+00
 -1       805 2.16198E-06 6.60960E-07 0.00000E+00
 -1       806 1.05061E-04 4.56053E-06 0.00000E+00
 -1       807 1.05098E-04 4.17949E-06 8.27181E-25
 -1       808 1.05127E-04 3.81573E-06 1.65436E-24
 -1       809 1.05149E-04 3.47269E-06 0.00000E+00
 -1       810 1.05161E-04 3.15382E-06-1.65436E-24
 -1       811 1.05163E-04 2.86247E-06 8.27181E-25
 -1       812 1.05153E-04 2.60201E-06-1.65436E-24
 -1       813 1.05131E-04 2.37579E-06 8.27181E-25
 -1       814 1.05094E-04 2.18716E-06 1.65436E-24
 -1       815 1.05042E-04 2.03944E-06 8.27181E-25
 -1       816 1.04974E-04 1.93599E-06 3.30872E-24
 -1       817 1.04888E-04 1.88013E-06 8.27181E-25
 -1       818 1.04782E-04 1.87519E-06 0.00000E+00
 -1       819 1.04657E-04 1.92449E-06 1.65436E-24
 -1       820 1.04510E-04 2.03134E-06 0.00000E+00
 -1       821 1.05822E-04 1.62002E-06 0.00000E+00
 -1       822 1.05719E-04 1.52836E-06 0.00000E+00
 -1       823 1.05617E-04 1.43499E-06 0.00000E+00
 -1       824 1.05514E-04 1.40861E-06 0.00000E+00
 -1       825 1.05411E-04 1.50365E-06 0.00000E+00
 -1       826 1.05308E-04 1.77399E-06 0.00000E+00
 -1       827 1.05204E-04 2.23630E-06 0.00000E+00
 -1       828 1.05101E-04 2.90641E-06 0.00000E+00
 -1       829 1.04997E-04 3.75601E-06 0.00000E+00
 -1       830 1.04893E-04 4.75599E-06 1.65436E-24
 -1       831 1.04789E-04 5.84537E-06 0.00000E+00
 -1       832 1.04685E-04 6.96269E-06 1.65436E-24
 -1       833 1.04582E-04 8.04059E-06 0.00000E+00
 -1       834 1.04479E-04 9.01190E-06 8.27181E-25
 -1       835 1.04377E-04 9.83198E-06 0.00000E+00
 -1       836 1.05813E-04 1.73414E-06-1.65436E-24
 -1       837 1.05595E-04 1.82905E-06 0.00000E+00
 -1       838 1.05300E-04 1.92379E-06 1.65436E-24
 -1       839 1.04968E-04 2.01791E-06 8.27181E-25
 -1       840 1.04636E-04 2.11188E-06 4.13590E-25
 -1       856 1.04255E-04 1.10435E-05 0.00000E+00
 -1       857 1.04226E-04 1.17413E-05-2.06795E-25
 -1       858 1.04197E-04 1.25328E-05 0.00000E+00
 -1       859 1.04167E-04 1.34005E-05 0.00000E+00
 -1       860 1.04138E-04 1.43267E-05 0.00000E+00
 -1       861 1.04108E-04 1.52937E-05-4.13590E-25
 -1       862 1.04079E-04 1.62839E-05 0.00000E+00
 -1       863 1.04049E-04 1.72793E-05 0.00000E+00
 -1       864 1.04019E-04 1.82623E-05-8.27181E-25
 -1       865 1.03989E-04 1.92151E-05 0.00000E+00
 -1       866 1.03960E-04 2.01198E-05 0.00000E+00
 -1       867 1.03930E-04 2.09590E-05 4.13590E-25
 -1       868 1.03900E-04 2.17148E-05 8.27181E-25
 -1       869 1.03871E-04 2.23699E-05 0.00000E+00
 -1       870 1.03841E-04 2.29069E-05 0.00000E+00
 -1       871 1.03909E-04 1.04558E-05 8.27181E-25
 -1       872 1.03648E-04 1.04524E-05 0.00000E+00
 -1       873 1.03449E-04 1.04486E-05 0.00000E+00
 -1       874 1.03264E-04 1.04443E-05 5.16988E-26
 -1       875 1.03044E-04 1.04394E-05 8.27181E-25
 -1       876 1.04159E-04 1.10534E-05 0.00000E+00
 -1       877 1.04020E-04 1.17040E-05-1.65436E-24
 -1       878 1.03864E-04 1.24022E-05 0.00000E+00
 -1       879 1.03691E-04 1.31419E-05 1.65436E-24
 -1       880 1.03506E-04 1.39169E-05 0.00000E+00
 -1       881 1.03310E-04 1.47213E-05 1.65436E-24
 -1       882 1.03105E-04 1.55489E-05 3.30872E-24
 -1       883 1.02893E-04 1.63937E-05-1.65436E-24
 -1       884 1.02678E-04 1.72496E-05 0.00000E+00
 -1       885 1.02460E-04 1.81106E-05-1.65436E-24
 -1       886 1.02243E-04 1.89706E-05 0.00000E+00
 -1       887 1.02028E-04 1.98236E-05 1.65436E-24
 -1       888 1.01818E-04 2.06635E-05 0.00000E+00
 -1       889 1.01615E-04 2.14840E-05 0.00000E+00
 -1       890 1.01421E-04 2.22792E-05-8.27181E-25
 -1       891 1.03502E-04 2.32637E-05 8.27181E-25
 -1       892 1.03174E-04 2.32189E-05 0.00000E+00
 -1       893 1.02804E-04 2.31742E-05-8.27181E-25
 -1       894 1.02372E-04 2.31295E-05 0.00000E+00
 -1       895 1.01856E-04 2.30849E-05 6.20385E-25
 -1       956 1.04243E-04 2.49160E-06 0.00000E+00
 -1       957 1.04144E-04 2.84729E-06 8.27181E-25
 -1       958 1.04044E-04 3.25923E-06 0.00000E+00
 -1       959 1.03943E-04 3.72019E-06 8.27181E-25
 -1       960 1.03843E-04 4.22296E-06-3.30872E-24
 -1       961 1.03743E-04 4.76026E-06 0.00000E+00
 -1       962 1.03642E-04 5.32482E-06 3.30872E-24
 -1       963 1.03542E-04 5.90935E-06 0.00000E+00
 -1       964 1.03441E-04 6.50659E-06 0.00000E+00
 -1       965 1.03341E-04 7.10924E-06 0.00000E+00
 -1       966 1.03241E-04 7.71002E-06 3.30872E-24
 -1       967 1.03140E-04 8.30166E-06 0.00000E+00
 -1       968 1.03040E-04 8.87686E-06 3.30872E-24
 -1       969 1.02940E-04 9.42839E-06 0.00000E+00
 -1       970 1.02840E-04 9.94899E-06 3.30872E-24
 -1       971 1.02649E-04 1.09320E-05-1.65436E-24
 -1       972 1.02554E-04 1.15145E-05 0.00000E+00
 -1       973 1.02460E-04 1.21700E-05-3.30872E-24
 -1       974 1.02365E-04 1.28891E-05 0.00000E+00
 -1       975 1.02270E-04 1.36624E-05 0.00000E+00
 -1       976 1.02175E-04 1.44805E-05 0.00000E+00
 -1       977 1.02081E-04 1.53338E-05-3.30872E-24
 -1       978 1.01986E-04 1.62130E-05 1.65436E-24
 -1       979 1.01891E-04 1.71086E-05 0.00000E+00
 -1       980 1.01796E-04 1.80111E-05-1.65436E-24
 -1       981 1.01701E-04 1.89111E-05 0.00000E+00
 -1       982 1.01606E-04 1.97990E-05 1.65436E-24
 -1       983 1.01512E-04 2.06655E-05 0.00000E+00
 -1       984 1.01417E-04 2.15010E-05 0.00000E+00
 -1       985 1.01324E-04 2.22961E-05-1.65436E-24
 -3
    1PSTEP                        12           6           1          
  100CL  106 5.39062E-01         409                     0    6           1
 -4  STRESS      6    1
 -5  SXX         1    4    1    1
 -5  SYY         1    4    2    2
 -5  SZZ         1    4    3    3
 -5  SXY         1    4    1    2
 -5  SYZ         1    4    2    3
 -5  SZX         1    4    3    1
 -1         1-2.25509E+06-9.61436E+05-4.76709E+05-1.24202E+06-4.22006E-10-6.66478E-09
 -1         2 2.61618E+03-2.84477E+05 8.52766E+03-8.15240E+02-1.10248E-10 4.27502E-09
 -1         3-2.56348E+02-1.07987E+06 1.35620E+02-7.13866E+02 2.65510E-10 1.29949E-08
 -1         5-2.25407E+00 2.82551E+05 7.29797E+00 9.44732E-02 3.63050E-11-8.53925E-09
 -1         8-1.07874E+06-3.95318E+05-1.03023E+05-5.57594E+05 1.72804E-10 1.30967E-10
 -1         9-2.17563E+06-7.10502E+05-2.71166E+05-6.72945E+05 5.06698E-09 2.00234E-09
 -1        10-4.50799E+02-1.10258E+06-1.14709E+03-4.47669E+03-1.83263E-09-3.30539E-09
 -1        12 7.40002E-01 2.82567E+05 2.36331E+02 7.47929E-01 1.03107E-10 1.17932E-08
 -1        15 2.00514E+03 1.10195E+03 6.48160E+03 4.38126E+00-9.80265E-11-7.38672E-09
 -1        16-2.84187E+06-1.24710E+06-4.62301E+05-1.32286E+06 1.09430E-08 2.32831E-09
 -1        17-1.27154E+06-7.17156E+05-2.45156E+05-6.36451E+05-5.60976E-09 3.41679E-09
 -1        18-4.00359E+04-1.45922E+04-3.17991E+04-7.35823E+04 5.27245E-09-8.05312E-09
 -1        19 8.97260E+04 1.05043E+05-6.32550E+02 1.75522E+04-3.60524E-10-2.79324E-09
 -1        20-4.22750E+04-4.24233E+05-9.39186E+04 2.86823E+04 2.82140E-09 4.91794E-09
 -1        21-3.90490E+01-2.40693E+05-7.72361E+02-5.49492E+01-3.91312E-09 8.34992E-09
 -1        24-3.10029E+06-7.87354E+05-3.53054E+05-1.12157E+06-3.84462E-08-1.81899E-08
 -1        25-5.16423E+04-3.64394E+05-6.67108E+04-1.20022E+05 4.77485E-11-2.59934E-09
 -1        26-2.71431E+04 7.00362E+04-1.57518E+04-7.35417E+03 1.51813E-09 9.81660E-09
 -1        27-6.49805E+04-2.31815E+05-8.65883E+04 5.23096E+04 6.15190E-09 1.05380E-09
 -1        28 1.85669E+04-6.70424E+04 1.36315E+04 2.04110E+04-6.66489E-11-2.02905E-09
 -1        32-1.08046E+06-1.02639E+06 1.81802E+05-5.74440E+05-2.41052E-08 4.23782E-09
 -1        33-1.34264E+05 6.74642E+04 2.40207E+04-3.58064E+04 6.76456E-10 6.75785E-09
 -1        34-1.71674E+05-1.73267E+04 4.29259E+02 5.36703E+04 1.66507E-09 8.30066E-10
 -1        35-1.89030E+04-2.66346E+04-1.04805E+03 4.19296E+04 4.33209E-09 4.25522E-09
 -1        51 2.08141E+04-3.54682E+05 5.09744E+04-9.67146E+05 2.91038E-11-6.54836E-10
 -1        52 1.13132E+04-3.51422E+05 3.19642E+04-1.12794E+06 6.47560E-10-1.11395E-08
 -1        53 7.34776E+03-3.65972E+05 2.48306E+04-9.63742E+05 3.63798E-10-2.11294E-08
 -1        54 2.03234E+04-3.64588E+05 3.69633E+04-1.13146E+06-6.25732E-10-4.07454E-09
 -1        55 3.98878E+04-3.78356E+05 6.42219E+04-9.63184E+05 9.45874E-10 1.59343E-08
 -1        56-4.31136E+06-4.82648E+05-3.50747E+05-1.66534E+06 4.43833E-10-3.09665E-08
 -1        57-4.46248E+06-7.90484E+05-2.36546E+05-1.64028E+06-3.37423E-10 2.91038E-11
 -1        58-4.38193E+06-5.93848E+05-8.24846E+04-1.64315E+06-1.92813E-09-1.08412E-09
 -1        59-4.38098E+06-6.59756E+05-4.92430E+04-1.66639E+06-1.05683E-09-5.55156E-09
 -1        60-4.39194E+06-6.09636E+05-1.92375E+04-1.64047E+06-3.80624E-10-1.87747E-08
 -1        61-4.37128E+06-6.39269E+05-1.09055E+04-1.66715E+06-4.12786E-09 2.57376E-09
 -1        62-4.39139E+06-6.13873E+05-5.20696E+03-1.64249E+06 5.30690E-10-1.00027E-09
 -1        63-4.37530E+06-6.31306E+05-4.16585E+03-1.66089E+06-1.60526E-09-6.81149E-09
 -1        64-4.38781E+06-6.17600E+05-4.68053E+03-1.64668E+06 1.66187E-09 1.54751E-09
 -1        65-4.38445E+06-6.25059E+05-9.25126E+03-1.65135E+06 1.40790E-09 5.76506E-09
 -1        66-4.38221E+06-6.20200E+05-1.62224E+04-1.65198E+06-3.41481E-09 7.27414E-09
 -1        67-4.40270E+06-6.32062E+05-4.12454E+04-1.63914E+06-3.66481E-09-3.27373E-09
 -1        68-4.36976E+06-6.10986E+05-6.91351E+04-1.65880E+06 8.03084E-10-1.57306E-08
 -1        69-4.47622E+06-7.36508E+05-1.98138E+05-1.61168E+06 1.57888E-09-1.93977E-08
 -1        70-4.30959E+06-5.18816E+05-2.93857E+05-1.67849E+06-3.41970E-10-8.52742E-09
 -1        86-1.31430E+03-2.87293E+05 9.10353E+03 4.07607E+02 1.10731E-09 1.17776E-08
 -1        87 8.69213E+03-2.81591E+05 1.90265E+04-1.57542E+03 1.83445E-09-2.00600E-09
 -1        88-7.36760E+03-2.90180E+05 2.91266E+04 1.16780E+03 2.63390E-09 6.05564E-09
 -1        89 5.48780E+04-2.60297E+05 7.85159E+04-2.89085E+03 3.98722E-09 5.96947E-09
 -1        90-4.73339E+04-3.08569E+05 1.11020E+05 1.72347E+03 3.82715E-09 1.09561E-08
 -1       121-3.64651E+02-1.08089E+06-3.65269E+01 3.56191E+02 1.71170E-10-1.03682E-09
 -1       122-2.02663E+02-1.07986E+06 2.68398E+02-1.42533E+03 2.21779E-09 3.94812E-09
 -1       123-3.90193E+02-1.08092E+06 2.49928E+02 1.06470E+03 8.46683E-10 1.17143E-09
 -1       124 3.54105E+02-1.07961E+06 1.06229E+03-3.02866E+03 4.81054E-09-1.87902E-09
 -1       125-7.33885E+02-1.08122E+06 1.39508E+03 1.95612E+03 1.46520E-09-8.69477E-10
 -1       191-2.61006E+00 2.82576E+05 8.87609E+00-4.74284E-02 7.72185E-11-6.14364E-10
 -1       192-2.92315E+00 2.82552E+05 1.54442E+01 4.26532E-01 9.84475E-11 3.62729E-09
 -1       193-4.38963E+00 2.82576E+05 2.88704E+01-3.80565E-01 8.44498E-11-6.36555E-09
 -1       194-5.07659E+00 2.82554E+05 5.83974E+01 1.01773E+00 5.55795E-11-5.72959E-09
 -1       195-7.80970E+00 2.82574E+05 1.14376E+02-6.41823E-01 2.25697E-10 1.19871E-09
 -1       251-1.09393E+06 5.03999E+03-1.20038E+04-9.28192E+03 1.57343E-10-1.10322E-09
 -1       252-1.09794E+06-5.80216E+03-8.24136E+03 1.14622E+04 3.23951E-10-9.31766E-09
 -1       253-1.09649E+06 7.22817E+02-3.24548E+03-4.73162E+03-1.00385E-10 6.92808E-10
 -1       254-1.09487E+06-8.59772E+02-1.59280E+03 8.03954E+02 6.07770E-10-2.43233E-10
 -1       255-1.09692E+06 6.00208E+01-9.28920E+02 1.37642E+03-4.64865E-10 6.49851E-09
 -1       256-1.09492E+06-8.09128E+01-1.30655E+02-1.05111E+04 1.36367E-09 7.99275E-09
 -1       257-1.09648E+06-2.11858E+01-1.08645E+02 6.58327E+03 3.16049E-10 1.53381E-09
 -1       258-1.09579E+06 1.20932E+02 3.07023E+02-1.79167E+04 1.33991E-09 5.34754E-09
 -1       259-1.09614E+06-6.92418E+01 6.08880E+02 8.78236E+03-1.23000E-09 3.02259E-09
 -1       260-1.09566E+06 5.34077E+02 1.50833E+03-1.84235E+04 8.79368E-10-6.06289E-09
 -1       261-1.09662E+06-4.26276E+02 2.51198E+03 7.09013E+03 1.85639E-09-1.85594E-09
 -1       262-1.09348E+06 3.05860E+03 6.54851E+03-1.18308E+04-1.60748E-09-9.70704E-09
 -1       263-1.09823E+06-2.65467E+03 9.96446E+03 2.18941E+03 0.00000E+00 4.64615E-09
 -1       264-1.08527E+06 1.94777E+04 2.79834E+04-8.38944E+02-1.09708E-09 1.39535E-08
 -1       265-1.10476E+06-1.68350E+04 3.90247E+04-3.90171E+03-9.30754E-10 1.08739E-08
 -1       266-3.62985E+04-1.69705E+04 8.51796E+04-9.37576E+01-1.67347E-10-3.69608E-08
 -1       267 4.20812E+04 1.97837E+04 6.01971E+04 1.08162E+02-9.54969E-11-5.83121E-08
 -1       268-5.64295E+03-2.80168E+03 2.23754E+04-1.37826E+01-1.58252E-10-4.20177E-08
 -1       269 6.66274E+03 3.35328E+03 1.45433E+04 1.60538E+01-1.94404E-10-2.91003E-08
 -1       270-1.00008E+03-5.50957E+02 7.02025E+03-2.17865E+00-2.07365E-10-1.33019E-08
 -1       271-3.41217E+06-4.27008E+05-2.59141E+05-1.32946E+06 1.46247E-09-2.91038E-09
 -1       272-3.50051E+06-6.20629E+05-1.66610E+05-1.33217E+06-3.05931E-09-1.54196E-08
 -1       273-3.46230E+06-4.90244E+05-6.12250E+04-1.31634E+06 1.27829E-09 5.18776E-09
 -1       274-3.44112E+06-5.43862E+05-3.42306E+04-1.35277E+06-1.45519E-09-4.30737E-09
 -1       275-3.47079E+06-4.95140E+05-1.42629E+04-1.31235E+06-1.16415E-10 8.12270E-09
 -1       276-3.43052E+06-5.38750E+05-7.54138E+03-1.35957E+06-2.92084E-09-2.35536E-09
 -1       277-3.47333E+06-4.94135E+05-3.70997E+03-1.31026E+06 1.64437E-09-4.26553E-10
 -1       278-3.42759E+06-5.40178E+05-2.66565E+03-1.36278E+06 2.33922E-09-9.37510E-09
 -1       279-3.47409E+06-4.93396E+05-2.84304E+03-1.30945E+06 6.66205E-11-1.35464E-08
 -1       280-3.42777E+06-5.41097E+05-5.21115E+03-1.36312E+06 2.36469E-11-8.24457E-09
 -1       281-3.47321E+06-4.93226E+05-9.48769E+03-1.30994E+06 1.01113E-09 1.67711E-09
 -1       282-3.43377E+06-5.45572E+05-2.27400E+04-1.35995E+06 3.99041E-10 1.22554E-09
 -1       283-3.46792E+06-4.89662E+05-4.05259E+04-1.31222E+06-1.94404E-10 4.24006E-09
 -1       284-3.47279E+06-5.96639E+05-1.10380E+05-1.34643E+06-1.45155E-09-1.01863E-10
 -1       285-3.43459E+06-4.47978E+05-1.71687E+05-1.32108E+06 1.42063E-09 6.80302E-09
 -1       301 2.11576E+04-5.27646E+04 1.56167E+05-1.01491E+05-7.05768E-10-2.96632E-09
 -1       302 2.22497E+04-1.32355E+04 1.03756E+05-1.49220E+05 1.00499E-09 8.70523E-09
 -1       303 1.12165E+03-3.73357E+04 8.16307E+04-1.01581E+05-6.20275E-10-4.01633E-09
 -1       304 2.77408E+04-7.55148E+03 1.22280E+05-1.48759E+05 8.42192E-10-8.56016E-09
 -1       305 2.68072E+04-5.74534E+04 1.97116E+05-1.01993E+05-4.87489E-10 7.11043E-09
 -1       306-5.67823E+06-6.12321E+05-4.29797E+05-2.14067E+06 5.02041E-10-3.23053E-09
 -1       307-5.62933E+06-1.15434E+06-2.79525E+05-2.29066E+06-2.58442E-08 8.20728E-09
 -1       308-5.82799E+06-6.62593E+05-1.00792E+05-2.00813E+06-1.23509E-09 1.13723E-08
 -1       309-5.46707E+06-1.09205E+06-5.84148E+04-2.46052E+06 1.16795E-08-1.14596E-10
 -1       310-5.85204E+06-6.63121E+05-2.27529E+04-1.98049E+06 8.88576E-10 6.28916E-09
 -1       311-5.47489E+06-1.02913E+06-9.30988E+03-2.41068E+06 2.19698E-08-7.80574E-09
 -1       312-5.81440E+06-7.29151E+05-1.23845E+04-2.05408E+06 1.75532E-09 1.13860E-08
 -1       313-5.59466E+06-8.65061E+05 4.42583E+03-2.20349E+06 1.48148E-08-2.55604E-08
 -1       314-5.71909E+06-8.36551E+05-1.61635E+04-2.17788E+06 6.89761E-09-1.69548E-08
 -1       315-5.80902E+06-6.67608E+05-6.65734E+03-1.98003E+06-8.42829E-09 8.78481E-09
 -1       316-5.60400E+06-9.23778E+05-2.96604E+04-2.28006E+06-2.10111E-08-1.60089E-08
 -1       317-5.99742E+06-5.65015E+05-6.68019E+04-1.85080E+06 3.09292E-08-4.79031E-09
 -1       318-5.54439E+06-9.30009E+05-1.12866E+05-2.31745E+06-2.36723E-08 1.30240E-08
 -1       319-6.08895E+06-7.69224E+05-3.26962E+05-1.82881E+06-1.12777E-08-3.51429E-09
 -1       320-5.51179E+06-7.23672E+05-4.88687E+05-2.29983E+06 1.49739E-08-1.80444E-09
 -1       336 1.60273E+02-1.12550E+06-4.29722E+03 2.50906E+03-1.15556E-08-2.54477E-09
 -1       337-1.67562E+03-1.12606E+06-5.73518E+03-6.06389E+03-2.10161E-08 6.67933E-09
 -1       338 3.78012E+02-1.12533E+06-8.70196E+03 3.53659E+03-1.47506E-08-6.57019E-09
 -1       339-9.45712E+03-1.13103E+06-1.99275E+04-8.07034E+03-2.64026E-08 1.45519E-09
 -1       340 6.37437E+03-1.12079E+06-3.12031E+04 4.49768E+03-1.74114E-08 1.38789E-08
 -1       406 1.89389E+01 2.82563E+05 4.66727E+02-1.12936E-01 2.15351E-10 1.73250E-08
 -1       407 1.63396E+02 2.82648E+05 9.91616E+02-4.04820E+00-1.96394E-11 5.84714E-09
 -1       408 5.11283E+02 2.82492E+05 1.98064E+03 4.25973E+00 2.42153E-10-6.44400E-09
 -1       409 2.14202E+03 2.83281E+05 4.45862E+03-4.19309E+01-9.18590E-11-4.01997E-09
 -1       410 6.15306E+03 2.81929E+05 9.10221E+03 3.94604E+01 2.36469E-10 2.37151E-10
 -1       521-8.17706E+06-7.91247E+05-7.91450E+05-2.55295E+06-1.08557E-08 7.97445E-09
 -1       522-5.66320E+06-2.10059E+06-2.02156E+05-3.95422E+06-9.26120E-08-3.11629E-08
 -1       523-8.17468E+06-3.37271E+05-1.55783E+05-1.79503E+06 1.13941E-08-6.10307E-08
 -1       524-6.03512E+06-2.27892E+06-3.54391E+04-4.96342E+06 1.08128E-07-9.87313E-08
 -1       525-8.17451E+06-3.36744E+05-4.32431E+04-1.76400E+06 6.56510E-08-5.19012E-08
 -1       526-5.57791E+06-1.94512E+06 1.34445E+05-4.10194E+06-6.81030E-09-5.26416E-09
 -1       527-8.29677E+06-9.17302E+05-2.16304E+05-2.46036E+06 1.49594E-08 2.47965E-08
 -1       528-5.75164E+06-8.97049E+05 2.72346E+05-2.31095E+06 2.68337E-08 3.05299E-08
 -1       529-7.65817E+06-1.62524E+06-2.35420E+05-3.26976E+06 4.21715E-08 4.04543E-09
 -1       530-7.76659E+06 4.05590E+05 1.59025E+05-1.31851E+06-1.28202E-07 6.87469E-08
 -1       531-6.59696E+06-1.98802E+06-6.22034E+04-3.64453E+06-1.47746E-07-1.03573E-08
 -1       532-9.30608E+06 1.00297E+06-3.01189E+04-1.22981E+06 4.52892E-08-8.91755E-08
 -1       533-6.45452E+06-1.99367E+06-1.30226E+05-3.67254E+06 3.79368E-08-1.57004E-07
 -1       534-8.31175E+06 4.07950E+05-2.05727E+05-1.23128E+06-2.36323E-08 1.06781E-07
 -1       535-7.34954E+06-1.56111E+06-7.40582E+05-3.40802E+06-4.56930E-09 7.70233E-08
 -1       536-3.91507E+05-1.91566E+04 3.30992E+04-1.35057E+04-3.54441E-09 1.77206E-08
 -1       537-3.31173E+05 2.14644E+04 3.14611E+04 3.24294E+04-3.54834E-08 4.18477E-08
 -1       538-3.62182E+05-2.05849E+03 9.95322E+03-1.97939E+04 3.29899E-09 3.82347E-08
 -1       539-3.48913E+05 3.04252E+03 8.24211E+03 3.54323E+04 4.52361E-08 2.82107E-08
 -1       540-3.74017E+05-5.38625E+02-4.46358E+00-1.65160E+04 8.55914E-09 2.50822E-08
 -1       541-3.11593E+05 2.01830E+03 1.12555E+04 2.03210E+04-3.15305E-09 2.28597E-08
 -1       542-3.98496E+05-1.86537E+03-7.06018E+03-4.66197E+03 1.76231E-08 7.90658E-09
 -1       543-2.94812E+05 2.27796E+03 1.33231E+04-6.00042E+03 5.36784E-09-1.30683E-08
 -1       544-3.90361E+05-1.16874E+03-6.38161E+03 9.78565E+03-1.01068E-10-2.17745E-08
 -1       545-3.30362E+05 1.30418E+02 4.66654E+03-2.91629E+04-2.88804E-09-2.29510E-08
 -1       546-3.63867E+05 1.04018E+03-3.12229E+03 1.84964E+04 6.24715E-09-2.24119E-08
 -1       547-3.55399E+05-3.40684E+03-5.27095E+03-3.71037E+04-3.42762E-08-3.21910E-08
 -1       548-3.65942E+05 2.88350E+03-1.17829E+04 1.77420E+04-3.29453E-08-2.74285E-08
 -1       549-3.31722E+05-1.71651E+04-2.07784E+04-2.62667E+04-2.05810E-08-1.11868E-10
 -1       550-3.86746E+05 1.41248E+04-4.82471E+04 7.64086E+03 9.98853E-10-1.63782E-08
 -1       551 1.73183E+04-5.80426E+05 2.44081E+04-9.65348E+05-4.72210E-08-4.46744E-09
 -1       552 3.92679E+04-5.92051E+05 3.18217E+04-1.37497E+06-3.48082E-08 1.99070E-08
 -1       553 2.79818E+04-5.97977E+05 4.65859E+04-9.61714E+05-5.51663E-08 1.55924E-08
 -1       554 6.58949E+04-5.87794E+05 9.75927E+04-1.37640E+06-3.61470E-08 7.37964E-09
 -1       555 5.61495E+04-6.16612E+05 1.73338E+05-9.62659E+05-5.78657E-08-6.19548E-09
 -1       556 1.00679E+05-1.86375E+05 6.21491E+04-2.35482E+05-1.24273E-08-1.66328E-08
 -1       557 1.76311E+05-2.47496E+05 3.29007E+04-2.96102E+05-1.04774E-09-2.17915E-09
 -1       558 9.88441E+04-1.93785E+05 1.29082E+04-2.29192E+05-6.27188E-09-2.85581E-09
 -1       559 1.64085E+05-2.55418E+05 6.67651E+03-3.02046E+05 6.46833E-09-4.81123E-09
 -1       560 9.52944E+04-1.91483E+05 2.53253E+03-2.31552E+05 3.63798E-09 1.03137E-08
 -1       561 1.58987E+05-2.53835E+05 1.43799E+03-3.05313E+05 5.38421E-10 1.31113E-08
 -1       562 9.24731E+04-1.89645E+05 4.33810E+02-2.33579E+05 5.60249E-10-7.23412E-09
 -1       563 1.55674E+05-2.52401E+05 3.51893E+02-3.07438E+05-4.85306E-09-2.10775E-08
 -1       564 9.06381E+04-1.88477E+05 9.51880E+01-2.34877E+05 7.84348E-09 6.32053E-09
 -1       565 1.53805E+05-2.51592E+05 1.13520E+02-3.08619E+05 4.72028E-09 6.95582E-09
 -1       566 8.98372E+04-1.87960E+05 1.60176E+01-2.35445E+05-1.87356E-09-5.52973E-10
 -1       567 1.53338E+05-2.51377E+05-5.93152E+01-3.08834E+05 9.17987E-09 2.96859E-09
 -1       568 9.01107E+04-1.88142E+05-2.96454E+02-2.35332E+05-4.20368E-09 5.62068E-09
 -1       569 1.53499E+05-2.51257E+05-7.13489E+02-3.07364E+05-6.34464E-09 3.59069E-09
 -1       570 9.20983E+04-1.89799E+05-1.67341E+03-2.35117E+05 3.26690E-09 4.28463E-09
 -1       571 2.09282E+05 7.70850E+03 1.13809E+04-5.42871E+04 6.84850E-10-3.48200E-09
 -1       572 2.10971E+05 2.70372E+03 5.57614E+03-5.95264E+04 1.01227E-09-1.07557E-08
 -1       573 2.09958E+05 6.67102E+02 2.47726E+03-5.41558E+04 3.21052E-09-1.62299E-09
 -1       574 2.10154E+05 2.41640E+02 1.24136E+03-5.96754E+04 2.84558E-09-1.61481E-09
 -1       575 2.10033E+05 5.98677E+01 5.85260E+02-5.41385E+04 2.00453E-09 4.27872E-09
 -1       576 2.10044E+05 4.23846E+01 2.98329E+02-5.96952E+04 1.97339E-10 8.69568E-09
 -1       577 2.10046E+05 2.58674E+01 1.47602E+02-5.41362E+04 1.01043E-08 2.74440E-09
 -1       578 2.10038E+05 2.98713E+01 8.18785E+01-5.96977E+04 1.69675E-08-4.45107E-09
 -1       579 2.10064E+05 2.02452E+01 5.23382E+01-5.41361E+04 7.20138E-09-2.33058E-09
 -1       580 2.10062E+05 1.92323E+01 5.29507E+01-5.96945E+04-3.84352E-09 1.51931E-09
 -1       581 2.10094E+05 7.96715E+00 7.57745E+01-5.41394E+04-4.31100E-10-9.36780E-10
 -1       582 2.10116E+05 2.06374E+01 1.47972E+02-5.96613E+04 1.87356E-10-3.99950E-09
 -1       583 2.10130E+05 5.28687E+01 2.85139E+02-5.41693E+04 1.82263E-09-6.50948E-09
 -1       584 2.10266E+05 2.76994E+02 6.40822E+02-5.94102E+04 2.45564E-11 6.30394E-10
 -1       585 2.10103E+05 8.39052E+02 1.30130E+03-5.43909E+04-1.44519E-09-3.70164E-09
 -1       586-2.49537E+03 6.91147E+04-3.14925E+03-1.86566E+05-4.52019E-10 1.63004E-09
 -1       587-5.52635E+02 6.87120E+04-1.54634E+02-2.05332E+05-4.01997E-10-1.45891E-08
 -1       588 7.23129E+02 6.87643E+04 2.72010E+03-1.86467E+05-5.29326E-10-7.54426E-09
 -1       589 3.78503E+03 7.02392E+04 7.65067E+03-2.05134E+05-3.03771E-10-1.49844E-08
 -1       590 1.10266E+04 6.78972E+04 1.62827E+04-1.86772E+05-8.94033E-10-1.47220E-08
 -1       591-4.45259E+04-1.21064E+04-1.48909E+04-2.22265E+04 2.77396E-10-9.21591E-09
 -1       592-4.62271E+04-1.54575E+04-8.06564E+03-2.57615E+04 9.98398E-10-2.59566E-08
 -1       593-4.60270E+04-1.10138E+04-3.35770E+03-2.33067E+04 9.72932E-10-5.12364E-09
 -1       594-4.41569E+04-1.32880E+04-1.67464E+03-2.58587E+04 6.72344E-10 5.82830E-09
 -1       595-4.61420E+04-1.10091E+04-7.69457E+02-2.33561E+04-6.68933E-10 1.91829E-09
 -1       596-4.40164E+04-1.31887E+04-3.92036E+02-2.58435E+04 2.64957E-09 2.44384E-09
 -1       597-4.61565E+04-1.10188E+04-2.15370E+02-2.33581E+04-7.85590E-10-1.02831E-08
 -1       598-4.40028E+04-1.31849E+04-1.76612E+02-2.58393E+04-8.42419E-10-5.84771E-09
 -1       599-4.61553E+04-1.10190E+04-2.29951E+02-2.33577E+04-3.57772E-10-2.77623E-10
 -1       600-4.40175E+04-1.31899E+04-4.30649E+02-2.58428E+04-4.39343E-10-7.56825E-09
 -1       601-4.61372E+04-1.10088E+04-8.51408E+02-2.33547E+04-1.05274E-10-7.23935E-09
 -1       602-4.41729E+04-1.32997E+04-1.85649E+03-2.58572E+04-1.09947E-09-2.19507E-09
 -1       603-4.60081E+04-1.10161E+04-3.72357E+03-2.33001E+04 7.47150E-10-1.16779E-09
 -1       604-4.64777E+04-1.56954E+04-8.94454E+03-2.57361E+04-5.51154E-10 6.33645E-09
 -1       605-4.43317E+04-1.22368E+04-1.65134E+04-2.21122E+04 1.17177E-09 9.10313E-09
 -1       606 2.76104E+04-1.00576E+04-1.80929E+04 2.67865E+04-2.52476E-09 1.52977E-09
 -1       607 2.45128E+04-3.25223E+03-9.00924E+03 3.00721E+04-3.67436E-09 6.89397E-10
 -1       608 2.62690E+04-5.56125E+02-4.03457E+03 2.65749E+04-1.03410E-08-2.63049E-09
 -1       609 2.59200E+04-1.52188E+02-2.03770E+03 3.03079E+04-1.90239E-08 5.72231E-09
 -1       610 2.61057E+04 1.74487E+01-9.73371E+02 2.65511E+04-8.95488E-09 8.14771E-09
 -1       611 2.60403E+04 3.01198E+01-4.90806E+02 3.03336E+04-4.49018E-09 1.33468E-10
 -1       612 2.60615E+04 3.39838E+01-2.34681E+02 2.65487E+04-1.12441E-08-7.63430E-09
 -1       613 2.60371E+04 3.93858E+01-1.06467E+02 3.03366E+04-2.61084E-08-4.52610E-09
 -1       614 2.60372E+04 3.51021E+01-2.86991E+01 2.65479E+04-1.65455E-08 1.18871E-09
 -1       615 2.60243E+04 4.54178E+01 3.59585E+01 3.03371E+04 1.08048E-09 4.70482E-09
 -1       616 2.60186E+04 4.13913E+01 1.15744E+02 2.65482E+04-4.06635E-09 6.79643E-09
 -1       617 2.60314E+04 7.42989E+01 2.67386E+02 3.03365E+04 2.25191E-09-8.92919E-09
 -1       618 2.59903E+04 1.21709E+02 5.40048E+02 2.65483E+04 2.22690E-09-3.10365E-10
 -1       619 2.62180E+04 4.94539E+02 1.21355E+03 3.03357E+04-3.17641E-10-7.41466E-09
 -1       620 2.58083E+04 1.40483E+03 2.43934E+03 2.65472E+04 2.10537E-09 2.27283E-09
 -1       621 3.00501E+02 2.20515E+05 2.69051E+03 1.13280E+04-1.57343E-10 1.07250E-08
 -1       622 3.54365E+02 2.21177E+05 2.39081E+03 1.65072E+04-6.20730E-11-8.36462E-09
 -1       623 1.74143E+01 2.20688E+05 2.88892E+03 1.12742E+04-7.89981E-11-6.90557E-09
 -1       624 1.34765E+03 2.22082E+05 5.60765E+03 1.65613E+04-1.08230E-10-1.64795E-09
 -1       625 1.35455E+03 2.19595E+05 9.80599E+03 1.12738E+04 4.18368E-11 4.68822E-09
 -1       626 1.88395E+05 5.08071E+04 3.92971E+03 9.98685E+04-1.06820E-09 4.27826E-09
 -1       627 1.86012E+05 5.24822E+04 1.89370E+03 1.03822E+05 2.98360E-09 5.89182E-09
 -1       628 1.88525E+05 4.89667E+04 7.99912E+02 1.00482E+05 9.73887E-09 3.09285E-08
 -1       629 1.85464E+05 5.20144E+04 3.91913E+02 1.04056E+05 3.49610E-09 6.77773E-09
 -1       630 1.88533E+05 4.88803E+04 1.81086E+02 1.00500E+05 2.37651E-09 4.84704E-09
 -1       631 1.85398E+05 5.20026E+04 9.70731E+01 1.04057E+05-6.59156E-09-8.79709E-09
 -1       632 1.88523E+05 4.88873E+04 6.32464E+01 1.00492E+05-5.73982E-09-7.42375E-10
 -1       633 1.85384E+05 5.20079E+04 6.95401E+01 1.04049E+05-5.55315E-09 1.19961E-08
 -1       634 1.88513E+05 4.88883E+04 1.11490E+02 1.00487E+05 2.49202E-09 2.33263E-09
 -1       635 1.85389E+05 5.20094E+04 2.25338E+02 1.04049E+05 5.71617E-10-4.82532E-09
 -1       636 1.88501E+05 4.88871E+04 4.54770E+02 1.00484E+05-1.08741E-09 1.24526E-08
 -1       637 1.85483E+05 5.20815E+04 9.99372E+02 1.04045E+05 2.46132E-10 1.81494E-08
 -1       638 1.88463E+05 4.91095E+04 2.05365E+03 1.00382E+05-1.11618E-09 4.73938E-09
 -1       639 1.86559E+05 5.35825E+04 4.85836E+03 1.03725E+05-4.89854E-09-5.04588E-09
 -1       640 1.88319E+05 5.35824E+04 1.00821E+04 9.84854E+04 1.11231E-09-4.69572E-09
 -1       656 5.03257E+04-1.27643E+06-1.21485E+05-4.35040E+02 9.53150E-10-1.81643E-10
 -1       657-6.65189E+04-1.33127E+06-1.00508E+05 7.57109E+03-4.32010E-10-2.60844E-09
 -1       658 1.59784E+04-1.29206E+06-6.17281E+04-1.77334E+03 7.74207E-10-5.35472E-10
 -1       659-7.14634E+04-1.33362E+06-1.07002E+05 8.50193E+03 2.54659E-11 1.12975E-08
 -1       660 5.52586E+04-1.27410E+06-1.32653E+05-1.36587E+03-2.18279E-11 7.87897E-09
 -1       661 1.68157E+05 1.82282E+04 1.63612E+04 6.57485E+04 1.38243E-09-4.39104E-09
 -1       662 1.76818E+05 3.09239E+04 1.10249E+04 6.27478E+04-1.55978E-10-4.02576E-09
 -1       663 1.71366E+05 2.34803E+04 3.85650E+03 6.48204E+04-9.73728E-10-3.07227E-09
 -1       664 1.73102E+05 2.47775E+04 2.30592E+03 6.38778E+04-7.89186E-10-3.15518E-09
 -1       665 1.71849E+05 2.42019E+04 9.09619E+02 6.46837E+04-4.96902E-09 8.64475E-10
 -1       666 1.72535E+05 2.39490E+04 5.30793E+02 6.40539E+04-3.16042E-09 9.20346E-09
 -1       667 1.71930E+05 2.42872E+04 2.80214E+02 6.46524E+04-7.93705E-10 5.82209E-09
 -1       668 1.72447E+05 2.38832E+04 2.81596E+02 6.40993E+04 1.79823E-09-1.32539E-09
 -1       669 1.71936E+05 2.42657E+04 3.78002E+02 6.46389E+04 3.35531E-09-2.86545E-09
 -1       670 1.72540E+05 2.40850E+04 8.20104E+02 6.41001E+04 4.42555E-09-1.84198E-09
 -1       671 1.71837E+05 2.40895E+04 1.45513E+03 6.46498E+04-1.85188E-09-2.40976E-09
 -1       672 1.73388E+05 2.55005E+04 3.72213E+03 6.38954E+04-4.06444E-09 1.59434E-09
 -1       673 1.71093E+05 2.28857E+04 6.23738E+03 6.48301E+04 2.42494E-10-1.00438E-08
 -1       674 1.79327E+05 3.55196E+04 1.78375E+04 6.21494E+04 8.94943E-10-1.56190E-08
 -1       675 1.65937E+05 1.43506E+04 2.64766E+04 6.62902E+04 2.03636E-09 3.00679E-09
 -1       676 2.00445E+01-2.40629E+05-9.30895E+02 2.74753E+01 9.47011E-11 5.76603E-10
 -1       677-2.47163E+02-2.40854E+05-1.70366E+03-5.49192E+01-1.02179E-09-1.35049E-08
 -1       678 1.65027E+02-2.40468E+05-3.01162E+03 2.74251E+01-1.26079E-10-7.90449E-09
 -1       679-3.01239E+03-2.42671E+05-7.15417E+03-5.47268E+01-2.90697E-09-4.06390E-09
 -1       680 1.79782E+03-2.38811E+05-1.15301E+04 2.69707E+01-8.26276E-10-5.09568E-09
 -1       771-2.56515E+06-4.90969E+05-7.15289E+04-1.10897E+06-1.49957E-08-1.22818E-08
 -1       772-2.53619E+06-5.35285E+05-3.78647E+04-1.15907E+06-7.79983E-09 5.53882E-09
 -1       773-2.57677E+06-4.81820E+05-1.73012E+04-1.11314E+06-1.77533E-09 1.00554E-08
 -1       774-2.52738E+06-5.27594E+05-8.16126E+03-1.16642E+06 1.14378E-08-1.39335E-09
 -1       775-2.58090E+06-4.78928E+05-4.80122E+03-1.11404E+06-1.20781E-09 1.45519E-09
 -1       776-2.52865E+06-5.27550E+05-2.02595E+03-1.17118E+06-1.49885E-09 3.15777E-09
 -1       777-2.58417E+06-4.76518E+05-1.68841E+03-1.11477E+06 1.65892E-09 2.12458E-09
 -1       778-2.53042E+06-5.27665E+05-5.87422E+02-1.17519E+06 2.37196E-09 4.54202E-09
 -1       779-2.58687E+06-4.74466E+05-7.67258E+02-1.11542E+06-1.44064E-09-3.96176E-09
 -1       780-2.53203E+06-5.27726E+05-2.75911E+02-1.17844E+06-3.98722E-09 2.18279E-11
 -1       781-2.58895E+06-4.72835E+05-5.20501E+02-1.11592E+06-1.58398E-08-4.03816E-10
 -1       782-2.53330E+06-5.27762E+05-5.14517E+02-1.18083E+06-1.74841E-08-2.27351E-09
 -1       783-2.59036E+06-4.71736E+05-1.05729E+03-1.11627E+06-8.20728E-09-5.82099E-09
 -1       784-2.53466E+06-5.28372E+05-2.31123E+03-1.18225E+06-1.66256E-08 2.40470E-09
 -1       785-2.59066E+06-4.71486E+05-4.31367E+03-1.11614E+06-2.21862E-08 2.75486E-09
 -1       786 1.58302E+05-9.44426E+03 2.18494E+04-7.41010E+01 1.77310E-09-8.00355E-10
 -1       787 1.67772E+05 1.09335E+04 1.54578E+04 1.77578E+01 1.66259E-09 1.50339E-09
 -1       788 1.61955E+05-1.48047E+03 5.65461E+03-5.62337E+01 1.15625E-09 7.53221E-09
 -1       789 1.63517E+05 1.71292E+03 3.55204E+03-1.15812E+01-1.06608E-10 8.11366E-09
 -1       790 1.62558E+05-2.31180E+02 1.44348E+03-4.47644E+01-2.48550E-11-2.14516E-09
 -1       791 1.62813E+05 2.68075E+02 8.43972E+02-3.24051E+01-1.39620E-09-4.92980E-09
 -1       792 1.62660E+05-3.67080E+01 3.78204E+02-3.54098E+01-9.93656E-10 2.28003E-09
 -1       793 1.62697E+05 4.81764E+01 2.33614E+02-5.16638E+01-9.22557E-10-3.39224E-09
 -1       794 1.62674E+05-1.14231E+01 1.51307E+02-2.55054E+01 6.28618E-10-6.53851E-09
 -1       795 1.62696E+05 5.06604E+01 1.87443E+02-7.46799E+01-4.17114E-10 1.09052E-08
 -1       796 1.62660E+05-3.91870E+01 2.61766E+02-1.23933E+01 4.00643E-10 1.73478E-09
 -1       797 1.62810E+05 2.85385E+02 6.01502E+02-1.07600E+02 3.13394E-10 1.95863E-09
 -1       798 1.62561E+05-2.45977E+02 9.44356E+02 7.41566E+00-1.22542E-10 1.71281E-09
 -1       799 1.63517E+05 1.81596E+03 2.57002E+03-1.59313E+02 1.97835E-10-4.70797E-09
 -1       800 1.61953E+05-1.56854E+03 3.62892E+03 3.93201E+01 1.48130E-10 2.43517E-09
 -1       801 5.13401E+04-1.87617E+06-1.69769E+05 3.42720E+04 1.47484E-08-3.07546E-09
 -1       802-5.72654E+04-1.71163E+06-6.62537E+04-6.15752E+04 4.07199E-08-2.02544E-09
 -1       803 5.24916E+03-1.78826E+06-1.01436E+04 8.75606E+04 3.17705E-08 2.38797E-08
 -1       804 5.18017E+04-1.65800E+06 7.73678E+04-4.15541E+04 3.41461E-08 2.66567E-08
 -1       805-5.84503E+04-1.92918E+06 7.62965E+04 1.42431E+04 1.26820E-08 1.99270E-08
 -1       806-2.29137E+05-4.60576E+04-1.80674E+04-9.23208E+04 2.45882E-09-3.44153E-09
 -1       807-2.30474E+05-4.31950E+04-8.87622E+03-9.67958E+04 2.87400E-09-4.89587E-09
 -1       808-2.29633E+05-3.95464E+04-3.76539E+03-9.54015E+04-3.81215E-09 2.20734E-09
 -1       809-2.28597E+05-4.07123E+04-1.84100E+03-9.70290E+04-3.18778E-09 9.50922E-09
 -1       810-2.29710E+05-3.93183E+04-8.43278E+02-9.55379E+04-2.70302E-09-1.55296E-10
 -1       811-2.28453E+05-4.06131E+04-4.18696E+02-9.70041E+04-2.64663E-09-1.16062E-08
 -1       812-2.29723E+05-3.93364E+04-2.10065E+02-9.55376E+04-4.24052E-09 3.91242E-09
 -1       813-2.28434E+05-4.06151E+04-1.34124E+02-9.69914E+04-9.66270E-09-1.92733E-09
 -1       814-2.29720E+05-3.93432E+04-1.28671E+02-9.55347E+04-7.43057E-09-6.66205E-11
 -1       815-2.28436E+05-4.06170E+04-2.03918E+02-9.69874E+04 7.58746E-10 1.68257E-10
 -1       816-2.29706E+05-3.93418E+04-3.83896E+02-9.55322E+04-1.60435E-09 9.60608E-09
 -1       817-2.28502E+05-4.06537E+04-8.23484E+02-9.69802E+04-2.09002E-09 7.11816E-09
 -1       818-2.29657E+05-3.94572E+04-1.67878E+03-9.54775E+04 1.74987E-09-4.41560E-10
 -1       819-2.29425E+05-4.16654E+04-3.95078E+03-9.67611E+04-1.02091E-09 1.94905E-09
 -1       820-2.29343E+05-4.24398E+04-8.04076E+03-9.42001E+04 7.16682E-10 7.03290E-09
 -1       821-2.88520E+05 1.59595E+04-3.69089E+04 2.43899E+02 1.23833E-09-3.11047E-10
 -1       822-3.04512E+05-1.84758E+04-2.61182E+04-9.24844E+02-1.85081E-09-3.11456E-09
 -1       823-2.94691E+05 2.50237E+03-9.55925E+03 2.47498E+02 2.76095E-10 3.52111E-09
 -1       824-2.97309E+05-2.89605E+03-6.01375E+03-7.61079E+02-2.90006E-10 6.38136E-09
 -1       825-2.95721E+05 3.91450E+02-2.47382E+03 8.01314E+01-1.63593E-09-9.24047E-10
 -1       826-2.96106E+05-4.61369E+02-1.48921E+03-3.29410E+02-3.09024E-09 6.48055E-09
 -1       827-2.95893E+05 6.90441E+01-7.76141E+02-1.84179E+02-3.17724E-09-4.35955E-09
 -1       828-2.95945E+05-1.40814E+02-6.81720E+02 1.82083E+02-5.05489E-09 4.44339E-09
 -1       829-2.95881E+05 7.11945E+01-7.89882E+02-4.31370E+02-8.42135E-11 8.60331E-09
 -1       830-2.96140E+05-4.76683E+02-1.54015E+03 5.52448E+02 2.45002E-09 6.80396E-09
 -1       831-2.95698E+05 4.05128E+02-2.55317E+03-5.54552E+02-3.83705E-09-4.26917E-09
 -1       832-2.97371E+05-2.99465E+03-6.22182E+03 6.22124E+02-1.83651E-09-1.77079E-09
 -1       833-2.94651E+05 2.58746E+03-9.88836E+03-5.01046E+02-2.36119E-09 1.39985E-08
 -1       834-3.04790E+05-1.91091E+04-2.70127E+04 3.61496E+02-1.20640E-09 7.67477E-09
 -1       835-2.88281E+05 1.65068E+04-3.81826E+04-2.93911E+02 4.94333E-09 1.31877E-09
 -1       836-9.70485E+02 2.71752E+05 1.64433E+04-1.99756E+04 6.78483E-10 7.77163E-09
 -1       837 3.60094E+03 2.76854E+05 1.40555E+04-4.01368E+04 1.24305E-09-3.11411E-09
 -1       838-3.63807E+02 2.73165E+05 1.45177E+04-1.99043E+04 1.15324E-09-1.95064E-09
 -1       839 9.31001E+03 2.81108E+05 2.76565E+04-4.01693E+04 1.83127E-09 6.42471E-09
 -1       840-2.81080E+03 2.67456E+05 4.41842E+04-1.99418E+04 1.21327E-09 2.47405E-09
 -1       856-8.00121E+04 7.44249E+03-1.96132E+04-4.30364E+02-2.49548E-09-6.14182E-09
 -1       857-8.81116E+04-8.72997E+03-1.35030E+04 4.57859E+03-3.09987E-09-1.13705E-08
 -1       858-8.32127E+04 1.04283E+03-5.09006E+03-4.51812E+02-3.75383E-09 1.08821E-09
 -1       859-8.44366E+04-1.21312E+03-3.07377E+03 4.61264E+03-1.96957E-09 3.13537E-09
 -1       860-8.36912E+04 1.45061E+02-1.29177E+03-4.64524E+02-6.80274E-10 8.01731E-09
 -1       861-8.38857E+04-1.60566E+02-7.18094E+02 4.63005E+03-6.98464E-09-8.94018E-09
 -1       862-8.37656E+04 1.91648E+01-3.13492E+02-4.69250E+02 2.87885E-09-1.76860E-09
 -1       863-8.37970E+04-1.11545E+01-1.48223E+02 4.63224E+03 4.90584E-09 4.58624E-09
 -1       864-8.37801E+04-1.04500E+00-3.28092E+01-4.66719E+02 1.20315E-09-2.39641E-09
 -1       865-8.37665E+04 3.01689E+01 6.62594E+01 4.61936E+03 2.45393E-09 2.38406E-09
 -1       866-8.37945E+04-2.25966E+01 1.72805E+02-4.56375E+02-2.33265E-09 1.61589E-09
 -1       867-8.36745E+04 1.88666E+02 4.50731E+02 4.59126E+03 7.52323E-11-4.83791E-09
 -1       868-8.38687E+04-1.57911E+02 7.54886E+02-4.38613E+02 1.52818E-09-6.59941E-09
 -1       869-8.31130E+04 1.31147E+03 2.01963E+03 4.54478E+03-3.08432E-09-1.34125E-08
 -1       870-8.43507E+04-1.11670E+03 2.92936E+03-4.09896E+02-1.26283E-09-1.04482E-08
 -1       871-4.29393E+03-9.74570E+03-1.40193E+04 9.25390E+04 1.87902E-09-3.56249E-09
 -1       872-1.84169E+03-1.28974E+04-5.73588E+03 1.19974E+05 2.09366E-09-1.16161E-08
 -1       873-1.79341E+01-1.14246E+04 7.61853E+02 9.23360E+04-4.57931E-10 1.77579E-09
 -1       874 2.15704E+03-9.42175E+03 7.82437E+03 1.20013E+05 2.71370E-09 3.55658E-09
 -1       875 5.05547E+03-1.32804E+04 1.73880E+04 9.25063E+04 8.31278E-10 6.41785E-09
 -1       876 2.26388E+05 3.88811E+04 1.20086E+04 9.17032E+04-9.47011E-10 3.19960E-09
 -1       877 2.27094E+05 4.14980E+04 6.41291E+03 9.52335E+04-1.82877E-09 7.17500E-09
 -1       878 2.27510E+05 3.75523E+04 2.68670E+03 9.26894E+04-1.88402E-09-2.77964E-09
 -1       879 2.25461E+05 3.98707E+04 1.33845E+03 9.53176E+04 7.12475E-10-1.95723E-09
 -1       880 2.27591E+05 3.75379E+04 6.23192E+02 9.27296E+04-1.68416E-09 6.31178E-09
 -1       881 2.25352E+05 3.98015E+04 3.32125E+02 9.53001E+04-7.29233E-09 6.05408E-09
 -1       882 2.27599E+05 3.75479E+04 2.11324E+02 9.27308E+04 9.15406E-10 2.10994E-09
 -1       883 2.25344E+05 3.97982E+04 2.25323E+02 9.52950E+04-1.11862E-09 2.22275E-09
 -1       884 2.27595E+05 3.75454E+04 3.56748E+02 9.27309E+04-5.03178E-10 8.87326E-10
 -1       885 2.25373E+05 3.98032E+04 7.16207E+02 9.53039E+04 1.51414E-09 1.16231E-08
 -1       886 2.27567E+05 3.75245E+04 1.44299E+03 9.27281E+04 3.50738E-10 4.14593E-09
 -1       887 2.25626E+05 3.99695E+04 3.15184E+03 9.53404E+04-3.75155E-09-1.17907E-08
 -1       888 2.27368E+05 3.75595E+04 6.35100E+03 9.26272E+04-1.18956E-09 1.12777E-09
 -1       889 2.29410E+05 4.38990E+04 1.51719E+04 9.52212E+04-1.16243E-09 2.33035E-09
 -1       890 2.24780E+05 4.06332E+04 2.84159E+04 9.02043E+04 2.72166E-09 4.84033E-09
 -1       891-1.35573E+02-1.28078E+05-1.52396E+03 2.38257E+04-3.46063E-10 1.38891E-09
 -1       892-2.37208E+02-1.28445E+05-1.65322E+03 3.60630E+04-2.19916E-09 2.06373E-08
 -1       893-3.47637E+01-1.28125E+05-2.35787E+03 2.38306E+04 7.09178E-10 1.31681E-08
 -1       894-1.28038E+03-1.29345E+05-4.89223E+03 3.59340E+04-6.52108E-10 8.07313E-09
 -1       895-1.00288E+03-1.27105E+05-8.62013E+03 2.39532E+04-1.35168E-09 3.66435E-09
 -1       956-2.85766E+05-4.06921E+03-1.02329E+04 1.92795E+04-2.01271E-09 2.12924E-09
 -1       957-2.87786E+05-1.37566E+03-5.25307E+03 2.32175E+04-2.41516E-09 1.62026E-09
 -1       958-2.86675E+05-1.12676E+02-2.36672E+03 1.91582E+04 3.72893E-10-5.29076E-09
 -1       959-2.86836E+05-2.22650E+01-1.20885E+03 2.33497E+04-7.38510E-10 2.54909E-09
 -1       960-2.86757E+05 3.14743E+01-5.89327E+02 1.91465E+04-8.97217E-10 6.44582E-09
 -1       961-2.86768E+05 2.93024E+01-3.12617E+02 2.33630E+04-3.89036E-09-2.88537E-10
 -1       962-2.86774E+05 2.77890E+01-1.78866E+02 1.91447E+04-1.06797E-09-8.07631E-10
 -1       963-2.86765E+05 3.08668E+01-1.43425E+02 2.33655E+04-4.80986E-09 7.50947E-09
 -1       964-2.86778E+05 2.99261E+01-1.73947E+02 1.91441E+04-4.70664E-10 5.14137E-09
 -1       965-2.86776E+05 3.39203E+01-3.00445E+02 2.33654E+04 5.13410E-10 7.52016E-09
 -1       966-2.86769E+05 3.78053E+01-5.63944E+02 1.91447E+04 1.47600E-09 7.11452E-10
 -1       967-2.86849E+05-1.09115E+01-1.15662E+03 2.33577E+04 8.22320E-09-7.48673E-09
 -1       968-2.86696E+05-9.58589E+01-2.26353E+03 1.91520E+04 3.40287E-09-4.23344E-09
 -1       969-2.87766E+05-1.30186E+03-5.02567E+03 2.32734E+04 1.49703E-09 9.73188E-10
 -1       970-2.85832E+05-3.87848E+03-9.78907E+03 1.92310E+04 1.14051E-09 8.94124E-09
 -1       971-2.69481E+05-1.40875E+03-7.81602E+03 1.29212E+04-3.88036E-09-1.26656E-09
 -1       972-2.71380E+05-1.01112E+03-4.25655E+03 1.80380E+04-2.38151E-09-8.52185E-09
 -1       973-2.70350E+05-1.16268E+01-1.90607E+03 1.28135E+04-2.50066E-09-1.12484E-08
 -1       974-2.70482E+05-1.20589E+01-9.87491E+02 1.81547E+04-1.29035E-09 4.48858E-09
 -1       975-2.70418E+05 2.51747E+01-4.92642E+02 1.28036E+04-1.40926E-09-8.36849E-10
 -1       976-2.70429E+05 2.90614E+01-2.82474E+02 1.81669E+04-1.15342E-08 2.33854E-09
 -1       977-2.70431E+05 2.51194E+01-2.01894E+02 1.28013E+04-3.09183E-09 1.12163E-09
 -1       978-2.70432E+05 3.37406E+01-2.32008E+02 1.81702E+04 7.67625E-09-5.88341E-09
 -1       979-2.70431E+05 3.14625E+01-3.69105E+02 1.28003E+04 1.32195E-09-2.88492E-09
 -1       980-2.70459E+05 3.60442E+01-7.10404E+02 1.81707E+04 3.62056E-09-1.32991E-08
 -1       981-2.70408E+05 4.91555E+01-1.37468E+03 1.28007E+04-2.42937E-09-1.63652E-09
 -1       982-2.70648E+05-6.54512E+01-2.84076E+03 1.81652E+04-1.17429E-08-2.50388E-10
 -1       983-2.70236E+05-3.87552E+01-5.51926E+03 1.28060E+04 1.95882E-09 3.12912E-09
 -1       984-2.73302E+05-2.94777E+03-1.23596E+04 1.80921E+04 4.13138E-10 1.37444E-08
 -1       985-2.67737E+05-4.07738E+03-2.26962E+04 1.28783E+04 2.70893E-09 6.49015E-09
 -3
    1PSTEP                        13           7           1          
  100CL  107 5.47852E-01         409                     0    7           1
 -4  DISP        4    1
 -5  D1          1    2    1    0
 -5  D2          1    2    2    0
 -5  D3          1    2    3    0
 -5  ALL         1    2    0    0    1ALL
 -1         1 1.97102E-04 0.00000E+00 0.00000E+00
 -1         2 1.74623E-04-1.21524E-30 0.00000E+00
 -1         3 1.74273E-04 2.50508E-27 0.00000E+00
 -1         5 1.11438E-04 6.69677E-27-3.30872E-24
 -1         8 1.71692E-04-8.62046E-07 0.00000E+00
 -1         9 1.64307E-04-8.39580E-07 0.00000E+00
 -1        10 1.59376E-04-2.40593E-06 6.61744E-24
 -1        12 1.11224E-04 6.02335E-07 0.00000E+00
 -1        15 1.41367E-04-9.59735E-07 0.00000E+00
 -1        16 1.46801E-04-1.05449E-06 0.00000E+00
 -1        17 1.14471E-04-5.04424E-06 0.00000E+00
 -1        18 1.09390E-04 5.58341E-06 0.00000E+00
 -1        19 1.10584E-04 1.20156E-06 0.00000E+00
 -1        20 1.10732E-04 1.26744E-05 0.00000E+00
 -1        21 1.10122E-04 2.27931E-05 0.00000E+00
 -1        24 2.28746E-05-7.03912E-06 0.00000E+00
 -1        25 1.09622E-04 5.72589E-06 0.00000E+00
 -1        26 1.10501E-04 1.66792E-06 0.00000E+00
 -1        27 1.08837E-04 9.96111E-06 0.00000E+00
 -1        28 1.08370E-04 2.22833E-05 0.00000E+00
 -1        32 0.00000E+00 0.00000E+00 0.00000E+00
 -1        33 1.09188E-04 2.23482E-06 0.00000E+00
 -1        34 1.07557E-04 9.93515E-06 0.00000E+00
 -1        35 1.06022E-04 2.20119E-05 0.00000E+00
 -1        51 1.95453E-04-1.43758E-07 0.00000E+00
 -1        52 1.92394E-04-2.81216E-07 0.00000E+00
 -1        53 1.88201E-04-4.19829E-07 0.00000E+00
 -1        54 1.83161E-04-5.61334E-07 3.30872E-24
 -1        55 1.77561E-04-7.06648E-07 0.00000E+00
 -1        56 1.95422E-04-8.49414E-07 0.00000E+00
 -1        57 1.93808E-04-2.06731E-06 2.64698E-23
 -1        58 1.92288E-04-3.52190E-06 5.29396E-23
 -1        59 1.90801E-04-5.10119E-06 0.00000E+00
 -1        60 1.89312E-04-6.67350E-06-5.29396E-23
 -1        61 1.87770E-04-8.11196E-06-2.64698E-23
 -1        62 1.86134E-04-9.30035E-06 5.29396E-23
 -1        63 1.84365E-04-1.01338E-05-2.64698E-23
 -1        64 1.82435E-04-1.05376E-05 0.00000E+00
 -1        65 1.80323E-04-1.04556E-05-2.64698E-23
 -1        66 1.78023E-04-9.87313E-06-5.29396E-23
 -1        67 1.75538E-04-8.79659E-06-2.64698E-23
 -1        68 1.72886E-04-7.27557E-06-5.29396E-23
 -1        69 1.70101E-04-5.37480E-06 0.00000E+00
 -1        70 1.67209E-04-3.19907E-06-2.64698E-23
 -1        86 1.74306E-04-1.33534E-07-3.30872E-24
 -1        87 1.73357E-04-2.67971E-07 0.00000E+00
 -1        88 1.71819E-04-4.03182E-07 0.00000E+00
 -1        89 1.69741E-04-5.42595E-07-3.30872E-24
 -1        90 1.67208E-04-6.81905E-07 0.00000E+00
 -1       121 1.73855E-04-3.97097E-07 0.00000E+00
 -1       122 1.72605E-04-7.94862E-07 0.00000E+00
 -1       123 1.70524E-04-1.19396E-06 0.00000E+00
 -1       124 1.67620E-04-1.59507E-06 6.61744E-24
 -1       125 1.63900E-04-1.99875E-06 0.00000E+00
 -1       191 1.11432E-04 1.00394E-07 0.00000E+00
 -1       192 1.11414E-04 2.00786E-07 0.00000E+00
 -1       193 1.11384E-04 3.01178E-07-3.30872E-24
 -1       194 1.11343E-04 4.01569E-07-1.65436E-24
 -1       195 1.11289E-04 5.01955E-07-3.30872E-24
 -1       251 1.71229E-04 4.21482E-06 0.00000E+00
 -1       252 1.70761E-04 9.28776E-06 6.61744E-24
 -1       253 1.70296E-04 1.38017E-05 0.00000E+00
 -1       254 1.69834E-04 1.72119E-05 0.00000E+00
 -1       255 1.69376E-04 1.92177E-05 0.00000E+00
 -1       256 1.68920E-04 1.95446E-05-6.61744E-24
 -1       257 1.68462E-04 1.82895E-05 0.00000E+00
 -1       258 1.68002E-04 1.55787E-05 6.61744E-24
 -1       259 1.67539E-04 1.18604E-05 0.00000E+00
 -1       260 1.67074E-04 7.60165E-06 6.61744E-24
 -1       261 1.66609E-04 3.38903E-06 0.00000E+00
 -1       262 1.66146E-04-1.91838E-07-6.61744E-24
 -1       263 1.65686E-04-2.69498E-06 1.32349E-23
 -1       264 1.65228E-04-3.69451E-06-6.61744E-24
 -1       265 1.64771E-04-3.09721E-06 1.32349E-23
 -1       266 1.66638E-04-8.90374E-07 0.00000E+00
 -1       267 1.61584E-04-9.05187E-07-1.65436E-24
 -1       268 1.56529E-04-9.20856E-07 0.00000E+00
 -1       269 1.51475E-04-9.33989E-07 0.00000E+00
 -1       270 1.46421E-04-9.47064E-07 0.00000E+00
 -1       271 1.68680E-04 3.11848E-06 0.00000E+00
 -1       272 1.66035E-04 5.99836E-06 0.00000E+00
 -1       273 1.63772E-04 7.87148E-06 0.00000E+00
 -1       274 1.61847E-04 8.82951E-06 0.00000E+00
 -1       275 1.60223E-04 8.98609E-06 0.00000E+00
 -1       276 1.58852E-04 8.46620E-06 2.64698E-23
 -1       277 1.57682E-04 7.40779E-06-5.29396E-23
 -1       278 1.56658E-04 5.95783E-06-2.64698E-23
 -1       279 1.55723E-04 4.27048E-06 0.00000E+00
 -1       280 1.54818E-04 2.50407E-06 2.64698E-23
 -1       281 1.53883E-04 8.18260E-07 5.29396E-23
 -1       282 1.52859E-04-6.28553E-07 0.00000E+00
 -1       283 1.51689E-04-1.68259E-06-5.29396E-23
 -1       284 1.50321E-04-2.19525E-06 0.00000E+00
 -1       285 1.48697E-04-2.03130E-06 2.64698E-23
 -1       301 1.61074E-04-8.90682E-07-6.61744E-24
 -1       302 1.57836E-04-9.18487E-07-3.30872E-24
 -1       303 1.54689E-04-9.44760E-07 6.61744E-24
 -1       304 1.51735E-04-9.71116E-07 0.00000E+00
 -1       305 1.49073E-04-9.98747E-07-1.32349E-23
 -1       306 1.63862E-04-6.70112E-06-5.29396E-23
 -1       307 1.69028E-04-2.83342E-05-2.64698E-23
 -1       308 1.78409E-04-6.20986E-05 5.29396E-23
 -1       309 1.90334E-04-1.03483E-04-2.64698E-23
 -1       310 2.02727E-04-1.46279E-04-5.29396E-23
 -1       311 2.13487E-04-1.84174E-04 0.00000E+00
 -1       312 2.20787E-04-2.11949E-04 0.00000E+00
 -1       313 2.22927E-04-2.25140E-04-2.64698E-23
 -1       314 2.19197E-04-2.22485E-04 0.00000E+00
 -1       315 2.09273E-04-2.03852E-04 0.00000E+00
 -1       316 1.94242E-04-1.72540E-04 0.00000E+00
 -1       317 1.75668E-04-1.32697E-04 2.64698E-23
 -1       318 1.56007E-04-9.02709E-05 0.00000E+00
 -1       319 1.37850E-04-5.13684E-05 0.00000E+00
 -1       320 1.23368E-04-2.13759E-05 5.29396E-23
 -1       336 1.54010E-04-2.83277E-06 1.32349E-23
 -1       337 1.47768E-04-3.26471E-06 0.00000E+00
 -1       338 1.40668E-04-3.70200E-06-1.32349E-23
 -1       339 1.32734E-04-4.14456E-06 6.61744E-24
 -1       340 1.23992E-04-4.59364E-06 1.32349E-23
 -1       406 1.11147E-04 7.02703E-07 0.00000E+00
 -1       407 1.11058E-04 8.03038E-07 0.00000E+00
 -1       408 1.10958E-04 9.03311E-07 0.00000E+00
 -1       409 1.10845E-04 1.00340E-06 0.00000E+00
 -1       410 1.10720E-04 1.10312E-06 0.00000E+00
 -1       521 1.51721E-04-2.40818E-05-5.29396E-23
 -1       522 1.71655E-04-9.33028E-05 5.29396E-23
 -1       523 2.01644E-04-1.97358E-04 0.00000E+00
 -1       524 2.36835E-04-3.21647E-04 0.00000E+00
 -1       525 2.72281E-04-4.46953E-04 0.00000E+00
 -1       526 3.03040E-04-5.53962E-04 0.00000E+00
 -1       527 3.24276E-04-6.27558E-04 0.00000E+00
 -1       528 3.30882E-04-6.55740E-04 0.00000E+00
 -1       529 3.19823E-04-6.36406E-04 0.00000E+00
 -1       530 2.89477E-04-5.71543E-04-5.29396E-23
 -1       531 2.43099E-04-4.72363E-04 0.00000E+00
 -1       532 1.86294E-04-3.52509E-04 0.00000E+00
 -1       533 1.27911E-04-2.29588E-04 0.00000E+00
 -1       534 7.70813E-05-1.21379E-04 5.29396E-23
 -1       535 4.05298E-05-4.28900E-05 5.29396E-23
 -1       536 1.14239E-04 8.86297E-06 0.00000E+00
 -1       537 1.13878E-04 3.07372E-05 0.00000E+00
 -1       538 1.13409E-04 5.73283E-05-3.30872E-24
 -1       539 1.12904E-04 8.53612E-05 0.00000E+00
 -1       540 1.12454E-04 1.11178E-04 0.00000E+00
 -1       541 1.12134E-04 1.31134E-04-1.65436E-24
 -1       542 1.11932E-04 1.43108E-04-3.30872E-24
 -1       543 1.11799E-04 1.45026E-04 0.00000E+00
 -1       544 1.11640E-04 1.37380E-04 0.00000E+00
 -1       545 1.11375E-04 1.20720E-04-1.65436E-24
 -1       546 1.10997E-04 9.79089E-05-3.30872E-24
 -1       547 1.10543E-04 7.18456E-05 1.65436E-24
 -1       548 1.10101E-04 4.62802E-05 0.00000E+00
 -1       549 1.09756E-04 2.49606E-05-1.65436E-24
 -1       550 1.09526E-04 1.05282E-05-1.65436E-24
 -1       551 1.02259E-04-5.33465E-06 0.00000E+00
 -1       552 8.78134E-05-5.64783E-06 0.00000E+00
 -1       553 7.18879E-05-5.98105E-06 0.00000E+00
 -1       554 5.52472E-05-6.32717E-06-6.61744E-24
 -1       555 3.86562E-05-6.67533E-06 0.00000E+00
 -1       556 1.11140E-04 3.56230E-06 0.00000E+00
 -1       557 1.08541E-04 1.02966E-05-1.32349E-23
 -1       558 1.06596E-04 1.53213E-05 0.00000E+00
 -1       559 1.05236E-04 1.88130E-05 0.00000E+00
 -1       560 1.04389E-04 2.09477E-05 0.00000E+00
 -1       561 1.03988E-04 2.19025E-05 0.00000E+00
 -1       562 1.03963E-04 2.18553E-05 0.00000E+00
 -1       563 1.04248E-04 2.09837E-05 0.00000E+00
 -1       564 1.04774E-04 1.94660E-05 0.00000E+00
 -1       565 1.05475E-04 1.74803E-05 0.00000E+00
 -1       566 1.06284E-04 1.52050E-05 0.00000E+00
 -1       567 1.07135E-04 1.28187E-05-3.10193E-25
 -1       568 1.07961E-04 1.04997E-05 0.00000E+00
 -1       569 1.08695E-04 8.42627E-06 0.00000E+00
 -1       570 1.09270E-04 6.77678E-06 0.00000E+00
 -1       571 1.09463E-04 5.32395E-06 8.27181E-25
 -1       572 1.09537E-04 5.01809E-06 4.13590E-25
 -1       573 1.09611E-04 4.67496E-06 1.65436E-24
 -1       574 1.09686E-04 4.30410E-06 0.00000E+00
 -1       575 1.09761E-04 3.91512E-06 0.00000E+00
 -1       576 1.09836E-04 3.51767E-06-8.27181E-25
 -1       577 1.09910E-04 3.12141E-06-3.30872E-24
 -1       578 1.09985E-04 2.73602E-06 0.00000E+00
 -1       579 1.10060E-04 2.37115E-06 0.00000E+00
 -1       580 1.10135E-04 2.03648E-06 0.00000E+00
 -1       581 1.10210E-04 1.74169E-06 0.00000E+00
 -1       582 1.10285E-04 1.49642E-06 0.00000E+00
 -1       583 1.10360E-04 1.31032E-06 0.00000E+00
 -1       584 1.10435E-04 1.19295E-06 0.00000E+00
 -1       585 1.10510E-04 1.15379E-06 0.00000E+00
 -1       586 1.09386E-04 5.60871E-06 0.00000E+00
 -1       587 1.09355E-04 5.63340E-06 4.13590E-25
 -1       588 1.09331E-04 5.65781E-06-8.27181E-25
 -1       589 1.09345E-04 5.68181E-06 0.00000E+00
 -1       590 1.09432E-04 5.70506E-06 0.00000E+00
 -1       591 1.09451E-04 5.36859E-06-6.46235E-26
 -1       592 1.09521E-04 5.12199E-06 4.13590E-25
 -1       593 1.09601E-04 4.85016E-06 0.00000E+00
 -1       594 1.09687E-04 4.55890E-06 4.13590E-25
 -1       595 1.09778E-04 4.25406E-06 0.00000E+00
 -1       596 1.09873E-04 3.94146E-06 0.00000E+00
 -1       597 1.09968E-04 3.62692E-06 4.13590E-25
 -1       598 1.10061E-04 3.31624E-06-4.13590E-25
 -1       599 1.10151E-04 3.01523E-06-8.27181E-25
 -1       600 1.10235E-04 2.72970E-06-4.13590E-25
 -1       601 1.10311E-04 2.46545E-06 0.00000E+00
 -1       602 1.10377E-04 2.22830E-06 2.06795E-25
 -1       603 1.10431E-04 2.02407E-06 0.00000E+00
 -1       604 1.10470E-04 1.85861E-06-5.16988E-26
 -1       605 1.10493E-04 1.73770E-06 0.00000E+00
 -1       606 1.10597E-04 1.41693E-06 0.00000E+00
 -1       607 1.10608E-04 1.72866E-06 0.00000E+00
 -1       608 1.10617E-04 2.13109E-06 0.00000E+00
 -1       609 1.10626E-04 2.61784E-06 0.00000E+00
 -1       610 1.10636E-04 3.18251E-06 3.30872E-24
 -1       611 1.10645E-04 3.81858E-06 1.65436E-24
 -1       612 1.10653E-04 4.51955E-06 0.00000E+00
 -1       613 1.10662E-04 5.27893E-06 0.00000E+00
 -1       614 1.10671E-04 6.09018E-06 0.00000E+00
 -1       615 1.10680E-04 6.94679E-06-8.27181E-25
 -1       616 1.10689E-04 7.84225E-06-1.65436E-24
 -1       617 1.10698E-04 8.77006E-06 0.00000E+00
 -1       618 1.10706E-04 9.72368E-06 8.27181E-25
 -1       619 1.10715E-04 1.06966E-05 0.00000E+00
 -1       620 1.10723E-04 1.16824E-05 0.00000E+00
 -1       621 1.10482E-04 1.27941E-06-1.65436E-24
 -1       622 1.10428E-04 1.35757E-06 8.27181E-25
 -1       623 1.10413E-04 1.43571E-06 0.00000E+00
 -1       624 1.10427E-04 1.51372E-06 0.00000E+00
 -1       625 1.10459E-04 1.59159E-06 0.00000E+00
 -1       626 1.10589E-04 1.44302E-06 0.00000E+00
 -1       627 1.10566E-04 1.76301E-06 0.00000E+00
 -1       628 1.10515E-04 2.15385E-06 3.30872E-24
 -1       629 1.10442E-04 2.60740E-06 0.00000E+00
 -1       630 1.10348E-04 3.11552E-06-3.30872E-24
 -1       631 1.10236E-04 3.67000E-06 0.00000E+00
 -1       632 1.10110E-04 4.26264E-06-3.30872E-24
 -1       633 1.09973E-04 4.88525E-06 0.00000E+00
 -1       634 1.09828E-04 5.52963E-06 3.30872E-24
 -1       635 1.09677E-04 6.18758E-06 0.00000E+00
 -1       636 1.09525E-04 6.85091E-06 0.00000E+00
 -1       637 1.09374E-04 7.51142E-06 8.27181E-25
 -1       638 1.09226E-04 8.16091E-06 1.65436E-24
 -1       639 1.09086E-04 8.79118E-06 0.00000E+00
 -1       640 1.08956E-04 9.39401E-06 0.00000E+00
 -1       656 1.09956E-04 1.22329E-05 6.61744E-24
 -1       657 1.09558E-04 1.17738E-05 0.00000E+00
 -1       658 1.09399E-04 1.13161E-05 1.32349E-23
 -1       659 1.09336E-04 1.08588E-05 0.00000E+00
 -1       660 1.09203E-04 1.04001E-05-6.61744E-24
 -1       661 1.10445E-04 1.36367E-05 0.00000E+00
 -1       662 1.10185E-04 1.45380E-05 8.27181E-25
 -1       663 1.09947E-04 1.53805E-05 1.65436E-24
 -1       664 1.09730E-04 1.61676E-05 0.00000E+00
 -1       665 1.09532E-04 1.69023E-05-1.65436E-24
 -1       666 1.09354E-04 1.75876E-05 8.27181E-25
 -1       667 1.09193E-04 1.82261E-05-1.65436E-24
 -1       668 1.09048E-04 1.88207E-05 8.27181E-25
 -1       669 1.08920E-04 1.93739E-05 0.00000E+00
 -1       670 1.08805E-04 1.98882E-05 8.27181E-25
 -1       671 1.08705E-04 2.03660E-05-1.65436E-24
 -1       672 1.08617E-04 2.08096E-05 0.00000E+00
 -1       673 1.08541E-04 2.12213E-05 0.00000E+00
 -1       674 1.08475E-04 2.16028E-05 0.00000E+00
 -1       675 1.08420E-04 2.19567E-05 0.00000E+00
 -1       676 1.09829E-04 2.27077E-05 0.00000E+00
 -1       677 1.09537E-04 2.26222E-05 0.00000E+00
 -1       678 1.09244E-04 2.25368E-05-3.30872E-24
 -1       679 1.08952E-04 2.24517E-05 0.00000E+00
 -1       680 1.08661E-04 2.23665E-05-1.65436E-24
 -1       771 1.68813E-05 5.41392E-06 0.00000E+00
 -1       772 1.17433E-05 1.56293E-05 0.00000E+00
 -1       773 7.42215E-06 2.37243E-05 0.00000E+00
 -1       774 3.86360E-06 2.98271E-05 0.00000E+00
 -1       775 1.01416E-06 3.40694E-05 5.29396E-23
 -1       776-1.18202E-06 3.65893E-05 2.64698E-23
 -1       777-2.78129E-06 3.75281E-05 0.00000E+00
 -1       778-3.84132E-06 3.70324E-05 0.00000E+00
 -1       779-4.42010E-06 3.52515E-05 5.29396E-23
 -1       780-4.57670E-06 3.23391E-05-2.64698E-23
 -1       781-4.37029E-06 2.84510E-05-5.29396E-23
 -1       782-3.86090E-06 2.37462E-05 0.00000E+00
 -1       783-3.10857E-06 1.83853E-05-2.64698E-23
 -1       784-2.17394E-06 1.25313E-05 0.00000E+00
 -1       785-1.11758E-06 6.34783E-06 0.00000E+00
 -1       786 1.09673E-04 5.32253E-06-4.13590E-25
 -1       787 1.09728E-04 4.94861E-06 0.00000E+00
 -1       788 1.09783E-04 4.59902E-06 1.65436E-24
 -1       789 1.09838E-04 4.26876E-06 8.27181E-25
 -1       790 1.09893E-04 3.95525E-06 0.00000E+00
 -1       791 1.09948E-04 3.65597E-06 0.00000E+00
 -1       792 1.10003E-04 3.37021E-06 0.00000E+00
 -1       793 1.10059E-04 3.09727E-06 0.00000E+00
 -1       794 1.10114E-04 2.83810E-06 1.65436E-24
 -1       795 1.10169E-04 2.59369E-06 0.00000E+00
 -1       796 1.10225E-04 2.36690E-06 1.65436E-24
 -1       797 1.10280E-04 2.16063E-06 0.00000E+00
 -1       798 1.10335E-04 1.98040E-06 0.00000E+00
 -1       799 1.10391E-04 1.83179E-06 0.00000E+00
 -1       800 1.10446E-04 1.72439E-06 0.00000E+00
 -1       801 1.01905E-04 4.97987E-06 0.00000E+00
 -1       802 7.78992E-05 3.95758E-06 0.00000E+00
 -1       803 4.72459E-05 2.77357E-06 2.64698E-23
 -1       804 1.98098E-05 1.67109E-06 0.00000E+00
 -1       805 2.02215E-06 7.68534E-07 2.64698E-23
 -1       806 1.09687E-04 5.27217E-06 1.65436E-24
 -1       807 1.09743E-04 4.83382E-06 0.00000E+00
 -1       808 1.09791E-04 4.41504E-06 3.30872E-24
 -1       809 1.09830E-04 4.01916E-06 0.00000E+00
 -1       810 1.09859E-04 3.64949E-06 1.65436E-24
 -1       811 1.09877E-04 3.30928E-06-1.65436E-24
 -1       812 1.09883E-04 3.00174E-06 0.00000E+00
 -1       813 1.09876E-04 2.73012E-06 0.00000E+00
 -1       814 1.09853E-04 2.49762E-06 0.00000E+00
 -1       815 1.09815E-04 2.30745E-06 0.00000E+00
 -1       816 1.09760E-04 2.16284E-06 0.00000E+00
 -1       817 1.09686E-04 2.06697E-06 0.00000E+00
 -1       818 1.09593E-04 2.02305E-06 1.65436E-24
 -1       819 1.09480E-04 2.03428E-06 0.00000E+00
 -1       820 1.09345E-04 2.10383E-06-1.65436E-24
 -1       821 1.10403E-04 1.59592E-06-8.27181E-25
 -1       822 1.10299E-04 1.44325E-06-8.27181E-25
 -1       823 1.10195E-04 1.28334E-06 0.00000E+00
 -1       824 1.10090E-04 1.18969E-06 1.65436E-24
 -1       825 1.09985E-04 1.22147E-06 3.30872E-24
 -1       826 1.09880E-04 1.43728E-06 0.00000E+00
 -1       827 1.09775E-04 1.85608E-06 0.00000E+00
 -1       828 1.09670E-04 2.49590E-06 0.00000E+00
 -1       829 1.09565E-04 3.32718E-06 0.00000E+00
 -1       830 1.09459E-04 4.31944E-06-1.65436E-24
 -1       831 1.09354E-04 5.40758E-06 0.00000E+00
 -1       832 1.09248E-04 6.52603E-06 1.65436E-24
 -1       833 1.09143E-04 7.60265E-06-3.30872E-24
 -1       834 1.09039E-04 8.56559E-06 0.00000E+00
 -1       835 1.08935E-04 9.36731E-06 0.00000E+00
 -1       836 1.10442E-04 1.76228E-06 3.30872E-24
 -1       837 1.10270E-04 1.85876E-06 0.00000E+00
 -1       838 1.10022E-04 1.95507E-06 0.00000E+00
 -1       839 1.09734E-04 2.05076E-06 0.00000E+00
 -1       840 1.09444E-04 2.14630E-06-4.13590E-25
 -1       856 1.08811E-04 1.05111E-05 4.13590E-25
 -1       857 1.08783E-04 1.11739E-05 2.06795E-25
 -1       858 1.08754E-04 1.19319E-05-8.27181E-25
 -1       859 1.08725E-04 1.27673E-05 0.00000E+00
 -1       860 1.08695E-04 1.36620E-05 8.27181E-25
 -1       861 1.08666E-04 1.45983E-05-4.13590E-25
 -1       862 1.08636E-04 1.55581E-05 0.00000E+00
 -1       863 1.08607E-04 1.65233E-05 0.00000E+00
 -1       864 1.08577E-04 1.74758E-05 0.00000E+00
 -1       865 1.08547E-04 1.83978E-05 4.13590E-25
 -1       866 1.08518E-04 1.92711E-05-8.27181E-25
 -1       867 1.08488E-04 2.00778E-05 4.13590E-25
 -1       868 1.08459E-04 2.08002E-05 8.27181E-25
 -1       869 1.08429E-04 2.14202E-05 0.00000E+00
 -1       870 1.08400E-04 2.19205E-05-8.27181E-25
 -1       871 1.08506E-04 9.95996E-06-8.27181E-25
 -1       872 1.08288E-04 9.95646E-06 0.00000E+00
 -1       873 1.08134E-04 9.95254E-06 4.13590E-25
 -1       874 1.07994E-04 9.94805E-06 1.55096E-25
 -1       875 1.07818E-04 9.94305E-06-4.13590E-25
 -1       876 1.08731E-04 1.05212E-05 0.00000E+00
 -1       877 1.08608E-04 1.11363E-05 0.00000E+00
 -1       878 1.08466E-04 1.17996E-05 0.00000E+00
 -1       879 1.08309E-04 1.25051E-05 1.65436E-24
 -1       880 1.08138E-04 1.32465E-05 0.00000E+00
 -1       881 1.07956E-04 1.40177E-05 0.00000E+00
 -1       882 1.07765E-04 1.48125E-05 0.00000E+00
 -1       883 1.07568E-04 1.56247E-05 0.00000E+00
 -1       884 1.07367E-04 1.64483E-05 0.00000E+00
 -1       885 1.07163E-04 1.72770E-05 1.65436E-24
 -1       886 1.06960E-04 1.81048E-05-3.30872E-24
 -1       887 1.06759E-04 1.89255E-05 0.00000E+00
 -1       888 1.06563E-04 1.97329E-05 0.00000E+00
 -1       889 1.06374E-04 2.05208E-05 0.00000E+00
 -1       890 1.06195E-04 2.12830E-05-1.65436E-24
 -1       891 1.08101E-04 2.22378E-05 0.00000E+00
 -1       892 1.07812E-04 2.21923E-05 0.00000E+00
 -1       893 1.07482E-04 2.21467E-05-8.27181E-25
 -1       894 1.07088E-04 2.21013E-05 2.06795E-25
 -1       895 1.06609E-04 2.20559E-05 4.13590E-25
 -1       956 1.09088E-04 2.49241E-06 1.65436E-24
 -1       957 1.08986E-04 2.81405E-06-8.27181E-25
 -1       958 1.08884E-04 3.19278E-06 1.65436E-24
 -1       959 1.08782E-04 3.62121E-06 1.65436E-24
 -1       960 1.08680E-04 4.09196E-06-3.30872E-24
 -1       961 1.08577E-04 4.59758E-06 1.65436E-24
 -1       962 1.08475E-04 5.13064E-06 0.00000E+00
 -1       963 1.08373E-04 5.68371E-06 1.65436E-24
 -1       964 1.08270E-04 6.24932E-06 3.30872E-24
 -1       965 1.08168E-04 6.82004E-06 0.00000E+00
 -1       966 1.08066E-04 7.38841E-06 0.00000E+00
 -1       967 1.07963E-04 7.94700E-06 0.00000E+00
 -1       968 1.07861E-04 8.48836E-06 0.00000E+00
 -1       969 1.07759E-04 9.00506E-06 0.00000E+00
 -1       970 1.07657E-04 9.48971E-06-3.30872E-24
 -1       971 1.07462E-04 1.03980E-05-1.65436E-24
 -1       972 1.07366E-04 1.09441E-05 0.00000E+00
 -1       973 1.07270E-04 1.15643E-05 1.65436E-24
 -1       974 1.07174E-04 1.22491E-05 0.00000E+00
 -1       975 1.07077E-04 1.29888E-05 0.00000E+00
 -1       976 1.06981E-04 1.37739E-05 0.00000E+00
 -1       977 1.06884E-04 1.45949E-05 3.30872E-24
 -1       978 1.06787E-04 1.54421E-05-1.65436E-24
 -1       979 1.06691E-04 1.63059E-05 3.30872E-24
 -1       980 1.06594E-04 1.71767E-05 1.65436E-24
 -1       981 1.06498E-04 1.80450E-05-3.30872E-24
 -1       982 1.06401E-04 1.89010E-05 0.00000E+00
 -1       983 1.06305E-04 1.97353E-05 0.00000E+00
 -1       984 1.06209E-04 2.05382E-05-1.65436E-24
 -1       985 1.06114E-04 2.13002E-05 0.00000E+00
 -3
    1PSTEP                        14           7           1          
  100CL  107 5.47852E-01         409                     0    7           1
 -4  STRESS      6    1
 -5  SXX         1    4    1    1
 -5  SYY         1    4    2    2
 -5  SZZ         1    4    3    3
 -5  SXY         1    4    1    2
 -5  SYZ         1    4    2    3
 -5  SZX         1    4    3    1
 -1         1-2.34549E+06-9.91746E+05-4.97450E+05-1.26711E+06 4.14730E-10 1.31549E-08
 -1         2 2.57281E+03-3.78405E+05 8.37471E+03-1.02873E+03-7.72502E-11-2.25415E-08
 -1         3-2.90906E+02-1.13302E+06 1.43834E+02-7.96516E+02 3.96486E-10-1.79061E-08
 -1         5-1.76142E+00 2.87252E+05 7.39213E+00 8.05024E-02 1.37303E-11 1.48407E-08
 -1         8-1.12276E+06-4.03627E+05-1.14378E+05-5.51450E+05 3.38332E-10-1.09867E-09
 -1         9-2.23924E+06-7.74742E+05-2.84237E+05-7.19064E+05 5.38130E-09-3.49246E-10
 -1        10-4.86879E+02-1.15686E+06-1.22655E+03-4.99404E+03-1.74987E-09 1.41642E-09
 -1        12 1.27190E+00 2.87267E+05 2.39342E+02 6.30581E-01 6.70468E-11-5.62045E-09
 -1        15 1.99587E+03 1.09685E+03 6.45165E+03 4.36228E+00-1.56490E-10-2.26380E-08
 -1        16-2.67086E+06-1.24035E+06-4.37174E+05-1.32710E+06 1.21266E-08 1.08848E-08
 -1        17-1.30825E+06-7.13437E+05-2.47668E+05-6.25932E+05-5.65778E-09 8.70205E-09
 -1        18-3.47645E+04-1.33463E+04-3.09635E+04-7.56912E+04 5.64785E-09 8.35098E-09
 -1        19 9.14939E+04 1.06733E+05-6.66386E+02 1.79241E+04-2.94858E-10 2.97368E-09
 -1        20-4.39643E+04-4.32710E+05-9.58545E+04 2.88112E+04 4.34147E-09-3.07773E-09
 -1        21-3.96542E+01-2.44617E+05-7.84046E+02-4.91302E+01-4.15158E-09-1.91700E-08
 -1        24-3.02420E+06-7.28700E+05-3.28587E+05-1.07455E+06-4.13177E-08-2.04018E-08
 -1        25-6.65097E+04-4.26097E+05-8.12354E+04-1.21072E+05-9.12223E-11 2.91475E-09
 -1        26-2.89608E+04 7.08464E+04-1.63431E+04-6.90378E+03 1.41808E-09 3.09857E-09
 -1        27-6.56929E+04-2.36265E+05-8.81745E+04 5.33331E+04 6.03200E-09-4.96129E-09
 -1        28 1.88558E+04-6.82369E+04 1.38599E+04 2.05825E+04 1.54469E-09-6.11376E-09
 -1        32-1.13084E+06-1.19014E+06 1.51171E+05-5.71982E+05-2.50329E-08-2.12867E-09
 -1        33-1.37178E+05 6.86529E+04 2.44633E+04-3.57650E+04 6.54988E-10-4.95493E-09
 -1        34-1.74916E+05-1.76949E+04 4.42341E+02 5.48411E+04 1.68544E-09-3.86657E-09
 -1        35-1.92017E+04-2.71081E+04-1.06733E+03 4.26134E+04 3.07538E-09 5.86442E-09
 -1        51 2.19095E+04-3.50271E+05 5.32610E+04-9.66714E+05 7.27596E-11 1.44501E-08
 -1        52 1.16595E+04-3.46586E+05 3.31158E+04-1.12742E+06 3.49246E-10 2.26646E-08
 -1        53 7.38692E+03-3.61374E+05 2.53445E+04-9.63306E+05 4.22006E-10-1.01863E-10
 -1        54 2.03319E+04-3.59946E+05 3.72188E+04-1.13095E+06 1.60071E-10-3.58850E-08
 -1        55 3.98896E+04-3.73745E+05 6.43341E+04-9.62747E+05 2.61934E-10 5.71163E-10
 -1        56-4.48156E+06-5.01488E+05-3.66080E+05-1.73176E+06-8.00355E-10 1.39698E-08
 -1        57-4.64168E+06-8.20507E+05-2.46907E+05-1.70291E+06 2.62662E-09 1.69093E-08
 -1        58-4.55490E+06-6.17896E+05-8.60849E+04-1.70895E+06 1.96087E-09 4.16185E-09
 -1        59-4.55705E+06-6.83571E+05-5.13936E+04-1.72961E+06 2.87241E-09-6.63931E-09
 -1        60-4.56521E+06-6.34528E+05-2.00746E+04-1.70633E+06-2.13140E-09-4.44652E-09
 -1        61-4.54703E+06-6.62087E+05-1.13786E+04-1.73029E+06 7.13044E-10 6.17933E-09
 -1        62-4.56468E+06-6.38895E+05-5.42476E+03-1.70837E+06-1.50658E-09-1.04654E-09
 -1        63-4.55093E+06-6.54087E+05-4.33826E+03-1.72414E+06 3.26327E-09 4.27718E-09
 -1        64-4.56120E+06-6.42517E+05-4.84961E+03-1.71244E+06-1.59162E-10 4.29441E-09
 -1        65-4.55980E+06-6.48256E+05-9.59933E+03-1.71501E+06-4.33954E-09-3.34330E-09
 -1        66-4.55580E+06-6.44796E+05-1.68013E+04-1.71747E+06-1.96340E-09-2.31194E-09
 -1        67-4.57777E+06-6.56459E+05-4.27551E+04-1.70343E+06-7.15772E-10-1.37734E-08
 -1        68-4.54343E+06-6.34717E+05-7.16379E+04-1.72393E+06-5.55701E-10 5.75528E-09
 -1        69-4.65287E+06-7.65820E+05-2.05365E+05-1.67620E+06-2.97678E-09 3.17596E-09
 -1        70-4.48165E+06-5.38620E+05-3.04553E+05-1.74371E+06 2.25555E-10-9.02219E-10
 -1        86-1.29177E+03-3.81131E+05 8.95029E+03 5.14357E+02 1.06775E-09-9.58153E-10
 -1        87 8.54518E+03-3.75578E+05 1.86920E+04-1.97320E+03 1.72258E-09 6.70161E-09
 -1        88-7.24121E+03-3.83959E+05 2.86324E+04 1.45885E+03 2.46291E-09 9.17493E-09
 -1        89 5.39418E+04-3.54664E+05 7.71614E+04-3.58320E+03 3.69891E-09-5.96964E-09
 -1        90-4.65238E+04-4.02025E+05 1.09129E+05 2.12475E+03 3.57250E-09-7.63350E-10
 -1       121-4.12344E+02-1.13416E+06-5.28000E+01 3.97364E+02 1.85999E-10 9.81163E-09
 -1       122-2.33266E+02-1.13301E+06 2.82325E+02-1.59025E+03 2.37407E-09 9.66520E-09
 -1       123-4.37956E+02-1.13420E+06 2.46331E+02 1.18754E+03 9.11825E-10-2.04491E-08
 -1       124 3.54693E+02-1.13275E+06 1.11099E+03-3.36759E+03 4.99153E-09-1.55769E-08
 -1       125-7.96257E+02-1.13451E+06 1.44062E+03 2.17059E+03 1.52977E-09 2.40107E-10
 -1       191-2.09626E+00 2.87277E+05 9.01701E+00-4.03870E-02 6.60960E-11 1.05740E-08
 -1       192-2.43885E+00 2.87252E+05 1.56422E+01 3.54572E-01 9.91891E-11 8.66385E-09
 -1       193-3.89819E+00 2.87277E+05 2.92660E+01-3.15255E-01 6.16627E-11-3.89514E-09
 -1       194-4.61924E+00 2.87254E+05 5.91424E+01 8.43262E-01 6.72253E-11-7.51697E-09
 -1       195-7.36122E+00 2.87275E+05 1.15861E+02-5.31582E-01 2.03556E-10-3.86535E-10
 -1       251-1.29850E+06 1.30846E+04-3.08216E+04-1.35439E+04-2.40874E-11 1.66146E-08
 -1       252-1.31145E+06-1.50454E+04-2.16401E+04 2.23686E+04-2.03173E-09 2.35486E-08
 -1       253-1.30423E+06 1.96234E+03-8.08619E+03-1.04137E+04-1.71440E-09-4.02088E-09
 -1       254-1.30391E+06-2.24335E+03-4.59114E+03 1.14333E+04-3.85967E-11-1.19933E-08
 -1       255-1.30588E+06 2.07003E+02-2.29025E+03-2.60788E+03-1.35060E-09 9.71704E-09
 -1       256-1.30241E+06-2.74273E+02-6.43224E+02-5.16562E+03 5.92195E-10-1.97345E-08
 -1       257-1.30568E+06-3.94976E+01-6.12247E+02 6.18490E+03-2.46246E-10-3.65361E-09
 -1       258-1.30361E+06 1.03999E+02 1.79597E+02-1.95520E+04-5.07896E-10 1.13802E-08
 -1       259-1.30481E+06-6.50566E+01 3.05212E+02 1.17787E+04-6.53927E-10-6.57766E-09
 -1       260-1.30438E+06 4.47739E+02 1.00361E+03-2.48895E+04-1.70867E-09-6.06997E-09
 -1       261-1.30499E+06-3.09397E+02 1.72566E+03 1.15229E+04 3.99973E-09-8.57335E-09
 -1       262-1.30242E+06 2.19460E+03 4.61335E+03-1.86495E+04-5.92365E-10-1.95683E-08
 -1       263-1.30666E+06-1.88844E+03 6.78054E+03 5.53815E+03-9.41100E-10 3.13867E-09
 -1       264-1.29583E+06 1.35726E+04 1.96344E+04-3.82127E+03 1.27341E-09 1.05335E-08
 -1       265-1.31144E+06-1.17490E+04 2.68394E+04-3.30540E+03-1.56581E-09 9.93168E-09
 -1       266-3.61308E+04-1.68921E+04 8.47859E+04-9.33515E+01 1.23691E-10-1.22871E-08
 -1       267 4.18867E+04 1.96922E+04 5.99189E+04 1.07694E+02-6.00267E-11-5.11211E-09
 -1       268-5.61688E+03-2.78874E+03 2.22720E+04-1.37229E+01 8.73115E-11 4.01423E-09
 -1       269 6.63195E+03 3.33778E+03 1.44761E+04 1.59842E+01 2.72848E-11 1.62139E-08
 -1       270-9.95463E+02-5.48413E+02 6.98782E+03-2.16921E+00-6.25278E-11 1.02365E-08
 -1       271-3.37210E+06-4.21979E+05-2.55468E+05-1.31356E+06 1.03319E-09-9.15315E-09
 -1       272-3.46063E+06-6.11461E+05-1.64256E+05-1.31464E+06-3.50269E-09-1.48229E-08
 -1       273-3.42146E+06-4.84392E+05-6.03577E+04-1.30069E+06 5.71163E-10 1.60217E-08
 -1       274-3.40212E+06-5.35712E+05-3.37477E+04-1.33484E+06-1.21099E-09-1.30967E-10
 -1       275-3.42981E+06-4.89242E+05-1.40632E+04-1.29678E+06-7.36691E-11 6.53927E-10
 -1       276-3.39164E+06-5.30692E+05-7.43322E+03-1.34155E+06-9.87711E-10-2.22990E-08
 -1       277-3.43235E+06-4.88223E+05-3.65872E+03-1.29468E+06 1.54796E-09 9.28662E-09
 -1       278-3.38864E+06-5.32210E+05-2.62219E+03-1.34483E+06 6.23459E-10 1.70144E-08
 -1       279-3.43318E+06-4.87412E+05-2.79313E+03-1.29379E+06-9.03128E-10-9.16850E-09
 -1       280-3.38864E+06-5.33304E+05-5.11330E+03-1.34541E+06 1.59204E-09-2.82159E-09
 -1       281-3.43244E+06-4.87119E+05-9.30117E+03-1.29414E+06 2.72166E-10-1.32732E-08
 -1       282-3.39430E+06-5.37947E+05-2.23031E+04-1.34263E+06-1.57843E-09-3.22871E-10
 -1       283-3.42739E+06-4.83466E+05-3.97298E+04-1.29621E+06-3.81988E-11 6.85213E-09
 -1       284-3.43230E+06-5.88332E+05-1.08243E+05-1.32976E+06-3.77895E-10-4.88035E-09
 -1       285-3.39488E+06-4.42410E+05-1.68337E+05-1.30471E+06-7.27596E-12-9.60426E-10
 -1       301 2.20888E+04-6.24366E+04 1.62322E+05-1.19560E+05-4.14730E-10-3.88491E-09
 -1       302 2.31993E+04-2.13817E+04 1.06988E+05-1.75625E+05 1.12323E-09 4.98403E-10
 -1       303 1.19086E+03-4.62912E+04 8.27311E+04-1.19590E+05-6.66660E-10-4.67116E-09
 -1       304 2.76091E+04-1.66037E+04 1.22094E+05-1.75176E+05 6.91216E-10 1.11822E-08
 -1       305 2.65650E+04-6.60833E+04 1.95697E+05-1.20058E+05-6.62112E-10 5.02405E-09
 -1       306-6.00479E+06-6.08485E+05-4.68268E+05-2.17084E+06-2.64299E-09 3.17232E-09
 -1       307-5.57193E+06-1.34609E+06-2.70197E+05-2.56935E+06-4.81905E-08-1.17361E-08
 -1       308-6.17219E+06-5.70074E+05-1.07314E+05-1.92905E+06-7.31507E-09 2.51530E-08
 -1       309-5.42994E+06-1.35039E+06-5.62694E+04-2.87181E+06 2.26337E-08 1.34278E-08
 -1       310-6.18931E+06-5.69565E+05-2.42080E+04-1.89929E+06 9.68430E-09 1.42732E-08
 -1       311-5.43659E+06-1.21721E+06 5.43836E+03-2.69888E+06 5.20740E-08 9.87484E-09
 -1       312-6.13518E+06-7.25340E+05-3.23719E+04-2.08128E+06-7.49424E-10 9.03674E-09
 -1       313-5.64295E+06-8.72082E+05 3.42191E+04-2.22781E+06-3.49755E-08 1.41627E-08
 -1       314-5.93868E+06-9.46794E+05-3.95392E+04-2.33637E+06 5.32600E-09 2.90311E-09
 -1       315-6.12151E+06-4.76331E+05 1.24845E+04-1.81802E+06-1.91940E-08 2.88492E-09
 -1       316-5.68352E+06-1.10095E+06-3.47125E+04-2.50900E+06-6.30171E-08-2.17715E-08
 -1       317-6.49869E+06-2.84618E+05-6.50358E+04-1.64641E+06 4.83528E-08-3.31129E-08
 -1       318-5.60683E+06-1.10650E+06-1.16944E+05-2.54469E+06-4.54129E-08-4.62023E-09
 -1       319-6.45422E+06-5.69463E+05-3.24482E+05-1.67568E+06-1.45410E-08 1.22236E-08
 -1       320-5.70825E+06-8.34236E+05-5.27076E+05-2.46130E+06 2.51166E-08 4.54020E-09
 -1       336 1.42289E+02-1.18097E+06-4.56928E+03 2.80957E+03-1.18675E-08 3.80533E-09
 -1       337-1.78178E+03-1.18152E+06-6.11838E+03-6.77146E+03-2.21828E-08-3.88991E-09
 -1       338 3.89269E+02-1.18079E+06-9.32815E+03 3.94029E+03-1.54164E-08-2.25555E-09
 -1       339-1.01310E+04-1.18688E+06-2.13654E+04-8.97688E+03-2.79897E-08 6.95763E-09
 -1       340 6.82578E+03-1.17591E+06-3.34707E+04 4.99484E+03-1.82226E-08 1.21927E-08
 -1       406 1.97284E+01 2.87264E+05 4.72700E+02-1.04227E-01 2.06597E-10-8.46489E-09
 -1       407 1.65996E+02 2.87350E+05 1.00425E+03-3.26919E+00 1.11982E-11-1.85162E-09
 -1       408 5.18337E+02 2.87192E+05 2.00591E+03 3.45529E+00 1.73713E-10 3.33671E-09
 -1       409 2.16978E+03 2.87991E+05 4.51543E+03-3.41193E+01-3.58114E-11-1.70776E-08
 -1       410 6.23187E+03 2.86622E+05 9.21819E+03 3.21407E+01 2.24645E-10-1.16509E-08
 -1       521-8.34910E+06-8.15773E+05-8.48304E+05-2.52869E+06-6.37374E-09 5.76256E-09
 -1       522-5.36242E+06-2.15597E+06-1.64008E+05-4.09402E+06-1.03260E-07-3.46627E-08
 -1       523-8.25691E+06-2.76137E+05-1.61156E+05-1.67368E+06 1.49157E-08-7.46222E-08
 -1       524-5.91324E+06-2.35405E+06-2.55050E+04-5.24149E+06 1.30081E-07-1.27028E-07
 -1       525-8.25439E+06-2.76591E+05-4.76453E+04-1.64527E+06 7.42511E-08-5.19758E-08
 -1       526-5.28813E+06-2.00361E+06 1.71644E+05-4.23199E+06 3.19560E-08-1.58288E-08
 -1       527-8.46010E+06-9.37964E+05-2.66632E+05-2.44270E+06 8.29168E-08 9.05129E-09
 -1       528-5.38299E+06-8.40938E+05 3.37981E+05-2.17582E+06 3.82133E-08 5.81240E-08
 -1       529-7.74308E+06-1.73099E+06-2.87586E+05-3.34852E+06 6.14673E-08-1.40353E-08
 -1       530-7.74127E+06 6.27367E+05 1.98629E+05-1.12220E+06-5.00804E-08 4.12510E-08
 -1       531-6.49880E+06-2.11320E+06-6.84551E+04-3.73449E+06-1.60173E-07 7.70524E-09
 -1       532-9.54419E+06 1.28880E+06-1.96117E+04-1.10180E+06 8.35789E-08-1.12116E-07
 -1       533-6.34563E+06-2.11724E+06-1.32912E+05-3.75852E+06 3.63434E-08-1.69852E-07
 -1       534-8.31817E+06 6.46504E+05-1.67554E+05-1.05324E+06-5.06116E-08 1.25066E-07
 -1       535-7.42512E+06-1.67703E+06-7.91996E+05-3.48421E+06-8.29459E-09 8.02102E-08
 -1       536-4.04350E+05-2.12111E+04 3.36996E+04-1.52825E+04-2.71552E-09 2.53112E-08
 -1       537-3.25951E+05 2.35675E+04 3.50001E+04 3.71488E+04-4.44516E-08 3.41261E-08
 -1       538-3.66232E+05-2.07684E+03 1.05676E+04-2.28028E+04 5.88967E-09 3.67986E-08
 -1       539-3.49730E+05 3.20873E+03 9.18211E+03 4.12185E+04 5.24284E-08 3.32612E-08
 -1       540-3.80968E+05-5.51901E+02-4.57293E+02-1.93654E+04 4.22438E-09 3.70272E-08
 -1       541-3.00780E+05 2.49137E+03 1.42636E+04 2.42095E+04-1.17357E-08 3.21627E-08
 -1       542-4.13860E+05-2.43689E+03-9.36301E+03-5.76233E+03 7.21911E-09 1.84587E-08
 -1       543-2.77144E+05 3.03638E+03 1.76557E+04-6.39437E+03 1.85537E-10-1.50004E-09
 -1       544-4.03978E+05-1.60630E+03-8.36147E+03 1.12095E+04-6.35782E-09-2.50625E-08
 -1       545-3.23417E+05 3.59994E+02 6.77742E+03-3.35409E+04 3.07159E-09-2.78037E-08
 -1       546-3.68799E+05 1.22147E+03-3.35102E+03 2.13771E+04 1.66052E-08-2.29473E-08
 -1       547-3.56743E+05-3.51889E+03-4.89883E+03-4.29131E+04-3.06710E-08-3.48274E-08
 -1       548-3.71498E+05 2.95769E+03-1.22605E+04 2.06057E+04-3.55524E-08-2.93203E-08
 -1       549-3.23284E+05-1.63498E+04-1.85308E+04-3.05191E+04-2.31566E-08-2.48406E-08
 -1       550-4.01199E+05 1.31799E+04-5.10572E+04 8.95518E+03 2.86445E-09-9.90804E-09
 -1       551 1.89315E+04-6.04519E+05 2.48621E+04-1.00185E+06-5.02550E-08 3.53612E-09
 -1       552 4.27110E+04-6.17569E+05 3.23384E+04-1.42711E+06-3.59141E-08 2.16387E-08
 -1       553 3.05156E+04-6.23416E+05 4.69833E+04-9.98032E+05-5.94082E-08 1.51194E-08
 -1       554 6.98937E+04-6.14342E+05 9.82334E+04-1.42858E+06-3.84171E-08 8.40146E-09
 -1       555 5.87914E+04-6.42090E+05 1.74219E+05-9.99007E+05-6.00121E-08-6.60657E-09
 -1       556 1.06228E+05-1.95992E+05 6.42743E+04-2.46223E+05-9.28412E-09 3.24508E-09
 -1       557 1.85483E+05-2.59860E+05 3.40744E+04-3.09774E+05 4.43833E-10 3.70892E-09
 -1       558 1.03989E+05-2.03459E+05 1.32933E+04-2.39877E+05-4.22006E-09 3.54339E-09
 -1       559 1.72414E+05-2.67958E+05 6.89972E+03-3.16249E+05 1.91867E-08 2.02272E-09
 -1       560 1.00042E+05-2.00907E+05 2.57304E+03-2.42516E+05 8.30914E-09 1.03500E-09
 -1       561 1.66801E+05-2.66178E+05 1.47987E+03-3.19855E+05-3.36149E-09-1.01318E-09
 -1       562 9.69098E+04-1.98872E+05 4.23346E+02-2.44766E+05 8.22183E-10 5.99812E-09
 -1       563 1.63122E+05-2.64584E+05 3.62380E+02-3.22216E+05 2.41562E-09 5.47436E-09
 -1       564 9.48621E+04-1.97572E+05 9.01600E+01-2.46214E+05 6.80302E-09 7.05541E-09
 -1       565 1.61027E+05-2.63678E+05 1.20043E+02-3.23540E+05 2.61934E-09-2.13367E-09
 -1       566 9.39503E+04-1.96984E+05 1.71754E+01-2.46859E+05-2.51930E-09-1.08048E-09
 -1       567 1.60474E+05-2.63424E+05-5.93668E+01-3.23807E+05 8.27595E-09 2.06055E-08
 -1       568 9.42164E+04-1.97162E+05-3.09948E+02-2.46754E+05-4.70391E-09 3.99086E-09
 -1       569 1.60661E+05-2.63312E+05-7.50263E+02-3.22271E+05-2.48838E-09 3.08501E-09
 -1       570 9.63225E+04-1.98911E+05-1.76930E+03-2.46496E+05 6.29370E-09 3.76167E-09
 -1       571 2.13688E+05 7.87152E+03 1.16133E+04-5.54938E+04-4.78849E-10 4.76120E-10
 -1       572 2.15410E+05 2.76519E+03 5.69000E+03-6.08532E+04-1.45519E-09-5.89125E-09
 -1       573 2.14378E+05 6.86448E+02 2.52786E+03-5.53617E+04-1.22100E-09-1.68393E-09
 -1       574 2.14577E+05 2.52837E+02 1.26674E+03-6.10037E+04-1.19690E-09-6.15410E-09
 -1       575 2.14454E+05 6.66749E+01 5.97273E+02-5.53443E+04-6.22322E-10 5.69071E-09
 -1       576 2.14465E+05 4.92595E+01 3.04533E+02-6.10237E+04-4.32777E-10 3.56567E-09
 -1       577 2.14468E+05 3.16096E+01 1.50808E+02-5.53419E+04-9.38098E-09 1.16688E-08
 -1       578 2.14460E+05 3.59993E+01 8.39475E+01-6.10262E+04-1.77902E-08 3.12593E-09
 -1       579 2.14488E+05 2.52694E+01 5.41419E+01-5.53418E+04-5.71163E-09 2.15869E-09
 -1       580 2.14486E+05 2.44780E+01 5.55891E+01-6.10230E+04-3.78532E-09 8.56926E-09
 -1       581 2.14520E+05 1.21150E+01 8.03256E+01-5.53452E+04-2.11458E-09-1.07775E-10
 -1       582 2.14543E+05 2.60553E+01 1.57465E+02-6.09889E+04-5.59339E-10-5.93218E-09
 -1       583 2.14557E+05 6.01581E+01 3.03750E+02-5.53760E+04 2.85581E-10 8.19227E-10
 -1       584 2.14702E+05 2.99515E+02 6.82839E+02-6.07304E+04 2.44654E-10-1.60376E-08
 -1       585 2.14528E+05 8.98319E+02 1.38675E+03-5.56041E+04-4.80213E-10 1.79898E-09
 -1       586-2.58152E+03 7.04237E+04-3.23172E+03-1.90678E+05-3.37423E-10 3.20824E-09
 -1       587-5.84951E+02 7.00141E+04-1.45640E+02-2.09863E+05 3.69255E-10 7.29688E-09
 -1       588 7.31791E+02 7.00652E+04 2.82321E+03-1.90580E+05 1.50976E-10 2.00525E-08
 -1       589 3.89881E+03 7.15973E+04 7.92592E+03-2.09656E+05-6.04814E-10 1.57179E-08
 -1       590 1.13983E+04 6.91715E+04 1.68629E+04-1.90894E+05-7.73980E-10-1.63163E-09
 -1       591-4.50102E+04-1.21366E+04-1.51482E+04-2.23194E+04 1.71838E-09-1.01863E-10
 -1       592-4.68034E+04-1.54833E+04-8.20504E+03-2.58444E+04 5.08862E-10-1.80706E-08
 -1       593-4.65363E+04-1.10262E+04-3.41571E+03-2.34193E+04-1.74919E-09-1.17914E-08
 -1       594-4.46984E+04-1.32752E+04-1.70358E+03-2.59418E+04 5.07100E-10-6.78028E-10
 -1       595-4.66531E+04-1.10215E+04-7.82716E+02-2.34696E+04 1.27079E-09 9.60453E-09
 -1       596-4.45554E+04-1.31741E+04-3.98744E+02-2.59264E+04 1.12200E-09 9.31550E-09
 -1       597-4.66678E+04-1.10314E+04-2.18947E+02-2.34716E+04 6.84935E-10 3.41555E-09
 -1       598-4.45416E+04-1.31703E+04-1.79347E+02-2.59220E+04 8.59131E-10-1.01769E-08
 -1       599-4.66667E+04-1.10316E+04-2.33270E+02-2.34712E+04 9.04947E-11-5.23119E-09
 -1       600-4.45564E+04-1.31753E+04-4.36672E+02-2.59255E+04-3.98813E-10 4.50115E-09
 -1       601-4.66483E+04-1.10213E+04-8.63214E+02-2.34682E+04 1.04342E-09-7.31529E-09
 -1       602-4.47140E+04-1.32867E+04-1.88218E+03-2.59403E+04 1.12777E-10-1.99107E-08
 -1       603-4.65175E+04-1.10285E+04-3.77506E+03-2.34129E+04-1.02841E-09 2.29238E-09
 -1       604-4.70500E+04-1.57162E+04-9.06824E+03-2.58184E+04 1.66017E-09 5.34465E-09
 -1       605-4.48187E+04-1.22655E+04-1.67418E+04-2.22079E+04 1.70587E-09 1.31949E-08
 -1       606 2.77987E+04-1.02621E+04-1.84579E+04 2.69430E+04-2.94312E-09-5.22869E-09
 -1       607 2.46389E+04-3.31966E+03-9.19102E+03 3.02483E+04 1.07775E-09-9.09949E-09
 -1       608 2.64304E+04-5.68938E+02-4.11595E+03 2.67305E+04 2.33194E-09 1.91881E-09
 -1       609 2.60747E+04-1.57223E+02-2.07880E+03 3.04855E+04-3.63798E-12 7.06882E-09
 -1       610 2.62641E+04 1.60567E+01-9.92976E+02 2.67066E+04-3.37968E-09 5.06225E-09
 -1       611 2.61978E+04 2.86125E+01-5.00673E+02 3.05113E+04-8.60882E-09 6.39648E-09
 -1       612 2.62193E+04 3.27889E+01-2.39338E+02 2.67042E+04-4.51655E-09 7.10997E-10
 -1       613 2.61948E+04 3.79375E+01-1.08483E+02 3.05144E+04-4.15594E-09-4.86421E-09
 -1       614 2.61946E+04 3.38122E+01-2.90141E+01 2.67034E+04-8.96762E-10 2.66323E-09
 -1       615 2.61819E+04 4.39904E+01 3.72093E+01 3.05148E+04 2.70848E-09 4.36148E-09
 -1       616 2.61758E+04 4.01493E+01 1.19116E+02 2.67037E+04-1.13596E-09 2.65754E-09
 -1       617 2.61894E+04 7.35608E+01 2.74944E+02 3.05143E+04 1.58252E-09 8.00742E-09
 -1       618 2.61468E+04 1.22624E+02 5.55224E+02 2.67038E+04-6.96673E-10 6.36942E-09
 -1       619 2.63813E+04 5.05510E+02 1.24759E+03 3.05135E+04-3.22257E-09-5.70981E-09
 -1       620 2.59598E+04 1.44168E+03 2.50776E+03 2.67027E+04 1.93620E-09-7.22594E-10
 -1       621 2.96051E+02 2.23822E+05 2.66492E+03 1.21664E+04-1.10049E-10 6.17729E-09
 -1       622 3.51576E+02 2.24477E+05 2.38924E+03 1.77239E+04 4.12683E-11 3.08364E-09
 -1       623 1.82604E+01 2.23989E+05 2.91328E+03 1.21085E+04 6.28120E-12 6.08725E-09
 -1       624 1.36714E+03 2.25401E+05 5.67682E+03 1.77824E+04-9.38485E-11-5.06191E-09
 -1       625 1.37411E+03 2.22880E+05 9.93699E+03 1.21077E+04-2.00089E-11 9.02349E-09
 -1       626 1.92467E+05 5.16655E+04 4.05418E+03 1.01678E+05 1.94404E-09 3.30874E-09
 -1       627 1.90068E+05 5.33351E+04 1.95369E+03 1.05690E+05-2.42289E-09-1.41445E-08
 -1       628 1.92599E+05 4.97702E+04 8.25288E+02 1.02315E+05 1.59616E-09 3.91992E-09
 -1       629 1.89507E+05 5.28486E+04 4.04297E+02 1.05928E+05 7.14863E-09 4.17464E-09
 -1       630 1.92607E+05 4.96811E+04 1.86793E+02 1.02334E+05 4.69299E-10 4.14235E-09
 -1       631 1.89440E+05 5.28358E+04 1.00045E+02 1.05928E+05 8.38099E-10 5.03039E-09
 -1       632 1.92597E+05 4.96882E+04 6.50064E+01 1.02326E+05-1.13823E-09 7.12265E-09
 -1       633 1.89426E+05 5.28412E+04 7.12080E+01 1.05920E+05-1.20963E-10 7.39192E-09
 -1       634 1.92587E+05 4.96892E+04 1.13923E+02 1.02321E+05 3.72211E-09-2.52476E-09
 -1       635 1.89431E+05 5.28426E+04 2.30082E+02 1.05920E+05 3.43266E-09 1.55637E-09
 -1       636 1.92576E+05 4.96878E+04 4.64265E+02 1.02318E+05 2.05023E-09 1.38668E-08
 -1       637 1.89527E+05 5.29161E+04 1.02021E+03 1.05916E+05-7.00993E-10 7.20138E-09
 -1       638 1.92537E+05 4.99147E+04 2.09643E+03 1.02214E+05 2.81307E-09-2.91493E-10
 -1       639 1.90626E+05 5.44482E+04 4.95957E+03 1.05590E+05 2.55955E-09 6.12226E-09
 -1       640 1.92390E+05 5.44810E+04 1.02921E+04 1.00279E+05-6.62158E-09-1.95314E-09
 -1       656 5.12816E+04-1.30119E+06-1.23792E+05-4.61519E+02-3.12866E-10-9.38735E-09
 -1       657-6.77860E+04-1.35707E+06-1.02424E+05 7.59252E+03-1.88084E-09 1.43615E-09
 -1       658 1.62859E+04-1.31711E+06-6.29151E+04-1.84591E+03-1.75078E-11 8.25621E-09
 -1       659-7.28513E+04-1.35947E+06-1.09077E+05 8.56271E+03-1.25419E-09 1.04521E-08
 -1       660 5.63352E+04-1.29879E+06-1.35233E+05-1.43168E+03-4.36557E-11 8.93853E-09
 -1       661 1.69166E+05 1.83203E+04 1.65034E+04 6.61468E+04 1.30240E-09-1.27784E-09
 -1       662 1.77926E+05 3.11023E+04 1.11208E+04 6.30924E+04 1.84167E-09-4.13002E-09
 -1       663 1.72404E+05 2.36178E+04 3.89002E+03 6.52102E+04-1.12914E-09-2.21917E-10
 -1       664 1.74178E+05 2.49032E+04 2.32601E+03 6.42330E+04 2.85897E-09-1.38307E-08
 -1       665 1.72891E+05 2.43453E+04 9.17544E+02 6.50719E+04-1.44792E-09-2.97834E-09
 -1       666 1.73605E+05 2.40681E+04 5.35485E+02 6.44114E+04-5.06274E-09 1.39849E-08
 -1       667 1.72973E+05 2.44310E+04 2.82766E+02 6.50400E+04-6.50573E-10-3.07107E-09
 -1       668 1.73516E+05 2.40023E+04 2.84339E+02 6.44577E+04 1.51942E-10-1.04679E-08
 -1       669 1.72979E+05 2.44091E+04 3.81829E+02 6.50262E+04 2.50937E-09 1.06178E-08
 -1       670 1.73610E+05 2.42064E+04 8.28547E+02 6.44589E+04 1.46275E-09 5.19560E-09
 -1       671 1.72879E+05 2.42310E+04 1.47016E+03 6.50371E+04 1.32723E-09 3.71574E-09
 -1       672 1.74466E+05 2.56368E+04 3.76060E+03 6.42521E+04-4.79162E-09-8.98808E-09
 -1       673 1.72128E+05 2.30147E+04 6.30186E+03 6.52192E+04-2.09229E-09-8.47649E-10
 -1       674 1.80466E+05 3.57595E+04 1.80219E+04 6.24882E+04 3.36377E-09-1.97178E-09
 -1       675 1.66918E+05 1.43913E+04 2.67504E+04 6.66943E+04 1.58252E-10 4.54747E-11
 -1       676 2.03460E+01-2.44552E+05-9.44978E+02 2.45657E+01-2.32347E-10 8.20692E-10
 -1       677-2.50919E+02-2.44780E+05-1.72943E+03-4.91026E+01-1.54810E-09 4.88659E-09
 -1       678 1.67523E+02-2.44389E+05-3.05719E+03 2.45201E+01-1.04069E-09 3.00126E-09
 -1       679-3.05800E+03-2.46626E+05-7.26243E+03-4.89279E+01-3.04135E-09 2.91522E-09
 -1       680 1.82503E+03-2.42707E+05-1.17046E+04 2.41123E+01 4.27008E-10 1.94355E-10
 -1       771-2.60440E+06-5.03771E+05-7.37973E+04-1.13134E+06-1.55705E-08-1.15542E-08
 -1       772-2.57333E+06-5.50021E+05-3.89999E+04-1.18371E+06-9.42964E-09 5.51154E-09
 -1       773-2.61660E+06-4.94153E+05-1.79444E+04-1.13570E+06-6.05360E-09 1.26965E-08
 -1       774-2.56447E+06-5.42146E+05-8.43305E+03-1.19164E+06 2.00816E-09-3.94357E-09
 -1       775-2.62110E+06-4.90995E+05-5.04531E+03-1.13672E+06-1.19908E-08 4.01997E-09
 -1       776-2.56600E+06-5.42062E+05-2.10898E+03-1.19684E+06-1.30385E-08 1.01863E-10
 -1       777-2.62468E+06-4.88353E+05-1.80784E+03-1.13758E+06-5.80621E-09 3.57977E-09
 -1       778-2.56803E+06-5.42132E+05-6.14625E+02-1.20122E+06 5.93718E-09 8.75298E-09
 -1       779-2.62765E+06-4.86100E+05-8.23335E+02-1.13833E+06 2.92493E-09-5.36238E-09
 -1       780-2.56986E+06-5.42150E+05-2.67835E+02-1.20478E+06 6.34827E-09-2.07365E-09
 -1       781-2.62995E+06-4.84310E+05-5.09823E+02-1.13891E+06-9.33505E-09-2.73485E-09
 -1       782-2.57130E+06-5.42145E+05-4.25569E+02-1.20739E+06-1.72804E-08-3.26008E-09
 -1       783-2.63151E+06-4.83101E+05-8.83374E+02-1.13932E+06-6.93763E-09-1.24285E-08
 -1       784-2.57266E+06-5.42610E+05-1.86794E+03-1.20895E+06-8.53470E-09 2.53294E-10
 -1       785-2.63197E+06-4.82737E+05-3.50020E+03-1.13928E+06-1.72222E-08-1.61435E-09
 -1       786 1.54052E+05-9.44136E+03 2.18426E+04-8.46031E+01 1.36313E-09 3.89264E-09
 -1       787 1.63519E+05 1.09302E+04 1.54530E+04 2.08906E+01 1.79463E-09 7.84212E-09
 -1       788 1.57704E+05-1.48000E+03 5.65270E+03-6.46678E+01 9.92545E-10-5.95946E-10
 -1       789 1.59265E+05 1.71237E+03 3.55065E+03-1.16647E+01 7.18387E-10 4.81350E-10
 -1       790 1.58307E+05-2.31083E+02 1.44246E+03-5.20506E+01-2.71336E-10-1.11123E-09
 -1       791 1.58561E+05 2.67834E+02 8.42497E+02-3.42822E+01-1.04029E-09 5.52650E-09
 -1       792 1.58408E+05-3.65560E+01 3.75803E+02-4.20504E+01-3.99476E-10-3.78422E-09
 -1       793 1.58445E+05 4.71297E+01 2.28528E+02-5.44569E+01 1.67468E-10 6.81225E-09
 -1       794 1.58423E+05-1.05211E+01 1.42168E+02-3.18756E+01 8.36157E-10 5.26983E-09
 -1       795 1.58441E+05 4.39649E+01 1.66460E+02-7.76392E+01-2.99628E-10-1.94946E-10
 -1       796 1.58412E+05-3.33896E+01 2.25640E+02-1.88677E+01 9.01936E-10 3.12662E-09
 -1       797 1.58537E+05 2.42426E+02 5.12438E+02-1.09852E+02 1.54827E-10 1.88246E-09
 -1       798 1.58327E+05-2.08838E+02 8.02524E+02 3.37741E-01 1.39015E-10 7.50600E-09
 -1       799 1.59137E+05 1.54168E+03 2.18223E+03-1.59525E+02 4.88858E-10 1.38766E-08
 -1       800 1.57811E+05-1.33161E+03 3.08084E+03 3.08064E+01-3.36858E-10 8.91077E-09
 -1       801 6.17238E+04-2.20511E+06-2.02116E+05 3.87209E+04 1.58107E-08-4.23870E-09
 -1       802-7.12175E+04-2.01956E+06-8.55263E+04-5.72519E+04 4.38595E-08-2.50543E-09
 -1       803 8.27424E+03-2.10637E+06-2.33525E+04 1.03031E+05 3.36659E-08 2.78971E-08
 -1       804 3.85151E+04-1.97480E+06 5.86652E+04-2.88290E+04 3.49901E-08 3.25389E-08
 -1       805-4.89430E+04-2.24929E+06 5.08349E+04 1.02897E+04 1.32641E-08 2.13386E-08
 -1       806-2.34285E+05-4.65508E+04-1.82065E+04-9.38517E+04-4.70527E-09 9.24956E-10
 -1       807-2.35684E+05-4.36146E+04-8.94460E+03-9.83021E+04 2.33490E-09 1.84830E-08
 -1       808-2.34783E+05-3.99922E+04-3.79444E+03-9.69591E+04 2.67846E-10 7.42256E-09
 -1       809-2.33796E+05-4.11095E+04-1.85524E+03-9.85331E+04-7.20092E-10-1.45315E-09
 -1       810-2.34860E+05-3.97627E+04-8.49872E+02-9.70967E+04 1.98224E-09-1.09685E-09
 -1       811-2.33651E+05-4.10091E+04-4.22070E+02-9.85075E+04 6.31189E-10-5.35636E-09
 -1       812-2.34873E+05-3.97811E+04-2.11989E+02-9.70965E+04 1.82354E-09 3.98609E-09
 -1       813-2.33632E+05-4.10110E+04-1.35696E+02-9.84945E+04 2.66209E-09-1.81110E-08
 -1       814-2.34870E+05-3.97879E+04-1.30775E+02-9.70937E+04 2.62435E-09-1.03587E-08
 -1       815-2.33635E+05-4.10128E+04-2.07791E+02-9.84905E+04 1.87356E-09 1.49448E-08
 -1       816-2.34856E+05-3.97864E+04-3.91552E+02-9.70913E+04-7.48514E-10 1.05588E-08
 -1       817-2.33702E+05-4.10501E+04-8.40042E+02-9.84834E+04 1.53932E-09 8.77117E-09
 -1       818-2.34806E+05-3.99039E+04-1.71262E+03-9.70356E+04 1.21145E-09-5.75710E-09
 -1       819-2.34643E+05-4.20831E+04-4.03043E+03-9.82612E+04 1.95359E-09-7.59405E-09
 -1       820-2.34487E+05-4.29457E+04-8.20288E+03-9.57316E+04 8.83119E-10 4.07533E-09
 -1       821-2.93121E+05 1.62143E+04-3.74984E+04 2.74063E+02 1.34546E-09 1.74259E-09
 -1       822-3.09367E+05-1.87708E+04-2.65351E+04-9.72185E+02-7.66101E-10 1.05774E-09
 -1       823-2.99389E+05 2.54238E+03-9.71185E+03 2.85287E+02 6.88409E-11 2.88492E-09
 -1       824-3.02049E+05-2.94228E+03-6.10959E+03-8.07700E+02 2.77275E-10 1.35601E-08
 -1       825-3.00437E+05 3.97673E+02-2.51361E+03 1.09576E+02-6.54946E-10-4.38831E-11
 -1       826-3.00824E+05-4.68629E+02-1.51236E+03-3.48059E+02-3.58030E-09-5.65566E-09
 -1       827-3.00613E+05 7.00561E+01-7.89231E+02-1.74361E+02-2.58287E-09-1.64192E-09
 -1       828-3.00660E+05-1.43039E+02-6.92311E+02 2.03718E+02-4.48140E-09 4.42050E-09
 -1       829-3.00600E+05 7.23829E+01-8.03625E+02-4.42211E+02-1.75412E-10 3.56926E-09
 -1       830-3.00861E+05-4.84916E+02-1.56645E+03 6.05786E+02 2.05078E-09 3.26509E-10
 -1       831-3.00413E+05 4.12202E+02-2.59732E+03-5.76437E+02-2.35435E-09-7.49196E-10
 -1       832-3.02114E+05-3.04653E+03-6.32944E+03 6.82284E+02-1.32413E-09 5.83896E-10
 -1       833-2.99348E+05 2.63228E+03-1.00597E+04-5.18710E+02-1.74440E-09 1.00499E-08
 -1       834-3.09659E+05-1.94399E+04-2.74799E+04 3.99729E+02-8.00959E-12 1.09062E-08
 -1       835-2.92870E+05 1.67925E+04-3.88443E+04-2.93868E+02 5.93557E-09 1.92813E-10
 -1       836-9.88613E+02 2.76238E+05 1.67243E+04-1.94888E+04 5.02951E-10 1.13696E-08
 -1       837 3.65823E+03 2.81431E+05 1.43010E+04-3.91647E+04 1.16393E-09 3.86535E-09
 -1       838-3.72639E+02 2.77676E+05 1.47789E+04-1.94183E+04 9.69067E-10 7.27118E-09
 -1       839 9.47621E+03 2.85766E+05 2.81615E+04-3.91984E+04 1.44428E-09 1.57099E-08
 -1       840-2.86403E+03 2.71861E+05 4.49947E+04-1.94539E+04 8.85848E-10-5.48641E-09
 -1       856-7.96252E+04 7.52431E+03-1.98289E+04-4.32761E+02-3.60967E-09 1.91267E-09
 -1       857-8.78134E+04-8.82624E+03-1.36514E+04 4.65013E+03-2.29895E-09 5.21868E-09
 -1       858-8.28611E+04 1.05430E+03-5.14600E+03-4.54579E+02-2.74821E-09-3.02180E-10
 -1       859-8.40980E+04-1.22671E+03-3.10746E+03 4.68472E+03 4.38490E-10 3.83193E-09
 -1       860-8.33447E+04 1.46676E+02-1.30579E+03-4.67454E+02 7.97797E-10-8.01055E-09
 -1       861-8.35412E+04-1.62548E+02-7.25595E+02 4.70235E+03-1.48871E-09-7.35510E-09
 -1       862-8.34200E+04 1.93770E+01-3.16185E+02-4.72241E+02 4.07977E-09 2.12439E-09
 -1       863-8.34514E+04-1.13050E+01-1.48241E+02 4.70459E+03 8.98152E-09-9.94048E-09
 -1       864-8.34347E+04-1.21834E+00-3.01599E+01-4.69693E+02 5.19498E-09-7.84841E-09
 -1       865-8.34197E+04 3.18138E+01 7.36923E+01 4.69160E+03 6.60987E-09 1.70650E-09
 -1       866-8.34501E+04-2.41758E+01 1.86664E+02-4.59248E+02 1.47659E-09-4.60929E-10
 -1       867-8.33214E+04 2.01747E+02 4.84140E+02 4.66321E+03 2.58524E-09-2.35220E-09
 -1       868-8.35295E+04-1.69294E+02 8.10215E+02-4.41306E+02 1.90420E-09-8.12236E-10
 -1       869-8.27195E+04 1.40635E+03 2.16672E+03 4.61625E+03-1.78770E-09-4.55890E-09
 -1       870-8.40465E+04-1.19782E+03 3.14283E+03-4.12290E+02 2.52237E-09-1.22881E-08
 -1       871-4.37807E+03-1.00796E+04-1.43191E+04 9.46394E+04 1.27329E-09 1.52249E-09
 -1       872-1.87069E+03-1.33019E+04-5.86312E+03 1.22697E+05 1.76374E-09 2.22228E-08
 -1       873-1.06035E+01-1.17954E+04 7.66409E+02 9.44318E+04 1.57024E-09 1.52654E-08
 -1       874 2.20695E+03-9.75817E+03 7.96415E+03 1.22737E+05 1.89584E-09 1.13505E-08
 -1       875 5.15573E+03-1.36844E+04 1.77067E+04 9.46060E+04 5.02041E-10 4.49063E-09
 -1       876 2.30628E+05 3.95759E+04 1.22103E+04 9.33819E+04-6.45400E-10 6.96127E-09
 -1       877 2.31351E+05 4.22315E+04 6.52064E+03 9.69659E+04-3.79396E-09-1.24637E-08
 -1       878 2.31768E+05 3.82248E+04 2.73183E+03 9.43848E+04 1.02918E-08 1.01350E-08
 -1       879 2.29690E+05 4.05767E+04 1.36095E+03 9.70511E+04 3.04681E-09 2.11924E-09
 -1       880 2.31851E+05 3.82102E+04 6.33684E+02 9.44256E+04 3.16368E-09 1.71445E-09
 -1       881 2.29580E+05 4.05063E+04 3.37762E+02 9.70333E+04 1.28487E-08-5.33149E-09
 -1       882 2.31859E+05 3.82204E+04 2.14989E+02 9.44268E+04 9.99307E-09-7.37777E-09
 -1       883 2.29572E+05 4.05029E+04 2.29359E+02 9.70280E+04 1.02627E-08 1.89827E-08
 -1       884 2.31854E+05 3.82179E+04 3.63253E+02 9.44270E+04-1.71792E-09 8.05585E-09
 -1       885 2.29601E+05 4.05080E+04 7.29340E+02 9.70371E+04 2.77680E-11 1.06288E-08
 -1       886 2.31826E+05 3.81966E+04 1.46948E+03 9.44241E+04-3.48265E-10-4.06556E-09
 -1       887 2.29859E+05 4.06773E+04 3.20972E+03 9.70743E+04-7.73156E-10-7.35918E-09
 -1       888 2.31623E+05 3.82322E+04 6.46763E+03 9.43213E+04-1.18916E-10 1.30294E-08
 -1       889 2.33712E+05 4.46792E+04 1.54505E+04 9.69531E+04-6.70514E-10 3.11320E-09
 -1       890 2.28988E+05 4.13624E+04 2.89378E+04 9.18540E+04 2.52521E-09 3.29419E-09
 -1       891-1.36343E+02-1.30354E+05-1.55354E+03 2.41444E+04 5.53996E-10 4.96334E-09
 -1       892-2.38940E+02-1.30729E+05-1.68434E+03 3.65478E+04 6.52108E-10 6.67387E-09
 -1       893-3.35956E+01-1.30402E+05-2.40126E+03 2.41494E+04 4.85670E-10 2.61798E-09
 -1       894-1.30102E+03-1.31645E+05-4.98152E+03 3.64169E+04-2.41403E-09-1.29323E-08
 -1       895-1.01951E+03-1.29363E+05-8.77721E+03 2.42737E+04 7.56927E-10-7.14226E-09
 -1       956-2.91353E+05-4.13858E+03-1.04038E+04 1.97236E+04-3.04863E-09-2.02022E-09
 -1       957-2.93406E+05-1.40019E+03-5.34080E+03 2.37525E+04-1.73350E-09 6.18184E-09
 -1       958-2.92278E+05-1.15799E+02-2.40625E+03 1.96006E+04-9.53150E-10 3.08046E-09
 -1       959-2.92441E+05-2.40328E+01-1.22904E+03 2.38869E+04-8.16794E-09 1.65489E-08
 -1       960-2.92361E+05 3.08984E+01-5.99191E+02 1.95887E+04-6.28370E-09 3.60274E-09
 -1       961-2.92372E+05 2.85025E+01-3.17887E+02 2.39005E+04-6.60452E-09 2.15255E-09
 -1       962-2.92379E+05 2.72200E+01-1.81961E+02 1.95868E+04-6.13500E-09-3.41083E-09
 -1       963-2.92369E+05 3.01249E+01-1.46052E+02 2.39030E+04-6.86077E-09 1.19610E-08
 -1       964-2.92382E+05 2.93948E+01-1.77320E+02 1.95862E+04-7.63771E-09-4.62637E-09
 -1       965-2.92380E+05 3.31876E+01-3.06430E+02 2.39029E+04-4.74465E-09-3.30192E-09
 -1       966-2.92373E+05 3.73468E+01-5.75279E+02 1.95869E+04-9.18453E-09 2.37299E-09
 -1       967-2.92455E+05-1.26745E+01-1.17991E+03 2.38949E+04-1.01678E-08 1.88322E-09
 -1       968-2.92299E+05-9.91670E+01-2.30916E+03 1.95943E+04-7.99128E-09-1.08429E-09
 -1       969-2.93390E+05-1.32983E+03-5.12697E+03 2.38078E+04-1.72804E-10 9.90815E-09
 -1       970-2.91417E+05-3.95821E+03-9.98643E+03 1.96757E+04 1.18234E-11 7.07496E-09
 -1       971-2.74380E+05-1.43184E+03-7.93798E+03 1.31132E+04-2.37878E-09 6.54333E-09
 -1       972-2.76309E+05-1.02831E+03-4.32295E+03 1.83026E+04-2.24463E-09 9.97602E-09
 -1       973-2.75264E+05-1.28215E+01-1.93584E+03 1.30040E+04-9.11314E-10 3.62661E-10
 -1       974-2.75396E+05-1.35595E+01-1.00292E+03 1.84211E+04 1.41426E-09 2.72848E-11
 -1       975-2.75332E+05 2.46508E+01-5.00395E+02 1.29939E+04 1.48930E-09 4.09523E-09
 -1       976-2.75343E+05 2.82881E+01-2.87000E+02 1.84335E+04-2.60661E-09 6.68228E-09
 -1       977-2.75346E+05 2.46627E+01-2.05284E+02 1.29915E+04 4.19277E-10-5.42832E-09
 -1       978-2.75346E+05 3.30950E+01-2.36110E+02 1.84369E+04 7.71496E-09 5.96117E-09
 -1       979-2.75346E+05 3.11530E+01-3.75818E+02 1.29905E+04 3.77401E-09 9.84664E-09
 -1       980-2.75374E+05 3.54546E+01-7.23441E+02 1.84375E+04 8.47277E-09-7.04540E-09
 -1       981-2.75323E+05 4.91715E+01-1.39998E+03 1.29909E+04 2.20018E-09-4.32652E-09
 -1       982-2.75566E+05-6.79263E+01-2.89307E+03 1.84319E+04-2.73837E-09 2.73981E-09
 -1       983-2.75146E+05-4.03853E+01-5.62092E+03 1.29963E+04 8.68567E-10 8.82210E-09
 -1       984-2.78269E+05-3.00339E+03-1.25873E+04 1.83578E+04-8.61291E-10 8.67772E-09
 -1       985-2.72602E+05-4.15342E+03-2.31143E+04 1.30694E+04 2.43290E-10-3.84534E-09
 -3
    1PSTEP                        15           8           1          
  100CL  108 5.56641E-01         409                     0    8           1
 -4  DISP        4    1
 -5  D1          1    2    1    0
 -5  D2          1    2    2    0
 -5  D3          1    2    3    0
 -5  ALL         1    2    0    0    1ALL
 -1         1 2.44344E-04 0.00000E+00 0.00000E+00
 -1         2 2.17748E-04-6.81673E-31-6.61744E-24
 -1         3 1.86425E-04-2.18853E-27 0.00000E+00
 -1         5 1.16802E-04-9.70749E-28 0.00000E+00
 -1         8 2.19348E-04-8.34831E-07 0.00000E+00
 -1         9 2.09642E-04-1.14142E-06 0.00000E+00
 -1        10 1.70179E-04-2.56810E-06-6.61744E-24
 -1        12 1.16674E-04 6.12327E-07 1.65436E-24
 -1        15 1.89489E-04-9.29717E-07 0.00000E+00
 -1        16 1.95411E-04-1.40345E-06 0.00000E+00
 -1        17 1.21331E-04-5.39986E-06 0.00000E+00
 -1        18 1.15068E-04 6.83535E-06 0.00000E+00
 -1        19 1.16291E-04 1.22153E-06 0.00000E+00
 -1        20 1.16439E-04 1.17695E-05 0.00000E+00
 -1        21 1.15812E-04 2.07926E-05 3.30872E-24
 -1        24 2.34656E-05-7.53946E-06 0.00000E+00
 -1        25 1.15809E-04 6.98048E-06 0.00000E+00
 -1        26 1.16637E-04 1.69434E-06 0.00000E+00
 -1        27 1.14948E-04 8.99895E-06 0.00000E+00
 -1        28 1.14490E-04 2.02746E-05 0.00000E+00
 -1        32 0.00000E+00 0.00000E+00 0.00000E+00
 -1        33 1.15791E-04 2.27055E-06 0.00000E+00
 -1        34 1.14125E-04 8.97204E-06 0.00000E+00
 -1        35 1.12561E-04 1.99984E-05 0.00000E+00
 -1        51 2.42724E-04-1.40016E-07 0.00000E+00
 -1        52 2.39715E-04-2.73133E-07 0.00000E+00
 -1        53 2.35591E-04-4.07198E-07 0.00000E+00
 -1        54 2.30633E-04-5.43986E-07 3.30872E-24
 -1        55 2.25124E-04-6.84464E-07-5.37667E-24
 -1        56 2.42534E-04-8.27951E-07-2.64698E-23
 -1        57 2.40743E-04-1.90954E-06 2.64698E-23
 -1        58 2.39009E-04-3.13185E-06 5.29396E-23
 -1        59 2.37281E-04-4.40762E-06 2.64698E-23
 -1        60 2.35535E-04-5.63512E-06-5.29396E-23
 -1        61 2.33734E-04-6.71964E-06-2.64698E-23
 -1        62 2.31847E-04-7.57856E-06 5.29396E-23
 -1        63 2.29849E-04-8.14017E-06 0.00000E+00
 -1        64 2.27722E-04-8.35962E-06 0.00000E+00
 -1        65 2.25456E-04-8.20746E-06 0.00000E+00
 -1        66 2.23051E-04-7.68822E-06 0.00000E+00
 -1        67 2.20519E-04-6.82238E-06 0.00000E+00
 -1        68 2.17876E-04-5.66299E-06 5.29396E-23
 -1        69 2.15157E-04-4.27230E-06 2.64698E-23
 -1        70 2.12381E-04-2.74156E-06 5.29396E-23
 -1        86 2.17489E-04-1.84757E-07-6.61744E-24
 -1        87 2.16714E-04-3.70264E-07 0.00000E+00
 -1        88 2.15472E-04-5.56291E-07 0.00000E+00
 -1        89 2.13818E-04-7.45997E-07-3.30872E-24
 -1        90 2.11843E-04-9.35206E-07 0.00000E+00
 -1       121 1.85970E-04-4.23401E-07 1.32349E-23
 -1       122 1.84605E-04-8.47597E-07-6.61744E-24
 -1       123 1.82335E-04-1.27338E-06 0.00000E+00
 -1       124 1.79167E-04-1.70155E-06 6.61744E-24
 -1       125 1.75111E-04-2.13277E-06 1.32349E-23
 -1       191 1.16798E-04 1.02058E-07 0.00000E+00
 -1       192 1.16788E-04 2.04115E-07 0.00000E+00
 -1       193 1.16770E-04 3.06173E-07-3.30872E-24
 -1       194 1.16745E-04 4.08229E-07-1.65436E-24
 -1       195 1.16713E-04 5.10281E-07-3.30872E-24
 -1       251 2.18787E-04 6.65979E-06 1.32349E-23
 -1       252 2.18171E-04 1.90731E-05 0.00000E+00
 -1       253 2.17518E-04 3.43822E-05 0.00000E+00
 -1       254 2.16851E-04 5.04989E-05 0.00000E+00
 -1       255 2.16205E-04 6.51259E-05 0.00000E+00
 -1       256 2.15605E-04 7.59993E-05 6.61744E-24
 -1       257 2.15044E-04 8.18297E-05-1.32349E-23
 -1       258 2.14500E-04 8.14395E-05 0.00000E+00
 -1       259 2.13937E-04 7.52640E-05 1.32349E-23
 -1       260 2.13331E-04 6.38671E-05 6.61744E-24
 -1       261 2.12684E-04 4.91675E-05 0.00000E+00
 -1       262 2.12018E-04 3.31566E-05 0.00000E+00
 -1       263 2.11367E-04 1.81672E-05 0.00000E+00
 -1       264 2.10757E-04 6.50917E-06 0.00000E+00
 -1       265 2.10190E-04-3.73247E-07 1.32349E-23
 -1       266 2.14371E-04-8.62413E-07 6.61744E-24
 -1       267 2.09395E-04-8.76793E-07 0.00000E+00
 -1       268 2.04418E-04-8.92009E-07 1.65436E-24
 -1       269 1.99442E-04-9.04748E-07 0.00000E+00
 -1       270 1.94465E-04-9.17430E-07 4.13590E-25
 -1       271 2.16391E-04 3.12799E-06 0.00000E+00
 -1       272 2.13775E-04 6.06731E-06 0.00000E+00
 -1       273 2.11517E-04 8.06242E-06-2.64698E-23
 -1       274 2.09580E-04 9.18944E-06 2.64698E-23
 -1       275 2.07932E-04 9.54487E-06 0.00000E+00
 -1       276 2.06532E-04 9.23572E-06 2.64698E-23
 -1       277 2.05337E-04 8.38130E-06 0.00000E+00
 -1       278 2.04298E-04 7.10974E-06 2.64698E-23
 -1       279 2.03364E-04 5.55661E-06 5.29396E-23
 -1       280 2.02483E-04 3.86221E-06-2.64698E-23
 -1       281 2.01601E-04 2.16924E-06-5.29396E-23
 -1       282 2.00667E-04 6.20525E-07 0.00000E+00
 -1       283 1.99626E-04-6.43909E-07 0.00000E+00
 -1       284 1.98433E-04-1.48725E-06 1.32349E-23
 -1       285 1.97033E-04-1.78344E-06 0.00000E+00
 -1       301 2.07066E-04-1.20107E-06 0.00000E+00
 -1       302 2.04380E-04-1.23670E-06 3.30872E-24
 -1       303 2.01728E-04-1.27088E-06 6.61744E-24
 -1       304 1.99254E-04-1.30508E-06-3.30872E-24
 -1       305 1.97101E-04-1.34055E-06 0.00000E+00
 -1       306 2.13320E-04-1.87804E-05-5.29396E-23
 -1       307 2.29420E-04-7.34916E-05 0.00000E+00
 -1       308 2.54045E-04-1.56058E-04 0.00000E+00
 -1       309 2.83257E-04-2.55001E-04 0.00000E+00
 -1       310 3.12756E-04-3.54986E-04 0.00000E+00
 -1       311 3.38241E-04-4.40588E-04 2.64698E-23
 -1       312 3.55747E-04-4.99790E-04 0.00000E+00
 -1       313 3.61211E-04-5.22731E-04 0.00000E+00
 -1       314 3.52582E-04-5.07775E-04-5.29396E-23
 -1       315 3.28791E-04-4.56136E-04 2.64698E-23
 -1       316 2.92642E-04-3.76901E-04 0.00000E+00
 -1       317 2.48499E-04-2.80905E-04-2.64698E-23
 -1       318 2.03165E-04-1.82455E-04 0.00000E+00
 -1       319 1.63636E-04-9.59809E-05-2.64698E-23
 -1       320 1.35087E-04-3.34772E-05 5.29396E-23
 -1       336 1.64333E-04-3.02487E-06 0.00000E+00
 -1       337 1.57534E-04-3.48763E-06 0.00000E+00
 -1       338 1.49806E-04-3.95671E-06 0.00000E+00
 -1       339 1.41176E-04-4.43202E-06 6.61744E-24
 -1       340 1.31673E-04-4.91498E-06 0.00000E+00
 -1       406 1.16628E-04 7.14361E-07 3.30872E-24
 -1       407 1.16575E-04 8.16363E-07-1.65436E-24
 -1       408 1.16514E-04 9.18303E-07 0.00000E+00
 -1       409 1.16447E-04 1.02006E-06 0.00000E+00
 -1       410 1.16372E-04 1.12144E-06 0.00000E+00
 -1       521 2.02868E-04-3.21134E-05 0.00000E+00
 -1       522 2.28875E-04-1.22522E-04 0.00000E+00
 -1       523 2.66707E-04-2.57831E-04 0.00000E+00
 -1       524 3.10306E-04-4.18874E-04 0.00000E+00
 -1       525 3.54026E-04-5.80476E-04-1.05879E-22
 -1       526 3.92224E-04-7.17406E-04 0.00000E+00
 -1       527 4.18886E-04-8.10217E-04-1.05879E-22
 -1       528 4.27202E-04-8.43753E-04-5.29396E-23
 -1       529 4.12559E-04-8.15842E-04 0.00000E+00
 -1       530 3.72277E-04-7.29795E-04-5.29396E-23
 -1       531 3.10466E-04-6.00498E-04 1.05879E-22
 -1       532 2.34759E-04-4.45771E-04-5.29396E-23
 -1       533 1.57433E-04-2.88144E-04-1.05879E-22
 -1       534 9.10798E-05-1.50285E-04 0.00000E+00
 -1       535 4.45654E-05-5.12566E-05-5.29396E-23
 -1       536 1.21073E-04 1.01851E-05 6.61744E-24
 -1       537 1.20634E-04 3.53878E-05 0.00000E+00
 -1       538 1.20041E-04 6.63997E-05 0.00000E+00
 -1       539 1.19389E-04 9.93814E-05-1.65436E-24
 -1       540 1.18808E-04 1.29962E-04 3.30872E-24
 -1       541 1.18405E-04 1.53784E-04-1.65436E-24
 -1       542 1.18169E-04 1.68274E-04 3.30872E-24
 -1       543 1.18030E-04 1.70912E-04 0.00000E+00
 -1       544 1.17860E-04 1.62224E-04 0.00000E+00
 -1       545 1.17545E-04 1.42804E-04 0.00000E+00
 -1       546 1.17071E-04 1.16022E-04 3.30872E-24
 -1       547 1.16488E-04 8.52933E-05-1.65436E-24
 -1       548 1.15920E-04 5.50805E-05 3.30872E-24
 -1       549 1.15486E-04 2.98455E-05 1.65436E-24
 -1       550 1.15212E-04 1.27320E-05 0.00000E+00
 -1       551 1.08197E-04-5.71001E-06 6.61744E-24
 -1       552 9.27503E-05-6.04582E-06 0.00000E+00
 -1       553 7.57669E-05-6.40386E-06 0.00000E+00
 -1       554 5.80343E-05-6.77603E-06-6.61744E-24
 -1       555 4.03397E-05-7.15039E-06 2.64698E-23
 -1       556 1.17707E-04 3.95862E-06 0.00000E+00
 -1       557 1.14871E-04 1.13036E-05 0.00000E+00
 -1       558 1.12739E-04 1.68086E-05 0.00000E+00
 -1       559 1.11238E-04 2.06618E-05 0.00000E+00
 -1       560 1.10293E-04 2.30510E-05 0.00000E+00
 -1       561 1.09828E-04 2.41653E-05 0.00000E+00
 -1       562 1.09772E-04 2.41942E-05 0.00000E+00
 -1       563 1.10052E-04 2.33275E-05 6.61744E-24
 -1       564 1.10595E-04 2.17553E-05 0.00000E+00
 -1       565 1.11332E-04 1.96678E-05 0.00000E+00
 -1       566 1.12189E-04 1.72553E-05 0.00000E+00
 -1       567 1.13097E-04 1.47084E-05 0.00000E+00
 -1       568 1.13983E-04 1.22176E-05 0.00000E+00
 -1       569 1.14778E-04 9.97304E-06 0.00000E+00
 -1       570 1.15410E-04 8.16517E-06 0.00000E+00
 -1       571 1.15143E-04 6.49041E-06-4.13590E-25
 -1       572 1.15218E-04 6.09906E-06 4.13590E-25
 -1       573 1.15295E-04 5.67066E-06 1.65436E-24
 -1       574 1.15371E-04 5.21500E-06 8.27181E-25
 -1       575 1.15448E-04 4.74195E-06-1.65436E-24
 -1       576 1.15524E-04 4.26138E-06 0.00000E+00
 -1       577 1.15601E-04 3.78323E-06-3.30872E-24
 -1       578 1.15678E-04 3.31739E-06 1.65436E-24
 -1       579 1.15754E-04 2.87379E-06 3.30872E-24
 -1       580 1.15831E-04 2.46235E-06 1.65436E-24
 -1       581 1.15908E-04 2.09297E-06 0.00000E+00
 -1       582 1.15984E-04 1.77557E-06 0.00000E+00
 -1       583 1.16061E-04 1.52004E-06 0.00000E+00
 -1       584 1.16138E-04 1.33617E-06 0.00000E+00
 -1       585 1.16214E-04 1.23369E-06 0.00000E+00
 -1       586 1.15144E-04 6.86115E-06 0.00000E+00
 -1       587 1.15195E-04 6.88634E-06 3.61892E-25
 -1       588 1.15252E-04 6.91123E-06 8.27181E-25
 -1       589 1.15352E-04 6.93568E-06 0.00000E+00
 -1       590 1.15526E-04 6.95935E-06 0.00000E+00
 -1       591 1.15161E-04 6.53748E-06 5.16988E-26
 -1       592 1.15261E-04 6.20958E-06 0.00000E+00
 -1       593 1.15370E-04 5.85802E-06-4.13590E-25
 -1       594 1.15486E-04 5.48838E-06 0.00000E+00
 -1       595 1.15606E-04 5.10636E-06 0.00000E+00
 -1       596 1.15729E-04 4.71757E-06-4.13590E-25
 -1       597 1.15852E-04 4.32763E-06-4.13590E-25
 -1       598 1.15973E-04 3.94216E-06-4.13590E-25
 -1       599 1.16091E-04 3.56678E-06-4.13590E-25
 -1       600 1.16203E-04 3.20709E-06 4.13590E-25
 -1       601 1.16306E-04 2.86873E-06 0.00000E+00
 -1       602 1.16400E-04 2.55730E-06-2.06795E-25
 -1       603 1.16482E-04 2.27842E-06-4.13590E-25
 -1       604 1.16549E-04 2.03778E-06-1.03398E-25
 -1       605 1.16601E-04 1.84096E-06 0.00000E+00
 -1       606 1.16304E-04 1.37986E-06 0.00000E+00
 -1       607 1.16314E-04 1.63440E-06 0.00000E+00
 -1       608 1.16324E-04 1.97951E-06 0.00000E+00
 -1       609 1.16333E-04 2.40882E-06-1.65436E-24
 -1       610 1.16342E-04 2.91592E-06 3.30872E-24
 -1       611 1.16351E-04 3.49433E-06-1.65436E-24
 -1       612 1.16360E-04 4.13753E-06 0.00000E+00
 -1       613 1.16369E-04 4.83905E-06 0.00000E+00
 -1       614 1.16378E-04 5.59236E-06 0.00000E+00
 -1       615 1.16387E-04 6.39096E-06 0.00000E+00
 -1       616 1.16396E-04 7.22836E-06 0.00000E+00
 -1       617 1.16404E-04 8.09804E-06 0.00000E+00
 -1       618 1.16413E-04 8.99349E-06 0.00000E+00
 -1       619 1.16422E-04 9.90823E-06 0.00000E+00
 -1       620 1.16430E-04 1.08357E-05 0.00000E+00
 -1       621 1.16249E-04 1.30048E-06-1.65436E-24
 -1       622 1.16262E-04 1.37972E-06 0.00000E+00
 -1       623 1.16318E-04 1.45894E-06 0.00000E+00
 -1       624 1.16407E-04 1.53802E-06-8.27181E-25
 -1       625 1.16517E-04 1.61696E-06 0.00000E+00
 -1       626 1.16319E-04 1.40674E-06 0.00000E+00
 -1       627 1.16319E-04 1.67004E-06-1.65436E-24
 -1       628 1.16292E-04 2.00371E-06 3.30872E-24
 -1       629 1.16242E-04 2.39954E-06 1.65436E-24
 -1       630 1.16172E-04 2.84934E-06 0.00000E+00
 -1       631 1.16085E-04 3.34484E-06-1.65436E-24
 -1       632 1.15984E-04 3.87780E-06 0.00000E+00
 -1       633 1.15872E-04 4.43998E-06 1.65436E-24
 -1       634 1.15752E-04 5.02313E-06 0.00000E+00
 -1       635 1.15627E-04 5.61897E-06 0.00000E+00
 -1       636 1.15501E-04 6.21930E-06-3.30872E-24
 -1       637 1.15375E-04 6.81583E-06-8.27181E-25
 -1       638 1.15255E-04 7.40033E-06 1.65436E-24
 -1       639 1.15142E-04 7.96454E-06 1.65436E-24
 -1       640 1.15039E-04 8.50020E-06 1.65436E-24
 -1       656 1.15723E-04 1.13188E-05 0.00000E+00
 -1       657 1.15389E-04 1.08500E-05 0.00000E+00
 -1       658 1.15298E-04 1.03826E-05 1.32349E-23
 -1       659 1.15305E-04 9.91562E-06-6.61744E-24
 -1       660 1.15244E-04 9.44717E-06 0.00000E+00
 -1       661 1.16174E-04 1.26724E-05 8.27181E-25
 -1       662 1.15937E-04 1.35121E-05 0.00000E+00
 -1       663 1.15723E-04 1.42909E-05 0.00000E+00
 -1       664 1.15530E-04 1.50126E-05 8.27181E-25
 -1       665 1.15358E-04 1.56802E-05-1.65436E-24
 -1       666 1.15205E-04 1.62970E-05 0.00000E+00
 -1       667 1.15070E-04 1.68659E-05 1.65436E-24
 -1       668 1.14952E-04 1.73898E-05 0.00000E+00
 -1       669 1.14850E-04 1.78716E-05 1.65436E-24
 -1       670 1.14763E-04 1.83138E-05 8.27181E-25
 -1       671 1.14689E-04 1.87192E-05 1.65436E-24
 -1       672 1.14628E-04 1.90901E-05 0.00000E+00
 -1       673 1.14580E-04 1.94290E-05 0.00000E+00
 -1       674 1.14541E-04 1.97380E-05 0.00000E+00
 -1       675 1.14513E-04 2.00197E-05-4.13590E-25
 -1       676 1.15591E-04 2.07057E-05 0.00000E+00
 -1       677 1.15370E-04 2.06189E-05 0.00000E+00
 -1       678 1.15150E-04 2.05322E-05 0.00000E+00
 -1       679 1.14929E-04 2.04457E-05 0.00000E+00
 -1       680 1.14709E-04 2.03592E-05 0.00000E+00
 -1       771 1.70825E-05 5.85731E-06 0.00000E+00
 -1       772 1.16216E-05 1.68488E-05 0.00000E+00
 -1       773 7.04096E-06 2.55602E-05 0.00000E+00
 -1       774 3.28199E-06 3.21287E-05-2.64698E-23
 -1       775 2.86887E-07 3.66956E-05 0.00000E+00
 -1       776-2.00460E-06 3.94087E-05-2.64698E-23
 -1       777-3.65325E-06 4.04200E-05 0.00000E+00
 -1       778-4.72126E-06 3.98868E-05 2.64698E-23
 -1       779-5.27111E-06 3.79697E-05 0.00000E+00
 -1       780-5.36645E-06 3.48337E-05 0.00000E+00
 -1       781-5.07099E-06 3.06467E-05 5.29396E-23
 -1       782-4.44937E-06 2.55796E-05 0.00000E+00
 -1       783-3.56621E-06 1.98056E-05 5.29396E-23
 -1       784-2.48679E-06 1.34998E-05-1.32349E-23
 -1       785-1.27627E-06 6.83871E-06 0.00000E+00
 -1       786 1.15857E-04 6.48106E-06 0.00000E+00
 -1       787 1.15909E-04 6.01680E-06-4.13590E-25
 -1       788 1.15960E-04 5.58166E-06-1.65436E-24
 -1       789 1.16012E-04 5.16965E-06 0.00000E+00
 -1       790 1.16064E-04 4.77753E-06-1.65436E-24
 -1       791 1.16116E-04 4.40214E-06 0.00000E+00
 -1       792 1.16168E-04 4.04228E-06 0.00000E+00
 -1       793 1.16220E-04 3.69682E-06 8.27181E-25
 -1       794 1.16272E-04 3.36633E-06 0.00000E+00
 -1       795 1.16324E-04 3.05144E-06 0.00000E+00
 -1       796 1.16376E-04 2.75461E-06 0.00000E+00
 -1       797 1.16429E-04 2.47837E-06 0.00000E+00
 -1       798 1.16481E-04 2.22771E-06 1.65436E-24
 -1       799 1.16533E-04 2.00766E-06 0.00000E+00
 -1       800 1.16585E-04 1.82694E-06 1.65436E-24
 -1       801 1.07215E-04 6.04995E-06-1.32349E-23
 -1       802 8.03485E-05 4.77330E-06 0.00000E+00
 -1       803 4.68889E-05 3.32115E-06 2.64698E-23
 -1       804 1.87971E-05 2.01906E-06 0.00000E+00
 -1       805 1.50411E-06 9.43205E-07 2.64698E-23
 -1       806 1.15908E-04 6.42965E-06 1.65436E-24
 -1       807 1.15996E-04 5.89814E-06-1.65436E-24
 -1       808 1.16075E-04 5.38994E-06-3.30872E-24
 -1       809 1.16144E-04 4.90810E-06 0.00000E+00
 -1       810 1.16202E-04 4.45571E-06-3.30872E-24
 -1       811 1.16247E-04 4.03573E-06 0.00000E+00
 -1       812 1.16279E-04 3.65115E-06 0.00000E+00
 -1       813 1.16297E-04 3.30494E-06 8.27181E-25
 -1       814 1.16299E-04 3.00005E-06-1.65436E-24
 -1       815 1.16284E-04 2.73944E-06 8.27181E-25
 -1       816 1.16252E-04 2.52606E-06-3.30872E-24
 -1       817 1.16202E-04 2.36286E-06 0.00000E+00
 -1       818 1.16131E-04 2.25279E-06 3.30872E-24
 -1       819 1.16039E-04 2.19878E-06 0.00000E+00
 -1       820 1.15926E-04 2.20374E-06 0.00000E+00
 -1       821 1.16537E-04 1.53947E-06 0.00000E+00
 -1       822 1.16432E-04 1.29330E-06-8.27181E-25
 -1       823 1.16326E-04 1.03452E-06 3.30872E-24
 -1       824 1.16220E-04 8.41838E-07 0.00000E+00
 -1       825 1.16114E-04 7.79508E-07 3.30872E-24
 -1       826 1.16007E-04 9.11154E-07 1.65436E-24
 -1       827 1.15900E-04 1.25804E-06 0.00000E+00
 -1       828 1.15793E-04 1.84041E-06 0.00000E+00
 -1       829 1.15686E-04 2.62706E-06 3.30872E-24
 -1       830 1.15579E-04 3.58584E-06 0.00000E+00
 -1       831 1.15472E-04 4.64700E-06 3.30872E-24
 -1       832 1.15365E-04 5.74030E-06 0.00000E+00
 -1       833 1.15258E-04 6.78846E-06-3.30872E-24
 -1       834 1.15153E-04 7.71445E-06 0.00000E+00
 -1       835 1.15047E-04 8.46782E-06 0.00000E+00
 -1       836 1.16658E-04 1.79025E-06 3.30872E-24
 -1       837 1.16568E-04 1.88831E-06 0.00000E+00
 -1       838 1.16401E-04 1.98621E-06 0.00000E+00
 -1       839 1.16193E-04 2.08348E-06 8.27181E-25
 -1       840 1.15978E-04 2.18059E-06 0.00000E+00
 -1       856 1.14923E-04 9.47994E-06 0.00000E+00
 -1       857 1.14894E-04 1.00754E-05 0.00000E+00
 -1       858 1.14866E-04 1.07674E-05-4.13590E-25
 -1       859 1.14838E-04 1.15379E-05 4.13590E-25
 -1       860 1.14809E-04 1.23687E-05 8.27181E-25
 -1       861 1.14780E-04 1.32416E-05 4.13590E-25
 -1       862 1.14751E-04 1.41384E-05-8.27181E-25
 -1       863 1.14722E-04 1.50407E-05 4.13590E-25
 -1       864 1.14693E-04 1.59304E-05-8.27181E-25
 -1       865 1.14664E-04 1.67891E-05 0.00000E+00
 -1       866 1.14635E-04 1.75986E-05-8.27181E-25
 -1       867 1.14606E-04 1.83407E-05 0.00000E+00
 -1       868 1.14577E-04 1.89974E-05 0.00000E+00
 -1       869 1.14548E-04 1.95505E-05 0.00000E+00
 -1       870 1.14520E-04 1.99821E-05 0.00000E+00
 -1       871 1.14691E-04 8.99772E-06-4.13590E-25
 -1       872 1.14550E-04 8.99409E-06 0.00000E+00
 -1       873 1.14473E-04 8.99001E-06 0.00000E+00
 -1       874 1.14411E-04 8.98535E-06 1.03398E-25
 -1       875 1.14312E-04 8.98018E-06-2.06795E-25
 -1       876 1.14870E-04 9.49042E-06 0.00000E+00
 -1       877 1.14774E-04 1.00376E-05 1.65436E-24
 -1       878 1.14660E-04 1.06338E-05 0.00000E+00
 -1       879 1.14529E-04 1.12727E-05 0.00000E+00
 -1       880 1.14386E-04 1.19480E-05 0.00000E+00
 -1       881 1.14231E-04 1.26535E-05 1.65436E-24
 -1       882 1.14067E-04 1.33831E-05-3.30872E-24
 -1       883 1.13896E-04 1.41303E-05 0.00000E+00
 -1       884 1.13721E-04 1.48891E-05 0.00000E+00
 -1       885 1.13544E-04 1.56533E-05 0.00000E+00
 -1       886 1.13367E-04 1.64165E-05-3.30872E-24
 -1       887 1.13193E-04 1.71725E-05 1.65436E-24
 -1       888 1.13023E-04 1.79152E-05 3.30872E-24
 -1       889 1.12861E-04 1.86381E-05 0.00000E+00
 -1       890 1.12708E-04 1.93351E-05 0.00000E+00
 -1       891 1.14292E-04 2.02284E-05 8.27181E-25
 -1       892 1.14075E-04 2.01820E-05 8.27181E-25
 -1       893 1.13815E-04 2.01356E-05 8.27181E-25
 -1       894 1.13492E-04 2.00894E-05 0.00000E+00
 -1       895 1.13081E-04 2.00432E-05-2.06795E-25
 -1       956 1.15688E-04 2.46526E-06-3.30872E-24
 -1       957 1.15585E-04 2.72499E-06 0.00000E+00
 -1       958 1.15480E-04 3.04258E-06-1.65436E-24
 -1       959 1.15376E-04 3.41047E-06-1.65436E-24
 -1       960 1.15272E-04 3.82105E-06 0.00000E+00
 -1       961 1.15167E-04 4.26671E-06 0.00000E+00
 -1       962 1.15063E-04 4.73981E-06 0.00000E+00
 -1       963 1.14958E-04 5.23270E-06-1.65436E-24
 -1       964 1.14854E-04 5.73775E-06-3.30872E-24
 -1       965 1.14749E-04 6.24730E-06 1.65436E-24
 -1       966 1.14645E-04 6.75373E-06 0.00000E+00
 -1       967 1.14540E-04 7.24939E-06 1.65436E-24
 -1       968 1.14436E-04 7.72662E-06 0.00000E+00
 -1       969 1.14332E-04 8.17784E-06 0.00000E+00
 -1       970 1.14228E-04 8.59542E-06 0.00000E+00
 -1       971 1.14029E-04 9.36539E-06 0.00000E+00
 -1       972 1.13931E-04 9.84308E-06-8.27181E-25
 -1       973 1.13833E-04 1.03958E-05 1.65436E-24
 -1       974 1.13735E-04 1.10139E-05 0.00000E+00
 -1       975 1.13636E-04 1.16878E-05 3.30872E-24
 -1       976 1.13538E-04 1.24076E-05 0.00000E+00
 -1       977 1.13440E-04 1.31637E-05 0.00000E+00
 -1       978 1.13341E-04 1.39464E-05 0.00000E+00
 -1       979 1.13243E-04 1.47459E-05 3.30872E-24
 -1       980 1.13145E-04 1.55526E-05 1.65436E-24
 -1       981 1.13046E-04 1.63567E-05 0.00000E+00
 -1       982 1.12948E-04 1.71485E-05 0.00000E+00
 -1       983 1.12850E-04 1.79182E-05 0.00000E+00
 -1       984 1.12752E-04 1.86562E-05 1.65436E-24
 -1       985 1.12655E-04 1.93527E-05 0.00000E+00
 -3
    1PSTEP                        16           8           1          
  100CL  108 5.56641E-01         409                     0    8           1
 -4  STRESS      6    1
 -5  SXX         1    4    1    1
 -5  SYY         1    4    2    2
 -5  SZZ         1    4    3    3
 -5  SXY         1    4    1    2
 -5  SYZ         1    4    2    3
 -5  SZX         1    4    3    1
 -1         1-2.49078E+06-1.03830E+06-5.31036E+05-1.29711E+06-1.09139E-10-6.54836E-09
 -1         2 2.44768E+03-5.25191E+05 7.94372E+03-1.16437E+03-3.72609E-11 1.14283E-08
 -1         3-3.47502E+02-1.20776E+06 1.54609E+02-9.25941E+02 4.20183E-10 4.01633E-09
 -1         5-1.13411E+00 2.92014E+05 7.46808E+00 5.03769E-02 5.29435E-12-1.05849E-08
 -1         8-1.15467E+06-4.05436E+05-1.25609E+05-5.26609E+05 1.27329E-10-1.63709E-09
 -1         9-2.08884E+06-8.47573E+05-2.63401E+05-7.87954E+05 7.66595E-09-8.30041E-09
 -1        10-5.45791E+02-1.23320E+06-1.39135E+03-5.80346E+03-2.39288E-09-1.12588E-08
 -1        12 1.93125E+00 2.92029E+05 2.41754E+02 3.90719E-01-1.32978E-11-8.63997E-09
 -1        15 1.94963E+03 1.07144E+03 6.30218E+03 4.19572E+00-1.88038E-10 1.64122E-08
 -1        16-2.09749E+06-1.20843E+06-3.51769E+05-1.32833E+06 1.13117E-08 2.35547E-08
 -1        17-1.20463E+06-6.11010E+05-2.13074E+05-5.10156E+05-3.92174E-09 1.22120E-08
 -1        18-2.58574E+04-1.11871E+04-2.93051E+04-7.83428E+04 6.57781E-09 7.98445E-09
 -1        19 9.34746E+04 1.08405E+05-7.16630E+02 1.83556E+04-2.46109E-10-2.84854E-09
 -1        20-4.63546E+04-4.42278E+05-9.80731E+04 2.87094E+04 2.96541E-09 1.18350E-08
 -1        21-4.02338E+01-2.48541E+05-7.95088E+02-3.76616E+01-3.19763E-09-1.23702E-08
 -1        24-2.70599E+06-5.10413E+05-2.46789E+05-8.58779E+05-4.98209E-08-2.32152E-08
 -1        25-9.05272E+04-5.24137E+05-1.04505E+05-1.22706E+05-3.75348E-10 1.08874E-08
 -1        26-3.17462E+04 7.14205E+04-1.71695E+04-6.04794E+03 1.62836E-09 7.89893E-09
 -1        27-6.61638E+04-2.41186E+05-8.98831E+04 5.44750E+04 5.81000E-09 3.13139E-09
 -1        28 1.91338E+04-6.95035E+04 1.40922E+04 2.06407E+04 2.20987E-09-1.50232E-09
 -1        32-1.20647E+06-1.46654E+06 9.46529E+04-5.55801E+05-2.64554E-08-4.20630E-09
 -1        33-1.40604E+05 6.99024E+04 2.49415E+04-3.52819E+04 5.74479E-10 4.19974E-09
 -1        34-1.78470E+05-1.81238E+04 4.59887E+02 5.62207E+04 1.35283E-09-8.12588E-09
 -1        35-1.94930E+04-2.76103E+04-1.08803E+03 4.32970E+04 2.77597E-09-7.98900E-09
 -1        51 2.38317E+04-3.38760E+05 5.70742E+04-9.49709E+05 7.27596E-11 2.59170E-08
 -1        52 1.21175E+04-3.34161E+05 3.49143E+04-1.10756E+06 2.47383E-10-8.73115E-11
 -1        53 7.25793E+03-3.49060E+05 2.59694E+04-9.46351E+05 1.52795E-10-2.81289E-08
 -1        54 1.98369E+04-3.47476E+05 3.71013E+04-1.11104E+06 2.40107E-10-3.84171E-08
 -1        55 3.90531E+04-3.61075E+05 6.34614E+04-9.45803E+05 4.36557E-10-8.54197E-09
 -1        56-4.75389E+06-5.31805E+05-3.91000E+05-1.83851E+06-6.83940E-10-3.60887E-09
 -1        57-4.93026E+06-8.67424E+05-2.63752E+05-1.80167E+06-1.75805E-09 1.15942E-08
 -1        58-4.83140E+06-6.57047E+05-9.19365E+04-1.81513E+06 3.63798E-10-1.42500E-08
 -1        59-4.84100E+06-7.19904E+05-5.48894E+04-1.82877E+06-5.09090E-09-1.64655E-08
 -1        60-4.84205E+06-6.75181E+05-2.14364E+04-1.81274E+06-1.67529E-09 8.92214E-10
 -1        61-4.83044E+06-6.96816E+05-1.21517E+04-1.82936E+06 1.90732E-09-8.57005E-09
 -1        62-4.84169E+06-6.79609E+05-5.78270E+03-1.81465E+06-8.03311E-10-2.13721E-08
 -1        63-4.83366E+06-6.89285E+05-4.63645E+03-1.82400E+06 2.41926E-10 4.49461E-10
 -1        64-4.83875E+06-6.82676E+05-5.14807E+03-1.81808E+06-2.11458E-11-8.91760E-09
 -1        65-4.84119E+06-6.85042E+05-1.02361E+04-1.81656E+06-1.94524E-09-1.76112E-08
 -1        66-4.83418E+06-6.83907E+05-1.78612E+04-1.82207E+06-7.70797E-11 8.90668E-09
 -1        67-4.85778E+06-6.96321E+05-4.55260E+04-1.80713E+06-3.73302E-09 6.10817E-09
 -1        68-4.82239E+06-6.71830E+05-7.62355E+04-1.82742E+06-1.78625E-09 1.31695E-09
 -1        69-4.93508E+06-8.15356E+05-2.18634E+05-1.78103E+06-2.45655E-09-2.23226E-08
 -1        70-4.75787E+06-5.68288E+05-3.24194E+05-1.84711E+06-7.56700E-10-1.47847E-08
 -1        86-1.22654E+03-5.27635E+05 8.52304E+03 5.82183E+02 8.84711E-10 1.13374E-08
 -1        87 8.12790E+03-5.22498E+05 1.77574E+04-2.20504E+03 1.43609E-09 1.48476E-08
 -1        88-6.88514E+03-5.30327E+05 2.72429E+04 1.62288E+03 1.98634E-09-1.10385E-08
 -1        89 5.13068E+04-5.02584E+05 7.33757E+04-3.91533E+03 2.93221E-09 3.18983E-09
 -1        90-4.42504E+04-5.47522E+05 1.03807E+05 2.29275E+03 2.59024E-09 1.72832E-08
 -1       121-4.90247E+02-1.20910E+06-8.26070E+01 4.61810E+02 1.38677E-10 2.71393E-09
 -1       122-2.83793E+02-1.20775E+06 2.99309E+02-1.84851E+03 2.51348E-09-1.15133E-08
 -1       123-5.15434E+02-1.20914E+06 2.30117E+02 1.37976E+03 9.65258E-10 1.52068E-09
 -1       124 3.49258E+02-1.20749E+06 1.16719E+03-3.89750E+03 5.62636E-09 7.55244E-09
 -1       125-8.93045E+02-1.20948E+06 1.47500E+03 2.50540E+03 1.76806E-09 1.19398E-08
 -1       191-1.44055E+00 2.92039E+05 9.14230E+00-2.52540E-02 2.64733E-11 5.02041E-10
 -1       192-1.81815E+00 2.92014E+05 1.58012E+01 2.16738E-01 4.77427E-11 1.02068E-08
 -1       193-3.26021E+00 2.92039E+05 2.95953E+01-1.92031E-01 1.97691E-11 3.17368E-09
 -1       194-4.01987E+00 2.92016E+05 5.97397E+01 5.13811E-01 3.66072E-11-3.66060E-09
 -1       195-6.75735E+00 2.92037E+05 1.17063E+02-3.23743E-01 7.19282E-11-7.72343E-09
 -1       251-1.55148E+06 2.12908E+04-5.72985E+04-3.29755E+04-1.82581E-09-2.80124E-10
 -1       252-1.55422E+06-2.40791E+04-3.61460E+04 8.46850E+04 9.86802E-11 1.36279E-08
 -1       253-1.54843E+06 3.08321E+03-1.40164E+04-5.20260E+04-4.79304E-10-5.45788E-09
 -1       254-1.54962E+06-2.02665E+03-7.73657E+03 9.39494E+04-3.21825E-09 4.09273E-10
 -1       255-1.55661E+06-2.48022E+02-4.89810E+03-4.22508E+04 2.00066E-09 2.02976E-09
 -1       256-1.52678E+06 8.35763E+02 2.89325E+03 5.08815E+04 4.68208E-09 1.28523E-08
 -1       257-1.56920E+06-1.43230E+03-4.84069E+03-8.93292E+03 2.89629E-09-4.08289E-09
 -1       258-1.51915E+06 1.18894E+03 5.90529E+03-2.07752E+04 5.32737E-10-1.29479E-08
 -1       259-1.56352E+06-1.17700E+03-2.75707E+03 2.93777E+04-6.28961E-09-9.66973E-09
 -1       260-1.53957E+06 1.92658E+03 2.87851E+03-8.07888E+04-4.62853E-09-1.60959E-08
 -1       261-1.55078E+06-5.52754E+02 8.25359E+02 5.10838E+04 1.00545E-08 5.32830E-09
 -1       262-1.54807E+06 3.15099E+03 2.95931E+03-9.57847E+04-6.57300E-09 1.65090E-08
 -1       263-1.55589E+06-1.69046E+03 2.30791E+03 4.43896E+04 1.66187E-09 6.03541E-09
 -1       264-1.52532E+06 9.04702E+03 1.39462E+04-5.76352E+04 1.88231E-08-6.70070E-09
 -1       265-1.57159E+06-7.98652E+03 8.82885E+03 1.29079E+04 4.18822E-09 1.11422E-08
 -1       266-3.52938E+04-1.65010E+04 8.28208E+04-8.97864E+01 1.45519E-11 5.92223E-10
 -1       267 4.09163E+04 1.92360E+04 5.85307E+04 1.03582E+02 1.10049E-10-1.08124E-08
 -1       268-5.48675E+03-2.72415E+03 2.17559E+04-1.31989E+01-3.81988E-11 3.53368E-09
 -1       269 6.47830E+03 3.26045E+03 1.41407E+04 1.53739E+01 9.32232E-11 3.92378E-10
 -1       270-9.72401E+02-5.35708E+02 6.82592E+03-2.08639E+00-2.31921E-11 1.12589E-08
 -1       271-3.26300E+06-4.07955E+05-2.46342E+05-1.27024E+06-1.85173E-09-2.50293E-09
 -1       272-3.35173E+06-5.87464E+05-1.58411E+05-1.26762E+06 7.41124E-10-2.65445E-08
 -1       273-3.31040E+06-4.68361E+05-5.81995E+04-1.25804E+06-1.84991E-09 3.12866E-09
 -1       274-3.29550E+06-5.14153E+05-3.25497E+04-1.28672E+06-2.15141E-09 1.83381E-08
 -1       275-3.31836E+06-4.73145E+05-1.35632E+04-1.25437E+06 1.70803E-09-6.76664E-10
 -1       276-3.28538E+06-5.09269E+05-7.16490E+03-1.29308E+06-1.68393E-09 5.75528E-09
 -1       277-3.32084E+06-4.72143E+05-3.52754E+03-1.25231E+06-2.25282E-09 8.30664E-09
 -1       278-3.28230E+06-5.10908E+05-2.51012E+03-1.29645E+06 2.50930E-09 1.61162E-08
 -1       279-3.32179E+06-4.71212E+05-2.66150E+03-1.25128E+06-3.25372E-09 1.77522E-09
 -1       280-3.28194E+06-5.12339E+05-4.84974E+03-1.29750E+06 1.21599E-09 1.42718E-08
 -1       281-3.32134E+06-4.70668E+05-8.80436E+03-1.25134E+06 1.29091E-09 1.06238E-08
 -1       282-3.28682E+06-5.17289E+05-2.11251E+04-1.29558E+06-4.36103E-10-2.21053E-09
 -1       283-3.31689E+06-4.66860E+05-3.75967E+04-1.25293E+06 4.89479E-10 1.49157E-09
 -1       284-3.32219E+06-5.65685E+05-1.02493E+05-1.28427E+06-2.20359E-09 1.43864E-08
 -1       285-3.28649E+06-4.27578E+05-1.59338E+05-1.26055E+06-3.01952E-10 1.27184E-08
 -1       301 2.30238E+04-8.94448E+04 1.67990E+05-1.72830E+05-3.27418E-10 1.30767E-08
 -1       302 2.42390E+04-4.70824E+04 1.09667E+05-2.53462E+05 7.56586E-10 6.95036E-09
 -1       303 1.34936E+03-7.26586E+04 8.29788E+04-1.72680E+05-6.07542E-10 1.69202E-08
 -1       304 2.71321E+04-4.34640E+04 1.20101E+05-2.53046E+05 6.63931E-10-1.79061E-08
 -1       305 2.58212E+04-9.15675E+04 1.90993E+05-1.73302E+05-5.74801E-10-7.98900E-09
 -1       306-6.69863E+06-6.36785E+05-6.24417E+05-2.12094E+06-7.57427E-09-9.89530E-10
 -1       307-4.68533E+06-1.70255E+06-1.60398E+05-3.17143E+06-1.31826E-07 1.59671E-08
 -1       308-6.68237E+06-2.87450E+05-1.24934E+05-1.51080E+06-3.12903E-08 3.58850E-08
 -1       309-4.93848E+06-1.87420E+06-3.07646E+04-3.95281E+06 5.51469E-08-1.03323E-08
 -1       310-6.68139E+06-2.87575E+05-3.50995E+04-1.48473E+06 1.71531E-08-1.12141E-08
 -1       311-4.61247E+06-1.57914E+06 1.09319E+05-3.29030E+06 9.98116E-08-3.17004E-08
 -1       312-6.79508E+06-7.40214E+05-1.64536E+05-2.04436E+06 8.06322E-08 1.50831E-08
 -1       313-4.78195E+06-7.26215E+05 2.23612E+05-1.91013E+06 1.16925E-08 2.29174E-08
 -1       314-6.29194E+06-1.29674E+06-1.79167E+05-2.68299E+06 7.48842E-08-1.69312E-08
 -1       315-6.34065E+06 2.67878E+05 1.26089E+05-1.11436E+06-9.31796E-08-7.39856E-08
 -1       316-5.43837E+06-1.58488E+06-5.34092E+04-2.96692E+06-9.87347E-08-7.03549E-08
 -1       317-7.51954E+06 7.03806E+05-4.01705E+04-1.00839E+06 1.31457E-07-6.38602E-08
 -1       318-5.32931E+06-1.58281E+06-1.28329E+05-2.98712E+06-1.01754E-07 9.34961E-10
 -1       319-6.76075E+06 2.00896E+05-2.27920E+05-1.03228E+06-3.42006E-08-1.48884E-08
 -1       320-6.03663E+06-1.19628E+06-6.80791E+05-2.79055E+06 3.23053E-08-1.66474E-08
 -1       336 1.10876E+02-1.25900E+06-5.06029E+03 3.28001E+03-1.40253E-08-2.80415E-08
 -1       337-1.97735E+03-1.25956E+06-6.88494E+03-7.87812E+03-2.49584E-08-1.18480E-08
 -1       338 4.31622E+02-1.25877E+06-1.06255E+04 4.57067E+03-1.69525E-08 1.40244E-09
 -1       339-1.15579E+04-1.26575E+06-2.44021E+04-1.03927E+04-3.07487E-08 2.21880E-08
 -1       340 7.79938E+03-1.25320E+06-3.82592E+04 5.76982E+03-2.05546E-08-2.51021E-09
 -1       406 2.06056E+01 2.92026E+05 4.77498E+02-6.98389E-02 7.98650E-11-1.19587E-08
 -1       407 1.68312E+02 2.92113E+05 1.01437E+03-1.94114E+00-9.43601E-12-4.44584E-09
 -1       408 5.24229E+02 2.91953E+05 2.02616E+03 2.06091E+00 9.77707E-11-1.93957E-08
 -1       409 2.19223E+03 2.92760E+05 4.56094E+03-2.04169E+01-1.20963E-10-4.32728E-08
 -1       410 6.29519E+03 2.91377E+05 9.31112E+03 1.92500E+01 1.81899E-12-2.09689E-08
 -1       521-8.94244E+06-9.24427E+05-1.04860E+06-2.47114E+06-1.35042E-08 2.09839E-08
 -1       522-4.39517E+06-2.27947E+06-3.12157E+04-4.51382E+06-1.28253E-07-3.96358E-08
 -1       523-8.50031E+06-1.16568E+05-1.79307E+05-1.31257E+06-1.26674E-08-7.18283E-08
 -1       524-5.60468E+06-2.50760E+06 1.00074E+04-6.09551E+06 1.18758E-07-1.44450E-07
 -1       525-8.49745E+06-1.22169E+05-6.49453E+04-1.29558E+06 9.31468E-08-7.94844E-08
 -1       526-4.33503E+06-2.13998E+06 3.04763E+05-4.60503E+06 7.41566E-08-5.07789E-08
 -1       527-9.02954E+06-1.03660E+06-4.46068E+05-2.41281E+06 5.56465E-08-5.09317E-11
 -1       528-4.10691E+06-6.35084E+05 5.68731E+05-1.69360E+06-7.81583E-08 6.43267E-08
 -1       529-8.06067E+06-2.08994E+06-4.69371E+05-3.61106E+06-2.58442E-08 2.48401E-08
 -1       530-7.62766E+06 1.35079E+06 3.34812E+05-5.19488E+05-3.99814E-08 5.43296E-08
 -1       531-6.20746E+06-2.50276E+06-8.81939E+04-3.99228E+06-1.98153E-07-2.87691E-08
 -1       532-1.02827E+07 2.18270E+06 1.65019E+04-7.86810E+05 1.12421E-07-1.36081E-07
 -1       533-6.03810E+06-2.49941E+06-1.47345E+05-4.00220E+06 1.24128E-08-2.25970E-07
 -1       534-8.24597E+06 1.40093E+06-3.47223E+04-5.08585E+05-4.38595E-08 1.57735E-07
 -1       535-7.73983E+06-2.05862E+06-9.85533E+05-3.72824E+06-4.59841E-09 1.01048E-07
 -1       536-4.22888E+05-2.37542E+04 3.26658E+04-1.78883E+04-2.58115E-09 3.02807E-08
 -1       537-3.15096E+05 2.60642E+04 3.94922E+04 4.39084E+04-4.82837E-08 3.60606E-08
 -1       538-3.70541E+05-1.97357E+03 1.10461E+04-2.70645E+04 1.56602E-08 4.53442E-08
 -1       539-3.48739E+05 3.34163E+03 1.04135E+04 4.94307E+04 8.49102E-08 4.54899E-08
 -1       540-3.89883E+05-5.38607E+02-1.30764E+03-2.34355E+04 4.59738E-09 4.44558E-08
 -1       541-2.80796E+05 3.24348E+03 1.91003E+04 2.97964E+04-2.04429E-08 3.64749E-08
 -1       542-4.36654E+05-3.36600E+03-1.31656E+04-7.37798E+03 3.15249E-08 1.58678E-08
 -1       543-2.45652E+05 4.28266E+03 2.47746E+04-6.96576E+03-9.04765E-09-2.43579E-08
 -1       544-4.24095E+05-2.33457E+03-1.16448E+04 1.32802E+04-4.65434E-10-1.77097E-08
 -1       545-3.09392E+05 7.57286E+02 1.02999E+04-3.98227E+04 1.07698E-08-2.28568E-08
 -1       546-3.74589E+05 1.51843E+03-3.72262E+03 2.54652E+04 7.53130E-09-3.17931E-08
 -1       547-3.56499E+05-3.66350E+03-4.22531E+03-5.11864E+04-5.33645E-08-5.25482E-08
 -1       548-3.78202E+05 3.07015E+03-1.29557E+04 2.46843E+04-4.04723E-08-3.54908E-08
 -1       549-3.07005E+05-1.48510E+04-1.46293E+04-3.66609E+04-2.75666E-08-3.03935E-08
 -1       550-4.22608E+05 1.14956E+04-5.53670E+04 1.08937E+04 3.53634E-09-1.67056E-08
 -1       551 2.09061E+04-6.28801E+05 2.48606E+04-1.03068E+06-5.30345E-08-1.62981E-09
 -1       552 4.66574E+04-6.43497E+05 3.25563E+04-1.46840E+06-4.03234E-08 1.22236E-08
 -1       553 3.34431E+04-6.49038E+05 4.71720E+04-1.02668E+06-6.71862E-08 2.49202E-08
 -1       554 7.44690E+04-6.41418E+05 9.86110E+04-1.46991E+06-4.06726E-08 9.79935E-09
 -1       555 6.19220E+04-6.67927E+05 1.74742E+05-1.02763E+06-6.57383E-08-7.27596E-09
 -1       556 1.14700E+05-2.10540E+05 6.55350E+04-2.61629E+05-1.15106E-08-1.17288E-08
 -1       557 1.98931E+05-2.78312E+05 3.48419E+04-3.29682E+05 1.69530E-09 2.30830E-09
 -1       558 1.11698E+05-2.17727E+05 1.34413E+04-2.55444E+05-9.76434E-09-4.66025E-09
 -1       559 1.84780E+05-2.86413E+05 7.02539E+03-3.36987E+05 1.11104E-08-1.39353E-08
 -1       560 1.07114E+05-2.14774E+05 2.53150E+03-2.58534E+05 7.50879E-09 1.75532E-09
 -1       561 1.78371E+05-2.84313E+05 1.49464E+03-3.41127E+05 7.56700E-10 4.70027E-09
 -1       562 1.03487E+05-2.12431E+05 3.81365E+02-2.61137E+05 3.36149E-09-1.19871E-09
 -1       563 1.74114E+05-2.82466E+05 3.66701E+02-3.43862E+05 1.62981E-09-1.16153E-08
 -1       564 1.01099E+05-2.10917E+05 7.54715E+01-2.62825E+05 5.90080E-09-6.57792E-09
 -1       565 1.71655E+05-2.81401E+05 1.27404E+02-3.45418E+05 3.94175E-09 4.80213E-09
 -1       566 1.00006E+05-2.10215E+05 1.76432E+01-2.63597E+05-3.92538E-09-7.68887E-09
 -1       567 1.70956E+05-2.81083E+05-5.90565E+01-3.45774E+05 7.93079E-09 8.56016E-09
 -1       568 1.00250E+05-2.10380E+05-3.28550E+02-2.63511E+05-6.89579E-09 1.66037E-08
 -1       569 1.71174E+05-2.80979E+05-8.02399E+02-3.44150E+05-1.38334E-08 1.84882E-08
 -1       570 1.02526E+05-2.12261E+05-1.90701E+03-2.63190E+05 4.66389E-09 1.39407E-08
 -1       571 2.18790E+05 8.06168E+03 1.18795E+04-5.69256E+04-1.12323E-10 5.59385E-09
 -1       572 2.20550E+05 2.83925E+03 5.82049E+03-6.24293E+04 1.31149E-09-1.98384E-09
 -1       573 2.19495E+05 7.11855E+02 2.58588E+03-5.67935E+04 2.51066E-09 8.31506E-09
 -1       574 2.19699E+05 2.69126E+02 1.29585E+03-6.25806E+04 3.47768E-09 4.13820E-09
 -1       575 2.19574E+05 7.75224E+01 6.11069E+02-5.67760E+04 2.07160E-09 3.97176E-09
 -1       576 2.19585E+05 6.03839E+01 3.11698E+02-6.26008E+04-3.38540E-09-8.41646E-09
 -1       577 2.19590E+05 4.10101E+01 1.54583E+02-5.67737E+04 7.12726E-09 4.59522E-09
 -1       578 2.19581E+05 4.60228E+01 8.65319E+01-6.26033E+04 1.59528E-08 7.56381E-09
 -1       579 2.19611E+05 3.35876E+01 5.66145E+01-5.67735E+04 1.01190E-08-4.22051E-09
 -1       580 2.19610E+05 3.32471E+01 5.94733E+01-6.26000E+04-2.39015E-09-1.34141E-08
 -1       581 2.19646E+05 1.92537E+01 8.72186E+01-5.67770E+04 1.52795E-09 2.01226E-09
 -1       582 2.19672E+05 3.53246E+01 1.71947E+02-6.25646E+04 2.33558E-09-4.78940E-09
 -1       583 2.19686E+05 7.24005E+01 3.32235E+02-5.68090E+04 1.42063E-09-1.10226E-08
 -1       584 2.19844E+05 3.35294E+02 7.47153E+02-6.22964E+04-9.53150E-10 9.41327E-11
 -1       585 2.19652E+05 9.90446E+02 1.51764E+03-5.70456E+04 3.75621E-10-2.85581E-09
 -1       586-2.70030E+03 7.18597E+04-3.33517E+03-1.95571E+05-1.15824E-09-1.24732E-08
 -1       587-6.35174E+02 7.14434E+04-1.28431E+02-2.15257E+05-7.53062E-10-2.84365E-08
 -1       588 7.36804E+02 7.14915E+04 2.96720E+03-1.95474E+05-4.29281E-10-5.90262E-09
 -1       589 4.04729E+03 7.31033E+04 8.30562E+03-2.15037E+05-1.06775E-09-6.60293E-09
 -1       590 1.19024E+04 7.05608E+04 1.76616E+04-1.95802E+05-1.11504E-09-7.70888E-09
 -1       591-4.53223E+04-1.20493E+04-1.54145E+04-2.22226E+04 7.95808E-12-1.20153E-08
 -1       592-4.72521E+04-1.53500E+04-8.34933E+03-2.56898E+04 3.70756E-09-1.55356E-08
 -1       593-4.68735E+04-1.09210E+04-3.47574E+03-2.33434E+04 2.16005E-11 2.19484E-09
 -1       594-4.51117E+04-1.31013E+04-1.73352E+03-2.57867E+04-9.67475E-11 8.93871E-09
 -1       595-4.69921E+04-1.09164E+04-7.96416E+02-2.33946E+04-1.40460E-09 4.32489E-09
 -1       596-4.49661E+04-1.29984E+04-4.05644E+02-2.57708E+04 3.44875E-09-1.07642E-09
 -1       597-4.70071E+04-1.09266E+04-2.22554E+02-2.33966E+04 2.83791E-10 7.54335E-09
 -1       598-4.49520E+04-1.29945E+04-1.81972E+02-2.57662E+04-5.09939E-09-9.76095E-09
 -1       599-4.70059E+04-1.09268E+04-2.36276E+02-2.33962E+04 1.98463E-09-1.08122E-08
 -1       600-4.49671E+04-1.29996E+04-4.41979E+02-2.57699E+04 2.53408E-10-3.25974E-09
 -1       601-4.69874E+04-1.09163E+04-8.73529E+02-2.33933E+04 1.45542E-09-5.41172E-09
 -1       602-4.51266E+04-1.31123E+04-1.90458E+03-2.57850E+04-5.52859E-10-1.27823E-08
 -1       603-4.68552E+04-1.09235E+04-3.81994E+03-2.33373E+04 5.68207E-10 6.00471E-09
 -1       604-4.74894E+04-1.55719E+04-9.17609E+03-2.56632E+04 1.44962E-09-4.54929E-09
 -1       605-4.51374E+04-1.21741E+04-1.69408E+04-2.21170E+04 4.21420E-09 1.16661E-08
 -1       606 2.78014E+04-1.04945E+04-1.88717E+04 2.69029E+04-2.41926E-09 3.26963E-09
 -1       607 2.45711E+04-3.39695E+03-9.39715E+03 3.02042E+04-2.70666E-09 1.75987E-09
 -1       608 2.64031E+04-5.84200E+02-4.20817E+03 2.66913E+04 1.87174E-09-2.88310E-10
 -1       609 2.60402E+04-1.64055E+02-2.12540E+03 3.04411E+04 5.89353E-10-2.22462E-09
 -1       610 2.62338E+04 1.34502E+01-1.01516E+03 2.66675E+04 6.60839E-09-3.41129E-09
 -1       611 2.61668E+04 2.54943E+01-5.11835E+02 3.04669E+04 1.25001E-08-3.33989E-09
 -1       612 2.61886E+04 3.01479E+01-2.44555E+02 2.66652E+04 6.58383E-09-5.20413E-09
 -1       613 2.61644E+04 3.46468E+01-1.10690E+02 3.04699E+04-3.30328E-09-1.35897E-08
 -1       614 2.61639E+04 3.08518E+01-2.92096E+01 2.66644E+04 7.80346E-10-4.24734E-10
 -1       615 2.61517E+04 4.05364E+01 3.89271E+01 3.04704E+04 5.43878E-09-7.36600E-09
 -1       616 2.61450E+04 3.70899E+01 1.23533E+02 2.66646E+04-4.10910E-09-7.07064E-09
 -1       617 2.61601E+04 7.08567E+01 2.84743E+02 3.04699E+04-8.85393E-10 9.01764E-10
 -1       618 2.61154E+04 1.22243E+02 5.74869E+02 2.66648E+04 1.49203E-09-1.36674E-09
 -1       619 2.63591E+04 5.17867E+02 1.29164E+03 3.04691E+04 1.04933E-10-1.37720E-09
 -1       620 2.59220E+04 1.48773E+03 2.59627E+03 2.66637E+04 3.52418E-09 1.56842E-09
 -1       621 2.85215E+02 2.26920E+05 2.59016E+03 1.34626E+04-9.34506E-11 5.36556E-09
 -1       622 3.43114E+02 2.27555E+05 2.35897E+03 1.96040E+04 8.18545E-11 1.23955E-08
 -1       623 1.97736E+01 2.27076E+05 2.92153E+03 1.33982E+04 9.35643E-11 1.24030E-08
 -1       624 1.38527E+03 2.28500E+05 5.73015E+03 1.96694E+04 3.08546E-10-6.40546E-09
 -1       625 1.39216E+03 2.25952E+05 1.00474E+04 1.33968E+04 2.53294E-10-1.24567E-08
 -1       626 1.97243E+05 5.25442E+04 4.22138E+03 1.03613E+05-4.81077E-09-8.98763E-09
 -1       627 1.94842E+05 5.41851E+04 2.03425E+03 1.07680E+05-1.42609E-09-6.58099E-09
 -1       628 1.97376E+05 5.05761E+04 8.59398E+02 1.04283E+05 6.77574E-10 3.47654E-10
 -1       629 1.94266E+05 5.36718E+04 4.20916E+02 1.07921E+05 5.07316E-09 2.29488E-09
 -1       630 1.97384E+05 5.04835E+04 1.94454E+02 1.04305E+05 1.07957E-09 3.33546E-09
 -1       631 1.94198E+05 5.36577E+04 1.03996E+02 1.07921E+05-3.76622E-09 4.47480E-09
 -1       632 1.97375E+05 5.04905E+04 6.72825E+01 1.04296E+05-6.22504E-09-2.60192E-08
 -1       633 1.94184E+05 5.36629E+04 7.32487E+01 1.07914E+05-6.14818E-10 1.54887E-09
 -1       634 1.97365E+05 5.04913E+04 1.16784E+02 1.04292E+05 2.35241E-09-1.58593E-09
 -1       635 1.94189E+05 5.36641E+04 2.35571E+02 1.07914E+05 9.09495E-13-2.99087E-09
 -1       636 1.97353E+05 5.04897E+04 4.75217E+02 1.04289E+05-2.82637E-09-1.27416E-08
 -1       637 1.94288E+05 5.37392E+04 1.04423E+03 1.07910E+05 4.11040E-09-5.47334E-09
 -1       638 1.97314E+05 5.07218E+04 2.14572E+03 1.04183E+05 9.88621E-10-1.28184E-08
 -1       639 1.95413E+05 5.53070E+04 5.07621E+03 1.07576E+05 8.98808E-10 3.48200E-09
 -1       640 1.97163E+05 5.53960E+04 1.05342E+04 1.02202E+05-8.52560E-09-6.92899E-09
 -1       656 5.23318E+04-1.32870E+06-1.26328E+05-5.19997E+02 7.20320E-10-1.01314E-08
 -1       657-6.91799E+04-1.38574E+06-1.04535E+05 7.54475E+03 4.00178E-11 1.44813E-09
 -1       658 1.66260E+04-1.34495E+06-6.42284E+04-1.95236E+03 7.19865E-10-2.92699E-09
 -1       659-7.43945E+04-1.38821E+06-1.11384E+05 8.56079E+03-3.37423E-10-1.03623E-09
 -1       660 5.75343E+04-1.32624E+06-1.38106E+05-1.53602E+03-9.02219E-10 5.57017E-09
 -1       661 1.68959E+05 1.82669E+04 1.65581E+04 6.60699E+04 2.60343E-09-2.34013E-09
 -1       662 1.77788E+05 3.10520E+04 1.11578E+04 6.29604E+04 5.52564E-09 4.13820E-09
 -1       663 1.72207E+05 2.35815E+04 3.90290E+03 6.51297E+04 2.23326E-09 2.58683E-09
 -1       664 1.74026E+05 2.48331E+04 2.33377E+03 6.41056E+04 2.72132E-09-1.15024E-08
 -1       665 1.72696E+05 2.43110E+04 9.20616E+02 6.49905E+04-2.40448E-10-1.17543E-08
 -1       666 1.73450E+05 2.39959E+04 5.37387E+02 6.42853E+04-4.69670E-09-1.86874E-09
 -1       667 1.72779E+05 2.43967E+04 2.83903E+02 6.49581E+04 4.02707E-10-9.94794E-09
 -1       668 1.73360E+05 2.39305E+04 2.85780E+02 6.43324E+04 5.25517E-09-6.59011E-09
 -1       669 1.72786E+05 2.43744E+04 3.84015E+02 6.49441E+04 1.03140E-09 4.09102E-10
 -1       670 1.73455E+05 2.41361E+04 8.33525E+02 6.43338E+04 2.73036E-09 1.70949E-09
 -1       671 1.72685E+05 2.41952E+04 1.47907E+03 6.49550E+04-1.23077E-09-5.13859E-09
 -1       672 1.74316E+05 2.55752E+04 3.78345E+03 6.41258E+04-5.76815E-09-8.79004E-09
 -1       673 1.71929E+05 2.29716E+04 6.34019E+03 6.51382E+04-1.47077E-09-7.62702E-09
 -1       674 1.80352E+05 3.57596E+04 1.81315E+04 6.23512E+04-8.58506E-10-5.39058E-09
 -1       675 1.66688E+05 1.42957E+04 2.69131E+04 6.66223E+04 1.33014E-09-4.49836E-09
 -1       676 2.06302E+01-2.48475E+05-9.58288E+02 1.88313E+01-5.42940E-10 2.20489E-09
 -1       677-2.54476E+02-2.48706E+05-1.75379E+03-3.76399E+01-3.38173E-09-2.04917E-10
 -1       678 1.69882E+02-2.48310E+05-3.10025E+03 1.87957E+01-1.32752E-09 5.82965E-09
 -1       679-3.10111E+03-2.50578E+05-7.36475E+03-3.75038E+01 1.01227E-09-9.70054E-09
 -1       680 1.85076E+03-2.46604E+05-1.18695E+04 1.84820E+01-1.23691E-10-5.63733E-09
 -1       771-2.64192E+06-5.19929E+05-7.68398E+04-1.15674E+06-1.76660E-08-1.42754E-08
 -1       772-2.60748E+06-5.69058E+05-4.04995E+04-1.21250E+06-1.33878E-08 7.24867E-09
 -1       773-2.65496E+06-5.09626E+05-1.88396E+04-1.16138E+06-9.58971E-09 7.28323E-09
 -1       774-2.59866E+06-5.60938E+05-8.80193E+03-1.22131E+06 1.14087E-08 5.89353E-09
 -1       775-2.66001E+06-5.06063E+05-5.40410E+03-1.16263E+06-4.38013E-09 2.28465E-09
 -1       776-2.60065E+06-5.60770E+05-2.22665E+03-1.22718E+06-6.49743E-09 3.44153E-09
 -1       777-2.66408E+06-5.03061E+05-1.99034E+03-1.16369E+06-3.50701E-09-2.05182E-09
 -1       778-2.60311E+06-5.60751E+05-6.53798E+02-1.23214E+06 1.05356E-08 1.01591E-08
 -1       779-2.66747E+06-5.00500E+05-9.08941E+02-1.16461E+06-9.31323E-10 1.81899E-10
 -1       780-2.60531E+06-5.60685E+05-2.50493E+02-1.23616E+06-3.12866E-09-5.96629E-10
 -1       781-2.67010E+06-4.98465E+05-4.84685E+02-1.16533E+06-1.56870E-08-6.88487E-10
 -1       782-2.60703E+06-5.60601E+05-2.67056E+02-1.23911E+06-1.71240E-08-3.82693E-09
 -1       783-2.67191E+06-4.97086E+05-5.72715E+02-1.16583E+06-3.80169E-09-8.03425E-09
 -1       784-2.60837E+06-5.60806E+05-1.08112E+03-1.24089E+06-8.81664E-09 4.34738E-10
 -1       785-2.67262E+06-4.96530E+05-2.05532E+03-1.16594E+06-1.98688E-08-3.65617E-10
 -1       786 1.45008E+05-9.32753E+03 2.15791E+04-9.91501E+01 1.69712E-09 8.09814E-09
 -1       787 1.54363E+05 1.07984E+04 1.52666E+04 2.59885E+01 1.99469E-09 2.40061E-09
 -1       788 1.48616E+05-1.46214E+03 5.58425E+03-7.65044E+01 1.92341E-09 3.45040E-09
 -1       789 1.50160E+05 1.69167E+03 3.50732E+03-1.08111E+01 3.76685E-10-2.42323E-10
 -1       790 1.49212E+05-2.28252E+02 1.42407E+03-6.23540E+01-9.96216E-11 9.87728E-09
 -1       791 1.49464E+05 2.64332E+02 8.30257E+02-3.58074E+01-1.33230E-09 1.43241E-08
 -1       792 1.49312E+05-3.58731E+01 3.67359E+02-5.15082E+01-8.17578E-10 1.38819E-09
 -1       793 1.49348E+05 4.47937E+01 2.17187E+02-5.70795E+01-7.41161E-10-1.10283E-08
 -1       794 1.49328E+05-8.85432E+00 1.24881E+02-4.10816E+01 4.51518E-10-5.66852E-09
 -1       795 1.49339E+05 3.19945E+01 1.28616E+02-8.00796E+01-7.48029E-10 1.00273E-08
 -1       796 1.49321E+05-2.30781E+01 1.61189E+02-2.85077E+01 8.06844E-10 2.28427E-09
 -1       797 1.49404E+05 1.66082E+02 3.54046E+02-1.10429E+02 7.73416E-10-9.72346E-09
 -1       798 1.49263E+05-1.42845E+02 5.50450E+02-1.07311E+01-1.08433E-10 1.67353E-09
 -1       799 1.49814E+05 1.05433E+03 1.49317E+03-1.55563E+02 3.22394E-10 4.97687E-09
 -1       800 1.48910E+05-9.10618E+02 2.10699E+03 1.66271E+01 2.56195E-11 8.70523E-09
 -1       801 7.80155E+04-2.75151E+06-2.56862E+05 4.97855E+04 1.80153E-08-8.55061E-09
 -1       802-9.29794E+04-2.51203E+06-1.14854E+05-5.23288E+04 4.91127E-08-1.29876E-08
 -1       803 1.27889E+04-2.63343E+06-4.68906E+04 1.29331E+05 3.61069E-08 3.59604E-08
 -1       804 1.44324E+04-2.49921E+06 2.50566E+04-1.41937E+03 3.46081E-08 4.04254E-08
 -1       805-3.08587E+04-2.76397E+06 8.46676E+03-1.13107E+03 1.32204E-08 1.95614E-08
 -1       806-2.40428E+05-4.68609E+04-1.82388E+04-9.53961E+04-2.53249E-09 1.34332E-09
 -1       807-2.41916E+05-4.38314E+04-8.96048E+03-9.97533E+04 1.06320E-09-5.01765E-09
 -1       808-2.40921E+05-4.02957E+04-3.80126E+03-9.85142E+04-3.98040E-09-2.51322E-09
 -1       809-2.40031E+05-4.13161E+04-1.85864E+03-9.99778E+04-4.73005E-09 3.20870E-09
 -1       810-2.40998E+05-4.00662E+04-8.51550E+02-9.86526E+04 4.67935E-09-5.58589E-09
 -1       811-2.39886E+05-4.12149E+04-4.23072E+02-9.99514E+04 8.73979E-09-1.12504E-08
 -1       812-2.41011E+05-4.00848E+04-2.12882E+02-9.86526E+04 1.67665E-09-9.03924E-09
 -1       813-2.39867E+05-4.12165E+04-1.36846E+02-9.99382E+04-3.99291E-09 7.50697E-09
 -1       814-2.41007E+05-4.00916E+04-1.32880E+02-9.86499E+04-5.54792E-09-7.88145E-09
 -1       815-2.39871E+05-4.12181E+04-2.12044E+02-9.99343E+04-1.19690E-09-1.47952E-09
 -1       816-2.40993E+05-4.00898E+04-4.00167E+02-9.86477E+04 3.72893E-10 1.18785E-08
 -1       817-2.39940E+05-4.12561E+04-8.58774E+02-9.99274E+04-1.54796E-09-6.54836E-11
 -1       818-2.40944E+05-4.02096E+04-1.75095E+03-9.85910E+04 1.19690E-09-9.18772E-09
 -1       819-2.40900E+05-4.23137E+04-4.12067E+03-9.97026E+04 6.94854E-10-1.48384E-08
 -1       820-2.40619E+05-4.33178E+04-8.38655E+03-9.72565E+04-1.75987E-09-2.37605E-11
 -1       821-2.97664E+05 1.64657E+04-3.80803E+04 3.15922E+02 1.66274E-09-2.23918E-09
 -1       822-3.14161E+05-1.90618E+04-2.69467E+04-1.01585E+03-1.17603E-09 8.38418E-09
 -1       823-3.04029E+05 2.58186E+03-9.86249E+03 3.34578E+02-3.97637E-10-4.31646E-09
 -1       824-3.06728E+05-2.98785E+03-6.20415E+03-8.48988E+02 1.82247E-10-1.07138E-09
 -1       825-3.05094E+05 4.03794E+02-2.55299E+03 1.49061E+02-3.81561E-10 7.92124E-09
 -1       826-3.05481E+05-4.75756E+02-1.53513E+03-3.57742E+02-2.28344E-09 6.99964E-09
 -1       827-3.05274E+05 7.10484E+01-8.02403E+02-1.56676E+02-2.49572E-09-8.11957E-09
 -1       828-3.05315E+05-1.45295E+02-7.02965E+02 2.38216E+02-4.71755E-09-2.99715E-09
 -1       829-3.05260E+05 7.36369E+01-8.17848E+02-4.46907E+02-2.92541E-10 1.35320E-08
 -1       830-3.05523E+05-4.93535E+02-1.59379E+03 6.73975E+02 2.08697E-09-3.00219E-10
 -1       831-3.05068E+05 4.19623E+02-2.64334E+03-5.92444E+02-2.94923E-09-9.28924E-09
 -1       832-3.06799E+05-3.10068E+03-6.44165E+03 7.56102E+02-1.51956E-09-6.27324E-09
 -1       833-3.03985E+05 2.67906E+03-1.02385E+04-5.29034E+02-1.69748E-09-1.08457E-09
 -1       834-3.14475E+05-1.97849E+04-2.79672E+04 4.47435E+02-6.70076E-10-2.57569E-09
 -1       835-2.97393E+05 1.70906E+04-3.95347E+04-2.83763E+02 4.09910E-09-3.25781E-09
 -1       836-1.00800E+03 2.80756E+05 1.70139E+04-1.84291E+04 2.34650E-10 1.50931E-09
 -1       837 3.71479E+03 2.86042E+05 1.45576E+04-3.70467E+04 5.37057E-10-6.29211E-09
 -1       838-3.83372E+02 2.82218E+05 1.50570E+04-1.83606E+04 4.65661E-10-1.44623E-08
 -1       839 9.65258E+03 2.90467E+05 2.87041E+04-3.70824E+04 9.39963E-10-5.32791E-09
 -1       840-2.92240E+03 2.76288E+05 4.58676E+04-1.83925E+04 5.52973E-10 2.16914E-10
 -1       856-7.80561E+04 7.57858E+03-1.99719E+04-4.31540E+02-1.76118E-09-5.92900E-09
 -1       857-8.63026E+04-8.89046E+03-1.37498E+04 4.72053E+03-2.99238E-09-2.31012E-10
 -1       858-8.13152E+04 1.06195E+03-5.18305E+03-4.53530E+02-4.31896E-10 8.49468E-10
 -1       859-8.25606E+04-1.23610E+03-3.12970E+03 4.75529E+03 4.55259E-10 1.45246E-09
 -1       860-8.18024E+04 1.47780E+02-1.31489E+03-4.66392E+02 2.21863E-09 8.24070E-09
 -1       861-8.19998E+04-1.64199E+02-7.30162E+02 4.77291E+03-4.91897E-09 4.63011E-09
 -1       862-8.18783E+04 1.95292E+01-3.17191E+02-4.71172E+02 4.09656E-09 5.59012E-10
 -1       863-8.19092E+04-1.15460E+01-1.46582E+02 4.77517E+03 6.41696E-09-7.21332E-09
 -1       864-8.18933E+04-1.49008E+00-2.52828E+01-4.68655E+02 3.36669E-09-2.37878E-09
 -1       865-8.18758E+04 3.41617E+01 8.55653E+01 4.76227E+03 6.97129E-09 1.53522E-09
 -1       866-8.19099E+04-2.65875E+01 2.08253E+02-4.58276E+02-2.48860E-10-7.81614E-09
 -1       867-8.17680E+04 2.21742E+02 5.35770E+02 4.73406E+03-2.26464E-10-1.98738E-08
 -1       868-8.19974E+04-1.86819E+02 8.95659E+02-4.40437E+02-2.01601E-09-4.50075E-09
 -1       869-8.11040E+04 1.55257E+03 2.39366E+03 4.68732E+03-2.83694E-09-4.83081E-09
 -1       870-8.25683E+04-1.32293E+03 3.47226E+03-4.11539E+02 2.00748E-09-7.77550E-09
 -1       871-4.47050E+03-1.05365E+04-1.46685E+04 9.71548E+04 1.76806E-09 4.54475E-09
 -1       872-1.89753E+03-1.38429E+04-6.01394E+03 1.25959E+05 1.77602E-09 1.10172E-08
 -1       873 3.07804E+00-1.22951E+04 7.65499E+02 9.69417E+04 8.31278E-10 1.00445E-08
 -1       874 2.26848E+03-1.02227E+04 8.11254E+03 1.25999E+05 1.95473E-09 9.07676E-09
 -1       875 5.26983E+03-1.42197E+04 1.80504E+04 9.71205E+04 5.47516E-10-2.68119E-09
 -1       876 2.35254E+05 4.03114E+04 1.24162E+04 9.51874E+04 3.12127E-10 6.71662E-09
 -1       877 2.35998E+05 4.30027E+04 6.63059E+03 9.88220E+04-5.91899E-09-6.14455E-09
 -1       878 2.36414E+05 3.89376E+04 2.77790E+03 9.62071E+04 4.90900E-09 4.92082E-09
 -1       879 2.34309E+05 4.13199E+04 1.38392E+03 9.89085E+04 2.36059E-09 6.59088E-09
 -1       880 2.36498E+05 3.89228E+04 6.44411E+02 9.62487E+04 5.49721E-09 6.54410E-09
 -1       881 2.34197E+05 4.12482E+04 3.43554E+02 9.88903E+04 7.31052E-09 1.99718E-09
 -1       882 2.36506E+05 3.89332E+04 2.18809E+02 9.62499E+04 6.06951E-09 2.35614E-09
 -1       883 2.34189E+05 4.12447E+04 2.33646E+02 9.88848E+04 2.15846E-09-5.36528E-09
 -1       884 2.36501E+05 3.89307E+04 3.70239E+02 9.62501E+04-1.35344E-10-4.20027E-09
 -1       885 2.34219E+05 4.12500E+04 7.43490E+02 9.88940E+04 2.72996E-09 4.30566E-09
 -1       886 2.36472E+05 3.89090E+04 1.49805E+03 9.62471E+04 4.89912E-09 5.96333E-09
 -1       887 2.34482E+05 4.14226E+04 3.27215E+03 9.89320E+04 1.49646E-09-1.08457E-09
 -1       888 2.36265E+05 3.89453E+04 6.59344E+03 9.61423E+04 3.91370E-09 2.99224E-10
 -1       889 2.38410E+05 4.55025E+04 1.57510E+04 9.88088E+04-7.06663E-10-3.48223E-09
 -1       890 2.33579E+05 4.21365E+04 2.95006E+04 9.36271E+04 3.15504E-09-5.71345E-09
 -1       891-1.35862E+02-1.32762E+05-1.58640E+03 2.44125E+04 1.01090E-09 8.36894E-09
 -1       892-2.38777E+02-1.33147E+05-1.71834E+03 3.69583E+04-1.61504E-09 7.35963E-09
 -1       893-3.08616E+01-1.32811E+05-2.44808E+03 2.44177E+04 8.86757E-11-2.30102E-10
 -1       894-1.32091E+03-1.34080E+05-5.07747E+03 3.68257E+04-1.45110E-09-1.14237E-08
 -1       895-1.03576E+03-1.31753E+05-8.94579E+03 2.45437E+04-7.42318E-10-6.62476E-09
 -1       956-2.97591E+05-4.21010E+03-1.05774E+04 2.02603E+04 5.89353E-10-1.14680E-08
 -1       957-2.99678E+05-1.42638E+03-5.42988E+03 2.43985E+04 5.11682E-09-4.80077E-09
 -1       958-2.98532E+05-1.20000E+02-2.44640E+03 2.01355E+04 2.07001E-09 3.74030E-10
 -1       959-2.98697E+05-2.70804E+01-1.24955E+03 2.45351E+04-7.08496E-09 1.46149E-08
 -1       960-2.98617E+05 2.92977E+01-6.09220E+02 2.01234E+04-3.88036E-09 3.83989E-09
 -1       961-2.98627E+05 2.64362E+01-3.23275E+02 2.45490E+04-5.59612E-09 1.47725E-09
 -1       962-2.98635E+05 2.56148E+01-1.85178E+02 2.01215E+04-1.29558E-09 1.49248E-08
 -1       963-2.98624E+05 2.80930E+01-1.48883E+02 2.45515E+04 1.62981E-09 4.24143E-09
 -1       964-2.98638E+05 2.77989E+01-1.81072E+02 2.01208E+04 7.83075E-09-1.24744E-08
 -1       965-2.98635E+05 3.11194E+01-3.13179E+02 2.45514E+04 1.28236E-08-6.84918E-09
 -1       966-2.98628E+05 3.57821E+01-5.88119E+02 2.01216E+04 1.62629E-08-7.16000E-10
 -1       967-2.98711E+05-1.59710E+01-1.20632E+03 2.45429E+04 2.49262E-08 3.64412E-09
 -1       968-2.98552E+05-1.04027E+02-2.36091E+03 2.01294E+04 1.31981E-08-5.65484E-09
 -1       969-2.99667E+05-1.36290E+03-5.24185E+03 2.44522E+04 7.35508E-09 1.65329E-10
 -1       970-2.97650E+05-4.04980E+03-1.02103E+04 2.02138E+04 4.30873E-09 1.20972E-08
 -1       971-2.79634E+05-1.45506E+03-8.05602E+03 1.32951E+04-2.55613E-09-8.33106E-09
 -1       972-2.81591E+05-1.04617E+03-4.38723E+03 1.85497E+04-2.27237E-09-1.24373E-10
 -1       973-2.80531E+05-1.48482E+01-1.96466E+03 1.31845E+04-3.70574E-09-7.17932E-09
 -1       974-2.80665E+05-1.62575E+01-1.01788E+03 1.86699E+04 1.10595E-09-1.10655E-08
 -1       975-2.80601E+05 2.32644E+01-5.07942E+02 1.31742E+04 7.24867E-10 9.65429E-10
 -1       976-2.80610E+05 2.62852E+01-2.91469E+02 1.86826E+04-4.50746E-09-5.05179E-09
 -1       977-2.80615E+05 2.33385E+01-2.08739E+02 1.31717E+04-8.46057E-10-1.03751E-09
 -1       978-2.80614E+05 3.12142E+01-2.40438E+02 1.86861E+04 7.57825E-09-1.27272E-09
 -1       979-2.80614E+05 2.99822E+01-3.83021E+02 1.31707E+04 7.41909E-09 3.10979E-09
 -1       980-2.80642E+05 3.36314E+01-7.37504E+02 1.86867E+04 5.09920E-09-1.83240E-09
 -1       981-2.80591E+05 4.83562E+01-1.42730E+03 1.31711E+04-8.73570E-10 2.85229E-09
 -1       982-2.80838E+05-7.17767E+01-2.94959E+03 1.86810E+04 1.20360E-09-3.32919E-09
 -1       983-2.80411E+05-4.29645E+01-5.73075E+03 1.31766E+04 6.02040E-09 3.31011E-09
 -1       984-2.83594E+05-3.06463E+03-1.28333E+04 1.86059E+04-5.79439E-09 1.65949E-08
 -1       985-2.77817E+05-4.23638E+03-2.35660E+04 1.32502E+04-2.13277E-10 6.54472E-09
 -3
    1PSTEP                        17           9           1          
  100CL  109 5.65430E-01         409                     0    9           1
 -4  DISP        4    1
 -5  D1          1    2    1    0
 -5  D2          1    2    2    0
 -5  D3          1    2    3    0
 -5  ALL         1    2    0    0    1ALL
 -1         1 3.67728E-04 0.00000E+00 0.00000E+00
 -1         2 3.33550E-04-1.02933E-29-6.61744E-24
 -1         3 2.02353E-04-8.41846E-28 0.00000E+00
 -1         5 1.23526E-04-7.24813E-27 0.00000E+00
 -1         8 3.43886E-04-7.86917E-07 0.00000E+00
 -1         9 3.29778E-04-1.44844E-06 0.00000E+00
 -1        10 1.84309E-04-2.76643E-06-6.61744E-24
 -1        12 1.23527E-04 6.23188E-07 0.00000E+00
 -1        15 3.15354E-04-8.74379E-07-2.06795E-25
 -1        16 3.21455E-04-1.79749E-06 0.00000E+00
 -1        17 1.30219E-04-5.84028E-06 0.00000E+00
 -1        18 1.22276E-04 8.65387E-06 0.00000E+00
 -1        19 1.23530E-04 1.24323E-06 0.00000E+00
 -1        20 1.23677E-04 1.03357E-05 0.00000E+00
 -1        21 1.23030E-04 1.76709E-05 0.00000E+00
 -1        24 2.41455E-05-8.15993E-06 0.00000E+00
 -1        25 1.23757E-04 8.80228E-06 0.00000E+00
 -1        26 1.24513E-04 1.72280E-06 0.00000E+00
 -1        27 1.22797E-04 7.50169E-06 0.00000E+00
 -1        28 1.22356E-04 1.71448E-05 0.00000E+00
 -1        32 0.00000E+00 0.00000E+00 0.00000E+00
 -1        33 1.24360E-04 2.30905E-06 0.00000E+00
 -1        34 1.22657E-04 7.47348E-06 0.00000E+00
 -1        35 1.21063E-04 1.68635E-05 0.00000E+00
 -1        51 3.66184E-04-1.33590E-07 0.00000E+00
 -1        52 3.63318E-04-2.59227E-07 0.00000E+00
 -1        53 3.59386E-04-3.85377E-07 0.00000E+00
 -1        54 3.54657E-04-5.13855E-07 0.00000E+00
 -1        55 3.49401E-04-6.45713E-07-4.54949E-24
 -1        56 3.65696E-04-7.78244E-07-5.29396E-23
 -1        57 3.63594E-04-1.59114E-06-2.64698E-23
 -1        58 3.61479E-04-2.36116E-06 5.29396E-23
 -1        59 3.59320E-04-3.04851E-06 0.00000E+00
 -1        60 3.57113E-04-3.61098E-06 0.00000E+00
 -1        61 3.54845E-04-4.01784E-06-2.64698E-23
 -1        62 3.52512E-04-4.25290E-06-5.29396E-23
 -1        63 3.50111E-04-4.30921E-06-2.64698E-23
 -1        64 3.47648E-04-4.19738E-06 0.00000E+00
 -1        65 3.45128E-04-3.93627E-06-2.64698E-23
 -1        66 3.42566E-04-3.55977E-06-5.29396E-23
 -1        67 3.39976E-04-3.10680E-06 0.00000E+00
 -1        68 3.37377E-04-2.62499E-06 0.00000E+00
 -1        69 3.34795E-04-2.15895E-06 0.00000E+00
 -1        70 3.32235E-04-1.76059E-06 0.00000E+00
 -1        86 3.33425E-04-2.37006E-07-6.61744E-24
 -1        87 3.33049E-04-4.74536E-07 3.30872E-24
 -1        88 3.32455E-04-7.12238E-07 6.61744E-24
 -1        89 3.31675E-04-9.52995E-07-6.61744E-24
 -1        90 3.30764E-04-1.19286E-06 0.00000E+00
 -1       121 2.01846E-04-4.55393E-07 0.00000E+00
 -1       122 2.00330E-04-9.11769E-07 0.00000E+00
 -1       123 1.97808E-04-1.37010E-06-1.32349E-23
 -1       124 1.94289E-04-1.83137E-06 0.00000E+00
 -1       125 1.89784E-04-2.29640E-06 1.32349E-23
 -1       191 1.23526E-04 1.03868E-07 0.00000E+00
 -1       192 1.23526E-04 2.07736E-07-1.65436E-24
 -1       193 1.23526E-04 3.11603E-07 3.30872E-24
 -1       194 1.23526E-04 4.15469E-07 1.65436E-24
 -1       195 1.23527E-04 5.19331E-07 3.30872E-24
 -1       251 3.43275E-04 1.03605E-05-1.32349E-23
 -1       252 3.42444E-04 3.40841E-05 0.00000E+00
 -1       253 3.41394E-04 6.62313E-05 0.00000E+00
 -1       254 3.40208E-04 1.02456E-04 0.00000E+00
 -1       255 3.39067E-04 1.37327E-04-1.32349E-23
 -1       256 3.38131E-04 1.65442E-04 6.61744E-24
 -1       257 3.37415E-04 1.83200E-04-1.32349E-23
 -1       258 3.36843E-04 1.87234E-04 0.00000E+00
 -1       259 3.36238E-04 1.77799E-04-1.32349E-23
 -1       260 3.35435E-04 1.55460E-04 0.00000E+00
 -1       261 3.34409E-04 1.24191E-04 0.00000E+00
 -1       262 3.33229E-04 8.81707E-05 0.00000E+00
 -1       263 3.32072E-04 5.28425E-05-1.32349E-23
 -1       264 3.31105E-04 2.36365E-05 0.00000E+00
 -1       265 3.30362E-04 4.34874E-06 0.00000E+00
 -1       266 3.39131E-04-8.12650E-07 0.00000E+00
 -1       267 3.34376E-04-8.25867E-07 0.00000E+00
 -1       268 3.29620E-04-8.39877E-07 8.27181E-25
 -1       269 3.24865E-04-8.51539E-07 0.00000E+00
 -1       270 3.20110E-04-8.63145E-07-4.13590E-25
 -1       271 3.41049E-04 3.07653E-06-2.64698E-23
 -1       272 3.38490E-04 6.08457E-06 1.32349E-23
 -1       273 3.36238E-04 8.28694E-06 0.00000E+00
 -1       274 3.34267E-04 9.72809E-06 0.00000E+00
 -1       275 3.32558E-04 1.04700E-05 0.00000E+00
 -1       276 3.31084E-04 1.05833E-05-2.64698E-23
 -1       277 3.29815E-04 1.01497E-05 5.29396E-23
 -1       278 3.28718E-04 9.25917E-06 2.64698E-23
 -1       279 3.27754E-04 8.00949E-06 5.29396E-23
 -1       280 3.26887E-04 6.50400E-06 0.00000E+00
 -1       281 3.26075E-04 4.85027E-06 2.64698E-23
 -1       282 3.25278E-04 3.15831E-06-1.32349E-23
 -1       283 3.24455E-04 1.53860E-06-2.64698E-23
 -1       284 3.23568E-04 1.01866E-07-1.32349E-23
 -1       285 3.22572E-04-1.04726E-06 0.00000E+00
 -1       301 3.28306E-04-1.52324E-06-6.61744E-24
 -1       302 3.26577E-04-1.57346E-06 3.30872E-24
 -1       303 3.24808E-04-1.62223E-06 6.61744E-24
 -1       304 3.23219E-04-1.67096E-06 0.00000E+00
 -1       305 3.22029E-04-1.72105E-06 0.00000E+00
 -1       306 3.39307E-04-3.67525E-05 0.00000E+00
 -1       307 3.69615E-04-1.40922E-04 0.00000E+00
 -1       308 4.12623E-04-2.96557E-04 0.00000E+00
 -1       309 4.61585E-04-4.81561E-04 0.00000E+00
 -1       310 5.10532E-04-6.66494E-04 0.00000E+00
 -1       311 5.53478E-04-8.21917E-04 5.29396E-23
 -1       312 5.83685E-04-9.25789E-04-5.29396E-23
 -1       313 5.93024E-04-9.60764E-04 5.29396E-23
 -1       314 5.75816E-04-9.25277E-04 1.05879E-22
 -1       315 5.28498E-04-8.23569E-04 0.00000E+00
 -1       316 4.56037E-04-6.73521E-04 5.29396E-23
 -1       317 3.67596E-04-4.95730E-04-2.64698E-23
 -1       318 2.78107E-04-3.16160E-04 5.29396E-23
 -1       319 2.02719E-04-1.60827E-04 0.00000E+00
 -1       320 1.51436E-04-5.11045E-05 5.29396E-23
 -1       336 1.77822E-04-3.26023E-06 1.32349E-23
 -1       337 1.70283E-04-3.76132E-06 0.00000E+00
 -1       338 1.61719E-04-4.27014E-06 0.00000E+00
 -1       339 1.52163E-04-4.78655E-06 0.00000E+00
 -1       340 1.41650E-04-5.31225E-06 1.32349E-23
 -1       406 1.23527E-04 7.27033E-07-3.30872E-24
 -1       407 1.23528E-04 8.30845E-07 0.00000E+00
 -1       408 1.23528E-04 9.34596E-07 0.00000E+00
 -1       409 1.23529E-04 1.03816E-06 0.00000E+00
 -1       410 1.23529E-04 1.14135E-06 3.30872E-24
 -1       521 3.33538E-04-4.72630E-05 0.00000E+00
 -1       522 3.69881E-04-1.78335E-04-5.29396E-23
 -1       523 4.20113E-04-3.73688E-04 1.05879E-22
 -1       524 4.76226E-04-6.05233E-04-5.29396E-23
 -1       525 5.32233E-04-8.36100E-04 1.05879E-22
 -1       526 5.82084E-04-1.02948E-03 0.00000E+00
 -1       527 6.17693E-04-1.15767E-03-1.05879E-22
 -1       528 6.28584E-04-1.19983E-03 0.00000E+00
 -1       529 6.06117E-04-1.15397E-03 0.00000E+00
 -1       530 5.44810E-04-1.02665E-03 0.00000E+00
 -1       531 4.50234E-04-8.39939E-04 0.00000E+00
 -1       532 3.34356E-04-6.19578E-04-5.29396E-23
 -1       533 2.17048E-04-3.97011E-04 0.00000E+00
 -1       534 1.18500E-04-2.03751E-04-5.29396E-23
 -1       535 5.18789E-05-6.63803E-05 0.00000E+00
 -1       536 1.29924E-04 1.18636E-05 0.00000E+00
 -1       537 1.29374E-04 4.11634E-05-3.30872E-24
 -1       538 1.28605E-04 7.75764E-05 0.00000E+00
 -1       539 1.27744E-04 1.16582E-04 1.65436E-24
 -1       540 1.26975E-04 1.52948E-04 0.00000E+00
 -1       541 1.26452E-04 1.81458E-04-1.65436E-24
 -1       542 1.26166E-04 1.98997E-04 3.30872E-24
 -1       543 1.26021E-04 2.02516E-04-1.65436E-24
 -1       544 1.25837E-04 1.92579E-04-3.30872E-24
 -1       545 1.25451E-04 1.69835E-04 0.00000E+00
 -1       546 1.24841E-04 1.38263E-04-3.30872E-24
 -1       547 1.24075E-04 1.01895E-04-1.65436E-24
 -1       548 1.23327E-04 6.60607E-05 0.00000E+00
 -1       549 1.22766E-04 3.60853E-05 0.00000E+00
 -1       550 1.22430E-04 1.57191E-05-1.65436E-24
 -1       551 1.15891E-04-6.17393E-06 0.00000E+00
 -1       552 9.91605E-05-6.53730E-06 3.30872E-24
 -1       553 8.08180E-05-6.92597E-06-3.30872E-24
 -1       554 6.16667E-05-7.33075E-06 6.61744E-24
 -1       555 4.25099E-05-7.73838E-06-2.64698E-23
 -1       556 1.26205E-04 4.51780E-06 0.00000E+00
 -1       557 1.23051E-04 1.26782E-05 0.00000E+00
 -1       558 1.20669E-04 1.88285E-05 0.00000E+00
 -1       559 1.18978E-04 2.31717E-05 1.32349E-23
 -1       560 1.17896E-04 2.59108E-05 0.00000E+00
 -1       561 1.17343E-04 2.72498E-05 0.00000E+00
 -1       562 1.17239E-04 2.73937E-05 0.00000E+00
 -1       563 1.17508E-04 2.65474E-05 6.61744E-24
 -1       564 1.18070E-04 2.49163E-05 0.00000E+00
 -1       565 1.18848E-04 2.27059E-05-3.30872E-24
 -1       566 1.19765E-04 2.01222E-05 0.00000E+00
 -1       567 1.20745E-04 1.73709E-05 0.00000E+00
 -1       568 1.21711E-04 1.46579E-05 0.00000E+00
 -1       569 1.22586E-04 1.21890E-05 0.00000E+00
 -1       570 1.23293E-04 1.01699E-05 0.00000E+00
 -1       571 1.22352E-04 8.18500E-06 1.65436E-24
 -1       572 1.22430E-04 7.66980E-06 0.00000E+00
 -1       573 1.22508E-04 7.11792E-06 1.65436E-24
 -1       574 1.22586E-04 6.53950E-06-8.27181E-25
 -1       575 1.22665E-04 5.94469E-06-1.65436E-24
 -1       576 1.22743E-04 5.34372E-06 0.00000E+00
 -1       577 1.22822E-04 4.74681E-06 0.00000E+00
 -1       578 1.22901E-04 4.16421E-06-1.65436E-24
 -1       579 1.22979E-04 3.60612E-06 0.00000E+00
 -1       580 1.23058E-04 3.08280E-06 0.00000E+00
 -1       581 1.23137E-04 2.60448E-06-6.61744E-24
 -1       582 1.23215E-04 2.18138E-06 0.00000E+00
 -1       583 1.23294E-04 1.82371E-06 0.00000E+00
 -1       584 1.23373E-04 1.54158E-06 0.00000E+00
 -1       585 1.23452E-04 1.34502E-06 0.00000E+00
 -1       586 1.22469E-04 8.68031E-06-8.27181E-25
 -1       587 1.22638E-04 8.70611E-06 2.58494E-25
 -1       588 1.22816E-04 8.73160E-06 0.00000E+00
 -1       589 1.23039E-04 8.75661E-06 0.00000E+00
 -1       590 1.23342E-04 8.78080E-06 0.00000E+00
 -1       591 1.22413E-04 8.23534E-06 1.03398E-25
 -1       592 1.22558E-04 7.78925E-06 0.00000E+00
 -1       593 1.22710E-04 7.32174E-06-4.13590E-25
 -1       594 1.22868E-04 6.83810E-06-4.13590E-25
 -1       595 1.23031E-04 6.34372E-06 0.00000E+00
 -1       596 1.23195E-04 5.84394E-06 4.13590E-25
 -1       597 1.23359E-04 5.34409E-06 4.13590E-25
 -1       598 1.23521E-04 4.84951E-06 2.06795E-25
 -1       599 1.23679E-04 4.36552E-06 4.13590E-25
 -1       600 1.23831E-04 3.89744E-06 0.00000E+00
 -1       601 1.23976E-04 3.45061E-06-4.13590E-25
 -1       602 1.24110E-04 3.03036E-06-1.03398E-25
 -1       603 1.24233E-04 2.64201E-06-3.10193E-25
 -1       604 1.24341E-04 2.29097E-06-5.16988E-26
 -1       605 1.24435E-04 1.98253E-06 0.00000E+00
 -1       606 1.23543E-04 1.31517E-06 3.30872E-24
 -1       607 1.23553E-04 1.48245E-06 0.00000E+00
 -1       608 1.23563E-04 1.73948E-06 0.00000E+00
 -1       609 1.23572E-04 2.07993E-06 0.00000E+00
 -1       610 1.23581E-04 2.49747E-06 0.00000E+00
 -1       611 1.23590E-04 2.98566E-06 0.00000E+00
 -1       612 1.23599E-04 3.53805E-06 0.00000E+00
 -1       613 1.23608E-04 4.14822E-06 0.00000E+00
 -1       614 1.23617E-04 4.80972E-06 0.00000E+00
 -1       615 1.23626E-04 5.51608E-06-8.27181E-25
 -1       616 1.23635E-04 6.26088E-06 0.00000E+00
 -1       617 1.23643E-04 7.03767E-06 0.00000E+00
 -1       618 1.23652E-04 7.83999E-06 8.27181E-25
 -1       619 1.23661E-04 8.66141E-06 0.00000E+00
 -1       620 1.23669E-04 9.49548E-06 0.00000E+00
 -1       621 1.23580E-04 1.32334E-06-1.65436E-24
 -1       622 1.23693E-04 1.40372E-06 0.00000E+00
 -1       623 1.23855E-04 1.48406E-06 1.65436E-24
 -1       624 1.24054E-04 1.56427E-06-8.27181E-25
 -1       625 1.24278E-04 1.64432E-06 0.00000E+00
 -1       626 1.23593E-04 1.34298E-06 0.00000E+00
 -1       627 1.23627E-04 1.51965E-06 0.00000E+00
 -1       628 1.23636E-04 1.76548E-06-3.30872E-24
 -1       629 1.23623E-04 2.07224E-06-1.65436E-24
 -1       630 1.23589E-04 2.43173E-06 0.00000E+00
 -1       631 1.23539E-04 2.83567E-06 0.00000E+00
 -1       632 1.23475E-04 3.27580E-06 0.00000E+00
 -1       633 1.23401E-04 3.74385E-06-1.65436E-24
 -1       634 1.23319E-04 4.23156E-06 0.00000E+00
 -1       635 1.23233E-04 4.73067E-06 0.00000E+00
 -1       636 1.23146E-04 5.23292E-06 3.30872E-24
 -1       637 1.23060E-04 5.73003E-06-8.27181E-25
 -1       638 1.22980E-04 6.21375E-06-1.65436E-24
 -1       639 1.22908E-04 6.67580E-06 8.27181E-25
 -1       640 1.22846E-04 7.10791E-06 0.00000E+00
 -1       656 1.23057E-04 9.87467E-06-6.61744E-24
 -1       657 1.22821E-04 9.39516E-06 0.00000E+00
 -1       658 1.22831E-04 8.91707E-06 1.32349E-23
 -1       659 1.22943E-04 8.43936E-06-6.61744E-24
 -1       660 1.22987E-04 7.96016E-06 6.61744E-24
 -1       661 1.23448E-04 1.11437E-05-8.27181E-25
 -1       662 1.23247E-04 1.18857E-05 0.00000E+00
 -1       663 1.23070E-04 1.25644E-05-1.65436E-24
 -1       664 1.22915E-04 1.31839E-05 0.00000E+00
 -1       665 1.22781E-04 1.37473E-05-1.65436E-24
 -1       666 1.22668E-04 1.42583E-05 8.27181E-25
 -1       667 1.22572E-04 1.47200E-05 1.65436E-24
 -1       668 1.22494E-04 1.51357E-05 0.00000E+00
 -1       669 1.22432E-04 1.55082E-05 0.00000E+00
 -1       670 1.22386E-04 1.58408E-05-8.27181E-25
 -1       671 1.22353E-04 1.61360E-05-1.65436E-24
 -1       672 1.22333E-04 1.63967E-05 0.00000E+00
 -1       673 1.22325E-04 1.66256E-05-1.65436E-24
 -1       674 1.22327E-04 1.68251E-05 8.27181E-25
 -1       675 1.22339E-04 1.69979E-05 4.13590E-25
 -1       676 1.22917E-04 1.75827E-05 0.00000E+00
 -1       677 1.22805E-04 1.74945E-05-1.65436E-24
 -1       678 1.22692E-04 1.74064E-05-3.30872E-24
 -1       679 1.22580E-04 1.73186E-05 0.00000E+00
 -1       680 1.22468E-04 1.72307E-05 0.00000E+00
 -1       771 1.72198E-05 6.56581E-06 0.00000E+00
 -1       772 1.13115E-05 1.86493E-05 0.00000E+00
 -1       773 6.37328E-06 2.82270E-05 0.00000E+00
 -1       774 2.34054E-06 3.54489E-05 0.00000E+00
 -1       775-8.50710E-07 4.04695E-05 0.00000E+00
 -1       776-3.26706E-06 4.34510E-05-2.64698E-23
 -1       777-4.97561E-06 4.45598E-05 0.00000E+00
 -1       778-6.04498E-06 4.39686E-05 0.00000E+00
 -1       779-6.54402E-06 4.18537E-05-5.29396E-23
 -1       780-6.54286E-06 3.83967E-05 0.00000E+00
 -1       781-6.11163E-06 3.37817E-05 5.29396E-23
 -1       782-5.32147E-06 2.81971E-05 0.00000E+00
 -1       783-4.24344E-06 2.18330E-05 0.00000E+00
 -1       784-2.94936E-06 1.48824E-05-1.32349E-23
 -1       785-1.51083E-06 7.53966E-06-2.64698E-23
 -1       786 1.23800E-04 8.16653E-06-2.06795E-25
 -1       787 1.23847E-04 7.57291E-06 0.00000E+00
 -1       788 1.23894E-04 7.01428E-06 0.00000E+00
 -1       789 1.23941E-04 6.48361E-06 0.00000E+00
 -1       790 1.23989E-04 5.97690E-06 1.65436E-24
 -1       791 1.24036E-04 5.49020E-06-8.27181E-25
 -1       792 1.24084E-04 5.02175E-06 0.00000E+00
 -1       793 1.24132E-04 4.56982E-06 0.00000E+00
 -1       794 1.24179E-04 4.13447E-06 0.00000E+00
 -1       795 1.24227E-04 3.71584E-06 8.27181E-25
 -1       796 1.24275E-04 3.31584E-06 1.65436E-24
 -1       797 1.24322E-04 2.93645E-06 8.27181E-25
 -1       798 1.24370E-04 2.58190E-06 0.00000E+00
 -1       799 1.24418E-04 2.25646E-06 0.00000E+00
 -1       800 1.24465E-04 1.96759E-06-1.65436E-24
 -1       801 1.12421E-04 7.60539E-06 0.00000E+00
 -1       802 7.70922E-05 5.82807E-06-1.32349E-23
 -1       803 3.68476E-05 3.89113E-06 0.00000E+00
 -1       804 1.10354E-05 2.40223E-06-1.32349E-23
 -1       805-8.40586E-07 1.16846E-06 2.64698E-23
 -1       806 1.23904E-04 8.11409E-06 0.00000E+00
 -1       807 1.24039E-04 7.45020E-06 0.00000E+00
 -1       808 1.24163E-04 6.81428E-06-1.65436E-24
 -1       809 1.24275E-04 6.20910E-06 0.00000E+00
 -1       810 1.24374E-04 5.63737E-06 3.30872E-24
 -1       811 1.24460E-04 5.10174E-06 8.27181E-25
 -1       812 1.24531E-04 4.60487E-06 0.00000E+00
 -1       813 1.24587E-04 4.14938E-06 1.65436E-24
 -1       814 1.24626E-04 3.73789E-06 3.30872E-24
 -1       815 1.24648E-04 3.37302E-06 1.65436E-24
 -1       816 1.24651E-04 3.05740E-06-1.65436E-24
 -1       817 1.24635E-04 2.79363E-06 8.27181E-25
 -1       818 1.24599E-04 2.58433E-06 1.65436E-24
 -1       819 1.24541E-04 2.43208E-06 1.65436E-24
 -1       820 1.24461E-04 2.33947E-06 0.00000E+00
 -1       821 1.24412E-04 1.44765E-06 0.00000E+00
 -1       822 1.24304E-04 1.06920E-06 0.00000E+00
 -1       823 1.24197E-04 6.72171E-07 0.00000E+00
 -1       824 1.24089E-04 3.41370E-07 1.65436E-24
 -1       825 1.23981E-04 1.46875E-07 3.30872E-24
 -1       826 1.23873E-04 1.58112E-07 1.65436E-24
 -1       827 1.23764E-04 3.98898E-07 0.00000E+00
 -1       828 1.23656E-04 8.91943E-07-1.65436E-24
 -1       829 1.23547E-04 1.60403E-06 0.00000E+00
 -1       830 1.23438E-04 2.50090E-06 0.00000E+00
 -1       831 1.23330E-04 3.50733E-06 0.00000E+00
 -1       832 1.23221E-04 4.54755E-06 1.65436E-24
 -1       833 1.23113E-04 5.53830E-06 0.00000E+00
 -1       834 1.23005E-04 6.39659E-06-8.27181E-25
 -1       835 1.22898E-04 7.06866E-06 0.00000E+00
 -1       836 1.24653E-04 1.82036E-06 0.00000E+00
 -1       837 1.24683E-04 1.92013E-06-1.65436E-24
 -1       838 1.24637E-04 2.01975E-06 0.00000E+00
 -1       839 1.24546E-04 2.11873E-06 0.00000E+00
 -1       840 1.24443E-04 2.21754E-06 0.00000E+00
 -1       856 1.22773E-04 7.87700E-06 0.00000E+00
 -1       857 1.22746E-04 8.36834E-06 0.00000E+00
 -1       858 1.22719E-04 8.95751E-06 0.00000E+00
 -1       859 1.22691E-04 9.62625E-06 4.13590E-25
 -1       860 1.22663E-04 1.03562E-05-8.27181E-25
 -1       861 1.22635E-04 1.11289E-05-4.13590E-25
 -1       862 1.22607E-04 1.19258E-05 0.00000E+00
 -1       863 1.22579E-04 1.27285E-05-4.13590E-25
 -1       864 1.22552E-04 1.35185E-05-8.27181E-25
 -1       865 1.22524E-04 1.42773E-05 0.00000E+00
 -1       866 1.22496E-04 1.49864E-05 0.00000E+00
 -1       867 1.22468E-04 1.56273E-05-4.13590E-25
 -1       868 1.22440E-04 1.61819E-05 8.27181E-25
 -1       869 1.22412E-04 1.66317E-05 0.00000E+00
 -1       870 1.22384E-04 1.69587E-05-8.27181E-25
 -1       871 1.22651E-04 7.50034E-06-4.13590E-25
 -1       872 1.22624E-04 7.49651E-06 0.00000E+00
 -1       873 1.22664E-04 7.49221E-06 0.00000E+00
 -1       874 1.22717E-04 7.48732E-06-2.06795E-25
 -1       875 1.22732E-04 7.48191E-06 4.13590E-25
 -1       876 1.22761E-04 7.88787E-06 0.00000E+00
 -1       877 1.22707E-04 8.33051E-06 1.65436E-24
 -1       878 1.22634E-04 8.82277E-06-3.30872E-24
 -1       879 1.22545E-04 9.35837E-06 1.65436E-24
 -1       880 1.22442E-04 9.93093E-06 0.00000E+00
 -1       881 1.22327E-04 1.05341E-05 0.00000E+00
 -1       882 1.22204E-04 1.11617E-05 3.30872E-24
 -1       883 1.22074E-04 1.18073E-05-1.65436E-24
 -1       884 1.21939E-04 1.24646E-05 3.30872E-24
 -1       885 1.21802E-04 1.31274E-05-1.65436E-24
 -1       886 1.21666E-04 1.37893E-05 3.30872E-24
 -1       887 1.21532E-04 1.44441E-05 0.00000E+00
 -1       888 1.21403E-04 1.50855E-05-3.30872E-24
 -1       889 1.21281E-04 1.57069E-05 0.00000E+00
 -1       890 1.21168E-04 1.63022E-05 0.00000E+00
 -1       891 1.22265E-04 1.70977E-05 0.00000E+00
 -1       892 1.22155E-04 1.70505E-05 4.13590E-25
 -1       893 1.22002E-04 1.70032E-05-8.27181E-25
 -1       894 1.21784E-04 1.69561E-05 0.00000E+00
 -1       895 1.21478E-04 1.69091E-05 4.13590E-25
 -1       956 1.24255E-04 2.40783E-06 3.30872E-24
 -1       957 1.24149E-04 2.57273E-06-8.27181E-25
 -1       958 1.24043E-04 2.79636E-06 1.65436E-24
 -1       959 1.23936E-04 3.07089E-06-1.65436E-24
 -1       960 1.23829E-04 3.38850E-06-3.30872E-24
 -1       961 1.23722E-04 3.74133E-06 1.65436E-24
 -1       962 1.23615E-04 4.12150E-06-3.30872E-24
 -1       963 1.23508E-04 4.52113E-06-1.65436E-24
 -1       964 1.23402E-04 4.93233E-06-3.30872E-24
 -1       965 1.23295E-04 5.34723E-06 1.65436E-24
 -1       966 1.23188E-04 5.75795E-06 0.00000E+00
 -1       967 1.23081E-04 6.15659E-06 0.00000E+00
 -1       968 1.22974E-04 6.53528E-06 3.30872E-24
 -1       969 1.22868E-04 6.88617E-06 0.00000E+00
 -1       970 1.22761E-04 7.20142E-06 3.30872E-24
 -1       971 1.22558E-04 7.76114E-06-1.65436E-24
 -1       972 1.22458E-04 8.13410E-06-8.27181E-25
 -1       973 1.22359E-04 8.58295E-06 1.65436E-24
 -1       974 1.22258E-04 9.09791E-06 0.00000E+00
 -1       975 1.22158E-04 9.66921E-06 3.30872E-24
 -1       976 1.22058E-04 1.02870E-05 1.65436E-24
 -1       977 1.21958E-04 1.09416E-05 3.30872E-24
 -1       978 1.21858E-04 1.16230E-05-1.65436E-24
 -1       979 1.21757E-04 1.23215E-05 0.00000E+00
 -1       980 1.21657E-04 1.30272E-05 1.65436E-24
 -1       981 1.21557E-04 1.37304E-05 0.00000E+00
 -1       982 1.21457E-04 1.44211E-05-1.65436E-24
 -1       983 1.21357E-04 1.50895E-05 0.00000E+00
 -1       984 1.21257E-04 1.57259E-05 0.00000E+00
 -1       985 1.21158E-04 1.63204E-05-1.65436E-24
 -3
    1PSTEP                        18           9           1          
  100CL  109 5.65430E-01         409                     0    9           1
 -4  STRESS      6    1
 -5  SXX         1    4    1    1
 -5  SYY         1    4    2    2
 -5  SZZ         1    4    3    3
 -5  SXY         1    4    1    2
 -5  SYZ         1    4    2    3
 -5  SZX         1    4    3    1
 -1         1-2.73229E+06-1.11617E+06-5.86750E+05-1.33652E+06 4.94765E-10 3.66708E-09
 -1         2 2.30994E+03-6.74992E+05 7.46745E+03-7.23809E+02 3.16334E-11-3.03307E-09
 -1         3-4.30827E+02-1.29854E+06 1.67202E+02-1.10593E+03 4.98037E-10-6.65386E-09
 -1         5-7.86513E-01 2.97192E+05 7.54376E+00-4.12059E-04-2.79285E-11-1.28614E-09
 -1         8-1.08991E+06-3.79845E+05-1.17570E+05-4.82528E+05 3.05590E-10 2.73212E-08
 -1         9-1.42778E+06-8.50460E+05-1.50139E+05-8.32245E+05 1.12021E-08 1.95578E-09
 -1        10-6.29392E+02-1.32597E+06-1.65719E+03-6.92785E+03-1.95450E-09-7.79096E-09
 -1        12 2.31046E+00 2.97207E+05 2.44178E+02-3.16444E-03 2.10463E-11-1.94626E-10
 -1        15 1.84841E+03 1.01581E+03 5.97497E+03 3.80104E+00-1.55751E-11 1.88887E-08
 -1        16-6.68106E+05-1.09705E+06-1.34784E+05-1.28461E+06 1.29609E-08 4.28990E-08
 -1        17-7.19443E+05-3.17982E+05-9.07801E+04-2.03563E+05-2.84635E-09 1.08441E-08
 -1        18-1.28562E+04-7.96764E+03-2.67201E+04-8.15515E+04 7.95512E-09 6.34282E-09
 -1        19 9.57005E+04 1.10188E+05-7.78109E+02 1.88263E+04-1.30603E-10-8.97198E-09
 -1        20-4.94560E+04-4.53007E+05-1.00590E+05 2.83729E+04 3.53778E-09-5.37208E-10
 -1        21-4.07813E+01-2.52465E+05-8.05496E+02-1.95274E+01-1.25527E-09 5.42856E-09
 -1        24-1.79018E+06 5.61321E+04-2.98748E+04-2.84137E+05-6.13703E-08-2.71636E-08
 -1        25-1.14766E+05-6.22881E+05-1.27791E+05-1.35562E+05 2.27101E-10 7.69960E-09
 -1        26-3.53432E+04 7.19095E+04-1.81922E+04-4.84514E+03 1.50794E-09-1.61918E-08
 -1        27-6.64636E+04-2.46635E+05-9.17353E+04 5.57302E+04 5.33282E-09 1.31968E-09
 -1        28 1.93995E+04-7.08414E+04 1.43282E+04 2.05872E+04 1.58875E-09-2.12463E-09
 -1        32-1.31095E+06-1.87387E+06 7.79240E+03-4.99903E+05-2.81093E-08-3.05142E-09
 -1        33-1.44464E+05 7.12864E+04 2.54686E+04-3.44807E+04 2.47458E-10-5.12955E-10
 -1        34-1.82330E+05-1.86252E+04 4.81726E+02 5.78191E+04 1.82580E-09-6.59323E-09
 -1        35-1.97767E+04-2.81404E+04-1.11011E+03 4.39799E+04 2.12349E-09-7.39965E-09
 -1        51 2.71772E+04-3.20146E+05 6.35057E+04-9.03486E+05 8.73115E-11 2.47383E-09
 -1        52 1.27761E+04-3.13800E+05 3.78141E+04-1.05361E+06 1.01863E-10 5.87897E-09
 -1        53 6.84825E+03-3.28596E+05 2.67627E+04-9.00276E+05 3.05590E-10-2.50875E-08
 -1        54 1.84745E+04-3.26676E+05 3.62916E+04-1.05694E+06 1.45519E-11-2.25155E-08
 -1        55 3.67370E+04-3.39658E+05 6.07929E+04-8.99762E+05 6.83940E-10 1.61599E-08
 -1        56-5.20656E+06-5.82460E+05-4.32437E+05-2.01630E+06-1.28784E-09-1.77533E-09
 -1        57-5.41060E+06-9.44959E+05-2.91754E+05-1.96535E+06-4.12911E-10 5.75892E-09
 -1        58-5.29052E+06-7.22837E+05-1.01665E+05-1.99247E+06 1.24055E-09-1.62363E-08
 -1        59-5.31430E+06-7.79217E+05-6.06991E+04-1.99242E+06-4.15093E-09-9.53150E-09
 -1        60-5.30156E+06-7.43632E+05-2.37011E+04-1.99066E+06 1.70394E-09-1.12504E-09
 -1        61-5.30285E+06-7.53473E+05-1.34427E+04-1.99288E+06-5.34510E-09 2.81566E-08
 -1        62-5.30169E+06-7.47982E+05-6.39129E+03-1.99215E+06-3.07909E-09 4.36125E-09
 -1        63-5.30425E+06-7.47382E+05-5.15996E+03-1.98957E+06-1.46377E-09 2.08497E-08
 -1        64-5.30012E+06-7.49655E+05-5.71193E+03-1.99398E+06 3.31246E-09 8.68113E-09
 -1        65-5.30846E+06-7.46878E+05-1.14327E+04-1.98612E+06 3.59222E-10-1.50067E-11
 -1        66-5.29752E+06-7.48534E+05-1.99065E+04-1.99559E+06-5.09317E-11-4.13638E-09
 -1        67-5.32182E+06-7.64594E+05-5.08181E+04-1.98140E+06 1.29421E-09-7.82165E-09
 -1        68-5.28699E+06-7.32440E+05-8.50673E+04-1.99859E+06-4.14730E-10-3.52302E-08
 -1        69-5.40336E+06-9.02227E+05-2.44063E+05-1.95758E+06-3.07682E-09-1.76660E-08
 -1        70-5.21709E+06-6.14746E+05-3.61857E+05-2.01821E+06 1.76806E-09-1.33296E-08
 -1        86-1.15346E+03-6.77045E+05 8.06876E+03 3.61907E+02 3.89491E-10-6.83997E-09
 -1        87 7.67378E+03-6.72414E+05 1.67436E+04-1.35215E+03 5.85260E-10 2.64891E-08
 -1        88-6.49925E+03-6.79619E+05 2.57451E+04 9.90271E+02 1.00681E-09 1.15334E-08
 -1        89 4.84590E+04-6.53521E+05 6.92978E+04-2.33775E+03 1.43336E-09-7.61589E-09
 -1        90-4.17979E+04-6.95901E+05 9.80638E+04 1.34762E+03 1.29512E-09-1.88689E-08
 -1       121-6.04630E+02-1.30018E+06-1.30293E+02 5.51374E+02 1.02432E-10 1.43627E-08
 -1       122-3.58762E+02-1.29855E+06 3.17178E+02-2.20771E+03 2.93525E-09 9.89894E-09
 -1       123-6.28342E+02-1.30023E+06 1.93846E+02 1.64682E+03 1.16194E-09-4.52201E-09
 -1       124 3.31640E+02-1.29829E+06 1.22071E+03-4.63299E+03 6.19002E-09 1.57706E-09
 -1       125-1.02730E+03-1.30059E+06 1.47753E+03 2.96919E+03 1.97088E-09-7.43603E-09
 -1       191-1.07834E+00 2.97218E+05 9.25311E+00 2.06620E-04-2.20766E-11-3.40764E-09
 -1       192-1.47728E+00 2.97192E+05 1.59604E+01-1.73102E-03-1.56124E-11-1.44350E-08
 -1       193-2.91600E+00 2.97218E+05 2.99111E+01 1.52846E-03-3.21556E-11-2.99489E-09
 -1       194-3.70070E+00 2.97195E+05 6.03392E+01-4.09028E-03-3.74429E-11 6.18847E-09
 -1       195-6.44771E+00 2.97216E+05 1.18255E+02 2.57640E-03-4.92903E-11-1.50673E-08
 -1       251-1.64804E+06 1.47212E+04-7.95119E+04-6.01389E+04-9.34051E-10 1.44428E-09
 -1       252-1.52525E+06-1.57713E+04-2.66157E+04 1.76509E+05 5.03587E-09-1.86224E-08
 -1       253-1.58549E+06 9.76727E+02-1.69007E+04-1.16250E+05-1.01859E-08-1.40317E-08
 -1       254-1.57793E+06 6.67306E+03-5.84003E+03 2.23571E+05-3.58949E-09 5.74146E-08
 -1       255-1.60145E+06-2.70830E+03-7.89723E+03-1.07443E+05 4.37512E-09 6.62794E-10
 -1       256-1.48074E+06 7.54971E+03 1.92317E+04 1.45418E+05 2.45018E-08-7.51049E-09
 -1       257-1.67333E+06-7.44616E+03-2.03065E+04-3.77855E+04 7.16955E-09-2.69313E-09
 -1       258-1.41317E+06 6.42605E+03 3.35010E+04-1.72541E+04-1.62913E-08 1.03949E-08
 -1       259-1.66243E+06-6.90298E+03-1.69440E+04 5.49779E+04-1.50249E-09 1.10179E-09
 -1       260-1.50521E+06 9.07929E+03 1.74772E+04-1.69605E+05 2.05719E-08-3.40733E-08
 -1       261-1.59031E+06-2.80386E+03-2.42444E+02 1.14457E+05 2.90247E-08-2.76923E-08
 -1       262-1.57611E+06 1.27774E+04 6.72727E+03-2.24311E+05 5.67434E-09-4.46090E-09
 -1       263-1.59855E+06-4.91728E+03 1.33416E+03 1.09951E+05 6.00039E-09 3.08180E-08
 -1       264-1.48191E+06 2.29253E+04 3.39520E+04-1.53742E+05 4.86236E-08 1.59125E-08
 -1       265-1.67582E+06-1.99238E+04-2.74976E+03 4.35842E+04 1.35688E-08 1.29239E-09
 -1       266-3.34615E+04-1.56447E+04 7.85194E+04-8.13386E+01 4.00178E-11-1.30762E-08
 -1       267 3.87920E+04 1.82372E+04 5.54917E+04 9.38384E+01 6.27551E-11-4.17755E-08
 -1       268-5.20190E+03-2.58273E+03 2.06263E+04-1.19572E+01-1.27329E-11-9.26410E-09
 -1       269 6.14196E+03 3.09116E+03 1.34065E+04 1.39277E+01 1.26420E-10-9.32414E-09
 -1       270-9.21915E+02-5.07895E+02 6.47152E+03-1.89012E+00-1.20508E-11 1.48333E-08
 -1       271-3.08311E+06-3.84132E+05-2.32298E+05-1.19839E+06 8.91305E-10-2.91038E-11
 -1       272-3.17431E+06-5.46270E+05-1.49433E+05-1.18779E+06 3.09592E-09-2.30539E-08
 -1       273-3.12739E+06-4.41583E+05-5.48724E+04-1.18737E+06-5.50494E-09 8.87667E-10
 -1       274-3.12173E+06-4.76512E+05-3.07117E+04-1.20495E+06 2.96495E-10-9.36961E-09
 -1       275-3.13469E+06-4.46352E+05-1.27901E+04-1.18413E+06-2.26282E-09-1.63072E-09
 -1       276-3.11225E+06-4.71731E+05-6.75354E+03-1.21063E+06-7.19729E-09 9.29958E-09
 -1       277-3.13703E+06-4.45421E+05-3.32673E+03-1.18217E+06-5.39330E-10-1.01381E-08
 -1       278-3.10904E+06-4.73537E+05-2.33692E+03-1.21405E+06-3.74439E-09-2.06414E-08
 -1       279-3.13816E+06-4.44306E+05-2.46482E+03-1.18093E+06-3.45790E-09-4.09378E-08
 -1       280-3.10804E+06-4.75550E+05-4.44297E+03-1.21587E+06-2.36651E-09 1.03689E-08
 -1       281-3.13821E+06-4.43331E+05-8.05093E+03-1.18047E+06 3.71324E-09 9.62928E-09
 -1       282-3.11156E+06-4.81119E+05-1.93169E+04-1.21543E+06-1.14483E-09-6.79393E-09
 -1       283-3.13477E+06-4.39188E+05-3.43359E+04-1.18123E+06 5.05224E-10 3.09228E-10
 -1       284-3.14268E+06-5.26705E+05-9.36807E+04-1.20681E+06 1.55705E-09-3.22616E-08
 -1       285-3.10777E+06-4.02473E+05-1.45553E+05-1.18732E+06-2.12640E-09 5.21686E-09
 -1       301 2.33732E+04-1.36727E+05 1.71173E+05-2.63535E+05-7.27596E-11-4.43106E-09
 -1       302 2.47362E+04-9.37075E+04 1.10573E+05-3.86039E+05 3.26963E-10 5.88699E-09
 -1       303 1.32739E+03-1.19659E+05 8.15379E+04-2.63105E+05-4.05635E-10 1.02391E-08
 -1       304 2.56776E+04-9.13713E+04 1.15221E+05-3.85615E+05 5.09317E-10 6.80302E-10
 -1       305 2.39498E+04-1.36771E+05 1.81312E+05-2.64023E+05-4.36557E-10 1.87138E-08
 -1       306-8.13761E+06-8.83208E+05-1.05813E+06-2.05875E+06-1.82481E-08-5.35510E-09
 -1       307-2.48919E+06-1.92990E+06 1.70837E+05-3.99661E+06-2.30117E-07-6.88669E-09
 -1       308-7.21817E+06 4.36205E+04-1.64097E+05-7.62282E+05-4.65661E-10 5.01095E-08
 -1       309-4.22203E+06-2.22074E+06 5.20845E+04-5.70614E+06 1.04515E-07 3.14212E-08
 -1       310-7.22626E+06 3.32651E+04-7.74288E+04-7.63078E+05-2.99697E-08-2.42580E-08
 -1       311-2.43042E+06-1.84928E+06 4.33399E+05-4.00352E+06 1.87894E-07-4.57967E-08
 -1       312-8.18430E+06-9.54643E+05-5.68422E+05-2.04882E+06 1.83936E-08 4.67044E-08
 -1       313-1.86006E+06-2.18441E+05 7.85251E+05-8.02435E+05-9.08040E-09-5.56611E-10
 -1       314-7.11574E+06-2.07479E+06-5.82612E+05-3.31891E+06-1.08266E-08 1.81317E-08
 -1       315-5.98400E+06 1.81896E+06 4.49348E+05 2.07244E+05-1.31666E-07 1.29148E-09
 -1       316-4.84393E+06-2.40167E+06-9.56603E+04-3.51536E+06-1.71793E-07-1.41103E-07
 -1       317-9.00590E+06 2.55793E+06 4.15693E+04-3.04412E+05 2.12097E-07-1.63165E-07
 -1       318-4.72776E+06-2.38882E+06-1.69010E+05-3.51010E+06-2.18526E-07 2.78287E-08
 -1       319-6.39436E+06 1.80381E+06 9.98780E+04 1.94874E+05-4.98330E-08 2.02708E-08
 -1       320-6.89499E+06-2.02344E+06-1.12179E+06-3.38046E+06 6.25732E-08-1.99070E-08
 -1       336 5.96714E+01-1.35385E+06-5.79409E+03 3.93389E+03-1.44109E-08-4.64206E-09
 -1       337-2.27190E+03-1.35443E+06-8.09833E+03-9.41459E+03-2.73797E-08 6.04632E-09
 -1       338 5.11731E+02-1.35352E+06-1.27209E+04 5.44402E+03-1.90089E-08 6.86305E-09
 -1       339-1.38826E+04-1.36196E+06-2.93505E+04-1.23541E+04-3.39196E-08 1.04201E-08
 -1       340 9.39975E+03-1.34681E+06-4.60637E+04 6.84103E+03-2.21316E-08 1.41736E-08
 -1       406 2.11899E+01 2.97205E+05 4.82302E+02 6.09379E-04 6.09361E-11 2.29186E-09
 -1       407 1.70356E+02 2.97292E+05 1.02453E+03 1.50294E-02-1.41256E-11-1.27005E-08
 -1       408 5.29854E+02 2.97131E+05 2.04648E+03-1.60348E-02-7.19638E-11 1.67329E-08
 -1       409 2.21452E+03 2.97946E+05 4.60664E+03 1.59431E-01-1.31138E-10 1.11789E-08
 -1       410 6.35856E+03 2.96550E+05 9.40442E+03-1.50457E-01-1.21418E-10 8.68328E-09
 -1       521-1.03755E+07-1.26635E+06-1.56340E+06-2.37416E+06-3.16359E-08 3.63216E-08
 -1       522-2.11607E+06-2.34636E+06 3.12709E+05-5.35952E+06-1.95927E-07-8.66876E-08
 -1       523-8.89209E+06 1.13846E+05-2.21528E+05-5.74141E+05 1.28493E-08-1.03246E-07
 -1       524-5.14992E+06-2.49598E+06 1.06793E+05-7.85065E+06 2.73492E-07-2.40203E-07
 -1       525-8.92583E+06 9.02409E+04-1.17538E+05-5.92284E+05 2.31783E-07-1.44695E-07
 -1       526-1.98214E+06-2.26100E+06 6.60314E+05-5.28489E+06 6.74772E-08-9.05129E-09
 -1       527-1.04293E+07-1.36049E+06-9.21668E+05-2.40405E+06 1.35711E-07-1.70548E-08
 -1       528-7.66481E+05-6.96940E+04 1.16930E+06-3.99121E+05 3.13157E-08-8.26840E-08
 -1       529-8.88241E+06-2.96667E+06-9.37878E+05-4.20901E+06-8.62638E-08-7.36763E-08
 -1       530-7.15820E+06 3.05543E+06 6.81993E+05 7.66494E+05-1.03901E-07 1.40062E-07
 -1       531-5.57644E+06-3.32412E+06-1.33307E+05-4.41796E+06-2.50264E-07 5.22414E-09
 -1       532-1.17653E+07 4.12892E+06 1.13563E+05-4.30629E+05 1.36595E-07-2.39968E-07
 -1       533-5.41326E+06-3.30894E+06-1.94681E+05-4.40328E+06 1.01718E-08-3.19000E-07
 -1       534-7.72738E+06 3.15621E+06 3.21400E+05 6.81648E+05-6.10889E-08 2.33667E-07
 -1       535-8.61435E+06-2.99042E+06-1.50276E+06-4.27722E+06-8.26549E-09 1.48386E-07
 -1       536-4.46850E+05-2.64654E+04 2.89413E+04-2.12371E+04-2.74940E-09 3.18651E-08
 -1       537-2.97405E+05 2.85655E+04 4.44359E+04 5.22993E+04-5.39848E-08 4.00541E-08
 -1       538-3.74424E+05-1.68720E+03 1.11355E+04-3.22612E+04 7.70393E-09 5.98234E-08
 -1       539-3.45028E+05 3.37404E+03 1.18300E+04 5.94674E+04 8.24655E-08 6.04454E-08
 -1       540-4.00214E+05-4.95518E+02-2.65377E+03-2.84506E+04 7.81984E-09 4.66995E-08
 -1       541-2.50059E+05 4.28883E+03 2.59024E+04 3.67352E+04-2.58580E-08 4.19588E-08
 -1       542-4.66843E+05-4.68343E+03-1.86230E+04-9.44161E+03 2.38801E-08 1.57819E-08
 -1       543-1.98201E+05 6.06304E+03 3.49551E+04-7.69584E+03-1.44234E-08-1.05218E-08
 -1       544-4.50698E+05-3.38838E+03-1.63790E+04 1.59049E+04-1.32488E-08-2.20608E-08
 -1       545-2.86712E+05 1.34621E+03 1.54032E+04-4.76200E+04 6.48527E-10-4.36037E-08
 -1       546-3.80664E+05 1.93104E+03-4.26440E+03 3.04569E+04 1.85814E-08-4.60709E-08
 -1       547-3.53743E+05-3.83820E+03-3.20500E+03-6.13310E+04-5.29413E-08-5.94546E-08
 -1       548-3.85413E+05 3.21586E+03-1.38707E+04 2.96841E+04-5.32480E-08-3.90296E-08
 -1       549-2.81441E+05-1.25747E+04-8.88339E+03-4.43386E+04-2.85813E-08-2.66482E-08
 -1       550-4.50901E+05 8.97398E+03-6.12558E+04 1.33883E+04 3.90264E-09-1.46647E-08
 -1       551 2.29100E+04-6.51618E+05 2.33295E+04-1.05026E+06-5.82077E-08-5.07862E-09
 -1       552 5.08551E+04-6.68414E+05 3.18084E+04-1.49651E+06-4.22442E-08 1.63564E-08
 -1       553 3.67086E+04-6.73450E+05 4.66640E+04-1.04605E+06-7.06350E-08 1.50394E-08
 -1       554 7.95357E+04-6.67924E+05 9.80767E+04-1.49811E+06-4.53729E-08 1.20185E-08
 -1       555 6.55205E+04-6.92890E+05 1.73919E+05-1.04689E+06-7.08751E-08-5.20231E-09
 -1       556 1.26050E+05-2.29768E+05 6.48812E+04-2.80872E+05-1.25146E-08-2.96859E-09
 -1       557 2.16269E+05-3.02379E+05 3.46635E+04-3.54934E+05-1.60071E-09 6.83576E-09
 -1       558 1.21840E+05-2.36139E+05 1.31155E+04-2.75210E+05-1.00117E-08-6.10453E-09
 -1       559 2.00885E+05-3.10163E+05 6.93900E+03-3.63393E+05 1.20781E-08 2.47383E-09
 -1       560 1.16351E+05-2.32618E+05 2.34971E+03-2.78945E+05 7.90169E-09 2.60734E-08
 -1       561 1.93377E+05-3.07602E+05 1.45534E+03-3.68279E+05 4.32919E-09 3.64253E-09
 -1       562 1.12026E+05-2.29843E+05 2.91629E+02-2.82048E+05-1.45519E-10 2.84308E-09
 -1       563 1.88304E+05-3.05397E+05 3.57920E+02-3.71543E+05-3.08501E-09-1.95706E-08
 -1       564 1.09153E+05-2.28028E+05 4.57135E+01-2.84077E+05 7.58155E-09 1.03737E-08
 -1       565 1.85323E+05-3.04104E+05 1.33189E+02-3.73432E+05 1.10958E-10-1.16415E-09
 -1       566 1.07792E+05-2.27157E+05 1.45921E+01-2.85035E+05-2.28101E-09 2.97587E-09
 -1       567 1.84399E+05-3.03688E+05-6.18742E+01-3.73926E+05 1.48166E-08 1.40499E-08
 -1       568 1.07990E+05-2.27294E+05-3.58631E+02-2.84987E+05-4.97676E-09-6.18456E-10
 -1       569 1.84640E+05-3.03596E+05-8.85704E+02-3.72201E+05-1.06284E-08 9.96079E-09
 -1       570 1.10479E+05-2.29345E+05-2.11633E+03-2.84580E+05 6.06087E-09 1.92413E-08
 -1       571 2.24632E+05 8.27729E+03 1.21758E+04-5.87696E+04-1.58661E-09 1.85537E-10
 -1       572 2.26435E+05 2.92611E+03 5.96566E+03-6.44596E+04 4.14730E-10-1.10876E-08
 -1       573 2.25355E+05 7.44187E+02 2.65042E+03-5.86380E+04 1.18052E-09-1.28421E-09
 -1       574 2.25562E+05 2.91690E+02 1.32824E+03-6.46117E+04 7.25322E-10 3.18323E-12
 -1       575 2.25436E+05 9.35540E+01 6.26439E+02-5.86205E+04 8.35598E-10 8.00446E-09
 -1       576 2.25447E+05 7.70451E+01 3.19710E+02-6.46320E+04-2.47064E-09-4.62660E-09
 -1       577 2.25454E+05 5.52204E+01 1.58849E+02-5.86181E+04-8.69022E-10-1.48111E-09
 -1       578 2.25445E+05 6.11904E+01 8.95500E+01-6.46346E+04-2.50066E-09 7.61747E-09
 -1       579 2.25478E+05 4.62740E+01 5.96216E+01-5.86180E+04 2.83762E-10-3.08773E-09
 -1       580 2.25478E+05 4.66627E+01 6.43498E+01-6.46312E+04-5.37148E-09 8.14543E-09
 -1       581 2.25516E+05 3.02754E+01 9.59452E+01-5.86216E+04 6.19366E-10-6.52290E-09
 -1       582 2.25546E+05 4.92032E+01 1.90358E+02-6.45942E+04 2.37287E-09-8.25548E-09
 -1       583 2.25560E+05 8.97423E+01 3.68447E+02-5.86551E+04 2.33740E-09 1.39964E-08
 -1       584 2.25735E+05 3.82726E+02 8.28963E+02-6.43133E+04 1.13141E-09-4.42083E-09
 -1       585 2.25520E+05 1.10932E+03 1.68410E+03-5.89028E+04 4.98403E-10-6.08816E-09
 -1       586-2.84190E+03 7.36838E+04-3.44205E+03-2.01136E+05-1.02318E-09-1.71005E-08
 -1       587-7.02608E+02 7.32635E+04-9.76971E+01-2.21393E+05-1.44973E-09-3.29246E-08
 -1       588 7.34457E+02 7.33052E+04 3.14778E+03-2.01042E+05-2.91038E-11-8.15817E-09
 -1       589 4.21899E+03 7.50159E+04 8.77269E+03-2.21158E+05-8.98581E-10-3.50337E-09
 -1       590 1.25105E+04 7.23292E+04 1.86407E+04-2.01385E+05-1.51522E-09-8.18545E-11
 -1       591-4.57313E+04-1.19032E+04-1.57277E+04-2.20589E+04-2.30830E-09 6.08634E-09
 -1       592-4.78440E+04-1.51277E+04-8.51906E+03-2.54330E+04 5.90717E-10-2.26316E-09
 -1       593-4.73117E+04-1.07543E+04-3.54634E+03-2.32047E+04 8.81130E-10-2.24259E-09
 -1       594-4.56623E+04-1.28310E+04-1.76874E+03-2.55288E+04-2.56705E-10-2.70157E-09
 -1       595-4.74325E+04-1.07498E+04-8.12516E+02-2.32570E+04-1.00499E-09-1.49926E-09
 -1       596-4.55137E+04-1.27259E+04-4.13733E+02-2.55122E+04 3.65515E-09 5.64972E-09
 -1       597-4.74477E+04-1.07603E+04-2.26738E+02-2.32590E+04-1.73162E-09-1.29006E-09
 -1       598-4.54992E+04-1.27219E+04-1.84928E+02-2.55075E+04-4.17447E-09-8.44807E-10
 -1       599-4.74465E+04-1.07605E+04-2.39539E+02-2.32586E+04 1.04626E-09-7.26243E-09
 -1       600-4.55145E+04-1.27270E+04-4.47632E+02-2.55112E+04 4.28258E-10-9.92105E-09
 -1       601-4.74279E+04-1.07499E+04-8.84457E+02-2.32557E+04 1.13960E-09-7.38714E-09
 -1       602-4.56761E+04-1.28411E+04-1.92829E+03-2.55268E+04-2.36605E-09 2.95188E-09
 -1       603-4.72943E+04-1.07569E+04-3.86741E+03-2.31990E+04-5.12273E-10 6.55450E-09
 -1       604-4.80668E+04-1.53330E+04-9.29018E+03-2.54058E+04 1.01124E-09 5.75187E-09
 -1       605-4.55568E+04-1.20215E+04-1.71514E+04-2.19622E+04 1.95746E-09 9.03674E-09
 -1       606 2.76221E+04-1.07627E+04-1.93484E+04 2.66577E+04-1.74441E-09 3.95357E-09
 -1       607 2.43108E+04-3.48675E+03-9.63456E+03 2.99303E+04-8.88576E-10 1.13050E-09
 -1       608 2.61897E+04-6.02458E+02-4.31434E+03 2.64491E+04 4.47471E-10 4.68526E-09
 -1       609 2.58187E+04-1.72960E+02-2.17907E+03 3.01652E+04-1.39516E-09-2.84854E-09
 -1       610 2.60175E+04 9.49904E+00-1.04066E+03 2.64255E+04-1.32895E-08-4.57703E-09
 -1       611 2.59499E+04 2.06052E+01-5.24672E+02 3.01908E+04-2.91921E-08-3.59478E-09
 -1       612 2.59722E+04 2.59225E+01-2.50515E+02 2.64232E+04-1.17034E-08-5.32737E-10
 -1       613 2.59486E+04 2.93416E+01-1.13179E+02 3.01938E+04 1.69166E-10-4.50677E-09
 -1       614 2.59477E+04 2.60678E+01-2.93256E+01 2.64224E+04 1.87174E-09-3.89832E-09
 -1       615 2.59366E+04 3.48741E+01 4.11010E+01 3.01943E+04 3.63252E-09-1.12254E-08
 -1       616 2.59290E+04 3.20521E+01 1.29010E+02 2.64227E+04-2.96041E-09-2.69529E-09
 -1       617 2.59461E+04 6.60033E+01 2.96829E+02 3.01937E+04-4.99313E-10 1.02300E-08
 -1       618 2.58988E+04 1.20414E+02 5.99081E+02 2.64228E+04 9.08949E-09 5.19753E-09
 -1       619 2.61540E+04 5.31500E+02 1.34591E+03 3.01929E+04 2.18419E-08 2.04818E-09
 -1       620 2.56976E+04 1.54307E+03 2.70532E+03 2.64219E+04 1.40004E-08 8.00037E-09
 -1       621 2.71736E+02 2.30191E+05 2.49189E+03 1.52960E+04 2.31921E-11 1.10681E-08
 -1       622 3.33208E+02 2.30799E+05 2.31664E+03 2.22629E+04 1.89630E-10 1.19799E-08
 -1       623 2.25557E+01 2.30332E+05 2.92602E+03 1.52227E+04 1.33440E-10 7.67955E-09
 -1       624 1.40673E+03 2.31769E+05 5.78530E+03 2.23379E+04 1.75419E-10-3.76474E-09
 -1       625 1.41303E+03 2.29192E+05 1.01651E+04 1.52204E+04 1.56888E-10 5.17116E-09
 -1       626 2.02724E+05 5.34245E+04 4.41697E+03 1.05662E+05 8.05812E-10-1.70439E-09
 -1       627 2.00339E+05 5.50162E+04 2.12849E+03 1.09775E+05-1.33514E-09 3.72324E-09
 -1       628 2.02858E+05 5.13722E+04 8.99326E+02 1.06372E+05 2.50384E-09-1.93108E-09
 -1       629 1.99745E+05 5.44705E+04 4.40350E+02 1.10020E+05-4.30646E-09-1.48037E-08
 -1       630 2.02867E+05 5.12753E+04 2.03427E+02 1.06396E+05 4.75666E-10-2.88196E-10
 -1       631 1.99676E+05 5.44544E+04 1.08614E+02 1.10020E+05-5.46788E-09-7.37877E-09
 -1       632 2.02858E+05 5.12821E+04 6.99314E+01 1.06388E+05 2.70120E-09 1.58449E-08
 -1       633 1.99662E+05 5.44593E+04 7.55973E+01 1.10013E+05 3.80396E-09 1.53189E-08
 -1       634 2.02849E+05 5.12827E+04 1.20054E+02 1.06384E+05 7.61474E-09 1.05456E-08
 -1       635 1.99669E+05 5.44603E+04 2.41820E+02 1.10013E+05 1.68905E-09-7.32712E-09
 -1       636 2.02838E+05 5.12807E+04 4.87676E+02 1.06381E+05-1.88524E-09 5.89921E-09
 -1       637 1.99770E+05 5.45372E+04 1.07156E+03 1.10010E+05 2.51248E-11 7.14863E-09
 -1       638 2.02797E+05 5.15187E+04 2.20181E+03 1.06273E+05 4.08750E-09 1.65255E-09
 -1       639 2.00926E+05 5.61455E+04 5.20894E+03 1.09667E+05 2.23486E-09 1.19094E-08
 -1       640 2.02642E+05 5.63158E+04 1.08096E+04 1.04241E+05 2.68847E-09 6.02199E-09
 -1       656 5.34841E+04-1.35918E+06-1.29111E+05-6.19030E+02 7.34872E-10-4.38388E-09
 -1       657-7.07111E+04-1.41748E+06-1.06855E+05 7.41825E+03 1.81171E-09-4.03710E-09
 -1       658 1.70010E+04-1.37578E+06-6.56770E+04-2.10128E+03 1.07252E-09 3.61807E-09
 -1       659-7.61023E+04-1.42003E+06-1.13937E+05 8.48717E+03-1.96451E-10-7.31105E-09
 -1       660 5.88629E+04-1.35663E+06-1.41288E+05-1.68793E+03-1.81899E-10-1.53992E-09
 -1       661 1.67554E+05 1.80693E+04 1.65273E+04 6.55247E+04 4.40514E-09 3.11775E-09
 -1       662 1.76421E+05 3.07768E+04 1.11371E+04 6.23591E+04 3.12690E-09-9.69521E-10
 -1       663 1.70797E+05 2.33737E+04 3.89563E+03 6.45857E+04 6.23004E-10 4.53974E-09
 -1       664 1.72665E+05 2.45703E+04 2.32951E+03 6.35031E+04 1.18098E-09 4.94515E-09
 -1       665 1.71286E+05 2.41014E+04 9.18948E+02 6.44463E+04-1.90357E-09 4.45971E-09
 -1       666 1.72090E+05 2.37355E+04 5.36563E+02 6.36833E+04-8.42913E-09-1.38968E-09
 -1       667 1.71369E+05 2.41866E+04 2.83656E+02 6.44136E+04-1.90170E-09 3.17441E-09
 -1       668 1.72000E+05 2.36708E+04 2.85944E+02 6.37308E+04 1.73037E-09-1.35484E-09
 -1       669 1.71376E+05 2.41642E+04 3.84589E+02 6.43994E+04-1.37987E-11 2.13856E-09
 -1       670 1.72094E+05 2.38770E+04 8.35093E+02 6.37324E+04 1.97419E-09 1.40835E-08
 -1       671 1.71275E+05 2.39846E+04 1.48197E+03 6.44103E+04-4.61924E-10-3.03584E-09
 -1       672 1.72958E+05 2.53188E+04 3.79095E+03 6.35238E+04 1.80712E-10-1.36791E-08
 -1       673 1.70517E+05 2.27587E+04 6.35278E+03 6.45941E+04-2.74554E-09-1.75714E-09
 -1       674 1.79006E+05 3.55234E+04 1.81675E+04 6.17456E+04-1.09003E-09-1.86060E-09
 -1       675 1.65266E+05 1.40655E+04 2.69667E+04 6.60810E+04-2.27374E-10-3.79987E-09
 -1       676 2.08980E+01-2.52398E+05-9.70832E+02 9.76394E+00-7.38908E-10-2.48950E-09
 -1       677-2.57829E+02-2.52633E+05-1.77675E+03-1.95158E+01-1.88302E-09 6.31396E-09
 -1       678 1.72105E+02-2.52231E+05-3.14084E+03 9.74521E+00 8.35485E-10 1.21063E-09
 -1       679-3.14175E+03-2.54529E+05-7.46118E+03-1.94441E+01-3.52543E-10 9.58554E-10
 -1       680 1.87500E+03-2.50503E+05-1.20249E+04 9.58195E+00-5.87534E-10 4.94326E-09
 -1       771-2.67696E+06-5.40419E+05-8.18351E+04-1.18570E+06-1.51340E-08-1.99507E-08
 -1       772-2.63781E+06-5.93649E+05-4.29774E+04-1.24630E+06-1.26602E-08-4.83487E-09
 -1       773-2.69131E+06-5.29078E+05-2.02879E+04-1.19084E+06-8.26549E-09 7.53062E-09
 -1       774-2.62905E+06-5.85058E+05-9.40499E+03-1.25641E+06 3.31784E-09-3.92902E-09
 -1       775-2.69719E+06-5.24911E+05-5.97249E+03-1.19245E+06-7.87259E-09 2.76850E-09
 -1       776-2.63175E+06-5.84728E+05-2.41596E+03-1.26328E+06-5.23869E-09 2.59024E-09
 -1       777-2.70200E+06-5.21373E+05-2.27564E+03-1.19384E+06-4.97676E-09 3.33966E-09
 -1       778-2.63490E+06-5.84547E+05-7.17438E+02-1.26909E+06-1.30312E-08 3.83443E-09
 -1       779-2.70603E+06-5.18349E+05-1.04461E+03-1.19504E+06-1.38825E-08-4.35648E-09
 -1       780-2.63770E+06-5.84332E+05-2.30592E+02-1.27381E+06-7.77072E-09 1.00044E-11
 -1       781-2.70915E+06-5.15945E+05-4.59244E+02-1.19598E+06-2.09839E-08-2.45564E-10
 -1       782-2.63985E+06-5.84114E+05-5.13813E+01-1.27727E+06-2.34286E-08-3.67527E-09
 -1       783-2.71132E+06-5.14310E+05-1.51295E+02-1.19664E+06-2.82671E-09-3.22007E-09
 -1       784-2.64121E+06-5.83948E+05-6.00582E+00-1.27937E+06-1.06975E-08 2.85354E-10
 -1       785-2.71241E+06-5.13479E+05-8.22699E+01-1.19698E+06-2.16060E-08 3.63889E-09
 -1       786 1.32408E+05-9.12664E+03 2.11141E+04-1.15671E+02 1.83313E-09 7.52880E-09
 -1       787 1.41563E+05 1.05658E+04 1.49376E+04 3.08653E+01 2.69967E-09 3.63889E-09
 -1       788 1.35939E+05-1.43063E+03 5.46357E+03-9.04372E+01 1.89817E-09 7.71365E-09
 -1       789 1.37450E+05 1.65517E+03 3.43110E+03-1.00053E+01 4.09345E-10 3.19943E-09
 -1       790 1.36522E+05-2.23272E+02 1.39206E+03-7.48044E+01-1.68415E-09 6.98901E-09
 -1       791 1.36769E+05 2.58273E+02 8.09589E+02-3.72958E+01-2.06254E-09 1.00907E-08
 -1       792 1.36620E+05-3.47733E+01 3.54208E+02-6.31469E+01-8.33605E-10-3.69714E-09
 -1       793 1.36655E+05 4.14622E+01 2.01018E+02-5.95258E+01-1.32387E-10-1.19188E-08
 -1       794 1.36636E+05-6.59961E+00 1.01346E+02-5.25740E+01 1.31885E-09-3.97404E-09
 -1       795 1.36639E+05 1.59914E+01 7.78774E+01-8.19673E+01-9.22217E-10 5.38708E-10
 -1       796 1.36636E+05-9.31436E+00 7.50881E+01-4.07050E+01 1.05086E-09-6.56697E-09
 -1       797 1.36662E+05 6.42240E+01 1.42675E+02-1.09632E+02 1.26457E-09-3.29887E-09
 -1       798 1.36614E+05-5.47984E+01 2.14131E+02-2.49092E+01 5.19790E-10-1.42029E-09
 -1       799 1.36819E+05 4.04132E+02 5.73855E+02-1.48684E+02 1.29399E-09 4.05665E-09
 -1       800 1.36478E+05-3.48959E+02 8.07777E+02-1.65145E+00-1.88924E-10 1.45651E-08
 -1       801 9.16900E+04-3.53943E+06-3.44133E+05 9.48492E+04 2.25264E-08-5.79166E-09
 -1       802-1.07600E+05-3.00844E+06-1.21743E+05-7.67698E+04 6.49889E-08-1.53202E-08
 -1       803 1.27670E+04-3.39817E+06-9.36227E+04 1.69808E+05 3.96903E-08 2.49295E-08
 -1       804-1.98738E+04-3.15531E+06-1.43163E+04 6.42460E+04 2.34004E-08 2.71240E-08
 -1       805 4.61981E+02-3.39369E+06-3.85504E+04-4.61547E+04 8.90032E-09 1.23684E-08
 -1       806-2.47427E+05-4.70956E+04-1.82205E+04-9.70340E+04-2.50748E-09 8.45012E-09
 -1       807-2.49025E+05-4.39572E+04-8.95149E+03-1.01259E+05 2.86082E-09 1.24240E-08
 -1       808-2.47914E+05-4.05431E+04-3.79756E+03-1.00156E+05-2.74122E-09 1.31814E-08
 -1       809-2.47149E+05-4.14371E+04-1.85691E+03-1.01474E+05-4.98380E-09 1.03032E-08
 -1       810-2.47990E+05-4.03145E+04-8.50923E+02-1.00294E+05 5.30645E-09 4.41560E-09
 -1       811-2.47005E+05-4.13351E+04-4.22973E+02-1.01447E+05 2.81943E-09-1.84090E-08
 -1       812-2.48002E+05-4.03333E+04-2.13336E+02-1.00295E+05 6.38101E-09-4.51018E-09
 -1       813-2.46986E+05-4.13363E+04-1.37875E+02-1.01433E+05 7.46672E-09-2.73644E-10
 -1       814-2.47999E+05-4.03398E+04-1.35150E+02-1.00292E+05 1.48520E-09-2.59388E-09
 -1       815-2.46991E+05-4.13376E+04-2.16812E+02-1.01430E+05 2.91584E-09 2.69301E-09
 -1       816-2.47985E+05-4.03378E+04-4.09921E+02-1.00290E+05 1.92176E-09 9.74342E-09
 -1       817-2.47062E+05-4.13763E+04-8.80021E+02-1.01423E+05 4.69709E-09 9.20409E-09
 -1       818-2.47935E+05-4.04601E+04-1.79443E+03-1.00233E+05 1.23873E-09-7.79255E-09
 -1       819-2.48045E+05-4.24621E+04-4.22308E+03-1.01196E+05-8.12179E-10-6.09361E-10
 -1       820-2.47604E+05-4.36434E+04-8.59500E+03-9.88634E+04-1.26693E-09-6.20673E-09
 -1       821-3.02476E+05 1.67309E+04-3.86940E+04 3.72751E+02 2.35380E-06-8.72733E-08
 -1       822-3.19237E+05-1.93687E+04-2.73807E+04-1.05878E+03 4.73180E-06 2.72812E-08
 -1       823-3.08942E+05 2.62348E+03-1.00214E+04 3.99657E+02 2.35803E-06 8.06449E-09
 -1       824-3.11684E+05-3.03585E+03-6.30382E+03-8.88427E+02 7.25832E-09 4.97039E-09
 -1       825-3.10027E+05 4.10220E+02-2.59462E+03 2.02400E+02 4.86519E-10 1.11329E-08
 -1       826-3.10413E+05-4.83221E+02-1.55901E+03-3.59833E+02-1.75557E-09 4.45254E-09
 -1       827-3.10212E+05 7.20753E+01-8.16491E+02-1.28947E+02-1.46351E-09-1.16555E-08
 -1       828-3.10244E+05-1.47701E+02-7.14197E+02 2.87726E+02-4.29124E-09 7.03409E-09
 -1       829-3.10196E+05 7.50095E+01-8.33210E+02-4.45170E+02 5.69443E-10-2.08937E-09
 -1       830-3.10459E+05-5.02906E+02-1.62329E+03 7.62172E+02 2.34845E-09-7.90044E-09
 -1       831-3.09997E+05 4.27696E+02-2.69308E+03-6.03403E+02-3.23969E-09 4.92741E-09
 -1       832-3.11760E+05-3.15930E+03-6.56295E+03 8.49614E+02-1.84426E-09 2.73758E-09
 -1       833-3.08896E+05 2.72967E+03-1.04318E+04-5.32612E+02-1.24485E-09-2.99360E-09
 -1       834-3.19578E+05-2.01580E+04-2.84940E+04 5.08932E+02-1.19776E-09 3.69118E-09
 -1       835-3.02182E+05 1.74128E+04-4.02813E+04-2.62708E+02 5.44114E-09-3.77077E-09
 -1       836-1.02987E+03 2.85645E+05 1.73353E+04-1.69453E+04-3.35604E-10-1.71849E-09
 -1       837 3.77625E+03 2.91036E+05 1.48414E+04-3.40845E+04 1.07093E-10-7.06291E-09
 -1       838-3.95928E+02 2.87134E+05 1.53638E+04-1.68796E+04 1.01409E-10 5.24346E-09
 -1       839 9.84533E+03 2.95560E+05 2.93016E+04-3.41226E+04 4.72028E-10 6.66796E-09
 -1       840-2.98737E+03 2.81079E+05 4.68288E+04-1.69065E+04 1.49157E-10-3.14566E-09
 -1       856-7.53300E+04 7.60540E+03-2.00426E+04-4.26804E+02-1.57297E-09 8.71296E-10
 -1       857-8.36046E+04-8.92278E+03-1.37983E+04 4.79047E+03-1.22409E-09-1.07818E-08
 -1       858-7.86006E+04 1.06577E+03-5.20129E+03-4.48780E+02-2.45029E-09-5.21050E-09
 -1       859-7.98495E+04-1.24134E+03-3.14052E+03 4.82506E+03-3.20371E-09 2.88196E-10
 -1       860-7.90895E+04 1.48376E+02-1.31911E+03-4.61458E+02-7.51044E-10-4.57430E-09
 -1       861-7.92868E+04-1.65572E+02-7.31808E+02 4.84242E+03-3.80900E-09-5.91606E-09
 -1       862-7.91657E+04 1.96250E+01-3.16523E+02-4.66162E+02 4.42508E-09-6.26925E-09
 -1       863-7.91955E+04-1.19307E+01-1.43270E+02 4.84468E+03 5.96853E-09-5.14590E-09
 -1       864-7.91810E+04-1.85479E+00-1.82177E+01-4.63724E+02 2.96372E-09-1.97453E-09
 -1       865-7.91601E+04 3.71418E+01 1.01791E+02 4.83210E+03 1.11289E-09-1.78223E-08
 -1       866-7.91993E+04-2.98114E+01 2.37419E+02-4.53577E+02-8.28692E-10-6.56642E-09
 -1       867-7.90396E+04 2.48454E+02 6.05253E+02 4.80450E+03 8.91191E-10 9.41867E-10
 -1       868-7.92977E+04-2.10357E+02 1.01061E+03-4.36129E+02-1.03216E-09-6.07940E-09
 -1       869-7.82921E+04 1.74905E+03 2.69882E+03 4.75870E+03 1.11800E-09 1.66051E-09
 -1       870-7.99410E+04-1.49112E+03 3.91531E+03-4.07779E+02 1.01545E-09-1.82195E-09
 -1       871-4.57024E+03-1.11584E+04-1.50695E+04 1.00080E+05 8.02174E-10-9.54969E-09
 -1       872-1.92050E+03-1.45630E+04-6.18966E+03 1.29753E+05 4.25644E-10-6.75527E-09
 -1       873 2.45734E+01-1.29658E+04 7.57933E+02 9.98608E+04-2.76486E-10-3.27077E-09
 -1       874 2.34312E+03-1.08582E+04 8.26760E+03 1.29793E+05 3.99496E-10-6.41126E-09
 -1       875 5.39826E+03-1.49279E+04 1.84155E+04 1.00045E+05 4.82032E-10-1.02664E-08
 -1       876 2.40261E+05 4.10877E+04 1.26278E+04 9.71182E+04-1.81569E-09 1.01591E-09
 -1       877 2.41030E+05 4.38126E+04 6.74361E+03 1.00802E+05-4.82032E-11 7.72843E-10
 -1       878 2.41440E+05 3.96906E+04 2.82526E+03 9.81553E+04 1.73304E-09 1.09926E-08
 -1       879 2.39313E+05 4.21008E+04 1.40754E+03 1.00889E+05 6.17888E-10 1.24753E-08
 -1       880 2.41526E+05 3.96755E+04 6.55453E+02 9.81976E+04 3.33330E-10 1.59014E-09
 -1       881 2.39199E+05 4.20279E+04 3.49539E+02 1.00871E+05-1.37675E-10 3.87254E-09
 -1       882 2.41534E+05 3.96861E+04 2.22799E+02 9.81988E+04-7.88873E-09-2.28566E-08
 -1       883 2.39191E+05 4.20243E+04 2.38190E+02 1.00865E+05-2.04363E-09 3.84540E-09
 -1       884 2.41529E+05 3.96836E+04 3.77703E+02 9.81990E+04 4.17998E-09 3.02595E-09
 -1       885 2.39220E+05 4.20296E+04 7.58645E+02 1.00874E+05 5.80536E-09-7.20388E-09
 -1       886 2.41499E+05 3.96614E+04 1.52867E+03 9.81960E+04 1.47566E-10-1.48625E-08
 -1       887 2.39489E+05 4.22058E+04 3.33906E+03 1.00913E+05-5.36033E-10-2.73121E-09
 -1       888 2.41288E+05 3.96985E+04 6.72827E+03 9.80891E+04 1.32957E-10-3.96585E-09
 -1       889 2.43497E+05 4.63695E+04 1.60730E+04 1.00788E+05 2.01476E-09-8.06358E-09
 -1       890 2.38547E+05 4.29552E+04 3.01039E+04 9.55226E+04 4.88444E-09 8.71296E-10
 -1       891-1.33883E+02-1.35301E+05-1.62240E+03 2.46296E+04 1.17279E-09 8.43306E-09
 -1       892-2.36348E+02-1.35697E+05-1.75516E+03 3.72941E+04 1.35788E-09-1.48157E-09
 -1       893-2.63273E+01-1.35351E+05-2.49827E+03 2.46349E+04-1.49839E-10-4.04771E-09
 -1       894-1.33969E+03-1.36648E+05-5.17999E+03 3.71600E+04-1.43700E-10-1.45064E-10
 -1       895-1.05138E+03-1.34272E+05-9.12574E+03 2.47624E+04-2.38117E-10 4.39468E-09
 -1       956-3.04470E+05-4.28707E+03-1.07610E+04 2.09220E+04-4.28008E-09-8.58790E-09
 -1       957-3.06592E+05-1.45562E+03-5.52411E+03 2.51942E+04-2.34604E-09-1.59707E-08
 -1       958-3.05427E+05-1.25705E+02-2.48886E+03 2.07954E+04-9.12951E-09-2.05546E-09
 -1       959-3.05595E+05-3.18176E+01-1.27124E+03 2.53334E+04-1.99743E-08 7.22935E-10
 -1       960-3.05514E+05 2.63758E+01-6.19833E+02 2.07830E+04-9.41600E-09 6.13340E-09
 -1       961-3.05523E+05 2.27556E+01-3.28990E+02 2.53476E+04-1.76374E-09 5.09317E-09
 -1       962-3.05532E+05 2.26933E+01-1.88618E+02 2.07811E+04 5.13182E-10 1.59725E-08
 -1       963-3.05521E+05 2.44388E+01-1.51958E+02 2.53501E+04-3.20927E-09 1.84393E-08
 -1       964-3.05536E+05 2.48662E+01-1.85204E+02 2.07805E+04-2.42363E-09 4.13229E-09
 -1       965-3.05532E+05 2.73885E+01-3.20657E+02 2.53499E+04 2.93369E-09-9.80663E-10
 -1       966-3.05525E+05 3.28379E+01-6.02372E+02 2.07813E+04 4.81077E-09-9.11450E-09
 -1       967-3.05609E+05-2.11250E+01-1.23564E+03 2.53409E+04 7.99582E-09 2.90413E-09
 -1       968-3.05447E+05-1.10699E+02-2.41839E+03 2.07896E+04 1.30617E-08 7.51174E-09
 -1       969-3.06587E+05-1.40119E+03-5.36944E+03 2.52455E+04 1.99852E-08 8.07589E-09
 -1       970-3.04522E+05-4.15286E+03-1.04589E+04 2.08777E+04 1.07812E-08 1.38116E-08
 -1       971-2.85237E+05-1.47829E+03-8.16875E+03 1.34661E+04-2.51657E-09 2.49456E-09
 -1       972-2.87219E+05-1.06471E+03-4.44862E+03 1.87776E+04 3.12866E-10-4.06362E-09
 -1       973-2.86146E+05-1.78361E+01-1.99219E+03 1.33544E+04-2.72257E-09-6.63317E-09
 -1       974-2.86280E+05-2.03387E+01-1.03219E+03 1.88993E+04-6.34827E-10 1.48052E-08
 -1       975-2.86217E+05 2.08773E+01-5.15198E+02 1.33440E+04 3.75167E-10 4.96061E-09
 -1       976-2.86226E+05 2.28569E+01-2.95838E+02 1.89123E+04 1.76806E-09-1.15267E-09
 -1       977-2.86231E+05 2.10070E+01-2.12238E+02 1.33414E+04 1.46906E-09-4.65411E-09
 -1       978-2.86229E+05 2.79002E+01-2.44979E+02 1.89159E+04 5.27416E-09 3.04340E-09
 -1       979-2.86231E+05 2.78090E+01-3.90700E+02 1.33403E+04 4.16503E-09 1.80809E-08
 -1       980-2.86258E+05 3.03760E+01-7.52571E+02 1.89166E+04 3.88644E-09-6.12840E-09
 -1       981-2.86207E+05 4.65677E+01-1.45660E+03 1.33407E+04 1.26465E-09 8.76014E-10
 -1       982-2.86458E+05-7.71982E+01-3.01023E+03 1.89108E+04-1.82069E-09 3.00646E-09
 -1       983-2.86023E+05-4.66314E+01-5.84863E+03 1.33463E+04 2.79942E-09 2.21030E-09
 -1       984-2.89271E+05-3.13162E+03-1.30973E+04 1.88348E+04 9.36097E-10 1.13827E-08
 -1       985-2.83376E+05-4.32630E+03-2.40508E+04 1.34201E+04 6.27097E-10 2.88674E-09
 -3
    1PSTEP                        19          10           1          
  100CL  110 5.74219E-01         409                     0   10           1
 -4  DISP        4    1
 -5  D1          1    2    1    0
 -5  D2          1    2    2    0
 -5  D3          1    2    3    0
 -5  ALL         1    2    0    0    1ALL
 -1         1 5.34784E-04 0.00000E+00 0.00000E+00
 -1         2 4.92894E-04-2.06000E-29 0.00000E+00
 -1         3 2.18291E-04-1.82719E-27-1.32349E-23
 -1         5 1.29673E-04 1.31675E-27 3.30872E-24
 -1         8 5.12068E-04-7.41795E-07 0.00000E+00
 -1         9 4.93667E-04-1.81995E-06 0.00000E+00
 -1        10 1.98441E-04-2.93359E-06-6.61744E-24
 -1        12 1.29849E-04 6.38589E-07 1.65436E-24
 -1        15 4.84835E-04-8.22286E-07-2.06795E-25
 -1        16 4.91082E-04-2.26343E-06 0.00000E+00
 -1        17 1.39088E-04-6.22115E-06 0.00000E+00
 -1        18 1.29087E-04 1.10800E-05 0.00000E+00
 -1        19 1.30375E-04 1.27393E-06 0.00000E+00
 -1        20 1.30523E-04 8.39188E-06 0.00000E+00
 -1        21 1.29854E-04 1.35106E-05 0.00000E+00
 -1        24 2.48114E-05-8.72512E-06 0.00000E+00
 -1        25 1.31482E-04 1.12350E-05 0.00000E+00
 -1        26 1.32203E-04 1.76486E-06 0.00000E+00
 -1        27 1.30449E-04 5.49053E-06 0.00000E+00
 -1        28 1.30025E-04 1.29764E-05 0.00000E+00
 -1        32 0.00000E+00 0.00000E+00 0.00000E+00
 -1        33 1.32930E-04 2.36534E-06 0.00000E+00
 -1        34 1.31188E-04 5.46036E-06 0.00000E+00
 -1        35 1.29564E-04 1.26899E-05 0.00000E+00
 -1        51 5.33316E-04-1.27574E-07 0.00000E+00
 -1        52 5.30587E-04-2.46171E-07 0.00000E+00
 -1        53 5.26842E-04-3.64865E-07 0.00000E+00
 -1        54 5.22336E-04-4.85511E-07 0.00000E+00
 -1        55 5.17326E-04-6.09243E-07 1.65436E-24
 -1        56 5.32531E-04-7.16836E-07 0.00000E+00
 -1        57 5.30108E-04-1.22820E-06 2.64698E-23
 -1        58 5.27598E-04-1.49581E-06 5.29396E-23
 -1        59 5.24987E-04-1.53364E-06-2.64698E-23
 -1        60 5.22299E-04-1.36872E-06 0.00000E+00
 -1        61 5.19548E-04-1.04479E-06 2.64698E-23
 -1        62 5.16759E-04-6.21692E-07 5.29396E-23
 -1        63 5.13958E-04-1.65414E-07-2.64698E-23
 -1        64 5.11170E-04 2.54788E-07 5.29396E-23
 -1        65 5.08421E-04 5.71593E-07 2.64698E-23
 -1        66 5.05733E-04 7.28724E-07 5.29396E-23
 -1        67 5.03124E-04 6.79127E-07 0.00000E+00
 -1        68 5.00604E-04 3.96915E-07 0.00000E+00
 -1        69 4.98188E-04-1.26431E-07-2.64698E-23
 -1        70 4.95854E-04-8.83191E-07-5.29396E-23
 -1        86 4.92921E-04-2.99558E-07 0.00000E+00
 -1        87 4.93001E-04-5.99536E-07 0.00000E+00
 -1        88 4.93127E-04-8.99582E-07-1.32349E-23
 -1        89 4.93290E-04-1.20227E-06 6.61744E-24
 -1        90 4.93475E-04-1.50407E-06-1.32349E-23
 -1       121 2.17733E-04-4.82078E-07 0.00000E+00
 -1       122 2.16064E-04-9.65345E-07 0.00000E+00
 -1       123 2.13289E-04-1.45098E-06 0.00000E+00
 -1       124 2.09417E-04-1.94015E-06 0.00000E+00
 -1       125 2.04461E-04-2.43389E-06 0.00000E+00
 -1       191 1.29678E-04 1.06436E-07 3.30872E-24
 -1       192 1.29692E-04 2.12870E-07 0.00000E+00
 -1       193 1.29717E-04 3.19305E-07-3.30872E-24
 -1       194 1.29751E-04 4.25738E-07-1.65436E-24
 -1       195 1.29795E-04 5.32166E-07-3.30872E-24
 -1       251 5.11423E-04 1.25710E-05 1.32349E-23
 -1       252 5.10404E-04 4.31679E-05 6.61744E-24
 -1       253 5.08983E-04 8.56181E-05 0.00000E+00
 -1       254 5.07290E-04 1.34218E-04 6.61744E-24
 -1       255 5.05650E-04 1.81613E-04-1.32349E-23
 -1       256 5.04365E-04 2.20475E-04 0.00000E+00
 -1       257 5.03485E-04 2.45766E-04 0.00000E+00
 -1       258 5.02889E-04 2.52759E-04-6.61744E-24
 -1       259 5.02257E-04 2.41554E-04-1.32349E-23
 -1       260 5.01285E-04 2.12678E-04 0.00000E+00
 -1       261 4.99904E-04 1.71328E-04 1.32349E-23
 -1       262 4.98222E-04 1.22982E-04 0.00000E+00
 -1       263 4.96556E-04 7.50019E-05 0.00000E+00
 -1       264 4.95216E-04 3.47397E-05-6.61744E-24
 -1       265 4.94286E-04 7.47177E-06 1.32349E-23
 -1       266 5.07529E-04-7.65779E-07 0.00000E+00
 -1       267 5.02990E-04-7.77906E-07 8.27181E-25
 -1       268 4.98451E-04-7.90784E-07-8.27181E-25
 -1       269 4.93913E-04-8.01437E-07 0.00000E+00
 -1       270 4.89374E-04-8.12038E-07 4.13590E-25
 -1       271 5.09344E-04 3.02415E-06 2.64698E-23
 -1       272 5.06838E-04 6.09997E-06 0.00000E+00
 -1       273 5.04588E-04 8.50577E-06 0.00000E+00
 -1       274 5.02580E-04 1.02546E-05-1.32349E-23
 -1       275 5.00808E-04 1.13743E-05 0.00000E+00
 -1       276 4.99258E-04 1.19000E-05-1.32349E-23
 -1       277 4.97915E-04 1.18767E-05 0.00000E+00
 -1       278 4.96757E-04 1.13570E-05-1.32349E-23
 -1       279 4.95763E-04 1.04017E-05 0.00000E+00
 -1       280 4.94907E-04 9.07793E-06 0.00000E+00
 -1       281 4.94162E-04 7.45853E-06 2.64698E-23
 -1       282 4.93498E-04 5.62090E-06 0.00000E+00
 -1       283 4.92887E-04 3.64568E-06-2.64698E-23
 -1       284 4.92299E-04 1.61689E-06 0.00000E+00
 -1       285 4.91700E-04-3.83487E-07-2.64698E-23
 -1       301 4.93237E-04-1.91116E-06 0.00000E+00
 -1       302 4.92419E-04-1.97719E-06 3.30872E-24
 -1       303 4.91503E-04-2.04167E-06 6.61744E-24
 -1       304 4.90780E-04-2.10605E-06 0.00000E+00
 -1       305 4.90544E-04-2.17201E-06 0.00000E+00
 -1       306 5.08072E-04-5.30271E-05 0.00000E+00
 -1       307 5.48943E-04-2.01519E-04-2.64698E-23
 -1       308 6.04047E-04-4.22744E-04 5.29396E-23
 -1       309 6.64723E-04-6.84905E-04 2.64698E-23
 -1       310 7.25193E-04-9.45468E-04 1.05879E-22
 -1       311 7.79539E-04-1.16204E-03-2.64698E-23
 -1       312 8.18820E-04-1.30374E-03 1.05879E-22
 -1       313 8.30614E-04-1.34714E-03-2.64698E-23
 -1       314 8.04300E-04-1.29122E-03 0.00000E+00
 -1       315 7.32784E-04-1.14405E-03-2.64698E-23
 -1       316 6.22624E-04-9.31481E-04 0.00000E+00
 -1       317 4.87952E-04-6.82581E-04 0.00000E+00
 -1       318 3.52711E-04-4.32858E-04 5.29396E-23
 -1       319 2.40981E-04-2.17823E-04 0.00000E+00
 -1       320 1.67395E-04-6.68450E-05-5.29396E-23
 -1       336 1.91310E-04-3.45932E-06 0.00000E+00
 -1       337 1.83028E-04-3.99376E-06-6.61744E-24
 -1       338 1.73625E-04-4.53749E-06 0.00000E+00
 -1       339 1.63139E-04-5.09033E-06 0.00000E+00
 -1       340 1.51612E-04-5.65426E-06-1.32349E-23
 -1       406 1.29912E-04 7.44999E-07 0.00000E+00
 -1       407 1.29985E-04 8.51374E-07 0.00000E+00
 -1       408 1.30068E-04 9.57687E-07 0.00000E+00
 -1       409 1.30161E-04 1.06381E-06 0.00000E+00
 -1       410 1.30263E-04 1.16954E-06 0.00000E+00
 -1       521 5.07481E-04-6.25249E-05-1.05879E-22
 -1       522 5.52456E-04-2.34218E-04 0.00000E+00
 -1       523 6.11671E-04-4.89598E-04 1.05879E-22
 -1       524 6.75661E-04-7.91477E-04 0.00000E+00
 -1       525 7.39428E-04-1.09101E-03 1.05879E-22
 -1       526 7.97737E-04-1.33959E-03 5.29396E-23
 -1       527 8.40587E-04-1.50133E-03 1.05879E-22
 -1       528 8.53256E-04-1.55020E-03 0.00000E+00
 -1       529 8.21739E-04-1.48472E-03-1.05879E-22
 -1       530 7.36805E-04-1.31566E-03-5.29396E-23
 -1       531 6.05257E-04-1.07240E-03-1.05879E-22
 -1       532 4.43992E-04-7.88347E-04-5.29396E-23
 -1       533 2.81811E-04-5.03070E-04-1.05879E-22
 -1       534 1.47740E-04-2.56132E-04 0.00000E+00
 -1       535 5.94947E-05-8.13430E-05 0.00000E+00
 -1       536 1.38750E-04 1.36619E-05 6.61744E-24
 -1       537 1.38068E-04 4.72298E-05 3.30872E-24
 -1       538 1.37085E-04 8.93011E-05 3.30872E-24
 -1       539 1.35965E-04 1.34649E-04 1.65436E-24
 -1       540 1.34963E-04 1.77130E-04 3.30872E-24
 -1       541 1.34290E-04 2.10620E-04-1.65436E-24
 -1       542 1.33939E-04 2.31433E-04 3.30872E-24
 -1       543 1.33787E-04 2.35961E-04 1.65436E-24
 -1       544 1.33586E-04 2.24800E-04 0.00000E+00
 -1       545 1.33117E-04 1.98646E-04-1.65436E-24
 -1       546 1.32343E-04 1.62108E-04 0.00000E+00
 -1       547 1.31354E-04 1.19858E-04 0.00000E+00
 -1       548 1.30385E-04 7.81369E-05-3.30872E-24
 -1       549 1.29667E-04 4.31865E-05 1.65436E-24
 -1       550 1.29255E-04 1.93943E-05 0.00000E+00
 -1       551 1.23566E-04-6.57848E-06-6.61744E-24
 -1       552 1.05553E-04-6.96993E-06 0.00000E+00
 -1       553 8.58536E-05-7.38994E-06-9.92617E-24
 -1       554 6.52863E-05-7.82818E-06 6.61744E-24
 -1       555 4.46681E-05-8.27010E-06-2.64698E-23
 -1       556 1.34677E-04 5.14994E-06 0.00000E+00
 -1       557 1.31196E-04 1.41509E-05 0.00000E+00
 -1       558 1.28551E-04 2.09815E-05 0.00000E+00
 -1       559 1.26653E-04 2.58578E-05 0.00000E+00
 -1       560 1.25416E-04 2.89957E-05-2.64698E-23
 -1       561 1.24755E-04 3.06128E-05 0.00000E+00
 -1       562 1.24584E-04 3.09269E-05 0.00000E+00
 -1       563 1.24821E-04 3.01565E-05 0.00000E+00
 -1       564 1.25381E-04 2.85204E-05 0.00000E+00
 -1       565 1.26183E-04 2.62376E-05 0.00000E+00
 -1       566 1.27145E-04 2.35272E-05-3.30872E-24
 -1       567 1.28183E-04 2.06087E-05 0.00000E+00
 -1       568 1.29218E-04 1.77014E-05 1.65436E-24
 -1       569 1.30167E-04 1.50245E-05 0.00000E+00
 -1       570 1.30948E-04 1.27974E-05 0.00000E+00
 -1       571 1.29165E-04 1.04519E-05 1.65436E-24
 -1       572 1.29245E-04 9.77635E-06 4.13590E-25
 -1       573 1.29326E-04 9.06344E-06 0.00000E+00
 -1       574 1.29406E-04 8.32386E-06 8.27181E-25
 -1       575 1.29487E-04 7.56830E-06-3.30872E-24
 -1       576 1.29568E-04 6.80749E-06 1.65436E-24
 -1       577 1.29648E-04 6.05217E-06 3.30872E-24
 -1       578 1.29729E-04 5.31313E-06 0.00000E+00
 -1       579 1.29810E-04 4.60109E-06-3.30872E-24
 -1       580 1.29891E-04 3.92682E-06 1.65436E-24
 -1       581 1.29971E-04 3.30110E-06 6.61744E-24
 -1       582 1.30052E-04 2.73464E-06 0.00000E+00
 -1       583 1.30133E-04 2.23819E-06 0.00000E+00
 -1       584 1.30214E-04 1.82238E-06 0.00000E+00
 -1       585 1.30295E-04 1.49774E-06 0.00000E+00
 -1       586 1.29432E-04 1.11076E-05 0.00000E+00
 -1       587 1.29751E-04 1.11346E-05-1.55096E-25
 -1       588 1.30080E-04 1.11612E-05 0.00000E+00
 -1       589 1.30454E-04 1.11873E-05 0.00000E+00
 -1       590 1.30910E-04 1.12126E-05 0.00000E+00
 -1       591 1.29282E-04 1.05064E-05 1.03398E-25
 -1       592 1.29483E-04 9.90676E-06 2.06795E-25
 -1       593 1.29692E-04 9.28715E-06 4.13590E-25
 -1       594 1.29906E-04 8.65269E-06-4.13590E-25
 -1       595 1.30123E-04 8.00860E-06-8.27181E-25
 -1       596 1.30342E-04 7.36005E-06 4.13590E-25
 -1       597 1.30561E-04 6.71219E-06-4.13590E-25
 -1       598 1.30777E-04 6.07019E-06 0.00000E+00
 -1       599 1.30989E-04 5.43919E-06 8.27181E-25
 -1       600 1.31196E-04 4.82436E-06-2.06795E-25
 -1       601 1.31394E-04 4.23086E-06 0.00000E+00
 -1       602 1.31582E-04 3.66384E-06-1.03398E-25
 -1       603 1.31759E-04 3.12845E-06 4.13590E-25
 -1       604 1.31922E-04 2.62995E-06-1.03398E-25
 -1       605 1.32070E-04 2.17342E-06 0.00000E+00
 -1       606 1.30388E-04 1.22873E-06-3.30872E-24
 -1       607 1.30399E-04 1.27768E-06 0.00000E+00
 -1       608 1.30408E-04 1.41523E-06 3.30872E-24
 -1       609 1.30417E-04 1.63516E-06 0.00000E+00
 -1       610 1.30427E-04 1.93121E-06 0.00000E+00
 -1       611 1.30435E-04 2.29701E-06 0.00000E+00
 -1       612 1.30444E-04 2.72622E-06 0.00000E+00
 -1       613 1.30453E-04 3.21246E-06 0.00000E+00
 -1       614 1.30462E-04 3.74938E-06 0.00000E+00
 -1       615 1.30471E-04 4.33059E-06-8.27181E-25
 -1       616 1.30480E-04 4.94975E-06 0.00000E+00
 -1       617 1.30488E-04 5.60049E-06 4.13590E-25
 -1       618 1.30497E-04 6.27643E-06 0.00000E+00
 -1       619 1.30506E-04 6.97123E-06 0.00000E+00
 -1       620 1.30514E-04 7.67850E-06 0.00000E+00
 -1       621 1.30549E-04 1.35596E-06-1.65436E-24
 -1       622 1.30795E-04 1.43825E-06 1.65436E-24
 -1       623 1.31098E-04 1.52051E-06 0.00000E+00
 -1       624 1.31443E-04 1.60260E-06 0.00000E+00
 -1       625 1.31817E-04 1.68454E-06 1.65436E-24
 -1       626 1.30484E-04 1.25743E-06 0.00000E+00
 -1       627 1.30566E-04 1.31627E-06 0.00000E+00
 -1       628 1.30622E-04 1.44270E-06-3.30872E-24
 -1       629 1.30656E-04 1.62850E-06 0.00000E+00
 -1       630 1.30671E-04 1.86549E-06-3.30872E-24
 -1       631 1.30670E-04 2.14539E-06 0.00000E+00
 -1       632 1.30656E-04 2.45997E-06 0.00000E+00
 -1       633 1.30632E-04 2.80098E-06 0.00000E+00
 -1       634 1.30601E-04 3.16017E-06 0.00000E+00
 -1       635 1.30566E-04 3.52929E-06-1.65436E-24
 -1       636 1.30531E-04 3.90011E-06-3.30872E-24
 -1       637 1.30498E-04 4.26435E-06-8.27181E-25
 -1       638 1.30470E-04 4.61379E-06 1.65436E-24
 -1       639 1.30451E-04 4.94015E-06 0.00000E+00
 -1       640 1.30444E-04 5.23518E-06 1.65436E-24
 -1       656 1.30030E-04 7.91991E-06-6.61744E-24
 -1       657 1.29925E-04 7.42902E-06-6.61744E-24
 -1       658 1.30068E-04 6.93956E-06-1.32349E-23
 -1       659 1.30317E-04 6.45048E-06 6.61744E-24
 -1       660 1.30499E-04 5.95987E-06-6.61744E-24
 -1       661 1.30341E-04 9.07164E-06 0.00000E+00
 -1       662 1.30188E-04 9.68275E-06-8.27181E-25
 -1       663 1.30060E-04 1.02282E-05 0.00000E+00
 -1       664 1.29956E-04 1.07122E-05 8.27181E-25
 -1       665 1.29873E-04 1.11384E-05 0.00000E+00
 -1       666 1.29811E-04 1.15104E-05 8.27181E-25
 -1       667 1.29767E-04 1.18319E-05 0.00000E+00
 -1       668 1.29742E-04 1.21062E-05 0.00000E+00
 -1       669 1.29732E-04 1.23366E-05 0.00000E+00
 -1       670 1.29738E-04 1.25264E-05 0.00000E+00
 -1       671 1.29759E-04 1.26786E-05 0.00000E+00
 -1       672 1.29791E-04 1.27962E-05 0.00000E+00
 -1       673 1.29836E-04 1.28822E-05 0.00000E+00
 -1       674 1.29891E-04 1.29392E-05 8.27181E-25
 -1       675 1.29956E-04 1.29703E-05-4.13590E-25
 -1       676 1.29882E-04 1.34210E-05-3.30872E-24
 -1       677 1.29911E-04 1.33315E-05 0.00000E+00
 -1       678 1.29939E-04 1.32420E-05 0.00000E+00
 -1       679 1.29968E-04 1.31528E-05 0.00000E+00
 -1       680 1.29996E-04 1.30636E-05 1.65436E-24
 -1       771 1.73394E-05 7.33460E-06-5.29396E-23
 -1       772 1.09806E-05 2.05145E-05-2.64698E-23
 -1       773 5.68273E-06 3.09619E-05 0.00000E+00
 -1       774 1.37480E-06 3.88397E-05 0.00000E+00
 -1       775-2.01335E-06 4.43155E-05 5.29396E-23
 -1       776-4.55469E-06 4.75655E-05 0.00000E+00
 -1       777-6.32269E-06 4.87707E-05-5.29396E-23
 -1       778-7.39244E-06 4.81191E-05 0.00000E+00
 -1       779-7.83921E-06 4.58027E-05 0.00000E+00
 -1       780-7.73962E-06 4.20192E-05 2.64698E-23
 -1       781-7.17027E-06 3.69696E-05 0.00000E+00
 -1       782-6.20881E-06 3.08594E-05 0.00000E+00
 -1       783-4.93275E-06 2.38960E-05 0.00000E+00
 -1       784-3.42042E-06 1.62900E-05 0.00000E+00
 -1       785-1.74989E-06 8.25360E-06-2.64698E-23
 -1       786 1.31523E-04 1.04380E-05 0.00000E+00
 -1       787 1.31568E-04 9.68630E-06 4.13590E-25
 -1       788 1.31613E-04 8.97234E-06 0.00000E+00
 -1       789 1.31658E-04 8.28865E-06 8.27181E-25
 -1       790 1.31703E-04 7.63088E-06 0.00000E+00
 -1       791 1.31748E-04 6.99475E-06-8.27181E-25
 -1       792 1.31794E-04 6.37823E-06 0.00000E+00
 -1       793 1.31839E-04 5.77933E-06 0.00000E+00
 -1       794 1.31885E-04 5.19789E-06 1.65436E-24
 -1       795 1.31930E-04 4.63379E-06 0.00000E+00
 -1       796 1.31976E-04 4.08873E-06 1.65436E-24
 -1       797 1.32021E-04 3.56441E-06-8.27181E-25
 -1       798 1.32067E-04 3.06473E-06 1.65436E-24
 -1       799 1.32112E-04 2.59363E-06 0.00000E+00
 -1       800 1.32158E-04 2.15801E-06 0.00000E+00
 -1       801 1.13791E-04 9.75410E-06 2.64698E-23
 -1       802 5.94139E-05 6.96164E-06 1.32349E-23
 -1       803 5.43995E-06 4.18891E-06-2.64698E-23
 -1       804-1.10359E-05 2.67242E-06 1.32349E-23
 -1       805-6.82230E-06 1.34389E-06-2.64698E-23
 -1       806 1.31687E-04 1.03842E-05-1.65436E-24
 -1       807 1.31879E-04 9.55990E-06-1.65436E-24
 -1       808 1.32060E-04 8.76563E-06 0.00000E+00
 -1       809 1.32227E-04 8.00411E-06 0.00000E+00
 -1       810 1.32382E-04 7.27803E-06-3.30872E-24
 -1       811 1.32522E-04 6.58996E-06 0.00000E+00
 -1       812 1.32646E-04 5.94250E-06-1.65436E-24
 -1       813 1.32755E-04 5.33822E-06-8.27181E-25
 -1       814 1.32847E-04 4.77968E-06-3.30872E-24
 -1       815 1.32920E-04 4.26946E-06 0.00000E+00
 -1       816 1.32974E-04 3.81010E-06 0.00000E+00
 -1       817 1.33009E-04 3.40416E-06-1.65436E-24
 -1       818 1.33022E-04 3.05418E-06 0.00000E+00
 -1       819 1.33014E-04 2.76271E-06 1.65436E-24
 -1       820 1.32983E-04 2.53227E-06 3.30872E-24
 -1       821 1.32100E-04 1.33027E-06 0.00000E+00
 -1       822 1.31990E-04 7.72007E-07 8.27181E-25
 -1       823 1.31881E-04 1.83774E-07 3.30872E-24
 -1       824 1.31770E-04-3.40543E-07-1.65436E-24
 -1       825 1.31659E-04-7.21598E-07-3.30872E-24
 -1       826 1.31549E-04-8.80738E-07 0.00000E+00
 -1       827 1.31438E-04-7.89530E-07-3.30872E-24
 -1       828 1.31327E-04-4.20781E-07 1.65436E-24
 -1       829 1.31216E-04 1.89903E-07-3.30872E-24
 -1       830 1.31105E-04 1.00572E-06 0.00000E+00
 -1       831 1.30994E-04 1.94345E-06 3.30872E-24
 -1       832 1.30883E-04 2.91929E-06 1.65436E-24
 -1       833 1.30772E-04 3.84076E-06 3.30872E-24
 -1       834 1.30662E-04 4.61570E-06 0.00000E+00
 -1       835 1.30552E-04 5.18498E-06 0.00000E+00
 -1       836 1.32493E-04 1.86476E-06 3.30872E-24
 -1       837 1.32675E-04 1.96695E-06 0.00000E+00
 -1       838 1.32778E-04 2.06898E-06-3.30872E-24
 -1       839 1.32834E-04 2.17037E-06-8.27181E-25
 -1       840 1.32874E-04 2.27160E-06 0.00000E+00
 -1       856 1.30426E-04 5.72686E-06 0.00000E+00
 -1       857 1.30400E-04 6.08089E-06 0.00000E+00
 -1       858 1.30374E-04 6.53420E-06 4.13590E-25
 -1       859 1.30347E-04 7.06826E-06 0.00000E+00
 -1       860 1.30321E-04 7.66445E-06 0.00000E+00
 -1       861 1.30294E-04 8.30410E-06 4.13590E-25
 -1       862 1.30267E-04 8.96850E-06-8.27181E-25
 -1       863 1.30240E-04 9.63891E-06 4.13590E-25
 -1       864 1.30213E-04 1.02966E-05-8.27181E-25
 -1       865 1.30186E-04 1.09228E-05 0.00000E+00
 -1       866 1.30160E-04 1.14988E-05-8.27181E-25
 -1       867 1.30133E-04 1.20060E-05-4.13590E-25
 -1       868 1.30106E-04 1.24258E-05 0.00000E+00
 -1       869 1.30079E-04 1.27397E-05 0.00000E+00
 -1       870 1.30052E-04 1.29293E-05-8.27181E-25
 -1       871 1.30448E-04 5.48895E-06-8.27181E-25
 -1       872 1.30569E-04 5.48481E-06 0.00000E+00
 -1       873 1.30757E-04 5.48018E-06 0.00000E+00
 -1       874 1.30959E-04 5.47495E-06-1.55096E-25
 -1       875 1.31120E-04 5.46918E-06-4.13590E-25
 -1       876 1.30468E-04 5.73813E-06 0.00000E+00
 -1       877 1.30467E-04 6.04305E-06 3.30872E-24
 -1       878 1.30448E-04 6.39838E-06 0.00000E+00
 -1       879 1.30412E-04 6.79772E-06-1.65436E-24
 -1       880 1.30363E-04 7.23463E-06 3.30872E-24
 -1       881 1.30301E-04 7.70268E-06 0.00000E+00
 -1       882 1.30231E-04 8.19551E-06 0.00000E+00
 -1       883 1.30153E-04 8.70672E-06 0.00000E+00
 -1       884 1.30072E-04 9.22992E-06-3.30872E-24
 -1       885 1.29987E-04 9.75876E-06 0.00000E+00
 -1       886 1.29904E-04 1.02868E-05 0.00000E+00
 -1       887 1.29822E-04 1.08078E-05-1.65436E-24
 -1       888 1.29746E-04 1.13151E-05 0.00000E+00
 -1       889 1.29677E-04 1.18025E-05 0.00000E+00
 -1       890 1.29617E-04 1.22634E-05 1.65436E-24
 -1       891 1.30074E-04 1.29284E-05 0.00000E+00
 -1       892 1.30104E-04 1.28802E-05-8.27181E-25
 -1       893 1.30090E-04 1.28321E-05-8.27181E-25
 -1       894 1.30011E-04 1.27842E-05 4.13590E-25
 -1       895 1.29843E-04 1.27363E-05 0.00000E+00
 -1       956 1.32823E-04 2.33085E-06 0.00000E+00
 -1       957 1.32714E-04 2.36446E-06 0.00000E+00
 -1       958 1.32605E-04 2.45848E-06 1.65436E-24
 -1       959 1.32496E-04 2.60477E-06 0.00000E+00
 -1       960 1.32387E-04 2.79520E-06-3.30872E-24
 -1       961 1.32278E-04 3.02157E-06 1.65436E-24
 -1       962 1.32168E-04 3.27571E-06 3.30872E-24
 -1       963 1.32059E-04 3.54942E-06 1.65436E-24
 -1       964 1.31950E-04 3.83449E-06-3.30872E-24
 -1       965 1.31841E-04 4.12273E-06 1.65436E-24
 -1       966 1.31731E-04 4.40595E-06 0.00000E+00
 -1       967 1.31622E-04 4.67594E-06 1.65436E-24
 -1       968 1.31513E-04 4.92450E-06-3.30872E-24
 -1       969 1.31404E-04 5.14348E-06 0.00000E+00
 -1       970 1.31295E-04 5.32471E-06 0.00000E+00
 -1       971 1.31088E-04 5.61011E-06 1.65436E-24
 -1       972 1.30986E-04 5.84597E-06 8.27181E-25
 -1       973 1.30884E-04 6.15845E-06-1.65436E-24
 -1       974 1.30782E-04 6.53766E-06 0.00000E+00
 -1       975 1.30680E-04 6.97375E-06 3.30872E-24
 -1       976 1.30578E-04 7.45681E-06 0.00000E+00
 -1       977 1.30476E-04 7.97695E-06 3.30872E-24
 -1       978 1.30374E-04 8.52423E-06 0.00000E+00
 -1       979 1.30272E-04 9.08875E-06 0.00000E+00
 -1       980 1.30169E-04 9.66058E-06 1.65436E-24
 -1       981 1.30067E-04 1.02298E-05 0.00000E+00
 -1       982 1.29965E-04 1.07865E-05 0.00000E+00
 -1       983 1.29863E-04 1.13207E-05 3.30872E-24
 -1       984 1.29762E-04 1.18226E-05 1.65436E-24
 -1       985 1.29661E-04 1.22822E-05-1.65436E-24
 -3
    1PSTEP                        20          10           1          
  100CL  110 5.74219E-01         409                     0   10           1
 -4  STRESS      6    1
 -5  SXX         1    4    1    1
 -5  SYY         1    4    2    2
 -5  SZZ         1    4    3    3
 -5  SXY         1    4    1    2
 -5  SYZ         1    4    2    3
 -5  SZX         1    4    3    1
 -1         1-2.96908E+06-1.19279E+06-6.41356E+05-1.37547E+06-6.03904E-10-2.11148E-08
 -1         2 2.07730E+03-8.54109E+05 6.70680E+03 1.96768E+02 9.23137E-11 1.40080E-08
 -1         3-5.23594E+02-1.37410E+06 1.78980E+02-1.28783E+03 5.86574E-10-1.31440E-08
 -1         5-1.47708E+00 3.04542E+05 7.72839E+00-7.70103E-02-5.44362E-11 1.73738E-08
 -1         8-1.01821E+06-3.53072E+05-1.07544E+05-4.44718E+05 2.65572E-10-1.29985E-08
 -1         9-5.05961E+05-8.13271E+05 6.31517E+03-8.37354E+05 1.66183E-08-3.79514E-09
 -1        10-7.14314E+02-1.40319E+06-1.91444E+03-8.06330E+03-2.22281E-09-1.13985E-08
 -1        12 1.69477E+00 3.04558E+05 2.50197E+02-5.83389E-01-4.32543E-11 6.26096E-09
 -1        15 1.75121E+03 9.62394E+02 5.66079E+03 3.43719E+00-4.54776E-10-1.52458E-09
 -1        16 1.19524E+06-9.38508E+05 1.48575E+05-1.20842E+06 1.16997E-08 2.56890E-08
 -1        17-2.14838E+03 8.93547E+04 8.35361E+04 2.08140E+05 3.63798E-10 9.44128E-09
 -1        18 2.84056E+03-3.87795E+03-2.35409E+04-8.52932E+04 8.68533E-09 2.60297E-09
 -1        19 9.81660E+04 1.12755E+05-8.11381E+02 1.91847E+04-6.11180E-11-5.12373E-09
 -1        20-5.27596E+04-4.64378E+05-1.03258E+05 2.79686E+04 2.05531E-09 5.60491E-09
 -1        21-4.13109E+01-2.56389E+05-8.15815E+02 5.01812E+00-1.36708E-09 2.27429E-08
 -1        24-5.22709E+05 8.21869E+05 2.64923E+05 4.86767E+05-7.52431E-08-3.34597E-08
 -1        25-1.02074E+05-5.75706E+05-1.15307E+05-1.84514E+05 5.54792E-12 2.27374E-10
 -1        26-3.81824E+04 7.32701E+04-1.90229E+04-3.91905E+03 1.41117E-09-3.49111E-09
 -1        27-6.71445E+04-2.52530E+05-9.37410E+04 5.69820E+04 5.57429E-09 6.03268E-09
 -1        28 1.96568E+04-7.21893E+04 1.45634E+04 2.05227E+04 1.18439E-09 7.29682E-09
 -1        32-1.39824E+06-2.21515E+06-6.39313E+04-3.80756E+05-2.88674E-08-2.59595E-09
 -1        33-1.47968E+05 7.31289E+04 2.60851E+04-3.43444E+04-1.57968E-10-3.80624E-09
 -1        34-1.86234E+05-1.92100E+04 5.03475E+02 5.95199E+04 9.85224E-10 1.93283E-09
 -1        35-2.00589E+04-2.86709E+04-1.13238E+03 4.46595E+04 2.70631E-09-1.47884E-08
 -1        51 3.04359E+04-3.02564E+05 6.97842E+04-8.58692E+05-2.18279E-10-2.27155E-08
 -1        52 1.34393E+04-2.94545E+05 4.06502E+04-1.00133E+06 6.11180E-10-4.84870E-08
 -1        53 6.47597E+03-3.09275E+05 2.75412E+04-8.55627E+05 4.22006E-10-2.76923E-08
 -1        54 1.71969E+04-3.07051E+05 3.55106E+04-1.00451E+06 3.41970E-10-6.62549E-08
 -1        55 3.45292E+04-3.19439E+05 5.82025E+04-8.55144E+05 6.40284E-10 6.83940E-09
 -1        56-5.65017E+06-6.32427E+05-4.73037E+05-2.19096E+06-1.30967E-10 6.04778E-08
 -1        57-5.88204E+06-1.02044E+06-3.19174E+05-2.12522E+06 3.99450E-09 8.16071E-08
 -1        58-5.73992E+06-7.88146E+05-1.11196E+05-2.16726E+06-2.41198E-09 2.05328E-08
 -1        59-5.77958E+06-8.36155E+05-6.63849E+04-2.15155E+06-4.30691E-09-1.01063E-08
 -1        60-5.75117E+06-8.11696E+05-2.59163E+04-2.16618E+06-4.91355E-09-1.38543E-08
 -1        61-5.76713E+06-8.07949E+05-1.47061E+04-2.15205E+06 1.25729E-08-2.52010E-08
 -1        62-5.75207E+06-8.15678E+05-6.99248E+03-2.16693E+06 1.65016E-09 3.03155E-08
 -1        63-5.76575E+06-8.04209E+05-5.67061E+03-2.15177E+06-5.45376E-09 1.43959E-08
 -1        64-5.75251E+06-8.15359E+05-6.29373E+03-2.16648E+06 9.99307E-10-1.64450E-08
 -1        65-5.76530E+06-8.08730E+05-1.26234E+04-2.15372E+06-8.41828E-09-5.65533E-08
 -1        66-5.75255E+06-8.11227E+05-2.20009E+04-2.16495E+06-1.93495E-09 1.97224E-08
 -1        67-5.77438E+06-8.33975E+05-5.61650E+04-2.15492E+06-5.82486E-09 7.53516E-09
 -1        68-5.74367E+06-7.90685E+05-9.40408E+04-2.16514E+06-1.60071E-09 4.18768E-08
 -1        69-5.86007E+06-9.90715E+05-2.69859E+05-2.13375E+06-1.40426E-09-4.33138E-08
 -1        70-5.66814E+06-6.58739E+05-4.00070E+05-2.18483E+06-3.04863E-09-3.47936E-08
 -1        86-1.03614E+03-8.55902E+05 7.26294E+03-9.83854E+01-5.68434E-11 2.23403E-08
 -1        87 6.90254E+03-8.51777E+05 1.50541E+04 3.61519E+02-2.43745E-10 1.21226E-08
 -1        88-5.84606E+03-8.58228E+05 2.31622E+04-2.63141E+02-2.15550E-10-5.36918E-09
 -1        89 4.35961E+04-8.34750E+05 6.23403E+04 6.03947E+02-3.16504E-10 1.35629E-10
 -1        90-3.76052E+04-8.72887E+05 8.82212E+04-3.40833E+02-1.60071E-10 1.45791E-08
 -1       121-7.31573E+02-1.37606E+06-1.85855E+02 6.41792E+02 2.86249E-10 6.71207E-09
 -1       122-4.43128E+02-1.37411E+06 3.32073E+02-2.57083E+03 3.33759E-09 3.26108E-08
 -1       123-7.52728E+02-1.37611E+06 1.45319E+02 1.91637E+03 1.25226E-09-6.25732E-10
 -1       124 2.99074E+02-1.37386E+06 1.25856E+03-5.37606E+03 6.47105E-09-1.16779E-08
 -1       125-1.16680E+03-1.37651E+06 1.44946E+03 3.43699E+03 2.09366E-09-1.40390E-08
 -1       191-1.80917E+00 3.04569E+05 9.44560E+00 3.86091E-02-6.26521E-11 4.93901E-09
 -1       192-2.18513E+00 3.04542E+05 1.63527E+01-3.13377E-01-8.48395E-11-1.46348E-08
 -1       193-3.69261E+00 3.04568E+05 3.06131E+01 2.75611E-01-1.48551E-10 2.83535E-10
 -1       194-4.46407E+00 3.04545E+05 6.18259E+01-7.37134E-01-1.28924E-10-4.40070E-09
 -1       195-7.31219E+00 3.04566E+05 1.21135E+02 4.64444E-01-1.42990E-10-3.90128E-09
 -1       251-1.71787E+06 6.63117E+03-9.95751E+04-7.72424E+04 2.30466E-09 2.82598E-08
 -1       252-1.45870E+06-5.96869E+03-1.38437E+04 2.33481E+05-3.23780E-09-3.51001E-08
 -1       253-1.59460E+06-1.53412E+03-1.96012E+04-1.55707E+05-5.40513E-09-4.66998E-08
 -1       254-1.57539E+06 1.57947E+04-3.40494E+03 3.03706E+05 4.91218E-09-8.44284E-09
 -1       255-1.61345E+06-5.11149E+03-1.02199E+04-1.48106E+05 1.16579E-08-1.46274E-08
 -1       256-1.40857E+06 1.45557E+04 3.48892E+04 2.05915E+05-7.20866E-09 3.69973E-08
 -1       257-1.74523E+06-1.33904E+04-3.53649E+04-5.71667E+04-5.04042E-09 5.73749E-08
 -1       258-1.27500E+06 1.17376E+04 6.14525E+04-1.33938E+04 1.62618E-09 8.68522E-09
 -1       259-1.73396E+06-1.28600E+04-3.17984E+04 7.06529E+04-1.96869E-08-2.95973E-08
 -1       260-1.43388E+06 1.62608E+04 3.33374E+04-2.24317E+05-3.74907E-08-3.93114E-08
 -1       261-1.60193E+06-5.29539E+03-1.81508E+03 1.53409E+05 2.68692E-08-1.33966E-08
 -1       262-1.57319E+06 2.27132E+04 1.08019E+04-3.04054E+05-1.04375E-08-1.82353E-08
 -1       263-1.60842E+06-8.15414E+03 1.15501E+03 1.51080E+05 3.95676E-09 3.73209E-08
 -1       264-1.41223E+06 3.77459E+04 5.40225E+04-2.16088E+05 6.96655E-08 1.97388E-08
 -1       265-1.74793E+06-3.23621E+04-1.27293E+04 6.47174E+04 1.96796E-08 2.12276E-09
 -1       266-3.17022E+04-1.48225E+04 7.43892E+04-7.35513E+01-3.78350E-10-8.30924E-08
 -1       267 3.67522E+04 1.72782E+04 5.25737E+04 8.48560E+01-4.24734E-10-1.66212E-07
 -1       268-4.92838E+03-2.44695E+03 1.95416E+04-1.08126E+01-4.03816E-10-1.16334E-07
 -1       269 5.81900E+03 2.92861E+03 1.27015E+04 1.25946E+01-4.04043E-10-9.43047E-08
 -1       270-8.73439E+02-4.81188E+02 6.13122E+03-1.70919E+00-3.95858E-10-4.27900E-08
 -1       271-2.91415E+06-3.61654E+05-2.19199E+05-1.13078E+06 2.40107E-10 3.39205E-08
 -1       272-3.00819E+06-5.06983E+05-1.41051E+05-1.11206E+06-3.29919E-10 1.72295E-08
 -1       273-2.95554E+06-4.16313E+05-5.17694E+04-1.12083E+06 6.81212E-10 8.96398E-09
 -1       274-2.95902E+06-4.40573E+05-2.89950E+04-1.12748E+06-8.48740E-09 1.01450E-08
 -1       275-2.96222E+06-4.21048E+05-1.20685E+04-1.11799E+06 6.56382E-09-2.91511E-08
 -1       276-2.95012E+06-4.35902E+05-6.36983E+03-1.13255E+06-4.46562E-09-1.12195E-08
 -1       277-2.96444E+06-4.20184E+05-3.14206E+03-1.11612E+06-8.33370E-09-2.04927E-08
 -1       278-2.94678E+06-4.37856E+05-2.17877E+03-1.13600E+06 8.87758E-09-2.62479E-08
 -1       279-2.96573E+06-4.18918E+05-2.29768E+03-1.11469E+06-6.18138E-09-3.73583E-08
 -1       280-2.94518E+06-4.40388E+05-4.08477E+03-1.13846E+06 5.59180E-09-2.05908E-08
 -1       281-2.96622E+06-4.17578E+05-7.41123E+03-1.11377E+06-1.95632E-09-7.99241E-09
 -1       282-2.94745E+06-4.46523E+05-1.77448E+04-1.13930E+06 2.06546E-09 5.52682E-08
 -1       283-2.96366E+06-4.13143E+05-3.15353E+04-1.11378E+06-1.97906E-09-1.68948E-08
 -1       284-2.97481E+06-4.89724E+05-8.60505E+04-1.13303E+06-3.62115E-09-6.01649E-08
 -1       285-2.93962E+06-3.78629E+05-1.33659E+05-1.11853E+06-3.18505E-09-2.04527E-08
 -1       301 2.30922E+04-1.84447E+05 1.72529E+05-3.51677E+05 2.91038E-10-2.32067E-08
 -1       302 2.45537E+04-1.41157E+05 1.10410E+05-5.14868E+05 1.56433E-10-1.22382E-08
 -1       303 9.94861E+02-1.67396E+05 7.94404E+04-3.50987E+05-1.18234E-10-2.08456E-09
 -1       304 2.36021E+04-1.39921E+05 1.09602E+05-5.14408E+05 3.85626E-10 1.98779E-08
 -1       305 2.14739E+04-1.82397E+05 1.70522E+05-3.52201E+05-3.05590E-10-1.51049E-08
 -1       306-9.96382E+06-1.29750E+06-1.65170E+06-2.03469E+06-3.65253E-08-2.15368E-08
 -1       307 1.95328E+05-1.88153E+06 6.20612E+05-4.79276E+06-3.47965E-07-9.11969E-08
 -1       308-7.60130E+06 2.27318E+05-2.12709E+05-2.04764E+04-5.95319E-08 1.16634E-07
 -1       309-3.73734E+06-2.09086E+06 1.74223E+05-7.45189E+06 1.76570E-07 1.29512E-08
 -1       310-7.68714E+06 1.97945E+05-1.48843E+05-6.41452E+04-8.24220E-08-5.76074E-08
 -1       311 4.07150E+05-1.88785E+06 8.95346E+05-4.58533E+06 2.50962E-07-5.98284E-08
 -1       312-9.99085E+06-1.33678E+06-1.13738E+06-2.14283E+06 1.66969E-07-4.07454E-08
 -1       313 2.19787E+06 5.23727E+05 1.55970E+06 7.77728E+05-1.12239E-07-1.86410E-08
 -1       314-8.23417E+06-3.07504E+06-1.13317E+06-4.07713E+06 1.28435E-07-6.57310E-08
 -1       315-5.23771E+06 3.70925E+06 8.85784E+05 1.62348E+06-5.42641E-08-1.90048E-08
 -1       316-4.21269E+06-3.25172E+06-1.47146E+05-3.90865E+06-2.58486E-07-1.84598E-07
 -1       317-1.04163E+07 4.57811E+06 1.62221E+05-1.31213E+04 2.97588E-07-2.30349E-07
 -1       318-4.14648E+06-3.24248E+06-2.38261E+05-3.89443E+06-3.17290E-07 5.83386E-08
 -1       319-5.45463E+06 3.75610E+06 5.71089E+05 1.57079E+06-5.00440E-08 5.73928E-08
 -1       320-8.13171E+06-3.09828E+06-1.74108E+06-4.08849E+06 6.60657E-08-8.92760E-09
 -1       336-9.59669E+00-1.43286E+06-6.49144E+03 4.59327E+03-1.60571E-08-7.97081E-09
 -1       337-2.55159E+03-1.43344E+06-9.26481E+03-1.09648E+04-2.90916E-08-7.51061E-09
 -1       338 5.78171E+02-1.43244E+06-1.47643E+04 6.32373E+03-2.13918E-08-1.37734E-08
 -1       339-1.61428E+04-1.44230E+06-3.41739E+04-1.43314E+04-3.80060E-08 1.70739E-08
 -1       340 1.09525E+04-1.42462E+06-5.36814E+04 7.91904E+03-2.43635E-08 2.31012E-09
 -1       406 2.10068E+01 3.04555E+05 4.94156E+02 1.23213E-01-1.96579E-10 1.27766E-08
 -1       407 1.73887E+02 3.04644E+05 1.04978E+03 2.60597E+00-1.33468E-10 8.95545E-09
 -1       408 5.42221E+02 3.04479E+05 2.09688E+03-2.79994E+00-3.09569E-10 1.31110E-08
 -1       409 2.26848E+03 3.05314E+05 4.72014E+03 2.79792E+01-1.45747E-10 2.17896E-08
 -1       410 6.51470E+03 3.03883E+05 9.63611E+03-2.64503E+01-5.10909E-10-8.31437E-09
 -1       521-1.21912E+07-1.76800E+06-2.24428E+06-2.27958E+06-3.42261E-08 4.13274E-08
 -1       522 6.85384E+05-2.20221E+06 7.66946E+05-6.30661E+06-2.18628E-07-7.18028E-08
 -1       523-9.18379E+06 2.40497E+05-2.72330E+05 2.14237E+05 3.39642E-08-1.32473E-07
 -1       524-4.88575E+06-2.06536E+06 2.43757E+05-9.73635E+06 2.97449E-07-2.31341E-07
 -1       525-9.32267E+06 1.87930E+05-1.99860E+05 1.47776E+05 2.18803E-07-7.66195E-08
 -1       526 1.07928E+06-2.22598E+06 1.14636E+06-5.95963E+06 9.60572E-08 1.91958E-08
 -1       527-1.22402E+07-1.84731E+06-1.56704E+06-2.45043E+06 4.93601E-08 3.24653E-08
 -1       528 3.67815E+06 7.30110E+05 1.96855E+06 1.37725E+06-1.13476E-07 4.74975E-08
 -1       529-9.95495E+06-4.10192E+06-1.55783E+06-4.93686E+06-2.98023E-08 1.16706E-08
 -1       530-6.43924E+06 5.21806E+06 1.13681E+06 2.21002E+06-1.16110E-07 1.29759E-07
 -1       531-4.86198E+06-4.23751E+06-1.87243E+05-4.74037E+06-3.96656E-07 4.53292E-08
 -1       532-1.33040E+07 6.35583E+06 2.50203E+05-4.38621E+05 1.66212E-07-2.57613E-07
 -1       533-4.75695E+06-4.22472E+06-2.70634E+05-4.71546E+06-3.73984E-08-3.92436E-07
 -1       534-6.77946E+06 5.37232E+06 8.10449E+05 2.08603E+06-9.49512E-08 3.22099E-07
 -1       535-9.81986E+06-4.20168E+06-2.20569E+06-4.94812E+06-1.92085E-09 1.96287E-07
 -1       536-4.75497E+05-2.92852E+04 2.29000E+04-2.49430E+04-5.46152E-10 2.06928E-08
 -1       537-2.73945E+05 3.10412E+04 4.97532E+04 6.13450E+04-6.92667E-08 2.62407E-08
 -1       538-3.78248E+05-1.26459E+03 1.08491E+04-3.77878E+04 1.70053E-08 4.65943E-08
 -1       539-3.39432E+05 3.32417E+03 1.33447E+04 7.02317E+04 8.67199E-08 4.85147E-08
 -1       540-4.11454E+05-4.14564E+02-4.33570E+03-3.39066E+04-8.38463E-09 5.33398E-08
 -1       541-2.11631E+05 5.54232E+03 3.41133E+04 4.44254E+04-3.06636E-08 4.98171E-08
 -1       542-5.02623E+05-6.28741E+03-2.53169E+04-1.18428E+04 1.10663E-08 2.33935E-08
 -1       543-1.38536E+05 8.25720E+03 4.74961E+04-8.38322E+03-1.39883E-08 1.70598E-09
 -1       544-4.82610E+05-4.71109E+03-2.22768E+04 1.87857E+04-8.30073E-09-2.46058E-08
 -1       545-2.57060E+05 2.10606E+03 2.18057E+04-5.60491E+04-4.70664E-09-5.26070E-08
 -1       546-3.87232E+05 2.41903E+03-4.97586E+03 3.57785E+04 5.98561E-10-4.95453E-08
 -1       547-3.49076E+05-4.02877E+03-1.90605E+03-7.22076E+04-6.53579E-08-6.03524E-08
 -1       548-3.93006E+05 3.39523E+03-1.49409E+04 3.50532E+04-5.95655E-08-5.23801E-08
 -1       549-2.49055E+05-9.72204E+03-1.78121E+03-5.27756E+04-3.26701E-08-3.59373E-08
 -1       550-4.84470E+05 5.82660E+03-6.83624E+04 1.62268E+04 7.26550E-09-2.05528E-08
 -1       551 2.47624E+04-6.71531E+05 2.06734E+04-1.06799E+06-6.24277E-08 9.57516E-09
 -1       552 5.49324E+04-6.90693E+05 3.03552E+04-1.52198E+06-4.69445E-08 3.73839E-08
 -1       553 3.99841E+04-6.95054E+05 4.56635E+04-1.06356E+06-7.65140E-08 3.28073E-08
 -1       554 8.45118E+04-6.91802E+05 9.68959E+04-1.52366E+06-4.74829E-08 4.83851E-09
 -1       555 6.90109E+04-7.14996E+05 1.72104E+05-1.06428E+06-7.70960E-08-9.78980E-09
 -1       556 1.36496E+05-2.47117E+05 6.30162E+04-2.97247E+05-1.07102E-08-1.99361E-09
 -1       557 2.31807E+05-3.23822E+05 3.38574E+04-3.76646E+05-5.82077E-10-3.47427E-10
 -1       558 1.31035E+05-2.52482E+05 1.25159E+04-2.92254E+05-1.52213E-08-8.92032E-09
 -1       559 2.15345E+05-3.31135E+05 6.71780E+03-3.86237E+05 1.31258E-08-9.85347E-09
 -1       560 1.24643E+05-2.48396E+05 2.09711E+03-2.96639E+05 6.89761E-09 9.91349E-09
 -1       561 2.06750E+05-3.28109E+05 1.38181E+03-3.91869E+05-5.23869E-10 2.01671E-08
 -1       562 1.19614E+05-2.45188E+05 1.77497E+02-3.00248E+05-3.46336E-09 3.00679E-09
 -1       563 2.00844E+05-3.25539E+05 3.37233E+02-3.95676E+05 1.16415E-10 9.08085E-09
 -1       564 1.16235E+05-2.43059E+05 2.97557E+00-3.02633E+05 3.89991E-09 1.86583E-09
 -1       565 1.97303E+05-3.24000E+05 1.30154E+02-3.97923E+05 4.64570E-09 7.35145E-09
 -1       566 1.14573E+05-2.41997E+05-1.53077E+00-3.03802E+05-6.48652E-09 4.60022E-09
 -1       567 1.96097E+05-3.23463E+05-8.52625E+01-3.98591E+05 6.09634E-09-1.19835E-08
 -1       568 1.14676E+05-2.42076E+05-4.25109E+02-3.03821E+05-1.60617E-09 3.05590E-09
 -1       569 1.96281E+05-3.23392E+05-1.05941E+03-3.96832E+05 6.12636E-09 1.68657E-08
 -1       570 1.17319E+05-2.44281E+05-2.48977E+03-3.03332E+05 9.50240E-09 6.36646E-12
 -1       571 2.30886E+05 8.48871E+03 1.24570E+04-6.18017E+04 1.16097E-09 7.46832E-09
 -1       572 2.32727E+05 3.01644E+03 6.10353E+03-6.77906E+04 2.82944E-09 1.18143E-09
 -1       573 2.31624E+05 7.82261E+02 2.71172E+03-6.16674E+04 3.42880E-09 2.83580E-09
 -1       574 2.31834E+05 3.21609E+02 1.35904E+03-6.79476E+04 1.48975E-09-3.26372E-09
 -1       575 2.31707E+05 1.16585E+02 6.41032E+02-6.16495E+04-7.09292E-10-1.74214E-09
 -1       576 2.31717E+05 1.01569E+02 3.27296E+02-6.79685E+04-3.68061E-10-6.78938E-10
 -1       577 2.31727E+05 7.64863E+01 1.62798E+02-6.16471E+04-7.63976E-11 5.96174E-10
 -1       578 2.31717E+05 8.40068E+01 9.21929E+01-6.79712E+04-1.23691E-09-1.63709E-10
 -1       579 2.31754E+05 6.55629E+01 6.19663E+01-6.16469E+04 1.06447E-08-3.45062E-09
 -1       580 2.31755E+05 6.69791E+01 6.79438E+01-6.79676E+04 1.33277E-08-8.74934E-10
 -1       581 2.31798E+05 4.68173E+01 1.02076E+02-6.16507E+04 8.12543E-09 3.75394E-09
 -1       582 2.31831E+05 6.79138E+01 2.03347E+02-6.79284E+04 6.32099E-10-9.36234E-09
 -1       583 2.31847E+05 1.08549E+02 3.93655E+02-6.16863E+04 3.05226E-09 4.31010E-09
 -1       584 2.32037E+05 4.22628E+02 8.86153E+02-6.76299E+04 2.06273E-09-6.03063E-09
 -1       585 2.31809E+05 1.19734E+03 1.80004E+03-6.19495E+04 3.40151E-10-8.40555E-09
 -1       586-2.92285E+03 7.71244E+04-3.44189E+03-2.06270E+05-1.50158E-09-1.36184E-08
 -1       587-7.61880E+02 7.67144E+04-2.74402E+01-2.27046E+05-4.45652E-10-3.71635E-08
 -1       588 7.17092E+02 7.67386E+04 3.31985E+03-2.06174E+05-1.36424E-10-7.63703E-09
 -1       589 4.34387E+03 7.85347E+04 9.17662E+03-2.26805E+05-3.22507E-09-1.24846E-08
 -1       590 1.30051E+04 7.57225E+04 1.94715E+04-2.06529E+05-1.71440E-09-3.11411E-09
 -1       591-4.77501E+04-1.20914E+04-1.62723E+04-2.26079E+04-9.08699E-10-2.30648E-09
 -1       592-5.00639E+04-1.52999E+04-8.81410E+03-2.59534E+04 1.01664E-09-9.82300E-09
 -1       593-4.93836E+04-1.09044E+04-3.66911E+03-2.37951E+04 8.30028E-10-2.81716E-10
 -1       594-4.78084E+04-1.29217E+04-1.82996E+03-2.60500E+04 1.24962E-09 1.39647E-08
 -1       595-4.95083E+04-1.08999E+04-8.40565E+02-2.38492E+04-7.34445E-10 1.61631E-08
 -1       596-4.76547E+04-1.28128E+04-4.27891E+02-2.60327E+04 3.23308E-09 1.27443E-10
 -1       597-4.95240E+04-1.09108E+04-2.34226E+02-2.38513E+04 2.89276E-09-8.47990E-10
 -1       598-4.76397E+04-1.28087E+04-1.90544E+02-2.60278E+04-1.57439E-09 1.76928E-09
 -1       599-4.95229E+04-1.09110E+04-2.46205E+02-2.38509E+04-3.19676E-09 3.52429E-12
 -1       600-4.76554E+04-1.28139E+04-4.59611E+02-2.60316E+04-3.44392E-09 1.65358E-09
 -1       601-4.95039E+04-1.09001E+04-9.07872E+02-2.38479E+04-1.78602E-09-6.66739E-09
 -1       602-4.78213E+04-1.29310E+04-1.97922E+03-2.60477E+04-2.12094E-09 1.59436E-08
 -1       603-4.93669E+04-1.09071E+04-3.96947E+03-2.37898E+04-2.55750E-09-2.63208E-09
 -1       604-5.02737E+04-1.54903E+04-9.53538E+03-2.59256E+04-2.81113E-09-7.60156E-09
 -1       605-4.75850E+04-1.22038E+04-1.76040E+04-2.25190E+04 1.74089E-09 8.21547E-09
 -1       606 2.74286E+04-1.10846E+04-1.99196E+04 2.63208E+04-7.56700E-10 5.38739E-09
 -1       607 2.40203E+04-3.59496E+03-9.91915E+03 2.95540E+04-6.36646E-10-7.76708E-10
 -1       608 2.59554E+04-6.24842E+02-4.44160E+03 2.61162E+04 1.11140E-09 1.90312E-10
 -1       609 2.55748E+04-1.84252E+02-2.24340E+03 2.97861E+04 1.44428E-09-7.74980E-09
 -1       610 2.57797E+04 4.21467E+00-1.07124E+03 2.60931E+04 8.81664E-09 8.99877E-09
 -1       611 2.57116E+04 1.40773E+01-5.40084E+02 2.98114E+04 1.56806E-08-1.12175E-08
 -1       612 2.57345E+04 2.02668E+01-2.57704E+02 2.60908E+04 6.74117E-09 2.08706E-09
 -1       613 2.57117E+04 2.22770E+01-1.16263E+02 2.98144E+04-8.79481E-10 6.46514E-09
 -1       614 2.57104E+04 1.97143E+01-2.96589E+01 2.60900E+04 2.12458E-09 9.58494E-09
 -1       615 2.57004E+04 2.73526E+01 4.33028E+01 2.98148E+04 3.42334E-09 9.88848E-09
 -1       616 2.56918E+04 2.53664E+01 1.34780E+02 2.60903E+04-3.71574E-09-2.06433E-09
 -1       617 2.57114E+04 5.92938E+01 3.09649E+02 2.98143E+04 9.33596E-10-2.25918E-09
 -1       618 2.56610E+04 1.17104E+02 6.24808E+02 2.60904E+04 7.63976E-10-1.15438E-09
 -1       619 2.59288E+04 5.44418E+02 1.40359E+03 2.98135E+04-7.43398E-10 7.57200E-09
 -1       620 2.54515E+04 1.60051E+03 2.82125E+03 2.60896E+04 1.72975E-09 5.16684E-09
 -1       621 2.78822E+02 2.35740E+05 2.53928E+03 1.77077E+04 1.81899E-11-9.21955E-09
 -1       622 3.46031E+02 2.36357E+05 2.36954E+03 2.57616E+04 2.58751E-10-1.34478E-08
 -1       623 2.78751E+01 2.35879E+05 3.00248E+03 1.76233E+04 3.72211E-10-5.15593E-09
 -1       624 1.45423E+03 2.37354E+05 5.94461E+03 2.58476E+04 1.91875E-10 4.26553E-09
 -1       625 1.45844E+03 2.34706E+05 1.04485E+04 1.76206E+04 2.81034E-10-1.33161E-09
 -1       626 2.08367E+05 5.41969E+04 4.53414E+03 1.07663E+05-9.04947E-11 8.46012E-09
 -1       627 2.05997E+05 5.57519E+04 2.18494E+03 1.11797E+05 1.59525E-09 1.07627E-09
 -1       628 2.08500E+05 5.20955E+04 9.23297E+02 1.08399E+05-5.92718E-09-7.81097E-09
 -1       629 2.05395E+05 5.51851E+04 4.52022E+02 1.12042E+05 3.72256E-09 1.36841E-08
 -1       630 2.08510E+05 5.19959E+04 2.08894E+02 1.08425E+05 8.94761E-09-4.63558E-09
 -1       631 2.05326E+05 5.51676E+04 1.11535E+02 1.12043E+05 2.17888E-08 4.09636E-09
 -1       632 2.08502E+05 5.20024E+04 7.18188E+01 1.08418E+05-1.33450E-08-1.79333E-08
 -1       633 2.05313E+05 5.51722E+04 7.76293E+01 1.12036E+05-3.40588E-08-7.23867E-09
 -1       634 2.08493E+05 5.20026E+04 1.23292E+02 1.08414E+05-1.29814E-08 4.49768E-09
 -1       635 2.05320E+05 5.51729E+04 2.48300E+02 1.12037E+05 2.67016E-09 3.21711E-09
 -1       636 2.08482E+05 5.20003E+04 5.00754E+02 1.08412E+05-1.45238E-09 2.59752E-09
 -1       637 2.05425E+05 5.52516E+04 1.10033E+03 1.12033E+05-4.55998E-10 4.04998E-09
 -1       638 2.08441E+05 5.22445E+04 2.26089E+03 1.08300E+05-4.70573E-09 8.92987E-09
 -1       639 2.06612E+05 5.69030E+04 5.34878E+03 1.11682E+05-1.63380E-08 4.94356E-09
 -1       640 2.08281E+05 5.71711E+04 1.10997E+04 1.06215E+05-4.83715E-09 2.08388E-09
 -1       656 5.47041E+04-1.39147E+06-1.32057E+05-7.65668E+02 3.27418E-10-7.06007E-09
 -1       657-7.23305E+04-1.45110E+06-1.09308E+05 7.23037E+03-9.73159E-11-1.44632E-08
 -1       658 1.73964E+04-1.40844E+06-6.72052E+04-2.29885E+03 3.24462E-10 1.11131E-08
 -1       659-7.78994E+04-1.45374E+06-1.16624E+05 8.35536E+03-3.01952E-10 1.62930E-08
 -1       660 6.02602E+04-1.38884E+06-1.44636E+05-1.89064E+03-9.24047E-10-2.97121E-09
 -1       661 1.66024E+05 1.78513E+04 1.64914E+04 6.49256E+04 4.33465E-09 4.97948E-09
 -1       662 1.74927E+05 3.04778E+04 1.11130E+04 6.17054E+04 6.74714E-09-8.28868E-09
 -1       663 1.69261E+05 2.31439E+04 3.88715E+03 6.39884E+04 3.27111E-09-1.11588E-08
 -1       664 1.71178E+05 2.42855E+04 2.32453E+03 6.28478E+04-1.56419E-09 2.26524E-09
 -1       665 1.69749E+05 2.38697E+04 9.16993E+02 6.38488E+04-2.83558E-09 1.00286E-09
 -1       666 1.70603E+05 2.34532E+04 5.35569E+02 6.30284E+04-4.28236E-09-7.86621E-09
 -1       667 1.69832E+05 2.39544E+04 2.83311E+02 6.38158E+04-1.17979E-09 1.25408E-09
 -1       668 1.70512E+05 2.33893E+04 2.85998E+02 6.30763E+04 3.27324E-09-9.33625E-09
 -1       669 1.69839E+05 2.39317E+04 3.85006E+02 6.38014E+04 5.63148E-10-2.18128E-09
 -1       670 1.70607E+05 2.35959E+04 8.36311E+02 6.30779E+04 2.22013E-09-1.69010E-08
 -1       671 1.69738E+05 2.37519E+04 1.48424E+03 6.38124E+04-2.99636E-11-1.57889E-08
 -1       672 1.71472E+05 2.50399E+04 3.79685E+03 6.28688E+04-4.15980E-10-2.34650E-09
 -1       673 1.68979E+05 2.25241E+04 6.36270E+03 6.39966E+04-3.00940E-09-3.45085E-09
 -1       674 1.77529E+05 3.52605E+04 1.81959E+04 6.10879E+04-1.57479E-09-6.99583E-09
 -1       675 1.63719E+05 1.38173E+04 2.70088E+04 6.54857E+04 2.42471E-09-1.23327E-09
 -1       676 2.11652E+01-2.56321E+05-9.83270E+02-2.50912E+00 1.19769E-10-3.89247E-09
 -1       677-2.61142E+02-2.56559E+05-1.79952E+03 5.01505E+00 8.42590E-10 8.98795E-10
 -1       678 1.74312E+02-2.56152E+05-3.18109E+03-2.50423E+00-8.18545E-10 3.03668E-09
 -1       679-3.18203E+03-2.58479E+05-7.55680E+03 4.99630E+00-2.09684E-09-1.75760E-08
 -1       680 1.89904E+03-2.54402E+05-1.21790E+04-2.46212E+00-6.00267E-10-3.50031E-10
 -1       771-2.71140E+06-5.61122E+05-8.80470E+04-1.21425E+06-1.62399E-08-1.08266E-08
 -1       772-2.66771E+06-6.18455E+05-4.60927E+04-1.27968E+06-9.60426E-09 1.09576E-08
 -1       773-2.72721E+06-5.48630E+05-2.20433E+04-1.22002E+06-9.93896E-09 3.57250E-09
 -1       774-2.65896E+06-6.09208E+05-1.01496E+04-1.29118E+06 8.73115E-09-1.35333E-09
 -1       775-2.73401E+06-5.43814E+05-6.63609E+03-1.22205E+06-4.07454E-09 8.65839E-10
 -1       776-2.66244E+06-6.08683E+05-2.64381E+03-1.29912E+06-5.90808E-09 2.58660E-09
 -1       777-2.73962E+06-5.39697E+05-2.60162E+03-1.22381E+06 4.93310E-09 6.18456E-10
 -1       778-2.66636E+06-6.08310E+05-7.97206E+02-1.30586E+06 3.87081E-09-1.93540E-09
 -1       779-2.74433E+06-5.36171E+05-1.20755E+03-1.22533E+06-5.44242E-09-1.14105E-08
 -1       780-2.66983E+06-6.07919E+05-2.32546E+02-1.31133E+06 1.57524E-09-2.28283E-09
 -1       781-2.74800E+06-5.33365E+05-4.78741E+02-1.22651E+06-1.35624E-08-2.53203E-09
 -1       782-2.67249E+06-6.07551E+05 8.43490E+01-1.31534E+06-2.21480E-08-4.57931E-09
 -1       783-2.75056E+06-5.31450E+05 1.08477E+02-1.22735E+06-4.94765E-09-9.87575E-09
 -1       784-2.67399E+06-6.07104E+05 6.87920E+02-1.31780E+06-1.00845E-08 3.83079E-09
 -1       785-2.75198E+06-5.30379E+05 1.18574E+03-1.22787E+06-2.27537E-08 3.84080E-09
 -1       786 1.26403E+05-9.06394E+03 2.09690E+04-1.34615E+02 5.78481E-10 1.31695E-09
 -1       787 1.35495E+05 1.04932E+04 1.48350E+04 2.16996E+01 2.80717E-09-1.39312E-09
 -1       788 1.29909E+05-1.42077E+03 5.42581E+03-1.08050E+02 5.97037E-10 1.79773E-08
 -1       789 1.31410E+05 1.64377E+03 3.40712E+03-2.11174E+01-5.90260E-10 2.55983E-09
 -1       790 1.30488E+05-2.21686E+02 1.38168E+03-9.18030E+01-1.02118E-09 4.28332E-09
 -1       791 1.30734E+05 2.56284E+02 8.02332E+02-4.93520E+01-2.46095E-09 4.02756E-09
 -1       792 1.30585E+05-3.43225E+01 3.48583E+02-7.98160E+01-9.21013E-10 9.54209E-09
 -1       793 1.30619E+05 3.97456E+01 1.92633E+02-7.19757E+01-5.41009E-10-6.73840E-09
 -1       794 1.30602E+05-5.28503E+00 8.79440E+01-6.91790E+01 4.81195E-10-3.23073E-09
 -1       795 1.30600E+05 6.56068E+00 4.81038E+01-9.41953E+01-2.10005E-09 8.40129E-09
 -1       796 1.30605E+05-1.15402E+00 2.42064E+01-5.75960E+01 5.09606E-10 8.10806E-09
 -1       797 1.30597E+05 3.89245E+00 1.75031E+01-1.20761E+02 8.71381E-10 7.69168E-09
 -1       798 1.30605E+05-2.62028E+00 1.48823E+01-4.26130E+01 4.84242E-10-6.80281E-09
 -1       799 1.30605E+05 1.88904E+01 2.91558E+01-1.57336E+02 1.84205E-09-1.49293E-09
 -1       800 1.30598E+05-1.61503E+01 3.79448E+01-2.10200E+01 2.08583E-10 3.84801E-09
 -1       801 7.52959E+04-4.36561E+06-4.64309E+05 2.24848E+05 3.65108E-08-2.16514E-08
 -1       802-5.15477E+04-2.54199E+06 4.41570E+04-2.12281E+05 1.00001E-07-1.02182E-08
 -1       803-2.59799E+04-4.44072E+06-2.32942E+05 2.22559E+05 4.46344E-08 2.88765E-08
 -1       804-2.46222E+04-3.13962E+06 5.37394E+04 1.73726E+05-7.49424E-09-5.33532E-10
 -1       805 3.90400E+04-3.77330E+06-5.64221E+04-1.60929E+05-3.55612E-09-1.95982E-09
 -1       806-2.53796E+05-4.79310E+04-1.84871E+04-9.91665E+04 1.03591E-09 6.78983E-09
 -1       807-2.55449E+05-4.47142E+04-9.08247E+03-1.03416E+05 2.57637E-09-7.57175E-09
 -1       808-2.54288E+05-4.12841E+04-3.85318E+03-1.02335E+05-3.89491E-09 1.27284E-09
 -1       809-2.53548E+05-4.21546E+04-1.88414E+03-1.03632E+05-1.69598E-09 1.87632E-08
 -1       810-2.54365E+05-4.10524E+04-8.63484E+02-1.02476E+05 1.14960E-09-4.74961E-09
 -1       811-2.53402E+05-4.20508E+04-4.29317E+02-1.03603E+05 1.64709E-09-1.98634E-09
 -1       812-2.54378E+05-4.10715E+04-2.16786E+02-1.02477E+05 2.08183E-09 2.82557E-09
 -1       813-2.53384E+05-4.20519E+04-1.40464E+02-1.03590E+05 3.50747E-09 3.25474E-09
 -1       814-2.54374E+05-4.10781E+04-1.38315E+02-1.02474E+05-1.24146E-09-1.55692E-08
 -1       815-2.53388E+05-4.20531E+04-2.22427E+02-1.03586E+05-2.15914E-09-5.88943E-09
 -1       816-2.54360E+05-4.10760E+04-4.20914E+02-1.02472E+05 3.87172E-09 1.10185E-09
 -1       817-2.53462E+05-4.20928E+04-9.03734E+02-1.03579E+05-3.04908E-09 1.01318E-09
 -1       818-2.54309E+05-4.12015E+04-1.84289E+03-1.02413E+05 3.40788E-09-1.03587E-08
 -1       819-2.54471E+05-4.32085E+04-4.33709E+03-1.03347E+05 2.12231E-09 5.75073E-09
 -1       820-2.53970E+05-4.44705E+04-8.82706E+03-1.01007E+05 4.41287E-09 1.23541E-08
 -1       821-3.09277E+05 1.70992E+04-3.95470E+04 4.52363E+02 4.11061E-07-1.68202E-08
 -1       822-3.26404E+05-1.97951E+04-2.79836E+04-1.12506E+03 8.26885E-07 9.08904E-09
 -1       823-3.15883E+05 2.68131E+03-1.02421E+04 4.95862E+02 4.09947E-07 2.52658E-09
 -1       824-3.18683E+05-3.10253E+03-6.44226E+03-9.56408E+02 1.46451E-09-2.58467E-09
 -1       825-3.16995E+05 4.19131E+02-2.65237E+03 2.83714E+02 1.07829E-09-5.35681E-09
 -1       826-3.17378E+05-4.93521E+02-1.59169E+03-3.74766E+02-3.01522E-10-5.32896E-09
 -1       827-3.17187E+05 7.34145E+01-8.35783E+02-8.57898E+01-1.00075E-09-8.56019E-09
 -1       828-3.17205E+05-1.50780E+02-7.28381E+02 3.51829E+02-3.72123E-09-7.81771E-10
 -1       829-3.17168E+05 7.66945E+01-8.52792E+02-4.42893E+02 1.65848E-10 5.39350E-09
 -1       830-3.17431E+05-5.14529E+02-1.65967E+03 8.88935E+02 1.61052E-09-7.49580E-09
 -1       831-3.16962E+05 4.37714E+02-2.75456E+03-6.22906E+02-2.98987E-09-1.51231E-08
 -1       832-3.18764E+05-3.23171E+03-6.71265E+03 9.89204E+02-1.99861E-09-6.87169E-09
 -1       833-3.15837E+05 2.79214E+03-1.06705E+04-5.43164E+02-1.78223E-09-3.92629E-09
 -1       834-3.26754E+05-2.06184E+04-2.91438E+04 6.03359E+02-1.04663E-09-9.51013E-09
 -1       835-3.08973E+05 1.78104E+04-4.12030E+04-2.37048E+02 5.08809E-09 2.92312E-09
 -1       836-1.06173E+03 2.92603E+05 1.77979E+04-1.62538E+04-9.76797E-10 8.18227E-09
 -1       837 3.86699E+03 2.98144E+05 1.52255E+04-3.27299E+04-8.11042E-10-2.03499E-10
 -1       838-4.10672E+02 2.94135E+05 1.57449E+04-1.61889E+04-5.62522E-10 1.25488E-09
 -1       839 1.00732E+04 3.02770E+05 3.00128E+04-3.27699E+04-4.68390E-11 1.24322E-09
 -1       840-3.06360E+03 2.87934E+05 4.79587E+04-1.62135E+04-4.67480E-10 9.14764E-09
 -1       856-7.25143E+04 7.62708E+03-2.00996E+04-4.20317E+02-1.54421E-09 1.45246E-09
 -1       857-8.08109E+04-8.94938E+03-1.38375E+04 4.86575E+03 1.72804E-10 8.72933E-09
 -1       858-7.57941E+04 1.06889E+03-5.21601E+03-4.42373E+02-1.26016E-09-8.23798E-09
 -1       859-7.70454E+04-1.24606E+03-3.14921E+03 4.90027E+03 1.82926E-09 1.64852E-09
 -1       860-7.62844E+04 1.48898E+02-1.32241E+03-4.54872E+02-7.59030E-10 1.00094E-08
 -1       861-7.64811E+04-1.67155E+02-7.32932E+02 4.91738E+03-3.30571E-09 7.59229E-10
 -1       862-7.63608E+04 1.97339E+01-3.15590E+02-4.59502E+02 3.52571E-09-4.96358E-09
 -1       863-7.63893E+04-1.26168E+01-1.39753E+02 4.91966E+03 5.03093E-09 9.34443E-09
 -1       864-7.63764E+04-2.20277E+00-1.09382E+01-4.57154E+02 3.28308E-09-2.25779E-09
 -1       865-7.63518E+04 3.98779E+01 1.18397E+02 4.90742E+03 1.89003E-09-6.06878E-10
 -1       866-7.63965E+04-3.30786E+01 2.67225E+02-4.47260E+02-9.16543E-10-7.52438E-09
 -1       867-7.62183E+04 2.75429E+02 6.76234E+02 4.88050E+03 6.94740E-10-1.07794E-08
 -1       868-7.65061E+04-2.34375E+02 1.12803E+03-4.30236E+02 1.59145E-09 2.53823E-09
 -1       869-7.53855E+04 1.94943E+03 3.01053E+03 4.83575E+03-6.52904E-10-1.79732E-08
 -1       870-7.72233E+04-1.66289E+03 4.36785E+03-4.02507E+02-1.24658E-09 7.64089E-09
 -1       871-4.66807E+03-1.20573E+04-1.54923E+04 1.03060E+05 2.31012E-10-1.05592E-09
 -1       872-1.93592E+03-1.55673E+04-6.37819E+03 1.33618E+05-7.31234E-10 4.88217E-09
 -1       873 5.36916E+01-1.39153E+04 7.42017E+02 1.02834E+05-2.74213E-10-1.09821E-08
 -1       874 2.42594E+03-1.17768E+04 8.41260E+03 1.33657E+05-2.01226E-10-1.91937E-08
 -1       875 5.53012E+03-1.59133E+04 1.87652E+04 1.03023E+05-7.07587E-10-9.50877E-09
 -1       876 2.45309E+05 4.18738E+04 1.28497E+04 9.90683E+04-6.02256E-10-3.00224E-09
 -1       877 2.46102E+05 4.46365E+04 6.86212E+03 1.02807E+05-2.40175E-09-6.67831E-09
 -1       878 2.46509E+05 4.04519E+04 2.87491E+03 1.00123E+05-4.47017E-10 1.21777E-08
 -1       879 2.44354E+05 4.28944E+04 1.43230E+03 1.02895E+05 2.06683E-09 5.05946E-09
 -1       880 2.46596E+05 4.04366E+04 6.67015E+02 1.00167E+05 1.61003E-09-1.27557E-10
 -1       881 2.44238E+05 4.28202E+04 3.55783E+02 1.02876E+05 4.79508E-09 1.17531E-08
 -1       882 2.46604E+05 4.04475E+04 2.26919E+02 1.00168E+05 9.13315E-09 1.23064E-09
 -1       883 2.44230E+05 4.28165E+04 2.42818E+02 1.02871E+05 7.50845E-10-1.23491E-08
 -1       884 2.46599E+05 4.04449E+04 3.85246E+02 1.00168E+05 7.18842E-10 7.21667E-09
 -1       885 2.44261E+05 4.28219E+04 7.73926E+02 1.02880E+05-1.04328E-09 1.60412E-09
 -1       886 2.46569E+05 4.04223E+04 1.55952E+03 1.00165E+05 2.75929E-09 1.03946E-08
 -1       887 2.44535E+05 4.30017E+04 3.40647E+03 1.02920E+05 2.52319E-09-6.93944E-09
 -1       888 2.46354E+05 4.04601E+04 6.86413E+03 1.00056E+05 8.71438E-10-6.57110E-10
 -1       889 2.48623E+05 4.72497E+04 1.63975E+04 1.02792E+05 1.70016E-09-1.13596E-09
 -1       890 2.43557E+05 4.37831E+04 3.07117E+04 9.74380E+04 6.50743E-10-6.52471E-09
 -1       891-1.30241E+02-1.37854E+05-1.65839E+03 2.48342E+04 2.66255E-10 4.84874E-09
 -1       892-2.31411E+02-1.38263E+05-1.79212E+03 3.76136E+04 8.41055E-10 2.89219E-09
 -1       893-2.01420E+01-1.37907E+05-2.54881E+03 2.48397E+04 1.52477E-09 1.74568E-08
 -1       894-1.35619E+03-1.39232E+05-5.28333E+03 3.74780E+04 5.50244E-10 1.73022E-08
 -1       895-1.06550E+03-1.36806E+05-9.30717E+03 2.49688E+04-5.43992E-11 2.98041E-09
 -1       956-3.11417E+05-4.38427E+03-1.09901E+04 2.17984E+04-6.91216E-10-1.27430E-08
 -1       957-3.13584E+05-1.49338E+03-5.64166E+03 2.62450E+04-1.33514E-09-2.71211E-09
 -1       958-3.12396E+05-1.33878E+02-2.54186E+03 2.16685E+04 1.14869E-09-2.70506E-09
 -1       959-3.12566E+05-3.88615E+01-1.29829E+03 2.63887E+04 2.07592E-09 1.26875E-10
 -1       960-3.12486E+05 2.18162E+01-6.33038E+02 2.16558E+04-2.15596E-09 2.96859E-09
 -1       961-3.12494E+05 1.71642E+01-3.36008E+02 2.64033E+04-2.57114E-09-5.45492E-09
 -1       962-3.12504E+05 1.82486E+01-1.92686E+02 2.16538E+04-3.67982E-09 9.67475E-10
 -1       963-3.12491E+05 1.89848E+01-1.55318E+02 2.64059E+04-4.39820E-09 1.33195E-09
 -1       964-3.12508E+05 2.04775E+01-1.89419E+02 2.16532E+04-8.98751E-10-2.57887E-09
 -1       965-3.12502E+05 2.19064E+01-3.28059E+02 2.64056E+04 2.14513E-09-1.36604E-08
 -1       966-3.12497E+05 2.84484E+01-6.16365E+02 2.16541E+04-2.00657E-09-8.43670E-09
 -1       967-3.12581E+05-2.80217E+01-1.26437E+03 2.63961E+04-9.37098E-09 7.15579E-09
 -1       968-3.12416E+05-1.18795E+02-2.47468E+03 2.16627E+04-9.18635E-09 4.12524E-09
 -1       969-3.13581E+05-1.44061E+03-5.49435E+03 2.62955E+04-6.86305E-09-9.67114E-09
 -1       970-3.11469E+05-4.25545E+03-1.07023E+04 2.17549E+04-4.90490E-09-3.48155E-09
 -1       971-2.90873E+05-1.50072E+03-8.27228E+03 1.36286E+04-6.06633E-10-6.40961E-09
 -1       972-2.92879E+05-1.08330E+03-4.50500E+03 1.89899E+04-2.50975E-09-2.29284E-09
 -1       973-2.91794E+05-2.16910E+01-2.01748E+03 1.35161E+04-1.65392E-09-6.99720E-09
 -1       974-2.91929E+05-2.56672E+01-1.04536E+03 1.91130E+04 1.76010E-09-2.90356E-10
 -1       975-2.91866E+05 1.75678E+01-5.21899E+02 1.35055E+04 9.48603E-10 7.20524E-09
 -1       976-2.91873E+05 1.81203E+01-2.99931E+02 1.91262E+04-2.17119E-09 4.78849E-09
 -1       977-2.91880E+05 1.77461E+01-2.15611E+02 1.35028E+04 2.35764E-09 7.79426E-09
 -1       978-2.91877E+05 2.32660E+01-2.49477E+02 1.91299E+04 4.30634E-09-2.16326E-08
 -1       979-2.91880E+05 2.47018E+01-3.98397E+02 1.35017E+04 4.08409E-09-1.54873E-08
 -1       980-2.91907E+05 2.57959E+01-7.67729E+02 1.91306E+04-6.94797E-10-1.45443E-08
 -1       981-2.91856E+05 4.38473E+01-1.48611E+03 1.35022E+04-5.93332E-10-9.79071E-10
 -1       982-2.92110E+05-8.39570E+01-3.07132E+03 1.91248E+04-1.41506E-09 8.98901E-09
 -1       983-2.91669E+05-5.12383E+01-5.96736E+03 1.35077E+04-5.77529E-11-2.20484E-09
 -1       984-2.94980E+05-3.20039E+03-1.33632E+04 1.90479E+04-1.33173E-09-1.27955E-09
 -1       985-2.88967E+05-4.41778E+03-2.45392E+04 1.35814E+04 3.68254E-09-1.20926E-08
 -3
    1PSTEP                        21          11           1          
  100CL  111 5.83008E-01         409                     0   11           1
 -4  DISP        4    1
 -5  D1          1    2    1    0
 -5  D2          1    2    2    0
 -5  D3          1    2    3    0
 -5  ALL         1    2    0    0    1ALL
 -1         1 7.18237E-04 0.00000E+00 0.00000E+00
 -1         2 6.68788E-04-4.57462E-29 1.32349E-23
 -1         3 2.33241E-04-3.36383E-27 0.00000E+00
 -1         5 1.35116E-04-9.64242E-27 3.30872E-24
 -1         8 6.96491E-04-7.03182E-07 0.00000E+00
 -1         9 6.74242E-04-2.22819E-06 0.00000E+00
 -1        10 2.11694E-04-3.06979E-06 0.00000E+00
 -1        12 1.35480E-04 6.56249E-07 0.00000E+00
 -1        15 6.70379E-04-7.77879E-07-2.06795E-25
 -1        16 6.76782E-04-2.76444E-06 0.00000E+00
 -1        17 1.47397E-04-6.53998E-06 0.00000E+00
 -1        18 1.35254E-04 1.37035E-05 0.00000E+00
 -1        19 1.36575E-04 1.30908E-06 0.00000E+00
 -1        20 1.36722E-04 6.29492E-06 0.00000E+00
 -1        21 1.36032E-04 9.04895E-06 0.00000E+00
 -1        24 2.54480E-05-9.22329E-06 0.00000E+00
 -1        25 1.38602E-04 1.38664E-05 0.00000E+00
 -1        26 1.39313E-04 1.81371E-06 0.00000E+00
 -1        27 1.37514E-04 3.32555E-06 0.00000E+00
 -1        28 1.37105E-04 8.50648E-06 0.00000E+00
 -1        32 0.00000E+00 0.00000E+00 0.00000E+00
 -1        33 1.40967E-04 2.43046E-06 0.00000E+00
 -1        34 1.39187E-04 3.29306E-06 0.00000E+00
 -1        35 1.37532E-04 8.21472E-06 0.00000E+00
 -1        51 7.16834E-04-1.22466E-07 0.00000E+00
 -1        52 7.14223E-04-2.35033E-07 0.00000E+00
 -1        53 7.10639E-04-3.47337E-07 0.00000E+00
 -1        54 7.06327E-04-4.61272E-07-3.30872E-24
 -1        55 7.01529E-04-5.78043E-07-4.96308E-24
 -1        56 7.15775E-04-6.45027E-07-5.29396E-23
 -1        57 7.13042E-04-8.34225E-07-2.64698E-23
 -1        58 7.10144E-04-5.71309E-07-5.29396E-23
 -1        59 7.07086E-04 7.15839E-08 0.00000E+00
 -1        60 7.03924E-04 9.91148E-07 5.29396E-23
 -1        61 7.00701E-04 2.06190E-06-2.64698E-23
 -1        62 6.97474E-04 3.14205E-06 0.00000E+00
 -1        63 6.94298E-04 4.08834E-06 2.64698E-23
 -1        64 6.91220E-04 4.77336E-06-5.29396E-23
 -1        65 6.88283E-04 5.08461E-06-2.64698E-23
 -1        66 6.85512E-04 4.95274E-06 0.00000E+00
 -1        67 6.82928E-04 4.33448E-06 0.00000E+00
 -1        68 6.80521E-04 3.24163E-06 0.00000E+00
 -1        69 6.78291E-04 1.71855E-06 0.00000E+00
 -1        70 6.76185E-04-1.51234E-07-5.29396E-23
 -1        86 6.68988E-04-3.67682E-07 0.00000E+00
 -1        87 6.69587E-04-7.35875E-07 6.61744E-24
 -1        88 6.70510E-04-1.10436E-06 0.00000E+00
 -1        89 6.71676E-04-1.47535E-06 0.00000E+00
 -1        90 6.72962E-04-1.84572E-06 0.00000E+00
 -1       121 2.32636E-04-5.03571E-07 1.32349E-23
 -1       122 2.30823E-04-1.00854E-06 0.00000E+00
 -1       123 2.27810E-04-1.51630E-06-1.32349E-23
 -1       124 2.23606E-04-2.02823E-06 0.00000E+00
 -1       125 2.18227E-04-2.54552E-06 0.00000E+00
 -1       191 1.35126E-04 1.09381E-07-3.30872E-24
 -1       192 1.35156E-04 2.18760E-07-1.65436E-24
 -1       193 1.35207E-04 3.28139E-07 0.00000E+00
 -1       194 1.35278E-04 4.37515E-07 0.00000E+00
 -1       195 1.35369E-04 5.46886E-07 3.30872E-24
 -1       251 6.95819E-04 1.41230E-05-1.32349E-23
 -1       252 6.94640E-04 4.95925E-05-6.61744E-24
 -1       253 6.92892E-04 9.93747E-05 1.32349E-23
 -1       254 6.90747E-04 1.56809E-04-6.61744E-24
 -1       255 6.88659E-04 2.13170E-04-1.32349E-23
 -1       256 6.87055E-04 2.59754E-04 6.61744E-24
 -1       257 6.86021E-04 2.90496E-04-1.32349E-23
 -1       258 6.85402E-04 2.99695E-04 0.00000E+00
 -1       259 6.84750E-04 2.87323E-04 1.32349E-23
 -1       260 6.83633E-04 2.53865E-04 6.61744E-24
 -1       261 6.81943E-04 2.05367E-04 0.00000E+00
 -1       262 6.79812E-04 1.48220E-04 0.00000E+00
 -1       263 6.77685E-04 9.11482E-05 1.32349E-23
 -1       264 6.76003E-04 4.28779E-05 0.00000E+00
 -1       265 6.74897E-04 9.75224E-06 1.32349E-23
 -1       266 6.92139E-04-7.25695E-07-3.30872E-24
 -1       267 6.87787E-04-7.36918E-07 0.00000E+00
 -1       268 6.83435E-04-7.48856E-07-8.27181E-25
 -1       269 6.79083E-04-7.58676E-07 0.00000E+00
 -1       270 6.74731E-04-7.68446E-07 0.00000E+00
 -1       271 6.93864E-04 2.98035E-06 0.00000E+00
 -1       272 6.91403E-04 6.11888E-06 0.00000E+00
 -1       273 6.89152E-04 8.70595E-06-2.64698E-23
 -1       274 6.87108E-04 1.07266E-05 1.32349E-23
 -1       275 6.85279E-04 1.21786E-05-2.64698E-23
 -1       276 6.83662E-04 1.30658E-05 0.00000E+00
 -1       277 6.82252E-04 1.34007E-05 0.00000E+00
 -1       278 6.81042E-04 1.32036E-05 1.32349E-23
 -1       279 6.80020E-04 1.25026E-05 0.00000E+00
 -1       280 6.79174E-04 1.13330E-05 0.00000E+00
 -1       281 6.78488E-04 9.73691E-06 2.64698E-23
 -1       282 6.77944E-04 7.76264E-06 0.00000E+00
 -1       283 6.77521E-04 5.46400E-06 0.00000E+00
 -1       284 6.77200E-04 2.90058E-06 0.00000E+00
 -1       285 6.76955E-04 1.33234E-07-2.64698E-23
 -1       301 6.74736E-04-2.33555E-06 6.61744E-24
 -1       302 6.74726E-04-2.41705E-06 0.00000E+00
 -1       303 6.74570E-04-2.49681E-06 0.00000E+00
 -1       304 6.74622E-04-2.57644E-06 0.00000E+00
 -1       305 6.75242E-04-2.65801E-06 1.32349E-23
 -1       306 6.92514E-04-6.69978E-05-5.29396E-23
 -1       307 7.40769E-04-2.53021E-04-2.64698E-23
 -1       308 8.02966E-04-5.29820E-04 0.00000E+00
 -1       309 8.69264E-04-8.57243E-04 2.64698E-23
 -1       310 9.35324E-04-1.18136E-03-1.05879E-22
 -1       311 9.96430E-04-1.44854E-03-2.64698E-23
 -1       312 1.04187E-03-1.62051E-03-1.05879E-22
 -1       313 1.05502E-03-1.66927E-03 0.00000E+00
 -1       314 1.01979E-03-1.59448E-03-1.05879E-22
 -1       315 9.25270E-04-1.40841E-03-2.64698E-23
 -1       316 7.79137E-04-1.14373E-03 0.00000E+00
 -1       317 6.00284E-04-8.36438E-04 2.64698E-23
 -1       318 4.21600E-04-5.29358E-04 0.00000E+00
 -1       319 2.75943E-04-2.65314E-04-2.64698E-23
 -1       320 1.82038E-04-8.01830E-05 0.00000E+00
 -1       336 2.03958E-04-3.62215E-06-1.32349E-23
 -1       337 1.94977E-04-4.18468E-06 0.00000E+00
 -1       338 1.84786E-04-4.75810E-06 0.00000E+00
 -1       339 1.73427E-04-5.34221E-06-6.61744E-24
 -1       340 1.60947E-04-5.93924E-06 0.00000E+00
 -1       406 1.35612E-04 7.65597E-07-3.30872E-24
 -1       407 1.35764E-04 8.74908E-07 1.65436E-24
 -1       408 1.35937E-04 9.84150E-07 3.30872E-24
 -1       409 1.36129E-04 1.09319E-06-8.27181E-25
 -1       410 1.36342E-04 1.20183E-06 0.00000E+00
 -1       521 6.96743E-04-7.61466E-05-1.05879E-22
 -1       522 7.47947E-04-2.83602E-04 0.00000E+00
 -1       523 8.12309E-04-5.91808E-04 1.05879E-22
 -1       524 8.79496E-04-9.55412E-04 0.00000E+00
 -1       525 9.46508E-04-1.31483E-03 1.05879E-22
 -1       526 1.00981E-03-1.61090E-03 0.00000E+00
 -1       527 1.05777E-03-1.80057E-03 0.00000E+00
 -1       528 1.07136E-03-1.85373E-03 5.29396E-23
 -1       529 1.03073E-03-1.76954E-03 1.05879E-22
 -1       530 9.22653E-04-1.56340E-03 0.00000E+00
 -1       531 7.54867E-04-1.27115E-03 0.00000E+00
 -1       532 5.49151E-04-9.32805E-04 0.00000E+00
 -1       533 3.43296E-04-5.94294E-04 0.00000E+00
 -1       534 1.75135E-04-3.01541E-04 0.00000E+00
 -1       535 6.65602E-05-9.45185E-05-1.05879E-22
 -1       536 1.47015E-04 1.53585E-05-6.61744E-24
 -1       537 1.46197E-04 5.28415E-05 0.00000E+00
 -1       538 1.44990E-04 1.00095E-04-3.30872E-24
 -1       539 1.43600E-04 1.51253E-04 0.00000E+00
 -1       540 1.42352E-04 1.99341E-04 0.00000E+00
 -1       541 1.41521E-04 2.37400E-04 0.00000E+00
 -1       542 1.41101E-04 2.61231E-04 3.30872E-24
 -1       543 1.40940E-04 2.66722E-04-1.65436E-24
 -1       544 1.40724E-04 2.54492E-04-3.30872E-24
 -1       545 1.40170E-04 2.25276E-04-1.65436E-24
 -1       546 1.39228E-04 1.84249E-04 0.00000E+00
 -1       547 1.38007E-04 1.36657E-04 0.00000E+00
 -1       548 1.36808E-04 8.95805E-05 0.00000E+00
 -1       549 1.35927E-04 5.00969E-05 0.00000E+00
 -1       550 1.35435E-04 2.31743E-05-1.65436E-24
 -1       551 1.30752E-04-6.92024E-06 0.00000E+00
 -1       552 1.11536E-04-7.33902E-06 3.30872E-24
 -1       553 9.05661E-05-7.78952E-06 8.27181E-25
 -1       554 6.86747E-05-8.26037E-06 0.00000E+00
 -1       555 4.66931E-05-8.73569E-06 0.00000E+00
 -1       556 1.42612E-04 5.78763E-06 0.00000E+00
 -1       557 1.38818E-04 1.55904E-05 0.00000E+00
 -1       558 1.35917E-04 2.30782E-05 0.00000E+00
 -1       559 1.33817E-04 2.84784E-05 0.00000E+00
 -1       560 1.32425E-04 3.20181E-05 0.00000E+00
 -1       561 1.31650E-04 3.39259E-05 0.00000E+00
 -1       562 1.31405E-04 3.44312E-05 0.00000E+00
 -1       563 1.31600E-04 3.37637E-05 0.00000E+00
 -1       564 1.32148E-04 3.21537E-05 0.00000E+00
 -1       565 1.32961E-04 2.98316E-05 0.00000E+00
 -1       566 1.33955E-04 2.70281E-05 0.00000E+00
 -1       567 1.35041E-04 2.39742E-05 0.00000E+00
 -1       568 1.36135E-04 2.09007E-05 8.27181E-25
 -1       569 1.37150E-04 1.80384E-05 0.00000E+00
 -1       570 1.38000E-04 1.56181E-05 0.00000E+00
 -1       571 1.35334E-04 1.29060E-05 0.00000E+00
 -1       572 1.35416E-04 1.20591E-05 4.13590E-25
 -1       573 1.35498E-04 1.11738E-05-1.65436E-24
 -1       574 1.35581E-04 1.02611E-05 8.27181E-25
 -1       575 1.35664E-04 9.33239E-06-1.65436E-24
 -1       576 1.35746E-04 8.39905E-06 0.00000E+00
 -1       577 1.35829E-04 7.47243E-06 0.00000E+00
 -1       578 1.35912E-04 6.56391E-06 0.00000E+00
 -1       579 1.35995E-04 5.68486E-06 0.00000E+00
 -1       580 1.36078E-04 4.84665E-06 0.00000E+00
 -1       581 1.36161E-04 4.06067E-06-6.61744E-24
 -1       582 1.36244E-04 3.33827E-06 0.00000E+00
 -1       583 1.36327E-04 2.69081E-06 6.61744E-24
 -1       584 1.36410E-04 2.12952E-06-3.30872E-24
 -1       585 1.36493E-04 1.66554E-06 0.00000E+00
 -1       586 1.35758E-04 1.37324E-05 0.00000E+00
 -1       587 1.36236E-04 1.37607E-05-3.10193E-25
 -1       588 1.36722E-04 1.37887E-05 0.00000E+00
 -1       589 1.37255E-04 1.38162E-05 0.00000E+00
 -1       590 1.37869E-04 1.38428E-05 0.00000E+00
 -1       591 1.35509E-04 1.29648E-05 1.03398E-25
 -1       592 1.35770E-04 1.22010E-05 0.00000E+00
 -1       593 1.36039E-04 1.14182E-05 4.13590E-25
 -1       594 1.36312E-04 1.06213E-05 0.00000E+00
 -1       595 1.36589E-04 9.81542E-06 0.00000E+00
 -1       596 1.36867E-04 9.00570E-06-4.13590E-25
 -1       597 1.37144E-04 8.19721E-06 0.00000E+00
 -1       598 1.37419E-04 7.39502E-06 2.06795E-25
 -1       599 1.37690E-04 6.60419E-06 4.13590E-25
 -1       600 1.37955E-04 5.82979E-06 2.06795E-25
 -1       601 1.38211E-04 5.07690E-06 4.13590E-25
 -1       602 1.38458E-04 4.35058E-06-2.06795E-25
 -1       603 1.38693E-04 3.65592E-06 0.00000E+00
 -1       604 1.38915E-04 2.99805E-06 1.03398E-25
 -1       605 1.39121E-04 2.38200E-06 0.00000E+00
 -1       606 1.36588E-04 1.13692E-06 0.00000E+00
 -1       607 1.36599E-04 1.05770E-06 1.65436E-24
 -1       608 1.36608E-04 1.06595E-06 0.00000E+00
 -1       609 1.36617E-04 1.15553E-06 0.00000E+00
 -1       610 1.36626E-04 1.32024E-06-3.30872E-24
 -1       611 1.36635E-04 1.55381E-06 0.00000E+00
 -1       612 1.36644E-04 1.84998E-06 0.00000E+00
 -1       613 1.36653E-04 2.20244E-06 0.00000E+00
 -1       614 1.36662E-04 2.60493E-06 0.00000E+00
 -1       615 1.36671E-04 3.05114E-06 0.00000E+00
 -1       616 1.36679E-04 3.53481E-06 1.65436E-24
 -1       617 1.36688E-04 4.04965E-06 0.00000E+00
 -1       618 1.36697E-04 4.58935E-06 0.00000E+00
 -1       619 1.36706E-04 5.14766E-06 0.00000E+00
 -1       620 1.36714E-04 5.71828E-06 0.00000E+00
 -1       621 1.36884E-04 1.39342E-06 0.00000E+00
 -1       622 1.37273E-04 1.47802E-06 0.00000E+00
 -1       623 1.37728E-04 1.56258E-06 0.00000E+00
 -1       624 1.38230E-04 1.64696E-06-8.27181E-25
 -1       625 1.38764E-04 1.73118E-06 0.00000E+00
 -1       626 1.36734E-04 1.16644E-06 0.00000E+00
 -1       627 1.36866E-04 1.09753E-06 1.65436E-24
 -1       628 1.36973E-04 1.09460E-06 0.00000E+00
 -1       629 1.37059E-04 1.14946E-06 0.00000E+00
 -1       630 1.37126E-04 1.25394E-06-3.30872E-24
 -1       631 1.37177E-04 1.39982E-06 0.00000E+00
 -1       632 1.37217E-04 1.57885E-06-6.61744E-24
 -1       633 1.37246E-04 1.78284E-06 0.00000E+00
 -1       634 1.37270E-04 2.00354E-06 0.00000E+00
 -1       635 1.37290E-04 2.23273E-06 0.00000E+00
 -1       636 1.37311E-04 2.46220E-06 0.00000E+00
 -1       637 1.37334E-04 2.68372E-06 8.27181E-25
 -1       638 1.37363E-04 2.88905E-06 3.30872E-24
 -1       639 1.37401E-04 3.06998E-06-8.27181E-25
 -1       640 1.37451E-04 3.21826E-06 0.00000E+00
 -1       656 1.36367E-04 5.81194E-06 0.00000E+00
 -1       657 1.36402E-04 5.30956E-06 0.00000E+00
 -1       658 1.36690E-04 4.80860E-06 0.00000E+00
 -1       659 1.37084E-04 4.30802E-06 0.00000E+00
 -1       660 1.37415E-04 3.80589E-06 0.00000E+00
 -1       661 1.36592E-04 6.83671E-06 0.00000E+00
 -1       662 1.36491E-04 7.30731E-06-8.27181E-25
 -1       663 1.36416E-04 7.70995E-06 1.65436E-24
 -1       664 1.36366E-04 8.04913E-06 0.00000E+00
 -1       665 1.36337E-04 8.32870E-06 1.65436E-24
 -1       666 1.36330E-04 8.55265E-06 0.00000E+00
 -1       667 1.36342E-04 8.72471E-06 1.65436E-24
 -1       668 1.36372E-04 8.84856E-06 8.27181E-25
 -1       669 1.36419E-04 8.92774E-06 1.65436E-24
 -1       670 1.36481E-04 8.96571E-06 0.00000E+00
 -1       671 1.36558E-04 8.96578E-06-1.65436E-24
 -1       672 1.36647E-04 8.93119E-06-8.27181E-25
 -1       673 1.36749E-04 8.86513E-06 1.65436E-24
 -1       674 1.36860E-04 8.77043E-06 8.27181E-25
 -1       675 1.36980E-04 8.65049E-06 4.13590E-25
 -1       676 1.36211E-04 8.95800E-06 0.00000E+00
 -1       677 1.36390E-04 8.86710E-06 0.00000E+00
 -1       678 1.36570E-04 8.77624E-06 3.30872E-24
 -1       679 1.36748E-04 8.68565E-06-1.65436E-24
 -1       680 1.36927E-04 8.59508E-06 1.65436E-24
 -1       771 1.74663E-05 8.07377E-06 0.00000E+00
 -1       772 1.06870E-05 2.22706E-05 0.00000E+00
 -1       773 5.05328E-06 3.35250E-05 5.29396E-23
 -1       774 4.88269E-07 4.20111E-05 0.00000E+00
 -1       775-3.08399E-06 4.79087E-05 0.00000E+00
 -1       776-5.74249E-06 5.14071E-05 0.00000E+00
 -1       777-7.56663E-06 5.27006E-05 0.00000E+00
 -1       778-8.63756E-06 5.19914E-05 2.64698E-23
 -1       779-9.03654E-06 4.94861E-05 0.00000E+00
 -1       780-8.84629E-06 4.53976E-05 0.00000E+00
 -1       781-8.14940E-06 3.99423E-05 5.29396E-23
 -1       782-7.02959E-06 3.33416E-05 0.00000E+00
 -1       783-5.57038E-06 2.58191E-05 5.29396E-23
 -1       784-3.85619E-06 1.76020E-05 0.00000E+00
 -1       785-1.97106E-06 8.91894E-06 0.00000E+00
 -1       786 1.38642E-04 1.29042E-05-1.03398E-25
 -1       787 1.38686E-04 1.19881E-05 0.00000E+00
 -1       788 1.38730E-04 1.11106E-05 8.27181E-25
 -1       789 1.38775E-04 1.02639E-05 8.27181E-25
 -1       790 1.38819E-04 9.44384E-06 0.00000E+00
 -1       791 1.38864E-04 8.64585E-06-8.27181E-25
 -1       792 1.38909E-04 7.86792E-06 0.00000E+00
 -1       793 1.38954E-04 7.10799E-06 0.00000E+00
 -1       794 1.38999E-04 6.36584E-06 1.65436E-24
 -1       795 1.39043E-04 5.64132E-06 0.00000E+00
 -1       796 1.39088E-04 4.93610E-06 0.00000E+00
 -1       797 1.39133E-04 4.25183E-06 0.00000E+00
 -1       798 1.39178E-04 3.59237E-06 0.00000E+00
 -1       799 1.39223E-04 2.96163E-06 0.00000E+00
 -1       800 1.39268E-04 2.36644E-06 0.00000E+00
 -1       801 1.15722E-04 1.21368E-05 0.00000E+00
 -1       802 4.58096E-05 8.27449E-06 0.00000E+00
 -1       803-1.94576E-05 4.67174E-06 0.00000E+00
 -1       804-2.86853E-05 3.05954E-06-2.64698E-23
 -1       805-1.16618E-05 1.49595E-06-5.29396E-23
 -1       806 1.38867E-04 1.28489E-05 0.00000E+00
 -1       807 1.39118E-04 1.18581E-05-8.27181E-25
 -1       808 1.39358E-04 1.08978E-05-1.65436E-24
 -1       809 1.39585E-04 9.97085E-06 8.27181E-25
 -1       810 1.39798E-04 9.07997E-06 0.00000E+00
 -1       811 1.39997E-04 8.22788E-06 0.00000E+00
 -1       812 1.40180E-04 7.41729E-06 1.65436E-24
 -1       813 1.40347E-04 6.65088E-06 1.65436E-24
 -1       814 1.40496E-04 5.93134E-06-1.65436E-24
 -1       815 1.40626E-04 5.26132E-06 1.65436E-24
 -1       816 1.40737E-04 4.64352E-06 3.30872E-24
 -1       817 1.40827E-04 4.08057E-06 1.65436E-24
 -1       818 1.40896E-04 3.57516E-06 0.00000E+00
 -1       819 1.40943E-04 3.12992E-06 1.65436E-24
 -1       820 1.40966E-04 2.74749E-06-1.65436E-24
 -1       821 1.39207E-04 1.20518E-06 8.27181E-25
 -1       822 1.39094E-04 4.44351E-07 0.00000E+00
 -1       823 1.38982E-04-3.63403E-07-3.30872E-24
 -1       824 1.38868E-04-1.11246E-06 0.00000E+00
 -1       825 1.38755E-04-1.71086E-06 0.00000E+00
 -1       826 1.38641E-04-2.06742E-06 0.00000E+00
 -1       827 1.38527E-04-2.14693E-06 0.00000E+00
 -1       828 1.38414E-04-1.91562E-06 0.00000E+00
 -1       829 1.38300E-04-1.41165E-06-3.30872E-24
 -1       830 1.38186E-04-6.74597E-07 0.00000E+00
 -1       831 1.38072E-04 2.02022E-07 3.30872E-24
 -1       832 1.37958E-04 1.12396E-06 0.00000E+00
 -1       833 1.37845E-04 1.98646E-06 3.30872E-24
 -1       834 1.37732E-04 2.68511E-06 0.00000E+00
 -1       835 1.37620E-04 3.15327E-06 0.00000E+00
 -1       836 1.39762E-04 1.91628E-06 0.00000E+00
 -1       837 1.40101E-04 2.02122E-06 0.00000E+00
 -1       838 1.40360E-04 2.12602E-06 3.30872E-24
 -1       839 1.40570E-04 2.23017E-06 0.00000E+00
 -1       840 1.40762E-04 2.33414E-06 0.00000E+00
 -1       856 1.37492E-04 3.41343E-06 0.00000E+00
 -1       857 1.37467E-04 3.62077E-06 0.00000E+00
 -1       858 1.37442E-04 3.92889E-06 0.00000E+00
 -1       859 1.37416E-04 4.31901E-06-4.13590E-25
 -1       860 1.37391E-04 4.77227E-06-8.27181E-25
 -1       861 1.37365E-04 5.26974E-06-4.13590E-25
 -1       862 1.37339E-04 5.79247E-06-8.27181E-25
 -1       863 1.37313E-04 6.32145E-06 4.13590E-25
 -1       864 1.37287E-04 6.83770E-06 0.00000E+00
 -1       865 1.37261E-04 7.32224E-06-4.13590E-25
 -1       866 1.37235E-04 7.75610E-06 0.00000E+00
 -1       867 1.37209E-04 8.12039E-06 0.00000E+00
 -1       868 1.37183E-04 8.39628E-06 0.00000E+00
 -1       869 1.37157E-04 8.56499E-06 0.00000E+00
 -1       870 1.37132E-04 8.60790E-06 0.00000E+00
 -1       871 1.37667E-04 3.32369E-06-8.27181E-25
 -1       872 1.37944E-04 3.31917E-06 0.00000E+00
 -1       873 1.38290E-04 3.31415E-06-4.13590E-25
 -1       874 1.38650E-04 3.30851E-06-1.55096E-25
 -1       875 1.38967E-04 3.30233E-06 6.20385E-25
 -1       876 1.37591E-04 3.42508E-06 0.00000E+00
 -1       877 1.37647E-04 3.58288E-06-1.65436E-24
 -1       878 1.37685E-04 3.79192E-06 0.00000E+00
 -1       879 1.37707E-04 4.04570E-06 0.00000E+00
 -1       880 1.37714E-04 4.33769E-06 0.00000E+00
 -1       881 1.37709E-04 4.66139E-06-1.65436E-24
 -1       882 1.37695E-04 5.01031E-06 3.30872E-24
 -1       883 1.37674E-04 5.37798E-06 1.65436E-24
 -1       884 1.37648E-04 5.75792E-06 3.30872E-24
 -1       885 1.37620E-04 6.14367E-06 1.65436E-24
 -1       886 1.37592E-04 6.52874E-06 0.00000E+00
 -1       887 1.37567E-04 6.90665E-06 0.00000E+00
 -1       888 1.37546E-04 7.27092E-06 3.30872E-24
 -1       889 1.37533E-04 7.61493E-06 0.00000E+00
 -1       890 1.37529E-04 7.93224E-06 0.00000E+00
 -1       891 1.37304E-04 8.45759E-06 1.65436E-24
 -1       892 1.37483E-04 8.40856E-06 0.00000E+00
 -1       893 1.37618E-04 8.35956E-06-8.27181E-25
 -1       894 1.37686E-04 8.31071E-06-4.13590E-25
 -1       895 1.37666E-04 8.26199E-06 0.00000E+00
 -1       956 1.40858E-04 2.25014E-06 1.65436E-24
 -1       957 1.40746E-04 2.14037E-06-1.65436E-24
 -1       958 1.40635E-04 2.09311E-06 0.00000E+00
 -1       959 1.40524E-04 2.09989E-06 1.65436E-24
 -1       960 1.40412E-04 2.15223E-06 3.30872E-24
 -1       961 1.40300E-04 2.24160E-06 1.65436E-24
 -1       962 1.40189E-04 2.35946E-06 3.30872E-24
 -1       963 1.40077E-04 2.49726E-06-1.65436E-24
 -1       964 1.39965E-04 2.64647E-06-3.30872E-24
 -1       965 1.39854E-04 2.79853E-06 1.65436E-24
 -1       966 1.39742E-04 2.94490E-06 0.00000E+00
 -1       967 1.39631E-04 3.07703E-06-1.65436E-24
 -1       968 1.39519E-04 3.18639E-06 0.00000E+00
 -1       969 1.39408E-04 3.26446E-06-1.65436E-24
 -1       970 1.39297E-04 3.30274E-06 0.00000E+00
 -1       971 1.39085E-04 3.29589E-06-3.30872E-24
 -1       972 1.38981E-04 3.38559E-06 1.65436E-24
 -1       973 1.38878E-04 3.55259E-06 0.00000E+00
 -1       974 1.38774E-04 3.78693E-06 0.00000E+00
 -1       975 1.38670E-04 4.07865E-06 0.00000E+00
 -1       976 1.38566E-04 4.41776E-06-1.65436E-24
 -1       977 1.38462E-04 4.79426E-06 0.00000E+00
 -1       978 1.38357E-04 5.19817E-06 0.00000E+00
 -1       979 1.38253E-04 5.61945E-06 3.30872E-24
 -1       980 1.38149E-04 6.04811E-06 0.00000E+00
 -1       981 1.38045E-04 6.47414E-06-3.30872E-24
 -1       982 1.37941E-04 6.88751E-06 0.00000E+00
 -1       983 1.37838E-04 7.27823E-06 0.00000E+00
 -1       984 1.37734E-04 7.63629E-06 0.00000E+00
 -1       985 1.37631E-04 7.95171E-06 0.00000E+00
 -3
    1PSTEP                        22          11           1          
  100CL  111 5.83008E-01         409                     0   11           1
 -4  STRESS      6    1
 -5  SXX         1    4    1    1
 -5  SYY         1    4    2    2
 -5  SZZ         1    4    3    3
 -5  SXY         1    4    1    2
 -5  SYZ         1    4    2    3
 -5  SZX         1    4    3    1
 -1         1-3.18550E+06-1.26303E+06-6.91209E+05-1.41232E+06-5.82077E-11-4.88944E-08
 -1         2 1.79270E+03-1.04885E+06 5.80176E+03 1.79520E+03 3.14543E-10-3.32154E-08
 -1         3-6.19045E+02-1.43481E+06 1.89866E+02-1.46028E+03 5.01014E-10-1.05902E-08
 -1         5-3.73052E+00 3.12980E+05 7.96999E+00-1.70928E-01-7.97672E-11-8.10496E-09
 -1         8-9.54296E+05-3.29413E+05-9.83831E+04-4.13080E+05 2.54659E-10 2.85763E-08
 -1         9 5.07198E+05-7.70146E+05 1.74680E+05-8.35490E+05 1.67463E-08-4.43542E-09
 -1        10-7.95191E+02-1.46525E+06-2.14425E+03-9.13922E+03-2.70484E-09-1.19924E-08
 -1        12-4.62796E-01 3.12996E+05 2.58168E+02-1.27644E+00-8.90168E-11 1.96369E-08
 -1        15 1.66744E+03 9.16358E+02 5.38999E+03 3.13810E+00-8.15135E-11-6.94443E-08
 -1        16 3.19095E+06-7.77520E+05 4.48892E+05-1.13861E+06 1.10207E-08 5.52197E-08
 -1        17 7.90718E+05 5.51904E+05 2.76654E+05 6.67038E+05 6.46105E-10 2.67464E-08
 -1        18 1.91269E+04 4.59644E+02-2.02350E+04-8.91440E+04 1.01992E-08 1.42641E-08
 -1        19 1.00704E+05 1.15723E+05-8.26892E+02 1.94725E+04 2.62662E-10-3.57250E-09
 -1        20-5.60067E+04-4.75824E+05-1.05938E+05 2.75804E+04 1.35742E-09 5.08771E-09
 -1        21-4.18193E+01-2.60313E+05-8.26233E+02 3.20273E+01 9.17957E-10-1.78868E-08
 -1        24 8.54653E+05 1.67606E+06 5.86552E+05 1.33884E+06-8.60552E-08-3.36440E-08
 -1        25-7.63792E+04-4.78211E+05-9.05416E+04-2.36537E+05-3.58887E-10 5.10936E-09
 -1        26-4.04144E+04 7.51264E+04-1.97023E+04-3.22616E+03 1.29257E-09 1.96596E-08
 -1        27-6.80692E+04-2.58543E+05-9.57957E+04 5.82056E+04 5.09211E-09-1.67165E-09
 -1        28 1.99114E+04-7.35260E+04 1.47970E+04 2.04783E+04 4.60290E-10 1.57819E-09
 -1        32-1.44580E+06-2.39189E+06-9.64578E+04-2.75667E+05-2.94222E-08-6.04598E-09
 -1        33-1.51176E+05 7.51901E+04 2.67387E+04-3.46443E+04-4.15052E-10 4.87914E-09
 -1        34-1.90088E+05-1.98236E+04 5.24139E+02 6.12257E+04 4.44084E-10 1.63436E-09
 -1        35-2.03418E+04-2.91952E+04-1.15442E+03 4.53374E+04 1.73181E-09-9.50968E-09
 -1        51 3.33767E+04-2.87374E+05 7.54841E+04-8.20100E+05-1.30967E-10 3.00643E-08
 -1        52 1.40686E+04-2.77881E+05 4.32428E+04-9.56294E+05 5.31145E-10 2.84490E-09
 -1        53 6.17935E+03-2.92612E+05 2.82777E+04-8.17160E+05 2.91038E-10 3.13448E-08
 -1        54 1.61332E+04-2.90139E+05 3.48712E+04-9.59350E+05-1.67347E-10-6.94381E-08
 -1        55 3.26603E+04-3.02023E+05 5.59842E+04-8.16704E+05 1.02591E-09 2.30866E-08
 -1        56-6.05524E+06-6.78438E+05-5.10090E+05-2.35091E+06 2.76486E-10-3.08792E-08
 -1        57-6.31347E+06-1.08859E+06-3.44177E+05-2.27041E+06 9.00764E-09-2.60479E-09
 -1        58-6.14966E+06-8.48719E+05-1.19893E+05-2.32797E+06-8.03811E-09 1.06957E-08
 -1        59-6.20620E+06-8.86664E+05-7.15660E+04-2.29529E+06 7.39419E-09-8.09214E-08
 -1        60-6.16094E+06-8.74920E+05-2.79333E+04-2.32772E+06-3.86444E-09 3.94612E-08
 -1        61-6.19261E+06-8.56434E+05-1.58550E+04-2.29608E+06 3.86478E-09-3.32482E-08
 -1        62-6.16293E+06-8.78204E+05-7.54674E+03-2.32737E+06 3.50613E-09-3.45760E-08
 -1        63-6.18749E+06-8.55949E+05-6.12482E+03-2.29976E+06-2.36923E-09 2.17617E-08
 -1        64-6.16596E+06-8.75351E+05-6.85023E+03-2.32402E+06 4.67617E-09 8.78322E-09
 -1        65-6.18123E+06-8.66549E+05-1.37016E+04-2.30830E+06-6.95672E-09-1.65028E-08
 -1        66-6.16917E+06-8.67717E+05-2.39627E+04-2.31877E+06 7.77072E-09 2.41498E-08
 -1        67-6.18533E+06-8.99849E+05-6.11001E+04-2.31625E+06-2.52203E-09 2.32540E-08
 -1        68-6.16215E+06-8.42673E+05-1.02363E+05-2.31592E+06 1.89539E-09-1.68984E-08
 -1        69-6.27483E+06-1.07444E+06-2.93764E+05-2.29778E+06-1.01827E-08-3.13303E-08
 -1        70-6.08116E+06-6.97713E+05-4.35478E+05-2.33590E+06-3.67436E-09 2.94240E-08
 -1        86-8.97609E+02-1.05065E+06 6.23479E+03-8.97610E+02-5.79348E-10 6.17388E-09
 -1        87 5.94890E+03-1.04690E+06 1.29772E+04 3.23843E+03-1.29990E-09 3.60625E-08
 -1        88-5.03657E+03-1.05260E+06 1.99307E+04-2.34088E+03-1.28694E-09 7.88494E-09
 -1        89 3.75428E+04-1.03233E+06 5.36679E+04 5.20108E+03-2.09911E-09-6.08568E-09
 -1        90-3.23783E+04-1.06519E+06 7.59399E+04-2.86038E+03-1.61890E-09-1.42420E-08
 -1       121-8.61928E+02-1.43710E+06-2.44349E+02 7.27420E+02 3.22061E-10 1.14087E-08
 -1       122-5.30497E+02-1.43483E+06 3.44635E+02-2.91523E+03 3.58963E-09 1.07866E-09
 -1       123-8.79812E+02-1.43716E+06 9.10477E+01 2.17160E+03 1.41904E-09 2.51384E-09
 -1       124 2.57131E+02-1.43460E+06 1.28520E+03-6.08036E+03 7.39647E-09-1.66074E-08
 -1       125-1.30366E+03-1.43757E+06 1.40433E+03 3.87962E+03 2.36378E-09-5.34419E-09
 -1       191-4.18190E+00 3.13007E+05 9.62919E+00 8.58504E-02-1.09838E-10 1.08139E-08
 -1       192-4.46196E+00 3.12980E+05 1.68693E+01-6.72697E-01-1.85908E-10 1.97610E-09
 -1       193-6.12692E+00 3.13006E+05 3.14716E+01 5.89636E-01-2.17208E-10 1.17966E-08
 -1       194-6.81586E+00 3.12982E+05 6.37925E+01-1.57476E+00-7.98455E-11-7.80369E-09
 -1       195-9.86459E+00 3.13004E+05 1.24879E+02 9.93349E-01-2.47926E-10-1.72613E-08
 -1       251-1.77826E+06-8.43136E+02-1.17308E+05-8.98913E+04 1.29148E-09-1.44537E-08
 -1       252-1.39423E+06 3.01497E+03-1.78131E+03 2.74842E+05-2.03727E-09 1.06315E-08
 -1       253-1.60065E+06-3.89084E+03-2.21095E+04-1.83979E+05 2.56478E-09 2.01489E-08
 -1       254-1.57005E+06 2.40764E+04-1.13141E+03 3.61265E+05-5.10914E-09-3.08328E-08
 -1       255-1.62041E+06-7.24603E+03-1.21043E+04-1.77409E+05 8.43102E-10 9.32096E-09
 -1       256-1.34289E+06 2.09246E+04 4.85768E+04 2.50389E+05 8.02720E-09 2.82707E-08
 -1       257-1.80569E+06-1.86621E+04-4.86416E+04-7.18692E+04-2.07929E-08-4.25742E-08
 -1       258-1.14830E+06 1.64950E+04 8.64814E+04-9.88632E+03 4.36557E-10 1.78268E-08
 -1       259-1.79595E+06-1.82547E+04-4.53021E+04 8.20093E+04-1.83900E-09-1.05744E-08
 -1       260-1.36476E+06 2.26884E+04 4.79633E+04-2.63705E+05-1.74605E-08-5.71082E-08
 -1       261-1.61048E+06-7.63534E+03-3.48605E+03 1.81303E+05 3.39378E-08-1.37294E-08
 -1       262-1.56742E+06 3.16968E+04 1.44788E+04-3.61309E+05-2.32558E-08 3.03318E-08
 -1       263-1.61329E+06-1.10176E+04 1.16339E+03 1.80790E+05 3.58068E-09 3.64753E-09
 -1       264-1.34932E+06 5.10697E+04 7.14586E+04-2.62220E+05 7.47946E-08-1.58575E-08
 -1       265-1.80827E+06-4.33843E+04-2.15446E+04 8.10275E+04 2.65154E-08 3.32057E-08
 -1       266-3.01857E+04-1.41138E+04 7.08295E+04-6.71500E+01-6.91216E-11 7.62611E-10
 -1       267 3.49941E+04 1.64516E+04 5.00586E+04 7.74723E+01 7.91260E-11 1.29772E-08
 -1       268-4.69261E+03-2.32990E+03 1.86067E+04-9.87163E+00 4.27463E-11 7.08583E-09
 -1       269 5.54064E+03 2.78851E+03 1.20939E+04 1.14986E+01-7.54881E-11 1.05046E-08
 -1       270-8.31651E+02-4.58165E+02 5.83791E+03-1.56046E+00-5.34328E-11-8.15530E-09
 -1       271-2.76904E+06-3.42310E+05-2.07971E+05-1.07266E+06 7.62520E-09 3.31784E-08
 -1       272-2.86583E+06-4.72870E+05-1.33857E+05-1.04659E+06-1.29580E-08-8.56962E-08
 -1       273-2.80798E+06-3.94536E+05-4.91100E+04-1.06359E+06 1.71798E-09-5.35874E-09
 -1       274-2.81956E+06-4.09375E+05-2.75208E+04-1.06058E+06-1.93086E-09-4.01269E-09
 -1       275-2.81416E+06-3.99219E+05-1.14493E+04-1.06108E+06 1.29421E-09 1.99607E-08
 -1       276-2.81116E+06-4.04815E+05-6.04040E+03-1.06515E+06 2.45245E-09-2.80606E-08
 -1       277-2.81627E+06-3.98411E+05-2.98535E+03-1.05928E+06-5.32964E-10 1.98843E-08
 -1       278-2.80770E+06-4.06890E+05-2.04468E+03-1.06860E+06 1.73532E-09-3.06829E-08
 -1       279-2.81769E+06-3.97035E+05-2.16548E+03-1.05770E+06-6.41739E-09 1.23096E-08
 -1       280-2.80558E+06-4.09839E+05-3.78950E+03-1.07155E+06-1.03537E-08-3.37861E-08
 -1       281-2.81852E+06-3.95417E+05-6.90483E+03-1.05641E+06 1.95359E-09 8.75067E-08
 -1       282-2.80681E+06-4.16428E+05-1.64656E+04-1.07338E+06-1.90512E-08 5.39658E-08
 -1       283-2.81667E+06-3.90766E+05-2.92894E+04-1.05582E+06 1.26729E-08-1.73623E-09
 -1       284-2.83108E+06-4.57698E+05-7.98696E+04-1.06897E+06-7.00675E-09-9.22037E-08
 -1       285-2.79502E+06-3.58048E+05-1.24069E+05-1.05947E+06-4.58385E-10-2.39161E-08
 -1       301 2.24283E+04-2.28592E+05 1.73055E+05-4.30484E+05 4.87489E-10 2.91038E-08
 -1       302 2.39422E+04-1.85177E+05 1.09849E+05-6.30030E+05-2.67391E-10-3.08419E-08
 -1       303 4.44915E+02-2.11720E+05 7.72561E+04-4.29565E+05 1.09139E-11-5.35529E-08
 -1       304 2.12573E+04-1.84856E+05 1.04144E+05-6.29530E+05 5.96629E-10 1.05671E-07
 -1       305 1.87741E+04-2.24571E+05 1.60136E+05-4.31037E+05-7.27596E-12 6.69606E-08
 -1       306-1.19084E+07-1.77205E+06-2.29999E+06-2.01532E+06-5.00295E-08 6.49015E-08
 -1       307 2.95671E+06-1.67107E+06 1.10650E+06-5.57544E+06-3.95565E-07-1.34678E-08
 -1       308-7.85848E+06 2.94762E+05-2.62647E+05 6.53830E+05-1.01136E-07 1.18129E-07
 -1       309-3.45251E+06-1.63584E+06 3.17598E+05-9.05207E+06 7.41493E-08 6.51471E-09
 -1       310-8.08919E+06 2.40344E+05-2.40254E+05 5.64046E+05 1.49012E-08-3.00834E-08
 -1       311 3.48571E+06-1.80099E+06 1.41363E+06-5.08636E+06 3.38187E-07 9.13533E-08
 -1       312-1.19499E+07-1.78669E+06-1.76968E+06-2.28111E+06-1.16357E-07 1.48553E-07
 -1       313 6.60633E+06 1.38455E+06 2.40566E+06 2.55274E+06-6.14091E-08 7.27887E-08
 -1       314-9.42165E+06-4.17118E+06-1.73232E+06-4.87385E+06 1.83267E-07 4.71482E-09
 -1       315-4.40644E+06 5.74213E+06 1.35706E+06 2.98349E+06-1.52533E-07 3.08501E-08
 -1       316-3.61352E+06-4.06109E+06-1.99692E+05-4.15913E+06-4.63784E-07-1.61832E-07
 -1       317-1.16536E+07 6.54844E+06 3.03858E+05-5.72701E+04 3.96518E-07-2.82594E-07
 -1       318-3.64308E+06-4.07840E+06-3.27081E+05-4.16054E+06-3.73780E-07 5.21613E-08
 -1       319-4.28483E+06 5.85654E+06 1.10019E+06 2.96657E+06-7.69141E-08 8.79809E-08
 -1       320-9.50259E+06-4.27512E+06-2.43001E+06-4.83971E+06 8.30623E-08-6.79938E-09
 -1       336-8.94645E+01-1.49642E+06-7.11150E+03 5.21729E+03-1.71704E-08 8.36371E-09
 -1       337-2.79877E+03-1.49696E+06-1.03033E+04-1.24328E+04-3.20016E-08 1.51958E-08
 -1       338 6.25826E+02-1.49592E+06-1.66035E+04 7.15541E+03-2.19216E-08 2.76123E-09
 -1       339-1.81667E+04-1.50704E+06-3.85073E+04-1.62020E+04-4.01878E-08 1.42009E-08
 -1       340 1.23393E+04-1.48711E+06-6.05337E+04 8.93733E+03-2.57842E-08 1.69748E-08
 -1       406 1.93563E+01 3.12992E+05 5.09783E+02 2.95191E-01-3.33387E-10 4.14593E-09
 -1       407 1.77230E+02 3.13085E+05 1.08323E+03 5.33106E+00-1.19144E-10-1.74600E-09
 -1       408 5.57210E+02 3.12914E+05 2.16353E+03-5.77408E+00-4.82686E-10-1.46383E-08
 -1       409 2.33871E+03 3.13776E+05 4.87041E+03 5.80383E+01-1.25851E-10-1.16868E-08
 -1       410 6.72032E+03 3.12299E+05 9.94277E+03-5.49855E+01-6.38693E-10-9.25297E-09
 -1       521-1.41025E+07-2.32846E+06-2.97694E+06-2.18230E+06-5.19794E-08-1.74041E-08
 -1       522 3.55115E+06-1.90588E+06 1.25240E+06-7.27277E+06-2.76588E-07-9.49221E-08
 -1       523-9.35487E+06 2.63336E+05-3.22753E+05 9.42864E+05 8.07049E-08-2.52479E-07
 -1       524-4.81505E+06-1.32160E+06 4.01131E+05-1.14886E+07 4.83145E-07-4.56661E-07
 -1       525-9.66447E+06 1.73867E+05-3.02063E+05 8.27467E+05 2.47441E-07-1.36786E-07
 -1       526 4.38511E+06-2.08742E+06 1.68250E+06-6.58645E+06 1.07801E-07-2.17551E-08
 -1       527-1.41806E+07-2.40066E+06-2.27449E+06-2.53270E+06 1.47149E-07-3.49246E-08
 -1       528 8.43502E+06 1.65148E+06 2.82892E+06 3.35017E+06-1.63185E-07 6.60075E-08
 -1       529-1.10733E+07-5.33270E+06-2.22415E+06-5.69233E+06-4.83124E-09 4.27244E-08
 -1       530-5.68626E+06 7.55275E+06 1.62130E+06 3.59346E+06-3.48213E-07 2.67872E-07
 -1       531-4.16953E+06-5.11329E+06-2.40770E+05-4.92594E+06-3.47034E-07 1.25510E-07
 -1       532-1.46732E+07 8.52995E+06 4.06771E+05-7.84139E+05 2.44418E-07-3.04026E-07
 -1       533-4.16666E+06-5.12695E+06-3.65867E+05-4.91422E+06-3.41679E-08-4.78758E-07
 -1       534-5.64750E+06 7.76236E+06 1.35071E+06 3.51771E+06-6.54618E-08 3.68498E-07
 -1       535-1.11364E+07-5.51314E+06-2.97752E+06-5.65060E+06 2.02563E-08 2.29287E-07
 -1       536-5.04670E+05-3.20216E+04 1.59979E+04-2.85645E+04-6.26801E-09 4.21132E-08
 -1       537-2.48329E+05 3.33931E+04 5.50035E+04 6.98837E+04-6.72939E-08 5.81977E-08
 -1       538-3.81515E+05-8.03168E+02 1.03772E+04-4.28988E+04 1.94785E-08 6.62635E-08
 -1       539-3.32739E+05 3.25792E+03 1.48458E+04 8.02456E+04 1.03970E-07 7.62117E-08
 -1       540-4.22190E+05-3.27508E+02-6.10163E+03-3.90423E+04 1.75737E-08 6.15912E-08
 -1       541-1.71033E+05 6.84004E+03 4.25911E+04 5.17772E+04-2.28919E-08 5.49527E-08
 -1       542-5.38891E+05-7.94485E+03-3.22672E+04-1.42303E+04 3.86235E-08 1.60825E-08
 -1       543-7.54786E+04 1.05410E+04 6.05663E+04-8.99174E+03-3.83670E-09-3.08717E-09
 -1       544-5.15209E+05-6.10488E+03-2.84646E+04 2.15628E+04 3.04462E-08-2.05020E-08
 -1       545-2.24900E+05 2.92633E+03 2.85640E+04-6.40026E+04 1.20088E-07-4.92169E-08
 -1       546-3.93427E+05 2.90888E+03-5.75526E+03 4.07119E+04 3.59464E-05 1.47539E-06
 -1       547-3.43250E+05-4.19949E+03-5.15635E+02-8.23336E+04 7.19722E-05 3.44719E-06
 -1       548-3.99977E+05 3.58068E+03-1.60192E+04 4.00521E+04 3.58268E-05 1.42743E-06
 -1       549-2.14683E+05-6.71840E+03 5.62176E+03-6.08201E+04 7.45896E-08-2.95513E-08
 -1       550-5.18469E+05 2.52554E+03-7.56670E+04 1.90271E+04 7.29506E-09-2.96732E-08
 -1       551 2.64978E+04-6.88940E+05 1.75575E+04-1.08555E+06-6.66550E-08-1.73168E-09
 -1       552 5.88435E+04-7.10540E+05 2.86169E+04-1.54720E+06-4.92291E-08 1.80007E-08
 -1       553 4.31711E+04-7.14138E+05 4.44786E+04-1.08091E+06-8.02684E-08 1.81171E-08
 -1       554 8.92881E+04-7.13129E+05 9.54854E+04-1.54895E+06-5.11063E-08 1.07657E-08
 -1       555 7.23109E+04-7.34483E+05 1.69938E+05-1.08153E+06-8.19127E-08-6.02449E-09
 -1       556 1.45786E+05-2.62321E+05 6.06104E+04-3.10920E+05-1.51776E-08-3.94357E-09
 -1       557 2.45382E+05-3.42434E+05 3.27631E+04-3.94924E+05-4.07454E-09-2.31921E-09
 -1       558 1.39125E+05-2.66639E+05 1.18010E+04-3.06643E+05-8.29459E-09 3.17232E-09
 -1       559 2.27980E+05-3.49219E+05 6.43622E+03-4.05577E+05 1.47265E-08-1.96997E-09
 -1       560 1.31879E+05-2.62021E+05 1.81758E+03-3.11648E+05 5.89353E-09 8.10542E-09
 -1       561 2.18358E+05-3.45750E+05 1.29300E+03-4.11919E+05 8.73115E-11 5.57338E-09
 -1       562 1.26175E+05-2.58400E+05 5.38969E+01-3.15742E+05 3.36149E-09 8.14543E-09
 -1       563 2.11649E+05-3.42828E+05 3.10404E+02-4.16251E+05 2.29920E-09 2.49429E-10
 -1       564 1.22303E+05-2.55964E+05-4.63259E+01-3.18477E+05 1.05356E-08 1.43064E-09
 -1       565 2.07550E+05-3.41046E+05 1.22113E+02-4.18854E+05 1.22163E-08 1.41740E-08
 -1       566 1.20331E+05-2.54707E+05-2.45245E+01-3.19861E+05 1.14596E-09-9.94623E-09
 -1       567 2.06038E+05-3.40378E+05-1.17642E+02-4.19714E+05 1.77261E-08-1.54687E-08
 -1       568 1.20312E+05-2.54710E+05-5.05479E+02-3.19967E+05 3.81078E-09 7.82165E-10
 -1       569 2.06114E+05-3.40325E+05-1.26668E+03-4.17965E+05 4.22733E-09 8.77844E-09
 -1       570 1.23057E+05-2.57043E+05-2.91932E+03-3.19407E+05 1.07175E-08 2.82034E-09
 -1       571 2.37189E+05 8.69335E+03 1.27227E+04-6.53846E+04 2.20643E-09 1.39034E-08
 -1       572 2.39067E+05 3.10745E+03 6.23387E+03-7.17239E+04 1.14051E-09 5.27416E-09
 -1       573 2.37942E+05 8.23521E+02 2.76966E+03-6.52459E+04-3.01907E-09 1.36961E-08
 -1       574 2.38153E+05 3.55944E+02 1.38817E+03-7.18877E+04-2.07456E-09 1.07375E-08
 -1       575 2.38026E+05 1.43917E+02 6.54825E+02-6.52273E+04 1.13573E-09 2.08497E-08
 -1       576 2.38033E+05 1.30942E+02 3.34451E+02-7.19096E+04-6.41023E-10 2.30311E-08
 -1       577 2.38047E+05 1.02123E+02 1.66458E+02-6.52248E+04 6.59838E-10-6.22322E-09
 -1       578 2.38036E+05 1.11568E+02 9.45336E+01-7.19124E+04-2.06592E-09-2.36423E-09
 -1       579 2.38079E+05 8.89697E+01 6.38235E+01-6.52246E+04 1.81535E-09-7.99901E-10
 -1       580 2.38079E+05 9.16090E+01 7.06113E+01-7.19087E+04-5.78802E-09-8.24548E-09
 -1       581 2.38128E+05 6.68339E+01 1.06358E+02-6.52286E+04 1.77170E-09-9.03628E-09
 -1       582 2.38164E+05 8.96213E+01 2.12465E+02-7.18669E+04 2.86764E-09-6.50107E-09
 -1       583 2.38185E+05 1.28119E+02 4.11034E+02-6.52665E+04 2.32649E-09 1.23507E-08
 -1       584 2.38387E+05 4.56906E+02 9.25807E+02-7.15490E+04 2.74667E-09 2.07173E-08
 -1       585 2.38151E+05 1.26326E+03 1.88002E+03-6.55467E+04-1.16233E-09-1.09794E-08
 -1       586-2.96742E+03 8.13549E+04-3.38257E+03-2.10999E+05-2.12458E-09-1.15390E-08
 -1       587-8.14396E+02 8.09626E+04 6.22911E+01-2.32247E+05-1.93722E-09-2.28767E-08
 -1       588 6.92327E+02 8.09638E+04 3.48140E+03-2.10899E+05-1.20963E-09 4.92946E-09
 -1       589 4.43907E+03 8.28348E+04 9.53198E+03-2.32007E+05-3.07591E-09 1.52686E-08
 -1       590 1.34207E+04 7.99116E+04 2.01921E+04-2.11262E+05-2.70757E-09 1.41517E-08
 -1       591-5.06220E+04-1.24746E+04-1.69320E+04-2.35595E+04 1.29216E-09 1.08221E-08
 -1       592-5.31359E+04-1.57071E+04-9.17149E+03-2.69199E+04-1.72622E-09-2.22208E-08
 -1       593-5.23205E+04-1.12407E+04-3.81784E+03-2.47960E+04 1.42109E-09-1.91633E-08
 -1       594-5.07905E+04-1.32308E+04-1.90413E+03-2.70185E+04-9.89161E-10 9.34271E-09
 -1       595-5.24502E+04-1.12361E+04-8.74562E+02-2.48524E+04 2.70933E-09 9.11356E-09
 -1       596-5.06305E+04-1.31175E+04-4.45077E+02-2.70003E+04 2.46459E-09-3.43866E-09
 -1       597-5.24665E+04-1.12475E+04-2.43381E+02-2.48545E+04 9.16970E-10 9.68237E-09
 -1       598-5.06148E+04-1.31131E+04-1.97530E+02-2.69951E+04-2.53996E-09 2.94934E-08
 -1       599-5.24654E+04-1.12478E+04-2.54663E+02-2.48541E+04 5.03860E-09-6.45616E-09
 -1       600-5.06311E+04-1.31185E+04-4.74952E+02-2.69991E+04 1.45671E-08-2.49128E-09
 -1       601-5.24458E+04-1.12364E+04-9.37942E+02-2.48511E+04 3.48405E-09 2.85706E-09
 -1       602-5.08026E+04-1.32395E+04-2.04465E+03-2.70159E+04-3.43221E-09 4.75666E-10
 -1       603-5.23044E+04-1.12436E+04-4.10064E+03-2.47911E+04-6.01631E-10-3.23234E-09
 -1       604-5.33346E+04-1.58848E+04-9.85050E+03-2.68915E+04 1.43802E-09-9.36961E-09
 -1       605-5.04647E+04-1.25821E+04-1.81857E+04-2.34773E+04 2.50537E-09 7.27778E-09
 -1       606 2.72696E+04-1.14274E+04-2.05278E+04 2.59821E+04 3.16140E-09-4.09500E-09
 -1       607 2.37580E+04-3.71015E+03-1.02221E+04 2.91759E+04 1.61072E-09-4.04793E-09
 -1       608 2.57530E+04-6.48673E+02-4.57708E+03 2.57818E+04-1.36424E-09 1.16711E-09
 -1       609 2.53621E+04-1.96244E+02-2.31189E+03 2.94053E+04-1.90266E-09 1.22178E-08
 -1       610 2.55734E+04-1.37977E+00-1.10380E+03 2.57590E+04 5.94082E-09 2.51498E-09
 -1       611 2.55048E+04 7.18971E+00-5.56506E+02 2.94302E+04 1.64910E-08-8.18864E-09
 -1       612 2.55282E+04 1.43073E+01-2.65389E+02 2.57568E+04 8.15817E-09-9.61791E-11
 -1       613 2.55063E+04 1.48467E+01-1.19604E+02 2.94332E+04-2.23827E-09 4.11774E-10
 -1       614 2.55045E+04 1.30398E+01-3.01293E+01 2.57560E+04 5.40240E-10 2.37969E-09
 -1       615 2.54958E+04 1.94587E+01 4.54129E+01 2.94336E+04 5.46970E-09-1.24305E-09
 -1       616 2.54862E+04 1.83549E+01 1.40462E+02 2.57563E+04-7.12043E-09-1.75214E-08
 -1       617 2.55081E+04 5.22010E+01 3.22333E+02 2.94331E+04-1.64346E-08 1.36970E-09
 -1       618 2.54548E+04 1.13434E+02 6.50288E+02 2.57565E+04-9.31186E-09-3.88127E-10
 -1       619 2.57349E+04 5.56768E+02 1.46074E+03 2.94323E+04-3.29374E-09 1.38393E-08
 -1       620 2.52370E+04 1.65702E+03 2.93610E+03 2.57559E+04-5.42400E-10 1.15483E-08
 -1       621 2.98428E+02 2.42489E+05 2.67142E+03 2.03092E+04 1.98042E-10 6.77801E-09
 -1       622 3.72906E+02 2.43135E+05 2.47710E+03 2.95357E+04 2.28738E-10-1.07843E-09
 -1       623 3.52340E+01 2.42635E+05 3.11898E+03 2.02133E+04 3.35206E-10 7.76026E-09
 -1       624 1.51666E+03 2.44158E+05 6.16017E+03 2.96328E+04 4.13486E-10 1.23543E-09
 -1       625 1.51762E+03 2.41419E+05 1.08202E+04 2.02105E+04 4.72937E-10-5.24778E-10
 -1       626 2.13932E+05 5.49096E+04 4.60183E+03 1.09612E+05 9.63155E-10-5.48425E-09
 -1       627 2.11575E+05 5.64393E+04 2.21756E+03 1.13754E+05 6.62567E-10 1.35115E-08
 -1       628 2.14064E+05 5.27806E+04 9.37193E+02 1.10364E+05-4.49108E-09-7.62293E-09
 -1       629 2.10970E+05 5.58590E+04 4.58798E+02 1.13998E+05-9.69067E-10-3.15842E-09
 -1       630 2.14075E+05 5.26794E+04 2.12140E+02 1.10391E+05-1.04765E-08-4.91335E-09
 -1       631 2.10901E+05 5.58405E+04 1.13373E+02 1.13998E+05-9.74978E-09 2.95950E-08
 -1       632 2.14067E+05 5.26856E+04 7.32020E+01 1.10384E+05-2.42835E-09 1.64441E-08
 -1       633 2.10888E+05 5.58447E+04 7.94161E+01 1.13992E+05-1.82627E-09-8.96898E-09
 -1       634 2.14059E+05 5.26855E+04 1.26413E+02 1.10380E+05-8.69932E-09-5.40535E-09
 -1       635 2.10897E+05 5.58451E+04 2.54726E+02 1.13993E+05-1.99237E-08 4.42628E-09
 -1       636 2.14048E+05 5.26827E+04 5.13810E+02 1.10378E+05-1.11301E-08-3.65571E-09
 -1       637 2.11005E+05 5.59258E+04 1.12911E+03 1.13990E+05-1.10310E-09 5.53337E-09
 -1       638 2.14006E+05 5.29332E+04 2.32000E+03 1.10264E+05-9.27639E-09 7.03722E-09
 -1       639 2.12223E+05 5.76203E+04 5.48869E+03 1.13630E+05-1.32316E-08 2.67610E-08
 -1       640 2.13842E+05 5.79892E+04 1.13901E+04 1.08126E+05-7.88168E-09 1.68172E-08
 -1       656 5.59369E+04-1.42405E+06-1.35033E+05-9.34289E+02 2.18279E-11-4.79949E-09
 -1       657-7.39657E+04-1.48503E+06-1.11785E+05 7.02117E+03 1.22782E-10 5.14723E-09
 -1       658 1.77947E+04-1.44140E+06-6.87448E+04-2.51906E+03 4.49518E-10-7.60637E-09
 -1       659-7.97062E+04-1.48775E+06-1.19326E+05 8.20329E+03-7.53971E-10 5.68113E-09
 -1       660 6.16643E+04-1.42133E+06-1.48000E+05-2.11639E+03-8.14907E-10-5.04906E-09
 -1       661 1.64706E+05 1.76560E+04 1.64727E+04 6.44070E+04 1.05410E-09 4.10091E-09
 -1       662 1.73649E+05 3.02187E+04 1.11005E+04 6.11333E+04-2.51816E-11-5.90580E-09
 -1       663 1.67940E+05 2.29424E+04 3.88272E+03 6.34704E+04 5.86056E-10 6.63067E-09
 -1       664 1.69904E+05 2.40340E+04 2.32197E+03 6.22750E+04 5.45697E-11 6.31940E-09
 -1       665 1.68427E+05 2.36670E+04 9.15991E+02 6.33306E+04 1.39812E-09-1.87131E-08
 -1       666 1.69329E+05 2.32033E+04 5.35121E+02 6.24562E+04-2.65061E-09-7.52937E-09
 -1       667 1.68511E+05 2.37513E+04 2.83239E+02 6.32973E+04-1.12288E-09 4.80624E-09
 -1       668 1.69238E+05 2.31400E+04 2.86294E+02 6.25045E+04-7.82464E-10 5.19179E-09
 -1       669 1.68518E+05 2.37284E+04 3.85715E+02 6.32828E+04-1.78332E-09 1.85619E-09
 -1       670 1.69333E+05 2.33473E+04 8.38137E+02 6.25062E+04-1.07915E-09 1.67317E-08
 -1       671 1.68416E+05 2.35482E+04 1.48758E+03 6.32938E+04-2.90811E-10-1.51317E-09
 -1       672 1.70199E+05 2.47944E+04 3.80547E+03 6.22965E+04-1.25088E-09 3.10422E-10
 -1       673 1.67655E+05 2.23178E+04 6.37718E+03 6.34785E+04 1.00317E-09-5.46220E-09
 -1       674 1.76270E+05 3.50384E+04 1.82373E+04 6.05116E+04-1.35771E-09-6.96377E-09
 -1       675 1.62384E+05 1.35909E+04 2.70703E+04 6.49708E+04-1.00408E-09-6.27188E-09
 -1       676 2.14392E+01-2.60245E+05-9.95826E+02-1.60140E+01-4.47358E-11-5.17257E-09
 -1       677-2.64460E+02-2.60485E+05-1.82250E+03 3.20073E+01 1.12254E-09-4.99698E-09
 -1       678 1.76543E+02-2.60073E+05-3.22172E+03-1.59823E+01 6.92012E-10 1.06257E-09
 -1       679-3.22267E+03-2.62430E+05-7.65334E+03 3.18856E+01 2.15141E-09-9.11285E-09
 -1       680 1.92332E+03-2.58301E+05-1.23346E+04-1.57126E+01-6.82121E-12 8.56001E-09
 -1       771-2.74597E+06-5.80971E+05-9.47206E+04-1.24160E+06-2.11148E-08-1.73750E-08
 -1       772-2.69820E+06-6.42098E+05-4.94577E+04-1.31150E+06-1.60362E-08 8.63656E-09
 -1       773-2.76327E+06-5.67320E+05-2.39055E+04-1.24806E+06-1.08848E-08 3.39787E-09
 -1       774-2.68940E+06-6.32108E+05-1.09470E+04-1.32436E+06 1.86265E-08-1.41881E-09
 -1       775-2.77096E+06-5.61864E+05-7.32669E+03-1.25051E+06-2.86673E-09-1.95723E-09
 -1       776-2.69367E+06-6.31374E+05-2.88486E+03-1.33338E+06-4.04543E-09 2.95768E-09
 -1       777-2.77738E+06-5.57171E+05-2.93707E+03-1.25266E+06-5.38421E-10 7.71615E-09
 -1       778-2.69838E+06-6.30801E+05-8.83795E+02-1.34103E+06-7.56700E-10 1.37807E-08
 -1       779-2.78277E+06-5.53144E+05-1.38055E+03-1.25450E+06-1.03028E-08-7.60701E-09
 -1       780-2.70253E+06-6.30225E+05-2.50987E+02-1.34725E+06-3.26690E-09 2.68301E-10
 -1       781-2.78700E+06-5.49934E+05-5.31200E+02-1.25594E+06-1.64364E-08-7.85803E-10
 -1       782-2.70571E+06-6.29702E+05 1.49896E+02-1.35182E+06-1.99980E-08 2.45564E-10
 -1       783-2.78994E+06-5.47738E+05 2.27258E+02-1.25696E+06-5.50790E-09-1.31590E-08
 -1       784-2.70745E+06-6.29061E+05 1.04332E+03-1.35462E+06-1.37661E-08-2.15095E-10
 -1       785-2.79162E+06-5.46472E+05 1.82849E+03-1.25761E+06-2.46528E-08 4.16367E-09
 -1       786 1.24816E+05-9.10142E+03 2.10557E+04-1.55116E+02 1.69795E-09-1.79170E-10
 -1       787 1.33946E+05 1.05367E+04 1.48963E+04 5.03622E+00 2.69655E-09 1.35151E-08
 -1       788 1.28337E+05-1.42661E+03 5.44816E+03-1.27678E+02 1.12537E-09 2.07933E-09
 -1       789 1.29845E+05 1.65056E+03 3.42101E+03-3.89155E+01 9.98864E-10 4.01951E-09
 -1       790 1.28918E+05-2.22555E+02 1.38698E+03-1.11171E+02-6.45340E-10 8.44432E-09
 -1       791 1.29165E+05 2.57245E+02 8.04752E+02-6.75434E+01-2.61276E-09 1.68720E-08
 -1       792 1.29016E+05-3.43341E+01 3.48334E+02-9.90504E+01-1.89039E-09 3.23489E-09
 -1       793 1.29050E+05 3.91674E+01 1.89711E+02-9.03745E+01-1.44695E-10-8.98207E-09
 -1       794 1.29034E+05-4.61663E+00 8.15628E+01-8.83393E+01 1.01552E-09-1.25874E-08
 -1       795 1.29028E+05 1.65911E+00 3.27778E+01-1.12682E+02-1.75512E-09-6.23291E-10
 -1       796 1.29038E+05 3.15498E+00-2.43719E+00-7.67428E+01 1.38721E-09-9.89814E-09
 -1       797 1.29013E+05-2.78687E+01-4.83678E+01-1.39192E+02 1.36651E-09 7.44546E-09
 -1       798 1.29049E+05 2.48878E+01-9.00770E+01-6.18291E+01 1.06286E-09 8.53957E-09
 -1       799 1.28941E+05-1.84089E+02-2.57858E+02-1.75513E+02 2.04925E-09-1.69236E-09
 -1       800 1.29110E+05 1.59238E+02-3.67738E+02-4.04212E+01 3.15297E-10 1.78049E-09
 -1       801 5.15010E+04-5.07570E+06-5.78364E+05 3.57906E+05 4.67699E-08-2.44163E-08
 -1       802 3.24175E+04-1.61136E+06 2.84478E+05-3.69792E+05 1.30702E-07-1.20378E-08
 -1       803-8.44813E+04-5.58182E+06-4.18872E+05 2.81483E+05 4.98330E-08 1.71749E-08
 -1       804 1.67946E+03-2.61882E+06 2.04585E+05 2.55817E+05-3.21734E-08-2.49699E-08
 -1       805 6.63935E+04-4.07686E+06-7.69695E+04-2.66991E+05-1.37752E-08-1.40508E-08
 -1       806-2.59622E+05-4.91061E+04-1.89088E+04-1.01548E+05-1.20417E-09 6.09998E-09
 -1       807-2.61294E+05-4.58340E+04-9.28965E+03-1.05916E+05 7.36418E-09 1.02027E-10
 -1       808-2.60126E+05-4.23062E+04-3.94107E+03-1.04788E+05-2.87173E-09-8.82210E-11
 -1       809-2.59350E+05-4.32165E+04-1.92712E+03-1.06137E+05-4.41105E-09 1.76810E-08
 -1       810-2.60205E+05-4.20692E+04-8.83210E+02-1.04932E+05 2.98905E-09-2.28601E-09
 -1       811-2.59200E+05-4.31104E+04-4.39156E+02-1.06108E+05 3.69209E-09 8.35598E-09
 -1       812-2.60218E+05-4.20889E+04-2.21843E+02-1.04932E+05-3.09501E-09 8.71250E-09
 -1       813-2.59181E+05-4.31115E+04-1.43870E+02-1.06094E+05-3.43925E-09-1.32068E-08
 -1       814-2.60214E+05-4.20958E+04-1.41901E+02-1.04930E+05-1.11713E-08-6.59702E-09
 -1       815-2.59186E+05-4.31128E+04-2.28369E+02-1.06090E+05-1.52359E-08 4.55293E-09
 -1       816-2.60200E+05-4.20937E+04-4.32311E+02-1.04928E+05-7.97809E-09-3.32921E-09
 -1       817-2.59261E+05-4.31536E+04-9.28201E+02-1.06083E+05-6.29370E-10 2.15025E-08
 -1       818-2.60146E+05-4.22228E+04-1.89284E+03-1.04867E+05-4.11092E-10-4.37194E-09
 -1       819-2.60297E+05-4.42993E+04-4.45457E+03-1.05843E+05 3.81442E-09-1.96594E-08
 -1       820-2.59797E+05-4.55811E+04-9.06621E+03-1.03423E+05 4.25644E-09 1.81012E-09
 -1       821-3.17080E+05 1.75197E+04-4.05214E+04 5.46750E+02-1.10033E-06 8.82847E-08
 -1       822-3.34622E+05-2.02819E+04-2.86720E+04-1.21666E+03-2.28123E-06-2.12835E-08
 -1       823-3.23844E+05 2.74736E+03-1.04941E+04 6.16221E+02-1.13156E-06-1.20190E-09
 -1       824-3.26711E+05-3.17866E+03-6.60027E+03-1.05724E+03-3.55852E-09 1.62207E-08
 -1       825-3.24988E+05 4.29273E+02-2.71839E+03 3.87336E+02 2.16286E-09 2.55784E-09
 -1       826-3.25364E+05-5.05168E+02-1.62837E+03-4.09145E+02 1.44502E-09-3.17618E-09
 -1       827-3.25189E+05 7.48119E+01-8.58023E+02-3.18896E+01-2.45038E-10-5.66556E-09
 -1       828-3.25185E+05-1.54093E+02-7.43389E+02 4.22641E+02-2.93711E-09-9.81414E-09
 -1       829-3.25167E+05 7.84750E+01-8.74622E+02-4.44464E+02 9.25020E-11-1.44007E-09
 -1       830-3.25425E+05-5.27203E+02-1.69899E+03 1.04642E+03 1.08684E-09-6.40938E-09
 -1       831-3.24951E+05 4.48670E+02-2.82145E+03-6.55682E+02-1.89019E-09 1.95109E-09
 -1       832-3.26793E+05-3.31051E+03-6.87532E+03 1.16807E+03-1.47590E-09 4.99529E-09
 -1       833-3.23800E+05 2.86006E+03-1.09302E+04-5.66115E+02-1.58541E-09-1.31740E-09
 -1       834-3.34970E+05-2.11187E+04-2.98496E+04 7.25455E+02-1.78337E-09 6.34827E-10
 -1       835-3.16776E+05 1.82423E+04-4.22055E+04-2.13053E+02 5.84367E-09 1.35333E-09
 -1       836-1.09857E+03 3.00603E+05 1.83301E+04-1.60916E+04-1.70166E-09 3.86808E-09
 -1       837 3.97226E+03 3.06314E+05 1.56577E+04-3.24473E+04-1.58366E-09-5.76233E-09
 -1       838-4.26308E+02 3.02185E+05 1.61599E+04-1.60264E+04-9.44965E-10-3.35422E-09
 -1       839 1.03162E+04 3.11042E+05 3.07729E+04-3.24889E+04-6.54836E-10-2.53482E-09
 -1       840-3.14449E+03 2.95830E+05 4.91599E+04-1.60504E+04-1.12777E-09-7.17364E-10
 -1       856-6.99237E+04 7.65249E+03-2.01665E+04-4.14129E+02-7.64658E-10 7.59337E-09
 -1       857-7.82462E+04-8.98047E+03-1.38834E+04 4.94370E+03 3.81903E-10 6.70207E-09
 -1       858-7.32144E+04 1.07254E+03-5.23328E+03-4.36350E+02-1.75243E-09-5.74778E-09
 -1       859-7.44684E+04-1.25152E+03-3.15945E+03 4.97828E+03-3.90898E-10-6.76323E-09
 -1       860-7.37062E+04 1.49502E+02-1.32639E+03-4.48708E+02 2.03551E-09-5.05423E-09
 -1       861-7.39023E+04-1.68946E+02-7.34464E+02 4.99519E+03-2.22414E-09-7.49196E-10
 -1       862-7.37829E+04 1.98643E+01-3.14910E+02-4.53277E+02 2.02959E-09-1.43271E-09
 -1       863-7.38099E+04-1.34592E+01-1.36515E+02 4.99749E+03 4.20171E-09-3.66221E-09
 -1       864-7.37989E+04-2.51856E+00-4.05880E+00-4.51013E+02 2.52265E-09-1.44574E-09
 -1       865-7.37704E+04 4.23054E+01 1.34182E+02 4.98556E+03 1.42796E-09 1.71045E-09
 -1       866-7.38207E+04-3.61764E+01 2.95591E+02-4.41347E+02-9.33142E-10-9.65315E-10
 -1       867-7.36245E+04 3.00932E+02 7.43811E+02 4.95926E+03-6.95735E-10-6.60775E-09
 -1       868-7.39408E+04-2.57232E+02 1.23981E+03-4.24707E+02-1.38624E-09-5.93616E-09
 -1       869-7.27106E+04 2.14003E+03 3.30731E+03 4.91548E+03-1.74114E-09-5.10317E-09
 -1       870-7.47285E+04-1.82643E+03 4.79871E+03-3.97562E+02 1.94973E-10 5.32350E-09
 -1       871-4.76207E+03-1.30693E+04-1.59149E+04 1.05972E+05-3.23780E-10-7.88805E-09
 -1       872-1.94669E+03-1.66858E+04-6.56785E+03 1.37396E+05-1.79625E-09-7.76845E-09
 -1       873 8.62341E+01-1.49777E+04 7.23117E+02 1.05740E+05-1.08503E-09 5.38330E-09
 -1       874 2.51155E+03-1.28107E+04 8.55055E+03 1.37433E+05-1.93177E-09 2.22310E-08
 -1       875 5.66152E+03-1.70101E+04 1.91013E+04 1.05935E+05-6.37556E-10 4.18368E-11
 -1       876 2.50291E+05 4.26548E+04 1.30759E+04 1.00999E+05-2.02738E-09 3.54703E-11
 -1       877 2.51105E+05 4.54583E+04 6.98292E+03 1.04795E+05 8.44011E-10-1.00629E-08
 -1       878 2.51512E+05 4.12078E+04 2.92552E+03 1.02072E+05-9.96806E-10 3.37377E-09
 -1       879 2.49327E+05 4.36854E+04 1.45754E+03 1.04885E+05 5.20913E-10 8.55016E-09
 -1       880 2.51601E+05 4.11923E+04 6.78788E+02 1.02116E+05-6.13909E-10 8.32853E-09
 -1       881 2.49209E+05 4.36098E+04 3.62124E+02 1.04866E+05 4.13900E-09 2.70433E-11
 -1       882 2.51609E+05 4.12034E+04 2.31069E+02 1.02117E+05 2.48133E-09-3.58349E-09
 -1       883 2.49201E+05 4.36061E+04 2.47430E+02 1.04860E+05 1.12374E-09 9.24871E-09
 -1       884 2.51604E+05 4.12008E+04 3.92722E+02 1.02118E+05-7.74094E-10-1.45311E-08
 -1       885 2.49232E+05 4.36116E+04 7.89040E+02 1.04870E+05 9.92458E-10-8.28538E-09
 -1       886 2.51573E+05 4.11777E+04 1.59002E+03 1.02114E+05-1.15291E-09-8.16271E-11
 -1       887 2.49512E+05 4.37948E+04 3.47312E+03 1.04910E+05 1.83309E-09 5.84544E-09
 -1       888 2.51354E+05 4.12163E+04 6.99842E+03 1.02003E+05 1.58130E-09-6.40421E-09
 -1       889 2.53680E+05 4.81262E+04 1.67183E+04 1.04780E+05 2.83860E-09-7.86190E-09
 -1       890 2.48501E+05 4.46048E+04 3.13126E+04 9.93348E+04 3.65617E-10-1.88811E-09
 -1       891-1.25955E+02-1.40386E+05-1.69362E+03 2.50432E+04-2.60343E-10 8.91146E-09
 -1       892-2.25505E+02-1.40807E+05-1.82848E+03 3.79408E+04-1.80762E-10 2.65004E-09
 -1       893-1.33952E+01-1.40439E+05-2.59875E+03 2.50489E+04-8.72888E-10-4.44743E-10
 -1       894-1.37158E+03-1.41795E+05-5.38558E+03 3.78036E+04-5.71163E-10-8.46421E-09
 -1       895-1.07887E+03-1.39318E+05-9.48676E+03 2.51796E+04-7.08042E-10 5.18139E-09
 -1       956-3.18252E+05-4.49160E+03-1.12416E+04 2.27636E+04-2.59206E-10 1.41267E-09
 -1       957-3.20468E+05-1.53551E+03-5.77071E+03 2.74008E+04-2.43381E-09-3.43152E-09
 -1       958-3.19254E+05-1.43412E+02-2.60005E+03 2.26297E+04-7.40329E-10 2.72576E-09
 -1       959-3.19427E+05-4.71963E+01-1.32797E+03 2.75499E+04-5.31145E-10 5.38762E-09
 -1       960-3.19346E+05 1.63248E+01-6.47519E+02 2.26165E+04-6.30735E-10 1.32559E-09
 -1       961-3.19354E+05 1.04956E+01-3.43657E+02 2.75651E+04-7.36691E-11 2.23463E-09
 -1       962-3.19366E+05 1.29444E+01-1.97044E+02 2.26144E+04 1.99179E-10 7.01129E-09
 -1       963-3.19352E+05 1.25230E+01-1.58774E+02 2.75678E+04-2.28169E-10 1.05636E-08
 -1       964-3.19370E+05 1.52730E+01-1.93590E+02 2.26138E+04 9.07335E-10-1.07548E-08
 -1       965-3.19363E+05 1.54505E+01-3.35248E+02 2.75675E+04 1.22418E-09-6.30484E-09
 -1       966-3.19358E+05 2.32529E+01-6.29885E+02 2.26147E+04-5.51040E-09 3.56999E-09
 -1       967-3.19442E+05-3.58528E+01-1.29208E+03 2.75574E+04-1.10920E-08 5.81008E-09
 -1       968-3.19275E+05-1.27600E+02-2.52898E+03 2.26238E+04-5.11363E-09-9.30166E-09
 -1       969-3.20464E+05-1.47986E+03-5.61484E+03 2.74516E+04 1.96223E-10-2.08010E-08
 -1       970-3.18306E+05-4.35547E+03-1.09371E+04 2.27199E+04-6.79847E-10 1.53741E-08
 -1       971-2.96446E+05-1.52278E+03-8.37202E+03 1.37900E+04-2.02454E-09 1.22924E-09
 -1       972-2.98475E+05-1.10182E+03-4.55933E+03 1.91992E+04-3.71438E-09-3.47836E-09
 -1       973-2.97378E+05-2.58426E+01-2.04185E+03 1.36768E+04 1.01227E-09-1.51749E-09
 -1       974-2.97513E+05-3.14177E+01-1.05804E+03 1.93235E+04 2.29852E-09 5.05111E-09
 -1       975-2.97451E+05 1.39416E+01-5.28365E+02 1.36660E+04-3.77440E-11-2.38742E-10
 -1       976-2.97457E+05 1.29391E+01-3.03897E+02 1.93370E+04-2.00771E-10-1.40658E-08
 -1       977-2.97466E+05 1.41667E+01-2.18905E+02 1.36633E+04-9.69294E-10 5.34328E-11
 -1       978-2.97461E+05 1.81830E+01-2.53901E+02 1.93408E+04 4.96766E-09 8.68363E-09
 -1       979-2.97466E+05 2.12727E+01-4.05993E+02 1.36621E+04 1.61197E-09 6.04825E-09
 -1       980-2.97491E+05 2.07647E+01-7.82700E+02 1.93415E+04 2.13674E-09 3.03544E-11
 -1       981-2.97440E+05 4.07993E+01-1.51527E+03 1.36626E+04 9.42009E-10-5.52632E-09
 -1       982-2.97699E+05-9.11416E+01-3.13167E+03 1.93356E+04 6.21526E-10-3.54751E-09
 -1       983-2.97250E+05-5.61505E+01-6.08466E+03 1.36682E+04 1.74691E-09-4.58840E-10
 -1       984-3.00625E+05-3.26883E+03-1.36260E+04 1.92580E+04-1.64891E-09 6.28756E-09
 -1       985-2.94495E+05-4.50852E+03-2.50216E+04 1.37416E+04 1.30967E-10-4.10000E-09
 -3
    1PSTEP                        23          12           1          
  100CL  112 5.96191E-01         409                     0   12           1
 -4  DISP        4    1
 -5  D1          1    2    1    0
 -5  D2          1    2    2    0
 -5  D3          1    2    3    0
 -5  ALL         1    2    0    0    1ALL
 -1         1 1.00654E-03 0.00000E+00 0.00000E+00
 -1         2 9.45075E-04 1.10748E-29-1.32349E-23
 -1         3 2.53879E-04-1.84044E-27 1.32349E-23
 -1         5 1.42631E-04-2.07455E-26 3.30872E-24
 -1         8 9.86033E-04-6.53907E-07 0.00000E+00
 -1         9 9.58609E-04-2.89436E-06 0.00000E+00
 -1        10 2.29994E-04-3.23993E-06 0.00000E+00
 -1        12 1.43260E-04 6.82303E-07-8.27181E-25
 -1        15 9.61359E-04-7.21461E-07 0.00000E+00
 -1        16 9.68016E-04-3.56749E-06 0.00000E+00
 -1        17 1.58899E-04-6.94896E-06 0.00000E+00
 -1        18 1.43778E-04 1.73771E-05 0.00000E+00
 -1        19 1.45147E-04 1.36087E-06 0.00000E+00
 -1        20 1.45294E-04 3.39304E-06 0.00000E+00
 -1        21 1.44571E-04 2.87257E-06 3.30872E-24
 -1        24 2.63671E-05-9.89178E-06 0.00000E+00
 -1        25 1.48450E-04 1.75516E-05 0.00000E+00
 -1        26 1.49154E-04 1.88568E-06 0.00000E+00
 -1        27 1.47289E-04 3.24267E-07 0.00000E+00
 -1        28 1.46898E-04 2.31748E-06 0.00000E+00
 -1        32 0.00000E+00 0.00000E+00 0.00000E+00
 -1        33 1.52095E-04 2.52625E-06 0.00000E+00
 -1        34 1.50259E-04 2.88233E-07 0.00000E+00
 -1        35 1.48559E-04 2.01777E-06 0.00000E+00
 -1        51 1.00521E-03-1.16010E-07 0.00000E+00
 -1        52 1.00276E-03-2.20873E-07 0.00000E+00
 -1        53 9.99379E-04-3.25006E-07 0.00000E+00
 -1        54 9.95314E-04-4.30362E-07 0.00000E+00
 -1        55 9.90788E-04-5.38239E-07-5.79026E-24
 -1        56 1.00377E-03-5.09759E-07 0.00000E+00
 -1        57 1.00057E-03-1.48582E-07 2.64698E-23
 -1        58 9.97078E-04 1.00703E-06-5.29396E-23
 -1        59 9.93331E-04 2.78376E-06-5.29396E-23
 -1        60 9.89438E-04 4.94426E-06 1.05879E-22
 -1        61 9.85499E-04 7.22024E-06-5.29396E-23
 -1        62 9.81621E-04 9.33017E-06-1.05879E-22
 -1        63 9.77909E-04 1.10018E-05-5.29396E-23
 -1        64 9.74444E-04 1.20186E-05-1.05879E-22
 -1        65 9.71292E-04 1.22047E-05 0.00000E+00
 -1        66 9.68480E-04 1.14891E-05 0.00000E+00
 -1        67 9.66014E-04 9.85775E-06 0.00000E+00
 -1        68 9.63853E-04 7.41106E-06 0.00000E+00
 -1        69 9.61954E-04 4.30643E-06 2.64698E-23
 -1        70 9.60209E-04 7.72717E-07 5.29396E-23
 -1        86 9.45617E-04-4.77391E-07 1.32349E-23
 -1        87 9.47232E-04-9.56151E-07 0.00000E+00
 -1        88 9.49663E-04-1.43649E-06 0.00000E+00
 -1        89 9.52635E-04-1.91988E-06 0.00000E+00
 -1        90 9.55751E-04-2.40312E-06 0.00000E+00
 -1       121 2.53208E-04-5.30105E-07-1.32349E-23
 -1       122 2.51198E-04-1.06193E-06 6.61744E-24
 -1       123 2.47856E-04-1.59719E-06 0.00000E+00
 -1       124 2.43195E-04-2.13755E-06 6.61744E-24
 -1       125 2.37233E-04-2.68450E-06 0.00000E+00
 -1       191 1.42649E-04 1.13728E-07-1.65436E-24
 -1       192 1.42701E-04 2.27453E-07 0.00000E+00
 -1       193 1.42788E-04 3.41177E-07 0.00000E+00
 -1       194 1.42911E-04 4.54895E-07 1.65436E-24
 -1       195 1.43068E-04 5.68605E-07-1.65436E-24
 -1       251 9.85328E-04 1.58617E-05 1.32349E-23
 -1       252 9.83938E-04 5.68306E-05-6.61744E-24
 -1       253 9.81759E-04 1.14913E-04 1.32349E-23
 -1       254 9.79010E-04 1.82376E-04-6.61744E-24
 -1       255 9.76317E-04 2.48935E-04 0.00000E+00
 -1       256 9.74280E-04 3.04328E-04 0.00000E+00
 -1       257 9.73034E-04 3.41324E-04-1.32349E-23
 -1       258 9.72380E-04 3.53111E-04 0.00000E+00
 -1       259 9.71704E-04 3.39504E-04-1.32349E-23
 -1       260 9.70402E-04 3.00924E-04 0.00000E+00
 -1       261 9.68302E-04 2.44362E-04 1.32349E-23
 -1       262 9.65571E-04 1.77215E-04 0.00000E+00
 -1       263 9.62821E-04 1.09761E-04 0.00000E+00
 -1       264 9.60669E-04 5.22815E-05 0.00000E+00
 -1       265 9.59316E-04 1.23404E-05 0.00000E+00
 -1       266 9.81921E-04-6.74579E-07 3.30872E-24
 -1       267 9.77809E-04-6.84691E-07-8.27181E-25
 -1       268 9.73696E-04-6.95471E-07 8.27181E-25
 -1       269 9.69584E-04-7.04271E-07 0.00000E+00
 -1       270 9.65471E-04-7.13023E-07 0.00000E+00
 -1       271 9.83530E-04 2.92609E-06 0.00000E+00
 -1       272 9.81123E-04 6.15041E-06 0.00000E+00
 -1       273 9.78868E-04 8.97713E-06 2.64698E-23
 -1       274 9.76777E-04 1.13542E-05-1.32349E-23
 -1       275 9.74872E-04 1.32399E-05 0.00000E+00
 -1       276 9.73164E-04 1.45971E-05 1.32349E-23
 -1       277 9.71667E-04 1.53963E-05 2.64698E-23
 -1       278 9.70388E-04 1.56150E-05-1.32349E-23
 -1       279 9.69332E-04 1.52390E-05 0.00000E+00
 -1       280 9.68501E-04 1.42618E-05 0.00000E+00
 -1       281 9.67895E-04 1.26850E-05-2.64698E-23
 -1       282 9.67509E-04 1.05185E-05 0.00000E+00
 -1       283 9.67337E-04 7.77998E-06 2.64698E-23
 -1       284 9.67372E-04 4.49583E-06-1.32349E-23
 -1       285 9.67596E-04 6.97553E-07 0.00000E+00
 -1       301 9.60337E-04-3.02559E-06 0.00000E+00
 -1       302 9.61411E-04-3.12980E-06-3.30872E-24
 -1       303 9.62271E-04-3.23188E-06 0.00000E+00
 -1       304 9.63363E-04-3.33384E-06 0.00000E+00
 -1       305 9.65132E-04-3.43844E-06 0.00000E+00
 -1       306 9.81452E-04-8.50414E-05-1.05879E-22
 -1       307 1.03706E-03-3.18638E-04 0.00000E+00
 -1       308 1.10417E-03-6.65843E-04 0.00000E+00
 -1       309 1.17206E-03-1.07571E-03 2.64698E-23
 -1       310 1.23993E-03-1.47949E-03 0.00000E+00
 -1       311 1.30609E-03-1.80906E-03 0.00000E+00
 -1       312 1.35755E-03-2.01685E-03-1.05879E-22
 -1       313 1.37144E-03-2.06989E-03 0.00000E+00
 -1       314 1.32309E-03-1.96898E-03 0.00000E+00
 -1       315 1.19574E-03-1.73311E-03-5.29396E-23
 -1       316 9.98315E-04-1.40369E-03-1.05879E-22
 -1       317 7.56532E-04-1.02517E-03 0.00000E+00
 -1       318 5.16414E-04-6.48431E-04 1.05879E-22
 -1       319 3.23555E-04-3.24462E-04-2.64698E-23
 -1       320 2.02022E-04-9.71203E-05 0.00000E+00
 -1       336 2.21425E-04-3.82635E-06 0.00000E+00
 -1       337 2.11483E-04-4.42513E-06 0.00000E+00
 -1       338 2.00207E-04-5.03719E-06 1.32349E-23
 -1       339 1.87647E-04-5.66235E-06 0.00000E+00
 -1       340 1.73857E-04-6.30315E-06 0.00000E+00
 -1       406 1.43487E-04 7.95980E-07-1.65436E-24
 -1       407 1.43750E-04 9.09613E-07 8.27181E-25
 -1       408 1.44047E-04 1.02317E-06-3.30872E-24
 -1       409 1.44379E-04 1.13651E-06 8.27181E-25
 -1       410 1.44746E-04 1.24942E-06 1.65436E-24
 -1       521 9.92266E-04-9.41108E-05 0.00000E+00
 -1       522 1.04966E-03-3.47828E-04 0.00000E+00
 -1       523 1.11691E-03-7.24250E-04 1.05879E-22
 -1       524 1.18316E-03-1.16722E-03 0.00000E+00
 -1       525 1.24958E-03-1.60305E-03-1.05879E-22
 -1       526 1.31621E-03-1.95880E-03 0.00000E+00
 -1       527 1.36920E-03-2.18218E-03-1.05879E-22
 -1       528 1.38308E-03-2.23849E-03 0.00000E+00
 -1       529 1.32882E-03-2.12800E-03 0.00000E+00
 -1       530 1.18723E-03-1.87342E-03-5.29396E-23
 -1       531 9.67113E-04-1.51920E-03-1.05879E-22
 -1       532 6.97422E-04-1.11349E-03 0.00000E+00
 -1       533 4.29153E-04-7.09198E-04-1.05879E-22
 -1       534 2.12929E-04-3.59332E-04 0.00000E+00
 -1       535 7.62586E-05-1.11625E-04 0.00000E+00
 -1       536 1.58455E-04 1.75586E-05 6.61744E-24
 -1       537 1.57444E-04 5.99437E-05 3.30872E-24
 -1       538 1.55925E-04 1.13620E-04 0.00000E+00
 -1       539 1.54157E-04 1.71941E-04-1.65436E-24
 -1       540 1.52566E-04 2.26913E-04-3.30872E-24
 -1       541 1.51513E-04 2.70563E-04 0.00000E+00
 -1       542 1.50998E-04 2.98078E-04 3.30872E-24
 -1       543 1.50825E-04 3.04748E-04 1.65436E-24
 -1       544 1.50589E-04 2.91220E-04 3.30872E-24
 -1       545 1.49919E-04 2.58280E-04 0.00000E+00
 -1       546 1.48746E-04 2.11786E-04-3.30872E-24
 -1       547 1.47204E-04 1.57678E-04 0.00000E+00
 -1       548 1.45688E-04 1.04060E-04 0.00000E+00
 -1       549 1.44580E-04 5.90383E-05-1.65436E-24
 -1       550 1.43978E-04 2.82831E-05 1.65436E-24
 -1       551 1.40708E-04-7.36217E-06 0.00000E+00
 -1       552 1.19831E-04-7.82039E-06 0.00000E+00
 -1       553 9.71064E-05-8.31502E-06-8.68540E-24
 -1       554 7.33863E-05-8.83309E-06 0.00000E+00
 -1       555 4.95240E-05-9.35687E-06 0.00000E+00
 -1       556 1.53597E-04 6.69225E-06 0.00000E+00
 -1       557 1.49373E-04 1.75973E-05 0.00000E+00
 -1       558 1.46120E-04 2.59901E-05 0.00000E+00
 -1       559 1.43739E-04 3.21130E-05 0.00000E+00
 -1       560 1.42132E-04 3.62082E-05 0.00000E+00
 -1       561 1.41201E-04 3.85197E-05 0.00000E+00
 -1       562 1.40851E-04 3.92921E-05 0.00000E+00
 -1       563 1.40987E-04 3.87706E-05 0.00000E+00
 -1       564 1.41515E-04 3.72010E-05 0.00000E+00
 -1       565 1.42344E-04 3.48292E-05 0.00000E+00
 -1       566 1.43379E-04 3.19017E-05 0.00000E+00
 -1       567 1.44530E-04 2.86650E-05 0.00000E+00
 -1       568 1.45704E-04 2.53656E-05 1.65436E-24
 -1       569 1.46809E-04 2.22499E-05 0.00000E+00
 -1       570 1.47755E-04 1.95645E-05 0.00000E+00
 -1       571 1.43861E-04 1.63432E-05 0.00000E+00
 -1       572 1.43946E-04 1.52573E-05 0.00000E+00
 -1       573 1.44031E-04 1.41308E-05 1.65436E-24
 -1       574 1.44117E-04 1.29759E-05 0.00000E+00
 -1       575 1.44202E-04 1.18049E-05 3.30872E-24
 -1       576 1.44288E-04 1.06300E-05 0.00000E+00
 -1       577 1.44374E-04 9.46339E-06 6.61744E-24
 -1       578 1.44460E-04 8.31744E-06-1.65436E-24
 -1       579 1.44546E-04 7.20436E-06 0.00000E+00
 -1       580 1.44631E-04 6.13643E-06 6.61744E-24
 -1       581 1.44717E-04 5.12594E-06 0.00000E+00
 -1       582 1.44803E-04 4.18513E-06 3.30872E-24
 -1       583 1.44889E-04 3.32624E-06 0.00000E+00
 -1       584 1.44975E-04 2.56139E-06-6.61744E-24
 -1       585 1.45061E-04 1.90260E-06-6.61744E-24
 -1       586 1.44505E-04 1.74081E-05 1.65436E-24
 -1       587 1.45203E-04 1.74384E-05 4.13590E-25
 -1       588 1.45909E-04 1.74684E-05 0.00000E+00
 -1       589 1.46660E-04 1.74978E-05 0.00000E+00
 -1       590 1.47495E-04 1.75263E-05 0.00000E+00
 -1       591 1.44117E-04 1.64082E-05-1.03398E-25
 -1       592 1.44463E-04 1.54153E-05-2.06795E-25
 -1       593 1.44814E-04 1.44043E-05 0.00000E+00
 -1       594 1.45171E-04 1.33801E-05-4.13590E-25
 -1       595 1.45530E-04 1.23478E-05 0.00000E+00
 -1       596 1.45891E-04 1.13124E-05-4.13590E-25
 -1       597 1.46250E-04 1.02788E-05 0.00000E+00
 -1       598 1.46607E-04 9.25219E-06-4.13590E-25
 -1       599 1.46960E-04 8.23739E-06-4.13590E-25
 -1       600 1.47306E-04 7.23943E-06 0.00000E+00
 -1       601 1.47645E-04 6.26329E-06-8.27181E-25
 -1       602 1.47973E-04 5.31396E-06 0.00000E+00
 -1       603 1.48289E-04 4.39642E-06 0.00000E+00
 -1       604 1.48592E-04 3.51575E-06-1.03398E-25
 -1       605 1.48880E-04 2.67687E-06 0.00000E+00
 -1       606 1.45160E-04 1.01180E-06 0.00000E+00
 -1       607 1.45171E-04 7.54193E-07 0.00000E+00
 -1       608 1.45180E-04 5.82677E-07-3.30872E-24
 -1       609 1.45189E-04 4.91199E-07 0.00000E+00
 -1       610 1.45198E-04 4.73662E-07 0.00000E+00
 -1       611 1.45207E-04 5.23893E-07 0.00000E+00
 -1       612 1.45216E-04 6.35715E-07 0.00000E+00
 -1       613 1.45225E-04 8.02944E-07 0.00000E+00
 -1       614 1.45233E-04 1.01939E-06 0.00000E+00
 -1       615 1.45242E-04 1.27887E-06 0.00000E+00
 -1       616 1.45251E-04 1.57520E-06 1.65436E-24
 -1       617 1.45260E-04 1.90219E-06 0.00000E+00
 -1       618 1.45269E-04 2.25365E-06 0.00000E+00
 -1       619 1.45277E-04 2.62341E-06 0.00000E+00
 -1       620 1.45286E-04 3.00526E-06 0.00000E+00
 -1       621 1.45643E-04 1.44861E-06 3.30872E-24
 -1       622 1.46233E-04 1.53662E-06-8.27181E-25
 -1       623 1.46899E-04 1.62456E-06-3.30872E-24
 -1       624 1.47621E-04 1.71231E-06 8.27181E-25
 -1       625 1.48379E-04 1.79988E-06 0.00000E+00
 -1       626 1.45375E-04 1.04247E-06 0.00000E+00
 -1       627 1.45577E-04 7.95737E-07 1.65436E-24
 -1       628 1.45756E-04 6.12893E-07 3.30872E-24
 -1       629 1.45913E-04 4.85790E-07 1.65436E-24
 -1       630 1.46053E-04 4.06257E-07 0.00000E+00
 -1       631 1.46178E-04 3.66088E-07 0.00000E+00
 -1       632 1.46291E-04 3.57080E-07 0.00000E+00
 -1       633 1.46396E-04 3.71027E-07 1.65436E-24
 -1       634 1.46495E-04 3.99726E-07 3.30872E-24
 -1       635 1.46592E-04 4.34974E-07 0.00000E+00
 -1       636 1.46689E-04 4.68566E-07 0.00000E+00
 -1       637 1.46790E-04 4.92298E-07 0.00000E+00
 -1       638 1.46898E-04 4.97961E-07 0.00000E+00
 -1       639 1.47015E-04 4.77341E-07 1.65436E-24
 -1       640 1.47145E-04 4.22216E-07-1.65436E-24
 -1       656 1.45129E-04 2.89395E-06-6.61744E-24
 -1       657 1.45360E-04 2.37478E-06 0.00000E+00
 -1       658 1.45846E-04 1.85703E-06 1.32349E-23
 -1       659 1.46445E-04 1.33965E-06-6.61744E-24
 -1       660 1.46983E-04 8.20682E-07-6.61744E-24
 -1       661 1.45234E-04 3.74421E-06 0.00000E+00
 -1       662 1.45206E-04 4.02061E-06 0.00000E+00
 -1       663 1.45204E-04 4.22582E-06 0.00000E+00
 -1       664 1.45228E-04 4.36470E-06 8.27181E-25
 -1       665 1.45275E-04 4.44145E-06 1.65436E-24
 -1       666 1.45344E-04 4.46038E-06 0.00000E+00
 -1       667 1.45433E-04 4.42558E-06-1.65436E-24
 -1       668 1.45541E-04 4.34108E-06 8.27181E-25
 -1       669 1.45666E-04 4.21072E-06-1.65436E-24
 -1       670 1.45806E-04 4.03829E-06-8.27181E-25
 -1       671 1.45961E-04 3.82747E-06 0.00000E+00
 -1       672 1.46129E-04 3.58179E-06-8.27181E-25
 -1       673 1.46309E-04 3.30478E-06-1.65436E-24
 -1       674 1.46498E-04 2.99961E-06 0.00000E+00
 -1       675 1.46696E-04 2.67002E-06-4.13590E-25
 -1       676 1.44960E-04 2.77951E-06 0.00000E+00
 -1       677 1.45349E-04 2.68649E-06 0.00000E+00
 -1       678 1.45738E-04 2.59352E-06 0.00000E+00
 -1       679 1.46126E-04 2.50082E-06 0.00000E+00
 -1       680 1.46512E-04 2.40814E-06-1.65436E-24
 -1       771 1.76804E-05 9.10384E-06 0.00000E+00
 -1       772 1.03192E-05 2.46973E-05 0.00000E+00
 -1       773 4.22044E-06 3.70600E-05 5.29396E-23
 -1       774-7.01027E-07 4.63819E-05 0.00000E+00
 -1       775-4.52915E-06 5.28593E-05 0.00000E+00
 -1       776-7.35125E-06 5.66988E-05 0.00000E+00
 -1       777-9.25494E-06 5.81134E-05-5.29396E-23
 -1       778-1.03298E-05 5.73245E-05 0.00000E+00
 -1       779-1.06653E-05 5.45588E-05 0.00000E+00
 -1       780-1.03527E-05 5.00499E-05 0.00000E+00
 -1       781-9.48271E-06 4.40356E-05 0.00000E+00
 -1       782-8.14756E-06 3.67592E-05 2.64698E-23
 -1       783-6.43901E-06 2.84667E-05 0.00000E+00
 -1       784-4.44984E-06 1.94080E-05 0.00000E+00
 -1       785-2.27236E-06 9.83468E-06 0.00000E+00
 -1       786 1.48490E-04 1.63599E-05 0.00000E+00
 -1       787 1.48533E-04 1.52152E-05 4.13590E-25
 -1       788 1.48577E-04 1.41097E-05 8.27181E-25
 -1       789 1.48621E-04 1.30356E-05-8.27181E-25
 -1       790 1.48665E-04 1.19885E-05 1.65436E-24
 -1       791 1.48709E-04 1.09639E-05-8.27181E-25
 -1       792 1.48753E-04 9.95975E-06 1.65436E-24
 -1       793 1.48798E-04 8.97396E-06-8.27181E-25
 -1       794 1.48842E-04 8.00628E-06 1.65436E-24
 -1       795 1.48887E-04 7.05656E-06 0.00000E+00
 -1       796 1.48931E-04 6.12646E-06-1.65436E-24
 -1       797 1.48975E-04 5.21767E-06 0.00000E+00
 -1       798 1.49020E-04 4.33406E-06-1.65436E-24
 -1       799 1.49064E-04 3.47959E-06-8.27181E-25
 -1       800 1.49109E-04 2.66113E-06 1.65436E-24
 -1       801 1.20042E-04 1.54970E-05 0.00000E+00
 -1       802 3.35678E-05 1.02085E-05 1.32349E-23
 -1       803-4.40443E-05 5.51359E-06 5.29396E-23
 -1       804-4.65191E-05 3.69286E-06 2.64698E-23
 -1       805-1.66957E-05 1.70690E-06 0.00000E+00
 -1       806 1.48798E-04 1.63024E-05 1.65436E-24
 -1       807 1.49132E-04 1.50800E-05-8.27181E-25
 -1       808 1.49454E-04 1.38883E-05-1.65436E-24
 -1       809 1.49763E-04 1.27303E-05 1.65436E-24
 -1       810 1.50059E-04 1.16091E-05 0.00000E+00
 -1       811 1.50339E-04 1.05275E-05 1.65436E-24
 -1       812 1.50604E-04 9.48848E-06 0.00000E+00
 -1       813 1.50852E-04 8.49488E-06 8.27181E-25
 -1       814 1.51081E-04 7.54960E-06 0.00000E+00
 -1       815 1.51291E-04 6.65550E-06 0.00000E+00
 -1       816 1.51482E-04 5.81548E-06 0.00000E+00
 -1       817 1.51651E-04 5.03237E-06 8.27181E-25
 -1       818 1.51797E-04 4.30906E-06 0.00000E+00
 -1       819 1.51920E-04 3.64839E-06 0.00000E+00
 -1       820 1.52020E-04 3.05319E-06-1.65436E-24
 -1       821 1.49043E-04 1.02692E-06 0.00000E+00
 -1       822 1.48926E-04-3.94020E-08 0.00000E+00
 -1       823 1.48810E-04-1.18685E-06 0.00000E+00
 -1       824 1.48692E-04-2.28852E-06 1.65436E-24
 -1       825 1.48574E-04-3.22860E-06 0.00000E+00
 -1       826 1.48456E-04-3.89208E-06 0.00000E+00
 -1       827 1.48338E-04-4.23016E-06-3.30872E-24
 -1       828 1.48220E-04-4.19574E-06 0.00000E+00
 -1       829 1.48102E-04-3.83087E-06 3.30872E-24
 -1       830 1.47985E-04-3.17930E-06 1.65436E-24
 -1       831 1.47867E-04-2.35340E-06 0.00000E+00
 -1       832 1.47749E-04-1.46645E-06 0.00000E+00
 -1       833 1.47631E-04-6.46364E-07 0.00000E+00
 -1       834 1.47515E-04-2.06784E-08 0.00000E+00
 -1       835 1.47398E-04 3.29429E-07 0.00000E+00
 -1       836 1.49824E-04 1.99215E-06 3.30872E-24
 -1       837 1.50381E-04 2.10113E-06-1.65436E-24
 -1       838 1.50856E-04 2.20998E-06-3.30872E-24
 -1       839 1.51279E-04 2.31816E-06 0.00000E+00
 -1       840 1.51682E-04 2.42617E-06 4.13590E-25
 -1       856 1.47268E-04 2.06365E-07-4.13590E-25
 -1       857 1.47244E-04 2.10599E-07 0.00000E+00
 -1       858 1.47220E-04 3.17890E-07 4.13590E-25
 -1       859 1.47196E-04 5.09080E-07 0.00000E+00
 -1       860 1.47171E-04 7.64912E-07 0.00000E+00
 -1       861 1.47146E-04 1.06609E-06-4.13590E-25
 -1       862 1.47122E-04 1.39326E-06 0.00000E+00
 -1       863 1.47097E-04 1.72705E-06 0.00000E+00
 -1       864 1.47072E-04 2.04808E-06 0.00000E+00
 -1       865 1.47048E-04 2.33700E-06 4.13590E-25
 -1       866 1.47023E-04 2.57446E-06 0.00000E+00
 -1       867 1.46998E-04 2.74118E-06-4.13590E-25
 -1       868 1.46974E-04 2.81793E-06-8.27181E-25
 -1       869 1.46949E-04 2.78556E-06 0.00000E+00
 -1       870 1.46924E-04 2.62506E-06 0.00000E+00
 -1       871 1.47655E-04 3.21969E-07-4.13590E-25
 -1       872 1.48150E-04 3.16886E-07 0.00000E+00
 -1       873 1.48715E-04 3.11266E-07 0.00000E+00
 -1       874 1.49294E-04 3.05006E-07 0.00000E+00
 -1       875 1.49827E-04 2.98200E-07-2.06795E-25
 -1       876 1.47445E-04 2.18561E-07 0.00000E+00
 -1       877 1.47582E-04 1.72532E-07 0.00000E+00
 -1       878 1.47699E-04 1.79001E-07 3.30872E-24
 -1       879 1.47799E-04 2.31333E-07 0.00000E+00
 -1       880 1.47885E-04 3.22841E-07 3.30872E-24
 -1       881 1.47959E-04 4.46885E-07-1.65436E-24
 -1       882 1.48022E-04 5.96837E-07 0.00000E+00
 -1       883 1.48079E-04 7.66077E-07 0.00000E+00
 -1       884 1.48131E-04 9.47987E-07-3.30872E-24
 -1       885 1.48180E-04 1.13596E-06 1.65436E-24
 -1       886 1.48230E-04 1.32338E-06-3.30872E-24
 -1       887 1.48282E-04 1.50361E-06 1.65436E-24
 -1       888 1.48340E-04 1.67002E-06 0.00000E+00
 -1       889 1.48404E-04 1.81587E-06 1.65436E-24
 -1       890 1.48478E-04 1.93455E-06-1.65436E-24
 -1       891 1.47305E-04 2.26723E-06 1.65436E-24
 -1       892 1.47692E-04 2.21684E-06 4.13590E-25
 -1       893 1.48033E-04 2.16649E-06 8.27181E-25
 -1       894 1.48307E-04 2.11631E-06 0.00000E+00
 -1       895 1.48490E-04 2.06628E-06-8.27181E-25
 -1       956 1.51982E-04 2.14245E-06-3.30872E-24
 -1       957 1.51867E-04 1.83278E-06 8.27181E-25
 -1       958 1.51753E-04 1.58875E-06-1.65436E-24
 -1       959 1.51637E-04 1.40140E-06-1.65436E-24
 -1       960 1.51522E-04 1.26175E-06-3.30872E-24
 -1       961 1.51407E-04 1.16075E-06 1.65436E-24
 -1       962 1.51292E-04 1.08937E-06 3.30872E-24
 -1       963 1.51177E-04 1.03858E-06 0.00000E+00
 -1       964 1.51062E-04 9.99310E-07 0.00000E+00
 -1       965 1.50947E-04 9.62530E-07-1.65436E-24
 -1       966 1.50832E-04 9.19186E-07 3.30872E-24
 -1       967 1.50716E-04 8.60235E-07 0.00000E+00
 -1       968 1.50601E-04 7.76635E-07 0.00000E+00
 -1       969 1.50487E-04 6.59376E-07 0.00000E+00
 -1       970 1.50372E-04 4.99458E-07 0.00000E+00
 -1       971 1.50154E-04 8.73324E-08-3.30872E-24
 -1       972 1.50048E-04-2.54845E-08 0.00000E+00
 -1       973 1.49941E-04-5.99279E-08 3.30872E-24
 -1       974 1.49834E-04-2.60989E-08-1.65436E-24
 -1       975 1.49727E-04 6.59095E-08-3.30872E-24
 -1       976 1.49620E-04 2.05967E-07 0.00000E+00
 -1       977 1.49514E-04 3.83943E-07 0.00000E+00
 -1       978 1.49407E-04 5.89691E-07 1.65436E-24
 -1       979 1.49300E-04 8.13061E-07-3.30872E-24
 -1       980 1.49193E-04 1.04390E-06 0.00000E+00
 -1       981 1.49086E-04 1.27207E-06 3.30872E-24
 -1       982 1.48979E-04 1.48739E-06 0.00000E+00
 -1       983 1.48873E-04 1.67974E-06 0.00000E+00
 -1       984 1.48767E-04 1.83896E-06 0.00000E+00
 -1       985 1.48661E-04 1.95494E-06 0.00000E+00
 -3
    1PSTEP                        24          12           1          
  100CL  112 5.96191E-01         409                     0   12           1
 -4  STRESS      6    1
 -5  SXX         1    4    1    1
 -5  SYY         1    4    2    2
 -5  SZZ         1    4    3    3
 -5  SXY         1    4    1    2
 -5  SYZ         1    4    2    3
 -5  SZX         1    4    3    1
 -1         1-3.48287E+06-1.35950E+06-7.59572E+05-1.46442E+06-2.18279E-11 8.21019E-08
 -1         2 1.32739E+03-1.36133E+06 4.37591E+03 6.28925E+03 4.23867E-10 1.64021E-07
 -1         3-7.63608E+02-1.50956E+06 2.05156E+02-1.70412E+03 6.74341E-10-6.88669E-09
 -1         5-9.48128E+00 3.25443E+05 8.32632E+00-3.22276E-01-1.64010E-10-1.39507E-08
 -1         8-8.69946E+05-2.98367E+05-8.60687E+04-3.72935E+05 2.54659E-11 3.21961E-09
 -1         9 2.09049E+06-7.19331E+05 4.30716E+05-8.48273E+05 2.04949E-08-3.06871E-08
 -1        10-9.09550E+02-1.54171E+06-2.45487E+03-1.06597E+04-3.08501E-09 5.56884E-09
 -1        12-6.07778E+00 3.25460E+05 2.70089E+02-2.36093E+00-2.36724E-10-1.08394E-08
 -1        15 1.55979E+03 8.57193E+02 5.04201E+03 2.77388E+00-2.56193E-10-8.47037E-08
 -1        16 6.25771E+06-5.63194E+05 9.01658E+05-1.07807E+06 1.43385E-08 9.42964E-09
 -1        17 2.01088E+06 1.30754E+06 5.78283E+05 1.40548E+06 5.34346E-09 1.28406E-08
 -1        18 4.18127E+04 6.51807E+03-1.56675E+04-9.45445E+04 1.02186E-08 9.86893E-09
 -1        19 1.04400E+05 1.20121E+05-8.45776E+02 1.98864E+04 5.31691E-10-3.81988E-10
 -1        20-6.05552E+04-4.92462E+05-1.09822E+05 2.70991E+04 6.16789E-10 2.01726E-09
 -1        21-4.25556E+01-2.66199E+05-8.42141E+02 7.10350E+01 3.49493E-09-2.01191E-08
 -1        24 2.95849E+06 3.05501E+06 1.08498E+06 2.69890E+06-9.90743E-08-3.87081E-08
 -1        25-4.05050E+04-3.43364E+05-5.62370E+04-3.05928E+05-2.19570E-09 1.13603E-08
 -1        26-4.33834E+04 7.79484E+04-2.06305E+04-2.34644E+03 1.15870E-09 3.57205E-09
 -1        27-6.95181E+04-2.67317E+05-9.88083E+04 5.99912E+04 4.82335E-09 4.83609E-09
 -1        28 2.02966E+04-7.54993E+04 1.51456E+04 2.04618E+04-4.37353E-10-1.04832E-09
 -1        32-1.49464E+06-2.56134E+06-1.22514E+05-1.45502E+05-3.11338E-08-8.04820E-09
 -1        33-1.55792E+05 7.82198E+04 2.76965E+04-3.52327E+04-8.29156E-10 1.58322E-08
 -1        34-1.95729E+05-2.07124E+04 5.53107E+02 6.36864E+04-8.65626E-10-2.98057E-09
 -1        35-2.07687E+04-2.99700E+04-1.18687E+03 4.63539E+04 6.34851E-10-1.33029E-09
 -1        51 3.73620E+04-2.67779E+05 8.32577E+04-7.70570E+05-1.45519E-11 6.67933E-09
 -1        52 1.49643E+04-2.56338E+05 4.68048E+04-8.98491E+05 5.52973E-10 4.05998E-08
 -1        53 5.83249E+03-2.71153E+05 2.93266E+04-7.67790E+05 7.85803E-10 2.98314E-08
 -1        54 1.48188E+04-2.68381E+05 3.41035E+04-9.01386E+05-1.16415E-10-9.55697E-09
 -1        55 3.03079E+04-2.79628E+05 5.31591E+04-7.67365E+05 2.61934E-10-2.92093E-08
 -1        56-6.61068E+06-7.42393E+05-5.60916E+05-2.57130E+06 5.58794E-09-5.10772E-08
 -1        57-6.90749E+06-1.18006E+06-3.78410E+05-2.46739E+06-1.00772E-09-1.41481E-08
 -1        58-6.71022E+06-9.33814E+05-1.31820E+05-2.55076E+06-1.56469E-08 5.36093E-08
 -1        59-6.79531E+06-9.52462E+05-7.86546E+04-2.48874E+06 9.45374E-09-1.62945E-08
 -1        60-6.72125E+06-9.63886E+05-3.06891E+04-2.55191E+06-8.10360E-10-1.34405E-08
 -1        61-6.77953E+06-9.20070E+05-1.74169E+04-2.49063E+06-1.10178E-08-1.42204E-08
 -1        62-6.72565E+06-9.65371E+05-8.32509E+03-2.54909E+06 5.39535E-09-1.20448E-07
 -1        63-6.76659E+06-9.26530E+05-6.70762E+03-2.50241E+06 1.35824E-08 9.73114E-09
 -1        64-6.73389E+06-9.57486E+05-7.67016E+03-2.53998E+06-5.49699E-09 5.60110E-08
 -1        65-6.74911E+06-9.48611E+05-1.51337E+04-2.52346E+06 1.02609E-08 4.66309E-09
 -1        66-6.74297E+06-9.43507E+05-2.67178E+04-2.52786E+06-1.08821E-08-8.14543E-09
 -1        67-6.74435E+06-9.95173E+05-6.78834E+04-2.54335E+06-3.64344E-09 1.28057E-08
 -1        68-6.73909E+06-9.11553E+05-1.13863E+05-2.52001E+06-5.09317E-10-2.54149E-08
 -1        69-6.83937E+06-1.19444E+06-3.26792E+05-2.52879E+06-2.34104E-09-8.13852E-08
 -1        70-6.64989E+06-7.49217E+05-4.84380E+05-2.54111E+06 2.87400E-09 2.73576E-09
 -1        86-6.87678E+02-1.36417E+06 4.38329E+03-3.14462E+03-1.77965E-09 1.21046E-07
 -1        87 4.33587E+03-1.36035E+06 9.46478E+03 1.10139E+04-3.14901E-09 5.73064E-08
 -1        88-3.65034E+03-1.36518E+06 1.43322E+04-7.86935E+03-3.30056E-09-5.44767E-08
 -1        89 2.71288E+04-1.35038E+06 3.86823E+04 1.65480E+04-4.92446E-09-1.96943E-07
 -1        90-2.33581E+04-1.37416E+06 5.46915E+04-8.67911E+03-3.50337E-09 7.40606E-09
 -1       121-1.05910E+03-1.51235E+06-3.34213E+02 8.48350E+02 2.05404E-10 3.76895E-09
 -1       122-6.63224E+02-1.50960E+06 3.60989E+02-3.40242E+03 3.92843E-09 1.31349E-08
 -1       123-1.07126E+03-1.51242E+06 4.78186E+00 2.53198E+03 1.42461E-09-2.34431E-08
 -1       124 1.85727E+02-1.50940E+06 1.31367E+03-7.07533E+03 7.72752E-09 6.36646E-09
 -1       125-1.50384E+03-1.51286E+06 1.32078E+03 4.50351E+03 2.52930E-09-2.77578E-09
 -1       191-1.02284E+01 3.25470E+05 9.77713E+00 1.62541E-01-1.82625E-10 1.27175E-08
 -1       192-1.02488E+01 3.25443E+05 1.76373E+01-1.21327E+00-2.83416E-10 2.17133E-08
 -1       193-1.22677E+01 3.25469E+05 3.26295E+01 1.06001E+00-4.04704E-10 1.95860E-08
 -1       194-1.27181E+01 3.25446E+05 6.67303E+01-2.82176E+00-1.95485E-10 1.44291E-09
 -1       195-1.61859E+01 3.25467E+05 1.30354E+02 1.78510E+00-5.11385E-10-4.03452E-09
 -1       251-1.85843E+06-1.10364E+04-1.40879E+05-1.04849E+05-3.65617E-10 1.90630E-08
 -1       252-1.30490E+06 1.52229E+04 1.48898E+04 3.22782E+05 1.01973E-08 2.45191E-08
 -1       253-1.60821E+06-7.16888E+03-2.55744E+04-2.16260E+05-1.46838E-08-3.66381E-08
 -1       254-1.56145E+06 3.52951E+04 1.99663E+03 4.27080E+05 1.34554E-08-3.75830E-08
 -1       255-1.62766E+06-1.01132E+04-1.44620E+04-2.10976E+05 3.27700E-08 5.23005E-09
 -1       256-1.25543E+06 2.95566E+04 6.65869E+04 3.02361E+05 1.79339E-08 1.22344E-07
 -1       257-1.88437E+06-2.56763E+04-6.62159E+04-8.95508E+04 1.75478E-08 2.42994E-08
 -1       258-9.77350E+05 2.28640E+04 1.19987E+05-5.12306E+03-5.65342E-09 3.19951E-08
 -1       259-1.87847E+06-2.55360E+04-6.35756E+04 9.51950E+04-3.23962E-09 3.67531E-08
 -1       260-1.26853E+06 3.13082E+04 6.79871E+04-3.08985E+05 3.57977E-08-3.05276E-08
 -1       261-1.62179E+06-1.09160E+04-6.00641E+03 2.13158E+05 4.57303E-08 7.83336E-09
 -1       262-1.55812E+06 4.38536E+04 1.94638E+04-4.26710E+05-2.05762E-09 2.51018E-08
 -1       263-1.61745E+06-1.48489E+04 1.37389E+03 2.14879E+05 1.10203E-08 1.81094E-08
 -1       264-1.26639E+06 6.90487E+04 9.43152E+04-3.16399E+05 9.96552E-08-3.78204E-08
 -1       265-1.88632E+06-5.80828E+04-3.30807E+04 1.00946E+05 3.58632E-08 1.60690E-08
 -1       266-2.82371E+04-1.32030E+04 6.62554E+04-5.93551E+01 1.12777E-10 1.07508E-07
 -1       267 3.27349E+04 1.53894E+04 4.68268E+04 6.84807E+01 7.27596E-11 4.74957E-08
 -1       268-4.38968E+03-2.17951E+03 1.74054E+04-8.72582E+00 9.64064E-11-2.34995E-08
 -1       269 5.18294E+03 2.60847E+03 1.13131E+04 1.01641E+01-7.78755E-11 2.87313E-09
 -1       270-7.77965E+02-4.28590E+02 5.46101E+03-1.37935E+00 7.41238E-11 8.67777E-08
 -1       271-2.58298E+06-3.17461E+05-1.93594E+05-9.98038E+05 5.07862E-09 1.35915E-08
 -1       272-2.68363E+06-4.28666E+05-1.24633E+05-9.62086E+05 4.38831E-09-1.44792E-09
 -1       273-2.61882E+06-3.66509E+05-4.57054E+04-9.90059E+05-6.89636E-09 1.80298E-08
 -1       274-2.64107E+06-3.68968E+05-2.56293E+04-9.74363E+05-4.63956E-09-4.03365E-08
 -1       275-2.62438E+06-3.71093E+05-1.06557E+04-9.87932E+05 6.21094E-09 5.37129E-08
 -1       276-2.63328E+06-3.64578E+05-5.61742E+03-9.78328E+05-7.15772E-09 1.38555E-07
 -1       277-2.62636E+06-3.70354E+05-2.78610E+03-9.86226E+05 8.40919E-09-2.72348E-08
 -1       278-2.62966E+06-3.66797E+05-1.87310E+03-9.81752E+05 1.19717E-08 4.65116E-09
 -1       279-2.62791E+06-3.68867E+05-2.00831E+03-9.84473E+05-4.18913E-09-6.79609E-08
 -1       280-2.62687E+06-3.70235E+05-3.41919E+03-9.85211E+05 1.61863E-08-3.49773E-08
 -1       281-2.62915E+06-3.66950E+05-6.30003E+03-9.82752E+05-3.12320E-09 4.97190E-08
 -1       282-2.62679E+06-3.77345E+05-1.48835E+04-9.88144E+05-4.46107E-09 2.45986E-08
 -1       283-2.62813E+06-3.62086E+05-2.65632E+04-9.81455E+05-3.61069E-09 3.01952E-10
 -1       284-2.64725E+06-4.16195E+05-7.22685E+04-9.85912E+05-1.16706E-08-2.74631E-08
 -1       285-2.60938E+06-3.31630E+05-1.12349E+05-9.83769E+05-1.80771E-08 1.10158E-08
 -1       301 2.09888E+04-2.89979E+05 1.73248E+05-5.36140E+05 2.32831E-10 5.18521E-08
 -1       302 2.25246E+04-2.46446E+05 1.08798E+05-7.84380E+05-9.27685E-10 3.74203E-08
 -1       303-6.63136E+02-2.73552E+05 7.40920E+04-5.34915E+05 1.81899E-11-1.16888E-08
 -1       304 1.74564E+04-2.47275E+05 9.64785E+04-7.83822E+05 1.81899E-10 5.06006E-08
 -1       305 1.45045E+04-2.83189E+05 1.45578E+05-5.36718E+05 4.00178E-10-1.06156E-08
 -1       306-1.48822E+07-2.51413E+06-3.30582E+06-1.95766E+06-4.68572E-08-5.66943E-08
 -1       307 7.04540E+06-1.18445E+06 1.85090E+06-6.78946E+06-4.84652E-07 1.47760E-07
 -1       308-8.08387E+06 2.56326E+05-3.35838E+05 1.56441E+06-1.22236E-07 1.20143E-07
 -1       309-3.25504E+06-5.68403E+05 5.59379E+05-1.12283E+07 2.37924E-07-2.02272E-09
 -1       310-8.64420E+06 1.54141E+05-4.07251E+05 1.41357E+06-1.77533E-09-8.57244E-09
 -1       311 8.31956E+06-1.56139E+06 2.23899E+06-5.79038E+06 3.36207E-07 3.68818E-08
 -1       312-1.49980E+07-2.50598E+06-2.76646E+06-2.52507E+06-1.83936E-08 1.70257E-08
 -1       313 1.33508E+07 2.82775E+06 3.71424E+06 5.39845E+06-1.10856E-07 1.07611E-08
 -1       314-1.11691E+07-5.92749E+06-2.65884E+06-6.09743E+06 3.66650E-07 5.41622E-08
 -1       315-3.23429E+06 8.97865E+06 2.07928E+06 4.88488E+06-3.32373E-07-4.16767E-08
 -1       316-2.76970E+06-5.20217E+06-2.76805E+05-4.34212E+06-6.80040E-07-1.59038E-07
 -1       317-1.32320E+07 9.37786E+06 5.42537E+05-5.54836E+05 4.56435E-07-4.43757E-07
 -1       318-3.00467E+06-5.31224E+06-4.89420E+05-4.41408E+06-4.81639E-07 8.30914E-09
 -1       319-2.40322E+06 9.21073E+06 1.94223E+06 5.06615E+06-4.11383E-08 1.14538E-07
 -1       320-1.16224E+07-6.14342E+06-3.51802E+06-6.00706E+06 9.23756E-08 2.40107E-09
 -1       336-2.18455E+02-1.57479E+06-7.94743E+03 6.09849E+03-1.94623E-08 3.98359E-09
 -1       337-3.12781E+03-1.57525E+06-1.17031E+04-1.45061E+04-3.60690E-08 6.69024E-09
 -1       338 6.76861E+02-1.57418E+06-1.91051E+04 8.32751E+03-2.48783E-08-7.74889E-10
 -1       339-2.09036E+04-1.58699E+06-4.43916E+04-1.88395E+04-4.43351E-08-3.57613E-09
 -1       340 1.42140E+04-1.56401E+06-6.98476E+04 1.03703E+04-2.91220E-08 6.92307E-09
 -1       406 1.43821E+01 3.25455E+05 5.33035E+02 6.10421E-01-5.84180E-10 2.68938E-09
 -1       407 1.79856E+02 3.25554E+05 1.13325E+03 8.97488E+00-1.57286E-10 1.85901E-08
 -1       408 5.77162E+02 3.25373E+05 2.26308E+03-9.83491E+00-8.14566E-10-1.19617E-08
 -1       409 2.44157E+03 3.26276E+05 5.09509E+03 9.97535E+01-9.04947E-11-2.31248E-08
 -1       410 7.02588E+03 3.24729E+05 1.04012E+04-9.48056E+01-9.67702E-10 3.46881E-09
 -1       521-1.69938E+07-3.20080E+06-4.10323E+06-2.01170E+06-5.41331E-08 1.46683E-08
 -1       522 7.75518E+06-1.28188E+06 1.99039E+06-8.77119E+06-2.93934E-07-1.27402E-07
 -1       523-9.44539E+06 1.64731E+05-3.93668E+05 1.92283E+06-1.97615E-08-1.42362E-07
 -1       524-4.94810E+06 1.76739E+05 6.61563E+05-1.38574E+07 5.15554E-07-3.71421E-07
 -1       525-1.01195E+07 6.08786E+03-4.84743E+05 1.74580E+06 3.02942E-07-1.17741E-07
 -1       526 9.54582E+06-1.78230E+06 2.52649E+06-7.49140E+06 3.21306E-08-3.70419E-08
 -1       527-1.71701E+07-3.27554E+06-3.38120E+06-2.69370E+06 1.10245E-07-2.88564E-08
 -1       528 1.56432E+07 3.19526E+06 4.14691E+06 6.49550E+06-3.56522E-08 5.48607E-09
 -1       529-1.27005E+07-7.27585E+06-3.24649E+06-6.83264E+06 3.48664E-08-8.36735E-08
 -1       530-4.67197E+06 1.12488E+07 2.35653E+06 5.49071E+06-9.08040E-08 2.06055E-07
 -1       531-3.19375E+06-6.33292E+06-3.16535E+05-5.00399E+06-5.85656E-07 1.32772E-07
 -1       532-1.63977E+07 1.16007E+07 6.65200E+05-1.75965E+06 2.34359E-07-3.37626E-07
 -1       533-3.40385E+06-6.44117E+06-5.37192E+05-5.05694E+06 3.41097E-08-5.80301E-07
 -1       534-3.85565E+06 1.15577E+07 2.20143E+06 5.65609E+06-7.41566E-08 4.54136E-07
 -1       535-1.31597E+07-7.56888E+06-4.18757E+06-6.72506E+06 1.95578E-08 2.71713E-07
 -1       536-5.43828E+05-3.55579E+04 5.86971E+03-3.34175E+04-5.03360E-09 6.01631E-08
 -1       537-2.12132E+05 3.63735E+04 6.18337E+04 8.08182E+04-8.30734E-08 7.97281E-08
 -1       538-3.85066E+05-1.43785E+02 9.56015E+03-4.92503E+04 1.73666E-08 8.00351E-08
 -1       539-3.22335E+05 3.17326E+03 1.68727E+04 9.27418E+04 1.08955E-07 8.54293E-08
 -1       540-4.36227E+05-2.41418E+02-8.62401E+03-4.55192E+04-7.59860E-09 8.27789E-08
 -1       541-1.13859E+05 8.64824E+03 5.43070E+04 6.11670E+04-3.56714E-08 6.23329E-08
 -1       542-5.87954E+05-1.02234E+04-4.18651E+04-1.73779E+04 4.12456E-08 2.97110E-08
 -1       543 1.26679E+04 1.36858E+04 7.86267E+04-9.80267E+03-1.35460E-08-6.71889E-10
 -1       544-5.59388E+05-8.03859E+03-3.70396E+04 2.52124E+04-2.25346E-08-1.61736E-08
 -1       545-1.79163E+05 4.08655E+03 3.79713E+04-7.41480E+04 8.26185E-09-4.18304E-08
 -1       546-4.01220E+05 3.55687E+03-6.87458E+03 4.68596E+04 2.20882E-08-6.67150E-08
 -1       547-3.34076E+05-4.39488E+03 1.45050E+03-9.49908E+04-6.55573E-08-8.68093E-08
 -1       548-4.08580E+05 3.82329E+03-1.74843E+04 4.62913E+04-7.68730E-08-6.75932E-08
 -1       549-1.66452E+05-2.53609E+03 1.58463E+04-7.11285E+04-4.58150E-08-4.93560E-08
 -1       550-5.64298E+05-2.05192E+03-8.56586E+04 2.27451E+04 9.17225E-09-8.23457E-09
 -1       551 2.89231E+04-7.11424E+05 1.25875E+04-1.11201E+06-7.26795E-08 1.16415E-09
 -1       552 6.44654E+04-7.36688E+05 2.58345E+04-1.58516E+06-5.24160E-08 2.36469E-08
 -1       553 4.77964E+04-7.39133E+05 4.26003E+04-1.10706E+06-8.61910E-08 2.18570E-08
 -1       554 9.61909E+04-7.41402E+05 9.32632E+04-1.58699E+06-5.31727E-08 1.59052E-08
 -1       555 7.70385E+04-7.60003E+05 1.66536E+05-1.10753E+06-9.19463E-08-1.03937E-08
 -1       556 1.58784E+05-2.83311E+05 5.65012E+04-3.29132E+05-1.21217E-08-5.93718E-09
 -1       557 2.64129E+05-3.67969E+05 3.08564E+04-4.19461E+05 5.96629E-10-1.79152E-08
 -1       558 1.50360E+05-2.86020E+05 1.06230E+04-3.25990E+05-6.34464E-09 2.32831E-10
 -1       559 2.45419E+05-3.73899E+05 5.95910E+03-4.31648E+05 1.04774E-08 1.79534E-09
 -1       560 1.41870E+05-2.80629E+05 1.37532E+03-3.31907E+05 5.52973E-09 8.40737E-09
 -1       561 2.34305E+05-3.69780E+05 1.14702E+03-4.39028E+05 1.74623E-10-2.52840E-09
 -1       562 1.35182E+05-2.76404E+05-1.37789E+02-3.36712E+05-3.50701E-09-1.16052E-09
 -1       563 2.26420E+05-3.66344E+05 2.66181E+02-4.44130E+05-7.53789E-09-2.76214E-08
 -1       564 1.30582E+05-2.73519E+05-1.23458E+02-3.39961E+05 9.48785E-09 1.12859E-08
 -1       565 2.21496E+05-3.64203E+05 1.08683E+02-4.47261E+05 8.14907E-09 8.05176E-09
 -1       566 1.28149E+05-2.71970E+05-5.99689E+01-3.41668E+05-6.89033E-09-1.19508E-08
 -1       567 2.19522E+05-3.63336E+05-1.63397E+02-4.48410E+05 1.34887E-08-1.67347E-09
 -1       568 1.27939E+05-2.71854E+05-6.18535E+02-3.41909E+05 4.01633E-09 1.10886E-08
 -1       569 2.19424E+05-3.63301E+05-1.55684E+03-4.46693E+05-8.58563E-10 1.74769E-08
 -1       570 1.30812E+05-2.74357E+05-3.52023E+03-3.41256E+05 4.02360E-09 1.43245E-09
 -1       571 2.46305E+05 8.99218E+03 1.31070E+04-7.05678E+04 1.02318E-09-1.11834E-08
 -1       572 2.48234E+05 3.24231E+03 6.42241E+03-7.74131E+04-3.94721E-10-8.20319E-09
 -1       573 2.47077E+05 8.86185E+02 2.85347E+03-7.04224E+04-1.40744E-09 5.79712E-09
 -1       574 2.47289E+05 4.08971E+02 1.43031E+03-7.75873E+04-5.64796E-10-3.59705E-09
 -1       575 2.47163E+05 1.86514E+02 6.74773E+02-7.04029E+04-2.00100E-09 8.88940E-09
 -1       576 2.47167E+05 1.76810E+02 3.44792E+02-7.76105E+04-7.98480E-09 1.83536E-09
 -1       577 2.47187E+05 1.42216E+02 1.71721E+02-7.04003E+04-4.12001E-09 1.87538E-09
 -1       578 2.47173E+05 1.54695E+02 9.78550E+01-7.76136E+04 1.04410E-09 1.39862E-08
 -1       579 2.47224E+05 1.25653E+02 6.63628E+01-7.04000E+04-2.23554E-09-1.93722E-09
 -1       580 2.47225E+05 1.30225E+02 7.41777E+01-7.76096E+04-2.16969E-08 7.90351E-10
 -1       581 2.47283E+05 9.82521E+01 1.11941E+02-7.04044E+04-4.95129E-09 2.01530E-08
 -1       582 2.47324E+05 1.23403E+02 2.24393E+02-7.75643E+04 2.25646E-09 9.27639E-09
 -1       583 2.47352E+05 1.57815E+02 4.33592E+02-7.04455E+04-7.45786E-11 1.90744E-09
 -1       584 2.47570E+05 5.05848E+02 9.77412E+02-7.72186E+04 1.50612E-09-2.50839E-09
 -1       585 2.47325E+05 1.35236E+03 1.98389E+03-7.07501E+04 3.40151E-10 1.20726E-08
 -1       586-3.03024E+03 8.75197E+04-3.29362E+03-2.17762E+05-1.51840E-09-1.16736E-08
 -1       587-8.91295E+02 8.71529E+04 1.90321E+02-2.39685E+05-2.79761E-09-3.58043E-08
 -1       588 6.53521E+02 8.71209E+04 3.70756E+03-2.17655E+05-4.01997E-10 1.22236E-09
 -1       589 4.56654E+03 8.90962E+04 1.00271E+04-2.39446E+05-2.11367E-09 2.48474E-09
 -1       590 1.39943E+04 8.60183E+04 2.11950E+04-2.18029E+05-2.65482E-09-2.17187E-09
 -1       591-5.48752E+04-1.30728E+04-1.78995E+04-2.50108E+04-2.06387E-09 2.85308E-09
 -1       592-5.76683E+04-1.63546E+04-9.69560E+03-2.84093E+04-3.94562E-09-1.45377E-08
 -1       593-5.66693E+04-1.17698E+04-4.03597E+03-2.63195E+04-3.03885E-10-1.52577E-08
 -1       594-5.51907E+04-1.37348E+04-2.01290E+03-2.85111E+04 7.35554E-11 8.23260E-09
 -1       595-5.68062E+04-1.17652E+04-9.24429E+02-2.63790E+04-5.20203E-10 6.24948E-09
 -1       596-5.50215E+04-1.36150E+04-4.70298E+02-2.84916E+04 8.28642E-10 4.54349E-10
 -1       597-5.68234E+04-1.17772E+04-2.56840E+02-2.63813E+04-3.68516E-10 3.13139E-09
 -1       598-5.50049E+04-1.36103E+04-2.07848E+02-2.84861E+04-6.43257E-09-5.24869E-09
 -1       599-5.68223E+04-1.17775E+04-2.67217E+02-2.63809E+04-1.34605E-09-5.07271E-10
 -1       600-5.50220E+04-1.36159E+04-4.97774E+02-2.84902E+04-5.94696E-10-6.25050E-10
 -1       601-5.68019E+04-1.17657E+04-9.82706E+02-2.63778E+04 3.85921E-09-5.07589E-09
 -1       602-5.52017E+04-1.37427E+04-2.14208E+03-2.85080E+04-1.94677E-09 4.53838E-10
 -1       603-5.66539E+04-1.17730E+04-4.29594E+03-2.63149E+04-2.22076E-09-4.34420E-09
 -1       604-5.78527E+04-1.65158E+04-1.03197E+04-2.83799E+04 9.18135E-10 1.13157E-08
 -1       605-5.47279E+04-1.31740E+04-1.90518E+04-2.49374E+04 7.08098E-10 1.42509E-08
 -1       606 2.71124E+04-1.19250E+04-2.14114E+04 2.55676E+04 2.23554E-09-6.34282E-09
 -1       607 2.34506E+04-3.87700E+03-1.06622E+04 2.87138E+04 1.55615E-09-6.08452E-09
 -1       608 2.55323E+04-6.82853E+02-4.77392E+03 2.53730E+04-1.08412E-09-3.72756E-09
 -1       609 2.51265E+04-2.13058E+02-2.41139E+03 2.89398E+04-3.81260E-09-1.27602E-08
 -1       610 2.53472E+04-8.95830E+00-1.15113E+03 2.53507E+04-9.21136E-09-5.35715E-09
 -1       611 2.52776E+04-2.10141E+00-5.80373E+02 2.89644E+04-1.29039E-08-1.13375E-08
 -1       612 2.53018E+04 6.29460E+00-2.76576E+02 2.53485E+04-5.78802E-09 3.73802E-09
 -1       613 2.52809E+04 4.85647E+00-1.24487E+02 2.89673E+04-3.65799E-09-6.56178E-09
 -1       614 2.52784E+04 4.06735E+00-3.08722E+01 2.53478E+04 1.22000E-08 8.36349E-09
 -1       615 2.52715E+04 8.86480E+00 4.83696E+01 2.89677E+04 3.45754E-08 7.67341E-09
 -1       616 2.52604E+04 8.95017E+00 1.48502E+02 2.53480E+04 1.03737E-08 5.38876E-10
 -1       617 2.52856E+04 4.27840E+01 3.40317E+02 2.89672E+04-1.81694E-08-4.52974E-09
 -1       618 2.52280E+04 1.08802E+02 6.86426E+02 2.53482E+04-9.67839E-09 1.40044E-08
 -1       619 2.55257E+04 5.74957E+02 1.54180E+03 2.89664E+04-8.02061E-10 1.22261E-08
 -1       620 2.49987E+04 1.73779E+03 3.09902E+03 2.53479E+04 3.43903E-09 4.08863E-09
 -1       621 3.30575E+02 2.52522E+05 2.87931E+03 2.39675E+04 3.04453E-10 1.95923E-08
 -1       622 4.16954E+02 2.53214E+05 2.64337E+03 3.48417E+04 4.18368E-10 1.15533E-08
 -1       623 4.79661E+01 2.52678E+05 3.29497E+03 2.38556E+04 3.92845E-10 2.07365E-10
 -1       624 1.61235E+03 2.54273E+05 6.48206E+03 3.49543E+04 5.14433E-10-6.92125E-10
 -1       625 1.60755E+03 2.51398E+05 1.13734E+04 2.38528E+04 6.97582E-10 4.55543E-10
 -1       626 2.21959E+05 5.59763E+04 4.69066E+03 1.12480E+05 3.74484E-09-1.60799E-09
 -1       627 2.19615E+05 5.74774E+04 2.26036E+03 1.16638E+05 4.60204E-10-8.37440E-09
 -1       628 2.22090E+05 5.38110E+04 9.55427E+02 1.13253E+05-3.79350E-09-1.83968E-08
 -1       629 2.19005E+05 5.68795E+04 4.67699E+02 1.16881E+05-1.69030E-09 8.67209E-09
 -1       630 2.22101E+05 5.37078E+04 2.16416E+02 1.13282E+05 1.48793E-08-7.39820E-09
 -1       631 2.18936E+05 5.68597E+04 1.15829E+02 1.16882E+05 3.39253E-08-1.38877E-08
 -1       632 2.22094E+05 5.37135E+04 7.51046E+01 1.13276E+05 1.08457E-08-2.92015E-08
 -1       633 2.18925E+05 5.68634E+04 8.19542E+01 1.16876E+05-2.20462E-09-1.61322E-08
 -1       634 2.22087E+05 5.37129E+04 1.30905E+02 1.13273E+05 8.80846E-09 2.11987E-08
 -1       635 2.18934E+05 5.68634E+04 2.64015E+02 1.16878E+05 1.37595E-09 1.41904E-08
 -1       636 2.22076E+05 5.37096E+04 5.32696E+02 1.13271E+05-2.03829E-09 7.61474E-09
 -1       637 2.19047E+05 5.69469E+04 1.17074E+03 1.16876E+05-3.91969E-09-4.83487E-09
 -1       638 2.22033E+05 5.39691E+04 2.40553E+03 1.13153E+05-8.17840E-09 1.26715E-08
 -1       639 2.20309E+05 5.87040E+04 5.69115E+03 1.16502E+05-1.13957E-08 3.89580E-08
 -1       640 2.21862E+05 5.92125E+04 1.18102E+04 1.10937E+05-1.99680E-09 2.40266E-08
 -1       656 5.77392E+04-1.47154E+06-1.39383E+05-1.18347E+03-2.61934E-10-9.75851E-09
 -1       657-7.63555E+04-1.53450E+06-1.15404E+05 6.72573E+03 3.81988E-11 1.48079E-09
 -1       658 1.83761E+04-1.48945E+06-7.09921E+04-2.84658E+03 2.35559E-10 3.24644E-09
 -1       659-8.23412E+04-1.53734E+06-1.23267E+05 7.99340E+03-1.08412E-09 1.75101E-08
 -1       660 6.37111E+04-1.46871E+06-1.52904E+05-2.45112E+03-1.22236E-09 8.59390E-09
 -1       661 1.63269E+05 1.74283E+04 1.64832E+04 6.38406E+04 1.57343E-10 9.11950E-09
 -1       662 1.72286E+05 2.99320E+04 1.11077E+04 6.04874E+04-1.33537E-09-5.81929E-09
 -1       663 1.66505E+05 2.27178E+04 3.88517E+03 6.29030E+04 7.56472E-10-1.94154E-09
 -1       664 1.68537E+05 2.37442E+04 2.32355E+03 6.16308E+04-3.74030E-10-1.21188E-08
 -1       665 1.66994E+05 2.34423E+04 9.16624E+02 6.27624E+04-7.99787E-11-5.34021E-09
 -1       666 1.67961E+05 2.29140E+04 5.35678E+02 6.18131E+04 2.55791E-09 7.18525E-09
 -1       667 1.67078E+05 2.35263E+04 2.83753E+02 6.27287E+04 2.69011E-10 7.53704E-09
 -1       668 1.67869E+05 2.28514E+04 2.87313E+02 6.18621E+04-6.58133E-10-4.56065E-09
 -1       669 1.67085E+05 2.35031E+04 3.87506E+02 6.27139E+04-2.22822E-09 4.02733E-09
 -1       670 1.67964E+05 2.30600E+04 8.42416E+02 6.18640E+04-3.86387E-09-2.55069E-09
 -1       671 1.66983E+05 2.33219E+04 1.49531E+03 6.27250E+04-2.06234E-09-7.67585E-09
 -1       672 1.68835E+05 2.45147E+04 3.82534E+03 6.16531E+04 2.18506E-09 7.60883E-09
 -1       673 1.66218E+05 2.20851E+04 6.41052E+03 6.29107E+04 9.92372E-10 6.86987E-09
 -1       674 1.74938E+05 3.48124E+04 1.83327E+04 5.98591E+04 3.28384E-10-1.16165E-09
 -1       675 1.60919E+05 1.33123E+04 2.72119E+04 6.44106E+04-3.27418E-10-8.00173E-09
 -1       676 2.18591E+01-2.66129E+05-1.01500E+03-3.55184E+01 1.76129E-10-1.15423E-08
 -1       677-2.69486E+02-2.66374E+05-1.85760E+03 7.09887E+01 2.04736E-09-5.17710E-09
 -1       678 1.79952E+02-2.65955E+05-3.28376E+03-3.54464E+01 4.16094E-11-4.63467E-09
 -1       679-3.28469E+03-2.68357E+05-7.80074E+03 7.07127E+01 2.26373E-09-1.69930E-09
 -1       680 1.96039E+03-2.64148E+05-1.25722E+04-3.48450E+01 1.50976E-10 9.01818E-09
 -1       771-2.79834E+06-6.09306E+05-1.05078E+05-1.28079E+06-2.30648E-08-1.75787E-08
 -1       772-2.74511E+06-6.75594E+05-5.46964E+04-1.35677E+06-1.96742E-08 5.06043E-09
 -1       773-2.81783E+06-5.93945E+05-2.67758E+04-1.28836E+06-1.32131E-08 3.41970E-09
 -1       774-2.73620E+06-6.64411E+05-1.21828E+04-1.37164E+06 1.51631E-08-9.45874E-10
 -1       775-2.82687E+06-5.87548E+05-8.38008E+03-1.29146E+06-7.45058E-09 2.18279E-09
 -1       776-2.74166E+06-6.63355E+05-3.25578E+03-1.38223E+06-8.58563E-09-5.90080E-09
 -1       777-2.83447E+06-5.82004E+05-3.44511E+03-1.29419E+06 5.48607E-09 1.57161E-09
 -1       778-2.74756E+06-6.62470E+05-1.01761E+03-1.39125E+06 3.02680E-09 6.01358E-09
 -1       779-2.84089E+06-5.77232E+05-1.64445E+03-1.29652E+06-5.51518E-09-5.53337E-09
 -1       780-2.75274E+06-6.61607E+05-2.86361E+02-1.39858E+06-3.65981E-09 4.85670E-10
 -1       781-2.84593E+06-5.73422E+05-6.24712E+02-1.29835E+06-2.13913E-08-7.74889E-10
 -1       782-2.75671E+06-6.60846E+05 2.16299E+02-1.40397E+06-2.93476E-08-7.87804E-09
 -1       783-2.84945E+06-5.70807E+05 3.41528E+02-1.29964E+06-4.49654E-09-1.15260E-08
 -1       784-2.75886E+06-6.59950E+05 1.42274E+03-1.40728E+06-1.18744E-08-9.73841E-10
 -1       785-2.85150E+06-5.69271E+05 2.50888E+03-1.30047E+06-2.53676E-08 5.09681E-09
 -1       786 1.24005E+05-9.19722E+03 2.12775E+04-1.84197E+02 1.74680E-09 5.36784E-09
 -1       787 1.33233E+05 1.06477E+04 1.50532E+04-1.96572E+01 3.50396E-09-1.61244E-08
 -1       788 1.27563E+05-1.44158E+03 5.50543E+03-1.55537E+02 2.58913E-09 2.81398E-09
 -1       789 1.29088E+05 1.66795E+03 3.45679E+03-6.51687E+01 1.41885E-09 3.32466E-09
 -1       790 1.28151E+05-2.24831E+02 1.40111E+03-1.38694E+02-1.96782E-09-2.01220E-09
 -1       791 1.28401E+05 2.59853E+02 8.12205E+02-9.43078E+01-5.18275E-09 4.87142E-09
 -1       792 1.28250E+05-3.45338E+01 3.50081E+02-1.26399E+02-1.27794E-09-4.73673E-09
 -1       793 1.28284E+05 3.87503E+01 1.87484E+02-1.17453E+02 5.71654E-11-4.04660E-09
 -1       794 1.28268E+05-3.86824E+00 7.47602E+01-1.15549E+02 2.87606E-09-2.86850E-10
 -1       795 1.28259E+05-3.90551E+00 1.54893E+01-1.40032E+02-2.45623E-09 1.23056E-08
 -1       796 1.28275E+05 8.09965E+00-3.28383E+01-1.03819E+02 2.19663E-09 3.85250E-09
 -1       797 1.28229E+05-6.42352E+01-1.23773E+02-1.66826E+02 1.52407E-09 1.84465E-09
 -1       798 1.28298E+05 5.64153E+01-2.10305E+02-8.87547E+01 5.00493E-10 2.10714E-08
 -1       799 1.28066E+05-4.16627E+02-5.86684E+02-2.03528E+02 3.28275E-09 9.87978E-09
 -1       800 1.28437E+05 3.60196E+02-8.32547E+02-6.71165E+01 8.07088E-11 6.68740E-09
 -1       801 1.80652E+04-5.99450E+06-7.27997E+05 5.35050E+05 5.76110E-08-3.35331E-08
 -1       802 1.52580E+05-2.53766E+05 6.25963E+05-5.89671E+05 1.61268E-07-2.42421E-08
 -1       803-1.68220E+05-7.16789E+06-6.84616E+05 3.71182E+05 5.54210E-08 2.13495E-08
 -1       804 4.94650E+04-1.75202E+06 4.38744E+05 3.46562E+05-5.60303E-08-5.01504E-08
 -1       805 9.55751E+04-4.50795E+06-1.12627E+05-3.99597E+05-2.32212E-08-2.98223E-08
 -1       806-2.67977E+05-5.08977E+04-1.95599E+04-1.05076E+05-2.82625E-09 1.31258E-08
 -1       807-2.69670E+05-4.75501E+04-9.60956E+03-1.09638E+05 3.34626E-09-6.14949E-09
 -1       808-2.68502E+05-4.38609E+04-4.07677E+03-1.08423E+05-1.65392E-09 1.05777E-08
 -1       809-2.67657E+05-4.48438E+04-1.99347E+03-1.09868E+05-6.93512E-09-9.39531E-09
 -1       810-2.68583E+05-4.36157E+04-9.13646E+02-1.08572E+05-2.64845E-09-1.98861E-09
 -1       811-2.67502E+05-4.47343E+04-4.54316E+02-1.09838E+05 9.17680E-10 8.40487E-10
 -1       812-2.68596E+05-4.36362E+04-2.29586E+02-1.08573E+05-4.31737E-09-1.52120E-08
 -1       813-2.67482E+05-4.47356E+04-1.49013E+02-1.09823E+05-4.19277E-09-1.04719E-08
 -1       814-2.68592E+05-4.36435E+04-1.47201E+02-1.08570E+05 4.79304E-10-4.58704E-09
 -1       815-2.67487E+05-4.47370E+04-2.37045E+02-1.09819E+05 3.35422E-09-1.87592E-08
 -1       816-2.68576E+05-4.36416E+04-4.48893E+02-1.08568E+05 4.15366E-09 5.66752E-09
 -1       817-2.67565E+05-4.47794E+04-9.63763E+02-1.09811E+05-6.22822E-09-3.96767E-10
 -1       818-2.68520E+05-4.37760E+04-1.96544E+03-1.08504E+05 1.78125E-08 3.43025E-08
 -1       819-2.68641E+05-4.59686E+04-4.62527E+03-1.09561E+05 1.26693E-08-1.78138E-08
 -1       820-2.68157E+05-4.72642E+04-9.41372E+03-1.07006E+05 1.00799E-08 2.11389E-09
 -1       821-3.28590E+05 1.81408E+04-4.19626E+04 6.99034E+02 5.28396E-09 1.70257E-08
 -1       822-3.46739E+05-2.10009E+04-2.96888E+04-1.39553E+03-2.59397E-10 1.33100E-08
 -1       823-3.35584E+05 2.84502E+03-1.08665E+04 8.23738E+02-3.28702E-09-6.98128E-09
 -1       824-3.38549E+05-3.29112E+03-6.83358E+03-1.26555E+03 6.17220E-10 3.42106E-09
 -1       825-3.36777E+05 4.44172E+02-2.81636E+03 5.69063E+02 3.57709E-09 9.61347E-09
 -1       826-3.37134E+05-5.22067E+02-1.68090E+03-5.00624E+02 4.70740E-09 4.88129E-09
 -1       827-3.36997E+05 7.65147E+01-8.92144E+02 5.87968E+01 7.60025E-10 3.25841E-09
 -1       828-3.36943E+05-1.58618E+02-7.63256E+02 5.27794E+02-2.16848E-09 4.85819E-09
 -1       829-3.36968E+05 8.09056E+01-9.07656E+02-4.59372E+02 1.83164E-10 1.00838E-08
 -1       830-3.37210E+05-5.45840E+02-1.75577E+03 1.31931E+03 8.14278E-10-8.07009E-09
 -1       831-3.36732E+05 4.64913E+02-2.91967E+03-7.32729E+02-2.24607E-09-3.23701E-09
 -1       832-3.38634E+05-3.42632E+03-7.11384E+03 1.48801E+03-1.56057E-09 1.54740E-08
 -1       833-3.35546E+05 2.95979E+03-1.13115E+04-6.28077E+02-2.13690E-09-2.19188E-10
 -1       834-3.47077E+05-2.18525E+04-3.08841E+04 9.44157E+02-1.90585E-09 3.08137E-09
 -1       835-3.28289E+05 1.88757E+04-4.36782E+04-1.88863E+02 4.98284E-09-3.60524E-09
 -1       836-1.15259E+03 3.12427E+05 1.91134E+04-1.60327E+04-2.51930E-09 1.05365E-08
 -1       837 4.12793E+03 3.18388E+05 1.62932E+04-3.23945E+04-2.63208E-09 1.69457E-08
 -1       838-4.48868E+02 3.14083E+05 1.67692E+04-1.59665E+04-2.13277E-09 6.60862E-09
 -1       839 1.06731E+04 3.23266E+05 3.18877E+04-3.24381E+04-2.01180E-09 8.91663E-09
 -1       840-3.26277E+03 3.07502E+05 5.09213E+04-1.59902E+04-2.05364E-09-8.51770E-09
 -1       856-6.65692E+04 7.70329E+03-2.03002E+04-4.07512E+02 4.65377E-10 4.01906E-09
 -1       857-7.49445E+04-9.04194E+03-1.39753E+04 5.05997E+03 1.65733E-09 5.09226E-09
 -1       858-6.98816E+04 1.07978E+03-5.26788E+03-4.30041E+02 4.30362E-10-4.45084E-09
 -1       859-7.11419E+04-1.26170E+03-3.18008E+03 5.09474E+03-1.10776E-09 7.59064E-09
 -1       860-7.03767E+04 1.50639E+02-1.33462E+03-4.42243E+02-1.73003E-10-1.69902E-08
 -1       861-7.05722E+04-1.71840E+02-7.38112E+02 5.11144E+03-3.49047E-10-1.13902E-08
 -1       862-7.04539E+04 2.00832E+01-3.14662E+02-4.46743E+02 1.43763E-09 4.74074E-11
 -1       863-7.04788E+04-1.47345E+01-1.32419E+02 5.11377E+03 3.95771E-09 3.11829E-09
 -1       864-7.04704E+04-2.95257E+00 5.25593E+00-4.44582E+02 5.01799E-10-2.33796E-09
 -1       865-7.04364E+04 4.55792E+01 1.55864E+02 5.10223E+03 9.42919E-10-6.45036E-09
 -1       866-7.04945E+04-4.04542E+01 3.34668E+02-4.35194E+02 6.54097E-10-7.88393E-09
 -1       867-7.02735E+04 3.36032E+02 8.37003E+02 5.07667E+03 5.34044E-10 1.91790E-09
 -1       868-7.06292E+04-2.88767E+02 1.39398E+03-4.19027E+02-1.28313E-09 3.86012E-09
 -1       869-6.92475E+04 2.40284E+03 3.71667E+03 5.03413E+03-3.62442E-09-6.60447E-09
 -1       870-7.15141E+04-2.05201E+03 5.39297E+03-3.92629E+02-1.74794E-09-4.86534E-09
 -1       871-4.89681E+03-1.45140E+04-1.65254E+04 1.10154E+05-1.14051E-09 6.37374E-09
 -1       872-1.96063E+03-1.82846E+04-6.84097E+03 1.42820E+05-3.24599E-09 1.13491E-08
 -1       873 1.34547E+02-1.64954E+04 6.97831E+02 1.09913E+05-1.72531E-09 1.03528E-08
 -1       874 2.63795E+03-1.42866E+04 8.75450E+03 1.42857E+05-3.48427E-09 1.38825E-08
 -1       875 5.85500E+03-1.85780E+04 1.95957E+04 1.10115E+05-1.46792E-09-2.15550E-09
 -1       876 2.57594E+05 4.38060E+04 1.34125E+04 1.03836E+05 1.19337E-09 5.08953E-09
 -1       877 2.58439E+05 4.66715E+04 7.16274E+03 1.07720E+05 1.09367E-10 1.02548E-08
 -1       878 2.58847E+05 4.23215E+04 3.00085E+03 1.04936E+05-2.91539E-09 6.22822E-09
 -1       879 2.56616E+05 4.48528E+04 1.49510E+03 1.07813E+05 3.51679E-09 6.44025E-09
 -1       880 2.58937E+05 4.23057E+04 6.96306E+02 1.04981E+05 3.94948E-10 9.00735E-09
 -1       881 2.56495E+05 4.47752E+04 3.71548E+02 1.07793E+05 2.73303E-10-1.02064E-08
 -1       882 2.58946E+05 4.23171E+04 2.37217E+02 1.04983E+05 1.52363E-09 3.52760E-09
 -1       883 2.56486E+05 4.47713E+04 2.54232E+02 1.07786E+05 1.24817E-09 2.76737E-09
 -1       884 2.58940E+05 4.23145E+04 4.03717E+02 1.04983E+05 2.15368E-09 3.15515E-09
 -1       885 2.56518E+05 4.47770E+04 8.11256E+02 1.07796E+05-5.48397E-10-2.45637E-09
 -1       886 2.58909E+05 4.22908E+04 1.63485E+03 1.04980E+05-4.19426E-10 2.70120E-10
 -1       887 2.56805E+05 4.49654E+04 3.57105E+03 1.07838E+05 2.94347E-09 1.48111E-09
 -1       888 2.58683E+05 4.23304E+04 7.19577E+03 1.04865E+05-1.56345E-09 9.89985E-10
 -1       889 2.61091E+05 4.94192E+04 1.71897E+04 1.07705E+05 1.30120E-09 1.51047E-08
 -1       890 2.55750E+05 4.58153E+04 3.21955E+04 1.02123E+05 9.59062E-10 8.85120E-09
 -1       891-1.19943E+02-1.44125E+05-1.74494E+03 2.53776E+04-3.72211E-10 1.12482E-08
 -1       892-2.17275E+02-1.44564E+05-1.88169E+03 3.84627E+04 7.05086E-10-3.37150E-09
 -1       893-3.84721E+00-1.44180E+05-2.67211E+03 2.53836E+04-2.55341E-10 4.30373E-09
 -1       894-1.39481E+03-1.45578E+05-5.53599E+03 3.83231E+04 8.53561E-10 2.50834E-08
 -1       895-1.09898E+03-1.43027E+05-9.75104E+03 2.55169E+04-2.68756E-10-7.82620E-09
 -1       956-3.28212E+05-4.65101E+03-1.16142E+04 2.41569E+04 7.80074E-09 3.54748E-09
 -1       957-3.30499E+05-1.59838E+03-5.96188E+03 2.90689E+04 9.33323E-09-7.33553E-09
 -1       958-3.29248E+05-1.57926E+02-2.68625E+03 2.40171E+04 9.71795E-09-3.38810E-09
 -1       959-3.29426E+05-5.99800E+01-1.37194E+03 2.92259E+04 7.26868E-09 7.27778E-09
 -1       960-3.29345E+05 7.83362E+00-6.68967E+02 2.40032E+04 6.01904E-09 1.31831E-08
 -1       961-3.29351E+05 2.11513E-01-3.54976E+02 2.92420E+04 3.17050E-09 8.23775E-10
 -1       962-3.29366E+05 4.75575E+00-2.03478E+02 2.40010E+04-8.05130E-10 5.14387E-09
 -1       963-3.29349E+05 2.56593E+00-1.63845E+02 2.92448E+04-8.98922E-10 1.39607E-08
 -1       964-3.29370E+05 7.24471E+00-1.99673E+02 2.40004E+04-2.28812E-09-3.77463E-09
 -1       965-3.29361E+05 5.51057E+00-3.45702E+02 2.92444E+04-4.81691E-10 2.67505E-09
 -1       966-3.29357E+05 1.52369E+01-6.49528E+02 2.40014E+04-1.63982E-09 1.88334E-09
 -1       967-3.29442E+05-4.77996E+01-1.33234E+03 2.92337E+04-7.17114E-09-7.37646E-09
 -1       968-3.29271E+05-1.40877E+02-2.60785E+03 2.40111E+04-9.01582E-09-2.39065E-08
 -1       969-3.30494E+05-1.53747E+03-5.78985E+03 2.91204E+04-1.22745E-08-8.91930E-09
 -1       970-3.28271E+05-4.50127E+03-1.12782E+04 2.41128E+04-5.33373E-09 5.60067E-09
 -1       971-3.04647E+05-1.55603E+03-8.52408E+03 1.40399E+04 1.41881E-10-1.09540E-08
 -1       972-3.06710E+05-1.12952E+03-4.64214E+03 1.95247E+04 4.92946E-10-5.71390E-09
 -1       973-3.05596E+05-3.17949E+01-2.07899E+03 1.39255E+04 8.74024E-10 2.51566E-09
 -1       974-3.05731E+05-3.96299E+01-1.07737E+03 1.96511E+04 1.43950E-09 5.18389E-09
 -1       975-3.05671E+05 8.79949E+00-5.38200E+02 1.39144E+04 5.33873E-10 1.68825E-10
 -1       976-3.05674E+05 5.60328E+00-3.09894E+02 1.96649E+04-3.21279E-10-1.20713E-08
 -1       977-3.05685E+05 9.10039E+00-2.23828E+02 1.39116E+04 5.02496E-09-7.95933E-09
 -1       978-3.05678E+05 1.10001E+01-2.60441E+02 1.96689E+04 9.55924E-09-2.58361E-08
 -1       979-3.05685E+05 1.64309E+01-4.17170E+02 1.39104E+04 3.62832E-09-1.82922E-10
 -1       980-3.05709E+05 1.36594E+01-8.04702E+02 1.96696E+04 2.32808E-09 1.79193E-09
 -1       981-3.05660E+05 3.65156E+01-1.55810E+03 1.39109E+04-1.96280E-09 5.75341E-09
 -1       982-3.05923E+05-1.01415E+02-3.22032E+03 1.96636E+04-4.38911E-09-2.32223E-08
 -1       983-3.05463E+05-6.31800E+01-6.25696E+03 1.39166E+04-3.60319E-09-1.33678E-08
 -1       984-3.08932E+05-3.36910E+03-1.40119E+04 1.95847E+04-6.30462E-09 2.65914E-09
 -1       985-3.02631E+05-4.64162E+03-2.57303E+04 1.39896E+04-2.43517E-09 4.20550E-09
 -3
    1PSTEP                        25          13           1          
  100CL  113 6.09375E-01         409                     0   13           1
 -4  DISP        4    1
 -5  D1          1    2    1    0
 -5  D2          1    2    2    0
 -5  D3          1    2    3    0
 -5  ALL         1    2    0    0    1ALL
 -1         1 1.30376E-03 0.00000E+00 0.00000E+00
 -1         2 1.22750E-03 3.11365E-29-1.32349E-23
 -1         3 2.73111E-04 8.55571E-27 0.00000E+00
 -1         5 1.49689E-04 6.15015E-26 0.00000E+00
 -1         8 1.28434E-03-6.11058E-07 0.00000E+00
 -1         9 1.25218E-03-3.63671E-06 0.00000E+00
 -1        10 2.47052E-04-3.38225E-06 6.61744E-24
 -1        12 1.50563E-04 7.07632E-07 0.00000E+00
 -1        15 1.26093E-03-6.72636E-07 0.00000E+00
 -1        16 1.26787E-03-4.44737E-06 0.00000E+00
 -1        17 1.69647E-04-7.30246E-06 0.00000E+00
 -1        18 1.51768E-04 2.07938E-05 0.00000E+00
 -1        19 1.53183E-04 1.41114E-06 0.00000E+00
 -1        20 1.53329E-04 7.25912E-07 0.00000E+00
 -1        21 1.52575E-04-2.80988E-06 0.00000E+00
 -1        24 2.72609E-05-1.04995E-05 0.00000E+00
 -1        25 1.57665E-04 2.09790E-05 0.00000E+00
 -1        26 1.58366E-04 1.95541E-06 0.00000E+00
 -1        27 1.56435E-04-2.43987E-06 0.00000E+00
 -1        28 1.56061E-04-3.37779E-06 0.00000E+00
 -1        32 0.00000E+00 0.00000E+00 0.00000E+00
 -1        33 1.62496E-04 2.61897E-06 0.00000E+00
 -1        34 1.60605E-04-2.47948E-06 0.00000E+00
 -1        35 1.58861E-04-3.68555E-06 0.00000E+00
 -1        51 1.30251E-03-1.10448E-07 0.00000E+00
 -1        52 1.30018E-03-2.08604E-07 0.00000E+00
 -1        53 1.29699E-03-3.05618E-07 0.00000E+00
 -1        54 1.29314E-03-4.03502E-07 0.00000E+00
 -1        55 1.28885E-03-5.03636E-07-3.30872E-24
 -1        56 1.30069E-03-3.24983E-07-5.29396E-23
 -1        57 1.29699E-03 7.20988E-07-2.64698E-23
 -1        58 1.29284E-03 2.96827E-06 0.00000E+00
 -1        59 1.28833E-03 6.11467E-06 5.29396E-23
 -1        60 1.28363E-03 9.75184E-06-1.05879E-22
 -1        61 1.27892E-03 1.34308E-05-5.29396E-23
 -1        62 1.27436E-03 1.66985E-05-1.05879E-22
 -1        63 1.27012E-03 1.91281E-05 0.00000E+00
 -1        64 1.26631E-03 2.04068E-05 0.00000E+00
 -1        65 1.26302E-03 2.02995E-05 5.29396E-23
 -1        66 1.26028E-03 1.87588E-05-1.05879E-22
 -1        67 1.25805E-03 1.58350E-05 5.29396E-23
 -1        68 1.25625E-03 1.17654E-05 0.00000E+00
 -1        69 1.25477E-03 6.87112E-06 0.00000E+00
 -1        70 1.25344E-03 1.57317E-06-5.29396E-23
 -1        86 1.22858E-03-5.96185E-07 0.00000E+00
 -1        87 1.23181E-03-1.19695E-06 0.00000E+00
 -1        88 1.23654E-03-1.80331E-06 0.00000E+00
 -1        89 1.24212E-03-2.41479E-06 1.32349E-23
 -1        90 1.24763E-03-3.02561E-06 0.00000E+00
 -1       121 2.72379E-04-5.51962E-07 0.00000E+00
 -1       122 2.70185E-04-1.10598E-06 0.00000E+00
 -1       123 2.66537E-04-1.66407E-06-1.32349E-23
 -1       124 2.61451E-04-2.22823E-06 6.61744E-24
 -1       125 2.54947E-04-2.80023E-06 0.00000E+00
 -1       191 1.49714E-04 1.17956E-07 0.00000E+00
 -1       192 1.49786E-04 2.35908E-07 8.27181E-25
 -1       193 1.49908E-04 3.53856E-07 0.00000E+00
 -1       194 1.50077E-04 4.71796E-07-8.27181E-25
 -1       195 1.50296E-04 5.89723E-07-3.30872E-24
 -1       251 1.28361E-03 1.72269E-05 0.00000E+00
 -1       252 1.28203E-03 6.25419E-05 0.00000E+00
 -1       253 1.27946E-03 1.27203E-04 0.00000E+00
 -1       254 1.27616E-03 2.02631E-04 0.00000E+00
 -1       255 1.27292E-03 2.77307E-04-1.32349E-23
 -1       256 1.27048E-03 3.39729E-04 0.00000E+00
 -1       257 1.26904E-03 3.81737E-04 0.00000E+00
 -1       258 1.26835E-03 3.95642E-04 0.00000E+00
 -1       259 1.26765E-03 3.81115E-04 0.00000E+00
 -1       260 1.26619E-03 3.38523E-04-6.61744E-24
 -1       261 1.26372E-03 2.75584E-04-1.32349E-23
 -1       262 1.26044E-03 2.00484E-04 6.61744E-24
 -1       263 1.25712E-03 1.24727E-04-1.32349E-23
 -1       264 1.25453E-03 5.98342E-05 0.00000E+00
 -1       265 1.25294E-03 1.43452E-05-2.64698E-23
 -1       266 1.28044E-03-6.30166E-07 3.30872E-24
 -1       267 1.27654E-03-6.39351E-07-8.27181E-25
 -1       268 1.27263E-03-6.49164E-07-8.27181E-25
 -1       269 1.26873E-03-6.57116E-07 0.00000E+00
 -1       270 1.26483E-03-6.65024E-07-2.06795E-25
 -1       271 1.28195E-03 2.87966E-06 2.64698E-23
 -1       272 1.27959E-03 6.18180E-06 0.00000E+00
 -1       273 1.27733E-03 9.22137E-06 0.00000E+00
 -1       274 1.27519E-03 1.19132E-05 0.00000E+00
 -1       275 1.27322E-03 1.41803E-05-2.64698E-23
 -1       276 1.27143E-03 1.59492E-05 0.00000E+00
 -1       277 1.26986E-03 1.71534E-05 0.00000E+00
 -1       278 1.26852E-03 1.77329E-05-1.32349E-23
 -1       279 1.26744E-03 1.76357E-05 0.00000E+00
 -1       280 1.26662E-03 1.68183E-05 0.00000E+00
 -1       281 1.26609E-03 1.52464E-05 2.64698E-23
 -1       282 1.26585E-03 1.28950E-05 0.00000E+00
 -1       283 1.26591E-03 9.74911E-06 2.64698E-23
 -1       284 1.26626E-03 5.80450E-06 0.00000E+00
 -1       285 1.26691E-03 1.06498E-06 2.64698E-23
 -1       301 1.25504E-03-3.79203E-06 1.32349E-23
 -1       302 1.25711E-03-3.91894E-06 3.30872E-24
 -1       303 1.25890E-03-4.04324E-06 6.61744E-24
 -1       304 1.26094E-03-4.16745E-06 0.00000E+00
 -1       305 1.26376E-03-4.29517E-06 1.32349E-23
 -1       306 1.27866E-03-1.00885E-04 1.05879E-22
 -1       307 1.33881E-03-3.75222E-04-5.29396E-23
 -1       308 1.40656E-03-7.82590E-04 0.00000E+00
 -1       309 1.47097E-03-1.26259E-03 0.00000E+00
 -1       310 1.53589E-03-1.73356E-03-1.05879E-22
 -1       311 1.60353E-03-2.11474E-03 5.29396E-23
 -1       312 1.65873E-03-2.35072E-03 1.05879E-22
 -1       313 1.67236E-03-2.40500E-03-5.29396E-23
 -1       314 1.61086E-03-2.27961E-03-1.05879E-22
 -1       315 1.45181E-03-2.00070E-03-5.29396E-23
 -1       316 1.20503E-03-1.61729E-03 0.00000E+00
 -1       317 9.02934E-04-1.18067E-03 0.00000E+00
 -1       318 6.04395E-04-7.47368E-04 0.00000E+00
 -1       319 3.67323E-04-3.74186E-04 0.00000E+00
 -1       320 2.20467E-04-1.11680E-04 0.00000E+00
 -1       336 2.37710E-04-3.99798E-06 0.00000E+00
 -1       337 2.26874E-04-4.62832E-06-6.61744E-24
 -1       338 2.14591E-04-5.27439E-06 0.00000E+00
 -1       339 2.00917E-04-5.93599E-06-6.61744E-24
 -1       340 1.85913E-04-6.61599E-06 0.00000E+00
 -1       406 1.50878E-04 8.25513E-07 0.00000E+00
 -1       407 1.51242E-04 9.43341E-07-1.65436E-24
 -1       408 1.51655E-04 1.06108E-06-3.30872E-24
 -1       409 1.52116E-04 1.17858E-06 8.27181E-25
 -1       410 1.52626E-04 1.29563E-06 1.65436E-24
 -1       521 1.29555E-03-1.10093E-04 1.05879E-22
 -1       522 1.35664E-03-4.03923E-04 0.00000E+00
 -1       523 1.42300E-03-8.39289E-04 0.00000E+00
 -1       524 1.48388E-03-1.35043E-03 0.00000E+00
 -1       525 1.54562E-03-1.85132E-03 1.05879E-22
 -1       526 1.61252E-03-2.25700E-03 0.00000E+00
 -1       527 1.66859E-03-2.50715E-03 1.05879E-22
 -1       528 1.68183E-03-2.56382E-03 0.00000E+00
 -1       529 1.61381E-03-2.42845E-03-1.05879E-22
 -1       530 1.43954E-03-2.13153E-03 5.29396E-23
 -1       531 1.16874E-03-1.72509E-03 0.00000E+00
 -1       532 8.37422E-04-1.26401E-03 0.00000E+00
 -1       533 5.09498E-04-8.05875E-04 0.00000E+00
 -1       534 2.47913E-04-4.08602E-04 0.00000E+00
 -1       535 8.52223E-05-1.26558E-04-1.05879E-22
 -1       536 1.69144E-04 1.94924E-05-6.61744E-24
 -1       537 1.67952E-04 6.60287E-05-3.30872E-24
 -1       538 1.66141E-04 1.25082E-04 0.00000E+00
 -1       539 1.64021E-04 1.89363E-04 1.65436E-24
 -1       540 1.62111E-04 2.50038E-04-3.30872E-24
 -1       541 1.60854E-04 2.98297E-04 1.65436E-24
 -1       542 1.60249E-04 3.28838E-04-3.30872E-24
 -1       543 1.60066E-04 3.36473E-04 0.00000E+00
 -1       544 1.59811E-04 3.21875E-04-3.30872E-24
 -1       545 1.59035E-04 2.85876E-04 0.00000E+00
 -1       546 1.57651E-04 2.34888E-04-3.30872E-24
 -1       547 1.55816E-04 1.75413E-04 0.00000E+00
 -1       548 1.54006E-04 1.16406E-04-3.30872E-24
 -1       549 1.52690E-04 6.68205E-05-1.65436E-24
 -1       550 1.51985E-04 3.29006E-05 1.65436E-24
 -1       551 1.50020E-04-7.74774E-06 0.00000E+00
 -1       552 1.27596E-04-8.24449E-06 3.30872E-24
 -1       553 1.03235E-04-8.78232E-06-3.03730E-24
 -1       554 7.78100E-05-9.34670E-06 6.61744E-24
 -1       555 5.21956E-05-9.91807E-06 2.64698E-23
 -1       556 1.63866E-04 7.55560E-06 0.00000E+00
 -1       557 1.59241E-04 1.94815E-05 0.00000E+00
 -1       558 1.55661E-04 2.87123E-05 0.00000E+00
 -1       559 1.53021E-04 3.55042E-05 0.00000E+00
 -1       560 1.51214E-04 4.01134E-05 0.00000E+00
 -1       561 1.50138E-04 4.27980E-05 0.00000E+00
 -1       562 1.49691E-04 4.38169E-05 0.00000E+00
 -1       563 1.49773E-04 4.34296E-05 0.00000E+00
 -1       564 1.50284E-04 4.18964E-05 0.00000E+00
 -1       565 1.51127E-04 3.94775E-05 0.00000E+00
 -1       566 1.52202E-04 3.64340E-05 0.00000E+00
 -1       567 1.53412E-04 3.30268E-05 3.30872E-24
 -1       568 1.54660E-04 2.95171E-05-2.06795E-25
 -1       569 1.55850E-04 2.61659E-05 0.00000E+00
 -1       570 1.56883E-04 2.32343E-05 0.00000E+00
 -1       571 1.51854E-04 1.95404E-05 0.00000E+00
 -1       572 1.51941E-04 1.82323E-05-8.27181E-25
 -1       573 1.52030E-04 1.68817E-05 3.30872E-24
 -1       574 1.52118E-04 1.55017E-05 1.65436E-24
 -1       575 1.52207E-04 1.41053E-05 0.00000E+00
 -1       576 1.52295E-04 1.27057E-05 1.65436E-24
 -1       577 1.52384E-04 1.13158E-05 0.00000E+00
 -1       578 1.52472E-04 9.94897E-06 0.00000E+00
 -1       579 1.52561E-04 8.61817E-06 6.61744E-24
 -1       580 1.52650E-04 7.33656E-06 0.00000E+00
 -1       581 1.52739E-04 6.11729E-06 0.00000E+00
 -1       582 1.52827E-04 4.97342E-06 0.00000E+00
 -1       583 1.52916E-04 3.91807E-06 0.00000E+00
 -1       584 1.53005E-04 2.96419E-06 3.30872E-24
 -1       585 1.53094E-04 2.12463E-06 0.00000E+00
 -1       586 1.52701E-04 2.08266E-05 0.00000E+00
 -1       587 1.53603E-04 2.08587E-05-2.06795E-25
 -1       588 1.54512E-04 2.08906E-05-8.27181E-25
 -1       589 1.55466E-04 2.09218E-05 0.00000E+00
 -1       590 1.56505E-04 2.09521E-05 0.00000E+00
 -1       591 1.52186E-04 1.96112E-05-2.06795E-25
 -1       592 1.52609E-04 1.84054E-05-2.06795E-25
 -1       593 1.53038E-04 1.71824E-05-8.27181E-25
 -1       594 1.53471E-04 1.59469E-05 0.00000E+00
 -1       595 1.53908E-04 1.47041E-05-8.27181E-25
 -1       596 1.54345E-04 1.34588E-05-4.13590E-25
 -1       597 1.54781E-04 1.22160E-05 0.00000E+00
 -1       598 1.55214E-04 1.09805E-05 0.00000E+00
 -1       599 1.55642E-04 9.75743E-06 0.00000E+00
 -1       600 1.56065E-04 8.55156E-06-2.06795E-25
 -1       601 1.56479E-04 7.36786E-06-4.13590E-25
 -1       602 1.56883E-04 6.21124E-06 0.00000E+00
 -1       603 1.57275E-04 5.08663E-06-2.06795E-25
 -1       604 1.57653E-04 3.99905E-06 5.16988E-26
 -1       605 1.58016E-04 2.95334E-06 0.00000E+00
 -1       606 1.53196E-04 8.98414E-07 0.00000E+00
 -1       607 1.53207E-04 4.75965E-07 0.00000E+00
 -1       608 1.53216E-04 1.38496E-07 0.00000E+00
 -1       609 1.53225E-04-1.19969E-07 0.00000E+00
 -1       610 1.53234E-04-3.05451E-07-3.30872E-24
 -1       611 1.53243E-04-4.24044E-07 0.00000E+00
 -1       612 1.53251E-04-4.81844E-07 0.00000E+00
 -1       613 1.53260E-04-4.84959E-07 0.00000E+00
 -1       614 1.53269E-04-4.39496E-07-1.65436E-24
 -1       615 1.53278E-04-3.51563E-07 0.00000E+00
 -1       616 1.53286E-04-2.27267E-07 0.00000E+00
 -1       617 1.53295E-04-7.27144E-08 0.00000E+00
 -1       618 1.53304E-04 1.05985E-07 0.00000E+00
 -1       619 1.53313E-04 3.02728E-07 0.00000E+00
 -1       620 1.53321E-04 5.11406E-07 0.00000E+00
 -1       621 1.53852E-04 1.50217E-06-3.30872E-24
 -1       622 1.54628E-04 1.59347E-06-1.65436E-24
 -1       623 1.55490E-04 1.68468E-06 0.00000E+00
 -1       624 1.56415E-04 1.77568E-06 0.00000E+00
 -1       625 1.57381E-04 1.86647E-06 0.00000E+00
 -1       626 1.53476E-04 9.30189E-07 0.00000E+00
 -1       627 1.53743E-04 5.19116E-07-1.65436E-24
 -1       628 1.53987E-04 1.70148E-07 0.00000E+00
 -1       629 1.54211E-04-1.24869E-07-1.65436E-24
 -1       630 1.54418E-04-3.74107E-07 0.00000E+00
 -1       631 1.54610E-04-5.85763E-07 1.65436E-24
 -1       632 1.54792E-04-7.68039E-07 0.00000E+00
 -1       633 1.54966E-04-9.29137E-07 0.00000E+00
 -1       634 1.55135E-04-1.07726E-06 0.00000E+00
 -1       635 1.55302E-04-1.22060E-06 0.00000E+00
 -1       636 1.55471E-04-1.36737E-06-3.30872E-24
 -1       637 1.55643E-04-1.52576E-06 0.00000E+00
 -1       638 1.55823E-04-1.70398E-06-3.30872E-24
 -1       639 1.56014E-04-1.91024E-06 8.27181E-25
 -1       640 1.56217E-04-2.15277E-06-1.65436E-24
 -1       656 1.53340E-04 2.11119E-07 0.00000E+00
 -1       657 1.53750E-04-3.24440E-07 0.00000E+00
 -1       658 1.54422E-04-8.58586E-07 1.32349E-23
 -1       659 1.55209E-04-1.39236E-06 0.00000E+00
 -1       660 1.55938E-04-1.92777E-06 0.00000E+00
 -1       661 1.53335E-04 9.02149E-07-8.27181E-25
 -1       662 1.53373E-04 1.00020E-06 0.00000E+00
 -1       663 1.53439E-04 1.02399E-06-1.65436E-24
 -1       664 1.53531E-04 9.78699E-07-8.27181E-25
 -1       665 1.53648E-04 8.68853E-07 1.65436E-24
 -1       666 1.53787E-04 6.99095E-07 0.00000E+00
 -1       667 1.53947E-04 4.73817E-07-1.65436E-24
 -1       668 1.54126E-04 1.97359E-07 0.00000E+00
 -1       669 1.54323E-04-1.26108E-07-1.65436E-24
 -1       670 1.54536E-04-4.92494E-07 8.27181E-25
 -1       671 1.54763E-04-8.97828E-07 0.00000E+00
 -1       672 1.55003E-04-1.33825E-06-8.27181E-25
 -1       673 1.55255E-04-1.80993E-06 0.00000E+00
 -1       674 1.55517E-04-2.30941E-06 8.27181E-25
 -1       675 1.55788E-04-2.83261E-06 4.13590E-25
 -1       676 1.53158E-04-2.90509E-06 3.30872E-24
 -1       677 1.53740E-04-3.00025E-06-1.65436E-24
 -1       678 1.54322E-04-3.09537E-06 3.30872E-24
 -1       679 1.54903E-04-3.19020E-06 0.00000E+00
 -1       680 1.55483E-04-3.28502E-06 0.00000E+00
 -1       771 1.79154E-05 1.00714E-05 0.00000E+00
 -1       772 1.00100E-05 2.69607E-05 0.00000E+00
 -1       773 3.47602E-06 4.03525E-05-5.29396E-23
 -1       774-1.77944E-06 5.04507E-05 0.00000E+00
 -1       775-5.84785E-06 5.74668E-05 0.00000E+00
 -1       776-8.82429E-06 6.16235E-05 2.64698E-23
 -1       777-1.08041E-05 6.31507E-05-5.29396E-23
 -1       778-1.18847E-05 6.22878E-05 0.00000E+00
 -1       779-1.21634E-05 5.92798E-05 5.29396E-23
 -1       780-1.17390E-05 5.43798E-05 0.00000E+00
 -1       781-1.07104E-05 4.78453E-05 0.00000E+00
 -1       782-9.17726E-06 3.99400E-05 2.64698E-23
 -1       783-7.23922E-06 3.09308E-05 0.00000E+00
 -1       784-4.99679E-06 2.10887E-05 2.64698E-23
 -1       785-2.54997E-06 1.06869E-05 5.29396E-23
 -1       786 1.57705E-04 1.95746E-05 5.16988E-26
 -1       787 1.57748E-04 1.82177E-05 0.00000E+00
 -1       788 1.57792E-04 1.69005E-05 8.27181E-25
 -1       789 1.57835E-04 1.56151E-05-8.27181E-25
 -1       790 1.57879E-04 1.43571E-05 0.00000E+00
 -1       791 1.57923E-04 1.31219E-05 0.00000E+00
 -1       792 1.57967E-04 1.19074E-05-1.65436E-24
 -1       793 1.58011E-04 1.07115E-05 8.27181E-25
 -1       794 1.58056E-04 9.53397E-06 0.00000E+00
 -1       795 1.58100E-04 8.37470E-06-8.27181E-25
 -1       796 1.58144E-04 7.23538E-06-1.65436E-24
 -1       797 1.58188E-04 6.11771E-06-8.27181E-25
 -1       798 1.58232E-04 5.02566E-06 1.65436E-24
 -1       799 1.58277E-04 3.96324E-06 0.00000E+00
 -1       800 1.58321E-04 2.93745E-06 0.00000E+00
 -1       801 1.25017E-04 1.86304E-05 2.64698E-23
 -1       802 2.58337E-05 1.20443E-05 0.00000E+00
 -1       803-6.14724E-05 6.35806E-06 0.00000E+00
 -1       804-5.94868E-05 4.31430E-06 0.00000E+00
 -1       805-2.04695E-05 1.90324E-06 5.29396E-23
 -1       806 1.58090E-04 1.95149E-05 1.65436E-24
 -1       807 1.58501E-04 1.80774E-05-8.27181E-25
 -1       808 1.58900E-04 1.66707E-05 3.30872E-24
 -1       809 1.59285E-04 1.52981E-05 0.00000E+00
 -1       810 1.59657E-04 1.39627E-05 0.00000E+00
 -1       811 1.60013E-04 1.26678E-05 8.27181E-25
 -1       812 1.60353E-04 1.14163E-05-1.65436E-24
 -1       813 1.60676E-04 1.02114E-05-8.27181E-25
 -1       814 1.60980E-04 9.05622E-06-1.65436E-24
 -1       815 1.61265E-04 7.95377E-06 8.27181E-25
 -1       816 1.61528E-04 6.90718E-06 0.00000E+00
 -1       817 1.61770E-04 5.91949E-06 0.00000E+00
 -1       818 1.61988E-04 4.99379E-06 0.00000E+00
 -1       819 1.62183E-04 4.13312E-06-8.27181E-25
 -1       820 1.62352E-04 3.34052E-06 1.65436E-24
 -1       821 1.58251E-04 8.52713E-07-8.27181E-25
 -1       822 1.58130E-04-5.32682E-07 0.00000E+00
 -1       823 1.58009E-04-2.04746E-06 0.00000E+00
 -1       824 1.57886E-04-3.53757E-06 0.00000E+00
 -1       825 1.57764E-04-4.85521E-06 0.00000E+00
 -1       826 1.57642E-04-5.85348E-06-1.65436E-24
 -1       827 1.57520E-04-6.46428E-06 0.00000E+00
 -1       828 1.57398E-04-6.62163E-06-1.65436E-24
 -1       829 1.57277E-04-6.37142E-06 0.00000E+00
 -1       830 1.57155E-04-5.76172E-06 0.00000E+00
 -1       831 1.57033E-04-4.92932E-06 0.00000E+00
 -1       832 1.56911E-04-4.01220E-06 0.00000E+00
 -1       833 1.56789E-04-3.16928E-06 3.30872E-24
 -1       834 1.56669E-04-2.55905E-06 0.00000E+00
 -1       835 1.56549E-04-2.28278E-06-8.27181E-25
 -1       836 1.59240E-04 2.06565E-06 3.30872E-24
 -1       837 1.60000E-04 2.17852E-06 0.00000E+00
 -1       838 1.60674E-04 2.29127E-06 3.30872E-24
 -1       839 1.61294E-04 2.40335E-06-8.27181E-25
 -1       840 1.61891E-04 2.51526E-06 4.13590E-25
 -1       856 1.56416E-04-2.74744E-06 0.00000E+00
 -1       857 1.56393E-04-2.93019E-06-5.16988E-26
 -1       858 1.56370E-04-3.00759E-06 4.13590E-25
 -1       859 1.56346E-04-2.99919E-06 0.00000E+00
 -1       860 1.56323E-04-2.92465E-06 8.27181E-25
 -1       861 1.56299E-04-2.80364E-06 0.00000E+00
 -1       862 1.56276E-04-2.65590E-06 0.00000E+00
 -1       863 1.56252E-04-2.50120E-06 0.00000E+00
 -1       864 1.56228E-04-2.35930E-06-8.27181E-25
 -1       865 1.56205E-04-2.24995E-06 0.00000E+00
 -1       866 1.56181E-04-2.19287E-06 0.00000E+00
 -1       867 1.56158E-04-2.20775E-06 0.00000E+00
 -1       868 1.56134E-04-2.31420E-06 0.00000E+00
 -1       869 1.56110E-04-2.53175E-06 4.13590E-25
 -1       870 1.56086E-04-2.87984E-06 0.00000E+00
 -1       871 1.56999E-04-2.44262E-06-8.27181E-25
 -1       872 1.57695E-04-2.44828E-06 0.00000E+00
 -1       873 1.58464E-04-2.45450E-06 0.00000E+00
 -1       874 1.59245E-04-2.46139E-06 0.00000E+00
 -1       875 1.59978E-04-2.46883E-06 0.00000E+00
 -1       876 1.56666E-04-2.73474E-06 0.00000E+00
 -1       877 1.56876E-04-2.96852E-06-1.65436E-24
 -1       878 1.57067E-04-3.14855E-06 0.00000E+00
 -1       879 1.57240E-04-3.28160E-06 0.00000E+00
 -1       880 1.57398E-04-3.37450E-06 0.00000E+00
 -1       881 1.57544E-04-3.43405E-06-1.65436E-24
 -1       882 1.57679E-04-3.46702E-06 0.00000E+00
 -1       883 1.57808E-04-3.48016E-06-1.65436E-24
 -1       884 1.57931E-04-3.48024E-06 3.30872E-24
 -1       885 1.58052E-04-3.47402E-06 0.00000E+00
 -1       886 1.58173E-04-3.46824E-06-3.30872E-24
 -1       887 1.58297E-04-3.46969E-06 1.65436E-24
 -1       888 1.58426E-04-3.48513E-06 3.30872E-24
 -1       889 1.58562E-04-3.52148E-06-8.27181E-25
 -1       890 1.58708E-04-3.58545E-06 1.65436E-24
 -1       891 1.56660E-04-3.42940E-06-1.65436E-24
 -1       892 1.57238E-04-3.48118E-06-8.27181E-25
 -1       893 1.57771E-04-3.53289E-06 8.27181E-25
 -1       894 1.58234E-04-3.58442E-06-4.13590E-25
 -1       895 1.58605E-04-3.63578E-06 4.13590E-25
 -1       956 1.62380E-04 2.04682E-06 1.65436E-24
 -1       957 1.62262E-04 1.55229E-06 8.27181E-25
 -1       958 1.62144E-04 1.12643E-06 1.65436E-24
 -1       959 1.62025E-04 7.59802E-07 0.00000E+00
 -1       960 1.61906E-04 4.42942E-07 0.00000E+00
 -1       961 1.61788E-04 1.66341E-07 1.65436E-24
 -1       962 1.61669E-04-7.95135E-08-3.30872E-24
 -1       963 1.61551E-04-3.04149E-07 0.00000E+00
 -1       964 1.61432E-04-5.17089E-07-3.30872E-24
 -1       965 1.61314E-04-7.27857E-07 0.00000E+00
 -1       966 1.61195E-04-9.45985E-07-3.30872E-24
 -1       967 1.61076E-04-1.18099E-06 0.00000E+00
 -1       968 1.60958E-04-1.44240E-06 0.00000E+00
 -1       969 1.60840E-04-1.73970E-06 0.00000E+00
 -1       970 1.60722E-04-2.08236E-06 0.00000E+00
 -1       971 1.60497E-04-2.86828E-06-1.65436E-24
 -1       972 1.60388E-04-3.16773E-06 1.65436E-24
 -1       973 1.60279E-04-3.38768E-06 0.00000E+00
 -1       974 1.60169E-04-3.53837E-06 1.65436E-24
 -1       975 1.60059E-04-3.63005E-06 0.00000E+00
 -1       976 1.59950E-04-3.67299E-06 1.65436E-24
 -1       977 1.59840E-04-3.67746E-06 0.00000E+00
 -1       978 1.59730E-04-3.65377E-06 0.00000E+00
 -1       979 1.59621E-04-3.61221E-06-3.30872E-24
 -1       980 1.59511E-04-3.56307E-06-1.65436E-24
 -1       981 1.59401E-04-3.51666E-06-3.30872E-24
 -1       982 1.59292E-04-3.48328E-06 1.65436E-24
 -1       983 1.59182E-04-3.47322E-06 0.00000E+00
 -1       984 1.59073E-04-3.49676E-06 1.65436E-24
 -1       985 1.58965E-04-3.56420E-06 0.00000E+00
 -3
    1PSTEP                        26          13           1          
  100CL  113 6.09375E-01         409                     0   13           1
 -4  STRESS      6    1
 -5  SXX         1    4    1    1
 -5  SYY         1    4    2    2
 -5  SZZ         1    4    3    3
 -5  SXY         1    4    1    2
 -5  SYZ         1    4    2    3
 -5  SZX         1    4    3    1
 -1         1-3.76028E+06-1.44884E+06-8.23151E+05-1.51357E+06-2.61934E-10 1.90252E-07
 -1         2 9.03867E+02-1.69611E+06 3.22095E+03 1.56820E+04 4.02167E-10 8.56937E-08
 -1         3-9.11583E+02-1.57093E+06 2.19899E+02-1.93601E+03 4.90306E-10 1.64509E-08
 -1         5-1.75126E+01 3.37575E+05 8.66776E+00-4.84907E-01-2.27728E-10-3.92920E-08
 -1         8-7.94382E+05-2.70682E+05-7.48706E+04-3.37994E+05-5.09317E-11 1.54028E-07
 -1         9 3.70524E+06-6.95115E+05 6.83748E+05-8.92280E+05 2.59082E-08 9.88599E-08
 -1        10-1.01879E+03-1.60450E+06-2.73478E+03-1.21050E+04-3.61433E-09-1.84652E-08
 -1        12-1.39849E+01 3.37593E+05 2.81685E+02-3.49326E+00-2.20137E-10 1.19699E-08
 -1        15 1.46553E+03 8.05389E+02 4.73729E+03 2.47345E+00-6.54836E-11 2.19191E-07
 -1        16 9.35139E+06-3.91726E+05 1.34695E+06-1.08296E+06 1.25729E-08 2.28562E-08
 -1        17 3.22245E+06 2.11894E+06 8.84536E+05 2.18663E+06 6.03031E-09 2.48547E-08
 -1        18 6.27707E+04 1.21205E+04-1.14897E+04-9.96178E+04 1.13002E-08-2.30466E-09
 -1        19 1.07987E+05 1.24413E+05-8.63698E+02 2.02956E+04 7.10861E-10-2.90966E-09
 -1        20-6.48331E+04-5.08624E+05-1.13586E+05 2.67015E+04 1.94480E-10-1.10898E-09
 -1        21-4.32559E+01-2.72086E+05-8.58274E+02 1.08782E+02 5.60466E-09 1.30107E-09
 -1        24 5.03962E+06 4.52406E+06 1.58867E+06 4.12862E+06-1.15013E-07-4.25886E-08
 -1        25-7.44121E+03-2.20185E+05-2.48127E+04-3.70626E+05-6.27460E-10 1.62217E-09
 -1        26-4.60986E+04 8.07318E+04-2.14989E+04-1.57359E+03 8.76389E-10 2.14897E-08
 -1        27-7.09700E+04-2.75857E+05-1.01750E+05 6.17405E+04 4.53883E-09 9.65186E-09
 -1        28 2.06844E+04-7.74471E+04 1.54924E+04 2.04856E+04-1.05396E-09 4.88558E-09
 -1        32-1.53486E+06-2.69367E+06-1.39853E+05-2.86488E+04-3.29565E-08-5.18719E-09
 -1        33-1.60283E+05 8.11625E+04 2.86291E+04-3.58751E+04-1.22331E-09 3.62919E-09
 -1        34-2.01254E+05-2.15695E+04 5.80465E+02 6.60620E+04-1.85856E-09-1.06978E-08
 -1        35-2.11972E+04-3.07355E+04-1.21882E+03 4.73703E+04-2.59812E-10 8.09086E-09
 -1        51 4.10300E+04-2.50544E+05 9.04534E+04-7.27248E+05-1.60071E-10 4.82396E-08
 -1        52 1.58248E+04-2.37354E+05 5.01236E+04-8.47934E+05 2.36469E-10-2.75541E-08
 -1        53 5.55978E+03-2.52318E+05 3.03338E+04-7.24608E+05 2.76486E-10 1.79425E-08
 -1        54 1.37159E+04-2.49300E+05 3.34783E+04-8.50688E+05-4.72937E-10-9.01346E-08
 -1        55 2.82930E+04-2.60001E+05 5.07076E+04-7.24210E+05 4.00178E-10 1.13207E-07
 -1        56-7.12692E+06-8.03192E+05-6.08267E+05-2.77782E+06 1.08121E-08 3.93775E-08
 -1        57-7.46367E+06-1.26166E+06-4.10180E+05-2.64680E+06 9.82072E-09 2.54986E-08
 -1        58-7.22925E+06-1.01603E+06-1.42929E+05-2.76150E+06-2.81907E-08-4.80140E-08
 -1        59-7.34945E+06-1.00802E+06-8.52266E+04-2.66272E+06 1.51404E-08-1.46618E-07
 -1        60-7.23967E+06-1.04997E+06-3.32393E+04-2.76427E+06-1.52795E-09-6.77301E-08
 -1        61-7.33041E+06-9.74748E+05-1.88399E+04-2.66684E+06 2.37107E-09-1.16845E-07
 -1        62-7.24785E+06-1.04841E+06-9.09356E+03-2.75758E+06-1.81067E-08-9.21832E-08
 -1        63-7.30584E+06-9.91587E+05-7.16534E+03-2.69026E+06 1.78079E-08 4.04771E-09
 -1        64-7.26352E+06-1.03346E+06-8.53635E+03-2.74038E+06-1.68138E-08 9.53768E-08
 -1        65-7.27316E+06-1.02901E+06-1.63691E+04-2.72823E+06-9.99717E-09-6.58696E-08
 -1        66-7.28020E+06-1.01134E+06-2.93515E+04-2.71931E+06 8.20910E-09 1.31940E-08
 -1        67-7.25766E+06-1.09085E+06-7.41527E+04-2.76292E+06-1.32304E-08 7.67759E-08
 -1        68-7.27985E+06-9.72101E+05-1.24556E+05-2.70584E+06-7.47968E-09 1.49885E-08
 -1        69-7.35858E+06-1.31262E+06-3.57536E+05-2.75175E+06-1.09721E-08-9.82109E-08
 -1        70-7.18182E+06-7.94771E+05-5.29889E+05-2.72934E+06-1.30312E-08-1.91212E-08
 -1        86-5.54076E+02-1.70344E+06 2.06714E+03-7.84072E+03-3.72660E-09 3.99295E-08
 -1        87 2.65354E+03-1.69745E+06 5.74495E+03 2.65930E+04-5.98129E-09 1.33194E-07
 -1        88-2.12485E+03-1.70231E+06 8.04541E+03-1.87521E+04-6.41876E-09 3.90506E-08
 -1        89 1.56323E+04-1.69348E+06 2.19345E+04 3.70388E+04-1.02618E-08-1.15191E-08
 -1        90-1.33264E+04-1.70759E+06 3.07467E+04-1.82879E+04-5.64432E-09 1.13225E-08
 -1       121-1.26071E+03-1.57423E+06-4.27140E+02 9.63182E+02 4.01883E-10 2.35414E-08
 -1       122-7.99408E+02-1.57099E+06 3.75696E+02-3.86601E+03 4.36151E-09 5.10408E-09
 -1       123-1.26629E+03-1.57431E+06-8.64899E+01 2.87412E+03 1.57502E-09-1.04010E-08
 -1       124 1.05843E+02-1.57083E+06 1.33355E+03-8.02095E+03 9.08040E-09 2.29375E-09
 -1       125-1.70244E+03-1.57477E+06 1.22433E+03 5.09496E+03 2.95404E-09-4.10364E-09
 -1       191-1.86676E+01 3.37601E+05 9.79131E+00 2.45829E-01-2.81696E-10-1.37470E-08
 -1       192-1.83164E+01 3.37575E+05 1.83794E+01-1.75668E+00-4.00112E-10 2.52476E-09
 -1       193-2.08006E+01 3.37600E+05 3.36266E+01 1.53238E+00-5.39307E-10-1.19808E-08
 -1       194-2.09011E+01 3.37578E+05 6.95842E+01-4.06206E+00-3.02761E-10-2.47692E-08
 -1       195-2.48984E+01 3.37598E+05 1.35552E+02 2.57968E+00-7.33806E-10-1.24692E-09
 -1       251-1.93120E+06-2.04289E+04-1.62199E+05-1.17281E+05 2.00271E-09 1.91540E-08
 -1       252-1.22196E+06 2.64670E+04 3.04065E+04 3.61806E+05 1.37134E-08-4.18249E-08
 -1       253-1.61511E+06-1.02411E+04-2.88076E+04-2.42105E+05-7.83166E-09-1.04275E-07
 -1       254-1.55297E+06 4.56314E+04 4.91231E+03 4.79816E+05 2.38725E-09 2.13840E-08
 -1       255-1.63317E+06-1.27289E+04-1.64897E+04-2.37895E+05 8.60837E-09 1.13466E-07
 -1       256-1.17665E+06 3.75063E+04 8.27389E+04 3.44916E+05 5.81449E-08-1.38944E-08
 -1       257-1.95464E+06-3.20237E+04-8.20455E+04-1.04434E+05 7.70888E-09 4.63389E-08
 -1       258-8.21345E+05 2.86554E+04 1.50454E+05-7.12558E+02-1.53077E-08 1.46788E-07
 -1       259-1.95359E+06-3.21997E+04-8.03336E+04 1.05970E+05 2.15368E-09-1.94039E-08
 -1       260-1.17860E+06 3.91819E+04 8.65587E+04-3.45546E+05 2.47019E-08 3.11152E-08
 -1       261-1.63250E+06-1.40287E+04-8.51416E+03 2.38688E+05 6.23722E-08 1.57082E-07
 -1       262-1.54886E+06 5.50732E+04 2.41032E+04-4.79039E+05-4.18416E-08-3.31778E-08
 -1       263-1.61986E+06-1.83475E+04 1.78782E+03 2.42251E+05 2.27328E-08-3.27509E-09
 -1       264-1.19250E+06 8.56630E+04 1.14880E+05-3.60949E+05 1.06036E-07 7.77800E-09
 -1       265-1.95562E+06-7.15109E+04-4.31061E+04 1.17965E+05 3.91065E-08 6.87542E-08
 -1       266-2.65306E+04-1.24054E+04 6.22501E+04-5.29255E+01-8.73115E-11 3.18372E-08
 -1       267 3.07566E+04 1.44593E+04 4.39966E+04 6.10638E+01 8.00355E-11-1.17382E-07
 -1       268-4.12439E+03-2.04781E+03 1.63534E+04-7.78068E+00-1.41881E-10-1.77744E-08
 -1       269 4.86970E+03 2.45082E+03 1.06294E+04 9.06323E+00 5.00222E-11 1.38706E-07
 -1       270-7.30946E+02-4.02686E+02 5.13096E+03-1.22995E+00-5.30918E-11 1.25407E-07
 -1       271-2.42029E+06-2.95702E+05-1.81041E+05-9.32720E+05 1.74623E-10 7.07732E-08
 -1       272-2.52456E+06-3.89672E+05-1.16566E+05-8.87790E+05 1.50367E-08-1.78319E-07
 -1       273-2.45347E+06-3.41913E+05-4.27333E+04-9.25646E+05 1.81967E-09 1.88211E-08
 -1       274-2.48521E+06-3.33356E+05-2.39738E+04-8.98670E+05 1.77465E-09-5.77802E-08
 -1       275-2.45850E+06-3.46379E+05-9.96158E+03-9.23832E+05 8.72251E-09 1.30255E-07
 -1       276-2.47795E+06-3.29137E+05-5.24655E+03-9.02151E+05-5.24824E-09 1.09385E-07
 -1       277-2.46038E+06-3.45699E+05-2.61264E+03-9.22202E+05 2.35259E-08 7.55690E-08
 -1       278-2.47418E+06-3.31469E+05-1.72152E+03-9.05513E+05-1.15529E-08 1.04309E-07
 -1       279-2.46202E+06-3.44147E+05-1.87901E+03-9.20319E+05-6.91853E-09-4.40546E-08
 -1       280-2.47082E+06-3.35284E+05-3.09482E+03-9.09312E+05-7.26686E-09 1.00169E-07
 -1       281-2.46356E+06-3.42028E+05-5.79798E+03-9.18263E+05 9.16771E-10 5.87290E-08
 -1       282-2.46960E+06-3.42772E+05-1.35163E+04-9.13040E+05-5.00677E-09 1.67794E-07
 -1       283-2.46320E+06-3.37055E+05-2.42580E+04-9.16406E+05-1.34442E-08 2.52667E-08
 -1       284-2.48681E+06-3.79455E+05-6.57409E+04-9.12498E+05-3.43425E-09-5.52236E-08
 -1       285-2.44688E+06-3.08621E+05-1.02362E+05-9.17636E+05 3.61615E-09-1.12741E-08
 -1       301 1.91651E+04-3.48186E+05 1.73266E+05-6.32501E+05 7.49424E-10 5.86006E-08
 -1       302 2.06764E+04-3.04506E+05 1.07769E+05-9.25098E+05-1.07684E-09 8.86803E-08
 -1       303-2.04371E+03-3.32343E+05 7.11336E+04-6.30997E+05 1.05501E-10-5.79712E-09
 -1       304 1.33835E+04-3.06329E+05 8.93629E+04-9.24487E+05-4.87489E-10 8.12470E-08
 -1       305 1.00166E+04-3.38766E+05 1.32015E+05-6.33083E+05 2.14641E-10 1.45716E-07
 -1       306-1.78605E+07-3.25758E+06-4.32391E+06-1.84812E+06-4.91855E-08-9.38890E-08
 -1       307 1.10114E+07-5.61066E+05 2.59412E+06-8.08985E+06-5.60394E-07-1.14058E-07
 -1       308-8.16897E+06 1.07044E+05-4.04655E+05 2.38746E+06-1.69413E-07 1.17001E-07
 -1       309-3.22531E+06 8.21211E+05 8.27935E+05-1.32111E+07 2.95826E-07 9.04402E-09
 -1       310-9.18274E+06-5.67942E+04-6.05681E+05 2.19626E+06-2.06783E-07-5.10991E-08
 -1       311 1.33237E+07-1.25708E+06 3.09694E+06-6.50013E+06 3.07919E-07-1.99361E-09
 -1       312-1.81029E+07-3.24040E+06-3.79111E+06-2.79322E+06 2.74740E-08-4.04543E-09
 -1       313 2.00302E+07 4.43351E+06 5.03168E+06 8.39099E+06-1.66125E-07-3.65253E-08
 -1       314-1.28059E+07-7.79686E+06-3.59382E+06-7.33644E+06 2.37429E-07-7.62229E-08
 -1       315-2.24916E+06 1.24188E+07 2.80100E+06 6.61550E+06-4.30911E-07-1.02795E-07
 -1       316-1.97329E+06-6.26962E+06-3.49816E+05-4.34983E+06-7.56569E-07-2.34053E-07
 -1       317-1.45320E+07 1.20809E+07 8.07676E+05-1.43274E+06 5.45111E-07-4.54249E-07
 -1       318-2.46660E+06-6.54739E+06-6.82073E+05-4.54649E+06-5.40866E-07 7.18865E-08
 -1       319-5.23543E+05 1.28016E+07 2.81655E+06 7.16786E+06-6.62112E-10 1.27140E-07
 -1       320-1.37336E+07-8.10018E+06-4.63897E+06-7.20718E+06 1.37254E-07-3.96976E-08
 -1       336-3.57723E+02-1.63923E+06-8.70234E+03 6.93513E+03-2.11321E-08-3.96903E-09
 -1       337-3.41988E+03-1.63958E+06-1.29620E+04-1.64756E+04-3.93450E-08-2.21407E-08
 -1       338 7.07487E+02-1.63852E+06-2.13765E+04 9.43841E+03-2.75004E-08 1.58616E-09
 -1       339-2.33695E+04-1.65287E+06-4.97209E+04-2.13411E+04-4.87935E-08 1.26402E-08
 -1       340 1.59016E+04-1.62714E+06-7.82929E+04 1.17266E+04-3.19269E-08 3.11884E-08
 -1       406 6.97769E+00 3.37586E+05 5.55525E+02 9.87973E-01-8.81585E-10 1.83836E-08
 -1       407 1.79979E+02 3.37690E+05 1.18191E+03 1.21784E+01-3.18465E-10-1.63345E-09
 -1       408 5.94040E+02 3.37500E+05 2.35975E+03-1.34956E+01-1.21622E-09-6.56837E-09
 -1       409 2.53936E+03 3.38444E+05 5.31356E+03 1.38153E+02-2.02476E-10-1.69384E-08
 -1       410 7.32101E+03 3.36827E+05 1.08468E+04-1.31697E+02-1.42427E-09-8.34825E-09
 -1       521-1.98642E+07-4.07740E+06-5.23700E+06-1.79909E+06-5.09899E-08 1.18162E-08
 -1       522 1.17923E+07-5.03936E+05 2.72286E+06-1.03515E+07-3.57861E-07-3.32016E-07
 -1       523-9.38808E+06-4.03555E+04-4.57130E+05 2.79520E+06 5.79457E-08-2.56263E-07
 -1       524-5.26246E+06 1.99694E+06 9.45917E+05-1.59804E+07 6.55495E-07-4.86047E-07
 -1       525-1.05454E+07-2.86712E+05-6.98431E+05 2.58018E+06 5.26285E-07-2.05677E-07
 -1       526 1.48638E+07-1.41828E+06 3.39642E+06-8.40164E+06 8.44884E-08 3.93484E-08
 -1       527-2.01950E+07-4.16712E+06-4.51446E+06-2.88517E+06-3.67290E-08 2.83908E-08
 -1       528 2.27342E+07 4.91860E+06 5.46480E+06 9.79590E+06-2.31812E-07-1.05414E-07
 -1       529-1.42124E+07-9.31327E+06-4.27320E+06-7.96735E+06-6.34464E-09-5.78002E-08
 -1       530-3.86808E+06 1.51431E+07 3.08589E+06 7.16458E+06 8.02102E-08 2.10741E-07
 -1       531-2.28329E+06-7.44824E+06-3.85164E+05-4.89611E+06-5.63421E-07 7.14499E-08
 -1       532-1.77689E+07 1.44547E+07 9.46989E+05-3.14521E+06 2.90383E-07-4.19524E-07
 -1       533-2.75778E+06-7.72755E+06-7.38267E+05-5.06450E+06-6.80739E-08-6.87141E-07
 -1       534-2.08444E+06 1.55900E+07 3.07809E+06 7.77328E+06-1.04301E-07 5.05097E-07
 -1       535-1.51713E+07-9.69728E+06-5.42980E+06-7.81477E+06 3.85335E-08 3.25104E-07
 -1       536-5.78942E+05-3.85904E+04-3.90469E+03-3.78218E+04-3.74530E-09 2.70920E-08
 -1       537-1.78679E+05 3.88825E+04 6.77067E+04 9.03048E+04-9.01900E-08 5.70453E-08
 -1       538-3.87691E+05 4.87630E+02 8.68679E+03-5.45826E+04 2.70480E-08 8.65120E-08
 -1       539-3.11998E+05 3.11989E+03 1.87100E+04 1.03289E+05 1.47364E-07 8.98999E-08
 -1       540-4.48829E+05-2.02188E+02-1.10364E+04-5.10485E+04 6.94990E-09 8.31316E-08
 -1       541-6.05044E+04 1.03373E+04 6.51089E+04 6.92835E+04-3.30440E-08 6.66412E-08
 -1       542-6.32437E+05-1.23075E+04-5.06861E+04-2.01780E+04 4.12865E-08 2.14941E-08
 -1       543 9.42422E+04 1.65620E+04 9.52169E+04-1.05409E+04 1.23027E-08-1.92201E-08
 -1       544-5.99453E+05-9.81672E+03-4.49288E+04 2.84613E+04-8.77344E-09-2.24033E-08
 -1       545-1.36359E+05 5.17700E+03 4.66607E+04-8.29093E+04 1.65119E-09-4.66634E-08
 -1       546-4.07978E+05 4.12933E+03-7.93794E+03 5.20411E+04-3.52452E-09-7.24814E-08
 -1       547-3.24938E+05-4.52871E+03 3.29694E+03-1.05685E+05-9.41279E-08-9.76313E-08
 -1       548-4.15889E+05 4.03567E+03-1.88196E+04 5.15533E+04-7.92700E-08-7.05782E-08
 -1       549-1.21773E+05 1.32694E+03 2.52207E+04-8.00578E+04-5.56078E-08-4.70204E-08
 -1       550-6.05666E+05-6.25826E+03-9.47745E+04 2.60792E+04 5.85578E-09-2.80161E-08
 -1       551 3.12544E+04-7.30674E+05 7.48598E+03-1.13859E+06-8.09814E-08-1.16997E-08
 -1       552 6.99697E+04-7.59609E+05 2.29845E+04-1.62328E+06-5.53264E-08 2.93294E-08
 -1       553 5.23456E+04-7.60903E+05 4.06975E+04-1.13333E+06-9.38235E-08 3.14321E-08
 -1       554 1.02979E+05-7.66394E+05 9.10412E+04-1.62516E+06-5.79457E-08 1.73532E-08
 -1       555 8.16664E+04-7.82265E+05 1.63148E+05-1.13368E+06-9.66538E-08-9.26593E-09
 -1       556 1.71231E+05-3.03098E+05 5.20320E+04-3.45718E+05-1.94123E-08-1.96742E-08
 -1       557 2.81882E+05-3.91911E+05 2.87624E+04-4.41982E+05-3.95812E-09 2.07565E-08
 -1       558 1.61056E+05-3.04165E+05 9.36479E+03-3.43776E+05-1.87720E-08 1.05501E-09
 -1       559 2.61909E+05-3.96933E+05 5.44214E+03-4.55682E+05 1.29221E-08 1.35915E-08
 -1       560 1.51329E+05-2.98007E+05 9.12999E+02-3.50605E+05-8.73115E-10 1.29512E-08
 -1       561 2.49314E+05-3.92168E+05 9.91231E+02-4.64096E+05-3.61615E-09 7.57063E-09
 -1       562 1.43662E+05-2.93184E+05-3.36084E+02-3.56122E+05-2.98314E-09-3.47427E-10
 -1       563 2.40256E+05-3.88219E+05 2.18921E+02-4.69969E+05-3.99450E-09-9.35870E-09
 -1       564 1.38336E+05-2.89848E+05-2.03656E+02-3.59886E+05 1.08848E-08-8.84029E-10
 -1       565 2.34506E+05-3.85718E+05 9.46980E+01-4.73630E+05 1.96087E-08-3.72302E-09
 -1       566 1.35437E+05-2.88006E+05-9.56660E+01-3.61917E+05 9.09495E-11-1.62236E-08
 -1       567 2.32062E+05-3.84650E+05-2.05347E+02-4.75072E+05 2.04564E-08 1.06666E-08
 -1       568 1.35028E+05-2.87767E+05-7.23247E+02-3.62298E+05-6.30735E-10 5.80985E-09
 -1       569 2.31786E+05-3.84622E+05-1.82444E+03-4.73395E+05-4.56566E-09 1.16343E-08
 -1       570 1.38016E+05-2.90424E+05-4.07649E+03-3.61563E+05 7.43603E-09-4.76030E-09
 -1       571 2.55118E+05 9.28592E+03 1.34815E+04-7.55028E+04 2.48474E-09 5.10272E-09
 -1       572 2.57096E+05 3.37662E+03 6.60610E+03-8.28293E+04 2.71211E-09-1.36361E-08
 -1       573 2.55908E+05 9.49931E+02 2.93513E+03-7.53510E+04 2.52840E-09-5.16366E-09
 -1       574 2.56122E+05 4.63644E+02 1.47138E+03-8.30135E+04 2.30398E-09-4.74756E-10
 -1       575 2.55996E+05 2.30741E+02 6.94211E+02-7.53305E+04-1.45076E-09 1.40853E-08
 -1       576 2.55997E+05 2.24491E+02 3.54867E+02-8.30380E+04-5.11409E-09-1.24564E-08
 -1       577 2.56023E+05 1.83938E+02 1.76835E+02-7.53277E+04-3.19278E-09 2.56114E-09
 -1       578 2.56007E+05 1.99585E+02 1.01064E+02-8.30413E+04-4.87307E-09 1.00863E-08
 -1       579 2.56066E+05 1.63883E+02 6.87643E+01-7.53275E+04 2.12103E-08-8.21274E-10
 -1       580 2.56068E+05 1.70491E+02 7.75124E+01-8.30372E+04 3.29292E-08 1.30685E-08
 -1       581 2.56134E+05 1.31063E+02 1.17076E+02-7.53321E+04 2.17715E-08 1.15206E-08
 -1       582 2.56180E+05 1.58530E+02 2.35395E+02-8.29885E+04 9.53150E-10-3.55703E-09
 -1       583 2.56216E+05 1.88275E+02 4.54281E+02-7.53764E+04 3.09228E-09-4.78190E-09
 -1       584 2.56450E+05 5.54104E+02 1.02484E+03-8.26165E+04 3.23325E-09-1.44832E-08
 -1       585 2.56198E+05 1.43681E+03 2.07919E+03-7.57040E+04-1.65528E-10 9.03674E-09
 -1       586-3.09623E+03 9.34091E+04-3.21366E+03-2.24303E+05-3.23780E-09-8.01174E-09
 -1       587-9.68938E+02 9.30660E+04 3.09484E+02-2.46880E+05-6.11180E-10-2.47574E-08
 -1       588 6.13049E+02 9.30022E+04 3.92077E+03-2.24190E+05-1.71349E-09-1.45119E-08
 -1       589 4.68327E+03 9.50769E+04 1.04953E+04-2.46642E+05-5.11864E-09 5.10227E-09
 -1       590 1.45335E+04 9.18523E+04 2.21442E+04-2.24575E+05-2.33922E-09 1.51795E-08
 -1       591-5.89503E+04-1.36613E+04-1.88301E+04-2.64211E+04 1.85355E-09-6.17820E-09
 -1       592-6.20045E+04-1.69979E+04-1.01997E+04-2.98646E+04 2.92175E-09-9.41191E-09
 -1       593-6.08365E+04-1.22917E+04-4.24578E+03-2.77989E+04 1.07565E-09 7.80324E-09
 -1       594-5.93996E+04-1.42402E+04-2.11752E+03-2.99695E+04 1.45099E-09 1.21292E-08
 -1       595-6.09804E+04-1.22869E+04-9.72399E+02-2.78616E+04-4.66827E-10 1.48010E-08
 -1       596-5.92216E+04-1.41141E+04-4.94564E+02-2.99489E+04 4.44746E-09 5.64077E-09
 -1       597-6.09985E+04-1.22997E+04-2.69806E+02-2.78639E+04 7.43910E-10 1.28718E-08
 -1       598-5.92042E+04-1.41092E+04-2.17816E+02-2.99431E+04-4.29597E-09 6.89511E-10
 -1       599-6.09973E+04-1.23000E+04-2.79382E+02-2.78636E+04 3.07114E-09-7.56359E-09
 -1       600-5.92220E+04-1.41149E+04-5.19919E+02-2.99474E+04 2.95847E-09 2.72644E-09
 -1       601-6.09761E+04-1.22876E+04-1.02616E+03-2.78604E+04-2.78260E-09-3.15345E-09
 -1       602-5.94097E+04-1.42474E+04-2.23665E+03-2.99660E+04-2.26908E-09-4.90741E-09
 -1       603-6.08217E+04-1.22952E+04-4.48554E+03-2.77948E+04-2.36241E-09-2.32512E-09
 -1       604-6.21763E+04-1.71444E+04-1.07752E+04-2.98343E+04 2.71302E-09 4.95061E-09
 -1       605-5.88119E+04-1.37569E+04-1.98926E+04-2.63555E+04 4.69367E-09 1.21536E-08
 -1       606 2.70199E+04-1.24050E+04-2.22644E+04 2.52346E+04-5.44696E-09 5.78439E-10
 -1       607 2.32131E+04-4.03762E+03-1.10871E+04 2.83430E+04-1.65201E-08-6.99697E-09
 -1       608 2.53786E+04-7.15450E+02-4.96397E+03 2.50450E+04-1.05993E-08-1.93909E-08
 -1       609 2.49581E+04-2.28741E+02-2.50746E+03 2.85664E+04-5.09044E-09 4.95538E-09
 -1       610 2.51878E+04-1.57787E+01-1.19683E+03 2.50232E+04 7.24503E-09-5.81622E-10
 -1       611 2.51172E+04-1.04304E+01-6.03420E+02 2.85907E+04 2.15109E-08-5.07725E-10
 -1       612 2.51421E+04-8.63075E-01-2.87393E+02 2.50210E+04 1.11695E-08 3.41242E-09
 -1       613 2.51222E+04-4.07164E+00-1.29217E+02 2.85936E+04 9.31323E-10-1.58871E-08
 -1       614 2.51190E+04-3.95033E+00-3.16245E+01 2.50202E+04 2.51021E-09 1.51340E-09
 -1       615 2.51136E+04-5.87006E-01 5.11611E+01 2.85940E+04 1.18553E-09 7.53016E-09
 -1       616 2.51011E+04 5.63977E-01 1.56138E+02 2.50205E+04 9.07175E-09-5.53769E-09
 -1       617 2.51295E+04 3.44890E+01 3.57419E+02 2.85935E+04 1.96994E-08-1.41383E-08
 -1       618 2.50679E+04 1.04985E+02 7.20799E+02 2.50207E+04 8.63793E-09 1.20106E-08
 -1       619 2.53821E+04 5.92944E+02 1.61891E+03 2.85928E+04 6.70298E-10 9.71681E-09
 -1       620 2.48274E+04 1.81521E+03 3.25400E+03 2.50207E+04 3.59921E-09 9.63155E-09
 -1       621 3.63510E+02 2.62294E+05 3.08259E+03 2.73867E+04 4.43151E-10-5.44969E-09
 -1       622 4.62729E+02 2.63030E+05 2.80555E+03 3.97994E+04 4.37467E-10-2.31239E-09
 -1       623 6.23131E+01 2.62460E+05 3.46587E+03 2.72598E+04 6.20275E-10-8.87940E-09
 -1       624 1.70824E+03 2.64123E+05 6.79402E+03 3.99262E+04 7.03665E-10 3.82374E-09
 -1       625 1.69688E+03 2.61118E+05 1.19092E+04 2.72570E+04 7.35781E-10 5.35647E-09
 -1       626 2.29719E+05 5.70496E+04 4.77588E+03 1.15310E+05 2.81943E-10 1.92267E-09
 -1       627 2.27381E+05 5.85284E+04 2.30143E+03 1.19489E+05-5.83441E-10-2.12515E-09
 -1       628 2.29849E+05 5.48493E+04 9.72913E+02 1.16102E+05-1.66619E-09 4.65434E-09
 -1       629 2.26767E+05 5.79141E+04 4.76242E+02 1.19731E+05-4.25871E-09 7.94309E-09
 -1       630 2.29861E+05 5.47440E+04 2.20515E+02 1.16133E+05-3.40697E-09-3.21086E-09
 -1       631 2.26698E+05 5.78930E+04 1.18187E+02 1.19732E+05-3.35876E-09 3.66759E-09
 -1       632 2.29855E+05 5.47494E+04 7.69348E+01 1.16127E+05 4.81077E-09 7.07735E-09
 -1       633 2.26687E+05 5.78963E+04 8.44070E+01 1.19727E+05 1.41836E-09-1.81331E-08
 -1       634 2.29848E+05 5.47484E+04 1.35247E+02 1.16125E+05 1.15438E-09-7.28005E-09
 -1       635 2.26698E+05 5.78960E+04 2.73007E+02 1.19730E+05-2.70876E-09 7.11680E-11
 -1       636 2.29838E+05 5.47446E+04 5.50975E+02 1.16123E+05-1.22213E-10-2.81352E-09
 -1       637 2.26815E+05 5.79822E+04 1.21104E+03 1.19727E+05 2.71439E-09 1.00363E-09
 -1       638 2.29794E+05 5.50128E+04 2.48832E+03 1.16001E+05-6.73481E-10 1.31340E-08
 -1       639 2.28122E+05 5.97998E+04 5.88711E+03 1.19341E+05-1.69553E-09 6.91580E-09
 -1       640 2.29616E+05 6.04376E+04 1.22168E+04 1.13710E+05-6.73481E-10-7.15727E-09
 -1       656 5.94986E+04-1.51781E+06-1.43629E+05-1.42954E+03 7.27596E-12-1.02868E-08
 -1       657-7.86883E+04-1.58269E+06-1.18935E+05 6.44504E+03-8.45830E-11-4.58383E-09
 -1       658 1.89430E+04-1.53626E+06-7.31835E+04-3.17235E+03 3.08773E-10 5.93897E-09
 -1       659-8.49091E+04-1.58564E+06-1.27108E+05 7.79886E+03-1.15051E-09-2.81037E-09
 -1       660 6.57052E+04-1.51487E+06-1.57682E+05-2.78334E+03-1.23691E-09-5.69611E-09
 -1       661 1.62267E+05 1.72536E+04 1.65244E+04 6.34449E+04 2.09639E-10-1.29749E-08
 -1       662 1.71368E+05 2.97275E+04 1.11357E+04 6.00126E+04-7.38225E-10-1.35287E-09
 -1       663 1.65511E+05 2.25560E+04 3.89486E+03 6.25045E+04-1.18689E-09 4.64161E-09
 -1       664 1.67609E+05 2.35250E+04 2.32946E+03 6.11598E+04 7.50788E-10-7.19510E-09
 -1       665 1.66001E+05 2.32818E+04 9.18959E+02 6.23630E+04 6.46480E-10 8.23258E-09
 -1       666 1.67030E+05 2.26936E+04 5.37217E+02 6.13435E+04 1.08223E-09-1.53010E-08
 -1       667 1.66086E+05 2.33656E+04 2.84766E+02 6.23288E+04 4.72767E-10-7.11366E-09
 -1       668 1.66937E+05 2.26316E+04 2.88795E+02 6.13933E+04-4.87614E-09-5.88508E-09
 -1       669 1.66093E+05 2.33420E+04 3.89883E+02 6.23137E+04-1.22115E-09 1.93420E-08
 -1       670 1.67033E+05 2.28419E+04 8.47937E+02 6.13954E+04-4.39618E-09 1.02964E-08
 -1       671 1.65991E+05 2.31596E+04 1.50523E+03 6.23248E+04-7.07345E-11 1.17129E-08
 -1       672 1.67910E+05 2.43062E+04 3.85081E+03 6.11831E+04 3.46262E-09 9.19744E-09
 -1       673 1.65221E+05 2.19147E+04 6.45324E+03 6.25119E+04-9.41327E-11 3.62706E-09
 -1       674 1.74053E+05 3.46729E+04 1.84549E+04 5.93774E+04-1.94495E-09 1.47634E-09
 -1       675 1.59887E+05 1.30832E+04 2.73933E+04 6.40214E+04-1.80489E-09 4.68935E-09
 -1       676 2.22923E+01-2.72014E+05-1.03445E+03-5.43923E+01 2.92943E-10-5.24807E-09
 -1       677-2.74537E+02-2.72264E+05-1.89319E+03 1.08708E+02 4.08249E-09-1.83176E-08
 -1       678 1.83416E+02-2.71836E+05-3.34668E+03-5.42795E+01 6.24709E-10-1.52641E-08
 -1       679-3.34754E+03-2.74284E+05-7.95024E+03 1.08276E+02 3.34012E-09 6.51853E-09
 -1       680 1.99799E+03-2.69995E+05-1.28131E+04-5.33537E+01 4.33829E-10 9.36772E-10
 -1       771-2.85108E+06-6.36535E+05-1.15645E+05-1.31849E+06-2.54367E-08-2.22353E-08
 -1       772-2.79288E+06-7.07524E+05-6.00470E+04-1.40003E+06-1.99507E-08 1.12414E-08
 -1       773-2.87276E+06-6.19485E+05-2.97007E+04-1.32721E+06-1.03319E-08 9.73523E-09
 -1       774-2.78387E+06-6.95101E+05-1.34442E+04-1.41687E+06 1.59489E-08-5.07862E-09
 -1       775-2.88313E+06-6.12154E+05-9.45215E+03-1.33099E+06-4.33647E-09 8.16362E-09
 -1       776-2.79053E+06-6.93711E+05-3.63436E+03-1.42905E+06-2.23517E-08 2.61934E-10
 -1       777-2.89192E+06-6.05759E+05-3.96229E+03-1.33431E+06-7.26141E-09 5.44969E-09
 -1       778-2.79764E+06-6.92504E+05-1.15505E+03-1.43944E+06 8.22183E-09 7.48150E-09
 -1       779-2.89937E+06-6.00239E+05-1.91460E+03-1.33715E+06-1.12195E-08-5.08589E-09
 -1       780-2.80387E+06-6.91340E+05-3.26035E+02-1.44789E+06-3.14321E-09-6.60293E-10
 -1       781-2.90524E+06-5.95823E+05-7.26992E+02-1.33937E+06-2.14059E-08 2.14641E-10
 -1       782-2.80865E+06-6.90329E+05 2.68404E+02-1.45411E+06-3.73402E-08-2.68938E-09
 -1       783-2.90934E+06-5.92783E+05 4.26871E+02-1.34094E+06-1.65819E-08-1.48877E-08
 -1       784-2.81125E+06-6.89188E+05 1.73443E+03-1.45793E+06-1.56851E-08 4.36557E-10
 -1       785-2.91175E+06-5.90984E+05 3.06395E+03-1.34195E+06-2.80961E-08 5.43332E-09
 -1       786 1.23893E+05-9.31146E+03 2.15420E+04-2.11776E+02 2.15170E-09 1.18371E-08
 -1       787 1.33235E+05 1.07800E+04 1.52402E+04-4.31294E+01 3.74242E-09 1.30303E-08
 -1       788 1.27495E+05-1.45942E+03 5.57376E+03-1.81897E+02 3.15445E-09 1.40842E-08
 -1       789 1.29039E+05 1.68869E+03 3.49955E+03-9.02011E+01-2.72442E-09 1.53161E-08
 -1       790 1.28090E+05-2.27550E+02 1.41812E+03-1.64715E+02-2.47715E-09-6.53461E-09
 -1       791 1.28343E+05 2.63014E+02 8.21447E+02-1.19863E+02-5.54334E-09-4.50484E-11
 -1       792 1.28191E+05-3.48110E+01 3.52830E+02-1.52236E+02-2.91494E-09-8.99978E-09
 -1       793 1.28224E+05 3.85568E+01 1.86290E+02-1.43351E+02-8.14857E-10 4.80544E-09
 -1       794 1.28209E+05-3.23507E+00 6.92985E+01-1.41226E+02 3.16690E-09-9.67275E-09
 -1       795 1.28197E+05-8.59292E+00 9.71506E-01-1.66277E+02-3.38727E-09-1.01280E-08
 -1       796 1.28218E+05 1.23135E+01-5.85867E+01-1.29310E+02 1.34177E-09-7.31391E-09
 -1       797 1.28154E+05-9.51085E+01-1.87792E+02-1.93520E+02 2.25326E-09-1.44292E-08
 -1       798 1.28252E+05 8.32148E+01-3.12429E+02-1.13983E+02 1.24498E-09-9.96940E-09
 -1       799 1.27915E+05-6.14163E+02-8.66033E+02-2.30943E+02 3.28419E-09 8.19489E-09
 -1       800 1.28457E+05 5.30938E+02-1.22744E+03-9.18867E+01 4.58432E-10 1.55615E-08
 -1       801-1.47346E+04-6.81900E+06-8.63259E+05 7.00763E+05 6.55418E-08-4.59549E-08
 -1       802 2.65861E+05 1.00763E+06 9.41747E+05-8.01142E+05 1.83943E-07-2.65004E-08
 -1       803-2.45001E+05-8.62420E+06-9.30635E+05 4.62504E+05 6.03541E-08 1.44864E-08
 -1       804 9.69699E+04-9.14963E+05 6.61403E+05 4.20645E+05-7.40038E-08-6.10617E-08
 -1       805 1.18298E+05-4.90998E+06-1.47834E+05-5.18534E+05-3.04753E-08-4.47999E-08
 -1       806-2.76083E+05-5.26628E+04-2.02061E+04-1.08525E+05 9.95442E-10 1.30640E-08
 -1       807-2.77795E+05-4.92423E+04-9.92704E+03-1.13283E+05 1.19053E-08-1.15915E-09
 -1       808-2.76628E+05-4.53907E+04-4.21144E+03-1.11980E+05-2.89492E-09-3.23303E-09
 -1       809-2.75713E+05-4.64480E+04-2.05932E+03-1.13522E+05-3.43539E-09-9.35233E-09
 -1       810-2.76712E+05-4.51374E+04-9.43842E+02-1.12134E+05 1.01745E-08-4.29441E-09
 -1       811-2.75553E+05-4.63351E+04-4.69349E+02-1.13491E+05 7.02494E-09-3.49019E-11
 -1       812-2.76725E+05-4.51587E+04-2.37247E+02-1.12133E+05-2.15095E-09-5.38239E-09
 -1       813-2.75532E+05-4.63366E+04-1.54073E+02-1.13475E+05-7.53607E-09-1.74141E-08
 -1       814-2.76720E+05-4.51665E+04-1.52371E+02-1.12130E+05-4.18549E-09-1.60489E-08
 -1       815-2.75536E+05-4.63382E+04-2.45467E+02-1.13470E+05-8.50105E-09-6.08998E-09
 -1       816-2.76704E+05-4.51647E+04-4.64968E+02-1.12128E+05 1.10776E-09 2.73349E-08
 -1       817-2.75617E+05-4.63822E+04-9.98217E+02-1.13461E+05-6.03404E-09 1.05301E-08
 -1       818-2.76645E+05-4.53043E+04-2.03578E+03-1.12062E+05 1.03046E-09-7.97309E-09
 -1       819-2.76731E+05-4.76135E+04-4.79065E+03-1.13201E+05 6.93035E-09-1.01893E-08
 -1       820-2.76267E+05-4.89185E+04-9.75039E+03-1.10512E+05 3.90628E-09 3.69960E-09
 -1       821-3.39721E+05 1.87424E+04-4.33631E+04 8.69434E+02 6.45267E-09 8.32006E-09
 -1       822-3.58443E+05-2.16977E+04-3.06738E+04-1.64026E+03 4.20247E-10 1.01227E-08
 -1       823-3.46929E+05 2.93989E+03-1.12278E+04 1.07608E+03-4.16316E-09 1.30340E-08
 -1       824-3.49987E+05-3.40012E+03-7.05946E+03-1.56565E+03 6.12381E-11-3.41845E-09
 -1       825-3.48174E+05 4.58513E+02-2.91213E+03 7.94837E+02 5.75782E-09 3.91015E-09
 -1       826-3.48491E+05-5.37845E+02-1.72865E+03-6.56291E+02 8.88047E-09 2.11799E-09
 -1       827-3.48420E+05 7.74833E+01-9.27784E+02 1.66704E+02 3.11247E-09 3.85953E-09
 -1       828-3.48283E+05-1.62258E+02-7.78051E+02 6.32496E+02-2.06930E-09 1.37768E-08
 -1       829-3.48381E+05 8.28851E+01-9.41597E+02-4.93971E+02 2.21831E-10-6.99529E-09
 -1       830-3.48588E+05-5.63890E+02-1.80883E+03 1.65412E+03 4.72404E-11 4.90655E-09
 -1       831-3.48118E+05 4.80969E+02-3.01490E+03-8.54938E+02-2.13329E-09-6.87805E-10
 -1       832-3.50073E+05-3.53881E+03-7.34440E+03 1.89486E+03-1.21433E-09-4.88399E-09
 -1       833-3.46899E+05 3.05647E+03-1.16814E+04-7.34714E+02-1.96393E-09-1.78402E-08
 -1       834-3.58764E+05-2.25623E+04-3.18832E+04 1.22306E+03-2.39962E-09-4.96675E-09
 -1       835-3.39428E+05 1.94880E+04-4.51074E+04-1.83129E+02 4.58486E-09 8.09814E-09
 -1       836-1.20481E+03 3.23941E+05 1.98729E+04-1.60529E+04-3.54612E-09 1.22577E-08
 -1       837 4.27931E+03 3.30145E+05 1.69102E+04-3.25011E+04-3.51906E-09 6.46946E-09
 -1       838-4.70560E+02 3.25668E+05 1.73617E+04-1.59856E+04-2.87901E-09 9.24206E-09
 -1       839 1.10213E+04 3.35169E+05 3.29731E+04-3.25465E+04-2.64754E-09 7.63112E-09
 -1       840-3.37773E+03 3.18868E+05 5.26366E+04-1.60095E+04-2.87764E-09 1.02358E-09
 -1       856-6.36425E+04 7.76458E+03-2.04617E+04-4.03272E+02 1.87174E-09 1.49703E-08
 -1       857-7.20821E+04-9.11564E+03-1.40863E+04 5.17518E+03 1.77920E-09-5.69253E-09
 -1       858-6.69812E+04 1.08848E+03-5.30967E+03-4.26146E+02 6.57678E-11 2.17278E-09
 -1       859-6.82496E+04-1.27353E+03-3.20506E+03 5.21023E+03-8.24059E-10 3.28987E-09
 -1       860-6.74801E+04 1.51972E+02-1.34471E+03-4.38234E+02 8.43102E-10-6.00011E-09
 -1       861-6.76754E+04-1.74898E+02-7.42870E+02 5.22675E+03-1.42559E-09 7.61133E-10
 -1       862-6.75580E+04 2.03258E+01-3.15046E+02-4.42677E+02 1.53046E-09-9.49797E-09
 -1       863-6.75810E+04-1.60104E+01-1.28941E+02 5.22912E+03 8.65370E-10 7.23530E-09
 -1       864-6.75749E+04-3.35017E+00 1.37607E+01-4.40603E+02 1.08228E-09 5.71983E-09
 -1       865-6.75359E+04 4.85664E+01 1.75941E+02 5.21789E+03-8.04420E-10-6.44405E-10
 -1       866-6.76012E+04-4.44307E+01 3.70951E+02-4.31445E+02 1.58707E-10-8.81073E-10
 -1       867-6.73571E+04 3.68600E+02 9.23612E+02 5.19296E+03 4.56055E-10 9.95290E-09
 -1       868-6.77495E+04-3.18083E+02 1.53727E+03-4.15673E+02-4.05350E-10-1.14642E-09
 -1       869-6.62269E+04 2.64706E+03 4.09718E+03 5.15148E+03-3.31681E-11-9.27361E-09
 -1       870-6.87248E+04-2.26170E+03 5.94534E+03-3.89930E+02-8.87553E-10-9.78162E-10
 -1       871-5.02603E+03-1.58784E+04-1.71156E+04 1.14185E+05-1.95723E-09 5.91626E-09
 -1       872-1.97243E+03-1.97986E+04-7.10405E+03 1.48049E+05-4.42742E-09 6.45696E-09
 -1       873 1.82622E+02-1.79308E+04 6.75660E+02 1.13935E+05-2.43472E-09-2.07217E-09
 -1       874 2.76311E+03-1.56806E+04 8.95696E+03 1.48084E+05-5.22505E-09 1.02327E-08
 -1       875 6.04609E+03-2.00628E+04 2.00837E+04 1.14145E+05-2.30648E-09 2.70120E-09
 -1       876 2.64760E+05 4.49398E+04 1.37464E+04 1.06624E+05 1.23100E-09 1.95514E-08
 -1       877 2.65636E+05 4.78677E+04 7.34104E+03 1.10598E+05 3.96903E-09 7.79892E-11
 -1       878 2.66044E+05 4.34181E+04 3.07555E+03 1.07752E+05-2.43745E-10-1.24078E-09
 -1       879 2.63767E+05 4.60035E+04 1.53234E+03 1.10692E+05 2.34013E-09 2.22522E-08
 -1       880 2.66137E+05 4.34020E+04 7.13672E+02 1.07798E+05 5.22277E-09 1.85539E-08
 -1       881 2.63643E+05 4.59240E+04 3.80885E+02 1.10671E+05 1.01536E-08 8.42721E-09
 -1       882 2.66146E+05 4.34138E+04 2.43294E+02 1.07799E+05 5.52427E-09-2.23302E-09
 -1       883 2.63634E+05 4.59200E+04 2.60936E+02 1.10664E+05-2.21519E-09 2.07021E-08
 -1       884 2.66140E+05 4.34111E+04 4.14536E+02 1.07800E+05-1.97053E-09 2.45620E-10
 -1       885 2.63667E+05 4.59258E+04 8.33105E+02 1.10675E+05 7.76652E-10-4.53656E-09
 -1       886 2.66108E+05 4.33868E+04 1.67893E+03 1.07796E+05-7.93889E-10 1.12209E-09
 -1       887 2.63962E+05 4.61192E+04 3.66735E+03 1.10717E+05 8.73115E-11-6.64829E-09
 -1       888 2.65876E+05 4.34275E+04 7.38981E+03 1.07679E+05-2.79644E-09-6.64841E-09
 -1       889 2.68362E+05 5.06934E+04 1.76532E+04 1.10581E+05 1.80579E-09-7.48969E-10
 -1       890 2.62863E+05 4.70072E+04 3.30636E+04 1.04863E+05 9.22682E-10-6.48288E-09
 -1       891-1.14299E+02-1.47816E+05-1.79505E+03 2.57289E+04-3.67208E-10 6.80416E-09
 -1       892-2.09603E+02-1.48273E+05-1.93385E+03 3.90097E+04 1.16233E-09 5.60067E-09
 -1       893 5.20523E+00-1.47873E+05-2.74423E+03 2.57351E+04-5.82077E-10-2.89265E-09
 -1       894-1.41819E+03-1.49313E+05-5.68401E+03 3.88676E+04 9.12223E-10-1.86451E-08
 -1       895-1.11918E+03-1.46689E+05-1.00112E+04 2.58711E+04-1.43586E-10 3.83443E-09
 -1       956-3.37936E+05-4.80774E+03-1.19793E+04 2.54904E+04-5.31418E-09-5.19776E-09
 -1       957-3.40294E+05-1.66057E+03-6.14922E+03 3.06649E+04-1.22855E-08 1.47156E-09
 -1       958-3.39007E+05-1.72617E+02-2.77074E+03 2.53449E+04-5.92809E-09 1.58352E-08
 -1       959-3.39188E+05-7.30414E+01-1.41503E+03 3.08295E+04 4.42878E-09 9.11996E-09
 -1       960-3.39107E+05-9.21759E-01-6.89986E+02 2.53304E+04 4.52792E-09 2.92675E-09
 -1       961-3.39112E+05-1.03721E+01-3.66065E+02 3.08465E+04 5.95060E-09 4.49290E-09
 -1       962-3.39129E+05-3.68198E+00-2.09777E+02 2.53280E+04-7.20320E-10-1.41563E-09
 -1       963-3.39111E+05-7.68217E+00-1.68802E+02 3.08495E+04 1.85560E-09 3.14481E-09
 -1       964-3.39134E+05-1.02827E+00-2.05612E+02 2.53273E+04-8.99632E-10 5.78120E-09
 -1       965-3.39122E+05-4.71944E+00-3.55902E+02 3.08490E+04-3.25798E-09-5.30122E-09
 -1       966-3.39121E+05 6.96962E+00-6.68692E+02 2.53285E+04 7.01016E-09-2.22963E-09
 -1       967-3.39205E+05-6.00012E+01-1.37161E+03 3.08376E+04 9.90531E-09-6.79165E-10
 -1       968-3.39031E+05-1.54297E+02-2.68480E+03 2.53388E+04 1.86947E-09-4.36461E-09
 -1       969-3.40287E+05-1.59424E+03-5.96059E+03 3.07173E+04-2.54636E-09-1.85452E-09
 -1       970-3.38000E+05-4.64400E+03-1.16109E+04 2.54457E+04 8.45830E-11-7.82893E-09
 -1       971-3.12720E+05-1.58954E+03-8.67882E+03 1.42975E+04 2.83399E-09-9.76635E-09
 -1       972-3.14818E+05-1.15721E+03-4.72641E+03 1.98615E+04 3.20870E-09 8.05085E-09
 -1       973-3.13687E+05-3.75086E+01-2.11679E+03 1.41817E+04-1.99179E-10-4.21824E-09
 -1       974-3.13821E+05-4.74813E+01-1.09703E+03 1.99899E+04 4.73369E-09 1.30990E-09
 -1       975-3.13763E+05 3.91973E+00-5.48187E+02 1.41704E+04-1.10504E-10 8.49138E-09
 -1       976-3.13763E+05-1.34762E+00-3.15948E+02 2.00041E+04 1.80785E-09-3.67129E-09
 -1       977-3.13777E+05 4.30261E+00-2.28745E+02 1.41675E+04 1.97838E-09-6.70957E-09
 -1       978-3.13768E+05 4.20819E+00-2.66909E+02 2.00082E+04 8.73774E-09-1.02265E-08
 -1       979-3.13777E+05 1.18576E+01-4.28175E+02 1.41663E+04 3.36507E-09-9.35029E-09
 -1       980-3.13800E+05 6.94599E+00-8.26334E+02 2.00090E+04 2.09128E-09-2.84024E-09
 -1       981-3.13751E+05 3.24896E+01-1.60020E+03 1.41667E+04-9.14156E-10-5.41036E-10
 -1       982-3.14019E+05-1.11247E+02-3.30745E+03 2.00029E+04-1.29568E-08-3.77766E-09
 -1       983-3.13549E+05-6.99120E+01-6.42632E+03 1.41725E+04-4.28213E-09 1.47900E-08
 -1       984-3.17110E+05-3.46740E+03-1.43913E+04 1.99227E+04 1.20281E-09 1.37741E-08
 -1       985-3.10640E+05-4.77228E+03-2.64269E+04 1.42453E+04-2.34650E-09-2.16460E-09
 -3
    1PSTEP                        27          14           1          
  100CL  114 6.22559E-01         409                     0   14           1
 -4  DISP        4    1
 -5  D1          1    2    1    0
 -5  D2          1    2    2    0
 -5  D3          1    2    3    0
 -5  ALL         1    2    0    0    1ALL
 -1         1 1.60722E-03 0.00000E+00 0.00000E+00
 -1         2 1.50851E-03 7.20236E-30 0.00000E+00
 -1         3 2.91458E-04 6.25831E-27 0.00000E+00
 -1         5 1.56465E-04 1.46225E-26 8.27181E-25
 -1         8 1.58880E-03-5.72004E-07 0.00000E+00
 -1         9 1.55216E-03-4.51465E-06 0.00000E+00
 -1        10 2.63329E-04-3.50374E-06 6.61744E-24
 -1        12 1.57570E-04 7.32458E-07-4.13590E-25
 -1        15 1.56654E-03-6.28323E-07 0.00000E+00
 -1        16 1.57381E-03-5.46644E-06 0.00000E+00
 -1        17 1.79923E-04-7.61557E-06 0.00000E+00
 -1        18 1.59427E-04 2.40446E-05 0.00000E+00
 -1        19 1.60886E-04 1.46036E-06 0.00000E+00
 -1        20 1.61031E-04-1.79018E-06 0.00000E+00
 -1        21 1.60245E-04-8.17496E-06 3.30872E-24
 -1        24 2.81402E-05-1.10660E-05 0.00000E+00
 -1        25 1.66487E-04 2.42401E-05 0.00000E+00
 -1        26 1.67185E-04 2.02354E-06 0.00000E+00
 -1        27 1.65190E-04-5.05151E-06 0.00000E+00
 -1        28 1.64830E-04-8.75586E-06 0.00000E+00
 -1        32 0.00000E+00 0.00000E+00 0.00000E+00
 -1        33 1.72442E-04 2.70947E-06 0.00000E+00
 -1        34 1.70497E-04-5.09476E-06 0.00000E+00
 -1        35 1.68707E-04-9.07179E-06 0.00000E+00
 -1        51 1.60604E-03-1.05414E-07 0.00000E+00
 -1        52 1.60383E-03-1.97450E-07 0.00000E+00
 -1        53 1.60080E-03-2.87966E-07 0.00000E+00
 -1        54 1.59715E-03-3.79031E-07 0.00000E+00
 -1        55 1.59308E-03-4.72102E-07-5.79026E-24
 -1        56 1.60383E-03-6.24080E-08 5.29396E-23
 -1        57 1.59955E-03 1.88893E-06 5.29396E-23
 -1        58 1.59463E-03 5.55668E-06 0.00000E+00
 -1        59 1.58922E-03 1.04639E-05-5.29396E-23
 -1        60 1.58358E-03 1.59717E-05 1.05879E-22
 -1        61 1.57796E-03 2.13900E-05 0.00000E+00
 -1        62 1.57264E-03 2.60430E-05 0.00000E+00
 -1        63 1.56785E-03 2.93086E-05 0.00000E+00
 -1        64 1.56374E-03 3.07658E-05 0.00000E+00
 -1        65 1.56042E-03 3.01235E-05 0.00000E+00
 -1        66 1.55789E-03 2.73950E-05-1.05879E-22
 -1        67 1.55607E-03 2.27452E-05 0.00000E+00
 -1        68 1.55480E-03 1.66172E-05-1.05879E-22
 -1        69 1.55389E-03 9.56840E-06 5.29396E-23
 -1        70 1.55306E-03 2.27702E-06 0.00000E+00
 -1        86 1.51063E-03-7.25885E-07 0.00000E+00
 -1        87 1.51692E-03-1.46867E-06 0.00000E+00
 -1        88 1.52592E-03-2.23053E-06-2.64698E-23
 -1        89 1.53608E-03-3.00327E-06 0.00000E+00
 -1        90 1.54547E-03-3.76893E-06 0.00000E+00
 -1       121 2.90667E-04-5.70289E-07 0.00000E+00
 -1       122 2.88298E-04-1.14297E-06-6.61744E-24
 -1       123 2.84359E-04-1.72040E-06 0.00000E+00
 -1       124 2.78869E-04-2.30490E-06-6.61744E-24
 -1       125 2.71849E-04-2.89853E-06-1.32349E-23
 -1       191 1.56496E-04 1.22102E-07 1.65436E-24
 -1       192 1.56588E-04 2.44199E-07 0.00000E+00
 -1       193 1.56741E-04 3.66289E-07-2.48154E-24
 -1       194 1.56956E-04 4.88366E-07 8.27181E-25
 -1       195 1.57233E-04 6.10425E-07-1.65436E-24
 -1       251 1.58804E-03 1.83777E-05 0.00000E+00
 -1       252 1.58629E-03 6.73769E-05 0.00000E+00
 -1       253 1.58336E-03 1.37626E-04 0.00000E+00
 -1       254 1.57954E-03 2.19836E-04 6.61744E-24
 -1       255 1.57577E-03 3.01432E-04 1.32349E-23
 -1       256 1.57296E-03 3.69855E-04 0.00000E+00
 -1       257 1.57133E-03 4.16158E-04 1.32349E-23
 -1       258 1.57061E-03 4.31900E-04-6.61744E-24
 -1       259 1.56989E-03 4.16628E-04 0.00000E+00
 -1       260 1.56827E-03 3.70652E-04 0.00000E+00
 -1       261 1.56546E-03 3.02298E-04 0.00000E+00
 -1       262 1.56167E-03 2.20409E-04 0.00000E+00
 -1       263 1.55780E-03 1.37535E-04 1.32349E-23
 -1       264 1.55479E-03 6.62509E-05-6.61744E-24
 -1       265 1.55298E-03 1.59324E-05 0.00000E+00
 -1       266 1.58509E-03-5.89714E-07 0.00000E+00
 -1       267 1.58138E-03-5.98086E-07-8.27181E-25
 -1       268 1.57767E-03-6.07049E-07 0.00000E+00
 -1       269 1.57396E-03-6.14261E-07 2.06795E-25
 -1       270 1.57025E-03-6.21431E-07 0.00000E+00
 -1       271 1.58650E-03 2.83644E-06 0.00000E+00
 -1       272 1.58419E-03 6.20839E-06 0.00000E+00
 -1       273 1.58192E-03 9.44000E-06-2.64698E-23
 -1       274 1.57975E-03 1.24154E-05 0.00000E+00
 -1       275 1.57772E-03 1.50254E-05 0.00000E+00
 -1       276 1.57586E-03 1.71635E-05-1.32349E-23
 -1       277 1.57422E-03 1.87291E-05-2.64698E-23
 -1       278 1.57284E-03 1.96277E-05 0.00000E+00
 -1       279 1.57173E-03 1.97735E-05 2.64698E-23
 -1       280 1.57094E-03 1.90887E-05 0.00000E+00
 -1       281 1.57048E-03 1.75058E-05 0.00000E+00
 -1       282 1.57038E-03 1.49676E-05 0.00000E+00
 -1       283 1.57065E-03 1.14284E-05 2.64698E-23
 -1       284 1.57131E-03 6.85497E-06 0.00000E+00
 -1       285 1.57235E-03 1.22427E-06 2.64698E-23
 -1       301 1.55610E-03-4.69482E-06-1.32349E-23
 -1       302 1.55911E-03-4.84493E-06 0.00000E+00
 -1       303 1.56179E-03-4.99183E-06 0.00000E+00
 -1       304 1.56473E-03-5.13873E-06 0.00000E+00
 -1       305 1.56854E-03-5.29012E-06 0.00000E+00
 -1       306 1.58165E-03-1.15378E-04 0.00000E+00
 -1       307 1.64451E-03-4.25868E-04-5.29396E-23
 -1       308 1.71010E-03-8.86430E-04 1.05879E-22
 -1       309 1.76774E-03-1.42809E-03 0.00000E+00
 -1       310 1.82672E-03-1.95763E-03 1.05879E-22
 -1       311 1.89368E-03-2.38302E-03 0.00000E+00
 -1       312 1.95123E-03-2.64183E-03 0.00000E+00
 -1       313 1.96389E-03-2.69517E-03 5.29396E-23
 -1       314 1.88900E-03-2.54630E-03 0.00000E+00
 -1       315 1.69869E-03-2.22892E-03 5.29396E-23
 -1       316 1.40362E-03-1.79895E-03-1.05879E-22
 -1       317 1.04283E-03-1.31345E-03 5.29396E-23
 -1       318 6.87850E-04-8.32693E-04-1.05879E-22
 -1       319 4.08558E-04-4.17602E-04 0.00000E+00
 -1       320 2.37933E-04-1.24666E-04 0.00000E+00
 -1       336 2.53251E-04-4.14534E-06-1.32349E-23
 -1       337 2.41565E-04-4.80385E-06 6.61744E-24
 -1       338 2.28324E-04-5.48059E-06-1.32349E-23
 -1       339 2.13590E-04-6.17540E-06 0.00000E+00
 -1       340 1.97431E-04-6.89144E-06-1.32349E-23
 -1       406 1.57969E-04 8.54456E-07-2.48154E-24
 -1       407 1.58430E-04 9.76389E-07 8.27181E-25
 -1       408 1.58952E-04 1.09822E-06-8.27181E-25
 -1       409 1.59536E-04 1.21980E-06-8.27181E-25
 -1       410 1.60181E-04 1.34088E-06-3.30872E-24
 -1       521 1.60436E-03-1.24824E-04-1.05879E-22
 -1       522 1.66745E-03-4.54498E-04-5.29396E-23
 -1       523 1.73036E-03-9.42283E-04 0.00000E+00
 -1       524 1.78297E-03-1.51363E-03-5.29396E-23
 -1       525 1.83740E-03-2.07147E-03 1.05879E-22
 -1       526 1.90268E-03-2.52015E-03 5.29396E-23
 -1       527 1.96063E-03-2.79206E-03-1.05879E-22
 -1       528 1.97256E-03-2.84700E-03 0.00000E+00
 -1       529 1.89041E-03-2.68763E-03 1.05879E-22
 -1       530 1.68376E-03-2.35263E-03 5.29396E-23
 -1       531 1.36316E-03-1.90100E-03-1.05879E-22
 -1       532 9.71751E-04-1.39323E-03 5.29396E-23
 -1       533 5.86059E-04-8.89826E-04 0.00000E+00
 -1       534 2.80974E-04-4.51988E-04-5.29396E-23
 -1       535 9.37037E-05-1.40011E-04 0.00000E+00
 -1       536 1.79361E-04 2.12652E-05 6.61744E-24
 -1       537 1.77996E-04 7.14830E-05 0.00000E+00
 -1       538 1.75905E-04 1.35260E-04-3.30872E-24
 -1       539 1.73449E-04 2.04747E-04 1.65436E-24
 -1       540 1.71237E-04 2.70385E-04-3.30872E-24
 -1       541 1.69785E-04 3.22637E-04 0.00000E+00
 -1       542 1.69097E-04 3.55791E-04 3.30872E-24
 -1       543 1.68903E-04 3.64255E-04 0.00000E+00
 -1       544 1.68631E-04 3.48729E-04 3.30872E-24
 -1       545 1.67757E-04 3.10085E-04-1.65436E-24
 -1       546 1.66174E-04 2.55209E-04 0.00000E+00
 -1       547 1.64061E-04 1.91087E-04 0.00000E+00
 -1       548 1.61975E-04 1.27411E-04 0.00000E+00
 -1       549 1.60462E-04 7.38715E-05 0.00000E+00
 -1       550 1.59661E-04 3.72053E-05 0.00000E+00
 -1       551 1.58928E-04-8.09263E-06 0.00000E+00
 -1       552 1.35029E-04-8.62768E-06 3.30872E-24
 -1       553 1.09106E-04-9.20852E-06-9.51258E-24
 -1       554 8.20538E-05-9.81910E-06 0.00000E+00
 -1       555 5.47685E-05-1.04380E-05 2.64698E-23
 -1       556 1.73685E-04 8.39829E-06 0.00000E+00
 -1       557 1.68679E-04 2.12936E-05 0.00000E+00
 -1       558 1.64788E-04 3.13197E-05 0.00000E+00
 -1       559 1.61900E-04 3.87462E-05 0.00000E+00
 -1       560 1.59904E-04 4.38424E-05 0.00000E+00
 -1       561 1.58690E-04 4.68801E-05 0.00000E+00
 -1       562 1.58152E-04 4.81316E-05 0.00000E+00
 -1       563 1.58183E-04 4.78703E-05 0.00000E+00
 -1       564 1.58679E-04 4.63699E-05 0.00000E+00
 -1       565 1.59535E-04 4.39047E-05 0.00000E+00
 -1       566 1.60648E-04 4.07494E-05 0.00000E+00
 -1       567 1.61916E-04 3.71789E-05 0.00000E+00
 -1       568 1.63235E-04 3.34682E-05 1.44757E-24
 -1       569 1.64505E-04 2.98922E-05 0.00000E+00
 -1       570 1.65622E-04 2.67260E-05 0.00000E+00
 -1       571 1.59515E-04 2.25827E-05 1.65436E-24
 -1       572 1.59606E-04 2.10632E-05-1.24077E-24
 -1       573 1.59697E-04 1.94995E-05 1.65436E-24
 -1       574 1.59788E-04 1.79053E-05 8.27181E-25
 -1       575 1.59879E-04 1.62945E-05 0.00000E+00
 -1       576 1.59970E-04 1.46810E-05-1.65436E-24
 -1       577 1.60062E-04 1.30787E-05 0.00000E+00
 -1       578 1.60153E-04 1.15016E-05-4.96308E-24
 -1       579 1.60244E-04 9.96363E-06 0.00000E+00
 -1       580 1.60336E-04 8.47871E-06 0.00000E+00
 -1       581 1.60427E-04 7.06080E-06 0.00000E+00
 -1       582 1.60519E-04 5.72381E-06 3.30872E-24
 -1       583 1.60611E-04 4.48167E-06-6.61744E-24
 -1       584 1.60703E-04 3.34814E-06 0.00000E+00
 -1       585 1.60795E-04 2.33687E-06 0.00000E+00
 -1       586 1.60556E-04 2.40792E-05 0.00000E+00
 -1       587 1.61652E-04 2.41131E-05-4.13590E-25
 -1       588 1.62753E-04 2.41467E-05-8.27181E-25
 -1       589 1.63899E-04 2.41797E-05 0.00000E+00
 -1       590 1.65131E-04 2.42116E-05 0.00000E+00
 -1       591 1.59919E-04 2.26589E-05-1.03398E-25
 -1       592 1.60416E-04 2.12508E-05 2.06795E-25
 -1       593 1.60918E-04 1.98261E-05 0.00000E+00
 -1       594 1.61425E-04 1.83898E-05 0.00000E+00
 -1       595 1.61934E-04 1.69467E-05 0.00000E+00
 -1       596 1.62444E-04 1.55017E-05 4.13590E-25
 -1       597 1.62953E-04 1.40597E-05 0.00000E+00
 -1       598 1.63458E-04 1.26256E-05-4.13590E-25
 -1       599 1.63959E-04 1.12043E-05 0.00000E+00
 -1       600 1.64453E-04 9.80067E-06 0.00000E+00
 -1       601 1.64939E-04 8.41953E-06 0.00000E+00
 -1       602 1.65415E-04 7.06577E-06 4.13590E-25
 -1       603 1.65879E-04 5.74428E-06 4.13590E-25
 -1       604 1.66329E-04 4.46003E-06 1.29247E-26
 -1       605 1.66764E-04 3.21782E-06 0.00000E+00
 -1       606 1.60900E-04 7.92512E-07 0.00000E+00
 -1       607 1.60910E-04 2.13951E-07 0.00000E+00
 -1       608 1.60919E-04-2.80569E-07 0.00000E+00
 -1       609 1.60928E-04-6.96956E-07 0.00000E+00
 -1       610 1.60937E-04-1.04117E-06 0.00000E+00
 -1       611 1.60945E-04-1.31924E-06 0.00000E+00
 -1       612 1.60954E-04-1.53719E-06 0.00000E+00
 -1       613 1.60963E-04-1.70106E-06 0.00000E+00
 -1       614 1.60971E-04-1.81690E-06 0.00000E+00
 -1       615 1.60980E-04-1.89074E-06 0.00000E+00
 -1       616 1.60989E-04-1.92863E-06 0.00000E+00
 -1       617 1.60998E-04-1.93660E-06 0.00000E+00
 -1       618 1.61006E-04-1.92071E-06 0.00000E+00
 -1       619 1.61015E-04-1.88698E-06 0.00000E+00
 -1       620 1.61023E-04-1.84146E-06 0.00000E+00
 -1       621 1.61719E-04 1.55458E-06-3.30872E-24
 -1       622 1.62672E-04 1.64908E-06 8.27181E-25
 -1       623 1.63720E-04 1.74347E-06 1.65436E-24
 -1       624 1.64839E-04 1.83762E-06 0.00000E+00
 -1       625 1.66002E-04 1.93155E-06 0.00000E+00
 -1       626 1.61240E-04 8.25352E-07-3.30872E-24
 -1       627 1.61569E-04 2.58645E-07-1.65436E-24
 -1       628 1.61875E-04-2.47567E-07 0.00000E+00
 -1       629 1.62162E-04-7.01442E-07-1.65436E-24
 -1       630 1.62432E-04-1.11116E-06-3.30872E-24
 -1       631 1.62689E-04-1.48494E-06-1.65436E-24
 -1       632 1.62936E-04-1.83097E-06 0.00000E+00
 -1       633 1.63175E-04-2.15747E-06 0.00000E+00
 -1       634 1.63410E-04-2.47264E-06 0.00000E+00
 -1       635 1.63644E-04-2.78469E-06 0.00000E+00
 -1       636 1.63880E-04-3.10184E-06 0.00000E+00
 -1       637 1.64120E-04-3.43228E-06 0.00000E+00
 -1       638 1.64369E-04-3.78423E-06 3.30872E-24
 -1       639 1.64628E-04-4.16592E-06 8.27181E-25
 -1       640 1.64902E-04-4.58557E-06 0.00000E+00
 -1       656 1.61207E-04-2.32045E-06 0.00000E+00
 -1       657 1.61788E-04-2.87214E-06-6.61744E-24
 -1       658 1.62635E-04-3.42243E-06-1.32349E-23
 -1       659 1.63602E-04-3.97235E-06 6.61744E-24
 -1       660 1.64512E-04-4.52395E-06 0.00000E+00
 -1       661 1.61099E-04-1.77880E-06-8.27181E-25
 -1       662 1.61200E-04-1.84891E-06 0.00000E+00
 -1       663 1.61329E-04-1.99627E-06 0.00000E+00
 -1       664 1.61487E-04-2.21538E-06 8.27181E-25
 -1       665 1.61669E-04-2.50141E-06 1.65436E-24
 -1       666 1.61874E-04-2.84939E-06-8.27181E-25
 -1       667 1.62101E-04-3.25464E-06-1.65436E-24
 -1       668 1.62348E-04-3.71252E-06 0.00000E+00
 -1       669 1.62613E-04-4.21856E-06 0.00000E+00
 -1       670 1.62894E-04-4.76837E-06 8.27181E-25
 -1       671 1.63190E-04-5.35770E-06 0.00000E+00
 -1       672 1.63499E-04-5.98238E-06 0.00000E+00
 -1       673 1.63820E-04-6.63830E-06-1.65436E-24
 -1       674 1.64150E-04-7.32171E-06 8.27181E-25
 -1       675 1.64489E-04-8.02824E-06 0.00000E+00
 -1       676 1.61012E-04-8.27235E-06-3.30872E-24
 -1       677 1.61778E-04-8.36969E-06 0.00000E+00
 -1       678 1.62544E-04-8.46698E-06 3.30872E-24
 -1       679 1.63308E-04-8.56398E-06 0.00000E+00
 -1       680 1.64070E-04-8.66096E-06 0.00000E+00
 -1       771 1.81644E-05 1.10023E-05 0.00000E+00
 -1       772 9.73814E-06 2.91242E-05 5.29396E-23
 -1       773 2.78740E-06 4.34951E-05 0.00000E+00
 -1       774-2.78818E-06 5.43325E-05 0.00000E+00
 -1       775-7.08724E-06 6.18617E-05 5.29396E-23
 -1       776-1.02123E-05 6.63208E-05 0.00000E+00
 -1       777-1.22662E-05 6.79555E-05 0.00000E+00
 -1       778-1.33538E-05 6.70221E-05-2.64698E-23
 -1       779-1.35797E-05 6.37833E-05-5.29396E-23
 -1       780-1.30504E-05 5.85104E-05 0.00000E+00
 -1       781-1.18720E-05 5.14798E-05 0.00000E+00
 -1       782-1.01518E-05 4.29747E-05 0.00000E+00
 -1       783-7.99669E-06 3.32818E-05 0.00000E+00
 -1       784-5.51457E-06 2.26923E-05 0.00000E+00
 -1       785-2.81278E-06 1.14999E-05 0.00000E+00
 -1       786 1.66527E-04 2.26335E-05-5.16988E-26
 -1       787 1.66570E-04 2.10750E-05-4.13590E-25
 -1       788 1.66613E-04 1.95565E-05 0.00000E+00
 -1       789 1.66656E-04 1.80702E-05 8.27181E-25
 -1       790 1.66700E-04 1.66116E-05 1.65436E-24
 -1       791 1.66744E-04 1.51760E-05 0.00000E+00
 -1       792 1.66788E-04 1.37614E-05 0.00000E+00
 -1       793 1.66832E-04 1.23657E-05 8.27181E-25
 -1       794 1.66876E-04 1.09885E-05 1.65436E-24
 -1       795 1.66920E-04 9.62988E-06 0.00000E+00
 -1       796 1.66964E-04 8.29148E-06 1.65436E-24
 -1       797 1.67008E-04 6.97509E-06 0.00000E+00
 -1       798 1.67052E-04 5.68477E-06 1.65436E-24
 -1       799 1.67096E-04 4.42461E-06 0.00000E+00
 -1       800 1.67141E-04 3.20177E-06 0.00000E+00
 -1       801 1.30276E-04 2.16150E-05-2.64698E-23
 -1       802 2.04225E-05 1.38030E-05 2.64698E-23
 -1       803-7.51656E-05 7.17879E-06-5.29396E-23
 -1       804-6.99103E-05 4.91347E-06 0.00000E+00
 -1       805-2.35829E-05 2.08972E-06-5.29396E-23
 -1       806 1.66984E-04 2.25716E-05-1.65436E-24
 -1       807 1.67468E-04 2.09296E-05 8.27181E-25
 -1       808 1.67939E-04 1.93184E-05 3.30872E-24
 -1       809 1.68397E-04 1.77416E-05 1.65436E-24
 -1       810 1.68841E-04 1.62026E-05 0.00000E+00
 -1       811 1.69270E-04 1.47046E-05 1.65436E-24
 -1       812 1.69681E-04 1.32510E-05-3.30872E-24
 -1       813 1.70075E-04 1.18451E-05-8.27181E-25
 -1       814 1.70450E-04 1.04903E-05-3.30872E-24
 -1       815 1.70805E-04 9.18966E-06 0.00000E+00
 -1       816 1.71138E-04 7.94665E-06-3.30872E-24
 -1       817 1.71449E-04 6.76447E-06 0.00000E+00
 -1       818 1.71735E-04 5.64642E-06 3.30872E-24
 -1       819 1.71997E-04 4.59575E-06 8.27181E-25
 -1       820 1.72233E-04 3.61571E-06-3.30872E-24
 -1       821 1.67067E-04 6.72060E-07 0.00000E+00
 -1       822 1.66941E-04-1.06770E-06 1.65436E-24
 -1       823 1.66816E-04-3.00665E-06 3.30872E-24
 -1       824 1.66689E-04-4.95451E-06 1.65436E-24
 -1       825 1.66562E-04-6.71897E-06 3.30872E-24
 -1       826 1.66435E-04-8.10872E-06-1.65436E-24
 -1       827 1.66309E-04-9.02754E-06 3.30872E-24
 -1       828 1.66184E-04-9.38192E-06 0.00000E+00
 -1       829 1.66058E-04-9.22157E-06 0.00000E+00
 -1       830 1.65932E-04-8.59911E-06 0.00000E+00
 -1       831 1.65807E-04-7.68443E-06 0.00000E+00
 -1       832 1.65681E-04-6.64909E-06 0.00000E+00
 -1       833 1.65555E-04-5.69531E-06-3.30872E-24
 -1       834 1.65431E-04-5.02481E-06 0.00000E+00
 -1       835 1.65307E-04-4.76765E-06 0.00000E+00
 -1       836 1.68254E-04 2.13744E-06 0.00000E+00
 -1       837 1.69204E-04 2.25410E-06 0.00000E+00
 -1       838 1.70067E-04 2.37065E-06 0.00000E+00
 -1       839 1.70874E-04 2.48653E-06 0.00000E+00
 -1       840 1.71655E-04 2.60223E-06 0.00000E+00
 -1       856 1.65171E-04-5.53839E-06 4.13590E-25
 -1       857 1.65149E-04-5.89776E-06 5.16988E-26
 -1       858 1.65127E-04-6.14949E-06 0.00000E+00
 -1       859 1.65105E-04-6.31353E-06 0.00000E+00
 -1       860 1.65082E-04-6.40991E-06-8.27181E-25
 -1       861 1.65059E-04-6.45872E-06 4.13590E-25
 -1       862 1.65037E-04-6.48008E-06 0.00000E+00
 -1       863 1.65014E-04-6.49413E-06-4.13590E-25
 -1       864 1.64991E-04-6.52105E-06 0.00000E+00
 -1       865 1.64969E-04-6.58096E-06 0.00000E+00
 -1       866 1.64946E-04-6.69399E-06-8.27181E-25
 -1       867 1.64923E-04-6.88021E-06 0.00000E+00
 -1       868 1.64900E-04-7.15962E-06 0.00000E+00
 -1       869 1.64877E-04-7.55217E-06 0.00000E+00
 -1       870 1.64854E-04-8.07767E-06 0.00000E+00
 -1       871 1.65941E-04-5.05472E-06 0.00000E+00
 -1       872 1.66827E-04-5.06096E-06 0.00000E+00
 -1       873 1.67788E-04-5.06780E-06-4.13590E-25
 -1       874 1.68761E-04-5.07532E-06 5.16988E-26
 -1       875 1.69685E-04-5.08340E-06-2.06795E-25
 -1       876 1.65491E-04-5.52522E-06 3.30872E-24
 -1       877 1.65771E-04-5.93643E-06 0.00000E+00
 -1       878 1.66031E-04-6.29263E-06 3.30872E-24
 -1       879 1.66273E-04-6.60074E-06 0.00000E+00
 -1       880 1.66499E-04-6.86776E-06 3.30872E-24
 -1       881 1.66713E-04-7.10060E-06 0.00000E+00
 -1       882 1.66917E-04-7.30619E-06 0.00000E+00
 -1       883 1.67113E-04-7.49142E-06-1.65436E-24
 -1       884 1.67304E-04-7.66320E-06-3.30872E-24
 -1       885 1.67493E-04-7.82844E-06-1.65436E-24
 -1       886 1.67681E-04-7.99403E-06 3.30872E-24
 -1       887 1.67872E-04-8.16688E-06 0.00000E+00
 -1       888 1.68069E-04-8.35393E-06 3.30872E-24
 -1       889 1.68272E-04-8.56221E-06-1.65436E-24
 -1       890 1.68486E-04-8.79860E-06-1.65436E-24
 -1       891 1.65611E-04-8.80887E-06 0.00000E+00
 -1       892 1.66370E-04-8.86203E-06-8.27181E-25
 -1       893 1.67084E-04-8.91512E-06 0.00000E+00
 -1       894 1.67727E-04-8.96802E-06-8.27181E-25
 -1       895 1.68276E-04-9.02073E-06 0.00000E+00
 -1       956 1.72323E-04 1.95877E-06-1.65436E-24
 -1       957 1.72201E-04 1.28909E-06 0.00000E+00
 -1       958 1.72079E-04 6.91033E-07 0.00000E+00
 -1       959 1.71957E-04 1.54714E-07 1.65436E-24
 -1       960 1.71835E-04-3.29804E-07 0.00000E+00
 -1       961 1.71713E-04-7.72489E-07-1.65436E-24
 -1       962 1.71591E-04-1.18332E-06-3.30872E-24
 -1       963 1.71469E-04-1.57228E-06 1.65436E-24
 -1       964 1.71348E-04-1.94937E-06 3.30872E-24
 -1       965 1.71226E-04-2.32458E-06 1.65436E-24
 -1       966 1.71104E-04-2.70789E-06 3.30872E-24
 -1       967 1.70982E-04-3.10930E-06 0.00000E+00
 -1       968 1.70860E-04-3.53878E-06 3.30872E-24
 -1       969 1.70738E-04-4.00630E-06 0.00000E+00
 -1       970 1.70617E-04-4.52177E-06 0.00000E+00
 -1       971 1.70386E-04-5.66130E-06 0.00000E+00
 -1       972 1.70274E-04-6.13718E-06-1.65436E-24
 -1       973 1.70162E-04-6.53240E-06 3.30872E-24
 -1       974 1.70049E-04-6.85736E-06 1.65436E-24
 -1       975 1.69937E-04-7.12244E-06 0.00000E+00
 -1       976 1.69824E-04-7.33806E-06 0.00000E+00
 -1       977 1.69712E-04-7.51467E-06 3.30872E-24
 -1       978 1.69599E-04-7.66271E-06 0.00000E+00
 -1       979 1.69487E-04-7.79261E-06-3.30872E-24
 -1       980 1.69374E-04-7.91483E-06 1.65436E-24
 -1       981 1.69262E-04-8.03983E-06-3.30872E-24
 -1       982 1.69149E-04-8.17806E-06 1.65436E-24
 -1       983 1.69037E-04-8.33996E-06 3.30872E-24
 -1       984 1.68925E-04-8.53597E-06 1.65436E-24
 -1       985 1.68814E-04-8.77652E-06 0.00000E+00
 -3
    1PSTEP                        28          14           1          
  100CL  114 6.22559E-01         409                     0   14           1
 -4  STRESS      6    1
 -5  SXX         1    4    1    1
 -5  SYY         1    4    2    2
 -5  SZZ         1    4    3    3
 -5  SXY         1    4    1    2
 -5  SYZ         1    4    2    3
 -5  SZX         1    4    3    1
 -1         1-4.02655E+06-1.53305E+06-8.83892E+05-1.55986E+06 1.62981E-09 1.05647E-08
 -1         2 8.46060E+02-2.04818E+06 3.69569E+03 3.72167E+04 8.58051E-10 1.38271E-07
 -1         3-1.06458E+03-1.62218E+06 2.34525E+02-2.15931E+03 9.70406E-10-2.23226E-08
 -1         5-2.75326E+01 3.49480E+05 8.99758E+00-6.59980E-01-3.29376E-10-6.93035E-09
 -1         8-7.24045E+05-2.45003E+05-6.43525E+04-3.06057E+05-5.34783E-10 9.68284E-08
 -1         9 5.33192E+06-6.99922E+05 9.31173E+05-9.71020E+05 2.48197E-08-7.37840E-08
 -1        10-1.12539E+03-1.65698E+06-2.98985E+03-1.34964E+04-3.43243E-09 8.99945E-10
 -1        12-2.38918E+01 3.49499E+05 2.93039E+02-4.68395E+00-3.90216E-10 7.63976E-10
 -1        15 1.37907E+03 7.57874E+02 4.45783E+03 2.21292E+00-1.46827E-10 1.77293E-07
 -1        16 1.24494E+07-2.64507E+05 1.78129E+06-1.15657E+06 1.28057E-08 7.90072E-08
 -1        17 4.40759E+06 2.97730E+06 1.19138E+06 3.00149E+06 1.60420E-08 2.46684E-08
 -1        18 8.25379E+04 1.74101E+04-7.58184E+03-1.04489E+05 1.20531E-08-8.42647E-10
 -1        19 1.11504E+05 1.28629E+05-8.81495E+02 2.07030E+04 7.89078E-10 7.93407E-09
 -1        20-6.89421E+04-5.24484E+05-1.17273E+05 2.63543E+04-3.88354E-10-1.46950E-08
 -1        21-4.39225E+01-2.77972E+05-8.74545E+02 1.46162E+02 8.74919E-09 8.98630E-09
 -1        24 7.07190E+06 6.07146E+06 2.09199E+06 5.61436E+06-1.21072E-07-4.39856E-08
 -1        25 2.40664E+04-1.03613E+05 4.99346E+03-4.33526E+05-2.66782E-09 1.27589E-08
 -1        26-4.86290E+04 8.34903E+04-2.23240E+04-8.70475E+02 6.66478E-10 1.06933E-08
 -1        27-7.23902E+04-2.84239E+05-1.04639E+05 6.34726E+04 4.31752E-09 9.56819E-09
 -1        28 2.10731E+04-7.93792E+04 1.58382E+04 2.05341E+04-1.55717E-09-2.65331E-10
 -1        32-1.57176E+06-2.81205E+06-1.53956E+05 8.28530E+04-3.57686E-08-8.00310E-09
 -1        33-1.64703E+05 8.40467E+04 2.95451E+04-3.65438E+04-1.64061E-09 5.40543E-10
 -1        34-2.06708E+05-2.24066E+04 6.06813E+02 6.83848E+04-3.03471E-09 1.97118E-09
 -1        35-2.16264E+04-3.14956E+04-1.25048E+03 4.83866E+04-1.09863E-09-1.06362E-08
 -1        51 4.45105E+04-2.34682E+05 9.73091E+04-6.87544E+05-1.16415E-10 1.82437E-07
 -1        52 1.66671E+04-2.19863E+05 5.32996E+04-8.01602E+05-2.58296E-10-1.01572E-07
 -1        53 5.33379E+03-2.35018E+05 3.13162E+04-6.85032E+05 4.22006E-10-1.39473E-07
 -1        54 1.27431E+04-2.31789E+05 3.29361E+04-8.04225E+05-1.89175E-10-9.37725E-08
 -1        55 2.64811E+04-2.41997E+05 4.84741E+04-6.84658E+05 8.29459E-10 2.00125E-08
 -1        56-7.61957E+06-8.63215E+05-6.53713E+05-2.97732E+06-2.09984E-08-9.50822E-08
 -1        57-8.00052E+06-1.33420E+06-4.40443E+05-2.81230E+06 1.91212E-08-3.30037E-08
 -1        58-7.72174E+06-1.09893E+06-1.53583E+05-2.96782E+06 4.82760E-09-3.10174E-08
 -1        59-7.88795E+06-1.05274E+06-9.14791E+04-2.82020E+06-1.65310E-08-1.41222E-07
 -1        60-7.73116E+06-1.13683E+06-3.56611E+04-2.97243E+06 1.19162E-08-7.69014E-08
 -1        61-7.86368E+06-1.02050E+06-2.01389E+04-2.82840E+06 3.30772E-09-6.31208E-08
 -1        62-7.74535E+06-1.13033E+06-9.92658E+03-2.95971E+06-1.56942E-08-3.33503E-08
 -1        63-7.82149E+06-1.05300E+06-7.44170E+03-2.86888E+06-9.61154E-09-2.77089E-08
 -1        64-7.77180E+06-1.10522E+06-9.55172E+03-2.93087E+06-6.01540E-09 3.12632E-08
 -1        65-7.76783E+06-1.11153E+06-1.73829E+04-2.93037E+06-1.08448E-08-2.16130E-07
 -1        66-7.79850E+06-1.07229E+06-3.19583E+04-2.89779E+06-1.82845E-08 1.06397E-07
 -1        67-7.73926E+06-1.19156E+06-8.00604E+04-2.98404E+06 1.73077E-09 2.44720E-07
 -1        68-7.80203E+06-1.02520E+06-1.34699E+05-2.87793E+06-7.82529E-09-9.11459E-08
 -1        69-7.84729E+06-1.43356E+06-3.86772E+05-2.97498E+06 6.98310E-09-2.25165E-07
 -1        70-7.69376E+06-8.35602E+05-5.73214E+05-2.90598E+06-1.52650E-08-1.48459E-07
 -1        86-8.20246E+02-2.07340E+06-1.40838E+03-1.86058E+04-6.86940E-09-3.47836E-08
 -1        87 1.33025E+03-2.05702E+06 2.48578E+03 6.09321E+04-1.18349E-08 4.10428E-08
 -1        88-5.39582E+02-2.06546E+06 1.18991E+03-4.23236E+04-1.16590E-08 7.02549E-08
 -1        89 3.80628E+03-2.06165E+06 4.04742E+03 7.78684E+04-1.83882E-08 1.43509E-07
 -1        90-2.80379E+03-2.06934E+06 3.87395E+03-3.55481E+04-8.45694E-09-1.25121E-08
 -1       121-1.46898E+03-1.62601E+06-5.23837E+02 1.07358E+03 3.18920E-10-3.41970E-09
 -1       122-9.40499E+02-1.62226E+06 3.89503E+02-4.31271E+03 4.46845E-09 2.82962E-08
 -1       123-1.46722E+03-1.62609E+06-1.82814E+02 3.20301E+03 1.76044E-09 1.61272E-08
 -1       124 1.76893E+01-1.62215E+06 1.34758E+03-8.93144E+03 9.58426E-09 1.37879E-08
 -1       125-1.90282E+03-1.62659E+06 1.11751E+03 5.66308E+03 2.64026E-09 9.90258E-09
 -1       191-2.91932E+01 3.49505E+05 9.69054E+00 3.36510E-01-3.45593E-10-6.35737E-09
 -1       192-2.83731E+01 3.49480E+05 1.91018E+01-2.31112E+00-4.45036E-10-1.43582E-08
 -1       193-3.14204E+01 3.49505E+05 3.44886E+01 2.01545E+00-7.02347E-10-1.02700E-08
 -1       194-3.10743E+01 3.49483E+05 7.23755E+01-5.31641E+00-4.00820E-10 1.76460E-08
 -1       195-3.56982E+01 3.49502E+05 1.40529E+02 3.39180E+00-8.78078E-10 9.69885E-09
 -1       251-1.99956E+06-2.93252E+04-1.82169E+05-1.28307E+05 3.10683E-09 2.98023E-08
 -1       252-1.14306E+06 3.71234E+04 4.52015E+04 3.95821E+05 1.27948E-08 1.65605E-08
 -1       253-1.62171E+06-1.31988E+04-3.19104E+04-2.64284E+05-1.64100E-08 5.39640E-08
 -1       254-1.54466E+06 5.54434E+04 7.69952E+03 5.25098E+05 3.59624E-08 2.95220E-08
 -1       255-1.63774E+06-1.52021E+04-1.83234E+04-2.60999E+05 1.72449E-08 7.01498E-08
 -1       256-1.10327E+06 4.50495E+04 9.77616E+04 3.82131E+05-3.52757E-08 2.95887E-07
 -1       257-2.01990E+06-3.79687E+04-9.68127E+04-1.17741E+05-2.13913E-08 5.28621E-08
 -1       258-6.74513E+05 3.40961E+04 1.79080E+05 3.51279E+03-6.90397E-09-8.37244E-08
 -1       259-2.02436E+06-3.84910E+04-9.61741E+04 1.15407E+05-4.96584E-10-6.32189E-08
 -1       260-1.09247E+06 4.66191E+04 1.04286E+05-3.77182E+05 3.54794E-09-2.55064E-07
 -1       261-1.64306E+06-1.70703E+04-1.10238E+04 2.60640E+05 9.82473E-08-5.76711E-08
 -1       262-1.53970E+06 6.57727E+04 2.85852E+04-5.23895E+05-4.37519E-08 1.24597E-07
 -1       263-1.62127E+06-2.16747E+04 2.40077E+03 2.65778E+05-9.99535E-10 1.97560E-07
 -1       264-1.12436E+06 1.01605E+05 1.34200E+05-4.00033E+05 1.27086E-07 1.63600E-07
 -1       265-2.01965E+06-8.42839E+04-5.19350E+04 1.33397E+05 3.90792E-08 1.84526E-07
 -1       266-2.49657E+04-1.16739E+04 5.85769E+04-4.73499E+01-2.14641E-10 3.70131E-08
 -1       267 2.89422E+04 1.36063E+04 4.14011E+04 5.46319E+01 3.41515E-10 5.56395E-08
 -1       268-3.88109E+03-1.92702E+03 1.53886E+04-6.96108E+00-8.36735E-11-1.72707E-07
 -1       269 4.58243E+03 2.30624E+03 1.00023E+04 8.10859E+00 1.68825E-10 3.04441E-08
 -1       270-6.87829E+02-3.78933E+02 4.82827E+03-1.10039E+00-5.57066E-12-8.13337E-08
 -1       271-2.27120E+06-2.75753E+05-1.69553E+05-8.72826E+05-4.55111E-09 2.19734E-09
 -1       272-2.37889E+06-3.53785E+05-1.09172E+05-8.19518E+05-8.93488E-09-2.28523E-07
 -1       273-2.30199E+06-3.19312E+05-4.00138E+04-8.66540E+05 7.13044E-10-2.03836E-08
 -1       274-2.34244E+06-3.00625E+05-2.24553E+04-8.29214E+05-1.66717E-08 2.04268E-08
 -1       275-2.30657E+06-3.23640E+05-9.32538E+03-8.64987E+05 1.35233E-08-7.25367E-08
 -1       276-2.33565E+06-2.96586E+05-4.90549E+03-8.32286E+05-1.25256E-08 2.49436E-07
 -1       277-2.30835E+06-3.23014E+05-2.45360E+03-8.63425E+05-7.09042E-09 2.40905E-07
 -1       278-2.33175E+06-2.99005E+05-1.57977E+03-8.35558E+05 1.28384E-08 1.25224E-07
 -1       279-2.31005E+06-3.21429E+05-1.76406E+03-8.61442E+05-1.65801E-08 7.12575E-08
 -1       280-2.32787E+06-3.03116E+05-2.78996E+03-8.39572E+05-4.37922E-09 7.93132E-08
 -1       281-2.31183E+06-3.19180E+05-5.34642E+03-8.59121E+05 6.63931E-10 4.01542E-10
 -1       282-2.32564E+06-3.10866E+05-1.22436E+04-8.43876E+05-6.20912E-09-1.85293E-07
 -1       283-2.31201E+06-3.14187E+05-2.21522E+04-8.56806E+05-1.13068E-08-8.67540E-08
 -1       284-2.33988E+06-3.45426E+05-5.96957E+04-8.44695E+05-7.91624E-09 1.27068E-07
 -1       285-2.29787E+06-2.87722E+05-9.31769E+04-8.57109E+05-2.50657E-09 7.89987E-08
 -1       301 1.70121E+04-4.05059E+05 1.73397E+05-7.23457E+05 1.62254E-09 7.59901E-08
 -1       302 1.84644E+04-3.61144E+05 1.06897E+05-1.05786E+06-1.95723E-09 5.77184E-08
 -1       303-3.67564E+03-3.89915E+05 6.83941E+04-7.21687E+05-2.94676E-10 8.93033E-08
 -1       304 9.03973E+03-3.63882E+05 8.26975E+04-1.05721E+06-5.23869E-10 1.59143E-07
 -1       305 5.30149E+03-3.93099E+05 1.19215E+05-7.24021E+05 1.05501E-09-5.47370E-08
 -1       306-2.08173E+07-3.98978E+06-5.34310E+06-1.68068E+06-6.49597E-08-2.69793E-08
 -1       307 1.48326E+07 1.68811E+05 3.32800E+06-9.48955E+06-6.06116E-07 1.39582E-07
 -1       308-8.14419E+06-1.20775E+05-4.67995E+05 3.14348E+06-1.26631E-07 2.83326E-07
 -1       309-3.30313E+06 2.45338E+06 1.11984E+06-1.50519E+07 2.33005E-07 2.02337E-07
 -1       310-9.72805E+06-3.63035E+05-8.33614E+05 2.94110E+06 1.22556E-07-1.25052E-07
 -1       311 1.84606E+07-9.18584E+05 3.97636E+06-7.24239E+06 2.55037E-07-2.86251E-07
 -1       312-2.12329E+07-3.97421E+06-4.83102E+06-3.08144E+06-5.40167E-08-7.63830E-08
 -1       313 2.65448E+07 6.20355E+06 6.34223E+06 1.15014E+07-2.88332E-07-3.67872E-08
 -1       314-1.43027E+07-9.77398E+06-4.52772E+06-8.57811E+06 1.26951E-07 5.52973E-09
 -1       315-1.48536E+06 1.60487E+07 3.51447E+06 8.16417E+06-2.59490E-07-2.89001E-08
 -1       316-1.21608E+06-7.27053E+06-4.17958E+05-4.21462E+06-7.47532E-07-2.94443E-07
 -1       317-1.55865E+07 1.46714E+07 1.09589E+06-2.61290E+06 6.19279E-07-5.03009E-07
 -1       318-2.00423E+06-7.80284E+06-9.03188E+05-4.58633E+06-6.62054E-07 1.13971E-07
 -1       319 1.28028E+06 1.66322E+07 3.71170E+06 9.26336E+06-1.11555E-07 1.40513E-07
 -1       320-1.58008E+07-1.01306E+07-5.77935E+06-8.43204E+06 1.24797E-07-2.89438E-08
 -1       336-5.07978E+02-1.69316E+06-9.39462E+03 7.73922E+03-2.24627E-08-5.75892E-09
 -1       337-3.68312E+03-1.69338E+06-1.41076E+04-1.83707E+04-4.20764E-08 1.40608E-08
 -1       338 7.19049E+02-1.69237E+06-2.34634E+04 1.05051E+04-2.93758E-08 1.56942E-08
 -1       339-2.56156E+04-1.70809E+06-5.46015E+04-2.37459E+04-5.23196E-08 1.56742E-08
 -1       340 1.74359E+04-1.67987E+06-8.60373E+04 1.30281E+04-3.41824E-08 3.49319E-08
 -1       406-2.54388E+00 3.49489E+05 5.77435E+02 1.42763E+00-1.05614E-09 6.78483E-10
 -1       407 1.77947E+02 3.49600E+05 1.22957E+03 1.50612E+01-2.50374E-10 1.04019E-08
 -1       408 6.08329E+02 3.49400E+05 2.45427E+03-1.68726E+01-1.47361E-09 5.47152E-09
 -1       409 2.63314E+03 3.50384E+05 5.52741E+03 1.74366E+02-3.48962E-10 3.30601E-10
 -1       410 7.60817E+03 3.48699E+05 1.12830E+04-1.66702E+02-1.81535E-09-1.03028E-08
 -1       521-2.26964E+07-4.94550E+06-6.36918E+06-1.53924E+06-4.62169E-08 1.88767E-07
 -1       522 1.56481E+07 3.98234E+05 3.44322E+06-1.20225E+07-4.40719E-07-1.59140E-07
 -1       523-9.21572E+06-3.19164E+05-5.12406E+05 3.58103E+06 8.35280E-09-2.31492E-07
 -1       524-5.69380E+06 4.05685E+06 1.25107E+06-1.79121E+07 7.86677E-07-4.46715E-07
 -1       525-1.09673E+07-6.75017E+05-9.41422E+05 3.35889E+06 5.10481E-07-1.27453E-07
 -1       526 2.03086E+07-1.02436E+06 4.28313E+06-9.33947E+06 8.89704E-08-2.46437E-07
 -1       527-2.32329E+07-5.05963E+06-5.66324E+06-3.10376E+06 2.57394E-07 2.44036E-08
 -1       528 2.96190E+07 6.82796E+06 6.77008E+06 1.32262E+07-2.10479E-07 5.71890E-09
 -1       529-1.55862E+07-1.14413E+07-5.29623E+06-9.08763E+06 1.72295E-08 2.27592E-08
 -1       530-3.29607E+06 1.92169E+07 3.80339E+06 8.60421E+06-2.83071E-07 2.86178E-07
 -1       531-1.43183E+06-8.46636E+06-4.46139E+05-4.63747E+06-5.57455E-07 1.84664E-07
 -1       532-1.88174E+07 1.71055E+07 1.24912E+06-4.85452E+06 5.24567E-07-4.57352E-07
 -1       533-2.20654E+06-9.00432E+06-9.67460E+05-4.96766E+06-7.85803E-08-7.55419E-07
 -1       534-3.99481E+05 1.98631E+07 3.97121E+06 9.86142E+06-1.02737E-07 5.70697E-07
 -1       535-1.71423E+07-1.18866E+07-6.69231E+06-8.91646E+06 6.03031E-08 3.54252E-07
 -1       536-6.11397E+05-4.12834E+04-1.34286E+04-4.19650E+04-5.26961E-09 4.01997E-08
 -1       537-1.47303E+05 4.10733E+04 7.29148E+04 9.89081E+04-9.40514E-08 7.60610E-08
 -1       538-3.89781E+05 1.09902E+03 7.78252E+03-5.92796E+04 3.21083E-08 9.59431E-08
 -1       539-3.01796E+05 3.09427E+03 2.04279E+04 1.12636E+05 1.26349E-07 1.08355E-07
 -1       540-4.60670E+05-2.06430E+02-1.33923E+04-5.60009E+04 2.39461E-08 9.83987E-08
 -1       541-9.73609E+03 1.19536E+04 7.53185E+04 7.66294E+04-2.01453E-10 8.44854E-08
 -1       542-6.73997E+05-1.42620E+04-5.89909E+04-2.27692E+04 6.44868E-08 4.83429E-08
 -1       543 1.71291E+05 1.92559E+04 1.10822E+05-1.12351E+04 2.44927E-09 8.56994E-09
 -1       544-6.36866E+05-1.14891E+04-5.23548E+04 3.14704E+04 9.43237E-09-3.01212E-08
 -1       545-9.56598E+04 6.22079E+03 5.48654E+04-9.08235E+04 9.05050E-09-7.66038E-08
 -1       546-4.14172E+05 4.64696E+03-8.96661E+03 5.66266E+04 3.62654E-08-7.45548E-08
 -1       547-3.15934E+05-4.61797E+03 5.06465E+03-1.15163E+05-9.39195E-08-8.84415E-08
 -1       548-4.22467E+05 4.22376E+03-2.00741E+04 5.62100E+04-8.53895E-08-9.21850E-08
 -1       549-7.96024E+04 4.97213E+03 3.40175E+04-8.81401E+04-5.18459E-08-6.79242E-08
 -1       550-6.44154E+05-1.02111E+04-1.03313E+05 2.91831E+04 7.88714E-09-3.32111E-08
 -1       551 3.35686E+04-7.47354E+05 2.34816E+03-1.16526E+06-8.51505E-08-1.53377E-08
 -1       552 7.54730E+04-7.79976E+05 2.01277E+04-1.66150E+06-6.25878E-08 3.24508E-08
 -1       553 5.68959E+04-7.80124E+05 3.88103E+04-1.15968E+06-9.88803E-08 2.02272E-08
 -1       554 1.09786E+05-7.88815E+05 8.88720E+04-1.66342E+06-6.16274E-08 1.03864E-08
 -1       555 8.63013E+04-8.01974E+05 1.59858E+05-1.15992E+06-1.02205E-07-1.02955E-08
 -1       556 1.83433E+05-3.22203E+05 4.73112E+04-3.61257E+05-1.69093E-08-1.57452E-08
 -1       557 2.99140E+05-4.14926E+05 2.65408E+04-4.63219E+05-2.32831E-09-2.10821E-09
 -1       558 1.71495E+05-3.21594E+05 8.04572E+03-3.60573E+05-1.10012E-08 4.88217E-09
 -1       559 2.77905E+05-4.18996E+05 4.89667E+03-4.78441E+05 2.17260E-08-2.28320E-08
 -1       560 1.60521E+05-3.14663E+05 4.32445E+02-3.68332E+05 1.58034E-08-1.56469E-08
 -1       561 2.63812E+05-4.13578E+05 8.27708E+02-4.87906E+05 2.74304E-09 9.60426E-10
 -1       562 1.51861E+05-3.09234E+05-5.41648E+02-3.74572E+05-2.82307E-09-8.46194E-09
 -1       563 2.53566E+05-4.09111E+05 1.69096E+02-4.94562E+05-3.39787E-09-1.07093E-08
 -1       564 1.45797E+05-3.05442E+05-2.87260E+02-3.78860E+05 9.22591E-09 4.04043E-09
 -1       565 2.46974E+05-4.06242E+05 8.02821E+01-4.98763E+05 2.23299E-08 1.20590E-08
 -1       566 1.42422E+05-3.03301E+05-1.31898E+02-3.81223E+05 3.04135E-09-1.30185E-08
 -1       567 2.44049E+05-4.04966E+05-2.44527E+02-5.00507E+05 1.42354E-08 8.71660E-09
 -1       568 1.41806E+05-3.02932E+05-8.22271E+02-3.81749E+05-1.99861E-09-3.75803E-09
 -1       569 2.43588E+05-4.04938E+05-2.07662E+03-4.98877E+05-2.76668E-09 1.06993E-08
 -1       570 1.44899E+05-3.05734E+05-4.60287E+03-3.80940E+05 9.00764E-09 4.63024E-09
 -1       571 2.63737E+05 9.57756E+03 1.38499E+04-8.02726E+04 1.09612E-08-4.33783E-09
 -1       572 2.65764E+05 3.51173E+03 6.78687E+03-8.80637E+04 2.07556E-08-1.00954E-09
 -1       573 2.64546E+05 1.01536E+03 3.01549E+03-8.01146E+04 1.13350E-08-6.94854E-10
 -1       574 2.64760E+05 5.20451E+02 1.51180E+03-8.82577E+04 1.14596E-09-1.08957E-09
 -1       575 2.64635E+05 2.76983E+02 7.13341E+02-8.00932E+04-8.83909E-09 1.11459E-08
 -1       576 2.64632E+05 2.74394E+02 3.64785E+02-8.82835E+04-2.25191E-08 5.30508E-09
 -1       577 2.64664E+05 2.27641E+02 1.81861E+02-8.00903E+04-1.42891E-08 2.81125E-09
 -1       578 2.64647E+05 2.46617E+02 1.04209E+02-8.82870E+04-4.79668E-09 7.41147E-09
 -1       579 2.64714E+05 2.03977E+02 7.10854E+01-8.00900E+04 2.62571E-09-1.31513E-09
 -1       580 2.64717E+05 2.12740E+02 8.07191E+01-8.82827E+04-6.26005E-09 6.42922E-09
 -1       581 2.64792E+05 1.65540E+02 1.21955E+02-8.00950E+04 5.20049E-09-8.53470E-09
 -1       582 2.64842E+05 1.95337E+02 2.45880E+02-8.82309E+04 1.08321E-09-1.94495E-08
 -1       583 2.64887E+05 2.19905E+02 4.73908E+02-8.01422E+04 2.69210E-10 6.02540E-09
 -1       584 2.65136E+05 6.02749E+02 1.06990E+03-8.78336E+04 3.63070E-09-6.96446E-10
 -1       585 2.64878E+05 1.51928E+03 2.16965E+03-8.04920E+04-3.91083E-09 5.99539E-09
 -1       586-3.16632E+03 9.91118E+04-3.14047E+03-2.30715E+05-5.33691E-09 1.81478E-08
 -1       587-1.04872E+03 9.87911E+04 4.22616E+02-2.53931E+05-1.18598E-09 1.39926E-08
 -1       588 5.70215E+02 9.86967E+04 4.12580E+03-2.30596E+05-3.43425E-09 1.55687E-08
 -1       589 4.79199E+03 1.00868E+05 1.09471E+04-2.53695E+05-6.01904E-09-1.87210E-08
 -1       590 1.50504E+04 9.75015E+04 2.30605E+04-2.30992E+05-5.74073E-09 1.23255E-08
 -1       591-6.28949E+04-1.42394E+04-1.97351E+04-2.77969E+04-2.69688E-09 9.74069E-10
 -1       592-6.61988E+04-1.76336E+04-1.06900E+04-3.12889E+04 2.68739E-09-1.65336E-08
 -1       593-6.48709E+04-1.28050E+04-4.44980E+03-2.92417E+04 3.35169E-09-1.92917E-08
 -1       594-6.34702E+04-1.47419E+04-2.21926E+03-3.13970E+04 8.61064E-10 1.75098E-09
 -1       595-6.50217E+04-1.28000E+04-1.01905E+03-2.93074E+04-3.03420E-09-1.36879E-09
 -1       596-6.32836E+04-1.46096E+04-5.18168E+02-3.13753E+04 5.63105E-10 9.88669E-09
 -1       597-6.50406E+04-1.28134E+04-2.82427E+02-2.93099E+04 1.37624E-09-5.65211E-09
 -1       598-6.32653E+04-1.46044E+04-2.27536E+02-3.13691E+04 1.67802E-10-6.50084E-09
 -1       599-6.50394E+04-1.28138E+04-2.91268E+02-2.93096E+04 7.77391E-10-1.54160E-08
 -1       600-6.32839E+04-1.46104E+04-5.41576E+02-3.13736E+04-1.82808E-10-3.06596E-08
 -1       601-6.50173E+04-1.28009E+04-1.06866E+03-2.93063E+04 3.64025E-09-7.08997E-09
 -1       602-6.34795E+04-1.47483E+04-2.32917E+03-3.13931E+04-3.24667E-09-2.08192E-08
 -1       603-6.48566E+04-1.28087E+04-4.67103E+03-2.92380E+04 9.55652E-10-6.76209E-09
 -1       604-6.63591E+04-1.77666E+04-1.12208E+04-3.12578E+04-1.44246E-09 7.62043E-09
 -1       605-6.27646E+04-1.43300E+04-2.07152E+04-2.77383E+04 3.58995E-09 9.48603E-09
 -1       606 2.69670E+04-1.28735E+04-2.30975E+04 2.49531E+04 1.61544E-08 7.40420E-09
 -1       607 2.30185E+04-4.19418E+03-1.15021E+04 2.80301E+04 2.15769E-08 7.53084E-09
 -1       608 2.52657E+04-7.47010E+02-5.14960E+03 2.47681E+04 1.53614E-08-4.10864E-10
 -1       609 2.48309E+04-2.43684E+02-2.60128E+03 2.82514E+04 1.11031E-08 1.78647E-08
 -1       610 2.50693E+04-2.21033E+01-1.24148E+03 2.47467E+04 9.16043E-09 7.27982E-09
 -1       611 2.49976E+04-1.81324E+01-6.25935E+02 2.82754E+04 7.67614E-09 1.24091E-08
 -1       612 2.50233E+04-7.46438E+00-2.97968E+02 2.47446E+04 5.88443E-09 1.27716E-09
 -1       613 2.50042E+04-1.23099E+01-1.33848E+02 2.82782E+04 5.03496E-09-1.22739E-08
 -1       614 2.50004E+04-1.13487E+01-3.23814E+01 2.47438E+04 9.56788E-10 5.70685E-09
 -1       615 2.49964E+04-9.29865E+00 5.38491E+01 2.82787E+04 1.53341E-09 2.08527E-08
 -1       616 2.49826E+04-7.16282E+00 1.63520E+02 2.47441E+04 3.96085E-10-9.61768E-09
 -1       617 2.50138E+04 2.69216E+01 3.73966E+02 2.82782E+04 6.62112E-10 3.57045E-09
 -1       618 2.49485E+04 1.01699E+02 7.54063E+02 2.47443E+04-7.37600E-10 3.79987E-09
 -1       619 2.52787E+04 6.10827E+02 1.69353E+03 2.82775E+04-2.06512E-09-1.38577E-08
 -1       620 2.46972E+04 1.89056E+03 3.40398E+03 2.47447E+04-9.75774E-10 1.42891E-08
 -1       621 3.97106E+02 2.71878E+05 3.28132E+03 3.06535E+04 5.21595E-10 1.72959E-08
 -1       622 5.10109E+02 2.72657E+05 2.96409E+03 4.45346E+04 9.17680E-10 1.45051E-08
 -1       623 7.81954E+01 2.72053E+05 3.63274E+03 3.05124E+04 7.73753E-10 1.54141E-08
 -1       624 1.80484E+03 2.73782E+05 7.09850E+03 4.46749E+04 9.69465E-10-1.45446E-08
 -1       625 1.78617E+03 2.70650E+05 1.24321E+04 3.05096E+04 8.90395E-10-1.34926E-08
 -1       626 2.37310E+05 5.81275E+04 4.85958E+03 1.18115E+05 1.25783E-09-2.74304E-09
 -1       627 2.34976E+05 5.95879E+04 2.34177E+03 1.22318E+05-3.52884E-10-1.37040E-08
 -1       628 2.37440E+05 5.58925E+04 9.90078E+02 1.18926E+05-4.49472E-09-4.51109E-10
 -1       629 2.34356E+05 5.89577E+04 4.84632E+02 1.22560E+05-2.39197E-09 6.21242E-10
 -1       630 2.37453E+05 5.57854E+04 2.24533E+02 1.18958E+05-8.18545E-11-1.69426E-08
 -1       631 2.34289E+05 5.89355E+04 1.20500E+02 1.22561E+05 4.33124E-09-1.73333E-08
 -1       632 2.37447E+05 5.57904E+04 7.87249E+01 1.18953E+05-5.72163E-09-2.20757E-08
 -1       633 2.34278E+05 5.89384E+04 8.68075E+01 1.22556E+05-2.34502E-09 7.01471E-09
 -1       634 2.37441E+05 5.57889E+04 1.39493E+02 1.18951E+05 8.87667E-10 4.30555E-09
 -1       635 2.34290E+05 5.89378E+04 2.81805E+02 1.22560E+05-4.58999E-09 8.46489E-09
 -1       636 2.37431E+05 5.57847E+04 5.68860E+02 1.18950E+05-9.91349E-10-1.56001E-08
 -1       637 2.34411E+05 5.90266E+04 1.25047E+03 1.22558E+05-4.79758E-11-6.96127E-09
 -1       638 2.37386E+05 5.60614E+04 2.56932E+03 1.18824E+05-1.34196E-09-3.31693E-09
 -1       639 2.35760E+05 6.09035E+04 6.07886E+03 1.22160E+05 5.81736E-09-3.45244E-09
 -1       640 2.37201E+05 6.16637E+04 1.26147E+04 1.16459E+05 9.89075E-10-8.08950E-09
 -1       656 6.12304E+04-1.56330E+06-1.47809E+05-1.67726E+03 7.27596E-12-7.59636E-09
 -1       657-8.09844E+04-1.63007E+06-1.22410E+05 6.16898E+03-2.29193E-10 1.03620E-08
 -1       658 1.95006E+04-1.58227E+06-7.53390E+04-3.50130E+03 4.00178E-11-4.81721E-09
 -1       659-8.74342E+04-1.63313E+06-1.30884E+05 7.61030E+03-1.20781E-09-8.09584E-09
 -1       660 6.76656E+04-1.56024E+06-1.62380E+05-3.11856E+03-1.69530E-09 1.42514E-08
 -1       661 1.61532E+05 1.71115E+04 1.65844E+04 6.31543E+04-6.89852E-10-1.28803E-08
 -1       662 1.70724E+05 2.95736E+04 1.11763E+04 5.96432E+04 1.21304E-09-7.86440E-09
 -1       663 1.64788E+05 2.24329E+04 3.90899E+03 6.22101E+04-7.77504E-10 1.34701E-08
 -1       664 1.66950E+05 2.33493E+04 2.33803E+03 6.07955E+04-2.37600E-09 1.85585E-08
 -1       665 1.65281E+05 2.31609E+04 9.22339E+02 6.20675E+04-6.05439E-10-5.97970E-09
 -1       666 1.66369E+05 2.25158E+04 5.39358E+02 6.09808E+04 4.43401E-09-4.76207E-09
 -1       667 1.65367E+05 2.32446E+04 2.86085E+02 6.20326E+04 1.27827E-09 4.59260E-09
 -1       668 1.66275E+05 2.24543E+04 2.90562E+02 6.10315E+04-3.48226E-09 1.73971E-08
 -1       669 1.65374E+05 2.32206E+04 3.92620E+02 6.20173E+04 7.43341E-10 1.19091E-08
 -1       670 1.66371E+05 2.26664E+04 8.54221E+02 6.10338E+04-6.49376E-09 8.45438E-09
 -1       671 1.65271E+05 2.30368E+04 1.51649E+03 6.20284E+04-2.44810E-10-4.73489E-09
 -1       672 1.67255E+05 2.41417E+04 3.87972E+03 6.08198E+04 3.84340E-09-2.03954E-10
 -1       673 1.64495E+05 2.17826E+04 6.50172E+03 6.22170E+04 7.57154E-11 1.97554E-08
 -1       674 1.73444E+05 3.45866E+04 1.85935E+04 5.90009E+04-2.81693E-09 1.18234E-10
 -1       675 1.59121E+05 1.28844E+04 2.75992E+04 6.37375E+04 6.59384E-10 9.55515E-09
 -1       676 2.27326E+01-2.77899E+05-1.05406E+03-7.30826E+01 3.36712E-10 8.13187E-09
 -1       677-2.79592E+02-2.78154E+05-1.92909E+03 1.46059E+02 4.79380E-09-6.17067E-09
 -1       678 1.86913E+02-2.77717E+05-3.41014E+03-7.29276E+01 1.73713E-10-3.74690E-09
 -1       679-3.41089E+03-2.80212E+05-8.10102E+03 1.45466E+02 3.57522E-09-3.77987E-09
 -1       680 2.03592E+03-2.75842E+05-1.30561E+04-7.16770E+01 7.05768E-10-7.20744E-09
 -1       771-2.90400E+06-6.63102E+05-1.26341E+05-1.35517E+06-2.56550E-08-2.07801E-08
 -1       772-2.84111E+06-7.38468E+05-6.54609E+04-1.44189E+06-2.21771E-08 1.02191E-08
 -1       773-2.92785E+06-6.44373E+05-3.26693E+04-1.36510E+06-1.53959E-08 6.54836E-09
 -1       774-2.83201E+06-7.24778E+05-1.47232E+04-1.46073E+06 2.60770E-08-1.13505E-09
 -1       775-2.93957E+06-6.36102E+05-1.05459E+04-1.36958E+06-1.97906E-09 8.64384E-09
 -1       776-2.83990E+06-7.23042E+05-4.02009E+03-1.47452E+06-7.21775E-09-1.39335E-09
 -1       777-2.94956E+06-6.28843E+05-4.49284E+03-1.37351E+06 2.32831E-09 3.02680E-09
 -1       778-2.84825E+06-7.21498E+05-1.29639E+03-1.48631E+06-1.20199E-08-3.40879E-09
 -1       779-2.95807E+06-6.22559E+05-2.19342E+03-1.37688E+06-1.47411E-08-1.02773E-08
 -1       780-2.85558E+06-7.20018E+05-3.68827E+02-1.49590E+06-7.57427E-09-7.20320E-10
 -1       781-2.96478E+06-6.17523E+05-8.36366E+02-1.37951E+06-1.91940E-08 9.82254E-10
 -1       782-2.86120E+06-7.18743E+05 3.13462E+02-1.50296E+06-3.10065E-08-3.63207E-09
 -1       783-2.96949E+06-6.14048E+05 4.97511E+02-1.38136E+06-4.77303E-09-1.22050E-08
 -1       784-2.86427E+06-7.17357E+05 2.01413E+03-1.50731E+06-1.19981E-08 4.73847E-10
 -1       785-2.97227E+06-6.11983E+05 3.55936E+03-1.38256E+06-3.09701E-08 5.90444E-09
 -1       786 1.24150E+05-9.43553E+03 2.18293E+04-2.38590E+02 5.02009E-10 1.39571E-08
 -1       787 1.33617E+05 1.09238E+04 1.54434E+04-6.58686E+01 6.10001E-09 1.17434E-08
 -1       788 1.27800E+05-1.47881E+03 5.64800E+03-2.07476E+02 3.81196E-09 1.11636E-08
 -1       789 1.29365E+05 1.71123E+03 3.54603E+03-1.14530E+02-1.53716E-09 3.02111E-09
 -1       790 1.28403E+05-2.30506E+02 1.43668E+03-1.89941E+02-2.14715E-09 2.34267E-08
 -1       791 1.28660E+05 2.66472E+02 8.31644E+02-1.44736E+02-2.60167E-09 2.35855E-09
 -1       792 1.28505E+05-3.51291E+01 3.56116E+02-1.77271E+02-1.84901E-09-6.35910E-09
 -1       793 1.28539E+05 3.84850E+01 1.85653E+02-1.68590E+02 5.18845E-10 4.81224E-09
 -1       794 1.28524E+05-2.66384E+00 6.45636E+01-1.66086E+02 3.61736E-09-1.54822E-08
 -1       795 1.28510E+05-1.28022E+01-1.20406E+01-1.91907E+02-3.97946E-09 1.34836E-08
 -1       796 1.28535E+05 1.61303E+01-8.18049E+01-1.53954E+02 2.68594E-09-6.66174E-09
 -1       797 1.28455E+05-1.22991E+02-2.45616E+02-2.19689E+02 3.66400E-09 1.03641E-08
 -1       798 1.28579E+05 1.07442E+02-4.04702E+02-1.38304E+02 1.42619E-09-4.30177E-09
 -1       799 1.28146E+05-7.92649E+02-1.11846E+03-2.58022E+02 4.23140E-09-8.34063E-09
 -1       800 1.28844E+05 6.85236E+02-1.58428E+03-1.15621E+02 3.51880E-10 1.15410E-08
 -1       801-4.82112E+04-7.58951E+06-9.90506E+05 8.62547E+05 7.50006E-08-4.12001E-08
 -1       802 3.75316E+05 2.19917E+06 1.24003E+06-1.01124E+06 2.05990E-07-2.32526E-08
 -1       803-3.16612E+05-9.99180E+06-1.16244E+06 5.56441E+05 6.52944E-08 2.45673E-08
 -1       804 1.42738E+05-1.16820E+05 8.72956E+05 4.86103E+05-8.78645E-08-6.68900E-08
 -1       805 1.37533E+05-5.28820E+06-1.81337E+05-6.31443E+05-3.61506E-08-4.52101E-08
 -1       806-2.84043E+05-5.44048E+04-2.08473E+04-1.11920E+05-6.80302E-09-1.48148E-08
 -1       807-2.85772E+05-5.09123E+04-1.02421E+04-1.16872E+05 1.50633E-08 3.06272E-09
 -1       808-2.84608E+05-4.68992E+04-4.34506E+03-1.15481E+05 3.50519E-09 6.72878E-09
 -1       809-2.83623E+05-4.80309E+04-2.12465E+03-1.17120E+05-8.20000E-09 7.35326E-09
 -1       810-2.84694E+05-4.66378E+04-9.73801E+02-1.15639E+05 4.44197E-09 4.77439E-09
 -1       811-2.83457E+05-4.79146E+04-4.84259E+02-1.17088E+05 2.73667E-09-2.72382E-09
 -1       812-2.84708E+05-4.66599E+04-2.44837E+02-1.15639E+05-1.83627E-09-2.30989E-08
 -1       813-2.83435E+05-4.79163E+04-1.59071E+02-1.17071E+05-4.74847E-09-2.65195E-08
 -1       814-2.84702E+05-4.66682E+04-1.57455E+02-1.15636E+05 4.46016E-09 4.63115E-09
 -1       815-2.83439E+05-4.79180E+04-2.53726E+02-1.17066E+05 2.45745E-09-1.01597E-08
 -1       816-2.84685E+05-4.66666E+04-4.80718E+02-1.15633E+05 8.68931E-09 4.17458E-09
 -1       817-2.83522E+05-4.79636E+04-1.03196E+03-1.17056E+05-1.18021E-08-2.95222E-09
 -1       818-2.84624E+05-4.68112E+04-2.10467E+03-1.15565E+05-3.83170E-09-1.94577E-08
 -1       819-2.84674E+05-4.92361E+04-4.95260E+03-1.16786E+05 3.94903E-09-1.48384E-09
 -1       820-2.84231E+05-5.05489E+04-1.00801E+04-1.13963E+05-9.98625E-10 1.46661E-08
 -1       821-3.50469E+05 1.93242E+04-4.47262E+04 1.06937E+03 7.77271E-09 1.23637E-08
 -1       822-3.69713E+05-2.23721E+04-3.16264E+04-1.98478E+03 9.54129E-10-1.19280E-09
 -1       823-3.57867E+05 3.03213E+03-1.15784E+04 1.39927E+03-5.80481E-09 1.07243E-08
 -1       824-3.61011E+05-3.50571E+03-7.27775E+03-2.00594E+03-1.68384E-10-3.89264E-09
 -1       825-3.59168E+05 4.72306E+02-3.00629E+03 1.09054E+03 8.68842E-09 6.70514E-09
 -1       826-3.59414E+05-5.52062E+02-1.76918E+03-9.09773E+02 9.93706E-09-3.95752E-09
 -1       827-3.59459E+05 7.71782E+01-9.67071E+02 3.03081E+02 4.70698E-09-1.16734E-08
 -1       828-3.59175E+05-1.64337E+02-7.83982E+02 7.38359E+02-2.90551E-09 1.11620E-08
 -1       829-3.59406E+05 8.40531E+01-9.78260E+02-5.57614E+02 3.72104E-10-3.54473E-09
 -1       830-3.59540E+05-5.81284E+02-1.85646E+03 2.08755E+03 3.62952E-10 1.49814E-09
 -1       831-3.59098E+05 4.97122E+02-3.10746E+03-1.04613E+03-3.05293E-09 5.13057E-09
 -1       832-3.61098E+05-3.64840E+03-7.56711E+03 2.43966E+03-2.20032E-09 8.34905E-09
 -1       833-3.57851E+05 3.15040E+03-1.20410E+04-9.09728E+02-2.16847E-09 9.30959E-09
 -1       834-3.70008E+05-2.32488E+04-3.28467E+04 1.59818E+03-1.41495E-09-5.62977E-10
 -1       835-3.50188E+05 2.00796E+04-4.64985E+04-2.04631E+02 5.02133E-09-5.50244E-09
 -1       836-1.25586E+03 3.35241E+05 2.06159E+04-1.61136E+04-4.36557E-09 6.69070E-09
 -1       837 4.42756E+03 3.41683E+05 1.75145E+04-3.26902E+04-4.82657E-09-1.73704E-08
 -1       838-4.91746E+02 3.37039E+05 1.79431E+04-1.60452E+04-3.79214E-09 4.57544E-09
 -1       839 1.13635E+04 3.46851E+05 3.40391E+04-3.27374E+04-3.74894E-09 8.15135E-10
 -1       840-3.49055E+03 3.30022E+05 5.43218E+04-1.60692E+04-3.59796E-09-1.82245E-08
 -1       856-6.09817E+04 7.83243E+03-2.06404E+04-4.00693E+02 5.40751E-10 3.58614E-09
 -1       857-6.94927E+04-9.19703E+03-1.42091E+04 5.28954E+03 6.04288E-09-1.08450E-08
 -1       858-6.43495E+04 1.09809E+03-5.35596E+03-4.23929E+02 2.77453E-10-6.38215E-09
 -1       859-6.56271E+04-1.28640E+03-3.23278E+03 5.32490E+03-2.03556E-10 3.33551E-09
 -1       860-6.48527E+04 1.53426E+02-1.35598E+03-4.35923E+02-8.15760E-10-2.33433E-09
 -1       861-6.50480E+04-1.78081E+02-7.48325E+02 5.34129E+03 9.28871E-10 1.74818E-09
 -1       862-6.49314E+04 2.05816E+01-3.15826E+02-4.40315E+02 1.75131E-10 2.32532E-08
 -1       863-6.49525E+04-1.73086E+01-1.25847E+02 5.34368E+03 2.72877E-10 1.74417E-08
 -1       864-6.49487E+04-3.72695E+00 2.17613E+01-4.38318E+02-1.86216E-09-1.32083E-08
 -1       865-6.49048E+04 5.13539E+01 1.95020E+02 5.33273E+03 2.13737E-09-1.29126E-08
 -1       866-6.49770E+04-4.82221E+01 4.05499E+02-4.29363E+02-8.70841E-11-1.68604E-08
 -1       867-6.47107E+04 3.99575E+02 1.00614E+03 5.30835E+03 1.89209E-09 1.34180E-08
 -1       868-6.51383E+04-3.46024E+02 1.67381E+03-4.13944E+02-2.02800E-09-1.05535E-09
 -1       869-6.34812E+04 2.87972E+03 4.45979E+03 5.26785E+03-6.16865E-10-2.40908E-08
 -1       870-6.61996E+04-2.46153E+03 6.47170E+03-3.88817E+02 1.59503E-10-2.91038E-11
 -1       871-5.15108E+03-1.71910E+04-1.76930E+04 1.18123E+05-2.53203E-09 1.16415E-10
 -1       872-1.98190E+03-2.12582E+04-7.36082E+03 1.53158E+05-5.78166E-09 5.14001E-09
 -1       873 2.31314E+02-1.93131E+04 6.55506E+02 1.17864E+05-2.97041E-09 1.00490E-08
 -1       874 2.88851E+03-1.70221E+04 9.15862E+03 1.53191E+05-6.95582E-09 4.50655E-09
 -1       875 6.23646E+03-2.14940E+04 2.05679E+04 1.18081E+05-2.99406E-09-1.17961E-09
 -1       876 2.71842E+05 4.60623E+04 1.40784E+04 1.09382E+05-3.36081E-09-3.24690E-10
 -1       877 2.72748E+05 4.90526E+04 7.51835E+03 1.13444E+05-4.03634E-09-1.35753E-08
 -1       878 2.73158E+05 4.45035E+04 3.14983E+03 1.10537E+05-1.01477E-08-1.65933E-08
 -1       879 2.70834E+05 4.71433E+04 1.56937E+03 1.13540E+05 5.14410E-09 1.84482E-08
 -1       880 2.73253E+05 4.44871E+04 7.30938E+02 1.10584E+05-2.76532E-09 1.21204E-08
 -1       881 2.70707E+05 4.70618E+04 3.90163E+02 1.13519E+05-6.99845E-09-1.55660E-09
 -1       882 2.73262E+05 4.44993E+04 2.49326E+02 1.10586E+05-2.91379E-09 1.03618E-09
 -1       883 2.70698E+05 4.70576E+04 2.67580E+02 1.13512E+05 5.52359E-09 1.15423E-08
 -1       884 2.73256E+05 4.44966E+04 4.25246E+02 1.10586E+05-1.40722E-09-5.42843E-09
 -1       885 2.70731E+05 4.70636E+04 8.54726E+02 1.13522E+05-2.97453E-09 1.41524E-08
 -1       886 2.73223E+05 4.44716E+04 1.72255E+03 1.10582E+05-1.90156E-09 2.89015E-09
 -1       887 2.71034E+05 4.72621E+04 3.76264E+03 1.13566E+05 2.47772E-09-8.50514E-09
 -1       888 2.72985E+05 4.45135E+04 7.58182E+03 1.10462E+05-2.52297E-09-9.57561E-09
 -1       889 2.75549E+05 5.19554E+04 1.81118E+04 1.13427E+05-2.13078E-09-8.73024E-09
 -1       890 2.69893E+05 4.81869E+04 3.39227E+04 1.07574E+05-1.12323E-09-2.16642E-09
 -1       891-1.08810E+02-1.51478E+05-1.84437E+03 2.60898E+04-1.16847E-09 4.79758E-10
 -1       892-2.02163E+02-1.51952E+05-1.98533E+03 3.95714E+04 9.86802E-10-1.55524E-08
 -1       893 1.40193E+01-1.51537E+05-2.81559E+03 2.60963E+04-6.36646E-11 6.01176E-10
 -1       894-1.44158E+03-1.53018E+05-5.83056E+03 3.94266E+04 1.87151E-09 1.95905E-08
 -1       895-1.13937E+03-1.50323E+05-1.02688E+04 2.62350E+04-4.54520E-10-8.03539E-09
 -1       956-3.47514E+05-4.96288E+03-1.23395E+04 2.67857E+04 8.25275E-09 9.56652E-09
 -1       957-3.49941E+05-1.72255E+03-6.33398E+03 3.22146E+04 6.81030E-09-9.51286E-09
 -1       958-3.48619E+05-1.87642E+02-2.85406E+03 2.66346E+04 1.35969E-09-1.66754E-08
 -1       959-3.48804E+05-8.65378E+01-1.45752E+03 3.23868E+04-1.50521E-09-5.12091E-09
 -1       960-3.48724E+05-1.00567E+01-7.10717E+02 2.66194E+04 6.85486E-09-1.01645E-08
 -1       961-3.48727E+05-2.13957E+01-3.76999E+02 3.24045E+04 9.67771E-09-1.79273E-08
 -1       962-3.48747E+05-1.24826E+01-2.15987E+02 2.66169E+04 5.91172E-10-7.05995E-09
 -1       963-3.48726E+05-1.83609E+01-1.73687E+02 3.24077E+04-1.64982E-09-1.01595E-08
 -1       964-3.48752E+05-9.66037E+00-2.11463E+02 2.66162E+04-3.63079E-09-6.81348E-09
 -1       965-3.48738E+05-1.53818E+01-3.65947E+02 3.24072E+04-3.03839E-09 5.34465E-09
 -1       966-3.48738E+05-1.66600E+00-6.87567E+02 2.66174E+04-3.09592E-09 1.12343E-08
 -1       967-3.48823E+05-7.26223E+01-1.41029E+03 3.23950E+04-1.01174E-08 1.50144E-08
 -1       968-3.48645E+05-1.68033E+02-2.76059E+03 2.66283E+04-1.19417E-09-1.51172E-08
 -1       969-3.49933E+05-1.65078E+03-6.12875E+03 3.22680E+04 1.64346E-09-7.51646E-09
 -1       970-3.47583E+05-4.78514E+03-1.19387E+04 2.67402E+04-1.25556E-09-1.01136E-08
 -1       971-3.20714E+05-1.62327E+03-8.83531E+03 1.45607E+04 3.55249E-09 1.32717E-08
 -1       972-3.22848E+05-1.18498E+03-4.81163E+03 2.02061E+04 6.44241E-09-1.95996E-10
 -1       973-3.21698E+05-4.31246E+01-2.15501E+03 1.44435E+04 1.87993E-09-6.39352E-09
 -1       974-3.21833E+05-5.51744E+01-1.11690E+03 2.03367E+04-1.14164E-09-7.88407E-09
 -1       975-3.21775E+05-8.45525E-01-5.58272E+02 1.44320E+04 1.29512E-09 4.26758E-09
 -1       976-3.21774E+05-8.12327E+00-3.22043E+02 2.03513E+04-4.99313E-10-7.27539E-09
 -1       977-3.21791E+05-3.75657E-01-2.33660E+02 1.44289E+04-1.66210E-09-7.81915E-09
 -1       978-3.21779E+05-2.40367E+00-2.73333E+02 2.03556E+04-4.15628E-09 8.85973E-09
 -1       979-3.21791E+05 7.40455E+00-4.39073E+02 1.44276E+04-2.30386E-09-7.77072E-09
 -1       980-3.21812E+05 4.13224E-01-8.47741E+02 2.03565E+04 5.39740E-09-2.53920E-09
 -1       981-3.21763E+05 2.85769E+01-1.64185E+03 1.44281E+04 2.96575E-09 5.99141E-09
 -1       982-3.22037E+05-1.20868E+02-3.39364E+03 2.03502E+04-1.15779E-09 3.02661E-09
 -1       983-3.21557E+05-7.65069E+01-6.59385E+03 1.44340E+04-8.74024E-10 9.31959E-09
 -1       984-3.25208E+05-3.56455E+03-1.47665E+04 2.02686E+04 1.59207E-09 1.66646E-08
 -1       985-3.18571E+05-4.90147E+03-2.71159E+04 1.45066E+04-1.06547E-09-3.96540E-10
 -3
    1PSTEP                        29          15           1          
  100CL  115 6.42334E-01         409                     0   15           1
 -4  DISP        4    1
 -5  D1          1    2    1    0
 -5  D2          1    2    2    0
 -5  D3          1    2    3    0
 -5  ALL         1    2    0    0    1ALL
 -1         1 2.07334E-03 0.00000E+00 0.00000E+00
 -1         2 1.85866E-03 1.07826E-27 2.64698E-23
 -1         3 3.17973E-04-6.10867E-27 1.32349E-23
 -1         5 1.66310E-04-5.96428E-26 2.06795E-25
 -1         8 2.05639E-03-5.16194E-07 0.00000E+00
 -1         9 2.01373E-03-7.90257E-06 0.00000E+00
 -1        10 2.86864E-04-3.65222E-06 6.61744E-24
 -1        12 1.67749E-04 7.69149E-07-1.24077E-24
 -1        15 2.03582E-03-5.65179E-07 0.00000E+00
 -1        16 2.04434E-03-9.08115E-06 0.00000E+00
 -1        17 1.94811E-04-8.02147E-06 0.00000E+00
 -1        18 1.70544E-04 2.87437E-05 0.00000E+00
 -1        19 1.72068E-04 1.53298E-06 0.00000E+00
 -1        20 1.72211E-04-5.40294E-06 0.00000E+00
 -1        21 1.71377E-04-1.58837E-05 0.00000E+00
 -1        24 2.94440E-05-1.18557E-05 0.00000E+00
 -1        25 1.79281E-04 2.89538E-05 0.00000E+00
 -1        26 1.79977E-04 2.12380E-06 0.00000E+00
 -1        27 1.77885E-04-8.80605E-06 0.00000E+00
 -1        28 1.77544E-04-1.64843E-05 0.00000E+00
 -1        32 0.00000E+00 0.00000E+00 0.00000E+00
 -1        33 1.86858E-04 2.84254E-06 0.00000E+00
 -1        34 1.84830E-04-8.85497E-06 0.00000E+00
 -1        35 1.82973E-04-1.68127E-05 0.00000E+00
 -1        51 2.07226E-03-9.82509E-08 6.61744E-24
 -1        52 2.07023E-03-1.81536E-07 0.00000E+00
 -1        53 2.06744E-03-2.62758E-07 0.00000E+00
 -1        54 2.06408E-03-3.44072E-07 0.00000E+00
 -1        55 2.06033E-03-4.27049E-07-1.65436E-24
 -1        56 2.06937E-03 6.05801E-07 0.00000E+00
 -1        57 2.06394E-03 4.70361E-06 0.00000E+00
 -1        58 2.05742E-03 1.16668E-05 0.00000E+00
 -1        59 2.05012E-03 2.05801E-05 5.29396E-23
 -1        60 2.04253E-03 3.02411E-05 0.00000E+00
 -1        61 2.03515E-03 3.93797E-05 0.00000E+00
 -1        62 2.02841E-03 4.68098E-05 1.05879E-22
 -1        63 2.02274E-03 5.14772E-05-5.29396E-23
 -1        64 2.01835E-03 5.27644E-05 1.05879E-22
 -1        65 2.01536E-03 5.03196E-05 0.00000E+00
 -1        66 2.01367E-03 4.43836E-05 0.00000E+00
 -1        67 2.01308E-03 3.54750E-05 0.00000E+00
 -1        68 2.01322E-03 2.45857E-05 1.05879E-22
 -1        69 2.01368E-03 1.28738E-05-5.29396E-23
 -1        70 2.01396E-03 1.61460E-06 0.00000E+00
 -1        86 1.86755E-03-9.87406E-07 0.00000E+00
 -1        87 1.89387E-03-2.26979E-06 0.00000E+00
 -1        88 1.92995E-03-3.83010E-06-2.64698E-23
 -1        89 1.96777E-03-5.45092E-06 0.00000E+00
 -1        90 1.99853E-03-6.85085E-06 2.64698E-23
 -1       121 3.17098E-04-5.92009E-07 0.00000E+00
 -1       122 3.14477E-04-1.18695E-06-6.61744E-24
 -1       123 3.10120E-04-1.78769E-06-1.32349E-23
 -1       124 3.04047E-04-2.39707E-06 0.00000E+00
 -1       125 2.96284E-04-3.01761E-06 1.32349E-23
 -1       191 1.66349E-04 1.28232E-07-2.89513E-24
 -1       192 1.66469E-04 2.56456E-07-1.34417E-24
 -1       193 1.66669E-04 3.84669E-07 2.27475E-24
 -1       194 1.66949E-04 5.12861E-07 6.20385E-25
 -1       195 1.67309E-04 6.41024E-07-3.10193E-24
 -1       251 2.05559E-03 1.97256E-05 1.32349E-23
 -1       252 2.05362E-03 7.31229E-05 6.61744E-24
 -1       253 2.05021E-03 1.50069E-04 0.00000E+00
 -1       254 2.04572E-03 2.40414E-04-6.61744E-24
 -1       255 2.04126E-03 3.30308E-04-1.32349E-23
 -1       256 2.03795E-03 4.05914E-04 0.00000E+00
 -1       257 2.03607E-03 4.57331E-04 0.00000E+00
 -1       258 2.03530E-03 4.75218E-04 0.00000E+00
 -1       259 2.03457E-03 4.58956E-04 1.32349E-23
 -1       260 2.03274E-03 4.08782E-04-6.61744E-24
 -1       261 2.02947E-03 3.33740E-04 1.32349E-23
 -1       262 2.02498E-03 2.43446E-04 0.00000E+00
 -1       263 2.02036E-03 1.51719E-04 0.00000E+00
 -1       264 2.01677E-03 7.24031E-05 0.00000E+00
 -1       265 2.01463E-03 1.58995E-05 0.00000E+00
 -1       266 2.05296E-03-5.31928E-07 3.30872E-24
 -1       267 2.04953E-03-5.39170E-07-8.27181E-25
 -1       268 2.04610E-03-5.46949E-07-8.27181E-25
 -1       269 2.04268E-03-5.53135E-07 0.00000E+00
 -1       270 2.03925E-03-5.59284E-07-2.06795E-25
 -1       271 2.05424E-03 2.74639E-06 1.32349E-23
 -1       272 2.05201E-03 6.15272E-06-1.32349E-23
 -1       273 2.04978E-03 9.56004E-06-2.64698E-23
 -1       274 2.04761E-03 1.28132E-05 1.32349E-23
 -1       275 2.04555E-03 1.57619E-05 0.00000E+00
 -1       276 2.04366E-03 1.82577E-05 1.32349E-23
 -1       277 2.04199E-03 2.01573E-05 0.00000E+00
 -1       278 2.04060E-03 2.13231E-05 0.00000E+00
 -1       279 2.03954E-03 2.16259E-05 2.64698E-23
 -1       280 2.03885E-03 2.09451E-05 0.00000E+00
 -1       281 2.03856E-03 1.91707E-05 0.00000E+00
 -1       282 2.03872E-03 1.62044E-05 0.00000E+00
 -1       283 2.03935E-03 1.19603E-05 0.00000E+00
 -1       284 2.04049E-03 6.36694E-06 0.00000E+00
 -1       285 2.04214E-03-6.34491E-07 2.64698E-23
 -1       301 2.01932E-03-8.12305E-06 0.00000E+00
 -1       302 2.02376E-03-8.31032E-06 3.30872E-24
 -1       303 2.02778E-03-8.49324E-06 0.00000E+00
 -1       304 2.03208E-03-8.67625E-06-6.61744E-24
 -1       305 2.03736E-03-8.86556E-06 2.64698E-23
 -1       306 2.04696E-03-1.37414E-04 1.05879E-22
 -1       307 2.11150E-03-4.96282E-04-5.29396E-23
 -1       308 2.17023E-03-1.02751E-03-1.05879E-22
 -1       309 2.21360E-03-1.65033E-03 0.00000E+00
 -1       310 2.26004E-03-2.25606E-03 1.05879E-22
 -1       311 2.32350E-03-2.73762E-03 0.00000E+00
 -1       312 2.38298E-03-3.02314E-03 0.00000E+00
 -1       313 2.39299E-03-3.07155E-03-5.29396E-23
 -1       314 2.29700E-03-2.88820E-03 0.00000E+00
 -1       315 2.05954E-03-2.51888E-03-5.29396E-23
 -1       316 1.69255E-03-2.02899E-03 0.00000E+00
 -1       317 1.24521E-03-1.48268E-03 0.00000E+00
 -1       318 8.07711E-04-9.43032E-04 0.00000E+00
 -1       319 4.67397E-04-4.74670E-04-5.29396E-23
 -1       320 2.63015E-04-1.42165E-04 0.00000E+00
 -1       336 2.75726E-04-4.32711E-06 1.32349E-23
 -1       337 2.62815E-04-5.02253E-06 0.00000E+00
 -1       338 2.48194E-04-5.74015E-06 0.00000E+00
 -1       339 2.31932E-04-6.47984E-06 0.00000E+00
 -1       340 2.14109E-04-7.24520E-06 0.00000E+00
 -1       406 1.68269E-04 8.97222E-07-8.27181E-25
 -1       407 1.68869E-04 1.02521E-06-5.16988E-25
 -1       408 1.69549E-04 1.15307E-06-2.68834E-24
 -1       409 1.70309E-04 1.28064E-06-8.27181E-25
 -1       410 1.71149E-04 1.40767E-06 3.30872E-24
 -1       521 2.07842E-03-1.47297E-04 0.00000E+00
 -1       522 2.14227E-03-5.25188E-04 0.00000E+00
 -1       523 2.19668E-03-1.08291E-03 1.05879E-22
 -1       524 2.23316E-03-1.73371E-03 5.29396E-23
 -1       525 2.27344E-03-2.36584E-03 1.05879E-22
 -1       526 2.33414E-03-2.86934E-03 0.00000E+00
 -1       527 2.39348E-03-3.16664E-03 0.00000E+00
 -1       528 2.40226E-03-3.21551E-03 0.00000E+00
 -1       529 2.29776E-03-3.02074E-03-2.11758E-22
 -1       530 2.04197E-03-2.63407E-03 0.00000E+00
 -1       531 1.64696E-03-2.12420E-03 1.05879E-22
 -1       532 1.16675E-03-1.55846E-03 5.29396E-23
 -1       533 6.96460E-04-9.98961E-04 0.00000E+00
 -1       534 3.28261E-04-5.09437E-04 0.00000E+00
 -1       535 1.05872E-04-1.58310E-04 0.00000E+00
 -1       536 1.94160E-04 2.37518E-05 0.00000E+00
 -1       537 1.92539E-04 7.89335E-05 3.30872E-24
 -1       538 1.90042E-04 1.49015E-04-3.30872E-24
 -1       539 1.87100E-04 2.25411E-04 0.00000E+00
 -1       540 1.84451E-04 2.97608E-04 0.00000E+00
 -1       541 1.82720E-04 3.55110E-04 0.00000E+00
 -1       542 1.81912E-04 3.91685E-04 3.30872E-24
 -1       543 1.81703E-04 4.01229E-04 0.00000E+00
 -1       544 1.81408E-04 3.84479E-04 0.00000E+00
 -1       545 1.80393E-04 3.42364E-04 1.65436E-24
 -1       546 1.78528E-04 2.82385E-04 0.00000E+00
 -1       547 1.76018E-04 2.12154E-04-1.65436E-24
 -1       548 1.73537E-04 1.42336E-04 3.30872E-24
 -1       549 1.71742E-04 8.35952E-05 1.65436E-24
 -1       550 1.70802E-04 4.33105E-05-1.65436E-24
 -1       551 1.71839E-04-8.54634E-06 0.00000E+00
 -1       552 1.45807E-04-9.13922E-06 0.00000E+00
 -1       553 1.17625E-04-9.78517E-06 8.27181E-24
 -1       554 8.82193E-05-1.04658E-05-3.30872E-24
 -1       555 5.85184E-05-1.11569E-05 0.00000E+00
 -1       556 1.87911E-04 9.65746E-06 0.00000E+00
 -1       557 1.82353E-04 2.39488E-05 0.00000E+00
 -1       558 1.78014E-04 3.51198E-05 0.00000E+00
 -1       559 1.74769E-04 4.34591E-05 0.00000E+00
 -1       560 1.72500E-04 4.92553E-05 0.00000E+00
 -1       561 1.71089E-04 5.27995E-05 0.00000E+00
 -1       562 1.70420E-04 5.43840E-05 0.00000E+00
 -1       563 1.70379E-04 5.43015E-05 0.00000E+00
 -1       564 1.70853E-04 5.28458E-05 0.00000E+00
 -1       565 1.71729E-04 5.03110E-05 0.00000E+00
 -1       566 1.72898E-04 4.69919E-05 0.00000E+00
 -1       567 1.74249E-04 4.31835E-05 0.00000E+00
 -1       568 1.75673E-04 3.91808E-05-8.27181E-25
 -1       569 1.77058E-04 3.52789E-05 0.00000E+00
 -1       570 1.78297E-04 3.17731E-05 0.00000E+00
 -1       571 1.70636E-04 2.69805E-05 0.00000E+00
 -1       572 1.70730E-04 2.51558E-05-8.27181E-25
 -1       573 1.70825E-04 2.32840E-05-1.65436E-24
 -1       574 1.70920E-04 2.13803E-05 0.00000E+00
 -1       575 1.71016E-04 1.94595E-05 0.00000E+00
 -1       576 1.71111E-04 1.75368E-05 0.00000E+00
 -1       577 1.71206E-04 1.56273E-05 0.00000E+00
 -1       578 1.71302E-04 1.37463E-05 0.00000E+00
 -1       579 1.71397E-04 1.19088E-05 0.00000E+00
 -1       580 1.71492E-04 1.01299E-05 0.00000E+00
 -1       581 1.71588E-04 8.42492E-06 0.00000E+00
 -1       582 1.71684E-04 6.80885E-06 0.00000E+00
 -1       583 1.71780E-04 5.29684E-06 6.61744E-24
 -1       584 1.71876E-04 3.90386E-06 0.00000E+00
 -1       585 1.71972E-04 2.64472E-06 0.00000E+00
 -1       586 1.71956E-04 2.87808E-05 0.00000E+00
 -1       587 1.73330E-04 2.88172E-05-2.06795E-25
 -1       588 1.74709E-04 2.88533E-05 0.00000E+00
 -1       589 1.76133E-04 2.88888E-05 0.00000E+00
 -1       590 1.77643E-04 2.89231E-05 0.00000E+00
 -1       591 1.71143E-04 2.70648E-05-1.03398E-25
 -1       592 1.71746E-04 2.53643E-05 0.00000E+00
 -1       593 1.72355E-04 2.36483E-05 0.00000E+00
 -1       594 1.72968E-04 2.19216E-05 0.00000E+00
 -1       595 1.73582E-04 2.01890E-05 0.00000E+00
 -1       596 1.74197E-04 1.84554E-05 4.13590E-25
 -1       597 1.74810E-04 1.67255E-05 8.27181E-25
 -1       598 1.75421E-04 1.50043E-05 4.13590E-25
 -1       599 1.76026E-04 1.32965E-05 8.27181E-25
 -1       600 1.76624E-04 1.16069E-05 0.00000E+00
 -1       601 1.77214E-04 9.94045E-06-8.27181E-25
 -1       602 1.77793E-04 8.30181E-06-2.06795E-25
 -1       603 1.78361E-04 6.69587E-06 0.00000E+00
 -1       604 1.78915E-04 5.12753E-06 3.87741E-26
 -1       605 1.79453E-04 3.60154E-06 4.13590E-25
 -1       606 1.72081E-04 6.41591E-07 0.00000E+00
 -1       607 1.72091E-04-1.61810E-07 0.00000E+00
 -1       608 1.72100E-04-8.82392E-07 0.00000E+00
 -1       609 1.72109E-04-1.52598E-06-1.65436E-24
 -1       610 1.72117E-04-2.09844E-06 0.00000E+00
 -1       611 1.72126E-04-2.60573E-06 0.00000E+00
 -1       612 1.72135E-04-3.05377E-06 0.00000E+00
 -1       613 1.72143E-04-3.44853E-06 0.00000E+00
 -1       614 1.72152E-04-3.79596E-06 1.65436E-24
 -1       615 1.72161E-04-4.10202E-06 0.00000E+00
 -1       616 1.72169E-04-4.37266E-06 0.00000E+00
 -1       617 1.72178E-04-4.61383E-06 0.00000E+00
 -1       618 1.72186E-04-4.83149E-06 0.00000E+00
 -1       619 1.72195E-04-5.03159E-06 0.00000E+00
 -1       620 1.72203E-04-5.22009E-06-2.06795E-25
 -1       621 1.73138E-04 1.63189E-06 1.65436E-24
 -1       622 1.74345E-04 1.73108E-06 8.27181E-25
 -1       623 1.75662E-04 1.83011E-06-3.30872E-24
 -1       624 1.77059E-04 1.92886E-06 8.27181E-25
 -1       625 1.78507E-04 2.02737E-06 0.00000E+00
 -1       626 1.72509E-04 6.75985E-07-3.30872E-24
 -1       627 1.72927E-04-1.14881E-07 0.00000E+00
 -1       628 1.73323E-04-8.47465E-07-6.61744E-24
 -1       629 1.73701E-04-1.52995E-06 3.30872E-24
 -1       630 1.74063E-04-2.17054E-06 0.00000E+00
 -1       631 1.74412E-04-2.77747E-06 1.65436E-24
 -1       632 1.74752E-04-3.35896E-06 0.00000E+00
 -1       633 1.75085E-04-3.92325E-06 1.65436E-24
 -1       634 1.75415E-04-4.47856E-06 0.00000E+00
 -1       635 1.75745E-04-5.03312E-06-1.65436E-24
 -1       636 1.76078E-04-5.59516E-06 0.00000E+00
 -1       637 1.76416E-04-6.17293E-06 0.00000E+00
 -1       638 1.76763E-04-6.77463E-06 1.65436E-24
 -1       639 1.77122E-04-7.40854E-06 0.00000E+00
 -1       640 1.77496E-04-8.08290E-06 1.65436E-24
 -1       656 1.72624E-04-5.95616E-06-6.61744E-24
 -1       657 1.73450E-04-6.53180E-06 6.61744E-24
 -1       658 1.74549E-04-7.10604E-06 0.00000E+00
 -1       659 1.75775E-04-7.67993E-06-6.61744E-24
 -1       660 1.76947E-04-8.25555E-06 0.00000E+00
 -1       661 1.72367E-04-5.62808E-06 8.27181E-25
 -1       662 1.72558E-04-5.93955E-06 0.00000E+00
 -1       663 1.72779E-04-6.33266E-06-1.65436E-24
 -1       664 1.73029E-04-6.80145E-06 0.00000E+00
 -1       665 1.73306E-04-7.34062E-06-1.65436E-24
 -1       666 1.73607E-04-7.94477E-06 0.00000E+00
 -1       667 1.73931E-04-8.60878E-06 0.00000E+00
 -1       668 1.74275E-04-9.32756E-06 0.00000E+00
 -1       669 1.74638E-04-1.00962E-05-1.65436E-24
 -1       670 1.75017E-04-1.09099E-05 0.00000E+00
 -1       671 1.75412E-04-1.17640E-05 1.65436E-24
 -1       672 1.75820E-04-1.26540E-05 0.00000E+00
 -1       673 1.76239E-04-1.35751E-05 0.00000E+00
 -1       674 1.76668E-04-1.45234E-05 8.27181E-25
 -1       675 1.77105E-04-1.54939E-05 0.00000E+00
 -1       676 1.72408E-04-1.59844E-05-3.30872E-24
 -1       677 1.73439E-04-1.60850E-05 0.00000E+00
 -1       678 1.74469E-04-1.61856E-05 0.00000E+00
 -1       679 1.75496E-04-1.62859E-05-1.65436E-24
 -1       680 1.76522E-04-1.63862E-05 0.00000E+00
 -1       771 1.85531E-05 1.23715E-05-5.29396E-23
 -1       772 9.37047E-06 3.22716E-05 0.00000E+00
 -1       773 1.81436E-06 4.80560E-05 0.00000E+00
 -1       774-4.22646E-06 5.99610E-05 0.00000E+00
 -1       775-8.86107E-06 6.82316E-05 0.00000E+00
 -1       776-1.22029E-05 7.31276E-05-2.64698E-23
 -1       777-1.43655E-05 7.49176E-05 0.00000E+00
 -1       778-1.54647E-05 7.38821E-05 7.94093E-23
 -1       779-1.56159E-05 7.03089E-05-5.29396E-23
 -1       780-1.49364E-05 6.44959E-05 0.00000E+00
 -1       781-1.35431E-05 5.67466E-05-5.29396E-23
 -1       782-1.15540E-05 4.73725E-05 2.64698E-23
 -1       783-9.08662E-06 3.66888E-05 5.29396E-23
 -1       784-6.25966E-06 2.50163E-05 0.00000E+00
 -1       785-3.19098E-06 1.26782E-05 5.29396E-23
 -1       786 1.79320E-04 2.70553E-05 5.16988E-26
 -1       787 1.79363E-04 2.52055E-05 0.00000E+00
 -1       788 1.79406E-04 2.33964E-05 8.27181E-25
 -1       789 1.79450E-04 2.16199E-05 8.27181E-25
 -1       790 1.79493E-04 1.98714E-05 1.65436E-24
 -1       791 1.79537E-04 1.81463E-05 0.00000E+00
 -1       792 1.79581E-04 1.64425E-05 1.65436E-24
 -1       793 1.79625E-04 1.47579E-05 0.00000E+00
 -1       794 1.79668E-04 1.30921E-05 0.00000E+00
 -1       795 1.79712E-04 1.14453E-05 0.00000E+00
 -1       796 1.79756E-04 9.81910E-06 0.00000E+00
 -1       797 1.79800E-04 8.21546E-06-8.27181E-25
 -1       798 1.79844E-04 6.63857E-06 0.00000E+00
 -1       799 1.79889E-04 5.09270E-06 0.00000E+00
 -1       800 1.79933E-04 3.58527E-06 0.00000E+00
 -1       801 1.38455E-04 2.59316E-05-2.64698E-23
 -1       802 1.48048E-05 1.63496E-05 2.64698E-23
 -1       803-9.16757E-05 8.36740E-06 5.29396E-23
 -1       804-8.28057E-05 5.77797E-06 0.00000E+00
 -1       805-2.75447E-05 2.35810E-06 0.00000E+00
 -1       806 1.79883E-04 2.69901E-05 3.30872E-24
 -1       807 1.80471E-04 2.50525E-05 1.65436E-24
 -1       808 1.81047E-04 2.31459E-05 3.30872E-24
 -1       809 1.81610E-04 2.12740E-05 0.00000E+00
 -1       810 1.82158E-04 1.94405E-05 0.00000E+00
 -1       811 1.82691E-04 1.76491E-05 0.00000E+00
 -1       812 1.83206E-04 1.59033E-05 0.00000E+00
 -1       813 1.83703E-04 1.42069E-05-1.65436E-24
 -1       814 1.84180E-04 1.25635E-05-3.30872E-24
 -1       815 1.84636E-04 1.09765E-05-8.27181E-25
 -1       816 1.85070E-04 9.44970E-06-1.65436E-24
 -1       817 1.85480E-04 7.98658E-06 0.00000E+00
 -1       818 1.85864E-04 6.59075E-06 0.00000E+00
 -1       819 1.86223E-04 5.26579E-06-1.65436E-24
 -1       820 1.86554E-04 4.01522E-06 0.00000E+00
 -1       821 1.79854E-04 3.60459E-07-1.65436E-24
 -1       822 1.79721E-04-2.04891E-06-1.65436E-24
 -1       823 1.79588E-04-4.83253E-06 0.00000E+00
 -1       824 1.79454E-04-7.71632E-06 1.65436E-24
 -1       825 1.79320E-04-1.04002E-05-3.30872E-24
 -1       826 1.79187E-04-1.25851E-05 0.00000E+00
 -1       827 1.79055E-04-1.41036E-05 0.00000E+00
 -1       828 1.78923E-04-1.47923E-05-1.65436E-24
 -1       829 1.78792E-04-1.47065E-05 0.00000E+00
 -1       830 1.78661E-04-1.39061E-05 0.00000E+00
 -1       831 1.78530E-04-1.26395E-05-3.30872E-24
 -1       832 1.78398E-04-1.11577E-05 1.65436E-24
 -1       833 1.78267E-04-9.76852E-06 3.30872E-24
 -1       834 1.78137E-04-8.77936E-06 0.00000E+00
 -1       835 1.78007E-04-8.39235E-06 8.27181E-25
 -1       836 1.81326E-04 2.24308E-06 0.00000E+00
 -1       837 1.82552E-04 2.36529E-06 0.00000E+00
 -1       838 1.83687E-04 2.48742E-06 3.30872E-24
 -1       839 1.84761E-04 2.60885E-06 8.27181E-25
 -1       840 1.85808E-04 2.73012E-06 8.27181E-25
 -1       856 1.77868E-04-9.55084E-06 0.00000E+00
 -1       857 1.77847E-04-1.01641E-05 1.29247E-26
 -1       858 1.77826E-04-1.06663E-05 0.00000E+00
 -1       859 1.77805E-04-1.10779E-05 2.06795E-25
 -1       860 1.77783E-04-1.14196E-05 0.00000E+00
 -1       861 1.77762E-04-1.17121E-05 0.00000E+00
 -1       862 1.77741E-04-1.19761E-05 0.00000E+00
 -1       863 1.77719E-04-1.22322E-05 0.00000E+00
 -1       864 1.77698E-04-1.25014E-05-8.27181E-25
 -1       865 1.77676E-04-1.28042E-05 0.00000E+00
 -1       866 1.77655E-04-1.31614E-05-8.27181E-25
 -1       867 1.77633E-04-1.35937E-05 0.00000E+00
 -1       868 1.77612E-04-1.41217E-05 0.00000E+00
 -1       869 1.77590E-04-1.47658E-05 0.00000E+00
 -1       870 1.77568E-04-1.55466E-05 8.27181E-25
 -1       871 1.78906E-04-8.81000E-06 8.27181E-25
 -1       872 1.80067E-04-8.81715E-06 0.00000E+00
 -1       873 1.81305E-04-8.82495E-06-4.13590E-25
 -1       874 1.82555E-04-8.83346E-06-1.55096E-25
 -1       875 1.83751E-04-8.84253E-06-4.13590E-25
 -1       876 1.78287E-04-9.53701E-06 3.30872E-24
 -1       877 1.78668E-04-1.02033E-05 1.65436E-24
 -1       878 1.79027E-04-1.08128E-05-3.30872E-24
 -1       879 1.79368E-04-1.13725E-05-1.65436E-24
 -1       880 1.79693E-04-1.18897E-05 0.00000E+00
 -1       881 1.80005E-04-1.23715E-05 0.00000E+00
 -1       882 1.80307E-04-1.28250E-05 3.30872E-24
 -1       883 1.80600E-04-1.32574E-05-1.65436E-24
 -1       884 1.80889E-04-1.36758E-05 0.00000E+00
 -1       885 1.81174E-04-1.40873E-05 1.65436E-24
 -1       886 1.81460E-04-1.44990E-05 3.30872E-24
 -1       887 1.81748E-04-1.49180E-05 0.00000E+00
 -1       888 1.82042E-04-1.53515E-05-3.30872E-24
 -1       889 1.82343E-04-1.58068E-05 0.00000E+00
 -1       890 1.82654E-04-1.62908E-05-1.65436E-24
 -1       891 1.78588E-04-1.65395E-05 0.00000E+00
 -1       892 1.79608E-04-1.65948E-05-8.27181E-25
 -1       893 1.80582E-04-1.66500E-05 8.27181E-25
 -1       894 1.81483E-04-1.67050E-05-8.27181E-25
 -1       895 1.82288E-04-1.67597E-05-4.13590E-25
 -1       956 1.86733E-04 1.83450E-06 1.65436E-24
 -1       957 1.86606E-04 9.12480E-07 0.00000E+00
 -1       958 1.86479E-04 6.64564E-08 3.30872E-24
 -1       959 1.86352E-04-7.14142E-07 1.65436E-24
 -1       960 1.86225E-04-1.43993E-06 0.00000E+00
 -1       961 1.86098E-04-2.12156E-06 1.65436E-24
 -1       962 1.85971E-04-2.76967E-06 0.00000E+00
 -1       963 1.85844E-04-3.39496E-06-1.65436E-24
 -1       964 1.85717E-04-4.00809E-06 0.00000E+00
 -1       965 1.85590E-04-4.61973E-06 0.00000E+00
 -1       966 1.85463E-04-5.24055E-06-3.30872E-24
 -1       967 1.85336E-04-5.88124E-06 1.65436E-24
 -1       968 1.85209E-04-6.55243E-06 3.30872E-24
 -1       969 1.85082E-04-7.26479E-06 1.65436E-24
 -1       970 1.84955E-04-8.02890E-06 0.00000E+00
 -1       971 1.84715E-04-9.67727E-06 1.65436E-24
 -1       972 1.84599E-04-1.04069E-05-1.65436E-24
 -1       973 1.84482E-04-1.10541E-05 0.00000E+00
 -1       974 1.84365E-04-1.16295E-05 0.00000E+00
 -1       975 1.84249E-04-1.21438E-05 3.30872E-24
 -1       976 1.84132E-04-1.26074E-05 0.00000E+00
 -1       977 1.84015E-04-1.30312E-05 0.00000E+00
 -1       978 1.83898E-04-1.34258E-05 1.65436E-24
 -1       979 1.83782E-04-1.38019E-05 0.00000E+00
 -1       980 1.83665E-04-1.41701E-05 1.65436E-24
 -1       981 1.83548E-04-1.45412E-05-3.30872E-24
 -1       982 1.83432E-04-1.49258E-05-1.65436E-24
 -1       983 1.83315E-04-1.53346E-05 0.00000E+00
 -1       984 1.83199E-04-1.57783E-05 0.00000E+00
 -1       985 1.83084E-04-1.62676E-05-3.30872E-24
 -3
    1PSTEP                        30          15           1          
  100CL  115 6.42334E-01         409                     0   15           1
 -4  STRESS      6    1
 -5  SXX         1    4    1    1
 -5  SYY         1    4    2    2
 -5  SZZ         1    4    3    3
 -5  SXY         1    4    1    2
 -5  SYZ         1    4    2    3
 -5  SZX         1    4    3    1
 -1         1-4.42251E+06-1.65078E+06-9.73065E+05-1.62101E+06-1.73168E-09 2.02737E-07
 -1         2 1.30095E+04-2.37632E+06 5.52853E+04 2.05912E+05 2.73985E-09 1.13952E-07
 -1         3-1.30574E+03-1.68251E+06 2.56672E+02-2.47937E+03 5.89850E-10-4.11019E-08
 -1         5-4.60958E+01 3.67098E+05 9.47699E+00-9.48841E-01-4.65292E-10-6.04632E-09
 -1         8-6.26095E+05-2.09181E+05-5.00796E+04-2.61004E+05-3.28328E-10-4.98294E-08
 -1         9 7.78548E+06-7.24170E+05 1.29875E+06-1.13715E+06 2.51457E-08-8.21892E-09
 -1        10-1.28397E+03-1.71880E+06-3.33066E+03-1.54917E+04-3.47791E-09-6.91716E-09
 -1        12-4.23043E+01 3.67118E+05 3.09814E+02-6.60116E+00-4.54957E-10-6.63204E-09
 -1        15 1.25442E+03 6.89372E+02 4.05490E+03 1.85913E+00 1.60128E-10 2.46383E-07
 -1        16 1.70975E+07-1.54442E+05 2.41113E+06-1.39918E+06 1.52698E-08 2.38729E-07
 -1        17 6.12863E+06 4.34806E+06 1.65086E+06 4.28008E+06 1.69966E-08 1.23866E-08
 -1        18 1.10747E+05 2.49721E+04-2.04984E+03-1.11581E+05 1.18612E-08 1.87811E-10
 -1        19 1.16702E+05 1.34874E+05-9.08458E+02 2.13132E+04 1.28402E-09-1.24288E-08
 -1        20-7.49293E+04-5.47944E+05-1.22721E+05 2.58824E+04-1.78807E-09 6.08088E-09
 -1        21-4.48492E+01-2.86801E+05-8.99086E+02 2.02896E+02 1.17344E-08-2.31276E-08
 -1        24 1.00214E+07 8.53656E+06 2.84449E+06 7.94013E+06-1.47421E-07-5.01750E-08
 -1        25 6.99986E+04 6.51380E+04 4.82356E+04-5.27459E+05-1.48375E-09 1.26798E-08
 -1        26-5.20539E+04 8.76432E+04-2.34760E+04 8.70207E+01 2.68847E-10 5.43306E-09
 -1        27-7.43412E+04-2.96604E+05-1.08880E+05 6.60732E+04 3.46578E-09-2.71636E-10
 -1        28 2.16555E+04-8.22619E+04 1.63555E+04 2.06317E+04-4.01161E-09-6.64546E-09
 -1        32-1.62444E+06-2.98014E+06-1.72903E+05 2.47344E+05-3.86426E-08-1.22069E-08
 -1        33-1.71258E+05 8.83122E+04 3.09020E+04-3.75756E+04-2.40637E-09 8.34279E-09
 -1        34-2.14814E+05-2.36425E+04 6.45275E+02 7.18166E+04-3.24785E-09-6.98492E-10
 -1        35-2.22704E+04-3.26309E+04-1.29767E+03 4.99104E+04-4.34295E-09-1.08460E-08
 -1        51 4.96128E+04-2.11838E+05 1.07381E+05-6.29991E+05-1.16415E-10 1.91518E-07
 -1        52 1.79334E+04-1.94670E+05 5.79766E+04-7.34449E+05 3.89264E-10 6.18238E-08
 -1        53 5.04221E+03-2.10156E+05 3.27745E+04-6.27669E+05 5.49335E-10 6.10380E-08
 -1        54 1.13951E+04-2.06647E+05 3.21742E+04-7.36878E+05-1.45519E-11-1.26165E-08
 -1        55 2.39153E+04-2.16148E+05 4.52560E+04-6.27327E+05 6.40284E-10 1.16950E-07
 -1        56-8.34166E+06-9.58185E+05-7.21488E+05-3.27788E+06-3.60887E-08-1.26485E-07
 -1        57-8.80932E+06-1.42015E+06-4.84559E+05-3.03312E+06-2.70957E-08 7.18428E-08
 -1        58-8.43436E+06-1.23488E+06-1.69406E+05-3.28687E+06 3.87263E-08-1.72433E-07
 -1        59-8.71050E+06-1.08934E+06-1.00568E+05-3.02196E+06-2.47474E-09 2.65427E-08
 -1        60-8.44180E+06-1.27862E+06-3.91903E+04-3.29423E+06-2.43831E-08-5.71945E-08
 -1        61-8.66903E+06-1.06652E+06-2.17208E+04-3.04381E+06 1.19949E-08-1.08769E-07
 -1        62-8.47393E+06-1.25755E+06-1.16977E+04-3.26424E+06-1.64328E-08-1.44060E-07
 -1        63-8.57770E+06-1.14191E+06-7.08768E+03-3.12927E+06 1.89366E-08-1.08124E-07
 -1        64-8.52845E+06-1.20623E+06-1.18922E+04-3.20537E+06 1.20708E-08-1.27240E-07
 -1        65-8.47375E+06-1.25176E+06-1.82085E+04-3.24930E+06-3.14340E-08-3.14942E-07
 -1        66-8.57756E+06-1.14809E+06-3.60820E+04-3.14397E+06 1.02427E-08-3.10274E-08
 -1        67-8.42024E+06-1.36796E+06-8.84943E+04-3.34490E+06-1.72604E-08 1.47446E-07
 -1        68-8.58698E+06-1.08789E+06-1.49341E+05-3.11290E+06 5.98811E-09 7.15008E-08
 -1        69-8.54497E+06-1.63308E+06-4.29211E+05-3.33190E+06-1.72622E-09-1.27475E-07
 -1        70-8.45733E+06-8.88356E+05-6.36715E+05-3.15658E+06-1.98052E-08-1.58325E-08
 -1        86-1.35690E+04-2.80900E+06-3.44958E+04-1.02742E+05-2.87579E-08-1.80833E-07
 -1        87 1.53490E+04-2.54661E+06 2.04787E+04 3.14124E+05-5.05077E-08-4.35393E-08
 -1        88 4.69382E+02-2.65637E+06-8.14424E+03-2.11227E+05-4.62778E-08-8.44940E-08
 -1        89 7.84393E+03-2.58574E+06-4.72458E+03 3.44755E+05-6.80975E-08-2.37279E-07
 -1        90-2.76795E+03-2.77362E+06-6.58176E+04-1.33497E+05-2.04745E-08 9.27685E-10
 -1       121-1.79696E+03-1.68716E+06-6.77144E+02 1.23146E+03 3.36854E-10 1.16161E-08
 -1       122-1.16355E+03-1.68262E+06 4.09175E+02-4.95370E+03 5.20768E-09 3.02189E-08
 -1       123-1.78286E+03-1.68726E+06-3.37542E+02 3.67335E+03 1.82808E-09 4.94765E-10
 -1       124-1.31218E+02-1.68259E+06 1.35963E+03-1.02378E+04 1.03164E-08-4.22879E-08
 -1       125-2.21075E+03-1.68778E+06 9.38794E+02 6.47581E+03 3.28873E-09-4.39468E-09
 -1       191-4.86889E+01 3.67121E+05 9.34165E+00 4.88331E-01-4.65109E-10-1.00918E-08
 -1       192-4.69927E+01 3.67098E+05 2.01615E+01-3.17760E+00-5.37403E-10 7.56700E-10
 -1       193-5.10594E+01 3.67120E+05 3.55630E+01 2.77519E+00-8.01213E-10-4.47471E-10
 -1       194-4.98725E+01 3.67101E+05 7.64936E+01-7.25897E+00-4.76473E-10 1.99270E-09
 -1       195-5.56111E+01 3.67118E+05 1.47685E+02 4.66829E+00-1.19055E-09-7.15954E-09
 -1       251-2.08901E+06-4.09806E+04-2.08985E+05-1.42262E+05 4.43833E-10-1.62472E-08
 -1       252-1.03696E+06 5.11098E+04 6.46650E+04 4.38501E+05-9.71340E-10 2.24492E-07
 -1       253-1.62959E+06-1.71128E+04-3.61724E+04-2.91221E+05 1.16443E-08-5.57984E-08
 -1       254-1.53232E+06 6.84705E+04 1.13824E+04 5.80608E+05-2.68341E-08-2.03296E-07
 -1       255-1.64252E+06-1.84570E+04-2.07444E+04-2.88965E+05 4.84124E-09 3.57204E-08
 -1       256-1.00535E+06 5.50673E+04 1.17573E+05 4.28533E+05 3.74312E-08 1.00606E-07
 -1       257-2.10493E+06-4.58111E+04-1.16316E+05-1.34408E+05 2.95513E-08 1.65383E-07
 -1       258-4.78185E+05 4.13125E+04 2.17137E+05 9.28287E+03-2.47746E-09 2.44672E-08
 -1       259-2.11780E+06-4.69136E+04-1.17324E+05 1.27429E+05-2.49966E-08 5.09078E-08
 -1       260-9.74967E+05 5.66781E+04 1.28292E+05-4.16031E+05-6.65386E-08-1.71263E-07
 -1       261-1.65705E+06-2.13766E+04-1.45196E+04 2.87690E+05 5.66370E-08-1.64547E-08
 -1       262-1.52622E+06 8.04711E+04 3.49059E+04-5.78384E+05-1.92813E-08 1.32295E-07
 -1       263-1.62096E+06-2.62991E+04 3.88130E+03 2.94741E+05 2.53594E-08 8.87785E-08
 -1       264-1.03525E+06 1.24002E+05 1.60628E+05-4.48968E+05 1.28709E-07 9.52896E-08
 -1       265-2.10227E+06-1.02020E+05-6.15392E+04 1.53809E+05 5.20959E-08 3.61215E-08
 -1       266-2.27092E+04-1.06191E+04 5.32811E+04-3.97790E+01 4.72937E-11-1.39952E-08
 -1       267 2.63262E+04 1.23764E+04 3.76589E+04 4.58978E+01 4.58385E-10 2.46070E-08
 -1       268-3.53030E+03-1.75286E+03 1.39976E+04-5.84814E+00 1.86446E-10 1.63600E-08
 -1       269 4.16824E+03 2.09778E+03 9.09826E+03 6.81225E+00-2.26009E-10-1.16478E-07
 -1       270-6.25659E+02-3.44683E+02 4.39186E+03-9.24469E-01 2.52044E-10 6.23125E-08
 -1       271-2.05546E+06-2.47043E+05-1.52939E+05-7.86323E+05-2.05473E-08-5.90153E-08
 -1       272-2.16674E+06-3.03246E+05-9.84642E+04-7.22290E+05 9.17044E-09-4.52201E-08
 -1       273-2.08291E+06-2.86611E+05-3.60840E+04-7.81020E+05 6.25641E-09-2.79597E-08
 -1       274-2.13433E+06-2.54870E+05-2.02533E+04-7.30546E+05-2.18876E-08 1.24883E-07
 -1       275-2.08692E+06-2.90652E+05-8.40689E+03-7.79756E+05 8.92942E-09 4.11528E-08
 -1       276-2.12813E+06-2.51189E+05-4.40829E+03-7.33156E+05-1.91008E-08-1.07866E-07
 -1       277-2.08857E+06-2.90081E+05-2.22349E+03-7.78267E+05 4.06635E-09 1.85868E-07
 -1       278-2.12405E+06-2.53716E+05-1.36737E+03-7.36274E+05 3.63207E-08 1.15801E-07
 -1       279-2.09033E+06-2.88496E+05-1.59447E+03-7.76183E+05-1.48248E-08 4.19923E-08
 -1       280-2.11952E+06-2.58119E+05-2.32455E+03-7.40412E+05 1.53159E-08 9.98662E-08
 -1       281-2.09234E+06-2.86176E+05-4.66984E+03-7.73587E+05 4.13456E-09-8.61592E-08
 -1       282-2.11598E+06-2.65987E+05-1.03056E+04-7.45221E+05-6.60202E-09-1.39526E-08
 -1       283-2.09318E+06-2.81349E+05-1.89773E+04-7.70776E+05 1.39935E-08 4.49586E-09
 -1       284-2.12604E+06-2.96927E+05-5.05149E+04-7.47577E+05-1.85437E-08-1.38244E-07
 -1       285-2.08209E+06-2.58137E+05-7.92872E+04-7.69934E+05-1.09758E-08-1.91725E-07
 -1       301 1.30422E+04-4.91226E+05 1.74092E+05-8.56800E+05 1.94268E-09 1.79032E-07
 -1       302 1.43505E+04-4.46715E+05 1.06004E+05-1.25237E+06-1.83354E-09 9.89348E-09
 -1       303-6.68451E+03-4.77412E+05 6.46482E+04-8.54630E+05 1.13869E-09-2.91966E-08
 -1       304 1.82313E+03-4.50863E+05 7.32911E+04-1.25167E+06-1.01863E-09 2.94240E-08
 -1       305-2.37335E+03-4.75613E+05 1.00918E+05-8.57288E+05-4.83851E-10 1.26282E-07
 -1       306-2.51944E+07-5.06100E+06-6.86670E+06-1.31639E+06-7.27596E-08 2.20898E-08
 -1       307 2.02713E+07 1.44308E+06 4.40529E+06-1.17823E+07-7.59363E-07 1.20926E-08
 -1       308-7.92843E+06-5.68489E+05-5.48690E+05 4.17422E+06-1.73779E-07 1.74827E-07
 -1       309-3.54855E+06 5.26735E+06 1.59855E+06-1.76151E+07 3.29841E-07 1.90172E-07
 -1       310-1.05905E+07-9.70046E+05-1.23115E+06 4.02323E+06-1.62050E-07-6.13654E-08
 -1       311 2.64143E+07-3.74337E+05 5.33087E+06-8.42303E+06 5.40196E-07 3.91738E-08
 -1       312-2.59579E+07-5.06778E+06-6.41387E+06-3.56564E+06 3.61470E-08-6.15400E-08
 -1       313 3.59172E+07 9.20816E+06 8.28692E+06 1.63842E+07-4.78758E-08 3.38187E-08
 -1       314-1.62541E+07-1.29535E+07-5.92120E+06-1.04253E+07 5.86151E-07 8.70787E-08
 -1       315-7.73716E+05 2.18340E+07 4.56402E+06 1.01020E+07-2.14815E-07-1.72207E-07
 -1       316-1.44386E+05-8.64372E+06-5.07495E+05-3.77684E+06-1.06190E-06-2.90049E-07
 -1       317-1.67317E+07 1.83558E+07 1.56889E+06-4.87037E+06 8.02087E-07-5.25193E-07
 -1       318-1.42334E+06-9.75258E+06-1.28821E+06-4.49959E+06-7.91857E-07 5.52391E-08
 -1       319 3.78745E+06 2.28554E+07 5.08851E+06 1.23791E+07-1.33819E-07 1.48779E-07
 -1       320-1.88000E+07-1.33097E+07-7.52063E+06-1.03111E+07 1.49710E-07-6.56582E-08
 -1       336-7.56437E+02-1.75686E+06-1.03312E+04 8.88855E+03-2.52167E-08-1.12304E-08
 -1       337-4.03247E+03-1.75681E+06-1.56364E+04-2.10864E+04-4.63822E-08 2.52840E-10
 -1       338 6.99889E+02-1.75595E+06-2.62873E+04 1.20301E+04-3.13748E-08-1.35005E-08
 -1       339-2.86182E+04-1.77350E+06-6.11705E+04-2.71915E+04-5.83141E-08 5.98448E-09
 -1       340 1.94755E+04-1.74195E+06-9.64822E+04 1.48893E+04-3.82352E-08 2.73249E-08
 -1       406-2.05741E+01 3.67104E+05 6.09609E+02 2.20865E+00-1.53279E-09 1.20872E-08
 -1       407 1.71188E+02 3.67225E+05 1.29997E+03 1.89516E+01-4.69313E-10 2.31666E-08
 -1       408 6.25528E+02 3.67010E+05 2.59369E+03-2.15702E+01-1.78625E-09-8.33097E-09
 -1       409 2.76822E+03 3.68054E+05 5.84322E+03 2.26226E+02-2.70688E-10 2.56478E-09
 -1       410 8.02919E+03 3.66266E+05 1.19269E+04-2.17197E+02-2.24463E-09-1.19817E-08
 -1       521-2.68679E+07-6.22553E+06-8.06090E+06-1.05529E+06-1.01980E-07 7.67177E-08
 -1       522 2.10866E+07 1.96327E+06 4.49737E+06-1.47060E+07-5.47268E-07-3.11178E-07
 -1       523-8.77432E+06-8.31838E+05-5.76534E+05 4.62425E+06 5.98666E-08-1.42201E-07
 -1       524-6.47672E+06 7.50243E+06 1.74583E+06-2.05328E+07 8.04357E-07-4.77859E-07
 -1       525-1.16293E+07-1.40426E+06-1.36210E+06 4.46080E+06 6.42962E-07-6.19912E-08
 -1       526 2.87330E+07-4.07475E+05 5.64239E+06-1.08019E+07 2.26544E-07 8.84756E-09
 -1       527-2.78098E+07-6.39456E+06-7.41325E+06-3.49558E+06 1.27009E-07 2.89292E-08
 -1       528 3.94816E+07 1.00951E+07 8.70022E+06 1.86201E+07 7.92788E-08 7.53498E-08
 -1       529-1.73636E+07-1.48200E+07-6.82111E+06-1.07259E+07 2.61352E-08-7.10716E-08
 -1       530-2.87661E+06 2.56478E+07 4.85479E+06 1.02800E+07-3.59985E-07 5.06494E-07
 -1       531-2.55150E+05-9.81106E+06-5.19972E+05-4.00649E+06-9.47373E-07 3.23431E-07
 -1       532-1.98084E+07 2.07152E+07 1.73888E+06-7.93026E+06 3.68760E-07-7.49758E-07
 -1       533-1.52976E+06-1.09323E+07-1.36493E+06-4.65909E+06-1.02242E-07-8.94186E-07
 -1       534 1.91786E+06 2.67609E+07 5.33944E+06 1.29270E+07-7.90751E-08 6.52857E-07
 -1       535-2.00093E+07-1.52877E+07-8.62186E+06-1.05932E+07 8.50996E-08 3.98839E-07
 -1       536-6.56868E+05-4.48786E+04-2.74904E+04-4.79180E+04-2.56614E-09 4.58658E-08
 -1       537-1.02967E+05 4.39421E+04 7.98395E+04 1.10814E+05-1.07164E-07 7.28355E-08
 -1       538-3.92288E+05 2.00030E+03 6.37705E+03-6.55723E+04 3.68246E-08 9.88962E-08
 -1       539-2.86636E+05 3.10680E+03 2.28699E+04 1.25262E+05 1.42477E-07 7.16818E-08
 -1       540-4.77740E+05-2.83305E+02-1.68969E+04-6.27764E+04-9.88848E-09 1.04104E-07
 -1       541 6.34610E+04 1.43086E+04 8.99656E+04 8.67908E+04 8.33461E-09 7.60239E-08
 -1       542-7.32968E+05-1.70390E+04-7.08433E+04-2.64320E+04 5.14578E-08 2.04321E-08
 -1       543 2.81449E+05 2.30759E+04 1.33062E+05-1.22272E+04-4.07183E-08-3.39915E-08
 -1       544-6.89897E+05-1.38705E+04-6.29429E+04 3.57254E+04 1.40026E-08-4.85991E-08
 -1       545-3.71516E+04 7.73827E+03 6.66032E+04-1.01731E+05-2.95449E-09-6.91584E-08
 -1       546-4.22896E+05 5.35240E+03-1.04766E+04 6.28106E+04 2.19768E-08-6.89050E-08
 -1       547-3.02610E+05-4.68160E+03 7.63438E+03-1.27962E+05-1.36984E-07-1.02411E-07
 -1       548-4.31547E+05 4.47318E+03-2.18654E+04 6.24867E+04-9.40020E-08-9.56702E-08
 -1       549-1.94072E+04 1.01853E+04 4.65205E+04-9.92995E+04-5.82259E-08-5.41004E-08
 -1       550-6.98511E+05-1.58355E+04-1.15438E+05 3.35950E+04 8.64657E-09-3.16468E-08
 -1       551 3.70966E+04-7.67929E+05-5.36630E+03-1.20537E+06-9.39472E-08 2.03727E-10
 -1       552 8.38698E+04-8.06141E+05 1.58689E+04-1.71893E+06-6.62694E-08 2.51093E-08
 -1       553 6.38237E+04-8.04575E+05 3.60327E+04-1.19931E+06-1.08994E-07 2.36614E-08
 -1       554 1.20193E+05-8.18089E+05 8.57477E+04-1.72088E+06-6.80157E-08 1.77115E-08
 -1       555 9.33978E+04-8.27188E+05 1.55152E+05-1.19937E+06-1.14080E-07-1.03646E-08
 -1       556 2.01658E+05-3.50220E+05 3.97966E+04-3.83256E+05-2.61352E-08-2.16532E-08
 -1       557 3.24693E+05-4.48516E+05 2.29949E+04-4.93519E+05-1.03464E-08 7.27414E-09
 -1       558 1.87020E+05-3.47020E+05 5.95512E+03-3.84583E+05-1.83936E-08-3.36877E-09
 -1       559 3.01521E+05-4.51078E+05 4.02848E+03-5.11082E+05 1.75787E-08 3.29965E-09
 -1       560 1.74120E+05-3.38901E+05-3.25974E+02-3.93787E+05-9.02219E-10 5.88261E-09
 -1       561 2.85116E+05-4.44651E+05 5.67892E+02-5.22176E+05-6.75209E-09 1.97579E-08
 -1       562 1.63924E+05-3.32536E+05-8.66268E+02-4.01151E+05-4.88944E-09 1.28675E-08
 -1       563 2.73026E+05-4.39380E+05 8.93924E+01-5.30050E+05 1.62254E-09 2.85654E-08
 -1       564 1.56714E+05-3.28035E+05-4.20225E+02-4.06255E+05 4.59841E-09-4.26462E-09
 -1       565 2.65124E+05-4.35940E+05 5.77043E+01-5.35092E+05 1.36351E-08-3.49246E-10
 -1       566 1.52596E+05-3.25426E+05-1.87998E+02-4.09137E+05-1.62254E-09 9.53878E-09
 -1       567 2.61442E+05-4.34337E+05-2.99752E+02-5.37310E+05 1.65928E-08 1.01609E-08
 -1       568 1.51649E+05-3.24850E+05-9.64044E+02-4.09895E+05-4.36648E-09 2.04745E-08
 -1       569 2.60689E+05-4.34296E+05-2.43629E+03-5.35764E+05-8.92396E-09 2.50111E-08
 -1       570 1.54889E+05-3.27856E+05-5.35738E+03-4.08985E+05 7.39237E-09-9.02310E-09
 -1       571 2.76455E+05 1.00150E+04 1.43958E+04-8.72537E+04 1.42918E-08 1.93636E-08
 -1       572 2.78552E+05 3.71788E+03 7.05472E+03-9.57242E+04 2.46200E-08 8.67840E-09
 -1       573 2.77290E+05 1.11777E+03 3.13456E+03-8.70866E+04 1.39862E-08 1.36442E-08
 -1       574 2.77505E+05 6.10720E+02 1.57171E+03-9.59326E+04 2.45109E-09-1.68602E-08
 -1       575 2.77381E+05 3.51014E+02 7.41697E+02-8.70639E+04 4.61648E-09 6.32099E-10
 -1       576 2.77373E+05 3.54377E+02 3.79492E+02-9.59603E+04 1.19435E-08-2.67664E-09
 -1       577 2.77415E+05 2.97754E+02 1.89305E+02-8.70608E+04 4.21005E-09 8.96944E-09
 -1       578 2.77394E+05 3.22080E+02 1.08864E+02-9.59642E+04-8.57472E-09 1.96524E-08
 -1       579 2.77474E+05 2.68378E+02 7.44789E+01-8.70605E+04 4.21824E-09-7.59246E-09
 -1       580 2.77478E+05 2.80642E+02 8.53990E+01-9.59596E+04-4.87125E-09-1.31140E-08
 -1       581 2.77569E+05 2.21041E+02 1.28987E+02-8.70659E+04 7.47968E-09-1.37443E-08
 -1       582 2.77626E+05 2.54440E+02 2.61055E+02-9.59032E+04 8.46921E-09-2.07683E-08
 -1       583 2.77683E+05 2.70263E+02 5.02166E+02-8.71174E+04 1.22054E-09 7.58519E-09
 -1       584 2.77956E+05 6.77848E+02 1.13493E+03-9.54690E+04 4.24188E-09-1.70076E-09
 -1       585 2.77690E+05 1.64218E+03 2.29994E+03-8.74995E+04-2.31012E-09-3.19778E-09
 -1       586-3.27932E+03 1.07467E+05-3.03831E+03-2.40198E+05-3.93948E-09-2.36846E-08
 -1       587-1.17428E+03 1.07179E+05 5.85633E+02-2.64362E+05-3.61797E-09-1.42419E-08
 -1       588 5.00191E+02 1.07039E+05 4.42437E+03-2.40070E+05-2.67391E-09 8.86394E-09
 -1       589 4.94283E+03 1.09352E+05 1.16067E+04-2.64127E+05-6.10089E-09-2.61934E-08
 -1       590 1.57983E+04 1.05778E+05 2.43991E+04-2.40482E+05-5.93172E-09-7.45786E-09
 -1       591-6.86563E+04-1.50919E+04-2.10632E+04-2.98159E+04-9.77479E-10 5.74801E-09
 -1       592-7.23222E+04-1.85751E+04-1.14095E+04-3.33843E+04 1.63391E-09-8.26890E-09
 -1       593-7.07641E+04-1.35622E+04-4.74925E+03-3.13592E+04 3.34360E-09 2.55195E-08
 -1       594-6.94118E+04-1.54867E+04-2.36859E+03-3.34973E+04-3.49084E-09 3.59153E-08
 -1       595-7.09249E+04-1.35570E+04-1.08752E+03-3.14293E+04-4.07621E-09 1.05490E-08
 -1       596-6.92127E+04-1.53455E+04-5.52819E+02-3.34738E+04 6.07797E-09 4.28153E-09
 -1       597-7.09450E+04-1.35714E+04-3.00968E+02-3.14320E+04 1.45997E-09 7.70228E-11
 -1       598-6.91931E+04-1.53399E+04-2.41839E+02-3.34672E+04-3.04397E-10-2.58643E-08
 -1       599-7.09438E+04-1.35718E+04-3.08791E+02-3.14316E+04 1.44405E-09-1.82953E-08
 -1       600-6.92128E+04-1.53461E+04-5.73529E+02-3.34719E+04 5.44532E-09 9.86347E-09
 -1       601-7.09205E+04-1.35581E+04-1.13139E+03-3.14282E+04 8.39464E-10 4.14889E-09
 -1       602-6.94199E+04-1.54921E+04-2.46572E+03-3.34927E+04-1.03796E-09-8.94045E-09
 -1       603-7.07505E+04-1.35663E+04-4.94478E+03-3.13559E+04 2.75577E-09-7.90124E-09
 -1       604-7.24665E+04-1.86894E+04-1.18784E+04-3.33519E+04 2.59479E-09-3.74553E-09
 -1       605-6.85371E+04-1.51756E+04-2.19292E+04-2.97674E+04 4.83197E-09 6.68479E-10
 -1       606 2.69272E+04-1.35641E+04-2.43259E+04 2.45860E+04 1.38461E-08-5.55929E-09
 -1       607 2.27697E+04-4.42461E+03-1.21140E+04 2.76228E+04 2.18979E-08-3.50458E-08
 -1       608 2.51374E+04-7.93181E+02-5.42331E+03 2.44077E+04 8.69841E-09 6.81575E-09
 -1       609 2.46813E+04-2.65239E+02-2.73962E+03 2.78414E+04 2.13549E-09 1.87596E-08
 -1       610 2.49326E+04-3.10008E+01-1.30732E+03 2.43868E+04 6.29007E-09-2.68892E-09
 -1       611 2.48591E+04-2.89468E+01-6.59134E+02 2.78650E+04 2.30239E-09-2.18506E-10
 -1       612 2.48859E+04-1.67114E+01-3.13571E+02 2.43847E+04 1.37334E-09 2.72394E-10
 -1       613 2.48680E+04-2.38609E+01-1.40687E+02 2.78678E+04 1.64437E-09-2.40618E-08
 -1       614 2.48633E+04-2.17235E+01-3.35199E+01 2.43840E+04 1.45974E-09 5.57202E-09
 -1       615 2.48612E+04-2.15055E+01 5.77733E+01 2.78683E+04-5.45242E-10 2.09147E-08
 -1       616 2.48456E+04-1.79870E+01 1.74325E+02 2.43843E+04-1.63845E-09-1.25806E-08
 -1       617 2.48809E+04 1.64186E+01 3.98204E+02 2.78678E+04-3.75621E-10-8.58472E-09
 -1       618 2.48101E+04 9.74026E+01 8.02788E+02 2.43846E+04-1.27329E-10 1.27557E-10
 -1       619 2.51636E+04 6.37622E+02 1.80284E+03 2.78671E+04-1.75521E-09-5.68093E-09
 -1       620 2.45430E+04 2.00146E+03 3.62367E+03 2.43854E+04 1.17188E-09-1.23973E-08
 -1       621 4.49161E+02 2.86051E+05 3.57421E+03 3.53985E+04 8.64475E-10 5.63887E-11
 -1       622 5.84751E+02 2.86889E+05 3.19770E+03 5.14102E+04 1.02091E-09 4.31646E-09
 -1       623 1.05008E+02 2.86237E+05 3.87817E+03 3.52371E+04 1.03660E-09 8.62565E-09
 -1       624 1.95242E+03 2.88060E+05 7.54612E+03 5.15699E+04 8.80959E-10-8.67226E-09
 -1       625 1.92130E+03 2.84744E+05 1.32005E+04 3.52341E+04 1.09912E-09-3.75849E-09
 -1       626 2.48512E+05 5.97481E+04 4.98306E+03 1.22294E+05 5.42877E-09-6.89943E-09
 -1       627 2.46179E+05 6.11851E+04 2.40129E+03 1.26537E+05 2.30534E-08 4.01830E-08
 -1       628 2.48641E+05 5.74617E+04 1.01539E+03 1.23132E+05 9.46329E-09 1.99263E-08
 -1       629 2.45551E+05 6.05319E+04 4.97012E+02 1.26779E+05 2.20052E-09 9.96039E-09
 -1       630 2.48655E+05 5.73517E+04 2.30454E+02 1.23167E+05 6.28734E-09 1.09424E-09
 -1       631 2.45484E+05 6.05080E+04 1.23909E+02 1.26780E+05 1.79584E-08-2.08234E-08
 -1       632 2.48650E+05 5.73563E+04 8.13597E+01 1.23162E+05 2.38770E-08-7.30620E-09
 -1       633 2.45474E+05 6.05105E+04 9.03452E+01 1.26776E+05 1.43436E-08-2.60552E-08
 -1       634 2.48644E+05 5.73542E+04 1.45748E+02 1.23160E+05 1.00433E-08-1.16281E-08
 -1       635 2.45487E+05 6.05093E+04 2.94772E+02 1.26780E+05-3.40248E-09 1.70076E-08
 -1       636 2.48635E+05 5.73492E+04 5.95214E+02 1.23160E+05 1.27443E-09-6.60975E-09
 -1       637 2.45615E+05 6.06021E+04 1.30859E+03 1.26779E+05-6.65864E-10 3.91992E-10
 -1       638 2.48588E+05 5.76385E+04 2.68870E+03 1.23029E+05 1.35333E-09-2.43317E-08
 -1       639 2.47027E+05 6.25663E+04 6.36144E+03 1.26363E+05 3.60433E-09-3.19642E-08
 -1       640 2.48394E+05 6.35025E+04 1.32011E+04 1.20555E+05 5.40331E-09-5.38125E-09
 -1       656 6.37978E+04-1.63065E+06-1.54005E+05-2.05982E+03-3.12866E-10-4.44106E-09
 -1       657-8.43884E+04-1.70023E+06-1.27561E+05 5.74816E+03-9.00400E-11-7.42733E-09
 -1       658 2.03267E+04-1.65042E+06-7.85331E+04-4.00877E+03-1.00727E-10 1.21561E-09
 -1       659-9.11754E+04-1.70346E+06-1.36479E+05 7.32436E+03-1.36151E-09 1.39832E-08
 -1       660 7.05696E+04-1.62744E+06-1.69338E+05-3.63601E+03-1.94268E-09 4.24706E-10
 -1       661 1.60701E+05 1.69316E+04 1.66934E+04 6.28249E+04-3.78350E-10 4.73665E-09
 -1       662 1.70036E+05 2.93940E+04 1.12499E+04 5.91960E+04 3.90236E-09 6.78608E-09
 -1       663 1.63979E+05 2.22875E+04 3.93466E+03 6.18738E+04 9.22569E-10 1.08844E-08
 -1       664 1.66236E+05 2.31301E+04 2.35354E+03 6.03572E+04 1.79998E-09 9.31695E-09
 -1       665 1.64476E+05 2.30196E+04 9.28457E+02 6.17295E+04-6.73651E-10 2.50668E-09
 -1       666 1.65649E+05 2.22923E+04 5.43176E+02 6.05451E+04 6.32652E-09-8.19747E-09
 -1       667 1.64562E+05 2.31033E+04 2.88371E+02 6.16937E+04 1.47077E-09 1.83754E-08
 -1       668 1.65554E+05 2.22315E+04 2.93501E+02 6.05971E+04-2.79010E-09 1.46894E-09
 -1       669 1.64570E+05 2.30787E+04 3.97092E+02 6.16779E+04-2.80460E-09 1.26819E-08
 -1       670 1.65651E+05 2.24466E+04 8.64423E+02 6.05998E+04-6.74846E-09 1.71042E-09
 -1       671 1.64465E+05 2.28926E+04 1.53476E+03 6.16891E+04-2.79206E-09 1.11822E-08
 -1       672 1.66545E+05 2.39398E+04 3.92659E+03 6.03832E+04 7.72714E-09 6.00232E-09
 -1       673 1.63680E+05 2.16233E+04 6.58031E+03 6.18800E+04 3.06738E-09 7.12816E-09
 -1       674 1.72808E+05 3.45114E+04 1.88183E+04 5.85428E+04 6.35282E-10-3.50360E-09
 -1       675 1.58242E+05 1.26171E+04 2.79329E+04 6.34184E+04-3.67709E-09 4.65661E-09
 -1       676 2.34069E+01-2.86726E+05-1.08364E+03-1.01451E+02 1.55666E-10 4.48941E-09
 -1       677-2.87138E+02-2.86988E+05-1.98323E+03 2.02747E+02 7.91917E-09-4.88027E-09
 -1       678 1.92198E+02-2.86539E+05-3.50586E+03-1.01229E+02 8.35826E-10-5.94909E-09
 -1       679-3.50636E+03-2.89104E+05-8.32842E+03 2.01898E+02 6.70047E-09 9.40776E-09
 -1       680 2.09314E+03-2.84611E+05-1.34226E+04-9.94787E+01 1.31513E-09 1.04958E-08
 -1       771-2.98339E+06-7.02316E+05-1.42629E+05-1.40890E+06-2.39816E-08-1.96451E-08
 -1       772-2.91373E+06-7.83812E+05-7.36921E+04-1.50290E+06-2.26719E-08 1.13432E-08
 -1       773-3.01053E+06-6.81061E+05-3.72159E+04-1.42072E+06-1.39407E-08 7.65431E-09
 -1       774-2.90455E+06-7.68185E+05-1.66766E+04-1.52479E+06 3.14321E-08-2.72848E-09
 -1       775-3.02432E+06-6.71345E+05-1.22389E+04-1.42629E+06-3.78350E-09 5.82077E-09
 -1       776-2.91437E+06-7.65907E+05-4.61460E+03-1.54109E+06-7.17409E-09-2.99769E-09
 -1       777-3.03619E+06-6.62749E+05-5.32233E+03-1.43121E+06 2.88128E-09 3.57250E-09
 -1       778-2.92468E+06-7.63825E+05-1.51719E+03-1.55506E+06 2.74304E-09 7.51243E-09
 -1       779-3.04634E+06-6.55274E+05-2.63278E+03-1.43541E+06-1.65892E-09-3.82715E-09
 -1       780-2.93374E+06-7.61835E+05-4.38384E+02-1.56643E+06 6.69388E-09 4.40195E-09
 -1       781-3.05438E+06-6.49268E+05-1.01369E+03-1.43870E+06-2.11148E-08-2.51748E-09
 -1       782-2.94071E+06-7.60135E+05 3.73877E+02-1.57481E+06-3.00934E-08-4.84533E-09
 -1       783-3.06003E+06-6.45109E+05 5.87517E+02-1.44101E+06-8.32370E-09-1.41299E-08
 -1       784-2.94453E+06-7.58366E+05 2.40396E+03-1.57998E+06-1.67202E-08-5.22959E-11
 -1       785-3.06337E+06-6.42634E+05 4.24611E+03-1.44248E+06-3.38769E-08 5.57338E-09
 -1       786 1.24949E+05-9.63268E+03 2.22857E+04-2.78427E+02 1.28253E-10-4.60204E-09
 -1       787 1.34614E+05 1.11522E+04 1.57663E+04-9.95028E+01 4.01349E-09-1.81158E-08
 -1       788 1.28675E+05-1.50961E+03 5.76598E+03-2.45408E+02-7.75889E-10-2.73553E-09
 -1       789 1.30272E+05 1.74707E+03 3.61993E+03-1.50621E+02-3.10974E-10-1.12410E-08
 -1       790 1.29291E+05-2.35196E+02 1.46624E+03-2.27323E+02-3.61059E-09-4.30833E-09
 -1       791 1.29553E+05 2.71999E+02 8.48009E+02-1.81679E+02-7.02610E-09 1.73736E-08
 -1       792 1.29395E+05-3.56423E+01 3.61640E+02-2.14352E+02-4.79018E-09-4.10526E-09
 -1       793 1.29429E+05 3.85195E+01 1.85306E+02-2.06115E+02-7.02665E-10 2.81428E-09
 -1       794 1.29415E+05-1.86430E+00 5.82457E+01-2.02887E+02 3.77519E-09-3.05220E-09
 -1       795 1.29397E+05-1.85934E+01-2.99420E+01-2.30068E+02-4.75686E-09 1.51666E-08
 -1       796 1.29428E+05 2.14391E+01-1.13919E+02-1.90398E+02 3.25985E-09 5.37377E-09
 -1       797 1.29326E+05-1.61601E+02-3.25716E+02-2.58763E+02 2.85165E-09 1.24008E-08
 -1       798 1.29486E+05 1.41036E+02-5.32556E+02-1.74192E+02 2.20568E-09 1.38523E-08
 -1       799 1.28921E+05-1.03996E+03-1.46825E+03-2.98688E+02 4.14187E-09-5.69341E-09
 -1       800 1.29833E+05 8.99077E+02-2.07877E+03-1.50474E+02 4.01372E-10-2.96507E-09
 -1       801-1.01050E+05-8.68787E+06-1.17339E+06 1.10544E+06 8.16362E-08-5.49262E-08
 -1       802 5.36962E+05 3.90446E+06 1.66759E+06-1.33178E+06 2.34475E-07-3.05499E-08
 -1       803-4.17581E+05-1.19376E+07-1.49307E+06 7.04145E+05 7.14608E-08 2.15823E-08
 -1       804 2.08518E+05 1.02445E+06 1.17535E+06 5.74713E+05-1.03533E-07-8.17246E-08
 -1       805 1.62428E+05-5.82303E+06-2.28549E+05-7.96539E+05-4.29427E-08-5.75146E-08
 -1       806-2.95833E+05-5.69923E+04-2.18047E+04-1.16954E+05-1.93268E-09 1.75819E-08
 -1       807-2.97589E+05-5.33925E+04-1.07124E+04-1.22196E+05 1.17075E-08-3.30006E-09
 -1       808-2.96428E+05-4.91379E+04-4.54457E+03-1.20674E+05-8.02265E-09-5.89671E-09
 -1       809-2.95338E+05-5.03809E+04-2.22219E+03-1.22458E+05-9.02855E-09-9.10200E-09
 -1       810-2.96518E+05-4.88644E+04-1.01853E+03-1.20839E+05 5.18139E-09 9.29981E-09
 -1       811-2.95165E+05-5.02597E+04-5.06514E+02-1.22424E+05 2.07228E-09 8.69841E-09
 -1       812-2.96532E+05-4.88878E+04-2.56157E+02-1.20838E+05-8.40464E-09-2.37060E-09
 -1       813-2.95141E+05-5.02616E+04-1.66507E+02-1.22407E+05-1.76215E-09-2.86213E-08
 -1       814-2.96526E+05-4.88967E+04-1.64996E+02-1.20834E+05-6.20457E-09-9.54151E-09
 -1       815-2.95145E+05-5.02636E+04-2.65941E+02-1.22400E+05-1.14378E-08 1.48884E-09
 -1       816-2.96507E+05-4.88955E+04-5.04003E+02-1.20831E+05-1.01718E-08 2.17838E-08
 -1       817-2.95231E+05-5.03115E+04-1.08183E+03-1.22390E+05-1.10158E-08 3.73063E-08
 -1       818-2.96442E+05-4.90476E+04-2.20647E+03-1.20759E+05-3.31966E-10 2.43867E-08
 -1       819-2.96439E+05-5.16450E+04-5.19192E+03-1.22105E+05 2.69347E-09-7.02585E-10
 -1       820-2.96028E+05-5.29679E+04-1.05673E+04-1.19083E+05 3.54703E-11-4.41537E-09
 -1       821-3.65563E+05 2.01429E+04-4.66840E+04 1.46588E+03 1.05549E-08 2.57260E-08
 -1       822-3.85389E+05-2.33233E+04-3.29648E+04-2.82505E+03 2.00751E-09-3.51065E-09
 -1       823-3.73153E+05 3.16418E+03-1.20779E+04 2.11674E+03-7.59627E-09 1.58948E-08
 -1       824-3.76395E+05-3.65543E+03-7.58426E+03-3.12451E+03 5.90708E-10 3.22283E-08
 -1       825-3.74556E+05 4.91870E+02-3.14489E+03 1.76538E+03 1.33916E-08 1.51385E-09
 -1       826-3.74552E+05-5.67853E+02-1.80217E+03-1.61144E+03 1.64762E-08-1.73494E-08
 -1       827-3.74985E+05 7.14441E+01-1.04341E+03 6.03623E+02 6.51174E-09-7.42020E-09
 -1       828-3.74207E+05-1.60674E+02-7.54910E+02 9.00783E+02-1.45590E-09 6.82938E-10
 -1       829-3.74897E+05 8.21214E+01-1.04756E+03-7.46877E+02 7.03338E-10 4.24194E-10
 -1       830-3.74751E+05-6.05013E+02-1.90631E+03 3.06398E+03-6.70042E-10 1.39238E-09
 -1       831-3.74450E+05 5.22470E+02-3.24040E+03-1.55961E+03-5.63858E-09 9.31050E-09
 -1       832-3.76482E+05-3.80619E+03-7.87983E+03 3.71509E+03-1.84613E-09-5.26109E-09
 -1       833-3.73172E+05 3.28481E+03-1.25564E+04-1.39800E+03-2.33740E-09 7.25777E-09
 -1       834-3.85610E+05-2.42167E+04-3.41932E+04 2.48216E+03-1.90696E-09 1.45824E-08
 -1       835-3.65318E+05 2.09110E+04-4.84985E+04-3.26646E+02 5.12085E-09 7.76708E-09
 -1       836-1.33124E+03 3.51970E+05 2.17118E+04-1.62484E+04-5.46424E-09 4.15230E-09
 -1       837 4.64612E+03 3.58761E+05 1.84069E+04-3.30662E+04-5.77802E-09 3.90794E-08
 -1       838-5.23092E+02 3.53869E+05 1.88032E+04-1.61783E+04-4.92309E-09 1.47659E-08
 -1       839 1.18704E+04 3.64143E+05 3.56178E+04-3.31158E+04-5.25688E-09 6.99305E-09
 -1       840-3.65768E+03 3.46533E+05 5.68182E+04-1.62030E+04-4.81668E-09 6.39877E-09
 -1       856-5.72664E+04 7.94107E+03-2.09266E+04-3.99052E+02 2.35104E-09-8.73115E-10
 -1       857-6.58920E+04-9.32721E+03-1.44059E+04 5.45972E+03 4.60767E-09-6.84759E-09
 -1       858-6.06808E+04 1.11347E+03-5.43010E+03-4.22838E+02 3.44397E-09 1.80307E-10
 -1       859-6.19733E+04-1.30686E+03-3.27720E+03 5.49556E+03-3.85455E-10 1.95041E-09
 -1       860-6.11910E+04 1.55737E+02-1.37410E+03-4.34699E+02-1.00664E-09 3.21450E-10
 -1       861-6.13863E+04-1.83032E+02-7.57234E+02 5.51175E+03 8.68141E-10-2.03505E-09
 -1       862-6.12707E+04 2.09839E+01-3.17408E+02-4.39017E+02-1.21208E-09 5.92439E-09
 -1       863-6.12890E+04-1.93247E+01-1.21607E+02 5.51417E+03-1.60317E-09 2.19906E-08
 -1       864-6.12887E+04-4.26562E+00 3.32411E+01-4.37124E+02-1.33473E-09-2.77147E-09
 -1       865-6.12376E+04 5.52822E+01 2.22608E+02 5.50360E+03 1.08808E-09-1.15236E-08
 -1       866-6.13201E+04-5.37130E+01 4.55529E+02-4.28452E+02 1.02870E-09-6.01091E-10
 -1       867-6.10215E+04 4.44341E+02 1.12570E+03 5.48002E+03 4.91755E-09 1.78532E-08
 -1       868-6.15002E+04-3.86510E+02 1.87163E+03-4.13539E+02 2.79158E-10 8.95739E-09
 -1       869-5.96480E+04 3.21672E+03 4.98520E+03 5.44097E+03 2.36349E-09-1.48908E-08
 -1       870-6.26862E+04-2.75109E+03 7.23438E+03-3.89332E+02-4.42924E-09-1.81408E-08
 -1       871-5.33248E+03-1.91074E+04-1.85461E+04 1.23936E+05-4.08727E-09-9.09495E-11
 -1       872-1.99115E+03-2.33930E+04-7.73942E+03 1.60698E+05-8.50287E-09-4.32374E-09
 -1       873 3.06944E+02-2.13329E+04 6.27408E+02 1.23664E+05-4.29191E-09-3.25861E-09
 -1       874 3.07941E+03-1.89814E+04 9.46041E+03 1.60730E+05-8.32097E-09 6.34827E-10
 -1       875 6.52316E+03-2.35862E+04 2.12906E+04 1.23892E+05-3.08683E-09-8.98945E-09
 -1       876 2.82383E+05 4.77330E+04 1.45745E+04 1.13487E+05 4.14184E-09 3.01225E-09
 -1       877 2.83332E+05 5.08171E+04 7.78333E+03 1.17681E+05 5.12591E-09-1.31386E-08
 -1       878 2.83746E+05 4.61189E+04 3.26084E+03 1.14682E+05-1.17766E-08 1.76328E-09
 -1       879 2.81351E+05 4.88402E+04 1.62471E+03 1.17780E+05-1.34514E-09 7.15738E-09
 -1       880 2.83844E+05 4.61021E+04 7.56740E+02 1.14731E+05-4.88876E-09-4.85670E-10
 -1       881 2.81219E+05 4.87558E+04 4.04026E+02 1.17758E+05-7.87145E-09 1.65680E-08
 -1       882 2.83853E+05 4.61148E+04 2.58330E+02 1.14732E+05-6.42513E-09-1.76328E-09
 -1       883 2.81210E+05 4.87514E+04 2.77483E+02 1.17751E+05 2.48292E-09 1.78468E-09
 -1       884 2.83846E+05 4.61120E+04 4.41202E+02 1.14732E+05-7.33394E-10 1.10487E-09
 -1       885 2.81245E+05 4.87575E+04 8.86929E+02 1.17761E+05-2.79852E-09-1.27186E-08
 -1       886 2.83812E+05 4.60861E+04 1.78751E+03 1.14729E+05-1.08975E-09 1.81535E-09
 -1       887 2.81559E+05 4.89635E+04 3.90455E+03 1.17807E+05 8.28777E-11 8.23127E-09
 -1       888 2.83565E+05 4.61296E+04 7.86777E+03 1.14604E+05-1.57550E-09-1.21145E-09
 -1       889 2.86243E+05 5.38342E+04 1.87947E+04 1.17663E+05 4.46595E-09-3.05090E-09
 -1       890 2.80355E+05 4.99427E+04 3.52020E+04 1.11608E+05-8.46740E-10-9.49331E-09
 -1       891-1.00541E+02-1.56943E+05-1.91750E+03 2.66397E+04-2.16824E-09 1.53614E-09
 -1       892-1.90950E+02-1.57442E+05-2.06184E+03 4.04269E+04 1.78579E-09-1.33582E-09
 -1       893 2.71753E+01-1.57004E+05-2.92183E+03 2.66466E+04-1.62800E-10 1.17375E-08
 -1       894-1.47640E+03-1.58547E+05-6.04890E+03 4.02782E+04 2.40107E-09 4.39286E-09
 -1       895-1.16949E+03-1.55744E+05-1.06528E+04 2.67894E+04-1.38175E-09-4.29281E-09
 -1       956-3.61734E+05-5.19466E+03-1.28747E+04 2.86905E+04 1.13323E-08 3.10683E-09
 -1       957-3.64264E+05-1.81604E+03-6.60855E+03 3.44930E+04 8.33097E-09 1.56720E-08
 -1       958-3.62889E+05-2.11107E+02-2.97790E+03 2.85315E+04 2.02635E-09 3.15049E-09
 -1       959-3.63080E+05-1.07905E+02-1.52066E+03 3.46762E+04-8.25821E-10-2.35218E-09
 -1       960-3.63000E+05-2.46972E+01-7.41527E+02 2.85153E+04 2.97950E-09 5.44082E-09
 -1       961-3.63001E+05-3.90308E+01-3.93246E+02 3.46952E+04 9.66793E-09-1.86142E-08
 -1       962-3.63025E+05-2.65850E+01-2.25214E+02 2.85126E+04 1.40244E-09-8.77367E-09
 -1       963-3.63001E+05-3.54571E+01-1.80939E+02 3.46986E+04 5.12273E-09 2.24454E-08
 -1       964-3.63030E+05-2.35024E+01-2.20149E+02 2.85119E+04 2.10488E-09 6.44309E-09
 -1       965-3.63013E+05-3.24594E+01-3.80861E+02 3.46981E+04-3.21461E-09 2.54431E-09
 -1       966-3.63015E+05-1.55349E+01-7.15593E+02 2.85132E+04 7.27596E-11 1.66915E-09
 -1       967-3.63100E+05-9.26462E+01-1.46772E+03 3.46849E+04 3.48336E-10 2.32399E-09
 -1       968-3.62917E+05-1.89527E+02-2.87313E+03 2.85249E+04 7.24867E-10-7.40414E-09
 -1       969-3.64254E+05-1.73609E+03-6.37845E+03 3.45479E+04 2.88810E-09-1.53323E-08
 -1       970-3.61811E+05-4.99587E+03-1.24253E+04 2.86440E+04-2.94494E-09-1.44519E-09
 -1       971-3.32624E+05-1.67422E+03-9.07182E+03 1.49633E+04 6.42376E-09-1.36070E-09
 -1       972-3.34811E+05-1.22687E+03-4.94042E+03 2.07334E+04 2.82716E-09 7.20001E-09
 -1       973-3.33634E+05-5.15640E+01-2.21278E+03 1.48440E+04 5.70981E-09-1.11343E-08
 -1       974-3.33770E+05-6.67047E+01-1.14692E+03 2.08673E+04 1.57570E-10 1.56231E-08
 -1       975-3.33714E+05-7.98741E+00-5.73502E+02 1.48321E+04 1.13596E-09 2.45288E-08
 -1       976-3.33710E+05-1.82569E+01-3.31223E+02 2.08825E+04 1.78261E-10 1.09063E-08
 -1       977-3.33730E+05-7.37938E+00-2.41032E+02 1.48289E+04 2.23372E-09-3.91901E-09
 -1       978-3.33715E+05-1.22848E+01-2.82923E+02 2.08871E+04 2.56068E-09 1.08063E-08
 -1       979-3.33730E+05 7.40465E-01-4.55313E+02 1.48275E+04 3.28095E-09 7.69091E-09
 -1       980-3.33749E+05-9.34813E+00-8.79619E+02 2.08880E+04 9.17666E-10 1.30490E-09
 -1       981-3.33702E+05 2.27163E+01-1.70386E+03 1.48280E+04 2.16426E-09 1.78536E-08
 -1       982-3.33983E+05-1.35231E+02-3.52198E+03 2.08815E+04-6.91671E-10 5.25540E-09
 -1       983-3.33487E+05-8.63681E+01-6.84330E+03 1.48339E+04-2.07865E-09-3.14139E-09
 -1       984-3.37274E+05-3.70925E+03-1.53252E+04 2.07979E+04 1.41586E-09 1.10394E-08
 -1       985-3.30389E+05-5.09388E+03-2.81419E+04 1.49063E+04 1.86765E-09-1.35879E-08
 -3
    1PSTEP                        31          16           1          
  100CL  116 6.47278E-01         409                     0   16           1
 -4  DISP        4    1
 -5  D1          1    2    1    0
 -5  D2          1    2    2    0
 -5  D3          1    2    3    0
 -5  ALL         1    2    0    0    1ALL
 -1         1 2.19493E-03 0.00000E+00 0.00000E+00
 -1         2 1.84209E-03-7.17807E-28-2.64698E-23
 -1         3 3.24549E-04-3.64359E-28 1.32349E-23
 -1         5 1.68753E-04 1.86393E-26-2.49447E-24
 -1         8 2.17845E-03-5.00831E-07 0.00000E+00
 -1         9 2.13608E-03-1.43971E-05 0.00000E+00
 -1        10 2.92705E-04-3.67795E-06-6.61744E-24
 -1        12 1.70276E-04 7.78326E-07-1.63174E-25
 -1        15 2.15848E-03-5.47471E-07-2.06795E-25
 -1        16 2.16934E-03-1.56421E-05 0.00000E+00
 -1        17 1.98512E-04-8.10116E-06 0.00000E+00
 -1        18 1.73306E-04 2.99223E-05 0.00000E+00
 -1        19 1.74846E-04 1.55111E-06 0.00000E+00
 -1        20 1.74989E-04-6.30954E-06 0.00000E+00
 -1        21 1.74142E-04-1.78181E-05 0.00000E+00
 -1        24 2.97653E-05-1.20321E-05 0.00000E+00
 -1        25 1.82465E-04 3.01359E-05 0.00000E+00
 -1        26 1.83160E-04 2.14879E-06 0.00000E+00
 -1        27 1.81044E-04-9.74818E-06 0.00000E+00
 -1        28 1.80707E-04-1.84238E-05 0.00000E+00
 -1        32 0.00000E+00 0.00000E+00 0.00000E+00
 -1        33 1.90448E-04 2.87567E-06 0.00000E+00
 -1        34 1.88400E-04-9.79859E-06 0.00000E+00
 -1        35 1.86525E-04-1.87554E-05 0.00000E+00
 -1        51 2.19387E-03-9.62989E-08 6.61744E-24
 -1        52 2.19190E-03-1.77192E-07 0.00000E+00
 -1        53 2.18920E-03-2.55866E-07 0.00000E+00
 -1        54 2.18593E-03-3.34495E-07 0.00000E+00
 -1        55 2.18229E-03-4.14679E-07 3.30872E-24
 -1        56 2.19077E-03 8.73377E-07 5.29396E-23
 -1        57 2.18493E-03 5.78654E-06 5.29396E-23
 -1        58 2.17785E-03 1.39465E-05 0.00000E+00
 -1        59 2.16993E-03 2.42341E-05 5.29396E-23
 -1        60 2.16174E-03 3.52082E-05-1.05879E-22
 -1        61 2.15386E-03 4.53637E-05 0.00000E+00
 -1        62 2.14683E-03 5.33287E-05-1.05879E-22
 -1        63 2.14110E-03 5.79048E-05 5.29396E-23
 -1        64 2.13690E-03 5.84413E-05 0.00000E+00
 -1        65 2.13433E-03 5.46128E-05 0.00000E+00
 -1        66 2.13324E-03 4.68032E-05-1.05879E-22
 -1        67 2.13335E-03 3.57218E-05 5.29396E-23
 -1        68 2.13420E-03 2.26115E-05 0.00000E+00
 -1        69 2.13529E-03 8.88972E-06 0.00000E+00
 -1        70 2.13605E-03-3.94006E-06 0.00000E+00
 -1        86 1.85968E-03-1.20141E-06 2.64698E-23
 -1        87 1.91168E-03-3.55507E-06-1.32349E-23
 -1        88 1.98224E-03-6.94431E-06 0.00000E+00
 -1        89 2.05473E-03-1.04663E-05-1.32349E-23
 -1        90 2.11163E-03-1.30674E-05 0.00000E+00
 -1       121 3.23653E-04-5.95505E-07 0.00000E+00
 -1       122 3.20969E-04-1.19408E-06-6.61744E-24
 -1       123 3.16510E-04-1.79874E-06-1.32349E-23
 -1       124 3.10293E-04-2.41244E-06 0.00000E+00
 -1       125 3.02347E-04-3.03784E-06 1.32349E-23
 -1       191 1.68795E-04 1.29766E-07-7.30245E-25
 -1       192 1.68922E-04 2.59523E-07 3.16655E-25
 -1       193 1.69133E-04 3.89267E-07-3.19886E-24
 -1       194 1.69430E-04 5.18988E-07-3.12616E-25
 -1       195 1.69810E-04 6.48678E-07-8.88573E-25
 -1       251 2.17767E-03 1.95335E-05 1.32349E-23
 -1       252 2.17571E-03 7.25054E-05 0.00000E+00
 -1       253 2.17235E-03 1.48839E-04 0.00000E+00
 -1       254 2.16793E-03 2.38418E-04 0.00000E+00
 -1       255 2.16355E-03 3.27478E-04 1.32349E-23
 -1       256 2.16029E-03 4.02269E-04 0.00000E+00
 -1       257 2.15845E-03 4.52961E-04 0.00000E+00
 -1       258 2.15770E-03 4.70284E-04 0.00000E+00
 -1       259 2.15695E-03 4.53633E-04 1.32349E-23
 -1       260 2.15512E-03 4.03253E-04-6.61744E-24
 -1       261 2.15184E-03 3.28133E-04 1.32349E-23
 -1       262 2.14735E-03 2.37834E-04 0.00000E+00
 -1       263 2.14274E-03 1.46086E-04 1.32349E-23
 -1       264 2.13914E-03 6.66503E-05 0.00000E+00
 -1       265 2.13698E-03 9.87466E-06-2.64698E-23
 -1       266 2.17513E-03-5.15963E-07-3.30872E-24
 -1       267 2.17180E-03-5.22839E-07 0.00000E+00
 -1       268 2.16847E-03-5.30238E-07 0.00000E+00
 -1       269 2.16514E-03-5.36089E-07 0.00000E+00
 -1       270 2.16181E-03-5.41903E-07 0.00000E+00
 -1       271 2.17638E-03 2.64384E-06-1.32349E-23
 -1       272 2.17425E-03 5.87632E-06 0.00000E+00
 -1       273 2.17213E-03 9.05609E-06 0.00000E+00
 -1       274 2.17009E-03 1.20311E-05 0.00000E+00
 -1       275 2.16819E-03 1.46548E-05 0.00000E+00
 -1       276 2.16647E-03 1.67825E-05 0.00000E+00
 -1       277 2.16499E-03 1.82751E-05 2.64698E-23
 -1       278 2.16379E-03 1.89996E-05-1.32349E-23
 -1       279 2.16294E-03 1.88313E-05 2.64698E-23
 -1       280 2.16246E-03 1.76541E-05 0.00000E+00
 -1       281 2.16239E-03 1.53628E-05 0.00000E+00
 -1       282 2.16278E-03 1.18630E-05 0.00000E+00
 -1       283 2.16365E-03 7.07330E-06 0.00000E+00
 -1       284 2.16502E-03 9.25944E-07 0.00000E+00
 -1       285 2.16690E-03-6.63440E-06 0.00000E+00
 -1       301 2.14215E-03-1.46295E-05-1.32349E-23
 -1       302 2.14703E-03-1.48276E-05-3.30872E-24
 -1       303 2.15145E-03-1.50210E-05-1.32349E-23
 -1       304 2.15615E-03-1.52145E-05-1.32349E-23
 -1       305 2.16187E-03-1.54149E-05 0.00000E+00
 -1       306 2.17016E-03-1.48472E-04 0.00000E+00
 -1       307 2.23477E-03-5.18821E-04-5.29396E-23
 -1       308 2.29124E-03-1.06659E-03 0.00000E+00
 -1       309 2.33044E-03-1.70808E-03 0.00000E+00
 -1       310 2.37328E-03-2.33098E-03 0.00000E+00
 -1       311 2.43559E-03-2.82467E-03 5.29396E-23
 -1       312 2.49527E-03-3.11505E-03 0.00000E+00
 -1       313 2.50415E-03-3.16083E-03 0.00000E+00
 -1       314 2.40210E-03-2.96805E-03 0.00000E+00
 -1       315 2.15191E-03-2.58578E-03 5.29396E-23
 -1       316 1.76601E-03-2.08175E-03 0.00000E+00
 -1       317 1.29630E-03-1.52164E-03 0.00000E+00
 -1       318 8.37745E-04-9.68705E-04 0.00000E+00
 -1       319 4.82025E-04-4.88096E-04 5.29396E-23
 -1       320 2.69249E-04-1.46343E-04 0.00000E+00
 -1       336 2.81305E-04-4.35927E-06-1.32349E-23
 -1       337 2.68093E-04-5.06209E-06 6.61744E-24
 -1       338 2.53130E-04-5.78814E-06 0.00000E+00
 -1       339 2.36491E-04-6.53734E-06 0.00000E+00
 -1       340 2.18255E-04-7.31338E-06 1.32349E-23
 -1       406 1.70826E-04 9.07917E-07 3.04377E-24
 -1       407 1.71461E-04 1.03742E-06 1.54127E-24
 -1       408 1.72181E-04 1.16678E-06-1.91286E-24
 -1       409 1.72985E-04 1.29585E-06 4.13590E-25
 -1       410 1.73874E-04 1.42436E-06-8.27181E-25
 -1       521 2.20422E-03-1.58478E-04 1.05879E-22
 -1       522 2.26793E-03-5.47857E-04-5.29396E-23
 -1       523 2.31969E-03-1.12199E-03-1.05879E-22
 -1       524 2.35158E-03-1.79114E-03 0.00000E+00
 -1       525 2.38792E-03-2.44004E-03-1.05879E-22
 -1       526 2.44724E-03-2.95539E-03-5.29396E-23
 -1       527 2.50667E-03-3.25725E-03 2.11758E-22
 -1       528 2.51419E-03-3.30319E-03 0.00000E+00
 -1       529 2.40325E-03-3.09871E-03 2.11758E-22
 -1       530 2.13413E-03-2.69912E-03 0.00000E+00
 -1       531 1.71948E-03-2.17550E-03 1.05879E-22
 -1       532 1.21625E-03-1.59660E-03 0.00000E+00
 -1       533 7.24288E-04-1.02447E-03-1.05879E-22
 -1       534 3.40082E-04-5.23033E-04-5.29396E-23
 -1       535 1.08910E-04-1.62709E-04 0.00000E+00
 -1       536 1.97839E-04 2.43742E-05-6.61744E-24
 -1       537 1.96153E-04 8.07392E-05 0.00000E+00
 -1       538 1.93554E-04 1.52314E-04-3.30872E-24
 -1       539 1.90491E-04 2.30340E-04 0.00000E+00
 -1       540 1.87733E-04 3.04078E-04 3.30872E-24
 -1       541 1.85933E-04 3.62811E-04 0.00000E+00
 -1       542 1.85095E-04 4.00184E-04-3.30872E-24
 -1       543 1.84882E-04 4.09980E-04 0.00000E+00
 -1       544 1.84581E-04 3.92942E-04-3.30872E-24
 -1       545 1.83532E-04 3.50014E-04 0.00000E+00
 -1       546 1.81597E-04 2.88839E-04 0.00000E+00
 -1       547 1.78990E-04 2.17176E-04 0.00000E+00
 -1       548 1.76410E-04 1.45917E-04 3.30872E-24
 -1       549 1.74545E-04 8.59571E-05-1.65436E-24
 -1       550 1.73571E-04 4.48225E-05-1.65436E-24
 -1       551 1.75049E-04-8.63794E-06 0.00000E+00
 -1       552 1.48486E-04-9.24531E-06 0.00000E+00
 -1       553 1.19742E-04-9.90767E-06 1.15805E-23
 -1       554 8.97507E-05-1.06060E-05 6.61744E-24
 -1       555 5.94485E-05-1.13153E-05 0.00000E+00
 -1       556 1.91447E-04 9.99141E-06 0.00000E+00
 -1       557 1.85753E-04 2.46294E-05 0.00000E+00
 -1       558 1.81301E-04 3.60846E-05 0.00000E+00
 -1       559 1.77968E-04 4.46502E-05 0.00000E+00
 -1       560 1.75631E-04 5.06198E-05 0.00000E+00
 -1       561 1.74171E-04 5.42894E-05 0.00000E+00
 -1       562 1.73470E-04 5.59558E-05 0.00000E+00
 -1       563 1.73411E-04 5.59171E-05 0.00000E+00
 -1       564 1.73880E-04 5.44717E-05 0.00000E+00
 -1       565 1.74762E-04 5.19188E-05-6.61744E-24
 -1       566 1.75945E-04 4.85581E-05 0.00000E+00
 -1       567 1.77317E-04 4.46897E-05 0.00000E+00
 -1       568 1.78766E-04 4.06136E-05 0.00000E+00
 -1       569 1.80181E-04 3.66299E-05 0.00000E+00
 -1       570 1.81451E-04 3.30388E-05 0.00000E+00
 -1       571 1.73400E-04 2.80834E-05 8.27181E-25
 -1       572 1.73495E-04 2.61822E-05 1.65436E-24
 -1       573 1.73591E-04 2.42332E-05 0.00000E+00
 -1       574 1.73687E-04 2.22518E-05 0.00000E+00
 -1       575 1.73783E-04 2.02532E-05 0.00000E+00
 -1       576 1.73879E-04 1.82530E-05 0.00000E+00
 -1       577 1.73976E-04 1.62665E-05 3.30872E-24
 -1       578 1.74072E-04 1.43092E-05 0.00000E+00
 -1       579 1.74168E-04 1.23966E-05 6.61744E-24
 -1       580 1.74265E-04 1.05440E-05 0.00000E+00
 -1       581 1.74361E-04 8.76700E-06 0.00000E+00
 -1       582 1.74458E-04 7.08093E-06 0.00000E+00
 -1       583 1.74555E-04 5.50124E-06 0.00000E+00
 -1       584 1.74652E-04 4.04318E-06-3.30872E-24
 -1       585 1.74749E-04 2.72186E-06-6.61744E-24
 -1       586 1.74789E-04 2.99599E-05 0.00000E+00
 -1       587 1.76234E-04 2.99970E-05 0.00000E+00
 -1       588 1.77682E-04 3.00337E-05 0.00000E+00
 -1       589 1.79175E-04 3.00698E-05 0.00000E+00
 -1       590 1.80756E-04 3.01047E-05 0.00000E+00
 -1       591 1.73932E-04 2.81697E-05-2.06795E-25
 -1       592 1.74563E-04 2.63960E-05-2.06795E-25
 -1       593 1.75198E-04 2.46069E-05 1.65436E-24
 -1       594 1.75837E-04 2.28074E-05 0.00000E+00
 -1       595 1.76478E-04 2.10022E-05 8.27181E-25
 -1       596 1.77119E-04 1.91961E-05 0.00000E+00
 -1       597 1.77759E-04 1.73941E-05 8.27181E-25
 -1       598 1.78395E-04 1.56008E-05 0.00000E+00
 -1       599 1.79027E-04 1.38212E-05 0.00000E+00
 -1       600 1.79651E-04 1.20599E-05 0.00000E+00
 -1       601 1.80267E-04 1.03218E-05-8.27181E-25
 -1       602 1.80872E-04 8.61172E-06 2.06795E-25
 -1       603 1.81466E-04 6.93443E-06 4.13590E-25
 -1       604 1.82045E-04 5.29483E-06 1.68021E-25
 -1       605 1.82610E-04 3.69765E-06 0.00000E+00
 -1       606 1.74859E-04 6.03652E-07 0.00000E+00
 -1       607 1.74869E-04-2.56155E-07 1.65436E-24
 -1       608 1.74878E-04-1.03345E-06 3.30872E-24
 -1       609 1.74887E-04-1.73404E-06 0.00000E+00
 -1       610 1.74896E-04-2.36377E-06 0.00000E+00
 -1       611 1.74904E-04-2.92857E-06 0.00000E+00
 -1       612 1.74913E-04-3.43435E-06 0.00000E+00
 -1       613 1.74921E-04-3.88705E-06 0.00000E+00
 -1       614 1.74930E-04-4.29260E-06 0.00000E+00
 -1       615 1.74939E-04-4.65693E-06-8.27181E-25
 -1       616 1.74947E-04-4.98597E-06 0.00000E+00
 -1       617 1.74956E-04-5.28567E-06 0.00000E+00
 -1       618 1.74964E-04-5.56194E-06 8.27181E-25
 -1       619 1.74973E-04-5.82072E-06 2.06795E-25
 -1       620 1.74981E-04-6.06795E-06 0.00000E+00
 -1       621 1.75976E-04 1.65120E-06 1.65436E-24
 -1       622 1.77247E-04 1.75155E-06-8.27181E-25
 -1       623 1.78631E-04 1.85173E-06 3.30872E-24
 -1       624 1.80098E-04 1.95162E-06-8.27181E-25
 -1       625 1.81618E-04 2.05126E-06-3.30872E-24
 -1       626 1.75310E-04 6.38433E-07 3.30872E-24
 -1       627 1.75750E-04-2.08671E-07 3.30872E-24
 -1       628 1.76169E-04-9.98048E-07 0.00000E+00
 -1       629 1.76569E-04-1.73789E-06 0.00000E+00
 -1       630 1.76954E-04-2.43641E-06 0.00000E+00
 -1       631 1.77326E-04-3.10183E-06 1.65436E-24
 -1       632 1.77690E-04-3.74240E-06-3.30872E-24
 -1       633 1.78047E-04-4.36635E-06-1.65436E-24
 -1       634 1.78400E-04-4.98192E-06 0.00000E+00
 -1       635 1.78754E-04-5.59732E-06 0.00000E+00
 -1       636 1.79111E-04-6.22082E-06 0.00000E+00
 -1       637 1.79474E-04-6.86064E-06-1.65436E-24
 -1       638 1.79846E-04-7.52502E-06-1.65436E-24
 -1       639 1.80230E-04-8.22222E-06-8.27181E-25
 -1       640 1.80629E-04-8.96049E-06-1.65436E-24
 -1       656 1.75462E-04-6.86852E-06 0.00000E+00
 -1       657 1.76349E-04-7.45016E-06 0.00000E+00
 -1       658 1.77511E-04-8.03040E-06 1.32349E-23
 -1       659 1.78802E-04-8.61029E-06 6.61744E-24
 -1       660 1.80040E-04-9.19193E-06 6.61744E-24
 -1       661 1.75167E-04-6.59404E-06 0.00000E+00
 -1       662 1.75380E-04-6.96610E-06 8.27181E-25
 -1       663 1.75625E-04-7.42088E-06 0.00000E+00
 -1       664 1.75899E-04-7.95233E-06-8.27181E-25
 -1       665 1.76199E-04-8.55503E-06 0.00000E+00
 -1       666 1.76524E-04-9.22347E-06 0.00000E+00
 -1       667 1.76872E-04-9.95241E-06 1.65436E-24
 -1       668 1.77240E-04-1.07367E-05 0.00000E+00
 -1       669 1.77627E-04-1.15712E-05 0.00000E+00
 -1       670 1.78032E-04-1.24512E-05-8.27181E-25
 -1       671 1.78451E-04-1.33717E-05 1.65436E-24
 -1       672 1.78884E-04-1.43282E-05 0.00000E+00
 -1       673 1.79328E-04-1.53159E-05-1.65436E-24
 -1       674 1.79781E-04-1.63307E-05-8.27181E-25
 -1       675 1.80243E-04-1.73675E-05 0.00000E+00
 -1       676 1.75240E-04-1.79197E-05 3.30872E-24
 -1       677 1.76337E-04-1.80212E-05-1.65436E-24
 -1       678 1.77433E-04-1.81226E-05 3.30872E-24
 -1       679 1.78527E-04-1.82237E-05-1.65436E-24
 -1       680 1.79619E-04-1.83249E-05 1.65436E-24
 -1       771 1.86458E-05 1.27323E-05 0.00000E+00
 -1       772 9.27433E-06 3.30748E-05 0.00000E+00
 -1       773 1.56719E-06 4.92108E-05-5.29396E-23
 -1       774-4.58959E-06 6.13811E-05 2.64698E-23
 -1       775-9.30771E-06 6.98358E-05 0.00000E+00
 -1       776-1.27034E-05 7.48400E-05 0.00000E+00
 -1       777-1.48928E-05 7.66678E-05 0.00000E+00
 -1       778-1.59945E-05 7.56057E-05 0.00000E+00
 -1       779-1.61266E-05 7.19479E-05-5.29396E-23
 -1       780-1.54093E-05 6.59988E-05 2.64698E-23
 -1       781-1.39619E-05 5.80689E-05 0.00000E+00
 -1       782-1.19054E-05 4.84765E-05 0.00000E+00
 -1       783-9.35972E-06 3.75440E-05 5.29396E-23
 -1       784-6.44633E-06 2.55996E-05 2.64698E-23
 -1       785-3.28572E-06 1.29739E-05-5.29396E-23
 -1       786 1.82504E-04 2.81642E-05-5.16988E-26
 -1       787 1.82547E-04 2.62413E-05-4.13590E-25
 -1       788 1.82589E-04 2.43593E-05 8.27181E-25
 -1       789 1.82633E-04 2.25100E-05 0.00000E+00
 -1       790 1.82676E-04 2.06889E-05 1.65436E-24
 -1       791 1.82720E-04 1.88912E-05 0.00000E+00
 -1       792 1.82764E-04 1.71148E-05 1.65436E-24
 -1       793 1.82808E-04 1.53577E-05 0.00000E+00
 -1       794 1.82851E-04 1.36196E-05 1.65436E-24
 -1       795 1.82895E-04 1.19005E-05 0.00000E+00
 -1       796 1.82939E-04 1.02021E-05-1.65436E-24
 -1       797 1.82983E-04 8.52644E-06-8.27181E-25
 -1       798 1.83027E-04 6.87768E-06 0.00000E+00
 -1       799 1.83071E-04 5.26014E-06 0.00000E+00
 -1       800 1.83116E-04 3.68131E-06 0.00000E+00
 -1       801 1.40557E-04 2.70144E-05-2.64698E-23
 -1       802 1.36789E-05 1.69883E-05 0.00000E+00
 -1       803-9.53750E-05 8.66459E-06 0.00000E+00
 -1       804-8.57460E-05 5.99393E-06 0.00000E+00
 -1       805-2.84658E-05 2.42525E-06 0.00000E+00
 -1       806 1.83093E-04 2.80981E-05-3.30872E-24
 -1       807 1.83707E-04 2.60865E-05-1.65436E-24
 -1       808 1.84310E-04 2.41057E-05 3.30872E-24
 -1       809 1.84898E-04 2.21597E-05 0.00000E+00
 -1       810 1.85473E-04 2.02524E-05 0.00000E+00
 -1       811 1.86031E-04 1.83874E-05-1.65436E-24
 -1       812 1.86572E-04 1.65684E-05 0.00000E+00
 -1       813 1.87095E-04 1.47991E-05 0.00000E+00
 -1       814 1.87598E-04 1.30832E-05-1.65436E-24
 -1       815 1.88079E-04 1.14245E-05 8.27181E-25
 -1       816 1.88538E-04 9.82647E-06 1.65436E-24
 -1       817 1.88973E-04 8.29288E-06-1.65436E-24
 -1       818 1.89382E-04 6.82738E-06 1.65436E-24
 -1       819 1.89765E-04 5.43361E-06 8.27181E-25
 -1       820 1.90120E-04 4.11519E-06 0.00000E+00
 -1       821 1.83035E-04 2.67874E-07 0.00000E+00
 -1       822 1.82901E-04-2.35213E-06 0.00000E+00
 -1       823 1.82766E-04-5.41043E-06 3.30872E-24
 -1       824 1.82629E-04-8.60353E-06 1.65436E-24
 -1       825 1.82493E-04-1.15925E-05 0.00000E+00
 -1       826 1.82358E-04-1.40396E-05-1.65436E-24
 -1       827 1.82225E-04-1.57511E-05 3.30872E-24
 -1       828 1.82092E-04-1.65378E-05 0.00000E+00
 -1       829 1.81960E-04-1.64564E-05 0.00000E+00
 -1       830 1.81828E-04-1.55688E-05 0.00000E+00
 -1       831 1.81695E-04-1.41511E-05-3.30872E-24
 -1       832 1.81561E-04-1.24828E-05 0.00000E+00
 -1       833 1.81428E-04-1.09100E-05-3.30872E-24
 -1       834 1.81298E-04-9.77825E-06 1.65436E-24
 -1       835 1.81167E-04-9.31612E-06 8.27181E-25
 -1       836 1.84579E-04 2.26940E-06 3.30872E-24
 -1       837 1.85874E-04 2.39300E-06-1.65436E-24
 -1       838 1.87077E-04 2.51651E-06 0.00000E+00
 -1       839 1.88219E-04 2.63932E-06-8.27181E-25
 -1       840 1.89332E-04 2.76197E-06 8.27181E-25
 -1       856 1.81026E-04-1.05577E-05-8.27181E-25
 -1       857 1.81005E-04-1.12347E-05 0.00000E+00
 -1       858 1.80985E-04-1.17997E-05 0.00000E+00
 -1       859 1.80964E-04-1.22734E-05 0.00000E+00
 -1       860 1.80943E-04-1.26767E-05-4.13590E-25
 -1       861 1.80922E-04-1.30304E-05-4.13590E-25
 -1       862 1.80901E-04-1.33552E-05 0.00000E+00
 -1       863 1.80880E-04-1.36722E-05 0.00000E+00
 -1       864 1.80859E-04-1.40021E-05-8.27181E-25
 -1       865 1.80837E-04-1.43659E-05-4.13590E-25
 -1       866 1.80816E-04-1.47844E-05 0.00000E+00
 -1       867 1.80795E-04-1.52785E-05 4.13590E-25
 -1       868 1.80774E-04-1.58688E-05 8.27181E-25
 -1       869 1.80752E-04-1.65761E-05 4.13590E-25
 -1       870 1.80730E-04-1.74210E-05 0.00000E+00
 -1       871 1.82131E-04-9.75233E-06 0.00000E+00
 -1       872 1.83361E-04-9.75972E-06 0.00000E+00
 -1       873 1.84669E-04-9.76777E-06 0.00000E+00
 -1       874 1.85988E-04-9.77654E-06 3.61892E-25
 -1       875 1.87254E-04-9.78587E-06 6.20385E-25
 -1       876 1.81471E-04-1.05437E-05 0.00000E+00
 -1       877 1.81876E-04-1.12741E-05 0.00000E+00
 -1       878 1.82261E-04-1.19471E-05 0.00000E+00
 -1       879 1.82627E-04-1.25699E-05 0.00000E+00
 -1       880 1.82977E-04-1.31499E-05 0.00000E+00
 -1       881 1.83313E-04-1.36942E-05 1.65436E-24
 -1       882 1.83639E-04-1.42099E-05 0.00000E+00
 -1       883 1.83957E-04-1.47044E-05 0.00000E+00
 -1       884 1.84270E-04-1.51846E-05 0.00000E+00
 -1       885 1.84580E-04-1.56579E-05 0.00000E+00
 -1       886 1.84890E-04-1.61314E-05 0.00000E+00
 -1       887 1.85203E-04-1.66122E-05 0.00000E+00
 -1       888 1.85520E-04-1.71076E-05 0.00000E+00
 -1       889 1.85846E-04-1.76248E-05 1.65436E-24
 -1       890 1.86182E-04-1.81711E-05-1.65436E-24
 -1       891 1.81816E-04-1.84795E-05 0.00000E+00
 -1       892 1.82903E-04-1.85353E-05 0.00000E+00
 -1       893 1.83941E-04-1.85911E-05-1.65436E-24
 -1       894 1.84908E-04-1.86466E-05-4.13590E-25
 -1       895 1.85777E-04-1.87019E-05 8.27181E-25
 -1       956 1.90322E-04 1.80309E-06 3.30872E-24
 -1       957 1.90194E-04 8.17773E-07 0.00000E+00
 -1       958 1.90065E-04-9.04532E-08-3.30872E-24
 -1       959 1.89937E-04-9.32331E-07 1.65436E-24
 -1       960 1.89809E-04-1.71864E-06 0.00000E+00
 -1       961 1.89680E-04-2.46021E-06 1.65436E-24
 -1       962 1.89552E-04-3.16786E-06-3.30872E-24
 -1       963 1.89423E-04-3.85244E-06 0.00000E+00
 -1       964 1.89295E-04-4.52479E-06-3.30872E-24
 -1       965 1.89167E-04-5.19574E-06 1.65436E-24
 -1       966 1.89038E-04-5.87616E-06 0.00000E+00
 -1       967 1.88910E-04-6.57688E-06 0.00000E+00
 -1       968 1.88782E-04-7.30873E-06 0.00000E+00
 -1       969 1.88653E-04-8.08252E-06 0.00000E+00
 -1       970 1.88526E-04-8.90902E-06 0.00000E+00
 -1       971 1.88283E-04-1.06851E-05 3.30872E-24
 -1       972 1.88166E-04-1.14784E-05 0.00000E+00
 -1       973 1.88048E-04-1.21889E-05 3.30872E-24
 -1       974 1.87930E-04-1.28271E-05-1.65436E-24
 -1       975 1.87812E-04-1.34039E-05 0.00000E+00
 -1       976 1.87695E-04-1.39298E-05 0.00000E+00
 -1       977 1.87577E-04-1.44156E-05-3.30872E-24
 -1       978 1.87459E-04-1.48721E-05 0.00000E+00
 -1       979 1.87341E-04-1.53099E-05-3.30872E-24
 -1       980 1.87223E-04-1.57399E-05 0.00000E+00
 -1       981 1.87106E-04-1.61728E-05 3.30872E-24
 -1       982 1.86988E-04-1.66192E-05 0.00000E+00
 -1       983 1.86871E-04-1.70900E-05 0.00000E+00
 -1       984 1.86753E-04-1.75959E-05 0.00000E+00
 -1       985 1.86637E-04-1.81475E-05 0.00000E+00
 -3
    1PSTEP                        32          16           1          
  100CL  116 6.47278E-01         409                     0   16           1
 -4  STRESS      6    1
 -5  SXX         1    4    1    1
 -5  SYY         1    4    2    2
 -5  SZZ         1    4    3    3
 -5  SXY         1    4    1    2
 -5  SYZ         1    4    2    3
 -5  SZX         1    4    3    1
 -1         1-4.53476E+06-1.67776E+06-9.97290E+05-1.63075E+06 1.12050E-09-2.05473E-07
 -1         2 5.40575E+04-1.69788E+06 2.23089E+05 4.59912E+05 6.28643E-09 2.91311E-07
 -1         3-1.36885E+03-1.69205E+06 2.62135E+02-2.55290E+03 7.40357E-10 2.57496E-08
 -1         5-5.15146E+01 3.71509E+05 9.59537E+00-1.02774E+00-5.35785E-10 5.00586E-09
 -1         8-6.13612E+05-2.03876E+05-4.98497E+04-2.51015E+05-1.06411E-10-7.68086E-08
 -1         9 8.42822E+06-6.01708E+05 1.41971E+06-1.15359E+06 2.18512E-08 3.12692E-08
 -1        10-1.32436E+03-1.72860E+06-3.40380E+03-1.59509E+04-3.62525E-09-4.65520E-08
 -1        12-4.76890E+01 3.71530E+05 3.14012E+02-7.11676E+00-4.55803E-10-5.89262E-09
 -1        15 1.21919E+03 6.70011E+02 3.94102E+03 1.75490E+00-2.25114E-10 3.66240E-07
 -1        16 1.82816E+07-1.46073E+05 2.56635E+06-1.49400E+06 8.20728E-09 2.24682E-07
 -1        17 6.56161E+06 4.71524E+06 1.76884E+06 4.61723E+06 1.97178E-08 1.11526E-08
 -1        18 1.17713E+05 2.68436E+04-6.88426E+02-1.13350E+05 1.37932E-08 2.15505E-09
 -1        19 1.18002E+05 1.36437E+05-9.15429E+02 2.14663E+04 1.26511E-09 7.40984E-09
 -1        20-7.64322E+04-5.53812E+05-1.24084E+05 2.57606E+04-1.56964E-09-1.14154E-08
 -1        21-4.50628E+01-2.89008E+05-9.05212E+02 2.17635E+02 1.13082E-08-1.76316E-08
 -1        24 1.07658E+07 9.19663E+06 3.03809E+06 8.55414E+06-1.49371E-07-5.46958E-08
 -1        25 8.15826E+04 1.07540E+05 5.91119E+04-5.51610E+05-1.66347E-09 2.98332E-09
 -1        26-5.28279E+04 8.87028E+04-2.37452E+04 3.18332E+02 3.33239E-10 1.04514E-08
 -1        27-7.47570E+04-2.99680E+05-1.09923E+05 6.67329E+04 4.39225E-09-6.75148E-10
 -1        28 2.18003E+04-8.29835E+04 1.64847E+04 2.06548E+04-2.82569E-09 1.08799E-08
 -1        32-1.63742E+06-3.02230E+06-1.77640E+05 2.89532E+05-4.00614E-08-7.63271E-09
 -1        33-1.72901E+05 8.93808E+04 3.12419E+04-3.78331E+04-2.63890E-09-7.01160E-09
 -1        34-2.16844E+05-2.39527E+04 6.54921E+02 7.26778E+04-3.77057E-09-7.65885E-09
 -1        35-2.24309E+04-3.29152E+04-1.30949E+03 5.02912E+04-2.30618E-09 1.91188E-08
 -1        51 5.10263E+04-2.05705E+05 1.10142E+05-6.12665E+05-1.45519E-10-1.73968E-08
 -1        52 1.82845E+04-1.87885E+05 5.92515E+04-7.14246E+05-1.49157E-10 7.36909E-08
 -1        53 4.96066E+03-2.03439E+05 3.31617E+04-6.10406E+05 4.58385E-10-1.24601E-07
 -1        54 1.10025E+04-1.99846E+05 3.19343E+04-7.16607E+05-1.67347E-10-5.61704E-08
 -1        55 2.31651E+04-2.09130E+05 4.43125E+04-6.10079E+05 2.98314E-10 2.71433E-07
 -1        56-8.53742E+06-9.86680E+05-7.40325E+05-3.36256E+06 1.12050E-08-1.21974E-07
 -1        57-9.04146E+06-1.43144E+06-4.96455E+05-3.08011E+06 2.03727E-08 1.16721E-07
 -1        58-8.62523E+06-1.27591E+06-1.73720E+05-3.37827E+06-2.55277E-08-4.17640E-08
 -1        59-8.94761E+06-1.08696E+06-1.03013E+05-3.06421E+06-1.56142E-08 1.35524E-07
 -1        60-8.63375E+06-1.31972E+06-4.01718E+04-3.38465E+06-1.92961E-08 1.70741E-07
 -1        61-8.89436E+06-1.07247E+06-2.19477E+04-3.09530E+06 1.68593E-08 1.36184E-07
 -1        62-8.67550E+06-1.29093E+06-1.25139E+04-3.34561E+06-7.77072E-09 1.30044E-07
 -1        63-8.77977E+06-1.16811E+06-6.62047E+03-3.20183E+06-2.29156E-08 1.07764E-07
 -1        64-8.74207E+06-1.22818E+06-1.28987E+04-3.27354E+06 1.02627E-08 1.03567E-07
 -1        65-8.65685E+06-1.29832E+06-1.82066E+04-3.34622E+06 2.02317E-08-1.87338E-08
 -1        66-8.79876E+06-1.16068E+06-3.72499E+04-3.20151E+06 1.36897E-08 2.28979E-07
 -1        67-8.59750E+06-1.42508E+06-9.07861E+04-3.45559E+06-3.05590E-08 1.31098E-07
 -1        68-8.80832E+06-1.09802E+06-1.53284E+05-3.16862E+06 4.31100E-09 5.67015E-08
 -1        69-8.73123E+06-1.69124E+06-4.40715E+05-3.43486E+06-2.07929E-08-1.97164E-07
 -1        70-8.66941E+06-9.00232E+05-6.54405E+05-3.22165E+06-8.36735E-09-1.33645E-07
 -1        86-5.51374E+04-3.38390E+06-1.26331E+05-2.28284E+05-5.64207E-08 5.87170E-09
 -1        87 6.93070E+04-2.36662E+06 9.56385E+04 6.65070E+05-9.27826E-08-1.43573E-07
 -1        88-4.83773E+03-2.78732E+06-4.31857E+03-4.35695E+05-8.98808E-08 1.59716E-07
 -1        89 8.14310E+04-2.43763E+06 6.30964E+04 7.01145E+05-1.24962E-07-2.89137E-07
 -1        90-5.97741E+04-3.32102E+06-1.68216E+05-2.64864E+05-3.32366E-08 9.50095E-08
 -1       121-1.88269E+03-1.69692E+06-7.17609E+02 1.26762E+03 2.79073E-10 3.11229E-08
 -1       122-1.22230E+03-1.69216E+06 4.13541E+02-5.10119E+03 5.23556E-09 3.13903E-08
 -1       123-1.86528E+03-1.69702E+06-3.79286E+02 3.78113E+03 1.74055E-09-1.14487E-08
 -1       124-1.73939E+02-1.69216E+06 1.35909E+03-1.05391E+04 1.01718E-08-1.82972E-08
 -1       125-2.28933E+03-1.69755E+06 8.87409E+02 6.66290E+03 3.05590E-09-5.82077E-11
 -1       191-5.43793E+01 3.71531E+05 9.21323E+00 5.30263E-01-4.84755E-10-4.77849E-09
 -1       192-5.24262E+01 3.71510E+05 2.04252E+01-3.40656E+00-5.93179E-10-2.04091E-08
 -1       193-5.67866E+01 3.71531E+05 3.57909E+01 2.97732E+00-9.21899E-10-1.06738E-08
 -1       194-5.53521E+01 3.71513E+05 7.75231E+01-7.76944E+00-4.31779E-10-1.59343E-09
 -1       195-6.14085E+01 3.71528E+05 1.49435E+02 5.00778E+00-1.23305E-09-1.39280E-08
 -1       251-2.07898E+06-3.94365E+04-2.08619E+05-1.41342E+05-5.29690E-09-1.02482E-07
 -1       252-1.04272E+06 4.92527E+04 6.19566E+04 4.37090E+05 8.24002E-09-6.52090E-08
 -1       253-1.62521E+06-1.65056E+04-3.61108E+04-2.88934E+05-1.96433E-08-6.36592E-08
 -1       254-1.52981E+06 6.71431E+04 1.08656E+04 5.77590E+05-6.16842E-09-6.82639E-08
 -1       255-1.63997E+06-1.80801E+04-2.08440E+04-2.86324E+05 2.96068E-08-1.42946E-07
 -1       256-1.00666E+06 5.40867E+04 1.16534E+05 4.25616E+05-9.45874E-10-4.15721E-08
 -1       257-2.09711E+06-4.52291E+04-1.15221E+05-1.32319E+05-1.19762E-08-2.27917E-08
 -1       258-4.86415E+05 4.08455E+04 2.14939E+05 8.98855E+03 5.37511E-09 7.61297E-08
 -1       259-2.10901E+06-4.64989E+04-1.16011E+05 1.27437E+05 3.63034E-08-6.24823E-09
 -1       260-9.78683E+05 5.64425E+04 1.27075E+05-4.12910E+05 5.22450E-08-1.77483E-07
 -1       261-1.65326E+06-2.14311E+04-1.41711E+04 2.86452E+05 6.60511E-08 4.16036E-08
 -1       262-1.52447E+06 8.03545E+04 3.50524E+04-5.74110E+05-1.97132E-08-1.68051E-07
 -1       263-1.61707E+06-2.64731E+04 4.83720E+03 2.93565E+05 2.18961E-08-8.07595E-08
 -1       264-1.03897E+06 1.24834E+05 1.61165E+05-4.46071E+05 1.32143E-07 1.49230E-08
 -1       265-2.09361E+06-1.02517E+05-5.72002E+04 1.53989E+05 4.21824E-08 1.79007E-07
 -1       266-2.20715E+04-1.03210E+04 5.17844E+04-3.75486E+01 1.74623E-10-1.55099E-07
 -1       267 2.55869E+04 1.20288E+04 3.66013E+04 4.33247E+01-4.50200E-11 2.91092E-08
 -1       268-3.43116E+03-1.70364E+03 1.36045E+04-5.52026E+00 3.13776E-10 2.13510E-07
 -1       269 4.05118E+03 2.03886E+03 8.84273E+03 6.43034E+00-1.97815E-10-1.68395E-07
 -1       270-6.08087E+02-3.35003E+02 4.26851E+03-8.72640E-01-7.45786E-11 2.48069E-07
 -1       271-1.99152E+06-2.39023E+05-1.47981E+05-7.61328E+05-1.53414E-08 4.70027E-09
 -1       272-2.09984E+06-2.92753E+05-9.52724E+04-6.98589E+05 1.91203E-08-2.33835E-07
 -1       273-2.01819E+06-2.77209E+05-3.49194E+04-7.56068E+05 4.30009E-09-2.46386E-07
 -1       274-2.06823E+06-2.46160E+05-1.95935E+04-7.06781E+05 3.73984E-08 1.70849E-09
 -1       275-2.02216E+06-2.81035E+05-8.14349E+03-7.54734E+05-1.73368E-08-4.58449E-08
 -1       276-2.06202E+06-2.42779E+05-4.25691E+03-7.09480E+05-2.01017E-08-1.65056E-07
 -1       277-2.02384E+06-2.80413E+05-2.15997E+03-7.53199E+05-1.15360E-08 3.19947E-08
 -1       278-2.05791E+06-2.45367E+05-1.30323E+03-7.12643E+05 5.42595E-08 9.74705E-09
 -1       279-2.02560E+06-2.78825E+05-1.53420E+03-7.51111E+05-3.67054E-08 9.96170E-08
 -1       280-2.05340E+06-2.49722E+05-2.18412E+03-7.16764E+05 3.68327E-08 3.34475E-07
 -1       281-2.02759E+06-2.76549E+05-4.42708E+03-7.48546E+05-5.98811E-09-9.31236E-08
 -1       282-2.04986E+06-2.57325E+05-9.69847E+03-7.21514E+05 2.09247E-08 1.69523E-07
 -1       283-2.02847E+06-2.71913E+05-1.79075E+04-7.45785E+05-6.70298E-09 4.18764E-08
 -1       284-2.05915E+06-2.86655E+05-4.75815E+04-7.23960E+05-1.64691E-08-1.95408E-07
 -1       285-2.01811E+06-2.49957E+05-7.47341E+04-7.44878E+05-1.02591E-08-1.57088E-08
 -1       301 1.16724E+04-5.14938E+05 1.74172E+05-8.94215E+05 4.51109E-10 1.52024E-07
 -1       302 1.29267E+04-4.70257E+05 1.05738E+05-1.30691E+06-1.37516E-09 3.01898E-08
 -1       303-7.68741E+03-5.01622E+05 6.36577E+04-8.91928E+05 1.62254E-09 7.80256E-08
 -1       304-3.80436E+02-4.74807E+05 7.08341E+04-1.30621E+06 2.07365E-09 7.35345E-08
 -1       305-4.66002E+03-4.98435E+05 9.61165E+04-8.94667E+05 2.13186E-09-5.06989E-08
 -1       306-2.62891E+07-5.32580E+06-7.25058E+06-1.19866E+06-6.71716E-08-1.95607E-07
 -1       307 2.15733E+07 1.79884E+06 4.67055E+06-1.24105E+07-6.64106E-07-1.96160E-07
 -1       308-7.83165E+06-6.93192E+05-5.61989E+05 4.41679E+06-6.50762E-08 7.17700E-08
 -1       309-3.61151E+06 6.03305E+06 1.72869E+06-1.82406E+07 3.34170E-07 1.96458E-07
 -1       310-1.08407E+07-1.15046E+06-1.34833E+06 4.29204E+06 1.50059E-07-2.27155E-07
 -1       311 2.85330E+07-2.39210E+05 5.68789E+06-8.70843E+06 5.15487E-07-2.03727E-07
 -1       312-2.71702E+07-5.35371E+06-6.82484E+06-3.71997E+06 1.31200E-07-1.53086E-08
 -1       313 3.81915E+07 1.00799E+07 8.77857E+06 1.76967E+07 2.28174E-08 3.95230E-08
 -1       314-1.66693E+07-1.38199E+07-6.27209E+06-1.08893E+07 1.75205E-07-1.95578E-07
 -1       315-7.08916E+05 2.33789E+07 4.82323E+06 1.04866E+07-6.29152E-07-3.30620E-08
 -1       316 1.26403E+05-8.96257E+06-5.23589E+05-3.61477E+06-1.18346E-06-4.24043E-07
 -1       317-1.69343E+07 1.92524E+07 1.69739E+06-5.54367E+06 5.88647E-07-6.21578E-07
 -1       318-1.29979E+06-1.02767E+07-1.40130E+06-4.45340E+06-7.39616E-07 1.56579E-08
 -1       319 4.40406E+06 2.45489E+07 5.45066E+06 1.31762E+07-5.88188E-08 2.63302E-07
 -1       320-1.95513E+07-1.41503E+07-7.97365E+06-1.08005E+07 1.75089E-07-4.69445E-08
 -1       336-8.25764E+02-1.76703E+06-1.05348E+04 9.15140E+03-2.54331E-08 3.52884E-09
 -1       337-4.10890E+03-1.76688E+06-1.59633E+04-2.17112E+04-4.76259E-08 1.14578E-08
 -1       338 6.83749E+02-1.76609E+06-2.69056E+04 1.23804E+04-3.33730E-08 1.51704E-08
 -1       339-2.92677E+04-1.78402E+06-6.25973E+04-2.79872E+04-5.97902E-08 2.05891E-08
 -1       340 1.99090E+04-1.75177E+06-9.87592E+04 1.53185E+04-3.83516E-08 2.14641E-08
 -1       406-2.59016E+01 3.71514E+05 6.17621E+02 2.43143E+00-1.64948E-09 2.54677E-08
 -1       407 1.68723E+02 3.71638E+05 1.31759E+03 1.98814E+01-6.76657E-10 3.26963E-09
 -1       408 6.29030E+02 3.71418E+05 2.62853E+03-2.27173E+01-2.08649E-09-9.24774E-09
 -1       409 2.80131E+03 3.72478E+05 5.92223E+03 2.39175E+02-1.87356E-10-6.59020E-09
 -1       410 8.13391E+03 3.70665E+05 1.20879E+04-2.29867E+02-2.16824E-09 4.67844E-09
 -1       521-2.79098E+07-6.54459E+06-8.48824E+06-9.10529E+05-7.52043E-08 6.17001E-08
 -1       522 2.23814E+07 2.40021E+06 4.75712E+06-1.54327E+07-4.47384E-07-3.57279E-07
 -1       523-8.62051E+06-9.70000E+05-5.84605E+05 4.86477E+06 4.38886E-08-1.86672E-07
 -1       524-6.67405E+06 8.42618E+06 1.87979E+06-2.11631E+07 8.83734E-07-6.09009E-07
 -1       525-1.18264E+07-1.61619E+06-1.48610E+06 4.72942E+06 5.68107E-07-2.46000E-07
 -1       526 3.09858E+07-2.59790E+05 6.00029E+06-1.11550E+07 4.01196E-07 2.29484E-07
 -1       527-2.89861E+07-6.74376E+06-7.86925E+06-3.62896E+06 2.48081E-07-2.25802E-07
 -1       528 4.18689E+07 1.10528E+07 9.18820E+06 2.00756E+07 3.84345E-07 3.18978E-08
 -1       529-1.77370E+07-1.57343E+07-7.20570E+06-1.11323E+07 4.03204E-07-1.05763E-07
 -1       530-2.88669E+06 2.73560E+07 5.11453E+06 1.05733E+07-5.41913E-08 6.20435E-07
 -1       531 3.63966E+04-1.01132E+07-5.30816E+05-3.79409E+06-7.57340E-07 3.00526E-07
 -1       532-1.99414E+07 2.15611E+07 1.87129E+06-8.81826E+06 2.82918E-07-7.22990E-07
 -1       533-1.38881E+06-1.14422E+07-1.48204E+06-4.55282E+06-2.61120E-07-9.28878E-07
 -1       534 2.48679E+06 2.86344E+07 5.69926E+06 1.37067E+07-4.15457E-08 6.39120E-07
 -1       535-2.07312E+07-1.61848E+07-9.12573E+06-1.10290E+07 8.07922E-08 4.02797E-07
 -1       536-6.67956E+05-4.56817E+04-3.11471E+04-4.94008E+04-5.67707E-09 5.18139E-08
 -1       537-9.21258E+04 4.45571E+04 8.13922E+04 1.13708E+05-9.96334E-08 8.84625E-08
 -1       538-3.92834E+05 2.23492E+03 5.98455E+03-6.70672E+04 2.43756E-08 9.08094E-08
 -1       539-2.82800E+05 3.11110E+03 2.34565E+04 1.28282E+05 1.53824E-07 9.90405E-08
 -1       540-4.82010E+05-3.14407E+02-1.77957E+04-6.44122E+04 1.98452E-08 1.10023E-07
 -1       541 8.16789E+04 1.48986E+04 9.35979E+04 8.92628E+04-4.65352E-08 7.76446E-08
 -1       542-7.47504E+05-1.77233E+04-7.37757E+04-2.73352E+04 3.56886E-09 5.39029E-08
 -1       543 3.08704E+05 2.40158E+04 1.38555E+05-1.24729E+04-5.94230E-08-3.06090E-09
 -1       544-7.02959E+05-1.44582E+04-6.55591E+04 3.67749E+04-2.42039E-08-3.84259E-08
 -1       545-2.26292E+04 8.11842E+03 6.95096E+04-1.04375E+05 7.76436E-09-8.66337E-08
 -1       546-4.25047E+05 5.52072E+03-1.08573E+04 6.42879E+04 2.40213E-08-1.05858E-07
 -1       547-2.99247E+05-4.68572E+03 8.27811E+03-1.31022E+05-1.12961E-07-9.51578E-08
 -1       548-4.33755E+05 4.53112E+03-2.23088E+04 6.39853E+04-9.85954E-08-9.64787E-08
 -1       549-4.53505E+03 1.14767E+04 4.96034E+04-1.02008E+05-6.08796E-08-6.90598E-08
 -1       550-7.11866E+05-1.72234E+04-1.18425E+05 3.46869E+04 2.51748E-09-3.61251E-08
 -1       551 3.79997E+04-7.71451E+05-7.34976E+03-1.21543E+06-9.49512E-08-1.11468E-08
 -1       552 8.60231E+04-8.11097E+05 1.47762E+04-1.73331E+06-6.74627E-08 4.28845E-08
 -1       553 6.56001E+04-8.09094E+05 3.53241E+04-1.20923E+06-1.11089E-07 2.48110E-08
 -1       554 1.22867E+05-8.23842E+05 8.49586E+04-1.73526E+06-6.93253E-08 1.85391E-08
 -1       555 9.52244E+04-8.31908E+05 1.53969E+05-1.20925E+06-1.14174E-07-1.01536E-08
 -1       556 2.06313E+05-3.57288E+05 3.76990E+04-3.88636E+05-2.51748E-08-1.08557E-08
 -1       557 3.31156E+05-4.56952E+05 2.19990E+04-5.00990E+05-9.67702E-09-7.47787E-09
 -1       558 1.90968E+05-3.53394E+05 5.37889E+03-3.90510E+05-2.79397E-08-3.75439E-09
 -1       559 3.07494E+05-4.59102E+05 3.78689E+03-5.19162E+05 4.26371E-09 2.81216E-09
 -1       560 1.77565E+05-3.44965E+05-5.31539E+02-4.00095E+05 3.75439E-09 4.30009E-09
 -1       561 2.90486E+05-4.52411E+05 4.96468E+02-5.30682E+05-8.14907E-10 2.25391E-08
 -1       562 1.66969E+05-3.38357E+05-9.53325E+02-4.07753E+05-8.61473E-09-3.51793E-09
 -1       563 2.77914E+05-4.46930E+05 6.75730E+01-5.38875E+05-1.45519E-10-1.31076E-08
 -1       564 1.59459E+05-3.33670E+05-4.55854E+02-4.13071E+05 5.74801E-09-1.94154E-08
 -1       565 2.69669E+05-4.43341E+05 5.16217E+01-5.44138E+05 1.32568E-08 1.21427E-08
 -1       566 1.55145E+05-3.30938E+05-2.02742E+02-4.16089E+05-6.63567E-09-1.72804E-08
 -1       567 2.65787E+05-4.41651E+05-3.13318E+02-5.46481E+05 1.30312E-08-5.04588E-09
 -1       568 1.54109E+05-3.30308E+05-9.99194E+02-4.16909E+05-7.58064E-10 1.62217E-08
 -1       569 2.64957E+05-4.41604E+05-2.52519E+03-5.44959E+05-1.10640E-08 3.46336E-09
 -1       570 1.57385E+05-3.33363E+05-5.54449E+03-4.15974E+05 5.73345E-09 1.25001E-08
 -1       571 2.79636E+05 1.01256E+04 1.45323E+04-8.90041E+04-7.52061E-09 1.69766E-08
 -1       572 2.81751E+05 3.77086E+03 7.12166E+03-9.76449E+04-1.78225E-08-1.18143E-09
 -1       573 2.80477E+05 1.14471E+03 3.16432E+03-8.88348E+04-2.94040E-09-4.65388E-09
 -1       574 2.80693E+05 6.34771E+02 1.58669E+03-9.78569E+04 6.56996E-09-1.75369E-08
 -1       575 2.80569E+05 3.70863E+02 7.48786E+02-8.88118E+04-5.41348E-10-3.87536E-09
 -1       576 2.80560E+05 3.75839E+02 3.83172E+02-9.78851E+04-9.02537E-09-5.64614E-09
 -1       577 2.80605E+05 3.16581E+02 1.91167E+02-8.88086E+04-7.16955E-09-1.67893E-09
 -1       578 2.80583E+05 3.42347E+02 1.10033E+02-9.78891E+04-6.54472E-09 5.94991E-09
 -1       579 2.80667E+05 2.85687E+02 7.53273E+01-8.88083E+04 2.91220E-09 6.98219E-09
 -1       580 2.80670E+05 2.98902E+02 8.65751E+01-9.78844E+04-8.42192E-09-5.20595E-09
 -1       581 2.80765E+05 2.35988E+02 1.30744E+02-8.88138E+04 3.38878E-09 4.55657E-10
 -1       582 2.80824E+05 2.70338E+02 2.64861E+02-9.78269E+04 0.00000E+00-2.80661E-08
 -1       583 2.80885E+05 2.83749E+02 5.09230E+02-8.88665E+04 9.60426E-10-5.96242E-09
 -1       584 2.81164E+05 6.97571E+02 1.15121E+03-9.73835E+04 9.30049E-09 1.83491E-10
 -1       585 2.80896E+05 1.67370E+03 2.33253E+03-8.92566E+04 2.16642E-09-8.44739E-09
 -1       586-3.30938E+03 1.09561E+05-3.01288E+03-2.42573E+05-6.02768E-09-1.15028E-08
 -1       587-1.20758E+03 1.09280E+05 6.26324E+02-2.66974E+05-5.38967E-09 1.60662E-09
 -1       588 4.80956E+02 1.09129E+05 4.49895E+03-2.42443E+05-2.51566E-09-7.32416E-09
 -1       589 4.97859E+03 1.11478E+05 1.17715E+04-2.66740E+05-8.15635E-09-3.87217E-08
 -1       590 1.59833E+04 1.07852E+05 2.47335E+04-2.42859E+05-5.43605E-09-1.79443E-08
 -1       591-7.00913E+04-1.53035E+04-2.13950E+04-3.03176E+04-3.81942E-09 1.12132E-08
 -1       592-7.38478E+04-1.88087E+04-1.15892E+04-3.39048E+04 3.23331E-09 6.00267E-09
 -1       593-7.22320E+04-1.37499E+04-4.82404E+03-3.18854E+04-7.68381E-10-1.04567E-08
 -1       594-7.08920E+04-1.56712E+04-2.40588E+03-3.40190E+04-3.30573E-10 4.28395E-09
 -1       595-7.23953E+04-1.37447E+04-1.10462E+03-3.19566E+04-1.29315E-09 1.60259E-08
 -1       596-7.06897E+04-1.55277E+04-5.61474E+02-3.39951E+04 5.34241E-09 9.87524E-09
 -1       597-7.24158E+04-1.37593E+04-3.05600E+02-3.19593E+04 3.03112E-09-3.94709E-09
 -1       598-7.06698E+04-1.55220E+04-2.45415E+02-3.39884E+04-4.37922E-09-6.04825E-09
 -1       599-7.24146E+04-1.37597E+04-3.13174E+02-3.19590E+04 5.95082E-09-7.17773E-09
 -1       600-7.06899E+04-1.55283E+04-5.81523E+02-3.39932E+04 4.87478E-09-6.51744E-09
 -1       601-7.23909E+04-1.37458E+04-1.14709E+03-3.19556E+04-4.15253E-09-5.96401E-09
 -1       602-7.08998E+04-1.56763E+04-2.49989E+03-3.40143E+04-5.14501E-09-9.52775E-09
 -1       603-7.22186E+04-1.37541E+04-5.01327E+03-3.18823E+04-6.52562E-10 6.37556E-09
 -1       604-7.39882E+04-1.89183E+04-1.20430E+04-3.38720E+04 3.80538E-09-1.11922E-08
 -1       605-6.99749E+04-1.53854E+04-2.22329E+04-3.02715E+04 2.25518E-09 1.25101E-08
 -1       606 2.69149E+04-1.37369E+04-2.46334E+04 2.44931E+04 5.26325E-09 4.31373E-09
 -1       607 2.27051E+04-4.48225E+03-1.22672E+04 2.75197E+04 2.80124E-09-1.83993E-08
 -1       608 2.51029E+04-8.04696E+02-5.49184E+03 2.43166E+04-6.80302E-10-1.54350E-08
 -1       609 2.46415E+04-2.70585E+02-2.77426E+03 2.77376E+04 3.24235E-09-4.04384E-10
 -1       610 2.48961E+04-3.31838E+01-1.32380E+03 2.42958E+04 3.56158E-09 1.11768E-08
 -1       611 2.48221E+04-3.16037E+01-6.67446E+02 2.77612E+04 2.38424E-09 1.52841E-09
 -1       612 2.48492E+04-1.89821E+01-3.17477E+02 2.42937E+04-2.56296E-09-4.50677E-09
 -1       613 2.48315E+04-2.67023E+01-1.42398E+02 2.77640E+04-8.29914E-10-7.12362E-09
 -1       614 2.48266E+04-2.42767E+01-3.38040E+01 2.42930E+04 2.48565E-09 9.31027E-09
 -1       615 2.48251E+04-2.45112E+01 5.87576E+01 2.77644E+04 4.61114E-10 2.35677E-08
 -1       616 2.48090E+04-2.06527E+01 1.77034E+02 2.42933E+04 1.26465E-09-2.27260E-09
 -1       617 2.48453E+04 1.38401E+01 4.04280E+02 2.77640E+04 2.47928E-09-7.77527E-09
 -1       618 2.47731E+04 9.63731E+01 8.15001E+02 2.42936E+04 1.68802E-09 1.28284E-09
 -1       619 2.51324E+04 6.44393E+02 1.83024E+03 2.77633E+04-3.51884E-09 7.01220E-10
 -1       620 2.45020E+04 2.02931E+03 3.67875E+03 2.42946E+04-1.51385E-09-7.18774E-09
 -1       621 4.62706E+02 2.89596E+05 3.64734E+03 3.65922E+04 8.86303E-10 1.53877E-08
 -1       622 6.04441E+02 2.90448E+05 3.25601E+03 5.31394E+04 1.00727E-09 1.27352E-08
 -1       623 1.12448E+02 2.89784E+05 3.93935E+03 3.64256E+04 1.12004E-09 1.18380E-08
 -1       624 1.99041E+03 2.91631E+05 7.65764E+03 5.33040E+04 8.36167E-10-2.01453E-10
 -1       625 1.95581E+03 2.88268E+05 1.33919E+04 3.64227E+04 1.17689E-09 3.14230E-10
 -1       626 2.51313E+05 6.01525E+04 5.01375E+03 1.23338E+05 1.27716E-08 1.31095E-08
 -1       627 2.48980E+05 6.15837E+04 2.41608E+03 1.27591E+05 2.14231E-09-1.91153E-08
 -1       628 2.51442E+05 5.78532E+04 1.02169E+03 1.24183E+05-3.82443E-09-2.67733E-08
 -1       629 2.48351E+05 6.09247E+04 5.00089E+02 1.27833E+05 9.86802E-11-1.31139E-09
 -1       630 2.51456E+05 5.77425E+04 2.31925E+02 1.24218E+05 8.01174E-09 3.17777E-09
 -1       631 2.48283E+05 6.09004E+04 1.24757E+02 1.27834E+05 2.52294E-08 7.55426E-09
 -1       632 2.51451E+05 5.77470E+04 8.20149E+01 1.24213E+05-3.31966E-09-2.56666E-08
 -1       633 2.48274E+05 6.09027E+04 9.12268E+01 1.27830E+05-8.23957E-09 1.11561E-08
 -1       634 2.51446E+05 5.77448E+04 1.47306E+02 1.24212E+05-1.05719E-08-2.83399E-09
 -1       635 2.48287E+05 6.09015E+04 2.98006E+02 1.27835E+05-3.52004E-09 2.19156E-08
 -1       636 2.51436E+05 5.77396E+04 6.01786E+02 1.24211E+05-9.65883E-09-8.73069E-09
 -1       637 2.48417E+05 6.09952E+04 1.32308E+03 1.27834E+05-1.99714E-09-1.26852E-08
 -1       638 2.51389E+05 5.80321E+04 2.71847E+03 1.24079E+05 5.96629E-10-8.48650E-09
 -1       639 2.49844E+05 6.29812E+04 6.43191E+03 1.27413E+05 5.42173E-09 1.50499E-08
 -1       640 2.51193E+05 6.39613E+04 1.33474E+04 1.21578E+05 8.44102E-09 2.10321E-08
 -1       656 6.44398E+04-1.64750E+06-1.55554E+05-2.16046E+03-2.32831E-10-2.51362E-10
 -1       657-8.52397E+04-1.71778E+06-1.28849E+05 5.63667E+03-5.16593E-10 9.85799E-09
 -1       658 2.05333E+04-1.66747E+06-7.93319E+04-4.14126E+03 5.50244E-11-6.36830E-09
 -1       659-9.21113E+04-1.72105E+06-1.37879E+05 7.24765E+03-1.97088E-09 2.53827E-10
 -1       660 7.12960E+04-1.64425E+06-1.71079E+05-3.77142E+03-2.11730E-09 1.30263E-08
 -1       661 1.60479E+05 1.68850E+04 1.67197E+04 6.27372E+04-1.87265E-09 2.62571E-09
 -1       662 1.69850E+05 2.93467E+04 1.12677E+04 5.90790E+04-1.62089E-09-1.27407E-08
 -1       663 1.63763E+05 2.22492E+04 3.94083E+03 6.17846E+04-4.75393E-09 1.09101E-08
 -1       664 1.66044E+05 2.30732E+04 2.35728E+03 6.02423E+04-1.27105E-09 4.56316E-09
 -1       665 1.64260E+05 2.29823E+04 9.29929E+02 6.16398E+04-4.33147E-11-2.13507E-09
 -1       666 1.65455E+05 2.22345E+04 5.44099E+02 6.04309E+04 5.90674E-09-9.47822E-09
 -1       667 1.64347E+05 2.30661E+04 2.88926E+02 6.16038E+04-5.09829E-10-8.79024E-09
 -1       668 1.65360E+05 2.21738E+04 2.94221E+02 6.04832E+04-3.93202E-09-2.05819E-09
 -1       669 1.64355E+05 2.30413E+04 3.98191E+02 6.15878E+04-3.55800E-09 1.29830E-09
 -1       670 1.65457E+05 2.23897E+04 8.66936E+02 6.04860E+04-5.84484E-09-9.86006E-09
 -1       671 1.64250E+05 2.28546E+04 1.53926E+03 6.15991E+04-1.83789E-10-2.54807E-08
 -1       672 1.66354E+05 2.38872E+04 3.93813E+03 6.02688E+04 2.35792E-09-2.86138E-08
 -1       673 1.63463E+05 2.15816E+04 6.59967E+03 6.17905E+04 4.12615E-09 8.27185E-10
 -1       674 1.72635E+05 3.44900E+04 1.88736E+04 5.84231E+04-2.73496E-09 1.84245E-08
 -1       675 1.58009E+05 1.25488E+04 2.80151E+04 6.33333E+04-2.45245E-09-1.86810E-09
 -1       676 2.35773E+01-2.88933E+05-1.09102E+03-1.08820E+02 1.43595E-09-2.67238E-08
 -1       677-2.89004E+02-2.89197E+05-1.99675E+03 2.17472E+02 7.27857E-09-9.04351E-09
 -1       678 1.93519E+02-2.88745E+05-3.52975E+03-1.08580E+02 4.19732E-10 2.04390E-08
 -1       679-3.53018E+03-2.91328E+05-8.38519E+03 2.16555E+02 8.78697E-09-2.64869E-09
 -1       680 2.10742E+03-2.86803E+05-1.35141E+04-1.06699E+02 2.11458E-09 1.43265E-08
 -1       771-3.00313E+06-7.12169E+05-1.46888E+05-1.42221E+06-3.09665E-08-2.80270E-08
 -1       772-2.93179E+06-7.95167E+05-7.58439E+04-1.51800E+06-2.38069E-08 1.20053E-09
 -1       773-3.03112E+06-6.90264E+05-3.84073E+04-1.43453E+06-1.93249E-08 1.27184E-08
 -1       774-2.92259E+06-7.79031E+05-1.71881E+04-1.54069E+06 2.19152E-08 5.20595E-09
 -1       775-3.04545E+06-6.80172E+05-1.26843E+04-1.44040E+06-7.27596E-10 9.92441E-09
 -1       776-2.93292E+06-7.76609E+05-4.77084E+03-1.55764E+06-1.18016E-08 2.37560E-09
 -1       777-3.05781E+06-6.71226E+05-5.54144E+03-1.44557E+06-3.60887E-09 3.81260E-09
 -1       778-2.94375E+06-7.74382E+05-1.57557E+03-1.57218E+06 8.57108E-09 6.46105E-09
 -1       779-3.06840E+06-6.63438E+05-2.74925E+03-1.45000E+06-1.35915E-08-1.27111E-08
 -1       780-2.95327E+06-7.72255E+05-4.57107E+02-1.58402E+06-1.55560E-08 1.63345E-09
 -1       781-3.07679E+06-6.57176E+05-1.06130E+03-1.45346E+06-2.83180E-08 1.53887E-09
 -1       782-2.96060E+06-7.70440E+05 3.88621E+02-1.59275E+06-3.48591E-08-7.95399E-09
 -1       783-3.08268E+06-6.52837E+05 6.08839E+02-1.45589E+06-7.13771E-09-1.39812E-08
 -1       784-2.96463E+06-7.68570E+05 2.50126E+03-1.59813E+06-1.73059E-08 2.01999E-09
 -1       785-3.08617E+06-6.50254E+05 4.41703E+03-1.45744E+06-3.49064E-08 6.64477E-09
 -1       786 1.25148E+05-9.68174E+03 2.23993E+04-2.88509E+02 1.78677E-09-6.78483E-10
 -1       787 1.34862E+05 1.12091E+04 1.58466E+04-1.07984E+02 5.22376E-09-1.31067E-08
 -1       788 1.28893E+05-1.51727E+03 5.79534E+03-2.55002E+02 3.32021E-09-1.98543E-09
 -1       789 1.30498E+05 1.75599E+03 3.63832E+03-1.59733E+02-7.41526E-10 1.02654E-08
 -1       790 1.29512E+05-2.36359E+02 1.47359E+03-2.36776E+02-3.98209E-09-1.41029E-08
 -1       791 1.29775E+05 2.73377E+02 8.52078E+02-1.91009E+02-5.41337E-09 8.06199E-09
 -1       792 1.29616E+05-3.57661E+01 3.63008E+02-2.23728E+02-4.40793E-09 4.28285E-09
 -1       793 1.29651E+05 3.85289E+01 1.85206E+02-2.15591E+02-7.92246E-10 1.55298E-08
 -1       794 1.29636E+05-1.65933E+00 5.66484E+01-2.12193E+02 3.37766E-09-2.50304E-09
 -1       795 1.29617E+05-2.00492E+01-3.44546E+01-2.39704E+02-4.35711E-09 5.69335E-09
 -1       796 1.29650E+05 2.27797E+01-1.22010E+02-1.99615E+02 2.86162E-09-1.08324E-09
 -1       797 1.29542E+05-1.71324E+02-3.45894E+02-2.68628E+02 4.56932E-09 3.45089E-09
 -1       798 1.29711E+05 1.49501E+02-5.64764E+02-1.83270E+02 2.07371E-09 1.19830E-08
 -1       799 1.29113E+05-1.10226E+03-1.55637E+03-3.08958E+02 5.32891E-09-1.73304E-09
 -1       800 1.30079E+05 9.52948E+02-2.20334E+03-1.59285E+02 6.10587E-11-6.70298E-09
 -1       801-1.15133E+05-8.96106E+06-1.21914E+06 1.16815E+06 8.32952E-08-5.01495E-08
 -1       802 5.78182E+05 4.32911E+06 1.77423E+06-1.41536E+06 2.37058E-07-3.25499E-08
 -1       803-4.42463E+05-1.24205E+07-1.57526E+06 7.43284E+05 7.28542E-08 2.49547E-08
 -1       804 2.24864E+05 1.30780E+06 1.25043E+06 5.96061E+05-1.07666E-07-9.32432E-08
 -1       805 1.68238E+05-5.95486E+06-2.40172E+05-8.38494E+05-4.47180E-08-6.07270E-08
 -1       806-2.98787E+05-5.76394E+04-2.20452E+04-1.18214E+05-1.11713E-08 5.30554E-09
 -1       807-3.00550E+05-5.40124E+04-1.08306E+04-1.23529E+05 1.06804E-08 8.71960E-09
 -1       808-2.99390E+05-4.96974E+04-4.59469E+03-1.21973E+05-7.58519E-09-1.13373E-08
 -1       809-2.98274E+05-5.09682E+04-2.24669E+03-1.23793E+05-1.15990E-08-2.29566E-08
 -1       810-2.99481E+05-4.94209E+04-1.02976E+03-1.22140E+05 3.97176E-09-4.00337E-09
 -1       811-2.98099E+05-5.08457E+04-5.12104E+02-1.23759E+05 6.72435E-09 1.23800E-08
 -1       812-2.99495E+05-4.94445E+04-2.59000E+02-1.22139E+05-4.68754E-09-1.93149E-08
 -1       813-2.98075E+05-5.08477E+04-1.68373E+02-1.23742E+05-6.34282E-09-7.73116E-09
 -1       814-2.99489E+05-4.94536E+04-1.66887E+02-1.22135E+05 3.12866E-09 8.12270E-09
 -1       815-2.98078E+05-5.08498E+04-2.69001E+02-1.23735E+05 1.08921E-08 7.41716E-09
 -1       816-2.99469E+05-4.94525E+04-5.09837E+02-1.22132E+05 8.15453E-09 2.39197E-10
 -1       817-2.98165E+05-5.08983E+04-1.09432E+03-1.23724E+05-1.18944E-08 2.47519E-09
 -1       818-2.99403E+05-4.96066E+04-2.23197E+03-1.22059E+05-1.21599E-09-7.94807E-09
 -1       819-2.99387E+05-5.22470E+04-5.25186E+03-1.23436E+05-1.36833E-09-1.23516E-08
 -1       820-2.98984E+05-5.35725E+04-1.06894E+04-1.20364E+05 1.41517E-09 1.46574E-08
 -1       821-3.69038E+05 2.03316E+04-4.71511E+04 1.59308E+03 1.13575E-08-5.91899E-09
 -1       822-3.88933E+05-2.35433E+04-3.32722E+04-3.12784E+03 2.73848E-09 9.25684E-09
 -1       823-3.76641E+05 3.19548E+03-1.21956E+04 2.36356E+03-8.81784E-09 3.76076E-09
 -1       824-3.79896E+05-3.69046E+03-7.65466E+03-3.53611E+03 2.31951E-10 1.66006E-09
 -1       825-3.78075E+05 4.96545E+02-3.17907E+03 2.00140E+03 1.48980E-08-1.13681E-08
 -1       826-3.77958E+05-5.69956E+02-1.80067E+03-1.87970E+03 1.84892E-08-1.98412E-08
 -1       827-3.78567E+05 6.81018E+01-1.06912E+03 7.07094E+02 7.32697E-09 5.71504E-10
 -1       828-3.77562E+05-1.57232E+02-7.33579E+02 9.42560E+02-6.42665E-10-9.33071E-09
 -1       829-3.78466E+05 8.02175E+01-1.07059E+03-8.20897E+02 8.25821E-10 6.13917E-09
 -1       830-3.78184E+05-6.10088E+02-1.91089E+03 3.40300E+03-4.75520E-10 9.84213E-09
 -1       831-3.77956E+05 5.29290E+02-3.27220E+03-1.75338E+03-4.38239E-09-2.10332E-09
 -1       832-3.79983E+05-3.84393E+03-7.95171E+03 4.16744E+03-3.29359E-09-8.57426E-09
 -1       833-3.76675E+05 3.31670E+03-1.26788E+04-1.58535E+03-3.06699E-09-5.30781E-09
 -1       834-3.89126E+05-2.44407E+04-3.45003E+04 2.79706E+03-2.16205E-09-1.46920E-08
 -1       835-3.68806E+05 2.11024E+04-4.89766E+04-3.82958E+02 5.35319E-09-1.94996E-08
 -1       836-1.35012E+03 3.56159E+05 2.19856E+04-1.62813E+04-5.94082E-09 4.76666E-09
 -1       837 4.70064E+03 3.63039E+05 1.86301E+04-3.31600E+04-6.28836E-09 8.39555E-09
 -1       838-5.30976E+02 3.58085E+05 1.90184E+04-1.62108E+04-5.17412E-09 2.12456E-08
 -1       839 1.19973E+04 3.68473E+05 3.60132E+04-3.32103E+04-5.63159E-09 2.81539E-08
 -1       840-3.69957E+03 3.50668E+05 5.74434E+04-1.62356E+04-5.07134E-09-8.38613E-09
 -1       856-5.63275E+04 7.96801E+03-2.09975E+04-3.98912E+02 2.32455E-09-1.38880E-09
 -1       857-6.49814E+04-9.35952E+03-1.44547E+04 5.50198E+03 7.08403E-09-8.14202E-09
 -1       858-5.97534E+04 1.11728E+03-5.44848E+03-4.22827E+02 1.18706E-09-8.57608E-09
 -1       859-6.10495E+04-1.31197E+03-3.28821E+03 5.53793E+03-2.65882E-09 3.20557E-09
 -1       860-6.02653E+04 1.56312E+02-1.37859E+03-4.34648E+02 1.98656E-09 1.23279E-08
 -1       861-6.04606E+04-1.84291E+02-7.59437E+02 5.55405E+03-6.65530E-10 9.73978E-09
 -1       862-6.03453E+04 2.10849E+01-3.17789E+02-4.38943E+02 2.28307E-09 8.58509E-09
 -1       863-6.03629E+04-1.98531E+01-1.20532E+02 5.55648E+03-3.03893E-09 3.38163E-09
 -1       864-6.03635E+04-4.40029E+00 3.61308E+01-4.37077E+02-1.87507E-09-1.94412E-08
 -1       865-6.03105E+04 5.62469E+01 2.29545E+02 5.54602E+03-1.20275E-09-5.35682E-09
 -1       866-6.03956E+04-5.50924E+01 4.68106E+02-4.28481E+02-4.24336E-10-2.77083E-08
 -1       867-6.00889E+04 4.55571E+02 1.15576E+03 5.52265E+03 7.54596E-10 1.46847E-08
 -1       868-6.05804E+04-3.96687E+02 1.92136E+03-4.13705E+02-1.91932E-09 1.33334E-08
 -1       869-5.86791E+04 3.30140E+03 5.11728E+03 5.48400E+03 1.78699E-09-3.30040E-08
 -1       870-6.17979E+04-2.82388E+03 7.42610E+03-3.89752E+02-4.70550E-09-1.94677E-09
 -1       871-5.37699E+03-1.95891E+04-1.87599E+04 1.25395E+05-3.75621E-09 8.18545E-12
 -1       872-1.99219E+03-2.39298E+04-7.83432E+03 1.62590E+05-9.78343E-09 1.22723E-08
 -1       873 3.26886E+02-2.18406E+04 6.20326E+02 1.25119E+05-5.43514E-09 1.41426E-09
 -1       874 3.12850E+03-1.94743E+04 9.53595E+03 1.62621E+05-9.52150E-09-1.65026E-08
 -1       875 6.59589E+03-2.41119E+04 2.14715E+04 1.25349E+05-3.96722E-09-1.37688E-08
 -1       876 2.85023E+05 4.81504E+04 1.46987E+04 1.14514E+05 7.79573E-09-2.31739E-09
 -1       877 2.85983E+05 5.12579E+04 7.84964E+03 1.18741E+05 6.89829E-09-2.37477E-08
 -1       878 2.86398E+05 4.65225E+04 3.28861E+03 1.15719E+05-3.64662E-09-2.53294E-10
 -1       879 2.83985E+05 4.92642E+04 1.63856E+03 1.18841E+05 1.41949E-09 1.17288E-08
 -1       880 2.86496E+05 4.65056E+04 7.63196E+02 1.15768E+05-2.47428E-09 1.58435E-08
 -1       881 2.83852E+05 4.91790E+04 4.07495E+02 1.18818E+05-1.07252E-08-7.53205E-09
 -1       882 2.86505E+05 4.65184E+04 2.60583E+02 1.15769E+05 5.93900E-10-1.42093E-08
 -1       883 2.83843E+05 4.91746E+04 2.79963E+02 1.18811E+05 1.14185E-08 1.56264E-08
 -1       884 2.86499E+05 4.65157E+04 4.45196E+02 1.15770E+05 9.38303E-09 2.11003E-09
 -1       885 2.83878E+05 4.91807E+04 8.94991E+02 1.18822E+05 1.07946E-09-6.48453E-09
 -1       886 2.86464E+05 4.64896E+04 1.80377E+03 1.15766E+05-2.31643E-09 1.24990E-08
 -1       887 2.84195E+05 4.93886E+04 3.94007E+03 1.18868E+05 5.53376E-09 6.68354E-09
 -1       888 2.86215E+05 4.65334E+04 7.93936E+03 1.15640E+05-6.72202E-09-9.46056E-09
 -1       889 2.88922E+05 5.43037E+04 1.89657E+04 1.18722E+05-3.71809E-09-1.61131E-08
 -1       890 2.82976E+05 5.03816E+04 3.55223E+04 1.12617E+05-5.84350E-10 5.38785E-09
 -1       891-9.83740E+01-1.58310E+05-1.93579E+03 2.67758E+04-9.24501E-10 1.08275E-09
 -1       892-1.87996E+02-1.58816E+05-2.08099E+03 4.06391E+04 1.33059E-09 1.31031E-08
 -1       893 3.05614E+01-1.58372E+05-2.94842E+03 2.67828E+04-1.53045E-09-1.01868E-08
 -1       894-1.48497E+03-1.59931E+05-6.10356E+03 4.04894E+04 9.04038E-10-4.60386E-09
 -1       895-1.17693E+03-1.57101E+05-1.07489E+04 2.69267E+04 4.75779E-10 9.63792E-09
 -1       956-3.65297E+05-5.25305E+03-1.30088E+04 2.91692E+04 6.49379E-09-7.30984E-09
 -1       957-3.67852E+05-1.83983E+03-6.67735E+03 3.50653E+04 3.45608E-10-1.05338E-08
 -1       958-3.66464E+05-2.17282E+02-3.00893E+03 2.90081E+04-1.89448E-09-8.36553E-09
 -1       959-3.66656E+05-1.13602E+02-1.53649E+03 3.52513E+04 3.24417E-09-2.56659E-09
 -1       960-3.66576E+05-2.86447E+01-7.49247E+02 2.89917E+04 4.37649E-09 6.41376E-09
 -1       961-3.66577E+05-4.37801E+01-3.97316E+02 3.52707E+04 1.05435E-08 9.70454E-09
 -1       962-3.66602E+05-3.03888E+01-2.27525E+02 2.89890E+04 2.33740E-09 3.20370E-10
 -1       963-3.66577E+05-4.00662E+01-1.82756E+02 3.52741E+04 3.88900E-09-2.56182E-09
 -1       964-3.66607E+05-2.72399E+01-2.22326E+02 2.89882E+04-1.42578E-09 1.14026E-08
 -1       965-3.66589E+05-3.70665E+01-3.84598E+02 3.52735E+04-1.01908E-08 3.32329E-09
 -1       966-3.66592E+05-1.92853E+01-7.22618E+02 2.89896E+04 3.80965E-09 5.48880E-10
 -1       967-3.66677E+05-9.80020E+01-1.48212E+03 3.52601E+04 4.66434E-09-4.25985E-09
 -1       968-3.66493E+05-1.95202E+02-2.90134E+03 2.90015E+04-2.88765E-10-1.67145E-08
 -1       969-3.67841E+05-1.75782E+03-6.44104E+03 3.51207E+04-5.14319E-10-2.72048E-08
 -1       970-3.65375E+05-5.04899E+03-1.25473E+04 2.91224E+04-7.59883E-10-1.23782E-09
 -1       971-3.35605E+05-1.68700E+03-9.13087E+03 1.50647E+04 5.08953E-09-1.66908E-08
 -1       972-3.37806E+05-1.23741E+03-4.97257E+03 2.08660E+04 4.41105E-09 2.04318E-08
 -1       973-3.36622E+05-5.37363E+01-2.22720E+03 1.49450E+04 2.48292E-10 7.54517E-09
 -1       974-3.36758E+05-6.96712E+01-1.15442E+03 2.10007E+04 6.37147E-09-1.00838E-08
 -1       975-3.36702E+05-9.83447E+00-5.77305E+02 1.49329E+04-2.72848E-11 1.36920E-08
 -1       976-3.36697E+05-2.08736E+01-3.33516E+02 2.10160E+04 2.85763E-09-5.96015E-09
 -1       977-3.36718E+05-9.19101E+00-2.42875E+02 1.49297E+04 1.82263E-09-1.69155E-09
 -1       978-3.36702E+05-1.48378E+01-2.85323E+02 2.10207E+04 3.56545E-09 6.33736E-09
 -1       979-3.36718E+05-9.85772E-01-4.59378E+02 1.49283E+04-1.22668E-09-1.14852E-08
 -1       980-3.36737E+05-1.18709E+01-8.87599E+02 2.10216E+04-3.91798E-09 1.12967E-08
 -1       981-3.36690E+05 2.11911E+01-1.71939E+03 1.49288E+04 4.44459E-09-2.19153E-08
 -1       982-3.36973E+05-1.38907E+02-3.55411E+03 2.10151E+04 1.22373E-09-4.21214E-08
 -1       983-3.36473E+05-8.88952E+01-6.90575E+03 1.49348E+04-1.19917E-09-7.63794E-09
 -1       984-3.40294E+05-3.74555E+03-1.54651E+04 2.09310E+04 2.86514E-09 1.09447E-08
 -1       985-3.33347E+05-5.14210E+03-2.83988E+04 1.50070E+04-4.84260E-09 2.09675E-08
 -3
    1PSTEP                        33          17           1          
  100CL  117 6.52222E-01         409                     0   17           1
 -4  DISP        4    1
 -5  D1          1    2    1    0
 -5  D2          1    2    2    0
 -5  D3          1    2    3    0
 -5  ALL         1    2    0    0    1ALL
 -1         1 2.33334E-03 0.00000E+00 0.00000E+00
 -1         2 1.63634E-03-5.08365E-27 0.00000E+00
 -1         3 3.31456E-04-7.52022E-28 1.32349E-23
 -1         5 1.71297E-04 2.85346E-28-2.89513E-24
 -1         8 2.31785E-03-4.80790E-07 0.00000E+00
 -1         9 2.28475E-03-4.81866E-05 0.00000E+00
 -1        10 2.98859E-04-3.67165E-06 0.00000E+00
 -1        12 1.72913E-04 7.87835E-07 5.16988E-25
 -1        15 2.29921E-03-5.22698E-07 0.00000E+00
 -1        16 2.32213E-03-4.95247E-05 0.00000E+00
 -1        17 2.02420E-04-8.11795E-06 0.00000E+00
 -1        18 1.76206E-04 3.12205E-05 0.00000E+00
 -1        19 1.77762E-04 1.56989E-06 0.00000E+00
 -1        20 1.77904E-04-7.32543E-06 0.00000E+00
 -1        21 1.77044E-04-1.99824E-05 0.00000E+00
 -1        24 3.00699E-05-1.21437E-05 0.00000E+00
 -1        25 1.85830E-04 3.14379E-05 0.00000E+00
 -1        26 1.86523E-04 2.17459E-06 0.00000E+00
 -1        27 1.84381E-04-1.08008E-05 0.00000E+00
 -1        28 1.84051E-04-2.05932E-05 0.00000E+00
 -1        32 0.00000E+00 0.00000E+00 0.00000E+00
 -1        33 1.94264E-04 2.90985E-06 0.00000E+00
 -1        34 1.92194E-04-1.08529E-05 0.00000E+00
 -1        35 1.90302E-04-2.09281E-05 0.00000E+00
 -1        51 2.33234E-03-9.38884E-08 0.00000E+00
 -1        52 2.33048E-03-1.71755E-07 0.00000E+00
 -1        53 2.32793E-03-2.47145E-07 0.00000E+00
 -1        54 2.32486E-03-3.22251E-07 0.00000E+00
 -1        55 2.32144E-03-3.98708E-07 1.24077E-24
 -1        56 2.32891E-03 1.26253E-06-5.29396E-23
 -1        57 2.32253E-03 7.27161E-06 0.00000E+00
 -1        58 2.31479E-03 1.68233E-05 0.00000E+00
 -1        59 2.30625E-03 2.83530E-05-5.29396E-23
 -1        60 2.29768E-03 3.99904E-05 1.05879E-22
 -1        61 2.28979E-03 4.98469E-05 0.00000E+00
 -1        62 2.28320E-03 5.63302E-05 1.05879E-22
 -1        63 2.27839E-03 5.81237E-05 0.00000E+00
 -1        64 2.27555E-03 5.46920E-05 0.00000E+00
 -1        65 2.27468E-03 4.59349E-05-5.29396E-23
 -1        66 2.27546E-03 3.26460E-05 0.00000E+00
 -1        67 2.27746E-03 1.60021E-05-5.29396E-23
 -1        68 2.28003E-03-2.25389E-06 1.05879E-22
 -1        69 2.28252E-03-2.02342E-05 5.29396E-23
 -1        70 2.28426E-03-3.61116E-05 0.00000E+00
 -1        86 1.67633E-03-2.14012E-06-2.64698E-23
 -1        87 1.79404E-03-1.01948E-05 0.00000E+00
 -1        88 1.95265E-03-2.34264E-05 0.00000E+00
 -1        89 2.11358E-03-3.70216E-05 1.32349E-23
 -1        90 2.23703E-03-4.57189E-05 2.64698E-23
 -1       121 3.30539E-04-5.93624E-07 1.32349E-23
 -1       122 3.27792E-04-1.19046E-06-6.61744E-24
 -1       123 3.23227E-04-1.79368E-06-1.32349E-23
 -1       124 3.16864E-04-2.40637E-06 6.61744E-24
 -1       125 3.08729E-04-3.03131E-06 0.00000E+00
 -1       191 1.71342E-04 1.31356E-07-3.10193E-24
 -1       192 1.71476E-04 2.62702E-07-1.03398E-25
 -1       193 1.71701E-04 3.94033E-07 3.10193E-24
 -1       194 1.72015E-04 5.25340E-07 6.20385E-25
 -1       195 1.72419E-04 6.56610E-07-2.48154E-24
 -1       251 2.31713E-03 1.65715E-05 0.00000E+00
 -1       252 2.31560E-03 6.11011E-05-6.61744E-24
 -1       253 2.31310E-03 1.24806E-04 1.32349E-23
 -1       254 2.30990E-03 1.98945E-04-6.61744E-24
 -1       255 2.30678E-03 2.71964E-04 1.32349E-23
 -1       256 2.30448E-03 3.32333E-04 0.00000E+00
 -1       257 2.30313E-03 3.71927E-04-1.32349E-23
 -1       258 2.30249E-03 3.83094E-04 6.61744E-24
 -1       259 2.30175E-03 3.65524E-04 1.32349E-23
 -1       260 2.30015E-03 3.19597E-04-6.61744E-24
 -1       261 2.29746E-03 2.53018E-04 0.00000E+00
 -1       262 2.29390E-03 1.73958E-04 0.00000E+00
 -1       263 2.29027E-03 9.39479E-05 0.00000E+00
 -1       264 2.28739E-03 2.45382E-05 0.00000E+00
 -1       265 2.28560E-03-2.55915E-05-2.64698E-23
 -1       266 2.31474E-03-4.94831E-07 3.30872E-24
 -1       267 2.31163E-03-5.00956E-07 0.00000E+00
 -1       268 2.30853E-03-5.07581E-07-8.27181E-25
 -1       269 2.30542E-03-5.12722E-07-2.06795E-25
 -1       270 2.30232E-03-5.17828E-07 0.00000E+00
 -1       271 2.31601E-03 2.15878E-06 0.00000E+00
 -1       272 2.31432E-03 4.33877E-06-1.32349E-23
 -1       273 2.31284E-03 5.97978E-06 2.64698E-23
 -1       274 2.31158E-03 6.99665E-06-1.32349E-23
 -1       275 2.31059E-03 7.31338E-06-2.64698E-23
 -1       276 2.30989E-03 6.85926E-06 1.32349E-23
 -1       277 2.30950E-03 5.57161E-06 0.00000E+00
 -1       278 2.30944E-03 3.39553E-06 1.32349E-23
 -1       279 2.30973E-03 2.85025E-07 2.64698E-23
 -1       280 2.31038E-03-3.79694E-06-1.32349E-23
 -1       281 2.31140E-03-8.87765E-06-2.64698E-23
 -1       282 2.31280E-03-1.49749E-05 1.32349E-23
 -1       283 2.31457E-03-2.20962E-05 0.00000E+00
 -1       284 2.31672E-03-3.02386E-05 1.32349E-23
 -1       285 2.31924E-03-3.93905E-05 0.00000E+00
 -1       301 2.29158E-03-4.84355E-05-6.61744E-24
 -1       302 2.29712E-03-4.86487E-05 0.00000E+00
 -1       303 2.30216E-03-4.88566E-05 0.00000E+00
 -1       304 2.30749E-03-4.90647E-05 0.00000E+00
 -1       305 2.31389E-03-4.92807E-05 2.64698E-23
 -1       306 2.31978E-03-1.87350E-04 0.00000E+00
 -1       307 2.38434E-03-5.69928E-04 5.29396E-23
 -1       308 2.43822E-03-1.13470E-03 0.00000E+00
 -1       309 2.47299E-03-1.79461E-03-5.29396E-23
 -1       310 2.51223E-03-2.43335E-03 0.00000E+00
 -1       311 2.57349E-03-2.93657E-03 5.29396E-23
 -1       312 2.63298E-03-3.22800E-03-1.05879E-22
 -1       313 2.63921E-03-3.26675E-03 0.00000E+00
 -1       314 2.52811E-03-3.06010E-03-1.05879E-22
 -1       315 2.26098E-03-2.66116E-03 0.00000E+00
 -1       316 1.85139E-03-2.14026E-03-1.05879E-22
 -1       317 1.35478E-03-1.56446E-03 0.00000E+00
 -1       318 8.71560E-04-9.96818E-04 1.05879E-22
 -1       319 4.98177E-04-5.02722E-04-5.29396E-23
 -1       320 2.75976E-04-1.50851E-04 1.05879E-22
 -1       336 2.87189E-04-4.35399E-06-1.32349E-23
 -1       337 2.73663E-04-5.05884E-06 6.61744E-24
 -1       338 2.58344E-04-5.78807E-06 1.32349E-23
 -1       339 2.41308E-04-6.54165E-06 0.00000E+00
 -1       340 2.22636E-04-7.32337E-06 1.32349E-23
 -1       406 1.73497E-04 9.18997E-07 4.13590E-25
 -1       407 1.74170E-04 1.05006E-06-5.16988E-25
 -1       408 1.74934E-04 1.18099E-06-2.48154E-24
 -1       409 1.75787E-04 1.31160E-06 4.13590E-25
 -1       410 1.76730E-04 1.44164E-06 1.65436E-24
 -1       521 2.35790E-03-1.97569E-04 0.00000E+00
 -1       522 2.42134E-03-5.99272E-04 5.29396E-23
 -1       523 2.47010E-03-1.19040E-03 0.00000E+00
 -1       524 2.49714E-03-1.87769E-03 5.29396E-23
 -1       525 2.52956E-03-2.54209E-03 1.05879E-22
 -1       526 2.58767E-03-3.06670E-03 5.29396E-23
 -1       527 2.64683E-03-3.36925E-03-2.11758E-22
 -1       528 2.65150E-03-3.40773E-03 0.00000E+00
 -1       529 2.53094E-03-3.18897E-03 0.00000E+00
 -1       530 2.24401E-03-2.77267E-03 0.00000E+00
 -1       531 1.80460E-03-2.23257E-03 0.00000E+00
 -1       532 1.27352E-03-1.63872E-03-5.29396E-23
 -1       533 7.56029E-04-1.05253E-03 1.05879E-22
 -1       534 3.53354E-04-5.37916E-04 0.00000E+00
 -1       535 1.12255E-04-1.67471E-04 0.00000E+00
 -1       536 2.01723E-04 2.51026E-05 6.61744E-24
 -1       537 1.99967E-04 8.27173E-05 0.00000E+00
 -1       538 1.97259E-04 1.55866E-04 3.30872E-24
 -1       539 1.94066E-04 2.35607E-04 1.65436E-24
 -1       540 1.91190E-04 3.10966E-04 0.00000E+00
 -1       541 1.89317E-04 3.70990E-04 1.65436E-24
 -1       542 1.88446E-04 4.09201E-04-3.30872E-24
 -1       543 1.88230E-04 4.19258E-04 1.65436E-24
 -1       544 1.87923E-04 4.01915E-04 3.30872E-24
 -1       545 1.86836E-04 3.58130E-04 0.00000E+00
 -1       546 1.84826E-04 2.95698E-04 3.30872E-24
 -1       547 1.82113E-04 2.22526E-04 0.00000E+00
 -1       548 1.79428E-04 1.49751E-04 0.00000E+00
 -1       549 1.77488E-04 8.85058E-05 0.00000E+00
 -1       550 1.76477E-04 4.64749E-05-1.65436E-24
 -1       551 1.78434E-04-8.66593E-06 0.00000E+00
 -1       552 1.51306E-04-9.28732E-06 0.00000E+00
 -1       553 1.21963E-04-9.96575E-06-1.15805E-23
 -1       554 9.13483E-05-1.06816E-05-6.61744E-24
 -1       555 6.04044E-05-1.14091E-05 0.00000E+00
 -1       556 1.95180E-04 1.04162E-05 5.29396E-23
 -1       557 1.89339E-04 2.54240E-05 0.00000E+00
 -1       558 1.84768E-04 3.71818E-05 0.00000E+00
 -1       559 1.81341E-04 4.59882E-05 0.00000E+00
 -1       560 1.78932E-04 5.21418E-05 0.00000E+00
 -1       561 1.77421E-04 5.59436E-05 0.00000E+00
 -1       562 1.76686E-04 5.76960E-05 0.00000E+00
 -1       563 1.76608E-04 5.77020E-05 0.00000E+00
 -1       564 1.77072E-04 5.62655E-05 0.00000E+00
 -1       565 1.77961E-04 5.36910E-05 0.00000E+00
 -1       566 1.79160E-04 5.02836E-05 0.00000E+00
 -1       567 1.80556E-04 4.63486E-05 0.00000E+00
 -1       568 1.82034E-04 4.21915E-05 8.27181E-25
 -1       569 1.83481E-04 3.81177E-05 0.00000E+00
 -1       570 1.84784E-04 3.44329E-05 0.00000E+00
 -1       571 1.76300E-04 2.92983E-05 1.65436E-24
 -1       572 1.76396E-04 2.73125E-05-8.27181E-25
 -1       573 1.76493E-04 2.52784E-05-3.30872E-24
 -1       574 1.76590E-04 2.32113E-05-8.27181E-25
 -1       575 1.76688E-04 2.11272E-05-3.30872E-24
 -1       576 1.76785E-04 1.90415E-05 0.00000E+00
 -1       577 1.76882E-04 1.69702E-05 0.00000E+00
 -1       578 1.76979E-04 1.49290E-05 0.00000E+00
 -1       579 1.77077E-04 1.29336E-05 0.00000E+00
 -1       580 1.77174E-04 1.09998E-05 0.00000E+00
 -1       581 1.77272E-04 9.14348E-06 6.61744E-24
 -1       582 1.77370E-04 7.38025E-06 0.00000E+00
 -1       583 1.77468E-04 5.72589E-06 6.61744E-24
 -1       584 1.77566E-04 4.19598E-06-3.30872E-24
 -1       585 1.77664E-04 2.80594E-06-6.61744E-24
 -1       586 1.77767E-04 3.12588E-05 0.00000E+00
 -1       587 1.79290E-04 3.12966E-05 0.00000E+00
 -1       588 1.80815E-04 3.13340E-05 0.00000E+00
 -1       589 1.82385E-04 3.13707E-05 0.00000E+00
 -1       590 1.84043E-04 3.14062E-05 0.00000E+00
 -1       591 1.76862E-04 2.93867E-05-2.06795E-25
 -1       592 1.77521E-04 2.75321E-05 0.00000E+00
 -1       593 1.78186E-04 2.56624E-05 8.27181E-25
 -1       594 1.78854E-04 2.37825E-05 4.13590E-25
 -1       595 1.79524E-04 2.18973E-05 0.00000E+00
 -1       596 1.80195E-04 2.00115E-05-4.13590E-25
 -1       597 1.80863E-04 1.81299E-05 0.00000E+00
 -1       598 1.81529E-04 1.62573E-05 0.00000E+00
 -1       599 1.82189E-04 1.43984E-05 0.00000E+00
 -1       600 1.82842E-04 1.25581E-05 0.00000E+00
 -1       601 1.83487E-04 1.07412E-05 8.27181E-25
 -1       602 1.84121E-04 8.95227E-06-2.06795E-25
 -1       603 1.84743E-04 7.19623E-06 4.13590E-25
 -1       604 1.85351E-04 5.47795E-06-1.80946E-25
 -1       605 1.85944E-04 3.80210E-06 0.00000E+00
 -1       606 1.77775E-04 5.60181E-07 0.00000E+00
 -1       607 1.77785E-04-3.62335E-07 0.00000E+00
 -1       608 1.77794E-04-1.20278E-06 0.00000E+00
 -1       609 1.77803E-04-1.96691E-06 0.00000E+00
 -1       610 1.77811E-04-2.66057E-06 0.00000E+00
 -1       611 1.77820E-04-3.28964E-06 0.00000E+00
 -1       612 1.77828E-04-3.86000E-06 0.00000E+00
 -1       613 1.77837E-04-4.37757E-06 0.00000E+00
 -1       614 1.77845E-04-4.84823E-06-1.65436E-24
 -1       615 1.77854E-04-5.27790E-06 0.00000E+00
 -1       616 1.77863E-04-5.67247E-06 1.65436E-24
 -1       617 1.77871E-04-6.03785E-06 0.00000E+00
 -1       618 1.77880E-04-6.37993E-06-8.27181E-25
 -1       619 1.77888E-04-6.70462E-06-2.06795E-25
 -1       620 1.77896E-04-7.01782E-06-2.06795E-25
 -1       621 1.78957E-04 1.67117E-06-1.65436E-24
 -1       622 1.80300E-04 1.77271E-06 8.27181E-25
 -1       623 1.81759E-04 1.87407E-06 3.30872E-24
 -1       624 1.83303E-04 1.97514E-06 1.65436E-24
 -1       625 1.84901E-04 2.07593E-06-3.30872E-24
 -1       626 1.78250E-04 5.95366E-07 0.00000E+00
 -1       627 1.78715E-04-3.14264E-07 0.00000E+00
 -1       628 1.79159E-04-1.16686E-06 0.00000E+00
 -1       629 1.79584E-04-1.97060E-06 1.65436E-24
 -1       630 1.79995E-04-2.73371E-06-6.61744E-24
 -1       631 1.80393E-04-3.46441E-06 1.65436E-24
 -1       632 1.80782E-04-4.17094E-06 0.00000E+00
 -1       633 1.81165E-04-4.86153E-06 1.65436E-24
 -1       634 1.81546E-04-5.54442E-06 0.00000E+00
 -1       635 1.81926E-04-6.22783E-06 0.00000E+00
 -1       636 1.82310E-04-6.92000E-06-3.30872E-24
 -1       637 1.82700E-04-7.62917E-06 0.00000E+00
 -1       638 1.83100E-04-8.36357E-06 0.00000E+00
 -1       639 1.83511E-04-9.13146E-06-8.27181E-25
 -1       640 1.83938E-04-9.94109E-06 0.00000E+00
 -1       656 1.78444E-04-7.89035E-06-6.61744E-24
 -1       657 1.79399E-04-8.47820E-06 0.00000E+00
 -1       658 1.80631E-04-9.06465E-06 0.00000E+00
 -1       659 1.81994E-04-9.65075E-06-6.61744E-24
 -1       660 1.83305E-04-1.02386E-05 0.00000E+00
 -1       661 1.78107E-04-7.67659E-06-8.27181E-25
 -1       662 1.78345E-04-8.11659E-06 0.00000E+00
 -1       663 1.78616E-04-8.64050E-06 1.65436E-24
 -1       664 1.78915E-04-9.24212E-06-8.27181E-25
 -1       665 1.79242E-04-9.91590E-06 1.65436E-24
 -1       666 1.79594E-04-1.06562E-05 0.00000E+00
 -1       667 1.79969E-04-1.14577E-05 0.00000E+00
 -1       668 1.80364E-04-1.23151E-05 0.00000E+00
 -1       669 1.80779E-04-1.32232E-05 1.65436E-24
 -1       670 1.81210E-04-1.41771E-05 0.00000E+00
 -1       671 1.81657E-04-1.51717E-05 1.65436E-24
 -1       672 1.82117E-04-1.62023E-05 0.00000E+00
 -1       673 1.82589E-04-1.72642E-05-1.65436E-24
 -1       674 1.83070E-04-1.83530E-05 8.27181E-25
 -1       675 1.83560E-04-1.94635E-05 4.13590E-25
 -1       676 1.78216E-04-2.00848E-05 0.00000E+00
 -1       677 1.79387E-04-2.01872E-05-1.65436E-24
 -1       678 1.80556E-04-2.02895E-05 0.00000E+00
 -1       679 1.81724E-04-2.03915E-05 1.65436E-24
 -1       680 1.82889E-04-2.04934E-05 1.65436E-24
 -1       771 1.87059E-05 1.31964E-05 0.00000E+00
 -1       772 9.13297E-06 3.40121E-05 0.00000E+00
 -1       773 1.26526E-06 5.05233E-05 5.29396E-23
 -1       774-5.01413E-06 6.29755E-05 0.00000E+00
 -1       775-9.81978E-06 7.16242E-05 0.00000E+00
 -1       776-1.32709E-05 7.67403E-05-2.64698E-23
 -1       777-1.54865E-05 7.86039E-05 5.29396E-23
 -1       778-1.65882E-05 7.75082E-05 0.00000E+00
 -1       779-1.66970E-05 7.37541E-05 0.00000E+00
 -1       780-1.59361E-05 6.76531E-05 0.00000E+00
 -1       781-1.44277E-05 5.95229E-05 0.00000E+00
 -1       782-1.22955E-05 4.96895E-05 2.64698E-23
 -1       783-9.66265E-06 3.84832E-05 5.29396E-23
 -1       784-6.65326E-06 2.62400E-05-2.64698E-23
 -1       785-3.39071E-06 1.32986E-05 5.29396E-23
 -1       786 1.85869E-04 2.93852E-05 0.00000E+00
 -1       787 1.85912E-04 2.73817E-05-4.13590E-25
 -1       788 1.85955E-04 2.54192E-05 8.27181E-25
 -1       789 1.85998E-04 2.34896E-05 0.00000E+00
 -1       790 1.86041E-04 2.15882E-05-1.65436E-24
 -1       791 1.86085E-04 1.97105E-05 0.00000E+00
 -1       792 1.86128E-04 1.78543E-05 0.00000E+00
 -1       793 1.86172E-04 1.60173E-05 8.27181E-25
 -1       794 1.86216E-04 1.41995E-05 0.00000E+00
 -1       795 1.86259E-04 1.24007E-05 0.00000E+00
 -1       796 1.86303E-04 1.06229E-05-1.65436E-24
 -1       797 1.86347E-04 8.86789E-06 8.27181E-25
 -1       798 1.86391E-04 7.13992E-06 1.65436E-24
 -1       799 1.86435E-04 5.44334E-06 0.00000E+00
 -1       800 1.86479E-04 3.78569E-06 1.65436E-24
 -1       801 1.42765E-04 2.82072E-05 2.64698E-23
 -1       802 1.24320E-05 1.76927E-05 2.64698E-23
 -1       803-9.93709E-05 8.99467E-06 0.00000E+00
 -1       804-8.89214E-05 6.23402E-06-2.64698E-23
 -1       805-2.94646E-05 2.49964E-06 0.00000E+00
 -1       806 1.86488E-04 2.93184E-05-1.65436E-24
 -1       807 1.87131E-04 2.72248E-05 1.65436E-24
 -1       808 1.87763E-04 2.51623E-05 0.00000E+00
 -1       809 1.88381E-04 2.31347E-05 0.00000E+00
 -1       810 1.88984E-04 2.11459E-05-3.30872E-24
 -1       811 1.89571E-04 1.91998E-05 0.00000E+00
 -1       812 1.90141E-04 1.73000E-05 0.00000E+00
 -1       813 1.90692E-04 1.54504E-05 0.00000E+00
 -1       814 1.91223E-04 1.36548E-05 0.00000E+00
 -1       815 1.91733E-04 1.19168E-05-1.65436E-24
 -1       816 1.92219E-04 1.02403E-05 1.65436E-24
 -1       817 1.92682E-04 8.62901E-06 0.00000E+00
 -1       818 1.93118E-04 7.08658E-06 3.30872E-24
 -1       819 1.93528E-04 5.61680E-06 0.00000E+00
 -1       820 1.93910E-04 4.22334E-06-3.30872E-24
 -1       821 1.86397E-04 1.59527E-07 0.00000E+00
 -1       822 1.86261E-04-2.70563E-06 1.65436E-24
 -1       823 1.86124E-04-6.08576E-06-3.30872E-24
 -1       824 1.85985E-04-9.64258E-06 0.00000E+00
 -1       825 1.85847E-04-1.29909E-05 3.30872E-24
 -1       826 1.85710E-04-1.57466E-05 0.00000E+00
 -1       827 1.85575E-04-1.76847E-05 0.00000E+00
 -1       828 1.85441E-04-1.85849E-05 1.65436E-24
 -1       829 1.85307E-04-1.85053E-05 0.00000E+00
 -1       830 1.85174E-04-1.75098E-05-1.65436E-24
 -1       831 1.85039E-04-1.59079E-05 0.00000E+00
 -1       832 1.84904E-04-1.40127E-05 0.00000E+00
 -1       833 1.84770E-04-1.22159E-05 0.00000E+00
 -1       834 1.84638E-04-1.09089E-05 1.65436E-24
 -1       835 1.84506E-04-1.03520E-05 8.27181E-25
 -1       836 1.88020E-04 2.29657E-06 0.00000E+00
 -1       837 1.89392E-04 2.42158E-06-1.65436E-24
 -1       838 1.90671E-04 2.54652E-06 0.00000E+00
 -1       839 1.91888E-04 2.67075E-06-8.27181E-25
 -1       840 1.93075E-04 2.79483E-06 0.00000E+00
 -1       856 1.84364E-04-1.16825E-05-8.27181E-25
 -1       857 1.84344E-04-1.24307E-05-3.23117E-27
 -1       858 1.84324E-04-1.30661E-05 4.13590E-25
 -1       859 1.84303E-04-1.36095E-05-2.06795E-25
 -1       860 1.84283E-04-1.40819E-05-4.13590E-25
 -1       861 1.84262E-04-1.45042E-05 0.00000E+00
 -1       862 1.84241E-04-1.48974E-05 0.00000E+00
 -1       863 1.84220E-04-1.52826E-05 0.00000E+00
 -1       864 1.84200E-04-1.56808E-05 0.00000E+00
 -1       865 1.84179E-04-1.61131E-05-4.13590E-25
 -1       866 1.84158E-04-1.66003E-05 8.27181E-25
 -1       867 1.84137E-04-1.71636E-05-4.13590E-25
 -1       868 1.84116E-04-1.78237E-05 0.00000E+00
 -1       869 1.84095E-04-1.86016E-05-4.13590E-25
 -1       870 1.84073E-04-1.95179E-05 0.00000E+00
 -1       871 1.85544E-04-1.08052E-05 0.00000E+00
 -1       872 1.86851E-04-1.08128E-05 0.00000E+00
 -1       873 1.88236E-04-1.08212E-05-4.13590E-25
 -1       874 1.89632E-04-1.08302E-05-4.13590E-25
 -1       875 1.90974E-04-1.08398E-05-1.65436E-24
 -1       876 1.84837E-04-1.16684E-05 0.00000E+00
 -1       877 1.85270E-04-1.24703E-05 0.00000E+00
 -1       878 1.85682E-04-1.32143E-05 0.00000E+00
 -1       879 1.86076E-04-1.39078E-05 0.00000E+00
 -1       880 1.86454E-04-1.45581E-05 3.30872E-24
 -1       881 1.86818E-04-1.51723E-05 0.00000E+00
 -1       882 1.87171E-04-1.57578E-05 0.00000E+00
 -1       883 1.87516E-04-1.63217E-05 0.00000E+00
 -1       884 1.87856E-04-1.68714E-05 3.30872E-24
 -1       885 1.88193E-04-1.74139E-05 0.00000E+00
 -1       886 1.88530E-04-1.79566E-05 3.30872E-24
 -1       887 1.88870E-04-1.85067E-05-1.65436E-24
 -1       888 1.89215E-04-1.90714E-05 0.00000E+00
 -1       889 1.89568E-04-1.96580E-05-1.65436E-24
 -1       890 1.89931E-04-2.02739E-05-1.65436E-24
 -1       891 1.85233E-04-2.06495E-05 1.65436E-24
 -1       892 1.86392E-04-2.07058E-05 8.27181E-25
 -1       893 1.87503E-04-2.07622E-05 0.00000E+00
 -1       894 1.88542E-04-2.08182E-05-8.27181E-25
 -1       895 1.89483E-04-2.08741E-05 8.27181E-25
 -1       956 1.94136E-04 1.76566E-06-3.30872E-24
 -1       957 1.94007E-04 7.10052E-07 8.27181E-25
 -1       958 1.93877E-04-2.67326E-07 0.00000E+00
 -1       959 1.93748E-04-1.17739E-06-1.65436E-24
 -1       960 1.93618E-04-2.03112E-06 0.00000E+00
 -1       961 1.93488E-04-2.83949E-06 1.65436E-24
 -1       962 1.93358E-04-3.61353E-06-3.30872E-24
 -1       963 1.93229E-04-4.36426E-06 0.00000E+00
 -1       964 1.93099E-04-5.10271E-06-3.30872E-24
 -1       965 1.92969E-04-5.83989E-06-1.65436E-24
 -1       966 1.92839E-04-6.58684E-06-3.30872E-24
 -1       967 1.92710E-04-7.35458E-06 1.65436E-24
 -1       968 1.92580E-04-8.15412E-06 0.00000E+00
 -1       969 1.92451E-04-8.99645E-06 0.00000E+00
 -1       970 1.92321E-04-9.89253E-06-3.30872E-24
 -1       971 1.92077E-04-1.18109E-05 0.00000E+00
 -1       972 1.91958E-04-1.26753E-05 0.00000E+00
 -1       973 1.91839E-04-1.34564E-05-3.30872E-24
 -1       974 1.91720E-04-1.41650E-05-1.65436E-24
 -1       975 1.91601E-04-1.48117E-05 0.00000E+00
 -1       976 1.91482E-04-1.54073E-05 0.00000E+00
 -1       977 1.91363E-04-1.59627E-05 0.00000E+00
 -1       978 1.91245E-04-1.64885E-05 0.00000E+00
 -1       979 1.91126E-04-1.69957E-05-3.30872E-24
 -1       980 1.91007E-04-1.74949E-05-1.65436E-24
 -1       981 1.90888E-04-1.79970E-05-3.30872E-24
 -1       982 1.90769E-04-1.85128E-05-1.65436E-24
 -1       983 1.90651E-04-1.90530E-05 3.30872E-24
 -1       984 1.90532E-04-1.96285E-05 0.00000E+00
 -1       985 1.90415E-04-2.02500E-05-3.30872E-24
 -3
    1PSTEP                        34          17           1          
  100CL  117 6.52222E-01         409                     0   17           1
 -4  STRESS      6    1
 -5  SXX         1    4    1    1
 -5  SYY         1    4    2    2
 -5  SZZ         1    4    3    3
 -5  SXY         1    4    1    2
 -5  SYZ         1    4    2    3
 -5  SZX         1    4    3    1
 -1         1-4.70288E+06-1.69743E+06-1.02980E+06-1.62058E+06 1.13505E-09 2.75439E-07
 -1         2 2.92262E+05 2.76844E+06 1.15395E+06 1.46000E+06 1.24273E-08-2.02926E-08
 -1         3-1.43507E+03-1.68622E+06 2.66804E+02-2.60501E+03 8.97021E-10-3.54921E-08
 -1         5-5.78787E+01 3.76085E+05 9.71659E+00-1.11645E+00-4.26425E-10 8.00719E-09
 -1         8-6.62289E+05-2.17466E+05-6.61639E+04-2.49286E+05-4.40195E-10-4.43797E-08
 -1         9 9.22940E+06 2.40091E+05 1.70333E+06-1.03273E+06 1.35158E-08-2.55648E-08
 -1        10-1.36817E+03-1.72270E+06-3.44881E+03-1.62798E+04-3.85444E-09 1.04149E-08
 -1        12-5.40205E+01 3.76106E+05 3.18366E+02-7.69375E+00-8.03041E-10-1.84937E-08
 -1        15 1.16915E+03 6.42509E+02 3.77926E+03 1.57026E+00-9.49569E-11 1.37357E-07
 -1        16 1.95748E+07-1.69115E+05 2.72828E+06-1.64717E+06 1.70936E-08 0.00000E+00
 -1        17 7.06195E+06 5.13838E+06 1.90457E+06 4.99939E+06 2.06637E-08 1.54832E-08
 -1        18 1.25161E+05 2.88531E+04 7.75742E+02-1.15222E+05 1.13646E-08-1.38275E-08
 -1        19 1.19353E+05 1.38052E+05-9.23245E+02 2.16212E+04 1.37316E-09 7.49787E-09
 -1        20-7.80625E+04-5.59898E+05-1.25503E+05 2.55956E+04-2.07062E-09 2.11373E-08
 -1        21-4.52524E+01-2.91216E+05-9.11225E+02 2.34059E+02 1.69425E-08-8.82103E-09
 -1        24 1.16348E+07 9.95573E+06 3.26269E+06 9.25371E+06-1.62749E-07-5.33376E-08
 -1        25 9.42229E+04 1.53957E+05 7.10023E+04-5.78487E+05-1.88265E-09-1.29330E-09
 -1        26-5.36390E+04 8.98012E+04-2.40239E+04 5.89390E+02 1.38243E-10 4.82803E-09
 -1        27-7.51081E+04-3.02848E+05-1.10984E+05 6.74165E+04 4.15472E-09 6.28279E-09
 -1        28 2.19420E+04-8.37177E+04 1.66145E+04 2.06585E+04-3.01702E-09-2.71670E-09
 -1        32-1.65073E+06-3.06824E+06-1.83113E+05 3.37107E+05-3.99814E-08-6.73253E-09
 -1        33-1.74601E+05 9.04918E+04 3.15938E+04-3.80672E+04-2.86631E-09 7.24898E-09
 -1        34-2.18927E+05-2.42791E+04 6.65281E+02 7.35809E+04-5.33751E-09-7.46741E-09
 -1        35-2.25899E+04-3.32045E+04-1.32155E+03 5.06715E+04-3.27225E-09-1.16900E-08
 -1        51 5.30200E+04-1.98552E+05 1.13905E+05-5.83248E+05-1.30967E-10-2.31739E-08
 -1        52 1.87680E+04-1.79794E+05 6.09632E+04-6.79991E+05 3.74712E-10-1.90164E-07
 -1        53 4.82767E+03-1.95323E+05 3.36488E+04-5.81118E+05 2.65572E-10-3.08537E-07
 -1        54 1.03492E+04-1.91562E+05 3.15034E+04-6.82196E+05-8.73115E-11-3.80420E-07
 -1        55 2.19440E+04-2.00455E+05 4.28240E+04-5.80836E+05 4.00178E-10-1.10304E-08
 -1        56-8.79828E+06-1.02828E+06-7.65743E+05-3.48010E+06 5.58794E-09-1.61119E-07
 -1        57-9.38676E+06-1.41472E+06-5.12496E+05-3.10849E+06 5.60249E-09 9.02437E-08
 -1        58-8.88191E+06-1.33076E+06-1.79222E+05-3.50121E+06-1.73241E-08 2.68410E-07
 -1        59-9.28726E+06-1.06351E+06-1.06262E+05-3.09845E+06 2.01035E-08-7.51952E-08
 -1        60-8.90139E+06-1.36690E+06-4.17582E+04-3.49736E+06-1.91167E-08-1.50181E-07
 -1        61-9.19604E+06-1.07825E+06-2.16922E+04-3.15950E+06 1.96378E-08 3.25417E-09
 -1        62-8.96639E+06-1.31907E+06-1.44155E+04-3.43576E+06-1.70585E-08-9.28158E-08
 -1        63-9.03557E+06-1.21551E+06-5.41368E+03-3.31166E+06-2.49565E-08-1.74924E-07
 -1        64-9.05325E+06-1.23539E+06-1.45966E+04-3.33901E+06-1.03828E-08-5.32818E-08
 -1        65-8.88870E+06-1.37590E+06-1.82125E+04-3.49681E+06-3.06463E-08-1.03831E-07
 -1        66-9.11695E+06-1.15634E+06-3.85327E+04-3.25343E+06 2.85327E-08-9.28048E-09
 -1        67-8.83257E+06-1.50723E+06-9.41887E+04-3.61540E+06-3.72347E-08 1.24719E-08
 -1        68-9.11964E+06-1.09836E+06-1.58873E+05-3.22716E+06-1.54105E-08-6.45086E-08
 -1        69-8.99161E+06-1.75797E+06-4.56654E+05-3.56070E+06-3.88245E-08-4.28954E-07
 -1        70-8.95966E+06-9.13491E+05-6.80357E+05-3.30554E+06 3.42698E-09-1.47847E-07
 -1        86-2.96291E+05-5.82356E+06-6.30721E+05-7.10199E+05-1.27297E-07-4.68935E-08
 -1        87 4.04792E+05-6.77673E+05 5.19482E+05 1.77439E+06-2.23403E-07-6.57656E-09
 -1        88-4.70448E+04-2.76276E+06 3.29565E+04-1.05303E+06-1.99719E-07 1.15318E-07
 -1        89 5.49726E+05-8.01657E+05 4.96185E+05 1.82723E+06-2.84635E-07 9.78544E-08
 -1        90-4.20241E+05-5.72025E+06-7.06610E+05-7.66005E+05-6.95800E-08-6.70043E-08
 -1       121-1.97232E+03-1.69132E+06-7.61210E+02 1.29304E+03 4.08491E-10 2.76486E-09
 -1       122-1.28531E+03-1.68634E+06 4.15621E+02-5.20634E+03 5.05179E-09 5.47698E-09
 -1       123-1.95160E+03-1.69141E+06-4.27439E+02 3.85704E+03 1.89686E-09 4.94765E-10
 -1       124-2.29910E+02-1.68636E+06 1.34702E+03-1.07579E+04 1.10545E-08 2.70047E-08
 -1       125-2.36763E+03-1.69195E+06 8.17109E+02 6.79865E+03 3.34330E-09-8.36735E-10
 -1       191-6.10616E+01 3.76106E+05 9.04048E+00 5.77700E-01-5.15047E-10 1.87174E-09
 -1       192-5.88058E+01 3.76086E+05 2.06973E+01-3.66219E+00-6.86438E-10 1.05101E-08
 -1       193-6.35078E+01 3.76106E+05 3.59879E+01 3.20425E+00-8.59265E-10-2.47710E-08
 -1       194-6.17807E+01 3.76089E+05 7.85899E+01-8.33897E+00-4.73297E-10-2.08420E-08
 -1       195-6.82041E+01 3.76103E+05 1.51212E+02 5.38890E+00-1.27792E-09-1.75442E-08
 -1       251-1.90530E+06-1.59310E+04-1.72654E+05-1.17883E+05 4.33829E-09 4.86798E-08
 -1       252-1.20439E+06 2.10792E+04 2.22621E+04 3.72620E+05 3.81078E-09 2.40043E-07
 -1       253-1.58796E+06-8.41592E+03-3.06795E+04-2.39739E+05-4.13092E-09-1.68538E-07
 -1       254-1.52734E+06 4.34835E+04 3.37774E+03 4.85787E+05 3.75258E-09-2.52774E-07
 -1       255-1.61472E+06-1.19860E+04-1.81543E+04-2.33540E+05-9.77525E-09-6.20453E-08
 -1       256-1.13752E+06 3.62032E+04 8.50481E+04 3.47662E+05-1.57343E-08 2.79959E-07
 -1       257-1.93966E+06-3.20612E+04-8.39709E+04-9.88860E+04-3.65799E-09 1.66717E-08
 -1       258-7.80358E+05 2.90685E+04 1.53854E+05 8.04673E+02-3.51274E-08-3.21786E-07
 -1       259-1.93670E+06-3.33663E+04-8.16668E+04 1.11278E+05 9.46784E-09-2.75773E-08
 -1       260-1.14490E+06 4.20174E+04 8.97078E+04-3.42808E+05 2.79961E-08 2.87630E-08
 -1       261-1.61075E+06-1.61232E+04-7.81199E+03 2.43108E+05 5.80958E-08 9.18831E-08
 -1       262-1.52731E+06 6.06429E+04 2.79164E+04-4.76524E+05-3.48822E-08 1.76421E-07
 -1       263-1.59194E+06-2.13937E+04 8.38780E+03 2.48100E+05 1.35333E-09 8.09941E-08
 -1       264-1.16932E+06 1.00724E+05 1.30632E+05-3.64436E+05 1.15017E-07-3.96594E-08
 -1       265-1.93590E+06-8.26690E+04-2.03275E+04 1.28174E+05 4.30973E-08 1.01103E-07
 -1       266-2.11656E+04-9.89751E+03 4.96584E+04-3.35976E+01-1.05501E-10 1.16230E-07
 -1       267 2.45367E+04 1.15350E+04 3.50989E+04 3.87663E+01 3.28782E-10 1.32141E-07
 -1       268-3.29033E+03-1.63372E+03 1.30460E+04-4.93943E+00-2.22826E-10-1.43499E-07
 -1       269 3.88490E+03 1.95517E+03 8.47978E+03 5.75378E+00-2.43290E-11 1.36850E-07
 -1       270-5.83128E+02-3.21252E+02 4.09331E+03-7.80825E-01-2.17824E-10 9.64441E-08
 -1       271-1.88766E+06-2.28223E+05-1.39864E+05-7.23483E+05 4.86380E-08-2.45636E-08
 -1       272-1.97401E+06-2.94533E+05-8.99897E+04-6.81574E+05-1.70841E-08-8.54197E-08
 -1       273-1.91382E+06-2.63389E+05-3.30697E+04-7.17396E+05 1.81067E-08-1.79605E-07
 -1       274-1.94239E+06-2.52165E+05-1.84782E+04-6.91087E+05 2.53376E-08-6.05760E-08
 -1       275-1.91823E+06-2.66353E+05-7.77044E+03-7.15380E+05-1.08184E-08 7.81292E-08
 -1       276-1.93560E+06-2.49974E+05-3.98942E+03-6.94884E+05 4.53115E-08 4.26435E-08
 -1       277-1.92018E+06-2.65351E+05-2.08065E+03-7.13515E+05-2.11639E-08 1.55575E-07
 -1       278-1.93160E+06-2.52785E+05-1.19897E+03-6.98587E+05 2.35523E-08 2.95283E-07
 -1       279-1.92192E+06-2.63695E+05-1.39997E+03-7.11480E+05-3.07227E-09 1.43039E-07
 -1       280-1.92796E+06-2.56622E+05-1.97248E+03-7.02613E+05-2.06091E-09 1.27672E-07
 -1       281-1.92361E+06-2.61664E+05-3.89926E+03-7.09340E+05 2.06019E-08-5.10117E-08
 -1       282-1.92580E+06-2.62812E+05-8.69433E+03-7.06629E+05-2.64017E-08-8.45466E-09
 -1       283-1.92403E+06-2.57776E+05-1.58415E+04-7.07335E+05 9.74978E-09-1.13067E-07
 -1       284-1.93562E+06-2.87883E+05-4.24992E+04-7.07962E+05 4.75147E-08 4.27431E-08
 -1       285-1.91417E+06-2.38689E+05-6.64121E+04-7.07294E+05-3.65762E-08-9.86947E-08
 -1       301 9.30535E+03-5.45726E+05 1.72880E+05-9.47974E+05 1.52068E-09 4.11092E-09
 -1       302 1.04156E+04-5.01080E+05 1.04664E+05-1.38528E+06-3.04135E-09 1.35100E-07
 -1       303-9.32906E+03-5.33289E+05 6.20833E+04-9.45530E+05 4.94765E-10 1.00610E-07
 -1       304-3.75722E+03-5.05842E+05 6.75804E+04-1.38455E+06-4.88944E-09 1.25176E-07
 -1       305-8.11259E+03-5.28101E+05 8.99400E+04-9.48386E+05 4.27463E-09 1.53566E-07
 -1       306-2.74477E+07-5.60033E+06-7.65848E+06-1.04603E+06-7.47386E-08-1.79512E-07
 -1       307 2.28522E+07 2.19168E+06 4.93836E+06-1.31540E+07-7.63379E-07 9.02510E-08
 -1       308-7.66103E+06-8.07832E+05-5.54585E+05 4.66478E+06-2.20898E-07 1.94079E-07
 -1       309-3.59148E+06 6.83376E+06 1.87938E+06-1.89379E+07 3.48417E-07 2.42053E-07
 -1       310-1.12229E+07-1.36015E+06-1.50926E+06 4.56819E+06 6.35628E-08 1.00888E-07
 -1       311 3.11154E+07-1.33720E+05 6.11179E+06-8.88155E+06 7.24220E-07 1.94181E-07
 -1       312-2.85241E+07-5.71435E+06-7.29695E+06-3.99505E+06-1.61817E-08 1.34925E-07
 -1       313 4.04965E+07 1.12531E+07 9.32075E+06 1.93008E+07-3.36440E-07-5.25906E-08
 -1       314-1.69776E+07-1.48662E+07-6.64454E+06-1.13915E+07 1.81084E-07 5.00586E-09
 -1       315-8.52444E+05 2.51516E+07 5.08629E+06 1.07181E+07-2.34504E-07-1.11089E-07
 -1       316 4.69979E+05-9.27407E+06-5.19534E+05-3.37094E+06-9.64224E-07-2.82977E-07
 -1       317-1.70853E+07 2.02086E+07 1.84549E+06-6.38793E+06 5.44162E-07-7.49991E-07
 -1       318-1.20091E+06-1.09265E+07-1.55586E+06-4.40208E+06-8.85397E-07 9.74978E-08
 -1       319 5.16703E+06 2.65306E+07 5.87914E+06 1.41133E+07-5.93063E-08 2.30648E-07
 -1       320-2.04092E+07-1.51130E+07-8.49404E+06-1.13596E+07 1.74390E-07-3.47209E-08
 -1       336-9.10921E+02-1.76120E+06-1.06617E+04 9.33430E+03-2.65900E-08-6.14818E-10
 -1       337-4.16497E+03-1.76091E+06-1.61592E+04-2.21585E+04-4.95072E-08-8.40919E-09
 -1       338 6.41188E+02-1.76024E+06-2.73199E+04 1.26318E+04-3.39351E-08 5.68616E-09
 -1       339-2.96937E+04-1.77835E+06-6.35250E+04-2.85718E+04-6.03259E-08 2.46364E-08
 -1       340 2.01631E+04-1.74571E+06-1.00263E+05 1.56344E+04-4.01124E-08 5.23905E-08
 -1       406-3.22107E+01 3.76089E+05 6.25893E+02 2.68505E+00-1.82611E-09 3.38878E-09
 -1       407 1.65425E+02 3.76216E+05 1.33587E+03 2.09052E+01-2.47773E-10 1.06875E-08
 -1       408 6.31889E+02 3.75992E+05 2.66462E+03-2.39811E+01-2.18574E-09 4.99676E-09
 -1       409 2.83495E+03 3.77067E+05 6.00417E+03 2.53521E+02-3.17527E-10 3.53912E-08
 -1       410 8.24189E+03 3.75227E+05 1.22549E+04-2.43913E+02-2.61025E-09 4.65661E-10
 -1       521-2.90128E+07-6.87820E+06-8.94343E+06-7.28507E+05-1.08033E-07 3.49246E-10
 -1       522 2.36439E+07 2.89034E+06 5.02083E+06-1.62925E+07-5.51430E-07-3.16504E-07
 -1       523-8.38874E+06-1.09462E+06-5.69135E+05 5.10867E+06 4.63915E-08-2.57263E-07
 -1       524-6.78695E+06 9.39362E+06 2.03566E+06-2.18757E+07 8.75007E-07-5.05559E-07
 -1       525-1.21515E+07-1.86396E+06-1.65841E+06 5.00336E+06 7.37666E-07-2.44268E-07
 -1       526 3.37666E+07-1.61150E+05 6.42698E+06-1.13879E+07 1.18685E-07-2.15136E-07
 -1       527-3.03082E+07-7.17932E+06-8.39692E+06-3.88478E+06 1.20141E-07 6.42613E-08
 -1       528 4.42787E+07 1.23619E+07 9.72885E+06 2.18667E+07 2.18919E-07 1.33208E-07
 -1       529-1.79979E+07-1.68368E+07-7.61526E+06-1.15679E+07 1.74507E-07-1.37370E-08
 -1       530-3.12017E+06 2.93151E+07 5.37970E+06 1.06632E+07-2.85567E-07 7.39004E-07
 -1       531 4.02856E+05-1.04023E+07-5.18552E+05-3.49244E+06-8.83359E-07 2.89030E-07
 -1       532-1.99881E+07 2.24386E+07 2.02427E+06-9.91627E+06 4.21671E-07-6.14193E-07
 -1       533-1.27377E+06-1.20763E+07-1.64434E+06-4.42854E+06-2.58180E-07-9.76666E-07
 -1       534 3.20652E+06 3.08339E+07 6.12686E+06 1.46317E+07 8.14907E-09 7.25908E-07
 -1       535-2.15633E+07-1.72175E+07-9.70871E+06-1.15292E+07 8.31205E-08 4.43775E-07
 -1       536-6.79696E+05-4.62941E+04-3.56400E+04-5.09939E+04-1.88311E-09 5.38112E-08
 -1       537-8.06603E+04 4.49302E+04 8.26430E+04 1.16793E+05-9.45921E-08 1.21046E-07
 -1       538-3.93376E+05 2.52518E+03 5.41692E+03-6.86477E+04 3.13879E-08 9.54697E-08
 -1       539-2.78672E+05 3.07731E+03 2.39983E+04 1.31486E+05 1.73239E-07 9.02078E-08
 -1       540-4.86612E+05-3.47584E+02-1.88061E+04-6.61525E+04-2.02988E-08 1.04918E-07
 -1       541 1.01262E+05 1.55284E+04 9.74795E+04 9.19017E+04-2.83180E-08 8.40259E-08
 -1       542-7.63081E+05-1.84553E+04-7.69298E+04-2.83027E+04 4.71127E-08 4.14373E-08
 -1       543 3.37941E+05 2.50211E+04 1.44439E+05-1.27368E+04-1.54212E-08-2.06251E-08
 -1       544-7.16952E+05-1.50882E+04-6.83665E+04 3.79018E+04 1.80453E-08-4.34286E-08
 -1       545-7.03249E+03 8.52871E+03 7.26280E+04-1.07193E+05-1.97147E-08-6.67612E-08
 -1       546-4.27357E+05 5.69830E+03-1.12691E+04 6.58542E+04 3.51681E-08-1.04381E-07
 -1       547-2.95615E+05-4.68421E+03 8.97271E+03-1.34263E+05-1.42114E-07-1.04409E-07
 -1       548-4.36111E+05 4.59108E+03-2.27837E+04 6.55737E+04-1.20624E-07-9.57939E-08
 -1       549 1.14089E+04 1.28653E+04 5.29096E+04-1.04895E+05-6.10545E-08-6.17845E-08
 -1       550-7.26160E+05-1.87129E+04-1.21621E+05 3.58610E+04 9.48239E-09-3.80642E-08
 -1       551 3.89255E+04-7.70287E+05-9.64031E+03-1.22558E+06-9.74687E-08-1.44355E-08
 -1       552 8.82715E+04-8.11487E+05 1.34970E+04-1.74777E+06-6.66187E-08 2.83762E-08
 -1       553 6.74754E+04-8.08996E+05 3.44841E+04-1.21925E+06-1.13156E-07 2.33413E-08
 -1       554 1.25673E+05-8.25087E+05 8.40006E+04-1.74972E+06-7.34581E-08 2.41889E-08
 -1       555 9.71385E+04-8.32027E+05 1.52527E+05-1.21922E+06-1.16634E-07-1.19289E-08
 -1       556 2.11393E+05-3.64996E+05 3.48236E+04-3.94289E+05-1.90048E-08-2.91038E-11
 -1       557 3.38062E+05-4.66092E+05 2.06083E+04-5.08960E+05-7.15954E-09 5.52791E-09
 -1       558 1.95242E+05-3.60243E+05 4.62120E+03-3.96835E+05-1.94705E-08-2.04454E-09
 -1       559 3.13933E+05-4.67715E+05 3.45985E+03-5.27797E+05 2.25991E-08-9.34597E-09
 -1       560 1.81287E+05-3.51474E+05-7.85383E+02-4.06837E+05 1.65019E-08 2.97805E-08
 -1       561 2.96271E+05-4.60733E+05 4.04213E+02-5.39783E+05 4.54020E-09-8.02174E-09
 -1       562 1.70252E+05-3.44600E+05-1.05539E+03-4.14818E+05 5.19503E-09 1.16197E-08
 -1       563 2.83173E+05-4.55023E+05 4.04009E+01-5.48324E+05-2.03727E-10 1.53159E-09
 -1       564 1.62413E+05-3.39710E+05-4.96585E+02-4.20369E+05 7.59610E-09-5.44060E-09
 -1       565 2.74551E+05-4.51269E+05 4.41885E+01-5.53829E+05 5.86442E-09-2.56159E-09
 -1       566 1.57885E+05-3.36843E+05-2.19302E+02-4.23538E+05-2.18279E-09-5.26779E-09
 -1       567 2.70450E+05-4.49484E+05-3.28092E+02-5.56310E+05 1.04574E-08 8.17454E-09
 -1       568 1.56751E+05-3.36152E+05-1.03718E+03-4.24426E+05-1.95723E-09 3.24872E-09
 -1       569 2.69533E+05-4.49430E+05-2.62095E+03-5.54816E+05-5.70617E-09 1.01609E-08
 -1       570 1.60063E+05-3.39261E+05-5.74612E+03-4.23466E+05 1.01936E-08 3.85899E-09
 -1       571 2.82956E+05 1.02414E+04 1.46730E+04-9.08752E+04 1.18262E-08-7.25686E-09
 -1       572 2.85088E+05 3.82742E+03 7.19072E+03-9.96981E+04 2.70193E-08-3.09683E-09
 -1       573 2.83803E+05 1.17424E+03 3.19502E+03-9.07036E+04 1.22400E-08-5.27962E-09
 -1       574 2.84018E+05 6.61512E+02 1.60214E+03-9.99139E+04 4.96766E-09 5.56611E-09
 -1       575 2.83896E+05 3.93076E+02 7.56104E+02-9.06802E+04-3.06738E-09-9.65792E-09
 -1       576 2.83884E+05 3.99874E+02 3.86977E+02-9.99427E+04-1.11959E-08-2.16805E-08
 -1       577 2.83932E+05 3.37676E+02 1.93098E+02-9.06770E+04-4.11364E-09 1.22745E-08
 -1       578 2.83910E+05 3.65054E+02 1.11259E+02-9.99467E+04-3.70574E-09 3.47554E-08
 -1       579 2.83997E+05 3.05097E+02 7.62339E+01-9.06767E+04 7.50697E-09 2.14459E-09
 -1       580 2.84001E+05 3.19392E+02 8.78619E+01-9.99420E+04-3.95175E-09 4.55475E-09
 -1       581 2.84100E+05 2.52795E+02 1.32685E+02-9.06824E+04 1.06902E-08 1.34114E-08
 -1       582 2.84161E+05 2.88237E+02 2.69080E+02-9.98832E+04 4.55111E-09-3.65253E-09
 -1       583 2.84226E+05 2.98973E+02 5.17069E+02-9.07362E+04 1.85173E-09 4.36103E-10
 -1       584 2.84511E+05 7.19758E+02 1.16927E+03-9.94299E+04 3.05590E-09-1.54819E-08
 -1       585 2.84242E+05 1.70899E+03 2.36870E+03-9.11351E+04-3.90355E-09 9.53150E-09
 -1       586-3.34175E+03 1.11788E+05-2.98348E+03-2.45045E+05-4.94492E-09 7.92193E-09
 -1       587-1.24469E+03 1.11518E+05 6.70629E+02-2.69693E+05-4.47289E-09 9.92759E-09
 -1       588 4.58529E+02 1.11354E+05 4.57848E+03-2.44912E+05-3.73620E-09 2.40898E-08
 -1       589 5.01412E+03 1.13740E+05 1.19463E+04-2.69459E+05-8.00355E-09 1.45592E-08
 -1       590 1.61772E+04 1.10059E+05 2.50879E+04-2.45332E+05-4.19641E-09-1.24528E-08
 -1       591-7.16062E+04-1.55185E+04-2.17437E+04-3.08364E+04-5.17502E-09-8.00537E-09
 -1       592-7.54615E+04-1.90433E+04-1.17781E+04-3.44392E+04 4.07377E-09 9.62632E-09
 -1       593-7.37815E+04-1.39399E+04-4.90266E+03-3.24300E+04 4.23364E-09-1.41335E-09
 -1       594-7.24581E+04-1.58540E+04-2.44509E+03-3.45546E+04 1.35552E-09-5.85942E-09
 -1       595-7.39474E+04-1.39346E+04-1.12260E+03-3.25024E+04-2.85404E-09 1.50451E-08
 -1       596-7.22525E+04-1.57082E+04-5.70568E+02-3.45303E+04 9.41101E-09 4.91431E-09
 -1       597-7.39682E+04-1.39495E+04-3.10462E+02-3.25051E+04 7.24981E-10-9.92281E-09
 -1       598-7.22323E+04-1.57024E+04-2.49155E+02-3.45234E+04-3.85205E-09 1.02972E-09
 -1       599-7.39670E+04-1.39500E+04-3.17743E+02-3.25048E+04 1.66790E-09 1.68995E-09
 -1       600-7.22526E+04-1.57088E+04-5.89844E+02-3.45283E+04 1.95570E-09-1.19758E-09
 -1       601-7.39430E+04-1.39359E+04-1.16342E+03-3.25014E+04 4.05976E-09-8.03993E-09
 -1       602-7.24656E+04-1.58589E+04-2.53543E+03-3.45497E+04-4.47972E-09-1.90457E-08
 -1       603-7.37683E+04-1.39442E+04-5.08453E+03-3.24270E+04 2.24327E-09 1.10240E-08
 -1       604-7.55973E+04-1.91475E+04-1.22142E+04-3.44061E+04 3.07540E-09 5.78825E-09
 -1       605-7.14930E+04-1.55984E+04-2.25490E+04-3.07931E+04 4.47756E-09 8.76116E-09
 -1       606 2.68710E+04-1.39179E+04-2.49554E+04 2.43625E+04 5.09135E-09 4.73801E-09
 -1       607 2.26064E+04-4.54263E+03-1.24276E+04 2.73745E+04 3.25599E-10 5.24324E-09
 -1       608 2.50358E+04-8.16773E+02-5.56358E+03 2.41881E+04-6.79574E-09 1.21165E-08
 -1       609 2.45688E+04-2.76245E+02-2.81052E+03 2.75914E+04-3.88445E-09-9.79685E-09
 -1       610 2.48269E+04-3.55302E+01-1.34106E+03 2.41676E+04 2.33194E-09 5.61977E-09
 -1       611 2.47525E+04-3.44870E+01-6.76146E+02 2.76149E+04 6.37556E-09-1.05279E-08
 -1       612 2.47799E+04-2.14557E+01-3.21559E+02 2.41655E+04 4.99494E-09 1.76867E-08
 -1       613 2.47625E+04-2.98116E+01-1.44182E+02 2.76177E+04 2.68074E-09 1.34255E-08
 -1       614 2.47574E+04-2.70749E+01-3.40844E+01 2.41648E+04 1.57434E-09 5.58884E-09
 -1       615 2.47564E+04-2.78182E+01 5.98189E+01 2.76181E+04-5.45242E-10 3.15711E-08
 -1       616 2.47398E+04-2.35899E+01 1.79931E+02 2.41651E+04 1.03546E-09-9.00172E-09
 -1       617 2.47773E+04 1.09725E+01 4.10766E+02 2.76176E+04 1.49521E-09-2.09980E-08
 -1       618 2.47036E+04 9.51693E+01 8.28039E+02 2.41653E+04-2.23190E-09 3.43334E-10
 -1       619 2.50692E+04 6.51493E+02 1.85949E+03 2.76170E+04-2.32819E-09 2.85036E-09
 -1       620 2.44283E+04 2.05892E+03 3.73752E+03 2.41665E+04-4.83169E-11 2.88446E-09
 -1       621 4.77249E+02 2.93266E+05 3.72270E+03 3.79025E+04 7.20775E-10 8.46467E-09
 -1       622 6.25917E+02 2.94133E+05 3.31633E+03 5.50372E+04 9.85892E-10 6.93262E-09
 -1       623 1.20960E+02 2.93457E+05 4.00281E+03 3.77303E+04 1.21952E-09 6.27551E-09
 -1       624 2.03119E+03 2.95327E+05 7.77356E+03 5.52072E+04 1.08867E-09-7.71092E-09
 -1       625 1.99261E+03 2.91917E+05 1.35909E+04 3.77273E+04 1.18962E-09-1.04503E-08
 -1       626 2.54236E+05 6.05520E+04 5.04554E+03 1.24397E+05 1.72940E-09 7.17591E-09
 -1       627 2.51906E+05 6.19747E+04 2.43140E+03 1.28659E+05 2.32467E-09 2.69415E-09
 -1       628 2.54364E+05 5.82397E+04 1.02821E+03 1.25250E+05 1.16270E-08 1.57133E-08
 -1       629 2.51274E+05 6.13095E+04 5.03275E+02 1.28900E+05 1.42113E-08 1.32994E-08
 -1       630 2.54378E+05 5.81282E+04 2.33451E+02 1.25285E+05 5.11318E-09-1.86258E-08
 -1       631 2.51207E+05 6.12848E+04 1.25636E+02 1.28901E+05 5.26938E-09-7.51834E-09
 -1       632 2.54374E+05 5.81325E+04 8.26945E+01 1.25281E+05 6.21230E-09-3.49655E-09
 -1       633 2.51198E+05 6.12869E+04 9.21422E+01 1.28897E+05-2.64004E-09 1.28148E-09
 -1       634 2.54369E+05 5.81301E+04 1.48925E+02 1.25280E+05-4.08704E-10 1.16181E-08
 -1       635 2.51211E+05 6.12855E+04 3.01365E+02 1.28902E+05-5.37057E-09 7.42330E-09
 -1       636 2.54359E+05 5.81248E+04 6.08614E+02 1.25279E+05 7.05813E-09 6.97719E-09
 -1       637 2.51342E+05 6.13803E+04 1.33814E+03 1.28901E+05 2.69483E-09 5.18503E-09
 -1       638 2.54312E+05 5.84205E+04 2.74941E+03 1.25146E+05-7.96717E-10 4.04634E-09
 -1       639 2.52786E+05 6.33889E+04 6.50515E+03 1.28476E+05 3.71529E-09 2.51312E-08
 -1       640 2.54113E+05 6.44176E+04 1.34993E+04 1.22617E+05 2.74122E-09 7.58268E-09
 -1       656 6.51012E+04-1.66490E+06-1.57150E+05-2.27371E+03-2.03727E-10-2.31538E-08
 -1       657-8.61170E+04-1.73591E+06-1.30177E+05 5.50544E+03-5.63887E-10-3.99302E-08
 -1       658 2.07464E+04-1.68507E+06-8.01561E+04-4.28677E+03 9.14270E-10-4.10751E-09
 -1       659-9.30778E+04-1.73922E+06-1.39324E+05 7.15292E+03-1.06684E-09 6.41690E-09
 -1       660 7.20464E+04-1.66161E+06-1.72877E+05-3.92118E+03-2.86673E-09-6.27361E-09
 -1       661 1.60049E+05 1.68135E+04 1.67312E+04 6.25684E+04-4.31419E-09-3.31056E-09
 -1       662 1.69451E+05 2.92607E+04 1.12755E+04 5.88807E+04-7.26061E-10-2.12209E-08
 -1       663 1.63335E+05 2.21813E+04 3.94353E+03 6.16149E+04-4.51166E-09-6.75072E-09
 -1       664 1.65641E+05 2.29831E+04 2.35894E+03 6.00452E+04-1.80563E-10 3.82420E-09
 -1       665 1.63834E+05 2.29147E+04 9.30585E+02 6.14698E+04 2.53357E-09 4.96144E-09
 -1       666 1.65052E+05 2.21441E+04 5.44551E+02 6.02343E+04 8.12020E-09 9.98247E-09
 -1       667 1.63921E+05 2.29984E+04 2.89242E+02 6.14337E+04 1.56120E-10-2.84028E-09
 -1       668 1.64956E+05 2.20837E+04 2.94721E+02 6.02868E+04-2.56166E-09-9.91588E-09
 -1       669 1.63928E+05 2.29735E+04 3.99011E+02 6.14176E+04-4.38598E-09-1.68257E-11
 -1       670 1.65053E+05 2.23002E+04 8.68857E+02 6.02897E+04-3.07099E-09-9.81727E-09
 -1       671 1.63823E+05 2.27864E+04 1.54272E+03 6.14288E+04 7.21677E-10-3.00054E-09
 -1       672 1.65952E+05 2.38011E+04 3.94701E+03 6.00719E+04 5.93525E-09 7.98724E-09
 -1       673 1.63034E+05 2.15105E+04 6.61456E+03 6.16207E+04 5.02587E-09 5.91353E-09
 -1       674 1.72247E+05 3.44279E+04 1.89162E+04 5.82222E+04-2.03170E-09-3.93629E-09
 -1       675 1.57568E+05 1.24572E+04 2.80783E+04 6.31669E+04-2.69483E-09 4.43833E-09
 -1       676 2.37470E+01-2.91140E+05-1.09827E+03-1.17033E+02 1.01460E-09-7.89150E-09
 -1       677-2.90815E+02-2.91405E+05-2.01001E+03 2.33882E+02 8.16863E-09-1.56063E-08
 -1       678 1.94818E+02-2.90951E+05-3.55320E+03-1.16772E+02 4.72710E-10-9.81830E-09
 -1       679-3.55353E+03-2.93550E+05-8.44091E+03 2.32889E+02 6.55780E-09-1.02192E-08
 -1       680 2.12145E+03-2.88996E+05-1.36039E+04-1.14746E+02 9.99535E-10-1.65132E-08
 -1       771-3.02244E+06-7.22583E+05-1.51905E+05-1.43577E+06-3.36295E-08-2.84635E-08
 -1       772-2.94935E+06-8.07239E+05-7.83904E+04-1.53353E+06-2.32249E-08 1.02882E-08
 -1       773-3.05139E+06-6.99945E+05-3.97942E+04-1.44868E+06-1.46392E-08 1.37225E-08
 -1       774-2.94010E+06-7.90487E+05-1.77882E+04-1.55709E+06 2.74158E-08 7.22503E-09
 -1       775-3.06632E+06-6.89442E+05-1.31925E+04-1.45487E+06-1.15833E-08 9.85165E-09
 -1       776-2.95099E+06-7.87899E+05-4.95129E+03-1.57477E+06-2.00234E-08-1.23691E-10
 -1       777-3.07922E+06-6.80111E+05-5.78730E+03-1.46034E+06-7.27596E-09 4.85306E-09
 -1       778-2.96240E+06-7.85509E+05-1.64182E+03-1.58993E+06 4.74392E-09 8.07631E-09
 -1       779-3.09028E+06-6.71980E+05-2.87878E+03-1.46501E+06-1.53814E-08-8.37827E-09
 -1       780-2.97243E+06-7.83226E+05-4.78016E+02-1.60228E+06-1.14524E-08-4.90036E-09
 -1       781-3.09906E+06-6.65436E+05-1.11374E+03-1.46867E+06-3.13012E-08-3.67436E-10
 -1       782-2.98016E+06-7.81281E+05 4.05747E+02-1.61139E+06-3.55649E-08-9.57925E-09
 -1       783-3.10523E+06-6.60898E+05 6.34204E+02-1.47123E+06-1.23910E-08-1.96246E-08
 -1       784-2.98442E+06-7.79297E+05 2.61328E+03-1.61701E+06-2.09620E-08 1.03591E-09
 -1       785-3.10888E+06-6.58195E+05 4.61424E+03-1.47287E+06-3.46299E-08 5.12955E-09
 -1       786 1.25054E+05-9.72156E+03 2.24915E+04-2.99043E+02 1.11317E-09 2.72485E-09
 -1       787 1.34808E+05 1.12552E+04 1.59119E+04-1.16795E+02 3.25362E-09 5.91331E-09
 -1       788 1.28815E+05-1.52347E+03 5.81917E+03-2.65038E+02 4.61746E-09 1.80858E-08
 -1       789 1.30427E+05 1.76323E+03 3.65323E+03-1.69180E+02-7.29667E-10 1.20544E-08
 -1       790 1.29436E+05-2.37291E+02 1.47951E+03-2.46674E+02-1.36712E-09 9.97863E-09
 -1       791 1.29701E+05 2.74489E+02 8.55263E+02-2.00667E+02-8.62335E-09 1.21099E-08
 -1       792 1.29541E+05-3.58433E+01 3.63894E+02-2.33554E+02-2.64214E-09 1.08815E-08
 -1       793 1.29576E+05 3.84434E+01 1.84630E+02-2.25381E+02-1.65567E-09 1.09476E-09
 -1       794 1.29561E+05-1.39532E+00 5.44547E+01-2.21959E+02 4.12951E-09 8.80995E-09
 -1       795 1.29541E+05-2.18808E+01-4.01824E+01-2.49619E+02-3.16425E-09 1.80755E-08
 -1       796 1.29576E+05 2.44474E+01-1.32135E+02-2.09315E+02 3.54736E-09 5.55931E-09
 -1       797 1.29461E+05-1.83437E+02-3.71044E+02-2.78701E+02 3.54266E-09-1.63096E-08
 -1       798 1.29641E+05 1.60039E+02-6.04876E+02-1.92877E+02 2.18776E-09-1.18912E-08
 -1       799 1.29002E+05-1.17982E+03-1.66609E+03-3.19314E+02 5.39730E-09-9.46909E-09
 -1       800 1.30035E+05 1.02002E+03-2.35843E+03-1.68703E+02 6.75904E-13-6.46708E-09
 -1       801-1.30895E+05-9.26079E+06-1.26942E+06 1.23814E+06 8.87376E-08-4.01596E-08
 -1       802 6.23853E+05 4.79634E+06 1.89160E+06-1.50893E+06 2.44698E-07-3.15677E-08
 -1       803-4.69743E+05-1.29524E+07-1.66594E+06 7.86986E+05 7.35708E-08 8.65657E-09
 -1       804 2.42846E+05 1.62058E+06 1.33311E+06 6.19524E+05-1.10966E-07-9.27017E-08
 -1       805 1.74504E+05-6.09997E+06-2.53276E+05-8.85257E+05-4.62314E-08-5.51727E-08
 -1       806-3.01858E+05-5.83006E+04-2.22929E+04-1.19510E+05-1.38207E-08-1.32959E-08
 -1       807-3.03630E+05-5.46445E+04-1.09523E+04-1.24898E+05 8.14202E-09 9.46778E-09
 -1       808-3.02469E+05-5.02684E+04-4.64631E+03-1.23310E+05-5.15593E-09-8.59484E-09
 -1       809-3.01328E+05-5.15665E+04-2.27193E+03-1.25166E+05-5.84077E-09-1.37572E-09
 -1       810-3.02561E+05-4.99887E+04-1.04134E+03-1.23478E+05 1.29967E-09 6.81121E-09
 -1       811-3.01150E+05-5.14427E+04-5.17863E+02-1.25132E+05 1.24555E-09-1.21745E-08
 -1       812-3.02575E+05-5.00127E+04-2.61934E+02-1.23478E+05-2.67755E-09-1.85801E-08
 -1       813-3.01125E+05-5.14448E+04-1.70303E+02-1.25114E+05-1.01863E-10-3.53862E-09
 -1       814-3.02568E+05-5.00220E+04-1.68852E+02-1.23474E+05-3.64798E-09-8.00355E-10
 -1       815-3.01129E+05-5.14469E+04-2.72188E+02-1.25107E+05-4.42196E-09 8.69454E-09
 -1       816-3.02548E+05-5.00210E+04-5.15914E+02-1.23470E+05 5.12046E-10 1.29216E-08
 -1       817-3.01217E+05-5.14960E+04-1.10733E+03-1.25096E+05-1.38302E-08-1.11036E-08
 -1       818-3.02482E+05-5.01770E+04-2.25854E+03-1.23397E+05-3.74075E-09-5.06134E-10
 -1       819-3.02453E+05-5.28606E+04-5.31431E+03-1.24804E+05 1.70439E-09-5.97470E-09
 -1       820-3.02056E+05-5.41906E+04-1.08165E+04-1.21681E+05-1.19962E-09-2.01912E-08
 -1       821-3.72419E+05 2.05149E+04-4.76171E+04 1.74076E+03 1.18412E-08 4.40377E-09
 -1       822-3.92334E+05-2.37578E+04-3.35700E+04-3.48745E+03 3.54442E-09 1.39062E-09
 -1       823-3.80013E+05 3.22654E+03-1.23120E+04 2.65532E+03-9.70229E-09-1.61563E-08
 -1       824-3.83274E+05-3.72491E+03-7.72291E+03-4.02856E+03 1.97334E-09 7.25038E-09
 -1       825-3.81481E+05 5.01239E+02-3.21388E+03 2.28194E+03 1.64731E-08 7.36395E-09
 -1       826-3.81214E+05-5.70891E+02-1.79258E+03-2.20365E+03 1.90080E-08-5.72842E-09
 -1       827-3.82057E+05 6.33675E+01-1.10011E+03 8.30332E+02 9.10077E-09-9.41773E-09
 -1       828-3.80749E+05-1.51958E+02-7.01977E+02 9.88111E+02 1.22998E-09 1.41538E-08
 -1       829-3.81940E+05 7.72652E+01-1.09829E+03-9.09859E+02 7.34971E-10-8.40282E-09
 -1       830-3.81473E+05-6.14727E+02-1.91016E+03 3.80470E+03 1.88132E-09 4.22094E-09
 -1       831-3.81346E+05 5.36651E+02-3.30408E+03-1.98628E+03-3.18122E-09-1.78966E-09
 -1       832-3.83359E+05-3.88172E+03-8.02157E+03 4.70630E+03-4.17498E-09 1.32777E-08
 -1       833-3.80064E+05 3.34846E+03-1.28008E+04-1.81149E+03-2.41306E-09-4.70754E-09
 -1       834-3.92493E+05-2.46596E+04-3.47972E+04 3.17293E+03-3.63926E-09 4.28190E-09
 -1       835-3.72203E+05 2.12887E+04-4.94550E+04-4.52863E+02 4.50544E-09 1.18380E-08
 -1       836-1.36980E+03 3.60501E+05 2.22704E+04-1.62787E+04-6.10453E-09 1.36606E-09
 -1       837 4.75716E+03 3.67472E+05 1.88618E+04-3.31857E+04-6.49175E-09-4.02360E-09
 -1       838-5.39248E+02 3.62453E+05 1.92416E+04-1.62078E+04-5.42877E-09-2.24122E-09
 -1       839 1.21285E+04 3.72962E+05 3.64226E+04-3.32366E+04-5.95173E-09-2.41738E-09
 -1       840-3.74302E+03 3.54953E+05 5.80908E+04-1.62327E+04-5.66070E-09 6.97060E-11
 -1       856-5.51908E+04 7.99013E+03-2.10558E+04-3.98560E+02 5.43196E-09-1.37434E-08
 -1       857-6.38677E+04-9.38626E+03-1.44948E+04 5.54398E+03 5.78996E-09-1.85591E-08
 -1       858-5.86262E+04 1.12043E+03-5.46357E+03-4.22567E+02 3.82522E-09 1.04155E-08
 -1       859-5.99250E+04-1.31637E+03-3.29723E+03 5.57995E+03-3.46995E-09 2.45507E-10
 -1       860-5.91394E+04 1.56798E+02-1.38222E+03-4.34313E+02 2.73630E-09-1.55125E-08
 -1       861-5.93346E+04-1.85526E+02-7.61129E+02 5.59597E+03 2.61093E-09 2.34903E-09
 -1       862-5.92197E+04 2.11767E+01-3.17879E+02-4.38570E+02-1.22523E-09 3.65532E-09
 -1       863-5.92364E+04-2.04326E+01-1.19171E+02 5.59840E+03-2.02922E-09-3.26654E-09
 -1       864-5.92380E+04-4.55018E+00 3.93970E+01-4.36739E+02-3.41015E-09 8.04273E-09
 -1       865-5.91830E+04 5.72932E+01 2.37229E+02 5.58808E+03-7.50859E-10 1.21257E-08
 -1       866-5.92710E+04-5.66103E+01 4.81982E+02-4.28251E+02-1.81331E-10 3.78159E-09
 -1       867-5.89553E+04 4.67926E+02 1.18888E+03 5.56501E+03 7.90351E-10 3.97165E-09
 -1       868-5.94610E+04-4.07893E+02 1.97614E+03-4.13668E+02-2.00015E-09-5.14376E-09
 -1       869-5.75057E+04 3.39468E+03 5.26277E+03 5.52691E+03-1.44681E-09-2.06884E-08
 -1       870-6.07130E+04-2.90405E+03 7.63730E+03-3.90063E+02-5.98845E-09 1.82990E-09
 -1       871-5.42191E+03-2.01110E+04-1.89833E+04 1.26925E+05-4.05635E-09 1.48166E-08
 -1       872-1.99125E+03-2.45097E+04-7.93394E+03 1.64575E+05-9.72796E-09-1.15360E-08
 -1       873 3.49229E+02-2.23896E+04 6.11777E+02 1.26646E+05-5.05315E-09-8.80846E-10
 -1       874 3.18114E+03-2.00088E+04 9.61220E+03 1.64606E+05-1.09494E-08 2.04595E-08
 -1       875 6.67192E+03-2.46792E+04 2.16554E+04 1.26879E+05-5.44060E-09 2.33831E-09
 -1       876 2.87730E+05 4.85747E+04 1.48242E+04 1.15562E+05 4.94106E-09 2.28283E-09
 -1       877 2.88702E+05 5.17054E+04 7.91671E+03 1.19823E+05 8.74320E-09 1.67066E-08
 -1       878 2.89116E+05 4.69328E+04 3.31671E+03 1.16777E+05-5.61113E-09 9.79071E-10
 -1       879 2.86687E+05 4.96945E+04 1.65257E+03 1.19923E+05 3.44335E-09 7.84200E-09
 -1       880 2.89216E+05 4.69158E+04 7.69729E+02 1.16827E+05-4.29418E-09-1.36000E-08
 -1       881 2.86553E+05 4.96086E+04 4.11008E+02 1.19900E+05-1.01454E-08 1.27686E-09
 -1       882 2.89225E+05 4.69288E+04 2.62871E+02 1.16828E+05-2.71484E-09 2.55638E-09
 -1       883 2.86543E+05 4.96041E+04 2.82489E+02 1.19893E+05-2.89958E-09 7.18565E-09
 -1       884 2.89218E+05 4.69260E+04 4.49275E+02 1.16828E+05-6.43672E-09-1.23268E-08
 -1       885 2.86579E+05 4.96103E+04 9.03229E+02 1.19904E+05-9.34401E-09-2.23107E-08
 -1       886 2.89183E+05 4.68996E+04 1.82039E+03 1.16825E+05-1.58325E-09 7.01903E-10
 -1       887 2.86899E+05 4.98201E+04 3.97638E+03 1.19950E+05 1.02886E-08 1.78550E-08
 -1       888 2.88932E+05 4.69439E+04 8.01252E+03 1.16698E+05-5.41334E-09 5.69253E-09
 -1       889 2.91669E+05 5.47806E+04 1.91405E+04 1.19803E+05-2.44358E-09 2.22062E-08
 -1       890 2.85662E+05 5.08278E+04 3.58496E+04 1.13647E+05-9.19044E-10 9.14224E-09
 -1       891-9.58571E+01-1.59701E+05-1.95459E+03 2.69024E+04-2.53135E-09 1.12382E-08
 -1       892-1.84510E+02-1.60213E+05-2.10060E+03 4.08373E+04 3.08728E-09-8.35371E-09
 -1       893 3.43462E+01-1.59763E+05-2.97560E+03 2.69095E+04 1.50294E-10-3.53975E-09
 -1       894-1.49322E+03-1.61338E+05-6.15937E+03 4.06868E+04 2.98951E-09 2.00730E-08
 -1       895-1.18419E+03-1.58480E+05-1.08470E+04 2.70543E+04-1.23578E-09 4.93947E-09
 -1       956-3.68970E+05-5.31355E+03-1.31467E+04 2.96789E+04 8.46740E-09 8.51196E-09
 -1       957-3.71551E+05-1.86483E+03-6.74807E+03 3.56745E+04-2.73440E-09 1.37788E-10
 -1       958-3.70150E+05-2.24080E+02-3.04083E+03 2.95157E+04-9.40599E-09 1.51522E-09
 -1       959-3.70344E+05-1.19992E+02-1.55275E+03 3.58635E+04-6.44377E-10 2.49847E-08
 -1       960-3.70264E+05-3.31364E+01-7.57183E+02 2.94990E+04 5.08135E-09 1.21545E-08
 -1       961-3.70264E+05-4.91829E+01-4.01500E+02 3.58832E+04 1.06420E-08-4.02197E-08
 -1       962-3.70291E+05-3.47255E+01-2.29902E+02 2.94963E+04 7.00038E-09-7.36213E-09
 -1       963-3.70264E+05-4.53222E+01-1.84627E+02 3.58867E+04 8.34166E-09 1.62786E-08
 -1       964-3.70296E+05-3.15102E+01-2.24570E+02 2.94955E+04 4.02069E-09 8.64702E-10
 -1       965-3.70276E+05-4.23274E+01-3.88456E+02 3.58861E+04 5.78001E-09 6.05814E-09
 -1       966-3.70281E+05-2.35803E+01-7.29873E+02 2.94969E+04 8.62860E-09-1.85537E-09
 -1       967-3.70365E+05-1.04052E+02-1.49698E+03 3.58723E+04-2.46177E-09-6.19525E-09
 -1       968-3.70180E+05-2.01505E+02-2.93047E+03 2.95091E+04-3.49246E-10 4.19948E-09
 -1       969-3.71541E+05-1.78081E+03-6.50568E+03 3.57302E+04-2.24099E-09 2.45491E-08
 -1       970-3.69050E+05-5.10433E+03-1.26733E+04 2.96319E+04-3.12775E-09 1.24555E-08
 -1       971-3.38646E+05-1.69977E+03-9.18861E+03 1.51647E+04 7.39328E-09-1.37898E-08
 -1       972-3.40860E+05-1.24810E+03-5.00402E+03 2.09955E+04 1.16461E-09-6.20821E-09
 -1       973-3.39670E+05-5.61299E+01-2.24130E+03 1.50445E+04 3.53793E-10 3.02362E-09
 -1       974-3.39805E+05-7.29525E+01-1.16176E+03 2.11309E+04-3.78554E-09 4.08259E-08
 -1       975-3.39751E+05-1.19121E+01-5.81035E+02 1.50323E+04-1.48475E-09 7.88441E-09
 -1       976-3.39745E+05-2.38153E+01-3.35781E+02 2.11464E+04 1.76829E-09-1.44252E-08
 -1       977-3.39767E+05-1.12349E+01-2.44720E+02 1.50290E+04 1.96837E-09-3.84296E-09
 -1       978-3.39750E+05-1.77178E+01-2.87756E+02 2.11511E+04-6.74117E-09 4.45573E-09
 -1       979-3.39767E+05-2.94368E+00-4.63524E+02 1.50276E+04-1.83826E-09 1.31772E-08
 -1       980-3.39784E+05-1.47209E+01-8.95753E+02 2.11521E+04-3.27560E-11-2.73712E-09
 -1       981-3.39738E+05 1.94393E+01-1.73526E+03 1.50281E+04-6.14364E-10-1.78114E-08
 -1       982-3.40023E+05-1.42933E+02-3.58696E+03 2.11455E+04 1.25897E-09-2.44777E-08
 -1       983-3.39520E+05-9.16685E+01-6.96960E+03 1.50341E+04-1.35151E-09 1.41872E-08
 -1       984-3.43375E+05-3.78294E+03-1.56081E+04 2.10609E+04-5.80258E-10 2.99569E-08
 -1       985-3.36364E+05-5.19159E+03-2.86614E+04 1.51062E+04-2.61207E-09 1.80626E-08
 -3
    1PSTEP                        35          18           1          
  100CL  118 6.57166E-01         409                     0   18           1
 -4  DISP        4    1
 -5  D1          1    2    1    0
 -5  D2          1    2    2    0
 -5  D3          1    2    3    0
 -5  ALL         1    2    0    0    1ALL
 -1         1 2.49419E-03 0.00000E+00 0.00000E+00
 -1         2 1.43823E-03 3.56848E-27 2.64698E-23
 -1         3 3.38779E-04-7.35843E-28 1.32349E-23
 -1         5 1.73969E-04-2.64914E-27 1.65436E-24
 -1         8 2.48031E-03-4.56822E-07 0.00000E+00
 -1         9 2.46590E-03-1.12984E-04 0.00000E+00
 -1        10 3.05406E-04-3.62612E-06 0.00000E+00
 -1        12 1.75690E-04 7.97761E-07 2.06795E-25
 -1        15 2.46394E-03-4.91550E-07 2.06795E-25
 -1        16 2.50962E-03-1.14452E-04 0.00000E+00
 -1        17 2.06591E-04-8.05767E-06 0.00000E+00
 -1        18 1.79278E-04 3.26684E-05 0.00000E+00
 -1        19 1.80852E-04 1.58946E-06 0.00000E+00
 -1        20 1.80993E-04-8.47782E-06 0.00000E+00
 -1        21 1.80118E-04-2.24339E-05-3.30872E-24
 -1        24 3.03544E-05-1.21760E-05 0.00000E+00
 -1        25 1.89427E-04 3.28897E-05 0.00000E+00
 -1        26 1.90115E-04 2.20140E-06 0.00000E+00
 -1        27 1.87946E-04-1.19915E-05 0.00000E+00
 -1        28 1.87622E-04-2.30498E-05 0.00000E+00
 -1        32 0.00000E+00 0.00000E+00 0.00000E+00
 -1        33 1.98364E-04 2.94533E-06 0.00000E+00
 -1        34 1.96272E-04-1.20454E-05 0.00000E+00
 -1        35 1.94361E-04-2.33882E-05 0.00000E+00
 -1        51 2.49328E-03-9.12016E-08-6.61744E-24
 -1        52 2.49160E-03-1.65546E-07 0.00000E+00
 -1        53 2.48930E-03-2.37047E-07 0.00000E+00
 -1        54 2.48655E-03-3.07908E-07 1.65436E-24
 -1        55 2.48350E-03-3.79814E-07 1.44757E-24
 -1        56 2.48928E-03 2.11389E-06 0.00000E+00
 -1        57 2.48182E-03 1.04647E-05-5.29396E-23
 -1        58 2.47276E-03 2.29821E-05 0.00000E+00
 -1        59 2.46302E-03 3.71676E-05 0.00000E+00
 -1        60 2.45371E-03 5.02614E-05-1.05879E-22
 -1        61 2.44585E-03 5.95855E-05 0.00000E+00
 -1        62 2.44022E-03 6.31098E-05 1.05879E-22
 -1        63 2.43735E-03 5.92979E-05 0.00000E+00
 -1        64 2.43727E-03 4.78838E-05 0.00000E+00
 -1        65 2.43980E-03 2.92633E-05 5.29396E-23
 -1        66 2.44428E-03 5.09532E-06 0.00000E+00
 -1        67 2.44996E-03-2.24695E-05 5.29396E-23
 -1        68 2.45586E-03-5.06811E-05 1.05879E-22
 -1        69 2.46103E-03-7.67241E-05 5.29396E-23
 -1        70 2.46458E-03-9.81790E-05-5.29396E-23
 -1        86 1.50251E-03-3.92522E-06 0.00000E+00
 -1        87 1.69023E-03-2.29496E-05 0.00000E+00
 -1        88 1.94260E-03-5.51806E-05 0.00000E+00
 -1        89 2.19783E-03-8.81436E-05 0.00000E+00
 -1        90 2.39257E-03-1.08426E-04-2.64698E-23
 -1       121 3.37840E-04-5.85158E-07 0.00000E+00
 -1       122 3.35028E-04-1.17369E-06 0.00000E+00
 -1       123 3.30355E-04-1.76889E-06 1.32349E-23
 -1       124 3.23841E-04-2.37403E-06 0.00000E+00
 -1       125 3.15512E-04-2.99201E-06 1.32349E-23
 -1       191 1.74017E-04 1.33016E-07 3.30872E-24
 -1       192 1.74160E-04 2.66022E-07-4.13590E-25
 -1       193 1.74399E-04 3.99011E-07-1.65436E-24
 -1       194 1.74734E-04 5.31971E-07 6.20385E-25
 -1       195 1.75164E-04 6.64892E-07 2.89513E-24
 -1       251 2.47977E-03 8.24845E-06 0.00000E+00
 -1       252 2.47905E-03 2.86605E-05-6.61744E-24
 -1       253 2.47817E-03 5.64844E-05-1.32349E-23
 -1       254 2.47720E-03 8.72666E-05-6.61744E-24
 -1       255 2.47629E-03 1.15820E-04 0.00000E+00
 -1       256 2.47556E-03 1.37005E-04 0.00000E+00
 -1       257 2.47498E-03 1.47508E-04 1.32349E-23
 -1       258 2.47446E-03 1.44244E-04 0.00000E+00
 -1       259 2.47380E-03 1.27512E-04 0.00000E+00
 -1       260 2.47286E-03 9.78965E-05-6.61744E-24
 -1       261 2.47162E-03 5.91566E-05-1.32349E-23
 -1       262 2.47018E-03 1.52395E-05-6.61744E-24
 -1       263 2.46874E-03-2.86204E-05 0.00000E+00
 -1       264 2.46751E-03-6.71893E-05 0.00000E+00
 -1       265 2.46657E-03-9.65523E-05 0.00000E+00
 -1       266 2.47758E-03-4.69249E-07-3.30872E-24
 -1       267 2.47485E-03-4.74227E-07 0.00000E+00
 -1       268 2.47212E-03-4.79678E-07 0.00000E+00
 -1       269 2.46940E-03-4.83731E-07 2.06795E-25
 -1       270 2.46667E-03-4.87752E-07-2.06795E-25
 -1       271 2.47890E-03 1.22891E-06 0.00000E+00
 -1       272 2.47805E-03 1.36109E-06 6.61744E-24
 -1       273 2.47776E-03-1.19784E-08-2.64698E-23
 -1       274 2.47801E-03-2.83775E-06-1.32349E-23
 -1       275 2.47877E-03-7.04750E-06 0.00000E+00
 -1       276 2.48002E-03-1.25615E-05 0.00000E+00
 -1       277 2.48171E-03-1.92872E-05 2.64698E-23
 -1       278 2.48381E-03-2.71215E-05-1.32349E-23
 -1       279 2.48627E-03-3.59508E-05 0.00000E+00
 -1       280 2.48906E-03-4.56526E-05 0.00000E+00
 -1       281 2.49211E-03-5.60959E-05-2.64698E-23
 -1       282 2.49538E-03-6.71434E-05 0.00000E+00
 -1       283 2.49882E-03-7.86520E-05-2.64698E-23
 -1       284 2.50238E-03-9.04735E-05 0.00000E+00
 -1       285 2.50599E-03-1.02459E-04 1.32349E-23
 -1       301 2.47385E-03-1.13256E-04-6.61744E-24
 -1       302 2.48041E-03-1.13490E-04 3.30872E-24
 -1       303 2.48643E-03-1.13718E-04 0.00000E+00
 -1       304 2.49274E-03-1.13946E-04-1.32349E-23
 -1       305 2.50020E-03-1.14184E-04-2.64698E-23
 -1       306 2.50198E-03-2.57937E-04 0.00000E+00
 -1       307 2.56634E-03-6.53729E-04 0.00000E+00
 -1       308 2.61727E-03-1.23618E-03 0.00000E+00
 -1       309 2.64735E-03-1.91425E-03 0.00000E+00
 -1       310 2.68309E-03-2.56731E-03 1.05879E-22
 -1       311 2.74353E-03-3.07698E-03-5.29396E-23
 -1       312 2.80236E-03-3.36494E-03-1.05879E-22
 -1       313 2.80402E-03-3.39144E-03 0.00000E+00
 -1       314 2.68009E-03-3.16573E-03-1.05879E-22
 -1       315 2.39071E-03-2.74589E-03 5.29396E-23
 -1       316 1.95146E-03-2.20513E-03-1.05879E-22
 -1       317 1.42235E-03-1.61169E-03 0.00000E+00
 -1       318 9.10043E-04-1.02779E-03 0.00000E+00
 -1       319 5.16212E-04-5.18788E-04 0.00000E+00
 -1       320 2.83320E-04-1.55760E-04-1.05879E-22
 -1       336 2.93455E-04-4.30282E-06 0.00000E+00
 -1       337 2.79601E-04-5.00313E-06 0.00000E+00
 -1       338 2.63908E-04-5.72909E-06-1.32349E-23
 -1       339 2.46452E-04-6.48076E-06-6.61744E-24
 -1       340 2.27315E-04-7.26204E-06-1.32349E-23
 -1       406 1.76311E-04 9.30562E-07 1.24077E-24
 -1       407 1.77028E-04 1.06326E-06 0.00000E+00
 -1       408 1.77841E-04 1.19580E-06 2.89513E-24
 -1       409 1.78749E-04 1.32802E-06 0.00000E+00
 -1       410 1.79753E-04 1.45965E-06-1.65436E-24
 -1       521 2.54642E-03-2.68510E-04 0.00000E+00
 -1       522 2.60940E-03-6.83668E-04 0.00000E+00
 -1       523 2.65475E-03-1.29259E-03-1.05879E-22
 -1       524 2.67666E-03-1.99792E-03 0.00000E+00
 -1       525 2.70528E-03-2.67637E-03-1.05879E-22
 -1       526 2.76244E-03-3.20719E-03 0.00000E+00
 -1       527 2.82089E-03-3.50579E-03 2.11758E-22
 -1       528 2.82072E-03-3.53139E-03 5.29396E-23
 -1       529 2.68647E-03-3.29298E-03 2.11758E-22
 -1       530 2.37602E-03-2.85566E-03 0.00000E+00
 -1       531 1.90544E-03-2.29611E-03 1.05879E-22
 -1       532 1.34047E-03-1.68537E-03 0.00000E+00
 -1       533 7.92660E-04-1.08362E-03 0.00000E+00
 -1       534 3.68437E-04-5.54363E-04 0.00000E+00
 -1       535 1.15988E-04-1.72681E-04-2.11758E-22
 -1       536 2.05867E-04 2.59625E-05 0.00000E+00
 -1       537 2.04035E-04 8.49117E-05 0.00000E+00
 -1       538 2.01208E-04 1.59737E-04 0.00000E+00
 -1       539 1.97873E-04 2.41303E-04 0.00000E+00
 -1       540 1.94870E-04 3.18386E-04 0.00000E+00
 -1       541 1.92916E-04 3.79781E-04 1.65436E-24
 -1       542 1.92011E-04 4.18878E-04 0.00000E+00
 -1       543 1.91790E-04 4.29210E-04 0.00000E+00
 -1       544 1.91476E-04 4.11540E-04 0.00000E+00
 -1       545 1.90350E-04 3.66843E-04-1.65436E-24
 -1       546 1.88258E-04 3.03071E-04 0.00000E+00
 -1       547 1.85430E-04 2.28294E-04 0.00000E+00
 -1       548 1.82630E-04 1.53903E-04 0.00000E+00
 -1       549 1.80609E-04 9.12900E-05-1.65436E-24
 -1       550 1.79557E-04 4.83033E-05 0.00000E+00
 -1       551 1.82040E-04-8.61599E-06 0.00000E+00
 -1       552 1.54305E-04-9.25083E-06 0.00000E+00
 -1       553 1.24317E-04-9.94497E-06 9.92617E-24
 -1       554 9.30302E-05-1.06781E-05 0.00000E+00
 -1       555 6.13938E-05-1.14237E-05 1.32349E-23
 -1       556 1.99160E-04 1.09532E-05-5.29396E-23
 -1       557 1.93161E-04 2.63597E-05 2.64698E-23
 -1       558 1.88462E-04 3.84436E-05 5.29396E-23
 -1       559 1.84933E-04 4.75088E-05 0.00000E+00
 -1       560 1.82448E-04 5.38596E-05 0.00000E+00
 -1       561 1.80881E-04 5.78026E-05 0.00000E+00
 -1       562 1.80110E-04 5.96459E-05 0.00000E+00
 -1       563 1.80014E-04 5.96981E-05 0.00000E+00
 -1       564 1.80474E-04 5.82689E-05 0.00000E+00
 -1       565 1.81371E-04 5.56686E-05 0.00000E+00
 -1       566 1.82588E-04 5.22080E-05 0.00000E+00
 -1       567 1.84010E-04 4.81982E-05 0.00000E+00
 -1       568 1.85520E-04 4.39507E-05 1.65436E-24
 -1       569 1.87003E-04 3.97766E-05 0.00000E+00
 -1       570 1.88343E-04 3.59873E-05 0.00000E+00
 -1       571 1.79374E-04 3.06528E-05 2.48154E-24
 -1       572 1.79471E-04 2.85728E-05 1.24077E-24
 -1       573 1.79569E-04 2.64435E-05-1.65436E-24
 -1       574 1.79667E-04 2.42810E-05 1.65436E-24
 -1       575 1.79766E-04 2.21013E-05 0.00000E+00
 -1       576 1.79864E-04 1.99204E-05-1.65436E-24
 -1       577 1.79962E-04 1.77545E-05 3.30872E-24
 -1       578 1.80061E-04 1.56197E-05 6.61744E-24
 -1       579 1.80159E-04 1.35321E-05 0.00000E+00
 -1       580 1.80258E-04 1.15078E-05 0.00000E+00
 -1       581 1.80356E-04 9.56294E-06 0.00000E+00
 -1       582 1.80455E-04 7.71359E-06 0.00000E+00
 -1       583 1.80554E-04 5.97584E-06-6.61744E-24
 -1       584 1.80653E-04 4.36562E-06 0.00000E+00
 -1       585 1.80753E-04 2.89868E-06 0.00000E+00
 -1       586 1.80928E-04 3.27074E-05 0.00000E+00
 -1       587 1.82538E-04 3.27458E-05 0.00000E+00
 -1       588 1.84149E-04 3.27839E-05-8.27181E-25
 -1       589 1.85806E-04 3.28213E-05 0.00000E+00
 -1       590 1.87552E-04 3.28574E-05 0.00000E+00
 -1       591 1.79968E-04 3.07437E-05 1.03398E-25
 -1       592 1.80660E-04 2.87986E-05 0.00000E+00
 -1       593 1.81358E-04 2.68389E-05-8.27181E-25
 -1       594 1.82059E-04 2.48693E-05 0.00000E+00
 -1       595 1.82762E-04 2.28948E-05-8.27181E-25
 -1       596 1.83464E-04 2.09200E-05 0.00000E+00
 -1       597 1.84165E-04 1.89497E-05-8.27181E-25
 -1       598 1.84863E-04 1.69886E-05 0.00000E+00
 -1       599 1.85555E-04 1.50415E-05 0.00000E+00
 -1       600 1.86241E-04 1.31130E-05 4.13590E-25
 -1       601 1.86917E-04 1.12080E-05 0.00000E+00
 -1       602 1.87584E-04 9.33107E-06 2.06795E-25
 -1       603 1.88238E-04 7.48709E-06 8.27181E-25
 -1       604 1.88878E-04 5.68085E-06-7.75482E-26
 -1       605 1.89503E-04 3.91699E-06 4.13590E-25
 -1       606 1.80865E-04 5.09798E-07 3.30872E-24
 -1       607 1.80875E-04-4.83302E-07 0.00000E+00
 -1       608 1.80884E-04-1.39492E-06 0.00000E+00
 -1       609 1.80892E-04-2.23079E-06 0.00000E+00
 -1       610 1.80901E-04-2.99669E-06-3.30872E-24
 -1       611 1.80909E-04-3.69846E-06 0.00000E+00
 -1       612 1.80918E-04-4.34196E-06 0.00000E+00
 -1       613 1.80926E-04-4.93304E-06 0.00000E+00
 -1       614 1.80935E-04-5.47757E-06 0.00000E+00
 -1       615 1.80943E-04-5.98140E-06 0.00000E+00
 -1       616 1.80951E-04-6.45039E-06 0.00000E+00
 -1       617 1.80960E-04-6.89040E-06 0.00000E+00
 -1       618 1.80968E-04-7.30729E-06 8.27181E-25
 -1       619 1.80977E-04-7.70692E-06 0.00000E+00
 -1       620 1.80985E-04-8.09515E-06-2.06795E-25
 -1       621 1.82121E-04 1.69198E-06-1.65436E-24
 -1       622 1.83543E-04 1.79475E-06 0.00000E+00
 -1       623 1.85085E-04 1.89733E-06 3.30872E-24
 -1       624 1.86716E-04 1.99960E-06 0.00000E+00
 -1       625 1.88403E-04 2.10158E-06 3.30872E-24
 -1       626 1.81367E-04 5.45411E-07 3.30872E-24
 -1       627 1.81860E-04-4.34604E-07 0.00000E+00
 -1       628 1.82332E-04-1.35844E-06 0.00000E+00
 -1       629 1.82785E-04-2.23426E-06 0.00000E+00
 -1       630 1.83224E-04-3.07029E-06 0.00000E+00
 -1       631 1.83652E-04-3.87474E-06 0.00000E+00
 -1       632 1.84070E-04-4.65582E-06 0.00000E+00
 -1       633 1.84483E-04-5.42178E-06-1.65436E-24
 -1       634 1.84893E-04-6.18081E-06 0.00000E+00
 -1       635 1.85304E-04-6.94115E-06 0.00000E+00
 -1       636 1.85718E-04-7.71102E-06 0.00000E+00
 -1       637 1.86139E-04-8.49865E-06 1.65436E-24
 -1       638 1.86569E-04-9.31226E-06-1.65436E-24
 -1       639 1.87012E-04-1.01601E-05-8.27181E-25
 -1       640 1.87471E-04-1.10504E-05-1.65436E-24
 -1       656 1.81608E-04-9.04894E-06 6.61744E-24
 -1       657 1.82640E-04-9.64326E-06-6.61744E-24
 -1       658 1.83952E-04-1.02362E-05 1.32349E-23
 -1       659 1.85395E-04-1.08288E-05 0.00000E+00
 -1       660 1.86787E-04-1.14231E-05-6.61744E-24
 -1       661 1.81223E-04-8.90476E-06-8.27181E-25
 -1       662 1.81491E-04-9.42194E-06 0.00000E+00
 -1       663 1.81790E-04-1.00243E-05 0.00000E+00
 -1       664 1.82119E-04-1.07054E-05-8.27181E-25
 -1       665 1.82476E-04-1.14597E-05-1.65436E-24
 -1       666 1.82858E-04-1.22814E-05 0.00000E+00
 -1       667 1.83263E-04-1.31650E-05 0.00000E+00
 -1       668 1.83689E-04-1.41051E-05-8.27181E-25
 -1       669 1.84134E-04-1.50963E-05 1.65436E-24
 -1       670 1.84597E-04-1.61336E-05 0.00000E+00
 -1       671 1.85075E-04-1.72119E-05 0.00000E+00
 -1       672 1.85566E-04-1.83262E-05 0.00000E+00
 -1       673 1.86068E-04-1.94717E-05-1.65436E-24
 -1       674 1.86580E-04-2.06438E-05 4.13590E-25
 -1       675 1.87100E-04-2.18375E-05-4.13590E-25
 -1       676 1.81373E-04-2.25371E-05 3.30872E-24
 -1       677 1.82627E-04-2.26403E-05 0.00000E+00
 -1       678 1.83880E-04-2.27435E-05 0.00000E+00
 -1       679 1.85130E-04-2.28464E-05-1.65436E-24
 -1       680 1.86378E-04-2.29492E-05-1.65436E-24
 -1       771 1.87259E-05 1.37884E-05 0.00000E+00
 -1       772 8.93548E-06 3.51164E-05 0.00000E+00
 -1       773 8.95161E-07 5.20323E-05 0.00000E+00
 -1       774-5.51527E-06 6.47874E-05 2.64698E-23
 -1       775-1.04135E-05 7.36428E-05 5.29396E-23
 -1       776-1.39221E-05 7.88757E-05-2.64698E-23
 -1       777-1.61632E-05 8.07730E-05 5.29396E-23
 -1       778-1.72618E-05 7.96348E-05-2.64698E-23
 -1       779-1.73421E-05 7.57697E-05 5.29396E-23
 -1       780-1.65304E-05 6.94967E-05 5.29396E-23
 -1       781-1.49521E-05 6.11419E-05 5.29396E-23
 -1       782-1.27343E-05 5.10393E-05 0.00000E+00
 -1       783-1.00029E-05 3.95278E-05 5.29396E-23
 -1       784-6.88554E-06 2.69519E-05 0.00000E+00
 -1       785-3.50851E-06 1.36594E-05 0.00000E+00
 -1       786 1.89465E-04 3.07464E-05 0.00000E+00
 -1       787 1.89508E-04 2.86527E-05 4.13590E-25
 -1       788 1.89550E-04 2.66001E-05 0.00000E+00
 -1       789 1.89593E-04 2.45808E-05 0.00000E+00
 -1       790 1.89636E-04 2.25900E-05 1.65436E-24
 -1       791 1.89679E-04 2.06229E-05 0.00000E+00
 -1       792 1.89722E-04 1.86775E-05-1.65436E-24
 -1       793 1.89766E-04 1.67515E-05 0.00000E+00
 -1       794 1.89809E-04 1.48449E-05-1.65436E-24
 -1       795 1.89853E-04 1.29574E-05 8.27181E-25
 -1       796 1.89896E-04 1.10909E-05 0.00000E+00
 -1       797 1.89939E-04 9.24739E-06-8.27181E-25
 -1       798 1.89983E-04 7.43106E-06 1.65436E-24
 -1       799 1.90027E-04 5.64624E-06-8.27181E-25
 -1       800 1.90070E-04 3.90048E-06 1.65436E-24
 -1       801 1.45107E-04 2.95374E-05 2.64698E-23
 -1       802 1.10359E-05 1.84795E-05 2.64698E-23
 -1       803-1.03736E-04 9.36592E-06 5.29396E-23
 -1       804-9.23895E-05 6.50432E-06 0.00000E+00
 -1       805-3.05604E-05 2.58312E-06 0.00000E+00
 -1       806 1.90117E-04 3.06787E-05-3.30872E-24
 -1       807 1.90793E-04 2.84937E-05 0.00000E+00
 -1       808 1.91457E-04 2.63398E-05 0.00000E+00
 -1       809 1.92107E-04 2.42211E-05 0.00000E+00
 -1       810 1.92743E-04 2.21415E-05 0.00000E+00
 -1       811 1.93362E-04 2.01048E-05 1.65436E-24
 -1       812 1.93964E-04 1.81149E-05 0.00000E+00
 -1       813 1.94547E-04 1.61758E-05 0.00000E+00
 -1       814 1.95110E-04 1.42911E-05 3.30872E-24
 -1       815 1.95651E-04 1.24648E-05-1.65436E-24
 -1       816 1.96169E-04 1.07006E-05-3.30872E-24
 -1       817 1.96662E-04 9.00241E-06-1.65436E-24
 -1       818 1.97129E-04 7.37400E-06 1.65436E-24
 -1       819 1.97569E-04 5.81920E-06 8.27181E-25
 -1       820 1.97981E-04 4.34173E-06-3.30872E-24
 -1       821 1.89987E-04 3.22409E-08 1.65436E-24
 -1       822 1.89849E-04-3.11893E-06 0.00000E+00
 -1       823 1.89710E-04-6.87650E-06-3.30872E-24
 -1       824 1.89568E-04-1.08611E-05 1.65436E-24
 -1       825 1.89427E-04-1.46326E-05 0.00000E+00
 -1       826 1.89288E-04-1.77518E-05 0.00000E+00
 -1       827 1.89151E-04-1.99562E-05 0.00000E+00
 -1       828 1.89016E-04-2.09886E-05 1.65436E-24
 -1       829 1.88882E-04-2.09083E-05-3.30872E-24
 -1       830 1.88746E-04-1.97815E-05-1.65436E-24
 -1       831 1.88610E-04-1.79571E-05 0.00000E+00
 -1       832 1.88474E-04-1.57883E-05-1.65436E-24
 -1       833 1.88338E-04-1.37211E-05-3.30872E-24
 -1       834 1.88204E-04-1.22014E-05 0.00000E+00
 -1       835 1.88071E-04-1.15272E-05 8.27181E-25
 -1       836 1.91699E-04 2.32479E-06 0.00000E+00
 -1       837 1.93157E-04 2.45127E-06 0.00000E+00
 -1       838 1.94521E-04 2.57768E-06 3.30872E-24
 -1       839 1.95822E-04 2.70339E-06 0.00000E+00
 -1       840 1.97093E-04 2.82893E-06 0.00000E+00
 -1       856 1.87929E-04-1.29548E-05 8.27181E-25
 -1       857 1.87909E-04-1.37836E-05-1.29247E-26
 -1       858 1.87890E-04-1.44987E-05 4.13590E-25
 -1       859 1.87869E-04-1.51211E-05 0.00000E+00
 -1       860 1.87849E-04-1.56719E-05 0.00000E+00
 -1       861 1.87829E-04-1.61723E-05 0.00000E+00
 -1       862 1.87809E-04-1.66433E-05 0.00000E+00
 -1       863 1.87788E-04-1.71061E-05 0.00000E+00
 -1       864 1.87768E-04-1.75819E-05 8.27181E-25
 -1       865 1.87748E-04-1.80919E-05 0.00000E+00
 -1       866 1.87727E-04-1.86573E-05-8.27181E-25
 -1       867 1.87707E-04-1.92990E-05 4.13590E-25
 -1       868 1.87686E-04-2.00382E-05 0.00000E+00
 -1       869 1.87665E-04-2.08959E-05 0.00000E+00
 -1       870 1.87644E-04-2.18928E-05 0.00000E+00
 -1       871 1.89193E-04-1.19961E-05-8.27181E-25
 -1       872 1.90586E-04-1.20041E-05 0.00000E+00
 -1       873 1.92058E-04-1.20127E-05 0.00000E+00
 -1       874 1.93541E-04-1.20221E-05-3.87741E-25
 -1       875 1.94968E-04-1.20321E-05-1.65436E-24
 -1       876 1.88433E-04-1.29405E-05 0.00000E+00
 -1       877 1.88898E-04-1.38232E-05 0.00000E+00
 -1       878 1.89341E-04-1.46477E-05-3.30872E-24
 -1       879 1.89766E-04-1.54212E-05 0.00000E+00
 -1       880 1.90175E-04-1.61510E-05 0.00000E+00
 -1       881 1.90570E-04-1.68446E-05-1.65436E-24
 -1       882 1.90954E-04-1.75091E-05-3.30872E-24
 -1       883 1.91330E-04-1.81519E-05 0.00000E+00
 -1       884 1.91701E-04-1.87803E-05-3.30872E-24
 -1       885 1.92069E-04-1.94014E-05 0.00000E+00
 -1       886 1.92437E-04-2.00227E-05 3.30872E-24
 -1       887 1.92807E-04-2.06513E-05-1.65436E-24
 -1       888 1.93183E-04-2.12946E-05-3.30872E-24
 -1       889 1.93566E-04-2.19601E-05 1.65436E-24
 -1       890 1.93960E-04-2.26548E-05 0.00000E+00
 -1       891 1.88886E-04-2.31067E-05 0.00000E+00
 -1       892 1.90128E-04-2.31636E-05 8.27181E-25
 -1       893 1.91321E-04-2.32205E-05 1.65436E-24
 -1       894 1.92441E-04-2.32772E-05 8.27181E-25
 -1       895 1.93462E-04-2.33336E-05 0.00000E+00
 -1       956 1.98235E-04 1.72071E-06-1.65436E-24
 -1       957 1.98104E-04 5.86066E-07-8.27181E-25
 -1       958 1.97974E-04-4.69146E-07 0.00000E+00
 -1       959 1.97842E-04-1.45604E-06 0.00000E+00
 -1       960 1.97711E-04-2.38577E-06 0.00000E+00
 -1       961 1.97580E-04-3.26953E-06 1.65436E-24
 -1       962 1.97449E-04-4.11853E-06 0.00000E+00
 -1       963 1.97318E-04-4.94399E-06 0.00000E+00
 -1       964 1.97187E-04-5.75713E-06 0.00000E+00
 -1       965 1.97056E-04-6.56916E-06 0.00000E+00
 -1       966 1.96924E-04-7.39131E-06-3.30872E-24
 -1       967 1.96793E-04-8.23480E-06-1.65436E-24
 -1       968 1.96662E-04-9.11083E-06 3.30872E-24
 -1       969 1.96531E-04-1.00306E-05 1.65436E-24
 -1       970 1.96401E-04-1.10052E-05 3.30872E-24
 -1       971 1.96154E-04-1.30842E-05 3.30872E-24
 -1       972 1.96034E-04-1.40289E-05 0.00000E+00
 -1       973 1.95914E-04-1.48900E-05 0.00000E+00
 -1       974 1.95794E-04-1.56781E-05 0.00000E+00
 -1       975 1.95674E-04-1.64041E-05 0.00000E+00
 -1       976 1.95553E-04-1.70788E-05 1.65436E-24
 -1       977 1.95433E-04-1.77130E-05 0.00000E+00
 -1       978 1.95313E-04-1.83176E-05 0.00000E+00
 -1       979 1.95193E-04-1.89034E-05 3.30872E-24
 -1       980 1.95073E-04-1.94812E-05 0.00000E+00
 -1       981 1.94953E-04-2.00619E-05 0.00000E+00
 -1       982 1.94833E-04-2.06564E-05 0.00000E+00
 -1       983 1.94714E-04-2.12754E-05 3.30872E-24
 -1       984 1.94594E-04-2.19299E-05-1.65436E-24
 -1       985 1.94476E-04-2.26306E-05 0.00000E+00
 -3
    1PSTEP                        36          18           1          
  100CL  118 6.57166E-01         409                     0   18           1
 -4  STRESS      6    1
 -5  SXX         1    4    1    1
 -5  SYY         1    4    2    2
 -5  SZZ         1    4    3    3
 -5  SXY         1    4    1    2
 -5  SYZ         1    4    2    3
 -5  SZX         1    4    3    1
 -1         1-4.94563E+06-1.70104E+06-1.07252E+06-1.57666E+06 1.97906E-09-2.00554E-07
 -1         2 7.93071E+05 1.13829E+07 2.92763E+06 3.53208E+06 1.60362E-08-7.62593E-08
 -1         3-1.50475E+03-1.66157E+06 2.70474E+02-2.62886E+03 8.31726E-10 2.67901E-08
 -1         5-6.54687E+01 3.80868E+05 9.84132E+00-1.21741E+00-4.53047E-10 1.97288E-08
 -1         8-7.46619E+05-2.44801E+05-9.35014E+04-2.62177E+05 3.63798E-10-2.23990E-08
 -1         9 1.02438E+07 1.88746E+06 2.17457E+06-7.05289E+05-1.71131E-09 5.25499E-08
 -1        10-1.41707E+03-1.69756E+06-3.45968E+03-1.64368E+04-4.46016E-09-1.75788E-08
 -1        12-6.15803E+01 3.80889E+05 3.22917E+02-8.34709E+00-8.09166E-10 1.04083E-08
 -1        15 1.09997E+03 6.04494E+02 3.55562E+03 1.29776E+00-7.32570E-11 8.99732E-08
 -1        16 2.09988E+07-2.30542E+05 2.89777E+06-1.87430E+06 6.46105E-09 9.87202E-08
 -1        17 7.64420E+06 5.63295E+06 2.06232E+06 5.43885E+06 2.44967E-08 1.51689E-08
 -1        18 1.33216E+05 3.10360E+04 2.36917E+03-1.17221E+05 1.29698E-08-1.00135E-09
 -1        19 1.20765E+05 1.39732E+05-9.32106E+02 2.17786E+04 1.55851E-09-1.42540E-08
 -1        20-7.98522E+04-5.66253E+05-1.26990E+05 2.53768E+04-2.24660E-09 4.16912E-09
 -1        21-4.54106E+01-2.93423E+05-9.17098E+02 2.52576E+02 1.38025E-08-1.96598E-08
 -1        24 1.26572E+07 1.08434E+07 3.52623E+06 1.00639E+07-1.72770E-07-5.15332E-08
 -1        25 1.08183E+05 2.05374E+05 8.41568E+04-6.08802E+05-2.50975E-09 1.37803E-08
 -1        26-5.44891E+04 9.09503E+04-2.43126E+04 9.10497E+02 9.13133E-11 1.35356E-08
 -1        27-7.53731E+04-3.06131E+05-1.12065E+05 6.81295E+04 4.77333E-09 2.65209E-09
 -1        28 2.20801E+04-8.44675E+04 1.67449E+04 2.06379E+04-3.62098E-09 2.42255E-09
 -1        32-1.66441E+06-3.11892E+06-1.89510E+05 3.91474E+05-4.08254E-08-1.03090E-08
 -1        33-1.76373E+05 9.16562E+04 3.19609E+04-3.82725E+04-2.88874E-09 4.19520E-09
 -1        34-2.21076E+05-2.46258E+04 6.76533E+02 7.45365E+04-5.13224E-09 1.23863E-08
 -1        35-2.27470E+04-3.34999E+04-1.33392E+03 5.10515E+04-2.34771E-09-1.96887E-08
 -1        51 5.57239E+04-1.90804E+05 1.18933E+05-5.38039E+05-1.01863E-10 1.62021E-07
 -1        52 1.94129E+04-1.70761E+05 6.32189E+04-6.27379E+05 2.83762E-10 6.22349E-08
 -1        53 4.62907E+03-1.86186E+05 3.42381E+04-5.36122E+05 3.49246E-10-3.55940E-08
 -1        54 9.37479E+03-1.82182E+05 3.07805E+04-6.29321E+05 4.36557E-10-1.39411E-07
 -1        55 2.01077E+04-1.90469E+05 4.05441E+04-5.35922E+05 2.54659E-10 1.70196E-07
 -1        56-9.14036E+06-1.09393E+06-8.00876E+05-3.64686E+06 2.18424E-08-3.28437E-07
 -1        57-9.89578E+06-1.34010E+06-5.33164E+05-3.09089E+06-4.74101E-08 4.69445E-08
 -1        58-9.21094E+06-1.41690E+06-1.86292E+05-3.67954E+06 5.24597E-09 1.12959E-07
 -1        59-9.78543E+06-9.84048E+05-1.09979E+05-3.09304E+06-5.43041E-08 9.61882E-09
 -1        60-9.25598E+06-1.43578E+06-4.48758E+04-3.65344E+06-1.10122E-08-3.39533E-08
 -1        61-9.60720E+06-1.06342E+06-1.93866E+04-3.21600E+06-4.30737E-09 1.92340E-07
 -1        62-9.37125E+06-1.34822E+06-1.95503E+04-3.54382E+06-1.28202E-08-1.80415E-07
 -1        63-9.35330E+06-1.28652E+06-1.61414E+03-3.46504E+06-1.01863E-08 1.87541E-07
 -1        64-9.49687E+06-1.22154E+06-1.83780E+04-3.39544E+06-1.87501E-08-3.89464E-08
 -1        65-9.16858E+06-1.50399E+06-1.74338E+04-3.73554E+06-6.92780E-08 3.30814E-08
 -1        66-9.57046E+06-1.12092E+06-4.00000E+04-3.28401E+06 3.61397E-08 1.43755E-07
 -1        67-9.12370E+06-1.63808E+06-9.85215E+04-3.86630E+06-8.74861E-08-3.50619E-07
 -1        68-9.55871E+06-1.07710E+06-1.67210E+05-3.27581E+06 1.02646E-08-2.05036E-07
 -1        69-9.32626E+06-1.84792E+06-4.76972E+05-3.73211E+06 5.91626E-09-2.01777E-07
 -1        70-9.35977E+06-9.26393E+05-7.19050E+05-3.40865E+06 3.66272E-08 5.86151E-08
 -1        86-8.06346E+05-1.02791E+07-1.59702E+06-1.68292E+06-1.97710E-07-2.15216E-07
 -1        87 1.18814E+06 2.54857E+06 1.32885E+06 3.53728E+06-3.61375E-07 1.31769E-07
 -1        88-1.83008E+05-2.48052E+06 1.12667E+05-1.81549E+06-3.10261E-07-7.50474E-08
 -1        89 1.60605E+06 2.39196E+06 1.34417E+06 3.63284E+06-4.32745E-07-2.93102E-07
 -1        90-1.18090E+06-1.01611E+07-1.74538E+06-1.78825E+06-1.21589E-07 1.26282E-07
 -1       121-2.06629E+03-1.66690E+06-8.08444E+02 1.30427E+03 3.77739E-10 2.42107E-08
 -1       122-1.35334E+03-1.66170E+06 4.14865E+02-5.25559E+03 5.32270E-09-8.94943E-10
 -1       123-2.04237E+03-1.66700E+06-4.83317E+02 3.89094E+03 1.97929E-09-2.12094E-09
 -1       124-3.02323E+02-1.66175E+06 1.32076E+03-1.08675E+04 1.14196E-08 2.91948E-09
 -1       125-2.44547E+03-1.66753E+06 7.23539E+02 6.86665E+03 3.57977E-09-3.64525E-09
 -1       191-6.90306E+01 3.80887E+05 8.81001E+00 6.32083E-01-5.44299E-10 2.52130E-08
 -1       192-6.64126E+01 3.80868E+05 2.09798E+01-3.95104E+00-7.39439E-10 2.46446E-08
 -1       193-7.15184E+01 3.80887E+05 3.61441E+01 3.46240E+00-9.95861E-10 1.29912E-08
 -1       194-6.94401E+01 3.80871E+05 7.97035E+01-8.98205E+00-4.96873E-10 7.61793E-09
 -1       195-7.62941E+01 3.80885E+05 1.53020E+02 5.82239E+00-1.42738E-09-2.49020E-09
 -1       251-1.51630E+06 2.55694E+04-9.84517E+04-5.82296E+04 8.25457E-09-9.94405E-08
 -1       252-1.42571E+06-2.80409E+04-4.44422E+04 1.91500E+05-5.96606E-09-1.90537E-07
 -1       253-1.46409E+06 4.61607E+03-2.13103E+04-1.04120E+05-4.00109E-09-7.53462E-08
 -1       254-1.45657E+06 3.20716E+03-8.71088E+03 2.23729E+05 7.12947E-09-6.49911E-08
 -1       255-1.48868E+06-8.20030E+02-9.91093E+03-9.05954E+04-1.62859E-08 2.04618E-07
 -1       256-1.35536E+06 5.77835E+03 1.97651E+04 1.43324E+05 7.82302E-09 1.38808E-07
 -1       257-1.55652E+06-6.74092E+03-2.04477E+04-2.35114E+04 6.50562E-09-1.37670E-07
 -1       258-1.29542E+06 6.43669E+03 3.38354E+04-1.00975E+04 5.49335E-10 5.19182E-08
 -1       259-1.54382E+06-7.53511E+03-1.59844E+04 6.24710E+04 2.13404E-08-1.12442E-07
 -1       260-1.38678E+06 1.20459E+04 2.01221E+04-1.51957E+05-4.44925E-09-4.11295E-07
 -1       261-1.47321E+06-4.58023E+03 3.18669E+03 1.18333E+05 2.99401E-08 2.74279E-08
 -1       262-1.46095E+06 2.08896E+04 1.57485E+04-2.07040E+05-1.41930E-08 2.12847E-07
 -1       263-1.47607E+06-9.39381E+03 1.72196E+04 1.17933E+05 9.51695E-09 1.12485E-07
 -1       264-1.36611E+06 5.37412E+04 7.16321E+04-1.50790E+05 5.16357E-08 4.21142E-08
 -1       265-1.56128E+06-4.42304E+04 5.55979E+04 6.17002E+04 2.38761E-08 8.49250E-08
 -1       266-1.99132E+04-9.31200E+03 4.67193E+04-2.77668E+01 5.45697E-11 1.00147E-07
 -1       267 2.30847E+04 1.08524E+04 3.30219E+04 3.20390E+01 2.14641E-10-5.04935E-08
 -1       268-3.09562E+03-1.53705E+03 1.22740E+04-4.08223E+00-1.24146E-10-1.19671E-08
 -1       269 3.65502E+03 1.83948E+03 7.97798E+03 4.75529E+00-1.44155E-10-2.44402E-08
 -1       270-5.48616E+02-3.02236E+02 3.85109E+03-6.45321E-01 3.61752E-10 1.00892E-07
 -1       271-1.74218E+06-2.15491E+05-1.29101E+05-6.72649E+05-2.00000E-08 4.96148E-08
 -1       272-1.78373E+06-3.10798E+05-8.25179E+04-6.73407E+05 5.74437E-09 8.68567E-09
 -1       273-1.76798E+06-2.45815E+05-3.07662E+04-6.65102E+05-1.87847E-08 6.35882E-08
 -1       274-1.75263E+06-2.74685E+05-1.68355E+04-6.86040E+05 1.16261E-08 3.91447E-08
 -1       275-1.77322E+06-2.47151E+05-7.37045E+03-6.61967E+05 1.35988E-08-6.47251E-08
 -1       276-1.74562E+06-2.74248E+05-3.57026E+03-6.92249E+05 5.35965E-09-3.58654E-07
 -1       277-1.77566E+06-2.45366E+05-1.98981E+03-6.59580E+05 8.74934E-10 6.03468E-08
 -1       278-1.74227E+06-2.77309E+05-1.03740E+03-6.97134E+05-2.05000E-08 8.02190E-08
 -1       279-1.77738E+06-2.43546E+05-1.17909E+03-6.57663E+05-4.95638E-08 8.16558E-08
 -1       280-1.74017E+06-2.80236E+05-1.66225E+03-7.00966E+05-1.10081E-08 2.52062E-07
 -1       281-1.77851E+06-2.41982E+05-3.11147E+03-6.56261E+05 6.08998E-09 1.38311E-07
 -1       282-1.74007E+06-2.84129E+05-7.21691E+03-7.03404E+05 4.17594E-09 1.17985E-07
 -1       283-1.77809E+06-2.39472E+05-1.28753E+04-6.55559E+05-2.47155E-08-1.70444E-07
 -1       284-1.75053E+06-3.02612E+05-3.50491E+04-7.02165E+05 3.60815E-08-1.80074E-07
 -1       285-1.76863E+06-2.25056E+05-5.44616E+04-6.57095E+05 6.72662E-09 1.57397E-07
 -1       301 5.52973E+03-5.84093E+05 1.70024E+05-1.01873E+06-2.07365E-09-1.27817E-07
 -1       302 6.25066E+03-5.39575E+05 1.02684E+05-1.48839E+06 1.01863E-10-7.31234E-08
 -1       303-1.19975E+04-5.72936E+05 5.98762E+04-1.01609E+06-3.42698E-09 6.11653E-08
 -1       304-8.90923E+03-5.44224E+05 6.34989E+04-1.48761E+06-1.02300E-08 1.75824E-07
 -1       305-1.32298E+04-5.64991E+05 8.23297E+04-1.01910E+06 1.11559E-08 1.13811E-07
 -1       306-2.86809E+07-5.88692E+06-8.09505E+06-8.48549E+05-4.24916E-08-1.34227E-07
 -1       307 2.40903E+07 2.63481E+06 5.20822E+06-1.40354E+07-7.06059E-07-1.30851E-07
 -1       308-7.39684E+06-9.07314E+05-5.20314E+05 4.91738E+06-5.00295E-08 4.15806E-07
 -1       309-3.45434E+06 7.67267E+06 2.05686E+06-1.97272E+07 6.79134E-07 3.82341E-07
 -1       310-1.17812E+07-1.60571E+06-1.72778E+06 4.85664E+06-3.70783E-08 6.83940E-08
 -1       311 3.42866E+07-6.57601E+04 6.62035E+06-8.89632E+06 3.48547E-07-6.98492E-10
 -1       312-3.00476E+07-6.17315E+06-7.84520E+06-4.42986E+06-1.94763E-07 1.55036E-07
 -1       313 4.27982E+07 1.28388E+07 9.92502E+06 2.12701E+07-1.47353E-07 3.86994E-07
 -1       314-1.71425E+07-1.61435E+07-7.04304E+06-1.19262E+07 4.43892E-07-2.46975E-07
 -1       315-1.24689E+06 2.71946E+07 5.35346E+06 1.07276E+07-4.25236E-07 3.32831E-07
 -1       316 8.93194E+05-9.56187E+06-4.89509E+05-3.02057E+06-1.12658E-06-7.50297E-08
 -1       317-1.71535E+07 2.12287E+07 2.01916E+06-7.44515E+06 6.52595E-07-7.68559E-07
 -1       318-1.13398E+06-1.17411E+07-1.76477E+06-4.34171E+06-9.20409E-07 1.50874E-07
 -1       319 6.09839E+06 2.88946E+07 6.39148E+06 1.52272E+07-1.40979E-07 2.46480E-07
 -1       320-2.13963E+07-1.62303E+07-9.09849E+06-1.20064E+07 1.67405E-07-5.27070E-08
 -1       336-1.01566E+03-1.73578E+06-1.06952E+04 9.41171E+03-2.80579E-08-1.00408E-08
 -1       337-4.19824E+03-1.73528E+06-1.61963E+04-2.23715E+04-5.04442E-08-2.02053E-08
 -1       338 5.65851E+02-1.73481E+06-2.74872E+04 1.27524E+04-3.45099E-08 2.70666E-09
 -1       339-2.98520E+04-1.75287E+06-6.38478E+04-2.88773E+04-6.23531E-08 3.28855E-08
 -1       340 2.01988E+04-1.72022E+06-1.00832E+05 1.58001E+04-4.04725E-08 3.10829E-08
 -1       406-3.97936E+01 3.80870E+05 6.34491E+02 2.97768E+00-1.92492E-09 2.75759E-08
 -1       407 1.61040E+02 3.81001E+05 1.35498E+03 2.20468E+01-2.83947E-10 3.57504E-08
 -1       408 6.33903E+02 3.80772E+05 2.70229E+03-2.53902E+01-2.26851E-09 1.44555E-08
 -1       409 2.86924E+03 3.81863E+05 6.08978E+03 2.69613E+02-2.03613E-10-9.18772E-09
 -1       410 8.35396E+03 3.79995E+05 1.24294E+04-2.59676E+02-2.55568E-09-1.09139E-11
 -1       521-3.01887E+07-7.23030E+06-9.43245E+06-4.97747E+05-6.55418E-08-1.35216E-07
 -1       522 2.48539E+07 3.45359E+06 5.28902E+06-1.73139E+07-5.57950E-07-5.17670E-07
 -1       523-8.05755E+06-1.19988E+06-5.23069E+05 5.35539E+06 6.51926E-09-2.01922E-07
 -1       524-6.77958E+06 1.04124E+07 2.22047E+06-2.26962E+07 1.00530E-06-1.95429E-07
 -1       525-1.26484E+07-2.15711E+06-1.89495E+06 5.28816E+06 5.03787E-07-5.61995E-08
 -1       526 3.72254E+07-1.25058E+05 6.94168E+06-1.14500E+07-9.31323E-09-1.55007E-07
 -1       527-3.18083E+07-7.72830E+06-9.01522E+06-4.30251E+06 1.87778E-07-4.95638E-08
 -1       528 4.66721E+07 1.41567E+07 1.03353E+07 2.40808E+07-4.24741E-07-2.80794E-07
 -1       529-1.81096E+07-1.81816E+07-8.05572E+06-1.20236E+07 5.41331E-09-1.31084E-07
 -1       530-3.61833E+06 3.15711E+07 5.65150E+06 1.04626E+07 3.54747E-07 3.62867E-07
 -1       531 8.50743E+05-1.06594E+07-4.76546E+05-3.07446E+06-7.63437E-07 2.07161E-07
 -1       532-1.99032E+07 2.33426E+07 2.20446E+06-1.12756E+07 2.84999E-07-4.25032E-07
 -1       533-1.19395E+06-1.28732E+07-1.86638E+06-4.27831E+06-2.68046E-07-9.29809E-07
 -1       534 4.09955E+06 3.34709E+07 6.64100E+06 1.57418E+07-3.08792E-08 6.91973E-07
 -1       535-2.25306E+07-1.84235E+07-1.03918E+07-1.21117E+07 1.23749E-07 4.24800E-07
 -1       536-6.92261E+05-4.66716E+04-4.11733E+04-5.27261E+04-3.02589E-09 3.09010E-08
 -1       537-6.84076E+04 4.50047E+04 8.35224E+04 1.20123E+05-1.04671E-07 6.93549E-08
 -1       538-3.93916E+05 2.88469E+03 4.63201E+03-7.03375E+04 1.64242E-08 8.30632E-08
 -1       539-2.74177E+05 2.99647E+03 2.44858E+04 1.34925E+05 1.39300E-07 8.93928E-08
 -1       540-4.91634E+05-3.83457E+02-1.99558E+04-6.80262E+04-1.24942E-09 1.04875E-07
 -1       541 1.22562E+05 1.62084E+04 1.01675E+05 9.47529E+04-4.56130E-08 8.15899E-08
 -1       542-7.79968E+05-1.92474E+04-8.03627E+04-2.93517E+04 3.71933E-08 4.14993E-08
 -1       543 3.69668E+05 2.61086E+04 1.50816E+05-1.30236E+04-1.70494E-08 4.79440E-09
 -1       544-7.32118E+05-1.57715E+04-7.14145E+04 3.91266E+04-6.56883E-09-3.44054E-08
 -1       545 9.91314E+03 8.97695E+03 7.60132E+04-1.10231E+05-2.98365E-08-6.57858E-08
 -1       546-4.29866E+05 5.88751E+03-1.17199E+04 6.75342E+04 3.06570E-08-9.52988E-08
 -1       547-2.91646E+05-4.67558E+03 9.73127E+03-1.37738E+05-8.38121E-08-1.37353E-07
 -1       548-4.38657E+05 4.65359E+03-2.32984E+04 6.72768E+04-8.98490E-08-8.82083E-08
 -1       549 2.86993E+04 1.43765E+04 5.64965E+04-1.08010E+05-5.39031E-08-6.09525E-08
 -1       550-7.41638E+05-2.03301E+04-1.25079E+05 3.71391E+04 1.00245E-08-3.81224E-08
 -1       551 3.98766E+04-7.63360E+05-1.23179E+04-1.23585E+06-9.99426E-08-2.66009E-08
 -1       552 9.06340E+04-8.06265E+05 1.19812E+04-1.76234E+06-7.16682E-08 3.98650E-08
 -1       553 6.94710E+04-8.03225E+05 3.34754E+04-1.22939E+06-1.17827E-07 2.41125E-08
 -1       554 1.28636E+05-8.20795E+05 8.28231E+04-1.76429E+06-7.62229E-08 7.55244E-09
 -1       555 9.91571E+04-8.26489E+05 1.50747E+05-1.22930E+06-1.20366E-07-1.29912E-08
 -1       556 2.17004E+05-3.73504E+05 3.09828E+04-4.00284E+05-2.42144E-08-4.12983E-08
 -1       557 3.45521E+05-4.76111E+05 1.87280E+04-5.17554E+05-1.45519E-09 1.27402E-08
 -1       558 1.99923E+05-3.67684E+05 3.63816E+03-4.03654E+05-1.32131E-08 3.64525E-09
 -1       559 3.20954E+05-4.77064E+05 3.02673E+03-5.37126E+05 1.83354E-08 1.53013E-08
 -1       560 1.85354E+05-3.58538E+05-1.09927E+03-4.14123E+05 7.42148E-09 2.06928E-08
 -1       561 3.02575E+05-4.69758E+05 2.86071E+02-5.49626E+05-5.09317E-10-8.90941E-09
 -1       562 1.73833E+05-3.51370E+05-1.17617E+03-4.22460E+05-7.14499E-09-2.07001E-09
 -1       563 2.88894E+05-4.63794E+05 6.56605E+00-5.58554E+05-6.40284E-09-1.25601E-09
 -1       564 1.65630E+05-3.46256E+05-5.43695E+02-4.28272E+05 2.88128E-09 1.42072E-08
 -1       565 2.79855E+05-4.59858E+05 3.50702E+01-5.64327E+05 2.29920E-09-1.06766E-08
 -1       566 1.60864E+05-3.43239E+05-2.38136E+02-4.31606E+05-2.72848E-09 1.08666E-08
 -1       567 2.75509E+05-4.57967E+05-3.44374E+02-5.66962E+05 1.41372E-08-7.32689E-09
 -1       568 1.59621E+05-3.42479E+05-1.07872E+03-4.32572E+05-4.30191E-10-3.65617E-09
 -1       569 2.74496E+05-4.57904E+05-2.72531E+03-5.65499E+05-7.62429E-09 2.89801E-08
 -1       570 1.62971E+05-3.45645E+05-5.96586E+03-4.31584E+05 1.15833E-08-1.76442E-10
 -1       571 2.86447E+05 1.03638E+04 1.48190E+04-9.28975E+04 1.08175E-08 3.82443E-09
 -1       572 2.88597E+05 3.88849E+03 7.26240E+03-1.01917E+05 2.36432E-08 2.75577E-09
 -1       573 2.87301E+05 1.20705E+03 3.22690E+03-9.27236E+04 2.21562E-08 1.70876E-08
 -1       574 2.87516E+05 6.91646E+02 1.61819E+03-1.02137E+05 6.24618E-09 8.87485E-09
 -1       575 2.87394E+05 4.18271E+02 7.63708E+02-9.26998E+04-4.33317E-10 8.83392E-09
 -1       576 2.87381E+05 4.27153E+02 3.90937E+02-1.02166E+05-7.70660E-09 1.20372E-08
 -1       577 2.87432E+05 3.61632E+02 1.95114E+02-9.26965E+04-8.79845E-09 6.91853E-09
 -1       578 2.87409E+05 3.90840E+02 1.12558E+02-1.02171E+05-6.98174E-09 9.45874E-11
 -1       579 2.87501E+05 3.27155E+02 7.72125E+01-9.26962E+04 3.19051E-09-4.81305E-09
 -1       580 2.87505E+05 3.42696E+02 8.92856E+01-1.02166E+05-5.24506E-09-1.04046E-08
 -1       581 2.87609E+05 2.71948E+02 1.34853E+02-9.27020E+04 7.17228E-09-5.25415E-09
 -1       582 2.87672E+05 3.08659E+02 2.73809E+02-1.02106E+05 2.34741E-09 3.61069E-10
 -1       583 2.87741E+05 3.16387E+02 5.25869E+02-9.27571E+04-3.12139E-09 1.06495E-08
 -1       584 2.88034E+05 7.45038E+02 1.18956E+03-1.01642E+05 3.80533E-09 2.69970E-08
 -1       585 2.87762E+05 1.74897E+03 2.40933E+03-9.31655E+04-5.69344E-10 1.56542E-08
 -1       586-3.37698E+03 1.14185E+05-2.94907E+03-2.47636E+05-7.08133E-09 1.33900E-08
 -1       587-1.28656E+03 1.13925E+05 7.19475E+02-2.72542E+05-5.90626E-09-1.61267E-08
 -1       588 4.32117E+02 1.13747E+05 4.66421E+03-2.47500E+05-4.01269E-09-7.73616E-09
 -1       589 5.04937E+03 1.16174E+05 1.21337E+04-2.72309E+05-6.06815E-09-3.65726E-08
 -1       590 1.63821E+04 1.12434E+05 2.54672E+04-2.47926E+05-5.60431E-09-1.96087E-08
 -1       591-7.32210E+04-1.57379E+04-2.21136E+04-3.13766E+04-7.40761E-09-1.23782E-09
 -1       592-7.71854E+04-1.92792E+04-1.19785E+04-3.49912E+04-2.25297E-09 1.71417E-09
 -1       593-7.54330E+04-1.41329E+04-4.98607E+03-3.29977E+04 5.96599E-09 9.26798E-09
 -1       594-7.41315E+04-1.60351E+04-2.48668E+03-3.51077E+04-2.98559E-09 1.78158E-08
 -1       595-7.56016E+04-1.41276E+04-1.14167E+03-3.30713E+04 2.50020E-09 2.76454E-09
 -1       596-7.39225E+04-1.58867E+04-5.80213E+02-3.50829E+04 2.01793E-08 8.20245E-09
 -1       597-7.56228E+04-1.41427E+04-3.15609E+02-3.30741E+04 6.40443E-09 1.12639E-08
 -1       598-7.39019E+04-1.58809E+04-2.53102E+02-3.50760E+04-6.64767E-09 6.32406E-09
 -1       599-7.56215E+04-1.41432E+04-3.22546E+02-3.30738E+04 6.23277E-09-1.27538E-08
 -1       600-7.39225E+04-1.58873E+04-5.98577E+02-3.50809E+04 5.19594E-09-1.65152E-08
 -1       601-7.55973E+04-1.41289E+04-1.18055E+03-3.30703E+04 2.46951E-09-1.63095E-09
 -1       602-7.41386E+04-1.60396E+04-2.57271E+03-3.51027E+04-5.78927E-09 7.62259E-09
 -1       603-7.54201E+04-1.41373E+04-5.15926E+03-3.29949E+04 2.53590E-09-2.26692E-09
 -1       604-7.73159E+04-1.93772E+04-1.23937E+04-3.49578E+04 8.90668E-09-1.00856E-08
 -1       605-7.31116E+04-1.58155E+04-2.28804E+04-3.13367E+04 8.96483E-09 1.11013E-08
 -1       606 2.67875E+04-1.41090E+04-2.52955E+04 2.41849E+04 4.97403E-09-7.17137E-09
 -1       607 2.24651E+04-4.60640E+03-1.25970E+04 2.71767E+04 4.04907E-09-1.50656E-08
 -1       608 2.49280E+04-8.29537E+02-5.63934E+03 2.40132E+04-1.06083E-08-1.92722E-09
 -1       609 2.44552E+04-2.82280E+02-2.84882E+03 2.73922E+04-1.85237E-08 7.53653E-09
 -1       610 2.47169E+04-3.80662E+01-1.35927E+03 2.39929E+04-5.50972E-09-7.80960E-09
 -1       611 2.46421E+04-3.76363E+01-6.85330E+02 2.74155E+04 8.01310E-09-1.16331E-08
 -1       612 2.46698E+04-2.41676E+01-3.25861E+02 2.39908E+04 1.90994E-09-1.14198E-08
 -1       613 2.46528E+04-3.32382E+01-1.46057E+02 2.74183E+04-7.89441E-10-5.47061E-10
 -1       614 2.46475E+04-3.01636E+01-3.43603E+01 2.39901E+04-9.07676E-10 1.67711E-09
 -1       615 2.46471E+04-3.14834E+01 6.09761E+01 2.74187E+04-1.11686E-09 5.80940E-09
 -1       616 2.46300E+04-2.68502E+01 1.83063E+02 2.39904E+04 1.30240E-09-9.01059E-09
 -1       617 2.46687E+04 7.76217E+00 4.17767E+02 2.74182E+04-7.67841E-10-2.92359E-08
 -1       618 2.45934E+04 9.37640E+01 8.42104E+02 2.39906E+04-9.08585E-10 4.29691E-09
 -1       619 2.49658E+04 6.59025E+02 1.89103E+03 2.74176E+04-4.00178E-10 4.42355E-09
 -1       620 2.43136E+04 2.09075E+03 3.80093E+03 2.39920E+04 1.37391E-09-3.66208E-09
 -1       621 4.93075E+02 2.97093E+05 3.80094E+03 3.93586E+04 8.25366E-10-1.42718E-08
 -1       622 6.49686E+02 2.97975E+05 3.37918E+03 5.71462E+04 1.14414E-09-1.06488E-08
 -1       623 1.30847E+02 2.97286E+05 4.06914E+03 3.91802E+04 1.19871E-09-1.47975E-08
 -1       624 2.07552E+03 2.99180E+05 7.89500E+03 5.73221E+04 1.32616E-09 1.43632E-08
 -1       625 2.03228E+03 2.95722E+05 1.37995E+04 3.91771E+04 1.34332E-09-3.46972E-10
 -1       626 2.57309E+05 6.09453E+04 5.07865E+03 1.25476E+05 3.43744E-09-2.05728E-09
 -1       627 2.54984E+05 6.23562E+04 2.44736E+03 1.29742E+05-5.27507E-11-1.89652E-09
 -1       628 2.57437E+05 5.86196E+04 1.03500E+03 1.26337E+05-6.55018E-09-6.75277E-09
 -1       629 2.54351E+05 6.16843E+04 5.06593E+02 1.29983E+05-5.36420E-09 9.45154E-09
 -1       630 2.57451E+05 5.85074E+04 2.35042E+02 1.26373E+05-4.88717E-09-7.72218E-09
 -1       631 2.54284E+05 6.16590E+04 1.26554E+02 1.29985E+05 5.58362E-09 4.72727E-09
 -1       632 2.57447E+05 5.85115E+04 8.34037E+01 1.26369E+05 8.37690E-09-9.25161E-09
 -1       633 2.54276E+05 6.16610E+04 9.30992E+01 1.29981E+05 2.95563E-09 7.08519E-09
 -1       634 2.57442E+05 5.85089E+04 1.50619E+02 1.26368E+05-3.37025E-09 6.00676E-09
 -1       635 2.54290E+05 6.16595E+04 3.04881E+02 1.29986E+05-2.42886E-09 1.27429E-08
 -1       636 2.57433E+05 5.85034E+04 6.15760E+02 1.26368E+05-5.15183E-09 8.45830E-11
 -1       637 2.54423E+05 6.17553E+04 1.35391E+03 1.29985E+05-8.06494E-10 1.95141E-08
 -1       638 2.57385E+05 5.88025E+04 2.78180E+03 1.26232E+05 1.71349E-09 1.46265E-08
 -1       639 2.55884E+05 6.37876E+04 6.58183E+03 1.29555E+05 6.54359E-09 1.58070E-08
 -1       640 2.57183E+05 6.48708E+04 1.36584E+04 1.23675E+05 2.23054E-09 8.80073E-09
 -1       656 6.57867E+04-1.68301E+06-1.58805E+05-2.40277E+03 1.45519E-11-2.16698E-08
 -1       657-8.70268E+04-1.75476E+06-1.31554E+05 5.34958E+03 2.78305E-10-9.21497E-09
 -1       658 2.09675E+04-1.70339E+06-8.10119E+04-4.44854E+03-2.30330E-10-1.12800E-08
 -1       659-9.40827E+04-1.75811E+06-1.40826E+05 7.03569E+03-2.52476E-09-8.40701E-09
 -1       660 7.28269E+04-1.67966E+06-1.74747E+05-4.08886E+03-2.51021E-09-9.28927E-09
 -1       661 1.59359E+05 1.67108E+04 1.67243E+04 6.22980E+04-2.15459E-09 5.56429E-09
 -1       662 1.68784E+05 2.91263E+04 1.12709E+04 5.85810E+04 1.98645E-09 3.59842E-09
 -1       663 1.62644E+05 2.20763E+04 3.94189E+03 6.13448E+04 9.82141E-10 8.27094E-09
 -1       664 1.64975E+05 2.28515E+04 2.35801E+03 5.97452E+04 5.10738E-11 8.62059E-10
 -1       665 1.63142E+05 2.28093E+04 9.30219E+02 6.11995E+04 1.59031E-09-1.36544E-08
 -1       666 1.64386E+05 2.20132E+04 5.44417E+02 5.99346E+04 9.58076E-09 1.37241E-08
 -1       667 1.63230E+05 2.28927E+04 2.89259E+02 6.11632E+04 2.32319E-10 6.50034E-09
 -1       668 1.64290E+05 2.19531E+04 2.94944E+02 5.99873E+04-5.86829E-09-1.51891E-09
 -1       669 1.63238E+05 2.28677E+04 3.99482E+02 6.11471E+04-2.25168E-09 7.57248E-09
 -1       670 1.64387E+05 2.21699E+04 8.70039E+02 5.99902E+04-1.05440E-08-3.76389E-09
 -1       671 1.63132E+05 2.26804E+04 1.54487E+03 6.11584E+04 1.78674E-09-1.19680E-08
 -1       672 1.65288E+05 2.36729E+04 3.95256E+03 5.97721E+04 4.09609E-09-6.78199E-09
 -1       673 1.62342E+05 2.14028E+04 6.62388E+03 6.13506E+04-1.44234E-09 1.01968E-08
 -1       674 1.71592E+05 3.43148E+04 1.89429E+04 5.79199E+04 2.38094E-09-5.15502E-09
 -1       675 1.56869E+05 1.23366E+04 2.81179E+04 6.28988E+04-3.59069E-09 2.86236E-08
 -1       676 2.39158E+01-2.93347E+05-1.10535E+03-1.26292E+02 2.33305E-09-1.91884E-08
 -1       677-2.92558E+02-2.93614E+05-2.02297E+03 2.52383E+02 9.45076E-09-1.40621E-08
 -1       678 1.96090E+02-2.93156E+05-3.57611E+03-1.26008E+02 1.72849E-09 2.03688E-09
 -1       679-3.57632E+03-2.95773E+05-8.49534E+03 2.51302E+02 7.50697E-09-1.17113E-08
 -1       680 2.13515E+03-2.91189E+05-1.36916E+04-1.23817E+02 5.33873E-10-2.31951E-08
 -1       771-3.04120E+06-7.33704E+05-1.57878E+05-1.44964E+06-3.09083E-08-2.52621E-08
 -1       772-2.96628E+06-8.20213E+05-8.14333E+04-1.54960E+06-2.22935E-08 1.30931E-08
 -1       773-3.07126E+06-7.10230E+05-4.14271E+04-1.46325E+06-1.68511E-08 1.25729E-08
 -1       774-2.95693E+06-8.02712E+05-1.84999E+04-1.57413E+06 1.35187E-08 6.81030E-09
 -1       775-3.08686E+06-6.99269E+05-1.37800E+04-1.46982E+06-1.22818E-08-1.38971E-09
 -1       776-2.96846E+06-7.99931E+05-5.16219E+03-1.59261E+06-1.02300E-08 4.71118E-09
 -1       777-3.10036E+06-6.89510E+05-6.06693E+03-1.47562E+06-2.70666E-09 1.12050E-09
 -1       778-2.98052E+06-7.97353E+05-1.71802E+03-1.60848E+06-2.22644E-09 8.77480E-09
 -1       779-3.11196E+06-6.80996E+05-3.02482E+03-1.48057E+06-1.52359E-08-3.12139E-09
 -1       780-2.99113E+06-7.94891E+05-5.01688E+02-1.62140E+06-1.74696E-08 7.01402E-09
 -1       781-3.12116E+06-6.74139E+05-1.17231E+03-1.48445E+06-3.50265E-08 1.02227E-09
 -1       782-2.99930E+06-7.92798E+05 4.25846E+02-1.63094E+06-3.58268E-08-7.79983E-09
 -1       783-3.12764E+06-6.69379E+05 6.64605E+02-1.48717E+06-9.95351E-09-1.44432E-08
 -1       784-3.00382E+06-7.90682E+05 2.74371E+03-1.63682E+06-1.87974E-08 8.33097E-10
 -1       785-3.13147E+06-6.66542E+05 4.84434E+03-1.48889E+06-3.54958E-08 1.06465E-08
 -1       786 1.24601E+05-9.75004E+03 2.25576E+04-3.10060E+02 2.66600E-09-6.51562E-09
 -1       787 1.34384E+05 1.12883E+04 1.59585E+04-1.25952E+02 7.74881E-09-1.96155E-09
 -1       788 1.28373E+05-1.52790E+03 5.83620E+03-2.75549E+02 2.26976E-09 9.22910E-10
 -1       789 1.29989E+05 1.76843E+03 3.66385E+03-1.78978E+02-2.26700E-09-4.71061E-10
 -1       790 1.28996E+05-2.37940E+02 1.48366E+03-2.57051E+02-4.11932E-09-1.23950E-08
 -1       791 1.29261E+05 2.75272E+02 8.57360E+02-2.10664E+02-7.27533E-09 5.18853E-10
 -1       792 1.29101E+05-3.58635E+01 3.64187E+02-2.43865E+02-4.70479E-09-4.55279E-09
 -1       793 1.29135E+05 3.82409E+01 1.83468E+02-2.35490E+02-1.19420E-09-2.94402E-09
 -1       794 1.29122E+05-1.05837E+00 5.15245E+01-2.32225E+02 3.95253E-09 5.96422E-10
 -1       795 1.29100E+05-2.41768E+01-4.74121E+01-2.59810E+02-4.98680E-09-1.22671E-08
 -1       796 1.29137E+05 2.65195E+01-1.44774E+02-2.19544E+02 3.15469E-09-1.36588E-08
 -1       797 1.29014E+05-1.98504E+02-4.02339E+02-2.88963E+02 5.04195E-09 1.73644E-08
 -1       798 1.29208E+05 1.73138E+02-6.54759E+02-2.03072E+02 2.92394E-09 1.12228E-08
 -1       799 1.28517E+05-1.27627E+03-1.80250E+03-3.29706E+02 5.94692E-09-4.87071E-09
 -1       800 1.29634E+05 1.10341E+03-2.55125E+03-1.78803E+02 5.72309E-10-1.32707E-09
 -1       801-1.48786E+05-9.59359E+06-1.32534E+06 1.31730E+06 8.97271E-08-3.62779E-08
 -1       802 6.75112E+05 5.31665E+06 2.02237E+06-1.61508E+06 2.50468E-07-3.05845E-08
 -1       803-4.99996E+05-1.35455E+07-1.76721E+06 8.36436E+05 7.47823E-08 2.55932E-08
 -1       804 2.62868E+05 1.97001E+06 1.42527E+06 6.45654E+05-1.15684E-07-1.08524E-07
 -1       805 1.81314E+05-6.26160E+06-2.68224E+05-9.38088E+05-4.76502E-08-7.28296E-08
 -1       806-3.05075E+05-5.89798E+04-2.25495E+04-1.20851E+05-4.55475E-09-1.01340E-08
 -1       807-3.06856E+05-5.52920E+04-1.10783E+04-1.26314E+05 1.02784E-08-6.90602E-09
 -1       808-3.05693E+05-5.08541E+04-4.69979E+03-1.24694E+05-6.36419E-09-4.47017E-10
 -1       809-3.04527E+05-5.21789E+04-2.29808E+03-1.26585E+05-1.14860E-08 3.10422E-09
 -1       810-3.05786E+05-5.05712E+04-1.05333E+03-1.24864E+05 4.86261E-09 4.53156E-09
 -1       811-3.04347E+05-5.20538E+04-5.23834E+02-1.26551E+05 4.57976E-09 1.35281E-08
 -1       812-3.05800E+05-5.05955E+04-2.64980E+02-1.24863E+05-3.31511E-09 1.10604E-08
 -1       813-3.04322E+05-5.20559E+04-1.72313E+02-1.26532E+05-2.83171E-09-1.10676E-08
 -1       814-3.05793E+05-5.06050E+04-1.70909E+02-1.24859E+05-4.34920E-09 9.40236E-09
 -1       815-3.04326E+05-5.20581E+04-2.75531E+02-1.26525E+05-1.02773E-09 1.24446E-08
 -1       816-3.05773E+05-5.06040E+04-5.22298E+02-1.24856E+05 7.04858E-10 1.37838E-08
 -1       817-3.04414E+05-5.21079E+04-1.12100E+03-1.26514E+05-1.47106E-08 1.51376E-08
 -1       818-3.05705E+05-5.07622E+04-2.28645E+03-1.24781E+05 1.24510E-09 3.72484E-09
 -1       819-3.05666E+05-5.34893E+04-5.37992E+03-1.26218E+05 2.60161E-09-2.61298E-09
 -1       820-3.05274E+05-5.48258E+04-1.09501E+04-1.23045E+05 1.73713E-09-5.45606E-09
 -1       821-3.75662E+05 2.06902E+04-4.80802E+04 1.91249E+03 1.28943E-08-1.11104E-08
 -1       822-3.95527E+05-2.39639E+04-3.38536E+04-3.91311E+03 4.39400E-09-1.25615E-08
 -1       823-3.83216E+05 3.25712E+03-1.24263E+04 2.99964E+03-1.06964E-08 6.02540E-09
 -1       824-3.86470E+05-3.75845E+03-7.78798E+03-4.61517E+03 1.97944E-09 1.35515E-09
 -1       825-3.84722E+05 5.05972E+02-3.24941E+03 2.61463E+03 1.76326E-08-6.31360E-09
 -1       826-3.84256E+05-5.70252E+02-1.77557E+03-2.59251E+03 2.30950E-08 1.64020E-08
 -1       827-3.85411E+05 5.67554E+01-1.13817E+03 9.76874E+02 9.38223E-09-5.04215E-09
 -1       828-3.83694E+05-1.44184E+02-6.56399E+02 1.03817E+03-5.20205E-09 9.69132E-09
 -1       829-3.85275E+05 7.28659E+01-1.13235E+03-1.01608E+03 6.59696E-10 1.35285E-08
 -1       830-3.84554E+05-6.18728E+02-1.90206E+03 4.27975E+03 1.00534E-09 9.46250E-09
 -1       831-3.84568E+05 5.44715E+02-3.33598E+03-2.26474E+03-2.64716E-09-1.33945E-08
 -1       832-3.86553E+05-3.91945E+03-8.08843E+03 5.34641E+03-3.72078E-09-3.83579E-09
 -1       833-3.83288E+05 3.37993E+03-1.29217E+04-2.08278E+03-1.27247E-09-2.78669E-09
 -1       834-3.95643E+05-2.48708E+04-3.50790E+04 3.62023E+03-1.99196E-09-9.08994E-09
 -1       835-3.75466E+05 2.14673E+04-4.99322E+04-5.38493E+02 5.32043E-09 5.08589E-09
 -1       836-1.39048E+03 3.65035E+05 2.25688E+04-1.62325E+04-6.58747E-09-9.17316E-09
 -1       837 4.81621E+03 3.72101E+05 1.91044E+04-3.31275E+04-7.26743E-09-2.26682E-08
 -1       838-5.47988E+02 3.67015E+05 1.94747E+04-1.61612E+04-5.92036E-09-2.62389E-10
 -1       839 1.22650E+04 3.77649E+05 3.68498E+04-3.31791E+04-6.37374E-09 1.03400E-08
 -1       840-3.78843E+03 3.59428E+05 5.87660E+04-1.61862E+04-5.72982E-09 1.94669E-08
 -1       856-5.38069E+04 8.00624E+03-2.10982E+04-3.97988E+02 2.97609E-09-2.62753E-09
 -1       857-6.25002E+04-9.40605E+03-1.45239E+04 5.58559E+03 2.47880E-09-7.40852E-09
 -1       858-5.72491E+04 1.12274E+03-5.47453E+03-4.22040E+02 3.20955E-09-8.81346E-09
 -1       859-5.85497E+04-1.31990E+03-3.30374E+03 5.62151E+03-4.20077E-09 1.69159E-08
 -1       860-5.77634E+04 1.57174E+02-1.38478E+03-4.33666E+02 2.41039E-09 9.68032E-09
 -1       861-5.79581E+04-1.86732E+02-7.62182E+02 5.63736E+03-2.58057E-09 1.87855E-08
 -1       862-5.78439E+04 2.12568E+01-3.17604E+02-4.37868E+02-3.17185E-09 2.55907E-08
 -1       863-5.78596E+04-2.10752E+01-1.17453E+02 5.63977E+03-3.92267E-09 1.05836E-08
 -1       864-5.78624E+04-4.71914E+00 4.31336E+01-4.36081E+02-3.89150E-09-6.80009E-09
 -1       865-5.78051E+04 5.84422E+01 2.45847E+02 5.62964E+03-2.22049E-09-1.37399E-08
 -1       866-5.78962E+04-5.83011E+01 4.97483E+02-4.27740E+02 2.19222E-09-1.20017E-08
 -1       867-5.75706E+04 4.81686E+02 1.22582E+03 5.60698E+03 4.01712E-09 1.01816E-08
 -1       868-5.80921E+04-4.20387E+02 2.03725E+03-4.13420E+02 1.63141E-11-2.02738E-09
 -1       869-5.60766E+04 3.49869E+03 5.42503E+03 5.56962E+03 1.72122E-09-4.69634E-08
 -1       870-5.93826E+04-2.99346E+03 7.87284E+03-3.90280E+02-3.34694E-09-1.66556E-08
 -1       871-5.46731E+03-2.06833E+04-1.92187E+04 1.28545E+05-4.25280E-09 2.37378E-09
 -1       872-1.98785E+03-2.51438E+04-8.03948E+03 1.66677E+05-1.04701E-08-1.10704E-08
 -1       873 3.74583E+02-2.29904E+04 6.01396E+02 1.28262E+05-5.25324E-09 1.39818E-08
 -1       874 3.23822E+03-2.05956E+04 9.68935E+03 1.66707E+05-1.09922E-08 1.92031E-08
 -1       875 6.75208E+03-2.52986E+04 2.18430E+04 1.28498E+05-4.56748E-09 1.10576E-08
 -1       876 2.90521E+05 4.90076E+04 1.49516E+04 1.16638E+05 4.01440E-09-1.19835E-08
 -1       877 2.91504E+05 5.21611E+04 7.98475E+03 1.20931E+05 9.37143E-09-4.15412E-10
 -1       878 2.91919E+05 4.73514E+04 3.34522E+03 1.17863E+05 1.26420E-09-1.02568E-09
 -1       879 2.89472E+05 5.01329E+04 1.66678E+03 1.21032E+05 1.92813E-10 1.32806E-08
 -1       880 2.92019E+05 4.73343E+04 7.76358E+02 1.17913E+05-5.73345E-09-2.87326E-09
 -1       881 2.89337E+05 5.00461E+04 4.14577E+02 1.21009E+05 1.82808E-10-1.34214E-08
 -1       882 2.92028E+05 4.73474E+04 2.65203E+02 1.17914E+05 3.75712E-09 1.08423E-09
 -1       883 2.89327E+05 5.00416E+04 2.85074E+02 1.21001E+05 7.94734E-09 2.15246E-08
 -1       884 2.92021E+05 4.73446E+04 4.53459E+02 1.17914E+05 3.86854E-09-1.33851E-08
 -1       885 2.89363E+05 5.00479E+04 9.11685E+02 1.21012E+05 1.63399E-09 3.86763E-10
 -1       886 2.91986E+05 4.73180E+04 1.83745E+03 1.17911E+05-4.05669E-09-6.40057E-09
 -1       887 2.89686E+05 5.02597E+04 4.01366E+03 1.21059E+05 1.77042E-09 4.69572E-09
 -1       888 2.91732E+05 4.73627E+04 8.08764E+03 1.17782E+05-4.66315E-09-1.79034E-09
 -1       889 2.94501E+05 5.52667E+04 1.93199E+04 1.20911E+05-2.69423E-09-4.66889E-09
 -1       890 2.88432E+05 5.12834E+04 3.61857E+04 1.14704E+05 2.70484E-09-1.97251E-08
 -1       891-9.29100E+01-1.61119E+05-1.97403E+03 2.70169E+04-2.28783E-09 7.95603E-09
 -1       892-1.80371E+02-1.61639E+05-2.12081E+03 4.10182E+04-4.32919E-10-4.55429E-09
 -1       893 3.86226E+01-1.61183E+05-3.00350E+03 2.70241E+04-3.06272E-09 5.37921E-09
 -1       894-1.50108E+03-1.62774E+05-6.21661E+03 4.08668E+04 6.55746E-10 9.04356E-09
 -1       895-1.19120E+03-1.59888E+05-1.09476E+04 2.71699E+04-6.70752E-11-1.23882E-08
 -1       956-3.72783E+05-5.37669E+03-1.32892E+04 3.02274E+04 4.32101E-09 1.92313E-09
 -1       957-3.75391E+05-1.89137E+03-6.82121E+03 3.63299E+04-3.73666E-09-9.44169E-09
 -1       958-3.73976E+05-2.31664E+02-3.07382E+03 3.00621E+04-3.17686E-09-1.97815E-09
 -1       959-3.74171E+05-1.27254E+02-1.56957E+03 3.65220E+04 1.47929E-09 7.97809E-09
 -1       960-3.74092E+05-3.83149E+01-7.65391E+02 3.00451E+04 7.63794E-09-3.67982E-09
 -1       961-3.74091E+05-5.54107E+01-4.05827E+02 3.65420E+04 1.56806E-08-1.23757E-08
 -1       962-3.74119E+05-3.97351E+01-2.32362E+02 3.00423E+04 9.04947E-10 4.33874E-09
 -1       963-3.74091E+05-5.13953E+01-1.86565E+02 3.65456E+04 2.00816E-09 5.14319E-10
 -1       964-3.74125E+05-3.64538E+01-2.26901E+02 3.00415E+04-6.24198E-10-6.14591E-09
 -1       965-3.74104E+05-4.84144E+01-3.92465E+02 3.65449E+04-5.30787E-09 1.27170E-09
 -1       966-3.74109E+05-2.85631E+01-7.37416E+02 3.00430E+04 2.08479E-09-1.33273E-08
 -1       967-3.74193E+05-1.10978E+02-1.51244E+03 3.65309E+04 1.88629E-09-5.32827E-09
 -1       968-3.74006E+05-2.08599E+02-2.96077E+03 3.00554E+04 3.53975E-09-5.43139E-09
 -1       969-3.75380E+05-1.80537E+03-6.57288E+03 3.63859E+04-8.75389E-10-2.87551E-08
 -1       970-3.72864E+05-5.16242E+03-1.28043E+04 3.01802E+04-2.20189E-09 6.49379E-09
 -1       971-3.41763E+05-1.71252E+03-9.24473E+03 1.52628E+04 5.57975E-09 2.80446E-09
 -1       972-3.43989E+05-1.25896E+03-5.03458E+03 2.11209E+04 1.14142E-08-2.01899E-08
 -1       973-3.42793E+05-5.87967E+01-2.25501E+03 1.51421E+04 1.73986E-09-1.82581E-09
 -1       974-3.42928E+05-7.66230E+01-1.16889E+03 2.12571E+04-1.48771E-09-5.91854E-09
 -1       975-3.42874E+05-1.42751E+01-5.84672E+02 1.51299E+04-3.57932E-09-7.64862E-09
 -1       976-3.42867E+05-2.71590E+01-3.38009E+02 2.12727E+04-5.29553E-10-1.66414E-08
 -1       977-3.42890E+05-1.35662E+01-2.46567E+02 1.51265E+04-3.05727E-09-9.31561E-09
 -1       978-3.42872E+05-2.10026E+01-2.90232E+02 2.12775E+04-1.68557E-08 8.22672E-09
 -1       979-3.42890E+05-5.18843E+00-4.67772E+02 1.51251E+04-9.90701E-09-6.99856E-09
 -1       980-3.42907E+05-1.79758E+01-9.04124E+02 2.12785E+04-3.43016E-09-1.16964E-08
 -1       981-3.42861E+05 1.74070E+01-1.75156E+03 1.51256E+04 2.81409E-09 1.64767E-08
 -1       982-3.43148E+05-1.47394E+02-3.62070E+03 2.12719E+04 4.47199E-09 1.73510E-09
 -1       983-3.42641E+05-9.47468E+01-7.03518E+03 1.51316E+04-5.47925E-09 2.08440E-08
 -1       984-3.46531E+05-3.82166E+03-1.57550E+04 2.11868E+04-1.06820E-09 1.26039E-08
 -1       985-3.39456E+05-5.24266E+03-2.89311E+04 1.52034E+04-2.20552E-09 2.26282E-08
 -3
    1PSTEP                        37          19           1          
  100CL  119 6.62109E-01         409                     0   19           1
 -4  DISP        4    1
 -5  D1          1    2    1    0
 -5  D2          1    2    2    0
 -5  D3          1    2    3    0
 -5  ALL         1    2    0    0    1ALL
 -1         1 2.65477E-03 0.00000E+00 0.00000E+00
 -1         2 1.41326E-03-1.25189E-26-5.29396E-23
 -1         3 3.45961E-04-2.48520E-28-1.32349E-23
 -1         5 1.76609E-04 9.38662E-27-8.27181E-25
 -1         8 2.64272E-03-4.28154E-07 0.00000E+00
 -1         9 2.63541E-03-1.57856E-04 0.00000E+00
 -1        10 3.11822E-04-3.59633E-06-6.61744E-24
 -1        12 1.78430E-04 8.07543E-07-4.13590E-25
 -1        15 2.62875E-03-4.55873E-07-2.06795E-25
 -1        16 2.68951E-03-1.59500E-04 0.00000E+00
 -1        17 2.10682E-04-8.02941E-06 0.00000E+00
 -1        18 1.82302E-04 3.40610E-05 0.00000E+00
 -1        19 1.83892E-04 1.60874E-06 0.00000E+00
 -1        20 1.84032E-04-9.57946E-06 0.00000E+00
 -1        21 1.83143E-04-2.47785E-05-3.30872E-24
 -1        24 3.06521E-05-1.22444E-05 0.00000E+00
 -1        25 1.92953E-04 3.42861E-05 0.00000E+00
 -1        26 1.93637E-04 2.22780E-06 0.00000E+00
 -1        27 1.91441E-04-1.31309E-05 0.00000E+00
 -1        28 1.91124E-04-2.53996E-05 0.00000E+00
 -1        32 0.00000E+00 0.00000E+00 0.00000E+00
 -1        33 2.02374E-04 2.98026E-06 0.00000E+00
 -1        34 2.00260E-04-1.31866E-05 0.00000E+00
 -1        35 1.98331E-04-2.57414E-05 0.00000E+00
 -1        51 2.65397E-03-8.79512E-08 6.61744E-24
 -1        52 2.65250E-03-1.58035E-07 0.00000E+00
 -1        53 2.65050E-03-2.24867E-07 0.00000E+00
 -1        54 2.64811E-03-2.90677E-07 1.65436E-24
 -1        55 2.64547E-03-3.57201E-07 8.27181E-25
 -1        56 2.64861E-03 4.82648E-06 0.00000E+00
 -1        57 2.63789E-03 2.09803E-05-5.29396E-23
 -1        58 2.62415E-03 4.47464E-05 1.05879E-22
 -1        59 2.60911E-03 7.16586E-05-5.29396E-23
 -1        60 2.59482E-03 9.67232E-05 1.05879E-22
 -1        61 2.58320E-03 1.15096E-04 0.00000E+00
 -1        62 2.57562E-03 1.23120E-04 0.00000E+00
 -1        63 2.57299E-03 1.18055E-04-5.29396E-23
 -1        64 2.57526E-03 9.95236E-05 0.00000E+00
 -1        65 2.58194E-03 6.83847E-05 0.00000E+00
 -1        66 2.59182E-03 2.78237E-05-1.05879E-22
 -1        67 2.60346E-03-1.80862E-05 0.00000E+00
 -1        68 2.61520E-03-6.42705E-05 1.05879E-22
 -1        69 2.62537E-03-1.05622E-04 0.00000E+00
 -1        70 2.63248E-03-1.37946E-04 0.00000E+00
 -1        86 1.49002E-03-5.15472E-06 5.29396E-23
 -1        87 1.71297E-03-3.16640E-05 0.00000E+00
 -1        88 2.01264E-03-7.69682E-05-2.64698E-23
 -1        89 2.31591E-03-1.23376E-04 1.32349E-23
 -1        90 2.54760E-03-1.51770E-04-5.29396E-23
 -1       121 3.45001E-04-5.79306E-07 1.32349E-23
 -1       122 3.42125E-04-1.16214E-06 0.00000E+00
 -1       123 3.37345E-04-1.75196E-06 1.32349E-23
 -1       124 3.30681E-04-2.35216E-06-6.61744E-24
 -1       125 3.22161E-04-2.96582E-06 0.00000E+00
 -1       191 1.76660E-04 1.34653E-07-2.48154E-24
 -1       192 1.76812E-04 2.69294E-07 0.00000E+00
 -1       193 1.77064E-04 4.03916E-07-2.48154E-24
 -1       194 1.77418E-04 5.38506E-07 0.00000E+00
 -1       195 1.77873E-04 6.73053E-07 1.65436E-24
 -1       251 2.64236E-03 2.49181E-06-6.61744E-24
 -1       252 2.64199E-03 6.48651E-06 6.61744E-24
 -1       253 2.64162E-03 1.02768E-05 0.00000E+00
 -1       254 2.64125E-03 1.25863E-05 0.00000E+00
 -1       255 2.64089E-03 1.24046E-05 0.00000E+00
 -1       256 2.64052E-03 8.75863E-06 0.00000E+00
 -1       257 2.64012E-03 1.29639E-06 0.00000E+00
 -1       258 2.63969E-03-1.02770E-05 0.00000E+00
 -1       259 2.63922E-03-2.55199E-05-1.32349E-23
 -1       260 2.63869E-03-4.39356E-05 0.00000E+00
 -1       261 2.63812E-03-6.44584E-05 0.00000E+00
 -1       262 2.63753E-03-8.59918E-05 6.61744E-24
 -1       263 2.63695E-03-1.07258E-04 0.00000E+00
 -1       264 2.63639E-03-1.26981E-04 6.61744E-24
 -1       265 2.63588E-03-1.44167E-04-1.32349E-23
 -1       266 2.64039E-03-4.38821E-07 3.30872E-24
 -1       267 2.63806E-03-4.42704E-07-8.27181E-25
 -1       268 2.63574E-03-4.47016E-07 0.00000E+00
 -1       269 2.63341E-03-4.50056E-07-2.06795E-25
 -1       270 2.63108E-03-4.53066E-07 0.00000E+00
 -1       271 2.64164E-03 5.34112E-07-1.32349E-23
 -1       272 2.64136E-03-6.91846E-07 0.00000E+00
 -1       273 2.64186E-03-3.99013E-06 0.00000E+00
 -1       274 2.64307E-03-9.23563E-06 0.00000E+00
 -1       275 2.64495E-03-1.62840E-05 2.64698E-23
 -1       276 2.64743E-03-2.49773E-05 0.00000E+00
 -1       277 2.65045E-03-3.51425E-05 0.00000E+00
 -1       278 2.65393E-03-4.65947E-05 0.00000E+00
 -1       279 2.65781E-03-5.91377E-05 0.00000E+00
 -1       280 2.66201E-03-7.25663E-05-1.32349E-23
 -1       281 2.66645E-03-8.66670E-05-2.64698E-23
 -1       282 2.67106E-03-1.01222E-04 0.00000E+00
 -1       283 2.67574E-03-1.16007E-04 0.00000E+00
 -1       284 2.68044E-03-1.30798E-04 0.00000E+00
 -1       285 2.68505E-03-1.45371E-04-1.32349E-23
 -1       301 2.64523E-03-1.58160E-04 0.00000E+00
 -1       302 2.65355E-03-1.58422E-04-6.61744E-24
 -1       303 2.66123E-03-1.58677E-04 0.00000E+00
 -1       304 2.66919E-03-1.58932E-04 6.61744E-24
 -1       305 2.67832E-03-1.59199E-04-2.64698E-23
 -1       306 2.67263E-03-3.09134E-04 0.00000E+00
 -1       307 2.73665E-03-7.18190E-04 5.29396E-23
 -1       308 2.78438E-03-1.31805E-03-1.05879E-22
 -1       309 2.80952E-03-2.01402E-03-5.29396E-23
 -1       310 2.84154E-03-2.68150E-03 1.05879E-22
 -1       311 2.90103E-03-3.19837E-03 0.00000E+00
 -1       312 2.95934E-03-3.48435E-03 0.00000E+00
 -1       313 2.95705E-03-3.50070E-03 0.00000E+00
 -1       314 2.82151E-03-3.25849E-03 1.05879E-22
 -1       315 2.51175E-03-2.82050E-03 0.00000E+00
 -1       316 2.04510E-03-2.26258E-03 0.00000E+00
 -1       317 1.48582E-03-1.65400E-03 5.29396E-23
 -1       318 9.46367E-04-1.05594E-03-1.05879E-22
 -1       319 5.33355E-04-5.33588E-04 0.00000E+00
 -1       320 2.90411E-04-1.60363E-04-1.05879E-22
 -1       336 2.99595E-04-4.27012E-06-1.32349E-23
 -1       337 2.85418E-04-4.96865E-06 0.00000E+00
 -1       338 2.69358E-04-5.69407E-06 1.32349E-23
 -1       339 2.51491E-04-6.44655E-06 6.61744E-24
 -1       340 2.31901E-04-7.23012E-06 0.00000E+00
 -1       406 1.79087E-04 9.41957E-07 8.27181E-25
 -1       407 1.79846E-04 1.07626E-06 0.00000E+00
 -1       408 1.80706E-04 1.21040E-06 8.27181E-25
 -1       409 1.81668E-04 1.34420E-06 0.00000E+00
 -1       410 1.82730E-04 1.47740E-06 2.06795E-24
 -1       521 2.72739E-03-3.20026E-04 0.00000E+00
 -1       522 2.78975E-03-7.48866E-04 5.29396E-23
 -1       523 2.83135E-03-1.37574E-03 1.05879E-22
 -1       524 2.84770E-03-2.09938E-03 5.29396E-23
 -1       525 2.87213E-03-2.79255E-03-1.05879E-22
 -1       526 2.92816E-03-3.33080E-03 5.29396E-23
 -1       527 2.98604E-03-3.62718E-03 0.00000E+00
 -1       528 2.98161E-03-3.64204E-03-5.29396E-23
 -1       529 2.83474E-03-3.38632E-03-2.11758E-22
 -1       530 2.50227E-03-2.93039E-03-5.29396E-23
 -1       531 2.00221E-03-2.35374E-03 1.05879E-22
 -1       532 1.40496E-03-1.72824E-03 0.00000E+00
 -1       533 8.28087E-04-1.11265E-03 0.00000E+00
 -1       534 3.83079E-04-5.69953E-04 0.00000E+00
 -1       535 1.19642E-04-1.77712E-04 0.00000E+00
 -1       536 2.09931E-04 2.67613E-05 0.00000E+00
 -1       537 2.08026E-04 8.69869E-05 1.65436E-24
 -1       538 2.05081E-04 1.63412E-04 3.30872E-24
 -1       539 2.01608E-04 2.46717E-04-1.65436E-24
 -1       540 1.98482E-04 3.25439E-04 0.00000E+00
 -1       541 1.96450E-04 3.88137E-04 1.65436E-24
 -1       542 1.95511E-04 4.28075E-04 0.00000E+00
 -1       543 1.95287E-04 4.38670E-04 1.65436E-24
 -1       544 1.94966E-04 4.20691E-04 3.30872E-24
 -1       545 1.93800E-04 3.75130E-04-1.65436E-24
 -1       546 1.91630E-04 3.10088E-04 3.30872E-24
 -1       547 1.88691E-04 2.33787E-04 1.65436E-24
 -1       548 1.85780E-04 1.57863E-04 3.30872E-24
 -1       549 1.83679E-04 9.39517E-05 0.00000E+00
 -1       550 1.82588E-04 5.00577E-05 0.00000E+00
 -1       551 1.85582E-04-8.59874E-06 0.00000E+00
 -1       552 1.57254E-04-9.24768E-06 0.00000E+00
 -1       553 1.26639E-04-9.95819E-06 9.92617E-24
 -1       554 9.46949E-05-1.07093E-05 3.30872E-24
 -1       555 6.23814E-05-1.14736E-05 0.00000E+00
 -1       556 2.03066E-04 1.14449E-05 0.00000E+00
 -1       557 1.96913E-04 2.72393E-05 0.00000E+00
 -1       558 1.92089E-04 3.96407E-05 0.00000E+00
 -1       559 1.88461E-04 4.89582E-05 0.00000E+00
 -1       560 1.85900E-04 5.55015E-05 0.00000E+00
 -1       561 1.84280E-04 5.95828E-05 0.00000E+00
 -1       562 1.83473E-04 6.15154E-05 0.00000E+00
 -1       563 1.83359E-04 6.16136E-05 0.00000E+00
 -1       564 1.83814E-04 6.01927E-05 0.00000E+00
 -1       565 1.84718E-04 5.75685E-05 0.00000E+00
 -1       566 1.85953E-04 5.40575E-05 0.00000E+00
 -1       567 1.87400E-04 4.99764E-05 0.00000E+00
 -1       568 1.88941E-04 4.56422E-05 0.00000E+00
 -1       569 1.90458E-04 4.13718E-05 0.00000E+00
 -1       570 1.91834E-04 3.74823E-05 0.00000E+00
 -1       571 1.82399E-04 3.19558E-05 0.00000E+00
 -1       572 1.82497E-04 2.97850E-05-4.13590E-25
 -1       573 1.82596E-04 2.75644E-05 3.30872E-24
 -1       574 1.82695E-04 2.53100E-05 0.00000E+00
 -1       575 1.82795E-04 2.30385E-05-3.30872E-24
 -1       576 1.82894E-04 2.07660E-05-1.65436E-24
 -1       577 1.82993E-04 1.85091E-05 0.00000E+00
 -1       578 1.83093E-04 1.62843E-05 0.00000E+00
 -1       579 1.83192E-04 1.41079E-05 0.00000E+00
 -1       580 1.83292E-04 1.19965E-05 0.00000E+00
 -1       581 1.83391E-04 9.96654E-06 6.61744E-24
 -1       582 1.83491E-04 8.03437E-06 0.00000E+00
 -1       583 1.83591E-04 6.21645E-06 6.61744E-24
 -1       584 1.83692E-04 4.52904E-06 3.30872E-24
 -1       585 1.83792E-04 2.98822E-06 0.00000E+00
 -1       586 1.84036E-04 3.41006E-05 1.65436E-24
 -1       587 1.85730E-04 3.41397E-05 0.00000E+00
 -1       588 1.87424E-04 3.41784E-05 0.00000E+00
 -1       589 1.89165E-04 3.42165E-05 0.00000E+00
 -1       590 1.90993E-04 3.42533E-05 0.00000E+00
 -1       591 1.83024E-04 3.20490E-05 2.06795E-25
 -1       592 1.83748E-04 3.00169E-05 2.06795E-25
 -1       593 1.84477E-04 2.79707E-05-8.27181E-25
 -1       594 1.85210E-04 2.59150E-05 0.00000E+00
 -1       595 1.85943E-04 2.38546E-05 8.27181E-25
 -1       596 1.86677E-04 2.17942E-05 4.13590E-25
 -1       597 1.87410E-04 1.97385E-05 0.00000E+00
 -1       598 1.88138E-04 1.76923E-05 4.13590E-25
 -1       599 1.88861E-04 1.56602E-05 0.00000E+00
 -1       600 1.89578E-04 1.36469E-05 4.13590E-25
 -1       601 1.90285E-04 1.16572E-05 0.00000E+00
 -1       602 1.90982E-04 9.69572E-06-2.06795E-25
 -1       603 1.91667E-04 7.76719E-06 4.13590E-25
 -1       604 1.92339E-04 5.87640E-06 2.06795E-25
 -1       605 1.92995E-04 4.02799E-06 0.00000E+00
 -1       606 1.83906E-04 4.61977E-07 0.00000E+00
 -1       607 1.83915E-04-5.98789E-07-1.65436E-24
 -1       608 1.83924E-04-1.57861E-06 0.00000E+00
 -1       609 1.83933E-04-2.48317E-06 0.00000E+00
 -1       610 1.83941E-04-3.31822E-06 0.00000E+00
 -1       611 1.83949E-04-4.08957E-06 0.00000E+00
 -1       612 1.83958E-04-4.80302E-06 0.00000E+00
 -1       613 1.83966E-04-5.46440E-06 0.00000E+00
 -1       614 1.83974E-04-6.07954E-06-1.65436E-24
 -1       615 1.83983E-04-6.65424E-06 0.00000E+00
 -1       616 1.83991E-04-7.19434E-06 1.65436E-24
 -1       617 1.84000E-04-7.70565E-06 4.13590E-25
 -1       618 1.84008E-04-8.19400E-06-8.27181E-25
 -1       619 1.84016E-04-8.66520E-06 2.06795E-25
 -1       620 1.84025E-04-9.12508E-06-2.06795E-25
 -1       621 1.85233E-04 1.71247E-06 3.30872E-24
 -1       622 1.86731E-04 1.81646E-06 0.00000E+00
 -1       623 1.88353E-04 1.92024E-06 1.65436E-24
 -1       624 1.90067E-04 2.02368E-06 1.65436E-24
 -1       625 1.91840E-04 2.12684E-06 0.00000E+00
 -1       626 1.84434E-04 4.98005E-07 3.30872E-24
 -1       627 1.84953E-04-5.49483E-07 3.30872E-24
 -1       628 1.85452E-04-1.54158E-06 0.00000E+00
 -1       629 1.85933E-04-2.48645E-06-1.65436E-24
 -1       630 1.86399E-04-3.39231E-06 0.00000E+00
 -1       631 1.86854E-04-4.26736E-06 1.65436E-24
 -1       632 1.87301E-04-5.11980E-06 3.30872E-24
 -1       633 1.87742E-04-5.95786E-06 0.00000E+00
 -1       634 1.88181E-04-6.78976E-06-3.30872E-24
 -1       635 1.88620E-04-7.62370E-06 0.00000E+00
 -1       636 1.89064E-04-8.46792E-06 0.00000E+00
 -1       637 1.89514E-04-9.33061E-06 0.00000E+00
 -1       638 1.89974E-04-1.02200E-05-3.30872E-24
 -1       639 1.90447E-04-1.11443E-05-1.65436E-24
 -1       640 1.90936E-04-1.21119E-05-3.30872E-24
 -1       656 1.84719E-04-1.01567E-05 0.00000E+00
 -1       657 1.85826E-04-1.07574E-05-6.61744E-24
 -1       658 1.87213E-04-1.13567E-05 0.00000E+00
 -1       659 1.88734E-04-1.19556E-05 0.00000E+00
 -1       660 1.90204E-04-1.25564E-05-6.61744E-24
 -1       661 1.84289E-04-1.00788E-05 0.00000E+00
 -1       662 1.84584E-04-1.06697E-05-8.27181E-25
 -1       663 1.84911E-04-1.13470E-05 0.00000E+00
 -1       664 1.85269E-04-1.21042E-05 0.00000E+00
 -1       665 1.85654E-04-1.29355E-05 1.65436E-24
 -1       666 1.86064E-04-1.38351E-05 8.27181E-25
 -1       667 1.86499E-04-1.47972E-05 1.65436E-24
 -1       668 1.86954E-04-1.58164E-05 8.27181E-25
 -1       669 1.87429E-04-1.68872E-05 0.00000E+00
 -1       670 1.87921E-04-1.80043E-05 8.27181E-25
 -1       671 1.88429E-04-1.91627E-05 0.00000E+00
 -1       672 1.88949E-04-2.03572E-05 0.00000E+00
 -1       673 1.89482E-04-2.15828E-05 0.00000E+00
 -1       674 1.90023E-04-2.28349E-05 0.00000E+00
 -1       675 1.90573E-04-2.41081E-05 0.00000E+00
 -1       676 1.84477E-04-2.48826E-05 0.00000E+00
 -1       677 1.85811E-04-2.49867E-05-1.65436E-24
 -1       678 1.87144E-04-2.50907E-05-3.30872E-24
 -1       679 1.88474E-04-2.51945E-05 0.00000E+00
 -1       680 1.89801E-04-2.52982E-05 0.00000E+00
 -1       771 1.87637E-05 1.43315E-05 0.00000E+00
 -1       772 8.75959E-06 3.61618E-05 0.00000E+00
 -1       773 5.49367E-07 5.34753E-05 5.29396E-23
 -1       774-5.99033E-06 6.65285E-05 0.00000E+00
 -1       775-1.09803E-05 7.55881E-05 0.00000E+00
 -1       776-1.45462E-05 8.09375E-05 0.00000E+00
 -1       777-1.68135E-05 8.28701E-05 5.29396E-23
 -1       778-1.79102E-05 8.16930E-05 2.64698E-23
 -1       779-1.79638E-05 7.77218E-05-5.29396E-23
 -1       780-1.71036E-05 7.12834E-05 2.64698E-23
 -1       781-1.54583E-05 6.27115E-05-5.29396E-23
 -1       782-1.31579E-05 5.23483E-05 0.00000E+00
 -1       783-1.03317E-05 4.05410E-05-5.29396E-23
 -1       784-7.11000E-06 2.76427E-05 0.00000E+00
 -1       785-3.62236E-06 1.40095E-05-5.29396E-23
 -1       786 1.92991E-04 3.20559E-05 0.00000E+00
 -1       787 1.93033E-04 2.98754E-05 0.00000E+00
 -1       788 1.93075E-04 2.77365E-05-8.27181E-25
 -1       789 1.93118E-04 2.56309E-05 0.00000E+00
 -1       790 1.93161E-04 2.35540E-05-1.65436E-24
 -1       791 1.93204E-04 2.15011E-05 0.00000E+00
 -1       792 1.93247E-04 1.94699E-05 0.00000E+00
 -1       793 1.93290E-04 1.74583E-05 0.00000E+00
 -1       794 1.93333E-04 1.54661E-05 1.65436E-24
 -1       795 1.93376E-04 1.34933E-05 0.00000E+00
 -1       796 1.93419E-04 1.15415E-05 0.00000E+00
 -1       797 1.93462E-04 9.61287E-06 8.27181E-25
 -1       798 1.93506E-04 7.71152E-06 1.65436E-24
 -1       799 1.93549E-04 5.84185E-06 8.27181E-25
 -1       800 1.93593E-04 4.01138E-06-1.65436E-24
 -1       801 1.47454E-04 3.08168E-05 2.64698E-23
 -1       802 9.87430E-06 1.92350E-05-2.64698E-23
 -1       803-1.07704E-04 9.71972E-06 5.29396E-23
 -1       804-9.55803E-05 6.76183E-06 2.64698E-23
 -1       805-3.15800E-05 2.66303E-06 0.00000E+00
 -1       806 1.93674E-04 3.19873E-05 3.30872E-24
 -1       807 1.94381E-04 2.97144E-05 0.00000E+00
 -1       808 1.95077E-04 2.74728E-05 0.00000E+00
 -1       809 1.95758E-04 2.52664E-05-1.65436E-24
 -1       810 1.96425E-04 2.30994E-05 0.00000E+00
 -1       811 1.97075E-04 2.09757E-05 1.65436E-24
 -1       812 1.97708E-04 1.88992E-05 0.00000E+00
 -1       813 1.98322E-04 1.68738E-05 1.65436E-24
 -1       814 1.98915E-04 1.49035E-05 0.00000E+00
 -1       815 1.99486E-04 1.29922E-05-1.65436E-24
 -1       816 2.00034E-04 1.11437E-05-1.65436E-24
 -1       817 2.00557E-04 9.36204E-06 1.65436E-24
 -1       818 2.01053E-04 7.65098E-06-1.65436E-24
 -1       819 2.01522E-04 6.01445E-06 1.65436E-24
 -1       820 2.01963E-04 4.45628E-06 0.00000E+00
 -1       821 1.93508E-04-9.90853E-08 0.00000E+00
 -1       822 1.93368E-04-3.55412E-06-1.65436E-24
 -1       823 1.93226E-04-7.71717E-06 0.00000E+00
 -1       824 1.93082E-04-1.21637E-05 0.00000E+00
 -1       825 1.92938E-04-1.63925E-05 0.00000E+00
 -1       826 1.92796E-04-1.99039E-05 0.00000E+00
 -1       827 1.92658E-04-2.23932E-05 3.30872E-24
 -1       828 1.92522E-04-2.35620E-05 0.00000E+00
 -1       829 1.92386E-04-2.34710E-05 3.30872E-24
 -1       830 1.92250E-04-2.21887E-05 1.65436E-24
 -1       831 1.92113E-04-2.01073E-05 0.00000E+00
 -1       832 1.91975E-04-1.76240E-05 1.65436E-24
 -1       833 1.91837E-04-1.52457E-05 3.30872E-24
 -1       834 1.91702E-04-1.34781E-05-1.65436E-24
 -1       835 1.91567E-04-1.26617E-05 0.00000E+00
 -1       836 1.95305E-04 2.35259E-06 0.00000E+00
 -1       837 1.96846E-04 2.48051E-06 0.00000E+00
 -1       838 1.98292E-04 2.60837E-06 0.00000E+00
 -1       839 1.99674E-04 2.73552E-06 0.00000E+00
 -1       840 2.01024E-04 2.86252E-06 0.00000E+00
 -1       856 1.91425E-04-1.41723E-05 0.00000E+00
 -1       857 1.91405E-04-1.50781E-05-1.29247E-26
 -1       858 1.91386E-04-1.58694E-05 2.06795E-25
 -1       859 1.91366E-04-1.65674E-05 0.00000E+00
 -1       860 1.91347E-04-1.71932E-05 4.13590E-25
 -1       861 1.91327E-04-1.77681E-05 2.06795E-25
 -1       862 1.91307E-04-1.83134E-05 0.00000E+00
 -1       863 1.91287E-04-1.88504E-05 4.13590E-25
 -1       864 1.91267E-04-1.94003E-05 0.00000E+00
 -1       865 1.91247E-04-1.99847E-05 0.00000E+00
 -1       866 1.91227E-04-2.06246E-05 0.00000E+00
 -1       867 1.91207E-04-2.13414E-05-4.13590E-25
 -1       868 1.91187E-04-2.21562E-05 0.00000E+00
 -1       869 1.91166E-04-2.30902E-05 4.13590E-25
 -1       870 1.91146E-04-2.41644E-05-8.27181E-25
 -1       871 1.92770E-04-1.31357E-05 8.27181E-25
 -1       872 1.94245E-04-1.31440E-05 0.00000E+00
 -1       873 1.95800E-04-1.31530E-05 0.00000E+00
 -1       874 1.97366E-04-1.31627E-05 1.03398E-25
 -1       875 1.98875E-04-1.31729E-05 1.44757E-24
 -1       876 1.91959E-04-1.41577E-05 0.00000E+00
 -1       877 1.92454E-04-1.51179E-05 1.65436E-24
 -1       878 1.92927E-04-1.60193E-05 0.00000E+00
 -1       879 1.93382E-04-1.68693E-05-1.65436E-24
 -1       880 1.93820E-04-1.76753E-05 0.00000E+00
 -1       881 1.94245E-04-1.84447E-05 0.00000E+00
 -1       882 1.94659E-04-1.91848E-05 3.30872E-24
 -1       883 1.95064E-04-1.99030E-05 0.00000E+00
 -1       884 1.95464E-04-2.06066E-05 3.30872E-24
 -1       885 1.95862E-04-2.13029E-05 1.65436E-24
 -1       886 1.96259E-04-2.19992E-05 0.00000E+00
 -1       887 1.96659E-04-2.27030E-05 0.00000E+00
 -1       888 1.97064E-04-2.34215E-05 0.00000E+00
 -1       889 1.97477E-04-2.41622E-05 1.65436E-24
 -1       890 1.97900E-04-2.49324E-05 1.65436E-24
 -1       891 1.92467E-04-2.54571E-05 1.65436E-24
 -1       892 1.93787E-04-2.55146E-05-8.27181E-25
 -1       893 1.95058E-04-2.55721E-05-8.27181E-25
 -1       894 1.96256E-04-2.56293E-05-4.13590E-25
 -1       895 1.97355E-04-2.56863E-05 8.27181E-25
 -1       956 2.02244E-04 1.67848E-06 1.65436E-24
 -1       957 2.02112E-04 4.68040E-07 8.27181E-25
 -1       958 2.01979E-04-6.61786E-07 0.00000E+00
 -1       959 2.01847E-04-1.72230E-06 0.00000E+00
 -1       960 2.01714E-04-2.72484E-06 3.30872E-24
 -1       961 2.01582E-04-3.68081E-06 0.00000E+00
 -1       962 2.01449E-04-4.60157E-06 3.30872E-24
 -1       963 2.01317E-04-5.49857E-06 0.00000E+00
 -1       964 2.01184E-04-6.38320E-06 0.00000E+00
 -1       965 2.01052E-04-7.26686E-06-1.65436E-24
 -1       966 2.00919E-04-8.16099E-06 0.00000E+00
 -1       967 2.00787E-04-9.07698E-06 0.00000E+00
 -1       968 2.00654E-04-1.00262E-05 0.00000E+00
 -1       969 2.00522E-04-1.10201E-05-3.30872E-24
 -1       970 2.00390E-04-1.20699E-05-3.30872E-24
 -1       971 2.00140E-04-1.43027E-05 0.00000E+00
 -1       972 2.00019E-04-1.53243E-05 0.00000E+00
 -1       973 1.99898E-04-1.62618E-05 0.00000E+00
 -1       974 1.99777E-04-1.71261E-05 0.00000E+00
 -1       975 1.99656E-04-1.79279E-05 3.30872E-24
 -1       976 1.99534E-04-1.86782E-05 1.65436E-24
 -1       977 1.99413E-04-1.93878E-05 0.00000E+00
 -1       978 1.99292E-04-2.00676E-05 0.00000E+00
 -1       979 1.99171E-04-2.07286E-05 3.30872E-24
 -1       980 1.99050E-04-2.13815E-05 1.65436E-24
 -1       981 1.98929E-04-2.20374E-05 3.30872E-24
 -1       982 1.98808E-04-2.27071E-05-1.65436E-24
 -1       983 1.98687E-04-2.34015E-05 3.30872E-24
 -1       984 1.98566E-04-2.41314E-05 1.65436E-24
 -1       985 1.98447E-04-2.49079E-05 0.00000E+00
 -3
    1PSTEP                        38          19           1          
  100CL  119 6.62109E-01         409                     0   19           1
 -4  STRESS      6    1
 -5  SXX         1    4    1    1
 -5  SYY         1    4    2    2
 -5  SZZ         1    4    3    3
 -5  SXY         1    4    1    2
 -5  SYZ         1    4    2    3
 -5  SZX         1    4    3    1
 -1         1-5.22444E+06-1.68487E+06-1.12066E+06-1.49596E+06 1.60071E-10 3.21947E-07
 -1         2 1.16529E+06 1.71594E+07 4.11977E+06 5.15380E+06 2.26719E-08-6.22967E-08
 -1         3-1.57519E+03-1.64438E+06 2.74750E+02-2.66224E+03 8.69392E-10 7.42148E-10
 -1         5-7.31976E+01 3.85582E+05 9.96406E+00-1.31839E+00-6.29197E-10 3.15595E-08
 -1         8-6.32266E+05-2.19113E+05-7.46173E+04-2.59693E+05 3.52884E-10-7.28360E-08
 -1         9 1.12667E+07 2.97590E+06 2.54394E+06-5.16305E+05-2.95695E-09 3.52738E-08
 -1        10-1.46620E+03-1.68004E+06-3.48475E+03-1.66519E+04-4.58749E-09-2.50729E-08
 -1        12-6.92808E+01 3.85604E+05 3.27413E+02-8.99563E+00-6.54893E-10-8.84029E-09
 -1        15 1.00200E+03 5.50650E+02 3.23890E+03 1.00886E+00-1.01453E-09 2.12959E-07
 -1        16 2.24061E+07-2.83682E+05 3.06571E+06-2.11284E+06 1.54832E-08 5.88285E-08
 -1        17 8.18306E+06 6.11427E+06 2.21119E+06 5.86599E+06 2.21364E-08 2.32947E-08
 -1        18 1.41019E+05 3.31499E+04 3.90830E+03-1.19175E+05 1.43775E-08-5.79212E-09
 -1        19 1.22152E+05 1.41391E+05-9.40554E+02 2.19352E+04 1.53341E-09 7.30724E-09
 -1        20-8.15828E+04-5.72502E+05-1.28451E+05 2.51766E+04-1.24328E-09-1.22430E-08
 -1        21-4.55663E+01-2.95631E+05-9.23019E+02 2.70649E+02 1.38362E-08-3.01411E-09
 -1        24 1.36278E+07 1.17367E+07 3.78153E+06 1.08754E+07-1.69966E-07-5.22899E-08
 -1        25 1.21746E+05 2.55117E+05 9.68984E+04-6.38285E+05-1.54232E-09 1.02526E-08
 -1        26-5.51997E+04 9.21134E+04-2.45689E+04 1.20359E+03-9.93168E-11 1.10425E-08
 -1        27-7.55744E+04-3.09344E+05-1.13114E+05 6.88386E+04 3.10911E-09-3.05893E-10
 -1        28 2.22190E+04-8.52118E+04 1.68750E+04 2.06259E+04-3.88332E-09-7.97596E-09
 -1        32-1.67786E+06-3.16836E+06-1.95648E+05 4.44006E+05-4.25280E-08-9.28503E-09
 -1        33-1.78118E+05 9.28034E+04 3.23230E+04-3.84939E+04-3.14901E-09 1.58458E-08
 -1        34-2.23202E+05-2.49657E+04 6.87463E+02 7.54743E+04-4.07437E-09 6.55609E-09
 -1        35-2.29045E+04-3.37932E+04-1.34619E+03 5.14314E+04-3.61247E-09 8.88758E-09
 -1        51 5.89614E+04-1.80887E+05 1.25089E+05-4.78149E+05-1.45519E-11 8.53761E-08
 -1        52 2.01609E+04-1.59299E+05 6.59315E+04-5.57608E+05-2.91038E-11 5.20668E-08
 -1        53 4.35562E+03-1.74708E+05 3.48161E+04-4.76478E+05 1.27329E-10 8.58709E-08
 -1        54 8.13447E+03-1.70548E+05 2.95749E+04-5.59270E+05 4.72937E-11-9.10077E-08
 -1        55 1.76303E+04-1.78056E+05 3.71093E+04-4.76345E+05 3.63798E-10-4.05907E-08
 -1        56-9.55963E+06-1.21846E+06-8.56274E+05-3.89002E+06 5.90808E-09 8.00646E-08
 -1        57-1.05787E+07-1.15630E+06-5.52744E+05-2.98567E+06 1.77133E-08-1.24353E-07
 -1        58-9.54163E+06-1.60669E+06-1.95531E+05-3.98691E+06-2.98387E-08 1.22927E-07
 -1        59-1.05524E+07-7.30771E+05-1.12453E+05-2.95376E+06 1.94168E-08-3.63400E-07
 -1        60-9.61086E+06-1.61575E+06-5.03236E+04-3.94643E+06-1.45410E-08-2.04131E-07
 -1        61-1.01959E+07-9.19156E+05-9.13243E+03-3.15242E+06 3.56667E-08-1.02300E-07
 -1        62-9.84306E+06-1.45457E+06-3.72320E+04-3.74670E+06-4.83851E-09-6.95873E-08
 -1        63-9.69659E+06-1.34313E+06 1.49276E+04-3.60382E+06 3.42370E-08-2.14821E-07
 -1        64-1.00707E+07-1.21955E+06-3.40145E+04-3.46892E+06-2.54367E-08 2.45909E-08
 -1        65-9.40887E+06-1.72463E+06-9.27282E+03-4.12301E+06-2.66591E-08 9.12480E-08
 -1        66-1.01798E+07-1.03910E+06-4.31551E+04-3.26392E+06-1.90848E-08 1.88340E-07
 -1        67-9.36595E+06-1.91194E+06-1.01435E+05-4.36032E+06-4.53310E-08-1.65724E-07
 -1        68-1.01618E+07-9.99710E+05-1.78419E+05-3.26297E+06-8.25348E-08-6.33663E-08
 -1        69-9.59415E+06-2.06362E+06-4.95216E+05-4.09136E+06-4.79754E-08-1.54432E-07
 -1        70-9.91125E+06-9.26190E+05-7.78144E+05-3.50210E+06 2.59934E-08 1.23604E-07
 -1        86-1.18734E+06-1.32234E+07-2.25104E+06-2.43443E+06-2.40761E-07-8.45175E-08
 -1        87 1.81679E+06 4.63619E+06 1.87346E+06 4.73681E+06-4.18710E-07 1.08015E-07
 -1        88-3.16734E+05-2.21341E+06 1.70167E+05-2.24310E+06-3.54099E-07-2.98282E-08
 -1        89 2.43927E+06 4.42508E+06 1.91396E+06 4.87769E+06-5.15771E-07-1.89362E-07
 -1        90-1.74378E+06-1.30680E+07-2.44259E+06-2.59335E+06-1.26693E-07 3.26545E-08
 -1       121-2.16141E+03-1.64994E+06-8.55569E+02 1.32025E+03 3.28541E-10 2.81289E-08
 -1       122-1.42150E+03-1.64452E+06 4.15417E+02-5.32376E+03 5.32964E-09-5.56975E-09
 -1       123-2.13423E+03-1.65005E+06-5.37520E+02 3.93887E+03 1.84173E-09 1.59343E-09
 -1       124-3.70291E+02-1.64459E+06 1.30017E+03-1.10140E+04 1.15515E-08 1.74841E-08
 -1       125-2.52632E+03-1.65057E+06 6.37559E+02 6.95724E+03 3.55794E-09 5.39512E-09
 -1       191-7.71453E+01 3.85601E+05 8.57005E+00 6.86779E-01-5.97127E-10 9.68066E-09
 -1       192-7.41583E+01 3.85583E+05 2.12583E+01-4.23545E+00-7.51070E-10 1.85901E-09
 -1       193-7.96746E+01 3.85600E+05 3.62862E+01 3.71764E+00-1.02819E-09 4.88762E-09
 -1       194-7.72385E+01 3.85586E+05 8.08031E+01-9.61361E+00-4.77460E-10 2.25509E-08
 -1       195-8.45296E+01 3.85598E+05 1.54793E+02 6.25094E+00-1.47830E-09 1.97142E-08
 -1       251-1.03354E+06 2.11602E+04-4.99160E+04-1.84873E+04 6.26778E-09-1.57899E-07
 -1       252-1.05345E+06-2.43452E+04-3.48671E+04 6.23918E+04-1.43121E-08-1.22600E-09
 -1       253-1.04224E+06 3.37985E+03-1.30143E+04-1.75786E+04 5.73164E-09-2.05944E-07
 -1       254-1.03807E+06-3.74370E+03-6.70722E+03 5.03914E+04 6.11226E-09-2.21640E-07
 -1       255-1.04829E+06 2.36759E+02-4.35143E+03-6.48766E+03-4.61159E-09 2.20574E-07
 -1       256-1.02886E+06-3.73202E+02 1.10008E+03 2.22705E+04 1.84968E-10 4.88749E-07
 -1       257-1.05071E+06-6.23425E+02-2.07092E+03 1.05324E+04-2.08320E-09 2.30101E-07
 -1       258-1.03014E+06 8.72677E+02 3.13045E+03-1.10587E+04-4.99813E-09 1.42044E-07
 -1       259-1.04716E+06-9.83792E+02 7.01384E+02 2.68334E+04 1.90107E-09 1.93747E-07
 -1       260-1.03865E+06 2.86807E+03 5.21387E+03-3.66298E+04 1.19934E-08-2.11480E-07
 -1       261-1.04301E+06-1.94980E+03 7.47722E+03 3.61208E+04 2.13413E-08 5.32427E-08
 -1       262-1.03932E+06 1.06853E+04 1.87491E+04-4.46756E+04-4.13646E-09-1.66765E-08
 -1       263-1.04685E+06-8.43499E+03 2.94979E+04 3.48924E+04 6.35077E-09 1.33059E-07
 -1       264-1.01047E+06 5.86538E+04 8.24118E+04-3.21162E+04 4.19918E-08-4.77094E-08
 -1       265-1.07124E+06-5.02372E+04 1.13491E+05 2.35448E+04 1.62088E-08 1.66176E-07
 -1       266-1.81395E+04-8.48277E+03 4.25570E+04-2.15847E+01-1.24055E-09-6.32712E-07
 -1       267 2.10285E+04 9.88572E+03 3.00804E+04 2.49062E+01-2.18552E-09-9.47469E-07
 -1       268-2.81988E+03-1.40015E+03 1.11807E+04-3.17339E+00-1.94905E-09-7.93489E-07
 -1       269 3.32945E+03 1.67562E+03 7.26734E+03 3.69664E+00-1.56876E-09-7.35467E-07
 -1       270-4.99746E+02-2.75312E+02 3.50805E+03-5.01657E-01-1.27159E-09-4.48088E-07
 -1       271-1.59908E+06-2.00750E+05-1.19655E+05-6.20119E+05-5.74619E-09 1.85828E-08
 -1       272-1.61385E+06-3.08261E+05-7.58557E+04-6.43801E+05-2.34386E-08 3.06289E-07
 -1       273-1.62379E+06-2.27429E+05-2.87505E+04-6.12187E+05 3.92174E-08 1.15615E-07
 -1       274-1.58483E+06-2.76387E+05-1.53672E+04-6.57954E+05 3.53975E-08-3.62343E-08
 -1       275-1.62927E+06-2.27769E+05-7.01420E+03-6.08642E+05 3.57850E-08-1.96648E-07
 -1       276-1.57846E+06-2.76760E+05-3.19193E+03-6.65517E+05-1.03828E-08-1.70676E-07
 -1       277-1.63193E+06-2.25527E+05-1.90912E+03-6.06056E+05-1.51067E-08-9.25957E-09
 -1       278-1.57573E+06-2.79880E+05-8.73019E+02-6.71140E+05-1.03500E-08-7.50474E-08
 -1       279-1.63366E+06-2.23571E+05-9.99903E+02-6.04181E+05-1.94286E-08 2.18492E-08
 -1       280-1.57431E+06-2.82420E+05-1.31454E+03-6.75006E+05 7.24867E-09 1.39348E-07
 -1       281-1.63461E+06-2.22202E+05-2.42237E+03-6.03046E+05-1.43655E-08 2.04724E-08
 -1       282-1.57465E+06-2.85203E+05-5.65937E+03-6.76804E+05 3.25065E-08 1.05479E-08
 -1       283-1.63403E+06-2.20496E+05-1.00649E+04-6.02797E+05-2.66909E-08-2.57928E-07
 -1       284-1.58346E+06-2.98864E+05-2.74399E+04-6.74702E+05-2.75377E-08 1.53548E-07
 -1       285-1.62602E+06-2.09908E+05-4.27043E+04-6.04670E+05-1.75608E-08 4.03670E-08
 -1       301-1.34371E+02-6.23207E+05 1.68214E+05-1.08817E+06 1.55414E-08-2.70593E-08
 -1       302-3.42251E+02-5.77946E+05 1.01323E+05-1.58918E+06 4.25644E-09-1.04897E-07
 -1       303-1.62699E+04-6.13791E+05 5.79531E+04-1.08528E+06 8.33825E-09-7.86058E-08
 -1       304-1.62381E+04-5.83445E+05 5.95618E+04-1.58845E+06-1.64728E-08 3.27855E-08
 -1       305-1.96219E+04-6.03526E+05 7.48392E+04-1.08837E+06 6.19912E-09-1.31244E-07
 -1       306-2.98553E+07-6.16138E+06-8.51214E+06-6.29666E+05-1.03260E-07 1.16124E-07
 -1       307 2.52336E+07 3.10786E+06 5.46761E+06-1.49009E+07-7.96805E-07 1.68075E-07
 -1       308-7.12470E+06-1.01835E+06-4.87478E+05 5.15336E+06-1.72760E-07 3.40078E-07
 -1       309-3.36160E+06 8.54036E+06 2.23061E+06-2.04605E+07 2.51937E-07 9.21973E-08
 -1       310-1.23058E+07-1.85915E+06-1.94071E+06 5.14845E+06 1.57044E-07-2.46757E-07
 -1       311 3.73097E+07 2.07230E+04 7.10699E+06-8.95004E+06 3.29688E-07-2.19181E-07
 -1       312-3.15033E+07-6.60140E+06-8.36933E+06-4.82767E+06 3.63216E-08 2.15310E-07
 -1       313 4.49835E+07 1.43804E+07 1.05024E+07 2.31356E+07-9.96806E-08-5.53846E-08
 -1       314-1.73040E+07-1.73710E+07-7.42902E+06-1.24163E+07 5.96687E-07-1.84402E-07
 -1       315-1.58217E+06 2.91510E+07 5.61486E+06 1.07159E+07-5.21482E-07 1.04483E-08
 -1       316 1.25829E+06-9.81211E+06-4.65840E+05-2.67718E+06-1.39297E-06-3.02738E-07
 -1       317-1.71655E+07 2.21749E+07 2.18874E+06-8.47339E+06 6.94636E-07-6.50020E-07
 -1       318-1.06658E+06-1.25108E+07-1.96279E+06-4.25986E+06-9.34786E-07 1.72528E-07
 -1       319 6.90717E+06 3.12169E+07 6.87696E+06 1.62647E+07-5.51445E-08 2.10013E-07
 -1       320-2.23099E+07-1.73096E+07-9.67443E+06-1.26245E+07 2.00351E-07-5.42495E-08
 -1       336-1.11587E+03-1.71813E+06-1.07689E+04 9.52432E+03-2.81889E-08 3.16068E-08
 -1       337-4.24332E+03-1.71743E+06-1.62994E+04-2.26634E+04-5.08546E-08 2.83253E-08
 -1       338 5.00829E+02-1.71715E+06-2.77602E+04 1.29165E+04-3.52475E-08 9.38235E-09
 -1       339-3.01252E+04-1.73524E+06-6.44255E+04-2.92766E+04-6.44213E-08 1.34805E-08
 -1       340 2.03231E+04-1.70242E+06-1.01797E+05 1.60157E+04-4.08909E-08 2.66009E-08
 -1       406-4.75287E+01 3.85583E+05 6.42972E+02 3.27601E+00-1.92188E-09-1.18962E-09
 -1       407 1.56477E+02 3.85717E+05 1.37386E+03 2.31136E+01-5.52511E-10-1.77806E-09
 -1       408 6.35651E+02 3.85483E+05 2.73948E+03-2.67219E+01-2.41425E-09-9.70249E-09
 -1       409 2.90290E+03 3.86592E+05 6.17434E+03 2.85018E+02-3.11388E-10 9.26593E-09
 -1       410 8.46446E+03 3.84695E+05 1.26017E+04-2.74805E+02-2.83580E-09 5.89171E-09
 -1       521-3.13496E+07-7.58216E+06-9.91933E+06-2.47824E+05-1.28523E-07-1.50176E-08
 -1       522 2.60257E+07 4.06416E+06 5.55758E+06-1.83313E+07-5.57717E-07-8.34989E-08
 -1       523-7.71970E+06-1.32283E+06-4.81161E+05 5.59164E+06 6.08852E-08-2.90849E-07
 -1       524-6.82546E+06 1.14950E+07 2.40628E+06-2.34714E+07 7.23827E-07-6.06444E-07
 -1       525-1.31150E+07-2.46426E+06-2.12840E+06 5.58498E+06 7.06001E-07-2.98722E-07
 -1       526 4.05920E+07-5.76125E+04 7.44545E+06-1.15704E+07 5.93136E-08 2.65281E-07
 -1       527-3.32841E+07-8.25338E+06-9.62303E+06-4.68634E+06-1.90223E-07 4.10873E-07
 -1       528 4.90256E+07 1.59410E+07 1.09317E+07 2.62291E+07 1.00583E-07 2.07248E-07
 -1       529-1.82387E+07-1.95048E+07-8.49746E+06-1.24489E+07 1.41095E-07 8.14907E-09
 -1       530-4.04014E+06 3.37872E+07 5.92722E+06 1.02539E+07-3.96612E-07 2.87022E-07
 -1       531 1.24087E+06-1.08829E+07-4.42441E+05-2.65866E+06-1.10127E-06 2.38826E-07
 -1       532-1.97511E+07 2.41894E+07 2.38567E+06-1.26212E+07 4.43193E-07-6.83976E-07
 -1       533-1.11645E+06-1.36373E+07-2.08127E+06-4.10561E+06-2.97499E-07-1.05414E-06
 -1       534 4.88042E+06 3.61348E+07 7.14110E+06 1.67944E+07-1.70257E-08 7.19912E-07
 -1       535-2.34517E+07-1.96198E+07-1.10622E+07-1.26836E+07 1.12923E-07 4.56173E-07
 -1       536-7.04432E+05-4.71328E+04-4.63062E+04-5.44137E+04-1.86128E-09 5.82013E-08
 -1       537-5.65277E+04 4.51900E+04 8.45208E+04 1.23333E+05-1.06033E-07 9.75906E-08
 -1       538-3.94422E+05 3.21713E+03 3.93124E+03-7.19513E+04 3.17253E-08 9.24722E-08
 -1       539-2.69775E+05 2.94408E+03 2.50010E+04 1.38220E+05 1.40502E-07 9.43568E-08
 -1       540-4.96533E+05-4.27804E+02-2.10646E+04-6.98300E+04 1.04355E-08 1.10526E-07
 -1       541 1.43250E+05 1.68753E+04 1.05758E+05 9.75054E+04-1.15670E-08 9.64160E-08
 -1       542-7.96318E+05-2.00143E+04-8.36845E+04-3.03704E+04 1.86374E-08 4.66924E-08
 -1       543 4.00412E+05 2.71607E+04 1.56995E+05-1.33006E+04 3.21734E-09-1.79120E-08
 -1       544-7.46798E+05-1.64331E+04-7.43658E+04 4.03131E+04-1.81658E-08-3.35675E-08
 -1       545 2.63541E+04 9.41375E+03 7.92963E+04-1.13157E+05 2.54421E-08-8.03120E-08
 -1       546-4.32305E+05 6.06784E+03-1.21604E+04 6.91428E+04 3.37029E-08-8.50713E-08
 -1       547-2.87774E+05-4.66168E+03 1.04705E+04-1.41066E+05-1.22473E-07-8.92933E-08
 -1       548-4.41114E+05 4.71249E+03-2.37976E+04 6.89069E+04-1.02903E-07-7.85617E-08
 -1       549 4.54399E+04 1.58411E+04 5.99671E+04-1.11012E+05-6.21372E-08-6.90961E-08
 -1       550-7.56602E+05-2.18953E+04-1.28426E+05 3.83794E+04 7.37145E-09-4.18077E-08
 -1       551 4.08191E+04-7.58441E+05-1.48540E+04-1.24581E+06-1.02023E-07-8.67294E-09
 -1       552 9.29700E+04-8.02998E+05 1.05462E+04-1.77648E+06-7.16827E-08 3.76313E-08
 -1       553 7.14342E+04-7.99445E+05 3.25095E+04-1.23921E+06-1.20432E-07 3.13157E-08
 -1       554 1.31564E+05-8.18477E+05 8.16846E+04-1.77842E+06-7.34144E-08 1.92977E-08
 -1       555 1.01156E+05-8.22955E+05 1.49016E+05-1.23906E+06-1.20803E-07-8.08177E-09
 -1       556 2.22477E+05-3.81732E+05 2.74851E+04-4.06079E+05-2.51457E-08-1.39116E-08
 -1       557 3.52847E+05-4.85809E+05 1.70243E+04-5.25836E+05-5.87897E-09 1.25892E-08
 -1       558 2.04501E+05-3.74916E+05 2.73132E+03-4.10234E+05-1.75787E-08 8.27276E-09
 -1       559 3.27810E+05-4.86140E+05 2.63062E+03-5.46136E+05 2.84053E-08-1.81753E-08
 -1       560 1.89327E+05-3.65399E+05-1.39539E+03-4.21163E+05 1.87720E-08 3.45608E-08
 -1       561 3.08718E+05-4.78514E+05 1.76267E+02-5.59145E+05-5.82077E-10 1.25328E-09
 -1       562 1.77325E+05-3.57939E+05-1.29272E+03-4.29854E+05-2.06637E-09-1.24273E-08
 -1       563 2.94460E+05-4.72299E+05-2.54224E+01-5.68456E+05 5.75528E-09-1.38971E-08
 -1       564 1.68761E+05-3.52603E+05-5.89864E+02-4.35923E+05 2.59024E-09-2.08684E-08
 -1       565 2.85007E+05-4.68182E+05 2.64013E+01-5.74496E+05 9.63337E-09 1.73522E-08
 -1       566 1.63758E+05-3.49437E+05-2.56611E+02-4.39423E+05-8.97853E-09 3.43061E-09
 -1       567 2.80418E+05-4.66186E+05-3.59919E+02-5.77282E+05 1.56233E-08 1.45155E-08
 -1       568 1.62405E+05-3.48609E+05-1.11874E+03-4.40464E+05-5.03678E-09 8.85120E-09
 -1       569 2.79309E+05-4.66113E+05-2.82580E+03-5.75852E+05-3.12230E-09-5.42059E-10
 -1       570 1.65792E+05-3.51829E+05-6.17784E+03-4.39452E+05 6.25732E-10-4.76302E-09
 -1       571 2.89869E+05 1.04842E+04 1.49626E+04-9.48682E+04 1.11759E-08-9.17362E-09
 -1       572 2.92038E+05 3.94879E+03 7.33287E+03-1.04080E+05 2.26755E-08 7.78118E-09
 -1       573 2.90730E+05 1.23956E+03 3.25823E+03-9.46919E+04 2.12094E-09 9.64155E-09
 -1       574 2.90944E+05 7.21564E+02 1.63397E+03-1.04304E+05-2.17567E-08 9.22682E-09
 -1       575 2.90824E+05 4.43310E+02 7.71181E+02-9.46678E+04-1.02282E-08-1.24601E-10
 -1       576 2.90809E+05 4.54269E+02 3.94829E+02-1.04333E+05-7.38237E-09 1.12932E-08
 -1       577 2.90864E+05 3.85450E+02 1.97092E+02-9.46645E+04-5.31600E-09 8.72569E-09
 -1       578 2.90839E+05 4.16479E+02 1.13827E+02-1.04338E+05-6.28506E-09-4.60477E-09
 -1       579 2.90935E+05 3.49093E+02 7.81565E+01-9.46642E+04 8.74934E-09 2.43563E-09
 -1       580 2.90940E+05 3.65871E+02 9.06488E+01-1.04333E+05-8.26549E-09 7.76436E-09
 -1       581 2.91048E+05 2.90995E+02 1.36909E+02-9.46701E+04 3.16868E-09-1.10867E-09
 -1       582 2.91114E+05 3.28939E+02 2.78302E+02-1.04271E+05-4.67480E-10 7.36600E-09
 -1       583 2.91187E+05 3.33604E+02 5.34200E+02-9.47264E+04-1.59343E-09-1.92949E-09
 -1       584 2.91487E+05 7.69732E+02 1.20878E+03-1.03797E+05 6.58838E-09-7.84576E-09
 -1       585 2.91213E+05 1.78744E+03 2.44780E+03-9.51440E+04-6.34827E-10 5.30417E-09
 -1       586-3.41206E+03 1.16523E+05-2.91624E+03-2.50179E+05-6.11271E-09-1.82215E-08
 -1       587-1.32780E+03 1.16273E+05 7.66744E+02-2.75341E+05-6.39193E-09-4.08704E-08
 -1       588 4.06095E+02 1.16082E+05 4.74762E+03-2.50041E+05-3.19596E-09-1.48011E-08
 -1       589 5.08344E+03 1.18549E+05 1.23162E+04-2.75108E+05-8.94397E-09-8.38190E-09
 -1       590 1.65815E+04 1.14751E+05 2.58368E+04-2.50472E+05-6.65932E-09-4.09273E-10
 -1       591-7.47943E+04-1.59554E+04-2.24753E+04-3.19076E+04 1.64960E-09-4.05907E-09
 -1       592-7.88638E+04-1.95146E+04-1.21744E+04-3.55357E+04 3.78165E-10-1.97201E-08
 -1       593-7.70422E+04-1.43244E+04-5.06761E+03-3.35555E+04 2.63164E-09-8.54698E-09
 -1       594-7.57604E+04-1.62167E+04-2.52735E+03-3.56533E+04-4.30953E-09 1.15201E-08
 -1       595-7.72136E+04-1.43191E+04-1.16031E+03-3.36304E+04-4.91545E-09 1.49244E-08
 -1       596-7.55480E+04-1.60659E+04-5.89645E+02-3.56281E+04 9.84897E-10 2.08366E-08
 -1       597-7.72351E+04-1.43344E+04-3.20648E+02-3.36332E+04 3.27191E-10 1.31342E-09
 -1       598-7.55270E+04-1.60600E+04-2.56975E+02-3.56210E+04-4.62285E-09-6.04379E-09
 -1       599-7.72338E+04-1.43349E+04-3.27271E+02-3.36329E+04 4.10273E-09-2.37576E-08
 -1       600-7.55480E+04-1.60665E+04-6.07178E+02-3.56260E+04 3.46074E-09-1.38880E-08
 -1       601-7.72092E+04-1.43204E+04-1.19742E+03-3.36294E+04 2.42539E-09-4.60659E-10
 -1       602-7.57672E+04-1.62210E+04-2.60944E+03-3.56481E+04-3.30215E-09-9.02662E-09
 -1       603-7.70295E+04-1.43289E+04-5.23290E+03-3.35529E+04 1.48543E-09 5.88534E-09
 -1       604-7.89893E+04-1.96068E+04-1.25706E+04-3.55019E+04-1.54557E-10-9.14315E-09
 -1       605-7.46885E+04-1.60307E+04-2.32069E+04-3.18707E+04 8.19676E-09 6.34100E-09
 -1       606 2.67179E+04-1.42963E+04-2.56289E+04 2.40254E+04 3.15777E-09-9.47603E-09
 -1       607 2.23387E+04-4.66887E+03-1.27631E+04 2.69991E+04-2.06273E-09-2.86166E-08
 -1       608 2.48344E+04-8.41999E+02-5.71362E+03 2.38562E+04-4.06544E-09 2.95586E-10
 -1       609 2.43559E+04-2.88118E+02-2.88636E+03 2.72135E+04 1.62254E-09-4.17003E-09
 -1       610 2.46212E+04-4.04802E+01-1.37713E+03 2.38361E+04-1.66019E-08 3.81465E-09
 -1       611 2.45459E+04-4.06259E+01-6.94337E+02 2.72366E+04-3.43316E-08 2.11858E-08
 -1       612 2.45741E+04-2.67373E+01-3.30083E+02 2.38340E+04-1.77679E-08-8.31733E-10
 -1       613 2.45574E+04-3.64840E+01-1.47898E+02 2.72393E+04 6.43149E-09-2.71907E-08
 -1       614 2.45519E+04-3.30890E+01-3.46385E+01 2.38333E+04 5.17775E-09 1.23598E-08
 -1       615 2.45521E+04-3.49511E+01 6.20970E+01 2.72398E+04-1.78625E-09 1.44380E-08
 -1       616 2.45345E+04-2.99336E+01 1.86107E+02 2.38336E+04 3.85398E-09 4.20255E-09
 -1       617 2.45744E+04 4.74452E+00 4.24574E+02 2.72393E+04 4.54747E-12 5.07612E-09
 -1       618 2.44975E+04 9.24905E+01 8.55782E+02 2.38339E+04-4.14093E-09 2.19361E-08
 -1       619 2.48764E+04 6.66458E+02 1.92171E+03 2.72387E+04-7.98877E-09 8.67567E-09
 -1       620 2.42133E+04 2.12179E+03 3.86259E+03 2.38354E+04 3.91651E-10-8.74388E-09
 -1       621 5.08929E+02 3.00869E+05 3.87874E+03 4.07655E+04 1.05501E-09 9.83709E-09
 -1       622 6.73480E+02 3.01766E+05 3.44140E+03 5.91835E+04 1.19417E-09 1.05374E-08
 -1       623 1.40783E+02 3.01064E+05 4.13442E+03 4.05810E+04 1.39494E-09 1.61199E-08
 -1       624 2.11934E+03 3.02982E+05 8.01411E+03 5.93651E+04 1.23015E-09-1.51290E-08
 -1       625 2.07142E+03 2.99475E+05 1.40039E+04 4.05779E+04 1.25192E-09-1.19674E-08
 -1       626 2.60319E+05 6.13401E+04 5.11051E+03 1.26546E+05 3.16913E-09 1.86083E-09
 -1       627 2.57999E+05 6.27406E+04 2.46271E+03 1.30818E+05 7.43285E-09-1.75176E-08
 -1       628 2.60446E+05 5.90014E+04 1.04154E+03 1.27415E+05-3.06773E-09 1.17720E-08
 -1       629 2.57364E+05 6.20624E+04 5.09786E+02 1.31058E+05-6.24641E-09 5.77857E-09
 -1       630 2.60461E+05 5.88884E+04 2.36574E+02 1.27451E+05 1.19385E-08 3.53486E-09
 -1       631 2.57297E+05 6.20366E+04 1.27439E+02 1.31060E+05 2.12522E-08 1.63518E-08
 -1       632 2.60457E+05 5.88924E+04 8.40914E+01 1.27447E+05 7.62338E-09-2.67157E-08
 -1       633 2.57289E+05 6.20384E+04 9.40326E+01 1.31056E+05 6.96218E-09 1.67834E-08
 -1       634 2.60453E+05 5.88896E+04 1.52274E+02 1.27446E+05-4.36921E-09 1.01209E-08
 -1       635 2.57303E+05 6.20367E+04 3.08319E+02 1.31062E+05-7.00038E-09-1.60662E-09
 -1       636 2.60443E+05 5.88838E+04 6.22750E+02 1.27446E+05 1.91676E-09 3.72029E-09
 -1       637 2.57438E+05 6.21336E+04 1.36933E+03 1.31061E+05 4.08363E-09-2.88446E-09
 -1       638 2.60395E+05 5.91863E+04 2.81348E+03 1.27309E+05 2.83308E-09-1.91981E-08
 -1       639 2.58916E+05 6.41891E+04 6.65683E+03 1.30626E+05 4.99358E-09 1.43309E-08
 -1       640 2.60191E+05 6.53241E+04 1.38141E+04 1.24723E+05 6.67887E-09 8.70705E-09
 -1       656 6.64626E+04-1.70083E+06-1.60436E+05-2.52925E+03-4.43833E-10-1.23970E-08
 -1       657-8.79236E+04-1.77333E+06-1.32911E+05 5.19898E+03-7.93989E-10-4.97352E-09
 -1       658 2.11855E+04-1.72142E+06-8.18551E+04-4.60788E+03 2.63526E-10-9.80711E-09
 -1       659-9.50724E+04-1.77672E+06-1.42306E+05 6.92354E+03-1.98634E-09-1.66583E-08
 -1       660 7.35954E+04-1.69744E+06-1.76588E+05-4.25380E+03-2.45200E-09-6.27512E-09
 -1       661 1.58762E+05 1.66192E+04 1.67238E+04 6.20637E+04-3.36058E-10-1.47056E-08
 -1       662 1.68212E+05 2.90092E+04 1.12707E+04 5.83174E+04-1.04876E-09-1.04181E-08
 -1       663 1.62047E+05 2.19845E+04 3.94178E+03 6.11104E+04 3.01259E-09 2.09138E-09
 -1       664 1.64403E+05 2.27349E+04 2.35800E+03 5.94819E+04-2.32222E-09 6.46810E-09
 -1       665 1.62545E+05 2.27173E+04 9.30213E+02 6.09650E+04 1.32428E-09-6.02870E-09
 -1       666 1.63813E+05 2.18969E+04 5.44490E+02 5.96716E+04 6.68865E-09-1.35047E-08
 -1       667 1.62632E+05 2.28007E+04 2.89382E+02 6.09285E+04 1.61293E-09-3.42755E-09
 -1       668 1.63717E+05 2.18370E+04 2.95265E+02 5.97246E+04-8.79265E-09-1.42173E-08
 -1       669 1.62640E+05 2.27755E+04 4.00077E+02 6.09123E+04-2.17142E-10-6.38437E-10
 -1       670 1.63814E+05 2.20543E+04 8.71484E+02 5.97275E+04-3.18887E-09 1.10136E-09
 -1       671 1.62535E+05 2.25879E+04 1.54749E+03 6.09236E+04 1.92699E-09 6.42331E-10
 -1       672 1.64716E+05 2.35598E+04 3.95930E+03 5.95090E+04 6.78028E-09-4.80259E-09
 -1       673 1.61743E+05 2.13081E+04 6.63518E+03 6.11162E+04 1.97360E-09-5.41604E-10
 -1       674 1.71031E+05 3.42200E+04 1.89752E+04 5.76537E+04-4.78576E-09 2.83126E-09
 -1       675 1.56261E+05 1.22263E+04 2.81659E+04 6.26668E+04-4.84488E-09-7.87259E-09
 -1       676 2.40864E+01-2.95553E+05-1.11248E+03-1.35329E+02 7.47292E-10 1.83366E-08
 -1       677-2.94311E+02-2.95822E+05-2.03603E+03 2.70439E+02 1.09704E-08 7.88105E-09
 -1       678 1.97373E+02-2.95362E+05-3.59920E+03-1.35022E+02 2.63208E-09 9.24287E-09
 -1       679-3.59929E+03-2.97995E+05-8.55021E+03 2.69273E+02 1.11854E-08-1.18428E-08
 -1       680 2.14896E+03-2.93382E+05-1.37800E+04-1.32670E+02 2.52294E-09-4.75707E-09
 -1       771-3.06005E+06-7.44667E+05-1.63614E+05-1.46337E+06-3.42407E-08-3.04135E-08
 -1       772-2.98328E+06-8.32951E+05-8.43490E+04-1.56543E+06-2.24973E-08 9.92077E-09
 -1       773-3.09118E+06-7.20380E+05-4.30070E+04-1.47766E+06-1.10886E-08 1.16415E-08
 -1       774-2.97386E+06-8.14735E+05-1.91854E+04-1.59093E+06 3.73111E-08 1.01863E-09
 -1       775-3.10744E+06-7.08964E+05-1.43557E+04-1.48460E+06-1.45519E-09 2.74304E-09
 -1       776-2.98603E+06-8.11763E+05-5.36744E+03-1.61021E+06-5.52973E-09 2.93221E-09
 -1       777-3.12155E+06-6.98780E+05-6.34419E+03-1.49073E+06 2.91038E-10 7.85803E-09
 -1       778-2.99874E+06-8.08997E+05-1.79311E+03-1.62678E+06-2.11003E-09 9.96806E-09
 -1       779-3.13367E+06-6.89883E+05-3.17066E+03-1.49596E+06-1.22527E-08-9.30231E-09
 -1       780-3.00993E+06-8.06356E+05-5.25471E+02-1.64027E+06-1.47702E-09-6.58474E-10
 -1       781-3.14331E+06-6.82711E+05-1.23156E+03-1.50006E+06-3.01952E-08-3.14321E-09
 -1       782-3.01856E+06-8.04113E+05 4.44532E+02-1.65023E+06-4.29354E-08-6.14091E-09
 -1       783-3.15010E+06-6.77729E+05 6.92065E+02-1.50293E+06-5.96629E-09-1.50853E-08
 -1       784-3.02333E+06-8.01866E+05 2.86715E+03-1.65637E+06-1.90157E-08 2.30148E-09
 -1       785-3.15411E+06-6.74758E+05 5.06149E+03-1.50475E+06-3.60997E-08 1.03828E-08
 -1       786 1.24338E+05-9.78465E+03 2.26377E+04-3.20949E+02 2.80215E-09-1.21863E-08
 -1       787 1.34156E+05 1.13284E+04 1.60153E+04-1.35042E+02 6.11251E-09 3.56340E-09
 -1       788 1.28123E+05-1.53329E+03 5.85690E+03-2.85929E+02 4.24293E-09 1.08409E-08
 -1       789 1.29746E+05 1.77473E+03 3.67678E+03-1.88713E+02-2.12367E-09 2.35216E-08
 -1       790 1.28748E+05-2.38739E+02 1.48876E+03-2.67295E+02-3.93648E-09 6.89766E-09
 -1       791 1.29015E+05 2.76236E+02 8.60039E+02-2.20604E+02-7.97647E-09 1.27943E-09
 -1       792 1.28854E+05-3.59107E+01 3.64790E+02-2.54041E+02-6.02459E-09-7.84668E-09
 -1       793 1.28888E+05 3.80999E+01 1.82600E+02-2.45550E+02-1.34066E-09-1.34255E-08
 -1       794 1.28875E+05-7.53635E-01 4.89503E+01-2.42348E+02 4.59493E-09-1.55916E-08
 -1       795 1.28852E+05-2.62496E+01-5.39270E+01-2.69973E+02-4.15350E-09-2.21833E-08
 -1       796 1.28891E+05 2.84028E+01-1.56221E+02-2.29618E+02 3.83475E-09 1.28668E-09
 -1       797 1.28760E+05-2.12170E+02-4.30725E+02-2.99242E+02 2.72367E-09 1.34034E-08
 -1       798 1.28966E+05 1.85027E+02-7.00016E+02-2.13080E+02 1.97230E-09-3.13401E-09
 -1       799 1.28229E+05-1.36378E+03-1.92628E+03-3.40202E+02 5.13764E-09 1.27375E-09
 -1       800 1.29422E+05 1.17907E+03-2.72621E+03-1.88659E+02 2.92175E-10 2.09748E-08
 -1       801-1.66561E+05-9.91275E+06-1.37916E+06 1.39441E+06 9.01055E-08-5.09826E-08
 -1       802 7.24855E+05 5.81481E+06 2.14770E+06-1.71892E+06 2.56892E-07-2.83280E-08
 -1       803-5.28810E+05-1.41116E+07-1.86390E+06 8.85341E+05 7.64121E-08 2.09475E-08
 -1       804 2.81957E+05 2.30277E+06 1.51317E+06 6.70202E+05-1.19842E-07-8.96043E-08
 -1       805 1.87640E+05-6.41496E+06-2.82226E+05-9.89113E+05-4.94329E-08-6.94317E-08
 -1       806-3.08234E+05-5.96549E+04-2.28035E+04-1.22178E+05-3.17414E-09-1.98088E-09
 -1       807-3.10024E+05-5.59367E+04-1.12031E+04-1.27716E+05 1.05974E-08-2.53017E-09
 -1       808-3.08860E+05-5.14366E+04-4.75273E+03-1.26063E+05-7.65795E-10 6.95877E-10
 -1       809-3.07669E+05-5.27890E+04-2.32396E+03-1.27991E+05-5.44333E-09-8.54880E-09
 -1       810-3.08955E+05-5.11505E+04-1.06520E+03-1.26235E+05 3.63434E-09-2.59222E-08
 -1       811-3.07486E+05-5.26625E+04-5.29743E+02-1.27956E+05 6.74481E-09-1.50981E-08
 -1       812-3.08969E+05-5.11751E+04-2.67992E+02-1.26234E+05 7.91260E-11 1.82304E-08
 -1       813-3.07461E+05-5.26647E+04-1.74298E+02-1.27937E+05-8.25094E-09 5.27507E-10
 -1       814-3.08962E+05-5.11848E+04-1.72935E+02-1.26230E+05-3.30874E-09 1.92767E-09
 -1       815-3.07465E+05-5.26670E+04-2.78819E+02-1.27930E+05-2.92493E-09-5.50062E-09
 -1       816-3.08941E+05-5.11840E+04-5.28573E+02-1.26226E+05 3.50519E-09 1.51140E-08
 -1       817-3.07554E+05-5.27174E+04-1.13444E+03-1.27918E+05-1.73168E-08 1.12941E-08
 -1       818-3.08872E+05-5.13441E+04-2.31388E+03-1.26151E+05-4.20914E-09-6.73481E-09
 -1       819-3.08821E+05-5.41152E+04-5.44439E+03-1.27618E+05-7.27232E-09-1.47943E-08
 -1       820-3.08435E+05-5.54570E+04-1.10813E+04-1.24394E+05 5.42968E-10 1.59839E-08
 -1       821-3.78550E+05 2.08465E+04-4.85146E+04 2.09590E+03 1.37047E-08 2.19370E-09
 -1       822-3.98282E+05-2.41488E+04-3.41044E+04-4.38535E+03 5.78249E-09-7.24140E-09
 -1       823-3.86029E+05 3.28552E+03-1.25320E+04 3.37568E+03-1.31684E-08 5.97765E-09
 -1       824-3.89263E+05-3.78917E+03-7.84569E+03-5.26895E+03 6.07500E-10 1.29705E-09
 -1       825-3.87576E+05 5.10580E+02-3.28376E+03 2.97962E+03 1.95314E-08-3.49382E-09
 -1       826-3.86862E+05-5.67842E+02-1.74888E+03-3.03010E+03 2.56047E-08-3.24258E-09
 -1       827-3.88406E+05 4.82770E+01-1.18263E+03 1.13670E+03 1.04170E-08 1.25103E-08
 -1       828-3.86178E+05-1.33787E+02-5.96408E+02 1.08619E+03-1.96142E-09 2.51139E-08
 -1       829-3.88248E+05 6.69063E+01-1.17225E+03-1.13671E+03 1.24717E-09 6.58585E-09
 -1       830-3.87205E+05-6.21595E+02-1.88531E+03 4.80023E+03 1.11604E-09-6.19627E-09
 -1       831-3.87401E+05 5.53103E+02-3.36607E+03-2.57736E+03-4.55132E-09-4.00701E-09
 -1       832-3.89344E+05-3.95477E+03-8.14767E+03 6.05212E+03-3.02768E-09 2.85776E-08
 -1       833-3.86125E+05 3.40917E+03-1.30340E+04-2.38864E+03-3.27954E-09 2.43808E-08
 -1       834-3.98350E+05-2.50600E+04-3.53258E+04 4.11395E+03-2.93613E-09-3.48291E-09
 -1       835-3.78378E+05 2.16261E+04-5.03796E+04-6.39123E+02 4.91659E-09-5.88625E-09
 -1       836-1.41081E+03 3.69509E+05 2.28620E+04-1.62091E+04-6.96491E-09 3.85717E-09
 -1       837 4.87424E+03 3.76669E+05 1.93429E+04-3.31150E+04-7.72445E-09 9.68271E-09
 -1       838-5.56575E+02 3.71517E+05 1.97043E+04-1.61375E+04-6.23822E-09-6.73776E-09
 -1       839 1.23998E+04 3.82273E+05 3.72709E+04-3.31673E+04-6.61385E-09 4.60932E-09
 -1       840-3.83319E+03 3.63844E+05 5.94318E+04-1.61625E+04-5.99539E-09-4.73617E-09
 -1       856-5.25127E+04 8.02453E+03-2.11464E+04-3.97758E+02 6.12977E-09 1.88184E-08
 -1       857-6.12247E+04-9.42837E+03-1.45570E+04 5.62708E+03 2.69566E-09 8.99263E-09
 -1       858-5.59627E+04 1.12535E+03-5.48698E+03-4.21867E+02 4.04413E-09-7.28937E-09
 -1       859-5.72653E+04-1.32375E+03-3.31116E+03 5.66298E+03-2.04835E-09-1.16834E-08
 -1       860-5.64782E+04 1.57591E+02-1.38773E+03-4.33385E+02 6.90306E-10 1.13315E-08
 -1       861-5.66724E+04-1.87963E+02-7.63467E+02 5.67866E+03 2.30742E-09 1.40194E-08
 -1       862-5.65588E+04 2.13417E+01-3.17461E+02-4.37535E+02-4.30461E-09 3.34106E-09
 -1       863-5.65736E+04-2.17093E+01-1.15864E+02 5.68107E+03-5.73174E-09 2.40328E-08
 -1       864-5.65775E+04-4.88069E+00 4.67000E+01-4.35790E+02-4.76126E-09 1.60713E-08
 -1       865-5.65180E+04 5.95396E+01 2.54127E+02 5.67112E+03 1.95347E-09-9.46324E-09
 -1       866-5.66122E+04-5.99289E+01 5.12396E+02-4.27583E+02-2.29619E-09 2.87628E-11
 -1       867-5.62769E+04 4.94923E+02 1.26138E+03 5.64884E+03-3.17954E-10 6.54120E-09
 -1       868-5.68137E+04-4.32415E+02 2.09608E+03-4.13507E+02-4.11802E-09 5.71072E-09
 -1       869-5.47402E+04 3.59880E+03 5.58122E+03 5.61216E+03 4.61694E-09-6.72253E-09
 -1       870-5.81412E+04-3.07952E+03 8.09959E+03-3.90804E+02-5.19651E-09 3.30556E-09
 -1       871-5.51191E+03-2.12388E+04-1.94499E+04 1.30134E+05-4.84943E-09 7.21320E-09
 -1       872-1.98448E+03-2.57599E+04-8.14290E+03 1.68738E+05-1.07002E-08-5.32236E-09
 -1       873 3.99514E+02-2.35739E+04 5.91670E+02 1.29848E+05-5.00131E-09-2.12289E-08
 -1       874 3.29455E+03-2.11651E+04 9.76618E+03 1.68768E+05-1.11149E-08-6.01017E-09
 -1       875 6.83137E+03-2.59005E+04 2.20293E+04 1.30086E+05-4.12547E-09-1.32222E-08
 -1       876 2.93282E+05 4.94369E+04 1.50784E+04 1.17703E+05 3.84432E-09-1.41699E-08
 -1       877 2.94278E+05 5.26134E+04 8.05248E+03 1.22029E+05 1.16504E-08 5.15615E-09
 -1       878 2.94692E+05 4.77666E+04 3.37359E+03 1.18938E+05-4.72255E-09 1.43900E-08
 -1       879 2.92228E+05 5.05679E+04 1.68093E+03 1.22131E+05-2.08161E-09-1.44611E-08
 -1       880 2.94793E+05 4.77494E+04 7.82956E+02 1.18989E+05-4.94765E-10-1.13488E-09
 -1       881 2.92092E+05 5.04804E+04 4.18127E+02 1.22107E+05-2.85661E-09 2.40927E-08
 -1       882 2.94802E+05 4.77626E+04 2.67520E+02 1.18990E+05 3.23325E-09 1.14412E-08
 -1       883 2.92082E+05 5.04758E+04 2.87639E+02 1.22100E+05-4.56703E-09-1.24897E-08
 -1       884 2.94795E+05 4.77598E+04 4.57606E+02 1.18990E+05-2.08206E-09-2.05596E-08
 -1       885 2.92119E+05 5.04822E+04 9.20065E+02 1.22111E+05-3.88908E-09-1.30963E-08
 -1       886 2.94760E+05 4.77330E+04 1.85436E+03 1.18987E+05-1.57141E-09-8.73479E-09
 -1       887 2.92445E+05 5.06959E+04 4.05060E+03 1.22158E+05 5.94858E-09 2.56478E-09
 -1       888 2.94504E+05 4.77781E+04 8.16207E+03 1.18857E+05-2.25850E-09-1.61253E-09
 -1       889 2.97304E+05 5.57491E+04 1.94977E+04 1.22009E+05-7.86322E-10-8.40191E-09
 -1       890 2.91172E+05 5.17353E+04 3.65187E+04 1.15751E+05 6.82121E-11 3.61433E-09
 -1       891-9.00710E+01-1.62528E+05-1.99323E+03 2.71352E+04-1.58934E-10 2.41857E-09
 -1       892-1.76396E+02-1.63054E+05-2.14079E+03 4.12048E+04 4.94811E-09 5.70526E-09
 -1       893 4.27657E+01-1.62592E+05-3.03114E+03 2.71425E+04 9.33142E-10 2.61480E-10
 -1       894-1.50902E+03-1.64199E+05-6.27334E+03 4.10524E+04-1.14892E-09 3.44744E-09
 -1       895-1.19826E+03-1.61285E+05-1.10473E+04 2.72894E+04 4.36557E-10 6.13818E-09
 -1       956-3.76546E+05-5.43925E+03-1.34305E+04 3.07632E+04 6.85486E-09 2.07046E-09
 -1       957-3.79182E+05-1.91765E+03-6.89366E+03 3.69702E+04 2.60115E-10-2.09766E-08
 -1       958-3.77753E+05-2.39176E+02-3.10650E+03 3.05958E+04-6.95218E-09-1.40130E-08
 -1       959-3.77949E+05-1.34444E+02-1.58623E+03 3.71653E+04 9.69476E-09 2.30784E-09
 -1       960-3.77871E+05-4.34415E+01-7.73521E+02 3.05786E+04 7.75435E-09 3.19756E-09
 -1       961-3.77869E+05-6.15728E+01-4.10113E+02 3.71856E+04 7.38305E-09-1.30738E-08
 -1       962-3.77898E+05-4.46917E+01-2.34797E+02 3.05757E+04 3.30328E-09-1.57715E-08
 -1       963-3.77869E+05-5.74018E+01-1.88481E+02 3.71893E+04 7.76890E-09 2.58101E-08
 -1       964-3.77904E+05-4.13433E+01-2.29202E+02 3.05749E+04-3.83039E-09 1.31174E-08
 -1       965-3.77882E+05-5.44332E+01-3.96421E+02 3.71886E+04-7.99520E-09-1.38666E-08
 -1       966-3.77888E+05-3.34907E+01-7.44858E+02 3.05764E+04 7.19501E-09-6.75595E-09
 -1       967-3.77971E+05-1.17825E+02-1.52769E+03 3.71743E+04-4.31100E-10-1.32868E-08
 -1       968-3.77784E+05-2.15611E+02-2.99066E+03 3.05890E+04 1.96314E-09 9.74177E-09
 -1       969-3.79170E+05-1.82962E+03-6.63919E+03 3.70264E+04 4.43788E-09 1.49114E-08
 -1       970-3.76630E+05-5.21976E+03-1.29335E+04 3.07159E+04-9.53150E-10 1.86719E-08
 -1       971-3.44853E+05-1.72530E+03-9.30138E+03 1.53622E+04 1.28275E-08 5.80691E-09
 -1       972-3.47092E+05-1.26980E+03-5.06543E+03 2.12484E+04 1.25506E-08 7.96308E-09
 -1       973-3.45889E+05-6.13970E+01-2.26885E+03 1.52411E+04 6.98583E-09 1.57677E-08
 -1       974-3.46024E+05-8.01952E+01-1.17609E+03 2.13854E+04-2.95222E-09 1.81797E-08
 -1       975-3.45971E+05-1.65667E+01-5.88339E+02 1.52287E+04 6.96946E-09 7.28051E-09
 -1       976-3.45963E+05-3.03994E+01-3.40248E+02 2.14011E+04 1.12905E-08 5.72675E-09
 -1       977-3.45987E+05-1.58248E+01-2.48412E+02 1.52254E+04 2.56978E-09 9.04379E-10
 -1       978-3.45968E+05-2.41827E+01-2.92693E+02 2.14060E+04 8.43443E-10-4.57555E-09
 -1       979-3.45987E+05-7.36054E+00-4.71983E+02 1.52239E+04-9.88166E-10-1.59407E-08
 -1       980-3.46003E+05-2.11260E+01-9.12417E+02 2.14070E+04-6.24834E-09-1.56722E-08
 -1       981-3.45958E+05 1.54451E+01-1.76771E+03 1.52244E+04 9.75547E-10-8.29925E-09
 -1       982-3.46246E+05-1.51740E+02-3.65413E+03 2.14003E+04 3.54146E-09 7.00987E-09
 -1       983-3.45735E+05-9.77463E+01-7.10015E+03 1.52305E+04-2.95222E-09 1.72818E-08
 -1       984-3.49661E+05-3.85994E+03-1.59006E+04 2.13148E+04 5.78029E-09-6.95877E-10
 -1       985-3.42521E+05-5.29320E+03-2.91984E+04 1.53020E+04 2.89629E-09 1.19235E-08
 -3
    1PSTEP                        39          20           1          
  100CL  120 6.62727E-01         409                     0   20           1
 -4  DISP        4    1
 -5  D1          1    2    1    0
 -5  D2          1    2    2    0
 -5  D3          1    2    3    0
 -5  ALL         1    2    0    0    1ALL
 -1         1 2.68030E-03 0.00000E+00 0.00000E+00
 -1         2 1.40382E-03 7.64588E-27 5.29396E-23
 -1         3 3.46956E-04-1.07458E-27 0.00000E+00
 -1         5 1.76972E-04-5.92110E-27-1.65436E-24
 -1         8 2.66862E-03-4.21519E-07 0.00000E+00
 -1         9 2.66172E-03-1.66960E-04 0.00000E+00
 -1        10 3.12714E-04-3.58784E-06 0.00000E+00
 -1        12 1.78807E-04 8.08847E-07 8.27181E-25
 -1        15 2.65512E-03-4.47942E-07 0.00000E+00
 -1        16 2.71896E-03-1.68651E-04 0.00000E+00
 -1        17 2.11253E-04-8.01668E-06 0.00000E+00
 -1        18 1.82722E-04 3.42628E-05 0.00000E+00
 -1        19 1.84314E-04 1.61130E-06 0.00000E+00
 -1        20 1.84453E-04-9.74240E-06 0.00000E+00
 -1        21 1.83562E-04-2.51246E-05 0.00000E+00
 -1        24 3.06879E-05-1.22440E-05 0.00000E+00
 -1        25 1.93445E-04 3.44885E-05 0.00000E+00
 -1        26 1.94128E-04 2.23131E-06 0.00000E+00
 -1        27 1.91929E-04-1.32988E-05 0.00000E+00
 -1        28 1.91613E-04-2.57464E-05 0.00000E+00
 -1        32 0.00000E+00 0.00000E+00 0.00000E+00
 -1        33 2.02937E-04 2.98489E-06 0.00000E+00
 -1        34 2.00820E-04-1.33548E-05 0.00000E+00
 -1        35 1.98889E-04-2.60887E-05 0.00000E+00
 -1        51 2.67952E-03-8.71308E-08-3.30872E-24
 -1        52 2.67810E-03-1.56207E-07 0.00000E+00
 -1        53 2.67615E-03-2.21956E-07 0.00000E+00
 -1        54 2.67383E-03-2.86611E-07 1.65436E-24
 -1        55 2.67128E-03-3.51919E-07-8.27181E-25
 -1        56 2.67373E-03 5.78311E-06-5.29396E-23
 -1        57 2.66188E-03 2.46904E-05 0.00000E+00
 -1        58 2.64647E-03 5.24783E-05 1.05879E-22
 -1        59 2.62949E-03 8.40353E-05 0.00000E+00
 -1        60 2.61332E-03 1.13611E-04-1.05879E-22
 -1        61 2.60021E-03 1.35617E-04 0.00000E+00
 -1        62 2.59175E-03 1.45814E-04 0.00000E+00
 -1        63 2.58897E-03 1.41009E-04 0.00000E+00
 -1        64 2.59182E-03 1.20741E-04-1.05879E-22
 -1        65 2.59969E-03 8.59793E-05 5.29396E-23
 -1        66 2.61118E-03 4.03954E-05-1.05879E-22
 -1        67 2.62466E-03-1.13058E-05-5.29396E-23
 -1        68 2.63823E-03-6.32607E-05-1.05879E-22
 -1        69 2.65000E-03-1.09574E-04 0.00000E+00
 -1        70 2.65826E-03-1.45428E-04 5.29396E-23
 -1        86 1.48285E-03-5.40169E-06 0.00000E+00
 -1        87 1.71217E-03-3.34075E-05 0.00000E+00
 -1        88 2.02042E-03-8.13438E-05-2.64698E-23
 -1        89 2.33249E-03-1.30485E-04-1.32349E-23
 -1        90 2.57106E-03-1.60548E-04 5.29396E-23
 -1       121 3.45993E-04-5.77769E-07 0.00000E+00
 -1       122 3.43109E-04-1.15908E-06 0.00000E+00
 -1       123 3.38314E-04-1.74743E-06-1.32349E-23
 -1       124 3.31630E-04-2.34622E-06 0.00000E+00
 -1       125 3.23085E-04-2.95855E-06 0.00000E+00
 -1       191 1.77023E-04 1.34871E-07-2.48154E-24
 -1       192 1.77176E-04 2.69730E-07-1.65436E-24
 -1       193 1.77431E-04 4.04570E-07 0.00000E+00
 -1       194 1.77788E-04 5.39378E-07-1.24077E-24
 -1       195 1.78246E-04 6.74141E-07 1.65436E-24
 -1       251 2.66829E-03 2.12627E-06-6.61744E-24
 -1       252 2.66794E-03 5.17199E-06-3.30872E-24
 -1       253 2.66761E-03 7.60455E-06 1.32349E-23
 -1       254 2.66727E-03 8.32117E-06 6.61744E-24
 -1       255 2.66693E-03 6.50588E-06 0.00000E+00
 -1       256 2.66658E-03 1.37784E-06 0.00000E+00
 -1       257 2.66620E-03-7.29066E-06 1.32349E-23
 -1       258 2.66579E-03-1.96782E-05 6.61744E-24
 -1       259 2.66533E-03-3.53428E-05 0.00000E+00
 -1       260 2.66483E-03-5.37970E-05-6.61744E-24
 -1       261 2.66429E-03-7.40871E-05-1.32349E-23
 -1       262 2.66374E-03-9.52350E-05 0.00000E+00
 -1       263 2.66319E-03-1.16119E-04-1.32349E-23
 -1       264 2.66266E-03-1.35619E-04 0.00000E+00
 -1       265 2.66218E-03-1.52852E-04 1.32349E-23
 -1       266 2.66637E-03-4.31841E-07-3.30872E-24
 -1       267 2.66412E-03-4.35524E-07-8.27181E-25
 -1       268 2.66187E-03-4.39627E-07-8.27181E-25
 -1       269 2.65962E-03-4.42484E-07-2.06795E-25
 -1       270 2.65737E-03-4.45312E-07 2.06795E-25
 -1       271 2.66761E-03 4.04904E-07 0.00000E+00
 -1       272 2.66744E-03-1.07153E-06 0.00000E+00
 -1       273 2.66808E-03-4.72419E-06 0.00000E+00
 -1       274 2.66947E-03-1.04165E-05-1.32349E-23
 -1       275 2.67155E-03-1.79920E-05 0.00000E+00
 -1       276 2.67427E-03-2.72805E-05-1.32349E-23
 -1       277 2.67753E-03-3.80964E-05-2.64698E-23
 -1       278 2.68128E-03-5.02416E-05 1.32349E-23
 -1       279 2.68544E-03-6.35072E-05-2.64698E-23
 -1       280 2.68992E-03-7.76744E-05 1.32349E-23
 -1       281 2.69464E-03-9.25167E-05-2.64698E-23
 -1       282 2.69953E-03-1.07803E-04 1.32349E-23
 -1       283 2.70448E-03-1.23297E-04 0.00000E+00
 -1       284 2.70943E-03-1.38760E-04-6.61744E-24
 -1       285 2.71428E-03-1.53958E-04 1.32349E-23
 -1       301 2.67212E-03-1.67273E-04 0.00000E+00
 -1       302 2.68097E-03-1.67543E-04 3.30872E-24
 -1       303 2.68917E-03-1.67805E-04-1.32349E-23
 -1       304 2.69763E-03-1.68067E-04 6.61744E-24
 -1       305 2.70726E-03-1.68342E-04 0.00000E+00
 -1       306 2.69918E-03-3.19441E-04 1.05879E-22
 -1       307 2.76313E-03-7.30614E-04 0.00000E+00
 -1       308 2.81037E-03-1.33303E-03 0.00000E+00
 -1       309 2.83483E-03-2.03142E-03 0.00000E+00
 -1       310 2.86638E-03-2.70062E-03-1.05879E-22
 -1       311 2.92578E-03-3.21803E-03-5.29396E-23
 -1       312 2.98396E-03-3.50313E-03 2.11758E-22
 -1       313 2.98088E-03-3.51744E-03 0.00000E+00
 -1       314 2.84329E-03-3.27237E-03 0.00000E+00
 -1       315 2.53016E-03-2.83146E-03 0.00000E+00
 -1       316 2.05916E-03-2.27092E-03-1.05879E-22
 -1       317 1.49523E-03-1.66009E-03-5.29396E-23
 -1       318 9.51686E-04-1.05998E-03 0.00000E+00
 -1       319 5.35828E-04-5.35706E-04-5.29396E-23
 -1       320 2.91417E-04-1.61016E-04 0.00000E+00
 -1       336 3.00449E-04-4.26047E-06 0.00000E+00
 -1       337 2.86229E-04-4.95799E-06 0.00000E+00
 -1       338 2.70118E-04-5.68258E-06-1.32349E-23
 -1       339 2.52195E-04-6.43444E-06 0.00000E+00
 -1       340 2.32541E-04-7.21758E-06-1.32349E-23
 -1       406 1.79470E-04 9.43476E-07 3.30872E-24
 -1       407 1.80235E-04 1.07799E-06-1.24077E-24
 -1       408 1.81102E-04 1.21235E-06-8.27181E-25
 -1       409 1.82071E-04 1.34636E-06 2.06795E-25
 -1       410 1.83142E-04 1.47976E-06-8.27181E-25
 -1       521 2.75705E-03-3.30395E-04 0.00000E+00
 -1       522 2.81930E-03-7.61492E-04-5.29396E-23
 -1       523 2.86029E-03-1.39114E-03 1.05879E-22
 -1       524 2.87581E-03-2.11745E-03-5.29396E-23
 -1       525 2.89966E-03-2.81259E-03 1.05879E-22
 -1       526 2.95556E-03-3.35155E-03-5.29396E-23
 -1       527 3.01331E-03-3.64707E-03 2.11758E-22
 -1       528 3.00803E-03-3.65979E-03 0.00000E+00
 -1       529 2.85889E-03-3.40100E-03 2.11758E-22
 -1       530 2.52262E-03-2.94196E-03 0.00000E+00
 -1       531 2.01765E-03-2.36257E-03 1.05879E-22
 -1       532 1.41515E-03-1.73478E-03 5.29396E-23
 -1       533 8.33633E-04-1.11708E-03 0.00000E+00
 -1       534 3.85343E-04-5.72326E-04 5.29396E-23
 -1       535 1.20196E-04-1.78470E-04 2.11758E-22
 -1       536 2.10498E-04 2.68822E-05-6.61744E-24
 -1       537 2.08582E-04 8.72871E-05 0.00000E+00
 -1       538 2.05621E-04 1.63937E-04 3.30872E-24
 -1       539 2.02129E-04 2.47486E-04 1.65436E-24
 -1       540 1.98985E-04 3.26438E-04 3.30872E-24
 -1       541 1.96941E-04 3.89318E-04 0.00000E+00
 -1       542 1.95998E-04 4.29375E-04-3.30872E-24
 -1       543 1.95773E-04 4.40006E-04 0.00000E+00
 -1       544 1.95451E-04 4.21984E-04 0.00000E+00
 -1       545 1.94280E-04 3.76301E-04-1.65436E-24
 -1       546 1.92098E-04 3.11081E-04 3.30872E-24
 -1       547 1.89144E-04 2.34566E-04 0.00000E+00
 -1       548 1.86217E-04 1.58427E-04 3.30872E-24
 -1       549 1.84105E-04 9.43324E-05 1.65436E-24
 -1       550 1.83008E-04 5.03108E-05-1.65436E-24
 -1       551 1.86076E-04-8.58733E-06 0.00000E+00
 -1       552 1.57665E-04-9.23801E-06 0.00000E+00
 -1       553 1.26962E-04-9.95059E-06 9.92617E-24
 -1       554 9.49252E-05-1.07040E-05 0.00000E+00
 -1       555 6.25157E-05-1.14708E-05-1.32349E-23
 -1       556 2.03611E-04 1.15227E-05 0.00000E+00
 -1       557 1.97436E-04 2.73716E-05 0.00000E+00
 -1       558 1.92594E-04 3.98176E-05-5.29396E-23
 -1       559 1.88953E-04 4.91705E-05 0.00000E+00
 -1       560 1.86382E-04 5.57408E-05 0.00000E+00
 -1       561 1.84753E-04 5.98414E-05 0.00000E+00
 -1       562 1.83942E-04 6.17864E-05 0.00000E+00
 -1       563 1.83825E-04 6.18910E-05-1.32349E-23
 -1       564 1.84279E-04 6.04711E-05 0.00000E+00
 -1       565 1.85185E-04 5.78434E-05-6.61744E-24
 -1       566 1.86422E-04 5.43251E-05 0.00000E+00
 -1       567 1.87873E-04 5.02337E-05 0.00000E+00
 -1       568 1.89418E-04 4.58870E-05 0.00000E+00
 -1       569 1.90940E-04 4.16028E-05 0.00000E+00
 -1       570 1.92321E-04 3.76989E-05 0.00000E+00
 -1       571 1.82818E-04 3.21446E-05 0.00000E+00
 -1       572 1.82917E-04 2.99607E-05-8.27181E-25
 -1       573 1.83016E-04 2.77267E-05 0.00000E+00
 -1       574 1.83115E-04 2.54591E-05 8.27181E-25
 -1       575 1.83214E-04 2.31742E-05 3.30872E-24
 -1       576 1.83314E-04 2.08885E-05 1.65436E-24
 -1       577 1.83413E-04 1.86184E-05 0.00000E+00
 -1       578 1.83513E-04 1.63805E-05-6.61744E-24
 -1       579 1.83612E-04 1.41913E-05 6.61744E-24
 -1       580 1.83712E-04 1.20673E-05 0.00000E+00
 -1       581 1.83812E-04 1.00250E-05 0.00000E+00
 -1       582 1.83912E-04 8.08079E-06 0.00000E+00
 -1       583 1.84012E-04 6.25123E-06 6.61744E-24
 -1       584 1.84113E-04 4.55260E-06 0.00000E+00
 -1       585 1.84213E-04 3.00103E-06 0.00000E+00
 -1       586 1.84468E-04 3.43025E-05-1.65436E-24
 -1       587 1.86173E-04 3.43417E-05 4.13590E-25
 -1       588 1.87880E-04 3.43805E-05 0.00000E+00
 -1       589 1.89633E-04 3.44186E-05 0.00000E+00
 -1       590 1.91474E-04 3.44555E-05 0.00000E+00
 -1       591 1.83447E-04 3.22381E-05 1.03398E-25
 -1       592 1.84176E-04 3.01934E-05 0.00000E+00
 -1       593 1.84910E-04 2.81346E-05 0.00000E+00
 -1       594 1.85647E-04 2.60664E-05 4.13590E-25
 -1       595 1.86386E-04 2.39935E-05-8.27181E-25
 -1       596 1.87124E-04 2.19207E-05 4.13590E-25
 -1       597 1.87861E-04 1.98527E-05 0.00000E+00
 -1       598 1.88594E-04 1.77941E-05 0.00000E+00
 -1       599 1.89322E-04 1.57497E-05-8.27181E-25
 -1       600 1.90042E-04 1.37242E-05 4.13590E-25
 -1       601 1.90754E-04 1.17222E-05 8.27181E-25
 -1       602 1.91456E-04 9.74841E-06 0.00000E+00
 -1       603 1.92145E-04 7.80759E-06 4.13590E-25
 -1       604 1.92821E-04 5.90452E-06-7.75482E-26
 -1       605 1.93482E-04 4.04381E-06 0.00000E+00
 -1       606 1.84327E-04 4.54728E-07 0.00000E+00
 -1       607 1.84337E-04-6.15955E-07 0.00000E+00
 -1       608 1.84345E-04-1.60578E-06 0.00000E+00
 -1       609 1.84354E-04-2.52044E-06 1.65436E-24
 -1       610 1.84362E-04-3.36568E-06 0.00000E+00
 -1       611 1.84371E-04-4.14729E-06 0.00000E+00
 -1       612 1.84379E-04-4.87106E-06 0.00000E+00
 -1       613 1.84387E-04-5.54284E-06 0.00000E+00
 -1       614 1.84396E-04-6.16841E-06 1.65436E-24
 -1       615 1.84404E-04-6.75361E-06 0.00000E+00
 -1       616 1.84412E-04-7.30424E-06 0.00000E+00
 -1       617 1.84421E-04-7.82612E-06 0.00000E+00
 -1       618 1.84429E-04-8.32506E-06 0.00000E+00
 -1       619 1.84438E-04-8.80688E-06-2.06795E-25
 -1       620 1.84446E-04-9.27739E-06 2.06795E-25
 -1       621 1.85664E-04 1.71520E-06 1.65436E-24
 -1       622 1.87173E-04 1.81935E-06 1.65436E-24
 -1       623 1.88808E-04 1.92328E-06 0.00000E+00
 -1       624 1.90534E-04 2.02688E-06-8.27181E-25
 -1       625 1.92319E-04 2.13020E-06-1.65436E-24
 -1       626 1.84859E-04 4.90812E-07-3.30872E-24
 -1       627 1.85382E-04-5.66566E-07-3.30872E-24
 -1       628 1.85885E-04-1.56868E-06 0.00000E+00
 -1       629 1.86370E-04-2.52370E-06 0.00000E+00
 -1       630 1.86840E-04-3.43983E-06 0.00000E+00
 -1       631 1.87299E-04-4.32526E-06-1.65436E-24
 -1       632 1.87750E-04-5.18821E-06 0.00000E+00
 -1       633 1.88195E-04-6.03691E-06-1.65436E-24
 -1       634 1.88638E-04-6.87955E-06 3.30872E-24
 -1       635 1.89082E-04-7.72434E-06 0.00000E+00
 -1       636 1.89530E-04-8.57952E-06 3.30872E-24
 -1       637 1.89984E-04-9.45328E-06-1.65436E-24
 -1       638 1.90449E-04-1.03538E-05 1.65436E-24
 -1       639 1.90926E-04-1.12894E-05-8.27181E-25
 -1       640 1.91419E-04-1.22683E-05 0.00000E+00
 -1       656 1.85151E-04-1.03204E-05 6.61744E-24
 -1       657 1.86269E-04-1.09220E-05 6.61744E-24
 -1       658 1.87666E-04-1.15221E-05 0.00000E+00
 -1       659 1.89199E-04-1.21219E-05 0.00000E+00
 -1       660 1.90681E-04-1.27235E-05 0.00000E+00
 -1       661 1.84715E-04-1.02525E-05 0.00000E+00
 -1       662 1.85013E-04-1.08543E-05 0.00000E+00
 -1       663 1.85344E-04-1.15427E-05 1.65436E-24
 -1       664 1.85706E-04-1.23111E-05 8.27181E-25
 -1       665 1.86095E-04-1.31538E-05-1.65436E-24
 -1       666 1.86510E-04-1.40648E-05 0.00000E+00
 -1       667 1.86949E-04-1.50385E-05-1.65436E-24
 -1       668 1.87409E-04-1.60694E-05 0.00000E+00
 -1       669 1.87888E-04-1.71519E-05 0.00000E+00
 -1       670 1.88384E-04-1.82808E-05-8.27181E-25
 -1       671 1.88896E-04-1.94509E-05 0.00000E+00
 -1       672 1.89421E-04-2.06572E-05-8.27181E-25
 -1       673 1.89958E-04-2.18946E-05 1.65436E-24
 -1       674 1.90504E-04-2.31584E-05-4.13590E-25
 -1       675 1.91057E-04-2.44433E-05 2.06795E-25
 -1       676 1.84908E-04-2.52289E-05 0.00000E+00
 -1       677 1.86254E-04-2.53330E-05-1.65436E-24
 -1       678 1.87598E-04-2.54372E-05 0.00000E+00
 -1       679 1.88940E-04-2.55410E-05 0.00000E+00
 -1       680 1.90278E-04-2.56448E-05-3.30872E-24
 -1       771 1.87624E-05 1.44198E-05 0.00000E+00
 -1       772 8.72777E-06 3.63222E-05 5.29396E-23
 -1       773 4.93422E-07 5.36926E-05 0.00000E+00
 -1       774-6.06451E-06 6.67883E-05 0.00000E+00
 -1       775-1.10673E-05 7.58767E-05 5.29396E-23
 -1       776-1.46410E-05 8.12423E-05 0.00000E+00
 -1       777-1.69116E-05 8.31794E-05 0.00000E+00
 -1       778-1.80076E-05 8.19960E-05 2.64698E-23
 -1       779-1.80568E-05 7.80088E-05 5.29396E-23
 -1       780-1.71892E-05 7.15458E-05 0.00000E+00
 -1       781-1.55338E-05 6.29418E-05-5.29396E-23
 -1       782-1.32210E-05 5.25403E-05-2.64698E-23
 -1       783-1.03806E-05 4.06896E-05 0.00000E+00
 -1       784-7.14334E-06 2.77439E-05-5.29396E-23
 -1       785-3.63927E-06 1.40608E-05 0.00000E+00
 -1       786 1.93484E-04 3.22456E-05 1.29247E-26
 -1       787 1.93526E-04 3.00525E-05 4.13590E-25
 -1       788 1.93567E-04 2.79010E-05 0.00000E+00
 -1       789 1.93610E-04 2.57829E-05 0.00000E+00
 -1       790 1.93653E-04 2.36936E-05 0.00000E+00
 -1       791 1.93696E-04 2.16282E-05 0.00000E+00
 -1       792 1.93739E-04 1.95845E-05-1.65436E-24
 -1       793 1.93782E-04 1.75606E-05 0.00000E+00
 -1       794 1.93825E-04 1.55560E-05 1.65436E-24
 -1       795 1.93868E-04 1.35707E-05 8.27181E-25
 -1       796 1.93911E-04 1.16066E-05 1.65436E-24
 -1       797 1.93954E-04 9.66563E-06 0.00000E+00
 -1       798 1.93998E-04 7.75196E-06 1.65436E-24
 -1       799 1.94041E-04 5.86996E-06-8.27181E-25
 -1       800 1.94084E-04 4.02719E-06 0.00000E+00
 -1       801 1.47779E-04 3.10022E-05-2.64698E-23
 -1       802 9.69889E-06 1.93446E-05 0.00000E+00
 -1       803-1.08278E-04 9.77140E-06 0.00000E+00
 -1       804-9.60408E-05 6.79948E-06 2.64698E-23
 -1       805-3.17276E-05 2.67468E-06 5.29396E-23
 -1       806 1.94171E-04 3.21768E-05-1.65436E-24
 -1       807 1.94883E-04 2.98912E-05 0.00000E+00
 -1       808 1.95583E-04 2.76368E-05-3.30872E-24
 -1       809 1.96269E-04 2.54178E-05-1.65436E-24
 -1       810 1.96940E-04 2.32381E-05 0.00000E+00
 -1       811 1.97595E-04 2.11018E-05 1.65436E-24
 -1       812 1.98232E-04 1.90127E-05 0.00000E+00
 -1       813 1.98850E-04 1.69749E-05 1.65436E-24
 -1       814 1.99448E-04 1.49921E-05 3.30872E-24
 -1       815 2.00024E-04 1.30685E-05 1.65436E-24
 -1       816 2.00576E-04 1.12078E-05 1.65436E-24
 -1       817 2.01103E-04 9.41394E-06-8.27181E-25
 -1       818 2.01604E-04 7.69087E-06 3.30872E-24
 -1       819 2.02077E-04 6.04245E-06 0.00000E+00
 -1       820 2.02521E-04 4.47252E-06 1.65436E-24
 -1       821 1.93999E-04-1.18091E-07-1.65436E-24
 -1       822 1.93859E-04-3.61599E-06 0.00000E+00
 -1       823 1.93717E-04-7.83607E-06 3.30872E-24
 -1       824 1.93572E-04-1.23475E-05 0.00000E+00
 -1       825 1.93428E-04-1.66406E-05-3.30872E-24
 -1       826 1.93286E-04-2.02072E-05 0.00000E+00
 -1       827 1.93148E-04-2.27368E-05 0.00000E+00
 -1       828 1.93011E-04-2.39252E-05 0.00000E+00
 -1       829 1.92876E-04-2.38333E-05 0.00000E+00
 -1       830 1.92739E-04-2.25299E-05 1.65436E-24
 -1       831 1.92601E-04-2.04132E-05 0.00000E+00
 -1       832 1.92463E-04-1.78867E-05 0.00000E+00
 -1       833 1.92325E-04-1.54656E-05 0.00000E+00
 -1       834 1.92190E-04-1.36640E-05 0.00000E+00
 -1       835 1.92055E-04-1.28283E-05 8.27181E-25
 -1       836 1.95809E-04 2.35627E-06-3.30872E-24
 -1       837 1.97362E-04 2.48438E-06 1.65436E-24
 -1       838 1.98820E-04 2.61243E-06-3.30872E-24
 -1       839 2.00214E-04 2.73978E-06 0.00000E+00
 -1       840 2.01575E-04 2.86697E-06 0.00000E+00
 -1       856 1.91913E-04-1.43517E-05-8.27181E-25
 -1       857 1.91893E-04-1.52689E-05 0.00000E+00
 -1       858 1.91874E-04-1.60715E-05 0.00000E+00
 -1       859 1.91855E-04-1.67806E-05-2.06795E-25
 -1       860 1.91835E-04-1.74175E-05-4.13590E-25
 -1       861 1.91815E-04-1.80035E-05-2.06795E-25
 -1       862 1.91795E-04-1.85598E-05 4.13590E-25
 -1       863 1.91775E-04-1.91077E-05-4.13590E-25
 -1       864 1.91756E-04-1.96687E-05 8.27181E-25
 -1       865 1.91736E-04-2.02640E-05-4.13590E-25
 -1       866 1.91716E-04-2.09150E-05-8.27181E-25
 -1       867 1.91696E-04-2.16429E-05 0.00000E+00
 -1       868 1.91676E-04-2.24689E-05-8.27181E-25
 -1       869 1.91655E-04-2.34141E-05-4.13590E-25
 -1       870 1.91635E-04-2.44997E-05 8.27181E-25
 -1       871 1.93270E-04-1.33037E-05 0.00000E+00
 -1       872 1.94757E-04-1.33120E-05 0.00000E+00
 -1       873 1.96324E-04-1.33210E-05 0.00000E+00
 -1       874 1.97903E-04-1.33308E-05 3.87741E-25
 -1       875 1.99424E-04-1.33411E-05-8.27181E-25
 -1       876 1.92451E-04-1.43372E-05-3.30872E-24
 -1       877 1.92951E-04-1.53087E-05 1.65436E-24
 -1       878 1.93429E-04-1.62214E-05-3.30872E-24
 -1       879 1.93888E-04-1.70827E-05-1.65436E-24
 -1       880 1.94331E-04-1.79000E-05 0.00000E+00
 -1       881 1.94760E-04-1.86806E-05 1.65436E-24
 -1       882 1.95178E-04-1.94319E-05 0.00000E+00
 -1       883 1.95587E-04-2.01612E-05 0.00000E+00
 -1       884 1.95992E-04-2.08759E-05-3.30872E-24
 -1       885 1.96394E-04-2.15833E-05 0.00000E+00
 -1       886 1.96795E-04-2.22908E-05 3.30872E-24
 -1       887 1.97199E-04-2.30057E-05 0.00000E+00
 -1       888 1.97609E-04-2.37352E-05 0.00000E+00
 -1       889 1.98026E-04-2.44871E-05 0.00000E+00
 -1       890 1.98454E-04-2.52685E-05 0.00000E+00
 -1       891 1.92968E-04-2.58039E-05-1.65436E-24
 -1       892 1.94299E-04-2.58616E-05 0.00000E+00
 -1       893 1.95582E-04-2.59191E-05 0.00000E+00
 -1       894 1.96791E-04-2.59764E-05 4.13590E-25
 -1       895 1.97902E-04-2.60335E-05 4.13590E-25
 -1       956 2.02807E-04 1.67183E-06 1.65436E-24
 -1       957 2.02674E-04 4.50290E-07 1.65436E-24
 -1       958 2.02542E-04-6.90473E-07-3.30872E-24
 -1       959 2.02409E-04-1.76179E-06-1.65436E-24
 -1       960 2.02276E-04-2.77503E-06 0.00000E+00
 -1       961 2.02144E-04-3.74160E-06-1.65436E-24
 -1       962 2.02011E-04-4.67293E-06 3.30872E-24
 -1       963 2.01878E-04-5.58046E-06 0.00000E+00
 -1       964 2.01745E-04-6.47561E-06-3.30872E-24
 -1       965 2.01613E-04-7.36982E-06 0.00000E+00
 -1       966 2.01480E-04-8.27455E-06-3.30872E-24
 -1       967 2.01347E-04-9.20121E-06 0.00000E+00
 -1       968 2.01215E-04-1.01612E-05 6.61744E-24
 -1       969 2.01082E-04-1.11660E-05-3.30872E-24
 -1       970 2.00950E-04-1.22269E-05 0.00000E+00
 -1       971 2.00700E-04-1.44823E-05 0.00000E+00
 -1       972 2.00579E-04-1.55152E-05 0.00000E+00
 -1       973 2.00458E-04-1.64640E-05 0.00000E+00
 -1       974 2.00336E-04-1.73395E-05 1.65436E-24
 -1       975 2.00215E-04-1.81525E-05 3.30872E-24
 -1       976 2.00094E-04-1.89140E-05 0.00000E+00
 -1       977 1.99972E-04-1.96347E-05 0.00000E+00
 -1       978 1.99851E-04-2.03257E-05 1.65436E-24
 -1       979 1.99730E-04-2.09977E-05 0.00000E+00
 -1       980 1.99608E-04-2.16618E-05 1.65436E-24
 -1       981 1.99487E-04-2.23288E-05 0.00000E+00
 -1       982 1.99366E-04-2.30096E-05 1.65436E-24
 -1       983 1.99245E-04-2.37151E-05 0.00000E+00
 -1       984 1.99124E-04-2.44563E-05 0.00000E+00
 -1       985 1.99004E-04-2.52439E-05 0.00000E+00
 -3
    1PSTEP                        40          20           1          
  100CL  120 6.62727E-01         409                     0   20           1
 -4  STRESS      6    1
 -5  SXX         1    4    1    1
 -5  SYY         1    4    2    2
 -5  SZZ         1    4    3    3
 -5  SXY         1    4    1    2
 -5  SYZ         1    4    2    3
 -5  SZX         1    4    3    1
 -1         1-5.27168E+06-1.66827E+06-1.12755E+06-1.46486E+06 9.02219E-10-5.40749E-08
 -1         2 1.24263E+06 1.83045E+07 4.35641E+06 5.49675E+06 3.06172E-08-1.46028E-07
 -1         3-1.58479E+03-1.63993E+06 2.75181E+02-2.66319E+03 7.09392E-10-1.01209E-08
 -1         5-7.43629E+01 3.86211E+05 9.98023E+00-1.33303E+00-4.49968E-10 1.50321E-08
 -1         8-6.04733E+05-2.12487E+05-6.98475E+04-2.55931E+05 9.09495E-13 8.54525E-08
 -1         9 1.14392E+07 3.18632E+06 2.61204E+06-4.79101E+05-5.35510E-09-7.38073E-08
 -1        10-1.47332E+03-1.67550E+06-3.48438E+03-1.66592E+04-4.33829E-09-3.81142E-08
 -1        12-7.04428E+01 3.86233E+05 3.28015E+02-9.08948E+00-6.57355E-10 1.65710E-09
 -1        15 9.80747E+02 5.38970E+02 3.17023E+03 9.54018E-01-1.69763E-10-2.06111E-07
 -1        16 2.26168E+07-2.95283E+05 3.08983E+06-2.16099E+06 1.99264E-08 2.57821E-07
 -1        17 8.26350E+06 6.18573E+06 2.23331E+06 5.92872E+06 2.49012E-08 1.65310E-08
 -1        18 1.42121E+05 3.34500E+04 4.12828E+03-1.19444E+05 1.46540E-08 6.24414E-09
 -1        19 1.22337E+05 1.41611E+05-9.41754E+02 2.19551E+04 1.66438E-09-1.49419E-08
 -1        20-8.18280E+04-5.73333E+05-1.28646E+05 2.51419E+04-1.37819E-09-3.02377E-09
 -1        21-4.55807E+01-2.95906E+05-9.23734E+02 2.73273E+02 1.34150E-08-2.18538E-08
 -1        24 1.37823E+07 1.18779E+07 3.82201E+06 1.10030E+07-1.63913E-07-5.31242E-08
 -1        25 1.23693E+05 2.62284E+05 9.87310E+04-6.42578E+05-2.28392E-09 1.03808E-08
 -1        26-5.52999E+04 9.22678E+04-2.46037E+04 1.24943E+03 1.45155E-10 8.25564E-09
 -1        27-7.55891E+04-3.09768E+05-1.13250E+05 6.89319E+04 4.58310E-09 1.23206E-08
 -1        28 2.22357E+04-8.53077E+04 1.68914E+04 2.06201E+04-3.91108E-09 7.94891E-09
 -1        32-1.67962E+06-3.17546E+06-1.96594E+05 4.51770E+05-4.20696E-08-1.32619E-08
 -1        33-1.78348E+05 9.29569E+04 3.23710E+04-3.85172E+04-3.22272E-09-5.48395E-09
 -1        34-2.23480E+05-2.50119E+04 6.88988E+02 7.56010E+04-5.69233E-09 1.16911E-08
 -1        35-2.29239E+04-3.38310E+04-1.34777E+03 5.14788E+04-3.89947E-09 4.17640E-09
 -1        51 5.95593E+04-1.78421E+05 1.26226E+05-4.65840E+05 2.91038E-11-2.67806E-07
 -1        52 2.02960E+04-1.56546E+05 6.64244E+04-5.43267E+05 1.02773E-10 1.62847E-07
 -1        53 4.30037E+03-1.71951E+05 3.49031E+04-4.64219E+05 3.16504E-10 2.36541E-08
 -1        54 7.88842E+03-1.67772E+05 2.93065E+04-5.44873E+05 2.18279E-11-4.35772E-07
 -1        55 1.71272E+04-1.75121E+05 3.63838E+04-4.64098E+05 2.83762E-10-1.23096E-07
 -1        56-9.63674E+06-1.25604E+06-8.71184E+05-3.94622E+06 0.00000E+00-2.40107E-08
 -1        57-1.07274E+07-1.08321E+06-5.53956E+05-2.92991E+06 9.45874E-09 2.27381E-07
 -1        58-9.58084E+06-1.66469E+06-1.97356E+05-4.06631E+06-2.75904E-08 7.73070E-08
 -1        59-1.07435E+07-6.31450E+05-1.12060E+05-2.88559E+06 5.96174E-10-1.51062E-07
 -1        60-9.65606E+06-1.67230E+06-5.19852E+04-4.02358E+06-3.47318E-08 9.33105E-08
 -1        61-1.03217E+07-8.55116E+05-4.19441E+03-3.10126E+06 9.64064E-10 1.54256E-07
 -1        62-9.93118E+06-1.48864E+06-4.51601E+04-3.79593E+06-2.30648E-09 2.84854E-08
 -1        63-9.73085E+06-1.34832E+06 2.27829E+04-3.61653E+06-1.98197E-08-1.15506E-07
 -1        64-1.01939E+07-1.21650E+06-4.12907E+04-3.47368E+06 5.12591E-08-1.40570E-07
 -1        65-9.41448E+06-1.78579E+06-4.97179E+03-4.22660E+06-7.84930E-08-1.59171E-07
 -1        66-1.03121E+07-1.00637E+06-4.41030E+04-3.23397E+06 4.92655E-08-3.48664E-08
 -1        67-9.37829E+06-1.99185E+06-1.01103E+05-4.50783E+06-5.40731E-08-1.78874E-07
 -1        68-1.02935E+07-9.67029E+05-1.80836E+05-3.23335E+06-1.42973E-08-4.97384E-08
 -1        69-9.60270E+06-2.12562E+06-4.95801E+05-4.19355E+06-6.19253E-08-2.16358E-07
 -1        70-1.00324E+07-9.22134E+05-7.93853E+05-3.50809E+06 1.53559E-08-5.30854E-08
 -1        86-1.26658E+06-1.38032E+07-2.38130E+06-2.59264E+06-2.58184E-07-1.83310E-07
 -1        87 1.95127E+06 5.04330E+06 1.98170E+06 4.97890E+06-4.18702E-07-1.15653E-07
 -1        88-3.47128E+05-2.15332E+06 1.81942E+05-2.32290E+06-3.64042E-07-2.22567E-07
 -1        89 2.61781E+06 4.81374E+06 2.02653E+06 5.13136E+06-5.56698E-07-1.11791E-07
 -1        90-1.86096E+06-1.36339E+07-2.58031E+06-2.76547E+06-1.26151E-07 8.00210E-08
 -1       121-2.17433E+03-1.64552E+06-8.62157E+02 1.32063E+03 2.74824E-10 9.61154E-09
 -1       122-1.43099E+03-1.64006E+06 4.15134E+02-5.32592E+03 5.29457E-09 1.48575E-08
 -1       123-2.14675E+03-1.64562E+06-5.45547E+02 3.94006E+03 2.10332E-09-3.92902E-10
 -1       124-3.81130E+02-1.64014E+06 1.29573E+03-1.10200E+04 1.13132E-08-1.62399E-08
 -1       125-2.53684E+03-1.64615E+06 6.23422E+02 6.96090E+03 3.21597E-09-1.30640E-08
 -1       191-7.83686E+01 3.86230E+05 8.53098E+00 6.94753E-01-5.74019E-10 5.66251E-09
 -1       192-7.53258E+01 3.86212E+05 2.12954E+01-4.27670E+00-7.89231E-10 2.32740E-09
 -1       193-8.09036E+01 3.86229E+05 3.62983E+01 3.75488E+00-1.04759E-09-9.11314E-10
 -1       194-7.84133E+01 3.86215E+05 8.09502E+01-9.70526E+00-6.45346E-10 5.46061E-09
 -1       195-8.57695E+01 3.86227E+05 1.55024E+02 6.31346E+00-1.53665E-09 6.02085E-10
 -1       251-9.58564E+05 1.87689E+04-4.40126E+04-1.61326E+04-4.10864E-09 6.66514E-08
 -1       252-9.76272E+05-2.16554E+04-3.07887E+04 5.50014E+04-4.68299E-09-3.47309E-08
 -1       253-9.67144E+05 2.93328E+03-1.16157E+04-1.35989E+04 2.90561E-09 1.73294E-07
 -1       254-9.62109E+05-3.41415E+03-5.78594E+03 4.20058E+04 1.02164E-08-2.93474E-07
 -1       255-9.72154E+05 1.59029E+02-3.87643E+03-3.13823E+03-4.87739E-09 8.33363E-08
 -1       256-9.55142E+05-3.57023E+02 9.40858E+02 1.68918E+04 4.98858E-10 4.08113E-07
 -1       257-9.73539E+05-5.50394E+02-1.62986E+03 1.15050E+04 5.83896E-10-5.94911E-08
 -1       258-9.57041E+05 8.25571E+02 2.73971E+03-1.12521E+04-1.82526E-08-6.45421E-08
 -1       259-9.70420E+05-8.94951E+02 1.07845E+03 2.50005E+04 8.46535E-09-1.39985E-07
 -1       260-9.63917E+05 2.76806E+03 5.27648E+03-3.22386E+04-8.03061E-09 9.89634E-08
 -1       261-9.67342E+05-1.96666E+03 7.97916E+03 3.25062E+04 2.27433E-08 1.31057E-07
 -1       262-9.63338E+05 1.09830E+04 1.98939E+04-3.86005E+04-2.92447E-08-1.65706E-07
 -1       263-9.71292E+05-8.85090E+03 3.14476E+04 3.13722E+04-2.88742E-09 8.43320E-08
 -1       264-9.34308E+05 6.20443E+04 8.73431E+04-2.80103E+04 1.51040E-08 2.27643E-07
 -1       265-9.95834E+05-5.32122E+04 1.21178E+05 2.19033E+04 6.38033E-09 1.42449E-07
 -1       266-1.77549E+04-8.30298E+03 4.16545E+04-2.04117E+01 1.56433E-10 1.56361E-07
 -1       267 2.05826E+04 9.67612E+03 2.94427E+04 2.35528E+01 4.54747E-11 6.69880E-09
 -1       268-2.76010E+03-1.37047E+03 1.09436E+04-3.00094E+00 1.03228E-10 1.08529E-07
 -1       269 3.25886E+03 1.64009E+03 7.11326E+03 3.49575E+00-9.67475E-11 2.89796E-07
 -1       270-4.89156E+02-2.69480E+02 3.43367E+03-4.74391E-01-3.16049E-11 1.33214E-07
 -1       271-1.56734E+06-1.97353E+05-1.17525E+05-6.08293E+05-2.18242E-08 6.77901E-08
 -1       272-1.57740E+06-3.06321E+05-7.43581E+04-6.35667E+05 2.08747E-08-5.58930E-08
 -1       273-1.59174E+06-2.23276E+05-2.82945E+04-6.00341E+05-1.31622E-08-4.35939E-08
 -1       274-1.54893E+06-2.75306E+05-1.50370E+04-6.50041E+05 5.02023E-08 4.30038E-07
 -1       275-1.59725E+06-2.23434E+05-6.93419E+03-5.96746E+05-2.65572E-10 2.49052E-07
 -1       276-1.54273E+06-2.75815E+05-3.10567E+03-6.57838E+05-1.02555E-08 2.84481E-07
 -1       277-1.59994E+06-2.21106E+05-1.89353E+03-5.94130E+05 1.71531E-09 1.58070E-09
 -1       278-1.54013E+06-2.78948E+05-8.33498E+02-6.63610E+05 5.56201E-08 1.69784E-07
 -1       279-1.60168E+06-2.19113E+05-9.63238E+02-5.92252E+05-1.60708E-08-4.12633E-08
 -1       280-1.53881E+06-2.81442E+05-1.23148E+03-6.67524E+05-1.81135E-08 2.18699E-07
 -1       281-1.60262E+06-2.17759E+05-2.26860E+03-5.91140E+05-2.36942E-08 1.93057E-07
 -1       282-1.53917E+06-2.84058E+05-5.29631E+03-6.69278E+05 4.68526E-08 3.72859E-08
 -1       283-1.60205E+06-2.16182E+05-9.41942E+03-5.90931E+05-2.33490E-08 7.86872E-08
 -1       284-1.54747E+06-2.96736E+05-2.56775E+04-6.67143E+05 2.33269E-08-2.80131E-07
 -1       285-1.59446E+06-2.06395E+05-3.99865E+04-5.92789E+05 2.73697E-08 1.17770E-07
 -1       301-1.78445E+03-6.30698E+05 1.67899E+05-1.10242E+06 3.24508E-09 6.22094E-08
 -1       302-2.32003E+03-5.85116E+05 1.01092E+05-1.60979E+06 6.83940E-10 2.87140E-07
 -1       303-1.75438E+04-6.21766E+05 5.75988E+04-1.09947E+06 7.07951E-09 2.19161E-07
 -1       304-1.82698E+04-5.90982E+05 5.88130E+04-1.60909E+06 7.01402E-09 3.30292E-08
 -1       305-2.12364E+04-6.11146E+05 7.34106E+04-1.10257E+06 7.75981E-09 2.63230E-07
 -1       306-3.00098E+07-6.19646E+06-8.56702E+06-5.88359E+05-4.14439E-08-2.21713E-07
 -1       307 2.53550E+07 3.18119E+06 5.49919E+06-1.50376E+07-7.31437E-07-1.33994E-07
 -1       308-7.06989E+06-1.02981E+06-4.77683E+05 5.18433E+06-5.34346E-08 3.10538E-08
 -1       309-3.33287E+06 8.65772E+06 2.25660E+06-2.05655E+07 5.64152E-07-2.19043E-07
 -1       310-1.24024E+07-1.89809E+06-1.97794E+06 5.18796E+06 2.20258E-07-5.59754E-07
 -1       311 3.77897E+07 2.74461E+04 7.18279E+06-8.92939E+06 4.20609E-07-1.06200E-07
 -1       312-3.17131E+07-6.67164E+06-8.44772E+06-4.90261E+06 5.70435E-09-7.55099E-08
 -1       313 4.52608E+07 1.46394E+07 1.05852E+07 2.34267E+07-2.24041E-07-2.54950E-07
 -1       314-1.73028E+07-1.75593E+07-7.48149E+06-1.24814E+07 5.85511E-07-1.95811E-07
 -1       315-1.65892E+06 2.94359E+07 5.64846E+06 1.06814E+07-4.53059E-07 2.08733E-07
 -1       316 1.31609E+06-9.83873E+06-4.58906E+05-2.61839E+06-1.11980E-06-1.35478E-07
 -1       317-1.71553E+07 2.23041E+07 2.21369E+06-8.63220E+06 7.63510E-07-9.00160E-07
 -1       318-1.06203E+06-1.26316E+07-1.99569E+06-4.24804E+06-8.76229E-07 7.82893E-08
 -1       319 7.03466E+06 3.15675E+07 6.95080E+06 1.64229E+07-5.04369E-08 2.04804E-07
 -1       320-2.24441E+07-1.74686E+07-9.75961E+06-1.27152E+07 1.83587E-07-3.98431E-08
 -1       336-1.13128E+03-1.71353E+06-1.07683E+04 9.52628E+03-2.74613E-08-4.70027E-09
 -1       337-4.24699E+03-1.71279E+06-1.62958E+04-2.26732E+04-5.15556E-08 8.28004E-09
 -1       338 4.88652E+02-1.71254E+06-2.77698E+04 1.29222E+04-3.49919E-08 2.13004E-08
 -1       339-3.01330E+04-1.73062E+06-6.44369E+04-2.92951E+04-6.39911E-08 1.39389E-08
 -1       340 2.03159E+04-1.69782E+06-1.01824E+05 1.60257E+04-4.23170E-08 3.74457E-08
 -1       406-4.87017E+01 3.86212E+05 6.44101E+02 3.31948E+00-1.86382E-09 6.83940E-10
 -1       407 1.55736E+02 3.86347E+05 1.37638E+03 2.32707E+01-3.87317E-10-4.46835E-09
 -1       408 6.35750E+02 3.86112E+05 2.74446E+03-2.69165E+01-2.45655E-09-5.91172E-10
 -1       409 2.90729E+03 3.87223E+05 6.18566E+03 2.87269E+02-3.60842E-10-2.69938E-09
 -1       410 8.47915E+03 3.85322E+05 1.26247E+04-2.77015E+02-2.81034E-09 9.28594E-09
 -1       521-3.15164E+07-7.63237E+06-9.99006E+06-2.01650E+05-9.51113E-08-4.00469E-08
 -1       522 2.61678E+07 4.16465E+06 5.59433E+06-1.84984E+07-5.68631E-07-3.17843E-07
 -1       523-7.65528E+06-1.33736E+06-4.70297E+05 5.62511E+06 4.07454E-08-1.67347E-07
 -1       524-6.81701E+06 1.16547E+07 2.43593E+06-2.35916E+07 8.93502E-07-7.11716E-07
 -1       525-1.32046E+07-2.51442E+06-2.17057E+06 5.62858E+06 7.70553E-07-2.23605E-07
 -1       526 4.11548E+07-5.49371E+04 7.52797E+06-1.15625E+07 4.77536E-07 1.41707E-07
 -1       527-3.35124E+07-8.34206E+06-9.71983E+06-4.76094E+06 3.22936E-07 5.65051E-08
 -1       528 4.93502E+07 1.62551E+07 1.10234E+07 2.65823E+07-1.02096E-07-1.24273E-07
 -1       529-1.82372E+07-1.97190E+07-8.56274E+06-1.25087E+07-5.78002E-08-2.92435E-07
 -1       530-4.12927E+06 3.41307E+07 5.96645E+06 1.01865E+07-1.63142E-07 2.95229E-07
 -1       531 1.30461E+06-1.09080E+07-4.33866E+05-2.58617E+06-9.67528E-07 3.20608E-07
 -1       532-1.97122E+07 2.43102E+07 2.41426E+06-1.28395E+07 4.66680E-07-6.81095E-07
 -1       533-1.10978E+06-1.37637E+07-2.11875E+06-4.07784E+06-2.56812E-07-9.00181E-07
 -1       534 5.00998E+06 3.65632E+07 7.22175E+06 1.69647E+07-4.51982E-08 7.77654E-07
 -1       535-2.35964E+07-1.98082E+07-1.11682E+07-1.27733E+07 8.84756E-08 4.62751E-07
 -1       536-7.06144E+05-4.71640E+04-4.71149E+04-5.46532E+04-2.39925E-09 5.77193E-08
 -1       537-5.48596E+04 4.51767E+04 8.46062E+04 1.23788E+05-1.04408E-07 1.12513E-07
 -1       538-3.94491E+05 3.26967E+03 3.81113E+03-7.21788E+04 4.67222E-08 1.07312E-07
 -1       539-2.69151E+05 2.93094E+03 2.50617E+04 1.38685E+05 1.71613E-07 1.17031E-07
 -1       540-4.97231E+05-4.33669E+02-2.12278E+04-7.00853E+04 1.75914E-08 1.04720E-07
 -1       541 1.46188E+05 1.69693E+04 1.06335E+05 9.78959E+04-4.96584E-09 8.90612E-08
 -1       542-7.98638E+05-2.01230E+04-8.41574E+04-3.05152E+04 6.51244E-08 3.80049E-08
 -1       543 4.04776E+05 2.73098E+04 1.57871E+05-1.33397E+04-1.70567E-08-1.86728E-08
 -1       544-7.48883E+05-1.65271E+04-7.47853E+04 4.04818E+04-2.65327E-08-3.43315E-08
 -1       545 2.86906E+04 9.47610E+03 7.97628E+04-1.13571E+05-2.09953E-08-7.53453E-08
 -1       546-4.32653E+05 6.09312E+03-1.22234E+04 6.93700E+04-1.08344E-09-8.72428E-08
 -1       547-2.87223E+05-4.65908E+03 1.05760E+04-1.41536E+05-1.08542E-07-9.86862E-08
 -1       548-4.41463E+05 4.72062E+03-2.38682E+04 6.91370E+04-1.05914E-07-8.29150E-08
 -1       549 4.78151E+04 1.60497E+04 6.04603E+04-1.11437E+05-6.61378E-08-5.15993E-08
 -1       550-7.58725E+05-2.21179E+04-1.28899E+05 3.85560E+04 1.38070E-08-1.84955E-08
 -1       551 4.09362E+04-7.57018E+05-1.52354E+04-1.24699E+06-1.00874E-07-4.30737E-09
 -1       552 9.32751E+04-8.01803E+05 1.03244E+04-1.77814E+06-7.37928E-08 3.80678E-08
 -1       553 7.16955E+04-7.98181E+05 3.23526E+04-1.24036E+06-1.20242E-07 3.39642E-08
 -1       554 1.31949E+05-8.17424E+05 8.14875E+04-1.78008E+06-7.52771E-08 2.18570E-08
 -1       555 1.01419E+05-8.21727E+05 1.48711E+05-1.24021E+06-1.20162E-07-1.02500E-08
 -1       556 2.23256E+05-3.82903E+05 2.69038E+04-4.06876E+05-2.45636E-08-1.93832E-08
 -1       557 3.53868E+05-4.87182E+05 1.67385E+04-5.26992E+05-4.88944E-09-2.06637E-09
 -1       558 2.05148E+05-3.75931E+05 2.58394E+03-4.11152E+05-1.67056E-08-8.61473E-09
 -1       559 3.28775E+05-4.87413E+05 2.56522E+03-5.47395E+05 1.88156E-08-4.10728E-09
 -1       560 1.89887E+05-3.66361E+05-1.44171E+03-4.22147E+05 1.53668E-08 4.99858E-09
 -1       561 3.09582E+05-4.79742E+05 1.58601E+02-5.60477E+05 7.11589E-09 1.09685E-08
 -1       562 1.77817E+05-3.58860E+05-1.31031E+03-4.30889E+05 2.40107E-09 5.65706E-09
 -1       563 2.95243E+05-4.73491E+05-3.04594E+01-5.69842E+05-2.91038E-10-2.82471E-08
 -1       564 1.69202E+05-3.53492E+05-5.96704E+02-4.36994E+05 2.37196E-09 6.71207E-10
 -1       565 2.85731E+05-4.69348E+05 2.50409E+01-5.75920E+05 1.45519E-09 1.06656E-08
 -1       566 1.64165E+05-3.50305E+05-2.59326E+02-4.40518E+05-1.06957E-09 1.75169E-09
 -1       567 2.81107E+05-4.67337E+05-3.62161E+02-5.78728E+05 2.11130E-08-6.69752E-09
 -1       568 1.62796E+05-3.49467E+05-1.12443E+03-4.41570E+05-4.87489E-10 2.86673E-09
 -1       569 2.79983E+05-4.67263E+05-2.84006E+03-5.77303E+05 1.67165E-09 1.27584E-08
 -1       570 1.66188E+05-3.52695E+05-6.20787E+03-4.40554E+05 9.70613E-09 5.59612E-09
 -1       571 2.90328E+05 1.05004E+04 1.49815E+04-9.51432E+04 4.23734E-09 7.13817E-09
 -1       572 2.92500E+05 3.95710E+03 7.34215E+03-1.04382E+05 1.78261E-10-1.06957E-08
 -1       573 2.91191E+05 1.24418E+03 3.26235E+03-9.49667E+04 7.22321E-09 4.69663E-09
 -1       574 2.91405E+05 7.25879E+02 1.63604E+03-1.04606E+05 1.85773E-08 1.17188E-08
 -1       575 2.91284E+05 4.46945E+02 7.72166E+02-9.49425E+04 2.37944E-09 8.12452E-09
 -1       576 2.91269E+05 4.58208E+02 3.95343E+02-1.04636E+05-1.14578E-08-1.40526E-08
 -1       577 2.91324E+05 3.88912E+02 1.97354E+02-9.49392E+04-3.31511E-09 4.56566E-09
 -1       578 2.91299E+05 4.20206E+02 1.13998E+02-1.04640E+05-1.24737E-09-8.45830E-10
 -1       579 2.91396E+05 3.52284E+02 7.82867E+01-9.49389E+04 1.80862E-08-3.19233E-10
 -1       580 2.91401E+05 3.69245E+02 9.08421E+01-1.04635E+05 1.30813E-08 3.08137E-09
 -1       581 2.91510E+05 2.93774E+02 1.37204E+02-9.49448E+04 1.43373E-08 1.47356E-08
 -1       582 2.91576E+05 3.31901E+02 2.78948E+02-1.04574E+05 3.66890E-09 1.42618E-08
 -1       583 2.91650E+05 3.36126E+02 5.35401E+02-9.50013E+04 3.61615E-09 3.47245E-09
 -1       584 2.91951E+05 7.73339E+02 1.21156E+03-1.04098E+05 7.26868E-09-1.84268E-08
 -1       585 2.91676E+05 1.79304E+03 2.45335E+03-9.54202E+04-6.03904E-10 4.18731E-09
 -1       586-3.41681E+03 1.16848E+05-2.91107E+03-2.50518E+05-6.23004E-09 1.65869E-09
 -1       587-1.33373E+03 1.16600E+05 7.73566E+02-2.75713E+05-1.82808E-09 1.01768E-08
 -1       588 4.02190E+02 1.16406E+05 4.75923E+03-2.50380E+05-2.94676E-09 1.23227E-08
 -1       589 5.08775E+03 1.18878E+05 1.23414E+04-2.75481E+05-6.47196E-09-4.67935E-09
 -1       590 1.66086E+04 1.15073E+05 2.58877E+04-2.50811E+05-4.96038E-09 2.60661E-09
 -1       591-7.50116E+04-1.59839E+04-2.25247E+04-3.19790E+04-2.17392E-09 1.48575E-08
 -1       592-7.90961E+04-1.95449E+04-1.22012E+04-3.56081E+04-5.69485E-09 5.68241E-09
 -1       593-7.72644E+04-1.43494E+04-5.07875E+03-3.36306E+04-4.29726E-10-1.19492E-08
 -1       594-7.59860E+04-1.62397E+04-2.53290E+03-3.57260E+04-1.08540E-09-4.87722E-09
 -1       595-7.74361E+04-1.43440E+04-1.16286E+03-3.37056E+04 1.62804E-09 1.71074E-08
 -1       596-7.57731E+04-1.60885E+04-5.90932E+02-3.57007E+04 8.70118E-09 2.95112E-08
 -1       597-7.74577E+04-1.43594E+04-3.21335E+02-3.37085E+04 3.41498E-09 2.18148E-09
 -1       598-7.57521E+04-1.60826E+04-2.57500E+02-3.56935E+04-1.60480E-09-1.43082E-08
 -1       599-7.74564E+04-1.43600E+04-3.27909E+02-3.37081E+04 2.13925E-09-1.13084E-08
 -1       600-7.57731E+04-1.60891E+04-6.08336E+02-3.56985E+04 6.43558E-09 1.08903E-08
 -1       601-7.74318E+04-1.43454E+04-1.19969E+03-3.37046E+04-1.85082E-10 1.48534E-08
 -1       602-7.59928E+04-1.62439E+04-2.61438E+03-3.57207E+04-6.23277E-09-6.14648E-09
 -1       603-7.72518E+04-1.43539E+04-5.24280E+03-3.36280E+04 2.63753E-11 1.09421E-08
 -1       604-7.92208E+04-1.96362E+04-1.25944E+04-3.55743E+04 3.32136E-09 3.21907E-08
 -1       605-7.49063E+04-1.60589E+04-2.32509E+04-3.19426E+04 3.75292E-09 8.76571E-09
 -1       606 2.67021E+04-1.43216E+04-2.56739E+04 2.39969E+04 3.52338E-09-1.16847E-08
 -1       607 2.23153E+04-4.67732E+03-1.27855E+04 2.69673E+04-1.10958E-09-2.35241E-09
 -1       608 2.48154E+04-8.43686E+02-5.72366E+03 2.38280E+04-4.17094E-09-6.78597E-09
 -1       609 2.43361E+04-2.88919E+02-2.89144E+03 2.71814E+04 3.10683E-09 7.28528E-09
 -1       610 2.46019E+04-4.08183E+01-1.37954E+03 2.38080E+04 7.74708E-09 3.83943E-09
 -1       611 2.45266E+04-4.10502E+01-6.95553E+02 2.72046E+04 9.43146E-09-5.52336E-09
 -1       612 2.45548E+04-2.71038E+01-3.30653E+02 2.38059E+04 3.18141E-09 7.94898E-10
 -1       613 2.45382E+04-3.69497E+01-1.48145E+02 2.72073E+04 1.63027E-09-6.16524E-09
 -1       614 2.45326E+04-3.35095E+01-3.46728E+01 2.38052E+04-2.22008E-09 1.67386E-08
 -1       615 2.45329E+04-3.54521E+01 6.22543E+01 2.72077E+04-7.16318E-09 3.05340E-08
 -1       616 2.45153E+04-3.03798E+01 1.86530E+02 2.38055E+04 6.46196E-10 1.05272E-08
 -1       617 2.45553E+04 4.30266E+00 4.25518E+02 2.72072E+04 4.06635E-09 7.33212E-09
 -1       618 2.44783E+04 9.22926E+01 8.57678E+02 2.38058E+04 7.74889E-10-3.63957E-09
 -1       619 2.48581E+04 6.67463E+02 1.92597E+03 2.72066E+04-2.73303E-10-1.60701E-08
 -1       620 2.41934E+04 2.12608E+03 3.87114E+03 2.38074E+04-1.26295E-09-8.60382E-10
 -1       621 5.11153E+02 3.01373E+05 3.88918E+03 4.09681E+04 1.13050E-09-1.04583E-08
 -1       622 6.76866E+02 3.02271E+05 3.44977E+03 5.94770E+04 1.18780E-09-1.89598E-08
 -1       623 1.42253E+02 3.01568E+05 4.14321E+03 4.07828E+04 1.24282E-09 3.20506E-09
 -1       624 2.12546E+03 3.03488E+05 8.03017E+03 5.96594E+04 1.33110E-09 1.56506E-08
 -1       625 2.07684E+03 2.99976E+05 1.40315E+04 4.07797E+04 1.53750E-09-1.45130E-08
 -1       626 2.60722E+05 6.13882E+04 5.11464E+03 1.26684E+05 5.32827E-09-1.72931E-08
 -1       627 2.58404E+05 6.27868E+04 2.46470E+03 1.30955E+05 3.21961E-09-2.27117E-08
 -1       628 2.60850E+05 5.90478E+04 1.04239E+03 1.27553E+05-1.03091E-08-1.36008E-08
 -1       629 2.57769E+05 6.21077E+04 5.10200E+02 1.31195E+05-4.43333E-09 2.36728E-08
 -1       630 2.60865E+05 5.89348E+04 2.36773E+02 1.27590E+05-2.56205E-09-1.53308E-08
 -1       631 2.57702E+05 6.20819E+04 1.27555E+02 1.31197E+05 1.81717E-09 1.82581E-09
 -1       632 2.60861E+05 5.89387E+04 8.41819E+01 1.27585E+05 2.29602E-09-2.16526E-08
 -1       633 2.57694E+05 6.20837E+04 9.41566E+01 1.31194E+05 4.72960E-09-3.42220E-09
 -1       634 2.60857E+05 5.89359E+04 1.52495E+02 1.27585E+05-1.22040E-08-4.54065E-10
 -1       635 2.57708E+05 6.20820E+04 3.08778E+02 1.31199E+05-2.85171E-08-6.89215E-09
 -1       636 2.60847E+05 5.89301E+04 6.23683E+02 1.27585E+05-1.10872E-08-3.66799E-09
 -1       637 2.57843E+05 6.21790E+04 1.37139E+03 1.31199E+05-9.98944E-09-1.33323E-08
 -1       638 2.60799E+05 5.92330E+04 2.81771E+03 1.27448E+05 4.25644E-10 1.08544E-08
 -1       639 2.59323E+05 6.42376E+04 6.66684E+03 1.30763E+05 1.11968E-08 1.18114E-08
 -1       640 2.60594E+05 6.53802E+04 1.38349E+04 1.24858E+05 1.30899E-08 1.56253E-08
 -1       656 6.65515E+04-1.70319E+06-1.60651E+05-2.54780E+03 7.20320E-10-9.89115E-09
 -1       657-8.80418E+04-1.77578E+06-1.33090E+05 5.17586E+03 7.27596E-11-1.33784E-08
 -1       658 2.12142E+04-1.72380E+06-8.19663E+04-4.63059E+03 6.92580E-10-4.99951E-09
 -1       659-9.52031E+04-1.77918E+06-1.42501E+05 6.90557E+03-1.10413E-09 6.03886E-09
 -1       660 7.36969E+04-1.69979E+06-1.76831E+05-4.27749E+03-2.48110E-09 2.50130E-08
 -1       661 1.58640E+05 1.66022E+04 1.67205E+04 6.20163E+04-2.54295E-09 4.99585E-09
 -1       662 1.68093E+05 2.89859E+04 1.12684E+04 5.82663E+04-2.78305E-09-1.48289E-08
 -1       663 1.61925E+05 2.19664E+04 3.94099E+03 6.10631E+04-2.21837E-09 4.82851E-09
 -1       664 1.64285E+05 2.27129E+04 2.35753E+03 5.94306E+04-4.58519E-09-1.22777E-08
 -1       665 1.62423E+05 2.26991E+04 9.30030E+02 6.09177E+04 1.53426E-09-3.46233E-09
 -1       666 1.63695E+05 2.18751E+04 5.44394E+02 5.96203E+04 5.54030E-09-7.27927E-09
 -1       667 1.62511E+05 2.27824E+04 2.89344E+02 6.08812E+04-2.95586E-12 3.14674E-09
 -1       668 1.63599E+05 2.18153E+04 2.95256E+02 5.96733E+04-6.32940E-09 2.38753E-08
 -1       669 1.62518E+05 2.27572E+04 4.00089E+02 6.08650E+04-2.54332E-09 1.25092E-08
 -1       670 1.63696E+05 2.20326E+04 8.71532E+02 5.96762E+04-1.00449E-08 1.41307E-08
 -1       671 1.62413E+05 2.25696E+04 1.54758E+03 6.08763E+04 1.78000E-09-8.26844E-09
 -1       672 1.64598E+05 2.35382E+04 3.95954E+03 5.94577E+04 6.89381E-09-1.03574E-09
 -1       673 1.61621E+05 2.12897E+04 6.63559E+03 6.10689E+04 5.50926E-09 6.27551E-09
 -1       674 1.70913E+05 3.41990E+04 1.89764E+04 5.76023E+04-1.68757E-09-7.04063E-09
 -1       675 1.56138E+05 1.22073E+04 2.81677E+04 6.26197E+04-1.04956E-09 1.16052E-08
 -1       676 2.41076E+01-2.95829E+05-1.11334E+03-1.36640E+02 2.73772E-09-4.26791E-10
 -1       677-2.94519E+02-2.96099E+05-2.03761E+03 2.73061E+02 9.89394E-09 3.30115E-10
 -1       678 1.97528E+02-2.95637E+05-3.60199E+03-1.36331E+02 1.20076E-09-9.44793E-09
 -1       679-3.60206E+03-2.98273E+05-8.55684E+03 2.71882E+02 8.03561E-09 1.86594E-09
 -1       680 2.15063E+03-2.93656E+05-1.37907E+04-1.33955E+02 5.82986E-10-5.06679E-09
 -1       771-3.06229E+06-7.46193E+05-1.64512E+05-1.46516E+06-3.35567E-08-2.97441E-08
 -1       772-2.98527E+06-8.34742E+05-8.48071E+04-1.56754E+06-2.79397E-08 1.22564E-08
 -1       773-3.09358E+06-7.21784E+05-4.32515E+04-1.47956E+06-1.94705E-08 9.45874E-10
 -1       774-2.97583E+06-8.16412E+05-1.92923E+04-1.59318E+06 2.37051E-08-2.59024E-09
 -1       775-3.10994E+06-7.10302E+05-1.44430E+04-1.48656E+06-2.06637E-09 2.35013E-09
 -1       776-2.98810E+06-8.13410E+05-5.39893E+03-1.61258E+06-1.07102E-08 2.18279E-09
 -1       777-3.12414E+06-7.00055E+05-6.38550E+03-1.49273E+06 1.13505E-09-4.36557E-11
 -1       778-3.00090E+06-8.10616E+05-1.80442E+03-1.62925E+06 2.91038E-09 8.92032E-09
 -1       779-3.13634E+06-6.91102E+05-3.19217E+03-1.49801E+06-6.95582E-09-4.51837E-09
 -1       780-3.01218E+06-8.07948E+05-5.28991E+02-1.64282E+06-4.10364E-09 1.80989E-09
 -1       781-3.14604E+06-6.83885E+05-1.24020E+03-1.50214E+06-2.85800E-08-1.78261E-10
 -1       782-3.02087E+06-8.05683E+05 4.47412E+02-1.65284E+06-3.64307E-08-4.17822E-09
 -1       783-3.15287E+06-6.78871E+05 6.96394E+02-1.50503E+06-3.93629E-09-1.28694E-08
 -1       784-3.02568E+06-8.03416E+05 2.88599E+03-1.65903E+06-1.79862E-08 2.56523E-09
 -1       785-3.15691E+06-6.75880E+05 5.09470E+03-1.50687E+06-3.62961E-08 1.12159E-08
 -1       786 1.24248E+05-9.78723E+03 2.26437E+04-3.22409E+02 3.44098E-09 1.56433E-10
 -1       787 1.34069E+05 1.13314E+04 1.60195E+04-1.36265E+02 4.90515E-09 1.34305E-08
 -1       788 1.28035E+05-1.53369E+03 5.85844E+03-2.87324E+02 2.77568E-09 1.40590E-08
 -1       789 1.29658E+05 1.77520E+03 3.67774E+03-1.90016E+02-5.13885E-09-5.76114E-09
 -1       790 1.28660E+05-2.38795E+02 1.48912E+03-2.68675E+02-5.14768E-09 5.73840E-09
 -1       791 1.28927E+05 2.76305E+02 8.60206E+02-2.21928E+02-8.60453E-09 5.10154E-09
 -1       792 1.28766E+05-3.59078E+01 3.64773E+02-2.55414E+02-4.67091E-09 1.14909E-09
 -1       793 1.28800E+05 3.80638E+01 1.82399E+02-2.46886E+02 1.25124E-09 2.15709E-09
 -1       794 1.28787E+05-7.03843E-01 4.85106E+01-2.43717E+02 4.92910E-09-1.61226E-08
 -1       795 1.28763E+05-2.65836E+01-5.49830E+01-2.71315E+02-5.48662E-09 4.93534E-09
 -1       796 1.28803E+05 2.87034E+01-1.58057E+02-2.30985E+02 2.86080E-09-9.91663E-09
 -1       797 1.28671E+05-2.14355E+02-4.35264E+02-3.00584E+02 4.27645E-09-3.04408E-09
 -1       798 1.28879E+05 1.86926E+02-7.07248E+02-2.14448E+02 2.79031E-09-1.00869E-09
 -1       799 1.28134E+05-1.37776E+03-1.94606E+03-3.41548E+02 4.76984E-09-3.14495E-09
 -1       800 1.29340E+05 1.19116E+03-2.75417E+03-1.90022E+02 6.68415E-10-8.10428E-09
 -1       801-1.69155E+05-9.95886E+06-1.38694E+06 1.40567E+06 9.33069E-08-5.94846E-08
 -1       802 7.32086E+05 5.88698E+06 2.16585E+06-1.73411E+06 2.58900E-07-3.32539E-08
 -1       803-5.32973E+05-1.41938E+07-1.87795E+06 8.92466E+05 7.83111E-08 1.83027E-08
 -1       804 2.84716E+05 2.35112E+06 1.52590E+06 6.73773E+05-1.19500E-07-1.09101E-07
 -1       805 1.88551E+05-6.43718E+06-2.84310E+05-9.96576E+05-4.98258E-08-6.88651E-08
 -1       806-3.08654E+05-5.97432E+04-2.28369E+04-1.22353E+05-1.70803E-09-6.30325E-09
 -1       807-3.10446E+05-5.60208E+04-1.12196E+04-1.27900E+05 6.32554E-09-8.05019E-09
 -1       808-3.09281E+05-5.15128E+04-4.75969E+03-1.26243E+05-3.96767E-09 2.78351E-09
 -1       809-3.08086E+05-5.28686E+04-2.32737E+03-1.28176E+05-1.19599E-08 7.43012E-09
 -1       810-3.09376E+05-5.12262E+04-1.06676E+03-1.26415E+05 2.58296E-10-6.37056E-09
 -1       811-3.07904E+05-5.27419E+04-5.30520E+02-1.28141E+05 7.20866E-09 2.65902E-08
 -1       812-3.09390E+05-5.12509E+04-2.68389E+02-1.26414E+05-6.13909E-10 3.83261E-09
 -1       813-3.07879E+05-5.27441E+04-1.74560E+02-1.28122E+05-5.84987E-09-6.33395E-09
 -1       814-3.09383E+05-5.12606E+04-1.73205E+02-1.26410E+05 3.34876E-09 1.90948E-09
 -1       815-3.07882E+05-5.27464E+04-2.79259E+02-1.28114E+05 1.26224E-08-8.87485E-09
 -1       816-3.09362E+05-5.12597E+04-5.29413E+02-1.26407E+05 8.31278E-09-4.67389E-09
 -1       817-3.07972E+05-5.27969E+04-1.13624E+03-1.28103E+05-9.10222E-09 7.74526E-09
 -1       818-3.09293E+05-5.14202E+04-2.31756E+03-1.26331E+05-4.84124E-09 6.30280E-10
 -1       819-3.09241E+05-5.41969E+04-5.45303E+03-1.27802E+05-4.91127E-10 1.24801E-08
 -1       820-3.08856E+05-5.55397E+04-1.10989E+04-1.24572E+05-1.58252E-10-1.79489E-09
 -1       821-3.78908E+05 2.08657E+04-4.85701E+04 2.12158E+03 1.35161E-08 1.05865E-08
 -1       822-3.98616E+05-2.41717E+04-3.41352E+04-4.45082E+03 4.58115E-09 9.84755E-09
 -1       823-3.86374E+05 3.28912E+03-1.25454E+04 3.42824E+03-1.29824E-08 1.20631E-08
 -1       824-3.89604E+05-3.79302E+03-7.85279E+03-5.35983E+03 1.27795E-09-1.30991E-08
 -1       825-3.87927E+05 5.11177E+02-3.28823E+03 3.03071E+03 1.98631E-08 4.68572E-09
 -1       826-3.87176E+05-5.67374E+02-1.74456E+03-3.09097E+03 2.53052E-08 1.57454E-08
 -1       827-3.88778E+05 4.69986E+01-1.18906E+03 1.15923E+03 1.20818E-08-9.80521E-09
 -1       828-3.86473E+05-1.32199E+02-5.87285E+02 1.09300E+03 1.38505E-09-5.15906E-09
 -1       829-3.88617E+05 6.59925E+01-1.17802E+03-1.15329E+03 4.29472E-09 1.08693E-08
 -1       830-3.87525E+05-6.21900E+02-1.88241E+03 4.87297E+03 6.13156E-10 1.53285E-08
 -1       831-3.87748E+05 5.54253E+02-3.36994E+03-2.62075E+03-4.41896E-09 3.48382E-09
 -1       832-3.89685E+05-3.95931E+03-8.15498E+03 6.15073E+03-6.03682E-09 1.56790E-08
 -1       833-3.86473E+05 3.41290E+03-1.30483E+04-2.43110E+03-2.48032E-09 3.62616E-09
 -1       834-3.98676E+05-2.50836E+04-3.53560E+04 4.18302E+03-5.15595E-09-4.49108E-09
 -1       835-3.78740E+05 2.16457E+04-5.04370E+04-6.52955E+02 5.61246E-09 1.78989E-08
 -1       836-1.41354E+03 3.70105E+05 2.29013E+04-1.61993E+04-6.87214E-09 1.09339E-08
 -1       837 4.88199E+03 3.77278E+05 1.93748E+04-3.31003E+04-7.46559E-09-1.07377E-08
 -1       838-5.57736E+02 3.72116E+05 1.97349E+04-1.61277E+04-6.30916E-09-4.81987E-09
 -1       839 1.24176E+04 3.82890E+05 3.73269E+04-3.31527E+04-6.81757E-09 1.12502E-08
 -1       840-3.83915E+03 3.64433E+05 5.95203E+04-1.61527E+04-6.22094E-09-3.77936E-09
 -1       856-5.23066E+04 8.02573E+03-2.11495E+04-3.97680E+02 3.43027E-09-9.15497E-09
 -1       857-6.10198E+04-9.42991E+03-1.45592E+04 5.63222E+03 6.14372E-09 5.15433E-09
 -1       858-5.57572E+04 1.12553E+03-5.48780E+03-4.21788E+02 3.87661E-09-1.58402E-08
 -1       859-5.70598E+04-1.32408E+03-3.31163E+03 5.66809E+03 1.00670E-09 1.29198E-08
 -1       860-5.62727E+04 1.57623E+02-1.38791E+03-4.33284E+02 4.71658E-10 8.59541E-09
 -1       861-5.64669E+04-1.88111E+02-7.63513E+02 5.68375E+03 3.03276E-09 1.97049E-09
 -1       862-5.63533E+04 2.13502E+01-3.17378E+02-4.37425E+02-3.99366E-09 2.26818E-08
 -1       863-5.63680E+04-2.17994E+01-1.15602E+02 5.68615E+03-7.03515E-09-4.37238E-09
 -1       864-5.63721E+04-4.90431E+00 4.72302E+01-4.35687E+02-3.48436E-09-1.68270E-08
 -1       865-5.63122E+04 5.96956E+01 2.55329E+02 5.67623E+03-2.11936E-09 3.40797E-09
 -1       866-5.64069E+04-6.01634E+01 5.14551E+02-4.27504E+02 1.47054E-09 1.16529E-08
 -1       867-5.60702E+04 4.96830E+02 1.26651E+03 5.65402E+03 2.69756E-09 9.86915E-10
 -1       868-5.66091E+04-4.34149E+02 2.10456E+03-4.13470E+02 8.96250E-10 8.60018E-09
 -1       869-5.45273E+04 3.61324E+03 5.60375E+03 5.61746E+03 6.77281E-09-3.69118E-09
 -1       870-5.79421E+04-3.09194E+03 8.13229E+03-3.90843E+02-3.15015E-09-3.60069E-09
 -1       871-5.51761E+03-2.13176E+04-1.94810E+04 1.30349E+05-4.75120E-09 2.18097E-09
 -1       872-1.98365E+03-2.58469E+04-8.15691E+03 1.69017E+05-1.04274E-08 1.83900E-08
 -1       873 4.03145E+02-2.36565E+04 5.90114E+02 1.30062E+05-6.00448E-09 7.30870E-09
 -1       874 3.30236E+03-2.12460E+04 9.77592E+03 1.69046E+05-1.18789E-08-1.97474E-09
 -1       875 6.84200E+03-2.59854E+04 2.20533E+04 1.30301E+05-5.35510E-09 1.17161E-08
 -1       876 2.93642E+05 4.94921E+04 1.50946E+04 1.17841E+05 5.06759E-09 3.14049E-09
 -1       877 2.94639E+05 5.26714E+04 8.06113E+03 1.22171E+05 1.31031E-08 9.58312E-09
 -1       878 2.95053E+05 4.78200E+04 3.37721E+03 1.19077E+05-2.95222E-09 1.01302E-08
 -1       879 2.92588E+05 5.06237E+04 1.68274E+03 1.22273E+05 2.96473E-09 1.65755E-08
 -1       880 2.95155E+05 4.78028E+04 7.83799E+02 1.19128E+05 1.95314E-09-4.57590E-10
 -1       881 2.92451E+05 5.05361E+04 4.18581E+02 1.22250E+05-8.39827E-09-1.49060E-09
 -1       882 2.95164E+05 4.78160E+04 2.67817E+02 1.19129E+05-4.10591E-09-1.07219E-09
 -1       883 2.92442E+05 5.05316E+04 2.87971E+02 1.22242E+05-5.14945E-10 4.90435E-09
 -1       884 2.95157E+05 4.78132E+04 4.58143E+02 1.19130E+05-5.74357E-09 5.19367E-09
 -1       885 2.92478E+05 5.05379E+04 9.21151E+02 1.22253E+05-1.34378E-09-7.73497E-09
 -1       886 2.95121E+05 4.77864E+04 1.85655E+03 1.19126E+05-6.86655E-09-1.62288E-08
 -1       887 2.92804E+05 5.07519E+04 4.05539E+03 1.22300E+05 5.48073E-09-1.98645E-09
 -1       888 2.94865E+05 4.78315E+04 8.17172E+03 1.18996E+05-5.70513E-09 1.13700E-08
 -1       889 2.97669E+05 5.58111E+04 1.95207E+04 1.22151E+05-3.22218E-09 3.38150E-09
 -1       890 2.91530E+05 5.17935E+04 3.65619E+04 1.15886E+05 1.78352E-09 9.16771E-09
 -1       891-8.96404E+01-1.62709E+05-1.99574E+03 2.71479E+04-3.42584E-09 2.50220E-08
 -1       892-1.75784E+02-1.63236E+05-2.14339E+03 4.12250E+04 1.18462E-09 8.14725E-09
 -1       893 4.33705E+01-1.62774E+05-3.03473E+03 2.71552E+04-3.22916E-09 1.30240E-08
 -1       894-1.50994E+03-1.64383E+05-6.28069E+03 4.10725E+04 2.29556E-09 2.00498E-09
 -1       895-1.19911E+03-1.61465E+05-1.10602E+04 2.73022E+04-2.42699E-09-1.01445E-08
 -1       956-3.77041E+05-5.44756E+03-1.34490E+04 3.08374E+04 8.92214E-09-2.78858E-08
 -1       957-3.79680E+05-1.92121E+03-6.90318E+03 3.70588E+04-3.21961E-09-1.54721E-08
 -1       958-3.78250E+05-2.40250E+02-3.11079E+03 3.06697E+04-5.85533E-09-7.45831E-09
 -1       959-3.78447E+05-1.35492E+02-1.58842E+03 3.72543E+04 9.71340E-10-3.91901E-09
 -1       960-3.78368E+05-4.41991E+01-7.74589E+02 3.06524E+04 6.99492E-09 3.75348E-09
 -1       961-3.78366E+05-6.24833E+01-4.10676E+02 3.72747E+04 1.33498E-08 2.81125E-08
 -1       962-3.78396E+05-4.54256E+01-2.35117E+02 3.06495E+04 1.76988E-09 2.31346E-08
 -1       963-3.78367E+05-5.82915E+01-1.88733E+02 3.72784E+04 1.82717E-09 2.06671E-08
 -1       964-3.78401E+05-4.20688E+01-2.29505E+02 3.06488E+04 5.92721E-10-1.65755E-09
 -1       965-3.78379E+05-5.53258E+01-3.96942E+02 3.72776E+04-7.44501E-09-2.35514E-08
 -1       966-3.78385E+05-3.42234E+01-7.45839E+02 3.06503E+04-8.00355E-09 8.07267E-09
 -1       967-3.78468E+05-1.18830E+02-1.52970E+03 3.72633E+04-2.27008E-08 6.38556E-09
 -1       968-3.78281E+05-2.16622E+02-2.99460E+03 3.06629E+04-1.60044E-08-4.82271E-09
 -1       969-3.79668E+05-1.83292E+03-6.64794E+03 3.71150E+04-6.75072E-09-1.62213E-08
 -1       970-3.77125E+05-5.22741E+03-1.29506E+04 3.07900E+04-2.09820E-09 4.19368E-09
 -1       971-3.45252E+05-1.72689E+03-9.30816E+03 1.53742E+04 4.96038E-09 1.09542E-08
 -1       972-3.47493E+05-1.27118E+03-5.06913E+03 2.12636E+04 3.14503E-09-1.07389E-08
 -1       973-3.46290E+05-6.17700E+01-2.27051E+03 1.52531E+04 9.87711E-10-8.71023E-09
 -1       974-3.46425E+05-8.07101E+01-1.17696E+03 2.14006E+04-2.66596E-09 7.12998E-09
 -1       975-3.46372E+05-1.69033E+01-5.88780E+02 1.52407E+04-2.00544E-09 8.63292E-09
 -1       976-3.46363E+05-3.08753E+01-3.40521E+02 2.14164E+04 9.73159E-09-6.84145E-09
 -1       977-3.46388E+05-1.61578E+01-2.48643E+02 1.52373E+04-2.52498E-09-4.03440E-09
 -1       978-3.46368E+05-2.46516E+01-2.93008E+02 2.14213E+04-9.82425E-09 1.42411E-08
 -1       979-3.46388E+05-7.68263E+00-4.72528E+02 1.52359E+04-5.91785E-09 3.16720E-09
 -1       980-3.46404E+05-2.15912E+01-9.13493E+02 2.14222E+04-6.56233E-09-8.28470E-09
 -1       981-3.46358E+05 1.51504E+01-1.76980E+03 1.52364E+04-3.65912E-09-1.48027E-08
 -1       982-3.46647E+05-1.52360E+02-3.65846E+03 2.14156E+04-2.30784E-09-2.64194E-10
 -1       983-3.46136E+05-9.81750E+01-7.10859E+03 1.52424E+04 2.85399E-09-6.53927E-09
 -1       984-3.50066E+05-3.86497E+03-1.59195E+04 2.13300E+04 7.67500E-09-7.76322E-09
 -1       985-3.42917E+05-5.29980E+03-2.92331E+04 1.53139E+04-1.76351E-09-1.09394E-08
 -3
    1PSTEP                        41          21           1          
  100CL  121 6.62882E-01         409                     0   21           1
 -4  DISP        4    1
 -5  D1          1    2    1    0
 -5  D2          1    2    2    0
 -5  D3          1    2    3    0
 -5  ALL         1    2    0    0    1ALL
 -1         1 2.68808E-03 0.00000E+00 0.00000E+00
 -1         2 1.39886E-03 3.26296E-27 0.00000E+00
 -1         3 3.47231E-04-8.19626E-28 0.00000E+00
 -1         5 1.77072E-04-4.53941E-27 0.00000E+00
 -1         8 2.67652E-03-4.19179E-07 0.00000E+00
 -1         9 2.66972E-03-1.70327E-04 0.00000E+00
 -1        10 3.12961E-04-3.58435E-06 6.61744E-24
 -1        12 1.78911E-04 8.09195E-07 4.13590E-25
 -1        15 2.66318E-03-4.45170E-07-2.06795E-25
 -1        16 2.72817E-03-1.72036E-04 0.00000E+00
 -1        17 2.11411E-04-8.01084E-06 0.00000E+00
 -1        18 1.82837E-04 3.43209E-05 0.00000E+00
 -1        19 1.84430E-04 1.61199E-06 0.00000E+00
 -1        20 1.84570E-04-9.79010E-06 0.00000E+00
 -1        21 1.83678E-04-2.52258E-05 3.30872E-24
 -1        24 3.06964E-05-1.22413E-05 0.00000E+00
 -1        25 1.93582E-04 3.45467E-05 0.00000E+00
 -1        26 1.94265E-04 2.23224E-06 0.00000E+00
 -1        27 1.92065E-04-1.33479E-05 0.00000E+00
 -1        28 1.91749E-04-2.58478E-05 0.00000E+00
 -1        32 0.00000E+00 0.00000E+00 0.00000E+00
 -1        33 2.03094E-04 2.98612E-06 0.00000E+00
 -1        34 2.00977E-04-1.34040E-05 0.00000E+00
 -1        35 1.99045E-04-2.61901E-05 0.00000E+00
 -1        51 2.68731E-03-8.68335E-08-3.30872E-24
 -1        52 2.68589E-03-1.55552E-07-3.30872E-24
 -1        53 2.68397E-03-2.20920E-07 0.00000E+00
 -1        54 2.68168E-03-2.85169E-07-1.65436E-24
 -1        55 2.67915E-03-3.50051E-07 1.65436E-24
 -1        56 2.68135E-03 6.15100E-06 0.00000E+00
 -1        57 2.66906E-03 2.61159E-05-5.29396E-23
 -1        58 2.65301E-03 5.54493E-05 0.00000E+00
 -1        59 2.63528E-03 8.87933E-05 0.00000E+00
 -1        60 2.61838E-03 1.20109E-04 1.05879E-22
 -1        61 2.60469E-03 1.43520E-04 0.00000E+00
 -1        62 2.59588E-03 1.54564E-04 0.00000E+00
 -1        63 2.59305E-03 1.49876E-04 0.00000E+00
 -1        64 2.59611E-03 1.28958E-04 1.05879E-22
 -1        65 2.60443E-03 9.28212E-05 0.00000E+00
 -1        66 2.61654E-03 4.53219E-05 0.00000E+00
 -1        67 2.63072E-03-8.59259E-06 0.00000E+00
 -1        68 2.64498E-03-6.27556E-05 0.00000E+00
 -1        69 2.65735E-03-1.10969E-04-5.29396E-23
 -1        70 2.66606E-03-1.48174E-04 0.00000E+00
 -1        86 1.47871E-03-5.49290E-06 5.29396E-23
 -1        87 1.71033E-03-3.40507E-05 0.00000E+00
 -1        88 2.02169E-03-8.29591E-05 2.64698E-23
 -1        89 2.33694E-03-1.33112E-04-1.32349E-23
 -1        90 2.57801E-03-1.63793E-04 0.00000E+00
 -1       121 3.46267E-04-5.77154E-07-1.32349E-23
 -1       122 3.43381E-04-1.15786E-06 6.61744E-24
 -1       123 3.38582E-04-1.74561E-06 0.00000E+00
 -1       124 3.31893E-04-2.34382E-06 6.61744E-24
 -1       125 3.23340E-04-2.95559E-06 0.00000E+00
 -1       191 1.77123E-04 1.34929E-07-1.65436E-24
 -1       192 1.77276E-04 2.69847E-07 4.13590E-25
 -1       193 1.77531E-04 4.04745E-07 1.65436E-24
 -1       194 1.77889E-04 5.39611E-07 8.27181E-25
 -1       195 1.78349E-04 6.74432E-07-3.30872E-24
 -1       251 2.67619E-03 2.02584E-06 0.00000E+00
 -1       252 2.67586E-03 4.81921E-06 0.00000E+00
 -1       253 2.67553E-03 6.89074E-06 0.00000E+00
 -1       254 2.67520E-03 7.17983E-06 0.00000E+00
 -1       255 2.67487E-03 4.91742E-06 0.00000E+00
 -1       256 2.67452E-03-6.30944E-07 0.00000E+00
 -1       257 2.67415E-03-9.66279E-06 0.00000E+00
 -1       258 2.67374E-03-2.23284E-05 6.61744E-24
 -1       259 2.67329E-03-3.81847E-05 0.00000E+00
 -1       260 2.67279E-03-5.67451E-05-6.61744E-24
 -1       261 2.67226E-03-7.70812E-05-1.32349E-23
 -1       262 2.67172E-03-9.82410E-05 0.00000E+00
 -1       263 2.67117E-03-1.19137E-04-1.32349E-23
 -1       264 2.67066E-03-1.38687E-04 6.61744E-24
 -1       265 2.67018E-03-1.56028E-04 0.00000E+00
 -1       266 2.67430E-03-4.29386E-07-3.30872E-24
 -1       267 2.67207E-03-4.33002E-07-8.27181E-25
 -1       268 2.66985E-03-4.37035E-07 0.00000E+00
 -1       269 2.66763E-03-4.39831E-07 2.06795E-25
 -1       270 2.66541E-03-4.42599E-07-2.06795E-25
 -1       271 2.67553E-03 3.59394E-07 0.00000E+00
 -1       272 2.67540E-03-1.20720E-06-6.61744E-24
 -1       273 2.67609E-03-4.98845E-06-2.64698E-23
 -1       274 2.67755E-03-1.08436E-05-1.32349E-23
 -1       275 2.67971E-03-1.86119E-05 0.00000E+00
 -1       276 2.68251E-03-2.81186E-05-1.32349E-23
 -1       277 2.68587E-03-3.91736E-05 0.00000E+00
 -1       278 2.68971E-03-5.15741E-05-1.32349E-23
 -1       279 2.69397E-03-6.51062E-05 2.64698E-23
 -1       280 2.69855E-03-7.95466E-05-2.64698E-23
 -1       281 2.70338E-03-9.46641E-05 0.00000E+00
 -1       282 2.70837E-03-1.10222E-04 0.00000E+00
 -1       283 2.71342E-03-1.25980E-04 0.00000E+00
 -1       284 2.71847E-03-1.41696E-04 6.61744E-24
 -1       285 2.72341E-03-1.57129E-04-1.32349E-23
 -1       301 2.68035E-03-1.70643E-04 0.00000E+00
 -1       302 2.68940E-03-1.70916E-04 3.30872E-24
 -1       303 2.69780E-03-1.71181E-04 1.32349E-23
 -1       304 2.70645E-03-1.71446E-04 0.00000E+00
 -1       305 2.71627E-03-1.71723E-04 2.64698E-23
 -1       306 2.70726E-03-3.23206E-04-1.05879E-22
 -1       307 2.77119E-03-7.35026E-04 5.29396E-23
 -1       308 2.81829E-03-1.33818E-03 0.00000E+00
 -1       309 2.84256E-03-2.03722E-03 0.00000E+00
 -1       310 2.87400E-03-2.70683E-03 1.05879E-22
 -1       311 2.93338E-03-3.22429E-03 0.00000E+00
 -1       312 2.99152E-03-3.50899E-03 1.05879E-22
 -1       313 2.98816E-03-3.52257E-03 0.00000E+00
 -1       314 2.84990E-03-3.27657E-03-1.05879E-22
 -1       315 2.53569E-03-2.83472E-03 0.00000E+00
 -1       316 2.06335E-03-2.27337E-03 0.00000E+00
 -1       317 1.49800E-03-1.66188E-03 0.00000E+00
 -1       318 9.53237E-04-1.06116E-03-1.05879E-22
 -1       319 5.36540E-04-5.36318E-04 0.00000E+00
 -1       320 2.91702E-04-1.61202E-04 1.05879E-22
 -1       336 3.00686E-04-4.25646E-06-1.32349E-23
 -1       337 2.86454E-04-4.95351E-06 6.61744E-24
 -1       338 2.70330E-04-5.67767E-06 0.00000E+00
 -1       339 2.52390E-04-6.42915E-06-6.61744E-24
 -1       340 2.32720E-04-7.21199E-06 0.00000E+00
 -1       406 1.79575E-04 9.43882E-07 0.00000E+00
 -1       407 1.80342E-04 1.07845E-06 1.24077E-24
 -1       408 1.81211E-04 1.21286E-06-3.30872E-24
 -1       409 1.82182E-04 1.34694E-06-8.27181E-25
 -1       410 1.83256E-04 1.48039E-06 0.00000E+00
 -1       521 2.76633E-03-3.34184E-04-1.05879E-22
 -1       522 2.82855E-03-7.65982E-04 5.29396E-23
 -1       523 2.86936E-03-1.39646E-03 0.00000E+00
 -1       524 2.88463E-03-2.12354E-03 0.00000E+00
 -1       525 2.90833E-03-2.81919E-03 0.00000E+00
 -1       526 2.96421E-03-3.35826E-03-5.29396E-23
 -1       527 3.02190E-03-3.65341E-03 0.00000E+00
 -1       528 3.01632E-03-3.66536E-03 0.00000E+00
 -1       529 2.86642E-03-3.40556E-03 0.00000E+00
 -1       530 2.52893E-03-2.94551E-03 5.29396E-23
 -1       531 2.02240E-03-2.36526E-03-1.05879E-22
 -1       532 1.41827E-03-1.73677E-03 0.00000E+00
 -1       533 8.35317E-04-1.11842E-03 0.00000E+00
 -1       534 3.86025E-04-5.73038E-04 0.00000E+00
 -1       535 1.20360E-04-1.78694E-04 0.00000E+00
 -1       536 2.10656E-04 2.69185E-05 0.00000E+00
 -1       537 2.08737E-04 8.73738E-05 0.00000E+00
 -1       538 2.05771E-04 1.64087E-04 0.00000E+00
 -1       539 2.02273E-04 2.47705E-04-1.65436E-24
 -1       540 1.99125E-04 3.26722E-04 0.00000E+00
 -1       541 1.97078E-04 3.89654E-04 0.00000E+00
 -1       542 1.96133E-04 4.29744E-04 3.30872E-24
 -1       543 1.95908E-04 4.40385E-04 1.65436E-24
 -1       544 1.95586E-04 4.22351E-04 3.30872E-24
 -1       545 1.94413E-04 3.76634E-04 0.00000E+00
 -1       546 1.92228E-04 3.11363E-04 3.30872E-24
 -1       547 1.89269E-04 2.34788E-04 0.00000E+00
 -1       548 1.86338E-04 1.58587E-04 3.30872E-24
 -1       549 1.84223E-04 9.44412E-05 0.00000E+00
 -1       550 1.83124E-04 5.03834E-05 1.65436E-24
 -1       551 1.86214E-04-8.58179E-06 0.00000E+00
 -1       552 1.57779E-04-9.23290E-06 0.00000E+00
 -1       553 1.27051E-04-9.94600E-06 0.00000E+00
 -1       554 9.49887E-05-1.07000E-05-3.30872E-24
 -1       555 6.25521E-05-1.14674E-05-1.32349E-23
 -1       556 2.03762E-04 1.15468E-05 5.29396E-23
 -1       557 1.97582E-04 2.74110E-05 0.00000E+00
 -1       558 1.92735E-04 3.98694E-05 0.00000E+00
 -1       559 1.89089E-04 4.92322E-05-2.64698E-23
 -1       560 1.86515E-04 5.58101E-05 0.00000E+00
 -1       561 1.84885E-04 5.99160E-05 0.00000E+00
 -1       562 1.84072E-04 6.18645E-05 0.00000E+00
 -1       563 1.83954E-04 6.19709E-05 0.00000E+00
 -1       564 1.84408E-04 6.05512E-05 0.00000E+00
 -1       565 1.85314E-04 5.79225E-05 0.00000E+00
 -1       566 1.86553E-04 5.44020E-05 0.00000E+00
 -1       567 1.88004E-04 5.03077E-05 0.00000E+00
 -1       568 1.89550E-04 4.59575E-05 0.00000E+00
 -1       569 1.91074E-04 4.16693E-05 0.00000E+00
 -1       570 1.92457E-04 3.77612E-05 0.00000E+00
 -1       571 1.82934E-04 3.21989E-05-3.30872E-24
 -1       572 1.83033E-04 3.00112E-05-8.27181E-25
 -1       573 1.83132E-04 2.77734E-05-1.65436E-24
 -1       574 1.83231E-04 2.55020E-05-8.27181E-25
 -1       575 1.83330E-04 2.32132E-05 3.30872E-24
 -1       576 1.83430E-04 2.09237E-05 0.00000E+00
 -1       577 1.83529E-04 1.86498E-05-3.30872E-24
 -1       578 1.83629E-04 1.64082E-05 0.00000E+00
 -1       579 1.83729E-04 1.42153E-05 0.00000E+00
 -1       580 1.83828E-04 1.20877E-05 0.00000E+00
 -1       581 1.83928E-04 1.00418E-05 6.61744E-24
 -1       582 1.84028E-04 8.09413E-06 0.00000E+00
 -1       583 1.84129E-04 6.26122E-06 0.00000E+00
 -1       584 1.84229E-04 4.55935E-06-3.30872E-24
 -1       585 1.84330E-04 3.00468E-06 0.00000E+00
 -1       586 1.84587E-04 3.43606E-05 1.65436E-24
 -1       587 1.86296E-04 3.43998E-05 4.13590E-25
 -1       588 1.88007E-04 3.44387E-05-8.27181E-25
 -1       589 1.89763E-04 3.44768E-05 0.00000E+00
 -1       590 1.91607E-04 3.45137E-05 0.00000E+00
 -1       591 1.83565E-04 3.22925E-05-1.03398E-25
 -1       592 1.84295E-04 3.02442E-05 0.00000E+00
 -1       593 1.85030E-04 2.81818E-05 0.00000E+00
 -1       594 1.85768E-04 2.61099E-05 0.00000E+00
 -1       595 1.86508E-04 2.40335E-05-8.27181E-25
 -1       596 1.87248E-04 2.19571E-05-4.13590E-25
 -1       597 1.87986E-04 1.98855E-05-8.27181E-25
 -1       598 1.88720E-04 1.78234E-05-4.13590E-25
 -1       599 1.89449E-04 1.57755E-05-8.27181E-25
 -1       600 1.90171E-04 1.37464E-05-4.13590E-25
 -1       601 1.90885E-04 1.17408E-05 0.00000E+00
 -1       602 1.91587E-04 9.76353E-06-4.13590E-25
 -1       603 1.92278E-04 7.81918E-06 0.00000E+00
 -1       604 1.92955E-04 5.91256E-06-1.03398E-25
 -1       605 1.93617E-04 4.04830E-06 0.00000E+00
 -1       606 1.84443E-04 4.52565E-07 0.00000E+00
 -1       607 1.84453E-04-6.20999E-07 0.00000E+00
 -1       608 1.84462E-04-1.61374E-06 0.00000E+00
 -1       609 1.84470E-04-2.53134E-06 0.00000E+00
 -1       610 1.84479E-04-3.37955E-06 0.00000E+00
 -1       611 1.84487E-04-4.16415E-06 0.00000E+00
 -1       612 1.84495E-04-4.89095E-06 0.00000E+00
 -1       613 1.84504E-04-5.56576E-06 0.00000E+00
 -1       614 1.84512E-04-6.19439E-06 0.00000E+00
 -1       615 1.84520E-04-6.78266E-06 0.00000E+00
 -1       616 1.84529E-04-7.33638E-06 0.00000E+00
 -1       617 1.84537E-04-7.86136E-06 0.00000E+00
 -1       618 1.84546E-04-8.36340E-06 0.00000E+00
 -1       619 1.84554E-04-8.84834E-06-2.06795E-25
 -1       620 1.84562E-04-9.32197E-06 2.06795E-25
 -1       621 1.85784E-04 1.71593E-06-1.65436E-24
 -1       622 1.87296E-04 1.82012E-06 8.27181E-25
 -1       623 1.88934E-04 1.92409E-06-3.30872E-24
 -1       624 1.90664E-04 2.02774E-06-8.27181E-25
 -1       625 1.92452E-04 2.13109E-06 3.30872E-24
 -1       626 1.84977E-04 4.88664E-07 0.00000E+00
 -1       627 1.85501E-04-5.71587E-07 0.00000E+00
 -1       628 1.86005E-04-1.57662E-06 0.00000E+00
 -1       629 1.86491E-04-2.53459E-06 0.00000E+00
 -1       630 1.86962E-04-3.45371E-06 3.30872E-24
 -1       631 1.87423E-04-4.34218E-06 0.00000E+00
 -1       632 1.87874E-04-5.20819E-06 3.30872E-24
 -1       633 1.88321E-04-6.05999E-06 0.00000E+00
 -1       634 1.88765E-04-6.90577E-06 3.30872E-24
 -1       635 1.89210E-04-7.75373E-06 1.65436E-24
 -1       636 1.89659E-04-8.61210E-06 0.00000E+00
 -1       637 1.90115E-04-9.48910E-06 0.00000E+00
 -1       638 1.90581E-04-1.03929E-05 3.30872E-24
 -1       639 1.91059E-04-1.13318E-05 0.00000E+00
 -1       640 1.91554E-04-1.23140E-05-1.65436E-24
 -1       656 1.85271E-04-1.03683E-05-6.61744E-24
 -1       657 1.86391E-04-1.09701E-05 0.00000E+00
 -1       658 1.87792E-04-1.15705E-05 0.00000E+00
 -1       659 1.89328E-04-1.21705E-05-6.61744E-24
 -1       660 1.90813E-04-1.27723E-05 6.61744E-24
 -1       661 1.84832E-04-1.03033E-05-8.27181E-25
 -1       662 1.85132E-04-1.09083E-05 0.00000E+00
 -1       663 1.85464E-04-1.16000E-05 1.65436E-24
 -1       664 1.85827E-04-1.23717E-05 8.27181E-25
 -1       665 1.86218E-04-1.32177E-05 0.00000E+00
 -1       666 1.86634E-04-1.41321E-05 0.00000E+00
 -1       667 1.87074E-04-1.51092E-05-1.65436E-24
 -1       668 1.87535E-04-1.61434E-05-8.27181E-25
 -1       669 1.88015E-04-1.72293E-05-1.65436E-24
 -1       670 1.88513E-04-1.83617E-05 8.27181E-25
 -1       671 1.89026E-04-1.95352E-05 1.65436E-24
 -1       672 1.89552E-04-2.07449E-05 0.00000E+00
 -1       673 1.90090E-04-2.19857E-05-1.65436E-24
 -1       674 1.90637E-04-2.32529E-05 0.00000E+00
 -1       675 1.91192E-04-2.45412E-05 2.06795E-25
 -1       676 1.85028E-04-2.53300E-05 0.00000E+00
 -1       677 1.86377E-04-2.54343E-05-1.65436E-24
 -1       678 1.87724E-04-2.55384E-05 0.00000E+00
 -1       679 1.89069E-04-2.56423E-05 1.65436E-24
 -1       680 1.90411E-04-2.57461E-05-1.65436E-24
 -1       771 1.87604E-05 1.44476E-05 0.00000E+00
 -1       772 8.71709E-06 3.63705E-05 0.00000E+00
 -1       773 4.75945E-07 5.37570E-05 0.00000E+00
 -1       774-6.08710E-06 6.68647E-05 2.64698E-23
 -1       775-1.10934E-05 7.59613E-05-5.29396E-23
 -1       776-1.46693E-05 8.13313E-05 2.64698E-23
 -1       777-1.69407E-05 8.32695E-05 0.00000E+00
 -1       778-1.80363E-05 8.20841E-05-2.64698E-23
 -1       779-1.80842E-05 7.80922E-05 0.00000E+00
 -1       780-1.72144E-05 7.16220E-05 0.00000E+00
 -1       781-1.55559E-05 6.30086E-05-5.29396E-23
 -1       782-1.32395E-05 5.25960E-05 0.00000E+00
 -1       783-1.03949E-05 4.07326E-05-5.29396E-23
 -1       784-7.15311E-06 2.77732E-05 2.64698E-23
 -1       785-3.64422E-06 1.40756E-05 0.00000E+00
 -1       786 1.93621E-04 3.23002E-05 0.00000E+00
 -1       787 1.93663E-04 3.01035E-05-4.13590E-25
 -1       788 1.93704E-04 2.79483E-05-8.27181E-25
 -1       789 1.93747E-04 2.58267E-05 8.27181E-25
 -1       790 1.93790E-04 2.37337E-05-1.65436E-24
 -1       791 1.93833E-04 2.16647E-05 0.00000E+00
 -1       792 1.93876E-04 1.96175E-05 0.00000E+00
 -1       793 1.93919E-04 1.75899E-05-8.27181E-25
 -1       794 1.93962E-04 1.55818E-05 1.65436E-24
 -1       795 1.94005E-04 1.35930E-05 0.00000E+00
 -1       796 1.94048E-04 1.16253E-05 0.00000E+00
 -1       797 1.94091E-04 9.68077E-06 0.00000E+00
 -1       798 1.94134E-04 7.76354E-06 0.00000E+00
 -1       799 1.94178E-04 5.87800E-06-8.27181E-25
 -1       800 1.94221E-04 4.03168E-06 1.65436E-24
 -1       801 1.47868E-04 3.10555E-05 0.00000E+00
 -1       802 9.64464E-06 1.93763E-05 2.64698E-23
 -1       803-1.08446E-04 9.78641E-06-5.29396E-23
 -1       804-9.61749E-05 6.81043E-06 0.00000E+00
 -1       805-3.17706E-05 2.67806E-06 0.00000E+00
 -1       806 1.94309E-04 3.22314E-05-1.65436E-24
 -1       807 1.95023E-04 2.99421E-05 0.00000E+00
 -1       808 1.95724E-04 2.76841E-05 0.00000E+00
 -1       809 1.96411E-04 2.54613E-05 1.65436E-24
 -1       810 1.97083E-04 2.32780E-05 0.00000E+00
 -1       811 1.97740E-04 2.11380E-05 0.00000E+00
 -1       812 1.98378E-04 1.90454E-05 0.00000E+00
 -1       813 1.98998E-04 1.70039E-05 0.00000E+00
 -1       814 1.99597E-04 1.50176E-05 0.00000E+00
 -1       815 2.00174E-04 1.30904E-05-1.65436E-24
 -1       816 2.00727E-04 1.12262E-05-1.65436E-24
 -1       817 2.01256E-04 9.42884E-06 0.00000E+00
 -1       818 2.01758E-04 7.70229E-06-1.65436E-24
 -1       819 2.02232E-04 6.05044E-06-8.27181E-25
 -1       820 2.02678E-04 4.47711E-06 0.00000E+00
 -1       821 1.94136E-04-1.23438E-07 0.00000E+00
 -1       822 1.93996E-04-3.63304E-06 1.65436E-24
 -1       823 1.93853E-04-7.86859E-06 0.00000E+00
 -1       824 1.93708E-04-1.23976E-05-1.65436E-24
 -1       825 1.93564E-04-1.67081E-05 0.00000E+00
 -1       826 1.93422E-04-2.02897E-05-1.65436E-24
 -1       827 1.93284E-04-2.28303E-05 0.00000E+00
 -1       828 1.93147E-04-2.40242E-05 0.00000E+00
 -1       829 1.93012E-04-2.39323E-05 0.00000E+00
 -1       830 1.92875E-04-2.26235E-05 1.65436E-24
 -1       831 1.92737E-04-2.04977E-05 0.00000E+00
 -1       832 1.92599E-04-1.79599E-05 0.00000E+00
 -1       833 1.92461E-04-1.55276E-05 0.00000E+00
 -1       834 1.92326E-04-1.37173E-05 0.00000E+00
 -1       835 1.92191E-04-1.28767E-05 0.00000E+00
 -1       836 1.95949E-04 2.35725E-06 3.30872E-24
 -1       837 1.97506E-04 2.48541E-06 1.65436E-24
 -1       838 1.98967E-04 2.61352E-06 0.00000E+00
 -1       839 2.00364E-04 2.74091E-06 8.27181E-25
 -1       840 2.01730E-04 2.86815E-06-8.27181E-25
 -1       856 1.92049E-04-1.44041E-05 0.00000E+00
 -1       857 1.92029E-04-1.53246E-05 0.00000E+00
 -1       858 1.92010E-04-1.61305E-05-2.06795E-25
 -1       859 1.91990E-04-1.68429E-05 0.00000E+00
 -1       860 1.91971E-04-1.74831E-05 0.00000E+00
 -1       861 1.91951E-04-1.80722E-05 2.06795E-25
 -1       862 1.91931E-04-1.86318E-05 0.00000E+00
 -1       863 1.91911E-04-1.91829E-05-4.13590E-25
 -1       864 1.91891E-04-1.97471E-05-8.27181E-25
 -1       865 1.91872E-04-2.03457E-05 4.13590E-25
 -1       866 1.91852E-04-2.09999E-05-8.27181E-25
 -1       867 1.91832E-04-2.17310E-05-4.13590E-25
 -1       868 1.91812E-04-2.25603E-05 0.00000E+00
 -1       869 1.91791E-04-2.35088E-05 0.00000E+00
 -1       870 1.91771E-04-2.45977E-05-8.27181E-25
 -1       871 1.93409E-04-1.33528E-05-8.27181E-25
 -1       872 1.94900E-04-1.33611E-05 0.00000E+00
 -1       873 1.96471E-04-1.33701E-05 4.13590E-25
 -1       874 1.98052E-04-1.33799E-05-3.10193E-25
 -1       875 1.99577E-04-1.33902E-05-1.24077E-24
 -1       876 1.92588E-04-1.43895E-05-3.30872E-24
 -1       877 1.93089E-04-1.53644E-05 0.00000E+00
 -1       878 1.93568E-04-1.62804E-05 0.00000E+00
 -1       879 1.94029E-04-1.71450E-05 0.00000E+00
 -1       880 1.94473E-04-1.79656E-05 0.00000E+00
 -1       881 1.94903E-04-1.87494E-05 0.00000E+00
 -1       882 1.95322E-04-1.95040E-05 3.30872E-24
 -1       883 1.95733E-04-2.02366E-05 0.00000E+00
 -1       884 1.96139E-04-2.09546E-05 3.30872E-24
 -1       885 1.96542E-04-2.16653E-05-1.65436E-24
 -1       886 1.96945E-04-2.23760E-05 0.00000E+00
 -1       887 1.97350E-04-2.30941E-05 0.00000E+00
 -1       888 1.97761E-04-2.38269E-05 0.00000E+00
 -1       889 1.98180E-04-2.45820E-05 0.00000E+00
 -1       890 1.98608E-04-2.53667E-05-1.65436E-24
 -1       891 1.93107E-04-2.59053E-05 0.00000E+00
 -1       892 1.94442E-04-2.59629E-05-8.27181E-25
 -1       893 1.95728E-04-2.60205E-05 8.27181E-25
 -1       894 1.96941E-04-2.60778E-05 8.27181E-25
 -1       895 1.98054E-04-2.61349E-05 4.13590E-25
 -1       956 2.02964E-04 1.66979E-06 0.00000E+00
 -1       957 2.02832E-04 4.45026E-07 1.65436E-24
 -1       958 2.02699E-04-6.98915E-07-3.30872E-24
 -1       959 2.02566E-04-1.77337E-06 0.00000E+00
 -1       960 2.02434E-04-2.78972E-06-3.30872E-24
 -1       961 2.02301E-04-3.75939E-06-1.65436E-24
 -1       962 2.02168E-04-4.69379E-06 0.00000E+00
 -1       963 2.02035E-04-5.60439E-06 1.65436E-24
 -1       964 2.01903E-04-6.50262E-06 0.00000E+00
 -1       965 2.01770E-04-7.39991E-06 1.65436E-24
 -1       966 2.01637E-04-8.30772E-06 3.30872E-24
 -1       967 2.01504E-04-9.23750E-06 0.00000E+00
 -1       968 2.01372E-04-1.02007E-05 6.61744E-24
 -1       969 2.01239E-04-1.12086E-05-3.30872E-24
 -1       970 2.01107E-04-1.22727E-05 0.00000E+00
 -1       971 2.00857E-04-1.45347E-05 0.00000E+00
 -1       972 2.00736E-04-1.55709E-05 1.65436E-24
 -1       973 2.00614E-04-1.65230E-05 0.00000E+00
 -1       974 2.00493E-04-1.74018E-05 1.65436E-24
 -1       975 2.00371E-04-1.82181E-05-3.30872E-24
 -1       976 2.00250E-04-1.89828E-05 0.00000E+00
 -1       977 2.00129E-04-1.97068E-05 0.00000E+00
 -1       978 2.00007E-04-2.04010E-05-1.65436E-24
 -1       979 1.99886E-04-2.10763E-05 0.00000E+00
 -1       980 1.99765E-04-2.17437E-05 0.00000E+00
 -1       981 1.99643E-04-2.24139E-05 3.30872E-24
 -1       982 1.99522E-04-2.30980E-05 0.00000E+00
 -1       983 1.99401E-04-2.38068E-05 3.30872E-24
 -1       984 1.99281E-04-2.45512E-05 0.00000E+00
 -1       985 1.99160E-04-2.53421E-05 0.00000E+00
 -3
    1PSTEP                        42          21           1          
  100CL  121 6.62882E-01         409                     0   21           1
 -4  STRESS      6    1
 -5  SXX         1    4    1    1
 -5  SYY         1    4    2    2
 -5  SZZ         1    4    3    3
 -5  SXY         1    4    1    2
 -5  SYZ         1    4    2    3
 -5  SZX         1    4    3    1
 -1         1-5.28599E+06-1.66074E+06-1.12942E+06-1.45229E+06-1.25146E-09-7.30797E-08
 -1         2 1.27140E+06 1.87259E+07 4.44354E+06 5.62478E+06 2.89583E-08-2.09693E-08
 -1         3-1.58738E+03-1.63815E+06 2.75255E+02-2.66251E+03 9.06908E-10 5.63232E-08
 -1         5-7.47022E+01 3.86380E+05 9.98450E+00-1.33719E+00-5.66782E-10-7.09952E-09
 -1         8-5.96195E+05-2.10439E+05-6.84341E+04-2.54516E+05 3.61069E-10 4.79267E-08
 -1         9 1.14937E+07 3.26345E+06 2.63568E+06-4.64124E+05-1.24564E-08 7.14790E-08
 -1        10-1.47535E+03-1.67369E+06-3.48326E+03-1.66555E+04-4.67116E-09 3.58602E-09
 -1        12-7.07813E+01 3.86401E+05 3.28177E+02-9.11618E+00-7.02258E-10 5.74801E-10
 -1        15 9.73521E+02 5.35000E+02 3.14687E+03 9.35723E-01 1.89203E-10 7.88368E-08
 -1        16 2.26784E+07-2.99513E+05 3.09667E+06-2.17749E+06 6.53866E-09 1.51185E-07
 -1        17 8.28741E+06 6.20659E+06 2.23983E+06 5.94689E+06 2.31375E-08 2.25380E-08
 -1        18 1.42432E+05 3.35349E+04 4.19090E+03-1.19518E+05 1.16945E-08-6.66796E-09
 -1        19 1.22387E+05 1.41670E+05-9.42095E+02 2.19601E+04 1.48993E-09-7.16900E-09
 -1        20-8.18972E+04-5.73555E+05-1.28698E+05 2.51306E+04-1.70500E-09 2.20189E-08
 -1        21-4.55831E+01-2.95975E+05-9.23906E+02 2.74025E+02 1.51053E-08-2.88486E-09
 -1        24 1.38299E+07 1.19206E+07 3.83440E+06 1.10416E+07-1.71354E-07-5.57823E-08
 -1        25 1.24248E+05 2.64335E+05 9.92544E+04-6.43814E+05-1.71376E-09 4.92582E-10
 -1        26-5.53298E+04 9.23084E+04-2.46136E+04 1.26354E+03 3.71074E-11 9.74090E-09
 -1        27-7.55911E+04-3.09880E+05-1.13286E+05 6.89565E+04 3.02650E-09 1.03961E-08
 -1        28 2.22397E+04-8.53324E+04 1.68955E+04 2.06174E+04-4.18555E-09 4.15649E-09
 -1        32-1.68008E+06-3.17748E+06-1.96878E+05 4.54033E+05-4.21933E-08-1.67554E-08
 -1        33-1.78409E+05 9.29980E+04 3.23838E+04-3.85217E+04-3.13131E-09-1.27817E-08
 -1        34-2.23553E+05-2.50244E+04 6.89414E+02 7.56352E+04-4.69336E-09-1.07091E-08
 -1        35-2.29286E+04-3.38407E+04-1.34818E+03 5.14907E+04-5.20201E-09 3.15534E-09
 -1        51 5.97511E+04-1.77538E+05 1.26589E+05-4.61720E+05-1.45519E-11 1.05676E-07
 -1        52 2.03389E+04-1.55570E+05 6.65808E+04-5.38466E+05 2.27374E-10 2.90420E-08
 -1        53 4.28191E+03-1.70973E+05 3.49283E+04-4.60115E+05 7.18501E-10 4.11528E-08
 -1        54 7.80662E+03-1.66788E+05 2.92148E+04-5.40053E+05 2.76486E-10-4.02724E-09
 -1        55 1.69594E+04-1.74083E+05 3.61402E+04-4.59998E+05 5.67525E-10 2.47219E-07
 -1        56-9.66150E+06-1.27023E+06-8.76718E+05-3.96577E+06-1.53377E-08-1.65048E-07
 -1        57-1.07781E+07-1.05387E+06-5.53939E+05-2.90664E+06 2.64045E-08 1.68824E-07
 -1        58-9.59032E+06-1.68638E+06-1.97957E+05-4.09467E+06-3.17305E-08 3.96540E-09
 -1        59-1.08116E+07-5.92034E+05-1.11789E+05-2.85795E+06-9.67293E-09-3.46477E-07
 -1        60-9.66781E+06-1.69350E+06-5.26277E+04-4.05118E+06 1.81572E-08-1.88120E-08
 -1        61-1.03637E+07-8.29314E+05-2.10726E+03-3.07935E+06 3.03662E-08-3.43189E-08
 -1        62-9.95994E+06-1.50143E+06-4.84720E+04-3.81304E+06 5.02041E-10-3.82424E-08
 -1        63-9.73672E+06-1.34926E+06 2.60913E+04-3.61862E+06 1.11759E-08 6.62476E-08
 -1        64-1.02361E+07-1.21505E+06-4.43425E+04-3.47367E+06-3.99741E-08 7.39965E-08
 -1        65-9.41048E+06-1.80803E+06-3.13486E+03-4.26425E+06-2.48692E-08-7.94898E-08
 -1        66-1.03572E+07-9.93346E+05-4.44603E+04-3.22044E+06 4.40596E-08-2.87026E-07
 -1        67-9.37799E+06-2.02103E+06-1.00850E+05-4.56291E+06-7.79437E-08 1.71513E-08
 -1        68-1.03384E+07-9.54007E+05-1.81668E+05-3.21989E+06-3.21229E-08-2.22426E-07
 -1        69-9.59958E+06-2.14805E+06-4.95521E+05-4.23090E+06-3.58061E-08-3.47653E-07
 -1        70-1.00740E+07-9.20410E+05-7.99682E+05-3.50838E+06 2.08456E-09 1.21305E-07
 -1        86-1.29606E+06-1.40163E+07-2.42930E+06-2.65165E+06-2.54950E-07 1.02576E-07
 -1        87 2.00164E+06 5.19253E+06 2.02158E+06 5.06844E+06-4.22304E-07-4.12638E-08
 -1        88-3.58593E+05-2.13063E+06 1.86316E+05-2.35193E+06-4.24161E-07 1.93354E-08
 -1        89 2.68468E+06 4.95577E+06 2.06796E+06 5.22534E+06-5.68725E-07-1.93904E-08
 -1        90-1.90456E+06-1.38416E+07-2.63105E+06-2.82983E+06-1.32230E-07 2.41998E-07
 -1       121-2.17780E+03-1.64376E+06-8.63980E+02 1.32026E+03 2.20737E-10 6.45377E-09
 -1       122-1.43361E+03-1.63829E+06 4.14961E+02-5.32465E+03 5.31892E-09 5.90808E-09
 -1       123-2.15012E+03-1.64386E+06-5.47886E+02 3.93900E+03 2.05114E-09-4.43833E-10
 -1       124-3.84476E+02-1.63836E+06 1.29408E+03-1.10180E+04 1.13359E-08 1.57088E-08
 -1       125-2.53954E+03-1.64439E+06 6.18953E+02 6.95964E+03 3.55431E-09-6.41376E-09
 -1       191-7.87248E+01 3.86398E+05 8.51907E+00 6.97026E-01-5.36023E-10-1.43718E-08
 -1       192-7.56658E+01 3.86380E+05 2.13053E+01-4.28849E+00-7.64052E-10-1.68939E-08
 -1       193-8.12614E+01 3.86398E+05 3.63001E+01 3.76556E+00-1.11228E-09-2.00089E-09
 -1       194-7.87553E+01 3.86384E+05 8.09896E+01-9.73149E+00-5.07249E-10 1.25056E-08
 -1       195-8.61302E+01 3.86395E+05 1.55084E+02 6.33139E+00-1.42716E-09-1.80698E-08
 -1       251-9.37044E+05 1.80932E+04-4.23756E+04-1.55471E+04-4.28997E-10 1.39491E-07
 -1       252-9.54010E+05-2.08859E+04-2.96319E+04 5.32101E+04-1.09241E-08 1.19374E-07
 -1       253-9.45530E+05 2.81748E+03-1.12221E+04-1.26304E+04-3.94914E-09-1.35506E-07
 -1       254-9.40193E+05-3.30311E+03-5.51227E+03 3.99857E+04 2.11486E-08-1.30293E-07
 -1       255-9.50292E+05 1.43710E+02-3.75024E+03-2.32432E+03-1.97360E-09 1.10258E-07
 -1       256-9.33746E+05-3.40480E+02 9.31134E+02 1.55868E+04-3.07296E-10 2.01769E-07
 -1       257-9.51452E+05-5.36676E+02-1.52890E+03 1.17586E+04-1.19053E-09 1.39017E-07
 -1       258-9.35796E+05 8.22070E+02 2.66933E+03-1.13426E+04-4.08704E-09 2.53182E-07
 -1       259-9.48422E+05-8.79764E+02 1.16860E+03 2.46008E+04 5.77779E-09 1.37126E-07
 -1       260-9.42332E+05 2.76203E+03 5.31590E+03-3.12651E+04 1.32902E-08-5.44451E-08
 -1       261-9.45566E+05-1.97518E+03 8.12654E+03 3.16955E+04 1.51970E-08 9.61054E-08
 -1       262-9.41475E+05 1.11033E+04 2.02356E+04-3.72431E+04-7.75265E-09-1.52547E-07
 -1       263-9.49552E+05-8.97719E+03 3.20166E+04 3.05880E+04 3.92754E-09-5.45806E-08
 -1       264-9.12287E+05 6.30658E+04 8.88106E+04-2.71165E+04 3.01591E-08 8.08332E-08
 -1       265-9.74237E+05-5.40996E+04 1.23401E+05 2.15570E+04 2.40084E-09 3.25905E-07
 -1       266-1.76241E+04-8.24180E+03 4.13475E+04-2.00201E+01 2.58296E-10 2.22140E-07
 -1       267 2.04309E+04 9.60480E+03 2.92257E+04 2.31011E+01 4.20641E-10 2.78647E-07
 -1       268-2.73976E+03-1.36037E+03 1.08629E+04-2.94338E+00 1.49157E-10 1.12652E-07
 -1       269 3.23484E+03 1.62801E+03 7.06083E+03 3.42870E+00 1.19599E-10-4.37725E-07
 -1       270-4.85548E+02-2.67491E+02 3.40836E+03-4.65295E-01 1.02773E-10-5.99216E-08
 -1       271-1.55607E+06-1.96160E+05-1.16759E+05-6.04097E+05 3.21161E-08 1.87050E-07
 -1       272-1.56442E+06-3.05653E+05-7.38167E+04-6.32805E+05-1.47156E-08-3.00284E-07
 -1       273-1.58035E+06-2.21809E+05-2.81315E+04-5.96138E+05-2.03509E-08-2.65754E-07
 -1       274-1.53614E+06-2.74948E+05-1.49171E+04-6.47262E+05-2.18060E-08-8.70132E-08
 -1       275-1.58587E+06-2.21898E+05-6.90627E+03-5.92524E+05 3.58887E-08 1.27405E-07
 -1       276-1.53000E+06-2.75506E+05-3.07400E+03-6.55146E+05-4.22951E-08 1.50584E-07
 -1       277-1.58858E+06-2.19539E+05-1.88839E+03-5.89897E+05 2.18115E-08 2.43745E-09
 -1       278-1.52745E+06-2.78644E+05-8.18885E+02-6.60976E+05 3.99805E-08-1.64619E-07
 -1       279-1.59032E+06-2.17532E+05-9.50189E+02-5.88017E+05-1.62108E-08-1.33057E-07
 -1       280-1.52617E+06-2.81124E+05-1.20135E+03-6.64911E+05-2.65027E-09-2.04948E-07
 -1       281-1.59126E+06-2.16181E+05-2.21326E+03-5.86912E+05 1.51158E-09-1.07835E-08
 -1       282-1.52653E+06-2.83681E+05-5.16548E+03-6.66653E+05-3.04399E-08 1.49563E-07
 -1       283-1.59070E+06-2.14649E+05-9.18715E+03-5.86716E+05 1.82996E-08-8.62483E-08
 -1       284-1.53465E+06-2.96009E+05-2.50431E+04-6.64509E+05 1.37240E-09 1.83222E-07
 -1       285-1.58326E+06-2.05150E+05-3.90088E+04-5.88567E+05 7.06791E-09 6.31062E-08
 -1       301-2.41308E+03-6.33191E+05 1.67783E+05-1.10733E+06 1.15979E-08 1.00546E-07
 -1       302-3.08032E+03-5.87479E+05 1.01011E+05-1.61688E+06-1.17216E-08 1.14554E-07
 -1       303-1.80328E+04-6.24439E+05 5.74789E+04-1.10436E+06 4.36557E-10 8.11906E-08
 -1       304-1.90373E+04-5.93488E+05 5.85620E+04-1.61619E+06-1.35915E-08 2.50875E-08
 -1       305-2.18329E+04-6.13708E+05 7.29334E+04-1.10746E+06-7.97809E-09 1.13956E-07
 -1       306-3.00511E+07-6.20557E+06-8.58166E+06-5.74787E+05-7.13626E-08 3.25672E-08
 -1       307 2.53811E+07 3.20273E+06 5.50701E+06-1.50792E+07-8.64282E-07-1.42405E-07
 -1       308-7.05109E+06-1.03193E+06-4.73795E+05 5.19266E+06-9.21427E-08 4.17305E-07
 -1       309-3.32078E+06 8.68892E+06 2.26423E+06-2.05957E+07 3.62706E-07 2.45025E-07
 -1       310-1.24347E+07-1.90955E+06-1.98999E+06 5.19857E+06-1.24157E-07-4.15166E-08
 -1       311 3.79372E+07 2.79223E+04 7.20577E+06-8.91679E+06 3.17144E-07-9.63919E-08
 -1       312-3.17734E+07-6.69379E+06-8.47084E+06-4.92811E+06-2.48547E-07 1.69137E-07
 -1       313 4.53325E+07 1.47214E+07 1.06089E+07 2.35152E+07-2.68919E-07 9.80217E-08
 -1       314-1.72972E+07-1.76157E+07-7.49582E+06-1.24991E+07 5.16302E-07-3.33705E-07
 -1       315-1.68740E+06 2.95181E+07 5.65717E+06 1.06647E+07-1.85712E-07-4.91564E-08
 -1       316 1.33425E+06-9.84464E+06-4.56105E+05-2.59963E+06-1.24981E-06-2.08791E-07
 -1       317-1.71505E+07 2.23401E+07 2.22093E+06-8.67977E+06 6.58300E-07-7.72059E-07
 -1       318-1.06185E+06-1.26685E+07-2.00609E+06-4.24496E+06-9.92644E-07 1.08499E-07
 -1       319 7.07459E+06 3.16709E+07 6.97289E+06 1.64705E+07-7.62884E-08 2.16387E-07
 -1       320-2.24836E+07-1.75148E+07-9.78455E+06-1.27416E+07 1.81026E-07-4.97384E-08
 -1       336-1.13590E+03-1.71169E+06-1.07653E+04 9.52333E+03-2.83999E-08 6.26824E-09
 -1       337-4.24730E+03-1.71095E+06-1.62901E+04-2.26681E+04-5.06416E-08-1.65419E-08
 -1       338 4.84484E+02-1.71071E+06-2.77649E+04 1.29194E+04-3.48027E-08 1.14851E-08
 -1       339-3.01271E+04-1.72877E+06-6.44218E+04-2.92907E+04-6.47087E-08 5.46424E-08
 -1       340 2.03075E+04-1.69598E+06-1.01804E+05 1.60233E+04-4.12547E-08 5.10263E-08
 -1       406-4.90446E+01 3.86380E+05 6.44402E+02 3.33181E+00-1.95365E-09 3.48009E-08
 -1       407 1.55510E+02 3.86515E+05 1.37706E+03 2.33168E+01-5.80485E-10 4.79640E-08
 -1       408 6.35748E+02 3.86280E+05 2.74579E+03-2.69732E+01-2.31830E-09 1.36097E-08
 -1       409 2.90844E+03 3.87392E+05 6.18869E+03 2.87922E+02-2.81489E-10-2.23381E-08
 -1       410 8.48306E+03 3.85490E+05 1.26309E+04-2.77655E+02-2.86127E-09-3.09410E-09
 -1       521-3.15638E+07-7.64650E+06-1.00103E+07-1.86554E+05-9.61591E-08-6.99656E-08
 -1       522 2.62027E+07 4.19533E+06 5.60433E+06-1.85503E+07-5.62635E-07-4.29311E-07
 -1       523-7.63367E+06-1.34058E+06-4.66117E+05 5.63463E+06 1.51922E-07-3.17785E-07
 -1       524-6.81062E+06 1.17001E+07 2.44496E+06-2.36280E+07 7.65576E-07-6.37374E-07
 -1       525-1.32353E+07-2.52975E+06-2.18443E+06 5.64100E+06 5.35219E-07-2.19530E-07
 -1       526 4.13324E+07-5.60384E+04 7.55367E+06-1.15539E+07-5.82077E-10 2.29047E-08
 -1       527-3.35808E+07-8.37037E+06-9.74942E+06-4.78670E+06 2.13389E-07 6.80884E-08
 -1       528 4.94395E+07 1.63569E+07 1.10509E+07 2.66926E+07-3.47500E-08-7.31088E-08
 -1       529-1.82322E+07-1.97852E+07-8.58160E+06-1.25256E+07 2.62517E-08-3.59723E-08
 -1       530-4.16145E+06 3.42337E+07 5.97742E+06 1.01593E+07-6.56539E-07 5.28293E-07
 -1       531 1.32497E+06-1.09139E+07-4.30550E+05-2.56285E+06-7.84523E-07 3.73519E-07
 -1       532-1.96983E+07 2.43449E+07 2.42290E+06-1.29069E+07 6.56117E-07-7.36938E-07
 -1       533-1.10883E+06-1.38035E+07-2.13089E+06-4.06961E+06-2.01311E-07-9.81789E-07
 -1       534 5.05174E+06 3.66941E+07 7.24666E+06 1.70178E+07-6.65314E-08 7.23638E-07
 -1       535-2.36406E+07-1.98652E+07-1.12004E+07-1.28005E+07 1.41794E-07 4.62926E-07
 -1       536-7.06625E+05-4.71643E+04-4.73637E+04-5.47208E+04-3.42789E-09 5.67170E-08
 -1       537-5.43916E+04 4.51630E+04 8.46164E+04 1.23916E+05-1.11791E-07 1.01754E-07
 -1       538-3.94510E+05 3.28588E+03 3.77197E+03-7.22431E+04 3.60609E-08 1.02897E-07
 -1       539-2.68976E+05 2.92566E+03 2.50756E+04 1.38817E+05 1.80967E-07 1.02426E-07
 -1       540-4.97428E+05-4.35105E+02-2.12752E+04-7.01575E+04 2.97428E-08 1.03657E-07
 -1       541 1.47019E+05 1.69957E+04 1.06497E+05 9.80065E+04-9.29595E-09 8.64455E-08
 -1       542-7.99295E+05-2.01537E+04-8.42914E+04-3.05562E+04 5.01600E-08 4.09515E-08
 -1       543 4.06011E+05 2.73520E+04 1.58119E+05-1.33506E+04-1.31095E-08-2.12949E-08
 -1       544-7.49473E+05-1.65537E+04-7.49041E+04 4.05295E+04 3.12502E-09-4.59558E-08
 -1       545 2.93519E+04 9.49377E+03 7.98948E+04-1.13688E+05 2.66189E-08-6.79081E-08
 -1       546-4.32752E+05 6.10025E+03-1.22412E+04 6.94342E+04 1.45030E-08-7.99843E-08
 -1       547-2.87067E+05-4.65828E+03 1.06059E+04-1.41669E+05-1.10018E-07-1.27682E-07
 -1       548-4.41562E+05 4.72290E+03-2.38881E+04 6.92021E+04-1.12865E-07-1.00913E-07
 -1       549 4.84870E+04 1.61089E+04 6.06000E+04-1.11557E+05-7.87109E-08-6.86471E-08
 -1       550-7.59326E+05-2.21810E+04-1.29033E+05 3.86061E+04 8.59109E-09-3.83370E-08
 -1       551 4.09653E+04-7.56438E+05-1.53486E+04-1.24727E+06-1.03610E-07-4.91855E-09
 -1       552 9.33549E+04-8.01286E+05 1.02572E+04-1.77853E+06-7.40984E-08 2.37196E-08
 -1       553 7.17651E+04-7.97645E+05 3.23037E+04-1.24063E+06-1.23662E-07 2.55241E-08
 -1       554 1.32050E+05-8.16949E+05 8.14238E+04-1.78047E+06-7.55099E-08 2.18060E-08
 -1       555 1.01488E+05-8.21201E+05 1.48611E+05-1.24048E+06-1.25910E-07-1.19853E-08
 -1       556 2.23476E+05-3.83235E+05 2.67183E+04-4.07095E+05-2.58733E-08-1.29803E-08
 -1       557 3.54152E+05-4.87570E+05 1.66468E+04-5.27316E+05-4.90400E-09 4.54020E-09
 -1       558 2.05329E+05-3.76215E+05 2.53768E+03-4.11408E+05-1.80735E-08 2.30357E-08
 -1       559 3.29045E+05-4.87770E+05 2.54445E+03-5.47747E+05 2.90456E-08 5.18776E-09
 -1       560 1.90045E+05-3.66630E+05-1.45583E+03-4.22422E+05 1.39989E-08-2.43017E-09
 -1       561 3.09825E+05-4.80086E+05 1.53100E+02-5.60849E+05 5.45697E-09-1.03610E-08
 -1       562 1.77955E+05-3.59118E+05-1.31551E+03-4.31178E+05 3.79805E-09-1.16524E-08
 -1       563 2.95462E+05-4.73824E+05-3.20003E+01-5.70230E+05-4.80941E-09-1.73586E-08
 -1       564 1.69325E+05-3.53741E+05-5.98692E+02-4.37294E+05-3.05590E-10-2.43026E-08
 -1       565 2.85934E+05-4.69675E+05 2.46261E+01-5.76318E+05 6.93399E-09 1.44000E-08
 -1       566 1.64279E+05-3.50548E+05-2.60110E+02-4.40824E+05-3.55794E-09-8.05085E-09
 -1       567 2.81300E+05-4.67659E+05-3.62806E+02-5.79133E+05 2.27228E-08-7.27596E-11
 -1       568 1.62906E+05-3.49707E+05-1.12605E+03-4.41880E+05-1.33605E-09 1.50139E-08
 -1       569 2.80172E+05-4.67584E+05-2.84411E+03-5.77709E+05-7.58791E-09 5.50790E-09
 -1       570 1.66299E+05-3.52937E+05-6.21637E+03-4.40862E+05 7.90897E-09 6.16637E-09
 -1       571 2.90452E+05 1.05048E+04 1.49865E+04-9.52199E+04 3.47427E-09 5.82622E-09
 -1       572 2.92624E+05 3.95939E+03 7.34460E+03-1.04466E+05 4.68572E-09-5.74255E-09
 -1       573 2.91315E+05 1.24548E+03 3.26344E+03-9.50432E+04-1.56606E-08 1.03901E-08
 -1       574 2.91528E+05 7.27104E+02 1.63659E+03-1.04690E+05-4.04643E-08 1.10686E-09
 -1       575 2.91408E+05 4.47981E+02 7.72426E+02-9.50190E+04-2.30847E-08 1.41426E-09
 -1       576 2.91392E+05 4.59332E+02 3.95479E+02-1.04720E+05-1.09367E-08 3.75985E-09
 -1       577 2.91448E+05 3.89900E+02 1.97424E+02-9.50157E+04-1.22727E-08 1.41572E-08
 -1       578 2.91423E+05 4.21270E+02 1.14044E+02-1.04724E+05-6.67569E-09-2.09639E-09
 -1       579 2.91520E+05 3.53195E+02 7.83227E+01-9.50154E+04 6.94308E-09-4.54202E-09
 -1       580 2.91525E+05 3.70209E+02 9.08969E+01-1.04720E+05-1.59098E-08-2.58478E-09
 -1       581 2.91634E+05 2.94569E+02 1.37288E+02-9.50213E+04 2.94312E-09-8.45921E-09
 -1       582 2.91700E+05 3.32750E+02 2.79134E+02-1.04658E+05 3.34694E-09-3.76713E-09
 -1       583 2.91775E+05 3.36851E+02 5.35747E+02-9.50779E+04-4.72937E-10 4.00678E-09
 -1       584 2.92076E+05 7.74377E+02 1.21235E+03-1.04181E+05 6.14091E-09 6.97833E-09
 -1       585 2.91801E+05 1.79465E+03 2.45495E+03-9.54971E+04 1.19690E-09 1.45519E-09
 -1       586-3.41809E+03 1.16938E+05-2.90949E+03-2.50609E+05-9.02264E-09-2.03795E-09
 -1       587-1.33540E+03 1.16690E+05 7.75521E+02-2.75813E+05-7.40147E-09 2.12708E-10
 -1       588 4.01047E+02 1.16496E+05 4.76246E+03-2.50470E+05-5.68070E-09-3.89355E-09
 -1       589 5.08885E+03 1.18970E+05 1.23483E+04-2.75580E+05-8.19455E-09-1.67984E-09
 -1       590 1.66160E+04 1.15162E+05 2.59017E+04-2.50902E+05-8.84938E-09 7.21957E-09
 -1       591-7.50717E+04-1.59914E+04-2.25383E+04-3.19983E+04-1.13300E-09-1.03209E-08
 -1       592-7.91604E+04-1.95527E+04-1.22085E+04-3.56275E+04 4.43110E-09-1.33429E-08
 -1       593-7.73258E+04-1.43560E+04-5.08180E+03-3.36508E+04 2.26980E-09-1.87233E-08
 -1       594-7.60485E+04-1.62455E+04-2.53442E+03-3.57453E+04 6.55993E-09 5.46481E-09
 -1       595-7.74976E+04-1.43506E+04-1.16356E+03-3.37259E+04 3.28066E-09 1.41315E-08
 -1       596-7.58354E+04-1.60942E+04-5.91284E+02-3.57200E+04 1.88886E-08 2.90823E-08
 -1       597-7.75192E+04-1.43660E+04-3.21522E+02-3.37288E+04 6.74709E-09-1.72008E-09
 -1       598-7.58144E+04-1.60883E+04-2.57643E+02-3.57129E+04-6.23430E-09-1.08307E-09
 -1       599-7.75179E+04-1.43665E+04-3.28081E+02-3.37284E+04 4.60557E-09-1.73026E-08
 -1       600-7.58355E+04-1.60948E+04-6.08648E+02-3.57179E+04 6.41376E-09-2.29522E-08
 -1       601-7.74933E+04-1.43520E+04-1.20030E+03-3.37249E+04 2.71348E-09-2.02670E-08
 -1       602-7.60552E+04-1.62497E+04-2.61571E+03-3.57401E+04-4.09273E-09-2.06609E-08
 -1       603-7.73132E+04-1.43604E+04-5.24547E+03-3.36483E+04-2.31239E-10-2.87264E-09
 -1       604-7.92849E+04-1.96437E+04-1.26008E+04-3.55936E+04 2.19336E-09-1.03528E-08
 -1       605-7.49666E+04-1.60663E+04-2.32627E+04-3.19620E+04 6.01574E-09 1.05383E-08
 -1       606 2.66962E+04-1.43285E+04-2.56861E+04 2.39874E+04 6.26824E-09-2.68642E-09
 -1       607 2.23073E+04-4.67960E+03-1.27916E+04 2.69567E+04-6.86668E-10-4.62205E-09
 -1       608 2.48087E+04-8.44144E+02-5.72638E+03 2.38187E+04-3.45062E-09-9.84528E-11
 -1       609 2.43292E+04-2.89140E+02-2.89281E+03 2.71708E+04 2.09548E-09 4.90991E-09
 -1       610 2.45951E+04-4.09135E+01-1.38019E+03 2.37986E+04 7.04131E-09 8.10883E-09
 -1       611 2.45198E+04-4.11708E+01-6.95883E+02 2.71939E+04 1.21854E-08 2.12046E-08
 -1       612 2.45480E+04-2.72085E+01-3.30806E+02 2.37966E+04 2.60025E-09 6.10430E-09
 -1       613 2.45314E+04-3.70833E+01-1.48212E+02 2.71966E+04 2.47337E-09 1.55956E-09
 -1       614 2.45258E+04-3.36303E+01-3.46812E+01 2.37959E+04 1.23691E-09 1.03114E-08
 -1       615 2.45261E+04-3.55966E+01 6.22984E+01 2.71970E+04-1.22600E-09 2.75315E-08
 -1       616 2.45085E+04-3.05088E+01 1.86648E+02 2.37961E+04-2.12458E-09-1.01804E-08
 -1       617 2.45486E+04 4.17368E+00 4.25780E+02 2.71965E+04-4.52746E-09-9.14133E-09
 -1       618 2.44715E+04 9.22318E+01 8.58204E+02 2.37964E+04-1.37470E-09-1.05947E-08
 -1       619 2.48515E+04 6.67735E+02 1.92715E+03 2.71959E+04 1.00511E-09-1.74396E-09
 -1       620 2.41865E+04 2.12726E+03 3.87351E+03 2.37980E+04-5.02041E-10-1.26611E-08
 -1       621 5.11770E+02 3.01507E+05 3.89198E+03 4.10261E+04 7.61247E-10-7.10861E-09
 -1       622 6.77816E+02 3.02406E+05 3.45201E+03 5.95610E+04 1.22373E-09-1.11172E-08
 -1       623 1.42677E+02 3.01702E+05 4.14558E+03 4.08406E+04 1.27966E-09 3.50519E-09
 -1       624 2.12716E+03 3.03624E+05 8.03450E+03 5.97436E+04 1.49106E-09-1.29894E-08
 -1       625 2.07834E+03 3.00109E+05 1.40389E+04 4.08374E+04 1.41154E-09 1.73486E-10
 -1       626 2.60831E+05 6.13999E+04 5.11572E+03 1.26719E+05 3.70483E-09-4.04725E-09
 -1       627 2.58513E+05 6.27979E+04 2.46522E+03 1.30991E+05-8.94943E-10-3.12948E-08
 -1       628 2.60959E+05 5.90591E+04 1.04261E+03 1.27588E+05-2.83944E-09-4.46971E-09
 -1       629 2.57878E+05 6.21185E+04 5.10308E+02 1.31231E+05-3.31420E-09 1.49996E-10
 -1       630 2.60973E+05 5.89460E+04 2.36825E+02 1.27625E+05-1.92858E-09-5.04866E-09
 -1       631 2.57811E+05 6.20927E+04 1.27586E+02 1.31232E+05 6.80643E-09-1.58626E-08
 -1       632 2.60970E+05 5.89500E+04 8.42060E+01 1.27621E+05 1.23700E-08 2.12317E-08
 -1       633 2.57803E+05 6.20945E+04 9.41897E+01 1.31229E+05-1.12323E-10-6.31121E-09
 -1       634 2.60965E+05 5.89471E+04 1.52554E+02 1.27620E+05-1.22130E-08 1.36829E-08
 -1       635 2.57817E+05 6.20928E+04 3.08901E+02 1.31234E+05-2.84358E-08 1.63823E-08
 -1       636 2.60956E+05 5.89413E+04 6.23934E+02 1.27620E+05-1.81431E-08-5.49153E-09
 -1       637 2.57952E+05 6.21898E+04 1.37194E+03 1.31234E+05-2.42228E-08 1.02536E-08
 -1       638 2.60907E+05 5.92444E+04 2.81884E+03 1.27483E+05-1.00727E-08-9.00400E-10
 -1       639 2.59433E+05 6.42492E+04 6.66953E+03 1.30798E+05 5.86874E-09 6.85759E-09
 -1       640 2.60703E+05 6.53940E+04 1.38404E+04 1.24892E+05 4.65661E-10 8.17613E-09
 -1       656 6.65750E+04-1.70381E+06-1.60708E+05-2.55315E+03 1.09139E-10 1.79347E-08
 -1       657-8.80729E+04-1.77643E+06-1.33137E+05 5.16895E+03-3.74712E-10-5.04167E-09
 -1       658 2.12218E+04-1.72443E+06-8.19958E+04-4.63699E+03-5.16138E-10 1.86988E-08
 -1       659-9.52378E+04-1.77984E+06-1.42553E+05 6.90003E+03-1.17871E-09 3.64120E-08
 -1       660 7.37239E+04-1.70042E+06-1.76896E+05-4.28422E+03-2.31375E-09 5.89517E-09
 -1       661 1.58597E+05 1.65964E+04 1.67188E+04 6.19994E+04-9.23592E-10-3.65981E-09
 -1       662 1.68050E+05 2.89777E+04 1.12673E+04 5.82485E+04-1.26965E-09-1.32973E-08
 -1       663 1.61881E+05 2.19601E+04 3.94058E+03 6.10464E+04-6.68592E-10-5.71458E-09
 -1       664 1.64242E+05 2.27053E+04 2.35729E+03 5.94127E+04 5.11591E-13 1.15892E-09
 -1       665 1.62380E+05 2.26926E+04 9.29934E+02 6.09009E+04 9.42123E-10 7.87901E-09
 -1       666 1.63652E+05 2.18677E+04 5.44341E+02 5.96024E+04 4.78235E-09-2.72965E-09
 -1       667 1.62467E+05 2.27759E+04 2.89320E+02 6.08645E+04 1.07013E-09-1.23901E-08
 -1       668 1.63556E+05 2.18078E+04 2.95240E+02 5.96554E+04-6.55427E-09-1.82374E-08
 -1       669 1.62475E+05 2.27508E+04 4.00075E+02 6.08482E+04-5.56244E-09 6.26596E-09
 -1       670 1.63653E+05 2.20251E+04 8.71508E+02 5.96583E+04-8.67196E-09-1.46012E-08
 -1       671 1.62370E+05 2.25631E+04 1.54754E+03 6.08595E+04 1.12615E-09-5.38648E-09
 -1       672 1.64555E+05 2.35307E+04 3.95944E+03 5.94398E+04 1.02425E-08 3.24599E-09
 -1       673 1.61578E+05 2.12833E+04 6.63542E+03 6.10522E+04 1.17427E-09 2.13504E-09
 -1       674 1.70870E+05 3.41913E+04 1.89759E+04 5.75844E+04 9.85665E-10-1.19790E-08
 -1       675 1.56095E+05 1.22012E+04 2.81669E+04 6.26029E+04-2.74076E-09 1.61817E-08
 -1       676 2.41128E+01-2.95898E+05-1.11355E+03-1.37017E+02-9.08841E-10-4.18335E-09
 -1       677-2.94567E+02-2.96168E+05-2.03799E+03 2.73813E+02 5.14910E-09-1.20782E-08
 -1       678 1.97566E+02-2.95706E+05-3.60266E+03-1.36706E+02-4.33374E-10 9.90032E-09
 -1       679-3.60273E+03-2.98342E+05-8.55843E+03 2.72630E+02 1.16020E-08 3.14857E-08
 -1       680 2.15103E+03-2.93724E+05-1.37933E+04-1.34324E+02 1.63800E-09 6.57025E-09
 -1       771-3.06282E+06-7.46616E+05-1.64784E+05-1.46563E+06-3.57104E-08-2.83762E-08
 -1       772-2.98573E+06-8.35243E+05-8.49468E+04-1.56810E+06-2.52767E-08 1.20563E-08
 -1       773-3.09416E+06-7.22170E+05-4.33251E+04-1.48006E+06 7.42148E-09 2.30793E-08
 -1       774-2.97629E+06-8.16877E+05-1.93246E+04-1.59379E+06 3.89991E-08-6.41012E-09
 -1       775-3.11055E+06-7.10669E+05-1.44689E+04-1.48708E+06-1.57161E-09-2.18279E-10
 -1       776-2.98858E+06-8.13867E+05-5.40834E+03-1.61322E+06-6.78119E-09 6.05360E-09
 -1       777-3.12477E+06-7.00404E+05-6.39753E+03-1.49327E+06 8.61473E-09 1.64437E-09
 -1       778-3.00141E+06-8.11064E+05-1.80775E+03-1.62991E+06-4.88944E-09 7.51970E-09
 -1       779-3.13699E+06-6.91436E+05-3.19837E+03-1.49856E+06-8.67294E-09-6.58838E-09
 -1       780-3.01271E+06-8.08389E+05-5.30007E+02-1.64351E+06-7.32689E-09-3.02498E-09
 -1       781-3.14671E+06-6.84206E+05-1.24267E+03-1.50270E+06-2.93949E-08-3.65617E-10
 -1       782-3.02142E+06-8.06117E+05 4.48285E+02-1.65355E+06-3.31274E-08-1.00690E-08
 -1       783-3.15356E+06-6.79182E+05 6.97738E+02-1.50560E+06-4.76575E-09-1.19903E-08
 -1       784-3.02625E+06-8.03844E+05 2.89164E+03-1.65975E+06-1.94777E-08 2.00453E-09
 -1       785-3.15761E+06-6.76186E+05 5.10468E+03-1.50744E+06-3.75258E-08 6.85577E-09
 -1       786 1.24209E+05-9.78737E+03 2.26440E+04-3.22799E+02 2.38213E-10 1.04083E-08
 -1       787 1.34030E+05 1.13316E+04 1.60197E+04-1.36593E+02 4.48802E-09 3.24917E-10
 -1       788 1.27996E+05-1.53370E+03 5.85852E+03-2.87698E+02 4.33858E-09 2.39802E-08
 -1       789 1.29619E+05 1.77523E+03 3.67779E+03-1.90363E+02 3.75272E-10 1.81537E-08
 -1       790 1.28621E+05-2.38796E+02 1.48913E+03-2.69046E+02-2.82369E-09 1.66582E-08
 -1       791 1.28888E+05 2.76308E+02 8.60199E+02-2.22280E+02-6.29599E-09-7.07041E-09
 -1       792 1.28727E+05-3.59045E+01 3.64742E+02-2.55784E+02-6.05700E-09 2.19350E-09
 -1       793 1.28761E+05 3.80493E+01 1.82322E+02-2.47240E+02 5.09109E-10-8.11841E-10
 -1       794 1.28748E+05-6.88068E-01 4.83668E+01-2.44086E+02 4.30444E-09 6.19197E-09
 -1       795 1.28725E+05-2.66885E+01-5.53162E+01-2.71668E+02-4.73551E-09 3.25380E-09
 -1       796 1.28764E+05 2.87972E+01-1.58632E+02-2.31355E+02 3.80112E-09-6.22144E-09
 -1       797 1.28632E+05-2.15037E+02-4.36682E+02-3.00933E+02 3.58704E-09 2.50863E-08
 -1       798 1.28841E+05 1.87519E+02-7.09507E+02-2.14821E+02 3.44278E-09 4.82521E-09
 -1       799 1.28093E+05-1.38213E+03-1.95223E+03-3.41891E+02 6.34624E-09-5.41380E-09
 -1       800 1.29302E+05 1.19494E+03-2.76290E+03-1.90398E+02 8.97007E-10 1.13776E-08
 -1       801-1.69898E+05-9.97211E+06-1.38918E+06 1.40892E+06 9.28994E-08-3.94684E-08
 -1       802 7.34167E+05 5.90778E+06 2.17108E+06-1.73849E+06 2.58042E-07-3.97731E-08
 -1       803-5.34173E+05-1.42175E+07-1.88201E+06 8.94506E+05 7.69069E-08 1.95651E-08
 -1       804 2.85511E+05 2.36511E+06 1.52958E+06 6.74812E+05-1.19686E-07-8.80596E-08
 -1       805 1.88815E+05-6.44361E+06-2.84927E+05-9.98737E+05-4.98185E-08-6.09607E-08
 -1       806-3.08766E+05-5.97663E+04-2.28457E+04-1.22399E+05-3.70710E-09 1.16447E-08
 -1       807-3.10558E+05-5.60428E+04-1.12239E+04-1.27949E+05 7.73139E-09 9.28679E-09
 -1       808-3.09394E+05-5.15327E+04-4.76152E+03-1.26291E+05-8.88622E-09 2.49952E-09
 -1       809-3.08198E+05-5.28893E+04-2.32826E+03-1.28225E+05-3.58978E-09 1.98295E-08
 -1       810-3.09488E+05-5.12460E+04-1.06717E+03-1.26463E+05 1.36210E-08 2.25702E-08
 -1       811-3.08015E+05-5.27627E+04-5.30724E+02-1.28189E+05 1.37470E-09-1.65810E-08
 -1       812-3.09502E+05-5.12707E+04-2.68494E+02-1.26462E+05-6.03268E-09-7.12134E-10
 -1       813-3.07990E+05-5.27649E+04-1.74630E+02-1.28170E+05-8.89850E-09 1.84132E-08
 -1       814-3.09495E+05-5.12804E+04-1.73277E+02-1.26458E+05 1.87083E-09 1.73859E-08
 -1       815-3.07994E+05-5.27672E+04-2.79376E+02-1.28163E+05 9.15452E-09 2.97518E-09
 -1       816-3.09474E+05-5.12796E+04-5.29639E+02-1.26454E+05 1.29003E-08 1.80767E-08
 -1       817-3.08083E+05-5.28177E+04-1.13672E+03-1.28151E+05-1.18721E-08 2.08020E-08
 -1       818-3.09405E+05-5.14401E+04-2.31854E+03-1.26378E+05 6.16637E-10 7.18728E-09
 -1       819-3.09352E+05-5.42183E+04-5.45535E+03-1.27850E+05 3.95357E-09 3.33739E-09
 -1       820-3.08968E+05-5.55613E+04-1.11036E+04-1.24618E+05-2.83580E-09 1.50521E-09
 -1       821-3.79002E+05 2.08708E+04-4.85848E+04 2.12853E+03 1.37098E-08-1.28275E-08
 -1       822-3.98703E+05-2.41777E+04-3.41432E+04-4.46819E+03 5.67925E-09-6.01494E-09
 -1       823-3.86465E+05 3.29006E+03-1.25489E+04 3.44236E+03-1.29586E-08 1.14946E-08
 -1       824-3.89694E+05-3.79403E+03-7.85464E+03-5.38397E+03-2.69194E-10 1.36610E-08
 -1       825-3.88018E+05 5.11333E+02-3.28942E+03 3.04443E+03 2.00543E-08 1.29194E-08
 -1       826-3.87258E+05-5.67243E+02-1.74339E+03-3.10709E+03 2.48209E-08-3.61064E-09
 -1       827-3.88875E+05 4.66530E+01-1.19078E+03 1.16533E+03 1.33202E-08-1.78346E-08
 -1       828-3.86550E+05-1.31770E+02-5.84821E+02 1.09494E+03 9.67688E-10-6.90173E-09
 -1       829-3.88714E+05 6.57463E+01-1.17957E+03-1.15763E+03 5.12966E-09 1.46116E-08
 -1       830-3.87608E+05-6.21981E+02-1.88161E+03 4.89249E+03 5.05253E-10 1.87043E-08
 -1       831-3.87840E+05 5.54561E+02-3.37096E+03-2.63223E+03-4.26371E-09 9.49603E-09
 -1       832-3.89774E+05-3.96051E+03-8.15689E+03 6.17714E+03-1.02061E-09 1.10443E-08
 -1       833-3.86564E+05 3.41388E+03-1.30521E+04-2.44233E+03-2.55488E-09 1.69712E-08
 -1       834-3.98762E+05-2.50898E+04-3.53639E+04 4.20152E+03-1.82293E-09 1.17593E-08
 -1       835-3.78835E+05 2.16508E+04-5.04521E+04-6.56530E+02 6.59998E-09-2.81580E-09
 -1       836-1.41428E+03 3.70264E+05 2.29119E+04-1.61949E+04-6.84486E-09 6.30780E-09
 -1       837 4.88407E+03 3.77440E+05 1.93834E+04-3.30928E+04-7.68205E-09-3.77349E-09
 -1       838-5.58050E+02 3.72277E+05 1.97431E+04-1.61233E+04-6.64932E-09-4.52769E-09
 -1       839 1.24224E+04 3.83054E+05 3.73418E+04-3.31452E+04-6.82212E-09 2.03777E-08
 -1       840-3.84074E+03 3.64590E+05 5.95438E+04-1.61483E+04-6.16637E-09-1.19930E-08
 -1       856-5.22429E+04 8.02573E+03-2.11495E+04-3.97644E+02 3.00975E-09 3.08864E-09
 -1       857-6.09560E+04-9.42995E+03-1.45592E+04 5.63349E+03 5.56679E-09 6.18820E-09
 -1       858-5.56935E+04 1.12553E+03-5.48780E+03-4.21749E+02 1.83013E-09-1.08832E-08
 -1       859-5.69961E+04-1.32412E+03-3.31163E+03 5.66935E+03-3.02522E-09 4.74165E-09
 -1       860-5.62090E+04 1.57625E+02-1.38790E+03-4.33238E+02-7.75628E-10-5.50864E-09
 -1       861-5.64031E+04-1.88146E+02-7.63493E+02 5.68500E+03 1.48872E-09-1.83589E-08
 -1       862-5.62896E+04 2.13517E+01-3.17339E+02-4.37376E+02 7.29941E-10-1.09267E-08
 -1       863-5.63042E+04-2.18248E+01-1.15518E+02 5.68740E+03-5.70395E-09-1.04873E-08
 -1       864-5.63083E+04-4.91116E+00 4.73859E+01-4.35640E+02-1.44165E-09-1.38813E-08
 -1       865-5.62484E+04 5.97400E+01 2.55676E+02 5.67749E+03-3.80311E-09-1.71529E-08
 -1       866-5.63432E+04-6.02306E+01 5.15170E+02-4.27465E+02 2.25896E-10-5.07021E-09
 -1       867-5.60062E+04 4.97377E+02 1.26799E+03 5.65530E+03-6.99367E-09-8.66578E-09
 -1       868-5.65457E+04-4.34646E+02 2.10700E+03-4.13445E+02-2.39100E-09-2.90174E-09
 -1       869-5.44615E+04 3.61738E+03 5.61021E+03 5.61878E+03 2.13220E-10-1.34869E-08
 -1       870-5.78802E+04-3.09549E+03 8.14167E+03-3.90842E+02-7.00391E-09 1.38471E-08
 -1       871-5.51907E+03-2.13399E+04-1.94893E+04 1.30407E+05-6.22640E-09 7.62702E-09
 -1       872-1.98334E+03-2.58714E+04-8.16070E+03 1.69092E+05-9.81527E-09 1.00590E-08
 -1       873 4.04187E+02-2.36798E+04 5.89631E+02 1.30120E+05-6.69479E-09 1.44257E-09
 -1       874 3.30451E+03-2.12689E+04 9.77840E+03 1.69121E+05-1.23182E-08 1.05344E-08
 -1       875 6.84484E+03-2.60093E+04 2.20594E+04 1.30359E+05-4.54202E-09 3.53521E-09
 -1       876 2.93736E+05 4.95064E+04 1.50988E+04 1.17877E+05 4.90650E-09 1.41899E-08
 -1       877 2.94734E+05 5.26864E+04 8.06334E+03 1.22208E+05 6.77028E-09-3.75098E-09
 -1       878 2.95148E+05 4.78338E+04 3.37814E+03 1.19113E+05-1.84264E-09-6.35077E-09
 -1       879 2.92682E+05 5.06381E+04 1.68320E+03 1.22310E+05 1.17143E-09 8.60803E-09
 -1       880 2.95249E+05 4.78165E+04 7.84015E+02 1.19164E+05-5.97220E-09 1.08068E-08
 -1       881 2.92545E+05 5.05505E+04 4.18698E+02 1.22287E+05-1.46701E-09 1.27350E-08
 -1       882 2.95258E+05 4.78298E+04 2.67894E+02 1.19166E+05 1.85628E-09-6.30853E-09
 -1       883 2.92536E+05 5.05459E+04 2.88056E+02 1.22279E+05-1.23521E-10-5.95526E-09
 -1       884 2.95252E+05 4.78270E+04 4.58282E+02 1.19166E+05-8.09678E-10 3.76116E-09
 -1       885 2.92572E+05 5.05523E+04 9.21434E+02 1.22290E+05-1.07440E-09 1.22895E-09
 -1       886 2.95216E+05 4.78001E+04 1.85712E+03 1.19162E+05-9.66774E-09 1.70846E-08
 -1       887 2.92899E+05 5.07663E+04 4.05663E+03 1.22337E+05 4.34875E-09 3.27777E-08
 -1       888 2.94959E+05 4.78453E+04 8.17423E+03 1.19032E+05-3.55092E-09 2.41034E-08
 -1       889 2.97765E+05 5.58271E+04 1.95267E+04 1.22188E+05-4.14223E-09-1.38075E-08
 -1       890 2.91623E+05 5.18085E+04 3.65731E+04 1.15922E+05-4.21460E-09-1.64982E-09
 -1       891-8.95125E+01-1.62756E+05-1.99640E+03 2.71504E+04-1.19189E-09-4.55270E-09
 -1       892-1.75601E+02-1.63283E+05-2.14407E+03 4.12292E+04-2.13731E-11 1.06440E-08
 -1       893 4.35450E+01-1.62820E+05-3.03566E+03 2.71578E+04-2.75440E-09-2.41198E-09
 -1       894-1.51015E+03-1.64430E+05-6.28260E+03 4.10767E+04 2.81580E-09-7.13771E-09
 -1       895-1.19930E+03-1.61511E+05-1.10636E+04 2.73048E+04 7.44649E-10-2.45482E-08
 -1       956-3.77172E+05-5.44976E+03-1.34539E+04 3.08579E+04 6.38465E-09-1.43521E-08
 -1       957-3.79812E+05-1.92217E+03-6.90568E+03 3.70832E+04-1.49703E-09-9.63428E-09
 -1       958-3.78381E+05-2.40553E+02-3.11192E+03 3.06901E+04-1.27657E-08-3.03316E-09
 -1       959-3.78578E+05-1.35792E+02-1.58899E+03 3.72789E+04-1.69694E-08 8.70114E-09
 -1       960-3.78499E+05-4.44183E+01-7.74870E+02 3.06728E+04-3.33603E-09 1.93950E-08
 -1       961-3.78497E+05-6.27468E+01-4.10824E+02 3.72993E+04 8.40919E-09-1.64994E-08
 -1       962-3.78527E+05-4.56383E+01-2.35201E+02 3.06699E+04 2.75395E-09-4.45516E-09
 -1       963-3.78498E+05-5.85495E+01-1.88800E+02 3.73030E+04 1.87651E-09 1.66101E-08
 -1       964-3.78532E+05-4.22794E+01-2.29585E+02 3.06692E+04-3.79619E-09-1.03787E-08
 -1       965-3.78510E+05-5.55849E+01-3.97080E+02 3.73023E+04-7.71024E-09-1.35860E-08
 -1       966-3.78516E+05-3.44364E+01-7.46098E+02 3.06707E+04-1.22473E-08-3.25144E-11
 -1       967-3.78600E+05-1.19120E+02-1.53023E+03 3.72879E+04-3.65105E-08-1.67684E-08
 -1       968-3.78412E+05-2.16909E+02-2.99564E+03 3.06833E+04-1.66960E-08 1.66218E-08
 -1       969-3.79800E+05-1.83381E+03-6.65024E+03 3.71395E+04 5.07316E-09 1.04451E-08
 -1       970-3.77256E+05-5.22946E+03-1.29551E+04 3.08105E+04-5.11318E-09 1.34496E-08
 -1       971-3.45356E+05-1.72729E+03-9.30977E+03 1.53771E+04 5.21504E-09-9.44964E-09
 -1       972-3.47597E+05-1.27153E+03-5.07000E+03 2.12671E+04 3.61069E-09-9.36598E-09
 -1       973-3.46393E+05-6.18760E+01-2.27091E+03 1.52560E+04 1.66983E-09-5.84350E-11
 -1       974-3.46528E+05-8.08572E+01-1.17716E+03 2.14042E+04-2.34672E-09 3.71779E-09
 -1       975-3.46475E+05-1.70009E+01-5.88886E+02 1.52436E+04-9.82254E-11-6.02768E-10
 -1       976-3.46467E+05-3.10133E+01-3.40588E+02 2.14200E+04 5.22232E-09 9.11086E-10
 -1       977-3.46492E+05-1.62546E+01-2.48701E+02 1.52402E+04-5.30690E-10-1.42687E-08
 -1       978-3.46472E+05-2.47880E+01-2.93089E+02 2.14249E+04-5.56281E-09-7.33405E-09
 -1       979-3.46492E+05-7.77668E+00-4.72669E+02 1.52388E+04 4.88455E-09-9.04015E-09
 -1       980-3.46508E+05-2.17266E+01-9.13772E+02 2.14258E+04 4.85342E-09 1.18991E-08
 -1       981-3.46462E+05 1.50635E+01-1.77035E+03 1.52393E+04 5.98652E-09-4.99881E-10
 -1       982-3.46751E+05-1.52536E+02-3.65959E+03 2.14192E+04-2.18165E-09-1.26243E-08
 -1       983-3.46239E+05-9.82966E+01-7.11078E+03 1.52453E+04-8.66567E-09-4.27599E-09
 -1       984-3.50171E+05-3.86629E+03-1.59244E+04 2.13336E+04-9.48080E-09 3.79077E-09
 -1       985-3.43020E+05-5.30152E+03-2.92421E+04 1.53168E+04-7.72570E-09-7.18501E-10
 -3
    1PSTEP                        43          22           1          
  100CL  122 6.63036E-01         409                     0   22           1
 -4  DISP        4    1
 -5  D1          1    2    1    0
 -5  D2          1    2    2    0
 -5  D3          1    2    3    0
 -5  ALL         1    2    0    0    1ALL
 -1         1 2.69756E-03 0.00000E+00 0.00000E+00
 -1         2 1.39070E-03-1.16987E-27 5.29396E-23
 -1         3 3.47539E-04-4.59986E-28-1.32349E-23
 -1         5 1.77182E-04-9.34049E-28-3.30872E-24
 -1         8 2.68616E-03-4.16018E-07 0.00000E+00
 -1         9 2.67947E-03-1.75037E-04 0.00000E+00
 -1        10 3.13238E-04-3.57918E-06-6.61744E-24
 -1        12 1.79026E-04 8.09571E-07-4.13590E-25
 -1        15 2.67304E-03-4.41445E-07 2.06795E-25
 -1        16 2.73964E-03-1.76771E-04 0.00000E+00
 -1        17 2.11590E-04-8.00176E-06 0.00000E+00
 -1        18 1.82967E-04 3.43883E-05 0.00000E+00
 -1        19 1.84560E-04 1.61273E-06 0.00000E+00
 -1        20 1.84700E-04-9.84636E-06 0.00000E+00
 -1        21 1.83807E-04-2.53449E-05 0.00000E+00
 -1        24 3.07043E-05-1.22353E-05 0.00000E+00
 -1        25 1.93736E-04 3.46143E-05 0.00000E+00
 -1        26 1.94419E-04 2.23324E-06 0.00000E+00
 -1        27 1.92218E-04-1.34055E-05 0.00000E+00
 -1        28 1.91902E-04-2.59671E-05 0.00000E+00
 -1        32 0.00000E+00 0.00000E+00 0.00000E+00
 -1        33 2.03272E-04 2.98743E-06 0.00000E+00
 -1        34 2.01154E-04-1.34617E-05 0.00000E+00
 -1        35 1.99221E-04-2.63095E-05 0.00000E+00
 -1        51 2.69680E-03-8.64250E-08 6.61744E-24
 -1        52 2.69540E-03-1.54659E-07 3.30872E-24
 -1        53 2.69351E-03-2.19511E-07 0.00000E+00
 -1        54 2.69125E-03-2.83214E-07-1.65436E-24
 -1        55 2.68875E-03-3.47522E-07 1.65436E-24
 -1        56 2.69062E-03 6.67248E-06 0.00000E+00
 -1        57 2.67771E-03 2.81355E-05 0.00000E+00
 -1        58 2.66074E-03 5.96581E-05-1.05879E-22
 -1        59 2.64194E-03 9.55343E-05-5.29396E-23
 -1        60 2.62401E-03 1.29316E-04 0.00000E+00
 -1        61 2.60950E-03 1.54724E-04 5.29396E-23
 -1        62 2.60020E-03 1.66978E-04 1.05879E-22
 -1        63 2.59728E-03 1.62464E-04 5.29396E-23
 -1        64 2.60064E-03 1.40635E-04 1.05879E-22
 -1        65 2.60960E-03 1.02558E-04 5.29396E-23
 -1        66 2.62257E-03 5.23524E-05 0.00000E+00
 -1        67 2.63772E-03-4.69299E-06 0.00000E+00
 -1        68 2.65296E-03-6.19813E-05 0.00000E+00
 -1        69 2.66618E-03-1.12885E-04 0.00000E+00
 -1        70 2.67551E-03-1.52005E-04 0.00000E+00
 -1        86 1.47169E-03-5.62041E-06-5.29396E-23
 -1        87 1.70648E-03-3.49491E-05 0.00000E+00
 -1        88 2.02213E-03-8.52162E-05-2.64698E-23
 -1        89 2.34178E-03-1.36784E-04 0.00000E+00
 -1        90 2.58630E-03-1.68332E-04 0.00000E+00
 -1       121 3.46574E-04-5.76258E-07 0.00000E+00
 -1       122 3.43685E-04-1.15607E-06-6.61744E-24
 -1       123 3.38882E-04-1.74294E-06 1.32349E-23
 -1       124 3.32187E-04-2.34030E-06 0.00000E+00
 -1       125 3.23627E-04-2.95124E-06 1.32349E-23
 -1       191 1.77233E-04 1.34992E-07 0.00000E+00
 -1       192 1.77387E-04 2.69973E-07 4.13590E-25
 -1       193 1.77643E-04 4.04933E-07-8.27181E-25
 -1       194 1.78001E-04 5.39862E-07-1.24077E-24
 -1       195 1.78463E-04 6.74745E-07-1.65436E-24
 -1       251 2.68585E-03 1.90966E-06-6.61744E-24
 -1       252 2.68552E-03 4.41808E-06 0.00000E+00
 -1       253 2.68520E-03 6.08106E-06 0.00000E+00
 -1       254 2.68488E-03 5.88140E-06 0.00000E+00
 -1       255 2.68456E-03 3.09883E-06 1.32349E-23
 -1       256 2.68422E-03-2.95281E-06 0.00000E+00
 -1       257 2.68385E-03-1.24390E-05 0.00000E+00
 -1       258 2.68345E-03-2.54797E-05 0.00000E+00
 -1       259 2.68300E-03-4.16295E-05 0.00000E+00
 -1       260 2.68251E-03-6.04014E-05 0.00000E+00
 -1       261 2.68198E-03-8.08905E-05 0.00000E+00
 -1       262 2.68144E-03-1.02170E-04 0.00000E+00
 -1       263 2.68091E-03-1.23188E-04 0.00000E+00
 -1       264 2.68039E-03-1.42893E-04 6.61744E-24
 -1       265 2.67992E-03-1.60446E-04-1.32349E-23
 -1       266 2.68398E-03-4.26073E-07 3.30872E-24
 -1       267 2.68179E-03-4.29602E-07 8.27181E-25
 -1       268 2.67960E-03-4.33544E-07-8.27181E-25
 -1       269 2.67742E-03-4.36262E-07-2.06795E-25
 -1       270 2.67523E-03-4.38951E-07 0.00000E+00
 -1       271 2.68521E-03 2.97705E-07 0.00000E+00
 -1       272 2.68513E-03-1.39292E-06 0.00000E+00
 -1       273 2.68589E-03-5.35201E-06-2.64698E-23
 -1       274 2.68744E-03-1.14330E-05 1.32349E-23
 -1       275 2.68971E-03-1.94693E-05 0.00000E+00
 -1       276 2.69262E-03-2.92798E-05-1.32349E-23
 -1       277 2.69611E-03-4.06681E-05 0.00000E+00
 -1       278 2.70009E-03-5.34248E-05-1.32349E-23
 -1       279 2.70449E-03-6.73296E-05 0.00000E+00
 -1       280 2.70922E-03-8.21524E-05-1.32349E-23
 -1       281 2.71419E-03-9.76553E-05 0.00000E+00
 -1       282 2.71932E-03-1.13595E-04 0.00000E+00
 -1       283 2.72452E-03-1.29725E-04 0.00000E+00
 -1       284 2.72969E-03-1.45796E-04 0.00000E+00
 -1       285 2.73476E-03-1.61561E-04 1.32349E-23
 -1       301 2.69041E-03-1.75358E-04-1.32349E-23
 -1       302 2.69976E-03-1.75635E-04 0.00000E+00
 -1       303 2.70844E-03-1.75903E-04 1.32349E-23
 -1       304 2.71737E-03-1.76172E-04-6.61744E-24
 -1       305 2.72746E-03-1.76454E-04 2.64698E-23
 -1       306 2.71711E-03-3.28435E-04 1.05879E-22
 -1       307 2.78102E-03-7.41044E-04-5.29396E-23
 -1       308 2.82795E-03-1.34505E-03 0.00000E+00
 -1       309 2.85202E-03-2.04481E-03 0.00000E+00
 -1       310 2.88335E-03-2.71482E-03 0.00000E+00
 -1       311 2.94273E-03-3.23219E-03 0.00000E+00
 -1       312 3.00079E-03-3.51628E-03 1.05879E-22
 -1       313 2.99705E-03-3.52888E-03 0.00000E+00
 -1       314 2.85792E-03-3.28166E-03-1.05879E-22
 -1       315 2.54236E-03-2.83865E-03-5.29396E-23
 -1       316 2.06835E-03-2.27630E-03 0.00000E+00
 -1       317 1.50129E-03-1.66399E-03 0.00000E+00
 -1       318 9.55060E-04-1.06254E-03-1.05879E-22
 -1       319 5.37368E-04-5.37032E-04 0.00000E+00
 -1       320 2.92027E-04-1.61417E-04 0.00000E+00
 -1       336 3.00952E-04-4.25049E-06-1.32349E-23
 -1       337 2.86706E-04-4.94679E-06-6.61744E-24
 -1       338 2.70567E-04-5.67026E-06 0.00000E+00
 -1       339 2.52610E-04-6.42111E-06 0.00000E+00
 -1       340 2.32920E-04-7.20338E-06 0.00000E+00
 -1       406 1.79692E-04 9.44319E-07 8.27181E-25
 -1       407 1.80461E-04 1.07895E-06 4.13590E-25
 -1       408 1.81332E-04 1.21342E-06 1.65436E-24
 -1       409 1.82306E-04 1.34755E-06 1.03398E-24
 -1       410 1.83382E-04 1.48107E-06-2.48154E-24
 -1       521 2.77790E-03-3.39445E-04-1.05879E-22
 -1       522 2.84007E-03-7.72113E-04-5.29396E-23
 -1       523 2.88066E-03-1.40359E-03 0.00000E+00
 -1       524 2.89566E-03-2.13154E-03 0.00000E+00
 -1       525 2.91919E-03-2.82774E-03 0.00000E+00
 -1       526 2.97505E-03-3.36685E-03-5.29396E-23
 -1       527 3.03267E-03-3.66142E-03 0.00000E+00
 -1       528 3.02669E-03-3.67233E-03 5.29396E-23
 -1       529 2.87580E-03-3.41120E-03-2.11758E-22
 -1       530 2.53674E-03-2.94988E-03 5.29396E-23
 -1       531 2.02825E-03-2.36855E-03 1.05879E-22
 -1       532 1.42208E-03-1.73918E-03-5.29396E-23
 -1       533 8.37364E-04-1.12004E-03-1.05879E-22
 -1       534 3.86847E-04-5.73894E-04 0.00000E+00
 -1       535 1.20556E-04-1.78961E-04 0.00000E+00
 -1       536 2.10833E-04 2.69621E-05 0.00000E+00
 -1       537 2.08911E-04 8.74750E-05 0.00000E+00
 -1       538 2.05940E-04 1.64260E-04-3.30872E-24
 -1       539 2.02435E-04 2.47957E-04 0.00000E+00
 -1       540 1.99281E-04 3.27049E-04 3.30872E-24
 -1       541 1.97231E-04 3.90039E-04 1.65436E-24
 -1       542 1.96285E-04 4.30167E-04 0.00000E+00
 -1       543 1.96059E-04 4.40820E-04-1.65436E-24
 -1       544 1.95737E-04 4.22771E-04 3.30872E-24
 -1       545 1.94562E-04 3.77015E-04 0.00000E+00
 -1       546 1.92373E-04 3.11687E-04 0.00000E+00
 -1       547 1.89410E-04 2.35042E-04-1.65436E-24
 -1       548 1.86473E-04 1.58772E-04 3.30872E-24
 -1       549 1.84354E-04 9.45668E-05 1.65436E-24
 -1       550 1.83254E-04 5.04676E-05-1.65436E-24
 -1       551 1.86368E-04-8.57298E-06 0.00000E+00
 -1       552 1.57907E-04-9.22450E-06 0.00000E+00
 -1       553 1.27151E-04-9.93812E-06-6.61744E-24
 -1       554 9.50593E-05-1.06927E-05 6.61744E-24
 -1       555 6.25920E-05-1.14607E-05-1.32349E-23
 -1       556 2.03932E-04 1.15765E-05 0.00000E+00
 -1       557 1.97745E-04 2.74580E-05 0.00000E+00
 -1       558 1.92893E-04 3.99305E-05 0.00000E+00
 -1       559 1.89243E-04 4.93046E-05 0.00000E+00
 -1       560 1.86665E-04 5.58910E-05 0.00000E+00
 -1       561 1.85032E-04 6.00030E-05 0.00000E+00
 -1       562 1.84218E-04 6.19554E-05 0.00000E+00
 -1       563 1.84099E-04 6.20636E-05 0.00000E+00
 -1       564 1.84554E-04 6.06442E-05 0.00000E+00
 -1       565 1.85460E-04 5.80142E-05 0.00000E+00
 -1       566 1.86699E-04 5.44913E-05 0.00000E+00
 -1       567 1.88152E-04 5.03936E-05-3.30872E-24
 -1       568 1.89700E-04 4.60392E-05 1.65436E-24
 -1       569 1.91225E-04 4.17465E-05 0.00000E+00
 -1       570 1.92609E-04 3.78336E-05 0.00000E+00
 -1       571 1.83063E-04 3.22620E-05 3.30872E-24
 -1       572 1.83162E-04 3.00699E-05 8.27181E-25
 -1       573 1.83261E-04 2.78277E-05-1.65436E-24
 -1       574 1.83361E-04 2.55518E-05-1.65436E-24
 -1       575 1.83460E-04 2.32586E-05 3.30872E-24
 -1       576 1.83559E-04 2.09646E-05 1.65436E-24
 -1       577 1.83659E-04 1.86864E-05 3.30872E-24
 -1       578 1.83759E-04 1.64404E-05 0.00000E+00
 -1       579 1.83858E-04 1.42432E-05 0.00000E+00
 -1       580 1.83958E-04 1.21113E-05 0.00000E+00
 -1       581 1.84058E-04 1.00613E-05 0.00000E+00
 -1       582 1.84158E-04 8.10962E-06 0.00000E+00
 -1       583 1.84259E-04 6.27280E-06 0.00000E+00
 -1       584 1.84359E-04 4.56717E-06 0.00000E+00
 -1       585 1.84460E-04 3.00887E-06 6.61744E-24
 -1       586 1.84721E-04 3.44281E-05 0.00000E+00
 -1       587 1.86434E-04 3.44673E-05 0.00000E+00
 -1       588 1.88149E-04 3.45062E-05 8.27181E-25
 -1       589 1.89908E-04 3.45444E-05 0.00000E+00
 -1       590 1.91757E-04 3.45813E-05 0.00000E+00
 -1       591 1.83695E-04 3.23557E-05-2.06795E-25
 -1       592 1.84427E-04 3.03032E-05-2.06795E-25
 -1       593 1.85164E-04 2.82365E-05 0.00000E+00
 -1       594 1.85904E-04 2.61605E-05 0.00000E+00
 -1       595 1.86645E-04 2.40799E-05 8.27181E-25
 -1       596 1.87386E-04 2.19994E-05 0.00000E+00
 -1       597 1.88126E-04 1.99236E-05 0.00000E+00
 -1       598 1.88862E-04 1.78574E-05 0.00000E+00
 -1       599 1.89592E-04 1.58053E-05 0.00000E+00
 -1       600 1.90316E-04 1.37721E-05 0.00000E+00
 -1       601 1.91031E-04 1.17625E-05 8.27181E-25
 -1       602 1.91735E-04 9.78107E-06-2.06795E-25
 -1       603 1.92427E-04 7.83259E-06-8.27181E-25
 -1       604 1.93106E-04 5.92185E-06-7.75482E-26
 -1       605 1.93769E-04 4.05345E-06 0.00000E+00
 -1       606 1.84573E-04 4.49971E-07 0.00000E+00
 -1       607 1.84583E-04-6.26968E-07 0.00000E+00
 -1       608 1.84592E-04-1.62313E-06 0.00000E+00
 -1       609 1.84600E-04-2.54419E-06 0.00000E+00
 -1       610 1.84609E-04-3.39588E-06 0.00000E+00
 -1       611 1.84617E-04-4.18401E-06 0.00000E+00
 -1       612 1.84625E-04-4.91436E-06 0.00000E+00
 -1       613 1.84634E-04-5.59275E-06 0.00000E+00
 -1       614 1.84642E-04-6.22499E-06 0.00000E+00
 -1       615 1.84650E-04-6.81688E-06 0.00000E+00
 -1       616 1.84659E-04-7.37425E-06 0.00000E+00
 -1       617 1.84667E-04-7.90289E-06 0.00000E+00
 -1       618 1.84675E-04-8.40860E-06-8.27181E-25
 -1       619 1.84684E-04-8.89722E-06 0.00000E+00
 -1       620 1.84692E-04-9.37454E-06 0.00000E+00
 -1       621 1.85917E-04 1.71671E-06 0.00000E+00
 -1       622 1.87433E-04 1.82094E-06 1.65436E-24
 -1       623 1.89075E-04 1.92496E-06 1.65436E-24
 -1       624 1.90809E-04 2.02865E-06-8.27181E-25
 -1       625 1.92601E-04 2.13205E-06-1.65436E-24
 -1       626 1.85108E-04 4.86087E-07-3.30872E-24
 -1       627 1.85634E-04-5.77531E-07 0.00000E+00
 -1       628 1.86139E-04-1.58598E-06-6.61744E-24
 -1       629 1.86626E-04-2.54742E-06 1.65436E-24
 -1       630 1.87099E-04-3.47006E-06-3.30872E-24
 -1       631 1.87561E-04-4.36208E-06 0.00000E+00
 -1       632 1.88014E-04-5.23171E-06 3.30872E-24
 -1       633 1.88462E-04-6.08715E-06 0.00000E+00
 -1       634 1.88907E-04-6.93662E-06-3.30872E-24
 -1       635 1.89354E-04-7.78831E-06 0.00000E+00
 -1       636 1.89804E-04-8.65045E-06 0.00000E+00
 -1       637 1.90262E-04-9.53124E-06 1.65436E-24
 -1       638 1.90729E-04-1.04389E-05-1.65436E-24
 -1       639 1.91209E-04-1.13817E-05 8.27181E-25
 -1       640 1.91705E-04-1.23678E-05-1.65436E-24
 -1       656 1.85404E-04-1.04248E-05 0.00000E+00
 -1       657 1.86528E-04-1.10268E-05-6.61744E-24
 -1       658 1.87933E-04-1.16274E-05 0.00000E+00
 -1       659 1.89473E-04-1.22277E-05 0.00000E+00
 -1       660 1.90962E-04-1.28298E-05-6.61744E-24
 -1       661 1.84963E-04-1.03633E-05 0.00000E+00
 -1       662 1.85265E-04-1.09721E-05-8.27181E-25
 -1       663 1.85598E-04-1.16676E-05 1.65436E-24
 -1       664 1.85963E-04-1.24432E-05 0.00000E+00
 -1       665 1.86355E-04-1.32931E-05 0.00000E+00
 -1       666 1.86772E-04-1.42114E-05 8.27181E-25
 -1       667 1.87213E-04-1.51925E-05 0.00000E+00
 -1       668 1.87676E-04-1.62307E-05 0.00000E+00
 -1       669 1.88158E-04-1.73206E-05 1.65436E-24
 -1       670 1.88657E-04-1.84570E-05 0.00000E+00
 -1       671 1.89171E-04-1.96346E-05 1.65436E-24
 -1       672 1.89699E-04-2.08483E-05 0.00000E+00
 -1       673 1.90239E-04-2.20931E-05 0.00000E+00
 -1       674 1.90787E-04-2.33643E-05 0.00000E+00
 -1       675 1.91344E-04-2.46566E-05 2.06795E-25
 -1       676 1.85161E-04-2.54492E-05-3.30872E-24
 -1       677 1.86514E-04-2.55535E-05 1.65436E-24
 -1       678 1.87865E-04-2.56577E-05-3.30872E-24
 -1       679 1.89214E-04-2.57615E-05 0.00000E+00
 -1       680 1.90560E-04-2.58654E-05-1.65436E-24
 -1       771 1.87562E-05 1.44824E-05 0.00000E+00
 -1       772 8.70306E-06 3.64288E-05 0.00000E+00
 -1       773 4.54181E-07 5.38338E-05-5.29396E-23
 -1       774-6.11465E-06 6.69552E-05 0.00000E+00
 -1       775-1.11249E-05 7.60609E-05 0.00000E+00
 -1       776-1.47031E-05 8.14360E-05 2.64698E-23
 -1       777-1.69754E-05 8.33752E-05 5.29396E-23
 -1       778-1.80706E-05 8.21874E-05 2.64698E-23
 -1       779-1.81167E-05 7.81898E-05 0.00000E+00
 -1       780-1.72442E-05 7.17110E-05-2.64698E-23
 -1       781-1.55821E-05 6.30867E-05 0.00000E+00
 -1       782-1.32613E-05 5.26610E-05 2.64698E-23
 -1       783-1.04118E-05 4.07829E-05-5.29396E-23
 -1       784-7.16463E-06 2.78075E-05 0.00000E+00
 -1       785-3.65005E-06 1.40930E-05 0.00000E+00
 -1       786 1.93775E-04 3.23635E-05 0.00000E+00
 -1       787 1.93817E-04 3.01626E-05 0.00000E+00
 -1       788 1.93858E-04 2.80033E-05 0.00000E+00
 -1       789 1.93901E-04 2.58774E-05 0.00000E+00
 -1       790 1.93944E-04 2.37803E-05 1.65436E-24
 -1       791 1.93987E-04 2.17071E-05 0.00000E+00
 -1       792 1.94029E-04 1.96557E-05-1.65436E-24
 -1       793 1.94072E-04 1.76240E-05 0.00000E+00
 -1       794 1.94115E-04 1.56117E-05 0.00000E+00
 -1       795 1.94159E-04 1.36188E-05-8.27181E-25
 -1       796 1.94202E-04 1.16470E-05 1.65436E-24
 -1       797 1.94245E-04 9.69831E-06-8.27181E-25
 -1       798 1.94288E-04 7.77695E-06-1.65436E-24
 -1       799 1.94331E-04 5.88728E-06 0.00000E+00
 -1       800 1.94375E-04 4.03682E-06 1.65436E-24
 -1       801 1.47966E-04 3.11175E-05-2.64698E-23
 -1       802 9.57739E-06 1.94130E-05 2.64698E-23
 -1       803-1.08644E-04 9.80399E-06 5.29396E-23
 -1       804-9.63323E-05 6.82326E-06 0.00000E+00
 -1       805-3.18209E-05 2.68200E-06 0.00000E+00
 -1       806 1.94465E-04 3.22947E-05 0.00000E+00
 -1       807 1.95180E-04 3.00012E-05 1.65436E-24
 -1       808 1.95882E-04 2.77389E-05-3.30872E-24
 -1       809 1.96571E-04 2.55119E-05 0.00000E+00
 -1       810 1.97245E-04 2.33244E-05-3.30872E-24
 -1       811 1.97903E-04 2.11801E-05-1.65436E-24
 -1       812 1.98543E-04 1.90832E-05-3.30872E-24
 -1       813 1.99164E-04 1.70376E-05 1.65436E-24
 -1       814 1.99765E-04 1.50472E-05 0.00000E+00
 -1       815 2.00343E-04 1.31158E-05 8.27181E-25
 -1       816 2.00898E-04 1.12475E-05 0.00000E+00
 -1       817 2.01428E-04 9.44608E-06 8.27181E-25
 -1       818 2.01931E-04 7.71550E-06-3.30872E-24
 -1       819 2.02407E-04 6.05965E-06 0.00000E+00
 -1       820 2.02854E-04 4.48236E-06-1.65436E-24
 -1       821 1.94290E-04-1.29502E-07-1.65436E-24
 -1       822 1.94149E-04-3.65199E-06 0.00000E+00
 -1       823 1.94007E-04-7.90446E-06 0.00000E+00
 -1       824 1.93862E-04-1.24526E-05 1.65436E-24
 -1       825 1.93717E-04-1.67821E-05 0.00000E+00
 -1       826 1.93576E-04-2.03801E-05-1.65436E-24
 -1       827 1.93437E-04-2.29327E-05 3.30872E-24
 -1       828 1.93300E-04-2.41328E-05 0.00000E+00
 -1       829 1.93165E-04-2.40413E-05 0.00000E+00
 -1       830 1.93028E-04-2.27270E-05 0.00000E+00
 -1       831 1.92890E-04-2.05917E-05-3.30872E-24
 -1       832 1.92752E-04-1.80422E-05 0.00000E+00
 -1       833 1.92614E-04-1.55982E-05 0.00000E+00
 -1       834 1.92479E-04-1.37788E-05 0.00000E+00
 -1       835 1.92344E-04-1.29334E-05 0.00000E+00
 -1       836 1.96107E-04 2.35831E-06 3.30872E-24
 -1       837 1.97668E-04 2.48652E-06 0.00000E+00
 -1       838 1.99133E-04 2.61468E-06 3.30872E-24
 -1       839 2.00534E-04 2.74213E-06 0.00000E+00
 -1       840 2.01904E-04 2.86942E-06-8.27181E-25
 -1       856 1.92201E-04-1.44657E-05 0.00000E+00
 -1       857 1.92182E-04-1.53901E-05 2.58494E-26
 -1       858 1.92163E-04-1.61999E-05 0.00000E+00
 -1       859 1.92143E-04-1.69162E-05 0.00000E+00
 -1       860 1.92123E-04-1.75602E-05 0.00000E+00
 -1       861 1.92104E-04-1.81532E-05 0.00000E+00
 -1       862 1.92084E-04-1.87165E-05 0.00000E+00
 -1       863 1.92064E-04-1.92715E-05 4.13590E-25
 -1       864 1.92044E-04-1.98395E-05-8.27181E-25
 -1       865 1.92025E-04-2.04419E-05 0.00000E+00
 -1       866 1.92005E-04-2.10999E-05 0.00000E+00
 -1       867 1.91985E-04-2.18349E-05 0.00000E+00
 -1       868 1.91965E-04-2.26680E-05-8.27181E-25
 -1       869 1.91944E-04-2.36203E-05 4.13590E-25
 -1       870 1.91924E-04-2.47131E-05 0.00000E+00
 -1       871 1.93566E-04-1.34105E-05 0.00000E+00
 -1       872 1.95061E-04-1.34188E-05 0.00000E+00
 -1       873 1.96636E-04-1.34278E-05 0.00000E+00
 -1       874 1.98221E-04-1.34376E-05-7.75482E-26
 -1       875 1.99750E-04-1.34479E-05 6.20385E-25
 -1       876 1.92742E-04-1.44511E-05-3.30872E-24
 -1       877 1.93245E-04-1.54299E-05 1.65436E-24
 -1       878 1.93726E-04-1.63498E-05 0.00000E+00
 -1       879 1.94187E-04-1.72183E-05 0.00000E+00
 -1       880 1.94633E-04-1.80427E-05 3.30872E-24
 -1       881 1.95065E-04-1.88305E-05 1.65436E-24
 -1       882 1.95485E-04-1.95889E-05 0.00000E+00
 -1       883 1.95898E-04-2.03254E-05 1.65436E-24
 -1       884 1.96305E-04-2.10472E-05 0.00000E+00
 -1       885 1.96710E-04-2.17617E-05 1.65436E-24
 -1       886 1.97114E-04-2.24762E-05 0.00000E+00
 -1       887 1.97521E-04-2.31982E-05 1.65436E-24
 -1       888 1.97933E-04-2.39348E-05 0.00000E+00
 -1       889 1.98353E-04-2.46938E-05 0.00000E+00
 -1       890 1.98783E-04-2.54822E-05 1.65436E-24
 -1       891 1.93264E-04-2.60246E-05 0.00000E+00
 -1       892 1.94603E-04-2.60823E-05 0.00000E+00
 -1       893 1.95893E-04-2.61399E-05-8.27181E-25
 -1       894 1.97109E-04-2.61972E-05 4.13590E-25
 -1       895 1.98227E-04-2.62543E-05 4.13590E-25
 -1       956 2.03142E-04 1.66728E-06 0.00000E+00
 -1       957 2.03010E-04 4.38748E-07-8.27181E-25
 -1       958 2.02877E-04-7.08917E-07 3.30872E-24
 -1       959 2.02744E-04-1.78706E-06 1.65436E-24
 -1       960 2.02611E-04-2.80706E-06-3.30872E-24
 -1       961 2.02478E-04-3.78036E-06 0.00000E+00
 -1       962 2.02346E-04-4.71838E-06 0.00000E+00
 -1       963 2.02213E-04-5.63259E-06-1.65436E-24
 -1       964 2.02080E-04-6.53442E-06 0.00000E+00
 -1       965 2.01947E-04-7.43533E-06-1.65436E-24
 -1       966 2.01814E-04-8.34678E-06-3.30872E-24
 -1       967 2.01682E-04-9.28021E-06-1.65436E-24
 -1       968 2.01549E-04-1.02471E-05 6.61744E-24
 -1       969 2.01416E-04-1.12588E-05 0.00000E+00
 -1       970 2.01284E-04-1.23267E-05 0.00000E+00
 -1       971 2.01034E-04-1.45964E-05-3.30872E-24
 -1       972 2.00913E-04-1.56365E-05 0.00000E+00
 -1       973 2.00791E-04-1.65924E-05 0.00000E+00
 -1       974 2.00670E-04-1.74750E-05 0.00000E+00
 -1       975 2.00548E-04-1.82952E-05-3.30872E-24
 -1       976 2.00427E-04-1.90637E-05 0.00000E+00
 -1       977 2.00305E-04-1.97916E-05-3.30872E-24
 -1       978 2.00184E-04-2.04897E-05-1.65436E-24
 -1       979 2.00063E-04-2.11688E-05-3.30872E-24
 -1       980 1.99941E-04-2.18400E-05 0.00000E+00
 -1       981 1.99820E-04-2.25141E-05 0.00000E+00
 -1       982 1.99699E-04-2.32020E-05 0.00000E+00
 -1       983 1.99578E-04-2.39146E-05-3.30872E-24
 -1       984 1.99457E-04-2.46629E-05-1.65436E-24
 -1       985 1.99337E-04-2.54577E-05 0.00000E+00
 -3
    1PSTEP                        44          22           1          
  100CL  122 6.63036E-01         409                     0   22           1
 -4  STRESS      6    1
 -5  SXX         1    4    1    1
 -5  SYY         1    4    2    2
 -5  SZZ         1    4    3    3
 -5  SXY         1    4    1    2
 -5  SYZ         1    4    2    3
 -5  SZX         1    4    3    1
 -1         1-5.30316E+06-1.64913E+06-1.13143E+06-1.43393E+06-1.16415E-09 5.09026E-08
 -1         2 1.31181E+06 1.93136E+07 4.56509E+06 5.80497E+06 2.98896E-08 5.78148E-08
 -1         3-1.59020E+03-1.63558E+06 2.75290E+02-2.66072E+03 8.37105E-10 2.02563E-08
 -1         5-7.50997E+01 3.86561E+05 9.98906E+00-1.34197E+00-6.22652E-10-5.51154E-09
 -1         8-5.85708E+05-2.07933E+05-6.67660E+04-2.52542E+05 2.51021E-10 5.51918E-08
 -1         9 1.15624E+07 3.37081E+06 2.66746E+06-4.42026E+05-3.55067E-09 4.01866E-08
 -1        10-1.47768E+03-1.67106E+06-3.48090E+03-1.66450E+04-4.46198E-09-2.38963E-08
 -1        12-7.11781E+01 3.86583E+05 3.28351E+02-9.14684E+00-4.72539E-10 2.84672E-09
 -1        15 9.63980E+02 5.29754E+02 3.11604E+03 9.11838E-01-1.44240E-11 1.46339E-07
 -1        16 2.27510E+07-3.05367E+05 3.10449E+06-2.19944E+06-3.97752E-09-5.51033E-09
 -1        17 8.31601E+06 6.23110E+06 2.24757E+06 5.96812E+06 2.29455E-08 5.29923E-08
 -1        18 1.42786E+05 3.36320E+04 4.26292E+03-1.19601E+05 1.66667E-08-2.80943E-09
 -1        19 1.22440E+05 1.41733E+05-9.42486E+02 2.19652E+04 1.53013E-09 4.41178E-09
 -1        20-8.19762E+04-5.73793E+05-1.28755E+05 2.51160E+04-2.29087E-09 6.55806E-09
 -1        21-4.55840E+01-2.96044E+05-9.24070E+02 2.74896E+02 1.44363E-08 4.97263E-09
 -1        24 1.38886E+07 1.19723E+07 3.84956E+06 1.10882E+07-1.62370E-07-5.85763E-08
 -1        25 1.24885E+05 2.66704E+05 9.98579E+04-6.45250E+05 1.25046E-09 1.27346E-08
 -1        26-5.53658E+04 9.23514E+04-2.46249E+04 1.28092E+03-1.05501E-11 3.39362E-09
 -1        27-7.55914E+04-3.10001E+05-1.13324E+05 6.89826E+04 3.86050E-09-3.61797E-09
 -1        28 2.22436E+04-8.53581E+04 1.68997E+04 2.06133E+04-2.85436E-09 1.21274E-08
 -1        32-1.68057E+06-3.17981E+06-1.97220E+05 4.56693E+05-4.22078E-08-7.70547E-09
 -1        33-1.78474E+05 9.30426E+04 3.23976E+04-3.85247E+04-2.81049E-09 6.20730E-09
 -1        34-2.23629E+05-2.50383E+04 6.89893E+02 7.56727E+04-5.28929E-09-1.85491E-09
 -1        35-2.29333E+04-3.38508E+04-1.34861E+03 5.15025E+04-2.80054E-09-5.67161E-09
 -1        51 5.99937E+04-1.76333E+05 1.27047E+05-4.56343E+05 1.74623E-10 1.39029E-07
 -1        52 2.03926E+04-1.54248E+05 6.67769E+04-5.32202E+05 1.39153E-10-1.68220E-08
 -1        53 4.25781E+03-1.69646E+05 3.49578E+04-4.54761E+05 2.05546E-10-4.80213E-08
 -1        54 7.70026E+03-1.65454E+05 2.90935E+04-5.33765E+05 2.43745E-10 2.39423E-07
 -1        55 1.67408E+04-1.72680E+05 3.58217E+04-4.54650E+05 6.18456E-10-8.92978E-08
 -1        56-9.69291E+06-1.29023E+06-8.84467E+05-3.99191E+06 1.28930E-08 5.45988E-08
 -1        57-1.08449E+07-1.01123E+06-5.53525E+05-2.87220E+06 1.91212E-08-4.72355E-08
 -1        58-9.59949E+06-1.71671E+06-1.98750E+05-4.13317E+06-6.62112E-10-2.77883E-07
 -1        59-1.09042E+07-5.35146E+05-1.11322E+05-2.81772E+06 2.04723E-08-1.00594E-07
 -1        60-9.68020E+06-1.72316E+06-5.35609E+04-4.08867E+06-8.93488E-09 1.73404E-07
 -1        61-1.04183E+07-7.91770E+05 1.02235E+03-3.04650E+06-2.71466E-08 1.53095E-07
 -1        62-9.99687E+06-1.51939E+06-5.34218E+04-3.83587E+06 2.53422E-08 8.61619E-08
 -1        63-9.73906E+06-1.34976E+06 3.10552E+04-3.61932E+06 5.06407E-09-1.45228E-08
 -1        64-1.02920E+07-1.21283E+06-4.89179E+04-3.47225E+06-2.16824E-09 1.29838E-07
 -1        65-9.39999E+06-1.83851E+06-3.74905E+02-4.31592E+06-3.87590E-08-2.31372E-07
 -1        66-1.04168E+07-9.74624E+05-4.49871E+04-3.19968E+06-2.13877E-08-1.38261E-08
 -1        67-9.37388E+06-2.06113E+06-1.00415E+05-4.63981E+06-3.59141E-08-2.32976E-07
 -1        68-1.03977E+07-9.35274E+05-1.82801E+05-3.19918E+06-3.59378E-08-6.89615E-08
 -1        69-9.59014E+06-2.17871E+06-4.94721E+05-4.28234E+06-5.13132E-08-8.41101E-09
 -1        70-1.01293E+07-9.17908E+05-8.07844E+05-3.50726E+06 1.14378E-08-2.92202E-08
 -1        86-1.33750E+06-1.43135E+07-2.49631E+06-2.73466E+06-2.62364E-07 1.76165E-07
 -1        87 2.07251E+06 5.39995E+06 2.07717E+06 5.19373E+06-4.18346E-07 7.53607E-09
 -1        88-3.75005E+05-2.09866E+06 1.92383E+05-2.39212E+06-3.79952E-07-2.21759E-07
 -1        89 2.77881E+06 5.15276E+06 2.12567E+06 5.35696E+06-5.64040E-07-1.30727E-07
 -1        90-1.96585E+06-1.41308E+07-2.70188E+06-2.92050E+06-1.31706E-07-3.03407E-08
 -1       121-2.18157E+03-1.64119E+06-8.66016E+02 1.31934E+03 4.02849E-10 2.04891E-08
 -1       122-1.43652E+03-1.63571E+06 4.14660E+02-5.32118E+03 5.81250E-09 6.97619E-08
 -1       123-2.15379E+03-1.64129E+06-5.50630E+02 3.93628E+03 2.10241E-09 4.83778E-08
 -1       124-3.88598E+02-1.63579E+06 1.29179E+03-1.10117E+04 1.13441E-08-3.92156E-08
 -1       125-2.54232E+03-1.64182E+06 6.13339E+02 6.95573E+03 3.10501E-09-2.05546E-09
 -1       191-7.91422E+01 3.86580E+05 8.50457E+00 6.99637E-01-5.26182E-10-8.98581E-10
 -1       192-7.60641E+01 3.86562E+05 2.13159E+01-4.30208E+00-6.78817E-10-4.04816E-08
 -1       193-8.16805E+01 3.86579E+05 3.63004E+01 3.77790E+00-1.09321E-09-1.53796E-08
 -1       194-7.91557E+01 3.86565E+05 8.10321E+01-9.76178E+00-5.95269E-10-7.36691E-09
 -1       195-8.65525E+01 3.86577E+05 1.55148E+02 6.35212E+00-1.49561E-09-1.26838E-08
 -1       251-9.12267E+05 1.73324E+04-4.05471E+04-1.49339E+04-1.29148E-08-9.92404E-08
 -1       252-9.28339E+05-2.00209E+04-2.83280E+04 5.13896E+04 1.79220E-08-9.21227E-08
 -1       253-9.20636E+05 2.68600E+03-1.07843E+04-1.16074E+04-5.16820E-09-4.99404E-09
 -1       254-9.14894E+05-3.17899E+03-5.19575E+03 3.79030E+04 3.33614E-09-1.04107E-07
 -1       255-9.25146E+05 1.22297E+02-3.61799E+03-1.44936E+03-2.38288E-10-2.28313E-08
 -1       256-9.08975E+05-3.20867E+02 9.40636E+02 1.42185E+04-1.36424E-11 7.19596E-08
 -1       257-9.26075E+05-5.28172E+02-1.42939E+03 1.20672E+04-8.77435E-10 3.85236E-08
 -1       258-9.11198E+05 8.24397E+02 2.61210E+03-1.14808E+04-3.05681E-09 5.80613E-08
 -1       259-9.23119E+05-8.70149E+02 1.26243E+03 2.42464E+04 9.00400E-11 2.18636E-08
 -1       260-9.17422E+05 2.76874E+03 5.37261E+03-3.03243E+04-3.25645E-09 7.71666E-08
 -1       261-9.20472E+05-1.99226E+03 8.29799E+03 3.09249E+04 1.24002E-08 2.94131E-07
 -1       262-9.16290E+05 1.12612E+04 2.06369E+04-3.59157E+04-2.28435E-08 2.67664E-07
 -1       263-9.24506E+05-9.13256E+03 3.26798E+04 2.98466E+04 1.03429E-08 2.82125E-09
 -1       264-8.86854E+05 6.42774E+04 9.05397E+04-2.62622E+04 2.89764E-08 1.89449E-07
 -1       265-9.49413E+05-5.51491E+04 1.25986E+05 2.12601E+04 1.74020E-08 3.19240E-07
 -1       266-1.74515E+04-8.16110E+03 4.09424E+04-1.95090E+01-2.00089E-11-3.54354E-08
 -1       267 2.02308E+04 9.51071E+03 2.89394E+04 2.25114E+01-1.00499E-10-6.65852E-08
 -1       268-2.71293E+03-1.34705E+03 1.07565E+04-2.86824E+00-2.72848E-11 3.11467E-09
 -1       269 3.20315E+03 1.61205E+03 6.99167E+03 3.34118E+00 2.63753E-11 3.00853E-08
 -1       270-4.80798E+02-2.64877E+02 3.37498E+03-4.53416E-01 5.00222E-12 1.25889E-07
 -1       271-1.54075E+06-1.94553E+05-1.15711E+05-5.98402E+05-6.78665E-09 2.14888E-07
 -1       272-1.54672E+06-3.04774E+05-7.30730E+04-6.28953E+05-5.37693E-09-7.01102E-08
 -1       273-1.56489E+06-2.19824E+05-2.79097E+04-5.90434E+05-4.46053E-08 7.30397E-08
 -1       274-1.51873E+06-2.74496E+05-1.47521E+04-6.43528E+05 3.18250E-08-1.09002E-07
 -1       275-1.57042E+06-2.19819E+05-6.86923E+03-5.86794E+05-6.78483E-09 2.64749E-07
 -1       276-1.51269E+06-2.75122E+05-3.03036E+03-6.51537E+05 3.30601E-09 1.66233E-08
 -1       277-1.57314E+06-2.17414E+05-1.88221E+03-5.84150E+05-5.91172E-10-8.40091E-08
 -1       278-1.51020E+06-2.78267E+05-7.98935E+02-6.57450E+05 1.04257E-07-5.37875E-09
 -1       279-1.57489E+06-2.15386E+05-9.32898E+02-5.82267E+05-1.87265E-08-3.06495E-08
 -1       280-1.50897E+06-2.80729E+05-1.16032E+03-6.61417E+05 1.73040E-08 4.07931E-09
 -1       281-1.57583E+06-2.14039E+05-2.13789E+03-5.81171E+05 1.00208E-08 3.10215E-07
 -1       282-1.50934E+06-2.83208E+05-4.98661E+03-6.63144E+05-1.27936E-08 5.67729E-08
 -1       283-1.57528E+06-2.12568E+05-8.86951E+03-5.80991E+05 2.88785E-08-6.59511E-08
 -1       284-1.51720E+06-2.95057E+05-2.41747E+04-6.60990E+05 5.61932E-08-8.13820E-08
 -1       285-1.56805E+06-2.03461E+05-3.76706E+04-5.82832E+05-2.75052E-08-6.47979E-08
 -1       301-3.30614E+03-6.36435E+05 1.67622E+05-1.11388E+06-8.58563E-09 1.82241E-07
 -1       302-4.16653E+03-5.90533E+05 1.00901E+05-1.62632E+06-1.48284E-08 1.89226E-07
 -1       303-1.87312E+04-6.27932E+05 5.73204E+04-1.11087E+06-5.79894E-09 5.51154E-08
 -1       304-2.01231E+04-5.96744E+05 5.82334E+04-1.62565E+06-5.61704E-09 4.32192E-08
 -1       305-2.26661E+04-6.17066E+05 7.23104E+04-1.11397E+06 7.95262E-09-8.15053E-08
 -1       306-3.00956E+07-6.21510E+06-8.59744E+06-5.57272E+05-1.01631E-07-1.44646E-07
 -1       307 2.54022E+07 3.22815E+06 5.51474E+06-1.51297E+07-8.53601E-07-1.56666E-07
 -1       308-7.02607E+06-1.03313E+06-4.68152E+05 5.20174E+06-2.29396E-07 2.14204E-07
 -1       309-3.30265E+06 8.72237E+06 2.27322E+06-2.06309E+07 5.64920E-07 2.23845E-08
 -1       310-1.24772E+07-1.92309E+06-2.00538E+06 5.21007E+06-8.73697E-08-2.97470E-07
 -1       311 3.81181E+07 2.69325E+04 7.23368E+06-8.89510E+06 3.18338E-07 1.80327E-07
 -1       312-3.18432E+07-6.72159E+06-8.49827E+06-4.96188E+06 1.62167E-07 1.66547E-07
 -1       313 4.54073E+07 1.48244E+07 1.06363E+07 2.36229E+07 9.63046E-08-1.60420E-07
 -1       314-1.72853E+07-1.76835E+07-7.51165E+06-1.25186E+07 5.29806E-07 3.07336E-08
 -1       315-1.72724E+06 2.96140E+07 5.66626E+06 1.06383E+07-4.07716E-07-2.01777E-07
 -1       316 1.35698E+06-9.84972E+06-4.52006E+05-2.57594E+06-1.22083E-06-3.13710E-07
 -1       317-1.71429E+07 2.23806E+07 2.22938E+06-8.73693E+06 8.32035E-07-9.49483E-07
 -1       318-1.06284E+06-1.27137E+07-2.01915E+06-4.24175E+06-9.31555E-07 1.02562E-07
 -1       319 7.12448E+06 3.17933E+07 6.99942E+06 1.65282E+07-1.25932E-07 1.87632E-07
 -1       320-2.25303E+07-1.75690E+07-9.81396E+06-1.27726E+07 1.82772E-07-7.17991E-08
 -1       336-1.14146E+03-1.70901E+06-1.07587E+04 9.51620E+03-2.74904E-08-1.42172E-08
 -1       337-4.24687E+03-1.70826E+06-1.62784E+04-2.26538E+04-5.04069E-08-4.55020E-08
 -1       338 4.78945E+02-1.70803E+06-2.77512E+04 1.29114E+04-3.56076E-08-2.43381E-09
 -1       339-3.01118E+04-1.72607E+06-6.43850E+04-2.92755E+04-6.43631E-08 6.53563E-09
 -1       340 2.02910E+04-1.69332E+06-1.01749E+05 1.60152E+04-4.27790E-08 2.07801E-08
 -1       406-4.94475E+01 3.86562E+05 6.44726E+02 3.34592E+00-2.01869E-09 3.85990E-09
 -1       407 1.55236E+02 3.86697E+05 1.37779E+03 2.33715E+01-6.33477E-10 3.06318E-09
 -1       408 6.35715E+02 3.86462E+05 2.74723E+03-2.70398E+01-2.34331E-09-8.85848E-09
 -1       409 2.90966E+03 3.87574E+05 6.19198E+03 2.88687E+02-5.12159E-10-3.36177E-08
 -1       410 8.48727E+03 3.85671E+05 1.26376E+04-2.78403E+02-3.26872E-09-1.51886E-08
 -1       521-3.16182E+07-7.66258E+06-1.00336E+07-1.67126E+05-7.96281E-08 4.06289E-08
 -1       522 2.62369E+07 4.23278E+06 5.61534E+06-1.86146E+07-4.29340E-07-2.98693E-07
 -1       523-7.60534E+06-1.34328E+06-4.60150E+05 5.64558E+06 1.70607E-07-4.61470E-07
 -1       524-6.79897E+06 1.17520E+07 2.45596E+06-2.36725E+07 7.47401E-07-8.83010E-07
 -1       525-1.32761E+07-2.54850E+06-2.20237E+06 5.65528E+06 4.38769E-07-4.10510E-07
 -1       526 4.15554E+07-5.92992E+04 7.58559E+06-1.15373E+07-6.98492E-09-9.80217E-08
 -1       527-3.36630E+07-8.40622E+06-9.78561E+06-4.82115E+06-4.44707E-08-6.53527E-08
 -1       528 4.95391E+07 1.64869E+07 1.10838E+07 2.68300E+07 1.10769E-07-8.30623E-08
 -1       529-1.82217E+07-1.98667E+07-8.60357E+06-1.25450E+07 2.00642E-07-5.09899E-08
 -1       530-4.20574E+06 3.43578E+07 5.98984E+06 1.01197E+07-2.09591E-07 3.81842E-07
 -1       531 1.35079E+06-1.09196E+07-4.25808E+05-2.53320E+06-9.47912E-07 1.99885E-07
 -1       532-1.96795E+07 2.43853E+07 2.43335E+06-1.29897E+07 3.87125E-07-8.16726E-07
 -1       533-1.10873E+06-1.38534E+07-2.14641E+06-4.05985E+06-2.12691E-07-9.89647E-07
 -1       534 5.10508E+06 3.68541E+07 7.27740E+06 1.70839E+07-7.89587E-08 7.54197E-07
 -1       535-2.36947E+07-1.99344E+07-1.12398E+07-1.28335E+07 1.39698E-07 4.72879E-07
 -1       536-7.07172E+05-4.71554E+04-4.76698E+04-5.47980E+04-3.77668E-09 5.02223E-08
 -1       537-5.38607E+04 4.51366E+04 8.46132E+04 1.24063E+05-1.17543E-07 8.56780E-08
 -1       538-3.94532E+05 3.30585E+03 3.72161E+03-7.23166E+04 1.47012E-08 1.10360E-07
 -1       539-2.68776E+05 2.91792E+03 2.50881E+04 1.38968E+05 1.48089E-07 1.09467E-07
 -1       540-4.97653E+05-4.36500E+02-2.13308E+04-7.02400E+04 4.09359E-08 1.15733E-07
 -1       541 1.47968E+05 1.70255E+04 1.06682E+05 9.81330E+04 7.75435E-09 1.02541E-07
 -1       542-8.00046E+05-2.01887E+04-8.44451E+04-3.06031E+04 3.72361E-08 5.24230E-08
 -1       543 4.07423E+05 2.74002E+04 1.58402E+05-1.33631E+04-4.11003E-08-1.27152E-08
 -1       544-7.50149E+05-1.65841E+04-7.50401E+04 4.05842E+04 1.72768E-08-3.83837E-08
 -1       545 3.01082E+04 9.51402E+03 8.00459E+04-1.13822E+05 2.90637E-08-7.53005E-08
 -1       546-4.32865E+05 6.10838E+03-1.22616E+04 6.95077E+04 3.63943E-08-7.92062E-08
 -1       547-2.86888E+05-4.65733E+03 1.06402E+04-1.41821E+05-1.14487E-07-1.15117E-07
 -1       548-4.41675E+05 4.72547E+03-2.39108E+04 6.92766E+04-1.23974E-07-9.55106E-08
 -1       549 4.92551E+04 1.61767E+04 6.07599E+04-1.11695E+05-7.20443E-08-7.65115E-08
 -1       550-7.60014E+05-2.22533E+04-1.29186E+05 3.86634E+04 4.87398E-09-3.43844E-08
 -1       551 4.09943E+04-7.55582E+05-1.54839E+04-1.24753E+06-1.03260E-07 3.57977E-09
 -1       552 9.34390E+04-8.00502E+05 1.01757E+04-1.77889E+06-7.46368E-08 7.04749E-08
 -1       553 7.18401E+04-7.96839E+05 3.22429E+04-1.24089E+06-1.18511E-07 2.99333E-08
 -1       554 1.32158E+05-8.16213E+05 8.13424E+04-1.78083E+06-7.41711E-08-4.14730E-10
 -1       555 1.01561E+05-8.20407E+05 1.48483E+05-1.24073E+06-1.25336E-07-1.42554E-08
 -1       556 2.23728E+05-3.83616E+05 2.64837E+04-4.07340E+05-2.69793E-08-1.47556E-08
 -1       557 3.54471E+05-4.88011E+05 1.65301E+04-5.27681E+05-2.51748E-09-1.86192E-08
 -1       558 2.05536E+05-3.76537E+05 2.47989E+03-4.11698E+05-2.01690E-08 4.54747E-09
 -1       559 3.29352E+05-4.88174E+05 2.51828E+03-5.48145E+05 1.68220E-08 1.38607E-08
 -1       560 1.90223E+05-3.66935E+05-1.47306E+03-4.22734E+05 1.60944E-08 1.94923E-08
 -1       561 3.10100E+05-4.80474E+05 1.46270E+02-5.61270E+05 2.38651E-09-1.56051E-08
 -1       562 1.78112E+05-3.59410E+05-1.32169E+03-4.31505E+05-8.20728E-09-2.54913E-08
 -1       563 2.95711E+05-4.74202E+05-3.38858E+01-5.70669E+05 5.53700E-09-1.07493E-08
 -1       564 1.69465E+05-3.54022E+05-6.01021E+02-4.37633E+05 1.46974E-09 1.08694E-08
 -1       565 2.86164E+05-4.70044E+05 2.41199E+01-5.76769E+05 4.32192E-09 3.78986E-08
 -1       566 1.64408E+05-3.50823E+05-2.61024E+02-4.41170E+05-5.10045E-09 3.25235E-09
 -1       567 2.81518E+05-4.68023E+05-3.63556E+02-5.79591E+05 1.78115E-08-1.25656E-08
 -1       568 1.63030E+05-3.49979E+05-1.12791E+03-4.42230E+05-1.86446E-09-6.40284E-10
 -1       569 2.80386E+05-4.67948E+05-2.84873E+03-5.78169E+05-1.13005E-08 1.56506E-08
 -1       570 1.66425E+05-3.53211E+05-6.22608E+03-4.41211E+05 9.09495E-09-3.38696E-09
 -1       571 2.90587E+05 1.05095E+04 1.49918E+04-9.53061E+04 2.58569E-09 1.39694E-08
 -1       572 2.92759E+05 3.96191E+03 7.34721E+03-1.04560E+05 5.56747E-09-1.13141E-09
 -1       573 2.91449E+05 1.24695E+03 3.26461E+03-9.51294E+04 8.26731E-10-1.07757E-08
 -1       574 2.91663E+05 7.28507E+02 1.63718E+03-1.04785E+05-3.69278E-09 1.28239E-10
 -1       575 2.91543E+05 4.49174E+02 7.72704E+02-9.51052E+04-2.07670E-09 2.74758E-09
 -1       576 2.91527E+05 4.60626E+02 3.95625E+02-1.04815E+05-7.22684E-09 5.74346E-09
 -1       577 2.91583E+05 3.91037E+02 1.97499E+02-9.51019E+04-5.18412E-09 1.34005E-08
 -1       578 2.91558E+05 4.22494E+02 1.14095E+02-1.04819E+05-6.44422E-09 3.88081E-09
 -1       579 2.91655E+05 3.54245E+02 7.83630E+01-9.51015E+04 1.30494E-08-8.60382E-09
 -1       580 2.91660E+05 3.71320E+02 9.09597E+01-1.04814E+05 8.42465E-09-4.92673E-09
 -1       581 2.91769E+05 2.95486E+02 1.37386E+02-9.51075E+04 1.38552E-08-1.06857E-08
 -1       582 2.91835E+05 3.33731E+02 2.79350E+02-1.04753E+05-2.58296E-10-3.56340E-09
 -1       583 2.91910E+05 3.37692E+02 5.36149E+02-9.51641E+04 1.53159E-09 6.50289E-10
 -1       584 2.92211E+05 7.75584E+02 1.21328E+03-1.04276E+05 6.99038E-09 2.57028E-08
 -1       585 2.91937E+05 1.79653E+03 2.45680E+03-9.55838E+04 1.29148E-09 2.26464E-08
 -1       586-3.41947E+03 1.17039E+05-2.90755E+03-2.50706E+05-7.43739E-09 3.82443E-10
 -1       587-1.33733E+03 1.16792E+05 7.77782E+02-2.75920E+05-9.02037E-09-1.07374E-08
 -1       588 3.99701E+02 1.16597E+05 4.76610E+03-2.50568E+05-2.49747E-09-5.60703E-09
 -1       589 5.08999E+03 1.19073E+05 1.23561E+04-2.75688E+05-6.08816E-09 8.59654E-09
 -1       590 1.66241E+04 1.15262E+05 2.59173E+04-2.50999E+05-4.60750E-09 1.00172E-08
 -1       591-7.51388E+04-1.59994E+04-2.25532E+04-3.20193E+04 2.11458E-11 7.04131E-09
 -1       592-7.92325E+04-1.95608E+04-1.22166E+04-3.56483E+04 3.53356E-09-2.91012E-08
 -1       593-7.73944E+04-1.43629E+04-5.08517E+03-3.36729E+04 2.17463E-09-1.03330E-08
 -1       594-7.61185E+04-1.62514E+04-2.53610E+03-3.57662E+04 3.78114E-09-3.96264E-09
 -1       595-7.75663E+04-1.43575E+04-1.16433E+03-3.37480E+04 3.15158E-09 2.14641E-08
 -1       596-7.59053E+04-1.61000E+04-5.91672E+02-3.57409E+04 8.43895E-09 1.78540E-08
 -1       597-7.75879E+04-1.43729E+04-3.21729E+02-3.37509E+04 2.07513E-09 7.49287E-09
 -1       598-7.58843E+04-1.60940E+04-2.57799E+02-3.57338E+04-5.82037E-09-9.64599E-09
 -1       599-7.75867E+04-1.43734E+04-3.28269E+02-3.37506E+04 1.80603E-09-1.15540E-08
 -1       600-7.59053E+04-1.61006E+04-6.08987E+02-3.57387E+04 6.76954E-09 1.18916E-09
 -1       601-7.75620E+04-1.43589E+04-1.20097E+03-3.37471E+04 2.92630E-09-1.68075E-08
 -1       602-7.61252E+04-1.62555E+04-2.61716E+03-3.57610E+04-7.15352E-09-1.06347E-08
 -1       603-7.73818E+04-1.43673E+04-5.24837E+03-3.36704E+04 2.00839E-09-1.94632E-09
 -1       604-7.93567E+04-1.96515E+04-1.26078E+04-3.56145E+04-1.12487E-09-9.22591E-09
 -1       605-7.50339E+04-1.60741E+04-2.32755E+04-3.19831E+04 4.86256E-09-1.74623E-10
 -1       606 2.66880E+04-1.43360E+04-2.56995E+04 2.39750E+04 5.19231E-09-2.87810E-09
 -1       607 2.22968E+04-4.68211E+03-1.27983E+04 2.69428E+04-1.77624E-09 4.18731E-09
 -1       608 2.47995E+04-8.44647E+02-5.72935E+03 2.38064E+04-1.28239E-09 1.90994E-11
 -1       609 2.43198E+04-2.89385E+02-2.89431E+03 2.71568E+04 5.25688E-09 2.35202E-08
 -1       610 2.45858E+04-4.10217E+01-1.38091E+03 2.37863E+04 5.75710E-09 1.41054E-08
 -1       611 2.45105E+04-4.13096E+01-6.96242E+02 2.71799E+04 9.77479E-09-3.65344E-09
 -1       612 2.45387E+04-2.73293E+01-3.30974E+02 2.37843E+04-4.75666E-10-7.18114E-09
 -1       613 2.45222E+04-3.72382E+01-1.48284E+02 2.71826E+04 2.30284E-09 2.14936E-09
 -1       614 2.45166E+04-3.37706E+01-3.46895E+01 2.37836E+04-8.86757E-10 1.00370E-08
 -1       615 2.45169E+04-3.57649E+01 6.23484E+01 2.71830E+04-3.33375E-09-9.52264E-09
 -1       616 2.44992E+04-3.06591E+01 1.86780E+02 2.37839E+04-8.80664E-09 7.94989E-09
 -1       617 2.45394E+04 4.02181E+00 4.26073E+02 2.71825E+04-2.08761E-08 1.20372E-09
 -1       618 2.44622E+04 9.21571E+01 8.58793E+02 2.37842E+04-1.08435E-08 7.84462E-09
 -1       619 2.48426E+04 6.68031E+02 1.92847E+03 2.71819E+04-2.07979E-09 1.58757E-08
 -1       620 2.41770E+04 2.12857E+03 3.87616E+03 2.37858E+04 8.42419E-11 4.80941E-09
 -1       621 5.12460E+02 3.01652E+05 3.89501E+03 4.10931E+04 1.00090E-09-1.06893E-08
 -1       622 6.78890E+02 3.02551E+05 3.45446E+03 5.96580E+04 1.23418E-09-1.96037E-08
 -1       623 1.43170E+02 3.01847E+05 4.14816E+03 4.09073E+04 1.45815E-09-3.34148E-09
 -1       624 2.12906E+03 3.03769E+05 8.03924E+03 5.98409E+04 1.66807E-09-7.99901E-09
 -1       625 2.08001E+03 3.00253E+05 1.40471E+04 4.09041E+04 1.61936E-09 4.89285E-09
 -1       626 2.60949E+05 6.14112E+04 5.11687E+03 1.26755E+05-1.90325E-08-5.43514E-09
 -1       627 2.58632E+05 6.28083E+04 2.46578E+03 1.31027E+05-3.03689E-08-3.23780E-10
 -1       628 2.61077E+05 5.90700E+04 1.04285E+03 1.27625E+05-2.27947E-08-2.88605E-09
 -1       629 2.57997E+05 6.21287E+04 5.10423E+02 1.31267E+05 4.40195E-10 3.62794E-08
 -1       630 2.61091E+05 5.89569E+04 2.36881E+02 1.27662E+05-4.46107E-10-9.72847E-09
 -1       631 2.57930E+05 6.21028E+04 1.27618E+02 1.31269E+05 5.99834E-09 1.12937E-08
 -1       632 2.61088E+05 5.89608E+04 8.42317E+01 1.27658E+05 4.71709E-09-5.90126E-09
 -1       633 2.57922E+05 6.21046E+04 9.42255E+01 1.31265E+05 1.19030E-09-8.88008E-09
 -1       634 2.61083E+05 5.89580E+04 1.52618E+02 1.27657E+05 3.21802E-09-1.44712E-08
 -1       635 2.57936E+05 6.21029E+04 3.09034E+02 1.31271E+05 1.36227E-08-2.74304E-09
 -1       636 2.61074E+05 5.89521E+04 6.24205E+02 1.27657E+05 5.77211E-09 1.62177E-08
 -1       637 2.58071E+05 6.22000E+04 1.37254E+03 1.31270E+05-1.78989E-09 2.39675E-08
 -1       638 2.61026E+05 5.92553E+04 2.82007E+03 1.27520E+05 2.47292E-09 1.57488E-08
 -1       639 2.59553E+05 6.42603E+04 6.67244E+03 1.30834E+05 7.74457E-09 1.02630E-08
 -1       640 2.60821E+05 6.54077E+04 1.38465E+04 1.24928E+05 7.81074E-09-1.48909E-08
 -1       656 6.66000E+04-1.70448E+06-1.60768E+05-2.55938E+03-1.89175E-10 6.79569E-09
 -1       657-8.81062E+04-1.77713E+06-1.33187E+05 5.16064E+03-1.07775E-09-1.31191E-09
 -1       658 2.12299E+04-1.72511E+06-8.20272E+04-4.64429E+03-7.02585E-10-2.52851E-09
 -1       659-9.52748E+04-1.78053E+06-1.42608E+05 6.89320E+03-1.98088E-09-1.63431E-08
 -1       660 7.37527E+04-1.70108E+06-1.76965E+05-4.29193E+03-2.95404E-09 7.85749E-09
 -1       661 1.58539E+05 1.65887E+04 1.67159E+04 6.19764E+04-1.39471E-09 5.23778E-09
 -1       662 1.67991E+05 2.89666E+04 1.12654E+04 5.82246E+04-1.07542E-09-1.26647E-09
 -1       663 1.61822E+05 2.19515E+04 3.93991E+03 6.10235E+04-6.72912E-10-4.43652E-09
 -1       664 1.64184E+05 2.26953E+04 2.35689E+03 5.93886E+04-1.69143E-09-2.12241E-08
 -1       665 1.62320E+05 2.26839E+04 9.29777E+02 6.08781E+04 1.83206E-10 4.85301E-10
 -1       666 1.63594E+05 2.18578E+04 5.44253E+02 5.95783E+04 1.17781E-08 1.16811E-08
 -1       667 1.62408E+05 2.27672E+04 2.89278E+02 6.08417E+04-8.99661E-10-5.23332E-09
 -1       668 1.63498E+05 2.17979E+04 2.95207E+02 5.96313E+04-3.57579E-09-4.15616E-09
 -1       669 1.62416E+05 2.27420E+04 4.00040E+02 6.08254E+04-4.54753E-09 1.36060E-08
 -1       670 1.63595E+05 2.20152E+04 8.71439E+02 5.96342E+04-1.22518E-08-3.19740E-09
 -1       671 1.62310E+05 2.25544E+04 1.54742E+03 6.08367E+04 3.32660E-09-1.93670E-08
 -1       672 1.64497E+05 2.35207E+04 3.95914E+03 5.94156E+04 6.15192E-09 2.48019E-09
 -1       673 1.61518E+05 2.12747E+04 6.63491E+03 6.10293E+04 2.13186E-09 4.78485E-09
 -1       674 1.70812E+05 3.41804E+04 1.89745E+04 5.75605E+04-3.54157E-09-3.08530E-08
 -1       675 1.56036E+05 1.21932E+04 2.81648E+04 6.25799E+04-2.96859E-09-2.58660E-09
 -1       676 2.41179E+01-2.95967E+05-1.11375E+03-1.37452E+02 1.24260E-09-4.63399E-09
 -1       677-2.94612E+02-2.96237E+05-2.03835E+03 2.74683E+02 1.10510E-08-2.62377E-08
 -1       678 1.97602E+02-2.95775E+05-3.60330E+03-1.37141E+02-1.40108E-09-1.03237E-08
 -1       679-3.60336E+03-2.98412E+05-8.55995E+03 2.73496E+02 5.14399E-09 2.44768E-10
 -1       680 2.15141E+03-2.93793E+05-1.37957E+04-1.34750E+02 9.06766E-10-5.51225E-10
 -1       771-3.06332E+06-7.47089E+05-1.65116E+05-1.46613E+06-3.22470E-08-2.77360E-08
 -1       772-2.98614E+06-8.35810E+05-8.51173E+04-1.56871E+06-2.29629E-08 8.84756E-09
 -1       773-3.09471E+06-7.22601E+05-4.34139E+04-1.48060E+06-1.31840E-08 1.16852E-08
 -1       774-2.97669E+06-8.17400E+05-1.93639E+04-1.59444E+06 3.07191E-08-4.65661E-10
 -1       775-3.11113E+06-7.11078E+05-1.44996E+04-1.48764E+06-2.18861E-08 3.72529E-09
 -1       776-2.98902E+06-8.14379E+05-5.41963E+03-1.61391E+06-1.29949E-08 1.46283E-08
 -1       777-3.12538E+06-7.00792E+05-6.41162E+03-1.49384E+06-3.92902E-09 2.03727E-10
 -1       778-3.00188E+06-8.11566E+05-1.81168E+03-1.63064E+06-3.30328E-09 5.85351E-09
 -1       779-3.13763E+06-6.91805E+05-3.20558E+03-1.49915E+06-5.39876E-09-7.67614E-09
 -1       780-3.01321E+06-8.08882E+05-5.31188E+02-1.64427E+06 6.98492E-10 1.51340E-09
 -1       781-3.14737E+06-6.84560E+05-1.24550E+03-1.50330E+06-2.45200E-08 1.00408E-09
 -1       782-3.02194E+06-8.06602E+05 4.49348E+02-1.65432E+06-3.75876E-08-7.48651E-09
 -1       783-3.15423E+06-6.79526E+05 6.99404E+02-1.50620E+06-4.80941E-09-1.07839E-08
 -1       784-3.02678E+06-8.04323E+05 2.89845E+03-1.66053E+06-1.91249E-08 5.72072E-10
 -1       785-3.15829E+06-6.76523E+05 5.11673E+03-1.50805E+06-3.89809E-08 3.01952E-09
 -1       786 1.24150E+05-9.78687E+03 2.26429E+04-3.23221E+02 2.80689E-09 8.98217E-09
 -1       787 1.33971E+05 1.13310E+04 1.60189E+04-1.36948E+02 1.11951E-08 4.76916E-09
 -1       788 1.27937E+05-1.53363E+03 5.85822E+03-2.88104E+02 3.68547E-09 1.47588E-09
 -1       789 1.29560E+05 1.77514E+03 3.67760E+03-1.90737E+02-6.37588E-10 2.50852E-08
 -1       790 1.28562E+05-2.38782E+02 1.48905E+03-2.69449E+02-5.48318E-09 1.75880E-08
 -1       791 1.28828E+05 2.76292E+02 8.60131E+02-2.22658E+02-7.43724E-09 2.50890E-09
 -1       792 1.28668E+05-3.58980E+01 3.64677E+02-2.56186E+02-4.31421E-09 4.32351E-09
 -1       793 1.28702E+05 3.80283E+01 1.82212E+02-2.47618E+02-5.43350E-10-5.69050E-09
 -1       794 1.28688E+05-6.68247E-01 4.81814E+01-2.44489E+02 5.11558E-09 1.44230E-09
 -1       795 1.28665E+05-2.68198E+01-5.57346E+01-2.72043E+02-3.45703E-09 6.86833E-09
 -1       796 1.28705E+05 2.89138E+01-1.59349E+02-2.31760E+02 3.11876E-09 1.92951E-09
 -1       797 1.28572E+05-2.15887E+02-4.38449E+02-3.01300E+02 3.76576E-09-7.92284E-09
 -1       798 1.28782E+05 1.88257E+02-7.12320E+02-2.15232E+02 2.81610E-09-8.13461E-09
 -1       799 1.28032E+05-1.38757E+03-1.95992E+03-3.42243E+02 7.44243E-09-2.54738E-09
 -1       800 1.29245E+05 1.19964E+03-2.77377E+03-1.90818E+02-1.77327E-10 9.53946E-09
 -1       801-1.70757E+05-9.98749E+06-1.39177E+06 1.41270E+06 9.04547E-08-6.04523E-08
 -1       802 7.36581E+05 5.93197E+06 2.17717E+06-1.74358E+06 2.57540E-07-3.61606E-08
 -1       803-5.35569E+05-1.42451E+07-1.88674E+06 8.96864E+05 7.80528E-08 1.24455E-08
 -1       804 2.86436E+05 2.38145E+06 1.53386E+06 6.76031E+05-1.19751E-07-1.04902E-07
 -1       805 1.89124E+05-6.45111E+06-2.85662E+05-1.00126E+06-4.97821E-08-6.85786E-08
 -1       806-3.08887E+05-5.97907E+04-2.28550E+04-1.22448E+05-1.20835E-08 1.34246E-08
 -1       807-3.10679E+05-5.60659E+04-1.12285E+04-1.28000E+05-2.58956E-09 2.25244E-08
 -1       808-3.09514E+05-5.15536E+04-4.76346E+03-1.26341E+05-3.91856E-09-7.44194E-10
 -1       809-3.08318E+05-5.29112E+04-2.32921E+03-1.28276E+05-1.04737E-08-4.90718E-09
 -1       810-3.09609E+05-5.12669E+04-1.06761E+03-1.26513E+05 6.93217E-09 1.76287E-08
 -1       811-3.08135E+05-5.27845E+04-5.30942E+02-1.28241E+05 3.12502E-09 2.53788E-08
 -1       812-3.09623E+05-5.12916E+04-2.68605E+02-1.26513E+05-2.82580E-09 1.67870E-08
 -1       813-3.08110E+05-5.27867E+04-1.74705E+02-1.28222E+05-4.02224E-09-2.23122E-08
 -1       814-3.09616E+05-5.13013E+04-1.73355E+02-1.26509E+05 2.22917E-09 5.36738E-09
 -1       815-3.08114E+05-5.27890E+04-2.79504E+02-1.28215E+05 3.31784E-09 1.29787E-08
 -1       816-3.09595E+05-5.13004E+04-5.29884E+02-1.26505E+05-6.09361E-11 3.57691E-08
 -1       817-3.08203E+05-5.28395E+04-1.13724E+03-1.28203E+05-1.76751E-08 1.13066E-08
 -1       818-3.09526E+05-5.14610E+04-2.31961E+03-1.26429E+05-3.25963E-09-5.92399E-09
 -1       819-3.09473E+05-5.42408E+04-5.45786E+03-1.27902E+05-2.56023E-10-1.21941E-09
 -1       820-3.09088E+05-5.55842E+04-1.11088E+04-1.24668E+05 9.86802E-10 7.51493E-09
 -1       821-3.79103E+05 2.08761E+04-4.86003E+04 2.13613E+03 1.37551E-08 1.11177E-08
 -1       822-3.98796E+05-2.41840E+04-3.41518E+04-4.48672E+03 5.00734E-09 1.06629E-08
 -1       823-3.86561E+05 3.29106E+03-1.25527E+04 3.45762E+03-1.27828E-08 1.53973E-08
 -1       824-3.89789E+05-3.79510E+03-7.85661E+03-5.40973E+03 1.07076E-09 9.76434E-09
 -1       825-3.88117E+05 5.11497E+02-3.29068E+03 3.05926E+03 2.09574E-08-1.63607E-09
 -1       826-3.87346E+05-5.67097E+02-1.74211E+03-3.12423E+03 2.87496E-08 6.93120E-09
 -1       827-3.88980E+05 4.62796E+01-1.19263E+03 1.17198E+03 9.97187E-09 6.70889E-09
 -1       828-3.86632E+05-1.31309E+02-5.82164E+02 1.09717E+03-3.17152E-09-3.38282E-09
 -1       829-3.88817E+05 6.54817E+01-1.18124E+03-1.16217E+03 8.90594E-10 7.71018E-09
 -1       830-3.87698E+05-6.22069E+02-1.88075E+03 4.91355E+03 1.88717E-09-4.03233E-09
 -1       831-3.87937E+05 5.54892E+02-3.37206E+03-2.64443E+03-5.02688E-09-3.26827E-09
 -1       832-3.89869E+05-3.96179E+03-8.15893E+03 6.20557E+03-3.08139E-09-5.79246E-09
 -1       833-3.86662E+05 3.41493E+03-1.30562E+04-2.45424E+03-3.19899E-09-1.06975E-08
 -1       834-3.98853E+05-2.50964E+04-3.53723E+04 4.22145E+03-3.03220E-09 6.38056E-09
 -1       835-3.78936E+05 2.16563E+04-5.04683E+04-6.60223E+02 4.42409E-09 9.96806E-10
 -1       836-1.41508E+03 3.70436E+05 2.29234E+04-1.61880E+04-7.05950E-09-8.04084E-09
 -1       837 4.88631E+03 3.77615E+05 1.93926E+04-3.30806E+04-7.49242E-09 1.31713E-08
 -1       838-5.58394E+02 3.72449E+05 1.97518E+04-1.61164E+04-6.23731E-09 2.04780E-08
 -1       839 1.24274E+04 3.83232E+05 3.73578E+04-3.31330E+04-6.75755E-09 1.04828E-08
 -1       840-3.84245E+03 3.64759E+05 5.95690E+04-1.61414E+04-6.08270E-09 1.32892E-08
 -1       856-5.21642E+04 8.02537E+03-2.11486E+04-3.97587E+02 2.01408E-09 1.18780E-09
 -1       857-6.08769E+04-9.42956E+03-1.45585E+04 5.63475E+03 7.44490E-09 8.73933E-09
 -1       858-5.56146E+04 1.12548E+03-5.48754E+03-4.21687E+02 2.90981E-09 1.73191E-08
 -1       859-5.69171E+04-1.32410E+03-3.31147E+03 5.67060E+03-2.74554E-11 1.05517E-08
 -1       860-5.61301E+04 1.57621E+02-1.38782E+03-4.33167E+02 3.73575E-10 6.71173E-09
 -1       861-5.63242E+04-1.88179E+02-7.63433E+02 5.68623E+03-1.01137E-09-1.86789E-08
 -1       862-5.62107E+04 2.13525E+01-3.17278E+02-4.37300E+02-5.82158E-10 2.59285E-08
 -1       863-5.62253E+04-2.18536E+01-1.15413E+02 5.68863E+03-3.95395E-09 2.76844E-08
 -1       864-5.62295E+04-4.91920E+00 4.75702E+01-4.35566E+02-3.73920E-09-1.21564E-09
 -1       865-5.61694E+04 5.97910E+01 2.56079E+02 5.67873E+03-3.06149E-09-1.41214E-08
 -1       866-5.62644E+04-6.03082E+01 5.15887E+02-4.27401E+02 2.81375E-11-1.22375E-08
 -1       867-5.59269E+04 4.98009E+02 1.26969E+03 5.65657E+03 2.28567E-09 1.27964E-08
 -1       868-5.64671E+04-4.35221E+02 2.10981E+03-4.13400E+02-4.74563E-09-9.60426E-10
 -1       869-5.43801E+04 3.62217E+03 5.61768E+03 5.62010E+03 9.09495E-10-1.57106E-08
 -1       870-5.78034E+04-3.09961E+03 8.15252E+03-3.90827E+02-5.76586E-09 1.24605E-08
 -1       871-5.52058E+03-2.13653E+04-1.94984E+04 1.30470E+05-5.13137E-09 1.26784E-08
 -1       872-1.98291E+03-2.58992E+04-8.16486E+03 1.69174E+05-1.11249E-08-2.05014E-08
 -1       873 4.05393E+02-2.37062E+04 5.89034E+02 1.30183E+05-5.59885E-09-2.40569E-08
 -1       874 3.30690E+03-2.12950E+04 9.78092E+03 1.69204E+05-1.19098E-08-1.02918E-08
 -1       875 6.84791E+03-2.60364E+04 2.20658E+04 1.30422E+05-5.75346E-09-9.34415E-09
 -1       876 2.93835E+05 4.95211E+04 1.51030E+04 1.17914E+05 5.65728E-09-5.15138E-09
 -1       877 2.94834E+05 5.27018E+04 8.06560E+03 1.22246E+05 9.76434E-09 2.51384E-09
 -1       878 2.95247E+05 4.78481E+04 3.37909E+03 1.19151E+05-4.39013E-09-1.06866E-08
 -1       879 2.92781E+05 5.06530E+04 1.68367E+03 1.22349E+05 8.84370E-09-5.90387E-09
 -1       880 2.95349E+05 4.78308E+04 7.84236E+02 1.19202E+05-2.33558E-09-7.92306E-09
 -1       881 2.92644E+05 5.05653E+04 4.18817E+02 1.22325E+05-1.36018E-08-8.02767E-09
 -1       882 2.95358E+05 4.78441E+04 2.67973E+02 1.19203E+05-9.48557E-09-6.73195E-09
 -1       883 2.92635E+05 5.05608E+04 2.88146E+02 1.22318E+05-2.43949E-09 1.77587E-08
 -1       884 2.95351E+05 4.78413E+04 4.58428E+02 1.19204E+05 6.56757E-09 1.57702E-08
 -1       885 2.92671E+05 5.05671E+04 9.21729E+02 1.22328E+05-3.02350E-09-1.17734E-09
 -1       886 2.95315E+05 4.78144E+04 1.85772E+03 1.19200E+05-2.54928E-09 1.70564E-08
 -1       887 2.92998E+05 5.07812E+04 4.05794E+03 1.22376E+05 3.18605E-09 5.46834E-09
 -1       888 2.95059E+05 4.78596E+04 8.17686E+03 1.19070E+05 2.63356E-10 2.18943E-08
 -1       889 2.97865E+05 5.58436E+04 1.95330E+04 1.22226E+05-1.72816E-09 5.80803E-09
 -1       890 2.91721E+05 5.18241E+04 3.65849E+04 1.15958E+05-3.03680E-09 1.30312E-08
 -1       891-8.93598E+01-1.62804E+05-1.99710E+03 2.71523E+04-2.04432E-09-1.77786E-08
 -1       892-1.75379E+02-1.63332E+05-2.14479E+03 4.12324E+04 1.34946E-09-1.83122E-08
 -1       893 4.37482E+01-1.62869E+05-3.03664E+03 2.71597E+04-3.19164E-09 8.11133E-09
 -1       894-1.51034E+03-1.64479E+05-6.28459E+03 4.10798E+04 2.08729E-09 2.78660E-08
 -1       895-1.19949E+03-1.61559E+05-1.10671E+04 2.73067E+04-3.24917E-10-2.00089E-11
 -1       956-3.77311E+05-5.45213E+03-1.34591E+04 3.08808E+04 7.60610E-09-1.69234E-09
 -1       957-3.79952E+05-1.92322E+03-6.90834E+03 3.71106E+04 2.14095E-09-1.08355E-08
 -1       958-3.78521E+05-2.40898E+02-3.11312E+03 3.07129E+04-5.60794E-09 8.88167E-09
 -1       959-3.78717E+05-1.36139E+02-1.58960E+03 3.73064E+04 2.88173E-09 2.12831E-08
 -1       960-3.78639E+05-4.46738E+01-7.75168E+02 3.06957E+04 8.03539E-09-6.89852E-09
 -1       961-3.78637E+05-6.30541E+01-4.10981E+02 3.73268E+04 9.01127E-09 4.25939E-09
 -1       962-3.78667E+05-4.58867E+01-2.35291E+02 3.06928E+04 2.95631E-09 7.20752E-09
 -1       963-3.78637E+05-5.88507E+01-1.88870E+02 3.73305E+04 4.59056E-09-6.30075E-09
 -1       964-3.78672E+05-4.25257E+01-2.29670E+02 3.06920E+04-3.30115E-09-1.42663E-08
 -1       965-3.78650E+05-5.58877E+01-3.97226E+02 3.73298E+04-8.93675E-09 3.32514E-08
 -1       966-3.78656E+05-3.46858E+01-7.46375E+02 3.06935E+04 2.66709E-09 1.03939E-08
 -1       967-3.78739E+05-1.19455E+02-1.53080E+03 3.73154E+04-3.73802E-10 3.75189E-09
 -1       968-3.78552E+05-2.17239E+02-2.99675E+03 3.07062E+04-4.97039E-09-1.88567E-09
 -1       969-3.79940E+05-1.83480E+03-6.65271E+03 3.71668E+04-7.27596E-11-1.14615E-08
 -1       970-3.77395E+05-5.23166E+03-1.29599E+04 3.08335E+04-3.06682E-09 9.93987E-09
 -1       971-3.45464E+05-1.72768E+03-9.31128E+03 1.53798E+04 6.77392E-09-1.66029E-09
 -1       972-3.47706E+05-1.27190E+03-5.07083E+03 2.12704E+04 5.02405E-09-1.08830E-08
 -1       973-3.46502E+05-6.19977E+01-2.27127E+03 1.52587E+04 2.36469E-09-1.50412E-08
 -1       974-3.46637E+05-8.10267E+01-1.17735E+03 2.14075E+04 4.09500E-10 4.54293E-09
 -1       975-3.46584E+05-1.71149E+01-5.88986E+02 1.52464E+04 2.48929E-09-3.25588E-09
 -1       976-3.46575E+05-3.11746E+01-3.40652E+02 2.14233E+04 5.22891E-09-8.20717E-09
 -1       977-3.46600E+05-1.63680E+01-2.48759E+02 1.52430E+04-3.64639E-09-1.16941E-08
 -1       978-3.46581E+05-2.49479E+01-2.93172E+02 2.14282E+04-8.05915E-09 1.20217E-08
 -1       979-3.46600E+05-7.88734E+00-4.72816E+02 1.52415E+04-8.87894E-11-6.73845E-09
 -1       980-3.46616E+05-2.18856E+01-9.14065E+02 2.14292E+04 6.01131E-09-1.11348E-08
 -1       981-3.46571E+05 1.49604E+01-1.77092E+03 1.52420E+04 7.92954E-09 2.96450E-09
 -1       982-3.46859E+05-1.52737E+02-3.66078E+03 2.14225E+04 1.79170E-09 5.65182E-09
 -1       983-3.46348E+05-9.84359E+01-7.11308E+03 1.52481E+04-5.91172E-10-4.21596E-09
 -1       984-3.50280E+05-3.86769E+03-1.59295E+04 2.13369E+04 2.05364E-09 1.64564E-08
 -1       985-3.43127E+05-5.30334E+03-2.92515E+04 1.53195E+04-2.79624E-09-2.55022E-09
 -3
    1PSTEP                        45          23           1          
  100CL  123 6.63094E-01         409                     0   23           1
 -4  DISP        4    1
 -5  D1          1    2    1    0
 -5  D2          1    2    2    0
 -5  D3          1    2    3    0
 -5  ALL         1    2    0    0    1ALL
 -1         1 2.70225E-03 0.00000E+00 0.00000E+00
 -1         2 1.38552E-03 4.86170E-28 0.00000E+00
 -1         3 3.47675E-04-5.83916E-28 1.32349E-23
 -1         5 1.77230E-04-1.91549E-27 8.27181E-25
 -1         8 2.69094E-03-4.14294E-07 0.00000E+00
 -1         9 2.68428E-03-1.77693E-04 0.00000E+00
 -1        10 3.13362E-04-3.57614E-06 0.00000E+00
 -1        12 1.79077E-04 8.09730E-07-4.13590E-25
 -1        15 2.67793E-03-4.39423E-07 0.00000E+00
 -1        16 2.74544E-03-1.79442E-04 0.00000E+00
 -1        17 2.11670E-04-7.99620E-06 0.00000E+00
 -1        18 1.83024E-04 3.44199E-05 0.00000E+00
 -1        19 1.84618E-04 1.61304E-06 0.00000E+00
 -1        20 1.84757E-04-9.87312E-06 0.00000E+00
 -1        21 1.83864E-04-2.54015E-05 0.00000E+00
 -1        24 3.07068E-05-1.22309E-05 0.00000E+00
 -1        25 1.93806E-04 3.46459E-05 0.00000E+00
 -1        26 1.94488E-04 2.23366E-06 0.00000E+00
 -1        27 1.92286E-04-1.34329E-05 0.00000E+00
 -1        28 1.91970E-04-2.60237E-05 0.00000E+00
 -1        32 0.00000E+00 0.00000E+00 0.00000E+00
 -1        33 2.03353E-04 2.98799E-06 0.00000E+00
 -1        34 2.01234E-04-1.34891E-05 0.00000E+00
 -1        35 1.99301E-04-2.63663E-05 0.00000E+00
 -1        51 2.70149E-03-8.61989E-08-3.30872E-24
 -1        52 2.70011E-03-1.54168E-07 0.00000E+00
 -1        53 2.69822E-03-2.18738E-07 0.00000E+00
 -1        54 2.69598E-03-2.82144E-07-1.65436E-24
 -1        55 2.69350E-03-3.46141E-07 8.27181E-25
 -1        56 2.69518E-03 6.96845E-06 0.00000E+00
 -1        57 2.68192E-03 2.92811E-05 5.29396E-23
 -1        58 2.66443E-03 6.20454E-05 0.00000E+00
 -1        59 2.64502E-03 9.93581E-05 0.00000E+00
 -1        60 2.62650E-03 1.34539E-04 0.00000E+00
 -1        61 2.61152E-03 1.61083E-04 5.29396E-23
 -1        62 2.60194E-03 1.74025E-04 0.00000E+00
 -1        63 2.59898E-03 1.69614E-04 0.00000E+00
 -1        64 2.60251E-03 1.47271E-04 1.05879E-22
 -1        65 2.61182E-03 1.08097E-04 0.00000E+00
 -1        66 2.62528E-03 5.63576E-05-1.05879E-22
 -1        67 2.64098E-03-2.46311E-06 0.00000E+00
 -1        68 2.65677E-03-6.15244E-05 0.00000E+00
 -1        69 2.67047E-03-1.13955E-04 0.00000E+00
 -1        70 2.68016E-03-1.54161E-04-5.29396E-23
 -1        86 1.46715E-03-5.69229E-06 0.00000E+00
 -1        87 1.70371E-03-3.54552E-05 0.00000E+00
 -1        88 2.02174E-03-8.64882E-05 2.64698E-23
 -1        89 2.34385E-03-1.38855E-04 0.00000E+00
 -1        90 2.59029E-03-1.70891E-04 5.29396E-23
 -1       121 3.46710E-04-5.75735E-07 1.32349E-23
 -1       122 3.43820E-04-1.15503E-06-6.61744E-24
 -1       123 3.39016E-04-1.74139E-06 0.00000E+00
 -1       124 3.32318E-04-2.33823E-06 6.61744E-24
 -1       125 3.23755E-04-2.94868E-06 0.00000E+00
 -1       191 1.77282E-04 1.35019E-07-8.27181E-25
 -1       192 1.77435E-04 2.70026E-07 1.65436E-24
 -1       193 1.77692E-04 4.05013E-07-2.48154E-24
 -1       194 1.78051E-04 5.39968E-07 1.65436E-24
 -1       195 1.78513E-04 6.74878E-07-8.27181E-25
 -1       251 2.69062E-03 1.85481E-06 6.61744E-24
 -1       252 2.69031E-03 4.23220E-06-3.30872E-24
 -1       253 2.68999E-03 5.70661E-06-6.61744E-24
 -1       254 2.68967E-03 5.27842E-06 3.30872E-24
 -1       255 2.68935E-03 2.24767E-06-1.32349E-23
 -1       256 2.68901E-03-4.05171E-06 0.00000E+00
 -1       257 2.68865E-03-1.37713E-05 0.00000E+00
 -1       258 2.68824E-03-2.70182E-05-6.61744E-24
 -1       259 2.68780E-03-4.33448E-05 1.32349E-23
 -1       260 2.68731E-03-6.22630E-05 6.61744E-24
 -1       261 2.68678E-03-8.28767E-05 0.00000E+00
 -1       262 2.68625E-03-1.04269E-04 6.61744E-24
 -1       263 2.68571E-03-1.25398E-04 1.32349E-23
 -1       264 2.68520E-03-1.45228E-04 0.00000E+00
 -1       265 2.68473E-03-1.62928E-04-1.32349E-23
 -1       266 2.68877E-03-4.24269E-07 0.00000E+00
 -1       267 2.68660E-03-4.27752E-07-8.27181E-25
 -1       268 2.68443E-03-4.31646E-07 8.27181E-25
 -1       269 2.68226E-03-4.34322E-07 0.00000E+00
 -1       270 2.68009E-03-4.36969E-07 2.06795E-25
 -1       271 2.69000E-03 2.63872E-07 0.00000E+00
 -1       272 2.68995E-03-1.49569E-06 0.00000E+00
 -1       273 2.69075E-03-5.55412E-06 0.00000E+00
 -1       274 2.69235E-03-1.17616E-05 0.00000E+00
 -1       275 2.69468E-03-1.99482E-05 2.64698E-23
 -1       276 2.69766E-03-2.99295E-05-1.32349E-23
 -1       277 2.70122E-03-4.15051E-05 0.00000E+00
 -1       278 2.70528E-03-5.44625E-05 0.00000E+00
 -1       279 2.70975E-03-6.85774E-05 2.64698E-23
 -1       280 2.71456E-03-8.36160E-05 1.32349E-23
 -1       281 2.71962E-03-9.93366E-05 0.00000E+00
 -1       282 2.72483E-03-1.15493E-04 0.00000E+00
 -1       283 2.73010E-03-1.31833E-04 1.32349E-23
 -1       284 2.73536E-03-1.48105E-04-6.61744E-24
 -1       285 2.74049E-03-1.64059E-04 0.00000E+00
 -1       301 2.69540E-03-1.78017E-04-1.32349E-23
 -1       302 2.70492E-03-1.78297E-04 3.30872E-24
 -1       303 2.71376E-03-1.78567E-04 1.32349E-23
 -1       304 2.72285E-03-1.78838E-04 0.00000E+00
 -1       305 2.73310E-03-1.79122E-04 0.00000E+00
 -1       306 2.72198E-03-3.31366E-04 0.00000E+00
 -1       307 2.78588E-03-7.44365E-04-5.29396E-23
 -1       308 2.83273E-03-1.34878E-03 0.00000E+00
 -1       309 2.85671E-03-2.04885E-03-5.29396E-23
 -1       310 2.88800E-03-2.71899E-03 0.00000E+00
 -1       311 2.94739E-03-3.23625E-03-5.29396E-23
 -1       312 3.00541E-03-3.51998E-03 1.05879E-22
 -1       313 3.00146E-03-3.53203E-03-5.29396E-23
 -1       314 2.86187E-03-3.28417E-03 0.00000E+00
 -1       315 2.54562E-03-2.84055E-03-5.29396E-23
 -1       316 2.07076E-03-2.27771E-03 1.05879E-22
 -1       317 1.50286E-03-1.66499E-03 0.00000E+00
 -1       318 9.55924E-04-1.06320E-03 0.00000E+00
 -1       319 5.37754E-04-5.37368E-04-1.05879E-22
 -1       320 2.92176E-04-1.61517E-04 0.00000E+00
 -1       336 3.01071E-04-4.24696E-06 0.00000E+00
 -1       337 2.86819E-04-4.94279E-06 6.61744E-24
 -1       338 2.70673E-04-5.66582E-06-1.32349E-23
 -1       339 2.52709E-04-6.41626E-06 0.00000E+00
 -1       340 2.33010E-04-7.19816E-06 0.00000E+00
 -1       406 1.79744E-04 9.44504E-07 0.00000E+00
 -1       407 1.80514E-04 1.07916E-06 8.27181E-25
 -1       408 1.81386E-04 1.21366E-06-1.24077E-24
 -1       409 1.82361E-04 1.34782E-06-4.13590E-25
 -1       410 1.83439E-04 1.48136E-06-4.13590E-25
 -1       521 2.78375E-03-3.42393E-04 0.00000E+00
 -1       522 2.84590E-03-7.75500E-04-5.29396E-23
 -1       523 2.88638E-03-1.40746E-03 0.00000E+00
 -1       524 2.90125E-03-2.13582E-03 0.00000E+00
 -1       525 2.92472E-03-2.83225E-03 0.00000E+00
 -1       526 2.98057E-03-3.37131E-03 5.29396E-23
 -1       527 3.03815E-03-3.66554E-03 2.11758E-22
 -1       528 3.03195E-03-3.67588E-03 5.29396E-23
 -1       529 2.88054E-03-3.41405E-03 0.00000E+00
 -1       530 2.54066E-03-2.95206E-03 0.00000E+00
 -1       531 2.03116E-03-2.37017E-03 0.00000E+00
 -1       532 1.42397E-03-1.74037E-03 0.00000E+00
 -1       533 8.38373E-04-1.12083E-03 0.00000E+00
 -1       534 3.87249E-04-5.74312E-04 0.00000E+00
 -1       535 1.20650E-04-1.79089E-04 2.11758E-22
 -1       536 2.10913E-04 2.69834E-05-6.61744E-24
 -1       537 2.08989E-04 8.75226E-05 1.65436E-24
 -1       538 2.06015E-04 1.64341E-04-3.30872E-24
 -1       539 2.02508E-04 2.48074E-04 0.00000E+00
 -1       540 1.99351E-04 3.27199E-04-3.30872E-24
 -1       541 1.97299E-04 3.90216E-04 1.65436E-24
 -1       542 1.96352E-04 4.30362E-04 3.30872E-24
 -1       543 1.96127E-04 4.41020E-04 0.00000E+00
 -1       544 1.95804E-04 4.22965E-04 3.30872E-24
 -1       545 1.94629E-04 3.77191E-04 0.00000E+00
 -1       546 1.92438E-04 3.11836E-04 0.00000E+00
 -1       547 1.89472E-04 2.35159E-04 0.00000E+00
 -1       548 1.86533E-04 1.58857E-04 0.00000E+00
 -1       549 1.84413E-04 9.46250E-05 0.00000E+00
 -1       550 1.83311E-04 5.05068E-05 0.00000E+00
 -1       551 1.86437E-04-8.56750E-06 0.00000E+00
 -1       552 1.57965E-04-9.21918E-06 0.00000E+00
 -1       553 1.27196E-04-9.93299E-06-9.92617E-24
 -1       554 9.50906E-05-1.06878E-05 3.30872E-24
 -1       555 6.26092E-05-1.14561E-05-1.32349E-23
 -1       556 2.04009E-04 1.15914E-05 0.00000E+00
 -1       557 1.97818E-04 2.74807E-05 0.00000E+00
 -1       558 1.92963E-04 3.99597E-05 5.29396E-23
 -1       559 1.89311E-04 4.93388E-05 2.64698E-23
 -1       560 1.86732E-04 5.59290E-05 0.00000E+00
 -1       561 1.85098E-04 6.00438E-05 0.00000E+00
 -1       562 1.84284E-04 6.19979E-05 0.00000E+00
 -1       563 1.84164E-04 6.21070E-05 0.00000E+00
 -1       564 1.84619E-04 6.06876E-05 0.00000E+00
 -1       565 1.85525E-04 5.80570E-05 0.00000E+00
 -1       566 1.86765E-04 5.45330E-05 0.00000E+00
 -1       567 1.88218E-04 5.04336E-05 0.00000E+00
 -1       568 1.89766E-04 4.60774E-05 0.00000E+00
 -1       569 1.91292E-04 4.17825E-05-8.27181E-25
 -1       570 1.92677E-04 3.78674E-05 0.00000E+00
 -1       571 1.83121E-04 3.22915E-05-2.48154E-24
 -1       572 1.83220E-04 3.00973E-05-1.24077E-24
 -1       573 1.83319E-04 2.78530E-05 1.65436E-24
 -1       574 1.83418E-04 2.55750E-05 1.65436E-24
 -1       575 1.83518E-04 2.32798E-05 0.00000E+00
 -1       576 1.83617E-04 2.09837E-05 1.65436E-24
 -1       577 1.83717E-04 1.87034E-05 3.30872E-24
 -1       578 1.83816E-04 1.64554E-05 0.00000E+00
 -1       579 1.83916E-04 1.42562E-05 0.00000E+00
 -1       580 1.84016E-04 1.21223E-05 0.00000E+00
 -1       581 1.84116E-04 1.00704E-05 0.00000E+00
 -1       582 1.84216E-04 8.11684E-06 0.00000E+00
 -1       583 1.84316E-04 6.27820E-06 0.00000E+00
 -1       584 1.84417E-04 4.57080E-06-3.30872E-24
 -1       585 1.84517E-04 3.01081E-06 0.00000E+00
 -1       586 1.84780E-04 3.44597E-05-1.65436E-24
 -1       587 1.86495E-04 3.44989E-05 4.13590E-25
 -1       588 1.88212E-04 3.45378E-05 0.00000E+00
 -1       589 1.89974E-04 3.45760E-05 0.00000E+00
 -1       590 1.91824E-04 3.46129E-05 0.00000E+00
 -1       591 1.83754E-04 3.23852E-05-1.03398E-25
 -1       592 1.84486E-04 3.03307E-05 2.06795E-25
 -1       593 1.85224E-04 2.82621E-05 0.00000E+00
 -1       594 1.85964E-04 2.61841E-05 0.00000E+00
 -1       595 1.86706E-04 2.41016E-05-8.27181E-25
 -1       596 1.87448E-04 2.20191E-05 4.13590E-25
 -1       597 1.88188E-04 1.99414E-05 8.27181E-25
 -1       598 1.88925E-04 1.78733E-05-4.13590E-25
 -1       599 1.89656E-04 1.58193E-05 8.27181E-25
 -1       600 1.90381E-04 1.37841E-05 0.00000E+00
 -1       601 1.91096E-04 1.17726E-05 0.00000E+00
 -1       602 1.91801E-04 9.78923E-06-2.06795E-25
 -1       603 1.92494E-04 7.83883E-06 0.00000E+00
 -1       604 1.93173E-04 5.92616E-06 1.80946E-25
 -1       605 1.93837E-04 4.05582E-06 0.00000E+00
 -1       606 1.84631E-04 4.48713E-07 0.00000E+00
 -1       607 1.84641E-04-6.29820E-07 0.00000E+00
 -1       608 1.84650E-04-1.62759E-06 3.30872E-24
 -1       609 1.84658E-04-2.55029E-06-1.65436E-24
 -1       610 1.84666E-04-3.40364E-06-3.30872E-24
 -1       611 1.84675E-04-4.19344E-06 0.00000E+00
 -1       612 1.84683E-04-4.92548E-06 0.00000E+00
 -1       613 1.84691E-04-5.60557E-06 0.00000E+00
 -1       614 1.84700E-04-6.23953E-06 0.00000E+00
 -1       615 1.84708E-04-6.83315E-06 0.00000E+00
 -1       616 1.84716E-04-7.39224E-06 0.00000E+00
 -1       617 1.84725E-04-7.92263E-06 0.00000E+00
 -1       618 1.84733E-04-8.43009E-06 8.27181E-25
 -1       619 1.84742E-04-8.92047E-06 0.00000E+00
 -1       620 1.84750E-04-9.39954E-06 0.00000E+00
 -1       621 1.85977E-04 1.71704E-06 0.00000E+00
 -1       622 1.87494E-04 1.82129E-06 8.27181E-25
 -1       623 1.89138E-04 1.92533E-06 0.00000E+00
 -1       624 1.90874E-04 2.02904E-06 8.27181E-25
 -1       625 1.92668E-04 2.13245E-06 0.00000E+00
 -1       626 1.85167E-04 4.84836E-07 3.30872E-24
 -1       627 1.85693E-04-5.80372E-07 0.00000E+00
 -1       628 1.86198E-04-1.59044E-06 0.00000E+00
 -1       629 1.86686E-04-2.55352E-06 0.00000E+00
 -1       630 1.87160E-04-3.47781E-06-3.30872E-24
 -1       631 1.87622E-04-4.37153E-06 0.00000E+00
 -1       632 1.88076E-04-5.24286E-06 0.00000E+00
 -1       633 1.88525E-04-6.10004E-06-1.65436E-24
 -1       634 1.88971E-04-6.95125E-06 0.00000E+00
 -1       635 1.89418E-04-7.80471E-06 0.00000E+00
 -1       636 1.89869E-04-8.66864E-06-3.30872E-24
 -1       637 1.90327E-04-9.55124E-06 0.00000E+00
 -1       638 1.90795E-04-1.04607E-05 0.00000E+00
 -1       639 1.91276E-04-1.14053E-05 1.65436E-24
 -1       640 1.91773E-04-1.23933E-05 3.30872E-24
 -1       656 1.85464E-04-1.04517E-05 0.00000E+00
 -1       657 1.86590E-04-1.10538E-05 0.00000E+00
 -1       658 1.87996E-04-1.16545E-05-1.32349E-23
 -1       659 1.89537E-04-1.22549E-05-6.61744E-24
 -1       660 1.91028E-04-1.28570E-05 0.00000E+00
 -1       661 1.85022E-04-1.03918E-05 0.00000E+00
 -1       662 1.85324E-04-1.10024E-05-8.27181E-25
 -1       663 1.85658E-04-1.16997E-05 0.00000E+00
 -1       664 1.86023E-04-1.24772E-05 8.27181E-25
 -1       665 1.86416E-04-1.33290E-05-1.65436E-24
 -1       666 1.86834E-04-1.42491E-05 8.27181E-25
 -1       667 1.87276E-04-1.52321E-05 0.00000E+00
 -1       668 1.87739E-04-1.62722E-05-8.27181E-25
 -1       669 1.88222E-04-1.73640E-05 0.00000E+00
 -1       670 1.88721E-04-1.85023E-05 8.27181E-25
 -1       671 1.89237E-04-1.96818E-05-1.65436E-24
 -1       672 1.89765E-04-2.08974E-05 0.00000E+00
 -1       673 1.90305E-04-2.21441E-05-1.65436E-24
 -1       674 1.90855E-04-2.34172E-05 0.00000E+00
 -1       675 1.91412E-04-2.47114E-05 0.00000E+00
 -1       676 1.85220E-04-2.55058E-05 3.30872E-24
 -1       677 1.86575E-04-2.56101E-05 1.65436E-24
 -1       678 1.87928E-04-2.57143E-05 0.00000E+00
 -1       679 1.89279E-04-2.58182E-05-1.65436E-24
 -1       680 1.90627E-04-2.59221E-05 1.65436E-24
 -1       771 1.87532E-05 1.45001E-05-5.29396E-23
 -1       772 8.69559E-06 3.64573E-05 0.00000E+00
 -1       773 4.43181E-07 5.38708E-05 0.00000E+00
 -1       774-6.12826E-06 6.69984E-05 2.64698E-23
 -1       775-1.11403E-05 7.61084E-05 0.00000E+00
 -1       776-1.47195E-05 8.14856E-05 0.00000E+00
 -1       777-1.69921E-05 8.34252E-05-5.29396E-23
 -1       778-1.80870E-05 8.22361E-05 2.64698E-23
 -1       779-1.81323E-05 7.82358E-05 0.00000E+00
 -1       780-1.72584E-05 7.17530E-05 0.00000E+00
 -1       781-1.55946E-05 6.31234E-05 0.00000E+00
 -1       782-1.32717E-05 5.26916E-05 2.64698E-23
 -1       783-1.04198E-05 4.08065E-05 0.00000E+00
 -1       784-7.17011E-06 2.78236E-05 0.00000E+00
 -1       785-3.65283E-06 1.41011E-05 5.29396E-23
 -1       786 1.93844E-04 3.23932E-05 1.29247E-26
 -1       787 1.93886E-04 3.01903E-05 4.13590E-25
 -1       788 1.93928E-04 2.80290E-05 0.00000E+00
 -1       789 1.93970E-04 2.59011E-05 8.27181E-25
 -1       790 1.94013E-04 2.38020E-05 1.65436E-24
 -1       791 1.94056E-04 2.17269E-05-8.27181E-25
 -1       792 1.94098E-04 1.96736E-05-1.65436E-24
 -1       793 1.94141E-04 1.76399E-05-8.27181E-25
 -1       794 1.94184E-04 1.56257E-05 0.00000E+00
 -1       795 1.94227E-04 1.36308E-05 0.00000E+00
 -1       796 1.94271E-04 1.16571E-05-1.65436E-24
 -1       797 1.94314E-04 9.70647E-06 8.27181E-25
 -1       798 1.94357E-04 7.78319E-06 1.65436E-24
 -1       799 1.94400E-04 5.89158E-06-8.27181E-25
 -1       800 1.94444E-04 4.03919E-06-1.65436E-24
 -1       801 1.48009E-04 3.11465E-05-2.64698E-23
 -1       802 9.54353E-06 1.94302E-05 0.00000E+00
 -1       803-1.08739E-04 9.81229E-06 5.29396E-23
 -1       804-9.64068E-05 6.82932E-06 0.00000E+00
 -1       805-3.18447E-05 2.68386E-06 0.00000E+00
 -1       806 1.94535E-04 3.23243E-05 3.30872E-24
 -1       807 1.95250E-04 3.00288E-05 1.65436E-24
 -1       808 1.95954E-04 2.77645E-05 0.00000E+00
 -1       809 1.96643E-04 2.55355E-05 1.65436E-24
 -1       810 1.97318E-04 2.33460E-05 3.30872E-24
 -1       811 1.97976E-04 2.11998E-05 1.65436E-24
 -1       812 1.98617E-04 1.91009E-05 0.00000E+00
 -1       813 1.99239E-04 1.70534E-05 0.00000E+00
 -1       814 1.99840E-04 1.50610E-05 0.00000E+00
 -1       815 2.00419E-04 1.31277E-05-8.27181E-25
 -1       816 2.00975E-04 1.12574E-05 0.00000E+00
 -1       817 2.01505E-04 9.45411E-06 8.27181E-25
 -1       818 2.02010E-04 7.72163E-06-3.30872E-24
 -1       819 2.02486E-04 6.06390E-06-8.27181E-25
 -1       820 2.02934E-04 4.48475E-06 3.30872E-24
 -1       821 1.94358E-04-1.32249E-07-1.65436E-24
 -1       822 1.94218E-04-3.66033E-06 0.00000E+00
 -1       823 1.94076E-04-7.92010E-06-3.30872E-24
 -1       824 1.93930E-04-1.24764E-05 1.65436E-24
 -1       825 1.93786E-04-1.68142E-05 0.00000E+00
 -1       826 1.93644E-04-2.04192E-05 1.65436E-24
 -1       827 1.93505E-04-2.29771E-05 3.30872E-24
 -1       828 1.93369E-04-2.41799E-05 0.00000E+00
 -1       829 1.93233E-04-2.40887E-05 0.00000E+00
 -1       830 1.93097E-04-2.27723E-05 0.00000E+00
 -1       831 1.92959E-04-2.06332E-05 0.00000E+00
 -1       832 1.92820E-04-1.80790E-05 1.65436E-24
 -1       833 1.92682E-04-1.56304E-05 0.00000E+00
 -1       834 1.92547E-04-1.38074E-05 1.65436E-24
 -1       835 1.92412E-04-1.29601E-05 0.00000E+00
 -1       836 1.96178E-04 2.35875E-06 3.30872E-24
 -1       837 1.97741E-04 2.48699E-06 0.00000E+00
 -1       838 1.99208E-04 2.61516E-06 0.00000E+00
 -1       839 2.00611E-04 2.74264E-06 0.00000E+00
 -1       840 2.01982E-04 2.86995E-06 8.27181E-25
 -1       856 1.92270E-04-1.44949E-05 0.00000E+00
 -1       857 1.92250E-04-1.54212E-05 0.00000E+00
 -1       858 1.92231E-04-1.62328E-05 0.00000E+00
 -1       859 1.92212E-04-1.69509E-05 0.00000E+00
 -1       860 1.92192E-04-1.75967E-05-4.13590E-25
 -1       861 1.92172E-04-1.81916E-05 0.00000E+00
 -1       862 1.92152E-04-1.87567E-05-4.13590E-25
 -1       863 1.92133E-04-1.93135E-05 4.13590E-25
 -1       864 1.92113E-04-1.98834E-05 0.00000E+00
 -1       865 1.92093E-04-2.04875E-05-4.13590E-25
 -1       866 1.92073E-04-2.11474E-05 8.27181E-25
 -1       867 1.92053E-04-2.18842E-05 0.00000E+00
 -1       868 1.92033E-04-2.27191E-05 0.00000E+00
 -1       869 1.92013E-04-2.36733E-05 0.00000E+00
 -1       870 1.91992E-04-2.47679E-05 0.00000E+00
 -1       871 1.93636E-04-1.34378E-05-8.27181E-25
 -1       872 1.95133E-04-1.34462E-05 0.00000E+00
 -1       873 1.96710E-04-1.34552E-05-4.13590E-25
 -1       874 1.98298E-04-1.34650E-05 3.61892E-25
 -1       875 1.99828E-04-1.34753E-05 0.00000E+00
 -1       876 1.92811E-04-1.44804E-05-3.30872E-24
 -1       877 1.93315E-04-1.54610E-05 0.00000E+00
 -1       878 1.93796E-04-1.63828E-05 0.00000E+00
 -1       879 1.94259E-04-1.72531E-05 1.65436E-24
 -1       880 1.94705E-04-1.80794E-05 0.00000E+00
 -1       881 1.95137E-04-1.88689E-05-1.65436E-24
 -1       882 1.95559E-04-1.96292E-05 3.30872E-24
 -1       883 1.95972E-04-2.03675E-05 0.00000E+00
 -1       884 1.96380E-04-2.10911E-05 0.00000E+00
 -1       885 1.96785E-04-2.18074E-05 0.00000E+00
 -1       886 1.97190E-04-2.25238E-05-3.30872E-24
 -1       887 1.97598E-04-2.32476E-05 0.00000E+00
 -1       888 1.98011E-04-2.39861E-05-3.30872E-24
 -1       889 1.98431E-04-2.47468E-05-1.65436E-24
 -1       890 1.98862E-04-2.55371E-05 0.00000E+00
 -1       891 1.93335E-04-2.60813E-05 1.65436E-24
 -1       892 1.94675E-04-2.61390E-05-8.27181E-25
 -1       893 1.95967E-04-2.61966E-05-8.27181E-25
 -1       894 1.97185E-04-2.62539E-05 0.00000E+00
 -1       895 1.98305E-04-2.63110E-05 4.13590E-25
 -1       956 2.03222E-04 1.66604E-06-1.65436E-24
 -1       957 2.03090E-04 4.35722E-07-8.27181E-25
 -1       958 2.02957E-04-7.13701E-07 0.00000E+00
 -1       959 2.02824E-04-1.79358E-06 0.00000E+00
 -1       960 2.02691E-04-2.81532E-06 0.00000E+00
 -1       961 2.02559E-04-3.79033E-06 1.65436E-24
 -1       962 2.02426E-04-4.73006E-06-3.30872E-24
 -1       963 2.02293E-04-5.64598E-06 0.00000E+00
 -1       964 2.02160E-04-6.54952E-06-3.30872E-24
 -1       965 2.02027E-04-7.45214E-06 0.00000E+00
 -1       966 2.01895E-04-8.36532E-06 3.30872E-24
 -1       967 2.01762E-04-9.30049E-06-1.65436E-24
 -1       968 2.01629E-04-1.02691E-05 0.00000E+00
 -1       969 2.01496E-04-1.12826E-05 0.00000E+00
 -1       970 2.01364E-04-1.23523E-05 0.00000E+00
 -1       971 2.01114E-04-1.46256E-05 0.00000E+00
 -1       972 2.00993E-04-1.56675E-05 0.00000E+00
 -1       973 2.00871E-04-1.66253E-05 3.30872E-24
 -1       974 2.00750E-04-1.75098E-05-1.65436E-24
 -1       975 2.00628E-04-1.83318E-05 0.00000E+00
 -1       976 2.00507E-04-1.91022E-05 0.00000E+00
 -1       977 2.00385E-04-1.98319E-05-3.30872E-24
 -1       978 2.00264E-04-2.05317E-05 1.65436E-24
 -1       979 2.00143E-04-2.12127E-05 0.00000E+00
 -1       980 2.00021E-04-2.18857E-05 0.00000E+00
 -1       981 1.99900E-04-2.25617E-05 0.00000E+00
 -1       982 1.99779E-04-2.32514E-05 0.00000E+00
 -1       983 1.99657E-04-2.39659E-05 0.00000E+00
 -1       984 1.99537E-04-2.47159E-05-1.65436E-24
 -1       985 1.99417E-04-2.55125E-05 0.00000E+00
 -3
    1PSTEP                        46          23           1          
  100CL  123 6.63094E-01         409                     0   23           1
 -4  STRESS      6    1
 -5  SXX         1    4    1    1
 -5  SYY         1    4    2    2
 -5  SZZ         1    4    3    3
 -5  SXY         1    4    1    2
 -5  SYZ         1    4    2    3
 -5  SZX         1    4    3    1
 -1         1-5.31145E+06-1.64209E+06-1.13227E+06-1.42323E+06 1.89175E-10-8.96980E-08
 -1         2 1.33468E+06 1.96442E+07 4.63348E+06 5.90717E+06 2.89874E-08-1.50991E-07
 -1         3-1.59141E+03-1.63408E+06 2.75276E+02-2.65931E+03 7.42595E-10-3.64817E-08
 -1         5-7.52872E+01 3.86638E+05 9.99096E+00-1.34416E+00-5.74733E-10-3.12884E-08
 -1         8-5.80501E+05-2.06696E+05-6.59744E+04-2.51439E+05-1.20963E-10 1.25183E-08
 -1         9 1.15975E+07 3.43111E+06 2.68477E+06-4.28978E+05 1.28639E-08-1.14040E-07
 -1        10-1.47875E+03-1.66952E+06-3.47918E+03-1.66366E+04-3.39787E-09-7.90442E-09
 -1        12-7.13653E+01 3.86660E+05 3.28425E+02-9.16094E+00-6.39432E-10 2.23554E-08
 -1        15 9.58892E+02 5.26958E+02 3.09959E+03 8.99202E-01-3.11999E-10 2.22753E-07
 -1        16 2.27854E+07-3.08635E+05 3.10808E+06-2.21126E+06 5.82077E-11 5.56465E-08
 -1        17 8.32984E+06 6.24271E+06 2.25127E+06 5.97809E+06 2.38011E-08 1.44704E-08
 -1        18 1.42948E+05 3.36765E+04 4.29616E+03-1.19637E+05 1.54746E-08 8.31778E-09
 -1        19 1.22463E+05 1.41759E+05-9.42666E+02 2.19671E+04 1.60435E-09 6.48542E-09
 -1        20-8.20123E+04-5.73894E+05-1.28779E+05 2.51084E+04-1.91039E-09 1.13644E-08
 -1        21-4.55834E+01-2.96070E+05-9.24125E+02 2.75301E+02 1.02386E-08-4.09065E-08
 -1        24 1.39180E+07 1.19977E+07 3.85709E+06 1.11111E+07-1.68860E-07-5.24257E-08
 -1        25 1.25180E+05 2.67803E+05 1.00137E+05-6.45920E+05-6.82030E-10 6.64495E-09
 -1        26-5.53835E+04 9.23691E+04-2.46302E+04 1.28960E+03 2.43745E-11 5.03335E-09
 -1        27-7.55903E+04-3.10052E+05-1.13339E+05 6.89934E+04 3.57083E-09-4.77758E-09
 -1        28 2.22448E+04-8.53683E+04 1.69013E+04 2.06108E+04-5.00748E-09-1.02102E-08
 -1        32-1.68077E+06-3.18088E+06-1.97387E+05 4.57952E+05-4.26226E-08-7.45581E-09
 -1        33-1.78502E+05 9.30615E+04 3.24034E+04-3.85248E+04-3.24864E-09 1.79562E-08
 -1        34-2.23661E+05-2.50443E+04 6.90108E+02 7.56888E+04-6.01077E-09-1.03695E-08
 -1        35-2.29349E+04-3.38548E+04-1.34879E+03 5.15069E+04-4.09379E-09 1.43433E-08
 -1        51 6.01180E+04-1.75671E+05 1.27281E+05-4.53503E+05 2.91038E-10 1.06396E-07
 -1        52 2.04199E+04-1.53526E+05 6.68765E+04-5.28894E+05 5.70253E-10 4.55984E-08
 -1        53 4.24507E+03-1.68920E+05 3.49715E+04-4.51933E+05 2.43745E-10 8.96107E-08
 -1        54 7.64424E+03-1.64724E+05 2.90286E+04-5.30443E+05-1.30967E-10-2.75759E-09
 -1        55 1.66255E+04-1.71913E+05 3.56532E+04-4.51825E+05 1.96451E-10 4.43597E-08
 -1        56-9.70908E+06-1.30154E+06-8.88834E+05-4.00603E+06-2.28756E-08-1.99943E-08
 -1        57-1.08805E+07-9.86478E+05-5.53094E+05-2.85195E+06-6.86850E-09 3.63798E-09
 -1        58-9.60271E+06-1.73370E+06-1.99161E+05-4.15424E+06 1.36351E-08 9.21427E-08
 -1        59-1.09549E+07-5.02311E+05-1.10999E+05-2.79443E+06-1.65119E-08-2.87855E-08
 -1        60-9.68524E+06-1.73979E+06-5.40919E+04-4.10920E+06 1.47702E-08-2.20520E-07
 -1        61-1.04469E+07-7.69971E+05 2.89440E+03-3.02703E+06 2.38651E-08-3.76156E-07
 -1        62-1.00161E+07-1.52950E+06-5.63637E+04-3.84819E+06-4.11892E-08-2.89987E-07
 -1        63-9.73754E+06-1.34964E+06 3.40154E+04-3.61863E+06 6.15255E-08 1.44908E-07
 -1        64-1.03221E+07-1.21149E+06-5.16407E+04-3.47078E+06-2.41416E-08-1.66085E-07
 -1        65-9.39176E+06-1.85528E+06 1.28559E+03-4.34447E+06 9.02219E-10-2.87517E-07
 -1        66-1.04485E+07-9.63839E+05-4.52786E+04-3.18715E+06-2.01071E-08 1.09249E-07
 -1        67-9.36983E+06-2.08321E+06-1.00107E+05-4.68293E+06-6.68442E-08-1.50612E-07
 -1        68-1.04294E+07-9.24478E+05-1.83406E+05-3.18667E+06-4.41887E-08-3.29310E-08
 -1        69-9.58241E+06-2.19552E+06-4.94060E+05-4.31084E+06-7.09988E-08-1.97477E-07
 -1        70-1.01591E+07-9.16467E+05-8.12444E+05-3.50590E+06 8.31460E-09 9.62173E-08
 -1        86-1.36094E+06-1.44805E+07-2.53403E+06-2.78171E+06-2.56499E-07-1.39305E-07
 -1        87 2.11281E+06 5.51636E+06 2.10846E+06 5.26442E+06-4.32578E-07-6.82048E-08
 -1        88-3.84333E+05-2.08040E+06 1.95826E+05-2.41459E+06-4.24856E-07-3.31815E-08
 -1        89 2.83232E+06 5.26315E+06 2.15816E+06 5.43128E+06-5.70079E-07-3.89682E-08
 -1        90-2.00055E+06-1.42933E+07-2.74174E+06-2.97196E+06-1.31833E-07 1.20912E-07
 -1       121-2.18318E+03-1.63969E+06-8.66921E+02 1.31862E+03 3.04254E-10 1.22600E-08
 -1       122-1.43780E+03-1.63421E+06 4.14464E+02-5.31842E+03 5.66453E-09 1.04774E-09
 -1       123-2.15537E+03-1.63979E+06-5.51927E+02 3.93416E+03 2.06705E-09 3.76895E-09
 -1       124-3.90658E+02-1.63429E+06 1.29050E+03-1.10065E+04 1.11122E-08-2.34722E-08
 -1       125-2.54342E+03-1.64032E+06 6.10476E+02 6.95252E+03 3.56340E-09-1.15615E-08
 -1       191-7.93389E+01 3.86657E+05 8.49743E+00 7.00840E-01-6.48522E-10-1.09649E-08
 -1       192-7.62518E+01 3.86639E+05 2.13204E+01-4.30837E+00-7.90743E-10-1.62136E-08
 -1       193-8.18779E+01 3.86656E+05 3.62996E+01 3.78363E+00-1.01506E-09-1.72804E-08
 -1       194-7.93444E+01 3.86642E+05 8.10502E+01-9.77582E+00-6.42468E-10-3.54930E-08
 -1       195-8.67514E+01 3.86654E+05 1.55174E+02 6.36174E+00-1.52132E-09-1.89229E-08
 -1       251-9.00839E+05 1.69929E+04-3.97348E+04-1.46800E+04 3.71909E-09 2.09693E-07
 -1       252-9.16487E+05-1.96350E+04-2.77439E+04 5.06703E+04 6.88715E-10 2.80705E-07
 -1       253-9.09156E+05 2.62760E+03-1.05911E+04-1.11714E+04-9.27139E-09 1.20390E-07
 -1       254-9.03193E+05-3.12321E+03-5.04855E+03 3.70517E+04 2.12409E-08-8.63861E-08
 -1       255-9.13567E+05 1.11852E+02-3.56347E+03-1.06372E+03-1.21734E-08 1.39751E-08
 -1       256-8.97490E+05-3.10682E+02 9.55129E+02 1.36428E+04 2.42724E-08 9.62521E-08
 -1       257-9.14399E+05-5.26889E+02-1.39076E+03 1.22275E+04-2.59479E-09-4.88814E-08
 -1       258-8.99798E+05 8.29153E+02 2.59622E+03-1.15631E+04-1.03117E-08-1.52107E-07
 -1       259-9.11464E+05-8.69258E+02 1.30171E+03 2.41391E+04 3.59864E-09-2.10477E-07
 -1       260-9.05915E+05 2.77870E+03 5.40364E+03-2.99707E+04-7.72280E-09-2.71793E-07
 -1       261-9.08892E+05-2.00385E+03 8.37814E+03 3.06492E+04 1.65173E-08 1.35018E-07
 -1       262-9.04674E+05 1.13438E+04 2.08261E+04-3.54064E+04-1.36509E-08 4.61626E-07
 -1       263-9.12952E+05-9.20931E+03 3.29901E+04 2.95835E+04-5.16161E-09 1.86052E-07
 -1       264-8.75094E+05 6.48545E+04 9.13571E+04-2.59448E+04 2.05617E-08-1.71398E-07
 -1       265-9.37986E+05-5.56470E+04 1.27192E+05 2.11765E+04 1.61544E-08-4.16767E-08
 -1       266-1.73594E+04-8.11804E+03 4.07263E+04-1.92387E+01 2.01908E-10 1.31346E-07
 -1       267 2.01240E+04 9.46051E+03 2.87866E+04 2.21994E+01-9.45874E-11-2.85079E-07
 -1       268-2.69861E+03-1.33994E+03 1.06998E+04-2.82849E+00 2.09184E-10-7.13865E-09
 -1       269 3.18624E+03 1.60355E+03 6.95477E+03 3.29488E+00-4.77485E-11-2.46188E-07
 -1       270-4.78260E+02-2.63479E+02 3.35716E+03-4.47132E-01-1.23691E-10-4.64529E-08
 -1       271-1.53236E+06-1.93680E+05-1.15133E+05-5.95285E+05 4.20914E-09-1.07379E-07
 -1       272-1.53700E+06-3.04309E+05-7.26612E+04-6.26863E+05 2.29466E-08-3.73935E-07
 -1       273-1.55641E+06-2.18740E+05-2.77880E+04-5.87311E+05-3.95812E-09 1.28359E-07
 -1       274-1.50916E+06-2.74268E+05-1.46604E+04-6.41506E+05-1.81881E-08 1.74477E-07
 -1       275-1.56195E+06-2.18682E+05-6.84924E+03-5.83656E+05 8.35644E-09-2.00816E-09
 -1       276-1.50317E+06-2.74931E+05-3.00587E+03-6.49586E+05 1.92904E-08 1.89047E-07
 -1       277-1.56468E+06-2.16251E+05-1.87898E+03-5.81003E+05 4.38722E-08 8.57090E-08
 -1       278-1.50073E+06-2.78082E+05-7.87647E+02-6.55547E+05 4.56021E-08-9.68394E-08
 -1       279-1.56644E+06-2.14210E+05-9.23330E+02-5.79118E+05-2.82325E-08-6.55155E-08
 -1       280-1.49953E+06-2.80533E+05-1.13746E+03-6.59533E+05 1.79871E-08-2.47797E-07
 -1       281-1.56738E+06-2.12865E+05-2.09616E+03-5.78026E+05-3.67163E-08-8.60170E-08
 -1       282-1.49989E+06-2.82970E+05-4.88771E+03-6.61254E+05 1.64916E-08 3.26786E-08
 -1       283-1.56683E+06-2.11427E+05-8.69409E+03-5.77855E+05-2.79636E-08-5.13396E-08
 -1       284-1.50761E+06-2.94555E+05-2.36951E+04-6.59094E+05 2.79810E-08-1.00590E-07
 -1       285-1.55972E+06-2.02537E+05-3.69321E+04-5.79690E+05 9.66907E-09-2.07599E-07
 -1       301-3.81529E+03-6.38143E+05 1.67531E+05-1.11740E+06 1.19617E-08 2.42842E-07
 -1       302-4.78907E+03-5.92130E+05 1.00840E+05-1.63139E+06-8.38918E-09-2.32649E-07
 -1       303-1.91313E+04-6.29782E+05 5.72356E+04-1.11438E+06 1.30021E-08 8.76753E-10
 -1       304-2.07405E+04-5.98457E+05 5.80592E+04-1.63074E+06 1.43627E-08 8.71660E-09
 -1       305-2.31347E+04-6.18846E+05 7.19812E+04-1.11748E+06 7.26504E-09-1.31346E-07
 -1       306-3.01145E+07-6.21895E+06-8.60411E+06-5.48102E+05-1.07684E-07-1.05036E-07
 -1       307 2.54067E+07 3.24025E+06 5.51758E+06-1.51546E+07-8.08039E-07-1.08877E-07
 -1       308-7.01259E+06-1.03297E+06-4.64879E+05 5.20565E+06-6.10889E-08 3.99436E-07
 -1       309-3.29186E+06 8.73638E+06 2.27750E+06-2.06474E+07 5.62566E-07 3.14845E-07
 -1       310-1.24997E+07-1.92954E+06-2.01336E+06 5.21496E+06 5.60540E-08 1.50394E-07
 -1       311 3.82082E+07 2.55977E+04 7.24741E+06-8.88095E+06 4.81727E-07 1.83587E-07
 -1       312-3.18757E+07-6.73575E+06-8.51141E+06-4.98001E+06 2.84868E-07 1.03377E-07
 -1       313 4.54374E+07 1.48769E+07 1.06490E+07 2.36760E+07 1.60770E-07-1.13563E-07
 -1       314-1.72766E+07-1.77164E+07-7.51858E+06-1.25271E+07 4.08094E-07-1.52446E-07
 -1       315-1.74967E+06 2.96589E+07 5.66994E+06 1.06220E+07-4.50556E-07 1.68569E-07
 -1       316 1.36854E+06-9.85107E+06-4.49608E+05-2.56380E+06-1.17300E-06-3.70172E-07
 -1       317-1.71384E+07 2.23989E+07 2.23336E+06-8.76470E+06 8.50589E-07-9.56818E-07
 -1       318-1.06398E+06-1.27361E+07-2.02580E+06-4.24047E+06-9.29285E-07 9.89530E-08
 -1       319 7.14981E+06 3.18518E+07 7.01232E+06 1.65565E+07-9.17935E-08 2.39350E-07
 -1       320-2.25527E+07-1.75945E+07-9.82795E+06-1.27873E+07 1.82772E-07-6.09143E-08
 -1       336-1.14416E+03-1.70746E+06-1.07540E+04 9.51077E+03-2.76486E-08-7.90897E-09
 -1       337-4.24622E+03-1.70669E+06-1.62702E+04-2.26423E+04-5.13010E-08-9.16953E-09
 -1       338 4.75961E+02-1.70648E+06-2.77401E+04 1.29050E+04-3.52920E-08 8.27640E-09
 -1       339-3.00997E+04-1.72450E+06-6.43567E+04-2.92625E+04-6.32390E-08 2.78960E-08
 -1       340 2.02795E+04-1.69177E+06-1.01707E+05 1.60082E+04-4.20041E-08 2.80488E-08
 -1       406-4.96382E+01 3.86639E+05 6.44863E+02 3.35237E+00-1.89530E-09 1.50103E-08
 -1       407 1.55101E+02 3.86774E+05 1.37811E+03 2.33976E+01-3.60714E-10-2.40725E-08
 -1       408 6.35682E+02 3.86539E+05 2.74784E+03-2.70714E+01-2.31216E-09-1.21145E-08
 -1       409 2.91016E+03 3.87651E+05 6.19337E+03 2.89047E+02-3.16504E-10-5.34783E-09
 -1       410 8.48904E+03 3.85748E+05 1.26404E+04-2.78755E+02-2.82671E-09 1.79716E-09
 -1       521-3.16432E+07-7.66990E+06-1.00443E+07-1.56977E+05-1.56346E-07 3.21306E-08
 -1       522 2.62494E+07 4.25129E+06 5.62013E+06-1.86469E+07-4.40283E-07-4.09345E-07
 -1       523-7.59027E+06-1.34394E+06-4.56730E+05 5.65065E+06 1.18278E-07-5.91172E-07
 -1       524-6.79111E+06 1.17758E+07 2.46140E+06-2.36944E+07 9.21718E-07-7.41806E-07
 -1       525-1.32981E+07-2.55778E+06-2.21178E+06 5.66187E+06 8.61881E-07-2.68570E-07
 -1       526 4.16689E+07-6.19457E+04 7.60168E+06-1.15257E+07 1.68337E-07 8.74570E-08
 -1       527-3.37031E+07-8.42466E+06-9.80355E+06-4.83982E+06-7.75326E-08-2.04891E-08
 -1       528 4.95832E+07 1.65544E+07 1.10998E+07 2.68994E+07 2.88070E-07-4.25265E-07
 -1       529-1.82141E+07-1.99074E+07-8.61387E+06-1.25539E+07 3.47150E-07-3.36091E-07
 -1       530-4.23033E+06 3.44182E+07 5.99545E+06 1.00966E+07 6.24277E-09 3.57279E-07
 -1       531 1.36411E+06-1.09215E+07-4.23083E+05-2.51790E+06-9.13336E-07 3.84578E-07
 -1       532-1.96692E+07 2.44042E+07 2.43848E+06-1.30311E+07 5.45493E-07-5.88509E-07
 -1       533-1.10924E+06-1.38788E+07-2.15446E+06-4.05518E+06-2.15718E-07-1.00821E-06
 -1       534 5.13277E+06 3.69333E+07 7.29278E+06 1.71172E+07-8.25967E-08 7.41740E-07
 -1       535-2.37216E+07-1.99684E+07-1.12592E+07-1.28497E+07 1.20723E-07 4.56290E-07
 -1       536-7.07421E+05-4.71460E+04-4.78225E+04-5.48332E+04-2.64572E-09 7.49287E-08
 -1       537-5.36199E+04 4.51184E+04 8.46030E+04 1.24130E+05-1.10491E-07 9.85856E-08
 -1       538-3.94542E+05 3.31585E+03 3.69530E+03-7.23503E+04 4.88159E-08 1.09833E-07
 -1       539-2.68685E+05 2.91339E+03 2.50917E+04 1.39037E+05 1.65309E-07 1.20488E-07
 -1       540-4.97756E+05-4.36987E+02-2.13571E+04-7.02778E+04 3.22884E-08 8.74705E-08
 -1       541 1.48403E+05 1.70390E+04 1.06766E+05 9.81910E+04-6.50841E-08 9.24889E-08
 -1       542-8.00390E+05-2.02048E+04-8.45157E+04-3.06246E+04 3.19769E-08 3.45574E-08
 -1       543 4.08070E+05 2.74222E+04 1.58532E+05-1.33688E+04-2.13358E-08-4.45061E-09
 -1       544-7.50458E+05-1.65981E+04-7.51024E+04 4.06092E+04 8.91077E-09-3.86077E-08
 -1       545 3.04547E+04 9.52331E+03 8.01150E+04-1.13883E+05-3.09365E-09-9.25058E-08
 -1       546-4.32917E+05 6.11208E+03-1.22710E+04 6.95414E+04 2.63497E-08-9.03806E-08
 -1       547-2.86807E+05-4.65686E+03 1.06559E+04-1.41890E+05-1.39906E-07-9.99887E-08
 -1       548-4.41727E+05 4.72663E+03-2.39211E+04 6.93108E+04-1.16651E-07-9.44615E-08
 -1       549 4.96068E+04 1.62079E+04 6.08333E+04-1.11758E+05-5.85961E-08-9.60883E-08
 -1       550-7.60329E+05-2.22865E+04-1.29256E+05 3.86897E+04 6.44741E-09-4.93710E-08
 -1       551 4.10050E+04-7.55080E+05-1.55492E+04-1.24762E+06-1.02867E-07-3.25963E-08
 -1       552 9.34735E+04-8.00031E+05 1.01356E+04-1.77901E+06-7.15081E-08 2.60916E-08
 -1       553 7.18718E+04-7.96358E+05 3.22122E+04-1.24097E+06-1.18962E-07 2.49274E-08
 -1       554 1.32202E+05-8.15765E+05 8.13001E+04-1.78095E+06-7.61065E-08 1.46301E-08
 -1       555 1.01591E+05-8.19932E+05 1.48415E+05-1.24082E+06-1.21297E-07-6.37192E-09
 -1       556 2.23843E+05-3.83791E+05 2.63633E+04-4.07449E+05-2.41562E-08-1.18453E-08
 -1       557 3.54613E+05-4.88213E+05 1.64699E+04-5.27846E+05-5.80621E-09 9.60426E-09
 -1       558 2.05629E+05-3.76683E+05 2.45059E+03-4.11829E+05-2.27010E-08-5.16593E-10
 -1       559 3.29490E+05-4.88356E+05 2.50488E+03-5.48325E+05 6.00994E-09 1.69457E-08
 -1       560 1.90304E+05-3.67073E+05-1.48157E+03-4.22874E+05 9.77889E-09 1.94996E-08
 -1       561 3.10224E+05-4.80650E+05 1.42831E+02-5.61461E+05 2.28465E-09 9.99717E-09
 -1       562 1.78183E+05-3.59541E+05-1.32466E+03-4.31653E+05-1.36788E-09 4.16185E-09
 -1       563 2.95823E+05-4.74372E+05-3.48207E+01-5.70867E+05 1.62981E-09 2.05910E-09
 -1       564 1.69529E+05-3.54150E+05-6.02119E+02-4.37786E+05 5.23869E-09-3.40469E-09
 -1       565 2.86268E+05-4.70211E+05 2.38695E+01-5.76973E+05 1.15469E-08 6.14909E-09
 -1       566 1.64467E+05-3.50947E+05-2.61452E+02-4.41327E+05-6.94126E-09-6.67205E-09
 -1       567 2.81617E+05-4.68188E+05-3.63906E+02-5.79798E+05 2.40016E-08 1.60617E-08
 -1       568 1.63086E+05-3.50102E+05-1.12876E+03-4.42388E+05-2.67391E-09 6.31917E-09
 -1       569 2.80483E+05-4.68112E+05-2.85086E+03-5.78376E+05-8.49832E-09 2.42653E-08
 -1       570 1.66482E+05-3.53335E+05-6.23052E+03-4.41369E+05 9.04402E-09 7.79073E-09
 -1       571 2.90644E+05 1.05115E+04 1.49941E+04-9.53449E+04 9.29504E-10 1.49880E-08
 -1       572 2.92817E+05 3.96303E+03 7.34830E+03-1.04603E+05 2.81761E-09 3.61888E-09
 -1       573 2.91507E+05 1.24762E+03 3.26509E+03-9.51681E+04 3.14139E-09-2.74486E-09
 -1       574 2.91721E+05 7.29151E+02 1.63742E+03-1.04828E+05 5.50517E-09-5.87079E-09
 -1       575 2.91601E+05 4.49724E+02 7.72820E+02-9.51439E+04-5.45285E-10 8.19637E-09
 -1       576 2.91585E+05 4.61223E+02 3.95686E+02-1.04858E+05-4.87853E-09-1.68448E-08
 -1       577 2.91641E+05 3.91563E+02 1.97530E+02-9.51406E+04-8.75116E-09 9.41327E-10
 -1       578 2.91615E+05 4.23059E+02 1.14117E+02-1.04862E+05-9.36097E-09 9.44146E-09
 -1       579 2.91713E+05 3.54730E+02 7.83810E+01-9.51402E+04 1.31495E-08-4.54475E-09
 -1       580 2.91718E+05 3.71833E+02 9.09885E+01-1.04857E+05 9.70977E-09 1.81699E-08
 -1       581 2.91827E+05 2.95911E+02 1.37432E+02-9.51462E+04 1.68893E-08 1.45947E-08
 -1       582 2.91893E+05 3.34186E+02 2.79450E+02-1.04795E+05 2.15368E-09-2.67300E-09
 -1       583 2.91968E+05 3.38084E+02 5.36337E+02-9.52028E+04 1.04301E-08 1.39607E-09
 -1       584 2.92270E+05 7.76147E+02 1.21371E+03-1.04318E+05 2.71757E-08-3.72120E-09
 -1       585 2.91995E+05 1.79740E+03 2.45767E+03-9.56227E+04 1.10249E-08 2.45200E-09
 -1       586-3.42007E+03 1.17084E+05-2.90659E+03-2.50748E+05-5.85442E-09-2.52476E-09
 -1       587-1.33821E+03 1.16837E+05 7.78834E+02-2.75966E+05-5.52973E-09-7.90408E-09
 -1       588 3.99061E+02 1.16642E+05 4.76773E+03-2.50609E+05-1.53887E-09 9.77889E-09
 -1       589 5.09045E+03 1.19118E+05 1.23595E+04-2.75733E+05-7.25231E-09-6.86032E-09
 -1       590 1.66276E+04 1.15307E+05 2.59242E+04-2.51041E+05-8.53834E-09 4.45652E-09
 -1       591-7.51687E+04-1.60027E+04-2.25597E+04-3.20283E+04 8.67203E-10 3.22507E-09
 -1       592-7.92646E+04-1.95640E+04-1.22202E+04-3.56571E+04-7.37526E-09-1.20682E-08
 -1       593-7.74249E+04-1.43657E+04-5.08664E+03-3.36824E+04-9.57126E-10-1.86301E-08
 -1       594-7.61498E+04-1.62536E+04-2.53683E+03-3.57751E+04 2.69154E-11-6.85077E-10
 -1       595-7.75969E+04-1.43603E+04-1.16466E+03-3.37576E+04-4.45839E-09 3.13469E-08
 -1       596-7.59365E+04-1.61022E+04-5.91843E+02-3.57497E+04-5.85473E-10 1.53877E-08
 -1       597-7.76185E+04-1.43757E+04-3.21819E+02-3.37604E+04-1.03648E-09 3.69511E-09
 -1       598-7.59155E+04-1.60963E+04-2.57867E+02-3.57426E+04-6.00858E-09 2.70840E-08
 -1       599-7.76172E+04-1.43762E+04-3.28350E+02-3.37601E+04 4.01326E-09-9.74683E-09
 -1       600-7.59365E+04-1.61028E+04-6.09133E+02-3.57476E+04 3.65037E-09 4.61176E-09
 -1       601-7.75925E+04-1.43617E+04-1.20125E+03-3.37566E+04 1.11868E-09 1.13232E-10
 -1       602-7.61564E+04-1.62578E+04-2.61778E+03-3.57698E+04-4.58124E-09-1.48693E-08
 -1       603-7.74123E+04-1.43702E+04-5.24961E+03-3.36799E+04 5.19549E-10 8.86575E-09
 -1       604-7.93886E+04-1.96545E+04-1.26108E+04-3.56233E+04 3.86586E-09 4.04543E-09
 -1       605-7.50639E+04-1.60773E+04-2.32811E+04-3.19922E+04 5.35022E-09 1.14596E-08
 -1       606 2.66833E+04-1.43392E+04-2.57052E+04 2.39684E+04 9.36052E-09 7.08337E-09
 -1       607 2.22912E+04-4.68319E+03-1.28011E+04 2.69355E+04 5.96629E-10-1.99293E-09
 -1       608 2.47944E+04-8.44865E+02-5.73063E+03 2.37999E+04-2.43926E-09-1.42638E-08
 -1       609 2.43146E+04-2.89494E+02-2.89496E+03 2.71493E+04 8.14907E-10-1.95380E-08
 -1       610 2.45807E+04-4.10709E+01-1.38121E+03 2.37798E+04 8.77390E-09 7.61497E-09
 -1       611 2.45054E+04-4.13735E+01-6.96398E+02 2.71724E+04 2.46564E-08 1.11202E-08
 -1       612 2.45336E+04-2.73853E+01-3.31046E+02 2.37778E+04 9.92168E-09-1.10706E-08
 -1       613 2.45171E+04-3.73103E+01-1.48315E+02 2.71752E+04 5.18821E-09-1.93120E-08
 -1       614 2.45115E+04-3.38360E+01-3.46925E+01 2.37771E+04 2.08638E-09-5.91649E-09
 -1       615 2.45118E+04-3.58438E+01 6.23710E+01 2.71756E+04-1.53887E-09-1.08507E-08
 -1       616 2.44941E+04-3.07297E+01 1.86839E+02 2.37774E+04-7.26686E-09-9.29526E-09
 -1       617 2.45343E+04 3.94971E+00 4.26204E+02 2.71751E+04-2.00755E-08 3.85965E-08
 -1       618 2.44571E+04 9.21198E+01 8.59055E+02 2.37777E+04-7.65749E-09 2.09795E-08
 -1       619 2.48376E+04 6.68158E+02 1.92906E+03 2.71745E+04-1.42506E-09-1.43179E-08
 -1       620 2.41718E+04 2.12915E+03 3.87735E+03 2.37792E+04-2.95165E-09 7.14454E-09
 -1       621 5.12768E+02 3.01713E+05 3.89629E+03 4.11242E+04 9.44056E-10-1.60653E-08
 -1       622 6.79376E+02 3.02613E+05 3.45550E+03 5.97030E+04 1.36470E-09-2.12353E-08
 -1       623 1.43399E+02 3.01909E+05 4.14927E+03 4.09382E+04 1.11436E-09-1.14078E-08
 -1       624 2.12991E+03 3.03831E+05 8.04128E+03 5.98860E+04 1.27363E-09 3.96176E-09
 -1       625 2.08075E+03 3.00314E+05 1.40506E+04 4.09350E+04 1.31240E-09-7.14135E-09
 -1       626 2.61000E+05 6.14152E+04 5.11734E+03 1.26770E+05 4.55202E-09-1.58007E-08
 -1       627 2.58683E+05 6.28119E+04 2.46601E+03 1.31041E+05 1.17270E-08-3.19640E-08
 -1       628 2.61127E+05 5.90738E+04 1.04294E+03 1.27640E+05 2.79852E-09-2.46882E-09
 -1       629 2.58048E+05 6.21321E+04 5.10471E+02 1.31281E+05-8.13543E-10-2.16242E-08
 -1       630 2.61142E+05 5.89607E+04 2.36904E+02 1.27677E+05-2.32831E-10 5.93070E-09
 -1       631 2.57981E+05 6.21062E+04 1.27632E+02 1.31283E+05 8.89941E-09 3.65344E-09
 -1       632 2.61138E+05 5.89646E+04 8.42425E+01 1.27673E+05 9.46238E-09-1.25422E-08
 -1       633 2.57973E+05 6.21080E+04 9.42406E+01 1.31279E+05 4.48495E-09 8.78276E-09
 -1       634 2.61134E+05 5.89617E+04 1.52645E+02 1.27672E+05 2.69813E-09-1.95314E-09
 -1       635 2.57987E+05 6.21063E+04 3.09091E+02 1.31285E+05 1.37247E-08-2.00453E-09
 -1       636 2.61125E+05 5.89559E+04 6.24320E+02 1.27672E+05-3.03089E-10-2.13427E-08
 -1       637 2.58122E+05 6.22034E+04 1.37280E+03 1.31284E+05-5.86806E-09-3.05081E-08
 -1       638 2.61076E+05 5.92591E+04 2.82060E+03 1.27535E+05-4.80441E-09-4.58294E-09
 -1       639 2.59604E+05 6.42641E+04 6.67369E+03 1.30848E+05-2.33740E-09 3.05358E-08
 -1       640 2.60871E+05 6.54127E+04 1.38491E+04 1.24942E+05-6.48060E-09-8.57085E-09
 -1       656 6.66104E+04-1.70476E+06-1.60793E+05-2.56230E+03-5.89353E-10-1.84149E-08
 -1       657-8.81200E+04-1.77742E+06-1.33208E+05 5.15660E+03-9.02219E-10-1.41006E-08
 -1       658 2.12333E+04-1.72539E+06-8.20403E+04-4.64761E+03-1.93040E-10-2.07087E-08
 -1       659-9.52903E+04-1.78082E+06-1.42631E+05 6.88979E+03-1.36788E-09 1.16804E-08
 -1       660 7.37647E+04-1.70136E+06-1.76994E+05-4.29547E+03-2.36469E-09 8.57958E-09
 -1       661 1.58506E+05 1.65846E+04 1.67141E+04 6.19637E+04-7.18046E-10-8.93579E-09
 -1       662 1.67958E+05 2.89605E+04 1.12642E+04 5.82116E+04 4.54747E-10-6.07542E-09
 -1       663 1.61789E+05 2.19468E+04 3.93948E+03 6.10109E+04-8.74024E-10-5.56838E-10
 -1       664 1.64151E+05 2.26898E+04 2.35664E+03 5.93755E+04-4.11129E-09-2.67533E-08
 -1       665 1.62287E+05 2.26791E+04 9.29677E+02 6.08656E+04-1.71440E-10-1.59336E-08
 -1       666 1.63562E+05 2.18524E+04 5.44197E+02 5.95651E+04 1.03064E-08-3.89318E-09
 -1       667 1.62375E+05 2.27624E+04 2.89250E+02 6.08291E+04 1.47944E-09-9.54287E-09
 -1       668 1.63465E+05 2.17926E+04 2.95184E+02 5.96181E+04 1.81339E-09-3.68152E-08
 -1       669 1.62383E+05 2.27372E+04 4.00012E+02 6.08128E+04-3.64207E-09 6.92523E-10
 -1       670 1.63563E+05 2.20099E+04 8.71383E+02 5.96210E+04-1.04633E-08 2.86411E-09
 -1       671 1.62277E+05 2.25496E+04 1.54733E+03 6.08242E+04 3.35432E-09-8.86416E-09
 -1       672 1.64465E+05 2.35152E+04 3.95889E+03 5.94025E+04 6.30592E-09 4.96129E-10
 -1       673 1.61485E+05 2.12700E+04 6.63450E+03 6.10168E+04 3.52509E-09-1.04919E-08
 -1       674 1.70779E+05 3.41743E+04 1.89733E+04 5.75474E+04-6.01767E-09 3.16277E-10
 -1       675 1.56004E+05 1.21891E+04 2.81630E+04 6.25672E+04-5.44742E-09 8.64566E-09
 -1       676 2.41197E+01-2.95993E+05-1.11382E+03-1.37655E+02 1.67290E-09-7.36209E-09
 -1       677-2.94627E+02-2.96262E+05-2.03847E+03 2.75087E+02 8.46890E-09-1.36568E-09
 -1       678 1.97614E+02-2.95801E+05-3.60352E+03-1.37343E+02 2.71189E-09-5.93049E-09
 -1       679-3.60357E+03-2.98438E+05-8.56046E+03 2.73899E+02 1.05101E-08 4.44396E-09
 -1       680 2.15154E+03-2.93819E+05-1.37965E+04-1.34949E+02 2.38197E-09 5.56737E-09
 -1       771-3.06348E+06-7.47300E+05-1.65280E+05-1.46634E+06-3.36731E-08-3.14030E-08
 -1       772-2.98627E+06-8.36065E+05-8.52016E+04-1.56897E+06-2.97441E-08 1.04992E-08
 -1       773-3.09490E+06-7.22791E+05-4.34574E+04-1.48082E+06-1.22818E-08 1.21217E-08
 -1       774-2.97681E+06-8.17633E+05-1.93832E+04-1.59472E+06 3.48082E-08-5.40604E-09
 -1       775-3.11134E+06-7.11258E+05-1.45144E+04-1.48787E+06-8.20728E-09 1.71713E-09
 -1       776-2.98915E+06-8.14608E+05-5.42511E+03-1.61421E+06-6.50471E-09 1.47229E-08
 -1       777-3.12560E+06-7.00963E+05-6.41828E+03-1.49408E+06 6.69388E-10 2.80852E-09
 -1       778-3.00203E+06-8.11790E+05-1.81356E+03-1.63095E+06-6.25732E-10 7.21047E-09
 -1       779-3.13786E+06-6.91968E+05-3.20895E+03-1.49939E+06-1.12341E-08-6.77392E-09
 -1       780-3.01338E+06-8.09101E+05-5.31741E+02-1.64459E+06-8.08359E-09-1.58252E-10
 -1       781-3.14761E+06-6.84715E+05-1.24680E+03-1.50355E+06-2.97296E-08-6.62112E-10
 -1       782-3.02212E+06-8.06818E+05 4.49872E+02-1.65466E+06-3.61033E-08-4.74347E-09
 -1       783-3.15448E+06-6.79676E+05 7.00243E+02-1.50646E+06-1.26383E-08-1.76374E-08
 -1       784-3.02696E+06-8.04535E+05 2.90176E+03-1.66087E+06-2.01981E-08 3.41333E-09
 -1       785-3.15854E+06-6.76670E+05 5.12262E+03-1.50830E+06-3.83843E-08 7.52698E-09
 -1       786 1.24115E+05-9.78627E+03 2.26415E+04-3.23400E+02 1.51525E-09-2.00998E-10
 -1       787 1.33934E+05 1.13303E+04 1.60179E+04-1.37099E+02 1.03985E-08 9.50627E-09
 -1       788 1.27901E+05-1.53353E+03 5.85786E+03-2.88277E+02 3.54377E-09 2.13938E-08
 -1       789 1.29524E+05 1.77503E+03 3.67737E+03-1.90895E+02-1.68621E-09 1.57816E-08
 -1       790 1.28526E+05-2.38766E+02 1.48895E+03-2.69621E+02-4.33525E-09 1.80302E-09
 -1       791 1.28793E+05 2.76275E+02 8.60066E+02-2.22817E+02-7.29043E-09-2.75836E-09
 -1       792 1.28632E+05-3.58936E+01 3.64631E+02-2.56358E+02-4.22250E-09 8.33204E-09
 -1       793 1.28666E+05 3.80160E+01 1.82148E+02-2.47776E+02 8.75529E-10-2.00349E-09
 -1       794 1.28653E+05-6.58106E-01 4.80843E+01-2.44662E+02 5.21447E-09-3.13937E-09
 -1       795 1.28629E+05-2.68866E+01-5.59479E+01-2.72198E+02-6.23816E-09-1.64871E-08
 -1       796 1.28669E+05 2.89727E+01-1.59713E+02-2.31935E+02 3.45013E-09 1.47802E-08
 -1       797 1.28536E+05-2.16317E+02-4.39342E+02-3.01448E+02 3.72102E-09 2.63696E-08
 -1       798 1.28746E+05 1.88630E+02-7.13742E+02-2.15412E+02 1.73170E-09 8.53495E-09
 -1       799 1.27994E+05-1.39032E+03-1.96381E+03-3.42381E+02 6.43354E-09 1.29262E-08
 -1       800 1.29211E+05 1.20201E+03-2.77926E+03-1.91004E+02 3.38842E-10 6.61089E-10
 -1       801-1.71155E+05-9.99467E+06-1.39298E+06 1.41447E+06 9.21718E-08-5.63596E-08
 -1       802 7.37708E+05 5.94329E+06 2.18001E+06-1.74596E+06 2.58129E-07-4.21060E-08
 -1       803-5.36222E+05-1.42581E+07-1.88897E+06 8.97958E+05 7.80601E-08 9.76797E-09
 -1       804 2.86868E+05 2.38913E+06 1.53586E+06 6.76608E+05-1.20261E-07-9.59576E-08
 -1       805 1.89269E+05-6.45463E+06-2.86016E+05-1.00244E+06-4.98403E-08-6.86850E-08
 -1       806-3.08938E+05-5.98006E+04-2.28589E+04-1.22468E+05-1.07989E-08 7.14545E-09
 -1       807-3.10730E+05-5.60754E+04-1.12304E+04-1.28022E+05 1.23700E-08 4.89923E-09
 -1       808-3.09565E+05-5.15622E+04-4.76427E+03-1.26362E+05-6.59156E-09-7.13203E-09
 -1       809-3.08369E+05-5.29201E+04-2.32961E+03-1.28298E+05-3.03498E-09 2.83999E-08
 -1       810-3.09660E+05-5.12754E+04-1.06779E+03-1.26534E+05 8.75934E-09 9.41714E-09
 -1       811-3.08186E+05-5.27934E+04-5.31032E+02-1.28262E+05 7.80346E-09-2.18870E-09
 -1       812-3.09674E+05-5.13001E+04-2.68652E+02-1.26534E+05-7.01675E-09-2.06769E-08
 -1       813-3.08161E+05-5.27956E+04-1.74736E+02-1.28244E+05-9.05084E-09-2.83217E-08
 -1       814-3.09667E+05-5.13098E+04-1.73387E+02-1.26530E+05-2.13004E-09-1.73122E-09
 -1       815-3.08164E+05-5.27978E+04-2.79559E+02-1.28236E+05 1.80808E-09 3.53248E-09
 -1       816-3.09646E+05-5.13090E+04-5.29988E+02-1.26526E+05 4.52656E-09 2.15005E-09
 -1       817-3.08254E+05-5.28484E+04-1.13747E+03-1.28224E+05-1.09599E-08 2.50202E-08
 -1       818-3.09577E+05-5.14696E+04-2.32007E+03-1.26450E+05-1.48339E-09 5.97538E-10
 -1       819-3.09524E+05-5.42499E+04-5.45894E+03-1.27923E+05-3.12866E-10-1.58043E-08
 -1       820-3.09139E+05-5.55936E+04-1.11109E+04-1.24689E+05 3.84898E-09 6.39079E-09
 -1       821-3.79145E+05 2.08783E+04-4.86068E+04 2.13939E+03 1.41457E-08-1.88811E-09
 -1       822-3.98835E+05-2.41867E+04-3.41553E+04-4.49442E+03 4.02014E-09-8.57972E-09
 -1       823-3.86602E+05 3.29148E+03-1.25542E+04 3.46409E+03-1.25645E-08 1.45478E-08
 -1       824-3.89829E+05-3.79554E+03-7.85742E+03-5.42044E+03 1.05503E-09 8.67794E-09
 -1       825-3.88158E+05 5.11564E+02-3.29121E+03 3.06554E+03 1.98538E-08 1.96246E-09
 -1       826-3.87382E+05-5.67033E+02-1.74157E+03-3.13132E+03 2.58302E-08-4.99818E-09
 -1       827-3.89023E+05 4.61221E+01-1.19341E+03 1.17483E+03 1.22643E-08-4.15798E-09
 -1       828-3.86667E+05-1.31115E+02-5.81048E+02 1.09819E+03-1.26323E-09-8.14399E-10
 -1       829-3.88860E+05 6.53710E+01-1.18194E+03-1.16401E+03 1.78918E-09-1.48598E-08
 -1       830-3.87735E+05-6.22108E+02-1.88038E+03 4.92246E+03 1.58256E-09-3.06068E-09
 -1       831-3.87977E+05 5.55032E+02-3.37251E+03-2.64946E+03-7.36033E-09-5.00768E-09
 -1       832-3.89909E+05-3.96233E+03-8.15978E+03 6.21755E+03-3.04437E-09 4.51519E-09
 -1       833-3.86703E+05 3.41537E+03-1.30578E+04-2.45914E+03-2.88189E-09-1.61799E-09
 -1       834-3.98891E+05-2.50991E+04-3.53758E+04 4.22985E+03-5.45442E-09 1.25542E-08
 -1       835-3.78978E+05 2.16586E+04-5.04750E+04-6.61681E+02 4.43177E-09-3.88172E-09
 -1       836-1.41543E+03 3.70508E+05 2.29283E+04-1.61838E+04-6.93581E-09 1.67620E-09
 -1       837 4.88727E+03 3.77689E+05 1.93966E+04-3.30728E+04-7.72138E-09 7.14863E-09
 -1       838-5.58542E+02 3.72522E+05 1.97556E+04-1.61121E+04-6.30189E-09 8.08859E-09
 -1       839 1.24296E+04 3.83306E+05 3.73646E+04-3.31253E+04-6.72844E-09 2.54295E-09
 -1       840-3.84317E+03 3.64831E+05 5.95797E+04-1.61371E+04-6.00994E-09 9.59211E-09
 -1       856-5.21247E+04 8.02499E+03-2.11476E+04-3.97552E+02 4.84420E-09 1.81899E-11
 -1       857-6.08370E+04-9.42914E+03-1.45578E+04 5.63521E+03 3.84276E-09 2.27699E-08
 -1       858-5.55750E+04 1.12543E+03-5.48728E+03-4.21648E+02 4.62541E-09 1.00522E-08
 -1       859-5.68774E+04-1.32406E+03-3.31131E+03 5.67105E+03-1.08702E-09 8.26094E-09
 -1       860-5.60905E+04 1.57615E+02-1.38775E+03-4.33122E+02-2.56335E-10 8.07148E-09
 -1       861-5.62845E+04-1.88190E+02-7.63386E+02 5.68668E+03 4.16911E-10 1.05922E-08
 -1       862-5.61711E+04 2.13523E+01-3.17240E+02-4.37253E+02-1.91553E-09 4.52246E-10
 -1       863-5.61857E+04-2.18667E+01-1.15359E+02 5.68908E+03-5.92021E-09-2.45947E-09
 -1       864-5.61898E+04-4.92299E+00 4.76582E+01-4.35521E+02-9.62487E-10-1.28529E-08
 -1       865-5.61298E+04 5.98144E+01 2.56268E+02 5.67919E+03-3.31522E-09-1.04267E-08
 -1       866-5.62248E+04-6.03443E+01 5.16221E+02-4.27362E+02 1.46548E-09-2.20355E-08
 -1       867-5.58871E+04 4.98302E+02 1.27048E+03 5.65704E+03-2.46700E-10 5.85021E-09
 -1       868-5.64276E+04-4.35488E+02 2.11112E+03-4.13370E+02-1.16756E-09-7.58700E-09
 -1       869-5.43394E+04 3.62440E+03 5.62116E+03 5.62059E+03 6.91071E-09-8.79209E-09
 -1       870-5.77647E+04-3.10153E+03 8.15757E+03-3.90813E+02-4.73540E-09-4.22051E-09
 -1       871-5.52118E+03-2.13769E+04-1.95023E+04 1.30498E+05-4.47289E-09 9.65338E-09
 -1       872-1.98266E+03-2.59119E+04-8.16666E+03 1.69210E+05-9.57789E-09-1.07125E-08
 -1       873 4.05953E+02-2.37183E+04 5.88734E+02 1.30211E+05-4.24234E-09-2.45018E-09
 -1       874 3.30796E+03-2.13070E+04 9.78190E+03 1.69239E+05-1.00263E-08 5.96265E-09
 -1       875 6.84922E+03-2.60487E+04 2.20683E+04 1.30450E+05-4.59113E-09-1.80007E-08
 -1       876 2.93876E+05 4.95270E+04 1.51047E+04 1.17929E+05 5.00222E-09-8.81300E-10
 -1       877 2.94874E+05 5.27080E+04 8.06649E+03 1.22262E+05 1.19880E-08-2.21897E-08
 -1       878 2.95288E+05 4.78538E+04 3.37946E+03 1.19167E+05 3.77440E-10-1.03892E-08
 -1       879 2.92821E+05 5.06589E+04 1.68386E+03 1.22364E+05 1.57797E-09 1.09615E-08
 -1       880 2.95389E+05 4.78365E+04 7.84323E+02 1.19217E+05-4.62569E-09-5.88864E-09
 -1       881 2.92685E+05 5.05712E+04 4.18865E+02 1.22341E+05-8.62474E-09 8.01482E-09
 -1       882 2.95398E+05 4.78498E+04 2.68004E+02 1.19219E+05 3.61933E-09-9.16465E-10
 -1       883 2.92675E+05 5.05667E+04 2.88181E+02 1.22333E+05 1.57502E-09 4.26472E-09
 -1       884 2.95392E+05 4.78470E+04 4.58487E+02 1.19219E+05-2.41494E-09-7.98366E-09
 -1       885 2.92712E+05 5.05730E+04 9.21849E+02 1.22344E+05-6.45858E-09-1.64987E-08
 -1       886 2.95356E+05 4.78201E+04 1.85796E+03 1.19215E+05-9.01263E-09-4.51178E-09
 -1       887 2.93038E+05 5.07871E+04 4.05847E+03 1.22391E+05 9.39633E-09 4.21403E-09
 -1       888 2.95099E+05 4.78653E+04 8.17793E+03 1.19086E+05 4.16429E-09 7.63657E-09
 -1       889 2.97906E+05 5.58502E+04 1.95355E+04 1.22242E+05-4.09983E-10-4.12547E-09
 -1       890 2.91762E+05 5.18303E+04 3.65896E+04 1.15973E+05-2.62617E-09-6.40466E-09
 -1       891-8.92861E+01-1.62824E+05-1.99739E+03 2.71525E+04-2.56932E-09-5.77211E-09
 -1       892-1.75271E+02-1.63352E+05-2.14508E+03 4.12329E+04 2.72189E-09 1.03666E-08
 -1       893 4.38434E+01-1.62888E+05-3.03703E+03 2.71599E+04-5.95719E-11-9.66793E-10
 -1       894-1.51040E+03-1.64499E+05-6.28540E+03 4.10803E+04 6.71707E-09 8.94943E-10
 -1       895-1.19955E+03-1.61579E+05-1.10685E+04 2.73069E+04 2.32967E-09-3.62070E-09
 -1       956-3.77369E+05-5.45312E+03-1.34612E+04 3.08910E+04 5.58521E-09-8.47763E-09
 -1       957-3.80010E+05-1.92367E+03-6.90943E+03 3.71228E+04-3.14685E-10-2.28129E-08
 -1       958-3.78579E+05-2.41056E+02-3.11361E+03 3.07231E+04-2.06182E-09 2.92221E-09
 -1       959-3.78775E+05-1.36299E+02-1.58986E+03 3.73186E+04 3.49837E-09-1.13921E-08
 -1       960-3.78697E+05-4.47936E+01-7.75291E+02 3.07058E+04 4.46107E-09-5.12227E-09
 -1       961-3.78695E+05-6.31982E+01-4.11045E+02 3.73390E+04 1.05865E-08 1.38548E-08
 -1       962-3.78724E+05-4.60034E+01-2.35327E+02 3.07029E+04 7.75754E-09 2.19643E-09
 -1       963-3.78695E+05-5.89923E+01-1.88899E+02 3.73427E+04 5.48334E-09 1.27707E-08
 -1       964-3.78730E+05-4.26416E+01-2.29706E+02 3.07021E+04-5.45981E-10 1.29210E-08
 -1       965-3.78707E+05-5.60301E+01-3.97287E+02 3.73420E+04-6.87839E-09 2.04370E-08
 -1       966-3.78714E+05-3.48033E+01-7.46490E+02 3.07036E+04-6.76209E-10-1.33111E-08
 -1       967-3.78797E+05-1.19612E+02-1.53103E+03 3.73276E+04 2.52703E-09 1.94175E-08
 -1       968-3.78610E+05-2.17391E+02-2.99721E+03 3.07163E+04 2.47974E-09 1.64350E-08
 -1       969-3.79998E+05-1.83523E+03-6.65373E+03 3.71790E+04-1.86674E-09 7.35940E-09
 -1       970-3.77453E+05-5.23259E+03-1.29619E+04 3.08437E+04-8.92214E-10-2.95222E-09
 -1       971-3.45508E+05-1.72783E+03-9.31178E+03 1.53808E+04 4.56748E-09-1.37525E-09
 -1       972-3.47749E+05-1.27204E+03-5.07110E+03 2.12715E+04 2.00816E-09 7.02812E-09
 -1       973-3.46545E+05-6.20537E+01-2.27140E+03 1.52596E+04 5.97538E-09-1.38709E-08
 -1       974-3.46680E+05-8.11051E+01-1.17742E+03 2.14086E+04-1.08116E-09-9.37234E-09
 -1       975-3.46627E+05-1.71686E+01-5.89019E+02 1.52473E+04-1.22918E-09 1.60355E-09
 -1       976-3.46619E+05-3.12505E+01-3.40674E+02 2.14244E+04 3.12139E-09-1.02074E-08
 -1       977-3.46644E+05-1.64215E+01-2.48781E+02 1.52439E+04-3.81033E-09-5.93661E-09
 -1       978-3.46624E+05-2.50233E+01-2.93205E+02 2.14292E+04-1.37361E-08-2.47076E-09
 -1       979-3.46644E+05-7.93980E+00-4.72875E+02 1.52425E+04 2.71223E-09-5.97311E-09
 -1       980-3.46660E+05-2.19607E+01-9.14184E+02 2.14302E+04-4.49096E-09-2.92653E-09
 -1       981-3.46614E+05 1.49110E+01-1.77115E+03 1.52430E+04 1.55705E-09-3.65867E-09
 -1       982-3.46903E+05-1.52829E+02-3.66126E+03 2.14236E+04 1.92995E-09 2.98908E-09
 -1       983-3.46391E+05-9.84998E+01-7.11401E+03 1.52490E+04-3.62297E-09-4.42196E-09
 -1       984-3.50324E+05-3.86827E+03-1.59316E+04 2.13379E+04-2.02795E-09 5.78291E-09
 -1       985-3.43170E+05-5.30409E+03-2.92554E+04 1.53204E+04-5.36693E-09 1.22673E-08
 -3
    1PSTEP                        47          24           1          
  100CL  124 6.63152E-01         409                     0   24           1
 -4  DISP        4    1
 -5  D1          1    2    1    0
 -5  D2          1    2    2    0
 -5  D3          1    2    3    0
 -5  ALL         1    2    0    0    1ALL
 -1         1 2.71006E-03 0.00000E+00 0.00000E+00
 -1         2 1.37449E-03-1.08479E-27 0.00000E+00
 -1         3 3.47872E-04-5.13116E-28 0.00000E+00
 -1         5 1.77298E-04-1.61476E-27-1.65436E-24
 -1         8 2.69890E-03-4.11090E-07 0.00000E+00
 -1         9 2.69229E-03-1.82814E-04 0.00000E+00
 -1        10 3.13541E-04-3.57004E-06 0.00000E+00
 -1        12 1.79149E-04 8.09939E-07 0.00000E+00
 -1        15 2.68610E-03-4.35682E-07 2.06795E-25
 -1        16 2.75538E-03-1.84591E-04 0.00000E+00
 -1        17 2.11786E-04-7.98471E-06 0.00000E+00
 -1        18 1.83107E-04 3.44686E-05 0.00000E+00
 -1        19 1.84701E-04 1.61345E-06 0.00000E+00
 -1        20 1.84840E-04-9.91557E-06 0.00000E+00
 -1        21 1.83947E-04-2.54910E-05 0.00000E+00
 -1        24 3.07083E-05-1.22206E-05 0.00000E+00
 -1        25 1.93906E-04 3.46948E-05 0.00000E+00
 -1        26 1.94588E-04 2.23421E-06 0.00000E+00
 -1        27 1.92385E-04-1.34761E-05 0.00000E+00
 -1        28 1.92070E-04-2.61133E-05 0.00000E+00
 -1        32 0.00000E+00 0.00000E+00 0.00000E+00
 -1        33 2.03471E-04 2.98871E-06 0.00000E+00
 -1        34 2.01351E-04-1.35324E-05 0.00000E+00
 -1        35 1.99418E-04-2.64559E-05 0.00000E+00
 -1        51 2.70931E-03-8.57726E-08 3.30872E-24
 -1        52 2.70794E-03-1.53247E-07 0.00000E+00
 -1        53 2.70609E-03-2.17295E-07 0.00000E+00
 -1        54 2.70387E-03-2.80150E-07 0.00000E+00
 -1        55 2.70143E-03-3.43570E-07-2.48154E-24
 -1        56 2.70275E-03 7.53945E-06 5.29396E-23
 -1        57 2.68882E-03 3.14901E-05-5.29396E-23
 -1        58 2.67032E-03 6.66477E-05 0.00000E+00
 -1        59 2.64973E-03 1.06730E-04 0.00000E+00
 -1        60 2.63007E-03 1.44611E-04 0.00000E+00
 -1        61 2.61418E-03 1.73344E-04 5.29396E-23
 -1        62 2.60406E-03 1.87617E-04 0.00000E+00
 -1        63 2.60100E-03 1.83408E-04 0.00000E+00
 -1        64 2.60486E-03 1.60080E-04 1.05879E-22
 -1        65 2.61487E-03 1.18792E-04 5.29396E-23
 -1        66 2.62925E-03 6.40965E-05 1.05879E-22
 -1        67 2.64601E-03 1.85151E-06-5.29396E-23
 -1        68 2.66285E-03-6.06311E-05 0.00000E+00
 -1        69 2.67748E-03-1.16009E-04 5.29396E-23
 -1        70 2.68784E-03-1.58315E-04-5.29396E-23
 -1        86 1.45733E-03-5.83076E-06-5.29396E-23
 -1        87 1.69726E-03-3.64295E-05 0.00000E+00
 -1        88 2.01984E-03-8.89376E-05 0.00000E+00
 -1        89 2.34661E-03-1.42843E-04 0.00000E+00
 -1        90 2.59673E-03-1.75824E-04 0.00000E+00
 -1       121 3.46906E-04-5.74697E-07 1.32349E-23
 -1       122 3.44014E-04-1.15296E-06 0.00000E+00
 -1       123 3.39208E-04-1.73829E-06 1.32349E-23
 -1       124 3.32507E-04-2.33412E-06-6.61744E-24
 -1       125 3.23939E-04-2.94356E-06 1.32349E-23
 -1       191 1.77350E-04 1.35054E-07 3.30872E-24
 -1       192 1.77504E-04 2.70096E-07-4.13590E-25
 -1       193 1.77761E-04 4.05118E-07-1.65436E-24
 -1       194 1.78121E-04 5.40108E-07 8.27181E-25
 -1       195 1.78583E-04 6.75052E-07 8.27181E-25
 -1       251 2.69860E-03 1.76759E-06 6.61744E-24
 -1       252 2.69828E-03 3.94344E-06-3.30872E-24
 -1       253 2.69797E-03 5.12604E-06 0.00000E+00
 -1       254 2.69766E-03 4.33756E-06 0.00000E+00
 -1       255 2.69734E-03 9.04892E-07 6.61744E-24
 -1       256 2.69701E-03-5.81130E-06-6.61744E-24
 -1       257 2.69665E-03-1.59430E-05-1.32349E-23
 -1       258 2.69625E-03-2.95786E-05 6.61744E-24
 -1       259 2.69580E-03-4.62656E-05 1.32349E-23
 -1       260 2.69531E-03-6.55122E-05 0.00000E+00
 -1       261 2.69479E-03-8.64309E-05-1.32349E-23
 -1       262 2.69425E-03-1.08114E-04 0.00000E+00
 -1       263 2.69372E-03-1.29534E-04 0.00000E+00
 -1       264 2.69321E-03-1.49669E-04 0.00000E+00
 -1       265 2.69273E-03-1.67695E-04 0.00000E+00
 -1       266 2.69677E-03-4.20920E-07-3.30872E-24
 -1       267 2.69464E-03-4.24320E-07-8.27181E-25
 -1       268 2.69250E-03-4.28127E-07 0.00000E+00
 -1       269 2.69037E-03-4.30728E-07 0.00000E+00
 -1       270 2.68823E-03-4.33301E-07-2.06795E-25
 -1       271 2.69800E-03 2.00473E-07 0.00000E+00
 -1       272 2.69800E-03-1.69009E-06-6.61744E-24
 -1       273 2.69889E-03-5.93818E-06 0.00000E+00
 -1       274 2.70058E-03-1.23879E-05 0.00000E+00
 -1       275 2.70302E-03-2.08627E-05 0.00000E+00
 -1       276 2.70612E-03-3.11717E-05 1.32349E-23
 -1       277 2.70982E-03-4.31078E-05 0.00000E+00
 -1       278 2.71403E-03-5.64513E-05 0.00000E+00
 -1       279 2.71866E-03-7.09708E-05 0.00000E+00
 -1       280 2.72362E-03-8.64255E-05 0.00000E+00
 -1       281 2.72884E-03-1.02567E-04 0.00000E+00
 -1       282 2.73420E-03-1.19140E-04 6.61744E-24
 -1       283 2.73963E-03-1.35888E-04 0.00000E+00
 -1       284 2.74503E-03-1.52551E-04-6.61744E-24
 -1       285 2.75031E-03-1.68871E-04-1.32349E-23
 -1       301 2.70375E-03-1.83143E-04-6.61744E-24
 -1       302 2.71361E-03-1.83427E-04-6.61744E-24
 -1       303 2.72277E-03-1.83702E-04 0.00000E+00
 -1       304 2.73217E-03-1.83977E-04-6.61744E-24
 -1       305 2.74273E-03-1.84266E-04 0.00000E+00
 -1       306 2.73009E-03-3.36981E-04-1.05879E-22
 -1       307 2.79397E-03-7.50632E-04-5.29396E-23
 -1       308 2.84070E-03-1.35567E-03-1.05879E-22
 -1       309 2.86456E-03-2.05617E-03 5.29396E-23
 -1       310 2.89582E-03-2.72641E-03 0.00000E+00
 -1       311 2.95524E-03-3.24334E-03-5.29396E-23
 -1       312 3.01317E-03-3.52631E-03 1.05879E-22
 -1       313 3.00883E-03-3.53733E-03 0.00000E+00
 -1       314 2.86842E-03-3.28832E-03 0.00000E+00
 -1       315 2.55096E-03-2.84367E-03 5.29396E-23
 -1       316 2.07468E-03-2.27997E-03 0.00000E+00
 -1       317 1.50538E-03-1.66660E-03-5.29396E-23
 -1       318 9.57287E-04-1.06423E-03-1.05879E-22
 -1       319 5.38352E-04-5.37892E-04 5.29396E-23
 -1       320 2.92400E-04-1.61669E-04-1.05879E-22
 -1       336 3.01242E-04-4.23986E-06 0.00000E+00
 -1       337 2.86983E-04-4.93472E-06 6.61744E-24
 -1       338 2.70827E-04-5.65682E-06 0.00000E+00
 -1       339 2.52852E-04-6.40637E-06-6.61744E-24
 -1       340 2.33140E-04-7.18743E-06 0.00000E+00
 -1       406 1.79817E-04 9.44748E-07 0.00000E+00
 -1       407 1.80588E-04 1.07944E-06-1.24077E-24
 -1       408 1.81462E-04 1.21397E-06 0.00000E+00
 -1       409 1.82439E-04 1.34816E-06 6.20385E-25
 -1       410 1.83519E-04 1.48174E-06-1.65436E-24
 -1       521 2.79378E-03-3.48044E-04 0.00000E+00
 -1       522 2.85590E-03-7.81898E-04-5.29396E-23
 -1       523 2.89621E-03-1.41465E-03 0.00000E+00
 -1       524 2.91088E-03-2.14364E-03-5.29396E-23
 -1       525 2.93426E-03-2.84036E-03 1.05879E-22
 -1       526 2.99013E-03-3.37923E-03 0.00000E+00
 -1       527 3.04762E-03-3.67275E-03 0.00000E+00
 -1       528 3.04100E-03-3.68200E-03 0.00000E+00
 -1       529 2.88864E-03-3.41890E-03 0.00000E+00
 -1       530 2.54733E-03-2.95574E-03-5.29396E-23
 -1       531 2.03609E-03-2.37290E-03-1.05879E-22
 -1       532 1.42713E-03-1.74234E-03 5.29396E-23
 -1       533 8.40049E-04-1.12215E-03-1.05879E-22
 -1       534 3.87910E-04-5.74996E-04 5.29396E-23
 -1       535 1.20801E-04-1.79296E-04 0.00000E+00
 -1       536 2.11028E-04 2.70183E-05 0.00000E+00
 -1       537 2.09102E-04 8.75966E-05 1.65436E-24
 -1       538 2.06125E-04 1.64464E-04 0.00000E+00
 -1       539 2.02613E-04 2.48251E-04-1.65436E-24
 -1       540 1.99452E-04 3.27427E-04-3.30872E-24
 -1       541 1.97398E-04 3.90485E-04 1.65436E-24
 -1       542 1.96450E-04 4.30656E-04-3.30872E-24
 -1       543 1.96224E-04 4.41322E-04 1.65436E-24
 -1       544 1.95901E-04 4.23257E-04 3.30872E-24
 -1       545 1.94725E-04 3.77456E-04 1.65436E-24
 -1       546 1.92532E-04 3.12061E-04-3.30872E-24
 -1       547 1.89562E-04 2.35337E-04 0.00000E+00
 -1       548 1.86619E-04 1.58987E-04 0.00000E+00
 -1       549 1.84496E-04 9.47140E-05 1.65436E-24
 -1       550 1.83394E-04 5.05672E-05-1.65436E-24
 -1       551 1.86537E-04-8.55604E-06 0.00000E+00
 -1       552 1.58047E-04-9.20783E-06 0.00000E+00
 -1       553 1.27260E-04-9.92184E-06 3.30872E-24
 -1       554 9.51351E-05-1.06769E-05 0.00000E+00
 -1       555 6.26328E-05-1.14455E-05 0.00000E+00
 -1       556 2.04119E-04 1.16167E-05 0.00000E+00
 -1       557 1.97924E-04 2.75176E-05 0.00000E+00
 -1       558 1.93065E-04 4.00059E-05 0.00000E+00
 -1       559 1.89411E-04 4.93925E-05-2.64698E-23
 -1       560 1.86830E-04 5.59883E-05 0.00000E+00
 -1       561 1.85194E-04 6.01071E-05 0.00000E+00
 -1       562 1.84378E-04 6.20637E-05 0.00000E+00
 -1       563 1.84258E-04 6.21740E-05 0.00000E+00
 -1       564 1.84713E-04 6.07547E-05 0.00000E+00
 -1       565 1.85619E-04 5.81231E-05 0.00000E+00
 -1       566 1.86859E-04 5.45973E-05 0.00000E+00
 -1       567 1.88314E-04 5.04955E-05 0.00000E+00
 -1       568 1.89863E-04 4.61363E-05 0.00000E+00
 -1       569 1.91390E-04 4.18382E-05 8.27181E-25
 -1       570 1.92777E-04 3.79197E-05 0.00000E+00
 -1       571 1.83203E-04 3.23370E-05 0.00000E+00
 -1       572 1.83302E-04 3.01397E-05 8.27181E-25
 -1       573 1.83401E-04 2.78922E-05 0.00000E+00
 -1       574 1.83501E-04 2.56110E-05-1.65436E-24
 -1       575 1.83600E-04 2.33125E-05 0.00000E+00
 -1       576 1.83700E-04 2.10132E-05 0.00000E+00
 -1       577 1.83799E-04 1.87297E-05 0.00000E+00
 -1       578 1.83899E-04 1.64786E-05 0.00000E+00
 -1       579 1.83998E-04 1.42763E-05 0.00000E+00
 -1       580 1.84098E-04 1.21394E-05-6.61744E-24
 -1       581 1.84198E-04 1.00845E-05 0.00000E+00
 -1       582 1.84299E-04 8.12799E-06-3.30872E-24
 -1       583 1.84399E-04 6.28652E-06-6.61744E-24
 -1       584 1.84499E-04 4.57637E-06 0.00000E+00
 -1       585 1.84600E-04 3.01375E-06 0.00000E+00
 -1       586 1.84866E-04 3.45084E-05 0.00000E+00
 -1       587 1.86584E-04 3.45477E-05 0.00000E+00
 -1       588 1.88303E-04 3.45866E-05-8.27181E-25
 -1       589 1.90068E-04 3.46248E-05 0.00000E+00
 -1       590 1.91922E-04 3.46617E-05 0.00000E+00
 -1       591 1.83837E-04 3.24309E-05 1.03398E-25
 -1       592 1.84571E-04 3.03733E-05-2.06795E-25
 -1       593 1.85309E-04 2.83016E-05 0.00000E+00
 -1       594 1.86051E-04 2.62206E-05-4.13590E-25
 -1       595 1.86794E-04 2.41350E-05 0.00000E+00
 -1       596 1.87537E-04 2.20496E-05 0.00000E+00
 -1       597 1.88279E-04 1.99689E-05-8.27181E-25
 -1       598 1.89016E-04 1.78978E-05-4.13590E-25
 -1       599 1.89749E-04 1.58408E-05-8.27181E-25
 -1       600 1.90474E-04 1.38027E-05-4.13590E-25
 -1       601 1.91191E-04 1.17881E-05 0.00000E+00
 -1       602 1.91897E-04 9.80181E-06-2.06795E-25
 -1       603 1.92591E-04 7.84842E-06 8.27181E-25
 -1       604 1.93271E-04 5.93275E-06 1.03398E-25
 -1       605 1.93936E-04 4.05939E-06 0.00000E+00
 -1       606 1.84714E-04 4.46665E-07 0.00000E+00
 -1       607 1.84723E-04-6.34366E-07 0.00000E+00
 -1       608 1.84732E-04-1.63468E-06 0.00000E+00
 -1       609 1.84741E-04-2.55995E-06 0.00000E+00
 -1       610 1.84749E-04-3.41591E-06 0.00000E+00
 -1       611 1.84757E-04-4.20835E-06 0.00000E+00
 -1       612 1.84766E-04-4.94306E-06 0.00000E+00
 -1       613 1.84774E-04-5.62585E-06 0.00000E+00
 -1       614 1.84782E-04-6.26253E-06 1.65436E-24
 -1       615 1.84791E-04-6.85889E-06 0.00000E+00
 -1       616 1.84799E-04-7.42074E-06 0.00000E+00
 -1       617 1.84807E-04-7.95390E-06 0.00000E+00
 -1       618 1.84816E-04-8.46415E-06-8.27181E-25
 -1       619 1.84824E-04-8.95731E-06 0.00000E+00
 -1       620 1.84832E-04-9.43919E-06-2.06795E-25
 -1       621 1.86062E-04 1.71748E-06 3.30872E-24
 -1       622 1.87582E-04 1.82175E-06 8.27181E-25
 -1       623 1.89229E-04 1.92581E-06 1.65436E-24
 -1       624 1.90968E-04 2.02954E-06 1.65436E-24
 -1       625 1.92765E-04 2.13298E-06 0.00000E+00
 -1       626 1.85250E-04 4.82798E-07 0.00000E+00
 -1       627 1.85777E-04-5.84903E-07 0.00000E+00
 -1       628 1.86284E-04-1.59750E-06-6.61744E-24
 -1       629 1.86773E-04-2.56317E-06 0.00000E+00
 -1       630 1.87247E-04-3.49009E-06 0.00000E+00
 -1       631 1.87711E-04-4.38646E-06 0.00000E+00
 -1       632 1.88166E-04-5.26049E-06 0.00000E+00
 -1       633 1.88615E-04-6.12040E-06-1.65436E-24
 -1       634 1.89063E-04-6.97438E-06 3.30872E-24
 -1       635 1.89511E-04-7.83063E-06 1.65436E-24
 -1       636 1.89963E-04-8.69738E-06 0.00000E+00
 -1       637 1.90422E-04-9.58283E-06 0.00000E+00
 -1       638 1.90891E-04-1.04952E-05-1.65436E-24
 -1       639 1.91373E-04-1.14427E-05 8.27181E-25
 -1       640 1.91871E-04-1.24335E-05 0.00000E+00
 -1       656 1.85549E-04-1.04943E-05 0.00000E+00
 -1       657 1.86678E-04-1.10965E-05 0.00000E+00
 -1       658 1.88087E-04-1.16973E-05 0.00000E+00
 -1       659 1.89631E-04-1.22978E-05 0.00000E+00
 -1       660 1.91125E-04-1.29001E-05 6.61744E-24
 -1       661 1.85105E-04-1.04371E-05 8.27181E-25
 -1       662 1.85408E-04-1.10506E-05 0.00000E+00
 -1       663 1.85744E-04-1.17507E-05-1.65436E-24
 -1       664 1.86110E-04-1.25311E-05-8.27181E-25
 -1       665 1.86503E-04-1.33858E-05 1.65436E-24
 -1       666 1.86923E-04-1.43090E-05 0.00000E+00
 -1       667 1.87366E-04-1.52949E-05 0.00000E+00
 -1       668 1.87830E-04-1.63380E-05 8.27181E-25
 -1       669 1.88314E-04-1.74328E-05 1.65436E-24
 -1       670 1.88815E-04-1.85741E-05 8.27181E-25
 -1       671 1.89331E-04-1.97566E-05 0.00000E+00
 -1       672 1.89861E-04-2.09752E-05 8.27181E-25
 -1       673 1.90402E-04-2.22249E-05 0.00000E+00
 -1       674 1.90952E-04-2.35009E-05 4.13590E-25
 -1       675 1.91511E-04-2.47981E-05-2.06795E-25
 -1       676 1.85305E-04-2.55954E-05 0.00000E+00
 -1       677 1.86663E-04-2.56996E-05 1.65436E-24
 -1       678 1.88019E-04-2.58039E-05-3.30872E-24
 -1       679 1.89373E-04-2.59078E-05 1.65436E-24
 -1       680 1.90724E-04-2.60117E-05-3.30872E-24
 -1       771 1.87464E-05 1.45306E-05 0.00000E+00
 -1       772 8.68198E-06 3.65042E-05 0.00000E+00
 -1       773 4.24328E-07 5.39305E-05 5.29396E-23
 -1       774-6.15096E-06 6.70674E-05 0.00000E+00
 -1       775-1.11656E-05 7.61835E-05 0.00000E+00
 -1       776-1.47462E-05 8.15639E-05 2.64698E-23
 -1       777-1.70191E-05 8.35039E-05 0.00000E+00
 -1       778-1.81134E-05 8.23127E-05 2.64698E-23
 -1       779-1.81572E-05 7.83079E-05-5.29396E-23
 -1       780-1.72811E-05 7.18187E-05 2.64698E-23
 -1       781-1.56145E-05 6.31809E-05-5.29396E-23
 -1       782-1.32883E-05 5.27393E-05-7.94093E-23
 -1       783-1.04326E-05 4.08434E-05 0.00000E+00
 -1       784-7.17881E-06 2.78487E-05 0.00000E+00
 -1       785-3.65723E-06 1.41139E-05 0.00000E+00
 -1       786 1.93944E-04 3.24389E-05 0.00000E+00
 -1       787 1.93986E-04 3.02329E-05 0.00000E+00
 -1       788 1.94028E-04 2.80686E-05 0.00000E+00
 -1       789 1.94070E-04 2.59377E-05 0.00000E+00
 -1       790 1.94113E-04 2.38355E-05-1.65436E-24
 -1       791 1.94156E-04 2.17574E-05 0.00000E+00
 -1       792 1.94199E-04 1.97011E-05-1.65436E-24
 -1       793 1.94242E-04 1.76644E-05 0.00000E+00
 -1       794 1.94285E-04 1.56472E-05 0.00000E+00
 -1       795 1.94328E-04 1.36493E-05 8.27181E-25
 -1       796 1.94371E-04 1.16726E-05 0.00000E+00
 -1       797 1.94414E-04 9.71903E-06 8.27181E-25
 -1       798 1.94457E-04 7.79276E-06 0.00000E+00
 -1       799 1.94500E-04 5.89816E-06 8.27181E-25
 -1       800 1.94544E-04 4.04276E-06 0.00000E+00
 -1       801 1.48070E-04 3.11912E-05-2.64698E-23
 -1       802 9.48566E-06 1.94569E-05 0.00000E+00
 -1       803-1.08889E-04 9.82530E-06 5.29396E-23
 -1       804-9.65245E-05 6.83884E-06 0.00000E+00
 -1       805-3.18822E-05 2.68675E-06 0.00000E+00
 -1       806 1.94637E-04 3.23700E-05-1.65436E-24
 -1       807 1.95353E-04 3.00714E-05-1.65436E-24
 -1       808 1.96058E-04 2.78040E-05 3.30872E-24
 -1       809 1.96748E-04 2.55720E-05 0.00000E+00
 -1       810 1.97424E-04 2.33794E-05 0.00000E+00
 -1       811 1.98084E-04 2.12301E-05 0.00000E+00
 -1       812 1.98726E-04 1.91282E-05-3.30872E-24
 -1       813 1.99348E-04 1.70776E-05-1.65436E-24
 -1       814 1.99951E-04 1.50822E-05 3.30872E-24
 -1       815 2.00531E-04 1.31459E-05-8.27181E-25
 -1       816 2.01087E-04 1.12727E-05 0.00000E+00
 -1       817 2.01619E-04 9.46645E-06-1.65436E-24
 -1       818 2.02125E-04 7.73104E-06 0.00000E+00
 -1       819 2.02602E-04 6.07039E-06 0.00000E+00
 -1       820 2.03051E-04 4.48834E-06 3.30872E-24
 -1       821 1.94458E-04-1.36299E-07 0.00000E+00
 -1       822 1.94318E-04-3.67211E-06 0.00000E+00
 -1       823 1.94175E-04-7.94175E-06-3.30872E-24
 -1       824 1.94030E-04-1.25092E-05 0.00000E+00
 -1       825 1.93886E-04-1.68578E-05 0.00000E+00
 -1       826 1.93744E-04-2.04724E-05 1.65436E-24
 -1       827 1.93605E-04-2.30375E-05 0.00000E+00
 -1       828 1.93469E-04-2.42444E-05 1.65436E-24
 -1       829 1.93333E-04-2.41541E-05 0.00000E+00
 -1       830 1.93196E-04-2.28355E-05 0.00000E+00
 -1       831 1.93058E-04-2.06920E-05 0.00000E+00
 -1       832 1.92920E-04-1.81323E-05 1.65436E-24
 -1       833 1.92782E-04-1.56782E-05 3.30872E-24
 -1       834 1.92647E-04-1.38510E-05 0.00000E+00
 -1       835 1.92512E-04-1.30020E-05 8.27181E-25
 -1       836 1.96281E-04 2.35933E-06 3.30872E-24
 -1       837 1.97847E-04 2.48759E-06 1.65436E-24
 -1       838 1.99317E-04 2.61580E-06 3.30872E-24
 -1       839 2.00723E-04 2.74330E-06 8.27181E-25
 -1       840 2.02097E-04 2.87064E-06 0.00000E+00
 -1       856 1.92369E-04-1.45411E-05 0.00000E+00
 -1       857 1.92350E-04-1.54703E-05 0.00000E+00
 -1       858 1.92331E-04-1.62848E-05 0.00000E+00
 -1       859 1.92311E-04-1.70058E-05 0.00000E+00
 -1       860 1.92292E-04-1.76546E-05 4.13590E-25
 -1       861 1.92272E-04-1.82523E-05 0.00000E+00
 -1       862 1.92252E-04-1.88203E-05-4.13590E-25
 -1       863 1.92232E-04-1.93800E-05 0.00000E+00
 -1       864 1.92213E-04-1.99527E-05 0.00000E+00
 -1       865 1.92193E-04-2.05598E-05 4.13590E-25
 -1       866 1.92173E-04-2.12225E-05 8.27181E-25
 -1       867 1.92153E-04-2.19622E-05 0.00000E+00
 -1       868 1.92133E-04-2.28000E-05-8.27181E-25
 -1       869 1.92113E-04-2.37571E-05 4.13590E-25
 -1       870 1.92092E-04-2.48546E-05 0.00000E+00
 -1       871 1.93738E-04-1.34810E-05 8.27181E-25
 -1       872 1.95239E-04-1.34894E-05 0.00000E+00
 -1       873 1.96818E-04-1.34984E-05 0.00000E+00
 -1       874 1.98409E-04-1.35082E-05-2.58494E-25
 -1       875 1.99943E-04-1.35186E-05 0.00000E+00
 -1       876 1.92912E-04-1.45265E-05 0.00000E+00
 -1       877 1.93416E-04-1.55101E-05 0.00000E+00
 -1       878 1.93899E-04-1.64348E-05 0.00000E+00
 -1       879 1.94363E-04-1.73080E-05 0.00000E+00
 -1       880 1.94810E-04-1.81372E-05 0.00000E+00
 -1       881 1.95243E-04-1.89297E-05 1.65436E-24
 -1       882 1.95666E-04-1.96928E-05-3.30872E-24
 -1       883 1.96081E-04-2.04340E-05 1.65436E-24
 -1       884 1.96489E-04-2.11605E-05 3.30872E-24
 -1       885 1.96896E-04-2.18798E-05 0.00000E+00
 -1       886 1.97302E-04-2.25990E-05 3.30872E-24
 -1       887 1.97711E-04-2.33257E-05 0.00000E+00
 -1       888 1.98125E-04-2.40671E-05-3.30872E-24
 -1       889 1.98546E-04-2.48307E-05 0.00000E+00
 -1       890 1.98979E-04-2.56239E-05 1.65436E-24
 -1       891 1.93437E-04-2.61709E-05 0.00000E+00
 -1       892 1.94781E-04-2.62286E-05 0.00000E+00
 -1       893 1.96076E-04-2.62862E-05-1.65436E-24
 -1       894 1.97297E-04-2.63436E-05 0.00000E+00
 -1       895 1.98419E-04-2.64007E-05 4.13590E-25
 -1       956 2.03340E-04 1.66394E-06 1.65436E-24
 -1       957 2.03208E-04 4.30837E-07-8.27181E-25
 -1       958 2.03075E-04-7.21344E-07-3.30872E-24
 -1       959 2.02942E-04-1.80396E-06 0.00000E+00
 -1       960 2.02809E-04-2.82841E-06-3.30872E-24
 -1       961 2.02676E-04-3.80613E-06 1.65436E-24
 -1       962 2.02544E-04-4.74856E-06-3.30872E-24
 -1       963 2.02411E-04-5.66717E-06 0.00000E+00
 -1       964 2.02278E-04-6.57341E-06-3.30872E-24
 -1       965 2.02145E-04-7.47874E-06 0.00000E+00
 -1       966 2.02012E-04-8.39463E-06 0.00000E+00
 -1       967 2.01879E-04-9.33254E-06 1.65436E-24
 -1       968 2.01747E-04-1.03039E-05 0.00000E+00
 -1       969 2.01614E-04-1.13202E-05 0.00000E+00
 -1       970 2.01482E-04-1.23927E-05 3.30872E-24
 -1       971 2.01231E-04-1.46718E-05 3.30872E-24
 -1       972 2.01110E-04-1.57166E-05 0.00000E+00
 -1       973 2.00989E-04-1.66773E-05 0.00000E+00
 -1       974 2.00867E-04-1.75646E-05 0.00000E+00
 -1       975 2.00746E-04-1.83895E-05-3.30872E-24
 -1       976 2.00624E-04-1.91628E-05 0.00000E+00
 -1       977 2.00503E-04-1.98954E-05 3.30872E-24
 -1       978 2.00381E-04-2.05982E-05 0.00000E+00
 -1       979 2.00260E-04-2.12821E-05 0.00000E+00
 -1       980 2.00138E-04-2.19580E-05-1.65436E-24
 -1       981 2.00017E-04-2.26368E-05 0.00000E+00
 -1       982 1.99896E-04-2.33295E-05 0.00000E+00
 -1       983 1.99775E-04-2.40468E-05 0.00000E+00
 -1       984 1.99654E-04-2.47998E-05 0.00000E+00
 -1       985 1.99534E-04-2.55993E-05 0.00000E+00
 -3
    1PSTEP                        48          24           1          
  100CL  124 6.63152E-01         409                     0   24           1
 -4  STRESS      6    1
 -5  SXX         1    4    1    1
 -5  SYY         1    4    2    2
 -5  SZZ         1    4    3    3
 -5  SXY         1    4    1    2
 -5  SYZ         1    4    2    3
 -5  SZX         1    4    3    1
 -1         1-5.32472E+06-1.62762E+06-1.13335E+06-1.40201E+06 1.60071E-10 3.78350E-09
 -1         2 1.37895E+06 2.02796E+07 4.76498E+06 6.10530E+06 3.00643E-08 5.19503E-09
 -1         3-1.59304E+03-1.63110E+06 2.75188E+02-2.65588E+03 7.03494E-10-4.22951E-08
 -1         5-7.55803E+01 3.86740E+05 9.99339E+00-1.34746E+00-5.04287E-10-8.94215E-09
 -1         8-5.71794E+05-2.04642E+05-6.47282E+04-2.49338E+05 1.05501E-10 1.57095E-07
 -1         9 1.16583E+07 3.54688E+06 2.71700E+06-4.02670E+05-1.50641E-08-1.80234E-07
 -1        10-1.48037E+03-1.66649E+06-3.47518E+03-1.66158E+04-4.07817E-09 1.45857E-08
 -1        12-7.16582E+01 3.86761E+05 3.28524E+02-9.18225E+00-5.88475E-10 1.03491E-08
 -1        15 9.49646E+02 5.21877E+02 3.06971E+03 8.76419E-01-2.73445E-10 3.80310E-07
 -1        16 2.28398E+07-3.14865E+05 3.11349E+06-2.23301E+06 6.01479E-09-1.14475E-07
 -1        17 8.35226E+06 6.26098E+06 2.25720E+06 5.99364E+06 2.56521E-08 2.68454E-08
 -1        18 1.43189E+05 3.37432E+04 4.34664E+03-1.19689E+05 1.33516E-08 5.96083E-09
 -1        19 1.22493E+05 1.41794E+05-9.42937E+02 2.19693E+04 1.62127E-09 4.94874E-09
 -1        20-8.20663E+04-5.74026E+05-1.28811E+05 2.50948E+04-2.25358E-09 1.66043E-08
 -1        21-4.55800E+01-2.96096E+05-9.24166E+02 2.75921E+02 1.36775E-08 9.80496E-11
 -1        24 1.39676E+07 1.20395E+07 3.86971E+06 1.11488E+07-1.67667E-07-5.98181E-08
 -1        25 1.25627E+05 2.69485E+05 1.00564E+05-6.46954E+05-2.15059E-09 7.37764E-09
 -1        26-5.54125E+04 9.23912E+04-2.46382E+04 1.30427E+03-8.62201E-11-2.14802E-09
 -1        27-7.55860E+04-3.10117E+05-1.13359E+05 6.90069E+04 4.55899E-09 2.37136E-09
 -1        28 2.22458E+04-8.53803E+04 1.69030E+04 2.06056E+04-2.57145E-09-1.54314E-08
 -1        32-1.68102E+06-3.18251E+06-1.97662E+05 4.59935E+05-4.21423E-08-9.42407E-09
 -1        33-1.78537E+05 9.30867E+04 3.24109E+04-3.85220E+04-3.21457E-09 2.37963E-08
 -1        34-2.23700E+05-2.50525E+04 6.90422E+02 7.57108E+04-5.04952E-09 1.42776E-09
 -1        35-2.29364E+04-3.38595E+04-1.34899E+03 5.15113E+04-3.73248E-09-1.57294E-08
 -1        51 6.03339E+04-1.74431E+05 1.27686E+05-4.48398E+05 1.30967E-10-4.05053E-08
 -1        52 2.04667E+04-1.52180E+05 6.70475E+04-5.22948E+05 2.53749E-10-4.90945E-08
 -1        53 4.22208E+03-1.67568E+05 3.49928E+04-4.46849E+05 3.87445E-10-1.38774E-07
 -1        54 7.54378E+03-1.63366E+05 2.89102E+04-5.24472E+05-4.72937E-11-1.18940E-07
 -1        55 1.64186E+04-1.70488E+05 3.53496E+04-4.46746E+05 1.81899E-10-8.38845E-08
 -1        56-9.73737E+06-1.32335E+06-8.97243E+05-4.03201E+06-1.10304E-08-5.60831E-08
 -1        57-1.09448E+07-9.37676E+05-5.51898E+05-2.81163E+06 8.84756E-09-3.17923E-07
 -1        58-9.60537E+06-1.76613E+06-1.99894E+05-4.19347E+06 6.10453E-09-2.94211E-07
 -1        59-1.10496E+07-4.37939E+05-1.10280E+05-2.74871E+06-1.21099E-08 2.24703E-07
 -1        60-9.69145E+06-1.77156E+06-5.51330E+04-4.14744E+06-6.26096E-09-1.24455E-07
 -1        61-1.04978E+07-7.26994E+05 6.69587E+03-2.98793E+06-9.20772E-09 3.51120E-08
 -1        62-1.00503E+07-1.54891E+06-6.23136E+04-3.87078E+06-4.49218E-08 1.55771E-07
 -1        63-9.72928E+06-1.34867E+06 4.00193E+04-3.61530E+06 6.08270E-09 1.99345E-07
 -1        64-1.03769E+07-1.20883E+06-5.71563E+04-3.46676E+06-9.47330E-09 2.77247E-07
 -1        65-9.37172E+06-1.88665E+06 4.66917E+03-4.39818E+06-2.21480E-08-1.44565E-07
 -1        66-1.05060E+07-9.42797E+05-4.58447E+04-3.16162E+06 3.94357E-09 1.45095E-07
 -1        67-9.35906E+06-2.12451E+06-9.94128E+04-4.76526E+06-4.18331E-08 2.34175E-07
 -1        68-1.04867E+07-9.03411E+05-1.84520E+05-3.16113E+06-3.25508E-08 5.23869E-09
 -1        69-9.56321E+06-2.22685E+06-4.92402E+05-4.36460E+06-5.67416E-08 1.16997E-07
 -1        70-1.02136E+07-9.13696E+05-8.21303E+05-3.50199E+06 2.59188E-08 3.79514E-08
 -1        86-1.40631E+06-1.48014E+07-2.60658E+06-2.87289E+06-2.65216E-07 7.01984E-08
 -1        87 2.19106E+06 5.73950E+06 2.16863E+06 5.40073E+06-4.40014E-07 8.93688E-08
 -1        88-4.02552E+05-2.04484E+06 2.02467E+05-2.45748E+06-3.99732E-07-4.77121E-09
 -1        89 2.93623E+06 5.47439E+06 2.22060E+06 5.57471E+06-5.69737E-07-7.36145E-08
 -1        90-2.06770E+06-1.46051E+07-2.81844E+06-3.07180E+06-1.41394E-07-2.25133E-07
 -1       121-2.18533E+03-1.63673E+06-8.68217E+02 1.31688E+03 4.88768E-10 1.10012E-08
 -1       122-1.43963E+03-1.63124E+06 4.14037E+02-5.31165E+03 5.76759E-09 2.91038E-08
 -1       123-2.15749E+03-1.63683E+06-5.53966E+02 3.92902E+03 2.26794E-09 1.51340E-09
 -1       124-3.94136E+02-1.63131E+06 1.28801E+03-1.09935E+04 1.11459E-08-3.30820E-08
 -1       125-2.54466E+03-1.63735E+06 6.05521E+02 6.94448E+03 3.74712E-09-2.41416E-08
 -1       191-7.96466E+01 3.86758E+05 8.48558E+00 7.02659E-01-5.31267E-10-2.10948E-08
 -1       192-7.65453E+01 3.86740E+05 2.13262E+01-4.31795E+00-8.82986E-10-2.94031E-08
 -1       193-8.21866E+01 3.86758E+05 3.62962E+01 3.79240E+00-1.14587E-09-1.68620E-08
 -1       194-7.96393E+01 3.86744E+05 8.10741E+01-9.79726E+00-4.96676E-10-1.08339E-08
 -1       195-8.70620E+01 3.86755E+05 1.55207E+02 6.37647E+00-1.44748E-09-8.56380E-09
 -1       251-8.83542E+05 1.65062E+04-3.85732E+04-1.43520E+04 7.52812E-09 1.07530E-07
 -1       252-8.98540E+05-1.90829E+04-2.69011E+04 4.98276E+04 2.14516E-09-1.05307E-07
 -1       253-8.91799E+05 2.54354E+03-1.03191E+04-1.05665E+04-8.61792E-09-1.77387E-07
 -1       254-8.85421E+05-3.04453E+03-4.82369E+03 3.59661E+04 1.54779E-08-1.47251E-07
 -1       255-8.96091E+05 9.38747E+01-3.49543E+03-4.93253E+02-2.67005E-09 3.54453E-09
 -1       256-8.79995E+05-2.94468E+02 9.96402E+02 1.28652E+04-3.53248E-09 9.49358E-08
 -1       257-8.96786E+05-5.30807E+02-1.34624E+03 1.25244E+04 3.27827E-09 1.30687E-08
 -1       258-8.82450E+05 8.43444E+02 2.59111E+03-1.17282E+04-2.10764E-09 7.45340E-08
 -1       259-8.93853E+05-8.75336E+02 1.35419E+03 2.40975E+04 1.05092E-09-6.25843E-08
 -1       260-8.88476E+05 2.80776E+03 5.45928E+03-2.95817E+04-2.00325E-08-1.04332E-07
 -1       261-8.91364E+05-2.02932E+03 8.50195E+03 3.03923E+04 2.65592E-08-4.87184E-08
 -1       262-8.87103E+05 1.14885E+04 2.11208E+04-3.48191E+04-3.38222E-08 7.13117E-08
 -1       263-8.95467E+05-9.33630E+03 3.34698E+04 2.93434E+04 1.57636E-08-3.00952E-08
 -1       264-8.57250E+05 6.57658E+04 9.26353E+04-2.56017E+04 8.94303E-09-1.66769E-07
 -1       265-9.20738E+05-5.64298E+04 1.29053E+05 2.11639E+04 9.43282E-09 6.87942E-08
 -1       266-1.71920E+04-8.03978E+03 4.03335E+04-1.87512E+01-1.36424E-10 5.93727E-08
 -1       267 1.99300E+04 9.36929E+03 2.85091E+04 2.16370E+01-6.00267E-11-8.60324E-08
 -1       268-2.67259E+03-1.32702E+03 1.05966E+04-2.75683E+00-1.85082E-10-6.47571E-08
 -1       269 3.15552E+03 1.58808E+03 6.88770E+03 3.21140E+00-1.61890E-10-7.59187E-08
 -1       270-4.73648E+02-2.60938E+02 3.32479E+03-4.35805E-01-1.41313E-10 3.56544E-08
 -1       271-1.51668E+06-1.92063E+05-1.14046E+05-5.89464E+05-2.73230E-08-1.18162E-07
 -1       272-1.51877E+06-3.03480E+05-7.18836E+04-6.23003E+05-2.55441E-08-1.86838E-07
 -1       273-1.54057E+06-2.16723E+05-2.75604E+04-5.81479E+05 6.60293E-09 2.82573E-07
 -1       274-1.49123E+06-2.73885E+05-1.44867E+04-6.37780E+05-4.42924E-08 1.48852E-07
 -1       275-1.54612E+06-2.16564E+05-6.81275E+03-5.77796E+05 2.10821E-08 1.81549E-07
 -1       276-1.48534E+06-2.74621E+05-2.95918E+03-6.45999E+05-9.30595E-09 4.00807E-07
 -1       277-1.54888E+06-2.14081E+05-1.87352E+03-5.75125E+05-2.24409E-08 2.15477E-07
 -1       278-1.48298E+06-2.77781E+05-7.66077E+02-6.52054E+05-3.20779E-09 5.33655E-08
 -1       279-1.55064E+06-2.12014E+05-9.05521E+02-5.73234E+05-1.16597E-09-2.98727E-07
 -1       280-1.48183E+06-2.80215E+05-1.09429E+03-6.56081E+05-9.29003E-09 2.34570E-09
 -1       281-1.55158E+06-2.10671E+05-2.01763E+03-5.72150E+05-3.33785E-10 2.08851E-07
 -1       282-1.48220E+06-2.82573E+05-4.70146E+03-6.57790E+05-7.68750E-10 1.25491E-07
 -1       283-1.55105E+06-2.09295E+05-8.36394E+03-5.71994E+05-1.63173E-08 1.89493E-08
 -1       284-1.48964E+06-2.93664E+05-2.27925E+04-6.55621E+05 2.68838E-08-5.15138E-09
 -1       285-1.54415E+06-2.00814E+05-3.55425E+04-5.73817E+05-4.16458E-08-1.87561E-07
 -1       301-4.80628E+03-6.41208E+05 1.67355E+05-1.12387E+06 4.62751E-09 8.79008E-08
 -1       302-6.00716E+03-5.94973E+05 1.00725E+05-1.64071E+06-1.17143E-09 4.74392E-08
 -1       303-1.99139E+04-6.33115E+05 5.70805E+04-1.12081E+06-1.28275E-08-1.38300E-07
 -1       304-2.19400E+04-6.01523E+05 5.77445E+04-1.64007E+06-1.73168E-08 1.08175E-07
 -1       305-2.40355E+04-6.22063E+05 7.13884E+04-1.12392E+06 3.52702E-09 1.35784E-07
 -1       306-3.01394E+07-6.22358E+06-8.61290E+06-5.31752E+05-9.52277E-08-5.94882E-08
 -1       307 2.54022E+07 3.25940E+06 5.52028E+06-1.51958E+07-8.59567E-07 1.90805E-07
 -1       308-6.98779E+06-1.03114E+06-4.58410E+05 5.21095E+06-2.48081E-07 2.88739E-07
 -1       309-3.27000E+06 8.75447E+06 2.28430E+06-2.06730E+07 2.35959E-07-1.65801E-07
 -1       310-1.25406E+07-1.93979E+06-2.02745E+06 5.22146E+06 1.92667E-08-6.65168E-08
 -1       311 3.83595E+07 2.16103E+04 7.27016E+06-8.85016E+06 5.71803E-07 3.04281E-07
 -1       312-3.19257E+07-6.76024E+06-8.53245E+06-5.01323E+06-3.10829E-07 1.90907E-07
 -1       313 4.54734E+07 1.49677E+07 1.06685E+07 2.37642E+07-5.48433E-07 1.92056E-07
 -1       314-1.72563E+07-1.77702E+07-7.52826E+06-1.25390E+07 3.31493E-07-1.54600E-07
 -1       315-1.79277E+06 2.97286E+07 5.67434E+06 1.05881E+07-3.08341E-07 1.74477E-07
 -1       316 1.38851E+06-9.85096E+06-4.44838E+05-2.54266E+06-1.17348E-06-3.15893E-07
 -1       317-1.71291E+07 2.24257E+07 2.23956E+06-8.80992E+06 7.54095E-07-8.80769E-07
 -1       318-1.06722E+06-1.27735E+07-2.03730E+06-4.23899E+06-1.00897E-06 1.58558E-07
 -1       319 7.19346E+06 3.19452E+07 7.03334E+06 1.66031E+07-1.27417E-07 2.09431E-07
 -1       320-2.25885E+07-1.76346E+07-9.85012E+06-1.28103E+07 1.74157E-07-8.18691E-08
 -1       336-1.14859E+03-1.70436E+06-1.07427E+04 9.49770E+03-2.71684E-08-3.23416E-09
 -1       337-4.24420E+03-1.70359E+06-1.62511E+04-2.26139E+04-5.04942E-08-3.54121E-08
 -1       338 4.70475E+02-1.70339E+06-2.77130E+04 1.28892E+04-3.52984E-08-5.62432E-09
 -1       339-3.00703E+04-1.72138E+06-6.42886E+04-2.92297E+04-6.40612E-08 1.96960E-08
 -1       340 2.02533E+04-1.68869E+06-1.01603E+05 1.59906E+04-4.16403E-08 3.87699E-08
 -1       406-4.99380E+01 3.86741E+05 6.45042E+02 3.36203E+00-1.93030E-09 2.01144E-08
 -1       407 1.54877E+02 3.86875E+05 1.37852E+03 2.34394E+01-5.41277E-10 4.04543E-09
 -1       408 6.35592E+02 3.86640E+05 2.74864E+03-2.71211E+01-2.62389E-09 6.40102E-09
 -1       409 2.91078E+03 3.87753E+05 6.19522E+03 2.89611E+02-4.29736E-10-2.99588E-08
 -1       410 8.49136E+03 3.85849E+05 1.26442E+04-2.79304E+02-3.12684E-09-5.51336E-09
 -1       521-3.16810E+07-7.68077E+06-1.00608E+07-1.38918E+05-1.06753E-07 8.02684E-08
 -1       522 2.62607E+07 4.28214E+06 5.62677E+06-1.87018E+07-5.76838E-07-3.22005E-07
 -1       523-7.56294E+06-1.34367E+06-4.50046E+05 5.65838E+06 4.88362E-08-2.29527E-07
 -1       524-6.77359E+06 1.18117E+07 2.47044E+06-2.37308E+07 8.36502E-07-1.07125E-06
 -1       525-1.33386E+07-2.57328E+06-2.22861E+06 5.67184E+06 5.95814E-07-3.76109E-07
 -1       526 4.18652E+07-6.85173E+04 7.62914E+06-1.14993E+07-4.17349E-08 1.95461E-07
 -1       527-3.37685E+07-8.45689E+06-9.83357E+06-4.87437E+06 1.65310E-07 1.68249E-07
 -1       528 4.96462E+07 1.66735E+07 1.11259E+07 2.70182E+07-2.84403E-07 8.05012E-08
 -1       529-1.81963E+07-1.99762E+07-8.62987E+06-1.25673E+07-1.67813E-07-6.78701E-08
 -1       530-4.27699E+06 3.45171E+07 6.00370E+06 1.00509E+07-1.57175E-07 4.29631E-07
 -1       531 1.38749E+06-1.09229E+07-4.17747E+05-2.49105E+06-8.29226E-07 6.52508E-08
 -1       532-1.96499E+07 2.44337E+07 2.44693E+06-1.31008E+07 4.59360E-07-7.99257E-07
 -1       533-1.11127E+06-1.39226E+07-2.16869E+06-4.04773E+06-2.87575E-07-1.01526E-06
 -1       534 5.18175E+06 3.70656E+07 7.31882E+06 1.71744E+07-6.70843E-08 7.81089E-07
 -1       535-2.37665E+07-2.00245E+07-1.12915E+07-1.28766E+07 1.23517E-07 4.64672E-07
 -1       536-7.07790E+05-4.71198E+04-4.80801E+04-5.48859E+04-2.73576E-09 5.25733E-08
 -1       537-5.32637E+04 4.50770E+04 8.45683E+04 1.24231E+05-1.19678E-07 1.04101E-07
 -1       538-3.94556E+05 3.33275E+03 3.64850E+03-7.24009E+04 3.95864E-08 1.16529E-07
 -1       539-2.68550E+05 2.90436E+03 2.50927E+04 1.39141E+05 1.39115E-07 1.15425E-07
 -1       540-4.97910E+05-4.37374E+02-2.13983E+04-7.03345E+04-1.00326E-08 1.03421E-07
 -1       541 1.49054E+05 1.70588E+04 1.06891E+05 9.82782E+04-5.20686E-10 6.68388E-08
 -1       542-8.00906E+05-2.02288E+04-8.46221E+04-3.06568E+04 4.11560E-08 4.12440E-08
 -1       543 4.09041E+05 2.74553E+04 1.58726E+05-1.33772E+04-5.07971E-08 3.57659E-09
 -1       544-7.50924E+05-1.66191E+04-7.51963E+04 4.06469E+04 1.87079E-08-4.80389E-08
 -1       545 3.09755E+04 9.53731E+03 8.02190E+04-1.13975E+05 4.59726E-08-7.73407E-08
 -1       546-4.32995E+05 6.11763E+03-1.22852E+04 6.95921E+04 4.55495E-08-9.69937E-08
 -1       547-2.86684E+05-4.65610E+03 1.06796E+04-1.41995E+05-9.85915E-08-1.06109E-07
 -1       548-4.41805E+05 4.72835E+03-2.39366E+04 6.93621E+04-1.07253E-07-8.34821E-08
 -1       549 5.01349E+04 1.62549E+04 6.09437E+04-1.11853E+05-7.66995E-08-7.50697E-08
 -1       550-7.60802E+05-2.23365E+04-1.29360E+05 3.87293E+04 6.97673E-09-4.73137E-08
 -1       551 4.10155E+04-7.54075E+05-1.56547E+04-1.24767E+06-1.02009E-07-5.99539E-09
 -1       552 9.35158E+04-7.99072E+05 1.00691E+04-1.77907E+06-7.15518E-08 3.06245E-08
 -1       553 7.19131E+04-7.95385E+05 3.21596E+04-1.24103E+06-1.18845E-07 2.76923E-08
 -1       554 1.32258E+05-8.14841E+05 8.12253E+04-1.78101E+06-7.53207E-08 1.87938E-08
 -1       555 1.01629E+05-8.18968E+05 1.48296E+05-1.24086E+06-1.23655E-07-1.54650E-08
 -1       556 2.24015E+05-3.84054E+05 2.61529E+04-4.07605E+05-2.54076E-08-8.67294E-09
 -1       557 3.54819E+05-4.88514E+05 1.63642E+04-5.28088E+05 4.39468E-09-1.60035E-08
 -1       558 2.05768E+05-3.76897E+05 2.40020E+03-4.12021E+05-1.88011E-08-1.04774E-09
 -1       559 3.29695E+05-4.88625E+05 2.48159E+03-5.48589E+05 2.33413E-08 8.52378E-09
 -1       560 1.90424E+05-3.67275E+05-1.49577E+03-4.23081E+05 1.80735E-08 1.24710E-08
 -1       561 3.10408E+05-4.80908E+05 1.36962E+02-5.61740E+05 5.58794E-09 1.16579E-08
 -1       562 1.78288E+05-3.59735E+05-1.32943E+03-4.31870E+05 3.78350E-10 7.69433E-09
 -1       563 2.95989E+05-4.74623E+05-3.63857E+01-5.71158E+05 4.72937E-10 1.60162E-09
 -1       564 1.69623E+05-3.54337E+05-6.03838E+02-4.38011E+05 4.16185E-09-4.04907E-09
 -1       565 2.86421E+05-4.70456E+05 2.34520E+01-5.77272E+05 7.65431E-09 3.11165E-08
 -1       566 1.64553E+05-3.51130E+05-2.62117E+02-4.41557E+05-8.91305E-09 1.19289E-08
 -1       567 2.81763E+05-4.68430E+05-3.64447E+02-5.80102E+05 1.30240E-08 1.19871E-08
 -1       568 1.63169E+05-3.50282E+05-1.13005E+03-4.42621E+05-4.67026E-09 1.15288E-08
 -1       569 2.80625E+05-4.68354E+05-2.85406E+03-5.78682E+05 2.76304E-09 1.96596E-08
 -1       570 1.66565E+05-3.53517E+05-6.23720E+03-4.41601E+05 1.74696E-08 1.53350E-08
 -1       571 2.90722E+05 1.05143E+04 1.49969E+04-9.54013E+04 1.82808E-09 2.96905E-09
 -1       572 2.92895E+05 3.96459E+03 7.34969E+03-1.04665E+05-5.93445E-10 2.36741E-09
 -1       573 2.91584E+05 1.24860E+03 3.26571E+03-9.52244E+04 4.87216E-09 1.49885E-09
 -1       574 2.91798E+05 7.30120E+02 1.63774E+03-1.04890E+05 5.67616E-09-5.87534E-10
 -1       575 2.91678E+05 4.50559E+02 7.72969E+02-9.52002E+04-4.80051E-09 4.97221E-09
 -1       576 2.91662E+05 4.62129E+02 3.95764E+02-1.04920E+05-1.16868E-08-3.73802E-09
 -1       577 2.91718E+05 3.92360E+02 1.97572E+02-9.51969E+04-7.94807E-09 1.60526E-09
 -1       578 2.91693E+05 4.23918E+02 1.14147E+02-1.04924E+05-3.52611E-09-3.86535E-10
 -1       579 2.91791E+05 3.55467E+02 7.84068E+01-9.51966E+04 8.64566E-09 4.84943E-09
 -1       580 2.91795E+05 3.72615E+02 9.10320E+01-1.04919E+05-7.39328E-09 9.94078E-09
 -1       581 2.91905E+05 2.96560E+02 1.37502E+02-9.52025E+04 5.71708E-09-1.51595E-08
 -1       582 2.91971E+05 3.34883E+02 2.79605E+02-1.04857E+05 1.06411E-10-1.15160E-08
 -1       583 2.92046E+05 3.38686E+02 5.36628E+02-9.52592E+04-3.84898E-09-1.91176E-09
 -1       584 2.92348E+05 7.77016E+02 1.21439E+03-1.04380E+05 6.39557E-09-1.84091E-08
 -1       585 2.92073E+05 1.79877E+03 2.45902E+03-9.56793E+04 2.63753E-10-1.28020E-08
 -1       586-3.42086E+03 1.17149E+05-2.90498E+03-2.50802E+05-6.64159E-09-1.81035E-09
 -1       587-1.33953E+03 1.16903E+05 7.80447E+02-2.76026E+05-8.52015E-09-8.01526E-09
 -1       588 3.98050E+02 1.16707E+05 4.77009E+03-2.50664E+05-4.05817E-09 5.35420E-09
 -1       589 5.09097E+03 1.19185E+05 1.23644E+04-2.75793E+05-5.10227E-09-3.11384E-08
 -1       590 1.66326E+04 1.15371E+05 2.59341E+04-2.51095E+05-7.13590E-09 1.88993E-08
 -1       591-7.52115E+04-1.60068E+04-2.25689E+04-3.20404E+04-2.48315E-09-2.46473E-09
 -1       592-7.93108E+04-1.95678E+04-1.22251E+04-3.56687E+04-3.58739E-10-1.84466E-08
 -1       593-7.74686E+04-1.43692E+04-5.08870E+03-3.36953E+04 1.98503E-09-3.25599E-09
 -1       594-7.61948E+04-1.62560E+04-2.53786E+03-3.57867E+04-1.25530E-09-1.59447E-08
 -1       595-7.76406E+04-1.43638E+04-1.16513E+03-3.37704E+04 3.78908E-09 6.67298E-09
 -1       596-7.59814E+04-1.61046E+04-5.92080E+02-3.57613E+04 9.82971E-09 3.35757E-09
 -1       597-7.76622E+04-1.43792E+04-3.21944E+02-3.37733E+04 4.82260E-09 1.44964E-08
 -1       598-7.59604E+04-1.60986E+04-2.57960E+02-3.57542E+04-7.05427E-09 1.92076E-08
 -1       599-7.76610E+04-1.43797E+04-3.28460E+02-3.37730E+04 1.85969E-09 9.05891E-09
 -1       600-7.59814E+04-1.61051E+04-6.09329E+02-3.57591E+04 8.35206E-09-1.91989E-09
 -1       601-7.76363E+04-1.43652E+04-1.20164E+03-3.37695E+04 4.05589E-09-1.59707E-09
 -1       602-7.62014E+04-1.62602E+04-2.61861E+03-3.57814E+04-8.40703E-09-1.44845E-08
 -1       603-7.74560E+04-1.43736E+04-5.25128E+03-3.36927E+04-2.89174E-09 2.21598E-09
 -1       604-7.94346E+04-1.96580E+04-1.26148E+04-3.56349E+04 5.96503E-09 9.14747E-09
 -1       605-7.51068E+04-1.60813E+04-2.32885E+04-3.20045E+04 4.62467E-09 3.63525E-09
 -1       606 2.66743E+04-1.43436E+04-2.57131E+04 2.39564E+04-1.28821E-08-2.52294E-09
 -1       607 2.22808E+04-4.68467E+03-1.28050E+04 2.69221E+04-3.60023E-08-2.49474E-09
 -1       608 2.47848E+04-8.45166E+02-5.73238E+03 2.37881E+04-2.18315E-08-8.37281E-09
 -1       609 2.43049E+04-2.89649E+02-2.89585E+03 2.71359E+04-2.19006E-09-1.55223E-08
 -1       610 2.45711E+04-4.11442E+01-1.38163E+03 2.37680E+04-6.37829E-09-1.00183E-08
 -1       611 2.44958E+04-4.14706E+01-6.96609E+02 2.71590E+04-1.10867E-08-8.84484E-10
 -1       612 2.45240E+04-2.74709E+01-3.31144E+02 2.37660E+04-9.18590E-09-1.59539E-08
 -1       613 2.45075E+04-3.74214E+01-1.48356E+02 2.71617E+04-2.53567E-09-2.18542E-08
 -1       614 2.45019E+04-3.39370E+01-3.46951E+01 2.37653E+04-7.88714E-09 4.72028E-09
 -1       615 2.45023E+04-3.59664E+01 6.24044E+01 2.71621E+04-5.86761E-09 3.03289E-08
 -1       616 2.44845E+04-3.08396E+01 1.86924E+02 2.37656E+04-2.63162E-09 3.89491E-10
 -1       617 2.45248E+04 3.83563E+00 4.26393E+02 2.71616E+04-8.50582E-09-1.80082E-08
 -1       618 2.44475E+04 9.20569E+01 8.59434E+02 2.37659E+04-9.82345E-09-5.26529E-09
 -1       619 2.48282E+04 6.68331E+02 1.92991E+03 2.71610E+04-4.43504E-09 2.94972E-09
 -1       620 2.41621E+04 2.12998E+03 3.87905E+03 2.37675E+04-2.58581E-09-2.93721E-09
 -1       621 5.13210E+02 3.01794E+05 3.89800E+03 4.11718E+04 1.07048E-09 3.20597E-09
 -1       622 6.80089E+02 3.02694E+05 3.45690E+03 5.97719E+04 1.29739E-09-1.55273E-08
 -1       623 1.43754E+02 3.01989E+05 4.15076E+03 4.09856E+04 1.31899E-09-6.48470E-10
 -1       624 2.13114E+03 3.03912E+05 8.04405E+03 5.99551E+04 1.34810E-09 2.19575E-09
 -1       625 2.08181E+03 3.00394E+05 1.40554E+04 4.09824E+04 1.17006E-09-5.78893E-10
 -1       626 2.61068E+05 6.14184E+04 5.11793E+03 1.26787E+05 1.31913E-08 1.48275E-08
 -1       627 2.58751E+05 6.28143E+04 2.46629E+03 1.31057E+05 2.96095E-08 1.38114E-08
 -1       628 2.61195E+05 5.90769E+04 1.04307E+03 1.27657E+05 1.12050E-08 3.04185E-08
 -1       629 2.58116E+05 6.21344E+04 5.10530E+02 1.31297E+05-1.57388E-09 4.60983E-08
 -1       630 2.61210E+05 5.89637E+04 2.36933E+02 1.27694E+05-1.57797E-10-8.81755E-10
 -1       631 2.58050E+05 6.21084E+04 1.27649E+02 1.31299E+05 2.74486E-09-1.35905E-08
 -1       632 2.61206E+05 5.89676E+04 8.42565E+01 1.27690E+05 5.79939E-09-1.67988E-08
 -1       633 2.58041E+05 6.21102E+04 9.42606E+01 1.31295E+05 2.54272E-09-1.76160E-08
 -1       634 2.61202E+05 5.89648E+04 1.52681E+02 1.27689E+05-2.42130E-09-1.07721E-08
 -1       635 2.58056E+05 6.21085E+04 3.09167E+02 1.31301E+05 9.98492E-09 3.13275E-09
 -1       636 2.61193E+05 5.89589E+04 6.24474E+02 1.27689E+05 1.38821E-08 1.74327E-08
 -1       637 2.58191E+05 6.22056E+04 1.37314E+03 1.31300E+05 7.81779E-09-7.20547E-10
 -1       638 2.61144E+05 5.92622E+04 2.82130E+03 1.27552E+05 4.97676E-09 1.53973E-08
 -1       639 2.59673E+05 6.42668E+04 6.67534E+03 1.30864E+05 7.69433E-09 5.41672E-09
 -1       640 2.60939E+05 6.54173E+04 1.38525E+04 1.24958E+05 6.56792E-09-1.38880E-09
 -1       656 6.66236E+04-1.70512E+06-1.60825E+05-2.56681E+03-2.61934E-10-1.41074E-08
 -1       657-8.81376E+04-1.77779E+06-1.33235E+05 5.15002E+03-1.00954E-10-7.13496E-09
 -1       658 2.12376E+04-1.72576E+06-8.20570E+04-4.65256E+03 7.63748E-10-9.17035E-09
 -1       659-9.53102E+04-1.78120E+06-1.42661E+05 6.88402E+03-1.30967E-09-9.98818E-09
 -1       660 7.37802E+04-1.70172E+06-1.77031E+05-4.30080E+03-2.51021E-09 1.20853E-08
 -1       661 1.58445E+05 1.65770E+04 1.67103E+04 6.19398E+04 4.33374E-10 1.08894E-08
 -1       662 1.67895E+05 2.89490E+04 1.12616E+04 5.81873E+04 8.07916E-10-1.23791E-08
 -1       663 1.61727E+05 2.19380E+04 3.93858E+03 6.09873E+04-3.42914E-09 2.52264E-08
 -1       664 1.64090E+05 2.26798E+04 2.35610E+03 5.93509E+04 3.00872E-09 1.89540E-08
 -1       665 1.62225E+05 2.26701E+04 9.29465E+02 6.08419E+04-5.50358E-10-1.82098E-10
 -1       666 1.63500E+05 2.18426E+04 5.44076E+02 5.95405E+04 7.62404E-09 1.03302E-09
 -1       667 1.62313E+05 2.27534E+04 2.89189E+02 6.08055E+04 8.84967E-10-7.12248E-09
 -1       668 1.63404E+05 2.17828E+04 2.95130E+02 5.95935E+04-4.31719E-09-7.06411E-09
 -1       669 1.62321E+05 2.27282E+04 3.99947E+02 6.07892E+04-2.38524E-09 1.32956E-08
 -1       670 1.63501E+05 2.20000E+04 8.71246E+02 5.95964E+04-7.27048E-09-1.35403E-08
 -1       671 1.62215E+05 2.25407E+04 1.54708E+03 6.08005E+04-3.52822E-09-1.62946E-08
 -1       672 1.64403E+05 2.35051E+04 3.95827E+03 5.93779E+04 8.35965E-09-2.91577E-08
 -1       673 1.61423E+05 2.12612E+04 6.63347E+03 6.09931E+04 3.27884E-09 5.75301E-09
 -1       674 1.70716E+05 3.41626E+04 1.89703E+04 5.75231E+04-7.48605E-09 8.27913E-09
 -1       675 1.55942E+05 1.21817E+04 2.81587E+04 6.25433E+04-1.13141E-09-6.14818E-09
 -1       676 2.41214E+01-2.96019E+05-1.11386E+03-1.37965E+02 2.87042E-09 3.83481E-09
 -1       677-2.94634E+02-2.96288E+05-2.03856E+03 2.75707E+02 1.09166E-08-1.44288E-08
 -1       678 1.97623E+02-2.95827E+05-3.60367E+03-1.37652E+02 7.95808E-11-1.66105E-08
 -1       679-3.60372E+03-2.98464E+05-8.56083E+03 2.74516E+02 5.11716E-09-1.29819E-08
 -1       680 2.15164E+03-2.93845E+05-1.37971E+04-1.35253E+02 1.36606E-09-2.10785E-08
 -1       771-3.06357E+06-7.47603E+05-1.65553E+05-1.46660E+06-3.06463E-08-3.39642E-08
 -1       772-2.98632E+06-8.36440E+05-8.53424E+04-1.56931E+06-1.22236E-08 1.37697E-08
 -1       773-3.09504E+06-7.23061E+05-4.35287E+04-1.48111E+06-1.05647E-08 1.10012E-08
 -1       774-2.97685E+06-8.17971E+05-1.94152E+04-1.59509E+06 3.00934E-08-2.16096E-09
 -1       775-3.11150E+06-7.11513E+05-1.45381E+04-1.48817E+06-7.85803E-10 5.42786E-09
 -1       776-2.98921E+06-8.14937E+05-5.43403E+03-1.61461E+06 2.32831E-10 5.02405E-09
 -1       777-3.12578E+06-7.01204E+05-6.42873E+03-1.49440E+06 5.26779E-09 5.04951E-09
 -1       778-3.00211E+06-8.12112E+05-1.81655E+03-1.63138E+06-2.47383E-10 6.24277E-09
 -1       779-3.13806E+06-6.92195E+05-3.21415E+03-1.49972E+06-1.41445E-08-1.08157E-08
 -1       780-3.01348E+06-8.09416E+05-5.32595E+02-1.64504E+06-1.02882E-08 1.69530E-09
 -1       781-3.14783E+06-6.84932E+05-1.24878E+03-1.50388E+06-3.18250E-08-1.82808E-09
 -1       782-3.02224E+06-8.07127E+05 4.50744E+02-1.65512E+06-3.42334E-08 2.61025E-10
 -1       783-3.15470E+06-6.79886E+05 7.01674E+02-1.50680E+06-1.15324E-08-1.47866E-08
 -1       784-3.02709E+06-8.04840E+05 2.90720E+03-1.66134E+06-2.57278E-08 2.50384E-09
 -1       785-3.15877E+06-6.76875E+05 5.13230E+03-1.50864E+06-4.16076E-08 9.07312E-09
 -1       786 1.24042E+05-9.78451E+03 2.26374E+04-3.23636E+02 3.96017E-09 1.08230E-09
 -1       787 1.33860E+05 1.13283E+04 1.60150E+04-1.37300E+02 6.33971E-09-1.18121E-09
 -1       788 1.27827E+05-1.53325E+03 5.85680E+03-2.88507E+02 1.23045E-09 1.55858E-08
 -1       789 1.29450E+05 1.77471E+03 3.67670E+03-1.91102E+02-1.99182E-09 3.06858E-09
 -1       790 1.28452E+05-2.38721E+02 1.48867E+03-2.69852E+02-2.90474E-09 4.37814E-09
 -1       791 1.28719E+05 2.76223E+02 8.59889E+02-2.23022E+02-7.41584E-09-1.04798E-08
 -1       792 1.28558E+05-3.58833E+01 3.64525E+02-2.56590E+02-4.37401E-09-2.42375E-09
 -1       793 1.28592E+05 3.79916E+01 1.82025E+02-2.47978E+02-4.98209E-10 1.16339E-08
 -1       794 1.28579E+05-6.40492E-01 4.79108E+01-2.44896E+02 3.98002E-09 2.62254E-09
 -1       795 1.28556E+05-2.70017E+01-5.63172E+01-2.72393E+02-4.89976E-09-1.84716E-08
 -1       796 1.28595E+05 2.90736E+01-1.60337E+02-2.32175E+02 3.96365E-09-6.90891E-09
 -1       797 1.28462E+05-2.17055E+02-4.40875E+02-3.01628E+02 4.39715E-09-6.06513E-09
 -1       798 1.28673E+05 1.89270E+02-7.16180E+02-2.15661E+02 2.13507E-09-2.11913E-08
 -1       799 1.27918E+05-1.39503E+03-1.97048E+03-3.42533E+02 5.92036E-09-8.57381E-09
 -1       800 1.29139E+05 1.20609E+03-2.78868E+03-1.91270E+02 3.94683E-10 5.34862E-09
 -1       801-1.71763E+05-1.00057E+07-1.39484E+06 1.41720E+06 9.26666E-08-5.13901E-08
 -1       802 7.39446E+05 5.96084E+06 2.18442E+06-1.74964E+06 2.58791E-07-3.18987E-08
 -1       803-5.37234E+05-1.42782E+07-1.89243E+06 8.99630E+05 7.75035E-08 1.96160E-08
 -1       804 2.87538E+05 2.40110E+06 1.53898E+06 6.77516E+05-1.20046E-07-1.05210E-07
 -1       805 1.89497E+05-6.46012E+06-2.86587E+05-1.00429E+06-5.00804E-08-6.86878E-08
 -1       806-3.09004E+05-5.98130E+04-2.28638E+04-1.22494E+05-2.66664E-09-5.15229E-10
 -1       807-3.10797E+05-5.60869E+04-1.12327E+04-1.28049E+05 6.99856E-09 1.51538E-08
 -1       808-3.09632E+05-5.15728E+04-4.76528E+03-1.26389E+05-3.18641E-09 1.29868E-08
 -1       809-3.08435E+05-5.29310E+04-2.33010E+03-1.28325E+05-9.63814E-09 1.75817E-08
 -1       810-3.09727E+05-5.12859E+04-1.06802E+03-1.26561E+05 1.03500E-08-3.85626E-10
 -1       811-3.08252E+05-5.28042E+04-5.31145E+02-1.28289E+05 1.68757E-09 1.62208E-09
 -1       812-3.09741E+05-5.13106E+04-2.68710E+02-1.26560E+05-8.60746E-09-1.53136E-08
 -1       813-3.08227E+05-5.28064E+04-1.74776E+02-1.28271E+05-7.72116E-09-2.49011E-08
 -1       814-3.09734E+05-5.13203E+04-1.73431E+02-1.26556E+05 1.31240E-09-1.92949E-08
 -1       815-3.08230E+05-5.28087E+04-2.79631E+02-1.28263E+05-1.33195E-09-8.41351E-09
 -1       816-3.09713E+05-5.13195E+04-5.30127E+02-1.26552E+05-1.28694E-09 2.69365E-08
 -1       817-3.08320E+05-5.28593E+04-1.13777E+03-1.28251E+05-1.64946E-08 1.74114E-08
 -1       818-3.09644E+05-5.14801E+04-2.32068E+03-1.26477E+05-1.02618E-08 3.94402E-09
 -1       819-3.09591E+05-5.42612E+04-5.46037E+03-1.27950E+05-6.45741E-09-1.25533E-08
 -1       820-3.09206E+05-5.56052E+04-1.11139E+04-1.24715E+05-3.30965E-09 1.93770E-08
 -1       821-3.79199E+05 2.08812E+04-4.86151E+04 2.14380E+03 1.37156E-08 1.50503E-08
 -1       822-3.98885E+05-2.41900E+04-3.41598E+04-4.50416E+03 4.94276E-09 4.36557E-10
 -1       823-3.86653E+05 3.29200E+03-1.25562E+04 3.47260E+03-1.21977E-08 1.94541E-09
 -1       824-3.89880E+05-3.79610E+03-7.85846E+03-5.43402E+03 1.52104E-09-2.77497E-08
 -1       825-3.88210E+05 5.11646E+02-3.29188E+03 3.07378E+03 1.97550E-08 3.04681E-11
 -1       826-3.87429E+05-5.66947E+02-1.74087E+03-3.14022E+03 2.53462E-08 1.65121E-08
 -1       827-3.89079E+05 4.59177E+01-1.19441E+03 1.17865E+03 1.25216E-08-2.05449E-09
 -1       828-3.86711E+05-1.30867E+02-5.79609E+02 1.09974E+03 3.09967E-10 1.33439E-08
 -1       829-3.88916E+05 6.52301E+01-1.18283E+03-1.16621E+03 2.86141E-09-8.21444E-10
 -1       830-3.87783E+05-6.22163E+02-1.87992E+03 4.93414E+03 1.17885E-09-1.38031E-08
 -1       831-3.88030E+05 5.55216E+02-3.37309E+03-2.65576E+03-6.02661E-09 4.83101E-09
 -1       832-3.89960E+05-3.96303E+03-8.16087E+03 6.23313E+03-2.21155E-09-4.05964E-09
 -1       833-3.86755E+05 3.41594E+03-1.30600E+04-2.46525E+03-2.17290E-09 9.39326E-09
 -1       834-3.98940E+05-2.51026E+04-3.53803E+04 4.24079E+03-1.28608E-09 2.23154E-08
 -1       835-3.79033E+05 2.16615E+04-5.04837E+04-6.63333E+02 5.99613E-09 1.38243E-08
 -1       836-1.41589E+03 3.70603E+05 2.29349E+04-1.61751E+04-6.97764E-09-4.32829E-09
 -1       837 4.88854E+03 3.77786E+05 1.94018E+04-3.30564E+04-7.96803E-09 1.85762E-08
 -1       838-5.58744E+02 3.72618E+05 1.97604E+04-1.61034E+04-6.54245E-09 1.05949E-08
 -1       839 1.24323E+04 3.83405E+05 3.73733E+04-3.31089E+04-6.72253E-09-2.44657E-08
 -1       840-3.84412E+03 3.64925E+05 5.95935E+04-1.61284E+04-6.07906E-09 4.60290E-10
 -1       856-5.20578E+04 8.02394E+03-2.11448E+04-3.97478E+02 6.51585E-09 4.81941E-09
 -1       857-6.07689E+04-9.42794E+03-1.45559E+04 5.63565E+03 9.97261E-10-4.91423E-09
 -1       858-5.55077E+04 1.12528E+03-5.48656E+03-4.21566E+02 3.60501E-09 5.85396E-09
 -1       859-5.68099E+04-1.32392E+03-3.31087E+03 5.67147E+03 9.05302E-10-2.41977E-09
 -1       860-5.60231E+04 1.57597E+02-1.38756E+03-4.33030E+02 3.23843E-09-1.95274E-08
 -1       861-5.62171E+04-1.88197E+02-7.63266E+02 5.68708E+03 4.80227E-09-1.44348E-09
 -1       862-5.61037E+04 2.13509E+01-3.17162E+02-4.37157E+02-2.60483E-09-2.20865E-10
 -1       863-5.61182E+04-2.18860E+01-1.15266E+02 5.68948E+03-4.73620E-09 1.06835E-08
 -1       864-5.61224E+04-4.92891E+00 4.77984E+01-4.35428E+02-4.14276E-09 6.98563E-10
 -1       865-5.60623E+04 5.98500E+01 2.56560E+02 5.67960E+03-2.39616E-09 9.09431E-10
 -1       866-5.61574E+04-6.03996E+01 5.16736E+02-4.27277E+02-1.20406E-09-6.73424E-10
 -1       867-5.58193E+04 4.98753E+02 1.27170E+03 5.65748E+03-5.37597E-10 8.55977E-09
 -1       868-5.63605E+04-4.35899E+02 2.11314E+03-4.13302E+02-4.17668E-09-5.16934E-10
 -1       869-5.42702E+04 3.62782E+03 5.62649E+03 5.62108E+03-6.10072E-10-3.04499E-09
 -1       870-5.76988E+04-3.10447E+03 8.16532E+03-3.90774E+02-4.91286E-09-2.63726E-08
 -1       871-5.52187E+03-2.13942E+04-1.95076E+04 1.30535E+05-3.99814E-09 1.95396E-08
 -1       872-1.98219E+03-2.59307E+04-8.16912E+03 1.69258E+05-1.08221E-08 5.10408E-09
 -1       873 4.06812E+02-2.37363E+04 5.88224E+02 1.30248E+05-5.17593E-09-1.04048E-08
 -1       874 3.30946E+03-2.13249E+04 9.78297E+03 1.69288E+05-1.03755E-08-1.65301E-10
 -1       875 6.85094E+03-2.60669E+04 2.20713E+04 1.30487E+05-5.47516E-09 4.83669E-09
 -1       876 2.93925E+05 4.95339E+04 1.51065E+04 1.17947E+05-2.44506E-09-3.08592E-09
 -1       877 2.94924E+05 5.27151E+04 8.06749E+03 1.22281E+05-2.98155E-09-9.60426E-09
 -1       878 2.95338E+05 4.78605E+04 3.37988E+03 1.19185E+05-1.10804E-08 1.02430E-08
 -1       879 2.92871E+05 5.06657E+04 1.68407E+03 1.22383E+05 4.81305E-09-1.18691E-08
 -1       880 2.95439E+05 4.78432E+04 7.84421E+02 1.19235E+05 3.00724E-09-3.21046E-09
 -1       881 2.92734E+05 5.05781E+04 4.18918E+02 1.22359E+05-6.54768E-09-3.43503E-08
 -1       882 2.95448E+05 4.78565E+04 2.68041E+02 1.19237E+05-9.32960E-09-3.06506E-09
 -1       883 2.92725E+05 5.05735E+04 2.88224E+02 1.22352E+05-3.52924E-09-8.60268E-09
 -1       884 2.95442E+05 4.78537E+04 4.58558E+02 1.19237E+05-2.33172E-09-2.20976E-08
 -1       885 2.92761E+05 5.05798E+04 9.21993E+02 1.22363E+05-5.04613E-09-1.08000E-08
 -1       886 2.95406E+05 4.78268E+04 1.85825E+03 1.19234E+05-2.76699E-09 2.52908E-09
 -1       887 2.93088E+05 5.07940E+04 4.05910E+03 1.22410E+05 9.92301E-09 4.47790E-09
 -1       888 2.95149E+05 4.78720E+04 8.17921E+03 1.19104E+05-4.51253E-09-1.58707E-09
 -1       889 2.97957E+05 5.58579E+04 1.95386E+04 1.22260E+05-2.76201E-09-4.86398E-09
 -1       890 2.91811E+05 5.18376E+04 3.65953E+04 1.15991E+05-2.67210E-09-2.21426E-08
 -1       891-8.91671E+01-1.62846E+05-1.99775E+03 2.71515E+04-1.97474E-09 3.70528E-09
 -1       892-1.75095E+02-1.63374E+05-2.14544E+03 4.12315E+04 2.00930E-09 1.21991E-08
 -1       893 4.39909E+01-1.62910E+05-3.03751E+03 2.71588E+04 2.18279E-10 3.58887E-09
 -1       894-1.51042E+03-1.64521E+05-6.28636E+03 4.10790E+04 2.62753E-09-8.73115E-10
 -1       895-1.19959E+03-1.61601E+05-1.10702E+04 2.73059E+04-2.39572E-09 4.93856E-10
 -1       956-3.77442E+05-5.45440E+03-1.34639E+04 3.09056E+04 7.75162E-09 9.26343E-09
 -1       957-3.80084E+05-1.92428E+03-6.91081E+03 3.71402E+04 1.39062E-09-5.02041E-10
 -1       958-3.78652E+05-2.41290E+02-3.11423E+03 3.07377E+04-2.95222E-09 5.17230E-09
 -1       959-3.78849E+05-1.36545E+02-1.59017E+03 3.73361E+04 1.47702E-09 9.95306E-09
 -1       960-3.78770E+05-4.49797E+01-7.75445E+02 3.07204E+04 5.70708E-09 6.87328E-09
 -1       961-3.78768E+05-6.34220E+01-4.11127E+02 3.73565E+04 1.10913E-08 5.03496E-09
 -1       962-3.78798E+05-4.61850E+01-2.35374E+02 3.07175E+04 3.66344E-09-1.36101E-08
 -1       963-3.78769E+05-5.92128E+01-1.88936E+02 3.73602E+04 5.04338E-09-8.80641E-09
 -1       964-3.78803E+05-4.28225E+01-2.29750E+02 3.07167E+04 1.96255E-09-1.34025E-08
 -1       965-3.78781E+05-5.62524E+01-3.97365E+02 3.73595E+04-3.02947E-09-1.91401E-08
 -1       966-3.78787E+05-3.49872E+01-7.46636E+02 3.07182E+04 4.07999E-09-1.13589E-08
 -1       967-3.78870E+05-1.19854E+02-1.53133E+03 3.73451E+04 2.66709E-10-1.29671E-09
 -1       968-3.78683E+05-2.17619E+02-2.99780E+03 3.07309E+04-2.53476E-09-1.15130E-08
 -1       969-3.80072E+05-1.83581E+03-6.65503E+03 3.71964E+04-9.36780E-11-8.11841E-09
 -1       970-3.77526E+05-5.23381E+03-1.29644E+04 3.08583E+04 8.18545E-12-1.52977E-09
 -1       971-3.45560E+05-1.72797E+03-9.31209E+03 1.53815E+04 7.85985E-09 4.63615E-10
 -1       972-3.47801E+05-1.27220E+03-5.07127E+03 2.12721E+04 5.33646E-09 4.80486E-09
 -1       973-3.46597E+05-6.21383E+01-2.27147E+03 1.52603E+04-4.04725E-10-3.65117E-09
 -1       974-3.46732E+05-8.12246E+01-1.17746E+03 2.14092E+04-3.21324E-09-7.16454E-09
 -1       975-3.46679E+05-1.72523E+01-5.89042E+02 1.52480E+04-4.37558E-09-1.16510E-08
 -1       976-3.46671E+05-3.13689E+01-3.40693E+02 2.14249E+04 8.28550E-10 9.35006E-09
 -1       977-3.46696E+05-1.65054E+01-2.48803E+02 1.52446E+04-3.03839E-09 5.17173E-09
 -1       978-3.46676E+05-2.51417E+01-2.93243E+02 2.14298E+04-5.52495E-09-1.85961E-08
 -1       979-3.46695E+05-8.02260E+00-4.72946E+02 1.52431E+04 3.13946E-10-1.50567E-09
 -1       980-3.46712E+05-2.20788E+01-9.14326E+02 2.14308E+04 5.61414E-09 3.73143E-09
 -1       981-3.46666E+05 1.48320E+01-1.77143E+03 1.52437E+04 5.49301E-09-6.25846E-10
 -1       982-3.46955E+05-1.52967E+02-3.66183E+03 2.14242E+04 6.89579E-09-6.72118E-09
 -1       983-3.46443E+05-9.85960E+01-7.11514E+03 1.52497E+04-1.80353E-09-1.46247E-09
 -1       984-3.50377E+05-3.86899E+03-1.59341E+04 2.13385E+04 1.46256E-08 9.48216E-09
 -1       985-3.43222E+05-5.30501E+03-2.92600E+04 1.53211E+04 4.98403E-09-2.13913E-09
 -3
    1PSTEP                        49          25           1          
  100CL  125 6.63174E-01         409                     0   25           1
 -4  DISP        4    1
 -5  D1          1    2    1    0
 -5  D2          1    2    2    0
 -5  D3          1    2    3    0
 -5  ALL         1    2    0    0    1ALL
 -1         1 2.72259E-03 0.00000E+00 0.00000E+00
 -1         2 1.35254E-03 1.12637E-27 0.00000E+00
 -1         3 3.48127E-04-5.74971E-28-1.32349E-23
 -1         5 1.77384E-04-2.71670E-27-1.65436E-24
 -1         8 2.71171E-03-4.05422E-07 0.00000E+00
 -1         9 2.70509E-03-1.92299E-04 0.00000E+00
 -1        10 3.13776E-04-3.55837E-06 0.00000E+00
 -1        12 1.79240E-04 8.10171E-07-1.24077E-24
 -1        15 2.69926E-03-4.29093E-07-1.03398E-25
 -1        16 2.77182E-03-1.94128E-04 0.00000E+00
 -1        17 2.11940E-04-7.96218E-06 0.00000E+00
 -1        18 1.83214E-04 3.45396E-05 0.00000E+00
 -1        19 1.84808E-04 1.61390E-06 0.00000E+00
 -1        20 1.84947E-04-9.97953E-06 0.00000E+00
 -1        21 1.84053E-04-2.56256E-05 3.30872E-24
 -1        24 3.07055E-05-1.21985E-05 0.00000E+00
 -1        25 1.94040E-04 3.47659E-05 0.00000E+00
 -1        26 1.94721E-04 2.23481E-06 0.00000E+00
 -1        27 1.92518E-04-1.35409E-05 0.00000E+00
 -1        28 1.92203E-04-2.62479E-05 0.00000E+00
 -1        32 0.00000E+00 0.00000E+00 0.00000E+00
 -1        33 2.03630E-04 2.98948E-06 0.00000E+00
 -1        34 2.01510E-04-1.35973E-05 0.00000E+00
 -1        35 1.99577E-04-2.65906E-05 0.00000E+00
 -1        51 2.72186E-03-8.50071E-08 0.00000E+00
 -1        52 2.72052E-03-1.51605E-07-3.30872E-24
 -1        53 2.71871E-03-2.14727E-07 0.00000E+00
 -1        54 2.71655E-03-2.76609E-07-1.65436E-24
 -1        55 2.71417E-03-3.39013E-07 0.00000E+00
 -1        56 2.71485E-03 8.58937E-06-5.29396E-23
 -1        57 2.69967E-03 3.55493E-05 0.00000E+00
 -1        58 2.67931E-03 7.51026E-05 0.00000E+00
 -1        59 2.65655E-03 1.20270E-04-5.29396E-23
 -1        60 2.63477E-03 1.63109E-04-1.05879E-22
 -1        61 2.61721E-03 1.95866E-04-5.29396E-23
 -1        62 2.60610E-03 2.12588E-04-1.05879E-22
 -1        63 2.60287E-03 2.08752E-04 0.00000E+00
 -1        64 2.60734E-03 1.83613E-04-1.05879E-22
 -1        65 2.61860E-03 1.38438E-04 0.00000E+00
 -1        66 2.63468E-03 7.83044E-05 1.05879E-22
 -1        67 2.65336E-03 9.75686E-06-5.29396E-23
 -1        68 2.67212E-03-5.90251E-05 0.00000E+00
 -1        69 2.68844E-03-1.19833E-04 0.00000E+00
 -1        70 2.70005E-03-1.66009E-04 5.29396E-23
 -1        86 1.43759E-03-6.08732E-06 0.00000E+00
 -1        87 1.68366E-03-3.82318E-05 2.64698E-23
 -1        88 2.01452E-03-9.34700E-05 0.00000E+00
 -1        89 2.34983E-03-1.50227E-04 1.32349E-23
 -1        90 2.60666E-03-1.84959E-04 0.00000E+00
 -1       121 3.47161E-04-5.72727E-07 0.00000E+00
 -1       122 3.44268E-04-1.14902E-06 0.00000E+00
 -1       123 3.39458E-04-1.73239E-06-1.32349E-23
 -1       124 3.32753E-04-2.32628E-06-6.61744E-24
 -1       125 3.24180E-04-2.93379E-06 0.00000E+00
 -1       191 1.77436E-04 1.35093E-07 8.27181E-25
 -1       192 1.77590E-04 2.70174E-07-1.65436E-24
 -1       193 1.77848E-04 4.05235E-07-2.48154E-24
 -1       194 1.78209E-04 5.40263E-07-4.13590E-25
 -1       195 1.78673E-04 6.75246E-07 1.65436E-24
 -1       251 2.71141E-03 1.64044E-06 0.00000E+00
 -1       252 2.71110E-03 3.53728E-06 0.00000E+00
 -1       253 2.71080E-03 4.31123E-06 6.61744E-24
 -1       254 2.71050E-03 3.00229E-06 0.00000E+00
 -1       255 2.71019E-03-1.03527E-06 6.61744E-24
 -1       256 2.70986E-03-8.41326E-06 0.00000E+00
 -1       257 2.70950E-03-1.92400E-05-6.61744E-24
 -1       258 2.70909E-03-3.35810E-05 0.00000E+00
 -1       259 2.70864E-03-5.09724E-05-6.61744E-24
 -1       260 2.70815E-03-7.09124E-05 0.00000E+00
 -1       261 2.70762E-03-9.25149E-05 0.00000E+00
 -1       262 2.70708E-03-1.14874E-04 0.00000E+00
 -1       263 2.70654E-03-1.36969E-04 0.00000E+00
 -1       264 2.70602E-03-1.57782E-04 0.00000E+00
 -1       265 2.70554E-03-1.76492E-04-1.32349E-23
 -1       266 2.70963E-03-4.15002E-07 3.30872E-24
 -1       267 2.70756E-03-4.18260E-07 0.00000E+00
 -1       268 2.70548E-03-4.21919E-07-8.27181E-25
 -1       269 2.70341E-03-4.24392E-07 2.06795E-25
 -1       270 2.70133E-03-4.26837E-07 0.00000E+00
 -1       271 2.71086E-03 8.67018E-08 0.00000E+00
 -1       272 2.71096E-03-2.04265E-06 6.61744E-24
 -1       273 2.71199E-03-6.63839E-06-1.32349E-23
 -1       274 2.71386E-03-1.35333E-05 0.00000E+00
 -1       275 2.71650E-03-2.25391E-05 0.00000E+00
 -1       276 2.71984E-03-3.34527E-05 0.00000E+00
 -1       277 2.72380E-03-4.60545E-05 0.00000E+00
 -1       278 2.72827E-03-6.01119E-05 0.00000E+00
 -1       279 2.73318E-03-7.53807E-05 0.00000E+00
 -1       280 2.73844E-03-9.16066E-05 6.61744E-24
 -1       281 2.74394E-03-1.08528E-04-1.32349E-23
 -1       282 2.74960E-03-1.25877E-04 0.00000E+00
 -1       283 2.75531E-03-1.43383E-04 1.32349E-23
 -1       284 2.76098E-03-1.60774E-04 0.00000E+00
 -1       285 2.76652E-03-1.77779E-04 1.32349E-23
 -1       301 2.71722E-03-1.92638E-04-6.61744E-24
 -1       302 2.72770E-03-1.92931E-04 3.30872E-24
 -1       303 2.73747E-03-1.93214E-04 0.00000E+00
 -1       304 2.74745E-03-1.93497E-04-6.61744E-24
 -1       305 2.75860E-03-1.93794E-04 0.00000E+00
 -1       306 2.74307E-03-3.47326E-04 0.00000E+00
 -1       307 2.80693E-03-7.62025E-04 0.00000E+00
 -1       308 2.85349E-03-1.36798E-03 0.00000E+00
 -1       309 2.87721E-03-2.06899E-03-5.29396E-23
 -1       310 2.90847E-03-2.73916E-03 0.00000E+00
 -1       311 2.96797E-03-3.25531E-03 5.29396E-23
 -1       312 3.02573E-03-3.53681E-03 0.00000E+00
 -1       313 3.02069E-03-3.54595E-03-5.29396E-23
 -1       314 2.87885E-03-3.29495E-03 0.00000E+00
 -1       315 2.55936E-03-2.84854E-03 0.00000E+00
 -1       316 2.08076E-03-2.28347E-03 0.00000E+00
 -1       317 1.50923E-03-1.66904E-03 0.00000E+00
 -1       318 9.59328E-04-1.06579E-03 0.00000E+00
 -1       319 5.39225E-04-5.38665E-04-5.29396E-23
 -1       320 2.92713E-04-1.61888E-04 0.00000E+00
 -1       336 3.01469E-04-4.22623E-06 0.00000E+00
 -1       337 2.87200E-04-4.91918E-06 0.00000E+00
 -1       338 2.71032E-04-5.63942E-06 0.00000E+00
 -1       339 2.53042E-04-6.38717E-06 0.00000E+00
 -1       340 2.33314E-04-7.16651E-06 0.00000E+00
 -1       406 1.79910E-04 9.45017E-07 3.30872E-24
 -1       407 1.80684E-04 1.07975E-06-4.13590E-25
 -1       408 1.81560E-04 1.21432E-06 3.30872E-24
 -1       409 1.82540E-04 1.34854E-06-2.06795E-25
 -1       410 1.83623E-04 1.48215E-06 2.89513E-24
 -1       521 2.81040E-03-3.58457E-04 0.00000E+00
 -1       522 2.87246E-03-7.93543E-04 0.00000E+00
 -1       523 2.91250E-03-1.42753E-03-1.05879E-22
 -1       524 2.92689E-03-2.15742E-03 0.00000E+00
 -1       525 2.95016E-03-2.85444E-03 1.05879E-22
 -1       526 3.00609E-03-3.39279E-03 0.00000E+00
 -1       527 3.06343E-03-3.68493E-03 2.11758E-22
 -1       528 3.05605E-03-3.69222E-03-1.05879E-22
 -1       529 2.90204E-03-3.42689E-03 0.00000E+00
 -1       530 2.55826E-03-2.96173E-03 0.00000E+00
 -1       531 2.04410E-03-2.37730E-03 0.00000E+00
 -1       532 1.43224E-03-1.74551E-03 5.29396E-23
 -1       533 8.42727E-04-1.12423E-03 0.00000E+00
 -1       534 3.88953E-04-5.76073E-04 0.00000E+00
 -1       535 1.21034E-04-1.79615E-04 2.11758E-22
 -1       536 2.11181E-04 2.70729E-05 0.00000E+00
 -1       537 2.09252E-04 8.77056E-05 0.00000E+00
 -1       538 2.06269E-04 1.64642E-04 0.00000E+00
 -1       539 2.02751E-04 2.48503E-04 0.00000E+00
 -1       540 1.99585E-04 3.27750E-04 3.30872E-24
 -1       541 1.97527E-04 3.90864E-04 1.65436E-24
 -1       542 1.96578E-04 4.31072E-04-3.30872E-24
 -1       543 1.96352E-04 4.41749E-04-1.65436E-24
 -1       544 1.96029E-04 4.23671E-04 3.30872E-24
 -1       545 1.94851E-04 3.77831E-04-1.65436E-24
 -1       546 1.92654E-04 3.12381E-04 0.00000E+00
 -1       547 1.89680E-04 2.35590E-04-1.65436E-24
 -1       548 1.86732E-04 1.59172E-04 0.00000E+00
 -1       549 1.84605E-04 9.48418E-05 1.65436E-24
 -1       550 1.83501E-04 5.06547E-05-1.65436E-24
 -1       551 1.86669E-04-8.53334E-06 0.00000E+00
 -1       552 1.58156E-04-9.18510E-06 0.00000E+00
 -1       553 1.27344E-04-9.89917E-06 3.30872E-24
 -1       554 9.51922E-05-1.06544E-05 0.00000E+00
 -1       555 6.26610E-05-1.14232E-05 0.00000E+00
 -1       556 2.04266E-04 1.16581E-05 0.00000E+00
 -1       557 1.98064E-04 2.75746E-05 0.00000E+00
 -1       558 1.93201E-04 4.00757E-05 5.29396E-23
 -1       559 1.89542E-04 4.94723E-05 0.00000E+00
 -1       560 1.86958E-04 5.60758E-05 0.00000E+00
 -1       561 1.85320E-04 6.01999E-05 0.00000E+00
 -1       562 1.84503E-04 6.21598E-05 0.00000E+00
 -1       563 1.84383E-04 6.22716E-05 0.00000E+00
 -1       564 1.84837E-04 6.08522E-05 0.00000E+00
 -1       565 1.85744E-04 5.82192E-05 0.00000E+00
 -1       566 1.86985E-04 5.46908E-05 0.00000E+00
 -1       567 1.88441E-04 5.05855E-05 6.61744E-24
 -1       568 1.89992E-04 4.62220E-05 0.00000E+00
 -1       569 1.91521E-04 4.19192E-05 0.00000E+00
 -1       570 1.92909E-04 3.79957E-05 0.00000E+00
 -1       571 1.83310E-04 3.24034E-05-1.65436E-24
 -1       572 1.83409E-04 3.02013E-05 0.00000E+00
 -1       573 1.83508E-04 2.79492E-05 1.65436E-24
 -1       574 1.83608E-04 2.56633E-05-8.27181E-25
 -1       575 1.83707E-04 2.33601E-05 0.00000E+00
 -1       576 1.83807E-04 2.10562E-05 3.30872E-24
 -1       577 1.83906E-04 1.87681E-05-3.30872E-24
 -1       578 1.84006E-04 1.65123E-05 0.00000E+00
 -1       579 1.84106E-04 1.43055E-05 0.00000E+00
 -1       580 1.84206E-04 1.21642E-05 0.00000E+00
 -1       581 1.84306E-04 1.01049E-05 0.00000E+00
 -1       582 1.84406E-04 8.14419E-06 0.00000E+00
 -1       583 1.84506E-04 6.29857E-06 6.61744E-24
 -1       584 1.84607E-04 4.58442E-06 3.30872E-24
 -1       585 1.84707E-04 3.01792E-06 6.61744E-24
 -1       586 1.84977E-04 3.45794E-05 1.65436E-24
 -1       587 1.86700E-04 3.46187E-05-4.13590E-25
 -1       588 1.88424E-04 3.46576E-05-8.27181E-25
 -1       589 1.90193E-04 3.46959E-05 0.00000E+00
 -1       590 1.92051E-04 3.47328E-05 0.00000E+00
 -1       591 1.83946E-04 3.24973E-05 2.06795E-25
 -1       592 1.84681E-04 3.04352E-05-2.06795E-25
 -1       593 1.85421E-04 2.83591E-05 0.00000E+00
 -1       594 1.86165E-04 2.62737E-05 0.00000E+00
 -1       595 1.86909E-04 2.41837E-05 0.00000E+00
 -1       596 1.87654E-04 2.20939E-05 4.13590E-25
 -1       597 1.88397E-04 2.00088E-05-8.27181E-25
 -1       598 1.89136E-04 1.79333E-05-4.13590E-25
 -1       599 1.89870E-04 1.58720E-05 0.00000E+00
 -1       600 1.90597E-04 1.38296E-05 4.13590E-25
 -1       601 1.91315E-04 1.18107E-05 0.00000E+00
 -1       602 1.92023E-04 9.82002E-06 4.13590E-25
 -1       603 1.92719E-04 7.86226E-06 4.13590E-25
 -1       604 1.93401E-04 5.94221E-06-1.03398E-25
 -1       605 1.94067E-04 4.06444E-06 4.13590E-25
 -1       606 1.84821E-04 4.43478E-07 0.00000E+00
 -1       607 1.84831E-04-6.41265E-07 0.00000E+00
 -1       608 1.84840E-04-1.64536E-06 0.00000E+00
 -1       609 1.84848E-04-2.57448E-06 0.00000E+00
 -1       610 1.84856E-04-3.43435E-06-3.30872E-24
 -1       611 1.84865E-04-4.23075E-06 0.00000E+00
 -1       612 1.84873E-04-4.96947E-06 0.00000E+00
 -1       613 1.84881E-04-5.65632E-06 0.00000E+00
 -1       614 1.84890E-04-6.29710E-06 0.00000E+00
 -1       615 1.84898E-04-6.89759E-06 0.00000E+00
 -1       616 1.84906E-04-7.46361E-06 0.00000E+00
 -1       617 1.84915E-04-8.00095E-06 0.00000E+00
 -1       618 1.84923E-04-8.51541E-06 0.00000E+00
 -1       619 1.84931E-04-9.01280E-06 0.00000E+00
 -1       620 1.84940E-04-9.49891E-06 2.06795E-25
 -1       621 1.86173E-04 1.71795E-06-1.65436E-24
 -1       622 1.87698E-04 1.82225E-06-8.27181E-25
 -1       623 1.89348E-04 1.92634E-06 1.65436E-24
 -1       624 1.91092E-04 2.03009E-06 8.27181E-25
 -1       625 1.92894E-04 2.13355E-06 0.00000E+00
 -1       626 1.85359E-04 4.79622E-07 3.30872E-24
 -1       627 1.85887E-04-5.91782E-07 0.00000E+00
 -1       628 1.86395E-04-1.60816E-06 0.00000E+00
 -1       629 1.86886E-04-2.57768E-06 0.00000E+00
 -1       630 1.87362E-04-3.50851E-06 0.00000E+00
 -1       631 1.87827E-04-4.40887E-06 0.00000E+00
 -1       632 1.88283E-04-5.28694E-06 0.00000E+00
 -1       633 1.88735E-04-6.15094E-06-1.65436E-24
 -1       634 1.89184E-04-7.00906E-06-3.30872E-24
 -1       635 1.89633E-04-7.86951E-06-1.65436E-24
 -1       636 1.90087E-04-8.74050E-06 0.00000E+00
 -1       637 1.90548E-04-9.63022E-06 0.00000E+00
 -1       638 1.91019E-04-1.05469E-05 1.65436E-24
 -1       639 1.91502E-04-1.14987E-05-1.65436E-24
 -1       640 1.92002E-04-1.24939E-05-3.30872E-24
 -1       656 1.85661E-04-1.05584E-05-6.61744E-24
 -1       657 1.86793E-04-1.11607E-05-6.61744E-24
 -1       658 1.88207E-04-1.17617E-05 0.00000E+00
 -1       659 1.89755E-04-1.23623E-05-6.61744E-24
 -1       660 1.91253E-04-1.29648E-05 0.00000E+00
 -1       661 1.85214E-04-1.05053E-05 8.27181E-25
 -1       662 1.85519E-04-1.11231E-05 0.00000E+00
 -1       663 1.85856E-04-1.18276E-05-1.65436E-24
 -1       664 1.86223E-04-1.26124E-05 8.27181E-25
 -1       665 1.86619E-04-1.34715E-05-1.65436E-24
 -1       666 1.87040E-04-1.43991E-05 8.27181E-25
 -1       667 1.87484E-04-1.53895E-05 0.00000E+00
 -1       668 1.87950E-04-1.64371E-05 0.00000E+00
 -1       669 1.88435E-04-1.75364E-05 0.00000E+00
 -1       670 1.88938E-04-1.86821E-05-8.27181E-25
 -1       671 1.89456E-04-1.98691E-05 1.65436E-24
 -1       672 1.89987E-04-2.10922E-05 8.27181E-25
 -1       673 1.90530E-04-2.23463E-05 0.00000E+00
 -1       674 1.91082E-04-2.36268E-05 0.00000E+00
 -1       675 1.91642E-04-2.49283E-05 0.00000E+00
 -1       676 1.85416E-04-2.57299E-05 0.00000E+00
 -1       677 1.86779E-04-2.58342E-05 0.00000E+00
 -1       678 1.88139E-04-2.59384E-05-3.30872E-24
 -1       679 1.89497E-04-2.60423E-05 1.65436E-24
 -1       680 1.90852E-04-2.61462E-05 0.00000E+00
 -1       771 1.87319E-05 1.45813E-05 0.00000E+00
 -1       772 8.65807E-06 3.65781E-05 0.00000E+00
 -1       773 3.93178E-07 5.40224E-05-5.29396E-23
 -1       774-6.18735E-06 6.71724E-05 2.64698E-23
 -1       775-1.12054E-05 7.62968E-05 5.29396E-23
 -1       776-1.47876E-05 8.16813E-05 5.29396E-23
 -1       777-1.70607E-05 8.36214E-05-5.29396E-23
 -1       778-1.81538E-05 8.24266E-05 0.00000E+00
 -1       779-1.81952E-05 7.84149E-05 0.00000E+00
 -1       780-1.73157E-05 7.19159E-05 2.64698E-23
 -1       781-1.56446E-05 6.32659E-05 0.00000E+00
 -1       782-1.33133E-05 5.28099E-05-2.64698E-23
 -1       783-1.04519E-05 4.08979E-05 0.00000E+00
 -1       784-7.19193E-06 2.78857E-05 2.64698E-23
 -1       785-3.66387E-06 1.41326E-05 0.00000E+00
 -1       786 1.94078E-04 3.25055E-05-1.29247E-26
 -1       787 1.94120E-04 3.02950E-05-4.13590E-25
 -1       788 1.94162E-04 2.81262E-05 0.00000E+00
 -1       789 1.94204E-04 2.59908E-05 0.00000E+00
 -1       790 1.94247E-04 2.38843E-05-1.65436E-24
 -1       791 1.94289E-04 2.18017E-05 8.27181E-25
 -1       792 1.94332E-04 1.97410E-05 0.00000E+00
 -1       793 1.94375E-04 1.77000E-05 8.27181E-25
 -1       794 1.94418E-04 1.56784E-05 0.00000E+00
 -1       795 1.94461E-04 1.36762E-05 0.00000E+00
 -1       796 1.94504E-04 1.16951E-05 1.65436E-24
 -1       797 1.94547E-04 9.73719E-06 0.00000E+00
 -1       798 1.94590E-04 7.80656E-06 1.65436E-24
 -1       799 1.94633E-04 5.90759E-06 0.00000E+00
 -1       800 1.94677E-04 4.04779E-06 1.65436E-24
 -1       801 1.48146E-04 3.12564E-05-2.64698E-23
 -1       802 9.39035E-06 1.94959E-05-2.64698E-23
 -1       803-1.09117E-04 9.84462E-06 0.00000E+00
 -1       804-9.67007E-05 6.85300E-06-2.64698E-23
 -1       805-3.19382E-05 2.69103E-06 0.00000E+00
 -1       806 1.94772E-04 3.24366E-05 0.00000E+00
 -1       807 1.95490E-04 3.01335E-05-1.65436E-24
 -1       808 1.96196E-04 2.78616E-05 3.30872E-24
 -1       809 1.96889E-04 2.56250E-05 0.00000E+00
 -1       810 1.97566E-04 2.34280E-05 0.00000E+00
 -1       811 1.98227E-04 2.12743E-05-1.65436E-24
 -1       812 1.98871E-04 1.91679E-05 0.00000E+00
 -1       813 1.99495E-04 1.71129E-05 0.00000E+00
 -1       814 2.00099E-04 1.51131E-05-3.30872E-24
 -1       815 2.00681E-04 1.31725E-05 8.27181E-25
 -1       816 2.01239E-04 1.12949E-05-3.30872E-24
 -1       817 2.01772E-04 9.48429E-06 0.00000E+00
 -1       818 2.02279E-04 7.74458E-06-1.65436E-24
 -1       819 2.02759E-04 6.07965E-06 8.27181E-25
 -1       820 2.03209E-04 4.49335E-06-1.65436E-24
 -1       821 1.94591E-04-1.41810E-07 0.00000E+00
 -1       822 1.94451E-04-3.68700E-06 0.00000E+00
 -1       823 1.94308E-04-7.96828E-06 3.30872E-24
 -1       824 1.94163E-04-1.25486E-05 0.00000E+00
 -1       825 1.94018E-04-1.69100E-05 3.30872E-24
 -1       826 1.93876E-04-2.05357E-05-1.65436E-24
 -1       827 1.93738E-04-2.31096E-05 0.00000E+00
 -1       828 1.93601E-04-2.43219E-05 0.00000E+00
 -1       829 1.93465E-04-2.42337E-05 0.00000E+00
 -1       830 1.93329E-04-2.29139E-05 0.00000E+00
 -1       831 1.93191E-04-2.07670E-05-3.30872E-24
 -1       832 1.93052E-04-1.82026E-05 0.00000E+00
 -1       833 1.92914E-04-1.57439E-05 0.00000E+00
 -1       834 1.92779E-04-1.39137E-05 0.00000E+00
 -1       835 1.92644E-04-1.30641E-05 0.00000E+00
 -1       836 1.96418E-04 2.35995E-06-3.30872E-24
 -1       837 1.97989E-04 2.48824E-06 1.65436E-24
 -1       838 1.99463E-04 2.61648E-06 0.00000E+00
 -1       839 2.00874E-04 2.74401E-06 0.00000E+00
 -1       840 2.02252E-04 2.87139E-06 0.00000E+00
 -1       856 1.92502E-04-1.46103E-05 8.27181E-25
 -1       857 1.92482E-04-1.55439E-05-2.58494E-26
 -1       858 1.92463E-04-1.63628E-05 0.00000E+00
 -1       859 1.92444E-04-1.70882E-05 0.00000E+00
 -1       860 1.92424E-04-1.77413E-05-4.13590E-25
 -1       861 1.92404E-04-1.83434E-05 0.00000E+00
 -1       862 1.92385E-04-1.89158E-05 4.13590E-25
 -1       863 1.92365E-04-1.94799E-05 0.00000E+00
 -1       864 1.92345E-04-2.00570E-05-8.27181E-25
 -1       865 1.92325E-04-2.06684E-05 4.13590E-25
 -1       866 1.92306E-04-2.13355E-05 0.00000E+00
 -1       867 1.92286E-04-2.20795E-05 0.00000E+00
 -1       868 1.92266E-04-2.29216E-05 0.00000E+00
 -1       869 1.92245E-04-2.38831E-05 0.00000E+00
 -1       870 1.92225E-04-2.49848E-05 0.00000E+00
 -1       871 1.93875E-04-1.35458E-05 8.27181E-25
 -1       872 1.95380E-04-1.35542E-05 0.00000E+00
 -1       873 1.96964E-04-1.35633E-05 0.00000E+00
 -1       874 1.98559E-04-1.35731E-05-1.03398E-25
 -1       875 2.00097E-04-1.35835E-05-1.24077E-24
 -1       876 1.93046E-04-1.45957E-05-3.30872E-24
 -1       877 1.93552E-04-1.55836E-05-1.65436E-24
 -1       878 1.94036E-04-1.65127E-05 0.00000E+00
 -1       879 1.94502E-04-1.73903E-05 1.65436E-24
 -1       880 1.94950E-04-1.82239E-05 0.00000E+00
 -1       881 1.95386E-04-1.90207E-05-1.65436E-24
 -1       882 1.95810E-04-1.97883E-05 3.30872E-24
 -1       883 1.96226E-04-2.05338E-05-1.65436E-24
 -1       884 1.96637E-04-2.12647E-05 0.00000E+00
 -1       885 1.97045E-04-2.19883E-05 0.00000E+00
 -1       886 1.97452E-04-2.27119E-05 0.00000E+00
 -1       887 1.97863E-04-2.34429E-05 0.00000E+00
 -1       888 1.98279E-04-2.41887E-05 3.30872E-24
 -1       889 1.98702E-04-2.49567E-05 0.00000E+00
 -1       890 1.99136E-04-2.57542E-05 0.00000E+00
 -1       891 1.93574E-04-2.63055E-05 0.00000E+00
 -1       892 1.94922E-04-2.63632E-05 0.00000E+00
 -1       893 1.96221E-04-2.64208E-05 0.00000E+00
 -1       894 1.97447E-04-2.64782E-05 0.00000E+00
 -1       895 1.98574E-04-2.65353E-05 4.13590E-25
 -1       956 2.03500E-04 1.66054E-06 1.65436E-24
 -1       957 2.03367E-04 4.23308E-07 0.00000E+00
 -1       958 2.03235E-04-7.32971E-07 3.30872E-24
 -1       959 2.03102E-04-1.81966E-06 0.00000E+00
 -1       960 2.02969E-04-2.84816E-06-3.30872E-24
 -1       961 2.02836E-04-3.82992E-06 0.00000E+00
 -1       962 2.02703E-04-4.77638E-06 0.00000E+00
 -1       963 2.02570E-04-5.69902E-06-1.65436E-24
 -1       964 2.02437E-04-6.60930E-06-3.30872E-24
 -1       965 2.02304E-04-7.51868E-06 0.00000E+00
 -1       966 2.02171E-04-8.43864E-06-3.30872E-24
 -1       967 2.02039E-04-9.38064E-06 1.65436E-24
 -1       968 2.01906E-04-1.03561E-05 0.00000E+00
 -1       969 2.01773E-04-1.13765E-05 0.00000E+00
 -1       970 2.01641E-04-1.24533E-05 3.30872E-24
 -1       971 2.01390E-04-1.47410E-05-3.30872E-24
 -1       972 2.01269E-04-1.57901E-05 0.00000E+00
 -1       973 2.01148E-04-1.67551E-05 0.00000E+00
 -1       974 2.01026E-04-1.76468E-05 0.00000E+00
 -1       975 2.00905E-04-1.84761E-05 0.00000E+00
 -1       976 2.00783E-04-1.92538E-05-1.65436E-24
 -1       977 2.00662E-04-1.99907E-05 0.00000E+00
 -1       978 2.00540E-04-2.06979E-05-1.65436E-24
 -1       979 2.00419E-04-2.13862E-05 0.00000E+00
 -1       980 2.00297E-04-2.20664E-05-1.65436E-24
 -1       981 2.00176E-04-2.27496E-05-3.30872E-24
 -1       982 2.00055E-04-2.34467E-05-1.65436E-24
 -1       983 1.99934E-04-2.41684E-05 0.00000E+00
 -1       984 1.99813E-04-2.49258E-05 0.00000E+00
 -1       985 1.99693E-04-2.57296E-05 0.00000E+00
 -3
    1PSTEP                        50          25           1          
  100CL  125 6.63174E-01         409                     0   25           1
 -4  FORC        4    1
 -5  F1          1    2    1    0
 -5  F2          1    2    2    0
 -5  F3          1    2    3    0
 -5  ALL         1    2    0    0    1ALL
 -1         1 1.87661E-03 0.00000E+00 0.00000E+00
 -1         2 0.00000E+00 0.00000E+00 0.00000E+00
 -1         3 0.00000E+00 0.00000E+00 0.00000E+00
 -1         5 0.00000E+00 0.00000E+00 0.00000E+00
 -1         8 1.06889E-04-9.15114E-05 0.00000E+00
 -1         9-5.07601E-03 2.87571E-04 0.00000E+00
 -1        10-1.59874E-08 1.08424E-07 0.00000E+00
 -1        12 0.00000E+00 0.00000E+00 0.00000E+00
 -1        15 0.00000E+00 0.00000E+00 0.00000E+00
 -1        16-7.39851E-04-7.29423E-03 0.00000E+00
 -1        17-1.11511E-04 6.24141E-05 0.00000E+00
 -1        18 1.04100E-06 8.59491E-07 0.00000E+00
 -1        19 2.95580E-07-6.74464E-08 0.00000E+00
 -1        20-4.89178E-07 5.43296E-08 0.00000E+00
 -1        21 0.00000E+00 1.94592E-07 0.00000E+00
 -1        24-3.01745E-04 9.74150E-05 0.00000E+00
 -1        25 5.71229E-07-5.34030E-07 0.00000E+00
 -1        26-3.16433E-07-2.25733E-07 0.00000E+00
 -1        27-1.62770E-07 3.10538E-07 0.00000E+00
 -1        28-1.51703E-07 9.25699E-08 0.00000E+00
 -1        32 0.00000E+00 0.00000E+00 0.00000E+00
 -1        33-2.10924E-08-3.97749E-07 0.00000E+00
 -1        34-1.15809E-07-4.10535E-07 0.00000E+00
 -1        35-6.88482E-07-4.42599E-07 0.00000E+00
 -1        51 0.00000E+00 0.00000E+00 0.00000E+00
 -1        52 0.00000E+00 0.00000E+00 0.00000E+00
 -1        53 0.00000E+00 0.00000E+00 0.00000E+00
 -1        54 0.00000E+00 0.00000E+00 0.00000E+00
 -1        55 0.00000E+00 0.00000E+00 0.00000E+00
 -1        56 0.00000E+00 0.00000E+00 0.00000E+00
 -1        57 0.00000E+00 0.00000E+00 0.00000E+00
 -1        58 0.00000E+00 0.00000E+00 0.00000E+00
 -1        59 0.00000E+00 0.00000E+00 0.00000E+00
 -1        60 0.00000E+00 0.00000E+00 0.00000E+00
 -1        61 0.00000E+00 0.00000E+00 0.00000E+00
 -1        62 0.00000E+00 0.00000E+00 0.00000E+00
 -1        63 0.00000E+00 0.00000E+00 0.00000E+00
 -1        64 0.00000E+00 0.00000E+00 0.00000E+00
 -1        65 0.00000E+00 0.00000E+00 0.00000E+00
 -1        66 0.00000E+00 0.00000E+00 0.00000E+00
 -1        67 0.00000E+00 0.00000E+00 0.00000E+00
 -1        68 0.00000E+00 0.00000E+00 0.00000E+00
 -1        69 0.00000E+00 0.00000E+00 0.00000E+00
 -1        70 0.00000E+00 0.00000E+00 0.00000E+00
 -1        86 0.00000E+00 0.00000E+00 0.00000E+00
 -1        87 0.00000E+00 0.00000E+00 0.00000E+00
 -1        88 0.00000E+00 0.00000E+00 0.00000E+00
 -1        89 0.00000E+00 0.00000E+00 0.00000E+00
 -1        90 0.00000E+00 0.00000E+00 0.00000E+00
 -1       121 0.00000E+00 0.00000E+00 0.00000E+00
 -1       122 0.00000E+00 0.00000E+00 0.00000E+00
 -1       123 0.00000E+00 0.00000E+00 0.00000E+00
 -1       124 0.00000E+00 0.00000E+00 0.00000E+00
 -1       125 0.00000E+00 0.00000E+00 0.00000E+00
 -1       191 0.00000E+00 0.00000E+00 0.00000E+00
 -1       192 0.00000E+00 0.00000E+00 0.00000E+00
 -1       193 0.00000E+00 0.00000E+00 0.00000E+00
 -1       194 0.00000E+00 0.00000E+00 0.00000E+00
 -1       195 0.00000E+00 0.00000E+00 0.00000E+00
 -1       251 0.00000E+00 0.00000E+00 0.00000E+00
 -1       252 0.00000E+00 0.00000E+00 0.00000E+00
 -1       253 0.00000E+00 0.00000E+00 0.00000E+00
 -1       254 0.00000E+00 0.00000E+00 0.00000E+00
 -1       255 0.00000E+00 0.00000E+00 0.00000E+00
 -1       256 0.00000E+00 0.00000E+00 0.00000E+00
 -1       257 0.00000E+00 0.00000E+00 0.00000E+00
 -1       258 0.00000E+00 0.00000E+00 0.00000E+00
 -1       259 0.00000E+00 0.00000E+00 0.00000E+00
 -1       260 0.00000E+00 0.00000E+00 0.00000E+00
 -1       261 0.00000E+00 0.00000E+00 0.00000E+00
 -1       262 0.00000E+00 0.00000E+00 0.00000E+00
 -1       263 0.00000E+00 0.00000E+00 0.00000E+00
 -1       264 0.00000E+00 0.00000E+00 0.00000E+00
 -1       265 0.00000E+00 0.00000E+00 0.00000E+00
 -1       266 0.00000E+00 0.00000E+00 0.00000E+00
 -1       267 0.00000E+00 0.00000E+00 0.00000E+00
 -1       268 0.00000E+00 0.00000E+00 0.00000E+00
 -1       269 0.00000E+00 0.00000E+00 0.00000E+00
 -1       270 0.00000E+00 0.00000E+00 0.00000E+00
 -1       271 0.00000E+00 0.00000E+00 0.00000E+00
 -1       272 0.00000E+00 0.00000E+00 0.00000E+00
 -1       273 0.00000E+00 0.00000E+00 0.00000E+00
 -1       274 0.00000E+00 0.00000E+00 0.00000E+00
 -1       275 0.00000E+00 0.00000E+00 0.00000E+00
 -1       276 0.00000E+00 0.00000E+00 0.00000E+00
 -1       277 0.00000E+00 0.00000E+00 0.00000E+00
 -1       278 0.00000E+00 0.00000E+00 0.00000E+00
 -1       279 0.00000E+00 0.00000E+00 0.00000E+00
 -1       280 0.00000E+00 0.00000E+00 0.00000E+00
 -1       281 0.00000E+00 0.00000E+00 0.00000E+00
 -1       282 0.00000E+00 0.00000E+00 0.00000E+00
 -1       283 0.00000E+00 0.00000E+00 0.00000E+00
 -1       284 0.00000E+00 0.00000E+00 0.00000E+00
 -1       285 0.00000E+00 0.00000E+00 0.00000E+00
 -1       301 0.00000E+00 0.00000E+00 0.00000E+00
 -1       302 0.00000E+00 0.00000E+00 0.00000E+00
 -1       303 0.00000E+00 0.00000E+00 0.00000E+00
 -1       304 0.00000E+00 0.00000E+00 0.00000E+00
 -1       305 0.00000E+00 0.00000E+00 0.00000E+00
 -1       306 0.00000E+00 0.00000E+00 0.00000E+00
 -1       307 0.00000E+00 0.00000E+00 0.00000E+00
 -1       308 0.00000E+00 0.00000E+00 0.00000E+00
 -1       309 0.00000E+00 0.00000E+00 0.00000E+00
 -1       310 0.00000E+00 0.00000E+00 0.00000E+00
 -1       311 0.00000E+00 0.00000E+00 0.00000E+00
 -1       312 0.00000E+00 0.00000E+00 0.00000E+00
 -1       313 0.00000E+00 0.00000E+00 0.00000E+00
 -1       314 0.00000E+00 0.00000E+00 0.00000E+00
 -1       315 0.00000E+00 0.00000E+00 0.00000E+00
 -1       316 0.00000E+00 0.00000E+00 0.00000E+00
 -1       317 0.00000E+00 0.00000E+00 0.00000E+00
 -1       318 0.00000E+00 0.00000E+00 0.00000E+00
 -1       319 0.00000E+00 0.00000E+00 0.00000E+00
 -1       320 0.00000E+00 0.00000E+00 0.00000E+00
 -1       336 0.00000E+00 0.00000E+00 0.00000E+00
 -1       337 0.00000E+00 0.00000E+00 0.00000E+00
 -1       338 0.00000E+00 0.00000E+00 0.00000E+00
 -1       339 0.00000E+00 0.00000E+00 0.00000E+00
 -1       340 0.00000E+00 0.00000E+00 0.00000E+00
 -1       406 0.00000E+00 0.00000E+00 0.00000E+00
 -1       407 0.00000E+00 0.00000E+00 0.00000E+00
 -1       408 0.00000E+00 0.00000E+00 0.00000E+00
 -1       409 0.00000E+00 0.00000E+00 0.00000E+00
 -1       410 0.00000E+00 0.00000E+00 0.00000E+00
 -1       521 0.00000E+00 0.00000E+00 0.00000E+00
 -1       522 0.00000E+00 0.00000E+00 0.00000E+00
 -1       523 0.00000E+00 0.00000E+00 0.00000E+00
 -1       524 0.00000E+00 0.00000E+00 0.00000E+00
 -1       525 0.00000E+00 0.00000E+00 0.00000E+00
 -1       526 0.00000E+00 0.00000E+00 0.00000E+00
 -1       527 0.00000E+00 0.00000E+00 0.00000E+00
 -1       528 0.00000E+00 0.00000E+00 0.00000E+00
 -1       529 0.00000E+00 0.00000E+00 0.00000E+00
 -1       530 0.00000E+00 0.00000E+00 0.00000E+00
 -1       531 0.00000E+00 0.00000E+00 0.00000E+00
 -1       532 0.00000E+00 0.00000E+00 0.00000E+00
 -1       533 0.00000E+00 0.00000E+00 0.00000E+00
 -1       534 0.00000E+00 0.00000E+00 0.00000E+00
 -1       535 0.00000E+00 0.00000E+00 0.00000E+00
 -1       536 0.00000E+00 0.00000E+00 0.00000E+00
 -1       537 0.00000E+00 0.00000E+00 0.00000E+00
 -1       538 0.00000E+00 0.00000E+00 0.00000E+00
 -1       539 0.00000E+00 0.00000E+00 0.00000E+00
 -1       540 0.00000E+00 0.00000E+00 0.00000E+00
 -1       541 0.00000E+00 0.00000E+00 0.00000E+00
 -1       542 0.00000E+00 0.00000E+00 0.00000E+00
 -1       543 0.00000E+00 0.00000E+00 0.00000E+00
 -1       544 0.00000E+00 0.00000E+00 0.00000E+00
 -1       545 0.00000E+00 0.00000E+00 0.00000E+00
 -1       546 0.00000E+00 0.00000E+00 0.00000E+00
 -1       547 0.00000E+00 0.00000E+00 0.00000E+00
 -1       548 0.00000E+00 0.00000E+00 0.00000E+00
 -1       549 0.00000E+00 0.00000E+00 0.00000E+00
 -1       550 0.00000E+00 0.00000E+00 0.00000E+00
 -1       551 0.00000E+00 0.00000E+00 0.00000E+00
 -1       552 0.00000E+00 0.00000E+00 0.00000E+00
 -1       553 0.00000E+00 0.00000E+00 0.00000E+00
 -1       554 0.00000E+00 0.00000E+00 0.00000E+00
 -1       555 0.00000E+00 0.00000E+00 0.00000E+00
 -1       556 0.00000E+00 0.00000E+00 0.00000E+00
 -1       557 0.00000E+00 0.00000E+00 0.00000E+00
 -1       558 0.00000E+00 0.00000E+00 0.00000E+00
 -1       559 0.00000E+00 0.00000E+00 0.00000E+00
 -1       560 0.00000E+00 0.00000E+00 0.00000E+00
 -1       561 0.00000E+00 0.00000E+00 0.00000E+00
 -1       562 0.00000E+00 0.00000E+00 0.00000E+00
 -1       563 0.00000E+00 0.00000E+00 0.00000E+00
 -1       564 0.00000E+00 0.00000E+00 0.00000E+00
 -1       565 0.00000E+00 0.00000E+00 0.00000E+00
 -1       566 0.00000E+00 0.00000E+00 0.00000E+00
 -1       567 0.00000E+00 0.00000E+00 0.00000E+00
 -1       568 0.00000E+00 0.00000E+00 0.00000E+00
 -1       569 0.00000E+00 0.00000E+00 0.00000E+00
 -1       570 0.00000E+00 0.00000E+00 0.00000E+00
 -1       571 0.00000E+00 0.00000E+00 0.00000E+00
 -1       572 0.00000E+00 0.00000E+00 0.00000E+00
 -1       573 0.00000E+00 0.00000E+00 0.00000E+00
 -1       574 0.00000E+00 0.00000E+00 0.00000E+00
 -1       575 0.00000E+00 0.00000E+00 0.00000E+00
 -1       576 0.00000E+00 0.00000E+00 0.00000E+00
 -1       577 0.00000E+00 0.00000E+00 0.00000E+00
 -1       578 0.00000E+00 0.00000E+00 0.00000E+00
 -1       579 0.00000E+00 0.00000E+00 0.00000E+00
 -1       580 0.00000E+00 0.00000E+00 0.00000E+00
 -1       581 0.00000E+00 0.00000E+00 0.00000E+00
 -1       582 0.00000E+00 0.00000E+00 0.00000E+00
 -1       583 0.00000E+00 0.00000E+00 0.00000E+00
 -1       584 0.00000E+00 0.00000E+00 0.00000E+00
 -1       585 0.00000E+00 0.00000E+00 0.00000E+00
 -1       586 0.00000E+00 0.00000E+00 0.00000E+00
 -1       587 0.00000E+00 0.00000E+00 0.00000E+00
 -1       588 0.00000E+00 0.00000E+00 0.00000E+00
 -1       589 0.00000E+00 0.00000E+00 0.00000E+00
 -1       590 0.00000E+00 0.00000E+00 0.00000E+00
 -1       591 0.00000E+00 0.00000E+00 0.00000E+00
 -1       592 0.00000E+00 0.00000E+00 0.00000E+00
 -1       593 0.00000E+00 0.00000E+00 0.00000E+00
 -1       594 0.00000E+00 0.00000E+00 0.00000E+00
 -1       595 0.00000E+00 0.00000E+00 0.00000E+00
 -1       596 0.00000E+00 0.00000E+00 0.00000E+00
 -1       597 0.00000E+00 0.00000E+00 0.00000E+00
 -1       598 0.00000E+00 0.00000E+00 0.00000E+00
 -1       599 0.00000E+00 0.00000E+00 0.00000E+00
 -1       600 0.00000E+00 0.00000E+00 0.00000E+00
 -1       601 0.00000E+00 0.00000E+00 0.00000E+00
 -1       602 0.00000E+00 0.00000E+00 0.00000E+00
 -1       603 0.00000E+00 0.00000E+00 0.00000E+00
 -1       604 0.00000E+00 0.00000E+00 0.00000E+00
 -1       605 0.00000E+00 0.00000E+00 0.00000E+00
 -1       606 0.00000E+00 0.00000E+00 0.00000E+00
 -1       607 0.00000E+00 0.00000E+00 0.00000E+00
 -1       608 0.00000E+00 0.00000E+00 0.00000E+00
 -1       609 0.00000E+00 0.00000E+00 0.00000E+00
 -1       610 0.00000E+00 0.00000E+00 0.00000E+00
 -1       611 0.00000E+00 0.00000E+00 0.00000E+00
 -1       612 0.00000E+00 0.00000E+00 0.00000E+00
 -1       613 0.00000E+00 0.00000E+00 0.00000E+00
 -1       614 0.00000E+00 0.00000E+00 0.00000E+00
 -1       615 0.00000E+00 0.00000E+00 0.00000E+00
 -1       616 0.00000E+00 0.00000E+00 0.00000E+00
 -1       617 0.00000E+00 0.00000E+00 0.00000E+00
 -1       618 0.00000E+00 0.00000E+00 0.00000E+00
 -1       619 0.00000E+00 0.00000E+00 0.00000E+00
 -1       620 0.00000E+00 0.00000E+00 0.00000E+00
 -1       621 0.00000E+00 0.00000E+00 0.00000E+00
 -1       622 0.00000E+00 0.00000E+00 0.00000E+00
 -1       623 0.00000E+00 0.00000E+00 0.00000E+00
 -1       624 0.00000E+00 0.00000E+00 0.00000E+00
 -1       625 0.00000E+00 0.00000E+00 0.00000E+00
 -1       626 0.00000E+00 0.00000E+00 0.00000E+00
 -1       627 0.00000E+00 0.00000E+00 0.00000E+00
 -1       628 0.00000E+00 0.00000E+00 0.00000E+00
 -1       629 0.00000E+00 0.00000E+00 0.00000E+00
 -1       630 0.00000E+00 0.00000E+00 0.00000E+00
 -1       631 0.00000E+00 0.00000E+00 0.00000E+00
 -1       632 0.00000E+00 0.00000E+00 0.00000E+00
 -1       633 0.00000E+00 0.00000E+00 0.00000E+00
 -1       634 0.00000E+00 0.00000E+00 0.00000E+00
 -1       635 0.00000E+00 0.00000E+00 0.00000E+00
 -1       636 0.00000E+00 0.00000E+00 0.00000E+00
 -1       637 0.00000E+00 0.00000E+00 0.00000E+00
 -1       638 0.00000E+00 0.00000E+00 0.00000E+00
 -1       639 0.00000E+00 0.00000E+00 0.00000E+00
 -1       640 0.00000E+00 0.00000E+00 0.00000E+00
 -1       656 0.00000E+00 0.00000E+00 0.00000E+00
 -1       657 0.00000E+00 0.00000E+00 0.00000E+00
 -1       658 0.00000E+00 0.00000E+00 0.00000E+00
 -1       659 0.00000E+00 0.00000E+00 0.00000E+00
 -1       660 0.00000E+00 0.00000E+00 0.00000E+00
 -1       661 0.00000E+00 0.00000E+00 0.00000E+00
 -1       662 0.00000E+00 0.00000E+00 0.00000E+00
 -1       663 0.00000E+00 0.00000E+00 0.00000E+00
 -1       664 0.00000E+00 0.00000E+00 0.00000E+00
 -1       665 0.00000E+00 0.00000E+00 0.00000E+00
 -1       666 0.00000E+00 0.00000E+00 0.00000E+00
 -1       667 0.00000E+00 0.00000E+00 0.00000E+00
 -1       668 0.00000E+00 0.00000E+00 0.00000E+00
 -1       669 0.00000E+00 0.00000E+00 0.00000E+00
 -1       670 0.00000E+00 0.00000E+00 0.00000E+00
 -1       671 0.00000E+00 0.00000E+00 0.00000E+00
 -1       672 0.00000E+00 0.00000E+00 0.00000E+00
 -1       673 0.00000E+00 0.00000E+00 0.00000E+00
 -1       674 0.00000E+00 0.00000E+00 0.00000E+00
 -1       675 0.00000E+00 0.00000E+00 0.00000E+00
 -1       676 0.00000E+00 0.00000E+00 0.00000E+00
 -1       677 0.00000E+00 0.00000E+00 0.00000E+00
 -1       678 0.00000E+00 0.00000E+00 0.00000E+00
 -1       679 0.00000E+00 0.00000E+00 0.00000E+00
 -1       680 0.00000E+00 0.00000E+00 0.00000E+00
 -1       771 0.00000E+00 0.00000E+00 0.00000E+00
 -1       772 0.00000E+00 0.00000E+00 0.00000E+00
 -1       773 0.00000E+00 0.00000E+00 0.00000E+00
 -1       774 0.00000E+00 0.00000E+00 0.00000E+00
 -1       775 0.00000E+00 0.00000E+00 0.00000E+00
 -1       776 0.00000E+00 0.00000E+00 0.00000E+00
 -1       777 0.00000E+00 0.00000E+00 0.00000E+00
 -1       778 0.00000E+00 0.00000E+00 0.00000E+00
 -1       779 0.00000E+00 0.00000E+00 0.00000E+00
 -1       780 0.00000E+00 0.00000E+00 0.00000E+00
 -1       781 0.00000E+00 0.00000E+00 0.00000E+00
 -1       782 0.00000E+00 0.00000E+00 0.00000E+00
 -1       783 0.00000E+00 0.00000E+00 0.00000E+00
 -1       784 0.00000E+00 0.00000E+00 0.00000E+00
 -1       785 0.00000E+00 0.00000E+00 0.00000E+00
 -1       786 0.00000E+00 0.00000E+00 0.00000E+00
 -1       787 0.00000E+00 0.00000E+00 0.00000E+00
 -1       788 0.00000E+00 0.00000E+00 0.00000E+00
 -1       789 0.00000E+00 0.00000E+00 0.00000E+00
 -1       790 0.00000E+00 0.00000E+00 0.00000E+00
 -1       791 0.00000E+00 0.00000E+00 0.00000E+00
 -1       792 0.00000E+00 0.00000E+00 0.00000E+00
 -1       793 0.00000E+00 0.00000E+00 0.00000E+00
 -1       794 0.00000E+00 0.00000E+00 0.00000E+00
 -1       795 0.00000E+00 0.00000E+00 0.00000E+00
 -1       796 0.00000E+00 0.00000E+00 0.00000E+00
 -1       797 0.00000E+00 0.00000E+00 0.00000E+00
 -1       798 0.00000E+00 0.00000E+00 0.00000E+00
 -1       799 0.00000E+00 0.00000E+00 0.00000E+00
 -1       800 0.00000E+00 0.00000E+00 0.00000E+00
 -1       801 0.00000E+00 0.00000E+00 0.00000E+00
 -1       802 0.00000E+00 0.00000E+00 0.00000E+00
 -1       803 0.00000E+00 0.00000E+00 0.00000E+00
 -1       804 0.00000E+00 0.00000E+00 0.00000E+00
 -1       805 0.00000E+00 0.00000E+00 0.00000E+00
 -1       806 0.00000E+00 0.00000E+00 0.00000E+00
 -1       807 0.00000E+00 0.00000E+00 0.00000E+00
 -1       808 0.00000E+00 0.00000E+00 0.00000E+00
 -1       809 0.00000E+00 0.00000E+00 0.00000E+00
 -1       810 0.00000E+00 0.00000E+00 0.00000E+00
 -1       811 0.00000E+00 0.00000E+00 0.00000E+00
 -1       812 0.00000E+00 0.00000E+00 0.00000E+00
 -1       813 0.00000E+00 0.00000E+00 0.00000E+00
 -1       814 0.00000E+00 0.00000E+00 0.00000E+00
 -1       815 0.00000E+00 0.00000E+00 0.00000E+00
 -1       816 0.00000E+00 0.00000E+00 0.00000E+00
 -1       817 0.00000E+00 0.00000E+00 0.00000E+00
 -1       818 0.00000E+00 0.00000E+00 0.00000E+00
 -1       819 0.00000E+00 0.00000E+00 0.00000E+00
 -1       820 0.00000E+00 0.00000E+00 0.00000E+00
 -1       821 0.00000E+00 0.00000E+00 0.00000E+00
 -1       822 0.00000E+00 0.00000E+00 0.00000E+00
 -1       823 0.00000E+00 0.00000E+00 0.00000E+00
 -1       824 0.00000E+00 0.00000E+00 0.00000E+00
 -1       825 0.00000E+00 0.00000E+00 0.00000E+00
 -1       826 0.00000E+00 0.00000E+00 0.00000E+00
 -1       827 0.00000E+00 0.00000E+00 0.00000E+00
 -1       828 0.00000E+00 0.00000E+00 0.00000E+00
 -1       829 0.00000E+00 0.00000E+00 0.00000E+00
 -1       830 0.00000E+00 0.00000E+00 0.00000E+00
 -1       831 0.00000E+00 0.00000E+00 0.00000E+00
 -1       832 0.00000E+00 0.00000E+00 0.00000E+00
 -1       833 0.00000E+00 0.00000E+00 0.00000E+00
 -1       834 0.00000E+00 0.00000E+00 0.00000E+00
 -1       835 0.00000E+00 0.00000E+00 0.00000E+00
 -1       836 0.00000E+00 0.00000E+00 0.00000E+00
 -1       837 0.00000E+00 0.00000E+00 0.00000E+00
 -1       838 0.00000E+00 0.00000E+00 0.00000E+00
 -1       839 0.00000E+00 0.00000E+00 0.00000E+00
 -1       840 0.00000E+00 0.00000E+00 0.00000E+00
 -1       856 0.00000E+00 0.00000E+00 0.00000E+00
 -1       857 0.00000E+00 0.00000E+00 0.00000E+00
 -1       858 0.00000E+00 0.00000E+00 0.00000E+00
 -1       859 0.00000E+00 0.00000E+00 0.00000E+00
 -1       860 0.00000E+00 0.00000E+00 0.00000E+00
 -1       861 0.00000E+00 0.00000E+00 0.00000E+00
 -1       862 0.00000E+00 0.00000E+00 0.00000E+00
 -1       863 0.00000E+00 0.00000E+00 0.00000E+00
 -1       864 0.00000E+00 0.00000E+00 0.00000E+00
 -1       865 0.00000E+00 0.00000E+00 0.00000E+00
 -1       866 0.00000E+00 0.00000E+00 0.00000E+00
 -1       867 0.00000E+00 0.00000E+00 0.00000E+00
 -1       868 0.00000E+00 0.00000E+00 0.00000E+00
 -1       869 0.00000E+00 0.00000E+00 0.00000E+00
 -1       870 0.00000E+00 0.00000E+00 0.00000E+00
 -1       871 0.00000E+00 0.00000E+00 0.00000E+00
 -1       872 0.00000E+00 0.00000E+00 0.00000E+00
 -1       873 0.00000E+00 0.00000E+00 0.00000E+00
 -1       874 0.00000E+00 0.00000E+00 0.00000E+00
 -1       875 0.00000E+00 0.00000E+00 0.00000E+00
 -1       876 0.00000E+00 0.00000E+00 0.00000E+00
 -1       877 0.00000E+00 0.00000E+00 0.00000E+00
 -1       878 0.00000E+00 0.00000E+00 0.00000E+00
 -1       879 0.00000E+00 0.00000E+00 0.00000E+00
 -1       880 0.00000E+00 0.00000E+00 0.00000E+00
 -1       881 0.00000E+00 0.00000E+00 0.00000E+00
 -1       882 0.00000E+00 0.00000E+00 0.00000E+00
 -1       883 0.00000E+00 0.00000E+00 0.00000E+00
 -1       884 0.00000E+00 0.00000E+00 0.00000E+00
 -1       885 0.00000E+00 0.00000E+00 0.00000E+00
 -1       886 0.00000E+00 0.00000E+00 0.00000E+00
 -1       887 0.00000E+00 0.00000E+00 0.00000E+00
 -1       888 0.00000E+00 0.00000E+00 0.00000E+00
 -1       889 0.00000E+00 0.00000E+00 0.00000E+00
 -1       890 0.00000E+00 0.00000E+00 0.00000E+00
 -1       891 0.00000E+00 0.00000E+00 0.00000E+00
 -1       892 0.00000E+00 0.00000E+00 0.00000E+00
 -1       893 0.00000E+00 0.00000E+00 0.00000E+00
 -1       894 0.00000E+00 0.00000E+00 0.00000E+00
 -1       895 0.00000E+00 0.00000E+00 0.00000E+00
 -1       956 0.00000E+00 0.00000E+00 0.00000E+00
 -1       957 0.00000E+00 0.00000E+00 0.00000E+00
 -1       958 0.00000E+00 0.00000E+00 0.00000E+00
 -1       959 0.00000E+00 0.00000E+00 0.00000E+00
 -1       960 0.00000E+00 0.00000E+00 0.00000E+00
 -1       961 0.00000E+00 0.00000E+00 0.00000E+00
 -1       962 0.00000E+00 0.00000E+00 0.00000E+00
 -1       963 0.00000E+00 0.00000E+00 0.00000E+00
 -1       964 0.00000E+00 0.00000E+00 0.00000E+00
 -1       965 0.00000E+00 0.00000E+00 0.00000E+00
 -1       966 0.00000E+00 0.00000E+00 0.00000E+00
 -1       967 0.00000E+00 0.00000E+00 0.00000E+00
 -1       968 0.00000E+00 0.00000E+00 0.00000E+00
 -1       969 0.00000E+00 0.00000E+00 0.00000E+00
 -1       970 0.00000E+00 0.00000E+00 0.00000E+00
 -1       971 0.00000E+00 0.00000E+00 0.00000E+00
 -1       972 0.00000E+00 0.00000E+00 0.00000E+00
 -1       973 0.00000E+00 0.00000E+00 0.00000E+00
 -1       974 0.00000E+00 0.00000E+00 0.00000E+00
 -1       975 0.00000E+00 0.00000E+00 0.00000E+00
 -1       976 0.00000E+00 0.00000E+00 0.00000E+00
 -1       977 0.00000E+00 0.00000E+00 0.00000E+00
 -1       978 0.00000E+00 0.00000E+00 0.00000E+00
 -1       979 0.00000E+00 0.00000E+00 0.00000E+00
 -1       980 0.00000E+00 0.00000E+00 0.00000E+00
 -1       981 0.00000E+00 0.00000E+00 0.00000E+00
 -1       982 0.00000E+00 0.00000E+00 0.00000E+00
 -1       983 0.00000E+00 0.00000E+00 0.00000E+00
 -1       984 0.00000E+00 0.00000E+00 0.00000E+00
 -1       985 0.00000E+00 0.00000E+00 0.00000E+00
 -3
