    1C
    1UUSER                                                              
    1UDATE              11.october.2022                                 
    1UTIME              18:13:15                                        
    1UHOST                                                              
    1UPGM               CalculiX                                        
    1UVERSION           Version 2.20                             
    1UCOMPILETIME       Sun Jul 31 18:08:37 CEST 2022                    
    1UDIR                                                               
    1UDBN                                                               
    1UMAT    1MESH_MATERIAL                                             
    2C                           507                                     1
 -1         1 0.00000E+00 0.00000E+00 0.00000E+00
 -1         2 1.66667E-02 0.00000E+00 0.00000E+00
 -1         3 3.33333E-02 0.00000E+00 0.00000E+00
 -1         5 6.66667E-02 0.00000E+00 0.00000E+00
 -1         8 0.00000E+00 6.25000E-03 0.00000E+00
 -1         9 1.66667E-02 6.25000E-03 0.00000E+00
 -1        10 3.33333E-02 6.25000E-03 0.00000E+00
 -1        11 5.00000E-02 6.25000E-03 0.00000E+00
 -1        12 6.66667E-02 6.25000E-03 0.00000E+00
 -1        15 0.00000E+00 1.25000E-02 0.00000E+00
 -1        16 1.66667E-02 1.25000E-02 0.00000E+00
 -1        17 3.33333E-02 1.25000E-02 0.00000E+00
 -1        18 5.00000E-02 1.25000E-02 0.00000E+00
 -1        19 6.66667E-02 1.25000E-02 0.00000E+00
 -1        20 8.33333E-02 1.25000E-02 0.00000E+00
 -1        21 1.00000E-01 1.25000E-02 0.00000E+00
 -1        23 1.66667E-02 1.87500E-02 0.00000E+00
 -1        24 3.33333E-02 1.87500E-02 0.00000E+00
 -1        25 5.00000E-02 1.87500E-02 0.00000E+00
 -1        26 6.66667E-02 1.87500E-02 0.00000E+00
 -1        27 8.33333E-02 1.87500E-02 0.00000E+00
 -1        28 1.00000E-01 1.87500E-02 0.00000E+00
 -1        31 3.33333E-02 2.50000E-02 0.00000E+00
 -1        32 5.00000E-02 2.50000E-02 0.00000E+00
 -1        33 6.66667E-02 2.50000E-02 0.00000E+00
 -1        34 8.33333E-02 2.50000E-02 0.00000E+00
 -1        35 1.00000E-01 2.50000E-02 0.00000E+00
 -1        36 1.04167E-03 0.00000E+00 0.00000E+00
 -1        37 2.08333E-03 0.00000E+00 0.00000E+00
 -1        38 3.12500E-03 0.00000E+00 0.00000E+00
 -1        39 4.16667E-03 0.00000E+00 0.00000E+00
 -1        40 5.20833E-03 0.00000E+00 0.00000E+00
 -1        41 6.25000E-03 0.00000E+00 0.00000E+00
 -1        42 7.29167E-03 0.00000E+00 0.00000E+00
 -1        43 8.33333E-03 0.00000E+00 0.00000E+00
 -1        44 9.37500E-03 0.00000E+00 0.00000E+00
 -1        45 1.04167E-02 0.00000E+00 0.00000E+00
 -1        46 1.14583E-02 0.00000E+00 0.00000E+00
 -1        47 1.25000E-02 0.00000E+00 0.00000E+00
 -1        48 1.35417E-02 0.00000E+00 0.00000E+00
 -1        49 1.45833E-02 0.00000E+00 0.00000E+00
 -1        50 1.56250E-02 0.00000E+00 0.00000E+00
 -1        51 0.00000E+00 1.04167E-03 0.00000E+00
 -1        52 0.00000E+00 2.08333E-03 0.00000E+00
 -1        53 0.00000E+00 3.12500E-03 0.00000E+00
 -1        54 0.00000E+00 4.16667E-03 0.00000E+00
 -1        55 0.00000E+00 5.20833E-03 0.00000E+00
 -1        56 1.04167E-03 3.90630E-04 0.00000E+00
 -1        57 2.08333E-03 7.81250E-04 0.00000E+00
 -1        58 3.12500E-03 1.17188E-03 0.00000E+00
 -1        59 4.16667E-03 1.56250E-03 0.00000E+00
 -1        60 5.20833E-03 1.95312E-03 0.00000E+00
 -1        61 6.25000E-03 2.34375E-03 0.00000E+00
 -1        62 7.29167E-03 2.73438E-03 0.00000E+00
 -1        63 8.33333E-03 3.12500E-03 0.00000E+00
 -1        64 9.37500E-03 3.51563E-03 0.00000E+00
 -1        65 1.04167E-02 3.90625E-03 0.00000E+00
 -1        66 1.14583E-02 4.29688E-03 0.00000E+00
 -1        67 1.25000E-02 4.68750E-03 0.00000E+00
 -1        68 1.35417E-02 5.07813E-03 0.00000E+00
 -1        69 1.45833E-02 5.46875E-03 0.00000E+00
 -1        70 1.56250E-02 5.85938E-03 0.00000E+00
 -1        86 1.66667E-02 1.04167E-03 0.00000E+00
 -1        87 1.66667E-02 2.08333E-03 0.00000E+00
 -1        88 1.66667E-02 3.12500E-03 0.00000E+00
 -1        89 1.66667E-02 4.16667E-03 0.00000E+00
 -1        90 1.66667E-02 5.20833E-03 0.00000E+00
 -1       121 3.33333E-02 1.04167E-03 0.00000E+00
 -1       122 3.33333E-02 2.08333E-03 0.00000E+00
 -1       123 3.33333E-02 3.12500E-03 0.00000E+00
 -1       124 3.33333E-02 4.16667E-03 0.00000E+00
 -1       125 3.33333E-02 5.20833E-03 0.00000E+00
 -1       191 6.66667E-02 1.04167E-03 0.00000E+00
 -1       192 6.66667E-02 2.08333E-03 0.00000E+00
 -1       193 6.66667E-02 3.12500E-03 0.00000E+00
 -1       194 6.66667E-02 4.16667E-03 0.00000E+00
 -1       195 6.66667E-02 5.20833E-03 0.00000E+00
 -1       251 1.04167E-03 6.25000E-03 0.00000E+00
 -1       252 2.08333E-03 6.25000E-03 0.00000E+00
 -1       253 3.12500E-03 6.25000E-03 0.00000E+00
 -1       254 4.16667E-03 6.25000E-03 0.00000E+00
 -1       255 5.20833E-03 6.25000E-03 0.00000E+00
 -1       256 6.25000E-03 6.25000E-03 0.00000E+00
 -1       257 7.29167E-03 6.25000E-03 0.00000E+00
 -1       258 8.33333E-03 6.25000E-03 0.00000E+00
 -1       259 9.37500E-03 6.25000E-03 0.00000E+00
 -1       260 1.04167E-02 6.25000E-03 0.00000E+00
 -1       261 1.14583E-02 6.25000E-03 0.00000E+00
 -1       262 1.25000E-02 6.25000E-03 0.00000E+00
 -1       263 1.35417E-02 6.25000E-03 0.00000E+00
 -1       264 1.45833E-02 6.25000E-03 0.00000E+00
 -1       265 1.56250E-02 6.25000E-03 0.00000E+00
 -1       266 0.00000E+00 7.29167E-03 0.00000E+00
 -1       267 0.00000E+00 8.33333E-03 0.00000E+00
 -1       268 0.00000E+00 9.37500E-03 0.00000E+00
 -1       269 0.00000E+00 1.04167E-02 0.00000E+00
 -1       270 0.00000E+00 1.14583E-02 0.00000E+00
 -1       271 1.04167E-03 6.64063E-03 0.00000E+00
 -1       272 2.08333E-03 7.03125E-03 0.00000E+00
 -1       273 3.12500E-03 7.42188E-03 0.00000E+00
 -1       274 4.16667E-03 7.81250E-03 0.00000E+00
 -1       275 5.20833E-03 8.20313E-03 0.00000E+00
 -1       276 6.25000E-03 8.59375E-03 0.00000E+00
 -1       277 7.29167E-03 8.98438E-03 0.00000E+00
 -1       278 8.33333E-03 9.37500E-03 0.00000E+00
 -1       279 9.37500E-03 9.76562E-03 0.00000E+00
 -1       280 1.04167E-02 1.01562E-02 0.00000E+00
 -1       281 1.14583E-02 1.05469E-02 0.00000E+00
 -1       282 1.25000E-02 1.09375E-02 0.00000E+00
 -1       283 1.35417E-02 1.13281E-02 0.00000E+00
 -1       284 1.45833E-02 1.17188E-02 0.00000E+00
 -1       285 1.56250E-02 1.21094E-02 0.00000E+00
 -1       301 1.66667E-02 7.29167E-03 0.00000E+00
 -1       302 1.66667E-02 8.33333E-03 0.00000E+00
 -1       303 1.66667E-02 9.37500E-03 0.00000E+00
 -1       304 1.66667E-02 1.04167E-02 0.00000E+00
 -1       305 1.66667E-02 1.14583E-02 0.00000E+00
 -1       306 1.77083E-02 6.64063E-03 0.00000E+00
 -1       307 1.87500E-02 7.03125E-03 0.00000E+00
 -1       308 1.97917E-02 7.42188E-03 0.00000E+00
 -1       309 2.08333E-02 7.81250E-03 0.00000E+00
 -1       310 2.18750E-02 8.20313E-03 0.00000E+00
 -1       311 2.29167E-02 8.59375E-03 0.00000E+00
 -1       312 2.39583E-02 8.98438E-03 0.00000E+00
 -1       313 2.50000E-02 9.37500E-03 0.00000E+00
 -1       314 2.60417E-02 9.76562E-03 0.00000E+00
 -1       315 2.70833E-02 1.01562E-02 0.00000E+00
 -1       316 2.81250E-02 1.05469E-02 0.00000E+00
 -1       317 2.91667E-02 1.09375E-02 0.00000E+00
 -1       318 3.02083E-02 1.13281E-02 0.00000E+00
 -1       319 3.12500E-02 1.17188E-02 0.00000E+00
 -1       320 3.22917E-02 1.21094E-02 0.00000E+00
 -1       336 3.33333E-02 7.29167E-03 0.00000E+00
 -1       337 3.33333E-02 8.33333E-03 0.00000E+00
 -1       338 3.33333E-02 9.37500E-03 0.00000E+00
 -1       339 3.33333E-02 1.04167E-02 0.00000E+00
 -1       340 3.33333E-02 1.14583E-02 0.00000E+00
 -1       356 5.10417E-02 6.25000E-03 0.00000E+00
 -1       357 5.20833E-02 6.25000E-03 0.00000E+00
 -1       358 5.31250E-02 6.25000E-03 0.00000E+00
 -1       359 5.41667E-02 6.25000E-03 0.00000E+00
 -1       360 5.52083E-02 6.25000E-03 0.00000E+00
 -1       361 5.62500E-02 6.25000E-03 0.00000E+00
 -1       362 5.72917E-02 6.25000E-03 0.00000E+00
 -1       363 5.83333E-02 6.25000E-03 0.00000E+00
 -1       364 5.93750E-02 6.25000E-03 0.00000E+00
 -1       365 6.04167E-02 6.25000E-03 0.00000E+00
 -1       366 6.14583E-02 6.25000E-03 0.00000E+00
 -1       367 6.25000E-02 6.25000E-03 0.00000E+00
 -1       368 6.35417E-02 6.25000E-03 0.00000E+00
 -1       369 6.45833E-02 6.25000E-03 0.00000E+00
 -1       370 6.56250E-02 6.25000E-03 0.00000E+00
 -1       376 5.10417E-02 6.64063E-03 0.00000E+00
 -1       377 5.20833E-02 7.03125E-03 0.00000E+00
 -1       378 5.31250E-02 7.42188E-03 0.00000E+00
 -1       379 5.41667E-02 7.81250E-03 0.00000E+00
 -1       380 5.52083E-02 8.20313E-03 0.00000E+00
 -1       381 5.62500E-02 8.59375E-03 0.00000E+00
 -1       382 5.72917E-02 8.98438E-03 0.00000E+00
 -1       383 5.83333E-02 9.37500E-03 0.00000E+00
 -1       384 5.93750E-02 9.76562E-03 0.00000E+00
 -1       385 6.04167E-02 1.01562E-02 0.00000E+00
 -1       386 6.14583E-02 1.05469E-02 0.00000E+00
 -1       387 6.25000E-02 1.09375E-02 0.00000E+00
 -1       388 6.35417E-02 1.13281E-02 0.00000E+00
 -1       389 6.45833E-02 1.17188E-02 0.00000E+00
 -1       390 6.56250E-02 1.21094E-02 0.00000E+00
 -1       406 6.66667E-02 7.29167E-03 0.00000E+00
 -1       407 6.66667E-02 8.33333E-03 0.00000E+00
 -1       408 6.66667E-02 9.37500E-03 0.00000E+00
 -1       409 6.66667E-02 1.04167E-02 0.00000E+00
 -1       410 6.66667E-02 1.14583E-02 0.00000E+00
 -1       501 1.77083E-02 1.25000E-02 0.00000E+00
 -1       502 1.87500E-02 1.25000E-02 0.00000E+00
 -1       503 1.97917E-02 1.25000E-02 0.00000E+00
 -1       504 2.08333E-02 1.25000E-02 0.00000E+00
 -1       505 2.18750E-02 1.25000E-02 0.00000E+00
 -1       506 2.29167E-02 1.25000E-02 0.00000E+00
 -1       507 2.39583E-02 1.25000E-02 0.00000E+00
 -1       508 2.50000E-02 1.25000E-02 0.00000E+00
 -1       509 2.60417E-02 1.25000E-02 0.00000E+00
 -1       510 2.70833E-02 1.25000E-02 0.00000E+00
 -1       511 2.81250E-02 1.25000E-02 0.00000E+00
 -1       512 2.91667E-02 1.25000E-02 0.00000E+00
 -1       513 3.02083E-02 1.25000E-02 0.00000E+00
 -1       514 3.12500E-02 1.25000E-02 0.00000E+00
 -1       515 3.22917E-02 1.25000E-02 0.00000E+00
 -1       521 1.77083E-02 1.28906E-02 0.00000E+00
 -1       522 1.87500E-02 1.32813E-02 0.00000E+00
 -1       523 1.97917E-02 1.36719E-02 0.00000E+00
 -1       524 2.08333E-02 1.40625E-02 0.00000E+00
 -1       525 2.18750E-02 1.44531E-02 0.00000E+00
 -1       526 2.29167E-02 1.48437E-02 0.00000E+00
 -1       527 2.39583E-02 1.52344E-02 0.00000E+00
 -1       528 2.50000E-02 1.56250E-02 0.00000E+00
 -1       529 2.60417E-02 1.60156E-02 0.00000E+00
 -1       530 2.70833E-02 1.64062E-02 0.00000E+00
 -1       531 2.81250E-02 1.67969E-02 0.00000E+00
 -1       532 2.91667E-02 1.71875E-02 0.00000E+00
 -1       533 3.02083E-02 1.75781E-02 0.00000E+00
 -1       534 3.12500E-02 1.79687E-02 0.00000E+00
 -1       535 3.22917E-02 1.83594E-02 0.00000E+00
 -1       536 3.43750E-02 1.25000E-02 0.00000E+00
 -1       537 3.54167E-02 1.25000E-02 0.00000E+00
 -1       538 3.64583E-02 1.25000E-02 0.00000E+00
 -1       539 3.75000E-02 1.25000E-02 0.00000E+00
 -1       540 3.85417E-02 1.25000E-02 0.00000E+00
 -1       541 3.95833E-02 1.25000E-02 0.00000E+00
 -1       542 4.06250E-02 1.25000E-02 0.00000E+00
 -1       543 4.16667E-02 1.25000E-02 0.00000E+00
 -1       544 4.27083E-02 1.25000E-02 0.00000E+00
 -1       545 4.37500E-02 1.25000E-02 0.00000E+00
 -1       546 4.47917E-02 1.25000E-02 0.00000E+00
 -1       547 4.58333E-02 1.25000E-02 0.00000E+00
 -1       548 4.68750E-02 1.25000E-02 0.00000E+00
 -1       549 4.79167E-02 1.25000E-02 0.00000E+00
 -1       550 4.89583E-02 1.25000E-02 0.00000E+00
 -1       551 3.33333E-02 1.35417E-02 0.00000E+00
 -1       552 3.33333E-02 1.45833E-02 0.00000E+00
 -1       553 3.33333E-02 1.56250E-02 0.00000E+00
 -1       554 3.33333E-02 1.66667E-02 0.00000E+00
 -1       555 3.33333E-02 1.77083E-02 0.00000E+00
 -1       556 3.43750E-02 1.28906E-02 0.00000E+00
 -1       557 3.54167E-02 1.32813E-02 0.00000E+00
 -1       558 3.64583E-02 1.36719E-02 0.00000E+00
 -1       559 3.75000E-02 1.40625E-02 0.00000E+00
 -1       560 3.85417E-02 1.44531E-02 0.00000E+00
 -1       561 3.95833E-02 1.48437E-02 0.00000E+00
 -1       562 4.06250E-02 1.52344E-02 0.00000E+00
 -1       563 4.16667E-02 1.56250E-02 0.00000E+00
 -1       564 4.27083E-02 1.60156E-02 0.00000E+00
 -1       565 4.37500E-02 1.64062E-02 0.00000E+00
 -1       566 4.47917E-02 1.67969E-02 0.00000E+00
 -1       567 4.58333E-02 1.71875E-02 0.00000E+00
 -1       568 4.68750E-02 1.75781E-02 0.00000E+00
 -1       569 4.79167E-02 1.79687E-02 0.00000E+00
 -1       570 4.89583E-02 1.83594E-02 0.00000E+00
 -1       571 5.10417E-02 1.25000E-02 0.00000E+00
 -1       572 5.20833E-02 1.25000E-02 0.00000E+00
 -1       573 5.31250E-02 1.25000E-02 0.00000E+00
 -1       574 5.41667E-02 1.25000E-02 0.00000E+00
 -1       575 5.52083E-02 1.25000E-02 0.00000E+00
 -1       576 5.62500E-02 1.25000E-02 0.00000E+00
 -1       577 5.72917E-02 1.25000E-02 0.00000E+00
 -1       578 5.83333E-02 1.25000E-02 0.00000E+00
 -1       579 5.93750E-02 1.25000E-02 0.00000E+00
 -1       580 6.04167E-02 1.25000E-02 0.00000E+00
 -1       581 6.14583E-02 1.25000E-02 0.00000E+00
 -1       582 6.25000E-02 1.25000E-02 0.00000E+00
 -1       583 6.35417E-02 1.25000E-02 0.00000E+00
 -1       584 6.45833E-02 1.25000E-02 0.00000E+00
 -1       585 6.56250E-02 1.25000E-02 0.00000E+00
 -1       586 5.00000E-02 1.35417E-02 0.00000E+00
 -1       587 5.00000E-02 1.45833E-02 0.00000E+00
 -1       588 5.00000E-02 1.56250E-02 0.00000E+00
 -1       589 5.00000E-02 1.66667E-02 0.00000E+00
 -1       590 5.00000E-02 1.77083E-02 0.00000E+00
 -1       591 5.10417E-02 1.28906E-02 0.00000E+00
 -1       592 5.20833E-02 1.32813E-02 0.00000E+00
 -1       593 5.31250E-02 1.36719E-02 0.00000E+00
 -1       594 5.41667E-02 1.40625E-02 0.00000E+00
 -1       595 5.52083E-02 1.44531E-02 0.00000E+00
 -1       596 5.62500E-02 1.48437E-02 0.00000E+00
 -1       597 5.72917E-02 1.52344E-02 0.00000E+00
 -1       598 5.83333E-02 1.56250E-02 0.00000E+00
 -1       599 5.93750E-02 1.60156E-02 0.00000E+00
 -1       600 6.04167E-02 1.64062E-02 0.00000E+00
 -1       601 6.14583E-02 1.67969E-02 0.00000E+00
 -1       602 6.25000E-02 1.71875E-02 0.00000E+00
 -1       603 6.35417E-02 1.75781E-02 0.00000E+00
 -1       604 6.45833E-02 1.79687E-02 0.00000E+00
 -1       605 6.56250E-02 1.83594E-02 0.00000E+00
 -1       606 6.77083E-02 1.25000E-02 0.00000E+00
 -1       607 6.87500E-02 1.25000E-02 0.00000E+00
 -1       608 6.97917E-02 1.25000E-02 0.00000E+00
 -1       609 7.08333E-02 1.25000E-02 0.00000E+00
 -1       610 7.18750E-02 1.25000E-02 0.00000E+00
 -1       611 7.29167E-02 1.25000E-02 0.00000E+00
 -1       612 7.39583E-02 1.25000E-02 0.00000E+00
 -1       613 7.50000E-02 1.25000E-02 0.00000E+00
 -1       614 7.60417E-02 1.25000E-02 0.00000E+00
 -1       615 7.70833E-02 1.25000E-02 0.00000E+00
 -1       616 7.81250E-02 1.25000E-02 0.00000E+00
 -1       617 7.91667E-02 1.25000E-02 0.00000E+00
 -1       618 8.02083E-02 1.25000E-02 0.00000E+00
 -1       619 8.12500E-02 1.25000E-02 0.00000E+00
 -1       620 8.22917E-02 1.25000E-02 0.00000E+00
 -1       621 6.66667E-02 1.35417E-02 0.00000E+00
 -1       622 6.66667E-02 1.45833E-02 0.00000E+00
 -1       623 6.66667E-02 1.56250E-02 0.00000E+00
 -1       624 6.66667E-02 1.66667E-02 0.00000E+00
 -1       625 6.66667E-02 1.77083E-02 0.00000E+00
 -1       626 6.77083E-02 1.28906E-02 0.00000E+00
 -1       627 6.87500E-02 1.32813E-02 0.00000E+00
 -1       628 6.97917E-02 1.36719E-02 0.00000E+00
 -1       629 7.08333E-02 1.40625E-02 0.00000E+00
 -1       630 7.18750E-02 1.44531E-02 0.00000E+00
 -1       631 7.29167E-02 1.48437E-02 0.00000E+00
 -1       632 7.39583E-02 1.52344E-02 0.00000E+00
 -1       633 7.50000E-02 1.56250E-02 0.00000E+00
 -1       634 7.60417E-02 1.60156E-02 0.00000E+00
 -1       635 7.70833E-02 1.64062E-02 0.00000E+00
 -1       636 7.81250E-02 1.67969E-02 0.00000E+00
 -1       637 7.91667E-02 1.71875E-02 0.00000E+00
 -1       638 8.02083E-02 1.75781E-02 0.00000E+00
 -1       639 8.12500E-02 1.79687E-02 0.00000E+00
 -1       640 8.22917E-02 1.83594E-02 0.00000E+00
 -1       656 8.33333E-02 1.35417E-02 0.00000E+00
 -1       657 8.33333E-02 1.45833E-02 0.00000E+00
 -1       658 8.33333E-02 1.56250E-02 0.00000E+00
 -1       659 8.33333E-02 1.66667E-02 0.00000E+00
 -1       660 8.33333E-02 1.77083E-02 0.00000E+00
 -1       661 8.43750E-02 1.28906E-02 0.00000E+00
 -1       662 8.54167E-02 1.32813E-02 0.00000E+00
 -1       663 8.64583E-02 1.36719E-02 0.00000E+00
 -1       664 8.75000E-02 1.40625E-02 0.00000E+00
 -1       665 8.85417E-02 1.44531E-02 0.00000E+00
 -1       666 8.95833E-02 1.48437E-02 0.00000E+00
 -1       667 9.06250E-02 1.52344E-02 0.00000E+00
 -1       668 9.16667E-02 1.56250E-02 0.00000E+00
 -1       669 9.27083E-02 1.60156E-02 0.00000E+00
 -1       670 9.37500E-02 1.64062E-02 0.00000E+00
 -1       671 9.47917E-02 1.67969E-02 0.00000E+00
 -1       672 9.58333E-02 1.71875E-02 0.00000E+00
 -1       673 9.68750E-02 1.75781E-02 0.00000E+00
 -1       674 9.79167E-02 1.79687E-02 0.00000E+00
 -1       675 9.89583E-02 1.83594E-02 0.00000E+00
 -1       676 1.00000E-01 1.35417E-02 0.00000E+00
 -1       677 1.00000E-01 1.45833E-02 0.00000E+00
 -1       678 1.00000E-01 1.56250E-02 0.00000E+00
 -1       679 1.00000E-01 1.66667E-02 0.00000E+00
 -1       680 1.00000E-01 1.77083E-02 0.00000E+00
 -1       716 1.77083E-02 1.87500E-02 0.00000E+00
 -1       717 1.87500E-02 1.87500E-02 0.00000E+00
 -1       718 1.97917E-02 1.87500E-02 0.00000E+00
 -1       719 2.08333E-02 1.87500E-02 0.00000E+00
 -1       720 2.18750E-02 1.87500E-02 0.00000E+00
 -1       721 2.29167E-02 1.87500E-02 0.00000E+00
 -1       722 2.39583E-02 1.87500E-02 0.00000E+00
 -1       723 2.50000E-02 1.87500E-02 0.00000E+00
 -1       724 2.60417E-02 1.87500E-02 0.00000E+00
 -1       725 2.70833E-02 1.87500E-02 0.00000E+00
 -1       726 2.81250E-02 1.87500E-02 0.00000E+00
 -1       727 2.91667E-02 1.87500E-02 0.00000E+00
 -1       728 3.02083E-02 1.87500E-02 0.00000E+00
 -1       729 3.12500E-02 1.87500E-02 0.00000E+00
 -1       730 3.22917E-02 1.87500E-02 0.00000E+00
 -1       766 3.33333E-02 1.97917E-02 0.00000E+00
 -1       767 3.33333E-02 2.08333E-02 0.00000E+00
 -1       768 3.33333E-02 2.18750E-02 0.00000E+00
 -1       769 3.33333E-02 2.29167E-02 0.00000E+00
 -1       770 3.33333E-02 2.39583E-02 0.00000E+00
 -1       771 3.43750E-02 1.91406E-02 0.00000E+00
 -1       772 3.54167E-02 1.95312E-02 0.00000E+00
 -1       773 3.64583E-02 1.99219E-02 0.00000E+00
 -1       774 3.75000E-02 2.03125E-02 0.00000E+00
 -1       775 3.85417E-02 2.07031E-02 0.00000E+00
 -1       776 3.95833E-02 2.10938E-02 0.00000E+00
 -1       777 4.06250E-02 2.14844E-02 0.00000E+00
 -1       778 4.16667E-02 2.18750E-02 0.00000E+00
 -1       779 4.27083E-02 2.22656E-02 0.00000E+00
 -1       780 4.37500E-02 2.26563E-02 0.00000E+00
 -1       781 4.47917E-02 2.30469E-02 0.00000E+00
 -1       782 4.58333E-02 2.34375E-02 0.00000E+00
 -1       783 4.68750E-02 2.38281E-02 0.00000E+00
 -1       784 4.79167E-02 2.42187E-02 0.00000E+00
 -1       785 4.89583E-02 2.46094E-02 0.00000E+00
 -1       786 5.10417E-02 1.87500E-02 0.00000E+00
 -1       787 5.20833E-02 1.87500E-02 0.00000E+00
 -1       788 5.31250E-02 1.87500E-02 0.00000E+00
 -1       789 5.41667E-02 1.87500E-02 0.00000E+00
 -1       790 5.52083E-02 1.87500E-02 0.00000E+00
 -1       791 5.62500E-02 1.87500E-02 0.00000E+00
 -1       792 5.72917E-02 1.87500E-02 0.00000E+00
 -1       793 5.83333E-02 1.87500E-02 0.00000E+00
 -1       794 5.93750E-02 1.87500E-02 0.00000E+00
 -1       795 6.04167E-02 1.87500E-02 0.00000E+00
 -1       796 6.14583E-02 1.87500E-02 0.00000E+00
 -1       797 6.25000E-02 1.87500E-02 0.00000E+00
 -1       798 6.35417E-02 1.87500E-02 0.00000E+00
 -1       799 6.45833E-02 1.87500E-02 0.00000E+00
 -1       800 6.56250E-02 1.87500E-02 0.00000E+00
 -1       801 5.00000E-02 1.97917E-02 0.00000E+00
 -1       802 5.00000E-02 2.08333E-02 0.00000E+00
 -1       803 5.00000E-02 2.18750E-02 0.00000E+00
 -1       804 5.00000E-02 2.29167E-02 0.00000E+00
 -1       805 5.00000E-02 2.39583E-02 0.00000E+00
 -1       806 5.10417E-02 1.91406E-02 0.00000E+00
 -1       807 5.20833E-02 1.95312E-02 0.00000E+00
 -1       808 5.31250E-02 1.99219E-02 0.00000E+00
 -1       809 5.41667E-02 2.03125E-02 0.00000E+00
 -1       810 5.52083E-02 2.07031E-02 0.00000E+00
 -1       811 5.62500E-02 2.10938E-02 0.00000E+00
 -1       812 5.72917E-02 2.14844E-02 0.00000E+00
 -1       813 5.83333E-02 2.18750E-02 0.00000E+00
 -1       814 5.93750E-02 2.22656E-02 0.00000E+00
 -1       815 6.04167E-02 2.26563E-02 0.00000E+00
 -1       816 6.14583E-02 2.30469E-02 0.00000E+00
 -1       817 6.25000E-02 2.34375E-02 0.00000E+00
 -1       818 6.35417E-02 2.38281E-02 0.00000E+00
 -1       819 6.45833E-02 2.42187E-02 0.00000E+00
 -1       820 6.56250E-02 2.46094E-02 0.00000E+00
 -1       821 6.77083E-02 1.87500E-02 0.00000E+00
 -1       822 6.87500E-02 1.87500E-02 0.00000E+00
 -1       823 6.97917E-02 1.87500E-02 0.00000E+00
 -1       824 7.08333E-02 1.87500E-02 0.00000E+00
 -1       825 7.18750E-02 1.87500E-02 0.00000E+00
 -1       826 7.29167E-02 1.87500E-02 0.00000E+00
 -1       827 7.39583E-02 1.87500E-02 0.00000E+00
 -1       828 7.50000E-02 1.87500E-02 0.00000E+00
 -1       829 7.60417E-02 1.87500E-02 0.00000E+00
 -1       830 7.70833E-02 1.87500E-02 0.00000E+00
 -1       831 7.81250E-02 1.87500E-02 0.00000E+00
 -1       832 7.91667E-02 1.87500E-02 0.00000E+00
 -1       833 8.02083E-02 1.87500E-02 0.00000E+00
 -1       834 8.12500E-02 1.87500E-02 0.00000E+00
 -1       835 8.22917E-02 1.87500E-02 0.00000E+00
 -1       836 6.66667E-02 1.97917E-02 0.00000E+00
 -1       837 6.66667E-02 2.08333E-02 0.00000E+00
 -1       838 6.66667E-02 2.18750E-02 0.00000E+00
 -1       839 6.66667E-02 2.29167E-02 0.00000E+00
 -1       840 6.66667E-02 2.39583E-02 0.00000E+00
 -1       841 6.77083E-02 1.91406E-02 0.00000E+00
 -1       842 6.87500E-02 1.95312E-02 0.00000E+00
 -1       843 6.97917E-02 1.99219E-02 0.00000E+00
 -1       844 7.08333E-02 2.03125E-02 0.00000E+00
 -1       845 7.18750E-02 2.07031E-02 0.00000E+00
 -1       846 7.29167E-02 2.10938E-02 0.00000E+00
 -1       847 7.39583E-02 2.14844E-02 0.00000E+00
 -1       848 7.50000E-02 2.18750E-02 0.00000E+00
 -1       849 7.60417E-02 2.22656E-02 0.00000E+00
 -1       850 7.70833E-02 2.26563E-02 0.00000E+00
 -1       851 7.81250E-02 2.30469E-02 0.00000E+00
 -1       852 7.91667E-02 2.34375E-02 0.00000E+00
 -1       853 8.02083E-02 2.38281E-02 0.00000E+00
 -1       854 8.12500E-02 2.42187E-02 0.00000E+00
 -1       855 8.22917E-02 2.46094E-02 0.00000E+00
 -1       856 8.43750E-02 1.87500E-02 0.00000E+00
 -1       857 8.54167E-02 1.87500E-02 0.00000E+00
 -1       858 8.64583E-02 1.87500E-02 0.00000E+00
 -1       859 8.75000E-02 1.87500E-02 0.00000E+00
 -1       860 8.85417E-02 1.87500E-02 0.00000E+00
 -1       861 8.95833E-02 1.87500E-02 0.00000E+00
 -1       862 9.06250E-02 1.87500E-02 0.00000E+00
 -1       863 9.16667E-02 1.87500E-02 0.00000E+00
 -1       864 9.27083E-02 1.87500E-02 0.00000E+00
 -1       865 9.37500E-02 1.87500E-02 0.00000E+00
 -1       866 9.47917E-02 1.87500E-02 0.00000E+00
 -1       867 9.58333E-02 1.87500E-02 0.00000E+00
 -1       868 9.68750E-02 1.87500E-02 0.00000E+00
 -1       869 9.79167E-02 1.87500E-02 0.00000E+00
 -1       870 9.89583E-02 1.87500E-02 0.00000E+00
 -1       871 8.33333E-02 1.97917E-02 0.00000E+00
 -1       872 8.33333E-02 2.08333E-02 0.00000E+00
 -1       873 8.33333E-02 2.18750E-02 0.00000E+00
 -1       874 8.33333E-02 2.29167E-02 0.00000E+00
 -1       875 8.33333E-02 2.39583E-02 0.00000E+00
 -1       876 8.43750E-02 1.91406E-02 0.00000E+00
 -1       877 8.54167E-02 1.95312E-02 0.00000E+00
 -1       878 8.64583E-02 1.99219E-02 0.00000E+00
 -1       879 8.75000E-02 2.03125E-02 0.00000E+00
 -1       880 8.85417E-02 2.07031E-02 0.00000E+00
 -1       881 8.95833E-02 2.10938E-02 0.00000E+00
 -1       882 9.06250E-02 2.14844E-02 0.00000E+00
 -1       883 9.16667E-02 2.18750E-02 0.00000E+00
 -1       884 9.27083E-02 2.22656E-02 0.00000E+00
 -1       885 9.37500E-02 2.26563E-02 0.00000E+00
 -1       886 9.47917E-02 2.30469E-02 0.00000E+00
 -1       887 9.58333E-02 2.34375E-02 0.00000E+00
 -1       888 9.68750E-02 2.38281E-02 0.00000E+00
 -1       889 9.79167E-02 2.42187E-02 0.00000E+00
 -1       890 9.89583E-02 2.46094E-02 0.00000E+00
 -1       891 1.00000E-01 1.97917E-02 0.00000E+00
 -1       892 1.00000E-01 2.08333E-02 0.00000E+00
 -1       893 1.00000E-01 2.18750E-02 0.00000E+00
 -1       894 1.00000E-01 2.29167E-02 0.00000E+00
 -1       895 1.00000E-01 2.39583E-02 0.00000E+00
 -1       956 6.77083E-02 2.50000E-02 0.00000E+00
 -1       957 6.87500E-02 2.50000E-02 0.00000E+00
 -1       958 6.97917E-02 2.50000E-02 0.00000E+00
 -1       959 7.08333E-02 2.50000E-02 0.00000E+00
 -1       960 7.18750E-02 2.50000E-02 0.00000E+00
 -1       961 7.29167E-02 2.50000E-02 0.00000E+00
 -1       962 7.39583E-02 2.50000E-02 0.00000E+00
 -1       963 7.50000E-02 2.50000E-02 0.00000E+00
 -1       964 7.60417E-02 2.50000E-02 0.00000E+00
 -1       965 7.70833E-02 2.50000E-02 0.00000E+00
 -1       966 7.81250E-02 2.50000E-02 0.00000E+00
 -1       967 7.91667E-02 2.50000E-02 0.00000E+00
 -1       968 8.02083E-02 2.50000E-02 0.00000E+00
 -1       969 8.12500E-02 2.50000E-02 0.00000E+00
 -1       970 8.22917E-02 2.50000E-02 0.00000E+00
 -1       971 8.43750E-02 2.50000E-02 0.00000E+00
 -1       972 8.54167E-02 2.50000E-02 0.00000E+00
 -1       973 8.64583E-02 2.50000E-02 0.00000E+00
 -1       974 8.75000E-02 2.50000E-02 0.00000E+00
 -1       975 8.85417E-02 2.50000E-02 0.00000E+00
 -1       976 8.95833E-02 2.50000E-02 0.00000E+00
 -1       977 9.06250E-02 2.50000E-02 0.00000E+00
 -1       978 9.16667E-02 2.50000E-02 0.00000E+00
 -1       979 9.27083E-02 2.50000E-02 0.00000E+00
 -1       980 9.37500E-02 2.50000E-02 0.00000E+00
 -1       981 9.47917E-02 2.50000E-02 0.00000E+00
 -1       982 9.58333E-02 2.50000E-02 0.00000E+00
 -1       983 9.68750E-02 2.50000E-02 0.00000E+00
 -1       984 9.79167E-02 2.50000E-02 0.00000E+00
 -1       985 9.89583E-02 2.50000E-02 0.00000E+00
 -3
    3C                           262                                     1
 -1         1   12    0    1
 -2         1        37        36
 -1         2   12    0    1
 -2        37        39        38
 -1         3   12    0    1
 -2        39        41        40
 -1         4   12    0    1
 -2        41        43        42
 -1         5   12    0    1
 -2        43        45        44
 -1         6   12    0    1
 -2        45        47        46
 -1         7   12    0    1
 -2        47        49        48
 -1         8   12    0    1
 -2        49         2        50
 -1         9   12    0    1
 -2         1        52        51
 -1        10   12    0    1
 -2        52        54        53
 -1        11   12    0    1
 -2        54         8        55
 -1        12   12    0    1
 -2         1        57        56
 -1        13   12    0    1
 -2        57        59        58
 -1        14   12    0    1
 -2        59        61        60
 -1        15   12    0    1
 -2        61        63        62
 -1        16   12    0    1
 -2        63        65        64
 -1        17   12    0    1
 -2        65        67        66
 -1        18   12    0    1
 -2        67        69        68
 -1        19   12    0    1
 -2        69         9        70
 -1        20   12    0    1
 -2         2        87        86
 -1        21   12    0    1
 -2        87        89        88
 -1        22   12    0    1
 -2        89         9        90
 -1        23   12    0    1
 -2         3       122       121
 -1        24   12    0    1
 -2       122       124       123
 -1        25   12    0    1
 -2       124        10       125
 -1        26   12    0    1
 -2         5       192       191
 -1        27   12    0    1
 -2       192       194       193
 -1        28   12    0    1
 -2       194        12       195
 -1        29   12    0    1
 -2         8       252       251
 -1        30   12    0    1
 -2       252       254       253
 -1        31   12    0    1
 -2       254       256       255
 -1        32   12    0    1
 -2       256       258       257
 -1        33   12    0    1
 -2       258       260       259
 -1        34   12    0    1
 -2       260       262       261
 -1        35   12    0    1
 -2       262       264       263
 -1        36   12    0    1
 -2       264         9       265
 -1        37   12    0    1
 -2         8       267       266
 -1        38   12    0    1
 -2       267       269       268
 -1        39   12    0    1
 -2       269        15       270
 -1        40   12    0    1
 -2         8       272       271
 -1        41   12    0    1
 -2       272       274       273
 -1        42   12    0    1
 -2       274       276       275
 -1        43   12    0    1
 -2       276       278       277
 -1        44   12    0    1
 -2       278       280       279
 -1        45   12    0    1
 -2       280       282       281
 -1        46   12    0    1
 -2       282       284       283
 -1        47   12    0    1
 -2       284        16       285
 -1        48   12    0    1
 -2         9       302       301
 -1        49   12    0    1
 -2       302       304       303
 -1        50   12    0    1
 -2       304        16       305
 -1        51   12    0    1
 -2         9       307       306
 -1        52   12    0    1
 -2       307       309       308
 -1        53   12    0    1
 -2       309       311       310
 -1        54   12    0    1
 -2       311       313       312
 -1        55   12    0    1
 -2       313       315       314
 -1        56   12    0    1
 -2       315       317       316
 -1        57   12    0    1
 -2       317       319       318
 -1        58   12    0    1
 -2       319        17       320
 -1        59   12    0    1
 -2        10       337       336
 -1        60   12    0    1
 -2       337       339       338
 -1        61   12    0    1
 -2       339        17       340
 -1        62   12    0    1
 -2        11       357       356
 -1        63   12    0    1
 -2       357       359       358
 -1        64   12    0    1
 -2       359       361       360
 -1        65   12    0    1
 -2       361       363       362
 -1        66   12    0    1
 -2       363       365       364
 -1        67   12    0    1
 -2       365       367       366
 -1        68   12    0    1
 -2       367       369       368
 -1        69   12    0    1
 -2       369        12       370
 -1        70   12    0    1
 -2        11       377       376
 -1        71   12    0    1
 -2       377       379       378
 -1        72   12    0    1
 -2       379       381       380
 -1        73   12    0    1
 -2       381       383       382
 -1        74   12    0    1
 -2       383       385       384
 -1        75   12    0    1
 -2       385       387       386
 -1        76   12    0    1
 -2       387       389       388
 -1        77   12    0    1
 -2       389        19       390
 -1        78   12    0    1
 -2        12       407       406
 -1        79   12    0    1
 -2       407       409       408
 -1        80   12    0    1
 -2       409        19       410
 -1        81   12    0    1
 -2        16       502       501
 -1        82   12    0    1
 -2       502       504       503
 -1        83   12    0    1
 -2       504       506       505
 -1        84   12    0    1
 -2       506       508       507
 -1        85   12    0    1
 -2       508       510       509
 -1        86   12    0    1
 -2       510       512       511
 -1        87   12    0    1
 -2       512       514       513
 -1        88   12    0    1
 -2       514        17       515
 -1        89   12    0    1
 -2        16       522       521
 -1        90   12    0    1
 -2       522       524       523
 -1        91   12    0    1
 -2       524       526       525
 -1        92   12    0    1
 -2       526       528       527
 -1        93   12    0    1
 -2       528       530       529
 -1        94   12    0    1
 -2       530       532       531
 -1        95   12    0    1
 -2       532       534       533
 -1        96   12    0    1
 -2       534        24       535
 -1        97   12    0    1
 -2        17       537       536
 -1        98   12    0    1
 -2       537       539       538
 -1        99   12    0    1
 -2       539       541       540
 -1       100   12    0    1
 -2       541       543       542
 -1       101   12    0    1
 -2       543       545       544
 -1       102   12    0    1
 -2       545       547       546
 -1       103   12    0    1
 -2       547       549       548
 -1       104   12    0    1
 -2       549        18       550
 -1       105   12    0    1
 -2        17       552       551
 -1       106   12    0    1
 -2       552       554       553
 -1       107   12    0    1
 -2       554        24       555
 -1       108   12    0    1
 -2        17       557       556
 -1       109   12    0    1
 -2       557       559       558
 -1       110   12    0    1
 -2       559       561       560
 -1       111   12    0    1
 -2       561       563       562
 -1       112   12    0    1
 -2       563       565       564
 -1       113   12    0    1
 -2       565       567       566
 -1       114   12    0    1
 -2       567       569       568
 -1       115   12    0    1
 -2       569        25       570
 -1       116   12    0    1
 -2        18       572       571
 -1       117   12    0    1
 -2       572       574       573
 -1       118   12    0    1
 -2       574       576       575
 -1       119   12    0    1
 -2       576       578       577
 -1       120   12    0    1
 -2       578       580       579
 -1       121   12    0    1
 -2       580       582       581
 -1       122   12    0    1
 -2       582       584       583
 -1       123   12    0    1
 -2       584        19       585
 -1       124   12    0    1
 -2        18       587       586
 -1       125   12    0    1
 -2       587       589       588
 -1       126   12    0    1
 -2       589        25       590
 -1       127   12    0    1
 -2        18       592       591
 -1       128   12    0    1
 -2       592       594       593
 -1       129   12    0    1
 -2       594       596       595
 -1       130   12    0    1
 -2       596       598       597
 -1       131   12    0    1
 -2       598       600       599
 -1       132   12    0    1
 -2       600       602       601
 -1       133   12    0    1
 -2       602       604       603
 -1       134   12    0    1
 -2       604        26       605
 -1       135   12    0    1
 -2        19       607       606
 -1       136   12    0    1
 -2       607       609       608
 -1       137   12    0    1
 -2       609       611       610
 -1       138   12    0    1
 -2       611       613       612
 -1       139   12    0    1
 -2       613       615       614
 -1       140   12    0    1
 -2       615       617       616
 -1       141   12    0    1
 -2       617       619       618
 -1       142   12    0    1
 -2       619        20       620
 -1       143   12    0    1
 -2        19       622       621
 -1       144   12    0    1
 -2       622       624       623
 -1       145   12    0    1
 -2       624        26       625
 -1       146   12    0    1
 -2        19       627       626
 -1       147   12    0    1
 -2       627       629       628
 -1       148   12    0    1
 -2       629       631       630
 -1       149   12    0    1
 -2       631       633       632
 -1       150   12    0    1
 -2       633       635       634
 -1       151   12    0    1
 -2       635       637       636
 -1       152   12    0    1
 -2       637       639       638
 -1       153   12    0    1
 -2       639        27       640
 -1       154   12    0    1
 -2        20       657       656
 -1       155   12    0    1
 -2       657       659       658
 -1       156   12    0    1
 -2       659        27       660
 -1       157   12    0    1
 -2        20       662       661
 -1       158   12    0    1
 -2       662       664       663
 -1       159   12    0    1
 -2       664       666       665
 -1       160   12    0    1
 -2       666       668       667
 -1       161   12    0    1
 -2       668       670       669
 -1       162   12    0    1
 -2       670       672       671
 -1       163   12    0    1
 -2       672       674       673
 -1       164   12    0    1
 -2       674        28       675
 -1       165   12    0    1
 -2        21       677       676
 -1       166   12    0    1
 -2       677       679       678
 -1       167   12    0    1
 -2       679        28       680
 -1       168   12    0    1
 -2        23       717       716
 -1       169   12    0    1
 -2       717       719       718
 -1       170   12    0    1
 -2       719       721       720
 -1       171   12    0    1
 -2       721       723       722
 -1       172   12    0    1
 -2       723       725       724
 -1       173   12    0    1
 -2       725       727       726
 -1       174   12    0    1
 -2       727       729       728
 -1       175   12    0    1
 -2       729        24       730
 -1       176   12    0    1
 -2        24       767       766
 -1       177   12    0    1
 -2       767       769       768
 -1       178   12    0    1
 -2       769        31       770
 -1       179   12    0    1
 -2        24       772       771
 -1       180   12    0    1
 -2       772       774       773
 -1       181   12    0    1
 -2       774       776       775
 -1       182   12    0    1
 -2       776       778       777
 -1       183   12    0    1
 -2       778       780       779
 -1       184   12    0    1
 -2       780       782       781
 -1       185   12    0    1
 -2       782       784       783
 -1       186   12    0    1
 -2       784        32       785
 -1       187   12    0    1
 -2        25       787       786
 -1       188   12    0    1
 -2       787       789       788
 -1       189   12    0    1
 -2       789       791       790
 -1       190   12    0    1
 -2       791       793       792
 -1       191   12    0    1
 -2       793       795       794
 -1       192   12    0    1
 -2       795       797       796
 -1       193   12    0    1
 -2       797       799       798
 -1       194   12    0    1
 -2       799        26       800
 -1       195   12    0    1
 -2        25       802       801
 -1       196   12    0    1
 -2       802       804       803
 -1       197   12    0    1
 -2       804        32       805
 -1       198   12    0    1
 -2        25       807       806
 -1       199   12    0    1
 -2       807       809       808
 -1       200   12    0    1
 -2       809       811       810
 -1       201   12    0    1
 -2       811       813       812
 -1       202   12    0    1
 -2       813       815       814
 -1       203   12    0    1
 -2       815       817       816
 -1       204   12    0    1
 -2       817       819       818
 -1       205   12    0    1
 -2       819        33       820
 -1       206   12    0    1
 -2        26       822       821
 -1       207   12    0    1
 -2       822       824       823
 -1       208   12    0    1
 -2       824       826       825
 -1       209   12    0    1
 -2       826       828       827
 -1       210   12    0    1
 -2       828       830       829
 -1       211   12    0    1
 -2       830       832       831
 -1       212   12    0    1
 -2       832       834       833
 -1       213   12    0    1
 -2       834        27       835
 -1       214   12    0    1
 -2        26       837       836
 -1       215   12    0    1
 -2       837       839       838
 -1       216   12    0    1
 -2       839        33       840
 -1       217   12    0    1
 -2        26       842       841
 -1       218   12    0    1
 -2       842       844       843
 -1       219   12    0    1
 -2       844       846       845
 -1       220   12    0    1
 -2       846       848       847
 -1       221   12    0    1
 -2       848       850       849
 -1       222   12    0    1
 -2       850       852       851
 -1       223   12    0    1
 -2       852       854       853
 -1       224   12    0    1
 -2       854        34       855
 -1       225   12    0    1
 -2        27       857       856
 -1       226   12    0    1
 -2       857       859       858
 -1       227   12    0    1
 -2       859       861       860
 -1       228   12    0    1
 -2       861       863       862
 -1       229   12    0    1
 -2       863       865       864
 -1       230   12    0    1
 -2       865       867       866
 -1       231   12    0    1
 -2       867       869       868
 -1       232   12    0    1
 -2       869        28       870
 -1       233   12    0    1
 -2        27       872       871
 -1       234   12    0    1
 -2       872       874       873
 -1       235   12    0    1
 -2       874        34       875
 -1       236   12    0    1
 -2        27       877       876
 -1       237   12    0    1
 -2       877       879       878
 -1       238   12    0    1
 -2       879       881       880
 -1       239   12    0    1
 -2       881       883       882
 -1       240   12    0    1
 -2       883       885       884
 -1       241   12    0    1
 -2       885       887       886
 -1       242   12    0    1
 -2       887       889       888
 -1       243   12    0    1
 -2       889        35       890
 -1       244   12    0    1
 -2        28       892       891
 -1       245   12    0    1
 -2       892       894       893
 -1       246   12    0    1
 -2       894        35       895
 -1       247   12    0    1
 -2        33       957       956
 -1       248   12    0    1
 -2       957       959       958
 -1       249   12    0    1
 -2       959       961       960
 -1       250   12    0    1
 -2       961       963       962
 -1       251   12    0    1
 -2       963       965       964
 -1       252   12    0    1
 -2       965       967       966
 -1       253   12    0    1
 -2       967       969       968
 -1       254   12    0    1
 -2       969        34       970
 -1       255   12    0    1
 -2        34       972       971
 -1       256   12    0    1
 -2       972       974       973
 -1       257   12    0    1
 -2       974       976       975
 -1       258   12    0    1
 -2       976       978       977
 -1       259   12    0    1
 -2       978       980       979
 -1       260   12    0    1
 -2       980       982       981
 -1       261   12    0    1
 -2       982       984       983
 -1       262   12    0    1
 -2       984        35       985
 -3
    1PSTEP                         1           1           1          
  100CL  101 2.50000E-01         507                     0    1           1
 -4  DISP        4    1
 -5  D1          1    2    1    0
 -5  D2          1    2    2    0
 -5  D3          1    2    3    0
 -5  ALL         1    2    0    0    1ALL
 -1         1 4.39342E-05 0.00000E+00 0.00000E+00
 -1         2 4.39256E-05 0.00000E+00 0.00000E+00
 -1         3 3.14181E-05-1.90169E-27 0.00000E+00
 -1         5 2.38767E-05 3.50605E-26 0.00000E+00
 -1         8 3.54672E-05-3.67244E-07 0.00000E+00
 -1         9 2.97906E-05-1.43415E-06 0.00000E+00
 -1        10 2.94324E-05-7.58505E-07 0.00000E+00
 -1        11 2.35534E-05-1.95935E-06 0.00000E+00
 -1        12 2.35567E-05 2.93357E-07 0.00000E+00
 -1        15 2.61239E-05-3.85394E-07-1.03398E-25
 -1        16 2.16584E-05-1.49009E-06 0.00000E+00
 -1        17 2.20788E-05-1.67392E-06 0.00000E+00
 -1        18 2.20733E-05-1.78116E-07 0.00000E+00
 -1        19 2.26015E-05 5.84914E-07 0.00000E+00
 -1        20 2.27701E-05 7.32703E-06 0.00000E+00
 -1        21 2.24203E-05 1.59050E-05 1.65436E-24
 -1        23 7.32505E-06-3.32785E-05 2.01948E-28
 -1        24 7.27627E-06-2.05425E-06 0.00000E+00
 -1        25 2.09204E-05-9.19041E-08 0.00000E+00
 -1        26 2.13634E-05 7.93319E-07 0.00000E+00
 -1        27 2.07822E-05 6.95484E-06 0.00000E+00
 -1        28 2.03338E-05 1.56222E-05 0.00000E+00
 -1        31-4.43280E-06-2.08475E-06-2.06795E-25
 -1        32 0.00000E+00 0.00000E+00 0.00000E+00
 -1        33 1.98946E-05 1.06796E-06 0.00000E+00
 -1        34 1.92507E-05 6.92876E-06 0.00000E+00
 -1        35 1.84558E-05 1.54867E-05 0.00000E+00
 -1        36 4.39293E-05-3.25256E-19 0.00000E+00
 -1        37 4.39290E-05-5.29596E-19 0.00000E+00
 -1        38 4.39283E-05-2.21606E-19 0.00000E+00
 -1        39 4.39286E-05 5.83475E-21 1.03398E-25
 -1        40 4.39288E-05 9.42698E-20 0.00000E+00
 -1        41 4.39292E-05 5.58955E-20 0.00000E+00
 -1        42 4.39297E-05-2.00631E-19 0.00000E+00
 -1        43 4.39301E-05-3.62551E-19-6.46235E-27
 -1        44 4.39306E-05-2.58606E-19 2.58494E-26
 -1        45 4.39310E-05-3.48816E-19 0.00000E+00
 -1        46 4.39314E-05-2.36152E-19 1.03398E-25
 -1        47 4.39317E-05-2.48168E-20 0.00000E+00
 -1        48 4.39319E-05 7.06726E-20 0.00000E+00
 -1        49 4.39312E-05 2.48147E-19 0.00000E+00
 -1        50 4.39308E-05 1.70777E-19-1.65436E-24
 -1        51 4.33187E-05-6.17757E-08 0.00000E+00
 -1        52 4.22705E-05-1.21413E-07 0.00000E+00
 -1        53 4.08734E-05-1.80828E-07 0.00000E+00
 -1        54 3.92150E-05-2.40737E-07 0.00000E+00
 -1        55 3.73835E-05-3.01862E-07-8.27181E-25
 -1        56 4.31817E-05-3.55418E-07 0.00000E+00
 -1        57 4.24444E-05-8.39221E-07-1.32349E-23
 -1        58 4.17401E-05-1.40558E-06 0.00000E+00
 -1        59 4.10483E-05-2.02069E-06 0.00000E+00
 -1        60 4.03592E-05-2.64350E-06 2.64698E-23
 -1        61 3.96574E-05-3.23492E-06 1.32349E-23
 -1        62 3.89295E-05-3.75735E-06 0.00000E+00
 -1        63 3.81623E-05-4.17506E-06-1.32349E-23
 -1        64 3.73447E-05-4.45848E-06 0.00000E+00
 -1        65 3.64669E-05-4.58099E-06 1.32349E-23
 -1        66 3.55225E-05-4.52568E-06 2.64698E-23
 -1        67 3.45073E-05-4.27936E-06-1.32349E-23
 -1        68 3.34200E-05-3.84073E-06-2.64698E-23
 -1        69 3.22661E-05-3.21086E-06 0.00000E+00
 -1        70 3.10446E-05-2.40620E-06-1.32349E-23
 -1        86 4.34666E-05-2.32236E-07 0.00000E+00
 -1        87 4.20804E-05-4.69988E-07 3.30872E-24
 -1        88 3.95517E-05-7.09608E-07-6.61744E-24
 -1        89 3.56776E-05-9.53708E-07 3.30872E-24
 -1        90 3.19329E-05-1.19759E-06-6.61744E-24
 -1       121 3.13627E-05-1.26223E-07-3.30872E-24
 -1       122 3.11968E-05-2.52467E-07-1.65436E-24
 -1       123 3.09204E-05-3.78744E-07-3.30872E-24
 -1       124 3.05340E-05-5.05128E-07 0.00000E+00
 -1       125 3.00378E-05-6.31547E-07 0.00000E+00
 -1       191 2.38678E-05 4.88994E-08 0.00000E+00
 -1       192 2.38411E-05 9.77977E-08 0.00000E+00
 -1       193 2.37966E-05 1.46695E-07 1.65436E-24
 -1       194 2.37343E-05 1.95590E-07-8.27181E-25
 -1       195 2.36543E-05 2.44480E-07-1.65436E-24
 -1       251 3.51204E-05 3.13874E-07 6.61744E-24
 -1       252 3.47651E-05-7.57020E-07 0.00000E+00
 -1       253 3.44103E-05-2.04605E-06-1.32349E-23
 -1       254 3.40546E-05-2.01553E-06 0.00000E+00
 -1       255 3.36986E-05-1.17186E-06 0.00000E+00
 -1       256 3.33421E-05-3.46540E-08 0.00000E+00
 -1       257 3.29859E-05 4.22497E-07 0.00000E+00
 -1       258 3.26291E-05-7.62972E-07 0.00000E+00
 -1       259 3.22723E-05-2.01176E-06 0.00000E+00
 -1       260 3.19162E-05-1.74349E-06-6.61744E-24
 -1       261 3.15598E-05-7.25360E-07 0.00000E+00
 -1       262 3.12037E-05 2.63283E-07 0.00000E+00
 -1       263 3.08480E-05 4.88432E-07 0.00000E+00
 -1       264 3.04930E-05-7.71503E-07 0.00000E+00
 -1       265 3.01376E-05-1.93799E-06 0.00000E+00
 -1       266 3.39100E-05-3.75842E-07 0.00000E+00
 -1       267 3.23527E-05-3.78185E-07-4.13590E-25
 -1       268 3.07955E-05-3.80934E-07 8.27181E-25
 -1       269 2.92383E-05-3.82499E-07-2.06795E-25
 -1       270 2.76811E-05-3.84041E-07 2.06795E-25
 -1       271 3.42105E-05 6.89001E-07 0.00000E+00
 -1       272 3.30781E-05 1.33464E-06-1.32349E-23
 -1       273 3.20802E-05 1.62570E-06 2.64698E-23
 -1       274 3.11928E-05 1.60995E-06 1.32349E-23
 -1       275 3.03995E-05 1.34210E-06 0.00000E+00
 -1       276 2.96791E-05 8.77924E-07-1.32349E-23
 -1       277 2.90101E-05 2.75941E-07 0.00000E+00
 -1       278 2.83703E-05-4.04096E-07 0.00000E+00
 -1       279 2.77369E-05-1.10147E-06-2.64698E-23
 -1       280 2.70873E-05-1.75525E-06 0.00000E+00
 -1       281 2.63990E-05-2.30513E-06-2.64698E-23
 -1       282 2.56500E-05-2.69176E-06 1.32349E-23
 -1       283 2.48187E-05-2.85793E-06 2.64698E-23
 -1       284 2.38875E-05-2.74754E-06 1.32349E-23
 -1       285 2.28326E-05-2.31043E-06 0.00000E+00
 -1       301 2.84333E-05-1.44686E-06-3.30872E-24
 -1       302 2.70689E-05-1.45281E-06 8.27181E-25
 -1       303 2.57031E-05-1.45806E-06 1.65436E-24
 -1       304 2.43422E-05-1.46382E-06 0.00000E+00
 -1       305 2.29919E-05-1.47120E-06-3.30872E-24
 -1       306 2.89607E-05-4.90717E-07 0.00000E+00
 -1       307 2.82819E-05 1.65811E-08 0.00000E+00
 -1       308 2.77430E-05 1.53004E-07 0.00000E+00
 -1       309 2.73177E-05-1.89706E-08 6.61744E-24
 -1       310 2.69833E-05-4.33494E-07 0.00000E+00
 -1       311 2.67143E-05-1.02394E-06 0.00000E+00
 -1       312 2.64858E-05-1.72237E-06 1.32349E-23
 -1       313 2.62720E-05-2.46033E-06-6.61744E-24
 -1       314 2.60473E-05-3.16905E-06 0.00000E+00
 -1       315 2.57860E-05-3.77994E-06 0.00000E+00
 -1       316 2.54626E-05-4.22509E-06 0.00000E+00
 -1       317 2.50525E-05-4.43746E-06 0.00000E+00
 -1       318 2.45308E-05-4.35171E-06 0.00000E+00
 -1       319 2.38755E-05-3.90340E-06-6.61744E-24
 -1       320 2.30606E-05-3.03222E-06 6.61744E-24
 -1       336 2.86770E-05-9.10780E-07 0.00000E+00
 -1       337 2.77308E-05-1.06374E-06 1.65436E-24
 -1       338 2.65955E-05-1.21682E-06 3.30872E-24
 -1       339 2.52733E-05-1.36978E-06 0.00000E+00
 -1       340 2.37668E-05-1.52307E-06-3.30872E-24
 -1       356 2.35533E-05-1.81251E-06 0.00000E+00
 -1       357 2.35533E-05-1.66318E-06 0.00000E+00
 -1       358 2.35533E-05-1.51206E-06-2.01948E-28
 -1       359 2.35533E-05-1.35987E-06 0.00000E+00
 -1       360 2.35533E-05-1.20730E-06 8.07794E-28
 -1       361 2.35533E-05-1.05507E-06 0.00000E+00
 -1       362 2.35533E-05-9.03882E-07-3.23117E-27
 -1       363 2.35533E-05-7.54442E-07 0.00000E+00
 -1       364 2.35533E-05-6.07454E-07 1.29247E-26
 -1       365 2.35533E-05-4.63627E-07 1.29247E-26
 -1       366 2.35533E-05-3.23669E-07 0.00000E+00
 -1       367 2.35534E-05-1.88285E-07 0.00000E+00
 -1       368 2.35535E-05-5.81815E-08-2.06795E-25
 -1       369 2.35540E-05 6.59322E-08 2.06795E-25
 -1       370 2.35544E-05 1.83348E-07 0.00000E+00
 -1       376 2.34992E-05-1.81500E-06 0.00000E+00
 -1       377 2.34460E-05-1.67312E-06 0.00000E+00
 -1       378 2.33934E-05-1.53276E-06 0.00000E+00
 -1       379 2.33409E-05-1.39298E-06-5.04871E-29
 -1       380 2.32884E-05-1.25282E-06-2.01948E-28
 -1       381 2.32353E-05-1.11135E-06 0.00000E+00
 -1       382 2.31814E-05-9.67616E-07 0.00000E+00
 -1       383 2.31263E-05-8.20670E-07 0.00000E+00
 -1       384 2.30696E-05-6.69565E-07-6.46235E-27
 -1       385 2.30110E-05-5.13353E-07 0.00000E+00
 -1       386 2.29502E-05-3.51090E-07 0.00000E+00
 -1       387 2.28868E-05-1.81813E-07 0.00000E+00
 -1       388 2.28203E-05-4.59108E-09 1.03398E-25
 -1       389 2.27508E-05 1.81610E-07-1.03398E-25
 -1       390 2.26776E-05 3.77620E-07 0.00000E+00
 -1       406 2.34417E-05 3.42225E-07 1.65436E-24
 -1       407 2.33091E-05 3.91081E-07 0.00000E+00
 -1       408 2.31588E-05 4.39904E-07-1.65436E-24
 -1       409 2.29908E-05 4.88623E-07 0.00000E+00
 -1       410 2.28049E-05 5.37129E-07 0.00000E+00
 -1       501 2.16720E-05-4.58138E-07-3.30872E-24
 -1       502 2.16979E-05 1.64149E-08 8.27181E-25
 -1       503 2.17232E-05 8.07168E-08 0.00000E+00
 -1       504 2.17508E-05-1.18698E-07 0.00000E+00
 -1       505 2.17784E-05-5.06627E-07 0.00000E+00
 -1       506 2.18063E-05-1.00811E-06-4.13590E-25
 -1       507 2.18343E-05-1.57948E-06 8.27181E-25
 -1       508 2.18624E-05-2.17720E-06-4.13590E-25
 -1       509 2.18905E-05-2.76498E-06 0.00000E+00
 -1       510 2.19186E-05-3.30651E-06-4.13590E-25
 -1       511 2.19467E-05-3.75272E-06 0.00000E+00
 -1       512 2.19747E-05-4.05439E-06 4.13590E-25
 -1       513 2.20027E-05-4.12234E-06 0.00000E+00
 -1       514 2.20298E-05-3.86711E-06 0.00000E+00
 -1       515 2.20570E-05-3.11058E-06 0.00000E+00
 -1       521 2.04721E-05-6.94095E-07 0.00000E+00
 -1       522 1.94152E-05-3.10572E-07-1.32349E-23
 -1       523 1.84900E-05-2.75028E-07 0.00000E+00
 -1       524 1.76696E-05-5.29372E-07 0.00000E+00
 -1       525 1.69334E-05-1.00922E-06 2.64698E-23
 -1       526 1.62564E-05-1.64905E-06-1.32349E-23
 -1       527 1.56139E-05-2.38106E-06 0.00000E+00
 -1       528 1.49801E-05-3.13670E-06 0.00000E+00
 -1       529 1.43293E-05-3.84701E-06 2.64698E-23
 -1       530 1.36360E-05-4.44358E-06 0.00000E+00
 -1       531 1.28751E-05-4.85940E-06-2.64698E-23
 -1       532 1.20226E-05-5.02926E-06-1.32349E-23
 -1       533 1.10549E-05-4.89122E-06 0.00000E+00
 -1       534 9.95301E-06-4.38541E-06 1.32349E-23
 -1       535 8.69198E-06-3.45915E-06 0.00000E+00
 -1       536 2.20734E-05-1.01857E-07-1.65436E-24
 -1       537 2.20722E-05 1.08893E-06 0.00000E+00
 -1       538 2.20712E-05 1.93778E-06 4.13590E-25
 -1       539 2.20710E-05 2.48423E-06-1.03398E-25
 -1       540 2.20710E-05 2.76772E-06 0.00000E+00
 -1       541 2.20711E-05 2.82774E-06 0.00000E+00
 -1       542 2.20712E-05 2.70377E-06 1.03398E-25
 -1       543 2.20714E-05 2.43528E-06 0.00000E+00
 -1       544 2.20715E-05 2.06175E-06 0.00000E+00
 -1       545 2.20716E-05 1.62266E-06 1.61559E-27
 -1       546 2.20717E-05 1.15747E-06 2.58494E-26
 -1       547 2.20718E-05 7.05684E-07 0.00000E+00
 -1       548 2.20719E-05 3.06758E-07 0.00000E+00
 -1       549 2.20722E-05 1.68748E-10 2.06795E-25
 -1       550 2.20725E-05-1.74593E-07-2.06795E-25
 -1       551 1.98855E-05-1.73506E-06 8.27181E-25
 -1       552 1.74221E-05-1.79563E-06-7.23783E-25
 -1       553 1.48083E-05-1.85667E-06-1.65436E-24
 -1       554 1.21654E-05-1.91867E-06 0.00000E+00
 -1       555 9.61474E-06-1.98197E-06 0.00000E+00
 -1       556 2.14707E-05-1.59186E-07 6.61744E-24
 -1       557 2.09982E-05 1.00303E-06-3.30872E-24
 -1       558 2.06465E-05 1.84544E-06 0.00000E+00
 -1       559 2.04019E-05 2.40356E-06 0.00000E+00
 -1       560 2.02508E-05 2.71288E-06 0.00000E+00
 -1       561 2.01798E-05 2.80905E-06 0.00000E+00
 -1       562 2.01754E-05 2.72779E-06 0.00000E+00
 -1       563 2.02241E-05 2.50481E-06-3.30872E-24
 -1       564 2.03125E-05 2.17586E-06 0.00000E+00
 -1       565 2.04273E-05 1.77668E-06-1.65436E-24
 -1       566 2.05550E-05 1.34303E-06 0.00000E+00
 -1       567 2.06822E-05 9.10664E-07-4.13590E-25
 -1       568 2.07956E-05 5.15340E-07-2.06795E-25
 -1       569 2.08818E-05 1.92773E-07 0.00000E+00
 -1       570 2.09275E-05-2.13261E-08 8.27181E-25
 -1       571 2.21052E-05-1.13005E-07-8.27181E-25
 -1       572 2.21380E-05-6.91216E-08-2.06795E-25
 -1       573 2.21709E-05-4.26013E-08 0.00000E+00
 -1       574 2.22040E-05-2.93802E-08 2.06795E-25
 -1       575 2.22371E-05-2.53774E-08-8.27181E-25
 -1       576 2.22702E-05-2.64857E-08 0.00000E+00
 -1       577 2.23034E-05-2.85955E-08 0.00000E+00
 -1       578 2.23365E-05-2.75938E-08 0.00000E+00
 -1       579 2.23697E-05-1.93675E-08 0.00000E+00
 -1       580 2.24028E-05 1.96675E-10 0.00000E+00
 -1       581 2.24360E-05 3.52112E-08 0.00000E+00
 -1       582 2.24691E-05 8.97842E-08 0.00000E+00
 -1       583 2.25022E-05 1.68020E-07 0.00000E+00
 -1       584 2.25354E-05 2.73980E-07 0.00000E+00
 -1       585 2.25685E-05 4.11703E-07-1.65436E-24
 -1       586 2.19002E-05-1.63384E-07 0.00000E+00
 -1       587 2.17005E-05-1.48641E-07 0.00000E+00
 -1       588 2.14883E-05-1.33938E-07-2.06795E-25
 -1       589 2.12780E-05-1.19374E-07 0.00000E+00
 -1       590 2.10840E-05-1.05093E-07 0.00000E+00
 -1       591 2.20247E-05-1.01291E-07 0.00000E+00
 -1       592 2.19804E-05-4.04386E-08 0.00000E+00
 -1       593 2.19407E-05 7.69987E-09-8.27181E-25
 -1       594 2.19044E-05 4.60209E-08-4.13590E-25
 -1       595 2.18707E-05 7.74385E-08-8.27181E-25
 -1       596 2.18385E-05 1.04842E-07 0.00000E+00
 -1       597 2.18066E-05 1.31120E-07-4.13590E-25
 -1       598 2.17742E-05 1.59155E-07 0.00000E+00
 -1       599 2.17399E-05 1.91833E-07-4.13590E-25
 -1       600 2.17029E-05 2.32035E-07 0.00000E+00
 -1       601 2.16619E-05 2.82646E-07 0.00000E+00
 -1       602 2.16160E-05 3.46553E-07 0.00000E+00
 -1       603 2.15641E-05 4.26643E-07 2.06795E-25
 -1       604 2.15052E-05 5.25824E-07 1.29247E-25
 -1       605 2.14382E-05 6.46988E-07 0.00000E+00
 -1       606 2.26134E-05 8.24840E-07 0.00000E+00
 -1       607 2.26243E-05 1.09978E-06 8.27181E-25
 -1       608 2.26350E-05 1.40766E-06 0.00000E+00
 -1       609 2.26455E-05 1.74615E-06 0.00000E+00
 -1       610 2.26560E-05 2.11289E-06 0.00000E+00
 -1       611 2.26664E-05 2.50549E-06 0.00000E+00
 -1       612 2.26768E-05 2.92156E-06 0.00000E+00
 -1       613 2.26873E-05 3.35871E-06-4.13590E-25
 -1       614 2.26977E-05 3.81453E-06 0.00000E+00
 -1       615 2.27081E-05 4.28663E-06 0.00000E+00
 -1       616 2.27185E-05 4.77263E-06 0.00000E+00
 -1       617 2.27288E-05 5.27011E-06 0.00000E+00
 -1       618 2.27392E-05 5.77669E-06 0.00000E+00
 -1       619 2.27496E-05 6.28996E-06 0.00000E+00
 -1       620 2.27599E-05 6.80754E-06 0.00000E+00
 -1       621 2.23830E-05 6.19833E-07 0.00000E+00
 -1       622 2.21654E-05 6.54862E-07 0.00000E+00
 -1       623 2.19516E-05 6.89877E-07-8.27181E-25
 -1       624 2.17448E-05 7.24796E-07 4.13590E-25
 -1       625 2.15478E-05 7.59557E-07 4.13590E-25
 -1       626 2.25411E-05 8.41657E-07 0.00000E+00
 -1       627 2.24670E-05 1.13454E-06 0.00000E+00
 -1       628 2.23807E-05 1.46014E-06 0.00000E+00
 -1       629 2.22834E-05 1.81472E-06 0.00000E+00
 -1       630 2.21768E-05 2.19453E-06 0.00000E+00
 -1       631 2.20620E-05 2.59579E-06 0.00000E+00
 -1       632 2.19406E-05 3.01472E-06 0.00000E+00
 -1       633 2.18140E-05 3.44752E-06 0.00000E+00
 -1       634 2.16837E-05 3.89041E-06-8.27181E-25
 -1       635 2.15509E-05 4.33961E-06 0.00000E+00
 -1       636 2.14172E-05 4.79132E-06-8.27181E-25
 -1       637 2.12840E-05 5.24177E-06 0.00000E+00
 -1       638 2.11526E-05 5.68714E-06-8.27181E-25
 -1       639 2.10244E-05 6.12366E-06 0.00000E+00
 -1       640 2.09007E-05 6.54752E-06 4.13590E-25
 -1       656 2.23213E-05 7.26676E-06 0.00000E+00
 -1       657 2.19678E-05 7.20370E-06-8.27181E-25
 -1       658 2.16734E-05 7.14082E-06 0.00000E+00
 -1       659 2.14018E-05 7.07796E-06 8.27181E-25
 -1       660 2.11168E-05 7.01493E-06-8.27181E-25
 -1       661 2.26111E-05 7.85979E-06 8.27181E-25
 -1       662 2.24480E-05 8.40758E-06 0.00000E+00
 -1       663 2.22807E-05 8.96639E-06 0.00000E+00
 -1       664 2.21108E-05 9.53275E-06 0.00000E+00
 -1       665 2.19394E-05 1.01031E-05 0.00000E+00
 -1       666 2.17679E-05 1.06738E-05 0.00000E+00
 -1       667 2.15976E-05 1.12414E-05 8.27181E-25
 -1       668 2.14298E-05 1.18023E-05 4.13590E-25
 -1       669 2.12658E-05 1.23530E-05-8.27181E-25
 -1       670 2.11070E-05 1.28899E-05-4.13590E-25
 -1       671 2.09547E-05 1.34096E-05 0.00000E+00
 -1       672 2.08101E-05 1.39083E-05 0.00000E+00
 -1       673 2.06747E-05 1.43826E-05-8.27181E-25
 -1       674 2.05495E-05 1.48288E-05 0.00000E+00
 -1       675 2.04362E-05 1.52435E-05 0.00000E+00
 -1       676 2.20718E-05 1.58575E-05-1.65436E-24
 -1       677 2.17233E-05 1.58100E-05-8.27181E-25
 -1       678 2.13752E-05 1.57626E-05 0.00000E+00
 -1       679 2.10274E-05 1.57153E-05 8.27181E-25
 -1       680 2.06803E-05 1.56680E-05 0.00000E+00
 -1       716 7.32322E-06-3.13270E-05-4.03897E-28
 -1       717 7.32140E-06-2.93755E-05 2.01948E-28
 -1       718 7.31957E-06-2.74239E-05 0.00000E+00
 -1       719 7.31774E-06-2.54724E-05-8.07794E-28
 -1       720 7.31591E-06-2.35209E-05-3.23117E-27
 -1       721 7.31407E-06-2.15694E-05 0.00000E+00
 -1       722 7.31223E-06-1.96179E-05 1.29247E-26
 -1       723 7.31037E-06-1.76664E-05-1.29247E-26
 -1       724 7.30849E-06-1.57148E-05 5.16988E-26
 -1       725 7.30652E-06-1.37633E-05 0.00000E+00
 -1       726 7.30450E-06-1.18118E-05 2.06795E-25
 -1       727 7.30206E-06-9.86028E-06 0.00000E+00
 -1       728 7.29957E-06-7.90877E-06-8.27181E-25
 -1       729 7.29498E-06-5.95725E-06 0.00000E+00
 -1       730 7.29110E-06-4.00573E-06-3.30872E-24
 -1       766 5.32477E-06-2.06908E-06 3.30872E-24
 -1       767 3.37327E-06-2.07297E-06 8.27181E-25
 -1       768 1.42175E-06-2.07757E-06 8.27181E-25
 -1       769-5.29774E-07-2.08010E-06 2.06795E-25
 -1       770-2.48128E-06-2.08259E-06-4.13590E-25
 -1       771 6.26998E-06-4.46472E-07 0.00000E+00
 -1       772 5.37931E-06 8.42940E-07 0.00000E+00
 -1       773 4.59846E-06 1.83903E-06 1.32349E-23
 -1       774 3.91778E-06 2.56765E-06-6.61744E-24
 -1       775 3.32776E-06 3.05473E-06-1.32349E-23
 -1       776 2.81858E-06 3.32639E-06 0.00000E+00
 -1       777 2.38040E-06 3.40886E-06 2.64698E-23
 -1       778 2.00333E-06 3.32844E-06-6.61744E-24
 -1       779 1.67745E-06 3.11151E-06 0.00000E+00
 -1       780 1.39284E-06 2.78455E-06 0.00000E+00
 -1       781 1.13956E-06 2.37406E-06 0.00000E+00
 -1       782 9.07685E-07 1.90661E-06 0.00000E+00
 -1       783 6.87302E-07 1.40878E-06 0.00000E+00
 -1       784 4.68670E-07 9.07229E-07 6.61744E-24
 -1       785 2.41952E-07 4.28582E-07-1.32349E-23
 -1       786 2.09464E-05-1.69177E-08-2.06795E-25
 -1       787 2.09741E-05 3.95287E-08 0.00000E+00
 -1       788 2.10016E-05 8.08515E-08-8.27181E-25
 -1       789 2.10295E-05 1.10467E-07 0.00000E+00
 -1       790 2.10573E-05 1.31784E-07 8.27181E-25
 -1       791 2.10852E-05 1.48211E-07-4.13590E-25
 -1       792 2.11132E-05 1.63151E-07 0.00000E+00
 -1       793 2.11411E-05 1.80008E-07 4.13590E-25
 -1       794 2.11690E-05 2.02188E-07 0.00000E+00
 -1       795 2.11970E-05 2.33097E-07 4.13590E-25
 -1       796 2.12249E-05 2.76146E-07 0.00000E+00
 -1       797 2.12528E-05 3.34751E-07 4.13590E-25
 -1       798 2.12807E-05 4.12336E-07-8.27181E-25
 -1       799 2.13085E-05 5.12330E-07 4.13590E-25
 -1       800 2.13363E-05 6.38177E-07-8.27181E-25
 -1       801 1.92527E-05-6.92635E-08 0.00000E+00
 -1       802 1.53014E-05-5.12321E-08 0.00000E+00
 -1       803 1.02333E-05-3.78172E-08 0.00000E+00
 -1       804 5.21554E-06-2.60884E-08 0.00000E+00
 -1       805 1.41554E-06-9.28431E-09-6.61744E-24
 -1       806 2.08621E-05-3.11687E-08 0.00000E+00
 -1       807 2.08060E-05 2.05024E-08 0.00000E+00
 -1       808 2.07522E-05 6.55247E-08 8.27181E-25
 -1       809 2.06999E-05 1.06163E-07 4.13590E-25
 -1       810 2.06484E-05 1.44672E-07 0.00000E+00
 -1       811 2.05967E-05 1.83296E-07-4.13590E-25
 -1       812 2.05442E-05 2.24274E-07 0.00000E+00
 -1       813 2.04900E-05 2.69844E-07 4.13590E-25
 -1       814 2.04332E-05 3.22246E-07 8.27181E-25
 -1       815 2.03731E-05 3.83715E-07-4.13590E-25
 -1       816 2.03086E-05 4.56488E-07 4.13590E-25
 -1       817 2.02391E-05 5.42803E-07-2.06795E-25
 -1       818 2.01637E-05 6.44894E-07 4.13590E-25
 -1       819 2.00816E-05 7.64983E-07-4.13590E-25
 -1       820 1.99921E-05 9.05294E-07 8.27181E-25
 -1       821 2.13292E-05 9.91080E-07 4.13590E-25
 -1       822 2.12928E-05 1.23833E-06 0.00000E+00
 -1       823 2.12566E-05 1.52987E-06 8.27181E-25
 -1       824 2.12199E-05 1.86050E-06 0.00000E+00
 -1       825 2.11833E-05 2.22497E-06 0.00000E+00
 -1       826 2.11466E-05 2.61801E-06-4.13590E-25
 -1       827 2.11098E-05 3.03435E-06-8.27181E-25
 -1       828 2.10730E-05 3.46871E-06 0.00000E+00
 -1       829 2.10362E-05 3.91577E-06 0.00000E+00
 -1       830 2.09995E-05 4.37022E-06-4.13590E-25
 -1       831 2.09627E-05 4.82676E-06 0.00000E+00
 -1       832 2.09260E-05 5.28007E-06 4.13590E-25
 -1       833 2.08893E-05 5.72483E-06 0.00000E+00
 -1       834 2.08530E-05 6.15574E-06 0.00000E+00
 -1       835 2.08166E-05 6.56751E-06-4.13590E-25
 -1       836 2.11572E-05 8.38567E-07-8.27181E-25
 -1       837 2.09125E-05 8.85228E-07-4.13590E-25
 -1       838 2.06465E-05 9.31839E-07 0.00000E+00
 -1       839 2.03767E-05 9.78253E-07-4.13590E-25
 -1       840 2.01203E-05 1.02461E-06 4.13590E-25
 -1       841 2.12980E-05 1.00016E-06 0.00000E+00
 -1       842 2.12086E-05 1.27045E-06 0.00000E+00
 -1       843 2.11001E-05 1.59164E-06 4.13590E-25
 -1       844 2.09772E-05 1.95117E-06 2.06795E-25
 -1       845 2.08431E-05 2.34085E-06 0.00000E+00
 -1       846 2.07006E-05 2.75246E-06-2.06795E-25
 -1       847 2.05521E-05 3.18025E-06 4.13590E-25
 -1       848 2.03997E-05 3.61848E-06-2.06795E-25
 -1       849 2.02451E-05 4.06253E-06 4.13590E-25
 -1       850 2.00900E-05 4.50776E-06 0.00000E+00
 -1       851 1.99361E-05 4.94973E-06 2.06795E-25
 -1       852 1.97851E-05 5.38399E-06 0.00000E+00
 -1       853 1.96390E-05 5.80525E-06 0.00000E+00
 -1       854 1.94994E-05 6.20809E-06 0.00000E+00
 -1       855 1.93696E-05 6.58527E-06 0.00000E+00
 -1       856 2.07559E-05 7.36179E-06 2.06795E-25
 -1       857 2.07280E-05 7.82597E-06 0.00000E+00
 -1       858 2.07001E-05 8.33904E-06 0.00000E+00
 -1       859 2.06720E-05 8.89256E-06 0.00000E+00
 -1       860 2.06437E-05 9.47813E-06 0.00000E+00
 -1       861 2.06155E-05 1.00873E-05 0.00000E+00
 -1       862 2.05872E-05 1.07117E-05 8.27181E-25
 -1       863 2.05589E-05 1.13428E-05 4.13590E-25
 -1       864 2.05306E-05 1.19721E-05 0.00000E+00
 -1       865 2.05023E-05 1.25914E-05-4.13590E-25
 -1       866 2.04740E-05 1.31921E-05 0.00000E+00
 -1       867 2.04457E-05 1.37658E-05-4.13590E-25
 -1       868 2.04175E-05 1.43041E-05 0.00000E+00
 -1       869 2.03894E-05 1.47985E-05 4.13590E-25
 -1       870 2.03613E-05 1.52406E-05 8.27181E-25
 -1       871 2.04756E-05 6.95145E-06 0.00000E+00
 -1       872 2.02140E-05 6.94743E-06 0.00000E+00
 -1       873 1.99792E-05 6.94327E-06-4.13590E-25
 -1       874 1.97527E-05 6.93893E-06 1.03398E-25
 -1       875 1.95160E-05 6.93438E-06-2.06795E-25
 -1       876 2.06804E-05 7.36700E-06 0.00000E+00
 -1       877 2.05669E-05 7.81565E-06-8.27181E-25
 -1       878 2.04415E-05 8.29598E-06 1.65436E-24
 -1       879 2.03061E-05 8.80378E-06 8.27181E-25
 -1       880 2.01620E-05 9.33474E-06-1.65436E-24
 -1       881 2.00108E-05 9.88459E-06 0.00000E+00
 -1       882 1.98541E-05 1.04491E-05-1.65436E-24
 -1       883 1.96936E-05 1.10240E-05 0.00000E+00
 -1       884 1.95307E-05 1.16050E-05 0.00000E+00
 -1       885 1.93672E-05 1.21880E-05 0.00000E+00
 -1       886 1.92044E-05 1.27686E-05 0.00000E+00
 -1       887 1.90441E-05 1.33426E-05-8.27181E-25
 -1       888 1.88878E-05 1.39058E-05-1.65436E-24
 -1       889 1.87369E-05 1.44538E-05 4.13590E-25
 -1       890 1.85931E-05 1.49824E-05 8.27181E-25
 -1       891 2.00268E-05 1.55997E-05-8.27181E-25
 -1       892 1.97545E-05 1.55770E-05 0.00000E+00
 -1       893 1.94891E-05 1.55542E-05-4.13590E-25
 -1       894 1.92028E-05 1.55315E-05 0.00000E+00
 -1       895 1.88676E-05 1.55088E-05 2.06795E-25
 -1       956 1.98552E-05 1.29460E-06 4.13590E-25
 -1       957 1.98151E-05 1.56072E-06 0.00000E+00
 -1       958 1.97749E-05 1.86207E-06-4.13590E-25
 -1       959 1.97345E-05 2.19415E-06 8.27181E-25
 -1       960 1.96942E-05 2.55246E-06 8.27181E-25
 -1       961 1.96538E-05 2.93247E-06-8.27181E-25
 -1       962 1.96133E-05 3.32964E-06 1.65436E-24
 -1       963 1.95729E-05 3.73944E-06 4.13590E-25
 -1       964 1.95325E-05 4.15734E-06 8.27181E-25
 -1       965 1.94921E-05 4.57880E-06 0.00000E+00
 -1       966 1.94517E-05 4.99929E-06-1.65436E-24
 -1       967 1.94112E-05 5.41427E-06 0.00000E+00
 -1       968 1.93709E-05 5.81920E-06 1.65436E-24
 -1       969 1.93305E-05 6.20958E-06-8.27181E-25
 -1       970 1.92903E-05 6.58089E-06 1.65436E-24
 -1       971 1.92019E-05 7.28478E-06 1.65436E-24
 -1       972 1.91522E-05 7.69370E-06 8.27181E-25
 -1       973 1.91024E-05 8.14941E-06 0.00000E+00
 -1       974 1.90525E-05 8.64566E-06 0.00000E+00
 -1       975 1.90026E-05 9.17622E-06-1.65436E-24
 -1       976 1.89526E-05 9.73483E-06 0.00000E+00
 -1       977 1.89026E-05 1.03152E-05 0.00000E+00
 -1       978 1.88526E-05 1.09112E-05 0.00000E+00
 -1       979 1.88025E-05 1.15164E-05 0.00000E+00
 -1       980 1.87525E-05 1.21246E-05 0.00000E+00
 -1       981 1.87025E-05 1.27296E-05 0.00000E+00
 -1       982 1.86526E-05 1.33251E-05-8.27181E-25
 -1       983 1.86027E-05 1.39047E-05-1.65436E-24
 -1       984 1.85530E-05 1.44624E-05 8.27181E-25
 -1       985 1.85035E-05 1.49918E-05 8.27181E-25
 -3
    1PSTEP                         2           1           1          
  100CL  101 2.50000E-01         507                     0    1           1
 -4  STRESS      6    1
 -5  SXX         1    4    1    1
 -5  SYY         1    4    2    2
 -5  SZZ         1    4    3    3
 -5  SXY         1    4    1    2
 -5  SYZ         1    4    2    3
 -5  SZX         1    4    3    1
 -1         1-6.99202E+05-2.75118E+05-1.31211E+05-3.64898E+05-1.18841E-10 2.13428E-10
 -1         2-3.77112E+04-3.02102E+05-6.57104E+02 2.77475E+03 1.01318E-09-1.21800E-09
 -1         3 1.37884E+01-3.60907E+05 2.01594E+02-3.92304E+01-2.47891E-11 1.37925E-09
 -1         5-2.18932E+00 1.39908E+05 4.57525E+00-1.56542E+00 7.06546E-11 2.79979E-08
 -1         8-7.26847E+05-2.49845E+05-1.06720E+05-2.74844E+05-2.18279E-11 1.15360E-08
 -1         9-8.44840E+05-3.76646E+05-1.51357E+05-2.02158E+05-1.75169E-09 8.87667E-10
 -1        10-1.30560E+03-3.99132E+05-1.54134E+03-3.29901E+02-5.15911E-10 3.02121E-09
 -1        11 7.98294E-01-1.50225E+00-5.39816E-01 2.40019E-01 4.44776E-10 2.89899E-09
 -1        12-1.50471E+03 8.12831E+04-1.18603E+04 1.87133E+00 2.18542E-09-7.44803E-11
 -1        15 9.67778E+02 5.23343E+02 3.00352E+03 6.64402E-01-2.35005E-10-9.30711E-08
 -1        16-9.55885E+05-2.64378E+05-9.09178E+04-3.31006E+05-1.25857E-09 2.34650E-10
 -1        17-1.75405E+05-1.47103E+05-1.50405E+04-1.35445E+05 8.19455E-10-5.68737E-10
 -1        18 1.18088E+04 3.38069E+03-4.87757E+03-3.35511E+04 2.39083E-10 2.54022E-09
 -1        19 3.32961E+04 3.79206E+04-4.09145E+03 4.73139E+03 1.10754E-09 3.34239E-10
 -1        20 2.49703E+04-5.07712E+04-9.44625E+03 1.98083E+04 4.48760E-10-1.29330E-09
 -1        21-5.21119E+01-1.35915E+05-5.96484E+02-4.50110E+01 2.39517E-09-3.95237E-10
 -1        23 4.98202E-01 3.68911E-01 4.62396E+00 2.38708E-04-1.68087E-07 1.15844E-09
 -1        24-5.13730E+05-1.59236E+05 2.04017E+04-2.71897E+05-9.28412E-10 2.06637E-10
 -1        25 6.09444E+03 9.40045E+03 8.74366E+03-1.45089E+05 2.34922E-10-7.23048E-10
 -1        26-1.34831E+03 3.09482E+04-1.11232E+03-5.43774E+03-1.22000E-10 4.03934E-10
 -1        27-1.05385E+04-3.04529E+04-1.38871E+04 2.60065E+04 2.21470E-09-1.41654E-09
 -1        28-2.78986E+03-4.14993E+04-6.04906E+02 1.45222E+04 3.53486E-09 2.15631E-09
 -1        31 1.69223E+03 9.15120E+02 5.25180E+03 1.45591E+00 3.29570E-09 8.37836E-08
 -1        32-3.15120E+05-4.91018E+04 9.05028E+04-4.47175E+05-3.04863E-09 3.45665E-10
 -1        33-4.68285E+04 3.46679E+04 1.09624E+04-1.35406E+04-2.00506E-10-1.21706E-09
 -1        34-5.24087E+04-1.54482E+03 5.25446E+03 1.90709E+04 1.89123E-09-1.39721E-09
 -1        35-1.00477E+04-1.39052E+04-7.53822E+02 2.33030E+04 6.47844E-10 1.41275E-09
 -1        36-4.29401E+03-1.23744E+04 2.85347E+04 1.01272E-07 1.74751E-10-5.96629E-10
 -1        37 8.10611E+03 1.43230E+04 2.02038E+04-5.77075E-07-6.40024E-11-1.74077E-09
 -1        38 4.77657E+02-1.94573E+03 7.38920E+03 5.04847E-07-1.89759E-11 1.59162E-11
 -1        39 2.54435E+03 2.25184E+03 4.65629E+03 2.63098E-07-2.85453E-11 1.85719E-09
 -1        40 1.26662E+03-3.05697E+02 1.91063E+03 1.09296E-07-3.74921E-11 6.16410E-10
 -1        41 1.62623E+03 3.60703E+02 1.15894E+03 1.42020E-07-4.71798E-11 3.51952E-09
 -1        42 1.39572E+03-5.49553E+01 5.98453E+02-2.37910E-07-5.71689E-12 4.06496E-09
 -1        43 1.49823E+03 1.11813E+02 5.35886E+02 2.34546E-07 4.44751E-11-3.84064E-09
 -1        44 1.39462E+03-5.68469E+01 6.15226E+02-5.16905E-07-1.69899E-11-2.85351E-09
 -1        45 1.63493E+03 3.76928E+02 1.20753E+03-1.43618E-07 5.42671E-12-8.58478E-10
 -1        46 1.25901E+03-3.20030E+02 1.99797E+03 9.11593E-08 2.36439E-11-1.17973E-09
 -1        47 2.59688E+03 2.35804E+03 4.87468E+03-6.53122E-08 2.41284E-10 9.43089E-10
 -1        48 4.32740E+02-2.03759E+03 7.73745E+03-2.02049E-07-3.19460E-10-6.00085E-09
 -1        49 8.42131E+03 1.49994E+04 2.11574E+04 2.82054E-07 4.88390E-11-2.68756E-09
 -1        50-4.56417E+03-1.29586E+04 2.98823E+04-4.83433E-07 2.10535E-09 1.11140E-09
 -1        51 9.92045E+03-1.63307E+05 1.74721E+04-4.27849E+05 2.91038E-11-9.09495E-10
 -1        52 4.27172E+03-1.61270E+05 1.12280E+04-4.76956E+05-5.82077E-11-2.79397E-09
 -1        53 2.72848E+03-1.64463E+05 1.00232E+04-4.26669E+05 2.91038E-11-2.99406E-09
 -1        54 7.74046E+03-1.62135E+05 1.64096E+04-4.78247E+05 3.63798E-12-1.53523E-09
 -1        55 1.97568E+04-1.67418E+05 3.04107E+04-4.26494E+05-2.91038E-11 1.65164E-09
 -1        56-1.99047E+06-2.18836E+05-1.68170E+05-7.71621E+05-3.63798E-12-3.60160E-09
 -1        57-2.06960E+06-3.66568E+05-1.14390E+05-7.52385E+05 7.04404E-10-2.30102E-09
 -1        58-2.02411E+06-2.74696E+05-3.95443E+04-7.61179E+05-1.13505E-09-1.40790E-09
 -1        59-2.03067E+06-3.01373E+05-2.39285E+04-7.64650E+05 2.82057E-10 1.61663E-09
 -1        60-2.02914E+06-2.82816E+05-9.24742E+03-7.59772E+05-1.95314E-10 4.01087E-10
 -1        61-2.02513E+06-2.91630E+05-5.33462E+03-7.65939E+05-9.53406E-10 1.90522E-09
 -1        62-2.02959E+06-2.84275E+05-2.54224E+03-7.59938E+05-5.10909E-10 2.10741E-09
 -1        63-2.02524E+06-2.89562E+05-2.14121E+03-7.65109E+05 4.67537E-10 1.08784E-09
 -1        64-2.02902E+06-2.84869E+05-2.42710E+03-7.60603E+05-2.07478E-11-2.65072E-09
 -1        65-2.02727E+06-2.89281E+05-4.97975E+03-7.63380E+05-1.07269E-09-3.31147E-09
 -1        66-2.02756E+06-2.84577E+05-8.59868E+03-7.61659E+05 2.24873E-10-2.54204E-10
 -1        67-2.03426E+06-2.96446E+05-2.22026E+04-7.60041E+05-2.86491E-10-2.82989E-09
 -1        68-2.02208E+06-2.77858E+05-3.66962E+04-7.63894E+05 4.76575E-10 1.36424E-10
 -1        69-2.07165E+06-3.55672E+05-1.06125E+05-7.47230E+05-7.33507E-10 5.72982E-10
 -1        70-1.99042E+06-2.26477E+05-1.56034E+05-7.74087E+05-2.54659E-11 1.42609E-09
 -1        86 1.33391E+04-6.74455E+05-3.13702E+04-6.30578E+02 1.27329E-09-2.45391E-09
 -1        87-1.66484E+04-6.86689E+05-2.40944E+04 1.84127E+03-1.21463E-09 1.97220E-08
 -1        88 3.31744E+03-6.79439E+05-1.27374E+04 3.07732E+03 7.64196E-08 2.34559E-05
 -1        89-1.16999E+04-6.83620E+05-1.76162E+04-1.44166E+03 2.04118E-07 4.68576E-05
 -1        90 8.39847E+03-6.77522E+05-2.07292E+04 2.65265E+03 6.94990E-08 2.34592E-05
 -1       121-1.47078E+01-3.60985E+05 2.35151E+02 1.96129E+01-5.23386E-11 1.39380E-10
 -1       122 9.00946E+01-3.60857E+05 4.47323E+02-7.82875E+01-1.11193E-10 3.11354E-09
 -1       123-7.76913E+01-3.61036E+05 7.63294E+02 5.86659E+01-1.96508E-10-5.35465E-10
 -1       124 9.45947E+02-3.60353E+05 1.88463E+03-1.78946E+02-6.02327E-11 3.67436E-10
 -1       125-7.02736E+02-3.61490E+05 2.90813E+03 1.20374E+02-4.04043E-10 2.04909E-09
 -1       191-2.20380E+00 1.39920E+05 5.50774E+00 7.82565E-01 9.28182E-11 1.09394E-08
 -1       192-6.54774E-01 1.39909E+05 1.01601E+01-7.04226E+00 1.40375E-10-5.77302E-10
 -1       193 2.63610E+00 1.39919E+05 1.92996E+01 6.25949E+00 1.67120E-10 2.74213E-10
 -1       194 1.86848E+01 1.39915E+05 4.32113E+01-5.39379E+01 8.04903E-11-1.97156E-09
 -1       195 5.76884E+01 1.39913E+05 8.79023E+01 4.76902E+01 2.03272E-10-6.19593E-10
 -1       251-1.00937E+06 2.18972E+04-5.10848E+04 4.70722E+02 1.78542E-06 3.38987E-08
 -1       252-1.02749E+06-2.53416E+04-3.54649E+04-2.14327E+03 3.29170E-06 3.13321E-09
 -1       253-1.01718E+06 3.44471E+03-1.33069E+04 1.57964E+03 1.74951E-06-3.89355E-09
 -1       254-1.01909E+06-4.06153E+03-8.12985E+03 6.83076E+02-1.85186E-09-3.67436E-09
 -1       255-1.01775E+06 6.17241E+02-3.38470E+03-2.35603E+03 8.05162E-10 1.65983E-11
 -1       256-1.01698E+06-6.55104E+02-1.80030E+03 1.33284E+03 5.07836E-10-3.20449E-09
 -1       257-1.01928E+06 3.77427E+01-1.30623E+03 9.29746E+02 8.67377E-07 1.75726E-09
 -1       258-1.01565E+06-9.05688E+01-4.22431E+02-2.25862E+03 1.61069E-06 3.03939E-09
 -1       259-1.01908E+06 5.51362E+01-1.24171E+03 1.23561E+03 8.60449E-07 2.17818E-09
 -1       260-1.01721E+06-6.56765E+02-1.78345E+03 1.05847E+03-2.88892E-09 1.43768E-09
 -1       261-1.01772E+06 6.01233E+02-3.25205E+03-2.38753E+03-9.29252E-10-1.31649E-10
 -1       262-1.01883E+06-3.89329E+03-7.77965E+03 9.85404E+02-6.37324E-10-1.37970E-09
 -1       263-1.01747E+06 3.29162E+03-1.28603E+04 1.30876E+03 1.15514E-07-1.15415E-09
 -1       264-1.02695E+06-2.43795E+04-3.40931E+04-2.20910E+03 2.17790E-07-3.41925E-09
 -1       265-1.00961E+06 2.10870E+04-4.91426E+04 8.07344E+02 1.12754E-07 2.92130E-09
 -1       266-1.70151E+04-7.86998E+03 3.92639E+04-1.36714E+01-2.25555E-10-1.31836E-07
 -1       267 1.97043E+04 9.18790E+03 2.78559E+04 1.57213E+01-3.74712E-10-2.69275E-07
 -1       268-2.68499E+03-1.31557E+03 1.03101E+04-2.04720E+00-2.88765E-10-2.13237E-07
 -1       269 3.16939E+03 1.57736E+03 6.73839E+03 2.37999E+00-2.41357E-10-1.62027E-07
 -1       270-4.83819E+02-2.61670E+02 3.23525E+03-3.32098E-01-2.38970E-10-1.24713E-07
 -1       271-1.92981E+06-2.32558E+05-1.54353E+05-7.46984E+05-4.36557E-10 4.32192E-09
 -1       272-1.98591E+06-3.49712E+05-9.99817E+04-7.46023E+05-1.79625E-11-1.45519E-10
 -1       273-1.95864E+06-2.73125E+05-3.64398E+04-7.40282E+05 7.57382E-10 2.82853E-09
 -1       274-1.95240E+06-3.00301E+05-2.06181E+04-7.55608E+05-2.32433E-10-6.61657E-10
 -1       275-1.96270E+06-2.77521E+05-8.49134E+03-7.39083E+05 3.76872E-10 2.04409E-09
 -1       276-1.94757E+06-2.95113E+05-4.58706E+03-7.57394E+05-4.50427E-10-1.38891E-09
 -1       277-1.96345E+06-2.77813E+05-2.27706E+03-7.38706E+05-2.35900E-10 6.71605E-10
 -1       278-1.94680E+06-2.94791E+05-1.76275E+03-7.57846E+05-4.53895E-10 9.20863E-11
 -1       279-1.96350E+06-2.77787E+05-2.01005E+03-7.38663E+05-1.66494E-10-5.82645E-10
 -1       280-1.94733E+06-2.95113E+05-3.83535E+03-7.57579E+05 2.33740E-10 5.47971E-10
 -1       281-1.96290E+06-2.77531E+05-6.99745E+03-7.38952E+05 3.81647E-10-1.83945E-09
 -1       282-1.95130E+06-2.99354E+05-1.69353E+04-7.56098E+05 5.01359E-10 2.67551E-09
 -1       283-1.95954E+06-2.73958E+05-2.99069E+04-7.39971E+05 1.22895E-10 4.03816E-10
 -1       284-1.97889E+06-3.39795E+05-8.20418E+04-7.48108E+05-1.18689E-09-5.27507E-10
 -1       285-1.93581E+06-2.40751E+05-1.26668E+05-7.45554E+05-9.74978E-10 1.57888E-09
 -1       301 1.53271E+04-1.11549E+04 4.98357E+04-1.31446E+04-7.02130E-10-5.62693E-10
 -1       302 6.20366E+03-4.94951E+02 3.28656E+04-1.65939E+04-1.89141E-09 5.79430E-11
 -1       303 9.89123E+02-7.31286E+03 2.85717E+04-1.31504E+04-6.35282E-10 1.36765E-09
 -1       304 9.96877E+03 2.60500E+03 4.53006E+04-1.65773E+04-1.54887E-09 3.86933E-10
 -1       305 2.54478E+04-1.42459E+04 7.90245E+04-1.31448E+04-4.32919E-10-8.31733E-10
 -1       306-1.06116E+06-1.34436E+05-6.56020E+04-4.09998E+05 1.73259E-10-1.68438E-09
 -1       307-1.07332E+06-1.95618E+05-4.24518E+04-4.22728E+05 8.33438E-10-3.12502E-09
 -1       308-1.07354E+06-1.51488E+05-1.54997E+04-4.07011E+05 2.58069E-10-5.76620E-10
 -1       309-1.05900E+06-1.74829E+05-8.76644E+03-4.27061E+05 6.25732E-10-2.47996E-09
 -1       310-1.07532E+06-1.53284E+05-3.63170E+03-4.06443E+05 8.99263E-10 1.53750E-09
 -1       311-1.05694E+06-1.72678E+05-1.99143E+03-4.27909E+05 3.43425E-09 4.69373E-09
 -1       312-1.07563E+06-1.53400E+05-1.05368E+03-4.06285E+05 8.48672E-11-1.97346E-10
 -1       313-1.05668E+06-1.72508E+05-9.39847E+02-4.28048E+05-7.34417E-10 1.24146E-10
 -1       314-1.07559E+06-1.53428E+05-1.23490E+03-4.06322E+05-1.84264E-09-1.13562E-09
 -1       315-1.05713E+06-1.72647E+05-2.49792E+03-4.27737E+05-4.92946E-10-5.02951E-10
 -1       316-1.07515E+06-1.53307E+05-4.63946E+03-4.06559E+05-1.60753E-10 1.69848E-09
 -1       317-1.05980E+06-1.75399E+05-1.12475E+04-4.26632E+05 7.94898E-10 4.55861E-09
 -1       318-1.07287E+06-1.50983E+05-1.99023E+04-4.07270E+05 8.42419E-11-1.07502E-09
 -1       319-1.07813E+06-2.02180E+05-5.45261E+04-4.21170E+05 1.17473E-09-8.81300E-10
 -1       320-1.05704E+06-1.29006E+05-8.42476E+04-4.11031E+05-2.36469E-11 1.41517E-09
 -1       336 1.16269E+03-4.36224E+05-4.86999E+03 2.09391E+02-5.60533E-10 1.29876E-09
 -1       337-2.09331E+03-4.38101E+05-5.01355E+03-5.52124E+02 2.10690E-10-5.53314E-10
 -1       338 6.79612E+02-4.36490E+05-5.41441E+03 3.42491E+02-7.90806E-10-1.83445E-09
 -1       339-6.31573E+03-4.40432E+05-1.17943E+04-8.17496E+02 5.83896E-10 4.76120E-10
 -1       340 4.91128E+03-4.33899E+05-1.73340E+04 4.73751E+02-1.05501E-09 2.27737E-09
 -1       356-2.40798E-01 9.55143E-02-7.98590E-01-6.38780E-01-6.39672E-08 5.47385E-10
 -1       357-4.36173E-01-1.77552E-01-1.68552E+00 2.57102E+00-1.28117E-07 2.01616E-09
 -1       358-2.01221E-01 8.24099E-02-3.18991E+00-6.38676E-01-7.59248E-08-8.56610E-10
 -1       359-8.12918E-01-5.56407E-01-6.69414E+00 2.57095E+00-2.37278E-08 5.69838E-10
 -1       360 1.35905E-01 4.74418E-01-1.27885E+01-6.38701E-01 2.30621E-08 2.90274E-09
 -1       361-2.95525E+00-3.60801E+00-2.73500E+01 2.57100E+00 6.99338E-08-1.03981E-09
 -1       362 1.94115E+00 3.13388E+00-5.11968E+01-6.38726E-01 9.26725E-08 1.55705E-10
 -1       363-1.47636E+01-2.35296E+01-1.12771E+02 2.57202E+00 1.15169E-07 2.65094E-09
 -1       364 1.19445E+01 2.03937E+01-2.04212E+02-6.39731E-01 1.12730E-07 6.24425E-10
 -1       365-8.22754E+01-1.51620E+02-4.70650E+02 2.57951E+00 1.11166E-07-6.46708E-10
 -1       366 6.94551E+01 1.31206E+02-8.09734E+02-6.46210E-01 8.51163E-08-1.13545E-09
 -1       367-4.80045E+02-9.69550E+02-1.99900E+03 2.62389E+00 5.96468E-08-2.59536E-09
 -1       368 4.09736E+02 8.38185E+02-3.17996E+03-6.84091E-01 2.01785E-08 4.72482E-10
 -1       369-2.87650E+03-6.17052E+03-8.70227E+03 2.87754E+00-2.09588E-08-5.45697E-12
 -1       370 2.46619E+03 5.33122E+03-1.22904E+04-8.99734E-01-8.64486E-09 2.01999E-09
 -1       376-3.56384E-01 5.79528E-01-3.58989E-01 5.88946E-01 2.50158E-07-9.42477E-08
 -1       377 2.01960E+00-2.09951E+00-6.46536E-01-2.21391E+00 4.99196E-07-1.88812E-07
 -1       378-3.41404E-01 5.65873E-01-1.15840E+00 6.01311E-01 1.27972E-07-4.86827E-08
 -1       379 1.79092E+00-2.33854E+00-2.57840E+00-2.20929E+00-2.43398E-07 8.92857E-08
 -1       380-1.27673E-01 8.18593E-01-4.99154E+00 5.84318E-01-6.93116E-07 2.60315E-07
 -1       381 4.06972E-01-4.26812E+00-1.15605E+01-1.97088E+00-1.14157E-06 4.29330E-07
 -1       382 1.04257E+00 2.49530E+00-2.18909E+01 3.62967E-01-1.57405E-06 5.90375E-07
 -1       383-7.63758E+00-1.66736E+01-5.25150E+01-6.64426E-02-2.00680E-06 7.50951E-07
 -1       384 7.91682E+00 1.32228E+01-9.57473E+01-1.31953E+00-2.39617E-06 8.98306E-07
 -1       385-5.63739E+01-9.59839E+01-2.41334E+02 1.32837E+01-2.78512E-06 1.04823E-06
 -1       386 4.97785E+01 8.17963E+01-4.16477E+02-1.29832E+01-3.08209E-06 1.15545E-06
 -1       387-3.52846E+02-6.00634E+02-1.12431E+03 1.04198E+02-3.37667E-06 1.26493E-06
 -1       388 3.04388E+02 5.17802E+02-1.79806E+03-9.22043E+01-3.35210E-06 1.25644E-06
 -1       389-2.17534E+03-3.80400E+03-5.33144E+03 7.07240E+02-3.32518E-06 1.24842E-06
 -1       390 1.87232E+03 3.28469E+03-7.67368E+03-6.15806E+02-1.66196E-06 6.22500E-07
 -1       406 7.29320E+01 1.39907E+05 2.88477E+02-4.76324E+01 3.46063E-10-1.31922E-09
 -1       407 1.14572E+02 1.39968E+05 5.74467E+02 4.83284E+01 3.07523E-11-1.99816E-09
 -1       408 2.96200E+02 1.39871E+05 1.13039E+03-6.34201E-01 3.35319E-10 6.33918E-10
 -1       409 1.22056E+03 1.40324E+05 2.53966E+03-4.54496E+01-2.23963E-11 2.64481E-09
 -1       410 3.50250E+03 1.39551E+05 5.18242E+03 4.73146E+01 4.09273E-10 2.82262E-09
 -1       501 6.58188E+04-3.25134E+04 7.49277E+04 2.81866E+02-3.40037E-10-2.69210E-10
 -1       502 9.87166E+04 3.76305E+04 5.30991E+04-5.74104E+02-3.62370E-10 1.72076E-09
 -1       503 7.84696E+04-5.10833E+03 1.93908E+04 8.89304E+01-3.41675E-10-7.12134E-10
 -1       504 8.39586E+04 5.90919E+03 1.22103E+04-3.06767E+02 2.12018E-09-4.98198E-09
 -1       505 8.05700E+04-7.99734E+02 4.96647E+03 1.45325E+01 2.33673E-06-1.39153E-10
 -1       506 8.15063E+04 9.31228E+02 2.93503E+03-2.05404E+02 4.65886E-06-1.11362E-09
 -1       507 8.09219E+04-1.31114E+02 1.36639E+03-1.24331E+01 1.62071E-06 5.11369E-09
 -1       508 8.11178E+04 1.98027E+02 9.54380E+02-1.82290E+02-1.41557E-06-4.90878E-10
 -1       509 8.09586E+04-6.66257E+01 7.95449E+02-8.58157E+00-7.09048E-07-1.65915E-09
 -1       510 8.12146E+04 3.78394E+02 1.28198E+03-2.22957E+02-4.93398E-10-2.51453E-09
 -1       511 8.08251E+04-3.11574E+02 1.99285E+03 2.82334E+01 3.99216E-10-1.62117E-10
 -1       512 8.21910E+04 2.29349E+03 4.78198E+03-3.50898E+02 5.14429E-10 5.25233E-11
 -1       513 7.99824E+04-1.98150E+03 7.53642E+03 1.19361E+02 4.56646E-10 1.06547E-09
 -1       514 8.80814E+04 1.46221E+04 2.06633E+04-6.52685E+02 1.78268E-10-1.91676E-10
 -1       515 7.49362E+04-1.26383E+04 2.90482E+04 3.30020E+02 1.18823E-09 7.73070E-10
 -1       521-1.98342E+06-2.46416E+05-1.31460E+05-7.64354E+05-1.44610E-09 5.60249E-10
 -1       522-2.02648E+06-3.50811E+05-8.51374E+04-7.68845E+05 4.31100E-10 1.56706E-09
 -1       523-2.00808E+06-2.80831E+05-3.10333E+04-7.58511E+05-8.32529E-10-1.65892E-09
 -1       524-1.99783E+06-3.08886E+05-1.75641E+04-7.77200E+05 4.68390E-11-9.76797E-10
 -1       525-2.01158E+06-2.84534E+05-7.24284E+03-7.57449E+05 6.98719E-10 2.82353E-09
 -1       526-1.99374E+06-3.04455E+05-3.93806E+03-7.78710E+05 1.52818E-09 9.19101E-10
 -1       527-2.01216E+06-2.84831E+05-2.00178E+03-7.57183E+05-9.13815E-10-1.03643E-09
 -1       528-1.99325E+06-3.04019E+05-1.64354E+03-7.78884E+05-9.36836E-10-5.26143E-10
 -1       529-2.01207E+06-2.84932E+05-1.99644E+03-7.57292E+05-1.40858E-09-2.26180E-09
 -1       530-1.99408E+06-3.04080E+05-3.91493E+03-7.78256E+05-8.10132E-10-1.88993E-09
 -1       531-2.01130E+06-2.84831E+05-7.20648E+03-7.57768E+05-6.24141E-10 8.65839E-10
 -1       532-1.99849E+06-3.08125E+05-1.74564E+04-7.76321E+05-2.56932E-11 3.31693E-09
 -1       533-2.00764E+06-2.81334E+05-3.08562E+04-7.59024E+05 9.75717E-11 2.20098E-09
 -1       534-2.02730E+06-3.49451E+05-8.46229E+04-7.67609E+05 3.34239E-11-1.45519E-10
 -1       535-1.98296E+06-2.47299E+05-1.30683E+05-7.65023E+05-1.33332E-09 3.63798E-10
 -1       536-3.55947E+03-7.07044E+03 2.24299E+04-1.58699E+03 4.68390E-10-5.38421E-10
 -1       537 5.38831E+03 8.52759E+03 1.49710E+04-1.77161E+04-1.93859E-09 4.28145E-10
 -1       538-9.25133E+00-8.81143E+02 5.81673E+03-1.54882E+03-1.66438E-10-1.58548E-09
 -1       539 1.28214E+03 1.00199E+03 3.39076E+03-1.77590E+04 1.19439E-09-9.59517E-11
 -1       540 4.60668E+02-1.18386E+02 1.46748E+03-1.54315E+03 6.86668E-11-1.67870E-09
 -1       541 6.81623E+02 1.16187E+02 7.97358E+02-1.77641E+04 5.38307E-10-1.22498E-09
 -1       542 5.28163E+02-1.74520E+01 3.53378E+02-1.54379E+03-4.05862E-10 2.82768E-10
 -1       543 5.60850E+02 2.01120E+01 1.65280E+02-1.77631E+04 1.13687E-13-1.39984E-09
 -1       544 5.40654E+02 8.64344E-01 3.41419E+01-1.54415E+03 3.45949E-10 9.94731E-10
 -1       545 5.17454E+02-3.12728E+00-7.74427E+01-1.77628E+04-6.16595E-10 2.99212E-09
 -1       546 5.53055E+02 1.79041E+01-2.08679E+02-1.54415E+03 4.20968E-10 1.17470E-09
 -1       547 4.35166E+02-1.47917E+02-5.18461E+02-1.77609E+04-9.56788E-10 5.43196E-10
 -1       548 6.26723E+02 1.32723E+02-9.11109E+02-1.54604E+03-4.07340E-10-2.26828E-09
 -1       549-1.67811E+02-1.33945E+03-2.34130E+03-1.77381E+04-5.41831E-10-5.20799E-10
 -1       550 1.18211E+03 1.09204E+03-3.52921E+03-1.56691E+03-7.77618E-11 1.48009E-09
 -1       551 3.76677E+03-1.64125E+05 1.12531E+04-2.66201E+05-1.00590E-09 1.29694E-09
 -1       552 2.92174E+03-1.62299E+05 1.15183E+04-3.35018E+05-1.39335E-09 1.78261E-09
 -1       553 1.87194E+03-1.64291E+05 1.63825E+04-2.65645E+05-1.05138E-09-9.07221E-10
 -1       554 9.59516E+03-1.57011E+05 3.33127E+04-3.35105E+05-1.43700E-09 2.38879E-09
 -1       555 2.16360E+04-1.69758E+05 6.24181E+04-2.66069E+05-6.49379E-10-1.45337E-09
 -1       556-3.20684E+04-5.23164E+04 1.52073E+04-8.18462E+04 1.13505E-09-8.22183E-10
 -1       557-1.64766E+04-6.65510E+04 7.77563E+03-9.42560E+04 1.72986E-09-5.68434E-12
 -1       558-3.18106E+04-5.54557E+04 3.25354E+03-7.95475E+04 9.24047E-10-2.76123E-09
 -1       559-1.81277E+04-6.87942E+04 1.61212E+03-9.48600E+04 1.02955E-09 1.19826E-10
 -1       560-3.19394E+04-5.53895E+04 7.16277E+02-7.95717E+04-6.54836E-11 8.99490E-10
 -1       561-1.84362E+04-6.88010E+04 3.52406E+02-9.50595E+04 3.49246E-10 1.38914E-09
 -1       562-3.20665E+04-5.52915E+04 1.45613E+02-7.96644E+04-4.76575E-10 1.31888E-09
 -1       563-1.85908E+04-6.87368E+04 5.52493E+01-9.51625E+04-5.18412E-10 4.89081E-10
 -1       564-3.21450E+04-5.52356E+04-2.23212E+01-7.97215E+04-1.49885E-09-6.03450E-10
 -1       565-1.86729E+04-6.87049E+04-1.06671E+02-9.52131E+04-1.47611E-09 1.48793E-09
 -1       566-3.21642E+04-5.52130E+04-2.53839E+02-7.97404E+04-8.57722E-09 2.99087E-09
 -1       567-1.87283E+04-6.87168E+04-5.71698E+02-9.52061E+04-2.57062E-08-1.47543E-08
 -1       568-3.20921E+04-5.52715E+04-1.17851E+03-7.97088E+04-1.05383E-08 2.21280E-09
 -1       569-1.94813E+04-6.92438E+04-2.78366E+03-9.49146E+04-2.09957E-09 3.07864E-10
 -1       570-3.15113E+04-5.68045E+04-5.48028E+03-7.91505E+04-1.60981E-09 5.81849E-10
 -1       571 9.44260E+04 3.96084E+03 5.93034E+03-2.30977E+04 9.18817E-10 5.17048E-10
 -1       572 9.53193E+04 1.36922E+03 2.90758E+03-2.53686E+04 1.36549E-09-1.38834E-09
 -1       573 9.47906E+04 3.20027E+02 1.29224E+03-2.30376E+04 1.01888E-08-1.28898E-09
 -1       574 9.48982E+04 1.01691E+02 6.47619E+02-2.54359E+04 1.81413E-08 7.41693E-10
 -1       575 9.48338E+04 1.12903E+01 3.05386E+02-2.30297E+04 8.27879E-09-3.32648E-10
 -1       576 9.48432E+04 9.41403E-01 1.55141E+02-2.54448E+04-1.24246E-10-1.28739E-09
 -1       577 9.48403E+04-4.45905E+00 7.59604E+01-2.30287E+04 7.84041E-10-8.33097E-10
 -1       578 9.48364E+04-3.03719E+00 4.03743E+01-2.54458E+04 4.37012E-10 1.40972E-09
 -1       579 9.48439E+04-3.69217E+00 2.29832E+01-2.30287E+04 1.47566E-10 1.70280E-09
 -1       580 9.48397E+04-3.75396E+00 1.84926E+01-2.54444E+04 8.51514E-10 1.37015E-09
 -1       581 9.48492E+04-4.70896E+00 2.20962E+01-2.30301E+04 2.38288E-10-1.25237E-09
 -1       582 9.48499E+04-1.36124E+00 3.95869E+01-2.54303E+04 2.36469E-11-1.10822E-09
 -1       583 9.48546E+04 8.74857E+00 7.48090E+01-2.30427E+04-2.11912E-10 6.36078E-10
 -1       584 9.48840E+04 6.64732E+01 1.66788E+02-2.53249E+04-3.04681E-10 9.51900E-10
 -1       585 9.48431E+04 2.12871E+02 3.38367E+02-2.31357E+04 3.80169E-10 2.75395E-09
 -1       586 2.06997E+02 4.23693E+04 6.07701E+02-6.68298E+04-1.25056E-11 1.29942E-08
 -1       587 1.78182E+02 4.24880E+04 9.56401E+02-7.50852E+04 2.77396E-11 2.07292E-08
 -1       588 3.31543E+02 4.23191E+04 1.74297E+03-6.67520E+04-6.95763E-11 2.01075E-08
 -1       589 1.54830E+03 4.30553E+04 3.83173E+03-7.50757E+04-4.18368E-11 2.38330E-08
 -1       590 4.62247E+03 4.18075E+04 7.70884E+03-6.68390E+04 7.84439E-12 1.26690E-08
 -1       591-4.41487E+04-1.26140E+04-9.04301E+03-2.10453E+04-6.68706E-10-1.09549E-09
 -1       592-4.48088E+04-1.26322E+04-4.60568E+03-2.34403E+04 1.52289E-09 5.03690E-09
 -1       593-4.46910E+04-1.04261E+04-1.95251E+03-2.22000E+04-7.01903E-10 1.23578E-10
 -1       594-4.37438E+04-1.15134E+04-9.61109E+02-2.35035E+04-1.70530E-10-4.51479E-10
 -1       595-4.47432E+04-1.03759E+04-4.43788E+02-2.22422E+04-4.36387E-10 4.87198E-10
 -1       596-4.36729E+04-1.14744E+04-2.24494E+02-2.34923E+04 2.23963E-11 1.28165E-09
 -1       597-4.47515E+04-1.03836E+04-1.21069E+02-2.22422E+04 1.00044E-10 3.85512E-10
 -1       598-4.36656E+04-1.14745E+04-9.46665E+01-2.34892E+04 3.27859E-10 3.40719E-10
 -1       599-4.47512E+04-1.03839E+04-1.17516E+02-2.22420E+04 6.12545E-10 2.09991E-09
 -1       600-4.36721E+04-1.14748E+04-2.15208E+02-2.34915E+04-4.99767E-10-1.14505E-09
 -1       601-4.47424E+04-1.03769E+04-4.23654E+02-2.22416E+04 3.97358E-09-1.75100E-09
 -1       602-4.37400E+04-1.15114E+04-9.16928E+02-2.35006E+04 1.12468E-08 1.24857E-09
 -1       603-4.46915E+04-1.04262E+04-1.86220E+03-2.22020E+04 6.53131E-09 5.76165E-09
 -1       604-4.47657E+04-1.25675E+04-4.39225E+03-2.34272E+04 2.30784E-11 1.53568E-09
 -1       605-4.41629E+04-1.25222E+04-8.62352E+03-2.11118E+04-8.52651E-12-3.70164E-10
 -1       606 3.05813E+04-3.90398E+03-6.53260E+03 1.11463E+04-1.33150E-09 1.48884E-09
 -1       607 2.95078E+04-1.28347E+03-3.23189E+03 1.23539E+04 1.02546E-10 9.73102E-10
 -1       608 3.01287E+04-2.45942E+02-1.44300E+03 1.10639E+04 1.66665E-09-1.50067E-11
 -1       609 2.99994E+04-6.88240E+01-7.26800E+02 1.24453E+04-3.09228E-10-1.15301E-09
 -1       610 3.00749E+04 4.05289E+00-3.45190E+02 1.10542E+04-1.01818E-09 1.71440E-10
 -1       611 3.00509E+04 9.35954E+00-1.73998E+02 1.24560E+04-3.28873E-09-1.51169E-09
 -1       612 3.00640E+04 1.13845E+01-8.26143E+01 1.10532E+04-3.28691E-09-2.26851E-09
 -1       613 3.00555E+04 1.08606E+01-3.73923E+01 1.24573E+04-3.87627E-09-2.09991E-09
 -1       614 3.00594E+04 9.23115E+00-9.46208E+00 1.10528E+04 9.37825E-09 9.79867E-10
 -1       615 3.00553E+04 1.07250E+01 1.37606E+01 1.24575E+04 2.26521E-08 1.93268E-11
 -1       616 3.00558E+04 1.00561E+01 4.31071E+01 1.10530E+04 8.77139E-09-3.83693E-10
 -1       617 3.00614E+04 2.19409E+01 9.93277E+01 1.24572E+04-1.89061E-10 9.00286E-10
 -1       618 3.00473E+04 4.53121E+01 2.01095E+02 1.10531E+04 8.15589E-10-7.58291E-11
 -1       619 3.01300E+04 1.92518E+02 4.52813E+02 1.24559E+04 9.87484E-10 1.45485E-09
 -1       620 2.99837E+04 5.58655E+02 9.16188E+02 1.10538E+04 1.40966E-09-7.02926E-10
 -1       621 2.92589E+02 1.00424E+05 1.18481E+03-6.52565E+03 3.60501E-10-1.06027E-09
 -1       622 1.39773E+02 1.00671E+05 1.21259E+03-8.23228E+03-2.42267E-10-1.23464E-09
 -1       623 6.05776E+01 1.00462E+05 1.73848E+03-6.52437E+03 4.04384E-10-2.06910E-10
 -1       624 8.45361E+02 1.01253E+05 3.54358E+03-8.21033E+03-8.57199E-11 1.18939E-09
 -1       625 2.18849E+03 9.98441E+04 6.65426E+03-6.54724E+03 4.56112E-10 5.76392E-11
 -1       626 6.84357E+04 2.13077E+04-1.85550E+02 4.14003E+04-3.57204E-10 3.52884E-10
 -1       627 6.70847E+04 2.26838E+04-8.88678E+01 4.28693E+04-3.42652E-10 1.28699E-09
 -1       628 6.84868E+04 2.13354E+04-3.71651E+01 4.12899E+04 8.54925E-11 2.55284E-09
 -1       629 6.70321E+04 2.27838E+04-1.64510E+01 4.29358E+04 5.82077E-11 1.38243E-09
 -1       630 6.84884E+04 2.13367E+04-5.07961E+00 4.12774E+04 1.38925E-09 6.75263E-09
 -1       631 6.70216E+04 2.27935E+04 2.65134E+00 4.29407E+04-3.64253E-09 2.56932E-10
 -1       632 6.84853E+04 2.13371E+04 1.21880E+01 4.12748E+04-3.53157E-09-6.60691E-10
 -1       633 6.70198E+04 2.27947E+04 2.89700E+01 4.29405E+04-9.06766E-10-3.02862E-10
 -1       634 6.84817E+04 2.13350E+04 6.07687E+01 4.12741E+04 2.49247E-09 1.38630E-09
 -1       635 6.70253E+04 2.27951E+04 1.32007E+02 4.29421E+04-9.77025E-10 1.24066E-09
 -1       636 6.84756E+04 2.13362E+04 2.71227E+02 4.12716E+04-2.05179E-09-7.37487E-10
 -1       637 6.70843E+04 2.28504E+04 6.00904E+02 4.29365E+04 3.64896E-09 7.65885E-09
 -1       638 6.84553E+04 2.15058E+04 1.23987E+03 4.11951E+04 9.79753E-10-1.19326E-09
 -1       639 6.77196E+04 2.38458E+04 2.94086E+03 4.27123E+04-2.94273E-09 7.40556E-10
 -1       640 6.84223E+04 2.44357E+04 6.15073E+03 3.99609E+04-1.26715E-09 1.88720E-11
 -1       656 5.82457E+03-1.78865E+05-1.93255E+04 1.49843E+03-2.19916E-09 9.23023E-10
 -1       657-7.89656E+03-1.86564E+05-1.49189E+04 1.63273E+04-1.26317E-09 5.18526E-10
 -1       658 1.41855E+03-1.81365E+05-9.57091E+03 1.46928E+03-1.98989E-09 1.39471E-09
 -1       659-8.10788E+03-1.86684E+05-1.52494E+04 1.63449E+04-1.54887E-09 3.77980E-10
 -1       660 6.02222E+03-1.78751E+05-1.99248E+04 1.48090E+03-1.32059E-09 7.82677E-10
 -1       661 9.20505E+04 1.20824E+04 7.48040E+03 3.59041E+04 2.43665E-09-1.05774E-09
 -1       662 9.38823E+04 1.70931E+04 4.62714E+03 3.68002E+04 2.86093E-10 2.31978E-10
 -1       663 9.32825E+04 1.35440E+04 1.76331E+03 3.57981E+04-1.62849E-09 8.61633E-10
 -1       664 9.24588E+04 1.50581E+04 9.52145E+02 3.70731E+04-2.56670E-09 2.31765E-09
 -1       665 9.34135E+04 1.36891E+04 4.13253E+02 3.57920E+04-1.63849E-09-4.56680E-10
 -1       666 9.23077E+04 1.48648E+04 2.22905E+02 3.70920E+04-7.71738E-10-2.69727E-10
 -1       667 9.34289E+04 1.37036E+04 1.28472E+02 3.57919E+04 2.75378E-10-9.36282E-10
 -1       668 9.22934E+04 1.48503E+04 1.24463E+02 3.70939E+04-3.12423E-09-3.13731E-09
 -1       669 9.34278E+04 1.37015E+04 1.80580E+02 3.57911E+04 6.24766E-10 1.26829E-09
 -1       670 9.23214E+04 1.48820E+04 3.65598E+02 3.70953E+04 2.32752E-09 3.61297E-09
 -1       671 9.34019E+04 1.36744E+04 7.05965E+02 3.57897E+04-3.79487E-10-1.43513E-09
 -1       672 9.25823E+04 1.52193E+04 1.64418E+03 3.70660E+04 3.85512E-10-1.98676E-09
 -1       673 9.31758E+04 1.34218E+04 3.05083E+03 3.57990E+04-7.89839E-10-4.34738E-10
 -1       674 9.50481E+04 1.87437E+04 8.01137E+03 3.65945E+04 6.14790E-10-2.88765E-10
 -1       675 9.10416E+04 1.08914E+04 1.29519E+04 3.59835E+04 3.59603E-09 7.52152E-10
 -1       676 2.46915E+01-1.35847E+05-7.08433E+02 2.25054E+01 3.22621E-09-2.74861E-09
 -1       677-2.70453E+02-1.36060E+05-1.32456E+03-4.50008E+01 4.79631E-10 9.92354E-10
 -1       678 2.05566E+02-1.35702E+05-2.28078E+03 2.24827E+01 3.44016E-10-9.32198E-10
 -1       679-2.72151E+03-1.37512E+05-5.56914E+03-4.50387E+01-1.08582E-09-1.49602E-09
 -1       680 1.99779E+03-1.34395E+05-8.67809E+03 2.23848E+01 1.63527E-09 1.17900E-09
 -1       716 1.25346E-01 1.89945E-01 5.62391E+00-1.20056E-04-2.04836E-07-1.36155E-09
 -1       717 8.54261E-01 6.89670E-01 9.82800E+00 3.04992E-04-2.44840E-07-5.36131E-10
 -1       718-2.45815E-01-1.45977E-01 1.81507E+01-1.86782E-04-3.21325E-07-1.24943E-09
 -1       719 3.10197E+00 3.25129E+00 3.75424E+01-2.81964E-04-3.99372E-07 7.56332E-10
 -1       720-2.16807E+00-2.41751E+00 7.15146E+01 4.67605E-04-4.72431E-07-4.54914E-10
 -1       721 1.50639E+01 2.03288E+01 1.52735E+02-9.86570E-03-5.43152E-07 8.05713E-10
 -1       722-1.22849E+01-1.72999E+01 2.85789E+02 9.39600E-03-5.97714E-07-4.33801E-10
 -1       723 8.09529E+01 1.31475E+02 6.29398E+02-9.46546E-02-6.51878E-07 1.08419E-09
 -1       724-6.81651E+01-1.13659E+02 1.13967E+03 8.52338E-02-6.82612E-07 8.23263E-10
 -1       725 4.57699E+02 8.46232E+02 2.62651E+03-7.27911E-01-7.11330E-07 5.31656E-10
 -1       726-3.89147E+02-7.32077E+02 4.51883E+03 6.42472E-01-6.93371E-07-4.11546E-11
 -1       727 2.67753E+03 5.41058E+03 1.11556E+04-5.12030E+00-6.77604E-07 1.20326E-09
 -1       728-2.28774E+03-4.67729E+03 1.77471E+04 4.47675E+00-5.62272E-07-2.27374E-11
 -1       729 1.60510E+04 3.44338E+04 4.85643E+04-3.44395E+01-4.49128E-07-4.27463E-11
 -1       730-1.37558E+04-2.97481E+04 6.86106E+04 2.99610E+01-2.22958E-07-1.05865E-09
 -1       766-2.97508E+04-1.37580E+04 6.86635E+04-2.99619E+01-3.96540E-10-7.46522E-08
 -1       767 3.44537E+04 1.60656E+04 4.87078E+04 3.44496E+01 3.02589E-09-1.49756E-07
 -1       768-4.69476E+03-2.30014E+03 1.80283E+04-4.48625E+00-3.74712E-10-6.62170E-08
 -1       769 5.54184E+03 2.75812E+03 1.17824E+04 5.21522E+00 3.19881E-09 1.91073E-08
 -1       770-8.45948E+02-4.57506E+02 5.65701E+03-7.27736E-01-2.61252E-10 5.17349E-08
 -1       771-8.59568E+05-1.65148E+05-2.35145E+04-3.70243E+05 9.29504E-10 1.56433E-10
 -1       772-8.54842E+05-1.71386E+05-1.19517E+04-3.83583E+05 1.87538E-09-5.36602E-11
 -1       773-8.61426E+05-1.59086E+05-5.10091E+03-3.72970E+05 1.12050E-09 3.65617E-10
 -1       774-8.51910E+05-1.68792E+05-2.49877E+03-3.84303E+05 5.00222E-10-4.27463E-10
 -1       775-8.61738E+05-1.58822E+05-1.17231E+03-3.73114E+05 3.27418E-10-8.56744E-10
 -1       776-8.51817E+05-1.68695E+05-5.83245E+02-3.84459E+05-1.15506E-10-7.27596E-11
 -1       777-8.61892E+05-1.58756E+05-3.19244E+02-3.73163E+05 1.34605E-10-7.03949E-10
 -1       778-8.51878E+05-1.68677E+05-2.27936E+02-3.84573E+05 6.63931E-11 6.99174E-11
 -1       779-8.61987E+05-1.58696E+05-2.73503E+02-3.73199E+05 8.18545E-11 2.64833E-10
 -1       780-8.51952E+05-1.68667E+05-4.76784E+02-3.84661E+05-2.21462E-10-1.85366E-10
 -1       781-8.62026E+05-1.58640E+05-9.35261E+02-3.73220E+05 4.91127E-11-2.59206E-11
 -1       782-8.52136E+05-1.68741E+05-2.01879E+03-3.84726E+05-1.78488E-10 1.10958E-10
 -1       783-8.61936E+05-1.58734E+05-4.10209E+03-3.73143E+05-2.13754E-09-1.16597E-09
 -1       784-8.54421E+05-1.71053E+05-9.68058E+03-3.84552E+05-2.09465E-09-5.16593E-10
 -1       785-8.60746E+05-1.63376E+05-1.90118E+04-3.70759E+05 9.51218E-10 6.69388E-10
 -1       786 7.81300E+04-3.11056E+03 9.95331E+03-1.31274E+02-8.72546E-12-2.46928E-10
 -1       787 8.19957E+04 3.80058E+03 6.62850E+03-1.53222E+03 5.04343E-11 1.80989E-10
 -1       788 7.97018E+04-3.78053E+02 2.58668E+03-1.30966E+02-3.83977E-11 8.76184E-10
 -1       789 8.02161E+04 4.56006E+02 1.50180E+03-1.53169E+03 2.30813E-10 1.79554E-09
 -1       790 7.99095E+04-4.62431E+01 6.59941E+02-1.31772E+02-8.02345E-11-1.65352E-09
 -1       791 7.99791E+04 5.45376E+01 3.63262E+02-1.53074E+03 1.52641E-10-4.15412E-10
 -1       792 7.99387E+04-6.00466E+00 1.81165E+02-1.31919E+02 4.98019E-11 2.37058E-10
 -1       793 7.99472E+04 8.87308E+00 1.20856E+02-1.53124E+03 7.21094E-11 4.19000E-10
 -1       794 7.99415E+04-3.06666E+00 1.07875E+02-1.31273E+02-9.20863E-12 7.98561E-10
 -1       795 7.99559E+04 2.26426E+01 1.65244E+02-1.53336E+03 9.12266E-11 3.87032E-10
 -1       796 7.99303E+04-1.89479E+01 2.76684E+02-1.29795E+02-2.48889E-10-9.27898E-10
 -1       797 8.00516E+04 1.85155E+02 6.14718E+02-1.53665E+03 9.02673E-11 1.21287E-09
 -1       798 7.98460E+04-1.53802E+02 1.05326E+03-1.27989E+02-1.41370E-10-8.38895E-10
 -1       799 8.07752E+04 1.54427E+03 2.69497E+03-1.53835E+03-2.96112E-10-3.67123E-10
 -1       800 7.92072E+04-1.26444E+03 4.04530E+03-1.28112E+02 2.20552E-11 1.20781E-09
 -1       801-4.72864E+03 7.45013E+04 1.24244E+04-4.62812E+04 3.70619E-10-2.76850E-09
 -1       802 1.17236E+04 8.00963E+04 1.84235E+04-5.25232E+05-1.52795E-09-4.08363E-09
 -1       803-2.72178E+03 7.46234E+04 2.33990E+04-4.60950E+04 4.62933E-09 5.70526E-09
 -1       804 3.56778E+04 9.33650E+04 5.57759E+04-5.25211E+05-4.07090E-09 4.28690E-09
 -1       805-2.69587E+04 6.16613E+04 8.02709E+04-4.63068E+04 3.92902E-09 5.92991E-09
 -1       806-7.55604E+04-2.06879E+04-6.30153E+03-3.61836E+04 2.03670E-10-1.28557E-09
 -1       807-7.54409E+04-1.94821E+04-3.01273E+03-3.83175E+04-6.27551E-11-1.42245E-09
 -1       808-7.55830E+04-1.76987E+04-1.27050E+03-3.74653E+04-6.01403E-11 8.68653E-10
 -1       809-7.48085E+04-1.84454E+04-6.16019E+02-3.85305E+04-1.06354E-10 1.79352E-09
 -1       810-7.56031E+04-1.75256E+04-2.79177E+02-3.75461E+04-4.63274E-12 2.26260E-09
 -1       811-7.47505E+04-1.83869E+04-1.38200E+02-3.85346E+04-6.74447E-11 4.74301E-10
 -1       812-7.56084E+04-1.75247E+04-6.85957E+01-3.75485E+04 2.10321E-11 2.46246E-10
 -1       813-7.47436E+04-1.83867E+04-4.32395E+01-3.85319E+04-4.44800E-10 1.52363E-09
 -1       814-7.56082E+04-1.75267E+04-4.03263E+01-3.75476E+04 2.24713E-09 7.44069E-09
 -1       815-7.47452E+04-1.83880E+04-6.33632E+01-3.85310E+04-3.80282E-10-1.97315E-09
 -1       816-7.56043E+04-1.75287E+04-1.18723E+02-3.75459E+04-7.12362E-10-1.07252E-09
 -1       817-7.47711E+04-1.84095E+04-2.57531E+02-3.85237E+04-4.79645E-10 1.13323E-09
 -1       818-7.55916E+04-1.76054E+04-5.29064E+02-3.75152E+04 7.86940E-10-2.00998E-10
 -1       819-7.50651E+04-1.88081E+04-1.25304E+03-3.83959E+04 2.36923E-10 1.28784E-09
 -1       820-7.55494E+04-1.88775E+04-2.62011E+03-3.70150E+04-2.76168E-09-5.19162E-09
 -1       821-1.02678E+05 3.95571E+03-1.26587E+04 1.86160E+02-8.97614E-10-1.71894E-10
 -1       822-1.07592E+05-4.83334E+03-8.43059E+03 2.30925E+03-1.01889E-09-1.81285E-09
 -1       823-1.04677E+05 4.80519E+02-3.29142E+03 1.73565E+02 1.34048E-09 6.04132E-10
 -1       824-1.05331E+05-5.78846E+02-1.91324E+03 2.32743E+03-4.46789E-10 2.68676E-09
 -1       825-1.04941E+05 5.87914E+01-8.46370E+02 1.67925E+02-1.93032E-09-6.63135E-10
 -1       826-1.05031E+05-6.82229E+01-4.76435E+02 2.33668E+03-3.75530E-09-3.20206E-10
 -1       827-1.04978E+05 8.20546E+00-2.58846E+02 1.64303E+02-2.17932E-09 9.40830E-10
 -1       828-1.04995E+05-1.38320E+01-2.13221E+02 2.34239E+03-2.71869E-09 1.91024E-09
 -1       829-1.04978E+05 7.98510E+00-2.51260E+02 1.62209E+02-2.82554E-10 2.30794E-09
 -1       830-1.05030E+05-6.46098E+01-4.56127E+02 2.34477E+03 9.99373E-10 4.28543E-10
 -1       831-1.04943E+05 5.62288E+01-8.06802E+02 1.61927E+02-1.52250E-09 6.21156E-10
 -1       832-1.05316E+05-5.50327E+02-1.82211E+03 2.34355E+03-1.00927E-09 2.00660E-09
 -1       833-1.04692E+05 4.57858E+02-3.13343E+03 1.63441E+02-1.48361E-11 7.71252E-10
 -1       834-1.07469E+05-4.60028E+03-8.02608E+03 2.33649E+03 2.70646E-10 6.20730E-11
 -1       835-1.02789E+05 3.76638E+03-1.20505E+04 1.69107E+02 7.87992E-10-2.15550E-10
 -1       836-4.78864E+02 1.33529E+05 1.03515E+04-9.81258E+03-3.22871E-11 4.45652E-11
 -1       837 2.14866E+03 1.36686E+05 7.98471E+03-1.90721E+04-5.21410E-10 1.44496E-10
 -1       838-1.52220E+02 1.34572E+05 7.14642E+03-9.78291E+03-1.94177E-10 1.58863E-10
 -1       839 3.97836E+03 1.38086E+05 1.24699E+04-1.90761E+04-5.96629E-10-1.16995E-09
 -1       840-9.49025E+02 1.32127E+05 1.95573E+04-9.80827E+03-2.21917E-10-1.03933E-09
 -1       841 2.65213E+04 3.89098E+03-4.20853E+02 9.86777E+03-6.61573E-06 2.48148E-06
 -1       842 2.62638E+04 3.53854E+03-2.91338E+02 9.98141E+03-1.32218E-05 4.96423E-06
 -1       843 2.64312E+04 3.74419E+03-9.73608E+01 9.90219E+03-1.10442E-05 4.14523E-06
 -1       844 2.63705E+04 3.70671E+03-5.84711E+01 9.93929E+03-8.85562E-06 3.32432E-06
 -1       845 2.64146E+04 3.72284E+03-1.68425E+01 9.90988E+03-6.56904E-06 2.46292E-06
 -1       846 2.63923E+04 3.73223E+03 6.64143E-01 9.92881E+03-4.28340E-06 1.60742E-06
 -1       847 2.64094E+04 3.71868E+03 2.11288E+01 9.91266E+03-2.77603E-06 1.04076E-06
 -1       848 2.64069E+04 3.74937E+03 6.03567E+01 9.92332E+03-1.26731E-06 4.79577E-07
 -1       849 2.64000E+04 3.70570E+03 1.14100E+02 9.91536E+03-3.87486E-07 1.45104E-07
 -1       850 2.64663E+04 3.84540E+03 2.90018E+02 9.90698E+03 4.92161E-07-1.85720E-07
 -1       851 2.63500E+04 3.62266E+03 5.01298E+02 9.92900E+03 8.89516E-07-3.34050E-07
 -1       852 2.68221E+04 4.45477E+03 1.35393E+03 9.79931E+03 1.28712E-06-4.83943E-07
 -1       853 2.60442E+04 3.09640E+03 2.16529E+03 1.00230E+04 1.18978E-06-4.44347E-07
 -1       854 2.90139E+04 8.31606E+03 6.42071E+03 9.07731E+03 1.08738E-06-4.08155E-07
 -1       855 2.41583E+04-2.37990E+02 9.24180E+03 1.06508E+04 5.45697E-07-2.03986E-07
 -1       856-7.88039E+04 1.87189E+03-1.00618E+04 2.03950E+03-2.31489E-09 7.55790E-10
 -1       857-8.22816E+04-2.82803E+03-6.31251E+03 6.19727E+03-1.22765E-09-6.39375E-10
 -1       858-8.02811E+04 1.79223E+02-2.59887E+03 2.01692E+03-2.23497E-09 1.72918E-10
 -1       859-8.06552E+04-2.43358E+02-1.42524E+03 6.22306E+03-4.95447E-10-6.82576E-10
 -1       860-8.04358E+04 2.07405E+01-6.57638E+02 2.01346E+03-6.57678E-11-7.16739E-10
 -1       861-8.04843E+04-1.43746E+01-3.48047E+02 6.22741E+03-2.36992E-09-8.25310E-10
 -1       862-8.04553E+04 4.95440E+00-1.77749E+02 2.01254E+03 1.72470E-09-1.11237E-09
 -1       863-8.04638E+04 5.14449E+00-1.13442E+02 6.22825E+03 6.46717E-09-8.80974E-10
 -1       864-8.04572E+04 3.63235E+00-9.92921E+01 2.01261E+03 3.09012E-09-7.88560E-11
 -1       865-8.04672E+04-7.49789E-01-1.43152E+02 6.22677E+03 4.41941E-09 5.57208E-10
 -1       866-8.04505E+04 8.66074E+00-2.45550E+02 2.01402E+03 1.48077E-10-1.53748E-09
 -1       867-8.05264E+04-8.37758E+01-5.17251E+02 6.22209E+03 1.90317E-09-1.47288E-09
 -1       868-8.03943E+04 6.49346E+01-9.37737E+02 2.01731E+03 1.57763E-09 2.48463E-10
 -1       869-8.11087E+04-1.01489E+03-2.27252E+03 6.19499E+03-1.18621E-09 8.09223E-10
 -1       870-7.98620E+04 6.72917E+02-3.62211E+03 2.04121E+03 1.16097E-09 2.64890E-10
 -1       871-1.43691E+03-1.14810E+04-3.79507E+03 4.20975E+04 1.32422E-09-6.12545E-10
 -1       872-5.25546E+02-1.22770E+04-1.34469E+03 5.25959E+04 2.00271E-09-3.96881E-10
 -1       873 4.46000E+00-1.19275E+04 6.54705E+02 4.20063E+04 1.00636E-09-6.63590E-10
 -1       874 8.49113E+02-1.11767E+04 3.13579E+03 5.26230E+04 1.48884E-09 1.16734E-09
 -1       875 2.35246E+03-1.25971E+04 6.75012E+03 4.20721E+04 3.95630E-10 6.37783E-10
 -1       876 1.18485E+05 1.77292E+04 9.86059E+03 4.69653E+04 1.36475E-09-1.08002E-09
 -1       877 1.20233E+05 2.21651E+04 5.71233E+03 4.87524E+04 1.92011E-09 4.52474E-11
 -1       878 1.19832E+05 1.84702E+04 2.29047E+03 4.72008E+04 2.66994E-09-2.85354E-11
 -1       879 1.18607E+05 2.01885E+04 1.17668E+03 4.89343E+04-1.90198E-10 5.86840E-09
 -1       880 1.19945E+05 1.85389E+04 5.30548E+02 4.72203E+04-8.29914E-12 1.86509E-09
 -1       881 1.18473E+05 2.00542E+04 2.76221E+02 4.89328E+04-1.09500E-09-3.57502E-09
 -1       882 1.19956E+05 1.85481E+04 1.57086E+02 4.72227E+04 4.11433E-10 2.06555E-11
 -1       883 1.18462E+05 2.00451E+04 1.40998E+02 4.89298E+04 2.10498E-09-5.63686E-09
 -1       884 1.19955E+05 1.85479E+04 1.97577E+02 4.72228E+04-5.38734E-10-1.11476E-09
 -1       885 1.18482E+05 2.00576E+04 3.84239E+02 4.89325E+04 2.86574E-09 1.06536E-09
 -1       886 1.19936E+05 1.85356E+04 7.58579E+02 4.72200E+04-1.08616E-09 2.79613E-09
 -1       887 1.18676E+05 2.02507E+04 1.69359E+03 4.89332E+04 6.97042E-10 2.14459E-09
 -1       888 1.19773E+05 1.84368E+04 3.30117E+03 4.71915E+04-7.90109E-10 8.62201E-10
 -1       889 1.21010E+05 2.31120E+04 8.23609E+03 4.86822E+04 2.48264E-10 1.35549E-09
 -1       890 1.17841E+05 1.73580E+04 1.42176E+04 4.68392E+04 2.21075E-09 1.22782E-09
 -1       891 2.45574E+02-6.49899E+04-2.45777E+03 1.14168E+04 4.76916E-10 1.30251E-09
 -1       892-6.10971E+02-6.57794E+04-1.90942E+03 2.59708E+04-1.80455E-09-1.08466E-09
 -1       893 5.78521E+01-6.52505E+04-1.63532E+03 1.13908E+04 1.00727E-10-3.86194E-10
 -1       894-1.04216E+03-6.60726E+04-2.84905E+03 2.59496E+04-3.02089E-09 1.09060E-09
 -1       895 4.55366E+02-6.46827E+04-4.33730E+03 1.14378E+04 1.25738E-10 3.24690E-10
 -1       956-1.14939E+05-2.03031E+03-4.97341E+03 1.24353E+04-1.95359E-09-3.37650E-10
 -1       957-1.15912E+05-6.77593E+02-2.54699E+03 1.48908E+04-4.25644E-10-2.24418E-09
 -1       958-1.15374E+05-5.84393E+01-1.14712E+03 1.23590E+04 1.42836E-09-1.28057E-09
 -1       959-1.15454E+05-1.16856E+01-5.85343E+02 1.49737E+04-8.11269E-10 1.45224E-09
 -1       960-1.15414E+05 1.50386E+01-2.84474E+02 1.23520E+04-2.37242E-09-8.14680E-10
 -1       961-1.15420E+05 1.35919E+01-1.49428E+02 1.49813E+04-3.51019E-09-1.27739E-09
 -1       962-1.15421E+05 1.28002E+01-8.26361E+01 1.23513E+04-1.66938E-09-1.99304E-09
 -1       963-1.15418E+05 1.38278E+01-6.13170E+01 1.49823E+04-2.25964E-09-8.54129E-10
 -1       964-1.15423E+05 1.31100E+01-6.81750E+01 1.23510E+04-1.93836E-10 4.98289E-10
 -1       965-1.15422E+05 1.47965E+01-1.12627E+02 1.49822E+04 2.04693E-09-2.44654E-10
 -1       966-1.15420E+05 1.57846E+01-2.08440E+02 1.23514E+04-1.39005E-09-9.20977E-10
 -1       967-1.15449E+05-2.42759E+00-4.26018E+02 1.49774E+04 2.90242E-10 1.75805E-09
 -1       968-1.15393E+05-3.66070E+01-8.33286E+02 1.23558E+04 3.56067E-10 2.18051E-10
 -1       969-1.15783E+05-4.85241E+02-1.84984E+03 1.49249E+04 1.16449E-09-6.06633E-10
 -1       970-1.15077E+05-1.46824E+03-3.61164E+03 1.24045E+04 4.04498E-10-9.29504E-10
 -1       971-1.41776E+05 2.03446E+02-5.92567E+03 3.74834E+03-2.02976E-09 1.44723E-09
 -1       972-1.43546E+05-1.14765E+03-3.48538E+03 7.04395E+03-1.58298E-09 2.50691E-09
 -1       973-1.42560E+05 2.92602E+01-1.50455E+03 3.70930E+03-1.06252E-09-7.01448E-10
 -1       974-1.42705E+05-6.18820E+01-7.96271E+02 7.08689E+03-1.50067E-10 1.47276E-09
 -1       975-1.42625E+05 8.62970E+00-3.86402E+02 3.70515E+03-1.81547E-09-1.33241E-09
 -1       976-1.42638E+05 3.98099E+00-2.14886E+02 7.09233E+03-1.79375E-09-7.57524E-10
 -1       977-1.42633E+05 5.83428E+00-1.38801E+02 3.70383E+03 3.16606E-09 3.62320E-10
 -1       978-1.42633E+05 8.04512E+00-1.40331E+02 7.09420E+03 7.48381E-09 1.91022E-10
 -1       979-1.42632E+05 7.16521E+00-2.06143E+02 3.70327E+03 2.59718E-09 7.59343E-10
 -1       980-1.42650E+05 1.55565E+00-3.88143E+02 7.09447E+03 1.92742E-09 2.01538E-09
 -1       981-1.42617E+05 1.50376E+01-7.41280E+02 3.70357E+03-1.51334E-09-5.76605E-11
 -1       982-1.42788E+05-1.25302E+02-1.55412E+03 7.09213E+03-9.70260E-10 1.52158E-09
 -1       983-1.42492E+05 5.79310E+01-2.94722E+03 3.70566E+03 8.03311E-10-9.06766E-10
 -1       984-1.44444E+05-2.25322E+03-6.83726E+03 7.06385E+03-1.28222E-09-5.75653E-10
 -1       985-1.40957E+05 4.02631E+02-1.16249E+04 3.73260E+03 2.74827E-09-1.00181E-09
 -3
    1PSTEP                         3           2           1          
  100CL  102 5.00000E-01         507                     0    2           1
 -4  DISP        4    1
 -5  D1          1    2    1    0
 -5  D2          1    2    2    0
 -5  D3          1    2    3    0
 -5  ALL         1    2    0    0    1ALL
 -1         1 8.80506E-05 0.00000E+00 0.00000E+00
 -1         2 8.80536E-05 0.00000E+00 0.00000E+00
 -1         3 6.34592E-05 1.31386E-27 0.00000E+00
 -1         5 4.78621E-05 3.43220E-26-3.30872E-24
 -1         8 7.10811E-05-7.48522E-07 0.00000E+00
 -1         9 5.97796E-05-2.89758E-06 0.00000E+00
 -1        10 5.93343E-05-1.51979E-06-3.30872E-24
 -1        11 4.72217E-05-3.86905E-06 0.00000E+00
 -1        12 4.72282E-05 5.87921E-07 0.00000E+00
 -1        15 5.23461E-05-7.98935E-07 0.00000E+00
 -1        16 4.33999E-05-3.01953E-06 0.00000E+00
 -1        17 4.43360E-05-3.36276E-06 0.00000E+00
 -1        18 4.42796E-05-2.79464E-07 0.00000E+00
 -1        19 4.53354E-05 1.17210E-06 0.00000E+00
 -1        20 4.56701E-05 1.45976E-05 0.00000E+00
 -1        21 4.49940E-05 3.17005E-05 0.00000E+00
 -1        23 1.47434E-05-6.70744E-05 4.03897E-28
 -1        24 1.45856E-05-4.15792E-06 0.00000E+00
 -1        25 4.19841E-05-1.06130E-07 0.00000E+00
 -1        26 4.28819E-05 1.58968E-06 0.00000E+00
 -1        27 4.17159E-05 1.38524E-05 0.00000E+00
 -1        28 4.08144E-05 3.11341E-05 0.00000E+00
 -1        31-9.00797E-06-4.24150E-06 0.00000E+00
 -1        32 0.00000E+00 0.00000E+00 0.00000E+00
 -1        33 3.99612E-05 2.13909E-06 0.00000E+00
 -1        34 3.86719E-05 1.37997E-05 0.00000E+00
 -1        35 3.70779E-05 3.08626E-05 0.00000E+00
 -1        36 8.80421E-05-1.33070E-19 0.00000E+00
 -1        37 8.80426E-05-4.03176E-20 0.00000E+00
 -1        38 8.80426E-05 5.72021E-20 0.00000E+00
 -1        39 8.80443E-05 7.01804E-19 2.06795E-25
 -1        40 8.80461E-05 7.75966E-19 0.00000E+00
 -1        41 8.80482E-05 1.04843E-18 0.00000E+00
 -1        42 8.80503E-05 1.31871E-18 0.00000E+00
 -1        43 8.80525E-05 1.70147E-18 0.00000E+00
 -1        44 8.80547E-05 1.66478E-18 0.00000E+00
 -1        45 8.80568E-05 1.78049E-18-2.58494E-26
 -1        46 8.80589E-05 1.91377E-18 0.00000E+00
 -1        47 8.80606E-05 1.83922E-18 0.00000E+00
 -1        48 8.80623E-05 1.40086E-18-8.27181E-25
 -1        49 8.80622E-05 7.94444E-19 0.00000E+00
 -1        50 8.80627E-05 2.50800E-19-3.30872E-24
 -1        51 8.68177E-05-1.24905E-07 0.00000E+00
 -1        52 8.47173E-05-2.45831E-07 0.00000E+00
 -1        53 8.19175E-05-3.66774E-07 0.00000E+00
 -1        54 7.85938E-05-4.89217E-07 3.30872E-24
 -1        55 7.49227E-05-6.14494E-07-2.68834E-24
 -1        56 8.65902E-05-8.26822E-07-2.64698E-23
 -1        57 8.52436E-05-2.13271E-06-2.64698E-23
 -1        58 8.40252E-05-3.77100E-06 5.29396E-23
 -1        59 8.28696E-05-5.60781E-06-2.64698E-23
 -1        60 8.17260E-05-7.47742E-06 5.29396E-23
 -1        61 8.05317E-05-9.21698E-06 0.00000E+00
 -1        62 7.92332E-05-1.06783E-05-5.29396E-23
 -1        63 7.77795E-05-1.17260E-05 0.00000E+00
 -1        64 7.61384E-05-1.22737E-05 0.00000E+00
 -1        65 7.42856E-05-1.22569E-05-2.64698E-23
 -1        66 7.22217E-05-1.16779E-05 0.00000E+00
 -1        67 6.99581E-05-1.05634E-05 0.00000E+00
 -1        68 6.75270E-05-9.00433E-06-5.29396E-23
 -1        69 6.49790E-05-7.10719E-06 2.64698E-23
 -1        70 6.23578E-05-5.02618E-06 2.64698E-23
 -1        86 8.58213E-05-4.66311E-07 1.32349E-23
 -1        87 7.91079E-05-9.61204E-07 0.00000E+00
 -1        88 7.14228E-05-1.46158E-06 0.00000E+00
 -1        89 6.62973E-05-1.94699E-06 0.00000E+00
 -1        90 6.27536E-05-2.42594E-06 0.00000E+00
 -1       121 6.33439E-05-2.52752E-07 0.00000E+00
 -1       122 6.29982E-05-5.05573E-07 3.30872E-24
 -1       123 6.24229E-05-7.58516E-07 0.00000E+00
 -1       124 6.16192E-05-1.01175E-06 3.30872E-24
 -1       125 6.05889E-05-1.26517E-06 0.00000E+00
 -1       191 4.78445E-05 9.80034E-08 0.00000E+00
 -1       192 4.77916E-05 1.96004E-07 0.00000E+00
 -1       193 4.77034E-05 2.94002E-07 0.00000E+00
 -1       194 4.75800E-05 3.91994E-07 0.00000E+00
 -1       195 4.74215E-05 4.89972E-07 0.00000E+00
 -1       251 7.03895E-05 8.97318E-07 0.00000E+00
 -1       252 6.96823E-05-4.23017E-07 0.00000E+00
 -1       253 6.89759E-05-2.03158E-06 0.00000E+00
 -1       254 6.82673E-05-1.24030E-06 0.00000E+00
 -1       255 6.75585E-05-2.65063E-07 2.64698E-23
 -1       256 6.68491E-05-1.32773E-06 0.00000E+00
 -1       257 6.61395E-05-2.48914E-06 0.00000E+00
 -1       258 6.54302E-05-1.80697E-06 0.00000E+00
 -1       259 6.47210E-05-1.10280E-06 2.64698E-23
 -1       260 6.40115E-05-2.19898E-06 1.32349E-23
 -1       261 6.33020E-05-3.24213E-06 0.00000E+00
 -1       262 6.25934E-05-2.38062E-06 0.00000E+00
 -1       263 6.18848E-05-1.65189E-06-2.64698E-23
 -1       264 6.11786E-05-3.08902E-06 6.61744E-24
 -1       265 6.04715E-05-4.29922E-06 0.00000E+00
 -1       266 6.79587E-05-7.68071E-07 3.30872E-24
 -1       267 6.48362E-05-7.75108E-07 0.00000E+00
 -1       268 6.17136E-05-7.82957E-07 0.00000E+00
 -1       269 5.85911E-05-7.88440E-07 4.13590E-25
 -1       270 5.54686E-05-7.93876E-07 0.00000E+00
 -1       271 6.85521E-05 1.38982E-06-2.64698E-23
 -1       272 6.62648E-05 2.72725E-06 0.00000E+00
 -1       273 6.42477E-05 3.35364E-06-5.29396E-23
 -1       274 6.24582E-05 3.34983E-06-2.64698E-23
 -1       275 6.08660E-05 2.81816E-06 0.00000E+00
 -1       276 5.94287E-05 1.86902E-06 2.64698E-23
 -1       277 5.81021E-05 6.23494E-07 5.29396E-23
 -1       278 5.68386E-05-7.91449E-07 2.64698E-23
 -1       279 5.55895E-05-2.24475E-06 5.29396E-23
 -1       280 5.43055E-05-3.60449E-06 0.00000E+00
 -1       281 5.29383E-05-4.74115E-06 0.00000E+00
 -1       282 5.14420E-05-5.52967E-06 0.00000E+00
 -1       283 4.97721E-05-5.85374E-06 0.00000E+00
 -1       284 4.78946E-05-5.60436E-06 0.00000E+00
 -1       285 4.57655E-05-4.69151E-06 2.64698E-23
 -1       301 5.70444E-05-2.92467E-06 0.00000E+00
 -1       302 5.42962E-05-2.93827E-06 0.00000E+00
 -1       303 5.15461E-05-2.95046E-06 0.00000E+00
 -1       304 4.88058E-05-2.96366E-06 0.00000E+00
 -1       305 4.60866E-05-2.98010E-06 6.61744E-24
 -1       306 5.81082E-05-9.84533E-07 0.00000E+00
 -1       307 5.67402E-05 5.56436E-08-1.32349E-23
 -1       308 5.56559E-05 3.44045E-07 2.64698E-23
 -1       309 5.48048E-05 6.49852E-10 0.00000E+00
 -1       310 5.41411E-05-8.43610E-07-2.64698E-23
 -1       311 5.36134E-05-2.05323E-06 1.32349E-23
 -1       312 5.31696E-05-3.48759E-06 0.00000E+00
 -1       313 5.27563E-05-5.00369E-06 1.32349E-23
 -1       314 5.23197E-05-6.45732E-06 2.64698E-23
 -1       315 5.18062E-05-7.70502E-06 0.00000E+00
 -1       316 5.11631E-05-8.60616E-06 0.00000E+00
 -1       317 5.03399E-05-9.02391E-06 0.00000E+00
 -1       318 4.92868E-05-8.82812E-06 0.00000E+00
 -1       319 4.79613E-05-7.89415E-06 0.00000E+00
 -1       320 4.63143E-05-6.11049E-06 0.00000E+00
 -1       336 5.77732E-05-1.82534E-06 6.61744E-24
 -1       337 5.58255E-05-2.13261E-06 0.00000E+00
 -1       338 5.34982E-05-2.44051E-06-6.61744E-24
 -1       339 5.08004E-05-2.74861E-06-3.30872E-24
 -1       340 4.77424E-05-3.05788E-06 0.00000E+00
 -1       356 4.72217E-05-3.57848E-06 1.00974E-28
 -1       357 4.72217E-05-3.28303E-06-1.00974E-28
 -1       358 4.72216E-05-2.98409E-06 0.00000E+00
 -1       359 4.72216E-05-2.68305E-06 0.00000E+00
 -1       360 4.72215E-05-2.38130E-06 1.61559E-27
 -1       361 4.72215E-05-2.08022E-06 0.00000E+00
 -1       362 4.72215E-05-1.78120E-06 0.00000E+00
 -1       363 4.72214E-05-1.48563E-06-6.46235E-27
 -1       364 4.72214E-05-1.19491E-06-2.58494E-26
 -1       365 4.72214E-05-9.10411E-07-2.58494E-26
 -1       366 4.72214E-05-6.33535E-07 1.03398E-25
 -1       367 4.72216E-05-3.65661E-07 1.03398E-25
 -1       368 4.72218E-05-1.08184E-07 0.00000E+00
 -1       369 4.72228E-05 1.37505E-07-4.13590E-25
 -1       370 4.72235E-05 3.70007E-07 0.00000E+00
 -1       376 4.71146E-05-3.58336E-06-5.04871E-29
 -1       377 4.70092E-05-3.30249E-06 2.52435E-29
 -1       378 4.69049E-05-3.02457E-06 0.00000E+00
 -1       379 4.68011E-05-2.74773E-06 0.00000E+00
 -1       380 4.66969E-05-2.47011E-06-4.03897E-28
 -1       381 4.65918E-05-2.18983E-06 0.00000E+00
 -1       382 4.64849E-05-1.90503E-06 0.00000E+00
 -1       383 4.63757E-05-1.61383E-06 3.23117E-27
 -1       384 4.62634E-05-1.31436E-06-1.29247E-26
 -1       385 4.61472E-05-1.00475E-06 1.29247E-26
 -1       386 4.60266E-05-6.83135E-07 0.00000E+00
 -1       387 4.59009E-05-3.47610E-07-5.16988E-26
 -1       388 4.57692E-05 3.66122E-09 0.00000E+00
 -1       389 4.56314E-05 3.72726E-07 0.00000E+00
 -1       390 4.54861E-05 7.61230E-07 0.00000E+00
 -1       406 4.70003E-05 6.85849E-07-6.61744E-24
 -1       407 4.67377E-05 7.83751E-07 1.65436E-24
 -1       408 4.64398E-05 8.81579E-07 6.61744E-24
 -1       409 4.61068E-05 9.79194E-07 0.00000E+00
 -1       410 4.57386E-05 1.07638E-06 0.00000E+00
 -1       501 4.34320E-05-9.95991E-07-6.61744E-24
 -1       502 4.34900E-05-2.08916E-07 0.00000E+00
 -1       503 4.35468E-05-2.42339E-07 0.00000E+00
 -1       504 4.36081E-05-6.83034E-07 4.13590E-25
 -1       505 4.36694E-05-1.39094E-06 1.65436E-24
 -1       506 4.37315E-05-2.22678E-06-8.27181E-25
 -1       507 4.37937E-05-3.13943E-06-1.65436E-24
 -1       508 4.38560E-05-4.07801E-06 0.00000E+00
 -1       509 4.39184E-05-5.00955E-06 1.65436E-24
 -1       510 4.39807E-05-5.90107E-06-8.27181E-25
 -1       511 4.40431E-05-6.69189E-06 0.00000E+00
 -1       512 4.41053E-05-7.32102E-06 0.00000E+00
 -1       513 4.41675E-05-7.61567E-06-8.27181E-25
 -1       514 4.42280E-05-7.40210E-06 0.00000E+00
 -1       515 4.42883E-05-6.15921E-06-1.65436E-24
 -1       521 4.10132E-05-1.40077E-06-2.64698E-23
 -1       522 3.88868E-05-6.08931E-07 2.64698E-23
 -1       523 3.70309E-05-5.30849E-07 0.00000E+00
 -1       524 3.53942E-05-1.05820E-06 0.00000E+00
 -1       525 3.39357E-05-2.06245E-06-5.29396E-23
 -1       526 3.26033E-05-3.40727E-06 2.64698E-23
 -1       527 3.13437E-05-4.94743E-06 0.00000E+00
 -1       528 3.01012E-05-6.53387E-06-2.64698E-23
 -1       529 2.88198E-05-8.01626E-06 0.00000E+00
 -1       530 2.74443E-05-9.24656E-06-2.64698E-23
 -1       531 2.59215E-05-1.00830E-05 5.29396E-23
 -1       532 2.42022E-05-1.03919E-05 0.00000E+00
 -1       533 2.22402E-05-1.00532E-05-5.29396E-23
 -1       534 2.00015E-05-8.95815E-06 2.64698E-23
 -1       535 1.74434E-05-7.02200E-06 2.64698E-23
 -1       536 4.43205E-05-1.98860E-07-3.30872E-24
 -1       537 4.43142E-05 2.20009E-06-8.27181E-25
 -1       538 4.43089E-05 3.91285E-06-8.27181E-25
 -1       539 4.43057E-05 5.01851E-06 0.00000E+00
 -1       540 4.43031E-05 5.59611E-06-4.13590E-25
 -1       541 4.43008E-05 5.72472E-06 0.00000E+00
 -1       542 4.42986E-05 5.48342E-06 2.06795E-25
 -1       543 4.42963E-05 4.95134E-06 2.06795E-25
 -1       544 4.42939E-05 4.20758E-06 0.00000E+00
 -1       545 4.42915E-05 3.33126E-06 0.00000E+00
 -1       546 4.42890E-05 2.40151E-06-2.58494E-26
 -1       547 4.42866E-05 1.49746E-06 0.00000E+00
 -1       548 4.42842E-05 6.98222E-07-1.03398E-25
 -1       549 4.42822E-05 8.29226E-08-1.03398E-25
 -1       550 4.42803E-05-2.69298E-07 4.13590E-25
 -1       551 3.99284E-05-3.48971E-06 0.00000E+00
 -1       552 3.49797E-05-3.61656E-06-1.44757E-24
 -1       553 2.97285E-05-3.74497E-06 3.30872E-24
 -1       554 2.44178E-05-3.87544E-06 0.00000E+00
 -1       555 1.92903E-05-4.00812E-06 0.00000E+00
 -1       556 4.31102E-05-3.14458E-07-1.32349E-23
 -1       557 4.21576E-05 2.02677E-06 0.00000E+00
 -1       558 4.14480E-05 3.72627E-06 0.00000E+00
 -1       559 4.09540E-05 4.85512E-06 6.61744E-24
 -1       560 4.06482E-05 5.48426E-06 0.00000E+00
 -1       561 4.05033E-05 5.68514E-06 0.00000E+00
 -1       562 4.04924E-05 5.52926E-06 0.00000E+00
 -1       563 4.05884E-05 5.08823E-06 0.00000E+00
 -1       564 4.07644E-05 4.43369E-06 0.00000E+00
 -1       565 4.09935E-05 3.63731E-06-1.65436E-24
 -1       566 4.12488E-05 2.77079E-06 0.00000E+00
 -1       567 4.15037E-05 1.90587E-06-4.13590E-25
 -1       568 4.17311E-05 1.11422E-06 1.65436E-24
 -1       569 4.19045E-05 4.67496E-07-8.27181E-25
 -1       570 4.19971E-05 3.72901E-08 1.65436E-24
 -1       571 4.43434E-05-1.52906E-07-1.65436E-24
 -1       572 4.44088E-05-6.91300E-08-6.20385E-25
 -1       573 4.44747E-05-2.03655E-08-8.27181E-25
 -1       574 4.45408E-05 1.55647E-09 8.27181E-25
 -1       575 4.46070E-05 4.83924E-09 0.00000E+00
 -1       576 4.46732E-05-2.26081E-09 0.00000E+00
 -1       577 4.47395E-05-1.14831E-08 0.00000E+00
 -1       578 4.48057E-05-1.45599E-08 0.00000E+00
 -1       579 4.48720E-05-3.22325E-09 3.30872E-24
 -1       580 4.49382E-05 3.07954E-08 1.65436E-24
 -1       581 4.50045E-05 9.57631E-08 0.00000E+00
 -1       582 4.50708E-05 1.99939E-07 0.00000E+00
 -1       583 4.51370E-05 3.51575E-07 0.00000E+00
 -1       584 4.52032E-05 5.58838E-07 0.00000E+00
 -1       585 4.52694E-05 8.29850E-07 0.00000E+00
 -1       586 4.39357E-05-2.49861E-07 1.65436E-24
 -1       587 4.35382E-05-2.20228E-07 0.00000E+00
 -1       588 4.31155E-05-1.90674E-07 0.00000E+00
 -1       589 4.26964E-05-1.61394E-07 0.00000E+00
 -1       590 4.23099E-05-1.32676E-07 0.00000E+00
 -1       591 4.41834E-05-1.29439E-07 0.00000E+00
 -1       592 4.40960E-05-1.16738E-08-4.13590E-25
 -1       593 4.40177E-05 8.03875E-08 0.00000E+00
 -1       594 4.39465E-05 1.52577E-07 0.00000E+00
 -1       595 4.38805E-05 2.10761E-07 1.65436E-24
 -1       596 4.38175E-05 2.60761E-07 0.00000E+00
 -1       597 4.37553E-05 3.08390E-07 0.00000E+00
 -1       598 4.36918E-05 3.59457E-07 0.00000E+00
 -1       599 4.36249E-05 4.19770E-07 8.27181E-25
 -1       600 4.35524E-05 4.95136E-07-4.13590E-25
 -1       601 4.34720E-05 5.91361E-07 0.00000E+00
 -1       602 4.33817E-05 7.14258E-07-2.06795E-25
 -1       603 4.32793E-05 8.69640E-07 4.13590E-25
 -1       604 4.31628E-05 1.06336E-06 3.10193E-25
 -1       605 4.30302E-05 1.30124E-06 0.00000E+00
 -1       606 4.53591E-05 1.64819E-06 0.00000E+00
 -1       607 4.53809E-05 2.19433E-06 0.00000E+00
 -1       608 4.54021E-05 2.80637E-06 0.00000E+00
 -1       609 4.54231E-05 3.47965E-06-1.65436E-24
 -1       610 4.54439E-05 4.20944E-06 0.00000E+00
 -1       611 4.54647E-05 4.99097E-06 0.00000E+00
 -1       612 4.54854E-05 5.81945E-06 0.00000E+00
 -1       613 4.55061E-05 6.69009E-06 0.00000E+00
 -1       614 4.55268E-05 7.59809E-06 1.65436E-24
 -1       615 4.55474E-05 8.53865E-06 0.00000E+00
 -1       616 4.55680E-05 9.50700E-06 0.00000E+00
 -1       617 4.55885E-05 1.04983E-05-1.65436E-24
 -1       618 4.56091E-05 1.15078E-05-8.27181E-25
 -1       619 4.56295E-05 1.25308E-05-4.13590E-25
 -1       620 4.56500E-05 1.35623E-05 8.27181E-25
 -1       621 4.49021E-05 1.24206E-06-1.65436E-24
 -1       622 4.44706E-05 1.31225E-06 0.00000E+00
 -1       623 4.40469E-05 1.38240E-06 0.00000E+00
 -1       624 4.36369E-05 1.45237E-06-8.27181E-25
 -1       625 4.32467E-05 1.52203E-06-8.27181E-25
 -1       626 4.52158E-05 1.68179E-06-3.30872E-24
 -1       627 4.50690E-05 2.26376E-06 0.00000E+00
 -1       628 4.48976E-05 2.91116E-06 0.00000E+00
 -1       629 4.47045E-05 3.61651E-06 0.00000E+00
 -1       630 4.44923E-05 4.37233E-06-3.30872E-24
 -1       631 4.42640E-05 5.17105E-06 0.00000E+00
 -1       632 4.40225E-05 6.00510E-06 0.00000E+00
 -1       633 4.37705E-05 6.86692E-06-3.30872E-24
 -1       634 4.35109E-05 7.74895E-06 0.00000E+00
 -1       635 4.32466E-05 8.64359E-06-8.27181E-25
 -1       636 4.29803E-05 9.54331E-06-1.65436E-24
 -1       637 4.27150E-05 1.04405E-05 0.00000E+00
 -1       638 4.24534E-05 1.13276E-05 1.65436E-24
 -1       639 4.21981E-05 1.21971E-05 0.00000E+00
 -1       640 4.19519E-05 1.30412E-05 0.00000E+00
 -1       656 4.47762E-05 1.44769E-05-1.65436E-24
 -1       657 4.40728E-05 1.43506E-05 0.00000E+00
 -1       658 4.34875E-05 1.42247E-05 3.30872E-24
 -1       659 4.29481E-05 1.40989E-05 0.00000E+00
 -1       660 4.23817E-05 1.39727E-05 0.00000E+00
 -1       661 4.53534E-05 1.56594E-05 1.65436E-24
 -1       662 4.50283E-05 1.67512E-05 0.00000E+00
 -1       663 4.46949E-05 1.78649E-05 1.65436E-24
 -1       664 4.43563E-05 1.89937E-05 8.27181E-25
 -1       665 4.40147E-05 2.01304E-05-1.65436E-24
 -1       666 4.36729E-05 2.12680E-05 0.00000E+00
 -1       667 4.33335E-05 2.23994E-05-1.65436E-24
 -1       668 4.29990E-05 2.35175E-05 0.00000E+00
 -1       669 4.26721E-05 2.46154E-05 0.00000E+00
 -1       670 4.23556E-05 2.56859E-05 0.00000E+00
 -1       671 4.20519E-05 2.67220E-05 0.00000E+00
 -1       672 4.17637E-05 2.77165E-05 0.00000E+00
 -1       673 4.14938E-05 2.86624E-05-1.65436E-24
 -1       674 4.12442E-05 2.95522E-05 0.00000E+00
 -1       675 4.10184E-05 3.03790E-05 0.00000E+00
 -1       676 4.42941E-05 3.16054E-05 0.00000E+00
 -1       677 4.35948E-05 3.15103E-05 0.00000E+00
 -1       678 4.28966E-05 3.14152E-05-3.30872E-24
 -1       679 4.22001E-05 3.13206E-05 1.65436E-24
 -1       680 4.15058E-05 3.12260E-05-1.65436E-24
 -1       716 1.47360E-05-6.31421E-05-8.07794E-28
 -1       717 1.47286E-05-5.92098E-05-4.03897E-28
 -1       718 1.47212E-05-5.52775E-05 0.00000E+00
 -1       719 1.47137E-05-5.13452E-05 0.00000E+00
 -1       720 1.47063E-05-4.74129E-05 0.00000E+00
 -1       721 1.46989E-05-4.34806E-05 0.00000E+00
 -1       722 1.46914E-05-3.95484E-05-2.58494E-26
 -1       723 1.46839E-05-3.56161E-05 0.00000E+00
 -1       724 1.46764E-05-3.16838E-05-1.03398E-25
 -1       725 1.46687E-05-2.77515E-05 0.00000E+00
 -1       726 1.46609E-05-2.38192E-05 4.13590E-25
 -1       727 1.46523E-05-1.98869E-05 0.00000E+00
 -1       728 1.46435E-05-1.59547E-05-1.65436E-24
 -1       729 1.46306E-05-1.20224E-05 1.65436E-24
 -1       730 1.46190E-05-8.09009E-06 0.00000E+00
 -1       766 1.06534E-05-4.19134E-06-6.61744E-24
 -1       767 6.72117E-06-4.20289E-06 0.00000E+00
 -1       768 2.78889E-06-4.21585E-06-1.65436E-24
 -1       769-1.14341E-06-4.22467E-06 4.13590E-25
 -1       770-5.07567E-06-4.23342E-06 0.00000E+00
 -1       771 1.25584E-05-9.13847E-07-2.64698E-23
 -1       772 1.07642E-05 1.69170E-06 1.32349E-23
 -1       773 9.19171E-06 3.70766E-06 0.00000E+00
 -1       774 7.82158E-06 5.18498E-06-1.32349E-23
 -1       775 6.63478E-06 6.17494E-06 0.00000E+00
 -1       776 5.61167E-06 6.72955E-06 0.00000E+00
 -1       777 4.73245E-06 6.90114E-06-2.64698E-23
 -1       778 3.97719E-06 6.74250E-06 0.00000E+00
 -1       779 3.32591E-06 6.30665E-06 0.00000E+00
 -1       780 2.75855E-06 5.64699E-06 0.00000E+00
 -1       781 2.25502E-06 4.81706E-06 2.64698E-23
 -1       782 1.79524E-06 3.87065E-06 0.00000E+00
 -1       783 1.35912E-06 2.86162E-06-2.64698E-23
 -1       784 9.26922E-07 1.84400E-06 0.00000E+00
 -1       785 4.78726E-07 8.71788E-07 2.64698E-23
 -1       786 4.20369E-05 4.12989E-08 0.00000E+00
 -1       787 4.20929E-05 1.51040E-07 4.13590E-25
 -1       788 4.21488E-05 2.30015E-07 0.00000E+00
 -1       789 4.22052E-05 2.85135E-07 0.00000E+00
 -1       790 4.22616E-05 3.23285E-07-1.65436E-24
 -1       791 4.23182E-05 3.51336E-07 0.00000E+00
 -1       792 4.23748E-05 3.76153E-07-1.65436E-24
 -1       793 4.24314E-05 4.04593E-07 0.00000E+00
 -1       794 4.24880E-05 4.43523E-07-1.65436E-24
 -1       795 4.25446E-05 4.99814E-07 8.27181E-25
 -1       796 4.26012E-05 5.80353E-07-1.65436E-24
 -1       797 4.26578E-05 6.92050E-07-8.27181E-25
 -1       798 4.27143E-05 8.41843E-07 0.00000E+00
 -1       799 4.27706E-05 1.03670E-06-8.27181E-25
 -1       800 4.28269E-05 1.28363E-06-1.65436E-24
 -1       801 3.86369E-05-6.36042E-08 0.00000E+00
 -1       802 3.07043E-05-4.17435E-08 0.00000E+00
 -1       803 2.05300E-05-3.78722E-08 0.00000E+00
 -1       804 1.04584E-05-3.68803E-08 1.65436E-24
 -1       805 2.83359E-06-1.64223E-08 0.00000E+00
 -1       806 4.18685E-05 1.27423E-08 0.00000E+00
 -1       807 4.17576E-05 1.13002E-07 0.00000E+00
 -1       808 4.16514E-05 1.99523E-07 1.65436E-24
 -1       809 4.15483E-05 2.76879E-07 0.00000E+00
 -1       810 4.14469E-05 3.49628E-07 0.00000E+00
 -1       811 4.13454E-05 4.22301E-07 0.00000E+00
 -1       812 4.12423E-05 4.99425E-07 1.65436E-24
 -1       813 4.11358E-05 5.85520E-07 8.27181E-25
 -1       814 4.10242E-05 6.85110E-07 1.65436E-24
 -1       815 4.09059E-05 8.02714E-07 4.13590E-25
 -1       816 4.07792E-05 9.42849E-07 0.00000E+00
 -1       817 4.06423E-05 1.11003E-06 0.00000E+00
 -1       818 4.04935E-05 1.30878E-06 1.65436E-24
 -1       819 4.03314E-05 1.54358E-06-4.13590E-25
 -1       820 4.01543E-05 1.81892E-06-8.27181E-25
 -1       821 4.28132E-05 1.98104E-06 0.00000E+00
 -1       822 4.27404E-05 2.47110E-06 0.00000E+00
 -1       823 4.26678E-05 3.04967E-06 0.00000E+00
 -1       824 4.25944E-05 3.70645E-06 0.00000E+00
 -1       825 4.25208E-05 4.43105E-06 1.65436E-24
 -1       826 4.24472E-05 5.21300E-06 8.27181E-25
 -1       827 4.23734E-05 6.04177E-06 1.65436E-24
 -1       828 4.22996E-05 6.90677E-06 0.00000E+00
 -1       829 4.22258E-05 7.79737E-06 0.00000E+00
 -1       830 4.21520E-05 8.70291E-06 0.00000E+00
 -1       831 4.20782E-05 9.61271E-06 1.65436E-24
 -1       832 4.20045E-05 1.05161E-05-8.27181E-25
 -1       833 4.19310E-05 1.14024E-05-1.65436E-24
 -1       834 4.18580E-05 1.22609E-05 0.00000E+00
 -1       835 4.17850E-05 1.30811E-05 0.00000E+00
 -1       836 4.24725E-05 1.68021E-06 1.65436E-24
 -1       837 4.19855E-05 1.77356E-06-8.27181E-25
 -1       838 4.14559E-05 1.86679E-06 1.65436E-24
 -1       839 4.09186E-05 1.95963E-06-8.27181E-25
 -1       840 4.04088E-05 2.05236E-06 4.13590E-25
 -1       841 4.27495E-05 2.00631E-06 8.27181E-25
 -1       842 4.25641E-05 2.56366E-06 0.00000E+00
 -1       843 4.23389E-05 3.22703E-06-8.27181E-25
 -1       844 4.20868E-05 3.96173E-06-4.13590E-25
 -1       845 4.18147E-05 4.74956E-06 0.00000E+00
 -1       846 4.15296E-05 5.57233E-06 4.13590E-25
 -1       847 4.12351E-05 6.41984E-06-8.27181E-25
 -1       848 4.09351E-05 7.28194E-06 0.00000E+00
 -1       849 4.06323E-05 8.15170E-06 0.00000E+00
 -1       850 4.03291E-05 9.02219E-06 0.00000E+00
 -1       851 4.00282E-05 9.88679E-06 0.00000E+00
 -1       852 3.97318E-05 1.07388E-05 0.00000E+00
 -1       853 3.94438E-05 1.15687E-05-4.13590E-25
 -1       854 3.91671E-05 1.23668E-05 0.00000E+00
 -1       855 3.89088E-05 1.31165E-05-4.13590E-25
 -1       856 4.16632E-05 1.46628E-05 0.00000E+00
 -1       857 4.16072E-05 1.55875E-05-4.13590E-25
 -1       858 4.15512E-05 1.66100E-05 0.00000E+00
 -1       859 4.14945E-05 1.77134E-05 0.00000E+00
 -1       860 4.14378E-05 1.88809E-05 1.65436E-24
 -1       861 4.13809E-05 2.00957E-05 8.27181E-25
 -1       862 4.13239E-05 2.13410E-05 1.65436E-24
 -1       863 4.12669E-05 2.25997E-05-8.27181E-25
 -1       864 4.12099E-05 2.38551E-05-1.65436E-24
 -1       865 4.11529E-05 2.50904E-05 0.00000E+00
 -1       866 4.10960E-05 2.62885E-05 0.00000E+00
 -1       867 4.10392E-05 2.74327E-05 0.00000E+00
 -1       868 4.09824E-05 2.85062E-05 1.65436E-24
 -1       869 4.09259E-05 2.94920E-05 0.00000E+00
 -1       870 4.08696E-05 3.03736E-05 1.65436E-24
 -1       871 4.11060E-05 1.38455E-05 0.00000E+00
 -1       872 4.05861E-05 1.38374E-05 0.00000E+00
 -1       873 4.01196E-05 1.38290E-05 0.00000E+00
 -1       874 3.96698E-05 1.38202E-05 0.00000E+00
 -1       875 3.91994E-05 1.38111E-05-4.13590E-25
 -1       876 4.15134E-05 1.46734E-05 0.00000E+00
 -1       877 4.12874E-05 1.55674E-05 0.00000E+00
 -1       878 4.10376E-05 1.65248E-05 0.00000E+00
 -1       879 4.07676E-05 1.75372E-05 1.65436E-24
 -1       880 4.04802E-05 1.85959E-05 3.30872E-24
 -1       881 4.01788E-05 1.96923E-05 0.00000E+00
 -1       882 3.98664E-05 2.08180E-05 0.00000E+00
 -1       883 3.95462E-05 2.19645E-05 0.00000E+00
 -1       884 3.92213E-05 2.31232E-05 0.00000E+00
 -1       885 3.88950E-05 2.42857E-05-1.65436E-24
 -1       886 3.85705E-05 2.54435E-05 3.30872E-24
 -1       887 3.82508E-05 2.65881E-05 1.65436E-24
 -1       888 3.79391E-05 2.77111E-05 0.00000E+00
 -1       889 3.76381E-05 2.88037E-05 0.00000E+00
 -1       890 3.73516E-05 2.98576E-05 0.00000E+00
 -1       891 4.02031E-05 3.10892E-05 1.65436E-24
 -1       892 3.96616E-05 3.10436E-05 0.00000E+00
 -1       893 3.91341E-05 3.09980E-05 0.00000E+00
 -1       894 3.85648E-05 3.09525E-05 4.13590E-25
 -1       895 3.78979E-05 3.09069E-05-4.13590E-25
 -1       956 3.98825E-05 2.58752E-06-8.27181E-25
 -1       957 3.98023E-05 3.11509E-06 4.13590E-25
 -1       958 3.97217E-05 3.71330E-06 1.65436E-24
 -1       959 3.96410E-05 4.37315E-06 0.00000E+00
 -1       960 3.95601E-05 5.08562E-06 1.65436E-24
 -1       961 3.94792E-05 5.84163E-06 8.27181E-25
 -1       962 3.93983E-05 6.63211E-06 0.00000E+00
 -1       963 3.93173E-05 7.44800E-06-1.65436E-24
 -1       964 3.92363E-05 8.28018E-06 0.00000E+00
 -1       965 3.91554E-05 9.11959E-06 1.65436E-24
 -1       966 3.90744E-05 9.95714E-06 3.30872E-24
 -1       967 3.89934E-05 1.07837E-05 0.00000E+00
 -1       968 3.89125E-05 1.15903E-05-3.30872E-24
 -1       969 3.88318E-05 1.23678E-05-1.65436E-24
 -1       970 3.87513E-05 1.31072E-05 0.00000E+00
 -1       971 3.85743E-05 1.45085E-05-3.30872E-24
 -1       972 3.84747E-05 1.53229E-05 0.00000E+00
 -1       973 3.83750E-05 1.62309E-05 3.30872E-24
 -1       974 3.82749E-05 1.72200E-05 0.00000E+00
 -1       975 3.81748E-05 1.82778E-05 0.00000E+00
 -1       976 3.80745E-05 1.93917E-05 0.00000E+00
 -1       977 3.79742E-05 2.05493E-05 3.30872E-24
 -1       978 3.78738E-05 2.17379E-05 0.00000E+00
 -1       979 3.77734E-05 2.29452E-05 0.00000E+00
 -1       980 3.76731E-05 2.41584E-05-1.65436E-24
 -1       981 3.75727E-05 2.53652E-05-3.30872E-24
 -1       982 3.74725E-05 2.65529E-05 0.00000E+00
 -1       983 3.73724E-05 2.77089E-05-3.30872E-24
 -1       984 3.72729E-05 2.88209E-05 0.00000E+00
 -1       985 3.71735E-05 2.98762E-05-1.65436E-24
 -3
    1PSTEP                         4           2           1          
  100CL  102 5.00000E-01         507                     0    2           1
 -4  STRESS      6    1
 -5  SXX         1    4    1    1
 -5  SYY         1    4    2    2
 -5  SZZ         1    4    3    3
 -5  SXY         1    4    1    2
 -5  SYZ         1    4    2    3
 -5  SZX         1    4    3    1
 -1         1-1.39401E+06-5.48950E+05-2.63641E+05-7.30636E+05-4.36557E-10 2.63875E-09
 -1         2-7.16163E+04-5.93404E+05 5.17081E+02 4.88210E+03-2.14641E-09-2.37688E-09
 -1         3 1.72631E+01-7.22444E+05 4.05333E+02-1.61069E+02-8.86899E-11 1.86401E-09
 -1         5-8.67525E+00 2.80444E+05 9.14640E+00-2.78732E+00 9.74261E-11-3.50128E-08
 -1         8-1.45202E+06-4.98742E+05-2.13232E+05-5.46684E+05 1.01682E-09-6.54836E-10
 -1         9-1.68878E+06-7.49600E+05-3.02327E+05-3.94415E+05-4.10655E-09 4.09782E-09
 -1        10-2.62481E+03-7.98934E+05-3.08602E+03-1.36932E+03-1.16790E-09 3.09386E-09
 -1        11 1.58349E+00-2.97858E+00-1.07959E+00 4.66580E-01 8.07234E-10 7.10937E-09
 -1        12-3.01725E+03 1.62933E+05-2.37717E+04 7.03129E+00 4.10982E-09 3.35708E-09
 -1        15 1.93529E+03 1.04655E+03 6.00623E+03 2.66414E+00-7.91545E-11 1.02395E-08
 -1        16-1.91019E+06-5.26167E+05-1.81247E+05-6.59343E+05-3.08171E-09 3.49974E-09
 -1        17-3.48146E+05-2.93320E+05-2.98453E+04-2.70265E+05 1.44731E-09 2.95646E-09
 -1        18 2.16887E+04 6.41179E+03-1.01546E+04-6.74545E+04 4.90445E-10-1.51613E-09
 -1        19 6.66208E+04 7.59977E+04-8.19411E+03 9.42546E+03 2.08699E-09-4.69906E-10
 -1        20 4.99722E+04-1.01508E+05-1.88989E+04 3.96697E+04 2.03348E-09-7.70039E-10
 -1        21-1.04004E+02-2.71826E+05-1.19319E+03-1.80726E+02 5.38931E-09-9.00537E-10
 -1        23 4.93669E-01 2.35182E-01 9.04379E+00 9.75239E-04 4.16926E-09 2.56784E-09
 -1        24-1.02811E+06-3.17520E+05 4.03231E+04-5.41442E+05-1.61817E-09 8.14907E-11
 -1        25 1.32909E+04 2.32799E+04 1.76045E+04-2.91456E+05 4.52383E-10-3.34257E-09
 -1        26-2.57994E+03 6.19998E+04-2.19533E+03-1.10776E+04-1.60782E-10-7.85008E-10
 -1        27-2.11774E+04-6.08843E+04-2.77856E+04 5.19981E+04 4.32450E-09-1.10958E-09
 -1        28-5.57006E+03-8.29490E+04-1.21282E+03 2.90539E+04 3.58091E-09-4.67402E-09
 -1        31 3.38323E+03 1.82956E+03 1.05000E+04 5.86523E+00 6.23027E-09 1.17051E-10
 -1        32-6.29219E+05-8.65869E+04 1.81195E+05-8.97510E+05-6.22094E-09 5.51040E-10
 -1        33-9.35026E+04 6.93719E+04 2.19229E+04-2.73069E+04-4.45652E-11 5.44484E-10
 -1        34-1.04975E+05-3.13580E+03 1.04532E+04 3.80299E+04 3.83472E-09-2.11764E-09
 -1        35-2.01450E+04-2.77431E+04-1.51273E+03 4.66227E+04 3.94767E-09-1.72804E-10
 -1        36-4.93847E+03-2.46745E+04 5.69067E+04 7.15973E-07-7.20900E-10-1.79352E-09
 -1        37 1.97854E+04 2.85608E+04 4.02878E+04 5.76364E-07-1.22677E-10-2.07319E-09
 -1        38 4.57427E+03-3.87985E+03 1.47349E+04 7.33342E-07-1.58564E-10 9.57698E-10
 -1        39 8.69491E+03 4.49028E+03 9.28496E+03 9.99100E-07 3.64388E-13 1.93722E-10
 -1        40 6.14737E+03-6.09575E+02 3.80997E+03 2.14260E-07-4.54676E-11-5.75301E-09
 -1        41 6.86414E+03 7.19271E+02 2.31107E+03-7.86809E-08-1.19384E-10-1.07093E-10
 -1        42 6.40479E+03-1.09592E+02 1.19350E+03 8.09684E-08 6.11000E-11 4.31578E-09
 -1        43 6.60892E+03 2.23024E+02 1.06890E+03 5.34338E-07-1.38246E-10-5.06106E-09
 -1        44 6.40258E+03-1.13411E+02 1.22735E+03 1.94529E-07 5.97025E-11-2.01237E-09
 -1        45 6.88170E+03 7.52023E+02 2.40916E+03-2.80898E-07-1.66025E-10 6.82121E-10
 -1        46 6.13202E+03-6.38508E+02 3.98629E+03-4.18742E-07 2.02726E-10 1.30967E-10
 -1        47 8.80094E+03 4.70466E+03 9.72580E+03 1.31419E-06 1.34498E-10-6.54245E-09
 -1        48 4.48361E+03-4.06527E+03 1.54380E+04 4.15042E-07-2.54168E-11 1.12323E-09
 -1        49 2.04217E+04 2.99262E+04 4.22129E+04 1.23993E-06 1.19696E-09 5.99357E-10
 -1        50-5.48360E+03-2.58538E+04 5.96276E+04-5.54854E-07 1.83541E-09 4.72937E-11
 -1        51 1.87529E+04-3.21533E+05 3.35976E+04-8.56603E+05 1.45519E-11 1.14960E-09
 -1        52 9.39772E+03-3.19550E+05 2.20104E+04-9.54920E+05 5.09317E-11 4.01633E-09
 -1        53 7.04411E+03-3.28005E+05 1.98352E+04-8.54183E+05-1.81899E-10 8.69477E-09
 -1        54 1.84123E+04-3.24953E+05 3.28618E+04-9.57501E+05 0.00000E+00 8.03630E-09
 -1        55 4.25190E+04-3.36116E+05 6.09174E+04-8.53736E+05 0.00000E+00 4.06726E-09
 -1        56-3.97399E+06-4.34673E+05-3.36141E+05-1.53816E+06-1.60071E-10 1.23691E-09
 -1        57-4.12420E+06-7.38347E+05-2.28726E+05-1.50871E+06 3.78350E-10 4.11092E-10
 -1        58-4.04333E+06-5.44327E+05-7.89738E+04-1.51471E+06-2.36469E-10-4.76211E-09
 -1        59-4.04394E+06-6.10197E+05-4.77874E+04-1.53602E+06 1.30058E-09-4.39468E-09
 -1        60-4.05357E+06-5.60365E+05-1.84436E+04-1.51163E+06 2.08320E-09-3.54248E-09
 -1        61-4.03437E+06-5.89106E+05-1.06256E+04-1.53674E+06-7.75344E-10-3.27736E-09
 -1        62-4.05271E+06-5.65103E+05-5.07983E+03-1.51404E+06-1.74532E-09-6.11635E-10
 -1        63-4.03938E+06-5.80019E+05-4.22827E+03-1.52933E+06 2.25691E-09 3.57090E-09
 -1        64-4.04847E+06-5.69459E+05-4.86301E+03-1.51899E+06-9.84528E-11 1.22782E-10
 -1        65-4.04988E+06-5.72986E+05-9.88036E+03-1.51846E+06 1.27898E-09-7.05973E-09
 -1        66-4.04220E+06-5.72188E+05-1.71570E+04-1.52489E+06 1.65306E-09 6.12908E-09
 -1        67-4.06951E+06-5.81801E+05-4.42709E+04-1.50557E+06 2.75077E-09 1.93495E-09
 -1        68-4.02903E+06-5.60924E+05-7.32013E+04-1.53184E+06 9.74978E-10-1.29512E-09
 -1        69-4.14678E+06-6.97916E+05-2.11970E+05-1.47742E+06-2.34922E-09-1.46974E-09
 -1        70-3.96568E+06-4.58284E+05-3.11502E+05-1.55239E+06-1.42609E-09-1.01863E-10
 -1        86 2.58217E+04-1.35405E+06-6.47529E+04 4.82487E+03 6.28279E-09-2.99170E-09
 -1        87-3.23477E+04-1.35898E+06-4.59871E+04 3.42109E+03-8.14907E-10 3.44287E-09
 -1        88 6.62969E+03-1.35629E+06-2.57054E+04 1.11671E+04 6.85986E-09-2.11979E-09
 -1        89-2.36186E+04-1.36426E+06-3.53561E+04 7.27499E+03-1.28898E-09-4.57834E-09
 -1        90 1.70897E+04-1.34880E+06-4.07361E+04 9.69470E+02 3.28328E-09 2.58576E-09
 -1       121-4.37881E+01-7.22642E+05 4.63652E+02 8.05163E+01-1.92159E-10 2.87991E-09
 -1       122 1.70506E+02-7.22344E+05 8.97267E+02-3.21224E+02-2.80863E-10-2.55864E-09
 -1       123-1.69564E+02-7.22742E+05 1.52121E+03 2.40619E+02-4.65548E-10-3.77668E-09
 -1       124 1.88542E+03-7.21337E+05 3.77505E+03-6.85719E+02-2.56932E-10-3.45676E-09
 -1       125-1.42048E+03-7.23652E+05 5.81657E+03 4.45387E+02-6.74845E-10 2.18279E-09
 -1       191-8.91518E+00 2.80466E+05 1.07815E+01 1.39251E+00 1.76115E-10-1.00599E-08
 -1       192-5.57946E+00 2.80445E+05 2.03004E+01-1.33291E+01 2.65288E-10-2.00453E-09
 -1       193 8.30020E-01 2.80465E+05 3.82759E+01 1.19323E+01 3.29578E-10-3.36786E-09
 -1       194 3.33675E+01 2.80457E+05 8.61612E+01-1.05640E+02 1.63595E-10-2.85945E-09
 -1       195 1.11608E+02 2.80453E+05 1.75080E+02 9.37462E+01 3.95630E-10-3.39969E-09
 -1       251-2.01001E+06 4.33494E+04-1.01609E+05-1.47979E+03-5.80968E-10-1.49157E-09
 -1       252-2.04221E+06-5.01994E+04-6.98641E+04 1.06044E+03 4.79893E-10-3.80169E-09
 -1       253-2.02525E+06 6.83727E+03-2.65987E+04 1.47556E+03-1.88436E-09 4.91127E-10
 -1       254-2.02491E+06-7.93053E+03-1.54987E+04-1.05768E+02 3.69777E-09 9.02332E-09
 -1       255-2.02725E+06 1.08706E+03-7.10533E+03-3.13358E+02 2.16822E-06 3.92038E-09
 -1       256-2.02280E+06-1.29245E+03-3.37603E+03 7.33588E+02 3.90296E-06 5.27194E-09
 -1       257-2.02735E+06 2.01693E+02-2.38322E+03 6.36144E+02 1.52535E-06 6.91676E-09
 -1       258-2.02277E+06-4.00142E+02-1.20471E+03-5.24343E+00-1.30561E-06-1.69874E-09
 -1       259-2.02728E+06 1.95572E+02-2.32247E+03 4.25506E+02-2.61064E-06-8.01657E-09
 -1       260-2.02310E+06-1.24451E+03-3.30344E+03 7.16205E+02-3.77812E-06-1.03389E-08
 -1       261-2.02703E+06 1.04557E+03-6.81540E+03-8.53342E+01 2.68872E-06-1.33332E-09
 -1       262-2.02552E+06-7.64131E+03-1.50421E+04-6.76473E+01 9.82485E-06-1.90987E-08
 -1       263-2.02487E+06 6.59046E+03-2.55342E+04 1.20941E+03 4.65668E-06 2.90829E-08
 -1       264-2.04282E+06-4.84198E+04-6.75298E+04 9.75724E+02 5.70437E-09 1.39071E-08
 -1       265-2.00978E+06 4.18179E+04-9.76751E+04-1.12888E+03-4.14764E-09-3.84171E-09
 -1       266-3.40243E+04-1.57334E+04 7.85307E+04-5.48297E+01 1.45519E-11 1.70624E-09
 -1       267 3.94031E+04 1.83736E+04 5.57051E+04 6.30390E+01 4.00178E-11-3.64769E-09
 -1       268-5.36917E+03-2.63053E+03 2.06183E+04-8.20951E+00 4.09273E-11-4.82874E-10
 -1       269 6.33791E+03 3.15433E+03 1.34750E+04 9.54327E+00-2.50111E-11-2.78931E-09
 -1       270-9.67504E+02-5.23264E+02 6.46967E+03-1.33168E+00-3.56977E-11 8.01396E-09
 -1       271-3.86056E+06-4.67796E+05-3.09302E+05-1.49816E+06-1.25146E-09 1.80444E-09
 -1       272-3.97878E+06-6.96814E+05-2.00377E+05-1.48907E+06 3.96540E-10 2.40107E-09
 -1       273-3.91981E+06-5.47714E+05-7.29871E+04-1.48296E+06 1.05638E-09 6.18456E-09
 -1       274-3.90902E+06-6.00252E+05-4.12579E+04-1.51138E+06-2.16187E-09 4.69936E-09
 -1       275-3.92907E+06-5.55369E+05-1.69950E+04-1.47926E+06 6.25732E-10-5.88443E-10
 -1       276-3.89769E+06-5.91587E+05-9.16152E+03-1.51709E+06 4.58385E-10 1.02591E-09
 -1       277-3.93120E+06-5.55278E+05-4.54694E+03-1.47776E+06-5.91854E-10 1.46599E-09
 -1       278-3.89546E+06-5.91659E+05-3.51606E+03-1.51889E+06-1.13346E-10 3.27623E-09
 -1       279-3.93139E+06-5.55137E+05-4.01146E+03-1.47757E+06-8.43954E-10-1.51294E-09
 -1       280-3.89690E+06-5.91914E+05-7.66149E+03-1.51787E+06-5.68548E-10-1.16415E-10
 -1       281-3.92971E+06-5.55132E+05-1.40034E+04-1.47871E+06-1.61140E-09-2.29375E-09
 -1       282-3.90624E+06-5.98970E+05-3.38925E+04-1.51311E+06-2.60115E-10 8.59291E-09
 -1       283-3.92199E+06-5.48996E+05-5.99113E+04-1.48190E+06-3.66299E-10-2.28465E-09
 -1       284-3.96388E+06-6.77763E+05-1.64441E+05-1.49424E+06-5.67525E-10-2.16460E-10
 -1       285-3.87306E+06-4.83763E+05-2.53895E+05-1.49475E+06-7.96717E-10 1.68802E-09
 -1       301 3.06981E+04-2.19576E+04 9.96167E+04-2.49793E+04-1.12050E-09 5.49767E-09
 -1       302 1.24778E+04-6.75674E+02 6.57098E+04-3.16088E+04-3.30783E-09-8.63643E-10
 -1       303 2.04181E+03-1.42876E+04 5.71632E+04-2.50405E+04-1.48975E-09 1.80444E-09
 -1       304 2.00338E+04 5.54971E+03 9.06732E+04-3.15722E+04-3.08501E-09-5.10568E-10
 -1       305 5.10232E+04-2.81470E+04 1.58237E+05-2.49495E+04-1.04046E-09 2.67755E-09
 -1       306-2.12045E+06-2.69809E+05-1.31385E+05-8.20795E+05 1.22418E-09-2.06637E-09
 -1       307-2.14693E+06-3.89707E+05-8.49476E+04-8.43196E+05 1.44655E-09-4.03816E-09
 -1       308-2.14607E+06-3.03037E+05-3.10467E+04-8.13830E+05-1.04592E-10-5.17321E-09
 -1       309-2.11702E+06-3.49479E+05-1.75200E+04-8.53665E+05-7.09406E-10-2.27465E-09
 -1       310-2.15021E+06-3.06008E+05-7.27111E+03-8.12039E+05 4.84761E-10-3.20506E-09
 -1       311-2.11222E+06-3.45978E+05-3.97404E+03-8.56420E+05 4.87580E-09 9.81913E-10
 -1       312-2.15110E+06-3.05958E+05-2.10170E+03-8.11427E+05 1.86185E-09-2.19403E-09
 -1       313-2.11155E+06-3.45816E+05-1.87298E+03-8.56935E+05-2.19308E-09-4.05578E-09
 -1       314-2.15095E+06-3.06094E+05-2.46703E+03-8.11586E+05-3.18664E-09-3.70778E-09
 -1       315-2.11282E+06-3.45635E+05-4.98079E+03-8.55706E+05-8.38327E-10 2.46473E-10
 -1       316-2.14966E+06-3.06291E+05-9.29243E+03-8.12517E+05-4.58840E-10 4.20096E-09
 -1       317-2.11908E+06-3.50071E+05-2.24670E+04-8.52101E+05-2.52157E-10 2.77760E-09
 -1       318-2.14440E+06-3.02402E+05-3.98507E+04-8.14740E+05 9.68612E-11 9.56788E-10
 -1       319-2.15725E+06-4.02034E+05-1.09063E+05-8.39094E+05 5.31088E-10-1.70257E-09
 -1       320-2.11176E+06-2.59436E+05-1.68632E+05-8.23379E+05-3.12866E-10 3.82715E-09
 -1       336 2.30110E+03-8.73252E+05-9.77517E+03 9.23113E+02-1.27920E-09 4.56839E-09
 -1       337-4.20313E+03-8.76921E+05-1.00478E+04-2.32672E+03 3.36058E-10 1.82149E-09
 -1       338 1.34007E+03-8.73782E+05-1.08833E+04 1.40222E+03-1.77852E-09 3.20597E-10
 -1       339-1.26847E+04-8.81633E+05-2.36853E+04-3.27081E+03 1.10549E-09-4.20937E-09
 -1       340 9.84719E+03-8.68579E+05-3.48352E+04 1.86311E+03-2.09548E-09 2.02681E-09
 -1       356-4.91162E-01 1.90827E-01-1.60241E+00-1.25529E+00-2.47329E-07 1.67025E-09
 -1       357-8.72559E-01-3.54346E-01-3.37734E+00 5.05195E+00-4.94712E-07-1.78135E-09
 -1       358-4.07297E-01 1.64955E-01-6.39381E+00-1.25507E+00-2.92152E-07-1.32339E-09
 -1       359-1.63319E+00-1.11414E+00-1.34169E+01 5.05180E+00-8.87693E-08 1.74171E-09
 -1       360 2.69301E-01 9.50709E-01-2.56317E+01-1.25514E+00 9.20115E-08 1.84325E-09
 -1       361-5.92527E+00-7.23048E+00-5.48166E+01 5.05214E+00 2.72913E-07 1.36689E-09
 -1       362 3.88487E+00 6.28102E+00-1.02613E+02-1.25542E+00 3.61460E-07 3.20775E-09
 -1       363-2.95836E+01-4.71589E+01-2.26022E+02 5.05626E+00 4.49628E-07 4.54440E-09
 -1       364 2.39284E+01 4.08746E+01-4.09300E+02-1.25925E+00 4.39969E-07 2.77348E-09
 -1       365-1.64880E+02-3.03887E+02-9.43307E+02 5.08542E+00 4.32579E-07 1.80694E-09
 -1       366 1.39187E+02 2.62973E+02-1.62293E+03-1.28457E+00 3.31828E-07-7.73184E-10
 -1       367-9.62095E+02-1.94324E+03-4.00654E+03 5.26216E+00 2.32308E-07-2.54698E-09
 -1       368 8.21216E+02 1.67996E+03-6.37345E+03-1.43591E+00 7.66521E-08 1.38743E-09
 -1       369-5.76521E+03-1.23674E+04-1.74417E+04 6.27068E+00-8.20055E-08 3.56704E-09
 -1       370 4.94332E+03 1.06854E+04-2.46320E+04-2.29250E+00-3.77827E-08 7.27414E-09
 -1       376-6.96681E-01 1.14740E+00-7.19655E-01 1.16540E+00 9.65267E-07-3.61970E-07
 -1       377 4.00355E+00-4.14933E+00-1.29347E+00-4.36594E+00 1.92706E-06-7.27462E-07
 -1       378-6.61921E-01 1.12143E+00-2.31913E+00 1.19165E+00 4.57465E-07-1.69053E-07
 -1       379 3.54248E+00-4.62913E+00-5.16222E+00-4.35755E+00-1.01586E-06 3.82480E-07
 -1       380-2.35523E-01 1.62731E+00-9.99387E+00 1.15699E+00-2.79220E-06 1.04849E-06
 -1       381 7.80402E-01-8.49110E+00-2.31436E+01-3.87669E+00-4.56757E-06 1.71495E-06
 -1       382 2.10026E+00 4.98309E+00-4.38301E+01 7.10941E-01-6.27865E-06 2.35951E-06
 -1       383-1.53077E+01-3.33246E+01-1.05135E+02-5.51090E-02-7.99119E-06 2.99717E-06
 -1       384 1.58526E+01 2.64581E+01-1.91702E+02-2.66334E+00-9.53172E-06 3.57180E-06
 -1       385-1.12860E+02-1.92099E+02-4.83166E+02 2.66964E+01-1.10721E-05 4.15267E-06
 -1       386 9.96529E+01 1.63739E+02-8.33843E+02-2.60322E+01-1.22481E-05 4.59346E-06
 -1       387-7.06459E+02-1.20239E+03-2.25098E+03 2.08815E+02-1.34185E-05 5.04087E-06
 -1       388 6.09458E+02 1.03661E+03-3.59992E+03-1.84720E+02-1.33214E-05 4.99897E-06
 -1       389-4.35577E+03-7.61537E+03-1.06741E+04 1.41680E+03-1.32165E-05 4.96514E-06
 -1       390 3.74922E+03 6.57583E+03-1.53631E+04-1.23353E+03-6.61030E-06 2.47999E-06
 -1       406 1.42266E+02 2.80440E+05 5.77932E+02-9.54949E+01 6.32099E-10-2.33103E-09
 -1       407 2.25943E+02 2.80565E+05 1.15317E+03 9.82644E+01 2.37605E-11 2.81034E-10
 -1       408 5.90535E+02 2.80368E+05 2.26976E+03-2.51720E+00 7.76936E-10-2.14914E-09
 -1       409 2.44739E+03 2.81279E+05 5.10021E+03-8.68277E+01 8.16271E-11 3.32511E-09
 -1       410 7.03060E+03 2.79725E+05 1.04073E+04 9.42455E+01 8.20364E-10 3.03044E-09
 -1       501 1.48806E+05-6.57959E+04 1.51497E+05 1.02286E+03 8.74678E-10 6.54836E-10
 -1       502 2.16231E+05 7.61373E+04 1.07492E+05-1.73527E+03-4.82862E-10-9.96806E-10
 -1       503 1.74820E+05-1.03201E+04 3.92228E+04 1.70321E+02-7.17742E-10-1.81353E-09
 -1       504 1.85928E+05 1.19376E+04 2.46945E+04-6.48914E+02 1.16457E-10-1.76169E-09
 -1       505 1.79081E+05-1.61475E+03 1.00481E+04-6.34772E+01 1.18241E-09-1.60298E-09
 -1       506 1.80961E+05 1.88069E+03 5.93672E+03-3.49436E+02-2.10175E-10 8.27754E-10
 -1       507 1.79787E+05-2.65118E+02 2.76763E+03-1.29163E+02-1.24485E-06-9.72250E-10
 -1       508 1.80181E+05 4.01327E+02 1.93788E+03-2.89831E+02-2.48884E-06-6.55420E-09
 -1       509 1.79862E+05-1.35633E+02 1.62378E+03-1.23084E+02-1.24521E-06-3.12704E-09
 -1       510 1.80372E+05 7.71202E+02 2.62303E+03-3.82266E+02 2.28957E-10-6.82235E-10
 -1       511 1.79596E+05-6.34963E+02 4.09047E+03-3.67257E+01 6.35095E-10-1.76215E-10
 -1       512 1.82391E+05 4.68504E+03 9.80919E+03-7.58187E+02 5.43649E-10 4.97550E-09
 -1       513 1.77843E+05-4.04914E+03 1.54674E+04 2.52843E+02 4.48724E-10 5.96447E-09
 -1       514 1.95222E+05 3.00618E+04 4.25647E+04-2.00552E+03 1.99861E-10-2.99178E-09
 -1       515 1.66772E+05-2.60093E+04 5.94727E+04 1.21061E+03 2.24759E-09 5.89353E-10
 -1       521-3.96501E+06-4.94704E+05-2.63171E+05-1.53104E+06-1.22236E-09 5.09317E-10
 -1       522-4.05515E+06-6.99639E+05-1.70424E+05-1.53493E+06 1.39289E-09-6.97946E-09
 -1       523-4.01589E+06-5.62106E+05-6.20896E+04-1.51751E+06-2.24418E-10-1.62618E-09
 -1       524-3.99527E+06-6.18171E+05-3.51041E+04-1.55479E+06-3.62888E-10-9.01764E-10
 -1       525-4.02393E+06-5.68430E+05-1.44738E+04-1.51418E+06 1.11550E-09 9.64064E-10
 -1       526-3.98573E+06-6.10740E+05-7.85636E+03-1.55961E+06 5.12671E-09 4.58124E-09
 -1       527-4.02552E+06-5.68573E+05-3.98844E+03-1.51315E+06-2.47462E-09-3.83505E-09
 -1       528-3.98459E+06-6.10045E+05-3.27322E+03-1.56018E+06-1.25243E-09-1.59048E-09
 -1       529-4.02508E+06-5.69033E+05-3.98665E+03-1.51365E+06-3.93811E-09 7.00311E-11
 -1       530-3.98727E+06-6.09055E+05-7.80783E+03-1.55754E+06-1.43154E-09 2.48997E-09
 -1       531-4.02265E+06-5.69765E+05-1.44277E+04-1.51562E+06 5.36602E-11 9.84073E-10
 -1       532-3.99824E+06-6.14889E+05-3.48985E+04-1.55088E+06 3.03771E-10 8.27640E-11
 -1       533-4.01392E+06-5.64229E+05-6.17909E+04-1.51977E+06-1.90283E-10-5.52973E-10
 -1       534-4.05912E+06-6.94569E+05-1.69480E+05-1.52962E+06-1.41699E-09-2.32103E-09
 -1       535-3.96272E+06-4.97785E+05-2.61772E+05-1.53389E+06-3.32147E-09 2.80852E-09
 -1       536-1.40916E+04-1.40222E+04 4.40891E+04-3.18563E+03 1.43973E-09-4.28008E-09
 -1       537 3.95275E+03 1.66829E+04 2.94989E+04-3.54836E+04-4.70936E-09-1.19735E-09
 -1       538-7.09682E+03-1.79239E+03 1.14142E+04-3.10948E+03 4.84761E-10 2.55977E-09
 -1       539-4.31526E+03 1.91573E+03 6.69150E+03-3.55731E+04 1.57524E-09-6.01631E-10
 -1       540-6.16956E+03-2.62368E+02 2.86987E+03-3.09348E+03 4.91582E-10 3.71529E-10
 -1       541-5.63067E+03 2.15473E+02 1.57722E+03-3.55920E+04-8.78117E-10 4.33795E-09
 -1       542-6.03541E+03-4.44065E+01 6.85862E+02-3.09119E+03 2.95586E-11 1.24658E-10
 -1       543-5.95489E+03 5.50768E+01 3.22884E+02-3.55957E+04-2.18279E-10-6.74163E-10
 -1       544-6.00981E+03 2.96475E+00 5.47741E+01-3.08985E+03 8.82437E-10 1.51880E-09
 -1       545-6.08216E+03 1.93269E+01-1.76946E+02-3.55975E+04-4.02451E-10 4.60628E-09
 -1       546-5.98311E+03 4.22026E+01-4.57355E+02-3.08932E+03 7.12674E-10-4.66230E-10
 -1       547-6.25388E+03-2.96822E+02-1.12771E+03-3.55933E+04-1.54074E-09-4.02622E-09
 -1       548-5.82356E+03 2.86564E+02-1.98360E+03-3.09410E+03-1.24919E-09-4.81805E-10
 -1       549-7.51413E+03-2.89929E+03-5.08409E+03-3.55444E+04-1.19519E-09-2.30511E-09
 -1       550-4.61876E+03 2.35645E+03-7.68184E+03-3.13829E+03 8.77662E-11 2.08729E-09
 -1       551 9.48546E+03-3.28498E+05 2.23099E+04-5.31304E+05-1.78625E-09 2.87400E-09
 -1       552 9.08796E+03-3.26153E+05 2.30744E+04-6.68850E+05-2.86673E-09 9.34961E-09
 -1       553 6.41133E+03-3.29923E+05 3.27962E+04-5.30171E+05-2.04454E-09 6.87760E-09
 -1       554 2.25954E+04-3.15871E+05 6.66952E+04-6.69013E+05-3.63798E-09 6.69388E-09
 -1       555 4.55367E+04-3.40195E+05 1.24770E+05-5.30952E+05-1.36788E-09-2.87037E-09
 -1       556-6.15361E+04-1.05409E+05 3.01801E+04-1.62661E+05 2.58296E-09 2.21917E-09
 -1       557-3.02192E+04-1.33684E+05 1.54853E+04-1.87495E+05 5.68980E-09-2.75713E-09
 -1       558-6.15052E+04-1.11397E+05 6.40285E+03-1.58349E+05 2.83762E-09 1.11322E-09
 -1       559-3.41019E+04-1.37956E+05 3.19846E+03-1.89093E+05 1.29876E-09 1.67802E-09
 -1       560-6.21525E+04-1.11030E+05 1.38202E+03-1.58663E+05-6.33008E-10 2.93949E-09
 -1       561-3.51519E+04-1.37783E+05 6.97152E+02-1.89783E+05 9.73159E-10-6.14591E-10
 -1       562-6.26876E+04-1.10664E+05 2.72632E+02-1.59039E+05 6.40284E-10 5.81622E-10
 -1       563-3.57507E+04-1.37528E+05 1.13418E+02-1.90182E+05-2.55022E-09-8.47274E-09
 -1       564-6.30138E+04-1.10450E+05-4.47418E+01-1.59267E+05 3.09228E-09 3.61160E-09
 -1       565-3.60598E+04-1.37402E+05-2.05146E+02-1.90379E+05 6.28006E-10-2.46837E-09
 -1       566-6.31082E+04-1.10371E+05-5.01207E+02-1.59342E+05-5.11591E-10-4.09273E-11
 -1       567-3.61695E+04-1.37425E+05-1.13391E+03-1.90365E+05-3.16732E-09-3.10683E-09
 -1       568-6.29075E+04-1.10522E+05-2.35491E+03-1.59242E+05-3.09774E-09-7.27596E-12
 -1       569-3.75224E+04-1.38535E+05-5.55672E+03-1.89687E+05-7.42148E-10 1.51522E-09
 -1       570-6.15882E+04-1.13675E+05-1.09745E+04-1.58020E+05-2.91038E-11-2.73667E-09
 -1       571 1.88797E+05 7.93006E+03 1.18865E+04-4.64367E+04 1.36424E-11-3.88354E-09
 -1       572 1.90583E+05 2.73812E+03 5.82835E+03-5.10006E+04-7.11680E-11-2.52840E-09
 -1       573 1.89517E+05 6.37497E+02 2.59038E+03-4.63145E+04-1.06320E-09-3.92720E-09
 -1       574 1.89729E+05 2.02386E+02 1.29854E+03-5.11358E+04-9.36780E-10-5.20686E-09
 -1       575 1.89597E+05 2.23310E+01 6.12371E+02-4.62987E+04 1.32786E-10-4.01178E-09
 -1       576 1.89614E+05 2.57887E+00 3.11262E+02-5.11537E+04 1.64871E-09-3.71347E-09
 -1       577 1.89609E+05-8.79267E+00 1.52385E+02-4.62966E+04 1.02386E-09 5.18412E-10
 -1       578 1.89603E+05-6.69189E+00 8.10203E+01-5.11559E+04 6.41876E-10 5.26597E-10
 -1       579 1.89621E+05-1.02547E+01 4.57685E+01-4.62965E+04 4.51564E-10-1.54978E-09
 -1       580 1.89618E+05-1.29674E+01 3.64894E+01-5.11532E+04-3.48791E-10 2.34195E-10
 -1       581 1.89643E+05-1.88377E+01 4.24654E+01-4.62992E+04-1.26965E-09-1.42745E-09
 -1       582 1.89654E+05-1.69498E+01 7.59473E+01-5.11255E+04-6.40739E-10 9.28594E-10
 -1       583 1.89670E+05-3.19310E+00 1.41886E+02-4.63243E+04-1.85537E-10 9.72022E-10
 -1       584 1.89741E+05 1.01475E+02 3.17184E+02-5.09144E+04-1.55887E-09 2.43085E-09
 -1       585 1.89669E+05 3.75756E+02 6.41404E+02-4.65106E+04 7.13953E-10 1.22054E-09
 -1       586 5.10202E+02 8.52734E+04 1.30489E+03-1.34346E+05-8.04903E-11-6.92398E-09
 -1       587 4.34477E+02 8.55024E+04 1.95716E+03-1.50939E+05 2.45564E-11-3.63366E-09
 -1       588 7.18463E+02 8.51560E+04 3.49978E+03-1.34189E+05-9.91349E-11-2.72837E-08
 -1       589 3.14883E+03 8.66311E+04 7.65758E+03-1.50920E+05-1.81899E-11-5.49960E-08
 -1       590 9.26077E+03 8.41662E+04 1.53832E+04-1.34364E+05-6.27551E-11-2.74049E-08
 -1       591-8.89962E+04-2.54000E+04-1.81361E+04-4.24249E+04-2.49429E-10-1.21781E-09
 -1       592-9.03115E+04-2.54450E+04-9.23694E+03-4.72379E+04 1.59878E-09 4.14127E-09
 -1       593-9.00851E+04-2.10118E+04-3.91583E+03-4.47418E+04-2.42153E-09-9.22478E-09
 -1       594-8.81767E+04-2.32009E+04-1.92746E+03-4.73662E+04 1.24828E-10 8.21871E-10
 -1       595-9.01908E+04-2.09105E+04-8.89995E+02-4.48268E+04-1.73679E-09-1.83906E-09
 -1       596-8.80350E+04-2.31225E+04-4.50196E+02-4.73442E+04-9.70886E-11 1.77658E-09
 -1       597-9.02074E+04-2.09257E+04-2.42855E+02-4.48270E+04-8.03198E-10-3.25713E-10
 -1       598-8.80202E+04-2.31227E+04-1.90012E+02-4.73378E+04 1.98474E-09 5.37102E-09
 -1       599-9.02062E+04-2.09267E+04-2.36138E+02-4.48263E+04-9.21773E-10 4.21824E-09
 -1       600-8.80322E+04-2.31238E+04-4.32539E+02-4.73414E+04-1.83502E-09-2.40129E-09
 -1       601-9.01872E+04-2.09137E+04-8.51758E+02-4.48246E+04-1.21709E-08-3.11502E-10
 -1       602-8.81668E+04-2.31980E+04-1.84327E+03-4.73580E+04-1.46329E-08 1.29886E-08
 -1       603-9.00826E+04-2.10142E+04-3.74384E+03-4.47439E+04-7.35326E-09 4.44743E-09
 -1       604-9.02260E+04-2.53221E+04-8.82979E+03-4.72081E+04-4.22915E-11-2.44881E-09
 -1       605-8.90183E+04-2.52280E+04-1.73361E+04-4.25498E+04-2.07069E-09-3.70801E-09
 -1       606 6.12581E+04-7.81836E+03-1.30824E+04 2.23261E+04-3.50974E-09 2.56932E-09
 -1       607 5.91069E+04-2.56777E+03-6.47193E+03 2.47430E+04-1.34605E-10 4.91434E-09
 -1       608 6.03427E+04-4.90198E+02-2.89044E+03 2.21609E+04 1.85446E-09 4.75666E-10
 -1       609 6.00798E+04-1.30235E+02-1.45545E+03 2.49251E+04-2.12503E-09-3.54862E-09
 -1       610 6.02258E+04 1.58592E+01-6.91833E+02 2.21414E+04-6.31371E-09 1.01954E-09
 -1       611 6.01734E+04 3.15758E+01-3.48499E+02 2.49462E+04-9.73660E-09-6.72981E-09
 -1       612 6.01963E+04 3.52655E+01-1.65838E+02 2.21394E+04-3.47063E-09-2.46814E-09
 -1       613 6.01748E+04 3.89243E+01-7.49233E+01 2.49487E+04-3.30692E-09 1.98497E-09
 -1       614 6.01810E+04 3.47273E+01-1.92012E+01 2.21388E+04-8.69386E-09 3.46427E-09
 -1       615 6.01683E+04 4.20109E+01 2.75007E+01 2.49489E+04-1.20888E-08 2.43836E-09
 -1       616 6.01692E+04 3.91823E+01 8.60970E+01 2.21391E+04-9.79435E-09-9.51559E-10
 -1       617 6.01763E+04 6.68087E+01 1.98652E+02 2.49482E+04-1.13232E-09-6.69843E-10
 -1       618 6.01493E+04 1.11519E+02 4.02095E+02 2.21394E+04-3.20506E-09-6.11408E-10
 -1       619 6.03110E+04 4.09264E+02 9.05461E+02 2.49455E+04-2.25100E-09-2.11753E-09
 -1       620 6.00207E+04 1.13884E+03 1.83194E+03 2.21403E+04 1.03000E-10-4.43833E-10
 -1       621 6.00557E+02 2.01342E+05 2.40183E+03-1.31221E+04 7.41011E-10-9.57783E-10
 -1       622 2.90215E+02 2.01842E+05 2.44600E+03-1.65432E+04-5.01700E-10-2.38168E-09
 -1       623 1.26635E+02 2.01421E+05 3.49426E+03-1.31195E+04 7.41466E-10 2.65027E-09
 -1       624 1.70216E+03 2.03009E+05 7.11349E+03-1.64995E+04-1.69848E-10 4.83635E-09
 -1       625 4.39565E+03 2.00183E+05 1.33537E+04-1.31643E+04 8.07631E-10-2.75350E-10
 -1       626 1.36792E+05 4.26350E+04-4.02135E+02 8.28316E+04-1.17325E-09 5.74983E-09
 -1       627 1.34082E+05 4.54019E+04-1.91810E+02 8.57611E+04-1.16415E-09 1.07070E-09
 -1       628 1.36883E+05 4.27085E+04-8.09048E+01 8.25986E+04 6.81212E-10-7.93534E-10
 -1       629 1.33968E+05 4.56110E+04-3.56326E+01 8.58850E+04 2.77396E-11 7.62054E-09
 -1       630 1.36876E+05 4.27168E+04-1.17280E+01 8.25675E+04-2.77032E-09 4.93287E-10
 -1       631 1.33939E+05 4.56343E+04 4.79932E+00 8.58884E+04-6.93854E-09-2.54101E-09
 -1       632 1.36864E+05 4.27212E+04 2.40322E+01 8.25581E+04-7.40556E-09-6.18229E-10
 -1       633 1.33929E+05 4.56390E+04 5.79495E+01 8.58841E+04 9.44283E-10 2.57216E-09
 -1       634 1.36852E+05 4.27190E+04 1.21553E+02 8.25542E+04 5.71799E-09 1.80876E-09
 -1       635 1.33938E+05 4.56409E+04 2.64146E+02 8.58853E+04-1.47406E-09-2.65118E-09
 -1       636 1.36839E+05 4.27219E+04 5.42533E+02 8.25488E+04-6.78597E-10 9.78162E-10
 -1       637 1.34056E+05 4.57512E+04 1.20189E+03 8.58745E+04 7.77618E-09 6.42285E-09
 -1       638 1.36801E+05 4.30599E+04 2.47954E+03 8.23967E+04 3.30920E-09 3.27827E-09
 -1       639 1.35331E+05 4.77402E+04 5.88107E+03 8.54283E+04-5.92991E-09 2.84217E-10
 -1       640 1.36740E+05 4.89157E+04 1.22995E+04 7.99290E+04-4.09500E-10-6.10044E-10
 -1       656 1.16477E+04-3.57794E+05-3.86686E+04 3.13059E+03-4.27281E-09 6.35055E-10
 -1       657-1.58218E+04-3.73167E+05-2.98466E+04 3.27453E+04-3.33625E-09 1.79853E-09
 -1       658 2.83687E+03-3.62797E+05-1.91447E+04 3.03862E+03-2.59388E-09 5.35351E-09
 -1       659-1.62370E+04-3.73417E+05-3.05019E+04 3.28058E+04-3.03953E-09 2.57384E-09
 -1       660 1.20441E+04-3.57568E+05-3.98520E+04 3.07035E+03-3.84171E-09 3.68709E-09
 -1       661 1.84204E+05 2.42572E+04 1.49708E+04 7.19515E+04 7.77322E-09-9.65883E-10
 -1       662 1.87878E+05 3.42775E+04 9.26039E+03 7.37315E+04 1.78966E-09-1.01522E-10
 -1       663 1.86669E+05 2.71834E+04 3.52913E+03 7.17407E+04-6.29171E-10-1.41449E-09
 -1       664 1.85030E+05 3.02040E+04 1.90568E+03 7.42760E+04-2.34764E-09-8.65725E-11
 -1       665 1.86931E+05 2.74742E+04 8.27155E+02 7.17290E+04-2.88834E-09-2.23136E-09
 -1       666 1.84727E+05 2.98172E+04 4.46174E+02 7.43137E+04-6.28830E-10 4.18897E-10
 -1       667 1.86962E+05 2.75028E+04 2.57141E+02 7.17284E+04-1.98440E-10-2.92732E-09
 -1       668 1.84698E+05 2.97895E+04 2.49133E+02 7.43195E+04-1.30515E-09 1.10174E-09
 -1       669 1.86961E+05 2.74973E+04 3.61320E+02 7.17254E+04 2.81335E-09-7.63089E-09
 -1       670 1.84751E+05 2.98562E+04 7.31683E+02 7.43266E+04 8.55039E-09 8.20535E-11
 -1       671 1.86911E+05 2.74407E+04 1.41254E+03 7.17206E+04-1.25999E-09-3.15140E-10
 -1       672 1.85269E+05 3.05357E+04 3.29016E+03 7.42745E+04-1.32059E-09-3.94624E-09
 -1       673 1.86462E+05 2.69320E+04 6.10447E+03 7.17361E+04-9.88621E-10-5.36602E-11
 -1       674 1.90198E+05 3.75928E+04 1.60303E+04 7.33389E+04 3.97787E-09 4.04680E-09
 -1       675 1.82195E+05 2.18653E+04 2.59162E+04 7.21012E+04 7.31166E-09 2.48110E-09
 -1       676 4.94087E+01-2.71689E+05-1.41713E+03 9.03629E+01 5.32020E-09-2.73491E-09
 -1       677-5.40892E+02-2.72116E+05-2.64980E+03-1.80539E+02 1.74524E-09 3.74738E-09
 -1       678 4.11341E+02-2.71399E+05-4.56278E+03 9.01252E+01 5.30122E-09 5.24938E-10
 -1       679-5.44512E+03-2.75022E+05-1.11420E+04-1.80250E+02 3.27304E-09-5.44323E-09
 -1       680 3.99756E+03-2.68785E+05-1.73616E+04 8.94434E+01 4.49108E-09-2.81982E-09
 -1       716-2.46838E-01-1.17686E-01 1.10450E+01-4.87748E-04 3.36428E-09-3.85611E-09
 -1       717 1.21555E+00 8.86461E-01 1.94523E+01 1.24192E-03 1.46800E-09-1.94500E-09
 -1       718-9.68727E-01-7.69099E-01 3.60981E+01-7.53792E-04 2.35095E-09-1.34235E-09
 -1       719 5.73973E+00 6.03818E+00 7.48741E+01-1.12702E-03-2.54411E-09-1.69488E-09
 -1       720-4.77108E+00-5.26972E+00 1.42806E+02 1.88239E-03-6.40064E-09-9.85771E-10
 -1       721 2.97068E+01 4.02325E+01 3.05201E+02-3.97359E-02-1.03512E-08 9.96891E-11
 -1       722-2.49358E+01-3.49622E+01 5.71234E+02 3.78502E-02-7.38319E-09-2.30696E-09
 -1       723 1.61514E+02 2.62520E+02 1.25823E+03-3.81307E-01-1.28116E-10-1.48933E-09
 -1       724-1.36574E+02-2.27531E+02 2.27845E+03 3.43373E-01-6.77463E-09-1.84900E-09
 -1       725 9.14852E+02 1.69163E+03 5.25113E+03-2.93241E+00-7.86449E-09-1.76306E-09
 -1       726-7.78178E+02-1.46383E+03 9.03464E+03 2.58838E+00-7.36536E-09-2.64390E-09
 -1       727 5.35320E+03 1.08173E+04 2.23036E+04-2.06273E+01-7.66721E-09-8.03993E-10
 -1       728-4.57322E+03-9.35121E+03 3.54844E+04 1.80373E+01-3.59598E-09-2.39925E-09
 -1       729 3.20920E+04 6.88434E+04 9.70977E+04-1.38739E+02 1.10922E-09-1.80444E-09
 -1       730-2.74885E+04-5.94717E+04 1.37215E+05 1.20739E+02 6.07324E-09-2.79397E-09
 -1       766-5.94771E+04-2.74930E+04 1.37321E+05-1.20743E+02-4.80213E-10-2.41192E-09
 -1       767 6.88833E+04 3.21211E+04 9.73846E+04 1.38780E+02 6.52835E-09-1.39924E-09
 -1       768-9.38608E+03-4.59797E+03 3.60466E+04-1.80755E+01-3.78350E-10 5.79242E-10
 -1       769 1.10798E+04 5.51440E+03 2.35569E+04 2.10097E+01 6.52767E-09 6.53949E-09
 -1       770-1.69136E+03-9.14736E+02 1.13102E+04-2.93183E+00-6.88942E-10 4.08331E-09
 -1       771-1.71689E+06-3.31334E+05-4.73178E+04-7.40127E+05 2.34286E-09-3.71074E-10
 -1       772-1.70762E+06-3.43347E+05-2.40113E+04-7.66401E+05 3.66708E-09-8.66748E-10
 -1       773-1.72092E+06-3.18993E+05-1.03128E+04-7.45745E+05 2.30648E-09 5.71163E-10
 -1       774-1.70201E+06-3.38117E+05-5.03271E+03-7.68228E+05 1.45519E-09-6.33008E-10
 -1       775-1.72187E+06-3.18247E+05-2.40242E+03-7.46158E+05 8.87667E-10-1.31604E-09
 -1       776-1.70204E+06-3.37881E+05-1.18157E+03-7.68867E+05-2.47383E-10-7.99446E-10
 -1       777-1.72244E+06-3.17939E+05-6.68707E+02-7.46357E+05-2.07365E-10-1.26875E-09
 -1       778-1.70234E+06-3.37811E+05-4.60936E+02-7.69346E+05 7.13044E-10 2.48065E-10
 -1       779-1.72282E+06-3.17687E+05-5.59350E+02-7.46504E+05 4.14730E-10 4.32237E-10
 -1       780-1.70261E+06-3.37766E+05-9.53494E+02-7.69696E+05-6.68479E-10-6.74845E-10
 -1       781-1.72302E+06-3.17494E+05-1.87417E+03-7.46594E+05 6.42103E-10-4.51109E-10
 -1       782-1.70304E+06-3.37902E+05-4.04075E+03-7.69916E+05 1.17734E-09-2.43745E-10
 -1       783-1.72289E+06-3.17652E+05-8.21816E+03-7.46459E+05-4.92219E-09-2.05546E-09
 -1       784-1.70763E+06-3.42538E+05-1.94049E+04-7.69577E+05-8.41874E-09-3.86899E-09
 -1       785-1.72048E+06-3.26973E+05-3.81223E+04-7.41675E+05 1.14051E-09 1.56797E-09
 -1       786 1.58367E+05-6.25623E+03 2.00201E+04-2.56479E+02 1.61094E-10 1.16052E-09
 -1       787 1.66143E+05 7.64359E+03 1.33323E+04-3.09565E+03-3.95985E-10 4.34011E-09
 -1       788 1.61528E+05-7.60435E+02 5.20294E+03-2.59767E+02 1.97360E-10-1.90948E-09
 -1       789 1.62563E+05 9.16967E+02 3.02088E+03-3.08852E+03 7.18842E-10 1.21599E-09
 -1       790 1.61946E+05-9.30203E+01 1.32763E+03-2.63508E+02-1.87484E-10 1.69547E-09
 -1       791 1.62086E+05 1.09618E+02 7.31021E+02-3.08406E+03 6.01172E-11-1.07855E-09
 -1       792 1.62005E+05-1.20865E+01 3.65020E+02-2.64227E+02 5.38556E-11 2.41353E-09
 -1       793 1.62022E+05 1.78276E+01 2.44344E+02-3.08590E+03-3.16753E-10 2.59667E-09
 -1       794 1.62010E+05-6.29325E+00 2.19308E+02-2.61670E+02-7.24754E-11 2.24713E-09
 -1       795 1.62040E+05 4.60490E+01 3.37446E+02-3.09438E+03 1.10265E-09 1.11094E-09
 -1       796 1.61987E+05-3.89121E+01 5.65731E+02-2.55743E+02-4.75723E-10-1.84770E-09
 -1       797 1.62237E+05 3.78304E+02 1.25773E+03-3.10861E+03 7.71365E-11-1.00695E-09
 -1       798 1.61815E+05-3.14992E+02 2.15486E+03-2.47443E+02-5.38819E-10 1.17097E-10
 -1       799 1.63719E+05 3.15871E+03 5.51424E+03-3.12323E+03-6.40426E-10 3.45949E-10
 -1       800 1.60508E+05-2.58760E+03 8.27666E+03-2.41203E+02 3.92902E-10-1.52295E-09
 -1       801-1.23813E+04 1.53754E+05 2.27487E+04-9.34966E+04 4.58385E-10-3.85626E-09
 -1       802 3.24980E+04 1.63863E+05 3.81329E+04-1.05584E+06-3.58887E-09-8.72387E-09
 -1       803-3.99750E+03 1.54715E+05 4.73437E+04-9.33823E+04 9.52787E-09 1.37529E-08
 -1       804 8.01510E+04 1.91322E+05 1.12895E+05-1.05578E+06-7.53789E-09 5.94082E-09
 -1       805-5.71948E+04 1.28048E+05 1.58256E+05-9.35747E+04 7.94535E-09 1.15397E-08
 -1       806-1.50845E+05-4.15221E+04-1.26749E+04-7.24428E+04 3.10592E-10 1.19417E-09
 -1       807-1.50599E+05-3.91034E+04-6.05973E+03-7.67428E+04-9.79526E-10 5.43201E-09
 -1       808-1.50892E+05-3.55091E+04-2.55534E+03-7.50216E+04 2.68301E-10 1.41046E-09
 -1       809-1.49327E+05-3.70184E+04-1.23891E+03-7.71729E+04-6.38920E-10-7.50742E-09
 -1       810-1.50933E+05-3.51606E+04-5.61430E+02-7.51842E+04 1.21599E-09-2.08377E-09
 -1       811-1.49210E+05-3.69009E+04-2.77850E+02-7.71812E+04-1.85338E-10 1.02114E-09
 -1       812-1.50943E+05-3.51591E+04-1.37862E+02-7.51887E+04-2.25100E-10-1.34560E-09
 -1       813-1.49195E+05-3.69009E+04-8.67661E+01-7.71749E+04-7.06791E-10-1.97861E-09
 -1       814-1.50941E+05-3.51640E+04-8.08431E+01-7.51861E+04 1.27784E-10-3.60092E-09
 -1       815-1.49196E+05-3.69044E+04-1.26771E+02-7.71715E+04-5.65478E-10-3.10592E-10
 -1       816-1.50931E+05-3.51694E+04-2.37627E+02-7.51812E+04-8.52651E-10-4.20641E-10
 -1       817-1.49245E+05-3.69485E+04-5.15117E+02-7.71543E+04-1.43609E-09-2.07001E-09
 -1       818-1.50902E+05-3.53248E+04-1.05859E+03-7.51177E+04-2.26692E-09-2.16232E-09
 -1       819-1.49829E+05-3.77469E+04-2.50667E+03-7.68951E+04-2.46473E-10 2.38970E-09
 -1       820-1.50814E+05-3.78709E+04-5.24206E+03-7.41145E+04-2.57478E-09-6.69161E-09
 -1       821-2.05539E+05 7.91788E+03-2.53402E+04 3.18947E+02-1.82627E-09 1.05319E-09
 -1       822-2.15372E+05-9.67424E+03-1.68758E+04 4.49150E+03-1.79841E-09 5.00495E-09
 -1       823-2.09540E+05 9.61306E+02-6.58895E+03 2.80540E+02 2.09548E-09 9.07676E-10
 -1       824-2.10848E+05-1.15627E+03-3.82943E+03 4.55155E+03-7.64260E-10 1.01443E-09
 -1       825-2.10068E+05 1.17460E+02-1.69436E+03 2.58680E+02-3.80294E-09 1.99759E-09
 -1       826-2.10250E+05-1.33263E+02-9.53445E+02 4.58798E+03-7.75151E-09-1.32188E-09
 -1       827-2.10141E+05 1.64888E+01-5.18131E+02 2.44059E+02-4.42338E-09-6.57991E-10
 -1       828-2.10179E+05-2.38640E+01-4.26610E+02 4.61083E+03-6.22349E-09 1.58045E-09
 -1       829-2.10142E+05 1.62085E+01-5.02729E+02 2.35818E+02 3.77838E-10 1.33312E-10
 -1       830-2.10249E+05-1.25262E+02-9.12605E+02 4.62033E+03 1.56327E-09-1.82632E-09
 -1       831-2.10073E+05 1.12782E+02-1.61424E+03 2.34559E+02-2.38137E-09-1.37055E-09
 -1       832-2.10821E+05-1.09735E+03-3.64582E+03 4.61606E+03-9.60171E-10-4.62478E-10
 -1       833-2.09570E+05 9.16407E+02-6.26972E+03 2.40148E+02-1.81501E-10-2.03363E-09
 -1       834-2.15130E+05-9.20216E+03-1.60601E+04 4.59465E+03 1.20963E-09-1.23896E-09
 -1       835-2.05762E+05 7.53711E+03-2.41126E+04 2.56449E+02 2.60172E-10 3.27691E-09
 -1       836-9.52681E+02 2.67309E+05 2.07194E+04-1.99346E+04-1.56433E-10-8.27640E-10
 -1       837 4.31914E+03 2.73618E+05 1.59813E+04-3.86883E+04-1.27213E-09-1.98156E-10
 -1       838-2.94237E+02 2.69391E+05 1.43003E+04-1.98771E+04-4.03361E-10 2.31893E-10
 -1       839 7.97735E+03 2.76413E+05 2.49476E+04-3.86949E+04-1.11504E-09-2.51327E-09
 -1       840-1.88970E+03 2.64504E+05 3.91248E+04-1.99269E+04-3.27418E-10 2.87173E-09
 -1       841 5.23943E+04 7.71770E+03-9.10767E+02 1.94819E+04-2.71913E-05 1.02058E-05
 -1       842 5.18222E+04 6.98501E+03-6.28447E+02 1.97616E+04-5.43536E-05 2.04251E-05
 -1       843 5.21941E+04 7.41097E+03-2.10834E+02 1.95683E+04-4.32297E-05 1.62389E-05
 -1       844 5.20612E+04 7.33405E+03-1.26708E+02 1.96539E+04-3.20601E-05 1.20577E-05
 -1       845 5.21552E+04 7.36874E+03-3.74441E+01 1.95895E+04-2.28764E-05 8.59556E-06
 -1       846 5.21124E+04 7.38366E+03-8.72410E-01 1.96252E+04-1.36950E-05 5.14885E-06
 -1       847 5.21429E+04 7.36138E+03 4.12133E+01 1.95970E+04-8.61514E-06 3.23027E-06
 -1       848 5.21436E+04 7.41666E+03 1.19810E+02 1.96119E+04-3.53172E-06 1.32626E-06
 -1       849 5.21240E+04 7.33574E+03 2.27191E+02 1.96028E+04-8.15306E-07 3.04632E-07
 -1       850 5.22618E+04 7.60826E+03 5.77866E+02 1.95794E+04 1.90014E-06-7.17976E-07
 -1       851 5.20247E+04 7.16980E+03 9.98992E+02 1.96295E+04 3.25755E-06-1.22509E-06
 -1       852 5.29690E+04 8.82466E+03 2.69819E+03 1.93672E+04 4.61574E-06-1.73682E-06
 -1       853 5.14167E+04 6.11951E+03 4.31514E+03 1.98150E+04 4.46259E-06-1.67229E-06
 -1       854 5.73326E+04 1.65248E+04 1.27956E+04 1.79346E+04 4.29886E-06-1.61616E-06
 -1       855 4.76613E+04-5.29042E+02 1.84178E+04 2.10617E+04 2.15122E-06-8.08478E-07
 -1       856-1.57634E+05 3.74279E+03-2.01230E+04 3.99383E+03-3.21506E-09 3.11047E-10
 -1       857-1.64590E+05-5.64614E+03-1.26233E+04 1.22809E+04-1.47190E-09 4.12001E-10
 -1       858-1.60590E+05 3.60426E+02-5.19785E+03 3.94308E+03-2.94062E-09 2.18938E-09
 -1       859-1.61346E+05-4.74218E+02-2.84988E+03 1.23416E+04-4.90218E-10 2.13117E-09
 -1       860-1.60901E+05 4.53298E+01-1.31526E+03 3.93215E+03 1.72633E-09 1.60367E-09
 -1       861-1.61008E+05-1.43858E+01-6.95839E+02 1.23561E+04-5.27439E-09-6.05650E-09
 -1       862-1.60941E+05 1.46435E+01-3.55379E+02 3.92840E+03 6.28842E-09-9.41498E-10
 -1       863-1.60968E+05 2.51985E+01-2.26784E+02 1.23595E+04 1.77042E-08-5.17048E-10
 -1       864-1.60945E+05 1.19062E+01-1.98643E+02 3.92874E+03 7.34070E-09-5.50838E-09
 -1       865-1.60973E+05 1.25800E+01-2.86413E+02 1.23540E+04 5.86397E-09-3.02015E-09
 -1       866-1.60930E+05 2.09033E+01-4.91924E+02 3.93389E+03-1.42211E-09 3.07139E-10
 -1       867-1.61087E+05-1.55807E+02-1.03545E+03 1.23379E+04-7.14510E-09 7.06407E-10
 -1       868-1.60816E+05 1.31530E+02-1.87863E+03 3.94488E+03-9.26775E-10-2.77436E-09
 -1       869-1.62245E+05-2.02335E+03-4.55000E+03 1.22732E+04-2.73985E-09-5.92252E-10
 -1       870-1.59748E+05 1.34577E+03-7.25498E+03 3.99894E+03 5.73891E-10-2.43108E-09
 -1       871-2.93153E+03-2.29353E+04-7.59575E+03 8.41335E+04 3.14503E-09 4.17458E-10
 -1       872-1.10261E+03-2.45342E+04-2.68970E+03 1.05116E+05 2.02726E-09 3.89491E-10
 -1       873-2.89336E+01-2.38589E+04 1.30786E+03 8.39529E+04 1.81899E-11-1.75532E-10
 -1       874 1.65215E+03-2.23471E+04 6.26821E+03 1.05170E+05 3.42470E-09 3.43243E-09
 -1       875 4.65664E+03-2.51856E+04 1.34889E+04 8.40866E+04 2.18279E-09 3.41697E-09
 -1       876 2.36809E+05 3.55393E+04 1.97170E+04 9.40050E+04 2.83887E-09-5.40604E-09
 -1       877 2.40288E+05 4.44286E+04 1.14225E+04 9.75948E+04 3.58568E-09-2.45109E-10
 -1       878 2.39498E+05 3.70244E+04 4.57988E+03 9.44785E+04 4.16753E-09-1.89175E-10
 -1       879 2.37038E+05 4.04730E+04 2.35313E+03 9.79517E+04-3.49019E-09 4.69640E-10
 -1       880 2.39720E+05 3.71649E+04 1.06082E+03 9.45192E+04-2.13504E-10 1.99304E-09
 -1       881 2.36771E+05 4.02018E+04 5.52463E+02 9.79435E+04-2.52862E-09-1.66304E-09
 -1       882 2.39742E+05 3.71851E+04 3.14134E+02 9.45250E+04 2.52544E-09-2.45080E-10
 -1       883 2.36750E+05 4.01822E+04 2.82037E+02 9.79349E+04 8.28749E-09 2.55207E-09
 -1       884 2.39738E+05 3.71855E+04 3.95159E+02 9.45256E+04-6.03535E-10 1.66293E-09
 -1       885 2.36790E+05 4.02068E+04 7.68420E+02 9.79397E+04 9.29636E-09 8.54982E-10
 -1       886 2.39701E+05 3.71606E+04 1.51690E+03 9.45197E+04 4.66059E-10 6.59270E-10
 -1       887 2.37177E+05 4.05938E+04 3.38645E+03 9.79428E+04 3.53853E-09 2.20291E-09
 -1       888 2.39375E+05 3.69616E+04 6.60061E+03 9.44620E+04 1.78572E-09 1.73532E-09
 -1       889 2.41843E+05 4.63153E+04 1.64670E+04 9.74444E+04-2.34252E-10 3.41061E-11
 -1       890 2.35515E+05 3.48029E+04 2.84270E+04 9.37552E+04 7.14795E-09-1.92995E-09
 -1       891 4.76462E+02-1.29916E+05-4.91761E+03 2.29120E+04 2.63753E-11-1.34605E-10
 -1       892-1.24810E+03-1.31481E+05-3.81801E+03 5.20752E+04-1.78443E-09-2.64663E-10
 -1       893 1.03071E+02-1.30439E+05-3.26986E+03 2.28593E+04-5.91172E-11 1.80307E-10
 -1       894-2.11627E+03-1.32051E+05-5.69557E+03 5.20299E+04-6.04314E-09 5.18412E-11
 -1       895 8.83484E+02-1.29290E+05-8.67704E+03 2.29567E+04-1.10299E-09 1.91449E-10
 -1       956-2.29755E+05-4.06281E+03-9.95746E+03 2.48191E+04-3.52247E-09-2.07956E-09
 -1       957-2.31708E+05-1.34855E+03-5.09866E+03 2.97309E+04-2.08274E-09 2.31330E-09
 -1       958-2.30639E+05-1.09571E+02-2.29713E+03 2.46649E+04 1.92358E-09-1.73031E-10
 -1       959-2.30805E+05-8.63803E+00-1.17173E+03 2.98985E+04-6.42103E-10-3.44517E-09
 -1       960-2.30726E+05 4.36287E+01-5.69807E+02 2.46501E+04-3.82352E-09-3.40310E-09
 -1       961-2.30746E+05 4.72877E+01-2.99005E+02 2.99151E+04-7.71638E-09-6.05041E-10
 -1       962-2.30748E+05 4.32376E+01-1.65402E+02 2.46480E+04-3.69619E-09-6.95763E-11
 -1       963-2.30747E+05 5.08915E+01-1.22465E+02 2.99178E+04-4.84044E-09-2.81489E-10
 -1       964-2.30754E+05 4.57969E+01-1.36149E+02 2.46473E+04 2.40561E-10 1.77556E-09
 -1       965-2.30757E+05 5.37263E+01-2.24879E+02 2.99177E+04 4.06362E-09 5.11136E-10
 -1       966-2.30747E+05 5.09328E+01-4.16433E+02 2.46482E+04-3.83352E-09-1.46088E-09
 -1       967-2.30808E+05 1.79757E+01-8.51203E+02 2.99079E+04 6.91671E-10 4.31555E-10
 -1       968-2.30690E+05-5.60827E+01-1.66543E+03 2.46572E+04 2.51930E-10 6.15842E-10
 -1       969-2.31470E+05-9.50326E+02-3.69698E+03 2.98023E+04-1.30080E-09-1.77789E-09
 -1       970-2.30054E+05-2.92082E+03-7.21889E+03 2.47560E+04 7.22594E-10-1.27966E-09
 -1       971-2.83487E+05 4.06136E+02-1.18540E+04 7.35560E+03-3.55294E-09 2.40971E-09
 -1       972-2.87026E+05-2.28777E+03-6.97104E+03 1.39201E+04-1.78738E-09 2.63344E-09
 -1       973-2.85058E+05 6.13650E+01-3.01026E+03 7.27165E+03-1.91949E-09 4.44402E-09
 -1       974-2.85353E+05-1.12174E+02-1.59250E+03 1.40157E+04 4.18595E-10 1.07480E-09
 -1       975-2.85191E+05 2.30456E+01-7.73261E+02 7.25897E+03-1.07389E-09 2.64424E-09
 -1       976-2.85224E+05 2.24424E+01-4.29643E+02 1.40336E+04-3.94152E-09-5.20288E-10
 -1       977-2.85210E+05 1.93483E+01-2.77628E+02 7.25358E+03 3.10001E-09 7.48457E-10
 -1       978-2.85219E+05 3.21771E+01-2.80451E+02 1.40412E+04 9.31476E-09 2.86633E-09
 -1       979-2.85209E+05 2.28178E+01-4.12048E+02 7.25128E+03 5.08376E-09-6.57508E-10
 -1       980-2.85253E+05 1.95078E+01-7.75908E+02 1.40425E+04 5.33170E-09 1.70434E-09
 -1       981-2.85179E+05 3.82780E+01-1.48210E+03 7.25230E+03-2.28113E-09 2.17113E-10
 -1       982-2.85527E+05-2.35194E+02-3.10739E+03 1.40355E+04-2.64311E-09 1.31374E-09
 -1       983-2.84927E+05 1.22728E+02-5.89341E+03 7.25858E+03 6.38829E-09 7.80801E-10
 -1       984-2.88834E+05-4.49298E+03-1.36722E+04 1.39741E+04 3.47791E-09-9.86120E-10
 -1       985-2.81855E+05 8.10549E+02-2.32464E+04 7.31673E+03 7.03994E-09-5.68434E-10
 -3
    1PSTEP                         5           3           1          
  100CL  103 8.75000E-01         507                     0    3           1
 -4  DISP        4    1
 -5  D1          1    2    1    0
 -5  D2          1    2    2    0
 -5  D3          1    2    3    0
 -5  ALL         1    2    0    0    1ALL
 -1         1 1.55068E-04 0.00000E+00 0.00000E+00
 -1         2 1.55128E-04 0.00000E+00 0.00000E+00
 -1         3 1.12567E-04 8.18909E-28 0.00000E+00
 -1         5 8.39386E-05-2.25964E-26-6.61744E-24
 -1         8 1.25108E-04-1.35394E-06 0.00000E+00
 -1         9 1.04965E-04-5.18743E-06 0.00000E+00
 -1        10 1.04935E-04-2.66453E-06 6.61744E-24
 -1        11 8.28344E-05-6.64213E-06 0.00000E+00
 -1        12 8.28449E-05 1.03207E-06 0.00000E+00
 -1        15 9.20027E-05-1.48090E-06 0.00000E+00
 -1        16 7.62513E-05-5.42056E-06 0.00000E+00
 -1        17 7.79459E-05-5.92027E-06 0.00000E+00
 -1        18 7.77322E-05-2.89926E-07 0.00000E+00
 -1        19 7.95783E-05 2.05725E-06 0.00000E+00
 -1        20 8.01577E-05 2.54001E-05 0.00000E+00
 -1        21 7.90366E-05 5.51933E-05 0.00000E+00
 -1        23 2.60508E-05-1.18535E-04-8.07794E-28
 -1        24 2.56119E-05-7.40119E-06 0.00000E+00
 -1        25 7.37414E-05 1.58265E-08 0.00000E+00
 -1        26 7.53431E-05 2.79012E-06 0.00000E+00
 -1        27 7.32938E-05 2.40936E-05 0.00000E+00
 -1        28 7.17039E-05 5.42002E-05 0.00000E+00
 -1        31-1.60629E-05-7.60846E-06 0.00000E+00
 -1        32 0.00000E+00 0.00000E+00 0.00000E+00
 -1        33 7.02759E-05 3.75213E-06 0.00000E+00
 -1        34 6.80156E-05 2.40002E-05 0.00000E+00
 -1        35 6.52152E-05 5.37237E-05 0.00000E+00
 -1        36 1.55056E-04-4.65289E-19 0.00000E+00
 -1        37 1.55061E-04-7.55591E-19 0.00000E+00
 -1        38 1.55064E-04-1.43115E-18 0.00000E+00
 -1        39 1.55071E-04-1.98798E-18 0.00000E+00
 -1        40 1.55077E-04-2.04437E-18 1.03398E-25
 -1        41 1.55084E-04-2.48610E-18 1.29247E-26
 -1        42 1.55091E-04-2.88304E-18 0.00000E+00
 -1        43 1.55099E-04-3.01286E-18-5.16988E-26
 -1        44 1.55106E-04-2.73269E-18 1.03398E-25
 -1        45 1.55113E-04-2.10044E-18-1.29247E-26
 -1        46 1.55120E-04-9.05769E-19-2.06795E-25
 -1        47 1.55127E-04-2.22383E-19-2.06795E-25
 -1        48 1.55133E-04-3.61163E-19 0.00000E+00
 -1        49 1.55136E-04 1.73788E-20 0.00000E+00
 -1        50 1.55141E-04-5.63938E-20-6.61744E-24
 -1        51 1.52893E-04-2.23093E-07 0.00000E+00
 -1        52 1.49186E-04-4.40137E-07 0.00000E+00
 -1        53 1.44244E-04-6.58500E-07 0.00000E+00
 -1        54 1.38376E-04-8.80906E-07 0.00000E+00
 -1        55 1.31893E-04-1.10940E-06 3.30872E-24
 -1        56 1.53510E-04-4.03303E-06-5.29396E-23
 -1        57 1.53988E-04-1.38942E-05 2.64698E-23
 -1        58 1.56034E-04-2.80511E-05 1.05879E-22
 -1        59 1.58948E-04-4.46799E-05 5.29396E-23
 -1        60 1.61912E-04-6.14462E-05 1.05879E-22
 -1        61 1.64081E-04-7.60121E-05-5.29396E-23
 -1        62 1.64764E-04-8.64839E-05-1.05879E-22
 -1        63 1.63362E-04-9.12867E-05 5.29396E-23
 -1        64 1.59675E-04-8.99860E-05 1.05879E-22
 -1        65 1.53675E-04-8.26126E-05 0.00000E+00
 -1        66 1.45808E-04-7.04085E-05 0.00000E+00
 -1        67 1.36681E-04-5.49757E-05 0.00000E+00
 -1        68 1.27166E-04-3.85570E-05 1.05879E-22
 -1        69 1.18191E-04-2.34609E-05 0.00000E+00
 -1        70 1.10531E-04-1.17505E-05-5.29396E-23
 -1        86 1.51860E-04-8.20690E-07 0.00000E+00
 -1        87 1.41969E-04-1.69979E-06-1.32349E-23
 -1        88 1.29651E-04-2.60184E-06 2.64698E-23
 -1        89 1.19199E-04-3.48480E-06 0.00000E+00
 -1        90 1.10901E-04-4.34922E-06 0.00000E+00
 -1       121 1.12353E-04-4.42644E-07-1.32349E-23
 -1       122 1.11710E-04-8.85497E-07-6.61744E-24
 -1       123 1.10643E-04-1.32873E-06 1.32349E-23
 -1       124 1.09153E-04-1.77274E-06 6.61744E-24
 -1       125 1.07248E-04-2.21738E-06-1.32349E-23
 -1       191 8.39082E-05 1.72050E-07-6.61744E-24
 -1       192 8.38169E-05 3.44093E-07 3.30872E-24
 -1       193 8.36648E-05 5.16129E-07-1.32349E-23
 -1       194 8.34520E-05 6.88148E-07-3.30872E-24
 -1       195 8.31785E-05 8.60139E-07-6.61744E-24
 -1       251 1.23872E-04 2.02946E-06 2.64698E-23
 -1       252 1.22612E-04 1.07049E-06-1.32349E-23
 -1       253 1.21353E-04-1.14633E-06-2.64698E-23
 -1       254 1.20090E-04-1.46269E-06 0.00000E+00
 -1       255 1.18828E-04-1.24962E-06 0.00000E+00
 -1       256 1.17564E-04-1.90851E-06 0.00000E+00
 -1       257 1.16300E-04-2.76515E-06-5.29396E-23
 -1       258 1.15036E-04-3.13403E-06 2.64698E-23
 -1       259 1.13772E-04-3.49048E-06 5.29396E-23
 -1       260 1.12508E-04-4.31051E-06 0.00000E+00
 -1       261 1.11244E-04-4.96684E-06 0.00000E+00
 -1       262 1.09981E-04-4.84158E-06 0.00000E+00
 -1       263 1.08719E-04-5.17732E-06 0.00000E+00
 -1       264 1.07460E-04-7.19026E-06 1.32349E-23
 -1       265 1.06200E-04-8.09917E-06 2.64698E-23
 -1       266 1.19590E-04-1.39471E-06 0.00000E+00
 -1       267 1.14073E-04-1.41347E-06 1.65436E-24
 -1       268 1.08555E-04-1.43365E-06 0.00000E+00
 -1       269 1.03038E-04-1.44968E-06 0.00000E+00
 -1       270 9.75203E-05-1.46562E-06 0.00000E+00
 -1       271 1.20612E-04 2.49131E-06 0.00000E+00
 -1       272 1.16516E-04 5.00017E-06 0.00000E+00
 -1       273 1.12895E-04 6.26370E-06 0.00000E+00
 -1       274 1.09691E-04 6.37676E-06 5.29396E-23
 -1       275 1.06860E-04 5.49387E-06-1.05879E-22
 -1       276 1.04329E-04 3.80118E-06 0.00000E+00
 -1       277 1.02018E-04 1.52022E-06-1.05879E-22
 -1       278 9.98358E-05-1.10621E-06 0.00000E+00
 -1       279 9.76862E-05-3.82064E-06-1.05879E-22
 -1       280 9.54725E-05-6.36223E-06 0.00000E+00
 -1       281 9.31000E-05-8.47775E-06 1.05879E-22
 -1       282 9.04814E-05-9.92938E-06 0.00000E+00
 -1       283 8.75363E-05-1.05081E-05-1.05879E-22
 -1       284 8.42088E-05-1.00328E-05-2.64698E-23
 -1       285 8.04319E-05-8.37638E-06 5.29396E-23
 -1       301 1.00138E-04-5.23805E-06-6.61744E-24
 -1       302 9.53073E-05-5.26519E-06 3.30872E-24
 -1       303 9.04881E-05-5.28984E-06-6.61744E-24
 -1       304 8.56955E-05-5.31622E-06 0.00000E+00
 -1       305 8.09449E-05-5.34821E-06 1.32349E-23
 -1       306 1.02012E-04-1.76627E-06 2.64698E-23
 -1       307 9.95925E-05 1.28106E-07 2.64698E-23
 -1       308 9.76805E-05 6.81190E-07 0.00000E+00
 -1       309 9.61918E-05 8.84846E-08-2.64698E-23
 -1       310 9.50470E-05-1.42369E-06 5.29396E-23
 -1       311 9.41537E-05-3.61251E-06 2.64698E-23
 -1       312 9.34162E-05-6.21909E-06-5.29396E-23
 -1       313 9.27346E-05-8.97645E-06-2.64698E-23
 -1       314 9.20084E-05-1.16139E-05 5.29396E-23
 -1       315 9.11377E-05-1.38632E-05 0.00000E+00
 -1       316 9.00254E-05-1.54654E-05-5.29396E-23
 -1       317 8.85802E-05-1.61740E-05-2.64698E-23
 -1       318 8.67155E-05-1.57639E-05 0.00000E+00
 -1       319 8.43609E-05-1.40297E-05 1.32349E-23
 -1       320 8.14389E-05-1.08022E-05 0.00000E+00
 -1       336 1.02069E-04-3.20156E-06 0.00000E+00
 -1       337 9.85149E-05-3.74258E-06 6.61744E-24
 -1       338 9.42950E-05-4.28581E-06-1.32349E-23
 -1       339 8.94378E-05-4.83060E-06-6.61744E-24
 -1       340 8.39759E-05-5.37870E-06 0.00000E+00
 -1       356 8.28343E-05-6.14168E-06-2.01948E-28
 -1       357 8.28342E-05-5.63296E-06 2.01948E-28
 -1       358 8.28340E-05-5.11834E-06-8.07794E-28
 -1       359 8.28339E-05-4.60019E-06 8.07794E-28
 -1       360 8.28338E-05-4.08087E-06-3.23117E-27
 -1       361 8.28337E-05-3.56274E-06 0.00000E+00
 -1       362 8.28335E-05-3.04817E-06 0.00000E+00
 -1       363 8.28334E-05-2.53954E-06-1.29247E-26
 -1       364 8.28333E-05-2.03919E-06-5.16988E-26
 -1       365 8.28333E-05-1.54950E-06 0.00000E+00
 -1       366 8.28333E-05-1.07284E-06-2.06795E-25
 -1       367 8.28336E-05-6.11565E-07-2.06795E-25
 -1       368 8.28339E-05-1.68052E-07-8.27181E-25
 -1       369 8.28356E-05 2.55325E-07-8.27181E-25
 -1       370 8.28368E-05 6.56168E-07 3.30872E-24
 -1       376 8.26497E-05-6.14994E-06-1.00974E-28
 -1       377 8.24681E-05-5.66590E-06 0.00000E+00
 -1       378 8.22883E-05-5.18679E-06 0.00000E+00
 -1       379 8.21091E-05-4.70939E-06 0.00000E+00
 -1       380 8.19294E-05-4.23051E-06 0.00000E+00
 -1       381 8.17479E-05-3.74692E-06-8.07794E-28
 -1       382 8.15635E-05-3.25541E-06-3.23117E-27
 -1       383 8.13749E-05-2.75279E-06-3.23117E-27
 -1       384 8.11809E-05-2.23581E-06 2.58494E-26
 -1       385 8.09803E-05-1.70128E-06 0.00000E+00
 -1       386 8.07720E-05-1.14600E-06 0.00000E+00
 -1       387 8.05548E-05-5.66672E-07 1.03398E-25
 -1       388 8.03274E-05 3.98394E-08 0.00000E+00
 -1       389 8.00894E-05 6.77064E-07 0.00000E+00
 -1       390 7.98385E-05 1.34784E-06-1.65436E-24
 -1       406 8.24518E-05 1.20396E-06 1.32349E-23
 -1       407 8.19986E-05 1.37579E-06-3.30872E-24
 -1       408 8.14846E-05 1.54748E-06 0.00000E+00
 -1       409 8.09098E-05 1.71878E-06 0.00000E+00
 -1       410 8.02742E-05 1.88930E-06 0.00000E+00
 -1       501 7.63089E-05-1.97301E-06 0.00000E+00
 -1       502 7.64143E-05-8.77562E-07 0.00000E+00
 -1       503 7.65177E-05-1.20105E-06 0.00000E+00
 -1       504 7.66289E-05-2.01908E-06 0.00000E+00
 -1       505 7.67401E-05-3.13365E-06-3.30872E-24
 -1       506 7.68528E-05-4.34837E-06 1.65436E-24
 -1       507 7.69657E-05-5.62067E-06 0.00000E+00
 -1       508 7.70788E-05-6.90832E-06-1.65436E-24
 -1       509 7.71920E-05-8.19277E-06 0.00000E+00
 -1       510 7.73051E-05-9.45546E-06 0.00000E+00
 -1       511 7.74183E-05-1.06442E-05 3.30872E-24
 -1       512 7.75310E-05-1.17064E-05-1.65436E-24
 -1       513 7.76439E-05-1.23939E-05 0.00000E+00
 -1       514 7.77539E-05-1.24567E-05 0.00000E+00
 -1       515 7.78630E-05-1.07004E-05 3.30872E-24
 -1       521 7.20522E-05-2.56665E-06 0.00000E+00
 -1       522 6.83089E-05-1.15653E-06 0.00000E+00
 -1       523 6.50558E-05-1.03691E-06 0.00000E+00
 -1       524 6.22107E-05-2.04108E-06 5.29396E-23
 -1       525 5.97016E-05-3.94478E-06-1.05879E-22
 -1       526 5.74313E-05-6.49399E-06 0.00000E+00
 -1       527 5.52959E-05-9.40595E-06 0.00000E+00
 -1       528 5.31852E-05-1.23848E-05 0.00000E+00
 -1       529 5.09878E-05-1.51315E-05-1.05879E-22
 -1       530 4.85958E-05-1.73561E-05 5.29396E-23
 -1       531 4.59086E-05-1.87909E-05 0.00000E+00
 -1       532 4.28383E-05-1.91981E-05-5.29396E-23
 -1       533 3.93095E-05-1.83846E-05 0.00000E+00
 -1       534 3.52766E-05-1.61993E-05 2.64698E-23
 -1       535 3.06882E-05-1.25593E-05 0.00000E+00
 -1       536 7.79063E-05-3.43049E-07 0.00000E+00
 -1       537 7.78852E-05 3.89261E-06 0.00000E+00
 -1       538 7.78679E-05 6.92407E-06 0.00000E+00
 -1       539 7.78552E-05 8.88944E-06 0.00000E+00
 -1       540 7.78441E-05 9.92682E-06 0.00000E+00
 -1       541 7.78339E-05 1.01745E-05 0.00000E+00
 -1       542 7.78237E-05 9.77101E-06 0.00000E+00
 -1       543 7.78133E-05 8.85482E-06 2.06795E-25
 -1       544 7.78026E-05 7.56458E-06 4.13590E-25
 -1       545 7.77916E-05 6.03895E-06 0.00000E+00
 -1       546 7.77805E-05 4.41665E-06 0.00000E+00
 -1       547 7.77695E-05 2.83645E-06-1.03398E-25
 -1       548 7.77588E-05 1.43703E-06 0.00000E+00
 -1       549 7.77489E-05 3.57090E-07-2.06795E-25
 -1       550 7.77393E-05-2.64678E-07-8.27181E-25
 -1       551 7.01947E-05-6.15441E-06 6.61744E-24
 -1       552 6.14953E-05-6.39112E-06 0.00000E+00
 -1       553 5.22644E-05-6.63226E-06-6.61744E-24
 -1       554 4.29253E-05-6.87739E-06 0.00000E+00
 -1       555 3.39017E-05-7.12539E-06 2.64698E-23
 -1       556 7.57799E-05-5.47875E-07 0.00000E+00
 -1       557 7.40960E-05 3.58449E-06 0.00000E+00
 -1       558 7.28406E-05 6.59077E-06 0.00000E+00
 -1       559 7.19651E-05 8.59505E-06 0.00000E+00
 -1       560 7.14210E-05 9.72136E-06 1.32349E-23
 -1       561 7.11604E-05 1.00947E-05 0.00000E+00
 -1       562 7.11356E-05 9.84015E-06 1.32349E-23
 -1       563 7.12992E-05 9.08321E-06 0.00000E+00
 -1       564 7.16038E-05 7.94940E-06 0.00000E+00
 -1       565 7.20025E-05 6.56436E-06 3.30872E-24
 -1       566 7.24481E-05 5.05383E-06 0.00000E+00
 -1       567 7.28937E-05 3.54356E-06 4.13590E-25
 -1       568 7.32923E-05 2.15930E-06 8.27181E-25
 -1       569 7.35971E-05 1.02663E-06-1.65436E-24
 -1       570 7.37613E-05 2.71100E-07 0.00000E+00
 -1       571 7.78436E-05-7.79281E-08 8.27181E-25
 -1       572 7.79580E-05 5.83524E-08-4.13590E-25
 -1       573 7.80732E-05 1.32617E-07 0.00000E+00
 -1       574 7.81888E-05 1.59270E-07 0.00000E+00
 -1       575 7.83046E-05 1.52776E-07 3.30872E-24
 -1       576 7.84204E-05 1.27693E-07-1.65436E-24
 -1       577 7.85363E-05 9.85851E-08 0.00000E+00
 -1       578 7.86521E-05 8.00290E-08 0.00000E+00
 -1       579 7.87680E-05 8.66023E-08 0.00000E+00
 -1       580 7.88839E-05 1.32884E-07 0.00000E+00
 -1       581 7.89998E-05 2.33453E-07 0.00000E+00
 -1       582 7.91156E-05 4.02873E-07 0.00000E+00
 -1       583 7.92314E-05 6.55697E-07 6.61744E-24
 -1       584 7.93472E-05 1.00633E-06 0.00000E+00
 -1       585 7.94628E-05 1.46911E-06 0.00000E+00
 -1       586 7.71367E-05-2.37752E-07 3.30872E-24
 -1       587 7.64462E-05-1.85503E-07 0.00000E+00
 -1       588 7.57106E-05-1.33389E-07-1.65436E-24
 -1       589 7.49809E-05-8.17464E-08 2.06795E-25
 -1       590 7.43079E-05-3.10733E-08 0.00000E+00
 -1       591 7.75665E-05-3.67577E-08 0.00000E+00
 -1       592 7.74163E-05 1.59135E-07-8.27181E-25
 -1       593 7.72825E-05 3.09324E-07-1.65436E-24
 -1       594 7.71613E-05 4.24119E-07 0.00000E+00
 -1       595 7.70494E-05 5.13889E-07 0.00000E+00
 -1       596 7.69429E-05 5.88924E-07 0.00000E+00
 -1       597 7.68380E-05 6.59504E-07 0.00000E+00
 -1       598 7.67309E-05 7.35900E-07 0.00000E+00
 -1       599 7.66178E-05 8.28380E-07 1.65436E-24
 -1       600 7.64948E-05 9.47211E-07 0.00000E+00
 -1       601 7.63581E-05 1.10266E-06 0.00000E+00
 -1       602 7.62039E-05 1.30499E-06 4.13590E-25
 -1       603 7.60284E-05 1.56449E-06-1.65436E-24
 -1       604 7.58282E-05 1.89148E-06 3.10193E-25
 -1       605 7.55996E-05 2.29626E-06 0.00000E+00
 -1       606 7.96196E-05 2.88066E-06 0.00000E+00
 -1       607 7.96576E-05 3.82672E-06 0.00000E+00
 -1       608 7.96946E-05 4.88817E-06 0.00000E+00
 -1       609 7.97311E-05 6.05682E-06 0.00000E+00
 -1       610 7.97673E-05 7.32442E-06 3.30872E-24
 -1       611 7.98033E-05 8.68259E-06 0.00000E+00
 -1       612 7.98393E-05 1.01229E-05 3.30872E-24
 -1       613 7.98750E-05 1.16371E-05 0.00000E+00
 -1       614 7.99107E-05 1.32167E-05 0.00000E+00
 -1       615 7.99463E-05 1.48532E-05 0.00000E+00
 -1       616 7.99819E-05 1.65384E-05 0.00000E+00
 -1       617 8.00173E-05 1.82638E-05-8.27181E-25
 -1       618 8.00527E-05 2.00211E-05 0.00000E+00
 -1       619 8.00879E-05 2.18018E-05 0.00000E+00
 -1       620 8.01231E-05 2.35976E-05 0.00000E+00
 -1       621 7.88296E-05 2.18001E-06 0.00000E+00
 -1       622 7.80842E-05 2.30318E-06 1.65436E-24
 -1       623 7.73524E-05 2.42631E-06 0.00000E+00
 -1       624 7.66447E-05 2.54911E-06-1.65436E-24
 -1       625 7.59716E-05 2.67137E-06 0.00000E+00
 -1       626 7.93724E-05 2.93937E-06 0.00000E+00
 -1       627 7.91189E-05 3.94797E-06 6.61744E-24
 -1       628 7.88223E-05 5.07107E-06-6.61744E-24
 -1       629 7.84875E-05 6.29558E-06 0.00000E+00
 -1       630 7.81195E-05 7.60842E-06 0.00000E+00
 -1       631 7.77232E-05 8.99634E-06 0.00000E+00
 -1       632 7.73037E-05 1.04461E-05 6.61744E-24
 -1       633 7.68658E-05 1.19445E-05 1.65436E-24
 -1       634 7.64146E-05 1.34783E-05 0.00000E+00
 -1       635 7.59550E-05 1.50342E-05 0.00000E+00
 -1       636 7.54921E-05 1.65991E-05 0.00000E+00
 -1       637 7.50307E-05 1.81597E-05 0.00000E+00
 -1       638 7.45757E-05 1.97027E-05 1.65436E-24
 -1       639 7.41320E-05 2.12150E-05 0.00000E+00
 -1       640 7.37039E-05 2.26831E-05-1.65436E-24
 -1       656 7.86027E-05 2.51881E-05 0.00000E+00
 -1       657 7.73810E-05 2.49667E-05 1.65436E-24
 -1       658 7.63663E-05 2.47461E-05 0.00000E+00
 -1       659 7.54317E-05 2.45257E-05 1.65436E-24
 -1       660 7.44499E-05 2.43046E-05 0.00000E+00
 -1       661 7.96065E-05 2.72485E-05 3.30872E-24
 -1       662 7.90408E-05 2.91493E-05 0.00000E+00
 -1       663 7.84605E-05 3.10883E-05 3.30872E-24
 -1       664 7.78710E-05 3.30535E-05 0.00000E+00
 -1       665 7.72764E-05 3.50327E-05 0.00000E+00
 -1       666 7.66813E-05 3.70134E-05-1.65436E-24
 -1       667 7.60903E-05 3.89835E-05 0.00000E+00
 -1       668 7.55079E-05 4.09308E-05-1.65436E-24
 -1       669 7.49387E-05 4.28429E-05 0.00000E+00
 -1       670 7.43874E-05 4.47076E-05 0.00000E+00
 -1       671 7.38585E-05 4.65126E-05 0.00000E+00
 -1       672 7.33566E-05 4.82454E-05 0.00000E+00
 -1       673 7.28865E-05 4.98935E-05-3.30872E-24
 -1       674 7.24519E-05 5.14440E-05 0.00000E+00
 -1       675 7.20587E-05 5.28848E-05-1.65436E-24
 -1       676 7.78043E-05 5.50265E-05 0.00000E+00
 -1       677 7.65738E-05 5.48597E-05 3.30872E-24
 -1       678 7.53467E-05 5.46931E-05 0.00000E+00
 -1       679 7.41249E-05 5.45272E-05-1.65436E-24
 -1       680 7.29101E-05 5.43612E-05 0.00000E+00
 -1       716 2.60276E-05-1.11589E-04 0.00000E+00
 -1       717 2.60045E-05-1.04643E-04 8.07794E-28
 -1       718 2.59813E-05-9.76970E-05 0.00000E+00
 -1       719 2.59581E-05-9.07512E-05 0.00000E+00
 -1       720 2.59350E-05-8.38053E-05 0.00000E+00
 -1       721 2.59118E-05-7.68594E-05 0.00000E+00
 -1       722 2.58886E-05-6.99136E-05 0.00000E+00
 -1       723 2.58653E-05-6.29677E-05-5.16988E-26
 -1       724 2.58420E-05-5.60218E-05 2.06795E-25
 -1       725 2.58183E-05-4.90760E-05-2.06795E-25
 -1       726 2.57945E-05-4.21301E-05 0.00000E+00
 -1       727 2.57692E-05-3.51842E-05 0.00000E+00
 -1       728 2.57437E-05-2.82384E-05 0.00000E+00
 -1       729 2.57109E-05-2.12926E-05 0.00000E+00
 -1       730 2.56805E-05-1.43467E-05 0.00000E+00
 -1       766 1.86663E-05-7.46983E-06-1.32349E-23
 -1       767 1.17205E-05-7.50021E-06 3.30872E-24
 -1       768 4.77470E-06-7.53306E-06 0.00000E+00
 -1       769-2.17118E-06-7.55867E-06 0.00000E+00
 -1       770-9.11699E-06-7.58414E-06 8.27181E-25
 -1       771 2.20295E-05-1.66003E-06 0.00000E+00
 -1       772 1.88589E-05 2.96145E-06 0.00000E+00
 -1       773 1.60807E-05 6.54567E-06-5.29396E-23
 -1       774 1.36612E-05 9.17950E-06 0.00000E+00
 -1       775 1.15674E-05 1.09510E-05 0.00000E+00
 -1       776 9.76474E-06 1.19502E-05 2.64698E-23
 -1       777 8.21841E-06 1.22682E-05 0.00000E+00
 -1       778 6.89324E-06 1.19976E-05 0.00000E+00
 -1       779 5.75391E-06 1.12318E-05 5.29396E-23
 -1       780 4.76481E-06 1.00651E-05-2.64698E-23
 -1       781 3.89030E-06 8.59249E-06-5.29396E-23
 -1       782 3.09466E-06 6.90967E-06 0.00000E+00
 -1       783 2.34214E-06 5.11253E-06 0.00000E+00
 -1       784 1.59760E-06 3.29741E-06 1.32349E-23
 -1       785 8.25538E-07 1.56057E-06 0.00000E+00
 -1       786 7.38356E-05 2.67707E-07 8.27181E-25
 -1       787 7.39355E-05 4.51925E-07 0.00000E+00
 -1       788 7.40352E-05 5.80849E-07 3.30872E-24
 -1       789 7.41359E-05 6.66792E-07 0.00000E+00
 -1       790 7.42366E-05 7.21986E-07 3.30872E-24
 -1       791 7.43376E-05 7.58627E-07-1.65436E-24
 -1       792 7.44385E-05 7.88873E-07-3.30872E-24
 -1       793 7.45395E-05 8.24875E-07 1.65436E-24
 -1       794 7.46405E-05 8.78795E-07 0.00000E+00
 -1       795 7.47415E-05 9.62820E-07 0.00000E+00
 -1       796 7.48425E-05 1.08919E-06 3.30872E-24
 -1       797 7.49434E-05 1.27020E-06-1.65436E-24
 -1       798 7.50442E-05 1.51824E-06 3.30872E-24
 -1       799 7.51446E-05 1.84581E-06 0.00000E+00
 -1       800 7.52451E-05 2.26553E-06 0.00000E+00
 -1       801 6.78608E-05 8.36694E-08 0.00000E+00
 -1       802 5.39201E-05 8.49697E-08 0.00000E+00
 -1       803 3.60424E-05 3.15546E-08 1.65436E-24
 -1       804 1.83488E-05-2.55491E-08-3.30872E-24
 -1       805 4.95954E-06-2.38250E-08 0.00000E+00
 -1       806 7.35416E-05 2.17593E-07-3.30872E-24
 -1       807 7.33505E-05 3.85434E-07 0.00000E+00
 -1       808 7.31681E-05 5.27999E-07 3.30872E-24
 -1       809 7.29916E-05 6.53419E-07-1.65436E-24
 -1       810 7.28183E-05 7.69795E-07 0.00000E+00
 -1       811 7.26454E-05 8.85183E-07 0.00000E+00
 -1       812 7.24698E-05 1.00763E-06-3.30872E-24
 -1       813 7.22885E-05 1.14518E-06-1.65436E-24
 -1       814 7.20985E-05 1.30586E-06 1.65436E-24
 -1       815 7.18968E-05 1.49772E-06 8.27181E-25
 -1       816 7.16804E-05 1.72878E-06 3.30872E-24
 -1       817 7.14464E-05 2.00707E-06 0.00000E+00
 -1       818 7.11916E-05 2.34061E-06 0.00000E+00
 -1       819 7.09133E-05 2.73738E-06 1.65436E-24
 -1       820 7.06086E-05 3.20535E-06 8.27181E-25
 -1       821 7.52227E-05 3.46426E-06 0.00000E+00
 -1       822 7.50950E-05 4.31036E-06 0.00000E+00
 -1       823 7.49674E-05 5.31110E-06 0.00000E+00
 -1       824 7.48385E-05 6.44883E-06 1.65436E-24
 -1       825 7.47094E-05 7.70562E-06-3.30872E-24
 -1       826 7.45799E-05 9.06330E-06 0.00000E+00
 -1       827 7.44502E-05 1.05035E-05 0.00000E+00
 -1       828 7.43205E-05 1.20076E-05 0.00000E+00
 -1       829 7.41906E-05 1.35571E-05 0.00000E+00
 -1       830 7.40608E-05 1.51330E-05 1.65436E-24
 -1       831 7.39309E-05 1.67167E-05 0.00000E+00
 -1       832 7.38013E-05 1.82893E-05 0.00000E+00
 -1       833 7.36719E-05 1.98320E-05 3.30872E-24
 -1       834 7.35437E-05 2.13260E-05 1.65436E-24
 -1       835 7.34153E-05 2.27527E-05 1.65436E-24
 -1       836 7.46348E-05 2.94868E-06-3.30872E-24
 -1       837 7.37888E-05 3.11213E-06 1.65436E-24
 -1       838 7.28675E-05 3.27536E-06-3.30872E-24
 -1       839 7.19333E-05 3.43789E-06 0.00000E+00
 -1       840 7.10487E-05 3.60024E-06 8.27181E-25
 -1       841 7.51095E-05 3.52199E-06 0.00000E+00
 -1       842 7.47732E-05 4.52618E-06 4.13590E-25
 -1       843 7.43647E-05 5.72235E-06 0.00000E+00
 -1       844 7.39140E-05 7.03035E-06-4.13590E-25
 -1       845 7.34338E-05 8.41678E-06 0.00000E+00
 -1       846 7.29366E-05 9.84828E-06 0.00000E+00
 -1       847 7.24279E-05 1.13102E-05 8.27181E-25
 -1       848 7.19132E-05 1.27882E-05 0.00000E+00
 -1       849 7.13956E-05 1.42739E-05 0.00000E+00
 -1       850 7.08780E-05 1.57593E-05 4.13590E-25
 -1       851 7.03636E-05 1.72365E-05 8.27181E-25
 -1       852 6.98551E-05 1.86972E-05 4.13590E-25
 -1       853 6.93583E-05 2.01268E-05 8.27181E-25
 -1       854 6.88779E-05 2.15099E-05-1.03398E-25
 -1       855 6.84280E-05 2.28132E-05 8.27181E-25
 -1       856 7.32012E-05 2.55027E-05 8.27181E-25
 -1       857 7.31026E-05 2.71117E-05 0.00000E+00
 -1       858 7.30038E-05 2.88916E-05 1.65436E-24
 -1       859 7.29040E-05 3.08131E-05-1.65436E-24
 -1       860 7.28037E-05 3.28470E-05-3.30872E-24
 -1       861 7.27032E-05 3.49638E-05 1.65436E-24
 -1       862 7.26025E-05 3.71339E-05 3.30872E-24
 -1       863 7.25018E-05 3.93279E-05 0.00000E+00
 -1       864 7.24010E-05 4.15162E-05 3.30872E-24
 -1       865 7.23003E-05 4.36693E-05-1.65436E-24
 -1       866 7.21998E-05 4.57577E-05 0.00000E+00
 -1       867 7.20995E-05 4.77519E-05 0.00000E+00
 -1       868 7.19994E-05 4.96225E-05-3.30872E-24
 -1       869 7.19000E-05 5.13402E-05 0.00000E+00
 -1       870 7.18008E-05 5.28757E-05 0.00000E+00
 -1       871 7.22350E-05 2.40813E-05 0.00000E+00
 -1       872 7.13333E-05 2.40668E-05 0.00000E+00
 -1       873 7.05252E-05 2.40520E-05 0.00000E+00
 -1       874 6.97459E-05 2.40365E-05-2.06795E-25
 -1       875 6.89306E-05 2.40203E-05-1.65436E-24
 -1       876 7.29422E-05 2.55217E-05 0.00000E+00
 -1       877 7.25491E-05 2.70779E-05 0.00000E+00
 -1       878 7.21144E-05 2.87450E-05 0.00000E+00
 -1       879 7.16442E-05 3.05084E-05 0.00000E+00
 -1       880 7.11437E-05 3.23527E-05 0.00000E+00
 -1       881 7.06184E-05 3.42630E-05 0.00000E+00
 -1       882 7.00739E-05 3.62245E-05-6.61744E-24
 -1       883 6.95158E-05 3.82221E-05 3.30872E-24
 -1       884 6.89495E-05 4.02412E-05 0.00000E+00
 -1       885 6.83808E-05 4.22669E-05 0.00000E+00
 -1       886 6.78151E-05 4.42843E-05 0.00000E+00
 -1       887 6.72579E-05 4.62786E-05-1.65436E-24
 -1       888 6.67148E-05 4.82350E-05-3.30872E-24
 -1       889 6.61906E-05 5.01382E-05 0.00000E+00
 -1       890 6.56916E-05 5.19738E-05 3.30872E-24
 -1       891 7.06409E-05 5.41213E-05 0.00000E+00
 -1       892 6.97009E-05 5.40414E-05 8.27181E-25
 -1       893 6.87863E-05 5.39615E-05 0.00000E+00
 -1       894 6.77990E-05 5.38817E-05-8.27181E-25
 -1       895 6.66412E-05 5.38017E-05 0.00000E+00
 -1       956 7.01381E-05 4.52419E-06 1.65436E-24
 -1       957 6.99976E-05 5.43523E-06 8.27181E-25
 -1       958 6.98565E-05 6.47038E-06 1.65436E-24
 -1       959 6.97150E-05 7.61386E-06-1.65436E-24
 -1       960 6.95733E-05 8.84987E-06 0.00000E+00
 -1       961 6.94314E-05 1.01625E-05 0.00000E+00
 -1       962 6.92895E-05 1.15358E-05 3.30872E-24
 -1       963 6.91475E-05 1.29540E-05 0.00000E+00
 -1       964 6.90054E-05 1.44010E-05 3.30872E-24
 -1       965 6.88634E-05 1.58609E-05 0.00000E+00
 -1       966 6.87213E-05 1.73177E-05 0.00000E+00
 -1       967 6.85793E-05 1.87557E-05-3.30872E-24
 -1       968 6.84375E-05 2.01587E-05 0.00000E+00
 -1       969 6.82959E-05 2.15109E-05 3.30872E-24
 -1       970 6.81547E-05 2.27965E-05-6.61744E-24
 -1       971 6.78445E-05 2.52319E-05 0.00000E+00
 -1       972 6.76698E-05 2.66485E-05 1.65436E-24
 -1       973 6.74948E-05 2.82287E-05 3.30872E-24
 -1       974 6.73192E-05 2.99509E-05 0.00000E+00
 -1       975 6.71432E-05 3.17934E-05 0.00000E+00
 -1       976 6.69671E-05 3.37342E-05-3.30872E-24
 -1       977 6.67907E-05 3.57515E-05-6.61744E-24
 -1       978 6.66142E-05 3.78234E-05 0.00000E+00
 -1       979 6.64377E-05 3.99278E-05 6.61744E-24
 -1       980 6.62611E-05 4.20428E-05 3.30872E-24
 -1       981 6.60847E-05 4.41464E-05-6.61744E-24
 -1       982 6.59085E-05 4.62165E-05-3.30872E-24
 -1       983 6.57326E-05 4.82311E-05-6.61744E-24
 -1       984 6.55576E-05 5.01685E-05-1.65436E-24
 -1       985 6.53831E-05 5.20065E-05 0.00000E+00
 -3
    1PSTEP                         6           3           1          
  100CL  103 8.75000E-01         507                     0    3           1
 -4  STRESS      6    1
 -5  SXX         1    4    1    1
 -5  SYY         1    4    2    2
 -5  SZZ         1    4    3    3
 -5  SXY         1    4    1    2
 -5  SYZ         1    4    2    3
 -5  SZX         1    4    3    1
 -1         1-2.36687E+06-9.69199E+05-4.56390E+05-1.30085E+06-4.65661E-10 6.90731E-09
 -1         2-1.20564E+05-1.03732E+06 1.70458E+03 2.59878E+04-1.17871E-09 3.67145E-10
 -1         3-2.34521E+00-1.26453E+06 7.15000E+02-5.20576E+02 1.94298E-11-8.12270E-09
 -1         5-2.59253E+01 4.92441E+05 1.60013E+01-3.99246E+00 2.20169E-10-1.53159E-08
 -1         8-2.56943E+06-8.79013E+05-3.79316E+05-9.50920E+05 1.66619E-09 1.68802E-09
 -1         9-2.96546E+06-1.28353E+06-5.29515E+05-6.43732E+05-5.92263E-09-8.73115E-11
 -1        10-4.61651E+03-1.39837E+06-5.40538E+03-4.40600E+03-2.10355E-09-6.76317E-09
 -1        11 2.73434E+00-5.14617E+00-1.88990E+00 7.81119E-01 1.23582E-09 1.58366E-09
 -1        12-5.30071E+03 2.86104E+05-4.17354E+04 2.07771E+01 7.58909E-09 7.54896E-09
 -1        15 3.40359E+03 1.84060E+03 1.05632E+04 8.27927E+00-1.04762E-10 9.29473E-09
 -1        16-3.35908E+06-9.18129E+05-3.19266E+05-1.14742E+06-3.69710E-09 8.93124E-09
 -1        17-6.06322E+05-5.11352E+05-5.28274E+04-4.70019E+05 3.01588E-09 2.34043E-09
 -1        18 3.31004E+04 1.03518E+04-1.87768E+04-1.18891E+05 8.39009E-10 7.22139E-10
 -1        19 1.16663E+05 1.33414E+05-1.43691E+04 1.63964E+04 3.12624E-09-4.25280E-09
 -1        20 8.75364E+04-1.77548E+05-3.30897E+04 6.95604E+04 1.92146E-09-1.01439E-09
 -1        21-1.80807E+02-4.75684E+05-2.08865E+03-5.56725E+02 3.17726E-09 1.10628E-08
 -1        23 8.63676E-01 4.11476E-01 1.58224E+01 3.01514E-03-4.02255E-09 5.89020E-09
 -1        24-1.80326E+06-5.53003E+05 6.90158E+04-9.40783E+05-4.25498E-09 8.20728E-10
 -1        25 2.62130E+04 5.31807E+04 3.12021E+04-5.12782E+05 7.67432E-10-3.35713E-09
 -1        26-4.20788E+03 1.08784E+05-3.76748E+03-1.99225E+04-6.03677E-10-8.91627E-10
 -1        27-3.73232E+04-1.06493E+05-4.86539E+04 9.09562E+04 7.96626E-09 5.48062E-09
 -1        28-9.72215E+03-1.45030E+05-2.13040E+03 5.08699E+04 9.67520E-09-1.21491E-09
 -1        31 5.91898E+03 3.20093E+03 1.83699E+04 1.81253E+01 1.20614E-08 2.10324E-09
 -1        32-1.09844E+06-1.19297E+05 3.17782E+05-1.57760E+06-1.10595E-08 8.66066E-10
 -1        33-1.63212E+05 1.21513E+05 3.83631E+04-4.83899E+04-2.86491E-10-5.81167E-09
 -1        34-1.84123E+05-5.61339E+03 1.81452E+04 6.62577E+04 4.01432E-09-1.00546E-08
 -1        35-3.53833E+04-4.83743E+04-2.66060E+03 8.16334E+04 5.63224E-09-1.42851E-09
 -1        36 1.41961E+03-4.28352E+04 9.88131E+04-2.12988E-07-1.06811E-09 3.81260E-09
 -1        37 4.43356E+04 4.95838E+04 6.99445E+04 2.22848E-07-1.87714E-10-4.97676E-09
 -1        38 1.79290E+04-6.73564E+03 2.55828E+04 1.33331E-06 2.11777E-10 4.73301E-09
 -1        39 2.50817E+04 7.79556E+03 1.61206E+04-1.62175E-06 7.72834E-11-7.71365E-09
 -1        40 2.06597E+04-1.05833E+03 6.61625E+03 5.26434E-07-1.08712E-10-8.23093E-10
 -1        41 2.19036E+04 1.24918E+03 4.01580E+03 9.12716E-07-1.73439E-10 1.39735E-08
 -1        42 2.11064E+04-1.90663E+02 2.07864E+03 1.74620E-06 4.35314E-11 1.48839E-08
 -1        43 2.14621E+04 3.90209E+02 1.87022E+03 1.04021E-06 2.06932E-10-9.61092E-09
 -1        44 2.11013E+04-1.99508E+02 2.15707E+03-1.56613E-06-1.54329E-10 6.53654E-09
 -1        45 2.19443E+04 1.32504E+03 4.24301E+03 6.21541E-07 1.81591E-10 4.10614E-09
 -1        46 2.06242E+04-1.12534E+03 7.02468E+03-1.04420E-06 1.56632E-10-6.99265E-09
 -1        47 2.53273E+04 8.29212E+03 1.71417E+04-2.41679E-07 5.54980E-10 2.90652E-09
 -1        48 1.77191E+04-7.16512E+03 2.72114E+04 5.01849E-09-2.03475E-10-3.74348E-09
 -1        49 4.58095E+04 5.27463E+04 7.44037E+04-1.29033E-06 1.09048E-09-5.17139E-09
 -1        50 1.57702E+02-4.55666E+04 1.05118E+05-2.39968E-06 5.82005E-09-1.52213E-08
 -1        51 2.94093E+04-5.51566E+05 5.44519E+04-1.50981E+06 3.49246E-10 6.63567E-09
 -1        52 1.86131E+04-5.53883E+05 3.70188E+04-1.68310E+06 3.63798E-11 3.08792E-08
 -1        53 1.66205E+04-5.74256E+05 3.41058E+04-1.50538E+06-6.40284E-10 2.07656E-08
 -1        54 4.02872E+04-5.73243E+05 5.78266E+04-1.68761E+06-3.05590E-10-1.36788E-08
 -1        55 8.29177E+04-5.94496E+05 1.07399E+05-1.50431E+06 1.45519E-10 4.75120E-09
 -1        56-6.90964E+06-7.13969E+05-5.85503E+05-2.60975E+06-2.32831E-10-8.96398E-09
 -1        57-6.96151E+06-1.40983E+06-3.92097E+05-2.76386E+06-3.14230E-09 8.44011E-10
 -1        58-7.07662E+06-8.41905E+05-1.36772E+05-2.49820E+06-1.02409E-09-9.34961E-09
 -1        59-6.78111E+06-1.24675E+06-8.16744E+04-2.88860E+06-2.75350E-09 5.23596E-09
 -1        60-7.09518E+06-8.67999E+05-3.20180E+04-2.49101E+06 4.20550E-09 1.01727E-08
 -1        61-6.80261E+06-1.15741E+06-1.53166E+04-2.81913E+06-5.21959E-09-1.63931E-08
 -1        62-7.04848E+06-9.35066E+05-1.28034E+04-2.56328E+06 2.04818E-09-9.54606E-09
 -1        63-6.93015E+06-1.00450E+06-1.57765E+03-2.63700E+06-2.91948E-09 1.27093E-08
 -1        64-6.96000E+06-1.02617E+06-1.31035E+04-2.66743E+06-2.30466E-09 1.83809E-08
 -1        65-7.10913E+06-8.44050E+05-1.31587E+04-2.45747E+06 1.82536E-09 9.39144E-09
 -1        66-6.87471E+06-1.09192E+06-3.05026E+04-2.74649E+06 1.16688E-09 4.43833E-09
 -1        67-7.23725E+06-7.85139E+05-7.54142E+04-2.36451E+06 1.02198E-08-1.10867E-08
 -1        68-6.84047E+06-1.07986E+06-1.25985E+05-2.76663E+06 8.96398E-09 7.02130E-09
 -1        69-7.31428E+06-1.03151E+06-3.63421E+05-2.36219E+06-6.64477E-09 7.37055E-09
 -1        70-6.79548E+06-8.52119E+05-5.41255E+05-2.74484E+06-9.31323E-10-7.50879E-09
 -1        86 4.50306E+04-2.38239E+06-1.15340E+05 5.84010E+03 9.37143E-09 3.34023E-09
 -1        87-5.76305E+04-2.38670E+06-8.14735E+04 2.44800E+04-2.41289E-09-2.37564E-09
 -1        88 1.19633E+04-2.37773E+06-4.49405E+04 3.33252E+04 1.28293E-08-1.25906E-09
 -1        89-4.29571E+04-2.39808E+06-6.39167E+04 2.12790E+04-2.12367E-09-4.25027E-09
 -1        90 3.03890E+04-2.37107E+06-7.40283E+04 9.04251E+03 7.75253E-09 3.22186E-09
 -1       121-1.21967E+02-1.26501E+06 7.89132E+02 2.60179E+02-3.06983E-10-9.05311E-09
 -1       122 2.68515E+02-1.26436E+06 1.57607E+03-1.03680E+03-5.38080E-10-3.16322E-09
 -1       123-3.40289E+02-1.26518E+06 2.64155E+03 7.76032E+02-8.84029E-10-6.23186E-09
 -1       124 3.27858E+03-1.26261E+06 6.61446E+03-2.13996E+03-4.95618E-10 1.49612E-10
 -1       125-2.52719E+03-1.26678E+06 1.01655E+04 1.36430E+03-1.38334E-09-1.59434E-09
 -1       191-2.68739E+01 4.92478E+05 1.82886E+01 1.99036E+00 3.17215E-10-7.80892E-09
 -1       192-2.04442E+01 4.92443E+05 3.54862E+01-2.13814E+01 4.66599E-10-6.17547E-09
 -1       193-9.66051E+00 4.92475E+05 6.61921E+01 1.93635E+01 5.66615E-10 3.69801E-09
 -1       194 4.83871E+01 4.92464E+05 1.50167E+02-1.79101E+02 2.79215E-10-4.74756E-09
 -1       195 1.85920E+02 4.92453E+05 3.04654E+02 1.59826E+02 7.03949E-10-1.67438E-09
 -1       251-3.58124E+06 7.78005E+04-1.83260E+05-1.36301E+04-7.09274E-09-3.31784E-09
 -1       252-3.63952E+06-9.03057E+04-1.26102E+05 1.08530E+04-1.51182E-08 1.81717E-09
 -1       253-3.60389E+06 1.24640E+04-4.72001E+04 8.24073E+03 1.95539E-09-2.46291E-09
 -1       254-3.61304E+06-1.44821E+04-2.91869E+04-1.99304E+03 1.53145E-09 1.94450E-09
 -1       255-3.60756E+06 2.00695E+03-1.21467E+04-7.82064E+02-3.56304E-09 3.64298E-09
 -1       256-3.60874E+06-2.37749E+03-7.24437E+03 3.67286E+03 4.33471E-09 5.11000E-09
 -1       257-3.60814E+06 3.66129E+02-3.74632E+03 2.57457E+03-5.64651E-07-7.72729E-10
 -1       258-3.60815E+06-7.26302E+02-3.23890E+03 5.27321E+02-1.14381E-06-6.57892E-11
 -1       259-3.60814E+06 3.56843E+02-3.68808E+03 2.36354E+03-5.59866E-07-8.80596E-09
 -1       260-3.60878E+06-2.30569E+03-7.09051E+03 3.51676E+03 8.92762E-09 1.44041E-10
 -1       261-3.60752E+06 1.94473E+03-1.18399E+04-4.14925E+02 2.03417E-09 1.88220E-09
 -1       262-3.61329E+06-1.40880E+04-2.85232E+04-1.56084E+03-7.86184E-09-1.15506E-09
 -1       263-3.60368E+06 1.21337E+04-4.59512E+04 7.44137E+03-5.01976E-09-2.07547E-09
 -1       264-3.64092E+06-8.82104E+04-1.23391E+05 9.76326E+03 5.43412E-09-7.74889E-09
 -1       265-3.58006E+06 7.60425E+04-1.78255E+05-1.17407E+04-5.16876E-09 1.08412E-08
 -1       266-5.98349E+04-2.76588E+04 1.38148E+05-1.70439E+02 1.30967E-10-3.58156E-09
 -1       267 6.92978E+04 3.23151E+04 9.79712E+04 1.95900E+02 4.91127E-11 1.69950E-09
 -1       268-9.44255E+03-4.62572E+03 3.62637E+04-2.55151E+01-7.45786E-11-6.59354E-09
 -1       269 1.11464E+04 5.54769E+03 2.36988E+04 2.96570E+01-9.36780E-11-4.49885E-10
 -1       270-1.70154E+03-9.20256E+02 1.13784E+04-4.13853E+00 1.59162E-11 1.06684E-08
 -1       271-6.79208E+06-8.30175E+05-5.45524E+05-2.64646E+06 9.89530E-10-9.28412E-09
 -1       272-7.01815E+06-1.21687E+06-3.53521E+05-2.60916E+06 3.43152E-09-3.66708E-09
 -1       273-6.90049E+06-9.67599E+05-1.28665E+05-2.61499E+06 8.88122E-10 3.94357E-09
 -1       274-6.88760E+06-1.05343E+06-7.26128E+04-2.65706E+06 9.15861E-10 5.35874E-09
 -1       275-6.92014E+06-9.77667E+05-2.99412E+04-2.60458E+06-3.08319E-10-2.44836E-09
 -1       276-6.86251E+06-1.04347E+06-1.60732E+04-2.67366E+06 8.64020E-11 1.47293E-09
 -1       277-6.92599E+06-9.75316E+05-7.98278E+03-2.59954E+06-2.59206E-11-1.58639E-09
 -1       278-6.85641E+06-1.04599E+06-6.15891E+03-2.67980E+06-1.57434E-09-1.07594E-08
 -1       279-6.92667E+06-9.74692E+05-7.03783E+03-2.59881E+06-6.60407E-10-1.14701E-08
 -1       280-6.85992E+06-1.04538E+06-1.34637E+04-2.67666E+06-9.68612E-10-6.34827E-09
 -1       281-6.92227E+06-9.76205E+05-2.46936E+04-2.60248E+06 1.52568E-09 1.06174E-08
 -1       282-6.88045E+06-1.05359E+06-5.97444E+04-2.66298E+06-2.22576E-09 8.56289E-09
 -1       283-6.90574E+06-9.68373E+05-1.05788E+05-2.61149E+06 3.40151E-10 2.91038E-10
 -1       284-6.98898E+06-1.18647E+06-2.90573E+05-2.62173E+06 1.46792E-09 7.55244E-09
 -1       285-6.81558E+06-8.56637E+05-4.48622E+05-2.63864E+06-2.11003E-09 5.23869E-10
 -1       301 5.34688E+04-3.41816E+04 1.73379E+05-3.30875E+04-2.43017E-09-1.24373E-10
 -1       302 2.18049E+04 2.81760E+03 1.14603E+05-4.21597E+04-5.64887E-09 1.30694E-09
 -1       303 3.65100E+03-2.08766E+04 1.00116E+05-3.33576E+04-2.57569E-09 5.43787E-09
 -1       304 3.53182E+04 1.39669E+04 1.59277E+05-4.20552E+04-5.57338E-09 4.23915E-09
 -1       305 8.98593E+04-4.52117E+04 2.78345E+05-3.29898E+04-2.47383E-09 1.05724E-08
 -1       306-3.69505E+06-4.73202E+05-2.30330E+05-1.43452E+06-1.60071E-10 6.76664E-09
 -1       307-3.74739E+06-6.76084E+05-1.48730E+05-1.46523E+06 1.30194E-09-2.30830E-09
 -1       308-3.74221E+06-5.29003E+05-5.44547E+04-1.41967E+06-4.82032E-11-3.28146E-09
 -1       309-3.69158E+06-6.09418E+05-3.06123E+04-1.48845E+06-1.32422E-09 2.34195E-09
 -1       310-3.75108E+06-5.32452E+05-1.27476E+04-1.41470E+06 2.37924E-09-7.57609E-10
 -1       311-3.68125E+06-6.05555E+05-6.92541E+03-1.49628E+06 9.22410E-09 1.05346E-08
 -1       312-3.75338E+06-5.31545E+05-3.65877E+03-1.41278E+06 2.07228E-09 4.10961E-09
 -1       313-3.67967E+06-6.05771E+05-3.25183E+03-1.49786E+06-2.61383E-09-1.19690E-08
 -1       314-3.75289E+06-5.32028E+05-4.30071E+03-1.41331E+06-4.31874E-09-1.69803E-09
 -1       315-3.68299E+06-6.04125E+05-8.64663E+03-1.49393E+06 1.54023E-09 2.11230E-09
 -1       316-3.74947E+06-5.33649E+05-1.62607E+04-1.41626E+06 2.95586E-10-2.95950E-09
 -1       317-3.69651E+06-6.08841E+05-3.91179E+04-1.48369E+06 6.67114E-10-7.32143E-10
 -1       318-3.73833E+06-5.28973E+05-6.96593E+04-1.42237E+06 3.23780E-10-2.42289E-09
 -1       319-3.76724E+06-6.95150E+05-1.90302E+05-1.45546E+06 8.11383E-10 1.04046E-08
 -1       320-3.67880E+06-4.56576E+05-2.94536E+05-1.44038E+06 5.02041E-10 6.25732E-10
 -1       336 3.95281E+03-1.52864E+06-1.71877E+04 3.03775E+03-2.11890E-09 3.98995E-09
 -1       337-7.36578E+03-1.53486E+06-1.76291E+04-7.47934E+03 8.98694E-10-7.32143E-09
 -1       338 2.29519E+03-1.52956E+06-1.91833E+04 4.43537E+03-3.30056E-09-2.11276E-09
 -1       339-2.22887E+04-1.54330E+06-4.17055E+04-1.01785E+04 2.17278E-09-5.25870E-09
 -1       340 1.73074E+04-1.52040E+06-6.13937E+04 5.72474E+03-3.63070E-09 6.18274E-09
 -1       356-8.83019E-01 3.33618E-01-2.81765E+00-2.13897E+00-7.18759E-07-4.53096E-09
 -1       357-1.52909E+00-6.18498E-01-5.92742E+00 8.60711E+00-1.43751E-06-5.72688E-09
 -1       358-7.25124E-01 2.89080E-01-1.12262E+01-2.13857E+00-8.43294E-07-1.10647E-09
 -1       359-2.87738E+00-1.95350E+00-2.35556E+01 8.60687E+00-2.47003E-07-4.60200E-09
 -1       360 4.64754E-01 1.66874E+00-4.50007E+01-2.13873E+00 2.81036E-07 5.86831E-09
 -1       361-1.04084E+01-1.26919E+01-9.62385E+01 8.60810E+00 8.09788E-07 2.96799E-09
 -1       362 6.80604E+00 1.10270E+01-1.80155E+02-2.13980E+00 1.06792E-06 1.54478E-09
 -1       363-5.19229E+01-8.27928E+01-3.96814E+02 8.62059E+00 1.32512E-06 4.35990E-09
 -1       364 4.19810E+01 7.17616E+01-7.18596E+02-2.15121E+00 1.29685E-06 3.96682E-09
 -1       365-2.89418E+02-5.33520E+02-1.65612E+03 8.70811E+00 1.27151E-06-6.36513E-09
 -1       366 2.44317E+02 4.61692E+02-2.84932E+03-2.22729E+00 9.75494E-07-1.91335E-10
 -1       367-1.68900E+03-3.41168E+03-7.03410E+03 9.24412E+00 6.81150E-07-2.49759E-09
 -1       368 1.44177E+03 2.94946E+03-1.11894E+04-2.68693E+00 2.20171E-07 5.27416E-09
 -1       369-1.01215E+04-2.17130E+04-3.06215E+04 1.23036E+01-2.46578E-07 6.72844E-09
 -1       370 8.67989E+03 1.87602E+04-4.32421E+04-5.28467E+00-1.17738E-07 1.87501E-08
 -1       376-1.17602E+00 1.97804E+00-1.26345E+00 2.00756E+00 2.79046E-06-1.04851E-06
 -1       377 6.91205E+00-7.13263E+00-2.26502E+00-7.48053E+00 5.57040E-06-2.09064E-06
 -1       378-1.10395E+00 1.93573E+00-4.06463E+00 2.05703E+00 1.13713E-06-4.29376E-07
 -1       379 6.09715E+00-7.97644E+00-9.04828E+00-7.46752E+00-3.30173E-06 1.23509E-06
 -1       380-3.60874E-01 2.82210E+00-1.75180E+01 1.99449E+00-8.64105E-06 3.23936E-06
 -1       381 1.27841E+00-1.47424E+01-4.05613E+01-6.61546E+00-1.39775E-05 5.24638E-06
 -1       382 3.71509E+00 8.70112E+00-7.68308E+01 1.20533E+00-1.91272E-05 7.17447E-06
 -1       383-2.68759E+01-5.82613E+01-1.84267E+02 1.04933E-01-2.42753E-05 9.11636E-06
 -1       384 2.77937E+01 4.63361E+01-3.36029E+02-4.72351E+00-2.89169E-05 1.08590E-05
 -1       385-1.97811E+02-3.36528E+02-8.46868E+02 4.70533E+01-3.35532E-05 1.26053E-05
 -1       386 1.74652E+02 2.86935E+02-1.46159E+03-4.57278E+01-3.70997E-05 1.39281E-05
 -1       387-1.23835E+03-2.10718E+03-3.94549E+03 3.66523E+02-4.06315E-05 1.52678E-05
 -1       388 1.06837E+03 1.81675E+03-6.30997E+03-3.24078E+02-4.03485E-05 1.51462E-05
 -1       389-7.63613E+03-1.33466E+04-1.87096E+04 2.48548E+03-4.00333E-05 1.50377E-05
 -1       390 6.57331E+03 1.15249E+04-2.69273E+04-2.16371E+03-2.00319E-05 7.50899E-06
 -1       406 2.39991E+02 4.92432E+05 1.01416E+03-1.67710E+02 9.11314E-10 6.66205E-09
 -1       407 3.87467E+02 4.92654E+05 2.02938E+03 1.76083E+02 1.11072E-10 5.96583E-09
 -1       408 1.02907E+03 4.92306E+05 3.99598E+03-7.63710E+00 1.45837E-09-3.49155E-09
 -1       409 4.30006E+03 4.93911E+05 8.98081E+03-1.41453E+02 1.79625E-10-1.61285E-08
 -1       410 1.23719E+04 4.91171E+05 1.83256E+04 1.63948E+02 1.18780E-09-2.62116E-09
 -1       501 2.70472E+05-1.16079E+05 2.66833E+05 2.86713E+03 1.38766E-09 1.48430E-09
 -1       502 3.92053E+05 1.34274E+05 1.89740E+05-4.28355E+03-2.38396E-09-4.43833E-10
 -1       503 3.17737E+05-1.81465E+04 6.91511E+04 1.75258E+02-1.35581E-09-6.21367E-09
 -1       504 3.37220E+05 2.09922E+04 4.35045E+04-1.12163E+03 2.70673E-10-3.87081E-09
 -1       505 3.25217E+05-2.83930E+03 1.77145E+04-2.94662E+02 2.35866E-09-4.14911E-09
 -1       506 3.28507E+05 3.30764E+03 1.04604E+04-5.62877E+02 8.94443E-10-1.30319E-09
 -1       507 3.26451E+05-4.66201E+02 4.87886E+03-3.83508E+02-1.52197E-06-3.40219E-09
 -1       508 3.27141E+05 7.05358E+02 3.41498E+03-4.79127E+02-3.04606E-06-7.54233E-09
 -1       509 3.26584E+05-2.37517E+02 2.86257E+03-3.78416E+02-1.52406E-06-7.04460E-10
 -1       510 3.27461E+05 1.34734E+03 4.61633E+03-5.99212E+02 3.75088E-10-1.39244E-09
 -1       511 3.26132E+05-1.10808E+03 7.21403E+03-2.63421E+02-1.38153E-10 6.97037E-09
 -1       512 3.30960E+05 8.17811E+03 1.72540E+04-1.30288E+03 5.88741E-10-3.73984E-09
 -1       513 3.23083E+05-7.06737E+03 2.72797E+04 3.25264E+02 2.35752E-09 1.42609E-09
 -1       514 3.56038E+05 5.31439E+04 7.55101E+04-4.96686E+03 1.74070E-09 3.17414E-10
 -1       515 3.01081E+05-4.60726E+04 1.04317E+05 3.40054E+03 5.23715E-09 3.92902E-10
 -1       521-6.94268E+06-8.71748E+05-4.61516E+05-2.68871E+06-3.20870E-09 6.11180E-10
 -1       522-7.11185E+06-1.21973E+06-2.98842E+05-2.68129E+06 5.00040E-09-7.13408E-09
 -1       523-7.03612E+06-9.85863E+05-1.08813E+05-2.65995E+06-1.21418E-09-8.88394E-09
 -1       524-6.99967E+06-1.08385E+06-6.14039E+04-2.72490E+06-6.73026E-11-5.16138E-09
 -1       525-7.05325E+06-9.93748E+05-2.53226E+04-2.65054E+06 6.10726E-10 7.03949E-10
 -1       526-6.97906E+06-1.07499E+06-1.37021E+04-2.73860E+06 5.28735E-09 3.61069E-09
 -1       527-7.05725E+06-9.92708E+05-6.94260E+03-2.64735E+06-1.03341E-10 1.36362E-09
 -1       528-6.97682E+06-1.07404E+06-5.69284E+03-2.73996E+06 7.52948E-10-4.27463E-10
 -1       529-7.05555E+06-9.94504E+05-6.98211E+03-2.64929E+06-5.36693E-09-7.92261E-09
 -1       530-6.98490E+06-1.06857E+06-1.36181E+04-2.73066E+06-8.16726E-10-1.94996E-09
 -1       531-7.04840E+06-9.98824E+05-2.53647E+04-2.65604E+06-2.41926E-10 3.72893E-10
 -1       532-7.01076E+06-1.07187E+06-6.11331E+04-2.71049E+06 8.84484E-10 8.14907E-10
 -1       533-7.02889E+06-9.93398E+05-1.08550E+05-2.66814E+06-7.05938E-10-3.31056E-09
 -1       534-7.12674E+06-1.20333E+06-2.97743E+05-2.66299E+06-8.41737E-10-3.79077E-09
 -1       535-6.93438E+06-8.80950E+05-4.59909E+05-2.69833E+06-5.11500E-09 4.80213E-09
 -1       536-4.21203E+04-2.42041E+04 7.50520E+04-5.63877E+03 2.23736E-09-8.60382E-09
 -1       537-1.01760E+04 2.81855E+04 5.04073E+04-6.20191E+04-7.21047E-09-1.45519E-11
 -1       538-3.01692E+04-3.21425E+03 1.93777E+04-5.48390E+03-7.14863E-10-3.79623E-09
 -1       539-2.47762E+04 3.11444E+03 1.14623E+04-6.22279E+04 2.60843E-09-1.58113E-08
 -1       540-2.85813E+04-5.27253E+02 4.84549E+03-5.42653E+03 6.56655E-10-4.24325E-09
 -1       541-2.73781E+04 3.29928E+02 2.71188E+03-6.23140E+04 9.67702E-10 2.50111E-09
 -1       542-2.83490E+04-1.03474E+02 1.14391E+03-5.40100E+03 7.41238E-10-2.75350E-10
 -1       543-2.81647E+04 1.33870E+02 5.45034E+02-6.23548E+04 3.52361E-09 5.65228E-09
 -1       544-2.83026E+04 7.99081E+00 6.10432E+01-5.38618E+03 2.66164E-09 6.55848E-09
 -1       545-2.84960E+04 1.00729E+02-3.65138E+02-6.23736E+04-1.85082E-09 4.47926E-09
 -1       546-2.82510E+04 9.03070E+01-9.00714E+02-5.38196E+03 1.08849E-09 4.59022E-09
 -1       547-2.88156E+04-5.18719E+02-2.20123E+03-6.23637E+04-3.58887E-09 2.22258E-11
 -1       548-2.79413E+04 5.54570E+02-3.87623E+03-5.39624E+03-1.84264E-09-4.70527E-09
 -1       549-3.11527E+04-5.62474E+03-9.90402E+03-6.22574E+04-2.63299E-09 1.67529E-09
 -1       550-2.55972E+04 4.55488E+03-1.50082E+04-5.48833E+03 6.63931E-10 4.22278E-09
 -1       551 2.16878E+04-5.74281E+05 3.84877E+04-9.24462E+05-3.83443E-09 6.87578E-09
 -1       552 2.43837E+04-5.73602E+05 4.04730E+04-1.16428E+06-5.74801E-09 1.60835E-08
 -1       553 1.82018E+04-5.79647E+05 5.75077E+04-9.22408E+05-4.03816E-09 7.54335E-09
 -1       554 4.84949E+04-5.56394E+05 1.16994E+05-1.16453E+06-5.93718E-09 3.07773E-09
 -1       555 8.57188E+04-5.95966E+05 2.18375E+05-9.23603E+05-3.78350E-09-4.95493E-09
 -1       556-1.00961E+05-1.86186E+05 5.20543E+04-2.81446E+05-5.60249E-10-1.21508E-08
 -1       557-4.59130E+04-2.35050E+05 2.68527E+04-3.24856E+05 3.25235E-09-1.50199E-08
 -1       558-1.02178E+05-1.95877E+05 1.08982E+04-2.74680E+05 1.96451E-09 3.13594E-09
 -1       559-5.42159E+04-2.41947E+05 5.51364E+03-3.28684E+05 2.28465E-09 7.06677E-09
 -1       560-1.04334E+05-1.94618E+05 2.27707E+03-2.75936E+05-1.68075E-09 4.01087E-09
 -1       561-5.71944E+04-2.41154E+05 1.19590E+03-3.30663E+05 3.80169E-09 7.96672E-09
 -1       562-1.06013E+05-1.93532E+05 4.25537E+02-2.77100E+05-3.12866E-10-9.57107E-09
 -1       563-5.90100E+04-2.40374E+05 2.05087E+02-3.31874E+05-2.79397E-09-1.48702E-09
 -1       564-1.07033E+05-1.92886E+05-7.93664E+01-2.77803E+05-4.14366E-09-9.71522E-09
 -1       565-5.99389E+04-2.39983E+05-3.37538E+02-3.32476E+05 5.45879E-09 2.00471E-08
 -1       566-1.07351E+05-1.92655E+05-8.59800E+02-2.78037E+05-4.64115E-09 3.87627E-09
 -1       567-6.01344E+04-2.40021E+05-1.95854E+03-3.32455E+05-8.39350E-09 1.44792E-08
 -1       568-1.06856E+05-1.93005E+05-4.11344E+03-2.77765E+05-7.77436E-09 7.27596E-09
 -1       569-6.21025E+04-2.42109E+05-9.69229E+03-3.31023E+05-9.73159E-10 1.44246E-09
 -1       570-1.04138E+05-1.98745E+05-1.92334E+04-2.75353E+05 4.00178E-10-5.13592E-09
 -1       571 3.30246E+05 1.38966E+04 2.08638E+04-8.18959E+04 1.54159E-09-5.25279E-09
 -1       572 3.33371E+05 4.79050E+03 1.02317E+04-8.99405E+04-8.67658E-10-3.25144E-09
 -1       573 3.31480E+05 1.10954E+03 4.54754E+03-8.16769E+04-3.85990E-09-3.21324E-09
 -1       574 3.31843E+05 3.52769E+02 2.28055E+03-9.01788E+04-3.53066E-09-3.25326E-09
 -1       575 3.31604E+05 3.97168E+01 1.07559E+03-8.16490E+04 9.07266E-09-6.30280E-10
 -1       576 3.31632E+05 7.92959E+00 5.47166E+02-9.02102E+04 2.07197E-08 7.80710E-09
 -1       577 3.31623E+05-1.35744E+01 2.67841E+02-8.16454E+04 1.08412E-08 3.73620E-09
 -1       578 3.31618E+05-1.16744E+01 1.42478E+02-9.02142E+04 1.14960E-09 7.19774E-09
 -1       579 3.31658E+05-2.40496E+01 7.95571E+01-8.16451E+04 7.05768E-10-5.99266E-09
 -1       580 3.31668E+05-3.55380E+01 6.25338E+01-9.02102E+04 1.06274E-09-5.11864E-09
 -1       581 3.31724E+05-5.65500E+01 6.97157E+01-8.16494E+04 5.51154E-10-5.17775E-09
 -1       582 3.31769E+05-6.59503E+01 1.24316E+02-9.01626E+04-1.16415E-10 1.15142E-09
 -1       583 3.31817E+05-5.93336E+01 2.27695E+02-8.16926E+04-9.89530E-10-1.02045E-09
 -1       584 3.31972E+05 9.51567E+01 5.11391E+02-8.97928E+04-3.17232E-09 6.55245E-09
 -1       585 3.31873E+05 5.25556E+02 1.02828E+03-8.20198E+04 1.18052E-09 9.95715E-09
 -1       586 1.14161E+03 1.50642E+05 2.51340E+03-2.36755E+05-1.05501E-10-3.53884E-09
 -1       587 9.64236E+02 1.51019E+05 3.53776E+03-2.65986E+05 5.45697E-11-9.26730E-09
 -1       588 1.40215E+03 1.50389E+05 6.15652E+03-2.36477E+05-2.05546E-10-1.96354E-08
 -1       589 5.64487E+03 1.52975E+05 1.33768E+04-2.65955E+05 1.63709E-11-3.37786E-08
 -1       590 1.62381E+04 1.48746E+05 2.68130E+04-2.36782E+05 3.50155E-11-1.94750E-08
 -1       591-1.57577E+05-4.49008E+04-3.18737E+04-7.51182E+04 6.01403E-10-1.97724E-09
 -1       592-1.59867E+05-4.50016E+04-1.62338E+04-8.36020E+04 6.19411E-09 7.04313E-09
 -1       593-1.59494E+05-3.71877E+04-6.88196E+03-7.91932E+04 2.60025E-09 1.59253E-09
 -1       594-1.56118E+05-4.10568E+04-3.38724E+03-8.38316E+04 1.60696E-09-3.02947E-10
 -1       595-1.59682E+05-3.70081E+04-1.56403E+03-7.93439E+04 2.83944E-09-4.02423E-09
 -1       596-1.55871E+05-4.09184E+04-7.91104E+02-8.37946E+04 8.90122E-09-4.22358E-09
 -1       597-1.59712E+05-3.70344E+04-4.26920E+02-7.93445E+04 7.80508E-09 1.04433E-09
 -1       598-1.55844E+05-4.09190E+04-3.34328E+02-8.37828E+04-6.12545E-10-2.55397E-09
 -1       599-1.59708E+05-3.70372E+04-4.16175E+02-7.93424E+04-6.99856E-10-1.17670E-08
 -1       600-1.55862E+05-4.09219E+04-7.62567E+02-8.37865E+04 4.69299E-10-3.09001E-09
 -1       601-1.59671E+05-3.70167E+04-1.50237E+03-7.93374E+04-4.85397E-09-6.05951E-09
 -1       602-1.56095E+05-4.10545E+04-3.25065E+03-8.38110E+04-9.94532E-10 3.88695E-09
 -1       603-1.59481E+05-3.71978E+04-6.60322E+03-7.91920E+04 1.67256E-09 4.43015E-09
 -1       604-1.59719E+05-4.48032E+04-1.55722E+04-8.35403E+04 1.68029E-09 7.49878E-09
 -1       605-1.57599E+05-4.46298E+04-3.05744E+04-7.53160E+04-7.54426E-10-5.23232E-09
 -1       606 1.07454E+05-1.37104E+04-2.29401E+04 3.91583E+04-1.67511E-08 7.85803E-09
 -1       607 1.03677E+05-4.49646E+03-1.13476E+04 4.33927E+04-2.27637E-08 3.68232E-09
 -1       608 1.05825E+05-8.53909E+02-5.07008E+03 3.88680E+04-5.13865E-09-1.12709E-09
 -1       609 1.05353E+05-2.08957E+02-2.55199E+03 4.37094E+04-1.69075E-09-2.90675E-09
 -1       610 1.05596E+05 4.76788E+01-1.21456E+03 3.88338E+04-7.16318E-09 1.99952E-09
 -1       611 1.05492E+05 8.85352E+01-6.11214E+02 4.37456E+04-1.39771E-08-2.83171E-09
 -1       612 1.05524E+05 9.41124E+01-2.91825E+02 3.88305E+04 1.06411E-08-4.86580E-09
 -1       613 1.05474E+05 1.12820E+02-1.31485E+02 4.37493E+04 2.79615E-08 3.36740E-09
 -1       614 1.05481E+05 1.03076E+02-3.43325E+01 3.88297E+04 7.58337E-09 5.00404E-09
 -1       615 1.05447E+05 1.27045E+02 4.80700E+01 4.37492E+04-9.88439E-09-9.19954E-10
 -1       616 1.05448E+05 1.18244E+02 1.50359E+02 3.88303E+04-1.67893E-08 2.87082E-09
 -1       617 1.05450E+05 1.76656E+02 3.47626E+02 4.37476E+04-1.22282E-09 1.50794E-09
 -1       618 1.05405E+05 2.49624E+02 7.03404E+02 3.88308E+04-8.89577E-09-6.58474E-10
 -1       619 1.05679E+05 7.79362E+02 1.58410E+03 4.37425E+04-1.66474E-08-2.94267E-09
 -1       620 1.05177E+05 2.04906E+03 3.20470E+03 3.88310E+04-1.02111E-08-2.93949E-09
 -1       621 1.09223E+03 3.53684E+05 4.29102E+03-2.31493E+04 1.47139E-09-8.62883E-11
 -1       622 5.36060E+02 3.54576E+05 4.33702E+03-2.91572E+04-3.80624E-10-2.13686E-09
 -1       623 2.35853E+02 3.53832E+05 6.16140E+03-2.31447E+04 1.45337E-09-4.41696E-09
 -1       624 3.00876E+03 3.56624E+05 1.25188E+04-2.90814E+04-3.64707E-10 7.85622E-09
 -1       625 7.74163E+03 3.51658E+05 2.34891E+04-2.32208E+04 1.39789E-09 1.34701E-08
 -1       626 2.39173E+05 7.46591E+04-7.86601E+02 1.45033E+05-1.69803E-09-4.49654E-09
 -1       627 2.34412E+05 7.95402E+04-3.73281E+02 1.50137E+05-1.82354E-09-7.31893E-09
 -1       628 2.39303E+05 7.48356E+04-1.59126E+02 1.44593E+05 1.27511E-09-2.38288E-10
 -1       629 2.34188E+05 7.99298E+04-6.96620E+01 1.50330E+05 1.77442E-09 1.07173E-08
 -1       630 2.39267E+05 7.48651E+04-2.47056E+01 1.44523E+05-6.53017E-09-5.83566E-09
 -1       631 2.34114E+05 7.99807E+04 7.04617E+00 1.50319E+05-1.52231E-08-1.77788E-08
 -1       632 2.39226E+05 7.48823E+04 4.11371E+01 1.44495E+05-2.18088E-08-1.70394E-08
 -1       633 2.34083E+05 7.99951E+04 1.01428E+02 1.50301E+05-2.97678E-09 2.34820E-09
 -1       634 2.39196E+05 7.48837E+04 2.12749E+02 1.44482E+05 1.07866E-08 1.31627E-08
 -1       635 2.34091E+05 8.00013E+04 4.62593E+02 1.50298E+05-2.26555E-09 9.02219E-10
 -1       636 2.39171E+05 7.48902E+04 9.49630E+02 1.44471E+05-3.99223E-09 1.79625E-09
 -1       637 2.34300E+05 8.01939E+04 2.10350E+03 1.50280E+05 9.85506E-09 1.26374E-09
 -1       638 2.39109E+05 7.54788E+04 4.33863E+03 1.44207E+05-1.32331E-09-5.61340E-09
 -1       639 2.36539E+05 8.36697E+04 1.02901E+04 1.49505E+05-8.36189E-09-1.48648E-08
 -1       640 2.39018E+05 8.57155E+04 2.15189E+04 1.39891E+05-7.93989E-10-4.75120E-09
 -1       656 2.03793E+04-6.26309E+05-6.77165E+04 5.82563E+03-6.60293E-09-6.47105E-10
 -1       657-2.77630E+04-6.53147E+05-5.22548E+04 5.75387E+04-4.14184E-09 3.21734E-09
 -1       658 4.96383E+03-6.35068E+05-3.35108E+04 5.57628E+03-5.57515E-09 1.77590E-09
 -1       659-2.84697E+04-6.53610E+05-5.33863E+04 5.77111E+04-5.62750E-09-2.44188E-09
 -1       660 2.10760E+04-6.25918E+05-6.97472E+04 5.65414E+03-5.73345E-09-1.08730E-09
 -1       661 3.22633E+05 4.26925E+04 2.62256E+04 1.26291E+05 6.50471E-09-3.73802E-09
 -1       662 3.29087E+05 6.02253E+04 1.62219E+04 1.29375E+05 2.50972E-09 3.95517E-09
 -1       663 3.26947E+05 4.78209E+04 6.18263E+03 1.25925E+05-6.45394E-09 3.58341E-10
 -1       664 3.24101E+05 5.30873E+04 3.33861E+03 1.30324E+05-1.29215E-08-5.58975E-09
 -1       665 3.27405E+05 4.83316E+04 1.44924E+03 1.25906E+05-2.05327E-09 1.25328E-09
 -1       666 3.23572E+05 5.24097E+04 7.81771E+02 1.30390E+05 1.89522E-09-2.63187E-09
 -1       667 3.27460E+05 4.83806E+04 4.50517E+02 1.25904E+05 5.03206E-09 6.56112E-09
 -1       668 3.23517E+05 5.23650E+04 4.36532E+02 1.30405E+05-2.81261E-09-1.97588E-10
 -1       669 3.27462E+05 4.83674E+04 6.32743E+02 1.25896E+05 1.04160E-09-2.71132E-09
 -1       670 3.23603E+05 5.24898E+04 1.28173E+03 1.30429E+05 8.89213E-09 4.68879E-09
 -1       671 3.27382E+05 4.82621E+04 2.47358E+03 1.25882E+05 9.49854E-10-2.37833E-09
 -1       672 3.24501E+05 5.36918E+04 5.76257E+03 1.30354E+05-8.35075E-09-1.69496E-09
 -1       673 3.26603E+05 4.73626E+04 1.06903E+04 1.25901E+05-4.22580E-09 3.69846E-09
 -1       674 3.33120E+05 6.60638E+04 2.80730E+04 1.28736E+05 4.41696E-09-8.70614E-09
 -1       675 3.19141E+05 3.84809E+04 4.53863E+04 1.26530E+05 1.12659E-08-4.05453E-09
 -1       676 8.65342E+01-4.75443E+05-2.48069E+03 2.78363E+02 8.22945E-09 2.98339E-09
 -1       677-9.45913E+02-4.76192E+05-4.63892E+03-5.55471E+02 1.27704E-09 1.20326E-09
 -1       678 7.20392E+02-4.74936E+05-7.98804E+03 2.76954E+02 2.86900E-09-2.24247E-10
 -1       679-9.53390E+03-4.81280E+05-1.95084E+04-5.52550E+02-6.41603E-09-8.91762E-09
 -1       680 7.00092E+03-4.70359E+05-3.03972E+04 2.73522E+02 5.18230E-09-3.87391E-09
 -1       716-4.31842E-01-2.05898E-01 1.93235E+01-1.50701E-03 3.63977E-09-4.16146E-09
 -1       717 2.12662E+00 1.55092E+00 3.40323E+01 3.83878E-03-2.24715E-10-4.49038E-09
 -1       718-1.69480E+00-1.34558E+00 6.31546E+01-2.32929E-03-2.10316E-10-4.79601E-09
 -1       719 1.00419E+01 1.05640E+01 1.30994E+02-3.48205E-03-1.17705E-08 1.38625E-09
 -1       720-8.34715E+00-9.21954E+00 2.49842E+02 5.81707E-03-1.32217E-08-3.96246E-09
 -1       721 5.19736E+01 7.03878E+01 5.33957E+02-1.22795E-01-8.92934E-09-3.00677E-09
 -1       722-4.36260E+01-6.11669E+01 9.99390E+02 1.16971E-01-1.01150E-08-5.52933E-09
 -1       723 2.82579E+02 4.59283E+02 2.20131E+03-1.17834E+00-4.76605E-09-3.50454E-09
 -1       724-2.38936E+02-3.98067E+02 3.98622E+03 1.06116E+00-9.81515E-09-4.04248E-09
 -1       725 1.60062E+03 2.95953E+03 9.18703E+03-9.06191E+00-3.30165E-09-1.62686E-10
 -1       726-1.36135E+03-2.56095E+03 1.58067E+04 7.99950E+00-9.90067E-09-4.72937E-09
 -1       727 9.36603E+03 1.89249E+04 3.90213E+04-6.37430E+01-1.26431E-08-2.64254E-09
 -1       728-7.99901E+03-1.63594E+04 6.20875E+04 5.57511E+01-3.44190E-09-4.75120E-09
 -1       729 5.61491E+04 1.20441E+05 1.69882E+05-4.28730E+02 5.01856E-10-6.53017E-10
 -1       730-4.80567E+04-1.04036E+05 2.40169E+05 3.73296E+02 1.25966E-08-4.81668E-09
 -1       766-1.04045E+05-4.80646E+04 2.40354E+05-3.73307E+02-1.09139E-09-1.47338E-10
 -1       767 1.20511E+05 5.62000E+04 1.70383E+05 4.28857E+02 1.18253E-08-6.39574E-10
 -1       768-1.64204E+04-8.04238E+03 6.30709E+04-5.58688E+01-6.76664E-10 2.04517E-09
 -1       769 1.93841E+04 9.64801E+03 4.12138E+04 6.49250E+01 1.10485E-08 1.12596E-08
 -1       770-2.95903E+03-1.60031E+03 1.97879E+04-9.06060E+00-6.87123E-10 7.28145E-09
 -1       771-2.99899E+06-5.82324E+05-8.35137E+04-1.29405E+06 3.16504E-09-6.83940E-10
 -1       772-2.98329E+06-6.02058E+05-4.22806E+04-1.33884E+06 5.18048E-09-3.67436E-10
 -1       773-3.00683E+06-5.60204E+05-1.83346E+04-1.30429E+06 4.00178E-09 2.41562E-09
 -1       774-2.97412E+06-5.92820E+05-8.89829E+03-1.34305E+06 2.75031E-09-6.33008E-10
 -1       775-3.00933E+06-5.58327E+05-4.36076E+03-1.30534E+06 9.24047E-10-3.21961E-09
 -1       776-2.97476E+06-5.92308E+05-2.10941E+03-1.34504E+06-5.05679E-10 7.04858E-10
 -1       777-3.01104E+06-5.57314E+05-1.25450E+03-1.30596E+06 4.36557E-10-2.91311E-09
 -1       778-2.97574E+06-5.92092E+05-8.21705E+02-1.34656E+06 1.57161E-09 1.68711E-10
 -1       779-3.01225E+06-5.56518E+05-1.01450E+03-1.30643E+06 3.79805E-09-1.60117E-09
 -1       780-2.97656E+06-5.91943E+05-1.66982E+03-1.34764E+06 1.01863E-09-9.85438E-09
 -1       781-3.01293E+06-5.55954E+05-3.29216E+03-1.30671E+06 3.41242E-09-1.99725E-09
 -1       782-2.97750E+06-5.92143E+05-7.08370E+03-1.34828E+06 1.51431E-09 7.73070E-11
 -1       783-3.01283E+06-5.56145E+05-1.44273E+04-1.30653E+06-8.12270E-09-3.87627E-09
 -1       784-2.98560E+06-6.00292E+05-3.40945E+04-1.34772E+06-1.07384E-08-6.89033E-09
 -1       785-3.00854E+06-5.72564E+05-6.70164E+04-1.29812E+06 5.64978E-09 7.43967E-09
 -1       786 2.82660E+05-1.10355E+04 3.53170E+04-4.34226E+02 2.73985E-10-3.92720E-09
 -1       787 2.96379E+05 1.34815E+04 2.35187E+04-5.50798E+03-3.79458E-10-6.19093E-09
 -1       788 2.88237E+05-1.34152E+03 9.17863E+03-4.50987E+02-1.36993E-11 1.09230E-09
 -1       789 2.90063E+05 1.61702E+03 5.32949E+03-5.47828E+03 2.85553E-10 2.32671E-09
 -1       790 2.88975E+05-1.64111E+02 2.34262E+03-4.63633E+02 1.90767E-10-2.92368E-09
 -1       791 2.89222E+05 1.93258E+02 1.29052E+03-5.46298E+03 1.30232E-10 3.19230E-09
 -1       792 2.89078E+05-2.13338E+01 6.45573E+02-4.66276E+02-2.92815E-11 1.10115E-08
 -1       793 2.89109E+05 3.14996E+01 4.34345E+02-5.46811E+03-1.57172E-10 5.11398E-09
 -1       794 2.89088E+05-1.14163E+01 3.93011E+02-4.58507E+02 3.98188E-10 8.11119E-09
 -1       795 2.89144E+05 8.26640E+01 6.08638E+02-5.49427E+03-4.85215E-10 8.60609E-09
 -1       796 2.89046E+05-7.07380E+01 1.02223E+03-4.40117E+02-2.40846E-10-6.47924E-09
 -1       797 2.89502E+05 6.82908E+02 2.27474E+03-5.54001E+03 7.56927E-10-3.36837E-09
 -1       798 2.88734E+05-5.70494E+02 3.89696E+03-4.12772E+02-2.84899E-10-8.35371E-10
 -1       799 2.92184E+05 5.71052E+03 9.97377E+03-5.59640E+03-2.62435E-09-2.85138E-09
 -1       800 2.86369E+05-4.68131E+03 1.49689E+04-3.83961E+02 1.78829E-10-2.04636E-10
 -1       801-2.94851E+04 2.83882E+05 3.44241E+04-1.65986E+05 1.00954E-09-6.21367E-09
 -1       802 8.10453E+04 2.98746E+05 7.03033E+04-1.85908E+06-5.93354E-09-1.80244E-08
 -1       803-3.13271E+03 2.87477E+05 8.43963E+04-1.66502E+05 1.68584E-08 2.10666E-08
 -1       804 1.63732E+05 3.49328E+05 2.01290E+05-1.85899E+06-1.34314E-08 1.18489E-08
 -1       805-1.08876E+05 2.38824E+05 2.71033E+05-1.66183E+05 1.39407E-08 1.97033E-08
 -1       806-2.63242E+05-7.30713E+04-2.23863E+04-1.26988E+05 2.57410E-09 1.08957E-08
 -1       807-2.62790E+05-6.88166E+04-1.07024E+04-1.34603E+05-3.82897E-10 1.33026E-08
 -1       808-2.63329E+05-6.24495E+04-4.51288E+03-1.31544E+05 3.23780E-10 4.88603E-09
 -1       809-2.60545E+05-6.51348E+04-2.18773E+03-1.35367E+05 2.07228E-09 1.24373E-09
 -1       810-2.63403E+05-6.18330E+04-9.91300E+02-1.31832E+05 8.53186E-09-1.83354E-09
 -1       811-2.60339E+05-6.49273E+04-4.90388E+02-1.35382E+05 2.15645E-08 4.62933E-10
 -1       812-2.63419E+05-6.18309E+04-2.43174E+02-1.31839E+05 6.85804E-09-1.04137E-09
 -1       813-2.60310E+05-6.49284E+04-1.52671E+02-1.35369E+05-9.86574E-10-6.71480E-09
 -1       814-2.63412E+05-6.18418E+04-1.42013E+02-1.31832E+05-9.68157E-10-1.62481E-08
 -1       815-2.60306E+05-6.49368E+04-2.22004E+02-1.35358E+05-3.93356E-10 4.01405E-09
 -1       816-2.63387E+05-6.18551E+04-4.16381E+02-1.31820E+05-1.79170E-09 1.49612E-10
 -1       817-2.60383E+05-6.50172E+04-9.01729E+02-1.35321E+05-1.03319E-09-6.90943E-09
 -1       818-2.63326E+05-6.21323E+04-1.85403E+03-1.31703E+05 1.44701E-09-1.16124E-08
 -1       819-2.61395E+05-6.64180E+04-4.38885E+03-1.34858E+05 1.13096E-09-1.82263E-09
 -1       820-2.63161E+05-6.65939E+04-9.17985E+03-1.29940E+05 1.17325E-09-5.82077E-11
 -1       821-3.60162E+05 1.38736E+04-4.44064E+04 4.20451E+02-4.54088E-09-3.73620E-09
 -1       822-3.77384E+05-1.69507E+04-2.95720E+04 7.52720E+03-5.20004E-09 5.74801E-10
 -1       823-3.67173E+05 1.68289E+03-1.15470E+04 3.18545E+02 2.72053E-09-5.59749E-09
 -1       824-3.69462E+05-2.02022E+03-6.70940E+03 7.69467E+03-2.27186E-09-4.26178E-09
 -1       825-3.68098E+05 2.05026E+02-2.96947E+03 2.52314E+02-6.39864E-09-9.97488E-10
 -1       826-3.68421E+05-2.25213E+02-1.67007E+03 7.80594E+03-1.27160E-08-3.30846E-09
 -1       827-3.68226E+05 2.88187E+01-9.07908E+02 2.07096E+02-6.91352E-09 2.40837E-09
 -1       828-3.68300E+05-3.20579E+01-7.47004E+02 7.87638E+03-5.69028E-09 1.13692E-08
 -1       829-3.68227E+05 2.87385E+01-8.80309E+02 1.81823E+02 8.31619E-11 5.38553E-09
 -1       830-3.68425E+05-2.09040E+02-1.59793E+03 7.90580E+03 6.00609E-09 4.72789E-09
 -1       831-3.68105E+05 1.97962E+02-2.82650E+03 1.77687E+02-2.73612E-09 3.03453E-09
 -1       832-3.69426E+05-1.91185E+03-6.38419E+03 7.89361E+03-2.09991E-09 5.41036E-10
 -1       833-3.67225E+05 1.60524E+03-1.09792E+04 1.94211E+02-1.43410E-09-4.39059E-09
 -1       834-3.76970E+05-1.61078E+04-2.81253E+04 7.83684E+03-1.01511E-09-2.36196E-09
 -1       835-3.60558E+05 1.32007E+04-4.22258E+04 2.35900E+02-5.07043E-11 2.04454E-09
 -1       836-1.65411E+03 4.68519E+05 3.63067E+04-3.57051E+04-4.09273E-10-1.40244E-09
 -1       837 7.61784E+03 4.79546E+05 2.80021E+04-6.91488E+04-2.07831E-09 6.84395E-09
 -1       838-4.87518E+02 4.72155E+05 2.50478E+04-3.56097E+04-4.38376E-10 3.75400E-09
 -1       839 1.40168E+04 4.84429E+05 4.36825E+04-6.91567E+04-1.84446E-09 2.68972E-09
 -1       840-3.28543E+03 4.63610E+05 6.85010E+04-3.56940E+04-5.12955E-10 8.21092E-09
 -1       841 8.99626E+04 1.33375E+04-1.78008E+03 3.34210E+04-2.90271E-09-6.11624E-09
 -1       842 8.88289E+04 1.19674E+04-1.22201E+03 3.40362E+04-3.11977E-08 1.53799E-08
 -1       843 8.95638E+04 1.27662E+04-4.11978E+02 3.36204E+04-4.32416E-05 1.62671E-05
 -1       844 8.93081E+04 1.26153E+04-2.48301E+02 3.37881E+04-8.64559E-05 3.25564E-05
 -1       845 8.94832E+04 1.26898E+04-7.55296E+01 3.36689E+04-5.91850E-05 2.22733E-05
 -1       846 8.94128E+04 1.27046E+04-7.54550E+00 3.37243E+04-3.18700E-05 1.20019E-05
 -1       847 8.94591E+04 1.26770E+04 6.93483E+01 3.36843E+04-1.94267E-05 7.30794E-06
 -1       848 8.94701E+04 1.27623E+04 2.07233E+02 3.36987E+04-6.98803E-06 2.63833E-06
 -1       849 8.94259E+04 1.26321E+04 3.94897E+02 3.36945E+04-9.34580E-07 3.48049E-07
 -1       850 8.96753E+04 1.30967E+04 1.00549E+03 3.36429E+04 5.11701E-06-1.93021E-06
 -1       851 8.92538E+04 1.23426E+04 1.73867E+03 3.37401E+04 8.72800E-06-3.28186E-06
 -1       852 9.09031E+04 1.52170E+04 4.69609E+03 3.32771E+04 1.23398E-05-4.64184E-06
 -1       853 8.81980E+04 1.05121E+04 7.51052E+03 3.40600E+04 1.27704E-05-4.79594E-06
 -1       854 9.84890E+04 2.86300E+04 2.22708E+04 3.07969E+04 1.31687E-05-4.96675E-06
 -1       855 8.16683E+04-1.06796E+03 3.20566E+04 3.62195E+04 6.57795E-06-2.49752E-06
 -1       856-2.75935E+05 6.54700E+03-3.52135E+04 6.76724E+03-7.70160E-09 6.97946E-09
 -1       857-2.88110E+05-9.85547E+03-2.20864E+04 2.11945E+04-6.61748E-09 4.12592E-09
 -1       858-2.81113E+05 6.35520E+02-9.09653E+03 6.66376E+03-7.79937E-09 5.12046E-09
 -1       859-2.82451E+05-7.97786E+02-4.98570E+03 2.13246E+04-1.87356E-09-3.15913E-09
 -1       860-2.81661E+05 8.89707E+01-2.30170E+03 6.63406E+03 1.79102E-09-4.84511E-09
 -1       861-2.81872E+05 1.18643E+01-1.21705E+03 2.13654E+04-9.45778E-09-5.84009E-10
 -1       862-2.81732E+05 3.75899E+01-6.21608E+02 6.62243E+03 8.35541E-09-1.52056E-09
 -1       863-2.81806E+05 8.25993E+01-3.96614E+02 2.13758E+04 1.87696E-08-3.09007E-09
 -1       864-2.81739E+05 3.25683E+01-3.47786E+02 6.62354E+03 7.27505E-09-4.40104E-09
 -1       865-2.81810E+05 5.83356E+01-5.01530E+02 2.13597E+04 1.51907E-08-4.27599E-09
 -1       866-2.81711E+05 4.55648E+01-8.63061E+02 6.63863E+03-3.34944E-09-9.47210E-10
 -1       867-2.81996E+05-2.42499E+02-1.81461E+03 2.13141E+04 9.74751E-10 4.32296E-09
 -1       868-2.81506E+05 2.34197E+02-3.29599E+03 6.66947E+03 5.14819E-09 2.22894E-09
 -1       869-2.84005E+05-3.52479E+03-7.97582E+03 2.11734E+04-7.65704E-09 2.91948E-10
 -1       870-2.79628E+05 2.35482E+03-1.27249E+04 6.78042E+03 2.03909E-09 1.89357E-09
 -1       871-5.27954E+03-4.00731E+04-1.33072E+04 1.47070E+05 3.16504E-09 8.72751E-09
 -1       872-2.06247E+03-4.28895E+04-4.70784E+03 1.83751E+05 7.35690E-09 6.56019E-09
 -1       873-1.48199E+02-4.17694E+04 2.28457E+03 1.46759E+05-3.36513E-11-1.33014E-09
 -1       874 2.77247E+03-3.90973E+04 1.09603E+04 1.83845E+05 3.94357E-09 9.04674E-09
 -1       875 8.02407E+03-4.40578E+04 2.35756E+04 1.46999E+05 1.16233E-09 3.64071E-09
 -1       876 4.13991E+05 6.24039E+04 3.44937E+04 1.64700E+05 1.66722E-09-9.84073E-10
 -1       877 4.20033E+05 7.80061E+04 1.99838E+04 1.71024E+05 1.50158E-09-7.06677E-10
 -1       878 4.18685E+05 6.50115E+04 8.01200E+03 1.65536E+05 6.32144E-09-2.40379E-09
 -1       879 4.14352E+05 7.10776E+04 4.11736E+03 1.71630E+05-4.71800E-09 1.27022E-09
 -1       880 4.19065E+05 6.52650E+04 1.85572E+03 1.65611E+05 1.45701E-09 4.12263E-09
 -1       881 4.13890E+05 7.05962E+04 9.66867E+02 1.71603E+05-5.75221E-09-4.98454E-09
 -1       882 4.19097E+05 6.53054E+04 5.49637E+02 1.65624E+05-1.80194E-09 1.93472E-09
 -1       883 4.13854E+05 7.05579E+04 4.93670E+02 1.71580E+05 1.08248E-08-1.73452E-09
 -1       884 4.19089E+05 6.53081E+04 6.91537E+02 1.65626E+05-2.57484E-09 4.99119E-09
 -1       885 4.13924E+05 7.06002E+04 1.34457E+03 1.71587E+05 1.35663E-08 1.01109E-08
 -1       886 4.19025E+05 6.52638E+04 2.65390E+03 1.65615E+05 1.39312E-09-3.89491E-10
 -1       887 4.14601E+05 7.12795E+04 5.92430E+03 1.71597E+05 3.95903E-09-4.80770E-09
 -1       888 4.18459E+05 6.49120E+04 1.15465E+04 1.65512E+05 7.48315E-10-4.02906E-09
 -1       889 4.22759E+05 8.12899E+04 2.88036E+04 1.70734E+05 6.86893E-09 5.88216E-09
 -1       890 4.11715E+05 6.11313E+04 4.97257E+04 1.64270E+05 9.67975E-09 3.93993E-09
 -1       891 7.95258E+02-2.27184E+05-8.61120E+03 4.03008E+04-2.11003E-09-2.71166E-09
 -1       892-2.25218E+03-2.29888E+05-6.67923E+03 9.14819E+04-3.63252E-09 2.48332E-09
 -1       893 1.47523E+02-2.28106E+05-5.72015E+03 4.02069E+04 2.02363E-10 2.26896E-09
 -1       894-3.78659E+03-2.30843E+05-9.96050E+03 9.13949E+04-1.24664E-08-1.10231E-09
 -1       895 1.47475E+03-2.26059E+05-1.51911E+04 4.03858E+04 2.43745E-10-7.86713E-10
 -1       956-4.01747E+05-7.11717E+03-1.74545E+04 4.33046E+04-4.82032E-09-3.01952E-10
 -1       957-4.05179E+05-2.34385E+03-8.93543E+03 5.19027E+04-1.02955E-09-3.67436E-10
 -1       958-4.03324E+05-1.73599E+02-4.02784E+03 4.30303E+04 4.46380E-09 1.86765E-09
 -1       959-4.03633E+05 2.25243E+01-2.05337E+03 5.22008E+04-3.15049E-09 5.59839E-09
 -1       960-4.03503E+05 1.11072E+02-9.99497E+02 4.30021E+04-7.85076E-09-4.76439E-09
 -1       961-4.03554E+05 1.34673E+02-5.23682E+02 5.22332E+04-1.26092E-08 5.03405E-09
 -1       962-4.03557E+05 1.21260E+02-2.89819E+02 4.29971E+04-4.90763E-09-3.64571E-09
 -1       963-4.03572E+05 1.49343E+02-2.13872E+02 5.22399E+04-7.54335E-09 7.90214E-09
 -1       964-4.03576E+05 1.30943E+02-2.37734E+02 4.29951E+04-1.37015E-09 6.48515E-09
 -1       965-4.03592E+05 1.56755E+02-3.92539E+02 5.22403E+04 7.80767E-09 4.43788E-09
 -1       966-4.03563E+05 1.39437E+02-7.27562E+02 4.29967E+04-4.10978E-09-5.61840E-09
 -1       967-4.03676E+05 9.08184E+01-1.48737E+03 5.22224E+04-1.84991E-09 2.54613E-09
 -1       968-4.03454E+05-5.36710E+01-2.91142E+03 4.30135E+04-4.04361E-09 7.21457E-09
 -1       969-4.04815E+05-1.61069E+03-6.46247E+03 5.20359E+04-6.74345E-09-4.14684E-09
 -1       970-4.02326E+05-5.07074E+03-1.26212E+04 4.31900E+04-2.10093E-09-5.51336E-09
 -1       971-4.95927E+05 7.08230E+02-2.07514E+04 1.25049E+04-7.95808E-09 3.87809E-09
 -1       972-5.02123E+05-3.98465E+03-1.22000E+04 2.39224E+04-6.32099E-09 1.13005E-08
 -1       973-4.98687E+05 1.14210E+02-5.27096E+03 1.23426E+04-7.10497E-09 3.70437E-09
 -1       974-4.99217E+05-1.66743E+02-2.78674E+03 2.41152E+04 5.92536E-10 3.98381E-09
 -1       975-4.98929E+05 5.48308E+01-1.35440E+03 1.23089E+04 1.25192E-09 2.64652E-09
 -1       976-4.99006E+05 7.64759E+01-7.51529E+02 2.41651E+04-3.38514E-09 5.81144E-09
 -1       977-4.98967E+05 5.33279E+01-4.85914E+02 1.22922E+04 6.54586E-09 2.25077E-09
 -1       978-4.99005E+05 9.77769E+01-4.90231E+02 2.41888E+04 1.99228E-08 2.70245E-09
 -1       979-4.98968E+05 6.15231E+01-7.20456E+02 1.22851E+04 9.52934E-09-3.16243E-09
 -1       980-4.99065E+05 7.64283E+01-1.35684E+03 2.41930E+04 6.41512E-09 2.89202E-09
 -1       981-4.98915E+05 8.78276E+01-2.59245E+03 1.22880E+04-3.83488E-09-3.12184E-09
 -1       982-4.99541E+05-3.71924E+02-5.43567E+03 2.41743E+04-3.99677E-09-9.13644E-10
 -1       983-4.98471E+05 2.32099E+02-1.03107E+04 1.23045E+04 3.45881E-09-7.84394E-09
 -1       984-5.05315E+05-7.82818E+03-2.39203E+04 2.40541E+04-1.16045E-08-6.10498E-09
 -1       985-4.93091E+05 1.43165E+03-4.06719E+04 1.24175E+04 7.79301E-09 1.87902E-09
 -3
    1PSTEP                         7           4           1          
  100CL  104 9.37500E-01         507                     0    4           1
 -4  DISP        4    1
 -5  D1          1    2    1    0
 -5  D2          1    2    2    0
 -5  D3          1    2    3    0
 -5  ALL         1    2    0    0    1ALL
 -1         1 1.67502E-04 0.00000E+00 0.00000E+00
 -1         2 1.67584E-04 0.00000E+00 0.00000E+00
 -1         3 1.19955E-04-6.96791E-29 1.32349E-23
 -1         5 8.94541E-05 1.80604E-27 6.61744E-24
 -1         8 1.34981E-04-1.47305E-06 0.00000E+00
 -1         9 1.11676E-04-5.65273E-06 0.00000E+00
 -1        10 1.11786E-04-2.84011E-06-6.61744E-24
 -1        11 8.82721E-05-7.10947E-06 0.00000E+00
 -1        12 8.82832E-05 1.10612E-06 0.00000E+00
 -1        15 9.90338E-05-1.61898E-06-4.13590E-25
 -1        16 8.20523E-05-5.89165E-06 0.00000E+00
 -1        17 8.30238E-05-6.31400E-06 0.00000E+00
 -1        18 8.28079E-05-3.01615E-07 0.00000E+00
 -1        19 8.47856E-05 2.20480E-06 0.00000E+00
 -1        20 8.54053E-05 2.72073E-05 0.00000E+00
 -1        21 8.42152E-05 5.91230E-05 0.00000E+00
 -1        23 2.79339E-05-1.26060E-04-8.07794E-28
 -1        24 2.74418E-05-7.90034E-06 0.00000E+00
 -1        25 7.85332E-05 2.61187E-08 0.00000E+00
 -1        26 8.02505E-05 2.99035E-06 0.00000E+00
 -1        27 7.80538E-05 2.58072E-05 0.00000E+00
 -1        28 7.63482E-05 5.80585E-05 0.00000E+00
 -1        31-1.68678E-05-8.13069E-06 0.00000E+00
 -1        32 0.00000E+00 0.00000E+00 0.00000E+00
 -1        33 7.48231E-05 4.02157E-06 0.00000E+00
 -1        34 7.24004E-05 2.57069E-05 0.00000E+00
 -1        35 6.93980E-05 5.75478E-05 0.00000E+00
 -1        36 1.67491E-04-2.46640E-19-6.61744E-24
 -1        37 1.67497E-04 4.60005E-20 1.65436E-24
 -1        38 1.67502E-04 3.24458E-19 0.00000E+00
 -1        39 1.67510E-04 2.67232E-19 0.00000E+00
 -1        40 1.67518E-04-2.68172E-19 0.00000E+00
 -1        41 1.67526E-04-8.91597E-19 2.58494E-26
 -1        42 1.67535E-04-1.59115E-18-2.06795E-25
 -1        43 1.67544E-04-1.63996E-18 0.00000E+00
 -1        44 1.67553E-04-1.43845E-18 1.03398E-25
 -1        45 1.67562E-04-1.25145E-18 0.00000E+00
 -1        46 1.67570E-04 8.33779E-20 0.00000E+00
 -1        47 1.67578E-04 1.30661E-18 2.06795E-25
 -1        48 1.67586E-04 1.74625E-18-1.65436E-24
 -1        49 1.67591E-04 1.90707E-18 1.65436E-24
 -1        50 1.67596E-04 1.14119E-18-6.61744E-24
 -1        51 1.65142E-04-2.41770E-07 0.00000E+00
 -1        52 1.61119E-04-4.77500E-07 0.00000E+00
 -1        53 1.55754E-04-7.15024E-07 0.00000E+00
 -1        54 1.49384E-04-9.57278E-07 6.61744E-24
 -1        55 1.42347E-04-1.20639E-06-1.65436E-24
 -1        56 1.66945E-04-7.13479E-06 0.00000E+00
 -1        57 1.70509E-04-2.59762E-05 0.00000E+00
 -1        58 1.77126E-04-5.34711E-05 1.05879E-22
 -1        59 1.85415E-04-8.58885E-05 0.00000E+00
 -1        60 1.93751E-04-1.18441E-04 1.05879E-22
 -1        61 2.00483E-04-1.46339E-04-5.29396E-23
 -1        62 2.04243E-04-1.65781E-04 0.00000E+00
 -1        63 2.03826E-04-1.73669E-04 5.29396E-23
 -1        64 1.98835E-04-1.69335E-04 0.00000E+00
 -1        65 1.89228E-04-1.53091E-04 0.00000E+00
 -1        66 1.75982E-04-1.27711E-04 0.00000E+00
 -1        67 1.60432E-04-9.66691E-05 0.00000E+00
 -1        68 1.44459E-04-6.45968E-05-1.05879E-22
 -1        69 1.30010E-04-3.61944E-05 0.00000E+00
 -1        70 1.18631E-04-1.54351E-05 0.00000E+00
 -1        86 1.63991E-04-8.89365E-07-2.64698E-23
 -1        87 1.53103E-04-1.84738E-06 0.00000E+00
 -1        88 1.39416E-04-2.83498E-06 0.00000E+00
 -1        89 1.27545E-04-3.80162E-06 0.00000E+00
 -1        90 1.18121E-04-4.74431E-06-2.64698E-23
 -1       121 1.19725E-04-4.71734E-07 1.32349E-23
 -1       122 1.19037E-04-9.43704E-07-6.61744E-24
 -1       123 1.17894E-04-1.41611E-06 0.00000E+00
 -1       124 1.16300E-04-1.88938E-06 6.61744E-24
 -1       125 1.14261E-04-2.36338E-06 1.32349E-23
 -1       191 8.94216E-05 1.84395E-07 0.00000E+00
 -1       192 8.93239E-05 3.68784E-07 3.30872E-24
 -1       193 8.91610E-05 5.53164E-07 6.61744E-24
 -1       194 8.89332E-05 7.37526E-07-3.30872E-24
 -1       195 8.86404E-05 9.21856E-07 6.61744E-24
 -1       251 1.33552E-04 2.24949E-06 0.00000E+00
 -1       252 1.32094E-04 1.33771E-06 2.64698E-23
 -1       253 1.30638E-04-9.95063E-07-5.29396E-23
 -1       254 1.29176E-04-1.43926E-06 0.00000E+00
 -1       255 1.27715E-04-1.32123E-06 0.00000E+00
 -1       256 1.26253E-04-2.00450E-06-2.64698E-23
 -1       257 1.24790E-04-2.88840E-06 5.29396E-23
 -1       258 1.23327E-04-3.35900E-06 0.00000E+00
 -1       259 1.21864E-04-3.81525E-06-5.29396E-23
 -1       260 1.20401E-04-4.65706E-06 2.64698E-23
 -1       261 1.18939E-04-5.33943E-06-5.29396E-23
 -1       262 1.17478E-04-5.32791E-06 0.00000E+00
 -1       263 1.16017E-04-5.78899E-06 0.00000E+00
 -1       264 1.14560E-04-7.85787E-06 0.00000E+00
 -1       265 1.13103E-04-8.72262E-06 0.00000E+00
 -1       266 1.28990E-04-1.51861E-06 0.00000E+00
 -1       267 1.22999E-04-1.54033E-06 0.00000E+00
 -1       268 1.17007E-04-1.56360E-06 0.00000E+00
 -1       269 1.11016E-04-1.58236E-06 0.00000E+00
 -1       270 1.05025E-04-1.60103E-06-8.27181E-25
 -1       271 1.30091E-04 2.73913E-06 5.29396E-23
 -1       272 1.25616E-04 5.55310E-06 0.00000E+00
 -1       273 1.21646E-04 7.04552E-06 1.05879E-22
 -1       274 1.18125E-04 7.30013E-06 0.00000E+00
 -1       275 1.15011E-04 6.46922E-06 1.05879E-22
 -1       276 1.12229E-04 4.74297E-06 0.00000E+00
 -1       277 1.09695E-04 2.35375E-06-1.05879E-22
 -1       278 1.07311E-04-4.39979E-07-5.29396E-23
 -1       279 1.04975E-04-3.36119E-06 0.00000E+00
 -1       280 1.02581E-04-6.12759E-06 5.29396E-23
 -1       281 1.00028E-04-8.46430E-06 0.00000E+00
 -1       282 9.72193E-05-1.01133E-05 0.00000E+00
 -1       283 9.40695E-05-1.08488E-05 1.05879E-22
 -1       284 9.05183E-05-1.04772E-05 0.00000E+00
 -1       285 8.64952E-05-8.86509E-06 5.29396E-23
 -1       301 1.06661E-04-5.70481E-06-1.32349E-23
 -1       302 1.01660E-04-5.73203E-06 0.00000E+00
 -1       303 9.66873E-05-5.75659E-06 0.00000E+00
 -1       304 9.17538E-05-5.78302E-06 0.00000E+00
 -1       305 8.68715E-05-5.81553E-06 1.32349E-23
 -1       306 1.08575E-04-2.09515E-06 0.00000E+00
 -1       307 1.06031E-04-1.37287E-07-2.64698E-23
 -1       308 1.04020E-04 4.13082E-07 0.00000E+00
 -1       309 1.02453E-04-2.39862E-07 0.00000E+00
 -1       310 1.01247E-04-1.85791E-06 5.29396E-23
 -1       311 1.00305E-04-4.18441E-06-2.64698E-23
 -1       312 9.95240E-05-6.94493E-06 5.29396E-23
 -1       313 9.87991E-05-9.85610E-06 2.64698E-23
 -1       314 9.80234E-05-1.26307E-05 0.00000E+00
 -1       315 9.70910E-05-1.49843E-05 0.00000E+00
 -1       316 9.58994E-05-1.66432E-05-5.29396E-23
 -1       317 9.43522E-05-1.73481E-05 2.64698E-23
 -1       318 9.23589E-05-1.68635E-05 5.29396E-23
 -1       319 8.98465E-05-1.49764E-05 2.64698E-23
 -1       320 8.67351E-05-1.15140E-05 0.00000E+00
 -1       336 1.08723E-04-3.41274E-06 0.00000E+00
 -1       337 1.04927E-04-3.98977E-06 0.00000E+00
 -1       338 1.00424E-04-4.56932E-06 0.00000E+00
 -1       339 9.52476E-05-5.15070E-06 0.00000E+00
 -1       340 8.94336E-05-5.73578E-06 1.32349E-23
 -1       356 8.82719E-05-6.57371E-06 0.00000E+00
 -1       357 8.82718E-05-6.02911E-06 2.01948E-28
 -1       358 8.82716E-05-5.47820E-06 0.00000E+00
 -1       359 8.82715E-05-4.92351E-06 0.00000E+00
 -1       360 8.82714E-05-4.36757E-06 0.00000E+00
 -1       361 8.82712E-05-3.81290E-06 0.00000E+00
 -1       362 8.82711E-05-3.26205E-06 1.29247E-26
 -1       363 8.82710E-05-2.71755E-06 0.00000E+00
 -1       364 8.82709E-05-2.18192E-06 0.00000E+00
 -1       365 8.82708E-05-1.65769E-06-5.16988E-26
 -1       366 8.82708E-05-1.14740E-06 0.00000E+00
 -1       367 8.82711E-05-6.53582E-07-2.06795E-25
 -1       368 8.82715E-05-1.78765E-07 0.00000E+00
 -1       369 8.82732E-05 2.74505E-07 0.00000E+00
 -1       370 8.82745E-05 7.03659E-07-3.30872E-24
 -1       376 8.80743E-05-6.58255E-06 0.00000E+00
 -1       377 8.78799E-05-6.06435E-06-5.04871E-29
 -1       378 8.76874E-05-5.55141E-06-2.01948E-28
 -1       379 8.74956E-05-5.04031E-06-2.01948E-28
 -1       380 8.73031E-05-4.52760E-06 0.00000E+00
 -1       381 8.71088E-05-4.00984E-06 8.07794E-28
 -1       382 8.69114E-05-3.48360E-06 0.00000E+00
 -1       383 8.67094E-05-2.94545E-06 6.46235E-27
 -1       384 8.65017E-05-2.39193E-06 2.58494E-26
 -1       385 8.62869E-05-1.81961E-06-2.58494E-26
 -1       386 8.60639E-05-1.22505E-06 1.03398E-25
 -1       387 8.58313E-05-6.04755E-07 0.00000E+00
 -1       388 8.55878E-05 4.46549E-08-4.13590E-25
 -1       389 8.53330E-05 7.26955E-07-4.13590E-25
 -1       390 8.50643E-05 1.44518E-06 0.00000E+00
 -1       406 8.78623E-05 1.29034E-06 6.61744E-24
 -1       407 8.73771E-05 1.47449E-06-3.30872E-24
 -1       408 8.68268E-05 1.65849E-06 6.61744E-24
 -1       409 8.62113E-05 1.84207E-06 0.00000E+00
 -1       410 8.55308E-05 2.02482E-06-6.61744E-24
 -1       501 8.20631E-05-2.26523E-06 0.00000E+00
 -1       502 8.21232E-05-8.97150E-07-3.30872E-24
 -1       503 8.21816E-05-1.00901E-06-1.65436E-24
 -1       504 8.22480E-05-1.82836E-06 5.16988E-26
 -1       505 8.23142E-05-3.10575E-06 0.00000E+00
 -1       506 8.23818E-05-4.59321E-06 8.27181E-25
 -1       507 8.24494E-05-6.20584E-06 0.00000E+00
 -1       508 8.25172E-05-7.85917E-06 0.00000E+00
 -1       509 8.25852E-05-9.50048E-06 1.65436E-24
 -1       510 8.26532E-05-1.10770E-05 0.00000E+00
 -1       511 8.27213E-05-1.24854E-05 1.65436E-24
 -1       512 8.27892E-05-1.36216E-05-8.27181E-25
 -1       513 8.28575E-05-1.41691E-05 0.00000E+00
 -1       514 8.29229E-05-1.38095E-05-4.13590E-25
 -1       515 8.29865E-05-1.15307E-05 0.00000E+00
 -1       521 7.76022E-05-3.01415E-06 0.00000E+00
 -1       522 7.36233E-05-1.63891E-06-5.29396E-23
 -1       523 7.01556E-05-1.60956E-06 0.00000E+00
 -1       524 6.71133E-05-2.75299E-06 5.29396E-23
 -1       525 6.44202E-05-4.83183E-06 1.05879E-22
 -1       526 6.19728E-05-7.57521E-06 0.00000E+00
 -1       527 5.96600E-05-1.06804E-05-1.05879E-22
 -1       528 5.73636E-05-1.38306E-05 5.29396E-23
 -1       529 5.49648E-05-1.67067E-05 0.00000E+00
 -1       530 5.23492E-05-1.90009E-05 0.00000E+00
 -1       531 4.94110E-05-2.04324E-05 0.00000E+00
 -1       532 4.60594E-05-2.07551E-05-5.29396E-23
 -1       533 4.22183E-05-1.97755E-05 0.00000E+00
 -1       534 3.78452E-05-1.73483E-05 0.00000E+00
 -1       535 3.28923E-05-1.34049E-05 0.00000E+00
 -1       536 8.29816E-05-3.89842E-07 0.00000E+00
 -1       537 8.29594E-05 4.10972E-06-1.65436E-24
 -1       538 8.29416E-05 7.33056E-06 0.00000E+00
 -1       539 8.29288E-05 9.41935E-06 0.00000E+00
 -1       540 8.29178E-05 1.05228E-05 0.00000E+00
 -1       541 8.29078E-05 1.07877E-05 0.00000E+00
 -1       542 8.28979E-05 1.03612E-05-8.27181E-25
 -1       543 8.28877E-05 9.39028E-06 0.00000E+00
 -1       544 8.28771E-05 8.02228E-06 4.13590E-25
 -1       545 8.28662E-05 6.40439E-06-2.06795E-25
 -1       546 8.28552E-05 4.68393E-06-2.06795E-25
 -1       547 8.28443E-05 3.00823E-06 5.16988E-26
 -1       548 8.28337E-05 1.52459E-06 0.00000E+00
 -1       549 8.28240E-05 3.80273E-07-4.13590E-25
 -1       550 8.28146E-05-2.77432E-07 0.00000E+00
 -1       551 7.47933E-05-6.56434E-06-6.61744E-24
 -1       552 6.55561E-05-6.81783E-06 2.48154E-24
 -1       553 5.57539E-05-7.07629E-06 0.00000E+00
 -1       554 4.58357E-05-7.33911E-06 6.61744E-24
 -1       555 3.62505E-05-7.60490E-06 0.00000E+00
 -1       556 8.07216E-05-6.07868E-07 0.00000E+00
 -1       557 7.89316E-05 3.78166E-06 0.00000E+00
 -1       558 7.75969E-05 6.97552E-06 0.00000E+00
 -1       559 7.66658E-05 9.10546E-06 0.00000E+00
 -1       560 7.60867E-05 1.03032E-05 0.00000E+00
 -1       561 7.58087E-05 1.07013E-05 6.61744E-24
 -1       562 7.57811E-05 1.04328E-05 0.00000E+00
 -1       563 7.59535E-05 9.63097E-06 0.00000E+00
 -1       564 7.62757E-05 8.42904E-06 6.61744E-24
 -1       565 7.66976E-05 6.96049E-06 0.00000E+00
 -1       566 7.71692E-05 5.35890E-06 3.30872E-24
 -1       567 7.76407E-05 3.75786E-06 8.27181E-25
 -1       568 7.80623E-05 2.29093E-06 8.27181E-25
 -1       569 7.83841E-05 1.09153E-06 1.65436E-24
 -1       570 7.85564E-05 2.92997E-07-3.30872E-24
 -1       571 8.29273E-05-7.49285E-08-3.30872E-24
 -1       572 8.30498E-05 7.06103E-08 1.24077E-24
 -1       573 8.31732E-05 1.49685E-07 1.65436E-24
 -1       574 8.32971E-05 1.77731E-07-8.27181E-25
 -1       575 8.34211E-05 1.70250E-07 0.00000E+00
 -1       576 8.35452E-05 1.42840E-07 0.00000E+00
 -1       577 8.36693E-05 1.11109E-07 0.00000E+00
 -1       578 8.37935E-05 9.06770E-08 0.00000E+00
 -1       579 8.39176E-05 9.71652E-08 6.61744E-24
 -1       580 8.40418E-05 1.46196E-07 0.00000E+00
 -1       581 8.41659E-05 2.53392E-07 6.61744E-24
 -1       582 8.42900E-05 4.34361E-07 0.00000E+00
 -1       583 8.44141E-05 7.04698E-07 0.00000E+00
 -1       584 8.45381E-05 1.07984E-06 6.61744E-24
 -1       585 8.46620E-05 1.57515E-06 0.00000E+00
 -1       586 8.21708E-05-2.45692E-07 0.00000E+00
 -1       587 8.14318E-05-1.89692E-07 0.00000E+00
 -1       588 8.06442E-05-1.33838E-07 0.00000E+00
 -1       589 7.98625E-05-7.84870E-08-4.13590E-25
 -1       590 7.91411E-05-2.41701E-08 0.00000E+00
 -1       591 8.26305E-05-3.08232E-08 0.00000E+00
 -1       592 8.24697E-05 1.78576E-07 8.27181E-25
 -1       593 8.23265E-05 3.38989E-07 0.00000E+00
 -1       594 8.21968E-05 4.61461E-07 0.00000E+00
 -1       595 8.20770E-05 5.57110E-07 0.00000E+00
 -1       596 8.19631E-05 6.36962E-07-8.27181E-25
 -1       597 8.18508E-05 7.12036E-07 0.00000E+00
 -1       598 8.17363E-05 7.93341E-07 0.00000E+00
 -1       599 8.16152E-05 8.91884E-07 0.00000E+00
 -1       600 8.14836E-05 1.01867E-06-8.27181E-25
 -1       601 8.13373E-05 1.18469E-06 0.00000E+00
 -1       602 8.11722E-05 1.40097E-06 4.13590E-25
 -1       603 8.09844E-05 1.67851E-06-1.65436E-24
 -1       604 8.07700E-05 2.02839E-06 2.06795E-25
 -1       605 8.05251E-05 2.46163E-06 4.13590E-25
 -1       606 8.48299E-05 3.08656E-06 0.00000E+00
 -1       607 8.48705E-05 4.09973E-06 0.00000E+00
 -1       608 8.49102E-05 5.23653E-06 0.00000E+00
 -1       609 8.49492E-05 6.48819E-06 0.00000E+00
 -1       610 8.49880E-05 7.84586E-06 0.00000E+00
 -1       611 8.50265E-05 9.30058E-06-1.65436E-24
 -1       612 8.50649E-05 1.08433E-05 3.30872E-24
 -1       613 8.51032E-05 1.24652E-05 0.00000E+00
 -1       614 8.51414E-05 1.41571E-05 0.00000E+00
 -1       615 8.51794E-05 1.59101E-05-1.65436E-24
 -1       616 8.52174E-05 1.77152E-05 0.00000E+00
 -1       617 8.52552E-05 1.95633E-05 0.00000E+00
 -1       618 8.52930E-05 2.14456E-05 0.00000E+00
 -1       619 8.53307E-05 2.33531E-05 0.00000E+00
 -1       620 8.53683E-05 2.52766E-05 0.00000E+00
 -1       621 8.39839E-05 2.33638E-06 0.00000E+00
 -1       622 8.31857E-05 2.46840E-06 1.65436E-24
 -1       623 8.24020E-05 2.60037E-06-3.30872E-24
 -1       624 8.16442E-05 2.73201E-06 0.00000E+00
 -1       625 8.09234E-05 2.86306E-06-1.65436E-24
 -1       626 8.45652E-05 3.14944E-06 0.00000E+00
 -1       627 8.42937E-05 4.22960E-06 6.61744E-24
 -1       628 8.39760E-05 5.43242E-06 0.00000E+00
 -1       629 8.36174E-05 6.74389E-06 6.61744E-24
 -1       630 8.32232E-05 8.14999E-06 0.00000E+00
 -1       631 8.27988E-05 9.63652E-06-6.61744E-24
 -1       632 8.23493E-05 1.11893E-05 6.61744E-24
 -1       633 8.18803E-05 1.27942E-05 0.00000E+00
 -1       634 8.13969E-05 1.44370E-05 0.00000E+00
 -1       635 8.09046E-05 1.61036E-05 1.65436E-24
 -1       636 8.04087E-05 1.77797E-05 0.00000E+00
 -1       637 7.99144E-05 1.94513E-05-1.65436E-24
 -1       638 7.94271E-05 2.11040E-05 0.00000E+00
 -1       639 7.89517E-05 2.27238E-05 0.00000E+00
 -1       640 7.84931E-05 2.42964E-05-2.48154E-24
 -1       656 8.37396E-05 2.69802E-05-3.30872E-24
 -1       657 8.24311E-05 2.67429E-05-3.30872E-24
 -1       658 8.13444E-05 2.65065E-05 0.00000E+00
 -1       659 8.03435E-05 2.62702E-05 3.30872E-24
 -1       660 7.92920E-05 2.60333E-05 3.30872E-24
 -1       661 8.48148E-05 2.91873E-05 0.00000E+00
 -1       662 8.42087E-05 3.12232E-05 1.65436E-24
 -1       663 8.35871E-05 3.33001E-05 3.30872E-24
 -1       664 8.29557E-05 3.54051E-05 1.65436E-24
 -1       665 8.23187E-05 3.75250E-05 3.30872E-24
 -1       666 8.16812E-05 3.96466E-05-1.65436E-24
 -1       667 8.10480E-05 4.17568E-05 0.00000E+00
 -1       668 8.04241E-05 4.38426E-05 1.65436E-24
 -1       669 7.98143E-05 4.58909E-05 0.00000E+00
 -1       670 7.92236E-05 4.78884E-05 1.65436E-24
 -1       671 7.86570E-05 4.98220E-05 3.30872E-24
 -1       672 7.81193E-05 5.16784E-05 0.00000E+00
 -1       673 7.76155E-05 5.34441E-05 3.30872E-24
 -1       674 7.71498E-05 5.51054E-05 0.00000E+00
 -1       675 7.67285E-05 5.66491E-05 1.65436E-24
 -1       676 8.28924E-05 5.89442E-05 0.00000E+00
 -1       677 8.15715E-05 5.87655E-05-3.30872E-24
 -1       678 8.02547E-05 5.85869E-05 6.61744E-24
 -1       679 7.89438E-05 5.84091E-05 0.00000E+00
 -1       680 7.76411E-05 5.82312E-05-3.30872E-24
 -1       716 2.79077E-05-1.18675E-04 0.00000E+00
 -1       717 2.78815E-05-1.11290E-04 0.00000E+00
 -1       718 2.78554E-05-1.03905E-04-3.23117E-27
 -1       719 2.78292E-05-9.65200E-05 3.23117E-27
 -1       720 2.78030E-05-8.91350E-05 0.00000E+00
 -1       721 2.77768E-05-8.17499E-05 0.00000E+00
 -1       722 2.77506E-05-7.43650E-05-5.16988E-26
 -1       723 2.77243E-05-6.69799E-05 0.00000E+00
 -1       724 2.76979E-05-5.95949E-05 0.00000E+00
 -1       725 2.76712E-05-5.22099E-05 0.00000E+00
 -1       726 2.76443E-05-4.48249E-05 0.00000E+00
 -1       727 2.76158E-05-3.74399E-05 8.27181E-25
 -1       728 2.75871E-05-3.00549E-05 3.30872E-24
 -1       729 2.75506E-05-2.26700E-05 0.00000E+00
 -1       730 2.75167E-05-1.52850E-05 0.00000E+00
 -1       766 2.00571E-05-7.97531E-06 0.00000E+00
 -1       767 1.26721E-05-8.00922E-06 0.00000E+00
 -1       768 5.28718E-06-8.04580E-06 0.00000E+00
 -1       769-2.09785E-06-8.07461E-06 0.00000E+00
 -1       770-9.48280E-06-8.10327E-06-8.27181E-25
 -1       771 2.36201E-05-1.79845E-06 0.00000E+00
 -1       772 2.02359E-05 3.11519E-06 0.00000E+00
 -1       773 1.72685E-05 6.92753E-06-5.29396E-23
 -1       774 1.46825E-05 9.73035E-06-2.64698E-23
 -1       775 1.24428E-05 1.16168E-05-5.29396E-23
 -1       776 1.05127E-05 1.26823E-05 0.00000E+00
 -1       777 8.85519E-06 1.30235E-05 5.29396E-23
 -1       778 7.43296E-06 1.27387E-05 7.94093E-23
 -1       779 6.20845E-06 1.19270E-05-5.29396E-23
 -1       780 5.14377E-06 1.06889E-05 0.00000E+00
 -1       781 4.20101E-06 9.12522E-06 0.00000E+00
 -1       782 3.34215E-06 7.33790E-06-2.64698E-23
 -1       783 2.52914E-06 5.42899E-06-5.29396E-23
 -1       784 1.72460E-06 3.50107E-06 0.00000E+00
 -1       785 8.90726E-07 1.65662E-06 0.00000E+00
 -1       786 7.86342E-05 2.97568E-07 0.00000E+00
 -1       787 7.87413E-05 4.95974E-07 0.00000E+00
 -1       788 7.88482E-05 6.34658E-07 0.00000E+00
 -1       789 7.89561E-05 7.26875E-07-1.65436E-24
 -1       790 7.90641E-05 7.85788E-07-3.30872E-24
 -1       791 7.91724E-05 8.24514E-07-1.65436E-24
 -1       792 7.92806E-05 8.56129E-07 3.30872E-24
 -1       793 7.93889E-05 8.93703E-07-1.65436E-24
 -1       794 7.94972E-05 9.50312E-07 3.30872E-24
 -1       795 7.96055E-05 1.03906E-06 0.00000E+00
 -1       796 7.97137E-05 1.17312E-06 0.00000E+00
 -1       797 7.98219E-05 1.36573E-06-1.65436E-24
 -1       798 7.99300E-05 1.63023E-06 3.30872E-24
 -1       799 8.00377E-05 1.98007E-06 0.00000E+00
 -1       800 8.01454E-05 2.42887E-06 3.30872E-24
 -1       801 7.22686E-05 1.01090E-07 0.00000E+00
 -1       802 5.74238E-05 1.00526E-07 0.00000E+00
 -1       803 3.83880E-05 3.79969E-08-1.65436E-24
 -1       804 1.95473E-05-2.83071E-08 0.00000E+00
 -1       805 5.28743E-06-2.80392E-08 2.64698E-23
 -1       806 7.83185E-05 2.43836E-07 3.30872E-24
 -1       807 7.81134E-05 4.24774E-07 0.00000E+00
 -1       808 7.79176E-05 5.78234E-07 3.30872E-24
 -1       809 7.77284E-05 7.12962E-07 0.00000E+00
 -1       810 7.75428E-05 8.37672E-07 3.30872E-24
 -1       811 7.73576E-05 9.61031E-07 0.00000E+00
 -1       812 7.71697E-05 1.09170E-06 0.00000E+00
 -1       813 7.69757E-05 1.23832E-06-1.65436E-24
 -1       814 7.67725E-05 1.40954E-06 0.00000E+00
 -1       815 7.65568E-05 1.61401E-06 8.27181E-25
 -1       816 7.63254E-05 1.86036E-06-1.65436E-24
 -1       817 7.60751E-05 2.15723E-06 8.27181E-25
 -1       818 7.58027E-05 2.51325E-06 0.00000E+00
 -1       819 7.55050E-05 2.93699E-06 8.27181E-25
 -1       820 7.51790E-05 3.43703E-06-3.30872E-24
 -1       821 8.01214E-05 3.71212E-06-1.65436E-24
 -1       822 7.99846E-05 4.61795E-06 1.65436E-24
 -1       823 7.98479E-05 5.68941E-06 0.00000E+00
 -1       824 7.97097E-05 6.90762E-06 0.00000E+00
 -1       825 7.95713E-05 8.25343E-06-3.30872E-24
 -1       826 7.94325E-05 9.70740E-06 0.00000E+00
 -1       827 7.92935E-05 1.12498E-05 0.00000E+00
 -1       828 7.91544E-05 1.28609E-05 1.65436E-24
 -1       829 7.90152E-05 1.45206E-05 3.30872E-24
 -1       830 7.88760E-05 1.62087E-05 0.00000E+00
 -1       831 7.87368E-05 1.79052E-05 3.30872E-24
 -1       832 7.85979E-05 1.95898E-05-1.65436E-24
 -1       833 7.84591E-05 2.12423E-05 3.30872E-24
 -1       834 7.83216E-05 2.28427E-05 0.00000E+00
 -1       835 7.81840E-05 2.43709E-05 1.65436E-24
 -1       836 7.94917E-05 3.16033E-06-3.30872E-24
 -1       837 7.85854E-05 3.33553E-06 0.00000E+00
 -1       838 7.75983E-05 3.51050E-06 3.30872E-24
 -1       839 7.65975E-05 3.68472E-06 0.00000E+00
 -1       840 7.56502E-05 3.85874E-06 8.27181E-25
 -1       841 7.99995E-05 3.77602E-06 0.00000E+00
 -1       842 7.96370E-05 4.85727E-06 0.00000E+00
 -1       843 7.91969E-05 6.14501E-06 0.00000E+00
 -1       844 7.87124E-05 7.55031E-06 0.00000E+00
 -1       845 7.81972E-05 9.03736E-06 8.27181E-25
 -1       846 7.76646E-05 1.05704E-05 0.00000E+00
 -1       847 7.71203E-05 1.21343E-05 8.27181E-25
 -1       848 7.65701E-05 1.37140E-05 4.13590E-25
 -1       849 7.60170E-05 1.53015E-05 0.00000E+00
 -1       850 7.54641E-05 1.68885E-05 0.00000E+00
 -1       851 7.49143E-05 1.84670E-05 0.00000E+00
 -1       852 7.43706E-05 2.00287E-05 0.00000E+00
 -1       853 7.38390E-05 2.15581E-05-8.27181E-25
 -1       854 7.33244E-05 2.30392E-05 0.00000E+00
 -1       855 7.28423E-05 2.44353E-05 8.27181E-25
 -1       856 7.79545E-05 2.73164E-05-8.27181E-25
 -1       857 7.78488E-05 2.90398E-05-8.27181E-25
 -1       858 7.77428E-05 3.09463E-05 3.30872E-24
 -1       859 7.76357E-05 3.30047E-05-1.65436E-24
 -1       860 7.75282E-05 3.51833E-05 0.00000E+00
 -1       861 7.74203E-05 3.74508E-05 1.65436E-24
 -1       862 7.73123E-05 3.97755E-05-3.30872E-24
 -1       863 7.72041E-05 4.21258E-05-1.65436E-24
 -1       864 7.70960E-05 4.44701E-05 3.30872E-24
 -1       865 7.69879E-05 4.67766E-05 1.65436E-24
 -1       866 7.68801E-05 4.90139E-05-3.30872E-24
 -1       867 7.67724E-05 5.11502E-05-1.65436E-24
 -1       868 7.66651E-05 5.31542E-05 0.00000E+00
 -1       869 7.65585E-05 5.49944E-05 0.00000E+00
 -1       870 7.64521E-05 5.66395E-05 0.00000E+00
 -1       871 7.69197E-05 2.57939E-05 0.00000E+00
 -1       872 7.59540E-05 2.57784E-05 0.00000E+00
 -1       873 7.50884E-05 2.57624E-05 8.27181E-25
 -1       874 7.42537E-05 2.57458E-05 4.13590E-25
 -1       875 7.33806E-05 2.57284E-05 0.00000E+00
 -1       876 7.76771E-05 2.73369E-05 0.00000E+00
 -1       877 7.72560E-05 2.90039E-05-3.30872E-24
 -1       878 7.67902E-05 3.07898E-05-6.61744E-24
 -1       879 7.62864E-05 3.26788E-05 0.00000E+00
 -1       880 7.57501E-05 3.46545E-05 0.00000E+00
 -1       881 7.51873E-05 3.67010E-05-3.30872E-24
 -1       882 7.46039E-05 3.88021E-05 0.00000E+00
 -1       883 7.40058E-05 4.09421E-05 0.00000E+00
 -1       884 7.33991E-05 4.31050E-05 0.00000E+00
 -1       885 7.27897E-05 4.52750E-05 3.30872E-24
 -1       886 7.21836E-05 4.74361E-05 0.00000E+00
 -1       887 7.15866E-05 4.95725E-05 3.30872E-24
 -1       888 7.10047E-05 5.16682E-05 3.30872E-24
 -1       889 7.04430E-05 5.37070E-05-1.65436E-24
 -1       890 6.99084E-05 5.56733E-05 1.65436E-24
 -1       891 7.52093E-05 5.79740E-05 0.00000E+00
 -1       892 7.42024E-05 5.78883E-05 0.00000E+00
 -1       893 7.32228E-05 5.78027E-05 0.00000E+00
 -1       894 7.21655E-05 5.77172E-05 8.27181E-25
 -1       895 7.09254E-05 5.76315E-05-8.27181E-25
 -1       956 7.46754E-05 4.84767E-06-1.65436E-24
 -1       957 7.45248E-05 5.82278E-06-8.27181E-25
 -1       958 7.43736E-05 6.93096E-06 1.65436E-24
 -1       959 7.42220E-05 8.15530E-06 0.00000E+00
 -1       960 7.40701E-05 9.47887E-06 3.30872E-24
 -1       961 7.39181E-05 1.08846E-05-1.65436E-24
 -1       962 7.37659E-05 1.23555E-05 0.00000E+00
 -1       963 7.36137E-05 1.38744E-05 0.00000E+00
 -1       964 7.34614E-05 1.54243E-05 3.30872E-24
 -1       965 7.33091E-05 1.69880E-05 0.00000E+00
 -1       966 7.31569E-05 1.85486E-05 0.00000E+00
 -1       967 7.30047E-05 2.00889E-05 3.30872E-24
 -1       968 7.28526E-05 2.15918E-05 6.61744E-24
 -1       969 7.27009E-05 2.30403E-05 0.00000E+00
 -1       970 7.25496E-05 2.44175E-05 0.00000E+00
 -1       971 7.22171E-05 2.70262E-05 0.00000E+00
 -1       972 7.20299E-05 2.85435E-05 0.00000E+00
 -1       973 7.18423E-05 3.02362E-05 0.00000E+00
 -1       974 7.16540E-05 3.20810E-05 3.30872E-24
 -1       975 7.14654E-05 3.40547E-05 6.61744E-24
 -1       976 7.12764E-05 3.61338E-05 3.30872E-24
 -1       977 7.10873E-05 3.82949E-05 0.00000E+00
 -1       978 7.08981E-05 4.05145E-05-3.30872E-24
 -1       979 7.07088E-05 4.27689E-05 6.61744E-24
 -1       980 7.05195E-05 4.50347E-05-3.30872E-24
 -1       981 7.03303E-05 4.72882E-05 6.61744E-24
 -1       982 7.01413E-05 4.95058E-05 3.30872E-24
 -1       983 6.99527E-05 5.16641E-05 0.00000E+00
 -1       984 6.97650E-05 5.37394E-05 0.00000E+00
 -1       985 6.95779E-05 5.57084E-05 0.00000E+00
 -3
    1PSTEP                         8           4           1          
  100CL  104 9.37500E-01         507                     0    4           1
 -4  STRESS      6    1
 -5  SXX         1    4    1    1
 -5  SYY         1    4    2    2
 -5  SZZ         1    4    3    3
 -5  SXY         1    4    1    2
 -5  SYZ         1    4    2    3
 -5  SZX         1    4    3    1
 -1         1-2.40803E+06-1.03688E+06-4.68660E+05-1.40866E+06 3.88051E-11-2.09548E-09
 -1         2-1.28732E+05-1.12003E+06 2.25241E+03 3.24874E+04-4.69299E-10-1.12698E-08
 -1         3-7.86213E+00-1.34752E+06 7.62591E+02-5.93845E+02-1.76406E-10-2.57387E-09
 -1         5-2.97280E+01 5.27797E+05 1.71376E+01-4.12877E+00 1.78446E-10 9.87893E-09
 -1         8-2.85222E+06-9.68140E+05-4.27997E+05-1.02685E+06-5.38421E-10 1.36642E-08
 -1         9-3.19755E+06-1.35617E+06-5.75025E+05-6.42788E+05-7.27596E-09 1.45519E-09
 -1        10-4.92255E+03-1.49014E+06-5.76868E+03-5.01968E+03-2.15164E-09-1.26153E-08
 -1        11 2.93126E+00-5.51000E+00-2.02454E+00 8.35092E-01 2.32804E-09 5.75864E-09
 -1        12-5.68184E+03 3.06647E+05-4.47310E+04 2.37921E+01 8.29969E-09 8.98577E-09
 -1        15 3.68764E+03 1.99422E+03 1.14448E+04 9.74029E+00 7.57154E-11 2.29239E-08
 -1        16-3.66918E+06-9.99720E+05-3.55401E+05-1.23378E+06-4.51041E-09 2.20098E-09
 -1        17-6.67481E+05-5.49147E+05-6.21924E+04-4.97368E+05 3.63919E-09 5.06407E-09
 -1        18 3.61394E+04 1.12516E+04-1.99846E+04-1.27079E+05 8.62201E-10-7.22048E-09
 -1        19 1.25006E+05 1.43000E+05-1.53989E+04 1.75687E+04 3.40727E-09-3.65132E-09
 -1        20 9.37956E+04-1.90217E+05-3.54569E+04 7.45487E+04 3.59917E-09-3.85626E-10
 -1        21-1.93422E+02-5.09659E+05-2.23793E+03-6.40312E+02 3.49633E-09-8.49018E-09
 -1        23 9.26278E-01 4.41345E-01 1.69679E+01 3.43781E-03 8.09262E-09 6.08826E-09
 -1        24-1.94120E+06-5.92887E+05 7.23993E+04-1.00590E+06-2.09548E-09-2.72412E-09
 -1        25 2.86103E+04 6.10628E+04 3.38529E+04-5.46356E+05 8.95488E-10-2.65427E-09
 -1        26-4.50052E+03 1.16624E+05-4.04343E+03-2.14007E+04-9.48413E-10 7.79816E-10
 -1        27-4.00120E+04-1.14087E+05-5.21306E+04 9.74481E+04 7.23624E-09-2.10396E-09
 -1        28-1.04119E+04-1.55369E+05-2.28392E+03 5.45065E+04 1.51322E-08 5.63505E-09
 -1        31 6.34750E+03 3.43269E+03 1.96999E+04 2.06664E+01 1.17835E-08 3.34463E-09
 -1        32-1.17651E+06-1.17777E+05 3.41467E+05-1.68358E+06-1.14305E-08 1.58298E-09
 -1        33-1.74792E+05 1.30259E+05 4.11148E+04-5.19442E+04-3.24311E-10-1.68681E-09
 -1        34-1.97316E+05-6.02239E+03 1.94271E+04 7.09537E+04 3.83456E-09-1.65904E-08
 -1        35-3.79345E+04-5.17994E+04-2.85312E+03 8.74737E+04 7.77277E-10-3.55431E-09
 -1        36 4.76611E+03-4.55041E+04 1.04973E+05-1.77448E-07-1.23302E-09 8.63656E-09
 -1        37 5.03552E+04 5.26734E+04 7.43035E+04 1.66603E-07-8.03558E-10 4.82396E-09
 -1        38 2.23034E+04-7.15535E+03 2.71778E+04 3.38629E-07-3.17144E-10-1.11104E-08
 -1        39 2.99016E+04 8.28141E+03 1.71263E+04 1.44118E-06-1.74224E-10 1.96724E-09
 -1        40 2.52042E+04-1.12436E+03 7.03082E+03-1.58409E-07 1.15646E-10-4.19641E-09
 -1        41 2.65259E+04 1.32765E+03 4.27085E+03-4.31105E-07-2.43113E-10 7.65499E-09
 -1        42 2.56784E+04-2.03092E+02 2.21714E+03-1.35744E-06 1.73259E-11 4.98125E-09
 -1        43 2.60589E+04 4.18638E+02 2.00649E+03-6.32532E-07 2.89641E-10 3.30764E-09
 -1        44 2.56712E+04-2.15505E+02 2.32720E+03-8.08106E-07-8.71653E-11-1.65217E-08
 -1        45 2.65829E+04 1.43411E+03 4.58972E+03-1.24709E-06 1.24687E-10 1.52368E-08
 -1        46 2.51544E+04-1.21840E+03 7.60404E+03 2.22724E-07 1.27509E-11-4.83715E-09
 -1        47 3.02463E+04 8.97833E+03 1.85594E+04 7.21269E-07 8.65728E-10 3.60706E-09
 -1        48 2.20088E+04-7.75810E+03 2.94634E+04 4.00665E-08-4.69872E-11-8.48013E-09
 -1        49 5.24238E+04 5.71118E+04 8.05618E+04 1.04609E-06-2.12011E-10-3.00133E-10
 -1        50 2.99521E+03-4.93375E+04 1.13822E+05 1.21451E-06 5.85497E-09 7.28323E-09
 -1        51 2.97437E+04-5.93748E+05 5.58138E+04-1.63804E+06-9.02219E-10 1.25146E-09
 -1        52 2.01679E+04-5.97865E+05 3.86761E+04-1.82606E+06 1.20053E-09-2.32831E-09
 -1        53 1.88323E+04-6.20932E+05 3.63253E+04-1.63321E+06 1.51340E-09-4.58385E-09
 -1        54 4.53474E+04-6.20816E+05 6.24669E+04-1.83093E+06-1.10595E-09-6.97764E-09
 -1        55 9.16429E+04-6.44187E+05 1.16404E+05-1.63197E+06-1.45519E-10 1.62763E-08
 -1        56-7.30100E+06-7.16993E+05-6.25054E+05-2.67965E+06-1.01136E-09-3.75439E-09
 -1        57-7.07078E+06-1.61195E+06-3.98819E+05-3.06660E+06-4.23984E-09 5.82077E-10
 -1        58-7.50657E+06-7.73613E+05-1.44009E+05-2.47567E+06 2.16005E-10 7.45058E-09
 -1        59-6.87251E+06-1.50418E+06-8.26210E+04-3.29848E+06 5.77347E-09-5.78439E-10
 -1        60-7.52515E+06-8.00555E+05-3.43831E+04-2.46821E+06 3.89264E-10-1.16142E-09
 -1        61-6.90808E+06-1.35104E+06-6.50969E+03-3.12448E+06 1.07866E-09 4.03543E-09
 -1        62-7.44409E+06-9.45140E+05-2.61719E+04-2.63126E+06 8.60018E-09-1.32713E-08
 -1        63-7.14588E+06-1.03567E+06 1.53275E+04-2.72118E+06-6.51016E-09-5.99175E-09
 -1        64-7.25873E+06-1.13602E+06-2.72681E+04-2.84948E+06 8.40737E-09 8.81482E-09
 -1        65-7.54624E+06-6.99420E+05-3.34199E+03-2.37207E+06 1.83172E-09 1.25474E-08
 -1        66-7.06799E+06-1.26411E+06-3.35987E+04-2.99741E+06 7.56154E-09-9.24410E-09
 -1        67-7.80764E+06-5.63373E+05-7.61235E+04-2.22737E+06 2.40775E-08-2.97105E-08
 -1        68-7.02759E+06-1.25166E+06-1.32020E+05-3.01792E+06 1.06265E-08-1.41154E-09
 -1        69-7.77374E+06-8.88911E+05-3.69981E+05-2.27701E+06-5.81713E-09-2.93949E-09
 -1        70-7.08293E+06-9.57093E+05-5.78293E+05-2.93008E+06-6.00994E-09 1.65892E-09
 -1        86 4.85897E+04-2.58173E+06-1.25899E+05 6.20769E+03 1.03682E-08-3.58307E-09
 -1        87-6.27011E+04-2.58120E+06-8.84729E+04 3.06932E+04-2.69938E-09-1.38170E-08
 -1        88 1.32449E+04-2.57336E+06-4.97231E+04 4.04746E+04 1.40844E-08-2.80384E-08
 -1        89-4.86682E+04-2.59576E+06-7.20052E+04 2.62751E+04-2.52703E-09-2.85115E-09
 -1        90 3.45993E+04-2.56725E+06-8.46990E+04 1.06278E+04 8.50923E-09 2.92118E-10
 -1       121-1.37452E+02-1.34805E+06 8.36927E+02 2.96789E+02-3.34154E-10-5.70617E-09
 -1       122 2.81342E+02-1.34734E+06 1.67990E+03-1.18246E+03-5.22277E-10-5.64751E-09
 -1       123-3.69685E+02-1.34824E+06 2.81055E+03 8.84953E+02-8.16954E-10-2.57933E-09
 -1       124 3.49067E+03-1.34548E+06 7.04775E+03-2.43317E+03-7.35724E-10 7.67750E-09
 -1       125-2.69942E+03-1.34994E+06 1.08265E+04 1.54854E+03-1.44610E-09 6.37101E-09
 -1       191-3.08406E+01 5.27836E+05 1.94827E+01 2.05719E+00 3.31738E-10 8.29277E-09
 -1       192-2.38463E+01 5.27800E+05 3.80009E+01-2.26039E+01 4.72284E-10-2.04000E-09
 -1       193-1.23760E+01 5.27833E+05 7.07517E+01 2.05124E+01 6.25960E-10 1.29148E-10
 -1       194 4.99978E+01 5.27822E+05 1.60726E+02-1.91190E+02 3.69937E-10 1.05983E-08
 -1       195 1.97415E+02 5.27809E+05 3.25986E+02 1.70774E+02 8.40373E-10 1.40062E-10
 -1       251-4.14092E+06 9.44624E+04-2.22168E+05-1.81567E+04-4.92876E-09-1.13505E-09
 -1       252-4.21345E+06-1.09640E+05-1.53210E+05 1.48978E+04-3.47071E-09 5.78439E-09
 -1       253-4.16870E+06 1.51262E+04-5.71718E+04 1.03646E+04 5.01875E-09 9.08040E-09
 -1       254-4.18073E+06-1.75678E+04-3.55012E+04-2.55843E+03 1.04110E-08 1.58361E-08
 -1       255-4.17341E+06 2.42799E+03-1.47084E+04-6.97451E+02-9.61977E-09 6.84304E-09
 -1       256-4.17517E+06-2.87403E+03-8.82677E+03 4.57187E+03-1.16119E-08 7.38237E-09
 -1       257-4.17419E+06 4.40334E+02-4.55130E+03 3.23392E+03-6.82204E-07 2.73872E-10
 -1       258-4.17438E+06-8.80816E+02-3.98893E+03 9.21509E+02-1.37977E-06 2.57492E-09
 -1       259-4.17418E+06 4.35948E+02-4.54278E+03 2.95299E+03-6.87368E-07-3.14935E-09
 -1       260-4.17524E+06-2.84483E+03-8.81571E+03 4.32660E+03 2.19456E-09 1.15882E-08
 -1       261-4.17334E+06 2.40353E+03-1.46596E+04-1.71234E+02 6.55799E-10 4.05817E-09
 -1       262-4.18122E+06-1.74743E+04-3.54970E+04-1.84768E+03 5.58338E-09-4.46926E-09
 -1       263-4.16828E+06 1.50594E+04-5.69394E+04 9.12759E+03 8.79484E-09-7.63612E-09
 -1       264-4.21672E+06-1.09641E+05-1.53530E+05 1.30128E+04-6.26324E-09-1.01718E-08
 -1       265-4.13809E+06 9.45427E+04-2.20976E+05-1.50342E+04-1.20155E-08 4.36557E-09
 -1       266-6.48279E+04-2.99649E+04 1.49686E+05-2.00527E+02 2.18279E-11 4.68810E-09
 -1       267 7.50811E+04 3.50124E+04 1.06148E+05 2.30470E+02 6.54836E-11 4.27283E-09
 -1       268-1.02306E+04-5.01166E+03 3.92908E+04-3.00184E+01-7.63976E-11 3.12222E-09
 -1       269 1.20767E+04 6.01074E+03 2.56767E+04 3.48905E+01-1.01863E-10-7.22627E-10
 -1       270-1.84355E+03-9.97059E+02 1.23280E+04-4.86887E+00 1.01409E-10 1.54955E-08
 -1       271-7.35382E+06-9.00423E+05-5.90792E+05-2.86770E+06-1.63709E-09 7.15954E-09
 -1       272-7.60463E+06-1.31347E+06-3.82906E+05-2.82042E+06 2.97405E-10-5.67525E-10
 -1       273-7.47185E+06-1.04876E+06-1.39329E+05-2.83286E+06 1.59434E-09 4.08181E-09
 -1       274-7.46178E+06-1.13770E+06-7.86116E+04-2.87376E+06 1.31877E-09 7.78527E-10
 -1       275-7.49382E+06-1.05896E+06-3.24260E+04-2.82078E+06-1.46792E-09-2.21553E-09
 -1       276-7.43336E+06-1.12818E+06-1.73900E+04-2.89324E+06 4.53292E-09 9.16998E-09
 -1       277-7.50073E+06-1.05582E+06-8.64526E+03-2.81467E+06-6.50289E-10 7.39874E-10
 -1       278-7.42594E+06-1.13177E+06-6.66665E+03-2.90096E+06 1.37072E-09-4.51905E-09
 -1       279-7.50177E+06-1.05482E+06-7.62275E+03-2.81353E+06-2.22803E-09-1.49339E-08
 -1       280-7.42950E+06-1.13139E+06-1.45981E+04-2.89790E+06 4.12911E-10-1.13778E-09
 -1       281-7.49699E+06-1.05648E+06-2.67776E+04-2.81753E+06-1.94632E-10-7.01402E-09
 -1       282-7.45208E+06-1.14001E+06-6.48147E+04-2.88267E+06-1.01659E-09 7.48423E-09
 -1       283-7.47876E+06-1.04828E+06-1.14772E+05-2.82766E+06-3.27236E-09-1.94268E-09
 -1       284-7.57063E+06-1.28355E+06-3.15356E+05-2.83703E+06-4.72937E-10 4.32192E-09
 -1       285-7.38050E+06-9.27392E+05-4.86836E+05-2.85766E+06-1.15688E-09 1.65892E-09
 -1       301 5.63616E+04-3.13077E+04 1.83331E+05-2.56830E+04-2.05910E-09 3.38287E-09
 -1       302 2.29422E+04 7.83953E+03 1.21757E+05-3.29302E+04-5.82941E-09 1.49030E-08
 -1       303 3.82746E+03-1.73090E+04 1.07282E+05-2.60205E+04-2.00089E-09-5.46834E-09
 -1       304 3.80563E+04 2.03114E+04 1.71726E+05-3.27797E+04-5.58794E-09 1.27557E-09
 -1       305 9.70711E+04-4.36390E+04 3.00752E+05-2.56085E+04-1.48430E-09 1.11054E-08
 -1       306-3.91120E+06-5.00897E+05-2.44689E+05-1.51885E+06-1.78989E-09 7.78527E-09
 -1       307-3.96801E+06-7.15120E+05-1.57989E+05-1.54995E+06 2.70938E-09 6.56837E-09
 -1       308-3.96154E+06-5.59918E+05-5.78497E+04-1.50279E+06 2.29375E-09-4.49654E-09
 -1       309-3.90833E+06-6.44712E+05-3.25106E+04-1.57514E+06 7.67795E-09 1.77597E-08
 -1       310-3.97114E+06-5.63394E+05-1.35395E+04-1.49730E+06 5.67525E-09 3.55612E-09
 -1       311-3.89717E+06-6.40834E+05-7.35126E+03-1.58376E+06 8.33825E-09 8.71046E-09
 -1       312-3.97364E+06-5.62365E+05-3.87978E+03-1.49520E+06 1.46383E-09-7.11495E-10
 -1       313-3.89549E+06-6.41055E+05-3.44305E+03-1.58542E+06-5.43753E-09-2.63594E-09
 -1       314-3.97305E+06-5.62952E+05-4.55300E+03-1.49584E+06-2.41334E-09-9.54151E-09
 -1       315-3.89922E+06-6.39057E+05-9.14095E+03-1.58093E+06 1.03319E-09-5.53473E-09
 -1       316-3.96924E+06-5.64881E+05-1.72108E+04-1.49917E+06 1.48339E-09 1.26001E-08
 -1       317-3.91395E+06-6.43568E+05-4.13686E+04-1.56949E+06 7.39874E-10 7.42239E-09
 -1       318-3.95716E+06-5.60248E+05-7.37061E+04-1.50598E+06 9.43146E-10-3.09592E-09
 -1       319-3.98939E+06-7.34240E+05-2.01312E+05-1.53886E+06 2.07262E-09-1.10595E-09
 -1       320-3.89384E+06-4.84004E+05-3.11606E+05-1.52544E+06-1.15324E-09 2.66300E-09
 -1       336 4.20187E+03-1.62899E+06-1.83433E+04 3.46642E+03-2.45245E-09-6.87942E-09
 -1       337-7.85678E+03-1.63560E+06-1.88292E+04-8.51411E+03 9.30640E-10 4.20687E-09
 -1       338 2.44715E+03-1.62996E+06-2.05259E+04 5.04035E+03-3.67027E-09-4.11092E-10
 -1       339-2.38474E+04-1.64467E+06-4.46432E+04-1.15440E+04 1.49885E-09 8.41783E-09
 -1       340 1.85268E+04-1.62015E+06-6.57324E+04 6.48259E+03-3.57977E-09 1.03946E-08
 -1       356-9.49773E-01 3.57253E-01-3.02058E+00-2.28860E+00-8.23419E-07 4.53161E-09
 -1       357-1.63775E+00-6.62168E-01-6.35237E+00 9.20899E+00-1.64700E-06 1.16492E-08
 -1       358-7.78543E-01 3.09724E-01-1.20320E+01-2.28816E+00-9.65422E-07-1.70535E-09
 -1       359-3.08524E+00-2.09322E+00-2.52462E+01 9.20873E+00-2.82572E-07-7.99749E-09
 -1       360 4.97120E-01 1.78844E+00-4.82304E+01-2.28834E+00 3.22823E-07-3.15781E-09
 -1       361-1.11559E+01-1.36024E+01-1.03145E+02 9.21016E+00 9.27768E-07 3.92540E-09
 -1       362 7.29235E+00 1.18183E+01-1.93085E+02-2.28959E+00 1.22422E-06-9.33709E-09
 -1       363-5.56460E+01-8.87344E+01-4.25293E+02 9.22449E+00 1.52018E-06 3.61987E-09
 -1       364 4.49891E+01 7.69119E+01-7.70171E+02-2.30266E+00 1.48726E-06 6.81069E-09
 -1       365-3.10180E+02-5.71810E+02-1.77497E+03 9.32485E+00 1.45795E-06 5.71674E-10
 -1       366 2.61844E+02 4.94828E+02-3.05381E+03-2.38991E+00 1.11920E-06-1.80069E-09
 -1       367-1.81020E+03-3.65653E+03-7.53894E+03 9.93999E+00 7.82245E-07-1.20389E-08
 -1       368 1.54524E+03 3.16115E+03-1.19925E+04-2.91748E+00 2.53390E-07 9.03401E-09
 -1       369-1.08479E+04-2.32714E+04-3.28191E+04 1.34510E+01-2.81222E-07 4.58385E-10
 -1       370 9.30304E+03 2.01067E+04-4.63450E+04-5.89845E+00-1.34967E-07 2.06928E-08
 -1       376-1.25882E+00 2.11782E+00-1.35442E+00 2.14919E+00 3.17875E-06-1.18702E-06
 -1       377 7.40420E+00-7.63615E+00-2.42680E+00-8.00617E+00 6.34547E-06-2.38816E-06
 -1       378-1.17949E+00 2.07308E+00-4.35573E+00 2.20286E+00 1.28399E-06-4.74097E-07
 -1       379 6.52951E+00-8.54093E+00-9.69628E+00-7.99262E+00-3.78488E-06 1.42212E-06
 -1       380-3.83849E-01 3.02289E+00-1.87728E+01 2.13556E+00-9.87938E-06 3.70932E-06
 -1       381 1.36951E+00-1.57910E+01-4.34655E+01-7.07796E+00-1.59669E-05 6.00800E-06
 -1       382 3.98085E+00 9.32246E+00-8.23344E+01 1.28859E+00-2.18438E-05 8.19889E-06
 -1       383-2.87928E+01-6.24249E+01-1.97462E+02 1.27804E-01-2.77195E-05 1.04113E-05
 -1       384 2.97789E+01 4.96517E+01-3.60099E+02-5.06760E+00-3.30111E-05 1.23958E-05
 -1       385-2.11961E+02-3.60615E+02-9.07516E+02 5.04490E+01-3.83002E-05 1.43824E-05
 -1       386 1.87150E+02 3.07478E+02-1.56628E+03-4.90162E+01-4.23430E-05 1.58970E-05
 -1       387-1.32704E+03-2.25805E+03-4.22806E+03 3.92844E+02-4.63698E-05 1.74266E-05
 -1       388 1.14490E+03 1.94684E+03-6.76190E+03-3.47339E+02-4.60405E-05 1.72942E-05
 -1       389-8.18325E+03-1.43022E+04-2.00496E+04 2.66385E+03-4.56766E-05 1.71618E-05
 -1       390 7.04439E+03 1.23502E+04-2.88557E+04-2.31896E+03-2.28562E-05 8.56850E-06
 -1       406 2.55394E+02 5.27786E+05 1.08663E+03-1.80086E+02 1.19144E-09 2.60934E-09
 -1       407 4.13491E+02 5.28026E+05 2.17536E+03 1.89689E+02 1.92813E-10 2.31375E-09
 -1       408 1.10123E+03 5.27652E+05 4.28367E+03-8.76674E+00 1.48930E-09-5.16411E-09
 -1       409 4.60806E+03 5.29373E+05 9.62769E+03-1.49956E+02-3.50155E-11-6.48652E-09
 -1       410 1.32615E+04 5.26434E+05 1.96455E+04 1.75768E+02 1.45155E-09 2.03727E-10
 -1       501 1.41112E+05-1.19330E+05 2.74437E+05 2.19198E+03 4.49404E-10-1.42609E-09
 -1       502 2.65667E+05 1.38056E+05 1.95058E+05-3.52910E+03-1.52244E-09 7.60338E-10
 -1       503 1.89280E+05-1.86767E+04 7.10701E+04 3.03209E+02-1.08864E-09 4.85670E-09
 -1       504 2.09591E+05 2.16012E+04 4.47552E+04-1.19247E+03-1.53364E-10-2.86855E-09
 -1       505 1.97080E+05-2.91810E+03 1.81994E+04-1.44628E+02 2.20079E-09 1.22691E-09
 -1       506 2.00503E+05 3.39629E+03 1.07353E+04-6.26815E+02-9.34244E-10 5.50972E-09
 -1       507 1.98366E+05-4.75872E+02 4.97576E+03-2.62451E+02-4.26230E-06-1.53659E-09
 -1       508 1.99075E+05 7.04553E+02 3.42238E+03-5.20526E+02-8.51901E-06-5.50199E-09
 -1       509 1.98509E+05-2.26825E+02 2.78366E+03-2.50922E+02-4.26338E-06-8.12045E-09
 -1       510 1.99377E+05 1.26354E+03 4.38370E+03-6.91258E+02-1.01293E-09-8.81431E-09
 -1       511 1.98064E+05-1.03486E+03 6.78137E+03-9.17150E+01 1.88491E-09-1.38766E-09
 -1       512 2.02877E+05 7.67746E+03 1.62347E+04-1.41569E+03 1.99463E-09-1.63573E-09
 -1       513 1.95010E+05-6.64069E+03 2.55274E+04 4.73519E+02 9.67596E-10-1.73168E-09
 -1       514 2.26385E+05 4.98259E+04 7.08281E+04-4.02431E+03 2.79812E-11 7.34872E-09
 -1       515 1.74586E+05-4.31847E+04 9.77670E+04 2.51694E+03 3.51017E-09-5.38421E-10
 -1       521-7.47727E+06-9.38973E+05-4.96684E+05-2.89584E+06-3.40515E-09 1.25146E-09
 -1       522-7.66168E+06-1.31132E+06-3.21646E+05-2.88515E+06 2.40834E-09-7.75617E-09
 -1       523-7.57826E+06-1.06141E+06-1.17079E+05-2.86434E+06-2.11412E-09-1.04046E-08
 -1       524-7.54017E+06-1.16574E+06-6.60663E+04-2.93293E+06-8.78572E-10 2.36923E-09
 -1       525-7.59697E+06-1.06961E+06-2.72348E+04-2.85389E+06 1.15188E-09 4.74211E-09
 -1       526-7.51773E+06-1.15646E+06-1.47381E+04-2.94802E+06 5.39262E-09 4.36580E-09
 -1       527-7.60127E+06-1.06850E+06-7.46662E+03-2.85046E+06-3.49871E-09-1.33559E-09
 -1       528-7.51561E+06-1.15511E+06-6.12708E+03-2.94907E+06-3.32000E-09-8.13088E-10
 -1       529-7.59910E+06-1.07079E+06-7.53456E+03-2.85292E+06-5.45060E-09-6.75482E-09
 -1       530-7.52515E+06-1.14833E+06-1.46838E+04-2.93796E+06-1.67029E-09-1.34969E-09
 -1       531-7.59083E+06-1.07603E+06-2.73856E+04-2.86085E+06-3.07045E-09 4.90945E-09
 -1       532-7.55425E+06-1.15071E+06-6.59762E+04-2.91482E+06-6.25732E-10 1.52322E-08
 -1       533-7.56914E+06-1.07078E+06-1.17175E+05-2.87463E+06-2.03954E-10 3.94357E-09
 -1       534-7.68075E+06-1.29159E+06-3.21479E+05-2.86235E+06-4.68663E-09-8.94215E-09
 -1       535-7.46664E+06-9.49745E+05-4.96504E+05-2.90779E+06-7.98900E-09 1.71713E-09
 -1       536-4.23360E+04-2.58099E+04 7.98850E+04-5.98199E+03 1.65164E-09-7.67614E-10
 -1       537-8.16137E+03 2.99700E+04 5.36804E+04-6.58676E+04-6.58656E-09-4.65297E-09
 -1       538-2.96092E+04-3.44421E+03 2.06182E+04-5.82197E+03-2.00635E-09-8.86030E-09
 -1       539-2.37765E+04 3.29422E+03 1.22107E+04-6.60841E+04 3.82715E-09 1.92449E-09
 -1       540-2.79176E+04-5.72515E+02 5.15236E+03-5.76233E+03 8.89486E-10-2.74258E-09
 -1       541-2.65973E+04 3.45990E+02 2.89114E+03-6.61739E+04-7.71252E-10 5.72800E-09
 -1       542-2.76698E+04-1.14034E+02 1.21591E+03-5.73597E+03-1.07775E-09-7.10088E-09
 -1       543-2.74673E+04 1.48358E+02 5.82864E+02-6.62162E+04 8.67885E-10-1.69922E-09
 -1       544-2.76202E+04 8.72932E+00 6.69641E+01-5.72064E+03 2.88310E-10 4.15753E-09
 -1       545-2.78345E+04 1.18806E+02-3.83647E+02-6.62355E+04-1.13408E-09-1.51977E-09
 -1       546-2.75657E+04 9.68842E+01-9.50019E+02-5.71626E+03-3.86535E-12 1.16097E-09
 -1       547-2.81689E+04-5.36210E+02-2.32337E+03-6.62252E+04-1.29967E-09-1.15142E-09
 -1       548-2.72388E+04 5.84660E+02-4.09410E+03-5.73122E+03-2.70575E-09 3.57113E-09
 -1       549-3.06126E+04-5.93417E+03-1.04558E+04-6.61130E+04-1.41881E-09 3.46972E-09
 -1       550-2.47646E+04 4.80162E+03-1.58535E+04-5.82851E+03 2.18279E-11 5.33873E-10
 -1       551 2.38051E+04-6.09378E+05 4.09979E+04-9.79634E+05-3.34694E-09 1.29294E-08
 -1       552 2.71678E+04-6.09119E+05 4.33653E+04-1.23384E+06-6.29370E-09 3.40042E-08
 -1       553 2.03875E+04-6.15522E+05 6.17823E+04-9.77440E+05-3.64525E-09 2.46691E-08
 -1       554 5.32029E+04-5.90691E+05 1.25814E+05-1.23410E+06-6.00994E-09 1.82226E-08
 -1       555 9.29037E+04-6.32899E+05 2.34842E+05-9.78673E+05-3.94357E-09 2.00089E-09
 -1       556-1.07868E+05-1.98249E+05 5.50214E+04-2.99001E+05 2.93221E-09-1.73459E-08
 -1       557-4.93995E+04-2.50032E+05 2.84064E+04-3.45112E+05 6.66478E-09-1.05106E-08
 -1       558-1.09361E+05-2.08388E+05 1.14962E+04-2.91955E+05 3.81260E-09-2.32467E-09
 -1       559-5.84298E+04-2.57250E+05 5.82746E+03-3.49336E+05 2.21189E-09-7.42148E-10
 -1       560-1.11807E+05-2.06957E+05 2.38982E+03-2.93398E+05 4.36557E-09 8.76571E-09
 -1       561-6.17649E+04-2.56333E+05 1.26288E+03-3.51555E+05 4.01269E-09 5.81940E-09
 -1       562-1.13703E+05-2.05736E+05 4.42319E+02-2.94711E+05 2.40834E-09 1.34946E-09
 -1       563-6.38092E+04-2.55455E+05 2.17351E+02-3.52919E+05 4.08181E-09 1.68257E-11
 -1       564-1.14854E+05-2.05009E+05-8.62483E+01-2.95503E+05 1.51995E-08-7.87168E-09
 -1       565-6.48536E+04-2.55014E+05-3.58714E+02-3.53597E+05 1.99243E-08-2.49220E-08
 -1       566-1.15214E+05-2.04750E+05-9.17507E+02-2.95767E+05 1.13478E-08-8.55835E-09
 -1       567-6.50612E+04-2.55055E+05-2.09132E+03-3.53574E+05-3.10365E-09-1.70257E-09
 -1       568-1.14664E+05-2.05137E+05-4.39851E+03-2.95461E+05 5.75892E-09-4.25644E-10
 -1       569-6.71054E+04-2.57313E+05-1.03617E+04-3.52013E+05 1.15560E-08-6.90488E-09
 -1       570-1.11705E+05-2.11303E+05-2.05745E+04-2.92839E+05 9.28048E-09-3.89718E-09
 -1       571 3.53814E+05 1.48717E+04 2.23340E+04-8.77618E+04 1.69257E-09-4.03406E-09
 -1       572 3.57157E+05 5.12519E+03 1.09530E+04-9.63821E+04-1.96451E-10 7.61429E-09
 -1       573 3.55130E+05 1.18595E+03 4.86812E+03-8.75266E+04-2.33467E-09-4.45107E-09
 -1       574 3.55517E+05 3.77078E+02 2.44148E+03-9.66374E+04-2.12185E-09-4.74847E-09
 -1       575 3.55259E+05 4.25052E+01 1.15152E+03-8.74968E+04 8.91441E-09-2.06001E-09
 -1       576 3.55288E+05 8.97420E+00 5.85878E+02-9.66710E+04 2.07974E-08-2.91948E-10
 -1       577 3.55279E+05-1.43176E+01 2.86797E+02-8.74929E+04 1.01265E-08-1.29603E-09
 -1       578 3.55274E+05-1.26229E+01 1.52598E+02-9.66753E+04-3.07182E-10-6.73390E-09
 -1       579 3.55319E+05-2.69616E+01 8.50890E+01-8.74925E+04 1.20235E-09 7.28596E-09
 -1       580 3.55332E+05-4.04774E+01 6.68051E+01-9.66712E+04 1.53523E-09 1.11577E-08
 -1       581 3.55395E+05-6.48707E+01 7.40329E+01-8.74970E+04-3.71074E-10 1.38880E-09
 -1       582 3.55448E+05-7.71469E+01 1.32037E+02-9.66204E+04-4.74756E-10 4.50200E-10
 -1       583 3.55502E+05-7.30016E+01 2.41054E+02-8.75432E+04-1.06229E-09-6.23231E-09
 -1       584 3.55675E+05 8.80518E+01 5.41869E+02-9.62243E+04-3.74712E-09-2.27965E-09
 -1       585 3.55572E+05 5.41937E+02 1.08850E+03-8.78937E+04 9.34961E-10 3.29965E-09
 -1       586 1.23777E+03 1.61502E+05 2.68340E+03-2.53073E+05-1.12777E-10-7.62157E-10
 -1       587 1.05776E+03 1.61893E+05 3.77965E+03-2.84316E+05 7.63976E-11 2.39197E-09
 -1       588 1.52266E+03 1.61220E+05 6.57648E+03-2.52774E+05-1.20053E-10 1.00061E-08
 -1       589 6.05716E+03 1.63983E+05 1.42889E+04-2.84284E+05-8.54925E-11 1.66328E-08
 -1       590 1.73625E+04 1.59477E+05 2.86384E+04-2.53100E+05 9.27685E-11 9.77707E-09
 -1       591-1.68923E+05-4.81345E+04-3.41750E+04-8.05235E+04-1.07775E-09-1.19144E-08
 -1       592-1.71380E+05-4.82412E+04-1.74060E+04-8.96183E+04 3.65958E-09-7.25549E-10
 -1       593-1.70980E+05-3.98645E+04-7.37883E+03-8.48934E+04 6.94399E-10 5.30326E-09
 -1       594-1.67362E+05-4.40112E+04-3.63175E+03-8.98649E+04-3.07227E-09 5.62790E-09
 -1       595-1.71182E+05-3.96716E+04-1.67693E+03-8.50552E+04 3.75690E-09 7.69921E-09
 -1       596-1.67097E+05-4.38628E+04-8.48179E+02-8.98255E+04 1.27766E-08 1.11831E-08
 -1       597-1.71214E+05-3.96998E+04-4.57711E+02-8.50559E+04 2.74082E-09-4.58317E-09
 -1       598-1.67068E+05-4.38635E+04-3.58423E+02-8.98127E+04-1.10998E-09-2.45336E-09
 -1       599-1.71210E+05-3.97030E+04-4.46198E+02-8.50534E+04 8.44466E-10 2.64617E-09
 -1       600-1.67087E+05-4.38667E+04-8.17550E+02-8.98162E+04 6.75527E-10-9.91349E-11
 -1       601-1.71169E+05-3.96815E+04-1.61078E+03-8.50478E+04-2.39788E-09-1.29194E-09
 -1       602-1.67335E+05-4.40092E+04-3.48509E+03-8.98417E+04 1.75623E-09 2.58751E-09
 -1       603-1.70964E+05-3.98762E+04-7.07960E+03-8.48913E+04 1.75078E-09 6.25732E-10
 -1       604-1.71219E+05-4.80287E+04-1.66954E+04-8.95504E+04 3.09183E-09 1.11595E-09
 -1       605-1.68945E+05-4.78444E+04-3.27797E+04-8.07346E+04 8.25366E-10 5.55792E-09
 -1       606 1.15167E+05-1.46932E+04-2.45843E+04 4.19678E+04 4.20187E-09 4.70391E-09
 -1       607 1.11120E+05-4.81760E+03-1.21608E+04 4.65051E+04 1.82945E-08-1.05813E-08
 -1       608 1.13417E+05-9.14057E+02-5.43378E+03 4.16565E+04 1.58561E-08-6.36919E-09
 -1       609 1.12910E+05-2.20420E+02-2.73488E+03 4.68440E+04-4.26553E-09 1.52113E-10
 -1       610 1.13168E+05 5.46873E+01-1.30187E+03 4.16198E+04-9.54788E-09-4.54656E-09
 -1       611 1.13054E+05 1.00847E+02-6.55043E+02 4.68826E+04-1.39407E-08-4.97494E-10
 -1       612 1.13087E+05 1.06660E+02-3.12923E+02 4.16163E+04-5.44242E-09 3.37695E-09
 -1       613 1.13032E+05 1.28904E+02-1.40924E+02 4.68865E+04-8.46831E-09 3.29146E-09
 -1       614 1.13038E+05 1.18031E+02-3.69034E+01 4.16155E+04 5.60522E-09-1.54523E-09
 -1       615 1.13000E+05 1.45719E+02 5.15049E+01 4.68864E+04 2.70102E-08-3.82670E-09
 -1       616 1.13001E+05 1.35597E+02 1.61059E+02 4.16162E+04-3.24599E-09-4.07590E-09
 -1       617 1.13001E+05 1.99985E+02 3.72484E+02 4.68846E+04-1.26147E-08-1.37970E-09
 -1       618 1.12954E+05 2.77227E+02 7.53659E+02 4.16168E+04 2.70347E-09-2.08820E-09
 -1       619 1.13245E+05 8.46398E+02 1.69730E+03 4.68790E+04 2.12003E-08-5.31554E-09
 -1       620 1.12708E+05 2.20564E+03 3.43366E+03 4.16166E+04 9.93646E-09-5.48653E-09
 -1       621 1.17793E+03 3.79164E+05 4.61364E+03-2.48239E+04 1.34543E-09 1.31041E-09
 -1       622 5.79485E+02 3.80122E+05 4.65626E+03-3.12614E+04-9.40418E-10 1.89630E-10
 -1       623 2.55201E+02 3.79324E+05 6.60778E+03-2.48189E+04 1.37788E-09 7.11543E-09
 -1       624 3.22784E+03 3.82317E+05 1.34206E+04-3.11803E+04-4.47244E-10 2.42571E-08
 -1       625 8.30027E+03 3.76995E+05 2.51788E+04-2.48999E+04 1.34060E-09 1.86874E-08
 -1       626 2.56220E+05 8.00016E+04-8.54536E+02 1.55405E+05-6.37920E-09-1.26001E-08
 -1       627 2.51116E+05 8.52373E+04-4.05204E+02 1.60871E+05-2.54659E-09 5.23278E-09
 -1       628 2.56354E+05 8.01978E+04-1.73010E+02 1.54929E+05 8.29459E-10 3.58568E-09
 -1       629 2.50871E+05 8.56584E+04-7.56449E+01 1.61073E+05-3.12866E-10 6.52415E-09
 -1       630 2.56310E+05 8.02321E+04-2.70826E+01 1.54850E+05-5.69889E-09 2.27476E-09
 -1       631 2.50788E+05 8.57148E+04 7.37252E+00 1.61059E+05-9.92713E-09 3.83068E-10
 -1       632 2.56264E+05 8.02522E+04 4.39398E+01 1.54819E+05-9.56970E-09 7.24049E-09
 -1       633 2.50752E+05 8.57313E+04 1.08686E+02 1.61037E+05-5.31600E-10-2.17710E-09
 -1       634 2.56230E+05 8.02546E+04 2.27950E+02 1.54804E+05 1.05615E-08 8.57926E-09
 -1       635 2.50759E+05 8.57384E+04 4.95681E+02 1.61033E+05-3.73802E-09 7.47605E-10
 -1       636 2.56202E+05 8.02618E+04 1.01746E+03 1.54792E+05-4.42037E-09 5.58748E-09
 -1       637 2.50983E+05 8.59446E+04 2.25371E+03 1.61014E+05 9.63064E-09-4.06180E-09
 -1       638 2.56136E+05 8.08919E+04 4.64826E+03 1.54510E+05 8.82619E-09 2.43199E-09
 -1       639 2.53384E+05 8.96677E+04 1.10244E+04 1.60185E+05-9.01309E-09 1.17143E-09
 -1       640 2.56042E+05 9.18574E+04 2.30542E+04 1.49886E+05-1.98270E-10-5.64933E-09
 -1       656 2.18342E+04-6.71082E+05-7.25614E+04 6.30362E+03-6.81030E-09-3.84398E-09
 -1       657-2.97595E+04-6.99825E+05-5.59914E+04 6.16858E+04-6.48834E-09-3.10547E-09
 -1       658 5.31827E+03-6.80467E+05-3.59061E+04 6.02066E+03-6.03131E-09 4.36694E-09
 -1       659-3.05137E+04-7.00326E+05-5.72018E+04 6.18824E+04-3.34148E-09-1.23453E-09
 -1       660 2.25816E+04-6.70664E+05-7.47315E+04 6.10806E+03-5.27507E-09 1.93495E-10
 -1       661 3.45708E+05 4.57828E+04 2.81025E+04 1.35372E+05 9.47102E-09-2.89583E-09
 -1       662 3.52627E+05 6.45667E+04 1.73828E+04 1.38670E+05 7.32066E-09-2.71939E-10
 -1       663 3.50331E+05 5.12787E+04 6.62515E+03 1.34980E+05-4.97141E-09-3.86217E-09
 -1       664 3.47285E+05 5.69175E+04 3.57759E+03 1.39686E+05-1.72432E-08-1.29540E-09
 -1       665 3.50820E+05 5.18262E+04 1.55300E+03 1.34960E+05-4.48057E-09-3.13787E-09
 -1       666 3.46718E+05 5.61913E+04 8.37749E+02 1.39757E+05-1.71212E-09-5.83273E-09
 -1       667 3.50880E+05 5.18785E+04 4.82770E+02 1.34958E+05-1.41455E-09 5.79419E-09
 -1       668 3.46658E+05 5.61442E+04 4.67793E+02 1.39774E+05-8.42192E-09-6.30394E-09
 -1       669 3.50883E+05 5.18637E+04 6.77992E+02 1.34948E+05 9.40190E-10-3.27873E-10
 -1       670 3.46750E+05 5.62793E+04 1.37346E+03 1.39801E+05 5.08157E-09-5.30349E-09
 -1       671 3.50798E+05 5.17497E+04 2.65046E+03 1.34932E+05-8.21194E-09-9.61427E-09
 -1       672 3.47710E+05 5.75694E+04 6.17481E+03 1.39724E+05-1.37339E-09-4.68503E-10
 -1       673 3.49965E+05 5.07844E+04 1.14548E+04 1.34951E+05 2.47758E-09 5.41149E-10
 -1       674 3.56944E+05 7.08285E+04 3.00807E+04 1.37994E+05 5.72183E-09 4.56339E-09
 -1       675 3.41971E+05 4.12660E+04 4.86323E+04 1.35624E+05 1.45310E-08-3.10320E-09
 -1       676 9.27271E+01-5.09401E+05-2.65799E+03 3.20157E+02 8.69505E-09-2.41179E-09
 -1       677-1.01327E+03-5.10204E+05-4.97055E+03-6.38740E+02 1.88834E-09-1.29700E-09
 -1       678 7.71940E+02-5.08857E+05-8.55913E+03 3.18407E+02 9.55060E-09-3.91779E-09
 -1       679-1.02156E+04-5.15656E+05-2.09034E+04-6.34990E+02-6.85191E-09-5.61173E-09
 -1       680 7.50186E+03-5.03953E+05-3.25708E+04 3.14204E+02 5.00222E-09-3.30263E-09
 -1       716-4.63030E-01-2.20730E-01 2.07225E+01-1.71852E-03 9.13179E-09-4.39327E-09
 -1       717 2.28066E+00 1.66329E+00 3.64963E+01 4.37669E-03-2.10951E-09 2.68403E-09
 -1       718-1.81743E+00-1.44293E+00 6.77271E+01-2.65564E-03-1.63807E-08-1.12524E-09
 -1       719 1.07690E+01 1.13289E+01 1.40478E+02-3.97080E-03 1.46546E-08 7.96753E-10
 -1       720-8.95141E+00-9.88696E+00 2.67931E+02 6.63308E-03-1.66505E-08-6.57984E-09
 -1       721 5.57367E+01 7.54839E+01 5.72616E+02-1.40011E-01-2.11519E-08-2.00481E-09
 -1       722-4.67845E+01-6.55953E+01 1.07175E+03 1.33371E-01-7.11496E-09-4.07817E-09
 -1       723 3.03040E+02 4.92535E+02 2.36068E+03-1.34355E+00 1.91378E-09-4.44288E-10
 -1       724-2.56235E+02-4.26886E+02 4.27483E+03 1.20994E+00-1.35225E-08-3.89832E-09
 -1       725 1.71651E+03 3.17380E+03 9.85218E+03-1.03324E+01-1.34384E-08-2.62594E-09
 -1       726-1.45989E+03-2.74635E+03 1.69512E+04 9.12115E+00-1.28538E-08-6.17001E-09
 -1       727 1.00442E+04 2.02950E+04 4.18465E+04-7.26795E+01-1.52034E-08-3.68345E-11
 -1       728-8.57779E+03-1.75437E+04 6.65838E+04 6.35694E+01-4.83683E-09-5.10772E-09
 -1       729 6.02150E+04 1.29161E+05 1.82182E+05-4.88835E+02-3.33145E-10-1.48430E-09
 -1       730-5.15297E+04-1.11566E+05 2.57577E+05 4.25666E+02 1.22974E-08-5.13683E-09
 -1       766-1.11576E+05-5.15382E+04 2.57775E+05-4.25678E+02-8.14907E-10-3.86353E-09
 -1       767 1.29236E+05 6.02695E+04 1.82720E+05 4.88980E+02 1.26383E-08-1.65343E-10
 -1       768-1.76091E+04-8.62430E+03 6.76384E+04-6.37036E+01-9.71340E-10 2.25143E-09
 -1       769 2.07875E+04 1.03466E+04 4.41977E+04 7.40273E+01 1.19276E-08 1.19885E-08
 -1       770-3.17326E+03-1.71617E+03 2.12206E+04-1.03310E+01-8.55835E-10 8.93189E-09
 -1       771-3.21431E+06-6.23168E+05-8.93944E+04-1.38533E+06 3.15777E-09 4.22006E-10
 -1       772-3.19787E+06-6.43821E+05-4.52455E+04-1.43274E+06 5.26779E-09-1.51886E-09
 -1       773-3.22279E+06-5.99457E+05-1.96433E+04-1.39634E+06 5.31145E-09 1.03646E-08
 -1       774-3.18815E+06-6.33932E+05-9.52718E+03-1.43737E+06 1.12050E-09-9.45874E-11
 -1       775-3.22558E+06-5.97373E+05-4.68436E+03-1.39750E+06-7.08678E-09 3.45608E-11
 -1       776-3.18889E+06-6.33378E+05-2.26168E+03-1.43962E+06-1.30349E-08 1.29021E-08
 -1       777-3.22750E+06-5.96222E+05-1.35381E+03-1.39820E+06-6.80302E-09 5.46424E-09
 -1       778-3.19001E+06-6.33140E+05-8.82483E+02-1.44134E+06-3.40879E-09 9.66793E-10
 -1       779-3.22886E+06-5.95320E+05-1.09319E+03-1.39872E+06-1.00772E-08 2.40561E-10
 -1       780-3.19092E+06-6.32974E+05-1.79326E+03-1.44257E+06-1.00063E-08 6.76914E-09
 -1       781-3.22964E+06-5.94684E+05-3.53753E+03-1.39904E+06-7.71252E-09 2.17824E-09
 -1       782-3.19196E+06-6.33185E+05-7.61045E+03-1.44330E+06-4.93674E-09 8.60382E-09
 -1       783-3.22956E+06-5.94878E+05-1.55032E+04-1.39885E+06-1.15415E-08-2.80670E-09
 -1       784-3.20066E+06-6.41947E+05-3.66419E+04-1.44269E+06-1.00836E-08-1.54250E-09
 -1       785-3.22494E+06-6.12527E+05-7.20286E+04-1.38981E+06 4.60341E-09 1.01682E-08
 -1       786 3.03078E+05-1.18034E+04 3.77748E+04-4.63091E+02 6.15387E-10-3.41424E-09
 -1       787 3.17752E+05 1.44192E+04 2.51553E+04-5.92780E+03 2.84444E-10 3.82033E-09
 -1       788 3.09043E+05-1.43490E+03 9.81744E+03-4.83125E+02-8.99945E-10 1.58843E-09
 -1       789 3.10996E+05 1.72943E+03 5.70045E+03-5.89268E+03 1.85446E-09 3.25281E-09
 -1       790 3.09832E+05-1.75538E+02 2.50572E+03-4.97867E+02-3.60387E-10 7.18046E-10
 -1       791 3.10096E+05 2.06675E+02 1.38044E+03-5.87477E+03-1.94884E-10 2.85584E-09
 -1       792 3.09942E+05-2.28182E+01 6.90678E+02-5.01030E+02 5.20593E-10 1.57428E-10
 -1       793 3.09976E+05 3.36771E+01 4.64915E+02-5.88045E+03-7.14692E-10 1.39399E-09
 -1       794 3.09952E+05-1.22497E+01 4.20984E+02-4.92184E+02-3.68914E-11 3.94579E-09
 -1       795 3.10013E+05 8.85076E+01 6.52358E+02-5.91039E+03 4.74955E-10-5.15359E-09
 -1       796 3.09908E+05-7.59038E+01 1.09581E+03-4.71092E+02-4.64865E-10-1.16625E-08
 -1       797 3.10397E+05 7.31878E+02 2.43873E+03-5.96305E+03-3.81704E-10-1.85105E-09
 -1       798 3.09573E+05-6.11764E+02 4.17777E+03-4.39524E+02-3.63684E-10 3.74030E-09
 -1       799 3.13274E+05 6.12164E+03 1.06928E+04-6.02896E+03-1.67506E-09 1.50885E-09
 -1       800 3.07038E+05-5.01898E+03 1.60477E+04-4.05457E+02-3.02862E-10 9.54969E-11
 -1       801-3.29630E+04 3.15871E+05 3.69820E+04-1.77090E+05 9.00400E-10-3.91447E-09
 -1       802 9.06500E+04 3.31724E+05 7.64961E+04-1.97952E+06-6.11544E-09-1.60690E-08
 -1       803-2.85859E+03 3.20104E+05 9.10594E+04-1.77829E+05 1.82990E-08 2.54690E-08
 -1       804 1.79138E+05 3.86240E+05 2.16839E+05-1.97943E+06-1.47847E-08 1.15106E-08
 -1       805-1.18137E+05 2.67594E+05 2.90395E+05-1.77305E+05 1.48721E-08 2.10421E-08
 -1       806-2.81933E+05-7.84324E+04-2.40778E+04-1.36142E+05-2.44086E-10-3.10865E-09
 -1       807-2.81448E+05-7.38559E+04-1.15110E+04-1.44332E+05-3.53725E-09-9.91076E-09
 -1       808-2.82027E+05-6.70076E+04-4.85380E+03-1.41043E+05 5.49107E-10-3.82465E-09
 -1       809-2.79033E+05-6.98962E+04-2.35295E+03-1.45155E+05 5.87647E-10 1.28450E-08
 -1       810-2.82107E+05-6.63443E+04-1.06614E+03-1.41353E+05 6.94865E-09-2.07797E-09
 -1       811-2.78812E+05-6.96730E+04-5.27357E+02-1.45172E+05 1.70927E-08-2.18233E-09
 -1       812-2.82125E+05-6.63420E+04-2.61447E+02-1.41361E+05 8.91737E-09-6.69888E-09
 -1       813-2.78780E+05-6.96743E+04-1.64017E+02-1.45157E+05 3.40742E-09 4.45471E-09
 -1       814-2.82117E+05-6.63541E+04-1.52425E+02-1.41353E+05 6.12681E-09 7.99128E-09
 -1       815-2.78775E+05-6.96837E+04-2.38057E+02-1.45145E+05-4.58840E-10 8.70568E-09
 -1       816-2.82088E+05-6.63691E+04-4.46470E+02-1.41338E+05-2.84217E-09-4.79031E-09
 -1       817-2.78856E+05-6.97705E+04-9.66702E+02-1.45104E+05 1.63709E-10 4.39650E-09
 -1       818-2.82021E+05-6.66672E+04-1.98777E+03-1.41212E+05 1.11713E-08-8.30551E-09
 -1       819-2.79939E+05-7.12729E+04-4.70520E+03-1.44606E+05 2.42717E-08-1.07684E-09
 -1       820-2.81843E+05-7.14510E+04-9.84185E+03-1.39321E+05 8.78936E-09-2.73621E-09
 -1       821-3.85860E+05 1.48666E+04-4.75856E+04 4.25657E+02-3.62570E-09-2.09548E-09
 -1       822-4.04313E+05-1.81639E+04-3.16890E+04 8.00393E+03-4.18913E-09-5.27371E-09
 -1       823-3.93373E+05 1.80305E+03-1.23738E+04 3.10336E+02 5.73732E-09 7.16500E-09
 -1       824-3.95825E+05-2.16381E+03-7.18951E+03 8.19443E+03-1.91108E-09 6.19195E-09
 -1       825-3.94364E+05 2.19536E+02-3.18211E+03 2.34392E+02-7.26300E-09-9.79753E-10
 -1       826-3.94710E+05-2.39879E+02-1.78949E+03 8.32212E+03-1.48246E-08-6.32613E-09
 -1       827-3.94501E+05 3.08393E+01-9.72873E+02 1.82434E+02-8.17784E-09-4.32843E-09
 -1       828-3.94582E+05-3.26249E+01-8.00328E+02 8.40306E+03-9.36413E-09-5.10437E-09
 -1       829-3.94501E+05 3.08219E+01-9.43114E+02 1.53408E+02 1.93580E-10-6.64514E-09
 -1       830-3.94716E+05-2.22118E+02-1.71188E+03 8.43687E+03 4.36576E-09-6.26822E-09
 -1       831-3.94371E+05 2.12134E+02-3.02805E+03 1.48626E+02-2.54997E-09-6.94297E-09
 -1       832-3.95788E+05-2.04648E+03-6.83951E+03 8.42297E+03-2.46843E-09 8.78572E-10
 -1       833-3.93429E+05 1.71978E+03-1.17622E+04 1.67531E+02 4.24239E-09 2.25691E-09
 -1       834-4.03870E+05-1.72555E+04-3.01315E+04 8.35872E+03 3.37849E-09-7.73070E-11
 -1       835-3.86286E+05 1.41426E+04-4.52377E+04 2.14545E+02 3.20631E-09 3.89628E-09
 -1       836-1.77041E+03 5.02306E+05 3.89208E+04-3.83589E+04-4.00178E-11 1.14087E-08
 -1       837 8.17522E+03 5.14122E+05 3.00175E+04-7.42620E+04-2.01777E-09 7.96649E-09
 -1       838-5.17549E+02 5.06201E+05 2.68486E+04-3.82578E+04-7.85803E-10 2.63157E-09
 -1       839 1.50322E+04 5.19354E+05 4.68198E+04-7.42699E+04-2.45200E-09 7.76299E-09
 -1       840-3.51719E+03 4.97045E+05 7.34195E+04-3.83475E+04-1.13505E-09 6.42285E-09
 -1       841 9.62324E+04 1.42784E+04-1.93189E+03 3.57472E+04-2.25296E-09-2.86798E-09
 -1       842 9.50002E+04 1.28020E+04-1.32502E+03 3.64265E+04-3.39485E-08 1.65664E-08
 -1       843 9.57986E+04 1.36635E+04-4.47025E+02 3.59692E+04-4.82246E-05 1.81507E-05
 -1       844 9.55218E+04 1.34993E+04-2.69533E+02 3.61508E+04-9.64240E-05 3.63206E-05
 -1       845 9.57106E+04 1.35814E+04-8.22238E+01 3.60227E+04-6.55865E-05 2.46948E-05
 -1       846 9.56359E+04 1.35953E+04-8.86787E+00 3.60806E+04-3.47020E-05 1.30732E-05
 -1       847 9.56844E+04 1.35675E+04 7.39610E+01 3.60393E+04-2.10492E-05 7.91991E-06
 -1       848 9.56976E+04 1.36573E+04 2.21768E+02 3.60531E+04-7.40272E-06 2.79214E-06
 -1       849 9.56489E+04 1.35194E+04 4.22848E+02 3.60502E+04-8.86118E-07 3.34188E-07
 -1       850 9.59173E+04 1.40157E+04 1.07680E+03 3.59935E+04 5.62678E-06-2.12251E-06
 -1       851 9.54646E+04 1.32092E+04 1.86203E+03 3.60990E+04 9.57410E-06-3.60945E-06
 -1       852 9.72317E+04 1.62867E+04 5.02926E+03 3.56022E+04 1.35141E-05-5.08928E-06
 -1       853 9.43343E+04 1.12486E+04 8.04341E+03 3.64413E+04 1.40058E-05-5.26183E-06
 -1       854 1.05355E+05 3.06531E+04 2.38510E+04 3.29481E+04 1.44619E-05-5.45107E-06
 -1       855 8.73424E+04-1.15454E+03 3.43312E+04 3.87522E+04 7.22202E-06-2.74556E-06
 -1       856-2.95636E+05 7.01388E+03-3.77272E+04 7.21087E+03-6.57246E-09 1.52068E-09
 -1       857-3.08681E+05-1.05546E+04-2.36625E+04 2.26553E+04-4.98244E-09 7.17591E-10
 -1       858-3.01185E+05 6.81709E+02-9.74603E+03 7.09738E+03-3.44426E-09-1.68120E-09
 -1       859-3.02622E+05-8.49048E+02-5.34137E+03 2.27989E+04 5.01473E-09-4.55634E-09
 -1       860-3.01773E+05 9.70045E+01-2.46602E+03 7.06368E+03 5.62977E-10-1.92381E-09
 -1       861-3.02004E+05 1.92970E+01-1.30382E+03 2.28453E+04-4.41707E-09 2.97780E-09
 -1       862-3.01850E+05 4.23693E+01-6.65927E+02 7.05031E+03 1.29436E-08 9.32118E-10
 -1       863-3.01933E+05 9.53475E+01-4.24870E+02 2.28573E+04 3.14516E-08-1.69842E-09
 -1       864-3.01857E+05 3.69492E+01-3.72617E+02 7.05158E+03 1.16239E-08-9.38849E-09
 -1       865-3.01937E+05 6.89651E+01-5.37332E+02 2.28389E+04 9.54765E-09-6.07685E-09
 -1       866-3.01826E+05 5.03839E+01-9.24956E+02 7.06883E+03-1.20735E-09 5.47658E-10
 -1       867-3.02134E+05-2.54409E+02-1.94438E+03 2.27869E+04-7.99446E-10 1.26487E-09
 -1       868-3.01606E+05 2.51578E+02-3.53234E+03 7.10394E+03 8.60109E-09-6.63556E-09
 -1       869-3.04283E+05-3.77310E+03-8.54654E+03 2.26313E+04-3.61979E-10-5.47573E-10
 -1       870-2.99593E+05 2.52255E+03-1.36367E+04 7.22572E+03 7.99173E-09-7.21229E-10
 -1       871-5.68395E+03-4.29296E+04-1.42617E+04 1.57558E+05 2.47746E-09-1.20235E-09
 -1       872-2.23387E+03-4.59508E+04-5.04494E+03 1.96855E+05 5.35056E-09 5.50608E-09
 -1       873-1.76348E+02-4.47615E+04 2.44686E+03 1.57225E+05-1.12777E-10 3.44016E-09
 -1       874 2.94921E+03-4.18938E+04 1.17418E+04 1.96955E+05 6.25550E-09 1.67734E-09
 -1       875 8.57501E+03-4.72076E+04 2.52549E+04 1.57483E+05 2.10275E-09-2.21098E-09
 -1       876 4.43500E+05 6.69009E+04 3.69562E+04 1.76505E+05 6.71616E-09-1.05683E-09
 -1       877 4.49966E+05 8.36261E+04 2.14106E+04 1.83287E+05 6.60179E-09 2.23167E-09
 -1       878 4.48527E+05 6.96964E+04 8.58395E+03 1.77401E+05 1.24519E-08 3.13003E-09
 -1       879 4.43880E+05 7.62014E+04 4.41142E+03 1.83933E+05-3.68777E-09-4.70470E-09
 -1       880 4.48933E+05 6.99695E+04 1.98819E+03 1.77482E+05 1.48930E-09-7.99662E-09
 -1       881 4.43386E+05 7.56844E+04 1.03596E+03 1.83901E+05-2.75759E-09-2.99792E-09
 -1       882 4.48966E+05 7.00136E+04 5.88892E+02 1.77496E+05 4.55316E-09 6.52921E-09
 -1       883 4.43348E+05 7.56427E+04 5.28964E+02 1.83876E+05 1.37379E-08 1.18477E-09
 -1       884 4.48957E+05 7.00168E+04 7.40956E+02 1.77499E+05-7.51413E-10 1.78068E-09
 -1       885 4.43423E+05 7.56878E+04 1.44063E+03 1.83883E+05 1.69949E-08 1.62186E-09
 -1       886 4.48889E+05 6.99692E+04 2.84342E+03 1.77487E+05 4.46170E-09-1.01986E-08
 -1       887 4.44147E+05 7.64160E+04 6.34730E+03 1.83895E+05 7.04040E-09 5.30963E-09
 -1       888 4.48283E+05 6.95917E+04 1.23708E+04 1.77376E+05-2.18165E-09 1.18325E-09
 -1       889 4.52888E+05 8.71413E+04 3.08595E+04 1.82972E+05 5.53109E-09-6.95763E-10
 -1       890 4.41059E+05 6.55402E+04 5.32753E+04 1.76044E+05 9.87211E-09 1.38243E-10
 -1       891 8.45129E+02-2.43388E+05-9.22770E+03 4.32163E+04 2.79852E-09 2.61298E-09
 -1       892-2.42544E+03-2.46279E+05-7.15623E+03 9.80795E+04-3.75803E-09-4.94521E-09
 -1       893 1.52146E+02-2.44376E+05-6.12858E+03 4.31153E+04 4.72482E-10 4.31965E-09
 -1       894-4.07215E+03-2.47294E+05-1.06711E+04 9.79849E+04-1.09744E-08 1.10595E-09
 -1       895 1.56733E+03-2.42178E+05-1.62778E+04 4.33086E+04-2.36196E-09-8.09450E-11
 -1       956-4.30408E+05-7.62740E+03-1.87077E+04 4.63788E+04-6.31371E-09-9.57698E-10
 -1       957-4.34087E+05-2.50858E+03-9.57663E+03 5.55924E+04-1.87720E-09-2.38379E-09
 -1       958-4.32103E+05-1.82794E+02-4.31726E+03 4.60841E+04 5.06589E-09 2.32421E-09
 -1       959-4.32436E+05 3.08573E+01-2.20071E+03 5.59126E+04-2.25555E-09 6.13363E-09
 -1       960-4.32299E+05 1.25216E+02-1.07138E+03 4.60535E+04-8.57381E-09-7.92170E-09
 -1       961-4.32357E+05 1.53599E+02-5.61203E+02 5.59480E+04-1.41513E-08-1.83263E-09
 -1       962-4.32360E+05 1.38095E+02-3.10608E+02 4.60478E+04-7.01493E-09 1.34150E-10
 -1       963-4.32378E+05 1.70832E+02-2.29085E+02 5.59555E+04-7.79869E-09-1.76306E-09
 -1       964-4.32382E+05 1.49413E+02-2.54638E+02 4.60457E+04-3.05363E-10 2.57569E-09
 -1       965-4.32401E+05 1.79223E+02-4.20426E+02 5.59560E+04 7.67000E-09 3.29555E-09
 -1       966-4.32368E+05 1.58434E+02-7.79367E+02 4.60473E+04-3.58045E-09-2.10412E-09
 -1       967-4.32490E+05 1.07973E+02-1.59332E+03 5.59367E+04 4.27281E-09 4.62069E-09
 -1       968-4.32250E+05-4.95224E+01-3.11903E+03 4.60655E+04 1.03801E-08 7.73070E-12
 -1       969-4.33707E+05-1.71644E+03-6.92323E+03 5.57365E+04 2.21871E-08-5.15695E-09
 -1       970-4.31037E+05-5.42598E+03-1.35215E+04 4.62553E+04 1.17225E-08-7.49606E-09
 -1       971-5.31334E+05 7.58342E+02-2.22350E+04 1.33324E+04-2.20734E-09-4.80577E-09
 -1       972-5.37973E+05-4.26597E+03-1.30716E+04 2.55529E+04-2.61025E-09 5.35329E-09
 -1       973-5.34293E+05 1.23537E+02-5.64803E+03 1.31557E+04-3.91083E-09 5.77757E-09
 -1       974-5.34863E+05-1.73425E+02-2.98579E+03 2.57640E+04-1.05138E-09 2.83399E-09
 -1       975-5.34554E+05 6.12815E+01-1.45137E+03 1.31176E+04 2.82671E-09 7.47605E-10
 -1       976-5.34640E+05 8.85397E+01-8.05156E+02 2.58208E+04-3.98586E-10 3.50371E-09
 -1       977-5.34596E+05 6.05579E+01-5.20643E+02 1.30984E+04 1.39376E-08-4.49927E-09
 -1       978-5.34641E+05 1.12130E+02-5.25159E+02 2.58480E+04 2.32640E-08-1.66483E-09
 -1       979-5.34598E+05 6.97184E+01-7.71826E+02 1.30902E+04 1.05034E-08-6.90954E-09
 -1       980-5.34706E+05 8.94042E+01-1.45362E+03 2.58528E+04 9.95141E-09-2.79169E-09
 -1       981-5.34540E+05 9.77683E+01-2.77749E+03 1.30935E+04-1.34310E-09 2.73408E-09
 -1       982-5.35214E+05-3.91461E+02-5.82370E+03 2.58317E+04 2.99190E-09-3.80203E-09
 -1       983-5.34064E+05 2.51721E+02-1.10470E+04 1.31121E+04 1.62891E-09-1.45974E-10
 -1       984-5.41399E+05-8.38146E+03-2.56286E+04 2.57006E+04-7.21252E-09-3.93493E-09
 -1       985-5.28299E+05 1.53625E+03-4.35767E+04 1.32352E+04 5.31509E-09 2.76850E-09
 -3
    1PSTEP                         9           5           1          
  100CL  105 1.000000000         507                     0    5           1
 -4  DISP        4    1
 -5  D1          1    2    1    0
 -5  D2          1    2    2    0
 -5  D3          1    2    3    0
 -5  ALL         1    2    0    0    1ALL
 -1         1 1.81287E-04 0.00000E+00 0.00000E+00
 -1         2 1.81403E-04 0.00000E+00 0.00000E+00
 -1         3 1.26037E-04 6.65533E-29 0.00000E+00
 -1         5 9.42392E-05 6.22673E-27-6.61744E-24
 -1         8 1.45802E-04-1.60831E-06 0.00000E+00
 -1         9 1.17204E-04-6.23422E-06 0.00000E+00
 -1        10 1.17447E-04-2.99176E-06 0.00000E+00
 -1        11 9.29768E-05-7.59718E-06 0.00000E+00
 -1        12 9.29885E-05 1.17984E-06 0.00000E+00
 -1        15 1.06559E-04-1.77781E-06-8.27181E-25
 -1        16 8.82946E-05-6.46613E-06 0.00000E+00
 -1        17 8.73144E-05-6.65358E-06 0.00000E+00
 -1        18 8.71432E-05-3.47833E-07 0.00000E+00
 -1        19 8.92526E-05 2.35168E-06 0.00000E+00
 -1        20 8.99122E-05 2.90388E-05 0.00000E+00
 -1        21 8.86547E-05 6.31006E-05 0.00000E+00
 -1        23 2.97865E-05-1.31955E-04-8.07794E-28
 -1        24 2.92496E-05-8.32298E-06 0.00000E+00
 -1        25 8.25803E-05 1.47241E-09 0.00000E+00
 -1        26 8.44073E-05 3.18984E-06 0.00000E+00
 -1        27 8.20639E-05 2.75448E-05 0.00000E+00
 -1        28 8.02425E-05 6.19648E-05 0.00000E+00
 -1        31-1.71120E-05-8.57325E-06-8.27181E-25
 -1        32 0.00000E+00 0.00000E+00 0.00000E+00
 -1        33 7.86121E-05 4.29079E-06 0.00000E+00
 -1        34 7.60268E-05 2.74376E-05 0.00000E+00
 -1        35 7.28218E-05 6.14197E-05 0.00000E+00
 -1        36 1.81277E-04-6.21126E-19 6.61744E-24
 -1        37 1.81285E-04-1.19476E-18 1.65436E-24
 -1        38 1.81292E-04-3.04127E-19 0.00000E+00
 -1        39 1.81303E-04 7.84728E-19-2.06795E-25
 -1        40 1.81313E-04 5.62884E-19 0.00000E+00
 -1        41 1.81324E-04 1.64727E-19 5.16988E-26
 -1        42 1.81335E-04-7.11497E-19 0.00000E+00
 -1        43 1.81347E-04-2.23045E-18 1.03398E-25
 -1        44 1.81358E-04-1.95526E-18 2.06795E-25
 -1        45 1.81369E-04-1.15562E-18 0.00000E+00
 -1        46 1.81380E-04-1.18934E-19 0.00000E+00
 -1        47 1.81390E-04 1.65081E-18 0.00000E+00
 -1        48 1.81401E-04 2.52362E-18 0.00000E+00
 -1        49 1.81407E-04 3.30077E-18 0.00000E+00
 -1        50 1.81415E-04 1.94038E-18 0.00000E+00
 -1        51 1.78713E-04-2.62523E-07 0.00000E+00
 -1        52 1.74324E-04-5.19344E-07 0.00000E+00
 -1        53 1.68471E-04-7.78640E-07 0.00000E+00
 -1        54 1.61521E-04-1.04356E-06 0.00000E+00
 -1        55 1.53841E-04-1.31628E-06 4.13590E-24
 -1        56 1.82026E-04-1.08909E-05 5.29396E-23
 -1        57 1.89343E-04-4.06863E-05 2.64698E-23
 -1        58 2.01399E-04-8.44761E-05 1.05879E-22
 -1        59 2.16006E-04-1.36176E-04 0.00000E+00
 -1        60 2.30642E-04-1.87963E-04 0.00000E+00
 -1        61 2.42758E-04-2.32011E-04 5.29396E-23
 -1        62 2.50191E-04-2.62196E-04 0.00000E+00
 -1        63 2.50974E-04-2.73586E-04-5.29396E-23
 -1        64 2.44385E-04-2.65295E-04 0.00000E+00
 -1        65 2.30292E-04-2.38049E-04 0.00000E+00
 -1        66 2.10303E-04-1.96537E-04-1.05879E-22
 -1        67 1.86689E-04-1.46534E-04 0.00000E+00
 -1        68 1.62654E-04-9.55573E-05 1.05879E-22
 -1        69 1.41479E-04-5.11853E-05 0.00000E+00
 -1        70 1.25661E-04-1.96725E-05 5.29396E-23
 -1        86 1.77335E-04-9.71976E-07 0.00000E+00
 -1        87 1.64990E-04-2.02874E-06 0.00000E+00
 -1        88 1.49269E-04-3.12675E-06 2.64698E-23
 -1        89 1.35228E-04-4.20192E-06-1.32349E-23
 -1        90 1.24155E-04-5.24292E-06 0.00000E+00
 -1       121 1.25795E-04-4.96862E-07-1.32349E-23
 -1       122 1.25072E-04-9.93984E-07 0.00000E+00
 -1       123 1.23869E-04-1.49159E-06 0.00000E+00
 -1       124 1.22192E-04-1.99013E-06 0.00000E+00
 -1       125 1.20048E-04-2.48948E-06 0.00000E+00
 -1       191 9.42044E-05 1.96687E-07 0.00000E+00
 -1       192 9.41000E-05 3.93367E-07 0.00000E+00
 -1       193 9.39261E-05 5.90037E-07 0.00000E+00
 -1       194 9.36827E-05 7.86686E-07 0.00000E+00
 -1       195 9.33700E-05 9.83300E-07 0.00000E+00
 -1       251 1.44051E-04 2.51747E-06-2.64698E-23
 -1       252 1.42262E-04 1.67807E-06 0.00000E+00
 -1       253 1.40475E-04-7.76118E-07 5.29396E-23
 -1       254 1.38681E-04-1.36085E-06 0.00000E+00
 -1       255 1.36887E-04-1.35022E-06 0.00000E+00
 -1       256 1.35091E-04-2.06654E-06 0.00000E+00
 -1       257 1.33295E-04-2.98497E-06 5.29396E-23
 -1       258 1.31499E-04-3.56434E-06 0.00000E+00
 -1       259 1.29703E-04-4.12478E-06 0.00000E+00
 -1       260 1.27906E-04-4.98791E-06 0.00000E+00
 -1       261 1.26111E-04-5.70644E-06 0.00000E+00
 -1       262 1.24317E-04-5.84481E-06 0.00000E+00
 -1       263 1.22523E-04-6.44166E-06-5.29396E-23
 -1       264 1.20737E-04-8.49849E-06 2.64698E-23
 -1       265 1.18948E-04-9.29983E-06 0.00000E+00
 -1       266 1.39261E-04-1.65967E-06 1.32349E-23
 -1       267 1.32721E-04-1.68509E-06 3.30872E-24
 -1       268 1.26180E-04-1.71219E-06-3.30872E-24
 -1       269 1.19640E-04-1.73439E-06 0.00000E+00
 -1       270 1.13099E-04-1.75650E-06 0.00000E+00
 -1       271 1.40452E-04 3.05857E-06-5.29396E-23
 -1       272 1.35518E-04 6.30155E-06-5.29396E-23
 -1       273 1.31110E-04 8.16903E-06 1.05879E-22
 -1       274 1.27180E-04 8.71929E-06 0.00000E+00
 -1       275 1.23693E-04 8.08899E-06 0.00000E+00
 -1       276 1.20576E-04 6.46012E-06 0.00000E+00
 -1       277 1.17746E-04 4.06560E-06 0.00000E+00
 -1       278 1.15102E-04 1.17120E-06 5.29396E-23
 -1       279 1.12537E-04-1.93240E-06-1.05879E-22
 -1       280 1.09937E-04-4.94520E-06-5.29396E-23
 -1       281 1.07194E-04-7.57208E-06 0.00000E+00
 -1       282 1.04206E-04-9.53431E-06-5.29396E-23
 -1       283 1.00877E-04-1.05870E-05 1.05879E-22
 -1       284 9.71445E-05-1.05201E-05 5.29396E-23
 -1       285 9.29311E-05-9.18965E-06 0.00000E+00
 -1       301 1.12261E-04-6.28507E-06-2.64698E-23
 -1       302 1.07359E-04-6.31011E-06 0.00000E+00
 -1       303 1.02504E-04-6.33239E-06-6.61744E-24
 -1       304 9.77037E-05-6.35678E-06-6.61744E-24
 -1       305 9.29649E-05-6.38779E-06 1.32349E-23
 -1       306 1.14062E-04-2.75602E-06 2.64698E-23
 -1       307 1.11482E-04-8.89926E-07 0.00000E+00
 -1       308 1.09437E-04-4.39717E-07 0.00000E+00
 -1       309 1.07837E-04-1.19667E-06-2.64698E-23
 -1       310 1.06598E-04-2.91658E-06 0.00000E+00
 -1       311 1.05618E-04-5.33612E-06 0.00000E+00
 -1       312 1.04795E-04-8.17370E-06-5.29396E-23
 -1       313 1.04018E-04-1.11388E-05 2.64698E-23
 -1       314 1.03180E-04-1.39375E-05 5.29396E-23
 -1       315 1.02171E-04-1.62795E-05 0.00000E+00
 -1       316 1.00888E-04-1.78865E-05-5.29396E-23
 -1       317 9.92334E-05-1.84959E-05-2.64698E-23
 -1       318 9.71156E-05-1.78712E-05 0.00000E+00
 -1       319 9.44622E-05-1.58001E-05-2.64698E-23
 -1       320 9.11942E-05-1.21135E-05 0.00000E+00
 -1       336 1.14229E-04-3.59512E-06 0.00000E+00
 -1       337 1.10245E-04-4.20321E-06 6.61744E-24
 -1       338 1.05523E-04-4.81409E-06 0.00000E+00
 -1       339 1.00099E-04-5.42699E-06 0.00000E+00
 -1       340 9.40145E-05-6.04390E-06 0.00000E+00
 -1       356 9.29766E-05-7.02484E-06 0.00000E+00
 -1       357 9.29765E-05-6.44304E-06 2.01948E-28
 -1       358 9.29763E-05-5.85448E-06 0.00000E+00
 -1       359 9.29761E-05-5.26187E-06 0.00000E+00
 -1       360 9.29760E-05-4.66792E-06-3.23117E-27
 -1       361 9.29758E-05-4.07532E-06 0.00000E+00
 -1       362 9.29757E-05-3.48680E-06 0.00000E+00
 -1       363 9.29755E-05-2.90506E-06 0.00000E+00
 -1       364 9.29754E-05-2.33279E-06 0.00000E+00
 -1       365 9.29753E-05-1.77271E-06-5.16988E-26
 -1       366 9.29753E-05-1.22754E-06 0.00000E+00
 -1       367 9.29756E-05-6.99965E-07 0.00000E+00
 -1       368 9.29760E-05-1.92707E-07-8.27181E-25
 -1       369 9.29779E-05 2.91515E-07 8.27181E-25
 -1       370 9.29793E-05 7.49951E-07-3.30872E-24
 -1       376 9.27655E-05-7.03431E-06 1.00974E-28
 -1       377 9.25578E-05-6.48076E-06 0.00000E+00
 -1       378 9.23522E-05-5.93286E-06-2.01948E-28
 -1       379 9.21473E-05-5.38693E-06 0.00000E+00
 -1       380 9.19418E-05-4.83930E-06-8.07794E-28
 -1       381 9.17342E-05-4.28628E-06 0.00000E+00
 -1       382 9.15233E-05-3.72421E-06 0.00000E+00
 -1       383 9.13076E-05-3.14942E-06-6.46235E-27
 -1       384 9.10857E-05-2.55822E-06 0.00000E+00
 -1       385 9.08563E-05-1.94693E-06 2.58494E-26
 -1       386 9.06180E-05-1.31189E-06 1.03398E-25
 -1       387 9.03696E-05-6.49356E-07-1.03398E-25
 -1       388 9.01095E-05 4.42915E-08 0.00000E+00
 -1       389 8.98373E-05 7.73082E-07 0.00000E+00
 -1       390 8.95502E-05 1.54027E-06 0.00000E+00
 -1       406 9.25390E-05 1.37633E-06 0.00000E+00
 -1       407 9.20207E-05 1.57275E-06-3.30872E-24
 -1       408 9.14329E-05 1.76901E-06 0.00000E+00
 -1       409 9.07755E-05 1.96481E-06-3.30872E-24
 -1       410 9.00485E-05 2.15972E-06 0.00000E+00
 -1       501 8.82061E-05-3.64056E-06 1.32349E-23
 -1       502 8.81643E-05-4.40301E-06-3.30872E-24
 -1       503 8.81125E-05-8.41040E-06 6.61744E-24
 -1       504 8.80537E-05-1.53167E-05 0.00000E+00
 -1       505 8.79825E-05-2.39687E-05 0.00000E+00
 -1       506 8.79078E-05-3.32106E-05-8.27181E-25
 -1       507 8.78393E-05-4.17230E-05 0.00000E+00
 -1       508 8.77859E-05-4.81880E-05 0.00000E+00
 -1       509 8.77458E-05-5.18402E-05-8.27181E-25
 -1       510 8.77122E-05-5.19184E-05 0.00000E+00
 -1       511 8.76734E-05-4.86177E-05-1.65436E-24
 -1       512 8.76192E-05-4.21385E-05 0.00000E+00
 -1       513 8.75499E-05-3.35332E-05 1.65436E-24
 -1       514 8.74689E-05-2.38577E-05 0.00000E+00
 -1       515 8.73911E-05-1.44513E-05-6.61744E-24
 -1       521 8.36640E-05-3.81480E-06 5.29396E-23
 -1       522 7.94969E-05-2.66639E-06-5.29396E-23
 -1       523 7.58398E-05-2.86006E-06-1.05879E-22
 -1       524 7.26032E-05-4.21710E-06 5.29396E-23
 -1       525 6.97083E-05-6.48996E-06 0.00000E+00
 -1       526 6.70470E-05-9.39586E-06 0.00000E+00
 -1       527 6.45036E-05-1.26192E-05 0.00000E+00
 -1       528 6.19556E-05-1.58311E-05 5.29396E-23
 -1       529 5.92807E-05-1.87032E-05 0.00000E+00
 -1       530 5.63622E-05-2.09220E-05-5.29396E-23
 -1       531 5.30943E-05-2.22068E-05 0.00000E+00
 -1       532 4.93884E-05-2.23178E-05 5.29396E-23
 -1       533 4.51732E-05-2.10744E-05 0.00000E+00
 -1       534 4.04142E-05-1.83509E-05 5.29396E-23
 -1       535 3.50725E-05-1.41059E-05 5.29396E-23
 -1       536 8.72728E-05-4.65619E-07 6.61744E-24
 -1       537 8.72527E-05 4.23345E-06 3.30872E-24
 -1       538 8.72374E-05 7.59638E-06 0.00000E+00
 -1       539 8.72275E-05 9.77669E-06 0.00000E+00
 -1       540 8.72195E-05 1.09278E-05 0.00000E+00
 -1       541 8.72126E-05 1.12035E-05 0.00000E+00
 -1       542 8.72057E-05 1.07573E-05 0.00000E+00
 -1       543 8.71986E-05 9.74324E-06 0.00000E+00
 -1       544 8.71911E-05 8.31503E-06 0.00000E+00
 -1       545 8.71832E-05 6.62662E-06-1.03398E-25
 -1       546 8.71751E-05 4.83195E-06-1.03398E-25
 -1       547 8.71673E-05 3.08499E-06-1.53481E-26
 -1       548 8.71597E-05 1.53964E-06 0.00000E+00
 -1       549 8.71531E-05 3.49821E-07 0.00000E+00
 -1       550 8.71468E-05-3.30528E-07 8.27181E-25
 -1       551 7.87195E-05-6.91644E-06-1.65436E-24
 -1       552 6.90732E-05-7.18291E-06 2.48154E-24
 -1       553 5.88358E-05-7.45483E-06-6.61744E-24
 -1       554 4.84750E-05-7.73148E-06 0.00000E+00
 -1       555 3.84589E-05-8.01132E-06-2.64698E-23
 -1       556 8.49072E-05-6.94117E-07 0.00000E+00
 -1       557 8.30355E-05 3.88984E-06 0.00000E+00
 -1       558 8.16397E-05 7.22473E-06 0.00000E+00
 -1       559 8.06656E-05 9.44825E-06-1.32349E-23
 -1       560 8.00594E-05 1.06981E-05 0.00000E+00
 -1       561 7.97675E-05 1.11130E-05 0.00000E+00
 -1       562 7.97371E-05 1.08319E-05 0.00000E+00
 -1       563 7.99153E-05 9.99427E-06 0.00000E+00
 -1       564 8.02498E-05 8.73942E-06 0.00000E+00
 -1       565 8.06880E-05 7.20697E-06 0.00000E+00
 -1       566 8.11779E-05 5.53660E-06 0.00000E+00
 -1       567 8.16671E-05 3.86807E-06 0.00000E+00
 -1       568 8.21036E-05 2.34105E-06 1.65436E-24
 -1       569 8.24354E-05 1.09509E-06 0.00000E+00
 -1       570 8.26103E-05 2.69631E-07-3.30872E-24
 -1       571 8.72706E-05-1.04887E-07 8.27181E-25
 -1       572 8.74012E-05 5.16623E-08-4.13590E-25
 -1       573 8.75329E-05 1.37458E-07-3.30872E-24
 -1       574 8.76650E-05 1.68944E-07 1.65436E-24
 -1       575 8.77973E-05 1.62634E-07 0.00000E+00
 -1       576 8.79296E-05 1.35145E-07 0.00000E+00
 -1       577 8.80620E-05 1.03104E-07 0.00000E+00
 -1       578 8.81944E-05 8.31499E-08 0.00000E+00
 -1       579 8.83268E-05 9.19250E-08 6.61744E-24
 -1       580 8.84592E-05 1.46072E-07 0.00000E+00
 -1       581 8.85916E-05 2.62233E-07-6.61744E-24
 -1       582 8.87240E-05 4.57036E-07 0.00000E+00
 -1       583 8.88563E-05 7.47095E-07 6.61744E-24
 -1       584 8.89886E-05 1.14886E-06 0.00000E+00
 -1       585 8.91207E-05 1.67869E-06 0.00000E+00
 -1       586 8.64644E-05-2.88225E-07-3.30872E-24
 -1       587 8.56768E-05-2.28546E-07-1.65436E-24
 -1       588 8.48372E-05-1.69025E-07 0.00000E+00
 -1       589 8.40030E-05-1.10040E-07-2.06795E-25
 -1       590 8.32319E-05-5.21494E-08 0.00000E+00
 -1       591 8.69537E-05-5.78799E-08 0.00000E+00
 -1       592 8.67818E-05 1.66736E-07 8.27181E-25
 -1       593 8.66286E-05 3.39231E-07-3.30872E-24
 -1       594 8.64899E-05 4.71372E-07 0.00000E+00
 -1       595 8.63616E-05 5.75000E-07 0.00000E+00
 -1       596 8.62395E-05 6.61860E-07 0.00000E+00
 -1       597 8.61193E-05 7.43689E-07-1.65436E-24
 -1       598 8.59965E-05 8.32214E-07-8.27181E-25
 -1       599 8.58668E-05 9.39159E-07 1.65436E-24
 -1       600 8.57259E-05 1.07624E-06 0.00000E+00
 -1       601 8.55692E-05 1.25518E-06 0.00000E+00
 -1       602 8.53926E-05 1.48771E-06-4.13590E-25
 -1       603 8.51916E-05 1.78555E-06 0.00000E+00
 -1       604 8.49624E-05 2.16050E-06-8.27181E-25
 -1       605 8.47007E-05 2.62429E-06-4.13590E-25
 -1       606 8.92997E-05 3.29344E-06 6.61744E-24
 -1       607 8.93431E-05 4.37534E-06 0.00000E+00
 -1       608 8.93853E-05 5.58910E-06 0.00000E+00
 -1       609 8.94269E-05 6.92536E-06 3.30872E-24
 -1       610 8.94682E-05 8.37469E-06 0.00000E+00
 -1       611 8.95093E-05 9.92752E-06 0.00000E+00
 -1       612 8.95501E-05 1.15742E-05 0.00000E+00
 -1       613 8.95909E-05 1.33053E-05-1.65436E-24
 -1       614 8.96315E-05 1.51111E-05 0.00000E+00
 -1       615 8.96720E-05 1.69820E-05 0.00000E+00
 -1       616 8.97124E-05 1.89085E-05 3.30872E-24
 -1       617 8.97526E-05 2.08810E-05 0.00000E+00
 -1       618 8.97928E-05 2.28898E-05 0.00000E+00
 -1       619 8.98329E-05 2.49255E-05 8.27181E-25
 -1       620 8.98728E-05 2.69783E-05 1.65436E-24
 -1       621 8.83962E-05 2.49207E-06 0.00000E+00
 -1       622 8.75435E-05 2.63293E-06-1.65436E-24
 -1       623 8.67064E-05 2.77374E-06-3.30872E-24
 -1       624 8.58967E-05 2.91419E-06 0.00000E+00
 -1       625 8.51265E-05 3.05402E-06 1.65436E-24
 -1       626 8.90169E-05 3.36050E-06-6.61744E-24
 -1       627 8.87268E-05 4.51384E-06 3.30872E-24
 -1       628 8.83875E-05 5.79800E-06 0.00000E+00
 -1       629 8.80045E-05 7.19803E-06 0.00000E+00
 -1       630 8.75835E-05 8.69897E-06-6.61744E-24
 -1       631 8.71303E-05 1.02857E-05 0.00000E+00
 -1       632 8.66503E-05 1.19431E-05 0.00000E+00
 -1       633 8.61495E-05 1.36560E-05 3.30872E-24
 -1       634 8.56335E-05 1.54094E-05 0.00000E+00
 -1       635 8.51078E-05 1.71881E-05 1.65436E-24
 -1       636 8.45783E-05 1.89770E-05 3.30872E-24
 -1       637 8.40506E-05 2.07610E-05-1.65436E-24
 -1       638 8.35302E-05 2.25250E-05 0.00000E+00
 -1       639 8.30227E-05 2.42538E-05 0.00000E+00
 -1       640 8.25330E-05 2.59322E-05-1.65436E-24
 -1       656 8.81344E-05 2.87964E-05 0.00000E+00
 -1       657 8.67375E-05 2.85432E-05 3.30872E-24
 -1       658 8.55772E-05 2.82910E-05 0.00000E+00
 -1       659 8.45085E-05 2.80389E-05 0.00000E+00
 -1       660 8.33858E-05 2.77861E-05-3.30872E-24
 -1       661 8.92819E-05 3.11518E-05 0.00000E+00
 -1       662 8.86349E-05 3.33244E-05 0.00000E+00
 -1       663 8.79713E-05 3.55406E-05-3.30872E-24
 -1       664 8.72973E-05 3.77868E-05 0.00000E+00
 -1       665 8.66174E-05 4.00488E-05 3.30872E-24
 -1       666 8.59370E-05 4.23127E-05 0.00000E+00
 -1       667 8.52611E-05 4.45646E-05-3.30872E-24
 -1       668 8.45950E-05 4.67904E-05 1.65436E-24
 -1       669 8.39441E-05 4.89762E-05 0.00000E+00
 -1       670 8.33135E-05 5.11080E-05-1.65436E-24
 -1       671 8.27085E-05 5.31717E-05 3.30872E-24
 -1       672 8.21343E-05 5.51531E-05 1.65436E-24
 -1       673 8.15963E-05 5.70380E-05-3.30872E-24
 -1       674 8.10989E-05 5.88115E-05 0.00000E+00
 -1       675 8.06488E-05 6.04597E-05-1.65436E-24
 -1       676 8.72393E-05 6.29098E-05 0.00000E+00
 -1       677 8.58263E-05 6.27191E-05 0.00000E+00
 -1       678 8.44178E-05 6.25285E-05 0.00000E+00
 -1       679 8.30161E-05 6.23388E-05-3.30872E-24
 -1       680 8.16236E-05 6.21490E-05-3.30872E-24
 -1       716 2.97578E-05-1.24228E-04 1.61559E-27
 -1       717 2.97292E-05-1.16501E-04-8.07794E-28
 -1       718 2.97005E-05-1.08774E-04 0.00000E+00
 -1       719 2.96719E-05-1.01047E-04 0.00000E+00
 -1       720 2.96432E-05-9.33197E-05 0.00000E+00
 -1       721 2.96145E-05-8.55926E-05 0.00000E+00
 -1       722 2.95858E-05-7.78657E-05 5.16988E-26
 -1       723 2.95570E-05-7.01386E-05-5.16988E-26
 -1       724 2.95281E-05-6.24115E-05-2.06795E-25
 -1       725 2.94989E-05-5.46846E-05-2.06795E-25
 -1       726 2.94695E-05-4.69575E-05-8.27181E-25
 -1       727 2.94384E-05-3.92305E-05 0.00000E+00
 -1       728 2.94070E-05-3.15035E-05-3.30872E-24
 -1       729 2.93673E-05-2.37766E-05 0.00000E+00
 -1       730 2.93304E-05-1.60496E-05-1.32349E-23
 -1       766 2.15229E-05-8.40378E-06 0.00000E+00
 -1       767 1.37960E-05-8.44071E-06 0.00000E+00
 -1       768 6.06905E-06-8.48048E-06 0.00000E+00
 -1       769-1.65798E-06-8.51196E-06-8.27181E-25
 -1       770-9.38494E-06-8.54327E-06 1.65436E-24
 -1       771 2.52210E-05-1.94649E-06-5.29396E-23
 -1       772 2.16489E-05 3.19000E-06 2.64698E-23
 -1       773 1.85122E-05 7.17679E-06 0.00000E+00
 -1       774 1.57741E-05 1.01093E-05-2.64698E-23
 -1       775 1.33978E-05 1.20846E-05-5.29396E-23
 -1       776 1.13451E-05 1.32020E-05 0.00000E+00
 -1       777 9.57744E-06 1.35625E-05 5.29396E-23
 -1       778 8.05567E-06 1.32688E-05-2.64698E-23
 -1       779 6.74055E-06 1.24243E-05 5.29396E-23
 -1       780 5.59244E-06 1.11343E-05 0.00000E+00
 -1       781 4.57165E-06 9.50433E-06 0.00000E+00
 -1       782 3.63838E-06 7.64106E-06 2.64698E-23
 -1       783 2.75279E-06 5.65138E-06 0.00000E+00
 -1       784 1.87573E-06 3.64274E-06-2.64698E-23
 -1       785 9.67662E-07 1.72248E-06-2.64698E-23
 -1       786 8.26878E-05 2.96111E-07 0.00000E+00
 -1       787 8.28018E-05 5.11975E-07-8.27181E-25
 -1       788 8.29155E-05 6.63375E-07 0.00000E+00
 -1       789 8.30303E-05 7.64539E-07 0.00000E+00
 -1       790 8.31452E-05 8.29596E-07 3.30872E-24
 -1       791 8.32603E-05 8.72616E-07-1.65436E-24
 -1       792 8.33755E-05 9.07626E-07-3.30872E-24
 -1       793 8.34907E-05 9.48641E-07 1.65436E-24
 -1       794 8.36059E-05 1.00969E-06 3.30872E-24
 -1       795 8.37211E-05 1.10482E-06 1.65436E-24
 -1       796 8.38363E-05 1.24817E-06-3.30872E-24
 -1       797 8.39513E-05 1.45394E-06 0.00000E+00
 -1       798 8.40663E-05 1.73645E-06 3.30872E-24
 -1       799 8.41809E-05 2.11016E-06 0.00000E+00
 -1       800 8.42955E-05 2.58970E-06 3.30872E-24
 -1       801 7.59889E-05 8.83465E-08 0.00000E+00
 -1       802 6.03852E-05 9.19436E-08 0.00000E+00
 -1       803 4.03785E-05 2.71384E-08-1.65436E-24
 -1       804 2.05743E-05-4.16084E-08-3.30872E-24
 -1       805 5.57730E-06-3.69448E-08 0.00000E+00
 -1       806 8.23494E-05 2.38739E-07-3.30872E-24
 -1       807 8.21290E-05 4.36097E-07 0.00000E+00
 -1       808 8.19188E-05 6.03519E-07 3.30872E-24
 -1       809 8.17157E-05 7.50385E-07-1.65436E-24
 -1       810 8.15167E-05 8.86038E-07 3.30872E-24
 -1       811 8.13184E-05 1.01978E-06 1.65436E-24
 -1       812 8.11172E-05 1.16088E-06-3.30872E-24
 -1       813 8.09098E-05 1.31863E-06-1.65436E-24
 -1       814 8.06926E-05 1.50230E-06 0.00000E+00
 -1       815 8.04622E-05 1.72115E-06-8.27181E-25
 -1       816 8.02152E-05 1.98446E-06 3.30872E-24
 -1       817 7.99480E-05 2.30148E-06 0.00000E+00
 -1       818 7.96573E-05 2.68147E-06-1.65436E-24
 -1       819 7.93396E-05 3.13362E-06-8.27181E-25
 -1       820 7.89919E-05 3.66713E-06 0.00000E+00
 -1       821 8.42696E-05 3.96103E-06-1.65436E-24
 -1       822 8.41237E-05 4.92832E-06 0.00000E+00
 -1       823 8.39779E-05 6.07214E-06 3.30872E-24
 -1       824 8.38306E-05 7.37244E-06 1.65436E-24
 -1       825 8.36829E-05 8.80886E-06 3.30872E-24
 -1       826 8.35348E-05 1.03607E-05 0.00000E+00
 -1       827 8.33866E-05 1.20069E-05 3.30872E-24
 -1       828 8.32381E-05 1.37265E-05 0.00000E+00
 -1       829 8.30896E-05 1.54979E-05 3.30872E-24
 -1       830 8.29411E-05 1.72997E-05 1.65436E-24
 -1       831 8.27926E-05 1.91104E-05 3.30872E-24
 -1       832 8.26444E-05 2.09085E-05-1.65436E-24
 -1       833 8.24963E-05 2.26723E-05 0.00000E+00
 -1       834 8.23496E-05 2.43805E-05 0.00000E+00
 -1       835 8.22028E-05 2.60117E-05 0.00000E+00
 -1       836 8.35964E-05 3.37132E-06 0.00000E+00
 -1       837 8.26284E-05 3.55837E-06 1.65436E-24
 -1       838 8.15745E-05 3.74516E-06 3.30872E-24
 -1       839 8.05061E-05 3.93115E-06-1.65436E-24
 -1       840 7.94949E-05 4.11694E-06 8.27181E-25
 -1       841 8.41383E-05 4.03135E-06 1.65436E-24
 -1       842 8.37488E-05 5.19206E-06 0.00000E+00
 -1       843 8.32763E-05 6.57373E-06 0.00000E+00
 -1       844 8.27573E-05 8.07834E-06 0.00000E+00
 -1       845 8.22065E-05 9.66769E-06-1.65436E-24
 -1       846 8.16380E-05 1.13037E-05-8.27181E-25
 -1       847 8.10579E-05 1.29707E-05 1.65436E-24
 -1       848 8.04718E-05 1.46535E-05 0.00000E+00
 -1       849 7.98829E-05 1.63437E-05 0.00000E+00
 -1       850 7.92942E-05 1.80334E-05 0.00000E+00
 -1       851 7.87087E-05 1.97143E-05 8.27181E-25
 -1       852 7.81294E-05 2.13782E-05 0.00000E+00
 -1       853 7.75627E-05 2.30088E-05-8.27181E-25
 -1       854 7.70135E-05 2.45894E-05 0.00000E+00
 -1       855 7.64986E-05 2.60800E-05 8.27181E-25
 -1       856 8.19579E-05 2.91557E-05 8.27181E-25
 -1       857 8.18451E-05 3.09950E-05 0.00000E+00
 -1       858 8.17319E-05 3.30296E-05 0.00000E+00
 -1       859 8.16175E-05 3.52261E-05 0.00000E+00
 -1       860 8.15027E-05 3.75510E-05 0.00000E+00
 -1       861 8.13875E-05 3.99707E-05 0.00000E+00
 -1       862 8.12720E-05 4.24515E-05 0.00000E+00
 -1       863 8.11565E-05 4.49595E-05 0.00000E+00
 -1       864 8.10410E-05 4.74612E-05 3.30872E-24
 -1       865 8.09256E-05 4.99227E-05-1.65436E-24
 -1       866 8.08104E-05 5.23103E-05 0.00000E+00
 -1       867 8.06954E-05 5.45903E-05 0.00000E+00
 -1       868 8.05808E-05 5.67291E-05 0.00000E+00
 -1       869 8.04669E-05 5.86933E-05-1.65436E-24
 -1       870 8.03534E-05 6.04495E-05 3.30872E-24
 -1       871 8.08531E-05 2.75306E-05 0.00000E+00
 -1       872 7.98219E-05 2.75140E-05 0.00000E+00
 -1       873 7.88975E-05 2.74969E-05 0.00000E+00
 -1       874 7.80060E-05 2.74792E-05-4.13590E-25
 -1       875 7.70735E-05 2.74606E-05-1.65436E-24
 -1       876 8.16616E-05 2.91777E-05 3.30872E-24
 -1       877 8.12119E-05 3.09570E-05 0.00000E+00
 -1       878 8.07144E-05 3.28631E-05 0.00000E+00
 -1       879 8.01765E-05 3.48792E-05 0.00000E+00
 -1       880 7.96038E-05 3.69879E-05 0.00000E+00
 -1       881 7.90029E-05 3.91719E-05 0.00000E+00
 -1       882 7.83800E-05 4.14143E-05-6.61744E-24
 -1       883 7.77415E-05 4.36981E-05 3.30872E-24
 -1       884 7.70937E-05 4.60063E-05 6.61744E-24
 -1       885 7.64431E-05 4.83221E-05 0.00000E+00
 -1       886 7.57960E-05 5.06284E-05 0.00000E+00
 -1       887 7.51586E-05 5.29082E-05 3.30872E-24
 -1       888 7.45373E-05 5.51448E-05 0.00000E+00
 -1       889 7.39376E-05 5.73206E-05 0.00000E+00
 -1       890 7.33668E-05 5.94191E-05-3.30872E-24
 -1       891 7.90262E-05 6.18745E-05 0.00000E+00
 -1       892 7.79509E-05 6.17831E-05-1.65436E-24
 -1       893 7.69048E-05 6.16918E-05 3.30872E-24
 -1       894 7.57759E-05 6.16005E-05-8.27181E-25
 -1       895 7.44521E-05 6.15090E-05-1.65436E-24
 -1       956 7.84545E-05 5.17240E-06 3.30872E-24
 -1       957 7.82939E-05 6.21305E-06 8.27181E-25
 -1       958 7.81325E-05 7.39576E-06-3.30872E-24
 -1       959 7.79707E-05 8.70246E-06 1.65436E-24
 -1       960 7.78087E-05 1.01151E-05 0.00000E+00
 -1       961 7.76464E-05 1.16155E-05 1.65436E-24
 -1       962 7.74840E-05 1.31854E-05 3.30872E-24
 -1       963 7.73216E-05 1.48067E-05-1.65436E-24
 -1       964 7.71591E-05 1.64610E-05 0.00000E+00
 -1       965 7.69966E-05 1.81302E-05 0.00000E+00
 -1       966 7.68341E-05 1.97960E-05 6.61744E-24
 -1       967 7.66716E-05 2.14402E-05 3.30872E-24
 -1       968 7.65094E-05 2.30445E-05 0.00000E+00
 -1       969 7.63474E-05 2.45908E-05 3.30872E-24
 -1       970 7.61860E-05 2.60610E-05 0.00000E+00
 -1       971 7.58311E-05 2.88459E-05 0.00000E+00
 -1       972 7.56314E-05 3.04655E-05 3.30872E-24
 -1       973 7.54312E-05 3.22722E-05 6.61744E-24
 -1       974 7.52302E-05 3.42411E-05 0.00000E+00
 -1       975 7.50288E-05 3.63475E-05 0.00000E+00
 -1       976 7.48272E-05 3.85664E-05 0.00000E+00
 -1       977 7.46253E-05 4.08727E-05 0.00000E+00
 -1       978 7.44232E-05 4.32414E-05 3.30872E-24
 -1       979 7.42211E-05 4.56474E-05 0.00000E+00
 -1       980 7.40190E-05 4.80654E-05 3.30872E-24
 -1       981 7.38170E-05 5.04704E-05 0.00000E+00
 -1       982 7.36153E-05 5.28371E-05 0.00000E+00
 -1       983 7.34139E-05 5.51404E-05 0.00000E+00
 -1       984 7.32136E-05 5.73552E-05 3.30872E-24
 -1       985 7.30139E-05 5.94565E-05-3.30872E-24
 -3
    1PSTEP                        10           5           1          
  100CL  105 1.000000000         507                     0    5           1
 -4  STRESS      6    1
 -5  SXX         1    4    1    1
 -5  SYY         1    4    2    2
 -5  SZZ         1    4    3    3
 -5  SXY         1    4    1    2
 -5  SYZ         1    4    2    3
 -5  SZX         1    4    3    1
 -1         1-2.34069E+06-1.08025E+06-4.59429E+05-1.50458E+06 5.33570E-10 1.97712E-08
 -1         2-1.37489E+05-1.21674E+06 3.16339E+03 4.24148E+04-1.94268E-09 3.69123E-08
 -1         3-1.23381E+01-1.41920E+06 8.03315E+02-6.57806E+02-2.02505E-12-1.36097E-08
 -1         5-3.39253E+01 5.63001E+05 1.82635E+01-4.25493E+00 2.10171E-10 2.57514E-08
 -1         8-3.25173E+06-1.08795E+06-5.02673E+05-1.11100E+06 1.98634E-09 1.12050E-09
 -1         9-3.44435E+06-1.42953E+06-6.31263E+05-6.12850E+05-8.93342E-09 6.46105E-09
 -1        10-5.18754E+03-1.56941E+06-6.09368E+03-5.55378E+03-2.17779E-09-5.66067E-09
 -1        11 3.13992E+00-5.88401E+00-2.15830E+00 8.94980E-01 1.24637E-09 2.40022E-09
 -1        12-6.06155E+03 3.27101E+05-4.77136E+04 2.70629E+01 8.11834E-09 5.86546E-09
 -1        15 4.01122E+03 2.16923E+03 1.24491E+04 1.15665E+01 1.29603E-10 7.65287E-09
 -1        16-4.05135E+06-1.09957E+06-4.04938E+05-1.32862E+06-1.65346E-09 1.39698E-09
 -1        17-7.46407E+05-5.86964E+05-7.72759E+04-5.16057E+05 3.09713E-09 8.58563E-10
 -1        18 4.13379E+04 1.25935E+04-2.07545E+04-1.34626E+05 9.23592E-10 5.69071E-09
 -1        19 1.33347E+05 1.52562E+05-1.64269E+04 1.87678E+04 3.46396E-09-1.82263E-09
 -1        20 1.00042E+05-2.02891E+05-3.78256E+04 7.95322E+04-2.21310E-10-5.69829E-09
 -1        21-2.05963E+02-5.43634E+05-2.38720E+03-7.30737E+02 6.67276E-09 4.84397E-09
 -1        23 9.89991E-01 4.71661E-01 1.81364E+01 3.84549E-03 1.77099E-08 9.78276E-09
 -1        24-2.09113E+06-6.34031E+05 7.39351E+04-1.06972E+06-1.26311E-09 8.73115E-11
 -1        25 3.10264E+04 7.17323E+04 3.70028E+04-5.74910E+05 9.58971E-10 3.11920E-09
 -1        26-4.85828E+03 1.24494E+05-4.34725E+03-2.28245E+04-4.86191E-10-3.73283E-09
 -1        27-4.26690E+04-1.21673E+05-5.56026E+04 1.03943E+05 7.45119E-09-9.09495E-11
 -1        28-1.11006E+04-1.65707E+05-2.43747E+03 5.81409E+04 1.01468E-08-1.01758E-09
 -1        31 6.78460E+03 3.66909E+03 2.10565E+04 2.31126E+01 1.35154E-08 1.18733E-09
 -1        32-1.25467E+06-1.09806E+05 3.66381E+05-1.77829E+06-1.22964E-08 1.37811E-09
 -1        33-1.86364E+05 1.39068E+05 4.38829E+04-5.54898E+04-5.27355E-10 1.23206E-09
 -1        34-2.10465E+05-6.40979E+03 2.07255E+04 7.56686E+04 3.22115E-09-2.03399E-08
 -1        35-4.04901E+04-5.52227E+04-3.04611E+03 9.33176E+04 1.08267E-08-1.32665E-09
 -1        36 1.05662E+04-4.78220E+04 1.10324E+05-1.16586E-07-3.74468E-11-6.41739E-09
 -1        37 5.84767E+04 5.53569E+04 7.80897E+04-1.04961E-07-4.94766E-10-1.99216E-08
 -1        38 2.89963E+04-7.51989E+03 2.85638E+04-3.21311E-07-4.82448E-10 3.88354E-09
 -1        39 3.69813E+04 8.70350E+03 1.80014E+04 1.04008E-06 8.69517E-11 1.15106E-08
 -1        40 3.20448E+04-1.18181E+03 7.39381E+03-5.55307E-08 6.78303E-11 6.56291E-09
 -1        41 3.34344E+04 1.39662E+03 4.49861E+03-1.84164E-06-2.22263E-10-3.34722E-09
 -1        42 3.25425E+04-2.14600E+02 2.34910E+03 1.65390E-07 8.87838E-11 2.94710E-09
 -1        43 3.29480E+04 4.48689E+02 2.15055E+03 1.93023E-06 4.72399E-11-3.07295E-09
 -1        44 3.25312E+04-2.34045E+02 2.52152E+03-2.35202E-06-1.45414E-11 4.35290E-09
 -1        45 3.35238E+04 1.56339E+03 4.99810E+03 1.26183E-06 7.23588E-11 1.79293E-08
 -1        46 3.19667E+04-1.32911E+03 8.29176E+03-2.36229E-07 2.10927E-10 3.64116E-09
 -1        47 3.75212E+04 9.79520E+03 2.02463E+04 5.64370E-06 2.70470E-10-7.47400E-09
 -1        48 2.85348E+04-8.46406E+03 3.21441E+04 1.45442E-06-1.06121E-10-1.03119E-08
 -1        49 6.17171E+04 6.23090E+04 8.78932E+04-1.55722E-07 1.76960E-09-1.69512E-08
 -1        50 7.79248E+03-5.38268E+04 1.24186E+05 1.46548E-07 3.84919E-09 1.60217E-08
 -1        51 2.87335E+04-6.40175E+05 5.51727E+04-1.78595E+06-5.82077E-11-4.33647E-09
 -1        52 2.16306E+04-6.46937E+05 3.95207E+04-1.99097E+06-4.36557E-10-1.13941E-08
 -1        53 2.14718E+04-6.73161E+05 3.84062E+04-1.78065E+06 5.23869E-10 2.14786E-08
 -1        54 5.14819E+04-6.74309E+05 6.75901E+04-1.99626E+06 9.16771E-10 3.63798E-09
 -1        55 1.02024E+05-7.00170E+05 1.26679E+05-1.77922E+06-2.32831E-10 4.92582E-09
 -1        56-7.56710E+06-7.09811E+05-6.64940E+05-2.67552E+06-4.19277E-09 1.39116E-08
 -1        57-6.91039E+06-1.79504E+06-3.83009E+05-3.34127E+06-5.37602E-09 2.73576E-09
 -1        58-7.78218E+06-6.63213E+05-1.48933E+05-2.35017E+06-8.90941E-09-7.74889E-09
 -1        59-6.74850E+06-1.75723E+06-7.82736E+04-3.72289E+06 6.89215E-09-9.79435E-09
 -1        60-7.79981E+06-6.90792E+05-3.72606E+04-2.34371E+06-1.27329E-10-9.78042E-09
 -1        61-6.75094E+06-1.53339E+06 1.39852E+04-3.39615E+06-2.92748E-08 1.14605E-08
 -1        62-7.70793E+06-9.38061E+05-5.43669E+04-2.62909E+06-5.16593E-10 1.52795E-09
 -1        63-7.07755E+06-1.02208E+06 5.16999E+04-2.69521E+06-4.91127E-10 1.76515E-08
 -1        64-7.40186E+06-1.25230E+06-5.62066E+04-2.98815E+06 2.59024E-09 2.07947E-08
 -1        65-7.80090E+06-4.64033E+05 1.80204E+04-2.16314E+06 1.83063E-08-2.61025E-09
 -1        66-7.05193E+06-1.44765E+06-3.72041E+04-3.20757E+06 2.77068E-08-1.93904E-08
 -1        67-8.26789E+06-2.32303E+05-7.17904E+04-1.98564E+06 3.86862E-08-3.08737E-08
 -1        68-7.00791E+06-1.43381E+06-1.36158E+05-3.22595E+06 1.18162E-08-1.35042E-08
 -1        69-8.03862E+06-6.52715E+05-3.54997E+05-2.07772E+06-1.92776E-08 9.35324E-09
 -1        70-7.22422E+06-1.07219E+06-6.17367E+05-3.06519E+06-6.56291E-09-8.73115E-11
 -1        86 5.27289E+04-2.82167E+06-1.39287E+05 6.58322E+03 1.16706E-08 5.84191E-09
 -1        87-6.90651E+04-2.81163E+06-9.71761E+04 3.98092E+04-3.11593E-09-9.78415E-09
 -1        88 1.50657E+04-2.80646E+06-5.64793E+04 5.15819E+04 1.69448E-08-7.64272E-09
 -1        89-5.74926E+04-2.83075E+06-8.42106E+04 3.42609E+04-2.03772E-09 7.19410E-10
 -1        90 4.12132E+04-2.80265E+06-1.02012E+05 1.21341E+04 9.47693E-09 1.70122E-08
 -1       121-1.50431E+02-1.41978E+06 8.77997E+02 3.28748E+02-3.54703E-10-7.26322E-09
 -1       122 2.92745E+02-1.41901E+06 1.76884E+03-1.30957E+03-6.68336E-10-8.24002E-09
 -1       123-3.94642E+02-1.41998E+06 2.95543E+03 9.79981E+02-9.06766E-10 6.70298E-09
 -1       124 3.67424E+03-1.41706E+06 7.41934E+03-2.68824E+03-5.00734E-10 8.72387E-09
 -1       125-2.84763E+03-1.42177E+06 1.13927E+04 1.70854E+03-1.59889E-09 1.02755E-08
 -1       191-3.52217E+01 5.63043E+05 2.06429E+01 2.11870E+00 3.71358E-10 5.42059E-10
 -1       192-2.76444E+01 5.63004E+05 4.04913E+01-2.38370E+01 4.57590E-10-3.01952E-08
 -1       193-1.55111E+01 5.63040E+05 7.52385E+01 2.16759E+01 5.81167E-10-4.25825E-09
 -1       194 5.11937E+01 5.63028E+05 1.71166E+02-2.03609E+02 4.07454E-10-6.86850E-09
 -1       195 2.08431E+02 5.63014E+05 3.47058E+02 1.82037E+02 7.05768E-10-4.97312E-09
 -1       251-5.07649E+06 1.25154E+05-2.93396E+05-2.58553E+04-4.79542E-09-1.74623E-09
 -1       252-5.17681E+06-1.45217E+05-2.03139E+05 2.18468E+04-5.29489E-09 3.67436E-10
 -1       253-5.11452E+06 1.99976E+04-7.54687E+04 1.38000E+04 1.59452E-09-4.90763E-09
 -1       254-5.13176E+06-2.32109E+04-4.70668E+04-3.47680E+03 2.59053E-09 1.76406E-08
 -1       255-5.12116E+06 3.19562E+03-1.94161E+04-5.26222E+02-4.72679E-09 7.34144E-09
 -1       256-5.12387E+06-3.78027E+03-1.17119E+04 6.00572E+03-3.02935E-09 4.10546E-09
 -1       257-5.12229E+06 5.76627E+02-6.03591E+03 4.31695E+03-9.48007E-07 8.28163E-09
 -1       258-5.12273E+06-1.16586E+03-5.35914E+03 1.61635E+03-1.90747E-06 1.88543E-08
 -1       259-5.12227E+06 5.82545E+02-6.12992E+03 3.86323E+03-1.25927E-05-1.56788E-08
 -1       260-5.12400E+06-3.83999E+03-1.19975E+04 5.53468E+03-2.31131E-05-1.38834E-08
 -1       261-5.12104E+06 3.24996E+03-1.99002E+04 3.98556E+02-1.17450E-05-4.86489E-08
 -1       262-5.13275E+06-2.37430E+04-4.84295E+04-2.03507E+03-1.10526E-08-2.91084E-08
 -1       263-5.11366E+06 2.04793E+04-7.73400E+04 1.14335E+04-4.87072E-09-5.61340E-09
 -1       264-5.18401E+06-1.49578E+05-2.09751E+05 1.77656E+04-7.25282E-09-1.78989E-09
 -1       265-5.07020E+06 1.29060E+05-3.00086E+05-1.94064E+04-2.56137E-08 1.92085E-09
 -1       266-7.05154E+04-3.25913E+04 1.62830E+05-2.38138E+02-5.09317E-11-1.27808E-08
 -1       267 8.16691E+04 3.80851E+04 1.15463E+05 2.73679E+02-1.09139E-11-1.33421E-09
 -1       268-1.11282E+04-5.45128E+03 4.27391E+04-3.56474E+01-1.03682E-10-5.01454E-09
 -1       269 1.31364E+04 6.53824E+03 2.79299E+04 4.14320E+01-8.59472E-11 3.11428E-09
 -1       270-2.00531E+03-1.08455E+03 1.34098E+04-5.78176E+00 4.91127E-11-1.45093E-09
 -1       271-7.98673E+06-9.80019E+05-6.41688E+05-3.11761E+06-5.96629E-10-1.65892E-09
 -1       272-8.26884E+06-1.41945E+06-4.15979E+05-3.05535E+06 2.49656E-09 1.36788E-08
 -1       273-8.11543E+06-1.14083E+06-1.51313E+05-3.07917E+06 3.29237E-10 4.12547E-09
 -1       274-8.11207E+06-1.22975E+06-8.53575E+04-3.11466E+06 1.63482E-09-1.49703E-09
 -1       275-8.14011E+06-1.15113E+06-3.52254E+04-3.06510E+06 2.23372E-09-1.46247E-08
 -1       276-8.07950E+06-1.22107E+06-1.88674E+04-3.13774E+06 8.74934E-10-4.61023E-09
 -1       277-8.14848E+06-1.14682E+06-9.39863E+03-3.05747E+06-5.81167E-10 1.13278E-09
 -1       278-8.06999E+06-1.22652E+06-7.23843E+03-3.14800E+06-2.54931E-09-2.84169E-09
 -1       279-8.15030E+06-1.14501E+06-8.28295E+03-3.05544E+06-1.34406E-10-5.96401E-09
 -1       280-8.07291E+06-1.22715E+06-1.58880E+04-3.14596E+06 3.12866E-10-5.82259E-09
 -1       281-8.14547E+06-1.14642E+06-2.91277E+04-3.05937E+06 2.58660E-09 1.83900E-09
 -1       282-8.09711E+06-1.23699E+06-7.05779E+04-3.12991E+06-2.11980E-09 9.63337E-09
 -1       283-8.12569E+06-1.13741E+06-1.24949E+05-3.07034E+06-3.91083E-11-2.56114E-09
 -1       284-8.22640E+06-1.39335E+06-3.43517E+05-3.08008E+06-3.29146E-09 3.59432E-09
 -1       285-8.01854E+06-1.00580E+06-5.30210E+05-3.10324E+06-2.25555E-09 2.93949E-09
 -1       301 5.82670E+04-2.56320E+04 1.90566E+05-1.50336E+04-2.14641E-09 1.06170E-08
 -1       302 2.36710E+04 1.50996E+04 1.27738E+05-1.95949E+04-5.74528E-09 2.02335E-08
 -1       303 3.95656E+03-1.12282E+04 1.14409E+05-1.54284E+04-2.33740E-09-2.88946E-09
 -1       304 4.10658E+04 2.94454E+04 1.85240E+05-1.93898E+04-7.13771E-09 4.01587E-09
 -1       305 1.05126E+05-3.98252E+04 3.25704E+05-1.49964E+04-2.27010E-09 2.87764E-09
 -1       306-4.06575E+06-5.19987E+05-2.55421E+05-1.57852E+06-1.28784E-09 3.94357E-09
 -1       307-4.12641E+06-7.42417E+05-1.64942E+05-1.60959E+06 5.27280E-09 4.15275E-09
 -1       308-4.11831E+06-5.81619E+05-6.03756E+04-1.56174E+06-1.87265E-09 7.15227E-09
 -1       309-4.06410E+06-6.68880E+05-3.39407E+04-1.63584E+06 1.71440E-10 6.93808E-09
 -1       310-4.12830E+06-5.85285E+05-1.41238E+04-1.55604E+06 4.03179E-09 7.38055E-09
 -1       311-4.05252E+06-6.64730E+05-7.67242E+03-1.64470E+06 7.43694E-09 1.27511E-09
 -1       312-4.13084E+06-5.84296E+05-4.04218E+03-1.55393E+06 1.59616E-10 9.17127E-09
 -1       313-4.05092E+06-6.64767E+05-3.58061E+03-1.64618E+06-3.60967E-09 4.86432E-09
 -1       314-4.13010E+06-5.85046E+05-4.73320E+03-1.55474E+06-4.68162E-09-8.75343E-09
 -1       315-4.05505E+06-6.62394E+05-9.48347E+03-1.64114E+06 2.96723E-09 1.06802E-08
 -1       316-4.12596E+06-5.87236E+05-1.78707E+04-1.55840E+06 6.91216E-11 1.27875E-08
 -1       317-4.07070E+06-6.66700E+05-4.29275E+04-1.62882E+06 2.83762E-10-8.10633E-09
 -1       318-4.11322E+06-5.82629E+05-7.65022E+04-1.56570E+06 2.22826E-10-2.43017E-09
 -1       319-4.14944E+06-7.60416E+05-2.08939E+05-1.59659E+06-1.77545E-09-5.92627E-09
 -1       320-4.04731E+06-5.03664E+05-3.23404E+05-1.58612E+06 4.91127E-10-2.21189E-09
 -1       336 4.41954E+03-1.71566E+06-1.93629E+04 3.83986E+03-2.40971E-09-4.14730E-10
 -1       337-8.29348E+03-1.72262E+06-1.99169E+04-9.41270E+03 9.08585E-10-5.77711E-09
 -1       338 2.59108E+03-1.71668E+06-2.17738E+04 5.56455E+03-3.70437E-09-2.03727E-10
 -1       339-2.53161E+04-1.73230E+06-4.74075E+04-1.27237E+04 1.69894E-09 4.61478E-09
 -1       340 1.96806E+04-1.70625E+06-6.98231E+04 7.13574E+03-4.23825E-09 7.09406E-09
 -1       356-1.01656E+00 3.80633E-01-3.22270E+00-2.44745E+00-9.43326E-07-7.50590E-09
 -1       357-1.74474E+00-7.05385E-01-6.77522E+00 9.84796E+00-1.88389E-06-6.83599E-09
 -1       358-8.31425E-01 3.30244E-01-1.28344E+01-2.44698E+00-1.10586E-06 2.46843E-09
 -1       359-3.29179E+00-2.23221E+00-2.69294E+01 9.84768E+00-3.25981E-07 3.13102E-09
 -1       360 5.29811E-01 1.90759E+00-5.14461E+01-2.44717E+00 3.66398E-07 6.81048E-09
 -1       361-1.18997E+01-1.45088E+01-1.10022E+02 9.84933E+00 1.05872E-06-4.76952E-09
 -1       362 7.77674E+00 1.26062E+01-2.05959E+02-2.44863E+00 1.39910E-06-3.56074E-10
 -1       363-5.93514E+01-9.46501E+01-4.53648E+02 9.86567E+00 1.73687E-06 2.43813E-09
 -1       364 4.79837E+01 8.20398E+01-8.21522E+02-2.46351E+00 1.70127E-06 2.94295E-09
 -1       365-3.30847E+02-6.09934E+02-1.89332E+03 9.97997E+00 1.66861E-06 1.26026E-08
 -1       366 2.79292E+02 5.27820E+02-3.25742E+03-2.56288E+00 1.28251E-06 3.15390E-09
 -1       367-1.93086E+03-3.90033E+03-8.04158E+03 1.06809E+01 8.98473E-07-1.13608E-08
 -1       368 1.64826E+03 3.37192E+03-1.27920E+04-3.16410E+00 2.94440E-07 6.94672E-09
 -1       369-1.15711E+04-2.48230E+04-3.50072E+04 1.46806E+01-3.15907E-07-2.10002E-09
 -1       370 9.92351E+03 2.14473E+04-4.94343E+04-6.55965E+00-1.52853E-07 1.91358E-08
 -1       376-1.35051E+00 2.26251E+00-1.44552E+00 2.29576E+00 3.59718E-06-1.34896E-06
 -1       377 7.91692E+00-8.16176E+00-2.58809E+00-8.55727E+00 7.18495E-06-2.70109E-06
 -1       378-1.26328E+00 2.21551E+00-4.64641E+00 2.35383E+00 1.47440E-06-5.50279E-07
 -1       379 6.98174E+00-9.12760E+00-1.03431E+01-8.54343E+00-4.24371E-06 1.60359E-06
 -1       380-4.15025E-01 3.22868E+00-2.00255E+01 2.28183E+00-1.11141E-05 4.17298E-06
 -1       381 1.48140E+00-1.68608E+01-4.63647E+01-7.56611E+00-1.79783E-05 6.76565E-06
 -1       382 4.23746E+00 9.94803E+00-8.78290E+01 1.37695E+00-2.45988E-05 9.23899E-06
 -1       383-3.06836E+01-6.66043E+01-2.10634E+02 1.25090E-01-3.12151E-05 1.17209E-05
 -1       384 3.17505E+01 5.29666E+01-3.84128E+02-5.40655E+00-3.71737E-05 1.39543E-05
 -1       385-2.26062E+02-3.84684E+02-9.68062E+02 5.38154E+01-4.31252E-05 1.61992E-05
 -1       386 1.99618E+02 3.27990E+02-1.67079E+03-5.22957E+01-4.76667E-05 1.78997E-05
 -1       387-1.41556E+03-2.40868E+03-4.51016E+03 4.19106E+02-5.21895E-05 1.96002E-05
 -1       388 1.22129E+03 2.07670E+03-7.21307E+03-3.70563E+02-5.18059E-05 1.94586E-05
 -1       389-8.72947E+03-1.52562E+04-2.13874E+04 2.84196E+03-5.13857E-05 1.93207E-05
 -1       390 7.51471E+03 1.31739E+04-3.07808E+04-2.47399E+03-2.57134E-05 9.64532E-06
 -1       406 2.70281E+02 5.62989E+05 1.15835E+03-1.92910E+02 1.23146E-09-7.48332E-09
 -1       407 4.38864E+02 5.63245E+05 2.31995E+03 2.03845E+02 2.91266E-10-1.22418E-09
 -1       408 1.17226E+03 5.62846E+05 4.56862E+03-9.99252E+00 1.55046E-09-1.35824E-08
 -1       409 4.91274E+03 5.64682E+05 1.02685E+04-1.58584E+02-6.77574E-11-2.04436E-08
 -1       410 1.41424E+04 5.61547E+05 2.09529E+04 1.87984E+02 1.49157E-09-7.33871E-09
 -1       501-1.54556E+05-1.17504E+05 2.68734E+05 4.08219E+02 3.25258E-09-2.76486E-09
 -1       502-2.06154E+04 1.36158E+05 1.93185E+05-1.77467E+03-7.26410E-10 7.89441E-10
 -1       503-1.07160E+05-1.84401E+04 6.90511E+04 1.29950E+03-3.29885E-09 5.89353E-10
 -1       504-7.95167E+04 2.13253E+04 4.47189E+04-3.40166E+03-1.04872E-09-4.17458E-10
 -1       505-9.57414E+04-2.60818E+03 1.78873E+04 2.03484E+03 9.33725E-09-7.91988E-09
 -1       506-9.04402E+04 3.10200E+03 1.08162E+04-3.82616E+03 1.39510E-08-1.01300E-08
 -1       507-9.64416E+04-3.91822E+02 4.43137E+03 1.72508E+03 1.16209E-08-3.84853E-09
 -1       508-8.56931E+04 8.37039E+02 4.78582E+03-2.25183E+03 1.15508E-09-1.40284E-08
 -1       509-1.00486E+05-4.15502E+02 1.17810E+03 4.60761E+02 3.96916E-09-2.42774E-09
 -1       510-8.25298E+04 1.47461E+03 5.78228E+03 5.56648E+02 4.21666E-09 3.25144E-11
 -1       511-9.94533E+04-9.13566E+02 4.38307E+03-1.08247E+03-7.07774E-09 9.43987E-09
 -1       512-8.58627E+04 6.12133E+03 1.36329E+04 3.01178E+03-1.31320E-08 4.11728E-09
 -1       513-9.71871E+04-5.02606E+03 1.97963E+04-1.99428E+03-5.26651E-09 1.13814E-08
 -1       514-7.46486E+04 3.83917E+04 5.44898E+04 3.75883E+03-6.92515E-09 1.42963E-08
 -1       515-1.10802E+05-3.32762E+04 7.62371E+04-1.83039E+03-4.31996E-09 1.15324E-09
 -1       521-8.06615E+06-1.01168E+06-5.35100E+05-3.12222E+06-3.41970E-09 6.69388E-10
 -1       522-8.26727E+06-1.41096E+06-3.46606E+05-3.10825E+06 1.81171E-09-9.09495E-09
 -1       523-8.17491E+06-1.14376E+06-1.26083E+05-3.08828E+06-2.19416E-09 2.91038E-10
 -1       524-8.13642E+06-1.25381E+06-7.11737E+04-3.15948E+06-1.10390E-09 2.08456E-09
 -1       525-8.19489E+06-1.15278E+06-2.93114E+04-3.07718E+06 5.32054E-10 1.03500E-09
 -1       526-8.11267E+06-1.24328E+06-1.58761E+04-3.17505E+06 4.40014E-09-4.49882E-09
 -1       527-8.19914E+06-1.15199E+06-8.04474E+03-3.07391E+06-3.37315E-09-1.38130E-11
 -1       528-8.11121E+06-1.24090E+06-6.61144E+03-3.17504E+06-5.57657E-09 4.17322E-09
 -1       529-8.19625E+06-1.15503E+06-8.16212E+03-3.07720E+06-8.40191E-09-6.15728E-09
 -1       530-8.12263E+06-1.23245E+06-1.58946E+04-3.16169E+06-2.95722E-09 1.19508E-09
 -1       531-8.18671E+06-1.16128E+06-2.96710E+04-3.08645E+06-3.39332E-09-1.17143E-09
 -1       532-8.15527E+06-1.23405E+06-7.14874E+04-3.13558E+06-1.46611E-09 8.40373E-09
 -1       533-8.16281E+06-1.15594E+06-1.26942E+05-3.10185E+06-1.98338E-09-3.88536E-09
 -1       534-8.29310E+06-1.38639E+06-3.48473E+05-3.07844E+06 7.02130E-10 7.38510E-10
 -1       535-8.05173E+06-1.02459E+06-5.38032E+05-3.13783E+06-6.94854E-09 2.61934E-09
 -1       536-3.42696E+04-2.73208E+04 8.44725E+04-6.21503E+03 1.73895E-09-2.57933E-09
 -1       537 1.97359E+03 3.16717E+04 5.67795E+04-6.89281E+04-7.91351E-09-2.54659E-11
 -1       538-2.08080E+04-3.65581E+03 2.17981E+04-6.06857E+03-2.51021E-10-5.92354E-09
 -1       539-1.45860E+04 3.47089E+03 1.29184E+04-6.91198E+04 4.87125E-09-1.29767E-08
 -1       540-1.90185E+04-6.11991E+02 5.44602E+03-6.02024E+03-3.87445E-10 1.13914E-09
 -1       541-1.76004E+04 3.63134E+02 3.06139E+03-6.91904E+04 1.82263E-09 1.09656E-08
 -1       542-1.87561E+04-1.22742E+02 1.28778E+03-6.00236E+03-1.18234E-09-3.74393E-09
 -1       543-1.85395E+04 1.61137E+02 6.23976E+02-6.92194E+04-1.12050E-09-9.26730E-09
 -1       544-1.87039E+04 9.11295E+00 8.36680E+01-5.99189E+03 1.62436E-09 2.01760E-09
 -1       545-1.89334E+04 1.36451E+02-3.77722E+02-6.92325E+04 2.59661E-10 1.29448E-08
 -1       546-1.86485E+04 9.96485E+01-9.53205E+02-5.98877E+03-3.35717E-10 8.62156E-09
 -1       547-1.92657E+04-5.25634E+02-2.33940E+03-6.92229E+04-1.13323E-09-8.48104E-10
 -1       548-1.83192E+04 5.88013E+02-4.12828E+03-6.00177E+03-2.43926E-09 3.12866E-10
 -1       549-2.16968E+04-5.97631E+03-1.05379E+04-6.91150E+04-1.59798E-09-5.22277E-09
 -1       550-1.58262E+04 4.82975E+03-1.59910E+04-6.09680E+03-9.09495E-11-3.69982E-09
 -1       551 2.55067E+04-6.36105E+05 4.32989E+04-1.02057E+06-4.02360E-09-4.73665E-09
 -1       552 2.93962E+04-6.36109E+05 4.62368E+04-1.28545E+06-5.52245E-09-4.54020E-09
 -1       553 2.21542E+04-6.42897E+05 6.62686E+04-1.01827E+06-5.12227E-09 4.51291E-09
 -1       554 5.75270E+04-6.16277E+05 1.35229E+05-1.28572E+06-5.60249E-09 5.00586E-09
 -1       555 1.00149E+05-6.61571E+05 2.52548E+05-1.01951E+06-3.36149E-09-7.28323E-09
 -1       556-1.15980E+05-2.08155E+05 5.70892E+04-3.13720E+05 5.13683E-09-1.09285E-08
 -1       557-5.48798E+04-2.62187E+05 2.94942E+04-3.61979E+05 1.74696E-08 5.69071E-09
 -1       558-1.17714E+05-2.18578E+05 1.19084E+04-3.06497E+05 6.92671E-09 3.05226E-09
 -1       559-6.44655E+04-2.69620E+05 6.04622E+03-3.66524E+05 4.11092E-09 8.02174E-10
 -1       560-1.20398E+05-2.17005E+05 2.46519E+03-3.08093E+05 1.89175E-10-4.71391E-09
 -1       561-6.80874E+04-2.68602E+05 1.30920E+03-3.68938E+05 1.76078E-09-3.50610E-09
 -1       562-1.22470E+05-2.15674E+05 4.52184E+02-3.09527E+05 6.91216E-10 5.17321E-09
 -1       563-7.03154E+04-2.67644E+05 2.24632E+02-3.70426E+05 7.56700E-10 1.63961E-08
 -1       564-1.23727E+05-2.14882E+05-9.45314E+01-3.10390E+05-4.80213E-10 9.00400E-11
 -1       565-7.14510E+04-2.67164E+05-3.80889E+02-3.71164E+05-3.95994E-09-4.35102E-09
 -1       566-1.24118E+05-2.14602E+05-9.74159E+02-3.10676E+05-1.62891E-09-1.72076E-09
 -1       567-7.16657E+04-2.67211E+05-2.22032E+03-3.71137E+05-7.32962E-09 3.70892E-09
 -1       568-1.23518E+05-2.15023E+05-4.67336E+03-3.10340E+05-7.11407E-09 6.97401E-09
 -1       569-7.37889E+04-2.69634E+05-1.10068E+04-3.69466E+05 6.85759E-10 1.45010E-08
 -1       570-1.20347E+05-2.21584E+05-2.18637E+04-3.07518E+05 1.08412E-09 6.17365E-09
 -1       571 3.77391E+05 1.58167E+04 2.37601E+04-9.34949E+04 5.98448E-10-2.71984E-09
 -1       572 3.80945E+05 5.44910E+03 1.16527E+04-1.02678E+05 1.58252E-09-1.45437E-08
 -1       573 3.78785E+05 1.25949E+03 5.17913E+03-9.32439E+04 1.77170E-09-9.08312E-09
 -1       574 3.79195E+05 4.00194E+02 2.59763E+03-1.02950E+05-2.00089E-10-8.96762E-09
 -1       575 3.78919E+05 4.48378E+01 1.22520E+03-9.32121E+04 9.23865E-09-6.17729E-09
 -1       576 3.78950E+05 9.61850E+00 6.23465E+02-1.02986E+05 1.79837E-08 7.80346E-10
 -1       577 3.78940E+05-1.54298E+01 3.05220E+02-9.32080E+04 7.81256E-09-5.35420E-09
 -1       578 3.78936E+05-1.40505E+01 1.62478E+02-1.02990E+05-1.40517E-10 3.11229E-09
 -1       579 3.78986E+05-3.04324E+01 9.05422E+01-9.32075E+04 1.08685E-09 1.89266E-09
 -1       580 3.79002E+05-4.61485E+01 7.11345E+01-1.02986E+05 1.54614E-09 3.04954E-09
 -1       581 3.79072E+05-7.40572E+01 7.85380E+01-9.32122E+04-1.45519E-09-6.46651E-10
 -1       582 3.79133E+05-8.93837E+01 1.40238E+02-1.02932E+05 4.47471E-10-1.02218E-08
 -1       583 3.79194E+05-8.77394E+01 2.55342E+02-9.32613E+04-3.69255E-10 4.09591E-09
 -1       584 3.79385E+05 8.04033E+01 5.74502E+02-1.02510E+05-2.69938E-09-9.49444E-09
 -1       585 3.79279E+05 5.59576E+02 1.15303E+03-9.36346E+04 1.99179E-09 6.03177E-09
 -1       586 1.29486E+03 1.72154E+05 2.78288E+03-2.68143E+05-1.99179E-10 8.83210E-09
 -1       587 1.13823E+03 1.72546E+05 3.97834E+03-3.01242E+05-4.72937E-11 1.03482E-08
 -1       588 1.63834E+03 1.71837E+05 6.96046E+03-2.67826E+05-1.43700E-10 8.41931E-09
 -1       589 6.45141E+03 1.74766E+05 1.51454E+04-3.01212E+05-2.00089E-11 4.67799E-09
 -1       590 1.84306E+04 1.69999E+05 3.03626E+04-2.68168E+05 1.01409E-10 1.19962E-08
 -1       591-1.79945E+05-5.12945E+04-3.64777E+04-8.57687E+04 3.03544E-10 2.30648E-09
 -1       592-1.82576E+05-5.13998E+04-1.85788E+04-9.54664E+04 1.72986E-09-3.65230E-09
 -1       593-1.82140E+05-4.24674E+04-7.87602E+03-9.04340E+04 1.77670E-09-4.87080E-09
 -1       594-1.78288E+05-4.68842E+04-3.87641E+03-9.57300E+04-2.12367E-09-9.16395E-09
 -1       595-1.82357E+05-4.22613E+04-1.78987E+03-9.06069E+04-3.14276E-09-7.11364E-09
 -1       596-1.78005E+05-4.67257E+04-9.05250E+02-9.56882E+04 7.63976E-10 4.90252E-09
 -1       597-1.82391E+05-4.22913E+04-4.88445E+02-9.06078E+04 1.87480E-09-1.81785E-09
 -1       598-1.77974E+05-4.67265E+04-3.82372E+02-9.56744E+04 3.78066E-09 1.44001E-08
 -1       599-1.82386E+05-4.22949E+04-4.75916E+02-9.06049E+04 8.00583E-10-6.69024E-09
 -1       600-1.77994E+05-4.67301E+04-8.71865E+02-9.56776E+04-1.59912E-09-4.85352E-09
 -1       601-1.82342E+05-4.22725E+04-1.71783E+03-9.05985E+04 1.78716E-10 4.73074E-09
 -1       602-1.78258E+05-4.68824E+04-3.71654E+03-9.57039E+04-3.54248E-10-7.33280E-10
 -1       603-1.82122E+05-4.24808E+04-7.54988E+03-9.04310E+04 5.92081E-10-2.22826E-10
 -1       604-1.82399E+05-5.11694E+04-1.78042E+04-9.53922E+04-9.09495E-12 5.22596E-09
 -1       605-1.79969E+05-5.09782E+04-3.49567E+04-8.59970E+04-1.19780E-09 3.21961E-10
 -1       606 1.22876E+05-1.56739E+04-2.62254E+04 4.47739E+04-1.73222E-08 7.10315E-09
 -1       607 1.18557E+05-5.13781E+03-1.29724E+04 4.96137E+04-2.24745E-08 9.65497E-09
 -1       608 1.21004E+05-9.73796E+02-5.79682E+03 4.44417E+04-3.03771E-09-3.59933E-09
 -1       609 1.20461E+05-2.31220E+02-2.91741E+03 4.99747E+04-2.71939E-09-2.68801E-09
 -1       610 1.20734E+05 6.23138E+01-1.38904E+03 4.44025E+04-9.48057E-09-8.42101E-09
 -1       611 1.20610E+05 1.14104E+02-6.98789E+02 5.00157E+04-1.65373E-08-5.68434E-09
 -1       612 1.20644E+05 1.20110E+02-3.34001E+02 4.43988E+04-8.04539E-09-1.03573E-08
 -1       613 1.20582E+05 1.46196E+02-1.50341E+02 5.00197E+04-1.18689E-08 2.86627E-09
 -1       614 1.20588E+05 1.34119E+02-3.94713E+01 4.43980E+04 6.18638E-09 5.92081E-10
 -1       615 1.20545E+05 1.65805E+02 5.49579E+01 5.00195E+04 2.70811E-08 3.66254E-09
 -1       616 1.20546E+05 1.54255E+02 1.71780E+02 4.43987E+04 2.01544E-09 2.32785E-09
 -1       617 1.20544E+05 2.24874E+02 3.97395E+02 5.00175E+04-2.30284E-09-3.56977E-09
 -1       618 1.20494E+05 3.06261E+02 8.04011E+02 4.43993E+04 3.28328E-09-9.08267E-09
 -1       619 1.20803E+05 9.15158E+02 1.81072E+03 5.00114E+04 3.92470E-09 1.33787E-09
 -1       620 1.20231E+05 2.36394E+03 3.66305E+03 4.43989E+04 2.49270E-09-2.62617E-09
 -1       621 1.26442E+03 4.04617E+05 4.93685E+03-2.64820E+04 1.66926E-09-7.19581E-09
 -1       622 6.23496E+02 4.05642E+05 4.97464E+03-3.33440E+04-5.73209E-10 2.52703E-09
 -1       623 2.74824E+02 4.04790E+05 7.05140E+03-2.64767E+04 1.54068E-09-7.44876E-10
 -1       624 3.44571E+03 4.07982E+05 1.43158E+04-3.32578E+04-4.44743E-10 1.02577E-08
 -1       625 8.85491E+03 4.02306E+05 2.68554E+04-2.65625E+04 1.83354E-09 6.69706E-09
 -1       626 2.73266E+05 8.53485E+04-9.18773E+02 1.65779E+05-4.26735E-09-8.27276E-09
 -1       627 2.67819E+05 9.09378E+04-4.35311E+02 1.71606E+05-1.54614E-09-1.50685E-08
 -1       628 2.73404E+05 8.55629E+04-1.86167E+02 1.65267E+05 1.51522E-09-2.30739E-09
 -1       629 2.67553E+05 9.13901E+04-8.12482E+01 1.71818E+05 2.92039E-09-1.15288E-08
 -1       630 2.73352E+05 8.56021E+04-2.93089E+01 1.65180E+05-5.50062E-09-3.34921E-10
 -1       631 2.67460E+05 9.14520E+04 7.78750E+00 1.71799E+05-1.17652E-08 1.32661E-08
 -1       632 2.73300E+05 8.56253E+04 4.67750E+01 1.65145E+05-1.47529E-08 1.93859E-09
 -1       633 2.67419E+05 9.14708E+04 1.15967E+02 1.71774E+05-5.10363E-09 2.61252E-09
 -1       634 2.73262E+05 8.56289E+04 2.43154E+02 1.65127E+05 6.04268E-09-3.99405E-09
 -1       635 2.67426E+05 9.14789E+04 5.28761E+02 1.71769E+05-2.37787E-09-2.76759E-09
 -1       636 2.73232E+05 8.56369E+04 1.08525E+03 1.65114E+05 9.10632E-11 1.38925E-09
 -1       637 2.67664E+05 9.16988E+04 2.40381E+03 1.71749E+05 1.30777E-08 2.77396E-09
 -1       638 2.73162E+05 8.63084E+04 4.95767E+03 1.64814E+05 8.35371E-09 7.39237E-09
 -1       639 2.70227E+05 9.56688E+04 1.17581E+04 1.70866E+05-6.27870E-09 1.04137E-09
 -1       640 2.73065E+05 9.80020E+04 2.45883E+04 1.59882E+05-2.89674E-09 6.22094E-10
 -1       656 2.32887E+04-7.15868E+05-7.74071E+04 6.79034E+03-7.71615E-09 2.47383E-10
 -1       657-3.17578E+04-7.46514E+05-5.97286E+04 6.58315E+04-5.97811E-09 9.77252E-10
 -1       658 5.67274E+03-7.25879E+05-3.83020E+04 6.47166E+03-4.16514E-09 9.43191E-09
 -1       659-3.25600E+04-7.47054E+05-6.10190E+04 6.60540E+04-5.57566E-09 5.93957E-09
 -1       660 2.40879E+04-7.15422E+05-7.97183E+04 6.56912E+03-5.99539E-09-6.75323E-09
 -1       661 3.68756E+05 4.88748E+04 2.99779E+04 1.44449E+05 8.40646E-09 3.80169E-10
 -1       662 3.76141E+05 6.89084E+04 1.85428E+04 1.47961E+05 1.05774E-09 2.71439E-09
 -1       663 3.73686E+05 5.47380E+04 7.06735E+03 1.44032E+05-9.86375E-09 8.38781E-09
 -1       664 3.70443E+05 6.07483E+04 3.81640E+03 1.49044E+05-2.08052E-08-2.98905E-09
 -1       665 3.74209E+05 5.53222E+04 1.65669E+03 1.44011E+05-8.24713E-09-6.85134E-09
 -1       666 3.69838E+05 5.99737E+04 8.93690E+02 1.49119E+05-1.68416E-09 5.57387E-09
 -1       667 3.74273E+05 5.53778E+04 5.15003E+02 1.44008E+05-4.83493E-09 3.12144E-09
 -1       668 3.69773E+05 5.99241E+04 4.99036E+02 1.49139E+05-7.69205E-09-7.81179E-09
 -1       669 3.74276E+05 5.53614E+04 7.23209E+02 1.43997E+05 1.65051E-09 1.37300E-09
 -1       670 3.69870E+05 6.00697E+04 1.46514E+03 1.49170E+05 7.09565E-09 1.15278E-08
 -1       671 3.74186E+05 5.52386E+04 2.82722E+03 1.43979E+05-2.15789E-09-2.49611E-09
 -1       672 3.70892E+05 6.14481E+04 6.58678E+03 1.49090E+05-3.33216E-09 3.55612E-10
 -1       673 3.73300E+05 5.42072E+04 1.22188E+04 1.43997E+05 4.61114E-09 5.89171E-09
 -1       674 3.80739E+05 7.55941E+04 3.20870E+04 1.47249E+05 7.66204E-09-1.71349E-09
 -1       675 3.64775E+05 4.40524E+04 5.18761E+04 1.44713E+05 1.80639E-08-4.36557E-09
 -1       676 9.89208E+01-5.43358E+05-2.83528E+03 3.65369E+02 8.34689E-09 4.99773E-09
 -1       677-1.08057E+03-5.44215E+05-5.30217E+03-7.28795E+02 3.26298E-09 5.79251E-09
 -1       678 8.23492E+02-5.42778E+05-9.13021E+03 3.63224E+02 1.25251E-08-1.25253E-09
 -1       679-1.08973E+04-5.50031E+05-2.22985E+04-7.24071E+02-4.68026E-09-1.53932E-09
 -1       680 8.00285E+03-5.37548E+05-3.47444E+04 3.58137E+02 6.41739E-09-7.34371E-09
 -1       716-4.94985E-01-2.36005E-01 2.21495E+01-1.92156E-03 1.65199E-08-1.51338E-09
 -1       717 2.43764E+00 1.77776E+00 3.90095E+01 4.89513E-03-9.86899E-10-2.35963E-09
 -1       718-1.94265E+00-1.54236E+00 7.23910E+01-2.97018E-03 8.81870E-10-3.35034E-09
 -1       719 1.15105E+01 1.21090E+01 1.50152E+02-4.44030E-03 8.47273E-11 5.76499E-10
 -1       720-9.56791E+00-1.05679E+01 2.86382E+02 7.41779E-03-1.31899E-08-4.56872E-09
 -1       721 5.95750E+01 8.06819E+01 6.12048E+02-1.56583E-01-1.24755E-08-1.18956E-09
 -1       722-5.00064E+01-7.01124E+01 1.14555E+03 1.49157E-01-3.94262E-09-8.49985E-09
 -1       723 3.23909E+02 5.26452E+02 2.52325E+03-1.50257E+00-8.29699E-09-6.64312E-09
 -1       724-2.73880E+02-4.56283E+02 4.56922E+03 1.35317E+00-1.51924E-08-5.62136E-09
 -1       725 1.83473E+03 3.39235E+03 1.05306E+04-1.15553E+01-1.03141E-08-3.46290E-09
 -1       726-1.56041E+03-2.93546E+03 1.81186E+04 1.02009E+01-1.47425E-08-6.33827E-09
 -1       727 1.07360E+04 2.16925E+04 4.47283E+04-8.12819E+01-1.61016E-08-1.26602E-09
 -1       728-9.16811E+03-1.87516E+04 7.11703E+04 7.10960E+01-1.87464E-09-4.46380E-09
 -1       729 6.43622E+04 1.38055E+05 1.94729E+05-5.46692E+02 2.93062E-09-4.37285E-09
 -1       730-5.50713E+04-1.19247E+05 2.75336E+05 4.76088E+02 1.26845E-08-2.91038E-09
 -1       766-1.19257E+05-5.50804E+04 2.75547E+05-4.76102E+02-4.07454E-10 6.33349E-10
 -1       767 1.38135E+05 6.44205E+04 1.95304E+05 5.46854E+02 1.26493E-08-4.73378E-09
 -1       768-1.88216E+04-9.21783E+03 7.22975E+04-7.12461E+01-8.54925E-10 2.46351E-09
 -1       769 2.22189E+04 1.10592E+04 4.72414E+04 8.27892E+01 1.28803E-08 1.23405E-08
 -1       770-3.39177E+03-1.83434E+03 2.26820E+04-1.15539E+01-2.69210E-10 7.98459E-09
 -1       771-3.43255E+06-6.62346E+05-9.49856E+04-1.47525E+06 3.31784E-09-2.06637E-09
 -1       772-3.41579E+06-6.83526E+05-4.80693E+04-1.52475E+06 6.96309E-09-7.13044E-10
 -1       773-3.44157E+06-6.37152E+05-2.08807E+04-1.48699E+06 5.35510E-09 3.86717E-09
 -1       774-3.40550E+06-6.73016E+05-1.01241E+04-1.52972E+06 3.02680E-09-2.25555E-10
 -1       775-3.44460E+06-6.34891E+05-4.98648E+03-1.48823E+06 1.25146E-09-4.40923E-09
 -1       776-3.40631E+06-6.72438E+05-2.40571E+03-1.53219E+06-2.20462E-09 7.58519E-10
 -1       777-3.44670E+06-6.33625E+05-1.44581E+03-1.48898E+06-4.74392E-09-7.11407E-09
 -1       778-3.40752E+06-6.72191E+05-9.42295E+02-1.53409E+06-1.98270E-09 8.46740E-10
 -1       779-3.44820E+06-6.32634E+05-1.17167E+03-1.48954E+06 2.91038E-10-2.59433E-10
 -1       780-3.40851E+06-6.72018E+05-1.92216E+03-1.53545E+06-1.08230E-09-1.90198E-09
 -1       781-3.44906E+06-6.31937E+05-3.79418E+03-1.48990E+06 2.86309E-09 4.75029E-09
 -1       782-3.40963E+06-6.72248E+05-8.16357E+03-1.53624E+06-1.56433E-10 4.72937E-10
 -1       783-3.44897E+06-6.32140E+05-1.66323E+04-1.48969E+06-8.73661E-09-4.40559E-09
 -1       784-3.41895E+06-6.81658E+05-3.93155E+04-1.53560E+06-1.07900E-08-9.31323E-09
 -1       785-3.44402E+06-6.51073E+05-7.72873E+04-1.47998E+06 3.55294E-09 2.54659E-09
 -1       786 3.22447E+05-1.25206E+04 4.00703E+04-4.91872E+02 3.03430E-10 7.27596E-12
 -1       787 3.38013E+05 1.52950E+04 2.66839E+04-6.36188E+03-3.08177E-10 2.49292E-09
 -1       788 3.28775E+05-1.52214E+03 1.04141E+04-5.15489E+02 6.91671E-10 2.22917E-09
 -1       789 3.30847E+05 1.83436E+03 6.04691E+03-6.32081E+03 3.10592E-10 5.27211E-09
 -1       790 3.29611E+05-1.86217E+02 2.65802E+03-5.32551E+02-1.93629E-09-1.96246E-09
 -1       791 3.29891E+05 2.19168E+02 1.46435E+03-6.29994E+03 2.62332E-09-4.66321E-09
 -1       792 3.29729E+05-2.42028E+01 7.32663E+02-5.36355E+02 5.15890E-10-1.02546E-09
 -1       793 3.29764E+05 3.56552E+01 4.93164E+02-6.30604E+03-2.26866E-09-3.94358E-09
 -1       794 3.29740E+05-1.30124E+01 4.46528E+02-5.26455E+02 1.45110E-09 4.20447E-09
 -1       795 3.29804E+05 9.37215E+01 6.91939E+02-6.33980E+03-6.18456E-10 6.47802E-09
 -1       796 3.29692E+05-8.05833E+01 1.16220E+03-5.02585E+02-5.06816E-10 3.13491E-10
 -1       797 3.30212E+05 7.75905E+02 2.58658E+03-6.39965E+03-1.52664E-09 3.18136E-09
 -1       798 3.29337E+05-6.49011E+02 4.43085E+03-4.66615E+02-2.38515E-10 5.83327E-09
 -1       799 3.33263E+05 6.49197E+03 1.13408E+04-6.47553E+03-2.18188E-09-3.40526E-09
 -1       800 3.26648E+05-5.32339E+03 1.70198E+04-4.27014E+02 1.05229E-09 3.80896E-09
 -1       801-3.65133E+04 3.60826E+05 4.09629E+04-1.86553E+05 9.11314E-10-8.03266E-09
 -1       802 9.98717E+04 3.78245E+05 8.34888E+04-2.07961E+06-6.76664E-09-1.64437E-08
 -1       803-2.80642E+03 3.65783E+05 9.82495E+04-1.87616E+05 1.88884E-08 3.25126E-08
 -1       804 1.94187E+05 4.36526E+05 2.33152E+05-2.07952E+06-1.54687E-08 1.40135E-08
 -1       805-1.27391E+05 3.09349E+05 3.11178E+05-1.86778E+05 1.57597E-08 2.28611E-08
 -1       806-3.00648E+05-8.38944E+04-2.58499E+04-1.45363E+05 2.86263E-09-7.93079E-09
 -1       807-3.00132E+05-7.89760E+04-1.23582E+04-1.54151E+05-1.51067E-09-2.11512E-08
 -1       808-3.00750E+05-7.16280E+04-5.21097E+03-1.50625E+05-9.86347E-10-1.07968E-08
 -1       809-2.97540E+05-7.47253E+04-2.52603E+03-1.55036E+05 1.49430E-09 1.19489E-08
 -1       810-3.00837E+05-7.09156E+04-1.14453E+03-1.50958E+05 3.12752E-09 9.58789E-09
 -1       811-2.97302E+05-7.44856E+04-5.66055E+02-1.55054E+05-1.94262E-09-8.31233E-09
 -1       812-3.00856E+05-7.09132E+04-2.80530E+02-1.50966E+05-8.58245E-09 5.17412E-09
 -1       813-2.97268E+05-7.44872E+04-1.75782E+02-1.55038E+05-2.66227E-08-1.00508E-08
 -1       814-3.00846E+05-7.09265E+04-1.63088E+02-1.50958E+05-9.26138E-09 4.86216E-09
 -1       815-2.97262E+05-7.44977E+04-2.54348E+02-1.55024E+05-1.69894E-09-5.12864E-09
 -1       816-3.00815E+05-7.09432E+04-4.76924E+02-1.50942E+05-4.76211E-09-4.61114E-10
 -1       817-2.97346E+05-7.45911E+04-1.03240E+03-1.54980E+05-3.74439E-09-4.29372E-09
 -1       818-3.00741E+05-7.12626E+04-2.12301E+03-1.50806E+05-1.07784E-08 9.14952E-09
 -1       819-2.98501E+05-7.61964E+04-5.02507E+03-1.54446E+05-2.56709E-08 2.44836E-09
 -1       820-3.00549E+05-7.63722E+04-1.05112E+04-1.48784E+05-1.24273E-08 9.64064E-11
 -1       821-4.11401E+05 1.58580E+04-5.07599E+04 4.26857E+02-3.65594E-09-7.20320E-10
 -1       822-4.31083E+05-1.93751E+04-3.38026E+04 8.47071E+03-2.43926E-09 1.39926E-09
 -1       823-4.19415E+05 1.92298E+03-1.31993E+04 2.97394E+02 3.94039E-09 6.56746E-09
 -1       824-4.22031E+05-2.30703E+03-7.66885E+03 8.68558E+03-2.11662E-09 1.78761E-08
 -1       825-4.20472E+05 2.33994E+02-3.39441E+03 2.11127E+02-7.78368E-09 3.19437E-09
 -1       826-4.20843E+05-2.54308E+02-1.90869E+03 8.83073E+03-1.45892E-08-1.35145E-09
 -1       827-4.20618E+05 3.28430E+01-1.03770E+03 1.51995E+02-9.05243E-09 4.73733E-10
 -1       828-4.20707E+05-3.29364E+01-8.53489E+02 8.92282E+03-1.23999E-08-2.25724E-09
 -1       829-4.20619E+05 3.28929E+01-1.00568E+03 1.18978E+02-3.90469E-09-1.96381E-09
 -1       830-4.20849E+05-2.34866E+02-1.82535E+03 8.96131E+03 5.07947E-09-7.59999E-09
 -1       831-4.20480E+05 2.26243E+02-3.22873E+03 1.13510E+02-3.65881E-09-2.99588E-09
 -1       832-4.21993E+05-2.18026E+03-7.29284E+03 8.94559E+03-4.46212E-09-3.95084E-09
 -1       833-4.19475E+05 1.83383E+03-1.25419E+04 1.34954E+02-3.27475E-10 6.58429E-09
 -1       834-4.30610E+05-1.83980E+04-3.21291E+04 8.87342E+03 6.06838E-09 8.39464E-09
 -1       835-4.11859E+05 1.50805E+04-4.82366E+04 1.87581E+02 2.87503E-09-2.26282E-09
 -1       836-1.88702E+03 5.36363E+05 4.15522E+04-4.09593E+04 1.45519E-11-6.03450E-09
 -1       837 8.73732E+03 5.48972E+05 3.20458E+04-7.92667E+04-2.22553E-09 7.06746E-09
 -1       838-5.47167E+02 5.40519E+05 2.86601E+04-4.08528E+04-8.03993E-10 4.07533E-09
 -1       839 1.60543E+04 5.54553E+05 4.99749E+04-7.92743E+04-2.48838E-09 3.11013E-09
 -1       840-3.74970E+03 5.30748E+05 7.83657E+04-4.09476E+04-8.87667E-10-2.67573E-09
 -1       841 1.02713E+05 1.52447E+04-2.07186E+03 3.81553E+04-4.90672E-10 6.57349E-09
 -1       842 1.01388E+05 1.36750E+04-1.41957E+03 3.88988E+04-2.44236E-09 6.00564E-09
 -1       843 1.02247E+05 1.45914E+04-4.79257E+02 3.84001E+04 2.35857E-09 3.49652E-09
 -1       844 1.01950E+05 1.44155E+04-2.89014E+02 3.85953E+04-5.73378E-09-1.13629E-09
 -1       845 1.02151E+05 1.45043E+04-8.82508E+01 3.84586E+04-1.84358E-05 6.94170E-06
 -1       846 1.02073E+05 1.45175E+04-9.78259E+00 3.85189E+04-3.68696E-05 1.38825E-05
 -1       847 1.02123E+05 1.44895E+04 7.87868E+01 3.84765E+04-2.22649E-05 8.37787E-06
 -1       848 1.02139E+05 1.45838E+04 2.36538E+02 3.84895E+04-7.63297E-06 2.88108E-06
 -1       849 1.02086E+05 1.44381E+04 4.51111E+02 3.84880E+04-8.22035E-07 3.10716E-07
 -1       850 1.02373E+05 1.49662E+04 1.14882E+03 3.84259E+04 5.98337E-06-2.25893E-06
 -1       851 1.01889E+05 1.41071E+04 1.98660E+03 3.85400E+04 1.00800E-05-3.79669E-06
 -1       852 1.03775E+05 1.73895E+04 5.36570E+03 3.80089E+04 1.41737E-05-5.34598E-06
 -1       853 1.00683E+05 1.20151E+04 8.58152E+03 3.89048E+04 1.44907E-05-5.44811E-06
 -1       854 1.12440E+05 3.27188E+04 2.54466E+04 3.51795E+04 1.47729E-05-5.57839E-06
 -1       855 9.32249E+04-1.21936E+03 3.66279E+04 4.13684E+04 7.37362E-06-2.80307E-06
 -1       856-3.15303E+05 7.48035E+03-4.02390E+04 7.64879E+03-1.06538E-08 1.48793E-09
 -1       857-3.29217E+05-1.12526E+04-2.52373E+04 2.41085E+04-9.05948E-09-6.93035E-09
 -1       858-3.21222E+05 7.27982E+02-1.03950E+04 7.52495E+03-8.98626E-09-2.26373E-09
 -1       859-3.22758E+05-8.99451E+02-5.69673E+03 2.42661E+04 5.66797E-09-1.72236E-09
 -1       860-3.21850E+05 1.05266E+02-2.63022E+03 7.48699E+03 2.12435E-09-3.51997E-09
 -1       861-3.22101E+05 2.76649E+01-1.39050E+03 2.43186E+04-1.11750E-08-3.34921E-09
 -1       862-3.21932E+05 4.74341E+01-7.10192E+02 7.47176E+03 1.26871E-08-3.17277E-09
 -1       863-3.22026E+05 1.09064E+02-4.53073E+02 2.43323E+04 2.26718E-08 3.45602E-09
 -1       864-3.21939E+05 4.16104E+01-3.97381E+02 7.47322E+03 7.74321E-09-4.40866E-09
 -1       865-3.22029E+05 8.05185E+01-5.73009E+02 2.43114E+04 1.53013E-08 1.78181E-09
 -1       866-3.21907E+05 5.54138E+01-9.86654E+02 7.49277E+03 5.25074E-09 7.82839E-09
 -1       867-3.22237E+05-2.65457E+02-2.07367E+03 2.42526E+04 5.25529E-09 2.41391E-09
 -1       868-3.21671E+05 2.68995E+02-3.76792E+03 7.53241E+03 3.87990E-09-5.45822E-09
 -1       869-3.24525E+05-4.01991E+03-9.11519E+03 2.40815E+04-2.87946E-09-4.42651E-09
 -1       870-3.19523E+05 2.68960E+03-1.45455E+04 7.66541E+03 1.02773E-09-3.05590E-09
 -1       871-6.09325E+03-4.57909E+04-1.52189E+04 1.68063E+05 3.93811E-09-1.14960E-09
 -1       872-2.40937E+03-4.90176E+04-5.38311E+03 2.09980E+05 9.67520E-09-5.52063E-09
 -1       873-2.07334E+02-4.77605E+04 2.60885E+03 1.67709E+05 2.11912E-09-9.41736E-09
 -1       874 3.12267E+03-4.46962E+04 1.25236E+04 2.10087E+05 4.13911E-09-6.31553E-09
 -1       875 9.12298E+03-5.03636E+04 2.69349E+04 1.67985E+05 4.76575E-10-6.21276E-09
 -1       876 4.73023E+05 7.14069E+04 3.94196E+04 1.88323E+05 6.35623E-09-5.29872E-09
 -1       877 4.79912E+05 8.92564E+04 2.28379E+04 1.95565E+05 4.28804E-09-4.17094E-09
 -1       878 4.78383E+05 7.43906E+04 9.15608E+03 1.89280E+05 1.19962E-08-2.58296E-09
 -1       879 4.73421E+05 8.13352E+04 4.70561E+03 1.96251E+05 1.37538E-09 5.56520E-09
 -1       880 4.78814E+05 7.46833E+04 2.12069E+03 1.89368E+05 4.62160E-09-3.33921E-09
 -1       881 4.72895E+05 8.07824E+04 1.10508E+03 1.96215E+05-5.54792E-11-1.86222E-09
 -1       882 4.78849E+05 7.47314E+04 6.28165E+02 1.89384E+05 3.44494E-09-1.87549E-09
 -1       883 4.72855E+05 8.07371E+04 5.64284E+02 1.96186E+05 9.17777E-09 4.24905E-10
 -1       884 4.78838E+05 7.47352E+04 7.90410E+02 1.89386E+05 2.83251E-09 9.52753E-10
 -1       885 4.72935E+05 8.07852E+04 1.53675E+03 1.96194E+05 2.63818E-08 7.04620E-09
 -1       886 4.78766E+05 7.46842E+04 3.03308E+03 1.89374E+05 3.60023E-09-5.93536E-09
 -1       887 4.73707E+05 8.15624E+04 6.77058E+03 1.96207E+05 8.91782E-09 4.79008E-09
 -1       888 4.78120E+05 7.42809E+04 1.31956E+04 1.89255E+05 1.38371E-09 6.47924E-09
 -1       889 4.83030E+05 9.30031E+04 3.29166E+04 1.95224E+05 5.66530E-09 3.80169E-10
 -1       890 4.70416E+05 6.99584E+04 5.68271E+04 1.87833E+05 1.29780E-08 7.68341E-09
 -1       891 8.94001E+02-2.59599E+05-9.84511E+03 4.61373E+04 3.25372E-09 5.10408E-09
 -1       892-2.60084E+03-2.62677E+05-7.63372E+03 1.04686E+05-1.03782E-08 8.74658E-09
 -1       893 1.55856E+02-2.60655E+05-6.53735E+03 4.60293E+04-5.75483E-09 1.02350E-08
 -1       894-4.36022E+03-2.63751E+05-1.13821E+04 1.04584E+05-1.05001E-08 9.39144E-09
 -1       895 1.65815E+03-2.58303E+05-1.73655E+04 4.62370E+04-1.18098E-09 6.16183E-09
 -1       956-4.59098E+05-8.13831E+03-1.99631E+04 4.94540E+04-4.47835E-09-1.04774E-09
 -1       957-4.63026E+05-2.67299E+03-1.02189E+04 5.92840E+04-1.77351E-10-1.13450E-08
 -1       958-4.60913E+05-1.91443E+02-4.60721E+03 4.91388E+04 4.83851E-09 1.70758E-09
 -1       959-4.61272E+05 4.02591E+01-2.34829E+03 5.96265E+04-2.61753E-09 8.72069E-09
 -1       960-4.61126E+05 1.40337E+02-1.14342E+03 4.91057E+04-9.26048E-09 5.37057E-10
 -1       961-4.61192E+05 1.73956E+02-5.98780E+02 5.96649E+04-1.47220E-08-3.39969E-09
 -1       962-4.61195E+05 1.56176E+02-3.31433E+02 4.90994E+04-1.09967E-08-3.77304E-09
 -1       963-4.61217E+05 1.93959E+02-2.44310E+02 5.96733E+04-2.00498E-08-7.53880E-09
 -1       964-4.61220E+05 1.69259E+02-2.71556E+02 4.90969E+04-6.88556E-09 1.23782E-09
 -1       965-4.61242E+05 2.03390E+02-4.48337E+02 5.96739E+04 7.00203E-09 5.02132E-09
 -1       966-4.61205E+05 1.78796E+02-8.31235E+02 4.90987E+04-6.51744E-09-3.43971E-09
 -1       967-4.61336E+05 1.26735E+02-1.69940E+03 5.96532E+04-1.42791E-10-4.30418E-09
 -1       968-4.61077E+05-4.41766E+01-3.32694E+03 4.91183E+04-6.78210E-09 1.24987E-09
 -1       969-4.62631E+05-1.82097E+03-7.38464E+03 5.94393E+04-1.15469E-08-5.30576E-10
 -1       970-4.59781E+05-5.78075E+03-1.44231E+04 4.93215E+04-4.18640E-09 4.01815E-09
 -1       971-5.66764E+05 8.08429E+02-2.37192E+04 1.41504E+04-8.51105E-09 2.12822E-10
 -1       972-5.73846E+05-4.54687E+03-1.39435E+04 2.71724E+04-1.53887E-09 7.44694E-09
 -1       973-5.69923E+05 1.33041E+02-6.02529E+03 1.39590E+04-5.96719E-09 4.57248E-09
 -1       974-5.70533E+05-1.79358E+02-3.18490E+03 2.74025E+04 3.72893E-11 5.16980E-09
 -1       975-5.70203E+05 6.80897E+01-1.54839E+03 1.39161E+04-3.45608E-10 1.82445E-09
 -1       976-5.70298E+05 1.01543E+02-8.58794E+02 2.74666E+04-7.33166E-09 4.69083E-09
 -1       977-5.70249E+05 6.82637E+01-5.55388E+02 1.38942E+04 4.00314E-09 1.67404E-09
 -1       978-5.70300E+05 1.27528E+02-5.60096E+02 2.74975E+04 2.22125E-08-2.73803E-09
 -1       979-5.70251E+05 7.84408E+01-8.23218E+02 1.38849E+04 9.39207E-09-2.69324E-10
 -1       980-5.70370E+05 1.03444E+02-1.55045E+03 2.75031E+04 9.36487E-09-2.72715E-09
 -1       981-5.70189E+05 1.08220E+02-2.96264E+03 1.38887E+04-3.45699E-09-2.46706E-09
 -1       982-5.70911E+05-4.10024E+02-6.21199E+03 2.74793E+04-5.76460E-09 4.41753E-09
 -1       983-5.69681E+05 2.71779E+02-1.17838E+04 1.39096E+04 5.54928E-09 3.79987E-09
 -1       984-5.77506E+05-8.93432E+03-2.73380E+04 2.73371E+04-7.91943E-09 1.55342E-09
 -1       985-5.63530E+05 1.64127E+03-4.64835E+04 1.40431E+04 5.04042E-09-3.70528E-09
 -3
 9999
