
 stresses (elem, integ.pnt.,sxx,syy,szz,sxy,sxz,syz) for set ELALL and time  0.2500000E+00

         1   1  6.010119E+03  5.113109E+04  6.698387E+04  8.596883E+02  4.570958E+04  6.329547E-02
         1   2 -4.294822E+03 -1.237471E+04  2.853156E+04  2.153964E+02  3.009122E+04  1.044015E-02
         1   3  6.009384E+03 -1.580642E+03  1.882367E+04 -4.288965E+02  1.447255E+04 -9.998136E-03
         1   4  6.010118E+03  5.113109E+04  6.698387E+04 -1.515696E-07  4.570958E+04 -1.081116E-10
         1   5 -4.294822E+03 -1.237471E+04  2.853156E+04  2.899018E-08  3.009122E+04  2.458560E-10
         1   6  6.009384E+03 -1.580642E+03  1.882367E+04  3.991045E-07  1.447255E+04 -2.602037E-10
         1   7  6.010119E+03  5.113109E+04  6.698387E+04 -8.596883E+02  4.570958E+04 -6.329547E-02
         1   8 -4.294822E+03 -1.237471E+04  2.853156E+04 -2.153964E+02  3.009122E+04 -1.044015E-02
         1   9  6.009384E+03 -1.580642E+03  1.882367E+04  4.288965E+02  1.447255E+04  9.998136E-03
         1  10  6.007875E+03  5.113053E+04  6.697994E+04  8.596883E+02 -5.461649E-10 -5.444469E-10
         1  11 -4.295794E+03 -1.237495E+04  2.852986E+04  2.153964E+02  2.700941E-10 -3.718295E-11
         1  12  6.009159E+03 -1.580698E+03  1.882328E+04 -4.288965E+02 -9.942332E-10 -2.872527E-10
         1  13  6.007874E+03  5.113052E+04  6.697994E+04 -2.894246E-07 -8.413955E-12  9.171153E-11
         1  14 -4.295794E+03 -1.237495E+04  2.852986E+04  3.046892E-07  2.149755E-09  9.353877E-11
         1  15  6.009159E+03 -1.580698E+03  1.882328E+04  2.001208E-08  4.165680E-10 -5.599026E-12
         1  16  6.007875E+03  5.113053E+04  6.697994E+04 -8.596883E+02  1.318490E-12 -1.260169E-11
         1  17 -4.295794E+03 -1.237495E+04  2.852986E+04 -2.153964E+02 -8.062585E-13 -4.499346E-11
         1  18  6.009159E+03 -1.580698E+03  1.882328E+04  4.288965E+02  6.555507E-10  1.414328E-10
         1  19  6.010119E+03  5.113109E+04  6.698387E+04  8.596883E+02 -4.570958E+04 -6.329547E-02
         1  20 -4.294822E+03 -1.237471E+04  2.853156E+04  2.153964E+02 -3.009122E+04 -1.044014E-02
         1  21  6.009384E+03 -1.580642E+03  1.882367E+04 -4.288965E+02 -1.447255E+04  9.998137E-03
         1  22  6.010118E+03  5.113109E+04  6.698387E+04 -1.371463E-08 -4.570958E+04  2.975906E-10
         1  23 -4.294822E+03 -1.237471E+04  2.853156E+04  4.080763E-07 -3.009122E+04 -1.866534E-11
         1  24  6.009384E+03 -1.580642E+03  1.882367E+04  1.320166E-07 -1.447255E+04  1.986978E-10
         1  25  6.010119E+03  5.113109E+04  6.698387E+04 -8.596883E+02 -4.570958E+04  6.329547E-02
         1  26 -4.294822E+03 -1.237471E+04  2.853156E+04 -2.153964E+02 -3.009122E+04  1.044014E-02
         1  27  6.009384E+03 -1.580642E+03  1.882367E+04  4.288965E+02 -1.447255E+04 -9.998136E-03
         2   1  2.191116E+03  8.032266E+03  1.559847E+04  1.294664E+02  1.133876E+04  2.364540E-03
         2   2  4.775486E+02 -1.945763E+03  7.388690E+03  3.040100E+01  7.449359E+03  3.647807E-04
         2   3  2.191072E+03 -2.412583E+02  4.631787E+03 -6.866436E+01  3.559967E+03 -3.937323E-04
         2   4  2.191116E+03  8.032266E+03  1.559847E+04  3.934873E-07  1.133876E+04 -2.384142E-10
         2   5  4.775486E+02 -1.945763E+03  7.388690E+03 -1.633676E-07  7.449359E+03  1.950409E-10
         2   6  2.191072E+03 -2.412583E+02  4.631787E+03  3.998279E-07  3.559967E+03  4.886695E-13
         2   7  2.191116E+03  8.032266E+03  1.559847E+04 -1.294664E+02  1.133876E+04 -2.364541E-03
         2   8  4.775486E+02 -1.945763E+03  7.388690E+03 -3.040100E+01  7.449359E+03 -3.647805E-04
         2   9  2.191072E+03 -2.412583E+02  4.631787E+03  6.866436E+01  3.559967E+03  3.937323E-04
         2  10  2.190978E+03  8.032232E+03  1.559822E+04  1.294664E+02  1.344272E-09  4.993261E-11
         2  11  4.774890E+02 -1.945777E+03  7.388586E+03  3.040100E+01 -1.885074E-09  1.657464E-11
         2  12  2.191059E+03 -2.412617E+02  4.631764E+03 -6.866436E+01  1.480464E-09 -7.578566E-11
         2  13  2.190978E+03  8.032232E+03  1.559822E+04 -2.007118E-08  1.065540E-12 -3.344592E-11
         2  14  4.774890E+02 -1.945777E+03  7.388586E+03  1.123366E-07  1.077016E-09  9.620982E-11
         2  15  2.191059E+03 -2.412617E+02  4.631764E+03  1.413544E-07  1.076966E-09 -2.368401E-13
         2  16  2.190978E+03  8.032232E+03  1.559822E+04 -1.294664E+02 -1.075026E-09 -7.038449E-11
         2  17  4.774890E+02 -1.945777E+03  7.388586E+03 -3.040100E+01  1.615875E-09  6.210620E-11
         2  18  2.191059E+03 -2.412617E+02  4.631764E+03  6.866436E+01 -4.045500E-10  1.801618E-11
         2  19  2.191116E+03  8.032266E+03  1.559847E+04  1.294664E+02 -1.133876E+04 -2.364540E-03
         2  20  4.775486E+02 -1.945763E+03  7.388690E+03  3.040100E+01 -7.449359E+03 -3.647803E-04
         2  21  2.191072E+03 -2.412583E+02  4.631787E+03 -6.866436E+01 -3.559967E+03  3.937325E-04
         2  22  2.191116E+03  8.032266E+03  1.559847E+04  2.556345E-07 -1.133876E+04  2.680939E-10
         2  23  4.775486E+02 -1.945763E+03  7.388690E+03  1.812627E-07 -7.449359E+03 -1.286185E-10
         2  24  2.191072E+03 -2.412583E+02  4.631787E+03  1.241228E-07 -3.559967E+03 -1.618741E-13
         2  25  2.191116E+03  8.032266E+03  1.559847E+04 -1.294664E+02 -1.133876E+04  2.364540E-03
         2  26  4.775486E+02 -1.945763E+03  7.388690E+03 -3.040100E+01 -7.449359E+03  3.647804E-04
         2  27  2.191072E+03 -2.412583E+02  4.631787E+03  6.866437E+01 -3.559967E+03 -3.937325E-04
         3   1  1.559855E+03  1.255563E+03  3.725070E+03  1.888988E+01  2.800483E+03  8.520902E-05
         3   2  1.266543E+03 -3.057013E+02  1.910515E+03  3.904185E+00  1.819168E+03  1.144004E-05
         3   3  1.559853E+03 -3.154730E+01  1.193679E+03 -1.108129E+01  8.378695E+02 -1.495513E-05
         3   4  1.559855E+03  1.255563E+03  3.725070E+03  3.537021E-07  2.800483E+03 -1.285905E-10
         3   5  1.266543E+03 -3.057013E+02  1.910515E+03 -1.424795E-07  1.819168E+03  3.136275E-11
         3   6  1.559853E+03 -3.154730E+01  1.193679E+03  6.783554E-08  8.378695E+02 -4.685844E-12
         3   7  1.559855E+03  1.255563E+03  3.725070E+03 -1.888988E+01  2.800483E+03 -8.520921E-05
         3   8  1.266543E+03 -3.057013E+02  1.910515E+03 -3.904185E+00  1.819168E+03 -1.144014E-05
         3   9  1.559853E+03 -3.154730E+01  1.193679E+03  1.108129E+01  8.378695E+02  1.495522E-05
         3  10  1.559847E+03  1.255561E+03  3.725056E+03  1.888988E+01 -2.708360E-10 -6.115350E-11
         3  11  1.266540E+03 -3.057022E+02  1.910509E+03  3.904184E+00 -5.385200E-10  2.648193E-11
         3  12  1.559853E+03 -3.154749E+01  1.193677E+03 -1.108129E+01 -3.355403E-10 -1.122724E-11
         3  13  1.559847E+03  1.255561E+03  3.725056E+03  4.226284E-07  2.415752E-13 -1.716002E-11
         3  14  1.266540E+03 -3.057022E+02  1.910509E+03 -3.909005E-08 -2.154216E-09  2.438246E-11
         3  15  1.559853E+03 -3.154749E+01  1.193677E+03  1.712251E-07 -2.018804E-09 -1.328600E-11
         3  16  1.559847E+03  1.255561E+03  3.725056E+03 -1.888988E+01  1.220257E-12  1.379878E-11
         3  17  1.266540E+03 -3.057022E+02  1.910509E+03 -3.904184E+00  8.077908E-10  1.428335E-11
         3  18  1.559853E+03 -3.154749E+01  1.193677E+03  1.108129E+01 -4.719100E-10 -1.555063E-11
         3  19  1.559855E+03  1.255563E+03  3.725070E+03  1.888988E+01 -2.800483E+03 -8.520909E-05
         3  20  1.266543E+03 -3.057013E+02  1.910515E+03  3.904185E+00 -1.819168E+03 -1.144006E-05
         3  21  1.559853E+03 -3.154730E+01  1.193679E+03 -1.108129E+01 -8.378695E+02  1.495513E-05
         3  22  1.559855E+03  1.255563E+03  3.725070E+03  9.070298E-09 -2.800483E+03  7.476431E-11
         3  23  1.266543E+03 -3.057013E+02  1.910515E+03  1.332257E-07 -1.819168E+03  6.630186E-12
         3  24  1.559853E+03 -3.154730E+01  1.193679E+03  2.056882E-07 -8.378695E+02 -1.890656E-11
         3  25  1.559855E+03  1.255563E+03  3.725070E+03 -1.888988E+01 -2.800483E+03  8.520916E-05
         3  26  1.266543E+03 -3.057013E+02  1.910515E+03 -3.904184E+00 -1.819168E+03  1.144002E-05
         3  27  1.559853E+03 -3.154730E+01  1.193679E+03  1.108129E+01 -8.378695E+02 -1.495532E-05
         4   1  1.456571E+03  1.940141E+02  9.670025E+02  2.879178E+00  6.417281E+02  2.976034E-06
         4   2  1.395645E+03 -5.495586E+01  5.984198E+02  3.821828E-01  3.393998E+02  2.089157E-07
         4   3  1.456571E+03  2.600791E+01  5.091520E+02 -2.114848E+00  3.706705E+01 -1.263194E-07
         4   4  1.456571E+03  1.940141E+02  9.670025E+02  7.887179E-09  6.417281E+02 -1.872021E-11
         4   5  1.395645E+03 -5.495586E+01  5.984198E+02 -2.838577E-07  3.393998E+02 -1.482342E-12
         4   6  1.456571E+03  2.600791E+01  5.091520E+02  1.050466E-07  3.706705E+01 -3.307326E-11
         4   7  1.456571E+03  1.940141E+02  9.670025E+02 -2.879178E+00  6.417281E+02 -2.976014E-06
         4   8  1.395645E+03 -5.495586E+01  5.984198E+02 -3.821827E-01  3.393998E+02 -2.089143E-07
         4   9  1.456571E+03  2.600791E+01  5.091520E+02  2.114848E+00  3.706705E+01  1.262594E-07
         4  10  1.456570E+03  1.940140E+02  9.670017E+02  2.879177E+00 -2.695797E-10 -2.984216E-11
         4  11  1.395645E+03 -5.495589E+01  5.984196E+02  3.821820E-01 -1.885379E-09 -6.205032E-12
         4  12  1.456571E+03  2.600791E+01  5.091520E+02 -2.114849E+00 -1.414664E-09  1.913749E-11
         4  13  1.456570E+03  1.940140E+02  9.670017E+02 -6.103919E-08 -3.230868E-09 -3.075138E-11
         4  14  1.395645E+03 -5.495589E+01  5.984196E+02  9.523732E-08 -5.385458E-10 -3.689149E-12
         4  15  1.456571E+03  2.600791E+01  5.091520E+02  1.136624E-07 -6.731092E-10  3.399386E-11
         4  16  1.456570E+03  1.940140E+02  9.670017E+02 -2.879177E+00 -5.379131E-10 -4.007383E-11
         4  17  1.395645E+03 -5.495589E+01  5.984196E+02 -3.821824E-01  8.502593E-13  9.307268E-13
         4  18  1.456571E+03  2.600791E+01  5.091520E+02  2.114849E+00  1.616591E-09  5.022326E-11
         4  19  1.456571E+03  1.940141E+02  9.670025E+02  2.879177E+00 -6.417281E+02 -2.976111E-06
         4  20  1.395645E+03 -5.495586E+01  5.984198E+02  3.821825E-01 -3.393998E+02 -2.089129E-07
         4  21  1.456571E+03  2.600791E+01  5.091520E+02 -2.114849E+00 -3.706705E+01  1.263520E-07
         4  22  1.456571E+03  1.940141E+02  9.670025E+02  2.835927E-07 -6.417281E+02 -4.437435E-11
         4  23  1.395645E+03 -5.495586E+01  5.984198E+02 -8.152219E-09 -3.393998E+02 -7.895274E-12
         4  24  1.456571E+03  2.600791E+01  5.091520E+02  3.807522E-07 -3.706705E+01  9.961257E-11
         4  25  1.456571E+03  1.940141E+02  9.670025E+02 -2.879177E+00 -6.417281E+02  2.975981E-06
         4  26  1.395645E+03 -5.495586E+01  5.984198E+02 -3.821825E-01 -3.393998E+02  2.088840E-07
         4  27  1.456571E+03  2.600791E+01  5.091520E+02  2.114849E+00 -3.706705E+01 -1.261670E-07
         5   1  1.457448E+03  2.435363E+01  5.121372E+02  2.185283E+00 -5.557430E+01 -1.956578E-07
         5   2  1.394549E+03 -5.684750E+01  6.151918E+02 -4.006403E-01 -3.664229E+02  2.364710E-07
         5   3  1.457448E+03  2.032433E+02  1.005946E+03 -2.986562E+00 -6.772715E+02  3.258087E-06
         5   4  1.457448E+03  2.435363E+01  5.121372E+02  1.874520E-07 -5.557430E+01 -3.303045E-11
         5   5  1.394549E+03 -5.684750E+01  6.151918E+02 -1.985935E-07 -3.664229E+02  3.876366E-12
         5   6  1.457448E+03  2.032433E+02  1.005946E+03 -1.280018E-07 -6.772715E+02  2.880453E-11
         5   7  1.457448E+03  2.435363E+01  5.121372E+02 -2.185282E+00 -5.557430E+01  1.955874E-07
         5   8  1.394549E+03 -5.684750E+01  6.151918E+02  4.006406E-01 -3.664229E+02 -2.364827E-07
         5   9  1.457448E+03  2.032433E+02  1.005946E+03  2.986562E+00 -6.772715E+02 -3.258030E-06
         5  10  1.457448E+03  2.435363E+01  5.121372E+02  2.185282E+00 -2.674254E-10  8.756151E-12
         5  11  1.394549E+03 -5.684753E+01  6.151915E+02 -4.006409E-01  2.777983E-13 -1.312766E-12
         5  12  1.457447E+03  2.032432E+02  1.005945E+03 -2.986563E+00 -6.069811E-10  9.845691E-12
         5  13  1.457448E+03  2.435363E+01  5.121372E+02  3.253048E-07 -1.077305E-09  2.442905E-11
         5  14  1.394549E+03 -5.684753E+01  6.151915E+02 -2.675198E-07 -5.385620E-10 -1.902974E-11
         5  15  1.457447E+03  2.032432E+02  1.005945E+03 -5.045961E-08 -2.154142E-09 -4.029073E-13
         5  16  1.457448E+03  2.435363E+01  5.121372E+02 -2.185281E+00 -8.095537E-10  3.484321E-11
         5  17  1.394549E+03 -5.684753E+01  6.151915E+02  4.006412E-01 -1.346528E-09 -2.728088E-11
         5  18  1.457447E+03  2.032432E+02  1.005945E+03  2.986562E+00  9.435852E-10 -7.030611E-12
         5  19  1.457448E+03  2.435363E+01  5.121372E+02  2.185282E+00  5.557430E+01  1.956936E-07
         5  20  1.394549E+03 -5.684750E+01  6.151918E+02 -4.006418E-01  3.664229E+02 -2.364700E-07
         5  21  1.457448E+03  2.032433E+02  1.005946E+03 -2.986563E+00  6.772715E+02 -3.258062E-06
         5  22  1.457448E+03  2.435363E+01  5.121372E+02  5.320839E-07  5.557430E+01  8.105004E-11
         5  23  1.394549E+03 -5.684750E+01  6.151918E+02 -2.675198E-07  3.664229E+02 -4.284401E-11
         5  24  1.457448E+03  2.032433E+02  1.005946E+03  8.739314E-08  6.772715E+02 -2.999089E-11
         5  25  1.457448E+03  2.435363E+01  5.121372E+02 -2.185282E+00  5.557430E+01 -1.955238E-07
         5  26  1.394549E+03 -5.684750E+01  6.151918E+02  4.006402E-01  3.664229E+02  2.364148E-07
         5  27  1.457448E+03  2.032433E+02  1.005946E+03  2.986562E+00  6.772715E+02  3.257996E-06
         6   1  1.565936E+03 -3.346752E+01  1.244881E+03  1.160253E+01 -8.815826E+02 -1.647550E-05
         6   2  1.258940E+03 -3.200342E+02  1.997853E+03 -4.087193E+00 -1.907805E+03  1.255998E-05
         6   3  1.565938E+03  1.314852E+03  3.899311E+03 -1.977667E+01 -2.934013E+03  9.346289E-05
         6   4  1.565936E+03 -3.346752E+01  1.244881E+03  2.398526E-07 -8.815826E+02  4.198555E-11
         6   5  1.258940E+03 -3.200342E+02  1.997853E+03  2.964935E-07 -1.907805E+03 -9.463368E-12
         6   6  1.565938E+03  1.314852E+03  3.899311E+03  5.426808E-07 -2.934013E+03 -1.040521E-10
         6   7  1.565936E+03 -3.346752E+01  1.244881E+03 -1.160253E+01 -8.815826E+02  1.647554E-05
         6   8  1.258940E+03 -3.200342E+02  1.997853E+03  4.087193E+00 -1.907805E+03 -1.255999E-05
         6   9  1.565938E+03  1.314852E+03  3.899311E+03  1.977667E+01 -2.934013E+03 -9.346286E-05
         6  10  1.565935E+03 -3.346773E+01  1.244880E+03  1.160253E+01 -1.345641E-09  2.094146E-11
         6  11  1.258936E+03 -3.200352E+02  1.997847E+03 -4.087194E+00  8.082784E-10 -1.032383E-11
         6  12  1.565929E+03  1.314849E+03  3.899295E+03 -1.977667E+01  8.083861E-10 -1.278735E-12
         6  13  1.565935E+03 -3.346773E+01  1.244880E+03  3.777053E-07  6.750284E-13  1.324726E-11
         6  14  1.258936E+03 -3.200352E+02  1.997847E+03  1.931040E-07 -1.077025E-09 -2.177206E-13
         6  15  1.565929E+03  1.314849E+03  3.899295E+03  2.842069E-07  8.077301E-10 -3.051087E-11
         6  16  1.565935E+03 -3.346773E+01  1.244880E+03 -1.160253E+01 -2.703398E-10 -7.067743E-12
         6  17  1.258936E+03 -3.200352E+02  1.997847E+03  4.087194E+00 -8.081949E-10  3.933625E-11
         6  18  1.565929E+03  1.314849E+03  3.899295E+03  1.977667E+01 -1.077687E-09 -2.503779E-11
         6  19  1.565936E+03 -3.346752E+01  1.244881E+03  1.160253E+01  8.815826E+02  1.647551E-05
         6  20  1.258940E+03 -3.200342E+02  1.997853E+03 -4.087193E+00  1.907805E+03 -1.255963E-05
         6  21  1.565938E+03  1.314852E+03  3.899311E+03 -1.977667E+01  2.934013E+03 -9.346280E-05
         6  22  1.565936E+03 -3.346752E+01  1.244881E+03  2.398526E-07  8.815826E+02 -8.656489E-12
         6  23  1.258940E+03 -3.200342E+02  1.997853E+03  1.241777E-07  1.907805E+03  8.722107E-12
         6  24  1.565938E+03  1.314852E+03  3.899311E+03  2.583596E-07  2.934013E+03  4.226102E-11
         6  25  1.565936E+03 -3.346752E+01  1.244881E+03 -1.160253E+01  8.815826E+02 -1.647555E-05
         6  26  1.258940E+03 -3.200342E+02  1.997853E+03  4.087193E+00  1.907805E+03  1.255981E-05
         6  27  1.565938E+03  1.314852E+03  3.899311E+03  1.977667E+01  2.934013E+03  9.346258E-05
         7   1  2.227012E+03 -2.527292E+02  4.849254E+03  7.190695E+01 -3.729146E+03 -4.319200E-04
         7   2  4.326270E+02 -2.037623E+03  7.736912E+03 -3.183659E+01 -7.801796E+03  4.000794E-04
         7   3  2.227061E+03  8.411619E+03  1.633462E+04 -1.355817E+02 -1.187451E+04  2.593234E-03
         7   4  2.227012E+03 -2.527292E+02  4.849254E+03  3.626926E-07 -3.729146E+03  3.482603E-11
         7   5  4.326270E+02 -2.037623E+03  7.736912E+03 -4.409182E-08 -7.801796E+03  1.853379E-10
         7   6  2.227061E+03  8.411619E+03  1.633462E+04  2.125396E-07 -1.187451E+04  4.465524E-10
         7   7  2.227012E+03 -2.527292E+02  4.849254E+03 -7.190695E+01 -3.729146E+03  4.319205E-04
         7   8  4.326270E+02 -2.037623E+03  7.736912E+03  3.183659E+01 -7.801796E+03 -4.000807E-04
         7   9  2.227061E+03  8.411619E+03  1.633462E+04  1.355817E+02 -1.187451E+04 -2.593234E-03
         7  10  2.226997E+03 -2.527329E+02  4.849228E+03  7.190695E+01 -8.104578E-10 -5.635239E-11
         7  11  4.325616E+02 -2.037639E+03  7.736798E+03 -3.183659E+01 -1.257464E-12  6.133773E-11
         7  12  2.226909E+03  8.411581E+03  1.633436E+04 -1.355817E+02  3.379142E-10  1.641584E-10
         7  13  2.226997E+03 -2.527329E+02  4.849228E+03  8.698753E-08 -4.619673E-13 -2.719318E-11
         7  14  4.325616E+02 -2.037639E+03  7.736798E+03  9.376025E-08 -5.387859E-10  3.066641E-11
         7  15  2.226909E+03  8.411581E+03  1.633436E+04  8.330252E-08  1.349261E-10  7.836944E-11
         7  16  2.226997E+03 -2.527329E+02  4.849228E+03 -7.190695E+01 -1.882780E-09  1.964578E-12
         7  17  4.325616E+02 -2.037639E+03  7.736798E+03  3.183659E+01 -5.366278E-10  6.385565E-11
         7  18  2.226909E+03  8.411581E+03  1.633436E+04  1.355817E+02  1.348322E-09 -9.491912E-11
         7  19  2.227012E+03 -2.527292E+02  4.849254E+03  7.190695E+01  3.729146E+03  4.319211E-04
         7  20  4.326270E+02 -2.037623E+03  7.736912E+03 -3.183659E+01  7.801796E+03 -4.000792E-04
         7  21  2.227061E+03  8.411619E+03  1.633462E+04 -1.355817E+02  1.187451E+04 -2.593231E-03
         7  22  2.227012E+03 -2.527292E+02  4.849254E+03 -5.086498E-08  3.729146E+03 -6.702766E-11
         7  23  4.326270E+02 -2.037623E+03  7.736912E+03 -4.409181E-08  7.801796E+03 -1.159192E-10
         7  24  2.227061E+03  8.411619E+03  1.633462E+04  4.193188E-07  1.187451E+04 -2.674858E-10
         7  25  2.227012E+03 -2.527292E+02  4.849254E+03 -7.190695E+01  3.729146E+03 -4.319204E-04
         7  26  4.326270E+02 -2.037623E+03  7.736912E+03  3.183659E+01  7.801796E+03  4.000790E-04
         7  27  2.227061E+03  8.411619E+03  1.633462E+04  1.355817E+02  1.187451E+04  2.593231E-03
         8   1  6.225619E+03 -1.655230E+03  1.971224E+04  4.491449E+02 -1.515626E+04 -1.096478E-02
         8   2 -4.565062E+03 -1.295898E+04  2.987890E+04 -2.255660E+02 -3.151234E+04  1.144941E-02
         8   3  6.226427E+03  5.354566E+04  7.014724E+04 -9.002865E+02 -4.786834E+04  6.941504E-02
         8   4  6.225619E+03 -1.655230E+03  1.971224E+04 -6.165161E-08 -1.515626E+04 -9.022138E-11
         8   5 -4.565062E+03 -1.295898E+04  2.987890E+04 -3.546662E-07 -3.151234E+04 -1.531859E-09
         8   6  6.226426E+03  5.354566E+04  7.014724E+04 -1.652108E-07 -4.786834E+04 -5.553421E-10
         8   7  6.225619E+03 -1.655230E+03  1.971224E+04 -4.491449E+02 -1.515626E+04  1.096478E-02
         8   8 -4.565062E+03 -1.295898E+04  2.987890E+04  2.255660E+02 -3.151234E+04 -1.144941E-02
         8   9  6.226427E+03  5.354566E+04  7.014724E+04  9.002865E+02 -4.786834E+04 -6.941503E-02
         8  10  6.225373E+03 -1.655291E+03  1.971181E+04  4.491449E+02 -7.910393E-10  9.467095E-11
         8  11 -4.566129E+03 -1.295925E+04  2.987703E+04 -2.255660E+02  1.302551E-12 -5.068207E-10
         8  12  6.223966E+03  5.354504E+04  7.014293E+04 -9.002865E+02  3.279232E-10 -5.866131E-10
         8  13  6.225372E+03 -1.655292E+03  1.971181E+04  7.620012E-08 -1.088564E-09 -1.220593E-10
         8  14 -4.566129E+03 -1.295925E+04  2.987703E+04  1.278065E-07 -1.082955E-09 -5.850346E-10
         8  15  6.223966E+03  5.354504E+04  7.014293E+04  5.880372E-08 -9.403740E-10 -1.844191E-10
         8  16  6.225373E+03 -1.655291E+03  1.971181E+04 -4.491449E+02  1.337232E-09 -2.181065E-10
         8  17 -4.566129E+03 -1.295925E+04  2.987703E+04  2.255660E+02  3.228631E-09 -6.897922E-10
         8  18  6.223966E+03  5.354504E+04  7.014293E+04  9.002865E+02  1.906444E-09 -6.231798E-10
         8  19  6.225619E+03 -1.655230E+03  1.971224E+04  4.491449E+02  1.515626E+04  1.096478E-02
         8  20 -4.565062E+03 -1.295898E+04  2.987890E+04 -2.255660E+02  3.151234E+04 -1.144941E-02
         8  21  6.226427E+03  5.354566E+04  7.014724E+04 -9.002865E+02  4.786834E+04 -6.941503E-02
         8  22  6.225619E+03 -1.655230E+03  1.971224E+04  4.208295E-07  1.515626E+04 -1.133641E-10
         8  23 -4.565062E+03 -1.295898E+04  2.987890E+04  1.967312E-07  3.151234E+04  4.547318E-10
         8  24  6.226426E+03  5.354566E+04  7.014724E+04  6.741969E-08  4.786834E+04 -1.722353E-10
         8  25  6.225619E+03 -1.655230E+03  1.971224E+04 -4.491449E+02  1.515626E+04 -1.096478E-02
         8  26 -4.565062E+03 -1.295898E+04  2.987890E+04  2.255660E+02  3.151234E+04  1.144941E-02
         8  27  6.226427E+03  5.354566E+04  7.014724E+04  9.002865E+02  4.786834E+04  6.941503E-02
         9   1  6.911494E+05  2.516213E+06  6.560672E+05 -4.793019E+05  3.218483E+04  2.499306E+05
         9   2  5.571022E+05  2.145591E+06  4.416733E+05 -4.403048E+05  1.066992E+05  1.144397E+05
         9   3  4.593462E+05  1.802016E+06  3.244101E+05 -4.589209E+05  1.240935E+05 -2.094761E+04
         9   4  3.098803E+04 -1.654145E+05  3.310914E+04 -4.565781E+05  3.239533E+04  2.188535E+04
         9   5  1.017292E+04 -1.676720E+05  1.760625E+04 -4.277886E+05  1.068511E+05  1.303235E+04
         9   6  3.781471E+03 -1.648791E+05  1.151858E+04 -4.566098E+05  1.240930E+05  4.195201E+03
         9   7 -6.296504E+05 -2.840308E+06 -5.901381E+05 -4.339492E+05  3.258993E+04 -2.051849E+05
         9   8 -5.370537E+05 -2.475729E+06 -4.066410E+05 -4.153171E+05  1.069994E+05 -8.800820E+04
         9   9 -4.519759E+05 -2.127932E+06 -3.014701E+05 -4.543038E+05  1.240928E+05  2.926141E+04
         9  10  6.911315E+05  2.516146E+06  6.559483E+05 -4.793084E+05 -1.713636E-10  4.826312E-10
         9  11  5.570864E+05  2.145574E+06  4.416274E+05 -4.403147E+05  8.783577E-10 -1.020299E-09
         9  12  4.593295E+05  1.802012E+06  3.243803E+05 -4.589188E+05 -5.966156E-10 -2.600970E-09
         9  13  3.098678E+04 -1.654153E+05  3.310626E+04 -4.565786E+05  1.008398E-10 -2.675552E-14
         9  14  1.016061E+04 -1.676752E+05  1.758447E+04 -4.277897E+05  5.693245E-10  3.050918E-12
         9  15  3.764932E+03 -1.648833E+05  1.148961E+04 -4.566103E+05  5.833161E-10  1.363175E-11
         9  16 -6.296629E+05 -2.840354E+06 -5.902195E+05 -4.339438E+05  3.598191E-10 -5.458394E-10
         9  17 -5.370681E+05 -2.475740E+06 -4.066771E+05 -4.153095E+05  2.909203E-10  9.487203E-10
         9  18 -4.519926E+05 -2.127937E+06 -3.015007E+05 -4.543067E+05 -2.735407E-09  2.615528E-09
         9  19  6.911494E+05  2.516213E+06  6.560672E+05 -4.793019E+05 -3.218483E+04 -2.499306E+05
         9  20  5.571022E+05  2.145591E+06  4.416733E+05 -4.403048E+05 -1.066992E+05 -1.144397E+05
         9  21  4.593462E+05  1.802016E+06  3.244101E+05 -4.589209E+05 -1.240935E+05  2.094761E+04
         9  22  3.098803E+04 -1.654145E+05  3.310914E+04 -4.565781E+05 -3.239533E+04 -2.188535E+04
         9  23  1.017292E+04 -1.676720E+05  1.760625E+04 -4.277886E+05 -1.068511E+05 -1.303235E+04
         9  24  3.781471E+03 -1.648791E+05  1.151858E+04 -4.566098E+05 -1.240930E+05 -4.195201E+03
         9  25 -6.296504E+05 -2.840308E+06 -5.901381E+05 -4.339492E+05 -3.258993E+04  2.051849E+05
         9  26 -5.370537E+05 -2.475729E+06 -4.066410E+05 -4.153171E+05 -1.069994E+05  8.800820E+04
         9  27 -4.519759E+05 -2.127932E+06 -3.014701E+05 -4.543038E+05 -1.240928E+05 -2.926141E+04
        10   1  4.050605E+05  1.575242E+06  2.795474E+05 -4.609094E+05  1.151486E+05 -2.428247E+04
        10   2  3.195934E+05  1.216376E+06  2.124372E+05 -4.277783E+05  9.955674E+04 -4.489497E+04
        10   3  2.403364E+05  8.618498E+05  1.602729E+05 -4.564189E+05  7.692288E+04 -6.551887E+04
        10   4  3.335733E+03 -1.655122E+05  1.020293E+04 -4.575364E+05  1.151355E+05  2.496926E+03
        10   5  2.797347E+03 -1.661034E+05  1.003480E+04 -4.266457E+05  9.950196E+04 -2.531823E+03
        10   6  5.777662E+03 -1.651791E+05  1.400848E+04 -4.575345E+05  7.681830E+04 -7.583068E+03
        10   7 -3.985361E+05 -1.903242E+06 -2.592082E+05 -4.541710E+05  1.151226E+05  2.920423E+04
        10   8 -3.140863E+05 -1.546656E+06 -1.923939E+05 -4.255143E+05  9.944725E+04  3.974104E+04
        10   9 -2.288269E+05 -1.191135E+06 -1.322587E+05 -4.586473E+05  7.671339E+04  5.026112E+04
        10  10  4.050461E+05  1.575237E+06  2.795214E+05 -4.609071E+05 -1.118980E-09  3.650646E-10
        10  11  3.195822E+05  1.216371E+06  2.124149E+05 -4.277747E+05 -4.807801E-10 -2.953049E-10
        10  12  2.403289E+05  8.618436E+05  1.602538E+05 -4.564148E+05 -9.867744E-10 -9.467968E-10
        10  13  3.321498E+03 -1.655158E+05  1.017801E+04 -4.575366E+05 -7.488647E-10  4.122622E-11
        10  14  2.786715E+03 -1.661060E+05  1.001618E+04 -4.266455E+05 -3.931356E-10  6.268936E-11
        10  15  5.771311E+03 -1.651808E+05  1.399729E+04 -4.575340E+05 -6.936594E-10  1.856077E-11
        10  16 -3.985506E+05 -1.903246E+06 -2.592347E+05 -4.541738E+05 -1.660213E-09 -3.577738E-10
        10  17 -3.140973E+05 -1.546660E+06 -1.924155E+05 -4.255175E+05 -7.683309E-10  3.484101E-10
        10  18 -2.288339E+05 -1.191139E+06 -1.322745E+05 -4.586504E+05 -6.535972E-10  8.123774E-10
        10  19  4.050605E+05  1.575242E+06  2.795474E+05 -4.609094E+05 -1.151486E+05  2.428247E+04
        10  20  3.195934E+05  1.216376E+06  2.124372E+05 -4.277783E+05 -9.955674E+04  4.489497E+04
        10  21  2.403364E+05  8.618498E+05  1.602729E+05 -4.564189E+05 -7.692288E+04  6.551887E+04
        10  22  3.335733E+03 -1.655122E+05  1.020293E+04 -4.575364E+05 -1.151355E+05 -2.496926E+03
        10  23  2.797347E+03 -1.661034E+05  1.003480E+04 -4.266457E+05 -9.950196E+04  2.531823E+03
        10  24  5.777662E+03 -1.651791E+05  1.400848E+04 -4.575345E+05 -7.681830E+04  7.583068E+03
        10  25 -3.985361E+05 -1.903242E+06 -2.592082E+05 -4.541710E+05 -1.151226E+05 -2.920423E+04
        10  26 -3.140863E+05 -1.546656E+06 -1.923939E+05 -4.255143E+05 -9.944725E+04 -3.974104E+04
        10  27 -2.288269E+05 -1.191135E+06 -1.322587E+05 -4.586473E+05 -7.671339E+04 -5.026112E+04
        11   1  1.906070E+05  6.406856E+05  1.305510E+05 -4.579554E+05  6.136981E+04 -6.810178E+04
        11   2  1.215954E+05  2.800769E+05  9.236860E+04 -4.080257E+05  3.491996E+04 -8.446281E+04
        11   3  7.768738E+04 -7.216060E+04  7.106392E+04 -4.203477E+05  8.104005E+03 -1.008229E+05
        11   4  7.190537E+03 -1.636420E+05  1.753704E+04 -4.576437E+05  6.125559E+04 -9.984825E+03
        11   5  1.976012E+04 -1.676300E+05  3.039626E+04 -4.264793E+05  3.479888E+04 -2.554837E+04
        11   6  5.730144E+04 -1.635291E+05  5.956813E+04 -4.575581E+05  7.976998E+03 -4.111895E+04
        11   7 -1.762531E+05 -9.673073E+05 -9.547281E+04 -4.573319E+05  6.114133E+04  4.806019E+04
        11   8 -8.208082E+04 -6.151253E+05 -3.156520E+04 -4.449189E+05  3.467423E+04  3.332550E+04
        11   9  3.692230E+04 -2.548783E+05  4.808647E+04 -4.947627E+05  7.842820E+03  1.857663E+04
        11  10  1.906018E+05  6.406796E+05  1.305353E+05 -4.579520E+05 -8.406598E-11 -4.147640E-10
        11  11  1.215922E+05  2.800689E+05  9.235292E+04 -4.080234E+05  6.099838E-10  4.589608E-10
        11  12  7.768458E+04 -7.217153E+04  7.104469E+04 -4.203471E+05  8.645284E-10  1.237678E-09
        11  13  7.186482E+03 -1.636431E+05  1.752980E+04 -4.576432E+05 -2.847999E-09 -5.907653E-11
        11  14  1.975865E+04 -1.676311E+05  3.039276E+04 -4.264786E+05 -1.179653E-09 -4.049185E-11
        11  15  5.730092E+04 -1.635309E+05  5.956483E+04 -4.575578E+05 -1.124586E-09 -2.614974E-11
        11  16 -1.762577E+05 -9.673108E+05 -9.548419E+04 -4.573342E+05 -2.366005E-09  3.447422E-10
        11  17 -8.208241E+04 -6.151268E+05 -3.156955E+04 -4.449198E+05 -2.312002E-09 -5.968372E-10
        11  18  3.692214E+04 -2.548787E+05  4.808570E+04 -4.947628E+05 -2.540445E-10 -1.243922E-09
        11  19  1.906070E+05  6.406856E+05  1.305510E+05 -4.579554E+05 -6.136981E+04  6.810178E+04
        11  20  1.215954E+05  2.800769E+05  9.236860E+04 -4.080257E+05 -3.491996E+04  8.446281E+04
        11  21  7.768738E+04 -7.216060E+04  7.106392E+04 -4.203477E+05 -8.104005E+03  1.008229E+05
        11  22  7.190537E+03 -1.636420E+05  1.753704E+04 -4.576437E+05 -6.125559E+04  9.984825E+03
        11  23  1.976012E+04 -1.676300E+05  3.039626E+04 -4.264793E+05 -3.479888E+04  2.554837E+04
        11  24  5.730144E+04 -1.635291E+05  5.956813E+04 -4.575581E+05 -7.976998E+03  4.111895E+04
        11  25 -1.762531E+05 -9.673073E+05 -9.547281E+04 -4.573319E+05 -6.114133E+04 -4.806019E+04
        11  26 -8.208082E+04 -6.151253E+05 -3.156520E+04 -4.449189E+05 -3.467423E+04 -3.332550E+04
        11  27  3.692230E+04 -2.548783E+05  4.808647E+04 -4.947627E+05 -7.842820E+03 -1.857663E+04
        12   1 -2.122491E+06 -6.270041E+05 -4.291420E+05 -7.216900E+05 -2.609801E+05 -9.739215E+04
        12   2 -2.040923E+06 -2.493094E+05 -1.842731E+05 -7.970610E+05 -1.680623E+05 -6.176458E+04
        12   3 -2.119008E+06 -2.855516E+05 -1.206777E+05 -7.734032E+05 -7.476789E+04 -2.714011E+04
        12   4 -2.090766E+06 -5.709342E+05 -4.116050E+05 -6.677207E+05 -2.607200E+05 -9.731804E+04
        12   5 -1.990402E+06 -2.188342E+05 -1.682124E+05 -7.715924E+05 -1.680265E+05 -6.175507E+04
        12   6 -2.049634E+06 -2.806106E+05 -1.059066E+05 -7.764417E+05 -7.495298E+04 -2.720626E+04
        12   7 -2.059035E+06 -5.148522E+05 -3.940671E+05 -6.137470E+05 -2.604600E+05 -9.724389E+04
        12   8 -1.939879E+06 -1.883573E+05 -1.521520E+05 -7.461216E+05 -1.679907E+05 -6.174554E+04
        12   9 -1.980254E+06 -2.756691E+05 -9.113537E+04 -7.794810E+05 -7.513808E+04 -2.727240E+04
        12  10 -2.122567E+06 -6.270327E+05 -4.292884E+05 -7.217105E+05  6.290059E-11  1.681369E-11
        12  11 -2.040954E+06 -2.493212E+05 -1.843336E+05 -7.970693E+05 -5.889889E-10 -6.037374E-11
        12  12 -2.119014E+06 -2.855539E+05 -1.206896E+05 -7.734049E+05  5.704912E-10 -8.924569E-11
        12  13 -2.090842E+06 -5.709628E+05 -4.117511E+05 -6.677411E+05  1.084098E-09 -2.427894E-11
        12  14 -1.990434E+06 -2.188459E+05 -1.682729E+05 -7.716008E+05  1.016700E-09 -3.639028E-11
        12  15 -2.049640E+06 -2.806130E+05 -1.059186E+05 -7.764434E+05  1.924878E-09  1.112479E-10
        12  16 -2.059111E+06 -5.148807E+05 -3.942129E+05 -6.137674E+05 -8.613625E-10  5.170012E-11
        12  17 -1.939910E+06 -1.883691E+05 -1.522124E+05 -7.461300E+05  7.821052E-10  3.496310E-10
        12  18 -1.980260E+06 -2.756714E+05 -9.114742E+04 -7.794827E+05 -3.132051E-10  7.057886E-10
        12  19 -2.122491E+06 -6.270041E+05 -4.291420E+05 -7.216900E+05  2.609801E+05  9.739215E+04
        12  20 -2.040923E+06 -2.493094E+05 -1.842731E+05 -7.970610E+05  1.680623E+05  6.176458E+04
        12  21 -2.119008E+06 -2.855516E+05 -1.206777E+05 -7.734032E+05  7.476789E+04  2.714011E+04
        12  22 -2.090766E+06 -5.709342E+05 -4.116050E+05 -6.677207E+05  2.607200E+05  9.731804E+04
        12  23 -1.990402E+06 -2.188342E+05 -1.682124E+05 -7.715924E+05  1.680265E+05  6.175507E+04
        12  24 -2.049634E+06 -2.806106E+05 -1.059066E+05 -7.764417E+05  7.495298E+04  2.720626E+04
        12  25 -2.059035E+06 -5.148522E+05 -3.940671E+05 -6.137470E+05  2.604600E+05  9.724389E+04
        12  26 -1.939879E+06 -1.883573E+05 -1.521520E+05 -7.461216E+05  1.679907E+05  6.174554E+04
        12  27 -1.980254E+06 -2.756691E+05 -9.113537E+04 -7.794810E+05  7.513808E+04  2.727240E+04
        13   1 -2.060793E+06 -3.441887E+05 -9.520638E+04 -7.630811E+05 -5.891917E+04 -2.151010E+04
        13   2 -2.046380E+06 -2.845985E+05 -4.595216E+04 -7.687349E+05 -3.784446E+04 -1.372724E+04
        13   3 -2.049590E+06 -2.912358E+05 -2.850080E+04 -7.678150E+05 -1.671113E+04 -6.099180E+03
        13   4 -2.035779E+06 -3.286811E+05 -8.716446E+04 -7.500401E+05 -5.892580E+04 -2.151331E+04
        13   5 -2.024009E+06 -2.746820E+05 -3.954468E+04 -7.611419E+05 -3.788507E+04 -1.374257E+04
        13   6 -2.029854E+06 -2.869023E+05 -2.369965E+04 -7.656702E+05 -1.678583E+04 -6.127059E+03
        13   7 -2.010763E+06 -3.131730E+05 -7.912260E+04 -7.369985E+05 -5.893243E+04 -2.151652E+04
        13   8 -2.001637E+06 -2.647654E+05 -3.313727E+04 -7.535487E+05 -3.792568E+04 -1.375790E+04
        13   9 -2.010119E+06 -2.825687E+05 -1.889854E+04 -7.635254E+05 -1.686053E+04 -6.154939E+03
        13  10 -2.060797E+06 -3.441902E+05 -9.521380E+04 -7.630821E+05  2.028278E-09  2.139424E-10
        13  11 -2.046382E+06 -2.845991E+05 -4.595522E+04 -7.687354E+05  1.765413E-10 -9.942598E-10
        13  12 -2.049590E+06 -2.912359E+05 -2.850139E+04 -7.678151E+05  2.591164E-10 -2.495588E-10
        13  13 -2.035782E+06 -3.286825E+05 -8.717188E+04 -7.500411E+05  1.402716E-09 -1.848203E-10
        13  14 -2.024011E+06 -2.746826E+05 -3.954775E+04 -7.611424E+05  1.494287E-09 -9.222159E-10
        13  15 -2.029855E+06 -2.869024E+05 -2.370025E+04 -7.656703E+05  9.161935E-10  1.556821E-10
        13  16 -2.010767E+06 -3.131745E+05 -7.913002E+04 -7.369995E+05 -1.110875E-09 -2.077603E-10
        13  17 -2.001639E+06 -2.647660E+05 -3.314034E+04 -7.535491E+05  1.126850E-09 -1.055883E-09
        13  18 -2.010119E+06 -2.825688E+05 -1.889915E+04 -7.635255E+05 -2.734438E-10  3.267667E-10
        13  19 -2.060793E+06 -3.441887E+05 -9.520638E+04 -7.630811E+05  5.891917E+04  2.151010E+04
        13  20 -2.046380E+06 -2.845985E+05 -4.595216E+04 -7.687349E+05  3.784446E+04  1.372724E+04
        13  21 -2.049590E+06 -2.912358E+05 -2.850080E+04 -7.678150E+05  1.671113E+04  6.099180E+03
        13  22 -2.035779E+06 -3.286811E+05 -8.716446E+04 -7.500401E+05  5.892580E+04  2.151331E+04
        13  23 -2.024009E+06 -2.746820E+05 -3.954468E+04 -7.611419E+05  3.788507E+04  1.374257E+04
        13  24 -2.029854E+06 -2.869023E+05 -2.369965E+04 -7.656702E+05  1.678583E+04  6.127059E+03
        13  25 -2.010763E+06 -3.131730E+05 -7.912260E+04 -7.369985E+05  5.893243E+04  2.151652E+04
        13  26 -2.001637E+06 -2.647654E+05 -3.313727E+04 -7.535487E+05  3.792568E+04  1.375790E+04
        13  27 -2.010119E+06 -2.825687E+05 -1.889854E+04 -7.635254E+05  1.686053E+04  6.154939E+03
        14   1 -2.017295E+06 -2.905978E+05 -1.618551E+04 -7.598197E+05 -1.315074E+04 -4.957797E+03
        14   2 -2.013041E+06 -2.769396E+05 -4.906644E+03 -7.555710E+05 -8.274681E+03 -3.389805E+03
        14   3 -2.005245E+06 -2.791499E+05  4.828556E+02 -7.576965E+05 -3.398390E+03 -1.822406E+03
        14   4 -2.027692E+06 -2.937155E+05 -1.888961E+04 -7.618072E+05 -1.320131E+04 -4.976762E+03
        14   5 -2.029039E+06 -2.828016E+05 -9.247007E+03 -7.597341E+05 -8.325455E+03 -3.408832E+03
        14   6 -2.026845E+06 -2.877562E+05 -5.493603E+03 -7.640351E+05 -3.449423E+03 -1.841525E+03
        14   7 -2.038089E+06 -2.968333E+05 -2.159373E+04 -7.637947E+05 -1.325187E+04 -4.995726E+03
        14   8 -2.045037E+06 -2.886636E+05 -1.358740E+04 -7.638970E+05 -8.376227E+03 -3.427858E+03
        14   9 -2.048444E+06 -2.963625E+05 -1.147011E+04 -7.703734E+05 -3.500454E+03 -1.860645E+03
        14  10 -2.017295E+06 -2.905978E+05 -1.618588E+04 -7.598197E+05 -1.920436E-10  3.640897E-10
        14  11 -2.013041E+06 -2.769396E+05 -4.906794E+03 -7.555711E+05 -2.156252E-10 -2.099127E-10
        14  12 -2.005245E+06 -2.791499E+05  4.828276E+02 -7.576965E+05 -7.335921E-11  4.327478E-10
        14  13 -2.027692E+06 -2.937156E+05 -1.888999E+04 -7.618072E+05 -2.550685E-10  2.504178E-10
        14  14 -2.029039E+06 -2.828017E+05 -9.247159E+03 -7.597341E+05  1.495211E-09  1.986158E-10
        14  15 -2.026845E+06 -2.877562E+05 -5.493632E+03 -7.640351E+05  9.401927E-10 -4.813904E-10
        14  16 -2.038089E+06 -2.968333E+05 -2.159411E+04 -7.637947E+05  8.560508E-11  4.252013E-10
        14  17 -2.045037E+06 -2.886637E+05 -1.358756E+04 -7.638970E+05  3.659280E-09  1.986903E-11
        14  18 -2.048444E+06 -2.963625E+05 -1.147014E+04 -7.703734E+05  1.816277E-09 -1.100938E-10
        14  19 -2.017295E+06 -2.905978E+05 -1.618551E+04 -7.598197E+05  1.315074E+04  4.957797E+03
        14  20 -2.013041E+06 -2.769396E+05 -4.906644E+03 -7.555710E+05  8.274681E+03  3.389805E+03
        14  21 -2.005245E+06 -2.791499E+05  4.828556E+02 -7.576965E+05  3.398390E+03  1.822406E+03
        14  22 -2.027692E+06 -2.937155E+05 -1.888961E+04 -7.618072E+05  1.320131E+04  4.976762E+03
        14  23 -2.029039E+06 -2.828016E+05 -9.247007E+03 -7.597341E+05  8.325455E+03  3.408832E+03
        14  24 -2.026845E+06 -2.877562E+05 -5.493603E+03 -7.640351E+05  3.449423E+03  1.841525E+03
        14  25 -2.038089E+06 -2.968333E+05 -2.159373E+04 -7.637947E+05  1.325187E+04  4.995726E+03
        14  26 -2.045037E+06 -2.886636E+05 -1.358740E+04 -7.638970E+05  8.376227E+03  3.427858E+03
        14  27 -2.048444E+06 -2.963625E+05 -1.147011E+04 -7.703734E+05  3.500454E+03  1.860645E+03
        15   1 -1.979438E+06 -2.707077E+05  8.558779E+03 -7.504773E+05 -2.523883E+03 -1.655253E+03
        15   2 -1.977087E+06 -2.645003E+05  1.178500E+04 -7.456885E+05 -1.156540E+03 -1.397693E+03
        15   3 -1.969131E+06 -2.659364E+05  1.368622E+04 -7.477775E+05  1.922521E+02 -1.090409E+03
        15   4 -2.026742E+06 -2.884502E+05 -4.377382E+03 -7.632033E+05 -2.579354E+03 -1.676044E+03
        15   5 -2.029492E+06 -2.842608E+05 -2.541905E+03 -7.599013E+05 -1.200969E+03 -1.414351E+03
        15   6 -2.026638E+06 -2.877173E+05 -2.040288E+03 -7.634771E+05  1.588558E+02 -1.102937E+03
        15   7 -2.074045E+06 -3.061924E+05 -1.731371E+04 -7.759284E+05 -2.634820E+03 -1.696834E+03
        15   8 -2.081893E+06 -3.040212E+05 -1.686905E+04 -7.741130E+05 -1.245393E+03 -1.431008E+03
        15   9 -2.084142E+06 -3.094981E+05 -1.776711E+04 -7.791753E+05  1.254629E+02 -1.115464E+03
        15  10 -1.979438E+06 -2.707077E+05  8.558762E+03 -7.504773E+05  7.155656E-10 -3.297094E-10
        15  11 -1.977087E+06 -2.645003E+05  1.178499E+04 -7.456885E+05 -2.815768E-10  7.957819E-11
        15  12 -1.969131E+06 -2.659364E+05  1.368622E+04 -7.477775E+05  1.296310E-09  3.520829E-10
        15  13 -2.026742E+06 -2.884502E+05 -4.377400E+03 -7.632033E+05  1.036437E-09 -2.215011E-10
        15  14 -2.029492E+06 -2.842608E+05 -2.541911E+03 -7.599013E+05  1.212175E-09  3.772140E-10
        15  15 -2.026638E+06 -2.877173E+05 -2.040290E+03 -7.634771E+05  1.549635E-09  4.317977E-11
        15  16 -2.074045E+06 -3.061924E+05 -1.731373E+04 -7.759284E+05 -1.084670E-09 -4.163849E-10
        15  17 -2.081893E+06 -3.040212E+05 -1.686905E+04 -7.741130E+05 -3.327421E-10  3.111727E-10
        15  18 -2.084142E+06 -3.094981E+05 -1.776711E+04 -7.791753E+05  7.010521E-10  2.171306E-10
        15  19 -1.979438E+06 -2.707077E+05  8.558779E+03 -7.504773E+05  2.523883E+03  1.655253E+03
        15  20 -1.977087E+06 -2.645003E+05  1.178500E+04 -7.456885E+05  1.156540E+03  1.397693E+03
        15  21 -1.969131E+06 -2.659364E+05  1.368622E+04 -7.477775E+05 -1.922521E+02  1.090409E+03
        15  22 -2.026742E+06 -2.884502E+05 -4.377382E+03 -7.632033E+05  2.579354E+03  1.676044E+03
        15  23 -2.029492E+06 -2.842608E+05 -2.541905E+03 -7.599013E+05  1.200969E+03  1.414351E+03
        15  24 -2.026638E+06 -2.877173E+05 -2.040288E+03 -7.634771E+05 -1.588558E+02  1.102937E+03
        15  25 -2.074045E+06 -3.061924E+05 -1.731371E+04 -7.759284E+05  2.634820E+03  1.696834E+03
        15  26 -2.081893E+06 -3.040212E+05 -1.686905E+04 -7.741130E+05  1.245393E+03  1.431008E+03
        15  27 -2.084142E+06 -3.094981E+05 -1.776711E+04 -7.791753E+05 -1.254629E+02  1.115464E+03
        16   1 -1.950035E+06 -2.582439E+05  1.905846E+04 -7.420864E+05  5.828689E+02 -1.065912E+03
        16   2 -1.948494E+06 -2.544719E+05  1.957359E+04 -7.386966E+05  1.864461E+03 -7.822893E+02
        16   3 -1.943374E+06 -2.561750E+05  1.883964E+04 -7.397986E+05  3.115344E+03 -4.166353E+02
        16   4 -2.027093E+06 -2.872592E+05 -2.018476E+03 -7.629386E+05  5.349752E+02 -1.083882E+03
        16   5 -2.028928E+06 -2.848553E+05 -2.426481E+03 -7.605670E+05  1.834796E+03 -7.934307E+02
        16   6 -2.027188E+06 -2.879302E+05 -4.098171E+03 -7.626873E+05  3.103900E+03 -4.209455E+02
        16   7 -2.104144E+06 -3.162741E+05 -2.309593E+04 -7.837884E+05  4.870882E+02 -1.101850E+03
        16   8 -2.109355E+06 -3.152384E+05 -2.442714E+04 -7.824349E+05  1.805135E+03 -8.045704E+02
        16   9 -2.110996E+06 -3.196851E+05 -2.703665E+04 -7.855732E+05  3.092457E+03 -4.252551E+02
        16  10 -1.950035E+06 -2.582439E+05  1.905846E+04 -7.420864E+05  8.519236E-10  6.313305E-11
        16  11 -1.948494E+06 -2.544719E+05  1.957359E+04 -7.386966E+05 -7.753628E-10  3.583997E-10
        16  12 -1.943374E+06 -2.561750E+05  1.883962E+04 -7.397986E+05 -6.065364E-10 -5.171580E-10
        16  13 -2.027093E+06 -2.872592E+05 -2.018479E+03 -7.629386E+05  2.148663E-09  3.821534E-11
        16  14 -2.028928E+06 -2.848553E+05 -2.426489E+03 -7.605670E+05 -9.010343E-10 -2.707185E-10
        16  15 -2.027188E+06 -2.879302E+05 -4.098190E+03 -7.626873E+05 -2.721419E-09 -6.875252E-10
        16  16 -2.104144E+06 -3.162741E+05 -2.309593E+04 -7.837884E+05  4.504670E-10  1.522683E-10
        16  17 -2.109355E+06 -3.152384E+05 -2.442715E+04 -7.824349E+05 -5.084426E-10  1.670046E-10
        16  18 -2.110996E+06 -3.196851E+05 -2.703667E+04 -7.855732E+05 -2.605486E-09 -4.227139E-10
        16  19 -1.950035E+06 -2.582439E+05  1.905846E+04 -7.420864E+05 -5.828689E+02  1.065912E+03
        16  20 -1.948494E+06 -2.544719E+05  1.957359E+04 -7.386966E+05 -1.864461E+03  7.822893E+02
        16  21 -1.943374E+06 -2.561750E+05  1.883964E+04 -7.397986E+05 -3.115344E+03  4.166353E+02
        16  22 -2.027093E+06 -2.872592E+05 -2.018476E+03 -7.629386E+05 -5.349752E+02  1.083882E+03
        16  23 -2.028928E+06 -2.848553E+05 -2.426481E+03 -7.605670E+05 -1.834796E+03  7.934307E+02
        16  24 -2.027188E+06 -2.879302E+05 -4.098171E+03 -7.626873E+05 -3.103900E+03  4.209455E+02
        16  25 -2.104144E+06 -3.162741E+05 -2.309593E+04 -7.837884E+05 -4.870882E+02  1.101850E+03
        16  26 -2.109355E+06 -3.152384E+05 -2.442714E+04 -7.824349E+05 -1.805135E+03  8.045704E+02
        16  27 -2.110996E+06 -3.196851E+05 -2.703665E+04 -7.855732E+05 -3.092457E+03  4.252551E+02
        17   1 -1.933576E+06 -2.511578E+05  2.066274E+04 -7.372280E+05  3.922337E+03 -1.808278E+02
        17   2 -1.932217E+06 -2.484156E+05  1.748708E+04 -7.355521E+05  8.384609E+03  1.389183E+03
        17   3 -1.932953E+06 -2.549496E+05  8.872515E+03 -7.335377E+05  1.280484E+04  3.071058E+03
        17   4 -2.028120E+06 -2.864410E+05 -5.122625E+03 -7.624902E+05  3.888818E+03 -1.934236E+02
        17   5 -2.027464E+06 -2.845630E+05 -8.597638E+03 -7.616237E+05  8.375505E+03  1.385742E+03
        17   6 -2.028909E+06 -2.919668E+05 -1.753158E+04 -7.604188E+05  1.282014E+04  3.076767E+03
        17   7 -2.122654E+06 -3.217237E+05 -3.090880E+04 -7.877489E+05  3.855304E+03 -2.060173E+02
        17   8 -2.122702E+06 -3.207098E+05 -3.468317E+04 -7.876917E+05  8.366402E+03  1.382303E+03
        17   9 -2.124857E+06 -3.289833E+05 -4.393650E+04 -7.872961E+05  1.283544E+04  3.082476E+03
        17  10 -1.933576E+06 -2.511578E+05  2.066271E+04 -7.372280E+05 -6.046184E-10 -3.650639E-10
        17  11 -1.932217E+06 -2.484156E+05  1.748695E+04 -7.355521E+05 -2.615145E-09  2.215562E-10
        17  12 -1.932953E+06 -2.549496E+05  8.872188E+03 -7.335378E+05  1.212293E-09  1.560034E-10
        17  13 -2.028120E+06 -2.864410E+05 -5.122654E+03 -7.624902E+05  4.174286E-10 -6.894729E-10
        17  14 -2.027464E+06 -2.845630E+05 -8.597774E+03 -7.616237E+05 -2.149004E-09  3.207889E-10
        17  15 -2.028909E+06 -2.919668E+05 -1.753191E+04 -7.604188E+05 -2.210420E-09 -2.653885E-10
        17  16 -2.122654E+06 -3.217237E+05 -3.090883E+04 -7.877489E+05 -1.723007E-09 -2.656732E-10
        17  17 -2.122702E+06 -3.207098E+05 -3.468330E+04 -7.876917E+05 -1.470311E-09 -9.446878E-11
        17  18 -2.124857E+06 -3.289834E+05 -4.393682E+04 -7.872961E+05 -1.521560E-09 -2.430431E-10
        17  19 -1.933576E+06 -2.511578E+05  2.066274E+04 -7.372280E+05 -3.922337E+03  1.808278E+02
        17  20 -1.932217E+06 -2.484156E+05  1.748708E+04 -7.355521E+05 -8.384609E+03 -1.389183E+03
        17  21 -1.932953E+06 -2.549496E+05  8.872515E+03 -7.335377E+05 -1.280484E+04 -3.071058E+03
        17  22 -2.028120E+06 -2.864410E+05 -5.122625E+03 -7.624902E+05 -3.888818E+03  1.934236E+02
        17  23 -2.027464E+06 -2.845630E+05 -8.597638E+03 -7.616237E+05 -8.375505E+03 -1.385742E+03
        17  24 -2.028909E+06 -2.919668E+05 -1.753158E+04 -7.604188E+05 -1.282014E+04 -3.076767E+03
        17  25 -2.122654E+06 -3.217237E+05 -3.090880E+04 -7.877489E+05 -3.855304E+03  2.060173E+02
        17  26 -2.122702E+06 -3.207098E+05 -3.468317E+04 -7.876917E+05 -8.366402E+03 -1.382303E+03
        17  27 -2.124857E+06 -3.289833E+05 -4.393650E+04 -7.872961E+05 -1.283544E+04 -3.082476E+03
        18   1 -1.933343E+06 -2.507808E+05  4.302069E+03 -7.395175E+05  1.611849E+04  4.299293E+03
        18   2 -1.928223E+06 -2.410206E+05 -1.077372E+04 -7.369215E+05  3.555549E+04  1.160110E+04
        18   3 -1.947765E+06 -2.842901E+05 -5.527870E+04 -7.186067E+05  5.491091E+04  1.912021E+04
        18   4 -2.031557E+06 -2.850046E+05 -2.199226E+04 -7.632692E+05  1.609197E+04  4.289400E+03
        18   5 -2.021985E+06 -2.778441E+05 -3.669570E+04 -7.638597E+05  3.557478E+04  1.160824E+04
        18   6 -2.037087E+06 -3.237277E+05 -8.086806E+04 -7.487307E+05  5.497614E+04  1.914411E+04
        18   7 -2.129761E+06 -3.192283E+05 -4.828746E+04 -7.870176E+05  1.606545E+04  4.279508E+03
        18   8 -2.115738E+06 -3.146670E+05 -6.261850E+04 -7.907943E+05  3.559406E+04  1.161537E+04
        18   9 -2.126400E+06 -3.631639E+05 -1.064582E+05 -7.788505E+05  5.504136E+04  1.916799E+04
        18  10 -1.933343E+06 -2.507809E+05  4.301544E+03 -7.395175E+05 -2.074186E-10 -1.033995E-10
        18  11 -1.928224E+06 -2.410211E+05 -1.077636E+04 -7.369218E+05  4.880115E-10 -7.601770E-11
        18  12 -1.947768E+06 -2.842913E+05 -5.528507E+04 -7.186075E+05 -1.289591E-10  1.770108E-10
        18  13 -2.031557E+06 -2.850047E+05 -2.199279E+04 -7.632692E+05 -3.414980E-10 -3.333824E-10
        18  14 -2.021986E+06 -2.778446E+05 -3.669834E+04 -7.638601E+05  2.845557E-10  4.704425E-10
        18  15 -2.037090E+06 -3.237289E+05 -8.087445E+04 -7.487316E+05  1.018620E-09  1.269962E-10
        18  16 -2.129762E+06 -3.192284E+05 -4.828799E+04 -7.870177E+05 -7.398299E-10 -3.028122E-10
        18  17 -2.115739E+06 -3.146675E+05 -6.262115E+04 -7.907946E+05 -2.929813E-11  2.653696E-10
        18  18 -2.126404E+06 -3.631652E+05 -1.064646E+05 -7.788514E+05  4.690713E-10 -1.670214E-10
        18  19 -1.933343E+06 -2.507808E+05  4.302069E+03 -7.395175E+05 -1.611849E+04 -4.299293E+03
        18  20 -1.928223E+06 -2.410206E+05 -1.077372E+04 -7.369215E+05 -3.555549E+04 -1.160110E+04
        18  21 -1.947765E+06 -2.842901E+05 -5.527870E+04 -7.186067E+05 -5.491091E+04 -1.912021E+04
        18  22 -2.031557E+06 -2.850046E+05 -2.199226E+04 -7.632692E+05 -1.609197E+04 -4.289400E+03
        18  23 -2.021985E+06 -2.778441E+05 -3.669570E+04 -7.638597E+05 -3.557478E+04 -1.160824E+04
        18  24 -2.037087E+06 -3.237277E+05 -8.086806E+04 -7.487307E+05 -5.497614E+04 -1.914411E+04
        18  25 -2.129761E+06 -3.192283E+05 -4.828746E+04 -7.870176E+05 -1.606545E+04 -4.279508E+03
        18  26 -2.115738E+06 -3.146670E+05 -6.261850E+04 -7.907943E+05 -3.559406E+04 -1.161537E+04
        18  27 -2.126400E+06 -3.631639E+05 -1.064582E+05 -7.788505E+05 -5.504136E+04 -1.916799E+04
        19   1 -1.953581E+06 -2.620785E+05 -7.575336E+04 -7.668643E+05  6.987201E+04  2.467245E+04
        19   2 -1.919389E+06 -1.890055E+05 -1.345624E+05 -7.438254E+05  1.558644E+05  5.707028E+04
        19   3 -2.043315E+06 -4.897190E+05 -3.612013E+05 -6.173417E+05  2.415010E+05  9.041811E+04
        19   4 -2.050227E+06 -2.788577E+05 -9.825958E+04 -7.729115E+05  6.976760E+04  2.463594E+04
        19   5 -1.990348E+06 -2.264740E+05 -1.560698E+05 -7.740589E+05  1.559623E+05  5.710377E+04
        19   6 -2.088646E+06 -5.479466E+05 -3.818854E+05 -6.717539E+05  2.418051E+05  9.051246E+04
        19   7 -2.146862E+06 -2.956370E+05 -1.207662E+05 -7.789586E+05  6.966321E+04  2.459943E+04
        19   8 -2.061300E+06 -2.639404E+05 -1.775776E+05 -8.042887E+05  1.560602E+05  5.713724E+04
        19   9 -2.133970E+06 -6.061625E+05 -4.025689E+05 -7.261603E+05  2.421092E+05  9.060675E+04
        19  10 -1.953586E+06 -2.620804E+05 -7.576372E+04 -7.668657E+05  8.669058E-10 -6.374807E-10
        19  11 -1.919416E+06 -1.890156E+05 -1.346144E+05 -7.438326E+05  5.246408E-10 -1.888398E-10
        19  12 -2.043380E+06 -4.897435E+05 -3.613267E+05 -6.173593E+05 -4.068376E-10  2.156618E-11
        19  13 -2.050232E+06 -2.788597E+05 -9.826991E+04 -7.729129E+05 -5.232551E-10 -6.669165E-11
        19  14 -1.990375E+06 -2.264840E+05 -1.561218E+05 -7.740661E+05 -1.857126E-09  9.640192E-10
        19  15 -2.088711E+06 -5.479712E+05 -3.820112E+05 -6.717716E+05  2.165160E-10 -2.897888E-10
        19  16 -2.146868E+06 -2.956389E+05 -1.207765E+05 -7.789600E+05  7.092870E-10 -3.792233E-10
        19  17 -2.061327E+06 -2.639505E+05 -1.776297E+05 -8.042959E+05  1.177977E-09  1.037290E-09
        19  18 -2.134036E+06 -6.061871E+05 -4.026949E+05 -7.261780E+05  2.200322E-10  2.132789E-10
        19  19 -1.953581E+06 -2.620785E+05 -7.575336E+04 -7.668643E+05 -6.987201E+04 -2.467245E+04
        19  20 -1.919389E+06 -1.890055E+05 -1.345624E+05 -7.438254E+05 -1.558644E+05 -5.707028E+04
        19  21 -2.043315E+06 -4.897190E+05 -3.612013E+05 -6.173417E+05 -2.415010E+05 -9.041811E+04
        19  22 -2.050227E+06 -2.788577E+05 -9.825958E+04 -7.729115E+05 -6.976760E+04 -2.463594E+04
        19  23 -1.990348E+06 -2.264740E+05 -1.560698E+05 -7.740589E+05 -1.559623E+05 -5.710377E+04
        19  24 -2.088646E+06 -5.479466E+05 -3.818854E+05 -6.717539E+05 -2.418051E+05 -9.051246E+04
        19  25 -2.146862E+06 -2.956370E+05 -1.207662E+05 -7.789586E+05 -6.966321E+04 -2.459943E+04
        19  26 -2.061300E+06 -2.639404E+05 -1.775776E+05 -8.042887E+05 -1.560602E+05 -5.713724E+04
        19  27 -2.133970E+06 -6.061625E+05 -4.025689E+05 -7.261603E+05 -2.421092E+05 -9.060675E+04
        20   1 -4.058792E+04 -6.305575E+05 -5.781842E+04  3.990347E+03  4.209126E+01 -4.764448E+04
        20   2  2.703318E+04 -6.196841E+05 -1.767632E+04 -4.416726E+02  1.250588E+02 -3.053167E+04
        20   3  1.459725E+04 -6.295692E+05 -8.398376E+03  2.551546E+03  1.096701E+02 -1.341875E+04
        20   4 -5.416386E+04 -6.848229E+05 -7.139439E+04  3.076112E+03  4.216235E+01 -4.764485E+04
        20   5  1.333923E+04 -6.744241E+05 -3.136965E+04 -6.306335E+02  1.250698E+02 -3.053099E+04
        20   6  7.813202E+02 -6.847860E+05 -2.221174E+04  3.087920E+03  1.096577E+02 -1.341704E+04
        20   7 -6.774001E+04 -7.390856E+05 -8.497059E+04  2.161956E+03  4.223344E+01 -4.764522E+04
        20   8 -3.549380E+02 -7.291614E+05 -4.506321E+04 -8.195772E+02  1.250809E+02 -3.053031E+04
        20   9 -1.303484E+04 -7.400000E+05 -3.602533E+04  3.624249E+03  1.096453E+02 -1.341532E+04
        20  10 -4.058853E+04 -6.305600E+05 -5.782269E+04  3.990349E+03 -8.163453E-10 -3.435417E-08
        20  11  2.703293E+04 -6.196851E+05 -1.767807E+04 -4.416695E+02  9.690598E-10 -3.027021E-08
        20  12  1.459720E+04 -6.295693E+05 -8.398714E+03  2.551547E+03  1.077678E-08  1.595011E-07
        20  13 -5.416447E+04 -6.848253E+05 -7.139866E+04  3.076113E+03 -9.547417E-10 -3.337341E-11
        20  14  1.333898E+04 -6.744251E+05 -3.137140E+04 -6.306304E+02 -1.262142E-09 -2.397428E-10
        20  15  7.812718E+02 -6.847862E+05 -2.221208E+04  3.087922E+03  1.235356E-08 -5.289841E-10
        20  16 -6.774062E+04 -7.390880E+05 -8.497486E+04  2.161958E+03 -2.978580E-09  3.435011E-08
        20  17 -3.551886E+02 -7.291625E+05 -4.506497E+04 -8.195741E+02 -2.852402E-09  3.146409E-08
        20  18 -1.303488E+04 -7.400002E+05 -3.602567E+04  3.624250E+03  1.362291E-08 -1.596836E-07
        20  19 -4.058792E+04 -6.305575E+05 -5.781842E+04  3.990347E+03 -4.209126E+01  4.764448E+04
        20  20  2.703318E+04 -6.196841E+05 -1.767632E+04 -4.416726E+02 -1.250588E+02  3.053167E+04
        20  21  1.459725E+04 -6.295692E+05 -8.398376E+03  2.551546E+03 -1.096701E+02  1.341875E+04
        20  22 -5.416386E+04 -6.848229E+05 -7.139439E+04  3.076112E+03 -4.216235E+01  4.764485E+04
        20  23  1.333923E+04 -6.744241E+05 -3.136965E+04 -6.306335E+02 -1.250698E+02  3.053099E+04
        20  24  7.813202E+02 -6.847860E+05 -2.221174E+04  3.087921E+03 -1.096577E+02  1.341704E+04
        20  25 -6.774001E+04 -7.390856E+05 -8.497059E+04  2.161956E+03 -4.223344E+01  4.764522E+04
        20  26 -3.549380E+02 -7.291614E+05 -4.506321E+04 -8.195772E+02 -1.250809E+02  3.053031E+04
        20  27 -1.303484E+04 -7.400000E+05 -3.602533E+04  3.624249E+03 -1.096453E+02  1.341532E+04
        21   1  1.169440E+04 -6.010088E+05  6.617301E+02  1.662409E+02  1.273352E+02 -9.666009E+03
        21   2  2.318651E+04 -5.999917E+05  7.130061E+03  2.905937E+03  1.549869E+02 -3.019162E+03
        21   3  1.473774E+04 -6.017694E+05  4.895035E+03 -3.080270E+02  3.989252E+01  3.627188E+03
        21   4 -8.268219E+03 -6.808066E+05 -1.930016E+04  1.020437E+02  1.273428E+02 -9.667860E+03
        21   5  3.317865E+03 -6.794097E+05 -1.273639E+04  3.077239E+03  1.549856E+02 -3.018338E+03
        21   6 -5.038933E+03 -6.808091E+05 -1.487869E+04  9.872447E+01  3.987960E+01  3.630692E+03
        21   7 -2.823132E+04 -7.605987E+05 -3.926253E+04  3.785780E+01  1.273505E+02 -9.669712E+03
        21   8 -1.655125E+04 -7.588220E+05 -3.260332E+04  3.248524E+03  1.549843E+02 -3.017514E+03
        21   9 -2.481608E+04 -7.598430E+05 -3.465289E+04  5.054299E+02  3.986675E+01  3.634196E+03
        21  10  1.169438E+04 -6.010089E+05  6.615553E+02  1.662419E+02  2.122492E-06  1.056977E-06
        21  11  2.318652E+04 -5.999917E+05  7.130048E+03  2.905938E+03  9.363313E-06  1.799123E-06
        21  12  1.473777E+04 -6.017694E+05  4.895018E+03 -3.080274E+02  1.660603E-05  1.701857E-06
        21  13 -8.268244E+03 -6.808067E+05 -1.930034E+04  1.020447E+02 -2.627667E-06  2.465511E-07
        21  14  3.317862E+03 -6.794097E+05 -1.273641E+04  3.077240E+03 -1.173122E-05  1.118834E-06
        21  15 -5.038937E+03 -6.808091E+05 -1.487872E+04  9.872431E+01 -2.084950E-05  2.026870E-06
        21  16 -2.823135E+04 -7.605988E+05 -3.926271E+04  3.785888E+01  2.141025E-06 -8.463175E-07
        21  17 -1.655127E+04 -7.588220E+05 -3.260334E+04  3.248524E+03  9.394593E-06 -8.125958E-07
        21  18 -2.481611E+04 -7.598431E+05 -3.465293E+04  5.054302E+02  1.662090E-05  1.234708E-07
        21  19  1.169441E+04 -6.010088E+05  6.617321E+02  1.662409E+02 -1.273352E+02  9.666009E+03
        21  20  2.318654E+04 -5.999917E+05  7.130070E+03  2.905937E+03 -1.549869E+02  3.019162E+03
        21  21  1.473780E+04 -6.017694E+05  4.895051E+03 -3.080276E+02 -3.989248E+01 -3.627188E+03
        21  22 -8.268219E+03 -6.808066E+05 -1.930016E+04  1.020437E+02 -1.273428E+02  9.667860E+03
        21  23  3.317865E+03 -6.794097E+05 -1.273639E+04  3.077239E+03 -1.549856E+02  3.018338E+03
        21  24 -5.038933E+03 -6.808091E+05 -1.487869E+04  9.872438E+01 -3.987964E+01 -3.630692E+03
        21  25 -2.823133E+04 -7.605987E+05 -3.926254E+04  3.785797E+01 -1.273505E+02  9.669712E+03
        21  26 -1.655129E+04 -7.588220E+05 -3.260333E+04  3.248524E+03 -1.549843E+02  3.017514E+03
        21  27 -2.481614E+04 -7.598431E+05 -3.465291E+04  5.054306E+02 -3.986672E+01 -3.634196E+03
        22   1 -2.380770E+04 -7.766497E+05 -3.951802E+04  1.062891E+03 -9.709814E+01  6.379810E+03
        22   2 -1.526750E+04 -7.720883E+05 -4.439270E+04  2.715643E+03 -2.349948E+02  1.758574E+04
        22   3 -5.716831E+04 -7.772305E+05 -6.830488E+04 -5.256815E+01 -1.215573E+02  2.879230E+04
        22   4 -2.051694E+02 -6.823335E+05 -1.591985E+04  4.690444E+02 -9.712443E+01  6.385719E+03
        22   5  8.399039E+03 -6.774948E+05 -2.072799E+04  2.652566E+03 -2.349931E+02  1.758712E+04
        22   6 -3.343261E+04 -6.823567E+05 -4.456828E+04  4.151594E+02 -1.215244E+02  2.878915E+04
        22   7  2.339669E+04 -5.880093E+05  7.677638E+03 -1.248845E+02 -9.715067E+01  6.391629E+03
        22   8  3.206490E+04 -5.828933E+05  2.936050E+03  2.589486E+03 -2.349913E+02  1.758850E+04
        22   9 -9.697580E+03 -5.874746E+05 -2.083236E+04  8.829618E+02 -1.214914E+02  2.878600E+04
        22  10 -2.380768E+04 -7.766497E+05 -3.951808E+04  1.062891E+03  1.662388E-05  1.392224E-07
        22  11 -1.526757E+04 -7.720886E+05 -4.439328E+04  2.715646E+03  9.399963E-06 -8.596123E-07
        22  12 -5.716853E+04 -7.772314E+05 -6.830644E+04 -5.256539E+01  2.125554E-06 -7.012367E-07
        22  13 -2.051804E+02 -6.823336E+05 -1.591993E+04  4.690450E+02 -2.084512E-05  2.024899E-06
        22  14  8.398956E+03 -6.774952E+05 -2.072857E+04  2.652570E+03 -1.172550E-05  1.113045E-06
        22  15 -3.343283E+04 -6.823576E+05 -4.456984E+04  4.151622E+02 -2.636908E-06  2.442070E-07
        22  16  2.339665E+04 -5.880093E+05  7.677554E+03 -1.248837E+02  1.660830E-05  1.681541E-06
        22  17  3.206480E+04 -5.828937E+05  2.935464E+03  2.589490E+03  9.369358E-06  1.834212E-06
        22  18 -9.697807E+03 -5.874755E+05 -2.083392E+04  8.829646E+02  2.114919E-06  9.072416E-07
        22  19 -2.380764E+04 -7.766497E+05 -3.951800E+04  1.062890E+03  9.709817E+01 -6.379810E+03
        22  20 -1.526746E+04 -7.720883E+05 -4.439270E+04  2.715642E+03  2.349949E+02 -1.758574E+04
        22  21 -5.716830E+04 -7.772305E+05 -6.830488E+04 -5.256827E+01  1.215573E+02 -2.879230E+04
        22  22 -2.051694E+02 -6.823335E+05 -1.591985E+04  4.690445E+02  9.712439E+01 -6.385719E+03
        22  23  8.399039E+03 -6.774948E+05 -2.072799E+04  2.652566E+03  2.349931E+02 -1.758712E+04
        22  24 -3.343261E+04 -6.823567E+05 -4.456828E+04  4.151595E+02  1.215244E+02 -2.878915E+04
        22  25  2.339663E+04 -5.880093E+05  7.677622E+03 -1.248839E+02  9.715070E+01 -6.391629E+03
        22  26  3.206487E+04 -5.828933E+05  2.936041E+03  2.589486E+03  2.349913E+02 -1.758850E+04
        22  27 -9.697588E+03 -5.874746E+05 -2.083236E+04  8.829618E+02  1.214914E+02 -2.878600E+04
        23   1  3.710652E+04 -2.110978E+05  3.583178E+04 -2.643604E+01  5.121789E+03 -1.381966E+01
        23   2  3.707007E+04 -2.112254E+05  3.584805E+04  9.167295E+00  5.119340E+03 -1.425471E+02
        23   3  3.710786E+04 -2.112966E+05  3.597118E+04 -2.583387E+01  5.098161E+03 -2.712810E+02
        23   4 -1.843517E+00 -3.609571E+05  1.959372E+02 -1.569209E+01  5.121872E+03 -1.763125E+01
        23   5 -1.337897E+01 -3.609844E+05  2.364124E+02  1.961469E+01  5.119421E+03 -1.359972E+02
        23   6  4.752502E+01 -3.609571E+05  3.765610E+02 -1.568388E+01  5.098240E+03 -2.543694E+02
        23   7 -3.711183E+04 -5.107958E+05 -3.544148E+04 -4.950628E+00  5.121954E+03 -2.144192E+01
        23   8 -3.709845E+04 -5.107228E+05 -3.537680E+04  3.006010E+01  5.119503E+03 -1.294488E+02
        23   9 -3.701442E+04 -5.105970E+05 -3.521963E+04 -5.535380E+00  5.098319E+03 -2.374619E+02
        23  10  3.710649E+04 -2.110978E+05  3.583173E+04 -2.643598E+01  1.142084E-09 -2.946804E-10
        23  11  3.707005E+04 -2.112254E+05  3.584801E+04  9.167883E+00 -8.314641E-11 -2.386169E-10
        23  12  3.710783E+04 -2.112966E+05  3.597113E+04 -2.583276E+01 -2.954538E-10 -8.657327E-10
        23  13 -1.871682E+00 -3.609571E+05  1.958879E+02 -1.569202E+01  2.511147E-09 -1.890355E-11
        23  14 -1.340711E+01 -3.609844E+05  2.363631E+02  1.961525E+01  4.389665E-10 -5.494295E-11
        23  15  4.749709E+01 -3.609571E+05  3.765120E+02 -1.568283E+01  8.606499E-10 -3.320775E-11
        23  16 -3.711186E+04 -5.107959E+05 -3.544153E+04 -4.950540E+00  3.570349E-10  2.395128E-10
        23  17 -3.709848E+04 -5.107228E+05 -3.537685E+04  3.006063E+01  5.664012E-11  6.679797E-11
        23  18 -3.701445E+04 -5.105970E+05 -3.521967E+04 -5.534405E+00  1.663692E-09  6.964950E-10
        23  19  3.710652E+04 -2.110978E+05  3.583178E+04 -2.643604E+01 -5.121789E+03  1.381966E+01
        23  20  3.707007E+04 -2.112254E+05  3.584805E+04  9.167295E+00 -5.119340E+03  1.425471E+02
        23  21  3.710786E+04 -2.112966E+05  3.597118E+04 -2.583387E+01 -5.098161E+03  2.712810E+02
        23  22 -1.843517E+00 -3.609571E+05  1.959372E+02 -1.569209E+01 -5.121872E+03  1.763125E+01
        23  23 -1.337897E+01 -3.609844E+05  2.364124E+02  1.961469E+01 -5.119421E+03  1.359972E+02
        23  24  4.752502E+01 -3.609571E+05  3.765610E+02 -1.568388E+01 -5.098240E+03  2.543694E+02
        23  25 -3.711183E+04 -5.107958E+05 -3.544148E+04 -4.950628E+00 -5.121954E+03  2.144192E+01
        23  26 -3.709845E+04 -5.107228E+05 -3.537680E+04  3.006010E+01 -5.119503E+03  1.294488E+02
        23  27 -3.701442E+04 -5.105970E+05 -3.521963E+04 -5.535380E+00 -5.098319E+03  2.374619E+02
        24   1  3.696588E+04 -2.115000E+05  3.599297E+04 -1.520482E+02  5.122702E+03 -2.818266E+02
        24   2  3.684590E+04 -2.119260E+05  3.622102E+04  6.458207E+01  5.098599E+03 -7.942857E+02
        24   3  3.740111E+04 -2.120957E+05  3.695599E+04  7.018229E+01  4.854768E+03 -1.306838E+03
        24   4 -3.184870E+01 -3.609169E+05  4.680449E+02 -4.695437E+01  5.122796E+03 -3.290332E+02
        24   5 -7.637555E+01 -3.610345E+05  7.645159E+02  5.866442E+01  5.098657E+03 -7.201451E+02
        24   6  5.333026E+02 -3.609168E+05  1.483675E+03 -4.674998E+01  4.854768E+03 -1.111351E+03
        24   7 -3.703119E+04 -5.103134E+05 -3.505844E+04  5.811527E+01  5.122889E+03 -3.762285E+02
        24   8 -3.700026E+04 -5.101225E+05 -3.469354E+04  5.274981E+01  5.098716E+03 -6.460221E+02
        24   9 -3.633611E+04 -5.097175E+05 -3.399019E+04 -1.636521E+02  4.854767E+03 -9.159095E+02
        24  10  3.696586E+04 -2.115000E+05  3.599292E+04 -1.520471E+02  1.740642E-10 -5.307462E-09
        24  11  3.684587E+04 -2.119260E+05  3.622097E+04  6.458534E+01  4.040117E-10 -1.640593E-10
        24  12  3.740109E+04 -2.120957E+05  3.695594E+04  7.018740E+01  1.552292E-09  5.124197E-09
        24  13 -3.187690E+01 -3.609170E+05  4.679954E+02 -4.695301E+01  6.990179E-10  2.030517E-11
        24  14 -7.640360E+01 -3.610345E+05  7.644661E+02  5.866738E+01  1.074074E-09 -1.569267E-10
        24  15  5.332769E+02 -3.609168E+05  1.483628E+03 -4.674564E+01  5.780856E-10 -1.874254E-11
        24  16 -3.703122E+04 -5.103134E+05 -3.505849E+04  5.811682E+01  2.568513E-09  5.131468E-09
        24  17 -3.700028E+04 -5.101225E+05 -3.469359E+04  5.275246E+01  8.851236E-10 -3.504581E-10
        24  18 -3.633613E+04 -5.097175E+05 -3.399024E+04 -1.636485E+02  2.829205E-10 -5.468839E-09
        24  19  3.696588E+04 -2.115000E+05  3.599297E+04 -1.520482E+02 -5.122702E+03  2.818266E+02
        24  20  3.684590E+04 -2.119260E+05  3.622102E+04  6.458207E+01 -5.098599E+03  7.942857E+02
        24  21  3.740111E+04 -2.120957E+05  3.695599E+04  7.018229E+01 -4.854768E+03  1.306838E+03
        24  22 -3.184870E+01 -3.609169E+05  4.680449E+02 -4.695437E+01 -5.122796E+03  3.290332E+02
        24  23 -7.637555E+01 -3.610345E+05  7.645159E+02  5.866442E+01 -5.098657E+03  7.201451E+02
        24  24  5.333026E+02 -3.609168E+05  1.483675E+03 -4.674998E+01 -4.854768E+03  1.111351E+03
        24  25 -3.703119E+04 -5.103134E+05 -3.505844E+04  5.811527E+01 -5.122889E+03  3.762285E+02
        24  26 -3.700026E+04 -5.101225E+05 -3.469354E+04  5.274981E+01 -5.098716E+03  6.460221E+02
        24  27 -3.633611E+04 -5.097175E+05 -3.399019E+04 -1.636521E+02 -4.854767E+03  9.159095E+02
        25   1  3.642795E+04 -2.121933E+05  3.701708E+04 -8.999555E+02  5.287615E+03 -6.159568E+02
        25   2  3.588024E+04 -2.137474E+05  3.803362E+04  6.132303E+02  5.072664E+03 -3.975998E+03
        25   3  4.222778E+04 -2.131201E+05  4.296625E+04  1.695897E+03  1.618731E+03 -7.338007E+03
        25   4 -2.944702E+02 -3.605534E+05  1.815498E+03 -9.663092E+01  5.288045E+03 -1.390010E+03
        25   5 -7.014639E+02 -3.614885E+05  2.909202E+03  1.202764E+02  5.072212E+03 -2.962184E+03
        25   6  5.477148E+03 -3.605523E+05  6.677467E+03 -9.333124E+01  1.617068E+03 -4.536347E+03
        25   7 -3.701847E+04 -5.088932E+05 -3.338761E+04  7.065029E+02  5.288474E+03 -2.163878E+03
        25   8 -3.728474E+04 -5.092095E+05 -3.221674E+04 -3.725568E+02  5.071758E+03 -1.948610E+03
        25   9 -3.127508E+04 -5.079647E+05 -2.961288E+04 -1.882130E+03  1.615388E+03 -1.735351E+03
        25  10  3.642792E+04 -2.121933E+05  3.701702E+04 -8.999529E+02 -7.684832E-10  5.458503E-10
        25  11  3.588021E+04 -2.137475E+05  3.803354E+04  6.132465E+02 -1.935171E-11 -3.377950E-10
        25  12  4.222776E+04 -2.131201E+05  4.296614E+04  1.695906E+03  2.356263E-09  3.157174E-10
        25  13 -2.945007E+02 -3.605534E+05  1.815442E+03 -9.662500E+01 -1.996878E-10  8.082521E-12
        25  14 -7.014938E+02 -3.614885E+05  2.909137E+03  1.202885E+02  6.672735E-10 -2.845949E-10
        25  15  5.477139E+03 -3.605523E+05  6.677424E+03 -9.332533E+01  3.209469E-09 -3.836082E-11
        25  16 -3.701851E+04 -5.088932E+05 -3.338767E+04  7.065121E+02  3.131622E-10 -9.149390E-10
        25  17 -3.728477E+04 -5.092096E+05 -3.221679E+04 -3.725489E+02  1.176878E-10 -4.853832E-10
        25  18 -3.127509E+04 -5.079647E+05 -2.961290E+04 -1.882128E+03  2.452262E-09 -8.403088E-10
        25  19  3.642795E+04 -2.121933E+05  3.701708E+04 -8.999555E+02 -5.287615E+03  6.159568E+02
        25  20  3.588024E+04 -2.137474E+05  3.803362E+04  6.132303E+02 -5.072664E+03  3.975998E+03
        25  21  4.222778E+04 -2.131201E+05  4.296625E+04  1.695897E+03 -1.618731E+03  7.338007E+03
        25  22 -2.944702E+02 -3.605534E+05  1.815498E+03 -9.663092E+01 -5.288045E+03  1.390010E+03
        25  23 -7.014639E+02 -3.614885E+05  2.909202E+03  1.202764E+02 -5.072212E+03  2.962184E+03
        25  24  5.477148E+03 -3.605523E+05  6.677467E+03 -9.333124E+01 -1.617068E+03  4.536347E+03
        25  25 -3.701847E+04 -5.088932E+05 -3.338761E+04  7.065029E+02 -5.288474E+03  2.163878E+03
        25  26 -3.728474E+04 -5.092095E+05 -3.221674E+04 -3.725568E+02 -5.071758E+03  1.948610E+03
        25  27 -3.127508E+04 -5.079647E+05 -2.961288E+04 -1.882130E+03 -1.615388E+03  1.735351E+03
        26   1  2.296347E+04  2.418081E+05  1.295083E+04 -1.007122E+00  8.015274E+03 -3.190051E+00
        26   2  2.296876E+04  2.418010E+05  1.298434E+04 -4.561976E-01  7.993433E+03 -1.051173E+02
        26   3  2.299211E+04  2.418121E+05  1.308889E+04 -2.722997E+00  7.930254E+03 -2.070480E+02
        26   4 -2.006443E+00  1.399043E+05  4.425865E+00 -6.261620E-01  8.015412E+03 -3.769998E-01
        26   5 -1.894096E+00  1.399037E+05  5.461844E+00  7.827089E-01  7.993570E+03 -3.057804E+00
        26   6 -9.456533E-01  1.399043E+05  8.628438E+00 -6.261438E-01  7.930384E+03 -5.740516E+00
        26   7 -2.296790E+04  3.801112E+04 -1.294201E+04 -2.452578E-01  8.015551E+03  2.435612E+00
        26   8 -2.297297E+04  3.801714E+04 -1.297346E+04  2.021445E+00  7.993706E+03  9.898577E+01
        26   9 -2.299443E+04  3.800706E+04 -1.307168E+04  1.470424E+00  7.930515E+03  1.955355E+02
        26  10  2.296340E+04  2.418081E+05  1.295070E+04 -1.007102E+00  1.227509E-08  3.955217E-08
        26  11  2.296869E+04  2.418009E+05  1.298422E+04 -4.555209E-01  5.219621E-09  5.498838E-09
        26  12  2.299204E+04  2.418121E+05  1.308878E+04 -2.721674E+00 -1.470658E-09 -2.703166E-08
        26  13 -2.075437E+00  1.399043E+05  4.305125E+00 -6.261596E-01 -3.894990E-09  3.600607E-13
        26  14 -1.962715E+00  1.399037E+05  5.341760E+00  7.827287E-01 -5.279885E-09 -3.564606E-11
        26  15 -1.013192E+00  1.399043E+05  8.510246E+00 -6.261071E-01 -2.382916E-09  4.446174E-11
        26  16 -2.296797E+04  3.801110E+04 -1.294213E+04 -2.452736E-01  1.361687E-08 -3.956111E-08
        26  17 -2.297304E+04  3.801713E+04 -1.297358E+04  2.020808E+00  5.859227E-09 -5.513294E-09
        26  18 -2.299450E+04  3.800704E+04 -1.307180E+04  1.469175E+00 -2.140221E-10  2.703803E-08
        26  19  2.296347E+04  2.418081E+05  1.295083E+04 -1.007122E+00 -8.015274E+03  3.190051E+00
        26  20  2.296876E+04  2.418010E+05  1.298434E+04 -4.561976E-01 -7.993433E+03  1.051173E+02
        26  21  2.299211E+04  2.418121E+05  1.308889E+04 -2.722996E+00 -7.930254E+03  2.070480E+02
        26  22 -2.006443E+00  1.399043E+05  4.425865E+00 -6.261621E-01 -8.015412E+03  3.769998E-01
        26  23 -1.894096E+00  1.399037E+05  5.461844E+00  7.827089E-01 -7.993570E+03  3.057804E+00
        26  24 -9.456533E-01  1.399043E+05  8.628438E+00 -6.261437E-01 -7.930384E+03  5.740516E+00
        26  25 -2.296790E+04  3.801112E+04 -1.294201E+04 -2.452579E-01 -8.015551E+03 -2.435612E+00
        26  26 -2.297297E+04  3.801714E+04 -1.297346E+04  2.021445E+00 -7.993706E+03 -9.898577E+01
        26  27 -2.299443E+04  3.800706E+04 -1.307168E+04  1.470424E+00 -7.930515E+03 -1.955355E+02
        27   1  2.301092E+04  2.418339E+05  1.316189E+04 -8.143931E+00  7.888529E+03 -2.303926E+02
        27   2  2.307339E+04  2.417830E+05  1.351434E+04  6.678317E+00  7.660364E+03 -8.896602E+02
        27   3  2.325555E+04  2.418483E+05  1.432597E+04 -1.031467E+00  7.161606E+03 -1.548952E+03
        27   4 -4.768289E-01  1.399048E+05  1.112917E+01 -5.007342E+00  7.888657E+03 -7.378184E+00
        27   5  2.964051E+00  1.399031E+05  1.929436E+01  6.259305E+00  7.660449E+03 -1.700755E+01
        27   6  1.334043E+01  1.399048E+05  3.562357E+01 -5.006859E+00  7.161626E+03 -2.666067E+01
        27   7 -2.301230E+04  3.798639E+04 -1.313969E+04 -1.871197E+00  7.888784E+03  2.156014E+02
        27   8 -2.306790E+04  3.803375E+04 -1.347583E+04  5.840494E+00  7.660535E+03  8.555086E+02
        27   9 -2.322933E+04  3.797189E+04 -1.425485E+04 -8.981408E+00  7.161647E+03  1.495392E+03
        27  10  2.301085E+04  2.418339E+05  1.316178E+04 -8.142468E+00 -1.136922E-09  1.134489E-09
        27  11  2.307333E+04  2.417829E+05  1.351423E+04  6.683805E+00 -1.386347E-10  5.844128E-10
        27  12  2.325549E+04  2.418483E+05  1.432587E+04 -1.022534E+00  3.618454E-10  5.290273E-10
        27  13 -5.436584E-01  1.399048E+05  1.101222E+01 -5.007295E+00 -3.459698E-10  4.407693E-11
        27  14  2.901032E+00  1.399030E+05  1.918407E+01  6.259410E+00 -1.346922E-09 -1.004422E-10
        27  15  1.328535E+01  1.399048E+05  3.552718E+01 -5.006706E+00  7.933840E-10  7.868833E-11
        27  16 -2.301237E+04  3.798638E+04 -1.313980E+04 -1.872567E+00 -1.413293E-09 -1.191104E-09
        27  17 -2.306797E+04  3.803373E+04 -1.347594E+04  5.835216E+00 -1.647203E-09 -6.430200E-10
        27  18 -2.322938E+04  3.797187E+04 -1.425495E+04 -8.990033E+00  5.097386E-10 -5.029786E-10
        27  19  2.301092E+04  2.418339E+05  1.316189E+04 -8.143931E+00 -7.888529E+03  2.303926E+02
        27  20  2.307339E+04  2.417830E+05  1.351434E+04  6.678317E+00 -7.660364E+03  8.896602E+02
        27  21  2.325555E+04  2.418483E+05  1.432597E+04 -1.031467E+00 -7.161606E+03  1.548952E+03
        27  22 -4.768289E-01  1.399048E+05  1.112917E+01 -5.007342E+00 -7.888657E+03  7.378184E+00
        27  23  2.964051E+00  1.399031E+05  1.929436E+01  6.259305E+00 -7.660449E+03  1.700755E+01
        27  24  1.334043E+01  1.399048E+05  3.562357E+01 -5.006859E+00 -7.161626E+03  2.666067E+01
        27  25 -2.301230E+04  3.798639E+04 -1.313969E+04 -1.871197E+00 -7.888784E+03 -2.156014E+02
        27  26 -2.306790E+04  3.803375E+04 -1.347583E+04  5.840494E+00 -7.660535E+03 -8.555086E+02
        27  27 -2.322933E+04  3.797189E+04 -1.425485E+04 -8.981408E+00 -7.161647E+03 -1.495392E+03
        28   1  2.339677E+04  2.420005E+05  1.486752E+04 -3.729088E+01  6.846436E+03 -1.714050E+03
        28   2  2.386849E+04  2.415958E+05  1.746433E+04  1.010896E+02  5.147862E+03 -6.553954E+03
        28   3  2.523983E+04  2.420464E+05  2.343633E+04  6.786288E+01  1.451965E+03 -1.139405E+04
        28   4  1.910154E+01  1.399092E+05  4.771589E+01 -3.814259E+01  6.846426E+03 -3.287922E+01
        28   5  5.811722E+01  1.398976E+05  8.800176E+01  4.768204E+01  5.147387E+03 -7.765771E+01
        28   6  1.645155E+02  1.399092E+05  1.743379E+02 -3.813260E+01  1.450876E+03 -1.226777E+02
        28   7 -2.335905E+04  3.782835E+04 -1.477225E+04 -3.899396E+01  6.846416E+03  1.648027E+03
        28   8 -2.375279E+04  3.820971E+04 -1.728852E+04 -5.716329E+00  5.146911E+03  6.397611E+03
        28   9 -2.491146E+04  3.778196E+04 -2.308786E+04 -1.441103E+02  1.449782E+03  1.114686E+04
        28  10  2.339672E+04  2.420005E+05  1.486742E+04 -3.728143E+01 -1.130861E-10 -7.700743E-10
        28  11  2.386845E+04  2.415957E+05  1.746420E+04  1.011168E+02 -1.009916E-09  1.179068E-10
        28  12  2.523980E+04  2.420463E+05  2.343608E+04  6.787620E+01  6.611236E-10  1.361051E-09
        28  13  1.905120E+01  1.399092E+05  4.762780E+01 -3.814241E+01  1.457717E-10  6.396739E-11
        28  14  5.808876E+01  1.398976E+05  8.795195E+01  4.768236E+01  1.957564E-09 -1.835291E-10
        28  15  1.645132E+02  1.399092E+05  1.743339E+02 -3.813245E+01  6.936365E-10  1.206033E-10
        28  16 -2.335910E+04  3.782834E+04 -1.477234E+04 -3.900305E+01  4.301680E-10  6.618176E-10
        28  17 -2.375283E+04  3.820966E+04 -1.728864E+04 -5.742849E+00  3.989311E-11 -1.686171E-10
        28  18 -2.491149E+04  3.778182E+04 -2.308809E+04 -1.441233E+02 -3.329495E-10 -1.318163E-09
        28  19  2.339677E+04  2.420005E+05  1.486752E+04 -3.729088E+01 -6.846436E+03  1.714050E+03
        28  20  2.386849E+04  2.415958E+05  1.746433E+04  1.010896E+02 -5.147862E+03  6.553954E+03
        28  21  2.523983E+04  2.420464E+05  2.343633E+04  6.786288E+01 -1.451965E+03  1.139405E+04
        28  22  1.910154E+01  1.399092E+05  4.771589E+01 -3.814259E+01 -6.846426E+03  3.287922E+01
        28  23  5.811722E+01  1.398976E+05  8.800176E+01  4.768204E+01 -5.147387E+03  7.765771E+01
        28  24  1.645155E+02  1.399092E+05  1.743379E+02 -3.813260E+01 -1.450876E+03  1.226777E+02
        28  25 -2.335905E+04  3.782835E+04 -1.477225E+04 -3.899396E+01 -6.846416E+03 -1.648027E+03
        28  26 -2.375279E+04  3.820971E+04 -1.728852E+04 -5.716329E+00 -5.146911E+03 -6.397611E+03
        28  27 -2.491146E+04  3.778196E+04 -2.308786E+04 -1.441103E+02 -1.449782E+03 -1.114686E+04
        29   1 -1.128461E+06 -1.165121E+05 -1.448054E+05 -1.947152E+03 -8.136055E+04 -1.070919E+01
        29   2 -1.112693E+06 -3.973701E+03 -7.695513E+04  1.036952E+02 -5.351447E+04  2.113035E+02
        29   3 -1.128187E+06 -2.292946E+04 -5.907659E+04  4.604483E+02 -2.566844E+04  1.231487E+02
        29   4 -1.024977E+06 -9.060515E+04 -1.189027E+05 -3.282248E+02 -8.136158E+04 -1.091233E+01
        29   5 -1.009326E+06  2.189745E+04 -5.108559E+04  4.706648E+02 -5.351888E+04  2.112693E+02
        29   6 -1.024930E+06  2.918475E+03 -3.323181E+04 -4.245658E+02 -2.567622E+04  1.231913E+02
        29   7 -9.214845E+05 -6.469902E+04 -9.300079E+04  1.290970E+03 -8.136261E+04 -1.111545E+01
        29   8 -9.059500E+05  4.776779E+04 -2.521686E+04  8.376961E+02 -5.352328E+04  2.112351E+02
        29   9 -9.216639E+05  2.876560E+04 -7.387838E+03 -1.309724E+03 -2.568400E+04  1.232339E+02
        29  10 -1.128468E+06 -1.165139E+05 -1.448179E+05 -1.947147E+03  1.114878E-05  6.713235E-07
        29  11 -1.112696E+06 -3.974473E+03 -7.696052E+04  1.037282E+02  4.964665E-05  1.915192E-06
        29  12 -1.128188E+06 -2.292964E+04 -5.907783E+04  4.604932E+02  8.823262E-05  1.504307E-06
        29  13 -1.024985E+06 -9.060693E+04 -1.189152E+05 -3.282255E+02  2.803390E-05 -1.817567E-07
        29  14 -1.009329E+06  2.189668E+04 -5.109098E+04  4.706739E+02  1.243766E-04 -9.161061E-07
        29  15 -1.024931E+06  2.918298E+03 -3.323305E+04 -4.245633E+02  2.207247E-04 -1.818272E-06
        29  16 -9.214916E+05 -6.470080E+04 -9.301324E+04  1.290964E+03  1.127697E-05 -3.053322E-07
        29  17 -9.059530E+05  4.776703E+04 -2.522225E+04  8.376813E+02  4.985682E-05 -5.075099E-07
        29  18 -9.216646E+05  2.876543E+04 -7.389079E+03 -1.309764E+03  8.835107E-05  6.092673E-07
        29  19 -1.128461E+06 -1.165121E+05 -1.448054E+05 -1.947141E+03  8.136055E+04  1.070919E+01
        29  20 -1.112693E+06 -3.973705E+03 -7.695513E+04  1.037429E+02  5.351447E+04 -2.113035E+02
        29  21 -1.128187E+06 -2.292946E+04 -5.907659E+04  4.605330E+02  2.566844E+04 -1.231487E+02
        29  22 -1.024977E+06 -9.060515E+04 -1.189027E+05 -3.282248E+02  8.136158E+04  1.091233E+01
        29  23 -1.009326E+06  2.189745E+04 -5.108559E+04  4.706648E+02  5.351888E+04 -2.112693E+02
        29  24 -1.024930E+06  2.918475E+03 -3.323181E+04 -4.245658E+02  2.567622E+04 -1.231913E+02
        29  25 -9.214845E+05 -6.469902E+04 -9.300079E+04  1.290959E+03  8.136261E+04  1.111545E+01
        29  26 -9.059500E+05  4.776780E+04 -2.521686E+04  8.376484E+02  5.352328E+04 -2.112351E+02
        29  27 -9.216639E+05  2.876561E+04 -7.387837E+03 -1.309808E+03  2.568400E+04 -1.232339E+02
        30   1 -9.412005E+05  5.069281E+03 -8.239018E+03 -1.669865E+03 -2.018872E+04 -1.871014E+01
        30   2 -9.392714E+05  2.293015E+04  6.177226E+03  1.489763E+03 -1.324608E+04 -1.394793E+02
        30   3 -9.404465E+05  2.010238E+04  1.149220E+04 -1.168468E+03 -6.303302E+03 -9.207982E+01
        30   4 -1.018688E+06 -1.432471E+04 -2.763158E+04 -1.340494E+03 -2.019163E+04 -1.871364E+01
        30   5 -1.017129E+06  3.445091E+03 -1.330604E+04  1.579625E+03 -1.324572E+04 -1.394818E+02
        30   6 -1.018675E+06  5.241330E+02 -8.084894E+03 -1.318162E+03 -6.299668E+03 -9.207787E+01
        30   7 -1.096171E+06 -3.371916E+04 -4.702460E+04 -1.011163E+03 -2.019454E+04 -1.871714E+01
        30   8 -1.094981E+06 -1.604043E+04 -3.278976E+04  1.669476E+03 -1.324535E+04 -1.394844E+02
        30   9 -1.096899E+06 -1.905458E+04 -2.766245E+04 -1.467837E+03 -6.296035E+03 -9.207591E+01
        30  10 -9.412009E+05  5.069169E+03 -8.239786E+03 -1.669823E+03  8.835085E-05  5.719874E-07
        30  11 -9.392716E+05  2.293010E+04  6.176895E+03  1.489786E+03  4.985329E-05 -4.887915E-07
        30  12 -9.404465E+05  2.010237E+04  1.149213E+04 -1.168463E+03  1.128788E-05 -5.056337E-07
        30  13 -1.018689E+06 -1.432482E+04 -2.763235E+04 -1.340495E+03  2.207257E-04 -1.832596E-06
        30  14 -1.017129E+06  3.445044E+03 -1.330637E+04  1.579623E+03  1.243806E-04 -9.500829E-07
        30  15 -1.018675E+06  5.241223E+02 -8.084968E+03 -1.318162E+03  2.803535E-05 -1.948670E-07
        30  16 -1.096171E+06 -3.371927E+04 -4.702537E+04 -1.011205E+03  8.823700E-05  1.516913E-06
        30  17 -1.094981E+06 -1.604047E+04 -3.279009E+04  1.669450E+03  4.965343E-05  1.828406E-06
        30  18 -1.096899E+06 -1.905459E+04 -2.766253E+04 -1.467843E+03  1.114005E-05  8.473262E-07
        30  19 -9.412005E+05  5.069277E+03 -8.239019E+03 -1.669781E+03  2.018872E+04  1.871014E+01
        30  20 -9.392714E+05  2.293015E+04  6.177225E+03  1.489811E+03  1.324608E+04  1.394793E+02
        30  21 -9.404465E+05  2.010238E+04  1.149220E+04 -1.168457E+03  6.303302E+03  9.207982E+01
        30  22 -1.018688E+06 -1.432471E+04 -2.763158E+04 -1.340494E+03  2.019163E+04  1.871364E+01
        30  23 -1.017129E+06  3.445091E+03 -1.330604E+04  1.579625E+03  1.324572E+04  1.394818E+02
        30  24 -1.018675E+06  5.241330E+02 -8.084894E+03 -1.318162E+03  6.299668E+03  9.207786E+01
        30  25 -1.096171E+06 -3.371916E+04 -4.702460E+04 -1.011247E+03  2.019454E+04  1.871714E+01
        30  26 -1.094981E+06 -1.604042E+04 -3.278976E+04  1.669428E+03  1.324535E+04  1.394844E+02
        30  27 -1.096899E+06 -1.905458E+04 -2.766245E+04 -1.467848E+03  6.296035E+03  9.207591E+01
        31   1 -1.000359E+06  2.117335E+03 -2.183179E+03  1.802144E+03 -4.980663E+03 -5.008316E+01
        31   2 -1.000382E+06  4.951709E+03  9.495300E+02 -2.350320E+03 -3.236210E+03 -3.591488E+01
        31   3 -1.001431E+06  4.082563E+03  2.044904E+03  1.867536E+03 -1.491829E+03  1.356983E+01
        31   4 -1.018214E+06 -2.351069E+03 -6.651059E+03  1.829996E+03 -4.980680E+03 -5.008356E+01
        31   5 -1.017701E+06  6.172637E+02 -3.384513E+03 -2.355993E+03 -3.235424E+03 -3.591423E+01
        31   6 -1.018215E+06 -1.181244E+02 -2.155904E+03  1.828352E+03 -1.490240E+03  1.357177E+01
        31   7 -1.036068E+06 -6.819497E+03 -1.111896E+04  1.857848E+03 -4.980697E+03 -5.008396E+01
        31   8 -1.035020E+06 -3.717204E+03 -7.718578E+03 -2.361666E+03 -3.234639E+03 -3.591358E+01
        31   9 -1.034998E+06 -4.318833E+03 -6.356733E+03  1.789170E+03 -1.488651E+03  1.357372E+01
        31  10 -1.000359E+06  2.117328E+03 -2.183226E+03  1.802143E+03  1.344354E-08 -2.112411E-07
        31  11 -1.000382E+06  4.951706E+03  9.495103E+02 -2.350320E+03 -1.275151E-09  3.076893E-08
        31  12 -1.001431E+06  4.082562E+03  2.044900E+03  1.867536E+03 -6.433066E-09  1.032224E-07
        31  13 -1.018214E+06 -2.351076E+03 -6.651105E+03  1.829996E+03 -1.020844E-09  1.280315E-09
        31  14 -1.017701E+06  6.172609E+02 -3.384532E+03 -2.355993E+03  6.004450E-10  1.620474E-09
        31  15 -1.018215E+06 -1.181251E+02 -2.155908E+03  1.828352E+03  9.444609E-10  2.316098E-10
        31  16 -1.036068E+06 -6.819504E+03 -1.111901E+04  1.857848E+03 -1.294884E-08  2.166891E-07
        31  17 -1.035020E+06 -3.717207E+03 -7.718598E+03 -2.361666E+03  1.986839E-09 -2.723968E-08
        31  18 -1.034998E+06 -4.318834E+03 -6.356737E+03  1.789170E+03  7.180129E-09 -1.011077E-07
        31  19 -1.000359E+06  2.117335E+03 -2.183179E+03  1.802144E+03  4.980663E+03  5.008316E+01
        31  20 -1.000382E+06  4.951709E+03  9.495300E+02 -2.350320E+03  3.236210E+03  3.591488E+01
        31  21 -1.001431E+06  4.082563E+03  2.044904E+03  1.867536E+03  1.491829E+03 -1.356983E+01
        31  22 -1.018214E+06 -2.351069E+03 -6.651059E+03  1.829996E+03  4.980680E+03  5.008356E+01
        31  23 -1.017701E+06  6.172637E+02 -3.384513E+03 -2.355993E+03  3.235424E+03  3.591423E+01
        31  24 -1.018215E+06 -1.181245E+02 -2.155904E+03  1.828352E+03  1.490240E+03 -1.357177E+01
        31  25 -1.036068E+06 -6.819497E+03 -1.111896E+04  1.857848E+03  4.980697E+03  5.008396E+01
        31  26 -1.035020E+06 -3.717204E+03 -7.718578E+03 -2.361666E+03  3.234639E+03  3.591358E+01
        31  27 -1.034998E+06 -4.318833E+03 -6.356733E+03  1.789170E+03  1.488651E+03 -1.357372E+01
        32   1 -1.114123E+06 -2.448632E+04 -2.577532E+04 -8.755415E+02 -1.195736E+03  9.709309E+01
        32   2 -1.116147E+06 -2.421807E+04 -2.555967E+04  9.550027E+02 -6.175620E+02  1.847283E+02
        32   3 -1.113687E+06 -2.419153E+04 -2.485599E+04 -6.733139E+02 -3.948197E+01  7.304494E+01
        32   4 -1.016991E+06 -1.746524E+02 -1.464948E+03 -7.996241E+02 -1.191387E+03  9.709590E+01
        32   5 -1.019234E+06  3.833582E+01 -1.305573E+03  9.297370E+02 -6.179117E+02  1.847266E+02
        32   6 -1.016992E+06  1.077121E+01 -6.548150E+02 -7.997324E+02 -4.453037E+01  7.305217E+01
        32   7 -9.198502E+05  2.413630E+04  2.284471E+04 -7.236965E+02 -1.187038E+03  9.709871E+01
        32   8 -9.223133E+05  2.429403E+04  2.294782E+04  9.044682E+02 -6.182615E+02  1.847250E+02
        32   9 -9.202897E+05  2.421236E+04  2.354565E+04 -9.261673E+02 -4.957968E+01  7.305940E+01
        32  10 -1.114123E+06 -2.448632E+04 -2.577532E+04 -8.755390E+02  5.065342E-06  3.656488E-07
        32  11 -1.116147E+06 -2.421807E+04 -2.555967E+04  9.550136E+02  2.258479E-05  8.792033E-07
        32  12 -1.113687E+06 -2.419153E+04 -2.485599E+04 -6.732946E+02  4.013968E-05  7.176781E-07
        32  13 -1.016991E+06 -1.746528E+02 -1.464951E+03 -7.996240E+02  1.275343E-05 -9.035352E-08
        32  14 -1.019234E+06  3.833557E+01 -1.305574E+03  9.297371E+02  5.658440E-05 -4.505520E-07
        32  15 -1.016992E+06  1.077123E+01 -6.548149E+02 -7.997324E+02  1.004151E-04 -8.865720E-07
        32  16 -9.198502E+05  2.413630E+04  2.284471E+04 -7.236989E+02  5.137335E-06 -1.917510E-07
        32  17 -9.223133E+05  2.429403E+04  2.294781E+04  9.044574E+02  2.268533E-05 -1.985074E-07
        32  18 -9.202897E+05  2.421236E+04  2.354565E+04 -9.261866E+02  4.019656E-05  3.171627E-07
        32  19 -1.114123E+06 -2.448632E+04 -2.577532E+04 -8.755366E+02  1.195736E+03 -9.709309E+01
        32  20 -1.116147E+06 -2.421807E+04 -2.555967E+04  9.550244E+02  6.175620E+02 -1.847283E+02
        32  21 -1.113687E+06 -2.419153E+04 -2.485599E+04 -6.732754E+02  3.948205E+01 -7.304494E+01
        32  22 -1.016991E+06 -1.746524E+02 -1.464948E+03 -7.996241E+02  1.191387E+03 -9.709590E+01
        32  23 -1.019234E+06  3.833559E+01 -1.305573E+03  9.297370E+02  6.179118E+02 -1.847266E+02
        32  24 -1.016992E+06  1.077126E+01 -6.548148E+02 -7.997324E+02  4.453057E+01 -7.305217E+01
        32  25 -9.198502E+05  2.413630E+04  2.284471E+04 -7.237014E+02  1.187038E+03 -9.709871E+01
        32  26 -9.223133E+05  2.429403E+04  2.294782E+04  9.044465E+02  6.182616E+02 -1.847250E+02
        32  27 -9.202897E+05  2.421236E+04  2.354565E+04 -9.262059E+02  4.957976E+01 -7.305940E+01
        33   1 -9.279289E+05  2.228505E+04  2.163415E+04 -1.163470E+03  2.907012E+01 -6.245699E+01
        33   2 -9.295267E+05  2.245707E+04  2.115814E+04  1.204012E+03  5.796396E+02 -1.706818E+02
        33   3 -9.273433E+05  2.228666E+04  2.102629E+04 -9.885013E+02  1.130335E+03 -9.485914E+01
        33   4 -1.017149E+06 -4.408352E+01 -6.939988E+02 -1.044498E+03  2.428830E+01 -6.244989E+01
        33   5 -1.019038E+06  5.564185E+01 -1.241149E+03  1.235601E+03  5.792000E+02 -1.706831E+02
        33   6 -1.017147E+06 -1.880955E+02 -1.447234E+03 -1.044337E+03  1.134238E+03 -9.485746E+01
        33   7 -1.106363E+06 -2.237382E+04 -2.302275E+04 -9.255398E+02  1.950705E+01 -6.244280E+01
        33   8 -1.108542E+06 -2.234639E+04 -2.364105E+04  1.267186E+03  5.787603E+02 -1.706844E+02
        33   9 -1.106943E+06 -2.266346E+04 -2.392137E+04 -1.100165E+03  1.138139E+03 -9.485578E+01
        33  10 -9.279289E+05  2.228505E+04  2.163415E+04 -1.163451E+03  4.019504E-05  3.109055E-07
        33  11 -9.295267E+05  2.245707E+04  2.115814E+04  1.204023E+03  2.268324E-05 -1.897197E-07
        33  12 -9.273433E+05  2.228666E+04  2.102629E+04 -9.884987E+02  5.138378E-06 -2.254410E-07
        33  13 -1.017149E+06 -4.408354E+01 -6.939989E+02 -1.044498E+03  1.004160E-04 -8.887388E-07
        33  14 -1.019038E+06  5.564184E+01 -1.241150E+03  1.235601E+03  5.658290E-05 -4.562361E-07
        33  15 -1.017147E+06 -1.880959E+02 -1.447236E+03 -1.044337E+03  1.275498E-05 -9.244725E-08
        33  16 -1.106363E+06 -2.237382E+04 -2.302275E+04 -9.255591E+02  4.014114E-05  7.185414E-07
        33  17 -1.108542E+06 -2.234639E+04 -2.364105E+04  1.267175E+03  2.258615E-05  8.635021E-07
        33  18 -1.106943E+06 -2.266346E+04 -2.392137E+04 -1.100168E+03  5.064728E-06  4.007654E-07
        33  19 -9.279289E+05  2.228505E+04  2.163415E+04 -1.163432E+03 -2.907004E+01  6.245699E+01
        33  20 -9.295267E+05  2.245707E+04  2.115814E+04  1.204033E+03 -5.796395E+02  1.706818E+02
        33  21 -9.273433E+05  2.228666E+04  2.102629E+04 -9.884964E+02 -1.130335E+03  9.485914E+01
        33  22 -1.017149E+06 -4.408356E+01 -6.939990E+02 -1.044498E+03 -2.428810E+01  6.244989E+01
        33  23 -1.019038E+06  5.564208E+01 -1.241149E+03  1.235601E+03 -5.791998E+02  1.706831E+02
        33  24 -1.017147E+06 -1.880955E+02 -1.447234E+03 -1.044337E+03 -1.134238E+03  9.485746E+01
        33  25 -1.106363E+06 -2.237381E+04 -2.302275E+04 -9.255784E+02 -1.950697E+01  6.244280E+01
        33  26 -1.108542E+06 -2.234639E+04 -2.364105E+04  1.267164E+03 -5.787603E+02  1.706844E+02
        33  27 -1.106943E+06 -2.266346E+04 -2.392137E+04 -1.100170E+03 -1.138139E+03  9.485578E+01
        34   1 -1.019437E+06 -4.059467E+02 -2.386977E+03  1.829297E+03  1.429588E+03 -2.808124E+01
        34   2 -1.019410E+06  1.656797E+02 -3.687416E+03 -2.382125E+03  3.109829E+03  6.157971E+00
        34   3 -1.020523E+06 -2.871061E+03 -6.989003E+03  1.890582E+03  4.790045E+03  3.768280E+01
        34   4 -1.018239E+06 -1.059494E+02 -2.086658E+03  1.853518E+03  1.430404E+03 -2.808038E+01
        34   5 -1.017669E+06  6.012374E+02 -3.251885E+03 -2.387500E+03  3.110584E+03  6.158665E+00
        34   6 -1.018240E+06 -2.299928E+03 -6.418216E+03  1.855610E+03  4.790741E+03  3.768317E+01
        34   7 -1.017041E+06  1.940477E+02 -1.786339E+03  1.877739E+03  1.431220E+03 -2.807951E+01
        34   8 -1.015929E+06  1.036795E+03 -2.816355E+03 -2.392875E+03  3.111339E+03  6.159358E+00
        34   9 -1.015957E+06 -1.728796E+03 -5.847430E+03  1.820638E+03  4.791437E+03  3.768353E+01
        34  10 -1.019437E+06 -4.059472E+02 -2.386981E+03  1.829297E+03  6.051216E-09 -9.509333E-08
        34  11 -1.019410E+06  1.656771E+02 -3.687434E+03 -2.382125E+03 -2.629141E-09  2.224019E-08
        34  12 -1.020523E+06 -2.871067E+03 -6.989046E+03  1.890582E+03 -2.486021E-09  1.212393E-08
        34  13 -1.018239E+06 -1.059499E+02 -2.086662E+03  1.853518E+03 -6.475082E-10  7.172599E-10
        34  14 -1.017669E+06  6.012348E+02 -3.251904E+03 -2.387500E+03 -5.677471E-10  2.324518E-09
        34  15 -1.018240E+06 -2.299934E+03 -6.418259E+03  1.855610E+03  3.844199E-10 -1.612809E-10
        34  16 -1.017041E+06  1.940472E+02 -1.786343E+03  1.877739E+03 -5.958774E-09  9.382462E-08
        34  17 -1.015929E+06  1.036792E+03 -2.816374E+03 -2.392875E+03  3.145742E-09 -1.792957E-08
        34  18 -1.015958E+06 -1.728802E+03 -5.847473E+03  1.820638E+03  2.339078E-09 -1.753283E-08
        34  19 -1.019437E+06 -4.059466E+02 -2.386977E+03  1.829297E+03 -1.429588E+03  2.808124E+01
        34  20 -1.019410E+06  1.656797E+02 -3.687416E+03 -2.382125E+03 -3.109829E+03 -6.157971E+00
        34  21 -1.020523E+06 -2.871061E+03 -6.989003E+03  1.890582E+03 -4.790045E+03 -3.768280E+01
        34  22 -1.018239E+06 -1.059494E+02 -2.086658E+03  1.853518E+03 -1.430404E+03  2.808038E+01
        34  23 -1.017669E+06  6.012374E+02 -3.251885E+03 -2.387500E+03 -3.110584E+03 -6.158665E+00
        34  24 -1.018240E+06 -2.299928E+03 -6.418216E+03  1.855610E+03 -4.790741E+03 -3.768317E+01
        34  25 -1.017041E+06  1.940478E+02 -1.786339E+03  1.877739E+03 -1.431220E+03  2.807951E+01
        34  26 -1.015929E+06  1.036795E+03 -2.816355E+03 -2.392875E+03 -3.111339E+03 -6.159358E+00
        34  27 -1.015957E+06 -1.728796E+03 -5.847430E+03  1.820638E+03 -4.791437E+03 -3.768353E+01
        35   1 -1.106367E+06 -2.145894E+04 -2.973657E+04 -1.265735E+03  6.048113E+03  9.841261E+01
        35   2 -1.105043E+06 -1.863802E+04 -3.478746E+04  1.393911E+03  1.274516E+04  1.596312E+02
        35   3 -1.105766E+06 -3.559428E+04 -4.839263E+04 -7.894484E+02  1.944220E+04  3.229764E+01
        35   4 -1.018441E+06  5.484571E+02 -7.730456E+03 -1.101979E+03  6.052331E+03  9.841554E+01
        35   5 -1.017424E+06  3.292103E+03 -1.285933E+04  1.308747E+03  1.274569E+04  1.596284E+02
        35   6 -1.018453E+06 -1.373906E+04 -2.653900E+04 -1.123495E+03  1.943903E+04  3.229498E+01
        35   7 -9.305078E+05  2.255527E+04  1.427507E+04 -9.382003E+02  6.056549E+03  9.841847E+01
        35   8 -9.297983E+05  2.522164E+04  9.068207E+03  1.223573E+03  1.274622E+04  1.596256E+02
        35   9 -9.311324E+05  8.115582E+03 -4.685937E+03 -1.457585E+03  1.943586E+04  3.229232E+01
        35  10 -1.106367E+06 -2.145895E+04 -2.973664E+04 -1.265735E+03  6.191224E-07  3.406949E-08
        35  11 -1.105043E+06 -1.863806E+04 -3.478776E+04  1.393910E+03  2.762363E-06  1.122063E-07
        35  12 -1.105767E+06 -3.559439E+04 -4.839335E+04 -7.894466E+02  4.911036E-06  9.686348E-08
        35  13 -1.018441E+06  5.484473E+02 -7.730525E+03 -1.101979E+03  1.560499E-06 -1.358993E-08
        35  14 -1.017424E+06  3.292059E+03 -1.285964E+04  1.308746E+03  6.922540E-06 -6.038862E-08
        35  15 -1.018453E+06 -1.373916E+04 -2.653971E+04 -1.123495E+03  1.228526E-05 -1.162415E-07
        35  16 -9.305078E+05  2.255526E+04  1.427500E+04 -9.382011E+02  6.292757E-07 -1.098757E-08
        35  17 -9.297985E+05  2.522160E+04  9.067901E+03  1.223570E+03  2.776431E-06 -2.363893E-08
        35  18 -9.311328E+05  8.115481E+03 -4.686648E+03 -1.457588E+03  4.918561E-06  4.110878E-08
        35  19 -1.106367E+06 -2.145894E+04 -2.973657E+04 -1.265735E+03 -6.048113E+03 -9.841261E+01
        35  20 -1.105043E+06 -1.863802E+04 -3.478746E+04  1.393913E+03 -1.274516E+04 -1.596312E+02
        35  21 -1.105766E+06 -3.559428E+04 -4.839263E+04 -7.894437E+02 -1.944220E+04 -3.229764E+01
        35  22 -1.018441E+06  5.484571E+02 -7.730456E+03 -1.101979E+03 -6.052331E+03 -9.841554E+01
        35  23 -1.017424E+06  3.292103E+03 -1.285933E+04  1.308747E+03 -1.274569E+04 -1.596284E+02
        35  24 -1.018453E+06 -1.373906E+04 -2.653900E+04 -1.123495E+03 -1.943903E+04 -3.229498E+01
        35  25 -9.305078E+05  2.255527E+04  1.427507E+04 -9.382009E+02 -6.056549E+03 -9.841847E+01
        35  26 -9.297983E+05  2.522164E+04  9.068207E+03  1.223570E+03 -1.274622E+04 -1.596256E+02
        35  27 -9.311324E+05  8.115582E+03 -4.685937E+03 -1.457590E+03 -1.943586E+04 -3.229232E+01
        36   1 -9.263724E+05  2.738616E+04 -7.386273E+03 -1.548040E+03  2.471809E+04 -1.150515E+02
        36   2 -9.110133E+05  4.575097E+04 -2.448106E+04  1.150837E+03  5.150582E+04 -2.090968E+02
        36   3 -9.260302E+05 -6.249138E+04 -8.972649E+04  9.273433E+02  7.829403E+04 -4.615632E+00
        36   4 -1.024737E+06  2.765598E+03 -3.200373E+04 -6.918797E+02  2.471056E+04 -1.150110E+02
        36   5 -1.009568E+06  2.108726E+04 -4.914328E+04  8.072877E+02  5.150172E+04 -2.091279E+02
        36   6 -1.024781E+06 -8.720981E+04 -1.144414E+05 -6.159245E+02  7.829334E+04 -4.803290E+00
        36   7 -1.123093E+06 -2.185570E+04 -5.662192E+04  1.641478E+02  2.470303E+04 -1.149704E+02
        36   8 -1.108114E+06 -3.577183E+03 -7.380624E+04  4.637935E+02  5.149762E+04 -2.091590E+02
        36   9 -1.123523E+06 -1.119290E+05 -1.391571E+05 -2.158948E+03  7.829266E+04 -4.990971E+00
        36  10 -9.263731E+05  2.738600E+04 -7.387422E+03 -1.548035E+03  4.918188E-06  4.255658E-08
        36  11 -9.110161E+05  4.575026E+04 -2.448605E+04  1.150847E+03  2.777468E-06 -2.043446E-08
        36  12 -9.260368E+05 -6.249303E+04 -8.973803E+04  9.273439E+02  6.283553E-07 -1.560917E-08
        36  13 -1.024738E+06  2.765434E+03 -3.200488E+04 -6.918774E+02  1.228532E-05 -1.162817E-07
        36  14 -1.009571E+06  2.108655E+04 -4.914828E+04  8.072964E+02  6.922662E-06 -5.917674E-08
        36  15 -1.024788E+06 -8.721146E+04 -1.144530E+05 -6.159242E+02  1.559091E-06 -1.182323E-08
        36  16 -1.123094E+06 -2.185586E+04 -5.662307E+04  1.641478E+02  4.911255E-06  9.691107E-08
        36  17 -1.108117E+06 -3.577896E+03 -7.381124E+04  4.638008E+02  2.764344E-06  1.142943E-07
        36  18 -1.123530E+06 -1.119306E+05 -1.391687E+05 -2.158948E+03  6.201204E-07  3.929759E-08
        36  19 -9.263724E+05  2.738616E+04 -7.386273E+03 -1.548035E+03 -2.471809E+04  1.150515E+02
        36  20 -9.110133E+05  4.575097E+04 -2.448106E+04  1.150840E+03 -5.150582E+04  2.090968E+02
        36  21 -9.260302E+05 -6.249138E+04 -8.972649E+04  9.273439E+02 -7.829403E+04  4.615632E+00
        36  22 -1.024737E+06  2.765598E+03 -3.200373E+04 -6.918797E+02 -2.471056E+04  1.150110E+02
        36  23 -1.009568E+06  2.108726E+04 -4.914328E+04  8.072877E+02 -5.150172E+04  2.091279E+02
        36  24 -1.024781E+06 -8.720981E+04 -1.144414E+05 -6.159245E+02 -7.829334E+04  4.803290E+00
        36  25 -1.123093E+06 -2.185569E+04 -5.662192E+04  1.641431E+02 -2.470303E+04  1.149704E+02
        36  26 -1.108114E+06 -3.577183E+03 -7.380624E+04  4.637908E+02 -5.149762E+04  2.091590E+02
        36  27 -1.123523E+06 -1.119290E+05 -1.391571E+05 -2.158949E+03 -7.829266E+04  4.990971E+00
        37   1  7.030452E+04  6.296046E+03  9.210624E+04 -1.086399E+03 -9.402628E+01  6.281656E+04
        37   2 -1.701476E+04 -7.872314E+03  3.925886E+04 -3.098444E+02 -6.180265E+01  4.132818E+04
        37   3 -2.168977E+03  6.299721E+03  2.594492E+04  5.770701E+02 -2.963965E+01  1.983932E+04
        37   4  7.030098E+04  6.299579E+03  9.210624E+04  9.567814E+01 -9.390667E+01  6.281656E+04
        37   5 -1.701565E+04 -7.871429E+03  3.925886E+04 -1.367004E+01 -6.178294E+01  4.132818E+04
        37   6 -2.167214E+03  6.297957E+03  2.594492E+04 -1.265491E+01 -2.965849E+01  1.983932E+04
        37   7  7.029745E+04  6.303115E+03  9.210624E+04  1.277755E+03 -9.378707E+01  6.281656E+04
        37   8 -1.701653E+04 -7.870543E+03  3.925886E+04  2.825043E+02 -6.176322E+01  4.132818E+04
        37   9 -2.165450E+03  6.296194E+03  2.594492E+04 -6.023799E+02 -2.967734E+01  1.983932E+04
        37  10  7.030346E+04  6.291809E+03  9.209883E+04 -1.086394E+03 -1.229346E-08 -4.766888E-09
        37  11 -1.701522E+04 -7.874148E+03  3.925565E+04 -3.098423E+02 -5.204493E-08 -8.843805E-09
        37  12 -2.169083E+03  6.299298E+03  2.594418E+04  5.770706E+02 -9.596559E-08 -7.076086E-09
        37  13  7.029992E+04  6.295342E+03  9.209883E+04  9.568289E+01  1.483220E-08 -6.390620E-10
        37  14 -1.701610E+04 -7.873263E+03  3.925565E+04 -1.366798E+01  6.800201E-08 -2.791383E-09
        37  15 -2.167320E+03  6.297534E+03  2.594418E+04 -1.265443E+01  1.208110E-07 -4.945806E-09
        37  16  7.029639E+04  6.298878E+03  9.209883E+04  1.277760E+03 -1.095452E-08  4.231039E-09
        37  17 -1.701699E+04 -7.872377E+03  3.925565E+04  2.825064E+02 -5.383642E-08  6.387632E-09
        37  18 -2.165556E+03  6.295772E+03  2.594418E+04 -6.023795E+02 -9.472812E-08  2.697995E-09
        37  19  7.030452E+04  6.296046E+03  9.210624E+04 -1.086399E+03  9.402628E+01 -6.281656E+04
        37  20 -1.701476E+04 -7.872314E+03  3.925886E+04 -3.098444E+02  6.180265E+01 -4.132818E+04
        37  21 -2.168977E+03  6.299721E+03  2.594492E+04  5.770701E+02  2.963965E+01 -1.983932E+04
        37  22  7.030098E+04  6.299579E+03  9.210624E+04  9.567814E+01  9.390667E+01 -6.281656E+04
        37  23 -1.701565E+04 -7.871429E+03  3.925886E+04 -1.367004E+01  6.178294E+01 -4.132818E+04
        37  24 -2.167214E+03  6.297957E+03  2.594492E+04 -1.265491E+01  2.965849E+01 -1.983932E+04
        37  25  7.029745E+04  6.303115E+03  9.210624E+04  1.277755E+03  9.378707E+01 -6.281656E+04
        37  26 -1.701653E+04 -7.870543E+03  3.925886E+04  2.825043E+02  6.176322E+01 -4.132818E+04
        37  27 -2.165450E+03  6.296194E+03  2.594492E+04 -6.023800E+02  2.967734E+01 -1.983932E+04
        38   1  1.104332E+04  1.052149E+03  2.153234E+04 -1.634693E+02 -2.320134E+01  1.551698E+04
        38   2 -2.684915E+03 -1.315768E+03  1.030938E+04 -4.383456E+01 -1.509036E+01  1.009387E+04
        38   3 -2.919274E+02  1.052844E+03  6.647564E+03  9.281949E+01 -6.981777E+00  4.670765E+03
        38   4  1.104279E+04  1.052682E+03  2.153234E+04  1.493459E+01 -2.319688E+01  1.551698E+04
        38   5 -2.685040E+03 -1.315643E+03  1.030938E+04 -2.047163E+00 -1.508968E+01  1.009387E+04
        38   6 -2.916439E+02  1.052560E+03  6.647564E+03 -2.009503E+00 -6.982490E+00  4.670765E+03
        38   7  1.104226E+04  1.053216E+03  2.153234E+04  1.933385E+02 -2.319242E+01  1.551698E+04
        38   8 -2.685165E+03 -1.315518E+03  1.030938E+04  3.974024E+01 -1.508900E+01  1.009387E+04
        38   9 -2.913603E+02  1.052277E+03  6.647564E+03 -9.683849E+01 -6.983204E+00  4.670765E+03
        38  10  1.104326E+04  1.051891E+03  2.153189E+04 -1.634690E+02 -1.027734E-07 -1.086651E-09
        38  11 -2.684943E+03 -1.315878E+03  1.030919E+04 -4.383444E+01 -8.671698E-08  8.184688E-10
        38  12 -2.919334E+02  1.052821E+03  6.647523E+03  9.281951E+01 -6.989773E-08  1.217505E-09
        38  13  1.104273E+04  1.052424E+03  2.153189E+04  1.493488E+01  1.299928E-07 -5.364227E-09
        38  14 -2.685068E+03 -1.315753E+03  1.030919E+04 -2.047041E+00  1.093619E-07 -4.653521E-09
        38  15 -2.916497E+02  1.052537E+03  6.647523E+03 -2.009477E+00  8.682212E-08 -3.971458E-09
        38  16  1.104219E+04  1.052957E+03  2.153189E+04  1.933388E+02 -1.011209E-07 -3.655537E-09
        38  17 -2.685192E+03 -1.315628E+03  1.030919E+04  3.974036E+01 -8.397128E-08 -4.949418E-09
        38  18 -2.913660E+02  1.052254E+03  6.647524E+03 -9.683847E+01 -6.960693E-08 -4.705070E-09
        38  19  1.104332E+04  1.052149E+03  2.153234E+04 -1.634693E+02  2.320134E+01 -1.551698E+04
        38  20 -2.684916E+03 -1.315768E+03  1.030938E+04 -4.383456E+01  1.509036E+01 -1.009387E+04
        38  21 -2.919277E+02  1.052844E+03  6.647564E+03  9.281949E+01  6.981777E+00 -4.670765E+03
        38  22  1.104279E+04  1.052682E+03  2.153234E+04  1.493459E+01  2.319688E+01 -1.551698E+04
        38  23 -2.685040E+03 -1.315643E+03  1.030938E+04 -2.047163E+00  1.508968E+01 -1.009387E+04
        38  24 -2.916439E+02  1.052560E+03  6.647564E+03 -2.009503E+00  6.982490E+00 -4.670765E+03
        38  25  1.104226E+04  1.053216E+03  2.153234E+04  1.933385E+02  2.319242E+01 -1.551698E+04
        38  26 -2.685165E+03 -1.315518E+03  1.030938E+04  3.974024E+01  1.508900E+01 -1.009387E+04
        38  27 -2.913600E+02  1.052277E+03  6.647565E+03 -9.683849E+01  6.983204E+00 -4.670765E+03
        39   1  1.719332E+03  2.092637E+02  5.482239E+03 -2.611430E+01 -5.334832E+00  3.568496E+03
        39   2 -4.838101E+02 -2.616852E+02  3.235061E+03 -5.149536E+00 -2.856870E+00  1.911023E+03
        39   3  2.178970E+02  2.093956E+02  2.793173E+03  1.874918E+01 -3.790720E-01  2.535759E+02
        39   4  1.719247E+03  2.093485E+02  5.482239E+03  2.257205E+00 -5.334669E+00  3.568496E+03
        39   5 -4.838245E+02 -2.616708E+02  3.235061E+03 -3.321058E-01 -2.856855E+00  1.911023E+03
        39   6  2.179531E+02  2.093395E+02  2.793173E+03  1.287602E-02 -3.790795E-01  2.535759E+02
        39   7  1.719163E+03  2.094333E+02  5.482239E+03  3.062871E+01 -5.334506E+00  3.568496E+03
        39   8 -4.838389E+02 -2.616564E+02  3.235061E+03  4.485324E+00 -2.856840E+00  1.911023E+03
        39   9  2.180091E+02  2.092835E+02  2.793173E+03 -1.872342E+01 -3.790873E-01  2.535759E+02
        39  10  1.719329E+03  2.092500E+02  5.482216E+03 -2.611428E+01 -6.348785E-08 -7.065262E-11
        39  11 -4.838112E+02 -2.616892E+02  3.235054E+03 -5.149531E+00 -5.262102E-08 -3.790227E-10
        39  12  2.178969E+02  2.093955E+02  2.793173E+03  1.874918E+01 -4.088869E-08  3.478898E-09
        39  13  1.719244E+03  2.093348E+02  5.482216E+03  2.257221E+00  7.594935E-08 -3.606341E-09
        39  14 -4.838255E+02 -2.616748E+02  3.235054E+03 -3.321015E-01  6.541928E-08 -3.081946E-09
        39  15  2.179530E+02  2.093395E+02  2.793173E+03  1.287661E-02  4.995846E-08 -2.570004E-09
        39  16  1.719159E+03  2.094197E+02  5.482216E+03  3.062873E+01 -6.210600E-08 -3.076586E-09
        39  17 -4.838398E+02 -2.616603E+02  3.235054E+03  4.485328E+00 -5.107033E-08 -2.337489E-09
        39  18  2.180092E+02  2.092834E+02  2.793173E+03 -1.872342E+01 -4.193027E-08 -5.729932E-09
        39  19  1.719332E+03  2.092636E+02  5.482239E+03 -2.611430E+01  5.334832E+00 -3.568496E+03
        39  20 -4.838103E+02 -2.616853E+02  3.235061E+03 -5.149535E+00  2.856870E+00 -1.911023E+03
        39  21  2.178969E+02  2.093955E+02  2.793173E+03  1.874918E+01  3.790719E-01 -2.535759E+02
        39  22  1.719247E+03  2.093485E+02  5.482239E+03  2.257205E+00  5.334669E+00 -3.568496E+03
        39  23 -4.838245E+02 -2.616708E+02  3.235061E+03 -3.321060E-01  2.856855E+00 -1.911023E+03
        39  24  2.179531E+02  2.093395E+02  2.793173E+03  1.287702E-02  3.790796E-01 -2.535759E+02
        39  25  1.719163E+03  2.094334E+02  5.482240E+03  3.062871E+01  5.334506E+00 -3.568496E+03
        39  26 -4.838387E+02 -2.616564E+02  3.235061E+03  4.485323E+00  2.856840E+00 -1.911023E+03
        39  27  2.180093E+02  2.092835E+02  2.793173E+03 -1.872342E+01  3.790872E-01 -2.535759E+02
        40   1 -2.362487E+06 -7.527014E+05 -4.822160E+05 -8.298509E+05 -2.424676E+05 -8.672345E+04
        40   2 -2.294927E+06 -3.906021E+05 -2.556106E+05 -8.675571E+05 -1.570759E+05 -4.550708E+04
        40   3 -2.354636E+06 -3.887608E+05 -1.897048E+05 -8.320646E+05 -6.829291E+04 -1.328594E+04
        40   4 -2.012339E+06 -5.472482E+05 -3.720492E+05 -6.596688E+05 -2.372642E+05 -8.479984E+04
        40   5 -1.929844E+06 -2.325721E+05 -1.543771E+05 -7.470104E+05 -1.556628E+05 -4.498230E+04
        40   6 -1.973788E+06 -2.772883E+05 -9.432305E+04 -7.611789E+05 -7.066891E+04 -1.417539E+04
        40   7 -1.662059E+06 -3.417256E+05 -2.618941E+05 -4.893831E+05 -2.320575E+05 -8.287344E+04
        40   8 -1.564631E+06 -7.452189E+04 -5.315613E+04 -6.263954E+05 -1.542487E+05 -4.445705E+04
        40   9 -1.592798E+06 -1.658184E+05  1.048366E+03 -6.902600E+05 -7.304651E+04 -1.506514E+04
        40  10 -2.362552E+06 -7.527254E+05 -4.823412E+05 -8.298679E+05  2.778230E-10  1.469194E-11
        40  11 -2.294954E+06 -3.906110E+05 -2.556610E+05 -8.675628E+05  2.932664E-10 -3.751854E-10
        40  12 -2.354642E+06 -3.887623E+05 -1.897139E+05 -8.320653E+05 -1.214761E-09 -1.791627E-10
        40  13 -2.012401E+06 -5.472712E+05 -3.721690E+05 -6.596850E+05 -2.227191E-09 -1.472885E-10
        40  14 -1.929871E+06 -2.325808E+05 -1.544266E+05 -7.470161E+05 -2.029017E-09 -2.908449E-10
        40  15 -1.973794E+06 -2.772899E+05 -9.433284E+04 -7.611797E+05 -3.716293E-09 -2.115476E-10
        40  16 -1.662119E+06 -3.417475E+05 -2.620085E+05 -4.893986E+05 -7.845416E-10 -2.075140E-10
        40  17 -1.564657E+06 -7.453043E+04 -5.320470E+04 -6.264009E+05 -2.803868E-09 -2.467955E-10
        40  18 -1.592804E+06 -1.658201E+05  1.037882E+03 -6.902609E+05 -3.204341E-09 -3.253671E-10
        40  19 -2.362487E+06 -7.527014E+05 -4.822160E+05 -8.298509E+05  2.424676E+05  8.672345E+04
        40  20 -2.294927E+06 -3.906021E+05 -2.556106E+05 -8.675571E+05  1.570759E+05  4.550708E+04
        40  21 -2.354636E+06 -3.887608E+05 -1.897048E+05 -8.320646E+05  6.829291E+04  1.328594E+04
        40  22 -2.012339E+06 -5.472482E+05 -3.720492E+05 -6.596688E+05  2.372642E+05  8.479984E+04
        40  23 -1.929844E+06 -2.325721E+05 -1.543771E+05 -7.470104E+05  1.556628E+05  4.498230E+04
        40  24 -1.973788E+06 -2.772883E+05 -9.432305E+04 -7.611789E+05  7.066891E+04  1.417539E+04
        40  25 -1.662059E+06 -3.417256E+05 -2.618941E+05 -4.893831E+05  2.320575E+05  8.287344E+04
        40  26 -1.564631E+06 -7.452189E+04 -5.315613E+04 -6.263954E+05  1.542487E+05  4.445705E+04
        40  27 -1.592798E+06 -1.658184E+05  1.048366E+03 -6.902600E+05  7.304651E+04  1.506514E+04
        41   1 -2.271664E+06 -4.427530E+05 -1.615442E+05 -8.318991E+05 -5.643921E+04 -1.099733E+04
        41   2 -2.246641E+06 -3.836133E+05 -1.136788E+05 -8.207948E+05 -3.693628E+04 -3.998067E+03
        41   3 -2.222099E+06 -3.823567E+05 -9.135386E+04 -8.192435E+05 -1.710387E+04  2.125424E+03
        41   4 -1.961061E+06 -3.177840E+05 -7.696104E+04 -7.391380E+05 -5.639440E+04 -1.098172E+04
        41   5 -1.958611E+06 -2.731156E+05 -3.643386E+04 -7.402736E+05 -3.725507E+04 -4.118234E+03
        41   6 -1.956562E+06 -2.862458E+05 -2.114816E+04 -7.509641E+05 -1.778707E+04  1.868939E+03
        41   7 -1.650364E+06 -1.928059E+05  7.613190E+03 -6.463337E+05 -5.634955E+04 -1.096609E+04
        41   8 -1.670501E+06 -1.626121E+05  4.080375E+04 -6.597184E+05 -3.757402E+04 -4.238464E+03
        41   9 -1.690957E+06 -1.901317E+05  4.905167E+04 -6.826588E+05 -1.847060E+04  1.612344E+03
        41  10 -2.271667E+06 -4.427540E+05 -1.615505E+05 -8.318996E+05 -1.748590E-09  3.546320E-10
        41  11 -2.246642E+06 -3.836137E+05 -1.136814E+05 -8.207949E+05  1.199397E-09  1.163699E-09
        41  12 -2.222099E+06 -3.823568E+05 -9.135442E+04 -8.192435E+05  1.030736E-09  2.429963E-10
        41  13 -1.961064E+06 -3.177850E+05 -7.696727E+04 -7.391385E+05 -1.658556E-09  2.182258E-10
        41  14 -1.958612E+06 -2.731160E+05 -3.643651E+04 -7.402737E+05 -1.153656E-09  6.306032E-10
        41  15 -1.956563E+06 -2.862458E+05 -2.114876E+04 -7.509641E+05  1.496419E-09  2.257894E-10
        41  16 -1.650368E+06 -1.928069E+05  7.606978E+03 -6.463342E+05 -6.075128E-10  2.160105E-11
        41  17 -1.670502E+06 -1.626125E+05  4.080106E+04 -6.597185E+05  1.833368E-09  2.479834E-10
        41  18 -1.690957E+06 -1.901318E+05  4.905102E+04 -6.826587E+05 -2.430758E-10  3.430734E-11
        41  19 -2.271664E+06 -4.427530E+05 -1.615442E+05 -8.318991E+05  5.643921E+04  1.099733E+04
        41  20 -2.246641E+06 -3.836133E+05 -1.136788E+05 -8.207948E+05  3.693628E+04  3.998067E+03
        41  21 -2.222099E+06 -3.823567E+05 -9.135386E+04 -8.192435E+05  1.710387E+04 -2.125424E+03
        41  22 -1.961061E+06 -3.177840E+05 -7.696104E+04 -7.391380E+05  5.639440E+04  1.098172E+04
        41  23 -1.958611E+06 -2.731156E+05 -3.643386E+04 -7.402736E+05  3.725507E+04  4.118234E+03
        41  24 -1.956562E+06 -2.862458E+05 -2.114816E+04 -7.509641E+05  1.778707E+04 -1.868939E+03
        41  25 -1.650364E+06 -1.928059E+05  7.613190E+03 -6.463337E+05  5.634955E+04  1.096609E+04
        41  26 -1.670501E+06 -1.626121E+05  4.080375E+04 -6.597184E+05  3.757402E+04  4.238464E+03
        41  27 -1.690957E+06 -1.901317E+05  4.905167E+04 -6.826588E+05  1.847060E+04 -1.612344E+03
        42   1 -2.169647E+06 -3.729838E+05 -7.405519E+04 -8.080878E+05 -1.395928E+04  2.378120E+03
        42   2 -2.148467E+06 -3.475921E+05 -5.809782E+04 -7.897675E+05 -9.151697E+03  2.870130E+03
        42   3 -2.110544E+06 -3.460175E+05 -4.668377E+04 -7.921673E+05 -4.299984E+03  3.243206E+03
        42   4 -1.954519E+06 -2.912397E+05 -1.658646E+04 -7.487341E+05 -1.442621E+04  2.202775E+03
        42   5 -1.962634E+06 -2.775087E+05 -8.488424E+03 -7.390576E+05 -9.667745E+03  2.676514E+03
        42   6 -1.953996E+06 -2.875835E+05 -4.893260E+03 -7.501011E+05 -4.865385E+03  3.031244E+03
        42   7 -1.739347E+06 -2.094925E+05  4.087820E+04 -6.893617E+05 -1.489333E+04  2.027362E+03
        42   8 -1.776768E+06 -2.074232E+05  4.111788E+04 -6.883340E+05 -1.018396E+04  2.482835E+03
        42   9 -1.797424E+06 -2.291483E+05  3.689500E+04 -7.080254E+05 -5.430942E+03  2.819225E+03
        42  10 -2.169647E+06 -3.729839E+05 -7.405557E+04 -8.080878E+05  3.659861E-10 -4.006285E-10
        42  11 -2.148467E+06 -3.475921E+05 -5.809799E+04 -7.897674E+05  2.707103E-09  2.217806E-10
        42  12 -2.110544E+06 -3.460176E+05 -4.668382E+04 -7.921673E+05  9.814885E-10 -3.227731E-10
        42  13 -1.954520E+06 -2.912397E+05 -1.658686E+04 -7.487341E+05  9.633445E-10  3.391308E-10
        42  14 -1.962634E+06 -2.775087E+05 -8.488614E+03 -7.390576E+05  9.095521E-10  3.815876E-10
        42  15 -1.953996E+06 -2.875835E+05 -4.893322E+03 -7.501010E+05 -2.445495E-09 -4.160059E-10
        42  16 -1.739347E+06 -2.094926E+05  4.087777E+04 -6.893617E+05  5.109540E-10  5.419937E-10
        42  17 -1.776768E+06 -2.074233E+05  4.111767E+04 -6.883340E+05  4.087823E-10  4.758661E-10
        42  18 -1.797424E+06 -2.291483E+05  3.689493E+04 -7.080254E+05 -2.761038E-09 -8.189465E-10
        42  19 -2.169647E+06 -3.729838E+05 -7.405519E+04 -8.080878E+05  1.395928E+04 -2.378120E+03
        42  20 -2.148467E+06 -3.475921E+05 -5.809782E+04 -7.897675E+05  9.151697E+03 -2.870130E+03
        42  21 -2.110544E+06 -3.460175E+05 -4.668377E+04 -7.921673E+05  4.299984E+03 -3.243206E+03
        42  22 -1.954519E+06 -2.912397E+05 -1.658646E+04 -7.487341E+05  1.442621E+04 -2.202775E+03
        42  23 -1.962634E+06 -2.775087E+05 -8.488424E+03 -7.390576E+05  9.667745E+03 -2.676514E+03
        42  24 -1.953996E+06 -2.875835E+05 -4.893260E+03 -7.501011E+05  4.865385E+03 -3.031244E+03
        42  25 -1.739347E+06 -2.094925E+05  4.087820E+04 -6.893617E+05  1.489333E+04 -2.027362E+03
        42  26 -1.776768E+06 -2.074232E+05  4.111788E+04 -6.883340E+05  1.018396E+04 -2.482835E+03
        42  27 -1.797424E+06 -2.291483E+05  3.689500E+04 -7.080254E+05  5.430942E+03 -2.819225E+03
        43   1 -2.058865E+06 -3.279841E+05 -3.182843E+04 -7.787536E+05 -3.316782E+03  2.740780E+03
        43   2 -2.037358E+06 -3.056344E+05 -2.201703E+04 -7.587905E+05 -1.675237E+03  1.877703E+03
        43   3 -1.996172E+06 -3.039479E+05 -1.322878E+04 -7.617150E+05 -2.467635E+01  9.900239E+02
        43   4 -1.953544E+06 -2.883214E+05 -3.835138E+03 -7.500427E+05 -3.863677E+03  2.535827E+03
        43   5 -1.963356E+06 -2.777988E+05 -2.276516E+03 -7.386703E+05 -2.232422E+03  1.668950E+03
        43   6 -1.953488E+06 -2.879372E+05 -1.732848E+03 -7.501857E+05 -5.922250E+02  7.774540E+02
        43   7 -1.848212E+06 -2.486579E+05  2.415731E+04 -7.213273E+05 -4.410676E+03  2.330834E+03
        43   8 -1.889348E+06 -2.499629E+05  1.746349E+04 -7.185480E+05 -2.789679E+03  1.460170E+03
        43   9 -1.910802E+06 -2.719267E+05  9.762839E+03 -7.386559E+05 -1.159813E+03  5.648696E+02
        43  10 -2.058865E+06 -3.279841E+05 -3.182847E+04 -7.787536E+05 -7.975059E-10 -5.162692E-10
        43  11 -2.037358E+06 -3.056344E+05 -2.201705E+04 -7.587905E+05 -1.682983E-09 -2.720648E-10
        43  12 -1.996172E+06 -3.039479E+05 -1.322878E+04 -7.617150E+05  2.196897E-10 -6.291708E-11
        43  13 -1.953544E+06 -2.883214E+05 -3.835179E+03 -7.500427E+05 -1.570565E-09 -6.629855E-10
        43  14 -1.963356E+06 -2.777988E+05 -2.276530E+03 -7.386703E+05  8.733929E-10 -6.338594E-10
        43  15 -1.953488E+06 -2.879372E+05 -1.732850E+03 -7.501857E+05  1.982131E-09 -2.479895E-10
        43  16 -1.848212E+06 -2.486579E+05  2.415726E+04 -7.213273E+05 -1.286713E-09 -2.918930E-10
        43  17 -1.889348E+06 -2.499630E+05  1.746348E+04 -7.185480E+05 -1.769576E-11 -4.489359E-10
        43  18 -1.910802E+06 -2.719267E+05  9.762836E+03 -7.386559E+05  1.494871E-09 -6.198375E-10
        43  19 -2.058865E+06 -3.279841E+05 -3.182843E+04 -7.787536E+05  3.316782E+03 -2.740780E+03
        43  20 -2.037358E+06 -3.056344E+05 -2.201703E+04 -7.587905E+05  1.675237E+03 -1.877703E+03
        43  21 -1.996172E+06 -3.039479E+05 -1.322878E+04 -7.617150E+05  2.467635E+01 -9.900239E+02
        43  22 -1.953544E+06 -2.883214E+05 -3.835138E+03 -7.500427E+05  3.863677E+03 -2.535827E+03
        43  23 -1.963356E+06 -2.777988E+05 -2.276516E+03 -7.386703E+05  2.232422E+03 -1.668950E+03
        43  24 -1.953488E+06 -2.879372E+05 -1.732848E+03 -7.501857E+05  5.922250E+02 -7.774540E+02
        43  25 -1.848212E+06 -2.486579E+05  2.415731E+04 -7.213273E+05  4.410676E+03 -2.330834E+03
        43  26 -1.889348E+06 -2.499629E+05  1.746349E+04 -7.185480E+05  2.789679E+03 -1.460170E+03
        43  27 -1.910802E+06 -2.719267E+05  9.762839E+03 -7.386559E+05  1.159813E+03 -5.648696E+02
        44   1 -1.943678E+06 -2.843317E+05  1.032535E+03 -7.476175E+05  5.490622E+02  3.180312E+02
        44   2 -1.922086E+06 -2.622324E+05  9.010734E+03 -7.273921E+05  2.049294E+03 -6.312638E+02
        44   3 -1.880636E+06 -2.608377E+05  1.610183E+04 -7.302281E+05  3.543338E+03 -1.563401E+03
        44   4 -1.953453E+06 -2.879770E+05 -1.686661E+03 -7.502132E+05 -1.891677E+01  1.053113E+02
        44   5 -1.963402E+06 -2.777732E+05 -2.009739E+03 -7.386264E+05  1.488529E+03 -8.413210E+02
        44   6 -1.953495E+06 -2.882756E+05 -3.225555E+03 -7.501017E+05  2.989732E+03 -1.770812E+03
        44   7 -1.963226E+06 -2.916224E+05 -4.405874E+03 -7.528087E+05 -5.868876E+02 -1.074057E+02
        44   8 -2.004716E+06 -2.933140E+05 -1.303042E+04 -7.498602E+05  9.278013E+02 -1.051364E+03
        44   9 -2.026350E+06 -3.157134E+05 -2.255356E+04 -7.699734E+05  2.436193E+03 -1.978199E+03
        44  10 -1.943678E+06 -2.843317E+05  1.032535E+03 -7.476175E+05  6.570415E-10 -3.962199E-10
        44  11 -1.922086E+06 -2.622324E+05  9.010725E+03 -7.273921E+05  3.288586E-10  7.000030E-11
        44  12 -1.880636E+06 -2.608377E+05  1.610180E+04 -7.302281E+05  7.339956E-10  5.066956E-10
        44  13 -1.953453E+06 -2.879770E+05 -1.686661E+03 -7.502132E+05  5.461793E-10 -1.927699E-10
        44  14 -1.963402E+06 -2.777732E+05 -2.009745E+03 -7.386264E+05  6.882644E-10  3.242454E-12
        44  15 -1.953495E+06 -2.882756E+05 -3.225578E+03 -7.501017E+05 -6.725031E-10  2.829041E-10
        44  16 -1.963226E+06 -2.916224E+05 -4.405875E+03 -7.528087E+05  1.232191E-09 -1.891241E-10
        44  17 -2.004716E+06 -2.933140E+05 -1.303043E+04 -7.498602E+05  5.978895E-10  4.287886E-10
        44  18 -2.026350E+06 -3.157134E+05 -2.255358E+04 -7.699734E+05 -7.531720E-10  3.208404E-10
        44  19 -1.943678E+06 -2.843317E+05  1.032535E+03 -7.476175E+05 -5.490622E+02 -3.180312E+02
        44  20 -1.922086E+06 -2.622324E+05  9.010734E+03 -7.273921E+05 -2.049294E+03  6.312638E+02
        44  21 -1.880636E+06 -2.608377E+05  1.610183E+04 -7.302281E+05 -3.543338E+03  1.563401E+03
        44  22 -1.953453E+06 -2.879770E+05 -1.686661E+03 -7.502132E+05  1.891677E+01 -1.053113E+02
        44  23 -1.963402E+06 -2.777732E+05 -2.009739E+03 -7.386264E+05 -1.488529E+03  8.413210E+02
        44  24 -1.953495E+06 -2.882756E+05 -3.225555E+03 -7.501017E+05 -2.989732E+03  1.770812E+03
        44  25 -1.963226E+06 -2.916224E+05 -4.405874E+03 -7.528087E+05  5.868876E+02  1.074057E+02
        44  26 -2.004716E+06 -2.933140E+05 -1.303042E+04 -7.498602E+05 -9.278013E+02  1.051364E+03
        44  27 -2.026350E+06 -3.157134E+05 -2.255356E+04 -7.699734E+05 -2.436193E+03  1.978199E+03
        45   1 -1.829249E+06 -2.411946E+05  2.920381E+04 -7.167003E+05  4.449041E+03 -2.104416E+03
        45   2 -1.808245E+06 -2.192413E+05  3.425948E+04 -6.967497E+05  8.453798E+03 -2.072049E+03
        45   3 -1.769714E+06 -2.206142E+05  3.563840E+04 -6.981635E+05  1.241950E+04 -1.933591E+03
        45   4 -1.953853E+06 -2.876868E+05 -4.075239E+03 -7.501655E+05  3.877754E+03 -2.318508E+03
        45   5 -1.962826E+06 -2.775186E+05 -6.995537E+03 -7.389227E+05  7.926750E+03 -2.269687E+03
        45   6 -1.954283E+06 -2.906860E+05 -1.362833E+04 -7.490446E+05  1.193652E+04 -2.114834E+03
        45   7 -2.078442E+06 -3.341779E+05 -3.735539E+04 -7.836245E+05  3.306597E+03 -2.532552E+03
        45   8 -2.117385E+06 -3.357942E+05 -4.825247E+04 -7.810860E+05  7.399849E+03 -2.467269E+03
        45   9 -2.138819E+06 -3.607556E+05 -6.289800E+04 -7.999118E+05  1.145368E+04 -2.296016E+03
        45  10 -1.829249E+06 -2.411946E+05  2.920376E+04 -7.167003E+05  4.307227E-10 -3.009751E-11
        45  11 -1.808245E+06 -2.192413E+05  3.425933E+04 -6.967497E+05  6.251663E-11 -5.115371E-10
        45  12 -1.769714E+06 -2.206143E+05  3.563810E+04 -6.981635E+05 -1.066968E-09  5.637167E-10
        45  13 -1.953853E+06 -2.876869E+05 -4.075277E+03 -7.501655E+05 -8.015843E-11  1.833714E-10
        45  14 -1.962827E+06 -2.775186E+05 -6.995665E+03 -7.389227E+05 -1.375700E-09 -1.921987E-10
        45  15 -1.954283E+06 -2.906861E+05 -1.362861E+04 -7.490446E+05 -1.178263E-09  1.367902E-10
        45  16 -2.078442E+06 -3.341779E+05 -3.735543E+04 -7.836245E+05 -1.156871E-10 -7.061270E-14
        45  17 -2.117385E+06 -3.357942E+05 -4.825258E+04 -7.810860E+05  7.103450E-10 -3.620514E-10
        45  18 -2.138819E+06 -3.607557E+05 -6.289825E+04 -7.999118E+05  1.716119E-09  6.042126E-10
        45  19 -1.829249E+06 -2.411946E+05  2.920381E+04 -7.167003E+05 -4.449041E+03  2.104416E+03
        45  20 -1.808245E+06 -2.192413E+05  3.425948E+04 -6.967497E+05 -8.453798E+03  2.072049E+03
        45  21 -1.769714E+06 -2.206142E+05  3.563840E+04 -6.981635E+05 -1.241950E+04  1.933591E+03
        45  22 -1.953853E+06 -2.876868E+05 -4.075239E+03 -7.501655E+05 -3.877754E+03  2.318508E+03
        45  23 -1.962826E+06 -2.775186E+05 -6.995537E+03 -7.389227E+05 -7.926750E+03  2.269687E+03
        45  24 -1.954283E+06 -2.906860E+05 -1.362833E+04 -7.490446E+05 -1.193652E+04  2.114834E+03
        45  25 -2.078442E+06 -3.341779E+05 -3.735539E+04 -7.836245E+05 -3.306597E+03  2.532552E+03
        45  26 -2.117385E+06 -3.357942E+05 -4.825247E+04 -7.810860E+05 -7.399849E+03  2.467269E+03
        45  27 -2.138819E+06 -3.607556E+05 -6.289800E+04 -7.999118E+05 -1.145368E+04  2.296016E+03
        46   1 -1.720265E+06 -2.010223E+05  4.499557E+04 -6.899827E+05  1.544517E+04 -1.741693E+03
        46   2 -1.699541E+06 -1.744354E+05  3.975127E+04 -6.674729E+05  3.116955E+04  2.794903E+03
        46   3 -1.675397E+06 -1.988832E+05  1.407166E+04 -6.570361E+05  4.658534E+04  8.158310E+03
        46   4 -1.955982E+06 -2.865623E+05 -1.736633E+04 -7.508440E+05  1.475724E+04 -1.999814E+03
        46   5 -1.959498E+06 -2.739477E+05 -2.990170E+04 -7.399570E+05  3.082712E+04  2.666027E+03
        46   6 -1.959671E+06 -3.124467E+05 -6.315391E+04 -7.411433E+05  4.658768E+04  8.158301E+03
        46   7 -2.191646E+06 -3.721002E+05 -7.973317E+04 -8.116850E+05  1.406960E+04 -2.257837E+03
        46   8 -2.219391E+06 -3.734554E+05 -9.956072E+04 -8.124135E+05  3.048485E+04  2.537213E+03
        46   9 -2.243866E+06 -4.260026E+05 -1.403868E+05 -8.252147E+05  4.659002E+04  8.158290E+03
        46  10 -1.720266E+06 -2.010223E+05  4.499512E+04 -6.899826E+05 -1.189910E-09  4.182136E-10
        46  11 -1.699542E+06 -1.744357E+05  3.974943E+04 -6.674729E+05 -6.455089E-11  4.153036E-10
        46  12 -1.675399E+06 -1.988838E+05  1.406744E+04 -6.570364E+05 -5.515781E-10 -2.583940E-10
        46  13 -1.955982E+06 -2.865623E+05 -1.736675E+04 -7.508439E+05 -8.310908E-11  2.188446E-10
        46  14 -1.959499E+06 -2.739479E+05 -2.990350E+04 -7.399571E+05 -1.046403E-09  4.440439E-11
        46  15 -1.959673E+06 -3.124473E+05 -6.315813E+04 -7.411436E+05 -2.270554E-09 -5.886311E-10
        46  16 -2.191646E+06 -3.721002E+05 -7.973355E+04 -8.116849E+05  1.257399E-09 -3.893026E-10
        46  17 -2.219392E+06 -3.734557E+05 -9.956249E+04 -8.124136E+05 -7.793627E-10 -3.972987E-11
        46  18 -2.243869E+06 -4.260032E+05 -1.403910E+05 -8.252150E+05 -2.378590E-09 -6.150552E-10
        46  19 -1.720265E+06 -2.010223E+05  4.499557E+04 -6.899827E+05 -1.544517E+04  1.741693E+03
        46  20 -1.699541E+06 -1.744354E+05  3.975127E+04 -6.674729E+05 -3.116955E+04 -2.794903E+03
        46  21 -1.675397E+06 -1.988832E+05  1.407166E+04 -6.570361E+05 -4.658534E+04 -8.158310E+03
        46  22 -1.955982E+06 -2.865623E+05 -1.736633E+04 -7.508440E+05 -1.475724E+04  1.999814E+03
        46  23 -1.959498E+06 -2.739477E+05 -2.990170E+04 -7.399570E+05 -3.082712E+04 -2.666027E+03
        46  24 -1.959671E+06 -3.124467E+05 -6.315391E+04 -7.411433E+05 -4.658768E+04 -8.158301E+03
        46  25 -2.191646E+06 -3.721002E+05 -7.973317E+04 -8.116850E+05 -1.406960E+04  2.257837E+03
        46  26 -2.219391E+06 -3.734554E+05 -9.956072E+04 -8.124135E+05 -3.048485E+04 -2.537213E+03
        46  27 -2.243866E+06 -4.260026E+05 -1.403868E+05 -8.252147E+05 -4.659002E+04 -8.158290E+03
        47   1 -1.618983E+06 -1.731793E+05  1.114544E+04 -6.904888E+05  6.070954E+04  1.133283E+04
        47   2 -1.592215E+06 -9.456858E+04 -3.193404E+04 -6.346599E+05  1.269450E+05  3.501328E+04
        47   3 -1.664962E+06 -3.134740E+05 -2.014327E+05 -5.227596E+05  1.899725E+05  6.723450E+04
        47   4 -1.970180E+06 -2.791514E+05 -7.739915E+04 -7.591502E+05  5.841649E+04  1.047400E+04
        47   5 -1.935829E+06 -2.407580E+05 -1.266811E+05 -7.455705E+05  1.282499E+05  3.549923E+04
        47   6 -2.001777E+06 -5.007023E+05 -3.052964E+05 -6.759020E+05  1.948751E+05  6.905631E+04
        47   7 -2.321255E+06 -3.851250E+05 -1.659527E+05 -8.277811E+05  5.612488E+04  9.615456E+03
        47   8 -2.279328E+06 -3.869310E+05 -2.214391E+05 -8.564223E+05  1.295540E+05  3.598478E+04
        47   9 -2.338473E+06 -6.878778E+05 -4.091709E+05 -8.289563E+05  1.997747E+05  7.087581E+04
        47  10 -1.618987E+06 -1.731804E+05  1.113825E+04 -6.904894E+05 -1.637230E-09 -3.779317E-10
        47  11 -1.592233E+06 -9.457424E+04 -3.196672E+04 -6.346635E+05 -2.203805E-09  4.677071E-10
        47  12 -1.665002E+06 -3.134886E+05 -2.015093E+05 -5.227699E+05 -3.242470E-10  1.538881E-11
        47  13 -1.970183E+06 -2.791525E+05 -7.740579E+04 -7.591507E+05 -2.508260E-09 -3.041793E-10
        47  14 -1.935847E+06 -2.407638E+05 -1.267145E+05 -7.455742E+05 -3.857379E-09  5.829243E-10
        47  15 -2.001819E+06 -5.007177E+05 -3.053770E+05 -6.759128E+05  5.337751E-10 -1.739228E-10
        47  16 -2.321259E+06 -3.851260E+05 -1.659588E+05 -8.277815E+05 -3.183484E-09 -3.629654E-10
        47  17 -2.279346E+06 -3.869369E+05 -2.214732E+05 -8.564261E+05 -9.296870E-10 -2.913152E-10
        47  18 -2.338517E+06 -6.878940E+05 -4.092557E+05 -8.289678E+05 -4.141144E-10 -1.248022E-10
        47  19 -1.618983E+06 -1.731793E+05  1.114544E+04 -6.904888E+05 -6.070954E+04 -1.133283E+04
        47  20 -1.592215E+06 -9.456858E+04 -3.193404E+04 -6.346599E+05 -1.269450E+05 -3.501328E+04
        47  21 -1.664962E+06 -3.134740E+05 -2.014327E+05 -5.227596E+05 -1.899725E+05 -6.723450E+04
        47  22 -1.970180E+06 -2.791514E+05 -7.739915E+04 -7.591502E+05 -5.841649E+04 -1.047400E+04
        47  23 -1.935829E+06 -2.407580E+05 -1.266811E+05 -7.455705E+05 -1.282499E+05 -3.549923E+04
        47  24 -2.001777E+06 -5.007023E+05 -3.052964E+05 -6.759020E+05 -1.948751E+05 -6.905631E+04
        47  25 -2.321255E+06 -3.851250E+05 -1.659527E+05 -8.277811E+05 -5.612488E+04 -9.615456E+03
        47  26 -2.279328E+06 -3.869310E+05 -2.214391E+05 -8.564223E+05 -1.295540E+05 -3.598478E+04
        47  27 -2.338473E+06 -6.878778E+05 -4.091709E+05 -8.289563E+05 -1.997747E+05 -7.087581E+04
        48   1  9.695937E+04  4.059322E+04  1.079569E+05 -6.730871E+04  3.062919E+02  6.561194E+04
        48   2  2.181557E+04  1.531086E+04  5.546149E+04 -3.596374E+04  9.645877E+02  3.809154E+04
        48   3  3.251995E+03  7.745149E+03  3.502756E+04 -8.659798E+03  4.596069E+02  1.056991E+04
        48   4  8.610185E+04 -2.452439E+03  9.755392E+04 -1.510701E+04  3.141889E+02  6.379742E+04
        48   5  1.532271E+04 -1.115824E+04  4.982988E+04 -1.314284E+04  9.660657E+02  3.803364E+04
        48   6  8.173432E+02 -2.452674E+03  3.294857E+04 -1.521858E+04  4.572474E+02  1.226791E+04
        48   7  7.525443E+04 -4.549055E+04  8.715227E+04  3.709106E+04  3.217812E+02  6.198302E+04
        48   8  8.831766E+03 -3.762556E+04  4.419852E+04  9.677075E+03  9.675395E+02  3.797574E+04
        48   9 -1.617151E+03 -1.265030E+04  3.086962E+04 -2.177725E+04  4.548520E+02  1.396587E+04
        48  10  9.695822E+04  4.058860E+04  1.079488E+05 -6.730873E+04  5.399257E-11  1.472425E-09
        48  11  2.181518E+04  1.530930E+04  5.545876E+04 -3.596377E+04 -1.411968E-09 -1.950070E-10
        48  12  3.251965E+03  7.745029E+03  3.502735E+04 -8.659802E+03 -8.091211E-10 -2.670046E-09
        48  13  8.610076E+04 -2.456809E+03  9.754627E+04 -1.510703E+04 -1.362520E-09  3.797497E-10
        48  14  1.532232E+04 -1.115979E+04  4.982716E+04 -1.314287E+04 -2.988008E-10 -1.869673E-11
        48  15  8.173026E+02 -2.452835E+03  3.294829E+04 -1.521858E+04  9.788620E-10  1.515545E-10
        48  16  7.525340E+04 -4.549468E+04  8.714505E+04  3.709104E+04 -2.043657E-10 -1.635298E-09
        48  17  8.831377E+03 -3.762711E+04  4.419581E+04  9.677045E+03 -2.366664E-10  1.150174E-09
        48  18 -1.617204E+03 -1.265051E+04  3.086925E+04 -2.177725E+04  1.706406E-11  2.620802E-09
        48  19  9.695937E+04  4.059322E+04  1.079569E+05 -6.730871E+04 -3.062919E+02 -6.561194E+04
        48  20  2.181557E+04  1.531086E+04  5.546149E+04 -3.596374E+04 -9.645877E+02 -3.809154E+04
        48  21  3.251995E+03  7.745149E+03  3.502756E+04 -8.659798E+03 -4.596069E+02 -1.056991E+04
        48  22  8.610185E+04 -2.452439E+03  9.755392E+04 -1.510701E+04 -3.141889E+02 -6.379742E+04
        48  23  1.532271E+04 -1.115824E+04  4.982988E+04 -1.314284E+04 -9.660657E+02 -3.803364E+04
        48  24  8.173432E+02 -2.452674E+03  3.294857E+04 -1.521858E+04 -4.572474E+02 -1.226791E+04
        48  25  7.525443E+04 -4.549055E+04  8.715227E+04  3.709106E+04 -3.217812E+02 -6.198302E+04
        48  26  8.831766E+03 -3.762556E+04  4.419852E+04  9.677075E+03 -9.675395E+02 -3.797574E+04
        48  27 -1.617151E+03 -1.265030E+04  3.086962E+04 -2.177725E+04 -4.548520E+02 -1.396587E+04
        49   1  3.101807E+03 -6.433349E+03  2.952730E+04 -1.756651E+04 -2.086872E+02  5.859570E+03
        49   2 -3.123408E+03 -2.469318E+04  2.539120E+04 -1.297132E+04 -1.174062E+03 -8.295728E+03
        49   3 -2.465074E+03 -3.940169E+04  3.218936E+04 -1.252394E+04 -2.075377E+03 -2.245064E+04
        49   4  3.280567E+03 -5.529166E+03  2.955409E+04 -1.522507E+04 -2.107004E+02  7.396097E+03
        49   5  9.889691E+02 -7.313048E+03  2.856982E+04 -1.314966E+04 -1.175956E+03 -6.856489E+03
        49   6  5.597673E+03 -5.529146E+03  3.858721E+04 -1.522199E+04 -2.077039E+03 -2.110905E+04
        49   7  3.459348E+03 -4.624965E+03  2.958089E+04 -1.288363E+04 -2.127019E+02  8.932626E+03
        49   8  5.101330E+03  1.006739E+04  3.174844E+04 -1.332802E+04 -1.177851E+03 -5.417210E+03
        49   9  1.366038E+04  2.834453E+04  4.498502E+04 -1.792020E+04 -2.078712E+03 -1.976738E+04
        49  10  3.101798E+03 -6.433386E+03  2.952724E+04 -1.756651E+04 -8.934421E-10  2.421756E-09
        49  11 -3.123428E+03 -2.469326E+04  2.539106E+04 -1.297132E+04  3.091642E-10  6.079580E-10
        49  12 -2.465214E+03 -3.940224E+04  3.218841E+04 -1.252398E+04  5.799015E-11 -2.301697E-09
        49  13  3.280552E+03 -5.529224E+03  2.955399E+04 -1.522507E+04 -3.197470E-12  3.969823E-10
        49  14  9.889550E+02 -7.313098E+03  2.856973E+04 -1.314967E+04  1.565718E-09  6.841224E-11
        49  15  5.597549E+03 -5.529626E+03  3.858637E+04 -1.522203E+04  4.438012E-10  1.548778E-10
        49  16  3.459326E+03 -4.625051E+03  2.958074E+04 -1.288363E+04 -4.374003E-10 -2.580698E-09
        49  17  5.101321E+03  1.006735E+04  3.174839E+04 -1.332802E+04 -9.890573E-10  3.015540E-10
        49  18  1.366027E+04  2.834411E+04  4.498428E+04 -1.792023E+04 -7.029696E-10  2.252565E-09
        49  19  3.101807E+03 -6.433349E+03  2.952730E+04 -1.756651E+04  2.086872E+02 -5.859570E+03
        49  20 -3.123408E+03 -2.469318E+04  2.539120E+04 -1.297132E+04  1.174062E+03  8.295728E+03
        49  21 -2.465074E+03 -3.940169E+04  3.218936E+04 -1.252394E+04  2.075377E+03  2.245064E+04
        49  22  3.280567E+03 -5.529166E+03  2.955409E+04 -1.522507E+04  2.107004E+02 -7.396097E+03
        49  23  9.889691E+02 -7.313048E+03  2.856982E+04 -1.314966E+04  1.175956E+03  6.856489E+03
        49  24  5.597673E+03 -5.529146E+03  3.858721E+04 -1.522199E+04  2.077039E+03  2.110905E+04
        49  25  3.459348E+03 -4.624965E+03  2.958089E+04 -1.288363E+04  2.127019E+02 -8.932626E+03
        49  26  5.101330E+03  1.006739E+04  3.174844E+04 -1.332802E+04  1.177851E+03  5.417210E+03
        49  27  1.366038E+04  2.834453E+04  4.498502E+04 -1.792020E+04  2.078712E+03  1.976738E+04
        50   1 -9.402636E+03 -4.499386E+04  3.845781E+04 -2.651518E+04 -2.723234E+03 -2.924955E+04
        50   2  1.059479E+04 -7.539395E+04  6.650771E+04  2.425664E+04 -2.766517E+03 -6.714654E+04
        50   3  1.230787E+05 -7.774198E+04  1.423571E+05  7.107456E+04 -8.131760E+02 -1.050392E+05
        50   4  1.271837E+03  2.699091E+01  4.698656E+04 -1.520901E+04 -2.725912E+03 -2.760401E+04
        50   5  2.543732E+04 -1.425723E+04  7.901113E+04 -1.314062E+04 -2.760658E+03 -6.853195E+04
        50   6  1.426012E+05  2.759144E+01  1.609358E+05 -1.502618E+04 -7.929216E+02 -1.094567E+05
        50   7  1.194667E+04  4.505008E+04  5.551530E+04 -3.902007E+03 -2.728531E+03 -2.595836E+04
        50   8  4.028488E+04  4.688604E+04  9.151511E+04 -5.054164E+04 -2.754631E+03 -6.991750E+04
        50   9  1.621512E+05  7.781865E+04  1.795180E+05 -1.011378E+05 -7.714437E+02 -1.138748E+05
        50  10 -9.402873E+03 -4.499478E+04  3.845619E+04 -2.651524E+04 -1.786862E-09  2.405126E-09
        50  11  1.059357E+04 -7.539879E+04  6.649922E+04  2.425649E+04 -5.644469E-10  1.233551E-09
        50  12  1.230757E+05 -7.775382E+04  1.423364E+05  7.107449E+04 -2.173285E-10 -1.133795E-09
        50  13  1.271624E+03  2.617072E+01  4.698511E+04 -1.520907E+04 -1.508577E-09  3.192830E-10
        50  14  2.543606E+04 -1.426227E+04  7.900229E+04 -1.314078E+04 -1.639083E-09  7.697037E-11
        50  15  1.425980E+05  1.472752E+01  1.609132E+05 -1.502625E+04  5.115610E-10  1.395262E-10
        50  16  1.194649E+04  4.504936E+04  5.551402E+04 -3.902064E+03 -1.645378E-10 -2.537677E-09
        50  17  4.028356E+04  4.688079E+04  9.150591E+04 -5.054179E+04  8.620041E-10 -2.876181E-10
        50  18  1.621477E+05  7.780473E+04  1.794937E+05 -1.011378E+05  1.082748E-09  1.000641E-09
        50  19 -9.402636E+03 -4.499386E+04  3.845781E+04 -2.651518E+04  2.723234E+03  2.924955E+04
        50  20  1.059479E+04 -7.539395E+04  6.650771E+04  2.425664E+04  2.766517E+03  6.714654E+04
        50  21  1.230787E+05 -7.774198E+04  1.423571E+05  7.107456E+04  8.131760E+02  1.050392E+05
        50  22  1.271837E+03  2.699091E+01  4.698656E+04 -1.520901E+04  2.725912E+03  2.760401E+04
        50  23  2.543732E+04 -1.425723E+04  7.901113E+04 -1.314062E+04  2.760658E+03  6.853195E+04
        50  24  1.426012E+05  2.759144E+01  1.609358E+05 -1.502618E+04  7.929216E+02  1.094567E+05
        50  25  1.194667E+04  4.505008E+04  5.551530E+04 -3.902007E+03  2.728531E+03  2.595836E+04
        50  26  4.028488E+04  4.688604E+04  9.151511E+04 -5.054164E+04  2.754631E+03  6.991750E+04
        50  27  1.621512E+05  7.781865E+04  1.795180E+05 -1.011378E+05  7.714437E+02  1.138748E+05
        51   1 -1.508576E+06 -4.643314E+05 -2.785814E+05 -5.268108E+05 -1.075136E+05 -3.550575E+04
        51   2 -1.465092E+06 -2.952159E+05 -1.747564E+05 -5.291296E+05 -7.057593E+04 -1.187070E+04
        51   3 -1.462246E+06 -2.931398E+05 -1.411471E+05 -5.159378E+05 -2.990554E+04  1.847776E+03
        51   4 -1.089276E+06 -2.748293E+05 -1.579727E+05 -3.807403E+05 -1.018154E+05 -3.336823E+04
        51   5 -1.061245E+06 -1.344420E+05 -6.559326E+04 -4.100381E+05 -6.907993E+04 -1.131012E+04
        51   6 -1.072981E+06 -1.602021E+05 -4.005798E+04 -4.238358E+05 -3.261418E+04  8.305922E+02
        51   7 -6.698062E+05 -8.529590E+04 -3.738206E+04 -2.345745E+05 -9.611290E+04 -3.122840E+04
        51   8 -6.572420E+05  2.634604E+04  4.355474E+04 -2.908753E+05 -6.758285E+04 -1.074907E+04
        51   9 -6.835703E+05 -2.726185E+04  6.101872E+04 -3.316847E+05 -3.532468E+04 -1.871421E+02
        51  10 -1.508589E+06 -4.643358E+05 -2.786056E+05 -5.268139E+05 -1.612874E-10 -8.018344E-11
        51  11 -1.465097E+06 -2.952174E+05 -1.747661E+05 -5.291303E+05  1.758564E-10  1.865626E-10
        51  12 -1.462247E+06 -2.931400E+05 -1.411488E+05 -5.159377E+05  1.500368E-09  3.880502E-10
        51  13 -1.089287E+06 -2.748333E+05 -1.579943E+05 -3.807431E+05  8.877744E-10 -1.611685E-10
        51  14 -1.061250E+06 -1.344435E+05 -6.560249E+04 -4.100388E+05  3.491456E-09 -1.439809E-10
        51  15 -1.072982E+06 -1.602024E+05 -4.005998E+04 -4.238358E+05  9.783056E-10  1.896730E-10
        51  16 -6.698164E+05 -8.529943E+04 -3.740127E+04 -2.345769E+05 -9.410269E-12  2.824864E-10
        51  17 -6.572470E+05  2.634469E+04  4.354592E+04 -2.908759E+05 -3.200709E-10  2.967498E-10
        51  18 -6.835716E+05 -2.726218E+04  6.101637E+04 -3.316847E+05  8.450470E-10  9.167356E-11
        51  19 -1.508576E+06 -4.643314E+05 -2.785814E+05 -5.268108E+05  1.075136E+05  3.550575E+04
        51  20 -1.465092E+06 -2.952159E+05 -1.747564E+05 -5.291296E+05  7.057593E+04  1.187070E+04
        51  21 -1.462246E+06 -2.931398E+05 -1.411471E+05 -5.159378E+05  2.990554E+04 -1.847776E+03
        51  22 -1.089276E+06 -2.748293E+05 -1.579727E+05 -3.807403E+05  1.018154E+05  3.336823E+04
        51  23 -1.061245E+06 -1.344420E+05 -6.559326E+04 -4.100381E+05  6.907993E+04  1.131012E+04
        51  24 -1.072981E+06 -1.602021E+05 -4.005798E+04 -4.238358E+05  3.261418E+04 -8.305922E+02
        51  25 -6.698062E+05 -8.529590E+04 -3.738206E+04 -2.345745E+05  9.611290E+04  3.122840E+04
        51  26 -6.572420E+05  2.634604E+04  4.355474E+04 -2.908753E+05  6.758285E+04  1.074907E+04
        51  27 -6.835703E+05 -2.726185E+04  6.101872E+04 -3.316847E+05  3.532468E+04  1.871421E+02
        52   1 -1.390855E+06 -3.026147E+05 -1.196930E+05 -5.061688E+05 -2.598796E+04  7.739763E+02
        52   2 -1.365223E+06 -2.620730E+05 -9.338946E+04 -4.873249E+05 -1.731502E+04  3.459870E+03
        52   3 -1.325618E+06 -2.602615E+05 -7.809737E+04 -4.886991E+05 -8.294407E+03  5.218505E+03
        52   4 -1.067478E+06 -1.775155E+05 -3.269222E+04 -4.146140E+05 -2.601166E+04  7.645247E+02
        52   5 -1.073552E+06 -1.514847E+05 -1.549314E+04 -4.070192E+05 -1.772969E+04  3.303943E+03
        52   6 -1.065575E+06 -1.641007E+05 -8.990784E+03 -4.196430E+05 -9.100608E+03  4.916045E+03
        52   7 -7.440001E+05 -5.240831E+04  5.429945E+04 -3.230154E+05 -2.603537E+04  7.550691E+02
        52   8 -7.817997E+05 -4.089083E+04  6.239582E+04 -3.266792E+05 -1.814457E+04  3.147934E+03
        52   9 -8.054666E+05 -6.793648E+04  6.010995E+04 -3.505610E+05 -9.907180E+03  4.613452E+03
        52  10 -1.390856E+06 -3.026148E+05 -1.196942E+05 -5.061688E+05  1.324797E-09  1.265490E-10
        52  11 -1.365223E+06 -2.620731E+05 -9.339005E+04 -4.873248E+05  1.633895E-09  5.949191E-10
        52  12 -1.325618E+06 -2.602616E+05 -7.809755E+04 -4.886991E+05 -5.426331E-10  2.484785E-10
        52  13 -1.067479E+06 -1.775157E+05 -3.269350E+04 -4.146140E+05  2.220329E-09 -1.872705E-11
        52  14 -1.073553E+06 -1.514848E+05 -1.549376E+04 -4.070191E+05  6.245504E-10  2.506477E-10
        52  15 -1.065575E+06 -1.641007E+05 -8.990985E+03 -4.196429E+05  9.804553E-10  6.085355E-10
        52  16 -7.440009E+05 -5.240850E+04  5.429817E+04 -3.230154E+05 -4.330597E-10 -1.099420E-10
        52  17 -7.818000E+05 -4.089093E+04  6.239518E+04 -3.266791E+05 -1.159332E-10 -8.508211E-11
        52  18 -8.054668E+05 -6.793653E+04  6.010972E+04 -3.505609E+05 -4.626993E-10  7.387915E-10
        52  19 -1.390855E+06 -3.026147E+05 -1.196930E+05 -5.061688E+05  2.598796E+04 -7.739763E+02
        52  20 -1.365223E+06 -2.620730E+05 -9.338946E+04 -4.873249E+05  1.731502E+04 -3.459870E+03
        52  21 -1.325618E+06 -2.602615E+05 -7.809737E+04 -4.886991E+05  8.294407E+03 -5.218505E+03
        52  22 -1.067478E+06 -1.775155E+05 -3.269222E+04 -4.146140E+05  2.601166E+04 -7.645247E+02
        52  23 -1.073552E+06 -1.514847E+05 -1.549314E+04 -4.070192E+05  1.772969E+04 -3.303943E+03
        52  24 -1.065575E+06 -1.641007E+05 -8.990784E+03 -4.196430E+05  9.100608E+03 -4.916045E+03
        52  25 -7.440001E+05 -5.240831E+04  5.429945E+04 -3.230154E+05  2.603537E+04 -7.550691E+02
        52  26 -7.817997E+05 -4.089083E+04  6.239582E+04 -3.266792E+05  1.814457E+04 -3.147934E+03
        52  27 -8.054666E+05 -6.793648E+04  6.010995E+04 -3.505610E+05  9.907180E+03 -4.613452E+03
        53   1 -1.266504E+06 -2.424719E+05 -6.080547E+04 -4.740117E+05 -6.870873E+03  4.646484E+03
        53   2 -1.242247E+06 -2.160984E+05 -4.813152E+04 -4.519068E+05 -4.461448E+03  3.980270E+03
        53   3 -1.196544E+06 -2.141617E+05 -3.740794E+04 -4.550275E+05 -2.014199E+03  3.211465E+03
        53   4 -1.064674E+06 -1.662746E+05 -7.060106E+03 -4.187519E+05 -7.436594E+03  4.434303E+03
        53   5 -1.075289E+06 -1.532771E+05 -3.629483E+03 -4.064320E+05 -5.070270E+03  3.752081E+03
        53   6 -1.064451E+06 -1.647071E+05 -2.114454E+03 -4.193379E+05 -2.666241E+03  2.967242E+03
        53   7 -8.628055E+05 -9.007494E+04  4.668157E+04 -3.634761E+05 -8.002517E+03  4.222045E+03
        53   8 -9.083044E+05 -9.045405E+04  4.087012E+04 -3.609461E+05 -5.679273E+03  3.523825E+03
        53   9 -9.323404E+05 -1.152515E+05  3.317760E+04 -3.836413E+05 -3.318437E+03  2.722962E+03
        53  10 -1.266504E+06 -2.424720E+05 -6.080560E+04 -4.740117E+05  1.233600E-09  1.509931E-10
        53  11 -1.242247E+06 -2.160984E+05 -4.813159E+04 -4.519067E+05  3.987803E-09  3.432677E-10
        53  12 -1.196544E+06 -2.141617E+05 -3.740797E+04 -4.550275E+05  1.384477E-09  9.830236E-10
        53  13 -1.064674E+06 -1.662746E+05 -7.060246E+03 -4.187519E+05 -3.459508E-10  3.579635E-10
        53  14 -1.075289E+06 -1.532771E+05 -3.629558E+03 -4.064319E+05  1.774363E-09  4.799223E-10
        53  15 -1.064451E+06 -1.647072E+05 -2.114484E+03 -4.193379E+05  3.919823E-10  8.077146E-10
        53  16 -8.628056E+05 -9.007498E+04  4.668142E+04 -3.634760E+05 -1.728672E-10  5.899462E-10
        53  17 -9.083044E+05 -9.045407E+04  4.087004E+04 -3.609461E+05  1.724782E-09  4.425610E-10
        53  18 -9.323404E+05 -1.152515E+05  3.317756E+04 -3.836413E+05  2.722390E-09  1.129698E-09
        53  19 -1.266504E+06 -2.424719E+05 -6.080547E+04 -4.740117E+05  6.870873E+03 -4.646484E+03
        53  20 -1.242247E+06 -2.160984E+05 -4.813152E+04 -4.519068E+05  4.461448E+03 -3.980270E+03
        53  21 -1.196544E+06 -2.141617E+05 -3.740794E+04 -4.550275E+05  2.014199E+03 -3.211465E+03
        53  22 -1.064674E+06 -1.662746E+05 -7.060106E+03 -4.187519E+05  7.436594E+03 -4.434303E+03
        53  23 -1.075289E+06 -1.532771E+05 -3.629483E+03 -4.064320E+05  5.070270E+03 -3.752081E+03
        53  24 -1.064451E+06 -1.647071E+05 -2.114454E+03 -4.193379E+05  2.666241E+03 -2.967242E+03
        53  25 -8.628055E+05 -9.007494E+04  4.668157E+04 -3.634761E+05  8.002517E+03 -4.222045E+03
        53  26 -9.083044E+05 -9.045405E+04  4.087012E+04 -3.609461E+05  5.679273E+03 -3.523825E+03
        53  27 -9.323404E+05 -1.152515E+05  3.317760E+04 -3.836413E+05  3.318437E+03 -2.722962E+03
        54   1 -1.137544E+06 -1.925640E+05 -2.107435E+04 -4.392755E+05 -1.395055E+03  2.440611E+03
        54   2 -1.113117E+06 -1.674962E+05 -1.105375E+04 -4.164690E+05 -3.034060E+02  1.155420E+03
        54   3 -1.066032E+06 -1.655350E+05 -1.505645E+03 -4.198217E+05  7.925969E+02 -1.418367E+02
        54   4 -1.064265E+06 -1.650234E+05 -1.678505E+03 -4.193152E+05 -2.025896E+03  2.204394E+03
        54   5 -1.075583E+06 -1.533925E+05 -1.053472E+03 -4.062646E+05 -9.393332E+02  9.173318E+02
        54   6 -1.064243E+06 -1.648670E+05 -8.967249E+02 -4.193735E+05  1.515432E+02 -3.818015E+02
        54   7 -9.909818E+05 -1.374825E+05  1.771691E+04 -3.993526E+05 -2.656819E+03  1.968146E+03
        54   8 -1.038048E+06 -1.392889E+05  8.946646E+03 -3.960597E+05 -1.575300E+03  6.792283E+02
        54   9 -1.062454E+06 -1.641991E+05 -2.878084E+02 -4.189253E+05 -4.895065E+02 -6.217647E+02
        54  10 -1.137544E+06 -1.925640E+05 -2.107436E+04 -4.392755E+05  9.970309E-10  1.147773E-09
        54  11 -1.113117E+06 -1.674962E+05 -1.105376E+04 -4.164690E+05  2.167815E-10  4.203499E-10
        54  12 -1.066032E+06 -1.655350E+05 -1.505646E+03 -4.198217E+05  5.370615E-10 -2.505813E-10
        54  13 -1.064265E+06 -1.650234E+05 -1.678522E+03 -4.193152E+05  2.895345E-12  5.386220E-10
        54  14 -1.075583E+06 -1.533925E+05 -1.053476E+03 -4.062646E+05 -2.569493E-10 -4.956168E-10
        54  15 -1.064243E+06 -1.648670E+05 -8.967252E+02 -4.193735E+05 -8.876220E-10 -1.250004E-10
        54  16 -9.909818E+05 -1.374825E+05  1.771689E+04 -3.993526E+05  6.694520E-10  1.019260E-09
        54  17 -1.038048E+06 -1.392889E+05  8.946640E+03 -3.960597E+05  3.572004E-10  1.568535E-10
        54  18 -1.062454E+06 -1.641991E+05 -2.878096E+02 -4.189253E+05 -6.662059E-10 -2.920656E-10
        54  19 -1.137544E+06 -1.925640E+05 -2.107435E+04 -4.392755E+05  1.395055E+03 -2.440611E+03
        54  20 -1.113117E+06 -1.674962E+05 -1.105375E+04 -4.164690E+05  3.034060E+02 -1.155420E+03
        54  21 -1.066032E+06 -1.655350E+05 -1.505645E+03 -4.198217E+05 -7.925969E+02  1.418367E+02
        54  22 -1.064265E+06 -1.650234E+05 -1.678505E+03 -4.193152E+05  2.025896E+03 -2.204394E+03
        54  23 -1.075583E+06 -1.533925E+05 -1.053472E+03 -4.062646E+05  9.393332E+02 -9.173318E+02
        54  24 -1.064243E+06 -1.648670E+05 -8.967249E+02 -4.193735E+05 -1.515432E+02  3.818015E+02
        54  25 -9.909818E+05 -1.374825E+05  1.771691E+04 -3.993526E+05  2.656819E+03 -1.968146E+03
        54  26 -1.038048E+06 -1.392889E+05  8.946646E+03 -3.960597E+05  1.575300E+03 -6.792283E+02
        54  27 -1.062454E+06 -1.641991E+05 -2.878084E+02 -4.189253E+05  4.895065E+02  6.217647E+02
        55   1 -1.006894E+06 -1.432891E+05  1.449002E+04 -4.037982E+05  1.271306E+03 -9.620511E+02
        55   2 -9.826192E+05 -1.185018E+05  2.352375E+04 -3.810375E+05  2.442866E+03 -2.226332E+03
        55   3 -9.358193E+05 -1.167571E+05  3.201641E+04 -3.842796E+05  3.607112E+03 -3.469746E+03
        55   4 -1.064271E+06 -1.648322E+05 -9.269727E+02 -4.193473E+05  6.300602E+02 -1.202106E+03
        55   5 -1.075548E+06 -1.534200E+05 -1.234038E+03 -4.063043E+05  1.810370E+03 -2.463205E+03
        55   6 -1.064303E+06 -1.650528E+05 -2.089164E+03 -4.192651E+05  2.983324E+03 -3.703443E+03
        55   7 -1.121645E+06 -1.863753E+05 -1.634438E+04 -4.348953E+05 -1.112582E+01 -1.442139E+03
        55   8 -1.168469E+06 -1.883380E+05 -2.599275E+04 -4.315679E+05  1.177974E+03 -2.700041E+03
        55   9 -1.192771E+06 -2.133479E+05 -3.619636E+04 -4.542443E+05  2.359676E+03 -3.937089E+03
        55  10 -1.006894E+06 -1.432891E+05  1.449001E+04 -4.037982E+05 -5.060813E-10  6.484379E-10
        55  11 -9.826192E+05 -1.185018E+05  2.352373E+04 -3.810375E+05 -1.625709E-11  7.491240E-10
        55  12 -9.358193E+05 -1.167571E+05  3.201636E+04 -3.842796E+05 -8.819165E-10  1.569952E-10
        55  13 -1.064271E+06 -1.648322E+05 -9.269762E+02 -4.193473E+05 -7.746374E-10 -1.380191E-10
        55  14 -1.075548E+06 -1.534200E+05 -1.234055E+03 -4.063043E+05 -2.247989E-09  9.372033E-10
        55  15 -1.064303E+06 -1.650529E+05 -2.089206E+03 -4.192651E+05 -3.063632E-09  2.369326E-11
        55  16 -1.121645E+06 -1.863753E+05 -1.634438E+04 -4.348953E+05 -1.121106E-09  7.581193E-11
        55  17 -1.168469E+06 -1.883380E+05 -2.599277E+04 -4.315679E+05 -2.938858E-09 -7.023768E-10
        55  18 -1.192771E+06 -2.133479E+05 -3.619640E+04 -4.542443E+05 -1.461468E-09 -4.631017E-10
        55  19 -1.006894E+06 -1.432891E+05  1.449002E+04 -4.037982E+05 -1.271306E+03  9.620511E+02
        55  20 -9.826192E+05 -1.185018E+05  2.352375E+04 -3.810375E+05 -2.442866E+03  2.226332E+03
        55  21 -9.358193E+05 -1.167571E+05  3.201641E+04 -3.842796E+05 -3.607112E+03  3.469746E+03
        55  22 -1.064271E+06 -1.648322E+05 -9.269727E+02 -4.193473E+05 -6.300602E+02  1.202106E+03
        55  23 -1.075548E+06 -1.534200E+05 -1.234038E+03 -4.063043E+05 -1.810370E+03  2.463205E+03
        55  24 -1.064303E+06 -1.650528E+05 -2.089164E+03 -4.192651E+05 -2.983324E+03  3.703443E+03
        55  25 -1.121645E+06 -1.863753E+05 -1.634438E+04 -4.348953E+05  1.112582E+01  1.442139E+03
        55  26 -1.168469E+06 -1.883380E+05 -2.599275E+04 -4.315679E+05 -1.177974E+03  2.700041E+03
        55  27 -1.192771E+06 -2.133479E+05 -3.619636E+04 -4.542443E+05 -2.359676E+03  3.937089E+03
        56   1 -8.778630E+05 -9.469342E+04  4.716035E+04 -3.687694E+05  4.346389E+03 -4.185861E+03
        56   2 -8.541780E+05 -7.014889E+04  5.425075E+04 -3.463400E+05  7.206997E+03 -4.776281E+03
        56   3 -8.096315E+05 -7.024455E+04  5.893384E+04 -3.485831E+05  1.002457E+04 -5.249023E+03
        56   4 -1.064570E+06 -1.646198E+05 -2.665680E+03 -4.192681E+05  3.699395E+03 -4.428354E+03
        56   5 -1.075138E+06 -1.533016E+05 -4.635834E+03 -4.065549E+05  6.609254E+03 -5.000516E+03
        56   6 -1.064857E+06 -1.666342E+05 -9.052941E+03 -4.185145E+05  9.475953E+03 -5.455029E+03
        56   7 -1.251241E+06 -2.345435E+05 -5.249426E+04 -4.697527E+05  3.052622E+03 -4.670766E+03
        56   8 -1.296050E+06 -2.364512E+05 -6.352651E+04 -4.667502E+05  6.011747E+03 -5.224662E+03
        56   9 -1.320020E+06 -2.630201E+05 -7.704569E+04 -4.884202E+05  8.927576E+03 -5.660942E+03
        56  10 -8.778631E+05 -9.469345E+04  4.716028E+04 -3.687693E+05 -6.900088E-10 -4.792342E-11
        56  11 -8.541780E+05 -7.014893E+04  5.425061E+04 -3.463400E+05 -2.011378E-10 -1.135520E-10
        56  12 -8.096316E+05 -7.024460E+04  5.893360E+04 -3.485831E+05  8.777004E-10  2.810700E-10
        56  13 -1.064570E+06 -1.646198E+05 -2.665742E+03 -4.192681E+05 -2.805175E-09  1.114000E-10
        56  14 -1.075138E+06 -1.533017E+05 -4.635963E+03 -4.065548E+05 -1.338723E-09 -4.612264E-10
        56  15 -1.064857E+06 -1.666342E+05 -9.053166E+03 -4.185145E+05  9.622865E-11  4.427658E-10
        56  16 -1.251241E+06 -2.345435E+05 -5.249432E+04 -4.697527E+05 -9.951525E-10 -8.293614E-10
        56  17 -1.296050E+06 -2.364513E+05 -6.352663E+04 -4.667502E+05  5.331413E-10  1.565069E-10
        56  18 -1.320020E+06 -2.630202E+05 -7.704590E+04 -4.884202E+05  1.771713E-09  7.647285E-10
        56  19 -8.778630E+05 -9.469342E+04  4.716035E+04 -3.687694E+05 -4.346389E+03  4.185861E+03
        56  20 -8.541780E+05 -7.014889E+04  5.425075E+04 -3.463400E+05 -7.206997E+03  4.776281E+03
        56  21 -8.096315E+05 -7.024455E+04  5.893384E+04 -3.485831E+05 -1.002457E+04  5.249023E+03
        56  22 -1.064570E+06 -1.646198E+05 -2.665680E+03 -4.192681E+05 -3.699395E+03  4.428354E+03
        56  23 -1.075138E+06 -1.533016E+05 -4.635834E+03 -4.065549E+05 -6.609254E+03  5.000516E+03
        56  24 -1.064857E+06 -1.666342E+05 -9.052941E+03 -4.185145E+05 -9.475953E+03  5.455029E+03
        56  25 -1.251241E+06 -2.345435E+05 -5.249426E+04 -4.697527E+05 -3.052622E+03  4.670766E+03
        56  26 -1.296050E+06 -2.364512E+05 -6.352651E+04 -4.667502E+05 -6.011747E+03  5.224662E+03
        56  27 -1.320020E+06 -2.630201E+05 -7.704569E+04 -4.884202E+05 -8.927576E+03  5.660942E+03
        57   1 -7.533525E+05 -4.835648E+04  7.147541E+04 -3.367189E+05  1.231842E+04 -5.487582E+03
        57   2 -7.300672E+05 -2.085836E+04  7.166676E+04 -3.127107E+05  2.280328E+04 -3.136116E+03
        57   3 -6.953144E+05 -3.623441E+04  5.846819E+04 -3.070130E+05  3.290619E+04  2.367828E+02
        57   4 -1.066004E+06 -1.638566E+05 -1.153760E+04 -4.196753E+05  1.150592E+04 -5.792715E+03
        57   5 -1.072916E+06 -1.509819E+05 -1.989346E+04 -4.072892E+05  2.242070E+04 -3.280269E+03
        57   6 -1.068451E+06 -1.810755E+05 -4.198618E+04 -4.132142E+05  3.295290E+04  2.535489E+02
        57   7 -1.378561E+06 -2.793519E+05 -9.455905E+04 -5.025945E+05  1.069387E+04 -6.097686E+03
        57   8 -1.415651E+06 -2.810977E+05 -1.114639E+05 -5.018204E+05  2.203836E+04 -3.424335E+03
        57   9 -1.441453E+06 -3.259056E+05 -1.424527E+05 -5.193567E+05  3.299957E+04  2.703003E+02
        57  10 -7.533526E+05 -4.835655E+04  7.147507E+04 -3.367188E+05  1.914106E-09  6.905235E-10
        57  11 -7.300677E+05 -2.085851E+04  7.166577E+04 -3.127106E+05 -1.013609E-09  2.541516E-10
        57  12 -6.953156E+05 -3.623470E+04  5.846615E+04 -3.070130E+05  8.296901E-10  6.735510E-10
        57  13 -1.066004E+06 -1.638567E+05 -1.153791E+04 -4.196752E+05  8.971175E-10  5.563237E-10
        57  14 -1.072917E+06 -1.509820E+05 -1.989443E+04 -4.072892E+05  1.542105E-09 -1.362457E-10
        57  15 -1.068452E+06 -1.810758E+05 -4.198823E+04 -4.132142E+05  1.771811E-09  6.721341E-10
        57  16 -1.378561E+06 -2.793520E+05 -9.455934E+04 -5.025944E+05  9.440291E-10  3.973388E-10
        57  17 -1.415651E+06 -2.810978E+05 -1.114648E+05 -5.018203E+05  9.169938E-10 -7.981048E-11
        57  18 -1.441454E+06 -3.259059E+05 -1.424547E+05 -5.193567E+05  2.672086E-09  1.014520E-09
        57  19 -7.533525E+05 -4.835648E+04  7.147541E+04 -3.367189E+05 -1.231842E+04  5.487582E+03
        57  20 -7.300672E+05 -2.085836E+04  7.166676E+04 -3.127107E+05 -2.280328E+04  3.136116E+03
        57  21 -6.953144E+05 -3.623441E+04  5.846819E+04 -3.070130E+05 -3.290619E+04 -2.367828E+02
        57  22 -1.066004E+06 -1.638566E+05 -1.153760E+04 -4.196753E+05 -1.150592E+04  5.792715E+03
        57  23 -1.072916E+06 -1.509819E+05 -1.989346E+04 -4.072892E+05 -2.242070E+04  3.280269E+03
        57  24 -1.068451E+06 -1.810755E+05 -4.198618E+04 -4.132142E+05 -3.295290E+04 -2.535489E+02
        57  25 -1.378561E+06 -2.793519E+05 -9.455905E+04 -5.025945E+05 -1.069387E+04  6.097686E+03
        57  26 -1.415651E+06 -2.810977E+05 -1.114639E+05 -5.018204E+05 -2.203836E+04  3.424335E+03
        57  27 -1.441453E+06 -3.259056E+05 -1.424527E+05 -5.193567E+05 -3.299957E+04 -2.703003E+02
        58   1 -6.346606E+05 -1.040938E+04  6.256547E+04 -3.228362E+05  4.413709E+04  1.784281E+03
        58   2 -6.076793E+05  5.148735E+04  3.750759E+04 -2.768574E+05  8.619252E+04  1.610245E+04
        58   3 -6.373100E+05 -9.256138E+04 -6.970828E+04 -2.035802E+05  1.241534E+05  4.130361E+04
        58   4 -1.075464E+06 -1.589070E+05 -5.145055E+04 -4.251315E+05  4.123669E+04  6.944822E+02
        58   5 -1.057158E+06 -1.290183E+05 -8.424044E+04 -4.110882E+05  8.790186E+04  1.674314E+04
        58   6 -1.096434E+06 -3.060800E+05 -2.028935E+05 -3.697354E+05  1.304698E+05  4.367338E+04
        58   7 -1.516081E+06 -3.074026E+05 -1.654827E+05 -5.273658E+05  3.833854E+04 -3.946771E+02
        58   8 -1.506442E+06 -3.095042E+05 -2.060065E+05 -5.452284E+05  8.960982E+04  1.738323E+04
        58   9 -1.555349E+06 -5.195518E+05 -3.360984E+05 -5.357680E+05  1.367810E+05  4.604016E+04
        58  10 -6.346627E+05 -1.040990E+04  6.256180E+04 -3.228363E+05  2.485070E-09  1.152438E-09
        58  11 -6.076874E+05  5.148508E+04  3.749312E+04 -2.768585E+05  5.773784E-10  1.577494E-09
        58  12 -6.373270E+05 -9.256736E+04 -6.974048E+04 -2.035843E+05  4.501035E-10  3.126331E-10
        58  13 -1.075466E+06 -1.589075E+05 -5.145375E+04 -4.251315E+05  2.973805E-09  1.449037E-09
        58  14 -1.057167E+06 -1.290207E+05 -8.425552E+04 -4.110894E+05  1.225417E-09 -9.653318E-10
        58  15 -1.096453E+06 -3.060866E+05 -2.029291E+05 -3.697400E+05 -7.734743E-11  2.919096E-10
        58  16 -1.516083E+06 -3.074030E+05 -1.654855E+05 -5.273657E+05  1.986387E-09  4.109746E-10
        58  17 -1.506450E+06 -3.095067E+05 -2.060222E+05 -5.452297E+05  3.175039E-10  1.241467E-09
        58  18 -1.555370E+06 -5.195591E+05 -3.361377E+05 -5.357731E+05 -5.702329E-10  1.446464E-10
        58  19 -6.346606E+05 -1.040938E+04  6.256547E+04 -3.228362E+05 -4.413709E+04 -1.784281E+03
        58  20 -6.076793E+05  5.148735E+04  3.750759E+04 -2.768574E+05 -8.619252E+04 -1.610245E+04
        58  21 -6.373100E+05 -9.256138E+04 -6.970828E+04 -2.035802E+05 -1.241534E+05 -4.130361E+04
        58  22 -1.075464E+06 -1.589070E+05 -5.145055E+04 -4.251315E+05 -4.123669E+04 -6.944822E+02
        58  23 -1.057158E+06 -1.290183E+05 -8.424044E+04 -4.110882E+05 -8.790186E+04 -1.674314E+04
        58  24 -1.096434E+06 -3.060800E+05 -2.028935E+05 -3.697354E+05 -1.304698E+05 -4.367338E+04
        58  25 -1.516081E+06 -3.074026E+05 -1.654827E+05 -5.273658E+05 -3.833854E+04  3.946771E+02
        58  26 -1.506442E+06 -3.095042E+05 -2.060065E+05 -5.452284E+05 -8.960982E+04 -1.738323E+04
        58  27 -1.555349E+06 -5.195518E+05 -3.360984E+05 -5.357680E+05 -1.367810E+05 -4.604016E+04
        59   1  4.661693E+04 -2.227010E+05  4.380886E+04  1.813101E+03  2.067284E+03 -2.423645E+03
        59   2  5.420343E+04 -2.226443E+05  4.665951E+04  6.449748E+02  6.369316E+03 -1.799514E+03
        59   3  5.277008E+04 -2.248624E+05  4.686350E+04 -1.279914E+03  6.338869E+03 -1.178323E+03
        59   4 -6.987636E+03 -4.375467E+05 -9.307877E+03 -1.715985E+02  2.069328E+03 -5.371274E+03
        59   5  1.165493E+03 -4.362366E+05 -4.867017E+03  2.092587E+02  6.370257E+03 -2.772747E+03
        59   6 -4.582756E+01 -4.375452E+05 -4.445307E+03 -1.666283E+02  6.338049E+03 -1.771224E+02
        59   7 -6.059563E+04 -6.523503E+05 -6.242801E+04 -2.155603E+03  2.071392E+03 -8.317884E+03
        59   8 -5.187578E+04 -6.497872E+05 -5.639681E+04 -2.262984E+02  6.371199E+03 -3.745646E+03
        59   9 -5.286503E+04 -6.501866E+05 -5.575735E+04  9.462842E+02  6.337233E+03  8.237365E+02
        59  10  4.661693E+04 -2.227010E+05  4.380884E+04  1.813105E+03  2.301414E-09 -2.776831E-09
        59  11  5.420339E+04 -2.226443E+05  4.665943E+04  6.449840E+02  8.422535E-10 -1.647068E-09
        59  12  5.277003E+04 -2.248624E+05  4.686342E+04 -1.279908E+03  7.183468E-10  2.167041E-09
        59  13 -6.987648E+03 -4.375467E+05 -9.307939E+03 -1.715895E+02  2.274986E-09 -1.992533E-11
        59  14  1.165448E+03 -4.362366E+05 -4.867108E+03  2.092729E+02  1.658125E-09 -8.955995E-10
        59  15 -4.587069E+01 -4.375452E+05 -4.445382E+03 -1.666274E+02 -3.534553E-10 -1.081941E-09
        59  16 -6.059566E+04 -6.523504E+05 -6.242815E+04 -2.155589E+03  2.286027E-09  2.928874E-09
        59  17 -5.187583E+04 -6.497872E+05 -5.639691E+04 -2.262792E+02  1.346945E-09  7.305526E-11
        59  18 -5.286508E+04 -6.501866E+05 -5.575742E+04  9.462800E+02  1.574191E-10 -2.707397E-09
        59  19  4.661693E+04 -2.227010E+05  4.380886E+04  1.813101E+03 -2.067284E+03  2.423645E+03
        59  20  5.420343E+04 -2.226443E+05  4.665951E+04  6.449748E+02 -6.369316E+03  1.799514E+03
        59  21  5.277008E+04 -2.248624E+05  4.686350E+04 -1.279914E+03 -6.338869E+03  1.178323E+03
        59  22 -6.987636E+03 -4.375467E+05 -9.307877E+03 -1.715985E+02 -2.069328E+03  5.371274E+03
        59  23  1.165493E+03 -4.362366E+05 -4.867017E+03  2.092587E+02 -6.370257E+03  2.772747E+03
        59  24 -4.582756E+01 -4.375452E+05 -4.445307E+03 -1.666283E+02 -6.338049E+03  1.771224E+02
        59  25 -6.059563E+04 -6.523503E+05 -6.242801E+04 -2.155603E+03 -2.071392E+03  8.317884E+03
        59  26 -5.187578E+04 -6.497872E+05 -5.639681E+04 -2.262984E+02 -6.371199E+03  3.745646E+03
        59  27 -5.286503E+04 -6.501866E+05 -5.575735E+04  9.462842E+02 -6.337233E+03 -8.237365E+02
        60   1  5.173976E+04 -2.265868E+05  4.641216E+04  2.334763E+02  5.734691E+03  9.107149E+02
        60   2  5.264860E+04 -2.272794E+05  4.511955E+04 -1.963128E+01  6.036988E+03  3.375688E+03
        60   3  4.818145E+04 -2.295807E+05  4.088974E+04 -1.509725E+03  5.638080E+03  5.839801E+03
        60   4 -6.236583E+02 -4.373332E+05 -4.590358E+03 -2.740800E+02  5.735128E+03  6.117711E+02
        60   5  6.822750E+02 -4.365012E+05 -5.411553E+03  3.425678E+02  6.037099E+03  3.395592E+03
        60   6 -3.444171E+03 -4.373340E+05 -9.392150E+03 -2.777988E+02  5.637767E+03  6.178559E+03
        60   7 -5.299033E+04 -6.480390E+05 -5.559607E+04 -7.814529E+02  5.735567E+03  3.129284E+02
        60   8 -5.128725E+04 -6.456831E+05 -5.594579E+04  7.046560E+02  6.037210E+03  3.415490E+03
        60   9 -5.507295E+04 -6.450478E+05 -5.967714E+04  9.537266E+02  5.637454E+03  6.517203E+03
        60  10  5.173972E+04 -2.265868E+05  4.641210E+04  2.334721E+02  5.401199E-10  1.113451E-09
        60  11  5.264856E+04 -2.272794E+05  4.511946E+04 -1.964769E+01  1.227074E-09 -3.029768E-09
        60  12  4.818141E+04 -2.295807E+05  4.088962E+04 -1.509752E+03  8.649253E-10 -2.502811E-09
        60  13 -6.236937E+02 -4.373332E+05 -4.590421E+03 -2.740828E+02  3.315082E-10 -2.353240E-11
        60  14  6.822327E+02 -4.365013E+05 -5.411643E+03  3.425512E+02 -5.726534E-10 -1.216107E-09
        60  15 -3.444215E+03 -4.373340E+05 -9.392281E+03 -2.778269E+02  2.479536E-10 -1.461239E-09
        60  16 -5.299036E+04 -6.480390E+05 -5.559613E+04 -7.814543E+02 -2.896791E-10 -8.305344E-10
        60  17 -5.128730E+04 -6.456831E+05 -5.594588E+04  7.046394E+02 -5.726847E-10  8.313693E-10
        60  18 -5.507299E+04 -6.450479E+05 -5.967728E+04  9.536970E+02 -8.812172E-10  1.814241E-09
        60  19  5.173976E+04 -2.265868E+05  4.641216E+04  2.334763E+02 -5.734691E+03 -9.107149E+02
        60  20  5.264860E+04 -2.272794E+05  4.511955E+04 -1.963128E+01 -6.036988E+03 -3.375688E+03
        60  21  4.818145E+04 -2.295807E+05  4.088974E+04 -1.509725E+03 -5.638080E+03 -5.839801E+03
        60  22 -6.236583E+02 -4.373332E+05 -4.590358E+03 -2.740800E+02 -5.735128E+03 -6.117711E+02
        60  23  6.822750E+02 -4.365012E+05 -5.411553E+03  3.425678E+02 -6.037099E+03 -3.395592E+03
        60  24 -3.444171E+03 -4.373340E+05 -9.392150E+03 -2.777988E+02 -5.637767E+03 -6.178559E+03
        60  25 -5.299033E+04 -6.480390E+05 -5.559607E+04 -7.814529E+02 -5.735567E+03 -3.129284E+02
        60  26 -5.128725E+04 -6.456831E+05 -5.594579E+04  7.046560E+02 -6.037210E+03 -3.415490E+03
        60  27 -5.507295E+04 -6.450478E+05 -5.967714E+04  9.537266E+02 -5.637454E+03 -6.517203E+03
        61   1  5.237325E+04 -2.342291E+05  3.826444E+04  3.320250E+03  6.118576E+03  8.840919E+03
        61   2  5.535689E+04 -2.308130E+05  3.166744E+04 -2.299879E+03  6.024789E+03  1.637696E+04
        61   3  1.933811E+04 -2.380795E+05  1.042317E+04 -9.664388E+03  1.908322E+03  2.390620E+04
        61   4  1.437281E+03 -4.394075E+05 -1.122636E+04 -3.716275E+02  6.119887E+03  7.960126E+03
        61   5  4.913792E+03 -4.339088E+05 -1.733107E+04  4.744576E+02  6.023528E+03  1.732737E+04
        61   6 -3.093708E+04 -4.394143E+05 -3.935862E+04 -4.240628E+02  1.904064E+03  2.668776E+04
        61   7 -4.950171E+04 -6.445473E+05 -6.072016E+04 -4.062267E+03  6.121207E+03  7.079623E+03
        61   8 -4.553229E+04 -6.369669E+05 -6.633252E+04  3.247897E+03  6.022276E+03  1.827747E+04
        61   9 -8.121498E+04 -6.407121E+05 -8.914335E+04  8.813276E+03  1.899889E+03  2.946843E+04
        61  10  5.237319E+04 -2.342292E+05  3.826422E+04  3.320207E+03  1.282077E-10  1.683982E-09
        61  11  5.535678E+04 -2.308133E+05  3.166687E+04 -2.299959E+03 -6.391860E-10 -1.371052E-09
        61  12  1.933796E+04 -2.380801E+05  1.042208E+04 -9.664424E+03 -5.347630E-10 -1.503888E-09
        61  13  1.437224E+03 -4.394076E+05 -1.122655E+04 -3.716668E+02 -4.376366E-10 -1.785869E-11
        61  14  4.913673E+03 -4.339092E+05 -1.733170E+04  4.743735E+02 -1.031752E-09 -1.740648E-09
        61  15 -3.093727E+04 -4.394151E+05 -3.935997E+04 -4.241037E+02  7.786237E-11 -1.970390E-09
        61  16 -4.950176E+04 -6.445474E+05 -6.072033E+04 -4.062302E+03 -1.162491E-10 -1.324072E-09
        61  17 -4.553242E+04 -6.369673E+05 -6.633321E+04  3.247809E+03 -1.241031E-09 -1.456495E-09
        61  18 -8.121521E+04 -6.407130E+05 -8.914499E+04  8.813231E+03 -2.269138E-10  7.080305E-10
        61  19  5.237325E+04 -2.342291E+05  3.826444E+04  3.320250E+03 -6.118576E+03 -8.840919E+03
        61  20  5.535689E+04 -2.308130E+05  3.166744E+04 -2.299879E+03 -6.024789E+03 -1.637696E+04
        61  21  1.933811E+04 -2.380795E+05  1.042317E+04 -9.664388E+03 -1.908322E+03 -2.390620E+04
        61  22  1.437281E+03 -4.394075E+05 -1.122636E+04 -3.716275E+02 -6.119887E+03 -7.960126E+03
        61  23  4.913792E+03 -4.339088E+05 -1.733107E+04  4.744576E+02 -6.023528E+03 -1.732737E+04
        61  24 -3.093708E+04 -4.394143E+05 -3.935862E+04 -4.240628E+02 -1.904064E+03 -2.668776E+04
        61  25 -4.950171E+04 -6.445473E+05 -6.072016E+04 -4.062267E+03 -6.121207E+03 -7.079623E+03
        61  26 -4.553229E+04 -6.369669E+05 -6.633252E+04  3.247897E+03 -6.022276E+03 -1.827747E+04
        61  27 -8.121498E+04 -6.407121E+05 -8.914335E+04  8.813276E+03 -1.899889E+03 -2.946843E+04
        62   1  1.471489E+02  3.651297E+01  3.628526E+01  1.295660E+00  3.224679E-01 -9.924227E-02
        62   2  1.469984E+02  3.690448E+01  3.600699E+01 -6.256615E-01  7.222920E-01 -2.730576E-01
        62   3  1.466621E+02  3.672362E+01  3.532721E+01  1.304977E+00  1.122085E+00 -1.876482E-01
        62   4 -3.342722E-01 -3.575168E-01 -5.839828E-01  1.287216E+00  3.151841E-01 -9.924327E-02
        62   5 -2.408055E-01  9.551007E-02 -7.985474E-01 -6.387860E-01  7.212289E-01 -2.730577E-01
        62   6 -3.342770E-01 -2.490224E-02 -1.418949E+00  1.287170E+00  1.127243E+00 -1.876473E-01
        62   7 -1.478174E+02 -3.722801E+01 -3.745323E+01  1.278773E+00  3.079007E-01 -9.924430E-02
        62   8 -1.474800E+02 -3.671346E+01 -3.760409E+01 -6.519113E-01  7.201673E-01 -2.730579E-01
        62   9 -1.473306E+02 -3.677343E+01 -3.816511E+01  1.269363E+00  1.132403E+00 -1.876467E-01
        62  10  1.471489E+02  3.651299E+01  3.628527E+01  1.295601E+00 -1.196993E-07 -1.136223E-08
        62  11  1.469984E+02  3.690453E+01  3.600701E+01 -6.259225E-01 -5.383961E-07 -3.894564E-08
        62  12  1.466621E+02  3.672371E+01  3.532723E+01  1.304515E+00 -9.608096E-07 -5.050413E-08
        62  13 -3.342824E-01 -3.575171E-01 -5.839849E-01  1.287216E+00 -3.063971E-07  7.243128E-09
        62  14 -2.408149E-01  9.551305E-02 -7.985487E-01 -6.387863E-01 -1.356161E-06  3.171297E-08
        62  15 -3.342871E-01 -2.490272E-02 -1.418951E+00  1.287170E+00 -2.407893E-06  5.636594E-08
        62  16 -1.478175E+02 -3.722802E+01 -3.745323E+01  1.278832E+00 -1.247887E-07 -4.304781E-10
        62  17 -1.474800E+02 -3.671350E+01 -3.760410E+01 -6.516510E-01 -5.470505E-07 -1.252727E-08
        62  18 -1.473306E+02 -3.677352E+01 -3.816513E+01  1.269825E+00 -9.657036E-07 -4.030156E-08
        62  19  1.471489E+02  3.651300E+01  3.628527E+01  1.295542E+00 -3.224682E-01  9.924224E-02
        62  20  1.469985E+02  3.690459E+01  3.600702E+01 -6.261834E-01 -7.222931E-01  2.730575E-01
        62  21  1.466621E+02  3.672380E+01  3.532725E+01  1.304052E+00 -1.122087E+00  1.876481E-01
        62  22 -3.342926E-01 -3.575176E-01 -5.839870E-01  1.287217E+00 -3.151847E-01  9.924329E-02
        62  23 -2.408242E-01  9.551603E-02 -7.985499E-01 -6.387865E-01 -7.212316E-01  2.730578E-01
        62  24 -3.342974E-01 -2.490333E-02 -1.418953E+00  1.287170E+00 -1.127248E+00  1.876474E-01
        62  25 -1.478175E+02 -3.722803E+01 -3.745324E+01  1.278890E+00 -3.079009E-01  9.924430E-02
        62  26 -1.474801E+02 -3.671355E+01 -3.760411E+01 -6.513908E-01 -7.201684E-01  2.730579E-01
        62  27 -1.473307E+02 -3.677360E+01 -3.816515E+01  1.270287E+00 -1.132405E+00  1.876466E-01
        63   1  6.361189E+01  1.593946E+01  1.412845E+01  1.289209E+00  1.425017E+00 -1.188738E-01
        63   2  6.353019E+01  1.601495E+01  1.274145E+01 -6.345213E-01  3.009438E+00 -1.065088E-01
        63   3  6.311917E+01  1.559597E+01  1.019942E+01  1.293333E+00  4.593854E+00 -4.979903E-02
        63   4 -3.659634E-01 -5.465601E-02 -1.864157E+00  1.287093E+00  1.424774E+00 -1.188738E-01
        63   5 -2.012076E-01  8.241547E-02 -3.189735E+00 -6.386833E-01  3.010261E+00 -1.065086E-01
        63   6 -3.659647E-01 -2.751663E-01 -5.671079E+00  1.287125E+00  4.595741E+00 -4.979874E-02
        63   7 -6.434381E+01 -1.604877E+01 -1.785676E+01  1.284978E+00  1.424535E+00 -1.188739E-01
        63   8 -6.393261E+01 -1.585012E+01 -1.912092E+01 -6.428448E-01  3.011085E+00 -1.065086E-01
        63   9 -6.385110E+01 -1.614630E+01 -2.154158E+01  1.280917E+00  4.597628E+00 -4.979850E-02
        63  10  6.361191E+01  1.593955E+01  1.412847E+01  1.288733E+00 -9.915007E-07 -4.338315E-08
        63  11  6.353021E+01  1.601500E+01  1.274146E+01 -6.348406E-01 -6.665586E-07 -2.133674E-08
        63  12  6.311918E+01  1.559599E+01  1.019942E+01  1.293171E+00 -3.412597E-07 -4.751123E-09
        63  13 -3.659553E-01 -5.465517E-02 -1.864155E+00  1.287093E+00 -2.476485E-06  5.810458E-08
        63  14 -2.012002E-01  8.241371E-02 -3.189734E+00 -6.386833E-01 -1.662020E-06  3.779868E-08
        63  15 -3.659574E-01 -2.751682E-01 -5.671078E+00  1.287125E+00 -8.479749E-07  1.748577E-08
        63  16 -6.434383E+01 -1.604886E+01 -1.785679E+01  1.285453E+00 -9.895791E-07 -4.974948E-08
        63  17 -6.393262E+01 -1.585018E+01 -1.912093E+01 -6.425260E-01 -6.630883E-07 -3.944577E-08
        63  18 -6.385110E+01 -1.614633E+01 -2.154158E+01  1.281080E+00 -3.357502E-07 -2.353397E-08
        63  19  6.361194E+01  1.593964E+01  1.412850E+01  1.288257E+00 -1.425019E+00  1.188737E-01
        63  20  6.353023E+01  1.601506E+01  1.274148E+01 -6.351596E-01 -3.009440E+00  1.065088E-01
        63  21  6.311919E+01  1.559602E+01  1.019943E+01  1.293009E+00 -4.593855E+00  4.979903E-02
        63  22 -3.659473E-01 -5.465455E-02 -1.864153E+00  1.287093E+00 -1.424779E+00  1.188739E-01
        63  23 -2.011928E-01  8.241193E-02 -3.189733E+00 -6.386834E-01 -3.010264E+00  1.065087E-01
        63  24 -3.659501E-01 -2.751702E-01 -5.671077E+00  1.287126E+00 -4.595742E+00  4.979877E-02
        63  25 -6.434385E+01 -1.604895E+01 -1.785681E+01  1.285928E+00 -1.424537E+00  1.188738E-01
        63  26 -6.393263E+01 -1.585024E+01 -1.912095E+01 -6.422068E-01 -3.011086E+00  1.065085E-01
        63  27 -6.385111E+01 -1.614636E+01 -2.154159E+01  1.281243E+00 -4.597629E+00  4.979845E-02
        64   1 -2.016652E+01 -4.857760E+00 -1.230876E+01  1.263371E+00  5.781837E+00 -1.347308E-02
        64   2 -1.964082E+01 -4.469672E+00 -1.773150E+01 -6.466706E-01  1.215582E+01  3.142993E-02
        64   3 -2.065826E+01 -6.929358E+00 -2.801618E+01  1.295098E+00  1.852970E+01  8.382351E-02
        64   4 -6.356666E-01  2.500317E-02 -7.425821E+00  1.287055E+00  5.782803E+00 -1.347294E-02
        64   5  1.359182E-01  4.744281E-01 -1.278777E+01 -6.387081E-01  1.215696E+01  3.143007E-02
        64   6 -6.356657E-01 -1.923954E+00 -2.301179E+01  1.287340E+00  1.853102E+01  8.382363E-02
        64   7  1.889518E+01  4.907766E+00 -2.542885E+00  1.310740E+00  5.783768E+00 -1.347282E-02
        64   8  1.991265E+01  5.418527E+00 -7.844052E+00 -6.307447E-01  1.215811E+01  3.143025E-02
        64   9  1.938692E+01  3.081450E+00 -1.800741E+01  1.279582E+00  1.853235E+01  8.382387E-02
        64  10 -2.016651E+01 -4.857753E+00 -1.230876E+01  1.263317E+00 -1.136821E-07  4.310871E-09
        64  11 -1.964082E+01 -4.469693E+00 -1.773150E+01 -6.465083E-01  3.387558E-07  2.067733E-08
        64  12 -2.065827E+01 -6.929407E+00 -2.801619E+01  1.295479E+00  7.926951E-07  3.512608E-08
        64  13 -6.356561E-01  2.500206E-02 -7.425820E+00  1.287055E+00 -2.794729E-07  6.529281E-09
        64  14  1.359284E-01  4.744259E-01 -1.278777E+01 -6.387080E-01  8.529700E-07 -1.131368E-08
        64  15 -6.356557E-01 -1.923956E+00 -2.301179E+01  1.287340E+00  1.986001E-06 -2.956013E-08
        64  16  1.889518E+01  4.907753E+00 -2.542887E+00  1.310794E+00 -1.095367E-07 -1.477441E-08
        64  17  1.991266E+01  5.418541E+00 -7.844048E+00 -6.309082E-01  3.436254E-07 -2.723748E-09
        64  18  1.938694E+01  3.081491E+00 -1.800740E+01  1.279201E+00  7.959181E-07  1.215298E-08
        64  19 -2.016651E+01 -4.857746E+00 -1.230875E+01  1.263263E+00 -5.781838E+00  1.347309E-02
        64  20 -1.964082E+01 -4.469714E+00 -1.773151E+01 -6.463436E-01 -1.215581E+01 -3.142989E-02
        64  21 -2.065827E+01 -6.929456E+00 -2.801620E+01  1.295860E+00 -1.852970E+01 -8.382343E-02
        64  22 -6.356455E-01  2.500085E-02 -7.425818E+00  1.287055E+00 -5.782803E+00  1.347295E-02
        64  23  1.359389E-01  4.744238E-01 -1.278777E+01 -6.387080E-01 -1.215696E+01 -3.143009E-02
        64  24 -6.356449E-01 -1.923958E+00 -2.301179E+01  1.287340E+00 -1.853102E+01 -8.382369E-02
        64  25  1.889518E+01  4.907740E+00 -2.542889E+00  1.310847E+00 -5.783769E+00  1.347279E-02
        64  26  1.991267E+01  5.418554E+00 -7.844043E+00 -6.310721E-01 -1.215811E+01 -3.143025E-02
        64  27  1.938695E+01  3.081532E+00 -1.800739E+01  1.278820E+00 -1.853235E+01 -8.382384E-02
        65   1 -1.051172E+02 -2.545967E+01 -5.571708E+01  1.148228E+00  2.333283E+01  1.151592E-01
        65   2 -1.013448E+02 -2.268709E+01 -7.701299E+01 -6.478552E-01  4.900276E+01  1.683173E-01
        65   3 -1.056144E+02 -3.872847E+01 -1.197237E+02  1.408867E+00  7.467307E+01  2.221474E-01
        65   4 -2.079839E+00  2.993798E-01 -2.995947E+01  1.286729E+00  2.333401E+01  1.151593E-01
        65   5  1.941129E+00  3.133920E+00 -5.119401E+01 -6.387323E-01  4.900396E+01  1.683173E-01
        65   6 -2.079833E+00 -1.284550E+01 -9.384331E+01  1.288609E+00  7.467429E+01  2.221475E-01
        65   7  1.009575E+02  2.605843E+01 -4.201871E+00  1.425230E+00  2.333519E+01  1.151595E-01
        65   8  1.052271E+02  2.895493E+01 -2.537504E+01 -6.296093E-01  4.900516E+01  1.683176E-01
        65   9  1.014548E+02  1.303746E+01 -6.796298E+01  1.168351E+00  7.467551E+01  2.221477E-01
        65  10 -1.051172E+02 -2.545973E+01 -5.571709E+01  1.148738E+00  1.062526E-06  4.129503E-08
        65  11 -1.013448E+02 -2.268716E+01 -7.701301E+01 -6.471170E-01  1.537857E-06  4.906411E-08
        65  12 -1.056144E+02 -3.872856E+01 -1.197237E+02  1.409833E+00  2.010246E-06  5.557851E-08
        65  13 -2.079828E+00  2.993779E-01 -2.995947E+01  1.286729E+00  2.660654E-06 -3.693698E-08
        65  14  1.941137E+00  3.133917E+00 -5.119402E+01 -6.387322E-01  3.844255E-06 -4.578409E-08
        65  15 -2.079828E+00 -1.284551E+01 -9.384332E+01  1.288609E+00  5.029254E-06 -5.438188E-08
        65  16  1.009575E+02  2.605848E+01 -4.201858E+00  1.424720E+00  1.065803E-06  1.866385E-08
        65  17  1.052271E+02  2.895499E+01 -2.537502E+01 -6.303473E-01  1.539964E-06  2.489280E-08
        65  18  1.014548E+02  1.303754E+01 -6.796297E+01  1.167386E+00  2.012348E-06  3.251382E-08
        65  19 -1.051172E+02 -2.545979E+01 -5.571711E+01  1.149249E+00 -2.333283E+01 -1.151591E-01
        65  20 -1.013449E+02 -2.268724E+01 -7.701303E+01 -6.463786E-01 -4.900275E+01 -1.683172E-01
        65  21 -1.056144E+02 -3.872864E+01 -1.197237E+02  1.410798E+00 -7.467306E+01 -2.221473E-01
        65  22 -2.079817E+00  2.993762E-01 -2.995947E+01  1.286729E+00 -2.333401E+01 -1.151594E-01
        65  23  1.941151E+00  3.133916E+00 -5.119401E+01 -6.387322E-01 -4.900395E+01 -1.683174E-01
        65  24 -2.079812E+00 -1.284551E+01 -9.384331E+01  1.288609E+00 -7.467428E+01 -2.221476E-01
        65  25  1.009575E+02  2.605854E+01 -4.201842E+00  1.424209E+00 -2.333519E+01 -1.151595E-01
        65  26  1.052271E+02  2.895506E+01 -2.537500E+01 -6.310855E-01 -4.900516E+01 -1.683175E-01
        65  27  1.014548E+02  1.303762E+01 -6.796294E+01  1.166421E+00 -7.467550E+01 -2.221477E-01
        66   1 -1.966307E+02 -4.438873E+01 -1.677103E+02  4.918980E-01  9.416841E+01  2.549364E-01
        66   2 -1.748505E+02 -2.630381E+01 -2.508955E+02 -4.923280E-01  1.975370E+02  3.199200E-01
        66   3 -1.971237E+02 -1.306579E+02 -4.319846E+02  2.385438E+00  3.009055E+02  3.813710E-01
        66   4 -1.008239E+01  2.247891E+00 -1.210769E+02  1.285342E+00  9.416968E+01  2.549366E-01
        66   5  1.194433E+01  2.039395E+01 -2.042013E+02 -6.397372E-01  1.975382E+02  3.199200E-01
        66   6 -1.008235E+01 -8.389894E+01 -3.852297E+02  1.297175E+00  3.009067E+02  3.813705E-01
        66   7  1.764659E+02  4.888451E+01 -7.444357E+01  2.078786E+00  9.417094E+01  2.549369E-01
        66   8  1.987392E+02  6.709171E+01 -1.575072E+02 -7.871468E-01  1.975394E+02  3.199202E-01
        66   9  1.769591E+02 -3.714001E+01 -3.384747E+02  2.089122E-01  3.009078E+02  3.813702E-01
        66  10 -1.966307E+02 -4.438883E+01 -1.677103E+02  4.929951E-01  2.285068E-06  5.770136E-08
        66  11 -1.748506E+02 -2.630392E+01 -2.508956E+02 -4.910063E-01  2.753278E-06  5.799494E-08
        66  12 -1.971238E+02 -1.306580E+02 -4.319848E+02  2.386984E+00  3.222079E-06  5.561994E-08
        66  13 -1.008239E+01  2.247886E+00 -1.210769E+02  1.285342E+00  5.713331E-06 -5.639471E-08
        66  14  1.194430E+01  2.039394E+01 -2.042014E+02 -6.397374E-01  6.883204E-06 -5.501175E-08
        66  15 -1.008243E+01 -8.389896E+01 -3.852298E+02  1.297175E+00  8.052588E-06 -5.451947E-08
        66  16  1.764659E+02  4.888459E+01 -7.444357E+01  2.077688E+00  2.285559E-06  3.459306E-08
        66  17  1.987392E+02  6.709178E+01 -1.575072E+02 -7.884685E-01  2.752979E-06  3.383558E-08
        66  18  1.769590E+02 -3.713995E+01 -3.384748E+02  2.073658E-01  3.220947E-06  3.435084E-08
        66  19 -1.966307E+02 -4.438892E+01 -1.677103E+02  4.940922E-01 -9.416840E+01 -2.549363E-01
        66  20 -1.748505E+02 -2.630400E+01 -2.508955E+02 -4.896851E-01 -1.975370E+02 -3.199199E-01
        66  21 -1.971238E+02 -1.306580E+02 -4.319847E+02  2.388530E+00 -3.009055E+02 -3.813709E-01
        66  22 -1.008237E+01  2.247887E+00 -1.210769E+02  1.285342E+00 -9.416967E+01 -2.549367E-01
        66  23  1.194435E+01  2.039395E+01 -2.042013E+02 -6.397372E-01 -1.975382E+02 -3.199201E-01
        66  24 -1.008232E+01 -8.389894E+01 -3.852297E+02  1.297175E+00 -3.009066E+02 -3.813706E-01
        66  25  1.764660E+02  4.888468E+01 -7.444353E+01  2.076591E+00 -9.417094E+01 -2.549369E-01
        66  26  1.987392E+02  6.709188E+01 -1.575072E+02 -7.897901E-01 -1.975394E+02 -3.199201E-01
        66  27  1.769591E+02 -3.713984E+01 -3.384746E+02  2.058195E-01 -3.009078E+02 -3.813701E-01
        67   1 -3.261574E+02 -5.191054E+01 -5.576707E+02 -3.513726E+00  3.803703E+02  4.239934E-01
        67   2 -2.008563E+02  6.363148E+01 -8.772610E+02  1.003407E+00  7.964659E+02  5.307697E-01
        67   3 -3.266405E+02 -6.085798E+02 -1.664679E+03  9.438915E+00  1.212555E+03  6.155779E-01
        67   4 -5.608943E+01  1.560694E+01 -4.901591E+02  1.277133E+00  3.803719E+02  4.239964E-01
        67   5  6.945348E+01  1.312071E+02 -8.096903E+02 -6.462166E-01  7.964671E+02  5.307676E-01
        67   6 -5.608882E+01 -5.409459E+02 -1.597049E+03  1.348904E+00  1.212556E+03  6.155621E-01
        67   7  2.139786E+02  8.312441E+01 -4.226476E+02  6.067993E+00  3.803734E+02  4.239996E-01
        67   8  3.397633E+02  1.987826E+02 -7.421196E+02 -2.295841E+00  7.964683E+02  5.307657E-01
        67   9  2.144630E+02 -4.733119E+02 -1.529419E+03 -6.741111E+00  1.212557E+03  6.155464E-01
        67  10 -3.261576E+02 -5.191067E+01 -5.576710E+02 -3.512056E+00  3.479064E-06  5.362136E-08
        67  11 -2.008570E+02  6.363124E+01 -8.772622E+02  1.005274E+00  3.892078E-06  4.583530E-08
        67  12 -3.266421E+02 -6.085802E+02 -1.664682E+03  9.440981E+00  4.305072E-06  3.301661E-08
        67  13 -5.608957E+01  1.560690E+01 -4.901594E+02  1.277133E+00  8.694395E-06 -5.141483E-08
        67  14  6.945281E+01  1.312069E+02 -8.096915E+02 -6.462169E-01  9.727222E-06 -4.129462E-08
        67  15 -5.609039E+01 -5.409463E+02 -1.597052E+03  1.348904E+00  1.076117E-05 -3.140935E-08
        67  16  2.139785E+02  8.312445E+01 -4.226479E+02  6.066324E+00  3.477601E-06  3.135924E-08
        67  17  3.397626E+02  1.987825E+02 -7.421207E+02 -2.297710E+00  3.888754E-06  2.360439E-08
        67  18  2.144614E+02 -4.733123E+02 -1.529421E+03 -6.743177E+00  4.302544E-06  2.087479E-08
        67  19 -3.261574E+02 -5.191071E+01 -5.576707E+02 -3.510387E+00 -3.803703E+02 -4.239933E-01
        67  20 -2.008563E+02  6.363134E+01 -8.772610E+02  1.007142E+00 -7.964659E+02 -5.307696E-01
        67  21 -3.266406E+02 -6.085799E+02 -1.664679E+03  9.443047E+00 -1.212555E+03 -6.155779E-01
        67  22 -5.608941E+01  1.560693E+01 -4.901591E+02  1.277133E+00 -3.803718E+02 -4.239965E-01
        67  23  6.945350E+01  1.312071E+02 -8.096903E+02 -6.462166E-01 -7.964671E+02 -5.307677E-01
        67  24 -5.608880E+01 -5.409459E+02 -1.597049E+03  1.348904E+00 -1.212556E+03 -6.155622E-01
        67  25  2.139786E+02  8.312456E+01 -4.226476E+02  6.064654E+00 -3.803734E+02 -4.239996E-01
        67  26  3.397633E+02  1.987828E+02 -7.421195E+02 -2.299577E+00 -7.964683E+02 -5.307656E-01
        67  27  2.144630E+02 -4.733118E+02 -1.529419E+03 -6.745242E+00 -1.212557E+03 -6.155464E-01
        68   1 -6.819088E+02  1.582698E+01 -2.077911E+03 -2.838735E+01  1.538525E+03  7.004202E-01
        68   2  5.584710E+01  7.497283E+02 -3.268255E+03  1.237903E+01  3.212484E+03  9.636229E-01
        68   3 -6.824260E+02 -3.548952E+03 -6.806524E+03  5.739110E+01  4.886467E+03  1.099855E+00
        68   4 -3.282982E+02  1.042375E+02 -1.989514E+03  1.228415E+00  1.538528E+03  7.004938E-01
        68   5  4.097205E+02  8.381908E+02 -3.179796E+03 -6.840947E-01  3.212485E+03  9.635553E-01
        68   6 -3.282887E+02 -3.460435E+03 -6.718001E+03  1.648460E+00  4.886466E+03  1.099416E+00
        68   7  2.531258E+01  1.926480E+02 -1.901117E+03  3.084420E+01  1.538531E+03  7.005676E-01
        68   8  7.635939E+02  9.266533E+02 -3.091338E+03 -1.374723E+01  3.212486E+03  9.634876E-01
        68   9  2.584871E+01 -3.371919E+03 -6.629477E+03 -5.409421E+01  4.886465E+03  1.098977E+00
        68  10 -6.819114E+02  1.582631E+01 -2.077915E+03 -2.838522E+01  4.452414E-06  2.596174E-08
        68  11  5.583601E+01  7.497255E+02 -3.268274E+03  1.238121E+01  4.542578E-06  1.188643E-08
        68  12 -6.824516E+02 -3.548958E+03 -6.806569E+03  5.739332E+01  4.632819E-06 -1.234063E-08
        68  13 -3.283007E+02  1.042368E+02 -1.989518E+03  1.228414E+00  1.112673E-05 -2.423133E-08
        68  14  4.097094E+02  8.381880E+02 -3.179816E+03 -6.840971E-01  1.135397E-05 -8.890151E-09
        68  15 -3.283143E+02 -3.460442E+03 -6.718045E+03  1.648456E+00  1.157810E-05  7.158605E-09
        68  16  2.531005E+01  1.926474E+02 -1.901122E+03  3.084206E+01  4.448999E-06  1.541239E-08
        68  17  7.635829E+02  9.266505E+02 -3.091357E+03 -1.374941E+01  4.540181E-06  4.143484E-09
        68  18  2.582307E+01 -3.371925E+03 -6.629522E+03 -5.409644E+01  4.630061E-06  3.999530E-09
        68  19 -6.819088E+02  1.582690E+01 -2.077911E+03 -2.838308E+01 -1.538525E+03 -7.004201E-01
        68  20  5.584709E+01  7.497282E+02 -3.268255E+03  1.238339E+01 -3.212484E+03 -9.636229E-01
        68  21 -6.824260E+02 -3.548952E+03 -6.806524E+03  5.739555E+01 -4.886467E+03 -1.099855E+00
        68  22 -3.282982E+02  1.042375E+02 -1.989514E+03  1.228415E+00 -1.538528E+03 -7.004939E-01
        68  23  4.097205E+02  8.381908E+02 -3.179796E+03 -6.840944E-01 -3.212485E+03 -9.635553E-01
        68  24 -3.282887E+02 -3.460435E+03 -6.718001E+03  1.648461E+00 -4.886466E+03 -1.099416E+00
        68  25  2.531260E+01  1.926480E+02 -1.901117E+03  3.083993E+01 -1.538531E+03 -7.005675E-01
        68  26  7.635939E+02  9.266533E+02 -3.091337E+03 -1.375159E+01 -3.212486E+03 -9.634876E-01
        68  27  2.584871E+01 -3.371919E+03 -6.629477E+03 -5.409866E+01 -4.886465E+03 -1.098977E+00
        69   1 -2.410738E+03  5.715891E+02 -8.217166E+03 -1.838590E+02  6.236126E+03  1.367569E+00
        69   2  2.028213E+03  5.221817E+03 -1.239934E+04  9.186339E+01  1.296470E+04  2.210628E+00
        69   3 -2.411187E+03 -2.213750E+04 -2.896430E+04  3.736496E+02  1.969329E+04  2.327631E+00
        69   4 -1.973243E+03  6.810140E+02 -8.107791E+03  9.522345E-01  6.236139E+03  1.369427E+00
        69   5  2.466000E+03  5.331235E+03 -1.228991E+04 -8.997100E-01  1.296470E+04  2.208690E+00
        69   6 -1.973100E+03 -2.202807E+04 -2.885480E+04  3.313751E+00  1.969327E+04  2.315881E+00
        69   7 -1.535748E+03  7.904389E+02 -7.998417E+03  1.857636E+02  6.236153E+03  1.371285E+00
        69   8  2.903787E+03  5.440654E+03 -1.218048E+04 -9.366287E+01  1.296470E+04  2.206752E+00
        69   9 -1.535012E+03 -2.191865E+04 -2.874530E+04 -3.670224E+02  1.969326E+04  2.304132E+00
        69  10 -2.410780E+03  5.715787E+02 -8.217239E+03 -1.838571E+02  4.132410E-06 -3.828285E-08
        69  11  2.028032E+03  5.221772E+03 -1.239966E+04  9.186448E+01  2.328176E-06 -5.934773E-08
        69  12 -2.411603E+03 -2.213760E+04 -2.896503E+04  3.736498E+02  5.239315E-07 -2.179024E-08
        69  13 -1.973285E+03  6.810035E+02 -8.107865E+03  9.522274E-01  1.033187E-05  9.865101E-09
        69  14  2.465819E+03  5.331190E+03 -1.229023E+04 -8.997330E-01  5.822071E-06  5.573812E-09
        69  15 -1.973516E+03 -2.202818E+04 -2.885553E+04  3.313714E+00  1.312208E-06  1.096404E-09
        69  16 -1.535790E+03  7.904285E+02 -7.998490E+03  1.857616E+02  4.131949E-06  2.431968E-08
        69  17  2.903606E+03  5.440609E+03 -1.218080E+04 -9.366401E+01  2.329278E-06  5.039127E-08
        69  18 -1.535429E+03 -2.191875E+04 -2.874603E+04 -3.670226E+02  5.253554E-07  1.944435E-08
        69  19 -2.410738E+03  5.715892E+02 -8.217166E+03 -1.838551E+02 -6.236126E+03 -1.367569E+00
        69  20  2.028213E+03  5.221817E+03 -1.239934E+04  9.186562E+01 -1.296470E+04 -2.210628E+00
        69  21 -2.411187E+03 -2.213750E+04 -2.896430E+04  3.736501E+02 -1.969329E+04 -2.327631E+00
        69  22 -1.973243E+03  6.810140E+02 -8.107791E+03  9.522343E-01 -6.236139E+03 -1.369427E+00
        69  23  2.466000E+03  5.331235E+03 -1.228991E+04 -8.997098E-01 -1.296470E+04 -2.208690E+00
        69  24 -1.973100E+03 -2.202807E+04 -2.885480E+04  3.313751E+00 -1.969327E+04 -2.315881E+00
        69  25 -1.535748E+03  7.904389E+02 -7.998417E+03  1.857597E+02 -6.236153E+03 -1.371284E+00
        69  26  2.903787E+03  5.440654E+03 -1.218048E+04 -9.366511E+01 -1.296470E+04 -2.206752E+00
        69  27 -1.535012E+03 -2.191865E+04 -2.874530E+04 -3.670229E+02 -1.969326E+04 -2.304132E+00
        70   1 -1.231636E+02 -4.813091E+01 -3.463811E+01 -3.477551E+01 -1.011102E-01  6.412241E-02
        70   2 -1.243284E+02 -4.621588E+01 -3.450861E+01 -3.310884E+01  3.500319E-02  2.871678E-01
        70   3 -1.226481E+02 -4.769471E+01 -3.462618E+01 -3.473001E+01  2.621811E-01  2.674880E-01
        70   4  1.049432E+00 -1.240525E+00 -4.188709E-01 -1.008665E+00 -9.499496E-02  6.641656E-02
        70   5 -3.563950E-01  5.795373E-01 -3.589636E-01  5.889451E-01  3.566445E-02  2.874156E-01
        70   6  1.084209E+00 -9.932931E-01 -5.418216E-01 -1.101426E+00  2.573882E-01  2.656895E-01
        70   7  1.252624E+02  4.564985E+01  3.380036E+01  3.275818E+01 -8.887997E-02  6.871073E-02
        70   8  1.236156E+02  4.737495E+01  3.379067E+01  3.428673E+01  3.632456E-02  2.876635E-01
        70   9  1.248165E+02  4.570812E+01  3.354254E+01  3.252716E+01  2.525934E-01  2.638911E-01
        70  10 -1.231636E+02 -4.813093E+01 -3.463812E+01 -3.477547E+01  5.607783E-08  5.021369E-08
        70  11 -1.243286E+02 -4.621596E+01 -3.450866E+01 -3.310866E+01  2.725009E-07  2.249297E-07
        70  12 -1.226484E+02 -4.769484E+01 -3.462627E+01 -3.472969E+01  5.082281E-07  3.940253E-07
        70  13  1.049438E+00 -1.240524E+00 -4.188697E-01 -1.008663E+00  1.953329E-07  4.113140E-08
        70  14 -3.563905E-01  5.795366E-01 -3.589629E-01  5.889480E-01  8.644133E-07  1.816612E-07
        70  15  1.084215E+00 -9.932920E-01 -5.418202E-01 -1.101425E+00  1.533727E-06  3.222887E-07
        70  16  1.252624E+02  4.564986E+01  3.380037E+01  3.275814E+01  7.421823E-08  5.009809E-08
        70  17  1.236158E+02  4.737503E+01  3.379073E+01  3.428656E+01  3.052767E-07  2.203824E-07
        70  18  1.248168E+02  4.570826E+01  3.354263E+01  3.252685E+01  5.207723E-07  3.954749E-07
        70  19 -1.231636E+02 -4.813094E+01 -3.463814E+01 -3.477543E+01  1.011103E-01 -6.412230E-02
        70  20 -1.243288E+02 -4.621604E+01 -3.450871E+01 -3.310848E+01 -3.500264E-02 -2.871674E-01
        70  21 -1.226487E+02 -4.769497E+01 -3.462636E+01 -3.472938E+01 -2.621801E-01 -2.674872E-01
        70  22  1.049443E+00 -1.240524E+00 -4.188684E-01 -1.008662E+00  9.499534E-02 -6.641648E-02
        70  23 -3.563861E-01  5.795361E-01 -3.589621E-01  5.889508E-01 -3.566273E-02 -2.874153E-01
        70  24  1.084221E+00 -9.932909E-01 -5.418187E-01 -1.101423E+00 -2.573852E-01 -2.656888E-01
        70  25  1.252625E+02  4.564988E+01  3.380038E+01  3.275810E+01  8.888012E-02 -6.871063E-02
        70  26  1.236160E+02  4.737510E+01  3.379078E+01  3.428638E+01 -3.632395E-02 -2.876631E-01
        70  27  1.248171E+02  4.570839E+01  3.354272E+01  3.252654E+01 -2.525923E-01 -2.638903E-01
        71   1 -2.808845E+01 -1.203345E+01 -8.722304E+00 -9.021488E+00  3.865808E-01  2.327495E-01
        71   2 -2.925124E+01 -1.034690E+01 -9.122001E+00 -7.257113E+00  9.796483E-01  4.285550E-01
        71   3 -2.761625E+01 -1.196563E+01 -1.003976E+01 -8.839693E+00  1.588290E+00  5.828539E-01
        71   4  1.066030E+00 -1.026568E+00 -6.912626E-01 -1.094728E+00  3.865224E-01  2.327272E-01
        71   5 -3.414213E-01  5.658738E-01 -1.158341E+00  6.013170E-01  9.786565E-01  4.281829E-01
        71   6  1.049103E+00 -1.146806E+00 -2.142741E+00 -1.049620E+00  1.586364E+00  5.821319E-01
        71   7  3.022051E+01  9.980317E+00  7.339778E+00  6.832032E+00  3.864622E-01  2.327050E-01
        71   8  2.856840E+01  1.147865E+01  6.805320E+00  8.459747E+00  9.776642E-01  4.278107E-01
        71   9  2.971447E+01  9.672015E+00  5.754279E+00  6.740454E+00  1.584440E+00  5.814098E-01
        71  10 -2.808875E+01 -1.203358E+01 -8.722390E+00 -9.021196E+00  4.957543E-07  3.698885E-07
        71  11 -2.925133E+01 -1.034694E+01 -9.122027E+00 -7.257027E+00  1.664717E-07  1.093926E-07
        71  12 -2.761614E+01 -1.196558E+01 -1.003973E+01 -8.839813E+00 -1.721964E-07 -1.483209E-07
        71  13  1.066021E+00 -1.026569E+00 -6.912645E-01 -1.094730E+00  1.435924E-06  3.013243E-07
        71  14 -3.414284E-01  5.658741E-01 -1.158342E+00  6.013130E-01  4.323910E-07  8.830314E-08
        71  15  1.049096E+00 -1.146806E+00 -2.142742E+00 -1.049624E+00 -5.733138E-07 -1.241444E-07
        71  16  3.022081E+01  9.980444E+00  7.339863E+00  6.831737E+00  4.666551E-07  3.699242E-07
        71  17  2.856849E+01  1.147869E+01  6.805347E+00  8.459656E+00  1.208451E-07  1.154493E-07
        71  18  2.971435E+01  9.671972E+00  5.754247E+00  6.740567E+00 -2.161743E-07 -1.422050E-07
        71  19 -2.808906E+01 -1.203371E+01 -8.722475E+00 -9.020904E+00 -3.865798E-01 -2.327488E-01
        71  20 -2.925142E+01 -1.034697E+01 -9.122054E+00 -7.256942E+00 -9.796480E-01 -4.285548E-01
        71  21 -2.761602E+01 -1.196553E+01 -1.003969E+01 -8.839932E+00 -1.588290E+00 -5.828542E-01
        71  22  1.066013E+00 -1.026570E+00 -6.912664E-01 -1.094733E+00 -3.865196E-01 -2.327266E-01
        71  23 -3.414353E-01  5.658747E-01 -1.158343E+00  6.013092E-01 -9.786557E-01 -4.281827E-01
        71  24  1.049089E+00 -1.146805E+00 -2.142743E+00 -1.049628E+00 -1.586366E+00 -5.821321E-01
        71  25  3.022111E+01  9.980571E+00  7.339948E+00  6.831441E+00 -3.864613E-01 -2.327043E-01
        71  26  2.856858E+01  1.147873E+01  6.805373E+00  8.459564E+00 -9.776639E-01 -4.278105E-01
        71  27  2.971423E+01  9.671928E+00  5.754214E+00  6.740680E+00 -1.584441E+00 -5.814101E-01
        72   1  6.684390E+01  2.387900E+01  1.533686E+01  1.673434E+01  2.016522E+00  6.968900E-01
        72   2  6.602521E+01  2.578821E+01  1.323155E+01  1.856461E+01  4.560653E+00  1.590618E+00
        72   3  6.715824E+01  2.293676E+01  8.764893E+00  1.731385E+01  7.107371E+00  2.477388E+00
        72   4  9.285825E-01 -9.904889E-01 -2.819262E+00 -1.170513E+00  2.015403E+00  6.964705E-01
        72   5 -1.277012E-01  8.185943E-01 -4.991270E+00  5.843200E-01  4.559377E+00  1.590140E+00
        72   6  7.677866E-01 -2.132963E+00 -9.524489E+00 -7.419116E-01  7.105937E+00  2.476851E+00
        72   7 -6.498673E+01 -2.585998E+01 -2.097538E+01 -1.907537E+01  2.014285E+00  6.960510E-01
        72   8 -6.628060E+01 -2.415102E+01 -2.321408E+01 -1.739597E+01  4.558104E+00  1.589662E+00
        72   9 -6.562265E+01 -2.720269E+01 -2.781387E+01 -1.879767E+01  7.104509E+00  2.476314E+00
        72  10  6.684415E+01  2.387910E+01  1.533693E+01  1.673409E+01 -3.953940E-07 -3.166450E-07
        72  11  6.602573E+01  2.578840E+01  1.323169E+01  1.856410E+01 -8.282670E-07 -6.402763E-07
        72  12  6.715902E+01  2.293705E+01  8.765107E+00  1.731307E+01 -1.266903E-06 -9.629445E-07
        72  13  9.285726E-01 -9.904892E-01 -2.819264E+00 -1.170517E+00 -1.241658E-06 -2.686339E-07
        72  14 -1.277105E-01  8.185946E-01 -4.991272E+00  5.843153E-01 -2.527281E-06 -5.526912E-07
        72  15  7.677771E-01 -2.132963E+00 -9.524491E+00 -7.419162E-01 -3.814105E-06 -8.373931E-07
        72  16 -6.498698E+01 -2.586008E+01 -2.097546E+01 -1.907512E+01 -4.417676E-07 -3.116944E-07
        72  17 -6.628112E+01 -2.415121E+01 -2.321423E+01 -1.739546E+01 -8.808911E-07 -6.332132E-07
        72  18 -6.562343E+01 -2.720297E+01 -2.781408E+01 -1.879690E+01 -1.316943E-06 -9.552446E-07
        72  19  6.684441E+01  2.387920E+01  1.533700E+01  1.673383E+01 -2.016522E+00 -6.968906E-01
        72  20  6.602625E+01  2.578860E+01  1.323183E+01  1.856359E+01 -4.560655E+00 -1.590619E+00
        72  21  6.715980E+01  2.293734E+01  8.765320E+00  1.731230E+01 -7.107373E+00 -2.477390E+00
        72  22  9.285628E-01 -9.904893E-01 -2.819266E+00 -1.170522E+00 -2.015405E+00 -6.964711E-01
        72  23 -1.277196E-01  8.185949E-01 -4.991273E+00  5.843107E-01 -4.559382E+00 -1.590141E+00
        72  24  7.677678E-01 -2.132962E+00 -9.524493E+00 -7.419207E-01 -7.105945E+00 -2.476853E+00
        72  25 -6.498724E+01 -2.586017E+01 -2.097553E+01 -1.907487E+01 -2.014286E+00 -6.960516E-01
        72  26 -6.628164E+01 -2.415140E+01 -2.321437E+01 -1.739496E+01 -4.558106E+00 -1.589663E+00
        72  27 -6.562422E+01 -2.720325E+01 -2.781429E+01 -1.879613E+01 -7.104512E+00 -2.476316E+00
        73   1  1.612050E+02  5.978044E+01  3.189999E+01  4.217627E+01  8.953463E+00  3.129194E+00
        73   2  1.622514E+02  6.335615E+01  2.252005E+01  4.419182E+01  2.012666E+01  7.254337E+00
        73   3  1.605146E+02  5.242782E+01  1.732683E+00  4.531444E+01  3.130023E+01  1.137911E+01
        73   4  1.898159E-01 -9.293185E-01 -1.244177E+01 -1.519598E+00  8.952151E+00  3.128703E+00
        73   5  1.042504E+00  2.495314E+00 -2.188972E+01  3.629492E-01  2.012534E+01  7.253842E+00
        73   6 -8.875996E-01 -8.584378E+00 -4.274510E+01  1.352240E+00  3.129890E+01  1.137861E+01
        73   7 -1.608254E+02 -6.163908E+01 -5.678354E+01 -4.521546E+01  8.950844E+00  3.128212E+00
        73   8 -1.601663E+02 -5.836551E+01 -6.629949E+01 -4.346590E+01  2.012402E+01  7.253347E+00
        73   9 -1.622897E+02 -6.959655E+01 -8.722286E+01 -4.260993E+01  3.129757E+01  1.137811E+01
        73  10  1.612059E+02  5.978078E+01  3.190024E+01  4.217534E+01 -1.527057E-06 -1.151131E-06
        73  11  1.622526E+02  6.335657E+01  2.252037E+01  4.419063E+01 -1.981125E-06 -1.474726E-06
        73  12  1.605161E+02  5.242832E+01  1.733073E+00  4.531298E+01 -2.436160E-06 -1.798277E-06
        73  13  1.898061E-01 -9.293182E-01 -1.244178E+01 -1.519602E+00 -4.574053E-06 -1.009281E-06
        73  14  1.042494E+00  2.495314E+00 -2.188973E+01  3.629444E-01 -5.898790E-06 -1.315250E-06
        73  15 -8.876105E-01 -8.584378E+00 -4.274510E+01  1.352235E+00 -7.224195E-06 -1.620743E-06
        73  16 -1.608263E+02 -6.163942E+01 -5.678380E+01 -4.521454E+01 -1.575240E-06 -1.142799E-06
        73  17 -1.601675E+02 -5.836593E+01 -6.629982E+01 -4.346472E+01 -2.029960E-06 -1.466037E-06
        73  18 -1.622912E+02 -6.959705E+01 -8.722325E+01 -4.260849E+01 -2.482919E-06 -1.789622E-06
        73  19  1.612069E+02  5.978111E+01  3.190049E+01  4.217442E+01 -8.953466E+00 -3.129197E+00
        73  20  1.622537E+02  6.335698E+01  2.252069E+01  4.418944E+01 -2.012667E+01 -7.254340E+00
        73  21  1.605176E+02  5.242882E+01  1.733466E+00  4.531154E+01 -3.130024E+01 -1.137912E+01
        73  22  1.897963E-01 -9.293179E-01 -1.244178E+01 -1.519607E+00 -8.952160E+00 -3.128705E+00
        73  23  1.042484E+00  2.495315E+00 -2.188973E+01  3.629399E-01 -2.012535E+01 -7.253845E+00
        73  24 -8.876193E-01 -8.584377E+00 -4.274510E+01  1.352231E+00 -3.129891E+01 -1.137862E+01
        73  25 -1.608273E+02 -6.163975E+01 -5.678405E+01 -4.521362E+01 -8.950847E+00 -3.128214E+00
        73  26 -1.601687E+02 -5.836634E+01 -6.630014E+01 -4.346354E+01 -2.012403E+01 -7.253350E+00
        73  27 -1.622927E+02 -6.959754E+01 -8.722364E+01 -4.260704E+01 -3.129757E+01 -1.137812E+01
        74   1  2.523156E+02  9.595751E+01  1.531640E+01  6.564603E+01  3.949316E+01  1.441218E+01
        74   2  2.641063E+02  1.100495E+02 -2.514537E+01  6.844332E+01  8.882525E+01  3.285202E+01
        74   3  2.449985E+02  4.708697E+01 -1.223523E+02  8.538312E+01  1.381547E+02  5.129820E+01
        74   4 -4.024651E+00 -3.823670E-01 -5.521395E+01 -3.598458E+00  3.949174E+01  1.441165E+01
        74   5  7.916734E+00  1.322291E+01 -9.574197E+01 -1.319613E+00  8.882395E+01  3.285153E+01
        74   6 -1.104062E+01 -5.022627E+01 -1.930153E+02  1.510199E+01  1.381535E+02  5.129776E+01
        74   7 -2.603649E+02 -9.672225E+01 -1.257443E+02 -7.284294E+01  3.949034E+01  1.441113E+01
        74   8 -2.482728E+02 -8.360374E+01 -1.663386E+02 -7.108254E+01  8.882266E+01  3.285104E+01
        74   9 -2.670798E+02 -1.475395E+02 -2.636782E+02 -5.517915E+01  1.381523E+02  5.129732E+01
        74  10  2.523172E+02  9.595805E+01  1.531682E+01  6.564443E+01 -2.699986E-06 -1.981575E-06
        74  11  2.641082E+02  1.100501E+02 -2.514490E+01  6.844146E+01 -3.148637E-06 -2.287502E-06
        74  12  2.450006E+02  4.708762E+01 -1.223518E+02  8.538102E+01 -3.599524E-06 -2.592905E-06
        74  13 -4.024662E+00 -3.823673E-01 -5.521396E+01 -3.598463E+00 -7.985314E-06 -1.800579E-06
        74  14  7.916716E+00  1.322291E+01 -9.574199E+01 -1.319620E+00 -9.276493E-06 -2.113217E-06
        74  15 -1.104065E+01 -5.022628E+01 -1.930153E+02  1.510198E+01 -1.056758E-05 -2.426098E-06
        74  16 -2.603665E+02 -9.672279E+01 -1.257448E+02 -7.284134E+01 -2.746125E-06 -1.972254E-06
        74  17 -2.482747E+02 -8.360433E+01 -1.663391E+02 -7.108070E+01 -3.194629E-06 -2.277589E-06
        74  18 -2.670819E+02 -1.475402E+02 -2.636788E+02 -5.517706E+01 -3.640169E-06 -2.584341E-06
        74  19  2.523189E+02  9.595858E+01  1.531726E+01  6.564283E+01 -3.949316E+01 -1.441219E+01
        74  20  2.641100E+02  1.100507E+02 -2.514439E+01  6.843962E+01 -8.882526E+01 -3.285202E+01
        74  21  2.450027E+02  4.708828E+01 -1.223512E+02  8.537892E+01 -1.381547E+02 -5.129821E+01
        74  22 -4.024670E+00 -3.823663E-01 -5.521396E+01 -3.598467E+00 -3.949176E+01 -1.441166E+01
        74  23  7.916715E+00  1.322292E+01 -9.574198E+01 -1.319622E+00 -8.882397E+01 -3.285153E+01
        74  24 -1.104064E+01 -5.022627E+01 -1.930153E+02  1.510198E+01 -1.381535E+02 -5.129776E+01
        74  25 -2.603681E+02 -9.672332E+01 -1.257452E+02 -7.283975E+01 -3.949034E+01 -1.441113E+01
        74  26 -2.482766E+02 -8.360492E+01 -1.663396E+02 -7.107885E+01 -8.882267E+01 -3.285105E+01
        74  27 -2.670840E+02 -1.475408E+02 -2.636794E+02 -5.517495E+01 -1.381523E+02 -5.129732E+01
        75   1  3.237556E+02  1.342749E+02 -1.489357E+02  7.689897E+01  1.748690E+02  6.502884E+01
        75   2  4.003638E+02  2.151516E+02 -3.196743E+02  8.335980E+01  3.928723E+02  1.467466E+02
        75   3  2.737389E+02 -1.815912E+02 -7.819881E+02  2.036194E+02  6.108625E+02  2.284938E+02
        75   4 -2.922414E+01  3.646552E+00 -2.456492E+02 -1.636111E+01  1.748671E+02  6.502815E+01
        75   5  4.977774E+01  8.179686E+01 -4.164533E+02 -1.298374E+01  3.928710E+02  1.467461E+02
        75   6 -7.445391E+01 -3.176722E+02 -8.788331E+02  1.041928E+02  6.108618E+02  2.284936E+02
        75   7 -3.822036E+02 -1.269817E+02 -3.423626E+02 -1.096211E+02  1.748653E+02  6.502745E+01
        75   8 -3.008081E+02 -5.155787E+01 -5.132323E+02 -1.093272E+02  3.928697E+02  1.467456E+02
        75   9 -4.226466E+02 -4.537532E+02 -9.756782E+02  4.766305E+00  6.108611E+02  2.284933E+02
        75  10  3.237578E+02  1.342756E+02 -1.489352E+02  7.689672E+01 -3.845913E-06 -2.756318E-06
        75  11  4.003660E+02  2.151523E+02 -3.196740E+02  8.335730E+01 -4.238580E-06 -3.008728E-06
        75  12  2.737412E+02 -1.815906E+02 -7.819882E+02  2.036166E+02 -4.640476E-06 -3.258163E-06
        75  13 -2.922418E+01  3.646539E+00 -2.456493E+02 -1.636112E+01 -1.126789E-05 -2.600000E-06
        75  14  4.977756E+01  8.179680E+01 -4.164537E+02 -1.298379E+01 -1.238013E-05 -2.886286E-06
        75  15 -7.445433E+01 -3.176723E+02 -8.788339E+02  1.041927E+02 -1.349153E-05 -3.173906E-06
        75  16 -3.822059E+02 -1.269824E+02 -3.423633E+02 -1.096189E+02 -3.884406E-06 -2.745764E-06
        75  17 -3.008107E+02 -5.155863E+01 -5.132333E+02 -1.093248E+02 -4.279313E-06 -2.998395E-06
        75  18 -4.226497E+02 -4.537540E+02 -9.756797E+02  4.768849E+00 -4.662721E-06 -3.254008E-06
        75  19  3.237601E+02  1.342762E+02 -1.489345E+02  7.689449E+01 -1.748690E+02 -6.502884E+01
        75  20  4.003687E+02  2.151530E+02 -3.196731E+02  8.335490E+01 -3.928723E+02 -1.467466E+02
        75  21  2.737443E+02 -1.815897E+02 -7.819867E+02  2.036141E+02 -6.108625E+02 -2.284938E+02
        75  22 -2.922416E+01  3.646553E+00 -2.456492E+02 -1.636111E+01 -1.748671E+02 -6.502815E+01
        75  23  4.977772E+01  8.179686E+01 -4.164533E+02 -1.298375E+01 -3.928710E+02 -1.467461E+02
        75  24 -7.445393E+01 -3.176722E+02 -8.788331E+02  1.041928E+02 -6.108618E+02 -2.284936E+02
        75  25 -3.822081E+02 -1.269831E+02 -3.423638E+02 -1.096166E+02 -1.748653E+02 -6.502746E+01
        75  26 -3.008130E+02 -5.155926E+01 -5.132336E+02 -1.093223E+02 -3.928697E+02 -1.467456E+02
        75  27 -4.226520E+02 -4.537546E+02 -9.756795E+02  4.771617E+00 -6.108611E+02 -2.284933E+02
        76   1  2.783448E+02  1.889670E+02 -9.721696E+02  1.299724E+01  7.764481E+02  2.905580E+02
        76   2  7.454136E+02  6.917428E+02 -1.674981E+03  3.534709E+01  1.739832E+03  6.519333E+02
        76   3 -4.547889E+01 -1.834028E+03 -3.921895E+03  8.249107E+02  2.703171E+03  1.013476E+03
        76   4 -1.797490E+02  3.244356E+01 -1.095083E+03 -9.465811E+01  7.764443E+02  2.905566E+02
        76   5  3.043824E+02  5.178049E+02 -1.797963E+03 -9.220825E+01  1.739831E+03  6.519329E+02
        76   6 -4.694483E+02 -2.025383E+03 -4.044950E+03  6.774551E+02  2.703173E+03  1.013477E+03
        76   7 -6.378428E+02 -1.240799E+02 -1.217995E+03 -2.023134E+02  7.764405E+02  2.905553E+02
        76   8 -1.366486E+02  3.438670E+02 -1.920945E+03 -2.197635E+02  1.739830E+03  6.519326E+02
        76   9 -8.934176E+02 -2.216738E+03 -4.168004E+03  5.299996E+02  2.703176E+03  1.013478E+03
        76  10  2.783469E+02  1.889675E+02 -9.721702E+02  1.299433E+01 -4.782661E-06 -3.339038E-06
        76  11  7.454129E+02  6.917423E+02 -1.674987E+03  3.534343E+01 -4.856577E-06 -3.355686E-06
        76  12 -4.548425E+01 -1.834031E+03 -3.921910E+03  8.249058E+02 -4.944565E-06 -3.363104E-06
        76  13 -1.797497E+02  3.244331E+01 -1.095084E+03 -9.465830E+01 -1.386394E-05 -3.279316E-06
        76  14  3.043790E+02  5.178036E+02 -1.797970E+03 -9.220916E+01 -1.403077E-05 -3.352684E-06
        76  15 -4.694565E+02 -2.025386E+03 -4.044965E+03  6.774529E+02 -1.419784E-05 -3.425453E-06
        76  16 -6.378462E+02 -1.240809E+02 -1.217997E+03 -2.023109E+02 -4.790142E-06 -3.330785E-06
        76  17 -1.366547E+02  3.438650E+02 -1.920953E+03 -2.197617E+02 -4.860860E-06 -3.348773E-06
        76  18 -8.934285E+02 -2.216742E+03 -4.168020E+03  5.300002E+02 -4.915365E-06 -3.373518E-06
        76  19  2.783503E+02  1.889685E+02 -9.721683E+02  1.299178E+01 -7.764481E+02 -2.905580E+02
        76  20  7.454190E+02  6.917442E+02 -1.674980E+03  3.534159E+01 -1.739832E+03 -6.519333E+02
        76  21 -4.547336E+01 -1.834027E+03 -3.921894E+03  8.249052E+02 -2.703171E+03 -1.013476E+03
        76  22 -1.797490E+02  3.244357E+01 -1.095083E+03 -9.465812E+01 -7.764443E+02 -2.905567E+02
        76  23  3.043824E+02  5.178049E+02 -1.797963E+03 -9.220825E+01 -1.739831E+03 -6.519330E+02
        76  24 -4.694483E+02 -2.025383E+03 -4.044950E+03  6.774551E+02 -2.703173E+03 -1.013477E+03
        76  25 -6.378482E+02 -1.240814E+02 -1.217997E+03 -2.023080E+02 -7.764406E+02 -2.905553E+02
        76  26 -1.366541E+02  3.438656E+02 -1.920947E+03 -2.197580E+02 -1.739830E+03 -6.519326E+02
        76  27 -8.934231E+02 -2.216740E+03 -4.168005E+03  5.300051E+02 -2.703176E+03 -1.013478E+03
        77   1 -4.782985E+02  3.578550E+02 -4.748312E+03 -5.182124E+02  3.455781E+03  1.295696E+03
        77   2  2.376664E+03  3.526737E+03 -7.524048E+03 -4.256153E+02  7.711617E+03  2.892395E+03
        77   3 -2.549606E+03 -1.253750E+04 -1.873670E+04  4.662144E+03  1.196716E+04  4.489945E+03
        77   4 -1.094801E+03  2.282287E+02 -4.897525E+03 -5.797612E+02  3.455766E+03  1.295691E+03
        77   5  1.872242E+03  3.284693E+03 -7.673325E+03 -6.158411E+02  7.711619E+03  2.892395E+03
        77   6 -2.941955E+03 -1.289197E+04 -1.888606E+04  4.343241E+03  1.196718E+04  4.489947E+03
        77   7 -1.711303E+03  9.860229E+01 -5.046737E+03 -6.413099E+02  3.455751E+03  1.295686E+03
        77   8  1.367820E+03  3.042648E+03 -7.822602E+03 -8.060667E+02  7.711620E+03  2.892394E+03
        77   9 -3.334304E+03 -1.324645E+04 -1.903542E+04  4.024339E+03  1.196720E+04  4.489948E+03
        77  10 -4.783093E+02  3.578506E+02 -4.748337E+03 -5.182184E+02 -4.468744E-06 -2.982758E-06
        77  11  2.376599E+03  3.526713E+03 -7.524175E+03 -4.256347E+02 -2.583431E-06 -1.661541E-06
        77  12 -2.549765E+03 -1.253756E+04 -1.873700E+04  4.662101E+03 -6.166011E-07 -3.776564E-07
        77  13 -1.094814E+03  2.282236E+02 -4.897550E+03 -5.797647E+02 -1.264074E-05 -3.059318E-06
        77  14  1.872175E+03  3.284668E+03 -7.673452E+03 -6.158591E+02 -7.121550E-06 -1.724782E-06
        77  15 -2.942114E+03 -1.289203E+04 -1.888636E+04  4.343198E+03 -1.605202E-06 -3.892095E-07
        77  16 -1.711319E+03  9.859671E+01 -5.046764E+03 -6.413110E+02 -4.315472E-06 -3.004408E-06
        77  17  1.367752E+03  3.042623E+03 -7.822730E+03 -8.060832E+02 -2.364339E-06 -1.715174E-06
        77  18 -3.334464E+03 -1.324651E+04 -1.903572E+04  4.024296E+03 -4.986036E-07 -3.845591E-07
        77  19 -4.782936E+02  3.578561E+02 -4.748311E+03 -5.182173E+02 -3.455781E+03 -1.295696E+03
        77  20  2.376666E+03  3.526738E+03 -7.524047E+03 -4.256181E+02 -7.711617E+03 -2.892395E+03
        77  21 -2.549605E+03 -1.253750E+04 -1.873670E+04  4.662144E+03 -1.196716E+04 -4.489945E+03
        77  22 -1.094801E+03  2.282287E+02 -4.897525E+03 -5.797611E+02 -3.455766E+03 -1.295691E+03
        77  23  1.872242E+03  3.284693E+03 -7.673325E+03 -6.158411E+02 -7.711619E+03 -2.892395E+03
        77  24 -2.941955E+03 -1.289197E+04 -1.888606E+04  4.343241E+03 -1.196718E+04 -4.489947E+03
        77  25 -1.711308E+03  9.860115E+01 -5.046739E+03 -6.413050E+02 -3.455751E+03 -1.295686E+03
        77  26  1.367817E+03  3.042648E+03 -7.822603E+03 -8.060639E+02 -7.711620E+03 -2.892394E+03
        77  27 -3.334305E+03 -1.324645E+04 -1.903542E+04  4.024339E+03 -1.196720E+04 -4.489948E+03
        78   1  2.524448E+04  2.420603E+05  2.348363E+04 -1.075404E+02  1.444410E+03  1.112900E+04
        78   2  2.390338E+04  2.416136E+05  1.773905E+04 -1.250874E+02  5.102947E+03  6.114352E+03
        78   3  2.350979E+04  2.420573E+05  1.549574E+04  2.881012E+01  6.732709E+03  1.099484E+03
        78   4  1.651973E+02  1.399141E+05  2.111664E+02  3.812442E+01  1.445615E+03 -8.799817E+01
        78   5  7.336305E+01  1.398916E+05  2.885754E+02 -4.762039E+01  5.103777E+03 -2.320430E+02
        78   6  8.368741E+01  1.399140E+05  4.856905E+02  3.811086E+01  6.733013E+03 -3.762608E+02
        78   7 -2.491474E+04  3.777777E+04 -2.306151E+04  1.837653E+02  1.446815E+03 -1.130317E+04
        78   8 -2.375719E+04  3.817974E+04 -1.716210E+04  2.983380E+01  5.104606E+03 -6.577431E+03
        78   9 -2.334290E+04  3.778126E+04 -1.452453E+04  4.741034E+01  6.733317E+03 -1.851773E+03
        78  10  2.524444E+04  2.420601E+05  2.348340E+04 -1.075534E+02  1.964439E-10 -8.098379E-10
        78  11  2.390335E+04  2.416136E+05  1.773893E+04 -1.251125E+02  3.285557E-10 -1.249153E-09
        78  12  2.350974E+04  2.420573E+05  1.549565E+04  2.880416E+01 -1.180227E-09 -1.238172E-09
        78  13  1.651951E+02  1.399141E+05  2.111625E+02  3.812452E+01 -1.045037E-10  1.329332E-10
        78  14  7.333506E+01  1.398916E+05  2.885263E+02 -4.761944E+01  5.041576E-10 -2.730266E-10
        78  15  8.363868E+01  1.399140E+05  4.856050E+02  3.811290E+01 -1.830715E-10  1.264391E-10
        78  16 -2.491478E+04  3.777763E+04 -2.306175E+04  1.837785E+02 -8.898441E-10  6.734146E-10
        78  17 -2.375723E+04  3.817969E+04 -1.716223E+04  2.986084E+01 -2.387637E-09  1.181279E-09
        78  18 -2.334295E+04  3.778124E+04 -1.452462E+04  4.742038E+01 -1.228497E-09  1.284869E-09
        78  19  2.524448E+04  2.420603E+05  2.348363E+04 -1.075404E+02 -1.444410E+03 -1.112900E+04
        78  20  2.390338E+04  2.416136E+05  1.773905E+04 -1.250874E+02 -5.102947E+03 -6.114352E+03
        78  21  2.350979E+04  2.420573E+05  1.549574E+04  2.881012E+01 -6.732709E+03 -1.099484E+03
        78  22  1.651973E+02  1.399141E+05  2.111664E+02  3.812442E+01 -1.445615E+03  8.799817E+01
        78  23  7.336305E+01  1.398916E+05  2.885754E+02 -4.762039E+01 -5.103777E+03  2.320430E+02
        78  24  8.368741E+01  1.399140E+05  4.856905E+02  3.811086E+01 -6.733013E+03  3.762608E+02
        78  25 -2.491474E+04  3.777777E+04 -2.306151E+04  1.837653E+02 -1.446815E+03  1.130317E+04
        78  26 -2.375719E+04  3.817974E+04 -1.716210E+04  2.983380E+01 -5.104606E+03  6.577431E+03
        78  27 -2.334290E+04  3.778126E+04 -1.452453E+04  4.741034E+01 -6.733317E+03  1.851773E+03
        79   1  2.341626E+04  2.419710E+05  1.519338E+04 -3.610812E+01  7.005622E+03  8.265387E+02
        79   2  2.349991E+04  2.417870E+05  1.523878E+04  2.359677E+02  7.276200E+03 -1.033908E+03
        79   3  2.421135E+04  2.420027E+05  1.665220E+04  5.106111E+02  7.007836E+03 -2.894437E+03
        79   4  1.042097E+02  1.399429E+05  6.385127E+02  5.665487E-01  7.005918E+03 -4.692858E+02
        79   5  2.965314E+02  1.398553E+05  1.130378E+03 -6.644200E-01  7.276322E+03 -1.035762E+03
        79   6  8.921049E+02  1.399429E+05  2.091980E+03  6.723037E-01  7.007739E+03 -1.602322E+03
        79   7 -2.320831E+04  3.792538E+04 -1.391651E+04  3.723528E+01  7.006214E+03 -1.764906E+03
        79   8 -2.290730E+04  3.793419E+04 -1.297814E+04 -2.372556E+02  7.276444E+03 -1.037617E+03
        79   9 -2.242761E+04  3.789354E+04 -1.246839E+04 -5.091787E+02  7.007640E+03 -3.104092E+02
        79  10  2.341620E+04  2.419710E+05  1.519329E+04 -3.611278E+01  7.655868E-11  1.521809E-10
        79  11  2.349985E+04  2.417870E+05  1.523867E+04  2.359738E+02 -5.185429E-10 -1.020028E-09
        79  12  2.421130E+04  2.420027E+05  1.665209E+04  5.106275E+02  9.363809E-10 -1.859816E-09
        79  13  1.041569E+02  1.399429E+05  6.384200E+02  5.691965E-01  7.665104E-11  1.377069E-10
        79  14  2.964743E+02  1.398553E+05  1.130276E+03 -6.583506E-01 -2.270214E-10 -3.502394E-10
        79  15  8.920515E+02  1.399428E+05  2.091882E+03  6.813465E-01  2.374918E-10  1.999386E-10
        79  16 -2.320836E+04  3.792536E+04 -1.391660E+04  3.724524E+01 -1.037990E-09 -4.104640E-10
        79  17 -2.290736E+04  3.793417E+04 -1.297824E+04 -2.372495E+02 -5.435443E-10  8.997343E-10
        79  18 -2.242767E+04  3.789353E+04 -1.246848E+04 -5.091770E+02  1.130257E-09  1.889896E-09
        79  19  2.341626E+04  2.419710E+05  1.519338E+04 -3.610812E+01 -7.005622E+03 -8.265387E+02
        79  20  2.349991E+04  2.417870E+05  1.523878E+04  2.359677E+02 -7.276200E+03  1.033908E+03
        79  21  2.421135E+04  2.420027E+05  1.665220E+04  5.106111E+02 -7.007836E+03  2.894437E+03
        79  22  1.042097E+02  1.399429E+05  6.385127E+02  5.665487E-01 -7.005918E+03  4.692858E+02
        79  23  2.965314E+02  1.398553E+05  1.130378E+03 -6.644200E-01 -7.276322E+03  1.035762E+03
        79  24  8.921049E+02  1.399429E+05  2.091980E+03  6.723037E-01 -7.007739E+03  1.602322E+03
        79  25 -2.320831E+04  3.792538E+04 -1.391651E+04  3.723528E+01 -7.006214E+03  1.764906E+03
        79  26 -2.290730E+04  3.793419E+04 -1.297814E+04 -2.372556E+02 -7.276444E+03  1.037617E+03
        79  27 -2.242761E+04  3.789354E+04 -1.246839E+04 -5.091787E+02 -7.007640E+03  3.104092E+02
        80   1  2.466426E+04  2.423930E+05  1.782327E+04  3.235628E+02  6.736087E+03 -3.439399E+03
        80   2  2.735100E+04  2.413413E+05  2.264860E+04  3.525819E+03  5.108671E+03 -1.095613E+04
        80   3  3.480742E+04  2.424608E+05  3.355891E+04  6.562055E+03  1.450115E+03 -1.847326E+04
        80   4  1.226321E+03  1.401984E+05  2.804569E+03 -3.688990E+01  6.735942E+03 -1.967143E+03
        80   5  3.502669E+03  1.395356E+05  5.182211E+03  4.683288E+01  5.107622E+03 -4.607429E+03
        80   6  9.702663E+03  1.401978E+05  1.025940E+04 -3.544769E+01  1.448085E+03 -7.248126E+03
        80   7 -2.221211E+04  3.801431E+04 -1.221431E+04 -3.972804E+02  6.735796E+03 -4.951197E+02
        80   8 -2.034615E+04  3.774023E+04 -1.228437E+04 -3.431564E+03  5.106502E+03  1.740266E+03
        80   9 -1.540259E+04  3.794497E+04 -1.304031E+04 -6.631854E+03  1.445816E+03  3.975178E+03
        80  10  2.466421E+04  2.423930E+05  1.782316E+04  3.235815E+02  1.204789E-09 -6.890887E-08
        80  11  2.735094E+04  2.413411E+05  2.264833E+04  3.525864E+03  1.471299E-09 -2.101316E-09
        80  12  3.480733E+04  2.424604E+05  3.355827E+04  6.562077E+03  3.036450E-10  6.533610E-08
        80  13  1.226271E+03  1.401984E+05  2.804476E+03 -3.687923E+01 -2.089766E-10  1.895740E-10
        80  14  3.502636E+03  1.395356E+05  5.182122E+03  4.685184E+01  1.300157E-09 -3.772547E-10
        80  15  9.702646E+03  1.401978E+05  1.025929E+04 -3.543923E+01 -5.169870E-10  2.759500E-10
        80  16 -2.221215E+04  3.801429E+04 -1.221440E+04 -3.972777E+02  9.075231E-10  6.860763E-08
        80  17 -2.034617E+04  3.774022E+04 -1.228443E+04 -3.431571E+03  3.468493E-10  1.948431E-09
        80  18 -1.540260E+04  3.794495E+04 -1.304034E+04 -6.631859E+03  5.763081E-10 -6.524137E-08
        80  19  2.466426E+04  2.423930E+05  1.782327E+04  3.235628E+02 -6.736087E+03  3.439399E+03
        80  20  2.735100E+04  2.413413E+05  2.264860E+04  3.525819E+03 -5.108671E+03  1.095613E+04
        80  21  3.480742E+04  2.424608E+05  3.355891E+04  6.562055E+03 -1.450115E+03  1.847326E+04
        80  22  1.226321E+03  1.401984E+05  2.804569E+03 -3.688990E+01 -6.735942E+03  1.967143E+03
        80  23  3.502669E+03  1.395356E+05  5.182211E+03  4.683288E+01 -5.107622E+03  4.607429E+03
        80  24  9.702663E+03  1.401978E+05  1.025940E+04 -3.544769E+01 -1.448085E+03  7.248126E+03
        80  25 -2.221211E+04  3.801431E+04 -1.221431E+04 -3.972804E+02 -6.735796E+03  4.951197E+02
        80  26 -2.034615E+04  3.774023E+04 -1.228437E+04 -3.431564E+03 -5.106502E+03 -1.740266E+03
        80  27 -1.540259E+04  3.794497E+04 -1.304031E+04 -6.631854E+03 -1.445816E+03 -3.975178E+03
        81   1  6.012750E+04  1.260851E+05  1.677283E+05  1.748085E+03  1.200533E+05  1.588240E+02
        81   2  3.286545E+04 -4.074933E+04  6.667939E+04  8.298577E+02  7.904012E+04  1.180117E+02
        81   3  6.028905E+04 -1.234951E+04  4.125276E+04 -1.460949E+03  3.802705E+04  5.530489E+01
        81   4  9.315020E+04  1.343331E+05  1.759811E+05 -4.814755E+02  1.200581E+05  1.583929E+02
        81   5  6.580851E+04 -3.251509E+04  7.491332E+04  2.818845E+02  7.904248E+04  1.179412E+02
        81   6  9.315015E+04 -4.134177E+03  4.946667E+04 -3.274136E+02  3.802697E+04  5.537368E+01
        81   7  1.261739E+05  1.425812E+05  1.842338E+05 -2.711155E+03  1.200629E+05  1.579617E+02
        81   8  9.875256E+04 -2.428093E+04  8.314716E+04 -2.661179E+02  7.904484E+04  1.178707E+02
        81   9  1.260122E+05  4.081083E+03  5.768051E+04  8.061817E+02  3.802690E+04  5.544247E+01
        81  10  6.011202E+04  1.260812E+05  1.677012E+05  1.748070E+03  6.935161E-10 -3.242330E-09
        81  11  3.285875E+04 -4.075101E+04  6.666765E+04  8.298502E+02  5.116539E-10 -5.296389E-09
        81  12  6.028750E+04 -1.234990E+04  4.125004E+04 -1.460951E+03 -2.749754E-09  2.092942E-08
        81  13  9.313473E+04  1.343293E+05  1.759540E+05 -4.814908E+02  3.569558E-12 -5.615970E-10
        81  14  6.580180E+04 -3.251677E+04  7.490158E+04  2.818770E+02  1.346738E-09 -5.173939E-10
        81  15  9.314860E+04 -4.134565E+03  4.946396E+04 -3.274153E+02  1.628689E-11 -1.089985E-10
        81  16  1.261584E+05  1.425773E+05  1.842067E+05 -2.711170E+03 -8.400098E-10  3.987220E-09
        81  17  9.874585E+04 -2.428261E+04  8.313543E+04 -2.661254E+02 -9.473150E-10  4.117858E-09
        81  18  1.260107E+05  4.080694E+03  5.767780E+04  8.061800E+02  2.866911E-09 -2.109234E-08
        81  19  6.012750E+04  1.260851E+05  1.677283E+05  1.748085E+03 -1.200533E+05 -1.588240E+02
        81  20  3.286545E+04 -4.074933E+04  6.667939E+04  8.298577E+02 -7.904012E+04 -1.180117E+02
        81  21  6.028905E+04 -1.234951E+04  4.125276E+04 -1.460949E+03 -3.802705E+04 -5.530489E+01
        81  22  9.315020E+04  1.343331E+05  1.759811E+05 -4.814755E+02 -1.200581E+05 -1.583929E+02
        81  23  6.580851E+04 -3.251509E+04  7.491332E+04  2.818845E+02 -7.904248E+04 -1.179412E+02
        81  24  9.315015E+04 -4.134177E+03  4.946667E+04 -3.274136E+02 -3.802697E+04 -5.537368E+01
        81  25  1.261739E+05  1.425812E+05  1.842338E+05 -2.711155E+03 -1.200629E+05 -1.579617E+02
        81  26  9.875256E+04 -2.428093E+04  8.314716E+04 -2.661179E+02 -7.904484E+04 -1.178707E+02
        81  27  1.260122E+05  4.081083E+03  5.768051E+04  8.061817E+02 -3.802690E+04 -5.544247E+01
        82   1  6.740190E+04  1.717961E+04  3.706206E+04  1.418937E+02  2.978790E+04  3.163168E+01
        82   2  6.287973E+04 -9.004439E+03  1.549345E+04  1.694519E+02  1.957954E+04  2.346750E+01
        82   3  6.747399E+04 -4.516800E+03  8.262862E+03 -3.705782E+02  9.371064E+03  1.697978E+01
        82   4  8.302289E+04  2.108431E+04  4.096646E+04 -1.961590E+02  2.978823E+04  3.161539E+01
        82   5  7.846511E+04 -5.108454E+03  1.938908E+04  8.893301E+01  1.957968E+04  2.346494E+01
        82   6  8.302356E+04 -6.299056E+02  1.214959E+04 -1.935590E+02  9.371026E+03  1.698248E+01
        82   7  9.864410E+04  2.498898E+04  4.487085E+04 -5.342201E+02  2.978856E+04  3.159910E+01
        82   8  9.405070E+04 -1.212487E+03  2.328469E+04  8.412152E+00  1.957983E+04  2.346237E+01
        82   9  9.857334E+04  3.256971E+03  1.603629E+04 -1.653531E+01  9.370988E+03  1.698517E+01
        82  10  6.740094E+04  1.717937E+04  3.706039E+04  1.418929E+02  8.123105E-10 -5.740882E-09
        82  11  6.287932E+04 -9.004542E+03  1.549273E+04  1.694515E+02  3.733295E-09 -2.891107E-08
        82  12  6.747390E+04 -4.516824E+03  8.262697E+03 -3.705784E+02 -1.406568E-08  1.235635E-07
        82  13  8.302194E+04  2.108407E+04  4.096480E+04 -1.961597E+02  5.248574E-10 -7.212507E-11
        82  14  7.846469E+04 -5.108557E+03  1.938836E+04  8.893264E+01  3.152063E-11 -2.065339E-10
        82  15  8.302346E+04 -6.299292E+02  1.214942E+04 -1.935591E+02 -1.447083E-10  1.560138E-09
        82  16  9.864315E+04  2.498874E+04  4.486918E+04 -5.342209E+02 -9.834731E-10  6.049527E-09
        82  17  9.405029E+04 -1.212590E+03  2.328397E+04  8.411781E+00 -3.746863E-09  2.887788E-08
        82  18  9.857325E+04  3.256947E+03  1.603613E+04 -1.653544E+01  1.434876E-08 -1.204273E-07
        82  19  6.740190E+04  1.717961E+04  3.706206E+04  1.418937E+02 -2.978790E+04 -3.163168E+01
        82  20  6.287973E+04 -9.004439E+03  1.549345E+04  1.694519E+02 -1.957954E+04 -2.346750E+01
        82  21  6.747399E+04 -4.516800E+03  8.262862E+03 -3.705782E+02 -9.371064E+03 -1.697978E+01
        82  22  8.302289E+04  2.108431E+04  4.096646E+04 -1.961590E+02 -2.978823E+04 -3.161539E+01
        82  23  7.846511E+04 -5.108454E+03  1.938908E+04  8.893301E+01 -1.957968E+04 -2.346494E+01
        82  24  8.302356E+04 -6.299057E+02  1.214959E+04 -1.935590E+02 -9.371026E+03 -1.698248E+01
        82  25  9.864410E+04  2.498898E+04  4.487085E+04 -5.342201E+02 -2.978856E+04 -3.159910E+01
        82  26  9.405070E+04 -1.212487E+03  2.328469E+04  8.412151E+00 -1.957983E+04 -2.346237E+01
        82  27  9.857334E+04  3.256971E+03  1.603629E+04 -1.653531E+01 -9.370988E+03 -1.698517E+01
        83   1  7.461331E+04  1.609393E+03  8.072200E+03 -8.165210E+01  7.379476E+03  1.286987E+01
        83   2  7.385512E+04 -2.477279E+03  3.288762E+03  2.688384E+01  4.827568E+03  7.985151E+00
        83   3  7.465141E+04 -1.762155E+03  1.371425E+03 -1.603348E+02  2.275666E+03  6.162010E+00
        83   4  8.134303E+04  3.291670E+03  9.754246E+03 -1.327558E+02  7.379356E+03  1.286931E+01
        83   5  8.056590E+04 -7.997441E+02  4.966157E+03  1.453484E+01  4.827497E+03  7.985092E+00
        83   6  8.134324E+04 -8.939967E+01  3.044114E+03 -1.339289E+02  2.275644E+03  6.162118E+00
        83   7  8.807278E+04  4.973943E+03  1.143629E+04 -1.838600E+02  7.379236E+03  1.286876E+01
        83   8  8.727672E+04  8.777870E+02  6.643548E+03  2.185705E+00  4.827426E+03  7.985037E+00
        83   9  8.803510E+04  1.583352E+03  4.716800E+03 -1.075227E+02  2.275623E+03  6.162234E+00
        83  10  7.461325E+04  1.609378E+03  8.072098E+03 -8.164886E+01  6.807669E-06  6.373323E-07
        83  11  7.385509E+04 -2.477287E+03  3.288718E+03  2.689852E+01  3.049526E-05  1.641130E-06
        83  12  7.465141E+04 -1.762159E+03  1.371414E+03 -1.603087E+02  5.427944E-05  1.875375E-06
        83  13  8.134297E+04  3.291655E+03  9.754143E+03 -1.327559E+02  1.725775E-05 -2.680374E-07
        83  14  8.056588E+04 -7.997505E+02  4.966113E+03  1.453481E+01  7.656427E-05 -1.201199E-06
        83  15  8.134323E+04 -8.940101E+01  3.044104E+03 -1.339289E+02  1.358712E-04 -2.141134E-06
        83  16  8.807272E+04  4.973929E+03  1.143619E+04 -1.838634E+02  6.998524E-06 -2.166213E-07
        83  17  8.727670E+04  8.777823E+02  6.643505E+03  2.170984E+00  3.075704E-05  2.004853E-07
        83  18  8.803510E+04  1.583354E+03  4.716791E+03 -1.075488E+02  5.442084E-05  1.374122E-06
        83  19  7.461331E+04  1.609392E+03  8.072200E+03 -8.164546E+01 -7.379476E+03 -1.286987E+01
        83  20  7.385512E+04 -2.477283E+03  3.288761E+03  2.691326E+01 -4.827568E+03 -7.985147E+00
        83  21  7.465141E+04 -1.762161E+03  1.371423E+03 -1.602826E+02 -2.275666E+03 -6.162007E+00
        83  22  8.134303E+04  3.291670E+03  9.754246E+03 -1.327558E+02 -7.379356E+03 -1.286931E+01
        83  23  8.056590E+04 -7.997444E+02  4.966157E+03  1.453484E+01 -4.827497E+03 -7.985094E+00
        83  24  8.134324E+04 -8.939958E+01  3.044114E+03 -1.339289E+02 -2.275644E+03 -6.162123E+00
        83  25  8.807278E+04  4.973944E+03  1.143629E+04 -1.838666E+02 -7.379236E+03 -1.286876E+01
        83  26  8.727672E+04  8.777901E+02  6.643549E+03  2.156325E+00 -4.827426E+03 -7.985037E+00
        83  27  8.803511E+04  1.583358E+03  4.716801E+03 -1.075748E+02 -2.275623E+03 -6.162231E+00
        84   1  7.949249E+04  1.167606E+02  2.027105E+03 -1.041663E+02  1.779617E+03  4.875364E+00
        84   2  7.936140E+04 -5.201984E+02  9.772655E+02 -1.076725E+01  1.088579E+03  1.681385E+00
        84   3  7.951808E+04 -3.695407E+02  5.743553E+02 -1.164143E+02  3.975518E+02 -6.479726E-01
        84   4  8.106175E+04  5.090330E+02  2.419295E+03 -1.118205E+02  1.779524E+03  4.875390E+00
        84   5  8.091789E+04 -1.311155E+02  1.366318E+03 -1.243047E+01  1.088505E+03  1.681423E+00
        84   6  8.106179E+04  1.634836E+01  9.602549E+02 -1.120866E+02  3.974974E+02 -6.479365E-01
        84   7  8.263101E+04  9.013053E+02  2.811486E+03 -1.194747E+02  1.779431E+03  4.875423E+00
        84   8  8.247438E+04  2.579673E+02  1.755370E+03 -1.409370E+01  1.088432E+03  1.681465E+00
        84   9  8.260551E+04  4.022373E+02  1.346154E+03 -1.077589E+02  3.974429E+02 -6.479018E-01
        84  10  7.949248E+04  1.167567E+02  2.027098E+03 -1.041407E+02  5.348461E-05  1.229812E-06
        84  11  7.936139E+04 -5.201997E+02  9.772630E+02 -1.075463E+01  2.649387E-05 -1.832674E-07
        84  12  7.951808E+04 -3.695400E+02  5.743551E+02 -1.164147E+02 -6.141658E-07 -7.549807E-07
        84  13  8.106174E+04  5.090321E+02  2.419289E+03 -1.118205E+02  1.334476E-04 -2.063298E-06
        84  14  8.091788E+04 -1.311156E+02  1.366315E+03 -1.243048E+01  6.580920E-05 -8.470249E-07
        84  15  8.106179E+04  1.634834E+01  9.602545E+02 -1.120866E+02 -1.829267E-06  3.699483E-07
        84  16  8.263101E+04  9.013076E+02  2.811481E+03 -1.195004E+02  5.327506E-05  1.887690E-06
        84  17  8.247438E+04  2.579685E+02  1.755368E+03 -1.410635E+01  2.615512E-05  1.449490E-06
        84  18  8.260551E+04  4.022368E+02  1.346154E+03 -1.077586E+02 -8.502795E-07  1.724629E-07
        84  19  7.949249E+04  1.167546E+02  2.027103E+03 -1.041151E+02 -1.779617E+03 -4.875362E+00
        84  20  7.936139E+04 -5.202003E+02  9.772649E+02 -1.074201E+01 -1.088579E+03 -1.681385E+00
        84  21  7.951808E+04 -3.695393E+02  5.743555E+02 -1.164150E+02 -3.975518E+02  6.479710E-01
        84  22  8.106175E+04  5.090329E+02  2.419295E+03 -1.118205E+02 -1.779524E+03 -4.875394E+00
        84  23  8.091788E+04 -1.311151E+02  1.366318E+03 -1.243048E+01 -1.088505E+03 -1.681425E+00
        84  24  8.106179E+04  1.634841E+01  9.602547E+02 -1.120866E+02 -3.974974E+02  6.479373E-01
        84  25  8.263101E+04  9.013116E+02  2.811487E+03 -1.195260E+02 -1.779431E+03 -4.875419E+00
        84  26  8.247438E+04  2.579704E+02  1.755371E+03 -1.411899E+01 -1.088432E+03 -1.681462E+00
        84  27  8.260551E+04  4.022364E+02  1.346154E+03 -1.077582E+02 -3.974429E+02  6.479022E-01
        85   1  8.375129E+04  7.526857E+02  1.538462E+03 -1.136870E+02  2.324809E+02 -1.611425E+00
        85   2  8.368712E+04  6.164388E+02  1.478419E+03 -1.006018E+01 -1.686046E+02 -3.907741E+00
        85   3  8.377862E+04  8.804396E+02  1.780212E+03 -1.194303E+02 -5.696968E+02 -7.852777E+00
        85   4  8.103242E+04  7.303898E+01  8.588318E+02 -1.151055E+02  2.324393E+02 -1.611401E+00
        85   5  8.095457E+04 -6.662588E+01  7.954059E+02 -8.579014E+00 -1.686842E+02 -3.907699E+00
        85   6  8.103238E+04  1.939645E+02  1.093843E+03 -1.150495E+02 -5.698144E+02 -7.852723E+00
        85   7  7.831356E+04 -6.066083E+02  1.792011E+02 -1.165240E+02  2.323978E+02 -1.611379E+00
        85   8  7.822202E+04 -7.496912E+02  1.123920E+02 -7.097850E+00 -1.687638E+02 -3.907658E+00
        85   9  7.828615E+04 -4.925112E+02  4.074735E+02 -1.106687E+02 -5.699321E+02 -7.852669E+00
        85  10  8.375129E+04  7.526867E+02  1.538462E+03 -1.136907E+02 -7.643769E-06 -5.839244E-07
        85  11  8.368712E+04  6.164393E+02  1.478419E+03 -1.006224E+01 -4.345896E-06 -1.501872E-07
        85  12  8.377861E+04  8.804397E+02  1.780212E+03 -1.194308E+02 -9.993595E-07  9.138251E-10
        85  13  8.103242E+04  7.303903E+01  8.588317E+02 -1.151055E+02 -1.908696E-05  6.426423E-07
        85  14  8.095457E+04 -6.662593E+01  7.954059E+02 -8.579013E+00 -1.075485E-05  3.605158E-07
        85  15  8.103238E+04  1.939644E+02  1.093843E+03 -1.150495E+02 -2.424324E-06  8.047432E-08
        85  16  7.831356E+04 -6.066093E+02  1.792008E+02 -1.165203E+02 -7.626988E-06 -4.098121E-07
        85  17  7.822202E+04 -7.496918E+02  1.123918E+02 -7.095782E+00 -4.258631E-06 -4.118584E-07
        85  18  7.828615E+04 -4.925114E+02  4.074728E+02 -1.106682E+02 -9.405753E-07 -1.301580E-07
        85  19  8.375129E+04  7.526878E+02  1.538462E+03 -1.136943E+02 -2.324809E+02  1.611424E+00
        85  20  8.368712E+04  6.164398E+02  1.478420E+03 -1.006431E+01  1.686046E+02  3.907741E+00
        85  21  8.377862E+04  8.804399E+02  1.780212E+03 -1.194313E+02  5.696968E+02  7.852777E+00
        85  22  8.103242E+04  7.303910E+01  8.588319E+02 -1.151055E+02 -2.324394E+02  1.611402E+00
        85  23  8.095457E+04 -6.662595E+01  7.954060E+02 -8.579011E+00  1.686842E+02  3.907700E+00
        85  24  8.103238E+04  1.939645E+02  1.093843E+03 -1.150495E+02  5.698144E+02  7.852723E+00
        85  25  7.831356E+04 -6.066102E+02  1.792006E+02 -1.165167E+02 -2.323978E+02  1.611379E+00
        85  26  7.822202E+04 -7.496924E+02  1.123917E+02 -7.093714E+00  1.687638E+02  3.907657E+00
        85  27  7.828615E+04 -4.925115E+02  4.074734E+02 -1.106678E+02  5.699321E+02  7.852668E+00
        86   1  8.965941E+04  2.106405E+03  3.431801E+03 -1.364527E+02 -7.875128E+02 -9.475014E+00
        86   2  8.936329E+04  1.823771E+03  4.127919E+03  2.198589E+01 -1.810697E+03 -1.211119E+01
        86   3  8.970358E+04  3.411794E+03  5.964884E+03 -1.650584E+02 -2.833883E+03 -1.847529E+01
        86   4  8.113920E+04 -2.340418E+01  1.302107E+03 -1.446714E+02 -7.875353E+02 -9.474997E+00
        86   5  8.082097E+04 -3.115730E+02  1.992741E+03  2.823545E+01 -1.810797E+03 -1.211118E+01
        86   6  8.113917E+04  1.270943E+03  3.824285E+03 -1.443409E+02 -2.834060E+03 -1.847535E+01
        86   7  7.261905E+04 -2.153219E+03 -8.275925E+02 -1.528899E+02 -7.875579E+02 -9.474981E+00
        86   8  7.227871E+04 -2.446922E+03 -1.424435E+02  3.448494E+01 -1.810897E+03 -1.211116E+01
        86   9  7.257483E+04 -8.699137E+02  1.683680E+03 -1.236237E+02 -2.834237E+03 -1.847540E+01
        86  10  8.965941E+04  2.106405E+03  3.431800E+03 -1.364527E+02 -1.697231E-09 -5.062748E-09
        86  11  8.936329E+04  1.823770E+03  4.127913E+03  2.198587E+01  4.080441E-10  1.025411E-09
        86  12  8.970358E+04  3.411792E+03  5.964869E+03 -1.650584E+02 -5.973715E-11  8.763849E-11
        86  13  8.113920E+04 -2.340434E+01  1.302106E+03 -1.446714E+02 -1.700725E-11 -5.191074E-10
        86  14  8.082096E+04 -3.115739E+02  1.992734E+03  2.823544E+01  5.530209E-10 -1.747273E-10
        86  15  8.113916E+04  1.270941E+03  3.824270E+03 -1.443409E+02  5.547429E-10  1.659443E-11
        86  16  7.261905E+04 -2.153219E+03 -8.275937E+02 -1.528899E+02  2.092407E-09  3.232606E-09
        86  17  7.227871E+04 -2.446923E+03 -1.424497E+02  3.448492E+01  2.534733E-10 -5.965401E-10
        86  18  7.257482E+04 -8.699158E+02  1.683665E+03 -1.236237E+02 -5.900617E-10  2.397574E-10
        86  19  8.965941E+04  2.106405E+03  3.431801E+03 -1.364527E+02  7.875128E+02  9.475014E+00
        86  20  8.936329E+04  1.823771E+03  4.127919E+03  2.198589E+01  1.810697E+03  1.211119E+01
        86  21  8.970358E+04  3.411794E+03  5.964884E+03 -1.650584E+02  2.833883E+03  1.847529E+01
        86  22  8.113920E+04 -2.340417E+01  1.302107E+03 -1.446714E+02  7.875353E+02  9.474997E+00
        86  23  8.082097E+04 -3.115730E+02  1.992741E+03  2.823545E+01  1.810797E+03  1.211118E+01
        86  24  8.113917E+04  1.270943E+03  3.824285E+03 -1.443409E+02  2.834060E+03  1.847535E+01
        86  25  7.261905E+04 -2.153219E+03 -8.275925E+02 -1.528899E+02  7.875579E+02  9.474981E+00
        86  26  7.227871E+04 -2.446922E+03 -1.424435E+02  3.448494E+01  1.810897E+03  1.211116E+01
        86  27  7.257483E+04 -8.699137E+02  1.683680E+03 -1.236237E+02  2.834237E+03  1.847540E+01
        87   1  1.008707E+05  4.525932E+03  9.515614E+03 -1.499587E+02 -3.614729E+03 -2.348372E+01
        87   2  9.907801E+04  2.792908E+03  1.230994E+04  8.976186E+01 -7.584438E+03 -3.095533E+01
        87   3  1.009557E+05  1.295668E+04  2.069859E+04 -3.466353E+02 -1.155409E+04 -3.770703E+01
        87   4  8.181339E+04 -2.378021E+02  4.752170E+03 -2.173668E+02 -3.614855E+03 -2.348335E+01
        87   5  7.997803E+04 -1.981510E+03  7.535915E+03  1.193624E+02 -7.584440E+03 -3.095577E+01
        87   6  8.181314E+04  8.171748E+03  1.591401E+04 -2.200286E+02 -1.155397E+04 -3.770950E+01
        87   7  6.275644E+04 -5.001563E+03 -1.130163E+01 -2.847729E+02 -3.614981E+03 -2.348297E+01
        87   8  6.087839E+04 -6.755956E+03  2.761861E+03  1.489621E+02 -7.584442E+03 -3.095620E+01
        87   9  6.267089E+04  3.386790E+03  1.112940E+04 -9.342585E+01 -1.155385E+04 -3.771197E+01
        87  10  1.008707E+05  4.525928E+03  9.515590E+03 -1.499588E+02  2.973048E-10 -6.800029E-10
        87  11  9.907794E+04  2.792892E+03  1.230983E+04  8.976167E+01  3.251149E-10 -1.886822E-12
        87  12  1.009556E+05  1.295664E+04  2.069833E+04 -3.466356E+02 -1.408483E-09 -1.835531E-11
        87  13  8.181338E+04 -2.378056E+02  4.752145E+03 -2.173669E+02  1.054507E-12 -4.938033E-11
        87  14  7.997797E+04 -1.981526E+03  7.535807E+03  1.193622E+02  2.418343E-10 -1.893806E-10
        87  15  8.181300E+04  8.171712E+03  1.591376E+04 -2.200290E+02 -3.268441E-10 -2.980169E-10
        87  16  6.275642E+04 -5.001567E+03 -1.132619E+01 -2.847730E+02  9.787011E-12  7.145847E-10
        87  17  6.087832E+04 -6.755972E+03  2.761753E+03  1.489619E+02 -4.004833E-10 -5.011513E-10
        87  18  6.267074E+04  3.386754E+03  1.112915E+04 -9.342620E+01 -4.537460E-10 -1.164062E-11
        87  19  1.008707E+05  4.525932E+03  9.515614E+03 -1.499587E+02  3.614729E+03  2.348372E+01
        87  20  9.907801E+04  2.792908E+03  1.230994E+04  8.976186E+01  7.584438E+03  3.095533E+01
        87  21  1.009557E+05  1.295668E+04  2.069859E+04 -3.466353E+02  1.155409E+04  3.770703E+01
        87  22  8.181339E+04 -2.378021E+02  4.752170E+03 -2.173668E+02  3.614855E+03  2.348335E+01
        87  23  7.997803E+04 -1.981510E+03  7.535915E+03  1.193624E+02  7.584440E+03  3.095577E+01
        87  24  8.181314E+04  8.171748E+03  1.591401E+04 -2.200286E+02  1.155397E+04  3.770950E+01
        87  25  6.275644E+04 -5.001563E+03 -1.130163E+01 -2.847729E+02  3.614981E+03  2.348297E+01
        87  26  6.087839E+04 -6.755956E+03  2.761861E+03  1.489621E+02  7.584442E+03  3.095620E+01
        87  27  6.267089E+04  3.386790E+03  1.112940E+04 -9.342585E+01  1.155385E+04  3.771197E+01
        88   1  1.259550E+05  8.439387E+03  2.926349E+04  7.839535E+01 -1.475994E+04 -6.142108E+01
        88   2  1.151270E+05 -2.591111E+03  3.909176E+04  1.419597E+02 -3.068009E+04 -1.064415E+02
        88   3  1.261388E+05  6.225943E+04  7.841377E+04 -1.285734E+03 -4.660047E+04 -9.919355E+01
        88   4  8.585104E+04 -1.585865E+03  1.923948E+04 -3.744991E+02 -1.476078E+04 -6.141138E+01
        88   5  7.493021E+04 -1.263851E+04  2.904502E+04  3.300274E+02 -3.067878E+04 -1.064513E+02
        88   6  8.585014E+04  5.219208E+04  6.834417E+04 -4.566923E+02 -4.659700E+04 -9.925400E+01
        88   7  4.574849E+04 -1.161124E+04  9.215341E+03 -8.273645E+02 -1.476162E+04 -6.140168E+01
        88   8  3.473489E+04 -2.268603E+04  1.899817E+04  5.180826E+02 -3.067746E+04 -1.064610E+02
        88   9  4.556295E+04  4.212461E+04  5.827444E+04  3.722947E+02 -4.659353E+04 -9.931444E+01
        88  10  1.259548E+05  8.439329E+03  2.926308E+04  7.839461E+01 -3.058395E-10 -6.413650E-12
        88  11  1.151260E+05 -2.591363E+03  3.908999E+04  1.419570E+02  4.824244E-10 -5.144870E-10
        88  12  1.261365E+05  6.225884E+04  7.840969E+04 -1.285737E+03  1.934340E-10  3.454929E-11
        88  13  8.585080E+04 -1.585924E+03  1.923907E+04 -3.744998E+02 -5.245455E-10  3.643959E-10
        88  14  7.492920E+04 -1.263876E+04  2.904325E+04  3.300248E+02 -7.741310E-10  1.077515E-09
        88  15  8.584781E+04  5.219149E+04  6.834009E+04 -4.566961E+02 -1.823063E-11 -4.439394E-10
        88  16  4.574826E+04 -1.161130E+04  9.214932E+03 -8.273652E+02 -9.509097E-11  6.678107E-11
        88  17  3.473388E+04 -2.268629E+04  1.899640E+04  5.180799E+02  5.398097E-10 -4.079559E-10
        88  18  4.556062E+04  4.212403E+04  5.827036E+04  3.722910E+02 -1.613880E-10 -5.308984E-10
        88  19  1.259550E+05  8.439387E+03  2.926349E+04  7.839535E+01  1.475994E+04  6.142108E+01
        88  20  1.151270E+05 -2.591111E+03  3.909176E+04  1.419597E+02  3.068009E+04  1.064415E+02
        88  21  1.261388E+05  6.225943E+04  7.841377E+04 -1.285734E+03  4.660047E+04  9.919355E+01
        88  22  8.585104E+04 -1.585865E+03  1.923948E+04 -3.744991E+02  1.476078E+04  6.141138E+01
        88  23  7.493021E+04 -1.263851E+04  2.904502E+04  3.300274E+02  3.067878E+04  1.064513E+02
        88  24  8.585014E+04  5.219208E+04  6.834417E+04 -4.566923E+02  4.659700E+04  9.925400E+01
        88  25  4.574849E+04 -1.161124E+04  9.215341E+03 -8.273645E+02  1.476162E+04  6.140168E+01
        88  26  3.473489E+04 -2.268603E+04  1.899817E+04  5.180826E+02  3.067746E+04  1.064610E+02
        88  27  4.556295E+04  4.212461E+04  5.827444E+04  3.722947E+02  4.659353E+04  9.931444E+01
        89   1 -2.417299E+06 -7.178028E+05 -4.292809E+05 -8.565972E+05 -2.075866E+05 -7.346694E+04
        89   2 -2.353902E+06 -4.033840E+05 -2.335387E+05 -8.832167E+05 -1.346459E+05 -3.690716E+04
        89   3 -2.393498E+06 -4.013341E+05 -1.751729E+05 -8.537507E+05 -5.821880E+04 -9.606232E+03
        89   4 -2.050926E+06 -5.171385E+05 -3.168371E+05 -6.931481E+05 -2.022991E+05 -7.150347E+04
        89   5 -1.983453E+06 -2.464249E+05 -1.314731E+05 -7.643766E+05 -1.332627E+05 -3.639233E+04
        89   6 -2.018129E+06 -2.872037E+05 -8.031999E+04 -7.795396E+05 -6.074089E+04 -1.055105E+04
        89   7 -1.684412E+06 -3.164148E+05 -2.044060E+05 -5.295968E+05 -1.970082E+05 -6.953734E+04
        89   8 -1.612870E+06 -8.944729E+04 -2.942017E+04 -6.454688E+05 -1.318786E+05 -3.587706E+04
        89   9 -1.642624E+06 -1.730753E+05  1.452211E+04 -7.052934E+05 -6.326465E+04 -1.149622E+04
        89  10 -2.417347E+06 -7.178202E+05 -4.293724E+05 -8.566095E+05 -4.816954E-10 -2.897385E-10
        89  11 -2.353922E+06 -4.033904E+05 -2.335755E+05 -8.832207E+05  3.063262E-10 -3.911521E-10
        89  12 -2.393501E+06 -4.013351E+05 -1.751795E+05 -8.537511E+05  1.038916E-10 -1.427858E-10
        89  13 -2.050971E+06 -5.171551E+05 -3.169239E+05 -6.931597E+05  5.478112E-10 -3.154610E-10
        89  14 -1.983473E+06 -2.464311E+05 -1.315091E+05 -7.643806E+05 -8.952574E-10 -5.830124E-10
        89  15 -2.018133E+06 -2.872048E+05 -8.032716E+04 -7.795401E+05 -1.774767E-10 -1.950396E-10
        89  16 -1.684455E+06 -3.164304E+05 -2.044883E+05 -5.296078E+05 -6.547654E-10  6.169429E-11
        89  17 -1.612889E+06 -8.945336E+04 -2.945538E+04 -6.454726E+05 -2.850085E-10 -1.086424E-10
        89  18 -1.642628E+06 -1.730765E+05  1.451432E+04 -7.052940E+05 -1.100020E-10 -1.253196E-10
        89  19 -2.417299E+06 -7.178028E+05 -4.292809E+05 -8.565972E+05  2.075866E+05  7.346694E+04
        89  20 -2.353902E+06 -4.033840E+05 -2.335387E+05 -8.832167E+05  1.346459E+05  3.690716E+04
        89  21 -2.393498E+06 -4.013341E+05 -1.751729E+05 -8.537507E+05  5.821880E+04  9.606232E+03
        89  22 -2.050926E+06 -5.171385E+05 -3.168371E+05 -6.931481E+05  2.022991E+05  7.150347E+04
        89  23 -1.983453E+06 -2.464249E+05 -1.314731E+05 -7.643766E+05  1.332627E+05  3.639233E+04
        89  24 -2.018129E+06 -2.872037E+05 -8.031999E+04 -7.795396E+05  6.074089E+04  1.055105E+04
        89  25 -1.684412E+06 -3.164148E+05 -2.044060E+05 -5.295968E+05  1.970082E+05  6.953734E+04
        89  26 -1.612870E+06 -8.944729E+04 -2.942017E+04 -6.454688E+05  1.318786E+05  3.587706E+04
        89  27 -1.642624E+06 -1.730753E+05  1.452211E+04 -7.052934E+05  6.326465E+04  1.149622E+04
        90   1 -2.308004E+06 -4.418452E+05 -1.472583E+05 -8.497274E+05 -4.838432E+04 -8.271892E+03
        90   2 -2.280456E+06 -3.850946E+05 -1.040406E+05 -8.344113E+05 -3.162107E+04 -2.530216E+03
        90   3 -2.247464E+06 -3.835103E+05 -8.262372E+04 -8.339564E+05 -1.452116E+04  2.316212E+03
        90   4 -2.007197E+06 -3.217966E+05 -6.553799E+04 -7.608960E+05 -4.841528E+04 -8.284488E+03
        90   5 -2.008044E+06 -2.808207E+05 -3.102775E+04 -7.584985E+05 -3.202549E+04 -2.682355E+03
        90   6 -2.003368E+06 -2.949268E+05 -1.801316E+04 -7.709633E+05 -1.529997E+04  2.024062E+03
        90   7 -1.706301E+06 -2.017394E+05  1.617435E+04 -6.720244E+05 -4.844626E+04 -8.297087E+03
        90   8 -1.735560E+06 -1.765417E+05  4.197868E+04 -6.825551E+05 -3.243010E+04 -2.834569E+03
        90   9 -1.759214E+06 -2.063409E+05  4.659228E+04 -7.079482E+05 -1.607911E+04  1.731797E+03
        90  10 -2.308006E+06 -4.418459E+05 -1.472628E+05 -8.497277E+05 -5.464661E-10 -1.093223E-10
        90  11 -2.280457E+06 -3.850949E+05 -1.040425E+05 -8.344114E+05 -2.116184E-09 -9.448162E-10
        90  12 -2.247464E+06 -3.835104E+05 -8.262413E+04 -8.339564E+05 -1.203718E-09 -4.309254E-10
        90  13 -2.007199E+06 -3.217974E+05 -6.554254E+04 -7.608964E+05 -7.216047E-10 -3.618418E-10
        90  14 -2.008045E+06 -2.808210E+05 -3.102969E+04 -7.584985E+05 -1.984140E-09 -6.091583E-10
        90  15 -2.003368E+06 -2.949269E+05 -1.801361E+04 -7.709633E+05 -9.658394E-10 -1.272414E-10
        90  16 -1.706304E+06 -2.017401E+05  1.616980E+04 -6.720247E+05 -2.595713E-10 -8.265034E-10
        90  17 -1.735561E+06 -1.765420E+05  4.197668E+04 -6.825552E+05 -2.540184E-09 -5.861517E-10
        90  18 -1.759214E+06 -2.063410E+05  4.659179E+04 -7.079482E+05 -4.065376E-10 -5.409805E-11
        90  19 -2.308004E+06 -4.418452E+05 -1.472583E+05 -8.497274E+05  4.838432E+04  8.271892E+03
        90  20 -2.280456E+06 -3.850946E+05 -1.040406E+05 -8.344113E+05  3.162107E+04  2.530216E+03
        90  21 -2.247464E+06 -3.835103E+05 -8.262372E+04 -8.339564E+05  1.452116E+04 -2.316212E+03
        90  22 -2.007197E+06 -3.217966E+05 -6.553799E+04 -7.608960E+05  4.841528E+04  8.284488E+03
        90  23 -2.008044E+06 -2.808207E+05 -3.102775E+04 -7.584985E+05  3.202549E+04  2.682355E+03
        90  24 -2.003368E+06 -2.949268E+05 -1.801316E+04 -7.709633E+05  1.529997E+04 -2.024062E+03
        90  25 -1.706301E+06 -2.017394E+05  1.617435E+04 -6.720244E+05  4.844626E+04  8.297087E+03
        90  26 -1.735560E+06 -1.765417E+05  4.197868E+04 -6.825551E+05  3.243010E+04  2.834569E+03
        90  27 -1.759214E+06 -2.063409E+05  4.659228E+04 -7.079482E+05  1.607911E+04 -1.731797E+03
        91   1 -2.187345E+06 -3.697491E+05 -6.371483E+04 -8.203098E+05 -1.178710E+04  2.267245E+03
        91   2 -2.162915E+06 -3.416115E+05 -4.766109E+04 -7.987212E+05 -7.539275E+03  2.309987E+03
        91   3 -2.118255E+06 -3.397511E+05 -3.548961E+04 -8.016617E+05 -3.249589E+03  2.239972E+03
        91   4 -2.001601E+06 -2.992120E+05 -1.413215E+04 -7.691007E+05 -1.234352E+04  2.058520E+03
        91   5 -2.011498E+06 -2.845205E+05 -7.240839E+03 -7.574182E+05 -8.142591E+03  2.083824E+03
        91   6 -2.001155E+06 -2.960961E+05 -4.193475E+03 -7.702650E+05 -3.900022E+03  1.996299E+03
        91   7 -1.815824E+06 -2.286728E+05  3.544738E+04 -7.178779E+05 -1.290012E+04  1.849726E+03
        91   8 -1.860058E+06 -2.274282E+05  3.317741E+04 -7.161060E+05 -8.746070E+03  1.857600E+03
        91   9 -1.884042E+06 -2.524402E+05  2.710154E+04 -7.388628E+05 -4.550592E+03  1.752575E+03
        91  10 -2.187346E+06 -3.697491E+05 -6.371510E+04 -8.203098E+05  1.853392E-11  2.829082E-10
        91  11 -2.162915E+06 -3.416115E+05 -4.766121E+04 -7.987212E+05  2.513775E-09  3.009863E-10
        91  12 -2.118255E+06 -3.397511E+05 -3.548964E+04 -8.016617E+05  1.316963E-09  3.111072E-10
        91  13 -2.001601E+06 -2.992120E+05 -1.413244E+04 -7.691007E+05  7.242943E-10 -4.451527E-11
        91  14 -2.011498E+06 -2.845205E+05 -7.240972E+03 -7.574182E+05  2.079635E-09  4.885249E-10
        91  15 -2.001155E+06 -2.960961E+05 -4.193511E+03 -7.702650E+05 -2.169870E-10  1.763114E-10
        91  16 -1.815824E+06 -2.286729E+05  3.544706E+04 -7.178778E+05  1.248846E-09 -3.696254E-11
        91  17 -1.860058E+06 -2.274282E+05  3.317726E+04 -7.161060E+05  8.138723E-10  5.087027E-10
        91  18 -1.884042E+06 -2.524402E+05  2.710150E+04 -7.388628E+05  1.549378E-11  3.053928E-11
        91  19 -2.187345E+06 -3.697491E+05 -6.371483E+04 -8.203098E+05  1.178710E+04 -2.267245E+03
        91  20 -2.162915E+06 -3.416115E+05 -4.766109E+04 -7.987212E+05  7.539275E+03 -2.309987E+03
        91  21 -2.118255E+06 -3.397511E+05 -3.548961E+04 -8.016617E+05  3.249589E+03 -2.239972E+03
        91  22 -2.001601E+06 -2.992120E+05 -1.413215E+04 -7.691007E+05  1.234352E+04 -2.058520E+03
        91  23 -2.011498E+06 -2.845205E+05 -7.240839E+03 -7.574182E+05  8.142591E+03 -2.083824E+03
        91  24 -2.001155E+06 -2.960961E+05 -4.193475E+03 -7.702650E+05  3.900022E+03 -1.996299E+03
        91  25 -1.815824E+06 -2.286728E+05  3.544738E+04 -7.178779E+05  1.290012E+04 -1.849726E+03
        91  26 -1.860058E+06 -2.274282E+05  3.317741E+04 -7.161060E+05  8.746070E+03 -1.857600E+03
        91  27 -1.884042E+06 -2.524402E+05  2.710154E+04 -7.388628E+05  4.550592E+03 -1.752575E+03
        92   1 -2.058941E+06 -3.185791E+05 -1.868475E+04 -7.860372E+05 -2.324972E+03  1.583044E+03
        92   2 -2.034420E+06 -2.932258E+05 -7.965301E+03 -7.632235E+05 -7.554123E+02  4.742889E+02
        92   3 -1.987346E+06 -2.912924E+05  1.856694E+03 -7.665763E+05  8.185395E+02 -6.463709E+02
        92   4 -2.000810E+06 -2.966840E+05 -3.300961E+03 -7.701702E+05 -2.956031E+03  1.346685E+03
        92   5 -2.012064E+06 -2.848169E+05 -2.001603E+03 -7.571456E+05 -1.391460E+03  2.360788E+02
        92   6 -2.000764E+06 -2.963684E+05 -1.595478E+03 -7.702878E+05  1.774350E+02 -8.864496E+02
        92   7 -1.942675E+06 -2.747887E+05  1.208253E+04 -7.543018E+05 -3.587154E+03  1.110301E+03
        92   8 -1.989707E+06 -2.764079E+05  3.962045E+03 -7.510675E+05 -2.027533E+03 -2.140341E+00
        92   9 -2.014183E+06 -3.014443E+05 -5.047654E+03 -7.739993E+05 -4.636527E+02 -1.126522E+03
        92  10 -2.058941E+06 -3.185791E+05 -1.868476E+04 -7.860372E+05  3.678720E-10  7.663269E-10
        92  11 -2.034420E+06 -2.932258E+05 -7.965303E+03 -7.632235E+05  3.798213E-10  7.480552E-10
        92  12 -1.987346E+06 -2.912924E+05  1.856692E+03 -7.665763E+05 -2.616190E-10 -5.721527E-10
        92  13 -2.000810E+06 -2.966840E+05 -3.300981E+03 -7.701702E+05 -1.073050E-09 -2.095386E-10
        92  14 -2.012064E+06 -2.848169E+05 -2.001607E+03 -7.571456E+05  2.323910E-10  1.979462E-10
        92  15 -2.000764E+06 -2.963684E+05 -1.595480E+03 -7.702878E+05  1.058115E-09  2.942460E-10
        92  16 -1.942675E+06 -2.747887E+05  1.208250E+04 -7.543018E+05 -5.443867E-10 -1.159878E-10
        92  17 -1.989707E+06 -2.764079E+05  3.962037E+03 -7.510675E+05 -6.685817E-10  6.134211E-11
        92  18 -2.014183E+06 -3.014443E+05 -5.047657E+03 -7.739993E+05 -5.224590E-10 -5.016821E-10
        92  19 -2.058941E+06 -3.185791E+05 -1.868475E+04 -7.860372E+05  2.324972E+03 -1.583044E+03
        92  20 -2.034420E+06 -2.932258E+05 -7.965301E+03 -7.632235E+05  7.554123E+02 -4.742889E+02
        92  21 -1.987346E+06 -2.912924E+05  1.856694E+03 -7.665763E+05 -8.185395E+02  6.463709E+02
        92  22 -2.000810E+06 -2.966840E+05 -3.300961E+03 -7.701702E+05  2.956031E+03 -1.346685E+03
        92  23 -2.012064E+06 -2.848169E+05 -2.001603E+03 -7.571456E+05  1.391460E+03 -2.360788E+02
        92  24 -2.000764E+06 -2.963684E+05 -1.595478E+03 -7.702878E+05 -1.774350E+02  8.864496E+02
        92  25 -1.942675E+06 -2.747887E+05  1.208253E+04 -7.543018E+05  3.587154E+03 -1.110301E+03
        92  26 -1.989707E+06 -2.764079E+05  3.962045E+03 -7.510675E+05  2.027533E+03  2.140341E+00
        92  27 -2.014183E+06 -3.014443E+05 -5.047654E+03 -7.739993E+05  4.636527E+02  1.126522E+03
        93   1 -1.928212E+06 -2.690089E+05  1.790714E+04 -7.505244E+05  1.410183E+03 -1.426109E+03
        93   2 -1.904118E+06 -2.443486E+05  2.677462E+04 -7.279317E+05  2.956738E+03 -2.543546E+03
        93   3 -1.857791E+06 -2.427553E+05  3.476812E+04 -7.310987E+05  4.490811E+03 -3.626166E+03
        93   4 -2.000837E+06 -2.962896E+05 -1.592737E+03 -7.701988E+05  7.691785E+02 -1.666180E+03
        93   5 -2.011976E+06 -2.849176E+05 -1.995443E+03 -7.572576E+05  2.330332E+03 -2.778251E+03
        93   6 -2.000885E+06 -2.966163E+05 -3.283926E+03 -7.700773E+05  3.878937E+03 -3.855521E+03
        93   7 -2.073458E+06 -3.235701E+05 -2.109313E+04 -7.898713E+05  1.282551E+02 -1.906220E+03
        93   8 -2.119823E+06 -3.254861E+05 -3.076656E+04 -7.865791E+05  1.704044E+03 -3.012912E+03
        93   9 -2.143960E+06 -3.504762E+05 -4.133776E+04 -8.090478E+05  3.267218E+03 -4.084818E+03
        93  10 -1.928212E+06 -2.690089E+05  1.790713E+04 -7.505244E+05 -6.521700E-11 -3.229888E-10
        93  11 -1.904119E+06 -2.443486E+05  2.677459E+04 -7.279317E+05 -9.703160E-10 -8.200513E-10
        93  12 -1.857791E+06 -2.427553E+05  3.476805E+04 -7.310987E+05  1.485679E-10 -1.490125E-10
        93  13 -2.000837E+06 -2.962896E+05 -1.592743E+03 -7.701988E+05 -2.104243E-10 -2.815773E-10
        93  14 -2.011976E+06 -2.849176E+05 -1.995468E+03 -7.572576E+05  1.299954E-09  7.403218E-10
        93  15 -2.000885E+06 -2.966164E+05 -3.283983E+03 -7.700773E+05  1.079852E-09  1.796532E-10
        93  16 -2.073458E+06 -3.235701E+05 -2.109313E+04 -7.898713E+05  6.749202E-11 -1.222573E-11
        93  17 -2.119823E+06 -3.254861E+05 -3.076658E+04 -7.865791E+05 -1.683624E-10 -1.161351E-10
        93  18 -2.143960E+06 -3.504762E+05 -4.133781E+04 -8.090478E+05  2.975449E-10 -1.197573E-11
        93  19 -1.928212E+06 -2.690089E+05  1.790714E+04 -7.505244E+05 -1.410183E+03  1.426109E+03
        93  20 -1.904118E+06 -2.443486E+05  2.677462E+04 -7.279317E+05 -2.956738E+03  2.543546E+03
        93  21 -1.857791E+06 -2.427553E+05  3.476812E+04 -7.310987E+05 -4.490811E+03  3.626166E+03
        93  22 -2.000837E+06 -2.962896E+05 -1.592737E+03 -7.701988E+05 -7.691785E+02  1.666180E+03
        93  23 -2.011976E+06 -2.849176E+05 -1.995443E+03 -7.572576E+05 -2.330332E+03  2.778251E+03
        93  24 -2.000885E+06 -2.966163E+05 -3.283926E+03 -7.700773E+05 -3.878937E+03  3.855521E+03
        93  25 -2.073458E+06 -3.235701E+05 -2.109313E+04 -7.898713E+05 -1.282551E+02  1.906220E+03
        93  26 -2.119823E+06 -3.254861E+05 -3.076656E+04 -7.865791E+05 -1.704044E+03  3.012912E+03
        93  27 -2.143960E+06 -3.504762E+05 -4.133776E+04 -8.090478E+05 -3.267218E+03  4.084818E+03
        94   1 -1.801084E+06 -2.209131E+05  4.931285E+04 -7.159523E+05  5.443250E+03 -4.243919E+03
        94   2 -1.778231E+06 -1.970011E+05  5.497920E+04 -6.942059E+05  9.584495E+03 -4.303858E+03
        94   3 -1.736080E+06 -1.982994E+05  5.688325E+04 -6.957977E+05  1.367299E+04 -4.219989E+03
        94   4 -2.001374E+06 -2.958775E+05 -4.168098E+03 -7.699981E+05  4.809980E+03 -4.481402E+03
        94   5 -2.011240E+06 -2.848194E+05 -7.202227E+03 -7.577476E+05  9.011005E+03 -4.519137E+03
        94   6 -2.001820E+06 -2.989850E+05 -1.404722E+04 -7.688362E+05  1.315907E+04 -4.413118E+03
        94   7 -2.201625E+06 -3.708394E+05 -5.765243E+04 -8.240281E+05  4.176937E+03 -4.718800E+03
        94   8 -2.244196E+06 -3.726344E+05 -6.938841E+04 -8.212678E+05  8.437751E+03 -4.734327E+03
        94   9 -2.267493E+06 -3.996664E+05 -8.498407E+04 -8.418466E+05  1.264539E+04 -4.606156E+03
        94  10 -1.801084E+06 -2.209132E+05  4.931276E+04 -7.159522E+05  2.158847E-10 -1.345071E-10
        94  11 -1.778232E+06 -1.970011E+05  5.497899E+04 -6.942058E+05  2.640887E-10  1.525858E-10
        94  12 -1.736080E+06 -1.982994E+05  5.688287E+04 -6.957976E+05 -5.446736E-10 -1.291909E-11
        94  13 -2.001374E+06 -2.958775E+05 -4.168179E+03 -7.699981E+05  2.528232E-10 -1.690998E-12
        94  14 -2.011240E+06 -2.848194E+05 -7.202418E+03 -7.577476E+05  6.366649E-10 -2.434548E-10
        94  15 -2.001820E+06 -2.989851E+05 -1.404759E+04 -7.688361E+05 -8.080919E-10  3.636719E-11
        94  16 -2.201625E+06 -3.708394E+05 -5.765250E+04 -8.240280E+05 -2.488189E-10 -5.552303E-10
        94  17 -2.244196E+06 -3.726344E+05 -6.938858E+04 -8.212678E+05  9.411150E-10 -3.378799E-11
        94  18 -2.267493E+06 -3.996665E+05 -8.498441E+04 -8.418465E+05  1.886942E-10 -2.049457E-11
        94  19 -1.801084E+06 -2.209131E+05  4.931285E+04 -7.159523E+05 -5.443250E+03  4.243919E+03
        94  20 -1.778231E+06 -1.970011E+05  5.497920E+04 -6.942059E+05 -9.584495E+03  4.303858E+03
        94  21 -1.736080E+06 -1.982994E+05  5.688325E+04 -6.957977E+05 -1.367299E+04  4.219989E+03
        94  22 -2.001374E+06 -2.958775E+05 -4.168098E+03 -7.699981E+05 -4.809980E+03  4.481402E+03
        94  23 -2.011240E+06 -2.848194E+05 -7.202227E+03 -7.577476E+05 -9.011005E+03  4.519137E+03
        94  24 -2.001820E+06 -2.989850E+05 -1.404722E+04 -7.688362E+05 -1.315907E+04  4.413118E+03
        94  25 -2.201625E+06 -3.708394E+05 -5.765243E+04 -8.240281E+05 -4.176937E+03  4.718800E+03
        94  26 -2.244196E+06 -3.726344E+05 -6.938841E+04 -8.212678E+05 -8.437751E+03  4.734327E+03
        94  27 -2.267493E+06 -3.996664E+05 -8.498407E+04 -8.418466E+05 -1.264539E+04  4.606156E+03
        95   1 -1.683091E+06 -1.771246E+05  6.710709E+04 -6.865934E+05  1.685104E+04 -4.060214E+03
        95   2 -1.661272E+06 -1.491369E+05  6.188224E+04 -6.628647E+05  3.301527E+04  5.556058E+02
        95   3 -1.635326E+06 -1.742669E+05  3.565459E+04 -6.521149E+05  4.879641E+04  6.195324E+03
        95   4 -2.003713E+06 -2.945821E+05 -1.790324E+04 -7.705261E+05  1.608586E+04 -4.347725E+03
        95   5 -2.007639E+06 -2.813263E+05 -3.084746E+04 -7.590273E+05  3.267725E+04  4.280388E+02
        95   6 -2.007529E+06 -3.212866E+05 -6.514315E+04 -7.605073E+05  4.888472E+04  6.227383E+03
        95   7 -2.324235E+06 -4.120350E+05 -1.029224E+05 -8.544203E+05  1.532111E+04 -4.635083E+03
        95   8 -2.353888E+06 -4.135077E+05 -1.235876E+05 -8.551411E+05  3.233944E+04  3.005506E+02
        95   9 -2.379598E+06 -4.682939E+05 -1.659531E+05 -8.688393E+05  4.897296E+04  6.259414E+03
        95  10 -1.683092E+06 -1.771247E+05  6.710653E+04 -6.865933E+05 -9.012108E-10  2.082782E-10
        95  11 -1.661274E+06 -1.491372E+05  6.188019E+04 -6.628647E+05  8.848113E-10  8.619001E-10
        95  12 -1.635328E+06 -1.742676E+05  3.565003E+04 -6.521152E+05  5.634683E-10  1.211509E-09
        95  13 -2.003713E+06 -2.945822E+05 -1.790377E+04 -7.705261E+05  9.791393E-10  1.354933E-10
        95  14 -2.007640E+06 -2.813266E+05 -3.084947E+04 -7.590273E+05  2.418369E-09  7.791003E-10
        95  15 -2.007532E+06 -3.212872E+05 -6.514773E+04 -7.605075E+05  2.744202E-10  7.375224E-10
        95  16 -2.324236E+06 -4.120351E+05 -1.029229E+05 -8.544203E+05  2.537033E-09  3.605723E-10
        95  17 -2.353889E+06 -4.135079E+05 -1.235896E+05 -8.551411E+05  1.248134E-09  8.770548E-10
        95  18 -2.379601E+06 -4.682946E+05 -1.659577E+05 -8.688395E+05  1.739158E-10  1.125204E-09
        95  19 -1.683091E+06 -1.771246E+05  6.710709E+04 -6.865934E+05 -1.685104E+04  4.060214E+03
        95  20 -1.661272E+06 -1.491369E+05  6.188224E+04 -6.628647E+05 -3.301527E+04 -5.556058E+02
        95  21 -1.635326E+06 -1.742669E+05  3.565459E+04 -6.521149E+05 -4.879641E+04 -6.195324E+03
        95  22 -2.003713E+06 -2.945821E+05 -1.790324E+04 -7.705261E+05 -1.608586E+04  4.347725E+03
        95  23 -2.007639E+06 -2.813263E+05 -3.084746E+04 -7.590273E+05 -3.267725E+04 -4.280388E+02
        95  24 -2.007529E+06 -3.212866E+05 -6.514315E+04 -7.605073E+05 -4.888472E+04 -6.227383E+03
        95  25 -2.324235E+06 -4.120350E+05 -1.029224E+05 -8.544203E+05 -1.532111E+04  4.635083E+03
        95  26 -2.353888E+06 -4.135077E+05 -1.235876E+05 -8.551411E+05 -3.233944E+04 -3.005506E+02
        95  27 -2.379598E+06 -4.682939E+05 -1.659531E+05 -8.688393E+05 -4.897296E+04 -6.259414E+03
        96   1 -1.576827E+06 -1.474490E+05  3.268129E+04 -6.862761E+05  6.390531E+04  9.398637E+03
        96   2 -1.549621E+06 -6.655792E+04 -1.188378E+04 -6.289395E+05  1.315160E+05  3.359458E+04
        96   3 -1.625106E+06 -2.920497E+05 -1.862523E+05 -5.133304E+05  1.951805E+05  6.827982E+04
        96   4 -2.018508E+06 -2.867895E+05 -7.983633E+04 -7.789093E+05  6.117654E+04  8.374650E+03
        96   5 -1.983030E+06 -2.473123E+05 -1.306918E+05 -7.650646E+05  1.332046E+05  3.422527E+04
        96   6 -2.051207E+06 -5.152330E+05 -3.149325E+05 -6.929270E+05  2.012853E+05  7.055673E+04
        96   7 -2.460001E+06 -4.261315E+05 -1.923694E+05 -8.714896E+05  5.844990E+04  7.351161E+03
        96   8 -2.416255E+06 -4.280433E+05 -2.495169E+05 -9.010994E+05  1.348919E+05  3.485534E+04
        96   9 -2.477119E+06 -7.383482E+05 -4.436295E+05 -8.723944E+05  2.073854E+05  7.283032E+04
        96  10 -1.576831E+06 -1.474502E+05  3.267343E+04 -6.862765E+05 -5.329467E-10  1.085653E-09
        96  11 -1.549639E+06 -6.656379E+04 -1.191850E+04 -6.289431E+05 -8.943541E-10  1.676291E-09
        96  12 -1.625149E+06 -2.920649E+05 -1.863329E+05 -5.133411E+05 -1.829405E-10  3.570320E-10
        96  13 -2.018512E+06 -2.867906E+05 -7.984352E+04 -7.789097E+05 -2.672319E-10  1.190453E-09
        96  14 -1.983049E+06 -2.473184E+05 -1.307275E+05 -7.650683E+05  2.620966E-09 -1.225848E-09
        96  15 -2.051252E+06 -5.152493E+05 -3.150183E+05 -6.929385E+05  2.309322E-10  1.646827E-10
        96  16 -2.460004E+06 -4.261325E+05 -1.923760E+05 -8.714899E+05 -6.776541E-10  4.356258E-10
        96  17 -2.416275E+06 -4.280495E+05 -2.495535E+05 -9.011032E+05 -1.266224E-09  1.149281E-09
        96  18 -2.477167E+06 -7.383656E+05 -4.437207E+05 -8.724066E+05 -5.513173E-10  1.068656E-10
        96  19 -1.576827E+06 -1.474490E+05  3.268129E+04 -6.862761E+05 -6.390531E+04 -9.398637E+03
        96  20 -1.549621E+06 -6.655792E+04 -1.188378E+04 -6.289395E+05 -1.315160E+05 -3.359458E+04
        96  21 -1.625106E+06 -2.920497E+05 -1.862523E+05 -5.133304E+05 -1.951805E+05 -6.827982E+04
        96  22 -2.018508E+06 -2.867895E+05 -7.983633E+04 -7.789093E+05 -6.117654E+04 -8.374650E+03
        96  23 -1.983030E+06 -2.473123E+05 -1.306918E+05 -7.650646E+05 -1.332046E+05 -3.422527E+04
        96  24 -2.051207E+06 -5.152330E+05 -3.149325E+05 -6.929270E+05 -2.012853E+05 -7.055673E+04
        96  25 -2.460001E+06 -4.261315E+05 -1.923694E+05 -8.714896E+05 -5.844990E+04 -7.351161E+03
        96  26 -2.416255E+06 -4.280433E+05 -2.495169E+05 -9.010994E+05 -1.348919E+05 -3.485534E+04
        96  27 -2.477119E+06 -7.383482E+05 -4.436295E+05 -8.723944E+05 -2.073854E+05 -7.283032E+04
        97   1 -3.998604E+05 -6.026128E+04 -4.826902E+04 -1.088218E+03  3.088738E+04  3.559086E+03
        97   2 -3.858910E+05 -1.020735E+05 -7.035390E+04  1.000978E+03  2.192751E+04  1.051120E+04
        97   3 -3.574122E+05 -9.178731E+04 -7.351886E+04 -1.627068E+04  1.297920E+04  9.590232E+03
        97   4  3.857434E+03  4.046222E+04  5.174244E+04 -1.129763E+04  3.534938E+04  3.565551E+03
        97   5 -3.671275E+03 -7.061872E+03  2.243650E+04 -1.585331E+03  2.317205E+04  1.051233E+04
        97   6  3.858696E+03 -1.946297E+03  1.427627E+04 -1.123299E+04  1.100666E+04  9.587930E+03
        97   7  4.077237E+05  1.411739E+05  1.517419E+05 -2.151374E+04  3.981427E+04  3.571867E+03
        97   8  3.786819E+05  8.793901E+04  1.152164E+05 -4.173282E+03  2.441735E+04  1.051344E+04
        97   9  3.652488E+05  8.788521E+04  1.020620E+05 -6.192395E+03  9.032973E+03  9.585597E+03
        97  10 -3.998614E+05 -6.026155E+04 -4.827083E+04 -1.088307E+03  1.260059E-10  3.969616E-10
        97  11 -3.858915E+05 -1.020737E+05 -7.035501E+04  1.000792E+03 -8.406867E-10 -7.922802E-10
        97  12 -3.574124E+05 -9.178745E+04 -7.351935E+04 -1.627078E+04 -1.468535E-09 -1.184425E-10
        97  13  3.856089E+03  4.046187E+04  5.174007E+04 -1.129773E+04 -5.386305E-10  7.922893E-11
        97  14 -3.671882E+03 -7.062135E+03  2.243529E+04 -1.585527E+03  7.238334E-10 -1.976217E-09
        97  15  3.858541E+03 -1.946428E+03  1.427587E+04 -1.123308E+04  1.700539E-10  4.162048E-11
        97  16  4.077220E+05  1.411735E+05  1.517389E+05 -2.151386E+04  1.072594E-09 -2.609074E-10
        97  17  3.786812E+05  8.793873E+04  1.152150E+05 -4.173488E+03 -1.502842E-10 -4.401281E-10
        97  18  3.652487E+05  8.788509E+04  1.020617E+05 -6.192465E+03  3.132548E-11 -4.465914E-10
        97  19 -3.998604E+05 -6.026128E+04 -4.826902E+04 -1.088218E+03 -3.088738E+04 -3.559086E+03
        97  20 -3.858910E+05 -1.020735E+05 -7.035390E+04  1.000978E+03 -2.192751E+04 -1.051120E+04
        97  21 -3.574122E+05 -9.178731E+04 -7.351886E+04 -1.627068E+04 -1.297920E+04 -9.590232E+03
        97  22  3.857434E+03  4.046222E+04  5.174244E+04 -1.129763E+04 -3.534938E+04 -3.565551E+03
        97  23 -3.671275E+03 -7.061872E+03  2.243650E+04 -1.585331E+03 -2.317205E+04 -1.051233E+04
        97  24  3.858696E+03 -1.946297E+03  1.427627E+04 -1.123299E+04 -1.100666E+04 -9.587930E+03
        97  25  4.077237E+05  1.411739E+05  1.517419E+05 -2.151374E+04 -3.981427E+04 -3.571867E+03
        97  26  3.786819E+05  8.793901E+04  1.152164E+05 -4.173282E+03 -2.441735E+04 -1.051344E+04
        97  27  3.652488E+05  8.788521E+04  1.020620E+05 -6.192395E+03 -9.032973E+03 -9.585597E+03
        98   1 -3.233552E+05 -7.587730E+04 -6.728936E+04 -1.031704E+04  8.615163E+03  7.961879E+03
        98   2 -3.032808E+05 -7.627027E+04 -6.789612E+04 -1.411339E+03  5.910535E+03  7.894814E+03
        98   3 -2.810980E+05 -7.040196E+04 -6.513682E+04 -1.195573E+04  3.205928E+03  7.089452E+03
        98   4  9.998331E+02  4.802153E+03  1.170148E+04 -1.127532E+04  8.742426E+03  7.961706E+03
        98   5 -7.938495E+01 -8.755603E+02  5.821845E+03 -1.548500E+03  5.735299E+03  7.894444E+03
        98   6  1.001195E+03 -2.410578E+02  3.517194E+03 -1.127116E+04  2.728289E+03  7.089038E+03
        98   7  3.254508E+05  8.547386E+04  9.068468E+04 -1.223413E+04  8.869755E+03  7.961532E+03
        98   8  3.032059E+05  7.451238E+04  7.953315E+04 -1.685741E+03  5.559977E+03  7.894074E+03
        98   9  2.831730E+05  6.991398E+04  7.216544E+04 -1.058628E+04  2.250434E+03  7.088623E+03
        98  10 -3.233552E+05 -7.587739E+04 -6.728962E+04 -1.031710E+04 -6.615994E-10 -5.784282E-10
        98  11 -3.032808E+05 -7.627034E+04 -6.789630E+04 -1.411377E+03 -4.412135E-10  4.468746E-10
        98  12 -2.810980E+05 -7.040201E+04 -6.513693E+04 -1.195575E+04 -7.799758E-11 -1.755125E-10
        98  13  9.997340E+02  4.802064E+03  1.170122E+04 -1.127538E+04 -5.383089E-10 -2.164837E-10
        98  14 -7.943700E+01 -8.756361E+02  5.821666E+03 -1.548536E+03  6.306661E-10 -1.142478E-10
        98  15  1.001174E+03 -2.411137E+02  3.517086E+03 -1.127118E+04 -5.931398E-10 -2.141525E-10
        98  16  3.254507E+05  8.547377E+04  9.068441E+04 -1.223419E+04  2.935761E-10  3.578416E-10
        98  17  3.032059E+05  7.451231E+04  7.953298E+04 -1.685777E+03 -4.282457E-11 -9.582373E-10
        98  18  2.831730E+05  6.991393E+04  7.216533E+04 -1.058630E+04  2.837592E-10  9.079032E-11
        98  19 -3.233552E+05 -7.587730E+04 -6.728936E+04 -1.031704E+04 -8.615163E+03 -7.961879E+03
        98  20 -3.032808E+05 -7.627027E+04 -6.789612E+04 -1.411339E+03 -5.910535E+03 -7.894814E+03
        98  21 -2.810980E+05 -7.040196E+04 -6.513682E+04 -1.195573E+04 -3.205928E+03 -7.089452E+03
        98  22  9.998331E+02  4.802153E+03  1.170148E+04 -1.127532E+04 -8.742426E+03 -7.961706E+03
        98  23 -7.938495E+01 -8.755603E+02  5.821845E+03 -1.548500E+03 -5.735299E+03 -7.894444E+03
        98  24  1.001195E+03 -2.410578E+02  3.517194E+03 -1.127116E+04 -2.728289E+03 -7.089038E+03
        98  25  3.254508E+05  8.547386E+04  9.068468E+04 -1.223413E+04 -8.869755E+03 -7.961532E+03
        98  26  3.032059E+05  7.451238E+04  7.953315E+04 -1.685741E+03 -5.559977E+03 -7.894074E+03
        98  27  2.831730E+05  6.991398E+04  7.216544E+04 -1.058628E+04 -2.250434E+03 -7.088623E+03
        99   1 -2.445669E+05 -6.040843E+04 -5.680669E+04 -1.122520E+04  2.449341E+03  6.518765E+03
        99   2 -2.236372E+05 -5.582994E+04 -5.301290E+04 -1.553739E+03  1.735442E+03  5.794546E+03
        99   3 -2.023327E+05 -5.050446E+04 -4.854778E+04 -1.134947E+04  1.021087E+03  5.001152E+03
        99   4  6.112540E+02  5.487966E+02  2.765459E+03 -1.127634E+04  2.168721E+03  6.518507E+03
        99   5  4.223080E+02 -1.153225E+02  1.470393E+03 -1.542887E+03  1.426338E+03  5.794360E+03
        99   6  6.122811E+02 -2.771527E+01  8.661943E+02 -1.127618E+04  6.835226E+02  5.001049E+03
        99   7  2.458443E+05  6.150161E+04  6.233326E+04 -1.132751E+04  1.887991E+03  6.518249E+03
        99   8  2.245276E+05  5.559560E+04  5.595005E+04 -1.532033E+03  1.117122E+03  5.794173E+03
        99   9  2.035948E+05  5.044599E+04  5.027718E+04 -1.120287E+04  3.458479E+02  5.000947E+03
        99  10 -2.445669E+05 -6.040848E+04 -5.680678E+04 -1.122521E+04 -2.808430E-10  5.621606E-11
        99  11 -2.236372E+05 -5.582997E+04 -5.301297E+04 -1.553747E+03 -8.367825E-10 -2.895528E-10
        99  12 -2.023327E+05 -5.050448E+04 -4.854783E+04 -1.134947E+04 -1.075217E-09  2.638397E-10
        99  13  6.112375E+02  5.487497E+02  2.765371E+03 -1.127635E+04  1.076864E-09 -1.186558E-10
        99  14  4.222968E+02 -1.153591E+02  1.470326E+03 -1.542894E+03  2.934354E-10 -2.673513E-10
        99  15  6.122739E+02 -2.774225E+01  8.661464E+02 -1.127618E+04  8.752235E-10  2.541995E-10
        99  16  2.458443E+05  6.150156E+04  6.233318E+04 -1.132752E+04 -1.545075E-10 -1.010948E-10
        99  17  2.245276E+05  5.559556E+04  5.594999E+04 -1.532038E+03 -4.668379E-10 -3.792288E-10
        99  18  2.035948E+05  5.044596E+04  5.027713E+04 -1.120287E+04  3.937183E-10 -1.189676E-10
        99  19 -2.445669E+05 -6.040843E+04 -5.680669E+04 -1.122520E+04 -2.449341E+03 -6.518765E+03
        99  20 -2.236372E+05 -5.582994E+04 -5.301290E+04 -1.553739E+03 -1.735442E+03 -5.794546E+03
        99  21 -2.023327E+05 -5.050446E+04 -4.854778E+04 -1.134947E+04 -1.021087E+03 -5.001152E+03
        99  22  6.112540E+02  5.487966E+02  2.765459E+03 -1.127634E+04 -2.168721E+03 -6.518507E+03
        99  23  4.223080E+02 -1.153225E+02  1.470393E+03 -1.542887E+03 -1.426338E+03 -5.794360E+03
        99  24  6.122811E+02 -2.771527E+01  8.661943E+02 -1.127618E+04 -6.835226E+02 -5.001049E+03
        99  25  2.458443E+05  6.150161E+04  6.233326E+04 -1.132751E+04 -1.887991E+03 -6.518249E+03
        99  26  2.245276E+05  5.559560E+04  5.595005E+04 -1.532033E+03 -1.117122E+03 -5.794173E+03
        99  27  2.035948E+05  5.044599E+04  5.027718E+04 -1.120287E+04 -3.458479E+02 -5.000947E+03
       100   1 -1.654728E+05 -4.121052E+04 -3.964411E+04 -1.126011E+04  8.648473E+02  4.529767E+03
       100   2 -1.443908E+05 -3.604612E+04 -3.487970E+04 -1.526174E+03  6.900977E+02  3.743978E+03
       100   3 -1.232352E+05 -3.078859E+04 -2.997263E+04 -1.125688E+04  5.150542E+02  2.952036E+03
       100   4  5.485022E+02  5.828904E+01  6.620939E+02 -1.127569E+04  5.456533E+02  4.529717E+03
       100   5  5.120254E+02 -1.616436E+01  3.546180E+02 -1.543513E+03  3.683461E+02  3.743982E+03
       100   6  5.491678E+02  2.959877E+00  1.915778E+02 -1.127569E+04  1.907510E+02  2.952097E+03
       100   7  1.665950E+05  4.132508E+04  4.096631E+04 -1.129127E+04  2.263742E+02  4.529667E+03
       100   8  1.454340E+05  3.601224E+04  3.558742E+04 -1.560855E+03  4.651964E+01  3.743986E+03
       100   9  1.243475E+05  3.079338E+04  3.035467E+04 -1.129451E+04 -1.336168E+02  2.952157E+03
       100  10 -1.654728E+05 -4.121055E+04 -3.964415E+04 -1.126011E+04  3.956259E-10  3.610962E-10
       100  11 -1.443908E+05 -3.604613E+04 -3.487973E+04 -1.526176E+03 -1.053724E-09 -4.730534E-11
       100  12 -1.232352E+05 -3.078860E+04 -2.997264E+04 -1.125688E+04  1.310968E-10  9.153091E-11
       100  13  5.484964E+02  5.826693E+01  6.620548E+02 -1.127569E+04 -2.962839E-13  3.109534E-10
       100  14  5.120215E+02 -1.617945E+01  3.545914E+02 -1.543514E+03 -2.927022E-10 -2.668775E-10
       100  15  5.491654E+02  2.950509E+00  1.915613E+02 -1.127569E+04 -8.171820E-10 -1.573674E-10
       100  16  1.665950E+05  4.132506E+04  4.096627E+04 -1.129127E+04 -9.411061E-11 -1.285537E-10
       100  17  1.454340E+05  3.601223E+04  3.558739E+04 -1.560855E+03  3.568825E-10 -5.023002E-10
       100  18  1.243475E+05  3.079337E+04  3.035465E+04 -1.129451E+04  5.453663E-11 -2.081403E-10
       100  19 -1.654728E+05 -4.121052E+04 -3.964411E+04 -1.126011E+04 -8.648473E+02 -4.529767E+03
       100  20 -1.443908E+05 -3.604612E+04 -3.487970E+04 -1.526174E+03 -6.900977E+02 -3.743978E+03
       100  21 -1.232352E+05 -3.078859E+04 -2.997263E+04 -1.125688E+04 -5.150542E+02 -2.952036E+03
       100  22  5.485022E+02  5.828904E+01  6.620939E+02 -1.127569E+04 -5.456533E+02 -4.529717E+03
       100  23  5.120254E+02 -1.616436E+01  3.546180E+02 -1.543513E+03 -3.683461E+02 -3.743982E+03
       100  24  5.491678E+02  2.959877E+00  1.915778E+02 -1.127569E+04 -1.907510E+02 -2.952097E+03
       100  25  1.665950E+05  4.132508E+04  4.096631E+04 -1.129127E+04 -2.263742E+02 -4.529667E+03
       100  26  1.454340E+05  3.601224E+04  3.558742E+04 -1.560855E+03 -4.651964E+01 -3.743986E+03
       100  27  1.243475E+05  3.079338E+04  3.035467E+04 -1.129451E+04  1.336168E+02 -2.952157E+03
       101   1 -8.632730E+04 -2.157306E+04 -2.092441E+04 -1.125619E+04  4.847351E+02  2.489572E+03
       101   2 -6.520377E+04 -1.634454E+04 -1.595040E+04 -1.526658E+03  4.664884E+02  1.697991E+03
       101   3 -4.408688E+04 -1.110770E+04 -1.096492E+04 -1.126030E+04  4.481121E+02  9.090586E+02
       101   4  5.335906E+02  1.103244E+01  1.305981E+02 -1.127540E+04  1.612698E+02  2.489663E+03
       101   5  5.372025E+02  1.137433E+00  3.440662E+01 -1.543877E+03  1.440977E+02  1.698106E+03
       101   6  5.338926E+02 -5.139007E-01 -5.095846E+01 -1.127540E+04  1.267965E+02  9.091983E+02
       101   7  8.740138E+04  2.159457E+04  2.118507E+04 -1.129461E+04 -1.622406E+02  2.489753E+03
       101   8  6.628212E+04  1.634650E+04  1.601890E+04 -1.561097E+03 -1.783271E+02  1.698220E+03
       101   9  4.515648E+04  1.110653E+04  1.086286E+04 -1.129051E+04 -1.945422E+02  9.093380E+02
       101  10 -8.632730E+04 -2.157306E+04 -2.092443E+04 -1.125619E+04 -5.727628E-10  8.926182E-11
       101  11 -6.520377E+04 -1.634454E+04 -1.595041E+04 -1.526659E+03 -4.762822E-10  9.557410E-11
       101  12 -4.408688E+04 -1.110771E+04 -1.096493E+04 -1.126030E+04 -1.819511E-10 -1.617561E-10
       101  13  5.335889E+02  1.102578E+01  1.305864E+02 -1.127540E+04  5.383817E-10  7.074190E-10
       101  14  5.372017E+02  1.134331E+00  3.440117E+01 -1.543877E+03  1.026359E-09  5.705910E-10
       101  15  5.338924E+02 -5.147927E-01 -5.096005E+01 -1.127540E+04 -2.834515E-10 -8.943535E-10
       101  16  8.740137E+04  2.159456E+04  2.118505E+04 -1.129461E+04 -8.690939E-11  4.180739E-10
       101  17  6.628212E+04  1.634649E+04  1.601890E+04 -1.561097E+03 -3.819385E-10  5.331784E-10
       101  18  4.515648E+04  1.110653E+04  1.086286E+04 -1.129051E+04  3.551499E-10 -5.092668E-10
       101  19 -8.632730E+04 -2.157306E+04 -2.092441E+04 -1.125619E+04 -4.847351E+02 -2.489572E+03
       101  20 -6.520377E+04 -1.634454E+04 -1.595040E+04 -1.526658E+03 -4.664884E+02 -1.697991E+03
       101  21 -4.408688E+04 -1.110770E+04 -1.096492E+04 -1.126030E+04 -4.481121E+02 -9.090586E+02
       101  22  5.335906E+02  1.103244E+01  1.305981E+02 -1.127540E+04 -1.612698E+02 -2.489663E+03
       101  23  5.372025E+02  1.137433E+00  3.440662E+01 -1.543877E+03 -1.440977E+02 -1.698106E+03
       101  24  5.338926E+02 -5.139007E-01 -5.095846E+01 -1.127540E+04 -1.267965E+02 -9.091983E+02
       101  25  8.740138E+04  2.159457E+04  2.118507E+04 -1.129461E+04  1.622406E+02 -2.489753E+03
       101  26  6.628212E+04  1.634650E+04  1.601890E+04 -1.561097E+03  1.783271E+02 -1.698220E+03
       101  27  4.515648E+04  1.110653E+04  1.086286E+04 -1.129051E+04  1.945422E+02 -9.093380E+02
       102   1 -7.171788E+03 -1.886124E+03 -1.901346E+03 -1.128596E+04  4.700054E+02  4.428296E+02
       102   2  1.397828E+04  3.355710E+03  3.054869E+03 -1.545716E+03  5.610361E+02 -3.497461E+02
       102   3  3.507113E+04  8.496228E+03  7.922093E+03 -1.126851E+04  6.521122E+02 -1.107644E+03
       102   4  5.225849E+02  1.392671E+01 -9.543202E+01 -1.127539E+04  1.395772E+02  4.429810E+02
       102   5  5.527542E+02  1.792554E+01 -2.086475E+02 -1.543879E+03  2.447464E+02 -3.496070E+02
       102   6  5.225233E+02 -8.189659E+01 -4.207307E+02 -1.127543E+04  3.499582E+02 -1.107515E+03
       102   7  8.217013E+03  1.913973E+03  1.710479E+03 -1.126482E+04 -1.908551E+02  4.431323E+02
       102   8 -1.287261E+04 -3.319872E+03 -3.472177E+03 -1.542043E+03 -7.153644E+01 -3.494679E+02
       102   9 -3.402499E+04 -8.660108E+03 -8.763639E+03 -1.128236E+04  4.782098E+01 -1.107387E+03
       102  10 -7.171788E+03 -1.886124E+03 -1.901347E+03 -1.128596E+04 -1.151794E-09  3.025995E-10
       102  11  1.397828E+04  3.355710E+03  3.054869E+03 -1.545716E+03 -1.684385E-09 -3.591075E-12
       102  12  3.507113E+04  8.496226E+03  7.922090E+03 -1.126851E+04 -3.747449E-10 -1.957601E-11
       102  13  5.225849E+02  1.392650E+01 -9.543243E+01 -1.127539E+04 -5.383846E-10 -6.112630E-10
       102  14  5.527541E+02  1.792539E+01 -2.086478E+02 -1.543879E+03 -5.710601E-11 -5.194998E-10
       102  15  5.225229E+02 -8.189794E+01 -4.207332E+02 -1.127543E+04  5.244329E-10  1.424021E-10
       102  16  8.217013E+03  1.913973E+03  1.710478E+03 -1.126482E+04  9.743845E-10  4.908545E-11
       102  17 -1.287261E+04 -3.319872E+03 -3.472177E+03 -1.542043E+03  1.085683E-09 -4.429889E-10
       102  18 -3.402499E+04 -8.660109E+03 -8.763642E+03 -1.128236E+04 -7.144418E-10 -2.139904E-10
       102  19 -7.171788E+03 -1.886124E+03 -1.901346E+03 -1.128596E+04 -4.700054E+02 -4.428296E+02
       102  20  1.397828E+04  3.355710E+03  3.054869E+03 -1.545716E+03 -5.610361E+02  3.497461E+02
       102  21  3.507113E+04  8.496228E+03  7.922093E+03 -1.126851E+04 -6.521122E+02  1.107644E+03
       102  22  5.225849E+02  1.392671E+01 -9.543202E+01 -1.127539E+04 -1.395772E+02 -4.429810E+02
       102  23  5.527542E+02  1.792554E+01 -2.086475E+02 -1.543879E+03 -2.447464E+02  3.496070E+02
       102  24  5.225233E+02 -8.189659E+01 -4.207307E+02 -1.127543E+04 -3.499582E+02  1.107515E+03
       102  25  8.217013E+03  1.913973E+03  1.710479E+03 -1.126482E+04  1.908551E+02 -4.431323E+02
       102  26 -1.287261E+04 -3.319872E+03 -3.472177E+03 -1.542043E+03  7.153644E+01  3.494679E+02
       102  27 -3.402499E+04 -8.660108E+03 -8.763639E+03 -1.128236E+04 -4.782098E+01  1.107387E+03
       103   1  7.194475E+04  1.782751E+04  1.689781E+04 -1.139052E+04  8.359017E+02 -1.623303E+03
       103   2  9.321184E+04  2.315129E+04  2.159320E+04 -1.523087E+03  1.154513E+03 -2.420754E+03
       103   3  1.141979E+05  2.752098E+04  2.584217E+04 -1.111183E+04  1.473413E+03 -2.847954E+03
       103   4  4.664004E+02  4.481318E+01 -5.399267E+02 -1.127383E+04  4.349822E+02 -1.623148E+03
       103   5  6.200370E+02  1.332592E+02 -9.105377E+02 -1.545771E+03  9.046063E+02 -2.420693E+03
       103   6  4.659761E+02 -7.586552E+02 -1.832471E+03 -1.127407E+04  1.374509E+03 -2.847961E+03
       103   7 -7.100729E+04 -1.773826E+04 -1.797803E+04 -1.115716E+04  3.410875E+01 -1.622993E+03
       103   8 -9.196394E+04 -2.288540E+04 -2.341489E+04 -1.568451E+03  6.547372E+02 -2.420631E+03
       103   9 -1.132542E+05 -2.903924E+04 -2.950805E+04 -1.143628E+04  1.275623E+03 -2.847967E+03
       103  10  7.194475E+04  1.782751E+04  1.689780E+04 -1.139052E+04 -1.194520E-09 -5.008537E-10
       103  11  9.321184E+04  2.315128E+04  2.159319E+04 -1.523084E+03 -9.787623E-10  2.958701E-10
       103  12  1.141979E+05  2.752097E+04  2.584215E+04 -1.111183E+04  9.266070E-11 -1.303564E-10
       103  13  4.663995E+02  4.481030E+01 -5.399320E+02 -1.127383E+04 -1.146350E-13  2.603170E-11
       103  14  6.200346E+02  1.332527E+02 -9.105503E+02 -1.545769E+03 -5.819906E-10  2.519272E-10
       103  15  4.659719E+02 -7.586644E+02 -1.832489E+03 -1.127407E+04  1.337873E-09  4.226318E-11
       103  16 -7.100729E+04 -1.773826E+04 -1.797804E+04 -1.115716E+04  7.659874E-10  9.647892E-11
       103  17 -9.196395E+04 -2.288541E+04 -2.341491E+04 -1.568450E+03  1.039640E-09  5.838791E-10
       103  18 -1.132542E+05 -2.903925E+04 -2.950807E+04 -1.143627E+04  4.697464E-10 -2.035209E-11
       103  19  7.194475E+04  1.782751E+04  1.689781E+04 -1.139052E+04 -8.359017E+02  1.623303E+03
       103  20  9.321184E+04  2.315129E+04  2.159320E+04 -1.523087E+03 -1.154513E+03  2.420754E+03
       103  21  1.141979E+05  2.752098E+04  2.584217E+04 -1.111183E+04 -1.473413E+03  2.847954E+03
       103  22  4.664004E+02  4.481318E+01 -5.399267E+02 -1.127383E+04 -4.349822E+02  1.623148E+03
       103  23  6.200370E+02  1.332592E+02 -9.105377E+02 -1.545771E+03 -9.046063E+02  2.420693E+03
       103  24  4.659761E+02 -7.586552E+02 -1.832471E+03 -1.127407E+04 -1.374509E+03  2.847961E+03
       103  25 -7.100729E+04 -1.773826E+04 -1.797803E+04 -1.115716E+04 -3.410875E+01  1.622993E+03
       103  26 -9.196394E+04 -2.288540E+04 -2.341489E+04 -1.568451E+03 -6.547372E+02  2.420631E+03
       103  27 -1.132542E+05 -2.903924E+04 -2.950805E+04 -1.143628E+04 -1.275623E+03  2.847967E+03
       104   1  1.507044E+05  3.776264E+04  3.439830E+04 -1.202964E+04  2.879728E+03 -3.891071E+03
       104   2  1.728607E+05  4.376279E+04  3.813476E+04 -1.111761E+03  3.181019E+03 -4.739462E+03
       104   3  1.930348E+05  4.180257E+04  3.969452E+04 -9.573929E+03  3.482450E+03 -1.642171E+03
       104   4  2.867695E+01  3.034145E+02 -2.233922E+03 -1.125696E+04  1.728136E+03 -3.890873E+03
       104   5  1.159512E+03  1.093878E+03 -3.527236E+03 -1.566749E+03  3.639206E+03 -4.739589E+03
       104   6  2.789918E+01 -6.356578E+03 -8.115530E+03 -1.125693E+04  5.550376E+03 -1.642145E+03
       104   7 -1.506263E+05 -3.715748E+04 -3.886778E+04 -1.048447E+04  5.768225E+02 -3.890678E+03
       104   8 -1.705148E+05 -4.157720E+04 -4.519136E+04 -2.021610E+03  4.097266E+03 -4.739717E+03
       104   9 -1.929452E+05 -5.451850E+04 -5.592833E+04 -1.293942E+04  7.617660E+03 -1.642131E+03
       104  10  1.507044E+05  3.776262E+04  3.439826E+04 -1.202963E+04 -1.905046E-10 -2.625034E-10
       104  11  1.728607E+05  4.376276E+04  3.813470E+04 -1.111749E+03 -1.296516E-09  1.032912E-10
       104  12  1.930348E+05  4.180256E+04  3.969449E+04 -9.573925E+03 -3.674485E-10  9.926022E-11
       104  13  2.866968E+01  3.033975E+02 -2.233956E+03 -1.125695E+04 -1.895797E-13  1.762842E-10
       104  14  1.159492E+03  1.093850E+03 -3.527303E+03 -1.566735E+03 -8.168057E-10 -4.089716E-11
       104  15  2.786538E+01 -6.356589E+03 -8.115592E+03 -1.125693E+04  4.732318E-10  4.173477E-12
       104  16 -1.506263E+05 -3.715750E+04 -3.886781E+04 -1.048447E+04  3.500341E-10 -1.904831E-10
       104  17 -1.705148E+05 -4.157723E+04 -4.519143E+04 -2.021594E+03 -4.497681E-10 -1.091409E-10
       104  18 -1.929453E+05 -5.451851E+04 -5.592845E+04 -1.293941E+04 -3.252337E-10 -2.114615E-11
       104  19  1.507044E+05  3.776264E+04  3.439830E+04 -1.202964E+04 -2.879728E+03  3.891071E+03
       104  20  1.728607E+05  4.376279E+04  3.813476E+04 -1.111761E+03 -3.181019E+03  4.739462E+03
       104  21  1.930348E+05  4.180257E+04  3.969452E+04 -9.573929E+03 -3.482450E+03  1.642171E+03
       104  22  2.867695E+01  3.034145E+02 -2.233922E+03 -1.125696E+04 -1.728136E+03  3.890873E+03
       104  23  1.159512E+03  1.093878E+03 -3.527236E+03 -1.566749E+03 -3.639206E+03  4.739589E+03
       104  24  2.789918E+01 -6.356578E+03 -8.115530E+03 -1.125693E+04 -5.550376E+03  1.642145E+03
       104  25 -1.506263E+05 -3.715748E+04 -3.886778E+04 -1.048447E+04 -5.768225E+02  3.890678E+03
       104  26 -1.705148E+05 -4.157720E+04 -4.519136E+04 -2.021610E+03 -4.097266E+03  4.739717E+03
       104  27 -1.929452E+05 -5.451850E+04 -5.592833E+04 -1.293942E+04 -7.617660E+03  1.642131E+03
       105   1  3.470168E+05  1.168726E+06  3.364132E+05 -3.192605E+05  1.491929E+04  8.057424E+04
       105   2  2.433778E+05  8.287814E+05  2.156275E+05 -2.724072E+05  4.464135E+04  2.251998E+04
       105   3  1.598564E+05  5.012597E+05  1.375910E+05 -3.074797E+05  3.981628E+04 -3.556408E+04
       105   4  1.710732E+04 -1.634046E+05  1.843878E+04 -3.071253E+05  1.508464E+04  9.616995E+03
       105   5  3.821691E+03 -1.649301E+05  1.129613E+04 -2.661782E+05  4.469272E+04  3.895048E+03
       105   6  1.601781E+03 -1.631932E+05  1.061340E+04 -3.071615E+05  3.972949E+04 -1.888111E+03
       105   7 -3.129273E+05 -1.493898E+06 -2.996416E+05 -2.950150E+05  1.524743E+04 -6.118891E+04
       105   8 -2.357963E+05 -1.157704E+06 -1.930869E+05 -2.599587E+05  4.474376E+04 -1.470063E+04
       105   9 -1.566782E+05 -8.272185E+05 -1.163800E+05 -3.068433E+05  3.964268E+04  3.175269E+04
       105  10  3.470149E+05  1.168719E+06  3.364007E+05 -3.192615E+05  2.271469E-10 -2.449394E-08
       105  11  2.433755E+05  8.287804E+05  2.156228E+05 -2.724080E+05 -2.976816E-10  5.946063E-10
       105  12  1.598543E+05  5.012579E+05  1.375857E+05 -3.074786E+05 -2.694877E-10  2.741942E-08
       105  13  1.710706E+04 -1.634048E+05  1.843818E+04 -3.071255E+05  1.031678E-09  1.031674E-09
       105  14  3.819542E+03 -1.649307E+05  1.129234E+04 -2.661784E+05  1.792320E-10 -1.043690E-09
       105  15  1.600085E+03 -1.631936E+05  1.061043E+04 -3.071615E+05  1.070293E-09  4.052349E-10
       105  16 -3.129286E+05 -1.493903E+06 -2.996491E+05 -2.950143E+05 -4.451423E-10  2.352251E-08
       105  17 -2.357985E+05 -1.157705E+06 -1.930911E+05 -2.599581E+05  2.563896E-09 -9.865827E-10
       105  18 -1.566802E+05 -8.272200E+05 -1.163849E+05 -3.068443E+05 -5.259576E-10 -2.721227E-08
       105  19  3.470168E+05  1.168726E+06  3.364132E+05 -3.192605E+05 -1.491929E+04 -8.057424E+04
       105  20  2.433778E+05  8.287814E+05  2.156275E+05 -2.724072E+05 -4.464135E+04 -2.251998E+04
       105  21  1.598564E+05  5.012597E+05  1.375910E+05 -3.074797E+05 -3.981628E+04  3.556408E+04
       105  22  1.710732E+04 -1.634046E+05  1.843878E+04 -3.071253E+05 -1.508464E+04 -9.616995E+03
       105  23  3.821691E+03 -1.649301E+05  1.129613E+04 -2.661782E+05 -4.469272E+04 -3.895048E+03
       105  24  1.601781E+03 -1.631932E+05  1.061340E+04 -3.071615E+05 -3.972949E+04  1.888111E+03
       105  25 -3.129273E+05 -1.493898E+06 -2.996416E+05 -2.950150E+05 -1.524743E+04  6.118891E+04
       105  26 -2.357963E+05 -1.157704E+06 -1.930869E+05 -2.599587E+05 -4.474376E+04  1.470063E+04
       105  27 -1.566782E+05 -8.272185E+05 -1.163800E+05 -3.068433E+05 -3.964268E+04 -3.175269E+04
       106   1  1.067839E+05  2.764279E+05  9.569242E+04 -3.095987E+05  2.639854E+04 -3.228455E+04
       106   2  2.705524E+04 -5.789544E+04  3.584879E+04 -2.655524E+05  7.370907E+03 -4.108679E+04
       106   3 -4.824383E+04 -3.903083E+05 -1.728145E+04 -3.054413E+05 -1.204778E+04 -4.988723E+04
       106   4  1.982415E+03 -1.634923E+05  1.161721E+04 -3.076033E+05  2.632162E+04 -3.768101E+03
       106   5  1.873803E+03 -1.643293E+05  1.638009E+04 -2.656302E+05  7.291363E+03 -1.198504E+04
       106   6  6.097934E+03 -1.634681E+05  2.744830E+04 -3.075922E+05 -1.213019E+04 -2.020465E+04
       106   7 -1.028300E+05 -6.032243E+05 -7.246374E+04 -3.056092E+05  2.624485E+04  2.472863E+04
       106   8 -2.330782E+04 -2.707503E+05 -3.085885E+03 -2.657080E+05  7.211803E+03  1.711186E+04
       106   9  6.043706E+04  6.342335E+04  7.217886E+04 -3.097438E+05 -1.221279E+04  9.488556E+03
       106  10  1.067829E+05  2.764266E+05  9.568916E+04 -3.095981E+05 -4.161735E-10  1.304627E-09
       106  11  2.705473E+04 -5.789727E+04  3.584551E+04 -2.655522E+05 -2.748149E-10  2.290099E-10
       106  12 -4.824466E+04 -3.903110E+05 -1.728641E+04 -3.054418E+05 -9.191574E-10  1.224290E-09
       106  13  1.981667E+03 -1.634925E+05  1.161588E+04 -3.076032E+05 -6.187546E-10  1.169183E-09
       106  14  1.873707E+03 -1.643295E+05  1.637972E+04 -2.656302E+05 -3.369345E-09 -1.353756E-09
       106  15  6.097666E+03 -1.634685E+05  2.744726E+04 -3.075924E+05 -8.300850E-10  4.348851E-10
       106  16 -1.028309E+05 -6.032252E+05 -7.246619E+04 -3.056097E+05 -7.036371E-10 -2.673334E-09
       106  17 -2.330796E+04 -2.707506E+05 -3.086533E+03 -2.657081E+05 -2.249769E-09 -1.122381E-09
       106  18  6.043688E+04  6.342321E+04  7.217841E+04 -3.097437E+05 -2.957680E-10 -1.017088E-09
       106  19  1.067839E+05  2.764279E+05  9.569242E+04 -3.095987E+05 -2.639854E+04  3.228455E+04
       106  20  2.705524E+04 -5.789544E+04  3.584879E+04 -2.655524E+05 -7.370907E+03  4.108679E+04
       106  21 -4.824383E+04 -3.903083E+05 -1.728145E+04 -3.054413E+05  1.204778E+04  4.988723E+04
       106  22  1.982415E+03 -1.634923E+05  1.161721E+04 -3.076033E+05 -2.632162E+04  3.768101E+03
       106  23  1.873803E+03 -1.643293E+05  1.638009E+04 -2.656302E+05 -7.291363E+03  1.198504E+04
       106  24  6.097934E+03 -1.634681E+05  2.744830E+04 -3.075922E+05  1.213019E+04  2.020465E+04
       106  25 -1.028300E+05 -6.032243E+05 -7.246374E+04 -3.056092E+05 -2.624485E+04 -2.472863E+04
       106  26 -2.330782E+04 -2.707503E+05 -3.085885E+03 -2.657080E+05 -7.211803E+03 -1.711186E+04
       106  27  6.043706E+04  6.342335E+04  7.217886E+04 -3.097438E+05  1.221279E+04 -9.488556E+03
       107   1 -1.052069E+05 -6.098364E+05 -5.227495E+04 -3.156833E+05 -2.554017E+04 -5.887115E+04
       107   2 -1.671432E+05 -9.505910E+05 -9.985464E+04 -2.346403E+05 -3.335183E+04 -4.678237E+04
       107   3 -1.613622E+05 -1.276182E+06 -1.384596E+05 -2.358147E+05 -1.174415E+04 -3.464202E+04
       107   4  2.477793E+03 -1.588235E+05  3.521087E+04 -3.072477E+05 -2.563296E+04 -2.492855E+04
       107   5  2.166421E+04 -1.702696E+05  6.243736E+04 -2.660150E+05 -3.331938E+04 -5.730144E+04
       107   6  1.162382E+05 -1.589806E+05  1.295040E+05 -3.069730E+05 -1.160491E+04 -8.961716E+04
       107   7  1.101513E+05  2.923877E+05  1.226915E+05 -2.988056E+05 -2.572478E+04  9.038170E+03
       107   8  2.104364E+05  6.106313E+05  2.246969E+05 -2.974294E+05 -3.328590E+04 -6.783350E+04
       107   9  3.937680E+05  9.593832E+05  3.973930E+05 -3.782591E+05 -1.145321E+04 -1.446909E+05
       107  10 -1.052086E+05 -6.098403E+05 -5.228269E+04 -3.156846E+05 -7.831876E-11  2.201773E-09
       107  11 -1.671450E+05 -9.505937E+05 -9.986085E+04 -2.346415E+05  1.631582E-09  4.820620E-10
       107  12 -1.613627E+05 -1.276184E+06 -1.384621E+05 -2.358150E+05  5.473030E-10 -1.574321E-10
       107  13  2.476920E+03 -1.588243E+05  3.520847E+04 -3.072482E+05  7.092249E-10  1.131946E-09
       107  14  2.166213E+04 -1.702734E+05  6.242910E+04 -2.660165E+05 -1.620000E-09 -1.170291E-09
       107  15  1.162358E+05 -1.589892E+05  1.294886E+05 -3.069738E+05  6.865568E-10  3.798686E-10
       107  16  1.101505E+05  2.923874E+05  1.226901E+05 -2.988054E+05 -9.018942E-10 -3.383237E-09
       107  17  2.104340E+05  6.106261E+05  2.246861E+05 -2.974312E+05  9.041542E-10 -1.390786E-09
       107  18  3.937622E+05  9.593607E+05  3.973534E+05 -3.782605E+05  7.012262E-10  1.673098E-10
       107  19 -1.052069E+05 -6.098364E+05 -5.227495E+04 -3.156833E+05  2.554017E+04  5.887115E+04
       107  20 -1.671432E+05 -9.505910E+05 -9.985464E+04 -2.346403E+05  3.335183E+04  4.678237E+04
       107  21 -1.613622E+05 -1.276182E+06 -1.384596E+05 -2.358147E+05  1.174415E+04  3.464202E+04
       107  22  2.477793E+03 -1.588235E+05  3.521087E+04 -3.072477E+05  2.563296E+04  2.492855E+04
       107  23  2.166421E+04 -1.702696E+05  6.243736E+04 -2.660150E+05  3.331938E+04  5.730144E+04
       107  24  1.162382E+05 -1.589806E+05  1.295040E+05 -3.069730E+05  1.160491E+04  8.961716E+04
       107  25  1.101513E+05  2.923877E+05  1.226915E+05 -2.988056E+05  2.572478E+04 -9.038170E+03
       107  26  2.104364E+05  6.106313E+05  2.246969E+05 -2.974294E+05  3.328590E+04  6.783350E+04
       107  27  3.937680E+05  9.593832E+05  3.973930E+05 -3.782591E+05  1.145321E+04  1.446909E+05
       108   1 -1.219398E+06 -4.723345E+05 -2.751996E+05 -4.102564E+05 -6.752996E+04 -4.558085E+03
       108   2 -1.138203E+06 -4.534892E+05 -2.252939E+05 -3.812690E+05 -4.570681E+04  5.164039E+04
       108   3 -1.042957E+06 -4.393420E+05 -2.004073E+05 -3.737273E+05 -1.169966E+04  7.554089E+04
       108   4 -1.971637E+04 -3.712374E+04  3.353408E+04 -9.790548E+04  1.470729E+04  2.642070E+04
       108   5 -3.309539E+04 -5.238542E+04  1.526002E+04 -8.224526E+04 -9.111823E+03  6.540475E+04
       108   6 -2.337911E+04 -6.330657E+04  8.180952E+03 -8.803072E+04 -2.076407E+04  7.211937E+04
       108   7  1.181347E+06  3.981476E+05  3.421704E+05  2.149765E+05  9.711711E+04  5.745920E+04
       108   8  1.073245E+06  3.488040E+05  2.557448E+05  2.172622E+05  2.755345E+04  7.919460E+04
       108   9  9.972813E+05  3.128264E+05  2.167198E+05  1.981043E+05 -2.984464E+04  6.869169E+04
       108  10 -1.219403E+06 -4.723358E+05 -2.752082E+05 -4.102566E+05 -6.524661E-10  2.105379E-10
       108  11 -1.138206E+06 -4.534926E+05 -2.253028E+05 -3.812671E+05  8.245971E-10  6.415685E-10
       108  12 -1.042959E+06 -4.393482E+05 -2.004182E+05 -3.737266E+05 -4.203310E-10  1.963863E-10
       108  13 -1.971679E+04 -3.712455E+04  3.353236E+04 -9.790580E+04  1.549501E-09  8.327348E-10
       108  14 -3.309663E+04 -5.239004E+04  1.525183E+04 -8.224478E+04 -1.209952E-10 -1.238322E-09
       108  15 -2.338097E+04 -6.331227E+04  8.170368E+03 -8.802952E+04  4.568635E-10  4.755251E-10
       108  16  1.181336E+06  3.981415E+05  3.421466E+05  2.149720E+05  1.063524E-10 -1.288387E-10
       108  17  1.073242E+06  3.487971E+05  2.557316E+05  2.172604E+05 -3.405488E-11 -1.763875E-09
       108  18  9.972791E+05  3.128211E+05  2.167092E+05  1.981060E+05 -1.057015E-09 -1.076976E-09
       108  19 -1.219398E+06 -4.723345E+05 -2.751996E+05 -4.102564E+05  6.752996E+04  4.558085E+03
       108  20 -1.138203E+06 -4.534892E+05 -2.252939E+05 -3.812690E+05  4.570681E+04 -5.164039E+04
       108  21 -1.042957E+06 -4.393420E+05 -2.004073E+05 -3.737273E+05  1.169966E+04 -7.554089E+04
       108  22 -1.971637E+04 -3.712374E+04  3.353408E+04 -9.790548E+04 -1.470729E+04 -2.642070E+04
       108  23 -3.309539E+04 -5.238542E+04  1.526002E+04 -8.224526E+04  9.111823E+03 -6.540475E+04
       108  24 -2.337911E+04 -6.330657E+04  8.180952E+03 -8.803072E+04  2.076407E+04 -7.211937E+04
       108  25  1.181347E+06  3.981476E+05  3.421704E+05  2.149765E+05 -9.711711E+04 -5.745920E+04
       108  26  1.073245E+06  3.488040E+05  2.557448E+05  2.172622E+05 -2.755345E+04 -7.919460E+04
       108  27  9.972813E+05  3.128264E+05  2.167198E+05  1.981043E+05  2.984464E+04 -6.869169E+04
       109   1 -9.883279E+05 -4.154229E+05 -1.903543E+05 -3.565247E+05 -1.757164E+04  6.909793E+04
       109   2 -9.138227E+05 -3.775672E+05 -1.736320E+05 -3.244289E+05 -1.499624E+04  6.660132E+04
       109   3 -8.231372E+05 -3.555285E+05 -1.578525E+05 -3.108365E+05 -1.160696E+04  6.192723E+04
       109   4 -2.404806E+04 -6.266262E+04  6.246503E+03 -8.924267E+04 -2.031551E+04  6.805527E+04
       109   5 -3.247718E+04 -5.551069E+04  3.280364E+03 -7.981035E+04 -2.081920E+04  6.440373E+04
       109   6 -2.412469E+04 -6.356446E+04  1.811644E+03 -8.888178E+04 -2.050984E+04  5.857636E+04
       109   7  9.411881E+05  2.901767E+05  2.028001E+05  1.784227E+05 -2.306399E+04  6.701089E+04
       109   8  8.496661E+05  2.666117E+05  1.801540E+05  1.651284E+05 -2.665104E+04  6.220281E+04
       109   9  7.755405E+05  2.284529E+05  1.614436E+05  1.333356E+05 -2.942497E+04  5.522088E+04
       109  10 -9.883296E+05 -4.154281E+05 -1.903639E+05 -3.565237E+05  1.571323E-09  5.647130E-10
       109  11 -9.138241E+05 -3.775721E+05 -1.736408E+05 -3.244281E+05  2.054565E-10  2.410381E-10
       109  12 -8.231384E+05 -3.555327E+05 -1.578600E+05 -3.108360E+05 -1.330364E-10  1.252697E-10
       109  13 -2.404975E+04 -6.266771E+04  6.237024E+03 -8.924155E+04 -1.578083E-11 -1.081030E-09
       109  14 -3.247876E+04 -5.551526E+04  3.271756E+03 -7.980927E+04  8.329173E-10 -1.560273E-09
       109  15 -2.412606E+04 -6.356826E+04  1.804406E+03 -8.888081E+04 -7.265946E-10 -3.838357E-10
       109  16  9.411863E+05  2.901717E+05  2.027907E+05  1.784239E+05 -7.868229E-10 -3.077561E-10
       109  17  8.496643E+05  2.666074E+05  1.801454E+05  1.651297E+05 -2.826710E-10 -7.600311E-10
       109  18  7.755388E+05  2.284493E+05  1.614363E+05  1.333369E+05  5.502522E-10 -1.649769E-10
       109  19 -9.883279E+05 -4.154229E+05 -1.903543E+05 -3.565247E+05  1.757164E+04 -6.909793E+04
       109  20 -9.138227E+05 -3.775672E+05 -1.736320E+05 -3.244289E+05  1.499624E+04 -6.660132E+04
       109  21 -8.231372E+05 -3.555285E+05 -1.578525E+05 -3.108365E+05  1.160696E+04 -6.192723E+04
       109  22 -2.404806E+04 -6.266262E+04  6.246503E+03 -8.924267E+04  2.031551E+04 -6.805527E+04
       109  23 -3.247718E+04 -5.551069E+04  3.280364E+03 -7.981035E+04  2.081920E+04 -6.440373E+04
       109  24 -2.412469E+04 -6.356446E+04  1.811644E+03 -8.888178E+04  2.050984E+04 -5.857636E+04
       109  25  9.411881E+05  2.901767E+05  2.028001E+05  1.784227E+05  2.306399E+04 -6.701089E+04
       109  26  8.496661E+05  2.666117E+05  1.801540E+05  1.651284E+05  2.665104E+04 -6.220281E+04
       109  27  7.755405E+05  2.284529E+05  1.614436E+05  1.333356E+05  2.942497E+04 -5.522088E+04
       110   1 -7.670615E+05 -3.347286E+05 -1.466141E+05 -2.951835E+05 -1.090666E+04  5.800878E+04
       110   2 -6.927103E+05 -2.964170E+05 -1.308108E+05 -2.629513E+05 -8.777724E+03  5.187957E+04
       110   3 -6.020487E+05 -2.742807E+05 -1.148683E+05 -2.492285E+05 -6.597401E+03  4.560150E+04
       110   4 -2.417372E+04 -6.352986E+04  1.356367E+03 -8.896750E+04 -1.938639E+04  5.481886E+04
       110   5 -3.231914E+04 -5.542120E+04  7.292861E+02 -7.971902E+04 -1.746794E+04  4.861360E+04
       110   6 -2.412306E+04 -6.344654E+04  4.064543E+02 -8.898177E+04 -1.549813E+04  4.225959E+04
       110   7  7.192908E+05  2.077195E+05  1.493027E+05  1.174786E+05 -2.787710E+04  5.162482E+04
       110   8  6.285257E+05  1.856137E+05  1.322497E+05  1.036944E+05 -2.616813E+04  4.534389E+04
       110   9  5.541479E+05  1.474167E+05  1.156656E+05  7.140306E+04 -2.440776E+04  3.891435E+04
       110  10 -7.670625E+05 -3.347323E+05 -1.466207E+05 -2.951830E+05  1.910007E-09  4.663032E-10
       110  11 -6.927111E+05 -2.964199E+05 -1.308160E+05 -2.629510E+05  1.470038E-09 -4.917173E-10
       110  12 -6.020494E+05 -2.742829E+05 -1.148723E+05 -2.492283E+05 -3.485321E-10 -1.769864E-10
       110  13 -2.417493E+04 -6.353319E+04  1.350014E+03 -8.896664E+04 -9.165049E-10 -2.310443E-10
       110  14 -3.232010E+04 -5.542382E+04  7.242718E+02 -7.971834E+04 -5.951206E-10 -2.950548E-10
       110  15 -2.412380E+04 -6.344852E+04  4.026471E+02 -8.898124E+04 -1.162836E-10  8.006805E-11
       110  16  7.192893E+05  2.077164E+05  1.492962E+05  1.174798E+05 -6.334478E-10 -6.517520E-10
       110  17  6.285244E+05  1.856113E+05  1.322446E+05  1.036954E+05 -1.541482E-11  8.532373E-11
       110  18  5.541468E+05  1.474149E+05  1.156617E+05  7.140383E+04  4.300597E-10  4.720298E-10
       110  19 -7.670615E+05 -3.347286E+05 -1.466141E+05 -2.951835E+05  1.090666E+04 -5.800878E+04
       110  20 -6.927103E+05 -2.964170E+05 -1.308108E+05 -2.629513E+05  8.777724E+03 -5.187957E+04
       110  21 -6.020487E+05 -2.742807E+05 -1.148683E+05 -2.492285E+05  6.597401E+03 -4.560150E+04
       110  22 -2.417372E+04 -6.352986E+04  1.356367E+03 -8.896750E+04  1.938639E+04 -5.481886E+04
       110  23 -3.231914E+04 -5.542120E+04  7.292861E+02 -7.971902E+04  1.746794E+04 -4.861360E+04
       110  24 -2.412306E+04 -6.344654E+04  4.064543E+02 -8.898177E+04  1.549813E+04 -4.225959E+04
       110  25  7.192908E+05  2.077195E+05  1.493027E+05  1.174786E+05  2.787710E+04 -5.162482E+04
       110  26  6.285257E+05  1.856137E+05  1.322497E+05  1.036944E+05  2.616813E+04 -4.534389E+04
       110  27  5.541479E+05  1.474167E+05  1.156656E+05  7.140306E+04  2.440776E+04 -3.891435E+04
       111   1 -5.458570E+05 -2.536544E+05 -1.033001E+05 -2.336621E+05 -5.308321E+03  4.190644E+04
       111   2 -4.713781E+05 -2.154073E+05 -8.723026E+04 -2.014485E+05 -3.012266E+03  3.560503E+04
       111   3 -3.806475E+05 -1.933472E+05 -7.110456E+04 -1.877838E+05 -7.150682E+02  2.929238E+04
       111   4 -2.412652E+04 -6.343260E+04  2.993721E+02 -8.899398E+04 -1.418252E+04  3.857601E+04
       111   5 -3.223362E+04 -5.530348E+04  1.515657E+02 -7.972731E+04 -1.190230E+04  3.227070E+04
       111   6 -2.409333E+04 -6.335861E+04  7.153122E+01 -8.901178E+04 -9.620932E+03  2.595415E+04
       111   7  4.978812E+05  1.268113E+05  1.038851E+05  5.578550E+04 -2.306466E+04  3.524261E+04
       111   8  4.071103E+05  1.048171E+05  8.752458E+04  4.207358E+04 -2.079909E+04  2.893384E+04
       111   9  3.325952E+05  6.664216E+04  7.124267E+04  9.813513E+03 -1.853236E+04  2.261383E+04
       111  10 -5.458575E+05 -2.536563E+05 -1.033034E+05 -2.336619E+05  8.647606E-10  4.413426E-10
       111  11 -4.713785E+05 -2.154087E+05 -8.723266E+04 -2.014484E+05  1.639264E-09  4.474935E-11
       111  12 -3.806478E+05 -1.933482E+05 -7.110617E+04 -1.877838E+05  1.269533E-09 -5.477289E-10
       111  13 -2.412714E+04 -6.343426E+04  2.961978E+02 -8.899354E+04 -5.895212E-10  2.320559E-10
       111  14 -3.223405E+04 -5.530464E+04  1.493425E+02 -7.972700E+04 -4.518589E-10 -2.237250E-10
       111  15 -2.409361E+04 -6.335935E+04  7.009147E+01 -8.901158E+04  1.188635E-10 -9.543539E-10
       111  16  4.978803E+05  1.268098E+05  1.038818E+05  5.578616E+04 -5.866241E-10  1.592200E-11
       111  17  4.071096E+05  1.048161E+05  8.752219E+04  4.207407E+04 -1.698484E-09 -8.090615E-10
       111  18  3.325947E+05  6.664152E+04  7.124107E+04  9.813850E+03 -1.231648E-09 -1.149614E-09
       111  19 -5.458570E+05 -2.536544E+05 -1.033001E+05 -2.336621E+05  5.308321E+03 -4.190644E+04
       111  20 -4.713781E+05 -2.154073E+05 -8.723026E+04 -2.014485E+05  3.012266E+03 -3.560503E+04
       111  21 -3.806475E+05 -1.933472E+05 -7.110456E+04 -1.877838E+05  7.150682E+02 -2.929238E+04
       111  22 -2.412652E+04 -6.343260E+04  2.993721E+02 -8.899398E+04  1.418252E+04 -3.857601E+04
       111  23 -3.223362E+04 -5.530348E+04  1.515657E+02 -7.972731E+04  1.190230E+04 -3.227070E+04
       111  24 -2.409333E+04 -6.335861E+04  7.153122E+01 -8.901178E+04  9.620932E+03 -2.595415E+04
       111  25  4.978812E+05  1.268113E+05  1.038851E+05  5.578550E+04  2.306466E+04 -3.524261E+04
       111  26  4.071103E+05  1.048171E+05  8.752458E+04  4.207358E+04  2.079909E+04 -2.893384E+04
       111  27  3.325952E+05  6.664216E+04  7.124267E+04  9.813513E+03  1.853236E+04 -2.261383E+04
       112   1 -3.243982E+05 -1.727496E+05 -5.946067E+04 -1.722337E+05  6.487353E+02  2.562488E+04
       112   2 -2.498371E+05 -1.345469E+05 -4.331282E+04 -1.400316E+05  3.013081E+03  1.933493E+04
       112   3 -1.590629E+05 -1.125344E+05 -2.716606E+04 -1.263999E+05  5.374728E+03  1.304791E+04
       112   4 -2.409262E+04 -6.335043E+04  3.836858E+01 -8.901630E+04 -8.257514E+03  2.228740E+04
       112   5 -3.218628E+04 -5.523628E+04 -2.087623E+01 -7.973438E+04 -5.889182E+03  1.599995E+04
       112   6 -2.407509E+04 -6.331322E+04 -8.472341E+01 -8.902488E+04 -3.523560E+03  9.715460E+03
       112   7  2.763062E+05  4.605657E+04  5.953349E+04 -5.761690E+03 -1.716839E+04  1.894819E+04
       112   8  1.855127E+05  2.407814E+04  4.326889E+04 -1.941780E+04 -1.479476E+04  1.266373E+04
       112   9  1.109305E+05 -1.409084E+04  2.699575E+04 -5.164262E+04 -1.242385E+04  6.382259E+03
       112  10 -3.243983E+05 -1.727503E+05 -5.946190E+04 -1.722337E+05  3.426306E-09 -3.519956E-10
       112  11 -2.498372E+05 -1.345473E+05 -4.331354E+04 -1.400317E+05  2.500346E-09 -5.225437E-10
       112  12 -1.590630E+05 -1.125346E+05 -2.716644E+04 -1.264000E+05  3.878515E-09  3.332724E-10
       112  13 -2.409282E+04 -6.335098E+04  3.730704E+01 -8.901616E+04  1.600293E-09 -1.367086E-09
       112  14 -3.218638E+04 -5.523657E+04 -2.142245E+01 -7.973430E+04  7.201293E-10 -2.144725E-09
       112  15 -2.407512E+04 -6.331333E+04 -8.492412E+01 -8.902485E+04  7.696339E-10 -1.901490E-09
       112  16  2.763058E+05  4.605611E+04  5.953226E+04 -5.761428E+03 -1.653425E-09 -2.182287E-09
       112  17  1.855124E+05  2.407791E+04  4.326818E+04 -1.941765E+04 -2.762644E-09 -3.629089E-09
       112  18  1.109304E+05 -1.409092E+04  2.699539E+04 -5.164256E+04 -1.299581E-09 -4.318022E-09
       112  19 -3.243982E+05 -1.727496E+05 -5.946067E+04 -1.722337E+05 -6.487353E+02 -2.562488E+04
       112  20 -2.498371E+05 -1.345469E+05 -4.331282E+04 -1.400316E+05 -3.013081E+03 -1.933493E+04
       112  21 -1.590629E+05 -1.125344E+05 -2.716606E+04 -1.263999E+05 -5.374728E+03 -1.304791E+04
       112  22 -2.409262E+04 -6.335043E+04  3.836858E+01 -8.901630E+04  8.257514E+03 -2.228740E+04
       112  23 -3.218628E+04 -5.523628E+04 -2.087623E+01 -7.973438E+04  5.889182E+03 -1.599995E+04
       112  24 -2.407509E+04 -6.331322E+04 -8.472341E+01 -8.902488E+04  3.523560E+03 -9.715460E+03
       112  25  2.763062E+05  4.605657E+04  5.953349E+04 -5.761690E+03  1.716839E+04 -1.894819E+04
       112  26  1.855127E+05  2.407814E+04  4.326889E+04 -1.941780E+04  1.479476E+04 -1.266373E+04
       112  27  1.109305E+05 -1.409084E+04  2.699575E+04 -5.164262E+04  1.242385E+04 -6.382259E+03
       113   1 -1.027776E+05 -9.194795E+04 -1.552892E+04 -1.108538E+05  6.778128E+03  9.395050E+03
       113   2 -2.817766E+04 -5.376701E+04  5.811333E+02 -7.865338E+04  9.155959E+03  3.144816E+03
       113   3  6.262038E+04 -3.177165E+04  1.666888E+04 -6.502818E+04  1.150858E+04 -3.038202E+03
       113   4 -2.407977E+04 -6.330994E+04 -1.275348E+02 -8.902783E+04 -2.133871E+03  6.057761E+03
       113   5 -3.216537E+04 -5.521043E+04 -2.540983E+02 -7.973719E+04  3.384473E+02 -1.571388E+02
       113   6 -2.408056E+04 -6.331674E+04 -4.785812E+02 -8.902522E+04  2.785540E+03 -6.304797E+03
       113   7  5.462529E+04 -3.467106E+04  1.527409E+04 -6.719904E+04 -1.104715E+04  2.719991E+03
       113   8 -3.615290E+04 -5.665379E+04 -1.089002E+03 -8.082096E+04 -8.479042E+03 -3.459085E+03
       113   9 -1.107736E+05 -9.486112E+04 -1.762608E+04 -1.130191E+05 -5.936195E+03 -9.570903E+03
       113  10 -1.027777E+05 -9.194805E+04 -1.552917E+04 -1.108539E+05  1.248406E-08  3.067110E-09
       113  11 -2.817775E+04 -5.376705E+04  5.809571E+02 -7.865340E+04  1.810106E-08  3.692303E-09
       113  12  6.262023E+04 -3.177170E+04  1.666862E+04 -6.502815E+04  6.759007E-09 -1.111310E-09
       113  13 -2.407979E+04 -6.330998E+04 -1.276124E+02 -8.902782E+04  1.388176E-09  9.102976E-10
       113  14 -3.216537E+04 -5.521043E+04 -2.540986E+02 -7.973719E+04 -1.783361E-09  7.509082E-09
       113  15 -2.408058E+04 -6.331678E+04 -4.786704E+02 -8.902521E+04 -1.740098E-08  9.961171E-09
       113  16  5.462516E+04 -3.467110E+04  1.527385E+04 -6.719902E+04 -6.507478E-09 -4.771920E-09
       113  17 -3.615298E+04 -5.665383E+04 -1.089160E+03 -8.082098E+04 -1.657366E-08 -6.445121E-09
       113  18 -1.107736E+05 -9.486123E+04 -1.762632E+04 -1.130192E+05 -3.293151E-08 -1.419040E-08
       113  19 -1.027776E+05 -9.194795E+04 -1.552892E+04 -1.108538E+05 -6.778128E+03 -9.395050E+03
       113  20 -2.817766E+04 -5.376701E+04  5.811333E+02 -7.865338E+04 -9.155959E+03 -3.144816E+03
       113  21  6.262038E+04 -3.177165E+04  1.666888E+04 -6.502818E+04 -1.150858E+04  3.038202E+03
       113  22 -2.407977E+04 -6.330994E+04 -1.275348E+02 -8.902783E+04  2.133871E+03 -6.057761E+03
       113  23 -3.216537E+04 -5.521043E+04 -2.540983E+02 -7.973719E+04 -3.384473E+02  1.571388E+02
       113  24 -2.408056E+04 -6.331674E+04 -4.785812E+02 -8.902522E+04 -2.785540E+03  6.304797E+03
       113  25  5.462529E+04 -3.467106E+04  1.527409E+04 -6.719904E+04  1.104715E+04 -2.719991E+03
       113  26 -3.615290E+04 -5.665379E+04 -1.089002E+03 -8.082096E+04  8.479042E+03  3.459085E+03
       113  27 -1.107736E+05 -9.486112E+04 -1.762608E+04 -1.130191E+05  5.936195E+03  9.570903E+03
       114   1  1.189566E+05 -1.118646E+04  2.819540E+04 -4.950711E+04  1.316692E+04 -6.596674E+03
       114   2  1.934535E+05  2.704677E+04  4.434860E+04 -1.724834E+04  1.451709E+04 -1.270363E+04
       114   3  2.842059E+05  4.911274E+04  6.110357E+04 -3.456362E+03  1.549375E+04 -1.781080E+04
       114   4 -2.411823E+04 -6.329630E+04 -6.402209E+02 -8.903029E+04  4.247735E+03 -9.937024E+03
       114   5 -3.213653E+04 -5.527247E+04 -1.176739E+03 -7.972293E+04  7.012768E+03 -1.551504E+04
       114   6 -2.418612E+04 -6.369684E+04 -2.231852E+03 -8.888538E+04  9.404323E+03 -2.009305E+04
       114   7 -1.671706E+05 -1.154039E+05 -2.947619E+04 -1.285447E+05 -4.669170E+03 -1.327652E+04
       114   8 -2.576741E+05 -1.375873E+05 -4.670435E+04 -1.421765E+05 -4.886290E+02 -1.832536E+04
       114   9 -3.324831E+05 -1.764993E+05 -6.557273E+04 -1.742759E+05  3.318104E+03 -2.237409E+04
       114  10  1.189564E+05 -1.118655E+04  2.819500E+04 -4.950704E+04 -3.104981E-08 -1.411287E-08
       114  11  1.934532E+05  2.704654E+04  4.434790E+04 -1.724819E+04 -1.553845E-08 -6.866860E-09
       114  12  2.842056E+05  4.911233E+04  6.110252E+04 -3.456139E+03 -7.026752E-09 -4.820932E-09
       114  13 -2.411827E+04 -6.329642E+04 -6.404404E+02 -8.903026E+04 -1.678084E-08  9.761096E-09
       114  14 -3.213665E+04 -5.527274E+04 -1.177284E+03 -7.972285E+04 -8.149875E-10  7.946797E-09
       114  15 -2.418633E+04 -6.369730E+04 -2.232776E+03 -8.888523E+04  1.960243E-09  1.076952E-09
       114  16 -1.671707E+05 -1.154041E+05 -2.947656E+04 -1.285448E+05  5.446660E-09 -1.144649E-09
       114  17 -2.576742E+05 -1.375877E+05 -4.670498E+04 -1.421766E+05  1.839263E-08  2.793972E-09
       114  18 -3.324832E+05 -1.764999E+05 -6.557369E+04 -1.742759E+05  1.231147E-08  2.590223E-09
       114  19  1.189566E+05 -1.118646E+04  2.819540E+04 -4.950711E+04 -1.316692E+04  6.596674E+03
       114  20  1.934535E+05  2.704677E+04  4.434860E+04 -1.724834E+04 -1.451709E+04  1.270363E+04
       114  21  2.842059E+05  4.911274E+04  6.110357E+04 -3.456362E+03 -1.549375E+04  1.781080E+04
       114  22 -2.411823E+04 -6.329630E+04 -6.402209E+02 -8.903029E+04 -4.247735E+03  9.937024E+03
       114  23 -3.213653E+04 -5.527247E+04 -1.176739E+03 -7.972293E+04 -7.012768E+03  1.551504E+04
       114  24 -2.418612E+04 -6.369684E+04 -2.231852E+03 -8.888538E+04 -9.404323E+03  2.009305E+04
       114  25 -1.671706E+05 -1.154039E+05 -2.947619E+04 -1.285447E+05  4.669170E+03  1.327652E+04
       114  26 -2.576741E+05 -1.375873E+05 -4.670435E+04 -1.421765E+05  4.886290E+02  1.832536E+04
       114  27 -3.324831E+05 -1.764993E+05 -6.557273E+04 -1.742759E+05 -3.318104E+03  2.237409E+04
       115   1  3.413730E+05  6.966531E+04  7.224099E+04  1.130958E+04  2.012416E+04 -2.028016E+04
       115   2  4.131187E+05  1.092488E+05  9.313993E+04  4.579742E+04  1.583617E+03 -2.601161E+04
       115   3  5.016798E+05  1.307973E+05  1.267202E+05  6.419634E+04 -2.252540E+04 -1.690523E+04
       115   4 -2.468687E+04 -6.323196E+04 -2.920522E+03 -8.901395E+04  1.112259E+04 -2.365424E+04
       115   5 -3.168400E+04 -5.681789E+04 -5.472155E+03 -7.921774E+04  1.360338E+04 -2.150832E+04
       115   6 -2.603385E+04 -7.260409E+04 -1.198855E+04 -8.551459E+04  1.051663E+04 -4.518148E+03
       115   7 -3.906110E+05 -1.961191E+05 -7.808911E+04 -1.892836E+05  2.126686E+03 -2.702622E+04
       115   8 -4.762804E+05 -2.228652E+05 -1.040942E+05 -2.041485E+05  2.561368E+04 -1.700869E+04
       115   9 -5.534583E+05 -2.759767E+05 -1.507118E+05 -2.351038E+05  4.352684E+04  7.856246E+03
       115  10  3.413724E+05  6.966476E+04  7.223945E+04  1.130990E+04 -2.128653E-09 -3.850403E-09
       115  11  4.131185E+05  1.092480E+05  9.313865E+04  4.579746E+04 -1.512347E-09 -2.922810E-09
       115  12  5.016791E+05  1.307968E+05  1.267187E+05  6.419603E+04 -2.127989E-09 -1.565594E-09
       115  13 -2.468716E+04 -6.323259E+04 -2.921806E+03 -8.901374E+04  1.168937E-10 -1.874294E-09
       115  14 -3.168433E+04 -5.681843E+04 -5.473372E+03 -7.921751E+04 -9.556038E-11 -1.847171E-09
       115  15 -2.603397E+04 -7.260414E+04 -1.198879E+04 -8.551455E+04 -3.951806E-10 -6.441846E-10
       115  16 -3.906112E+05 -1.961199E+05 -7.809049E+04 -1.892836E+05  3.459490E-09 -5.839347E-10
       115  17 -4.762812E+05 -2.228657E+05 -1.040960E+05 -2.041482E+05  2.860280E-09 -1.039407E-09
       115  18 -5.534603E+05 -2.759772E+05 -1.507155E+05 -2.351041E+05  3.077924E-09  2.820938E-10
       115  19  3.413730E+05  6.966531E+04  7.224099E+04  1.130958E+04 -2.012416E+04  2.028016E+04
       115  20  4.131187E+05  1.092488E+05  9.313993E+04  4.579742E+04 -1.583617E+03  2.601161E+04
       115  21  5.016798E+05  1.307973E+05  1.267202E+05  6.419634E+04  2.252540E+04  1.690523E+04
       115  22 -2.468687E+04 -6.323196E+04 -2.920522E+03 -8.901395E+04 -1.112259E+04  2.365424E+04
       115  23 -3.168400E+04 -5.681789E+04 -5.472155E+03 -7.921774E+04 -1.360338E+04  2.150832E+04
       115  24 -2.603385E+04 -7.260409E+04 -1.198855E+04 -8.551459E+04 -1.051663E+04  4.518148E+03
       115  25 -3.906110E+05 -1.961191E+05 -7.808911E+04 -1.892836E+05 -2.126686E+03  2.702622E+04
       115  26 -4.762804E+05 -2.228652E+05 -1.040942E+05 -2.041485E+05 -2.561368E+04  1.700869E+04
       115  27 -5.534583E+05 -2.759767E+05 -1.507118E+05 -2.351038E+05 -4.352684E+04 -7.856246E+03
       116   1 -4.516558E+04 -2.347004E+04 -2.075566E+04 -1.688030E+04 -4.295203E+03  1.663820E+03
       116   2 -2.750327E+04 -2.480440E+04 -1.599173E+04 -1.912722E+04 -4.995445E+02  5.530398E+03
       116   3 -9.493992E+03 -2.278170E+04 -1.285965E+04 -2.403172E+04  3.296584E+03  6.527355E+03
       116   4  9.517298E+04  1.109773E+04  1.175370E+04 -2.442472E+04  8.300730E+03  1.664457E+03
       116   5  9.440903E+04  3.961215E+03  5.930288E+03 -2.309585E+04  5.278480E+03  5.530501E+03
       116   6  9.517487E+04  1.364913E+03  3.209386E+03 -2.442440E+04  2.256503E+03  6.527230E+03
       116   7  2.355302E+05  4.566441E+04  4.426237E+04 -3.197086E+04  2.089949E+04  1.664787E+03
       116   8  2.163359E+05  3.272608E+04  2.785186E+04 -2.706527E+04  1.105761E+04  5.530531E+03
       116   9  1.998547E+05  2.551100E+04  1.927819E+04 -2.481715E+04  1.216254E+03  6.527105E+03
       116  10 -4.516560E+04 -2.347005E+04 -2.075570E+04 -1.688029E+04 -1.146922E-09  2.153201E-10
       116  11 -2.750328E+04 -2.480444E+04 -1.599179E+04 -1.912722E+04 -1.683237E-09  8.140749E-10
       116  12 -9.494015E+03 -2.278175E+04 -1.285975E+04 -2.403174E+04 -2.924449E-09  1.190471E-09
       116  13  9.517291E+04  1.109771E+04  1.175357E+04 -2.442473E+04 -5.035494E-10  2.691433E-10
       116  14  9.440899E+04  3.961175E+03  5.930178E+03 -2.309587E+04 -2.446473E-10  8.742452E-10
       116  15  9.517486E+04  1.364865E+03  3.209296E+03 -2.442441E+04  6.373948E-10  1.298440E-09
       116  16  2.355297E+05  4.566429E+04  4.426155E+04 -3.197089E+04  1.192830E-09  2.862792E-10
       116  17  2.163358E+05  3.272602E+04  2.785158E+04 -2.706532E+04  1.563118E-09  9.527438E-10
       116  18  1.998547E+05  2.551095E+04  1.927811E+04 -2.481715E+04  2.713912E-09  1.544569E-09
       116  19 -4.516558E+04 -2.347004E+04 -2.075566E+04 -1.688030E+04  4.295203E+03 -1.663820E+03
       116  20 -2.750327E+04 -2.480440E+04 -1.599173E+04 -1.912722E+04  4.995445E+02 -5.530398E+03
       116  21 -9.493992E+03 -2.278170E+04 -1.285965E+04 -2.403172E+04 -3.296584E+03 -6.527355E+03
       116  22  9.517298E+04  1.109773E+04  1.175370E+04 -2.442472E+04 -8.300730E+03 -1.664457E+03
       116  23  9.440903E+04  3.961215E+03  5.930288E+03 -2.309585E+04 -5.278480E+03 -5.530501E+03
       116  24  9.517487E+04  1.364913E+03  3.209386E+03 -2.442440E+04 -2.256503E+03 -6.527230E+03
       116  25  2.355302E+05  4.566441E+04  4.426237E+04 -3.197086E+04 -2.089949E+04 -1.664787E+03
       116  26  2.163359E+05  3.272608E+04  2.785186E+04 -2.706527E+04 -1.105761E+04 -5.530531E+03
       116  27  1.998547E+05  2.551100E+04  1.927819E+04 -2.481715E+04 -1.216254E+03 -6.527105E+03
       117   1  1.412277E+03 -2.046947E+04 -1.147097E+04 -2.389097E+04  3.089445E+03  6.141561E+03
       117   2  1.920822E+04 -1.689398E+04 -9.210765E+03 -2.275560E+04  3.354938E+03  5.423195E+03
       117   3  3.704351E+04 -1.302688E+04 -7.050311E+03 -2.449130E+04  3.620418E+03  4.320661E+03
       117   4  9.487919E+04  9.959826E+02  2.394305E+03 -2.447193E+04  1.839206E+03  6.141456E+03
       117   5  9.478094E+04  3.202018E+02  1.292180E+03 -2.303640E+04  1.191813E+03  5.423126E+03
       117   6  9.488017E+04  9.450021E+01  7.241681E+02 -2.447193E+04  5.444011E+02  4.320652E+03
       117   7  1.883549E+05  2.246102E+04  1.625942E+04 -2.505297E+04  5.887858E+02  6.141353E+03
       117   8  1.703595E+05  1.753414E+04  1.179507E+04 -2.331724E+04 -9.715629E+02  5.423058E+03
       117   9  1.527203E+05  1.321574E+04  8.498653E+03 -2.445255E+04 -2.531889E+03  4.320643E+03
       117  10  1.412256E+03 -2.046951E+04 -1.147105E+04 -2.389099E+04  6.356745E-08  1.977271E-09
       117  11  1.920820E+04 -1.689402E+04 -9.210841E+03 -2.275561E+04 -3.996137E-08  3.834051E-09
       117  12  3.704349E+04 -1.302690E+04 -7.050370E+03 -2.449131E+04 -1.377169E-07  4.885129E-09
       117  13  9.487918E+04  9.959412E+02  2.394228E+03 -2.447194E+04  5.762424E-10 -1.483125E-10
       117  14  9.478093E+04  3.201698E+02  1.292122E+03 -2.303641E+04  3.169157E-10 -6.192700E-09
       117  15  9.488016E+04  9.448008E+01  7.241325E+02 -2.447193E+04 -4.373080E-10 -1.273748E-08
       117  16  1.883549E+05  2.246098E+04  1.625935E+04 -2.505298E+04 -6.358805E-08  2.084969E-09
       117  17  1.703595E+05  1.753410E+04  1.179502E+04 -2.331724E+04  3.822952E-08  3.465551E-09
       117  18  1.527202E+05  1.321572E+04  8.498606E+03 -2.445254E+04  1.382377E-07  4.649501E-09
       117  19  1.412277E+03 -2.046947E+04 -1.147097E+04 -2.389097E+04 -3.089445E+03 -6.141561E+03
       117  20  1.920822E+04 -1.689398E+04 -9.210765E+03 -2.275560E+04 -3.354938E+03 -5.423195E+03
       117  21  3.704351E+04 -1.302688E+04 -7.050311E+03 -2.449130E+04 -3.620418E+03 -4.320661E+03
       117  22  9.487919E+04  9.959826E+02  2.394305E+03 -2.447193E+04 -1.839206E+03 -6.141456E+03
       117  23  9.478094E+04  3.202018E+02  1.292180E+03 -2.303640E+04 -1.191813E+03 -5.423126E+03
       117  24  9.488017E+04  9.450021E+01  7.241681E+02 -2.447193E+04 -5.444011E+02 -4.320652E+03
       117  25  1.883549E+05  2.246102E+04  1.625942E+04 -2.505297E+04 -5.887858E+02 -6.141353E+03
       117  26  1.703595E+05  1.753414E+04  1.179507E+04 -2.331724E+04  9.715629E+02 -5.423058E+03
       117  27  1.527203E+05  1.321574E+04  8.498653E+03 -2.445255E+04  2.531889E+03 -4.320643E+03
       118   1  4.803119E+04 -1.053760E+04 -5.665452E+03 -2.446700E+04  3.541876E+03  3.549695E+03
       118   2  6.583886E+04 -6.549235E+03 -3.510713E+03 -2.303134E+04  3.512021E+03  2.217702E+03
       118   3  8.365601E+04 -2.539971E+03 -1.331283E+03 -2.449512E+04  3.482148E+03  8.344633E+02
       118   4  9.484329E+04  6.628140E+01  5.455855E+02 -2.447824E+04  4.377465E+02  3.549712E+03
       118   5  9.482820E+04  1.131369E+01  3.053322E+02 -2.302852E+04  2.860923E+02  2.217746E+03
       118   6  9.484366E+04 -1.532048E+00  1.743930E+02 -2.447824E+04  1.344219E+02  8.345359E+02
       118   7  1.416577E+05  1.067007E+04  6.756642E+03 -2.448947E+04 -2.666606E+03  3.549729E+03
       118   8  1.238184E+05  6.571832E+03  4.121410E+03 -2.302570E+04 -2.939980E+03  2.217791E+03
       118   9  1.060315E+05  2.536908E+03  1.680110E+03 -2.446136E+04 -3.213362E+03  8.346083E+02
       118  10  4.803117E+04 -1.053761E+04 -5.665499E+03 -2.446701E+04  6.835845E-08  4.218483E-09
       118  11  6.583885E+04 -6.549243E+03 -3.510745E+03 -2.303135E+04  3.776658E-08  1.805566E-09
       118  12  8.365599E+04 -2.539975E+03 -1.331307E+03 -2.449512E+04  3.279256E-09  4.913634E-11
       118  13  9.484329E+04  6.626781E+01  5.455615E+02 -2.447824E+04 -5.710794E-10 -1.336576E-08
       118  14  9.482819E+04  1.130838E+01  3.053228E+02 -2.302852E+04  2.663401E-10 -8.160058E-09
       118  15  9.484366E+04 -1.532801E+00  1.743917E+02 -2.447824E+04  5.379923E-10 -2.063931E-09
       118  16  1.416576E+05  1.067005E+04  6.756605E+03 -2.448946E+04 -6.896819E-08  4.047259E-09
       118  17  1.238184E+05  6.571825E+03  4.121385E+03 -2.302570E+04 -3.708379E-08  1.596012E-09
       118  18  1.060314E+05  2.536904E+03  1.680089E+03 -2.446135E+04 -2.558535E-09  2.588565E-10
       118  19  4.803119E+04 -1.053760E+04 -5.665452E+03 -2.446700E+04 -3.541876E+03 -3.549695E+03
       118  20  6.583886E+04 -6.549235E+03 -3.510713E+03 -2.303134E+04 -3.512021E+03 -2.217702E+03
       118  21  8.365601E+04 -2.539971E+03 -1.331283E+03 -2.449512E+04 -3.482148E+03 -8.344633E+02
       118  22  9.484329E+04  6.628140E+01  5.455855E+02 -2.447824E+04 -4.377465E+02 -3.549712E+03
       118  23  9.482820E+04  1.131369E+01  3.053322E+02 -2.302852E+04 -2.860923E+02 -2.217746E+03
       118  24  9.484366E+04 -1.532048E+00  1.743930E+02 -2.447824E+04 -1.344219E+02 -8.345359E+02
       118  25  1.416577E+05  1.067007E+04  6.756642E+03 -2.448947E+04  2.666606E+03 -3.549729E+03
       118  26  1.238184E+05  6.571832E+03  4.121410E+03 -2.302570E+04  2.939980E+03 -2.217791E+03
       118  27  1.060315E+05  2.536908E+03  1.680110E+03 -2.446136E+04  3.213362E+03 -8.346083E+02
       119   1  9.465201E+04 -4.483805E+01  1.046428E+02 -2.449008E+04  3.458674E+03  1.214757E+01
       119   2  1.124624E+05  3.968436E+03  2.315245E+03 -2.303563E+04  3.434132E+03 -1.400936E+03
       119   3  1.302771E+05  7.982759E+03  4.542230E+03 -2.448436E+04  3.409602E+03 -2.819470E+03
       119   4  9.483821E+04 -2.076296E+00  1.322565E+02 -2.447907E+04  1.072608E+02  1.222323E+01
       119   5  9.483513E+04 -4.452194E+00  7.591480E+01 -2.302748E+04  6.969251E+01 -1.400876E+03
       119   6  9.483800E+04 -3.586113E+00  4.488247E+01 -2.447908E+04  3.213698E+01 -2.819427E+03
       119   7  9.502443E+04  4.069149E+01  1.599125E+02 -2.446807E+04 -3.244154E+03  1.229878E+01
       119   8  7.720822E+04 -3.977347E+03 -2.163374E+03 -2.301933E+04 -3.294656E+03 -1.400816E+03
       119   9  5.940026E+04 -7.989977E+03 -4.452426E+03 -2.447379E+04 -3.345145E+03 -2.819383E+03
       119  10  9.465200E+04 -4.484127E+01  1.046203E+02 -2.449008E+04  1.574323E-09 -6.536883E-11
       119  11  1.124624E+05  3.968431E+03  2.315219E+03 -2.303562E+04  1.866276E-09  5.412237E-10
       119  12  1.302770E+05  7.982747E+03  4.542193E+03 -2.448435E+04  1.918245E-09  6.213732E-10
       119  13  9.483821E+04 -2.076299E+00  1.322565E+02 -2.447907E+04  5.427092E-10  1.817324E-10
       119  14  9.483513E+04 -4.454303E+00  7.591110E+01 -2.302748E+04  1.058222E-09  7.772125E-10
       119  15  9.483799E+04 -3.594649E+00  4.486753E+01 -2.447908E+04  3.043248E-10  6.381853E-10
       119  16  9.502442E+04  4.068867E+01  1.598927E+02 -2.446807E+04 -1.564914E-09  4.244894E-10
       119  17  7.720821E+04 -3.977352E+03 -2.163398E+03 -2.301933E+04 -1.782341E-09  1.008536E-09
       119  18  5.940024E+04 -7.989988E+03 -4.452462E+03 -2.447380E+04 -2.410196E-09  6.519185E-10
       119  19  9.465201E+04 -4.483805E+01  1.046428E+02 -2.449008E+04 -3.458674E+03 -1.214757E+01
       119  20  1.124624E+05  3.968436E+03  2.315245E+03 -2.303563E+04 -3.434132E+03  1.400936E+03
       119  21  1.302771E+05  7.982759E+03  4.542230E+03 -2.448436E+04 -3.409602E+03  2.819470E+03
       119  22  9.483821E+04 -2.076296E+00  1.322565E+02 -2.447907E+04 -1.072608E+02 -1.222323E+01
       119  23  9.483513E+04 -4.452194E+00  7.591480E+01 -2.302748E+04 -6.969251E+01  1.400876E+03
       119  24  9.483800E+04 -3.586113E+00  4.488247E+01 -2.447908E+04 -3.213698E+01  2.819427E+03
       119  25  9.502443E+04  4.069149E+01  1.599125E+02 -2.446807E+04  3.244154E+03 -1.229878E+01
       119  26  7.720822E+04 -3.977347E+03 -2.163374E+03 -2.301933E+04  3.294656E+03  1.400816E+03
       119  27  5.940026E+04 -7.989977E+03 -4.452426E+03 -2.447379E+04  3.345145E+03  2.819383E+03
       120   1  1.412754E+05  1.047629E+04  6.001383E+03 -2.448291E+04  3.402153E+03 -3.647237E+03
       120   2  1.590863E+05  1.449023E+04  8.250723E+03 -2.302923E+04  3.367594E+03 -5.063473E+03
       120   3  1.769037E+05  1.850835E+04  1.052377E+04 -2.447869E+04  3.333082E+03 -6.469911E+03
       120   4  9.483697E+04 -3.360534E+00  3.510232E+01 -2.447907E+04  2.489781E+01 -3.647216E+03
       120   5  9.483554E+04 -3.570975E+00  2.292533E+01 -2.302749E+04  1.357675E+01 -5.063511E+03
       120   6  9.483618E+04 -3.621547E+00  1.828868E+01 -2.447907E+04  2.302655E+00 -6.470008E+03
       120   7  4.840079E+04 -1.048310E+04 -5.931145E+03 -2.447522E+04 -3.352117E+03 -3.647194E+03
       120   8  3.058901E+04 -1.449753E+04 -8.204848E+03 -2.302575E+04 -3.340111E+03 -5.063548E+03
       120   9  1.277557E+04 -1.851587E+04 -1.048718E+04 -2.447944E+04 -3.328058E+03 -6.470105E+03
       120  10  1.412754E+05  1.047627E+04  6.001336E+03 -2.448290E+04  1.137166E-09  3.617479E-10
       120  11  1.590863E+05  1.449020E+04  8.250654E+03 -2.302922E+04  1.301521E-09  1.744475E-10
       120  12  1.769037E+05  1.850830E+04  1.052367E+04 -2.447867E+04  6.461237E-10  5.973895E-10
       120  13  9.483696E+04 -3.374819E+00  3.507732E+01 -2.447907E+04  1.149752E-09  3.347114E-10
       120  14  9.483553E+04 -3.598508E+00  2.287715E+01 -2.302749E+04 -7.448348E-10  2.150952E-10
       120  15  9.483617E+04 -3.666500E+00  1.821001E+01 -2.447907E+04 -1.937843E-09  5.513214E-10
       120  16  4.840078E+04 -1.048311E+04 -5.931191E+03 -2.447523E+04 -1.991143E-09  2.857180E-10
       120  17  3.058899E+04 -1.449756E+04 -8.204917E+03 -2.302576E+04 -1.442264E-09  2.024356E-10
       120  18  1.277555E+04 -1.851591E+04 -1.048728E+04 -2.447946E+04  2.224129E-10  4.765580E-10
       120  19  1.412754E+05  1.047629E+04  6.001383E+03 -2.448291E+04 -3.402153E+03  3.647237E+03
       120  20  1.590863E+05  1.449023E+04  8.250723E+03 -2.302923E+04 -3.367594E+03  5.063473E+03
       120  21  1.769037E+05  1.850835E+04  1.052377E+04 -2.447869E+04 -3.333082E+03  6.469911E+03
       120  22  9.483697E+04 -3.360534E+00  3.510232E+01 -2.447907E+04 -2.489781E+01  3.647216E+03
       120  23  9.483554E+04 -3.570975E+00  2.292533E+01 -2.302749E+04 -1.357675E+01  5.063511E+03
       120  24  9.483618E+04 -3.621547E+00  1.828868E+01 -2.447907E+04 -2.302655E+00  6.470008E+03
       120  25  4.840079E+04 -1.048310E+04 -5.931145E+03 -2.447522E+04  3.352117E+03  3.647194E+03
       120  26  3.058901E+04 -1.449753E+04 -8.204848E+03 -2.302575E+04  3.340111E+03  5.063548E+03
       120  27  1.277557E+04 -1.851587E+04 -1.048718E+04 -2.447944E+04  3.328058E+03  6.470105E+03
       121   1  1.879090E+05  2.100569E+04  1.200908E+04 -2.447630E+04  3.324156E+03 -7.287856E+03
       121   2  2.057081E+05  2.503417E+04  1.436000E+04 -2.302594E+04  3.122741E+03 -8.646846E+03
       121   3  2.235434E+05  2.909785E+04  1.685111E+04 -2.447346E+04  2.921397E+03 -9.925654E+03
       121   4  9.483607E+04 -3.981222E+00  1.813642E+01 -2.447790E+04 -9.424719E-01 -7.288000E+03
       121   5  9.483380E+04 -4.336760E+00  2.202365E+01 -2.302894E+04 -1.180798E+01 -8.647084E+03
       121   6  9.483471E+04 -2.485545E+00  3.386147E+01 -2.447790E+04 -2.260121E+01 -9.925980E+03
       121   7  1.772030E+03 -2.101400E+04 -1.197281E+04 -2.447951E+04 -3.325566E+03 -7.288143E+03
       121   8 -1.602785E+04 -2.504335E+04 -1.431598E+04 -2.303195E+04 -3.145825E+03 -8.647323E+03
       121   9 -3.385704E+04 -2.910351E+04 -1.678346E+04 -2.448234E+04 -2.966018E+03 -9.926306E+03
       121  10  1.879090E+05  2.100563E+04  1.200896E+04 -2.447628E+04  1.547101E-09  8.024742E-10
       121  11  2.057080E+05  2.503409E+04  1.435984E+04 -2.302591E+04  6.359666E-10  3.275216E-10
       121  12  2.235434E+05  2.909774E+04  1.685091E+04 -2.447344E+04  4.927141E-10 -8.110831E-11
       121  13  9.483605E+04 -4.038261E+00  1.803660E+01 -2.447790E+04 -5.395958E-10  6.668358E-10
       121  14  9.483378E+04 -4.417056E+00  2.188313E+01 -2.302894E+04  2.274633E-10  3.715969E-10
       121  15  9.483468E+04 -2.591349E+00  3.367632E+01 -2.447790E+04 -4.878184E-10  1.478018E-10
       121  16  1.772004E+03 -2.101406E+04 -1.197293E+04 -2.447952E+04 -2.045275E-09  5.128505E-10
       121  17 -1.602788E+04 -2.504343E+04 -1.431614E+04 -2.303197E+04 -2.337253E-09  3.641086E-10
       121  18 -3.385707E+04 -2.910362E+04 -1.678366E+04 -2.448237E+04 -8.637236E-10  4.661389E-10
       121  19  1.879090E+05  2.100569E+04  1.200908E+04 -2.447630E+04 -3.324156E+03  7.287856E+03
       121  20  2.057081E+05  2.503417E+04  1.436000E+04 -2.302594E+04 -3.122741E+03  8.646846E+03
       121  21  2.235434E+05  2.909785E+04  1.685111E+04 -2.447346E+04 -2.921397E+03  9.925654E+03
       121  22  9.483607E+04 -3.981222E+00  1.813642E+01 -2.447790E+04  9.424719E-01  7.288000E+03
       121  23  9.483380E+04 -4.336760E+00  2.202365E+01 -2.302894E+04  1.180798E+01  8.647084E+03
       121  24  9.483471E+04 -2.485545E+00  3.386147E+01 -2.447790E+04  2.260121E+01  9.925980E+03
       121  25  1.772030E+03 -2.101400E+04 -1.197281E+04 -2.447951E+04  3.325566E+03  7.288143E+03
       121  26 -1.602785E+04 -2.504335E+04 -1.431598E+04 -2.303195E+04  3.145825E+03  8.647323E+03
       121  27 -3.385704E+04 -2.910351E+04 -1.678346E+04 -2.448234E+04  2.966018E+03  9.926306E+03
       122   1  2.345900E+05  3.163092E+04  1.848022E+04 -2.446008E+04  2.871141E+03 -1.066322E+04
       122   2  2.522839E+05  3.578162E+04  2.151238E+04 -2.304748E+04  1.407173E+03 -1.158340E+04
       122   3  2.702395E+05  4.020573E+04  2.556638E+04 -2.448740E+04 -5.685492E+01 -1.190335E+04
       122   4  9.483645E+04 -1.680622E+00  4.346974E+01 -2.446782E+04 -2.905686E+01 -1.066360E+04
       122   5  9.482875E+04  9.566991E+00  7.486642E+01 -2.304154E+04 -6.638103E+01 -1.158381E+04
       122   6  9.483455E+04  4.657325E+01  1.375709E+02 -2.446783E+04 -1.037037E+02 -1.190369E+04
       122   7 -4.489713E+04 -3.163511E+04 -1.839339E+04 -2.447557E+04 -2.928633E+03 -1.066399E+04
       122   8 -6.260118E+04 -3.576356E+04 -2.136289E+04 -2.303561E+04 -1.539579E+03 -1.158421E+04
       122   9 -8.053934E+04 -4.011400E+04 -2.529174E+04 -2.444826E+04 -1.505398E+02 -1.190403E+04
       122  10  2.345900E+05  3.163080E+04  1.847999E+04 -2.446005E+04  1.226287E-09 -2.673999E-10
       122  11  2.522839E+05  3.578147E+04  2.151212E+04 -2.304746E+04  3.522252E-10 -3.261057E-10
       122  12  2.702394E+05  4.020558E+04  2.556611E+04 -2.448740E+04 -6.641374E-10 -3.783551E-10
       122  13  9.483642E+04 -1.802735E+00  4.325604E+01 -2.446782E+04  5.353538E-10 -2.017417E-11
       122  14  9.482871E+04  9.422893E+00  7.461424E+01 -2.304154E+04 -2.838920E-10 -2.202362E-10
       122  15  9.483452E+04  4.642108E+01  1.373045E+02 -2.446783E+04  4.968947E-10 -4.678289E-12
       122  16 -4.489717E+04 -3.163523E+04 -1.839362E+04 -2.447559E+04 -4.028287E-10  2.591634E-10
       122  17 -6.260122E+04 -3.576371E+04 -2.136314E+04 -2.303563E+04 -6.617819E-10  1.141525E-10
       122  18 -8.053938E+04 -4.011415E+04 -2.529200E+04 -2.444826E+04  1.872484E-10  4.152538E-10
       122  19  2.345900E+05  3.163092E+04  1.848022E+04 -2.446008E+04 -2.871141E+03  1.066322E+04
       122  20  2.522839E+05  3.578162E+04  2.151238E+04 -2.304748E+04 -1.407173E+03  1.158340E+04
       122  21  2.702395E+05  4.020573E+04  2.556638E+04 -2.448740E+04  5.685492E+01  1.190335E+04
       122  22  9.483645E+04 -1.680622E+00  4.346974E+01 -2.446782E+04  2.905686E+01  1.066360E+04
       122  23  9.482875E+04  9.566991E+00  7.486642E+01 -2.304154E+04  6.638103E+01  1.158381E+04
       122  24  9.483455E+04  4.657325E+01  1.375709E+02 -2.446783E+04  1.037037E+02  1.190369E+04
       122  25 -4.489713E+04 -3.163511E+04 -1.839339E+04 -2.447557E+04  2.928633E+03  1.066399E+04
       122  26 -6.260118E+04 -3.576356E+04 -2.136289E+04 -2.303561E+04  1.539579E+03  1.158421E+04
       122  27 -8.053934E+04 -4.011400E+04 -2.529174E+04 -2.444826E+04  1.505398E+02  1.190403E+04
       123   1  2.815796E+05  4.301395E+04  2.823299E+04 -2.439955E+04 -4.091613E+02 -1.203909E+04
       123   2  2.984661E+05  4.812400E+04  3.627142E+04 -2.334175E+04 -1.123885E+04 -9.680045E+03
       123   3  3.172937E+05  5.534568E+04  5.188691E+04 -2.480232E+04 -2.206999E+04 -2.837448E+03
       123   4  9.485110E+04  6.680510E+01  1.841307E+02 -2.439354E+04 -1.276915E+02 -1.203941E+04
       123   5  9.480431E+04  2.147071E+02  3.390854E+02 -2.313442E+04 -2.999365E+02 -9.678901E+03
       123   6  9.484875E+04  6.247583E+02  6.721728E+02 -2.439361E+04 -4.732306E+02 -2.834166E+03
       123   7 -9.184237E+04 -4.288199E+04 -2.786542E+04 -2.438753E+04  1.536970E+02 -1.203974E+04
       123   8 -1.088167E+05 -4.769679E+04 -3.559432E+04 -2.292716E+04  1.063549E+04 -9.677749E+03
       123   9 -1.275494E+05 -5.409938E+04 -5.054410E+04 -2.398504E+04  2.111585E+04 -2.830854E+03
       123  10  2.815795E+05  4.301379E+04  2.823272E+04 -2.439956E+04  4.481923E-10 -4.414179E-10
       123  11  2.984660E+05  4.812387E+04  3.627101E+04 -2.334184E+04  5.620156E-10 -5.713658E-10
       123  12  3.172932E+05  5.534554E+04  5.188598E+04 -2.480237E+04  7.963462E-10 -1.385587E-10
       123  13  9.485106E+04  6.664944E+01  1.838583E+02 -2.439354E+04 -1.036653E-10 -3.828531E-10
       123  14  9.480428E+04  2.146065E+02  3.389091E+02 -2.313442E+04  1.426057E-09  4.133223E-10
       123  15  9.484875E+04  6.247496E+02  6.721573E+02 -2.439361E+04 -4.538722E-10  2.360654E-11
       123  16 -9.184241E+04 -4.288214E+04 -2.786570E+04 -2.438753E+04 -7.735955E-10  5.213889E-10
       123  17 -1.088169E+05 -4.769693E+04 -3.559471E+04 -2.292707E+04  4.679827E-10  5.588536E-10
       123  18 -1.275499E+05 -5.409950E+04 -5.054495E+04 -2.398499E+04 -3.927409E-10 -7.797228E-11
       123  19  2.815796E+05  4.301395E+04  2.823299E+04 -2.439955E+04  4.091613E+02  1.203909E+04
       123  20  2.984661E+05  4.812400E+04  3.627142E+04 -2.334175E+04  1.123885E+04  9.680045E+03
       123  21  3.172937E+05  5.534568E+04  5.188691E+04 -2.480232E+04  2.206999E+04  2.837448E+03
       123  22  9.485110E+04  6.680510E+01  1.841307E+02 -2.439354E+04  1.276915E+02  1.203941E+04
       123  23  9.480431E+04  2.147071E+02  3.390854E+02 -2.313442E+04  2.999365E+02  9.678901E+03
       123  24  9.484875E+04  6.247583E+02  6.721728E+02 -2.439361E+04  4.732306E+02  2.834166E+03
       123  25 -9.184237E+04 -4.288199E+04 -2.786542E+04 -2.438753E+04 -1.536970E+02  1.203974E+04
       123  26 -1.088167E+05 -4.769679E+04 -3.559432E+04 -2.292716E+04 -1.063549E+04  9.677749E+03
       123  27 -1.275494E+05 -5.409938E+04 -5.054410E+04 -2.398504E+04 -2.111585E+04  2.830854E+03
       124   1  4.934685E+04  2.395595E+05  4.735350E+04 -7.218294E+04  1.837140E+03  1.237599E+04
       124   2  3.352489E+04  1.816251E+05  2.793604E+04 -6.706849E+04  5.323070E+03  2.568752E+03
       124   3  1.965278E+04  1.254560E+05  1.538885E+04 -7.177450E+04  4.411596E+03 -7.238024E+03
       124   4  5.837132E+02  4.240518E+04  6.601181E+02 -7.173661E+04  1.839851E+03  9.857651E+01
       124   5  2.080634E+02  4.235072E+04  6.084375E+02 -6.682635E+04  5.323814E+03 -2.071867E+02
       124   6  1.336680E+02  4.241043E+04  8.306293E+02 -7.173669E+04  4.409923E+03 -5.132670E+02
       124   7 -4.818213E+04 -1.547131E+05 -4.603540E+04 -7.129041E+04  1.842546E+03 -1.217496E+04
       124   8 -3.310993E+04 -9.690505E+04 -2.672007E+04 -6.658427E+04  5.324556E+03 -2.982517E+03
       124   9 -1.938580E+04 -4.062827E+04 -1.372767E+04 -7.169889E+04  4.408251E+03  6.210617E+03
       124  10  4.934680E+04  2.395594E+05  4.735321E+04 -7.218296E+04  1.241211E-09  1.615970E-08
       124  11  3.352486E+04  1.816251E+05  2.793598E+04 -6.706850E+04  4.811734E-09  1.672786E-08
       124  12  1.965275E+04  1.254559E+05  1.538872E+04 -7.177447E+04  6.029986E-09  1.427995E-08
       124  13  5.837095E+02  4.240518E+04  6.601117E+02 -7.173661E+04 -1.130344E-09 -6.165007E-12
       124  14  2.080330E+02  4.235071E+04  6.083841E+02 -6.682635E+04 -5.215435E-09 -1.386532E-10
       124  15  1.336471E+02  4.241042E+04  8.305922E+02 -7.173669E+04 -1.167106E-08 -2.523223E-10
       124  16 -4.818218E+04 -1.547133E+05 -4.603568E+04 -7.129039E+04  1.517138E-09 -1.615212E-08
       124  17 -3.310996E+04 -9.690506E+04 -2.672014E+04 -6.658426E+04  4.649612E-09 -1.670791E-08
       124  18 -1.938583E+04 -4.062831E+04 -1.372778E+04 -7.169891E+04  7.214159E-09 -1.428096E-08
       124  19  4.934685E+04  2.395595E+05  4.735350E+04 -7.218294E+04 -1.837140E+03 -1.237599E+04
       124  20  3.352489E+04  1.816251E+05  2.793604E+04 -6.706849E+04 -5.323070E+03 -2.568752E+03
       124  21  1.965278E+04  1.254560E+05  1.538885E+04 -7.177450E+04 -4.411596E+03  7.238024E+03
       124  22  5.837132E+02  4.240518E+04  6.601181E+02 -7.173661E+04 -1.839851E+03 -9.857651E+01
       124  23  2.080634E+02  4.235072E+04  6.084375E+02 -6.682635E+04 -5.323814E+03  2.071867E+02
       124  24  1.336680E+02  4.241043E+04  8.306293E+02 -7.173669E+04 -4.409923E+03  5.132670E+02
       124  25 -4.818213E+04 -1.547131E+05 -4.603540E+04 -7.129041E+04 -1.842546E+03  1.217496E+04
       124  26 -3.310993E+04 -9.690505E+04 -2.672007E+04 -6.658427E+04 -5.324556E+03  2.982517E+03
       124  27 -1.938580E+04 -4.062827E+04 -1.372767E+04 -7.169889E+04 -4.408251E+03 -6.210617E+03
       125   1  1.123650E+04  8.954082E+04  9.434665E+03 -7.190056E+04  2.403523E+03 -7.454720E+03
       125   2 -1.945876E+03  3.240229E+04  2.693844E+02 -6.650885E+04 -7.124185E+02 -8.219214E+03
       125   3 -1.458215E+04 -2.449974E+04 -8.262663E+03 -7.121756E+04 -3.778321E+03 -8.983618E+03
       125   4  1.380573E+02  4.244192E+04  1.037958E+03 -7.179887E+04  2.401760E+03 -6.692980E+02
       125   5  3.315543E+02  4.231571E+04  1.742745E+03 -6.674859E+04 -7.141270E+02 -1.542199E+03
       125   6  1.090065E+03  4.244150E+04  3.155882E+03 -7.179866E+04 -3.779979E+03 -2.415075E+03
       125   7 -1.096048E+04 -4.654724E+03 -7.358659E+03 -7.169720E+04  2.399999E+03  6.115625E+03
       125   8  2.609004E+03  5.222932E+04  3.216271E+03 -6.698832E+04 -7.158406E+02  5.134919E+03
       125   9  1.676206E+04  1.093873E+05  1.457444E+04 -7.237983E+04 -3.781648E+03  4.154153E+03
       125  10  1.123647E+04  8.954076E+04  9.434549E+03 -7.190054E+04  5.992263E-09  1.295782E-08
       125  11 -1.945894E+03  3.240221E+04  2.692565E+02 -6.650886E+04  6.449029E-09 -2.205024E-08
       125  12 -1.458218E+04 -2.449984E+04 -8.262841E+03 -7.121758E+04  8.435697E-09 -5.531346E-08
       125  13  1.380510E+02  4.244191E+04  1.037946E+03 -7.179887E+04 -1.287850E-08 -8.742741E-12
       125  14  3.315531E+02  4.231570E+04  1.742739E+03 -6.674859E+04 -1.348780E-08 -1.756619E-10
       125  15  1.090048E+03  4.244149E+04  3.155844E+03 -7.179867E+04 -1.236879E-08 -2.375089E-10
       125  16 -1.096050E+04 -4.654766E+03 -7.358740E+03 -7.169721E+04  7.075625E-09 -1.297069E-08
       125  17  2.608996E+03  5.222929E+04  3.216221E+03 -6.698832E+04  7.625952E-09  2.202596E-08
       125  18  1.676204E+04  1.093872E+05  1.457438E+04 -7.237982E+04  7.361016E-09  5.534131E-08
       125  19  1.123650E+04  8.954082E+04  9.434665E+03 -7.190056E+04 -2.403523E+03  7.454720E+03
       125  20 -1.945876E+03  3.240229E+04  2.693844E+02 -6.650885E+04  7.124185E+02  8.219214E+03
       125  21 -1.458215E+04 -2.449974E+04 -8.262663E+03 -7.121756E+04  3.778321E+03  8.983618E+03
       125  22  1.380573E+02  4.244192E+04  1.037958E+03 -7.179887E+04 -2.401760E+03  6.692980E+02
       125  23  3.315543E+02  4.231571E+04  1.742745E+03 -6.674859E+04  7.141270E+02  1.542199E+03
       125  24  1.090065E+03  4.244150E+04  3.155882E+03 -7.179866E+04  3.779979E+03  2.415075E+03
       125  25 -1.096048E+04 -4.654724E+03 -7.358659E+03 -7.169720E+04 -2.399999E+03 -6.115625E+03
       125  26  2.609004E+03  5.222932E+04  3.216271E+03 -6.698832E+04  7.158406E+02 -5.134919E+03
       125  27  1.676206E+04  1.093873E+05  1.457444E+04 -7.237983E+04  3.781648E+03 -4.154153E+03
       126   1 -2.272066E+04 -6.004396E+04 -1.345391E+04 -7.160912E+04 -5.740743E+03 -9.460534E+03
       126   2 -3.335781E+04 -1.172614E+05 -2.313183E+04 -6.196265E+04 -6.344203E+03 -3.000022E+03
       126   3 -3.925189E+04 -1.741305E+05 -3.583051E+04 -6.210393E+04 -2.131513E+03  3.460115E+03
       126   4  1.391009E+03  4.286212E+04  4.196505E+03 -7.172917E+04 -5.742294E+03 -2.960510E+03
       126   5  4.623423E+03  4.178410E+04  7.709262E+03 -6.683435E+04 -6.343166E+03 -6.901825E+03
       126   6  1.440389E+04  4.285585E+04  1.542439E+04 -7.172664E+04 -2.128558E+03 -1.084279E+04
       126   7  2.550214E+04  1.457787E+05  2.184672E+04 -7.184924E+04 -5.743847E+03  3.540559E+03
       126   8  4.260324E+04  2.008540E+05  3.854924E+04 -7.170732E+04 -6.342068E+03 -1.080460E+04
       126   9  6.805676E+04  2.598862E+05  6.667684E+04 -8.135273E+04 -2.125160E+03 -2.515068E+04
       126  10 -2.272072E+04 -6.004407E+04 -1.345414E+04 -7.160916E+04  7.588610E-09  3.855752E-08
       126  11 -3.335785E+04 -1.172615E+05 -2.313192E+04 -6.196267E+04  4.705172E-09  5.282177E-09
       126  12 -3.925190E+04 -1.741305E+05 -3.583054E+04 -6.210393E+04  1.512119E-09 -2.743680E-08
       126  13  1.390972E+03  4.286210E+04  4.196426E+03 -7.172918E+04 -1.046172E-08 -1.962914E-12
       126  14  4.623367E+03  4.178404E+04  7.709097E+03 -6.683439E+04 -3.560885E-09 -1.277999E-10
       126  15  1.440386E+04  4.285572E+04  1.542416E+04 -7.172666E+04 -3.370538E-10 -1.600018E-10
       126  16  2.550210E+04  1.457787E+05  2.184664E+04 -7.184922E+04  7.066880E-09 -3.852932E-08
       126  17  4.260317E+04  2.008539E+05  3.854894E+04 -7.170738E+04  4.645265E-09 -5.254550E-09
       126  18  6.805659E+04  2.598855E+05  6.667565E+04 -8.135277E+04  1.252507E-09  2.747445E-08
       126  19 -2.272066E+04 -6.004396E+04 -1.345391E+04 -7.160912E+04  5.740743E+03  9.460534E+03
       126  20 -3.335781E+04 -1.172614E+05 -2.313183E+04 -6.196265E+04  6.344203E+03  3.000022E+03
       126  21 -3.925189E+04 -1.741305E+05 -3.583051E+04 -6.210393E+04  2.131513E+03 -3.460115E+03
       126  22  1.391009E+03  4.286212E+04  4.196505E+03 -7.172917E+04  5.742294E+03  2.960510E+03
       126  23  4.623423E+03  4.178410E+04  7.709262E+03 -6.683435E+04  6.343166E+03  6.901825E+03
       126  24  1.440389E+04  4.285585E+04  1.542439E+04 -7.172664E+04  2.128558E+03  1.084279E+04
       126  25  2.550214E+04  1.457787E+05  2.184672E+04 -7.184924E+04  5.743847E+03 -3.540559E+03
       126  26  4.260324E+04  2.008540E+05  3.854924E+04 -7.170732E+04  6.342068E+03  1.080460E+04
       126  27  6.805676E+04  2.598862E+05  6.667684E+04 -8.135273E+04  2.125160E+03  2.515068E+04
       127   1 -9.523533E+04 -5.390646E+04 -3.413711E+04 -4.021591E+04 -1.665849E+04 -5.337488E+03
       127   2 -8.936519E+04 -3.314351E+04 -1.960700E+04 -3.755166E+04 -1.041902E+04 -9.853552E+02
       127   3 -8.747487E+04 -2.517943E+04 -1.335298E+04 -3.353076E+04 -3.609850E+03  1.848539E+03
       127   4 -4.701282E+04 -2.653047E+04 -1.982204E+04 -1.746756E+04 -1.308774E+04 -3.998435E+03
       127   5 -4.414816E+04 -1.261361E+04 -9.042468E+03 -2.104525E+04 -8.997274E+03 -4.521845E+02
       127   6 -4.483734E+04 -1.106965E+04 -4.836234E+03 -2.326655E+04 -4.337162E+03  1.575737E+03
       127   7  1.211486E+03  8.463307E+02 -5.507336E+03  5.282343E+03 -9.516747E+03 -2.659153E+03
       127   8  1.070786E+03  7.916676E+03  1.521882E+03 -4.537709E+03 -7.575425E+03  8.104798E+01
       127   9 -2.197722E+03  3.040287E+03  3.680490E+03 -1.300168E+04 -5.064532E+03  1.302919E+03
       127  10 -9.523563E+04 -5.390656E+04 -3.413769E+04 -4.021598E+04  6.941854E-10 -1.915866E-11
       127  11 -8.936531E+04 -3.314354E+04 -1.960721E+04 -3.755167E+04 -2.740786E-09 -1.491864E-09
       127  12 -8.747489E+04 -2.517944E+04 -1.335301E+04 -3.353075E+04 -5.247355E-10 -6.911739E-10
       127  13 -4.701301E+04 -2.653054E+04 -1.982239E+04 -1.746761E+04 -2.525931E-09 -3.754469E-10
       127  14 -4.414824E+04 -1.261364E+04 -9.042620E+03 -2.104525E+04 -3.759660E-09 -8.725120E-10
       127  15 -4.483736E+04 -1.106966E+04 -4.836274E+03 -2.326655E+04 -1.656250E-09  6.479336E-10
       127  16  1.211387E+03  8.462988E+02 -5.507520E+03  5.282322E+03 -2.536516E-09 -9.605071E-10
       127  17  1.070724E+03  7.916661E+03  1.521774E+03 -4.537709E+03 -1.259802E-09 -6.200517E-11
       127  18 -2.197750E+03  3.040278E+03  3.680439E+03 -1.300167E+04  4.510948E-09  2.094071E-09
       127  19 -9.523533E+04 -5.390646E+04 -3.413711E+04 -4.021591E+04  1.665849E+04  5.337488E+03
       127  20 -8.936519E+04 -3.314351E+04 -1.960700E+04 -3.755166E+04  1.041902E+04  9.853552E+02
       127  21 -8.747487E+04 -2.517943E+04 -1.335298E+04 -3.353076E+04  3.609850E+03 -1.848539E+03
       127  22 -4.701282E+04 -2.653047E+04 -1.982204E+04 -1.746756E+04  1.308774E+04  3.998435E+03
       127  23 -4.414816E+04 -1.261361E+04 -9.042468E+03 -2.104525E+04  8.997274E+03  4.521845E+02
       127  24 -4.483734E+04 -1.106965E+04 -4.836234E+03 -2.326655E+04  4.337162E+03 -1.575737E+03
       127  25  1.211486E+03  8.463307E+02 -5.507336E+03  5.282343E+03  9.516747E+03  2.659153E+03
       127  26  1.070786E+03  7.916676E+03  1.521882E+03 -4.537709E+03  7.575425E+03 -8.104798E+01
       127  27 -2.197722E+03  3.040287E+03  3.680490E+03 -1.300168E+04  5.064532E+03 -1.302919E+03
       128   1 -8.103936E+04 -2.529129E+04 -1.125570E+04 -3.319448E+04 -3.236884E+03  1.648834E+03
       128   2 -7.492873E+04 -2.150724E+04 -8.041802E+03 -3.062667E+04 -1.976694E+03  1.717098E+03
       128   3 -6.785508E+04 -1.955502E+04 -5.805345E+03 -2.946650E+04 -6.781664E+02  1.683126E+03
       128   4 -4.423656E+04 -1.163147E+04 -3.695533E+03 -2.278896E+04 -3.666460E+03  1.487701E+03
       128   5 -4.468960E+04 -1.042563E+04 -1.952369E+03 -2.219922E+04 -2.550940E+03  1.501716E+03
       128   6 -4.415092E+04 -1.102296E+04 -1.071995E+03 -2.301716E+04 -1.397087E+03  1.413494E+03
       128   7 -7.432677E+03  2.028361E+03  3.864482E+03 -1.238295E+04 -4.096060E+03  1.326559E+03
       128   8 -1.444951E+04  6.560612E+02  4.137021E+03 -1.377139E+04 -3.125216E+03  1.286323E+03
       128   9 -2.044600E+04 -2.490787E+03  3.661382E+03 -1.656753E+04 -2.116043E+03  1.143849E+03
       128  10 -8.103937E+04 -2.529129E+04 -1.125573E+04 -3.319447E+04  5.233984E-09  1.836249E-09
       128  11 -7.492874E+04 -2.150725E+04 -8.041815E+03 -3.062667E+04 -8.858503E-10 -1.983513E-10
       128  12 -6.785508E+04 -1.955502E+04 -5.805351E+03 -2.946650E+04 -3.093326E-09 -3.115941E-10
       128  13 -4.423658E+04 -1.163147E+04 -3.695563E+03 -2.278895E+04 -2.393352E-09  7.624916E-10
       128  14 -4.468960E+04 -1.042563E+04 -1.952385E+03 -2.219922E+04 -3.980500E-09 -9.812066E-10
       128  15 -4.415093E+04 -1.102297E+04 -1.072003E+03 -2.301716E+04 -1.003879E-09 -5.948515E-10
       128  16 -7.432696E+03  2.028355E+03  3.864447E+03 -1.238295E+04 -1.233835E-09 -4.736665E-10
       128  17 -1.444952E+04  6.560568E+02  4.137000E+03 -1.377139E+04 -2.235008E-09 -1.359880E-09
       128  18 -2.044600E+04 -2.490790E+03  3.661371E+03 -1.656753E+04  1.828181E-09 -8.186043E-10
       128  19 -8.103936E+04 -2.529129E+04 -1.125570E+04 -3.319448E+04  3.236884E+03 -1.648834E+03
       128  20 -7.492873E+04 -2.150724E+04 -8.041802E+03 -3.062667E+04  1.976694E+03 -1.717098E+03
       128  21 -6.785508E+04 -1.955502E+04 -5.805345E+03 -2.946650E+04  6.781664E+02 -1.683126E+03
       128  22 -4.423656E+04 -1.163147E+04 -3.695533E+03 -2.278896E+04  3.666460E+03 -1.487701E+03
       128  23 -4.468960E+04 -1.042563E+04 -1.952369E+03 -2.219922E+04  2.550940E+03 -1.501716E+03
       128  24 -4.415092E+04 -1.102296E+04 -1.071995E+03 -2.301716E+04  1.397087E+03 -1.413494E+03
       128  25 -7.432677E+03  2.028361E+03  3.864482E+03 -1.238295E+04  4.096060E+03 -1.326559E+03
       128  26 -1.444951E+04  6.560612E+02  4.137021E+03 -1.377139E+04  3.125216E+03 -1.286323E+03
       128  27 -2.044600E+04 -2.490787E+03  3.661382E+03 -1.656753E+04  2.116043E+03 -1.143849E+03
       129   1 -6.321171E+04 -1.797596E+04 -4.597847E+03 -2.825050E+04 -4.367963E+02  1.436605E+03
       129   2 -5.717267E+04 -1.488270E+04 -2.917389E+03 -2.566095E+04 -1.929324E+01  1.026106E+03
       129   3 -4.986593E+04 -1.312276E+04 -1.414787E+03 -2.457286E+04  4.007816E+02  6.087103E+02
       129   4 -4.410716E+04 -1.104683E+04 -8.068744E+02 -2.298967E+04 -1.135702E+03  1.174483E+03
       129   5 -4.474113E+04 -1.037541E+04 -4.437508E+02 -2.224108E+04 -7.279503E+02  7.603325E+02
       129   6 -4.410549E+04 -1.103537E+04 -2.507437E+02 -2.299395E+04 -3.176307E+02  3.392845E+02
       129   7 -2.500224E+04 -4.117672E+03  2.984081E+03 -1.772870E+04 -1.834631E+03  9.123531E+02
       129   8 -3.230948E+04 -5.868135E+03  2.029868E+03 -1.882117E+04 -1.436620E+03  4.945543E+02
       129   9 -3.834507E+04 -8.947985E+03  9.132866E+02 -2.141503E+04 -1.036044E+03  6.985838E+01
       129  10 -6.321171E+04 -1.797596E+04 -4.597851E+03 -2.825050E+04 -7.720902E-10  4.801040E-10
       129  11 -5.717267E+04 -1.488270E+04 -2.917391E+03 -2.566095E+04 -6.002552E-10 -5.915067E-10
       129  12 -4.986593E+04 -1.312276E+04 -1.414788E+03 -2.457286E+04 -8.530795E-10 -3.868888E-10
       129  13 -4.410716E+04 -1.104683E+04 -8.068794E+02 -2.298967E+04  6.407184E-10 -2.765257E-10
       129  14 -4.474113E+04 -1.037542E+04 -4.437529E+02 -2.224108E+04  3.802936E-10 -3.620879E-10
       129  15 -4.410549E+04 -1.103537E+04 -2.507441E+02 -2.299395E+04 -7.704311E-10 -1.706483E-10
       129  16 -2.500225E+04 -4.117674E+03  2.984073E+03 -1.772870E+04 -5.245776E-10 -9.771540E-10
       129  17 -3.230948E+04 -5.868136E+03  2.029863E+03 -1.882117E+04 -2.624342E-11 -1.306919E-10
       129  18 -3.834507E+04 -8.947985E+03  9.132846E+02 -2.141503E+04  5.176587E-10  6.066718E-11
       129  19 -6.321171E+04 -1.797596E+04 -4.597847E+03 -2.825050E+04  4.367963E+02 -1.436605E+03
       129  20 -5.717267E+04 -1.488270E+04 -2.917389E+03 -2.566095E+04  1.929324E+01 -1.026106E+03
       129  21 -4.986593E+04 -1.312276E+04 -1.414787E+03 -2.457286E+04 -4.007816E+02 -6.087103E+02
       129  22 -4.410716E+04 -1.104683E+04 -8.068744E+02 -2.298967E+04  1.135702E+03 -1.174483E+03
       129  23 -4.474113E+04 -1.037541E+04 -4.437508E+02 -2.224108E+04  7.279503E+02 -7.603325E+02
       129  24 -4.410549E+04 -1.103537E+04 -2.507437E+02 -2.299395E+04  3.176307E+02 -3.392845E+02
       129  25 -2.500224E+04 -4.117672E+03  2.984081E+03 -1.772870E+04  1.834631E+03 -9.123531E+02
       129  26 -3.230948E+04 -5.868135E+03  2.029868E+03 -1.882117E+04  1.436620E+03 -4.945543E+02
       129  27 -3.834507E+04 -8.947985E+03  9.132866E+02 -2.141503E+04  1.036044E+03 -6.985838E+01
       130   1 -4.531928E+04 -1.146664E+04 -4.155114E+02 -2.331923E+04  5.470892E+02  3.266874E+02
       130   2 -3.929986E+04 -8.390359E+03  9.635013E+02 -2.072382E+04  7.979845E+02 -1.572345E+02
       130   3 -3.198206E+04 -6.622729E+03  2.297070E+03 -1.962785E+04  1.049032E+03 -6.415617E+02
       130   4 -4.409996E+04 -1.103623E+04 -1.930656E+02 -2.299130E+04 -1.699837E+02  5.776476E+01
       130   5 -4.474926E+04 -1.038303E+04 -1.210606E+02 -2.224113E+04  8.032843E+01 -4.263797E+02
       130   6 -4.410027E+04 -1.103844E+04 -9.408400E+01 -2.299047E+04  3.307918E+02 -9.109288E+02
       130   7 -4.288062E+04 -1.060582E+04  2.938518E+01 -2.266336E+04 -8.870641E+02 -2.111607E+02
       130   8 -5.019866E+04 -1.237572E+04 -1.205628E+03 -2.375843E+04 -6.373240E+02 -6.955236E+02
       130   9 -5.621833E+04 -1.545414E+04 -2.485244E+03 -2.635303E+04 -3.874339E+02 -1.180290E+03
       130  10 -4.531928E+04 -1.146664E+04 -4.155122E+02 -2.331923E+04 -4.451084E-10  9.469163E-11
       130  11 -3.929986E+04 -8.390360E+03  9.635000E+02 -2.072382E+04  5.121028E-10  1.498119E-10
       130  12 -3.198207E+04 -6.622729E+03  2.297068E+03 -1.962785E+04 -7.404511E-11  1.305876E-10
       130  13 -4.409996E+04 -1.103623E+04 -1.930657E+02 -2.299130E+04  5.600883E-10 -4.444470E-11
       130  14 -4.474926E+04 -1.038303E+04 -1.210610E+02 -2.224113E+04 -2.838280E-11  8.347771E-11
       130  15 -4.410027E+04 -1.103844E+04 -9.408577E+01 -2.299047E+04  1.693559E-10  3.900623E-10
       130  16 -4.288062E+04 -1.060582E+04  2.938362E+01 -2.266336E+04  1.018080E-09 -1.678918E-10
       130  17 -5.019866E+04 -1.237572E+04 -1.205630E+03 -2.375843E+04 -1.594525E-10  4.288263E-11
       130  18 -5.621833E+04 -1.545414E+04 -2.485247E+03 -2.635303E+04 -5.150694E-10  5.356073E-10
       130  19 -4.531928E+04 -1.146664E+04 -4.155114E+02 -2.331923E+04 -5.470892E+02 -3.266874E+02
       130  20 -3.929986E+04 -8.390359E+03  9.635013E+02 -2.072382E+04 -7.979845E+02  1.572345E+02
       130  21 -3.198206E+04 -6.622729E+03  2.297070E+03 -1.962785E+04 -1.049032E+03  6.415617E+02
       130  22 -4.409996E+04 -1.103623E+04 -1.930656E+02 -2.299130E+04  1.699837E+02 -5.776476E+01
       130  23 -4.474926E+04 -1.038303E+04 -1.210606E+02 -2.224113E+04 -8.032843E+01  4.263797E+02
       130  24 -4.410027E+04 -1.103844E+04 -9.408400E+01 -2.299047E+04 -3.307918E+02  9.109288E+02
       130  25 -4.288062E+04 -1.060582E+04  2.938518E+01 -2.266336E+04  8.870641E+02  2.111607E+02
       130  26 -5.019866E+04 -1.237572E+04 -1.205628E+03 -2.375843E+04  6.373240E+02  6.955236E+02
       130  27 -5.621833E+04 -1.545414E+04 -2.485244E+03 -2.635303E+04  3.874339E+02  1.180290E+03
       131   1 -2.744464E+04 -4.963042E+03  3.239115E+03 -1.837359E+04  1.175508E+03 -9.309929E+02
       131   2 -2.142565E+04 -1.884893E+03  4.521628E+03 -1.577883E+04  1.423191E+03 -1.416448E+03
       131   3 -1.410807E+04 -1.150977E+02  5.761164E+03 -1.468340E+04  1.670619E+03 -1.901209E+03
       131   4 -4.410035E+04 -1.103847E+04 -9.346196E+01 -2.299045E+04  4.572332E+02 -1.200375E+03
       131   5 -4.474942E+04 -1.038338E+04 -1.174889E+02 -2.224110E+04  7.058889E+02 -1.685473E+03
       131   6 -4.410012E+04 -1.103681E+04 -1.852568E+02 -2.299108E+04  9.542908E+02 -2.169879E+03
       131   7 -6.075563E+04 -1.711383E+04 -3.426013E+03 -2.760715E+04 -2.610154E+02 -1.469748E+03
       131   8 -6.807262E+04 -1.888181E+04 -4.756629E+03 -2.870314E+04 -1.138414E+01 -1.954487E+03
       131   9 -7.409149E+04 -2.195853E+04 -6.131786E+03 -3.129845E+04  2.379939E+02 -2.438537E+03
       131  10 -2.744464E+04 -4.963044E+03  3.239111E+03 -1.837359E+04 -6.933319E-10  2.203703E-10
       131  11 -2.142565E+04 -1.884895E+03  4.521620E+03 -1.577883E+04 -3.041704E-10  2.835112E-10
       131  12 -1.410807E+04 -1.151023E+02  5.761152E+03 -1.468340E+04  4.180456E-10 -7.419855E-10
       131  13 -4.410035E+04 -1.103848E+04 -9.346506E+01 -2.299045E+04 -7.473167E-10  6.426245E-10
       131  14 -4.474942E+04 -1.038338E+04 -1.174951E+02 -2.224109E+04 -1.042176E-09  6.794898E-10
       131  15 -4.410012E+04 -1.103681E+04 -1.852674E+02 -2.299107E+04  1.969677E-10 -2.164414E-10
       131  16 -6.075563E+04 -1.711383E+04 -3.426017E+03 -2.760715E+04  2.584562E-10  1.067044E-09
       131  17 -6.807262E+04 -1.888182E+04 -4.756636E+03 -2.870314E+04  1.018087E-10  1.084866E-09
       131  18 -7.409149E+04 -2.195854E+04 -6.131797E+03 -3.129845E+04 -1.817433E-10  4.469639E-10
       131  19 -2.744464E+04 -4.963042E+03  3.239115E+03 -1.837359E+04 -1.175508E+03  9.309929E+02
       131  20 -2.142565E+04 -1.884893E+03  4.521628E+03 -1.577883E+04 -1.423191E+03  1.416448E+03
       131  21 -1.410807E+04 -1.150977E+02  5.761164E+03 -1.468340E+04 -1.670619E+03  1.901209E+03
       131  22 -4.410035E+04 -1.103847E+04 -9.346196E+01 -2.299045E+04 -4.572332E+02  1.200375E+03
       131  23 -4.474942E+04 -1.038338E+04 -1.174889E+02 -2.224110E+04 -7.058889E+02  1.685473E+03
       131  24 -4.410012E+04 -1.103681E+04 -1.852568E+02 -2.299108E+04 -9.542908E+02  2.169879E+03
       131  25 -6.075563E+04 -1.711383E+04 -3.426013E+03 -2.760715E+04  2.610154E+02  1.469748E+03
       131  26 -6.807262E+04 -1.888181E+04 -4.756629E+03 -2.870314E+04  1.138414E+01  1.954487E+03
       131  27 -7.409149E+04 -2.195853E+04 -6.131786E+03 -3.129845E+04 -2.379939E+02  2.438537E+03
       132   1 -9.573422E+03  1.542673E+03  6.647825E+03 -1.343472E+04  1.818708E+03 -2.182501E+03
       132   2 -3.540704E+03  4.622219E+03  7.775180E+03 -1.084113E+04  2.203652E+03 -2.610957E+03
       132   3  3.765470E+03  6.374529E+03  8.751615E+03 -9.748352E+03  2.584715E+03 -3.029028E+03
       132   4 -4.410563E+04 -1.103603E+04 -2.400059E+02 -2.299355E+04  1.100395E+03 -2.451923E+03
       132   5 -4.474185E+04 -1.037661E+04 -4.236229E+02 -2.224108E+04  1.500025E+03 -2.874885E+03
       132   6 -4.410753E+04 -1.104734E+04 -7.697918E+02 -2.298945E+04  1.895770E+03 -3.287463E+03
       132   7 -7.863659E+04 -2.361463E+04 -7.127888E+03 -3.255189E+04  3.821257E+02 -2.721329E+03
       132   8 -8.594106E+04 -2.537522E+04 -8.622454E+03 -3.364028E+04  7.964513E+02 -3.138794E+03
       132   9 -9.197776E+04 -2.846886E+04 -1.029119E+04 -3.622949E+04  1.206888E+03 -3.545875E+03
       132  10 -9.573427E+03  1.542667E+03  6.647810E+03 -1.343471E+04 -9.413650E-09 -4.903324E-09
       132  11 -3.540712E+03  4.622210E+03  7.775158E+03 -1.084112E+04  6.675090E-10  9.369192E-10
       132  12  3.765460E+03  6.374517E+03  8.751585E+03 -9.748346E+03  1.260353E-08  9.056240E-09
       132  13 -4.410563E+04 -1.103604E+04 -2.400194E+02 -2.299355E+04 -5.848953E-10 -1.549505E-09
       132  14 -4.474185E+04 -1.037662E+04 -4.236426E+02 -2.224108E+04 -2.109950E-09 -3.919001E-09
       132  15 -4.410754E+04 -1.104735E+04 -7.698189E+02 -2.298944E+04  6.015214E-10 -5.097711E-09
       132  16 -7.863659E+04 -2.361464E+04 -7.127902E+03 -3.255189E+04  8.404226E-09  4.045551E-09
       132  17 -8.594106E+04 -2.537523E+04 -8.622474E+03 -3.364028E+04 -1.717918E-09  7.631873E-10
       132  18 -9.197776E+04 -2.846887E+04 -1.029122E+04 -3.622949E+04 -1.083795E-08 -1.760555E-09
       132  19 -9.573422E+03  1.542673E+03  6.647825E+03 -1.343472E+04 -1.818708E+03  2.182501E+03
       132  20 -3.540704E+03  4.622219E+03  7.775180E+03 -1.084113E+04 -2.203652E+03  2.610957E+03
       132  21  3.765470E+03  6.374529E+03  8.751615E+03 -9.748352E+03 -2.584715E+03  3.029028E+03
       132  22 -4.410563E+04 -1.103603E+04 -2.400059E+02 -2.299355E+04 -1.100395E+03  2.451923E+03
       132  23 -4.474185E+04 -1.037661E+04 -4.236229E+02 -2.224108E+04 -1.500025E+03  2.874885E+03
       132  24 -4.410753E+04 -1.104734E+04 -7.697918E+02 -2.298945E+04 -1.895770E+03  3.287463E+03
       132  25 -7.863659E+04 -2.361463E+04 -7.127888E+03 -3.255189E+04 -3.821257E+02  2.721329E+03
       132  26 -8.594106E+04 -2.537522E+04 -8.622454E+03 -3.364028E+04 -7.964513E+02  3.138794E+03
       132  27 -9.197776E+04 -2.846886E+04 -1.029119E+04 -3.622949E+04 -1.206888E+03  3.545875E+03
       133   1  8.320980E+03  8.004212E+03  9.441503E+03 -8.581273E+03  2.869292E+03 -3.259312E+03
       133   2  1.431081E+04  1.114819E+04  9.982658E+03 -5.800243E+03  3.750426E+03 -3.420424E+03
       133   3  2.134671E+04  1.255878E+04  9.873458E+03 -4.426816E+03  4.573931E+03 -3.427775E+03
       133   4 -4.414965E+04 -1.102391E+04 -1.022470E+03 -2.301470E+04  2.150263E+03 -3.529042E+03
       133   5 -4.469208E+04 -1.042590E+04 -1.861934E+03 -2.220205E+04  3.248976E+03 -3.608563E+03
       133   6 -4.423173E+04 -1.160450E+04 -3.524209E+03 -2.279710E+04  4.290050E+03 -3.534316E+03
       133   7 -9.661788E+04 -3.005197E+04 -1.148670E+04 -3.744713E+04  1.431293E+03 -3.798749E+03
       133   8 -1.036916E+05 -3.199978E+04 -1.370677E+04 -3.860248E+04  2.747576E+03 -3.796683E+03
       133   9 -1.098058E+05 -3.576740E+04 -1.692210E+04 -4.116559E+04  4.006200E+03 -3.640845E+03
       133  10  8.320968E+03  8.004198E+03  9.441468E+03 -8.581266E+03 -1.209986E-08 -2.071140E-10
       133  11  1.431079E+04  1.114817E+04  9.982610E+03 -5.800232E+03  3.745876E-09  3.257563E-09
       133  12  2.134668E+04  1.255876E+04  9.873397E+03 -4.426803E+03  1.502107E-08  5.239498E-09
       133  13 -4.414965E+04 -1.102393E+04 -1.022502E+03 -2.301469E+04  2.946139E-09 -4.128325E-09
       133  14 -4.469210E+04 -1.042591E+04 -1.861979E+03 -2.220204E+04  6.515191E-09 -1.578394E-09
       133  15 -4.423175E+04 -1.160452E+04 -3.524267E+03 -2.279709E+04  1.092864E-09 -1.722237E-10
       133  16 -9.661788E+04 -3.005199E+04 -1.148673E+04 -3.744712E+04  1.986168E-08  9.486212E-09
       133  17 -1.036917E+05 -3.199979E+04 -1.370681E+04 -3.860247E+04  8.150023E-09  3.554905E-09
       133  18 -1.098058E+05 -3.576742E+04 -1.692216E+04 -4.116558E+04 -1.180529E-08 -3.405398E-09
       133  19  8.320980E+03  8.004212E+03  9.441503E+03 -8.581273E+03 -2.869292E+03  3.259312E+03
       133  20  1.431081E+04  1.114819E+04  9.982658E+03 -5.800243E+03 -3.750426E+03  3.420424E+03
       133  21  2.134671E+04  1.255878E+04  9.873458E+03 -4.426816E+03 -4.573931E+03  3.427775E+03
       133  22 -4.414965E+04 -1.102391E+04 -1.022470E+03 -2.301470E+04 -2.150263E+03  3.529042E+03
       133  23 -4.469208E+04 -1.042590E+04 -1.861934E+03 -2.220205E+04 -3.248976E+03  3.608563E+03
       133  24 -4.423173E+04 -1.160450E+04 -3.524209E+03 -2.279710E+04 -4.290050E+03  3.534316E+03
       133  25 -9.661788E+04 -3.005197E+04 -1.148670E+04 -3.744713E+04 -1.431293E+03  3.798749E+03
       133  26 -1.036916E+05 -3.199978E+04 -1.370677E+04 -3.860248E+04 -2.747576E+03  3.796683E+03
       133  27 -1.098058E+05 -3.576740E+04 -1.692210E+04 -4.116559E+04 -4.006200E+03  3.640845E+03
       134   1  2.657428E+04  1.362144E+04  9.749579E+03 -4.939484E+03  5.666978E+03 -3.358610E+03
       134   2  2.989795E+04  1.843359E+04  8.159247E+03  3.173033E+03  6.732312E+03 -2.246018E+03
       134   3  3.049324E+04  1.206761E+04  2.861031E+03  1.255615E+04  6.941141E+03  1.149692E+03
       134   4 -4.481275E+04 -1.106069E+04 -4.611966E+03 -2.324319E+04  4.935283E+03 -3.633137E+03
       134   5 -4.416622E+04 -1.252260E+04 -8.623117E+03 -2.111341E+04  9.232577E+03 -1.308141E+03
       134   6 -4.688868E+04 -2.580363E+04 -1.890278E+04 -1.771315E+04  1.267329E+04  3.300040E+03
       134   7 -1.161944E+05 -3.574249E+04 -1.897373E+04 -4.154498E+04  4.203679E+03 -3.907635E+03
       134   8 -1.182239E+05 -4.347751E+04 -2.540555E+04 -4.539674E+04  1.173249E+04 -3.704338E+02
       134   9 -1.242627E+05 -6.367226E+04 -4.066648E+04 -4.797792E+04  1.840454E+04  5.449841E+03
       134  10  2.657424E+04  1.362142E+04  9.749498E+03 -4.939469E+03  1.258343E-09 -1.718116E-10
       134  11  2.989790E+04  1.843357E+04  8.159152E+03  3.173046E+03  5.957962E-10  3.516985E-10
       134  12  3.049319E+04  1.206759E+04  2.860938E+03  1.255615E+04  8.219568E-10  5.127597E-10
       134  13 -4.481278E+04 -1.106071E+04 -4.612036E+03 -2.324317E+04 -5.090980E-10  1.294430E-10
       134  14 -4.416631E+04 -1.252263E+04 -8.623281E+03 -2.111340E+04  3.973414E-10  4.115050E-10
       134  15 -4.688885E+04 -2.580369E+04 -1.890310E+04 -1.771318E+04  2.882329E-10  5.803511E-10
       134  16 -1.161945E+05 -3.574251E+04 -1.897379E+04 -4.154496E+04 -1.077682E-09  3.513505E-10
       134  17 -1.182240E+05 -4.347754E+04 -2.540581E+04 -4.539674E+04 -6.468954E-10  4.224180E-10
       134  18 -1.242631E+05 -6.367238E+04 -4.066717E+04 -4.797800E+04 -3.769591E-10 -1.541341E-10
       134  19  2.657428E+04  1.362144E+04  9.749579E+03 -4.939484E+03 -5.666978E+03  3.358610E+03
       134  20  2.989795E+04  1.843359E+04  8.159247E+03  3.173033E+03 -6.732312E+03  2.246018E+03
       134  21  3.049324E+04  1.206761E+04  2.861031E+03  1.255615E+04 -6.941141E+03 -1.149692E+03
       134  22 -4.481275E+04 -1.106069E+04 -4.611966E+03 -2.324319E+04 -4.935283E+03  3.633137E+03
       134  23 -4.416622E+04 -1.252260E+04 -8.623117E+03 -2.111341E+04 -9.232577E+03  1.308141E+03
       134  24 -4.688868E+04 -2.580363E+04 -1.890278E+04 -1.771315E+04 -1.267329E+04 -3.300040E+03
       134  25 -1.161944E+05 -3.574249E+04 -1.897373E+04 -4.154498E+04 -4.203679E+03  3.907635E+03
       134  26 -1.182239E+05 -4.347751E+04 -2.540555E+04 -4.539674E+04 -1.173249E+04  3.704338E+02
       134  27 -1.242627E+05 -6.367226E+04 -4.066648E+04 -4.797792E+04 -1.840454E+04 -5.449841E+03
       135   1  2.226590E+05  3.530140E+04  3.143120E+04  3.725337E+03  9.243757E+03 -2.654686E+03
       135   2  2.133332E+05  3.920708E+04  2.627325E+04  7.071378E+03  3.800141E+03 -9.160494E+03
       135   3  2.037137E+05  3.909581E+04  2.365557E+04  1.177017E+04 -1.644034E+03 -1.159999E+04
       135   4  2.964229E+04 -1.219407E+04 -1.307914E+04  1.182463E+04 -9.201325E+03 -2.658876E+03
       135   5  3.055236E+04 -3.902312E+03 -6.531656E+03  1.114672E+04 -5.859307E+03 -9.163178E+03
       135   6  2.964320E+04 -1.153321E+03 -3.544243E+03  1.182159E+04 -2.518051E+03 -1.160055E+04
       135   7 -1.633391E+05 -5.969172E+04 -5.759066E+04  1.992138E+04 -2.764072E+04 -2.663548E+03
       135   8 -1.521957E+05 -4.701345E+04 -3.933749E+04  1.522082E+04 -1.551599E+04 -9.165989E+03
       135   9 -1.443971E+05 -4.140394E+04 -3.074477E+04  1.187299E+04 -3.391832E+03 -1.160111E+04
       135  10  2.226589E+05  3.530137E+04  3.143103E+04  3.725356E+03 -1.365622E-10 -6.061563E-11
       135  11  2.133332E+05  3.920699E+04  2.627307E+04  7.071406E+03 -4.172097E-11 -3.097017E-10
       135  12  2.037137E+05  3.909567E+04  2.365531E+04  1.177016E+04 -7.040531E-10 -6.991098E-11
       135  13  2.964220E+04 -1.219410E+04 -1.307932E+04  1.182461E+04  1.492627E-11  1.792812E-10
       135  14  3.055230E+04 -3.902411E+03 -6.531879E+03  1.114667E+04  8.396931E-10 -9.466911E-11
       135  15  2.964316E+04 -1.153467E+03 -3.544508E+03  1.182157E+04  1.024166E-09  3.862223E-10
       135  16 -1.633399E+05 -5.969193E+04 -5.759210E+04  1.992132E+04 -1.917959E-10  1.102124E-10
       135  17 -1.521960E+05 -4.701361E+04 -3.933810E+04  1.522071E+04 -6.640371E-10 -5.387662E-10
       135  18 -1.443971E+05 -4.140409E+04 -3.074505E+04  1.187296E+04  4.683823E-11 -4.400058E-10
       135  19  2.226590E+05  3.530140E+04  3.143120E+04  3.725337E+03 -9.243757E+03  2.654686E+03
       135  20  2.133332E+05  3.920708E+04  2.627325E+04  7.071378E+03 -3.800141E+03  9.160494E+03
       135  21  2.037137E+05  3.909581E+04  2.365557E+04  1.177017E+04  1.644034E+03  1.159999E+04
       135  22  2.964229E+04 -1.219407E+04 -1.307914E+04  1.182463E+04  9.201325E+03  2.658876E+03
       135  23  3.055236E+04 -3.902312E+03 -6.531656E+03  1.114672E+04  5.859307E+03  9.163178E+03
       135  24  2.964320E+04 -1.153321E+03 -3.544243E+03  1.182159E+04  2.518051E+03  1.160055E+04
       135  25 -1.633391E+05 -5.969172E+04 -5.759066E+04  1.992138E+04  2.764072E+04  2.663548E+03
       135  26 -1.521957E+05 -4.701345E+04 -3.933749E+04  1.522082E+04  1.551599E+04  9.165989E+03
       135  27 -1.443971E+05 -4.140394E+04 -3.074477E+04  1.187299E+04  3.391832E+03  1.160111E+04
       136   1  1.979122E+05  3.779238E+04  2.289685E+04  1.144201E+04 -1.248521E+03 -1.167558E+04
       136   2  1.884818E+05  3.602381E+04  2.154740E+04  1.088825E+04 -1.593175E+03 -1.180399E+04
       136   3  1.790288E+05  3.398391E+04  2.035468E+04  1.198182E+04 -1.938009E+03 -1.143858E+04
       136   4  3.000168E+04 -8.955337E+02 -2.656805E+03  1.188723E+04 -2.058779E+03 -1.167613E+04
       136   5  3.010603E+04 -2.450521E+02 -1.442740E+03  1.106341E+04 -1.336636E+03 -1.180421E+04
       136   6  3.000266E+04 -5.109819E+01 -8.126882E+02  1.188695E+04 -6.146624E+02 -1.143840E+04
       136   7 -1.378806E+05 -3.958479E+04 -2.821106E+04  1.233233E+04 -2.868827E+03 -1.167668E+04
       136   8 -1.282444E+05 -3.651507E+04 -2.443329E+04  1.123852E+04 -1.080161E+03 -1.180443E+04
       136   9 -1.190010E+05 -3.408711E+04 -2.198037E+04  1.179209E+04  7.083805E+02 -1.143822E+04
       136  10  1.979122E+05  3.779223E+04  2.289659E+04  1.144200E+04 -1.805910E-09 -2.185237E-10
       136  11  1.884817E+05  3.602366E+04  2.154713E+04  1.088823E+04 -2.647190E-10  4.217205E-10
       136  12  1.790287E+05  3.398377E+04  2.035443E+04  1.198181E+04  4.354301E-10  6.335963E-10
       136  13  3.000164E+04 -8.956813E+02 -2.657069E+03  1.188721E+04 -2.114983E-12  2.530576E-11
       136  14  3.010599E+04 -2.452022E+02 -1.443006E+03  1.106340E+04 -4.976513E-10  4.261311E-10
       136  15  3.000262E+04 -5.123879E+01 -8.129347E+02  1.188694E+04  1.776579E-10  3.144362E-11
       136  16 -1.378807E+05 -3.958494E+04 -2.821133E+04  1.233230E+04  2.234781E-09  5.218052E-10
       136  17 -1.282445E+05 -3.651522E+04 -2.443355E+04  1.123851E+04  3.451436E-10  8.622898E-10
       136  18 -1.190010E+05 -3.408725E+04 -2.198061E+04  1.179210E+04  5.165633E-10  4.671096E-10
       136  19  1.979122E+05  3.779238E+04  2.289685E+04  1.144201E+04  1.248521E+03  1.167558E+04
       136  20  1.884818E+05  3.602381E+04  2.154740E+04  1.088825E+04  1.593175E+03  1.180399E+04
       136  21  1.790288E+05  3.398391E+04  2.035468E+04  1.198182E+04  1.938009E+03  1.143858E+04
       136  22  3.000168E+04 -8.955337E+02 -2.656805E+03  1.188723E+04  2.058779E+03  1.167613E+04
       136  23  3.010603E+04 -2.450521E+02 -1.442740E+03  1.106341E+04  1.336636E+03  1.180421E+04
       136  24  3.000266E+04 -5.109819E+01 -8.126882E+02  1.188695E+04  6.146624E+02  1.143840E+04
       136  25 -1.378806E+05 -3.958479E+04 -2.821106E+04  1.233233E+04  2.868827E+03  1.167668E+04
       136  26 -1.282444E+05 -3.651507E+04 -2.443329E+04  1.123852E+04  1.080161E+03  1.180443E+04
       136  27 -1.190010E+05 -3.408711E+04 -2.198037E+04  1.179209E+04 -7.083805E+02  1.143822E+04
       137   1  1.731405E+05  3.262179E+04  1.960049E+04  1.194422E+04 -1.824301E+03 -1.106268E+04
       137   2  1.637079E+05  3.048372E+04  1.841597E+04  1.110734E+04 -1.782723E+03 -1.041667E+04
       137   3  1.542668E+05  2.833390E+04  1.720138E+04  1.195263E+04 -1.741221E+03 -9.710714E+03
       137   4  3.004222E+04 -3.724084E+01 -6.137853E+02  1.189471E+04 -4.932958E+02 -1.106247E+04
       137   5  3.005822E+04  4.641181E+00 -3.451180E+02  1.105361E+04 -3.222549E+02 -1.041635E+04
       137   6  3.004307E+04  1.230719E+01 -1.964305E+02  1.189469E+04 -1.512889E+02 -9.710285E+03
       137   7 -1.130353E+05 -3.269719E+04 -2.082833E+04  1.184521E+04  8.374156E+02 -1.106225E+04
       137   8 -1.035734E+05 -3.047523E+04 -1.910643E+04  1.099988E+04  1.137913E+03 -1.041603E+04
       137   9 -9.416498E+04 -2.830997E+04 -1.759443E+04  1.183676E+04  1.438340E+03 -9.709856E+03
       137  10  1.731405E+05  3.262166E+04  1.960025E+04  1.194420E+04 -2.440868E-09  1.069792E-09
       137  11  1.637079E+05  3.048360E+04  1.841576E+04  1.110733E+04 -1.316661E-09  1.406608E-09
       137  12  1.542667E+05  2.833379E+04  1.720120E+04  1.195261E+04 -1.839138E-09  6.978456E-10
       137  13  3.004219E+04 -3.737232E+01 -6.140158E+02  1.189470E+04 -1.101491E-09  1.566788E-10
       137  14  3.005819E+04  4.524641E+00 -3.453220E+02  1.105361E+04  1.662237E-09  1.601823E-09
       137  15  3.004305E+04  1.220593E+01 -1.966078E+02  1.189469E+04  1.988029E-10  1.591246E-09
       137  16 -1.130353E+05 -3.269733E+04 -2.082856E+04  1.184521E+04  2.427808E-09  9.237548E-10
       137  17 -1.035734E+05 -3.047535E+04 -1.910663E+04  1.099989E+04  1.099594E-09  1.853685E-09
       137  18 -9.416501E+04 -2.831007E+04 -1.759461E+04  1.183677E+04  1.283948E-09  1.045206E-09
       137  19  1.731405E+05  3.262179E+04  1.960049E+04  1.194422E+04  1.824301E+03  1.106268E+04
       137  20  1.637079E+05  3.048372E+04  1.841597E+04  1.110734E+04  1.782723E+03  1.041667E+04
       137  21  1.542668E+05  2.833390E+04  1.720138E+04  1.195263E+04  1.741221E+03  9.710714E+03
       137  22  3.004222E+04 -3.724084E+01 -6.137853E+02  1.189471E+04  4.932958E+02  1.106247E+04
       137  23  3.005822E+04  4.641181E+00 -3.451180E+02  1.105361E+04  3.222549E+02  1.041635E+04
       137  24  3.004307E+04  1.230719E+01 -1.964305E+02  1.189469E+04  1.512889E+02  9.710285E+03
       137  25 -1.130353E+05 -3.269719E+04 -2.082833E+04  1.184521E+04 -8.374156E+02  1.106225E+04
       137  26 -1.035734E+05 -3.047523E+04 -1.910643E+04  1.099988E+04 -1.137913E+03  1.041603E+04
       137  27 -9.416498E+04 -2.830997E+04 -1.759443E+04  1.183676E+04 -1.438340E+03  9.709856E+03
       138   1  1.483737E+05  2.697999E+04  1.638086E+04  1.194585E+04 -1.711444E+03 -9.280058E+03
       138   2  1.389403E+05  2.482932E+04  1.512815E+04  1.109735E+04 -1.686477E+03 -8.540095E+03
       138   3  1.295034E+05  2.268071E+04  1.385947E+04  1.193470E+04 -1.661561E+03 -7.792883E+03
       138   4  3.004885E+04  1.171162E+01 -1.481275E+02  1.189551E+04 -1.206311E+02 -9.279595E+03
       138   5  3.005239E+04  1.177088E+01 -8.258549E+01  1.105258E+04 -8.003432E+01 -8.539574E+03
       138   6  3.004955E+04  1.113389E+01 -4.392307E+01  1.189551E+04 -3.948752E+01 -7.792304E+03
       138   7 -8.826185E+04 -2.695718E+04 -1.667729E+04  1.184518E+04  1.469892E+03 -9.279132E+03
       138   8 -7.882349E+04 -2.480630E+04 -1.529346E+04  1.100781E+04  1.526140E+03 -8.539053E+03
       138   9 -6.939428E+04 -2.265888E+04 -1.394743E+04  1.185632E+04  1.582338E+03 -7.791725E+03
       138  10  1.483737E+05  2.697989E+04  1.638070E+04  1.194584E+04 -6.446664E-08 -6.819465E-11
       138  11  1.389403E+05  2.482924E+04  1.512801E+04  1.109734E+04 -9.323701E-10 -2.263131E-10
       138  12  1.295034E+05  2.268064E+04  1.385935E+04  1.193469E+04  6.200608E-08 -4.578627E-10
       138  13  3.004882E+04  1.161915E+01 -1.482894E+02  1.189551E+04 -7.032169E-12  6.029110E-11
       138  14  3.005237E+04  1.169257E+01 -8.272254E+01  1.105257E+04 -7.420330E-10 -4.187449E-10
       138  15  3.004953E+04  1.106868E+01 -4.403718E+01  1.189551E+04 -2.219240E-10 -1.121721E-09
       138  16 -8.826188E+04 -2.695728E+04 -1.667745E+04  1.184519E+04  6.491204E-08  3.526341E-11
       138  17 -7.882351E+04 -2.480638E+04 -1.529361E+04  1.100782E+04  1.107720E-09 -1.368654E-09
       138  18 -6.939429E+04 -2.265894E+04 -1.394755E+04  1.185633E+04 -6.288991E-08 -1.491849E-09
       138  19  1.483737E+05  2.697999E+04  1.638086E+04  1.194585E+04  1.711444E+03  9.280058E+03
       138  20  1.389403E+05  2.482932E+04  1.512815E+04  1.109735E+04  1.686477E+03  8.540095E+03
       138  21  1.295034E+05  2.268071E+04  1.385947E+04  1.193470E+04  1.661561E+03  7.792883E+03
       138  22  3.004885E+04  1.171162E+01 -1.481275E+02  1.189551E+04  1.206311E+02  9.279595E+03
       138  23  3.005239E+04  1.177088E+01 -8.258549E+01  1.105258E+04  8.003432E+01  8.539574E+03
       138  24  3.004955E+04  1.113389E+01 -4.392307E+01  1.189551E+04  3.948752E+01  7.792304E+03
       138  25 -8.826185E+04 -2.695718E+04 -1.667729E+04  1.184518E+04 -1.469892E+03  9.279132E+03
       138  26 -7.882349E+04 -2.480630E+04 -1.529346E+04  1.100781E+04 -1.526140E+03  8.539053E+03
       138  27 -6.939428E+04 -2.265888E+04 -1.394743E+04  1.185632E+04 -1.582338E+03  7.791725E+03
       139   1  1.236098E+05  2.132983E+04  1.301440E+04  1.193243E+04 -1.655028E+03 -7.355621E+03
       139   2  1.141764E+05  1.918155E+04  1.173357E+04  1.108558E+04 -1.652306E+03 -6.604370E+03
       139   3  1.047418E+05  1.703543E+04  1.045104E+04  1.192571E+04 -1.649621E+03 -5.852355E+03
       139   4  3.005085E+04  1.076827E+01 -3.040918E+01  1.189576E+04 -3.289520E+01 -7.355015E+03
       139   5  3.005186E+04  9.461191E+00 -9.451467E+00  1.105227E+04 -2.852472E+01 -6.603723E+03
       139   6  3.005139E+04  1.006067E+01  8.709894E+00  1.189576E+04 -2.419063E+01 -5.851667E+03
       139   7 -6.349926E+04 -2.130868E+04 -1.307532E+04  1.185910E+04  1.589004E+03 -7.354409E+03
       139   8 -5.406555E+04 -1.916294E+04 -1.175255E+04  1.101896E+04  1.595046E+03 -6.603076E+03
       139   9 -4.463337E+04 -1.701555E+04 -1.043369E+04  1.186582E+04  1.601053E+03 -5.850979E+03
       139  10  1.236098E+05  2.132977E+04  1.301430E+04  1.193242E+04 -2.330627E-08 -5.344655E-11
       139  11  1.141764E+05  1.918151E+04  1.173348E+04  1.108557E+04  7.096507E-09  2.931920E-09
       139  12  1.047418E+05  1.703539E+04  1.045097E+04  1.192570E+04  3.836727E-08  6.433883E-09
       139  13  3.005083E+04  1.071018E+01 -3.051085E+01  1.189576E+04  1.852966E-11 -1.401994E-09
       139  14  3.005185E+04  9.414362E+00 -9.533420E+00  1.105226E+04  6.042087E-10 -6.621675E-09
       139  15  3.005138E+04  1.002390E+01  8.645545E+00  1.189576E+04 -1.498418E-10 -1.130520E-08
       139  16 -6.349927E+04 -2.130874E+04 -1.307543E+04  1.185911E+04  2.374039E-08  2.496363E-10
       139  17 -5.406556E+04 -1.916299E+04 -1.175264E+04  1.101896E+04 -7.496692E-09  2.574427E-09
       139  18 -4.463338E+04 -1.701559E+04 -1.043375E+04  1.186582E+04 -3.875726E-08  5.581822E-09
       139  19  1.236098E+05  2.132983E+04  1.301440E+04  1.193243E+04  1.655028E+03  7.355621E+03
       139  20  1.141764E+05  1.918155E+04  1.173357E+04  1.108558E+04  1.652306E+03  6.604370E+03
       139  21  1.047418E+05  1.703543E+04  1.045104E+04  1.192571E+04  1.649621E+03  5.852355E+03
       139  22  3.005085E+04  1.076827E+01 -3.040918E+01  1.189576E+04  3.289520E+01  7.355015E+03
       139  23  3.005186E+04  9.461191E+00 -9.451467E+00  1.105227E+04  2.852472E+01  6.603723E+03
       139  24  3.005139E+04  1.006067E+01  8.709894E+00  1.189576E+04  2.419063E+01  5.851667E+03
       139  25 -6.349926E+04 -2.130868E+04 -1.307532E+04  1.185910E+04 -1.589004E+03  7.354409E+03
       139  26 -5.406555E+04 -1.916294E+04 -1.175255E+04  1.101896E+04 -1.595046E+03  6.603076E+03
       139  27 -4.463337E+04 -1.701555E+04 -1.043369E+04  1.186582E+04 -1.601053E+03  5.850979E+03
       140   1  9.884921E+04  1.568529E+04  9.603354E+03  1.192447E+04 -1.652148E+03 -5.414407E+03
       140   2  8.941464E+04  1.353891E+04  8.327592E+03  1.107706E+04 -1.672379E+03 -4.662358E+03
       140   3  7.998266E+04  1.139894E+04  7.066072E+03  1.191620E+04 -1.692635E+03 -3.910993E+03
       140   4  3.005249E+04  9.987221E+00  1.838842E+01  1.189567E+04 -2.675655E+01 -5.413699E+03
       140   5  3.005130E+04  1.017011E+01  4.310514E+01  1.105238E+04 -4.847867E+01 -4.661622E+03
       140   6  3.005287E+04  1.703014E+01  8.309424E+01  1.189566E+04 -7.022600E+01 -3.910230E+03
       140   7 -3.873942E+04 -1.566552E+04 -9.566626E+03  1.186687E+04  1.598463E+03 -5.412991E+03
       140   8 -2.930845E+04 -1.351872E+04 -8.241415E+03  1.102771E+04  1.575273E+03 -4.660886E+03
       140   9 -1.987438E+04 -1.136499E+04 -6.899906E+03  1.187512E+04  1.552058E+03 -3.909466E+03
       140  10  9.884920E+04  1.568525E+04  9.603294E+03  1.192446E+04 -3.847946E-08  7.020465E-09
       140  11  8.941463E+04  1.353888E+04  8.327545E+03  1.107705E+04 -5.562942E-09  3.496913E-09
       140  12  7.998265E+04  1.139893E+04  7.066038E+03  1.191620E+04  2.570365E-08  1.607247E-09
       140  13  3.005248E+04  9.955748E+00  1.833334E+01  1.189567E+04  3.022136E-12 -1.095184E-08
       140  14  3.005130E+04  1.014677E+01  4.306430E+01  1.105238E+04  1.135603E-09 -6.382364E-09
       140  15  3.005287E+04  1.701372E+01  8.306549E+01  1.189566E+04 -6.252665E-10 -1.072494E-09
       140  16 -3.873943E+04 -1.566555E+04 -9.566686E+03  1.186688E+04  3.842304E-08  6.537142E-09
       140  17 -2.930846E+04 -1.351875E+04 -8.241461E+03  1.102772E+04  4.889495E-09  1.696808E-09
       140  18 -1.987439E+04 -1.136501E+04 -6.899939E+03  1.187513E+04 -2.687950E-08  2.583907E-10
       140  19  9.884921E+04  1.568529E+04  9.603354E+03  1.192447E+04  1.652148E+03  5.414407E+03
       140  20  8.941464E+04  1.353891E+04  8.327592E+03  1.107706E+04  1.672379E+03  4.662358E+03
       140  21  7.998266E+04  1.139894E+04  7.066072E+03  1.191620E+04  1.692635E+03  3.910993E+03
       140  22  3.005249E+04  9.987221E+00  1.838842E+01  1.189567E+04  2.675655E+01  5.413699E+03
       140  23  3.005130E+04  1.017011E+01  4.310514E+01  1.105238E+04  4.847867E+01  4.661622E+03
       140  24  3.005287E+04  1.703014E+01  8.309424E+01  1.189566E+04  7.022600E+01  3.910230E+03
       140  25 -3.873942E+04 -1.566552E+04 -9.566626E+03  1.186687E+04 -1.598463E+03  5.412991E+03
       140  26 -2.930845E+04 -1.351872E+04 -8.241415E+03  1.102771E+04 -1.575273E+03  4.660886E+03
       140  27 -1.987438E+04 -1.136499E+04 -6.899906E+03  1.187512E+04 -1.552058E+03  3.909466E+03
       141   1  7.409481E+04  1.005070E+04  6.236460E+03  1.192023E+04 -1.709270E+03 -3.473683E+03
       141   2  6.464939E+04  7.929569E+03  5.019654E+03  1.103592E+04 -1.796437E+03 -2.725940E+03
       141   3  5.522949E+04  5.872005E+03  3.874918E+03  1.183746E+04 -1.883612E+03 -1.984584E+03
       141   4  3.005851E+04  1.902015E+01  1.117317E+02  1.189551E+04 -8.698428E+01 -3.472906E+03
       141   5  3.004479E+04  4.534774E+01  2.010783E+02  1.105255E+04 -1.879699E+02 -2.725153E+03
       141   6  3.005873E+04  1.376077E+02  3.720413E+02  1.189546E+04 -2.889658E+02 -1.983789E+03
       141   7 -1.397581E+04 -1.001275E+04 -6.013011E+03  1.187079E+04  1.535192E+03 -3.472130E+03
       141   8 -4.558594E+03 -7.838925E+03 -4.617503E+03  1.106919E+04  1.420411E+03 -2.724367E+03
       141   9  4.888627E+03 -5.596817E+03 -3.130834E+03  1.195345E+04  1.305619E+03 -1.982993E+03
       141  10  7.409480E+04  1.005069E+04  6.236432E+03  1.192023E+04  1.056458E-09  1.936930E-09
       141  11  6.464939E+04  7.929560E+03  5.019634E+03  1.103591E+04  2.689480E-09  1.584522E-09
       141  12  5.522948E+04  5.872000E+03  3.874904E+03  1.183746E+04  3.238519E-09  2.057822E-09
       141  13  3.005851E+04  1.900719E+01  1.117090E+02  1.189551E+04 -1.617506E-09  1.235687E-09
       141  14  3.004479E+04  4.533975E+01  2.010643E+02  1.105255E+04  6.026485E-10  1.674209E-09
       141  15  3.005873E+04  1.376035E+02  3.720337E+02  1.189545E+04  5.155922E-10  8.646332E-10
       141  16 -1.397582E+04 -1.001276E+04 -6.013038E+03  1.187080E+04 -1.916642E-09  5.968853E-10
       141  17 -4.558599E+03 -7.838934E+03 -4.617521E+03  1.106919E+04 -2.975883E-09  1.044752E-09
       141  18  4.888624E+03 -5.596821E+03 -3.130845E+03  1.195345E+04 -2.923780E-09 -3.553355E-11
       141  19  7.409481E+04  1.005070E+04  6.236460E+03  1.192023E+04  1.709270E+03  3.473683E+03
       141  20  6.464939E+04  7.929569E+03  5.019654E+03  1.103592E+04  1.796437E+03  2.725940E+03
       141  21  5.522949E+04  5.872005E+03  3.874918E+03  1.183746E+04  1.883612E+03  1.984584E+03
       141  22  3.005851E+04  1.902015E+01  1.117317E+02  1.189551E+04  8.698428E+01  3.472906E+03
       141  23  3.004479E+04  4.534774E+01  2.010783E+02  1.105255E+04  1.879699E+02  2.725153E+03
       141  24  3.005873E+04  1.376077E+02  3.720413E+02  1.189546E+04  2.889658E+02  1.983789E+03
       141  25 -1.397581E+04 -1.001275E+04 -6.013011E+03  1.187079E+04 -1.535192E+03  3.472130E+03
       141  26 -4.558594E+03 -7.838925E+03 -4.617503E+03  1.106919E+04 -1.420411E+03  2.724367E+03
       141  27  4.888627E+03 -5.596817E+03 -3.130834E+03  1.195345E+04 -1.305619E+03  1.982993E+03
       142   1  4.938342E+04  4.555585E+03  3.132407E+03  1.188972E+04 -1.947300E+03 -1.553140E+03
       142   2  3.983424E+04  2.784392E+03  2.196749E+03  1.048028E+04 -2.302345E+03 -8.418217E+02
       142   3  3.051918E+04  1.773228E+03  1.681578E+03  1.075279E+04 -2.657371E+03 -1.831717E+02
       142   4  3.010906E+04  1.737728E+02  4.967539E+02  1.189465E+04 -3.535001E+02 -1.552338E+03
       142   5  2.998212E+04  5.586201E+02  9.161280E+02  1.105329E+04 -8.223110E+02 -8.410753E+02
       142   6  3.010910E+04  1.723290E+03  1.835025E+03  1.189388E+04 -1.291108E+03 -1.824815E+02
       142   7  1.083508E+04 -4.208055E+03 -2.138893E+03  1.189957E+04  1.240252E+03 -1.551537E+03
       142   8  2.013011E+04 -1.667153E+03 -3.644853E+02  1.162628E+04  6.577010E+02 -8.403262E+02
       142   9  2.969903E+04  1.673358E+03  1.988479E+03  1.303496E+04  7.515429E+01 -1.817862E+02
       142  10  4.938342E+04  4.555582E+03  3.132395E+03  1.188972E+04  1.435990E-09  1.697360E-09
       142  11  3.983423E+04  2.784390E+03  2.196738E+03  1.048028E+04  2.140284E-09  5.277595E-10
       142  12  3.051917E+04  1.773226E+03  1.681565E+03  1.075279E+04  4.602380E-10  1.453472E-10
       142  13  3.010906E+04  1.737702E+02  4.967491E+02  1.189465E+04  2.068489E-11  1.897115E-09
       142  14  2.998212E+04  5.586192E+02  9.161254E+02  1.105328E+04  1.390289E-09 -6.474996E-10
       142  15  3.010910E+04  1.723289E+03  1.835021E+03  1.189388E+04  8.715567E-10  1.049908E-09
       142  16  1.083508E+04 -4.208057E+03 -2.138901E+03  1.189957E+04 -9.410750E-10  8.897372E-10
       142  17  2.013011E+04 -1.667154E+03 -3.644875E+02  1.162628E+04 -1.736814E-09  4.899424E-10
       142  18  2.969903E+04  1.673358E+03  1.988479E+03  1.303496E+04 -7.454223E-10 -7.360396E-12
       142  19  4.938342E+04  4.555585E+03  3.132407E+03  1.188972E+04  1.947300E+03  1.553140E+03
       142  20  3.983424E+04  2.784392E+03  2.196749E+03  1.048028E+04  2.302345E+03  8.418217E+02
       142  21  3.051918E+04  1.773228E+03  1.681578E+03  1.075279E+04  2.657371E+03  1.831717E+02
       142  22  3.010906E+04  1.737728E+02  4.967539E+02  1.189465E+04  3.535001E+02  1.552338E+03
       142  23  2.998212E+04  5.586201E+02  9.161280E+02  1.105329E+04  8.223110E+02  8.410753E+02
       142  24  3.010910E+04  1.723290E+03  1.835025E+03  1.189388E+04  1.291108E+03  1.824815E+02
       142  25  1.083508E+04 -4.208055E+03 -2.138893E+03  1.189957E+04 -1.240252E+03  1.551537E+03
       142  26  2.013011E+04 -1.667153E+03 -3.644853E+02  1.162628E+04 -6.577010E+02  8.403262E+02
       142  27  2.969903E+04  1.673358E+03  1.988479E+03  1.303496E+04 -7.515429E+01  1.817862E+02
       143   1  2.870482E+03  1.053791E+05  3.176609E+03 -8.578418E+03 -5.822054E+01  6.511653E+02
       143   2 -4.814418E+02  9.703054E+04  7.014521E+02 -6.990868E+03 -3.693725E+02 -2.184319E+02
       143   3 -2.688792E+03  8.908021E+04 -9.217623E+02 -7.450169E+03 -8.536557E+02 -1.088064E+03
       143   4  1.662667E+03  1.005953E+05  1.923506E+03 -7.548560E+03 -5.829295E+01  9.910640E+02
       143   5  2.925632E+02  1.004189E+05  1.184739E+03 -6.525305E+03 -3.695015E+02  3.832729E+02
       143   6  2.161869E+01  1.005953E+05  1.116164E+03 -7.548902E+03 -8.538395E+02 -2.245598E+02
       143   7  4.548552E+02  9.581143E+04  6.704010E+02 -6.518711E+03 -5.836422E+01  1.330960E+03
       143   8  1.066569E+03  1.038072E+05  1.668027E+03 -6.059740E+03 -3.696297E+02  9.849809E+02
       143   9  2.732022E+03  1.121106E+05  3.154089E+03 -7.647637E+03 -8.540236E+02  6.389600E+02
       143  10  2.870482E+03  1.053791E+05  3.176609E+03 -8.578418E+03 -1.429991E-11 -2.187168E-11
       143  11 -4.814420E+02  9.703054E+04  7.014517E+02 -6.990868E+03  7.086231E-10 -6.053089E-10
       143  12 -2.688793E+03  8.908021E+04 -9.217659E+02 -7.450170E+03  8.750626E-10  3.295464E-10
       143  13  1.662667E+03  1.005953E+05  1.923504E+03 -7.548560E+03  1.667412E-09 -2.029194E-10
       143  14  2.925630E+02  1.004189E+05  1.184739E+03 -6.525305E+03  1.038705E-09 -2.054345E-10
       143  15  2.161790E+01  1.005953E+05  1.116163E+03 -7.548902E+03  5.361891E-10 -3.600406E-11
       143  16  4.548547E+02  9.581143E+04  6.703976E+02 -6.518711E+03 -2.814532E-10  2.504444E-10
       143  17  1.066568E+03  1.038072E+05  1.668025E+03 -6.059740E+03  5.619168E-10 -1.150188E-10
       143  18  2.732021E+03  1.121106E+05  3.154087E+03 -7.647636E+03  2.493340E-10 -2.149364E-10
       143  19  2.870482E+03  1.053791E+05  3.176609E+03 -8.578418E+03  5.822054E+01 -6.511653E+02
       143  20 -4.814418E+02  9.703054E+04  7.014521E+02 -6.990868E+03  3.693725E+02  2.184319E+02
       143  21 -2.688792E+03  8.908021E+04 -9.217623E+02 -7.450169E+03  8.536557E+02  1.088064E+03
       143  22  1.662667E+03  1.005953E+05  1.923506E+03 -7.548560E+03  5.829295E+01 -9.910640E+02
       143  23  2.925632E+02  1.004189E+05  1.184739E+03 -6.525305E+03  3.695015E+02 -3.832729E+02
       143  24  2.161869E+01  1.005953E+05  1.116164E+03 -7.548902E+03  8.538395E+02  2.245598E+02
       143  25  4.548552E+02  9.581143E+04  6.704010E+02 -6.518711E+03  5.836422E+01 -1.330960E+03
       143  26  1.066569E+03  1.038072E+05  1.668027E+03 -6.059740E+03  3.696297E+02 -9.849809E+02
       143  27  2.732022E+03  1.121106E+05  3.154089E+03 -7.647637E+03  8.540236E+02 -6.389600E+02
       144   1 -3.954012E+03  8.359168E+04 -1.839891E+03 -7.669407E+03 -1.194939E+03 -1.269969E+03
       144   2 -5.879495E+03  7.534545E+04 -2.853415E+03 -6.489963E+03 -1.711651E+03 -1.997002E+03
       144   3 -7.409297E+03  6.729194E+04 -3.294975E+03 -7.362319E+03 -2.135620E+03 -2.724000E+03
       144   4  5.352597E+01  1.005651E+05  1.226465E+03 -7.549961E+03 -1.195118E+03 -4.182893E+02
       144   5  6.059868E+01  1.004565E+05  1.738404E+03 -6.524020E+03 -1.711792E+03 -1.285597E+03
       144   6  4.876941E+02  1.005649E+05  2.919688E+03 -7.549870E+03 -2.135726E+03 -2.152878E+03
       144   7  4.061048E+03  1.175388E+05  4.292813E+03 -7.430512E+03 -1.195297E+03  4.334126E+02
       144   8  6.000657E+03  1.255681E+05  6.330200E+03 -6.558077E+03 -1.711933E+03 -5.741640E+02
       144   9  8.384622E+03  1.338389E+05  9.134305E+03 -7.737431E+03 -2.135831E+03 -1.581726E+03
       144  10 -3.954014E+03  8.359168E+04 -1.839896E+03 -7.669408E+03  1.401413E-09  1.963888E-09
       144  11 -5.879500E+03  7.534544E+04 -2.853428E+03 -6.489966E+03  1.635531E-10  6.505559E-10
       144  12 -7.409304E+03  6.729193E+04 -3.294998E+03 -7.362324E+03 -7.009195E-10  7.949878E-10
       144  13  5.352439E+01  1.005651E+05  1.226462E+03 -7.549962E+03  3.646217E-10 -2.399137E-10
       144  14  6.059509E+01  1.004565E+05  1.738396E+03 -6.524021E+03  1.621563E-09 -2.325486E-10
       144  15  4.876880E+02  1.005649E+05  2.919671E+03 -7.549873E+03 -1.120454E-09 -3.914367E-11
       144  16  4.061047E+03  1.175388E+05  4.292810E+03 -7.430512E+03  3.815227E-10 -1.759552E-09
       144  17  6.000654E+03  1.255681E+05  6.330194E+03 -6.558078E+03  6.646710E-10 -1.231913E-09
       144  18  8.384616E+03  1.338389E+05  9.134291E+03 -7.737433E+03  1.843788E-10 -6.082324E-10
       144  19 -3.954012E+03  8.359168E+04 -1.839891E+03 -7.669407E+03  1.194939E+03  1.269969E+03
       144  20 -5.879495E+03  7.534545E+04 -2.853415E+03 -6.489963E+03  1.711651E+03  1.997002E+03
       144  21 -7.409297E+03  6.729194E+04 -3.294975E+03 -7.362319E+03  2.135620E+03  2.724000E+03
       144  22  5.352597E+01  1.005651E+05  1.226465E+03 -7.549961E+03  1.195118E+03  4.182893E+02
       144  23  6.059868E+01  1.004565E+05  1.738404E+03 -6.524020E+03  1.711792E+03  1.285597E+03
       144  24  4.876941E+02  1.005649E+05  2.919688E+03 -7.549870E+03  2.135726E+03  2.152878E+03
       144  25  4.061048E+03  1.175388E+05  4.292813E+03 -7.430512E+03  1.195297E+03 -4.334126E+02
       144  26  6.000657E+03  1.255681E+05  6.330200E+03 -6.558077E+03  1.711933E+03  5.741640E+02
       144  27  8.384622E+03  1.338389E+05  9.134305E+03 -7.737431E+03  2.135831E+03  1.581726E+03
       145   1 -9.104717E+03  6.227769E+04 -3.532323E+03 -8.519192E+03 -2.452364E+03 -3.440649E+03
       145   2 -9.053513E+03  5.307616E+04 -2.791233E+03 -3.346960E+03 -2.279175E+03 -4.787948E+03
       145   3 -1.383913E+03  4.595433E+04  7.315316E+02 -1.421545E+02 -7.152611E+02 -6.134967E+03
       145   4  1.065087E+02  1.010598E+05  3.747488E+03 -7.531471E+03 -2.452513E+03 -2.650839E+03
       145   5  2.188352E+03  9.983724E+04  6.653896E+03 -6.546672E+03 -2.278889E+03 -6.101273E+03
       145   6  1.225326E+04  1.010590E+05  1.380214E+04 -7.529194E+03 -7.145702E+02 -9.551427E+03
       145   7  9.317651E+03  1.398435E+05  1.102724E+04 -6.543687E+03 -2.452660E+03 -1.860980E+03
       145   8  1.343012E+04  1.466004E+05  1.609893E+04 -9.746629E+03 -2.278590E+03 -7.414696E+03
       145   9  2.589043E+04  1.561666E+05  2.687261E+04 -1.491689E+04 -7.137981E+02 -1.296819E+04
       145  10 -9.104726E+03  6.227768E+04 -3.532357E+03 -8.519199E+03 -3.168807E-11  2.680602E-08
       145  11 -9.053525E+03  5.307614E+04 -2.791286E+03 -3.346968E+03 -7.829601E-10  4.243830E-10
       145  12 -1.383923E+03  4.595429E+04  7.314599E+02 -1.421580E+02 -4.803012E-10 -2.425709E-08
       145  13  1.065004E+02  1.010598E+05  3.747463E+03 -7.531477E+03 -5.776354E-10 -1.586645E-10
       145  14  2.188336E+03  9.983720E+04  6.653817E+03 -6.546683E+03 -4.267746E-11 -1.960735E-10
       145  15  1.225324E+04  1.010589E+05  1.380197E+04 -7.529200E+03 -1.532752E-09 -5.965741E-11
       145  16  9.317644E+03  1.398435E+05  1.102722E+04 -6.543691E+03 -4.389938E-10 -2.655965E-08
       145  17  1.343010E+04  1.466004E+05  1.609881E+04 -9.746643E+03 -5.970852E-10 -1.012601E-09
       145  18  2.589039E+04  1.561664E+05  2.687230E+04 -1.491690E+04 -1.347850E-09  2.436362E-08
       145  19 -9.104717E+03  6.227769E+04 -3.532323E+03 -8.519192E+03  2.452364E+03  3.440649E+03
       145  20 -9.053513E+03  5.307616E+04 -2.791233E+03 -3.346960E+03  2.279175E+03  4.787948E+03
       145  21 -1.383913E+03  4.595433E+04  7.315316E+02 -1.421545E+02  7.152611E+02  6.134967E+03
       145  22  1.065087E+02  1.010598E+05  3.747488E+03 -7.531471E+03  2.452513E+03  2.650839E+03
       145  23  2.188352E+03  9.983724E+04  6.653896E+03 -6.546672E+03  2.278889E+03  6.101273E+03
       145  24  1.225326E+04  1.010590E+05  1.380214E+04 -7.529194E+03  7.145702E+02  9.551427E+03
       145  25  9.317651E+03  1.398435E+05  1.102724E+04 -6.543687E+03  2.452660E+03  1.860980E+03
       145  26  1.343012E+04  1.466004E+05  1.609893E+04 -9.746629E+03  2.278590E+03  7.414696E+03
       145  27  2.589043E+04  1.561666E+05  2.687261E+04 -1.491689E+04  7.137981E+02  1.296819E+04
       146   1  2.433068E+05  8.731141E+04  4.415417E+04  9.016286E+04  1.723830E+04  3.585027E+03
       146   2  2.302276E+05  8.012969E+04  3.146240E+04  8.622449E+04  1.116623E+04 -5.570088E+03
       146   3  2.172352E+05  7.596775E+04  2.533176E+04  8.405437E+04  3.548304E+03 -1.060395E+04
       146   4  6.759255E+04  2.183227E+04 -3.906871E+02  4.232670E+04  6.930524E+02 -2.624175E+03
       146   5  6.840629E+04  2.130340E+04 -1.858081E+02  4.138829E+04  3.051811E+03 -8.615698E+03
       146   6  6.763730E+04  2.212538E+04 -9.632403E+01  4.221819E+04  3.864075E+03 -1.048573E+04
       146   7 -1.080832E+05 -4.364178E+04 -4.493471E+04 -5.494989E+03 -1.584634E+04 -8.831196E+03
       146   8 -9.338391E+04 -3.751909E+04 -3.183386E+04 -3.436030E+03 -5.060147E+03 -1.166039E+04
       146   9 -8.193642E+04 -3.171462E+04 -2.552491E+04  3.915450E+02  4.179765E+03 -1.036755E+04
       146  10  2.433065E+05  8.731132E+04  4.415358E+04  9.016281E+04  2.541262E-10  2.239303E-11
       146  11  2.302275E+05  8.012962E+04  3.146211E+04  8.622454E+04 -4.655415E-10 -4.810425E-10
       146  12  2.172352E+05  7.596763E+04  2.533153E+04  8.405440E+04 -1.255454E-09 -3.475114E-10
       146  13  6.759255E+04  2.183226E+04 -3.907009E+02  4.232670E+04  6.449120E-10  4.239163E-10
       146  14  6.840626E+04  2.130332E+04 -1.859651E+02  4.138831E+04  2.410346E-10 -4.456495E-10
       146  15  6.763725E+04  2.212526E+04 -9.655872E+01  4.221822E+04  6.967512E-10  4.165543E-10
       146  16 -1.080835E+05 -4.364193E+04 -4.493533E+04 -5.495102E+03 -7.615278E-10 -9.807996E-11
       146  17 -9.338397E+04 -3.751924E+04 -3.183416E+04 -3.436078E+03 -5.316755E-10 -1.027042E-10
       146  18 -8.193647E+04 -3.171474E+04 -2.552514E+04  3.915799E+02  1.339834E-09  9.204490E-10
       146  19  2.433068E+05  8.731141E+04  4.415417E+04  9.016286E+04 -1.723830E+04 -3.585027E+03
       146  20  2.302276E+05  8.012969E+04  3.146240E+04  8.622449E+04 -1.116623E+04  5.570088E+03
       146  21  2.172352E+05  7.596775E+04  2.533176E+04  8.405437E+04 -3.548304E+03  1.060395E+04
       146  22  6.759255E+04  2.183227E+04 -3.906871E+02  4.232670E+04 -6.930524E+02  2.624175E+03
       146  23  6.840629E+04  2.130340E+04 -1.858081E+02  4.138829E+04 -3.051811E+03  8.615698E+03
       146  24  6.763730E+04  2.212538E+04 -9.632403E+01  4.221819E+04 -3.864075E+03  1.048573E+04
       146  25 -1.080832E+05 -4.364178E+04 -4.493471E+04 -5.494989E+03  1.584634E+04  8.831196E+03
       146  26 -9.338391E+04 -3.751909E+04 -3.183386E+04 -3.436030E+03  5.060147E+03  1.166039E+04
       146  27 -8.193642E+04 -3.171462E+04 -2.552491E+04  3.915450E+02 -4.179765E+03  1.036755E+04
       147   1  2.088954E+05  7.293058E+04  2.339988E+04  8.181636E+04  3.650668E+03 -1.031380E+04
       147   2  1.968937E+05  6.730731E+04  2.033093E+04  7.729962E+04  2.650092E+03 -1.035685E+04
       147   3  1.833397E+05  6.357921E+04  1.796584E+04  7.476117E+04  1.482501E+03 -9.955096E+03
       147   4  6.760126E+04  2.217959E+04 -7.141833E+01  4.227530E+04  3.792037E+03 -1.026102E+04
       147   5  6.846929E+04  2.133311E+04 -3.683705E+01  4.128215E+04  3.701378E+03 -9.962481E+03
       147   6  6.760504E+04  2.220173E+04 -1.896303E+01  4.226728E+04  3.443684E+03 -9.219083E+03
       147   7 -7.367338E+04 -2.857006E+04 -2.354369E+04  2.742200E+03  3.933374E+03 -1.020826E+04
       147   8 -5.993825E+04 -2.463969E+04 -2.040514E+04  5.271450E+03  4.752440E+03 -9.568197E+03
       147   9 -4.811527E+04 -1.917436E+04 -1.800398E+04  9.779082E+03  5.404483E+03 -8.483215E+03
       147  10  2.088954E+05  7.293046E+04  2.339966E+04  8.181639E+04  4.671606E-10  6.796321E-10
       147  11  1.968937E+05  6.730720E+04  2.033072E+04  7.729964E+04  7.282617E-10  4.534015E-10
       147  12  1.833397E+05  6.357910E+04  1.796565E+04  7.476118E+04  4.458082E-10  1.683957E-11
       147  13  6.760121E+04  2.217947E+04 -7.164321E+01  4.227534E+04  1.001232E-09 -1.304647E-10
       147  14  6.846925E+04  2.133300E+04 -3.704932E+01  4.128218E+04  1.181570E-09  1.303492E-09
       147  15  6.760500E+04  2.220163E+04 -1.914504E+01  4.226731E+04 -1.327297E-09 -1.214879E-09
       147  16 -7.367342E+04 -2.857018E+04 -2.354391E+04  2.742232E+03 -1.577809E-09 -2.958168E-10
       147  17 -5.993830E+04 -2.463980E+04 -2.040535E+04  5.271486E+03 -1.075284E-09 -3.676036E-10
       147  18 -4.811532E+04 -1.917445E+04 -1.800417E+04  9.779119E+03  8.536284E-11 -1.925199E-09
       147  19  2.088954E+05  7.293058E+04  2.339988E+04  8.181636E+04 -3.650668E+03  1.031380E+04
       147  20  1.968937E+05  6.730731E+04  2.033093E+04  7.729962E+04 -2.650092E+03  1.035685E+04
       147  21  1.833397E+05  6.357921E+04  1.796584E+04  7.476117E+04 -1.482501E+03  9.955096E+03
       147  22  6.760126E+04  2.217959E+04 -7.141833E+01  4.227530E+04 -3.792037E+03  1.026102E+04
       147  23  6.846929E+04  2.133311E+04 -3.683705E+01  4.128215E+04 -3.701378E+03  9.962481E+03
       147  24  6.760504E+04  2.220173E+04 -1.896303E+01  4.226728E+04 -3.443684E+03  9.219083E+03
       147  25 -7.367338E+04 -2.857006E+04 -2.354369E+04  2.742200E+03 -3.933374E+03  1.020826E+04
       147  26 -5.993825E+04 -2.463969E+04 -2.040514E+04  5.271450E+03 -4.752440E+03  9.568197E+03
       147  27 -4.811527E+04 -1.917436E+04 -1.800398E+04  9.779082E+03 -5.404483E+03  8.483215E+03
       148   1  1.752774E+05  6.068632E+04  1.661445E+04  7.251180E+04  1.289254E+03 -9.374944E+03
       148   2  1.633928E+05  5.524249E+04  1.457661E+04  6.793433E+04  8.284340E+02 -8.437320E+03
       148   3  1.497784E+05  5.156631E+04  1.261438E+04  6.535835E+04  3.495774E+02 -7.451796E+03
       148   4  6.760103E+04  2.220748E+04 -1.353330E+01  4.227308E+04  3.231445E+03 -8.646012E+03
       148   5  6.847673E+04  2.133475E+04 -5.081243E+00  4.127212E+04  2.868601E+03 -7.671534E+03
       148   6  6.760289E+04  2.221031E+04  1.318432E+00  4.227265E+04  2.487713E+03 -6.649147E+03
       148   7 -4.006154E+04 -1.626965E+04 -1.664132E+04  1.203964E+04  5.173258E+03 -7.917222E+03
       148   8 -2.642959E+04 -1.257204E+04 -1.458688E+04  1.461374E+04  4.908438E+03 -6.905872E+03
       148   9 -1.456629E+04 -7.145355E+03 -1.261209E+04  1.918956E+04  4.625575E+03 -5.846602E+03
       148  10  1.752774E+05  6.068622E+04  1.661428E+04  7.251181E+04 -2.533665E-09 -9.702946E-10
       148  11  1.633928E+05  5.524241E+04  1.457647E+04  6.793434E+04  6.504514E-09  3.291534E-09
       148  12  1.497784E+05  5.156625E+04  1.261427E+04  6.535835E+04  8.453424E-09  1.818470E-09
       148  13  6.760100E+04  2.220739E+04 -1.369340E+01  4.227310E+04  3.199691E-09  3.487748E-10
       148  14  6.847671E+04  2.133468E+04 -5.207307E+00  4.127213E+04  7.387628E-09  1.373926E-09
       148  15  6.760287E+04  2.221026E+04  1.223717E+00  4.227266E+04  3.919252E-09  1.222365E-09
       148  16 -4.006158E+04 -1.626973E+04 -1.664149E+04  1.203967E+04  9.089524E-09  2.121648E-09
       148  17 -2.642963E+04 -1.257210E+04 -1.458702E+04  1.461376E+04  7.405118E-09  3.338036E-09
       148  18 -1.456633E+04 -7.145397E+03 -1.261220E+04  1.918959E+04 -2.774624E-09  1.188851E-10
       148  19  1.752774E+05  6.068632E+04  1.661445E+04  7.251180E+04 -1.289254E+03  9.374944E+03
       148  20  1.633928E+05  5.524249E+04  1.457661E+04  6.793433E+04 -8.284340E+02  8.437320E+03
       148  21  1.497784E+05  5.156631E+04  1.261438E+04  6.535835E+04 -3.495774E+02  7.451796E+03
       148  22  6.760103E+04  2.220748E+04 -1.353330E+01  4.227308E+04 -3.231445E+03  8.646012E+03
       148  23  6.847673E+04  2.133475E+04 -5.081243E+00  4.127212E+04 -2.868601E+03  7.671534E+03
       148  24  6.760289E+04  2.221031E+04  1.318432E+00  4.227265E+04 -2.487713E+03  6.649147E+03
       148  25 -4.006154E+04 -1.626965E+04 -1.664132E+04  1.203964E+04 -5.173258E+03  7.917222E+03
       148  26 -2.642959E+04 -1.257204E+04 -1.458688E+04  1.461374E+04 -4.908438E+03  6.905872E+03
       148  27 -1.456629E+04 -7.145355E+03 -1.261209E+04  1.918956E+04 -4.625575E+03  5.846602E+03
       149   1  1.417482E+05  4.868911E+04  1.132541E+04  6.310784E+04  1.223044E+02 -6.841278E+03
       149   2  1.298785E+05  4.326617E+04  9.401376E+03  5.852512E+04 -2.865757E+02 -5.800538E+03
       149   3  1.162603E+05  3.959625E+04  7.489564E+03  5.594624E+04 -6.973044E+02 -4.754946E+03
       149   4  6.760258E+04  2.221098E+04  4.276138E+00  4.227309E+04  2.258288E+03 -6.039396E+03
       149   5  6.847815E+04  2.133558E+04  1.209424E+01  4.127128E+04  1.859301E+03 -4.994892E+03
       149   6  6.760306E+04  2.221118E+04  2.425624E+01  4.227321E+04  1.458467E+03 -3.945539E+03
       149   7 -6.537073E+03 -4.266558E+03 -1.131690E+04  2.144070E+04  4.394002E+03 -5.237616E+03
       149   8  7.082246E+03 -5.944602E+02 -9.377113E+03  2.401917E+04  4.004941E+03 -4.189335E+03
       149   9  1.894896E+04  4.826600E+03 -7.440900E+03  2.860136E+04  3.614033E+03 -3.136209E+03
       149  10  1.417482E+05  4.868906E+04  1.132532E+04  6.310784E+04  5.713737E-10 -6.117313E-10
       149  11  1.298785E+05  4.326613E+04  9.401313E+03  5.852512E+04  7.848437E-10  7.957430E-10
       149  12  1.162603E+05  3.959623E+04  7.489521E+03  5.594624E+04  2.262812E-09  4.948839E-10
       149  13  6.760257E+04  2.221094E+04  4.198009E+00  4.227310E+04 -2.520202E-11  3.416442E-10
       149  14  6.847814E+04  2.133555E+04  1.204085E+01  4.127129E+04  2.107927E-09  1.174758E-09
       149  15  6.760306E+04  2.221117E+04  2.422298E+01  4.227322E+04 -1.195333E-10  7.520257E-10
       149  16 -6.537101E+03 -4.266593E+03 -1.131699E+04  2.144072E+04 -4.412126E-10  1.472004E-09
       149  17  7.082224E+03 -5.944833E+02 -9.377176E+03  2.401918E+04 -9.357814E-10  4.347103E-10
       149  18  1.894894E+04  4.826586E+03 -7.440943E+03  2.860137E+04 -2.092222E-09 -3.242928E-10
       149  19  1.417482E+05  4.868911E+04  1.132541E+04  6.310784E+04 -1.223044E+02  6.841278E+03
       149  20  1.298785E+05  4.326617E+04  9.401376E+03  5.852512E+04  2.865757E+02  5.800538E+03
       149  21  1.162603E+05  3.959625E+04  7.489564E+03  5.594624E+04  6.973044E+02  4.754946E+03
       149  22  6.760258E+04  2.221098E+04  4.276138E+00  4.227309E+04 -2.258288E+03  6.039396E+03
       149  23  6.847815E+04  2.133558E+04  1.209424E+01  4.127128E+04 -1.859301E+03  4.994892E+03
       149  24  6.760306E+04  2.221118E+04  2.425624E+01  4.227321E+04 -1.458467E+03  3.945539E+03
       149  25 -6.537073E+03 -4.266558E+03 -1.131690E+04  2.144070E+04 -4.394002E+03  5.237616E+03
       149  26  7.082246E+03 -5.944602E+02 -9.377113E+03  2.401917E+04 -4.004941E+03  4.189335E+03
       149  27  1.894896E+04  4.826600E+03 -7.440900E+03  2.860136E+04 -3.614033E+03  3.136209E+03
       150   1  1.082341E+05  3.672049E+04  6.212810E+03  5.369641E+04 -9.323018E+02 -4.142981E+03
       150   2  9.636461E+04  3.129958E+04  4.318840E+03  4.911516E+04 -1.353663E+03 -3.099868E+03
       150   3  8.274718E+04  2.763108E+04  2.444284E+03  4.653854E+04 -1.774260E+03 -2.058826E+03
       150   4  6.760426E+04  2.221123E+04  3.306304E+01  4.227378E+04  1.223242E+03 -3.333637E+03
       150   5  6.847767E+04  2.133390E+04  6.079700E+01  4.127172E+04  7.976414E+02 -2.292086E+03
       150   6  6.760415E+04  2.220991E+04  1.113857E+02  4.227431E+04  3.728061E+02 -1.252610E+03
       150   7  2.697568E+04  7.701964E+03 -6.146826E+03  3.085172E+04  3.378663E+03 -2.524339E+03
       150   8  4.059141E+04  1.136824E+04 -4.197287E+03  3.342857E+04  2.948857E+03 -1.484338E+03
       150   9  5.246137E+04  1.678877E+04 -2.221498E+03  3.801018E+04  2.519818E+03 -4.464156E+02
       150  10  1.082341E+05  3.672047E+04  6.212776E+03  5.369641E+04 -4.139398E-10 -1.011122E-09
       150  11  9.636460E+04  3.129957E+04  4.318819E+03  4.911516E+04 -5.521194E-10 -2.431374E-10
       150  12  8.274718E+04  2.763107E+04  2.444270E+03  4.653853E+04  1.640297E-09 -9.567439E-10
       150  13  6.760425E+04  2.221122E+04  3.303934E+01  4.227379E+04  3.957991E-10  2.596838E-10
       150  14  6.847767E+04  2.133390E+04  6.078593E+01  4.127172E+04 -1.299499E-09 -2.046447E-10
       150  15  6.760415E+04  2.220991E+04  1.113825E+02  4.227431E+04  3.234572E-10 -5.717281E-10
       150  16  2.697566E+04  7.701954E+03 -6.146860E+03  3.085173E+04 -6.699776E-10  1.175995E-09
       150  17  4.059140E+04  1.136823E+04 -4.197307E+03  3.342858E+04 -9.549263E-10  1.876228E-09
       150  18  5.246136E+04  1.678877E+04 -2.221511E+03  3.801019E+04 -7.844645E-10 -5.020594E-10
       150  19  1.082341E+05  3.672049E+04  6.212810E+03  5.369641E+04  9.323018E+02  4.142981E+03
       150  20  9.636461E+04  3.129958E+04  4.318840E+03  4.911516E+04  1.353663E+03  3.099868E+03
       150  21  8.274718E+04  2.763108E+04  2.444284E+03  4.653854E+04  1.774260E+03  2.058826E+03
       150  22  6.760426E+04  2.221123E+04  3.306304E+01  4.227378E+04 -1.223242E+03  3.333637E+03
       150  23  6.847767E+04  2.133390E+04  6.079700E+01  4.127172E+04 -7.976414E+02  2.292086E+03
       150  24  6.760415E+04  2.220991E+04  1.113857E+02  4.227431E+04 -3.728061E+02  1.252610E+03
       150  25  2.697568E+04  7.701964E+03 -6.146826E+03  3.085172E+04 -3.378663E+03  2.524339E+03
       150  26  4.059141E+04  1.136824E+04 -4.197287E+03  3.342857E+04 -2.948857E+03  1.484338E+03
       150  27  5.246137E+04  1.678877E+04 -2.221498E+03  3.801018E+04 -2.519818E+03  4.464156E+02
       151   1  7.472210E+04  2.475743E+04  1.193837E+03  4.429384E+04 -2.026372E+03 -1.455157E+03
       151   2  6.284975E+04  1.933366E+04 -6.266953E+02  3.970656E+04 -2.502751E+03 -4.493167E+02
       151   3  4.924570E+04  1.567950E+04 -2.377995E+03  3.712076E+04 -2.970110E+03  5.325582E+02
       151   4  6.760879E+04  2.220919E+04  1.488669E+02  4.227605E+04  1.216660E+02 -6.485733E+02
       151   5  6.847206E+04  2.133510E+04  2.711808E+02  4.126950E+04 -4.037564E+02  3.388433E+02
       151   6  6.761307E+04  2.224027E+04  5.015296E+02  4.226434E+04 -9.201641E+02  1.302299E+03
       151   7  6.049563E+04  1.966099E+04 -8.960608E+02  4.025831E+04  2.269653E+03  1.579909E+02
       151   8  7.409441E+04  2.333654E+04  1.169075E+03  4.283246E+04  1.695258E+03  1.127011E+03
       151   9  8.598104E+04  2.880116E+04  3.381127E+03  4.740812E+04  1.129870E+03  2.072073E+03
       151  10  7.472209E+04  2.475743E+04  1.193826E+03  4.429384E+04  1.531955E-09 -1.336881E-09
       151  11  6.284974E+04  1.933366E+04 -6.267074E+02  3.970656E+04 -1.743842E-09 -2.047751E-09
       151  12  4.924569E+04  1.567949E+04 -2.378012E+03  3.712076E+04 -1.266143E-09 -8.582884E-10
       151  13  6.760879E+04  2.220919E+04  1.488661E+02  4.227605E+04 -7.447574E-10 -5.198012E-10
       151  14  6.847206E+04  2.133510E+04  2.711803E+02  4.126950E+04 -3.927266E-09 -1.379279E-09
       151  15  6.761307E+04  2.224026E+04  5.015249E+02  4.226434E+04 -1.755266E-09 -6.911022E-10
       151  16  6.049562E+04  1.966099E+04 -8.960706E+02  4.025830E+04 -2.349533E-09 -1.170130E-09
       151  17  7.409440E+04  2.333654E+04  1.169067E+03  4.283246E+04 -6.374908E-10  9.116761E-11
       151  18  8.598103E+04  2.880115E+04  3.381117E+03  4.740812E+04  5.816273E-09  1.484521E-09
       151  19  7.472210E+04  2.475743E+04  1.193837E+03  4.429384E+04  2.026372E+03  1.455157E+03
       151  20  6.284975E+04  1.933366E+04 -6.266953E+02  3.970656E+04  2.502751E+03  4.493167E+02
       151  21  4.924570E+04  1.567950E+04 -2.377995E+03  3.712076E+04  2.970110E+03 -5.325582E+02
       151  22  6.760879E+04  2.220919E+04  1.488669E+02  4.227605E+04 -1.216660E+02  6.485733E+02
       151  23  6.847206E+04  2.133510E+04  2.711808E+02  4.126950E+04  4.037564E+02 -3.388433E+02
       151  24  6.761307E+04  2.224027E+04  5.015296E+02  4.226434E+04  9.201641E+02 -1.302299E+03
       151  25  6.049563E+04  1.966099E+04 -8.960608E+02  4.025831E+04 -2.269653E+03 -1.579909E+02
       151  26  7.409441E+04  2.333654E+04  1.169075E+03  4.283246E+04 -1.695258E+03 -1.127011E+03
       151  27  8.598104E+04  2.880116E+04  3.381127E+03  4.740812E+04 -1.129870E+03 -2.072073E+03
       152   1  4.121174E+04  1.283073E+04 -3.528806E+03  3.491267E+04 -3.292800E+03  1.088135E+03
       152   2  2.945902E+04  7.361343E+03 -5.109897E+03  3.010101E+04 -3.799861E+03  1.919788E+03
       152   3  1.610701E+04  3.941841E+03 -6.479152E+03  2.720305E+04 -4.223346E+03  2.528958E+03
       152   4  6.764991E+04  2.224662E+04  6.709750E+02  4.227251E+04 -1.233426E+03  1.861408E+03
       152   5  6.845074E+04  2.150461E+04  1.239871E+03  4.119252E+04 -2.195559E+03  2.522156E+03
       152   6  6.774220E+04  2.290255E+04  2.381052E+03  4.202614E+04 -3.074118E+03  2.960427E+03
       152   7  9.408883E+04  3.166258E+04  4.870758E+03  4.963265E+04  8.260408E+02  2.634716E+03
       152   8  1.074439E+05  3.564796E+04  7.589548E+03  5.228462E+04 -5.911596E+02  3.124561E+03
       152   9  1.193796E+05  4.186331E+04  1.124101E+04  5.685022E+04 -1.924802E+03  3.391931E+03
       152  10  4.121173E+04  1.283072E+04 -3.528828E+03  3.491267E+04  5.276476E-09  1.892408E-09
       152  11  2.945900E+04  7.361335E+03 -5.109931E+03  3.010101E+04 -2.955408E-10 -5.990604E-11
       152  12  1.610699E+04  3.941829E+03 -6.479198E+03  2.720306E+04 -2.066252E-09 -7.937401E-10
       152  13  6.764991E+04  2.224662E+04  6.709657E+02  4.227251E+04 -2.812509E-09  1.063900E-09
       152  14  6.845074E+04  2.150461E+04  1.239850E+03  4.119252E+04 -5.162358E-09 -1.002170E-09
       152  15  6.774218E+04  2.290254E+04  2.381018E+03  4.202615E+04 -1.675441E-09 -3.980615E-10
       152  16  9.408883E+04  3.166258E+04  4.870743E+03  4.963265E+04 -5.463005E-10 -1.194291E-09
       152  17  1.074439E+05  3.564794E+04  7.589529E+03  5.228462E+04 -1.653002E-09 -6.638655E-10
       152  18  1.193796E+05  4.186330E+04  1.124098E+04  5.685022E+04  5.221219E-10 -8.771107E-10
       152  19  4.121174E+04  1.283073E+04 -3.528806E+03  3.491267E+04  3.292800E+03 -1.088135E+03
       152  20  2.945902E+04  7.361343E+03 -5.109897E+03  3.010101E+04  3.799861E+03 -1.919788E+03
       152  21  1.610701E+04  3.941841E+03 -6.479152E+03  2.720305E+04  4.223346E+03 -2.528958E+03
       152  22  6.764991E+04  2.224662E+04  6.709750E+02  4.227251E+04  1.233426E+03 -1.861408E+03
       152  23  6.845074E+04  2.150461E+04  1.239871E+03  4.119252E+04  2.195559E+03 -2.522156E+03
       152  24  6.774220E+04  2.290255E+04  2.381052E+03  4.202614E+04  3.074118E+03 -2.960427E+03
       152  25  9.408883E+04  3.166258E+04  4.870758E+03  4.963265E+04 -8.260408E+02 -2.634716E+03
       152  26  1.074439E+05  3.564796E+04  7.589548E+03  5.228462E+04  5.911596E+02 -3.124561E+03
       152  27  1.193796E+05  4.186331E+04  1.124101E+04  5.685022E+04  1.924802E+03 -3.391931E+03
       153   1  7.990429E+03  1.460583E+03 -7.278831E+03  2.536501E+04 -4.827388E+03  2.778319E+03
       153   2 -1.519990E+03 -4.608322E+03 -8.398270E+03  1.690040E+04 -3.633828E+03  2.740588E+03
       153   3 -1.107688E+04 -4.515168E+03 -9.031648E+03  9.013521E+03 -1.666506E+03  6.417561E+02
       153   4  6.812299E+04  2.306553E+04  3.201166E+03  4.207304E+04 -3.591082E+03  3.242470E+03
       153   5  6.841480E+04  2.443383E+04  6.150563E+03  3.995682E+04 -6.612507E+03  1.622158E+03
       153   6  6.949477E+04  3.279879E+04  1.292499E+04  3.841862E+04 -8.860322E+03 -2.059130E+03
       153   7  1.282604E+05  4.467122E+04  1.368136E+04  5.878287E+04 -2.354628E+03  3.706675E+03
       153   8  1.383545E+05  5.347674E+04  2.069912E+04  6.301571E+04 -9.591536E+03  5.035541E+02
       153   9  1.500711E+05  7.011337E+04  3.488071E+04  6.782686E+04 -1.605498E+04 -4.760543E+03
       153  10  7.990402E+03  1.460569E+03 -7.278890E+03  2.536502E+04 -4.084863E-10 -1.300542E-11
       153  11 -1.520006E+03 -4.608334E+03 -8.398309E+03  1.690041E+04 -6.755985E-10 -8.678638E-11
       153  12 -1.107688E+04 -4.515169E+03 -9.031654E+03  9.013522E+03 -3.551491E-10 -2.547006E-11
       153  13  6.812297E+04  2.306551E+04  3.201122E+03  4.207305E+04 -8.786349E-10 -3.888578E-10
       153  14  6.841475E+04  2.443382E+04  6.150476E+03  3.995682E+04 -1.008620E-10  2.334811E-10
       153  15  6.949469E+04  3.279876E+04  1.292483E+04  3.841861E+04  3.050736E-10 -3.449705E-11
       153  16  1.282604E+05  4.467121E+04  1.368132E+04  5.878288E+04  1.805424E-09 -5.979588E-10
       153  17  1.383544E+05  5.347672E+04  2.069895E+04  6.301571E+04  7.298482E-10 -3.586341E-10
       153  18  1.500708E+05  7.011328E+04  3.488018E+04  6.782680E+04 -5.621898E-11 -5.165272E-10
       153  19  7.990429E+03  1.460583E+03 -7.278831E+03  2.536501E+04  4.827388E+03 -2.778319E+03
       153  20 -1.519990E+03 -4.608322E+03 -8.398270E+03  1.690040E+04  3.633828E+03 -2.740588E+03
       153  21 -1.107688E+04 -4.515168E+03 -9.031648E+03  9.013521E+03  1.666506E+03 -6.417561E+02
       153  22  6.812299E+04  2.306553E+04  3.201166E+03  4.207304E+04  3.591082E+03 -3.242470E+03
       153  23  6.841480E+04  2.443383E+04  6.150563E+03  3.995682E+04  6.612507E+03 -1.622158E+03
       153  24  6.949477E+04  3.279879E+04  1.292499E+04  3.841862E+04  8.860322E+03  2.059130E+03
       153  25  1.282604E+05  4.467122E+04  1.368136E+04  5.878287E+04  2.354628E+03 -3.706675E+03
       153  26  1.383545E+05  5.347674E+04  2.069912E+04  6.301571E+04  9.591536E+03 -5.035541E+02
       153  27  1.500711E+05  7.011337E+04  3.488071E+04  6.782686E+04  1.605498E+04  4.760543E+03
       154   1 -6.180084E+04 -2.998769E+05 -7.102481E+04  1.922391E+04 -9.420040E+02 -2.914361E+04
       154   2 -1.790476E+04 -2.743133E+05 -4.248836E+04  3.942482E+03 -2.648524E+03 -1.770506E+04
       154   3 -1.787748E+04 -2.611753E+05 -3.236272E+04  6.409526E+03 -1.905942E+03 -6.265021E+03
       154   4 -3.311175E+04 -1.849900E+05 -4.254637E+04  1.036541E+04 -9.421114E+02 -2.795337E+04
       154   5  5.825136E+03 -1.788630E+05 -1.932432E+04  1.498552E+03 -2.648502E+03 -1.751200E+04
       154   6  1.069957E+03 -1.849868E+05 -1.381811E+04  1.038035E+04 -1.905721E+03 -7.069528E+03
       154   7 -4.423350E+03 -7.009107E+04 -1.406886E+04  1.505269E+03 -9.422528E+02 -2.676290E+04
       154   8  2.955438E+04 -8.340442E+04  3.839072E+03 -9.457546E+02 -2.648483E+03 -1.731890E+04
       154   9  2.001703E+04 -1.087930E+05  4.726085E+03  1.435167E+04 -1.905510E+03 -7.874133E+03
       154  10 -6.180107E+04 -2.998778E+05 -7.102641E+04  1.922389E+04  2.017426E-10  5.321246E-10
       154  11 -1.790485E+04 -2.743136E+05 -4.248896E+04  3.942444E+03  6.269393E-11  6.131515E-10
       154  12 -1.787750E+04 -2.611753E+05 -3.236280E+04  6.409516E+03  7.238822E-11  5.153209E-10
       154  13 -3.311196E+04 -1.849909E+05 -4.254784E+04  1.036539E+04  1.999872E-10  1.155170E-09
       154  14  5.825047E+03 -1.788634E+05 -1.932491E+04  1.498514E+03 -5.973451E-10  2.137689E-09
       154  15  1.069940E+03 -1.849869E+05 -1.381821E+04  1.038034E+04  3.403410E-10  1.852066E-10
       154  16 -4.423543E+03 -7.009184E+04 -1.407021E+04  1.505249E+03  3.679309E-10 -1.384475E-10
       154  17  2.955429E+04 -8.340475E+04  3.838495E+03 -9.457915E+02  1.564223E-11 -9.790713E-10
       154  18  2.001701E+04 -1.087931E+05  4.725962E+03  1.435166E+04 -3.316761E-12 -3.985265E-10
       154  19 -6.180084E+04 -2.998769E+05 -7.102481E+04  1.922391E+04  9.420040E+02  2.914361E+04
       154  20 -1.790476E+04 -2.743133E+05 -4.248836E+04  3.942482E+03  2.648524E+03  1.770506E+04
       154  21 -1.787748E+04 -2.611753E+05 -3.236272E+04  6.409526E+03  1.905942E+03  6.265021E+03
       154  22 -3.311175E+04 -1.849900E+05 -4.254637E+04  1.036541E+04  9.421114E+02  2.795337E+04
       154  23  5.825136E+03 -1.788630E+05 -1.932432E+04  1.498552E+03  2.648502E+03  1.751200E+04
       154  24  1.069957E+03 -1.849868E+05 -1.381811E+04  1.038035E+04  1.905721E+03  7.069528E+03
       154  25 -4.423350E+03 -7.009107E+04 -1.406886E+04  1.505269E+03  9.422528E+02  2.676290E+04
       154  26  2.955438E+04 -8.340442E+04  3.839072E+03 -9.457546E+02  2.648483E+03  1.731890E+04
       154  27  2.001703E+04 -1.087930E+05  4.726085E+03  1.435167E+04  1.905510E+03  7.874133E+03
       155   1 -1.430033E+04 -2.252899E+05 -2.266466E+04  1.188118E+04 -1.098409E+03 -4.590555E+03
       155   2 -4.276213E+03 -2.042583E+05 -1.513816E+04  1.465672E+03 -5.980593E+02  3.850734E+02
       155   3 -4.796687E+03 -1.864974E+05 -1.348521E+04  8.914294E+03 -1.726787E+01  5.360843E+03
       155   4 -3.780164E+03 -1.829895E+05 -1.237896E+04  1.040108E+04 -1.098340E+03 -4.778995E+03
       155   5  1.418615E+03 -1.813568E+05 -9.570367E+03  1.469039E+03 -5.979981E+02  1.640449E+02
       155   6 -3.921295E+03 -1.829894E+05 -1.261247E+04  1.040114E+04 -1.719250E+01  5.107072E+03
       155   7  6.739878E+03 -1.406874E+05 -2.093389E+03  8.920874E+03 -1.098271E+03 -4.967448E+03
       155   8  7.113404E+03 -1.584549E+05 -4.002612E+03  1.472407E+03 -5.979368E+02 -5.699181E+01
       155   9 -3.045896E+03 -1.794814E+05 -1.173973E+04  1.188799E+04 -1.711834E+01  4.853301E+03
       155  10 -1.430034E+04 -2.252900E+05 -2.266470E+04  1.188118E+04 -4.383348E-10  7.018934E-10
       155  11 -4.276214E+03 -2.042583E+05 -1.513816E+04  1.465672E+03 -3.021138E-10  6.208828E-11
       155  12 -4.796695E+03 -1.864974E+05 -1.348526E+04  8.914294E+03 -5.826848E-10  5.595817E-10
       155  13 -3.780171E+03 -1.829895E+05 -1.237901E+04  1.040108E+04 -1.164974E-10  6.437151E-10
       155  14  1.418614E+03 -1.813568E+05 -9.570367E+03  1.469039E+03 -2.754850E-10  1.476736E-09
       155  15 -3.921302E+03 -1.829894E+05 -1.261252E+04  1.040114E+04 -8.463302E-10 -5.770779E-11
       155  16  6.739870E+03 -1.406875E+05 -2.093437E+03  8.920870E+03 -3.121949E-10 -1.897220E-10
       155  17  7.113404E+03 -1.584549E+05 -4.002613E+03  1.472407E+03  1.657983E-10 -6.382635E-10
       155  18 -3.045902E+03 -1.794815E+05 -1.173977E+04  1.188799E+04 -1.597328E-10 -2.039144E-10
       155  19 -1.430033E+04 -2.252899E+05 -2.266466E+04  1.188118E+04  1.098409E+03  4.590555E+03
       155  20 -4.276213E+03 -2.042583E+05 -1.513816E+04  1.465672E+03  5.980593E+02 -3.850734E+02
       155  21 -4.796687E+03 -1.864974E+05 -1.348521E+04  8.914294E+03  1.726787E+01 -5.360843E+03
       155  22 -3.780164E+03 -1.829895E+05 -1.237896E+04  1.040108E+04  1.098340E+03  4.778995E+03
       155  23  1.418615E+03 -1.813568E+05 -9.570367E+03  1.469039E+03  5.979981E+02 -1.640449E+02
       155  24 -3.921295E+03 -1.829894E+05 -1.261247E+04  1.040114E+04  1.719250E+01 -5.107072E+03
       155  25  6.739878E+03 -1.406874E+05 -2.093389E+03  8.920874E+03  1.098271E+03  4.967448E+03
       155  26  7.113404E+03 -1.584549E+05 -4.002612E+03  1.472407E+03  5.979368E+02  5.699181E+01
       155  27 -3.045896E+03 -1.794814E+05 -1.173973E+04  1.188799E+04  1.711834E+01 -4.853301E+03
       156   1  8.708920E+03 -1.546587E+05 -6.721714E+03  1.450826E+04  6.770973E+02  8.067980E+03
       156   2  1.839081E+04 -1.289870E+05 -7.856177E+03 -1.030742E+03  1.402687E+03  1.818937E+04
       156   3 -1.696883E+04 -1.158759E+05 -2.683727E+04  1.245087E+03  5.388802E+02  2.831050E+04
       156   4  1.140854E+03 -1.850800E+05 -1.414759E+04  1.039412E+04  6.772027E+02  7.446359E+03
       156   5  6.022373E+03 -1.787442E+05 -1.992402E+04  1.480882E+03  1.402760E+03  1.821526E+04
       156   6 -3.425219E+04 -1.850831E+05 -4.399799E+04  1.038260E+04  5.390806E+02  2.898358E+04
       156   7 -6.427216E+03 -2.155004E+05 -2.157352E+04  6.280187E+03  6.773163E+02  6.824769E+03
       156   8 -6.346222E+03 -2.284992E+05 -3.199204E+04  3.992305E+03  1.402833E+03  1.824116E+04
       156   9 -5.153560E+04 -2.542857E+05 -6.115902E+04  1.951910E+04  5.393008E+02  2.965659E+04
       156  10  8.708902E+03 -1.546587E+05 -6.721837E+03  1.450826E+04 -4.939543E-10  6.638064E-10
       156  11  1.839072E+04 -1.289874E+05 -7.856802E+03 -1.030762E+03  1.491509E-09  5.946455E-10
       156  12 -1.696904E+04 -1.158768E+05 -2.683877E+04  1.245075E+03  4.620351E-10  6.451932E-11
       156  13  1.140839E+03 -1.850800E+05 -1.414769E+04  1.039412E+04 -4.845814E-10  6.052727E-10
       156  14  6.022281E+03 -1.787446E+05 -1.992465E+04  1.480862E+03  3.352263E-10  1.537669E-09
       156  15 -3.425242E+04 -1.850840E+05 -4.399957E+04  1.038259E+04 -8.133978E-11  2.893941E-11
       156  16 -6.427229E+03 -2.155004E+05 -2.157361E+04  6.280183E+03 -1.605290E-10 -4.728362E-10
       156  17 -6.346313E+03 -2.284996E+05 -3.199267E+04  3.992284E+03  2.525922E-10 -6.590299E-10
       156  18 -5.153584E+04 -2.542866E+05 -6.116067E+04  1.951909E+04  7.760778E-10  1.239004E-10
       156  19  8.708920E+03 -1.546587E+05 -6.721714E+03  1.450826E+04 -6.770973E+02 -8.067980E+03
       156  20  1.839081E+04 -1.289870E+05 -7.856177E+03 -1.030742E+03 -1.402687E+03 -1.818937E+04
       156  21 -1.696883E+04 -1.158759E+05 -2.683727E+04  1.245087E+03 -5.388802E+02 -2.831050E+04
       156  22  1.140854E+03 -1.850800E+05 -1.414759E+04  1.039412E+04 -6.772027E+02 -7.446359E+03
       156  23  6.022373E+03 -1.787442E+05 -1.992402E+04  1.480882E+03 -1.402760E+03 -1.821526E+04
       156  24 -3.425219E+04 -1.850831E+05 -4.399799E+04  1.038260E+04 -5.390806E+02 -2.898358E+04
       156  25 -6.427216E+03 -2.155004E+05 -2.157352E+04  6.280187E+03 -6.773163E+02 -6.824769E+03
       156  26 -6.346222E+03 -2.284992E+05 -3.199204E+04  3.992305E+03 -1.402833E+03 -1.824116E+04
       156  27 -5.153560E+04 -2.542857E+05 -6.115902E+04  1.951910E+04 -5.393008E+02 -2.965659E+04
       157   1  1.140285E+05  3.859625E+04  2.366997E+04  4.196505E+04  1.183579E+04  4.158837E+03
       157   2  1.099698E+05  2.016714E+04  1.237388E+04  4.220892E+04  7.607430E+03  2.015191E+03
       157   3  1.109276E+05  1.852681E+04  8.583758E+03  4.004222E+04  3.160432E+03  4.537996E+02
       157   4  9.545035E+04  2.703959E+04  1.774827E+04  3.221893E+04  1.138093E+04  3.987896E+03
       157   5  9.204549E+04  1.208148E+04  7.479863E+03  3.590218E+04  7.492910E+03  1.972157E+03
       157   6  9.358992E+04  1.384497E+04  4.448030E+03  3.717485E+04  3.386208E+03  5.386083E+02
       157   7  7.687278E+04  1.548329E+04  1.182660E+04  2.247323E+04  1.092609E+04  3.816971E+03
       157   8  7.412158E+04  3.995915E+03  2.585837E+03  2.959564E+04  7.378393E+03  1.929126E+03
       157   9  7.625248E+04  9.163108E+03  3.122613E+02  3.430754E+04  3.611979E+03  6.234165E+02
       157  10  1.140283E+05  3.859620E+04  2.366967E+04  4.196501E+04 -7.415088E-10  6.931279E-11
       157  11  1.099697E+05  2.016712E+04  1.237376E+04  4.220890E+04 -1.967138E-10 -5.485161E-10
       157  12  1.109276E+05  1.852680E+04  8.583739E+03  4.004221E+04 -9.979983E-10  4.648325E-10
       157  13  9.545020E+04  2.703954E+04  1.774799E+04  3.221889E+04  9.436415E-11 -1.162916E-09
       157  14  9.204543E+04  1.208146E+04  7.479750E+03  3.590217E+04  4.551714E-10 -1.926760E-09
       157  15  9.358991E+04  1.384497E+04  4.448008E+03  3.717485E+04  6.420532E-10 -3.923636E-10
       157  16  7.687265E+04  1.548325E+04  1.182635E+04  2.247320E+04  4.511981E-10  8.857263E-10
       157  17  7.412152E+04  3.995896E+03  2.585727E+03  2.959563E+04  6.279202E-10  3.885104E-10
       157  18  7.625246E+04  9.163104E+03  3.122361E+02  3.430753E+04  1.587228E-09 -3.111461E-10
       157  19  1.140285E+05  3.859625E+04  2.366997E+04  4.196505E+04 -1.183579E+04 -4.158837E+03
       157  20  1.099698E+05  2.016714E+04  1.237388E+04  4.220892E+04 -7.607430E+03 -2.015191E+03
       157  21  1.109276E+05  1.852681E+04  8.583758E+03  4.004222E+04 -3.160432E+03 -4.537996E+02
       157  22  9.545035E+04  2.703959E+04  1.774827E+04  3.221893E+04 -1.138093E+04 -3.987896E+03
       157  23  9.204549E+04  1.208148E+04  7.479863E+03  3.590218E+04 -7.492910E+03 -1.972157E+03
       157  24  9.358992E+04  1.384497E+04  4.448030E+03  3.717485E+04 -3.386208E+03 -5.386083E+02
       157  25  7.687278E+04  1.548329E+04  1.182660E+04  2.247323E+04 -1.092609E+04 -3.816971E+03
       157  26  7.412158E+04  3.995915E+03  2.585837E+03  2.959564E+04 -7.378393E+03 -1.929126E+03
       157  27  7.625248E+04  9.163108E+03  3.122613E+02  3.430754E+04 -3.611979E+03 -6.234165E+02
       158   1  1.053834E+05  2.058405E+04  6.870914E+03  3.994200E+04  2.664038E+03  4.495257E+02
       158   2  1.029296E+05  1.725908E+04  4.277313E+03  3.853495E+04  1.694658E+03  2.005826E+02
       158   3  9.977608E+04  1.676114E+04  2.773241E+03  3.834259E+04  7.116034E+02 -1.191717E+01
       158   4  9.301235E+04  1.556883E+04  3.595213E+03  3.617293E+04  2.712330E+03  4.676614E+02
       158   5  9.327775E+04  1.354330E+04  1.763213E+03  3.579627E+04  1.764260E+03  2.267242E+02
       158   6  9.283918E+04  1.434058E+04  1.003873E+03  3.663430E+04  8.025109E+02  2.222834E+01
       158   7  8.064141E+04  1.055363E+04  3.194989E+02  3.240393E+04  2.760621E+03  4.857966E+02
       158   8  8.362597E+04  9.827543E+03 -7.508912E+02  3.305764E+04  1.833860E+03  2.528653E+02
       158   9  8.590236E+04  1.192004E+04 -7.654919E+02  3.492604E+04  8.934171E+02  5.637339E+01
       158  10  1.053834E+05  2.058404E+04  6.870900E+03  3.994200E+04 -5.518795E-10  5.955664E-10
       158  11  1.029296E+05  1.725908E+04  4.277308E+03  3.853495E+04  7.080202E-10  8.178684E-11
       158  12  9.977608E+04  1.676114E+04  2.773240E+03  3.834259E+04  1.304362E-09  9.995978E-10
       158  13  9.301234E+04  1.556883E+04  3.595199E+03  3.617293E+04 -1.862100E-09 -1.285415E-09
       158  14  9.327774E+04  1.354330E+04  1.763207E+03  3.579627E+04  1.658728E-09 -2.116702E-09
       158  15  9.283918E+04  1.434058E+04  1.003872E+03  3.663430E+04  3.493232E-09  2.919446E-09
       158  16  8.064140E+04  1.055363E+04  3.194841E+02  3.240392E+04 -9.425829E-10 -1.110495E-09
       158  17  8.362597E+04  9.827542E+03 -7.508976E+02  3.305764E+04  4.988487E-10  1.500300E-09
       158  18  8.590236E+04  1.192004E+04 -7.654935E+02  3.492604E+04  2.575460E-09  8.660296E-10
       158  19  1.053834E+05  2.058405E+04  6.870914E+03  3.994200E+04 -2.664038E+03 -4.495257E+02
       158  20  1.029296E+05  1.725908E+04  4.277313E+03  3.853495E+04 -1.694658E+03 -2.005826E+02
       158  21  9.977608E+04  1.676114E+04  2.773241E+03  3.834259E+04 -7.116034E+02  1.191717E+01
       158  22  9.301235E+04  1.556883E+04  3.595213E+03  3.617293E+04 -2.712330E+03 -4.676614E+02
       158  23  9.327775E+04  1.354330E+04  1.763213E+03  3.579627E+04 -1.764260E+03 -2.267242E+02
       158  24  9.283918E+04  1.434058E+04  1.003873E+03  3.663430E+04 -8.025109E+02 -2.222834E+01
       158  25  8.064141E+04  1.055363E+04  3.194989E+02  3.240393E+04 -2.760621E+03 -4.857966E+02
       158  26  8.362597E+04  9.827543E+03 -7.508912E+02  3.305764E+04 -1.833860E+03 -2.528653E+02
       158  27  8.590236E+04  1.192004E+04 -7.654919E+02  3.492604E+04 -8.934171E+02 -5.637339E+01
       159   1  9.619684E+04  1.580219E+04  1.657742E+03  3.749794E+04  5.470917E+02  2.493733E+01
       159   2  9.393083E+04  1.388625E+04  5.486150E+02  3.593515E+04  2.853772E+02  8.372029E+01
       159   3  9.037697E+04  1.347543E+04 -3.673323E+02  3.590788E+04  2.280826E+01  1.447719E+02
       159   4  9.277272E+04  1.449664E+04  7.778217E+02  3.653699E+04  6.268699E+02  5.490264E+01
       159   5  9.340888E+04  1.368836E+04  4.132307E+02  3.579020E+04  3.664833E+02  1.141846E+02
       159   6  9.275698E+04  1.438496E+04  2.407856E+02  3.657894E+04  1.052415E+02  1.757349E+02
       159   7  8.934861E+04  1.319109E+04 -1.021028E+02  3.557604E+04  7.066480E+02  8.486787E+01
       159   8  9.288693E+04  1.349047E+04  2.778462E+02  3.564525E+04  4.475894E+02  1.446490E+02
       159   9  9.513699E+04  1.529450E+04  8.489032E+02  3.725000E+04  1.876752E+02  2.066980E+02
       159  10  9.619684E+04  1.580219E+04  1.657741E+03  3.749794E+04  1.623791E-09  1.705771E-09
       159  11  9.393083E+04  1.388625E+04  5.486148E+02  3.593515E+04  1.471765E-10  5.515495E-10
       159  12  9.037697E+04  1.347543E+04 -3.673324E+02  3.590788E+04 -1.723281E-10  2.325183E-09
       159  13  9.277272E+04  1.449664E+04  7.778209E+02  3.653699E+04  2.452287E-09  1.390687E-09
       159  14  9.340888E+04  1.368836E+04  4.132304E+02  3.579020E+04  4.224279E-10  6.267094E-10
       159  15  9.275698E+04  1.438496E+04  2.407856E+02  3.657894E+04  8.514066E-11 -4.499895E-10
       159  16  8.934861E+04  1.319109E+04 -1.021038E+02  3.557604E+04  1.348401E-09  2.034161E-09
       159  17  9.288693E+04  1.349047E+04  2.778457E+02  3.564525E+04 -3.809314E-10  1.499018E-09
       159  18  9.513699E+04  1.529450E+04  8.489031E+02  3.725000E+04  6.875202E-10  5.616173E-11
       159  19  9.619684E+04  1.580219E+04  1.657742E+03  3.749794E+04 -5.470917E+02 -2.493733E+01
       159  20  9.393083E+04  1.388625E+04  5.486150E+02  3.593515E+04 -2.853772E+02 -8.372029E+01
       159  21  9.037697E+04  1.347543E+04 -3.673323E+02  3.590788E+04 -2.280826E+01 -1.447719E+02
       159  22  9.277272E+04  1.449664E+04  7.778217E+02  3.653699E+04 -6.268699E+02 -5.490264E+01
       159  23  9.340888E+04  1.368836E+04  4.132307E+02  3.579020E+04 -3.664833E+02 -1.141846E+02
       159  24  9.275698E+04  1.438496E+04  2.407856E+02  3.657894E+04 -1.052415E+02 -1.757349E+02
       159  25  8.934861E+04  1.319109E+04 -1.021028E+02  3.557604E+04 -7.066480E+02 -8.486787E+01
       159  26  9.288693E+04  1.349047E+04  2.778462E+02  3.564525E+04 -4.475894E+02 -1.446490E+02
       159  27  9.513699E+04  1.529450E+04  8.489032E+02  3.725000E+04 -1.876752E+02 -2.066980E+02
       160   1  8.699246E+04  1.223875E+04 -1.307932E+03  3.499708E+04 -4.276014E+01  2.135471E+02
       160   2  8.474939E+04  1.045016E+04 -2.114650E+03  3.341817E+04 -1.597070E+02  3.293868E+02
       160   3  8.115332E+04  1.004418E+04 -2.869563E+03  3.340168E+04 -2.767173E+02  4.454092E+02
       160   4  9.274827E+04  1.439839E+04  1.911815E+02  3.656966E+04  3.900242E+01  2.442578E+02
       160   5  9.342417E+04  1.370286E+04  1.284698E+02  3.579004E+04 -7.783896E+01  3.601362E+02
       160   6  9.274705E+04  1.438992E+04  1.174815E+02  3.657283E+04 -1.947443E+02  4.761973E+02
       160   7  9.850409E+04  1.655801E+04  1.690287E+03  3.814225E+04  1.207656E+02  2.749687E+02
       160   8  1.020990E+05  1.695556E+04  2.371583E+03  3.816195E+04  4.030364E+00  3.908861E+02
       160   9  1.043409E+05  1.873568E+04  3.104525E+03  3.974405E+04 -1.127695E+02  5.069863E+02
       160  10  8.699246E+04  1.223875E+04 -1.307932E+03  3.499708E+04 -8.969396E-11  8.010745E-10
       160  11  8.474939E+04  1.045016E+04 -2.114650E+03  3.341817E+04 -2.789588E-10  1.664267E-09
       160  12  8.115332E+04  1.004418E+04 -2.869563E+03  3.340168E+04 -5.183950E-10  2.433743E-09
       160  13  9.274827E+04  1.439839E+04  1.911814E+02  3.656966E+04 -8.598922E-10 -9.284945E-11
       160  14  9.342417E+04  1.370286E+04  1.284696E+02  3.579004E+04  1.457665E-09  1.152169E-09
       160  15  9.274705E+04  1.438992E+04  1.174810E+02  3.657283E+04  3.134794E-10 -4.080994E-10
       160  16  9.850409E+04  1.655801E+04  1.690286E+03  3.814225E+04  3.316425E-10  1.499078E-09
       160  17  1.020990E+05  1.695556E+04  2.371583E+03  3.816195E+04  4.146167E-10 -8.328638E-10
       160  18  1.043409E+05  1.873568E+04  3.104525E+03  3.974405E+04  5.148743E-10  1.396843E-09
       160  19  8.699246E+04  1.223875E+04 -1.307932E+03  3.499708E+04  4.276014E+01 -2.135471E+02
       160  20  8.474939E+04  1.045016E+04 -2.114650E+03  3.341817E+04  1.597070E+02 -3.293868E+02
       160  21  8.115332E+04  1.004418E+04 -2.869563E+03  3.340168E+04  2.767173E+02 -4.454092E+02
       160  22  9.274827E+04  1.439839E+04  1.911815E+02  3.656966E+04 -3.900242E+01 -2.442578E+02
       160  23  9.342417E+04  1.370286E+04  1.284698E+02  3.579004E+04  7.783896E+01 -3.601362E+02
       160  24  9.274705E+04  1.438992E+04  1.174815E+02  3.657283E+04  1.947443E+02 -4.761973E+02
       160  25  9.850409E+04  1.655801E+04  1.690287E+03  3.814225E+04 -1.207656E+02 -2.749687E+02
       160  26  1.020990E+05  1.695556E+04  2.371583E+03  3.816195E+04 -4.030364E+00 -3.908861E+02
       160  27  1.043409E+05  1.873568E+04  3.104525E+03  3.974405E+04  1.127695E+02 -5.069863E+02
       161   1  7.778520E+04  8.781992E+03 -3.752327E+03  3.248843E+04 -3.277147E+02  5.194755E+02
       161   2  7.553742E+04  6.997889E+03 -4.443602E+03  3.090243E+04 -4.707049E+02  6.258920E+02
       161   3  7.194161E+04  6.607383E+03 -5.061389E+03  3.088059E+04 -6.136226E+02  7.321421E+02
       161   4  9.274778E+04  1.438980E+04  1.267908E+02  3.657418E+04 -2.456676E+02  5.502908E+02
       161   5  9.342289E+04  1.370083E+04  1.805994E+02  3.578916E+04 -3.887596E+02  6.566674E+02
       161   6  9.274998E+04  1.440547E+04  3.079709E+02  3.656829E+04 -5.317794E+02  7.628774E+02
       161   7  1.077106E+05  1.999762E+04  4.005889E+03  4.066001E+04 -1.636184E+02  5.811069E+02
       161   8  1.113086E+05  2.040377E+04  4.804766E+03  4.067600E+04 -3.068119E+02  6.874437E+02
       161   9  1.135587E+05  2.220355E+04  5.677275E+03  4.225614E+04 -4.499335E+02  7.936137E+02
       161  10  7.778520E+04  8.781992E+03 -3.752327E+03  3.248843E+04 -9.511341E-10  7.943165E-10
       161  11  7.553742E+04  6.997889E+03 -4.443603E+03  3.090243E+04  9.176254E-10  5.552920E-10
       161  12  7.194161E+04  6.607382E+03 -5.061391E+03  3.088059E+04  1.448057E-09  5.280291E-10
       161  13  9.274778E+04  1.438980E+04  1.267901E+02  3.657418E+04 -1.112140E-10  1.624189E-09
       161  14  9.342289E+04  1.370083E+04  1.805983E+02  3.578916E+04  5.480541E-10 -8.692026E-10
       161  15  9.274998E+04  1.440546E+04  3.079692E+02  3.656829E+04  1.676985E-10  5.109294E-10
       161  16  1.077106E+05  1.999762E+04  4.005888E+03  4.066001E+04  9.120673E-10 -6.889483E-11
       161  17  1.113086E+05  2.040377E+04  4.804764E+03  4.067600E+04 -1.011883E-09 -1.550999E-09
       161  18  1.135587E+05  2.220355E+04  5.677274E+03  4.225614E+04 -8.575430E-10 -1.500341E-09
       161  19  7.778520E+04  8.781992E+03 -3.752327E+03  3.248843E+04  3.277147E+02 -5.194755E+02
       161  20  7.553742E+04  6.997889E+03 -4.443602E+03  3.090243E+04  4.707049E+02 -6.258920E+02
       161  21  7.194161E+04  6.607383E+03 -5.061389E+03  3.088059E+04  6.136226E+02 -7.321421E+02
       161  22  9.274778E+04  1.438980E+04  1.267908E+02  3.657418E+04  2.456676E+02 -5.502908E+02
       161  23  9.342289E+04  1.370083E+04  1.805994E+02  3.578916E+04  3.887596E+02 -6.566674E+02
       161  24  9.274998E+04  1.440547E+04  3.079709E+02  3.656829E+04  5.317794E+02 -7.628774E+02
       161  25  1.077106E+05  1.999762E+04  4.005889E+03  4.066001E+04  1.636184E+02 -5.811069E+02
       161  26  1.113086E+05  2.040377E+04  4.804766E+03  4.067600E+04  3.068119E+02 -6.874437E+02
       161  27  1.135587E+05  2.220355E+04  5.677275E+03  4.225614E+04  4.499335E+02 -7.936137E+02
       162   1  6.855843E+04  5.340821E+03 -5.863696E+03  3.000493E+04 -7.042723E+02  7.922187E+02
       162   2  6.628520E+04  3.507165E+03 -6.304735E+03  2.837413E+04 -1.110809E+03  7.997059E+02
       162   3  6.277459E+04  3.285510E+03 -6.418583E+03  2.826711E+04 -1.515567E+03  8.024709E+02
       162   4  9.276464E+04  1.438339E+04  3.997000E+02  3.658585E+04 -6.208803E+02  8.235343E+02
       162   5  9.339663E+04  1.367367E+04  7.059641E+02  3.578767E+04 -1.030191E+03  8.299774E+02
       162   6  9.279183E+04  1.457652E+04  1.341624E+03  3.651330E+04 -1.437725E+03  8.316978E+02
       162   7  1.169715E+05  2.342602E+04  6.663070E+03  4.316704E+04 -5.374845E+02  8.548513E+02
       162   8  1.205088E+05  2.384024E+04  7.716616E+03  4.320153E+04 -9.495688E+02  8.602505E+02
       162   9  1.228099E+05  2.586760E+04  9.101756E+03  4.475985E+04 -1.359878E+03  8.609264E+02
       162  10  6.855843E+04  5.340820E+03 -5.863698E+03  3.000493E+04 -3.565107E-11  3.466666E-10
       162  11  6.628520E+04  3.507164E+03 -6.304739E+03  2.837413E+04 -6.407564E-10  1.685907E-09
       162  12  6.277459E+04  3.285509E+03 -6.418588E+03  2.826711E+04  1.346693E-10  1.895759E-10
       162  13  9.276464E+04  1.438339E+04  3.996980E+02  3.658585E+04  1.922124E-10 -1.037531E-09
       162  14  9.339663E+04  1.367367E+04  7.059609E+02  3.578767E+04 -1.572679E-09 -5.649726E-10
       162  15  9.279183E+04  1.457652E+04  1.341618E+03  3.651330E+04 -8.367313E-10  2.691238E-10
       162  16  1.169715E+05  2.342602E+04  6.663068E+03  4.316704E+04  9.292604E-10 -8.065379E-10
       162  17  1.205088E+05  2.384024E+04  7.716613E+03  4.320153E+04 -5.740502E-10  1.217504E-09
       162  18  1.228099E+05  2.586760E+04  9.101751E+03  4.475985E+04 -3.869438E-10  1.156735E-09
       162  19  6.855843E+04  5.340821E+03 -5.863696E+03  3.000493E+04  7.042723E+02 -7.922187E+02
       162  20  6.628520E+04  3.507165E+03 -6.304735E+03  2.837413E+04  1.110809E+03 -7.997059E+02
       162  21  6.277459E+04  3.285510E+03 -6.418583E+03  2.826711E+04  1.515567E+03 -8.024709E+02
       162  22  9.276464E+04  1.438339E+04  3.997000E+02  3.658585E+04  6.208803E+02 -8.235343E+02
       162  23  9.339663E+04  1.367367E+04  7.059641E+02  3.578767E+04  1.030191E+03 -8.299774E+02
       162  24  9.279183E+04  1.457652E+04  1.341624E+03  3.651330E+04  1.437725E+03 -8.316978E+02
       162  25  1.169715E+05  2.342602E+04  6.663070E+03  4.316704E+04  5.374845E+02 -8.548513E+02
       162  26  1.205088E+05  2.384024E+04  7.716616E+03  4.320153E+04  9.495688E+02 -8.602505E+02
       162  27  1.228099E+05  2.586760E+04  9.101756E+03  4.475985E+04  1.359878E+03 -8.609264E+02
       163   1  5.924585E+04  2.003093E+03 -6.918466E+03  2.780865E+04 -1.821360E+03  7.932462E+02
       163   2  5.691961E+04 -3.349838E+02 -6.354126E+03  2.571686E+04 -3.401525E+03  3.542305E+02
       163   3  5.435677E+04  1.217247E+03 -3.968633E+03  2.459879E+04 -4.952476E+03 -1.625494E+02
       163   4  9.290648E+04  1.430732E+04  1.734449E+03  3.668293E+04 -1.719647E+03  8.314359E+02
       163   5  9.317007E+04  1.342105E+04  3.050734E+03  3.579678E+04 -3.345341E+03  3.753189E+02
       163   6  9.320603E+04  1.643397E+04  6.224154E+03  3.588430E+04 -4.941834E+03 -1.585676E+02
       163   7  1.265681E+05  2.661156E+04  1.038724E+04  4.555762E+04 -1.617928E+03  8.696277E+02
       163   8  1.294218E+05  2.717717E+04  1.245548E+04  4.587723E+04 -3.289153E+03  3.964086E+02
       163   9  1.320569E+05  3.165088E+04  1.641685E+04  4.717051E+04 -4.931192E+03 -1.545855E+02
       163  10  5.924584E+04  2.003092E+03 -6.918473E+03  2.780865E+04  1.350142E-09  1.141093E-09
       163  11  5.691960E+04 -3.349871E+02 -6.354148E+03  2.571686E+04 -1.706377E-10 -7.101858E-10
       163  12  5.435675E+04  1.217240E+03 -3.968679E+03  2.459879E+04 -4.046154E-11 -2.574973E-09
       163  13  9.290648E+04  1.430732E+04  1.734442E+03  3.668294E+04 -6.047920E-10 -1.326695E-10
       163  14  9.317006E+04  1.342104E+04  3.050713E+03  3.579678E+04 -2.587468E-10  6.811724E-10
       163  15  9.320600E+04  1.643396E+04  6.224108E+03  3.588430E+04 -1.509670E-09 -6.114754E-10
       163  16  1.265681E+05  2.661156E+04  1.038723E+04  4.555762E+04 -1.501442E-09  1.322992E-09
       163  17  1.294218E+05  2.717717E+04  1.245546E+04  4.587723E+04  3.226198E-10  3.773768E-10
       163  18  1.320569E+05  3.165087E+04  1.641680E+04  4.717050E+04 -8.852041E-10  5.030138E-10
       163  19  5.924585E+04  2.003093E+03 -6.918466E+03  2.780865E+04  1.821360E+03 -7.932462E+02
       163  20  5.691961E+04 -3.349838E+02 -6.354126E+03  2.571686E+04  3.401525E+03 -3.542305E+02
       163  21  5.435677E+04  1.217247E+03 -3.968633E+03  2.459879E+04  4.952476E+03  1.625494E+02
       163  22  9.290648E+04  1.430732E+04  1.734449E+03  3.668293E+04  1.719647E+03 -8.314359E+02
       163  23  9.317007E+04  1.342105E+04  3.050734E+03  3.579678E+04  3.345341E+03 -3.753189E+02
       163  24  9.320603E+04  1.643397E+04  6.224154E+03  3.588430E+04  4.941834E+03  1.585676E+02
       163  25  1.265681E+05  2.661156E+04  1.038724E+04  4.555762E+04  1.617928E+03 -8.696277E+02
       163  26  1.294218E+05  2.717717E+04  1.245548E+04  4.587723E+04  3.289153E+03 -3.964086E+02
       163  27  1.320569E+05  3.165088E+04  1.641685E+04  4.717051E+04  4.931192E+03  1.545855E+02
       164   1  4.918663E+04 -2.769632E+02 -3.323650E+03  2.855594E+04 -6.488524E+03 -4.549455E+02
       164   2  4.711227E+04 -7.936065E+03  1.144456E+03  2.154329E+04 -1.282693E+04 -2.782193E+03
       164   3  5.445776E+04  1.222744E+04  1.756796E+04  9.226477E+03 -1.869818E+04 -6.353721E+03
       164   4  9.420737E+04  1.344831E+04  7.701258E+03  3.761800E+04 -6.098401E+03 -3.084458E+02
       164   5  9.103537E+04  1.089030E+04  1.295104E+04  3.598095E+04 -1.316443E+04 -2.908966E+03
       164   6  9.742637E+04  3.629758E+04  3.073192E+04  2.904007E+04 -1.976327E+04 -6.753833E+03
       164   7  1.392302E+05  2.717359E+04  1.872604E+04  4.668060E+04 -5.708247E+03 -1.619390E+02
       164   8  1.349601E+05  2.971685E+04  2.475739E+04  5.041950E+04 -1.350195E+04 -3.035751E+03
       164   9  1.403964E+05  6.036830E+04  4.389553E+04  4.885487E+04 -2.082841E+04 -7.154004E+03
       164  10  4.918659E+04 -2.769747E+02 -3.323729E+03  2.855594E+04 -3.983381E-10 -1.114519E-09
       164  11  4.711209E+04 -7.936118E+03  1.144132E+03  2.154327E+04  3.531607E-10 -3.555833E-10
       164  12  5.445738E+04  1.222731E+04  1.756723E+04  9.226382E+03  1.617828E-10 -2.522771E-10
       164  13  9.420733E+04  1.344830E+04  7.701188E+03  3.761800E+04 -1.272959E-09 -1.405484E-09
       164  14  9.103518E+04  1.089024E+04  1.295070E+04  3.598092E+04 -1.446333E-09 -1.383133E-09
       164  15  9.742594E+04  3.629743E+04  3.073110E+04  2.903996E+04 -6.035120E-10 -1.115621E-09
       164  16  1.392301E+05  2.717358E+04  1.872598E+04  4.668060E+04 -9.123549E-10 -1.169570E-09
       164  17  1.349599E+05  2.971679E+04  2.475703E+04  5.041947E+04 -1.296578E-09 -8.338136E-10
       164  18  1.403959E+05  6.036813E+04  4.389462E+04  4.885475E+04 -6.909025E-10 -3.435202E-10
       164  19  4.918663E+04 -2.769632E+02 -3.323650E+03  2.855594E+04  6.488524E+03  4.549455E+02
       164  20  4.711227E+04 -7.936065E+03  1.144456E+03  2.154329E+04  1.282693E+04  2.782193E+03
       164  21  5.445776E+04  1.222744E+04  1.756796E+04  9.226477E+03  1.869818E+04  6.353721E+03
       164  22  9.420737E+04  1.344831E+04  7.701258E+03  3.761800E+04  6.098401E+03  3.084458E+02
       164  23  9.103537E+04  1.089030E+04  1.295104E+04  3.598095E+04  1.316443E+04  2.908966E+03
       164  24  9.742637E+04  3.629758E+04  3.073192E+04  2.904007E+04  1.976327E+04  6.753833E+03
       164  25  1.392302E+05  2.717359E+04  1.872604E+04  4.668060E+04  5.708247E+03  1.619390E+02
       164  26  1.349601E+05  2.971685E+04  2.475739E+04  5.041950E+04  1.350195E+04  3.035751E+03
       164  27  1.403964E+05  6.036830E+04  4.389553E+04  4.885487E+04  2.082841E+04  7.154004E+03
       165   1 -2.339033E+01 -1.359610E+05 -5.977719E+02  7.102454E+00 -3.414433E+00  5.085508E+01
       165   2 -2.270113E+01 -1.360317E+05 -7.539134E+02  1.865956E+01 -6.667187E+00  4.038957E+02
       165   3 -2.232702E+02 -1.361988E+05 -1.190264E+03 -5.083986E+01 -1.161997E+01  7.569408E+02
       165   4 -5.495435E+00 -1.358886E+05 -5.808706E+02 -1.799933E+01 -3.414857E+00  5.211597E+01
       165   5  2.469222E+01 -1.358403E+05 -7.083954E+02  2.250512E+01 -6.667920E+00  4.060949E+02
       165   6 -1.465408E+02 -1.358886E+05 -1.116781E+03 -1.804651E+01 -1.162098E+01  7.600785E+02
       165   7  1.239946E+01 -1.358161E+05 -5.639692E+02 -4.310112E+01 -3.415282E+00  5.337686E+01
       165   8  7.208557E+01 -1.356489E+05 -6.628774E+02  2.635069E+01 -6.668653E+00  4.082942E+02
       165   9 -6.981148E+01 -1.355783E+05 -1.043298E+03  1.474686E+01 -1.162199E+01  7.632162E+02
       165  10 -2.339033E+01 -1.359610E+05 -5.977719E+02  7.102454E+00  2.542549E-09  4.486417E-09
       165  11 -2.270118E+01 -1.360317E+05 -7.539137E+02  1.865956E+01 -7.897148E-10  2.012336E-09
       165  12 -2.232704E+02 -1.361988E+05 -1.190266E+03 -5.083985E+01 -4.381068E-10  4.474769E-10
       165  13 -5.495436E+00 -1.358886E+05 -5.808706E+02 -1.799933E+01  2.641220E-09 -5.232834E-10
       165  14  2.469217E+01 -1.358403E+05 -7.083957E+02  2.250513E+01 -1.613943E-09 -1.174500E-09
       165  15 -1.465410E+02 -1.358886E+05 -1.116782E+03 -1.804650E+01 -4.009103E-10 -1.190752E-09
       165  16  1.239946E+01 -1.358161E+05 -5.639692E+02 -4.310112E+01  1.486265E-09 -4.490085E-09
       165  17  7.208552E+01 -1.356489E+05 -6.628777E+02  2.635070E+01 -1.791691E-09 -2.018344E-09
       165  18 -6.981163E+01 -1.355783E+05 -1.043299E+03  1.474687E+01 -9.686150E-10 -1.695426E-11
       165  19 -2.339033E+01 -1.359610E+05 -5.977719E+02  7.102454E+00  3.414433E+00 -5.085508E+01
       165  20 -2.270113E+01 -1.360317E+05 -7.539134E+02  1.865956E+01  6.667187E+00 -4.038957E+02
       165  21 -2.232702E+02 -1.361988E+05 -1.190264E+03 -5.083986E+01  1.161997E+01 -7.569408E+02
       165  22 -5.495435E+00 -1.358886E+05 -5.808706E+02 -1.799933E+01  3.414857E+00 -5.211597E+01
       165  23  2.469222E+01 -1.358403E+05 -7.083954E+02  2.250512E+01  6.667920E+00 -4.060949E+02
       165  24 -1.465408E+02 -1.358886E+05 -1.116781E+03 -1.804651E+01  1.162098E+01 -7.600785E+02
       165  25  1.239946E+01 -1.358161E+05 -5.639692E+02 -4.310112E+01  3.415282E+00 -5.337686E+01
       165  26  7.208557E+01 -1.356489E+05 -6.628774E+02  2.635069E+01  6.668653E+00 -4.082942E+02
       165  27 -6.981148E+01 -1.355783E+05 -1.043298E+03  1.474686E+01  1.162199E+01 -7.632162E+02
       166   1 -3.242289E+01 -1.364597E+05 -1.498436E+03  2.100678E+02 -1.511977E+01  9.784680E+02
       166   2  6.358671E+01 -1.362692E+05 -2.417086E+03 -9.420678E+01 -2.033795E+01  2.144069E+03
       166   3 -1.708197E+03 -1.366976E+05 -4.561675E+03 -4.797941E+02 -2.398633E+01  3.309669E+03
       166   4  8.048501E+01 -1.360046E+05 -1.389933E+03 -1.790400E+01 -1.512117E+01  9.815666E+02
       166   5  2.055727E+02 -1.356953E+05 -2.280663E+03  2.248232E+01 -2.033829E+01  2.146302E+03
       166   6 -1.536982E+03 -1.360048E+05 -4.396729E+03 -1.844400E+01 -2.398432E+01  3.311036E+03
       166   7  1.933931E+02 -1.355496E+05 -1.281430E+03 -2.458760E+02 -1.512257E+01  9.846651E+02
       166   8  3.475587E+02 -1.351215E+05 -2.144240E+03  1.391715E+02 -2.033863E+01  2.148534E+03
       166   9 -1.365766E+03 -1.353119E+05 -4.231783E+03  4.429066E+02 -2.398232E+01  3.312402E+03
       166  10 -3.242315E+01 -1.364597E+05 -1.498437E+03  2.100678E+02 -2.132387E-10 -1.061991E-09
       166  11  6.358548E+01 -1.362692E+05 -2.417095E+03 -9.420675E+01  9.181088E-11 -3.260740E-10
       166  12 -1.708200E+03 -1.366977E+05 -4.561695E+03 -4.797940E+02 -3.646390E-10  5.232809E-10
       166  13  8.048475E+01 -1.360046E+05 -1.389935E+03 -1.790399E+01  4.242660E-10 -5.341087E-10
       166  14  2.055714E+02 -1.356953E+05 -2.280672E+03  2.248235E+01  1.457242E-09 -1.331191E-10
       166  15 -1.536985E+03 -1.360048E+05 -4.396750E+03 -1.844394E+01 -8.833742E-11  1.107609E-10
       166  16  1.933928E+02 -1.355496E+05 -1.281432E+03 -2.458760E+02 -2.837592E-10  6.526952E-10
       166  17  3.475574E+02 -1.351215E+05 -2.144249E+03  1.391716E+02  2.831697E-10  9.601693E-10
       166  18 -1.365769E+03 -1.353119E+05 -4.231804E+03  4.429066E+02  3.803634E-10 -3.156540E-10
       166  19 -3.242289E+01 -1.364597E+05 -1.498436E+03  2.100678E+02  1.511977E+01 -9.784680E+02
       166  20  6.358671E+01 -1.362692E+05 -2.417086E+03 -9.420678E+01  2.033795E+01 -2.144069E+03
       166  21 -1.708197E+03 -1.366976E+05 -4.561675E+03 -4.797941E+02  2.398633E+01 -3.309669E+03
       166  22  8.048501E+01 -1.360046E+05 -1.389933E+03 -1.790400E+01  1.512117E+01 -9.815666E+02
       166  23  2.055727E+02 -1.356953E+05 -2.280663E+03  2.248232E+01  2.033829E+01 -2.146302E+03
       166  24 -1.536982E+03 -1.360048E+05 -4.396729E+03 -1.844400E+01  2.398432E+01 -3.311036E+03
       166  25  1.933931E+02 -1.355496E+05 -1.281430E+03 -2.458760E+02  1.512257E+01 -9.846651E+02
       166  26  3.475587E+02 -1.351215E+05 -2.144240E+03  1.391715E+02  2.033863E+01 -2.148534E+03
       166  27 -1.365766E+03 -1.353119E+05 -4.231783E+03  4.429066E+02  2.398232E+01 -3.312402E+03
       167   1  6.244952E+02 -1.378861E+05 -5.593192E+03  2.147316E+03 -3.065272E+01  4.131357E+03
       167   2  1.762526E+03 -1.353444E+05 -8.904638E+03 -1.548757E+03 -3.574753E+01  8.818964E+03
       167   3 -1.596239E+04 -1.381292E+05 -1.998411E+04 -5.329212E+03 -1.566715E+01  1.350651E+04
       167   4  8.332045E+02 -1.370502E+05 -5.394339E+03 -1.709582E+01 -3.067009E+01  4.140253E+03
       167   5  1.997832E+03 -1.343886E+05 -8.677707E+03  2.238240E+01 -3.572353E+01  8.813940E+03
       167   6 -1.569810E+04 -1.370513E+05 -1.971943E+04 -2.259497E+01 -1.554537E+01  1.348757E+04
       167   7  1.041931E+03 -1.362142E+05 -5.195483E+03 -2.181510E+03 -3.068752E+01  4.149149E+03
       167   8  2.233148E+03 -1.334329E+05 -8.450774E+03  1.593524E+03 -3.569955E+01  8.808917E+03
       167   9 -1.543371E+04 -1.359732E+05 -1.945474E+04  5.284031E+03 -1.542392E+01  1.346863E+04
       167  10  6.244906E+02 -1.378861E+05 -5.593224E+03  2.147316E+03  9.409937E-10  4.959888E-10
       167  11  1.762505E+03 -1.353445E+05 -8.904784E+03 -1.548757E+03  7.685054E-10 -2.392451E-10
       167  12 -1.596244E+04 -1.381294E+05 -1.998445E+04 -5.329212E+03  3.625959E-10  4.362392E-10
       167  13  8.331998E+02 -1.370502E+05 -5.394371E+03 -1.709572E+01  1.033426E-09 -2.537213E-10
       167  14  1.997811E+03 -1.343887E+05 -8.677853E+03  2.238265E+01  1.113368E-09 -1.213914E-09
       167  15 -1.569815E+04 -1.370515E+05 -1.971977E+04 -2.259480E+01 -2.056217E-10  2.132477E-10
       167  16  1.041927E+03 -1.362143E+05 -5.195516E+03 -2.181510E+03  4.118301E-10 -3.657685E-10
       167  17  2.233127E+03 -1.334330E+05 -8.450920E+03  1.593524E+03  1.181582E-09  9.841302E-10
       167  18 -1.543376E+04 -1.359734E+05 -1.945508E+04  5.284031E+03  7.516736E-10  6.159741E-10
       167  19  6.244952E+02 -1.378861E+05 -5.593192E+03  2.147316E+03  3.065272E+01 -4.131357E+03
       167  20  1.762526E+03 -1.353444E+05 -8.904638E+03 -1.548757E+03  3.574753E+01 -8.818964E+03
       167  21 -1.596239E+04 -1.381292E+05 -1.998411E+04 -5.329212E+03  1.566715E+01 -1.350651E+04
       167  22  8.332045E+02 -1.370502E+05 -5.394339E+03 -1.709582E+01  3.067009E+01 -4.140253E+03
       167  23  1.997832E+03 -1.343886E+05 -8.677707E+03  2.238240E+01  3.572353E+01 -8.813940E+03
       167  24 -1.569810E+04 -1.370513E+05 -1.971943E+04 -2.259497E+01  1.554537E+01 -1.348757E+04
       167  25  1.041931E+03 -1.362142E+05 -5.195483E+03 -2.181510E+03  3.068752E+01 -4.149149E+03
       167  26  2.233148E+03 -1.334329E+05 -8.450774E+03  1.593524E+03  3.569955E+01 -8.808917E+03
       167  27 -1.543371E+04 -1.359732E+05 -1.945474E+04  5.284031E+03  1.542392E+01 -1.346863E+04
       168   1  3.495146E-01  2.772530E-01  4.577543E+00  2.100244E-03 -4.056611E-01 -7.603710E-04
       168   2  1.253506E-01  1.899933E-01  5.623627E+00  2.940419E-03 -3.141123E+00 -5.885184E-03
       168   3  3.456454E-01  4.558229E-01  8.538887E+00  3.948272E-03 -5.876544E+00 -1.101002E-02
       168   4  3.494972E-01  2.772040E-01  4.577529E+00  1.350308E-04 -4.056612E-01 -7.602060E-04
       168   5  1.253352E-01  1.899325E-01  5.623612E+00 -1.199491E-04 -3.141123E+00 -5.885001E-03
       168   6  3.456321E-01  4.557510E-01  8.538870E+00 -2.079312E-04 -5.876544E+00 -1.100981E-02
       168   7  3.494796E-01  2.771538E-01  4.577516E+00 -1.830530E-03 -4.056611E-01 -7.603654E-04
       168   8  1.253201E-01  1.898727E-01  5.623597E+00 -3.180669E-03 -3.141123E+00 -5.885178E-03
       168   9  3.456193E-01  4.556808E-01  8.538853E+00 -4.364421E-03 -5.876544E+00 -1.101001E-02
       168  10  3.495494E-01  2.773926E-01  4.577577E+00  2.087151E-03 -1.559682E-08 -7.136489E-08
       168  11  1.253900E-01  1.901509E-01  5.623666E+00  2.926782E-03 -2.896674E-08 -8.416294E-08
       168  12  3.456906E-01  4.560036E-01  8.538932E+00  3.931488E-03 -3.219898E-08 -9.398197E-08
       168  13  3.494973E-01  2.772046E-01  4.577529E+00  1.339690E-04 -5.970944E-08  8.753818E-08
       168  14  1.253348E-01  1.899315E-01  5.623611E+00 -1.197994E-04 -7.355080E-08  1.031863E-07
       168  15  3.456320E-01  4.557511E-01  8.538870E+00 -2.081420E-04 -8.669917E-08  1.186374E-07
       168  16  3.494458E-01  2.770184E-01  4.577482E+00 -1.819797E-03 -3.091005E-08 -6.897849E-08
       168  17  1.252798E-01  1.897120E-01  5.623557E+00 -3.166365E-03 -2.925019E-08 -8.578968E-08
       168  18  3.455733E-01  4.554977E-01  8.538807E+00 -4.347321E-03 -3.686948E-08 -9.432078E-08
       168  19  3.495834E-01  2.775291E-01  4.577612E+00  2.075166E-03  4.056611E-01  7.602235E-04
       168  20  1.254300E-01  1.903109E-01  5.623706E+00  2.912415E-03  3.141123E+00  5.885022E-03
       168  21  3.457364E-01  4.561862E-01  8.538978E+00  3.914577E-03  5.876544E+00  1.100983E-02
       168  22  3.494972E-01  2.772049E-01  4.577529E+00  1.330995E-04  4.056611E-01  7.603875E-04
       168  23  1.253347E-01  1.899314E-01  5.623611E+00 -1.194720E-04  3.141123E+00  5.885205E-03
       168  24  3.456319E-01  4.557511E-01  8.538870E+00 -2.081146E-04  5.876544E+00  1.101004E-02
       168  25  3.494117E-01  2.768818E-01  4.577448E+00 -1.809405E-03  4.056611E-01  7.602270E-04
       168  26  1.252398E-01  1.895521E-01  5.623517E+00 -3.152155E-03  3.141123E+00  5.885019E-03
       168  27  3.455279E-01  4.553168E-01  8.538762E+00 -4.331222E-03  5.876544E+00  1.100982E-02
       169   1  6.322420E-01  2.354893E-01  1.084108E+01  2.079825E-02 -7.615017E+00 -1.426708E-02
       169   2 -2.457329E-01 -1.458416E-01  1.814982E+01  1.309455E-02 -1.657887E+01 -3.106068E-02
       169   3  6.206003E-01  1.781543E+00  3.187155E+01  4.330965E-03 -2.554286E+01 -4.785452E-02
       169   4  6.321847E-01  2.353294E-01  1.084103E+01  7.429360E-04 -7.615017E+00 -1.426685E-02
       169   5 -2.458201E-01 -1.459934E-01  1.814978E+01 -1.860964E-04 -1.657887E+01 -3.106039E-02
       169   6  6.204847E-01  1.781405E+00  3.187150E+01 -2.175967E-03 -2.554286E+01 -4.785418E-02
       169   7  6.321273E-01  2.351683E-01  1.084099E+01 -1.931319E-02 -7.615017E+00 -1.426709E-02
       169   8 -2.459069E-01 -1.461446E-01  1.814973E+01 -1.346720E-02 -1.657887E+01 -3.106067E-02
       169   9  6.203690E-01  1.781266E+00  3.187145E+01 -8.683050E-03 -2.554286E+01 -4.785452E-02
       169  10  6.322930E-01  2.356941E-01  1.084113E+01  2.077831E-02 -3.452732E-08 -1.039358E-07
       169  11 -2.456713E-01 -1.455940E-01  1.814989E+01  1.306979E-02 -4.864547E-08 -1.270194E-07
       169  12  6.206734E-01  1.781838E+00  3.187163E+01  4.299347E-03 -6.003573E-08 -1.536075E-07
       169  13  6.321845E-01  2.353297E-01  1.084103E+01  7.426607E-04 -9.939911E-08  1.303715E-07
       169  14 -2.458206E-01 -1.459934E-01  1.814978E+01 -1.861269E-04 -1.310266E-07  1.635154E-07
       169  15  6.204836E-01  1.781405E+00  3.187150E+01 -2.176036E-03 -1.618307E-07  1.905119E-07
       169  16  6.320763E-01  2.349654E-01  1.084094E+01 -1.929372E-02 -4.370278E-08 -1.031331E-07
       169  17 -2.459696E-01 -1.463934E-01  1.814967E+01 -1.344232E-02 -5.542622E-08 -1.275546E-07
       169  18  6.202945E-01  1.780972E+00  3.187138E+01 -8.651588E-03 -6.861962E-08 -1.528280E-07
       169  19  6.323431E-01  2.358943E-01  1.084118E+01  2.075910E-02  7.615016E+00  1.426687E-02
       169  20 -2.456092E-01 -1.453466E-01  1.814995E+01  1.304366E-02  1.657887E+01  3.106042E-02
       169  21  6.207472E-01  1.782130E+00  3.187170E+01  4.267864E-03  2.554286E+01  4.785421E-02
       169  22  6.321842E-01  2.353297E-01  1.084103E+01  7.425416E-04  7.615016E+00  1.426711E-02
       169  23 -2.458207E-01 -1.459937E-01  1.814978E+01 -1.860855E-04  1.657887E+01  3.106071E-02
       169  24  6.204840E-01  1.781405E+00  3.187150E+01 -2.176092E-03  2.554286E+01  4.785456E-02
       169  25  6.320259E-01  2.347641E-01  1.084089E+01 -1.927508E-02  7.615016E+00  1.426687E-02
       169  26 -2.460308E-01 -1.466383E-01  1.814961E+01 -1.341721E-02  1.657887E+01  3.106042E-02
       169  27  6.202219E-01  1.780680E+00  3.187131E+01 -8.620969E-03  2.554286E+01  4.785422E-02
       170   1  2.137024E+00  4.041106E-02  4.162126E+01  1.230466E-01 -3.218735E+01 -6.030280E-02
       170   2 -2.167957E+00 -2.417278E+00  7.151082E+01  3.281138E-02 -6.778684E+01 -1.269972E-01
       170   3  2.117934E+00  1.094689E+01  1.285327E+02 -7.097237E-02 -1.033863E+02 -1.936916E-01
       170   4  2.137260E+00  3.982647E-02  4.162119E+01  3.929325E-03 -3.218735E+01 -6.030241E-02
       170   5 -2.168049E+00 -2.417551E+00  7.151075E+01  4.682955E-04 -6.778684E+01 -1.269968E-01
       170   6  2.117514E+00  1.094693E+01  1.285327E+02 -1.654210E-02 -1.033863E+02 -1.936911E-01
       170   7  2.137497E+00  3.924220E-02  4.162112E+01 -1.151886E-01 -3.218735E+01 -6.030278E-02
       170   8 -2.168141E+00 -2.417824E+00  7.151067E+01 -3.187496E-02 -6.778684E+01 -1.269972E-01
       170   9  2.117095E+00  1.094697E+01  1.285326E+02  3.788789E-02 -1.033863E+02 -1.936916E-01
       170  10  2.137103E+00  4.073124E-02  4.162133E+01  1.230106E-01 -6.803515E-08 -1.661733E-07
       170  11 -2.167871E+00 -2.416916E+00  7.151090E+01  3.276860E-02 -8.522979E-08 -1.899516E-07
       170  12  2.118024E+00  1.094729E+01  1.285328E+02 -7.102319E-02 -1.001363E-07 -2.095396E-07
       170  13  2.137259E+00  3.982674E-02  4.162118E+01  3.929110E-03 -1.820370E-07  2.075511E-07
       170  14 -2.168054E+00 -2.417552E+00  7.151074E+01  4.681705E-04 -2.221526E-07  2.356867E-07
       170  15  2.117502E+00  1.094693E+01  1.285326E+02 -1.654218E-02 -2.615184E-07  2.628926E-07
       170  16  2.137416E+00  3.892183E-02  4.162103E+01 -1.151531E-01 -7.584896E-08 -1.664300E-07
       170  17 -2.168236E+00 -2.418186E+00  7.151057E+01 -3.183256E-02 -9.155150E-08 -1.855145E-07
       170  18  2.116981E+00  1.094656E+01  1.285325E+02  3.793875E-02 -1.081521E-07 -2.087532E-07
       170  19  2.137184E+00  4.105106E-02  4.162142E+01  1.229755E-01  3.218735E+01  6.030246E-02
       170  20 -2.167776E+00 -2.416554E+00  7.151100E+01  3.272507E-02  6.778684E+01  1.269968E-01
       170  21  2.118136E+00  1.094770E+01  1.285329E+02 -7.107392E-02  1.033863E+02  1.936912E-01
       170  22  2.137260E+00  3.982655E-02  4.162119E+01  3.929090E-03  3.218735E+01  6.030283E-02
       170  23 -2.168050E+00 -2.417550E+00  7.151075E+01  4.682244E-04  6.778684E+01  1.269972E-01
       170  24  2.117513E+00  1.094693E+01  1.285327E+02 -1.654224E-02  1.033863E+02  1.936917E-01
       170  25  2.137337E+00  3.860314E-02  4.162096E+01 -1.151182E-01  3.218735E+01  6.030245E-02
       170  26 -2.168322E+00 -2.418545E+00  7.151049E+01 -3.178992E-02  6.778684E+01  1.269968E-01
       170  27  2.116892E+00  1.094616E+01  1.285324E+02  3.798859E-02  1.033863E+02  1.936912E-01
       171   1  1.017659E+01 -1.471031E+00  1.672933E+02  7.326061E-01 -1.301926E+02 -2.439123E-01
       171   2 -1.228450E+01 -1.729996E+01  2.857740E+02 -8.202498E-04 -2.734517E+02 -5.123026E-01
       171   3  1.015437E+01  7.185239E+01  5.237686E+02 -8.467983E-01 -4.167087E+02 -7.806887E-01
       171   4  1.017897E+01 -1.473879E+00  1.672932E+02  2.183078E-02 -1.301926E+02 -2.439117E-01
       171   5 -1.228482E+01 -1.730012E+01  2.857739E+02  9.397039E-03 -2.734517E+02 -5.123021E-01
       171   6  1.015134E+01  7.185493E+01  5.237685E+02 -1.156004E-01 -4.167087E+02 -7.806886E-01
       171   7  1.018135E+01 -1.476726E+00  1.672931E+02 -6.889451E-01 -1.301926E+02 -2.439120E-01
       171   8 -1.228514E+01 -1.730028E+01  2.857738E+02  1.961382E-02 -2.734517E+02 -5.123026E-01
       171   9  1.014831E+01  7.185747E+01  5.237684E+02  6.155974E-01 -4.167087E+02 -7.806897E-01
       171  10  1.017668E+01 -1.470608E+00  1.672934E+02  7.325499E-01 -1.105148E-07 -2.215047E-07
       171  11 -1.228446E+01 -1.729952E+01  2.857740E+02 -8.849990E-04 -1.319812E-07 -2.393167E-07
       171  12  1.015430E+01  7.185284E+01  5.237684E+02 -8.468733E-01 -1.513225E-07 -2.546103E-07
       171  13  1.017895E+01 -1.473883E+00  1.672932E+02  2.183061E-02 -2.870541E-07  2.786455E-07
       171  14 -1.228490E+01 -1.730014E+01  2.857737E+02  9.396914E-03 -3.368170E-07  2.982829E-07
       171  15  1.015115E+01  7.185488E+01  5.237682E+02 -1.156008E-01 -3.859702E-07  3.210864E-07
       171  16  1.018123E+01 -1.477159E+00  1.672930E+02 -6.888894E-01 -1.169905E-07 -2.212390E-07
       171  17 -1.228534E+01 -1.730075E+01  2.857735E+02  1.967854E-02 -1.365099E-07 -2.379344E-07
       171  18  1.014800E+01  7.185693E+01  5.237680E+02  6.156720E-01 -1.567720E-07 -2.524712E-07
       171  19  1.017680E+01 -1.470180E+00  1.672935E+02  7.324945E-01  1.301926E+02  2.439119E-01
       171  20 -1.228427E+01 -1.729905E+01  2.857742E+02 -9.504640E-04  2.734517E+02  5.123021E-01
       171  21  1.015461E+01  7.185337E+01  5.237688E+02 -8.469478E-01  4.167087E+02  7.806882E-01
       171  22  1.017897E+01 -1.473879E+00  1.672932E+02  2.183055E-02  1.301926E+02  2.439122E-01
       171  23 -1.228482E+01 -1.730012E+01  2.857739E+02  9.397070E-03  2.734517E+02  5.123027E-01
       171  24  1.015134E+01  7.185493E+01  5.237685E+02 -1.156004E-01  4.167087E+02  7.806893E-01
       171  25  1.018114E+01 -1.477579E+00  1.672929E+02 -6.888341E-01  1.301926E+02  2.439116E-01
       171  26 -1.228537E+01 -1.730119E+01  2.857736E+02  1.974357E-02  2.734517E+02  5.123022E-01
       171  27  1.014807E+01  7.185649E+01  5.237682E+02  6.157463E-01  4.167087E+02  7.806892E-01
       172   1  5.479734E+01 -1.236052E+01  6.757461E+02  4.444438E+00 -5.255118E+02 -9.845312E-01
       172   2 -6.816136E+01 -1.136640E+02  1.139603E+03 -8.442415E-01 -1.102349E+03 -2.065208E+00
       172   3  5.480410E+01  4.682967E+02  2.149821E+03 -6.952348E+00 -1.679196E+03 -3.145892E+00
       172   4  5.481310E+01 -1.237694E+01  6.757460E+02  1.258763E-01 -5.255118E+02 -9.845269E-01
       172   5 -6.816526E+01 -1.136608E+02  1.139603E+03  8.523648E-02 -1.102349E+03 -2.065209E+00
       172   6  5.478054E+01  4.683196E+02  2.149821E+03 -7.747544E-01 -1.679196E+03 -3.145908E+00
       172   7  5.482887E+01 -1.239336E+01  6.757459E+02 -4.192686E+00 -5.255118E+02 -9.845239E-01
       172   8 -6.816917E+01 -1.136576E+02  1.139603E+03  1.014714E+00 -1.102349E+03 -2.065212E+00
       172   9  5.475697E+01  4.683425E+02  2.149821E+03  5.402839E+00 -1.679196E+03 -3.145926E+00
       172  10  5.479717E+01 -1.236008E+01  6.757457E+02  4.444356E+00 -1.641452E-07 -2.644773E-07
       172  11 -6.816254E+01 -1.136638E+02  1.139601E+03 -8.443358E-01 -1.898054E-07 -2.768013E-07
       172  12  5.480121E+01  4.682965E+02  2.149816E+03 -6.952457E+00 -2.151689E-07 -2.799480E-07
       172  13  5.481281E+01 -1.237701E+01  6.757455E+02  1.258756E-01 -4.178456E-07  3.287667E-07
       172  14 -6.816657E+01 -1.136611E+02  1.139601E+03  8.523457E-02 -4.805026E-07  3.386314E-07
       172  15  5.477751E+01  4.683188E+02  2.149816E+03 -7.747586E-01 -5.416403E-07  3.515465E-07
       172  16  5.482845E+01 -1.239394E+01  6.757452E+02 -4.192606E+00 -1.680455E-07 -2.621950E-07
       172  17 -6.817060E+01 -1.136584E+02  1.139601E+03  1.014805E+00 -1.927932E-07 -2.720583E-07
       172  18  5.475381E+01  4.683412E+02  2.149816E+03  5.402939E+00 -2.168814E-07 -2.801729E-07
       172  19  5.479759E+01 -1.235951E+01  6.757464E+02  4.444276E+00  5.255118E+02  9.845307E-01
       172  20 -6.816110E+01 -1.136630E+02  1.139604E+03 -8.444272E-01  1.102349E+03  2.065208E+00
       172  21  5.480437E+01  4.682978E+02  2.149822E+03 -6.952557E+00  1.679196E+03  3.145892E+00
       172  22  5.481310E+01 -1.237694E+01  6.757460E+02  1.258761E-01  5.255118E+02  9.845276E-01
       172  23 -6.816527E+01 -1.136608E+02  1.139603E+03  8.523643E-02  1.102349E+03  2.065210E+00
       172  24  5.478053E+01  4.683196E+02  2.149821E+03 -7.747543E-01  1.679196E+03  3.145909E+00
       172  25  5.482862E+01 -1.239437E+01  6.757456E+02 -4.192524E+00  5.255118E+02  9.845233E-01
       172  26 -6.816943E+01 -1.136586E+02  1.139603E+03  1.014899E+00  1.102349E+03  2.065211E+00
       172  27  5.475670E+01  4.683414E+02  2.149821E+03  5.403048E+00  1.679196E+03  3.145925E+00
       173   1  3.114305E+02 -8.686398E+01  2.735387E+03  2.733037E+01 -2.122658E+03 -3.976810E+00
       173   2 -3.891240E+02 -7.321239E+02  4.518550E+03 -8.709294E+00 -4.444652E+03 -8.326817E+00
       173   3  3.116895E+02  3.018614E+03  8.912469E+03 -5.035929E+01 -6.766651E+03 -1.267656E+01
       173   4  3.115294E+02 -8.696391E+01  2.735387E+03  7.465604E-01 -2.122658E+03 -3.976718E+00
       173   5 -3.891597E+02 -7.320892E+02  4.518550E+03  6.424703E-01 -4.444652E+03 -8.326883E+00
       173   6  3.115191E+02  3.018784E+03  8.912469E+03 -5.071976E+00 -6.766651E+03 -1.267706E+01
       173   7  3.116284E+02 -8.706383E+01  2.735386E+03 -2.583725E+01 -2.122658E+03 -3.976628E+00
       173   8 -3.891955E+02 -7.320544E+02  4.518550E+03  9.994234E+00 -4.444652E+03 -8.326951E+00
       173   9  3.113487E+02  3.018953E+03  8.912469E+03  4.021534E+01 -6.766651E+03 -1.267755E+01
       173  10  3.114258E+02 -8.686465E+01  2.735379E+03  2.733025E+01 -2.308692E-07 -2.803705E-07
       173  11 -3.891451E+02 -7.321287E+02  4.518513E+03 -8.709449E+00 -2.601350E-07 -2.781677E-07
       173  12  3.116404E+02  3.018603E+03  8.912383E+03 -5.035950E+01 -2.891554E-07 -2.719405E-07
       173  13  3.115246E+02 -8.696512E+01  2.735378E+03  7.465534E-01 -5.794393E-07  3.526328E-07
       173  14 -3.891810E+02 -7.320945E+02  4.518513E+03  6.424404E-01 -6.505804E-07  3.448479E-07
       173  15  3.114699E+02  3.018772E+03  8.912383E+03 -5.072045E+00 -7.198133E-07  3.381867E-07
       173  16  3.116234E+02 -8.706558E+01  2.735378E+03 -2.583715E+01 -2.302520E-07 -2.812931E-07
       173  17 -3.892168E+02 -7.320603E+02  4.518512E+03  9.994330E+00 -2.583960E-07 -2.777353E-07
       173  18  3.112994E+02  3.018940E+03  8.912382E+03  4.021541E+01 -2.860764E-07 -2.704416E-07
       173  19  3.114308E+02 -8.686290E+01  2.735387E+03  2.733015E+01  2.122658E+03  3.976809E+00
       173  20 -3.891238E+02 -7.321228E+02  4.518550E+03 -8.709545E+00  4.444652E+03  8.326816E+00
       173  21  3.116897E+02  3.018615E+03  8.912469E+03 -5.035957E+01  6.766651E+03  1.267656E+01
       173  22  3.115294E+02 -8.696391E+01  2.735387E+03  7.465602E-01  2.122658E+03  3.976719E+00
       173  23 -3.891598E+02 -7.320892E+02  4.518550E+03  6.424703E-01  4.444652E+03  8.326884E+00
       173  24  3.115191E+02  3.018784E+03  8.912469E+03 -5.071976E+00  6.766651E+03  1.267706E+01
       173  25  3.116281E+02 -8.706491E+01  2.735386E+03 -2.583703E+01  2.122658E+03  3.976628E+00
       173  26 -3.891957E+02 -7.320555E+02  4.518549E+03  9.994485E+00  4.444652E+03  8.326950E+00
       173  27  3.113485E+02  3.018952E+03  8.912468E+03  4.021561E+01  6.766651E+03  1.267755E+01
       174   1  1.830030E+03 -5.809560E+02  1.110268E+04  1.696047E+02 -8.585666E+03 -1.608719E+01
       174   2 -2.287727E+03 -4.677686E+03  1.774554E+04 -6.859596E+01 -1.792718E+04 -3.358375E+01
       174   3  1.832144E+03  1.930940E+04  3.749160E+04 -3.439746E+02 -2.726858E+04 -5.107295E+01
       174   4  1.830647E+03 -5.815750E+02  1.110268E+04  4.519215E+00 -8.585666E+03 -1.608491E+01
       174   5 -2.288002E+03 -4.677412E+03  1.774554E+04  4.476486E+00 -1.792718E+04 -3.358586E+01
       174   6  1.830977E+03  1.931057E+04  3.749160E+04 -3.274745E+01 -2.726858E+04 -5.108662E+01
       174   7  1.831265E+03 -5.821939E+02  1.110268E+04 -1.605663E+02 -8.585666E+03 -1.608263E+01
       174   8 -2.288277E+03 -4.677139E+03  1.774554E+04  7.754894E+01 -1.792718E+04 -3.358797E+01
       174   9  1.829810E+03  1.931174E+04  3.749160E+04  2.784797E+02 -2.726858E+04 -5.110029E+01
       174  10  1.829951E+03 -5.809753E+02  1.110255E+04  1.696045E+02 -3.030153E-07 -2.611689E-07
       174  11 -2.288072E+03 -4.677772E+03  1.774494E+04 -6.859660E+01 -3.172768E-07 -2.246602E-07
       174  12  1.831346E+03  1.930920E+04  3.749020E+04 -3.439759E+02 -3.294177E-07 -1.902506E-07
       174  13  1.830568E+03 -5.815948E+02  1.110255E+04  4.519104E+00 -7.491693E-07  3.217683E-07
       174  14 -2.288347E+03 -4.677499E+03  1.774494E+04  4.476001E+00 -7.800629E-07  2.762140E-07
       174  15  1.830178E+03  1.931037E+04  3.749020E+04 -3.274857E+01 -8.105685E-07  2.364209E-07
       174  16  1.831186E+03 -5.822142E+02  1.110254E+04 -1.605663E+02 -2.941436E-07 -2.593445E-07
       174  17 -2.288622E+03 -4.677226E+03  1.774494E+04  7.754860E+01 -3.055773E-07 -2.255432E-07
       174  18  1.829011E+03  1.931154E+04  3.749020E+04  2.784788E+02 -3.183801E-07 -1.910331E-07
       174  19  1.830030E+03 -5.809550E+02  1.110268E+04  1.696045E+02  8.585666E+03  1.608719E+01
       174  20 -2.287727E+03 -4.677685E+03  1.774554E+04 -6.859626E+01  1.792718E+04  3.358375E+01
       174  21  1.832144E+03  1.930940E+04  3.749160E+04 -3.439750E+02  2.726858E+04  5.107295E+01
       174  22  1.830647E+03 -5.815750E+02  1.110268E+04  4.519215E+00  8.585666E+03  1.608491E+01
       174  23 -2.288002E+03 -4.677412E+03  1.774554E+04  4.476486E+00  1.792718E+04  3.358586E+01
       174  24  1.830977E+03  1.931057E+04  3.749160E+04 -3.274745E+01  2.726858E+04  5.108662E+01
       174  25  1.831265E+03 -5.821949E+02  1.110268E+04 -1.605660E+02  8.585666E+03  1.608263E+01
       174  26 -2.288277E+03 -4.677140E+03  1.774554E+04  7.754924E+01  1.792718E+04  3.358797E+01
       174  27  1.829809E+03  1.931173E+04  3.749160E+04  2.784801E+02  2.726858E+04  5.110029E+01
       175   1  1.100696E+04 -3.796243E+03  4.524923E+04  1.058848E+03 -3.480227E+04 -6.525849E+01
       175   2 -1.375843E+04 -2.975152E+04  6.859816E+04 -4.878544E+02 -7.234868E+04 -1.354821E+02
       175   3  1.102347E+04  1.229182E+05  1.610532E+05 -2.276453E+03 -1.098952E+05 -2.055185E+02
       175   4  1.101082E+04 -3.800109E+03  4.524922E+04  2.774780E+01 -3.480227E+04 -6.520069E+01
       175   5 -1.376037E+04 -2.974958E+04  6.859816E+04  2.995527E+01 -7.234868E+04 -1.355424E+02
       175   6  1.101572E+04  1.229259E+05  1.610532E+05 -2.096601E+02 -1.098952E+05 -2.058843E+02
       175   7  1.101469E+04 -3.803971E+03  4.524922E+04 -1.003353E+03 -3.480227E+04 -6.514289E+01
       175   8 -1.376231E+04 -2.974764E+04  6.859816E+04  5.477650E+02 -7.234868E+04 -1.356028E+02
       175   9  1.100798E+04  1.229337E+05  1.610532E+05  1.857133E+03 -1.098952E+05 -2.062502E+02
       175  10  1.100566E+04 -3.796568E+03  4.524695E+04  1.058846E+03 -2.998080E-07 -1.580661E-07
       175  11 -1.376405E+04 -2.975292E+04  6.858833E+04 -4.878624E+02 -1.763978E-07 -8.633285E-08
       175  12  1.101050E+04  1.229150E+05  1.610305E+05 -2.276471E+03 -4.425128E-08 -1.892009E-08
       175  13  1.100952E+04 -3.800434E+03  4.524695E+04  2.774597E+01 -7.270292E-07  2.000806E-07
       175  14 -1.376599E+04 -2.975098E+04  6.858833E+04  2.994737E+01 -4.103107E-07  1.130022E-07
       175  15  1.100275E+04  1.229227E+05  1.610305E+05 -2.096784E+02 -9.233152E-08  2.413683E-08
       175  16  1.101339E+04 -3.804296E+03  4.524695E+04 -1.003354E+03 -2.803438E-07 -1.619896E-07
       175  17 -1.376793E+04 -2.974904E+04  6.858833E+04  5.477571E+02 -1.514185E-07 -9.626390E-08
       175  18  1.099501E+04  1.229304E+05  1.610305E+05  1.857115E+03 -3.016198E-08 -2.355135E-08
       175  19  1.100696E+04 -3.796242E+03  4.524923E+04  1.058848E+03  3.480227E+04  6.525849E+01
       175  20 -1.375843E+04 -2.975152E+04  6.859816E+04 -4.878546E+02  7.234868E+04  1.354821E+02
       175  21  1.102347E+04  1.229182E+05  1.610532E+05 -2.276453E+03  1.098952E+05  2.055185E+02
       175  22  1.101083E+04 -3.800109E+03  4.524922E+04  2.774780E+01  3.480227E+04  6.520069E+01
       175  23 -1.376037E+04 -2.974958E+04  6.859816E+04  2.995527E+01  7.234868E+04  1.355424E+02
       175  24  1.101572E+04  1.229259E+05  1.610532E+05 -2.096601E+02  1.098952E+05  2.058843E+02
       175  25  1.101469E+04 -3.803971E+03  4.524922E+04 -1.003352E+03  3.480227E+04  6.514289E+01
       175  26 -1.376231E+04 -2.974764E+04  6.859816E+04  5.477651E+02  7.234868E+04  1.356028E+02
       175  27  1.100798E+04  1.229337E+05  1.610532E+05  1.857133E+03  1.098952E+05  2.062502E+02
       176   1  1.229318E+05  1.100974E+04  1.610628E+05 -1.857238E+03 -2.061402E+02  1.098366E+05
       176   2 -2.975035E+04 -1.376453E+04  6.865105E+04 -5.478109E+02 -1.354441E+02  7.226400E+04
       176   3 -3.793167E+03  1.101644E+04  4.536720E+04  1.003424E+03 -6.493348E+01  3.469040E+04
       176   4  1.229241E+05  1.101748E+04  1.610628E+05  2.096534E+02 -2.057745E+02  1.098366E+05
       176   5 -2.975229E+04 -1.376259E+04  6.865105E+04 -2.995620E+01 -1.353838E+02  7.226400E+04
       176   6 -3.789305E+03  1.101258E+04  4.536720E+04 -2.773085E+01 -6.499110E+01  3.469040E+04
       176   7  1.229163E+05  1.102523E+04  1.610628E+05  2.276545E+03 -2.054089E+02  1.098366E+05
       176   8 -2.975423E+04 -1.376065E+04  6.865105E+04  4.878985E+02 -1.353235E+02  7.226400E+04
       176   9 -3.785439E+03  1.100872E+04  4.536720E+04 -1.058886E+03 -6.504872E+01  3.469040E+04
       176  10  1.229286E+05  1.099679E+04  1.610401E+05 -1.857220E+03 -6.160820E-09 -8.708071E-09
       176  11 -2.975176E+04 -1.377014E+04  6.864124E+04 -5.478030E+02 -2.993232E-08 -3.599539E-08
       176  12 -3.793490E+03  1.101515E+04  4.536494E+04  1.003426E+03 -5.189608E-08 -5.350449E-08
       176  13  1.229208E+05  1.100453E+04  1.610401E+05  2.096716E+02  9.289179E-09 -1.389569E-08
       176  14 -2.975370E+04 -1.376820E+04  6.864124E+04 -2.994832E+01  3.568385E-08 -7.271386E-08
       176  15 -3.789628E+03  1.101129E+04  4.536494E+04 -2.772903E+01  6.684092E-08 -1.240464E-07
       176  16  1.229131E+05  1.101228E+04  1.610401E+05  2.276563E+03 -6.759764E-09 -2.559848E-09
       176  17 -2.975564E+04 -1.376625E+04  6.864124E+04  4.879064E+02 -3.148272E-08 -2.328541E-08
       176  18 -3.785762E+03  1.100743E+04  4.536494E+04 -1.058884E+03 -5.303769E-08 -4.803545E-08
       176  19  1.229318E+05  1.100974E+04  1.610628E+05 -1.857238E+03  2.061402E+02 -1.098366E+05
       176  20 -2.975035E+04 -1.376453E+04  6.865105E+04 -5.478109E+02  1.354441E+02 -7.226400E+04
       176  21 -3.793167E+03  1.101644E+04  4.536720E+04  1.003424E+03  6.493348E+01 -3.469040E+04
       176  22  1.229241E+05  1.101748E+04  1.610628E+05  2.096534E+02  2.057745E+02 -1.098366E+05
       176  23 -2.975229E+04 -1.376259E+04  6.865105E+04 -2.995620E+01  1.353838E+02 -7.226400E+04
       176  24 -3.789305E+03  1.101258E+04  4.536720E+04 -2.773085E+01  6.499110E+01 -3.469040E+04
       176  25  1.229163E+05  1.102523E+04  1.610628E+05  2.276545E+03  2.054089E+02 -1.098366E+05
       176  26 -2.975423E+04 -1.376065E+04  6.865105E+04  4.878985E+02  1.353235E+02 -7.226400E+04
       176  27 -3.785439E+03  1.100872E+04  4.536720E+04 -1.058886E+03  6.504872E+01 -3.469040E+04
       177   1  1.930999E+04  1.839677E+03  3.765097E+04 -2.792202E+02 -5.084454E+01  2.713209E+04
       177   2 -4.694605E+03 -2.300668E+03  1.802672E+04 -7.755257E+01 -3.306783E+01  1.764956E+04
       177   3 -5.105421E+02  1.841113E+03  1.162365E+04  1.614090E+02 -1.529848E+01  8.167057E+03
       177   4  1.930882E+04  1.840846E+03  3.765097E+04  3.272568E+01 -5.083091E+01  2.713209E+04
       177   5 -4.694879E+03 -2.300394E+03  1.802672E+04 -4.485991E+00 -3.306575E+01  1.764956E+04
       177   6 -5.099207E+02  1.840492E+03  1.162365E+04 -4.403418E+00 -1.530066E+01  8.167057E+03
       177   7  1.930765E+04  1.842015E+03  3.765097E+04  3.446716E+02 -5.081728E+01  2.713209E+04
       177   8 -4.695152E+03 -2.300120E+03  1.802672E+04  6.858059E+01 -3.306368E+01  1.764956E+04
       177   9 -5.092993E+02  1.839871E+03  1.162365E+04 -1.702158E+02 -1.530284E+01  8.167057E+03
       177  10  1.930979E+04  1.838886E+03  3.764958E+04 -2.792191E+02 -5.221978E-08 -5.134187E-08
       177  11 -4.694689E+03 -2.301003E+03  1.802613E+04 -7.755208E+01 -2.593326E-08 -4.589073E-08
       177  12 -5.105600E+02  1.841041E+03  1.162352E+04  1.614091E+02 -2.199511E-09 -3.722520E-08
       177  13  1.930862E+04  1.840055E+03  3.764958E+04  3.272679E+01  6.603951E-08 -1.339616E-07
       177  14 -4.694962E+03 -2.300728E+03  1.802613E+04 -4.485521E+00  3.510699E-08 -1.195654E-07
       177  15 -5.099386E+02  1.840420E+03  1.162352E+04 -4.403318E+00  3.323028E-09 -9.779656E-08
       177  16  1.930745E+04  1.841225E+03  3.764958E+04  3.446727E+02 -5.179232E-08 -5.625329E-08
       177  17 -4.695236E+03 -2.300454E+03  1.802613E+04  6.858104E+01 -2.716911E-08 -5.100788E-08
       177  18 -5.093172E+02  1.839800E+03  1.162352E+04 -1.702157E+02 -7.594140E-10 -4.311711E-08
       177  19  1.930999E+04  1.839677E+03  3.765097E+04 -2.792202E+02  5.084454E+01 -2.713209E+04
       177  20 -4.694605E+03 -2.300668E+03  1.802672E+04 -7.755253E+01  3.306783E+01 -1.764956E+04
       177  21 -5.105421E+02  1.841113E+03  1.162365E+04  1.614090E+02  1.529848E+01 -8.167057E+03
       177  22  1.930882E+04  1.840846E+03  3.765097E+04  3.272568E+01  5.083091E+01 -2.713209E+04
       177  23 -4.694879E+03 -2.300394E+03  1.802672E+04 -4.485991E+00  3.306575E+01 -1.764956E+04
       177  24 -5.099207E+02  1.840492E+03  1.162365E+04 -4.403419E+00  1.530066E+01 -8.167057E+03
       177  25  1.930765E+04  1.842015E+03  3.765097E+04  3.446715E+02  5.081728E+01 -2.713209E+04
       177  26 -4.695152E+03 -2.300120E+03  1.802672E+04  6.858055E+01  3.306368E+01 -1.764956E+04
       177  27 -5.092992E+02  1.839871E+03  1.162365E+04 -1.702159E+02  1.530284E+01 -8.167057E+03
       178   1  3.006393E+03  3.659073E+02  9.585991E+03 -4.466256E+01 -1.169027E+01  6.239668E+03
       178   2 -8.459284E+02 -4.575458E+02  5.656672E+03 -9.151199E+00 -6.260224E+00  3.341505E+03
       178   3  3.810094E+02  3.661943E+02  4.884003E+03  3.278945E+01 -8.306493E-01  4.433894E+02
       178   4  3.006207E+03  3.660934E+02  9.585991E+03  4.946172E+00 -1.168977E+01  6.239668E+03
       178   5 -8.459599E+02 -4.575140E+02  5.656672E+03 -7.277436E-01 -6.260179E+00  3.341505E+03
       178   6  3.811321E+02  3.660717E+02  4.884003E+03  2.821969E-02 -8.306728E-01  4.433894E+02
       178   7  3.006022E+03  3.662794E+02  9.585991E+03  5.455491E+01 -1.168928E+01  6.239668E+03
       178   8 -8.459915E+02 -4.574823E+02  5.656672E+03  7.695712E+00 -6.260133E+00  3.341505E+03
       178   9  3.812549E+02  3.659491E+02  4.884003E+03 -3.273301E+01 -8.306961E-01  4.433894E+02
       178  10  3.006383E+03  3.658655E+02  9.585917E+03 -4.466249E+01  9.260778E-09 -3.368639E-08
       178  11 -8.459314E+02 -4.575577E+02  5.656651E+03 -9.151170E+00  2.023820E-08 -3.206269E-08
       178  12  3.810094E+02  3.661941E+02  4.884003E+03  3.278946E+01  2.900880E-08 -2.712323E-08
       178  13  3.006197E+03  3.660516E+02  9.585917E+03  4.946230E+00 -1.270639E-08 -8.813682E-08
       178  14 -8.459629E+02 -4.575260E+02  5.656651E+03 -7.277269E-01 -2.428180E-08 -7.906340E-08
       178  15  3.811321E+02  3.660715E+02  4.884003E+03  2.821956E-02 -3.951732E-08 -6.279414E-08
       178  16  3.006011E+03  3.662376E+02  9.585917E+03  5.455495E+01  1.031036E-08 -3.687172E-08
       178  17 -8.459945E+02 -4.574943E+02  5.656651E+03  7.695715E+00  1.933783E-08 -3.206627E-08
       178  18  3.812548E+02  3.659489E+02  4.884003E+03 -3.273302E+01  2.932155E-08 -2.499273E-08
       178  19  3.006393E+03  3.659074E+02  9.585991E+03 -4.466253E+01  1.169027E+01 -6.239668E+03
       178  20 -8.459283E+02 -4.575457E+02  5.656672E+03 -9.151170E+00  6.260224E+00 -3.341505E+03
       178  21  3.810095E+02  3.661943E+02  4.884003E+03  3.278947E+01  8.306494E-01 -4.433894E+02
       178  22  3.006207E+03  3.660934E+02  9.585991E+03  4.946172E+00  1.168977E+01 -6.239668E+03
       178  23 -8.459599E+02 -4.575140E+02  5.656672E+03 -7.277438E-01  6.260179E+00 -3.341505E+03
       178  24  3.811321E+02  3.660717E+02  4.884003E+03  2.821890E-02  8.306727E-01 -4.433894E+02
       178  25  3.006022E+03  3.662794E+02  9.585991E+03  5.455487E+01  1.168928E+01 -6.239668E+03
       178  26 -8.459915E+02 -4.574823E+02  5.656672E+03  7.695684E+00  6.260133E+00 -3.341505E+03
       178  27  3.812548E+02  3.659491E+02  4.884003E+03 -3.273303E+01  8.306962E-01 -4.433894E+02
       179   1 -1.895890E+06 -6.171202E+05 -3.240853E+05 -6.727630E+05 -1.130280E+05 -2.387782E+04
       179   2 -1.838132E+06 -5.363545E+05 -2.387310E+05 -6.517230E+05 -7.486495E+04  3.390397E+04
       179   3 -1.790278E+06 -5.026222E+05 -2.022843E+05 -6.352086E+05 -2.596043E+04  6.323459E+04
       179   4 -8.641453E+05 -2.047276E+05 -5.140080E+04 -3.653132E+05 -3.931765E+04  3.900135E+03
       179   5 -8.603329E+05 -1.652150E+05 -2.347113E+04 -3.705679E+05 -4.129958E+04  4.653767E+04
       179   6 -8.584246E+05 -1.647320E+05 -1.253581E+04 -3.803563E+05 -3.255515E+04  6.074193E+04
       179   7  1.686251E+05  2.077645E+05  2.212079E+05 -5.739068E+04  3.452554E+04  3.173539E+04
       179   8  1.184353E+05  2.060146E+05  1.917335E+05 -8.900041E+04 -7.677128E+03  5.919426E+04
       179   9  7.433458E+04  1.732321E+05  1.771720E+05 -1.251488E+05 -3.916064E+04  5.824534E+04
       179  10 -1.895904E+06 -6.171242E+05 -3.241104E+05 -6.727652E+05  4.262980E-10  3.363273E-10
       179  11 -1.838139E+06 -5.363573E+05 -2.387437E+05 -6.517210E+05 -8.419168E-10  6.593361E-10
       179  12 -1.790280E+06 -5.026267E+05 -2.022931E+05 -6.352072E+05 -1.098004E-10  2.231281E-10
       179  13 -8.641470E+05 -2.047281E+05 -5.140374E+04 -3.653131E+05  8.977394E-10  8.262798E-10
       179  14 -8.603353E+05 -1.652178E+05 -2.347840E+04 -3.705664E+05  9.793569E-11 -1.648667E-09
       179  15 -8.584267E+05 -1.647362E+05 -1.254474E+04 -3.803547E+05 -2.574618E-10  3.482625E-10
       179  16  1.686235E+05  2.077631E+05  2.212037E+05 -5.739156E+04  3.796142E-10 -4.929842E-10
       179  17  1.184343E+05  2.060108E+05  1.917268E+05 -8.900004E+04  4.518970E-10 -2.516419E-09
       179  18  7.433202E+04  1.732280E+05  1.771627E+05 -1.251470E+05  1.666094E-10 -1.555021E-09
       179  19 -1.895890E+06 -6.171202E+05 -3.240853E+05 -6.727630E+05  1.130280E+05  2.387782E+04
       179  20 -1.838132E+06 -5.363545E+05 -2.387310E+05 -6.517230E+05  7.486495E+04 -3.390397E+04
       179  21 -1.790278E+06 -5.026222E+05 -2.022843E+05 -6.352086E+05  2.596043E+04 -6.323459E+04
       179  22 -8.641453E+05 -2.047276E+05 -5.140080E+04 -3.653132E+05  3.931765E+04 -3.900135E+03
       179  23 -8.603329E+05 -1.652150E+05 -2.347113E+04 -3.705679E+05  4.129958E+04 -4.653767E+04
       179  24 -8.584246E+05 -1.647320E+05 -1.253581E+04 -3.803563E+05  3.255515E+04 -6.074193E+04
       179  25  1.686251E+05  2.077645E+05  2.212079E+05 -5.739068E+04 -3.452554E+04 -3.173539E+04
       179  26  1.184353E+05  2.060146E+05  1.917335E+05 -8.900041E+04  7.677128E+03 -5.919426E+04
       179  27  7.433458E+04  1.732321E+05  1.771720E+05 -1.251488E+05  3.916064E+04 -5.824534E+04
       180   1 -1.743568E+06 -4.921118E+05 -1.906092E+05 -6.262769E+05 -2.905222E+04  5.899484E+04
       180   2 -1.689156E+06 -4.619220E+05 -1.712557E+05 -6.030695E+05 -2.313436E+04  5.928087E+04
       180   3 -1.624268E+06 -4.452169E+05 -1.562687E+05 -5.929506E+05 -1.649307E+04  5.763703E+04
       180   4 -8.566009E+05 -1.664302E+05 -9.581643E+03 -3.794262E+05 -3.009490E+04  5.859303E+04
       180   5 -8.619720E+05 -1.591286E+05 -5.076794E+03 -3.731864E+05 -2.689754E+04  5.785706E+04
       180   6 -8.563291E+05 -1.647687E+05 -2.775516E+03 -3.800346E+05 -2.297782E+04  5.519242E+04
       180   7  3.117652E+04  1.593197E+05  1.714059E+05 -1.322489E+05 -3.113920E+04  5.819064E+04
       180   8 -3.408423E+04  1.437233E+05  1.610678E+05 -1.430202E+05 -3.066610E+04  5.643123E+04
       180   9 -8.778696E+04  1.157281E+05  1.506877E+05 -1.668763E+05 -2.947116E+04  5.274459E+04
       180  10 -1.743570E+06 -4.921158E+05 -1.906174E+05 -6.262755E+05  7.400333E-10  7.389922E-10
       180  11 -1.689158E+06 -4.619259E+05 -1.712633E+05 -6.030684E+05 -7.686472E-10  7.494840E-10
       180  12 -1.624269E+06 -4.452206E+05 -1.562755E+05 -5.929498E+05 -7.386960E-10  1.312865E-10
       180  13 -8.566028E+05 -1.664341E+05 -9.589792E+03 -3.794248E+05  5.247910E-10 -1.086468E-09
       180  14 -8.619737E+05 -1.591323E+05 -5.084441E+03 -3.731851E+05  6.660402E-10 -1.317809E-09
       180  15 -8.563305E+05 -1.647722E+05 -2.782229E+03 -3.800336E+05 -1.712429E-10 -2.080747E-10
       180  16  3.117458E+04  1.593158E+05  1.713977E+05 -1.322474E+05 -3.537070E-10 -2.958805E-10
       180  17 -3.408609E+04  1.437196E+05  1.610601E+05 -1.430188E+05  4.601127E-12 -4.245860E-10
       180  18 -8.778863E+04  1.157249E+05  1.506809E+05 -1.668751E+05  1.611427E-10  2.897338E-10
       180  19 -1.743568E+06 -4.921118E+05 -1.906092E+05 -6.262769E+05  2.905222E+04 -5.899484E+04
       180  20 -1.689156E+06 -4.619220E+05 -1.712557E+05 -6.030695E+05  2.313436E+04 -5.928087E+04
       180  21 -1.624268E+06 -4.452169E+05 -1.562687E+05 -5.929506E+05  1.649307E+04 -5.763703E+04
       180  22 -8.566009E+05 -1.664302E+05 -9.581643E+03 -3.794262E+05  3.009490E+04 -5.859303E+04
       180  23 -8.619720E+05 -1.591286E+05 -5.076794E+03 -3.731864E+05  2.689754E+04 -5.785706E+04
       180  24 -8.563291E+05 -1.647687E+05 -2.775516E+03 -3.800346E+05  2.297782E+04 -5.519242E+04
       180  25  3.117652E+04  1.593197E+05  1.714059E+05 -1.322489E+05  3.113920E+04 -5.819064E+04
       180  26 -3.408423E+04  1.437233E+05  1.610678E+05 -1.430202E+05  3.066610E+04 -5.643123E+04
       180  27 -8.778696E+04  1.157281E+05  1.506877E+05 -1.668763E+05  2.947116E+04 -5.274459E+04
       181   1 -1.582959E+06 -4.303561E+05 -1.470441E+05 -5.816942E+05 -1.545425E+04  5.497530E+04
       181   2 -1.528493E+06 -4.022258E+05 -1.340339E+05 -5.581170E+05 -1.301792E+04  5.085909E+04
       181   3 -1.462206E+06 -3.860454E+05 -1.216013E+05 -5.480996E+05 -1.053137E+04  4.660074E+04
       181   4 -8.561777E+05 -1.648566E+05 -2.092302E+03 -3.800161E+05 -2.158157E+04  5.266648E+04
       181   5 -8.620826E+05 -1.588492E+05 -1.158795E+03 -3.732491E+05 -1.934492E+04  4.847743E+04
       181   6 -8.561334E+05 -1.647519E+05 -6.450449E+02 -3.800424E+05 -1.705818E+04  4.414630E+04
       181   7 -1.288431E+05  1.006913E+05  1.428361E+05 -1.781174E+05 -2.771666E+04  5.035475E+04
       181   8 -1.952097E+05  8.456716E+04  1.316961E+05 -1.881964E+05 -2.567927E+04  4.609302E+04
       181   9 -2.496807E+05  5.657354E+04  1.202939E+05 -2.118332E+05 -2.359186E+04  4.168929E+04
       181  10 -1.582960E+06 -4.303594E+05 -1.470502E+05 -5.816935E+05  1.678479E-09 -6.543478E-11
       181  11 -1.528494E+06 -4.022286E+05 -1.340391E+05 -5.581165E+05  7.383401E-12 -2.021643E-10
       181  12 -1.462207E+06 -3.860477E+05 -1.216056E+05 -5.480992E+05  3.696829E-10 -5.432303E-10
       181  13 -8.561789E+05 -1.648597E+05 -2.098387E+03 -3.800152E+05 -1.539317E-10  2.230333E-11
       181  14 -8.620837E+05 -1.588519E+05 -1.163912E+03 -3.732483E+05  6.812133E-10 -2.196414E-10
       181  15 -8.561343E+05 -1.647541E+05 -6.492520E+02 -3.800418E+05 -3.916817E-10  5.089378E-11
       181  16 -1.288446E+05  1.006884E+05  1.428299E+05 -1.781162E+05 -4.360164E-10 -7.545559E-10
       181  17 -1.952110E+05  8.456471E+04  1.316909E+05 -1.881954E+05 -5.287427E-10 -2.740399E-10
       181  18 -2.496817E+05  5.657152E+04  1.202896E+05 -2.118324E+05  7.042011E-10 -5.364745E-11
       181  19 -1.582959E+06 -4.303561E+05 -1.470441E+05 -5.816942E+05  1.545425E+04 -5.497530E+04
       181  20 -1.528493E+06 -4.022258E+05 -1.340339E+05 -5.581170E+05  1.301792E+04 -5.085909E+04
       181  21 -1.462206E+06 -3.860454E+05 -1.216013E+05 -5.480996E+05  1.053137E+04 -4.660074E+04
       181  22 -8.561777E+05 -1.648566E+05 -2.092302E+03 -3.800161E+05  2.158157E+04 -5.266648E+04
       181  23 -8.620826E+05 -1.588492E+05 -1.158795E+03 -3.732491E+05  1.934492E+04 -4.847743E+04
       181  24 -8.561334E+05 -1.647519E+05 -6.450449E+02 -3.800424E+05  1.705818E+04 -4.414630E+04
       181  25 -1.288431E+05  1.006913E+05  1.428361E+05 -1.781174E+05  2.771666E+04 -5.035475E+04
       181  26 -1.952097E+05  8.456716E+04  1.316961E+05 -1.881964E+05  2.567927E+04 -4.609302E+04
       181  27 -2.496807E+05  5.657354E+04  1.202939E+05 -2.118332E+05  2.359186E+04 -4.168929E+04
       182   1 -1.420895E+06 -3.709034E+05 -1.128669E+05 -5.366781E+05 -9.436304E+03  4.394031E+04
       182   2 -1.366061E+06 -3.427034E+05 -1.007177E+05 -5.129452E+05 -7.519601E+03  3.938718E+04
       182   3 -1.299256E+06 -3.264423E+05 -8.868962E+04 -5.028794E+05 -5.598422E+03  3.481530E+04
       182   4 -8.560965E+05 -1.647608E+05 -4.963311E+02 -3.800602E+05 -1.595205E+04  4.149123E+04
       182   5 -8.620693E+05 -1.587679E+05 -3.111914E+02 -3.732316E+05 -1.406143E+04  3.693004E+04
       182   6 -8.560704E+05 -1.647089E+05 -2.268634E+02 -3.800714E+05 -1.216634E+04  3.235009E+04
       182   7 -2.909722E+05  4.140785E+04  1.118580E+05 -2.233114E+05 -2.247412E+04  3.903978E+04
       182   8 -3.578149E+05  2.518974E+04  1.000834E+05 -2.334129E+05 -2.060896E+04  3.447076E+04
       182   9 -4.126780E+05 -2.956954E+03  8.822767E+04 -2.571812E+05 -1.873936E+04  2.988297E+04
       182  10 -1.420896E+06 -3.709055E+05 -1.128707E+05 -5.366778E+05  2.404970E-10 -1.508917E-10
       182  11 -1.366061E+06 -3.427051E+05 -1.007207E+05 -5.129450E+05 -2.305651E-10  4.501906E-11
       182  12 -1.299256E+06 -3.264436E+05 -8.869195E+04 -5.028793E+05  9.266697E-11 -1.924065E-10
       182  13 -8.560973E+05 -1.647627E+05 -5.000425E+02 -3.800596E+05 -1.094816E-11 -3.388148E-11
       182  14 -8.620699E+05 -1.587694E+05 -3.141245E+02 -3.732312E+05 -5.260034E-10 -1.245957E-11
       182  15 -8.560708E+05 -1.647100E+05 -2.291071E+02 -3.800711E+05 -2.055911E-10 -8.804167E-12
       182  16 -2.909732E+05  4.140608E+04  1.118542E+05 -2.233106E+05  8.282015E-11  1.766915E-10
       182  17 -3.578157E+05  2.518835E+04  1.000804E+05 -2.334124E+05 -5.023663E-11  1.944995E-11
       182  18 -4.126786E+05 -2.958007E+03  8.822534E+04 -2.571808E+05  3.444148E-11 -7.247417E-11
       182  19 -1.420895E+06 -3.709034E+05 -1.128669E+05 -5.366781E+05  9.436304E+03 -4.394031E+04
       182  20 -1.366061E+06 -3.427034E+05 -1.007177E+05 -5.129452E+05  7.519601E+03 -3.938718E+04
       182  21 -1.299256E+06 -3.264423E+05 -8.868962E+04 -5.028794E+05  5.598422E+03 -3.481530E+04
       182  22 -8.560965E+05 -1.647608E+05 -4.963311E+02 -3.800602E+05  1.595205E+04 -4.149123E+04
       182  23 -8.620693E+05 -1.587679E+05 -3.111914E+02 -3.732316E+05  1.406143E+04 -3.693004E+04
       182  24 -8.560704E+05 -1.647089E+05 -2.268634E+02 -3.800714E+05  1.216634E+04 -3.235009E+04
       182  25 -2.909722E+05  4.140785E+04  1.118580E+05 -2.233114E+05  2.247412E+04 -3.903978E+04
       182  26 -3.578149E+05  2.518974E+04  1.000834E+05 -2.334129E+05  2.060896E+04 -3.447076E+04
       182  27 -4.126780E+05 -2.956954E+03  8.822767E+04 -2.571812E+05  1.873936E+04 -2.988297E+04
       183   1 -1.257712E+06 -3.112201E+05 -8.004991E+04 -4.914020E+05 -4.536622E+03  3.212504E+04
       183   2 -1.202568E+06 -2.829188E+05 -6.809126E+04 -4.675744E+05 -2.647933E+03  2.752170E+04
       183   3 -1.135421E+06 -2.666089E+05 -5.623120E+04 -4.574917E+05 -7.588899E+02  2.291265E+04
       183   4 -8.560543E+05 -1.647129E+05 -2.214068E+02 -3.800880E+05 -1.111340E+04  2.965736E+04
       183   5 -8.620442E+05 -1.586966E+05 -2.695990E+02 -3.732201E+05 -9.232566E+03  2.505225E+04
       183   6 -8.560337E+05 -1.646698E+05 -4.104437E+02 -3.800978E+05 -7.351401E+03  2.044144E+04
       183   7 -4.542296E+05 -1.819170E+04  7.959962E+04 -2.687073E+05 -1.769475E+04  2.718798E+04
       183   8 -5.214019E+05 -3.446480E+04  6.754631E+04 -2.788182E+05 -1.582105E+04  2.258136E+04
       183   9 -5.765684E+05 -6.272480E+04  5.540609E+04 -3.026723E+05 -1.394705E+04  1.796906E+04
       183  10 -1.257712E+06 -3.112212E+05 -8.005189E+04 -4.914019E+05 -5.594162E-10  1.416599E-11
       183  11 -1.202568E+06 -2.829196E+05 -6.809270E+04 -4.675743E+05 -2.186928E-10  5.746606E-10
       183  12 -1.135421E+06 -2.666094E+05 -5.623219E+04 -4.574917E+05  2.502399E-11  3.586408E-10
       183  13 -8.560547E+05 -1.647139E+05 -2.232908E+02 -3.800878E+05 -1.298600E-10  8.492256E-11
       183  14 -8.620444E+05 -1.586972E+05 -2.709380E+02 -3.732199E+05 -1.321236E-10  2.431861E-10
       183  15 -8.560338E+05 -1.646702E+05 -4.113301E+02 -3.800977E+05 -5.088956E-11  2.119338E-10
       183  16 -4.542301E+05 -1.819258E+04  7.959764E+04 -2.687069E+05  7.589861E-10  2.014691E-10
       183  17 -5.214023E+05 -3.446541E+04  6.754489E+04 -2.788179E+05  7.860804E-11  8.820192E-11
       183  18 -5.765687E+05 -6.272519E+04  5.540512E+04 -3.026721E+05 -1.216279E-10 -3.790530E-11
       183  19 -1.257712E+06 -3.112201E+05 -8.004991E+04 -4.914020E+05  4.536622E+03 -3.212504E+04
       183  20 -1.202568E+06 -2.829188E+05 -6.809126E+04 -4.675744E+05  2.647933E+03 -2.752170E+04
       183  21 -1.135421E+06 -2.666089E+05 -5.623120E+04 -4.574917E+05  7.588899E+02 -2.291265E+04
       183  22 -8.560543E+05 -1.647129E+05 -2.214068E+02 -3.800880E+05  1.111340E+04 -2.965736E+04
       183  23 -8.620442E+05 -1.586966E+05 -2.695990E+02 -3.732201E+05  9.232566E+03 -2.505225E+04
       183  24 -8.560337E+05 -1.646698E+05 -4.104437E+02 -3.800978E+05  7.351401E+03 -2.044144E+04
       183  25 -4.542296E+05 -1.819170E+04  7.959962E+04 -2.687073E+05  1.769475E+04 -2.718798E+04
       183  26 -5.214019E+05 -3.446480E+04  6.754631E+04 -2.788182E+05  1.582105E+04 -2.258136E+04
       183  27 -5.765684E+05 -6.272480E+04  5.540609E+04 -3.026723E+05  1.394705E+04 -1.796906E+04
       184   1 -1.093699E+06 -2.513384E+05 -4.768146E+04 -4.459855E+05  3.495584E+02  2.022797E+04
       184   2 -1.038327E+06 -2.229739E+05 -3.603287E+04 -4.220983E+05  2.526904E+03  1.572973E+04
       184   3 -9.709874E+05 -2.066783E+05 -2.471285E+04 -4.120101E+05  4.694123E+03  1.125620E+04
       184   4 -8.560380E+05 -1.646714E+05 -5.311913E+02 -3.801152E+05 -6.254657E+03  1.775291E+04
       184   5 -8.620116E+05 -1.586349E+05 -9.345617E+02 -3.732126E+05 -4.042444E+03  1.326832E+04
       184   6 -8.560307E+05 -1.646749E+05 -1.694801E+03 -3.801105E+05 -1.840408E+03  8.808432E+03
       184   7 -6.183168E+05 -7.799856E+04  4.661716E+04 -3.142210E+05 -1.286164E+04  1.527681E+04
       184   8 -6.856637E+05 -9.429280E+04  3.416267E+04 -3.243137E+05 -1.061382E+04  1.080614E+04
       184   9 -7.410602E+05 -1.226704E+05  2.132280E+04 -3.482054E+05 -8.376241E+03  6.360172E+03
       184  10 -1.093699E+06 -2.513389E+05 -4.768222E+04 -4.459855E+05 -2.774180E-10  8.795308E-11
       184  11 -1.038327E+06 -2.229741E+05 -3.603335E+04 -4.220984E+05  1.700498E-10  3.908013E-10
       184  12 -9.709874E+05 -2.066784E+05 -2.471313E+04 -4.120101E+05  2.518488E-10  1.545112E-10
       184  13 -8.560381E+05 -1.646717E+05 -5.318568E+02 -3.801151E+05 -3.156490E-10 -3.577376E-10
       184  14 -8.620117E+05 -1.586350E+05 -9.349231E+02 -3.732125E+05 -4.243218E-10 -6.898968E-10
       184  15 -8.560307E+05 -1.646750E+05 -1.694953E+03 -3.801105E+05 -2.335518E-12  9.054035E-11
       184  16 -6.183171E+05 -7.799885E+04  4.661641E+04 -3.142208E+05  3.632038E-10  3.315578E-10
       184  17 -6.856638E+05 -9.429296E+04  3.416224E+04 -3.243136E+05  2.249163E-11  5.696193E-11
       184  18 -7.410603E+05 -1.226705E+05  2.132260E+04 -3.482053E+05 -2.357036E-10 -1.565675E-10
       184  19 -1.093699E+06 -2.513384E+05 -4.768146E+04 -4.459855E+05 -3.495584E+02 -2.022797E+04
       184  20 -1.038327E+06 -2.229739E+05 -3.603287E+04 -4.220983E+05 -2.526904E+03 -1.572973E+04
       184  21 -9.709874E+05 -2.066783E+05 -2.471285E+04 -4.120101E+05 -4.694123E+03 -1.125620E+04
       184  22 -8.560380E+05 -1.646714E+05 -5.311913E+02 -3.801152E+05  6.254657E+03 -1.775291E+04
       184  23 -8.620116E+05 -1.586349E+05 -9.345617E+02 -3.732126E+05  4.042444E+03 -1.326832E+04
       184  24 -8.560307E+05 -1.646749E+05 -1.694801E+03 -3.801105E+05  1.840408E+03 -8.808432E+03
       184  25 -6.183168E+05 -7.799856E+04  4.661716E+04 -3.142210E+05  1.286164E+04 -1.527681E+04
       184  26 -6.856637E+05 -9.429280E+04  3.416267E+04 -3.243137E+05  1.061382E+04 -1.080614E+04
       184  27 -7.410602E+05 -1.226704E+05  2.132280E+04 -3.482054E+05  8.376241E+03 -6.360172E+03
       185   1 -9.291288E+05 -1.914429E+05 -1.658043E+04 -4.006581E+05  6.115619E+03  8.682093E+03
       185   2 -8.737742E+05 -1.629164E+05 -6.175029E+03 -3.763370E+05  9.260192E+03  4.760975E+03
       185   3 -8.069324E+05 -1.473444E+05  2.887317E+03 -3.656257E+05  1.224713E+04  1.260623E+03
       185   4 -8.561216E+05 -1.646236E+05 -2.251900E+03 -3.801699E+05 -5.040822E+02  6.202627E+03
       185   5 -8.618946E+05 -1.587260E+05 -4.101949E+03 -3.731252E+05  3.235085E+03  2.504256E+03
       185   6 -8.563021E+05 -1.659012E+05 -7.766721E+03 -3.796919E+05  6.816489E+03 -7.734145E+02
       185   7 -7.831095E+05 -1.378041E+05  1.207641E+04 -3.596795E+05 -7.124565E+03  3.722860E+03
       185   8 -8.500148E+05 -1.545355E+05 -2.028718E+03 -3.699133E+05 -2.790144E+03  2.474932E+02
       185   9 -9.056696E+05 -1.844578E+05 -1.842089E+04 -3.937571E+05  1.386267E+03 -2.807284E+03
       185  10 -9.291289E+05 -1.914430E+05 -1.658064E+04 -4.006581E+05 -2.726796E-10 -5.920175E-11
       185  11 -8.737743E+05 -1.629164E+05 -6.175233E+03 -3.763371E+05  1.172022E-10 -1.307645E-10
       185  12 -8.069325E+05 -1.473445E+05  2.887032E+03 -3.656257E+05  1.444704E-09  1.715138E-10
       185  13 -8.561217E+05 -1.646237E+05 -2.251973E+03 -3.801698E+05 -2.848972E-11 -9.981570E-11
       185  14 -8.618946E+05 -1.587260E+05 -4.101981E+03 -3.731252E+05  5.511238E-11 -1.089651E-10
       185  15 -8.563021E+05 -1.659012E+05 -7.766810E+03 -3.796919E+05  1.474517E-10 -5.084782E-10
       185  16 -7.831095E+05 -1.378041E+05  1.207628E+04 -3.596795E+05  4.606448E-10  2.849135E-10
       185  17 -8.500148E+05 -1.545355E+05 -2.028733E+03 -3.699133E+05 -1.978843E-10 -3.901124E-10
       185  18 -9.056696E+05 -1.844578E+05 -1.842091E+04 -3.937571E+05 -9.349297E-10 -9.794889E-10
       185  19 -9.291288E+05 -1.914429E+05 -1.658043E+04 -4.006581E+05 -6.115619E+03 -8.682093E+03
       185  20 -8.737742E+05 -1.629164E+05 -6.175029E+03 -3.763370E+05 -9.260192E+03 -4.760975E+03
       185  21 -8.069324E+05 -1.473444E+05  2.887317E+03 -3.656257E+05 -1.224713E+04 -1.260623E+03
       185  22 -8.561216E+05 -1.646236E+05 -2.251900E+03 -3.801699E+05  5.040822E+02 -6.202627E+03
       185  23 -8.618946E+05 -1.587260E+05 -4.101949E+03 -3.731252E+05 -3.235085E+03 -2.504256E+03
       185  24 -8.563021E+05 -1.659012E+05 -7.766721E+03 -3.796919E+05 -6.816489E+03  7.734145E+02
       185  25 -7.831095E+05 -1.378041E+05  1.207641E+04 -3.596795E+05  7.124565E+03 -3.722860E+03
       185  26 -8.500148E+05 -1.545355E+05 -2.028718E+03 -3.699133E+05  2.790144E+03 -2.474932E+02
       185  27 -9.056696E+05 -1.844578E+05 -1.842089E+04 -3.937571E+05 -1.386267E+03  2.807284E+03
       186   1 -7.635450E+05 -1.333190E+05  9.238469E+03 -3.579407E+05  1.567239E+04 -5.749068E+02
       186   2 -7.141896E+05 -1.011297E+05  1.548673E+04 -3.219850E+05  1.739684E+04 -1.725043E+03
       186   3 -6.614072E+05 -1.023448E+05  1.492971E+04 -2.936631E+05  1.677457E+04  3.387905E+03
       186   4 -8.575974E+05 -1.646865E+05 -1.016442E+04 -3.806583E+05  9.014270E+03 -3.068742E+03
       186   5 -8.607250E+05 -1.633718E+05 -1.901057E+04 -3.707509E+05  1.959475E+04 -9.021190E+02
       186   6 -8.621883E+05 -1.972228E+05 -4.168625E+04 -3.684803E+05  2.782794E+04  7.528098E+03
       186   7 -9.516411E+05 -1.960538E+05 -2.956770E+04 -4.033729E+05  2.357206E+03 -5.562266E+03
       186   8 -1.007236E+06 -2.256094E+05 -5.350874E+04 -4.195048E+05  2.179207E+04 -7.949039E+01
       186   9 -1.062922E+06 -2.920878E+05 -9.830350E+04 -4.432708E+05  3.887705E+04  1.166581E+04
       186  10 -7.635453E+05 -1.333191E+05  9.238006E+03 -3.579407E+05  6.980043E-10 -3.010219E-10
       186  11 -7.141899E+05 -1.011298E+05  1.548615E+04 -3.219850E+05  5.569507E-10  1.057061E-10
       186  12 -6.614075E+05 -1.023449E+05  1.492916E+04 -2.936632E+05 -2.924680E-10 -4.126293E-10
       186  13 -8.575975E+05 -1.646866E+05 -1.016459E+04 -3.806582E+05  4.603093E-10 -1.469856E-10
       186  14 -8.607254E+05 -1.633719E+05 -1.901129E+04 -3.707509E+05  4.439730E-10  3.076526E-10
       186  15 -8.621892E+05 -1.972231E+05 -4.168782E+04 -3.684805E+05  1.015219E-10 -3.003581E-11
       186  16 -9.516411E+05 -1.960539E+05 -2.956777E+04 -4.033729E+05 -2.803436E-10 -1.336579E-09
       186  17 -1.007237E+06 -2.256095E+05 -5.350963E+04 -4.195048E+05 -7.209664E-11 -3.278756E-10
       186  18 -1.062924E+06 -2.920883E+05 -9.830661E+04 -4.432711E+05  9.907496E-11 -1.711097E-10
       186  19 -7.635450E+05 -1.333190E+05  9.238469E+03 -3.579407E+05 -1.567239E+04  5.749068E+02
       186  20 -7.141896E+05 -1.011297E+05  1.548673E+04 -3.219850E+05 -1.739684E+04  1.725043E+03
       186  21 -6.614072E+05 -1.023448E+05  1.492971E+04 -2.936631E+05 -1.677457E+04 -3.387905E+03
       186  22 -8.575974E+05 -1.646865E+05 -1.016442E+04 -3.806583E+05 -9.014270E+03  3.068742E+03
       186  23 -8.607250E+05 -1.633718E+05 -1.901057E+04 -3.707509E+05 -1.959475E+04  9.021190E+02
       186  24 -8.621883E+05 -1.972228E+05 -4.168625E+04 -3.684803E+05 -2.782794E+04 -7.528098E+03
       186  25 -9.516411E+05 -1.960538E+05 -2.956770E+04 -4.033729E+05 -2.357206E+03  5.562266E+03
       186  26 -1.007236E+06 -2.256094E+05 -5.350874E+04 -4.195048E+05 -2.179207E+04  7.949039E+01
       186  27 -1.062922E+06 -2.920878E+05 -9.830350E+04 -4.432708E+05 -3.887705E+04 -1.166581E+04
       187   1  6.094961E+04  1.284598E+04  1.786145E+04  3.766281E+03  1.544901E+04  1.765042E+02
       187   2  5.953545E+04 -7.730462E+03  5.441395E+03  1.183080E+03  1.022174E+04  5.125287E+02
       187   3  6.462591E+04 -5.014321E+03  2.247806E+03 -3.082060E+03  4.994387E+03  4.375239E+02
       187   4  8.139204E+04  1.794591E+04  2.292490E+04 -9.728454E+02  1.567053E+04  1.764027E+02
       187   5  7.812563E+04 -3.110663E+03  9.952567E+03 -1.312154E+02  1.027536E+04  5.125095E+02
       187   6  8.139273E+04 -8.459324E+02  6.323056E+03 -9.714780E+02  4.880132E+03  4.375346E+02
       187   7  1.018349E+05  2.304589E+04  2.798834E+04 -5.712128E+03  1.589206E+04  1.762979E+02
       187   8  9.671614E+04  1.509117E+03  1.446371E+04 -1.445551E+03  1.032899E+04  5.124900E+02
       187   9  9.815981E+04  3.322452E+03  1.039829E+04  1.139161E+03  4.765874E+03  4.375445E+02
       187  10  6.094935E+04  1.284592E+04  1.786101E+04  3.766279E+03  3.586236E-10 -1.458601E-10
       187  11  5.953533E+04 -7.730490E+03  5.441198E+03  1.183076E+03 -2.615412E-10 -1.030837E-10
       187  12  6.462589E+04 -5.014327E+03  2.247759E+03 -3.082062E+03 -3.227972E-10  6.910938E-11
       187  13  8.139178E+04  1.794584E+04  2.292444E+04 -9.728476E+02  5.652037E-10 -8.587052E-12
       187  14  7.812552E+04 -3.110692E+03  9.952368E+03 -1.312196E+02  5.489399E-10 -1.364015E-10
       187  15  8.139270E+04 -8.459390E+02  6.323011E+03 -9.714797E+02  5.010244E-10 -5.172384E-11
       187  16  1.018346E+05  2.304582E+04  2.798786E+04 -5.712130E+03  4.429312E-10 -7.553813E-12
       187  17  9.671602E+04  1.509088E+03  1.446351E+04 -1.445555E+03 -4.926100E-10 -1.363098E-10
       187  18  9.815979E+04  3.322445E+03  1.039825E+04  1.139159E+03  2.588648E-10  1.097767E-11
       187  19  6.094961E+04  1.284598E+04  1.786145E+04  3.766281E+03 -1.544901E+04 -1.765042E+02
       187  20  5.953545E+04 -7.730462E+03  5.441395E+03  1.183080E+03 -1.022174E+04 -5.125287E+02
       187  21  6.462591E+04 -5.014321E+03  2.247806E+03 -3.082060E+03 -4.994387E+03 -4.375239E+02
       187  22  8.139204E+04  1.794591E+04  2.292490E+04 -9.728454E+02 -1.567053E+04 -1.764027E+02
       187  23  7.812563E+04 -3.110663E+03  9.952567E+03 -1.312154E+02 -1.027536E+04 -5.125095E+02
       187  24  8.139273E+04 -8.459324E+02  6.323056E+03 -9.714780E+02 -4.880132E+03 -4.375346E+02
       187  25  1.018349E+05  2.304589E+04  2.798834E+04 -5.712128E+03 -1.589206E+04 -1.762979E+02
       187  26  9.671614E+04  1.509117E+03  1.446371E+04 -1.445551E+03 -1.032899E+04 -5.124900E+02
       187  27  9.815981E+04  3.322452E+03  1.039829E+04  1.139161E+03 -4.765874E+03 -4.375445E+02
       188   1  6.656673E+04 -1.227295E+03  1.882535E+03 -4.496606E+02  3.881870E+03  3.368873E+02
       188   2  6.795713E+04 -3.296681E+03 -2.670275E+02 -1.958171E+00  2.562470E+03  3.063245E+02
       188   3  7.021979E+04 -2.565672E+03 -8.574818E+02 -1.236231E+03  1.243068E+03  2.372823E+02
       188   4  8.013513E+04  2.146584E+03  5.184901E+03 -9.719711E+02  3.877329E+03  3.368834E+02
       188   5  7.969771E+04 -3.780554E+02  2.586528E+03 -1.309403E+02  2.542201E+03  3.063229E+02
       188   6  8.013525E+04 -9.960016E+01  1.558159E+03 -9.718813E+02  1.207074E+03  2.372817E+02
       188   7  9.370369E+04  5.520450E+03  8.487253E+03 -1.494293E+03  3.872788E+03  3.368794E+02
       188   8  9.143841E+04  2.540560E+03  5.440074E+03 -2.599249E+02  2.521932E+03  3.063213E+02
       188   9  9.005080E+04  2.366465E+03  3.973794E+03 -7.075276E+02  1.171080E+03  2.372810E+02
       188  10  6.656671E+04 -1.227299E+03  1.882507E+03 -4.496616E+02  7.666701E-11 -3.216074E-11
       188  11  6.795712E+04 -3.296683E+03 -2.670400E+02 -1.958803E+00  1.387374E-10 -2.478009E-10
       188  12  7.021979E+04 -2.565673E+03 -8.574848E+02 -1.236231E+03 -1.191843E-09  1.673950E-10
       188  13  8.013511E+04  2.146579E+03  5.184872E+03 -9.719721E+02 -5.145994E-10  9.399996E-11
       188  14  7.969770E+04 -3.780572E+02  2.586516E+03 -1.309410E+02  8.412224E-10  1.130401E-11
       188  15  8.013525E+04 -9.960061E+01  1.558157E+03 -9.718815E+02 -9.093985E-10  1.086194E-10
       188  16  9.370368E+04  5.520446E+03  8.487225E+03 -1.494294E+03 -5.123091E-10  1.070553E-10
       188  17  9.143840E+04  2.540559E+03  5.440061E+03 -2.599256E+02 -1.046938E-09  2.066263E-10
       188  18  9.005080E+04  2.366465E+03  3.973791E+03 -7.075279E+02  1.536901E-10  9.532472E-11
       188  19  6.656673E+04 -1.227295E+03  1.882535E+03 -4.496606E+02 -3.881870E+03 -3.368873E+02
       188  20  6.795713E+04 -3.296681E+03 -2.670275E+02 -1.958171E+00 -2.562470E+03 -3.063245E+02
       188  21  7.021979E+04 -2.565672E+03 -8.574818E+02 -1.236231E+03 -1.243068E+03 -2.372823E+02
       188  22  8.013513E+04  2.146584E+03  5.184901E+03 -9.719711E+02 -3.877329E+03 -3.368834E+02
       188  23  7.969771E+04 -3.780554E+02  2.586528E+03 -1.309403E+02 -2.542201E+03 -3.063229E+02
       188  24  8.013525E+04 -9.960016E+01  1.558159E+03 -9.718813E+02 -1.207074E+03 -2.372817E+02
       188  25  9.370369E+04  5.520450E+03  8.487253E+03 -1.494293E+03 -3.872788E+03 -3.368794E+02
       188  26  9.143841E+04  2.540560E+03  5.440074E+03 -2.599249E+02 -2.521932E+03 -3.063213E+02
       188  27  9.005080E+04  2.366465E+03  3.973794E+03 -7.075276E+02 -1.171080E+03 -2.372810E+02
       189   1  7.324182E+04 -1.417640E+03 -4.025656E+02 -9.205986E+02  9.850231E+02  1.917851E+02
       189   2  7.500061E+04 -1.265612E+03 -5.324816E+02 -1.234929E+02  6.536721E+02  1.269861E+02
       189   3  7.688633E+04 -7.787913E+02 -3.629798E+02 -1.005389E+03  3.223245E+02  5.861318E+01
       189   4  7.996908E+04  2.538422E+02  1.228168E+03 -9.712520E+02  9.593208E+02  1.917843E+02
       189   5  7.990549E+04 -4.624265E+01  6.599060E+02 -1.317487E+02  6.265083E+02  1.269855E+02
       189   6  7.996911E+04 -1.127550E+01  3.920806E+02 -9.712466E+02  2.937002E+02  5.861279E+01
       189   7  8.669638E+04  1.925321E+03  2.858899E+03 -1.021906E+03  9.336183E+02  1.917835E+02
       189   8  8.481039E+04  1.173125E+03  1.852292E+03 -1.400046E+02  5.993443E+02  1.269850E+02
       189   9  8.305189E+04  7.562396E+02  1.147140E+03 -9.371044E+02  2.650757E+02  5.861239E+01
       189  10  7.324182E+04 -1.417641E+03 -4.025674E+02 -9.205988E+02  2.824543E-10  2.700831E-10
       189  11  7.500061E+04 -1.265613E+03 -5.324824E+02 -1.234930E+02  2.462600E-10 -5.476177E-11
       189  12  7.688632E+04 -7.787913E+02 -3.629800E+02 -1.005389E+03  2.597043E-10  5.149834E-11
       189  13  7.996908E+04  2.538419E+02  1.228167E+03 -9.712521E+02 -2.568030E-11  9.592917E-11
       189  14  7.990549E+04 -4.624277E+01  6.599052E+02 -1.317488E+02 -2.734085E-10 -1.249792E-10
       189  15  7.996911E+04 -1.127553E+01  3.920804E+02 -9.712467E+02  9.467603E-10 -4.092608E-11
       189  16  8.669638E+04  1.925321E+03  2.858897E+03 -1.021906E+03 -6.417537E-11 -7.482758E-11
       189  17  8.481039E+04  1.173125E+03  1.852291E+03 -1.400047E+02  3.296605E-10 -2.426827E-10
       189  18  8.305189E+04  7.562396E+02  1.147140E+03 -9.371044E+02 -4.578385E-11 -9.688713E-11
       189  19  7.324182E+04 -1.417640E+03 -4.025656E+02 -9.205986E+02 -9.850231E+02 -1.917851E+02
       189  20  7.500061E+04 -1.265612E+03 -5.324816E+02 -1.234929E+02 -6.536721E+02 -1.269861E+02
       189  21  7.688633E+04 -7.787913E+02 -3.629798E+02 -1.005389E+03 -3.223245E+02 -5.861318E+01
       189  22  7.996908E+04  2.538422E+02  1.228168E+03 -9.712520E+02 -9.593208E+02 -1.917843E+02
       189  23  7.990549E+04 -4.624265E+01  6.599060E+02 -1.317487E+02 -6.265083E+02 -1.269855E+02
       189  24  7.996911E+04 -1.127550E+01  3.920806E+02 -9.712466E+02 -2.937002E+02 -5.861279E+01
       189  25  8.669638E+04  1.925321E+03  2.858899E+03 -1.021906E+03 -9.336183E+02 -1.917835E+02
       189  26  8.481039E+04  1.173125E+03  1.852292E+03 -1.400046E+02 -5.993443E+02 -1.269850E+02
       189  27  8.305189E+04  7.562396E+02  1.147140E+03 -9.371044E+02 -2.650757E+02 -5.861239E+01
       190   1  8.004720E+04  5.556512E+01  3.367448E+02 -9.678110E+02  2.586118E+02  1.832574E+01
       190   2  8.185762E+04  4.720482E+02  6.486582E+02 -1.324792E+02  1.684196E+02 -4.964527E+01
       190   3  8.369021E+04  9.298019E+02  1.029624E+03 -9.756175E+02  7.822610E+01 -1.179264E+02
       190   4  7.994576E+04  2.923493E+01  3.065212E+02 -9.711306E+02  2.309406E+02  1.832538E+01
       190   5  7.993469E+04 -6.004473E+00  1.811557E+02 -1.318953E+02  1.406216E+02 -4.964570E+01
       190   6  7.994577E+04  4.214548E-02  1.249234E+02 -9.711303E+02  5.030158E+01 -1.179268E+02
       190   7  7.984433E+04  2.904741E+00  2.762976E+02 -9.744502E+02  2.032694E+02  1.832502E+01
       190   8  7.801176E+04 -4.840574E+02 -2.863470E+02 -1.313113E+02  1.128237E+02 -4.964613E+01
       190   9  7.620134E+04 -9.297186E+02 -7.797778E+02 -9.666430E+02  2.237724E+01 -1.179273E+02
       190  10  8.004720E+04  5.556511E+01  3.367447E+02 -9.678110E+02 -3.626968E-10  9.340402E-11
       190  11  8.185762E+04  4.720482E+02  6.486581E+02 -1.324792E+02 -4.217688E-10 -2.368918E-11
       190  12  8.369021E+04  9.298019E+02  1.029624E+03 -9.756175E+02  2.813632E-11  9.972192E-11
       190  13  7.994576E+04  2.923492E+01  3.065211E+02 -9.711306E+02  5.395556E-10  4.890305E-11
       190  14  7.993469E+04 -6.004481E+00  1.811557E+02 -1.318952E+02  2.503733E-10 -2.404691E-11
       190  15  7.994577E+04  4.212987E-02  1.249234E+02 -9.711302E+02 -1.108991E-09  4.707823E-11
       190  16  7.984433E+04  2.904730E+00  2.762975E+02 -9.744502E+02 -2.683484E-11  2.727906E-11
       190  17  7.801176E+04 -4.840574E+02 -2.863471E+02 -1.313113E+02 -5.531335E-10  5.726889E-12
       190  18  7.620134E+04 -9.297186E+02 -7.797778E+02 -9.666430E+02  1.327033E-10 -4.131366E-11
       190  19  8.004720E+04  5.556512E+01  3.367448E+02 -9.678110E+02 -2.586118E+02 -1.832574E+01
       190  20  8.185762E+04  4.720482E+02  6.486582E+02 -1.324792E+02 -1.684196E+02  4.964527E+01
       190  21  8.369021E+04  9.298019E+02  1.029624E+03 -9.756175E+02 -7.822610E+01  1.179264E+02
       190  22  7.994576E+04  2.923493E+01  3.065212E+02 -9.711306E+02 -2.309406E+02 -1.832538E+01
       190  23  7.993469E+04 -6.004473E+00  1.811557E+02 -1.318953E+02 -1.406216E+02  4.964570E+01
       190  24  7.994577E+04  4.214548E-02  1.249234E+02 -9.711303E+02 -5.030158E+01  1.179268E+02
       190  25  7.984433E+04  2.904741E+00  2.762976E+02 -9.744502E+02 -2.032694E+02 -1.832502E+01
       190  26  7.801176E+04 -4.840574E+02 -2.863470E+02 -1.313113E+02 -1.128237E+02  4.964613E+01
       190  27  7.620134E+04 -9.297186E+02 -7.797778E+02 -9.666430E+02 -2.237724E+01  1.179273E+02
       191   1  8.687379E+04  1.726682E+03  1.802041E+03 -9.700489E+02  5.692329E+01 -1.578157E+02
       191   2  8.869158E+04  2.173263E+03  2.236140E+03 -1.312933E+02  3.060080E+00 -2.261596E+02
       191   3  9.052176E+04  2.640366E+03  2.710482E+03 -9.733296E+02 -5.080181E+01 -2.941077E+02
       191   4  7.994358E+04  2.674539E+00  1.115691E+02 -9.716465E+02  2.895548E+01 -1.578163E+02
       191   5  7.993740E+04 -3.061971E+00  1.078735E+02 -1.312500E+02 -2.474562E+01 -2.261605E+02
       191   6  7.994357E+04  1.169593E+01  1.443092E+02 -9.716468E+02 -7.844524E+01 -2.941089E+02
       191   7  7.301341E+04 -1.721337E+03 -1.578906E+03 -9.732441E+02  9.879737E-01 -1.578169E+02
       191   8  7.118328E+04 -2.179393E+03 -2.020398E+03 -1.312067E+02 -5.255094E+01 -2.261615E+02
       191   9  6.936549E+04 -2.616983E+03 -2.421872E+03 -9.699642E+02 -1.060882E+02 -2.941101E+02
       191  10  8.687379E+04  1.726682E+03  1.802041E+03 -9.700489E+02 -7.315196E-10  1.706885E-10
       191  11  8.869158E+04  2.173263E+03  2.236140E+03 -1.312933E+02  1.573255E-10  1.649929E-10
       191  12  9.052176E+04  2.640366E+03  2.710482E+03 -9.733296E+02 -4.635694E-10  1.644254E-12
       191  13  7.994358E+04  2.674512E+00  1.115690E+02 -9.716465E+02 -4.786404E-10  1.180721E-10
       191  14  7.993740E+04 -3.062026E+00  1.078734E+02 -1.312500E+02 -4.868867E-10  1.408002E-10
       191  15  7.994357E+04  1.169583E+01  1.443091E+02 -9.716469E+02 -4.637798E-10 -1.042271E-13
       191  16  7.301341E+04 -1.721337E+03 -1.578906E+03 -9.732441E+02  1.932015E-10 -3.276462E-11
       191  17  7.118328E+04 -2.179393E+03 -2.020398E+03 -1.312067E+02 -2.823826E-10  4.772571E-12
       191  18  6.936549E+04 -2.616983E+03 -2.421872E+03 -9.699642E+02  6.955581E-10 -3.572050E-11
       191  19  8.687379E+04  1.726682E+03  1.802041E+03 -9.700489E+02 -5.692329E+01  1.578157E+02
       191  20  8.869158E+04  2.173263E+03  2.236140E+03 -1.312933E+02 -3.060080E+00  2.261596E+02
       191  21  9.052176E+04  2.640366E+03  2.710482E+03 -9.733296E+02  5.080181E+01  2.941077E+02
       191  22  7.994358E+04  2.674539E+00  1.115691E+02 -9.716465E+02 -2.895548E+01  1.578163E+02
       191  23  7.993740E+04 -3.061971E+00  1.078735E+02 -1.312500E+02  2.474562E+01  2.261605E+02
       191  24  7.994357E+04  1.169593E+01  1.443092E+02 -9.716468E+02  7.844524E+01  2.941089E+02
       191  25  7.301341E+04 -1.721337E+03 -1.578906E+03 -9.732441E+02 -9.879737E-01  1.578169E+02
       191  26  7.118328E+04 -2.179393E+03 -2.020398E+03 -1.312067E+02  5.255094E+01  2.261615E+02
       191  27  6.936549E+04 -2.616983E+03 -2.421872E+03 -9.699642E+02  1.060882E+02  2.941101E+02
       192   1  9.372379E+04  3.420294E+03  3.527916E+03 -9.587989E+02 -7.802149E+01 -3.347639E+02
       192   2  9.552676E+04  3.859418E+03  4.069316E+03 -1.327232E+02 -2.196354E+02 -4.033944E+02
       192   3  9.738298E+04  4.435357E+03  4.737229E+03 -9.927660E+02 -3.612453E+02 -4.667650E+02
       192   4  7.995256E+04 -4.396007E+00  1.743640E+02 -9.728287E+02 -1.070955E+02 -3.347654E+02
       192   5  7.992610E+04 -1.893349E+01  2.766834E+02 -1.297711E+02 -2.465598E+02 -4.033964E+02
       192   6  7.995254E+04  1.029794E+02  5.040330E+02 -9.728348E+02 -3.860196E+02 -4.667673E+02
       192   7  6.618151E+04 -3.429100E+03 -3.179201E+03 -9.868583E+02 -1.361688E+02 -3.347669E+02
       192   8  6.432567E+04 -3.897303E+03 -3.515966E+03 -1.268191E+02 -2.734835E+02 -4.033984E+02
       192   9  6.252239E+04 -4.229420E+03 -3.729185E+03 -9.529042E+02 -4.107933E+02 -4.667697E+02
       192  10  9.372379E+04  3.420293E+03  3.527915E+03 -9.587989E+02  2.255425E-11 -4.734913E-11
       192  11  9.552676E+04  3.859418E+03  4.069315E+03 -1.327233E+02  8.228366E-10 -2.109632E-10
       192  12  9.738298E+04  4.435356E+03  4.737228E+03 -9.927661E+02  5.981624E-10  6.222849E-11
       192  13  7.995256E+04 -4.396130E+00  1.743638E+02 -9.728288E+02  2.372886E-15 -5.291761E-11
       192  14  7.992610E+04 -1.893369E+01  2.766830E+02 -1.297712E+02 -8.500914E-10 -8.440370E-11
       192  15  7.995254E+04  1.029792E+02  5.040323E+02 -9.728349E+02  1.188904E-09  7.688090E-11
       192  16  6.618151E+04 -3.429100E+03 -3.179202E+03 -9.868583E+02 -1.732060E-10 -8.693245E-11
       192  17  6.432567E+04 -3.897303E+03 -3.515967E+03 -1.268192E+02 -6.604351E-10 -4.218049E-12
       192  18  6.252239E+04 -4.229420E+03 -3.729186E+03 -9.529043E+02  3.305744E-11  1.449620E-10
       192  19  9.372379E+04  3.420294E+03  3.527916E+03 -9.587989E+02  7.802149E+01  3.347639E+02
       192  20  9.552676E+04  3.859418E+03  4.069316E+03 -1.327232E+02  2.196354E+02  4.033944E+02
       192  21  9.738298E+04  4.435357E+03  4.737229E+03 -9.927660E+02  3.612453E+02  4.667650E+02
       192  22  7.995256E+04 -4.396007E+00  1.743640E+02 -9.728287E+02  1.070955E+02  3.347654E+02
       192  23  7.992610E+04 -1.893349E+01  2.766834E+02 -1.297711E+02  2.465598E+02  4.033964E+02
       192  24  7.995254E+04  1.029794E+02  5.040330E+02 -9.728348E+02  3.860196E+02  4.667673E+02
       192  25  6.618151E+04 -3.429100E+03 -3.179201E+03 -9.868583E+02  1.361688E+02  3.347669E+02
       192  26  6.432567E+04 -3.897303E+03 -3.515966E+03 -1.268191E+02  2.734835E+02  4.033984E+02
       192  27  6.252239E+04 -4.229420E+03 -3.729185E+03 -9.529042E+02  4.107933E+02  4.667697E+02
       193   1  1.006562E+05  5.090562E+03  5.658651E+03 -8.659301E+02 -4.473708E+02 -5.152750E+02
       193   2  1.023151E+05  5.432933E+03  6.515644E+03 -1.791021E+02 -1.014406E+03 -5.850105E+02
       193   3  1.043348E+05  6.918428E+03  8.027791E+03 -1.184957E+03 -1.581453E+03 -5.973941E+02
       193   4  8.002004E+04 -4.060984E+01  6.369854E+02 -9.742621E+02 -4.874999E+02 -5.152787E+02
       193   5  7.984163E+04 -1.537754E+02  1.053227E+03 -1.279641E+02 -1.031115E+03 -5.850134E+02
       193   6  8.001998E+04  8.721338E+02  2.108370E+03 -9.743503E+02 -1.574740E+03 -5.973955E+02
       193   7  5.938424E+04 -5.171813E+03 -4.384711E+03 -1.082590E+03 -5.276276E+02 -5.152825E+02
       193   8  5.736862E+04 -5.740521E+03 -4.409228E+03 -7.682803E+01 -1.047824E+03 -5.850163E+02
       193   9  5.570569E+04 -5.174203E+03 -3.811094E+03 -7.637517E+02 -1.568028E+03 -5.973969E+02
       193  10  1.006562E+05  5.090561E+03  5.658650E+03 -8.659303E+02  1.544050E-10  2.260405E-11
       193  11  1.023151E+05  5.432932E+03  6.515642E+03 -1.791026E+02  7.081614E-10 -2.023414E-10
       193  12  1.043348E+05  6.918427E+03  8.027786E+03 -1.184958E+03  2.003016E-10 -1.467687E-11
       193  13  8.002004E+04 -4.061019E+01  6.369844E+02 -9.742623E+02 -5.406104E-10  1.310332E-11
       193  14  7.984163E+04 -1.537761E+02  1.053224E+03 -1.279646E+02 -2.925234E-10 -1.565237E-10
       193  15  8.001998E+04  8.721328E+02  2.108365E+03 -9.743511E+02 -1.330638E-10  3.720037E-11
       193  16  5.938424E+04 -5.171813E+03 -4.384712E+03 -1.082591E+03  9.171843E-10  8.326532E-11
       193  17  5.736862E+04 -5.740521E+03 -4.409230E+03 -7.682853E+01 -1.219155E-10  1.037600E-10
       193  18  5.570569E+04 -5.174204E+03 -3.811099E+03 -7.637525E+02 -2.122788E-10  1.056202E-10
       193  19  1.006562E+05  5.090562E+03  5.658651E+03 -8.659301E+02  4.473708E+02  5.152750E+02
       193  20  1.023151E+05  5.432933E+03  6.515644E+03 -1.791021E+02  1.014406E+03  5.850105E+02
       193  21  1.043348E+05  6.918428E+03  8.027791E+03 -1.184957E+03  1.581453E+03  5.973941E+02
       193  22  8.002004E+04 -4.060984E+01  6.369854E+02 -9.742621E+02  4.874999E+02  5.152787E+02
       193  23  7.984163E+04 -1.537754E+02  1.053227E+03 -1.279641E+02  1.031115E+03  5.850134E+02
       193  24  8.001998E+04  8.721338E+02  2.108370E+03 -9.743503E+02  1.574740E+03  5.973955E+02
       193  25  5.938424E+04 -5.171813E+03 -4.384711E+03 -1.082590E+03  5.276276E+02  5.152825E+02
       193  26  5.736862E+04 -5.740521E+03 -4.409228E+03 -7.682803E+01  1.047824E+03  5.850163E+02
       193  27  5.570569E+04 -5.174203E+03 -3.811094E+03 -7.637517E+02  1.568028E+03  5.973969E+02
       194   1  1.080710E+05  6.501746E+03  9.261544E+03 -1.141849E+02 -1.825557E+03 -7.281453E+02
       194   2  1.085782E+05  6.035727E+03  1.117409E+04 -6.596325E+02 -4.268663E+03 -8.065825E+02
       194   3  1.117858E+05  1.509094E+04  1.705773E+04 -2.898133E+03 -6.711867E+03 -2.719224E+02
       194   4  8.053116E+04 -3.440474E+02  2.570640E+03 -9.740197E+02 -1.982476E+03 -7.281625E+02
       194   5  7.920252E+04 -1.264428E+03  4.045085E+03 -1.280675E+02 -4.175316E+03 -8.065761E+02
       194   6  8.053086E+04  7.293216E+03  9.316976E+03 -9.751659E+02 -6.368247E+03 -2.718906E+02
       194   7  5.299205E+04 -7.189894E+03 -4.120318E+03 -1.833816E+03 -2.139387E+03 -7.281793E+02
       194   8  4.982761E+04 -8.564645E+03 -3.083983E+03  4.034722E+02 -4.081975E+03 -8.065695E+02
       194   9  4.927683E+04 -5.045690E+02  1.576150E+03  9.477041E+02 -6.024645E+03 -2.718566E+02
       194  10  1.080710E+05  6.501745E+03  9.261536E+03 -1.141859E+02 -1.450503E-10 -8.378368E-11
       194  11  1.085782E+05  6.035722E+03  1.117405E+04 -6.596353E+02 -5.859602E-10 -5.203313E-10
       194  12  1.117857E+05  1.509093E+04  1.705765E+04 -2.898134E+03  6.959728E-11 -1.927393E-10
       194  13  8.053116E+04 -3.440490E+02  2.570632E+03 -9.740209E+02  4.574819E-10 -3.916558E-10
       194  14  7.920250E+04 -1.264433E+03  4.045051E+03 -1.280702E+02  5.871269E-10  2.079229E-10
       194  15  8.053081E+04  7.293205E+03  9.316900E+03 -9.751673E+02 -2.808925E-10 -4.856723E-11
       194  16  5.299205E+04 -7.189896E+03 -4.120327E+03 -1.833818E+03 -2.474142E-11  5.150009E-11
       194  17  4.982759E+04 -8.564650E+03 -3.084016E+03  4.034695E+02  1.493148E-11  1.922887E-10
       194  18  4.927679E+04 -5.045788E+02  1.576082E+03  9.477028E+02  6.972756E-10 -1.684720E-10
       194  19  1.080710E+05  6.501746E+03  9.261544E+03 -1.141849E+02  1.825557E+03  7.281453E+02
       194  20  1.085782E+05  6.035727E+03  1.117409E+04 -6.596325E+02  4.268663E+03  8.065825E+02
       194  21  1.117858E+05  1.509094E+04  1.705773E+04 -2.898133E+03  6.711867E+03  2.719224E+02
       194  22  8.053116E+04 -3.440474E+02  2.570640E+03 -9.740197E+02  1.982476E+03  7.281625E+02
       194  23  7.920252E+04 -1.264428E+03  4.045085E+03 -1.280675E+02  4.175316E+03  8.065761E+02
       194  24  8.053086E+04  7.293216E+03  9.316976E+03 -9.751659E+02  6.368247E+03  2.718906E+02
       194  25  5.299205E+04 -7.189894E+03 -4.120318E+03 -1.833816E+03  2.139387E+03  7.281793E+02
       194  26  4.982761E+04 -8.564645E+03 -3.083983E+03  4.034722E+02  4.081975E+03  8.065695E+02
       194  27  4.927683E+04 -5.045690E+02  1.576150E+03  9.477041E+02  6.024645E+03  2.718566E+02
       195   1  7.444986E+05  2.998627E+06  7.453935E+05 -3.410797E+05  2.371089E+04  4.017886E+04
       195   2  5.644006E+05  2.362449E+06  5.679113E+05 -5.190186E+04  6.404481E+04  7.087481E+03
       195   3  4.186381E+05  1.744948E+06  4.215709E+05 -3.371592E+05  4.041447E+04 -2.614021E+04
       195   4  1.672434E+04  7.714160E+04  2.268376E+04 -3.335380E+05  2.375578E+04  1.056107E+04
       195   5 -4.397011E+03  7.039274E+04  1.274938E+04 -4.625831E+04  6.406944E+04  3.702367E+03
       195   6  4.353123E+03  7.745369E+04  1.585588E+04 -3.335442E+05  4.031517E+04 -3.326073E+03
       195   7 -7.116867E+05 -2.836612E+06 -7.006571E+05 -3.260273E+05  2.380009E+04 -1.891808E+04
       195   8 -5.735794E+05 -2.216876E+06 -5.427906E+05 -4.063218E+04  6.409407E+04  3.296570E+02
       195   9 -4.101361E+05 -1.587507E+06 -3.900588E+05 -3.299353E+05  4.021600E+04  1.942709E+04
       195  10  7.444976E+05  2.998625E+06  7.453895E+05 -3.410804E+05  5.397061E-10 -2.260145E-09
       195  11  5.643962E+05  2.362448E+06  5.679035E+05 -5.190222E+04 -1.509324E-09 -6.209987E-10
       195  12  4.186362E+05  1.744946E+06  4.215666E+05 -3.371583E+05  1.698204E-10  4.459882E-09
       195  13  1.672370E+04  7.714133E+04  2.268249E+04 -3.335382E+05  6.456895E-10 -8.907193E-12
       195  14 -4.401423E+03  7.039162E+04  1.274164E+04 -4.625850E+04 -5.802557E-10  1.464937E-09
       195  15  4.351374E+03  7.745325E+04  1.585280E+04 -3.335441E+05  7.884616E-10 -5.240530E-10
       195  16 -7.116874E+05 -2.836613E+06 -7.006589E+05 -3.260270E+05  2.768432E-14  1.070967E-09
       195  17 -5.735838E+05 -2.216877E+06 -5.427984E+05 -4.063220E+04  1.049051E-09  2.465568E-09
       195  18 -4.101380E+05 -1.587508E+06 -3.900625E+05 -3.299360E+05 -3.747204E-10 -8.457703E-10
       195  19  7.444986E+05  2.998627E+06  7.453935E+05 -3.410797E+05 -2.371089E+04 -4.017886E+04
       195  20  5.644006E+05  2.362449E+06  5.679113E+05 -5.190186E+04 -6.404481E+04 -7.087481E+03
       195  21  4.186381E+05  1.744948E+06  4.215709E+05 -3.371592E+05 -4.041447E+04  2.614021E+04
       195  22  1.672434E+04  7.714160E+04  2.268376E+04 -3.335380E+05 -2.375578E+04 -1.056107E+04
       195  23 -4.397011E+03  7.039274E+04  1.274938E+04 -4.625831E+04 -6.406944E+04 -3.702367E+03
       195  24  4.353123E+03  7.745369E+04  1.585588E+04 -3.335442E+05 -4.031517E+04  3.326073E+03
       195  25 -7.116867E+05 -2.836612E+06 -7.006571E+05 -3.260273E+05 -2.380009E+04  1.891808E+04
       195  26 -5.735794E+05 -2.216876E+06 -5.427906E+05 -4.063218E+04 -6.409407E+04 -3.296570E+02
       195  27 -4.101361E+05 -1.587507E+06 -3.900588E+05 -3.299353E+05 -4.021600E+04 -1.942709E+04
       196   1  1.464215E+05  6.497974E+05  1.562373E+05 -3.381931E+05  1.627613E+04 -1.363895E+04
       196   2 -1.529313E+04  2.394209E+04  1.111653E+04 -4.498647E+04 -1.194750E+03 -2.568363E+04
       196   3 -1.480841E+05 -5.993561E+05 -1.203842E+05 -3.269185E+05 -1.847689E+04 -3.771316E+04
       196   4  3.753273E+03  7.560356E+04  1.704847E+04 -3.336893E+05  1.624003E+04 -6.444325E+03
       196   5 -2.712588E+03  7.449841E+04  2.340611E+04 -4.608528E+04 -1.229405E+03 -1.857010E+04
       196   6  1.978275E+04  7.559659E+04  4.345826E+04 -3.336119E+05 -1.851093E+04 -3.069262E+04
       196   7 -1.389390E+05 -4.982892E+05 -1.221639E+05 -3.291892E+05  1.620401E+04  7.436757E+02
       196   8  9.867795E+03  1.250572E+05  3.569570E+04 -4.718419E+04 -1.264083E+03 -1.145599E+04
       196   9  1.876163E+05  7.509656E+05  2.072680E+05 -3.403119E+05 -1.854510E+04 -2.366445E+04
       196  10  1.464211E+05  6.497971E+05  1.562364E+05 -3.381929E+05 -4.242737E-10 -2.756861E-09
       196  11 -1.529331E+04  2.394138E+04  1.111529E+04 -4.498649E+04  2.424635E-09 -1.790405E-09
       196  12 -1.480848E+05 -5.993577E+05 -1.203875E+05 -3.269191E+05 -3.174111E-09  3.797203E-10
       196  13  3.752978E+03  7.560345E+04  1.704790E+04 -3.336892E+05  8.905274E-10  5.159865E-11
       196  14 -2.712683E+03  7.449804E+04  2.340546E+04 -4.608530E+04  3.499321E-09  2.609619E-09
       196  15  1.978213E+04  7.559548E+04  4.345584E+04 -3.336123E+05  2.488321E-09 -6.306103E-10
       196  16 -1.389393E+05 -4.982893E+05 -1.221644E+05 -3.291892E+05  6.383605E-10 -4.585402E-09
       196  17  9.867758E+03  1.250570E+05  3.569545E+04 -4.718420E+04 -2.507815E-09  4.433099E-09
       196  18  1.876157E+05  7.509649E+05  2.072663E+05 -3.403123E+05 -1.933016E-09  3.865084E-09
       196  19  1.464215E+05  6.497974E+05  1.562373E+05 -3.381931E+05 -1.627613E+04  1.363895E+04
       196  20 -1.529313E+04  2.394209E+04  1.111653E+04 -4.498647E+04  1.194750E+03  2.568363E+04
       196  21 -1.480841E+05 -5.993561E+05 -1.203842E+05 -3.269185E+05  1.847689E+04  3.771316E+04
       196  22  3.753273E+03  7.560356E+04  1.704847E+04 -3.336893E+05 -1.624003E+04  6.444325E+03
       196  23 -2.712588E+03  7.449841E+04  2.340611E+04 -4.608528E+04  1.229405E+03  1.857010E+04
       196  24  1.978275E+04  7.559659E+04  4.345826E+04 -3.336119E+05  1.851093E+04  3.069262E+04
       196  25 -1.389390E+05 -4.982892E+05 -1.221639E+05 -3.291892E+05 -1.620401E+04 -7.436757E+02
       196  26  9.867795E+03  1.250572E+05  3.569570E+04 -4.718419E+04  1.264083E+03  1.145599E+04
       196  27  1.876163E+05  7.509656E+05  2.072680E+05 -3.403119E+05  1.854510E+04  2.366445E+04
       197   1 -4.430884E+05 -1.678027E+06 -3.773546E+05 -3.446348E+05 -4.272698E+04 -6.241939E+04
       197   2 -6.210073E+05 -2.330995E+06 -4.995022E+05 -3.129048E+04 -6.663975E+04 -7.938160E+04
       197   3 -6.079187E+05 -2.926990E+06 -5.615441E+05 -2.926958E+05 -2.458370E+04 -9.616573E+04
       197   4 -3.622535E+03  8.788439E+04  5.308425E+04 -3.336277E+05 -4.282572E+04 -3.932799E+04
       197   5 -2.660155E+04  5.718589E+04  8.060910E+04 -4.624631E+04 -6.661176E+04 -8.327551E+04
       197   6  1.457524E+05  8.755855E+04  1.868054E+05 -3.334530E+05 -2.453929E+04 -1.270634E+05
       197   7  4.356143E+05  1.856647E+06  4.832987E+05 -3.225852E+05 -4.292349E+04 -1.617081E+04
       197   8  5.673852E+05  2.450586E+06  6.603082E+05 -6.125652E+04 -6.658365E+04 -8.718390E+04
       197   9  8.987478E+05  3.110388E+06  9.344803E+05 -3.744050E+05 -2.449097E+04 -1.581104E+05
       197  10 -4.430915E+05 -1.678032E+06 -3.773654E+05 -3.446370E+05 -1.284602E-09 -2.962862E-09
       197  11 -6.210137E+05 -2.331003E+06 -4.995225E+05 -3.129474E+04  1.789927E-09  4.025838E-10
       197  12 -6.079219E+05 -2.927001E+06 -5.615627E+05 -2.926977E+05  8.253073E-10  4.384913E-10
       197  13 -3.624921E+03  8.788223E+04  5.307789E+04 -3.336291E+05 -3.851084E-09  1.994316E-11
       197  14 -2.660817E+04  5.717725E+04  8.058773E+04 -4.625077E+04  2.129108E-09  1.345007E-09
       197  15  1.457474E+05  8.754105E+04  1.867739E+05 -3.334556E+05  3.338412E-10 -6.536623E-11
       197  16  4.356123E+05  1.856646E+06  4.832947E+05 -3.225858E+05  1.022247E-09 -3.481773E-09
       197  17  5.673784E+05  2.450577E+06  6.602857E+05 -6.126119E+04  8.332682E-10  7.196233E-10
       197  18  8.987405E+05  3.110361E+06  9.344324E+05 -3.744081E+05 -9.999221E-11 -6.525962E-11
       197  19 -4.430884E+05 -1.678027E+06 -3.773546E+05 -3.446348E+05  4.272698E+04  6.241939E+04
       197  20 -6.210073E+05 -2.330995E+06 -4.995022E+05 -3.129048E+04  6.663975E+04  7.938160E+04
       197  21 -6.079187E+05 -2.926990E+06 -5.615441E+05 -2.926958E+05  2.458370E+04  9.616573E+04
       197  22 -3.622535E+03  8.788439E+04  5.308425E+04 -3.336277E+05  4.282572E+04  3.932799E+04
       197  23 -2.660155E+04  5.718589E+04  8.060910E+04 -4.624631E+04  6.661176E+04  8.327551E+04
       197  24  1.457524E+05  8.755855E+04  1.868054E+05 -3.334530E+05  2.453929E+04  1.270634E+05
       197  25  4.356143E+05  1.856647E+06  4.832987E+05 -3.225852E+05  4.292349E+04  1.617081E+04
       197  26  5.673852E+05  2.450586E+06  6.603082E+05 -6.125652E+04  6.658365E+04  8.718390E+04
       197  27  8.987478E+05  3.110388E+06  9.344803E+05 -3.744050E+05  2.449097E+04  1.581104E+05
       198   1 -1.184872E+05 -5.174641E+04 -2.523780E+04 -5.308934E+04 -1.271975E+04 -4.091734E+03
       198   2 -1.119134E+05 -3.754862E+04 -1.415826E+04 -4.999838E+04 -7.645876E+03 -6.866232E+02
       198   3 -1.073060E+05 -3.027343E+04 -8.826408E+03 -4.669699E+04 -2.148415E+03  1.589585E+03
       198   4 -7.701394E+04 -2.890734E+04 -1.324172E+04 -3.420653E+04 -8.873427E+03 -2.649254E+03
       198   5 -7.555759E+04 -2.068701E+04 -6.301120E+03 -3.618237E+04 -6.107703E+03 -1.097697E+02
       198   6 -7.561028E+04 -1.893197E+04 -3.279490E+03 -3.794794E+04 -2.918436E+03  1.300769E+03
       198   7 -3.553976E+04 -6.067936E+03 -1.246017E+03 -1.532279E+04 -5.026907E+03 -1.206587E+03
       198   8 -3.920060E+04 -3.825137E+03  1.555882E+03 -2.236562E+04 -4.569444E+03  4.671385E+02
       198   9 -4.391324E+04 -7.590331E+03  2.267469E+03 -2.919841E+04 -3.688505E+03  1.011936E+03
       198  10 -1.184874E+05 -5.174648E+04 -2.523813E+04 -5.308938E+04 -2.274293E-10 -6.026714E-11
       198  11 -1.119135E+05 -3.754864E+04 -1.415837E+04 -4.999838E+04 -4.939816E-10  1.016507E-10
       198  12 -1.073060E+05 -3.027343E+04 -8.826422E+03 -4.669699E+04 -1.013210E-09  2.906134E-10
       198  13 -7.701403E+04 -2.890737E+04 -1.324189E+04 -3.420655E+04 -5.316401E-10  1.136583E-10
       198  14 -7.555763E+04 -2.068702E+04 -6.301191E+03 -3.618237E+04 -5.958711E-10  1.258242E-10
       198  15 -7.561029E+04 -1.893198E+04 -3.279509E+03 -3.794794E+04 -4.993875E-10  2.768366E-11
       198  16 -3.553979E+04 -6.067944E+03 -1.246068E+03 -1.532279E+04  4.476217E-10  2.255914E-10
       198  17 -3.920063E+04 -3.825143E+03  1.555842E+03 -2.236562E+04 -9.242739E-11  1.398793E-10
       198  18 -4.391326E+04 -7.590336E+03  2.267442E+03 -2.919840E+04 -3.084247E-11 -6.427241E-11
       198  19 -1.184872E+05 -5.174641E+04 -2.523780E+04 -5.308934E+04  1.271975E+04  4.091734E+03
       198  20 -1.119134E+05 -3.754862E+04 -1.415826E+04 -4.999838E+04  7.645876E+03  6.866232E+02
       198  21 -1.073060E+05 -3.027343E+04 -8.826408E+03 -4.669699E+04  2.148415E+03 -1.589585E+03
       198  22 -7.701394E+04 -2.890734E+04 -1.324172E+04 -3.420653E+04  8.873427E+03  2.649254E+03
       198  23 -7.555759E+04 -2.068701E+04 -6.301120E+03 -3.618237E+04  6.107703E+03  1.097697E+02
       198  24 -7.561028E+04 -1.893197E+04 -3.279490E+03 -3.794794E+04  2.918436E+03 -1.300769E+03
       198  25 -3.553976E+04 -6.067936E+03 -1.246017E+03 -1.532279E+04  5.026907E+03  1.206587E+03
       198  26 -3.920060E+04 -3.825137E+03  1.555882E+03 -2.236562E+04  4.569444E+03 -4.671385E+02
       198  27 -4.391324E+04 -7.590331E+03  2.267469E+03 -2.919841E+04  3.688505E+03 -1.011936E+03
       199   1 -1.017693E+05 -2.868281E+04 -7.043971E+03 -4.569035E+04 -1.731566E+03  1.455054E+03
       199   2 -9.471930E+04 -2.472194E+04 -4.417826E+03 -4.298749E+04 -6.857530E+02  1.374860E+03
       199   3 -8.692616E+04 -2.224794E+04 -2.575335E+03 -4.138336E+04  4.057674E+02  1.172782E+03
       199   4 -7.523069E+04 -1.875318E+04 -2.439245E+03 -3.788672E+04 -2.453833E+03  1.184153E+03
       199   5 -7.557959E+04 -1.769784E+04 -1.270419E+03 -3.746358E+04 -1.657211E+03  1.010508E+03
       199   6 -7.513596E+04 -1.807999E+04 -6.878026E+02 -3.813919E+04 -8.148830E+02  7.149775E+02
       199   7 -4.869166E+04 -8.823596E+03  2.165375E+03 -3.008286E+04 -3.176124E+03  9.132428E+02
       199   8 -5.643948E+04 -1.067369E+04  1.876984E+03 -3.193950E+04 -2.628701E+03  6.461444E+02
       199   9 -6.334546E+04 -1.391197E+04  1.199772E+03 -3.489492E+04 -2.035572E+03  2.571589E+02
       199  10 -1.017693E+05 -2.868281E+04 -7.043981E+03 -4.569035E+04  2.333621E-10  3.157734E-10
       199  11 -9.471930E+04 -2.472195E+04 -4.417831E+03 -4.298749E+04 -9.904779E-10  7.594604E-11
       199  12 -8.692616E+04 -2.224794E+04 -2.575338E+03 -4.138336E+04 -5.112176E-10 -1.080631E-10
       199  13 -7.523069E+04 -1.875318E+04 -2.439259E+03 -3.788672E+04 -5.840159E-11  4.252586E-11
       199  14 -7.557959E+04 -1.769784E+04 -1.270426E+03 -3.746357E+04  8.852442E-10 -7.019569E-11
       199  15 -7.513596E+04 -1.807999E+04 -6.878048E+02 -3.813919E+04 -9.799973E-11  1.739718E-11
       199  16 -4.869167E+04 -8.823599E+03  2.165354E+03 -3.008285E+04  6.649662E-10 -2.335505E-10
       199  17 -5.643949E+04 -1.067369E+04  1.876970E+03 -3.193950E+04  5.261072E-10  3.991932E-11
       199  18 -6.334547E+04 -1.391197E+04  1.199764E+03 -3.489492E+04  5.968523E-10  1.561165E-10
       199  19 -1.017693E+05 -2.868281E+04 -7.043971E+03 -4.569035E+04  1.731566E+03 -1.455054E+03
       199  20 -9.471930E+04 -2.472194E+04 -4.417826E+03 -4.298749E+04  6.857530E+02 -1.374860E+03
       199  21 -8.692616E+04 -2.224794E+04 -2.575335E+03 -4.138336E+04 -4.057674E+02 -1.172782E+03
       199  22 -7.523069E+04 -1.875318E+04 -2.439245E+03 -3.788672E+04  2.453833E+03 -1.184153E+03
       199  23 -7.557959E+04 -1.769784E+04 -1.270419E+03 -3.746358E+04  1.657211E+03 -1.010508E+03
       199  24 -7.513596E+04 -1.807999E+04 -6.878026E+02 -3.813919E+04  8.148830E+02 -7.149775E+02
       199  25 -4.869166E+04 -8.823596E+03  2.165375E+03 -3.008286E+04  3.176124E+03 -9.132428E+02
       199  26 -5.643948E+04 -1.067369E+04  1.876984E+03 -3.193950E+04  2.628701E+03 -6.461444E+02
       199  27 -6.334546E+04 -1.391197E+04  1.199772E+03 -3.489492E+04  2.035572E+03 -2.571589E+02
       200   1 -8.210919E+04 -2.056887E+04 -1.623687E+03 -4.008178E+04  6.252368E+02  8.543664E+02
       200   2 -7.508134E+04 -1.733014E+04 -2.205968E+02 -3.738310E+04  1.017030E+03  3.157389E+02
       200   3 -6.705432E+04 -1.515947E+04  1.050086E+03 -3.586707E+04  1.413737E+03 -2.360150E+02
       200   4 -7.509939E+04 -1.807215E+04 -5.144501E+02 -3.812950E+04 -5.902772E+02  3.984897E+02
       200   5 -7.559938E+04 -1.752473E+04 -2.791736E+02 -3.754420E+04 -2.253176E+02 -1.502009E+02
       200   6 -7.509492E+04 -1.804006E+04 -1.550429E+02 -3.814156E+04  1.445517E+02 -7.120172E+02
       200   7 -6.808954E+04 -1.557542E+04  5.947915E+02 -3.617720E+04 -1.805805E+03 -5.739225E+01
       200   8 -7.611741E+04 -1.771933E+04 -3.377428E+02 -3.770529E+04 -1.467657E+03 -6.161373E+02
       200   9 -8.313536E+04 -2.092060E+04 -1.360138E+03 -4.041598E+04 -1.124601E+03 -1.188007E+03
       200  10 -8.210919E+04 -2.056887E+04 -1.623689E+03 -4.008178E+04  8.790094E-11 -4.166579E-11
       200  11 -7.508135E+04 -1.733014E+04 -2.205989E+02 -3.738310E+04  2.660247E-11  2.171629E-11
       200  12 -6.705432E+04 -1.515947E+04  1.050082E+03 -3.586707E+04 -2.206030E-11  1.093590E-10
       200  13 -7.509939E+04 -1.807215E+04 -5.144510E+02 -3.812950E+04 -9.499830E-12  6.475990E-11
       200  14 -7.559938E+04 -1.752473E+04 -2.791737E+02 -3.754420E+04  3.150652E-10  1.049156E-10
       200  15 -7.509492E+04 -1.804006E+04 -1.550439E+02 -3.814156E+04  5.050695E-10  4.167865E-11
       200  16 -6.808954E+04 -1.557542E+04  5.947853E+02 -3.617720E+04  2.194949E-10  1.540538E-10
       200  17 -7.611741E+04 -1.771933E+04 -3.377475E+02 -3.770529E+04  8.716265E-11  1.125364E-10
       200  18 -8.313536E+04 -2.092060E+04 -1.360143E+03 -4.041599E+04  1.160685E-11 -1.891097E-11
       200  19 -8.210919E+04 -2.056887E+04 -1.623687E+03 -4.008178E+04 -6.252368E+02 -8.543664E+02
       200  20 -7.508134E+04 -1.733014E+04 -2.205968E+02 -3.738310E+04 -1.017030E+03 -3.157389E+02
       200  21 -6.705432E+04 -1.515947E+04  1.050086E+03 -3.586707E+04 -1.413737E+03  2.360150E+02
       200  22 -7.509939E+04 -1.807215E+04 -5.144501E+02 -3.812950E+04  5.902772E+02 -3.984897E+02
       200  23 -7.559938E+04 -1.752473E+04 -2.791736E+02 -3.754420E+04  2.253176E+02  1.502009E+02
       200  24 -7.509492E+04 -1.804006E+04 -1.550429E+02 -3.814156E+04 -1.445517E+02  7.120172E+02
       200  25 -6.808954E+04 -1.557542E+04  5.947915E+02 -3.617720E+04  1.805805E+03  5.739225E+01
       200  26 -7.611741E+04 -1.771933E+04 -3.377428E+02 -3.770529E+04  1.467657E+03  6.161373E+02
       200  27 -8.313536E+04 -2.092060E+04 -1.360138E+03 -4.041598E+04  1.124601E+03  1.188007E+03
       201   1 -6.230470E+04 -1.346580E+04  1.848320E+03 -3.454149E+04  1.571177E+03 -5.895170E+02
       201   2 -5.529076E+04 -1.026778E+04  3.034064E+03 -3.183829E+04  1.840401E+03 -1.196842E+03
       201   3 -4.724854E+04 -8.105523E+03  4.192407E+03 -3.032019E+04  2.110025E+03 -1.805219E+03
       201   4 -7.509048E+04 -1.804069E+04 -1.175326E+02 -3.813959E+04  3.025614E+02 -1.065308E+03
       201   5 -7.560490E+04 -1.752383E+04 -6.857160E+01 -3.754669E+04  5.696159E+02 -1.673461E+03
       201   6 -7.509084E+04 -1.804241E+04 -4.535802E+01 -3.813899E+04  8.370688E+02 -2.282663E+03
       201   7 -8.787623E+04 -2.261562E+04 -2.083425E+03 -4.173766E+04 -9.660415E+02 -1.541095E+03
       201   8 -9.591872E+04 -2.477990E+04 -3.171243E+03 -4.325495E+04 -7.011329E+02 -2.150066E+03
       201   9 -1.029323E+05 -2.797923E+04 -4.283131E+03 -4.595746E+04 -4.358272E+02 -2.760085E+03
       201  10 -6.230470E+04 -1.346580E+04  1.848315E+03 -3.454149E+04  3.782414E-10 -9.569430E-11
       201  11 -5.529076E+04 -1.026778E+04  3.034055E+03 -3.183829E+04  6.849397E-10 -7.983339E-11
       201  12 -4.724855E+04 -8.105527E+03  4.192393E+03 -3.032019E+04  1.781351E-10  4.018521E-10
       201  13 -7.509048E+04 -1.804069E+04 -1.175349E+02 -3.813959E+04 -5.079413E-10 -5.900039E-11
       201  14 -7.560490E+04 -1.752384E+04 -6.857747E+01 -3.754669E+04 -3.940844E-10 -1.584596E-10
       201  15 -7.509084E+04 -1.804242E+04 -4.536913E+01 -3.813899E+04 -4.994353E-10 -3.391440E-10
       201  16 -8.787624E+04 -2.261563E+04 -2.083431E+03 -4.173766E+04  6.383239E-10  1.140873E-10
       201  17 -9.591872E+04 -2.477990E+04 -3.171252E+03 -4.325495E+04 -5.156630E-10 -8.173656E-11
       201  18 -1.029323E+05 -2.797923E+04 -4.283145E+03 -4.595746E+04  4.212020E-10 -1.071100E-09
       201  19 -6.230470E+04 -1.346580E+04  1.848320E+03 -3.454149E+04 -1.571177E+03  5.895170E+02
       201  20 -5.529076E+04 -1.026778E+04  3.034064E+03 -3.183829E+04 -1.840401E+03  1.196842E+03
       201  21 -4.724854E+04 -8.105523E+03  4.192407E+03 -3.032019E+04 -2.110025E+03  1.805219E+03
       201  22 -7.509048E+04 -1.804069E+04 -1.175326E+02 -3.813959E+04 -3.025614E+02  1.065308E+03
       201  23 -7.560490E+04 -1.752383E+04 -6.857160E+01 -3.754669E+04 -5.696159E+02  1.673461E+03
       201  24 -7.509084E+04 -1.804241E+04 -4.535802E+01 -3.813899E+04 -8.370688E+02  2.282663E+03
       201  25 -8.787623E+04 -2.261562E+04 -2.083425E+03 -4.173766E+04  9.660415E+02  1.541095E+03
       201  26 -9.591872E+04 -2.477990E+04 -3.171243E+03 -4.325495E+04  7.011329E+02  2.150066E+03
       201  27 -1.029323E+05 -2.797923E+04 -4.283131E+03 -4.595746E+04  4.358272E+02  2.760085E+03
       202   1 -4.250730E+04 -6.409029E+03  4.956622E+03 -2.899293E+04  2.253182E+03 -2.165004E+03
       202   2 -3.549687E+04 -3.210659E+03  6.092834E+03 -2.628929E+04  2.499953E+03 -2.780829E+03
       202   3 -2.745478E+04 -1.045372E+03  7.218877E+03 -2.477020E+04  2.745583E+03 -3.393590E+03
       202   4 -7.509069E+04 -1.804271E+04 -4.033353E+01 -3.813872E+04  9.801857E+02 -2.642471E+03
       202   5 -7.560592E+04 -1.752599E+04 -4.031835E+01 -3.754629E+04  1.233209E+03 -3.255969E+03
       202   6 -7.509077E+04 -1.804355E+04 -5.540868E+01 -3.813839E+04  1.485095E+03 -3.866406E+03
       202   7 -1.076725E+05 -2.967612E+04 -5.037190E+03 -4.728395E+04 -2.927254E+02 -3.119905E+03
       202   8 -1.157132E+05 -3.184115E+04 -6.173486E+03 -4.880261E+04 -3.344736E+01 -3.731076E+03
       202   9 -1.227249E+05 -3.504170E+04 -7.329877E+03 -5.150577E+04  2.246937E+02 -4.339188E+03
       202  10 -4.250731E+04 -6.409035E+03  4.956604E+03 -2.899293E+04 -2.816967E-09 -5.062417E-10
       202  11 -3.549688E+04 -3.210669E+03  6.092807E+03 -2.628929E+04  7.780001E-09  2.667592E-09
       202  12 -2.745479E+04 -1.045386E+03  7.218841E+03 -2.477020E+04  8.445708E-09  2.054112E-09
       202  13 -7.509069E+04 -1.804272E+04 -4.034846E+01 -3.813872E+04  1.922576E-09  7.672878E-10
       202  14 -7.560593E+04 -1.752600E+04 -4.034113E+01 -3.754629E+04  7.002851E-09  2.494132E-09
       202  15 -7.509078E+04 -1.804356E+04 -5.544092E+01 -3.813839E+04  2.092362E-09  9.853082E-10
       202  16 -1.076725E+05 -2.967614E+04 -5.037209E+03 -4.728396E+04  9.310692E-09  1.982970E-09
       202  17 -1.157132E+05 -3.184116E+04 -6.173512E+03 -4.880261E+04  7.349791E-09  2.481303E-09
       202  18 -1.227249E+05 -3.504172E+04 -7.329912E+03 -5.150577E+04 -2.918666E-09 -1.578205E-10
       202  19 -4.250730E+04 -6.409029E+03  4.956622E+03 -2.899293E+04 -2.253182E+03  2.165004E+03
       202  20 -3.549687E+04 -3.210659E+03  6.092834E+03 -2.628929E+04 -2.499953E+03  2.780829E+03
       202  21 -2.745478E+04 -1.045372E+03  7.218877E+03 -2.477020E+04 -2.745583E+03  3.393590E+03
       202  22 -7.509069E+04 -1.804271E+04 -4.033353E+01 -3.813872E+04 -9.801857E+02  2.642471E+03
       202  23 -7.560592E+04 -1.752599E+04 -4.031835E+01 -3.754629E+04 -1.233209E+03  3.255969E+03
       202  24 -7.509077E+04 -1.804355E+04 -5.540868E+01 -3.813839E+04 -1.485095E+03  3.866406E+03
       202  25 -1.076725E+05 -2.967612E+04 -5.037190E+03 -4.728395E+04  2.927254E+02  3.119905E+03
       202  26 -1.157132E+05 -3.184115E+04 -6.173486E+03 -4.880261E+04  3.344736E+01  3.731076E+03
       202  27 -1.227249E+05 -3.504170E+04 -7.329877E+03 -5.150577E+04 -2.246937E+02  4.339188E+03
       203   1 -2.271416E+04  6.520020E+02  7.968042E+03 -2.344437E+04  2.892072E+03 -3.749326E+03
       203   2 -1.570695E+04  3.853658E+03  9.081641E+03 -2.074055E+04  3.117215E+03 -4.351882E+03
       203   3 -7.668311E+03  6.022931E+03  1.019558E+04 -1.921830E+04  3.331337E+03 -4.925014E+03
       203   4 -7.509306E+04 -1.804326E+04 -6.940031E+01 -3.813878E+04  1.630419E+03 -4.222594E+03
       203   5 -7.560410E+04 -1.752832E+04 -1.188041E+02 -3.754539E+04  1.915722E+03 -4.802613E+03
       203   6 -7.509565E+04 -1.805770E+04 -2.155157E+02 -3.813362E+04  2.190002E+03 -5.353204E+03
       203   7 -1.274690E+05 -3.673822E+04 -8.106869E+03 -5.283202E+04  3.688791E+02 -4.695820E+03
       203   8 -1.354970E+05 -3.890977E+04 -9.319189E+03 -5.434860E+04  7.143593E+02 -5.253295E+03
       203   9 -1.425172E+05 -4.213753E+04 -1.062645E+04 -5.704677E+04  1.048812E+03 -5.781341E+03
       203  10 -2.271417E+04  6.519847E+02  7.968000E+03 -2.344436E+04  3.806101E-10 -8.127020E-10
       203  11 -1.570697E+04  3.853635E+03  9.081587E+03 -2.074054E+04  1.038549E-09 -6.601561E-11
       203  12 -7.668329E+03  6.022902E+03  1.019552E+04 -1.921829E+04  1.975077E-09 -1.829636E-10
       203  13 -7.509306E+04 -1.804328E+04 -6.943881E+01 -3.813878E+04  4.675229E-10  5.754016E-11
       203  14 -7.560411E+04 -1.752834E+04 -1.188544E+02 -3.754539E+04  2.605709E-10 -6.003639E-11
       203  15 -7.509566E+04 -1.805773E+04 -2.155785E+02 -3.813361E+04 -7.380646E-12 -4.663034E-10
       203  16 -1.274690E+05 -3.673825E+04 -8.106911E+03 -5.283202E+04  5.995619E-10  7.002817E-10
       203  17 -1.354970E+05 -3.890980E+04 -9.319242E+03 -5.434860E+04 -6.622763E-10 -2.108687E-10
       203  18 -1.425173E+05 -4.213757E+04 -1.062651E+04 -5.704677E+04 -1.692450E-09 -3.708304E-10
       203  19 -2.271416E+04  6.520020E+02  7.968042E+03 -2.344437E+04 -2.892072E+03  3.749326E+03
       203  20 -1.570695E+04  3.853658E+03  9.081641E+03 -2.074055E+04 -3.117215E+03  4.351882E+03
       203  21 -7.668311E+03  6.022931E+03  1.019558E+04 -1.921830E+04 -3.331337E+03  4.925014E+03
       203  22 -7.509306E+04 -1.804326E+04 -6.940031E+01 -3.813878E+04 -1.630419E+03  4.222594E+03
       203  23 -7.560410E+04 -1.752832E+04 -1.188041E+02 -3.754539E+04 -1.915722E+03  4.802613E+03
       203  24 -7.509565E+04 -1.805770E+04 -2.155157E+02 -3.813362E+04 -2.190002E+03  5.353204E+03
       203  25 -1.274690E+05 -3.673822E+04 -8.106869E+03 -5.283202E+04 -3.688791E+02  4.695820E+03
       203  26 -1.354970E+05 -3.890977E+04 -9.319189E+03 -5.434860E+04 -7.143593E+02  5.253295E+03
       203  27 -1.425172E+05 -4.213753E+04 -1.062645E+04 -5.704677E+04 -1.048812E+03  5.781341E+03
       204   1 -2.916835E+03  7.719252E+03  1.092629E+04 -1.790445E+04  3.507929E+03 -5.242886E+03
       204   2  4.017625E+03  1.095445E+04  1.210038E+04 -1.512975E+04  3.378587E+03 -5.779139E+03
       204   3  1.198237E+04  1.311253E+04  1.347169E+04 -1.348747E+04  3.147114E+03 -6.043124E+03
       204   4 -7.511309E+04 -1.805833E+04 -2.870698E+02 -3.813427E+04  2.355192E+03 -5.675373E+03
       204   5 -7.559308E+04 -1.760497E+04 -5.288726E+02 -3.751547E+04  2.782596E+03 -6.002812E+03
       204   6 -7.515324E+04 -1.833910E+04 -1.014556E+03 -3.802923E+04  3.107876E+03 -6.057954E+03
       204   7 -1.473046E+05 -4.383572E+04 -1.150076E+04 -5.836212E+04  1.202583E+03 -6.107812E+03
       204   8 -1.551975E+05 -4.616391E+04 -1.315838E+04 -5.989864E+04  2.186682E+03 -6.226455E+03
       204   9 -1.622808E+05 -4.978997E+04 -1.550100E+04 -6.256777E+04  3.068642E+03 -6.072781E+03
       204  10 -2.916855E+03  7.719220E+03  1.092622E+04 -1.790444E+04  4.397518E-10 -8.144995E-10
       204  11  4.017604E+03  1.095441E+04  1.210030E+04 -1.512973E+04  1.704411E-10 -8.693366E-11
       204  12  1.198235E+04  1.311249E+04  1.347161E+04 -1.348746E+04 -5.240275E-10 -1.035812E-11
       204  13 -7.511310E+04 -1.805837E+04 -2.871407E+02 -3.813426E+04 -4.592503E-10 -2.999037E-10
       204  14 -7.559309E+04 -1.760501E+04 -5.289549E+02 -3.751546E+04 -1.601349E-09  4.861646E-10
       204  15 -7.515326E+04 -1.833915E+04 -1.014643E+03 -3.802922E+04 -1.243826E-09  6.366984E-10
       204  16 -1.473046E+05 -4.383576E+04 -1.150083E+04 -5.836211E+04 -6.358397E-10  7.704804E-10
       204  17 -1.551975E+05 -4.616395E+04 -1.315847E+04 -5.989862E+04 -1.328709E-09  1.189511E-09
       204  18 -1.622808E+05 -4.979001E+04 -1.550109E+04 -6.256775E+04 -9.673882E-10  1.674210E-09
       204  19 -2.916835E+03  7.719252E+03  1.092629E+04 -1.790445E+04 -3.507929E+03  5.242886E+03
       204  20  4.017625E+03  1.095445E+04  1.210038E+04 -1.512975E+04 -3.378587E+03  5.779139E+03
       204  21  1.198237E+04  1.311253E+04  1.347169E+04 -1.348747E+04 -3.147114E+03  6.043124E+03
       204  22 -7.511309E+04 -1.805833E+04 -2.870698E+02 -3.813427E+04 -2.355192E+03  5.675373E+03
       204  23 -7.559308E+04 -1.760497E+04 -5.288726E+02 -3.751547E+04 -2.782596E+03  6.002812E+03
       204  24 -7.515324E+04 -1.833910E+04 -1.014556E+03 -3.802923E+04 -3.107876E+03  6.057954E+03
       204  25 -1.473046E+05 -4.383572E+04 -1.150076E+04 -5.836212E+04 -1.202583E+03  6.107812E+03
       204  26 -1.551975E+05 -4.616391E+04 -1.315838E+04 -5.989864E+04 -2.186682E+03  6.226455E+03
       204  27 -1.622808E+05 -4.978997E+04 -1.550100E+04 -6.256777E+04 -3.068642E+03  6.072781E+03
       205   1  1.684919E+04  1.474178E+04  1.429093E+04 -1.230069E+04  3.452825E+03 -6.067105E+03
       205   2  2.265060E+04  1.837149E+04  1.679665E+04 -8.195129E+03 -7.941344E+02 -6.303533E+03
       205   3  2.932898E+04  1.985215E+04  2.175761E+04 -4.554816E+03 -5.987303E+03 -4.018569E+03
       205   4 -7.533505E+04 -1.838977E+04 -1.363793E+03 -3.802739E+04  3.306930E+03 -6.121954E+03
       205   5 -7.555548E+04 -1.887808E+04 -2.620138E+03 -3.701714E+04  4.216306E+03 -4.423854E+03
       205   6 -7.592030E+04 -2.253691E+04 -5.506047E+03 -3.647231E+04  4.179548E+03 -2.041444E+02
       205   7 -1.675100E+05 -5.152041E+04 -1.701869E+04 -6.375046E+04  3.161057E+03 -6.176795E+03
       205   8 -1.737498E+05 -5.612588E+04 -2.203678E+04 -6.583434E+04  9.225811E+03 -2.544556E+03
       205   9 -1.811551E+05 -6.492330E+04 -3.276924E+04 -6.838365E+04  1.434419E+04  3.609326E+03
       205  10  1.684917E+04  1.474174E+04  1.429084E+04 -1.230067E+04  2.221276E-09  6.202624E-10
       205  11  2.265059E+04  1.837145E+04  1.679657E+04 -8.195133E+03 -5.748752E-09 -2.917677E-09
       205  12  2.932894E+04  1.985212E+04  2.175751E+04 -4.554835E+03 -8.518641E-09 -3.046192E-09
       205  13 -7.533507E+04 -1.838981E+04 -1.363884E+03 -3.802737E+04 -2.868699E-09 -6.928965E-10
       205  14 -7.555550E+04 -1.887810E+04 -2.620208E+03 -3.701713E+04 -8.047785E-09 -2.611182E-09
       205  15 -7.592032E+04 -2.253692E+04 -5.506080E+03 -3.647231E+04 -2.229855E-09 -8.375530E-10
       205  16 -1.675101E+05 -5.152045E+04 -1.701878E+04 -6.375045E+04 -9.988002E-09 -1.813360E-09
       205  17 -1.737499E+05 -5.612591E+04 -2.203695E+04 -6.583432E+04 -7.417182E-09 -2.138992E-09
       205  18 -1.811553E+05 -6.492337E+04 -3.276965E+04 -6.838369E+04  1.898975E-09  8.780456E-10
       205  19  1.684919E+04  1.474178E+04  1.429093E+04 -1.230069E+04 -3.452825E+03  6.067105E+03
       205  20  2.265060E+04  1.837149E+04  1.679665E+04 -8.195129E+03  7.941344E+02  6.303533E+03
       205  21  2.932898E+04  1.985215E+04  2.175761E+04 -4.554816E+03  5.987303E+03  4.018569E+03
       205  22 -7.533505E+04 -1.838977E+04 -1.363793E+03 -3.802739E+04 -3.306930E+03  6.121954E+03
       205  23 -7.555548E+04 -1.887808E+04 -2.620138E+03 -3.701714E+04 -4.216306E+03  4.423854E+03
       205  24 -7.592030E+04 -2.253691E+04 -5.506047E+03 -3.647231E+04 -4.179548E+03  2.041444E+02
       205  25 -1.675100E+05 -5.152041E+04 -1.701869E+04 -6.375046E+04 -3.161057E+03  6.176795E+03
       205  26 -1.737498E+05 -5.612588E+04 -2.203678E+04 -6.583434E+04 -9.225811E+03  2.544556E+03
       205  27 -1.811551E+05 -6.492330E+04 -3.276924E+04 -6.838365E+04 -1.434419E+04 -3.609326E+03
       206   1 -5.440117E+04 -9.743626E+03 -1.616973E+04 -4.565423E+03 -1.935081E+04 -4.588783E+02
       206   2 -5.306880E+04  1.628533E+04 -6.169608E+02 -1.478322E+03 -1.290624E+04 -1.363251E+03
       206   3 -5.996922E+04  1.272762E+04  3.344304E+03  4.143475E+03 -6.462003E+03 -1.243229E+03
       206   4 -1.068287E+05 -2.282495E+04 -2.915632E+04  1.455867E+03 -1.992799E+04 -4.591714E+02
       206   5 -1.026751E+05  3.955889E+03 -1.265808E+04  1.862389E+02 -1.306604E+04 -1.363327E+03
       206   6 -1.068275E+05  1.076249E+03 -8.041924E+03  1.451374E+03 -6.204393E+03 -1.243142E+03
       206   7 -1.592537E+05 -3.590634E+04 -4.214309E+04  7.476648E+03 -2.050513E+04 -4.594757E+02
       206   8 -1.522792E+05 -8.373720E+03 -2.469937E+04  1.850666E+03 -1.322583E+04 -1.363404E+03
       206   9 -1.536839E+05 -1.057526E+04 -1.942831E+04 -1.240522E+03 -5.946802E+03 -1.243058E+03
       206  10 -5.440158E+04 -9.743727E+03 -1.617044E+04 -4.565431E+03 -7.053561E-10  1.249484E-10
       206  11 -5.306898E+04  1.628528E+04 -6.172774E+02 -1.478336E+03  8.228568E-10 -7.460685E-11
       206  12 -5.996926E+04  1.272761E+04  3.344223E+03  4.143468E+03 -1.905699E-10 -6.574793E-10
       206  13 -1.068291E+05 -2.282505E+04 -2.915706E+04  1.455860E+03 -3.494860E-11  2.794859E-10
       206  14 -1.026753E+05  3.955841E+03 -1.265840E+04  1.862246E+02 -5.949675E-10  1.531188E-10
       206  15 -1.068276E+05  1.076237E+03 -8.041999E+03  1.451368E+03 -4.302145E-10 -2.079734E-10
       206  16 -1.592541E+05 -3.590645E+04 -4.214388E+04  7.476641E+03  7.155101E-11  2.321432E-10
       206  17 -1.522794E+05 -8.373769E+03 -2.469970E+04  1.850652E+03  1.847376E-10 -2.808698E-10
       206  18 -1.536839E+05 -1.057527E+04 -1.942838E+04 -1.240528E+03 -3.844549E-10 -7.929776E-10
       206  19 -5.440117E+04 -9.743626E+03 -1.616973E+04 -4.565423E+03  1.935081E+04  4.588783E+02
       206  20 -5.306880E+04  1.628533E+04 -6.169608E+02 -1.478322E+03  1.290624E+04  1.363251E+03
       206  21 -5.996922E+04  1.272762E+04  3.344304E+03  4.143475E+03  6.462003E+03  1.243229E+03
       206  22 -1.068287E+05 -2.282495E+04 -2.915632E+04  1.455867E+03  1.992799E+04  4.591714E+02
       206  23 -1.026751E+05  3.955889E+03 -1.265808E+04  1.862389E+02  1.306604E+04  1.363327E+03
       206  24 -1.068275E+05  1.076249E+03 -8.041924E+03  1.451374E+03  6.204393E+03  1.243142E+03
       206  25 -1.592537E+05 -3.590634E+04 -4.214309E+04  7.476648E+03  2.050513E+04  4.594757E+02
       206  26 -1.522792E+05 -8.373720E+03 -2.469937E+04  1.850666E+03  1.322583E+04  1.363404E+03
       206  27 -1.536839E+05 -1.057526E+04 -1.942831E+04 -1.240522E+03  5.946802E+03  1.243058E+03
       207   1 -6.324394E+04  7.712015E+03  3.628781E+03  8.067742E+02 -4.913780E+03 -1.031150E+03
       207   2 -6.549130E+04  1.022267E+04  6.234305E+03  1.783734E+01 -3.254391E+03 -1.020706E+03
       207   3 -6.884332E+04  9.176454E+03  6.870345E+03  1.807293E+03 -1.595018E+03 -9.136965E+02
       207   4 -1.052289E+05 -2.730049E+03 -6.594819E+03  1.463135E+03 -4.929174E+03 -1.031164E+03
       207   5 -1.046731E+05  4.806214E+02 -3.291165E+03  1.735375E+02 -3.230493E+03 -1.020704E+03
       207   6 -1.052287E+05  1.274753E+02 -1.984368E+03  1.462338E+03 -1.531821E+03 -9.136784E+02
       207   7 -1.472123E+05 -1.317224E+04 -1.681855E+04  2.119450E+03 -4.944567E+03 -1.031178E+03
       207   8 -1.438534E+05 -9.261543E+03 -1.281675E+04  3.292276E+02 -3.206596E+03 -1.020702E+03
       207   9 -1.416129E+05 -8.921600E+03 -1.083918E+04  1.117403E+03 -1.468627E+03 -9.136603E+02
       207  10 -6.324397E+04  7.712007E+03  3.628734E+03  8.067701E+02 -3.959866E-10 -8.384195E-10
       207  11 -6.549132E+04  1.022267E+04  6.234283E+03  1.783466E+01  4.587807E-10  4.269988E-10
       207  12 -6.884332E+04  9.176452E+03  6.870339E+03  1.807292E+03 -9.373252E-10  2.094605E-10
       207  13 -1.052290E+05 -2.730057E+03 -6.594867E+03  1.463130E+03 -2.978978E-12 -7.261169E-10
       207  14 -1.046731E+05  4.806175E+02 -3.291186E+03  1.735348E+02 -3.491322E-10 -5.466385E-11
       207  15 -1.052287E+05  1.274737E+02 -1.984374E+03  1.462337E+03  2.797131E-10 -3.916707E-10
       207  16 -1.472123E+05 -1.317225E+04 -1.681859E+04  2.119446E+03  3.822000E-10 -2.917482E-10
       207  17 -1.438534E+05 -9.261547E+03 -1.281677E+04  3.292250E+02 -2.933671E-10 -1.029525E-11
       207  18 -1.416129E+05 -8.921602E+03 -1.083918E+04  1.117402E+03 -7.781735E-10  9.772260E-11
       207  19 -6.324394E+04  7.712015E+03  3.628781E+03  8.067742E+02  4.913780E+03  1.031150E+03
       207  20 -6.549130E+04  1.022267E+04  6.234305E+03  1.783734E+01  3.254391E+03  1.020706E+03
       207  21 -6.884332E+04  9.176454E+03  6.870345E+03  1.807293E+03  1.595018E+03  9.136965E+02
       207  22 -1.052289E+05 -2.730049E+03 -6.594819E+03  1.463135E+03  4.929174E+03  1.031164E+03
       207  23 -1.046731E+05  4.806214E+02 -3.291165E+03  1.735375E+02  3.230493E+03  1.020704E+03
       207  24 -1.052287E+05  1.274753E+02 -1.984368E+03  1.462338E+03  1.531821E+03  9.136784E+02
       207  25 -1.472123E+05 -1.317224E+04 -1.681855E+04  2.119450E+03  4.944567E+03  1.031178E+03
       207  26 -1.438534E+05 -9.261543E+03 -1.281675E+04  3.292276E+02  3.206596E+03  1.020702E+03
       207  27 -1.416129E+05 -8.921600E+03 -1.083918E+04  1.117403E+03  1.468627E+03  9.136603E+02
       208   1 -7.354621E+04  7.501886E+03  6.080331E+03  1.410517E+03 -1.253808E+03 -8.380877E+02
       208   2 -7.628476E+04  7.183098E+03  6.120532E+03  1.649743E+02 -8.309353E+02 -7.412676E+02
       208   3 -7.918533E+04  6.440280E+03  5.779192E+03  1.517739E+03 -4.080753E+02 -6.350985E+02
       208   4 -1.050178E+05 -3.222265E+02 -1.565825E+03  1.467108E+03 -1.216234E+03 -8.380777E+02
       208   5 -1.049364E+05  5.884266E+01 -8.462754E+02  1.678910E+02 -7.895672E+02 -7.412548E+02
       208   6 -1.050177E+05  1.521190E+01 -5.109158E+02  1.466990E+03 -3.629107E+02 -6.350828E+02
       208   7 -1.364885E+05 -8.146412E+03 -9.212054E+03  1.523695E+03 -1.178662E+03 -8.380677E+02
       208   8 -1.335873E+05 -7.065473E+03 -7.813143E+03  1.708075E+02 -7.482009E+02 -7.412420E+02
       208   9 -1.308495E+05 -6.409905E+03 -6.801072E+03  1.416243E+03 -3.177480E+02 -6.350670E+02
       208  10 -7.354621E+04  7.501885E+03  6.080327E+03  1.410517E+03 -2.781613E-10  4.325372E-10
       208  11 -7.628476E+04  7.183097E+03  6.120530E+03  1.649738E+02  1.557648E-10  7.490822E-10
       208  12 -7.918533E+04  6.440279E+03  5.779191E+03  1.517739E+03  5.708625E-10  3.706415E-10
       208  13 -1.050178E+05 -3.222276E+02 -1.565829E+03  1.467107E+03  7.365824E-11 -4.421670E-10
       208  14 -1.049364E+05  5.884191E+01 -8.462776E+02  1.678905E+02 -6.361074E-10  6.314054E-10
       208  15 -1.050177E+05  1.521143E+01 -5.109169E+02  1.466990E+03  1.794575E-10  1.238386E-09
       208  16 -1.364885E+05 -8.146413E+03 -9.212058E+03  1.523694E+03 -1.362744E-10  4.818377E-10
       208  17 -1.335873E+05 -7.065473E+03 -7.813145E+03  1.708071E+02 -1.178763E-09  7.106131E-10
       208  18 -1.308495E+05 -6.409905E+03 -6.801073E+03  1.416243E+03  9.177551E-10  6.430971E-10
       208  19 -7.354621E+04  7.501886E+03  6.080331E+03  1.410517E+03  1.253808E+03  8.380877E+02
       208  20 -7.628476E+04  7.183098E+03  6.120532E+03  1.649743E+02  8.309353E+02  7.412676E+02
       208  21 -7.918533E+04  6.440280E+03  5.779192E+03  1.517739E+03  4.080753E+02  6.350985E+02
       208  22 -1.050178E+05 -3.222265E+02 -1.565825E+03  1.467108E+03  1.216234E+03  8.380777E+02
       208  23 -1.049364E+05  5.884266E+01 -8.462754E+02  1.678910E+02  7.895672E+02  7.412548E+02
       208  24 -1.050177E+05  1.521190E+01 -5.109158E+02  1.466990E+03  3.629107E+02  6.350828E+02
       208  25 -1.364885E+05 -8.146412E+03 -9.212054E+03  1.523695E+03  1.178662E+03  8.380677E+02
       208  26 -1.335873E+05 -7.065473E+03 -7.813143E+03  1.708075E+02  7.482009E+02  7.412420E+02
       208  27 -1.308495E+05 -6.409905E+03 -6.801072E+03  1.416243E+03  3.177480E+02  6.350670E+02
       209   1 -8.410020E+04  5.156148E+03  4.664636E+03  1.471384E+03 -3.233318E+02 -5.720023E+02
       209   2 -8.691792E+04  4.497572E+03  4.131392E+03  1.701758E+02 -1.948250E+02 -4.666201E+02
       209   3 -8.976784E+04  3.785418E+03  3.500648E+03  1.480256E+03 -6.632579E+01 -3.602227E+02
       209   4 -1.049887E+05 -3.613692E+01 -4.061279E+02  1.469922E+03 -2.805616E+02 -5.719867E+02
       209   5 -1.049725E+05  8.225600E+00 -2.588127E+02  1.642688E+02 -1.516448E+02 -4.666034E+02
       209   6 -1.049887E+05 -1.073149E+00 -2.092960E+02  1.469908E+03 -2.273508E+01 -3.602049E+02
       209   7 -1.258768E+05 -5.228454E+03 -5.476923E+03  1.468461E+03 -2.377927E+02 -5.719710E+02
       209   8 -1.230268E+05 -4.481145E+03 -4.649041E+03  1.583618E+02 -1.084658E+02 -4.665866E+02
       209   9 -1.202093E+05 -3.787582E+03 -3.919257E+03  1.459561E+03  2.085457E+01 -3.601870E+02
       209  10 -8.410020E+04  5.156148E+03  4.664635E+03  1.471384E+03  9.790615E-10  2.507760E-10
       209  11 -8.691792E+04  4.497572E+03  4.131392E+03  1.701758E+02  2.697273E-10  8.952847E-10
       209  12 -8.976784E+04  3.785418E+03  3.500647E+03  1.480256E+03 -3.358902E-10  5.613901E-10
       209  13 -1.049887E+05 -3.613730E+01 -4.061286E+02  1.469922E+03  5.414587E-10  4.085937E-10
       209  14 -1.049725E+05  8.225360E+00 -2.588131E+02  1.642687E+02  3.520083E-10  8.184115E-10
       209  15 -1.049887E+05 -1.073289E+00 -2.092963E+02  1.469908E+03 -3.783271E-10 -1.829851E-10
       209  16 -1.258768E+05 -5.228454E+03 -5.476924E+03  1.468461E+03  2.209746E-10  5.049959E-10
       209  17 -1.230268E+05 -4.481145E+03 -4.649042E+03  1.583618E+02 -5.703752E-10 -1.650583E-10
       209  18 -1.202093E+05 -3.787582E+03 -3.919257E+03  1.459561E+03  3.018554E-10 -4.450038E-10
       209  19 -8.410020E+04  5.156148E+03  4.664636E+03  1.471384E+03  3.233318E+02  5.720023E+02
       209  20 -8.691792E+04  4.497572E+03  4.131392E+03  1.701758E+02  1.948250E+02  4.666201E+02
       209  21 -8.976784E+04  3.785418E+03  3.500648E+03  1.480256E+03  6.632579E+01  3.602227E+02
       209  22 -1.049887E+05 -3.613692E+01 -4.061279E+02  1.469922E+03  2.805616E+02  5.719867E+02
       209  23 -1.049725E+05  8.225600E+00 -2.588127E+02  1.642688E+02  1.516448E+02  4.666034E+02
       209  24 -1.049887E+05 -1.073149E+00 -2.092960E+02  1.469908E+03  2.273508E+01  3.602049E+02
       209  25 -1.258768E+05 -5.228454E+03 -5.476923E+03  1.468461E+03  2.377927E+02  5.719710E+02
       209  26 -1.230268E+05 -4.481145E+03 -4.649041E+03  1.583618E+02  1.084658E+02  4.665866E+02
       209  27 -1.202093E+05 -3.787582E+03 -3.919257E+03  1.459561E+03 -2.085457E+01  3.601870E+02
       210   1 -9.473100E+04  2.547437E+03  2.277549E+03  1.469689E+03 -2.859147E+01 -2.980410E+02
       210   2 -9.755643E+04  1.852063E+03  1.552120E+03  1.642766E+02  9.666249E+01 -1.915420E+02
       210   3 -1.004138E+05  1.105237E+03  7.316874E+02  1.477696E+03  2.219159E+02 -8.533472E+01
       210   4 -1.049885E+05 -1.396825E+00 -2.079573E+02  1.471584E+03  1.489236E+01 -2.980226E+02
       210   5 -1.049726E+05  7.988740E+00 -2.512428E+02  1.621743E+02  1.400262E+02 -1.915234E+02
       210   6 -1.049885E+05 -3.404706E+01 -3.894373E+02  1.471598E+03  2.651601E+02 -8.531576E+01
       210   7 -1.152460E+05 -2.550238E+03 -2.693471E+03  1.473479E+03  5.837548E+01 -2.980043E+02
       210   8 -1.123887E+05 -1.836090E+03 -2.054609E+03  1.600720E+02  1.833894E+02 -1.915048E+02
       210   9 -1.095633E+05 -1.173332E+03 -1.510563E+03  1.465500E+03  3.084039E+02 -8.529680E+01
       210  10 -9.473100E+04  2.547437E+03  2.277548E+03  1.469689E+03  7.113088E-10  1.863058E-10
       210  11 -9.755643E+04  1.852063E+03  1.552119E+03  1.642766E+02  1.329487E-10  2.702498E-10
       210  12 -1.004138E+05  1.105236E+03  7.316873E+02  1.477696E+03 -3.351816E-11 -8.122267E-10
       210  13 -1.049885E+05 -1.396921E+00 -2.079575E+02  1.471584E+03  9.997467E-10  1.142211E-09
       210  14 -1.049726E+05  7.988695E+00 -2.512429E+02  1.621743E+02 -1.230904E-09  3.163523E-10
       210  15 -1.049885E+05 -3.404709E+01 -3.894374E+02  1.471598E+03 -9.176703E-10 -7.837790E-10
       210  16 -1.152460E+05 -2.550238E+03 -2.693471E+03  1.473479E+03  8.388617E-10  5.412689E-10
       210  17 -1.123887E+05 -1.836090E+03 -2.054609E+03  1.600720E+02 -6.433996E-10 -2.031887E-10
       210  18 -1.095633E+05 -1.173332E+03 -1.510564E+03  1.465500E+03 -9.687728E-10 -9.857542E-10
       210  19 -9.473100E+04  2.547437E+03  2.277549E+03  1.469689E+03  2.859147E+01  2.980410E+02
       210  20 -9.755643E+04  1.852063E+03  1.552120E+03  1.642766E+02 -9.666249E+01  1.915420E+02
       210  21 -1.004138E+05  1.105237E+03  7.316874E+02  1.477696E+03 -2.219159E+02  8.533472E+01
       210  22 -1.049885E+05 -1.396825E+00 -2.079573E+02  1.471584E+03 -1.489236E+01  2.980226E+02
       210  23 -1.049726E+05  7.988740E+00 -2.512428E+02  1.621743E+02 -1.400262E+02  1.915234E+02
       210  24 -1.049885E+05 -3.404706E+01 -3.894373E+02  1.471598E+03 -2.651601E+02  8.531576E+01
       210  25 -1.152460E+05 -2.550238E+03 -2.693471E+03  1.473479E+03 -5.837548E+01  2.980043E+02
       210  26 -1.123887E+05 -1.836090E+03 -2.054609E+03  1.600720E+02 -1.833894E+02  1.915048E+02
       210  27 -1.095633E+05 -1.173332E+03 -1.510563E+03  1.465500E+03 -3.084039E+02  8.529680E+01
       211   1 -1.054127E+05 -8.568251E+01 -5.937238E+02  1.430533E+03  2.994827E+02 -2.249400E+01
       211   2 -1.081770E+05 -7.491527E+02 -1.594286E+03  1.710557E+02  7.082234E+02  8.437477E+01
       211   3 -1.110984E+05 -1.816945E+03 -2.962671E+03  1.531505E+03  1.116965E+03  1.863164E+02
       211   4 -1.050163E+05  1.468450E+01 -4.885850E+02  1.471786E+03  3.440121E+02 -2.247437E+01
       211   5 -1.049379E+05  5.623074E+01 -8.067577E+02  1.618927E+02  7.507446E+02  8.439331E+01
       211   6 -1.050163E+05 -3.061937E+02 -1.491355E+03  1.471925E+03  1.157480E+03  1.863338E+02
       211   7 -1.046199E+05  1.150515E+02 -3.834463E+02  1.513038E+03  3.885414E+02 -2.245473E+01
       211   8 -1.016988E+05  8.616134E+02 -1.923003E+01  1.527295E+02  7.932661E+02  8.441185E+01
       211   9 -9.893428E+04  1.204554E+03 -2.004206E+01  1.412345E+03  1.197995E+03  1.863512E+02
       211  10 -1.054127E+05 -8.568253E+01 -5.937240E+02  1.430533E+03 -6.960264E-10 -3.970373E-11
       211  11 -1.081770E+05 -7.491528E+02 -1.594287E+03  1.710557E+02 -1.131672E-10  2.885659E-10
       211  12 -1.110984E+05 -1.816945E+03 -2.962673E+03  1.531505E+03  1.781170E-10 -2.065685E-10
       211  13 -1.050163E+05  1.468447E+01 -4.885853E+02  1.471786E+03  1.686671E-13 -3.187355E-10
       211  14 -1.049379E+05  5.623058E+01 -8.067587E+02  1.618926E+02  4.212475E-10  6.806582E-10
       211  15 -1.050163E+05 -3.061941E+02 -1.491358E+03  1.471925E+03 -1.213837E-10  8.372732E-11
       211  16 -1.046199E+05  1.150515E+02 -3.834465E+02  1.513038E+03  8.708886E-10 -1.565677E-10
       211  17 -1.016988E+05  8.616132E+02 -1.923123E+01  1.527295E+02 -4.010523E-10 -1.127387E-09
       211  18 -9.893428E+04  1.204554E+03 -2.004482E+01  1.412345E+03 -5.464109E-10 -6.037565E-11
       211  19 -1.054127E+05 -8.568251E+01 -5.937238E+02  1.430533E+03 -2.994827E+02  2.249400E+01
       211  20 -1.081770E+05 -7.491527E+02 -1.594286E+03  1.710557E+02 -7.082234E+02 -8.437477E+01
       211  21 -1.110984E+05 -1.816945E+03 -2.962671E+03  1.531505E+03 -1.116965E+03 -1.863164E+02
       211  22 -1.050163E+05  1.468450E+01 -4.885850E+02  1.471786E+03 -3.440121E+02  2.247437E+01
       211  23 -1.049379E+05  5.623074E+01 -8.067577E+02  1.618927E+02 -7.507446E+02 -8.439331E+01
       211  24 -1.050163E+05 -3.061937E+02 -1.491355E+03  1.471925E+03 -1.157480E+03 -1.863338E+02
       211  25 -1.046199E+05  1.150515E+02 -3.834463E+02  1.513038E+03 -3.885414E+02  2.245473E+01
       211  26 -1.016988E+05  8.616134E+02 -1.923003E+01  1.527295E+02 -7.932661E+02 -8.441185E+01
       211  27 -9.893428E+04  1.204554E+03 -2.004206E+01  1.412345E+03 -1.197995E+03 -1.863512E+02
       212   1 -1.162669E+05 -2.627691E+03 -4.584622E+03  1.147047E+03  1.403601E+03  2.561642E+02
       212   2 -1.185729E+05 -2.994628E+03 -6.508805E+03  3.155978E+02  3.042121E+03  3.640820E+02
       212   3 -1.219437E+05 -6.757468E+03 -1.034936E+04  2.099232E+03  4.680633E+03  4.196191E+02
       212   4 -1.052173E+05  1.218189E+02 -1.889694E+03  1.470392E+03  1.458043E+03  2.561881E+02
       212   5 -1.046868E+05  4.578788E+02 -3.133257E+03  1.634095E+02  3.075226E+03  3.640946E+02
       212   6 -1.052175E+05 -2.598225E+03 -6.278353E+03  1.471516E+03  4.692408E+03  4.196184E+02
       212   7 -9.416758E+04  2.871320E+03  8.052255E+02  1.793742E+03  1.512485E+03  2.562121E+02
       212   8 -9.080061E+04  3.910372E+03  2.422762E+02  1.121774E+01  3.108331E+03  3.641073E+02
       212   9 -8.849105E+04  1.560999E+03 -2.207363E+03  8.437835E+02  4.704184E+03  4.196178E+02
       212  10 -1.162669E+05 -2.627691E+03 -4.584626E+03  1.147047E+03 -2.902292E-10  5.993305E-10
       212  11 -1.185729E+05 -2.994631E+03 -6.508822E+03  3.155969E+02  1.537847E-10  8.406252E-10
       212  12 -1.219437E+05 -6.757474E+03 -1.034940E+04  2.099230E+03  7.685617E-10  7.623941E-10
       212  13 -1.052173E+05  1.218183E+02 -1.889698E+03  1.470392E+03 -6.410208E-12  2.343573E-10
       212  14 -1.046868E+05  4.578762E+02 -3.133275E+03  1.634086E+02 -6.513923E-10  7.963188E-10
       212  15 -1.052175E+05 -2.598231E+03 -6.278395E+03  1.471515E+03  1.016147E-10  6.472551E-11
       212  16 -9.416759E+04  2.871319E+03  8.052211E+02  1.793742E+03  2.408948E-10  1.385359E-10
       212  17 -9.080062E+04  3.910369E+03  2.422578E+02  1.121682E+01 -7.018189E-10 -9.345394E-14
       212  18 -8.849107E+04  1.560993E+03 -2.207405E+03  8.437819E+02 -2.926495E-10 -8.115746E-10
       212  19 -1.162669E+05 -2.627691E+03 -4.584622E+03  1.147047E+03 -1.403601E+03 -2.561642E+02
       212  20 -1.185729E+05 -2.994628E+03 -6.508805E+03  3.155978E+02 -3.042121E+03 -3.640820E+02
       212  21 -1.219437E+05 -6.757468E+03 -1.034936E+04  2.099232E+03 -4.680633E+03 -4.196191E+02
       212  22 -1.052173E+05  1.218189E+02 -1.889694E+03  1.470392E+03 -1.458043E+03 -2.561881E+02
       212  23 -1.046868E+05  4.578788E+02 -3.133257E+03  1.634095E+02 -3.075226E+03 -3.640946E+02
       212  24 -1.052175E+05 -2.598225E+03 -6.278353E+03  1.471516E+03 -4.692408E+03 -4.196184E+02
       212  25 -9.416758E+04  2.871320E+03  8.052255E+02  1.793742E+03 -1.512485E+03 -2.562121E+02
       212  26 -9.080061E+04  3.910372E+03  2.422762E+02  1.121774E+01 -3.108331E+03 -3.641073E+02
       212  27 -8.849105E+04  1.560999E+03 -2.207363E+03  8.437835E+02 -4.704184E+03 -4.196178E+02
       213   1 -1.284177E+05 -4.367710E+03 -1.292759E+04 -1.096326E+03  5.746279E+03  5.638666E+02
       213   2 -1.272776E+05 -2.320202E+03 -1.799437E+04  1.754198E+03  1.250523E+04  6.805246E+02
       213   3 -1.340885E+05 -2.854859E+04 -3.453133E+04  7.203828E+03  1.926448E+04  2.405129E+02
       213   4 -1.067395E+05  1.025268E+03 -7.655975E+03  1.464452E+03  5.906452E+03  5.639535E+02
       213   5 -1.027844E+05  3.766445E+03 -1.205004E+04  1.691288E+02  1.243852E+04  6.804652E+02
       213   6 -1.067406E+05 -2.172833E+04 -2.775638E+04  1.472888E+03  1.897090E+04  2.402266E+02
       213   7 -8.506093E+04  6.418236E+03 -2.384389E+03  4.025320E+03  6.066631E+03  5.640417E+02
       213   8 -7.829072E+04  9.853057E+03 -6.105759E+03 -1.416003E+03  1.237180E+04  6.804061E+02
       213   9 -7.939198E+04 -1.490800E+04 -2.098147E+04 -4.258305E+03  1.867731E+04  2.399456E+02
       213  10 -1.284177E+05 -4.367720E+03 -1.292765E+04 -1.096329E+03  6.368817E-10  5.987949E-10
       213  11 -1.272778E+05 -2.320245E+03 -1.799466E+04  1.754191E+03 -6.902270E-10  4.388712E-11
       213  12 -1.340889E+05 -2.854869E+04 -3.453202E+04  7.203824E+03  1.988187E-10  9.232951E-11
       213  13 -1.067396E+05  1.025258E+03 -7.656041E+03  1.464449E+03 -7.324192E-11  7.980689E-10
       213  14 -1.027846E+05  3.766403E+03 -1.205033E+04  1.691220E+02  1.048437E-09 -6.798290E-10
       213  15 -1.067410E+05 -2.172843E+04 -2.775705E+04  1.472885E+03 -5.658799E-10  3.532165E-10
       213  16 -8.506097E+04  6.418226E+03 -2.384459E+03  4.025317E+03 -1.974713E-10  2.518159E-10
       213  17 -7.829088E+04  9.853015E+03 -6.106047E+03 -1.416010E+03  2.169854E-10 -3.884791E-10
       213  18 -7.939235E+04 -1.490809E+04 -2.098212E+04 -4.258308E+03  3.605057E-10 -1.336449E-10
       213  19 -1.284177E+05 -4.367710E+03 -1.292759E+04 -1.096326E+03 -5.746279E+03 -5.638666E+02
       213  20 -1.272776E+05 -2.320202E+03 -1.799437E+04  1.754198E+03 -1.250523E+04 -6.805246E+02
       213  21 -1.340885E+05 -2.854859E+04 -3.453133E+04  7.203828E+03 -1.926448E+04 -2.405129E+02
       213  22 -1.067395E+05  1.025268E+03 -7.655975E+03  1.464452E+03 -5.906452E+03 -5.639535E+02
       213  23 -1.027844E+05  3.766445E+03 -1.205004E+04  1.691288E+02 -1.243852E+04 -6.804652E+02
       213  24 -1.067406E+05 -2.172833E+04 -2.775638E+04  1.472888E+03 -1.897090E+04 -2.402266E+02
       213  25 -8.506093E+04  6.418236E+03 -2.384389E+03  4.025320E+03 -6.066631E+03 -5.640417E+02
       213  26 -7.829072E+04  9.853057E+03 -6.105759E+03 -1.416003E+03 -1.237180E+04 -6.804061E+02
       213  27 -7.939198E+04 -1.490800E+04 -2.098147E+04 -4.258305E+03 -1.867731E+04 -2.399456E+02
       214   1  4.313764E+04  2.402067E+05  4.644078E+04 -2.322719E+04  1.166261E+03  1.639962E+04
       214   2  1.891170E+04  2.125479E+05  2.828079E+04 -1.250418E+04  3.333912E+03  8.516278E+03
       214   3  1.251415E+04  1.903691E+05  1.970840E+04 -1.285658E+04  2.630157E+03  6.325788E+02
       214   4  1.722747E+04  1.360470E+05  2.104552E+04 -1.534742E+04  1.167087E+03  1.337211E+04
       214   5 -4.787097E+02  1.335173E+05  1.035112E+04 -9.811629E+03  3.334116E+03  7.902198E+03
       214   6 -7.740430E+02  1.360493E+05  7.569763E+03 -1.535118E+04  2.629708E+03  2.431628E+03
       214   7 -8.683265E+03  3.189741E+04 -4.350455E+03 -7.468970E+03  1.167837E+03  1.034511E+04
       214   8 -1.986953E+04  5.449247E+04 -7.578952E+03 -7.119428E+03  3.334316E+03  7.288195E+03
       214   9 -1.406241E+04  8.173220E+04 -4.569046E+03 -1.784556E+04  2.629245E+03  4.230522E+03
       214  10  4.313757E+04  2.402064E+05  4.644028E+04 -2.322720E+04  2.983695E-10 -6.308890E-10
       214  11  1.891167E+04  2.125479E+05  2.828063E+04 -1.250420E+04 -5.577496E-10 -2.957432E-10
       214  12  1.251414E+04  1.903691E+05  1.970839E+04 -1.285658E+04 -5.857559E-10  7.109150E-10
       214  13  1.722742E+04  1.360468E+05  2.104519E+04 -1.534743E+04  4.174353E-10 -1.991419E-10
       214  14 -4.787384E+02  1.335172E+05  1.035098E+04 -9.811650E+03 -1.609766E-09  2.160175E-10
       214  15 -7.740520E+02  1.360492E+05  7.569739E+03 -1.535119E+04  1.833765E-10 -1.812895E-12
       214  16 -8.683295E+03  3.189730E+04 -4.350658E+03 -7.468980E+03 -3.745346E-10  5.615716E-10
       214  17 -1.986955E+04  5.449241E+04 -7.579072E+03 -7.119447E+03 -5.645260E-10 -3.490061E-10
       214  18 -1.406242E+04  8.173218E+04 -4.569093E+03 -1.784557E+04 -1.951444E-10 -1.131369E-09
       214  19  4.313764E+04  2.402067E+05  4.644078E+04 -2.322719E+04 -1.166261E+03 -1.639962E+04
       214  20  1.891170E+04  2.125479E+05  2.828079E+04 -1.250418E+04 -3.333912E+03 -8.516278E+03
       214  21  1.251415E+04  1.903691E+05  1.970840E+04 -1.285658E+04 -2.630157E+03 -6.325788E+02
       214  22  1.722747E+04  1.360470E+05  2.104552E+04 -1.534742E+04 -1.167087E+03 -1.337211E+04
       214  23 -4.787097E+02  1.335173E+05  1.035112E+04 -9.811629E+03 -3.334116E+03 -7.902198E+03
       214  24 -7.740430E+02  1.360493E+05  7.569763E+03 -1.535118E+04 -2.629708E+03 -2.431628E+03
       214  25 -8.683265E+03  3.189741E+04 -4.350455E+03 -7.468970E+03 -1.167837E+03 -1.034511E+04
       214  26 -1.986953E+04  5.449247E+04 -7.578952E+03 -7.119428E+03 -3.334316E+03 -7.288195E+03
       214  27 -1.406241E+04  8.173220E+04 -4.569046E+03 -1.784556E+04 -2.629245E+03 -4.230522E+03
       215   1  8.995262E+03  1.681061E+05  1.450570E+04 -1.614448E+04  1.550561E+03  2.494335E+02
       215   2  1.807138E+03  1.425734E+05  8.935769E+03 -9.695426E+03  3.887077E+02 -3.363921E+03
       215   3 -2.043074E+03  1.183394E+05  6.550814E+03 -1.442990E+04 -7.911471E+02 -6.977158E+03
       215   4  9.423734E+02  1.352125E+05  7.131647E+03 -1.537420E+04  1.550309E+03  1.218774E+03
       215   5 -1.522335E+02  1.345648E+05  7.146019E+03 -9.782300E+03  3.884476E+02 -2.379403E+03
       215   6  2.088490E+03  1.352125E+05  1.033487E+04 -1.537390E+04 -7.914072E+02 -5.977602E+03
       215   7 -7.110586E+03  1.023200E+05 -2.424690E+02 -1.460397E+04  1.550059E+03  2.188063E+03
       215   8 -2.111609E+03  1.265562E+05  5.356268E+03 -9.869173E+03  3.881873E+02 -1.394897E+03
       215   9  6.220038E+03  1.520859E+05  1.411892E+04 -1.631792E+04 -7.916704E+02 -4.978019E+03
       215  10  8.995260E+03  1.681061E+05  1.450569E+04 -1.614448E+04 -7.135379E-10 -2.669014E-10
       215  11  1.807135E+03  1.425734E+05  8.935747E+03 -9.695425E+03  8.390356E-10 -5.996478E-10
       215  12 -2.043088E+03  1.183394E+05  6.550721E+03 -1.442990E+04  5.888994E-10 -4.275696E-10
       215  13  9.423704E+02  1.352125E+05  7.131640E+03 -1.537420E+04 -2.711827E-10 -2.088455E-10
       215  14 -1.522352E+02  1.345648E+05  7.146008E+03 -9.782299E+03 -5.348287E-11  2.075237E-10
       215  15  2.088479E+03  1.352125E+05  1.033481E+04 -1.537390E+04 -2.430595E-10 -5.505599E-11
       215  16 -7.110590E+03  1.023200E+05 -2.424825E+02 -1.460397E+04  2.583944E-10  1.615414E-10
       215  17 -2.111610E+03  1.265562E+05  5.356264E+03 -9.869172E+03 -9.170227E-10 -1.484646E-10
       215  18  6.220031E+03  1.520858E+05  1.411887E+04 -1.631792E+04 -5.003652E-10 -1.717993E-11
       215  19  8.995262E+03  1.681061E+05  1.450570E+04 -1.614448E+04 -1.550561E+03 -2.494335E+02
       215  20  1.807138E+03  1.425734E+05  8.935769E+03 -9.695426E+03 -3.887077E+02  3.363921E+03
       215  21 -2.043074E+03  1.183394E+05  6.550814E+03 -1.442990E+04  7.911471E+02  6.977158E+03
       215  22  9.423734E+02  1.352125E+05  7.131647E+03 -1.537420E+04 -1.550309E+03 -1.218774E+03
       215  23 -1.522335E+02  1.345648E+05  7.146019E+03 -9.782300E+03 -3.884476E+02  2.379403E+03
       215  24  2.088490E+03  1.352125E+05  1.033487E+04 -1.537390E+04  7.914072E+02  5.977602E+03
       215  25 -7.110586E+03  1.023200E+05 -2.424690E+02 -1.460397E+04 -1.550059E+03 -2.188063E+03
       215  26 -2.111609E+03  1.265562E+05  5.356268E+03 -9.869173E+03 -3.881873E+02  1.394897E+03
       215  27  6.220038E+03  1.520859E+05  1.411892E+04 -1.631792E+04  7.916704E+02  4.978019E+03
       216   1 -1.112174E+04  9.888035E+04  3.717330E+03 -2.045226E+04 -1.831925E+03 -9.508260E+03
       216   2 -1.641758E+04  6.910016E+04  5.239797E+03 -4.435638E+03 -2.623377E+03 -1.781234E+04
       216   3  1.295542E+04  4.906560E+04  2.083497E+04  4.927038E+02 -9.464004E+02 -2.611538E+04
       216   4 -1.754610E+03  1.371699E+05  1.228450E+04 -1.535509E+04 -1.832449E+03 -7.805255E+03
       216   5 -9.493874E+02  1.321168E+05  1.955580E+04 -9.807084E+03 -2.623116E+03 -1.818418E+04
       216   6  3.488232E+04  1.371668E+05  4.233914E+04 -1.534683E+04 -9.451853E+02 -2.856238E+04
       216   7  7.612518E+03  1.754610E+05  2.085159E+04 -1.025760E+04 -1.832945E+03 -6.102147E+03
       216   8  1.451864E+04  1.951372E+05  3.387157E+04 -1.517908E+04 -2.622848E+03 -1.855605E+04
       216   9  5.680959E+04  2.252757E+05  6.384290E+04 -3.118861E+04 -9.438455E+02 -3.100974E+04
       216  10 -1.112177E+04  9.888025E+04  3.717154E+03 -2.045227E+04  4.212872E-10 -2.714473E-10
       216  11 -1.641767E+04  6.909982E+04  5.239188E+03 -4.435676E+03  1.964080E-10 -4.145030E-10
       216  12  1.295523E+04  4.906486E+04  2.083368E+04  4.926839E+02 -6.102931E-10 -1.234426E-10
       216  13 -1.754630E+03  1.371699E+05  1.228437E+04 -1.535510E+04  3.730189E-10 -2.330831E-10
       216  14 -9.494835E+02  1.321165E+05  1.955517E+04 -9.807123E+03 -1.209500E-10  2.569094E-10
       216  15  3.488210E+04  1.371659E+05  4.233760E+04 -1.534685E+04  3.080287E-10  1.527478E-11
       216  16  7.612504E+03  1.754609E+05  2.085152E+04 -1.025761E+04  6.931580E-10  1.169473E-10
       216  17  1.451854E+04  1.951368E+05  3.387091E+04 -1.517912E+04  5.267960E-10 -3.499758E-10
       216  18  5.680933E+04  2.252746E+05  6.384109E+04 -3.118864E+04  3.214880E-10 -2.279960E-10
       216  19 -1.112174E+04  9.888035E+04  3.717330E+03 -2.045226E+04  1.831925E+03  9.508260E+03
       216  20 -1.641758E+04  6.910016E+04  5.239797E+03 -4.435638E+03  2.623377E+03  1.781234E+04
       216  21  1.295542E+04  4.906560E+04  2.083497E+04  4.927038E+02  9.464004E+02  2.611538E+04
       216  22 -1.754610E+03  1.371699E+05  1.228450E+04 -1.535509E+04  1.832449E+03  7.805255E+03
       216  23 -9.493874E+02  1.321168E+05  1.955580E+04 -9.807084E+03  2.623116E+03  1.818418E+04
       216  24  3.488232E+04  1.371668E+05  4.233914E+04 -1.534683E+04  9.451853E+02  2.856238E+04
       216  25  7.612518E+03  1.754610E+05  2.085159E+04 -1.025760E+04  1.832945E+03  6.102147E+03
       216  26  1.451864E+04  1.951372E+05  3.387157E+04 -1.517908E+04  2.622848E+03  1.855605E+04
       216  27  5.680959E+04  2.252757E+05  6.384290E+04 -3.118861E+04  9.438455E+02  3.100974E+04
       217   1  2.943315E+04  4.225461E+03 -1.562030E+02  1.102580E+04 -6.555806E+02 -2.484196E+02
       217   2  2.970917E+04  5.091924E+03  4.571142E+02  1.073143E+04 -4.209282E+02 -1.648321E+02
       217   3  2.951377E+04  4.953899E+03  6.090132E+02  1.076806E+04 -1.882904E+02 -7.588152E+01
       217   4  2.623366E+04  3.029011E+03 -1.035333E+03  1.016768E+04 -6.557261E+02 -2.484742E+02
       217   5  2.651999E+04  3.890790E+03 -4.208271E+02  9.867272E+03 -4.209543E+02 -1.648419E+02
       217   6  2.633488E+04  3.748060E+03 -2.678356E+02  9.897875E+03 -1.881971E+02 -7.584649E+01
       217   7  2.303417E+04  1.832562E+03 -1.914464E+03  9.309558E+03 -6.558716E+02 -2.485288E+02
       217   8  2.333082E+04  2.689657E+03 -1.298769E+03  9.003117E+03 -4.209804E+02 -1.648517E+02
       217   9  2.315599E+04  2.542221E+03 -1.144685E+03  9.027693E+03 -1.881037E+02 -7.581146E+01
       217  10  2.943315E+04  4.225461E+03 -1.562036E+02  1.102580E+04 -2.426941E-06 -1.717723E-06
       217  11  2.970917E+04  5.091924E+03  4.571152E+02  1.073142E+04 -1.141113E-05 -7.627115E-06
       217  12  2.951378E+04  4.953900E+03  6.090155E+02  1.076805E+04 -2.077397E-05 -1.331766E-05
       217  13  2.623366E+04  3.029011E+03 -1.035334E+03  1.016768E+04 -7.526776E-06 -1.975084E-06
       217  14  2.651999E+04  3.890790E+03 -4.208275E+02  9.867271E+03 -3.339627E-05 -8.760745E-06
       217  15  2.633488E+04  3.748060E+03 -2.678357E+02  9.897875E+03 -5.926505E-05 -1.554057E-05
       217  16  2.303417E+04  1.832561E+03 -1.914465E+03  9.309559E+03 -2.921960E-06 -1.652735E-06
       217  17  2.333081E+04  2.689656E+03 -1.298771E+03  9.003123E+03 -1.232563E-05 -7.319940E-06
       217  18  2.315598E+04  2.542220E+03 -1.144688E+03  9.027704E+03 -2.135283E-05 -1.319464E-05
       217  19  2.943316E+04  4.225462E+03 -1.562024E+02  1.102580E+04  6.555806E+02  2.484196E+02
       217  20  2.970918E+04  5.091925E+03  4.571170E+02  1.073142E+04  4.209281E+02  1.648321E+02
       217  21  2.951379E+04  4.953901E+03  6.090180E+02  1.076804E+04  1.882904E+02  7.588149E+01
       217  22  2.623366E+04  3.029011E+03 -1.035333E+03  1.016768E+04  6.557261E+02  2.484742E+02
       217  23  2.651999E+04  3.890790E+03 -4.208272E+02  9.867271E+03  4.209542E+02  1.648419E+02
       217  24  2.633488E+04  3.748060E+03 -2.678357E+02  9.897875E+03  1.881970E+02  7.584646E+01
       217  25  2.303417E+04  1.832561E+03 -1.914465E+03  9.309561E+03  6.558716E+02  2.485288E+02
       217  26  2.333081E+04  2.689656E+03 -1.298772E+03  9.003130E+03  4.209803E+02  1.648517E+02
       217  27  2.315597E+04  2.542219E+03 -1.144690E+03  9.027715E+03  1.881037E+02  7.581144E+01
       218   1  2.830223E+04  4.347452E+03  3.102503E+02  1.048523E+04 -1.475938E+02 -5.908102E+01
       218   2  2.835601E+04  4.470900E+03  4.331954E+02  1.042510E+04 -9.545047E+01 -3.946961E+01
       218   3  2.831110E+04  4.460551E+03  4.724566E+02  1.044366E+04 -4.350211E+01 -1.933601E+01
       218   4  2.637252E+04  3.620579E+03 -2.209997E+02  9.962251E+03 -1.475985E+02 -5.908279E+01
       218   5  2.642983E+04  3.744006E+03 -9.735478E+01  9.901692E+03 -9.544365E+01 -3.946704E+01
       218   6  2.638844E+04  3.733631E+03 -5.740306E+01  9.919817E+03 -4.348373E+01 -1.932910E+01
       218   7  2.444281E+04  2.893706E+03 -7.522501E+02  9.439278E+03 -1.476032E+02 -5.908457E+01
       218   8  2.450364E+04  3.017111E+03 -6.279053E+02  9.378286E+03 -9.543677E+01 -3.946447E+01
       218   9  2.446578E+04  3.006712E+03 -5.872630E+02  9.395979E+03 -4.346528E+01 -1.932219E+01
       218  10  2.830224E+04  4.347453E+03  3.102529E+02  1.048521E+04 -2.314513E-05 -1.450490E-05
       218  11  2.835602E+04  4.470901E+03  4.331976E+02  1.042509E+04 -2.108046E-05 -1.287143E-05
       218  12  2.831111E+04  4.460551E+03  4.724585E+02  1.044365E+04 -1.889804E-05 -1.128854E-05
       218  13  2.637252E+04  3.620579E+03 -2.209997E+02  9.962251E+03 -6.493743E-05 -1.710134E-05
       218  14  2.642983E+04  3.744006E+03 -9.735479E+01  9.901692E+03 -5.856333E-05 -1.568266E-05
       218  15  2.638844E+04  3.733631E+03 -5.740306E+01  9.919817E+03 -5.219040E-05 -1.425866E-05
       218  16  2.444280E+04  2.893705E+03 -7.522528E+02  9.439290E+03 -2.307097E-05 -1.445357E-05
       218  17  2.450363E+04  3.017110E+03 -6.279076E+02  9.378297E+03 -2.079379E-05 -1.292779E-05
       218  18  2.446577E+04  3.006712E+03 -5.872650E+02  9.395988E+03 -1.864161E-05 -1.133949E-05
       218  19  2.830225E+04  4.347454E+03  3.102556E+02  1.048520E+04  1.475937E+02  5.908099E+01
       218  20  2.835603E+04  4.470902E+03  4.331999E+02  1.042508E+04  9.545042E+01  3.946959E+01
       218  21  2.831112E+04  4.460551E+03  4.724604E+02  1.044364E+04  4.350207E+01  1.933599E+01
       218  22  2.637252E+04  3.620579E+03 -2.209997E+02  9.962251E+03  1.475984E+02  5.908276E+01
       218  23  2.642983E+04  3.744006E+03 -9.735476E+01  9.901692E+03  9.544354E+01  3.946701E+01
       218  24  2.638844E+04  3.733631E+03 -5.740304E+01  9.919817E+03  4.348362E+01  1.932907E+01
       218  25  2.444279E+04  2.893704E+03 -7.522553E+02  9.439302E+03  1.476032E+02  5.908454E+01
       218  26  2.450362E+04  3.017110E+03 -6.279098E+02  9.378308E+03  9.543673E+01  3.946445E+01
       218  27  2.446576E+04  3.006711E+03 -5.872669E+02  9.395998E+03  4.346524E+01  1.932216E+01
       219   1  2.749964E+04  4.128278E+03  2.590924E+02  1.022812E+04 -3.508802E+01 -1.570047E+01
       219   2  2.751478E+04  4.138565E+03  2.866077E+02  1.020893E+04 -2.633743E+01 -1.188893E+01
       219   3  2.749851E+04  4.146312E+03  3.009688E+02  1.022033E+04 -1.753775E+01 -8.208057E+00
       219   4  2.639621E+04  3.711851E+03 -4.483396E+01  9.928256E+03 -3.507617E+01 -1.569601E+01
       219   5  2.641327E+04  3.722654E+03 -1.684146E+01  9.909379E+03 -2.632853E+01 -1.188558E+01
       219   6  2.639890E+04  3.730920E+03 -2.000978E+00  9.921096E+03 -1.753179E+01 -8.205814E+00
       219   7  2.529279E+04  3.295423E+03 -3.487604E+02  9.628396E+03 -3.506425E+01 -1.569154E+01
       219   8  2.531175E+04  3.306744E+03 -3.202908E+02  9.609831E+03 -2.631957E+01 -1.188222E+01
       219   9  2.529929E+04  3.315528E+03 -3.049709E+02  9.621860E+03 -1.752579E+01 -8.203565E+00
       219  10  2.749964E+04  4.128278E+03  2.590941E+02  1.022811E+04 -1.739179E-05 -1.026965E-05
       219  11  2.751479E+04  4.138564E+03  2.866091E+02  1.020892E+04 -1.444360E-05 -8.328610E-06
       219  12  2.749852E+04  4.146312E+03  3.009697E+02  1.022033E+04 -1.145603E-05 -6.406504E-06
       219  13  2.639621E+04  3.711851E+03 -4.483395E+01  9.928256E+03 -4.788393E-05 -1.321784E-05
       219  14  2.641327E+04  3.722654E+03 -1.684145E+01  9.909379E+03 -3.945532E-05 -1.106571E-05
       219  15  2.639890E+04  3.730920E+03 -2.000966E+00  9.921096E+03 -3.102600E-05 -8.913383E-06
       219  16  2.529278E+04  3.295423E+03 -3.487621E+02  9.628405E+03 -1.715727E-05 -1.031423E-05
       219  17  2.531174E+04  3.306744E+03 -3.202921E+02  9.609838E+03 -1.416165E-05 -8.406468E-06
       219  18  2.529928E+04  3.315528E+03 -3.049719E+02  9.621866E+03 -1.120488E-05 -6.477409E-06
       219  19  2.749965E+04  4.128278E+03  2.590958E+02  1.022810E+04  3.508799E+01  1.570045E+01
       219  20  2.751480E+04  4.138564E+03  2.866104E+02  1.020891E+04  2.633740E+01  1.188891E+01
       219  21  2.749852E+04  4.146311E+03  3.009707E+02  1.022032E+04  1.753773E+01  8.208044E+00
       219  22  2.639621E+04  3.711851E+03 -4.483393E+01  9.928256E+03  3.507607E+01  1.569598E+01
       219  23  2.641327E+04  3.722654E+03 -1.684144E+01  9.909379E+03  2.632845E+01  1.188556E+01
       219  24  2.639890E+04  3.730920E+03 -2.000953E+00  9.921096E+03  1.753173E+01  8.205796E+00
       219  25  2.529277E+04  3.295423E+03 -3.487638E+02  9.628414E+03  3.506421E+01  1.569152E+01
       219  26  2.531174E+04  3.306744E+03 -3.202935E+02  9.609846E+03  2.631954E+01  1.188221E+01
       219  27  2.529928E+04  3.315529E+03 -3.049728E+02  9.621872E+03  1.752576E+01  8.203553E+00
       220   1  2.692722E+04  3.923659E+03  1.491302E+02  1.006524E+04 -1.781088E+01 -8.074172E+00
       220   2  2.693223E+04  3.916428E+03  1.655326E+02  1.005473E+04 -2.868111E+01 -1.171059E+01
       220   3  2.692640E+04  3.934547E+03  1.924841E+02  1.005994E+04 -3.950699E+01 -1.546483E+01
       220   4  2.640179E+04  3.725190E+03  4.374670E+00  9.922269E+03 -1.780080E+01 -8.070382E+00
       220   5  2.640805E+04  3.718492E+03  2.112769E+01  9.912166E+03 -2.867366E+01 -1.170779E+01
       220   6  2.640348E+04  3.737145E+03  4.843181E+01  9.917780E+03 -3.950218E+01 -1.546302E+01
       220   7  2.587637E+04  3.526720E+03 -1.403809E+02  9.779301E+03 -1.779068E+01 -8.066588E+00
       220   8  2.588388E+04  3.520556E+03 -1.232773E+02  9.769602E+03 -2.866619E+01 -1.170498E+01
       220   9  2.588056E+04  3.539743E+03 -9.562050E+01  9.775620E+03 -3.949736E+01 -1.546121E+01
       220  10  2.692722E+04  3.923659E+03  1.491310E+02  1.006523E+04 -9.825024E-06 -5.412779E-06
       220  11  2.693223E+04  3.916428E+03  1.655332E+02  1.005473E+04 -7.278608E-06 -3.923119E-06
       220  12  2.692640E+04  3.934547E+03  1.924844E+02  1.005994E+04 -4.727748E-06 -2.438561E-06
       220  13  2.640179E+04  3.725190E+03  4.374680E+00  9.922269E+03 -2.653269E-05 -7.715656E-06
       220  14  2.640805E+04  3.718492E+03  2.112770E+01  9.912166E+03 -1.952094E-05 -5.746129E-06
       220  15  2.640348E+04  3.737145E+03  4.843182E+01  9.917780E+03 -1.250869E-05 -3.780700E-06
       220  16  2.587636E+04  3.526721E+03 -1.403817E+02  9.779306E+03 -9.626854E-06 -5.485298E-06
       220  17  2.588388E+04  3.520557E+03 -1.232778E+02  9.769605E+03 -7.089088E-06 -4.000166E-06
       220  18  2.588055E+04  3.539743E+03 -9.562083E+01  9.775622E+03 -4.555269E-06 -2.513335E-06
       220  19  2.692723E+04  3.923658E+03  1.491318E+02  1.006523E+04  1.781086E+01  8.074161E+00
       220  20  2.693223E+04  3.916427E+03  1.655338E+02  1.005472E+04  2.868109E+01  1.171058E+01
       220  21  2.692641E+04  3.934546E+03  1.924848E+02  1.005994E+04  3.950698E+01  1.546483E+01
       220  22  2.640179E+04  3.725190E+03  4.374690E+00  9.922269E+03  1.780074E+01  8.070367E+00
       220  23  2.640805E+04  3.718492E+03  2.112771E+01  9.912166E+03  2.867362E+01  1.170778E+01
       220  24  2.640348E+04  3.737145E+03  4.843183E+01  9.917780E+03  3.950216E+01  1.546302E+01
       220  25  2.587636E+04  3.526721E+03 -1.403825E+02  9.779310E+03  1.779066E+01  8.066577E+00
       220  26  2.588387E+04  3.520557E+03 -1.232784E+02  9.769609E+03  2.866617E+01  1.170498E+01
       220  27  2.588055E+04  3.539744E+03 -9.562116E+01  9.775625E+03  3.949735E+01  1.546121E+01
       221   1  2.646852E+04  3.749786E+03  8.093984E+01  9.940527E+03 -4.896822E+01 -1.884246E+01
       221   2  2.645861E+04  3.727979E+03  1.305648E+02  9.931006E+03 -1.078486E+02 -4.059881E+01
       221   3  2.647573E+04  3.808408E+03  2.479419E+02  9.916155E+03 -1.667174E+02 -6.238945E+01
       221   4  2.640797E+04  3.726422E+03  6.416401E+01  9.923545E+03 -4.896091E+01 -1.883971E+01
       221   5  2.639871E+04  3.705509E+03  1.140937E+02  9.914868E+03 -1.078421E+02 -4.059634E+01
       221   6  2.641649E+04  3.786832E+03  2.317762E+02  9.900861E+03 -1.667115E+02 -6.238727E+01
       221   7  2.634742E+04  3.703058E+03  4.738818E+01  9.906562E+03 -4.895358E+01 -1.883696E+01
       221   8  2.633882E+04  3.683039E+03  9.762259E+01  9.898729E+03 -1.078355E+02 -4.059388E+01
       221   9  2.635725E+04  3.765257E+03  2.156104E+02  9.885566E+03 -1.667057E+02 -6.238508E+01
       221  10  2.646853E+04  3.749785E+03  8.094005E+01  9.940526E+03 -3.302043E-06 -1.661066E-06
       221  11  2.645861E+04  3.727979E+03  1.305649E+02  9.931006E+03 -9.913053E-07 -4.855583E-07
       221  12  2.647573E+04  3.808408E+03  2.479418E+02  9.916156E+03  1.317107E-06  6.888620E-07
       221  13  2.640797E+04  3.726422E+03  6.416401E+01  9.923545E+03 -8.682440E-06 -2.650378E-06
       221  14  2.639871E+04  3.705509E+03  1.140937E+02  9.914868E+03 -2.542962E-06 -7.333527E-07
       221  15  2.641649E+04  3.786832E+03  2.317761E+02  9.900861E+03  3.597205E-06  1.182733E-06
       221  16  2.634742E+04  3.703058E+03  4.738795E+01  9.906564E+03 -3.161521E-06 -1.742351E-06
       221  17  2.633882E+04  3.683039E+03  9.762248E+01  9.898730E+03 -8.671120E-07 -5.669106E-07
       221  18  2.635725E+04  3.765256E+03  2.156104E+02  9.885565E+03  1.428754E-06  6.083601E-07
       221  19  2.646853E+04  3.749785E+03  8.094027E+01  9.940524E+03  4.896822E+01  1.884245E+01
       221  20  2.645861E+04  3.727979E+03  1.305650E+02  9.931005E+03  1.078486E+02  4.059881E+01
       221  21  2.647573E+04  3.808408E+03  2.479418E+02  9.916156E+03  1.667174E+02  6.238945E+01
       221  22  2.640797E+04  3.726422E+03  6.416403E+01  9.923545E+03  4.896089E+01  1.883970E+01
       221  23  2.639871E+04  3.705509E+03  1.140937E+02  9.914868E+03  1.078421E+02  4.059634E+01
       221  24  2.641649E+04  3.786832E+03  2.317762E+02  9.900861E+03  1.667115E+02  6.238727E+01
       221  25  2.634742E+04  3.703058E+03  4.738774E+01  9.906565E+03  4.895358E+01  1.883696E+01
       221  26  2.633882E+04  3.683039E+03  9.762243E+01  9.898730E+03  1.078355E+02  4.059388E+01
       221  27  2.635725E+04  3.765256E+03  2.156105E+02  9.885565E+03  1.667057E+02  6.238509E+01
       222   1  2.605051E+04  3.579013E+03  1.891750E+02  9.836961E+03 -2.108729E+02 -7.879187E+01
       222   2  2.596303E+04  3.475618E+03  3.947849E+02  9.822343E+03 -4.733332E+02 -1.770139E+02
       222   3  2.610890E+04  3.958601E+03  9.513934E+02  9.683763E+03 -7.357979E+02 -2.752281E+02
       222   4  2.643806E+04  3.722230E+03  2.953208E+02  9.939151E+03 -2.108666E+02 -7.878953E+01
       222   5  2.634865E+04  3.622477E+03  5.012686E+02  9.928501E+03 -4.733269E+02 -1.770116E+02
       222   6  2.649260E+04  4.109102E+03  1.058215E+03  9.793889E+03 -7.357916E+02 -2.752257E+02
       222   7  2.682562E+04  3.865448E+03  4.014666E+02  1.004134E+04 -2.108604E+02 -7.878718E+01
       222   8  2.673428E+04  3.769337E+03  6.077524E+02  1.003466E+04 -4.733206E+02 -1.770092E+02
       222   9  2.687629E+04  4.259603E+03  1.165036E+03  9.904016E+03 -7.357853E+02 -2.752234E+02
       222  10  2.605051E+04  3.579013E+03  1.891748E+02  9.836962E+03  2.672071E-06  1.333993E-06
       222  11  2.596303E+04  3.475619E+03  3.947842E+02  9.822345E+03  4.998186E-06  2.348710E-06
       222  12  2.610890E+04  3.958602E+03  9.513920E+02  9.683766E+03  7.328544E-06  3.348469E-06
       222  13  2.643806E+04  3.722230E+03  2.953207E+02  9.939151E+03  7.121847E-06  2.342145E-06
       222  14  2.634865E+04  3.622477E+03  5.012682E+02  9.928501E+03  1.309490E-05  4.409748E-06
       222  15  2.649259E+04  4.109101E+03  1.058214E+03  9.793889E+03  1.906896E-05  6.476812E-06
       222  16  2.682562E+04  3.865447E+03  4.014666E+02  1.004134E+04  2.762524E-06  1.237814E-06
       222  17  2.673428E+04  3.769335E+03  6.077521E+02  1.003466E+04  5.077985E-06  2.245537E-06
       222  18  2.687629E+04  4.259601E+03  1.165036E+03  9.904012E+03  7.388479E-06  3.269113E-06
       222  19  2.605051E+04  3.579014E+03  1.891748E+02  9.836964E+03  2.108729E+02  7.879187E+01
       222  20  2.596303E+04  3.475620E+03  3.947845E+02  9.822347E+03  4.733332E+02  1.770139E+02
       222  21  2.610890E+04  3.958604E+03  9.513929E+02  9.683770E+03  7.357979E+02  2.752281E+02
       222  22  2.643806E+04  3.722230E+03  2.953208E+02  9.939151E+03  2.108667E+02  7.878953E+01
       222  23  2.634865E+04  3.622477E+03  5.012686E+02  9.928501E+03  4.733269E+02  1.770116E+02
       222  24  2.649260E+04  4.109102E+03  1.058215E+03  9.793889E+03  7.357916E+02  2.752258E+02
       222  25  2.682562E+04  3.865447E+03  4.014668E+02  1.004134E+04  2.108604E+02  7.878719E+01
       222  26  2.673428E+04  3.769334E+03  6.077527E+02  1.003465E+04  4.733206E+02  1.770092E+02
       222  27  2.687630E+04  4.259599E+03  1.165037E+03  9.904009E+03  7.357853E+02  2.752234E+02
       223   1  2.568651E+04  3.356411E+03  1.065914E+03  9.801372E+03 -9.352514E+02 -3.498237E+02
       223   2  2.513001E+04  2.742505E+03  1.911880E+03  9.764976E+03 -2.095438E+03 -7.849742E+02
       223   3  2.607425E+04  5.791158E+03  4.617592E+03  8.822596E+03 -3.255513E+03 -1.220397E+03
       223   4  2.661862E+04  3.688667E+03  1.318762E+03  1.003461E+04 -9.352403E+02 -3.498194E+02
       223   5  2.604285E+04  3.096210E+03  2.165156E+03  1.002250E+04 -2.095435E+03 -7.849730E+02
       223   6  2.696780E+04  6.166311E+03  4.871300E+03  9.104412E+03 -3.255517E+03 -1.220399E+03
       223   7  2.755074E+04  4.020922E+03  1.571610E+03  1.026785E+04 -9.352292E+02 -3.498152E+02
       223   8  2.695568E+04  3.449915E+03  2.418432E+03  1.028003E+04 -2.095432E+03 -7.849719E+02
       223   9  2.786136E+04  6.541464E+03  5.125009E+03  9.386229E+03 -3.255522E+03 -1.220401E+03
       223  10  2.568650E+04  3.356413E+03  1.065912E+03  9.801376E+03  8.533436E-06  3.834565E-06
       223  11  2.513000E+04  2.742506E+03  1.911870E+03  9.764979E+03  1.031978E-05  4.473697E-06
       223  12  2.607423E+04  5.791156E+03  4.617569E+03  8.822598E+03  1.212159E-05  5.061059E-06
       223  13  2.661862E+04  3.688666E+03  1.318761E+03  1.003461E+04  2.209149E-05  7.572835E-06
       223  14  2.604284E+04  3.096208E+03  2.165147E+03  1.002250E+04  2.650104E-05  9.272509E-06
       223  15  2.696779E+04  6.166306E+03  4.871278E+03  9.104409E+03  3.091307E-05  1.097265E-05
       223  16  2.755074E+04  4.020920E+03  1.571609E+03  1.026785E+04  8.570011E-06  3.740823E-06
       223  17  2.695568E+04  3.449911E+03  2.418423E+03  1.028003E+04  1.034520E-05  4.370457E-06
       223  18  2.786135E+04  6.541456E+03  5.124987E+03  9.386220E+03  1.210866E-05  5.048877E-06
       223  19  2.568650E+04  3.356415E+03  1.065914E+03  9.801379E+03  9.352514E+02  3.498237E+02
       223  20  2.513000E+04  2.742510E+03  1.911879E+03  9.764984E+03  2.095438E+03  7.849742E+02
       223  21  2.607424E+04  5.791164E+03  4.617591E+03  8.822606E+03  3.255513E+03  1.220397E+03
       223  22  2.661862E+04  3.688667E+03  1.318762E+03  1.003461E+04  9.352404E+02  3.498195E+02
       223  23  2.604285E+04  3.096210E+03  2.165156E+03  1.002250E+04  2.095435E+03  7.849730E+02
       223  24  2.696780E+04  6.166311E+03  4.871300E+03  9.104412E+03  3.255517E+03  1.220399E+03
       223  25  2.755074E+04  4.020918E+03  1.571611E+03  1.026785E+04  9.352293E+02  3.498153E+02
       223  26  2.695569E+04  3.449910E+03  2.418433E+03  1.028002E+04  2.095432E+03  7.849719E+02
       223  27  2.786137E+04  6.541457E+03  5.125009E+03  9.386219E+03  3.255522E+03  1.220401E+03
       224   1  2.596864E+04  2.918560E+03  5.440935E+03  1.027315E+04 -4.162205E+03 -1.559911E+03
       224   2  2.253982E+04 -9.110451E+02  8.783164E+03  1.014654E+04 -9.287239E+03 -3.482752E+03
       224   3  2.846024E+04  1.844479E+04  2.228612E+04  4.031954E+03 -1.441141E+04 -5.408167E+03
       224   4  2.771859E+04  3.455157E+03  5.898194E+03  1.062141E+04 -4.162161E+03 -1.559893E+03
       224   5  2.415687E+04 -2.382422E+02  9.241072E+03  1.065027E+04 -9.287266E+03 -3.482764E+03
       224   6  2.994439E+04  1.925378E+04  2.274471E+04  4.691154E+03 -1.441150E+04 -5.408209E+03
       224   7  2.946854E+04  3.991754E+03  6.355452E+03  1.096968E+04 -4.162118E+03 -1.559876E+03
       224   8  2.577393E+04  4.345610E+02  9.698980E+03  1.115400E+04 -9.287292E+03 -3.482775E+03
       224   9  3.142853E+04  2.006277E+04  2.320331E+04  5.350356E+03 -1.441160E+04 -5.408252E+03
       224  10  2.596862E+04  2.918556E+03  5.440898E+03  1.027315E+04  1.125761E-05  4.585621E-06
       224  11  2.253972E+04 -9.110795E+02  8.782979E+03  1.014652E+04  6.399126E-06  2.486506E-06
       224  12  2.846001E+04  1.844470E+04  2.228568E+04  4.031892E+03  1.461710E-06  5.401057E-07
       224  13  2.771857E+04  3.455150E+03  5.898156E+03  1.062141E+04  2.856784E-05  1.017278E-05
       224  14  2.415678E+04 -2.382784E+02  9.240887E+03  1.065024E+04  1.609962E-05  5.732507E-06
       224  15  2.994416E+04  1.925369E+04  2.274427E+04  4.691091E+03  3.628465E-06  1.291967E-06
       224  16  2.946853E+04  3.991743E+03  6.355415E+03  1.096967E+04  1.116256E-05  4.710072E-06
       224  17  2.577383E+04  4.345231E+02  9.698795E+03  1.115397E+04  6.235343E-06  2.750121E-06
       224  18  3.142830E+04  2.006268E+04  2.320286E+04  5.350292E+03  1.387010E-06  6.390458E-07
       224  19  2.596863E+04  2.918567E+03  5.440935E+03  1.027316E+04  4.162205E+03  1.559911E+03
       224  20  2.253981E+04 -9.110415E+02  8.783164E+03  1.014655E+04  9.287239E+03  3.482752E+03
       224  21  2.846024E+04  1.844479E+04  2.228612E+04  4.031956E+03  1.441141E+04  5.408167E+03
       224  22  2.771859E+04  3.455157E+03  5.898193E+03  1.062141E+04  4.162161E+03  1.559893E+03
       224  23  2.415687E+04 -2.382422E+02  9.241072E+03  1.065027E+04  9.287266E+03  3.482764E+03
       224  24  2.994439E+04  1.925378E+04  2.274471E+04  4.691154E+03  1.441150E+04  5.408209E+03
       224  25  2.946855E+04  3.991747E+03  6.355452E+03  1.096967E+04  4.162118E+03  1.559876E+03
       224  26  2.577393E+04  4.345576E+02  9.698980E+03  1.115399E+04  9.287292E+03  3.482775E+03
       224  27  3.142853E+04  2.006277E+04  2.320331E+04  5.350354E+03  1.441160E+04  5.408252E+03
       225   1  1.428807E+04  5.678776E+03  8.634236E+02 -2.211050E+03 -1.347338E+04 -1.077310E+03
       225   2  8.767155E+03  2.349981E+04  1.051044E+04 -4.385001E+00 -9.523907E+03 -3.258710E+03
       225   3 -2.451336E+03  2.058370E+04  1.240287E+04  7.169025E+03 -5.575410E+03 -3.111596E+03
       225   4 -8.178176E+04 -1.824621E+04 -2.271804E+04  4.526851E+03 -1.556034E+04 -1.078259E+03
       225   5 -7.880588E+04  1.872398E+03 -1.006099E+04  2.039605E+03 -1.015861E+04 -3.259039E+03
       225   6 -8.178070E+04  1.000052E+03 -6.167976E+03  4.519180E+03 -4.757783E+03 -3.111220E+03
       225   7 -1.778431E+05 -4.217170E+04 -4.630015E+04  1.126371E+04 -1.764697E+04 -1.079253E+03
       225   8 -1.663718E+05 -1.975554E+04 -3.063295E+04  4.083304E+03 -1.079322E+04 -3.259373E+03
       225   9 -1.611043E+05 -1.858401E+04 -2.473925E+04  1.869676E+03 -3.940260E+03 -3.110850E+03
       225  10  1.428787E+04  5.678726E+03  8.630803E+02 -2.211062E+03 -1.091743E-10  2.493565E-10
       225  11  8.767054E+03  2.349977E+04  1.051025E+04 -4.409995E+00  9.271275E-10  1.494936E-09
       225  12 -2.451372E+03  2.058368E+04  1.240279E+04  7.169011E+03  5.651553E-10  6.367661E-10
       225  13 -8.178202E+04 -1.824627E+04 -2.271850E+04  4.526838E+03  5.945536E-10 -6.730523E-10
       225  14 -7.880599E+04  1.872359E+03 -1.006121E+04  2.039578E+03  2.972130E-10 -1.284227E-09
       225  15 -8.178073E+04  1.000036E+03 -6.168037E+03  4.519168E+03  9.491430E-11 -1.327643E-10
       225  16 -1.778434E+05 -4.217179E+04 -4.630073E+04  1.126369E+04  9.676187E-10 -4.004267E-11
       225  17 -1.663720E+05 -1.975558E+04 -3.063319E+04  4.083276E+03  5.125436E-10  9.628476E-10
       225  18 -1.611043E+05 -1.858403E+04 -2.473929E+04  1.869666E+03  3.488598E-10 -9.646733E-11
       225  19  1.428807E+04  5.678776E+03  8.634236E+02 -2.211050E+03  1.347338E+04  1.077310E+03
       225  20  8.767155E+03  2.349981E+04  1.051044E+04 -4.385001E+00  9.523907E+03  3.258710E+03
       225  21 -2.451336E+03  2.058370E+04  1.240287E+04  7.169025E+03  5.575410E+03  3.111596E+03
       225  22 -8.178176E+04 -1.824621E+04 -2.271804E+04  4.526851E+03  1.556034E+04  1.078259E+03
       225  23 -7.880588E+04  1.872398E+03 -1.006099E+04  2.039605E+03  1.015861E+04  3.259039E+03
       225  24 -8.178070E+04  1.000052E+03 -6.167976E+03  4.519180E+03  4.757783E+03  3.111220E+03
       225  25 -1.778431E+05 -4.217170E+04 -4.630015E+04  1.126371E+04  1.764697E+04  1.079253E+03
       225  26 -1.663718E+05 -1.975554E+04 -3.063295E+04  4.083304E+03  1.079322E+04  3.259373E+03
       225  27 -1.611043E+05 -1.858401E+04 -2.473925E+04  1.869676E+03  3.940260E+03  3.110850E+03
       226   1 -1.033066E+04  1.576379E+04  1.152054E+04  4.053121E+03 -3.929895E+03 -2.588747E+03
       226   2 -1.837939E+04  1.546398E+04  1.192097E+04  1.911681E+03 -2.692102E+03 -2.355731E+03
       226   3 -2.705392E+04  1.331913E+04  1.105359E+04  4.814314E+03 -1.454446E+03 -1.988235E+03
       226   4 -8.060050E+04 -1.593730E+03 -4.996766E+03  4.539253E+03 -3.826539E+03 -2.588720E+03
       226   5 -8.028001E+04  1.794567E+02 -2.598528E+03  2.016774E+03 -2.504968E+03 -2.355651E+03
       226   6 -8.060015E+04  9.292366E+01 -1.526419E+03  4.538410E+03 -1.183521E+03 -1.988098E+03
       226   7 -1.508658E+05 -1.895160E+04 -2.151441E+04  5.025328E+03 -3.723193E+03 -2.588692E+03
       226   8 -1.421771E+05 -1.510533E+04 -1.711829E+04  2.121855E+03 -2.317854E+03 -2.355571E+03
       226   9 -1.341437E+05 -1.313349E+04 -1.410662E+04  4.262530E+03 -9.126197E+02 -1.987961E+03
       226  10 -1.033068E+04  1.576377E+04  1.152050E+04  4.053113E+03 -2.243635E-10 -2.798968E-10
       226  11 -1.837939E+04  1.546397E+04  1.192095E+04  1.911676E+03 -1.823491E-10  8.144229E-10
       226  12 -2.705392E+04  1.331912E+04  1.105358E+04  4.814311E+03  4.752541E-10  9.591371E-10
       226  13 -8.060052E+04 -1.593741E+03 -4.996806E+03  4.539245E+03 -5.664268E-11  1.391262E-09
       226  14 -8.028002E+04  1.794491E+02 -2.598550E+03  2.016769E+03  3.064802E-10 -3.305290E-09
       226  15 -8.060015E+04  9.291904E+01 -1.526429E+03  4.538408E+03  5.428260E-10  1.159213E-09
       226  16 -1.508658E+05 -1.895161E+04 -2.151445E+04  5.025321E+03  4.261504E-10 -9.551590E-10
       226  17 -1.421771E+05 -1.510534E+04 -1.711831E+04  2.121851E+03  1.270358E-10 -6.155275E-10
       226  18 -1.341437E+05 -1.313349E+04 -1.410663E+04  4.262528E+03 -6.439373E-10 -2.791565E-10
       226  19 -1.033066E+04  1.576379E+04  1.152054E+04  4.053121E+03  3.929895E+03  2.588747E+03
       226  20 -1.837939E+04  1.546398E+04  1.192097E+04  1.911681E+03  2.692102E+03  2.355731E+03
       226  21 -2.705392E+04  1.331913E+04  1.105359E+04  4.814314E+03  1.454446E+03  1.988235E+03
       226  22 -8.060050E+04 -1.593730E+03 -4.996766E+03  4.539253E+03  3.826539E+03  2.588720E+03
       226  23 -8.028001E+04  1.794567E+02 -2.598528E+03  2.016774E+03  2.504968E+03  2.355651E+03
       226  24 -8.060015E+04  9.292366E+01 -1.526419E+03  4.538410E+03  1.183521E+03  1.988098E+03
       226  25 -1.508658E+05 -1.895160E+04 -2.151441E+04  5.025328E+03  3.723193E+03  2.588692E+03
       226  26 -1.421771E+05 -1.510533E+04 -1.711829E+04  2.121855E+03  2.317854E+03  2.355571E+03
       226  27 -1.341437E+05 -1.313349E+04 -1.410662E+04  4.262530E+03  9.126197E+02  1.987961E+03
       227   1 -3.598384E+04  1.085115E+04  9.228304E+03  4.536899E+03 -1.174658E+03 -1.749250E+03
       227   2 -4.431125E+04  8.940005E+03  7.814325E+03  2.031059E+03 -8.516390E+02 -1.376871E+03
       227   3 -5.272666E+04  6.870343E+03  6.149007E+03  4.581257E+03 -5.286487E+02 -9.966080E+02
       227   4 -8.047730E+04 -1.308263E+02 -1.185397E+03  4.541373E+03 -9.448339E+02 -1.749130E+03
       227   5 -8.043282E+04  2.081847E+01 -6.575303E+02  2.013304E+03 -6.169176E+02 -1.376741E+03
       227   6 -8.047713E+04  1.311886E+01 -3.843833E+02  4.541291E+03 -2.890252E+02 -9.964684E+02
       227   7 -1.249689E+05 -1.111294E+04 -1.159923E+04  4.545846E+03 -7.150265E+02 -1.749010E+03
       227   8 -1.165532E+05 -8.898461E+03 -9.129474E+03  1.995550E+03 -3.822097E+02 -1.376612E+03
       227   9 -1.082269E+05 -6.844160E+03 -6.917826E+03  4.501327E+03 -4.941230E+01 -9.963289E+02
       227  10 -3.598384E+04  1.085114E+04  9.228296E+03  4.536898E+03  1.203552E-09 -1.281701E-09
       227  11 -4.431125E+04  8.940003E+03  7.814320E+03  2.031058E+03  2.094801E-10 -1.702142E-09
       227  12 -5.272666E+04  6.870342E+03  6.149005E+03  4.581256E+03 -4.221078E-10 -4.714305E-10
       227  13 -8.047730E+04 -1.308298E+02 -1.185404E+03  4.541372E+03  1.455322E-12 -4.648197E-10
       227  14 -8.043282E+04  2.081633E+01 -6.575346E+02  2.013303E+03 -3.915924E-10 -9.774162E-10
       227  15 -8.047714E+04  1.311777E+01 -3.843853E+02  4.541291E+03 -2.320046E-10 -2.614121E-10
       227  16 -1.249689E+05 -1.111294E+04 -1.159924E+04  4.545845E+03 -7.948564E-10 -1.491832E-09
       227  17 -1.165532E+05 -8.898463E+03 -9.129478E+03  1.995549E+03  3.283142E-11  7.562698E-10
       227  18 -1.082269E+05 -6.844161E+03 -6.917828E+03  4.501327E+03  2.778816E-10  2.199085E-09
       227  19 -3.598384E+04  1.085115E+04  9.228304E+03  4.536899E+03  1.174658E+03  1.749250E+03
       227  20 -4.431125E+04  8.940005E+03  7.814325E+03  2.031059E+03  8.516390E+02  1.376871E+03
       227  21 -5.272666E+04  6.870343E+03  6.149007E+03  4.581257E+03  5.286487E+02  9.966080E+02
       227  22 -8.047730E+04 -1.308263E+02 -1.185397E+03  4.541373E+03  9.448339E+02  1.749130E+03
       227  23 -8.043282E+04  2.081847E+01 -6.575303E+02  2.013304E+03  6.169176E+02  1.376741E+03
       227  24 -8.047713E+04  1.311886E+01 -3.843833E+02  4.541291E+03  2.890252E+02  9.964684E+02
       227  25 -1.249689E+05 -1.111294E+04 -1.159923E+04  4.545846E+03  7.150265E+02  1.749010E+03
       227  26 -1.165532E+05 -8.898461E+03 -9.129474E+03  1.995550E+03  3.822097E+02  1.376612E+03
       227  27 -1.082269E+05 -6.844160E+03 -6.917826E+03  4.501327E+03  4.941230E+01  9.963289E+02
       228   1 -6.177241E+04  4.604879E+03  4.061392E+03  4.553741E+03 -4.652723E+02 -7.738416E+02
       228   2 -7.013885E+04  2.551385E+03  2.240953E+03  2.020261E+03 -3.776966E+02 -3.932476E+02
       228   3 -7.852638E+04  4.889791E+02  3.596136E+02  4.546079E+03 -2.901293E+02 -1.219490E+01
       228   4 -8.046200E+04 -5.045302E+00 -2.971175E+02  4.542042E+03 -2.279731E+02 -7.737005E+02
       228   5 -8.045138E+04  4.961942E+00 -1.777321E+02  2.012387E+03 -1.401151E+02 -3.931045E+02
       228   6 -8.046196E+04  6.012511E+00 -1.194430E+02  4.542035E+03 -5.226431E+01 -1.204949E+01
       228   7 -9.915128E+04 -4.614995E+03 -4.655650E+03  4.530344E+03  9.318980E+00 -7.735594E+02
       228   8 -9.076381E+04 -2.541469E+03 -2.596425E+03  2.004514E+03  9.746253E+01 -3.929614E+02
       228   9 -8.239753E+04 -4.769543E+02 -5.984997E+02  4.537992E+03  1.856000E+02 -1.190407E+01
       228  10 -6.177241E+04  4.604879E+03  4.061390E+03  4.553741E+03  2.169484E-09 -1.130055E-09
       228  11 -7.013885E+04  2.551385E+03  2.240953E+03  2.020261E+03  2.869685E-10  1.913449E-10
       228  12 -7.852638E+04  4.889790E+02  3.596134E+02  4.546079E+03 -2.252084E-09 -7.186686E-12
       228  13 -8.046200E+04 -5.045959E+00 -2.971187E+02  4.542042E+03 -5.409237E-10  5.944228E-10
       228  14 -8.045138E+04  4.961771E+00 -1.777324E+02  2.012387E+03 -1.020666E-10 -1.676885E-09
       228  15 -8.046196E+04  6.012510E+00 -1.194431E+02  4.542035E+03 -7.068442E-10 -1.344733E-09
       228  16 -9.915128E+04 -4.614995E+03 -4.655651E+03  4.530344E+03 -1.765776E-09  1.019113E-09
       228  17 -9.076381E+04 -2.541469E+03 -2.596425E+03  2.004514E+03 -1.171971E-10  7.179507E-10
       228  18 -8.239753E+04 -4.769543E+02 -5.984998E+02  4.537992E+03  1.686983E-09 -9.196607E-11
       228  19 -6.177241E+04  4.604879E+03  4.061392E+03  4.553741E+03  4.652723E+02  7.738416E+02
       228  20 -7.013885E+04  2.551385E+03  2.240953E+03  2.020261E+03  3.776966E+02  3.932476E+02
       228  21 -7.852638E+04  4.889791E+02  3.596136E+02  4.546079E+03  2.901293E+02  1.219490E+01
       228  22 -8.046200E+04 -5.045302E+00 -2.971175E+02  4.542042E+03  2.279731E+02  7.737005E+02
       228  23 -8.045138E+04  4.961942E+00 -1.777321E+02  2.012387E+03  1.401151E+02  3.931045E+02
       228  24 -8.046196E+04  6.012511E+00 -1.194430E+02  4.542035E+03  5.226431E+01  1.204949E+01
       228  25 -9.915128E+04 -4.614995E+03 -4.655650E+03  4.530344E+03 -9.318980E+00  7.735594E+02
       228  26 -9.076381E+04 -2.541469E+03 -2.596425E+03  2.004514E+03 -9.746253E+01  3.929614E+02
       228  27 -8.239753E+04 -4.769543E+02 -5.984997E+02  4.537992E+03 -1.856000E+02  1.190407E+01
       229   1 -8.758801E+04 -1.759760E+03 -1.801786E+03  4.539035E+03 -2.699869E+02  2.097315E+02
       229   2 -9.595727E+04 -3.824690E+03 -3.735571E+03  2.005352E+03 -2.207412E+02  5.907450E+02
       229   3 -1.043403E+05 -5.890162E+03 -5.703161E+03  4.530730E+03 -1.714860E+02  9.712525E+02
       229   4 -8.046034E+04  5.273273E+00 -1.049711E+02  4.541982E+03 -3.212018E+01  2.098766E+02
       229   5 -8.045343E+04  3.647691E+00 -9.927235E+01  2.012456E+03  1.680749E+01  5.908868E+02
       229   6 -8.046041E+04  1.509307E+00 -1.271865E+02  4.541984E+03  6.574528E+01  9.713913E+02
       229   7 -7.333262E+04  1.770303E+03  1.591841E+03  4.544928E+03  2.057493E+02  2.100217E+02
       229   8 -6.494938E+04  3.831969E+03  3.537010E+03  2.019560E+03  2.543621E+02  5.910286E+02
       229   9 -5.658002E+04  5.893140E+03  5.448749E+03  4.553238E+03  3.029857E+02  9.715300E+02
       229  10 -8.758801E+04 -1.759760E+03 -1.801786E+03  4.539035E+03 -7.761326E-10 -2.145937E-10
       229  11 -9.595727E+04 -3.824691E+03 -3.735572E+03  2.005352E+03 -2.184690E-10 -1.650510E-09
       229  12 -1.043403E+05 -5.890163E+03 -5.703163E+03  4.530730E+03 -1.306498E-09 -9.676963E-10
       229  13 -8.046034E+04  5.273226E+00 -1.049711E+02  4.541982E+03  4.812109E-10  9.419804E-10
       229  14 -8.045343E+04  3.647316E+00 -9.927301E+01  2.012456E+03  3.791860E-10 -1.625097E-09
       229  15 -8.046041E+04  1.508292E+00 -1.271883E+02  4.541984E+03 -5.105068E-11 -1.207845E-09
       229  16 -7.333262E+04  1.770302E+03  1.591840E+03  4.544928E+03  4.258414E-10 -2.425822E-10
       229  17 -6.494938E+04  3.831968E+03  3.537009E+03  2.019560E+03  8.353991E-10 -2.796126E-09
       229  18 -5.658002E+04  5.893139E+03  5.448747E+03  4.553238E+03  1.130135E-09 -1.491517E-09
       229  19 -8.758801E+04 -1.759760E+03 -1.801786E+03  4.539035E+03  2.699869E+02 -2.097315E+02
       229  20 -9.595727E+04 -3.824690E+03 -3.735571E+03  2.005352E+03  2.207412E+02 -5.907450E+02
       229  21 -1.043403E+05 -5.890162E+03 -5.703161E+03  4.530730E+03  1.714860E+02 -9.712525E+02
       229  22 -8.046034E+04  5.273273E+00 -1.049711E+02  4.541982E+03  3.212018E+01 -2.098766E+02
       229  23 -8.045343E+04  3.647691E+00 -9.927235E+01  2.012456E+03 -1.680749E+01 -5.908868E+02
       229  24 -8.046041E+04  1.509307E+00 -1.271865E+02  4.541984E+03 -6.574528E+01 -9.713913E+02
       229  25 -7.333262E+04  1.770303E+03  1.591841E+03  4.544928E+03 -2.057493E+02 -2.100217E+02
       229  26 -6.494938E+04  3.831969E+03  3.537010E+03  2.019560E+03 -2.543621E+02 -5.910286E+02
       229  27 -5.658002E+04  5.893140E+03  5.448749E+03  4.553238E+03 -3.029857E+02 -9.715300E+02
       230   1 -1.134042E+05 -8.130541E+03 -7.904151E+03  4.516784E+03 -1.488170E+02  1.194021E+03
       230   2 -1.217555E+05 -1.019147E+04 -9.934084E+03  1.995879E+03 -2.144305E+01  1.574078E+03
       230   3 -1.301429E+05 -1.230714E+04 -1.206197E+04  4.528987E+03  1.059636E+02  1.945836E+03
       230   4 -8.046528E+04  8.099203E+00 -1.536156E+02  4.540849E+03  9.084995E+01  1.194157E+03
       230   5 -8.044776E+04  8.761777E+00 -2.454413E+02  2.013867E+03  2.130529E+02  1.574204E+03
       230   6 -8.046545E+04 -4.438405E+01 -4.315853E+02  4.540878E+03  3.352901E+02  1.945951E+03
       230   7 -4.752534E+04  8.146662E+03  7.596846E+03  4.564914E+03  3.305295E+02  1.194294E+03
       230   8 -3.913847E+04  1.020887E+04  9.443085E+03  2.031856E+03  4.475643E+02  1.574329E+03
       230   9 -3.078572E+04  1.221820E+04  1.119863E+04  4.552769E+03  5.646348E+02  1.946066E+03
       230  10 -1.134042E+05 -8.130542E+03 -7.904154E+03  4.516785E+03 -1.678333E-09 -5.740577E-10
       230  11 -1.217555E+05 -1.019147E+04 -9.934088E+03  1.995879E+03  1.746005E-09 -1.228809E-09
       230  12 -1.301429E+05 -1.230715E+04 -1.206197E+04  4.528987E+03  4.218269E-09  4.871890E-10
       230  13 -8.046528E+04  8.097670E+00 -1.536183E+02  4.540848E+03  9.933881E-13  1.011026E-10
       230  14 -8.044776E+04  8.759104E+00 -2.454460E+02  2.013867E+03 -9.582038E-10 -1.159985E-10
       230  15 -8.046545E+04 -4.438814E+01 -4.315927E+02  4.540877E+03  7.054062E-11  1.423805E-09
       230  16 -4.752534E+04  8.146660E+03  7.596843E+03  4.564914E+03  2.531404E-09  6.424784E-10
       230  17 -3.913847E+04  1.020887E+04  9.443080E+03  2.031855E+03 -2.139430E-09 -7.910677E-10
       230  18 -3.078572E+04  1.221820E+04  1.119862E+04  4.552768E+03 -5.533611E-09  1.142779E-09
       230  19 -1.134042E+05 -8.130541E+03 -7.904151E+03  4.516784E+03  1.488170E+02 -1.194021E+03
       230  20 -1.217555E+05 -1.019147E+04 -9.934084E+03  1.995879E+03  2.144305E+01 -1.574078E+03
       230  21 -1.301429E+05 -1.230714E+04 -1.206197E+04  4.528987E+03 -1.059636E+02 -1.945836E+03
       230  22 -8.046528E+04  8.099203E+00 -1.536156E+02  4.540849E+03 -9.084995E+01 -1.194157E+03
       230  23 -8.044776E+04  8.761777E+00 -2.454413E+02  2.013867E+03 -2.130529E+02 -1.574204E+03
       230  24 -8.046545E+04 -4.438405E+01 -4.315853E+02  4.540878E+03 -3.352901E+02 -1.945951E+03
       230  25 -4.752534E+04  8.146662E+03  7.596846E+03  4.564914E+03 -3.305295E+02 -1.194294E+03
       230  26 -3.913847E+04  1.020887E+04  9.443085E+03  2.031856E+03 -4.475643E+02 -1.574329E+03
       230  27 -3.078572E+04  1.221820E+04  1.119863E+04  4.552769E+03 -5.646348E+02 -1.946066E+03
       231   1 -1.392359E+05 -1.446983E+04 -1.434865E+04  4.423386E+03  1.493723E+02  2.185531E+03
       231   2 -1.474700E+05 -1.649868E+04 -1.667211E+04  2.038653E+03  7.140672E+02  2.551885E+03
       231   3 -1.559507E+05 -1.920871E+04 -1.953424E+04  4.696292E+03  1.278863E+03  2.776883E+03
       231   4 -8.050931E+04  3.623006E+01 -5.529733E+02  4.538180E+03  4.218742E+02  2.185662E+03
       231   5 -8.039375E+04  6.520204E+01 -9.374366E+02  2.017157E+03  8.984254E+02  2.551958E+03
       231   6 -8.050961E+04 -5.716466E+02 -1.799307E+03  4.538473E+03  1.375085E+03  2.776905E+03
       231   7 -2.177952E+04  1.454204E+04  1.324247E+04  4.652985E+03  6.944017E+02  2.185793E+03
       231   8 -1.331338E+04  1.662876E+04  1.479693E+04  1.995658E+03  1.082803E+03  2.552031E+03
       231   9 -5.063263E+03  1.806501E+04  1.593524E+04  4.380635E+03  1.471319E+03  2.776927E+03
       231  10 -1.392359E+05 -1.446983E+04 -1.434866E+04  4.423385E+03 -3.541393E-09  1.380967E-09
       231  11 -1.474700E+05 -1.649869E+04 -1.667213E+04  2.038652E+03 -2.259793E-09  1.683712E-09
       231  12 -1.559507E+05 -1.920872E+04 -1.953426E+04  4.696289E+03  6.721348E-10 -6.892020E-10
       231  13 -8.050931E+04  3.622488E+01 -5.529826E+02  4.538179E+03 -4.758775E-10 -2.274430E-10
       231  14 -8.039375E+04  6.519483E+01 -9.374503E+02  2.017155E+03  5.873474E-10  7.259448E-10
       231  15 -8.050962E+04 -5.716554E+02 -1.799325E+03  4.538470E+03  3.364034E-10  6.910175E-11
       231  16 -2.177952E+04  1.454204E+04  1.324246E+04  4.652984E+03  3.762696E-09 -9.505081E-11
       231  17 -1.331338E+04  1.662876E+04  1.479692E+04  1.995656E+03  2.323460E-09 -1.744589E-09
       231  18 -5.063267E+03  1.806500E+04  1.593522E+04  4.380631E+03 -4.465710E-10 -1.428376E-10
       231  19 -1.392359E+05 -1.446983E+04 -1.434865E+04  4.423386E+03 -1.493723E+02 -2.185531E+03
       231  20 -1.474700E+05 -1.649868E+04 -1.667211E+04  2.038653E+03 -7.140672E+02 -2.551885E+03
       231  21 -1.559507E+05 -1.920871E+04 -1.953424E+04  4.696292E+03 -1.278863E+03 -2.776883E+03
       231  22 -8.050931E+04  3.623006E+01 -5.529733E+02  4.538180E+03 -4.218742E+02 -2.185662E+03
       231  23 -8.039375E+04  6.520204E+01 -9.374366E+02  2.017157E+03 -8.984254E+02 -2.551958E+03
       231  24 -8.050961E+04 -5.716466E+02 -1.799307E+03  4.538473E+03 -1.375085E+03 -2.776905E+03
       231  25 -2.177952E+04  1.454204E+04  1.324247E+04  4.652985E+03 -6.944017E+02 -2.185793E+03
       231  26 -1.331338E+04  1.662876E+04  1.479693E+04  1.995658E+03 -1.082803E+03 -2.552031E+03
       231  27 -5.063263E+03  1.806501E+04  1.593524E+04  4.380635E+03 -1.471319E+03 -2.776927E+03
       232   1 -1.654326E+05 -2.049780E+04 -2.200203E+04  3.547042E+03  8.631973E+02  3.314156E+03
       232   2 -1.725934E+05 -2.223127E+04 -2.540641E+04  2.758867E+03  4.334046E+03  3.449044E+03
       232   3 -1.821586E+05 -3.178002E+04 -3.302441E+04  6.928282E+03  7.805670E+03  1.135955E+03
       232   4 -8.093387E+04  3.616899E+02 -2.220333E+03  4.518655E+03  1.710186E+03  3.314503E+03
       232   5 -7.986461E+04  6.734631E+02 -3.621436E+03  2.041153E+03  3.654089E+03  3.448734E+03
       232   6 -8.093450E+04 -6.564312E+03 -8.175288E+03  4.521250E+03  5.598844E+03  1.135132E+03
       232   7  3.571498E+03  2.122068E+04  1.756088E+04  5.490400E+03  2.557289E+03  3.314852E+03
       232   8  1.287211E+04  2.357759E+04  1.816295E+04  1.323330E+03  2.974032E+03  3.448426E+03
       232   9  2.029898E+04  1.865066E+04  1.667310E+04  2.113824E+03  3.391659E+03  1.134325E+03
       232  10 -1.654326E+05 -2.049781E+04 -2.200205E+04  3.547040E+03  3.884696E-10 -8.787854E-10
       232  11 -1.725934E+05 -2.223129E+04 -2.540647E+04  2.758855E+03 -1.622040E-10  3.798503E-10
       232  12 -1.821587E+05 -3.178004E+04 -3.302453E+04  6.928275E+03  7.607902E-10  1.169656E-09
       232  13 -8.093387E+04  3.616773E+02 -2.220359E+03  4.518650E+03  3.067523E-12 -6.956892E-11
       232  14 -7.986463E+04  6.734468E+02 -3.621483E+03  2.041143E+03 -9.141404E-10  9.851287E-10
       232  15 -8.093454E+04 -6.564321E+03 -8.175350E+03  4.521245E+03 -2.379439E-10  3.236396E-10
       232  16  3.571488E+03  2.122066E+04  1.756084E+04  5.490393E+03 -8.645450E-10 -9.113894E-11
       232  17  1.287210E+04  2.357757E+04  1.816291E+04  1.323322E+03 -1.098495E-09  9.282236E-10
       232  18  2.029897E+04  1.865065E+04  1.667308E+04  2.113821E+03 -1.262649E-09 -1.728204E-10
       232  19 -1.654326E+05 -2.049780E+04 -2.200203E+04  3.547042E+03 -8.631973E+02 -3.314156E+03
       232  20 -1.725934E+05 -2.223127E+04 -2.540641E+04  2.758867E+03 -4.334046E+03 -3.449044E+03
       232  21 -1.821586E+05 -3.178002E+04 -3.302441E+04  6.928282E+03 -7.805670E+03 -1.135955E+03
       232  22 -8.093387E+04  3.616899E+02 -2.220333E+03  4.518655E+03 -1.710186E+03 -3.314503E+03
       232  23 -7.986461E+04  6.734631E+02 -3.621436E+03  2.041153E+03 -3.654089E+03 -3.448734E+03
       232  24 -8.093450E+04 -6.564312E+03 -8.175288E+03  4.521250E+03 -5.598844E+03 -1.135132E+03
       232  25  3.571498E+03  2.122068E+04  1.756088E+04  5.490400E+03 -2.557289E+03 -3.314852E+03
       232  26  1.287211E+04  2.357759E+04  1.816295E+04  1.323330E+03 -2.974032E+03 -3.448426E+03
       232  27  2.029898E+04  1.865066E+04  1.667310E+04  2.113824E+03 -3.391659E+03 -1.134325E+03
       233   1 -6.229178E+04 -2.329256E+05 -6.109516E+04  5.294493E+04 -2.548577E+03 -1.845824E+04
       233   2 -4.195286E+04 -1.796808E+05 -3.817919E+04  4.409141E+04 -7.662085E+03 -7.769496E+03
       233   3 -2.798350E+04 -1.294043E+05 -2.381485E+04  4.772805E+04 -7.098525E+03  2.922341E+03
       233   4 -7.618310E+03 -1.223493E+04 -8.467275E+03  4.833991E+04 -2.551643E+03 -6.252656E+03
       233   5 -1.435256E+03 -1.150362E+04 -3.793671E+03  4.209576E+04 -7.662731E+03 -4.280395E+03
       233   6 -1.071968E+02 -1.222929E+04 -1.616634E+03  4.834184E+04 -7.097362E+03 -2.306116E+03
       233   7  4.705180E+04  2.085008E+05  4.415776E+04  4.373325E+04 -2.554890E+03  5.957244E+03
       233   8  3.908060E+04  1.567005E+05  3.059039E+04  4.009956E+04 -7.663399E+03 -7.903664E+02
       233   9  2.776832E+04  1.049590E+05  2.058108E+04  4.895574E+04 -7.096210E+03 -7.535536E+03
       233  10 -6.229188E+04 -2.329260E+05 -6.109582E+04  5.294489E+04 -7.586377E-10  1.805222E-10
       233  11 -4.195294E+04 -1.796809E+05 -3.817941E+04  4.409137E+04 -8.067688E-10 -3.607102E-10
       233  12 -2.798355E+04 -1.294043E+05 -2.381496E+04  4.772807E+04  1.489983E-10 -5.892948E-10
       233  13 -7.618328E+03 -1.223497E+04 -8.467360E+03  4.833990E+04  1.953252E-10 -2.659870E-10
       233  14 -1.435324E+03 -1.150365E+04 -3.793816E+03  4.209574E+04  4.600681E-10 -4.067459E-10
       233  15 -1.072523E+02 -1.222931E+04 -1.616738E+03  4.834182E+04  3.823175E-10  2.861814E-10
       233  16  4.705178E+04  2.085008E+05  4.415769E+04  4.373326E+04 -8.358886E-11 -5.561950E-10
       233  17  3.908053E+04  1.567005E+05  3.059028E+04  4.009956E+04  7.071376E-10  1.944493E-10
       233  18  2.776825E+04  1.049589E+05  2.058088E+04  4.895570E+04 -1.324978E-10  5.596513E-10
       233  19 -6.229178E+04 -2.329256E+05 -6.109516E+04  5.294493E+04  2.548577E+03  1.845824E+04
       233  20 -4.195286E+04 -1.796808E+05 -3.817919E+04  4.409141E+04  7.662085E+03  7.769496E+03
       233  21 -2.798350E+04 -1.294043E+05 -2.381485E+04  4.772805E+04  7.098525E+03 -2.922341E+03
       233  22 -7.618310E+03 -1.223493E+04 -8.467275E+03  4.833991E+04  2.551643E+03  6.252656E+03
       233  23 -1.435256E+03 -1.150362E+04 -3.793671E+03  4.209576E+04  7.662731E+03  4.280395E+03
       233  24 -1.071968E+02 -1.222929E+04 -1.616634E+03  4.834184E+04  7.097362E+03  2.306116E+03
       233  25  4.705180E+04  2.085008E+05  4.415776E+04  4.373325E+04  2.554890E+03 -5.957244E+03
       233  26  3.908060E+04  1.567005E+05  3.059039E+04  4.009956E+04  7.663399E+03  7.903664E+02
       233  27  2.776832E+04  1.049590E+05  2.058108E+04  4.895574E+04  7.096210E+03  7.535536E+03
       234   1 -1.995827E+04 -9.436206E+04 -1.643190E+04  4.843378E+04 -5.036762E+03  2.266421E+03
       234   2 -7.259400E+03 -4.266894E+04 -4.923489E+03  4.207227E+04 -2.107612E+03  2.118216E+03
       234   3  5.560388E+03  9.085474E+03  6.713654E+03  4.853353E+04  9.371259E+02  1.969955E+03
       234   4 -3.447715E+02 -1.188426E+04 -8.474664E+02  4.841534E+04 -5.035874E+03 -2.143630E+03
       234   5  4.534976E+00 -1.192854E+04  6.546484E+02  4.200405E+04 -2.106743E+03 -2.469497E+03
       234   6  5.057658E+02 -1.188321E+04  2.408980E+03  4.841550E+04  9.379680E+02 -2.795410E+03
       234   7  1.926834E+04  7.060015E+04  1.473674E+04  4.839689E+04 -5.034986E+03 -6.554252E+03
       234   8  7.268428E+03  1.881281E+04  6.232827E+03  4.193584E+04 -2.105873E+03 -7.057431E+03
       234   9 -4.548872E+03 -3.285143E+04 -1.895632E+03  4.829747E+04  9.388119E+02 -7.560615E+03
       234  10 -1.995830E+04 -9.436208E+04 -1.643195E+04  4.843379E+04  7.788641E-10 -2.035884E-10
       234  11 -7.259406E+03 -4.266894E+04 -4.923506E+03  4.207227E+04  6.995085E-10 -3.903424E-10
       234  12  5.560386E+03  9.085470E+03  6.713645E+03  4.853353E+04 -5.054852E-10 -1.222513E-09
       234  13 -3.448000E+02 -1.188427E+04 -8.475227E+02  4.841533E+04  4.051105E-10 -2.706161E-13
       234  14  4.528574E+00 -1.192855E+04  6.546286E+02  4.200405E+04  1.013090E-09  1.231209E-10
       234  15  5.057627E+02 -1.188322E+04  2.408964E+03  4.841550E+04  7.967733E-10  2.652292E-10
       234  16  1.926830E+04  7.060010E+04  1.473661E+04  4.839687E+04  1.349557E-10 -2.310946E-11
       234  17  7.268410E+03  1.881276E+04  6.232725E+03  4.193582E+04  9.696798E-10  4.166021E-10
       234  18 -4.548888E+03 -3.285149E+04 -1.895742E+03  4.829748E+04  1.781841E-09  1.139915E-09
       234  19 -1.995827E+04 -9.436206E+04 -1.643190E+04  4.843378E+04  5.036762E+03 -2.266421E+03
       234  20 -7.259400E+03 -4.266894E+04 -4.923489E+03  4.207227E+04  2.107612E+03 -2.118216E+03
       234  21  5.560388E+03  9.085474E+03  6.713654E+03  4.853353E+04 -9.371259E+02 -1.969955E+03
       234  22 -3.447715E+02 -1.188426E+04 -8.474664E+02  4.841534E+04  5.035874E+03  2.143630E+03
       234  23  4.534976E+00 -1.192854E+04  6.546484E+02  4.200405E+04  2.106743E+03  2.469497E+03
       234  24  5.057658E+02 -1.188321E+04  2.408980E+03  4.841550E+04 -9.379680E+02  2.795410E+03
       234  25  1.926834E+04  7.060015E+04  1.473674E+04  4.839689E+04  5.034986E+03  6.554252E+03
       234  26  7.268428E+03  1.881281E+04  6.232827E+03  4.193584E+04  2.105873E+03  7.057431E+03
       234  27 -4.548872E+03 -3.285143E+04 -1.895632E+03  4.829747E+04 -9.388119E+02  7.560615E+03
       235   1  1.341742E+04  4.426522E+04  1.431742E+04  4.732548E+04  3.034171E+03  2.123625E+03
       235   2  2.816902E+04  9.420373E+04  2.903495E+04  4.541273E+04  4.417521E+03 -7.818501E+03
       235   3  5.226412E+04  1.477848E+05  5.256243E+04  5.609153E+04  1.609054E+03 -1.776262E+04
       235   4  1.221052E+02 -1.134282E+04  3.450159E+03  4.836352E+04  3.035163E+03 -3.217795E+03
       235   5  2.352876E+03 -1.260641E+04  6.750218E+03  4.206930E+04  4.417394E+03 -6.720188E+03
       235   6  1.281046E+04 -1.134630E+04  1.438934E+04  4.836646E+04  1.607620E+03 -1.022381E+04
       235   7 -1.317338E+04 -6.694784E+04 -7.417142E+03  4.940147E+04  3.036136E+03 -8.558746E+03
       235   8 -2.346396E+04 -1.194057E+05 -1.553513E+04  3.872646E+04  4.417256E+03 -5.622062E+03
       235   9 -2.664479E+04 -1.704539E+05 -2.378530E+04  4.064339E+04  1.605998E+03 -2.686920E+03
       235  10  1.341741E+04  4.426521E+04  1.431739E+04  4.732548E+04 -8.557954E-11  1.577605E-10
       235  11  2.816899E+04  9.420366E+04  2.903479E+04  4.541276E+04  6.092461E-11 -1.040172E-09
       235  12  5.226403E+04  1.477844E+05  5.256183E+04  5.609155E+04  2.353386E-10 -1.791070E-09
       235  13  1.220925E+02 -1.134284E+04  3.450122E+03  4.836353E+04  5.279298E-10 -5.854959E-12
       235  14  2.352843E+03 -1.260646E+04  6.750096E+03  4.206933E+04  9.667499E-10 -7.063519E-10
       235  15  1.281043E+04 -1.134641E+04  1.438914E+04  4.836648E+04  7.901814E-10  3.783890E-10
       235  16 -1.317341E+04 -6.694792E+04 -7.417297E+03  4.940149E+04  1.259979E-09 -7.077622E-10
       235  17 -2.346399E+04 -1.194058E+05 -1.553522E+04  3.872648E+04  1.745665E-09  9.332090E-10
       235  18 -2.664479E+04 -1.704539E+05 -2.378531E+04  4.064339E+04  9.570075E-10  1.661684E-09
       235  19  1.341742E+04  4.426522E+04  1.431742E+04  4.732548E+04 -3.034171E+03 -2.123625E+03
       235  20  2.816902E+04  9.420373E+04  2.903495E+04  4.541273E+04 -4.417521E+03  7.818501E+03
       235  21  5.226412E+04  1.477848E+05  5.256243E+04  5.609153E+04 -1.609054E+03  1.776262E+04
       235  22  1.221052E+02 -1.134282E+04  3.450159E+03  4.836352E+04 -3.035163E+03  3.217795E+03
       235  23  2.352876E+03 -1.260641E+04  6.750218E+03  4.206930E+04 -4.417394E+03  6.720188E+03
       235  24  1.281046E+04 -1.134630E+04  1.438934E+04  4.836646E+04 -1.607620E+03  1.022381E+04
       235  25 -1.317338E+04 -6.694784E+04 -7.417142E+03  4.940147E+04 -3.036136E+03  8.558746E+03
       235  26 -2.346396E+04 -1.194057E+05 -1.553513E+04  3.872646E+04 -4.417256E+03  5.622062E+03
       235  27 -2.664479E+04 -1.704539E+05 -2.378530E+04  4.064339E+04 -1.605998E+03  2.686920E+03
       236   1  1.868778E+05  6.796141E+04  4.153494E+04  6.774525E+04  1.740133E+04  5.432690E+03
       236   2  1.809962E+05  4.355718E+04  2.578929E+04  6.669159E+04  1.127458E+04  7.954184E+02
       236   3  1.810194E+05  3.890089E+04  2.008974E+04  6.310837E+04  4.411503E+03 -1.880164E+03
       236   4  1.225023E+05  3.618379E+04  2.286384E+04  4.241503E+04  1.494915E+04  4.511799E+03
       236   5  1.184758E+05  1.772755E+04  9.860036E+03  4.696129E+04  1.041025E+04  4.708232E+02
       236   6  1.200403E+05  1.870583E+04  5.645407E+03  4.897789E+04  5.134882E+03 -1.608556E+03
       236   7  5.813189E+04  4.407859E+03  4.192659E+03  1.708784E+04  1.249729E+04  3.591101E+03
       236   8  5.595951E+04 -8.101471E+03 -6.069466E+03  2.723295E+04  9.546018E+03  1.462737E+02
       236   9  5.906443E+04 -1.489294E+03 -8.799297E+03  3.484850E+04  5.858187E+03 -1.336968E+03
       236  10  1.868775E+05  6.796129E+04  4.153432E+04  6.774517E+04 -4.401703E-11 -2.610453E-10
       236  11  1.809961E+05  4.355715E+04  2.578905E+04  6.669159E+04 -3.748540E-10  4.079837E-10
       236  12  1.810193E+05  3.890088E+04  2.008970E+04  6.310838E+04 -3.396882E-10  1.076028E-09
       236  13  1.225021E+05  3.618371E+04  2.286339E+04  4.241497E+04  1.280464E-10 -8.884203E-10
       236  14  1.184757E+05  1.772752E+04  9.859832E+03  4.696129E+04  6.340567E-10 -5.861949E-10
       236  15  1.200402E+05  1.870582E+04  5.645353E+03  4.897790E+04  8.448241E-10  5.540241E-10
       236  16  5.813172E+04  4.407804E+03  4.192341E+03  1.708781E+04  5.216154E-10  9.508248E-10
       236  17  5.595941E+04 -8.101495E+03 -6.069637E+03  2.723295E+04  3.411772E-10  3.647927E-10
       236  18  5.906439E+04 -1.489305E+03 -8.799365E+03  3.484851E+04  4.069294E-10  1.295199E-09
       236  19  1.868778E+05  6.796141E+04  4.153494E+04  6.774525E+04 -1.740133E+04 -5.432690E+03
       236  20  1.809962E+05  4.355718E+04  2.578929E+04  6.669159E+04 -1.127458E+04 -7.954184E+02
       236  21  1.810194E+05  3.890089E+04  2.008974E+04  6.310837E+04 -4.411503E+03  1.880164E+03
       236  22  1.225023E+05  3.618379E+04  2.286384E+04  4.241503E+04 -1.494915E+04 -4.511799E+03
       236  23  1.184758E+05  1.772755E+04  9.860036E+03  4.696129E+04 -1.041025E+04 -4.708232E+02
       236  24  1.200403E+05  1.870583E+04  5.645407E+03  4.897789E+04 -5.134882E+03  1.608556E+03
       236  25  5.813189E+04  4.407859E+03  4.192659E+03  1.708784E+04 -1.249729E+04 -3.591101E+03
       236  26  5.595951E+04 -8.101471E+03 -6.069466E+03  2.723295E+04 -9.546018E+03 -1.462737E+02
       236  27  5.906443E+04 -1.489294E+03 -8.799297E+03  3.484850E+04 -5.858187E+03  1.336968E+03
       237   1  1.734552E+05  4.110039E+04  1.786775E+04  6.313429E+04  4.135896E+03 -1.545602E+03
       237   2  1.688762E+05  3.684195E+04  1.432076E+04  6.075474E+04  2.822850E+03 -1.813481E+03
       237   3  1.631099E+05  3.558818E+04  1.202043E+04  6.016795E+04  1.476192E+03 -1.991836E+03
       237   4  1.193029E+05  2.052975E+04  4.491959E+03  4.788148E+04  4.259169E+03 -1.499337E+03
       237   5  1.198240E+05  1.846902E+04  2.290454E+03  4.719756E+04  3.018660E+03 -1.739969E+03
       237   6  1.191436E+05  1.939864E+04  1.278228E+03  4.830634E+04  1.744526E+03 -1.891078E+03
       237   7  6.515342E+04 -4.065330E+01 -8.884058E+03  3.262989E+04  4.382431E+03 -1.453076E+03
       237   8  7.077439E+04  9.631003E+01 -9.740004E+03  3.364138E+04  3.214451E+03 -1.666463E+03
       237   9  7.517941E+04  3.209286E+03 -9.464062E+03  3.644555E+04  2.012839E+03 -1.790328E+03
       237  10  1.734552E+05  4.110038E+04  1.786772E+04  6.313429E+04 -3.542419E-10  1.441631E-09
       237  11  1.688762E+05  3.684194E+04  1.432074E+04  6.075475E+04 -7.407488E-10  1.895121E-09
       237  12  1.631099E+05  3.558818E+04  1.202042E+04  6.016796E+04  2.825422E-09  1.232042E-09
       237  13  1.193028E+05  2.052974E+04  4.491920E+03  4.788148E+04 -1.341821E-10  9.624134E-10
       237  14  1.198240E+05  1.846902E+04  2.290431E+03  4.719756E+04  1.662914E-10 -1.942190E-09
       237  15  1.191436E+05  1.939863E+04  1.278215E+03  4.830635E+04  2.604888E-09  9.037577E-10
       237  16  6.515340E+04 -4.066072E+01 -8.884098E+03  3.262990E+04 -1.165530E-09 -2.396877E-10
       237  17  7.077438E+04  9.630428E+01 -9.740028E+03  3.364138E+04  1.042347E-09  1.330797E-09
       237  18  7.517940E+04  3.209282E+03 -9.464076E+03  3.644555E+04  2.908372E-09  6.633903E-10
       237  19  1.734552E+05  4.110039E+04  1.786775E+04  6.313429E+04 -4.135896E+03  1.545602E+03
       237  20  1.688762E+05  3.684195E+04  1.432076E+04  6.075474E+04 -2.822850E+03  1.813481E+03
       237  21  1.631099E+05  3.558818E+04  1.202043E+04  6.016795E+04 -1.476192E+03  1.991836E+03
       237  22  1.193029E+05  2.052975E+04  4.491959E+03  4.788148E+04 -4.259169E+03  1.499337E+03
       237  23  1.198240E+05  1.846902E+04  2.290454E+03  4.719756E+04 -3.018660E+03  1.739969E+03
       237  24  1.191436E+05  1.939864E+04  1.278228E+03  4.830634E+04 -1.744526E+03  1.891078E+03
       237  25  6.515342E+04 -4.065330E+01 -8.884058E+03  3.262989E+04 -4.382431E+03  1.453076E+03
       237  26  7.077439E+04  9.631003E+01 -9.740004E+03  3.364138E+04 -3.214451E+03  1.666463E+03
       237  27  7.517941E+04  3.209286E+03 -9.464062E+03  3.644555E+04 -2.012839E+03  1.790328E+03
       238   1  1.582362E+05  3.409789E+04  1.054407E+04  5.897225E+04  1.253207E+03 -1.862525E+03
       238   2  1.538122E+05  3.114937E+04  8.819722E+03  5.650201E+04  8.717716E+02 -1.664055E+03
       238   3  1.476572E+05  3.008060E+04  7.316873E+03  5.607719E+04  4.888493E+02 -1.461676E+03
       238   4  1.190768E+05  1.951134E+04  9.759152E+02  4.822754E+04  1.493923E+03 -1.772134E+03
       238   5  1.199378E+05  1.853792E+04  5.306079E+02  4.721754E+04  1.115671E+03 -1.572461E+03
       238   6  1.190673E+05  1.944365E+04  3.043238E+02  4.825299E+04  7.359301E+02 -1.368880E+03
       238   7  7.991860E+04  4.924825E+03 -8.592410E+03  3.748338E+04  1.734624E+03 -1.681749E+03
       238   8  8.606439E+04  5.926514E+03 -7.758616E+03  3.793351E+04  1.359556E+03 -1.480872E+03
       238   9  9.047817E+04  8.806768E+03 -6.708289E+03  4.042911E+04  9.829985E+02 -1.276089E+03
       238  10  1.582362E+05  3.409789E+04  1.054406E+04  5.897226E+04  2.181819E-09 -2.893822E-10
       238  11  1.538122E+05  3.114937E+04  8.819715E+03  5.650201E+04 -1.427129E-10  1.420914E-09
       238  12  1.476572E+05  3.008059E+04  7.316869E+03  5.607719E+04 -4.348607E-10  1.620144E-09
       238  13  1.190768E+05  1.951134E+04  9.759051E+02  4.822754E+04  3.751372E-09  3.232897E-10
       238  14  1.199378E+05  1.853792E+04  5.306010E+02  4.721754E+04  7.458261E-10  9.824185E-10
       238  15  1.190673E+05  1.944365E+04  3.043192E+02  4.825299E+04 -1.864855E-10  1.290029E-09
       238  16  7.991860E+04  4.924821E+03 -8.592421E+03  3.748338E+04  2.658083E-09  8.470843E-10
       238  17  8.606439E+04  5.926511E+03 -7.758623E+03  3.793351E+04 -2.153074E-10  6.255171E-10
       238  18  9.047817E+04  8.806766E+03 -6.708294E+03  4.042911E+04 -1.249419E-09  4.775173E-10
       238  19  1.582362E+05  3.409789E+04  1.054407E+04  5.897225E+04 -1.253207E+03  1.862525E+03
       238  20  1.538122E+05  3.114937E+04  8.819722E+03  5.650201E+04 -8.717716E+02  1.664055E+03
       238  21  1.476572E+05  3.008060E+04  7.316873E+03  5.607719E+04 -4.888493E+02  1.461676E+03
       238  22  1.190768E+05  1.951134E+04  9.759152E+02  4.822754E+04 -1.493923E+03  1.772134E+03
       238  23  1.199378E+05  1.853792E+04  5.306079E+02  4.721754E+04 -1.115671E+03  1.572461E+03
       238  24  1.190673E+05  1.944365E+04  3.043238E+02  4.825299E+04 -7.359301E+02  1.368880E+03
       238  25  7.991860E+04  4.924825E+03 -8.592410E+03  3.748338E+04 -1.734624E+03  1.681749E+03
       238  26  8.606439E+04  5.926514E+03 -7.758616E+03  3.793351E+04 -1.359556E+03  1.480872E+03
       238  27  9.047817E+04  8.806768E+03 -6.708289E+03  4.042911E+04 -9.829985E+02  1.276089E+03
       239   1  1.429848E+05  2.835467E+04  6.074030E+03  5.480657E+04  3.788157E+02 -1.300584E+03
       239   2  1.385889E+05  2.548897E+04  4.718377E+03  5.233148E+04  1.863758E+02 -1.026273E+03
       239   3  1.324117E+05  2.442407E+04  3.422464E+03  5.190950E+04 -6.099070E+00 -7.518823E+02
       239   4  1.190594E+05  1.944898E+04  2.381144E+02  4.824617E+04  6.245502E+02 -1.208291E+03
       239   5  1.199500E+05  1.854712E+04  1.570965E+02  4.722019E+04  4.321779E+02 -9.339512E+02
       239   6  1.190591E+05  1.944606E+04  1.357690E+02  4.824731E+04  2.397694E+02 -6.595314E+02
       239   7  9.513473E+04  1.054338E+04 -5.597814E+03  4.168603E+04  8.702732E+02 -1.116002E+03
       239   8  1.013114E+05  1.160529E+04 -4.404210E+03  4.210903E+04  6.779720E+02 -8.416324E+02
       239   9  1.057067E+05  1.446804E+04 -3.150956E+03  4.458519E+04  4.856331E+02 -5.671821E+02
       239  10  1.429848E+05  2.835467E+04  6.074027E+03  5.480657E+04  3.260290E-10 -8.385396E-11
       239  11  1.385889E+05  2.548897E+04  4.718375E+03  5.233148E+04  1.134799E-09 -8.715587E-12
       239  12  1.324117E+05  2.442407E+04  3.422463E+03  5.190950E+04 -5.902495E-10 -1.446701E-09
       239  13  1.190594E+05  1.944898E+04  2.381109E+02  4.824617E+04  1.394937E-09  5.591824E-10
       239  14  1.199500E+05  1.854712E+04  1.570945E+02  4.722019E+04  1.903805E-09 -8.620318E-10
       239  15  1.190591E+05  1.944606E+04  1.357681E+02  4.824731E+04  1.880230E-09 -1.332005E-09
       239  16  9.513473E+04  1.054337E+04 -5.597817E+03  4.168603E+04 -1.521199E-10  2.825403E-11
       239  17  1.013114E+05  1.160529E+04 -4.404212E+03  4.210903E+04  9.398070E-10 -4.995972E-10
       239  18  1.057067E+05  1.446804E+04 -3.150957E+03  4.458519E+04 -1.671442E-09 -2.912780E-10
       239  19  1.429848E+05  2.835467E+04  6.074030E+03  5.480657E+04 -3.788157E+02  1.300584E+03
       239  20  1.385889E+05  2.548897E+04  4.718377E+03  5.233148E+04 -1.863758E+02  1.026273E+03
       239  21  1.324117E+05  2.442407E+04  3.422464E+03  5.190950E+04  6.099070E+00  7.518823E+02
       239  22  1.190594E+05  1.944898E+04  2.381144E+02  4.824617E+04 -6.245502E+02  1.208291E+03
       239  23  1.199500E+05  1.854712E+04  1.570965E+02  4.722019E+04 -4.321779E+02  9.339512E+02
       239  24  1.190591E+05  1.944606E+04  1.357690E+02  4.824731E+04 -2.397694E+02  6.595314E+02
       239  25  9.513473E+04  1.054338E+04 -5.597814E+03  4.168603E+04 -8.702732E+02  1.116002E+03
       239  26  1.013114E+05  1.160529E+04 -4.404210E+03  4.210903E+04 -6.779720E+02  8.416324E+02
       239  27  1.057067E+05  1.446804E+04 -3.150956E+03  4.458519E+04 -4.856331E+02  5.671821E+02
       240   1  1.277606E+05  2.268632E+04  2.253975E+03  5.063788E+04 -9.562130E+01 -5.837329E+02
       240   2  1.233661E+05  1.982505E+04  1.034809E+03  4.816311E+04 -3.080726E+02 -3.169745E+02
       240   3  1.171949E+05  1.876595E+04 -1.091520E+02  4.774047E+04 -5.204705E+02 -5.034201E+01
       240   4  1.190601E+05  1.944584E+04  1.430065E+02  4.824729E+04  1.501725E+02 -4.914083E+02
       240   5  1.199488E+05  1.854691E+04  1.975663E+02  4.722043E+04 -6.238402E+01 -2.246890E+02
       240   6  1.190607E+05  1.945017E+04  3.274064E+02  4.824567E+04 -2.748878E+02  4.190385E+01
       240   7  1.103596E+05  1.620536E+04 -1.967967E+03  4.585673E+04  3.959625E+02 -3.990851E+02
       240   8  1.165314E+05  1.726878E+04 -6.396749E+02  4.627775E+04  1.833024E+02 -1.324043E+02
       240   9  1.209265E+05  2.013438E+04  7.639623E+02  4.875087E+04 -2.930549E+01  1.341496E+02
       240  10  1.277606E+05  2.268632E+04  2.253975E+03  5.063788E+04 -8.225159E-10  3.238179E-10
       240  11  1.233661E+05  1.982505E+04  1.034809E+03  4.816311E+04  1.293743E-09 -1.039270E-09
       240  12  1.171949E+05  1.876595E+04 -1.091525E+02  4.774047E+04  1.894105E-09 -6.034087E-10
       240  13  1.190601E+05  1.944584E+04  1.430060E+02  4.824729E+04  1.459007E-09  1.557048E-09
       240  14  1.199488E+05  1.854691E+04  1.975662E+02  4.722043E+04  1.050065E-09  1.372023E-10
       240  15  1.190607E+05  1.945017E+04  3.274062E+02  4.824567E+04  1.579505E-09 -5.727733E-10
       240  16  1.103596E+05  1.620536E+04 -1.967968E+03  4.585673E+04 -1.614202E-09 -3.285548E-11
       240  17  1.165314E+05  1.726878E+04 -6.396750E+02  4.627775E+04  1.863286E-09 -2.241246E-09
       240  18  1.209265E+05  2.013438E+04  7.639622E+02  4.875087E+04  2.499944E-10 -1.724968E-09
       240  19  1.277606E+05  2.268632E+04  2.253975E+03  5.063788E+04  9.562130E+01  5.837329E+02
       240  20  1.233661E+05  1.982505E+04  1.034809E+03  4.816311E+04  3.080726E+02  3.169745E+02
       240  21  1.171949E+05  1.876595E+04 -1.091520E+02  4.774047E+04  5.204705E+02  5.034201E+01
       240  22  1.190601E+05  1.944584E+04  1.430065E+02  4.824729E+04 -1.501725E+02  4.914083E+02
       240  23  1.199488E+05  1.854691E+04  1.975663E+02  4.722043E+04  6.238402E+01  2.246890E+02
       240  24  1.190607E+05  1.945017E+04  3.274064E+02  4.824567E+04  2.748878E+02 -4.190385E+01
       240  25  1.103596E+05  1.620536E+04 -1.967967E+03  4.585673E+04 -3.959625E+02  3.990851E+02
       240  26  1.165314E+05  1.726878E+04 -6.396749E+02  4.627775E+04 -1.833024E+02  1.324043E+02
       240  27  1.209265E+05  2.013438E+04  7.639623E+02  4.875087E+04  2.930549E+01 -1.341496E+02
       241   1  1.125432E+05  1.703197E+04 -1.185362E+03  4.649149E+04 -6.500779E+02  1.030354E+02
       241   2  1.081282E+05  1.415003E+04 -2.127960E+03  4.399251E+04 -1.141685E+03  2.643774E+02
       241   3  1.020122E+05  1.318012E+04 -2.759075E+03  4.353117E+04 -1.632238E+03  4.229230E+02
       241   4  1.190730E+05  1.944191E+04  4.268569E+02  4.825476E+04 -4.036135E+02  1.956120E+02
       241   5  1.199301E+05  1.853463E+04  7.585403E+02  4.721752E+04 -8.974902E+02  3.560998E+02
       241   6  1.190868E+05  1.953987E+04  1.403532E+03  4.821793E+04 -1.390315E+03  5.137900E+02
       241   7  1.256030E+05  2.185186E+04  2.039081E+03  5.001807E+04 -1.571450E+02  2.881900E+02
       241   8  1.317323E+05  2.291925E+04  3.645039E+03  5.044259E+04 -6.532892E+02  4.478243E+02
       241   9  1.361617E+05  2.589964E+04  5.566118E+03  5.290482E+04 -1.148384E+03  6.046597E+02
       241  10  1.125432E+05  1.703197E+04 -1.185363E+03  4.649149E+04  6.673185E-10 -1.867080E-09
       241  11  1.081282E+05  1.415003E+04 -2.127963E+03  4.399251E+04  8.396340E-09  1.865364E-09
       241  12  1.020122E+05  1.318012E+04 -2.759081E+03  4.353117E+04  1.211298E-08  5.236409E-09
       241  13  1.190730E+05  1.944191E+04  4.268566E+02  4.825476E+04  1.690380E-09  3.120216E-10
       241  14  1.199301E+05  1.853463E+04  7.585386E+02  4.721752E+04  4.606452E-09  4.529269E-09
       241  15  1.190868E+05  1.953987E+04  1.403528E+03  4.821793E+04  3.779918E-09  4.808056E-09
       241  16  1.256030E+05  2.185186E+04  2.039081E+03  5.001807E+04  2.831300E-09  1.580107E-10
       241  17  1.317323E+05  2.291925E+04  3.645038E+03  5.044259E+04  3.837927E-10 -2.030860E-09
       241  18  1.361617E+05  2.589964E+04  5.566115E+03  5.290482E+04 -4.111755E-09 -3.451576E-09
       241  19  1.125432E+05  1.703197E+04 -1.185362E+03  4.649149E+04  6.500779E+02 -1.030354E+02
       241  20  1.081282E+05  1.415003E+04 -2.127960E+03  4.399251E+04  1.141685E+03 -2.643774E+02
       241  21  1.020122E+05  1.318012E+04 -2.759075E+03  4.353117E+04  1.632238E+03 -4.229230E+02
       241  22  1.190730E+05  1.944191E+04  4.268569E+02  4.825476E+04  4.036135E+02 -1.956120E+02
       241  23  1.199301E+05  1.853463E+04  7.585403E+02  4.721752E+04  8.974902E+02 -3.560998E+02
       241  24  1.190868E+05  1.953987E+04  1.403532E+03  4.821793E+04  1.390315E+03 -5.137900E+02
       241  25  1.256030E+05  2.185186E+04  2.039081E+03  5.001807E+04  1.571450E+02 -2.881900E+02
       241  26  1.317323E+05  2.291925E+04  3.645039E+03  5.044259E+04  6.532892E+02 -4.478243E+02
       241  27  1.361617E+05  2.589964E+04  5.566118E+03  5.290482E+04  1.148384E+03 -6.046597E+02
       242   1  9.725312E+04  1.148065E+04 -3.494881E+03  4.260205E+04 -1.979927E+03  5.016129E+02
       242   2  9.285687E+04  8.266826E+03 -3.316052E+03  3.965959E+04 -3.720262E+03  1.807359E+02
       242   3  8.751611E+04  8.557494E+03 -1.462538E+03  3.838957E+04 -5.437282E+03 -2.021369E+02
       242   4  1.191838E+05  1.937731E+04  1.840397E+03  4.833152E+04 -1.718912E+03  5.996488E+02
       242   5  1.197660E+05  1.843576E+04  3.301011E+03  4.718891E+04 -3.509484E+03  2.598953E+02
       242   6  1.194136E+05  2.100857E+04  6.476038E+03  4.771869E+04 -5.276764E+03 -1.418629E+02
       242   7  1.411149E+05  2.727395E+04  7.175612E+03  5.406114E+04 -1.457889E+03  6.976877E+02
       242   8  1.466759E+05  2.860475E+04  9.918018E+03  5.471852E+04 -3.298697E+03  3.390586E+02
       242   9  1.513122E+05  3.345980E+04  1.441458E+04  5.704829E+04 -5.116237E+03 -8.158485E+01
       242  10  9.725312E+04  1.148065E+04 -3.494889E+03  4.260205E+04 -3.738196E-09 -5.385524E-10
       242  11  9.285686E+04  8.266822E+03 -3.316078E+03  3.965960E+04 -4.282884E-09 -7.419130E-10
       242  12  8.751608E+04  8.557486E+03 -1.462594E+03  3.838957E+04 -3.937008E-10 -1.344187E-09
       242  13  1.191838E+05  1.937730E+04  1.840391E+03  4.833152E+04  3.438734E-09  3.454873E-09
       242  14  1.197660E+05  1.843576E+04  3.300987E+03  4.718891E+04 -3.328145E-10  3.448067E-09
       242  15  1.194136E+05  2.100856E+04  6.475986E+03  4.771869E+04  8.653653E-10  1.705466E-10
       242  16  1.411149E+05  2.727395E+04  7.175607E+03  5.406114E+04  9.773660E-09  3.209149E-09
       242  17  1.466759E+05  2.860475E+04  9.917997E+03  5.471852E+04  5.462461E-09  3.443201E-09
       242  18  1.513122E+05  3.345979E+04  1.441453E+04  5.704829E+04  1.000979E-09  3.435989E-10
       242  19  9.725312E+04  1.148065E+04 -3.494881E+03  4.260205E+04  1.979927E+03 -5.016129E+02
       242  20  9.285687E+04  8.266826E+03 -3.316052E+03  3.965959E+04  3.720262E+03 -1.807359E+02
       242  21  8.751611E+04  8.557494E+03 -1.462538E+03  3.838957E+04  5.437282E+03  2.021369E+02
       242  22  1.191838E+05  1.937731E+04  1.840397E+03  4.833152E+04  1.718912E+03 -5.996488E+02
       242  23  1.197660E+05  1.843576E+04  3.301011E+03  4.718891E+04  3.509484E+03 -2.598953E+02
       242  24  1.194136E+05  2.100857E+04  6.476038E+03  4.771869E+04  5.276764E+03  1.418629E+02
       242  25  1.411149E+05  2.727395E+04  7.175612E+03  5.406114E+04  1.457889E+03 -6.976877E+02
       242  26  1.466759E+05  2.860475E+04  9.918018E+03  5.471852E+04  3.298697E+03 -3.390586E+02
       242  27  1.513122E+05  3.345980E+04  1.441458E+04  5.704829E+04  5.116237E+03  8.158485E+01
       243   1  8.083648E+04  7.250250E+03 -8.987052E+02  4.218034E+04 -7.027421E+03 -4.344469E+02
       243   2  7.826520E+04 -1.028079E+03  3.760915E+03  3.224838E+04 -1.359385E+04 -2.862491E+03
       243   3  8.429866E+04  1.773834E+04  2.022326E+04  1.779882E+04 -1.965051E+04 -6.647832E+03
       243   4  1.204680E+05  1.838774E+04  8.139340E+03  4.930929E+04 -6.451612E+03 -2.181529E+02
       243   5  1.178333E+05  1.735654E+04  1.421657E+04  4.683619E+04 -1.411685E+04 -3.059008E+03
       243   6  1.240201E+05  4.358622E+04  3.296632E+04  3.984584E+04 -2.127227E+04 -7.257270E+03
       243   7  1.601011E+05  2.952524E+04  1.717732E+04  5.643859E+04 -5.875760E+03 -1.851705E+00
       243   8  1.574028E+05  3.574138E+04  2.467201E+04  6.142483E+04 -1.463988E+04 -3.255544E+03
       243   9  1.637427E+05  6.943495E+04  4.570902E+04  6.189404E+04 -2.289412E+04 -7.866812E+03
       243  10  8.083643E+04  7.250236E+03 -8.987984E+02  4.218033E+04  8.047786E-10 -1.561366E-09
       243  11  7.826500E+04 -1.028138E+03  3.760552E+03  3.224835E+04  2.296634E-10 -2.307010E-09
       243  12  8.429823E+04  1.773819E+04  2.022245E+04  1.779872E+04 -7.874517E-10 -4.267466E-10
       243  13  1.204679E+05  1.838773E+04  8.139262E+03  4.930928E+04  2.043140E-09 -6.648149E-10
       243  14  1.178331E+05  1.735647E+04  1.421618E+04  4.683616E+04 -6.395738E-10 -2.789527E-09
       243  15  1.240196E+05  4.358604E+04  3.296537E+04  3.984571E+04  1.141456E-10  7.156359E-10
       243  16  1.601011E+05  2.952523E+04  1.717726E+04  5.643859E+04  3.615103E-10 -1.125102E-09
       243  17  1.574025E+05  3.574131E+04  2.467159E+04  6.142479E+04  1.108242E-09 -7.366743E-10
       243  18  1.637421E+05  6.943475E+04  4.570792E+04  6.189389E+04  1.173492E-09  7.704458E-10
       243  19  8.083648E+04  7.250250E+03 -8.987052E+02  4.218034E+04  7.027421E+03  4.344469E+02
       243  20  7.826520E+04 -1.028079E+03  3.760915E+03  3.224838E+04  1.359385E+04  2.862491E+03
       243  21  8.429866E+04  1.773834E+04  2.022326E+04  1.779882E+04  1.965051E+04  6.647832E+03
       243  22  1.204680E+05  1.838774E+04  8.139340E+03  4.930929E+04  6.451612E+03  2.181529E+02
       243  23  1.178333E+05  1.735654E+04  1.421657E+04  4.683619E+04  1.411685E+04  3.059008E+03
       243  24  1.240201E+05  4.358622E+04  3.296632E+04  3.984584E+04  2.127227E+04  7.257270E+03
       243  25  1.601011E+05  2.952524E+04  1.717732E+04  5.643859E+04  5.875760E+03  1.851705E+00
       243  26  1.574028E+05  3.574138E+04  2.467201E+04  6.142483E+04  1.463988E+04  3.255544E+03
       243  27  1.637427E+05  6.943495E+04  4.570902E+04  6.189404E+04  2.289412E+04  7.866812E+03
       244   1 -2.851134E+04 -1.635720E+05 -2.909361E+04  2.188654E+04 -9.623255E+02 -5.397470E+03
       244   2 -1.530809E+04 -1.281592E+05 -1.704923E+04  1.199228E+04 -2.481579E+03 -2.026061E+03
       244   3 -6.892145E+03 -9.436580E+04 -8.394487E+03  1.953222E+04 -1.221359E+03  1.346388E+03
       244   4 -4.112572E+03 -6.562167E+04 -5.069352E+03  2.013260E+04 -9.629227E+02 -3.234596E+03
       244   5  2.458682E+02 -6.499008E+04 -2.457389E+03  1.141614E+04 -2.481585E+03 -1.930499E+03
       244   6  1.762089E+02 -6.562036E+04 -1.798996E+03  2.013384E+04 -1.220889E+03 -6.255842E+02
       244   7  2.028550E+04  3.233747E+04  1.895422E+04  1.837839E+04 -9.635322E+02 -1.071381E+03
       244   8  1.579954E+04 -1.817284E+03  1.213419E+04  1.083993E+04 -2.481592E+03 -1.834928E+03
       244   9  7.244509E+03 -3.687415E+04  4.796455E+03  2.073549E+04 -1.220422E+03 -2.597646E+03
       244  10 -2.851135E+04 -1.635721E+05 -2.909366E+04  2.188654E+04  2.937178E-10 -5.943764E-10
       244  11 -1.530809E+04 -1.281592E+05 -1.704925E+04  1.199228E+04  2.612017E-11  4.406598E-10
       244  12 -6.892147E+03 -9.436580E+04 -8.394494E+03  1.953222E+04 -3.422428E-10  1.077519E-09
       244  13 -4.112576E+03 -6.562168E+04 -5.069374E+03  2.013260E+04 -4.955216E-10  2.808797E-10
       244  14  2.458606E+02 -6.499008E+04 -2.457407E+03  1.141613E+04 -6.218098E-10 -1.580886E-10
       244  15  1.762072E+02 -6.562036E+04 -1.799000E+03  2.013384E+04  4.666340E-11 -7.426899E-11
       244  16  2.028550E+04  3.233746E+04  1.895421E+04  1.837839E+04  1.651947E-10  7.332198E-10
       244  17  1.579954E+04 -1.817289E+03  1.213417E+04  1.083993E+04  4.600747E-10 -1.261550E-10
       244  18  7.244505E+03 -3.687416E+04  4.796440E+03  2.073548E+04 -3.709377E-10 -1.482672E-09
       244  19 -2.851134E+04 -1.635720E+05 -2.909361E+04  2.188654E+04  9.623255E+02  5.397470E+03
       244  20 -1.530809E+04 -1.281592E+05 -1.704923E+04  1.199228E+04  2.481579E+03  2.026061E+03
       244  21 -6.892145E+03 -9.436580E+04 -8.394487E+03  1.953222E+04  1.221359E+03 -1.346388E+03
       244  22 -4.112572E+03 -6.562167E+04 -5.069352E+03  2.013260E+04  9.629227E+02  3.234596E+03
       244  23  2.458682E+02 -6.499008E+04 -2.457389E+03  1.141614E+04  2.481585E+03  1.930499E+03
       244  24  1.762089E+02 -6.562036E+04 -1.798996E+03  2.013384E+04  1.220889E+03  6.255842E+02
       244  25  2.028550E+04  3.233747E+04  1.895422E+04  1.837839E+04  9.635322E+02  1.071381E+03
       244  26  1.579954E+04 -1.817284E+03  1.213419E+04  1.083993E+04  2.481592E+03  1.834928E+03
       244  27  7.244509E+03 -3.687415E+04  4.796455E+03  2.073549E+04  1.220422E+03  2.597646E+03
       245   1  6.152009E+02 -6.180577E+04 -8.488808E+02  2.035162E+04  1.345590E+02  8.486006E+02
       245   2  9.441622E+03 -2.706478E+04  7.097237E+03  1.136066E+04  1.680325E+03  1.608737E+03
       245   3  1.734080E+04  7.359875E+03  1.431938E+04  1.989852E+04  3.136108E+03  2.368981E+03
       245   4 -2.734741E+02 -6.541291E+04 -1.685431E+03  2.015454E+04  1.348346E+02 -3.349868E+02
       245   5  5.796648E+01 -6.524872E+04 -1.635131E+03  1.139005E+04  1.680618E+03  4.920329E+02
       245   6 -5.494067E+02 -6.541363E+04 -2.355236E+03  2.015446E+04  3.136412E+03  1.319120E+03
       245   7 -1.162149E+03 -6.902003E+04 -2.521977E+03  1.995746E+04  1.351110E+02 -1.518567E+03
       245   8 -9.325790E+03 -1.034313E+05 -1.036759E+04  1.141944E+04  1.680910E+03 -6.246026E+02
       245   9 -1.843998E+04 -1.381822E+05 -1.903019E+04  2.041037E+04  3.136715E+03  2.693808E+02
       245  10  6.152007E+02 -6.180577E+04 -8.488822E+02  2.035162E+04 -1.434023E-10  5.609852E-10
       245  11  9.441618E+03 -2.706478E+04  7.097227E+03  1.136066E+04  1.316248E-09  2.043789E-09
       245  12  1.734079E+04  7.359867E+03  1.431935E+04  1.989852E+04  6.402546E-10  1.134174E-09
       245  13 -2.734741E+02 -6.541291E+04 -1.685431E+03  2.015454E+04 -3.689007E-10 -2.677625E-10
       245  14  5.796339E+01 -6.524872E+04 -1.635137E+03  1.139005E+04 -2.246932E-10  1.750854E-11
       245  15 -5.494177E+02 -6.541364E+04 -2.355258E+03  2.015446E+04 -1.317082E-10  4.437049E-10
       245  16 -1.162150E+03 -6.902003E+04 -2.521982E+03  1.995746E+04 -9.230147E-11 -5.588798E-10
       245  17 -9.325793E+03 -1.034313E+05 -1.036760E+04  1.141944E+04 -1.754977E-10 -8.611713E-10
       245  18 -1.843999E+04 -1.381822E+05 -1.903021E+04  2.041037E+04  1.488239E-10 -8.490680E-10
       245  19  6.152009E+02 -6.180577E+04 -8.488808E+02  2.035162E+04 -1.345590E+02 -8.486006E+02
       245  20  9.441622E+03 -2.706478E+04  7.097237E+03  1.136066E+04 -1.680325E+03 -1.608737E+03
       245  21  1.734080E+04  7.359875E+03  1.431938E+04  1.989852E+04 -3.136108E+03 -2.368981E+03
       245  22 -2.734741E+02 -6.541291E+04 -1.685431E+03  2.015454E+04 -1.348346E+02  3.349868E+02
       245  23  5.796648E+01 -6.524872E+04 -1.635131E+03  1.139005E+04 -1.680618E+03 -4.920329E+02
       245  24 -5.494067E+02 -6.541363E+04 -2.355236E+03  2.015446E+04 -3.136412E+03 -1.319120E+03
       245  25 -1.162149E+03 -6.902003E+04 -2.521977E+03  1.995746E+04 -1.351110E+02  1.518567E+03
       245  26 -9.325790E+03 -1.034313E+05 -1.036759E+04  1.141944E+04 -1.680910E+03  6.246026E+02
       245  27 -1.843998E+04 -1.381822E+05 -1.903019E+04  2.041037E+04 -3.136715E+03 -2.693808E+02
       246   1  2.622000E+04  3.929351E+04  2.124053E+04  2.123105E+04  4.693498E+03  4.180524E+03
       246   2  3.477717E+04  7.477411E+04  2.779531E+04  1.035212E+04  5.646989E+03  3.031111E+03
       246   3  3.569630E+04  1.085223E+05  3.319429E+04  1.682927E+04  1.949098E+03  1.879846E+03
       246   4  3.868325E+02 -6.586059E+04 -2.774147E+03  2.011705E+04  4.694243E+03  1.740598E+03
       246   5  4.565834E+02 -6.469482E+04 -4.335982E+03  1.143733E+04  5.646725E+03  4.051774E+03
       246   6 -7.713283E+03 -6.586343E+04 -9.457076E+03  2.011399E+04  1.947354E+03  6.361101E+03
       246   7 -2.544709E+04 -1.710044E+05 -2.678953E+04  1.900324E+04  4.694996E+03 -6.989193E+02
       246   8 -3.386536E+04 -2.041458E+05 -3.646856E+04  1.252229E+04  5.646465E+03  5.072210E+03
       246   9 -5.112507E+04 -2.402214E+05 -5.211059E+04  2.339779E+04  1.945657E+03  1.084110E+04
       246  10  2.621997E+04  3.929349E+04  2.124046E+04  2.123103E+04  1.328746E-10 -3.887753E-10
       246  11  3.477714E+04  7.477409E+04  2.779523E+04  1.035211E+04  1.456044E-10  1.234858E-09
       246  12  3.569630E+04  1.085223E+05  3.319428E+04  1.682927E+04 -7.922270E-10  2.268932E-10
       246  13  3.868081E+02 -6.586060E+04 -2.774194E+03  2.011704E+04 -8.260576E-10 -5.506276E-10
       246  14  4.565447E+02 -6.469485E+04 -4.336073E+03  1.143731E+04 -4.767452E-11  1.465424E-10
       246  15 -7.713298E+03 -6.586347E+04 -9.457159E+03  2.011398E+04 -6.951582E-10  1.427882E-11
       246  16 -2.544712E+04 -1.710044E+05 -2.678957E+04  1.900325E+04  3.752382E-12  3.973338E-10
       246  17 -3.386541E+04 -2.041458E+05 -3.646867E+04  1.252226E+04 -1.662528E-10 -3.994515E-10
       246  18 -5.112510E+04 -2.402215E+05 -5.211081E+04  2.339777E+04  9.472866E-11 -1.148427E-09
       246  19  2.622000E+04  3.929351E+04  2.124053E+04  2.123105E+04 -4.693498E+03 -4.180524E+03
       246  20  3.477717E+04  7.477411E+04  2.779531E+04  1.035212E+04 -5.646989E+03 -3.031111E+03
       246  21  3.569630E+04  1.085223E+05  3.319429E+04  1.682927E+04 -1.949098E+03 -1.879846E+03
       246  22  3.868325E+02 -6.586059E+04 -2.774147E+03  2.011705E+04 -4.694243E+03 -1.740598E+03
       246  23  4.565834E+02 -6.469482E+04 -4.335982E+03  1.143733E+04 -5.646725E+03 -4.051774E+03
       246  24 -7.713283E+03 -6.586343E+04 -9.457076E+03  2.011399E+04 -1.947354E+03 -6.361101E+03
       246  25 -2.544709E+04 -1.710044E+05 -2.678953E+04  1.900324E+04 -4.694996E+03  6.989193E+02
       246  26 -3.386536E+04 -2.041458E+05 -3.646856E+04  1.252229E+04 -5.646465E+03 -5.072210E+03
       246  27 -5.112507E+04 -2.402214E+05 -5.211059E+04  2.339779E+04 -1.945657E+03 -1.084110E+04
       247   1  5.957230E+04  3.408272E+04  3.092127E+04  8.140595E+03  5.996513E+03 -2.451065E+03
       247   2  4.594429E+04  3.640598E+04  2.630634E+04  9.858578E+03  1.539409E+03 -8.179676E+03
       247   3  3.184398E+04  3.451169E+04  2.353977E+04  1.443383E+04 -2.918259E+03 -9.726242E+03
       247   4 -1.158012E+05 -9.222348E+03 -1.024047E+04  1.386503E+04 -7.138696E+03 -2.453925E+03
       247   5 -1.149538E+05 -2.028919E+03 -4.972338E+03  1.243521E+04 -4.569487E+03 -8.181349E+03
       247   6 -1.157993E+05 -2.736179E+02 -2.735561E+03  1.386274E+04 -2.001035E+03 -9.726188E+03
       247   7 -2.911459E+05 -5.252939E+04 -5.140365E+04  1.958783E+04 -2.027022E+04 -2.457027E+03
       247   8 -2.758269E+05 -4.046533E+04 -3.625210E+04  1.501115E+04 -1.067683E+04 -8.183074E+03
       247   9 -2.634213E+05 -3.506013E+04 -2.901171E+04  1.329180E+04 -1.084023E+03 -9.726136E+03
       247  10  5.957226E+04  3.408271E+04  3.092119E+04  8.140607E+03  6.851054E-10 -1.838804E-10
       247  11  4.594427E+04  3.640591E+04  2.630621E+04  9.858588E+03  6.332484E-10 -6.911047E-10
       247  12  3.184395E+04  3.451159E+04  2.353957E+04  1.443380E+04 -7.560507E-10 -3.808191E-10
       247  13 -1.158012E+05 -9.222368E+03 -1.024058E+04  1.386501E+04  7.039705E-11  3.469026E-11
       247  14 -1.149538E+05 -2.028997E+03 -4.972503E+03  1.243518E+04 -9.285119E-10 -5.951990E-10
       247  15 -1.157993E+05 -2.737206E+02 -2.735746E+03  1.386273E+04 -2.845736E-10 -1.526808E-11
       247  16 -2.911464E+05 -5.252951E+04 -5.140444E+04  1.958779E+04 -6.509192E-10 -1.138661E-10
       247  17 -2.758271E+05 -4.046543E+04 -3.625244E+04  1.501108E+04 -5.843896E-10 -1.106003E-09
       247  18 -2.634213E+05 -3.506023E+04 -2.901189E+04  1.329179E+04  3.798881E-11 -8.710342E-10
       247  19  5.957230E+04  3.408272E+04  3.092127E+04  8.140595E+03 -5.996513E+03  2.451065E+03
       247  20  4.594429E+04  3.640598E+04  2.630634E+04  9.858578E+03 -1.539409E+03  8.179676E+03
       247  21  3.184398E+04  3.451169E+04  2.353977E+04  1.443383E+04  2.918259E+03  9.726242E+03
       247  22 -1.158012E+05 -9.222348E+03 -1.024047E+04  1.386503E+04  7.138696E+03  2.453925E+03
       247  23 -1.149538E+05 -2.028919E+03 -4.972338E+03  1.243521E+04  4.569487E+03  8.181349E+03
       247  24 -1.157993E+05 -2.736179E+02 -2.735561E+03  1.386274E+04  2.001035E+03  9.726188E+03
       247  25 -2.911459E+05 -5.252939E+04 -5.140365E+04  1.958783E+04  2.027022E+04  2.457027E+03
       247  26 -2.758269E+05 -4.046533E+04 -3.625210E+04  1.501115E+04  1.067683E+04  8.183074E+03
       247  27 -2.634213E+05 -3.506013E+04 -2.901171E+04  1.329180E+04  1.084023E+03  9.726136E+03
       248   1  2.295934E+04  3.215171E+04  2.231836E+04  1.378790E+04 -2.085416E+03 -9.329621E+03
       248   2  9.139975E+03  2.913159E+04  2.027203E+04  1.233927E+04 -2.138447E+03 -8.881474E+03
       248   3 -4.717008E+03  2.593585E+04  1.821620E+04  1.402144E+04 -2.191656E+03 -8.061127E+03
       248   4 -1.154551E+05 -4.127144E+02 -2.083322E+03  1.392381E+04 -1.644872E+03 -9.329677E+03
       248   5 -1.153814E+05 -5.779026E+01 -1.146711E+03  1.235832E+04 -1.072688E+03 -8.881300E+03
       248   6 -1.154539E+05  1.298413E+01 -6.538011E+02  1.392367E+04 -5.006731E+02 -8.060685E+03
       248   7 -2.538508E+05 -3.297819E+04 -2.648570E+04  1.405969E+04 -1.204423E+03 -9.329732E+03
       248   8 -2.398876E+05 -2.924801E+04 -2.256598E+04  1.237737E+04 -7.135792E+00 -8.881125E+03
       248   9 -2.261788E+05 -2.591053E+04 -1.952420E+04  1.382592E+04  1.190017E+03 -8.060243E+03
       248  10  2.295932E+04  3.215161E+04  2.231819E+04  1.378788E+04 -1.029861E-09 -2.403205E-10
       248  11  9.139949E+03  2.913151E+04  2.027188E+04  1.233926E+04  2.963013E-10  7.683592E-10
       248  12 -4.717030E+03  2.593578E+04  1.821607E+04  1.402142E+04  7.370008E-10  4.849198E-10
       248  13 -1.154551E+05 -4.128085E+02 -2.083491E+03  1.392380E+04  1.417935E-10 -1.333013E-10
       248  14 -1.153814E+05 -5.787526E+01 -1.146861E+03  1.235832E+04  1.119233E-10  3.461125E-10
       248  15 -1.154539E+05  1.291429E+01 -6.539236E+02  1.392367E+04  4.688575E-10 -2.503584E-10
       248  16 -2.538508E+05 -3.297828E+04 -2.648587E+04  1.405968E+04  8.801766E-10  7.914293E-11
       248  17 -2.398876E+05 -2.924809E+04 -2.256613E+04  1.237737E+04 -2.498428E-10  4.373104E-10
       248  18 -2.261788E+05 -2.591060E+04 -1.952432E+04  1.382593E+04 -9.502103E-10 -1.075021E-10
       248  19  2.295934E+04  3.215171E+04  2.231836E+04  1.378790E+04  2.085416E+03  9.329621E+03
       248  20  9.139975E+03  2.913159E+04  2.027203E+04  1.233927E+04  2.138447E+03  8.881474E+03
       248  21 -4.717008E+03  2.593585E+04  1.821620E+04  1.402144E+04  2.191656E+03  8.061127E+03
       248  22 -1.154551E+05 -4.127144E+02 -2.083322E+03  1.392381E+04  1.644872E+03  9.329677E+03
       248  23 -1.153814E+05 -5.779026E+01 -1.146711E+03  1.235832E+04  1.072688E+03  8.881300E+03
       248  24 -1.154539E+05  1.298413E+01 -6.538011E+02  1.392367E+04  5.006731E+02  8.060685E+03
       248  25 -2.538508E+05 -3.297819E+04 -2.648570E+04  1.405969E+04  1.204423E+03  9.329732E+03
       248  26 -2.398876E+05 -2.924801E+04 -2.256598E+04  1.237737E+04  7.135792E+00  8.881125E+03
       248  27 -2.261788E+05 -2.591053E+04 -1.952420E+04  1.382592E+04 -1.190017E+03  8.060243E+03
       249   1 -1.373263E+04  2.379486E+04  1.676067E+04  1.398134E+04 -2.049066E+03 -7.468272E+03
       249   2 -2.756703E+04  2.056367E+04  1.460316E+04  1.239479E+04 -1.964394E+03 -6.470251E+03
       249   3 -4.141483E+04  1.732973E+04  1.238933E+04  1.396389E+04 -1.879802E+03 -5.439017E+03
       249   4 -1.154262E+05  3.183431E+00 -4.968975E+02  1.392921E+04 -4.003134E+02 -7.467807E+03
       249   5 -1.154142E+05  1.534941E+01 -2.843117E+02  1.235137E+04 -2.598831E+02 -6.469713E+03
       249   6 -1.154254E+05  1.508873E+01 -1.667930E+02  1.392921E+04 -1.195294E+02 -5.438404E+03
       249   7 -2.171097E+05 -2.378904E+04 -1.775479E+04  1.387709E+04  1.248177E+03 -7.467341E+03
       249   8 -2.032537E+05 -2.053338E+04 -1.517202E+04  1.230796E+04  1.444395E+03 -6.469175E+03
       249   9 -1.894306E+05 -1.729984E+04 -1.272308E+04  1.389453E+04  1.640540E+03 -5.437791E+03
       249  10 -1.373265E+04  2.379480E+04  1.676056E+04  1.398133E+04 -3.857448E-10  3.162767E-10
       249  11 -2.756705E+04  2.056363E+04  1.460308E+04  1.239478E+04  3.840575E-10  9.217604E-11
       249  12 -4.141484E+04  1.732970E+04  1.238927E+04  1.396388E+04 -3.811146E-10 -2.266854E-10
       249  13 -1.154262E+05  3.123506E+00 -4.970026E+02  1.392921E+04  1.338147E-09 -6.756297E-10
       249  14 -1.154142E+05  1.530444E+01 -2.843905E+02  1.235137E+04 -1.854353E-10  2.607105E-10
       249  15 -1.154254E+05  1.505697E+01 -1.668486E+02  1.392921E+04 -1.030194E-10  7.533043E-10
       249  16 -2.171097E+05 -2.378910E+04 -1.775490E+04  1.387710E+04  2.889305E-10  7.851907E-12
       249  17 -2.032538E+05 -2.053343E+04 -1.517211E+04  1.230796E+04 -2.169643E-10  3.880077E-10
       249  18 -1.894306E+05 -1.729988E+04 -1.272315E+04  1.389454E+04 -2.962114E-10  3.724058E-10
       249  19 -1.373263E+04  2.379486E+04  1.676067E+04  1.398134E+04  2.049066E+03  7.468272E+03
       249  20 -2.756703E+04  2.056367E+04  1.460316E+04  1.239479E+04  1.964394E+03  6.470251E+03
       249  21 -4.141483E+04  1.732973E+04  1.238933E+04  1.396389E+04  1.879802E+03  5.439017E+03
       249  22 -1.154262E+05  3.183431E+00 -4.968975E+02  1.392921E+04  4.003134E+02  7.467807E+03
       249  23 -1.154142E+05  1.534941E+01 -2.843117E+02  1.235137E+04  2.598831E+02  6.469713E+03
       249  24 -1.154254E+05  1.508873E+01 -1.667930E+02  1.392921E+04  1.195294E+02  5.438404E+03
       249  25 -2.171097E+05 -2.378904E+04 -1.775479E+04  1.387709E+04 -1.248177E+03  7.467341E+03
       249  26 -2.032537E+05 -2.053338E+04 -1.517202E+04  1.230796E+04 -1.444395E+03  6.469175E+03
       249  27 -1.894306E+05 -1.729984E+04 -1.272308E+04  1.389453E+04 -1.640540E+03  5.437791E+03
       250   1 -5.044037E+04  1.520494E+04  1.083685E+04  1.395811E+04 -1.849610E+03 -4.828529E+03
       250   2 -6.428168E+04  1.197118E+04  8.567579E+03  1.237114E+04 -1.813954E+03 -3.781408E+03
       250   3 -7.812927E+04  8.740026E+03  6.275039E+03  1.394260E+04 -1.778339E+03 -2.731425E+03
       250   4 -1.154217E+05  1.418413E+01 -1.295718E+02  1.392982E+04 -9.295584E+01 -4.827891E+03
       250   5 -1.154177E+05  1.290537E+01 -8.258935E+01  1.235060E+04 -5.252708E+01 -3.780736E+03
       250   6 -1.154212E+05  1.336165E+01 -6.226355E+01  1.392982E+04 -1.213890E+01 -2.730719E+03
       250   7 -1.803988E+05 -1.517679E+04 -1.109612E+04  1.390154E+04  1.663521E+03 -4.827253E+03
       250   8 -1.665511E+05 -1.194550E+04 -8.732830E+03  1.233006E+04  1.708760E+03 -3.780065E+03
       250   9 -1.527118E+05 -8.713374E+03 -6.399600E+03  1.391704E+04  1.753959E+03 -2.730014E+03
       250  10 -5.044038E+04  1.520491E+04  1.083680E+04  1.395810E+04  5.160779E-10 -1.127547E-10
       250  11 -6.428169E+04  1.197116E+04  8.567546E+03  1.237114E+04  4.508026E-10  1.172592E-09
       250  12 -7.812928E+04  8.740017E+03  6.275019E+03  1.394260E+04 -9.992000E-10  9.628613E-10
       250  13 -1.154217E+05  1.415910E+01 -1.296156E+02  1.392982E+04  1.958985E-10  1.573408E-10
       250  14 -1.154177E+05  1.289002E+01 -8.261622E+01  1.235060E+04 -8.230938E-10  1.029047E-09
       250  15 -1.154212E+05  1.335364E+01 -6.227756E+01  1.392982E+04  2.908854E-10  4.682302E-10
       250  16 -1.803988E+05 -1.517682E+04 -1.109616E+04  1.390155E+04 -6.075150E-10  1.986856E-10
       250  17 -1.665511E+05 -1.194552E+04 -8.732863E+03  1.233007E+04 -5.420018E-10  2.153919E-10
       250  18 -1.527118E+05 -8.713383E+03 -6.399620E+03  1.391704E+04  9.191774E-10  5.203680E-10
       250  19 -5.044037E+04  1.520494E+04  1.083685E+04  1.395811E+04  1.849610E+03  4.828529E+03
       250  20 -6.428168E+04  1.197118E+04  8.567579E+03  1.237114E+04  1.813954E+03  3.781408E+03
       250  21 -7.812927E+04  8.740026E+03  6.275039E+03  1.394260E+04  1.778339E+03  2.731425E+03
       250  22 -1.154217E+05  1.418413E+01 -1.295718E+02  1.392982E+04  9.295584E+01  4.827891E+03
       250  23 -1.154177E+05  1.290537E+01 -8.258935E+01  1.235060E+04  5.252708E+01  3.780736E+03
       250  24 -1.154212E+05  1.336165E+01 -6.226355E+01  1.392982E+04  1.213890E+01  2.730719E+03
       250  25 -1.803988E+05 -1.517679E+04 -1.109612E+04  1.390154E+04 -1.663521E+03  4.827253E+03
       250  26 -1.665511E+05 -1.194550E+04 -8.732830E+03  1.233006E+04 -1.708760E+03  3.780065E+03
       250  27 -1.527118E+05 -8.713374E+03 -6.399600E+03  1.391704E+04 -1.753959E+03  2.730014E+03
       251   1 -8.715878E+04  6.616359E+03  4.689520E+03  1.393896E+04 -1.767426E+03 -2.119332E+03
       251   2 -1.010010E+05  3.384035E+03  2.368238E+03  1.235173E+04 -1.731481E+03 -1.068723E+03
       251   3 -1.148507E+05  1.531465E+02  2.298837E+01  1.392375E+04 -1.695548E+03 -1.970662E+01
       251   4 -1.154210E+05  1.344750E+01 -5.961446E+01  1.393000E+04 -1.293157E+00 -2.118614E+03
       251   5 -1.154174E+05  1.311866E+01 -6.817703E+01  1.235038E+04  3.197024E+01 -1.067997E+03
       251   6 -1.154208E+05  1.475184E+01 -9.879127E+01  1.393000E+04  6.522374E+01 -1.897272E+01
       251   7 -1.436823E+05 -6.589504E+03 -4.808763E+03  1.392105E+04  1.764762E+03 -2.117896E+03
       251   8 -1.298336E+05 -3.357807E+03 -2.504587E+03  1.234902E+04  1.795382E+03 -1.067272E+03
       251   9 -1.159910E+05 -1.236412E+02 -2.205593E+02  1.393625E+04  1.825993E+03 -1.823879E+01
       251  10 -8.715879E+04  6.616353E+03  4.689506E+03  1.393896E+04  2.081704E-09  9.535412E-11
       251  11 -1.010010E+05  3.384033E+03  2.368231E+03  1.235173E+04  7.224907E-10 -3.958896E-10
       251  12 -1.148507E+05  1.531457E+02  2.298296E+01  1.392375E+04 -1.389009E-09 -4.047846E-10
       251  13 -1.154210E+05  1.344268E+01 -5.962290E+01  1.393000E+04  6.679747E-10  1.479986E-09
       251  14 -1.154174E+05  1.311744E+01 -6.817918E+01  1.235038E+04  1.610575E-11 -1.224770E-10
       251  15 -1.154208E+05  1.475184E+01 -9.879128E+01  1.393000E+04 -6.504183E-10 -4.467227E-10
       251  16 -1.436823E+05 -6.589510E+03 -4.808777E+03  1.392105E+04 -1.815346E-09  9.149932E-10
       251  17 -1.298336E+05 -3.357809E+03 -2.504596E+03  1.234902E+04 -3.591696E-10 -2.152112E-10
       251  18 -1.159910E+05 -1.236420E+02 -2.205655E+02  1.393625E+04  9.734449E-10 -2.885743E-10
       251  19 -8.715878E+04  6.616359E+03  4.689520E+03  1.393896E+04  1.767426E+03  2.119332E+03
       251  20 -1.010010E+05  3.384035E+03  2.368238E+03  1.235173E+04  1.731481E+03  1.068723E+03
       251  21 -1.148507E+05  1.531465E+02  2.298837E+01  1.392375E+04  1.695548E+03  1.970662E+01
       251  22 -1.154210E+05  1.344750E+01 -5.961446E+01  1.393000E+04  1.293157E+00  2.118614E+03
       251  23 -1.154174E+05  1.311866E+01 -6.817703E+01  1.235038E+04 -3.197024E+01  1.067997E+03
       251  24 -1.154208E+05  1.475184E+01 -9.879127E+01  1.393000E+04 -6.522374E+01  1.897272E+01
       251  25 -1.436823E+05 -6.589504E+03 -4.808763E+03  1.392105E+04 -1.764762E+03  2.117896E+03
       251  26 -1.298336E+05 -3.357807E+03 -2.504587E+03  1.234902E+04 -1.795382E+03  1.067272E+03
       251  27 -1.159910E+05 -1.236412E+02 -2.205593E+02  1.393625E+04 -1.825993E+03  1.823879E+01
       252   1 -1.238838E+05 -1.970228E+03 -1.592261E+03  1.391752E+04 -1.677938E+03  5.915865E+02
       252   2 -1.377172E+05 -5.203878E+03 -4.000617E+03  1.232990E+04 -1.539854E+03  1.630768E+03
       252   3 -1.515750E+05 -8.451931E+03 -6.503357E+03  1.390011E+04 -1.401748E+03  2.648912E+03
       252   4 -1.154234E+05  1.559974E+01 -1.246962E+02  1.392968E+04  8.517768E+01  5.923199E+02
       252   5 -1.154143E+05  1.580519E+01 -2.084278E+02  1.235078E+04  1.879092E+02  1.631473E+03
       252   6 -1.154236E+05  7.753454E+00 -3.619924E+02  1.392969E+04  2.906655E+02  2.649589E+03
       252   7 -1.069630E+05  2.001425E+03  1.342878E+03  1.394185E+04  1.848316E+03  5.930533E+02
       252   8 -9.311088E+04  5.235463E+03  3.583756E+03  1.237165E+04  1.915732E+03  1.632178E+03
       252   9 -7.927093E+04  8.467370E+03  5.779340E+03  1.395926E+04  1.983175E+03  2.650266E+03
       252  10 -1.238838E+05 -1.970229E+03 -1.592267E+03  1.391752E+04 -6.502297E-10  2.888599E-10
       252  11 -1.377172E+05 -5.203881E+03 -4.000627E+03  1.232990E+04 -2.105364E-10 -2.006055E-10
       252  12 -1.515750E+05 -8.451939E+03 -6.503374E+03  1.390012E+04 -8.466140E-11  6.705564E-12
       252  13 -1.154234E+05  1.559937E+01 -1.246969E+02  1.392968E+04 -3.194823E-10  3.489088E-11
       252  14 -1.154143E+05  1.580233E+01 -2.084329E+02  1.235078E+04 -7.468430E-10 -2.596388E-10
       252  15 -1.154236E+05  7.745893E+00 -3.620058E+02  1.392969E+04 -3.292687E-10 -1.701248E-10
       252  16 -1.069630E+05  2.001424E+03  1.342871E+03  1.394185E+04  4.896369E-10  4.354546E-10
       252  17 -9.311088E+04  5.235459E+03  3.583745E+03  1.237165E+04  5.121873E-10 -1.410361E-09
       252  18 -7.927094E+04  8.467362E+03  5.779320E+03  1.395926E+04 -5.785281E-10 -8.974000E-10
       252  19 -1.238838E+05 -1.970228E+03 -1.592261E+03  1.391752E+04  1.677938E+03 -5.915865E+02
       252  20 -1.377172E+05 -5.203878E+03 -4.000617E+03  1.232990E+04  1.539854E+03 -1.630768E+03
       252  21 -1.515750E+05 -8.451931E+03 -6.503357E+03  1.390011E+04  1.401748E+03 -2.648912E+03
       252  22 -1.154234E+05  1.559974E+01 -1.246962E+02  1.392968E+04 -8.517768E+01 -5.923199E+02
       252  23 -1.154143E+05  1.580519E+01 -2.084278E+02  1.235078E+04 -1.879092E+02 -1.631473E+03
       252  24 -1.154236E+05  7.753454E+00 -3.619924E+02  1.392969E+04 -2.906655E+02 -2.649589E+03
       252  25 -1.069630E+05  2.001425E+03  1.342878E+03  1.394185E+04 -1.848316E+03 -5.930533E+02
       252  26 -9.311088E+04  5.235463E+03  3.583756E+03  1.237165E+04 -1.915732E+03 -1.632178E+03
       252  27 -7.927093E+04  8.467370E+03  5.779340E+03  1.395926E+04 -1.983175E+03 -2.650266E+03
       253   1 -1.606351E+05 -1.057382E+04 -8.221047E+03  1.386191E+04 -1.355662E+03  3.249103E+03
       253   2 -1.743916E+05 -1.388042E+04 -1.104155E+04  1.237284E+04 -5.430812E+02  4.154763E+03
       253   3 -1.883248E+05 -1.746155E+04 -1.446050E+04  1.402608E+04  2.695932E+02  4.823951E+03
       253   4 -1.154437E+05  1.503675E+01 -4.756764E+02  1.392622E+04  3.636126E+02  3.249776E+03
       253   5 -1.153899E+05 -3.645557E+01 -8.331642E+02  1.235513E+04  7.790159E+02  4.155246E+03
       253   6 -1.154442E+05 -2.935464E+02 -1.513259E+03  1.392634E+04  1.194536E+03  4.824254E+03
       253   7 -7.025017E+04  1.060379E+04  7.269637E+03  1.399053E+04  2.083009E+03  3.250449E+03
       253   8 -5.638481E+04  1.380732E+04  9.375109E+03  1.233743E+04  2.101235E+03  4.155729E+03
       253   9 -4.255854E+04  1.687417E+04  1.143378E+04  1.382659E+04  2.119584E+03  4.824558E+03
       253  10 -1.606351E+05 -1.057384E+04 -8.221070E+03  1.386191E+04  5.342262E-10  7.103474E-10
       253  11 -1.743916E+05 -1.388044E+04 -1.104158E+04  1.237284E+04  1.214346E-09  1.589603E-11
       253  12 -1.883248E+05 -1.746158E+04 -1.446054E+04  1.402607E+04  6.184224E-10  8.284642E-10
       253  13 -1.154437E+05  1.502538E+01 -4.756965E+02  1.392621E+04  2.080259E-10 -1.062371E-10
       253  14 -1.153899E+05 -3.647427E+01 -8.331978E+02  1.235513E+04  7.006843E-11  9.374722E-11
       253  15 -1.154443E+05 -2.935717E+02 -1.513305E+03  1.392633E+04  4.308117E-10 -6.267793E-11
       253  16 -7.025018E+04  1.060378E+04  7.269609E+03  1.399052E+04  1.537601E-12 -5.380540E-10
       253  17 -5.638482E+04  1.380730E+04  9.375069E+03  1.233742E+04 -1.193290E-09 -2.775184E-10
       253  18 -4.255855E+04  1.687414E+04  1.143373E+04  1.382658E+04 -5.142550E-10 -4.448526E-10
       253  19 -1.606351E+05 -1.057382E+04 -8.221047E+03  1.386191E+04  1.355662E+03 -3.249103E+03
       253  20 -1.743916E+05 -1.388042E+04 -1.104155E+04  1.237284E+04  5.430812E+02 -4.154763E+03
       253  21 -1.883248E+05 -1.746155E+04 -1.446050E+04  1.402608E+04 -2.695932E+02 -4.823951E+03
       253  22 -1.154437E+05  1.503675E+01 -4.756764E+02  1.392622E+04 -3.636126E+02 -3.249776E+03
       253  23 -1.153899E+05 -3.645557E+01 -8.331642E+02  1.235513E+04 -7.790159E+02 -4.155246E+03
       253  24 -1.154442E+05 -2.935464E+02 -1.513259E+03  1.392634E+04 -1.194536E+03 -4.824254E+03
       253  25 -7.025017E+04  1.060379E+04  7.269637E+03  1.399053E+04 -2.083009E+03 -3.250449E+03
       253  26 -5.638481E+04  1.380732E+04  9.375109E+03  1.233743E+04 -2.101235E+03 -4.155729E+03
       253  27 -4.255854E+04  1.687417E+04  1.143378E+04  1.382659E+04 -2.119584E+03 -4.824558E+03
       254   1 -1.977328E+05 -1.954692E+04 -1.670429E+04  1.347197E+04  2.253830E+02  5.299358E+03
       254   2 -2.105920E+05 -2.432033E+04 -2.235129E+04  1.427146E+04  6.553683E+03  4.703846E+03
       254   3 -2.254582E+05 -3.381871E+04 -3.330060E+04  1.804019E+04  1.288272E+04  1.450817E+03
       254   4 -1.156942E+05 -1.923903E+02 -1.986901E+03  1.388757E+04  1.453130E+03  5.299756E+03
       254   5 -1.150789E+05 -1.467686E+03 -3.611141E+03  1.240411E+04  3.318214E+03  4.702618E+03
       254   6 -1.156954E+05 -6.692502E+03 -7.437318E+03  1.388988E+04  5.184139E+03  1.448103E+03
       254   7 -3.364899E+04  1.916177E+04  1.273024E+04  1.430322E+04  2.681035E+03  5.300156E+03
       254   8 -1.955712E+04  2.138443E+04  1.512861E+04  1.053645E+04  8.225901E+01  4.701409E+03
       254   9 -5.921403E+03  2.043295E+04  1.842537E+04  9.738836E+03 -2.515794E+03  1.445492E+03
       254  10 -1.977328E+05 -1.954695E+04 -1.670434E+04  1.347197E+04 -1.281524E-09  6.932083E-10
       254  11 -2.105920E+05 -2.432036E+04 -2.235141E+04  1.427144E+04  4.352852E-10  2.991213E-10
       254  12 -2.254584E+05 -3.381876E+04 -3.330092E+04  1.804017E+04  6.134922E-10  1.290485E-10
       254  13 -1.156942E+05 -1.924210E+02 -1.986958E+03  1.388756E+04  6.466963E-10  1.058104E-09
       254  14 -1.150789E+05 -1.467712E+03 -3.611203E+03  1.240409E+04 -3.672891E-10 -3.531785E-10
       254  15 -1.156954E+05 -6.692511E+03 -7.437373E+03  1.388988E+04 -7.303705E-10  7.284914E-10
       254  16 -3.364900E+04  1.916174E+04  1.273017E+04  1.430321E+04  1.112880E-09  5.537563E-10
       254  17 -1.955712E+04  2.138440E+04  1.512857E+04  1.053645E+04 -3.591034E-10  2.434300E-10
       254  18 -5.921410E+03  2.043294E+04  1.842535E+04  9.738839E+03 -1.000102E-09  3.719186E-11
       254  19 -1.977328E+05 -1.954692E+04 -1.670429E+04  1.347197E+04 -2.253830E+02 -5.299358E+03
       254  20 -2.105920E+05 -2.432033E+04 -2.235129E+04  1.427146E+04 -6.553683E+03 -4.703846E+03
       254  21 -2.254582E+05 -3.381871E+04 -3.330060E+04  1.804019E+04 -1.288272E+04 -1.450817E+03
       254  22 -1.156942E+05 -1.923903E+02 -1.986901E+03  1.388757E+04 -1.453130E+03 -5.299756E+03
       254  23 -1.150789E+05 -1.467686E+03 -3.611141E+03  1.240411E+04 -3.318214E+03 -4.702618E+03
       254  24 -1.156954E+05 -6.692502E+03 -7.437318E+03  1.388988E+04 -5.184139E+03 -1.448103E+03
       254  25 -3.364899E+04  1.916177E+04  1.273024E+04  1.430322E+04 -2.681035E+03 -5.300156E+03
       254  26 -1.955712E+04  2.138443E+04  1.512861E+04  1.053645E+04 -8.225901E+01 -4.701409E+03
       254  27 -5.921403E+03  2.043295E+04  1.842537E+04  9.738836E+03  2.515794E+03 -1.445492E+03
       255   1 -2.201361E+04  1.933490E+04  1.637917E+04  7.549112E+02 -4.696933E+03 -1.575992E+03
       255   2 -2.998999E+04  2.759531E+04  1.923940E+04  2.077380E+03 -4.271626E+03 -4.953221E+03
       255   3 -4.056753E+04  2.566609E+04  1.927650E+04  7.310467E+03 -3.847361E+03 -5.180076E+03
       255   4 -1.433165E+05 -1.081235E+04 -1.306278E+04  5.705765E+03 -8.974610E+03 -1.577472E+03
       255   5 -1.417786E+05  2.042260E+02 -5.924743E+03  3.748374E+03 -5.827921E+03 -4.953872E+03
       255   6 -1.433151E+05  5.576278E+02 -3.500399E+03  5.701671E+03 -2.682251E+03 -5.179649E+03
       255   7 -2.646058E+05 -4.096059E+04 -4.250570E+04  1.065565E+04 -1.325145E+04 -1.579020E+03
       255   8 -2.535556E+05 -2.718770E+04 -3.108968E+04  5.419064E+03 -7.383939E+03 -4.954532E+03
       255   9 -2.460528E+05 -2.455154E+04 -2.627795E+04  4.093144E+03 -1.517332E+03 -5.179228E+03
       255  10 -2.201363E+04  1.933490E+04  1.637912E+04  7.549052E+02 -8.282191E-09 -2.121751E-11
       255  11 -2.999002E+04  2.759528E+04  1.923932E+04  2.077363E+03  4.015378E-10  6.086924E-10
       255  12 -4.056755E+04  2.566606E+04  1.927642E+04  7.310451E+03  9.121344E-09  2.684833E-10
       255  13 -1.433166E+05 -1.081238E+04 -1.306293E+04  5.705753E+03 -4.377173E-10 -6.136480E-10
       255  14 -1.417787E+05  2.041906E+02 -5.924853E+03  3.748351E+03 -6.535491E-10 -1.399299E-09
       255  15 -1.433151E+05  5.575971E+02 -3.500463E+03  5.701660E+03  6.852861E-10  2.626719E-10
       255  16 -2.646060E+05 -4.096064E+04 -4.250604E+04  1.065563E+04  7.874201E-09 -2.242868E-10
       255  17 -2.535557E+05 -2.718774E+04 -3.108982E+04  5.419035E+03 -7.033897E-10  5.277309E-10
       255  18 -2.460528E+05 -2.455157E+04 -2.627800E+04  4.093137E+03 -9.545103E-09  7.218124E-12
       255  19 -2.201361E+04  1.933490E+04  1.637917E+04  7.549112E+02  4.696933E+03  1.575992E+03
       255  20 -2.998999E+04  2.759531E+04  1.923940E+04  2.077380E+03  4.271626E+03  4.953221E+03
       255  21 -4.056753E+04  2.566609E+04  1.927650E+04  7.310467E+03  3.847361E+03  5.180076E+03
       255  22 -1.433165E+05 -1.081235E+04 -1.306278E+04  5.705765E+03  8.974610E+03  1.577472E+03
       255  23 -1.417786E+05  2.042260E+02 -5.924743E+03  3.748374E+03  5.827921E+03  4.953872E+03
       255  24 -1.433151E+05  5.576278E+02 -3.500399E+03  5.701671E+03  2.682251E+03  5.179649E+03
       255  25 -2.646058E+05 -4.096059E+04 -4.250570E+04  1.065565E+04  1.325145E+04  1.579020E+03
       255  26 -2.535556E+05 -2.718770E+04 -3.108968E+04  5.419064E+03  7.383939E+03  4.954532E+03
       255  27 -2.460528E+05 -2.455154E+04 -2.627795E+04  4.093144E+03  1.517332E+03  5.179228E+03
       256   1 -4.781732E+04  2.256935E+04  1.835160E+04  5.541282E+03 -2.410383E+03 -4.582633E+03
       256   2 -5.696514E+04  2.095254E+04  1.750814E+04  3.685969E+03 -1.776144E+03 -4.246748E+03
       256   3 -6.635504E+04  1.870384E+04  1.609346E+04  5.879457E+03 -1.142039E+03 -3.769560E+03
       256   4 -1.426903E+05 -6.356637E+02 -2.791909E+03  5.733654E+03 -2.181242E+03 -4.582585E+03
       256   5 -1.425582E+05  2.966748E+01 -1.504110E+03  3.709079E+03 -1.425032E+03 -4.246628E+03
       256   6 -1.426897E+05  4.185192E+01 -8.723526E+02  5.733346E+03 -6.689477E+02 -3.769361E+03
       256   7 -2.375548E+05 -2.384129E+04 -2.393598E+04  5.925995E+03 -1.952136E+03 -4.582538E+03
       256   8 -2.281445E+05 -2.089370E+04 -2.051682E+04  3.732186E+03 -1.073968E+03 -4.246509E+03
       256   9 -2.190190E+05 -1.862053E+04 -1.783853E+04  5.587252E+03 -1.959140E+02 -3.769161E+03
       256  10 -4.781733E+04  2.256933E+04  1.835155E+04  5.541274E+03  2.549115E-10 -6.753028E-11
       256  11 -5.696515E+04  2.095252E+04  1.750810E+04  3.685963E+03 -1.632155E-10  1.147748E-09
       256  12 -6.635504E+04  1.870382E+04  1.609344E+04  5.879454E+03 -7.993526E-10  1.654152E-09
       256  13 -1.426903E+05 -6.356876E+02 -2.791957E+03  5.733646E+03  4.287399E-10  1.973185E-09
       256  14 -1.425582E+05  2.964757E+01 -1.504147E+03  3.709074E+03 -3.512660E-10 -1.336882E-09
       256  15 -1.426897E+05  4.183654E+01 -8.723801E+02  5.733344E+03 -4.202536E-10  1.382022E-09
       256  16 -2.375548E+05 -2.384131E+04 -2.393603E+04  5.925988E+03  1.237973E-10 -3.081994E-10
       256  17 -2.281445E+05 -2.089372E+04 -2.051686E+04  3.732182E+03 -6.326209E-10  1.186375E-10
       256  18 -2.190190E+05 -1.862054E+04 -1.783856E+04  5.587251E+03  5.289541E-10  4.804520E-10
       256  19 -4.781732E+04  2.256935E+04  1.835160E+04  5.541282E+03  2.410383E+03  4.582633E+03
       256  20 -5.696514E+04  2.095254E+04  1.750814E+04  3.685969E+03  1.776144E+03  4.246748E+03
       256  21 -6.635504E+04  1.870384E+04  1.609346E+04  5.879457E+03  1.142039E+03  3.769560E+03
       256  22 -1.426903E+05 -6.356637E+02 -2.791909E+03  5.733654E+03  2.181242E+03  4.582585E+03
       256  23 -1.425582E+05  2.966748E+01 -1.504110E+03  3.709079E+03  1.425032E+03  4.246628E+03
       256  24 -1.426897E+05  4.185192E+01 -8.723526E+02  5.733346E+03  6.689477E+02  3.769361E+03
       256  25 -2.375548E+05 -2.384129E+04 -2.393598E+04  5.925995E+03  1.952136E+03  4.582538E+03
       256  26 -2.281445E+05 -2.089370E+04 -2.051682E+04  3.732186E+03  1.073968E+03  4.246509E+03
       256  27 -2.190190E+05 -1.862053E+04 -1.783853E+04  5.587252E+03  1.959140E+02  3.769161E+03
       257   1 -7.413411E+04  1.671102E+04  1.451092E+04  5.769353E+03 -9.646190E+02 -3.459123E+03
       257   2 -8.340024E+04  1.448312E+04  1.275789E+04  3.737423E+03 -7.789436E+02 -2.956357E+03
       257   3 -9.270347E+04  1.221947E+04  1.087410E+04  5.769049E+03 -5.933120E+02 -2.447017E+03
       257   4 -1.426394E+05 -2.824143E+01 -6.719419E+02  5.736717E+03 -5.331525E+02 -3.458932E+03
       257   5 -1.426202E+05  8.822629E+00 -3.862101E+02  3.704917E+03 -3.418162E+02 -2.956147E+03
       257   6 -1.426390E+05  9.187771E+00 -2.351510E+02  5.736697E+03 -1.505208E+02 -2.446788E+03
       257   7 -2.111402E+05 -1.676782E+04 -1.585510E+04  5.704084E+03 -1.017331E+02 -3.458741E+03
       257   8 -2.018368E+05 -1.446571E+04 -1.353053E+04  3.672414E+03  9.526996E+01 -2.955938E+03
       257   9 -1.925722E+05 -1.220126E+04 -1.134455E+04  5.704347E+03  2.922351E+02 -2.446559E+03
       257  10 -7.413411E+04  1.671101E+04  1.451090E+04  5.769350E+03 -7.529259E-09 -1.664859E-09
       257  11 -8.340025E+04  1.448311E+04  1.275788E+04  3.737421E+03 -4.695973E-10 -2.180753E-09
       257  12 -9.270347E+04  1.221946E+04  1.087408E+04  5.769048E+03  6.319394E-09 -9.303124E-10
       257  13 -1.426394E+05 -2.825435E+01 -6.719649E+02  5.736715E+03 -1.199297E-12 -8.268224E-10
       257  14 -1.426202E+05  8.813214E+00 -3.862267E+02  3.704916E+03 -6.292225E-10 -2.044353E-09
       257  15 -1.426390E+05  9.181337E+00 -2.351623E+02  5.736697E+03  5.050247E-10 -6.254195E-10
       257  16 -2.111402E+05 -1.676784E+04 -1.585512E+04  5.704083E+03  7.089396E-09 -1.523020E-09
       257  17 -2.018368E+05 -1.446572E+04 -1.353055E+04  3.672414E+03 -7.322094E-10 -7.903153E-10
       257  18 -1.925722E+05 -1.220127E+04 -1.134456E+04  5.704348E+03 -7.084192E-09  1.513820E-09
       257  19 -7.413411E+04  1.671102E+04  1.451092E+04  5.769353E+03  9.646190E+02  3.459123E+03
       257  20 -8.340024E+04  1.448312E+04  1.275789E+04  3.737423E+03  7.789436E+02  2.956357E+03
       257  21 -9.270347E+04  1.221947E+04  1.087410E+04  5.769049E+03  5.933120E+02  2.447017E+03
       257  22 -1.426394E+05 -2.824143E+01 -6.719419E+02  5.736717E+03  5.331525E+02  3.458932E+03
       257  23 -1.426202E+05  8.822629E+00 -3.862101E+02  3.704917E+03  3.418162E+02  2.956147E+03
       257  24 -1.426390E+05  9.187771E+00 -2.351510E+02  5.736697E+03  1.505208E+02  2.446788E+03
       257  25 -2.111402E+05 -1.676782E+04 -1.585510E+04  5.704084E+03  1.017331E+02  3.458741E+03
       257  26 -2.018368E+05 -1.446571E+04 -1.353053E+04  3.672414E+03 -9.526996E+01  2.955938E+03
       257  27 -1.925722E+05 -1.220126E+04 -1.134455E+04  5.704347E+03 -2.922351E+02  2.446559E+03
       258   1 -1.005366E+05  1.028952E+04  9.127240E+03  5.759980E+03 -5.534576E+02 -2.149017E+03
       258   2 -1.098257E+05  8.022988E+03  7.141283E+03  3.719340E+03 -4.855086E+02 -1.638188E+03
       258   3 -1.191284E+05  5.757979E+03  5.110232E+03  5.746973E+03 -4.175833E+02 -1.126937E+03
       258   4 -1.426335E+05  5.598463E+00 -1.897469E+02  5.737749E+03 -1.123674E+02 -2.148781E+03
       258   5 -1.426265E+05  5.894312E+00 -1.387407E+02  3.703606E+03 -4.406053E+01 -1.637944E+03
       258   6 -1.426333E+05  7.653253E+00 -1.330772E+02  5.737748E+03  2.422359E+01 -1.126684E+03
       258   7 -1.847287E+05 -1.027844E+04 -9.506843E+03  5.715519E+03  3.286932E+02 -2.148546E+03
       258   8 -1.754263E+05 -8.011272E+03 -7.418831E+03  3.687872E+03  3.973644E+02 -1.637699E+03
       258   9 -1.661377E+05 -5.742710E+03 -5.376420E+03  5.728524E+03  4.660139E+02 -1.126430E+03
       258  10 -1.005366E+05  1.028951E+04  9.127231E+03  5.759979E+03  2.271168E-09 -9.000798E-10
       258  11 -1.098257E+05  8.022985E+03  7.141278E+03  3.719339E+03 -3.207532E-10  5.560591E-10
       258  12 -1.191284E+05  5.757977E+03  5.110229E+03  5.746972E+03 -2.061728E-09  4.588646E-10
       258  13 -1.426335E+05  5.593502E+00 -1.897556E+02  5.737749E+03 -5.451555E-10  7.167488E-10
       258  14 -1.426265E+05  5.891431E+00 -1.387458E+02  3.703605E+03  2.220615E-10 -1.565449E-09
       258  15 -1.426333E+05  7.651890E+00 -1.330796E+02  5.737748E+03  6.434129E-10 -8.298391E-10
       258  16 -1.847287E+05 -1.027844E+04 -9.506851E+03  5.715520E+03 -2.038027E-09  7.828394E-10
       258  17 -1.754263E+05 -8.011275E+03 -7.418836E+03  3.687872E+03 -1.449916E-09  9.614645E-10
       258  18 -1.661377E+05 -5.742711E+03 -5.376423E+03  5.728524E+03  8.708969E-10  3.032284E-10
       258  19 -1.005366E+05  1.028952E+04  9.127240E+03  5.759980E+03  5.534576E+02  2.149017E+03
       258  20 -1.098257E+05  8.022988E+03  7.141283E+03  3.719340E+03  4.855086E+02  1.638188E+03
       258  21 -1.191284E+05  5.757979E+03  5.110232E+03  5.746973E+03  4.175833E+02  1.126937E+03
       258  22 -1.426335E+05  5.598463E+00 -1.897469E+02  5.737749E+03  1.123674E+02  2.148781E+03
       258  23 -1.426265E+05  5.894312E+00 -1.387407E+02  3.703606E+03  4.406053E+01  1.637944E+03
       258  24 -1.426333E+05  7.653253E+00 -1.330772E+02  5.737748E+03 -2.422359E+01  1.126684E+03
       258  25 -1.847287E+05 -1.027844E+04 -9.506843E+03  5.715519E+03 -3.286932E+02  2.148546E+03
       258  26 -1.754263E+05 -8.011272E+03 -7.418831E+03  3.687872E+03 -3.973644E+02  1.637699E+03
       258  27 -1.661377E+05 -5.742710E+03 -5.376420E+03  5.728524E+03 -4.660139E+02  1.126430E+03
       259   1 -1.269746E+05  3.829982E+03  3.303644E+03  5.742572E+03 -3.925505E+02 -8.292391E+02
       259   2 -1.362656E+05  1.561481E+03  1.205269E+03  3.699402E+03 -2.907987E+02 -3.177719E+02
       259   3 -1.455757E+05 -7.078533E+02 -9.609149E+02  5.726528E+03 -1.890541E+02  1.935461E+02
       259   4 -1.426345E+05  7.692740E+00 -1.455906E+02  5.738195E+03  4.930432E+01 -8.289821E+02
       259   5 -1.426248E+05  7.168707E+00 -2.061290E+02  3.703046E+03  1.509200E+02 -3.175135E+02
       259   6 -1.426344E+05  5.804862E+00 -3.344153E+02  5.738196E+03  2.525299E+02  1.938063E+02
       259   7 -1.582941E+05 -3.814613E+03 -3.594840E+03  5.733818E+03  4.911481E+02 -8.287252E+02
       259   8 -1.489839E+05 -1.547146E+03 -1.617529E+03  3.706691E+03  5.926342E+02 -3.172550E+02
       259   9 -1.396932E+05  7.194626E+02  2.920844E+02  5.749864E+03  6.941160E+02  1.940665E+02
       259  10 -1.269746E+05  3.829981E+03  3.303642E+03  5.742571E+03 -7.486924E-11  4.401811E-10
       259  11 -1.362656E+05  1.561481E+03  1.205269E+03  3.699402E+03  1.619145E-09 -7.991217E-10
       259  12 -1.455757E+05 -7.078534E+02 -9.609150E+02  5.726528E+03 -6.268801E-10 -2.633580E-10
       259  13 -1.426345E+05  7.692001E+00 -1.455919E+02  5.738195E+03  4.327920E-10  1.771719E-09
       259  14 -1.426248E+05  7.168592E+00 -2.061292E+02  3.703046E+03  6.525655E-10 -1.064471E-09
       259  15 -1.426344E+05  5.804804E+00 -3.344155E+02  5.738196E+03  6.296684E-11 -6.777281E-10
       259  16 -1.582941E+05 -3.814614E+03 -3.594841E+03  5.733819E+03  5.476864E-10  4.702882E-10
       259  17 -1.489839E+05 -1.547147E+03 -1.617530E+03  3.706691E+03 -1.261782E-09 -2.547934E-09
       259  18 -1.396932E+05  7.194624E+02  2.920835E+02  5.749864E+03  9.997624E-10 -1.472759E-09
       259  19 -1.269746E+05  3.829982E+03  3.303644E+03  5.742572E+03  3.925505E+02  8.292391E+02
       259  20 -1.362656E+05  1.561481E+03  1.205269E+03  3.699402E+03  2.907987E+02  3.177719E+02
       259  21 -1.455757E+05 -7.078533E+02 -9.609149E+02  5.726528E+03  1.890541E+02 -1.935461E+02
       259  22 -1.426345E+05  7.692740E+00 -1.455906E+02  5.738195E+03 -4.930432E+01  8.289821E+02
       259  23 -1.426248E+05  7.168707E+00 -2.061290E+02  3.703046E+03 -1.509200E+02  3.175135E+02
       259  24 -1.426344E+05  5.804862E+00 -3.344153E+02  5.738196E+03 -2.525299E+02 -1.938063E+02
       259  25 -1.582941E+05 -3.814613E+03 -3.594840E+03  5.733818E+03 -4.911481E+02  8.287252E+02
       259  26 -1.489839E+05 -1.547146E+03 -1.617529E+03  3.706691E+03 -5.926342E+02  3.172550E+02
       259  27 -1.396932E+05  7.194626E+02  2.920844E+02  5.749864E+03 -6.941160E+02 -1.940665E+02
       260   1 -1.534339E+05 -2.629289E+03 -2.853589E+03  5.708990E+03 -1.213313E+02  4.916960E+02
       260   2 -1.626961E+05 -4.894582E+03 -5.199851E+03  3.675849E+03  2.498885E+02  1.002342E+03
       260   3 -1.720315E+05 -7.236481E+03 -7.808349E+03  5.711991E+03  6.211244E+02  1.508557E+03
       260   4 -1.426463E+05  1.278079E+01 -4.328456E+02  5.737955E+03  3.215122E+02  4.919558E+02
       260   5 -1.426101E+05  1.506120E+01 -7.412208E+02  3.703339E+03  6.889146E+02  1.002594E+03
       260   6 -1.426464E+05 -5.855724E+01 -1.309132E+03  5.737997E+03  1.056339E+03  1.508801E+03
       260   7 -1.318585E+05  2.654843E+03  1.987892E+03  5.766920E+03  7.643634E+02  4.922156E+02
       260   8 -1.225237E+05  4.924677E+03  3.717385E+03  3.730830E+03  1.127955E+03  1.002846E+03
       260   9 -1.132605E+05  7.119309E+03  5.190033E+03  5.764005E+03  1.491573E+03  1.509046E+03
       260  10 -1.534339E+05 -2.629289E+03 -2.853590E+03  5.708990E+03 -1.545085E-09  1.431341E-10
       260  11 -1.626961E+05 -4.894583E+03 -5.199853E+03  3.675849E+03 -9.820522E-10 -1.764488E-09
       260  12 -1.720315E+05 -7.236484E+03 -7.808354E+03  5.711990E+03  1.457525E-10 -6.124065E-10
       260  13 -1.426463E+05  1.278050E+01 -4.328463E+02  5.737955E+03  5.448381E-10 -3.976464E-10
       260  14 -1.426101E+05  1.505999E+01 -7.412236E+02  3.703339E+03 -6.901674E-10  2.701101E-10
       260  15 -1.426464E+05 -5.855999E+01 -1.309138E+03  5.737996E+03  3.112266E-10  7.025784E-10
       260  16 -1.318585E+05  2.654842E+03  1.987890E+03  5.766920E+03  1.052825E-09  9.822487E-10
       260  17 -1.225237E+05  4.924676E+03  3.717381E+03  3.730829E+03 -5.320823E-10 -8.927639E-10
       260  18 -1.132605E+05  7.119306E+03  5.190024E+03  5.764003E+03 -7.459802E-10  3.475182E-10
       260  19 -1.534339E+05 -2.629289E+03 -2.853589E+03  5.708990E+03  1.213313E+02 -4.916960E+02
       260  20 -1.626961E+05 -4.894582E+03 -5.199851E+03  3.675849E+03 -2.498885E+02 -1.002342E+03
       260  21 -1.720315E+05 -7.236481E+03 -7.808349E+03  5.711991E+03 -6.211244E+02 -1.508557E+03
       260  22 -1.426463E+05  1.278079E+01 -4.328456E+02  5.737955E+03 -3.215122E+02 -4.919558E+02
       260  23 -1.426101E+05  1.506120E+01 -7.412208E+02  3.703339E+03 -6.889146E+02 -1.002594E+03
       260  24 -1.426464E+05 -5.855724E+01 -1.309132E+03  5.737997E+03 -1.056339E+03 -1.508801E+03
       260  25 -1.318585E+05  2.654843E+03  1.987892E+03  5.766920E+03 -7.643634E+02 -4.922156E+02
       260  26 -1.225237E+05  4.924677E+03  3.717385E+03  3.730830E+03 -1.127955E+03 -1.002846E+03
       260  27 -1.132605E+05  7.119309E+03  5.190033E+03  5.764005E+03 -1.491573E+03 -1.509046E+03
       261   1 -1.799744E+05 -9.025960E+03 -9.992843E+03  5.488824E+03  8.574977E+02  1.815484E+03
       261   2 -1.889995E+05 -1.131311E+04 -1.328173E+04  3.789277E+03  2.423026E+03  2.304749E+03
       261   3 -1.985581E+05 -1.490022E+04 -1.791615E+04  6.152030E+03  3.988609E+03  2.696765E+03
       261   4 -1.427457E+05  7.905011E+01 -1.704843E+03  5.736222E+03  1.321425E+03  1.815740E+03
       261   5 -1.424865E+05  5.805924E+01 -2.946970E+03  3.705441E+03  2.803048E+03  2.304944E+03
       261   6 -1.427462E+05 -1.248247E+03 -5.476278E+03  5.736947E+03  4.284751E+03  2.696903E+03
       261   7 -1.055158E+05  9.183967E+03  6.583071E+03  5.983634E+03  1.785379E+03  1.815996E+03
       261   8 -9.597143E+04  1.142909E+04  7.387654E+03  3.621599E+03  3.183099E+03  2.305140E+03
       261   9 -8.693134E+04  1.240351E+04  6.963404E+03  5.321825E+03  4.580919E+03  2.697041E+03
       261  10 -1.799744E+05 -9.025964E+03 -9.992851E+03  5.488823E+03  4.121471E-10 -2.456881E-10
       261  11 -1.889995E+05 -1.131312E+04 -1.328175E+04  3.789273E+03  2.062257E-10  9.587592E-10
       261  12 -1.985581E+05 -1.490023E+04 -1.791620E+04  6.152021E+03 -4.879951E-10 -1.212187E-09
       261  13 -1.427457E+05  7.904610E+01 -1.704853E+03  5.736220E+03 -9.802778E-10 -1.819537E-09
       261  14 -1.424865E+05  5.805143E+01 -2.946994E+03  3.705436E+03 -3.017057E-10  9.239513E-10
       261  15 -1.427462E+05 -1.248260E+03 -5.476326E+03  5.736937E+03 -5.705129E-10  3.870684E-10
       261  16 -1.055158E+05  9.183963E+03  6.583058E+03  5.983632E+03 -9.143186E-10 -8.247317E-10
       261  17 -9.597144E+04  1.142908E+04  7.387624E+03  3.621593E+03 -7.538083E-10 -1.562883E-09
       261  18 -8.693137E+04  1.240350E+04  6.963351E+03  5.321815E+03  5.910344E-10  9.003178E-10
       261  19 -1.799744E+05 -9.025960E+03 -9.992843E+03  5.488824E+03 -8.574977E+02 -1.815484E+03
       261  20 -1.889995E+05 -1.131311E+04 -1.328173E+04  3.789277E+03 -2.423026E+03 -2.304749E+03
       261  21 -1.985581E+05 -1.490022E+04 -1.791615E+04  6.152030E+03 -3.988609E+03 -2.696765E+03
       261  22 -1.427457E+05  7.905011E+01 -1.704843E+03  5.736222E+03 -1.321425E+03 -1.815740E+03
       261  23 -1.424865E+05  5.805924E+01 -2.946970E+03  3.705441E+03 -2.803048E+03 -2.304944E+03
       261  24 -1.427462E+05 -1.248247E+03 -5.476278E+03  5.736947E+03 -4.284751E+03 -2.696903E+03
       261  25 -1.055158E+05  9.183967E+03  6.583071E+03  5.983634E+03 -1.785379E+03 -1.815996E+03
       261  26 -9.597143E+04  1.142909E+04  7.387654E+03  3.621599E+03 -3.183099E+03 -2.305140E+03
       261  27 -8.693134E+04  1.240351E+04  6.963404E+03  5.321825E+03 -4.580919E+03 -2.697041E+03
       262   1 -2.076598E+05 -1.447522E+04 -2.099371E+04  2.594173E+03  4.327160E+03  3.201083E+03
       262   2 -2.137817E+05 -1.744312E+04 -2.803242E+04  7.045389E+03  1.237218E+04  3.209006E+03
       262   3 -2.262689E+05 -4.166777E+04 -4.562473E+04  1.546936E+04  2.041795E+04  1.047456E+03
       262   4 -1.439729E+05  1.093833E+03 -6.867288E+03  5.713774E+03  5.267783E+03  3.201572E+03
       262   5 -1.409541E+05  4.030089E+02 -1.162418E+04  3.732723E+03  1.143938E+04  3.208451E+03
       262   6 -1.439748E+05 -2.121808E+04 -2.563271E+04  5.724636E+03  1.761190E+04  1.045805E+03
       262   7 -8.028215E+04  1.666265E+04  7.258893E+03  8.833698E+03  6.208502E+03  3.202070E+03
       262   8 -6.812154E+04  1.824881E+04  4.783730E+03  4.196644E+02  1.050647E+04  3.207906E+03
       262   9 -6.167426E+04 -7.685185E+02 -5.641104E+03 -4.021387E+03  1.480547E+04  1.044242E+03
       262  10 -2.076598E+05 -1.447524E+04 -2.099377E+04  2.594162E+03 -1.962810E-10 -7.186652E-10
       262  11 -2.137819E+05 -1.744317E+04 -2.803273E+04  7.045357E+03  1.287931E-10 -6.751594E-10
       262  12 -2.262693E+05 -4.166789E+04 -4.562552E+04  1.546934E+04  7.616900E-10  7.928755E-10
       262  13 -1.439729E+05  1.093815E+03 -6.867359E+03  5.713761E+03 -2.509655E-13  4.940538E-10
       262  14 -1.409542E+05  4.029627E+02 -1.162445E+04  3.732694E+03 -6.707578E-10  1.015060E-09
       262  15 -1.439751E+05 -2.121816E+04 -2.563330E+04  5.724621E+03 -4.358321E-10  1.542548E-10
       262  16 -8.028219E+04  1.666263E+04  7.258802E+03  8.833682E+03  8.498817E-11  9.098210E-10
       262  17 -6.812166E+04  1.824877E+04  4.783503E+03  4.196373E+02 -2.027519E-09  2.088562E-09
       262  18 -6.167449E+04 -7.685785E+02 -5.641518E+03 -4.021399E+03 -8.600985E-10  4.608109E-10
       262  19 -2.076598E+05 -1.447522E+04 -2.099371E+04  2.594173E+03 -4.327160E+03 -3.201083E+03
       262  20 -2.137817E+05 -1.744312E+04 -2.803242E+04  7.045389E+03 -1.237218E+04 -3.209006E+03
       262  21 -2.262689E+05 -4.166777E+04 -4.562473E+04  1.546936E+04 -2.041795E+04 -1.047456E+03
       262  22 -1.439729E+05  1.093833E+03 -6.867288E+03  5.713774E+03 -5.267783E+03 -3.201572E+03
       262  23 -1.409541E+05  4.030089E+02 -1.162418E+04  3.732723E+03 -1.143938E+04 -3.208451E+03
       262  24 -1.439748E+05 -2.121808E+04 -2.563271E+04  5.724636E+03 -1.761190E+04 -1.045805E+03
       262  25 -8.028215E+04  1.666265E+04  7.258893E+03  8.833698E+03 -6.208502E+03 -3.202070E+03
       262  26 -6.812154E+04  1.824881E+04  4.783730E+03  4.196644E+02 -1.050647E+04 -3.207906E+03
       262  27 -6.167426E+04 -7.685185E+02 -5.641104E+03 -4.021387E+03 -1.480547E+04 -1.044242E+03

 stresses (elem, integ.pnt.,sxx,syy,szz,sxy,sxz,syz) for set ELALL and time  0.5000000E+00

         1   1  1.560749E+04  1.019577E+05  1.335779E+05  1.714257E+03  9.114680E+04  2.516742E-01
         1   2 -4.941902E+03 -2.467552E+04  5.689756E+04  4.294991E+02  6.000358E+04  4.151152E-02
         1   3  1.560476E+04 -3.151767E+03  3.753649E+04 -8.552433E+02  2.885956E+04 -3.975529E-02
         1   4  1.560748E+04  1.019577E+05  1.335779E+05 -2.325346E-07  9.114680E+04 -3.527023E-10
         1   5 -4.941902E+03 -2.467552E+04  5.689756E+04 -4.375680E-07  6.000358E+04  5.161503E-10
         1   6  1.560476E+04 -3.151769E+03  3.753649E+04  1.114973E-06  2.885956E+04 -2.853127E-10
         1   7  1.560749E+04  1.019577E+05  1.335779E+05 -1.714257E+03  9.114680E+04 -2.516742E-01
         1   8 -4.941902E+03 -2.467552E+04  5.689756E+04 -4.294991E+02  6.000358E+04 -4.151152E-02
         1   9  1.560476E+04 -3.151767E+03  3.753649E+04  8.552433E+02  2.885956E+04  3.975529E-02
         1  10  1.559857E+04  1.019555E+05  1.335623E+05  1.714257E+03  1.077042E-09  1.077412E-09
         1  11 -4.945768E+03 -2.467649E+04  5.689080E+04  4.294991E+02 -1.615427E-09  5.396889E-10
         1  12  1.560387E+04 -3.151991E+03  3.753493E+04 -8.552433E+02  2.649866E-10 -2.672189E-10
         1  13  1.559856E+04  1.019555E+05  1.335623E+05 -5.082495E-07 -8.414073E-12  1.346372E-10
         1  14 -4.945768E+03 -2.467649E+04  5.689080E+04 -2.402844E-08  2.154000E-09  4.038632E-10
         1  15  1.560387E+04 -3.151992E+03  3.753493E+04  5.635690E-07  5.302059E-10  1.346144E-10
         1  16  1.559857E+04  1.019555E+05  1.335623E+05 -1.714257E+03  2.154073E-09 -3.059640E-13
         1  17 -4.945768E+03 -2.467649E+04  5.689080E+04 -4.294991E+02  3.231032E-09 -1.247702E-12
         1  18  1.560387E+04 -3.151991E+03  3.753493E+04  8.552433E+02  2.814575E-09  1.325774E-10
         1  19  1.560749E+04  1.019577E+05  1.335779E+05  1.714257E+03 -9.114680E+04 -2.516742E-01
         1  20 -4.941902E+03 -2.467552E+04  5.689756E+04  4.294991E+02 -6.000358E+04 -4.151152E-02
         1  21  1.560476E+04 -3.151767E+03  3.753649E+04 -8.552433E+02 -2.885956E+04  3.975529E-02
         1  22  1.560748E+04  1.019577E+05  1.335779E+05  3.188952E-07 -9.114680E+04  2.953976E-10
         1  23 -4.941902E+03 -2.467552E+04  5.689756E+04  1.138181E-07 -6.000358E+04 -4.339029E-12
         1  24  1.560476E+04 -3.151769E+03  3.753649E+04  1.270056E-06 -2.885956E+04  5.532596E-10
         1  25  1.560749E+04  1.019577E+05  1.335779E+05 -1.714257E+03 -9.114680E+04  2.516742E-01
         1  26 -4.941902E+03 -2.467552E+04  5.689756E+04 -4.294991E+02 -6.000358E+04  4.151152E-02
         1  27  1.560476E+04 -3.151767E+03  3.753649E+04  8.552433E+02 -2.885956E+04 -3.975529E-02
         2   1  7.990753E+03  1.601675E+04  3.110476E+04  2.581636E+02  2.261017E+04  9.401990E-03
         2   2  4.573770E+03 -3.879935E+03  1.473373E+04  6.062118E+01  1.485448E+04  1.450455E-03
         2   3  7.990615E+03 -4.810761E+02  9.236136E+03 -1.369210E+02  7.098822E+03 -1.565584E-03
         2   4  7.990753E+03  1.601675E+04  3.110476E+04  7.502613E-08  2.261017E+04 -2.337316E-10
         2   5  4.573770E+03 -3.879935E+03  1.473373E+04 -3.848085E-07  1.485448E+04  4.215661E-10
         2   6  7.990615E+03 -4.810761E+02  9.236136E+03  5.683415E-07  7.098822E+03  2.749107E-11
         2   7  7.990753E+03  1.601675E+04  3.110476E+04 -2.581636E+02  2.261017E+04 -9.401991E-03
         2   8  4.573770E+03 -3.879935E+03  1.473373E+04 -6.062118E+01  1.485448E+04 -1.450455E-03
         2   9  7.990615E+03 -4.810761E+02  9.236136E+03  1.369210E+02  7.098822E+03  1.565584E-03
         2  10  7.990204E+03  1.601661E+04  3.110380E+04  2.581636E+02 -1.081874E-09  2.856264E-10
         2  11  4.573533E+03 -3.879994E+03  1.473331E+04  6.062118E+01 -1.076710E-09  1.474764E-10
         2  12  7.990561E+03 -4.810896E+02  9.236042E+03 -1.369210E+02 -2.636025E-10 -1.049158E-10
         2  13  7.990204E+03  1.601661E+04  3.110380E+04 -3.385334E-07  2.151838E-09  4.848358E-11
         2  14  4.573533E+03 -3.879994E+03  1.473331E+04 -2.469568E-07  1.076855E-09  1.282704E-10
         2  15  7.990561E+03 -4.810897E+02  9.236042E+03  1.203206E-07 -2.734026E-10  2.066640E-11
         2  16  7.990204E+03  1.601661E+04  3.110380E+04 -2.581636E+02  1.616166E-09 -2.948858E-10
         2  17  4.573533E+03 -3.879994E+03  1.473331E+04 -6.062118E+01 -1.077454E-09 -5.394306E-11
         2  18  7.990561E+03 -4.810896E+02  9.236042E+03  1.369210E+02 -8.122773E-10  1.329802E-10
         2  19  7.990753E+03  1.601675E+04  3.110476E+04  2.581636E+02 -2.261017E+04 -9.401991E-03
         2  20  4.573770E+03 -3.879935E+03  1.473373E+04  6.062118E+01 -1.485448E+04 -1.450454E-03
         2  21  7.990615E+03 -4.810761E+02  9.236136E+03 -1.369210E+02 -7.098822E+03  1.565584E-03
         2  22  7.990753E+03  1.601675E+04  3.110476E+04  4.885857E-07 -2.261017E+04  4.639920E-10
         2  23  4.573770E+03 -3.879935E+03  1.473373E+04 -4.017931E-08 -1.485448E+04 -2.149561E-10
         2  24  7.990615E+03 -4.810761E+02  9.236136E+03  4.304889E-07 -7.098822E+03 -2.049964E-11
         2  25  7.990753E+03  1.601675E+04  3.110476E+04 -2.581636E+02 -2.261017E+04  9.401991E-03
         2  26  4.573770E+03 -3.879935E+03  1.473373E+04 -6.062118E+01 -1.485448E+04  1.450454E-03
         2  27  7.990615E+03 -4.810761E+02  9.236136E+03  1.369210E+02 -7.098822E+03 -1.565584E-03
         3   1  6.731919E+03  2.503658E+03  7.428066E+03  3.766766E+01  5.584336E+03  3.388136E-04
         3   2  6.147039E+03 -6.095846E+02  3.809736E+03  7.785192E+00  3.627514E+03  4.548825E-05
         3   3  6.731919E+03 -6.290159E+01  2.380338E+03 -2.209684E+01  1.670724E+03 -5.946433E-05
         3   4  6.731919E+03  2.503658E+03  7.428066E+03 -2.522128E-07  5.584336E+03 -9.490501E-11
         3   5  6.147039E+03 -6.095846E+02  3.809736E+03  2.755147E-07  3.627514E+03  1.383276E-10
         3   6  6.731919E+03 -6.290159E+01  2.380338E+03  1.139755E-07  1.670724E+03 -1.836050E-10
         3   7  6.731919E+03  2.503658E+03  7.428066E+03 -3.766766E+01  5.584336E+03 -3.388135E-04
         3   8  6.147039E+03 -6.095846E+02  3.809736E+03 -7.785192E+00  3.627514E+03 -4.548830E-05
         3   9  6.731919E+03 -6.290159E+01  2.380338E+03  2.209684E+01  1.670724E+03  5.946415E-05
         3  10  6.731885E+03  2.503650E+03  7.428008E+03  3.766765E+01 -1.080014E-09 -3.113957E-11
         3  11  6.147024E+03 -6.095881E+02  3.809711E+03  7.785190E+00  5.392878E-10  8.861400E-11
         3  12  6.731916E+03 -6.290234E+01  2.380333E+03 -2.209685E+01 -4.572714E-09 -3.907296E-11
         3  13  6.731885E+03  2.503650E+03  7.428008E+03  2.991990E-07  2.153315E-09  6.589174E-12
         3  14  6.147024E+03 -6.095881E+02  3.809711E+03  2.065883E-07 -3.230941E-09  4.807598E-11
         3  15  6.731916E+03 -6.290234E+01  2.380333E+03  9.410931E-07 -5.369120E-10 -4.426596E-11
         3  16  6.731885E+03  2.503650E+03  7.428008E+03 -3.766765E+01  3.440473E-12  6.970417E-11
         3  17  6.147024E+03 -6.095881E+02  3.809711E+03 -7.785190E+00  3.230299E-09  3.684398E-11
         3  18  6.731916E+03 -6.290234E+01  2.380333E+03  2.209685E+01  9.386754E-10 -5.149049E-11
         3  19  6.731919E+03  2.503658E+03  7.428066E+03  3.766765E+01 -5.584336E+03 -3.388136E-04
         3  20  6.147039E+03 -6.095846E+02  3.809736E+03  7.785192E+00 -3.627514E+03 -4.548830E-05
         3  21  6.731919E+03 -6.290159E+01  2.380338E+03 -2.209685E+01 -1.670724E+03  5.946427E-05
         3  22  6.731919E+03  2.503658E+03  7.428066E+03 -1.143598E-07 -5.584336E+03  6.307967E-11
         3  23  6.147039E+03 -6.095846E+02  3.809736E+03  4.133675E-07 -3.627514E+03 -3.420421E-11
         3  24  6.731919E+03 -6.290159E+01  2.380338E+03  8.032401E-07 -1.670724E+03  8.959914E-11
         3  25  6.731919E+03  2.503658E+03  7.428066E+03 -3.766765E+01 -5.584336E+03  3.388134E-04
         3  26  6.147039E+03 -6.095846E+02  3.809736E+03 -7.785191E+00 -3.627514E+03  4.548817E-05
         3  27  6.731919E+03 -6.290159E+01  2.380338E+03  2.209685E+01 -1.670724E+03 -5.946434E-05
         4   1  6.525970E+03  3.868735E+02  1.928349E+03  5.741598E+00  1.279589E+03  1.183362E-05
         4   2  6.404472E+03 -1.095933E+02  1.193429E+03  7.620881E-01  6.766557E+02  8.307857E-07
         4   3  6.525971E+03  5.189575E+01  1.015538E+03 -4.217496E+00  7.371337E+01 -5.009888E-07
         4   4  6.525970E+03  3.868735E+02  1.928349E+03 -2.660432E-07  1.279589E+03 -1.229455E-10
         4   5  6.404472E+03 -1.095933E+02  1.193429E+03 -3.689753E-07  6.766557E+02  1.772256E-10
         4   6  6.525971E+03  5.189575E+01  1.015538E+03  6.136863E-07  7.371337E+01 -2.113849E-10
         4   7  6.525970E+03  3.868735E+02  1.928349E+03 -5.741600E+00  1.279589E+03 -1.183377E-05
         4   8  6.404472E+03 -1.095933E+02  1.193429E+03 -7.620890E-01  6.766557E+02 -8.303696E-07
         4   9  6.525971E+03  5.189575E+01  1.015538E+03  4.217498E+00  7.371337E+01  5.005592E-07
         4  10  6.525968E+03  3.868731E+02  1.928346E+03  5.741599E+00 -1.081406E-09 -2.919292E-11
         4  11  6.404471E+03 -1.095934E+02  1.193428E+03  7.620877E-01 -2.153174E-09  7.073492E-11
         4  12  6.525971E+03  5.189574E+01  1.015538E+03 -4.217498E+00  5.439397E-10 -7.037026E-11
         4  13  6.525968E+03  3.868731E+02  1.928346E+03  9.662801E-09  2.795281E-13 -3.860891E-11
         4  14  6.404471E+03 -1.095934E+02  1.193428E+03  2.513630E-07  1.076698E-09  5.037263E-11
         4  15  6.525971E+03  5.189574E+01  1.015538E+03  7.950585E-08 -5.389349E-10 -6.701226E-11
         4  16  6.525968E+03  3.868731E+02  1.928346E+03 -5.741599E+00  4.773015E-12 -4.999706E-11
         4  17  6.404471E+03 -1.095934E+02  1.193428E+03 -7.620869E-01  1.615400E-09  2.738068E-11
         4  18  6.525971E+03  5.189574E+01  1.015538E+03  4.217499E+00  2.283287E-09 -6.439798E-11
         4  19  6.525970E+03  3.868735E+02  1.928349E+03  5.741600E+00 -1.279589E+03 -1.183374E-05
         4  20  6.404472E+03 -1.095933E+02  1.193429E+03  7.620876E-01 -6.766557E+02 -8.306361E-07
         4  21  6.525971E+03  5.189575E+01  1.015538E+03 -4.217496E+00 -7.371337E+01  5.008319E-07
         4  22  6.525970E+03  3.868735E+02  1.928349E+03  5.610748E-07 -1.279589E+03  4.541553E-11
         4  23  6.404472E+03 -1.095933E+02  1.193429E+03  1.824365E-07 -6.766557E+02 -7.899761E-11
         4  24  6.525971E+03  5.189575E+01  1.015538E+03  6.136862E-07 -7.371337E+01  7.545715E-11
         4  25  6.525970E+03  3.868735E+02  1.928349E+03 -5.741599E+00 -1.279589E+03  1.183376E-05
         4  26  6.404472E+03 -1.095933E+02  1.193429E+03 -7.620867E-01 -6.766557E+02  8.304582E-07
         4  27  6.525971E+03  5.189575E+01  1.015538E+03  4.217497E+00 -7.371337E+01 -5.006682E-07
         5   1  6.527742E+03  4.855635E+01  1.021564E+03  4.359678E+00 -1.110733E+02 -7.802632E-07
         5   2  6.402258E+03 -1.134118E+02  1.227286E+03 -7.993491E-01 -7.312062E+02  9.415145E-07
         5   3  6.527741E+03  4.055040E+02  2.006961E+03 -5.958370E+00 -1.351339E+03  1.296919E-05
         5   4  6.527742E+03  4.855635E+01  1.021564E+03  1.820806E-07 -1.110733E+02 -2.627902E-10
         5   5  6.402258E+03 -1.134118E+02  1.227286E+03  2.538758E-07 -7.312062E+02  8.947558E-11
         5   6  6.527741E+03  4.055040E+02  2.006961E+03  6.358402E-07 -1.351339E+03  1.682828E-11
         5   7  6.527742E+03  4.855635E+01  1.021564E+03 -4.359677E+00 -1.110733E+02  7.797297E-07
         5   8  6.402258E+03 -1.134118E+02  1.227286E+03  7.993479E-01 -7.312062E+02 -9.413757E-07
         5   9  6.527741E+03  4.055040E+02  2.006961E+03  5.958370E+00 -1.351339E+03 -1.296915E-05
         5  10  6.527742E+03  4.855634E+01  1.021564E+03  4.359677E+00 -1.082506E-09 -8.395670E-11
         5  11  6.402257E+03 -1.134120E+02  1.227285E+03 -7.993483E-01 -3.230818E-09  3.701906E-11
         5  12  6.527739E+03  4.055035E+02  2.006958E+03 -5.958372E+00 -3.984731E-10 -2.883924E-11
         5  13  6.527742E+03  4.855634E+01  1.021564E+03 -3.693313E-07 -5.090169E-13 -6.286390E-11
         5  14  6.402257E+03 -1.134120E+02  1.227285E+03  4.709632E-08 -2.154334E-09  5.158516E-11
         5  15  6.527739E+03  4.055035E+02  2.006958E+03  5.669137E-07  1.076504E-09 -6.964660E-11
         5  16  6.527742E+03  4.855634E+01  1.021564E+03 -4.359678E+00 -1.071187E-09 -3.598679E-11
         5  17  6.402257E+03 -1.134120E+02  1.227285E+03  7.993479E-01  5.383686E-10  6.431115E-11
         5  18  6.527739E+03  4.055035E+02  2.006958E+03  5.958372E+00  1.340846E-09 -1.084437E-10
         5  19  6.527742E+03  4.855635E+01  1.021564E+03  4.359678E+00  1.110733E+02  7.800862E-07
         5  20  6.402258E+03 -1.134118E+02  1.227286E+03 -7.993472E-01  7.312062E+02 -9.414091E-07
         5  21  6.527741E+03  4.055040E+02  2.006961E+03 -5.958371E+00  1.351339E+03 -1.296925E-05
         5  22  6.527742E+03  4.855635E+01  1.021564E+03  3.199337E-07  1.110733E+02  1.389896E-10
         5  23  6.402258E+03 -1.134118E+02  1.227286E+03  5.985082E-07  7.312062E+02  1.425335E-11
         5  24  6.527741E+03  4.055040E+02  2.006961E+03  1.325105E-06  1.351339E+03 -1.531964E-10
         5  25  6.527742E+03  4.855635E+01  1.021564E+03 -4.359680E+00  1.110733E+02 -7.797952E-07
         5  26  6.402258E+03 -1.134118E+02  1.227286E+03  7.993495E-01  7.312062E+02  9.414948E-07
         5  27  6.527741E+03  4.055040E+02  2.006961E+03  5.958373E+00  1.351339E+03  1.296897E-05
         6   1  6.744198E+03 -6.677784E+01  2.483698E+03  2.314903E+01 -1.758966E+03 -6.558583E-05
         6   2  6.131691E+03 -6.385174E+02  3.986043E+03 -8.154620E+00 -3.806440E+03  4.999749E-05
         6   3  6.744198E+03  2.623341E+03  7.779801E+03 -3.945778E+01 -5.853888E+03  3.720469E-04
         6   4  6.744198E+03 -6.677784E+01  2.483698E+03  5.026140E-07 -1.758966E+03  7.019196E-11
         6   5  6.131691E+03 -6.385174E+02  3.986043E+03  5.174844E-07 -3.806440E+03  1.539924E-10
         6   6  6.744198E+03  2.623341E+03  7.779801E+03  7.046753E-07 -5.853888E+03 -3.890240E-10
         6   7  6.744198E+03 -6.677784E+01  2.483698E+03 -2.314903E+01 -1.758966E+03  6.558591E-05
         6   8  6.131691E+03 -6.385174E+02  3.986043E+03  8.154621E+00 -3.806440E+03 -4.999713E-05
         6   9  6.744198E+03  2.623341E+03  7.779801E+03  3.945778E+01 -5.853888E+03 -3.720471E-04
         6  10  6.744194E+03 -6.677867E+01  2.483693E+03  2.314903E+01 -2.163385E-09 -9.636888E-12
         6  11  6.131675E+03 -6.385213E+02  3.986016E+03 -8.154620E+00 -1.613147E-09  1.329505E-10
         6  12  6.744161E+03  2.623332E+03  7.779736E+03 -3.945778E+01 -1.198233E-09 -2.233572E-10
         6  13  6.744194E+03 -6.677867E+01  2.483693E+03  2.269082E-07 -2.153859E-09 -1.395129E-11
         6  14  6.131675E+03 -6.385213E+02  3.986016E+03  5.864107E-07 -2.153533E-09  1.529452E-10
         6  15  6.744161E+03  2.623332E+03  7.779736E+03  9.459179E-07  5.391244E-10 -1.850074E-10
         6  16  6.744194E+03 -6.677867E+01  2.483693E+03 -2.314903E+01 -2.145485E-09 -3.509348E-11
         6  17  6.131675E+03 -6.385213E+02  3.986016E+03  8.154623E+00 -2.155496E-09  1.771463E-10
         6  18  6.744161E+03  2.623332E+03  7.779736E+03  3.945778E+01  2.678734E-09 -3.128333E-10
         6  19  6.744198E+03 -6.677784E+01  2.483698E+03  2.314903E+01  1.758966E+03  6.558587E-05
         6  20  6.131691E+03 -6.385174E+02  3.986043E+03 -8.154623E+00  3.806440E+03 -4.999659E-05
         6  21  6.744198E+03  2.623341E+03  7.779801E+03 -3.945778E+01  5.853888E+03 -3.720468E-04
         6  22  6.744198E+03 -6.677784E+01  2.483698E+03  7.783199E-07  1.758966E+03 -9.703194E-11
         6  23  6.131691E+03 -6.385174E+02  3.986043E+03  5.174843E-07  3.806440E+03  1.389834E-10
         6  24  6.744198E+03  2.623341E+03  7.779801E+03  1.531793E-06  5.853888E+03  2.939583E-11
         6  25  6.744198E+03 -6.677784E+01  2.483698E+03 -2.314903E+01  1.758966E+03 -6.558609E-05
         6  26  6.131691E+03 -6.385174E+02  3.986043E+03  8.154621E+00  3.806440E+03  4.999705E-05
         6  27  6.744198E+03  2.623341E+03  7.779801E+03  3.945778E+01  5.853888E+03  3.720462E-04
         7   1  8.063166E+03 -5.042308E+02  9.675130E+03  1.434667E+02 -7.440337E+03 -1.719346E-03
         7   2  4.483093E+03 -4.065365E+03  1.543669E+04 -6.351908E+01 -1.556593E+04  1.592582E-03
         7   3  8.063321E+03  1.678252E+04  3.259085E+04 -2.705082E+02 -2.369167E+04  1.032280E-02
         7   4  8.063166E+03 -5.042308E+02  9.675130E+03  4.974505E-07 -7.440337E+03 -1.274127E-10
         7   5  4.483093E+03 -4.065365E+03  1.543669E+04 -3.469786E-07 -1.556593E+04  6.226691E-10
         7   6  8.063321E+03  1.678252E+04  3.259085E+04 -3.689437E-08 -2.369167E+04  1.055404E-09
         7   7  8.063166E+03 -5.042308E+02  9.675130E+03 -1.434667E+02 -7.440337E+03  1.719346E-03
         7   8  4.483093E+03 -4.065365E+03  1.543669E+04  6.351909E+01 -1.556593E+04 -1.592584E-03
         7   9  8.063321E+03  1.678252E+04  3.259085E+04  2.705082E+02 -2.369167E+04 -1.032280E-02
         7  10  8.063107E+03 -5.042457E+02  9.675026E+03  1.434667E+02 -2.170293E-09 -1.060811E-10
         7  11  4.482833E+03 -4.065430E+03  1.543623E+04 -6.351909E+01  1.074166E-09  3.657152E-10
         7  12  8.062718E+03  1.678237E+04  3.258980E+04 -2.705082E+02 -2.276690E-09  1.583419E-10
         7  13  8.063107E+03 -5.042457E+02  9.675026E+03  3.595981E-07  2.148514E-09 -1.598050E-10
         7  14  4.482833E+03 -4.065430E+03  1.543623E+04 -7.127535E-08 -1.077417E-09  2.004402E-10
         7  15  8.062718E+03  1.678237E+04  3.258980E+04 -4.676857E-07  2.691249E-10  1.480874E-10
         7  16  8.063107E+03 -5.042457E+02  9.675026E+03 -1.434667E+02 -2.135943E-09 -1.462207E-10
         7  17  4.482833E+03 -4.065430E+03  1.543623E+04  6.351909E+01 -5.359203E-10  3.751294E-10
         7  18  8.062718E+03  1.678237E+04  3.258980E+04  2.705082E+02  3.764575E-09  2.883970E-10
         7  19  8.063166E+03 -5.042308E+02  9.675130E+03  1.434667E+02  7.440337E+03  1.719348E-03
         7  20  4.483093E+03 -4.065365E+03  1.543669E+04 -6.351909E+01  1.556593E+04 -1.592581E-03
         7  21  8.063321E+03  1.678252E+04  3.259085E+04 -2.705082E+02  2.369167E+04 -1.032279E-02
         7  22  8.063166E+03 -5.042308E+02  9.675130E+03  7.731558E-07  7.440337E+03 -1.831549E-10
         7  23  4.483093E+03 -4.065365E+03  1.543669E+04 -6.226819E-07  1.556593E+04 -1.328043E-10
         7  24  8.063321E+03  1.678252E+04  3.259085E+04  3.766651E-07  2.369167E+04 -7.679093E-10
         7  25  8.063166E+03 -5.042308E+02  9.675130E+03 -1.434667E+02  7.440337E+03 -1.719346E-03
         7  26  4.483093E+03 -4.065365E+03  1.543669E+04  6.351908E+01  1.556593E+04  1.592581E-03
         7  27  8.063321E+03  1.678252E+04  3.259085E+04  2.705082E+02  2.369167E+04  1.032279E-02
         8   1  1.604129E+04 -3.302324E+03  3.933031E+04  8.961177E+02 -3.023977E+04 -4.364743E-02
         8   2 -5.487348E+03 -2.585495E+04  5.961776E+04 -4.500267E+02 -6.287231E+04  4.557508E-02
         8   3  1.604430E+04  1.068319E+05  1.399644E+05 -1.796209E+03 -9.550449E+04  2.763135E-01
         8   4  1.604129E+04 -3.302325E+03  3.933031E+04  8.323553E-08 -3.023977E+04 -7.156066E-10
         8   5 -5.487348E+03 -2.585495E+04  5.961776E+04 -4.734686E-07 -6.287231E+04 -4.083210E-09
         8   6  1.604429E+04  1.068319E+05  1.399644E+05  3.827947E-07 -9.550449E+04 -1.298180E-09
         8   7  1.604129E+04 -3.302324E+03  3.933031E+04 -8.961177E+02 -3.023977E+04  4.364744E-02
         8   8 -5.487348E+03 -2.585495E+04  5.961776E+04  4.500267E+02 -6.287231E+04 -4.557508E-02
         8   9  1.604430E+04  1.068319E+05  1.399644E+05  1.796209E+03 -9.550449E+04 -2.763135E-01
         8  10  1.604031E+04 -3.302569E+03  3.932859E+04  8.961177E+02 -4.269705E-09 -5.200718E-10
         8  11 -5.491592E+03 -2.585601E+04  5.961033E+04 -4.500267E+02 -2.216903E-13 -1.326585E-09
         8  12  1.603451E+04  1.068294E+05  1.399473E+05 -1.796209E+03  9.871881E-11  2.424323E-10
         8  13  1.604031E+04 -3.302571E+03  3.932859E+04  8.323527E-08 -4.314377E-09 -5.134223E-10
         8  14 -5.491592E+03 -2.585601E+04  5.961033E+04 -5.993018E-08 -3.234758E-09 -1.392473E-09
         8  15  1.603450E+04  1.068294E+05  1.399473E+05  4.172594E-07 -2.434032E-09 -5.290187E-10
         8  16  1.604031E+04 -3.302569E+03  3.932859E+04 -8.961177E+02 -3.420891E-11 -8.262017E-10
         8  17 -5.491592E+03 -2.585601E+04  5.961033E+04  4.500267E+02  5.349764E-10 -1.231062E-09
         8  18  1.603451E+04  1.068294E+05  1.399473E+05  1.796209E+03  1.651068E-09  2.291911E-10
         8  19  1.604129E+04 -3.302324E+03  3.933031E+04  8.961177E+02  3.023977E+04  4.364744E-02
         8  20 -5.487348E+03 -2.585495E+04  5.961776E+04 -4.500267E+02  6.287231E+04 -4.557507E-02
         8  21  1.604430E+04  1.068319E+05  1.399644E+05 -1.796209E+03  9.550449E+04 -2.763135E-01
         8  22  1.604129E+04 -3.302325E+03  3.933031E+04  9.103413E-07  3.023977E+04 -4.336561E-10
         8  23 -5.487348E+03 -2.585495E+04  5.961776E+04 -1.288532E-07  6.287231E+04  1.387013E-09
         8  24  1.604429E+04  1.068319E+05  1.399644E+05  2.091876E-08  9.550449E+04  4.597747E-11
         8  25  1.604129E+04 -3.302324E+03  3.933031E+04 -8.961177E+02  3.023977E+04 -4.364744E-02
         8  26 -5.487348E+03 -2.585495E+04  5.961776E+04  4.500267E+02  6.287231E+04  4.557507E-02
         8  27  1.604430E+04  1.068319E+05  1.399644E+05  1.796209E+03  9.550449E+04  2.763135E-01
         9   1  1.383168E+06  5.045383E+06  1.312400E+06 -9.621287E+05  6.405836E+04  5.003549E+05
         9   2  1.115790E+06  4.301973E+06  8.839342E+05 -8.845964E+05  2.135546E+05  2.290353E+05
         9   3  9.213327E+05  3.613466E+06  6.497290E+05 -9.224544E+05  2.487649E+05 -4.186528E+04
         9   4  6.051239E+04 -3.348195E+05  6.417726E+04 -9.140223E+05  6.490362E+04  4.226235E+04
         9   5  1.976842E+04 -3.390837E+05  3.413837E+04 -8.563940E+05  2.141649E+05  2.535923E+04
         9   6  8.246011E+03 -3.326701E+05  2.259257E+04 -9.141472E+05  2.487633E+05  8.519981E+03
         9   7 -1.264060E+06 -5.687975E+06 -1.185207E+06 -8.663044E+05  6.568428E+04 -4.119139E+05
         9   8 -1.077448E+06 -4.959223E+06 -8.163814E+05 -8.283829E+05  2.147602E+05 -1.768432E+05
         9   9 -9.056149E+05 -4.263363E+06 -6.049346E+05 -9.058734E+05  2.487630E+05  5.859789E+04
         9  10  1.383097E+06  5.045115E+06  1.311925E+06 -9.621546E+05  7.618355E-10 -2.299932E-09
         9  11  1.115727E+06  4.301905E+06  8.837503E+05 -8.846357E+05 -8.577860E-10 -9.683048E-10
         9  12  9.212658E+05  3.613447E+06  6.496096E+05 -9.224460E+05 -3.551932E-10  5.142798E-10
         9  13  6.050738E+04 -3.348225E+05  6.416597E+04 -9.140245E+05 -3.009791E-10 -5.031518E-11
         9  14  1.971899E+04 -3.390967E+05  3.405095E+04 -8.563984E+05 -5.212972E-09 -4.125092E-11
         9  15  8.179548E+03 -3.326868E+05  2.247615E+04 -9.141489E+05 -6.745943E-10 -2.235685E-11
         9  16 -1.264110E+06 -5.688160E+06 -1.185536E+06 -8.662826E+05 -1.408356E-09  2.058443E-09
         9  17 -1.077506E+06 -4.959269E+06 -8.165270E+05 -8.283522E+05 -5.756809E-09  9.140388E-10
         9  18 -9.056823E+05 -4.263384E+06 -6.050575E+05 -9.058852E+05 -8.395223E-10 -5.258981E-10
         9  19  1.383168E+06  5.045383E+06  1.312400E+06 -9.621287E+05 -6.405836E+04 -5.003549E+05
         9  20  1.115790E+06  4.301973E+06  8.839342E+05 -8.845964E+05 -2.135546E+05 -2.290353E+05
         9  21  9.213327E+05  3.613466E+06  6.497290E+05 -9.224544E+05 -2.487649E+05  4.186528E+04
         9  22  6.051239E+04 -3.348195E+05  6.417726E+04 -9.140223E+05 -6.490362E+04 -4.226235E+04
         9  23  1.976842E+04 -3.390837E+05  3.413837E+04 -8.563940E+05 -2.141649E+05 -2.535923E+04
         9  24  8.246011E+03 -3.326701E+05  2.259257E+04 -9.141472E+05 -2.487633E+05 -8.519981E+03
         9  25 -1.264060E+06 -5.687975E+06 -1.185207E+06 -8.663044E+05 -6.568428E+04  4.119139E+05
         9  26 -1.077448E+06 -4.959223E+06 -8.163814E+05 -8.283829E+05 -2.147602E+05  1.768432E+05
         9  27 -9.056149E+05 -4.263363E+06 -6.049346E+05 -9.058734E+05 -2.487630E+05 -5.859789E+04
        10   1  8.131258E+05  3.158636E+06  5.599877E+05 -9.263672E+05  2.308824E+05 -4.854411E+04
        10   2  6.425103E+05  2.439052E+06  4.257344E+05 -8.595879E+05  1.997539E+05 -8.979402E+04
        10   3  4.846740E+05  1.728449E+06  3.214261E+05 -9.165307E+05  1.545241E+05 -1.310898E+05
        10   4  7.838335E+03 -3.337476E+05  2.006089E+04 -9.160078E+05  2.308299E+05  5.129556E+03
        10   5  7.321295E+03 -3.346155E+05  1.988314E+04 -8.541258E+05  1.995339E+05 -4.844203E+03
        10   6  1.420951E+04 -3.324095E+05  2.800290E+04 -9.159976E+05  1.541039E+05 -1.490834E+04
        10   7 -7.980403E+05 -3.813976E+06 -5.201337E+05 -9.056912E+05  2.307789E+05  5.851388E+04
        10   8 -6.282200E+05 -3.100536E+06 -3.860738E+05 -8.486778E+05  1.993146E+05  7.974294E+04
        10   9 -4.564397E+05 -2.388951E+06 -2.654313E+05 -9.154595E+05  1.536830E+05  1.009049E+05
        10  10  8.130680E+05  3.158619E+06  5.598832E+05 -9.263582E+05 -1.652982E-09 -9.918325E-10
        10  11  6.424653E+05  2.439033E+06  4.256444E+05 -8.595735E+05  1.372731E-09 -1.835440E-10
        10  12  4.846438E+05  1.728424E+06  3.213491E+05 -9.165144E+05 -4.717678E-09  3.072190E-10
        10  13  7.781120E+03 -3.337620E+05  1.996072E+04 -9.160088E+05  1.742680E-09 -1.165085E-10
        10  14  7.278546E+03 -3.346262E+05  1.980829E+04 -8.541250E+05 -1.372752E-10 -1.877858E-10
        10  15  1.418395E+04 -3.324161E+05  2.795788E+04 -9.159958E+05 -1.059566E-09 -1.336482E-10
        10  16 -7.980985E+05 -3.813994E+06 -5.202404E+05 -9.057022E+05 -6.311747E-10  8.865451E-10
        10  17 -6.282644E+05 -3.100553E+06 -3.861605E+05 -8.486906E+05 -1.430649E-09 -1.447754E-10
        10  18 -4.564678E+05 -2.388968E+06 -2.654950E+05 -9.154721E+05  8.483991E-10 -3.489744E-10
        10  19  8.131258E+05  3.158636E+06  5.599877E+05 -9.263672E+05 -2.308824E+05  4.854411E+04
        10  20  6.425103E+05  2.439052E+06  4.257344E+05 -8.595879E+05 -1.997539E+05  8.979402E+04
        10  21  4.846740E+05  1.728449E+06  3.214261E+05 -9.165307E+05 -1.545241E+05  1.310898E+05
        10  22  7.838335E+03 -3.337476E+05  2.006089E+04 -9.160078E+05 -2.308299E+05 -5.129556E+03
        10  23  7.321295E+03 -3.346155E+05  1.988314E+04 -8.541258E+05 -1.995339E+05  4.844203E+03
        10  24  1.420951E+04 -3.324095E+05  2.800290E+04 -9.159976E+05 -1.541039E+05  1.490834E+04
        10  25 -7.980403E+05 -3.813976E+06 -5.201337E+05 -9.056912E+05 -2.307789E+05 -5.851388E+04
        10  26 -6.282200E+05 -3.100536E+06 -3.860738E+05 -8.486778E+05 -1.993146E+05 -7.974294E+04
        10  27 -4.564397E+05 -2.388951E+06 -2.654313E+05 -9.154595E+05 -1.536830E+05 -1.009049E+05
        11   1  3.853142E+05  1.285081E+06  2.619028E+05 -9.190623E+05  1.233881E+05 -1.363010E+05
        11   2  2.469747E+05  5.625923E+05  1.854775E+05 -8.179906E+05  7.044000E+04 -1.692262E+05
        11   3  1.593249E+05 -1.430879E+05  1.429574E+05 -8.416081E+05  1.671298E+04 -2.021481E+05
        11   4  1.728683E+04 -3.292412E+05  3.508551E+04 -9.162222E+05  1.229292E+05 -1.977007E+04
        11   5  4.253495E+04 -3.369891E+05  6.086291E+04 -8.537224E+05  6.995311E+04 -5.101805E+04
        11   6  1.182111E+05 -3.287862E+05  1.193388E+05 -9.158774E+05  1.620187E+04 -8.229491E+04
        11   7 -3.508498E+05 -1.940897E+06 -1.917152E+05 -9.133854E+05  1.224706E+05  9.647165E+04
        11   8 -1.619278E+05 -1.235716E+06 -6.370800E+04 -8.893990E+05  6.945213E+04  6.702657E+04
        11   9  7.712449E+04 -5.144062E+05  9.577709E+04 -9.901235E+05  1.566196E+04  3.752413E+04
        11  10  3.852930E+05  1.285057E+06  2.618395E+05 -9.190488E+05 -1.762895E-09 -2.955785E-09
        11  11  2.469617E+05  5.625602E+05  1.854145E+05 -8.179811E+05 -1.161239E-09 -2.217614E-10
        11  12  1.593137E+05 -1.431319E+05  1.428801E+05 -8.416054E+05 -7.105029E-10  2.268041E-09
        11  13  1.727051E+04 -3.292457E+05  3.505640E+04 -9.162202E+05 -2.416492E-09  3.673296E-13
        11  14  4.252900E+04 -3.369932E+05  6.084885E+04 -8.537196E+05  2.292402E-09 -1.136835E-10
        11  15  1.182090E+05 -3.287935E+05  1.193256E+05 -9.158763E+05 -3.551607E-10  3.180139E-11
        11  16 -3.508684E+05 -1.940911E+06 -1.917610E+05 -9.133949E+05  6.888668E-10  3.054638E-09
        11  17 -1.619342E+05 -1.235722E+06 -6.372556E+04 -8.894027E+05 -1.052437E-09  3.008882E-10
        11  18  7.712384E+04 -5.144077E+05  9.577398E+04 -9.901239E+05 -6.949236E-10 -2.357728E-09
        11  19  3.853142E+05  1.285081E+06  2.619028E+05 -9.190623E+05 -1.233881E+05  1.363010E+05
        11  20  2.469747E+05  5.625923E+05  1.854775E+05 -8.179906E+05 -7.044000E+04  1.692262E+05
        11  21  1.593249E+05 -1.430879E+05  1.429574E+05 -8.416081E+05 -1.671298E+04  2.021481E+05
        11  22  1.728683E+04 -3.292412E+05  3.508551E+04 -9.162222E+05 -1.229292E+05  1.977007E+04
        11  23  4.253495E+04 -3.369891E+05  6.086291E+04 -8.537224E+05 -6.995311E+04  5.101805E+04
        11  24  1.182111E+05 -3.287862E+05  1.193388E+05 -9.158774E+05 -1.620187E+04  8.229491E+04
        11  25 -3.508498E+05 -1.940897E+06 -1.917152E+05 -9.133854E+05 -1.224706E+05 -9.647165E+04
        11  26 -1.619278E+05 -1.235716E+06 -6.370800E+04 -8.893990E+05 -6.945213E+04 -6.702657E+04
        11  27  7.712449E+04 -5.144062E+05  9.577709E+04 -9.901235E+05 -1.566196E+04 -3.752413E+04
        12   1 -4.351377E+06 -1.299048E+06 -8.907191E+05 -1.473576E+06 -5.220870E+05 -1.939088E+05
        12   2 -4.185386E+06 -5.373323E+05 -3.987460E+05 -1.618907E+06 -3.364758E+05 -1.212077E+05
        12   3 -4.332167E+06 -6.113205E+05 -2.700633E+05 -1.573908E+06 -1.494052E+05 -5.239893E+04
        12   4 -4.171643E+06 -1.143036E+06 -8.235008E+05 -1.334329E+06 -5.211411E+05 -1.936481E+05
        12   5 -3.973934E+06 -4.347005E+05 -3.363286E+05 -1.538140E+06 -3.363629E+05 -1.211811E+05
        12   6 -4.088722E+06 -5.617494E+05 -2.116952E+05 -1.551659E+06 -1.501142E+05 -5.265140E+04
        12   7 -3.991858E+06 -9.869603E+05 -7.562830E+05 -1.195032E+06 -5.201949E+05 -1.933869E+05
        12   8 -3.762437E+06 -3.320569E+05 -2.739157E+05 -1.457345E+06 -3.362498E+05 -1.211545E+05
        12   9 -3.845216E+06 -5.121797E+05 -1.533300E+05 -1.529408E+06 -1.508235E+05 -5.290385E+04
        12  10 -4.351682E+06 -1.299163E+06 -8.913066E+05 -1.473657E+06  1.328399E-10  2.182525E-10
        12  11 -4.185513E+06 -5.373789E+05 -3.989882E+05 -1.618940E+06  1.526106E-09  7.823599E-10
        12  12 -4.332192E+06 -6.113295E+05 -2.701107E+05 -1.573914E+06  1.444686E-09  1.600988E-09
        12  13 -4.171947E+06 -1.143150E+06 -8.240860E+05 -1.334411E+06  2.349791E-10 -1.360902E-10
        12  14 -3.974060E+06 -4.347470E+05 -3.365706E+05 -1.538173E+06 -2.310157E-09 -6.018174E-11
        12  15 -4.088747E+06 -5.617585E+05 -2.117431E+05 -1.551666E+06 -1.800738E-09  1.045725E-09
        12  16 -3.992161E+06 -9.870739E+05 -7.568659E+05 -1.195114E+06  2.431408E-12 -4.988497E-10
        12  17 -3.762563E+06 -3.321033E+05 -2.741575E+05 -1.457378E+06  7.757544E-10 -2.074553E-10
        12  18 -3.845241E+06 -5.121888E+05 -1.533783E+05 -1.529414E+06 -1.894365E-10  1.113421E-09
        12  19 -4.351377E+06 -1.299048E+06 -8.907191E+05 -1.473576E+06  5.220870E+05  1.939088E+05
        12  20 -4.185386E+06 -5.373323E+05 -3.987460E+05 -1.618907E+06  3.364758E+05  1.212077E+05
        12  21 -4.332167E+06 -6.113205E+05 -2.700633E+05 -1.573908E+06  1.494052E+05  5.239893E+04
        12  22 -4.171643E+06 -1.143036E+06 -8.235008E+05 -1.334329E+06  5.211411E+05  1.936481E+05
        12  23 -3.973934E+06 -4.347005E+05 -3.363286E+05 -1.538140E+06  3.363629E+05  1.211811E+05
        12  24 -4.088722E+06 -5.617494E+05 -2.116952E+05 -1.551659E+06  1.501142E+05  5.265140E+04
        12  25 -3.991858E+06 -9.869603E+05 -7.562830E+05 -1.195032E+06  5.201949E+05  1.933869E+05
        12  26 -3.762437E+06 -3.320569E+05 -2.739157E+05 -1.457345E+06  3.362498E+05  1.211545E+05
        12  27 -3.845216E+06 -5.121797E+05 -1.533300E+05 -1.529408E+06  1.508235E+05  5.290385E+04
        13   1 -4.171764E+06 -7.143326E+05 -2.074379E+05 -1.543850E+06 -1.179502E+05 -4.177465E+04
        13   2 -4.138075E+06 -5.830615E+05 -1.055668E+05 -1.543359E+06 -7.573175E+04 -2.642598E+04
        13   3 -4.124946E+06 -5.991405E+05 -6.741281E+04 -1.546692E+06 -3.326304E+04 -1.173891E+04
        13   4 -4.059366E+06 -6.598144E+05 -1.742390E+05 -1.500947E+06 -1.179762E+05 -4.178732E+04
        13   5 -4.043139E+06 -5.443013E+05 -7.897912E+04 -1.514635E+06 -7.589858E+04 -2.648881E+04
        13   6 -4.047433E+06 -5.760980E+05 -4.731437E+04 -1.532149E+06 -3.357201E+04 -1.185392E+04
        13   7 -3.946956E+06 -6.052929E+05 -1.410414E+05 -1.458037E+06 -1.180023E+05 -4.179999E+04
        13   8 -3.948193E+06 -5.055402E+05 -5.239236E+04 -1.485908E+06 -7.606543E+04 -2.655165E+04
        13   9 -3.969916E+06 -5.530556E+05 -2.721643E+04 -1.517605E+06 -3.388102E+04 -1.196894E+04
        13  10 -4.171780E+06 -7.143383E+05 -2.074675E+05 -1.543854E+06  2.859836E-09  6.994999E-10
        13  11 -4.138082E+06 -5.830638E+05 -1.055789E+05 -1.543360E+06  6.600104E-10  9.424004E-10
        13  12 -4.124947E+06 -5.991410E+05 -6.741517E+04 -1.546692E+06 -5.909662E-10 -3.684803E-11
        13  13 -4.059382E+06 -6.598201E+05 -1.742687E+05 -1.500951E+06  1.884624E-09  1.186823E-09
        13  14 -4.043145E+06 -5.443036E+05 -7.899135E+04 -1.514637E+06 -2.124741E-09  5.048230E-10
        13  15 -4.047435E+06 -5.760984E+05 -4.731676E+04 -1.532150E+06  2.894643E-10  1.973756E-10
        13  16 -3.946971E+06 -6.052986E+05 -1.410711E+05 -1.458041E+06 -1.873533E-09  1.329301E-09
        13  17 -3.948200E+06 -5.055425E+05 -5.240465E+04 -1.485910E+06 -1.358503E-09 -6.468497E-10
        13  18 -3.969917E+06 -5.530561E+05 -2.721887E+04 -1.517606E+06  3.158151E-10 -7.926912E-11
        13  19 -4.171764E+06 -7.143326E+05 -2.074379E+05 -1.543850E+06  1.179502E+05  4.177465E+04
        13  20 -4.138075E+06 -5.830615E+05 -1.055668E+05 -1.543359E+06  7.573175E+04  2.642598E+04
        13  21 -4.124946E+06 -5.991405E+05 -6.741281E+04 -1.546692E+06  3.326304E+04  1.173891E+04
        13  22 -4.059366E+06 -6.598144E+05 -1.742390E+05 -1.500947E+06  1.179762E+05  4.178732E+04
        13  23 -4.043139E+06 -5.443013E+05 -7.897912E+04 -1.514635E+06  7.589858E+04  2.648881E+04
        13  24 -4.047433E+06 -5.760980E+05 -4.731437E+04 -1.532149E+06  3.357201E+04  1.185392E+04
        13  25 -3.946956E+06 -6.052929E+05 -1.410414E+05 -1.458037E+06  1.180023E+05  4.179999E+04
        13  26 -3.948193E+06 -5.055402E+05 -5.239236E+04 -1.485908E+06  7.606543E+04  2.655165E+04
        13  27 -3.969916E+06 -5.530556E+05 -2.721643E+04 -1.517605E+06  3.388102E+04  1.196894E+04
        14   1 -4.001508E+06 -5.759023E+05 -2.659184E+04 -1.515110E+06 -2.607271E+04 -9.865048E+03
        14   2 -3.987946E+06 -5.360029E+05 -5.862343E+02 -1.494212E+06 -1.618073E+04 -7.248079E+03
        14   3 -3.951811E+06 -5.433622E+05  1.365005E+04 -1.503926E+06 -6.312496E+03 -4.565702E+03
        14   4 -4.042941E+06 -5.899297E+05 -3.771178E+04 -1.524641E+06 -2.628974E+04 -9.946207E+03
        14   5 -4.053371E+06 -5.603367E+05 -1.844274E+04 -1.511553E+06 -1.638375E+04 -7.323967E+03
        14   6 -4.041232E+06 -5.780062E+05 -1.095427E+04 -1.529076E+06 -6.501924E+03 -4.636518E+03
        14   7 -4.084372E+06 -6.039572E+05 -4.883190E+04 -1.534172E+06 -2.650676E+04 -1.002736E+04
        14   8 -4.118793E+06 -5.846703E+05 -3.629966E+04 -1.528891E+06 -1.658675E+04 -7.399847E+03
        14   9 -4.130646E+06 -6.126497E+05 -3.555937E+04 -1.554223E+06 -6.691323E+03 -4.707321E+03
        14  10 -4.001508E+06 -5.759026E+05 -2.659331E+04 -1.515110E+06 -1.270665E-09  6.381166E-10
        14  11 -3.987946E+06 -5.360030E+05 -5.868293E+02 -1.494212E+06 -4.388324E-09  4.593376E-10
        14  12 -3.951811E+06 -5.433622E+05  1.364994E+04 -1.503926E+06 -1.810517E-09  6.040581E-10
        14  13 -4.042941E+06 -5.899300E+05 -3.771328E+04 -1.524641E+06 -5.866653E-10  4.198500E-10
        14  14 -4.053372E+06 -5.603368E+05 -1.844334E+04 -1.511553E+06 -1.716939E-09  6.193381E-10
        14  15 -4.041232E+06 -5.780062E+05 -1.095439E+04 -1.529076E+06 -5.934642E-11  3.882084E-10
        14  16 -4.084373E+06 -6.039575E+05 -4.883342E+04 -1.534172E+06  2.509008E-09  4.786006E-11
        14  17 -4.118793E+06 -5.846705E+05 -3.630029E+04 -1.528891E+06  5.230199E-09  3.431425E-10
        14  18 -4.130646E+06 -6.126498E+05 -3.555950E+04 -1.554223E+06 -3.766256E-10  4.731956E-10
        14  19 -4.001508E+06 -5.759023E+05 -2.659184E+04 -1.515110E+06  2.607271E+04  9.865048E+03
        14  20 -3.987946E+06 -5.360029E+05 -5.862343E+02 -1.494212E+06  1.618073E+04  7.248079E+03
        14  21 -3.951811E+06 -5.433622E+05  1.365005E+04 -1.503926E+06  6.312496E+03  4.565702E+03
        14  22 -4.042941E+06 -5.899297E+05 -3.771178E+04 -1.524641E+06  2.628974E+04  9.946207E+03
        14  23 -4.053371E+06 -5.603367E+05 -1.844274E+04 -1.511553E+06  1.638375E+04  7.323967E+03
        14  24 -4.041232E+06 -5.780062E+05 -1.095427E+04 -1.529076E+06  6.501924E+03  4.636518E+03
        14  25 -4.084372E+06 -6.039572E+05 -4.883190E+04 -1.534172E+06  2.650676E+04  1.002736E+04
        14  26 -4.118793E+06 -5.846703E+05 -3.629966E+04 -1.528891E+06  1.658675E+04  7.399847E+03
        14  27 -4.130646E+06 -6.126497E+05 -3.555937E+04 -1.554223E+06  6.691323E+03  4.707321E+03
        15   1 -3.853841E+06 -5.069788E+05  4.300230E+04 -1.474943E+06 -4.432324E+03 -4.509758E+03
        15   2 -3.846355E+06 -4.872513E+05  5.141566E+04 -1.458148E+06 -1.616189E+03 -4.436580E+03
        15   3 -3.818398E+06 -4.917870E+05  5.728454E+04 -1.465424E+06  1.056095E+03 -3.976950E+03
        15   4 -4.042420E+06 -5.779323E+05 -8.712311E+03 -1.525749E+06 -4.666271E+03 -4.597301E+03
        15   5 -4.052543E+06 -5.650764E+05 -5.076375E+03 -1.513978E+06 -1.764538E+03 -4.492196E+03
        15   6 -4.042211E+06 -5.765018E+05 -4.053659E+03 -1.526279E+06  9.932477E+02 -4.000606E+03
        15   7 -4.230966E+06 -6.488837E+05 -6.043005E+04 -1.576540E+06 -4.900138E+03 -4.684815E+03
        15   8 -4.258689E+06 -6.428990E+05 -6.157224E+04 -1.569791E+06 -1.912832E+03 -4.547792E+03
        15   9 -4.265975E+06 -6.612137E+05 -6.539649E+04 -1.587114E+06  9.304259E+02 -4.024253E+03
        15  10 -3.853841E+06 -5.069788E+05  4.300223E+04 -1.474943E+06  2.597682E-09 -1.806471E-09
        15  11 -3.846355E+06 -4.872513E+05  5.141562E+04 -1.458148E+06  1.004193E-09  5.256549E-11
        15  12 -3.818398E+06 -4.917870E+05  5.728450E+04 -1.465424E+06  7.337948E-10  1.606528E-10
        15  13 -4.042420E+06 -5.779323E+05 -8.712392E+03 -1.525749E+06 -2.085038E-09 -5.963870E-10
        15  14 -4.052543E+06 -5.650764E+05 -5.076419E+03 -1.513978E+06  5.319587E-10 -1.787904E-09
        15  15 -4.042211E+06 -5.765018E+05 -4.053691E+03 -1.526279E+06 -1.590525E-09 -1.737096E-10
        15  16 -4.230966E+06 -6.488837E+05 -6.043014E+04 -1.576540E+06 -1.761557E-10 -1.059500E-09
        15  17 -4.258689E+06 -6.428991E+05 -6.157229E+04 -1.569791E+06 -3.020761E-09 -4.811827E-10
        15  18 -4.265975E+06 -6.612138E+05 -6.539652E+04 -1.587114E+06 -2.235922E-09  2.398803E-09
        15  19 -3.853841E+06 -5.069788E+05  4.300230E+04 -1.474943E+06  4.432324E+03  4.509758E+03
        15  20 -3.846355E+06 -4.872513E+05  5.141566E+04 -1.458148E+06  1.616189E+03  4.436580E+03
        15  21 -3.818398E+06 -4.917870E+05  5.728454E+04 -1.465424E+06 -1.056095E+03  3.976950E+03
        15  22 -4.042420E+06 -5.779323E+05 -8.712311E+03 -1.525749E+06  4.666271E+03  4.597301E+03
        15  23 -4.052543E+06 -5.650764E+05 -5.076375E+03 -1.513978E+06  1.764538E+03  4.492196E+03
        15  24 -4.042211E+06 -5.765018E+05 -4.053659E+03 -1.526279E+06 -9.932477E+02  4.000606E+03
        15  25 -4.230966E+06 -6.488837E+05 -6.043005E+04 -1.576540E+06  4.900138E+03  4.684815E+03
        15  26 -4.258689E+06 -6.428990E+05 -6.157224E+04 -1.569791E+06  1.912832E+03  4.547792E+03
        15  27 -4.265975E+06 -6.612137E+05 -6.539649E+04 -1.587114E+06 -9.304259E+02  4.024253E+03
        16   1 -3.769092E+06 -4.686751E+05  7.181974E+04 -1.447444E+06  1.927726E+03 -3.990995E+03
        16   2 -3.767032E+06 -4.629928E+05  7.226368E+04 -1.442496E+06  4.441670E+03 -3.566971E+03
        16   3 -3.759684E+06 -4.658543E+05  7.037927E+04 -1.443766E+06  6.754414E+03 -2.606205E+03
        16   4 -4.045599E+06 -5.730424E+05 -3.995697E+03 -1.522304E+06  1.766093E+03 -4.051737E+03
        16   5 -4.048329E+06 -5.694340E+05 -4.856754E+03 -1.518942E+06  4.398964E+03 -3.583170E+03
        16   6 -4.045795E+06 -5.743940E+05 -8.141713E+03 -1.521798E+06  6.830575E+03 -2.577750E+03
        16   7 -4.322032E+06 -6.774053E+05 -7.981803E+04 -1.597134E+06  1.604540E+03 -4.112450E+03
        16   8 -4.329549E+06 -6.758707E+05 -8.198442E+04 -1.595357E+06  4.356279E+03 -3.599361E+03
        16   9 -4.331827E+06 -6.829291E+05 -8.667029E+04 -1.599798E+06  6.906695E+03 -2.549310E+03
        16  10 -3.769092E+06 -4.686751E+05  7.181971E+04 -1.447444E+06  7.857115E-10  1.206947E-09
        16  11 -3.767032E+06 -4.629928E+05  7.226362E+04 -1.442496E+06 -1.748178E-09 -2.209473E-09
        16  12 -3.759684E+06 -4.658544E+05  7.037917E+04 -1.443766E+06 -2.340521E-09  2.472853E-10
        16  13 -4.045599E+06 -5.730424E+05 -3.995734E+03 -1.522304E+06 -2.536410E-09 -8.040645E-10
        16  14 -4.048329E+06 -5.694340E+05 -4.856815E+03 -1.518942E+06 -3.682013E-10 -2.411717E-09
        16  15 -4.045795E+06 -5.743940E+05 -8.141814E+03 -1.521798E+06  1.296958E-11 -7.179530E-10
        16  16 -4.322032E+06 -6.774053E+05 -7.981806E+04 -1.597134E+06 -2.873493E-10  8.051119E-10
        16  17 -4.329549E+06 -6.758707E+05 -8.198448E+04 -1.595357E+06  2.145376E-09  5.288971E-10
        16  18 -4.331827E+06 -6.829291E+05 -8.667039E+04 -1.599798E+06 -1.555010E-09 -2.405903E-10
        16  19 -3.769092E+06 -4.686751E+05  7.181974E+04 -1.447444E+06 -1.927726E+03  3.990995E+03
        16  20 -3.767032E+06 -4.629928E+05  7.226368E+04 -1.442496E+06 -4.441670E+03  3.566971E+03
        16  21 -3.759684E+06 -4.658543E+05  7.037927E+04 -1.443766E+06 -6.754414E+03  2.606205E+03
        16  22 -4.045599E+06 -5.730424E+05 -3.995697E+03 -1.522304E+06 -1.766093E+03  4.051737E+03
        16  23 -4.048329E+06 -5.694340E+05 -4.856754E+03 -1.518942E+06 -4.398964E+03  3.583170E+03
        16  24 -4.045795E+06 -5.743940E+05 -8.141713E+03 -1.521798E+06 -6.830575E+03  2.577750E+03
        16  25 -4.322032E+06 -6.774053E+05 -7.981803E+04 -1.597134E+06 -1.604540E+03  4.112450E+03
        16  26 -4.329549E+06 -6.758707E+05 -8.198442E+04 -1.595357E+06 -4.356279E+03  3.599361E+03
        16  27 -4.331827E+06 -6.829291E+05 -8.667029E+04 -1.599798E+06 -6.906695E+03  2.549310E+03
        17   1 -3.773704E+06 -4.648475E+05  6.551103E+04 -1.443973E+06  8.349563E+03 -1.935975E+03
        17   2 -3.775780E+06 -4.708965E+05  5.595443E+04 -1.451952E+06  1.706802E+04  1.465949E+03
        17   3 -3.795974E+06 -4.811452E+05  3.565916E+04 -1.442885E+06  2.559739E+04  5.367923E+03
        17   4 -4.050328E+06 -5.687718E+05 -1.018863E+04 -1.518379E+06  8.315492E+03 -1.948939E+03
        17   5 -4.042060E+06 -5.721633E+05 -1.715111E+04 -1.524837E+06  1.714211E+04  1.493690E+03
        17   6 -4.051934E+06 -5.797802E+05 -3.494184E+04 -1.514247E+06  2.577976E+04  5.436484E+03
        17   7 -4.326879E+06 -6.726921E+05 -8.589526E+04 -1.592755E+06  8.281437E+03 -1.961897E+03
        17   8 -4.308271E+06 -6.734259E+05 -9.026309E+04 -1.597693E+06  1.721616E+04  1.521416E+03
        17   9 -4.307830E+06 -6.784107E+05 -1.055488E+05 -1.585583E+06  2.596203E+04  5.505012E+03
        17  10 -3.773704E+06 -4.648475E+05  6.551089E+04 -1.443973E+06  2.482863E-09  7.522508E-10
        17  11 -3.775781E+06 -4.708966E+05  5.595387E+04 -1.451952E+06 -1.226643E-09  3.432725E-10
        17  12 -3.795975E+06 -4.811454E+05  3.565787E+04 -1.442885E+06  3.569025E-10  3.456498E-10
        17  13 -4.050328E+06 -5.687718E+05 -1.018877E+04 -1.518379E+06  2.544788E-09  1.697906E-10
        17  14 -4.042060E+06 -5.721634E+05 -1.715167E+04 -1.524837E+06 -1.588611E-09  1.642579E-10
        17  15 -4.051935E+06 -5.797804E+05 -3.494315E+04 -1.514247E+06 -1.318004E-09  1.484025E-10
        17  16 -4.326879E+06 -6.726921E+05 -8.589540E+04 -1.592755E+06 -1.559895E-09 -2.847202E-10
        17  17 -4.308272E+06 -6.734260E+05 -9.026365E+04 -1.597693E+06  1.048940E-09 -1.243715E-09
        17  18 -4.307831E+06 -6.784109E+05 -1.055501E+05 -1.585583E+06  3.390947E-10 -1.578806E-09
        17  19 -3.773704E+06 -4.648475E+05  6.551103E+04 -1.443973E+06 -8.349563E+03  1.935975E+03
        17  20 -3.775780E+06 -4.708965E+05  5.595443E+04 -1.451952E+06 -1.706802E+04 -1.465949E+03
        17  21 -3.795974E+06 -4.811452E+05  3.565916E+04 -1.442885E+06 -2.559739E+04 -5.367923E+03
        17  22 -4.050328E+06 -5.687718E+05 -1.018863E+04 -1.518379E+06 -8.315492E+03  1.948939E+03
        17  23 -4.042060E+06 -5.721633E+05 -1.715111E+04 -1.524837E+06 -1.714211E+04 -1.493690E+03
        17  24 -4.051934E+06 -5.797802E+05 -3.494184E+04 -1.514247E+06 -2.577976E+04 -5.436484E+03
        17  25 -4.326879E+06 -6.726921E+05 -8.589526E+04 -1.592755E+06 -8.281437E+03  1.961897E+03
        17  26 -4.308271E+06 -6.734259E+05 -9.026309E+04 -1.597693E+06 -1.721616E+04 -1.521416E+03
        17  27 -4.307830E+06 -6.784107E+05 -1.055488E+05 -1.585583E+06 -2.596203E+04 -5.505012E+03
        18   1 -3.867280E+06 -4.972096E+05  7.550264E+03 -1.471598E+06  3.200041E+04  8.259464E+03
        18   2 -3.864159E+06 -4.956059E+05 -2.745400E+04 -1.483987E+06  7.053736E+04  2.354276E+04
        18   3 -3.932568E+06 -5.778181E+05 -1.213232E+05 -1.439700E+06  1.089874E+05  3.905010E+04
        18   4 -4.059001E+06 -5.641630E+05 -4.385872E+04 -1.517993E+06  3.211428E+04  8.302709E+03
        18   5 -4.028853E+06 -5.608983E+05 -7.320410E+04 -1.531777E+06  7.069139E+04  2.360047E+04
        18   6 -4.070253E+06 -6.414744E+05 -1.614571E+05 -1.488880E+06  1.091835E+05  3.912164E+04
        18   7 -4.250687E+06 -6.311158E+05 -9.527096E+04 -1.564376E+06  3.222811E+04  8.345941E+03
        18   8 -4.193521E+06 -6.261884E+05 -1.189568E+05 -1.579555E+06  7.084537E+04  2.365815E+04
        18   9 -4.207920E+06 -7.051268E+05 -2.015928E+05 -1.538049E+06  1.093794E+05  3.919315E+04
        18  10 -3.867281E+06 -4.972100E+05  7.548197E+03 -1.471598E+06  1.617062E-09  9.742105E-10
        18  11 -3.864165E+06 -4.956079E+05 -2.746446E+04 -1.483988E+06  1.087698E-09 -3.214814E-09
        18  12 -3.932581E+06 -5.778230E+05 -1.213486E+05 -1.439703E+06 -1.156360E-09 -6.358869E-10
        18  13 -4.059002E+06 -5.641634E+05 -4.386080E+04 -1.517993E+06 -1.910456E-09 -2.416273E-10
        18  14 -4.028859E+06 -5.609002E+05 -7.321461E+04 -1.531778E+06  2.733244E-09 -4.421304E-10
        18  15 -4.070266E+06 -6.414793E+05 -1.614826E+05 -1.488884E+06  2.922642E-09 -1.500040E-09
        18  16 -4.250688E+06 -6.311161E+05 -9.527306E+04 -1.564376E+06 -2.416321E-11 -7.269678E-10
        18  17 -4.193527E+06 -6.261904E+05 -1.189673E+05 -1.579556E+06 -1.051721E-09 -1.084523E-09
        18  18 -4.207933E+06 -7.051317E+05 -2.016184E+05 -1.538053E+06  8.763776E-10 -1.833089E-09
        18  19 -3.867280E+06 -4.972096E+05  7.550264E+03 -1.471598E+06 -3.200041E+04 -8.259464E+03
        18  20 -3.864159E+06 -4.956059E+05 -2.745400E+04 -1.483987E+06 -7.053736E+04 -2.354276E+04
        18  21 -3.932568E+06 -5.778181E+05 -1.213232E+05 -1.439700E+06 -1.089874E+05 -3.905010E+04
        18  22 -4.059001E+06 -5.641630E+05 -4.385872E+04 -1.517993E+06 -3.211428E+04 -8.302709E+03
        18  23 -4.028853E+06 -5.608983E+05 -7.320410E+04 -1.531777E+06 -7.069139E+04 -2.360047E+04
        18  24 -4.070253E+06 -6.414744E+05 -1.614571E+05 -1.488880E+06 -1.091835E+05 -3.912164E+04
        18  25 -4.250687E+06 -6.311158E+05 -9.527096E+04 -1.564376E+06 -3.222811E+04 -8.345941E+03
        18  26 -4.193521E+06 -6.261884E+05 -1.189568E+05 -1.579555E+06 -7.084537E+04 -2.365815E+04
        18  27 -4.207920E+06 -7.051268E+05 -2.015928E+05 -1.538049E+06 -1.093794E+05 -3.919315E+04
        19   1 -4.028469E+06 -5.657096E+05 -1.855310E+05 -1.559155E+06  1.379855E+05  5.084737E+04
        19   2 -3.967324E+06 -4.376724E+05 -3.078918E+05 -1.531116E+06  3.097889E+05  1.169811E+05
        19   3 -4.245690E+06 -1.034325E+06 -7.664472E+05 -1.270373E+06  4.818838E+05  1.823415E+05
        19   4 -4.096338E+06 -5.518674E+05 -1.962000E+05 -1.537307E+06  1.382990E+05  5.097693E+04
        19   5 -3.965574E+06 -4.582958E+05 -3.116653E+05 -1.552341E+06  3.099266E+05  1.170197E+05
        19   6 -4.174300E+06 -1.089389E+06 -7.631792E+05 -1.334656E+06  4.818674E+05  1.822548E+05
        19   7 -4.164198E+06 -5.380203E+05 -2.068682E+05 -1.515461E+06  1.386125E+05  5.110652E+04
        19   8 -3.963823E+06 -4.789168E+05 -3.154385E+05 -1.573566E+06  3.100643E+05  1.170584E+05
        19   9 -4.102889E+06 -1.144424E+06 -7.599068E+05 -1.398944E+06  4.818509E+05  1.821682E+05
        19  10 -4.028491E+06 -5.657175E+05 -1.855719E+05 -1.559161E+06  4.132130E-10 -6.922696E-10
        19  11 -3.967431E+06 -4.377132E+05 -3.080994E+05 -1.531145E+06  4.835192E-09  3.460469E-10
        19  12 -4.245950E+06 -1.034424E+06 -7.669498E+05 -1.270444E+06  1.160244E-09  2.433765E-10
        19  13 -4.096359E+06 -5.518753E+05 -1.962412E+05 -1.537313E+06  4.278503E-10 -1.227642E-09
        19  14 -3.965681E+06 -4.583366E+05 -3.118730E+05 -1.552370E+06 -3.743626E-09  2.021400E-09
        19  15 -4.174559E+06 -1.089487E+06 -7.636817E+05 -1.334727E+06  2.102943E-10 -7.363379E-10
        19  16 -4.164219E+06 -5.380283E+05 -2.069096E+05 -1.515467E+06  1.562787E-09 -1.130164E-09
        19  17 -3.963931E+06 -4.789576E+05 -3.156464E+05 -1.573595E+06  1.462082E-09  1.914707E-09
        19  18 -4.103149E+06 -1.144523E+06 -7.604092E+05 -1.399015E+06 -1.055919E-09  9.571022E-10
        19  19 -4.028469E+06 -5.657096E+05 -1.855310E+05 -1.559155E+06 -1.379855E+05 -5.084737E+04
        19  20 -3.967324E+06 -4.376724E+05 -3.078918E+05 -1.531116E+06 -3.097889E+05 -1.169811E+05
        19  21 -4.245690E+06 -1.034325E+06 -7.664472E+05 -1.270373E+06 -4.818838E+05 -1.823415E+05
        19  22 -4.096338E+06 -5.518674E+05 -1.962000E+05 -1.537307E+06 -1.382990E+05 -5.097693E+04
        19  23 -3.965574E+06 -4.582958E+05 -3.116653E+05 -1.552341E+06 -3.099266E+05 -1.170197E+05
        19  24 -4.174300E+06 -1.089389E+06 -7.631792E+05 -1.334656E+06 -4.818674E+05 -1.822548E+05
        19  25 -4.164198E+06 -5.380203E+05 -2.068682E+05 -1.515461E+06 -1.386125E+05 -5.110652E+04
        19  26 -3.963823E+06 -4.789168E+05 -3.154385E+05 -1.573566E+06 -3.100643E+05 -1.170584E+05
        19  27 -4.102889E+06 -1.144424E+06 -7.599068E+05 -1.398944E+06 -4.818509E+05 -1.821682E+05
        20   1 -4.005880E+04 -1.094634E+06 -7.509008E+04  9.451474E+03  2.917740E+02 -9.580347E+04
        20   2  9.198563E+04 -1.089739E+06  1.405471E+03  4.418736E+03  7.740301E+02 -6.120915E+04
        20   3  6.908319E+04 -1.093640E+06  2.352404E+04  5.408590E+03  4.391479E+02 -2.661918E+04
        20   4 -1.061256E+05 -1.358554E+06 -1.411587E+05  7.774130E+03  2.920622E+02 -9.579753E+04
        20   5  2.582549E+04 -1.354035E+06 -6.475087E+04  4.824665E+03  7.740335E+02 -6.119652E+04
        20   6  2.787084E+03 -1.358339E+06 -4.274390E+04  7.897961E+03  4.389651E+02 -2.659989E+04
        20   7 -1.721976E+05 -1.622410E+06 -2.072325E+05  6.097516E+03  2.923504E+02 -9.579159E+04
        20   8 -4.033994E+04 -1.618267E+06 -1.309125E+05  5.230489E+03  7.740369E+02 -6.118390E+04
        20   9 -6.351432E+04 -1.622974E+06 -1.090171E+05  1.038639E+04  4.387824E+02 -2.658060E+04
        20  10 -4.006127E+04 -1.094644E+06 -7.510736E+04  9.451497E+03 -2.949160E-09 -1.646250E-10
        20  11  9.198462E+04 -1.089743E+06  1.398417E+03  4.418774E+03 -6.054904E-09  2.934764E-09
        20  12  6.908300E+04 -1.093641E+06  2.352270E+04  5.408599E+03  1.994436E-09 -1.164776E-09
        20  13 -1.061280E+05 -1.358564E+06 -1.411759E+05  7.774153E+03 -1.870459E-09 -3.004014E-10
        20  14  2.582448E+04 -1.354039E+06 -6.475792E+04  4.824703E+03 -3.618226E-09 -1.159270E-09
        20  15  2.786894E+03 -1.358340E+06 -4.274524E+04  7.897970E+03  3.253182E-09 -2.553584E-09
        20  16 -1.722001E+05 -1.622420E+06 -2.072498E+05  6.097538E+03 -1.900791E-09  1.214395E-10
        20  17 -4.034094E+04 -1.618271E+06 -1.309196E+05  5.230527E+03  1.901648E-10  2.805303E-09
        20  18 -6.351451E+04 -1.622975E+06 -1.090185E+05  1.038640E+04 -5.885176E-11  2.531318E-10
        20  19 -4.005880E+04 -1.094634E+06 -7.509008E+04  9.451474E+03 -2.917740E+02  9.580347E+04
        20  20  9.198563E+04 -1.089739E+06  1.405471E+03  4.418736E+03 -7.740301E+02  6.120915E+04
        20  21  6.908319E+04 -1.093640E+06  2.352404E+04  5.408590E+03 -4.391479E+02  2.661918E+04
        20  22 -1.061256E+05 -1.358554E+06 -1.411587E+05  7.774130E+03 -2.920622E+02  9.579753E+04
        20  23  2.582549E+04 -1.354035E+06 -6.475087E+04  4.824665E+03 -7.740335E+02  6.119652E+04
        20  24  2.787084E+03 -1.358339E+06 -4.274390E+04  7.897961E+03 -4.389651E+02  2.659989E+04
        20  25 -1.721976E+05 -1.622410E+06 -2.072325E+05  6.097516E+03 -2.923504E+02  9.579159E+04
        20  26 -4.033994E+04 -1.618267E+06 -1.309125E+05  5.230489E+03 -7.740369E+02  6.118390E+04
        20  27 -6.351432E+04 -1.622974E+06 -1.090171E+05  1.038639E+04 -4.387824E+02  2.658060E+04
        21   1 -5.475835E+04 -1.506492E+06 -7.609787E+04  3.910551E+03  8.091762E+01 -1.948999E+04
        21   2 -3.116644E+04 -1.507168E+06 -6.349257E+04  1.189211E+04 -2.515767E+02 -6.150346E+03
        21   3 -4.753005E+04 -1.508621E+06 -6.738131E+04  2.853533E+03 -2.134755E+02  7.191741E+03
        21   4 -1.721780E+04 -1.356638E+06 -3.857165E+04  2.607925E+03  8.087820E+01 -1.948341E+04
        21   5  6.631157E+03 -1.356238E+06 -2.570274E+04  1.116687E+04 -2.515752E+02 -6.149817E+03
        21   6 -9.467925E+03 -1.356609E+06 -2.932036E+04  2.705947E+03 -2.134454E+02  7.186242E+03
        21   7  2.032106E+04 -1.206763E+06 -1.047126E+03  1.305025E+03  8.083875E+01 -1.947683E+04
        21   8  4.442703E+04 -1.205287E+06  1.208537E+04  1.044149E+04 -2.515737E+02 -6.149288E+03
        21   9  2.859245E+04 -1.204577E+06  8.738834E+03  2.558347E+03 -2.134153E+02  7.180742E+03
        21  10 -5.475846E+04 -1.506493E+06 -7.609859E+04  3.910552E+03  4.638359E-09 -1.148330E-09
        21  11 -3.116645E+04 -1.507168E+06 -6.349264E+04  1.189211E+04 -9.709731E-10  4.762404E-09
        21  12 -4.753006E+04 -1.508621E+06 -6.738141E+04  2.853534E+03  8.299045E-10 -5.969601E-10
        21  13 -1.721790E+04 -1.356638E+06 -3.857236E+04  2.607926E+03 -4.826003E-10 -2.240611E-09
        21  14  6.631147E+03 -1.356238E+06 -2.570281E+04  1.116687E+04  1.622497E-10 -1.602245E-09
        21  15 -9.467939E+03 -1.356609E+06 -2.932046E+04  2.705948E+03 -7.821204E-11 -1.491860E-09
        21  16  2.032096E+04 -1.206763E+06 -1.047840E+03  1.305026E+03  8.586028E-10  9.326387E-11
        21  17  4.442702E+04 -1.205287E+06  1.208530E+04  1.044148E+04 -2.220803E-09  3.667025E-09
        21  18  2.859243E+04 -1.204577E+06  8.738737E+03  2.558348E+03  5.282286E-10 -2.506453E-11
        21  19 -5.475835E+04 -1.506492E+06 -7.609787E+04  3.910551E+03 -8.091762E+01  1.948999E+04
        21  20 -3.116644E+04 -1.507168E+06 -6.349257E+04  1.189211E+04  2.515767E+02  6.150346E+03
        21  21 -4.753005E+04 -1.508621E+06 -6.738131E+04  2.853533E+03  2.134755E+02 -7.191741E+03
        21  22 -1.721780E+04 -1.356638E+06 -3.857165E+04  2.607925E+03 -8.087820E+01  1.948341E+04
        21  23  6.631157E+03 -1.356238E+06 -2.570274E+04  1.116687E+04  2.515752E+02  6.149817E+03
        21  24 -9.467925E+03 -1.356609E+06 -2.932036E+04  2.705947E+03  2.134454E+02 -7.186242E+03
        21  25  2.032106E+04 -1.206763E+06 -1.047126E+03  1.305025E+03 -8.083875E+01  1.947683E+04
        21  26  4.442703E+04 -1.205287E+06  1.208537E+04  1.044149E+04  2.515737E+02  6.149288E+03
        21  27  2.859245E+04 -1.204577E+06  8.738834E+03  2.558347E+03  2.134153E+02 -7.180742E+03
        22   1 -9.800963E+03 -1.397408E+06 -4.094930E+04  1.161497E+04 -1.299603E+02  1.271783E+04
        22   2  8.679706E+03 -1.382330E+06 -4.914659E+04  7.752745E+02 -1.636792E+02  3.493205E+04
        22   3 -7.522738E+04 -1.395052E+06 -9.728356E+04  9.639991E+03 -1.680901E+02  5.714621E+04
        22   4 -1.065642E+03 -1.362543E+06 -3.221961E+04  1.090977E+04 -1.299717E+02  1.271757E+04
        22   5  1.708960E+04 -1.348734E+06 -4.073572E+04  9.692190E+02 -1.636640E+02  3.493214E+04
        22   6 -6.714004E+04 -1.362722E+06 -8.919023E+04  1.073298E+04 -1.679843E+02  5.714661E+04
        22   7  7.669589E+03 -1.327676E+06 -2.349000E+04  1.020454E+04 -1.299831E+02  1.271731E+04
        22   8  2.549942E+04 -1.315136E+06 -3.232492E+04  1.163175E+03 -1.636487E+02  3.493224E+04
        22   9 -5.905277E+04 -1.330392E+06 -8.109698E+04  1.182603E+04 -1.678785E+02  5.714701E+04
        22  10 -9.801007E+03 -1.397408E+06 -4.094961E+04  1.161497E+04  1.483413E-09 -7.437213E-10
        22  11  8.679378E+03 -1.382332E+06 -4.914889E+04  7.752791E+02 -1.330134E-09  2.301634E-09
        22  12 -7.522826E+04 -1.395055E+06 -9.728971E+04  9.639999E+03  1.523313E-09 -6.470404E-11
        22  13 -1.065686E+03 -1.362543E+06 -3.221991E+04  1.090977E+04 -2.924347E-10 -8.926493E-10
        22  14  1.708928E+04 -1.348735E+06 -4.073801E+04  9.692236E+02 -6.745864E-10 -7.631259E-10
        22  15 -6.714092E+04 -1.362726E+06 -8.919638E+04  1.073299E+04  2.535079E-09 -8.215402E-10
        22  16  7.669545E+03 -1.327676E+06 -2.349031E+04  1.020454E+04  1.261982E-09  3.086247E-10
        22  17  2.549909E+04 -1.315137E+06 -3.232722E+04  1.163179E+03  5.895700E-10  1.832571E-09
        22  18 -5.905364E+04 -1.330395E+06 -8.110313E+04  1.182604E+04 -5.276125E-12 -4.508978E-10
        22  19 -9.800963E+03 -1.397408E+06 -4.094930E+04  1.161497E+04  1.299603E+02 -1.271783E+04
        22  20  8.679706E+03 -1.382330E+06 -4.914659E+04  7.752745E+02  1.636792E+02 -3.493205E+04
        22  21 -7.522738E+04 -1.395052E+06 -9.728356E+04  9.639991E+03  1.680901E+02 -5.714621E+04
        22  22 -1.065642E+03 -1.362543E+06 -3.221961E+04  1.090977E+04  1.299717E+02 -1.271757E+04
        22  23  1.708960E+04 -1.348734E+06 -4.073572E+04  9.692190E+02  1.636640E+02 -3.493214E+04
        22  24 -6.714004E+04 -1.362722E+06 -8.919023E+04  1.073298E+04  1.679843E+02 -5.714661E+04
        22  25  7.669589E+03 -1.327676E+06 -2.349000E+04  1.020454E+04  1.299831E+02 -1.271731E+04
        22  26  2.549942E+04 -1.315136E+06 -3.232492E+04  1.163175E+03  1.636487E+02 -3.493224E+04
        22  27 -5.905277E+04 -1.330392E+06 -8.109698E+04  1.182603E+04  1.678785E+02 -5.714701E+04
        23   1  7.731465E+04 -4.104157E+05  7.465264E+04 -9.060390E+01  1.067130E+04 -2.890465E+01
        23   2  7.718525E+04 -4.109139E+05  7.462746E+04  3.169381E+01  1.066074E+04 -2.892773E+02
        23   3  7.721028E+04 -4.112486E+05  7.482985E+04 -1.358857E+02  1.060494E+04 -5.496801E+02
        23   4 -1.255737E+01 -7.226003E+05  3.934456E+02 -6.442757E+01  1.067166E+04 -3.553528E+01
        23   5 -3.802376E+01 -7.226799E+05  4.691545E+02  8.053312E+01  1.066109E+04 -2.708444E+02
        23   6  8.660576E+01 -7.226002E+05  7.550842E+02 -6.439124E+01  1.060528E+04 -5.061834E+02
        23   7 -7.734679E+04 -1.034695E+06 -7.387257E+04 -3.826337E+01  1.067202E+04 -4.216259E+01
        23   8 -7.726831E+04 -1.034356E+06 -7.369595E+04  1.293527E+02  1.066145E+04 -2.524207E+02
        23   9 -7.704406E+04 -1.033863E+06 -7.332647E+04  7.075885E+00  1.060562E+04 -4.627085E+02
        23  10  7.731452E+04 -4.104158E+05  7.465242E+04 -9.060365E+01 -2.415665E-10 -9.796509E-11
        23  11  7.718513E+04 -4.109140E+05  7.462724E+04  3.169630E+01  1.564944E-09  2.151761E-09
        23  12  7.721016E+04 -4.112486E+05  7.482964E+04 -1.358810E+02 -1.732032E-09  1.582142E-09
        23  13 -1.267962E+01 -7.226003E+05  3.932317E+02 -6.442727E+01  2.497084E-09  3.160294E-11
        23  14 -3.814579E+01 -7.226799E+05  4.689409E+02  8.053545E+01  3.686484E-09 -1.101335E-10
        23  15  8.648496E+01 -7.226002E+05  7.548724E+02 -6.438692E+01  1.532936E-09 -1.313499E-11
        23  16 -7.734692E+04 -1.034695E+06 -7.387278E+04 -3.826301E+01  4.618191E-09  5.070614E-11
        23  17 -7.726843E+04 -1.034357E+06 -7.369617E+04  1.293548E+02  4.307245E-10 -2.500843E-09
        23  18 -7.704418E+04 -1.033863E+06 -7.332669E+04  7.079839E+00 -5.127034E-10 -1.965023E-09
        23  19  7.731465E+04 -4.104157E+05  7.465264E+04 -9.060390E+01 -1.067130E+04  2.890465E+01
        23  20  7.718525E+04 -4.109139E+05  7.462746E+04  3.169381E+01 -1.066074E+04  2.892773E+02
        23  21  7.721028E+04 -4.112486E+05  7.482985E+04 -1.358857E+02 -1.060494E+04  5.496801E+02
        23  22 -1.255737E+01 -7.226003E+05  3.934456E+02 -6.442757E+01 -1.067166E+04  3.553528E+01
        23  23 -3.802376E+01 -7.226799E+05  4.691545E+02  8.053312E+01 -1.066109E+04  2.708444E+02
        23  24  8.660576E+01 -7.226002E+05  7.550842E+02 -6.439124E+01 -1.060528E+04  5.061834E+02
        23  25 -7.734679E+04 -1.034695E+06 -7.387257E+04 -3.826337E+01 -1.067202E+04  4.216259E+01
        23  26 -7.726831E+04 -1.034356E+06 -7.369595E+04  1.293527E+02 -1.066145E+04  2.524207E+02
        23  27 -7.704406E+04 -1.033863E+06 -7.332647E+04  7.075885E+00 -1.060562E+04  4.627085E+02
        24   1  7.679408E+04 -4.121867E+05  7.474409E+04 -4.631095E+02  1.064454E+04 -5.709335E+02
        24   2  7.639048E+04 -4.137135E+05  7.504176E+04  1.700679E+02  1.057199E+04 -1.604053E+03
        24   3  7.734582E+04 -4.146777E+05  7.637085E+04 -6.236687E+01  1.004377E+04 -2.637589E+03
        24   4 -7.233144E+01 -7.225201E+05  9.381429E+02 -1.926049E+02  1.064494E+04 -6.561070E+02
        24   5 -1.638995E+02 -7.227792E+05  1.526566E+03  2.406410E+02  1.057224E+04 -1.437449E+03
        24   6  1.060080E+03 -7.225193E+05  2.971756E+03 -1.917516E+02  1.004376E+04 -2.219209E+03
        24   7 -7.694570E+04 -1.032765E+06 -7.287455E+04  7.777453E+01  1.064533E+04 -7.412381E+02
        24   8 -7.672517E+04 -1.031757E+06 -7.199531E+04  3.111933E+02  1.057248E+04 -1.270927E+03
        24   9 -7.523251E+04 -1.030274E+06 -7.043400E+04 -3.210538E+02  1.004374E+04 -1.801036E+03
        24  10  7.679396E+04 -4.121867E+05  7.474388E+04 -4.631047E+02 -5.803133E-10 -1.057542E-08
        24  11  7.639036E+04 -4.137135E+05  7.504154E+04  1.700816E+02 -8.158629E-10 -3.061044E-09
        24  12  7.734571E+04 -4.146777E+05  7.637065E+04 -6.234553E+01 -2.782628E-10  6.219516E-09
        24  13 -7.245319E+01 -7.225201E+05  9.379292E+02 -1.925993E+02 -5.236876E-10  4.236348E-11
        24  14 -1.640200E+02 -7.227793E+05  1.526352E+03  2.406533E+02  3.503918E-09 -3.115894E-10
        24  15  1.059970E+03 -7.225194E+05  2.971558E+03 -1.917336E+02  2.860231E-09 -1.367665E-11
        24  16 -7.694582E+04 -1.032765E+06 -7.287476E+04  7.778089E+01  1.511860E-09  1.019207E-08
        24  17 -7.672529E+04 -1.031757E+06 -7.199552E+04  3.112041E+02  1.150463E-09  1.996013E-09
        24  18 -7.523262E+04 -1.030274E+06 -7.043419E+04 -3.210392E+02  3.546108E-09 -6.888895E-09
        24  19  7.679408E+04 -4.121867E+05  7.474409E+04 -4.631095E+02 -1.064454E+04  5.709335E+02
        24  20  7.639048E+04 -4.137135E+05  7.504176E+04  1.700679E+02 -1.057199E+04  1.604053E+03
        24  21  7.734582E+04 -4.146777E+05  7.637085E+04 -6.236687E+01 -1.004377E+04  2.637589E+03
        24  22 -7.233144E+01 -7.225201E+05  9.381429E+02 -1.926049E+02 -1.064494E+04  6.561070E+02
        24  23 -1.638995E+02 -7.227792E+05  1.526566E+03  2.406410E+02 -1.057224E+04  1.437449E+03
        24  24  1.060080E+03 -7.225193E+05  2.971756E+03 -1.917516E+02 -1.004376E+04  2.219209E+03
        24  25 -7.694570E+04 -1.032765E+06 -7.287455E+04  7.777453E+01 -1.064533E+04  7.412381E+02
        24  26 -7.672517E+04 -1.031757E+06 -7.199531E+04  3.111933E+02 -1.057248E+04  1.270927E+03
        24  27 -7.523251E+04 -1.030274E+06 -7.043400E+04 -3.210538E+02 -1.004374E+04  1.801036E+03
        25   1  7.513596E+04 -4.159297E+05  7.623072E+04 -2.078109E+03  1.090642E+04 -1.217726E+03
        25   2  7.376764E+04 -4.201376E+05  7.801000E+04  1.298733E+03  1.043000E+04 -8.018991E+03
        25   3  8.622226E+04 -4.199211E+05  8.769240E+04  3.083805E+03  3.331511E+03 -1.482871E+04
        25   4 -5.970957E+02 -7.217928E+05  3.636090E+03 -3.577218E+02  1.090823E+04 -2.777212E+03
        25   5 -1.415036E+03 -7.236861E+05  5.821479E+03  4.450315E+02  1.042805E+04 -5.923274E+03
        25   6  1.095846E+04 -7.217883E+05  1.337189E+04 -3.440273E+02  3.324429E+03 -9.077832E+03
        25   7 -7.633688E+04 -1.027570E+06 -6.896506E+04  1.361833E+03  1.091003E+04 -4.335932E+03
        25   8 -7.660435E+04 -1.027150E+06 -6.637348E+04 -4.082276E+02  1.042610E+04 -3.828577E+03
        25   9 -6.431206E+04 -1.023573E+06 -6.095523E+04 -3.770163E+03  3.317281E+03 -3.329749E+03
        25  10  7.513583E+04 -4.159297E+05  7.623049E+04 -2.078098E+03 -2.835825E-09  1.676457E-09
        25  11  7.376750E+04 -4.201377E+05  7.800968E+04  1.298801E+03  5.624116E-10 -6.444287E-11
        25  12  8.622219E+04 -4.199213E+05  8.769197E+04  3.083844E+03  3.153355E-10 -6.967947E-10
        25  13 -5.972255E+02 -7.217928E+05  3.635852E+03 -3.576974E+02 -6.723189E-10  3.254457E-11
        25  14 -1.415162E+03 -7.236861E+05  5.821209E+03  4.450813E+02  4.393680E-10 -5.905447E-10
        25  15  1.095843E+04 -7.217884E+05  1.337171E+04 -3.440030E+02  9.318731E-10 -2.921132E-11
        25  16 -7.633701E+04 -1.027570E+06 -6.896531E+04  1.361871E+03  4.678700E-09 -2.388135E-09
        25  17 -7.660447E+04 -1.027150E+06 -6.637371E+04 -4.081954E+02  1.632771E-10 -1.737889E-09
        25  18 -6.431208E+04 -1.023573E+06 -6.095527E+04 -3.770154E+03 -1.573938E-09 -4.120371E-10
        25  19  7.513596E+04 -4.159297E+05  7.623072E+04 -2.078109E+03 -1.090642E+04  1.217726E+03
        25  20  7.376764E+04 -4.201376E+05  7.801000E+04  1.298733E+03 -1.043000E+04  8.018991E+03
        25  21  8.622226E+04 -4.199211E+05  8.769240E+04  3.083805E+03 -3.331511E+03  1.482871E+04
        25  22 -5.970957E+02 -7.217928E+05  3.636090E+03 -3.577218E+02 -1.090823E+04  2.777212E+03
        25  23 -1.415036E+03 -7.236861E+05  5.821479E+03  4.450315E+02 -1.042805E+04  5.923274E+03
        25  24  1.095846E+04 -7.217883E+05  1.337189E+04 -3.440273E+02 -3.324429E+03  9.077832E+03
        25  25 -7.633688E+04 -1.027570E+06 -6.896506E+04  1.361833E+03 -1.091003E+04  4.335932E+03
        25  26 -7.660435E+04 -1.027150E+06 -6.637348E+04 -4.082276E+02 -1.042610E+04  3.828577E+03
        25  27 -6.431206E+04 -1.023573E+06 -6.095523E+04 -3.770163E+03 -3.317281E+03  3.329749E+03
        26   1  4.548613E+04  4.823328E+05  2.565483E+04 -2.441502E+00  1.587828E+04 -6.106468E+00
        26   2  4.549733E+04  4.823217E+05  2.572177E+04 -3.668192E+00  1.583517E+04 -2.075299E+02
        26   3  4.554453E+04  4.823479E+05  2.592945E+04 -9.911954E+00  1.571033E+04 -4.089637E+02
        26   4 -7.803753E+00  2.804189E+05  8.661698E+00 -1.114899E+00  1.587882E+04 -7.097163E-01
        26   5 -7.699899E+00  2.804172E+05  1.060187E+01  1.393705E+00  1.583570E+04 -5.852809E+00
        26   6 -5.657254E+00  2.804189E+05  1.706691E+01 -1.114748E+00  1.571084E+04 -1.100328E+01
        26   7 -4.550340E+04  7.854671E+04 -2.563765E+04  2.113259E-01  1.587936E+04  4.685368E+00
        26   8 -4.551440E+04  7.855453E+04 -2.570072E+04  6.454210E+00  1.583624E+04  1.957620E+02
        26   9 -4.555753E+04  7.853163E+04 -2.589551E+04  7.680052E+00  1.571135E+04  3.868341E+02
        26  10  4.548586E+04  4.823328E+05  2.565436E+04 -2.441424E+00 -9.064736E-09 -3.620513E-08
        26  11  4.549706E+04  4.823216E+05  2.572129E+04 -3.665546E+00 -3.762385E-09 -7.229321E-09
        26  12  4.554427E+04  4.823478E+05  2.592899E+04 -9.906781E+00  1.336807E-09  2.045293E-08
        26  13 -8.074540E+00  2.804188E+05  8.187821E+00 -1.114890E+00  8.124711E-09  1.312722E-11
        26  14 -7.969217E+00  2.804171E+05  1.013056E+01  1.393779E+00  8.623903E-09 -7.127257E-11
        26  15 -5.922342E+00  2.804188E+05  1.660301E+01 -1.114609E+00  3.891238E-09  8.183416E-11
        26  16 -4.550368E+04  7.854664E+04 -2.563813E+04  2.112660E-01 -1.014895E-08  3.619663E-08
        26  17 -4.551467E+04  7.855446E+04 -2.570119E+04  6.451713E+00 -2.214997E-09  7.196167E-09
        26  18 -4.555779E+04  7.853157E+04 -2.589597E+04  7.675157E+00  9.048913E-10 -2.043061E-08
        26  19  4.548613E+04  4.823328E+05  2.565483E+04 -2.441502E+00 -1.587828E+04  6.106468E+00
        26  20  4.549733E+04  4.823217E+05  2.572177E+04 -3.668192E+00 -1.583517E+04  2.075299E+02
        26  21  4.554453E+04  4.823479E+05  2.592945E+04 -9.911954E+00 -1.571033E+04  4.089637E+02
        26  22 -7.803753E+00  2.804189E+05  8.661698E+00 -1.114899E+00 -1.587882E+04  7.097163E-01
        26  23 -7.699899E+00  2.804172E+05  1.060187E+01  1.393705E+00 -1.583570E+04  5.852809E+00
        26  24 -5.657254E+00  2.804189E+05  1.706691E+01 -1.114748E+00 -1.571084E+04  1.100328E+01
        26  25 -4.550340E+04  7.854671E+04 -2.563765E+04  2.113261E-01 -1.587936E+04 -4.685368E+00
        26  26 -4.551440E+04  7.855453E+04 -2.570072E+04  6.454210E+00 -1.583624E+04 -1.957620E+02
        26  27 -4.555753E+04  7.853163E+04 -2.589551E+04  7.680052E+00 -1.571135E+04 -3.868341E+02
        27   1  4.558282E+04  4.823953E+05  2.607477E+04 -2.155344E+01  1.562795E+04 -4.548525E+02
        27   2  4.570906E+04  4.823043E+05  2.677483E+04  5.120392E+00  1.517653E+04 -1.761240E+03
        27   3  4.607289E+04  4.824448E+05  2.838497E+04 -1.116002E+01  1.418907E+04 -3.067723E+03
        27   4 -4.708101E+00  2.804199E+05  2.206986E+01 -9.546162E+00  1.562845E+04 -1.419593E+01
        27   5  2.117745E+00  2.804159E+05  3.825720E+01  1.193347E+01  1.517687E+04 -3.321685E+01
        27   6  2.317190E+01  2.804200E+05  7.101713E+01 -9.544157E+00  1.418915E+04 -5.233097E+01
        27   7 -4.559392E+04  7.848634E+04 -2.603084E+04  2.457766E+00  1.562895E+04  4.263243E+02
        27   8 -4.570655E+04  7.856902E+04 -2.669861E+04  1.874524E+01  1.517720E+04  1.694271E+03
        27   9 -4.602836E+04  7.843650E+04 -2.824343E+04 -7.927584E+00  1.418923E+04  2.962123E+03
        27  10  4.558255E+04  4.823952E+05  2.607431E+04 -2.154772E+01  1.957620E-09 -1.177899E-09
        27  11  4.570881E+04  4.823042E+05  2.677439E+04  5.141915E+00  1.003026E-09 -8.040287E-10
        27  12  4.607267E+04  4.824447E+05  2.838457E+04 -1.112497E+01 -2.798368E-10 -1.383935E-10
        27  13 -4.970416E+00  2.804199E+05  2.161081E+01 -9.545983E+00  8.457516E-10  7.908618E-11
        27  14  1.870370E+00  2.804158E+05  3.782429E+01  1.193388E+01  2.354414E-09 -2.155435E-10
        27  15  2.295568E+01  2.804199E+05  7.063873E+01 -9.543559E+00  2.678095E-09  1.760226E-10
        27  16 -4.559419E+04  7.848628E+04 -2.603130E+04  2.452400E+00 -2.062349E-10  1.043428E-09
        27  17 -4.570680E+04  7.856896E+04 -2.669905E+04  1.872453E+01 -1.339002E-10  6.948038E-10
        27  18 -4.602858E+04  7.843643E+04 -2.824382E+04 -7.961435E+00 -4.590036E-10  1.655999E-10
        27  19  4.558282E+04  4.823953E+05  2.607477E+04 -2.155344E+01 -1.562795E+04  4.548525E+02
        27  20  4.570906E+04  4.823043E+05  2.677483E+04  5.120392E+00 -1.517653E+04  1.761240E+03
        27  21  4.607289E+04  4.824448E+05  2.838497E+04 -1.116002E+01 -1.418907E+04  3.067723E+03
        27  22 -4.708101E+00  2.804199E+05  2.206986E+01 -9.546162E+00 -1.562845E+04  1.419593E+01
        27  23  2.117745E+00  2.804159E+05  3.825720E+01  1.193347E+01 -1.517687E+04  3.321685E+01
        27  24  2.317190E+01  2.804200E+05  7.101713E+01 -9.544157E+00 -1.418915E+04  5.233097E+01
        27  25 -4.559392E+04  7.848634E+04 -2.603084E+04  2.457766E+00 -1.562895E+04 -4.263243E+02
        27  26 -4.570655E+04  7.856902E+04 -2.669861E+04  1.874524E+01 -1.517720E+04 -1.694271E+03
        27  27 -4.602836E+04  7.843650E+04 -2.824343E+04 -7.927584E+00 -1.418923E+04 -2.962123E+03
        28   1  4.635497E+04  4.827552E+05  2.945969E+04 -8.395406E+01  1.356507E+04 -3.394939E+03
        28   2  4.729499E+04  4.819694E+05  3.460909E+04  1.888298E+02  1.020092E+04 -1.298860E+04
        28   3  5.002003E+04  4.828800E+05  4.644781E+04  1.244219E+02  2.879133E+03 -2.258316E+04
        28   4  3.480665E+01  2.804287E+05  9.519149E+01 -7.496163E+01  1.356504E+04 -6.474210E+01
        28   5  1.132989E+02  2.804050E+05  1.754799E+02  9.371768E+01  1.019906E+04 -1.539294E+02
        28   6  3.277102E+02  2.804288E+05  3.480163E+02 -7.492171E+01  2.874856E+03 -2.440660E+02
        28   7 -4.628723E+04  7.814347E+04 -2.926994E+04 -6.597085E+01  1.356500E+04  3.264416E+03
        28   8 -4.707046E+04  7.888090E+04 -3.425886E+04 -1.360958E+00  1.019719E+04  1.267671E+04
        28   9 -4.936717E+04  7.801663E+04 -4.575257E+04 -2.741981E+02  2.870564E+03  2.208781E+04
        28  10  4.635477E+04  4.827552E+05  2.945933E+04 -8.391698E+01  1.555245E-09 -6.822346E-10
        28  11  4.729483E+04  4.819692E+05  3.460858E+04  1.889365E+02  1.088604E-09 -8.987669E-10
        28  12  5.001988E+04  4.828795E+05  4.644684E+04  1.244743E+02  1.772678E-09 -2.665719E-10
        28  13  3.460903E+01  2.804287E+05  9.484564E+01 -7.496093E+01  4.531818E-10  1.518322E-10
        28  14  1.131871E+02  2.804050E+05  1.752844E+02  9.371895E+01 -2.943062E-09 -3.550916E-10
        28  15  3.277013E+02  2.804288E+05  3.480006E+02 -7.492115E+01 -2.397017E-10  2.506035E-10
        28  16 -4.628743E+04  7.814341E+04 -2.927031E+04 -6.600651E+01  1.552242E-09  4.681658E-10
        28  17 -4.707062E+04  7.888070E+04 -3.425936E+04 -1.465068E+00 -8.547168E-10  7.933518E-10
        28  18 -4.936731E+04  7.801610E+04 -4.575350E+04 -2.742492E+02  4.040221E-10  3.469570E-10
        28  19  4.635497E+04  4.827552E+05  2.945969E+04 -8.395406E+01 -1.356507E+04  3.394939E+03
        28  20  4.729499E+04  4.819694E+05  3.460909E+04  1.888298E+02 -1.020092E+04  1.298860E+04
        28  21  5.002003E+04  4.828800E+05  4.644781E+04  1.244219E+02 -2.879133E+03  2.258316E+04
        28  22  3.480665E+01  2.804287E+05  9.519149E+01 -7.496163E+01 -1.356504E+04  6.474210E+01
        28  23  1.132989E+02  2.804050E+05  1.754799E+02  9.371768E+01 -1.019906E+04  1.539294E+02
        28  24  3.277102E+02  2.804288E+05  3.480163E+02 -7.492171E+01 -2.874856E+03  2.440660E+02
        28  25 -4.628723E+04  7.814347E+04 -2.926994E+04 -6.597085E+01 -1.356500E+04 -3.264416E+03
        28  26 -4.707046E+04  7.888090E+04 -3.425886E+04 -1.360958E+00 -1.019719E+04 -1.267671E+04
        28  27 -4.936717E+04  7.801663E+04 -4.575257E+04 -2.741981E+02 -2.870564E+03 -2.208781E+04
        29   1 -2.212998E+06 -2.230947E+05 -2.793346E+05 -1.114900E+03 -1.613645E+05 -2.469770E+02
        29   2 -2.184665E+06 -4.332356E+02 -1.453999E+05 -2.254408E+03 -1.060915E+05  3.236029E+02
        29   3 -2.213653E+06 -3.811764E+04 -1.096054E+05  3.625849E+03 -5.081944E+04  2.518355E+02
        29   4 -2.038684E+06 -1.793914E+05 -2.356471E+05  2.235270E+03 -1.613776E+05 -2.478032E+02
        29   5 -2.009938E+06  4.334916E+04 -1.016194E+05 -1.479977E+03 -1.061063E+05  3.234652E+02
        29   6 -2.038491E+06  5.784832E+03 -6.571037E+04  1.824286E+03 -5.083600E+04  2.519927E+02
        29   7 -1.864343E+06 -1.356904E+05 -1.919619E+05  5.586367E+03 -1.613906E+05 -2.486293E+02
        29   8 -1.835183E+06  8.712924E+04 -5.784122E+04 -7.053282E+02 -1.061212E+05  3.233276E+02
        29   9 -1.863300E+06  4.968499E+04 -2.181764E+04  2.222727E+01 -5.085256E+04  2.521500E+02
        29  10 -2.213026E+06 -2.231018E+05 -2.793837E+05 -1.114932E+03 -1.926632E-10 -8.422486E-09
        29  11 -2.184678E+06 -4.362706E+02 -1.454211E+05 -2.254380E+03  7.993072E-10 -1.080307E-08
        29  12 -2.213656E+06 -3.811834E+04 -1.096103E+05  3.625859E+03 -2.207260E-09  4.595036E-08
        29  13 -2.038712E+06 -1.793985E+05 -2.356962E+05  2.235238E+03  2.177606E-09 -2.045767E-10
        29  14 -2.009950E+06  4.334613E+04 -1.016406E+05 -1.479949E+03  5.378952E-09 -3.062731E-11
        29  15 -2.038493E+06  5.784136E+03 -6.571524E+04  1.824296E+03  2.986909E-09  1.672484E-10
        29  16 -1.864371E+06 -1.356974E+05 -1.920110E+05  5.586335E+03 -6.890673E-10  9.543637E-09
        29  17 -1.835195E+06  8.712621E+04 -5.786244E+04 -7.053006E+02  2.439484E-09  1.022535E-08
        29  18 -1.863303E+06  4.968429E+04 -2.182251E+04  2.223760E+01  5.915278E-09 -4.451887E-08
        29  19 -2.212998E+06 -2.230947E+05 -2.793346E+05 -1.114900E+03  1.613645E+05  2.469770E+02
        29  20 -2.184665E+06 -4.332355E+02 -1.453999E+05 -2.254408E+03  1.060915E+05 -3.236029E+02
        29  21 -2.213653E+06 -3.811764E+04 -1.096054E+05  3.625849E+03  5.081944E+04 -2.518355E+02
        29  22 -2.038684E+06 -1.793914E+05 -2.356471E+05  2.235270E+03  1.613776E+05  2.478032E+02
        29  23 -2.009938E+06  4.334916E+04 -1.016194E+05 -1.479977E+03  1.061063E+05 -3.234652E+02
        29  24 -2.038491E+06  5.784832E+03 -6.571037E+04  1.824286E+03  5.083600E+04 -2.519927E+02
        29  25 -1.864343E+06 -1.356904E+05 -1.919619E+05  5.586367E+03  1.613906E+05  2.486293E+02
        29  26 -1.835183E+06  8.712924E+04 -5.784122E+04 -7.053282E+02  1.061212E+05 -3.233276E+02
        29  27 -1.863300E+06  4.968499E+04 -2.181764E+04  2.222727E+01  5.085256E+04 -2.521500E+02
        30   1 -1.885177E+06  6.973523E+03 -1.927125E+04 -1.315918E+03 -4.005155E+04 -1.129402E+01
        30   2 -1.883783E+06  4.226054E+04  8.821979E+03  1.326161E+03 -2.624897E+04 -2.674415E+02
        30   3 -1.884619E+06  3.647041E+04  1.961494E+04 -1.348040E+02 -1.244627E+04 -1.354899E+02
        30   4 -2.026307E+06 -2.838881E+04 -5.463012E+04 -6.061516E+02 -4.005532E+04 -1.131817E+01
        30   5 -2.025169E+06  6.838444E+03 -2.659702E+04  1.475554E+03 -2.624621E+04 -2.674511E+02
        30   6 -2.026266E+06  9.813840E+02 -1.587191E+04 -5.458430E+02 -1.243697E+04 -1.354734E+02
        30   7 -2.167419E+06 -6.375265E+04 -8.999051E+04  1.034630E+02 -4.005910E+04 -1.134233E+01
        30   8 -2.166537E+06 -2.858517E+04 -6.201754E+04  1.624914E+03 -2.624344E+04 -2.674607E+02
        30   9 -2.167894E+06 -3.450916E+04 -5.136028E+04 -9.567943E+02 -1.242767E+04 -1.354568E+02
        30  10 -1.885178E+06  6.973090E+03 -1.927427E+04 -1.315918E+03 -3.451850E-10 -1.096748E-08
        30  11 -1.883784E+06  4.226036E+04  8.820680E+03  1.326156E+03  2.312114E-09 -5.847008E-08
        30  12 -1.884620E+06  3.647037E+04  1.961465E+04 -1.348054E+02 -1.558969E-08  2.537282E-07
        30  13 -2.026309E+06 -2.838924E+04 -5.463315E+04 -6.061520E+02 -2.156694E-09  9.356957E-11
        30  14 -2.025170E+06  6.838258E+03 -2.659832E+04  1.475548E+03  1.164621E-09  1.653564E-09
        30  15 -2.026266E+06  9.813422E+02 -1.587220E+04 -5.458443E+02  1.823044E-10  3.897000E-10
        30  16 -2.167421E+06 -6.375308E+04 -8.999354E+04  1.034626E+02  2.891197E-09  1.503015E-08
        30  17 -2.166537E+06 -2.858536E+04 -6.201884E+04  1.624908E+03 -2.131161E-09  6.190625E-08
        30  18 -2.167894E+06 -3.450920E+04 -5.136057E+04 -9.567956E+02  1.681494E-08 -2.536864E-07
        30  19 -1.885177E+06  6.973523E+03 -1.927125E+04 -1.315918E+03  4.005155E+04  1.129402E+01
        30  20 -1.883783E+06  4.226054E+04  8.821979E+03  1.326161E+03  2.624897E+04  2.674415E+02
        30  21 -1.884619E+06  3.647041E+04  1.961494E+04 -1.348040E+02  1.244627E+04  1.354899E+02
        30  22 -2.026307E+06 -2.838881E+04 -5.463012E+04 -6.061516E+02  4.005532E+04  1.131817E+01
        30  23 -2.025169E+06  6.838444E+03 -2.659702E+04  1.475554E+03  2.624621E+04  2.674511E+02
        30  24 -2.026266E+06  9.813838E+02 -1.587191E+04 -5.458430E+02  1.243697E+04  1.354734E+02
        30  25 -2.167419E+06 -6.375265E+04 -8.999051E+04  1.034630E+02  4.005910E+04  1.134233E+01
        30  26 -2.166537E+06 -2.858517E+04 -6.201754E+04  1.624914E+03  2.624344E+04  2.674607E+02
        30  27 -2.167894E+06 -3.450916E+04 -5.136028E+04 -9.567943E+02  1.242767E+04  1.354568E+02
        31   1 -2.144565E+06 -3.459351E+04 -4.289403E+04  6.734964E+02 -9.942578E+03  7.346793E+01
        31   2 -2.147212E+06 -2.899324E+04 -3.718247E+04 -3.241570E+02 -6.412584E+03  2.355724E+02
        31   3 -2.144856E+06 -2.994485E+04 -3.398832E+04  1.081024E+03 -2.882656E+03  1.025934E+02
        31   4 -2.024666E+06 -4.548675E+03 -1.285064E+04  8.912415E+02 -9.936615E+03  7.347430E+01
        31   5 -2.027164E+06  1.087970E+03 -7.104106E+03 -3.133677E+02 -6.413087E+03  2.355694E+02
        31   6 -2.024656E+06  1.751519E+02 -3.869890E+03  8.848350E+02 -2.889624E+03  1.026033E+02
        31   7 -1.904753E+06  2.549507E+04  1.719166E+04  1.109024E+03 -9.930650E+03  7.348068E+01
        31   8 -1.907102E+06  3.116808E+04  2.297316E+04 -3.025761E+02 -6.413590E+03  2.355664E+02
        31   9 -1.904442E+06  3.029406E+04  2.624745E+04  6.886131E+02 -2.896594E+03  1.026132E+02
        31  10 -2.144565E+06 -3.459354E+04 -4.289421E+04  6.735041E+02  1.472508E-05  1.157957E-06
        31  11 -2.147212E+06 -2.899325E+04 -3.718255E+04 -3.241242E+02  6.563968E-05  2.421720E-06
        31  12 -2.144856E+06 -2.994486E+04 -3.398834E+04  1.081080E+03  1.166520E-04  1.746262E-06
        31  13 -2.024666E+06 -4.548702E+03 -1.285082E+04  8.912421E+02  3.705971E-05 -2.074973E-07
        31  14 -2.027164E+06  1.087959E+03 -7.104183E+03 -3.133664E+02  1.644166E-04 -1.088860E-06
        31  15 -2.024656E+06  1.751498E+02 -3.869905E+03  8.848353E+02  2.917767E-04 -2.232582E-06
        31  16 -1.904753E+06  2.549504E+04  1.719147E+04  1.109017E+03  1.492111E-05 -6.820138E-07
        31  17 -1.907102E+06  3.116807E+04  2.297309E+04 -3.026064E+02  6.589547E-05 -6.911081E-07
        31  18 -1.904442E+06  3.029406E+04  2.624743E+04  6.885574E+02  1.167799E-04  7.269174E-07
        31  19 -2.144565E+06 -3.459351E+04 -4.289403E+04  6.735107E+02  9.942578E+03 -7.346792E+01
        31  20 -2.147212E+06 -2.899324E+04 -3.718247E+04 -3.240938E+02  6.412584E+03 -2.355724E+02
        31  21 -2.144856E+06 -2.994486E+04 -3.398832E+04  1.081136E+03  2.882656E+03 -1.025933E+02
        31  22 -2.024666E+06 -4.548675E+03 -1.285064E+04  8.912415E+02  9.936615E+03 -7.347430E+01
        31  23 -2.027164E+06  1.087970E+03 -7.104106E+03 -3.133676E+02  6.413087E+03 -2.355694E+02
        31  24 -2.024656E+06  1.751522E+02 -3.869889E+03  8.848350E+02  2.889625E+03 -1.026033E+02
        31  25 -1.904753E+06  2.549507E+04  1.719166E+04  1.109010E+03  9.930650E+03 -7.348069E+01
        31  26 -1.907102E+06  3.116808E+04  2.297317E+04 -3.026392E+02  6.413590E+03 -2.355664E+02
        31  27 -1.904442E+06  3.029406E+04  2.624745E+04  6.885011E+02  2.896594E+03 -1.026132E+02
        32   1 -1.916032E+06  2.644257E+04  2.404277E+04 -3.175803E+01 -2.327774E+03 -7.808133E+01
        32   2 -1.918645E+06  2.741449E+04  2.482706E+04  6.156762E+02 -1.228739E+03 -2.126623E+02
        32   3 -1.915894E+06  2.715812E+04  2.575264E+04  2.396787E+02 -1.296246E+02 -8.645475E+01
        32   4 -2.024579E+06 -7.534227E+02 -3.151936E+03  1.237621E+02 -2.333795E+03 -7.807267E+01
        32   5 -2.027258E+06  2.024397E+02 -2.382357E+03  6.361253E+02 -1.228685E+03 -2.126647E+02
        32   6 -2.024576E+06 -7.161688E+01 -1.475871E+03  1.250411E+02 -1.234956E+02 -8.644869E+01
        32   7 -2.133115E+06 -2.795031E+04 -3.034754E+04  2.792593E+02 -2.339815E+03 -7.806400E+01
        32   8 -2.135861E+06 -2.701051E+04 -2.959266E+04  6.565714E+02 -1.228631E+03 -2.126671E+02
        32   9 -2.133248E+06 -2.730225E+04 -2.870528E+04  1.042052E+01 -1.173676E+02 -8.644262E+01
        32  10 -1.916032E+06  2.644257E+04  2.404276E+04 -3.170362E+01  1.137743E-04  4.254386E-07
        32  11 -1.918645E+06  2.741449E+04  2.482705E+04  6.157011E+02  5.246307E-05 -1.234478E-06
        32  12 -1.915894E+06  2.715812E+04  2.575264E+04  2.396743E+02 -8.932946E-06 -1.383150E-06
        32  13 -2.024579E+06 -7.534242E+02 -3.151946E+03  1.237620E+02  2.841939E-04 -2.165131E-06
        32  14 -2.027258E+06  2.024396E+02 -2.382360E+03  6.361251E+02  1.307714E-04 -8.002089E-07
        32  15 -2.024576E+06 -7.161681E+01 -1.475871E+03  1.250411E+02 -2.264906E-05  2.871651E-07
        32  16 -2.133115E+06 -2.795031E+04 -3.034755E+04  2.792046E+02  1.135909E-04  1.940748E-06
        32  17 -2.135861E+06 -2.701050E+04 -2.959267E+04  6.565461E+02  5.215428E-05  2.428343E-06
        32  18 -2.133248E+06 -2.730225E+04 -2.870528E+04  1.042485E+01 -9.185419E-06  8.637928E-07
        32  19 -1.916032E+06  2.644257E+04  2.404277E+04 -3.164892E+01  2.327774E+03  7.808133E+01
        32  20 -1.918645E+06  2.741449E+04  2.482705E+04  6.157264E+02  1.228739E+03  2.126623E+02
        32  21 -1.915894E+06  2.715812E+04  2.575264E+04  2.396700E+02  1.296246E+02  8.645475E+01
        32  22 -2.024579E+06 -7.534228E+02 -3.151937E+03  1.237622E+02  2.333795E+03  7.807266E+01
        32  23 -2.027258E+06  2.024404E+02 -2.382357E+03  6.361253E+02  1.228685E+03  2.126647E+02
        32  24 -2.024576E+06 -7.161671E+01 -1.475872E+03  1.250411E+02  1.234955E+02  8.644869E+01
        32  25 -2.133115E+06 -2.795031E+04 -3.034754E+04  2.791502E+02  2.339815E+03  7.806400E+01
        32  26 -2.135861E+06 -2.701050E+04 -2.959266E+04  6.565212E+02  1.228631E+03  2.126671E+02
        32  27 -2.133248E+06 -2.730225E+04 -2.870528E+04  1.042919E+01  1.173676E+02  8.644263E+01
        33   1 -2.130706E+06 -2.668435E+04 -2.806391E+04  1.809774E+02  6.790482E+01  8.277169E+01
        33   2 -2.133242E+06 -2.637823E+04 -2.889359E+04  4.418282E+02  1.152713E+03  2.077352E+02
        33   3 -2.130674E+06 -2.726579E+04 -2.961799E+04  4.376886E+02  2.237475E+03  7.807157E+01
        33   4 -2.024633E+06 -1.048951E+02 -1.485629E+03  2.935816E+02  7.392256E+01  8.277774E+01
        33   5 -2.027187E+06  1.962850E+02 -2.321644E+03  4.254889E+02  1.152798E+03  2.077329E+02
        33   6 -2.024635E+06 -6.946378E+02 -3.048085E+03  2.924086E+02  2.231626E+03  7.807956E+01
        33   7 -1.918550E+06  2.647370E+04  2.509179E+04  4.062021E+02  7.994143E+01  8.278380E+01
        33   8 -1.921122E+06  2.676995E+04  2.424945E+04  4.091473E+02  1.152882E+03  2.077307E+02
        33   9 -1.918586E+06  2.587566E+04  2.352097E+04  1.471077E+02  2.225776E+03  7.808755E+01
        33  10 -2.130706E+06 -2.668434E+04 -2.806391E+04  1.809622E+02 -3.168540E-05 -1.330615E-06
        33  11 -2.133242E+06 -2.637823E+04 -2.889359E+04  4.418047E+02 -4.836605E-05 -1.546596E-06
        33  12 -2.130674E+06 -2.726579E+04 -2.961800E+04  4.376572E+02 -6.512642E-05 -1.105134E-06
        33  13 -2.024633E+06 -1.048949E+02 -1.485629E+03  2.935816E+02 -7.942654E-05  7.130235E-07
        33  14 -2.027187E+06  1.962848E+02 -2.321647E+03  4.254887E+02 -1.211350E-04  1.327157E-06
        33  15 -2.024635E+06 -6.946393E+02 -3.048094E+03  2.924085E+02 -1.628462E-04  2.018375E-06
        33  16 -1.918550E+06  2.647370E+04  2.509179E+04  4.062173E+02 -3.185451E-05 -3.597290E-08
        33  17 -1.921122E+06  2.676995E+04  2.424944E+04  4.091704E+02 -4.854049E-05 -5.225245E-07
        33  18 -1.918586E+06  2.587566E+04  2.352096E+04  1.471388E+02 -6.515596E-05 -1.500917E-06
        33  19 -2.130706E+06 -2.668434E+04 -2.806391E+04  1.809469E+02 -6.790488E+01 -8.277169E+01
        33  20 -2.133242E+06 -2.637823E+04 -2.889359E+04  4.417816E+02 -1.152713E+03 -2.077352E+02
        33  21 -2.130674E+06 -2.726579E+04 -2.961799E+04  4.376260E+02 -2.237475E+03 -7.807157E+01
        33  22 -2.024633E+06 -1.048947E+02 -1.485629E+03  2.935816E+02 -7.392272E+01 -8.277774E+01
        33  23 -2.027187E+06  1.962853E+02 -2.321644E+03  4.254889E+02 -1.152798E+03 -2.077329E+02
        33  24 -2.024635E+06 -6.946382E+02 -3.048085E+03  2.924086E+02 -2.231626E+03 -7.807955E+01
        33  25 -1.918550E+06  2.647370E+04  2.509179E+04  4.062326E+02 -7.994149E+01 -8.278380E+01
        33  26 -1.921122E+06  2.676995E+04  2.424945E+04  4.091938E+02 -1.152882E+03 -2.077307E+02
        33  27 -1.918586E+06  2.587566E+04  2.352096E+04  1.471702E+02 -2.225776E+03 -7.808755E+01
        34   1 -1.912522E+06  2.827789E+04  2.436485E+04  5.232609E+02  2.783118E+03 -9.444102E+01
        34   2 -1.914724E+06  2.915981E+04  2.129648E+04 -7.894951E+01  6.167198E+03 -2.204610E+02
        34   3 -1.912737E+06  2.374638E+04  1.569031E+04  8.998317E+02  9.551254E+03 -7.104849E+01
        34   4 -2.024837E+06  1.375885E+02 -3.774014E+03  7.023878E+02  2.776579E+03 -9.443196E+01
        34   5 -2.026936E+06  1.046373E+03 -6.814304E+03 -8.534675E+01  6.166716E+03 -2.204636E+02
        34   6 -2.024846E+06 -4.342373E+03 -1.239712E+04  7.079331E+02  9.556830E+03 -7.104325E+01
        34   7 -2.137142E+06 -2.800367E+04 -3.191384E+04  8.814866E+02  2.770041E+03 -9.442290E+01
        34   8 -2.139136E+06 -2.706802E+04 -3.492604E+04 -9.174257E+01  6.166235E+03 -2.204662E+02
        34   9 -2.136944E+06 -3.243208E+04 -4.048551E+04  5.160655E+02  9.562406E+03 -7.103800E+01
        34  10 -1.912522E+06  2.827789E+04  2.436484E+04  5.232393E+02 -4.565519E-05  4.693293E-07
        34  11 -1.914724E+06  2.915980E+04  2.129640E+04 -7.892963E+01  3.870776E-05  3.623118E-06
        34  12 -1.912737E+06  2.374635E+04  1.569014E+04  8.998916E+02  1.233078E-04  4.562564E-06
        34  13 -2.024837E+06  1.375864E+02 -3.774028E+03  7.023880E+02 -1.135207E-04  1.366499E-06
        34  14 -2.026936E+06  1.046362E+03 -6.814376E+03 -8.534564E+01  9.769268E-05 -1.355134E-06
        34  15 -2.024846E+06 -4.342398E+03 -1.239729E+04  7.079337E+02  3.088887E-04 -3.674012E-06
        34  16 -2.137142E+06 -2.800367E+04 -3.191386E+04  8.815086E+02 -4.516204E-05 -2.220343E-06
        34  17 -2.139136E+06 -2.706803E+04 -3.492611E+04 -9.176020E+01  3.945008E-05 -1.476537E-06
        34  18 -2.136944E+06 -3.243210E+04 -4.048568E+04  5.160068E+02  1.237904E-04  2.289689E-06
        34  19 -1.912522E+06  2.827789E+04  2.436486E+04  5.232173E+02 -2.783118E+03  9.444102E+01
        34  20 -1.914724E+06  2.915981E+04  2.129648E+04 -7.891193E+01 -6.167198E+03  2.204610E+02
        34  21 -1.912737E+06  2.374636E+04  1.569031E+04  8.999503E+02 -9.551253E+03  7.104850E+01
        34  22 -2.024837E+06  1.375885E+02 -3.774013E+03  7.023878E+02 -2.776579E+03  9.443196E+01
        34  23 -2.026936E+06  1.046372E+03 -6.814304E+03 -8.534673E+01 -6.166716E+03  2.204636E+02
        34  24 -2.024846E+06 -4.342373E+03 -1.239712E+04  7.079331E+02 -9.556830E+03  7.104324E+01
        34  25 -2.137142E+06 -2.800367E+04 -3.191384E+04  8.815302E+02 -2.770041E+03  9.442290E+01
        34  26 -2.139136E+06 -2.706802E+04 -3.492604E+04 -9.178003E+01 -6.166235E+03  2.204662E+02
        34  27 -2.136944E+06 -3.243207E+04 -4.048550E+04  5.159470E+02 -9.562405E+03  7.103800E+01
        35   1 -2.154356E+06 -3.111604E+04 -4.737831E+04 -7.052481E+02  1.197831E+04  1.206320E+02
        35   2 -2.152369E+06 -2.537868E+04 -5.750005E+04  1.345462E+03  2.526752E+04  2.420393E+02
        35   3 -2.154006E+06 -5.924379E+04 -8.458746E+04  2.591963E+02  3.855682E+04  1.513464E+01
        35   4 -2.026573E+06  9.046543E+02 -1.535952E+04 -3.330559E+02  1.198668E+04  1.206462E+02
        35   5 -2.024782E+06  6.591406E+03 -2.553276E+04  1.209401E+03  2.526994E+04  2.420310E+02
        35   6 -2.026611E+06 -2.731817E+04 -5.266481E+04 -3.850903E+02  3.855330E+04  1.511186E+01
        35   7 -1.898775E+06  3.292410E+04  1.665803E+04  3.920847E+01  1.199505E+04  1.206603E+02
        35   8 -1.897181E+06  3.856026E+04  6.433285E+03  1.073313E+03  2.527237E+04  2.420227E+02
        35   9 -1.899202E+06  4.606218E+03 -2.074338E+04 -1.029502E+03  3.854978E+04  1.508909E+01
        35  10 -2.154356E+06 -3.111608E+04 -4.737858E+04 -7.051862E+02  1.315734E-04  3.103624E-06
        35  11 -2.152369E+06 -2.537885E+04 -5.750125E+04  1.345493E+03  7.433076E-05  6.682385E-08
        35  12 -2.154008E+06 -5.924419E+04 -8.459027E+04  2.592039E+02  1.687684E-05 -6.581372E-07
        35  13 -2.026573E+06  9.046154E+02 -1.535979E+04 -3.330570E+02  3.286092E-04 -3.896836E-06
        35  14 -2.024783E+06  6.591234E+03 -2.553397E+04  1.209396E+03  1.851781E-04 -2.395445E-06
        35  15 -2.026613E+06 -2.731857E+04 -5.266761E+04 -3.850908E+02  4.174232E-05 -5.822072E-07
        35  16 -1.898776E+06  3.292407E+04  1.665776E+04  3.914421E+01  1.312970E-04  4.113448E-06
        35  17 -1.897181E+06  3.856009E+04  6.432082E+03  1.073273E+03  7.381621E-05  3.604187E-06
        35  18 -1.899203E+06  4.605819E+03 -2.074618E+04 -1.029511E+03  1.651936E-05  1.403072E-06
        35  19 -2.154356E+06 -3.111605E+04 -4.737831E+04 -7.051220E+02 -1.197831E+04 -1.206320E+02
        35  20 -2.152369E+06 -2.537868E+04 -5.750005E+04  1.345534E+03 -2.526752E+04 -2.420393E+02
        35  21 -2.154006E+06 -5.924379E+04 -8.458747E+04  2.592123E+02 -3.855682E+04 -1.513465E+01
        35  22 -2.026573E+06  9.046540E+02 -1.535952E+04 -3.330559E+02 -1.198668E+04 -1.206462E+02
        35  23 -2.024782E+06  6.591407E+03 -2.553276E+04  1.209401E+03 -2.526994E+04 -2.420310E+02
        35  24 -2.026611E+06 -2.731817E+04 -5.266481E+04 -3.850903E+02 -3.855330E+04 -1.511186E+01
        35  25 -1.898775E+06  3.292412E+04  1.665803E+04  3.908228E+01 -1.199505E+04 -1.206603E+02
        35  26 -1.897181E+06  3.856026E+04  6.433287E+03  1.073242E+03 -2.527237E+04 -2.420227E+02
        35  27 -1.899202E+06  4.606220E+03 -2.074338E+04 -1.029518E+03 -3.854978E+04 -1.508908E+01
        36   1 -1.884444E+06  4.416096E+04 -2.477647E+04 -1.421613E+02  4.899396E+04 -2.199685E+02
        36   2 -1.855833E+06  8.036725E+04 -5.913633E+04 -3.913354E+02  1.021858E+05 -2.900770E+02
        36   3 -1.885308E+06 -1.344932E+05 -1.886185E+05  5.046770E+03  1.553790E+05  1.991021E+02
        36   4 -2.038669E+06  5.514066E+03 -6.341697E+04  1.544221E+03  4.897957E+04 -2.198274E+02
        36   5 -2.009709E+06  4.181739E+04 -9.768449E+04 -1.129039E+03  1.021732E+05 -2.902029E+02
        36   6 -2.038853E+06 -1.729806E+05 -2.270928E+05  1.885154E+03  1.553683E+05  1.983438E+02
        36   7 -2.192873E+06 -3.313462E+04 -1.020593E+05  3.230194E+03  4.896518E+04 -2.196863E+02
        36   8 -2.163564E+06  3.265732E+03 -1.362344E+05 -1.866561E+03  1.021606E+05 -2.903287E+02
        36   9 -2.192377E+06 -2.114698E+05 -2.655690E+05 -1.275689E+03  1.553576E+05  1.975854E+02
        36  10 -1.884446E+06  4.416031E+04 -2.478100E+04 -1.421526E+02  2.427052E-08 -2.727960E-07
        36  11 -1.855845E+06  8.036444E+04 -5.915601E+04 -3.913115E+02 -3.621858E-09  5.774757E-08
        36  12 -1.885334E+06 -1.344997E+05 -1.886640E+05  5.046745E+03 -3.655580E-09  5.810616E-08
        36  13 -2.038672E+06  5.513419E+03 -6.342149E+04  1.544230E+03 -7.657923E-11  3.745408E-09
        36  14 -2.009721E+06  4.181458E+04 -9.770417E+04 -1.129016E+03  1.171992E-09  3.046201E-09
        36  15 -2.038879E+06 -1.729871E+05 -2.271384E+05  1.885129E+03  2.274259E-10  1.372434E-09
        36  16 -2.192875E+06 -3.313527E+04 -1.020638E+05  3.230203E+03 -2.463908E-08  2.834197E-07
        36  17 -2.163575E+06  3.262918E+03 -1.362541E+05 -1.866537E+03  5.189146E-09 -5.239515E-08
        36  18 -2.192403E+06 -2.114763E+05 -2.656145E+05 -1.275714E+03  4.833859E-09 -6.236468E-08
        36  19 -1.884444E+06  4.416096E+04 -2.477647E+04 -1.421613E+02 -4.899396E+04  2.199685E+02
        36  20 -1.855833E+06  8.036725E+04 -5.913633E+04 -3.913354E+02 -1.021858E+05  2.900770E+02
        36  21 -1.885308E+06 -1.344932E+05 -1.886185E+05  5.046770E+03 -1.553790E+05 -1.991021E+02
        36  22 -2.038669E+06  5.514066E+03 -6.341697E+04  1.544221E+03 -4.897957E+04  2.198274E+02
        36  23 -2.009709E+06  4.181739E+04 -9.768449E+04 -1.129039E+03 -1.021732E+05  2.902029E+02
        36  24 -2.038853E+06 -1.729806E+05 -2.270928E+05  1.885154E+03 -1.553683E+05 -1.983438E+02
        36  25 -2.192873E+06 -3.313462E+04 -1.020593E+05  3.230194E+03 -4.896518E+04  2.196863E+02
        36  26 -2.163564E+06  3.265732E+03 -1.362344E+05 -1.866561E+03 -1.021606E+05  2.903287E+02
        36  27 -2.192377E+06 -2.114698E+05 -2.655690E+05 -1.275689E+03 -1.553576E+05 -1.975854E+02
        37   1  1.405962E+05  1.258760E+04  1.842045E+05 -1.980138E+03 -3.770241E+02  1.256145E+05
        37   2 -3.402260E+04 -1.574294E+04  7.851512E+04 -6.470514E+02 -2.478175E+02  8.264483E+04
        37   3 -4.340589E+03  1.260169E+04  5.188495E+04  1.128527E+03 -1.188524E+02  3.967393E+04
        37   4  1.405820E+05  1.260176E+04  1.842045E+05  3.836409E+02 -3.765458E+02  1.256145E+05
        37   5 -3.402615E+04 -1.573939E+04  7.851512E+04 -5.481746E+01 -2.477386E+02  8.264483E+04
        37   6 -4.333522E+03  1.259462E+04  5.188495E+04 -5.074477E+01 -1.189278E+02  3.967393E+04
        37   7  1.405678E+05  1.261594E+04  1.842045E+05  2.747420E+03 -3.760675E+02  1.256145E+05
        37   8 -3.402970E+04 -1.573583E+04  7.851512E+04  5.374164E+02 -2.476598E+02  8.264483E+04
        37   9 -4.326449E+03  1.258755E+04  5.188495E+04 -1.230016E+03 -1.190031E+02  3.967393E+04
        37  10  1.405919E+05  1.257065E+04  1.841748E+05 -1.980100E+03 -3.501462E-10  4.019054E-11
        37  11 -3.402443E+04 -1.575027E+04  7.850228E+04 -6.470349E+02  1.968260E-09 -1.090348E-11
        37  12 -4.341012E+03  1.260000E+04  5.188199E+04  1.128531E+03  3.988725E-10 -7.477792E-11
        37  13  1.405778E+05  1.258482E+04  1.841748E+05  3.836789E+02  1.213932E-10  5.875771E-11
        37  14 -3.402799E+04 -1.574672E+04  7.850228E+04 -5.480097E+01 -5.100483E-09 -1.223805E-11
        37  15 -4.333944E+03  1.259293E+04  5.188199E+04 -5.074097E+01  2.490692E-09  2.520945E-11
        37  16  1.405636E+05  1.259900E+04  1.841748E+05  2.747458E+03  1.886032E-10  2.177374E-11
        37  17 -3.403154E+04 -1.574317E+04  7.850228E+04  5.374329E+02  1.093101E-09  1.078230E-11
        37  18 -4.326872E+03  1.258586E+04  5.188199E+04 -1.230013E+03 -4.766532E-10  6.691926E-11
        37  19  1.405962E+05  1.258760E+04  1.842045E+05 -1.980138E+03  3.770241E+02 -1.256145E+05
        37  20 -3.402260E+04 -1.574294E+04  7.851512E+04 -6.470514E+02  2.478175E+02 -8.264483E+04
        37  21 -4.340589E+03  1.260169E+04  5.188495E+04  1.128527E+03  1.188524E+02 -3.967393E+04
        37  22  1.405820E+05  1.260176E+04  1.842045E+05  3.836409E+02  3.765458E+02 -1.256145E+05
        37  23 -3.402615E+04 -1.573939E+04  7.851512E+04 -5.481746E+01  2.477386E+02 -8.264483E+04
        37  24 -4.333522E+03  1.259462E+04  5.188495E+04 -5.074477E+01  1.189278E+02 -3.967393E+04
        37  25  1.405678E+05  1.261594E+04  1.842045E+05  2.747420E+03  3.760675E+02 -1.256145E+05
        37  26 -3.402970E+04 -1.573583E+04  7.851512E+04  5.374164E+02  2.476598E+02 -8.264483E+04
        37  27 -4.326449E+03  1.258755E+04  5.188495E+04 -1.230016E+03  1.190031E+02 -3.967393E+04
        38   1  2.208465E+04  2.103307E+03  4.305999E+04 -2.968701E+02 -9.303328E+01  3.102966E+04
        38   2 -5.368821E+03 -2.631374E+03  2.061646E+04 -9.177093E+01 -6.050972E+01  2.018495E+04
        38   3 -5.843218E+02  2.105991E+03  1.329346E+04  1.815723E+02 -2.799585E+01  9.340279E+03
        38   4  2.208251E+04  2.105446E+03  4.305999E+04  5.988439E+01 -9.301545E+01  3.102966E+04
        38   5 -5.369322E+03 -2.630873E+03  2.061646E+04 -8.208933E+00 -6.050701E+01  2.018495E+04
        38   6 -5.831850E+02  2.104854E+03  1.329346E+04 -8.057820E+00 -2.799870E+01  9.340279E+03
        38   7  2.208037E+04  2.107585E+03  4.305999E+04  4.166389E+02 -9.299762E+01  3.102966E+04
        38   8 -5.369823E+03 -2.630372E+03  2.061646E+04  7.535307E+01 -6.050429E+01  2.018495E+04
        38   9 -5.820480E+02  2.103717E+03  1.329346E+04 -1.976879E+02 -2.800156E+01  9.340279E+03
        38  10  2.208439E+04  2.102273E+03  4.305818E+04 -2.968678E+02  8.392244E-10  3.238044E-11
        38  11 -5.368931E+03 -2.631811E+03  2.061569E+04 -9.176995E+01  1.377787E-09  2.134546E-11
        38  12 -5.843452E+02  2.105897E+03  1.329330E+04  1.815725E+02  1.226056E-09 -8.091148E-11
        38  13  2.208225E+04  2.104412E+03  4.305818E+04  5.988672E+01  1.091106E-09 -1.537886E-11
        38  14 -5.369432E+03 -2.631310E+03  2.061569E+04 -8.207949E+00  1.512093E-09  9.560396E-13
        38  15 -5.832084E+02  2.104761E+03  1.329330E+04 -8.057609E+00  2.911443E-09  3.403363E-12
        38  16  2.208011E+04  2.106551E+03  4.305818E+04  4.166412E+02 -2.324134E-09 -2.643969E-11
        38  17 -5.369933E+03 -2.630809E+03  2.061569E+04  7.535405E+01  2.555671E-09 -8.911008E-12
        38  18 -5.820714E+02  2.103624E+03  1.329330E+04 -1.976877E+02 -3.214559E-10  6.695553E-11
        38  19  2.208465E+04  2.103307E+03  4.305999E+04 -2.968701E+02  9.303328E+01 -3.102966E+04
        38  20 -5.368821E+03 -2.631374E+03  2.061646E+04 -9.177093E+01  6.050972E+01 -2.018495E+04
        38  21 -5.843218E+02  2.105991E+03  1.329346E+04  1.815723E+02  2.799585E+01 -9.340279E+03
        38  22  2.208251E+04  2.105446E+03  4.305999E+04  5.988439E+01  9.301545E+01 -3.102966E+04
        38  23 -5.369322E+03 -2.630873E+03  2.061646E+04 -8.208933E+00  6.050701E+01 -2.018495E+04
        38  24 -5.831850E+02  2.104854E+03  1.329346E+04 -8.057820E+00  2.799870E+01 -9.340279E+03
        38  25  2.208037E+04  2.107585E+03  4.305999E+04  4.166389E+02  9.299762E+01 -3.102966E+04
        38  26 -5.369823E+03 -2.630372E+03  2.061646E+04  7.535307E+01  6.050429E+01 -2.018495E+04
        38  27 -5.820480E+02  2.103717E+03  1.329346E+04 -1.976879E+02  2.800156E+01 -9.340279E+03
        39   1  3.438358E+03  4.183327E+02  1.096307E+04 -4.768374E+01 -2.139177E+01  7.136008E+03
        39   2 -9.674609E+02 -5.233327E+02  6.469273E+03 -1.096514E+01 -1.145556E+01  3.821518E+03
        39   3  4.356215E+02  4.188472E+02  5.585602E+03  3.751875E+01 -1.520018E+00  5.070835E+02
        39   4  3.438018E+03  4.186728E+02  1.096307E+04  9.050962E+00 -2.139111E+01  7.136008E+03
        39   5 -9.675187E+02 -5.232750E+02  6.469273E+03 -1.331690E+00 -1.145550E+01  3.821518E+03
        39   6  4.358461E+02  4.186226E+02  5.585602E+03  5.163015E-02 -1.520049E+00  5.070835E+02
        39   7  3.437678E+03  4.190130E+02  1.096307E+04  6.578567E+01 -2.139046E+01  7.136008E+03
        39   8 -9.675764E+02 -5.232172E+02  6.469273E+03  8.301764E+00 -1.145544E+01  3.821518E+03
        39   9  4.360708E+02  4.183980E+02  5.585602E+03 -3.741549E+01 -1.520079E+00  5.070835E+02
        39  10  3.438344E+03  4.182780E+02  1.096297E+04 -4.768362E+01 -5.409568E-10  8.855452E-11
        39  11 -9.674649E+02 -5.233484E+02  6.469246E+03 -1.096511E+01 -1.039402E-09  1.954890E-11
        39  12  4.356214E+02  4.188470E+02  5.585601E+03  3.751875E+01 -8.062570E-10 -2.797521E-10
        39  13  3.438004E+03  4.186181E+02  1.096297E+04  9.051085E+00  1.529665E-09 -2.825491E-13
        39  14 -9.675226E+02 -5.232906E+02  6.469246E+03 -1.331655E+00 -1.291429E-09 -2.211905E-11
        39  15  4.358461E+02  4.186223E+02  5.585601E+03  5.163077E-02 -3.910707E-09 -3.544595E-11
        39  16  3.437664E+03  4.189583E+02  1.096297E+04  6.578579E+01 -6.914233E-11 -9.770269E-11
        39  17 -9.675804E+02 -5.232329E+02  6.469246E+03  8.301799E+00  2.057053E-09 -3.723271E-11
        39  18  4.360707E+02  4.183977E+02  5.585601E+03 -3.741549E+01 -3.331403E-09  2.298104E-10
        39  19  3.438358E+03  4.183327E+02  1.096307E+04 -4.768374E+01  2.139177E+01 -7.136008E+03
        39  20 -9.674609E+02 -5.233327E+02  6.469273E+03 -1.096514E+01  1.145556E+01 -3.821518E+03
        39  21  4.356215E+02  4.188472E+02  5.585602E+03  3.751875E+01  1.520018E+00 -5.070835E+02
        39  22  3.438018E+03  4.186728E+02  1.096307E+04  9.050962E+00  2.139111E+01 -7.136008E+03
        39  23 -9.675187E+02 -5.232750E+02  6.469273E+03 -1.331690E+00  1.145550E+01 -3.821518E+03
        39  24  4.358461E+02  4.186226E+02  5.585602E+03  5.163010E-02  1.520049E+00 -5.070835E+02
        39  25  3.437678E+03  4.190130E+02  1.096307E+04  6.578567E+01  2.139046E+01 -7.136008E+03
        39  26 -9.675764E+02 -5.232172E+02  6.469273E+03  8.301764E+00  1.145544E+01 -3.821518E+03
        39  27  4.360708E+02  4.183980E+02  5.585602E+03 -3.741549E+01  1.520079E+00 -5.070835E+02
        40   1 -4.695378E+06 -1.493114E+06 -9.572942E+05 -1.648252E+06 -4.846769E+05 -1.743619E+05
        40   2 -4.568877E+06 -7.767730E+05 -5.066556E+05 -1.733772E+06 -3.140122E+05 -9.206031E+04
        40   3 -4.707019E+06 -7.738442E+05 -3.782304E+05 -1.661363E+06 -1.368359E+05 -2.695285E+04
        40   4 -4.031568E+06 -1.094212E+06 -7.461029E+05 -1.317393E+06 -4.747743E+05 -1.707610E+05
        40   5 -3.860878E+06 -4.678813E+05 -3.094199E+05 -1.498325E+06 -3.112605E+05 -9.104915E+04
        40   6 -3.953110E+06 -5.531001E+05 -1.889839E+05 -1.521426E+06 -1.412264E+05 -2.859259E+04
        40   7 -3.367276E+06 -6.950369E+05 -5.349524E+05 -9.861458E+05 -4.648599E+05 -1.671495E+05
        40   8 -3.152386E+06 -1.589102E+05 -1.122312E+05 -1.262616E+06 -3.085052E+05 -9.003613E+04
        40   9 -3.198643E+06 -3.323666E+05  2.215060E+02 -1.381358E+06 -1.456227E+05 -3.023339E+04
        40  10 -4.695640E+06 -1.493211E+06 -9.577971E+05 -1.648321E+06 -2.112798E-11 -1.207138E-10
        40  11 -4.568986E+06 -7.768089E+05 -5.068586E+05 -1.733795E+06 -1.341521E-09 -8.831397E-10
        40  12 -4.707039E+06 -7.738501E+05 -3.782672E+05 -1.661366E+06 -1.976892E-10  2.099316E-10
        40  13 -4.031820E+06 -1.094304E+06 -7.465848E+05 -1.317458E+06 -4.742121E-09 -3.259895E-10
        40  14 -3.860985E+06 -4.679165E+05 -3.096189E+05 -1.498348E+06 -4.103980E-09 -6.641659E-10
        40  15 -3.953132E+06 -5.531064E+05 -1.890232E+05 -1.521429E+06  2.647922E-09 -4.721460E-11
        40  16 -3.367517E+06 -6.951255E+05 -5.354138E+05 -9.862086E+05 -2.933374E-09 -4.408374E-10
        40  17 -3.152491E+06 -1.589447E+05 -1.124264E+05 -1.262639E+06 -1.983767E-09 -7.416503E-10
        40  18 -3.198666E+06 -3.323734E+05  1.796931E+02 -1.381361E+06 -4.144297E-10 -3.352024E-10
        40  19 -4.695378E+06 -1.493114E+06 -9.572942E+05 -1.648252E+06  4.846769E+05  1.743619E+05
        40  20 -4.568877E+06 -7.767730E+05 -5.066556E+05 -1.733772E+06  3.140122E+05  9.206031E+04
        40  21 -4.707019E+06 -7.738442E+05 -3.782304E+05 -1.661363E+06  1.368359E+05  2.695285E+04
        40  22 -4.031568E+06 -1.094212E+06 -7.461029E+05 -1.317393E+06  4.747743E+05  1.707610E+05
        40  23 -3.860878E+06 -4.678813E+05 -3.094199E+05 -1.498325E+06  3.112605E+05  9.104915E+04
        40  24 -3.953110E+06 -5.531001E+05 -1.889839E+05 -1.521426E+06  1.412264E+05  2.859259E+04
        40  25 -3.367276E+06 -6.950369E+05 -5.349524E+05 -9.861458E+05  4.648599E+05  1.671495E+05
        40  26 -3.152386E+06 -1.589102E+05 -1.122312E+05 -1.262616E+06  3.085052E+05  9.003613E+04
        40  27 -3.198643E+06 -3.323666E+05  2.215060E+02 -1.381358E+06  1.456227E+05  3.023339E+04
        41   1 -4.555602E+06 -8.891448E+05 -3.259913E+05 -1.666330E+06 -1.130173E+05 -2.185196E+04
        41   2 -4.509570E+06 -7.744082E+05 -2.315449E+05 -1.647809E+06 -7.407494E+04 -7.580579E+03
        41   3 -4.467945E+06 -7.720970E+05 -1.883002E+05 -1.644037E+06 -3.444408E+04  4.865792E+03
        41   4 -3.926597E+06 -6.354891E+05 -1.541978E+05 -1.478509E+06 -1.128532E+05 -2.179516E+04
        41   5 -3.919902E+06 -5.477081E+05 -7.296627E+04 -1.483006E+06 -7.464793E+04 -7.797977E+03
        41   6 -3.917434E+06 -5.721546E+05 -4.230806E+04 -1.502260E+06 -3.575710E+04  4.372168E+03
        41   7 -3.297207E+06 -3.817950E+05  1.755928E+04 -1.290510E+06 -1.126888E+05 -2.173826E+04
        41   8 -3.329895E+06 -3.209838E+05  8.558141E+04 -1.318060E+06 -7.522149E+04 -8.015599E+03
        41   9 -3.366628E+06 -3.721993E+05  1.036583E+05 -1.360370E+06 -3.707139E+04  3.878105E+03
        41  10 -4.555616E+06 -8.891488E+05 -3.260164E+05 -1.666332E+06  2.491895E-09  9.899448E-10
        41  11 -4.509576E+06 -7.744097E+05 -2.315554E+05 -1.647809E+06  2.238717E-09  1.643408E-09
        41  12 -4.467946E+06 -7.720974E+05 -1.883025E+05 -1.644037E+06  2.719494E-09 -3.644690E-10
        41  13 -3.926611E+06 -6.354930E+05 -1.542228E+05 -1.478511E+06  5.376532E-09  6.550925E-10
        41  14 -3.919908E+06 -5.477097E+05 -7.297693E+04 -1.483007E+06  1.083759E-09  8.356821E-10
        41  15 -3.917436E+06 -5.721550E+05 -4.231051E+04 -1.502259E+06 -7.424019E-10 -1.092450E-09
        41  16 -3.297221E+06 -3.817989E+05  1.753438E+04 -1.290512E+06  2.774923E-09  6.252953E-10
        41  17 -3.329902E+06 -3.209854E+05  8.557060E+04 -1.318061E+06  4.709713E-09  5.799890E-10
        41  18 -3.366630E+06 -3.721997E+05  1.036557E+05 -1.360370E+06 -2.154144E-09 -1.915359E-09
        41  19 -4.555602E+06 -8.891448E+05 -3.259913E+05 -1.666330E+06  1.130173E+05  2.185196E+04
        41  20 -4.509570E+06 -7.744082E+05 -2.315449E+05 -1.647809E+06  7.407494E+04  7.580579E+03
        41  21 -4.467945E+06 -7.720970E+05 -1.883002E+05 -1.644037E+06  3.444408E+04 -4.865792E+03
        41  22 -3.926597E+06 -6.354891E+05 -1.541978E+05 -1.478509E+06  1.128532E+05  2.179516E+04
        41  23 -3.919902E+06 -5.477081E+05 -7.296627E+04 -1.483006E+06  7.464793E+04  7.797977E+03
        41  24 -3.917434E+06 -5.721546E+05 -4.230806E+04 -1.502260E+06  3.575710E+04 -4.372168E+03
        41  25 -3.297207E+06 -3.817950E+05  1.755928E+04 -1.290510E+06  1.126888E+05  2.173826E+04
        41  26 -3.329895E+06 -3.209838E+05  8.558141E+04 -1.318060E+06  7.522149E+04  8.015599E+03
        41  27 -3.366628E+06 -3.721993E+05  1.036583E+05 -1.360370E+06  3.707139E+04 -3.878105E+03
        42   1 -4.365570E+06 -7.555082E+05 -1.545545E+05 -1.623670E+06 -2.816256E+04  5.439522E+03
        42   2 -4.322866E+06 -7.040922E+05 -1.223902E+05 -1.586572E+06 -1.852021E+04  6.453109E+03
        42   3 -4.246063E+06 -7.008255E+05 -9.933450E+04 -1.591427E+06 -8.753993E+03  7.131146E+03
        42   4 -3.912475E+06 -5.831063E+05 -3.319103E+04 -1.498830E+06 -2.907243E+04  5.097245E+03
        42   5 -3.928997E+06 -5.553488E+05 -1.698307E+04 -1.479233E+06 -1.956611E+04  6.060444E+03
        42   6 -3.911395E+06 -5.757070E+05 -9.769402E+03 -1.501588E+06 -9.936901E+03  6.687815E+03
        42   7 -3.459181E+06 -4.106912E+05  8.815435E+04 -1.373907E+06 -2.998303E+04  4.754690E+03
        42   8 -3.534979E+06 -4.065962E+05  8.841029E+04 -1.371832E+06 -2.061274E+04  5.667504E+03
        42   9 -3.576620E+06 -4.505828E+05  7.978561E+04 -1.411705E+06 -1.112051E+04  6.244227E+03
        42  10 -4.365571E+06 -7.555084E+05 -1.545561E+05 -1.623670E+06 -7.986211E-10 -1.995964E-09
        42  11 -4.322866E+06 -7.040923E+05 -1.223910E+05 -1.586572E+06  5.640682E-10  2.185590E-10
        42  12 -4.246063E+06 -7.008255E+05 -9.933474E+04 -1.591427E+06  2.069414E-09 -4.496568E-10
        42  13 -3.912476E+06 -5.831066E+05 -3.319267E+04 -1.498830E+06  2.863942E-09 -1.322210E-09
        42  14 -3.928998E+06 -5.553489E+05 -1.698386E+04 -1.479233E+06 -2.237957E-09 -7.723226E-11
        42  15 -3.911395E+06 -5.757071E+05 -9.769671E+03 -1.501588E+06  1.386937E-09 -3.857104E-11
        42  16 -3.459182E+06 -4.106915E+05  8.815261E+04 -1.373907E+06 -1.552479E-09 -1.007037E-09
        42  17 -3.534979E+06 -4.065964E+05  8.840943E+04 -1.371832E+06 -5.315617E-10 -1.033725E-10
        42  18 -3.576620E+06 -4.505829E+05  7.978531E+04 -1.411705E+06 -1.332630E-09  6.942694E-11
        42  19 -4.365570E+06 -7.555082E+05 -1.545545E+05 -1.623670E+06  2.816256E+04 -5.439522E+03
        42  20 -4.322866E+06 -7.040922E+05 -1.223902E+05 -1.586572E+06  1.852021E+04 -6.453109E+03
        42  21 -4.246063E+06 -7.008255E+05 -9.933450E+04 -1.591427E+06  8.753993E+03 -7.131146E+03
        42  22 -3.912475E+06 -5.831063E+05 -3.319103E+04 -1.498830E+06  2.907243E+04 -5.097245E+03
        42  23 -3.928997E+06 -5.553488E+05 -1.698307E+04 -1.479233E+06  1.956611E+04 -6.060444E+03
        42  24 -3.911395E+06 -5.757070E+05 -9.769402E+03 -1.501588E+06  9.936901E+03 -6.687815E+03
        42  25 -3.459181E+06 -4.106912E+05  8.815435E+04 -1.373907E+06  2.998303E+04 -4.754690E+03
        42  26 -3.534979E+06 -4.065962E+05  8.841029E+04 -1.371832E+06  2.061274E+04 -5.667504E+03
        42  27 -3.576620E+06 -4.505828E+05  7.978561E+04 -1.411705E+06  1.112051E+04 -6.244227E+03
        43   1 -4.137089E+06 -6.633217E+05 -6.817240E+04 -1.563860E+06 -6.759174E+03  6.045160E+03
        43   2 -4.091132E+06 -6.155230E+05 -4.734986E+04 -1.521136E+06 -3.404320E+03  4.160936E+03
        43   3 -4.002987E+06 -6.118814E+05 -2.858807E+04 -1.527472E+06 -1.617637E+01  2.185052E+03
        43   4 -3.909995E+06 -5.777249E+05 -7.664067E+03 -1.502074E+06 -7.910153E+03  5.614123E+03
        43   5 -3.931030E+06 -5.552507E+05 -4.544733E+03 -1.477692E+06 -4.593405E+03  3.715899E+03
        43   6 -3.909875E+06 -5.769255E+05 -3.455273E+03 -1.502370E+06 -1.243669E+03  1.725943E+03
        43   7 -3.682850E+06 -4.921248E+05  5.284002E+04 -1.440268E+06 -9.061601E+03  5.182909E+03
        43   8 -3.770902E+06 -4.949771E+05  3.825808E+04 -1.434238E+06 -5.782826E+03  3.270736E+03
        43   9 -3.816754E+06 -5.419694E+05  2.167658E+04 -1.477264E+06 -2.471357E+03  1.266761E+03
        43  10 -4.137089E+06 -6.633217E+05 -6.817256E+04 -1.563860E+06 -1.060689E-09  1.904435E-10
        43  11 -4.091132E+06 -6.155230E+05 -4.734992E+04 -1.521136E+06 -2.992120E-09 -3.395206E-10
        43  12 -4.002987E+06 -6.118814E+05 -2.858808E+04 -1.527472E+06 -1.012054E-09  4.286123E-10
        43  13 -3.909995E+06 -5.777250E+05 -7.664244E+03 -1.502074E+06 -1.455394E-11 -2.536925E-10
        43  14 -3.931030E+06 -5.552508E+05 -4.544798E+03 -1.477692E+06 -1.069358E-09 -3.663937E-10
        43  15 -3.909875E+06 -5.769255E+05 -3.455282E+03 -1.502370E+06  2.492677E-09  6.643928E-10
        43  16 -3.682851E+06 -4.921248E+05  5.283981E+04 -1.440268E+06 -6.063727E-10  3.898175E-10
        43  17 -3.770902E+06 -4.949771E+05  3.825800E+04 -1.434238E+06  1.258227E-09 -5.135390E-10
        43  18 -3.816754E+06 -5.419694E+05  2.167656E+04 -1.477264E+06  2.796658E-09  1.395414E-09
        43  19 -4.137089E+06 -6.633217E+05 -6.817240E+04 -1.563860E+06  6.759174E+03 -6.045160E+03
        43  20 -4.091132E+06 -6.155230E+05 -4.734986E+04 -1.521136E+06  3.404320E+03 -4.160936E+03
        43  21 -4.002987E+06 -6.118814E+05 -2.858807E+04 -1.527472E+06  1.617637E+01 -2.185052E+03
        43  22 -3.909995E+06 -5.777249E+05 -7.664067E+03 -1.502074E+06  7.910153E+03 -5.614123E+03
        43  23 -3.931030E+06 -5.552507E+05 -4.544733E+03 -1.477692E+06  4.593405E+03 -3.715899E+03
        43  24 -3.909875E+06 -5.769255E+05 -3.455273E+03 -1.502370E+06  1.243669E+03 -1.725943E+03
        43  25 -3.682850E+06 -4.921248E+05  5.284002E+04 -1.440268E+06  9.061601E+03 -5.182909E+03
        43  26 -3.770902E+06 -4.949771E+05  3.825808E+04 -1.434238E+06  5.782826E+03 -3.270736E+03
        43  27 -3.816754E+06 -5.419694E+05  2.167658E+04 -1.477264E+06  2.471357E+03 -1.266761E+03
        44   1 -3.889271E+06 -5.694353E+05  2.350440E+03 -1.497081E+06  1.177806E+03  7.057014E+02
        44   2 -3.842794E+06 -5.218324E+05  1.962140E+04 -1.453513E+06  4.242138E+03 -1.413976E+03
        44   3 -3.753479E+06 -5.187744E+05  3.512154E+04 -1.459719E+06  7.286009E+03 -3.476132E+03
        44   4 -3.909739E+06 -5.770765E+05 -3.364565E+03 -1.502505E+06 -5.108102E+01  2.461217E+02
        44   5 -3.931199E+06 -5.551089E+05 -4.010450E+03 -1.477503E+06  3.037282E+03 -1.864740E+03
        44   6 -3.909830E+06 -5.776919E+05 -6.445991E+03 -1.502276E+06  6.104941E+03 -3.918151E+03
        44   7 -3.930206E+06 -5.847177E+05 -9.079621E+03 -1.507928E+06 -1.279927E+03 -2.134431E+02
        44   8 -4.019597E+06 -5.883852E+05 -2.764311E+04 -1.501489E+06  1.832608E+03 -2.315436E+03
        44   9 -4.066158E+06 -6.366084E+05 -4.801599E+04 -1.544824E+06  4.924193E+03 -4.360050E+03
        44  10 -3.889271E+06 -5.694353E+05  2.350437E+03 -1.497081E+06 -5.375586E-11  5.580331E-10
        44  11 -3.842794E+06 -5.218324E+05  1.962136E+04 -1.453513E+06  8.113379E-10  7.030383E-10
        44  12 -3.753479E+06 -5.187745E+05  3.512142E+04 -1.459719E+06  1.543089E-09 -3.622528E-11
        44  13 -3.909739E+06 -5.770765E+05 -3.364565E+03 -1.502505E+06  7.309335E-10  7.014031E-10
        44  14 -3.931199E+06 -5.551089E+05 -4.010474E+03 -1.477503E+06  2.929121E-09 -6.551683E-11
        44  15 -3.909830E+06 -5.776920E+05 -6.446090E+03 -1.502276E+06 -1.031314E-09  1.210293E-10
        44  16 -3.930206E+06 -5.847177E+05 -9.079624E+03 -1.507928E+06  1.891796E-09  4.034435E-10
        44  17 -4.019597E+06 -5.883852E+05 -2.764313E+04 -1.501489E+06  6.621346E-10  7.154916E-10
        44  18 -4.066158E+06 -6.366085E+05 -4.801607E+04 -1.544824E+06  1.028861E-09  1.264259E-11
        44  19 -3.889271E+06 -5.694353E+05  2.350440E+03 -1.497081E+06 -1.177806E+03 -7.057014E+02
        44  20 -3.842794E+06 -5.218324E+05  1.962140E+04 -1.453513E+06 -4.242138E+03  1.413976E+03
        44  21 -3.753479E+06 -5.187744E+05  3.512154E+04 -1.459719E+06 -7.286009E+03  3.476132E+03
        44  22 -3.909739E+06 -5.770765E+05 -3.364565E+03 -1.502505E+06  5.108102E+01 -2.461217E+02
        44  23 -3.931199E+06 -5.551089E+05 -4.010450E+03 -1.477503E+06 -3.037282E+03  1.864740E+03
        44  24 -3.909830E+06 -5.776919E+05 -6.445991E+03 -1.502276E+06 -6.104941E+03  3.918151E+03
        44  25 -3.930206E+06 -5.847177E+05 -9.079621E+03 -1.507928E+06  1.279927E+03  2.134431E+02
        44  26 -4.019597E+06 -5.883852E+05 -2.764311E+04 -1.501489E+06 -1.832608E+03  2.315436E+03
        44  27 -4.066158E+06 -6.366084E+05 -4.801599E+04 -1.544824E+06 -4.924193E+03  4.360050E+03
        45   1 -3.644329E+06 -4.765078E+05  6.322666E+04 -1.430436E+06  9.127449E+03 -4.666121E+03
        45   2 -3.600997E+06 -4.311019E+05  7.389511E+04 -1.389158E+06  1.714818E+04 -4.746252E+03
        45   3 -3.521143E+06 -4.337365E+05  7.724083E+04 -1.392173E+06  2.506156E+04 -4.531126E+03
        45   4 -3.910918E+06 -5.761064E+05 -8.137260E+03 -1.501951E+06  7.914499E+03 -5.120331E+03
        45   5 -3.929608E+06 -5.551094E+05 -1.399534E+04 -1.478672E+06  1.605662E+04 -5.155574E+03
        45   6 -3.911804E+06 -5.821813E+05 -2.727561E+04 -1.499688E+06  2.409061E+04 -4.895784E+03
        45   7 -4.177437E+06 -6.757005E+05 -7.950690E+04 -1.573438E+06  6.702132E+03 -5.574328E+03
        45   8 -4.258112E+06 -6.791100E+05 -1.018949E+05 -1.568143E+06  1.496570E+04 -5.564655E+03
        45   9 -4.302316E+06 -7.306162E+05 -1.318054E+05 -1.607142E+06  2.312033E+04 -5.260185E+03
        45  10 -3.644330E+06 -4.765078E+05  6.322647E+04 -1.430436E+06  1.127324E-09 -6.718769E-10
        45  11 -3.600998E+06 -4.311020E+05  7.389451E+04 -1.389158E+06 -1.046312E-09 -2.206292E-09
        45  12 -3.521144E+06 -4.337367E+05  7.723961E+04 -1.392173E+06 -1.495327E-09 -7.690974E-10
        45  13 -3.910918E+06 -5.761065E+05 -8.137427E+03 -1.501951E+06 -1.867910E-09 -8.803544E-10
        45  14 -3.929608E+06 -5.551095E+05 -1.399588E+04 -1.478672E+06 -4.886047E-09 -2.249412E-09
        45  15 -3.911804E+06 -5.821815E+05 -2.727675E+04 -1.499688E+06 -2.582248E-09 -9.409856E-10
        45  16 -4.177437E+06 -6.757005E+05 -7.950705E+04 -1.573438E+06 -2.296162E-09 -9.072261E-10
        45  17 -4.258112E+06 -6.791101E+05 -1.018954E+05 -1.568143E+06 -4.915384E-09 -2.174682E-09
        45  18 -4.302317E+06 -7.306163E+05 -1.318065E+05 -1.607142E+06 -1.158661E-09  1.619967E-11
        45  19 -3.644329E+06 -4.765078E+05  6.322666E+04 -1.430436E+06 -9.127449E+03  4.666121E+03
        45  20 -3.600997E+06 -4.311019E+05  7.389511E+04 -1.389158E+06 -1.714818E+04  4.746252E+03
        45  21 -3.521143E+06 -4.337365E+05  7.724083E+04 -1.392173E+06 -2.506156E+04  4.531126E+03
        45  22 -3.910918E+06 -5.761064E+05 -8.137260E+03 -1.501951E+06 -7.914499E+03  5.120331E+03
        45  23 -3.929608E+06 -5.551094E+05 -1.399534E+04 -1.478672E+06 -1.605662E+04  5.155574E+03
        45  24 -3.911804E+06 -5.821813E+05 -2.727561E+04 -1.499688E+06 -2.409061E+04  4.895784E+03
        45  25 -4.177437E+06 -6.757005E+05 -7.950690E+04 -1.573438E+06 -6.702132E+03  5.574328E+03
        45  26 -4.258112E+06 -6.791100E+05 -1.018949E+05 -1.568143E+06 -1.496570E+04  5.564655E+03
        45  27 -4.302316E+06 -7.306162E+05 -1.318054E+05 -1.607142E+06 -2.312033E+04  5.260185E+03
        46   1 -3.423382E+06 -3.937747E+05  9.592334E+04 -1.375003E+06  3.107773E+04 -4.147303E+03
        46   2 -3.384610E+06 -3.429613E+05  8.443029E+04 -1.332193E+06  6.249239E+04  5.019988E+03
        46   3 -3.341062E+06 -3.921598E+05  3.202264E+04 -1.310791E+06  9.325755E+04  1.593213E+04
        46   4 -3.915973E+06 -5.730796E+05 -3.474534E+04 -1.502372E+06  2.971698E+04 -4.658272E+03
        46   5 -3.922031E+06 -5.489848E+05 -5.989255E+04 -1.481928E+06  6.184559E+04  4.775497E+03
        46   6 -3.923483E+06 -6.250859E+05 -1.265520E+05 -1.482892E+06  9.332196E+04  1.595272E+04
        46   7 -4.408330E+06 -7.523748E+05 -1.654353E+05 -1.629652E+06  2.835740E+04 -5.168834E+03
        46   8 -4.459172E+06 -7.549888E+05 -2.042412E+05 -1.631545E+06  6.119938E+04  4.531238E+03
        46   9 -4.505575E+06 -8.579804E+05 -2.851575E+05 -1.654842E+06  9.338626E+04  1.597326E+04
        46  10 -3.423383E+06 -3.937750E+05  9.592148E+04 -1.375003E+06  8.904708E-10  1.024928E-09
        46  11 -3.384614E+06 -3.429624E+05  8.442287E+04 -1.332193E+06 -3.791609E-10  1.263103E-11
        46  12 -3.341072E+06 -3.921624E+05  3.200572E+04 -1.310792E+06  1.346736E-10 -3.199337E-10
        46  13 -3.915974E+06 -5.730799E+05 -3.474705E+04 -1.502372E+06  2.016971E-10 -1.856537E-10
        46  14 -3.922035E+06 -5.489859E+05 -5.989983E+04 -1.481928E+06 -2.485616E-09 -8.562587E-10
        46  15 -3.923493E+06 -6.250885E+05 -1.265690E+05 -1.482893E+06 -1.188549E-09 -6.899444E-10
        46  16 -4.408331E+06 -7.523751E+05 -1.654369E+05 -1.629651E+06  6.540191E-10 -1.170376E-09
        46  17 -4.459176E+06 -7.549898E+05 -2.042483E+05 -1.631545E+06  8.652366E-10 -9.529390E-10
        46  18 -4.505584E+06 -8.579830E+05 -2.851745E+05 -1.654843E+06 -1.031046E-09 -9.211021E-11
        46  19 -3.423382E+06 -3.937747E+05  9.592334E+04 -1.375003E+06 -3.107773E+04  4.147303E+03
        46  20 -3.384610E+06 -3.429613E+05  8.443029E+04 -1.332193E+06 -6.249239E+04 -5.019988E+03
        46  21 -3.341062E+06 -3.921598E+05  3.202264E+04 -1.310791E+06 -9.325755E+04 -1.593213E+04
        46  22 -3.915973E+06 -5.730796E+05 -3.474534E+04 -1.502372E+06 -2.971698E+04  4.658272E+03
        46  23 -3.922031E+06 -5.489848E+05 -5.989255E+04 -1.481928E+06 -6.184559E+04 -4.775497E+03
        46  24 -3.923483E+06 -6.250859E+05 -1.265520E+05 -1.482892E+06 -9.332196E+04 -1.595272E+04
        46  25 -4.408330E+06 -7.523748E+05 -1.654353E+05 -1.629652E+06 -2.835740E+04  5.168834E+03
        46  26 -4.459172E+06 -7.549888E+05 -2.042412E+05 -1.631545E+06 -6.119938E+04 -4.531238E+03
        46  27 -4.505575E+06 -8.579804E+05 -2.851575E+05 -1.654842E+06 -9.338626E+04 -1.597326E+04
        47   1 -3.240834E+06 -3.438391E+05  2.303553E+04 -1.379675E+06  1.211958E+05  2.249522E+04
        47   2 -3.195525E+06 -1.940583E+05 -6.644991E+04 -1.275296E+06  2.540110E+05  7.061577E+04
        47   3 -3.357236E+06 -6.334015E+05 -4.097195E+05 -1.049496E+06  3.805513E+05  1.354044E+05
        47   4 -3.945522E+06 -5.571767E+05 -1.550956E+05 -1.517767E+06  1.168575E+05  2.087270E+04
        47   5 -3.873312E+06 -4.838217E+05 -2.539623E+05 -1.494881E+06  2.565973E+05  7.157213E+04
        47   6 -4.009772E+06 -1.001392E+06 -6.123499E+05 -1.350502E+06  3.900636E+05  1.389040E+05
        47   7 -4.649724E+06 -7.705208E+05 -3.332635E+05 -1.655734E+06  1.125246E+05  1.925129E+04
        47   8 -4.550648E+06 -7.735195E+05 -4.415172E+05 -1.714234E+06  2.591805E+05  7.252689E+04
        47   9 -4.661856E+06 -1.369174E+06 -8.150209E+05 -1.651169E+06  3.995648E+05  1.423947E+05
        47  10 -3.240850E+06 -3.438436E+05  2.300681E+04 -1.379678E+06  1.452189E-10  4.682791E-10
        47  11 -3.195596E+06 -1.940811E+05 -6.658131E+04 -1.275310E+06  8.067745E-10  1.659157E-09
        47  12 -3.357397E+06 -6.334605E+05 -4.100279E+05 -1.049538E+06  1.427202E-09  1.813484E-10
        47  13 -3.945537E+06 -5.571809E+05 -1.551223E+05 -1.517768E+06 -1.311109E-09  1.193362E-10
        47  14 -3.873384E+06 -4.838450E+05 -2.540966E+05 -1.494895E+06  5.050058E-10  1.730696E-09
        47  15 -4.009941E+06 -1.001454E+06 -6.126744E+05 -1.350546E+06  2.173042E-09 -6.571868E-11
        47  16 -4.649738E+06 -7.705246E+05 -3.332881E+05 -1.655736E+06 -1.096350E-09  8.176558E-10
        47  17 -4.550722E+06 -7.735434E+05 -4.416544E+05 -1.714250E+06  1.146982E-09 -1.107244E-10
        47  18 -4.662034E+06 -1.369239E+06 -8.153619E+05 -1.651215E+06 -1.923389E-11 -2.521009E-10
        47  19 -3.240834E+06 -3.438391E+05  2.303553E+04 -1.379675E+06 -1.211958E+05 -2.249522E+04
        47  20 -3.195525E+06 -1.940583E+05 -6.644991E+04 -1.275296E+06 -2.540110E+05 -7.061577E+04
        47  21 -3.357236E+06 -6.334015E+05 -4.097195E+05 -1.049496E+06 -3.805513E+05 -1.354044E+05
        47  22 -3.945522E+06 -5.571767E+05 -1.550956E+05 -1.517767E+06 -1.168575E+05 -2.087270E+04
        47  23 -3.873312E+06 -4.838217E+05 -2.539623E+05 -1.494881E+06 -2.565973E+05 -7.157213E+04
        47  24 -4.009772E+06 -1.001392E+06 -6.123499E+05 -1.350502E+06 -3.900636E+05 -1.389040E+05
        47  25 -4.649724E+06 -7.705208E+05 -3.332635E+05 -1.655734E+06 -1.125246E+05 -1.925129E+04
        47  26 -4.550648E+06 -7.735195E+05 -4.415172E+05 -1.714234E+06 -2.591805E+05 -7.252689E+04
        47  27 -4.661856E+06 -1.369174E+06 -8.150209E+05 -1.651169E+06 -3.995648E+05 -1.423947E+05
        48   1  1.925553E+05  7.483806E+04  2.142497E+05 -1.329430E+05  3.545550E+02  1.307658E+05
        48   2  4.262922E+04  2.602221E+04  1.098714E+05 -7.062345E+04  1.606195E+03  7.601169E+04
        48   3  5.757204E+03  1.255446E+04  6.940190E+04 -1.590624E+04  6.925565E+02  2.125379E+04
        48   4  1.721400E+05 -4.580723E+03  1.949716E+05 -2.854806E+04  3.852115E+02  1.274785E+05
        48   5  3.068325E+04 -2.197119E+04  9.959915E+04 -2.497405E+04  1.611843E+03  7.598890E+04
        48   6  1.707181E+03 -4.582378E+03  6.587231E+04 -2.899717E+04  6.834766E+02  2.449266E+04
        48   7  1.517651E+05 -8.397038E+04  1.756990E+05  7.583345E+04  4.147655E+02  1.241917E+05
        48   8  1.874495E+04 -6.995797E+04  8.932788E+04  2.067177E+04  1.617488E+03  7.596611E+04
        48   9 -2.342209E+03 -2.171855E+04  6.234284E+04 -4.208772E+04  6.742600E+02  2.773144E+04
        48  10  1.925507E+05  7.481971E+04  2.142175E+05 -1.329430E+05  8.815078E-10  3.912708E-09
        48  11  4.262766E+04  2.601601E+04  1.098605E+05 -7.062355E+04 -1.760004E-10 -1.558105E-09
        48  12  5.757082E+03  1.255398E+04  6.940105E+04 -1.590626E+04 -1.967554E-09 -8.812674E-09
        48  13  1.721356E+05 -4.598171E+03  1.949411E+05 -2.854810E+04 -3.567847E-09  7.163882E-10
        48  14  3.068170E+04 -2.197739E+04  9.958830E+04 -2.497415E+04  4.230323E-10  2.187848E-10
        48  15  1.707020E+03 -4.583022E+03  6.587118E+04 -2.899718E+04 -2.110083E-09  7.652080E-11
        48  16  1.517610E+05 -8.398694E+04  1.756700E+05  7.583341E+04  9.017040E-10 -4.191586E-09
        48  17  1.874340E+04 -6.996417E+04  8.931703E+04  2.067167E+04  4.326309E-09  3.405966E-09
        48  18 -2.342416E+03 -2.171937E+04  6.234140E+04 -4.208774E+04  6.694620E-10  8.588095E-09
        48  19  1.925553E+05  7.483806E+04  2.142497E+05 -1.329430E+05 -3.545550E+02 -1.307658E+05
        48  20  4.262922E+04  2.602221E+04  1.098714E+05 -7.062345E+04 -1.606195E+03 -7.601169E+04
        48  21  5.757204E+03  1.255446E+04  6.940190E+04 -1.590624E+04 -6.925565E+02 -2.125379E+04
        48  22  1.721400E+05 -4.580723E+03  1.949716E+05 -2.854806E+04 -3.852115E+02 -1.274785E+05
        48  23  3.068325E+04 -2.197119E+04  9.959915E+04 -2.497405E+04 -1.611843E+03 -7.598890E+04
        48  24  1.707181E+03 -4.582378E+03  6.587231E+04 -2.899717E+04 -6.834766E+02 -2.449266E+04
        48  25  1.517651E+05 -8.397038E+04  1.756990E+05  7.583345E+04 -4.147655E+02 -1.241917E+05
        48  26  1.874495E+04 -6.995797E+04  8.932788E+04  2.067177E+04 -1.617488E+03 -7.596611E+04
        48  27 -2.342209E+03 -2.171855E+04  6.234284E+04 -4.208772E+04 -6.742600E+02 -2.773144E+04
        49   1  5.748274E+03 -1.479827E+04  5.861535E+04 -3.366972E+04 -5.690818E+02  1.180813E+04
        49   2 -6.348843E+03 -4.974278E+04  5.067442E+04 -2.464473E+04 -2.373294E+03 -1.650948E+04
        49   3 -4.655386E+03 -7.760117E+04  6.460841E+04 -2.351577E+04 -4.047138E+03 -4.482562E+04
        49   4  6.628512E+03 -1.072960E+04  5.909738E+04 -2.899319E+04 -5.768333E+02  1.474924E+04
        49   5  2.041429E+03 -1.428905E+04  5.715885E+04 -2.503911E+04 -2.380556E+03 -1.376725E+04
        49   6  1.127889E+04 -1.072948E+04  7.723265E+04 -2.898076E+04 -4.053455E+03 -4.228363E+04
        49   7  7.508836E+03 -6.660850E+03  5.957944E+04 -2.431662E+04 -5.845404E+02  1.769037E+04
        49   8  1.043163E+04  2.116591E+04  6.364327E+04 -2.543352E+04 -2.387821E+03 -1.102487E+04
        49   9  2.721301E+04  5.614659E+04  8.985673E+04 -3.444635E+04 -4.059818E+03 -3.974137E+04
        49  10  5.748236E+03 -1.479842E+04  5.861509E+04 -3.366972E+04 -2.137805E-09  3.890200E-09
        49  11 -6.348922E+03 -4.974307E+04  5.067389E+04 -2.464476E+04  6.293533E-10  1.237380E-09
        49  12 -4.655943E+03 -7.760333E+04  6.460460E+04 -2.351591E+04 -5.733551E-10 -3.472227E-09
        49  13  6.628453E+03 -1.072983E+04  5.909697E+04 -2.899318E+04 -3.446180E-10  7.136081E-10
        49  14  2.041372E+03 -1.428926E+04  5.715849E+04 -2.503914E+04  4.550723E-10 -2.473927E-11
        49  15  1.127839E+04 -1.073141E+04  7.722926E+04 -2.898089E+04  7.456464E-10  1.423561E-10
        49  16  7.508751E+03 -6.661186E+03  5.957885E+04 -2.431661E+04  4.055934E-10 -4.332223E-09
        49  17  1.043160E+04  2.116578E+04  6.364303E+04 -2.543354E+04  3.161887E-09  5.371185E-10
        49  18  2.721257E+04  5.614489E+04  8.985373E+04 -3.444648E+04 -2.057149E-10  3.236294E-09
        49  19  5.748274E+03 -1.479827E+04  5.861535E+04 -3.366972E+04  5.690818E+02 -1.180813E+04
        49  20 -6.348843E+03 -4.974278E+04  5.067442E+04 -2.464473E+04  2.373294E+03  1.650948E+04
        49  21 -4.655386E+03 -7.760117E+04  6.460841E+04 -2.351577E+04  4.047138E+03  4.482562E+04
        49  22  6.628512E+03 -1.072960E+04  5.909738E+04 -2.899319E+04  5.768333E+02 -1.474924E+04
        49  23  2.041429E+03 -1.428905E+04  5.715885E+04 -2.503911E+04  2.380556E+03  1.376725E+04
        49  24  1.127889E+04 -1.072948E+04  7.723265E+04 -2.898076E+04  4.053455E+03  4.228363E+04
        49  25  7.508836E+03 -6.660850E+03  5.957944E+04 -2.431662E+04  5.845404E+02 -1.769037E+04
        49  26  1.043163E+04  2.116591E+04  6.364327E+04 -2.543352E+04  2.387821E+03  1.102487E+04
        49  27  2.721301E+04  5.614659E+04  8.985673E+04 -3.444635E+04  4.059818E+03  3.974137E+04
        50   1 -1.821501E+04 -8.779888E+04  7.736960E+04 -5.152974E+04 -5.260253E+03 -5.841542E+04
        50   2  2.193932E+04 -1.468242E+05  1.339025E+05  5.004018E+04 -5.217404E+03 -1.344808E+05
        50   3  2.473393E+05 -1.496492E+05  2.862899E+05  1.442523E+05 -1.327915E+03 -2.105305E+05
        50   4  2.618855E+03  3.968425E+02  9.405643E+04 -2.898301E+04 -5.270595E+03 -5.528634E+04
        50   5  5.098550E+04 -2.819266E+04  1.581926E+05 -2.493454E+04 -5.193976E+03 -1.372159E+05
        50   6  2.855595E+05  4.003619E+02  3.222392E+05 -2.824580E+04 -1.247156E+03 -2.191341E+05
        50   7  2.345420E+04  8.860120E+04  1.107432E+05 -6.432992E+03 -5.280709E+03 -5.215682E+04
        50   8  8.005188E+04  9.046426E+04  1.824851E+05 -9.992387E+04 -5.169891E+03 -1.399514E+05
        50   9  3.238898E+05  1.505345E+05  3.582030E+05 -2.007859E+05 -1.161629E+03 -2.277398E+05
        50  10 -1.821596E+04 -8.780255E+04  7.736313E+04 -5.152999E+04 -3.729958E-12  1.614423E-09
        50  11  2.193443E+04 -1.468436E+05  1.338684E+05  5.003961E+04 -2.466152E-10  2.590032E-10
        50  12  2.473274E+05 -1.496968E+05  2.862066E+05  1.442521E+05  7.509168E-11 -3.348997E-09
        50  13  2.618005E+03  3.935531E+02  9.405063E+04 -2.898324E+04 -2.147749E-09  6.172875E-10
        50  14  5.098042E+04 -2.821288E+04  1.581572E+05 -2.493512E+04  8.391178E-10  7.245477E-11
        50  15  2.855466E+05  3.488087E+02  3.221489E+05 -2.824602E+04  1.026223E-09  7.490206E-11
        50  16  2.345344E+04  8.859827E+04  1.107381E+05 -6.433214E+03 -1.596130E-09 -2.111006E-09
        50  17  8.004659E+04  9.044323E+04  1.824482E+05 -9.992445E+04 -4.607592E-11  1.649428E-09
        50  18  3.238759E+05  1.504788E+05  3.581056E+05 -2.007861E+05  7.451214E-10  3.249872E-09
        50  19 -1.821501E+04 -8.779888E+04  7.736960E+04 -5.152974E+04  5.260253E+03  5.841542E+04
        50  20  2.193932E+04 -1.468242E+05  1.339025E+05  5.004018E+04  5.217404E+03  1.344808E+05
        50  21  2.473393E+05 -1.496492E+05  2.862899E+05  1.442523E+05  1.327915E+03  2.105305E+05
        50  22  2.618855E+03  3.968425E+02  9.405643E+04 -2.898301E+04  5.270595E+03  5.528634E+04
        50  23  5.098550E+04 -2.819266E+04  1.581926E+05 -2.493454E+04  5.193976E+03  1.372159E+05
        50  24  2.855595E+05  4.003619E+02  3.222392E+05 -2.824580E+04  1.247156E+03  2.191341E+05
        50  25  2.345420E+04  8.860120E+04  1.107432E+05 -6.432992E+03  5.280709E+03  5.215682E+04
        50  26  8.005188E+04  9.046426E+04  1.824851E+05 -9.992387E+04  5.169891E+03  1.399514E+05
        50  27  3.238898E+05  1.505345E+05  3.582030E+05 -2.007859E+05  1.161629E+03  2.277398E+05
        51   1 -3.009800E+06 -9.260408E+05 -5.559709E+05 -1.050234E+06 -2.149062E+05 -7.126751E+04
        51   2 -2.927337E+06 -5.917972E+05 -3.498148E+05 -1.059239E+06 -1.411624E+05 -2.386376E+04
        51   3 -2.929975E+06 -5.877872E+05 -2.841445E+05 -1.032038E+06 -5.997712E+04  3.847042E+03
        51   4 -2.179024E+06 -5.487345E+05 -3.163203E+05 -7.596777E+05 -2.036332E+05 -6.703752E+04
        51   5 -2.120889E+06 -2.698503E+05 -1.313592E+05 -8.209981E+05 -1.381716E+05 -2.274380E+04
        51   6 -2.146057E+06 -3.193213E+05 -8.015318E+04 -8.461530E+05 -6.527752E+04  1.853524E+03
        51   7 -1.347578E+06 -1.712995E+05 -7.673862E+04 -4.687417E+05 -1.923434E+05 -6.279833E+04
        51   8 -1.313812E+06  5.215559E+04  8.703682E+04 -5.824698E+05 -1.351764E+05 -2.162197E+04
        51   9 -1.361544E+06 -5.084425E+04  1.237874E+05 -6.600675E+05 -7.058527E+04 -1.421713E+02
        51  10 -3.009851E+06 -9.260587E+05 -5.560677E+05 -1.050246E+06  5.070440E-10 -4.484867E-11
        51  11 -2.927359E+06 -5.918032E+05 -3.498535E+05 -1.059242E+06  2.656682E-09  2.124181E-09
        51  12 -2.929979E+06 -5.877882E+05 -2.841513E+05 -1.032038E+06  1.057346E-09  1.536430E-09
        51  13 -2.179070E+06 -5.487505E+05 -3.164070E+05 -7.596887E+05  1.478827E-09  3.179853E-10
        51  14 -2.120910E+06 -2.698560E+05 -1.313962E+05 -8.210006E+05  1.094570E-09  9.982953E-10
        51  15 -2.146061E+06 -3.193224E+05 -8.016122E+04 -8.461529E+05  1.985446E-09  7.545745E-10
        51  16 -1.347618E+06 -1.713137E+05 -7.681574E+04 -4.687515E+05 -1.577566E-10  1.228085E-09
        51  17 -1.313832E+06  5.215016E+04  8.700152E+04 -5.824722E+05 -1.528543E-09  1.568812E-09
        51  18 -1.361550E+06 -5.084559E+04  1.237780E+05 -6.600675E+05  2.221929E-09  1.558267E-10
        51  19 -3.009800E+06 -9.260408E+05 -5.559709E+05 -1.050234E+06  2.149062E+05  7.126751E+04
        51  20 -2.927337E+06 -5.917972E+05 -3.498148E+05 -1.059239E+06  1.411624E+05  2.386376E+04
        51  21 -2.929975E+06 -5.877872E+05 -2.841445E+05 -1.032038E+06  5.997712E+04 -3.847042E+03
        51  22 -2.179024E+06 -5.487345E+05 -3.163203E+05 -7.596777E+05  2.036332E+05  6.703752E+04
        51  23 -2.120889E+06 -2.698503E+05 -1.313592E+05 -8.209981E+05  1.381716E+05  2.274380E+04
        51  24 -2.146057E+06 -3.193213E+05 -8.015318E+04 -8.461530E+05  6.527752E+04 -1.853524E+03
        51  25 -1.347578E+06 -1.712995E+05 -7.673862E+04 -4.687417E+05  1.923434E+05  6.279833E+04
        51  26 -1.313812E+06  5.215559E+04  8.703682E+04 -5.824698E+05  1.351764E+05  2.162197E+04
        51  27 -1.361544E+06 -5.084425E+04  1.237874E+05 -6.600675E+05  7.058527E+04  1.421713E+02
        52   1 -2.792638E+06 -6.096478E+05 -2.428037E+05 -1.014794E+06 -5.212171E+04  1.864975E+03
        52   2 -2.742647E+06 -5.294154E+05 -1.905494E+05 -9.780562E+05 -3.478415E+04  7.336821E+03
        52   3 -2.665351E+06 -5.257267E+05 -1.602996E+05 -9.805456E+05 -1.672750E+04  1.088969E+04
        52   4 -2.134444E+06 -3.546968E+05 -6.542727E+04 -8.284738E+05 -5.213706E+04  1.856926E+03
        52   5 -2.146252E+06 -3.030412E+05 -3.102087E+04 -8.139094E+05 -3.559855E+04  7.029639E+03
        52   6 -2.130586E+06 -3.277464E+05 -1.796524E+04 -8.385744E+05 -1.834318E+04  1.028322E+04
        52   7 -1.475829E+06 -9.971297E+04  1.119110E+05 -6.419716E+05 -5.215240E+04  1.848879E+03
        52   8 -1.549511E+06 -7.664405E+04  1.284766E+05 -6.496192E+05 -3.641379E+04  6.722134E+03
        52   9 -1.595546E+06 -1.297517E+05  1.243443E+05 -6.964937E+05 -1.996038E+04  9.676201E+03
        52  10 -2.792641E+06 -6.096485E+05 -2.428088E+05 -1.014794E+06  6.083339E-10 -8.489372E-11
        52  11 -2.742649E+06 -5.294158E+05 -1.905518E+05 -9.780559E+05  3.250197E-09 -1.128011E-10
        52  12 -2.665351E+06 -5.257269E+05 -1.603004E+05 -9.805454E+05 -7.217726E-10 -6.297441E-10
        52  13 -2.134447E+06 -3.546975E+05 -6.543240E+04 -8.284737E+05  2.554430E-09 -3.070586E-10
        52  14 -2.146253E+06 -3.030416E+05 -3.102335E+04 -8.139092E+05 -1.162806E-09 -2.222114E-10
        52  15 -2.130587E+06 -3.277466E+05 -1.796607E+04 -8.385743E+05 -2.123767E-09 -3.613688E-10
        52  16 -1.475832E+06 -9.971370E+04  1.119058E+05 -6.419715E+05  6.357420E-10 -1.151576E-10
        52  17 -1.549513E+06 -7.664446E+04  1.284740E+05 -6.496190E+05 -1.729540E-09 -1.454532E-10
        52  18 -1.595546E+06 -1.297519E+05  1.243434E+05 -6.964935E+05 -2.510918E-09 -5.703794E-10
        52  19 -2.792638E+06 -6.096478E+05 -2.428037E+05 -1.014794E+06  5.212171E+04 -1.864975E+03
        52  20 -2.742647E+06 -5.294154E+05 -1.905494E+05 -9.780562E+05  3.478415E+04 -7.336821E+03
        52  21 -2.665351E+06 -5.257267E+05 -1.602996E+05 -9.805456E+05  1.672750E+04 -1.088969E+04
        52  22 -2.134444E+06 -3.546968E+05 -6.542727E+04 -8.284738E+05  5.213706E+04 -1.856926E+03
        52  23 -2.146252E+06 -3.030412E+05 -3.102087E+04 -8.139094E+05  3.559855E+04 -7.029639E+03
        52  24 -2.130586E+06 -3.277464E+05 -1.796524E+04 -8.385744E+05  1.834318E+04 -1.028322E+04
        52  25 -1.475829E+06 -9.971297E+04  1.119110E+05 -6.419716E+05  5.215240E+04 -1.848879E+03
        52  26 -1.549511E+06 -7.664405E+04  1.284766E+05 -6.496192E+05  3.641379E+04 -6.722134E+03
        52  27 -1.595546E+06 -1.297517E+05  1.243443E+05 -6.964937E+05  1.996038E+04 -9.676201E+03
        53   1 -2.545964E+06 -4.903134E+05 -1.254780E+05 -9.515201E+05 -1.387470E+04  9.735909E+03
        53   2 -2.496316E+06 -4.362566E+05 -9.963131E+04 -9.061656E+05 -9.018739E+03  8.357276E+03
        53   3 -2.402538E+06 -4.322148E+05 -7.768371E+04 -9.125938E+05 -4.070783E+03  6.725931E+03
        53   4 -2.128363E+06 -3.325947E+05 -1.412044E+04 -8.373337E+05 -1.501864E+04  9.306757E+03
        53   5 -2.150204E+06 -3.059982E+05 -7.262046E+03 -8.120384E+05 -1.026760E+04  7.889449E+03
        53   6 -2.127901E+06 -3.293931E+05 -4.216903E+03 -8.385263E+05 -5.425069E+03  6.219329E+03
        53   7 -1.710595E+06 -1.748657E+05  9.722159E+04 -7.230780E+05 -1.616342E+04  8.877287E+03
        53   8 -1.803977E+06 -1.757328E+05  8.509673E+04 -7.178638E+05 -1.151723E+04  7.421335E+03
        53   9 -1.853190E+06 -2.265669E+05  6.924347E+04 -7.644292E+05 -6.780019E+03  5.712481E+03
        53  10 -2.545964E+06 -4.903135E+05 -1.254785E+05 -9.515199E+05 -2.226170E-09 -1.252764E-10
        53  11 -2.496316E+06 -4.362567E+05 -9.963160E+04 -9.061655E+05  3.863849E-11 -2.865446E-10
        53  12 -2.402538E+06 -4.322148E+05 -7.768382E+04 -9.125937E+05  1.359629E-09  3.660950E-10
        53  13 -2.128364E+06 -3.325948E+05 -1.412103E+04 -8.373336E+05 -4.460642E-09 -8.691912E-10
        53  14 -2.150204E+06 -3.059983E+05 -7.262362E+03 -8.120383E+05 -1.952549E-09 -3.214719E-10
        53  15 -2.127901E+06 -3.293931E+05 -4.217031E+03 -8.385263E+05  2.738102E-09 -1.419123E-10
        53  16 -1.710595E+06 -1.748658E+05  9.722095E+04 -7.230778E+05 -2.392000E-09 -8.682602E-10
        53  17 -1.803977E+06 -1.757329E+05  8.509638E+04 -7.178637E+05  1.743254E-10 -8.400506E-11
        53  18 -1.853190E+06 -2.265670E+05  6.924332E+04 -7.644291E+05  3.293942E-09 -4.141612E-10
        53  19 -2.545964E+06 -4.903134E+05 -1.254780E+05 -9.515201E+05  1.387470E+04 -9.735909E+03
        53  20 -2.496316E+06 -4.362566E+05 -9.963131E+04 -9.061656E+05  9.018739E+03 -8.357276E+03
        53  21 -2.402538E+06 -4.322148E+05 -7.768371E+04 -9.125938E+05  4.070783E+03 -6.725931E+03
        53  22 -2.128363E+06 -3.325947E+05 -1.412044E+04 -8.373337E+05  1.501864E+04 -9.306757E+03
        53  23 -2.150204E+06 -3.059982E+05 -7.262046E+03 -8.120384E+05  1.026760E+04 -7.889449E+03
        53  24 -2.127901E+06 -3.293931E+05 -4.216903E+03 -8.385263E+05  5.425069E+03 -6.219329E+03
        53  25 -1.710595E+06 -1.748657E+05  9.722159E+04 -7.230780E+05  1.616342E+04 -8.877287E+03
        53  26 -1.803977E+06 -1.757328E+05  8.509673E+04 -7.178638E+05  1.151723E+04 -7.421335E+03
        53  27 -1.853190E+06 -2.265669E+05  6.924347E+04 -7.644292E+05  6.780019E+03 -5.712481E+03
        54   1 -2.279576E+06 -3.874542E+05 -4.369292E+04 -8.801097E+05 -2.807141E+03  5.109576E+03
        54   2 -2.228474E+06 -3.350453E+05 -2.276339E+04 -8.324072E+05 -5.746529E+02  2.407491E+03
        54   3 -2.129998E+06 -3.309289E+05 -2.786640E+03 -8.395011E+05  1.670247E+03 -3.295166E+02
        54   4 -2.127341E+06 -3.302508E+05 -3.354087E+03 -8.387269E+05 -4.120768E+03  4.618472E+03
        54   5 -2.151003E+06 -3.059423E+05 -2.100988E+03 -8.113888E+05 -1.902925E+03  1.911050E+03
        54   6 -2.127293E+06 -3.299229E+05 -1.788384E+03 -8.388484E+05  3.271707E+02 -8.313158E+02
        54   7 -1.975084E+06 -2.730460E+05  3.698281E+04 -7.973348E+05 -5.434751E+03  4.127235E+03
        54   8 -2.073526E+06 -2.768391E+05  1.856081E+04 -7.903680E+05 -3.231374E+03  1.414544E+03
        54   9 -2.124588E+06 -3.289169E+05 -7.901275E+02 -8.381957E+05 -1.015900E+03 -1.333112E+03
        54  10 -2.279576E+06 -3.874543E+05 -4.369299E+04 -8.801097E+05  1.921960E-09  8.380941E-10
        54  11 -2.228474E+06 -3.350453E+05 -2.276340E+04 -8.324072E+05 -1.010268E-09  3.049318E-09
        54  12 -2.129998E+06 -3.309289E+05 -2.786646E+03 -8.395011E+05  1.571987E-09 -1.332520E-10
        54  13 -2.127341E+06 -3.302509E+05 -3.354159E+03 -8.387269E+05  2.339375E-09  4.355490E-10
        54  14 -2.151003E+06 -3.059424E+05 -2.101002E+03 -8.113888E+05  5.213612E-10  9.900912E-10
        54  15 -2.127293E+06 -3.299229E+05 -1.788385E+03 -8.388484E+05 -2.065423E-09  5.065689E-11
        54  16 -1.975084E+06 -2.730460E+05  3.698272E+04 -7.973348E+05  3.266111E-09  1.868914E-09
        54  17 -2.073526E+06 -2.768392E+05  1.856079E+04 -7.903680E+05 -2.097060E-09  2.406276E-09
        54  18 -2.124588E+06 -3.289169E+05 -7.901328E+02 -8.381957E+05 -2.860624E-09 -5.314729E-10
        54  19 -2.279576E+06 -3.874542E+05 -4.369292E+04 -8.801097E+05  2.807141E+03 -5.109576E+03
        54  20 -2.228474E+06 -3.350453E+05 -2.276339E+04 -8.324072E+05  5.746529E+02 -2.407491E+03
        54  21 -2.129998E+06 -3.309289E+05 -2.786640E+03 -8.395011E+05 -1.670247E+03  3.295166E+02
        54  22 -2.127341E+06 -3.302508E+05 -3.354087E+03 -8.387269E+05  4.120768E+03 -4.618472E+03
        54  23 -2.151003E+06 -3.059423E+05 -2.100988E+03 -8.113888E+05  1.902925E+03 -1.911050E+03
        54  24 -2.127293E+06 -3.299229E+05 -1.788384E+03 -8.388484E+05 -3.271707E+02  8.313158E+02
        54  25 -1.975084E+06 -2.730460E+05  3.698281E+04 -7.973348E+05  5.434751E+03 -4.127235E+03
        54  26 -2.073526E+06 -2.768391E+05  1.856081E+04 -7.903680E+05  3.231374E+03 -1.414544E+03
        54  27 -2.124588E+06 -3.289169E+05 -7.901275E+02 -8.381957E+05  1.015900E+03  1.333112E+03
        55   1 -2.006088E+06 -2.842583E+05  3.077942E+04 -8.059221E+05  2.656724E+03 -2.058276E+03
        55   2 -1.955604E+06 -2.327204E+05  4.961014E+04 -7.585644E+05  5.033481E+03 -4.725705E+03
        55   3 -1.858240E+06 -2.290731E+05  6.737151E+04 -7.653621E+05  7.386342E+03 -7.323634E+03
        55   4 -2.127402E+06 -3.297894E+05 -1.846109E+03 -8.387260E+05  1.313563E+03 -2.560191E+03
        55   5 -2.150873E+06 -3.060793E+05 -2.463729E+03 -8.115578E+05  3.719306E+03 -5.217184E+03
        55   6 -2.127474E+06 -3.302677E+05 -4.173716E+03 -8.385492E+05  6.100980E+03 -7.804703E+03
        55   7 -2.248703E+06 -3.753200E+05 -3.447321E+04 -8.715243E+05 -2.931929E+01 -3.062001E+03
        55   8 -2.346106E+06 -3.794365E+05 -5.454130E+04 -8.645365E+05  2.405577E+03 -5.708496E+03
        55   9 -2.396639E+06 -4.314587E+05 -7.572567E+04 -9.117079E+05  4.816225E+03 -8.285544E+03
        55  10 -2.006088E+06 -2.842583E+05  3.077940E+04 -8.059221E+05 -1.144085E-09 -8.122750E-10
        55  11 -1.955604E+06 -2.327204E+05  4.961005E+04 -7.585643E+05 -8.507997E-10  2.127443E-09
        55  12 -1.858241E+06 -2.290731E+05  6.737131E+04 -7.653621E+05  1.964781E-09  1.947233E-09
        55  13 -2.127402E+06 -3.297894E+05 -1.846125E+03 -8.387260E+05 -1.128101E-09 -1.128762E-09
        55  14 -2.150873E+06 -3.060793E+05 -2.463806E+03 -8.115578E+05 -2.771899E-09  1.994383E-09
        55  15 -2.127474E+06 -3.302678E+05 -4.173900E+03 -8.385491E+05 -2.310525E-09  3.038347E-10
        55  16 -2.248703E+06 -3.753200E+05 -3.447322E+04 -8.715243E+05  6.140032E-10  5.106683E-10
        55  17 -2.346106E+06 -3.794365E+05 -5.454137E+04 -8.645365E+05 -3.339403E-09 -1.834694E-09
        55  18 -2.396639E+06 -4.314587E+05 -7.572584E+04 -9.117079E+05 -3.443583E-09 -9.348177E-10
        55  19 -2.006088E+06 -2.842583E+05  3.077942E+04 -8.059221E+05 -2.656724E+03  2.058276E+03
        55  20 -1.955604E+06 -2.327204E+05  4.961014E+04 -7.585644E+05 -5.033481E+03  4.725705E+03
        55  21 -1.858240E+06 -2.290731E+05  6.737151E+04 -7.653621E+05 -7.386342E+03  7.323634E+03
        55  22 -2.127402E+06 -3.297894E+05 -1.846109E+03 -8.387260E+05 -1.313563E+03  2.560191E+03
        55  23 -2.150873E+06 -3.060793E+05 -2.463729E+03 -8.115578E+05 -3.719306E+03  5.217184E+03
        55  24 -2.127474E+06 -3.302677E+05 -4.173716E+03 -8.385492E+05 -6.100980E+03  7.804703E+03
        55  25 -2.248703E+06 -3.753200E+05 -3.447321E+04 -8.715243E+05  2.931929E+01  3.062001E+03
        55  26 -2.346106E+06 -3.794365E+05 -5.454130E+04 -8.645365E+05 -2.405577E+03  5.708496E+03
        55  27 -2.396639E+06 -4.314587E+05 -7.572567E+04 -9.117079E+05 -4.816225E+03  8.285544E+03
        56   1 -1.739215E+06 -1.833121E+05  9.862672E+04 -7.330789E+05  8.876620E+03 -8.811218E+03
        56   2 -1.691626E+06 -1.338230E+05  1.129381E+05 -6.878199E+05  1.459148E+04 -1.005643E+04
        56   3 -1.601757E+06 -1.339511E+05  1.224943E+05 -6.922825E+05  2.019967E+04 -1.100481E+04
        56   4 -2.128301E+06 -3.290538E+05 -5.312615E+03 -8.381746E+05  7.547694E+03 -9.309033E+03
        56   5 -2.149723E+06 -3.062863E+05 -9.277126E+03 -8.125455E+05  1.338514E+04 -1.050919E+04
        56   6 -2.128895E+06 -3.331646E+05 -1.809672E+04 -8.366411E+05  1.911535E+04 -1.141261E+04
        56   7 -2.517236E+06 -4.747856E+05 -1.092642E+05 -9.432101E+05  6.219698E+03 -9.806502E+03
        56   8 -2.607615E+06 -4.787366E+05 -1.315104E+05 -9.371877E+05  1.217979E+04 -1.096158E+04
        56   9 -2.655767E+06 -5.323618E+05 -1.587126E+05 -9.808893E+05  1.803204E+04 -1.182003E+04
        56  10 -1.739216E+06 -1.833122E+05  9.862643E+04 -7.330788E+05 -1.270248E-09  3.169695E-10
        56  11 -1.691626E+06 -1.338232E+05  1.129376E+05 -6.878198E+05 -2.093623E-09 -2.973713E-10
        56  12 -1.601758E+06 -1.339514E+05  1.224933E+05 -6.922823E+05 -1.453083E-09  9.095150E-10
        56  13 -2.128301E+06 -3.290539E+05 -5.312884E+03 -8.381746E+05 -1.656582E-09  5.414392E-10
        56  14 -2.149723E+06 -3.062864E+05 -9.277670E+03 -8.125454E+05  1.019958E-09 -5.432532E-10
        56  15 -2.128896E+06 -3.331649E+05 -1.809766E+04 -8.366409E+05 -1.444374E-09  2.024146E-10
        56  16 -2.517236E+06 -4.747857E+05 -1.092644E+05 -9.432101E+05 -2.679057E-09 -9.157042E-10
        56  17 -2.607615E+06 -4.787368E+05 -1.315109E+05 -9.371876E+05  1.143433E-09  1.747232E-10
        56  18 -2.655767E+06 -5.323620E+05 -1.587135E+05 -9.808891E+05 -4.057737E-10 -1.013540E-09
        56  19 -1.739215E+06 -1.833121E+05  9.862672E+04 -7.330789E+05 -8.876620E+03  8.811218E+03
        56  20 -1.691626E+06 -1.338230E+05  1.129381E+05 -6.878199E+05 -1.459148E+04  1.005643E+04
        56  21 -1.601757E+06 -1.339511E+05  1.224943E+05 -6.922825E+05 -2.019967E+04  1.100481E+04
        56  22 -2.128301E+06 -3.290538E+05 -5.312615E+03 -8.381746E+05 -7.547694E+03  9.309033E+03
        56  23 -2.149723E+06 -3.062863E+05 -9.277126E+03 -8.125455E+05 -1.338514E+04  1.050919E+04
        56  24 -2.128895E+06 -3.331646E+05 -1.809672E+04 -8.366411E+05 -1.911535E+04  1.141261E+04
        56  25 -2.517236E+06 -4.747856E+05 -1.092642E+05 -9.432101E+05 -6.219698E+03  9.806502E+03
        56  26 -2.607615E+06 -4.787366E+05 -1.315104E+05 -9.371877E+05 -1.217979E+04  1.096158E+04
        56  27 -2.655767E+06 -5.323618E+05 -1.587126E+05 -9.808893E+05 -1.803204E+04  1.182003E+04
        57   1 -1.491615E+06 -9.021311E+04  1.471232E+05 -6.683725E+05  2.474684E+04 -1.145688E+04
        57   2 -1.447792E+06 -3.753221E+04  1.465384E+05 -6.224878E+05  4.566735E+04 -6.646142E+03
        57   3 -1.382778E+06 -6.837247E+04  1.192679E+05 -6.105084E+05  6.580612E+04  2.602748E+02
        57   4 -2.131708E+06 -3.270026E+05 -2.304496E+04 -8.383035E+05  2.315162E+04 -1.205697E+04
        57   5 -2.144686E+06 -3.024128E+05 -3.981604E+04 -8.148628E+05  4.494173E+04 -6.921066E+03
        57   6 -2.136670E+06 -3.615533E+05 -8.398776E+04 -8.253289E+05  6.594762E+04  3.103689E+02
        57   7 -2.771405E+06 -5.637714E+05 -1.932487E+05 -1.008078E+06  2.155820E+04 -1.265642E+04
        57   8 -2.841110E+06 -5.672617E+05 -2.262130E+05 -1.007042E+06  4.421699E+04 -7.195657E+03
        57   9 -2.890010E+06 -6.546898E+05 -2.872936E+05 -1.039910E+06  6.608890E+04  3.603684E+02
        57  10 -1.491616E+06 -9.021342E+04  1.471218E+05 -6.683723E+05 -1.158752E-09  8.348614E-10
        57  11 -1.447794E+06 -3.753282E+04  1.465344E+05 -6.224876E+05  3.910150E-10  4.394496E-11
        57  12 -1.382783E+06 -6.837364E+04  1.192597E+05 -6.105084E+05  1.625742E-09 -4.368991E-10
        57  13 -2.131708E+06 -3.270029E+05 -2.304625E+04 -8.383033E+05 -2.088875E-09  1.041534E-10
        57  14 -2.144688E+06 -3.024134E+05 -3.981993E+04 -8.148625E+05  1.089424E-09 -1.053833E-09
        57  15 -2.136674E+06 -3.615545E+05 -8.399596E+04 -8.253289E+05  8.190100E-10 -6.464350E-10
        57  16 -2.771405E+06 -5.637717E+05 -1.932498E+05 -1.008078E+06  1.047857E-09 -9.971323E-10
        57  17 -2.841112E+06 -5.672623E+05 -2.262167E+05 -1.007041E+06  3.728430E-10 -6.008548E-10
        57  18 -2.890014E+06 -6.546909E+05 -2.873018E+05 -1.039910E+06 -1.217104E-09  3.937112E-10
        57  19 -1.491615E+06 -9.021311E+04  1.471232E+05 -6.683725E+05 -2.474684E+04  1.145688E+04
        57  20 -1.447792E+06 -3.753221E+04  1.465384E+05 -6.224878E+05 -4.566735E+04  6.646142E+03
        57  21 -1.382778E+06 -6.837247E+04  1.192679E+05 -6.105084E+05 -6.580612E+04 -2.602748E+02
        57  22 -2.131708E+06 -3.270026E+05 -2.304496E+04 -8.383035E+05 -2.315162E+04  1.205697E+04
        57  23 -2.144686E+06 -3.024128E+05 -3.981604E+04 -8.148628E+05 -4.494173E+04  6.921066E+03
        57  24 -2.136670E+06 -3.615533E+05 -8.398776E+04 -8.253289E+05 -6.594762E+04 -3.103689E+02
        57  25 -2.771405E+06 -5.637714E+05 -1.932487E+05 -1.008078E+06 -2.155820E+04  1.265642E+04
        57  26 -2.841110E+06 -5.672617E+05 -2.262130E+05 -1.007042E+06 -4.421699E+04  7.195657E+03
        57  27 -2.890010E+06 -6.546898E+05 -2.872936E+05 -1.039910E+06 -6.608890E+04 -3.603684E+02
        58   1 -1.271850E+06 -1.949699E+04  1.249027E+05 -6.437859E+05  8.798623E+04  3.539540E+03
        58   2 -1.224716E+06  9.836506E+04  7.229165E+04 -5.575300E+05  1.722308E+05  3.273826E+04
        58   3 -1.296151E+06 -1.897692E+05 -1.447550E+05 -4.094858E+05  2.484151E+05  8.327805E+04
        58   4 -2.151357E+06 -3.164100E+05 -1.029059E+05 -8.483251E+05  8.239957E+04  1.436030E+03
        58   5 -2.112319E+06 -2.594996E+05 -1.686153E+05 -8.236418E+05  1.756101E+05  3.400435E+04
        58   6 -2.193847E+06 -6.107217E+05 -4.060737E+05 -7.371205E+05  2.607515E+05  8.790805E+04
        58   7 -3.030119E+06 -6.133135E+05 -3.307783E+05 -1.052620E+06  7.682155E+04 -6.650156E+02
        58   8 -2.999155E+06 -6.172856E+05 -4.095931E+05 -1.089398E+06  1.789840E+05  3.526804E+04
        58   9 -3.090743E+06 -1.031492E+06 -6.674693E+05 -1.064282E+06  2.730680E+05  9.252644E+04
        58  10 -1.271858E+06 -1.949909E+04  1.248881E+05 -6.437862E+05  4.051377E-10  7.503015E-10
        58  11 -1.224748E+06  9.835592E+04  7.223376E+04 -5.575346E+05 -2.514676E-10  3.696526E-09
        58  12 -1.296219E+06 -1.897933E+05 -1.448843E+05 -4.095024E+05  1.021042E-09  1.255699E-09
        58  13 -2.151364E+06 -3.164118E+05 -1.029187E+05 -8.483252E+05  1.152833E-09  1.889623E-09
        58  14 -2.112352E+06 -2.595092E+05 -1.686756E+05 -8.236466E+05  1.954731E-09 -1.524955E-09
        58  15 -2.193923E+06 -6.107484E+05 -4.062165E+05 -7.371390E+05  3.851175E-10  6.070542E-10
        58  16 -3.030126E+06 -6.133150E+05 -3.307894E+05 -1.052620E+06  1.573939E-09 -3.494005E-10
        58  17 -2.999190E+06 -6.172956E+05 -4.096559E+05 -1.089403E+06 -7.518895E-11  2.200637E-09
        58  18 -3.090826E+06 -1.031521E+06 -6.676264E+05 -1.064302E+06  7.286906E-11 -1.969909E-11
        58  19 -1.271850E+06 -1.949699E+04  1.249027E+05 -6.437859E+05 -8.798623E+04 -3.539540E+03
        58  20 -1.224716E+06  9.836506E+04  7.229165E+04 -5.575300E+05 -1.722308E+05 -3.273826E+04
        58  21 -1.296151E+06 -1.897692E+05 -1.447550E+05 -4.094858E+05 -2.484151E+05 -8.327805E+04
        58  22 -2.151357E+06 -3.164100E+05 -1.029059E+05 -8.483251E+05 -8.239957E+04 -1.436030E+03
        58  23 -2.112319E+06 -2.594996E+05 -1.686153E+05 -8.236418E+05 -1.756101E+05 -3.400435E+04
        58  24 -2.193847E+06 -6.107217E+05 -4.060737E+05 -7.371205E+05 -2.607515E+05 -8.790805E+04
        58  25 -3.030119E+06 -6.133135E+05 -3.307783E+05 -1.052620E+06 -7.682155E+04  6.650156E+02
        58  26 -2.999155E+06 -6.172856E+05 -4.095931E+05 -1.089398E+06 -1.789840E+05 -3.526804E+04
        58  27 -3.090743E+06 -1.031492E+06 -6.674693E+05 -1.064282E+06 -2.730680E+05 -9.252644E+04
        59   1  9.517363E+04 -4.384681E+05  8.954896E+04  2.979768E+03  4.205896E+03 -4.765677E+03
        59   2  1.097996E+05 -4.406295E+05  9.466067E+04  1.509412E+03  1.291654E+04 -3.585055E+03
        59   3  1.064019E+05 -4.472063E+05  9.455665E+04 -3.296713E+03  1.276544E+04 -2.416970E+03
        59   4 -1.400289E+04 -8.759149E+05 -1.864136E+04 -7.554961E+02  4.214487E+03 -1.075051E+04
        59   5  2.312554E+03 -8.733517E+05 -9.763562E+03  9.227050E+02  1.292042E+04 -5.533816E+03
        59   6 -1.037249E+02 -8.759088E+05 -8.909893E+03 -7.349259E+02  1.276189E+04 -3.295634E+02
        59   7 -1.231937E+05 -1.313188E+06 -1.268458E+05 -4.488063E+03  4.223153E+03 -1.673113E+04
        59   8 -1.051882E+05 -1.305902E+06 -1.142012E+05  3.364807E+02  1.292431E+04 -7.481222E+03
        59   9 -1.066228E+05 -1.304443E+06 -1.123896E+05  1.825168E+03  1.275835E+04  1.756405E+03
        59  10  9.517360E+04 -4.384681E+05  8.954888E+04  2.979784E+03 -2.998388E-10 -5.280386E-10
        59  11  1.097994E+05 -4.406295E+05  9.466033E+04  1.509449E+03  3.715764E-09 -3.556970E-09
        59  12  1.064017E+05 -4.472064E+05  9.455634E+04 -3.296688E+03  8.345049E-10 -1.424143E-09
        59  13 -1.400294E+04 -8.759150E+05 -1.864161E+04 -7.554596E+02 -1.993744E-09 -7.417680E-11
        59  14  2.312366E+03 -8.733518E+05 -9.763933E+03  9.227626E+02 -2.816533E-09 -1.848493E-09
        59  15 -1.038998E+02 -8.759088E+05 -8.910200E+03 -7.349225E+02  8.887059E-10 -2.154349E-09
        59  16 -1.231937E+05 -1.313188E+06 -1.268463E+05 -4.488006E+03  1.359379E-09  8.994260E-10
        59  17 -1.051884E+05 -1.305903E+06 -1.142016E+05  3.365586E+02 -1.029355E-09  2.773506E-10
        59  18 -1.066230E+05 -1.304443E+06 -1.123899E+05  1.825150E+03 -2.343530E-10  4.503014E-10
        59  19  9.517363E+04 -4.384681E+05  8.954896E+04  2.979768E+03 -4.205896E+03  4.765677E+03
        59  20  1.097996E+05 -4.406295E+05  9.466067E+04  1.509412E+03 -1.291654E+04  3.585055E+03
        59  21  1.064019E+05 -4.472063E+05  9.455665E+04 -3.296713E+03 -1.276544E+04  2.416970E+03
        59  22 -1.400289E+04 -8.759149E+05 -1.864136E+04 -7.554961E+02 -4.214487E+03  1.075051E+04
        59  23  2.312554E+03 -8.733517E+05 -9.763562E+03  9.227050E+02 -1.292042E+04  5.533816E+03
        59  24 -1.037249E+02 -8.759088E+05 -8.909893E+03 -7.349259E+02 -1.276189E+04  3.295634E+02
        59  25 -1.231937E+05 -1.313188E+06 -1.268458E+05 -4.488063E+03 -4.223153E+03  1.673113E+04
        59  26 -1.051882E+05 -1.305902E+06 -1.142012E+05  3.364807E+02 -1.292431E+04  7.481222E+03
        59  27 -1.066228E+05 -1.304443E+06 -1.123896E+05  1.825168E+03 -1.275835E+04 -1.756405E+03
        60   1  1.033263E+05 -4.547161E+05  9.266053E+04 -4.455719E+02  1.145949E+04  1.800006E+03
        60   2  1.043664E+05 -4.592783E+05  8.929611E+04  2.962836E+02  1.195944E+04  6.758572E+03
        60   3  9.464039E+04 -4.669728E+05  8.005415E+04 -4.026687E+03  1.106374E+04  1.171352E+04
        60   4 -1.257017E+03 -8.754909E+05 -9.204940E+03 -1.122226E+03  1.146118E+04  1.248758E+03
        60   5  1.350498E+03 -8.738700E+05 -1.087262E+04  1.402693E+03  1.195977E+04  6.840149E+03
        60   6 -6.922165E+03 -8.754937E+05 -1.886045E+04 -1.137444E+03  1.106233E+04  1.242797E+04
        60   7 -1.058533E+05 -1.296104E+06 -1.110832E+05 -1.798333E+03  1.146286E+04  6.978817E+02
        60   8 -1.016780E+05 -1.288304E+06 -1.110537E+05  2.508455E+03  1.196011E+04  6.921670E+03
        60   9 -1.084969E+05 -1.283862E+06 -1.177871E+05  1.749992E+03  1.106093E+04  1.314194E+04
        60  10  1.033261E+05 -4.547161E+05  9.266028E+04 -4.455885E+02  1.943482E-09  2.353878E-09
        60  11  1.043663E+05 -4.592784E+05  8.929576E+04  2.962185E+02  1.235047E-09 -4.499151E-09
        60  12  9.464022E+04 -4.669730E+05  8.005366E+04 -4.026791E+03 -6.635363E-10 -2.875256E-09
        60  13 -1.257158E+03 -8.754909E+05 -9.205189E+03 -1.122237E+03 -4.339985E-09  1.010711E-10
        60  14  1.350332E+03 -8.738701E+05 -1.087298E+04  1.402627E+03 -4.716762E-10 -2.628459E-09
        60  15 -6.922338E+03 -8.754939E+05 -1.886097E+04 -1.137555E+03  1.800434E-09 -3.117874E-09
        60  16 -1.058534E+05 -1.296104E+06 -1.110834E+05 -1.798339E+03 -8.592664E-10 -1.789167E-09
        60  17 -1.016782E+05 -1.288304E+06 -1.110541E+05  2.508389E+03  1.745481E-09 -1.198235E-11
        60  18 -1.084971E+05 -1.283862E+06 -1.177876E+05  1.749875E+03 -1.065588E-09  1.270783E-09
        60  19  1.033263E+05 -4.547161E+05  9.266053E+04 -4.455719E+02 -1.145949E+04 -1.800006E+03
        60  20  1.043664E+05 -4.592783E+05  8.929611E+04  2.962836E+02 -1.195944E+04 -6.758572E+03
        60  21  9.464039E+04 -4.669728E+05  8.005415E+04 -4.026687E+03 -1.106374E+04 -1.171352E+04
        60  22 -1.257017E+03 -8.754909E+05 -9.204940E+03 -1.122226E+03 -1.146118E+04 -1.248758E+03
        60  23  1.350498E+03 -8.738700E+05 -1.087262E+04  1.402693E+03 -1.195977E+04 -6.840149E+03
        60  24 -6.922165E+03 -8.754937E+05 -1.886045E+04 -1.137444E+03 -1.106233E+04 -1.242797E+04
        60  25 -1.058533E+05 -1.296104E+06 -1.110832E+05 -1.798333E+03 -1.146286E+04 -6.978817E+02
        60  26 -1.016780E+05 -1.288304E+06 -1.110537E+05  2.508455E+03 -1.196011E+04 -6.921670E+03
        60  27 -1.084969E+05 -1.283862E+06 -1.177871E+05  1.749992E+03 -1.106093E+04 -1.314194E+04
        61   1  1.016945E+05 -4.816778E+05  7.347486E+04  5.539312E+03  1.186423E+04  1.759959E+04
        61   2  1.067315E+05 -4.788495E+05  5.925895E+04 -4.143907E+03  1.150773E+04  3.296790E+04
        61   3  3.342148E+04 -4.974564E+05  1.547973E+04 -2.069153E+04  3.556432E+03  4.831027E+04
        61   4  2.885042E+03 -8.796631E+05 -2.254839E+04 -1.460417E+03  1.186905E+04  1.600446E+04
        61   5  9.856150E+03 -8.686528E+05 -3.482616E+04  1.865991E+03  1.150272E+04  3.482380E+04
        61   6 -6.214618E+04 -8.796905E+05 -7.907878E+04 -1.672943E+03  3.540117E+03  5.361719E+04
        61   7 -9.593580E+04 -1.277503E+06 -1.185829E+05 -8.455537E+03  1.187391E+04  1.441035E+04
        61   8 -8.703024E+04 -1.258317E+06 -1.289221E+05  7.872207E+03  1.149774E+04  3.667854E+04
        61   9 -1.577235E+05 -1.261791E+06 -1.736479E+05  1.733402E+04  3.524123E+03  5.892084E+04
        61  10  1.016943E+05 -4.816781E+05  7.347401E+04  5.539144E+03 -2.846100E-09  3.861915E-09
        61  11  1.067311E+05 -4.788507E+05  5.925666E+04 -4.144213E+03 -1.571556E-09 -4.017970E-09
        61  12  3.342084E+04 -4.974589E+05  1.547532E+04 -2.069167E+04 -9.232710E-10 -4.902558E-09
        61  13  2.884822E+03 -8.796635E+05 -2.254914E+04 -1.460570E+03 -7.585223E-10  1.920055E-12
        61  14  9.855682E+03 -8.686541E+05 -3.482869E+04  1.865669E+03 -3.846869E-09 -3.306973E-09
        61  15 -6.214696E+04 -8.796936E+05 -7.908422E+04 -1.673096E+03 -2.443120E-10 -3.904533E-09
        61  16 -9.593601E+04 -1.277504E+06 -1.185836E+05 -8.455675E+03 -1.644065E-10 -3.090682E-09
        61  17 -8.703074E+04 -1.258318E+06 -1.289249E+05  7.871867E+03 -1.201417E-09 -1.883727E-09
        61  18 -1.577244E+05 -1.261795E+06 -1.736544E+05  1.733385E+04  6.121235E-10  3.292903E-09
        61  19  1.016945E+05 -4.816778E+05  7.347486E+04  5.539312E+03 -1.186423E+04 -1.759959E+04
        61  20  1.067315E+05 -4.788495E+05  5.925895E+04 -4.143907E+03 -1.150773E+04 -3.296790E+04
        61  21  3.342148E+04 -4.974564E+05  1.547973E+04 -2.069153E+04 -3.556432E+03 -4.831027E+04
        61  22  2.885042E+03 -8.796631E+05 -2.254839E+04 -1.460417E+03 -1.186905E+04 -1.600446E+04
        61  23  9.856150E+03 -8.686528E+05 -3.482616E+04  1.865991E+03 -1.150272E+04 -3.482380E+04
        61  24 -6.214618E+04 -8.796905E+05 -7.907878E+04 -1.672943E+03 -3.540117E+03 -5.361719E+04
        61  25 -9.593580E+04 -1.277503E+06 -1.185829E+05 -8.455537E+03 -1.187391E+04 -1.441035E+04
        61  26 -8.703024E+04 -1.258317E+06 -1.289221E+05  7.872207E+03 -1.149774E+04 -3.667854E+04
        61  27 -1.577235E+05 -1.261791E+06 -1.736479E+05  1.733402E+04 -3.524123E+03 -5.892084E+04
        62   1  2.881125E+02  7.147943E+01  7.102172E+01  2.575253E+00  6.447852E-01 -1.943042E-01
        62   2  2.878115E+02  7.226488E+01  7.046500E+01 -1.199783E+00  1.447011E+00 -5.345225E-01
        62   3  2.871558E+02  7.190680E+01  6.910728E+01  2.594324E+00  2.249107E+00 -3.667643E-01
        62   4 -6.696579E-01 -7.155051E-01 -1.170764E+00  2.529363E+00  6.305180E-01 -1.943081E-01
        62   5 -4.912145E-01  1.908089E-01 -1.602329E+00 -1.255300E+00  1.444932E+00 -5.345228E-01
        62   6 -6.696759E-01 -4.852051E-02 -2.843352E+00  2.529178E+00  2.259217E+00 -3.667610E-01
        62   7 -2.894517E+02 -7.291044E+01 -7.336325E+01  2.483473E+00  6.162523E-01 -1.943121E-01
        62   8 -2.887939E+02 -7.188326E+01 -7.366966E+01 -1.310819E+00  1.442860E+00 -5.345236E-01
        62   9 -2.884950E+02 -7.200384E+01 -7.479399E+01  2.464031E+00  2.269338E+00 -3.667585E-01
        62  10  2.881125E+02  7.147947E+01  7.102173E+01  2.575022E+00 -4.703341E-07 -4.386072E-08
        62  11  2.878116E+02  7.226508E+01  7.046505E+01 -1.200804E+00 -2.110304E-06 -1.515316E-07
        62  12  2.871558E+02  7.190714E+01  6.910736E+01  2.592513E+00 -3.764237E-06 -1.955077E-07
        62  13 -6.696979E-01 -7.155066E-01 -1.170772E+00  2.529363E+00 -1.199734E-06  2.763904E-08
        62  14 -4.912512E-01  1.908204E-01 -1.602334E+00 -1.255301E+00 -5.314779E-06  1.221531E-07
        62  15 -6.697159E-01 -4.852273E-02 -2.843360E+00  2.529178E+00 -9.430125E-06  2.167176E-07
        62  16 -2.894517E+02 -7.291048E+01 -7.336326E+01  2.483703E+00 -4.871024E-07 -1.440540E-09
        62  17 -2.887939E+02 -7.188343E+01 -7.366970E+01 -1.309800E+00 -2.141200E-06 -4.785866E-08
        62  18 -2.884951E+02 -7.200417E+01 -7.479407E+01  2.465841E+00 -3.780607E-06 -1.569222E-07
        62  19  2.881125E+02  7.147952E+01  7.102174E+01  2.574791E+00 -6.447861E-01  1.943041E-01
        62  20  2.878116E+02  7.226529E+01  7.046509E+01 -1.201826E+00 -1.447015E+00  5.345222E-01
        62  21  2.871559E+02  7.190748E+01  6.910745E+01  2.590702E+00 -2.249114E+00  3.667639E-01
        62  22 -6.697377E-01 -7.155083E-01 -1.170780E+00  2.529363E+00 -6.305204E-01  1.943081E-01
        62  23 -4.912878E-01  1.908320E-01 -1.602339E+00 -1.255302E+00 -1.444943E+00  5.345230E-01
        62  24 -6.697560E-01 -4.852522E-02 -2.843369E+00  2.529179E+00 -2.259236E+00  3.667615E-01
        62  25 -2.894517E+02 -7.291052E+01 -7.336327E+01  2.483933E+00 -6.162533E-01  1.943121E-01
        62  26 -2.887940E+02 -7.188360E+01 -7.366975E+01 -1.308779E+00 -1.442865E+00  5.345235E-01
        62  27 -2.884952E+02 -7.200451E+01 -7.479416E+01  2.467652E+00 -2.269346E+00  3.667582E-01
        63   1  1.239585E+02  3.106372E+01  2.743362E+01  2.545849E+00  2.855835E+00 -2.317467E-01
        63   2  1.238038E+02  3.121716E+01  2.465607E+01 -1.234044E+00  6.031629E+00 -2.067788E-01
        63   3  1.229903E+02  3.038078E+01  1.956391E+01  2.554425E+00  9.207398E+00 -9.490813E-02
        63   4 -7.368649E-01 -1.094869E-01 -3.736605E+00  2.529029E+00  2.855363E+00 -2.317465E-01
        63   5 -4.072688E-01  1.649753E-01 -6.393458E+00 -1.255088E+00  6.033244E+00 -2.067781E-01
        63   6 -7.368703E-01 -5.507395E-01 -1.136637E+01  2.529157E+00  9.211101E+00 -9.490698E-02
        63   7 -1.254322E+02 -3.128270E+01 -3.490683E+01  2.512209E+00  2.854903E+00 -2.317470E-01
        63   8 -1.246184E+02 -3.088721E+01 -3.744299E+01 -1.276131E+00  6.034868E+00 -2.067779E-01
        63   9 -1.244640E+02 -3.148227E+01 -4.229665E+01  2.503888E+00  9.214807E+00 -9.490606E-02
        63  10  1.239586E+02  3.106406E+01  2.743371E+01  2.543986E+00 -3.884507E-06 -1.674816E-07
        63  11  1.238039E+02  3.121737E+01  2.465612E+01 -1.235288E+00 -2.599251E-06 -8.185778E-08
        63  12  1.229903E+02  3.038087E+01  1.956393E+01  2.553797E+00 -1.316513E-06 -1.722001E-08
        63  13 -7.368334E-01 -1.094839E-01 -3.736598E+00  2.529028E+00 -9.693716E-06  2.224118E-07
        63  14 -4.072398E-01  1.649683E-01 -6.393453E+00 -1.255087E+00 -6.480588E-06  1.443452E-07
        63  15 -7.368413E-01 -5.507469E-01 -1.136637E+01  2.529157E+00 -3.269784E-06  6.615172E-08
        63  16 -1.254323E+02 -3.128305E+01 -3.490692E+01  2.514071E+00 -3.870565E-06 -1.932727E-07
        63  17 -1.246184E+02 -3.088745E+01 -3.744304E+01 -1.274885E+00 -2.584616E-06 -1.532087E-07
        63  18 -1.244641E+02 -3.148238E+01 -4.229667E+01  2.504517E+00 -1.298384E-06 -9.112131E-08
        63  19  1.239587E+02  3.106441E+01  2.743380E+01  2.542124E+00 -2.855843E+00  2.317464E-01
        63  20  1.238040E+02  3.121758E+01  2.465618E+01 -1.236532E+00 -6.031634E+00  2.067786E-01
        63  21  1.229904E+02  3.038097E+01  1.956396E+01  2.553170E+00 -9.207401E+00  9.490810E-02
        63  22 -7.368018E-01 -1.094814E-01 -3.736591E+00  2.529028E+00 -2.855383E+00  2.317469E-01
        63  23 -4.072106E-01  1.649613E-01 -6.393449E+00 -1.255087E+00 -6.033257E+00  2.067784E-01
        63  24 -7.368123E-01 -5.507544E-01 -1.136636E+01  2.529157E+00 -9.211107E+00  9.490711E-02
        63  25 -1.254324E+02 -3.128339E+01 -3.490700E+01  2.515931E+00 -2.854911E+00  2.317466E-01
        63  26 -1.246185E+02 -3.088768E+01 -3.744310E+01 -1.273641E+00 -6.034873E+00  2.067776E-01
        63  27 -1.244641E+02 -3.148250E+01 -4.229670E+01  2.505145E+00 -9.214809E+00  9.490588E-02
        64   1 -4.067631E+01 -9.799046E+00 -2.473350E+01  2.477082E+00  1.158838E+01 -2.321504E-02
        64   2 -3.961198E+01 -9.019430E+00 -3.559967E+01 -1.275321E+00  2.436363E+01  6.691549E-02
        64   3 -4.164255E+01 -1.394668E+01 -5.621078E+01  2.541414E+00  3.713868E+01  1.717184E-01
        64   4 -1.278158E+00  5.060009E-02 -1.488354E+01  2.528853E+00  1.159028E+01 -2.321448E-02
        64   5  2.693344E-01  9.507415E-01 -2.563027E+01 -1.255153E+00  2.436588E+01  6.691601E-02
        64   6 -1.278154E+00 -3.856045E+00 -4.612219E+01  2.529982E+00  3.714129E+01  1.717189E-01
        64   7  3.811998E+01  9.900243E+00 -5.033588E+00  2.580622E+00  1.159218E+01 -2.321401E-02
        64   8  4.015063E+01  1.092091E+01 -1.566088E+01 -1.234984E+00  2.436813E+01  6.691670E-02
        64   9  3.908623E+01  6.234586E+00 -3.603360E+01  2.518549E+00  3.714389E+01  1.717198E-01
        64  10 -4.067629E+01 -9.799021E+00 -2.473349E+01  2.476886E+00 -4.206822E-07  1.823104E-08
        64  11 -3.961198E+01 -9.019515E+00 -3.559969E+01 -1.274662E+00  1.362438E-06  8.267235E-08
        64  12 -4.164259E+01 -1.394687E+01 -5.621083E+01  2.542930E+00  3.152464E-06  1.386952E-07
        64  13 -1.278116E+00  5.059554E-02 -1.488354E+01  2.528853E+00 -1.032804E-06  2.369668E-08
        64  14  2.693746E-01  9.507329E-01 -2.563027E+01 -1.255153E+00  3.434463E-06 -4.473920E-08
        64  15 -1.278115E+00 -3.856053E+00 -4.612219E+01  2.529981E+00  7.900890E-06 -1.141085E-07
        64  16  3.811999E+01  9.900195E+00 -5.033597E+00  2.580821E+00 -4.037527E-07 -5.694082E-08
        64  17  4.015066E+01  1.092096E+01 -1.566086E+01 -1.235643E+00  1.384850E-06 -9.648609E-09
        64  18  3.908629E+01  6.234746E+00 -3.603356E+01  2.517033E+00  3.166129E-06  4.783093E-08
        64  19 -4.067626E+01 -9.798996E+00 -2.473348E+01  2.476688E+00 -1.158838E+01  2.321508E-02
        64  20 -3.961198E+01 -9.019600E+00 -3.559971E+01 -1.274001E+00 -2.436363E+01 -6.691532E-02
        64  21 -4.164262E+01 -1.394706E+01 -5.621087E+01  2.544448E+00 -3.713868E+01 -1.717181E-01
        64  22 -1.278074E+00  5.059089E-02 -1.488353E+01  2.528853E+00 -1.159028E+01  2.321453E-02
        64  23  2.694160E-01  9.507249E-01 -2.563026E+01 -1.255153E+00 -2.436587E+01 -6.691610E-02
        64  24 -1.278073E+00 -3.856061E+00 -4.612218E+01  2.529981E+00 -3.714128E+01 -1.717191E-01
        64  25  3.811999E+01  9.900145E+00 -5.033606E+00  2.581020E+00 -1.159218E+01  2.321390E-02
        64  26  4.015069E+01  1.092102E+01 -1.566084E+01 -1.236301E+00 -2.436813E+01 -6.691672E-02
        64  27  3.908635E+01  6.234909E+00 -3.603351E+01  2.515516E+00 -3.714389E+01 -1.717197E-01
        65   1 -2.076579E+02 -5.027024E+01 -1.109150E+02  2.228975E+00  4.676538E+01  2.346669E-01
        65   2 -2.000911E+02 -4.471198E+01 -1.535965E+02 -1.294543E+00  9.821513E+01  3.464717E-01
        65   3 -2.086351E+02 -7.686131E+01 -2.391975E+02  2.755662E+00  1.496656E+02  4.594630E-01
        65   4 -4.170560E+00  6.011662E-01 -6.004662E+01  2.527702E+00  4.676771E+01  2.346672E-01
        65   5  3.884820E+00  6.281105E+00 -1.026075E+02 -1.255430E+00  9.821751E+01  3.464720E-01
        65   6 -4.170540E+00 -2.574654E+01 -1.880879E+02  2.535158E+00  1.496681E+02  4.594632E-01
        65   7  1.993168E+02  5.147256E+01 -9.178191E+00  2.826429E+00  4.677003E+01  2.346681E-01
        65   8  2.078608E+02  5.727418E+01 -5.161847E+01 -1.216318E+00  9.821987E+01  3.464729E-01
        65   9  2.002941E+02  2.536822E+01 -1.369783E+02  2.314652E+00  1.496705E+02  4.594641E-01
        65  10 -2.076579E+02 -5.027048E+01 -1.109151E+02  2.231002E+00  4.215675E-06  1.627207E-07
        65  11 -2.000912E+02 -4.471227E+01 -1.535966E+02 -1.291621E+00  6.084173E-06  1.930422E-07
        65  12 -2.086352E+02 -7.686165E+01 -2.391976E+02  2.759482E+00  7.952103E-06  2.191113E-07
        65  13 -4.170520E+00  6.011585E-01 -6.004661E+01  2.527702E+00  1.055426E-05 -1.430725E-07
        65  14  3.884853E+00  6.281095E+00 -1.026075E+02 -1.255430E+00  1.521810E-05 -1.764581E-07
        65  15 -4.170521E+00 -2.574655E+01 -1.880879E+02  2.535157E+00  1.988621E-05 -2.093256E-07
        65  16  1.993168E+02  5.147277E+01 -9.178139E+00  2.824404E+00  4.227057E-06  7.314994E-08
        65  17  2.078609E+02  5.727444E+01 -5.161842E+01 -1.219239E+00  6.094833E-06  9.821353E-08
        65  18  2.002941E+02  2.536853E+01 -1.369782E+02  2.310834E+00  7.955690E-06  1.279733E-07
        65  19 -2.076580E+02 -5.027071E+01 -1.109152E+02  2.233030E+00 -4.676537E+01 -2.346665E-01
        65  20 -2.000912E+02 -4.471256E+01 -1.535967E+02 -1.288698E+00 -9.821512E+01 -3.464713E-01
        65  21 -2.086353E+02 -7.686199E+01 -2.391977E+02  2.763299E+00 -1.496656E+02 -4.594626E-01
        65  22 -4.170474E+00  6.011518E-01 -6.004660E+01  2.527703E+00 -4.676769E+01 -2.346675E-01
        65  23  3.884906E+00  6.281089E+00 -1.026075E+02 -1.255430E+00 -9.821748E+01 -3.464723E-01
        65  24 -4.170454E+00 -2.574656E+01 -1.880879E+02  2.535157E+00 -1.496680E+02 -4.594636E-01
        65  25  1.993169E+02  5.147298E+01 -9.178079E+00  2.822377E+00 -4.677002E+01 -2.346680E-01
        65  26  2.078610E+02  5.727470E+01 -5.161833E+01 -1.222161E+00 -9.821986E+01 -3.464727E-01
        65  27  2.002942E+02  2.536884E+01 -1.369781E+02  2.307016E+00 -1.496705E+02 -4.594639E-01
        66   1 -3.877911E+02 -8.738911E+01 -3.345595E+02  8.947587E-01  1.887393E+02  5.292627E-01
        66   2 -3.441433E+02 -5.114092E+01 -5.012864E+02 -1.000078E+00  3.959188E+02  6.853639E-01
        66   3 -3.887608E+02 -2.602934E+02 -8.642340E+02  4.714703E+00  6.030983E+02  8.335854E-01
        66   4 -2.020491E+01  4.507178E+00 -2.426701E+02  2.522084E+00  1.887418E+02  5.292634E-01
        66   5  2.392781E+01  4.087496E+01 -4.092776E+02 -1.259266E+00  3.959213E+02  6.853639E-01
        66   6 -2.020475E+01 -1.681579E+02 -7.721057E+02  2.569001E+00  6.031007E+02  8.335835E-01
        66   7  3.473814E+02  9.640345E+01 -1.507807E+02  4.149410E+00  1.887443E+02  5.292650E-01
        66   8  3.919990E+02  1.328908E+02 -3.172689E+02 -1.518453E+00  3.959237E+02  6.853647E-01
        66   9  3.483514E+02 -7.602231E+01 -6.799774E+02  4.232987E-01  6.031030E+02  8.335823E-01
        66  10 -3.877912E+02 -8.738947E+01 -3.345596E+02  8.990950E-01  9.033099E-06  2.272192E-07
        66  11 -3.441435E+02 -5.114131E+01 -5.012868E+02 -9.948577E-01  1.088011E-05  2.272273E-07
        66  12 -3.887613E+02 -2.602939E+02 -8.642348E+02  4.720807E+00  1.272264E-05  2.187951E-07
        66  13 -2.020491E+01  4.507161E+00 -2.426702E+02  2.522084E+00  2.258725E-05 -2.171307E-07
        66  14  2.392769E+01  4.087491E+01 -4.092779E+02 -1.259266E+00  2.719349E-05 -2.118876E-07
        66  15 -2.020510E+01 -1.681580E+02 -7.721064E+02  2.569000E+00  3.180265E-05 -2.081164E-07
        66  16  3.473814E+02  9.640377E+01 -1.507807E+02  4.145074E+00  9.034465E-06  1.356478E-07
        66  17  3.919989E+02  1.328911E+02 -3.172691E+02 -1.523675E+00  1.087881E-05  1.324766E-07
        66  18  3.483512E+02 -7.602210E+01 -6.799780E+02  4.171915E-01  1.272007E-05  1.353369E-07
        66  19 -3.877912E+02 -8.738982E+01 -3.345597E+02  9.034314E-01 -1.887392E+02 -5.292623E-01
        66  20 -3.441434E+02 -5.114162E+01 -5.012866E+02 -9.896359E-01 -3.959188E+02 -6.853635E-01
        66  21 -3.887610E+02 -2.602941E+02 -8.642342E+02  4.726914E+00 -6.030983E+02 -8.335850E-01
        66  22 -2.020483E+01  4.507162E+00 -2.426701E+02  2.522084E+00 -1.887418E+02 -5.292639E-01
        66  23  2.392790E+01  4.087495E+01 -4.092776E+02 -1.259266E+00 -3.959212E+02 -6.853643E-01
        66  24 -2.020466E+01 -1.681579E+02 -7.721057E+02  2.569001E+00 -6.031006E+02 -8.335839E-01
        66  25  3.473816E+02  9.640410E+01 -1.507806E+02  4.140737E+00 -1.887443E+02 -5.292647E-01
        66  26  3.919992E+02  1.328915E+02 -3.172687E+02 -1.528897E+00 -3.959237E+02 -6.853644E-01
        66  27  3.483516E+02 -7.602168E+01 -6.799772E+02  4.110856E-01 -6.031030E+02 -8.335820E-01
        67   1 -6.441198E+02 -1.016493E+02 -1.115329E+03 -7.164085E+00  7.623665E+02  9.378693E-01
        67   2 -3.930075E+02  1.299322E+02 -1.755879E+03  1.972132E+00  1.596338E+03  1.255131E+00
        67   3 -6.450742E+02 -1.217360E+03 -3.334071E+03  1.894041E+01  2.430297E+03  1.523727E+00
        67   4 -1.124077E+02  3.128307E+01 -9.824108E+02  2.489228E+00  7.623698E+02  9.378815E-01
        67   5  1.391827E+02  2.629751E+02 -1.622845E+03 -1.284579E+00  1.596341E+03  1.255122E+00
        67   6 -1.124053E+02 -1.084206E+03 -3.200920E+03  2.773863E+00  2.430299E+03  1.523664E+00
        67   7  4.193047E+02  1.642154E+02 -8.494928E+02  1.214255E+01  7.623731E+02  9.378944E-01
        67   8  6.713733E+02  3.960179E+02 -1.489810E+03 -4.541292E+00  1.596344E+03  1.255115E+00
        67   9  4.202639E+02 -9.510520E+02 -3.067768E+03 -1.339270E+01  2.430301E+03  1.523601E+00
        67  10 -6.441205E+02 -1.016497E+02 -1.115330E+03 -7.157496E+00  1.373365E-05  2.109852E-07
        67  11 -3.930103E+02  1.299312E+02 -1.755884E+03  1.979503E+00  1.536499E-05  1.811104E-07
        67  12 -6.450806E+02 -1.217362E+03 -3.334082E+03  1.894856E+01  1.699366E-05  1.305805E-07
        67  13 -1.124083E+02  3.128290E+01 -9.824119E+02  2.489228E+00  3.433272E-05 -1.955094E-07
        67  14  1.391800E+02  2.629744E+02 -1.622849E+03 -1.284580E+00  3.840155E-05 -1.559624E-07
        67  15 -1.124116E+02 -1.084208E+03 -3.200931E+03  2.773860E+00  4.247759E-05 -1.167593E-07
        67  16  4.193042E+02  1.642155E+02 -8.494938E+02  1.213596E+01  1.372999E-05  1.240339E-07
        67  17  6.713706E+02  3.960175E+02 -1.489815E+03 -4.548666E+00  1.535762E-05  9.299483E-08
        67  18  4.202576E+02 -9.510534E+02 -3.067779E+03 -1.340085E+01  1.698694E-05  8.269103E-08
        67  19 -6.441200E+02 -1.016499E+02 -1.115329E+03 -7.150903E+00 -7.623665E+02 -9.378689E-01
        67  20 -3.930076E+02  1.299317E+02 -1.755879E+03  1.986877E+00 -1.596338E+03 -1.255130E+00
        67  21 -6.450743E+02 -1.217361E+03 -3.334071E+03  1.895672E+01 -2.430297E+03 -1.523727E+00
        67  22 -1.124076E+02  3.128305E+01 -9.824108E+02  2.489229E+00 -7.623697E+02 -9.378819E-01
        67  23  1.391828E+02  2.629750E+02 -1.622845E+03 -1.284578E+00 -1.596341E+03 -1.255123E+00
        67  24 -1.124052E+02 -1.084206E+03 -3.200920E+03  2.773863E+00 -2.430299E+03 -1.523664E+00
        67  25  4.193049E+02  1.642160E+02 -8.494927E+02  1.212937E+01 -7.623730E+02 -9.378941E-01
        67  26  6.713734E+02  3.960184E+02 -1.489810E+03 -4.556039E+00 -1.596344E+03 -1.255115E+00
        67  27  4.202640E+02 -9.510516E+02 -3.067768E+03 -1.340901E+01 -2.430301E+03 -1.523601E+00
        68   1 -1.353941E+03  3.489880E+01 -4.161503E+03 -5.712380E+01  3.083625E+03  1.767320E+00
        68   2  1.246667E+02  1.505862E+03 -6.547257E+03  2.468623E+01  6.438708E+03  2.680220E+00
        68   3 -1.354974E+03 -7.109860E+03 -1.363885E+04  1.156296E+02  9.793837E+03  3.314659E+00
        68   4 -6.579752E+02  2.089245E+02 -3.987520E+03  2.296808E+00  3.083632E+03  1.767616E+00
        68   5  8.211663E+02  1.679968E+03 -6.373152E+03 -1.435915E+00  6.438712E+03  2.679948E+00
        68   6 -6.579372E+02 -6.935668E+03 -1.346462E+04  3.963473E+00  9.793837E+03  3.312896E+00
        68   7  3.799129E+01  3.829503E+02 -3.813536E+03  6.171749E+01  3.083639E+03  1.767913E+00
        68   8  1.517666E+03  1.854073E+03 -6.199047E+03 -2.755809E+01  6.438716E+03  2.679677E+00
        68   9  3.910032E+01 -6.761476E+03 -1.329039E+04 -1.077028E+02  9.793838E+03  3.311132E+00
        68  10 -1.353951E+03  3.489609E+01 -4.161521E+03 -5.711538E+01  1.757419E-05  1.037459E-07
        68  11  1.246222E+02  1.505851E+03 -6.547334E+03  2.469482E+01  1.793356E-05  4.961003E-08
        68  12 -1.355077E+03 -7.109885E+03 -1.363903E+04  1.156384E+02  1.828836E-05 -4.638837E-08
        68  13 -6.579854E+02  2.089220E+02 -3.987537E+03  2.296803E+00  4.392203E-05 -8.810918E-08
        68  14  8.211218E+02  1.679957E+03 -6.373230E+03 -1.435929E+00  4.481426E-05 -2.780783E-08
        68  15 -6.580402E+02 -6.935694E+03 -1.346480E+04  3.963447E+00  4.570669E-05  3.394884E-08
        68  16  3.798113E+01  3.829479E+02 -3.813554E+03  6.170905E+01  1.756129E-05  6.210640E-08
        68  17  1.517622E+03  1.854062E+03 -6.199125E+03 -2.756671E+01  1.791947E-05  1.801368E-08
        68  18  3.899732E+01 -6.761502E+03 -1.329057E+04 -1.077116E+02  1.827738E-05  1.780270E-08
        68  19 -1.353941E+03  3.489849E+01 -4.161504E+03 -5.710694E+01 -3.083625E+03 -1.767320E+00
        68  20  1.246667E+02  1.505862E+03 -6.547257E+03  2.470344E+01 -6.438708E+03 -2.680220E+00
        68  21 -1.354974E+03 -7.109859E+03 -1.363885E+04  1.156472E+02 -9.793837E+03 -3.314659E+00
        68  22 -6.579751E+02  2.089245E+02 -3.987520E+03  2.296808E+00 -3.083632E+03 -1.767616E+00
        68  23  8.211664E+02  1.679968E+03 -6.373152E+03 -1.435915E+00 -6.438712E+03 -2.679948E+00
        68  24 -6.579372E+02 -6.935668E+03 -1.346462E+04  3.963473E+00 -9.793837E+03 -3.312896E+00
        68  25  3.799138E+01  3.829506E+02 -3.813536E+03  6.170062E+01 -3.083639E+03 -1.767913E+00
        68  26  1.517666E+03  1.854073E+03 -6.199047E+03 -2.757530E+01 -6.438716E+03 -2.679677E+00
        68  27  3.910032E+01 -6.761476E+03 -1.329039E+04 -1.077204E+02 -9.793838E+03 -3.311132E+00
        69   1 -4.816366E+03  1.149376E+03 -1.646545E+04 -3.692828E+02  1.249884E+04  4.118856E+00
        69   2  4.080446E+03  1.046987E+04 -2.484712E+04  1.835658E+02  2.598486E+04  7.188284E+00
        69   3 -4.817151E+03 -4.436571E+04 -5.804700E+04  7.527712E+02  3.947093E+04  8.693375E+00
        69   4 -3.954838E+03  1.364964E+03 -1.625005E+04  1.200888E+00  1.249888E+04  4.126318E+00
        69   5  4.942640E+03  1.068531E+04 -2.463162E+04 -2.292436E+00  2.598486E+04  7.180501E+00
        69   6 -3.954264E+03 -4.415037E+04 -5.783136E+04  1.057758E+01  3.947092E+04  8.646178E+00
        69   7 -3.093310E+03  1.580554E+03 -1.603464E+04  3.716851E+02  1.249891E+04  4.133781E+00
        69   8  5.804835E+03  1.090075E+04 -2.441611E+04 -1.881509E+02  2.598487E+04  7.172719E+00
        69   9 -3.091374E+03 -4.393503E+04 -5.761571E+04 -7.316170E+02  3.947090E+04  8.598980E+00
        69  10 -4.816534E+03  1.149334E+03 -1.646575E+04 -3.692750E+02  1.631304E-05 -1.493445E-07
        69  11  4.079721E+03  1.046969E+04 -2.484839E+04  1.835700E+02  9.188816E-06 -2.316470E-07
        69  12 -4.818824E+03 -4.436613E+04 -5.804993E+04  7.527719E+02  2.070286E-06 -8.464526E-08
        69  13 -3.955006E+03  1.364923E+03 -1.625034E+04  1.200846E+00  4.078548E-05  4.466638E-08
        69  14  4.941915E+03  1.068513E+04 -2.463289E+04 -2.292586E+00  2.298377E-05  2.490487E-08
        69  15 -3.955937E+03 -4.415079E+04 -5.783429E+04  1.057731E+01  5.180362E-06  5.191378E-09
        69  16 -3.093477E+03  1.580512E+03 -1.603493E+04  3.716772E+02  1.631609E-05  9.784902E-08
        69  17  5.804110E+03  1.090057E+04 -2.441738E+04 -1.881554E+02  9.197965E-06  2.005458E-07
        69  18 -3.093048E+03 -4.393544E+04 -5.761864E+04 -7.316183E+02  2.072898E-06  7.773540E-08
        69  19 -4.816366E+03  1.149376E+03 -1.646545E+04 -3.692672E+02 -1.249884E+04 -4.118856E+00
        69  20  4.080446E+03  1.046987E+04 -2.484712E+04  1.835746E+02 -2.598486E+04 -7.188285E+00
        69  21 -4.817151E+03 -4.436571E+04 -5.804700E+04  7.527732E+02 -3.947093E+04 -8.693376E+00
        69  22 -3.954839E+03  1.364964E+03 -1.625005E+04  1.200888E+00 -1.249888E+04 -4.126318E+00
        69  23  4.942640E+03  1.068531E+04 -2.463162E+04 -2.292435E+00 -2.598486E+04 -7.180501E+00
        69  24 -3.954264E+03 -4.415037E+04 -5.783136E+04  1.057758E+01 -3.947092E+04 -8.646178E+00
        69  25 -3.093310E+03  1.580554E+03 -1.603464E+04  3.716694E+02 -1.249891E+04 -4.133781E+00
        69  26  5.804835E+03  1.090075E+04 -2.441611E+04 -1.881597E+02 -2.598487E+04 -7.172718E+00
        69  27 -3.091375E+03 -4.393503E+04 -5.761571E+04 -7.316190E+02 -3.947090E+04 -8.598980E+00
        70   1 -2.405574E+02 -9.407751E+01 -6.768797E+01 -6.797215E+01 -2.006464E-01  1.243802E-01
        70   2 -2.428653E+02 -9.028785E+01 -6.743287E+01 -6.468535E+01  7.444033E-02  5.635890E-01
        70   3 -2.395390E+02 -9.320983E+01 -6.766817E+01 -6.788343E+01  5.280405E-01  5.271801E-01
        70   4  2.086824E+00 -2.454332E+00 -8.372818E-01 -1.984519E+00 -1.886844E-01  1.288695E-01
        70   5 -6.967177E-01  1.147427E+00 -7.196005E-01  1.165388E+00  7.571626E-02  5.640669E-01
        70   6  2.156328E+00 -1.960574E+00 -1.083859E+00 -2.169856E+00  5.186301E-01  5.236465E-01
        70   7  2.447310E+02  8.916882E+01  6.601338E+01  6.400312E+01 -1.767234E-01  1.333589E-01
        70   8  2.414719E+02  9.258270E+01  6.599365E+01  6.701614E+01  7.698776E-02  5.645450E-01
        70   9  2.438517E+02  8.928869E+01  6.550045E+01  6.354374E+01  5.092118E-01  5.201135E-01
        70  10 -2.405576E+02 -9.407758E+01 -6.768801E+01 -6.797199E+01  2.165054E-07  1.945487E-07
        70  11 -2.428660E+02 -9.028815E+01 -6.743306E+01 -6.468466E+01  1.055315E-06  8.697911E-07
        70  12 -2.395403E+02 -9.321034E+01 -6.766852E+01 -6.788221E+01  1.962011E-06  1.521990E-06
        70  13  2.086846E+00 -2.454330E+00 -8.372770E-01 -1.984513E+00  7.551286E-07  1.591273E-07
        70  14 -6.967008E-01  1.147425E+00 -7.195976E-01  1.165399E+00  3.344663E-06  7.040011E-07
        70  15  2.156352E+00 -1.960570E+00 -1.083853E+00 -2.169852E+00  5.932102E-06  1.248242E-06
        70  16  2.447312E+02  8.916889E+01  6.601343E+01  6.400297E+01  2.883742E-07  1.934684E-07
        70  17  2.414726E+02  9.258298E+01  6.599385E+01  6.701547E+01  1.182540E-06  8.510454E-07
        70  18  2.438530E+02  8.928921E+01  6.550080E+01  6.354253E+01  2.012933E-06  1.528842E-06
        70  19 -2.405577E+02 -9.407764E+01 -6.768806E+01 -6.797183E+01  2.006469E-01 -1.243798E-01
        70  20 -2.428667E+02 -9.028845E+01 -6.743326E+01 -6.468397E+01 -7.443821E-02 -5.635873E-01
        70  21 -2.395415E+02 -9.321086E+01 -6.766887E+01 -6.788100E+01 -5.280365E-01 -5.271770E-01
        70  22  2.086868E+00 -2.454328E+00 -8.372722E-01 -1.984506E+00  1.886859E-01 -1.288692E-01
        70  23 -6.966837E-01  1.147422E+00 -7.195947E-01  1.165410E+00 -7.570958E-02 -5.640655E-01
        70  24  2.156376E+00 -1.960566E+00 -1.083847E+00 -2.169847E+00 -5.186182E-01 -5.236440E-01
        70  25  2.447314E+02  8.916895E+01  6.601347E+01  6.400282E+01  1.767239E-01 -1.333585E-01
        70  26  2.414733E+02  9.258327E+01  6.599405E+01  6.701480E+01 -7.698539E-02 -5.645433E-01
        70  27  2.438542E+02  8.928972E+01  6.550115E+01  6.354132E+01 -5.092077E-01 -5.201105E-01
        71   1 -5.277229E+01 -2.275646E+01 -1.650504E+01 -1.708680E+01  7.762094E-01  4.601657E-01
        71   2 -5.506705E+01 -1.942066E+01 -1.730682E+01 -1.360258E+01  1.963472E+00  8.523878E-01
        71   3 -5.183998E+01 -2.262569E+01 -1.914636E+01 -1.672639E+01  3.181264E+00  1.163278E+00
        71   4  2.116131E+00 -2.028334E+00 -1.384099E+00 -2.157597E+00  7.760759E-01  4.601140E-01
        71   5 -6.619680E-01  1.121425E+00 -2.319010E+00  1.191662E+00  1.961509E+00  8.516503E-01
        71   6  2.082173E+00 -2.269333E+00 -4.290232E+00 -2.067149E+00  3.177470E+00  1.161855E+00
        71   7  5.700456E+01  1.869980E+01  1.373684E+01  1.277161E+01  7.759350E-01  4.600628E-01
        71   8  5.374313E+01  2.166351E+01  1.266881E+01  1.598591E+01  1.959543E+00  8.509130E-01
        71   9  5.600435E+01  1.808703E+01  1.056591E+01  1.259209E+01  3.173679E+00  1.160432E+00
        71  10 -5.277346E+01 -2.275695E+01 -1.650537E+01 -1.708568E+01  1.905336E-06  1.421288E-06
        71  11 -5.506738E+01 -1.942080E+01 -1.730692E+01 -1.360228E+01  5.972831E-07  3.889060E-07
        71  12 -5.183948E+01 -2.262549E+01 -1.914622E+01 -1.672690E+01 -7.426067E-07 -6.356134E-07
        71  13  2.116097E+00 -2.028337E+00 -1.384107E+00 -2.157606E+00  5.524711E-06  1.160497E-06
        71  14 -6.619964E-01  1.121427E+00 -2.319015E+00  1.191647E+00  1.531337E-06  3.136815E-07
        71  15  2.082145E+00 -2.269331E+00 -4.290237E+00 -2.067164E+00 -2.462078E-06 -5.338015E-07
        71  16  5.700571E+01  1.870028E+01  1.373717E+01  1.277047E+01  1.796502E-06  1.422618E-06
        71  17  5.374345E+01  2.166366E+01  1.266890E+01  1.598558E+01  4.238429E-07  4.121994E-07
        71  18  5.600384E+01  1.808684E+01  1.056577E+01  1.259258E+01 -9.172409E-07 -6.109154E-07
        71  19 -5.277462E+01 -2.275743E+01 -1.650570E+01 -1.708456E+01 -7.762056E-01 -4.601629E-01
        71  20 -5.506771E+01 -1.942093E+01 -1.730701E+01 -1.360198E+01 -1.963471E+00 -8.523870E-01
        71  21 -5.183897E+01 -2.262528E+01 -1.914608E+01 -1.672741E+01 -3.181266E+00 -1.163280E+00
        71  22  2.116063E+00 -2.028341E+00 -1.384115E+00 -2.157616E+00 -7.760648E-01 -4.601117E-01
        71  23 -6.620246E-01  1.121429E+00 -2.319021E+00  1.191632E+00 -1.961506E+00 -8.516497E-01
        71  24  2.082117E+00 -2.269329E+00 -4.290242E+00 -2.067179E+00 -3.177475E+00 -1.161856E+00
        71  25  5.700685E+01  1.870077E+01  1.373749E+01  1.276934E+01 -7.759314E-01 -4.600600E-01
        71  26  5.374377E+01  2.166382E+01  1.266899E+01  1.598525E+01 -1.959542E+00 -8.509122E-01
        71  27  5.600332E+01  1.808665E+01  1.056563E+01  1.259307E+01 -3.173681E+00 -1.160433E+00
        72   1  1.347329E+02  4.819672E+01  3.096260E+01  3.380193E+01  4.038161E+00  1.392901E+00
        72   2  1.331241E+02  5.197757E+01  2.674526E+01  3.741728E+01  9.131134E+00  3.184280E+00
        72   3  1.353486E+02  4.630394E+01  1.780072E+01  3.495956E+01  1.422917E+01  4.962037E+00
        72   4  1.842303E+00 -1.955400E+00 -5.644224E+00 -2.309120E+00  4.035945E+00  1.392071E+00
        72   5 -2.356001E-01  1.627300E+00 -9.993330E+00  1.156992E+00  9.128608E+00  3.183335E+00
        72   6  1.519874E+00 -4.244470E+00 -1.906939E+01 -1.450019E+00  1.422633E+01  4.960977E+00
        72   7 -1.310483E+02 -5.210752E+01 -4.225104E+01 -3.842016E+01  4.033736E+00  1.391240E+00
        72   8 -1.335953E+02 -4.872296E+01 -4.673191E+01 -3.510328E+01  9.126096E+00  3.182389E+00
        72   9 -1.323088E+02 -5.479287E+01 -5.593949E+01 -3.785958E+01  1.422352E+01  4.959916E+00
        72  10  1.347340E+02  4.819713E+01  3.096289E+01  3.380089E+01 -1.632668E-06 -1.303585E-06
        72  11  1.331262E+02  5.197835E+01  2.674583E+01  3.741520E+01 -3.352044E-06 -2.584527E-06
        72  12  1.353517E+02  4.630509E+01  1.780158E+01  3.495645E+01 -5.085527E-06 -3.862218E-06
        72  13  1.842264E+00 -1.955401E+00 -5.644232E+00 -2.309136E+00 -5.108830E-06 -1.108902E-06
        72  14 -2.356372E-01  1.627301E+00 -9.993337E+00  1.156973E+00 -1.020360E-05 -2.237071E-06
        72  15  1.519837E+00 -4.244468E+00 -1.906939E+01 -1.450037E+00 -1.530726E-05 -3.367179E-06
        72  16 -1.310493E+02 -5.210791E+01 -4.225133E+01 -3.841914E+01 -1.814056E-06 -1.282595E-06
        72  17 -1.335974E+02 -4.872373E+01 -4.673248E+01 -3.510124E+01 -3.557607E-06 -2.555196E-06
        72  18 -1.323119E+02 -5.479400E+01 -5.594034E+01 -3.785651E+01 -5.283796E-06 -3.831846E-06
        72  19  1.347350E+02  4.819754E+01  3.096318E+01  3.379984E+01 -4.038164E+00 -1.392904E+00
        72  20  1.331283E+02  5.197913E+01  2.674640E+01  3.741313E+01 -9.131140E+00 -3.184285E+00
        72  21  1.353548E+02  4.630624E+01  1.780243E+01  3.495335E+01 -1.422918E+01 -4.962045E+00
        72  22  1.842225E+00 -1.955402E+00 -5.644240E+00 -2.309153E+00 -4.035955E+00 -1.392073E+00
        72  23 -2.356742E-01  1.627302E+00 -9.993344E+00  1.156955E+00 -9.128628E+00 -3.183339E+00
        72  24  1.519800E+00 -4.244467E+00 -1.906940E+01 -1.450055E+00 -1.422636E+01 -4.960984E+00
        72  25 -1.310504E+02 -5.210831E+01 -4.225162E+01 -3.841812E+01 -4.033739E+00 -1.391243E+00
        72  26 -1.335995E+02 -4.872449E+01 -4.673306E+01 -3.509919E+01 -9.126103E+00 -3.182394E+00
        72  27 -1.323151E+02 -5.479513E+01 -5.594120E+01 -3.785343E+01 -1.422353E+01 -4.959924E+00
        73   1  3.210991E+02  1.191293E+02  6.342353E+01  8.406415E+01  1.792433E+01  6.268371E+00
        73   2  3.232105E+02  1.262443E+02  4.463837E+01  8.804635E+01  4.029305E+01  1.453219E+01
        73   3  3.197007E+02  1.044025E+02  3.020499E+00  9.034762E+01  6.266245E+01  2.279541E+01
        73   4  3.693855E-01 -1.831291E+00 -2.490809E+01 -3.006418E+00  1.792173E+01  6.267400E+00
        73   5  2.100076E+00  4.983095E+00 -4.382765E+01  7.108921E-01  4.029042E+01  1.453121E+01
        73   6 -1.789858E+00 -1.715988E+01 -8.557992E+01  2.746625E+00  6.265978E+01  2.279442E+01
        73   7 -3.203603E+02 -1.227919E+02 -1.132397E+02 -9.007696E+01  1.791915E+01  6.266428E+00
        73   8 -3.190102E+02 -1.162781E+02 -1.322937E+02 -8.662451E+01  4.028782E+01  1.453023E+01
        73   9 -3.232802E+02 -1.387222E+02 -1.741803E+02 -8.485429E+01  6.265716E+01  2.279342E+01
        73  10  3.211029E+02  1.191307E+02  6.342454E+01  8.406045E+01 -6.116107E-06 -4.607274E-06
        73  11  3.232153E+02  1.262459E+02  4.463965E+01  8.804160E+01 -7.912541E-06 -5.889149E-06
        73  12  3.197065E+02  1.044044E+02  3.022050E+00  9.034183E+01 -9.717245E-06 -7.170885E-06
        73  13  3.693466E-01 -1.831290E+00 -2.490809E+01 -3.006437E+00 -1.831617E-05 -4.049165E-06
        73  14  2.100036E+00  4.983095E+00 -4.382766E+01  7.108729E-01 -2.356663E-05 -5.262972E-06
        73  15 -1.789901E+00 -1.715988E+01 -8.557993E+01  2.746605E+00 -2.881568E-05 -6.476666E-06
        73  16 -3.203641E+02 -1.227933E+02 -1.132407E+02 -9.007329E+01 -6.310267E-06 -4.575081E-06
        73  17 -3.190150E+02 -1.162797E+02 -1.322950E+02 -8.661980E+01 -8.113460E-06 -5.854859E-06
        73  18 -3.232860E+02 -1.387241E+02 -1.741819E+02 -8.484854E+01 -9.907689E-06 -7.137219E-06
        73  19  3.211066E+02  1.191320E+02  6.342556E+01  8.405675E+01 -1.792434E+01 -6.268380E+00
        73  20  3.232201E+02  1.262476E+02  4.464094E+01  8.803686E+01 -4.029306E+01 -1.453220E+01
        73  21  3.197124E+02  1.044064E+02  3.023618E+00  9.033605E+01 -6.266247E+01 -2.279542E+01
        73  22  3.693080E-01 -1.831289E+00 -2.490810E+01 -3.006455E+00 -1.792177E+01 -6.267408E+00
        73  23  2.099999E+00  4.983098E+00 -4.382767E+01  7.108542E-01 -4.029046E+01 -1.453122E+01
        73  24 -1.789936E+00 -1.715987E+01 -8.557993E+01  2.746589E+00 -6.265984E+01 -2.279443E+01
        73  25 -3.203678E+02 -1.227946E+02 -1.132418E+02 -9.006961E+01 -1.791917E+01 -6.266437E+00
        73  26 -3.190198E+02 -1.162814E+02 -1.322962E+02 -8.661509E+01 -4.028783E+01 -1.453024E+01
        73  27 -3.232919E+02 -1.387261E+02 -1.741834E+02 -8.484278E+01 -6.265718E+01 -2.279344E+01
        74   1  5.009624E+02  1.906152E+02  2.952207E+01  1.303806E+02  7.906321E+01  2.887091E+01
        74   2  5.245627E+02  2.187823E+02 -5.149748E+01  1.359208E+02  1.778267E+02  6.580617E+01
        74   3  4.862849E+02  9.277388E+01 -2.461119E+02  1.699099E+02  2.765847E+02  1.027548E+02
        74   4 -8.057726E+00 -7.351973E-01 -1.105407E+02 -7.166578E+00  7.906039E+01  2.886985E+01
        74   5  1.585229E+01  2.645833E+01 -1.916912E+02 -2.663537E+00  1.778241E+02  6.580519E+01
        74   6 -2.211643E+01 -1.005234E+02 -3.864367E+02  3.028888E+01  2.765823E+02  1.027539E+02
        74   7 -5.170776E+02 -1.920856E+02 -2.506036E+02 -1.447137E+02  7.905760E+01  2.886880E+01
        74   8 -4.928581E+02 -1.658657E+02 -3.318849E+02 -1.412478E+02  1.778215E+02  6.580422E+01
        74   9 -5.305177E+02 -2.938206E+02 -5.267616E+02 -1.093321E+02  2.765799E+02  1.027530E+02
        74  10  5.009688E+02  1.906174E+02  2.952376E+01  1.303742E+02 -1.076356E-05 -7.897556E-06
        74  11  5.245701E+02  2.187846E+02 -5.149560E+01  1.359134E+02 -1.254188E-05 -9.109512E-06
        74  12  4.862932E+02  9.277644E+01 -2.461099E+02  1.699015E+02 -1.432862E-05 -1.031906E-05
        74  13 -8.057770E+00 -7.351988E-01 -1.105408E+02 -7.166598E+00 -3.182908E-05 -7.190307E-06
        74  14  1.585222E+01  2.645832E+01 -1.916912E+02 -2.663564E+00 -3.694618E-05 -8.429502E-06
        74  15 -2.211656E+01 -1.005234E+02 -3.864369E+02  3.028884E+01 -4.206064E-05 -9.670200E-06
        74  16 -5.170841E+02 -1.920878E+02 -2.506053E+02 -1.447073E+02 -1.094474E-05 -7.860738E-06
        74  17 -4.928655E+02 -1.658680E+02 -3.318869E+02 -1.412405E+02 -1.272228E-05 -9.070120E-06
        74  18 -5.305262E+02 -2.938232E+02 -5.267639E+02 -1.093238E+02 -1.448868E-05 -1.028571E-05
        74  19  5.009752E+02  1.906195E+02  2.952549E+01  1.303679E+02 -7.906323E+01 -2.887092E+01
        74  20  5.245776E+02  2.187870E+02 -5.149357E+01  1.359061E+02 -1.778268E+02 -6.580619E+01
        74  21  4.863017E+02  9.277905E+01 -2.461075E+02  1.698932E+02 -2.765847E+02 -1.027548E+02
        74  22 -8.057801E+00 -7.351950E-01 -1.105407E+02 -7.166615E+00 -7.906045E+01 -2.886987E+01
        74  23  1.585221E+01  2.645833E+01 -1.916912E+02 -2.663573E+00 -1.778242E+02 -6.580521E+01
        74  24 -2.211651E+01 -1.005234E+02 -3.864367E+02  3.028884E+01 -2.765824E+02 -1.027539E+02
        74  25 -5.170905E+02 -1.920899E+02 -2.506070E+02 -1.447010E+02 -7.905763E+01 -2.886882E+01
        74  26 -4.928729E+02 -1.658703E+02 -3.318888E+02 -1.412331E+02 -1.778216E+02 -6.580424E+01
        74  27 -5.305346E+02 -2.938258E+02 -5.267660E+02 -1.093154E+02 -2.765800E+02 -1.027530E+02
        75   1  6.414665E+02  2.663877E+02 -3.000240E+02  1.522400E+02  3.500837E+02  1.302570E+02
        75   2  7.948002E+02  4.282604E+02 -6.418812E+02  1.651005E+02  7.865272E+02  2.939380E+02
        75   3  5.412273E+02 -3.659396E+02 -1.567473E+03  4.060390E+02  1.222943E+03  4.576818E+02
        75   4 -5.848620E+01  7.327377E+00 -4.918105E+02 -3.272159E+01  3.500799E+02  1.302556E+02
        75   5  9.965084E+01  1.637400E+02 -8.337970E+02 -2.603352E+01  7.865244E+02  2.939369E+02
        75   6 -1.491200E+02 -6.359200E+02 -1.759520E+03  2.087335E+02  1.222941E+03  4.576811E+02
        75   7 -7.584382E+02 -2.517328E+02 -6.835969E+02 -2.176829E+02  3.500762E+02  1.302542E+02
        75   8 -5.954979E+02 -1.007803E+02 -1.025713E+03 -2.171673E+02  7.865216E+02  2.939359E+02
        75   9 -8.394667E+02 -9.059004E+02 -1.951566E+03  1.142819E+01  1.222939E+03  4.576805E+02
        75  10  6.414753E+02  2.663903E+02 -3.000220E+02  1.522311E+02 -1.530726E-05 -1.096677E-05
        75  11  7.948093E+02  4.282630E+02 -6.418801E+02  1.650905E+02 -1.686319E-05 -1.196749E-05
        75  12  5.412362E+02 -3.659373E+02 -1.567474E+03  4.060279E+02 -1.845199E-05 -1.295515E-05
        75  13 -5.848636E+01  7.327328E+00 -4.918107E+02 -3.272164E+01 -4.483240E-05 -1.036070E-05
        75  14  9.965012E+01  1.637398E+02 -8.337983E+02 -2.603373E+01 -4.924074E-05 -1.149555E-05
        75  15 -1.491217E+02 -6.359206E+02 -1.759523E+03  2.087330E+02 -5.364795E-05 -1.263320E-05
        75  16 -7.584473E+02 -2.517355E+02 -6.835995E+02 -2.176741E+02 -1.545295E-05 -1.092565E-05
        75  17 -5.955084E+02 -1.007833E+02 -1.025717E+03 -2.171578E+02 -1.701366E-05 -1.192538E-05
        75  18 -8.394790E+02 -9.059039E+02 -1.951572E+03  1.143830E+01 -1.854134E-05 -1.293861E-05
        75  19  6.414844E+02  2.663931E+02 -3.000194E+02  1.522222E+02 -3.500837E+02 -1.302570E+02
        75  20  7.948197E+02  4.282660E+02 -6.418762E+02  1.650810E+02 -7.865272E+02 -2.939380E+02
        75  21  5.412484E+02 -3.659338E+02 -1.567468E+03  4.060178E+02 -1.222943E+03 -4.576818E+02
        75  22 -5.848626E+01  7.327381E+00 -4.918105E+02 -3.272162E+01 -3.500800E+02 -1.302556E+02
        75  23  9.965078E+01  1.637400E+02 -8.337970E+02 -2.603356E+01 -7.865245E+02 -2.939370E+02
        75  24 -1.491201E+02 -6.359200E+02 -1.759520E+03  2.087334E+02 -1.222941E+03 -4.576812E+02
        75  25 -7.584561E+02 -2.517382E+02 -6.836015E+02 -2.176652E+02 -3.500762E+02 -1.302542E+02
        75  26 -5.955174E+02 -1.007858E+02 -1.025718E+03 -2.171479E+02 -7.865217E+02 -2.939359E+02
        75  27 -8.394880E+02 -9.059061E+02 -1.951571E+03  1.144931E+01 -1.222939E+03 -4.576805E+02
        76   1  5.481580E+02  3.749343E+02 -1.948901E+03  2.361982E+01  1.554437E+03  5.819998E+02
        76   2  1.483196E+03  1.381489E+03 -3.356031E+03  6.825136E+01  3.483121E+03  1.305860E+03
        76   3 -1.007709E+02 -3.674768E+03 -7.854573E+03  1.649777E+03  5.411709E+03  2.030078E+03
        76   4 -3.597862E+02  6.493784E+01 -2.192468E+03 -1.895295E+02  1.554429E+03  5.819968E+02
        76   5  6.094400E+02  1.036614E+03 -3.599734E+03 -1.847298E+02  3.483118E+03  1.305859E+03
        76   6 -9.403416E+02 -4.054529E+03 -8.098418E+03  1.356964E+03  5.411711E+03  2.030078E+03
        76   7 -1.267730E+03 -2.450587E+02 -2.436036E+03 -4.026786E+02  1.554421E+03  5.819939E+02
        76   8 -2.643150E+02  6.917386E+02 -3.843437E+03 -4.377107E+02  3.483115E+03  1.305858E+03
        76   9 -1.779912E+03 -4.434291E+03 -8.342264E+03  1.064151E+03  5.411713E+03  2.030079E+03
        76  10  5.481662E+02  3.749362E+02 -1.948904E+03  2.360825E+01 -1.901590E-05 -1.327490E-05
        76  11  1.483193E+03  1.381486E+03 -3.356055E+03  6.823677E+01 -1.930737E-05 -1.334228E-05
        76  12 -1.007924E+02 -3.674778E+03 -7.854633E+03  1.649757E+03 -1.965477E-05 -1.337410E-05
        76  13 -3.597889E+02  6.493683E+01 -2.192474E+03 -1.895302E+02 -5.512319E-05 -1.304983E-05
        76  14  6.094265E+02  1.036609E+03 -3.599760E+03 -1.847335E+02 -5.578434E-05 -1.334077E-05
        76  15 -9.403742E+02 -4.054542E+03 -8.098481E+03  1.356955E+03 -5.644510E-05 -1.362941E-05
        76  16 -1.267743E+03 -2.450626E+02 -2.436044E+03 -4.026685E+02 -1.904748E-05 -1.324328E-05
        76  17 -2.643394E+02  6.917308E+02 -3.843465E+03 -4.377034E+02 -1.932119E-05 -1.331518E-05
        76  18 -1.779955E+03 -4.434305E+03 -8.342330E+03  1.064153E+03 -1.953714E-05 -1.341533E-05
        76  19  5.481797E+02  3.749401E+02 -1.948896E+03  2.359814E+01 -1.554437E+03 -5.819998E+02
        76  20  1.483218E+03  1.381494E+03 -3.356026E+03  6.822950E+01 -3.483121E+03 -1.305860E+03
        76  21 -1.007489E+02 -3.674763E+03 -7.854568E+03  1.649755E+03 -5.411709E+03 -2.030078E+03
        76  22 -3.597862E+02  6.493784E+01 -2.192468E+03 -1.895295E+02 -1.554429E+03 -5.819968E+02
        76  23  6.094400E+02  1.036614E+03 -3.599734E+03 -1.847298E+02 -3.483118E+03 -1.305859E+03
        76  24 -9.403416E+02 -4.054529E+03 -8.098418E+03  1.356964E+03 -5.411711E+03 -2.030078E+03
        76  25 -1.267752E+03 -2.450644E+02 -2.436041E+03 -4.026569E+02 -1.554421E+03 -5.819939E+02
        76  26 -2.643369E+02  6.917332E+02 -3.843442E+03 -4.376888E+02 -3.483115E+03 -1.305858E+03
        76  27 -1.779934E+03 -4.434296E+03 -8.342269E+03  1.064173E+03 -5.411713E+03 -2.030079E+03
        77   1 -9.681342E+02  7.120484E+02 -9.509602E+03 -1.040698E+03  6.918374E+03  2.595399E+03
        77   2  4.747745E+03  7.056398E+03 -1.506676E+04 -8.556611E+02  1.543848E+04  5.793874E+03
        77   3 -5.119174E+03 -2.510187E+04 -3.751539E+04  9.335303E+03  2.395796E+04  8.994178E+03
        77   4 -2.191457E+03  4.566094E+02 -9.805330E+03 -1.161124E+03  6.918341E+03  2.595389E+03
        77   5  3.748955E+03  6.575798E+03 -1.536261E+04 -1.233629E+03  1.543847E+04  5.793870E+03
        77   6 -5.893458E+03 -2.580767E+04 -3.781140E+04  8.699797E+03  2.395799E+04  8.994168E+03
        77   7 -3.414778E+03  2.011704E+02 -1.010106E+04 -1.281550E+03  6.918307E+03  2.595379E+03
        77   8  2.750167E+03  6.095198E+03 -1.565846E+04 -1.611597E+03  1.543847E+04  5.793865E+03
        77   9 -6.667741E+03 -2.651347E+04 -3.810741E+04  8.064291E+03  2.395801E+04  8.994159E+03
        77  10 -9.681776E+02  7.120306E+02 -9.509702E+03 -1.040722E+03 -1.776321E-05 -1.186118E-05
        77  11  4.747485E+03  7.056299E+03 -1.506727E+04 -8.557386E+02 -1.027479E-05 -6.605874E-06
        77  12 -5.119811E+03 -2.510211E+04 -3.751662E+04  9.335128E+03 -2.453909E-06 -1.500430E-06
        77  13 -2.191510E+03  4.565894E+02 -9.805432E+03 -1.161138E+03 -5.025350E-05 -1.217088E-05
        77  14  3.748690E+03  6.575698E+03 -1.536312E+04 -1.233701E+03 -2.831518E-05 -6.861894E-06
        77  15 -5.894096E+03 -2.580791E+04 -3.781263E+04  8.699623E+03 -6.382077E-06 -1.548026E-06
        77  16 -3.414841E+03  2.011480E+02 -1.010116E+04 -1.281555E+03 -1.715777E-05 -1.194728E-05
        77  17  2.749896E+03  6.095097E+03 -1.565897E+04 -1.611664E+03 -9.401060E-06 -6.820288E-06
        77  18 -6.668380E+03 -2.651371E+04 -3.810864E+04  8.064119E+03 -1.981398E-06 -1.528632E-06
        77  19 -9.681145E+02  7.120529E+02 -9.509597E+03 -1.040717E+03 -6.918374E+03 -2.595399E+03
        77  20  4.747756E+03  7.056401E+03 -1.506676E+04 -8.556720E+02 -1.543848E+04 -5.793874E+03
        77  21 -5.119171E+03 -2.510187E+04 -3.751538E+04  9.335301E+03 -2.395796E+04 -8.994178E+03
        77  22 -2.191457E+03  4.566095E+02 -9.805330E+03 -1.161124E+03 -6.918341E+03 -2.595389E+03
        77  23  3.748955E+03  6.575798E+03 -1.536261E+04 -1.233629E+03 -1.543847E+04 -5.793870E+03
        77  24 -5.893458E+03 -2.580767E+04 -3.781140E+04  8.699797E+03 -2.395799E+04 -8.994168E+03
        77  25 -3.414798E+03  2.011659E+02 -1.010106E+04 -1.281530E+03 -6.918307E+03 -2.595379E+03
        77  26  2.750156E+03  6.095195E+03 -1.565846E+04 -1.611586E+03 -1.543847E+04 -5.793865E+03
        77  27 -6.667743E+03 -2.651347E+04 -3.810741E+04  8.064294E+03 -2.395801E+04 -8.994159E+03
        78   1  5.003226E+04  4.829205E+05  4.654426E+04 -2.327184E+02  2.860652E+03  2.206053E+04
        78   2  4.737707E+04  4.820595E+05  3.516605E+04 -2.693631E+02  1.011361E+04  1.211857E+04
        78   3  4.660263E+04  4.829648E+05  3.072915E+04  3.765760E+01  1.334652E+04  2.175877E+03
        78   4  3.290505E+02  2.804385E+05  4.219919E+02  7.647858E+01  2.865384E+03 -1.786078E+02
        78   5  1.439680E+02  2.803928E+05  5.783486E+02 -9.544428E+01  1.011687E+04 -4.662098E+02
        78   6  1.645291E+02  2.804384E+05  9.748787E+02  7.642447E+01  1.334771E+04 -7.544865E+02
        78   7 -4.937673E+04  7.799563E+04 -4.570109E+04  3.855757E+02  2.870095E+03 -2.241056E+04
        78   8 -4.709122E+04  7.876638E+04 -3.401013E+04  7.841852E+01  1.012012E+04 -1.304703E+04
        78   9 -4.627547E+04  7.795327E+04 -2.878008E+04  1.151807E+02  1.334890E+04 -3.683934E+03
        78  10  5.003212E+04  4.829200E+05  4.654333E+04 -2.327692E+02  1.299901E-09  1.451956E-09
        78  11  4.737692E+04  4.820593E+05  3.516558E+04 -2.694618E+02  3.679813E-09 -7.987182E-12
        78  12  4.660244E+04  4.829647E+05  3.072880E+04  3.763422E+01  9.266475E-10 -6.912196E-10
        78  13  3.290417E+02  2.804385E+05  4.219764E+02  7.647900E+01 -9.062745E-10  2.512138E-10
        78  14  1.438581E+02  2.803928E+05  5.781558E+02 -9.544048E+01  1.334339E-09 -4.948086E-10
        78  15  1.643376E+02  2.804383E+05  9.745427E+02  7.643258E+01  7.083042E-10  2.692086E-10
        78  16 -4.937688E+04  7.799509E+04 -4.570205E+04  3.856275E+02 -3.205204E-10 -1.751217E-09
        78  17 -4.709138E+04  7.876617E+04 -3.401064E+04  7.852486E+01 -6.707428E-10 -1.271422E-10
        78  18 -4.627567E+04  7.795321E+04 -2.878044E+04  1.152203E+02  1.309434E-09  7.550606E-10
        78  19  5.003226E+04  4.829205E+05  4.654426E+04 -2.327184E+02 -2.860652E+03 -2.206053E+04
        78  20  4.737707E+04  4.820595E+05  3.516605E+04 -2.693631E+02 -1.011361E+04 -1.211857E+04
        78  21  4.660263E+04  4.829648E+05  3.072915E+04  3.765760E+01 -1.334652E+04 -2.175877E+03
        78  22  3.290505E+02  2.804385E+05  4.219919E+02  7.647858E+01 -2.865384E+03  1.786078E+02
        78  23  1.439680E+02  2.803928E+05  5.783486E+02 -9.544428E+01 -1.011687E+04  4.662098E+02
        78  24  1.645291E+02  2.804384E+05  9.748787E+02  7.642447E+01 -1.334771E+04  7.544865E+02
        78  25 -4.937673E+04  7.799563E+04 -4.570109E+04  3.855757E+02 -2.870095E+03  2.241056E+04
        78  26 -4.709122E+04  7.876638E+04 -3.401013E+04  7.841852E+01 -1.012012E+04  1.304703E+04
        78  27 -4.627547E+04  7.795327E+04 -2.878008E+04  1.151807E+02 -1.334890E+04  3.683934E+03
        79   1  4.642174E+04  4.828119E+05  3.013650E+04 -9.259073E+01  1.388869E+04  1.632571E+03
        79   2  4.659962E+04  4.824759E+05  3.024449E+04  4.496831E+02  1.442731E+04 -2.071148E+03
        79   3  4.803288E+04  4.829377E+05  3.307703E+04  1.002155E+03  1.389746E+04 -5.775197E+03
        79   4  2.057318E+02  2.804965E+05  1.281935E+03  2.256298E+00  1.388985E+04 -9.411643E+02
        79   5  5.918746E+02  2.803199E+05  2.269821E+03 -2.632260E+00  1.442779E+04 -2.078515E+03
        79   6  1.788267E+03  2.804961E+05  4.201212E+03  2.677238E+00  1.389708E+04 -3.216190E+03
        79   7 -4.601213E+04  7.822237E+04 -2.757321E+04  9.707381E+01  1.389102E+04 -3.514098E+03
        79   8 -4.541767E+04  7.820538E+04 -2.570533E+04 -4.547909E+02  1.442828E+04 -2.085879E+03
        79   9 -4.445819E+04  7.809592E+04 -2.467518E+04 -9.964572E+02  1.389670E+04 -6.579807E+02
        79  10  4.642153E+04  4.828119E+05  3.013613E+04 -9.260899E+01  1.088270E-09 -3.467458E-09
        79  11  4.659939E+04  4.824758E+05  3.024409E+04  4.497072E+02  6.538517E-10 -2.124777E-09
        79  12  4.803266E+04  4.829376E+05  3.307661E+04  1.002219E+03  2.068556E-09  2.390280E-10
        79  13  2.055244E+02  2.804964E+05  1.281571E+03  2.266826E+00  1.631664E-09  2.434240E-10
        79  14  5.916499E+02  2.803198E+05  2.269422E+03 -2.608110E+00 -2.540637E-09 -6.229467E-10
        79  15  1.788057E+03  2.804961E+05  4.200830E+03  2.713231E+00 -6.055337E-10  4.256992E-10
        79  16 -4.601234E+04  7.822230E+04 -2.757359E+04  9.711313E+01 -5.254384E-11  2.966163E-09
        79  17 -4.541789E+04  7.820532E+04 -2.570573E+04 -4.547667E+02 -1.287826E-09  1.953469E-09
        79  18 -4.445840E+04  7.809587E+04 -2.467555E+04 -9.964498E+02 -3.787918E-10 -1.339444E-10
        79  19  4.642174E+04  4.828119E+05  3.013650E+04 -9.259073E+01 -1.388869E+04 -1.632571E+03
        79  20  4.659962E+04  4.824759E+05  3.024449E+04  4.496831E+02 -1.442731E+04  2.071148E+03
        79  21  4.803288E+04  4.829377E+05  3.307703E+04  1.002155E+03 -1.389746E+04  5.775197E+03
        79  22  2.057318E+02  2.804965E+05  1.281935E+03  2.256298E+00 -1.388985E+04  9.411643E+02
        79  23  5.918746E+02  2.803199E+05  2.269821E+03 -2.632260E+00 -1.442779E+04  2.078515E+03
        79  24  1.788267E+03  2.804961E+05  4.201212E+03  2.677238E+00 -1.389708E+04  3.216190E+03
        79  25 -4.601213E+04  7.822237E+04 -2.757321E+04  9.707381E+01 -1.389102E+04  3.514098E+03
        79  26 -4.541767E+04  7.820538E+04 -2.570533E+04 -4.547909E+02 -1.442828E+04  2.085879E+03
        79  27 -4.445819E+04  7.809592E+04 -2.467518E+04 -9.964572E+02 -1.389670E+04  6.579807E+02
        80   1  4.894481E+04  4.837397E+05  3.542099E+04  6.266909E+02  1.335991E+04 -6.865525E+03
        80   2  5.433747E+04  4.816760E+05  4.505794E+04  7.053584E+03  1.013626E+04 -2.184563E+04
        80   3  6.928832E+04  4.839525E+05  6.683251E+04  1.315845E+04  2.883172E+03 -3.682752E+04
        80   4  2.459701E+03  2.810093E+05  5.632344E+03 -7.156150E+01  1.335934E+04 -3.949018E+03
        80   5  7.031665E+03  2.796772E+05  1.040703E+04  9.233353E+01  1.013214E+04 -9.251680E+03
        80   6  1.948393E+04  2.810070E+05  2.060280E+04 -6.582140E+01  2.875203E+03 -1.455604E+04
        80   7 -4.402731E+04  7.832025E+04 -2.415699E+04 -7.695732E+02  1.335877E+04 -1.033423E+03
        80   8 -4.027605E+04  7.771901E+04 -2.424464E+04 -6.866579E+03  1.012774E+04  3.338302E+03
        80   9 -3.032238E+04  7.810101E+04 -2.562763E+04 -1.328573E+04  2.866285E+03  7.708232E+03
        80  10  4.894460E+04  4.837396E+05  3.542057E+04  6.267647E+02  3.595119E-09 -6.834667E-08
        80  11  5.433723E+04  4.816754E+05  4.505685E+04  7.053762E+03  1.005124E-09 -2.580573E-09
        80  12  6.928794E+04  4.839511E+05  6.682995E+04  1.315854E+04  7.588893E-10  6.453884E-08
        80  13  2.459506E+03  2.810092E+05  5.631979E+03 -7.151902E+01  2.251814E-10  3.717958E-10
        80  14  7.031532E+03  2.796771E+05  1.040668E+04  9.240902E+01  3.083686E-09 -8.647989E-10
        80  15  1.948386E+04  2.810067E+05  2.060239E+04 -6.578770E+01 -9.010666E-12  4.909092E-10
        80  16 -4.402750E+04  7.832020E+04 -2.415733E+04 -7.695621E+02 -1.306221E-09  6.773531E-08
        80  17 -4.027616E+04  7.771897E+04 -2.424485E+04 -6.866606E+03  1.177129E-09  2.197008E-09
        80  18 -3.032241E+04  7.810094E+04 -2.562775E+04 -1.328575E+04  4.269060E-10 -6.435745E-08
        80  19  4.894481E+04  4.837397E+05  3.542099E+04  6.266909E+02 -1.335991E+04  6.865525E+03
        80  20  5.433747E+04  4.816760E+05  4.505794E+04  7.053584E+03 -1.013626E+04  2.184563E+04
        80  21  6.928832E+04  4.839525E+05  6.683251E+04  1.315845E+04 -2.883172E+03  3.682752E+04
        80  22  2.459701E+03  2.810093E+05  5.632344E+03 -7.156150E+01 -1.335934E+04  3.949018E+03
        80  23  7.031665E+03  2.796772E+05  1.040703E+04  9.233353E+01 -1.013214E+04  9.251680E+03
        80  24  1.948393E+04  2.810070E+05  2.060280E+04 -6.582140E+01 -2.875203E+03  1.455604E+04
        80  25 -4.402731E+04  7.832025E+04 -2.415699E+04 -7.695732E+02 -1.335877E+04  1.033423E+03
        80  26 -4.027605E+04  7.771901E+04 -2.424464E+04 -6.866579E+03 -1.012774E+04 -3.338302E+03
        80  27 -3.032238E+04  7.810101E+04 -2.562763E+04 -1.328573E+04 -2.866285E+03 -7.708232E+03
        81   1  1.315171E+05  2.534816E+05  3.377403E+05  2.751625E+03  2.427906E+05  6.017719E+02
        81   2  7.568239E+04 -8.406819E+04  1.331818E+05  2.093557E+03  1.598623E+05  3.517659E+02
        81   3  1.320714E+05 -2.649837E+04  8.194389E+04 -3.368217E+03  7.693307E+04  1.246950E+02
        81   4  2.048770E+05  2.717905E+05  3.560684E+05 -1.689073E+03  2.428086E+05  6.000271E+02
        81   5  1.487707E+05 -6.580200E+04  1.514477E+05  1.022921E+03  1.598722E+05  3.514835E+02
        81   6  2.048773E+05 -8.298009E+03  1.001403E+05 -1.069041E+03  7.693498E+04  1.249771E+02
        81   7  2.782418E+05  2.900991E+05  3.743961E+05 -6.130299E+03  2.428265E+05  5.982823E+02
        81   8  2.218638E+05 -4.753621E+04  1.697132E+05 -4.784277E+01  1.598821E+05  3.512012E+02
        81   9  2.776880E+05  9.901972E+03  1.183364E+05  1.230405E+03  7.693688E+04  1.252592E+02
        81  10  1.314538E+05  2.534658E+05  3.376295E+05  2.751508E+03 -1.425770E-09 -1.657904E-09
        81  11  7.565495E+04 -8.407505E+04  1.331338E+05  2.093511E+03 -3.630005E-10  1.917649E-09
        81  12  1.320650E+05 -2.649996E+04  8.193277E+04 -3.368225E+03 -3.273993E-10 -1.983157E-10
        81  13  2.048137E+05  2.717747E+05  3.559576E+05 -1.689191E+03 -2.909195E-11 -3.634006E-10
        81  14  1.487432E+05 -6.580886E+04  1.513997E+05  1.022876E+03 -1.061391E-09  7.597915E-10
        81  15  2.048709E+05 -8.299597E+03  1.001292E+05 -1.069048E+03 -3.616672E-10  1.893693E-10
        81  16  2.781785E+05  2.900833E+05  3.742854E+05 -6.130416E+03 -1.381980E-09  7.922553E-10
        81  17  2.218364E+05 -4.754307E+04  1.696652E+05 -4.788798E+01  1.066608E-09  5.288044E-10
        81  18  2.776816E+05  9.900384E+03  1.183253E+05  1.230397E+03  1.752182E-09  1.172676E-09
        81  19  1.315171E+05  2.534816E+05  3.377403E+05  2.751625E+03 -2.427906E+05 -6.017719E+02
        81  20  7.568239E+04 -8.406819E+04  1.331818E+05  2.093557E+03 -1.598623E+05 -3.517659E+02
        81  21  1.320714E+05 -2.649837E+04  8.194389E+04 -3.368217E+03 -7.693307E+04 -1.246950E+02
        81  22  2.048770E+05  2.717905E+05  3.560684E+05 -1.689073E+03 -2.428086E+05 -6.000271E+02
        81  23  1.487707E+05 -6.580200E+04  1.514477E+05  1.022921E+03 -1.598722E+05 -3.514835E+02
        81  24  2.048773E+05 -8.298009E+03  1.001403E+05 -1.069041E+03 -7.693498E+04 -1.249771E+02
        81  25  2.782418E+05  2.900991E+05  3.743961E+05 -6.130299E+03 -2.428265E+05 -5.982823E+02
        81  26  2.218638E+05 -4.753621E+04  1.697132E+05 -4.784277E+01 -1.598821E+05 -3.512012E+02
        81  27  2.776880E+05  9.901972E+03  1.183364E+05  1.230405E+03 -7.693688E+04 -1.252592E+02
        82   1  1.598866E+05  3.655704E+04  7.681390E+04  2.179849E+02  6.025011E+04  5.463418E+01
        82   2  1.507366E+05 -1.633762E+04  3.320167E+04  3.355118E+02  3.960271E+04  2.776488E+01
        82   3  1.600503E+05 -7.265897E+03  1.858013E+04 -8.182706E+02  1.895517E+04  1.843314E+01
        82   4  1.840392E+05  4.259365E+04  8.284990E+04 -4.665830E+02  6.025090E+04  5.456757E+01
        82   5  1.748093E+05 -1.032053E+04  3.921811E+04  1.703293E+02  3.960322E+04  2.775440E+01
        82   6  1.840424E+05 -1.269565E+03  2.457642E+04 -4.640587E+02  1.895540E+04  1.844405E+01
        82   7  2.081923E+05  4.863023E+04  8.888585E+04 -1.151178E+03  6.025170E+04  5.450096E+01
        82   8  1.988825E+05 -4.303479E+03  4.523450E+04  5.140384E+00  3.960373E+04  2.774393E+01
        82   9  2.080350E+05  4.726724E+03  3.057268E+04 -1.098330E+02  1.895563E+04  1.845496E+01
        82  10  1.598827E+05  3.655607E+04  7.680708E+04  2.179823E+02 -1.888643E-12  8.826414E-11
        82  11  1.507350E+05 -1.633804E+04  3.319872E+04  3.355109E+02  7.360175E-10  1.100925E-09
        82  12  1.600499E+05 -7.265994E+03  1.857945E+04 -8.182709E+02 -2.340605E-10 -5.306037E-09
        82  13  1.840353E+05  4.259268E+04  8.284308E+04 -4.665857E+02 -3.052082E-11 -1.449784E-10
        82  14  1.748076E+05 -1.032095E+04  3.921516E+04  1.703284E+02 -2.627496E-09 -4.265635E-10
        82  15  1.840420E+05 -1.269662E+03  2.457575E+04 -4.640589E+02 -4.169794E-10  3.353957E-10
        82  16  2.081884E+05  4.862925E+04  8.887903E+04 -1.151180E+03 -2.899483E-10 -2.314708E-10
        82  17  1.988808E+05 -4.303900E+03  4.523156E+04  5.139498E+00  8.217274E-10 -1.659249E-09
        82  18  2.080347E+05  4.726627E+03  3.057200E+04 -1.098333E+02 -1.629448E-09  5.959774E-09
        82  19  1.598866E+05  3.655704E+04  7.681390E+04  2.179849E+02 -6.025011E+04 -5.463418E+01
        82  20  1.507366E+05 -1.633762E+04  3.320167E+04  3.355118E+02 -3.960271E+04 -2.776488E+01
        82  21  1.600503E+05 -7.265897E+03  1.858013E+04 -8.182706E+02 -1.895517E+04 -1.843314E+01
        82  22  1.840392E+05  4.259365E+04  8.284990E+04 -4.665830E+02 -6.025090E+04 -5.456757E+01
        82  23  1.748093E+05 -1.032053E+04  3.921811E+04  1.703293E+02 -3.960322E+04 -2.775440E+01
        82  24  1.840424E+05 -1.269565E+03  2.457642E+04 -4.640587E+02 -1.895540E+04 -1.844405E+01
        82  25  2.081923E+05  4.863023E+04  8.888585E+04 -1.151178E+03 -6.025170E+04 -5.450096E+01
        82  26  1.988825E+05 -4.303479E+03  4.523450E+04  5.140384E+00 -3.960373E+04 -2.774393E+01
        82  27  2.080350E+05  4.726724E+03  3.057268E+04 -1.098330E+02 -1.895563E+04 -1.845496E+01
        83   1  1.730442E+05  4.750212E+03  1.783015E+04 -1.677352E+02  1.492677E+04  1.226023E+01
        83   2  1.715101E+05 -3.504837E+03  8.157537E+03 -3.869143E+01  9.764240E+03  3.019897E+00
        83   3  1.730991E+05 -2.064149E+03  4.274786E+03 -3.294111E+02  4.601741E+03  4.121908E+00
        83   4  1.806328E+05  6.647074E+03  1.972660E+04 -2.711284E+02  1.492647E+04  1.225801E+01
        83   5  1.790717E+05 -1.614786E+03  1.004742E+04 -6.346966E+01  9.764132E+03  3.019646E+00
        83   6  1.806337E+05 -1.810071E+02  6.157917E+03 -2.755738E+02  4.601826E+03  4.122264E+00
        83   7  1.882214E+05  8.543932E+03  2.162304E+04 -3.745229E+02  1.492617E+04  1.225579E+01
        83   8  1.866334E+05  2.752606E+02  1.193729E+04 -8.824818E+01  9.764024E+03  3.019394E+00
        83   9  1.881683E+05  1.702130E+03  8.041044E+03 -2.217360E+02  4.601911E+03  4.122621E+00
        83  10  1.730440E+05  4.750152E+03  1.782974E+04 -1.677353E+02 -1.210571E-09  1.553247E-09
        83  11  1.715100E+05 -3.504863E+03  8.157358E+03 -3.869146E+01 -2.922224E-09  7.214210E-09
        83  12  1.730990E+05 -2.064154E+03  4.274746E+03 -3.294111E+02  7.734311E-09 -3.429516E-08
        83  13  1.806326E+05  6.647014E+03  1.972618E+04 -2.711285E+02  1.078176E-09  1.736775E-10
        83  14  1.790716E+05 -1.614812E+03  1.004724E+04 -6.346968E+01 -5.070914E-11  1.609046E-10
        83  15  1.806336E+05 -1.810128E+02  6.157877E+03 -2.755739E+02  5.140783E-11  3.213380E-10
        83  16  1.882212E+05  8.543872E+03  2.162263E+04 -3.745230E+02  8.561630E-10 -1.607149E-09
        83  17  1.866333E+05  2.752350E+02  1.193711E+04 -8.824820E+01  5.169145E-10 -9.346969E-09
        83  18  1.881683E+05  1.702124E+03  8.041004E+03 -2.217360E+02 -8.300368E-09  3.245226E-08
        83  19  1.730442E+05  4.750212E+03  1.783015E+04 -1.677352E+02 -1.492677E+04 -1.226023E+01
        83  20  1.715101E+05 -3.504837E+03  8.157537E+03 -3.869143E+01 -9.764240E+03 -3.019897E+00
        83  21  1.730991E+05 -2.064149E+03  4.274786E+03 -3.294111E+02 -4.601741E+03 -4.121908E+00
        83  22  1.806328E+05  6.647074E+03  1.972660E+04 -2.711284E+02 -1.492647E+04 -1.225801E+01
        83  23  1.790717E+05 -1.614786E+03  1.004742E+04 -6.346966E+01 -9.764132E+03 -3.019646E+00
        83  24  1.806337E+05 -1.810071E+02  6.157917E+03 -2.755738E+02 -4.601826E+03 -4.122264E+00
        83  25  1.882214E+05  8.543932E+03  2.162304E+04 -3.745229E+02 -1.492617E+04 -1.225579E+01
        83  26  1.866334E+05  2.752606E+02  1.193729E+04 -8.824818E+01 -9.764024E+03 -3.019394E+00
        83  27  1.881683E+05  1.702130E+03  8.041044E+03 -2.217360E+02 -4.601911E+03 -4.122621E+00
        84   1  1.785246E+05  6.425534E+02  4.509535E+03 -2.060345E+02  3.598276E+03  3.971943E+00
        84   2  1.782461E+05 -6.480785E+02  2.384543E+03 -1.261071E+02  2.198569E+03  2.101883E-02
        84   3  1.785486E+05 -3.461343E+02  1.568902E+03 -2.311585E+02  7.988876E+02 -1.358746E+00
        84   4  1.800687E+05  1.028491E+03  4.895358E+03 -2.212120E+02  3.598127E+03  3.971990E+00
        84   5  1.797782E+05 -2.651217E+02  2.767471E+03 -1.291543E+02  2.198479E+03  2.109273E-02
        84   6  1.800688E+05  3.382900E+01  1.948890E+03 -2.220755E+02  7.988562E+02 -1.358703E+00
        84   7  1.816127E+05  1.414429E+03  5.281181E+03 -2.363895E+02  3.597978E+03  3.972036E+00
        84   8  1.813104E+05  1.178350E+02  3.150398E+03 -1.322015E+02  2.198389E+03  2.116438E-02
        84   9  1.815891E+05  4.137921E+02  2.328879E+03 -2.129925E+02  7.988248E+02 -1.358663E+00
        84  10  1.785246E+05  6.425502E+02  4.509511E+03 -2.060354E+02 -1.782395E-06 -2.247931E-07
        84  11  1.782461E+05 -6.480788E+02  2.384534E+03 -1.261110E+02 -8.056180E-06 -6.812887E-07
        84  12  1.785486E+05 -3.461327E+02  1.568901E+03 -2.311654E+02 -1.437732E-05 -9.418682E-07
        84  13  1.800686E+05  1.028488E+03  4.895334E+03 -2.212120E+02 -4.577708E-06  1.436025E-07
        84  14  1.797782E+05 -2.651229E+02  2.767461E+03 -1.291543E+02 -2.030793E-05  6.415277E-07
        84  15  1.800688E+05  3.382882E+01  1.948889E+03 -2.220755E+02 -3.604228E-05  1.138565E-06
        84  16  1.816127E+05  1.414426E+03  5.281157E+03 -2.363887E+02 -1.881485E-06  1.732991E-09
        84  17  1.813104E+05  1.178328E+02  3.150388E+03 -1.321976E+02 -8.193737E-06 -3.019020E-07
        84  18  1.815891E+05  4.137902E+02  2.328877E+03 -2.129856E+02 -1.445935E-05 -7.997732E-07
        84  19  1.785246E+05  6.425539E+02  4.509535E+03 -2.060362E+02 -3.598276E+03 -3.971944E+00
        84  20  1.782461E+05 -6.480765E+02  2.384544E+03 -1.261150E+02 -2.198569E+03 -2.102017E-02
        84  21  1.785486E+05 -3.461308E+02  1.568902E+03 -2.311723E+02 -7.988877E+02  1.358745E+00
        84  22  1.800687E+05  1.028491E+03  4.895358E+03 -2.212120E+02 -3.598127E+03 -3.971990E+00
        84  23  1.797782E+05 -2.651216E+02  2.767470E+03 -1.291543E+02 -2.198479E+03 -2.109145E-02
        84  24  1.800688E+05  3.382898E+01  1.948890E+03 -2.220755E+02 -7.988563E+02  1.358705E+00
        84  25  1.816127E+05  1.414429E+03  5.281181E+03 -2.363878E+02 -3.597978E+03 -3.972036E+00
        84  26  1.813104E+05  1.178332E+02  3.150397E+03 -1.321938E+02 -2.198389E+03 -2.116499E-02
        84  27  1.815891E+05  4.137887E+02  2.328878E+03 -2.129787E+02 -7.988249E+02  1.358661E+00
        85   1  1.823610E+05  7.350963E+02  2.333267E+03 -2.230452E+02  4.636522E+02 -1.206585E+00
        85   2  1.822180E+05  4.555199E+02  2.214801E+03 -1.253819E+02 -3.549970E+02 -2.694821E+00
        85   3  1.823876E+05  9.910344E+02  2.833428E+03 -2.348503E+02 -1.173662E+03 -8.373273E+00
        85   4  1.800092E+05  1.472784E+02  1.745452E+03 -2.267425E+02  4.636478E+02 -1.206583E+00
        85   5  1.798528E+05 -1.356336E+02  1.623689E+03 -1.230756E+02 -3.550993E+02 -2.694732E+00
        85   6  1.800091E+05  3.965640E+02  2.239088E+03 -2.265405E+02 -1.173862E+03 -8.373119E+00
        85   7  1.776574E+05 -4.405399E+02  1.157636E+03 -2.304397E+02  4.636434E+02 -1.206585E+00
        85   8  1.774877E+05 -7.267875E+02  1.032576E+03 -1.207693E+02 -3.552016E+02 -2.694644E+00
        85   9  1.776307E+05 -1.979068E+02  1.644747E+03 -2.182307E+02 -1.174062E+03 -8.372965E+00
        85  10  1.823610E+05  7.350979E+02  2.333267E+03 -2.230522E+02 -1.445946E-05 -7.985792E-07
        85  11  1.822180E+05  4.555208E+02  2.214801E+03 -1.253858E+02 -8.197013E-06 -3.000886E-07
        85  12  1.823876E+05  9.910342E+02  2.833425E+03 -2.348512E+02 -1.879192E-06  2.883684E-10
        85  13  1.800092E+05  1.472783E+02  1.745451E+03 -2.267425E+02 -3.604238E-05  1.139148E-06
        85  14  1.798528E+05 -1.356337E+02  1.623688E+03 -1.230756E+02 -2.030727E-05  6.406620E-07
        85  15  1.800091E+05  3.965636E+02  2.239085E+03 -2.265405E+02 -4.577634E-06  1.436974E-07
        85  16  1.776574E+05 -4.405417E+02  1.157635E+03 -2.304328E+02 -1.437705E-05 -9.412767E-07
        85  17  1.774877E+05 -7.267886E+02  1.032575E+03 -1.207654E+02 -8.053387E-06 -6.815237E-07
        85  18  1.776307E+05 -1.979074E+02  1.644745E+03 -2.182298E+02 -1.781198E-06 -2.247565E-07
        85  19  1.823610E+05  7.350996E+02  2.333268E+03 -2.230591E+02 -4.636522E+02  1.206583E+00
        85  20  1.822180E+05  4.555217E+02  2.214802E+03 -1.253897E+02  3.549970E+02  2.694820E+00
        85  21  1.823876E+05  9.910348E+02  2.833428E+03 -2.348521E+02  1.173662E+03  8.373273E+00
        85  22  1.800092E+05  1.472784E+02  1.745452E+03 -2.267425E+02 -4.636478E+02  1.206585E+00
        85  23  1.798528E+05 -1.356337E+02  1.623689E+03 -1.230756E+02  3.550993E+02  2.694733E+00
        85  24  1.800091E+05  3.965640E+02  2.239088E+03 -2.265405E+02  1.173862E+03  8.373119E+00
        85  25  1.776574E+05 -4.405434E+02  1.157635E+03 -2.304259E+02 -4.636434E+02  1.206583E+00
        85  26  1.774877E+05 -7.267896E+02  1.032575E+03 -1.207615E+02  3.552016E+02  2.694643E+00
        85  27  1.776307E+05 -1.979073E+02  1.644747E+03 -2.182289E+02  1.174062E+03  8.372965E+00
        86   1  1.897461E+05  2.331637E+03  5.046960E+03 -2.790819E+02 -1.619570E+03 -9.143367E+00
        86   2  1.891439E+05  1.753829E+03  6.478838E+03 -4.963163E+01 -3.718639E+03 -1.038218E+01
        86   3  1.898120E+05  4.988626E+03  1.023896E+04 -3.377528E+02 -5.817718E+03 -2.421995E+01
        86   4  1.802220E+05 -4.881578E+01  2.666609E+03 -2.962517E+02 -1.619472E+03 -9.143396E+00
        86   5  1.795866E+05 -6.349666E+02  4.090223E+03 -3.671859E+01 -3.718815E+03 -1.038212E+01
        86   6  1.802217E+05  2.591567E+03  7.842298E+03 -2.947574E+02 -5.818168E+03 -2.422009E+01
        86   7  1.706980E+05 -2.429275E+03  2.862505E+02 -3.134213E+02 -1.619374E+03 -9.143425E+00
        86   8  1.700295E+05 -3.023769E+03  1.701600E+03 -2.380574E+01 -3.718991E+03 -1.038206E+01
        86   9  1.706314E+05  1.945003E+02  5.445627E+03 -2.517626E+02 -5.818618E+03 -2.422023E+01
        86  10  1.897460E+05  2.331636E+03  5.046955E+03 -2.790819E+02 -7.439570E-09  3.160541E-08
        86  11  1.891439E+05  1.753825E+03  6.478812E+03 -4.963167E+01  2.184741E-09 -7.830958E-09
        86  12  1.898120E+05  4.988617E+03  1.023890E+04 -3.377529E+02  1.177136E-09 -1.170687E-09
        86  13  1.802220E+05 -4.881649E+01  2.666604E+03 -2.962517E+02 -3.934475E-11 -9.418362E-10
        86  14  1.795866E+05 -6.349703E+02  4.090197E+03 -3.671862E+01  1.109274E-09 -3.411918E-10
        86  15  1.802216E+05  2.591558E+03  7.842235E+03 -2.947575E+02  1.367318E-09 -3.688725E-10
        86  16  1.706980E+05 -2.429276E+03  2.862455E+02 -3.134213E+02  8.459334E-09 -3.402453E-08
        86  17  1.700295E+05 -3.023773E+03  1.701574E+03 -2.380577E+01  4.864434E-10  8.663872E-09
        86  18  1.706314E+05  1.944912E+02  5.445563E+03 -2.517627E+02 -8.433941E-10  2.026799E-09
        86  19  1.897461E+05  2.331637E+03  5.046960E+03 -2.790819E+02  1.619570E+03  9.143367E+00
        86  20  1.891439E+05  1.753829E+03  6.478838E+03 -4.963163E+01  3.718639E+03  1.038218E+01
        86  21  1.898120E+05  4.988626E+03  1.023896E+04 -3.377528E+02  5.817718E+03  2.421995E+01
        86  22  1.802220E+05 -4.881580E+01  2.666609E+03 -2.962517E+02  1.619472E+03  9.143396E+00
        86  23  1.795866E+05 -6.349666E+02  4.090223E+03 -3.671859E+01  3.718815E+03  1.038212E+01
        86  24  1.802217E+05  2.591567E+03  7.842298E+03 -2.947574E+02  5.818168E+03  2.422009E+01
        86  25  1.706980E+05 -2.429275E+03  2.862505E+02 -3.134213E+02  1.619374E+03  9.143425E+00
        86  26  1.700295E+05 -3.023769E+03  1.701600E+03 -2.380574E+01  3.718991E+03  1.038206E+01
        86  27  1.706314E+05  1.945003E+02  5.445627E+03 -2.517626E+02  5.818618E+03  2.422023E+01
        87   1  2.115652E+05  7.002416E+03  1.723852E+04 -3.951700E+02 -7.420697E+03 -3.257787E+01
        87   2  2.078732E+05  3.459172E+03  2.297391E+04  1.889805E+02 -1.556683E+04 -4.519007E+01
        87   3  2.117621E+05  2.422577E+04  4.017789E+04 -7.937074E+02 -2.371287E+04 -7.070697E+01
        87   4  1.816241E+05 -4.809573E+02  9.755506E+03 -5.278473E+02 -7.420680E+03 -3.257628E+01
        87   5  1.778329E+05 -4.049176E+03  1.546619E+04  2.528481E+02 -1.556678E+04 -4.519179E+01
        87   6  1.816228E+05  1.669306E+04  3.264584E+04 -5.333019E+02 -2.371278E+04 -7.071737E+01
        87   7  1.516838E+05 -7.964398E+03  2.272428E+03 -6.605181E+02 -7.420662E+03 -3.257470E+01
        87   8  1.477934E+05 -1.155759E+04  7.958414E+03  3.167127E+02 -1.556673E+04 -4.519351E+01
        87   9  1.514843E+05  9.160285E+03  2.511372E+04 -2.729091E+02 -2.371269E+04 -7.072776E+01
        87  10  2.115651E+05  7.002401E+03  1.723841E+04 -3.951702E+02 -4.862432E-10  5.850998E-09
        87  11  2.078730E+05  3.459107E+03  2.297345E+04  1.889799E+02 -1.842861E-09 -1.408236E-09
        87  12  2.117615E+05  2.422562E+04  4.017684E+04 -7.937088E+02 -1.008263E-09 -4.077125E-10
        87  13  1.816240E+05 -4.809721E+02  9.755403E+03 -5.278475E+02  3.608931E-14  6.257364E-10
        87  14  1.778326E+05 -4.049241E+03  1.546574E+04  2.528476E+02  1.013616E-09 -5.895431E-11
        87  15  1.816222E+05  1.669291E+04  3.264478E+04 -5.333033E+02  1.361736E-09  4.634654E-11
        87  16  1.516838E+05 -7.964413E+03  2.272324E+03 -6.605183E+02  1.121941E-09 -5.544739E-09
        87  17  1.477931E+05 -1.155766E+04  7.957959E+03  3.167121E+02  2.968105E-09  7.352387E-10
        87  18  1.514837E+05  9.160134E+03  2.511266E+04 -2.729105E+02  1.597545E-09  3.063825E-10
        87  19  2.115652E+05  7.002416E+03  1.723852E+04 -3.951700E+02  7.420697E+03  3.257787E+01
        87  20  2.078732E+05  3.459172E+03  2.297391E+04  1.889805E+02  1.556683E+04  4.519007E+01
        87  21  2.117621E+05  2.422577E+04  4.017789E+04 -7.937074E+02  2.371287E+04  7.070697E+01
        87  22  1.816241E+05 -4.809573E+02  9.755506E+03 -5.278473E+02  7.420680E+03  3.257628E+01
        87  23  1.778329E+05 -4.049176E+03  1.546619E+04  2.528481E+02  1.556678E+04  4.519179E+01
        87  24  1.816228E+05  1.669306E+04  3.264584E+04 -5.333019E+02  2.371278E+04  7.071737E+01
        87  25  1.516838E+05 -7.964398E+03  2.272428E+03 -6.605181E+02  7.420662E+03  3.257470E+01
        87  26  1.477934E+05 -1.155759E+04  7.958414E+03  3.167127E+02  1.556673E+04  4.519351E+01
        87  27  1.514843E+05  9.160285E+03  2.511372E+04 -2.729091E+02  2.371269E+04  7.072776E+01
        88   1  2.819953E+05  1.971945E+04  6.249621E+04 -3.038805E+02 -3.032147E+04 -1.393434E+02
        88   2  2.585893E+05 -3.058602E+03  8.241318E+04  8.926438E+02 -6.297286E+04 -2.926763E+02
        88   3  2.826367E+05  1.303165E+05  1.634559E+05 -3.168448E+03 -9.562477E+04 -3.576783E+02
        88   4  1.904836E+05 -3.153865E+03  3.962618E+04 -1.250960E+03 -3.032252E+04 -1.393017E+02
        88   5  1.667534E+05 -2.600989E+04  5.946332E+04  1.210631E+03 -6.296756E+04 -2.927134E+02
        88   6  1.904814E+05  1.072981E+05  1.404281E+05 -1.585393E+03 -9.561311E+04 -3.579194E+02
        88   7  9.897944E+04 -2.602780E+04  1.675552E+04 -2.197902E+03 -3.032356E+04 -1.392599E+02
        88   8  7.492521E+04 -4.896182E+04  3.651283E+04  1.528568E+03 -6.296227E+04 -2.927504E+02
        88   9  9.833385E+04  8.427901E+04  1.173997E+05 -2.578152E+00 -9.560146E+04 -3.581606E+02
        88  10  2.819943E+05  1.971920E+04  6.249448E+04 -3.038839E+02 -5.632005E-11  8.686509E-10
        88  11  2.585850E+05 -3.059666E+03  8.240573E+04  8.926289E+02  3.674944E-10 -9.000702E-10
        88  12  2.826269E+05  1.303140E+05  1.634387E+05 -3.168476E+03 -7.805576E-11 -1.672047E-09
        88  13  1.904826E+05 -3.154112E+03  3.962445E+04 -1.250964E+03  2.883439E-11  4.494320E-10
        88  14  1.667492E+05 -2.601096E+04  5.945587E+04  1.210616E+03  8.620672E-11  1.724406E-09
        88  15  1.904716E+05  1.072956E+05  1.404110E+05 -1.585420E+03 -1.706821E-10 -1.038364E-09
        88  16  9.897846E+04 -2.602805E+04  1.675379E+04 -2.197906E+03  9.328956E-10 -1.234164E-09
        88  17  7.492096E+04 -4.896288E+04  3.650538E+04  1.528553E+03  8.601556E-12 -2.981580E-10
        88  18  9.832404E+04  8.427655E+04  1.173825E+05 -2.605722E+00  1.418183E-09 -1.597653E-09
        88  19  2.819953E+05  1.971945E+04  6.249621E+04 -3.038805E+02  3.032147E+04  1.393434E+02
        88  20  2.585893E+05 -3.058602E+03  8.241318E+04  8.926438E+02  6.297286E+04  2.926763E+02
        88  21  2.826367E+05  1.303165E+05  1.634559E+05 -3.168448E+03  9.562477E+04  3.576783E+02
        88  22  1.904836E+05 -3.153865E+03  3.962618E+04 -1.250960E+03  3.032252E+04  1.393017E+02
        88  23  1.667534E+05 -2.600989E+04  5.946332E+04  1.210631E+03  6.296756E+04  2.927134E+02
        88  24  1.904814E+05  1.072981E+05  1.404281E+05 -1.585393E+03  9.561311E+04  3.579194E+02
        88  25  9.897944E+04 -2.602780E+04  1.675552E+04 -2.197902E+03  3.032356E+04  1.392599E+02
        88  26  7.492521E+04 -4.896182E+04  3.651283E+04  1.528568E+03  6.296227E+04  2.927504E+02
        88  27  9.833385E+04  8.427901E+04  1.173997E+05 -2.578152E+00  9.560146E+04  3.581606E+02
        89   1 -4.825118E+06 -1.431649E+06 -8.570724E+05 -1.707895E+06 -4.148240E+05 -1.473426E+05
        89   2 -4.705166E+06 -8.093111E+05 -4.677572E+05 -1.768837E+06 -2.691639E+05 -7.397572E+04
        89   3 -4.798666E+06 -8.057754E+05 -3.537155E+05 -1.708776E+06 -1.165876E+05 -1.890310E+04
        89   4 -4.104468E+06 -1.033444E+06 -6.346928E+05 -1.384072E+06 -4.044443E+05 -1.435279E+05
        89   5 -3.965329E+06 -4.947721E+05 -2.632395E+05 -1.531209E+06 -2.664027E+05 -7.295572E+04
        89   6 -4.037857E+06 -5.729815E+05 -1.607387E+05 -1.557424E+06 -1.214458E+05 -2.072102E+04
        89   7 -3.383271E+06 -6.350030E+05 -4.123629E+05 -1.059849E+06 -3.940510E+05 -1.397027E+05
        89   8 -3.224956E+06 -1.801580E+05 -5.877276E+04 -1.293309E+06 -2.636377E+05 -7.193387E+04
        89   9 -3.276484E+06 -3.401952E+05  3.219382E+04 -1.405926E+06 -1.263104E+05 -2.254032E+04
        89  10 -4.825310E+06 -1.431719E+06 -8.574398E+05 -1.707944E+06  2.919833E-10 -2.353026E-10
        89  11 -4.705245E+06 -8.093367E+05 -4.679049E+05 -1.768853E+06  1.356512E-09  1.528778E-10
        89  12 -4.798681E+06 -8.057795E+05 -3.537419E+05 -1.708778E+06 -2.192121E-09  7.659097E-10
        89  13 -4.104651E+06 -1.033511E+06 -6.350415E+05 -1.384119E+06  8.884179E-10 -2.136632E-10
        89  14 -3.965407E+06 -4.947971E+05 -2.633839E+05 -1.531225E+06  2.596571E-09 -1.347526E-10
        89  15 -4.037873E+06 -5.729860E+05 -1.607674E+05 -1.557427E+06 -2.817034E-10  2.097289E-10
        89  16 -3.383444E+06 -6.350660E+05 -4.126933E+05 -1.059894E+06  7.035627E-10  6.064913E-10
        89  17 -3.225033E+06 -1.801824E+05 -5.891394E+04 -1.293325E+06  1.515511E-10  6.955670E-10
        89  18 -3.276501E+06 -3.402001E+05  3.216270E+04 -1.405928E+06 -8.213170E-10  4.401129E-10
        89  19 -4.825118E+06 -1.431649E+06 -8.570724E+05 -1.707895E+06  4.148240E+05  1.473426E+05
        89  20 -4.705166E+06 -8.093111E+05 -4.677572E+05 -1.768837E+06  2.691639E+05  7.397572E+04
        89  21 -4.798666E+06 -8.057754E+05 -3.537155E+05 -1.708776E+06  1.165876E+05  1.890310E+04
        89  22 -4.104468E+06 -1.033444E+06 -6.346928E+05 -1.384072E+06  4.044443E+05  1.435279E+05
        89  23 -3.965329E+06 -4.947721E+05 -2.632395E+05 -1.531209E+06  2.664027E+05  7.295572E+04
        89  24 -4.037857E+06 -5.729815E+05 -1.607387E+05 -1.557424E+06  1.214458E+05  2.072102E+04
        89  25 -3.383271E+06 -6.350030E+05 -4.123629E+05 -1.059849E+06  3.940510E+05  1.397027E+05
        89  26 -3.224956E+06 -1.801580E+05 -5.877276E+04 -1.293309E+06  2.636377E+05  7.193387E+04
        89  27 -3.276484E+06 -3.401952E+05  3.219382E+04 -1.405926E+06  1.263104E+05  2.254032E+04
        90   1 -4.636529E+06 -8.918015E+05 -3.004657E+05 -1.704611E+06 -9.691465E+04 -1.595821E+04
        90   2 -4.583067E+06 -7.794770E+05 -2.144640E+05 -1.675369E+06 -6.342781E+04 -4.322679E+03
        90   3 -4.519845E+06 -7.763076E+05 -1.721318E+05 -1.674162E+06 -2.922127E+04  5.401574E+03
        90   4 -4.014883E+06 -6.435440E+05 -1.311613E+05 -1.521473E+06 -9.692805E+04 -1.596725E+04
        90   5 -4.015959E+06 -5.620967E+05 -6.206905E+04 -1.517550E+06 -6.422053E+04 -4.621980E+03
        90   6 -4.007095E+06 -5.896062E+05 -3.599026E+04 -1.541665E+06 -3.079690E+04  4.810268E+03
        90   7 -3.392859E+06 -3.952502E+05  3.810851E+04 -1.338164E+06 -9.694142E+04 -1.597627E+04
        90   8 -3.448537E+06 -3.446942E+05  9.029750E+04 -1.359598E+06 -6.501403E+04 -4.921582E+03
        90   9 -3.494091E+06 -4.028938E+05  1.001285E+05 -1.409071E+06 -3.237396E+04  4.218468E+03
        90  10 -4.636539E+06 -8.918043E+05 -3.004840E+05 -1.704612E+06 -2.911522E-09  2.435750E-10
        90  11 -4.583071E+06 -7.794781E+05 -2.144716E+05 -1.675369E+06 -3.563726E-10 -9.122142E-10
        90  12 -4.519846E+06 -7.763079E+05 -1.721334E+05 -1.674162E+06  1.674915E-10 -1.119529E-09
        90  13 -4.014893E+06 -6.435468E+05 -1.311795E+05 -1.521475E+06  7.087892E-10 -9.748905E-11
        90  14 -4.015963E+06 -5.620978E+05 -6.207690E+04 -1.517550E+06 -1.060064E-09 -3.489235E-10
        90  15 -4.007096E+06 -5.896065E+05 -3.599209E+04 -1.541665E+06 -1.666630E-09 -3.514831E-10
        90  16 -3.392869E+06 -3.952530E+05  3.809026E+04 -1.338165E+06  4.272659E-10 -6.895088E-10
        90  17 -3.448542E+06 -3.446954E+05  9.028947E+04 -1.359598E+06 -1.455119E-09 -1.135614E-10
        90  18 -3.494092E+06 -4.028941E+05  1.001265E+05 -1.409071E+06 -1.496569E-09 -2.957046E-10
        90  19 -4.636529E+06 -8.918015E+05 -3.004657E+05 -1.704611E+06  9.691465E+04  1.595821E+04
        90  20 -4.583067E+06 -7.794770E+05 -2.144640E+05 -1.675369E+06  6.342781E+04  4.322679E+03
        90  21 -4.519845E+06 -7.763076E+05 -1.721318E+05 -1.674162E+06  2.922127E+04 -5.401574E+03
        90  22 -4.014883E+06 -6.435440E+05 -1.311613E+05 -1.521473E+06  9.692805E+04  1.596725E+04
        90  23 -4.015959E+06 -5.620967E+05 -6.206905E+04 -1.517550E+06  6.422053E+04  4.621980E+03
        90  24 -4.007095E+06 -5.896062E+05 -3.599026E+04 -1.541665E+06  3.079690E+04 -4.810268E+03
        90  25 -3.392859E+06 -3.952502E+05  3.810851E+04 -1.338164E+06  9.694142E+04  1.597627E+04
        90  26 -3.448537E+06 -3.446942E+05  9.029750E+04 -1.359598E+06  6.501403E+04  4.921582E+03
        90  27 -3.494091E+06 -4.028938E+05  1.001285E+05 -1.409071E+06  3.237396E+04 -4.218468E+03
        91   1 -4.396464E+06 -7.487024E+05 -1.336059E+05 -1.647222E+06 -2.374375E+04  5.268924E+03
        91   2 -4.345098E+06 -6.896590E+05 -1.004365E+05 -1.601604E+06 -1.518484E+04  5.241719E+03
        91   3 -4.250729E+06 -6.856626E+05 -7.505096E+04 -1.607890E+06 -6.511727E+03  4.904661E+03
        91   4 -4.002760E+06 -5.990705E+05 -2.824753E+04 -1.538913E+06 -2.489026E+04  4.838697E+03
        91   5 -4.023813E+06 -5.684067E+05 -1.446567E+04 -1.514135E+06 -1.645815E+04  4.764617E+03
        91   6 -4.001841E+06 -5.927605E+05 -8.362014E+03 -1.541262E+06 -7.912796E+03  4.380391E+03
        91   7 -3.608907E+06 -4.494290E+05  7.709688E+04 -1.430543E+06 -2.603758E+04  4.408167E+03
        91   8 -3.702428E+06 -4.471483E+05  7.149609E+04 -1.426626E+06 -1.773218E+04  4.287241E+03
        91   9 -3.752892E+06 -4.998548E+05  5.832165E+04 -1.474610E+06 -9.314490E+03  3.855893E+03
        91  10 -4.396464E+06 -7.487026E+05 -1.336070E+05 -1.647222E+06 -1.951499E-10 -2.574689E-10
        91  11 -4.345098E+06 -6.896591E+05 -1.004370E+05 -1.601604E+06  5.291838E-10  2.655500E-10
        91  12 -4.250729E+06 -6.856627E+05 -7.505108E+04 -1.607890E+06  1.154861E-09  1.210505E-09
        91  13 -4.002761E+06 -5.990706E+05 -2.824875E+04 -1.538913E+06 -2.000120E-10 -1.241361E-09
        91  14 -4.023813E+06 -5.684068E+05 -1.446622E+04 -1.514135E+06  2.988994E-09 -4.081585E-10
        91  15 -4.001841E+06 -5.927606E+05 -8.362168E+03 -1.541262E+06  2.323443E-09  8.135257E-10
        91  16 -3.608908E+06 -4.494292E+05  7.709556E+04 -1.430543E+06 -1.578042E-11 -9.098766E-10
        91  17 -3.702428E+06 -4.471484E+05  7.149546E+04 -1.426625E+06  1.353097E-09 -1.122259E-09
        91  18 -3.752892E+06 -4.998549E+05  5.832146E+04 -1.474610E+06  1.919719E-09  1.012389E-09
        91  19 -4.396464E+06 -7.487024E+05 -1.336059E+05 -1.647222E+06  2.374375E+04 -5.268924E+03
        91  20 -4.345098E+06 -6.896590E+05 -1.004365E+05 -1.601604E+06  1.518484E+04 -5.241719E+03
        91  21 -4.250729E+06 -6.856626E+05 -7.505096E+04 -1.607890E+06  6.511727E+03 -4.904661E+03
        91  22 -4.002760E+06 -5.990705E+05 -2.824753E+04 -1.538913E+06  2.489026E+04 -4.838697E+03
        91  23 -4.023813E+06 -5.684067E+05 -1.446567E+04 -1.514135E+06  1.645815E+04 -4.764617E+03
        91  24 -4.001841E+06 -5.927605E+05 -8.362014E+03 -1.541262E+06  7.912796E+03 -4.380391E+03
        91  25 -3.608907E+06 -4.494290E+05  7.709688E+04 -1.430543E+06  2.603758E+04 -4.408167E+03
        91  26 -3.702428E+06 -4.471483E+05  7.149609E+04 -1.426626E+06  1.773218E+04 -4.287241E+03
        91  27 -3.752892E+06 -4.998548E+05  5.832165E+04 -1.474610E+06  9.314490E+03 -3.855893E+03
        92   1 -4.122287E+06 -6.400734E+05 -3.879619E+04 -1.574551E+06 -4.612453E+03  3.441896E+03
        92   2 -4.068992E+06 -5.849789E+05 -1.566182E+04 -1.524922E+06 -1.383041E+03  9.656754E+02
        92   3 -3.966593E+06 -5.807540E+05  5.668657E+03 -1.532323E+06  1.859032E+03 -1.544915E+03
        92   4 -4.000823E+06 -5.942987E+05 -6.587802E+03 -1.541475E+06 -5.977707E+03  2.931288E+03
        92   5 -4.025327E+06 -5.685445E+05 -3.987944E+03 -1.513078E+06 -2.762585E+03  4.497984E+02
        92   6 -4.000728E+06 -5.936569E+05 -3.179621E+03 -1.541713E+06  4.649062E+02 -2.066140E+03
        92   7 -3.879345E+06 -5.485231E+05  2.561931E+04 -1.508393E+06 -7.343255E+03  2.420569E+03
        92   8 -3.981659E+06 -5.521101E+05  7.685758E+03 -1.501233E+06 -4.142236E+03 -6.611806E+01
        92   9 -4.034862E+06 -6.065596E+05 -1.202796E+04 -1.551102E+06 -9.291320E+02 -2.587331E+03
        92  10 -4.122287E+06 -6.400734E+05 -3.879625E+04 -1.574551E+06  3.968139E-09  1.790669E-09
        92  11 -4.068992E+06 -5.849789E+05 -1.566183E+04 -1.524922E+06  5.318945E-10  6.099576E-10
        92  12 -3.966593E+06 -5.807540E+05  5.668647E+03 -1.532323E+06 -1.797427E-09 -1.027237E-09
        92  13 -4.000823E+06 -5.942987E+05 -6.587886E+03 -1.541475E+06  6.936188E-10 -1.116756E-10
        92  14 -4.025327E+06 -5.685445E+05 -3.987958E+03 -1.513078E+06  1.275671E-09 -7.706108E-10
        92  15 -4.000728E+06 -5.936569E+05 -3.179629E+03 -1.541713E+06  7.385353E-10  9.845475E-10
        92  16 -3.879345E+06 -5.485232E+05  2.561920E+04 -1.508393E+06 -1.277680E-09 -9.893131E-11
        92  17 -3.981659E+06 -5.521101E+05  7.685725E+03 -1.501233E+06 -3.621925E-09 -1.972626E-09
        92  18 -4.034862E+06 -6.065596E+05 -1.202798E+04 -1.551102E+06 -1.327304E-09 -8.827472E-10
        92  19 -4.122287E+06 -6.400734E+05 -3.879619E+04 -1.574551E+06  4.612453E+03 -3.441896E+03
        92  20 -4.068992E+06 -5.849789E+05 -1.566182E+04 -1.524922E+06  1.383041E+03 -9.656754E+02
        92  21 -3.966593E+06 -5.807540E+05  5.668657E+03 -1.532323E+06 -1.859032E+03  1.544915E+03
        92  22 -4.000823E+06 -5.942987E+05 -6.587802E+03 -1.541475E+06  5.977707E+03 -2.931288E+03
        92  23 -4.025327E+06 -5.685445E+05 -3.987944E+03 -1.513078E+06  2.762585E+03 -4.497984E+02
        92  24 -4.000728E+06 -5.936569E+05 -3.179621E+03 -1.541713E+06 -4.649062E+02  2.066140E+03
        92  25 -3.879345E+06 -5.485231E+05  2.561931E+04 -1.508393E+06  7.343255E+03 -2.420569E+03
        92  26 -3.981659E+06 -5.521101E+05  7.685758E+03 -1.501233E+06  4.142236E+03  6.611806E+01
        92  27 -4.034862E+06 -6.065596E+05 -1.202796E+04 -1.551102E+06  9.291320E+02  2.587331E+03
        93   1 -3.838106E+06 -5.320447E+05  4.067019E+04 -1.497255E+06  3.095941E+03 -3.267184E+03
        93   2 -3.786668E+06 -4.793178E+05  5.971119E+04 -1.448935E+06  6.242163E+03 -5.751309E+03
        93   3 -3.687577E+06 -4.758560E+05  7.703449E+04 -1.455778E+06  9.340206E+03 -8.099764E+03
        93   4 -4.001060E+06 -5.932947E+05 -3.169793E+03 -1.541305E+06  1.703252E+03 -3.788019E+03
        93   5 -4.024932E+06 -5.690065E+05 -3.982151E+03 -1.513592E+06  4.906096E+03 -6.251450E+03
        93   6 -4.001168E+06 -5.939974E+05 -6.557743E+03 -1.541046E+06  8.060482E+03 -8.579261E+03
        93   7 -4.163989E+06 -6.545433E+05 -4.701224E+04 -1.585344E+06  3.109643E+02 -4.308704E+03
        93   8 -4.263141E+06 -6.586920E+05 -6.768057E+04 -1.578226E+06  3.570594E+03 -6.751381E+03
        93   9 -4.314664E+06 -7.121329E+05 -9.015859E+04 -1.626275E+06  6.781472E+03 -9.058491E+03
        93  10 -3.838106E+06 -5.320447E+05  4.067015E+04 -1.497255E+06  6.186841E-10  5.543100E-10
        93  11 -3.786668E+06 -4.793179E+05  5.971106E+04 -1.448935E+06 -3.018549E-09 -3.034464E-09
        93  12 -3.687577E+06 -4.758561E+05  7.703420E+04 -1.455778E+06 -2.050127E-09 -1.164121E-09
        93  13 -4.001060E+06 -5.932947E+05 -3.169826E+03 -1.541305E+06 -2.002964E-09 -6.741524E-10
        93  14 -4.024932E+06 -5.690066E+05 -3.982270E+03 -1.513592E+06  7.123714E-10  1.126664E-09
        93  15 -4.001168E+06 -5.939974E+05 -6.558003E+03 -1.541046E+06  6.607522E-10  1.357375E-11
        93  16 -4.163989E+06 -6.545433E+05 -4.701227E+04 -1.585344E+06 -2.214424E-09  1.291271E-10
        93  17 -4.263141E+06 -6.586920E+05 -6.768068E+04 -1.578226E+06 -1.336584E-09 -1.723579E-09
        93  18 -4.314664E+06 -7.121330E+05 -9.015883E+04 -1.626275E+06  7.617594E-11 -7.224922E-10
        93  19 -3.838106E+06 -5.320447E+05  4.067019E+04 -1.497255E+06 -3.095941E+03  3.267184E+03
        93  20 -3.786668E+06 -4.793178E+05  5.971119E+04 -1.448935E+06 -6.242163E+03  5.751309E+03
        93  21 -3.687577E+06 -4.758560E+05  7.703449E+04 -1.455778E+06 -9.340206E+03  8.099764E+03
        93  22 -4.001060E+06 -5.932947E+05 -3.169793E+03 -1.541305E+06 -1.703252E+03  3.788019E+03
        93  23 -4.024932E+06 -5.690065E+05 -3.982151E+03 -1.513592E+06 -4.906096E+03  6.251450E+03
        93  24 -4.001168E+06 -5.939974E+05 -6.557743E+03 -1.541046E+06 -8.060482E+03  8.579261E+03
        93  25 -4.163989E+06 -6.545433E+05 -4.701224E+04 -1.585344E+06 -3.109643E+02  4.308704E+03
        93  26 -4.263141E+06 -6.586920E+05 -6.768057E+04 -1.578226E+06 -3.570594E+03  6.751381E+03
        93  27 -4.314664E+06 -7.121329E+05 -9.015859E+04 -1.626275E+06 -6.781472E+03  9.058491E+03
        94   1 -3.569895E+06 -4.295083E+05  1.075529E+05 -1.423346E+06  1.125911E+04 -9.418080E+03
        94   2 -3.524549E+06 -3.817501E+05  1.188215E+05 -1.379912E+06  1.950606E+04 -9.616467E+03
        94   3 -3.440430E+06 -3.843176E+05  1.226492E+05 -1.382983E+06  2.760257E+04 -9.400442E+03
        94   4 -4.002825E+06 -5.917752E+05 -8.309434E+03 -1.540057E+06  9.943511E+03 -9.911516E+03
        94   5 -4.022654E+06 -5.697490E+05 -1.440921E+04 -1.515625E+06  1.836029E+04 -1.004716E+04
        94   6 -4.003751E+06 -5.980896E+05 -2.808979E+04 -1.537703E+06  2.662575E+04 -9.768559E+03
        94   7 -4.435572E+06 -7.540312E+05 -1.241880E+05 -1.656693E+06  8.628931E+03 -1.040458E+04
        94   8 -4.520519E+06 -7.577331E+05 -1.476618E+05 -1.651240E+06  1.721553E+04 -1.047748E+04
        94   9 -4.566765E+06 -8.118420E+05 -1.788572E+05 -1.692296E+06  2.564990E+04 -1.013631E+04
        94  10 -3.569895E+06 -4.295084E+05  1.075525E+05 -1.423346E+06  4.246271E-10  7.720078E-10
        94  11 -3.524549E+06 -3.817503E+05  1.188206E+05 -1.379912E+06  7.543499E-10  1.510188E-09
        94  12 -3.440431E+06 -3.843179E+05  1.226476E+05 -1.382983E+06 -1.267785E-10  2.662383E-10
        94  13 -4.002825E+06 -5.917753E+05 -8.309804E+03 -1.540057E+06 -1.408908E-10  2.986827E-10
        94  14 -4.022654E+06 -5.697492E+05 -1.441004E+04 -1.515625E+06  1.006397E-09  2.925705E-10
        94  15 -4.003752E+06 -5.980899E+05 -2.809130E+04 -1.537703E+06 -6.429067E-10  4.121794E-10
        94  16 -4.435573E+06 -7.540314E+05 -1.241883E+05 -1.656693E+06 -1.135988E-09 -1.036793E-09
        94  17 -4.520519E+06 -7.577333E+05 -1.476626E+05 -1.651240E+06  6.997560E-10  9.694003E-10
        94  18 -4.566766E+06 -8.118423E+05 -1.788586E+05 -1.692296E+06  4.199172E-10  7.877008E-10
        94  19 -3.569895E+06 -4.295083E+05  1.075529E+05 -1.423346E+06 -1.125911E+04  9.418080E+03
        94  20 -3.524549E+06 -3.817501E+05  1.188215E+05 -1.379912E+06 -1.950606E+04  9.616467E+03
        94  21 -3.440430E+06 -3.843176E+05  1.226492E+05 -1.382983E+06 -2.760257E+04  9.400442E+03
        94  22 -4.002825E+06 -5.917752E+05 -8.309434E+03 -1.540057E+06 -9.943511E+03  9.911516E+03
        94  23 -4.022654E+06 -5.697490E+05 -1.440921E+04 -1.515625E+06 -1.836029E+04  1.004716E+04
        94  24 -4.003751E+06 -5.980896E+05 -2.808979E+04 -1.537703E+06 -2.662575E+04  9.768559E+03
        94  25 -4.435572E+06 -7.540312E+05 -1.241880E+05 -1.656693E+06 -8.628931E+03  1.040458E+04
        94  26 -4.520519E+06 -7.577331E+05 -1.476618E+05 -1.651240E+06 -1.721553E+04  1.047748E+04
        94  27 -4.566765E+06 -8.118420E+05 -1.788572E+05 -1.692296E+06 -2.564990E+04  1.013631E+04
        95   1 -3.341706E+06 -3.429820E+05  1.415159E+05 -1.364890E+06  3.386125E+04 -8.993047E+03
        95   2 -3.304113E+06 -2.925904E+05  1.288138E+05 -1.322619E+06  6.607835E+04  5.170966E+02
        95   3 -3.263107E+06 -3.432886E+05  7.413213E+04 -1.300043E+06  9.750078E+04  1.215291E+04
        95   4 -4.008635E+06 -5.880865E+05 -3.578554E+04 -1.539776E+06  3.242149E+04 -9.535406E+03
        95   5 -4.014131E+06 -5.642300E+05 -6.175706E+04 -1.519866E+06  6.550513E+04  2.988665E+02
        95   6 -4.016420E+06 -6.416908E+05 -1.304369E+05 -1.519650E+06  9.779120E+04  1.225776E+04
        95   7 -4.675133E+06 -8.331703E+05 -2.131256E+05 -1.714494E+06  3.098343E+04 -1.007717E+04
        95   8 -4.723659E+06 -8.358353E+05 -2.523724E+05 -1.716908E+06  6.493261E+04  8.090159E+01
        95   9 -4.769180E+06 -9.400429E+05 -3.350567E+05 -1.739009E+06  9.808116E+04  1.236243E+04
        95  10 -3.341707E+06 -3.429824E+05  1.415136E+05 -1.364890E+06 -1.309842E-09  1.339091E-09
        95  11 -3.304118E+06 -2.925916E+05  1.288056E+05 -1.322619E+06 -2.722305E-10  1.410321E-09
        95  12 -3.263117E+06 -3.432913E+05  7.411389E+04 -1.300044E+06 -2.249459E-09  6.393197E-10
        95  13 -4.008636E+06 -5.880869E+05 -3.578769E+04 -1.539776E+06 -3.895240E-10  3.433488E-10
        95  14 -4.014136E+06 -5.642311E+05 -6.176517E+04 -1.519867E+06  1.909212E-09  9.106263E-11
        95  15 -4.016430E+06 -6.416935E+05 -1.304553E+05 -1.519651E+06 -1.584482E-09  2.941508E-10
        95  16 -4.675134E+06 -8.331707E+05 -2.131276E+05 -1.714494E+06  1.848373E-09  3.034451E-10
        95  17 -4.723663E+06 -8.358365E+05 -2.523804E+05 -1.716908E+06 -1.508176E-09  2.765874E-10
        95  18 -4.769190E+06 -9.400457E+05 -3.350752E+05 -1.739010E+06 -1.673061E-09  2.183281E-10
        95  19 -3.341706E+06 -3.429820E+05  1.415159E+05 -1.364890E+06 -3.386125E+04  8.993047E+03
        95  20 -3.304113E+06 -2.925904E+05  1.288138E+05 -1.322619E+06 -6.607835E+04 -5.170966E+02
        95  21 -3.263107E+06 -3.432886E+05  7.413213E+04 -1.300043E+06 -9.750078E+04 -1.215291E+04
        95  22 -4.008635E+06 -5.880865E+05 -3.578554E+04 -1.539776E+06 -3.242149E+04  9.535406E+03
        95  23 -4.014131E+06 -5.642300E+05 -6.175706E+04 -1.519866E+06 -6.550513E+04 -2.988665E+02
        95  24 -4.016420E+06 -6.416908E+05 -1.304369E+05 -1.519650E+06 -9.779120E+04 -1.225776E+04
        95  25 -4.675133E+06 -8.331703E+05 -2.131256E+05 -1.714494E+06 -3.098343E+04  1.007717E+04
        95  26 -4.723659E+06 -8.358353E+05 -2.523724E+05 -1.716908E+06 -6.493261E+04 -8.090159E+01
        95  27 -4.769180E+06 -9.400429E+05 -3.350567E+05 -1.739009E+06 -9.808116E+04 -1.236243E+04
        96   1 -3.168598E+06 -2.961248E+05  6.248923E+04 -1.372505E+06  1.270899E+05  1.895811E+04
        96   2 -3.127326E+06 -1.465275E+05 -3.173973E+04 -1.269592E+06  2.627351E+05  6.854588E+04
        96   3 -3.303728E+06 -5.987971E+05 -3.865313E+05 -1.035663E+06  3.908621E+05  1.380287E+05
        96   4 -4.039657E+06 -5.711466E+05 -1.598584E+05 -1.554985E+06  1.221343E+05  1.709761E+04
        96   5 -3.963158E+06 -4.978645E+05 -2.618287E+05 -1.534112E+06  2.660377E+05  6.977434E+04
        96   6 -4.106309E+06 -1.028622E+06 -6.312196E+05 -1.382134E+06  4.024235E+05  1.423125E+05
        96   7 -4.909982E+06 -8.461733E+05 -3.822656E+05 -1.737258E+06  1.171863E+05  1.523889E+04
        96   8 -4.798306E+06 -8.491114E+05 -4.919819E+05 -1.798292E+06  2.693353E+05  7.100038E+04
        96   9 -4.908218E+06 -1.458188E+06 -8.759689E+05 -1.728133E+06  4.139681E+05  1.465839E+05
        96  10 -3.168615E+06 -2.961296E+05  6.245803E+04 -1.372507E+06 -3.426050E-09  1.228679E-09
        96  11 -3.127402E+06 -1.465512E+05 -3.187910E+04 -1.269606E+06 -3.028401E-10  3.643674E-09
        96  12 -3.303898E+06 -5.988589E+05 -3.868561E+05 -1.035707E+06  1.288269E-09  9.760477E-10
        96  13 -4.039674E+06 -5.711510E+05 -1.598871E+05 -1.554987E+06 -8.682045E-10  1.645360E-09
        96  14 -3.963236E+06 -4.978889E+05 -2.619719E+05 -1.534127E+06  8.119637E-09 -1.378936E-09
        96  15 -4.106489E+06 -1.028688E+06 -6.315645E+05 -1.382181E+06  8.514563E-10  6.612311E-10
        96  16 -4.909997E+06 -8.461773E+05 -3.822921E+05 -1.737259E+06 -2.588306E-10 -3.348587E-10
        96  17 -4.798386E+06 -8.491366E+05 -4.921290E+05 -1.798307E+06 -6.103210E-10  3.011824E-09
        96  18 -4.908409E+06 -1.458258E+06 -8.763346E+05 -1.728182E+06 -4.477635E-10  2.564119E-10
        96  19 -3.168598E+06 -2.961248E+05  6.248923E+04 -1.372505E+06 -1.270899E+05 -1.895811E+04
        96  20 -3.127326E+06 -1.465275E+05 -3.173973E+04 -1.269592E+06 -2.627351E+05 -6.854588E+04
        96  21 -3.303728E+06 -5.987971E+05 -3.865313E+05 -1.035663E+06 -3.908621E+05 -1.380287E+05
        96  22 -4.039657E+06 -5.711466E+05 -1.598584E+05 -1.554985E+06 -1.221343E+05 -1.709761E+04
        96  23 -3.963158E+06 -4.978645E+05 -2.618287E+05 -1.534112E+06 -2.660377E+05 -6.977434E+04
        96  24 -4.106309E+06 -1.028622E+06 -6.312196E+05 -1.382134E+06 -4.024235E+05 -1.423125E+05
        96  25 -4.909982E+06 -8.461733E+05 -3.822656E+05 -1.737258E+06 -1.171863E+05 -1.523889E+04
        96  26 -4.798306E+06 -8.491114E+05 -4.919819E+05 -1.798292E+06 -2.693353E+05 -7.100038E+04
        96  27 -4.908218E+06 -1.458188E+06 -8.759689E+05 -1.728133E+06 -4.139681E+05 -1.465839E+05
        97   1 -8.091543E+05 -1.224255E+05 -9.876122E+04 -3.652132E+03  6.058463E+04  7.236950E+03
        97   2 -7.812568E+05 -2.046081E+05 -1.420564E+05  1.121075E+03  4.306856E+04  2.114431E+04
        97   3 -7.241522E+05 -1.842089E+05 -1.480527E+05 -3.297472E+04  2.559917E+04  1.927027E+04
        97   4  6.025138E+02  7.956962E+04  1.018679E+05 -2.274102E+04  6.955457E+04  7.263203E+03
        97   5 -1.454130E+04 -1.398728E+04  4.411846E+04 -3.180259E+03  4.557921E+04  2.114891E+04
        97   6  6.069509E+02 -3.908723E+03  2.811976E+04 -2.248489E+04  2.165203E+04  1.926097E+04
        97   7  8.109565E+05  2.815171E+05  3.024487E+05 -4.185532E+04  7.853616E+04  7.288888E+03
        97   8  7.527114E+05  1.765904E+05  2.302509E+05 -7.487282E+03  4.809294E+04  2.115348E+04
        97   9  7.258462E+05  1.763532E+05  2.042543E+05 -1.198301E+04  1.770027E+04  1.925155E+04
        97  10 -8.091583E+05 -1.224265E+05 -9.876823E+04 -3.652485E+03 -6.866481E-11  1.104339E-09
        97  11 -7.812589E+05 -2.046091E+05 -1.420607E+05  1.120341E+03  1.149534E-09 -1.143222E-09
        97  12 -7.241530E+05 -1.842094E+05 -1.480547E+05 -3.297512E+04 -9.502067E-12 -6.109635E-10
        97  13  5.973051E+02  7.956826E+04  1.018587E+05 -2.274143E+04 -1.386188E-12  4.232308E-10
        97  14 -1.454365E+04 -1.398831E+04  4.411371E+04 -3.181035E+03 -1.245841E-09 -3.508239E-09
        97  15  6.063479E+02 -3.909247E+03  2.811819E+04 -2.248523E+04 -1.694905E-09 -3.396822E-10
        97  16  8.109499E+05  2.815154E+05  3.024371E+05 -4.185578E+04 -2.403208E-10 -1.748223E-10
        97  17  7.527088E+05  1.765893E+05  2.302457E+05 -7.488101E+03  9.120389E-10 -4.308792E-10
        97  18  7.258458E+05  1.763527E+05  2.042531E+05 -1.198328E+04 -1.047077E-09 -1.255988E-09
        97  19 -8.091543E+05 -1.224255E+05 -9.876122E+04 -3.652132E+03 -6.058463E+04 -7.236950E+03
        97  20 -7.812568E+05 -2.046081E+05 -1.420564E+05  1.121075E+03 -4.306856E+04 -2.114431E+04
        97  21 -7.241522E+05 -1.842089E+05 -1.480527E+05 -3.297472E+04 -2.559917E+04 -1.927027E+04
        97  22  6.025138E+02  7.956962E+04  1.018679E+05 -2.274102E+04 -6.955457E+04 -7.263203E+03
        97  23 -1.454130E+04 -1.398728E+04  4.411846E+04 -3.180259E+03 -4.557921E+04 -2.114891E+04
        97  24  6.069509E+02 -3.908723E+03  2.811976E+04 -2.248489E+04 -2.165203E+04 -1.926097E+04
        97  25  8.109565E+05  2.815171E+05  3.024487E+05 -4.185532E+04 -7.853616E+04 -7.288888E+03
        97  26  7.527114E+05  1.765904E+05  2.302509E+05 -7.487282E+03 -4.809294E+04 -2.115348E+04
        97  27  7.258462E+05  1.763532E+05  2.042543E+05 -1.198301E+04 -1.770027E+04 -1.925155E+04
        98   1 -6.559939E+05 -1.525754E+05 -1.355143E+05 -2.116671E+04  1.693050E+04  1.599525E+04
        98   2 -6.159641E+05 -1.531310E+05 -1.365593E+05 -3.161211E+03  1.162829E+04  1.585673E+04
        98   3 -5.713995E+05 -1.413900E+05 -1.309170E+05 -2.410971E+04  6.326102E+03  1.423892E+04
        98   4 -5.063930E+03  9.364928E+03  2.303924E+04 -2.259296E+04  1.719161E+04  1.599457E+04
        98   5 -7.379055E+03 -1.769845E+03  1.143548E+04 -3.108946E+03  1.128084E+04  1.585524E+04
        98   6 -5.058513E+03 -5.086092E+02  6.936928E+03 -2.257647E+04  5.370462E+03  1.423724E+04
        98   7  6.462529E+05  1.712741E+05  1.815620E+05 -2.402088E+04  1.745298E+04  1.599389E+04
        98   8  6.015442E+05  1.495641E+05  1.594034E+05 -3.056743E+03  1.093304E+04  1.585375E+04
        98   9  5.615754E+05  1.403492E+05  1.447676E+05 -2.104188E+04  4.413950E+03  1.423556E+04
        98  10 -6.559943E+05 -1.525758E+05 -1.355153E+05 -2.116693E+04 -1.956194E-09 -1.364270E-09
        98  11 -6.159643E+05 -1.531313E+05 -1.365600E+05 -3.161360E+03 -8.797283E-10  1.454758E-09
        98  12 -5.713996E+05 -1.413902E+05 -1.309175E+05 -2.410978E+04  2.582714E-09 -7.058020E-10
        98  13 -5.064316E+03  9.364574E+03  2.303821E+04 -2.259318E+04  1.290393E-12 -7.676972E-10
        98  14 -7.379259E+03 -1.770150E+03  1.143477E+04 -3.109090E+03 -8.933970E-10  4.160918E-10
        98  15 -5.058598E+03 -5.088346E+02  6.936493E+03 -2.257653E+04  9.765616E-10 -8.738611E-10
        98  16  6.462525E+05  1.712737E+05  1.815610E+05 -2.402110E+04  1.231992E-09  2.859126E-10
        98  17  6.015440E+05  1.495638E+05  1.594027E+05 -3.056882E+03 -8.892016E-11 -1.776037E-09
        98  18  5.615753E+05  1.403489E+05  1.447672E+05 -2.104193E+04 -1.287798E-09  4.782732E-11
        98  19 -6.559939E+05 -1.525754E+05 -1.355143E+05 -2.116671E+04 -1.693050E+04 -1.599525E+04
        98  20 -6.159641E+05 -1.531310E+05 -1.365593E+05 -3.161211E+03 -1.162829E+04 -1.585673E+04
        98  21 -5.713995E+05 -1.413900E+05 -1.309170E+05 -2.410971E+04 -6.326102E+03 -1.423892E+04
        98  22 -5.063930E+03  9.364928E+03  2.303924E+04 -2.259296E+04 -1.719161E+04 -1.599457E+04
        98  23 -7.379055E+03 -1.769845E+03  1.143548E+04 -3.108946E+03 -1.128084E+04 -1.585524E+04
        98  24 -5.058513E+03 -5.086092E+02  6.936928E+03 -2.257647E+04 -5.370462E+03 -1.423724E+04
        98  25  6.462529E+05  1.712741E+05  1.815620E+05 -2.402088E+04 -1.745298E+04 -1.599389E+04
        98  26  6.015442E+05  1.495641E+05  1.594034E+05 -3.056743E+03 -1.093304E+04 -1.585375E+04
        98  27  5.615754E+05  1.403492E+05  1.447676E+05 -2.104188E+04 -4.413950E+03 -1.423556E+04
        99   1 -4.982722E+05 -1.214156E+05 -1.142174E+05 -2.262489E+04  4.826503E+03  1.309435E+04
        99   2 -4.564428E+05 -1.121927E+05 -1.065868E+05 -3.177764E+03  3.427657E+03  1.164292E+04
        99   3 -4.136820E+05 -1.015081E+05 -9.760015E+04 -2.272970E+04  2.027004E+03  1.005276E+04
        99   4 -5.856665E+03  1.030018E+03  5.446216E+03 -2.259197E+04  4.265595E+03  1.309331E+04
        99   5 -6.323994E+03 -2.499983E+02  2.881802E+03 -3.092991E+03  2.809124E+03  1.164216E+04
        99   6 -5.852540E+03 -5.901312E+01  1.712655E+03 -2.259133E+04  1.350941E+03  1.005234E+04
        99   7  4.867804E+05  1.234578E+05  1.250923E+05 -2.255905E+04  3.704242E+03  1.309226E+04
        99   8  4.439798E+05  1.116778E+05  1.123357E+05 -3.008173E+03  2.190143E+03  1.164141E+04
        99   9  4.021287E+05  1.013778E+05  1.010134E+05 -2.245285E+04  6.744344E+02  1.005192E+04
        99  10 -4.982723E+05 -1.214158E+05 -1.142178E+05 -2.262494E+04 -1.294984E-09 -2.313481E-10
        99  11 -4.564429E+05 -1.121928E+05 -1.065871E+05 -3.177796E+03 -2.632677E-09  1.344478E-10
        99  12 -4.136820E+05 -1.015082E+05 -9.760035E+04 -2.272972E+04 -1.922013E-09 -4.085172E-10
        99  13 -5.856731E+03  1.029829E+03  5.445859E+03 -2.259201E+04  1.075646E-09 -4.808604E-10
        99  14 -6.324039E+03 -2.501459E+02  2.881532E+03 -3.093018E+03 -1.028730E-09  3.181192E-10
        99  15 -5.852569E+03 -5.912212E+01  1.712462E+03 -2.259134E+04  8.071896E-10 -3.349307E-11
        99  16  4.867803E+05  1.234577E+05  1.250920E+05 -2.255909E+04  4.265048E-10 -3.168242E-10
        99  17  4.439798E+05  1.116776E+05  1.123355E+05 -3.008193E+03  1.642108E-09 -4.810091E-10
        99  18  4.021287E+05  1.013777E+05  1.010132E+05 -2.245286E+04 -3.122209E-10 -3.555909E-10
        99  19 -4.982722E+05 -1.214156E+05 -1.142174E+05 -2.262489E+04 -4.826503E+03 -1.309435E+04
        99  20 -4.564428E+05 -1.121927E+05 -1.065868E+05 -3.177764E+03 -3.427657E+03 -1.164292E+04
        99  21 -4.136820E+05 -1.015081E+05 -9.760015E+04 -2.272970E+04 -2.027004E+03 -1.005276E+04
        99  22 -5.856665E+03  1.030018E+03  5.446216E+03 -2.259197E+04 -4.265595E+03 -1.309331E+04
        99  23 -6.323994E+03 -2.499983E+02  2.881802E+03 -3.092991E+03 -2.809124E+03 -1.164216E+04
        99  24 -5.852540E+03 -5.901312E+01  1.712655E+03 -2.259133E+04 -1.350941E+03 -1.005234E+04
        99  25  4.867804E+05  1.234578E+05  1.250923E+05 -2.255905E+04 -3.704242E+03 -1.309226E+04
        99  26  4.439798E+05  1.116778E+05  1.123357E+05 -3.008173E+03 -2.190143E+03 -1.164141E+04
        99  27  4.021287E+05  1.013778E+05  1.010134E+05 -2.245285E+04 -6.744344E+02 -1.005192E+04
       100   1 -3.398597E+05 -8.290055E+04 -7.976044E+04 -2.254593E+04  1.716944E+03  9.108051E+03
       100   2 -2.976470E+05 -7.253898E+04 -7.020787E+04 -3.017853E+03  1.375983E+03  7.533371E+03
       100   3 -2.552288E+05 -6.198269E+04 -6.036172E+04 -2.249618E+04  1.033839E+03  5.946184E+03
       100   4 -5.999271E+03  9.806821E+01  1.302598E+03 -2.259325E+04  1.077644E+03  9.107843E+03
       100   5 -6.100330E+03 -3.919296E+01  6.909215E+02 -3.090625E+03  7.313920E+02  7.533383E+03
       100   6 -5.996589E+03  1.928480E+01  3.764979E+02 -2.259327E+04  3.839794E+02  5.946423E+03
       100   7  3.279629E+05  8.308849E+04  8.235758E+04 -2.264059E+04  4.380003E+02  9.107635E+03
       100   8  2.855239E+05  7.245434E+04  7.158356E+04 -3.163424E+03  8.649861E+01  7.533394E+03
       100   9  2.432923E+05  6.201668E+04  6.111020E+04 -2.269038E+04 -2.661401E+02  5.946662E+03
       100  10 -3.398597E+05 -8.290064E+04 -7.976060E+04 -2.254595E+04 -5.767478E-10 -4.425619E-10
       100  11 -2.976470E+05 -7.253904E+04 -7.020798E+04 -3.017861E+03 -4.658127E-12 -1.166282E-11
       100  12 -2.552288E+05 -6.198273E+04 -6.036179E+04 -2.249618E+04  2.667612E-09  4.426260E-10
       100  13 -5.999295E+03  9.797882E+01  1.302439E+03 -2.259326E+04  1.079426E-09 -3.452942E-10
       100  14 -6.100346E+03 -3.925405E+01  6.908138E+02 -3.090629E+03 -4.355037E-09 -1.401505E-10
       100  15 -5.996599E+03  1.924679E+01  3.764311E+02 -2.259327E+04 -1.233210E-09 -3.856806E-10
       100  16  3.279629E+05  8.308840E+04  8.235742E+04 -2.264059E+04  6.418949E-10 -4.724151E-10
       100  17  2.855239E+05  7.245428E+04  7.158345E+04 -3.163424E+03 -1.385583E-09 -4.380334E-11
       100  18  2.432923E+05  6.201664E+04  6.111014E+04 -2.269038E+04 -3.040090E-09 -5.508244E-10
       100  19 -3.398597E+05 -8.290055E+04 -7.976044E+04 -2.254593E+04 -1.716944E+03 -9.108051E+03
       100  20 -2.976470E+05 -7.253898E+04 -7.020787E+04 -3.017853E+03 -1.375983E+03 -7.533371E+03
       100  21 -2.552288E+05 -6.198269E+04 -6.036172E+04 -2.249618E+04 -1.033839E+03 -5.946184E+03
       100  22 -5.999271E+03  9.806821E+01  1.302598E+03 -2.259325E+04 -1.077644E+03 -9.107843E+03
       100  23 -6.100330E+03 -3.919296E+01  6.909215E+02 -3.090625E+03 -7.313920E+02 -7.533383E+03
       100  24 -5.996589E+03  1.928480E+01  3.764979E+02 -2.259327E+04 -3.839794E+02 -5.946423E+03
       100  25  3.279629E+05  8.308849E+04  8.235758E+04 -2.264059E+04 -4.380003E+02 -9.107635E+03
       100  26  2.855239E+05  7.245434E+04  7.158356E+04 -3.163424E+03 -8.649861E+01 -7.533394E+03
       100  27  2.432923E+05  6.201668E+04  6.111020E+04 -2.269038E+04  2.661401E+02 -5.946662E+03
       101   1 -1.812782E+05 -4.351958E+04 -4.223091E+04 -2.251232E+04  9.739917E+02  5.019259E+03
       101   2 -1.389343E+05 -3.304418E+04 -3.226275E+04 -3.016776E+03  9.434978E+02  3.432690E+03
       101   3 -9.662009E+04 -2.253106E+04 -2.227499E+04 -2.253180E+04  9.124783E+02  1.851305E+03
       101   4 -6.039623E+03  2.837725E+01  2.502591E+02 -2.259432E+04  3.257894E+02  5.019619E+03
       101   5 -6.023497E+03  4.080318E+00  5.586016E+01 -3.089296E+03  2.973828E+02  3.433147E+03
       101   6 -6.038399E+03  1.743373E+01 -1.201346E+02 -2.259433E+04  2.684524E+02  1.851863E+03
       101   7  1.692270E+05  4.357409E+04  4.272922E+04 -2.267633E+04 -3.225954E+02  5.019979E+03
       101   8  1.269035E+05  3.305104E+04  3.237319E+04 -3.161829E+03 -3.488703E+02  3.433603E+03
       101   9  8.455077E+04  2.256532E+04  2.203412E+04 -2.265686E+04 -3.756672E+02  1.852422E+03
       101  10 -1.812782E+05 -4.351961E+04 -4.223096E+04 -2.251232E+04 -1.878287E-09 -2.562431E-11
       101  11 -1.389343E+05 -3.304420E+04 -3.226277E+04 -3.016778E+03 -1.786135E-09  1.816232E-10
       101  12 -9.662009E+04 -2.253106E+04 -2.227500E+04 -2.253180E+04  1.997740E-09 -1.956284E-10
       101  13 -6.039629E+03  2.835017E+01  2.502115E+02 -2.259432E+04 -1.076041E-09  8.374444E-10
       101  14 -6.023500E+03  4.067638E+00  5.583785E+01 -3.089297E+03  9.789648E-10  9.782806E-10
       101  15 -6.038400E+03  1.743003E+01 -1.201412E+02 -2.259433E+04  9.105110E-10 -1.547563E-09
       101  16  1.692270E+05  4.357406E+04  4.272917E+04 -2.267633E+04  5.578791E-10  1.583788E-10
       101  17  1.269035E+05  3.305103E+04  3.237317E+04 -3.161828E+03  8.797246E-10  6.531607E-10
       101  18  8.455076E+04  2.256531E+04  2.203412E+04 -2.265686E+04 -3.055058E-10 -2.202293E-10
       101  19 -1.812782E+05 -4.351958E+04 -4.223091E+04 -2.251232E+04 -9.739917E+02 -5.019259E+03
       101  20 -1.389343E+05 -3.304418E+04 -3.226275E+04 -3.016776E+03 -9.434978E+02 -3.432690E+03
       101  21 -9.662009E+04 -2.253106E+04 -2.227499E+04 -2.253180E+04 -9.124783E+02 -1.851305E+03
       101  22 -6.039623E+03  2.837725E+01  2.502591E+02 -2.259432E+04 -3.257894E+02 -5.019619E+03
       101  23 -6.023497E+03  4.080318E+00  5.586016E+01 -3.089296E+03 -2.973828E+02 -3.433147E+03
       101  24 -6.038399E+03  1.743373E+01 -1.201346E+02 -2.259433E+04 -2.684524E+02 -1.851863E+03
       101  25  1.692270E+05  4.357409E+04  4.272922E+04 -2.267633E+04  3.225954E+02 -5.019979E+03
       101  26  1.269035E+05  3.305104E+04  3.237319E+04 -3.161829E+03  3.488703E+02 -3.433603E+03
       101  27  8.455077E+04  2.256532E+04  2.203412E+04 -2.265686E+04  3.756672E+02 -1.852422E+03
       102   1 -2.263351E+04 -4.046349E+03 -4.113571E+03 -2.261297E+04  9.594904E+02  9.167670E+02
       102   2  1.978092E+04  6.447785E+03  5.805672E+03 -3.099927E+03  1.161160E+03 -6.719586E+02
       102   3  6.203913E+04  1.674605E+04  1.552688E+04 -2.259883E+04  1.363006E+03 -2.191371E+03
       102   4 -6.065453E+03  4.693012E+01 -2.152492E+02 -2.259470E+04  2.972285E+02  9.173731E+02
       102   5 -5.983863E+03  4.228443E+01 -4.572528E+02 -3.088772E+03  5.271417E+02 -6.714008E+02
       102   6 -6.065692E+03 -1.631762E+02 -9.169755E+02 -2.259489E+04  7.572183E+02 -2.190854E+03
       102   7  1.050286E+04  4.140190E+03  3.683056E+03 -2.257643E+04 -3.650511E+02  9.179791E+02
       102   8 -3.174804E+04 -6.363264E+03 -6.720225E+03 -3.077617E+03 -1.068503E+02 -6.708429E+02
       102   9 -7.416627E+04 -1.707274E+04 -1.736116E+04 -2.259094E+04  1.514967E+02 -2.190337E+03
       102  10 -2.263351E+04 -4.046350E+03 -4.113575E+03 -2.261297E+04  1.291150E-09  5.365135E-10
       102  11  1.978092E+04  6.447784E+03  5.805669E+03 -3.099927E+03 -1.708232E-09 -3.563943E-10
       102  12  6.203913E+04  1.674605E+04  1.552687E+04 -2.259882E+04 -1.150768E-09  3.250346E-10
       102  13 -6.065453E+03  4.692919E+01 -2.152509E+02 -2.259470E+04  1.074421E-09 -8.875617E-10
       102  14 -5.983863E+03  4.228387E+01 -4.572542E+02 -3.088772E+03  9.588252E-10 -1.001320E-09
       102  15 -6.065694E+03 -1.631815E+02 -9.169855E+02 -2.259488E+04 -1.238498E-09  3.667932E-10
       102  16  1.050286E+04  4.140189E+03  3.683054E+03 -2.257643E+04 -5.648626E-10  8.034877E-10
       102  17 -3.174804E+04 -6.363265E+03 -6.720226E+03 -3.077617E+03 -1.647385E-09 -8.144035E-10
       102  18 -7.416627E+04 -1.707275E+04 -1.736117E+04 -2.259094E+04  5.873943E-10 -5.858986E-10
       102  19 -2.263351E+04 -4.046349E+03 -4.113571E+03 -2.261297E+04 -9.594904E+02 -9.167670E+02
       102  20  1.978092E+04  6.447785E+03  5.805672E+03 -3.099927E+03 -1.161160E+03  6.719586E+02
       102  21  6.203913E+04  1.674605E+04  1.552688E+04 -2.259883E+04 -1.363006E+03  2.191371E+03
       102  22 -6.065453E+03  4.693012E+01 -2.152492E+02 -2.259470E+04 -2.972285E+02 -9.173731E+02
       102  23 -5.983863E+03  4.228443E+01 -4.572528E+02 -3.088772E+03 -5.271417E+02  6.714008E+02
       102  24 -6.065692E+03 -1.631762E+02 -9.169755E+02 -2.259489E+04 -7.572183E+02  2.190854E+03
       102  25  1.050286E+04  4.140190E+03  3.683056E+03 -2.257643E+04  3.650511E+02 -9.179791E+02
       102  26 -3.174804E+04 -6.363264E+03 -6.720225E+03 -3.077617E+03  1.068503E+02  6.708429E+02
       102  27 -7.416627E+04 -1.707274E+04 -1.736116E+04 -2.259094E+04 -1.514967E+02  2.190337E+03
       103   1  1.359466E+05  3.547357E+04  3.349983E+04 -2.288581E+04  1.744853E+03 -3.224759E+03
       103   2  1.785982E+05  4.613959E+04  4.284504E+04 -3.086058E+03  2.464081E+03 -4.823175E+03
       103   3  2.206376E+05  5.474982E+04  5.120603E+04 -2.228085E+04  3.184471E+03 -5.681400E+03
       103   4 -6.182162E+03  1.149152E+02 -1.173480E+03 -2.259069E+04  9.416073E+02 -3.224136E+03
       103   5 -5.849686E+03  2.886853E+02 -1.981420E+03 -3.093559E+03  1.962612E+03 -4.822927E+03
       103   6 -6.183864E+03 -1.645976E+03 -3.983297E+03 -2.259172E+04  2.984731E+03 -5.681425E+03
       103   7 -1.482925E+05 -3.524523E+04 -3.584826E+04 -2.229563E+04  1.385446E+02 -3.223514E+03
       103   8 -1.902666E+05 -4.556472E+04 -4.681034E+04 -3.101052E+03  1.461293E+03 -4.822678E+03
       103   9 -2.329584E+05 -5.804555E+04 -5.917636E+04 -2.290247E+04  2.785065E+03 -5.681449E+03
       103  10  1.359466E+05  3.547356E+04  3.349980E+04 -2.288581E+04 -2.593906E-09 -5.853416E-10
       103  11  1.785982E+05  4.613956E+04  4.284499E+04 -3.086049E+03 -1.887933E-09  2.906906E-10
       103  12  2.206376E+05  5.474978E+04  5.120596E+04 -2.228084E+04 -4.841258E-10 -3.671341E-10
       103  13 -6.182165E+03  1.149038E+02 -1.173501E+03 -2.259068E+04 -2.153710E-09  1.834119E-10
       103  14 -5.849696E+03  2.886593E+02 -1.981471E+03 -3.093551E+03 -6.268661E-10  5.626915E-11
       103  15 -6.183883E+03 -1.646013E+03 -3.983375E+03 -2.259171E+04  9.258842E-10 -1.807256E-10
       103  16 -1.482925E+05 -3.524524E+04 -3.584827E+04 -2.229563E+04  1.734730E-09 -3.075328E-11
       103  17 -1.902666E+05 -4.556475E+04 -4.681039E+04 -3.101046E+03  6.636897E-10  6.282951E-10
       103  18 -2.329584E+05 -5.804559E+04 -5.917643E+04 -2.290245E+04 -1.623654E-09 -4.846416E-10
       103  19  1.359466E+05  3.547357E+04  3.349983E+04 -2.288581E+04 -1.744853E+03  3.224759E+03
       103  20  1.785982E+05  4.613959E+04  4.284504E+04 -3.086058E+03 -2.464081E+03  4.823175E+03
       103  21  2.206376E+05  5.474982E+04  5.120603E+04 -2.228085E+04 -3.184471E+03  5.681400E+03
       103  22 -6.182162E+03  1.149152E+02 -1.173480E+03 -2.259069E+04 -9.416073E+02  3.224136E+03
       103  23 -5.849686E+03  2.886853E+02 -1.981420E+03 -3.093559E+03 -1.962612E+03  4.822927E+03
       103  24 -6.183864E+03 -1.645976E+03 -3.983297E+03 -2.259172E+04 -2.984731E+03  5.681425E+03
       103  25 -1.482925E+05 -3.524523E+04 -3.584826E+04 -2.229563E+04 -1.385446E+02  3.223514E+03
       103  26 -1.902666E+05 -4.556472E+04 -4.681034E+04 -3.101052E+03 -1.461293E+03  4.822678E+03
       103  27 -2.329584E+05 -5.804555E+04 -5.917636E+04 -2.290247E+04 -2.785065E+03  5.681449E+03
       104   1  2.937475E+05  7.545977E+04  6.829009E+04 -2.428099E+04  6.055965E+03 -7.769202E+03
       104   2  3.382943E+05  8.759368E+04  7.554454E+04 -2.169419E+03  6.994729E+03 -9.468230E+03
       104   3  3.785780E+05  8.241123E+04  7.789701E+04 -1.888894E+04  7.934107E+03 -3.280718E+03
       104   4 -7.119655E+03  6.668219E+02 -4.851199E+03 -2.255454E+04  3.751782E+03 -7.768402E+03
       104   5 -4.708536E+03  2.363740E+03 -7.674363E+03 -3.138238E+03  7.907801E+03 -9.468743E+03
       104   6 -7.122812E+03 -1.381914E+04 -1.763563E+04 -2.255448E+04  1.206430E+04 -3.280637E+03
       104   7 -3.079042E+05 -7.413278E+04 -7.799902E+04 -2.082892E+04  1.448711E+03 -7.767614E+03
       104   8 -3.476040E+05 -8.287484E+04 -9.090175E+04 -4.106514E+03  8.820369E+03 -9.469258E+03
       104   9 -3.926885E+05 -1.100606E+05 -1.131793E+05 -2.621774E+04  1.619193E+04 -3.280604E+03
       104  10  2.937475E+05  7.545970E+04  6.828991E+04 -2.428095E+04 -5.384423E-10 -3.881673E-10
       104  11  3.382942E+05  8.759357E+04  7.554428E+04 -2.169366E+03 -4.543690E-10  2.914929E-10
       104  12  3.785779E+05  8.241120E+04  7.789687E+04 -1.888892E+04 -3.405555E-10  2.215929E-10
       104  13 -7.119686E+03  6.667533E+02 -4.851339E+03 -2.255452E+04  1.651535E-12  3.830571E-10
       104  14 -4.708627E+03  2.363626E+03 -7.674649E+03 -3.138177E+03 -2.006720E-11  1.658356E-10
       104  15 -7.122971E+03 -1.381919E+04 -1.763593E+04 -2.255445E+04 -4.012854E-10  1.063603E-10
       104  16 -3.079042E+05 -7.413284E+04 -7.799914E+04 -2.082891E+04 -7.538669E-10 -4.601274E-10
       104  17 -3.476041E+05 -8.287495E+04 -9.090206E+04 -4.106447E+03  1.944804E-10  1.781767E-10
       104  18 -3.926888E+05 -1.100607E+05 -1.131798E+05 -2.621770E+04  1.609749E-10  1.674453E-10
       104  19  2.937475E+05  7.545977E+04  6.829009E+04 -2.428099E+04 -6.055965E+03  7.769202E+03
       104  20  3.382943E+05  8.759368E+04  7.554454E+04 -2.169419E+03 -6.994729E+03  9.468230E+03
       104  21  3.785780E+05  8.241123E+04  7.789701E+04 -1.888894E+04 -7.934107E+03  3.280718E+03
       104  22 -7.119655E+03  6.668219E+02 -4.851199E+03 -2.255454E+04 -3.751782E+03  7.768402E+03
       104  23 -4.708536E+03  2.363740E+03 -7.674363E+03 -3.138238E+03 -7.907801E+03  9.468743E+03
       104  24 -7.122812E+03 -1.381914E+04 -1.763563E+04 -2.255448E+04 -1.206430E+04  3.280637E+03
       104  25 -3.079042E+05 -7.413278E+04 -7.799902E+04 -2.082892E+04 -1.448711E+03  7.767614E+03
       104  26 -3.476040E+05 -8.287484E+04 -9.090175E+04 -4.106514E+03 -8.820369E+03  9.469258E+03
       104  27 -3.926885E+05 -1.100606E+05 -1.131793E+05 -2.621774E+04 -1.619193E+04  3.280604E+03
       105   1  6.971986E+05  2.340128E+06  6.734236E+05 -6.417906E+05  2.952606E+04  1.615746E+05
       105   2  4.898390E+05  1.660434E+06  4.319231E+05 -5.472266E+05  8.939250E+04  4.541183E+04
       105   3  3.236580E+05  1.005500E+06  2.760416E+05 -6.163696E+05  8.012249E+04 -7.086988E+04
       105   4  3.643731E+04 -3.290541E+05  3.668282E+04 -6.130229E+05  3.019233E+04  1.919261E+04
       105   5  9.706335E+03 -3.317485E+05  2.248400E+04 -5.312330E+05  8.959983E+04  7.953766E+03
       105   6  6.070270E+03 -3.282074E+05  2.124904E+04 -6.131673E+05  7.977409E+04 -3.531476E+03
       105   7 -6.248255E+05 -2.991672E+06 -6.004827E+05 -5.843689E+05  3.084714E+04 -1.225818E+05
       105   8 -4.706749E+05 -2.320166E+06 -3.871623E+05 -5.152856E+05  8.980564E+04 -2.938650E+04
       105   9 -3.116198E+05 -1.660193E+06 -2.336073E+05 -6.099690E+05  7.942593E+04  6.366586E+04
       105  10  6.971906E+05  2.340099E+06  6.733730E+05 -6.417944E+05  1.092682E-09 -2.377500E-08
       105  11  4.898299E+05  1.660430E+06  4.319042E+05 -5.472299E+05 -6.550799E-10  1.527636E-08
       105  12  3.236498E+05  1.005493E+06  2.760202E+05 -6.163650E+05 -1.789233E-09  5.356931E-08
       105  13  3.643623E+04 -3.290548E+05  3.668041E+04 -6.130234E+05  1.644956E-09  1.938632E-09
       105  14  9.697698E+03 -3.317507E+05  2.246879E+04 -5.312336E+05 -5.516979E-09 -2.455407E-09
       105  15  6.063435E+03 -3.282091E+05  2.123706E+04 -6.131670E+05 -8.588788E-09  9.104269E-10
       105  16 -6.248306E+05 -2.991688E+06 -6.005128E+05 -5.843658E+05 -2.324680E-10  2.170042E-08
       105  17 -4.706837E+05 -2.320169E+06 -3.871791E+05 -5.152834E+05  3.895656E-09 -1.624803E-08
       105  18 -3.116277E+05 -1.660199E+06 -2.336268E+05 -6.099731E+05 -7.618915E-10 -5.288450E-08
       105  19  6.971986E+05  2.340128E+06  6.734236E+05 -6.417906E+05 -2.952606E+04 -1.615746E+05
       105  20  4.898390E+05  1.660434E+06  4.319231E+05 -5.472266E+05 -8.939250E+04 -4.541183E+04
       105  21  3.236580E+05  1.005500E+06  2.760416E+05 -6.163696E+05 -8.012249E+04  7.086988E+04
       105  22  3.643731E+04 -3.290541E+05  3.668282E+04 -6.130229E+05 -3.019233E+04 -1.919261E+04
       105  23  9.706335E+03 -3.317485E+05  2.248400E+04 -5.312330E+05 -8.959983E+04 -7.953766E+03
       105  24  6.070270E+03 -3.282074E+05  2.124904E+04 -6.131673E+05 -7.977409E+04  3.531476E+03
       105  25 -6.248255E+05 -2.991672E+06 -6.004827E+05 -5.843689E+05 -3.084714E+04  1.225818E+05
       105  26 -4.706749E+05 -2.320166E+06 -3.871623E+05 -5.152856E+05 -8.980564E+04  2.938650E+04
       105  27 -3.116198E+05 -1.660193E+06 -2.336073E+05 -6.099690E+05 -7.942593E+04 -6.366586E+04
       106   1  2.177191E+05  5.558359E+05  1.922819E+05 -6.197645E+05  5.329170E+04 -6.437641E+04
       106   2  5.797637E+04 -1.122045E+05  7.265330E+04 -5.304173E+05  1.531310E+04 -8.209728E+04
       106   3 -9.213588E+04 -7.769111E+05 -3.353131E+04 -6.088502E+05 -2.346182E+04 -9.981119E+04
       106   4  6.967191E+03 -3.288012E+05  2.325492E+04 -6.140531E+05  5.298307E+04 -7.384203E+03
       106   5  6.418978E+03 -3.300949E+05  3.278848E+04 -5.301413E+05  1.499376E+04 -2.392473E+04
       106   6  1.531551E+04 -3.287021E+05  5.494001E+04 -6.140080E+05 -2.379281E+04 -4.047622E+04
       106   7 -2.038290E+05 -1.212678E+06 -1.457954E+05 -6.083487E+05  5.267521E+04  4.952876E+04
       106   8 -4.513929E+04 -5.479320E+05 -7.065544E+03 -5.298653E+05  1.467441E+04  3.422795E+04
       106   9  1.227567E+05  1.197070E+05  1.434147E+05 -6.191692E+05 -2.412465E+04  1.890073E+04
       106  10  2.177150E+05  5.558307E+05  1.922688E+05 -6.197617E+05 -2.188391E-09 -2.229681E-08
       106  11  5.797431E+04 -1.122118E+05  7.264020E+04 -5.304163E+05  5.581290E-10 -1.595392E-08
       106  12 -9.213915E+04 -7.769220E+05 -3.355110E+04 -6.088521E+05  5.848851E-10 -2.058404E-09
       106  13  6.964164E+03 -3.288020E+05  2.324955E+04 -6.140528E+05 -1.053550E-08  2.415445E-09
       106  14  6.418583E+03 -3.300956E+05  3.278699E+04 -5.301410E+05 -9.465227E-09 -2.830456E-09
       106  15  1.531446E+04 -3.287040E+05  5.493586E+04 -6.140088E+05 -2.394984E-09  1.024691E-09
       106  16 -2.038327E+05 -1.212681E+06 -1.458052E+05 -6.083508E+05 -4.306395E-11  1.972866E-08
       106  17 -4.513983E+04 -5.479333E+05 -7.068155E+03 -5.298657E+05 -2.425027E-09  1.401462E-08
       106  18  1.227559E+05  1.197065E+05  1.434130E+05 -6.191688E+05  4.370180E-10  2.350039E-09
       106  19  2.177191E+05  5.558359E+05  1.922819E+05 -6.197645E+05 -5.329170E+04  6.437641E+04
       106  20  5.797637E+04 -1.122045E+05  7.265330E+04 -5.304173E+05 -1.531310E+04  8.209728E+04
       106  21 -9.213588E+04 -7.769111E+05 -3.353131E+04 -6.088502E+05  2.346182E+04  9.981119E+04
       106  22  6.967191E+03 -3.288012E+05  2.325492E+04 -6.140531E+05 -5.298307E+04  7.384203E+03
       106  23  6.418978E+03 -3.300949E+05  3.278848E+04 -5.301413E+05 -1.499376E+04  2.392473E+04
       106  24  1.531551E+04 -3.287021E+05  5.494001E+04 -6.140080E+05  2.379281E+04  4.047622E+04
       106  25 -2.038290E+05 -1.212678E+06 -1.457954E+05 -6.083487E+05 -5.267521E+04 -4.952876E+04
       106  26 -4.513929E+04 -5.479320E+05 -7.065544E+03 -5.298653E+05 -1.467441E+04 -3.422795E+04
       106  27  1.227567E+05  1.197070E+05  1.434147E+05 -6.191692E+05  2.412465E+04 -1.890073E+04
       107   1 -2.060007E+05 -1.215663E+06 -1.034831E+05 -6.284704E+05 -5.038822E+04 -1.178157E+05
       107   2 -3.309344E+05 -1.895933E+06 -1.986057E+05 -4.651847E+05 -6.616415E+04 -9.386359E+04
       107   3 -3.193308E+05 -2.545980E+06 -2.755299E+05 -4.661095E+05 -2.323638E+04 -6.970355E+04
       107   4  7.988445E+03 -3.194100E+05  7.047078E+04 -6.133653E+05 -5.076068E+04 -5.002037E+04
       107   5  4.565143E+04 -3.422429E+05  1.248531E+05 -5.307614E+05 -6.603473E+04 -1.147467E+05
       107   6  2.350551E+05 -3.200330E+05  2.589760E+05 -6.122614E+05 -2.267844E+04 -1.792444E+05
       107   7  2.219331E+05  5.776259E+05  2.444043E+05 -5.982366E+05 -5.112952E+04  1.787084E+04
       107   8  4.220983E+05  1.213747E+06  4.481828E+05 -5.965017E+05 -6.590110E+04 -1.356811E+05
       107   9  7.891629E+05  1.910533E+06  7.931853E+05 -7.589338E+05 -2.206999E+04 -2.891768E+05
       107  10 -2.060072E+05 -1.215678E+06 -1.035140E+05 -6.284752E+05  1.800123E-09  1.543405E-09
       107  11 -3.309415E+05 -1.895944E+06 -1.986306E+05 -4.651897E+05  5.133308E-09 -1.217582E-09
       107  12 -3.193327E+05 -2.545985E+06 -2.755401E+05 -4.661108E+05  1.717173E-09 -2.212487E-09
       107  13  7.985003E+03 -3.194134E+05  7.046122E+04 -6.133674E+05  2.815181E-09  2.527311E-09
       107  14  4.564320E+04 -3.422582E+05  1.248201E+05 -5.307675E+05 -3.257380E-09 -2.100728E-09
       107  15  2.350459E+05 -3.200676E+05  2.589146E+05 -6.122647E+05  1.145432E-09  7.681171E-10
       107  16  2.219302E+05  5.776249E+05  2.443988E+05 -5.982359E+05  4.377874E-10 -3.673090E-09
       107  17  4.220887E+05  1.213726E+06  4.481401E+05 -5.965089E+05  3.154021E-09 -3.580855E-10
       107  18  7.891400E+05  1.910443E+06  7.930276E+05 -7.589390E+05  1.860278E-09  2.353659E-09
       107  19 -2.060007E+05 -1.215663E+06 -1.034831E+05 -6.284704E+05  5.038822E+04  1.178157E+05
       107  20 -3.309344E+05 -1.895933E+06 -1.986057E+05 -4.651847E+05  6.616415E+04  9.386359E+04
       107  21 -3.193308E+05 -2.545980E+06 -2.755299E+05 -4.661095E+05  2.323638E+04  6.970355E+04
       107  22  7.988445E+03 -3.194100E+05  7.047078E+04 -6.133653E+05  5.076068E+04  5.002037E+04
       107  23  4.565143E+04 -3.422429E+05  1.248531E+05 -5.307614E+05  6.603473E+04  1.147467E+05
       107  24  2.350551E+05 -3.200330E+05  2.589760E+05 -6.122614E+05  2.267844E+04  1.792444E+05
       107  25  2.219331E+05  5.776259E+05  2.444043E+05 -5.982366E+05  5.112952E+04 -1.787084E+04
       107  26  4.220983E+05  1.213747E+06  4.481828E+05 -5.965017E+05  6.590110E+04  1.356811E+05
       107  27  7.891629E+05  1.910533E+06  7.931853E+05 -7.589338E+05  2.206999E+04  2.891768E+05
       108   1 -2.442076E+06 -9.500289E+05 -5.525648E+05 -8.239708E+05 -1.356359E+05 -9.400946E+03
       108   2 -2.280347E+06 -9.120394E+05 -4.524005E+05 -7.655929E+05 -9.198744E+04  1.034920E+05
       108   3 -2.089922E+06 -8.832438E+05 -4.023926E+05 -7.500254E+05 -2.374611E+04  1.515832E+05
       108   4 -3.864360E+04 -7.508331E+04  6.694176E+04 -1.956178E+05  2.915068E+04  5.295747E+04
       108   5 -6.568350E+04 -1.057020E+05  3.039033E+04 -1.642856E+05 -1.860931E+04  1.311756E+05
       108   6 -4.590225E+04 -1.274076E+05  1.633241E+04 -1.757600E+05 -4.184614E+04  1.447055E+05
       108   7  2.370403E+06  8.001348E+05  6.860734E+05  4.348970E+05  1.946358E+05  1.155590E+05
       108   8  2.153954E+06  7.009913E+05  5.129072E+05  4.389796E+05  5.505228E+04  1.589625E+05
       108   9  2.002448E+06  6.288161E+05  4.348515E+05  4.002695E+05 -6.001086E+04  1.378032E+05
       108  10 -2.442096E+06 -9.500339E+05 -5.525997E+05 -8.239718E+05 -1.171056E-09  6.335672E-10
       108  11 -2.280359E+06 -9.120532E+05 -4.524366E+05 -7.655852E+05 -1.740604E-09  1.858421E-09
       108  12 -2.089929E+06 -8.832686E+05 -4.024368E+05 -7.500225E+05  7.521233E-10  1.317510E-09
       108  13 -3.864526E+04 -7.508655E+04  6.693489E+04 -1.956190E+05  2.008932E-09  1.548604E-09
       108  14 -6.568849E+04 -1.057206E+05  3.035734E+04 -1.642837E+05  2.367627E-09 -2.376882E-09
       108  15 -4.590975E+04 -1.274306E+05  1.628977E+04 -1.757551E+05  8.961983E-09  2.218879E-09
       108  16  2.370359E+06  8.001104E+05  6.859775E+05  4.348790E+05  2.269831E-09 -7.029153E-10
       108  17  2.153944E+06  7.009634E+05  5.128541E+05  4.389726E+05  3.148610E-09 -3.751235E-09
       108  18  2.002439E+06  6.287947E+05  4.348091E+05  4.002762E+05  1.463525E-09 -4.243264E-10
       108  19 -2.442076E+06 -9.500289E+05 -5.525648E+05 -8.239708E+05  1.356359E+05  9.400946E+03
       108  20 -2.280347E+06 -9.120394E+05 -4.524005E+05 -7.655929E+05  9.198744E+04 -1.034920E+05
       108  21 -2.089922E+06 -8.832438E+05 -4.023926E+05 -7.500254E+05  2.374611E+04 -1.515832E+05
       108  22 -3.864360E+04 -7.508331E+04  6.694176E+04 -1.956178E+05 -2.915068E+04 -5.295747E+04
       108  23 -6.568350E+04 -1.057020E+05  3.039033E+04 -1.642856E+05  1.860931E+04 -1.311756E+05
       108  24 -4.590225E+04 -1.274076E+05  1.633241E+04 -1.757600E+05  4.184614E+04 -1.447055E+05
       108  25  2.370403E+06  8.001348E+05  6.860734E+05  4.348970E+05 -1.946358E+05 -1.155590E+05
       108  26  2.153954E+06  7.009913E+05  5.129072E+05  4.389796E+05 -5.505228E+04 -1.589625E+05
       108  27  2.002448E+06  6.288161E+05  4.348515E+05  4.002695E+05  6.001086E+04 -1.378032E+05
       109   1 -1.980885E+06 -8.350840E+05 -3.822595E+05 -7.154303E+05 -3.548946E+04  1.386687E+05
       109   2 -1.832215E+06 -7.588930E+05 -3.487563E+05 -6.509948E+05 -3.027367E+04  1.337020E+05
       109   3 -1.650801E+06 -7.143434E+05 -3.170930E+05 -6.234874E+05 -2.342767E+04  1.243601E+05
       109   4 -4.722356E+04 -1.260634E+05  1.245996E+04 -1.782203E+05 -4.093539E+04  1.365712E+05
       109   5 -6.420044E+04 -1.116288E+05  6.509616E+03 -1.594206E+05 -4.189929E+04  1.292860E+05
       109   6 -4.724170E+04 -1.276068E+05  3.619719E+03 -1.775516E+05 -4.123631E+04  1.176321E+05
       109   7  1.890289E+06  5.832790E+05  4.069893E+05  3.605382E+05 -4.639976E+04  1.344669E+05
       109   8  1.707037E+06  5.359059E+05  3.616217E+05  3.334487E+05 -5.356062E+04  1.248567E+05
       109   9  1.558963E+06  4.593510E+05  3.242063E+05  2.694483E+05 -5.909437E+04  1.108856E+05
       109  10 -1.980891E+06 -8.351050E+05 -3.822980E+05 -7.154263E+05  7.051284E-09  2.830453E-09
       109  11 -1.832221E+06 -7.589124E+05 -3.487916E+05 -6.509915E+05  3.876570E-09  1.242776E-09
       109  12 -1.650806E+06 -7.143602E+05 -3.171231E+05 -6.234850E+05  6.947282E-10  9.618071E-11
       109  13 -4.723037E+04 -1.260838E+05  1.242177E+04 -1.782158E+05  9.076415E-09 -5.425505E-10
       109  14 -6.420681E+04 -1.116472E+05  6.474908E+03 -1.594162E+05  5.620018E-09 -1.772948E-09
       109  15 -4.724724E+04 -1.276221E+05  3.590523E+03 -1.775477E+05  1.546492E-09 -2.562035E-10
       109  16  1.890282E+06  5.832590E+05  4.069513E+05  3.605432E+05  4.169074E-10  1.156875E-09
       109  17  1.707029E+06  5.358884E+05  3.615870E+05  3.334541E+05 -7.115129E-10  3.514899E-10
       109  18  1.558956E+06  4.593369E+05  3.241767E+05  2.694536E+05  3.071763E-10  7.883030E-10
       109  19 -1.980885E+06 -8.350840E+05 -3.822595E+05 -7.154303E+05  3.548946E+04 -1.386687E+05
       109  20 -1.832215E+06 -7.588930E+05 -3.487563E+05 -6.509948E+05  3.027367E+04 -1.337020E+05
       109  21 -1.650801E+06 -7.143434E+05 -3.170930E+05 -6.234874E+05  2.342767E+04 -1.243601E+05
       109  22 -4.722356E+04 -1.260634E+05  1.245996E+04 -1.782203E+05  4.093539E+04 -1.365712E+05
       109  23 -6.420044E+04 -1.116288E+05  6.509616E+03 -1.594206E+05  4.189929E+04 -1.292860E+05
       109  24 -4.724170E+04 -1.276068E+05  3.619719E+03 -1.775516E+05  4.123631E+04 -1.176321E+05
       109  25  1.890289E+06  5.832790E+05  4.069893E+05  3.605382E+05  4.639976E+04 -1.344669E+05
       109  26  1.707037E+06  5.359059E+05  3.616217E+05  3.334487E+05  5.356062E+04 -1.248567E+05
       109  27  1.558963E+06  4.593510E+05  3.242063E+05  2.694483E+05  5.909437E+04 -1.108856E+05
       110   1 -1.538655E+06 -6.725349E+05 -2.945779E+05 -5.920644E+05 -2.200990E+04  1.165109E+05
       110   2 -1.389980E+06 -5.955448E+05 -2.629130E+05 -5.274225E+05 -1.771304E+04  1.042364E+05
       110   3 -1.208433E+06 -5.509404E+05 -2.309349E+05 -4.998023E+05 -1.332000E+04  9.165816E+04
       110   4 -4.732663E+04 -1.274991E+05  2.702856E+03 -1.777428E+05 -3.897630E+04  1.101079E+05
       110   5 -6.368314E+04 -1.111620E+05  1.436061E+03 -1.592652E+05 -3.510830E+04  9.768425E+04
       110   6 -4.712100E+04 -1.271257E+05  8.167956E+02 -1.778161E+05 -3.114421E+04  8.495726E+04
       110   7  1.446315E+06  4.177368E+05  2.998823E+05  2.375048E+05 -5.598673E+04  1.036884E+05
       110   8  1.264439E+06  3.733770E+05  2.657042E+05  2.096225E+05 -5.254365E+04  9.111705E+04
       110   9  1.115586E+06  2.968066E+05  2.325054E+05  1.447281E+05 -4.900430E+04  7.824292E+04
       110  10 -1.538659E+06 -6.725496E+05 -2.946043E+05 -5.920623E+05  3.510649E-09  4.685041E-10
       110  11 -1.389983E+06 -5.955566E+05 -2.629340E+05 -5.274210E+05  3.232230E-09 -7.998320E-10
       110  12 -1.208435E+06 -5.509495E+05 -2.309510E+05 -4.998014E+05 -1.751687E-09 -3.601099E-11
       110  13 -4.733152E+04 -1.275125E+05  2.677220E+03 -1.777393E+05  3.372042E-10 -4.085312E-10
       110  14 -6.368702E+04 -1.111726E+05  1.415814E+03 -1.592624E+05 -6.374116E-12 -4.953906E-10
       110  15 -4.712398E+04 -1.271337E+05  8.014105E+02 -1.778140E+05  5.932937E-10  3.337933E-10
       110  16  1.446309E+06  4.177244E+05  2.998562E+05  2.375095E+05 -2.025914E-09 -8.657286E-10
       110  17  1.264434E+06  3.733674E+05  2.656834E+05  2.096264E+05  9.400838E-10 -2.393039E-10
       110  18  1.115581E+06  2.967993E+05  2.324894E+05  1.447312E+05  3.096478E-09  4.694377E-10
       110  19 -1.538655E+06 -6.725349E+05 -2.945779E+05 -5.920644E+05  2.200990E+04 -1.165109E+05
       110  20 -1.389980E+06 -5.955448E+05 -2.629130E+05 -5.274225E+05  1.771304E+04 -1.042364E+05
       110  21 -1.208433E+06 -5.509404E+05 -2.309349E+05 -4.998023E+05  1.332000E+04 -9.165816E+04
       110  22 -4.732663E+04 -1.274991E+05  2.702856E+03 -1.777428E+05  3.897630E+04 -1.101079E+05
       110  23 -6.368314E+04 -1.111620E+05  1.436061E+03 -1.592652E+05  3.510830E+04 -9.768425E+04
       110  24 -4.712100E+04 -1.271257E+05  8.167956E+02 -1.778161E+05  3.114421E+04 -8.495726E+04
       110  25  1.446315E+06  4.177368E+05  2.998823E+05  2.375048E+05  5.598673E+04 -1.036884E+05
       110  26  1.264439E+06  3.733770E+05  2.657042E+05  2.096225E+05  5.254365E+04 -9.111705E+04
       110  27  1.115586E+06  2.968066E+05  2.325054E+05  1.447281E+05  4.900430E+04 -7.824292E+04
       111   1 -1.095910E+06 -5.095376E+05 -2.077492E+05 -4.685995E+05 -1.073003E+04  8.425152E+04
       111   2 -9.467456E+05 -4.327757E+05 -1.755347E+05 -4.040364E+05 -6.115926E+03  7.162069E+04
       111   3 -7.649233E+05 -3.884369E+05 -1.431923E+05 -3.766345E+05 -1.504285E+03  5.896390E+04
       111   4 -4.711862E+04 -1.270705E+05  5.974496E+02 -1.778542E+05 -2.850520E+04  7.757516E+04
       111   5 -6.336768E+04 -1.107189E+05  2.966301E+02 -1.593020E+05 -2.392759E+04  6.493883E+04
       111   6 -4.698259E+04 -1.267840E+05  1.496376E+02 -1.779198E+05 -1.935242E+04  5.227658E+04
       111   7  1.002802E+06  2.554893E+05  2.088911E+05  1.133438E+05 -4.631251E+04  7.088676E+04
       111   8  8.208174E+05  2.114059E+05  1.760922E+05  8.575478E+04 -4.176650E+04  5.824677E+04
       111   9  6.714970E+05  1.349158E+05  1.434699E+05  2.100926E+04 -3.722288E+04  4.558090E+04
       111  10 -1.095912E+06 -5.095453E+05 -2.077627E+05 -4.685988E+05 -1.127068E-09  1.135797E-09
       111  11 -9.467470E+05 -4.327812E+05 -1.755444E+05 -4.040360E+05  3.183700E-09  1.011923E-09
       111  12 -7.649243E+05 -3.884406E+05 -1.431989E+05 -3.766345E+05  7.558278E-10 -8.279966E-10
       111  13 -4.712110E+04 -1.270772E+05  5.846149E+02 -1.778524E+05  1.798288E-09  1.147252E-09
       111  14 -6.336942E+04 -1.107235E+05  2.876302E+02 -1.593008E+05  8.653703E-10  8.385298E-10
       111  15 -4.698372E+04 -1.267870E+05  1.437987E+02 -1.779190E+05 -2.950829E-09 -2.943910E-09
       111  16  1.002799E+06  2.554834E+05  2.088776E+05  1.133464E+05  2.494290E-09  1.089899E-09
       111  17  8.208147E+05  2.114018E+05  1.760825E+05  8.575674E+04 -1.643732E-09  2.373818E-10
       111  18  6.714949E+05  1.349132E+05  1.434634E+05  2.101063E+04 -9.670083E-09 -4.598784E-09
       111  19 -1.095910E+06 -5.095376E+05 -2.077492E+05 -4.685995E+05  1.073003E+04 -8.425152E+04
       111  20 -9.467456E+05 -4.327757E+05 -1.755347E+05 -4.040364E+05  6.115926E+03 -7.162069E+04
       111  21 -7.649233E+05 -3.884369E+05 -1.431923E+05 -3.766345E+05  1.504285E+03 -5.896390E+04
       111  22 -4.711862E+04 -1.270705E+05  5.974496E+02 -1.778542E+05  2.850520E+04 -7.757516E+04
       111  23 -6.336768E+04 -1.107189E+05  2.966301E+02 -1.593020E+05  2.392759E+04 -6.493883E+04
       111  24 -4.698259E+04 -1.267840E+05  1.496376E+02 -1.779198E+05  1.935242E+04 -5.227658E+04
       111  25  1.002802E+06  2.554893E+05  2.088911E+05  1.133438E+05  4.631251E+04 -7.088676E+04
       111  26  8.208174E+05  2.114059E+05  1.760922E+05  8.575478E+04  4.176650E+04 -5.824677E+04
       111  27  6.714970E+05  1.349158E+05  1.434699E+05  2.100926E+04  3.722288E+04 -4.558090E+04
       112   1 -6.521821E+05 -3.471322E+05 -1.198472E+05 -3.454903E+05  1.230342E+03  5.160916E+04
       112   2 -5.027047E+05 -2.705317E+05 -8.746673E+04 -2.809666E+05  5.970372E+03  3.899535E+04
       112   3 -3.207047E+05 -2.263685E+05 -5.508426E+04 -2.536833E+05  1.070264E+04  2.638567E+04
       112   4 -4.697561E+04 -1.267512E+05  8.010429E+01 -1.779370E+05 -1.662135E+04  4.492417E+04
       112   5 -6.318629E+04 -1.104597E+05 -3.922587E+01 -1.593284E+05 -1.187633E+04  3.231628E+04
       112   6 -4.690576E+04 -1.266076E+05 -1.621511E+02 -1.779692E+05 -7.139100E+03  1.971261E+04
       112   7  5.586101E+05  9.366168E+04  1.199915E+05 -1.023249E+04 -3.449172E+04  3.823217E+04
       112   8  3.765304E+05  4.962846E+04  8.737994E+04 -3.761084E+04 -2.973652E+04  2.563216E+04
       112   9  2.269688E+05 -2.684089E+04  5.475704E+04 -1.022247E+05 -2.498914E+04  1.303645E+04
       112  10 -6.521828E+05 -3.471351E+05 -1.198522E+05 -3.454904E+05 -9.084258E-09 -3.878648E-09
       112  11 -5.027051E+05 -2.705334E+05 -8.746965E+04 -2.809668E+05  5.878542E-09  2.314519E-09
       112  12 -3.207050E+05 -2.263693E+05 -5.508578E+04 -2.536835E+05  7.139706E-09  2.489197E-09
       112  13 -4.697645E+04 -1.267535E+05  7.579291E+01 -1.779364E+05 -2.359694E-10 -2.200454E-09
       112  14 -6.318672E+04 -1.104609E+05 -4.145327E+01 -1.593281E+05  8.684227E-09  1.824127E-09
       112  15 -4.690591E+04 -1.266080E+05 -1.629771E+02 -1.779691E+05  3.613534E-09  1.046331E-09
       112  16  5.586084E+05  9.365979E+04  1.199865E+05 -1.023143E+04  5.758939E-09 -2.537675E-11
       112  17  3.765292E+05  4.962752E+04  8.737704E+04 -3.761022E+04  9.964143E-09  8.997696E-10
       112  18  2.269681E+05 -2.684124E+04  5.475554E+04 -1.022244E+05  5.642245E-10 -7.300343E-10
       112  19 -6.521821E+05 -3.471322E+05 -1.198472E+05 -3.454903E+05 -1.230342E+03 -5.160916E+04
       112  20 -5.027047E+05 -2.705317E+05 -8.746673E+04 -2.809666E+05 -5.970372E+03 -3.899535E+04
       112  21 -3.207047E+05 -2.263685E+05 -5.508426E+04 -2.536833E+05 -1.070264E+04 -2.638567E+04
       112  22 -4.697561E+04 -1.267512E+05  8.010429E+01 -1.779370E+05  1.662135E+04 -4.492417E+04
       112  23 -6.318629E+04 -1.104597E+05 -3.922587E+01 -1.593284E+05  1.187633E+04 -3.231628E+04
       112  24 -4.690576E+04 -1.266076E+05 -1.621511E+02 -1.779692E+05  7.139100E+03 -1.971261E+04
       112  25  5.586101E+05  9.366168E+04  1.199915E+05 -1.023249E+04  3.449172E+04 -3.823217E+04
       112  26  3.765304E+05  4.962846E+04  8.737994E+04 -3.761084E+04  2.973652E+04 -2.563216E+04
       112  27  2.269688E+05 -2.684089E+04  5.475704E+04 -1.022247E+05  2.498914E+04 -1.303645E+04
       113   1 -2.078290E+05 -1.851110E+05 -3.174796E+04 -2.225522E+05  1.351339E+04  1.905894E+04
       113   2 -5.821037E+04 -1.085995E+05  5.578159E+02 -1.580223E+05  1.827493E+04  6.522977E+03
       113   3  1.238812E+05 -6.451792E+04  3.281986E+04 -1.307541E+05  2.298614E+04 -5.878650E+03
       113   4 -4.691330E+04 -1.265956E+05 -2.487648E+02 -1.779778E+05 -4.357269E+03  1.237627E+04
       113   5 -6.311574E+04 -1.103666E+05 -5.022283E+02 -1.593381E+05  5.918466E+02 -8.966944E+01
       113   6 -4.691498E+04 -1.266093E+05 -9.499571E+02 -1.779726E+05  5.490588E+03 -1.242119E+04
       113   7  1.140313E+05 -6.807714E+04  3.125101E+04 -1.333921E+05 -2.223305E+04  5.691685E+03
       113   8 -6.802041E+04 -1.121335E+05 -1.560940E+03 -1.606536E+05 -1.709116E+04 -6.702290E+03
       113   9 -2.176804E+05 -1.886979E+05 -3.471984E+04 -2.251789E+05 -1.199981E+04 -1.896181E+04
       113  10 -2.078293E+05 -1.851115E+05 -3.174899E+04 -2.225524E+05 -4.099321E-10  3.715339E-10
       113  11 -5.821074E+04 -1.085996E+05  5.571082E+02 -1.580224E+05 -1.659651E-09  2.445272E-09
       113  12  1.238806E+05 -6.451809E+04  3.281881E+04 -1.307540E+05  1.567954E-09  1.726300E-09
       113  13 -4.691337E+04 -1.265958E+05 -2.490882E+02 -1.779777E+05  1.355931E-10 -7.084376E-10
       113  14 -6.311574E+04 -1.103666E+05 -5.022289E+02 -1.593381E+05  2.804463E-09 -1.047332E-09
       113  15 -4.691505E+04 -1.266095E+05 -9.503036E+02 -1.779725E+05  6.991270E-09  1.254454E-09
       113  16  1.140307E+05 -6.807731E+04  3.125002E+04 -1.333920E+05  1.124386E-09  1.450181E-10
       113  17 -6.802074E+04 -1.121336E+05 -1.561573E+03 -1.606537E+05  3.720837E-09 -5.560372E-10
       113  18 -2.176806E+05 -1.886983E+05 -3.472079E+04 -2.251791E+05  2.259195E-09  4.726415E-10
       113  19 -2.078290E+05 -1.851110E+05 -3.174796E+04 -2.225522E+05 -1.351339E+04 -1.905894E+04
       113  20 -5.821037E+04 -1.085995E+05  5.578159E+02 -1.580223E+05 -1.827493E+04 -6.522977E+03
       113  21  1.238812E+05 -6.451792E+04  3.281986E+04 -1.307541E+05 -2.298614E+04  5.878650E+03
       113  22 -4.691330E+04 -1.265956E+05 -2.487648E+02 -1.779778E+05  4.357269E+03 -1.237627E+04
       113  23 -6.311574E+04 -1.103666E+05 -5.022283E+02 -1.593381E+05 -5.918466E+02  8.966944E+01
       113  24 -4.691498E+04 -1.266093E+05 -9.499571E+02 -1.779726E+05 -5.490588E+03  1.242119E+04
       113  25  1.140313E+05 -6.807714E+04  3.125101E+04 -1.333921E+05  2.223305E+04 -5.691685E+03
       113  26 -6.802041E+04 -1.121335E+05 -1.560940E+03 -1.606536E+05  1.709116E+04  6.702290E+03
       113  27 -2.176804E+05 -1.886979E+05 -3.471984E+04 -2.251789E+05  1.199981E+04  1.896181E+04
       114   1  2.368804E+05 -2.327148E+04  5.593611E+04 -9.965656E+04  2.630531E+04 -1.301622E+04
       114   2  3.862721E+05  5.332559E+04  8.831988E+04 -3.497641E+04  2.901155E+04 -2.526252E+04
       114   3  5.682716E+05  9.753652E+04  1.219135E+05 -7.328680E+03  3.097348E+04 -3.550868E+04
       114   4 -4.699202E+04 -1.265742E+05 -1.271709E+03 -1.779798E+05  8.417183E+03 -1.970679E+04
       114   5 -6.308737E+04 -1.105320E+05 -2.348140E+03 -1.593059E+05  1.395281E+04 -3.089866E+04
       114   6 -4.716190E+04 -1.274399E+05 -4.454628E+03 -1.776771E+05  1.874427E+04 -4.008940E+04
       114   7 -3.307785E+05 -2.298689E+05 -5.848148E+04 -2.562692E+05 -9.462020E+03 -2.639404E+04
       114   8 -5.122386E+05 -2.743722E+05 -9.302516E+04 -2.835523E+05 -1.094242E+03 -3.653042E+04
       114   9 -6.622119E+05 -3.523862E+05 -1.308431E+05 -3.478712E+05  6.527988E+03 -4.466527E+04
       114  10  2.368796E+05 -2.327185E+04  5.593449E+04 -9.965629E+04  4.021222E-09  9.556579E-10
       114  11  3.862711E+05  5.332468E+04  8.831710E+04 -3.497582E+04  2.217489E-09 -1.763616E-10
       114  12  5.682703E+05  9.753491E+04  1.219093E+05 -7.327795E+03  2.322706E-09  1.251304E-11
       114  13 -4.699220E+04 -1.265746E+05 -1.272572E+03 -1.779797E+05  8.365781E-09  1.294604E-09
       114  14 -6.308783E+04 -1.105331E+05 -2.350300E+03 -1.593056E+05  6.035039E-09  8.748613E-10
       114  15 -4.716271E+04 -1.274417E+05 -4.458308E+03 -1.776765E+05  1.281177E-09  2.362082E-11
       114  16 -3.307787E+05 -2.298697E+05 -5.848296E+04 -2.562694E+05  1.698083E-09  2.012735E-09
       114  17 -5.122390E+05 -2.743736E+05 -9.302767E+04 -2.835523E+05 -8.280849E-10  1.451048E-09
       114  18 -6.622125E+05 -3.523884E+05 -1.308469E+05 -3.478710E+05 -1.305289E-10  1.690036E-10
       114  19  2.368804E+05 -2.327148E+04  5.593611E+04 -9.965656E+04 -2.630531E+04  1.301622E+04
       114  20  3.862721E+05  5.332559E+04  8.831988E+04 -3.497641E+04 -2.901155E+04  2.526252E+04
       114  21  5.682716E+05  9.753652E+04  1.219135E+05 -7.328680E+03 -3.097348E+04  3.550868E+04
       114  22 -4.699202E+04 -1.265742E+05 -1.271709E+03 -1.779798E+05 -8.417183E+03  1.970679E+04
       114  23 -6.308737E+04 -1.105320E+05 -2.348140E+03 -1.593059E+05 -1.395281E+04  3.089866E+04
       114  24 -4.716190E+04 -1.274399E+05 -4.454628E+03 -1.776771E+05 -1.874427E+04  4.008940E+04
       114  25 -3.307785E+05 -2.298689E+05 -5.848148E+04 -2.562692E+05  9.462020E+03  2.639404E+04
       114  26 -5.122386E+05 -2.743722E+05 -9.302516E+04 -2.835523E+05  1.094242E+03  3.653042E+04
       114  27 -6.622119E+05 -3.523862E+05 -1.308431E+05 -3.478712E+05 -6.527988E+03  4.466527E+04
       115   1  6.829085E+05  1.387304E+05  1.442499E+05  2.230806E+04  4.023633E+04 -4.046842E+04
       115   2  8.267132E+05  2.180213E+05  1.861026E+05  9.146385E+04  3.171275E+03 -5.195404E+04
       115   3  1.004328E+06  2.612788E+05  2.533450E+05  1.283587E+05 -4.503206E+04 -3.378296E+04
       115   4 -4.816627E+04 -1.265307E+05 -5.826905E+03 -1.779223E+05  2.218208E+04 -4.723257E+04
       115   5 -6.226981E+04 -1.137299E+05 -1.093960E+04 -1.582936E+05  2.716323E+04 -4.297359E+04
       115   6 -5.091050E+04 -1.452973E+05 -2.394738E+04 -1.709405E+05  2.100931E+04 -9.031795E+03
       115   7 -7.786965E+05 -3.917501E+05 -1.559310E+05 -3.779371E+05  4.150585E+03 -5.398834E+04
       115   8 -9.504415E+05 -4.454086E+05 -2.080249E+05 -4.077177E+05  5.111776E+04 -3.400763E+04
       115   9 -1.105027E+06 -5.517716E+05 -3.013070E+05 -4.697630E+05  8.692569E+04  1.566950E+04
       115  10  6.829064E+05  1.387282E+05  1.442438E+05  2.230937E+04  1.857993E-09 -2.968640E-10
       115  11  8.267125E+05  2.180184E+05  1.860975E+05  9.146398E+04  1.341107E-09 -6.537869E-10
       115  12  1.004326E+06  2.612770E+05  2.533391E+05  1.283575E+05  4.098790E-10 -6.148436E-10
       115  13 -4.816739E+04 -1.265332E+05 -5.832021E+03 -1.779215E+05  1.341855E-10 -1.413237E-10
       115  14 -6.227110E+04 -1.137320E+05 -1.094446E+04 -1.582927E+05 -1.767745E-09 -5.219949E-10
       115  15 -5.091100E+04 -1.452975E+05 -2.394836E+04 -1.709404E+05  9.105178E-10 -3.231662E-10
       115  16 -7.786973E+05 -3.917532E+05 -1.559365E+05 -3.779369E+05 -7.320715E-10 -1.369072E-09
       115  17 -9.504446E+05 -4.454105E+05 -2.080320E+05 -4.077163E+05  9.231397E-10 -9.390716E-10
       115  18 -1.105035E+06 -5.517739E+05 -3.013216E+05 -4.697641E+05  7.530317E-10 -1.746109E-11
       115  19  6.829085E+05  1.387304E+05  1.442499E+05  2.230806E+04 -4.023633E+04  4.046842E+04
       115  20  8.267132E+05  2.180213E+05  1.861026E+05  9.146385E+04 -3.171275E+03  5.195404E+04
       115  21  1.004328E+06  2.612788E+05  2.533450E+05  1.283587E+05  4.503206E+04  3.378296E+04
       115  22 -4.816627E+04 -1.265307E+05 -5.826905E+03 -1.779223E+05 -2.218208E+04  4.723257E+04
       115  23 -6.226981E+04 -1.137299E+05 -1.093960E+04 -1.582936E+05 -2.716323E+04  4.297359E+04
       115  24 -5.091050E+04 -1.452973E+05 -2.394738E+04 -1.709405E+05 -2.100931E+04  9.031795E+03
       115  25 -7.786965E+05 -3.917501E+05 -1.559310E+05 -3.779371E+05 -4.150585E+03  5.398834E+04
       115  26 -9.504415E+05 -4.454086E+05 -2.080249E+05 -4.077177E+05 -5.111776E+04  3.400763E+04
       115  27 -1.105027E+06 -5.517716E+05 -3.013070E+05 -4.697630E+05 -8.692569E+04 -1.566950E+04
       116   1 -9.249603E+04 -4.740866E+04 -4.193886E+04 -3.399061E+04 -8.751782E+03  3.353074E+03
       116   2 -5.697664E+04 -5.004140E+04 -3.229081E+04 -3.848333E+04 -1.074673E+03  1.114887E+04
       116   3 -2.076977E+04 -4.595462E+04 -2.596103E+04 -4.831952E+04  6.604207E+03  1.316341E+04
       116   4  1.902681E+05  2.223671E+04  2.355927E+04 -4.910370E+04  1.663865E+04  3.355549E+03
       116   5  1.887374E+05  7.932087E+03  1.188694E+04 -4.643157E+04  1.058061E+04  1.114924E+04
       116   6  1.902758E+05  2.729547E+03  6.433481E+03 -4.910248E+04  4.523754E+03  1.316291E+04
       116   7  4.731080E+05  9.187767E+04  8.905460E+04 -6.422371E+04  4.204056E+04  3.356787E+03
       116   8  4.345106E+05  6.590251E+04  5.606289E+04 -5.438305E+04  2.224038E+04  1.114931E+04
       116   9  4.013659E+05  5.141157E+04  3.882703E+04 -4.988571E+04  2.442622E+03  1.316241E+04
       116  10 -9.249612E+04 -4.740869E+04 -4.193902E+04 -3.399059E+04  9.919718E-10 -8.094077E-11
       116  11 -5.697668E+04 -5.004153E+04 -3.229105E+04 -3.848332E+04 -1.497208E-09 -3.053736E-10
       116  12 -2.076987E+04 -4.595482E+04 -2.596144E+04 -4.831959E+04 -4.147207E-10 -4.585201E-10
       116  13  1.902678E+05  2.223663E+04  2.355873E+04 -4.910374E+04  6.151483E-11  4.668553E-11
       116  14  1.887372E+05  7.931923E+03  1.188649E+04 -4.643167E+04  4.557443E-11 -1.000377E-10
       116  15  1.902757E+05  2.729355E+03  6.433117E+03 -4.910253E+04  3.230270E-10 -5.060924E-11
       116  16  4.731061E+05  9.187718E+04  8.905126E+04 -6.422382E+04 -1.437365E-09  1.008185E-10
       116  17  4.345100E+05  6.590225E+04  5.606173E+04 -5.438325E+04  1.258962E-09  1.636365E-10
       116  18  4.013658E+05  5.141138E+04  3.882669E+04 -4.988574E+04  1.654150E-09  5.898567E-10
       116  19 -9.249603E+04 -4.740866E+04 -4.193886E+04 -3.399061E+04  8.751782E+03 -3.353074E+03
       116  20 -5.697664E+04 -5.004140E+04 -3.229081E+04 -3.848333E+04  1.074673E+03 -1.114887E+04
       116  21 -2.076977E+04 -4.595462E+04 -2.596103E+04 -4.831952E+04 -6.604207E+03 -1.316341E+04
       116  22  1.902681E+05  2.223671E+04  2.355927E+04 -4.910370E+04 -1.663865E+04 -3.355549E+03
       116  23  1.887374E+05  7.932087E+03  1.188694E+04 -4.643157E+04 -1.058061E+04 -1.114924E+04
       116  24  1.902758E+05  2.729547E+03  6.433481E+03 -4.910248E+04 -4.523754E+03 -1.316291E+04
       116  25  4.731080E+05  9.187767E+04  8.905460E+04 -6.422371E+04 -4.204056E+04 -3.356787E+03
       116  26  4.345106E+05  6.590251E+04  5.606289E+04 -5.438305E+04 -2.224038E+04 -1.114931E+04
       116  27  4.013659E+05  5.141157E+04  3.882703E+04 -4.988571E+04 -2.442622E+03 -1.316241E+04
       117   1  1.159885E+03 -4.130185E+04 -2.316112E+04 -4.803630E+04  6.191173E+03  1.238968E+04
       117   2  3.693830E+04 -3.410694E+04 -1.860600E+04 -4.575058E+04  6.732761E+03  1.094846E+04
       117   3  7.279600E+04 -2.632901E+04 -1.425695E+04 -4.923696E+04  7.274291E+03  8.733310E+03
       117   4  1.896836E+05  1.991083E+03  4.799562E+03 -4.919802E+04  3.687099E+03  1.238926E+04
       117   5  1.894870E+05  6.382513E+02  2.590290E+03 -4.631204E+04  2.389421E+03  1.094819E+04
       117   6  1.896875E+05  1.876397E+02  1.451862E+03 -4.919803E+04  1.091658E+03  8.733300E+03
       117   7  3.782430E+05  4.528236E+04  3.275961E+04 -5.036011E+04  1.182294E+03  1.238885E+04
       117   8  3.420593E+05  3.538242E+04  2.378637E+04 -4.687365E+04 -1.954939E+03  1.094794E+04
       117   9  3.065930E+05  2.670372E+04  1.716069E+04 -4.915909E+04 -5.092085E+03  8.733289E+03
       117  10  1.159802E+03 -4.130203E+04 -2.316148E+04 -4.803636E+04  1.492871E-09 -7.159259E-10
       117  11  3.693822E+04 -3.410708E+04 -1.860631E+04 -4.575064E+04  1.261591E-09 -1.404626E-09
       117  12  7.279592E+04 -2.632910E+04 -1.425719E+04 -4.923701E+04  1.680369E-09 -1.718380E-09
       117  13  1.896835E+05  1.990914E+03  4.799248E+03 -4.919806E+04  1.155841E-09 -1.587038E-10
       117  14  1.894869E+05  6.381211E+02  2.590054E+03 -4.631206E+04  2.248560E-09 -9.688331E-10
       117  15  1.896875E+05  1.875575E+02  1.451716E+03 -4.919804E+04 -7.373599E-10 -1.061448E-09
       117  16  3.782429E+05  4.528219E+04  3.275932E+04 -5.036012E+04  9.347071E-11  2.536577E-10
       117  17  3.420593E+05  3.538229E+04  2.378614E+04 -4.687363E+04  3.813596E-10 -5.904696E-10
       117  18  3.065930E+05  2.670363E+04  1.716050E+04 -4.915905E+04 -1.199562E-10 -3.676356E-10
       117  19  1.159885E+03 -4.130185E+04 -2.316112E+04 -4.803630E+04 -6.191173E+03 -1.238968E+04
       117  20  3.693830E+04 -3.410694E+04 -1.860600E+04 -4.575058E+04 -6.732761E+03 -1.094846E+04
       117  21  7.279600E+04 -2.632901E+04 -1.425695E+04 -4.923696E+04 -7.274291E+03 -8.733310E+03
       117  22  1.896836E+05  1.991083E+03  4.799562E+03 -4.919802E+04 -3.687099E+03 -1.238926E+04
       117  23  1.894870E+05  6.382513E+02  2.590290E+03 -4.631204E+04 -2.389421E+03 -1.094819E+04
       117  24  1.896875E+05  1.876397E+02  1.451862E+03 -4.919803E+04 -1.091658E+03 -8.733300E+03
       117  25  3.782430E+05  4.528236E+04  3.275961E+04 -5.036011E+04 -1.182294E+03 -1.238885E+04
       117  26  3.420593E+05  3.538242E+04  2.378637E+04 -4.687365E+04  1.954939E+03 -1.094794E+04
       117  27  3.065930E+05  2.670372E+04  1.716069E+04 -4.915909E+04  5.092085E+03 -8.733289E+03
       118   1  9.488577E+04 -2.132391E+04 -1.147164E+04 -4.918802E+04  7.117060E+03  7.183675E+03
       118   2  1.306860E+05 -1.330507E+04 -7.138188E+03 -4.630177E+04  7.058463E+03  4.506413E+03
       118   3  1.665061E+05 -5.244651E+03 -2.755964E+03 -4.924427E+04  6.999787E+03  1.725931E+03
       118   4  1.896139E+05  1.317761E+02  1.093843E+03 -4.921065E+04  8.777986E+02  7.183772E+03
       118   5  1.895837E+05  2.242990E+01  6.121868E+02 -4.629630E+04  5.737413E+02  4.506622E+03
       118   6  1.896154E+05 -2.585237E+00  3.497569E+02 -4.921066E+04  2.696122E+02  1.726256E+03
       118   7  2.843512E+05  2.158710E+04  1.365940E+04 -4.923328E+04 -5.362370E+03  7.183869E+03
       118   8  2.484852E+05  1.334980E+04  8.362696E+03 -4.629082E+04 -5.911566E+03  4.506831E+03
       118   9  2.127253E+05  5.239482E+03  3.455644E+03 -4.917705E+04 -6.460801E+03  1.726580E+03
       118  10  9.488570E+04 -2.132398E+04 -1.147183E+04 -4.918806E+04 -1.217780E-08 -1.517901E-09
       118  11  1.306859E+05 -1.330510E+04 -7.138320E+03 -4.630180E+04  2.302282E-08 -4.359035E-10
       118  12  1.665060E+05 -5.244667E+03 -2.756062E+03 -4.924428E+04  5.515108E-08  1.179326E-09
       118  13  1.896139E+05  1.317205E+02  1.093744E+03 -4.921066E+04  1.010653E-09 -7.218420E-10
       118  14  1.895837E+05  2.240800E+01  6.121480E+02 -4.629630E+04  1.610277E-09  1.374863E-10
       118  15  1.896154E+05 -2.588457E+00  3.497511E+02 -4.921066E+04  6.660273E-10  1.308935E-09
       118  16  2.843512E+05  2.158704E+04  1.365925E+04 -4.923325E+04  1.098245E-08  7.989716E-11
       118  17  2.484851E+05  1.334977E+04  8.362592E+03 -4.629080E+04 -2.219179E-08  7.071421E-10
       118  18  2.127252E+05  5.239468E+03  3.455560E+03 -4.917704E+04 -5.497933E-08  1.405484E-09
       118  19  9.488577E+04 -2.132391E+04 -1.147164E+04 -4.918802E+04 -7.117060E+03 -7.183675E+03
       118  20  1.306860E+05 -1.330507E+04 -7.138188E+03 -4.630177E+04 -7.058463E+03 -4.506413E+03
       118  21  1.665061E+05 -5.244651E+03 -2.755964E+03 -4.924427E+04 -6.999787E+03 -1.725931E+03
       118  22  1.896139E+05  1.317761E+02  1.093843E+03 -4.921065E+04 -8.777986E+02 -7.183772E+03
       118  23  1.895837E+05  2.242990E+01  6.121868E+02 -4.629630E+04 -5.737413E+02 -4.506622E+03
       118  24  1.896154E+05 -2.585237E+00  3.497569E+02 -4.921066E+04 -2.696122E+02 -1.726256E+03
       118  25  2.843512E+05  2.158710E+04  1.365940E+04 -4.923328E+04  5.362370E+03 -7.183869E+03
       118  26  2.484852E+05  1.334980E+04  8.362696E+03 -4.629082E+04  5.911566E+03 -4.506831E+03
       118  27  2.127253E+05  5.239482E+03  3.455644E+03 -4.917705E+04  6.460801E+03 -1.726580E+03
       119   1  1.886123E+05 -2.289152E+02  1.307026E+02 -4.923446E+04  6.952757E+03  7.293174E+01
       119   2  2.244187E+05  7.838204E+03  4.574728E+03 -4.631071E+04  6.903830E+03 -2.767594E+03
       119   3  2.602347E+05  1.590724E+04  9.051496E+03 -4.922319E+04  6.854953E+03 -5.619138E+03
       119   4  1.896045E+05 -3.590930E+00  2.652668E+02 -4.921233E+04  2.151015E+02  7.326951E+01
       119   5  1.895979E+05 -8.766653E+00  1.522098E+02 -4.629421E+04  1.397471E+02 -2.767318E+03
       119   6  1.896036E+05 -7.567948E+00  8.994394E+01 -4.921234E+04  6.444441E+01 -5.618927E+03
       119   7  1.905968E+05  2.217576E+02  4.000017E+02 -4.919021E+04 -6.522564E+03  7.360680E+01
       119   8  1.547785E+05 -7.855762E+03 -4.270141E+03 -4.627771E+04 -6.623976E+03 -2.767043E+03
       119   9  1.189777E+05 -1.592255E+04 -8.871453E+03 -4.920148E+04 -6.725330E+03 -5.618717E+03
       119  10  1.886122E+05 -2.289282E+02  1.306117E+02 -4.923446E+04 -5.531981E-08  1.534827E-09
       119  11  2.244186E+05  7.838183E+03  4.574624E+03 -4.631070E+04 -2.396371E-08  1.038505E-09
       119  12  2.602347E+05  1.590719E+04  9.051349E+03 -4.922316E+04  1.154946E-08  9.160915E-10
       119  13  1.896045E+05 -3.590949E+00  2.652667E+02 -4.921233E+04 -1.068256E-09  1.504978E-09
       119  14  1.895979E+05 -8.774882E+00  1.521954E+02 -4.629421E+04 -5.775947E-10  1.028391E-09
       119  15  1.896036E+05 -7.601855E+00  8.988459E+01 -4.921234E+04 -1.665622E-09  7.272121E-10
       119  16  1.905967E+05  2.217462E+02  3.999217E+02 -4.919021E+04  5.587301E-08  1.467651E-09
       119  17  1.547784E+05 -7.855782E+03 -4.270237E+03 -4.627772E+04  2.090345E-08  1.002863E-09
       119  18  1.189777E+05 -1.592260E+04 -8.871597E+03 -4.920151E+04 -1.314959E-08  5.347549E-10
       119  19  1.886123E+05 -2.289152E+02  1.307026E+02 -4.923446E+04 -6.952757E+03 -7.293174E+01
       119  20  2.244187E+05  7.838204E+03  4.574728E+03 -4.631071E+04 -6.903830E+03  2.767594E+03
       119  21  2.602347E+05  1.590724E+04  9.051496E+03 -4.922319E+04 -6.854953E+03  5.619138E+03
       119  22  1.896045E+05 -3.590930E+00  2.652668E+02 -4.921233E+04 -2.151015E+02 -7.326951E+01
       119  23  1.895979E+05 -8.766653E+00  1.522098E+02 -4.629421E+04 -1.397471E+02  2.767318E+03
       119  24  1.896036E+05 -7.567948E+00  8.994394E+01 -4.921234E+04 -6.444441E+01  5.618927E+03
       119  25  1.905968E+05  2.217576E+02  4.000017E+02 -4.919021E+04  6.522564E+03 -7.360680E+01
       119  26  1.547785E+05 -7.855762E+03 -4.270141E+03 -4.627771E+04  6.623976E+03  2.767043E+03
       119  27  1.189777E+05 -1.592255E+04 -8.871453E+03 -4.920148E+04  6.725330E+03  5.618717E+03
       120   1  2.823468E+05  2.091916E+04  1.198465E+04 -4.922037E+04  6.840180E+03 -7.283121E+03
       120   2  3.181572E+05  2.898670E+04  1.650625E+04 -4.629686E+04  6.771336E+03 -1.013009E+04
       120   3  3.539821E+05  3.706238E+04  2.107533E+04 -4.920979E+04  6.702678E+03 -1.295748E+04
       120   4  1.896013E+05 -7.675925E+00  7.029056E+01 -4.921239E+04  4.992950E+01 -7.283000E+03
       120   5  1.895972E+05 -9.770017E+00  4.553764E+01 -4.629414E+04  2.744189E+01 -1.013021E+04
       120   6  1.895982E+05 -1.174634E+01  3.595294E+01 -4.921239E+04  5.143285E+00 -1.295783E+04
       120   7  9.686476E+04 -2.093484E+04 -1.184393E+04 -4.920442E+04 -6.739356E+03 -7.282878E+03
       120   8  6.105423E+04 -2.900690E+04 -1.641508E+04 -4.629142E+04 -6.715125E+03 -1.013032E+04
       120   9  2.524205E+04 -3.708696E+04 -2.100337E+04 -4.921499E+04 -6.690705E+03 -1.295819E+04
       120  10  2.823468E+05  2.091909E+04  1.198446E+04 -4.922033E+04 -7.596748E-10  8.955739E-10
       120  11  3.181572E+05  2.898658E+04  1.650597E+04 -4.629681E+04 -2.930023E-09  5.104317E-10
       120  12  3.539820E+05  3.706219E+04  2.107493E+04 -4.920972E+04 -1.231536E-09 -2.571608E-10
       120  13  1.896013E+05 -7.732889E+00  7.019087E+01 -4.921239E+04  1.207719E-09  7.217349E-10
       120  14  1.895972E+05 -9.880224E+00  4.534478E+01 -4.629414E+04 -2.027711E-09  5.442970E-10
       120  15  1.895981E+05 -1.192666E+01  3.563738E+01 -4.921239E+04 -1.717607E-09 -2.288802E-10
       120  16  9.686470E+04 -2.093491E+04 -1.184412E+04 -4.920445E+04  1.186702E-09  5.247957E-10
       120  17  6.105416E+04 -2.900702E+04 -1.641536E+04 -4.629148E+04  4.983253E-10  4.844455E-10
       120  18  2.524195E+04 -3.708715E+04 -2.100377E+04 -4.921506E+04 -3.946216E-10 -2.541443E-10
       120  19  2.823468E+05  2.091916E+04  1.198465E+04 -4.922037E+04 -6.840180E+03  7.283121E+03
       120  20  3.181572E+05  2.898670E+04  1.650625E+04 -4.629686E+04 -6.771336E+03  1.013009E+04
       120  21  3.539821E+05  3.706238E+04  2.107533E+04 -4.920979E+04 -6.702678E+03  1.295748E+04
       120  22  1.896013E+05 -7.675925E+00  7.029056E+01 -4.921239E+04 -4.992950E+01  7.283000E+03
       120  23  1.895972E+05 -9.770017E+00  4.553764E+01 -4.629414E+04 -2.744189E+01  1.013021E+04
       120  24  1.895982E+05 -1.174634E+01  3.595294E+01 -4.921239E+04 -5.143285E+00  1.295783E+04
       120  25  9.686476E+04 -2.093484E+04 -1.184393E+04 -4.920442E+04  6.739356E+03  7.282878E+03
       120  26  6.105423E+04 -2.900690E+04 -1.641508E+04 -4.629142E+04  6.715125E+03  1.013032E+04
       120  27  2.524205E+04 -3.708696E+04 -2.100337E+04 -4.921499E+04  6.690705E+03  1.295819E+04
       121   1  3.761109E+05  4.208168E+04  2.406106E+04 -4.920412E+04  6.685231E+03 -1.460183E+04
       121   2  4.119022E+05  5.017803E+04  2.878644E+04 -4.628438E+04  6.282259E+03 -1.733408E+04
       121   3  4.477690E+05  5.834448E+04  3.379285E+04 -4.919117E+04  5.879563E+03 -1.990547E+04
       121   4  1.895975E+05 -1.367956E+01  3.543910E+01 -4.921021E+04 -1.162515E+00 -1.460238E+04
       121   5  1.895905E+05 -1.734192E+01  4.217547E+01 -4.629687E+04 -2.185665E+01 -1.733501E+04
       121   6  1.895920E+05 -1.708082E+01  6.465003E+01 -4.921021E+04 -4.225891E+01 -1.990675E+04
       121   7  3.119776E+03 -4.211045E+04 -2.399018E+04 -4.921629E+04 -6.685646E+03 -1.460292E+04
       121   8 -3.267049E+04 -5.021475E+04 -2.870220E+04 -4.630937E+04 -6.323825E+03 -1.733593E+04
       121   9 -6.851678E+04 -5.838141E+04 -3.366383E+04 -4.922923E+04 -5.961737E+03 -1.990803E+04
       121  10  3.761108E+05  4.208144E+04  2.406057E+04 -4.920404E+04  1.385505E-09 -7.599635E-10
       121  11  4.119021E+05  5.017770E+04  2.878580E+04 -4.628429E+04 -1.407959E-10 -1.594340E-09
       121  12  4.477689E+05  5.834404E+04  3.379204E+04 -4.919108E+04 -3.139369E-09 -1.443577E-09
       121  13  1.895974E+05 -1.390855E+01  3.503836E+01 -4.921021E+04 -2.154037E-09 -7.182906E-10
       121  14  1.895904E+05 -1.766464E+01  4.161072E+01 -4.629688E+04 -1.702552E-09 -1.034597E-09
       121  15  1.895919E+05 -1.750639E+01  6.390527E+01 -4.921021E+04 -1.505794E-09 -7.344343E-10
       121  16  3.119670E+03 -4.211069E+04 -2.399067E+04 -4.921637E+04 -2.807381E-10 -7.031911E-10
       121  17 -3.267062E+04 -5.021508E+04 -2.870284E+04 -4.630946E+04 -3.526961E-09 -5.671874E-10
       121  18 -6.851692E+04 -5.838185E+04 -3.366464E+04 -4.922932E+04  8.578362E-10  1.464352E-10
       121  19  3.761109E+05  4.208168E+04  2.406106E+04 -4.920412E+04 -6.685231E+03  1.460183E+04
       121  20  4.119022E+05  5.017803E+04  2.878644E+04 -4.628438E+04 -6.282259E+03  1.733408E+04
       121  21  4.477690E+05  5.834448E+04  3.379285E+04 -4.919117E+04 -5.879563E+03  1.990547E+04
       121  22  1.895975E+05 -1.367956E+01  3.543910E+01 -4.921021E+04  1.162515E+00  1.460238E+04
       121  23  1.895905E+05 -1.734192E+01  4.217547E+01 -4.629687E+04  2.185665E+01  1.733501E+04
       121  24  1.895920E+05 -1.708082E+01  6.465003E+01 -4.921021E+04  4.225891E+01  1.990675E+04
       121  25  3.119776E+03 -4.211045E+04 -2.399018E+04 -4.921629E+04  6.685646E+03  1.460292E+04
       121  26 -3.267049E+04 -5.021475E+04 -2.870220E+04 -4.630937E+04  6.323825E+03  1.733593E+04
       121  27 -6.851678E+04 -5.838141E+04 -3.366383E+04 -4.922923E+04  5.961737E+03  1.990803E+04
       122   1  4.699847E+05  6.343547E+04  3.706700E+04 -4.916180E+04  5.779754E+03 -2.138861E+04
       122   2  5.055717E+05  7.177652E+04  4.315835E+04 -4.631236E+04  2.844401E+03 -2.324031E+04
       122   3  5.416877E+05  8.066382E+04  5.129871E+04 -4.919938E+04 -9.114324E+01 -2.388708E+04
       122   4  1.895946E+05 -1.743517E+01  8.295797E+01 -4.919020E+04 -5.443194E+01 -2.139014E+04
       122   5  1.895757E+05  1.044227E-01  1.421258E+02 -4.632189E+04 -1.249175E+02 -2.324192E+04
       122   6  1.895870E+05  6.677448E+01  2.617362E+02 -4.919021E+04 -1.953892E+02 -2.388845E+04
       122   7 -9.071508E+04 -6.347365E+04 -3.690151E+04 -4.921858E+04 -5.886109E+03 -2.139168E+04
       122   8 -1.263188E+05 -7.178064E+04 -4.287508E+04 -4.633140E+04 -3.092794E+03 -2.324353E+04
       122   9 -1.623888E+05 -8.053597E+04 -5.077726E+04 -4.918104E+04 -2.995785E+02 -2.388981E+04
       122  10  4.699845E+05  6.343497E+04  3.706607E+04 -4.916170E+04 -1.746579E-09 -8.760407E-10
       122  11  5.055715E+05  7.177594E+04  4.315732E+04 -4.631231E+04 -2.041638E-10 -8.965717E-11
       122  12  5.416876E+05  8.066321E+04  5.129764E+04 -4.919938E+04  1.347042E-09 -4.097871E-10
       122  13  1.895945E+05 -1.792653E+01  8.209808E+01 -4.919020E+04  1.057654E-11 -3.594598E-10
       122  14  1.895755E+05 -4.756999E-01  1.411105E+02 -4.632189E+04  5.077263E-10 -2.052021E-10
       122  15  1.895868E+05  6.616163E+01  2.606636E+02 -4.919021E+04 -1.307578E-09 -5.456892E-10
       122  16 -9.071524E+04 -6.347415E+04 -3.690244E+04 -4.921868E+04  1.818522E-09  2.448333E-10
       122  17 -1.263190E+05 -7.178123E+04 -4.287611E+04 -4.633146E+04 -2.567465E-09  1.317524E-10
       122  18 -1.623890E+05 -8.053658E+04 -5.077833E+04 -4.918105E+04 -2.253454E-09 -5.199821E-10
       122  19  4.699847E+05  6.343547E+04  3.706700E+04 -4.916180E+04 -5.779754E+03  2.138861E+04
       122  20  5.055717E+05  7.177652E+04  4.315835E+04 -4.631236E+04 -2.844401E+03  2.324031E+04
       122  21  5.416877E+05  8.066382E+04  5.129871E+04 -4.919938E+04  9.114324E+01  2.388708E+04
       122  22  1.895946E+05 -1.743517E+01  8.295797E+01 -4.919020E+04  5.443194E+01  2.139014E+04
       122  23  1.895757E+05  1.044227E-01  1.421258E+02 -4.632189E+04  1.249175E+02  2.324192E+04
       122  24  1.895870E+05  6.677448E+01  2.617362E+02 -4.919021E+04  1.953892E+02  2.388845E+04
       122  25 -9.071508E+04 -6.347365E+04 -3.690151E+04 -4.921858E+04  5.886109E+03  2.139168E+04
       122  26 -1.263188E+05 -7.178064E+04 -4.287508E+04 -4.633140E+04  3.092794E+03  2.324353E+04
       122  27 -1.623888E+05 -8.053597E+04 -5.077726E+04 -4.918104E+04  2.995785E+02  2.388981E+04
       123   1  5.644967E+05  8.630616E+04  5.665309E+04 -4.901884E+04 -7.961694E+02 -2.416216E+04
       123   2  5.984735E+05  9.656315E+04  7.278451E+04 -4.686161E+04 -2.252672E+04 -1.943277E+04
       123   3  6.363458E+05  1.110371E+05  1.041120E+05 -4.977155E+04 -4.426308E+04 -5.702457E+03
       123   4  1.896177E+05  1.033053E+02  3.505354E+02 -4.904136E+04 -2.410801E+02 -2.416347E+04
       123   5  1.895221E+05  3.831848E+02  6.443420E+02 -4.650801E+04 -5.671702E+02 -1.942827E+04
       123   6  1.896082E+05  1.167123E+03  1.278310E+03 -4.904160E+04 -8.974429E+02 -5.689452E+03
       123   7 -1.851204E+05 -8.610621E+04 -5.595480E+04 -4.906386E+04  3.136878E+02 -2.416477E+04
       123   8 -2.192648E+05 -9.580568E+04 -7.150015E+04 -4.615466E+04  2.137835E+04 -1.942375E+04
       123   9 -2.569410E+05 -1.087158E+05 -1.015615E+05 -4.831219E+04  4.243727E+04 -5.676342E+03
       123  10  5.644965E+05  8.630553E+04  5.665199E+04 -4.901886E+04 -1.851365E-09 -4.954568E-10
       123  11  5.984728E+05  9.656261E+04  7.278285E+04 -4.686197E+04  4.776080E-10 -1.997269E-10
       123  12  6.363437E+05  1.110366E+05  1.041082E+05 -4.977175E+04  8.889926E-10  6.231636E-11
       123  13  1.896175E+05  1.026783E+02  3.494380E+02 -4.904136E+04 -2.006810E-10 -1.382675E-09
       123  14  1.895220E+05  3.827794E+02  6.436320E+02 -4.650802E+04  2.314036E-09  8.323033E-10
       123  15  1.896082E+05  1.167088E+03  1.278247E+03 -4.904161E+04  1.733143E-10  1.471970E-10
       123  16 -1.851206E+05 -8.610684E+04 -5.595590E+04 -4.906386E+04  6.779289E-10 -6.392143E-10
       123  17 -2.192654E+05 -9.580620E+04 -7.150172E+04 -4.615432E+04  2.368004E-10  2.765003E-10
       123  18 -2.569429E+05 -1.087163E+05 -1.015649E+05 -4.831200E+04  5.736159E-10 -3.187918E-10
       123  19  5.644967E+05  8.630616E+04  5.665309E+04 -4.901884E+04  7.961694E+02  2.416216E+04
       123  20  5.984735E+05  9.656315E+04  7.278451E+04 -4.686161E+04  2.252672E+04  1.943277E+04
       123  21  6.363458E+05  1.110371E+05  1.041120E+05 -4.977155E+04  4.426308E+04  5.702457E+03
       123  22  1.896177E+05  1.033053E+02  3.505354E+02 -4.904136E+04  2.410801E+02  2.416347E+04
       123  23  1.895221E+05  3.831848E+02  6.443420E+02 -4.650801E+04  5.671702E+02  1.942827E+04
       123  24  1.896082E+05  1.167123E+03  1.278310E+03 -4.904160E+04  8.974429E+02  5.689452E+03
       123  25 -1.851204E+05 -8.610621E+04 -5.595480E+04 -4.906386E+04 -3.136878E+02  2.416477E+04
       123  26 -2.192648E+05 -9.580568E+04 -7.150015E+04 -4.615466E+04 -2.137835E+04  1.942375E+04
       123  27 -2.569410E+05 -1.087158E+05 -1.015615E+05 -4.831219E+04 -4.243727E+04  5.676342E+03
       124   1  9.964663E+04  4.826805E+05  9.559112E+04 -1.452750E+05  3.702055E+03  2.511698E+04
       124   2  6.772133E+04  3.661989E+05  5.641716E+04 -1.349253E+05  1.075051E+04  5.312032E+03
       124   3  3.980909E+04  2.533047E+05  3.113199E+04 -1.443129E+05  8.939799E+03 -1.449071E+04
       124   4  1.382858E+03  8.531895E+04  1.504269E+03 -1.442079E+05  3.712963E+03  3.297011E+02
       124   5  5.145575E+02  8.520215E+04  1.307947E+03 -1.343392E+05  1.075352E+04 -3.267780E+02
       124   6  3.384812E+02  8.534024E+04  1.710062E+03 -1.442083E+05  8.933100E+03 -9.844968E+02
       124   7 -9.689191E+04 -3.118963E+05 -9.259124E+04 -1.431415E+05  3.723791E+03 -2.444181E+04
       124   8 -6.669695E+04 -1.957189E+05 -5.380496E+04 -1.337534E+05  1.075653E+04 -5.963092E+03
       124   9 -3.913357E+04 -8.259624E+04 -2.771219E+04 -1.441038E+05  8.926404E+03  1.251817E+04
       124  10  9.964644E+04  4.826798E+05  9.558991E+04 -1.452751E+05 -1.751417E-09 -9.370335E-09
       124  11  6.772119E+04  3.661989E+05  5.641689E+04 -1.349254E+05 -4.174217E-09 -8.188609E-09
       124  12  3.980895E+04  2.533045E+05  3.113145E+04 -1.443128E+05 -5.550282E-09 -8.710262E-09
       124  13  1.382843E+03  8.531894E+04  1.504243E+03 -1.442079E+05 -1.120939E-09 -2.509638E-12
       124  14  5.144333E+02  8.520212E+04  1.307730E+03 -1.343392E+05 -5.930114E-09 -2.920887E-10
       124  15  3.383952E+02  8.534022E+04  1.709910E+03 -1.442083E+05 -5.084932E-09 -4.989571E-10
       124  16 -9.689208E+04 -3.118969E+05 -9.259239E+04 -1.431414E+05 -1.221500E-09  9.350840E-09
       124  17 -6.669709E+04 -1.957190E+05 -5.380524E+04 -1.337533E+05 -2.902880E-09  8.186520E-09
       124  18 -3.913370E+04 -8.259643E+04 -2.771264E+04 -1.441039E+05 -5.485657E-09  8.725330E-09
       124  19  9.964663E+04  4.826805E+05  9.559112E+04 -1.452750E+05 -3.702055E+03 -2.511698E+04
       124  20  6.772133E+04  3.661989E+05  5.641716E+04 -1.349253E+05 -1.075051E+04 -5.312032E+03
       124  21  3.980909E+04  2.533047E+05  3.113199E+04 -1.443129E+05 -8.939799E+03  1.449071E+04
       124  22  1.382858E+03  8.531895E+04  1.504269E+03 -1.442079E+05 -3.712963E+03 -3.297011E+02
       124  23  5.145575E+02  8.520215E+04  1.307947E+03 -1.343392E+05 -1.075352E+04  3.267780E+02
       124  24  3.384812E+02  8.534024E+04  1.710062E+03 -1.442083E+05 -8.933100E+03  9.844968E+02
       124  25 -9.689191E+04 -3.118963E+05 -9.259124E+04 -1.431415E+05 -3.723791E+03  2.444181E+04
       124  26 -6.669695E+04 -1.957189E+05 -5.380496E+04 -1.337534E+05 -1.075653E+04  5.963092E+03
       124  27 -3.913357E+04 -8.259624E+04 -2.771219E+04 -1.441038E+05 -8.926404E+03 -1.251817E+04
       125   1  2.289106E+04  1.811031E+05  1.914495E+04 -1.445593E+05  4.906395E+03 -1.493234E+04
       125   2 -3.622590E+03  6.625078E+04  6.909506E+02 -1.337043E+05 -1.353428E+03 -1.647880E+04
       125   3 -2.903143E+04 -4.812205E+04 -1.648407E+04 -1.431509E+05 -7.517813E+03 -1.802490E+04
       125   4  3.461419E+02  8.539868E+04  2.110823E+03 -1.443336E+05  4.899330E+03 -1.304155E+03
       125   5  7.185480E+02  8.514682E+04  3.499085E+03 -1.341825E+05 -1.360284E+03 -3.058067E+03
       125   6  2.232155E+03  8.539709E+04  6.309725E+03 -1.443328E+05 -7.524472E+03 -4.811887E+03
       125   7 -2.219918E+04 -1.029641E+04 -1.492295E+04 -1.441080E+05  4.892273E+03  1.232199E+04
       125   8  5.059767E+03  1.040436E+05  6.307889E+03 -1.346607E+05 -1.367160E+03  1.036306E+04
       125   9  3.349489E+04  2.189341E+05  2.910359E+04 -1.455149E+05 -7.531181E+03  8.403879E+03
       125  10  2.289097E+04  1.811029E+05  1.914449E+04 -1.445592E+05 -6.861811E-09 -3.519543E-08
       125  11 -3.622665E+03  6.625049E+04  6.904369E+02 -1.337043E+05 -1.080223E-08 -7.349020E-08
       125  12 -2.903158E+04 -4.812242E+04 -1.648479E+04 -1.431510E+05 -1.483314E-08 -1.025664E-07
       125  13  3.461156E+02  8.539867E+04  2.110775E+03 -1.443336E+05  1.420615E-09  1.414674E-11
       125  14  7.185435E+02  8.514681E+04  3.499064E+03 -1.341825E+05  1.822859E-08 -3.164869E-10
       125  15  2.232088E+03  8.539705E+04  6.309575E+03 -1.443328E+05  3.588507E-08 -4.771280E-10
       125  16 -2.219924E+04 -1.029658E+04 -1.492328E+04 -1.441081E+05 -5.805516E-09  3.518160E-08
       125  17  5.059736E+03  1.040435E+05  6.307684E+03 -1.346607E+05 -9.563173E-09  7.343808E-08
       125  18  3.349481E+04  2.189340E+05  2.910335E+04 -1.455148E+05 -1.621830E-08  1.026448E-07
       125  19  2.289106E+04  1.811031E+05  1.914495E+04 -1.445593E+05 -4.906395E+03  1.493234E+04
       125  20 -3.622590E+03  6.625078E+04  6.909506E+02 -1.337043E+05  1.353428E+03  1.647880E+04
       125  21 -2.903143E+04 -4.812205E+04 -1.648407E+04 -1.431509E+05  7.517813E+03  1.802490E+04
       125  22  3.461419E+02  8.539868E+04  2.110823E+03 -1.443336E+05 -4.899330E+03  1.304155E+03
       125  23  7.185480E+02  8.514682E+04  3.499085E+03 -1.341825E+05  1.360284E+03  3.058067E+03
       125  24  2.232155E+03  8.539709E+04  6.309725E+03 -1.443328E+05  7.524472E+03  4.811887E+03
       125  25 -2.219918E+04 -1.029641E+04 -1.492295E+04 -1.441080E+05 -4.892273E+03 -1.232199E+04
       125  26  5.059767E+03  1.040436E+05  6.307889E+03 -1.346607E+05  1.367160E+03 -1.036306E+04
       125  27  3.349489E+04  2.189341E+05  2.910359E+04 -1.455149E+05  7.531181E+03 -8.403879E+03
       126   1 -4.539608E+04 -1.195680E+05 -2.693292E+04 -1.439208E+05 -1.146438E+04 -1.897840E+04
       126   2 -6.683901E+04 -2.345584E+05 -4.642272E+04 -1.245844E+05 -1.269704E+04 -5.983172E+03
       126   3 -7.882304E+04 -3.488622E+05 -7.201049E+04 -1.249240E+05 -4.270462E+03  7.010705E+03
       126   4  2.829181E+03  8.623475E+04  8.383189E+03 -1.441937E+05 -1.147061E+04 -5.903603E+03
       126   5  9.265202E+03  8.407631E+04  1.538572E+04 -1.343519E+05 -1.269291E+04 -1.376797E+04
       126   6  2.877853E+04  8.620950E+04  3.077514E+04 -1.441837E+05 -4.258655E+03 -2.163110E+04
       126   7  5.105227E+04  2.920795E+05  4.369852E+04 -1.444667E+05 -1.147685E+04  7.175396E+03
       126   8  8.536374E+04  4.028089E+05  7.718966E+04 -1.441245E+05 -1.268853E+04 -2.155668E+04
       126   9  1.363684E+05  5.214579E+05  1.335510E+05 -1.634569E+05 -4.245075E+03 -5.029286E+04
       126  10 -4.539632E+04 -1.195684E+05 -2.693385E+04 -1.439210E+05 -1.557969E-08  2.551375E-08
       126  11 -6.683920E+04 -2.345585E+05 -4.642309E+04 -1.245844E+05 -7.788582E-09  6.366842E-08
       126  12 -7.882308E+04 -3.488623E+05 -7.201062E+04 -1.249240E+05 -1.443650E-09  9.001245E-08
       126  13  2.829030E+03  8.623467E+04  8.382876E+03 -1.441938E+05  3.769926E-08  7.463631E-12
       126  14  9.264978E+03  8.407607E+04  1.538506E+04 -1.343520E+05  2.039721E-08 -2.672406E-10
       126  15  2.877839E+04  8.620900E+04  3.077423E+04 -1.441838E+05  6.579590E-09 -3.170230E-10
       126  16  5.105211E+04  2.920794E+05  4.369817E+04 -1.444667E+05 -1.636598E-08 -2.543778E-08
       126  17  8.536344E+04  4.028084E+05  7.718848E+04 -1.441247E+05 -6.512292E-09 -6.368069E-08
       126  18  1.363677E+05  5.214551E+05  1.335462E+05 -1.634571E+05 -1.971320E-09 -9.001522E-08
       126  19 -4.539608E+04 -1.195680E+05 -2.693292E+04 -1.439208E+05  1.146438E+04  1.897840E+04
       126  20 -6.683901E+04 -2.345584E+05 -4.642272E+04 -1.245844E+05  1.269704E+04  5.983172E+03
       126  21 -7.882304E+04 -3.488622E+05 -7.201049E+04 -1.249240E+05  4.270462E+03 -7.010705E+03
       126  22  2.829181E+03  8.623475E+04  8.383189E+03 -1.441937E+05  1.147061E+04  5.903603E+03
       126  23  9.265202E+03  8.407631E+04  1.538572E+04 -1.343519E+05  1.269291E+04  1.376797E+04
       126  24  2.877853E+04  8.620950E+04  3.077514E+04 -1.441837E+05  4.258655E+03  2.163110E+04
       126  25  5.105227E+04  2.920795E+05  4.369852E+04 -1.444667E+05  1.147685E+04 -7.175396E+03
       126  26  8.536374E+04  4.028089E+05  7.718966E+04 -1.441245E+05  1.268853E+04  2.155668E+04
       126  27  1.363684E+05  5.214579E+05  1.335510E+05 -1.634569E+05  4.245075E+03  5.029286E+04
       127   1 -1.921990E+05 -1.085086E+05 -6.866146E+04 -8.108359E+04 -3.346382E+04 -1.071377E+04
       127   2 -1.803772E+05 -6.683634E+04 -3.947679E+04 -7.572559E+04 -2.093251E+04 -1.946815E+03
       127   3 -1.765348E+05 -5.084765E+04 -2.691409E+04 -6.765485E+04 -7.250326E+03  3.754541E+03
       127   4 -9.474116E+04 -5.331516E+04 -3.975434E+04 -3.525503E+04 -2.625151E+04 -8.009122E+03
       127   5 -8.899889E+04 -2.540022E+04 -1.813508E+04 -4.242687E+04 -1.805855E+04 -8.690247E+02
       127   6 -9.037521E+04 -2.230804E+04 -9.699159E+03 -4.688680E+04 -8.714977E+03  3.205064E+03
       127   7  2.725562E+03  1.882492E+03 -1.084828E+04  1.058061E+04 -1.903808E+04 -5.303504E+03
       127   8  2.387713E+03  1.603771E+04  3.206001E+03 -9.123358E+03 -1.518414E+04  2.090227E+02
       127   9 -4.207573E+03  6.232046E+03  7.515546E+03 -2.611612E+04 -1.017985E+04  2.655520E+03
       127  10 -1.922002E+05 -1.085091E+05 -6.866378E+04 -8.108387E+04  1.409913E-09  1.325195E-10
       127  11 -1.803777E+05 -6.683646E+04 -3.947762E+04 -7.572562E+04 -1.375425E-09 -9.456640E-10
       127  12 -1.765348E+05 -5.084768E+04 -2.691421E+04 -6.765483E+04  9.184905E-10 -9.491578E-10
       127  13 -9.474192E+04 -5.331541E+04 -3.975576E+04 -3.525520E+04 -2.003655E-09 -2.063365E-10
       127  14 -8.899924E+04 -2.540031E+04 -1.813569E+04 -4.242688E+04 -1.946134E-09 -6.514838E-10
       127  15 -9.037530E+04 -2.230807E+04 -9.699321E+03 -4.688678E+04 -1.647230E-09  7.434318E-10
       127  16  2.725165E+03  1.882365E+03 -1.084902E+04  1.058052E+04 -1.680398E-09 -9.837246E-10
       127  17  2.387465E+03  1.603765E+04  3.205568E+03 -9.123356E+03 -1.403131E-09 -2.301488E-11
       127  18 -4.207686E+03  6.232011E+03  7.515338E+03 -2.611610E+04  2.844997E-09  2.627238E-09
       127  19 -1.921990E+05 -1.085086E+05 -6.866146E+04 -8.108359E+04  3.346382E+04  1.071377E+04
       127  20 -1.803772E+05 -6.683634E+04 -3.947679E+04 -7.572559E+04  2.093251E+04  1.946815E+03
       127  21 -1.765348E+05 -5.084765E+04 -2.691409E+04 -6.765485E+04  7.250326E+03 -3.754541E+03
       127  22 -9.474116E+04 -5.331516E+04 -3.975434E+04 -3.525503E+04  2.625151E+04  8.009122E+03
       127  23 -8.899889E+04 -2.540022E+04 -1.813508E+04 -4.242687E+04  1.805855E+04  8.690247E+02
       127  24 -9.037521E+04 -2.230804E+04 -9.699159E+03 -4.688680E+04  8.714977E+03 -3.205064E+03
       127  25  2.725562E+03  1.882492E+03 -1.084828E+04  1.058061E+04  1.903808E+04  5.303504E+03
       127  26  2.387713E+03  1.603771E+04  3.206001E+03 -9.123358E+03  1.518414E+04 -2.090227E+02
       127  27 -4.207573E+03  6.232046E+03  7.515546E+03 -2.611612E+04  1.017985E+04 -2.655520E+03
       128   1 -1.635922E+05 -5.105850E+04 -2.270026E+04 -6.696997E+04 -6.505612E+03  3.350093E+03
       128   2 -1.512902E+05 -4.344326E+04 -1.624181E+04 -6.179946E+04 -3.975621E+03  3.485807E+03
       128   3 -1.370461E+05 -3.951285E+04 -1.174526E+04 -5.946356E+04 -1.368183E+03  3.415028E+03
       128   4 -8.917008E+04 -2.343499E+04 -7.411490E+03 -4.592929E+04 -7.369066E+03  3.026133E+03
       128   5 -9.008392E+04 -2.101095E+04 -3.915500E+03 -4.474086E+04 -5.131133E+03  3.052334E+03
       128   6 -8.899783E+04 -2.221386E+04 -2.149823E+03 -4.638712E+04 -2.815789E+03  2.872035E+03
       128   7 -1.474291E+04  4.188805E+03  7.876830E+03 -2.488643E+04 -8.232625E+03  2.702131E+03
       128   8 -2.887381E+04  1.421679E+03  8.410637E+03 -2.768070E+04 -6.286766E+03  2.618815E+03
       128   9 -4.094681E+04 -4.914528E+03  7.445615E+03 -3.330966E+04 -4.263526E+03  2.328994E+03
       128  10 -1.635922E+05 -5.105852E+04 -2.270036E+04 -6.696995E+04  4.859985E-09  1.351562E-09
       128  11 -1.512902E+05 -4.344327E+04 -1.624187E+04 -6.179945E+04 -9.880671E-09 -2.456506E-09
       128  12 -1.370461E+05 -3.951287E+04 -1.174528E+04 -5.946355E+04 -1.107635E-08 -1.372536E-09
       128  13 -8.917014E+04 -2.343501E+04 -7.411609E+03 -4.592927E+04 -5.410133E-09  8.489624E-11
       128  14 -9.008395E+04 -2.101097E+04 -3.915567E+03 -4.474085E+04 -1.032591E-08 -2.963186E-09
       128  15 -8.899784E+04 -2.221387E+04 -2.149854E+03 -4.638712E+04 -6.328073E-09 -1.158896E-09
       128  16 -1.474299E+04  4.188779E+03  7.876689E+03 -2.488642E+04 -8.584941E-09 -1.498535E-09
       128  17 -2.887386E+04  1.421661E+03  8.410550E+03 -2.768068E+04 -1.105201E-08 -2.695441E-09
       128  18 -4.094683E+04 -4.914538E+03  7.445571E+03 -3.330965E+04  2.195291E-09 -8.206462E-10
       128  19 -1.635922E+05 -5.105850E+04 -2.270026E+04 -6.696997E+04  6.505612E+03 -3.350093E+03
       128  20 -1.512902E+05 -4.344326E+04 -1.624181E+04 -6.179946E+04  3.975621E+03 -3.485807E+03
       128  21 -1.370461E+05 -3.951285E+04 -1.174526E+04 -5.946356E+04  1.368183E+03 -3.415028E+03
       128  22 -8.917008E+04 -2.343499E+04 -7.411490E+03 -4.592929E+04  7.369066E+03 -3.026133E+03
       128  23 -9.008392E+04 -2.101095E+04 -3.915500E+03 -4.474086E+04  5.131133E+03 -3.052334E+03
       128  24 -8.899783E+04 -2.221386E+04 -2.149823E+03 -4.638712E+04  2.815789E+03 -2.872035E+03
       128  25 -1.474291E+04  4.188805E+03  7.876830E+03 -2.488643E+04  8.232625E+03 -2.702131E+03
       128  26 -2.887381E+04  1.421679E+03  8.410637E+03 -2.768070E+04  6.286766E+03 -2.618815E+03
       128  27 -4.094681E+04 -4.914528E+03  7.445615E+03 -3.330966E+04  4.263526E+03 -2.328994E+03
       129   1 -1.276969E+05 -3.633210E+04 -9.315781E+03 -5.701456E+04 -8.834322E+02  2.918100E+03
       129   2 -1.155367E+05 -3.010241E+04 -5.934534E+03 -5.179977E+04 -4.442652E+01  2.090830E+03
       129   3 -1.008229E+05 -2.655779E+04 -2.910100E+03 -4.960833E+04  7.997742E+02  1.249608E+03
       129   4 -8.890995E+04 -2.226171E+04 -1.618145E+03 -4.633213E+04 -2.290676E+03  2.390263E+03
       129   5 -9.018686E+04 -2.090949E+04 -8.899132E+02 -4.482475E+04 -1.471386E+03  1.555618E+03
       129   6 -8.890643E+04 -2.223839E+04 -5.028397E+02 -4.634076E+04 -6.469141E+02  7.070197E+02
       129   7 -5.012145E+04 -8.191197E+03  6.079426E+03 -3.564908E+04 -3.698013E+03  1.862392E+03
       129   8 -6.483646E+04 -1.171656E+04  4.154655E+03 -3.784950E+04 -2.898401E+03  1.020385E+03
       129   9 -7.698990E+04 -1.791903E+04  1.904395E+03 -4.307316E+04 -2.093620E+03  1.644247E+02
       129  10 -1.276969E+05 -3.633211E+04 -9.315799E+03 -5.701456E+04 -1.095507E-09  1.584560E-09
       129  11 -1.155367E+05 -3.010242E+04 -5.934542E+03 -5.179977E+04 -1.722495E-09 -2.090493E-09
       129  12 -1.008229E+05 -2.655779E+04 -2.910104E+03 -4.960833E+04 -3.337066E-09 -1.739954E-09
       129  13 -8.890996E+04 -2.226172E+04 -1.618166E+03 -4.633212E+04 -1.933994E-09 -5.691335E-10
       129  14 -9.018686E+04 -2.090950E+04 -8.899218E+02 -4.482475E+04 -1.107453E-09 -1.593439E-09
       129  15 -8.890643E+04 -2.223839E+04 -5.028415E+02 -4.634076E+04  1.167978E-09 -8.036803E-10
       129  16 -5.012146E+04 -8.191205E+03  6.079393E+03 -3.564907E+04 -2.289440E-09 -2.626664E-09
       129  17 -6.483647E+04 -1.171656E+04  4.154637E+03 -3.784950E+04 -5.753242E-10 -1.069639E-09
       129  18 -7.698990E+04 -1.791903E+04  1.904386E+03 -4.307316E+04  3.105168E-09  1.538069E-10
       129  19 -1.276969E+05 -3.633210E+04 -9.315781E+03 -5.701456E+04  8.834322E+02 -2.918100E+03
       129  20 -1.155367E+05 -3.010241E+04 -5.934534E+03 -5.179977E+04  4.442652E+01 -2.090830E+03
       129  21 -1.008229E+05 -2.655779E+04 -2.910100E+03 -4.960833E+04 -7.997742E+02 -1.249608E+03
       129  22 -8.890995E+04 -2.226171E+04 -1.618145E+03 -4.633213E+04  2.290676E+03 -2.390263E+03
       129  23 -9.018686E+04 -2.090949E+04 -8.899132E+02 -4.482475E+04  1.471386E+03 -1.555618E+03
       129  24 -8.890643E+04 -2.223839E+04 -5.028397E+02 -4.634076E+04  6.469141E+02 -7.070197E+02
       129  25 -5.012145E+04 -8.191197E+03  6.079426E+03 -3.564908E+04  3.698013E+03 -1.862392E+03
       129  26 -6.483646E+04 -1.171656E+04  4.154655E+03 -3.784950E+04  2.898401E+03 -1.020385E+03
       129  27 -7.698990E+04 -1.791903E+04  1.904395E+03 -4.307316E+04  2.093620E+03 -1.644247E+02
       130   1 -9.166693E+04 -2.322235E+04 -8.980929E+02 -4.708370E+04  1.094125E+03  6.815299E+02
       130   2 -7.954560E+04 -1.702687E+04  1.878450E+03 -4.185693E+04  1.598939E+03 -2.932003E+02
       130   3 -6.480913E+04 -1.346700E+04  4.563833E+03 -3.964958E+04  2.104062E+03 -1.268736E+03
       130   4 -8.889531E+04 -2.224012E+04 -3.871873E+02 -4.633547E+04 -3.498736E+02  1.399534E+02
       130   5 -9.020310E+04 -2.092464E+04 -2.428393E+02 -4.482483E+04  1.537715E+02 -8.352269E+02
       130   6 -8.889600E+04 -2.224468E+04 -1.888204E+02 -4.633378E+04  6.577229E+02 -1.811211E+03
       130   7 -8.612365E+04 -2.125788E+04  1.237334E+02 -4.558724E+04 -1.793891E+03 -4.016300E+02
       130   8 -1.008605E+05 -2.482241E+04 -2.364138E+03 -4.779270E+04 -1.291375E+03 -1.377246E+03
       130   9 -1.129823E+05 -3.102232E+04 -4.941494E+03 -5.301775E+04 -7.885569E+02 -2.353664E+03
       130  10 -9.166693E+04 -2.322235E+04 -8.980960E+02 -4.708370E+04  1.791321E-10  4.923435E-10
       130  11 -7.954560E+04 -1.702687E+04  1.878445E+03 -4.185693E+04 -2.539700E-09 -2.480735E-10
       130  12 -6.480914E+04 -1.346700E+04  4.563821E+03 -3.964958E+04  4.550814E-10  1.699344E-10
       130  13 -8.889531E+04 -2.224012E+04 -3.871876E+02 -4.633547E+04 -8.360591E-10 -6.929423E-10
       130  14 -9.020310E+04 -2.092464E+04 -2.428407E+02 -4.482483E+04  2.762586E-10 -8.294106E-10
       130  15 -8.889600E+04 -2.224469E+04 -1.888274E+02 -4.633378E+04  6.512963E-09  1.251818E-09
       130  16 -8.612365E+04 -2.125789E+04  1.237271E+02 -4.558724E+04 -7.990421E-10 -1.841015E-09
       130  17 -1.008605E+05 -2.482241E+04 -2.364145E+03 -4.779270E+04  1.749972E-09 -1.385194E-09
       130  18 -1.129823E+05 -3.102232E+04 -4.941505E+03 -5.301775E+04  8.756177E-09  2.111932E-09
       130  19 -9.166693E+04 -2.322235E+04 -8.980929E+02 -4.708370E+04 -1.094125E+03 -6.815299E+02
       130  20 -7.954560E+04 -1.702687E+04  1.878450E+03 -4.185693E+04 -1.598939E+03  2.932003E+02
       130  21 -6.480913E+04 -1.346700E+04  4.563833E+03 -3.964958E+04 -2.104062E+03  1.268736E+03
       130  22 -8.889531E+04 -2.224012E+04 -3.871873E+02 -4.633547E+04  3.498736E+02 -1.399534E+02
       130  23 -9.020310E+04 -2.092464E+04 -2.428393E+02 -4.482483E+04 -1.537715E+02  8.352269E+02
       130  24 -8.889600E+04 -2.224468E+04 -1.888204E+02 -4.633378E+04 -6.577229E+02  1.811211E+03
       130  25 -8.612365E+04 -2.125788E+04  1.237334E+02 -4.558724E+04  1.793891E+03  4.016300E+02
       130  26 -1.008605E+05 -2.482241E+04 -2.364138E+03 -4.779270E+04  1.291375E+03  1.377246E+03
       130  27 -1.129823E+05 -3.102232E+04 -4.941494E+03 -5.301775E+04  7.885569E+02  2.353664E+03
       131   1 -5.567188E+04 -1.012449E+04  6.460967E+03 -3.712353E+04  2.358641E+03 -1.851643E+03
       131   2 -4.355258E+04 -3.925777E+03  9.043540E+03 -3.189816E+04  2.857121E+03 -2.829325E+03
       131   3 -2.881769E+04 -3.618608E+02  1.153987E+04 -2.969165E+04  3.355096E+03 -3.805559E+03
       131   4 -8.889622E+04 -2.224477E+04 -1.876236E+02 -4.633366E+04  9.122646E+02 -2.394144E+03
       131   5 -9.020365E+04 -2.092579E+04 -2.360524E+02 -4.482479E+04  1.412759E+03 -3.371103E+03
       131   6 -8.889606E+04 -2.224200E+04 -3.723130E+02 -4.633480E+04  1.912748E+03 -4.346618E+03
       131   7 -1.221191E+05 -3.436484E+04 -6.836183E+03 -5.554327E+04 -5.340170E+02 -2.936609E+03
       131   8 -1.368525E+05 -3.792562E+04 -9.515739E+03 -5.775052E+04 -3.148601E+01 -3.912837E+03
       131   9 -1.489712E+05 -4.412200E+04 -1.228479E+04 -6.297661E+04  4.705396E+02 -4.887626E+03
       131  10 -5.567189E+04 -1.012449E+04  6.460950E+03 -3.712353E+04  8.569798E-09  2.717826E-09
       131  11 -4.355259E+04 -3.925788E+03  9.043510E+03 -3.189815E+04  3.000361E-09 -8.406107E-11
       131  12 -2.881771E+04 -3.618794E+02  1.153982E+04 -2.969163E+04  4.412878E-09 -1.596243E-09
       131  13 -8.889622E+04 -2.224477E+04 -1.876360E+02 -4.633366E+04  6.029828E-09  1.362206E-09
       131  14 -9.020365E+04 -2.092581E+04 -2.360775E+02 -4.482478E+04  7.938162E-10 -8.424350E-10
       131  15 -8.889607E+04 -2.224202E+04 -3.723554E+02 -4.633480E+04  3.644451E-10 -2.006754E-09
       131  16 -1.221191E+05 -3.436485E+04 -6.836200E+03 -5.554327E+04  3.187047E-09 -1.841112E-11
       131  17 -1.368525E+05 -3.792564E+04 -9.515768E+03 -5.775052E+04 -2.228928E-09 -1.598679E-09
       131  18 -1.489712E+05 -4.412203E+04 -1.228483E+04 -6.297661E+04 -2.920693E-09 -2.121093E-09
       131  19 -5.567188E+04 -1.012449E+04  6.460967E+03 -3.712353E+04 -2.358641E+03  1.851643E+03
       131  20 -4.355258E+04 -3.925777E+03  9.043540E+03 -3.189816E+04 -2.857121E+03  2.829325E+03
       131  21 -2.881769E+04 -3.618608E+02  1.153987E+04 -2.969165E+04 -3.355096E+03  3.805559E+03
       131  22 -8.889622E+04 -2.224477E+04 -1.876236E+02 -4.633366E+04 -9.122646E+02  2.394144E+03
       131  23 -9.020365E+04 -2.092579E+04 -2.360524E+02 -4.482479E+04 -1.412759E+03  3.371103E+03
       131  24 -8.889606E+04 -2.224200E+04 -3.723130E+02 -4.633480E+04 -1.912748E+03  4.346618E+03
       131  25 -1.221191E+05 -3.436484E+04 -6.836183E+03 -5.554327E+04  5.340170E+02  2.936609E+03
       131  26 -1.368525E+05 -3.792562E+04 -9.515739E+03 -5.775052E+04  3.148601E+01  3.912837E+03
       131  27 -1.489712E+05 -4.412200E+04 -1.228479E+04 -6.297661E+04 -4.705396E+02  4.887626E+03
       132   1 -1.968735E+04  2.976537E+03  1.332547E+04 -2.717677E+04  3.653089E+03 -4.372016E+03
       132   2 -7.543260E+03  9.177150E+03  1.559563E+04 -2.195416E+04  4.427495E+03 -5.234899E+03
       132   3  7.165892E+03  1.270552E+04  1.756264E+04 -1.975259E+04  5.194114E+03 -6.076816E+03
       132   4 -8.890727E+04 -2.224047E+04 -4.823564E+02 -4.633961E+04  2.206831E+03 -4.914573E+03
       132   5 -9.018901E+04 -2.091328E+04 -8.515894E+02 -4.482480E+04  3.010838E+03 -5.766412E+03
       132   6 -8.891164E+04 -2.226425E+04 -1.547427E+03 -4.633114E+04  3.807044E+03 -6.597286E+03
       132   7 -1.581222E+05 -4.745706E+04 -1.429040E+04 -6.550047E+04  7.607469E+02 -5.457065E+03
       132   8 -1.728273E+05 -5.100299E+04 -1.729902E+04 -6.769253E+04  1.594389E+03 -6.297847E+03
       132   9 -1.849788E+05 -5.723291E+04 -2.065770E+04 -7.290567E+04  2.420217E+03 -7.117666E+03
       132  10 -1.968737E+04  2.976513E+03  1.332541E+04 -2.717676E+04 -1.169790E-08 -7.083551E-09
       132  11 -7.543289E+03  9.177115E+03  1.559554E+04 -2.195414E+04  7.429412E-09  1.558410E-10
       132  12  7.165853E+03  1.270548E+04  1.756252E+04 -1.975257E+04  3.505332E-08  9.316521E-09
       132  13 -8.890728E+04 -2.224050E+04 -4.824109E+02 -4.633960E+04 -6.194281E-10 -1.068835E-09
       132  14 -9.018902E+04 -2.091332E+04 -8.516689E+02 -4.482479E+04 -4.092491E-09  4.836882E-09
       132  15 -8.891167E+04 -2.226430E+04 -1.547536E+03 -4.633112E+04 -3.409660E-10  1.458979E-08
       132  16 -1.581222E+05 -4.745709E+04 -1.429046E+04 -6.550047E+04  6.186508E-09  5.259009E-10
       132  17 -1.728273E+05 -5.100304E+04 -1.729910E+04 -6.769252E+04 -1.518416E-08 -1.072901E-08
       132  18 -1.849788E+05 -5.723297E+04 -2.065780E+04 -7.290566E+04 -2.349613E-08 -1.510516E-08
       132  19 -1.968735E+04  2.976537E+03  1.332547E+04 -2.717677E+04 -3.653089E+03  4.372016E+03
       132  20 -7.543260E+03  9.177150E+03  1.559563E+04 -2.195416E+04 -4.427495E+03  5.234899E+03
       132  21  7.165892E+03  1.270552E+04  1.756264E+04 -1.975259E+04 -5.194114E+03  6.076816E+03
       132  22 -8.890727E+04 -2.224047E+04 -4.823564E+02 -4.633961E+04 -2.206831E+03  4.914573E+03
       132  23 -9.018901E+04 -2.091328E+04 -8.515894E+02 -4.482480E+04 -3.010838E+03  5.766412E+03
       132  24 -8.891164E+04 -2.226425E+04 -1.547427E+03 -4.633114E+04 -3.807044E+03  6.597286E+03
       132  25 -1.581222E+05 -4.745706E+04 -1.429040E+04 -6.550047E+04 -7.607469E+02  5.457065E+03
       132  26 -1.728273E+05 -5.100299E+04 -1.729902E+04 -6.769253E+04 -1.594389E+03  6.297847E+03
       132  27 -1.849788E+05 -5.723291E+04 -2.065770E+04 -7.290567E+04 -2.420217E+03  7.117666E+03
       133   1  1.633581E+04  1.598698E+04  1.895225E+04 -1.740179E+04  5.766396E+03 -6.540579E+03
       133   2  2.838917E+04  2.231588E+04  2.004304E+04 -1.180311E+04  7.538465E+03 -6.865599E+03
       133   3  4.255049E+04  2.515692E+04  1.982672E+04 -9.036868E+03  9.194715E+03 -6.881502E+03
       133   4 -8.899651E+04 -2.221721E+04 -2.055329E+03 -4.638165E+04  4.318977E+03 -7.083733E+03
       133   5 -9.008988E+04 -2.101405E+04 -3.743068E+03 -4.474640E+04  6.528267E+03 -7.244800E+03
       133   6 -8.916241E+04 -2.338572E+04 -7.084600E+03 -4.594386E+04  8.621693E+03 -7.096728E+03
       133   7 -1.943183E+05 -6.042082E+04 -2.306368E+04 -7.535722E+04  2.871809E+03 -7.626795E+03
       133   8 -2.085550E+05 -6.434296E+04 -2.753000E+04 -7.768403E+04  5.518272E+03 -7.623925E+03
       133   9 -2.208575E+05 -7.192682E+04 -3.399681E+04 -8.284362E+04  8.048801E+03 -7.311904E+03
       133  10  1.633576E+04  1.598693E+04  1.895211E+04 -1.740176E+04  3.052129E-09 -3.371289E-09
       133  11  2.838910E+04  2.231582E+04  2.004285E+04 -1.180307E+04 -8.655617E-09 -6.110746E-09
       133  12  4.255039E+04  2.515685E+04  1.982647E+04 -9.036817E+03 -1.185153E-08 -5.382644E-09
       133  13 -8.899654E+04 -2.221727E+04 -2.055458E+03 -4.638162E+04  4.112678E-09  1.630727E-08
       133  14 -9.008994E+04 -2.101412E+04 -3.743247E+03 -4.474637E+04 -8.221606E-10  9.291019E-09
       133  15 -8.916250E+04 -2.338579E+04 -7.084834E+03 -4.594382E+04  1.458573E-10  2.091779E-09
       133  16 -1.943183E+05 -6.042088E+04 -2.306380E+04 -7.535720E+04  1.457929E-08  1.145936E-09
       133  17 -2.085550E+05 -6.434303E+04 -2.753017E+04 -7.768399E+04  1.443913E-08  5.198515E-09
       133  18 -2.208576E+05 -7.192690E+04 -3.399704E+04 -8.284357E+04  1.055099E-08  5.110594E-09
       133  19  1.633581E+04  1.598698E+04  1.895225E+04 -1.740179E+04 -5.766396E+03  6.540579E+03
       133  20  2.838917E+04  2.231588E+04  2.004304E+04 -1.180311E+04 -7.538465E+03  6.865599E+03
       133  21  4.255049E+04  2.515692E+04  1.982672E+04 -9.036868E+03 -9.194715E+03  6.881502E+03
       133  22 -8.899651E+04 -2.221721E+04 -2.055329E+03 -4.638165E+04 -4.318977E+03  7.083733E+03
       133  23 -9.008988E+04 -2.101405E+04 -3.743068E+03 -4.474640E+04 -6.528267E+03  7.244800E+03
       133  24 -8.916241E+04 -2.338572E+04 -7.084600E+03 -4.594386E+04 -8.621693E+03  7.096728E+03
       133  25 -1.943183E+05 -6.042082E+04 -2.306368E+04 -7.535722E+04 -2.871809E+03  7.626795E+03
       133  26 -2.085550E+05 -6.434296E+04 -2.753000E+04 -7.768403E+04 -5.518272E+03  7.623925E+03
       133  27 -2.208575E+05 -7.192682E+04 -3.399681E+04 -8.284362E+04 -8.048801E+03  7.311904E+03
       134   1  5.306892E+04  2.729724E+04  1.957982E+04 -1.006264E+04  1.139194E+04 -6.743049E+03
       134   2  5.975401E+04  3.698048E+04  1.638343E+04  6.251127E+03  1.353704E+04 -4.506720E+03
       134   3  6.095828E+04  2.419391E+04  5.732161E+03  2.511938E+04  1.396021E+04  2.317614E+03
       134   4 -9.033046E+04 -2.229270E+04 -9.271208E+03 -4.684046E+04  9.918958E+03 -7.295977E+03
       134   5 -8.903456E+04 -2.523047E+04 -1.733506E+04 -4.255786E+04  1.855819E+04 -2.622693E+03
       134   6 -9.450795E+04 -5.192799E+04 -3.800015E+04 -3.572080E+04  2.547516E+04  6.638936E+03
       134   7 -2.337085E+05 -7.188136E+04 -3.812318E+04 -8.361062E+04  8.446346E+03 -7.848784E+03
       134   8 -2.377986E+05 -8.743699E+04 -5.105434E+04 -9.135485E+04  2.357798E+04 -7.393288E+02
       134   9 -2.499459E+05 -1.280410E+05 -8.173302E+04 -9.654404E+04  3.698670E+04  1.095814E+04
       134  10  5.306877E+04  2.729716E+04  1.957949E+04 -1.006258E+04 -4.271836E-09 -1.592338E-09
       134  11  5.975381E+04  3.698041E+04  1.638305E+04  6.251176E+03 -3.772344E-09 -2.258306E-09
       134  12  6.095806E+04  2.419386E+04  5.731785E+03  2.511935E+04 -2.508745E-09 -1.210417E-09
       134  13 -9.033058E+04 -2.229278E+04 -9.271493E+03 -4.684040E+04  3.439422E-10 -6.664196E-10
       134  14 -8.903494E+04 -2.523057E+04 -1.733572E+04 -4.255782E+04 -6.544430E-10 -1.343495E-09
       134  15 -9.450866E+04 -5.192821E+04 -3.800145E+04 -3.572094E+04  1.261352E-09  3.210131E-10
       134  16 -2.337086E+05 -7.188144E+04 -3.812343E+04 -8.361056E+04  3.330761E-09  2.070529E-10
       134  17 -2.377992E+05 -8.743714E+04 -5.105538E+04 -9.135484E+04  2.927075E-09 -4.986634E-10
       134  18 -2.499474E+05 -1.280415E+05 -8.173582E+04 -9.654437E+04  1.799877E-09  1.556928E-10
       134  19  5.306892E+04  2.729724E+04  1.957982E+04 -1.006264E+04 -1.139194E+04  6.743049E+03
       134  20  5.975401E+04  3.698048E+04  1.638343E+04  6.251127E+03 -1.353704E+04  4.506720E+03
       134  21  6.095828E+04  2.419391E+04  5.732161E+03  2.511938E+04 -1.396021E+04 -2.317614E+03
       134  22 -9.033046E+04 -2.229270E+04 -9.271208E+03 -4.684046E+04 -9.918958E+03  7.295977E+03
       134  23 -8.903456E+04 -2.523047E+04 -1.733506E+04 -4.255786E+04 -1.855819E+04  2.622693E+03
       134  24 -9.450795E+04 -5.192799E+04 -3.800015E+04 -3.572080E+04 -2.547516E+04 -6.638936E+03
       134  25 -2.337085E+05 -7.188136E+04 -3.812318E+04 -8.361062E+04 -8.446346E+03  7.848784E+03
       134  26 -2.377986E+05 -8.743699E+04 -5.105434E+04 -9.135485E+04 -2.357798E+04  7.393288E+02
       134  27 -2.499459E+05 -1.280410E+05 -8.173302E+04 -9.654404E+04 -3.698670E+04 -1.095814E+04
       135   1  4.455614E+05  7.060948E+04  6.286479E+04  7.541091E+03  1.848261E+04 -5.307159E+03
       135   2  4.268870E+05  7.843168E+04  5.255309E+04  1.423969E+04  7.598337E+03 -1.832503E+04
       135   3  4.076270E+05  7.821688E+04  4.732020E+04  2.364761E+04 -3.288299E+03 -2.320803E+04
       135   4  5.932444E+04 -2.440904E+04 -2.618871E+04  2.368969E+04 -1.842509E+04 -5.323794E+03
       135   5  6.114543E+04 -7.812179E+03 -1.307935E+04  2.232900E+04 -1.172873E+04 -1.833570E+04
       135   6  5.932806E+04 -2.306649E+03 -7.096908E+03  2.367762E+04 -5.035291E+03 -2.321025E+04
       135   7 -3.267712E+05 -1.194363E+05 -1.152469E+05  3.982815E+04 -5.531001E+04 -5.342353E+03
       135   8 -3.044648E+05 -9.406303E+04 -7.871550E+04  3.041340E+04 -3.104473E+04 -1.834687E+04
       135   9 -2.888499E+05 -8.283613E+04 -6.151690E+04  2.370759E+04 -6.781340E+03 -2.321248E+04
       135  10  4.455611E+05  7.060936E+04  6.286409E+04  7.541170E+03 -9.978536E-09 -2.464166E-10
       135  11  4.268868E+05  7.843131E+04  5.255235E+04  1.423981E+04  2.202309E-08 -8.237396E-10
       135  12  4.076269E+05  7.821630E+04  4.731917E+04  2.364754E+04  5.400340E-08  3.667423E-10
       135  13  5.932407E+04 -2.440917E+04 -2.618940E+04  2.368961E+04 -1.060627E-09  1.938457E-10
       135  14  6.114519E+04 -7.812577E+03 -1.308024E+04  2.232883E+04  1.681271E-09 -9.431863E-10
       135  15  5.932789E+04 -2.307234E+03 -7.097968E+03  2.367752E+04  6.987375E-10  3.148273E-10
       135  16 -3.267745E+05 -1.194371E+05 -1.152527E+05  3.982791E+04  9.322936E-09 -1.499275E-10
       135  17 -3.044660E+05 -9.406365E+04 -7.871794E+04  3.041294E+04 -2.315128E-08 -2.265070E-09
       135  18 -2.888501E+05 -8.283672E+04 -6.151800E+04  2.370747E+04 -5.143849E-08 -2.202160E-09
       135  19  4.455614E+05  7.060948E+04  6.286479E+04  7.541091E+03 -1.848261E+04  5.307159E+03
       135  20  4.268870E+05  7.843168E+04  5.255309E+04  1.423969E+04 -7.598337E+03  1.832503E+04
       135  21  4.076270E+05  7.821688E+04  4.732020E+04  2.364761E+04  3.288299E+03  2.320803E+04
       135  22  5.932444E+04 -2.440904E+04 -2.618871E+04  2.368969E+04  1.842509E+04  5.323794E+03
       135  23  6.114543E+04 -7.812179E+03 -1.307935E+04  2.232900E+04  1.172873E+04  1.833570E+04
       135  24  5.932806E+04 -2.306649E+03 -7.096908E+03  2.367762E+04  5.035291E+03  2.321025E+04
       135  25 -3.267712E+05 -1.194363E+05 -1.152469E+05  3.982815E+04  5.531001E+04  5.342353E+03
       135  26 -3.044648E+05 -9.406303E+04 -7.871550E+04  3.041340E+04  3.104473E+04  1.834687E+04
       135  27 -2.888499E+05 -8.283613E+04 -6.151690E+04  2.370759E+04  6.781340E+03  2.321248E+04
       136   1  3.960143E+05  7.560915E+04  4.580294E+04  2.299155E+04 -2.495758E+03 -2.335877E+04
       136   2  3.771379E+05  7.207138E+04  4.310405E+04  2.188430E+04 -3.183411E+03 -2.361553E+04
       136   3  3.582177E+05  6.799321E+04  4.071856E+04  2.407390E+04 -3.871774E+03 -2.288441E+04
       136   4  6.004600E+04 -1.789456E+03 -5.320107E+03  2.380893E+04 -4.115539E+03 -2.336095E+04
       136   5  6.025511E+04 -4.866709E+02 -2.889543E+03  2.215987E+04 -2.668834E+03 -2.361640E+04
       136   6  6.004989E+04 -9.486357E+01 -1.627504E+03  2.380778E+04 -1.222824E+03 -2.288371E+04
       136   7 -2.758093E+05 -7.919347E+04 -5.644553E+04  2.462583E+04 -5.734478E+03 -2.336314E+04
       136   8 -2.565264E+05 -7.304934E+04 -4.888478E+04  2.243528E+04 -2.154508E+03 -2.361727E+04
       136   9 -2.380280E+05 -6.818694E+04 -4.397481E+04  2.354178E+04  1.424910E+03 -2.288301E+04
       136  10  3.960141E+05  7.560856E+04  4.580190E+04  2.299150E+04 -5.361142E-08 -1.501179E-10
       136  11  3.771377E+05  7.207078E+04  4.310299E+04  2.188424E+04 -2.048722E-08 -2.277101E-10
       136  12  3.582176E+05  6.799264E+04  4.071755E+04  2.407383E+04  1.114195E-08 -1.340210E-10
       136  13  6.004583E+04 -1.790047E+03 -5.321164E+03  2.380885E+04  1.080326E-09 -5.119080E-10
       136  14  6.025496E+04 -4.872717E+02 -2.890605E+03  2.215982E+04  1.699170E-09 -4.113773E-10
       136  15  6.004975E+04 -9.542631E+01 -1.628491E+03  2.380776E+04  1.298103E-09 -1.706898E-09
       136  16 -2.758095E+05 -7.919406E+04 -5.644662E+04  2.462572E+04  5.338646E-08 -3.050751E-10
       136  17 -2.565266E+05 -7.304994E+04 -4.888584E+04  2.243524E+04  1.902605E-08  2.792038E-11
       136  18 -2.380282E+05 -6.818750E+04 -4.397580E+04  2.354180E+04 -1.086694E-08 -1.054167E-09
       136  19  3.960143E+05  7.560915E+04  4.580294E+04  2.299155E+04  2.495758E+03  2.335877E+04
       136  20  3.771379E+05  7.207138E+04  4.310405E+04  2.188430E+04  3.183411E+03  2.361553E+04
       136  21  3.582177E+05  6.799321E+04  4.071856E+04  2.407390E+04  3.871774E+03  2.288441E+04
       136  22  6.004600E+04 -1.789456E+03 -5.320107E+03  2.380893E+04  4.115539E+03  2.336095E+04
       136  23  6.025511E+04 -4.866709E+02 -2.889543E+03  2.215987E+04  2.668834E+03  2.361640E+04
       136  24  6.004989E+04 -9.486357E+01 -1.627504E+03  2.380778E+04  1.222824E+03  2.288371E+04
       136  25 -2.758093E+05 -7.919347E+04 -5.644553E+04  2.462583E+04  5.734478E+03  2.336314E+04
       136  26 -2.565264E+05 -7.304934E+04 -4.888478E+04  2.243528E+04  2.154508E+03  2.361727E+04
       136  27 -2.380280E+05 -6.818694E+04 -4.397481E+04  2.354178E+04 -1.424910E+03  2.288301E+04
       137   1  3.464330E+05  6.526855E+04  3.920962E+04  2.399805E+04 -3.643975E+03 -2.213218E+04
       137   2  3.275562E+05  6.099097E+04  3.683968E+04  2.232222E+04 -3.560329E+03 -2.083954E+04
       137   3  3.086625E+05  5.669277E+04  3.440990E+04  2.401234E+04 -3.476985E+03 -1.942705E+04
       137   4  6.012944E+04 -6.609237E+01 -1.229294E+03  2.382322E+04 -9.798905E+02 -2.213133E+04
       137   5  6.016226E+04  1.821276E+01 -6.915812E+02  2.214016E+04 -6.374135E+02 -2.083828E+04
       137   6  6.013285E+04  3.695756E+01 -3.935008E+02  2.382314E+04 -2.952358E+02 -1.942534E+04
       137   7 -2.260911E+05 -6.540441E+04 -4.166930E+04  2.364846E+04  1.683020E+03 -2.213047E+04
       137   8 -2.071592E+05 -6.095773E+04 -3.822375E+04  2.195818E+04  2.284299E+03 -2.083701E+04
       137   9 -1.883341E+05 -5.662160E+04 -3.519766E+04  2.363401E+04  2.885296E+03 -1.942364E+04
       137  10  3.464328E+05  6.526802E+04  3.920867E+04  2.399798E+04 -8.578498E-10 -2.856242E-11
       137  11  3.275560E+05  6.099050E+04  3.683884E+04  2.232216E+04  4.261991E-09 -1.189927E-09
       137  12  3.086623E+05  5.669236E+04  3.440917E+04  2.401228E+04  5.006798E-09 -2.005029E-09
       137  13  6.012930E+04 -6.661860E+01 -1.230216E+03  2.382320E+04 -2.200922E-09 -2.250067E-09
       137  14  6.016215E+04  1.774634E+01 -6.923980E+02  2.214015E+04  1.172452E-09 -8.514193E-10
       137  15  6.013275E+04  3.655232E+01 -3.942101E+02  2.382313E+04  1.477088E-09 -4.520535E-10
       137  16 -2.260913E+05 -6.540494E+04 -4.167023E+04  2.364849E+04  2.809626E-10 -9.585259E-10
       137  17 -2.071593E+05 -6.095820E+04 -3.822457E+04  2.195821E+04 -4.153135E-09 -5.478222E-10
       137  18 -1.883343E+05 -5.662200E+04 -3.519838E+04  2.363405E+04 -3.558340E-09 -1.885164E-09
       137  19  3.464330E+05  6.526855E+04  3.920962E+04  2.399805E+04  3.643975E+03  2.213218E+04
       137  20  3.275562E+05  6.099097E+04  3.683968E+04  2.232222E+04  3.560329E+03  2.083954E+04
       137  21  3.086625E+05  5.669277E+04  3.440990E+04  2.401234E+04  3.476985E+03  1.942705E+04
       137  22  6.012944E+04 -6.609237E+01 -1.229294E+03  2.382322E+04  9.798905E+02  2.213133E+04
       137  23  6.016226E+04  1.821276E+01 -6.915812E+02  2.214016E+04  6.374135E+02  2.083828E+04
       137  24  6.013285E+04  3.695756E+01 -3.935008E+02  2.382314E+04  2.952358E+02  1.942534E+04
       137  25 -2.260911E+05 -6.540441E+04 -4.166930E+04  2.364846E+04 -1.683020E+03  2.213047E+04
       137  26 -2.071592E+05 -6.095773E+04 -3.822375E+04  2.195818E+04 -2.284299E+03  2.083701E+04
       137  27 -1.883341E+05 -5.662160E+04 -3.519766E+04  2.363401E+04 -2.885296E+03  1.942364E+04
       138   1  2.968699E+05  5.398473E+04  3.276826E+04  2.399695E+04 -3.417434E+03 -1.856541E+04
       138   2  2.779945E+05  4.968199E+04  3.026196E+04  2.229607E+04 -3.367545E+03 -1.708498E+04
       138   3  2.591113E+05  4.538637E+04  2.772397E+04  2.396813E+04 -3.317855E+03 -1.559011E+04
       138   4  6.014470E+04  3.662337E+01 -2.968185E+02  2.382470E+04 -2.340549E+02 -1.856357E+04
       138   5  6.015299E+04  3.681213E+01 -1.657311E+02  2.213819E+04 -1.530513E+02 -1.708291E+04
       138   6  6.014750E+04  3.865008E+01 -8.806193E+01  2.382470E+04 -7.224625E+01 -1.558781E+04
       138   7 -1.765237E+05 -5.391397E+04 -3.336256E+04  2.365251E+04  2.948164E+03 -1.856173E+04
       138   8 -1.576404E+05 -4.961047E+04 -3.059398E+04  2.198037E+04  3.060364E+03 -1.708084E+04
       138   9 -1.387761E+05 -4.531082E+04 -2.790055E+04  2.368131E+04  3.172369E+03 -1.558550E+04
       138  10  2.968698E+05  5.398436E+04  3.276759E+04  2.399690E+04  5.274959E-10 -1.399281E-09
       138  11  2.779944E+05  4.968167E+04  3.026139E+04  2.229602E+04  2.976656E-09  1.615294E-09
       138  12  2.591112E+05  4.538610E+04  2.772349E+04  2.396809E+04  3.653468E-09  2.135125E-09
       138  13  6.014461E+04  3.625330E+01 -2.974662E+02  2.382470E+04  4.943111E-12 -1.262842E-09
       138  14  6.015291E+04  3.649874E+01 -1.662795E+02  2.213819E+04  1.765480E-09  1.633887E-09
       138  15  6.014744E+04  3.838916E+01 -8.851856E+01  2.382470E+04 -5.716776E-10  1.175987E-09
       138  16 -1.765238E+05 -5.391434E+04 -3.336323E+04  2.365256E+04 -1.227801E-09 -1.465260E-09
       138  17 -1.576404E+05 -4.961078E+04 -3.059454E+04  2.198041E+04 -3.663111E-09  4.847339E-10
       138  18 -1.387762E+05 -4.531109E+04 -2.790103E+04  2.368135E+04 -1.810791E-09  1.593399E-09
       138  19  2.968699E+05  5.398473E+04  3.276826E+04  2.399695E+04  3.417434E+03  1.856541E+04
       138  20  2.779945E+05  4.968199E+04  3.026196E+04  2.229607E+04  3.367545E+03  1.708498E+04
       138  21  2.591113E+05  4.538637E+04  2.772397E+04  2.396813E+04  3.317855E+03  1.559011E+04
       138  22  6.014470E+04  3.662337E+01 -2.968185E+02  2.382470E+04  2.340549E+02  1.856357E+04
       138  23  6.015299E+04  3.681213E+01 -1.657311E+02  2.213819E+04  1.530513E+02  1.708291E+04
       138  24  6.014750E+04  3.865008E+01 -8.806193E+01  2.382470E+04  7.224625E+01  1.558781E+04
       138  25 -1.765237E+05 -5.391397E+04 -3.336256E+04  2.365251E+04 -2.948164E+03  1.856173E+04
       138  26 -1.576404E+05 -4.961047E+04 -3.059398E+04  2.198037E+04 -3.060364E+03  1.708084E+04
       138  27 -1.387761E+05 -4.531082E+04 -2.790055E+04  2.368131E+04 -3.172369E+03  1.558550E+04
       139   1  2.473192E+05  4.268451E+04  2.603333E+04  2.396074E+04 -3.304965E+03 -1.471536E+04
       139   2  2.284464E+05  3.838652E+04  2.347097E+04  2.226172E+04 -3.299851E+03 -1.321249E+04
       139   3  2.095693E+05  3.409595E+04  2.090539E+04  2.393759E+04 -3.294882E+03 -1.170814E+04
       139   4  6.015034E+04  3.860166E+01 -6.103202E+01  2.382513E+04 -5.934025E+01 -1.471294E+04
       139   5  6.015386E+04  3.564783E+01 -1.915972E+01  2.213766E+04 -5.104874E+01 -1.320991E+04
       139   6  6.015250E+04  3.964856E+01  1.735189E+01  2.382513E+04 -4.290300E+01 -1.170540E+04
       139   7 -1.269829E+05 -4.260885E+04 -2.615579E+04  2.368956E+04  3.185350E+03 -1.471053E+04
       139   8 -1.081099E+05 -3.831647E+04 -2.350960E+04  2.201363E+04  3.196912E+03 -1.320734E+04
       139   9 -8.924168E+04 -3.401764E+04 -2.087093E+04  2.371270E+04  3.208328E+03 -1.170266E+04
       139  10  2.473191E+05  4.268427E+04  2.603290E+04  2.396070E+04  9.645375E-08  1.037188E-09
       139  11  2.284463E+05  3.838633E+04  2.347062E+04  2.226168E+04 -3.565692E-09 -1.079319E-09
       139  12  2.095693E+05  3.409580E+04  2.090511E+04  2.393756E+04 -1.074680E-07 -3.915337E-09
       139  13  6.015028E+04  3.836920E+01 -6.143882E+01  2.382513E+04  5.629800E-11  5.364715E-09
       139  14  6.015381E+04  3.546044E+01 -1.948765E+01  2.213766E+04 -9.106857E-10  9.608789E-09
       139  15  6.015247E+04  3.950142E+01  1.709440E+01  2.382513E+04 -8.444951E-10  1.376484E-08
       139  16 -1.269830E+05 -4.260909E+04 -2.615621E+04  2.368960E+04 -9.550878E-08  1.906275E-09
       139  17 -1.081100E+05 -3.831666E+04 -2.350995E+04  2.201366E+04  3.368162E-09 -1.597959E-09
       139  18 -8.924173E+04 -3.401779E+04 -2.087121E+04  2.371273E+04  1.075380E-07 -3.516934E-09
       139  19  2.473192E+05  4.268451E+04  2.603333E+04  2.396074E+04  3.304965E+03  1.471536E+04
       139  20  2.284464E+05  3.838652E+04  2.347097E+04  2.226172E+04  3.299851E+03  1.321249E+04
       139  21  2.095693E+05  3.409595E+04  2.090539E+04  2.393759E+04  3.294882E+03  1.170814E+04
       139  22  6.015034E+04  3.860166E+01 -6.103202E+01  2.382513E+04  5.934025E+01  1.471294E+04
       139  23  6.015386E+04  3.564783E+01 -1.915972E+01  2.213766E+04  5.104874E+01  1.320991E+04
       139  24  6.015250E+04  3.964856E+01  1.735189E+01  2.382513E+04  4.290300E+01  1.170540E+04
       139  25 -1.269829E+05 -4.260885E+04 -2.615579E+04  2.368956E+04 -3.185350E+03  1.471053E+04
       139  26 -1.081099E+05 -3.831647E+04 -2.350960E+04  2.201363E+04 -3.196912E+03  1.320734E+04
       139  27 -8.924168E+04 -3.401764E+04 -2.087093E+04  2.371270E+04 -3.208328E+03  1.170266E+04
       140   1  1.977803E+05  3.139559E+04  1.920963E+04  2.393149E+04 -3.300219E+03 -1.083208E+04
       140   2  1.789071E+05  2.710127E+04  1.665758E+04  2.223027E+04 -3.341186E+03 -9.327727E+03
       140   3  1.600367E+05  2.282297E+04  1.413410E+04  2.390288E+04 -3.382254E+03 -7.824777E+03
       140   4  6.015488E+04  4.000942E+01  3.669482E+01  2.382489E+04 -4.839402E+01 -1.082926E+04
       140   5  6.015417E+04  3.963858E+01  8.609360E+01  2.213796E+04 -9.243482E+01 -9.324794E+03
       140   6  6.015640E+04  5.583168E+01  1.661589E+02  2.382488E+04 -1.365764E+02 -7.821734E+03
       140   7 -7.745135E+04 -3.131640E+04 -1.913643E+04  2.371832E+04  3.202742E+03 -1.082644E+04
       140   8 -5.858449E+04 -2.702261E+04 -1.648553E+04  2.204566E+04  3.155723E+03 -9.321861E+03
       140   9 -3.971380E+04 -2.271175E+04 -1.380187E+04  2.374689E+04  3.108602E+03 -7.818691E+03
       140  10  1.977803E+05  3.139546E+04  1.920938E+04  2.393146E+04  1.025197E-07 -2.215177E-09
       140  11  1.789071E+05  2.710117E+04  1.665740E+04  2.223025E+04  3.100427E-09 -4.816602E-10
       140  12  1.600367E+05  2.282291E+04  1.413396E+04  2.390286E+04 -9.253322E-08  5.828809E-10
       140  13  6.015485E+04  3.988349E+01  3.647443E+01  2.382489E+04 -1.072509E-09  1.468154E-08
       140  14  6.015414E+04  3.954520E+01  8.593018E+01  2.213796E+04  1.528927E-10  9.521640E-09
       140  15  6.015639E+04  5.576598E+01  1.660439E+02  2.382488E+04  1.461461E-09  2.887822E-09
       140  16 -7.745139E+04 -3.131653E+04 -1.913667E+04  2.371834E+04 -1.036744E-07 -1.500636E-09
       140  17 -5.858453E+04 -2.702271E+04 -1.648571E+04  2.204568E+04 -5.717982E-09 -3.438823E-09
       140  18 -3.971383E+04 -2.271182E+04 -1.380200E+04  2.374691E+04  9.396111E-08 -6.547143E-10
       140  19  1.977803E+05  3.139559E+04  1.920963E+04  2.393149E+04  3.300219E+03  1.083208E+04
       140  20  1.789071E+05  2.710127E+04  1.665758E+04  2.223027E+04  3.341186E+03  9.327727E+03
       140  21  1.600367E+05  2.282297E+04  1.413410E+04  2.390288E+04  3.382254E+03  7.824777E+03
       140  22  6.015488E+04  4.000942E+01  3.669482E+01  2.382489E+04  4.839402E+01  1.082926E+04
       140  23  6.015417E+04  3.963858E+01  8.609360E+01  2.213796E+04  9.243482E+01  9.324794E+03
       140  24  6.015640E+04  5.583168E+01  1.661589E+02  2.382488E+04  1.365764E+02  7.821734E+03
       140  25 -7.745135E+04 -3.131640E+04 -1.913643E+04  2.371832E+04 -3.202742E+03  1.082644E+04
       140  26 -5.858449E+04 -2.702261E+04 -1.648553E+04  2.204566E+04 -3.155723E+03  9.321861E+03
       140  27 -3.971380E+04 -2.271175E+04 -1.380187E+04  2.374689E+04 -3.108602E+03  7.818691E+03
       141   1  1.482581E+05  2.012639E+04  1.247458E+04  2.390677E+04 -3.415873E+03 -6.950041E+03
       141   2  1.293647E+05  1.588227E+04  1.004053E+04  2.213102E+04 -3.590791E+03 -5.454421E+03
       141   3  1.105195E+05  1.176849E+04  7.750607E+03  2.372751E+04 -3.765749E+03 -3.971599E+03
       141   4  6.016779E+04  6.014376E+01  2.234096E+02  2.382455E+04 -1.704972E+02 -6.946945E+03
       141   5  6.014207E+04  1.116663E+02  4.020486E+02  2.213830E+04 -3.731200E+02 -5.451286E+03
       141   6  6.016867E+04  2.982795E+02  7.439337E+02  2.382432E+04 -5.757871E+02 -3.968428E+03
       141   7 -2.791467E+04 -2.000644E+04 -1.202781E+04  2.374233E+04  3.074439E+03 -6.943850E+03
       141   8 -9.075710E+03 -1.565914E+04 -9.236455E+03  2.214558E+04  2.844208E+03 -5.448152E+03
       141   9  9.820434E+03 -1.117204E+04 -6.262732E+03  2.392111E+04  2.613927E+03 -3.965256E+03
       141  10  1.482581E+05  2.012633E+04  1.247447E+04  2.390675E+04 -6.931632E-08  1.135779E-09
       141  11  1.293647E+05  1.588223E+04  1.004045E+04  2.213100E+04 -1.138684E-09 -2.392373E-09
       141  12  1.105195E+05  1.176847E+04  7.750550E+03  2.372750E+04  6.428245E-08 -1.132911E-09
       141  13  6.016778E+04  6.009192E+01  2.233188E+02  2.382455E+04  3.221706E-09  1.311080E-10
       141  14  6.014207E+04  1.116343E+02  4.019924E+02  2.213830E+04  1.721543E-09 -1.478499E-09
       141  15  6.016867E+04  2.982625E+02  7.439035E+02  2.382431E+04  3.312582E-09 -2.828103E-09
       141  16 -2.791469E+04 -2.000649E+04 -1.202792E+04  2.374235E+04  7.187588E-08 -3.503546E-10
       141  17 -9.075727E+03 -1.565918E+04 -9.236526E+03  2.214559E+04 -1.416492E-11 -2.398870E-09
       141  18  9.820423E+03 -1.117206E+04 -6.262774E+03  2.392112E+04 -6.501457E-08 -4.605070E-09
       141  19  1.482581E+05  2.012639E+04  1.247458E+04  2.390677E+04  3.415873E+03  6.950041E+03
       141  20  1.293647E+05  1.588227E+04  1.004053E+04  2.213102E+04  3.590791E+03  5.454421E+03
       141  21  1.105195E+05  1.176849E+04  7.750607E+03  2.372751E+04  3.765749E+03  3.971599E+03
       141  22  6.016779E+04  6.014376E+01  2.234096E+02  2.382455E+04  1.704972E+02  6.946945E+03
       141  23  6.014207E+04  1.116663E+02  4.020486E+02  2.213830E+04  3.731200E+02  5.451286E+03
       141  24  6.016867E+04  2.982795E+02  7.439337E+02  2.382432E+04  5.757871E+02  3.968428E+03
       141  25 -2.791467E+04 -2.000644E+04 -1.202781E+04  2.374233E+04 -3.074439E+03  6.943850E+03
       141  26 -9.075710E+03 -1.565914E+04 -9.236455E+03  2.214558E+04 -2.844208E+03  5.448152E+03
       141  27  9.820434E+03 -1.117204E+04 -6.262732E+03  2.392111E+04 -2.613927E+03  3.965256E+03
       142   1  9.882500E+04  9.135535E+03  6.265286E+03  2.382754E+04 -3.893493E+03 -3.108661E+03
       142   2  7.972595E+04  5.589752E+03  4.393387E+03  2.100099E+04 -4.603980E+03 -1.686186E+03
       142   3  6.109198E+04  3.566864E+03  3.362170E+03  2.153835E+04 -5.314376E+03 -3.690686E+02
       142   4  6.026936E+04  3.707532E+02  9.932874E+02  2.382270E+04 -7.052608E+02 -3.105466E+03
       142   5  6.001719E+04  1.138769E+03  1.831801E+03  2.213922E+04 -1.643355E+03 -1.683210E+03
       142   6  6.026952E+04  3.469287E+03  3.669100E+03  2.381964E+04 -2.581380E+03 -3.663168E+02
       142   7  2.171525E+04 -8.394088E+03 -4.278688E+03  2.381786E+04  2.482783E+03 -3.102271E+03
       142   8  4.030885E+04 -3.312220E+03 -7.297532E+02  2.327741E+04  1.317180E+03 -1.680224E+03
       142   9  5.944708E+04  3.371733E+03  3.976061E+03  2.610092E+04  1.516134E+02 -3.635450E+02
       142  10  9.882498E+04  9.135521E+03  6.265239E+03  2.382753E+04 -1.845348E-09 -3.993583E-10
       142  11  7.972593E+04  5.589743E+03  4.393341E+03  2.100098E+04 -1.911695E-09 -1.668624E-09
       142  12  6.109195E+04  3.566856E+03  3.362116E+03  2.153835E+04 -1.021486E-09 -6.158820E-10
       142  13  6.026935E+04  3.707428E+02  9.932684E+02  2.382270E+04 -1.034565E-09  5.390915E-10
       142  14  6.001719E+04  1.138765E+03  1.831791E+03  2.213922E+04  1.166525E-09 -3.068989E-09
       142  15  6.026951E+04  3.469285E+03  3.669087E+03  2.381964E+04 -2.429209E-09  1.643213E-09
       142  16  2.171524E+04 -8.394100E+03 -4.278718E+03  2.381786E+04  3.377319E-09 -1.468985E-09
       142  17  4.030885E+04 -3.312224E+03 -7.297618E+02  2.327741E+04  2.907692E-11 -3.308594E-10
       142  18  5.944708E+04  3.371733E+03  3.976061E+03  2.610092E+04  9.961524E-10 -7.658250E-10
       142  19  9.882500E+04  9.135535E+03  6.265286E+03  2.382754E+04  3.893493E+03  3.108661E+03
       142  20  7.972595E+04  5.589752E+03  4.393387E+03  2.100099E+04  4.603980E+03  1.686186E+03
       142  21  6.109198E+04  3.566864E+03  3.362170E+03  2.153835E+04  5.314376E+03  3.690686E+02
       142  22  6.026936E+04  3.707532E+02  9.932874E+02  2.382270E+04  7.052608E+02  3.105466E+03
       142  23  6.001719E+04  1.138769E+03  1.831801E+03  2.213922E+04  1.643355E+03  1.683210E+03
       142  24  6.026952E+04  3.469287E+03  3.669100E+03  2.381964E+04  2.581380E+03  3.663168E+02
       142  25  2.171525E+04 -8.394088E+03 -4.278688E+03  2.381786E+04 -2.482783E+03  3.102271E+03
       142  26  4.030885E+04 -3.312220E+03 -7.297532E+02  2.327741E+04 -1.317180E+03  1.680224E+03
       142  27  5.944708E+04  3.371733E+03  3.976061E+03  2.610092E+04 -1.516134E+02  3.635450E+02
       143   1  5.819626E+03  2.113198E+05  6.431817E+03 -1.726720E+04 -1.163547E+02  1.345624E+03
       143   2 -9.404968E+02  1.945807E+05  1.441271E+03 -1.406634E+04 -7.380947E+02 -4.131340E+02
       143   3 -5.372923E+03  1.786482E+05 -1.823661E+03 -1.496792E+04 -1.707864E+03 -2.172004E+03
       143   4  3.387504E+03  2.016892E+05  3.910329E+03 -1.517191E+04 -1.166410E+02  2.023889E+03
       143   5  6.005048E+02  2.013316E+05  2.401689E+03 -1.312138E+04 -7.386072E+02  7.914733E+02
       143   6  4.991514E+01  2.016894E+05  2.253318E+03 -1.517328E+04 -1.708595E+03 -4.410901E+02
       143   7  9.553914E+02  1.920587E+05  1.388838E+03 -1.307665E+04 -1.169227E+02  2.702143E+03
       143   8  2.141508E+03  2.080826E+05  3.362112E+03 -1.217641E+04 -7.391160E+02  1.996093E+03
       143   9  5.472726E+03  2.247310E+05  6.330290E+03 -1.537865E+04 -1.709327E+03  1.289886E+03
       143  10  5.819626E+03  2.113198E+05  6.431813E+03 -1.726720E+04 -8.280191E-10  1.304126E-09
       143  11 -9.404975E+02  1.945807E+05  1.441269E+03 -1.406634E+04 -1.397417E-09 -1.010981E-09
       143  12 -5.372927E+03  1.786482E+05 -1.823676E+03 -1.496792E+04  6.498148E-10 -6.762118E-10
       143  13  3.387503E+03  2.016892E+05  3.910321E+03 -1.517191E+04  1.453760E-09 -4.418189E-10
       143  14  6.005040E+02  2.013316E+05  2.401687E+03 -1.312138E+04 -1.011994E-09 -4.045536E-10
       143  15  4.991195E+01  2.016894E+05  2.253313E+03 -1.517328E+04  1.858760E-09 -3.358058E-11
       143  16  9.553894E+02  1.920586E+05  1.388824E+03 -1.307665E+04 -2.885927E-10 -8.285559E-10
       143  17  2.141507E+03  2.080826E+05  3.362104E+03 -1.217641E+04  7.190742E-10 -3.332893E-10
       143  18  5.472722E+03  2.247310E+05  6.330281E+03 -1.537865E+04 -1.307253E-10  9.558409E-10
       143  19  5.819626E+03  2.113198E+05  6.431817E+03 -1.726720E+04  1.163547E+02 -1.345624E+03
       143  20 -9.404968E+02  1.945807E+05  1.441271E+03 -1.406634E+04  7.380947E+02  4.131340E+02
       143  21 -5.372923E+03  1.786482E+05 -1.823661E+03 -1.496792E+04  1.707864E+03  2.172004E+03
       143  22  3.387504E+03  2.016892E+05  3.910329E+03 -1.517191E+04  1.166410E+02 -2.023889E+03
       143  23  6.005048E+02  2.013316E+05  2.401689E+03 -1.312138E+04  7.386072E+02 -7.914733E+02
       143  24  4.991514E+01  2.016894E+05  2.253318E+03 -1.517328E+04  1.708595E+03  4.410901E+02
       143  25  9.553914E+02  1.920587E+05  1.388838E+03 -1.307665E+04  1.169227E+02 -2.702143E+03
       143  26  2.141508E+03  2.080826E+05  3.362112E+03 -1.217641E+04  7.391160E+02 -1.996093E+03
       143  27  5.472726E+03  2.247310E+05  6.330290E+03 -1.537865E+04  1.709327E+03 -1.289886E+03
       144   1 -7.907316E+03  1.676441E+05 -3.666797E+03 -1.541050E+04 -2.391844E+03 -2.538900E+03
       144   2 -1.176998E+04  1.511123E+05 -5.702253E+03 -1.304297E+04 -3.427229E+03 -4.001441E+03
       144   3 -1.483559E+04  1.349669E+05 -6.587408E+03 -1.478854E+04 -4.276911E+03 -5.463835E+03
       144   4  1.152590E+02  2.016269E+05  2.471536E+03 -1.517549E+04 -2.392555E+03 -8.318073E+02
       144   5  1.267336E+02  2.014091E+05  3.494126E+03 -1.311877E+04 -3.427790E+03 -2.575326E+03
       144   6  9.840003E+02  2.016261E+05  5.862011E+03 -1.517513E+04 -4.277329E+03 -4.318736E+03
       144   7  8.137771E+03  2.356108E+05  8.609834E+03 -1.494047E+04 -2.393265E+03  8.753764E+02
       144   8  1.202331E+04  2.517084E+05  1.269041E+04 -1.319459E+04 -3.428352E+03 -1.149098E+03
       144   9  1.680333E+04  2.682896E+05  1.831124E+04 -1.556176E+04 -4.277749E+03 -3.173516E+03
       144  10 -7.907324E+03  1.676440E+05 -3.666820E+03 -1.541051E+04  4.544577E-10  2.686205E-09
       144  11 -1.177000E+04  1.511123E+05 -5.702306E+03 -1.304298E+04  2.826103E-09 -3.326376E-10
       144  12 -1.483562E+04  1.349669E+05 -6.587499E+03 -1.478855E+04  8.678291E-10 -5.047518E-10
       144  13  1.152527E+02  2.016269E+05  2.471524E+03 -1.517549E+04  5.330065E-10 -4.401051E-10
       144  14  1.267192E+02  2.014091E+05  3.494092E+03 -1.311878E+04  6.226460E-10 -3.748190E-10
       144  15  9.839756E+02  2.016261E+05  5.861942E+03 -1.517514E+04 -2.415525E-10 -7.361891E-11
       144  16  8.137765E+03  2.356108E+05  8.609822E+03 -1.494046E+04  2.543622E-11 -2.243467E-09
       144  17  1.202329E+04  2.517083E+05  1.269039E+04 -1.319459E+04 -4.850315E-10 -8.758425E-10
       144  18  1.680331E+04  2.682896E+05  1.831119E+04 -1.556177E+04  1.419686E-10  7.370163E-10
       144  19 -7.907316E+03  1.676441E+05 -3.666797E+03 -1.541050E+04  2.391844E+03  2.538900E+03
       144  20 -1.176998E+04  1.511123E+05 -5.702253E+03 -1.304297E+04  3.427229E+03  4.001441E+03
       144  21 -1.483559E+04  1.349669E+05 -6.587408E+03 -1.478854E+04  4.276911E+03  5.463835E+03
       144  22  1.152590E+02  2.016269E+05  2.471536E+03 -1.517549E+04  2.392555E+03  8.318073E+02
       144  23  1.267336E+02  2.014091E+05  3.494126E+03 -1.311877E+04  3.427790E+03  2.575326E+03
       144  24  9.840003E+02  2.016261E+05  5.862011E+03 -1.517513E+04  4.277329E+03  4.318736E+03
       144  25  8.137771E+03  2.356108E+05  8.609834E+03 -1.494047E+04  2.393265E+03 -8.753764E+02
       144  26  1.202331E+04  2.517084E+05  1.269041E+04 -1.319459E+04  3.428352E+03  1.149098E+03
       144  27  1.680333E+04  2.682896E+05  1.831124E+04 -1.556176E+04  4.277749E+03  3.173516E+03
       145   1 -1.823422E+04  1.249139E+05 -7.062422E+03 -1.710934E+04 -4.911613E+03 -6.902025E+03
       145   2 -1.813260E+04  1.064633E+05 -5.572872E+03 -6.728702E+03 -4.564701E+03 -9.611385E+03
       145   3 -2.740880E+03  9.218641E+04  1.502742E+03 -2.916005E+02 -1.431103E+03 -1.231968E+04
       145   4  2.191222E+02  2.026192E+05  7.522309E+03 -1.513887E+04 -4.912206E+03 -5.318707E+03
       145   5  4.395472E+03  2.001656E+05  1.335300E+04 -1.316272E+04 -4.563565E+03 -1.224297E+04
       145   6  2.459192E+04  2.026158E+05  2.769545E+04 -1.512982E+04 -1.428357E+03 -1.916622E+04
       145   7  1.867213E+04  2.803303E+05  2.210679E+04 -1.316814E+04 -4.912789E+03 -3.735195E+03
       145   8  2.692316E+04  2.938763E+05  3.227848E+04 -1.959773E+04 -4.562376E+03 -1.487494E+04
       145   9  5.192469E+04  3.130570E+05  5.388760E+04 -2.997069E+04 -1.425285E+03 -2.601397E+04
       145  10 -1.823425E+04  1.249138E+05 -7.062556E+03 -1.710937E+04 -2.060903E-10  2.789603E-08
       145  11 -1.813265E+04  1.064632E+05 -5.573084E+03 -6.728737E+03  1.147143E-09 -2.803078E-11
       145  12 -2.740922E+03  9.218625E+04  1.502453E+03 -2.916147E+02  7.613492E-10 -2.531722E-08
       145  13  2.190887E+02  2.026191E+05  7.522211E+03 -1.513889E+04  1.117584E-09 -3.744473E-10
       145  14  4.395409E+03  2.001654E+05  1.335268E+04 -1.316277E+04 -2.751450E-09 -3.711714E-10
       145  15  2.459182E+04  2.026154E+05  2.769476E+04 -1.512984E+04 -1.338211E-10 -3.043938E-11
       145  16  1.867210E+04  2.803303E+05  2.210672E+04 -1.316815E+04 -4.825974E-10 -2.749254E-08
       145  17  2.692308E+04  2.938760E+05  3.227802E+04 -1.959779E+04  1.811439E-10 -9.846140E-10
       145  18  5.192451E+04  3.130562E+05  5.388633E+04 -2.997072E+04 -9.065291E-10  2.557124E-08
       145  19 -1.823422E+04  1.249139E+05 -7.062422E+03 -1.710934E+04  4.911613E+03  6.902025E+03
       145  20 -1.813260E+04  1.064633E+05 -5.572872E+03 -6.728702E+03  4.564701E+03  9.611385E+03
       145  21 -2.740880E+03  9.218641E+04  1.502742E+03 -2.916005E+02  1.431103E+03  1.231968E+04
       145  22  2.191222E+02  2.026192E+05  7.522309E+03 -1.513887E+04  4.912206E+03  5.318707E+03
       145  23  4.395472E+03  2.001656E+05  1.335300E+04 -1.316272E+04  4.563565E+03  1.224297E+04
       145  24  2.459192E+04  2.026158E+05  2.769545E+04 -1.512982E+04  1.428357E+03  1.916622E+04
       145  25  1.867213E+04  2.803303E+05  2.210679E+04 -1.316814E+04  4.912789E+03  3.735195E+03
       145  26  2.692316E+04  2.938763E+05  3.227848E+04 -1.959773E+04  4.562376E+03  1.487494E+04
       145  27  5.192469E+04  3.130570E+05  5.388760E+04 -2.997069E+04  1.425285E+03  2.601397E+04
       146   1  4.865673E+05  1.746565E+05  8.825795E+04  1.804145E+05  3.444558E+04  7.166741E+03
       146   2  4.603925E+05  1.603314E+05  6.290230E+04  1.725359E+05  2.231614E+04 -1.114293E+04
       146   3  4.343832E+05  1.520296E+05  5.065324E+04  1.681999E+05  7.094192E+03 -2.121087E+04
       146   4  1.350513E+05  4.365010E+04 -8.425268E+02  8.467689E+04  1.346359E+03 -5.263943E+03
       146   5  1.366874E+05  4.262252E+04 -4.013718E+02  8.278940E+04  6.083394E+03 -1.724095E+04
       146   6  1.351499E+05  4.428018E+04 -2.076694E+02  8.444440E+04  7.725719E+03 -2.097485E+04
       146   7 -2.163262E+05 -8.734174E+04 -8.994396E+04 -1.100696E+04 -3.173092E+04 -1.768645E+04
       146   8 -1.869009E+05 -7.507409E+04 -6.370654E+04 -6.911633E+03 -1.013991E+04 -2.333544E+04
       146   9 -1.639876E+05 -6.346002E+04 -5.107078E+04  7.268856E+02  8.356921E+03 -2.073896E+04
       146  10  4.865661E+05  1.746561E+05  8.825563E+04  1.804143E+05  9.285221E-10  1.450945E-11
       146  11  4.603919E+05  1.603312E+05  6.290114E+04  1.725361E+05  1.128624E-09 -1.393132E-09
       146  12  4.343830E+05  1.520291E+05  5.065230E+04  1.682000E+05  3.848850E-11 -9.717253E-10
       146  13  1.350513E+05  4.365007E+04 -8.425823E+02  8.467690E+04  2.407830E-09  7.149939E-10
       146  14  1.366873E+05  4.262219E+04 -4.020000E+02  8.278949E+04  5.692228E-10 -1.144923E-09
       146  15  1.351497E+05  4.427970E+04 -2.086084E+02  8.444453E+04  2.213984E-09  2.387061E-10
       146  16 -2.163274E+05 -8.734234E+04 -8.994644E+04 -1.100741E+04 -1.363384E-09 -2.917494E-10
       146  17 -1.869011E+05 -7.507470E+04 -6.370775E+04 -6.911824E+03 -1.323449E-09 -2.422799E-10
       146  18 -1.639878E+05 -6.346050E+04 -5.107172E+04  7.270252E+02  2.714138E-09  1.119066E-09
       146  19  4.865673E+05  1.746565E+05  8.825795E+04  1.804145E+05 -3.444558E+04 -7.166741E+03
       146  20  4.603925E+05  1.603314E+05  6.290230E+04  1.725359E+05 -2.231614E+04  1.114293E+04
       146  21  4.343832E+05  1.520296E+05  5.065324E+04  1.681999E+05 -7.094192E+03  2.121087E+04
       146  22  1.350513E+05  4.365010E+04 -8.425268E+02  8.467689E+04 -1.346359E+03  5.263943E+03
       146  23  1.366874E+05  4.262252E+04 -4.013718E+02  8.278940E+04 -6.083394E+03  1.724095E+04
       146  24  1.351499E+05  4.428018E+04 -2.076694E+02  8.444440E+04 -7.725719E+03  2.097485E+04
       146  25 -2.163262E+05 -8.734174E+04 -8.994396E+04 -1.100696E+04  3.173092E+04  1.768645E+04
       146  26 -1.869009E+05 -7.507409E+04 -6.370654E+04 -6.911633E+03  1.013991E+04  2.333544E+04
       146  27 -1.639876E+05 -6.346002E+04 -5.107078E+04  7.268856E+02 -8.356921E+03  2.073896E+04
       147   1  4.177021E+05  1.459544E+05  4.679271E+04  1.637194E+05  7.300736E+03 -2.062991E+04
       147   2  3.936966E+05  1.347101E+05  4.065995E+04  1.546826E+05  5.302926E+03 -2.071579E+04
       147   3  3.665863E+05  1.272579E+05  3.593282E+04  1.496014E+05  2.970805E+03 -1.991237E+04
       147   4  1.350801E+05  4.439062E+04 -1.541837E+02  8.455827E+04  7.583209E+03 -2.052493E+04
       147   5  1.368181E+05  4.270086E+04 -7.999013E+01  8.257145E+04  7.405244E+03 -1.992689E+04
       147   6  1.350911E+05  4.444304E+04 -4.110728E+01  8.454015E+04  6.892851E+03 -1.843935E+04
       147   7 -1.474602E+05 -5.716644E+04 -4.710399E+04  5.429889E+03  7.865549E+03 -2.042000E+04
       147   8 -1.199911E+05 -4.930218E+04 -4.082159E+04  1.048783E+04  9.506654E+03 -1.913834E+04
       147   9 -9.634631E+04 -3.836615E+04 -3.601586E+04  1.950167E+04  1.081335E+04 -1.696691E+04
       147  10  4.177020E+05  1.459539E+05  4.679181E+04  1.637195E+05 -3.117871E-10  4.605572E-10
       147  11  3.936964E+05  1.347096E+05  4.065909E+04  1.546827E+05  4.027164E-11  7.543949E-10
       147  12  3.665862E+05  1.272574E+05  3.593206E+04  1.496015E+05  2.034604E-09 -6.781238E-10
       147  13  1.350800E+05  4.439015E+04 -1.550835E+02  8.455840E+04 -1.222773E-10 -4.070980E-10
       147  14  1.368180E+05  4.270041E+04 -8.083944E+01  8.257157E+04  1.044590E-09  3.678950E-09
       147  15  1.350910E+05  4.444267E+04 -4.183557E+01  8.454026E+04 -1.382472E-09 -1.525941E-09
       147  16 -1.474604E+05 -5.716691E+04 -4.710489E+04  5.430018E+03 -1.862914E-09  9.314970E-11
       147  17 -1.199913E+05 -4.930260E+04 -4.082245E+04  1.048797E+04 -2.300304E-09  1.103622E-09
       147  18 -9.634651E+04 -3.836649E+04 -3.601662E+04  1.950181E+04 -1.915651E-09 -1.677770E-09
       147  19  4.177021E+05  1.459544E+05  4.679271E+04  1.637194E+05 -7.300736E+03  2.062991E+04
       147  20  3.936966E+05  1.347101E+05  4.065995E+04  1.546826E+05 -5.302926E+03  2.071579E+04
       147  21  3.665863E+05  1.272579E+05  3.593282E+04  1.496014E+05 -2.970805E+03  1.991237E+04
       147  22  1.350801E+05  4.439062E+04 -1.541837E+02  8.455827E+04 -7.583209E+03  2.052493E+04
       147  23  1.368181E+05  4.270086E+04 -7.999013E+01  8.257145E+04 -7.405244E+03  1.992689E+04
       147  24  1.350911E+05  4.444304E+04 -4.110728E+01  8.454015E+04 -6.892851E+03  1.843935E+04
       147  25 -1.474602E+05 -5.716644E+04 -4.710399E+04  5.429889E+03 -7.865549E+03  2.042000E+04
       147  26 -1.199911E+05 -4.930218E+04 -4.082159E+04  1.048783E+04 -9.506654E+03  1.913834E+04
       147  27 -9.634631E+04 -3.836615E+04 -3.601586E+04  1.950167E+04 -1.081335E+04  1.696691E+04
       148   1  3.504643E+05  1.214719E+05  3.323133E+04  1.450996E+05  2.584893E+03 -1.875223E+04
       148   2  3.267026E+05  1.105842E+05  2.915796E+04  1.359421E+05  1.664072E+03 -1.687759E+04
       148   3  2.994813E+05  1.032340E+05  2.523550E+04  1.307845E+05  7.070787E+02 -1.490736E+04
       148   4  1.350840E+05  4.445555E+04 -2.953516E+01  8.455126E+04  6.468586E+03 -1.729342E+04
       148   5  1.368367E+05  4.271116E+04 -1.170690E+01  8.255044E+04  5.743333E+03 -1.534498E+04
       148   6  1.350901E+05  4.446559E+04  1.961011E+00  8.454952E+04  4.981889E+03 -1.330093E+04
       148   7 -8.024367E+04 -3.255495E+04 -3.329034E+04  2.402341E+04  1.035081E+04 -1.583517E+04
       148   8 -5.299020E+04 -2.515806E+04 -2.918183E+04  2.917420E+04  9.821278E+03 -1.381288E+04
       148   9 -2.927395E+04 -1.430067E+04 -2.523244E+04  3.832553E+04  9.255553E+03 -1.169494E+04
       148  10  3.504642E+05  1.214716E+05  3.323066E+04  1.450996E+05 -4.870361E-10 -1.223121E-09
       148  11  3.267025E+05  1.105839E+05  2.915742E+04  1.359421E+05 -1.808791E-09  1.465044E-09
       148  12  2.994813E+05  1.032338E+05  2.523508E+04  1.307845E+05 -1.482612E-11 -1.031932E-09
       148  13  1.350839E+05  4.445521E+04 -3.017584E+01  8.455135E+04  4.712085E-10 -1.091981E-09
       148  14  1.368366E+05  4.271090E+04 -1.221142E+01  8.255051E+04 -2.506351E-09 -2.792922E-09
       148  15  1.350900E+05  4.446540E+04  1.581881E+00  8.454957E+04 -1.419517E-09  3.924713E-10
       148  16 -8.024385E+04 -3.255525E+04 -3.329102E+04  2.402354E+04  1.252511E-10 -4.193500E-10
       148  17 -5.299035E+04 -2.515829E+04 -2.918237E+04  2.917431E+04 -9.786824E-11  7.168103E-10
       148  18 -2.927407E+04 -1.430084E+04 -2.523285E+04  3.832562E+04 -3.502117E-10  1.016329E-09
       148  19  3.504643E+05  1.214719E+05  3.323133E+04  1.450996E+05 -2.584893E+03  1.875223E+04
       148  20  3.267026E+05  1.105842E+05  2.915796E+04  1.359421E+05 -1.664072E+03  1.687759E+04
       148  21  2.994813E+05  1.032340E+05  2.523550E+04  1.307845E+05 -7.070787E+02  1.490736E+04
       148  22  1.350840E+05  4.445555E+04 -2.953516E+01  8.455126E+04 -6.468586E+03  1.729342E+04
       148  23  1.368367E+05  4.271116E+04 -1.170690E+01  8.255044E+04 -5.743333E+03  1.534498E+04
       148  24  1.350901E+05  4.446559E+04  1.961011E+00  8.454952E+04 -4.981889E+03  1.330093E+04
       148  25 -8.024367E+04 -3.255495E+04 -3.329034E+04  2.402341E+04 -1.035081E+04  1.583517E+04
       148  26 -5.299020E+04 -2.515806E+04 -2.918183E+04  2.917420E+04 -9.821278E+03  1.381288E+04
       148  27 -2.927395E+04 -1.430067E+04 -2.523244E+04  3.832553E+04 -9.255553E+03  1.169494E+04
       149   1  2.834285E+05  9.747958E+04  2.265888E+04  1.262807E+05  2.526761E+02 -1.368693E+04
       149   2  2.597036E+05  8.663340E+04  1.881309E+04  1.171134E+05 -5.649843E+02 -1.160665E+04
       149   3  2.324813E+05  7.929489E+04  1.499166E+04  1.119496E+05 -1.386391E+03 -9.516808E+03
       149   4  1.350900E+05  4.446761E+04  8.006225E+00  8.455004E+04  4.522901E+03 -1.208207E+04
       149   5  1.368422E+05  4.271737E+04  2.382618E+01  8.254831E+04  3.724727E+03 -9.994260E+03
       149   6  1.350924E+05  4.447079E+04  4.843923E+01  8.454973E+04  2.922809E+03 -7.896898E+03
       149   7 -1.322467E+04 -8.541972E+03 -2.264308E+04  4.282883E+04  8.792046E+03 -1.047761E+04
       149   8  1.399799E+04 -1.196734E+03 -1.876535E+04  4.798988E+04  8.013516E+03 -8.382219E+03
       149   9  3.771511E+04  9.648176E+03 -1.489451E+04  5.715422E+04  7.231243E+03 -6.277275E+03
       149  10  2.834284E+05  9.747937E+04  2.265853E+04  1.262807E+05  8.831014E-10  6.236573E-10
       149  11  2.597035E+05  8.663325E+04  1.881284E+04  1.171134E+05  2.846054E-09  6.484402E-10
       149  12  2.324812E+05  7.929479E+04  1.499149E+04  1.119496E+05  1.071191E-09  9.939674E-10
       149  13  1.350899E+05  4.446745E+04  7.693438E+00  8.455009E+04 -4.551193E-11  6.642117E-10
       149  14  1.368422E+05  4.271726E+04  2.361239E+01  8.254834E+04 -4.948241E-10  2.051272E-09
       149  15  1.350924E+05  4.447072E+04  4.830597E+01  8.454975E+04 -1.885773E-09  1.965539E-09
       149  16 -1.322478E+04 -8.542111E+03 -2.264344E+04  4.282890E+04 -2.206221E-09  1.178587E-09
       149  17  1.399790E+04 -1.196827E+03 -1.876561E+04  4.798993E+04 -1.527877E-09  3.183253E-10
       149  18  3.771505E+04  9.648119E+03 -1.489468E+04  5.715426E+04 -2.340719E-09  6.246172E-10
       149  19  2.834285E+05  9.747958E+04  2.265888E+04  1.262807E+05 -2.526761E+02  1.368693E+04
       149  20  2.597036E+05  8.663340E+04  1.881309E+04  1.171134E+05  5.649843E+02  1.160665E+04
       149  21  2.324813E+05  7.929489E+04  1.499166E+04  1.119496E+05  1.386391E+03  9.516808E+03
       149  22  1.350900E+05  4.446761E+04  8.006225E+00  8.455004E+04 -4.522901E+03  1.208207E+04
       149  23  1.368422E+05  4.271737E+04  2.382618E+01  8.254831E+04 -3.724727E+03  9.994260E+03
       149  24  1.350924E+05  4.447079E+04  4.843923E+01  8.454973E+04 -2.922809E+03  7.896898E+03
       149  25 -1.322467E+04 -8.541972E+03 -2.264308E+04  4.282883E+04 -8.792046E+03  1.047761E+04
       149  26  1.399799E+04 -1.196734E+03 -1.876535E+04  4.798988E+04 -8.013516E+03  8.382219E+03
       149  27  3.771511E+04  9.648176E+03 -1.489451E+04  5.715422E+04 -7.231243E+03  6.277275E+03
       150   1  2.164397E+05  7.354331E+04  1.243974E+04  1.074474E+05 -1.856437E+03 -8.293729E+03
       150   2  1.927193E+05  6.270085E+04  8.654284E+03  9.828378E+04 -2.699372E+03 -6.209060E+03
       150   3  1.655025E+05  5.536446E+04  4.907633E+03  9.312447E+04 -3.540796E+03 -4.128591E+03
       150   4  1.350951E+05  4.447128E+04  6.606898E+01  8.455066E+04  2.452135E+03 -6.673966E+03
       150   5  1.368428E+05  4.271661E+04  1.215757E+02  8.254893E+04  1.600568E+03 -4.592436E+03
       150   6  1.350956E+05  4.446990E+04  2.228452E+02  8.455147E+04  7.505120E+02 -2.515115E+03
       150   7  5.375671E+04  1.539958E+04 -1.230789E+04  6.165644E+04  6.760162E+03 -5.054408E+03
       150   8  8.096928E+04  2.273259E+04 -8.411196E+03  6.681533E+04  5.900126E+03 -2.975956E+03
       150   9  1.046897E+05  3.357544E+04 -4.461881E+03  7.597887E+04  5.041600E+03 -9.017212E+02
       150  10  2.164397E+05  7.354324E+04  1.243960E+04  1.074474E+05 -3.076967E-10  2.233548E-10
       150  11  1.927193E+05  6.270081E+04  8.654198E+03  9.828377E+04 -6.922831E-10 -1.310303E-10
       150  12  1.655025E+05  5.536444E+04  4.907577E+03  9.312446E+04  1.313696E-09 -1.200968E-09
       150  13  1.350951E+05  4.447123E+04  6.597397E+01  8.455067E+04 -1.598558E-09  8.526361E-10
       150  14  1.368428E+05  4.271659E+04  1.215312E+02  8.254894E+04 -4.235090E-09 -8.773942E-11
       150  15  1.350956E+05  4.446989E+04  2.228322E+02  8.455147E+04  4.025485E-11 -8.994269E-10
       150  16  5.375666E+04  1.539954E+04 -1.230803E+04  6.165646E+04 -2.856060E-09  1.929033E-09
       150  17  8.096924E+04  2.273257E+04 -8.411278E+03  6.681534E+04 -4.762987E-10  2.788312E-09
       150  18  1.046897E+05  3.357544E+04 -4.461931E+03  7.597887E+04  1.355625E-10 -1.925188E-09
       150  19  2.164397E+05  7.354331E+04  1.243974E+04  1.074474E+05  1.856437E+03  8.293729E+03
       150  20  1.927193E+05  6.270085E+04  8.654284E+03  9.828378E+04  2.699372E+03  6.209060E+03
       150  21  1.655025E+05  5.536446E+04  4.907633E+03  9.312447E+04  3.540796E+03  4.128591E+03
       150  22  1.350951E+05  4.447128E+04  6.606898E+01  8.455066E+04 -2.452135E+03  6.673966E+03
       150  23  1.368428E+05  4.271661E+04  1.215757E+02  8.254893E+04 -1.600568E+03  4.592436E+03
       150  24  1.350956E+05  4.446990E+04  2.228452E+02  8.455147E+04 -7.505120E+02  2.515115E+03
       150  25  5.375671E+04  1.539958E+04 -1.230789E+04  6.165644E+04 -6.760162E+03  5.054408E+03
       150  26  8.096928E+04  2.273259E+04 -8.411196E+03  6.681533E+04 -5.900126E+03  2.975956E+03
       150  27  1.046897E+05  3.357544E+04 -4.461881E+03  7.597887E+04 -5.041600E+03  9.017212E+02
       151   1  1.494649E+05  4.961697E+04  2.408484E+03  8.863290E+04 -4.045195E+03 -2.922225E+03
       151   2  1.257403E+05  3.876818E+04 -1.230072E+03  7.945770E+04 -4.998420E+03 -9.122608E+02
       151   3  9.855169E+04  3.145983E+04 -4.730039E+03  7.428039E+04 -5.933599E+03  1.049849E+03
       151   4  1.351049E+05  4.446855E+04  2.978086E+02  8.455489E+04  2.479860E+02 -1.308027E+03
       151   5  1.368319E+05  4.271966E+04  5.424066E+02  8.254441E+04 -8.032346E+02  6.650677E+02
       151   6  1.351134E+05  4.453045E+04  1.003093E+03  8.453148E+04 -1.836424E+03  2.590316E+03
       151   7  1.207454E+05  3.932023E+04 -1.812742E+03  8.047703E+04  4.541012E+03  3.061125E+02
       151   8  1.479237E+05  4.667117E+04  2.314958E+03  8.563119E+04  3.392030E+03  2.242426E+03
       151   9  1.716770E+05  5.760139E+04  6.736396E+03  9.478327E+04  2.261054E+03  4.130896E+03
       151  10  1.494649E+05  4.961696E+04  2.408438E+03  8.863289E+04 -7.196753E-10 -9.846668E-10
       151  11  1.257403E+05  3.876817E+04 -1.230120E+03  7.945769E+04  1.951393E-11  1.676936E-09
       151  12  9.855166E+04  3.145982E+04 -4.730107E+03  7.428040E+04  1.803864E-09  2.036619E-09
       151  13  1.351049E+05  4.446855E+04  2.978053E+02  8.455489E+04 -8.640066E-10  1.107220E-09
       151  14  1.368319E+05  4.271966E+04  5.424046E+02  8.254441E+04  5.289497E-09  1.000194E-09
       151  15  1.351134E+05  4.453044E+04  1.003075E+03  8.453149E+04  7.112135E-09 -4.666933E-10
       151  16  1.207453E+05  3.932022E+04 -1.812781E+03  8.047703E+04  3.559952E-09 -7.780955E-10
       151  17  1.479237E+05  4.667116E+04  2.314927E+03  8.563118E+04  6.159752E-09  4.492809E-10
       151  18  1.716770E+05  5.760137E+04  6.736354E+03  9.478326E+04  4.087109E-09  4.565501E-10
       151  19  1.494649E+05  4.961697E+04  2.408484E+03  8.863290E+04  4.045195E+03  2.922225E+03
       151  20  1.257403E+05  3.876818E+04 -1.230072E+03  7.945770E+04  4.998420E+03  9.122608E+02
       151  21  9.855169E+04  3.145983E+04 -4.730039E+03  7.428039E+04  5.933599E+03 -1.049849E+03
       151  22  1.351049E+05  4.446855E+04  2.978086E+02  8.455489E+04 -2.479860E+02  1.308027E+03
       151  23  1.368319E+05  4.271966E+04  5.424066E+02  8.254441E+04  8.032346E+02 -6.650677E+02
       151  24  1.351134E+05  4.453045E+04  1.003093E+03  8.453148E+04  1.836424E+03 -2.590316E+03
       151  25  1.207454E+05  3.932023E+04 -1.812742E+03  8.047703E+04 -4.541012E+03 -3.061125E+02
       151  26  1.479237E+05  4.667117E+04  2.314958E+03  8.563119E+04 -3.392030E+03 -2.242426E+03
       151  27  1.716770E+05  5.760139E+04  6.736396E+03  9.478327E+04 -2.261054E+03 -4.130896E+03
       152   1  8.249644E+04  2.576195E+04 -7.029899E+03  6.986241E+04 -6.579198E+03  2.160033E+03
       152   2  5.901009E+04  1.482074E+04 -1.018951E+04  6.023889E+04 -7.594779E+03  3.821720E+03
       152   3  3.232497E+04  7.980866E+03 -1.292447E+04  5.443800E+04 -8.443227E+03  5.039164E+03
       152   4  1.351869E+05  4.454299E+04  1.341974E+03  8.454797E+04 -2.463181E+03  3.707547E+03
       152   5  1.367886E+05  4.305730E+04  2.479557E+03  8.239036E+04 -4.387598E+03  5.027415E+03
       152   6  1.353708E+05  4.585273E+04  4.761644E+03  8.405504E+04 -6.144901E+03  5.903067E+03
       152   7  1.878803E+05  6.332433E+04  9.713860E+03  9.923469E+04  1.653205E+03  5.255198E+03
       152   8  2.145732E+05  7.129434E+04  1.514840E+04  1.045443E+05 -1.180012E+03  6.233267E+03
       152   9  2.384267E+05  8.372527E+04  2.244713E+04  1.136764E+05 -3.846197E+03  6.767119E+03
       152  10  8.249639E+04  2.576193E+04 -7.029989E+03  6.986242E+04  3.805021E-09  1.370832E-09
       152  11  5.901003E+04  1.482071E+04 -1.018965E+04  6.023892E+04  3.422855E-09 -4.932785E-10
       152  12  3.232489E+04  7.980819E+03 -1.292465E+04  5.443803E+04  1.876893E-09 -1.077866E-09
       152  13  1.351869E+05  4.454298E+04  1.341937E+03  8.454797E+04  5.145752E-09  2.406690E-09
       152  14  1.367886E+05  4.305727E+04  2.479473E+03  8.239038E+04  6.871493E-09 -6.448705E-11
       152  15  1.353708E+05  4.585268E+04  4.761507E+03  8.405507E+04  3.019618E-09  1.528494E-10
       152  16  1.878803E+05  6.332430E+04  9.713803E+03  9.923468E+04  5.317090E-10  1.250295E-10
       152  17  2.145732E+05  7.129430E+04  1.514833E+04  1.045443E+05 -1.740555E-09  2.652371E-09
       152  18  2.384267E+05  8.372522E+04  2.244702E+04  1.136764E+05 -1.319356E-09  1.388558E-09
       152  19  8.249644E+04  2.576195E+04 -7.029899E+03  6.986241E+04  6.579198E+03 -2.160033E+03
       152  20  5.901009E+04  1.482074E+04 -1.018951E+04  6.023889E+04  7.594779E+03 -3.821720E+03
       152  21  3.232497E+04  7.980866E+03 -1.292447E+04  5.443800E+04  8.443227E+03 -5.039164E+03
       152  22  1.351869E+05  4.454299E+04  1.341974E+03  8.454797E+04  2.463181E+03 -3.707547E+03
       152  23  1.367886E+05  4.305730E+04  2.479557E+03  8.239036E+04  4.387598E+03 -5.027415E+03
       152  24  1.353708E+05  4.585273E+04  4.761644E+03  8.405504E+04  6.144901E+03 -5.903067E+03
       152  25  1.878803E+05  6.332433E+04  9.713860E+03  9.923469E+04 -1.653205E+03 -5.255198E+03
       152  26  2.145732E+05  7.129434E+04  1.514840E+04  1.045443E+05  1.180012E+03 -6.233267E+03
       152  27  2.384267E+05  8.372527E+04  2.244713E+04  1.136764E+05  3.846197E+03 -6.767119E+03
       153   1  1.610276E+04  3.018574E+03 -1.452173E+04  5.076014E+04 -9.651138E+03  5.537346E+03
       153   2 -2.898200E+03 -9.128021E+03 -1.675451E+04  3.383264E+04 -7.275372E+03  5.462043E+03
       153   3 -2.198859E+04 -8.948079E+03 -1.800673E+04  1.805543E+04 -3.352835E+03  1.270843E+03
       153   4  1.361318E+05  4.617846E+04  6.401726E+03  8.414931E+04 -7.179056E+03  6.466514E+03
       153   5  1.367168E+05  4.891036E+04  1.229941E+04  7.991658E+04 -1.322067E+04  3.226894E+03
       153   6  1.388784E+05  6.563466E+04  2.584584E+04  7.683463E+04 -1.771590E+04 -4.128098E+03
       153   7  2.561783E+05  8.934052E+04  2.732536E+04  1.175451E+05 -4.706422E+03  7.395888E+03
       153   8  2.763517E+05  1.069520E+05  4.135236E+04  1.260106E+05 -1.916737E+04  9.910441E+02
       153   9  2.997679E+05  1.402217E+05  6.969590E+04  1.356277E+05 -3.208268E+04 -9.529272E+03
       153  10  1.610266E+04  3.018516E+03 -1.452196E+04  5.076019E+04 -4.539836E-10 -6.810177E-10
       153  11 -2.898265E+03 -9.128067E+03 -1.675467E+04  3.383267E+04 -7.937747E-10  1.281841E-10
       153  12 -2.198860E+04 -8.948083E+03 -1.800676E+04  1.805543E+04  2.136816E-09  2.668413E-10
       153  13  1.361318E+05  4.617840E+04  6.401550E+03  8.414934E+04  8.477384E-11 -4.766366E-10
       153  14  1.367166E+05  4.891030E+04  1.229906E+04  7.991661E+04 -3.843731E-10  9.578569E-10
       153  15  1.388781E+05  6.563456E+04  2.584522E+04  7.683457E+04  2.947188E-10  7.198108E-10
       153  16  2.561782E+05  8.934046E+04  2.732521E+04  1.175451E+05 -7.674990E-11  1.540480E-09
       153  17  2.763513E+05  1.069519E+05  4.135166E+04  1.260106E+05  8.001088E-10  8.443956E-10
       153  18  2.997668E+05  1.402213E+05  6.969380E+04  1.356275E+05 -9.329332E-10 -1.165288E-09
       153  19  1.610276E+04  3.018574E+03 -1.452173E+04  5.076014E+04  9.651138E+03 -5.537346E+03
       153  20 -2.898200E+03 -9.128021E+03 -1.675451E+04  3.383264E+04  7.275372E+03 -5.462043E+03
       153  21 -2.198859E+04 -8.948079E+03 -1.800673E+04  1.805543E+04  3.352835E+03 -1.270843E+03
       153  22  1.361318E+05  4.617846E+04  6.401726E+03  8.414931E+04  7.179056E+03 -6.466514E+03
       153  23  1.367168E+05  4.891036E+04  1.229941E+04  7.991658E+04  1.322067E+04 -3.226894E+03
       153  24  1.388784E+05  6.563466E+04  2.584584E+04  7.683463E+04  1.771590E+04  4.128098E+03
       153  25  2.561783E+05  8.934052E+04  2.732536E+04  1.175451E+05  4.706422E+03 -7.395888E+03
       153  26  2.763517E+05  1.069520E+05  4.135236E+04  1.260106E+05  1.916737E+04 -9.910441E+02
       153  27  2.997679E+05  1.402217E+05  6.969590E+04  1.356277E+05  3.208268E+04  9.529272E+03
       154   1 -1.236450E+05 -5.996265E+05 -1.420621E+05  3.858987E+04 -1.858535E+03 -5.830299E+04
       154   2 -3.580775E+04 -5.486288E+05 -8.498873E+04  8.075686E+03 -5.283352E+03 -3.542238E+04
       154   3 -3.577869E+04 -5.224392E+05 -6.475015E+04  1.294329E+04 -3.809305E+03 -1.253619E+04
       154   4 -6.627727E+04 -3.700393E+05 -8.513106E+04  2.079296E+04 -1.858950E+03 -5.592878E+04
       154   5  1.164964E+04 -3.578051E+05 -3.866620E+04  3.131565E+03 -5.283263E+03 -3.503872E+04
       154   6  2.128550E+03 -3.700264E+05 -2.764372E+04  2.085253E+04 -3.808426E+03 -1.414459E+04
       154   7 -8.912295E+03 -1.404034E+05 -2.820380E+04  2.989460E+03 -1.859501E+03 -5.355370E+04
       154   8  5.910444E+04 -1.669481E+05  7.653709E+03 -1.814076E+03 -5.283180E+03 -3.465494E+04
       154   9  4.003432E+04 -2.175922E+05  9.461075E+03  2.876373E+04 -3.807589E+03 -1.575339E+04
       154  10 -1.236459E+05 -5.996301E+05 -1.420685E+05  3.858978E+04 -5.368117E-10  1.606996E-09
       154  11 -3.580811E+04 -5.486302E+05 -8.499114E+04  8.075536E+03  3.076712E-10  5.708187E-10
       154  12 -3.577875E+04 -5.224394E+05 -6.475047E+04  1.294326E+04 -1.550307E-09 -6.505269E-11
       154  13 -6.627812E+04 -3.700426E+05 -8.513695E+04  2.079287E+04 -5.362911E-10  2.055220E-09
       154  14  1.164928E+04 -3.578064E+05 -3.866856E+04  3.131416E+03  1.145782E-09  4.392278E-09
       154  15  2.128481E+03 -3.700266E+05 -2.764412E+04  2.085249E+04 -8.410465E-10 -3.286958E-11
       154  16 -8.913069E+03 -1.404065E+05 -2.820920E+04  2.989380E+03  3.354943E-10 -2.932211E-10
       154  17  5.910409E+04 -1.669494E+05  7.651399E+03 -1.814223E+03  2.905769E-09 -1.703579E-09
       154  18  4.003423E+04 -2.175924E+05  9.460582E+03  2.876368E+04  2.392274E-10 -2.211742E-10
       154  19 -1.236450E+05 -5.996265E+05 -1.420621E+05  3.858987E+04  1.858535E+03  5.830299E+04
       154  20 -3.580775E+04 -5.486288E+05 -8.498873E+04  8.075686E+03  5.283352E+03  3.542238E+04
       154  21 -3.577869E+04 -5.224392E+05 -6.475015E+04  1.294329E+04  3.809305E+03  1.253619E+04
       154  22 -6.627727E+04 -3.700393E+05 -8.513106E+04  2.079296E+04  1.858950E+03  5.592878E+04
       154  23  1.164964E+04 -3.578051E+05 -3.866620E+04  3.131565E+03  5.283263E+03  3.503872E+04
       154  24  2.128550E+03 -3.700264E+05 -2.764372E+04  2.085253E+04  3.808426E+03  1.414459E+04
       154  25 -8.912295E+03 -1.404034E+05 -2.820380E+04  2.989460E+03  1.859501E+03  5.355370E+04
       154  26  5.910444E+04 -1.669481E+05  7.653709E+03 -1.814076E+03  5.283180E+03  3.465494E+04
       154  27  4.003432E+04 -2.175922E+05  9.461075E+03  2.876373E+04  3.807589E+03  1.575339E+04
       155   1 -2.863594E+04 -4.506760E+05 -4.535148E+04  2.389499E+04 -2.196081E+03 -9.185275E+03
       155   2 -8.558013E+03 -4.085955E+05 -3.028454E+04  3.041103E+03 -1.196949E+03  7.670996E+02
       155   3 -9.600578E+03 -3.730379E+05 -2.696943E+04  1.794264E+04 -3.635791E+01  1.072004E+04
       155   4 -7.579206E+03 -3.660370E+05 -2.476561E+04  2.091577E+04 -2.195808E+03 -9.562803E+03
       155   5  2.837075E+03 -3.627805E+05 -1.914361E+04  3.038166E+03 -1.196705E+03  3.246257E+02
       155   6 -7.854890E+03 -3.660366E+05 -2.522742E+04  2.091601E+04 -3.605794E+01  1.021200E+04
       155   7  1.347704E+04 -2.813913E+05 -4.180249E+03  1.793614E+04 -2.195531E+03 -9.940381E+03
       155   8  1.423201E+04 -3.169636E+05 -8.002820E+03  3.035230E+03 -1.196461E+03 -1.178809E+02
       155   9 -6.109173E+03 -3.590353E+05 -2.348541E+04  2.388942E+04 -3.576284E+01  9.703961E+03
       155  10 -2.863597E+04 -4.506761E+05 -4.535165E+04  2.389497E+04 -1.791589E-09  9.952353E-10
       155  11 -8.558015E+03 -4.085955E+05 -3.028455E+04  3.041103E+03  3.821762E-10  1.823243E-09
       155  12 -9.600609E+03 -3.730380E+05 -2.696964E+04  1.794264E+04 -2.113911E-09  1.198431E-09
       155  13 -7.579235E+03 -3.660371E+05 -2.476579E+04  2.091575E+04 -5.970605E-10  7.580340E-10
       155  14  2.837073E+03 -3.627805E+05 -1.914361E+04  3.038166E+03 -2.228250E-09  3.073680E-09
       155  15 -7.854918E+03 -3.660367E+05 -2.522762E+04  2.091601E+04 -2.168841E-09 -3.601924E-10
       155  16  1.347701E+04 -2.813914E+05 -4.180444E+03  1.793612E+04  9.351576E-10 -6.630735E-10
       155  17  1.423201E+04 -3.169636E+05 -8.002823E+03  3.035229E+03  1.312994E-09 -1.694360E-09
       155  18 -6.109198E+03 -3.590354E+05 -2.348559E+04  2.388942E+04  2.167725E-10 -1.765239E-09
       155  19 -2.863594E+04 -4.506760E+05 -4.535148E+04  2.389499E+04  2.196081E+03  9.185275E+03
       155  20 -8.558013E+03 -4.085955E+05 -3.028454E+04  3.041103E+03  1.196949E+03 -7.670996E+02
       155  21 -9.600578E+03 -3.730379E+05 -2.696943E+04  1.794264E+04  3.635791E+01 -1.072004E+04
       155  22 -7.579206E+03 -3.660370E+05 -2.476561E+04  2.091577E+04  2.195808E+03  9.562803E+03
       155  23  2.837075E+03 -3.627805E+05 -1.914361E+04  3.038166E+03  1.196705E+03 -3.246257E+02
       155  24 -7.854890E+03 -3.660366E+05 -2.522742E+04  2.091601E+04  3.605794E+01 -1.021200E+04
       155  25  1.347704E+04 -2.813913E+05 -4.180249E+03  1.793614E+04  2.195531E+03  9.940381E+03
       155  26  1.423201E+04 -3.169636E+05 -8.002820E+03  3.035230E+03  1.196461E+03  1.178809E+02
       155  27 -6.109173E+03 -3.590353E+05 -2.348541E+04  2.388942E+04  3.576284E+01 -9.703961E+03
       156   1  1.742935E+04 -3.092733E+05 -1.341920E+04  2.911690E+04  1.352514E+03  1.613486E+04
       156   2  3.681185E+04 -2.579532E+05 -1.568847E+04 -1.974687E+03  2.797940E+03  3.637944E+04
       156   3 -3.391990E+04 -2.317265E+05 -5.365342E+04  2.545011E+03  1.059843E+03  5.662330E+04
       156   4  2.270730E+03 -3.702155E+05 -2.829714E+04  2.089970E+04  1.352931E+03  1.489035E+04
       156   5  1.204442E+04 -3.575592E+05 -3.985131E+04  3.070770E+03  2.798233E+03  3.642997E+04
       156   6 -6.852968E+04 -3.702280E+05 -8.800560E+04  2.085385E+04  1.060650E+03  5.796756E+04
       156   7 -1.288791E+04 -4.311541E+05 -4.317530E+04  1.268330E+04  1.353382E+03  1.364597E+04
       156   8 -1.272364E+04 -4.571561E+05 -6.401485E+04  8.115415E+03  2.798526E+03  3.648049E+04
       156   9 -1.031396E+05 -5.087114E+05 -1.223590E+05  3.915860E+04  1.061538E+03  5.931152E+04
       156  10  1.742928E+04 -3.092736E+05 -1.341969E+04  2.911689E+04 -1.479261E-09  2.388874E-10
       156  11  3.681148E+04 -2.579547E+05 -1.569097E+04 -1.974769E+03  2.200957E-09  3.516304E-10
       156  12 -3.392076E+04 -2.317299E+05 -5.365945E+04  2.544963E+03  2.637806E-10  4.111379E-10
       156  13  2.270669E+03 -3.702157E+05 -2.829756E+04  2.089968E+04 -1.517859E-10  1.746628E-09
       156  14  1.204406E+04 -3.575607E+05 -3.985382E+04  3.070688E+03 -1.996307E-09  3.191682E-09
       156  15 -6.853059E+04 -3.702316E+05 -8.801192E+04  2.085380E+04  2.567428E-09  6.575789E-10
       156  16 -1.288796E+04 -4.311543E+05 -4.317565E+04  1.268328E+04 -3.242337E-10  5.501602E-10
       156  17 -1.272400E+04 -4.571575E+05 -6.401736E+04  8.115333E+03  8.166299E-10 -4.802331E-10
       156  18 -1.031406E+05 -5.087151E+05 -1.223657E+05  3.915855E+04  3.483017E-10  1.744175E-10
       156  19  1.742935E+04 -3.092733E+05 -1.341920E+04  2.911690E+04 -1.352514E+03 -1.613486E+04
       156  20  3.681185E+04 -2.579532E+05 -1.568847E+04 -1.974687E+03 -2.797940E+03 -3.637944E+04
       156  21 -3.391990E+04 -2.317265E+05 -5.365342E+04  2.545011E+03 -1.059843E+03 -5.662330E+04
       156  22  2.270730E+03 -3.702155E+05 -2.829714E+04  2.089970E+04 -1.352931E+03 -1.489035E+04
       156  23  1.204442E+04 -3.575592E+05 -3.985131E+04  3.070770E+03 -2.798233E+03 -3.642997E+04
       156  24 -6.852968E+04 -3.702280E+05 -8.800560E+04  2.085385E+04 -1.060650E+03 -5.796756E+04
       156  25 -1.288791E+04 -4.311541E+05 -4.317530E+04  1.268330E+04 -1.353382E+03 -1.364597E+04
       156  26 -1.272364E+04 -4.571561E+05 -6.401485E+04  8.115415E+03 -2.798526E+03 -3.648049E+04
       156  27 -1.031396E+05 -5.087114E+05 -1.223590E+05  3.915860E+04 -1.061538E+03 -5.931152E+04
       157   1  2.280318E+05  7.726917E+04  4.732862E+04  8.403254E+04  2.368064E+04  8.336164E+03
       157   2  2.199250E+05  4.040098E+04  2.472974E+04  8.454462E+04  1.522124E+04  4.046094E+03
       157   3  2.218704E+05  3.711621E+04  1.714968E+04  8.021105E+04  6.325360E+03  9.167960E+02
       157   4  1.910186E+05  5.417783E+04  3.551898E+04  6.455955E+04  2.277324E+04  7.994423E+03
       157   5  1.841936E+05  2.425525E+04  1.496961E+04  7.194729E+04  1.499261E+04  3.960004E+03
       157   6  1.872871E+05  2.778256E+04  8.902077E+03  7.448923E+04  6.775392E+03  1.086125E+03
       157   7  1.540073E+05  3.108772E+04  2.370935E+04  4.508805E+04  2.186591E+04  7.652742E+03
       157   8  1.484636E+05  8.109833E+03  5.209394E+03  5.935070E+04  1.476399E+04  3.873923E+03
       157   9  1.527048E+05  1.844883E+04  6.543561E+02  6.876760E+04  7.225397E+03  1.255451E+03
       157  10  2.280312E+05  7.726895E+04  4.732744E+04  8.403238E+04 -5.545579E-10  5.742151E-10
       157  11  2.199248E+05  4.040090E+04  2.472927E+04  8.454457E+04  2.556334E-09  3.771729E-10
       157  12  2.218703E+05  3.711620E+04  1.714960E+04  8.021104E+04 -1.171183E-09  2.036900E-09
       157  13  1.910180E+05  5.417763E+04  3.551789E+04  6.455941E+04  2.126352E-09 -1.756389E-09
       157  14  1.841934E+05  2.425518E+04  1.496916E+04  7.194724E+04  2.998276E-09 -2.098150E-09
       157  15  1.872870E+05  2.778255E+04  8.901988E+03  7.448922E+04  1.870512E-09 -6.220970E-11
       157  16  1.540068E+05  3.108753E+04  2.370835E+04  4.508791E+04  2.786916E-09  2.709653E-09
       157  17  1.484634E+05  8.109758E+03  5.208957E+03  5.935066E+04  4.900479E-09  2.322221E-09
       157  18  1.527047E+05  1.844881E+04  6.542551E+02  6.876760E+04  1.347584E-11  2.163125E-10
       157  19  2.280318E+05  7.726917E+04  4.732862E+04  8.403254E+04 -2.368064E+04 -8.336164E+03
       157  20  2.199250E+05  4.040098E+04  2.472974E+04  8.454462E+04 -1.522124E+04 -4.046094E+03
       157  21  2.218704E+05  3.711621E+04  1.714968E+04  8.021105E+04 -6.325360E+03 -9.167960E+02
       157  22  1.910186E+05  5.417783E+04  3.551898E+04  6.455955E+04 -2.277324E+04 -7.994423E+03
       157  23  1.841936E+05  2.425525E+04  1.496961E+04  7.194729E+04 -1.499261E+04 -3.960004E+03
       157  24  1.872871E+05  2.778256E+04  8.902077E+03  7.448923E+04 -6.775392E+03 -1.086125E+03
       157  25  1.540073E+05  3.108772E+04  2.370935E+04  4.508805E+04 -2.186591E+04 -7.652742E+03
       157  26  1.484636E+05  8.109833E+03  5.209394E+03  5.935070E+04 -1.476399E+04 -3.873923E+03
       157  27  1.527048E+05  1.844883E+04  6.543561E+02  6.876760E+04 -7.225397E+03 -1.255451E+03
       158   1  2.108057E+05  4.124358E+04  1.372970E+04  8.000986E+04  5.331076E+03  9.060004E+02
       158   2  2.059204E+05  3.460501E+04  8.547038E+03  7.721080E+04  3.391750E+03  4.056892E+02
       158   3  1.996462E+05  3.361236E+04  5.544588E+03  7.682316E+04  1.425169E+03 -2.208679E+01
       158   4  1.861341E+05  3.122911E+04  7.195271E+03  7.248043E+04  5.427121E+03  9.421204E+02
       158   5  1.866591E+05  2.718195E+04  3.528933E+03  7.173695E+04  3.530248E+03  4.577886E+02
       158   6  1.857868E+05  2.877235E+04  2.009236E+03  7.340484E+04  1.606105E+03  4.598323E+01
       158   7  1.614630E+05  2.121471E+04  6.607954E+02  6.495128E+04  5.523161E+03  9.782385E+02
       158   8  1.673982E+05  1.975893E+04 -1.489194E+03  6.626326E+04  3.668740E+03  5.098860E+02
       158   9  1.719277E+05  2.393235E+04 -1.526119E+03  6.998660E+04  1.787035E+03  1.140516E+02
       158  10  2.108056E+05  4.124357E+04  1.372964E+04  8.000986E+04 -3.649487E-09  4.219523E-10
       158  11  2.059204E+05  3.460500E+04  8.547016E+03  7.721080E+04 -7.139089E-10  1.131476E-09
       158  12  1.996462E+05  3.361236E+04  5.544585E+03  7.682316E+04  3.078866E-09  3.617329E-09
       158  13  1.861340E+05  3.122910E+04  7.195215E+03  7.248043E+04 -1.266125E-09 -2.413081E-09
       158  14  1.866591E+05  2.718195E+04  3.528909E+03  7.173695E+04 -4.150299E-09 -6.103100E-09
       158  15  1.857868E+05  2.877234E+04  2.009231E+03  7.340484E+04  1.413735E-10  2.649495E-09
       158  16  1.614630E+05  2.121470E+04  6.607363E+02  6.495127E+04 -3.027272E-09 -3.314304E-10
       158  17  1.673982E+05  1.975893E+04 -1.489220E+03  6.626326E+04 -6.409749E-09  3.877265E-09
       158  18  1.719277E+05  2.393235E+04 -1.526125E+03  6.998660E+04 -4.860108E-09  1.998606E-09
       158  19  2.108057E+05  4.124358E+04  1.372970E+04  8.000986E+04 -5.331076E+03 -9.060004E+02
       158  20  2.059204E+05  3.460501E+04  8.547038E+03  7.721080E+04 -3.391750E+03 -4.056892E+02
       158  21  1.996462E+05  3.361236E+04  5.544588E+03  7.682316E+04 -1.425169E+03  2.208679E+01
       158  22  1.861341E+05  3.122911E+04  7.195271E+03  7.248043E+04 -5.427121E+03 -9.421204E+02
       158  23  1.866591E+05  2.718195E+04  3.528933E+03  7.173695E+04 -3.530248E+03 -4.577886E+02
       158  24  1.857868E+05  2.877235E+04  2.009236E+03  7.340484E+04 -1.606105E+03 -4.598323E+01
       158  25  1.614630E+05  2.121471E+04  6.607954E+02  6.495128E+04 -5.523161E+03 -9.782385E+02
       158  26  1.673982E+05  1.975893E+04 -1.489194E+03  6.626326E+04 -3.668740E+03 -5.098860E+02
       158  27  1.719277E+05  2.393235E+04 -1.526119E+03  6.998660E+04 -1.787035E+03 -1.140516E+02
       159   1  1.925232E+05  3.170549E+04  3.322377E+03  7.513984E+04  1.096143E+03  5.049184E+01
       159   2  1.880169E+05  2.788837E+04  1.111317E+03  7.202991E+04  5.728544E+02  1.662342E+02
       159   3  1.809458E+05  2.707085E+04 -7.131556E+02  7.197204E+04  4.786294E+01  2.864950E+02
       159   4  1.856544E+05  2.908402E+04  1.556792E+03  7.320940E+04  1.254862E+03  1.102037E+02
       159   5  1.869212E+05  2.747277E+04  8.271111E+02  7.172539E+04  7.342194E+02  2.269424E+02
       159   6  1.856228E+05  2.886065E+04  4.819608E+02  7.329346E+04  2.118714E+02  3.481982E+02
       159   7  1.787856E+05  2.646255E+04 -2.088021E+02  7.127898E+04  1.413578E+03  1.699150E+02
       159   8  1.858255E+05  2.705718E+04  5.429049E+02  7.142087E+04  8.955844E+02  2.876506E+02
       159   9  1.902998E+05  3.065045E+04  1.677076E+03  7.461489E+04  3.758811E+02  4.099019E+02
       159  10  1.925232E+05  3.170549E+04  3.322374E+03  7.513984E+04 -2.637758E-09  2.817119E-09
       159  11  1.880169E+05  2.788837E+04  1.111316E+03  7.202991E+04 -3.577509E-09  1.784283E-09
       159  12  1.809458E+05  2.707085E+04 -7.131557E+02  7.197204E+04  9.878335E-10  4.577723E-09
       159  13  1.856544E+05  2.908402E+04  1.556789E+03  7.320940E+04 -1.785746E-09 -1.077207E-09
       159  14  1.869212E+05  2.747277E+04  8.271099E+02  7.172539E+04 -9.447839E-10  1.014924E-10
       159  15  1.856228E+05  2.886065E+04  4.819605E+02  7.329346E+04 -1.673851E-09 -1.499693E-09
       159  16  1.787856E+05  2.646255E+04 -2.088059E+02  7.127898E+04  5.828282E-10  5.550555E-09
       159  17  1.858255E+05  2.705718E+04  5.429032E+02  7.142087E+04 -2.355649E-09 -4.741507E-10
       159  18  1.902998E+05  3.065045E+04  1.677075E+03  7.461489E+04 -1.702153E-09 -1.508009E-09
       159  19  1.925232E+05  3.170549E+04  3.322377E+03  7.513984E+04 -1.096143E+03 -5.049184E+01
       159  20  1.880169E+05  2.788837E+04  1.111317E+03  7.202991E+04 -5.728544E+02 -1.662342E+02
       159  21  1.809458E+05  2.707085E+04 -7.131556E+02  7.197204E+04 -4.786294E+01 -2.864950E+02
       159  22  1.856544E+05  2.908402E+04  1.556792E+03  7.320940E+04 -1.254862E+03 -1.102037E+02
       159  23  1.869212E+05  2.747277E+04  8.271111E+02  7.172539E+04 -7.342194E+02 -2.269424E+02
       159  24  1.856228E+05  2.886065E+04  4.819608E+02  7.329346E+04 -2.118714E+02 -3.481982E+02
       159  25  1.787856E+05  2.646255E+04 -2.088021E+02  7.127898E+04 -1.413578E+03 -1.699150E+02
       159  26  1.858255E+05  2.705718E+04  5.429049E+02  7.142087E+04 -8.955844E+02 -2.876506E+02
       159  27  1.902998E+05  3.065045E+04  1.677076E+03  7.461489E+04 -3.758811E+02 -4.099019E+02
       160   1  1.742125E+05  2.460892E+04 -2.585165E+03  7.015778E+04 -8.312485E+01  4.231042E+02
       160   2  1.697498E+05  2.104483E+04 -4.191798E+03  6.701398E+04 -3.168046E+02  6.532433E+02
       160   3  1.625907E+05  2.023660E+04 -5.694680E+03  6.697779E+04 -5.506476E+02  8.838610E+02
       160   4  1.856051E+05  2.888780E+04  3.826859E+02  7.327523E+04  7.956680E+01  4.843108E+02
       160   5  1.869521E+05  2.750135E+04  2.571454E+02  7.172464E+04 -1.538380E+02  7.145500E+02
       160   6  1.856026E+05  2.887070E+04  2.351437E+02  7.328163E+04 -3.874080E+02  9.452677E+02
       160   7  1.969978E+05  3.316667E+04  3.350515E+03  7.639272E+04  2.422612E+02  5.455185E+02
       160   8  2.041547E+05  3.395790E+04  4.706065E+03  7.643542E+04  9.133504E+00  7.758585E+02
       160   9  2.086151E+05  3.750487E+04  6.164945E+03  7.958570E+04 -2.241613E+02  1.006677E+03
       160  10  1.742125E+05  2.460892E+04 -2.585165E+03  7.015778E+04 -2.118064E-09  3.031901E-10
       160  11  1.697498E+05  2.104483E+04 -4.191799E+03  6.701398E+04 -1.949377E-09  3.291542E-09
       160  12  1.625907E+05  2.023660E+04 -5.694683E+03  6.697779E+04 -6.940094E-10  5.409235E-09
       160  13  1.856051E+05  2.888780E+04  3.826854E+02  7.327523E+04 -2.845264E-09  4.655651E-10
       160  14  1.869521E+05  2.750135E+04  2.571444E+02  7.172464E+04 -2.304505E-09  2.460863E-09
       160  15  1.856026E+05  2.887070E+04  2.351417E+02  7.328163E+04 -2.242026E-09 -1.176265E-09
       160  16  1.969978E+05  3.316667E+04  3.350515E+03  7.639272E+04  8.894391E-10  3.684432E-09
       160  17  2.041547E+05  3.395790E+04  4.706064E+03  7.643542E+04 -1.200151E-09 -1.535112E-09
       160  18  2.086151E+05  3.750487E+04  6.164943E+03  7.958570E+04 -6.416430E-11  3.524449E-09
       160  19  1.742125E+05  2.460892E+04 -2.585165E+03  7.015778E+04  8.312485E+01 -4.231042E+02
       160  20  1.697498E+05  2.104483E+04 -4.191798E+03  6.701398E+04  3.168046E+02 -6.532433E+02
       160  21  1.625907E+05  2.023660E+04 -5.694680E+03  6.697779E+04  5.506476E+02 -8.838610E+02
       160  22  1.856051E+05  2.888780E+04  3.826859E+02  7.327523E+04 -7.956680E+01 -4.843108E+02
       160  23  1.869521E+05  2.750135E+04  2.571454E+02  7.172464E+04  1.538380E+02 -7.145500E+02
       160  24  1.856026E+05  2.887070E+04  2.351437E+02  7.328163E+04  3.874080E+02 -9.452677E+02
       160  25  1.969978E+05  3.316667E+04  3.350515E+03  7.639272E+04 -2.422612E+02 -5.455185E+02
       160  26  2.041547E+05  3.395790E+04  4.706065E+03  7.643542E+04 -9.133504E+00 -7.758585E+02
       160  27  2.086151E+05  3.750487E+04  6.164945E+03  7.958570E+04  2.241613E+02 -1.006677E+03
       161   1  1.558825E+05  1.772175E+04 -7.452802E+03  6.515762E+04 -6.525797E+02  1.031239E+03
       161   2  1.514026E+05  1.416099E+04 -8.830910E+03  6.199467E+04 -9.385556E+02  1.242882E+03
       161   3  1.442324E+05  1.338251E+04 -1.006173E+04  6.194813E+04 -1.224462E+03  1.454428E+03
       161   4  1.856032E+05  2.887151E+04  2.538068E+02  7.328546E+04 -4.891242E+02  1.092724E+03
       161   5  1.869505E+05  2.749587E+04  3.614008E+02  7.172142E+04 -7.751725E+02  1.304333E+03
       161   6  1.856075E+05  2.890251E+04  6.163276E+02  7.327377E+04 -1.061153E+03  1.515845E+03
       161   7  2.153247E+05  4.002132E+04  7.960341E+03  8.141365E+04 -3.256602E+02  1.154212E+03
       161   8  2.224996E+05  4.083080E+04  9.553589E+03  8.144866E+04 -6.117794E+02  1.365788E+03
       161   9  2.269841E+05  4.442256E+04  1.129420E+04  8.460004E+04 -8.978324E+02  1.577266E+03
       161  10  1.558825E+05  1.772175E+04 -7.452805E+03  6.515762E+04 -3.490729E-09  1.989034E-09
       161  11  1.514026E+05  1.416099E+04 -8.830914E+03  6.199468E+04 -5.359314E-09  3.922572E-10
       161  12  1.442324E+05  1.338251E+04 -1.006173E+04  6.194813E+04 -3.777385E-10  1.187353E-09
       161  13  1.856032E+05  2.887150E+04  2.538041E+02  7.328546E+04 -3.803917E-09  2.572973E-09
       161  14  1.869505E+05  2.749587E+04  3.613965E+02  7.172143E+04 -4.088833E-09 -3.702458E-09
       161  15  1.856075E+05  2.890250E+04  6.163212E+02  7.327377E+04  1.609910E-09 -2.315770E-09
       161  16  2.153247E+05  4.002131E+04  7.960339E+03  8.141365E+04  1.622021E-09  8.135555E-10
       161  17  2.224996E+05  4.083080E+04  9.553585E+03  8.144866E+04 -3.599595E-10  6.626622E-10
       161  18  2.269841E+05  4.442255E+04  1.129420E+04  8.460004E+04  1.768926E-09 -5.274845E-10
       161  19  1.558825E+05  1.772175E+04 -7.452802E+03  6.515762E+04  6.525797E+02 -1.031239E+03
       161  20  1.514026E+05  1.416099E+04 -8.830910E+03  6.199467E+04  9.385556E+02 -1.242882E+03
       161  21  1.442324E+05  1.338251E+04 -1.006173E+04  6.194813E+04  1.224462E+03 -1.454428E+03
       161  22  1.856032E+05  2.887151E+04  2.538068E+02  7.328546E+04  4.891242E+02 -1.092724E+03
       161  23  1.869505E+05  2.749587E+04  3.614008E+02  7.172142E+04  7.751725E+02 -1.304333E+03
       161  24  1.856075E+05  2.890251E+04  6.163276E+02  7.327377E+04  1.061153E+03 -1.515845E+03
       161  25  2.153247E+05  4.002132E+04  7.960341E+03  8.141365E+04  3.256602E+02 -1.154212E+03
       161  26  2.224996E+05  4.083080E+04  9.553589E+03  8.144866E+04  6.117794E+02 -1.365788E+03
       161  27  2.269841E+05  4.442256E+04  1.129420E+04  8.460004E+04  8.978324E+02 -1.577266E+03
       162   1  1.374785E+05  1.085434E+04 -1.166273E+04  6.020015E+04 -1.405917E+03  1.574114E+03
       162   2  1.329345E+05  7.184812E+03 -1.254434E+04  5.693910E+04 -2.219492E+03  1.588256E+03
       162   3  1.259151E+05  6.742040E+03 -1.277079E+04  5.672266E+04 -3.029627E+03  1.593329E+03
       162   4  1.856352E+05  2.886013E+04  7.999554E+02  7.331089E+04 -1.239399E+03  1.636733E+03
       162   5  1.868996E+05  2.743910E+04  1.412634E+03  7.171598E+04 -2.058336E+03  1.648848E+03
       162   6  1.856896E+05  2.924590E+04  2.684712E+03  7.316572E+04 -2.873839E+03  1.651893E+03
       162   7  2.337944E+05  4.686613E+04  1.326249E+04  8.642260E+04 -1.072866E+03  1.699357E+03
       162   8  2.408676E+05  4.769360E+04  1.536939E+04  8.649405E+04 -1.897164E+03  1.709447E+03
       162   9  2.454675E+05  5.174999E+04  1.813992E+04  8.961021E+04 -2.718035E+03  1.710464E+03
       162  10  1.374784E+05  1.085434E+04 -1.166274E+04  6.020016E+04  3.394524E-10  2.432523E-09
       162  11  1.329345E+05  7.184808E+03 -1.254435E+04  5.693910E+04  1.889198E-09  6.511894E-09
       162  12  1.259151E+05  6.742035E+03 -1.277081E+04  5.672266E+04  2.761750E-09  8.585330E-10
       162  13  1.856352E+05  2.886013E+04  7.999475E+02  7.331090E+04  1.892855E-09 -3.459088E-09
       162  14  1.868996E+05  2.743909E+04  1.412621E+03  7.171598E+04 -4.331300E-09 -4.163305E-09
       162  15  1.856896E+05  2.924589E+04  2.684691E+03  7.316572E+04 -1.802081E-09  5.498301E-10
       162  16  2.337944E+05  4.686613E+04  1.326249E+04  8.642260E+04  1.898265E-10 -2.259719E-10
       162  17  2.408676E+05  4.769360E+04  1.536938E+04  8.649405E+04 -4.004066E-09  2.468832E-09
       162  18  2.454675E+05  5.174999E+04  1.813990E+04  8.961021E+04 -4.984340E-09  2.280602E-09
       162  19  1.374785E+05  1.085434E+04 -1.166273E+04  6.020015E+04  1.405917E+03 -1.574114E+03
       162  20  1.329345E+05  7.184812E+03 -1.254434E+04  5.693910E+04  2.219492E+03 -1.588256E+03
       162  21  1.259151E+05  6.742040E+03 -1.277079E+04  5.672266E+04  3.029627E+03 -1.593329E+03
       162  22  1.856352E+05  2.886013E+04  7.999554E+02  7.331089E+04  1.239399E+03 -1.636733E+03
       162  23  1.868996E+05  2.743910E+04  1.412634E+03  7.171598E+04  2.058336E+03 -1.648848E+03
       162  24  1.856896E+05  2.924590E+04  2.684712E+03  7.316572E+04  2.873839E+03 -1.651893E+03
       162  25  2.337944E+05  4.686613E+04  1.326249E+04  8.642260E+04  1.072866E+03 -1.699357E+03
       162  26  2.408676E+05  4.769360E+04  1.536939E+04  8.649405E+04  1.897164E+03 -1.709447E+03
       162  27  2.454675E+05  5.174999E+04  1.813992E+04  8.961021E+04  2.718035E+03 -1.710464E+03
       163   1  1.188459E+05  4.175521E+03 -1.377255E+04  5.580439E+04 -3.641780E+03  1.574678E+03
       163   2  1.141780E+05 -5.175756E+02 -1.264844E+04  5.160924E+04 -6.803860E+03  6.954671E+02
       163   3  1.090284E+05  2.584458E+03 -7.879616E+03  4.936993E+04 -9.907648E+03 -3.386184E+02
       163   4  1.859165E+05  2.871008E+04  3.470867E+03  7.350823E+04 -3.438123E+03  1.651238E+03
       163   5  1.864485E+05  2.693023E+04  6.104420E+03  7.173067E+04 -6.691072E+03  7.378401E+02
       163   6  1.865166E+05  3.296303E+04  1.245433E+04  7.190889E+04 -9.885772E+03 -3.304497E+02
       163   7  2.529912E+05  5.324478E+04  2.071385E+04  9.121372E+04 -3.234442E+03  1.727807E+03
       163   8  2.587241E+05  5.437840E+04  2.485684E+04  9.185424E+04 -6.578270E+03  7.802188E+02
       163   9  2.640110E+05  6.334224E+04  3.278784E+04  9.445053E+04 -9.863893E+03 -3.222798E+02
       163  10  1.188459E+05  4.175515E+03 -1.377258E+04  5.580439E+04  2.532015E-09  2.206828E-09
       163  11  1.141779E+05 -5.175885E+02 -1.264853E+04  5.160924E+04 -1.073561E-09 -2.223430E-09
       163  12  1.090283E+05  2.584431E+03 -7.879801E+03  4.936992E+04 -1.760699E-09 -5.478265E-09
       163  13  1.859165E+05  2.871007E+04  3.470839E+03  7.350824E+04 -2.083073E-09 -2.342230E-10
       163  14  1.864484E+05  2.693022E+04  6.104335E+03  7.173068E+04 -2.451961E-10  3.555991E-10
       163  15  1.865165E+05  3.296301E+04  1.245415E+04  7.190889E+04 -7.721767E-10 -1.354892E-09
       163  16  2.529912E+05  5.324478E+04  2.071383E+04  9.121372E+04 -4.878347E-09  2.759933E-09
       163  17  2.587240E+05  5.437839E+04  2.485676E+04  9.185424E+04 -1.052289E-09 -5.868764E-11
       163  18  2.640109E+05  6.334221E+04  3.278766E+04  9.445052E+04  9.928909E-10  6.047417E-10
       163  19  1.188459E+05  4.175521E+03 -1.377255E+04  5.580439E+04  3.641780E+03 -1.574678E+03
       163  20  1.141780E+05 -5.175756E+02 -1.264844E+04  5.160924E+04  6.803860E+03 -6.954671E+02
       163  21  1.090284E+05  2.584458E+03 -7.879616E+03  4.936993E+04  9.907648E+03  3.386184E+02
       163  22  1.859165E+05  2.871008E+04  3.470867E+03  7.350823E+04  3.438123E+03 -1.651238E+03
       163  23  1.864485E+05  2.693023E+04  6.104420E+03  7.173067E+04  6.691072E+03 -7.378401E+02
       163  24  1.865166E+05  3.296303E+04  1.245433E+04  7.190889E+04  9.885772E+03  3.304497E+02
       163  25  2.529912E+05  5.324478E+04  2.071385E+04  9.121372E+04  3.234442E+03 -1.727807E+03
       163  26  2.587241E+05  5.437840E+04  2.485684E+04  9.185424E+04  6.578270E+03 -7.802188E+02
       163  27  2.640110E+05  6.334224E+04  3.278784E+04  9.445053E+04  9.863893E+03  3.222798E+02
       164   1  9.863773E+04 -4.083958E+02 -6.598418E+03  5.727938E+04 -1.298115E+04 -9.242169E+02
       164   2  9.445618E+04 -1.577384E+04  2.328847E+03  4.322543E+04 -2.566375E+04 -5.583209E+03
       164   3  1.091113E+05  2.454896E+04  3.517951E+04  1.857297E+04 -3.741186E+04 -1.272835E+04
       164   4  1.885150E+05  2.699529E+04  1.541007E+04  7.538471E+04 -1.220050E+04 -6.306605E+02
       164   5  1.821795E+05  2.186249E+04  2.591416E+04  7.209449E+04 -2.633809E+04 -5.836931E+03
       164   6  1.949654E+05  7.270062E+04  6.149155E+04  5.820689E+04 -3.954115E+04 -1.352967E+04
       164   7  2.784003E+05  5.439897E+04  3.741803E+04  9.349214E+04 -1.141972E+04 -3.370768E+02
       164   8  2.699100E+05  5.949979E+04  4.949865E+04  1.009673E+05 -2.701253E+04 -6.090703E+03
       164   9  2.808262E+05  1.208553E+05  8.780258E+04  9.784613E+04 -4.167074E+04 -1.433125E+04
       164  10  9.863755E+04 -4.084420E+02 -6.598736E+03  5.727937E+04 -7.457339E-10 -2.138206E-09
       164  11  9.445546E+04 -1.577405E+04  2.327551E+03  4.322531E+04 -1.587346E-09 -3.158542E-09
       164  12  1.091098E+05  2.454841E+04  3.517658E+04  1.857259E+04 -2.692126E-09 -1.287572E-09
       164  13  1.885148E+05  2.699525E+04  1.540979E+04  7.538470E+04 -3.370103E-10 -4.044276E-09
       164  14  1.821788E+05  2.186227E+04  2.591279E+04  7.209436E+04 -7.383859E-10 -3.909477E-09
       164  15  1.949637E+05  7.270001E+04  6.148827E+04  5.820646E+04  1.719391E-09 -2.907119E-09
       164  16  2.784001E+05  5.439894E+04  3.741778E+04  9.349214E+04 -4.128027E-10 -2.457270E-09
       164  17  2.699092E+05  5.949955E+04  4.949721E+04  1.009672E+05 -3.975861E-11 -4.339865E-10
       164  18  2.808242E+05  1.208546E+05  8.779893E+04  9.784565E+04 -2.477806E-10 -6.294586E-10
       164  19  9.863773E+04 -4.083958E+02 -6.598418E+03  5.727938E+04  1.298115E+04  9.242169E+02
       164  20  9.445618E+04 -1.577384E+04  2.328847E+03  4.322543E+04  2.566375E+04  5.583209E+03
       164  21  1.091113E+05  2.454896E+04  3.517951E+04  1.857297E+04  3.741186E+04  1.272835E+04
       164  22  1.885150E+05  2.699529E+04  1.541007E+04  7.538471E+04  1.220050E+04  6.306605E+02
       164  23  1.821795E+05  2.186249E+04  2.591416E+04  7.209449E+04  2.633809E+04  5.836931E+03
       164  24  1.949654E+05  7.270062E+04  6.149155E+04  5.820689E+04  3.954115E+04  1.352967E+04
       164  25  2.784003E+05  5.439897E+04  3.741803E+04  9.349214E+04  1.141972E+04  3.370768E+02
       164  26  2.699100E+05  5.949979E+04  4.949865E+04  1.009673E+05  2.701253E+04  6.090703E+03
       164  27  2.808262E+05  1.208553E+05  8.780258E+04  9.784613E+04  4.167074E+04  1.433125E+04
       165   1 -8.271567E+01 -2.720634E+05 -1.229835E+03 -2.193872E+01 -1.371205E+01  9.916762E+01
       165   2 -1.409196E+02 -2.724443E+05 -1.599858E+03  8.295582E+01 -2.677208E+01  8.034564E+02
       165   3 -6.011824E+02 -2.730181E+05 -2.529180E+03 -1.376032E+02 -4.665478E+01  1.507750E+03
       165   4 -1.083346E+01 -2.717723E+05 -1.161943E+03 -7.227002E+01 -1.371546E+01  1.042308E+02
       165   5  4.941005E+01 -2.716757E+05 -1.417060E+03  9.036161E+01 -2.677800E+01  8.122851E+02
       165   6 -2.930570E+02 -2.717724E+05 -2.234088E+03 -7.245949E+01 -4.666307E+01  1.520345E+03
       165   7  6.104875E+01 -2.714813E+05 -1.094052E+03 -1.226013E+02 -1.371887E+01  1.092940E+02
       165   8  2.397397E+02 -2.709070E+05 -1.234261E+03  9.776741E+01 -2.678392E+01  8.211138E+02
       165   9  1.506827E+01 -2.705268E+05 -1.938997E+03 -7.315623E+00 -4.667136E+01  1.532940E+03
       165  10 -8.271567E+01 -2.720634E+05 -1.229835E+03 -2.193872E+01  1.050807E-09  4.895460E-09
       165  11 -1.409198E+02 -2.724443E+05 -1.599859E+03  8.295583E+01 -3.020309E-09  2.947583E-09
       165  12 -6.011830E+02 -2.730181E+05 -2.529184E+03 -1.376032E+02 -3.362875E-09  2.885316E-09
       165  13 -1.083347E+01 -2.717723E+05 -1.161943E+03 -7.227002E+01  4.480607E-09 -1.592288E-09
       165  14  4.940987E+01 -2.716757E+05 -1.417061E+03  9.036163E+01  1.551063E-09 -2.353454E-09
       165  15 -2.930576E+02 -2.717724E+05 -2.234092E+03 -7.245944E+01  1.965733E-09  3.683849E-10
       165  16  6.104874E+01 -2.714813E+05 -1.094052E+03 -1.226013E+02  5.379210E-10 -5.711544E-09
       165  17  2.397395E+02 -2.709070E+05 -1.234263E+03  9.776743E+01 -2.294156E-09 -2.014232E-09
       165  18  1.506764E+01 -2.705268E+05 -1.939001E+03 -7.315565E+00  5.649177E-10 -6.509658E-10
       165  19 -8.271567E+01 -2.720634E+05 -1.229835E+03 -2.193872E+01  1.371205E+01 -9.916762E+01
       165  20 -1.409196E+02 -2.724443E+05 -1.599858E+03  8.295582E+01  2.677208E+01 -8.034564E+02
       165  21 -6.011824E+02 -2.730181E+05 -2.529180E+03 -1.376032E+02  4.665478E+01 -1.507750E+03
       165  22 -1.083346E+01 -2.717723E+05 -1.161943E+03 -7.227002E+01  1.371546E+01 -1.042308E+02
       165  23  4.941005E+01 -2.716757E+05 -1.417060E+03  9.036161E+01  2.677800E+01 -8.122851E+02
       165  24 -2.930570E+02 -2.717724E+05 -2.234088E+03 -7.245949E+01  4.666307E+01 -1.520345E+03
       165  25  6.104875E+01 -2.714813E+05 -1.094052E+03 -1.226013E+02  1.371887E+01 -1.092940E+02
       165  26  2.397397E+02 -2.709070E+05 -1.234261E+03  9.776741E+01  2.678392E+01 -8.211138E+02
       165  27  1.506827E+01 -2.705268E+05 -1.938997E+03 -7.315623E+00  4.667136E+01 -1.532940E+03
       166   1 -2.921365E+02 -2.738313E+05 -3.216191E+03  3.849934E+02 -6.069974E+01  1.950938E+03
       166   2 -1.585487E+02 -2.736888E+05 -5.110126E+03 -1.424575E+02 -8.162680E+01  4.284413E+03
       166   3 -3.762209E+03 -2.747852E+05 -9.458158E+03 -9.958594E+02 -9.624393E+01  6.617887E+03
       166   4  1.611972E+02 -2.720045E+05 -2.780544E+03 -7.177015E+01 -6.070950E+01  1.963367E+03
       166   5  4.113529E+02 -2.713857E+05 -4.562553E+03  9.012327E+01 -8.163116E+01  4.293366E+03
       166   6 -3.075129E+03 -2.720052E+05 -8.796237E+03 -7.393447E+01 -9.623772E+01  6.623364E+03
       166   7  6.145315E+02 -2.701778E+05 -2.344896E+03 -5.285351E+02 -6.071928E+01  1.975797E+03
       166   8  9.812543E+02 -2.690826E+05 -4.014981E+03  3.227049E+02 -8.163551E+01  4.302318E+03
       166   9 -2.388046E+03 -2.692252E+05 -8.134316E+03  8.479947E+02 -9.623149E+01  6.628841E+03
       166  10 -2.921376E+02 -2.738313E+05 -3.216198E+03  3.849935E+02 -1.376702E-09 -2.191311E-09
       166  11 -1.585536E+02 -2.736889E+05 -5.110161E+03 -1.424572E+02  1.338158E-09 -1.588003E-09
       166  12 -3.762220E+03 -2.747853E+05 -9.458240E+03 -9.958589E+02 -1.822836E-10 -1.390949E-09
       166  13  1.611962E+02 -2.720046E+05 -2.780551E+03 -7.177005E+01 -8.304715E-11  5.173412E-10
       166  14  4.113479E+02 -2.713857E+05 -4.562588E+03  9.012355E+01 -4.724607E-10 -8.066853E-10
       166  15 -3.075141E+03 -2.720053E+05 -8.796319E+03 -7.393395E+01 -1.111042E-09 -1.917562E-10
       166  16  6.145305E+02 -2.701778E+05 -2.344904E+03 -5.285350E+02 -4.245898E-10  1.923216E-09
       166  17  9.812493E+02 -2.690826E+05 -4.015016E+03  3.227052E+02 -1.756536E-09  2.723455E-09
       166  18 -2.388058E+03 -2.692252E+05 -8.134398E+03  8.479952E+02 -3.001376E-09  1.145859E-09
       166  19 -2.921365E+02 -2.738313E+05 -3.216191E+03  3.849934E+02  6.069974E+01 -1.950938E+03
       166  20 -1.585487E+02 -2.736888E+05 -5.110126E+03 -1.424575E+02  8.162680E+01 -4.284413E+03
       166  21 -3.762209E+03 -2.747852E+05 -9.458158E+03 -9.958594E+02  9.624393E+01 -6.617887E+03
       166  22  1.611972E+02 -2.720045E+05 -2.780544E+03 -7.177015E+01  6.070950E+01 -1.963367E+03
       166  23  4.113529E+02 -2.713857E+05 -4.562553E+03  9.012327E+01  8.163116E+01 -4.293366E+03
       166  24 -3.075129E+03 -2.720052E+05 -8.796237E+03 -7.393447E+01  9.623772E+01 -6.623364E+03
       166  25  6.145315E+02 -2.701778E+05 -2.344896E+03 -5.285351E+02  6.071928E+01 -1.975797E+03
       166  26  9.812543E+02 -2.690826E+05 -4.014981E+03  3.227049E+02  8.163551E+01 -4.302318E+03
       166  27 -2.388046E+03 -2.692252E+05 -8.134316E+03  8.479947E+02  9.623149E+01 -6.628841E+03
       167   1  8.299712E+02 -2.774493E+05 -1.158981E+04  4.262893E+03 -1.229324E+02  8.246467E+03
       167   2  3.054104E+03 -2.726033E+05 -1.827100E+04 -3.052137E+03 -1.433025E+02  1.765250E+04
       167   3 -3.246759E+04 -2.784206E+05 -4.051424E+04 -1.070439E+04 -6.275330E+01  2.705847E+04
       167   4  1.667178E+03 -2.740965E+05 -1.079213E+04 -6.829958E+01 -1.230137E+02  8.282103E+03
       167   5  3.997565E+03 -2.687719E+05 -1.736113E+04  8.942492E+01 -1.431996E+02  1.763237E+04
       167   6 -3.140827E+04 -2.741008E+05 -3.945341E+04 -9.025952E+01 -6.224006E+01  2.698259E+04
       167   7  2.504454E+03 -2.707437E+05 -9.994436E+03 -4.399516E+03 -1.230955E+02  8.317740E+03
       167   8  4.941061E+03 -2.649404E+05 -1.645126E+04  3.231006E+03 -1.430970E+02  1.761225E+04
       167   9 -3.034854E+04 -2.697808E+05 -3.839253E+04  1.052395E+04 -6.172941E+01  2.690671E+04
       167  10  8.299529E+02 -2.774494E+05 -1.158994E+04  4.262894E+03 -1.186082E-09  2.149548E-10
       167  11  3.054021E+03 -2.726037E+05 -1.827158E+04 -3.052135E+03  1.305212E-09 -5.596934E-10
       167  12 -3.246778E+04 -2.784214E+05 -4.051561E+04 -1.070439E+04  2.748219E-10  5.460218E-10
       167  13  1.667159E+03 -2.740966E+05 -1.079226E+04 -6.829875E+01  8.476779E-11  5.603597E-10
       167  14  3.997481E+03 -2.687722E+05 -1.736171E+04  8.942696E+01  9.317006E-10  2.651965E-10
       167  15 -3.140847E+04 -2.741016E+05 -3.945478E+04 -9.025817E+01  2.487262E-09  3.744852E-10
       167  16  2.504435E+03 -2.707438E+05 -9.994566E+03 -4.399515E+03  4.832687E-10  1.395877E-09
       167  17  4.940978E+03 -2.649407E+05 -1.645184E+04  3.231008E+03  8.184625E-10  2.182056E-09
       167  18 -3.034873E+04 -2.697816E+05 -3.839389E+04  1.052395E+04  5.246434E-10  1.073755E-09
       167  19  8.299712E+02 -2.774493E+05 -1.158981E+04  4.262893E+03  1.229324E+02 -8.246467E+03
       167  20  3.054104E+03 -2.726033E+05 -1.827100E+04 -3.052137E+03  1.433025E+02 -1.765250E+04
       167  21 -3.246759E+04 -2.784206E+05 -4.051424E+04 -1.070439E+04  6.275330E+01 -2.705847E+04
       167  22  1.667178E+03 -2.740965E+05 -1.079213E+04 -6.829958E+01  1.230137E+02 -8.282103E+03
       167  23  3.997565E+03 -2.687719E+05 -1.736113E+04  8.942492E+01  1.431996E+02 -1.763237E+04
       167  24 -3.140827E+04 -2.741008E+05 -3.945341E+04 -9.025952E+01  6.224006E+01 -2.698259E+04
       167  25  2.504454E+03 -2.707437E+05 -9.994436E+03 -4.399516E+03  1.230955E+02 -8.317740E+03
       167  26  4.941061E+03 -2.649404E+05 -1.645126E+04  3.231006E+03  1.430970E+02 -1.761225E+04
       167  27 -3.034854E+04 -2.697808E+05 -3.839253E+04  1.052395E+04  6.172941E+01 -2.690671E+04
       168   1  1.974446E-01  5.296745E-02  8.951403E+00  4.453564E-03 -8.110393E-01 -3.061696E-03
       168   2 -2.468756E-01 -1.176429E-01  1.104439E+01  5.611221E-03 -6.280054E+00 -2.370736E-02
       168   3  1.974148E-01  4.176864E-01  1.687445E+01  7.460316E-03 -1.174899E+01 -4.435272E-02
       168   4  1.974684E-01  5.293669E-02  8.951401E+00  5.458224E-04 -8.110393E-01 -3.061697E-03
       168   5 -2.468349E-01 -1.176889E-01  1.104439E+01 -4.873541E-04 -6.280054E+00 -2.370738E-02
       168   6  1.974734E-01  4.176285E-01  1.687445E+01 -8.311688E-04 -1.174899E+01 -4.435272E-02
       168   7  1.974918E-01  5.290413E-02  8.951399E+00 -3.363096E-03 -8.110393E-01 -3.061697E-03
       168   8 -2.467932E-01 -1.177314E-01  1.104439E+01 -6.586837E-03 -6.280054E+00 -2.370735E-02
       168   9  1.975314E-01  4.175689E-01  1.687445E+01 -9.122882E-03 -1.174899E+01 -4.435272E-02
       168  10  1.974443E-01  5.296669E-02  8.951402E+00  4.452614E-03  9.659263E-10  3.336756E-09
       168  11 -2.468751E-01 -1.176407E-01  1.104439E+01  5.612720E-03 -8.233341E-10 -4.913736E-09
       168  12  1.974166E-01  4.176938E-01  1.687445E+01  7.460685E-03  2.513224E-10  3.073207E-09
       168  13  1.974686E-01  5.293725E-02  8.951401E+00  5.455524E-04  2.706544E-10  1.949667E-10
       168  14 -2.468348E-01 -1.176886E-01  1.104439E+01 -4.874215E-04  7.534639E-11 -4.990379E-09
       168  15  1.974733E-01  4.176287E-01  1.687445E+01 -8.315045E-04  1.852119E-10  1.694460E-09
       168  16  1.974924E-01  5.290633E-02  8.951400E+00 -3.362345E-03  2.845742E-10  1.660247E-09
       168  17 -2.467939E-01 -1.177342E-01  1.104439E+01 -6.587352E-03  1.773443E-10 -4.390590E-09
       168  18  1.975298E-01  4.175635E-01  1.687445E+01 -9.122391E-03 -8.811216E-10 -1.173770E-09
       168  19  1.974446E-01  5.296814E-02  8.951403E+00  4.453834E-03  8.110393E-01  3.061692E-03
       168  20 -2.468748E-01 -1.176394E-01  1.104439E+01  5.612022E-03  6.280054E+00  2.370737E-02
       168  21  1.974172E-01  4.176956E-01  1.687445E+01  7.460742E-03  1.174899E+01  4.435272E-02
       168  22  1.974682E-01  5.293596E-02  8.951401E+00  5.456296E-04  8.110393E-01  3.061695E-03
       168  23 -2.468347E-01 -1.176884E-01  1.104439E+01 -4.872988E-04  6.280054E+00  2.370738E-02
       168  24  1.974731E-01  4.176276E-01  1.687445E+01 -8.313419E-04  1.174899E+01  4.435273E-02
       168  25  1.974925E-01  5.290635E-02  8.951400E+00 -3.362678E-03  8.110393E-01  3.061702E-03
       168  26 -2.467943E-01 -1.177357E-01  1.104439E+01 -6.587331E-03  6.280054E+00  2.370737E-02
       168  27  1.975307E-01  4.175663E-01  1.687445E+01 -9.123457E-03  1.174899E+01  4.435272E-02
       169   1  7.746770E-01 -1.817193E-02  2.147903E+01  4.301725E-02 -1.522472E+01 -5.747370E-02
       169   2 -9.688986E-01 -7.689037E-01  3.609620E+01  2.572844E-02 -3.314618E+01 -1.251277E-01
       169   3  7.749282E-01  3.096086E+00  6.353490E+01  4.181613E-03 -5.106791E+01 -1.927826E-01
       169   4  7.749647E-01 -1.847168E-02  2.147903E+01  2.995576E-03 -1.522472E+01 -5.747373E-02
       169   5 -9.687150E-01 -7.691090E-01  3.609620E+01 -7.533109E-04 -3.314618E+01 -1.251277E-01
       169   6  7.750100E-01  3.095984E+00  6.353489E+01 -8.761903E-03 -5.106791E+01 -1.927826E-01
       169   7  7.752527E-01 -1.877067E-02  2.147903E+01 -3.702754E-02 -1.522472E+01 -5.747373E-02
       169   8 -9.685308E-01 -7.693123E-01  3.609619E+01 -2.723569E-02 -3.314618E+01 -1.251277E-01
       169   9  7.750928E-01  3.095886E+00  6.353489E+01 -2.170607E-02 -5.106791E+01 -1.927826E-01
       169  10  7.746784E-01 -1.816484E-02  2.147904E+01  4.301674E-02  1.757132E-09  1.761505E-09
       169  11 -9.689001E-01 -7.689052E-01  3.609620E+01  2.572968E-02 -3.392848E-10 -3.454055E-09
       169  12  7.749256E-01  3.096085E+00  6.353489E+01  4.181938E-03  2.487945E-10 -2.711814E-09
       169  13  7.749645E-01 -1.847173E-02  2.147903E+01  2.995289E-03  2.664311E-10  8.043512E-10
       169  14 -9.687163E-01 -7.691099E-01  3.609619E+01 -7.535266E-04 -1.159044E-09  4.155762E-09
       169  15  7.750073E-01  3.095983E+00  6.353489E+01 -8.762087E-03 -4.172002E-10 -1.366279E-09
       169  16  7.752503E-01 -1.877937E-02  2.147903E+01 -3.702678E-02  2.340723E-11  1.762001E-09
       169  17 -9.685336E-01 -7.693190E-01  3.609619E+01 -2.723610E-02 -5.455853E-10  1.676642E-09
       169  18  7.750890E-01  3.095882E+00  6.353488E+01 -2.170535E-02 -1.595897E-09  1.975277E-09
       169  19  7.746777E-01 -1.816829E-02  2.147903E+01  4.301787E-02  1.522472E+01  5.747372E-02
       169  20 -9.688988E-01 -7.689046E-01  3.609620E+01  2.572908E-02  3.314618E+01  1.251277E-01
       169  21  7.749286E-01  3.096087E+00  6.353490E+01  4.182239E-03  5.106791E+01  1.927826E-01
       169  22  7.749645E-01 -1.847241E-02  2.147903E+01  2.995338E-03  1.522472E+01  5.747372E-02
       169  23 -9.687147E-01 -7.691078E-01  3.609620E+01 -7.533794E-04  3.314618E+01  1.251277E-01
       169  24  7.750103E-01  3.095985E+00  6.353489E+01 -8.762111E-03  5.106791E+01  1.927826E-01
       169  25  7.752510E-01 -1.877765E-02  2.147903E+01 -3.702703E-02  1.522472E+01  5.747371E-02
       169  26 -9.685305E-01 -7.693109E-01  3.609619E+01 -2.723655E-02  3.314618E+01  1.251277E-01
       169  27  7.750931E-01  3.095887E+00  6.353489E+01 -2.170614E-02  5.106791E+01  1.927826E-01
       170   1  3.814997E+00 -3.748365E-01  8.303129E+01  2.538529E-01 -6.435225E+01 -2.429314E-01
       170   2 -4.771492E+00 -5.269282E+00  1.427979E+02  6.642723E-02 -1.355264E+02 -5.116156E-01
       170   3  3.817945E+00  2.146865E+01  2.568104E+02 -1.755707E-01 -2.067006E+02 -7.802997E-01
       170   4  3.816769E+00 -3.766368E-01  8.303129E+01  1.583062E-02 -6.435225E+01 -2.429313E-01
       170   5 -4.771030E+00 -5.269775E+00  1.427979E+02  1.883012E-03 -1.355264E+02 -5.116155E-01
       170   6  3.817099E+00  2.146947E+01  2.568104E+02 -6.663920E-02 -2.067006E+02 -7.802998E-01
       170   7  3.818541E+00 -3.784362E-01  8.303128E+01 -2.221926E-01 -6.435225E+01 -2.429313E-01
       170   8 -4.770569E+00 -5.270269E+00  1.427978E+02 -6.266178E-02 -1.355264E+02 -5.116155E-01
       170   9  3.816252E+00  2.147029E+01  2.568104E+02  4.229250E-02 -2.067006E+02 -7.802998E-01
       170  10  3.814994E+00 -3.748323E-01  8.303128E+01  2.538517E-01  5.721266E-10 -6.338965E-10
       170  11 -4.771511E+00 -5.269286E+00  1.427978E+02  6.642843E-02 -5.300058E-10  1.252044E-09
       170  12  3.817901E+00  2.146864E+01  2.568103E+02 -1.755708E-01  2.633004E-10  1.239934E-09
       170  13  3.816765E+00 -3.766374E-01  8.303128E+01  1.583033E-02 -5.362248E-10 -1.680611E-09
       170  14 -4.771050E+00 -5.269780E+00  1.427978E+02  1.882894E-03 -1.419229E-09 -2.336565E-09
       170  15  3.817053E+00  2.146946E+01  2.568103E+02 -6.663954E-02 -4.187435E-10 -2.468315E-09
       170  16  3.818536E+00 -3.784402E-01  8.303127E+01 -2.221920E-01  8.215120E-10 -6.308954E-11
       170  17 -4.770589E+00 -5.270275E+00  1.427978E+02 -6.266244E-02 -7.650708E-10  2.867372E-09
       170  18  3.816204E+00  2.147028E+01  2.568103E+02  4.229283E-02 -1.325517E-09  2.212591E-09
       170  19  3.814998E+00 -3.748343E-01  8.303129E+01  2.538530E-01  6.435225E+01  2.429314E-01
       170  20 -4.771492E+00 -5.269284E+00  1.427979E+02  6.642752E-02  1.355264E+02  5.116156E-01
       170  21  3.817946E+00  2.146865E+01  2.568104E+02 -1.755707E-01  2.067006E+02  7.802997E-01
       170  22  3.816769E+00 -3.766364E-01  8.303129E+01  1.583047E-02  6.435225E+01  2.429314E-01
       170  23 -4.771030E+00 -5.269774E+00  1.427979E+02  1.883039E-03  1.355264E+02  5.116156E-01
       170  24  3.817099E+00  2.146947E+01  2.568104E+02 -6.663941E-02  2.067006E+02  7.802998E-01
       170  25  3.818541E+00 -3.784387E-01  8.303128E+01 -2.221917E-01  6.435225E+01  2.429313E-01
       170  26 -4.770569E+00 -5.270269E+00  1.427978E+02 -6.266222E-02  1.355264E+02  5.116155E-01
       170  27  3.816251E+00  2.147029E+01  2.568104E+02  4.229198E-02  2.067006E+02  7.802998E-01
       171   1  1.993759E+01 -3.338418E+00  3.343106E+02  1.508808E+00 -2.602945E+02 -9.826186E-01
       171   2 -2.493553E+01 -3.496272E+01  5.712021E+02  1.725876E-02 -5.467127E+02 -2.063854E+00
       171   3  1.996174E+01  1.433020E+02  1.047040E+03 -1.927725E+00 -8.331269E+02 -3.145072E+00
       171   4  1.994828E+01 -3.349152E+00  3.343106E+02  8.794980E-02 -2.602945E+02 -9.826180E-01
       171   5 -2.493572E+01 -3.496257E+01  5.712021E+02  3.785232E-02 -5.467127E+02 -2.063854E+00
       171   6  1.995067E+01  1.433130E+02  1.047040E+03 -4.657027E-01 -8.331269E+02 -3.145074E+00
       171   7  1.995898E+01 -3.359879E+00  3.343106E+02 -1.332910E+00 -2.602945E+02 -9.826174E-01
       171   8 -2.493592E+01 -3.496242E+01  5.712021E+02  5.844563E-02 -5.467127E+02 -2.063854E+00
       171   9  1.993959E+01  1.433241E+02  1.047040E+03  9.963191E-01 -8.331269E+02 -3.145076E+00
       171  10  1.993752E+01 -3.338432E+00  3.343104E+02  1.508807E+00  9.308400E-10 -4.819657E-10
       171  11 -2.493585E+01 -3.496280E+01  5.712015E+02  1.725877E-02 -5.961482E-10 -3.393561E-09
       171  12  1.996100E+01  1.433018E+02  1.047038E+03 -1.927727E+00  7.816970E-11  1.716909E-09
       171  13  1.994821E+01 -3.349169E+00  3.343104E+02  8.794928E-02 -2.730300E-10  2.026150E-09
       171  14 -2.493605E+01 -3.496265E+01  5.712015E+02  3.785124E-02 -1.551320E-09 -1.412554E-09
       171  15  1.994992E+01  1.433128E+02  1.047038E+03 -4.657049E-01 -9.015895E-10  2.259795E-09
       171  16  1.995890E+01 -3.359907E+00  3.343104E+02 -1.332909E+00  5.911364E-11 -4.811325E-10
       171  17 -2.493624E+01 -3.496251E+01  5.712015E+02  5.844412E-02 -4.843488E-10  2.061519E-09
       171  18  1.993885E+01  1.433239E+02  1.047038E+03  9.963176E-01 -1.552335E-09  5.415173E-09
       171  19  1.993759E+01 -3.338419E+00  3.343106E+02  1.508808E+00  2.602945E+02  9.826186E-01
       171  20 -2.493553E+01 -3.496272E+01  5.712021E+02  1.725902E-02  5.467127E+02  2.063854E+00
       171  21  1.996174E+01  1.433020E+02  1.047040E+03 -1.927725E+00  8.331269E+02  3.145072E+00
       171  22  1.994828E+01 -3.349151E+00  3.343106E+02  8.794963E-02  2.602945E+02  9.826180E-01
       171  23 -2.493572E+01 -3.496257E+01  5.712021E+02  3.785229E-02  5.467127E+02  2.063854E+00
       171  24  1.995067E+01  1.433130E+02  1.047040E+03 -4.657028E-01  8.331269E+02  3.145074E+00
       171  25  1.995898E+01 -3.359886E+00  3.343106E+02 -1.332909E+00  2.602945E+02  9.826174E-01
       171  26 -2.493591E+01 -3.496242E+01  5.712021E+02  5.844479E-02  5.467127E+02  2.063854E+00
       171  27  1.993959E+01  1.433241E+02  1.047040E+03  9.963188E-01  8.331269E+02  3.145076E+00
       172   1  1.091951E+02 -2.500668E+01  1.350898E+03  9.140890E+00 -1.050657E+03 -3.966272E+00
       172   2 -1.365619E+02 -2.275487E+02  2.278313E+03 -1.515123E+00 -2.203929E+03 -8.319881E+00
       172   3  1.093720E+02  9.359625E+02  4.298078E+03 -1.547207E+01 -3.357220E+03 -1.267352E+01
       172   4  1.092603E+02 -2.507187E+01  1.350898E+03  5.071146E-01 -1.050657E+03 -3.966258E+00
       172   5 -1.365760E+02 -2.275347E+02  2.278313E+03  3.433761E-01 -2.203929E+03 -8.319888E+00
       172   6  1.092787E+02  9.360558E+02  4.298078E+03 -3.121148E+00 -3.357220E+03 -1.267359E+01
       172   7  1.093254E+02 -2.513707E+01  1.350898E+03 -8.126662E+00 -1.050657E+03 -3.966243E+00
       172   8 -1.365901E+02 -2.275206E+02  2.278313E+03  2.201874E+00 -2.203929E+03 -8.319895E+00
       172   9  1.091854E+02  9.361490E+02  4.298078E+03  9.229771E+00 -3.357220E+03 -1.267366E+01
       172  10  1.091939E+02 -2.500697E+01  1.350896E+03  9.140886E+00  8.056868E-10 -1.021456E-09
       172  11 -1.365672E+02 -2.275500E+02  2.278304E+03 -1.515136E+00 -9.851841E-10 -7.243402E-09
       172  12  1.093599E+02  9.359595E+02  4.298056E+03 -1.547210E+01 -1.429567E-10  3.587826E-09
       172  13  1.092591E+02 -2.507217E+01  1.350896E+03  5.071109E-01 -5.391663E-10  2.668141E-10
       172  14 -1.365812E+02 -2.275360E+02  2.278304E+03  3.433613E-01 -1.550812E-09  3.114595E-09
       172  15  1.092666E+02  9.360527E+02  4.298056E+03 -3.121183E+00 -7.984090E-10  1.378708E-09
       172  16  1.093242E+02 -2.513736E+01  1.350896E+03 -8.126665E+00  1.811854E-10  5.769096E-10
       172  17 -1.365953E+02 -2.275219E+02  2.278304E+03  2.201859E+00  1.947237E-10  1.971616E-10
       172  18  1.091733E+02  9.361460E+02  4.298056E+03  9.229737E+00 -1.248956E-09  1.930800E-09
       172  19  1.091951E+02 -2.500668E+01  1.350898E+03  9.140890E+00  1.050657E+03  3.966272E+00
       172  20 -1.365619E+02 -2.275487E+02  2.278313E+03 -1.515122E+00  2.203929E+03  8.319881E+00
       172  21  1.093720E+02  9.359625E+02  4.298078E+03 -1.547207E+01  3.357220E+03  1.267352E+01
       172  22  1.092603E+02 -2.507187E+01  1.350898E+03  5.071145E-01  1.050657E+03  3.966258E+00
       172  23 -1.365760E+02 -2.275347E+02  2.278313E+03  3.433763E-01  2.203929E+03  8.319888E+00
       172  24  1.092787E+02  9.360558E+02  4.298078E+03 -3.121149E+00  3.357220E+03  1.267359E+01
       172  25  1.093254E+02 -2.513706E+01  1.350898E+03 -8.126661E+00  1.050657E+03  3.966243E+00
       172  26 -1.365901E+02 -2.275206E+02  2.278313E+03  2.201874E+00  2.203929E+03  8.319895E+00
       172  27  1.091854E+02  9.361490E+02  4.298078E+03  9.229771E+00  3.357220E+03  1.267366E+01
       173   1  6.222101E+02 -1.736918E+02  5.468825E+03  5.615577E+01 -4.243842E+03 -1.602097E+01
       173   2 -7.780979E+02 -1.464002E+03  9.034008E+03 -1.610873E+01 -8.886203E+03 -3.354537E+01
       173   3  6.234592E+02  6.034626E+03  1.781898E+04 -1.109748E+02 -1.352858E+04 -5.106876E+01
       173   4  6.226114E+02 -1.740931E+02  5.468825E+03  3.007622E+00 -4.243842E+03 -1.602061E+01
       173   5 -7.782391E+02 -1.463861E+03  9.034008E+03  2.588277E+00 -8.886203E+03 -3.354564E+01
       173   6  6.227755E+02  6.035310E+03  1.781898E+04 -2.043274E+01 -1.352858E+04 -5.107073E+01
       173   7  6.230126E+02 -1.744944E+02  5.468825E+03 -5.014053E+01 -4.243842E+03 -1.602024E+01
       173   8 -7.783803E+02 -1.463720E+03  9.034008E+03  2.128528E+01 -8.886203E+03 -3.354590E+01
       173   9  6.220919E+02  6.035993E+03  1.781897E+04  7.010931E+01 -1.352858E+04 -5.107271E+01
       173  10  6.221908E+02 -1.736966E+02  5.468792E+03  5.615571E+01  9.332866E-10  4.904212E-09
       173  11 -7.781827E+02 -1.464023E+03  9.033860E+03 -1.610897E+01 -1.184228E-09 -1.339427E-09
       173  12  6.232626E+02  6.034577E+03  1.781863E+04 -1.109753E+02 -1.778236E-10 -1.984785E-09
       173  13  6.225920E+02 -1.740979E+02  5.468792E+03  3.007567E+00 -5.435036E-10  1.308257E-09
       173  14 -7.783239E+02 -1.463882E+03  9.033860E+03  2.588036E+00 -1.551153E-09  2.407072E-09
       173  15  6.225790E+02  6.035260E+03  1.781863E+04 -2.043330E+01 -3.539501E-10  3.671666E-09
       173  16  6.229933E+02 -1.744992E+02  5.468792E+03 -5.014058E+01  5.684523E-10  7.709314E-10
       173  17 -7.784651E+02 -1.463741E+03  9.033860E+03  2.128504E+01 -7.835462E-11 -6.320915E-09
       173  18  6.218953E+02  6.035944E+03  1.781863E+04  7.010875E+01 -1.910219E-09  1.337519E-09
       173  19  6.222101E+02 -1.736918E+02  5.468825E+03  5.615577E+01  4.243842E+03  1.602097E+01
       173  20 -7.780979E+02 -1.464002E+03  9.034008E+03 -1.610873E+01  8.886203E+03  3.354537E+01
       173  21  6.234592E+02  6.034626E+03  1.781898E+04 -1.109748E+02  1.352858E+04  5.106876E+01
       173  22  6.226114E+02 -1.740931E+02  5.468825E+03  3.007622E+00  4.243842E+03  1.602061E+01
       173  23 -7.782391E+02 -1.463861E+03  9.034008E+03  2.588277E+00  8.886203E+03  3.354564E+01
       173  24  6.227755E+02  6.035310E+03  1.781898E+04 -2.043274E+01  1.352858E+04  5.107073E+01
       173  25  6.230126E+02 -1.744944E+02  5.468825E+03 -5.014053E+01  4.243842E+03  1.602024E+01
       173  26 -7.783803E+02 -1.463720E+03  9.034008E+03  2.128528E+01  8.886203E+03  3.354590E+01
       173  27  6.220919E+02  6.035993E+03  1.781897E+04  7.010931E+01  1.352858E+04  5.107271E+01
       174   1  3.657482E+03 -1.160312E+03  2.219808E+04  3.482574E+02 -1.716546E+04 -6.480915E+01
       174   2 -4.573218E+03 -9.352696E+03  3.548033E+04 -1.280559E+02 -3.584183E+04 -1.352954E+02
       174   3  3.666425E+03  3.860287E+04  7.496083E+04 -7.541494E+02 -5.451807E+04 -2.057524E+02
       174   4  3.659974E+03 -1.162804E+03  2.219808E+04  1.820636E+01 -1.716546E+04 -6.480002E+01
       174   5 -4.574321E+03 -9.351593E+03  3.548033E+04  1.803458E+01 -3.584183E+04 -1.353038E+02
       174   6  3.661727E+03  3.860757E+04  7.496083E+04 -1.319233E+02 -5.451807E+04 -2.058070E+02
       174   7  3.662466E+03 -1.165296E+03  2.219808E+04 -3.118446E+02 -1.716546E+04 -6.479089E+01
       174   8 -4.575424E+03 -9.350490E+03  3.548033E+04  1.641250E+02 -3.584183E+04 -1.353122E+02
       174   9  3.657030E+03  3.861227E+04  7.496083E+04  4.903028E+02 -5.451807E+04 -2.058617E+02
       174  10  3.657165E+03 -1.160391E+03  2.219753E+04  3.482565E+02  8.489631E-10 -2.868713E-09
       174  11 -4.574597E+03 -9.353041E+03  3.547792E+04 -1.280598E+02 -1.460688E-09  2.612243E-09
       174  12  3.663234E+03  3.860208E+04  7.495524E+04 -7.541584E+02 -5.438014E-10  1.197804E-09
       174  13  3.659657E+03 -1.162883E+03  2.219753E+04  1.820547E+01 -1.326501E-09  2.672830E-10
       174  14 -4.575700E+03 -9.351938E+03  3.547792E+04  1.803067E+01 -2.747930E-09 -5.242863E-09
       174  15  3.658536E+03  3.860677E+04  7.495524E+04 -1.319323E+02 -2.405965E-09  1.371648E-09
       174  16  3.662149E+03 -1.165375E+03  2.219753E+04 -3.118455E+02 -1.122921E-10  7.796867E-10
       174  17 -4.576803E+03 -9.350835E+03  3.547792E+04  1.641211E+02 -1.025700E-09 -2.957667E-09
       174  18  3.653838E+03  3.861147E+04  7.495524E+04  4.902937E+02 -1.736032E-09 -2.748340E-11
       174  19  3.657482E+03 -1.160312E+03  2.219808E+04  3.482574E+02  1.716546E+04  6.480915E+01
       174  20 -4.573218E+03 -9.352696E+03  3.548033E+04 -1.280559E+02  3.584183E+04  1.352954E+02
       174  21  3.666425E+03  3.860287E+04  7.496083E+04 -7.541494E+02  5.451807E+04  2.057524E+02
       174  22  3.659974E+03 -1.162804E+03  2.219808E+04  1.820636E+01  1.716546E+04  6.480002E+01
       174  23 -4.574321E+03 -9.351593E+03  3.548033E+04  1.803458E+01  3.584183E+04  1.353038E+02
       174  24  3.661727E+03  3.860757E+04  7.496083E+04 -1.319233E+02  5.451807E+04  2.058070E+02
       174  25  3.662466E+03 -1.165296E+03  2.219808E+04 -3.118446E+02  1.716546E+04  6.479089E+01
       174  26 -4.575424E+03 -9.350490E+03  3.548033E+04  1.641250E+02  3.584183E+04  1.353122E+02
       174  27  3.657030E+03  3.861227E+04  7.496083E+04  4.903028E+02  5.451807E+04  2.058617E+02
       175   1  2.199976E+04 -7.581114E+03  9.047377E+04  2.173224E+03 -6.958259E+04 -2.629070E+02
       175   2 -2.749930E+04 -5.948487E+04  1.371736E+05 -9.144698E+02 -1.446465E+05 -5.458030E+02
       175   3  2.206799E+04  2.457333E+05  3.220470E+05 -4.976591E+03 -2.197097E+05 -8.279472E+02
       175   4  2.201532E+04 -7.596686E+03  9.047377E+04  1.117876E+02 -6.958259E+04 -2.626760E+02
       175   5 -2.750712E+04 -5.947706E+04  1.371736E+05  1.206890E+02 -1.446465E+05 -5.460442E+02
       175   6  2.203678E+04  2.457645E+05  3.220470E+05 -8.445896E+02 -2.197097E+05 -8.294095E+02
       175   7  2.203089E+04 -7.612242E+03  9.047377E+04 -1.949649E+03 -6.958259E+04 -2.624449E+02
       175   8 -2.751493E+04 -5.946924E+04  1.371736E+05  1.155848E+03 -1.446465E+05 -5.462854E+02
       175   9  2.200560E+04  2.457957E+05  3.220470E+05  3.287412E+03 -2.197097E+05 -8.308719E+02
       175  10  2.199456E+04 -7.582413E+03  9.046468E+04  2.173209E+03  7.418955E-10  6.327972E-10
       175  11 -2.752177E+04 -5.949049E+04  1.371343E+05 -9.145334E+02 -1.300025E-09 -3.200655E-09
       175  12  2.201617E+04  2.457204E+05  3.219563E+05 -4.976737E+03 -5.566074E-10 -1.708503E-09
       175  13  2.201012E+04 -7.597986E+03  9.046467E+04  1.117729E+02 -2.206535E-09  4.491935E-09
       175  14 -2.752958E+04 -5.948267E+04  1.371343E+05  1.206254E+02 -1.847903E-09  2.796382E-09
       175  15  2.198496E+04  2.457515E+05  3.219563E+05 -8.447364E+02 -1.258324E-09 -1.879433E-09
       175  16  2.202569E+04 -7.613542E+03  9.046468E+04 -1.949663E+03 -5.329698E-10  1.916191E-09
       175  17 -2.753740E+04 -5.947486E+04  1.371343E+05  1.155784E+03 -1.379500E-09 -3.621347E-09
       175  18  2.195378E+04  2.457828E+05  3.219563E+05  3.287265E+03 -5.676123E-10 -2.856652E-09
       175  19  2.199976E+04 -7.581114E+03  9.047377E+04  2.173224E+03  6.958259E+04  2.629070E+02
       175  20 -2.749930E+04 -5.948487E+04  1.371736E+05 -9.144698E+02  1.446465E+05  5.458030E+02
       175  21  2.206799E+04  2.457333E+05  3.220470E+05 -4.976591E+03  2.197097E+05  8.279472E+02
       175  22  2.201532E+04 -7.596686E+03  9.047377E+04  1.117876E+02  6.958259E+04  2.626760E+02
       175  23 -2.750712E+04 -5.947706E+04  1.371736E+05  1.206890E+02  1.446465E+05  5.460442E+02
       175  24  2.203678E+04  2.457645E+05  3.220470E+05 -8.445896E+02  2.197097E+05  8.294095E+02
       175  25  2.203089E+04 -7.612242E+03  9.047377E+04 -1.949649E+03  6.958259E+04  2.624449E+02
       175  26 -2.751493E+04 -5.946924E+04  1.371736E+05  1.155848E+03  1.446465E+05  5.462854E+02
       175  27  2.200560E+04  2.457957E+05  3.220470E+05  3.287412E+03  2.197097E+05  8.308719E+02
       176   1  2.457920E+05  2.200911E+04  3.220662E+05 -3.287636E+03 -8.304289E+02  2.195925E+05
       176   2 -5.947466E+04 -2.751938E+04  1.372793E+05 -1.155942E+03 -5.456460E+02  1.444772E+05
       176   3 -7.590625E+03  2.203441E+04  9.070963E+04  1.949826E+03 -2.616013E+02  6.935892E+04
       176   4  2.457608E+05  2.204029E+04  3.220662E+05  8.445624E+02 -8.289673E+02  2.195925E+05
       176   5 -5.948248E+04 -2.751156E+04  1.372793E+05 -1.206927E+02 -5.454051E+02  1.444772E+05
       176   6 -7.575068E+03  2.201884E+04  9.070963E+04 -1.117193E+02 -2.618316E+02  6.935892E+04
       176   7  2.457296E+05  2.207151E+04  3.220662E+05  4.976761E+03 -8.275056E+02  2.195926E+05
       176   8 -5.949030E+04 -2.750374E+04  1.372793E+05  9.145561E+02 -5.451642E+02  1.444772E+05
       176   9 -7.559495E+03  2.200328E+04  9.070963E+04 -2.173265E+03 -2.620619E+02  6.935892E+04
       176  10  2.457791E+05  2.195734E+04  3.219756E+05 -3.287489E+03  2.386806E-09  5.178459E-10
       176  11 -5.948027E+04 -2.754179E+04  1.372401E+05 -1.155878E+03 -4.437336E-10 -6.846081E-09
       176  12 -7.591916E+03  2.202924E+04  9.070059E+04  1.949841E+03  2.765341E-09 -1.761202E-09
       176  13  2.457478E+05  2.198852E+04  3.219755E+05  8.447090E+02  2.335801E-09  4.228498E-09
       176  14 -5.948809E+04 -2.753397E+04  1.372401E+05 -1.206293E+02 -3.389465E-09 -4.292313E-09
       176  15 -7.576359E+03  2.201367E+04  9.070059E+04 -1.117047E+02  8.491779E-10  2.780177E-09
       176  16  2.457167E+05  2.201974E+04  3.219756E+05  4.976907E+03  1.208533E-10  2.557652E-09
       176  17 -5.949590E+04 -2.752616E+04  1.372401E+05  9.146195E+02 -1.989796E-09  1.619978E-09
       176  18 -7.560786E+03  2.199811E+04  9.070059E+04 -2.173250E+03 -2.852675E-10 -3.826146E-10
       176  19  2.457920E+05  2.200911E+04  3.220662E+05 -3.287636E+03  8.304289E+02 -2.195925E+05
       176  20 -5.947466E+04 -2.751938E+04  1.372793E+05 -1.155942E+03  5.456460E+02 -1.444772E+05
       176  21 -7.590625E+03  2.203441E+04  9.070963E+04  1.949826E+03  2.616013E+02 -6.935892E+04
       176  22  2.457608E+05  2.204029E+04  3.220662E+05  8.445624E+02  8.289673E+02 -2.195925E+05
       176  23 -5.948248E+04 -2.751156E+04  1.372793E+05 -1.206927E+02  5.454051E+02 -1.444772E+05
       176  24 -7.575068E+03  2.201884E+04  9.070963E+04 -1.117193E+02  2.618316E+02 -6.935892E+04
       176  25  2.457296E+05  2.207151E+04  3.220662E+05  4.976761E+03  8.275056E+02 -2.195926E+05
       176  26 -5.949030E+04 -2.750374E+04  1.372793E+05  9.145561E+02  5.451642E+02 -1.444772E+05
       176  27 -7.559495E+03  2.200328E+04  9.070963E+04 -2.173265E+03  2.620619E+02 -6.935892E+04
       177   1  3.860880E+04  3.676774E+03  7.527945E+04 -4.918273E+02 -2.048314E+02  5.424518E+04
       177   2 -9.385359E+03 -4.600155E+03  3.604249E+04 -1.641515E+02 -1.332168E+02  3.528679E+04
       177   3 -1.021969E+03  3.682234E+03  2.323967E+04  3.137645E+02 -6.163188E+01  1.632853E+04
       177   4  3.860409E+04  3.681482E+03  7.527945E+04  1.318356E+02 -2.047769E+02  5.424518E+04
       177   5 -9.386462E+03 -4.599052E+03  3.604249E+04 -1.807285E+01 -1.332085E+02  3.528679E+04
       177   6 -1.019467E+03  3.679731E+03  2.323967E+04 -1.773984E+01 -6.164060E+01  1.632853E+04
       177   7  3.859939E+04  3.686191E+03  7.527945E+04  7.554985E+02 -2.047224E+02  5.424518E+04
       177   8 -9.387565E+03 -4.597949E+03  3.604249E+04  1.280058E+02 -1.332002E+02  3.528679E+04
       177   9 -1.016964E+03  3.677228E+03  2.323967E+04 -3.492442E+02 -6.164932E+01  1.632853E+04
       177  10  3.860801E+04  3.673614E+03  7.527392E+04 -4.918184E+02  4.527898E-10  4.281586E-10
       177  11 -9.385693E+03 -4.601492E+03  3.604015E+04 -1.641477E+02  1.718554E-09 -6.994683E-09
       177  12 -1.022041E+03  3.681948E+03  2.323917E+04  3.137653E+02 -1.658999E-09 -1.548404E-09
       177  13  3.860331E+04  3.678323E+03  7.527392E+04  1.318445E+02  7.301192E-10  3.797769E-09
       177  14 -9.386796E+03 -4.600389E+03  3.604015E+04 -1.806906E+01  3.124870E-09 -4.395086E-09
       177  15 -1.019538E+03  3.679445E+03  2.323917E+04 -1.773903E+01  3.258445E-09  2.673406E-09
       177  16  3.859860E+04  3.683032E+03  7.527392E+04  7.555075E+02  6.932152E-10  2.392598E-09
       177  17 -9.387899E+03 -4.599286E+03  3.604015E+04  1.280096E+02 -2.251377E-09  1.355756E-09
       177  18 -1.017035E+03  3.676942E+03  2.323917E+04 -3.492433E+02  1.787494E-11 -3.921051E-10
       177  19  3.860880E+04  3.676774E+03  7.527945E+04 -4.918273E+02  2.048314E+02 -5.424518E+04
       177  20 -9.385359E+03 -4.600155E+03  3.604249E+04 -1.641515E+02  1.332168E+02 -3.528679E+04
       177  21 -1.021969E+03  3.682234E+03  2.323967E+04  3.137645E+02  6.163188E+01 -1.632853E+04
       177  22  3.860409E+04  3.681482E+03  7.527945E+04  1.318356E+02  2.047769E+02 -5.424518E+04
       177  23 -9.386462E+03 -4.599052E+03  3.604249E+04 -1.807285E+01  1.332085E+02 -3.528679E+04
       177  24 -1.019467E+03  3.679731E+03  2.323967E+04 -1.773984E+01  6.164060E+01 -1.632853E+04
       177  25  3.859939E+04  3.686191E+03  7.527945E+04  7.554985E+02  2.047224E+02 -5.424518E+04
       177  26 -9.387565E+03 -4.597949E+03  3.604249E+04  1.280058E+02  1.332002E+02 -3.528679E+04
       177  27 -1.016964E+03  3.677228E+03  2.323967E+04 -3.492442E+02  6.164932E+01 -1.632853E+04
       178   1  6.011012E+03  7.312292E+02  1.916558E+04 -7.925567E+01 -4.709537E+01  1.247499E+04
       178   2 -1.691267E+03 -9.149062E+02  1.130951E+04 -1.977265E+01 -2.521991E+01  6.680679E+03
       178   3  7.614445E+02  7.323267E+02  9.764650E+03  6.561236E+01 -3.346369E+00  8.864745E+02
       178   4  6.010263E+03  7.319780E+02  1.916558E+04  1.992594E+01 -4.709338E+01  1.247499E+04
       178   5 -1.691394E+03 -9.147791E+02  1.130951E+04 -2.931781E+00 -2.521973E+01  6.680679E+03
       178   6  7.619390E+02  7.318322E+02  9.764650E+03  1.136558E-01 -3.346463E+00  8.864745E+02
       178   7  6.009514E+03  7.327269E+02  1.916558E+04  1.191075E+02 -4.709138E+01  1.247499E+04
       178   8 -1.691521E+03 -9.146519E+02  1.130951E+04  1.390909E+01 -2.521954E+01  6.680679E+03
       178   9  7.624336E+02  7.313377E+02  9.764650E+03 -6.538505E+01 -3.346556E+00  8.864745E+02
       178  10  6.010970E+03  7.310621E+02  1.916529E+04 -7.925520E+01 -5.414987E-11  7.350334E-10
       178  11 -1.691279E+03 -9.149541E+02  1.130942E+04 -1.977252E+01  1.064330E-09 -6.947553E-09
       178  12  7.614443E+02  7.323259E+02  9.764648E+03  6.561236E+01 -2.203769E-09 -1.300600E-09
       178  13  6.010221E+03  7.318109E+02  1.916529E+04  1.992641E+01 -2.417974E-09  3.859225E-09
       178  14 -1.691406E+03 -9.148270E+02  1.130942E+04 -2.931646E+00  1.164421E-09 -4.334071E-09
       178  15  7.619388E+02  7.318314E+02  9.764648E+03  1.136581E-01 -3.232009E-09  2.771899E-09
       178  16  6.009472E+03  7.325598E+02  1.916529E+04  1.191080E+02  1.484059E-09  2.272270E-09
       178  17 -1.691533E+03 -9.146998E+02  1.130942E+04  1.390923E+01 -9.625260E-10  1.778645E-09
       178  18  7.624333E+02  7.313369E+02  9.764648E+03 -6.538505E+01 -4.379823E-09 -7.646291E-10
       178  19  6.011012E+03  7.312292E+02  1.916558E+04 -7.925567E+01  4.709537E+01 -1.247499E+04
       178  20 -1.691267E+03 -9.149062E+02  1.130951E+04 -1.977265E+01  2.521991E+01 -6.680679E+03
       178  21  7.614445E+02  7.323267E+02  9.764650E+03  6.561236E+01  3.346369E+00 -8.864745E+02
       178  22  6.010263E+03  7.319780E+02  1.916558E+04  1.992594E+01  4.709338E+01 -1.247499E+04
       178  23 -1.691394E+03 -9.147791E+02  1.130951E+04 -2.931782E+00  2.521973E+01 -6.680679E+03
       178  24  7.619390E+02  7.318322E+02  9.764650E+03  1.136558E-01  3.346463E+00 -8.864745E+02
       178  25  6.009514E+03  7.327269E+02  1.916558E+04  1.191075E+02  4.709138E+01 -1.247499E+04
       178  26 -1.691521E+03 -9.146519E+02  1.130951E+04  1.390909E+01  2.521954E+01 -6.680679E+03
       178  27  7.624336E+02  7.313377E+02  9.764650E+03 -6.538505E+01  3.346556E+00 -8.864745E+02
       179   1 -3.789228E+06 -1.238081E+06 -6.493987E+05 -1.347072E+06 -2.263721E+05 -4.816158E+04
       179   2 -3.676713E+06 -1.077397E+06 -4.789327E+05 -1.306037E+06 -1.502971E+05  6.790293E+04
       179   3 -3.584298E+06 -1.010222E+06 -4.064447E+05 -1.273205E+06 -5.254982E+04  1.269543E+05
       179   4 -1.727902E+06 -4.103679E+05 -1.031599E+05 -7.304985E+05 -7.891318E+04  7.686939E+03
       179   5 -1.720057E+06 -3.316295E+05 -4.714939E+04 -7.414800E+05 -8.301558E+04  9.332291E+04
       179   6 -1.716239E+06 -3.303044E+05 -2.514845E+04 -7.606953E+05 -6.550725E+04  1.220164E+05
       179   7  3.375844E+05  4.177717E+05  4.427895E+05 -1.120068E+05  6.908260E+04  6.376794E+04
       179   8  2.405036E+05  4.145098E+05  3.844156E+05 -1.752557E+05 -1.550373E+04  1.188357E+05
       179   9  1.554473E+05  3.499061E+05  3.559773E+05 -2.467535E+05 -7.850705E+04  1.170631E+05
       179  10 -3.789284E+06 -1.238097E+06 -6.495001E+05 -1.347081E+06 -1.366210E-10  6.011174E-10
       179  11 -3.676738E+06 -1.077408E+06 -4.789840E+05 -1.306028E+06 -1.913222E-09  1.539279E-09
       179  12 -3.584305E+06 -1.010240E+06 -4.064802E+05 -1.273200E+06 -4.169164E-10  7.259656E-10
       179  13 -1.727909E+06 -4.103696E+05 -1.031717E+05 -7.304980E+05  1.418221E-09  1.853278E-09
       179  14 -1.720067E+06 -3.316407E+05 -4.717869E+04 -7.414738E+05  1.359091E-11 -3.037978E-09
       179  15 -1.716248E+06 -3.303216E+05 -2.518446E+04 -7.606888E+05 -7.764982E-10  7.327795E-10
       179  16  3.375782E+05  4.177661E+05  4.427729E+05 -1.120103E+05  8.937467E-10 -8.998255E-10
       179  17  2.404995E+05  4.144946E+05  3.843887E+05 -1.752542E+05  6.701342E-10 -4.834688E-09
       179  18  1.554370E+05  3.498897E+05  3.559400E+05 -2.467461E+05  3.700915E-10 -3.023507E-09
       179  19 -3.789228E+06 -1.238081E+06 -6.493987E+05 -1.347072E+06  2.263721E+05  4.816158E+04
       179  20 -3.676713E+06 -1.077397E+06 -4.789327E+05 -1.306037E+06  1.502971E+05 -6.790293E+04
       179  21 -3.584298E+06 -1.010222E+06 -4.064447E+05 -1.273205E+06  5.254982E+04 -1.269543E+05
       179  22 -1.727902E+06 -4.103679E+05 -1.031599E+05 -7.304985E+05  7.891318E+04 -7.686939E+03
       179  23 -1.720057E+06 -3.316295E+05 -4.714939E+04 -7.414800E+05  8.301558E+04 -9.332291E+04
       179  24 -1.716239E+06 -3.303044E+05 -2.514845E+04 -7.606953E+05  6.550725E+04 -1.220164E+05
       179  25  3.375844E+05  4.177717E+05  4.427895E+05 -1.120068E+05 -6.908260E+04 -6.376794E+04
       179  26  2.405036E+05  4.145098E+05  3.844156E+05 -1.752557E+05  1.550373E+04 -1.188357E+05
       179  27  1.554473E+05  3.499061E+05  3.559773E+05 -2.467535E+05  7.850705E+04 -1.170631E+05
       180   1 -3.492490E+06 -9.895682E+05 -3.833637E+05 -1.255621E+06 -5.871957E+04  1.185596E+05
       180   2 -3.385518E+06 -9.295379E+05 -3.449049E+05 -1.209646E+06 -4.686009E+04  1.192955E+05
       180   3 -3.257594E+06 -8.961743E+05 -3.151714E+05 -1.189400E+06 -3.353997E+04  1.161345E+05
       180   4 -1.712529E+06 -3.337224E+05 -1.922901E+04 -7.589032E+05 -6.060672E+04  1.178087E+05
       180   5 -1.723223E+06 -3.191882E+05 -1.021720E+04 -7.466664E+05 -5.421698E+04  1.164858E+05
       180   6 -1.711887E+06 -3.302215E+05 -5.565514E+03 -7.601590E+05 -4.637096E+04  1.112709E+05
       180   7  7.070643E+04  3.224028E+05  3.447438E+05 -2.608601E+05 -6.249974E+04  1.170556E+05
       180   8 -5.807092E+04  2.914032E+05  3.243335E+05 -2.825351E+05 -6.159516E+04  1.136681E+05
       180   9 -1.637149E+05  2.359358E+05  3.039221E+05 -3.299273E+05 -5.923637E+04  1.063944E+05
       180  10 -3.492498E+06 -9.895842E+05 -3.833966E+05 -1.255616E+06  1.162592E-09  1.479890E-09
       180  11 -3.385524E+06 -9.295537E+05 -3.449357E+05 -1.209641E+06 -1.230250E-09  1.282505E-09
       180  12 -3.257599E+06 -8.961891E+05 -3.151988E+05 -1.189397E+06 -5.927738E-10  8.299305E-11
       180  13 -1.712537E+06 -3.337382E+05 -1.926196E+04 -7.588974E+05  1.314940E-09 -2.286232E-09
       180  14 -1.723230E+06 -3.192035E+05 -1.024819E+04 -7.466613E+05  1.827326E-09 -3.138300E-09
       180  15 -1.711893E+06 -3.302354E+05 -5.592795E+03 -7.601548E+05 -4.332241E-10 -9.152781E-10
       180  16  7.069857E+04  3.223871E+05  3.447107E+05 -2.608543E+05 -2.770748E-10 -3.880351E-10
       180  17 -5.807845E+04  2.913883E+05  3.243021E+05 -2.825294E+05 -1.786444E-10 -7.860131E-10
       180  18 -1.637217E+05  2.359228E+05  3.038943E+05 -3.299222E+05 -1.294126E-10  2.201440E-10
       180  19 -3.492490E+06 -9.895682E+05 -3.833637E+05 -1.255621E+06  5.871957E+04 -1.185596E+05
       180  20 -3.385518E+06 -9.295379E+05 -3.449049E+05 -1.209646E+06  4.686009E+04 -1.192955E+05
       180  21 -3.257594E+06 -8.961743E+05 -3.151714E+05 -1.189400E+06  3.353997E+04 -1.161345E+05
       180  22 -1.712529E+06 -3.337224E+05 -1.922901E+04 -7.589032E+05  6.060672E+04 -1.178087E+05
       180  23 -1.723223E+06 -3.191882E+05 -1.021720E+04 -7.466664E+05  5.421698E+04 -1.164858E+05
       180  24 -1.711887E+06 -3.302215E+05 -5.565514E+03 -7.601590E+05  4.637096E+04 -1.112709E+05
       180  25  7.070643E+04  3.224028E+05  3.447438E+05 -2.608601E+05  6.249974E+04 -1.170556E+05
       180  26 -5.807092E+04  2.914032E+05  3.243335E+05 -2.825351E+05  6.159516E+04 -1.136681E+05
       180  27 -1.637149E+05  2.359358E+05  3.039221E+05 -3.299273E+05  5.923637E+04 -1.063944E+05
       181   1 -3.175737E+06 -8.665750E+05 -2.968323E+05 -1.167032E+06 -3.143106E+04  1.108629E+05
       181   2 -3.067547E+06 -8.102751E+05 -2.708716E+05 -1.119974E+06 -2.651182E+04  1.026909E+05
       181   3 -2.935605E+06 -7.777834E+05 -2.460565E+05 -1.099872E+06 -2.148793E+04  9.420703E+04
       181   4 -1.711531E+06 -3.304143E+05 -4.201139E+03 -7.601850E+05 -4.358277E+04  1.062610E+05
       181   5 -1.723357E+06 -3.183728E+05 -2.345889E+03 -7.467482E+05 -3.909866E+04  9.793409E+04
       181   6 -1.711364E+06 -3.300516E+05 -1.291584E+03 -7.602706E+05 -3.451040E+04  8.929549E+04
       181   7 -2.450876E+05  2.059400E+05  2.883313E+05 -3.524413E+05 -5.576554E+04  1.016475E+05
       181   8 -3.772853E+05  1.736905E+05  2.660956E+05 -3.727695E+05 -5.171499E+04  9.316620E+04
       181   9 -4.855685E+05  1.178115E+05  2.434022E+05 -4.200467E+05 -4.756060E+04  8.437358E+04
       181  10 -3.175741E+06 -8.665885E+05 -2.968572E+05 -1.167030E+06  2.554665E-09 -5.609589E-10
       181  11 -3.067551E+06 -8.102866E+05 -2.708928E+05 -1.119971E+06 -4.420029E-10 -5.269754E-10
       181  12 -2.935608E+06 -7.777930E+05 -2.460740E+05 -1.099870E+06  3.774475E-10 -1.091497E-09
       181  13 -1.711536E+06 -3.304269E+05 -4.225903E+03 -7.601812E+05 -2.065521E-10 -5.853946E-10
       181  14 -1.723361E+06 -3.183835E+05 -2.366766E+03 -7.467452E+05  1.402485E-09 -2.202591E-10
       181  15 -1.711368E+06 -3.300604E+05 -1.308789E+03 -7.602681E+05 -1.273330E-09  5.397652E-10
       181  16 -2.450937E+05  2.059281E+05  2.883061E+05 -3.524367E+05 -5.522686E-11 -1.700279E-09
       181  17 -3.772905E+05  1.736805E+05  2.660743E+05 -3.727657E+05 -5.525543E-10 -2.368463E-10
       181  18 -4.855728E+05  1.178033E+05  2.433846E+05 -4.200435E+05  1.413605E-09  3.197457E-10
       181  19 -3.175737E+06 -8.665750E+05 -2.968323E+05 -1.167032E+06  3.143106E+04 -1.108629E+05
       181  20 -3.067547E+06 -8.102751E+05 -2.708716E+05 -1.119974E+06  2.651182E+04 -1.026909E+05
       181  21 -2.935605E+06 -7.777834E+05 -2.460565E+05 -1.099872E+06  2.148793E+04 -9.420703E+04
       181  22 -1.711531E+06 -3.304143E+05 -4.201139E+03 -7.601850E+05  4.358277E+04 -1.062610E+05
       181  23 -1.723357E+06 -3.183728E+05 -2.345889E+03 -7.467482E+05  3.909866E+04 -9.793409E+04
       181  24 -1.711364E+06 -3.300516E+05 -1.291584E+03 -7.602706E+05  3.451040E+04 -8.929549E+04
       181  25 -2.450876E+05  2.059400E+05  2.883313E+05 -3.524413E+05  5.576554E+04 -1.016475E+05
       181  26 -3.772853E+05  1.736905E+05  2.660956E+05 -3.727695E+05  5.171499E+04 -9.316620E+04
       181  27 -4.855685E+05  1.178115E+05  2.434022E+05 -4.200467E+05  4.756060E+04 -8.437358E+04
       182   1 -2.853041E+06 -7.474279E+05 -2.285639E+05 -1.077034E+06 -1.926263E+04  8.889205E+04
       182   2 -2.743227E+06 -6.906919E+05 -2.041601E+05 -1.029395E+06 -1.537745E+04  7.977163E+04
       182   3 -2.609279E+06 -6.579076E+05 -1.799969E+05 -1.009153E+06 -1.148056E+04  7.059266E+04
       182   4 -1.711248E+06 -3.300822E+05 -9.978801E+02 -7.603562E+05 -3.229165E+04  8.398292E+04
       182   5 -1.723259E+06 -3.180027E+05 -6.357241E+02 -7.466799E+05 -2.848739E+04  7.483912E+04
       182   6 -1.711136E+06 -3.298589E+05 -4.515905E+02 -7.604045E+05 -2.467150E+04  6.563678E+04
       182   7 -5.681123E+05  8.737424E+04  2.265042E+05 -4.431395E+05 -4.534643E+04  7.906413E+04
       182   8 -7.022114E+05  5.477735E+04  2.028397E+05 -4.635330E+05 -4.162056E+04  6.989791E+04
       182   9 -8.121492E+05 -1.737105E+03  1.790578E+05 -5.113196E+05 -3.788313E+04  6.067316E+04
       182  10 -2.853043E+06 -7.474365E+05 -2.285794E+05 -1.077032E+06  6.384809E-10  2.597224E-10
       182  11 -2.743229E+06 -6.906988E+05 -2.041725E+05 -1.029394E+06 -3.814841E-10  4.973748E-10
       182  12 -2.609280E+06 -6.579130E+05 -1.800065E+05 -1.009152E+06  5.029230E-11  9.020343E-11
       182  13 -1.711251E+06 -3.300900E+05 -1.013079E+03 -7.603540E+05  1.855740E-12  3.754781E-10
       182  14 -1.723261E+06 -3.180089E+05 -6.477627E+02 -7.466782E+05 -1.236658E-09  1.445654E-10
       182  15 -1.711138E+06 -3.298636E+05 -4.608214E+02 -7.604032E+05 -2.021022E-10 -6.384101E-11
       182  16 -5.681162E+05  8.736699E+04  2.264886E+05 -4.431366E+05 -7.370795E-11  3.253664E-10
       182  17 -7.022146E+05  5.477165E+04  2.028272E+05 -4.635307E+05 -1.091190E-10  5.496418E-11
       182  18 -8.121517E+05 -1.741439E+03  1.790482E+05 -5.113177E+05  7.887567E-11  1.409091E-10
       182  19 -2.853041E+06 -7.474279E+05 -2.285639E+05 -1.077034E+06  1.926263E+04 -8.889205E+04
       182  20 -2.743227E+06 -6.906919E+05 -2.041601E+05 -1.029395E+06  1.537745E+04 -7.977163E+04
       182  21 -2.609279E+06 -6.579076E+05 -1.799969E+05 -1.009153E+06  1.148056E+04 -7.059266E+04
       182  22 -1.711248E+06 -3.300822E+05 -9.978801E+02 -7.603562E+05  3.229165E+04 -8.398292E+04
       182  23 -1.723259E+06 -3.180027E+05 -6.357241E+02 -7.466799E+05  2.848739E+04 -7.483912E+04
       182  24 -1.711136E+06 -3.298589E+05 -4.515905E+02 -7.604045E+05  2.467150E+04 -6.563678E+04
       182  25 -5.681123E+05  8.737424E+04  2.265042E+05 -4.431395E+05  4.534643E+04 -7.906413E+04
       182  26 -7.022114E+05  5.477735E+04  2.028397E+05 -4.635330E+05  4.162056E+04 -6.989791E+04
       182  27 -8.121492E+05 -1.737105E+03  1.790578E+05 -5.113196E+05  3.788313E+04 -6.067316E+04
       183   1 -2.525712E+06 -6.272438E+05 -1.625906E+05 -9.860919E+05 -9.321148E+03  6.518199E+04
       183   2 -2.414628E+06 -5.700974E+05 -1.384477E+05 -9.380663E+05 -5.491326E+03  5.590571E+04
       183   3 -2.279286E+06 -5.371268E+05 -1.145058E+05 -9.177572E+05 -1.658962E+03  4.660366E+04
       183   4 -1.711073E+06 -3.298759E+05 -4.438062E+02 -7.604743E+05 -2.255086E+04  6.021512E+04
       183   5 -1.723155E+06 -3.177074E+05 -5.438974E+02 -7.466329E+05 -1.875667E+04  5.093027E+04
       183   6 -1.710990E+06 -3.297073E+05 -8.181004E+02 -7.605117E+05 -1.496002E+04  4.161970E+04
       183   7 -8.957459E+05 -3.245012E+04  1.616722E+05 -5.345816E+05 -3.579928E+04  5.524124E+04
       183   8 -1.031190E+06 -6.527693E+04  1.373370E+05 -5.550022E+05 -3.203787E+04  4.594889E+04
       183   9 -1.142365E+06 -1.222615E+05  1.128535E+05 -6.031339E+05 -2.827409E+04  3.663087E+04
       183  10 -2.525713E+06 -6.272484E+05 -1.625988E+05 -9.860914E+05 -7.698091E-10  3.013248E-10
       183  11 -2.414629E+06 -5.701007E+05 -1.384536E+05 -9.380660E+05 -9.723535E-11  1.246999E-09
       183  12 -2.279287E+06 -5.371292E+05 -1.145099E+05 -9.177571E+05 -1.059211E-10  7.871062E-10
       183  13 -1.711075E+06 -3.298799E+05 -4.515681E+02 -7.604732E+05 -2.132311E-10  1.077891E-10
       183  14 -1.723156E+06 -3.177103E+05 -5.494277E+02 -7.466321E+05 -3.927241E-11  7.154216E-10
       183  15 -1.710991E+06 -3.297092E+05 -8.217726E+02 -7.605112E+05 -1.076397E-11  5.372457E-10
       183  16 -8.957481E+05 -3.245374E+04  1.616641E+05 -5.345800E+05  1.109391E-09  5.488701E-10
       183  17 -1.031191E+06 -6.527947E+04  1.373311E+05 -5.550010E+05 -6.856851E-11  2.997340E-10
       183  18 -1.142366E+06 -1.222632E+05  1.128495E+05 -6.031330E+05 -2.420927E-10 -5.202447E-11
       183  19 -2.525712E+06 -6.272438E+05 -1.625906E+05 -9.860919E+05  9.321148E+03 -6.518199E+04
       183  20 -2.414628E+06 -5.700974E+05 -1.384477E+05 -9.380663E+05  5.491326E+03 -5.590571E+04
       183  21 -2.279286E+06 -5.371268E+05 -1.145058E+05 -9.177572E+05  1.658962E+03 -4.660366E+04
       183  22 -1.711073E+06 -3.298759E+05 -4.438062E+02 -7.604743E+05  2.255086E+04 -6.021512E+04
       183  23 -1.723155E+06 -3.177074E+05 -5.438974E+02 -7.466329E+05  1.875667E+04 -5.093027E+04
       183  24 -1.710990E+06 -3.297073E+05 -8.181004E+02 -7.605117E+05  1.496002E+04 -4.161970E+04
       183  25 -8.957459E+05 -3.245012E+04  1.616722E+05 -5.345816E+05  3.579928E+04 -5.524124E+04
       183  26 -1.031190E+06 -6.527693E+04  1.373370E+05 -5.550022E+05  3.203787E+04 -4.594889E+04
       183  27 -1.142365E+06 -1.222615E+05  1.128535E+05 -6.031339E+05  2.827409E+04 -3.663087E+04
       184   1 -2.194997E+06 -5.062653E+05 -9.720924E+04 -8.945567E+05  5.916004E+02  4.117893E+04
       184   2 -2.083051E+06 -4.488724E+05 -7.361527E+04 -8.462858E+05  4.996311E+03  3.207656E+04
       184   3 -1.946884E+06 -4.158834E+05 -5.068424E+04 -8.259408E+05  9.381746E+03  2.301627E+04
       184   4 -1.710980E+06 -3.297158E+05 -1.061959E+03 -7.605692E+05 -1.274609E+04  3.618345E+04
       184   5 -1.723057E+06 -3.174890E+05 -1.870909E+03 -7.466033E+05 -8.282158E+03  2.710570E+04
       184   6 -1.710945E+06 -3.296798E+05 -3.391611E+03 -7.605694E+05 -3.837697E+03  1.807001E+04
       184   7 -1.226716E+06 -1.531443E+05  9.507616E+04 -6.264834E+05 -2.609509E+04  3.118374E+04
       184   8 -1.362927E+06 -1.860936E+05  6.986848E+04 -6.468666E+05 -2.156897E+04  2.213172E+04
       184   9 -1.474947E+06 -2.434711E+05  4.389909E+04 -6.951747E+05 -1.706255E+04  1.312171E+04
       184  10 -2.194998E+06 -5.062671E+05 -9.721242E+04 -8.945567E+05 -1.239673E-09  6.914432E-10
       184  11 -2.083051E+06 -4.488735E+05 -7.361726E+04 -8.462859E+05 -5.627657E-10  1.322557E-09
       184  12 -1.946884E+06 -4.158840E+05 -5.068540E+04 -8.259409E+05 -8.447075E-10  8.572169E-10
       184  13 -1.710981E+06 -3.297173E+05 -1.064722E+03 -7.605688E+05 -7.754550E-10 -2.298621E-10
       184  14 -1.723057E+06 -3.174898E+05 -1.872417E+03 -7.466031E+05 -1.219184E-09 -9.942975E-10
       184  15 -1.710945E+06 -3.296801E+05 -3.392252E+03 -7.605693E+05 -4.343056E-10  1.097961E-09
       184  16 -1.226717E+06 -1.531455E+05  9.507306E+04 -6.264828E+05  1.101270E-09  8.231278E-10
       184  17 -1.362927E+06 -1.860943E+05  6.986669E+04 -6.468662E+05  3.581425E-10  1.049946E-09
       184  18 -1.474947E+06 -2.434714E+05  4.389822E+04 -6.951746E+05  1.866382E-10  9.040647E-10
       184  19 -2.194997E+06 -5.062653E+05 -9.720924E+04 -8.945567E+05 -5.916004E+02 -4.117893E+04
       184  20 -2.083051E+06 -4.488724E+05 -7.361527E+04 -8.462858E+05 -4.996311E+03 -3.207656E+04
       184  21 -1.946884E+06 -4.158834E+05 -5.068424E+04 -8.259408E+05 -9.381746E+03 -2.301627E+04
       184  22 -1.710980E+06 -3.297158E+05 -1.061959E+03 -7.605692E+05  1.274609E+04 -3.618345E+04
       184  23 -1.723057E+06 -3.174890E+05 -1.870909E+03 -7.466033E+05  8.282158E+03 -2.710570E+04
       184  24 -1.710945E+06 -3.296798E+05 -3.391611E+03 -7.605694E+05  3.837697E+03 -1.807001E+04
       184  25 -1.226716E+06 -1.531443E+05  9.507616E+04 -6.264834E+05  2.609509E+04 -3.118374E+04
       184  26 -1.362927E+06 -1.860936E+05  6.986848E+04 -6.468666E+05  2.156897E+04 -2.213172E+04
       184  27 -1.474947E+06 -2.434711E+05  4.389909E+04 -6.951747E+05  1.706255E+04 -1.312171E+04
       185   1 -1.862128E+06 -3.850368E+05 -3.418708E+04 -8.029972E+05  1.225489E+04  1.779849E+04
       185   2 -1.750059E+06 -3.272880E+05 -1.306165E+04 -7.538026E+05  1.858914E+04  9.834909E+03
       185   3 -1.614716E+06 -2.957444E+05  5.371670E+03 -7.321918E+05  2.460715E+04  2.716626E+03
       185   4 -1.711120E+06 -3.295786E+05 -4.508847E+03 -7.606968E+05 -1.141097E+03  1.278701E+04
       185   5 -1.722811E+06 -3.176363E+05 -8.218138E+03 -7.464239E+05  6.385435E+03  5.269626E+03
       185   6 -1.711483E+06 -3.321375E+05 -1.556687E+04 -7.597414E+05  1.359515E+04 -1.402717E+03
       185   7 -1.560089E+06 -2.741187E+05  2.516877E+04 -7.183870E+05 -1.454048E+04  7.774246E+03
       185   8 -1.695563E+06 -3.079844E+05 -3.374011E+03 -7.390448E+05 -5.818844E+03  7.041376E+02
       185   9 -1.808240E+06 -3.685300E+05 -3.650565E+04 -7.872871E+05  2.584906E+03 -5.521359E+03
       185  10 -1.862129E+06 -3.850372E+05 -3.418796E+04 -8.029974E+05  7.315414E-09  3.492084E-09
       185  11 -1.750059E+06 -3.272882E+05 -1.306248E+04 -7.538027E+05 -1.604679E-08 -7.288804E-09
       185  12 -1.614717E+06 -2.957446E+05  5.370515E+03 -7.321919E+05 -3.634201E-08 -1.677258E-08
       185  13 -1.711120E+06 -3.295788E+05 -4.509157E+03 -7.606968E+05 -8.381883E-11  8.192260E-10
       185  14 -1.722811E+06 -3.176363E+05 -8.218267E+03 -7.464239E+05  4.573422E-10 -7.295584E-10
       185  15 -1.711483E+06 -3.321376E+05 -1.556722E+04 -7.597414E+05 -1.234613E-09 -4.112335E-09
       185  16 -1.560089E+06 -2.741188E+05  2.516826E+04 -7.183869E+05 -6.916953E-09 -1.351417E-09
       185  17 -1.695563E+06 -3.079844E+05 -3.374076E+03 -7.390448E+05  1.626855E-08  5.095884E-09
       185  18 -1.808240E+06 -3.685300E+05 -3.650572E+04 -7.872871E+05  3.391107E-08  9.054925E-09
       185  19 -1.862128E+06 -3.850368E+05 -3.418708E+04 -8.029972E+05 -1.225489E+04 -1.779849E+04
       185  20 -1.750059E+06 -3.272880E+05 -1.306165E+04 -7.538026E+05 -1.858914E+04 -9.834909E+03
       185  21 -1.614716E+06 -2.957444E+05  5.371670E+03 -7.321918E+05 -2.460715E+04 -2.716626E+03
       185  22 -1.711120E+06 -3.295786E+05 -4.508847E+03 -7.606968E+05  1.141097E+03 -1.278701E+04
       185  23 -1.722811E+06 -3.176363E+05 -8.218138E+03 -7.464239E+05 -6.385435E+03 -5.269626E+03
       185  24 -1.711483E+06 -3.321375E+05 -1.556687E+04 -7.597414E+05 -1.359515E+04  1.402717E+03
       185  25 -1.560089E+06 -2.741187E+05  2.516877E+04 -7.183870E+05  1.454048E+04 -7.774246E+03
       185  26 -1.695563E+06 -3.079844E+05 -3.374011E+03 -7.390448E+05  5.818844E+03 -7.041376E+02
       185  27 -1.808240E+06 -3.685300E+05 -3.650565E+04 -7.872871E+05 -2.584906E+03  5.521359E+03
       186   1 -1.526878E+06 -2.673040E+05  1.829932E+04 -7.165801E+05  3.149933E+04 -1.024408E+03
       186   2 -1.426910E+06 -2.022896E+05  3.107359E+04 -6.440879E+05  3.493160E+04 -3.425569E+03
       186   3 -1.319833E+06 -2.044669E+05  3.024245E+04 -5.871695E+05  3.364303E+04  6.783185E+03
       186   4 -1.714085E+06 -3.296946E+05 -2.037380E+04 -7.616721E+05  1.801759E+04 -6.067792E+03
       186   5 -1.720479E+06 -3.269725E+05 -3.811859E+04 -7.416804E+05  3.925857E+04 -1.808162E+03
       186   6 -1.723327E+06 -3.949991E+05 -8.361245E+04 -7.372738E+05  5.577653E+04  1.506373E+04
       186   7 -1.901257E+06 -3.920840E+05 -5.904822E+04 -8.067524E+05  4.540174E+03 -1.110990E+04
       186   8 -2.013956E+06 -4.516388E+05 -1.073154E+05 -8.392264E+05  4.358326E+04 -1.918982E+02
       186   9 -2.126643E+06 -5.854849E+05 -1.974764E+05 -8.872751E+05  7.789355E+04  2.333457E+04
       186  10 -1.526879E+06 -2.673043E+05  1.829745E+04 -7.165800E+05  3.636450E-08  1.041300E-08
       186  11 -1.426911E+06 -2.022900E+05  3.107127E+04 -6.440878E+05  1.765514E-08  6.035783E-09
       186  12 -1.319834E+06 -2.044673E+05  3.024023E+04 -5.871697E+05 -7.770242E-09 -3.421914E-09
       186  13 -1.714086E+06 -3.296947E+05 -2.037448E+04 -7.616720E+05 -7.322728E-10 -3.300914E-09
       186  14 -1.720481E+06 -3.269729E+05 -3.812149E+04 -7.416804E+05  1.156151E-09  8.576944E-12
       186  15 -1.723330E+06 -3.950002E+05 -8.361874E+04 -7.372745E+05  5.081980E-10  2.523503E-11
       186  16 -1.901257E+06 -3.920841E+05 -5.904849E+04 -8.067523E+05 -3.898912E-08 -1.963618E-08
       186  17 -2.013958E+06 -4.516393E+05 -1.073190E+05 -8.392264E+05 -1.626198E-08 -7.821439E-09
       186  18 -2.126650E+06 -5.854872E+05 -1.974889E+05 -8.872766E+05  8.005447E-09  2.468493E-09
       186  19 -1.526878E+06 -2.673040E+05  1.829932E+04 -7.165801E+05 -3.149933E+04  1.024408E+03
       186  20 -1.426910E+06 -2.022896E+05  3.107359E+04 -6.440879E+05 -3.493160E+04  3.425569E+03
       186  21 -1.319833E+06 -2.044669E+05  3.024245E+04 -5.871695E+05 -3.364303E+04 -6.783185E+03
       186  22 -1.714085E+06 -3.296946E+05 -2.037380E+04 -7.616721E+05 -1.801759E+04  6.067792E+03
       186  23 -1.720479E+06 -3.269725E+05 -3.811859E+04 -7.416804E+05 -3.925857E+04  1.808162E+03
       186  24 -1.723327E+06 -3.949991E+05 -8.361245E+04 -7.372738E+05 -5.577653E+04 -1.506373E+04
       186  25 -1.901257E+06 -3.920840E+05 -5.904822E+04 -8.067524E+05 -4.540174E+03  1.110990E+04
       186  26 -2.013956E+06 -4.516388E+05 -1.073154E+05 -8.392264E+05 -4.358326E+04  1.918982E+02
       186  27 -2.126643E+06 -5.854849E+05 -1.974764E+05 -8.872751E+05 -7.789355E+04 -2.333457E+04
       187   1  1.233722E+05  2.572983E+04  3.581816E+04  7.563465E+03  3.106916E+04  3.612454E+02
       187   2  1.205619E+05 -1.564775E+04  1.084758E+04  2.385591E+03  2.055883E+04  1.043110E+03
       187   3  1.308353E+05 -1.017755E+04  4.432054E+03 -6.207709E+03  1.004834E+04  8.902225E+02
       187   4  1.649266E+05  3.609400E+04  4.610966E+04 -1.966664E+03  3.151996E+04  3.608344E+02
       187   5  1.583570E+05 -6.256479E+03  2.001832E+04 -2.562890E+02  2.066825E+04  1.043032E+03
       187   6  1.649294E+05 -1.701658E+03  1.271813E+04 -1.961254E+03  9.816460E+03  8.902662E+02
       187   7  2.064828E+05  4.645838E+04  5.640108E+04 -1.149743E+04  3.197079E+04  3.604096E+02
       187   8  1.961536E+05  3.134716E+03  2.918895E+04 -2.898330E+03  2.077769E+04  1.042953E+03
       187   9  1.990247E+05  6.774216E+03  2.100414E+04  2.285434E+03  9.584565E+03  8.903068E+02
       187  10  1.233712E+05  2.572957E+04  3.581634E+04  7.563456E+03 -5.002707E-10 -1.708544E-10
       187  11  1.205614E+05 -1.564787E+04  1.084679E+04  2.385574E+03  1.175941E-09 -2.331418E-11
       187  12  1.308351E+05 -1.017758E+04  4.431863E+03 -6.207716E+03  1.136805E-09 -1.695955E-10
       187  13  1.649256E+05  3.609373E+04  4.610779E+04 -1.966673E+03 -1.020834E-09  9.877638E-11
       187  14  1.583566E+05 -6.256595E+03  2.001751E+04 -2.563064E+02  3.791009E-09 -8.905224E-11
       187  15  1.649293E+05 -1.701685E+03  1.271795E+04 -1.961261E+03  2.616232E-09 -3.892534E-10
       187  16  2.064817E+05  4.645811E+04  5.639916E+04 -1.149744E+04  2.141169E-10  1.034433E-10
       187  17  1.961531E+05  3.134599E+03  2.918814E+04 -2.898348E+03 -1.876084E-09 -8.519048E-11
       187  18  1.990246E+05  6.774190E+03  2.100396E+04  2.285427E+03  3.514829E-10 -2.842197E-10
       187  19  1.233722E+05  2.572983E+04  3.581816E+04  7.563465E+03 -3.106916E+04 -3.612454E+02
       187  20  1.205619E+05 -1.564775E+04  1.084758E+04  2.385591E+03 -2.055883E+04 -1.043110E+03
       187  21  1.308353E+05 -1.017755E+04  4.432054E+03 -6.207709E+03 -1.004834E+04 -8.902225E+02
       187  22  1.649266E+05  3.609400E+04  4.610966E+04 -1.966664E+03 -3.151996E+04 -3.608344E+02
       187  23  1.583570E+05 -6.256479E+03  2.001832E+04 -2.562890E+02 -2.066825E+04 -1.043032E+03
       187  24  1.649294E+05 -1.701658E+03  1.271813E+04 -1.961254E+03 -9.816460E+03 -8.902662E+02
       187  25  2.064828E+05  4.645838E+04  5.640108E+04 -1.149743E+04 -3.197079E+04 -3.604096E+02
       187  26  1.961536E+05  3.134716E+03  2.918895E+04 -2.898330E+03 -2.077769E+04 -1.042953E+03
       187  27  1.990247E+05  6.774216E+03  2.100414E+04  2.285434E+03 -9.584565E+03 -8.903068E+02
       188   1  1.347795E+05 -2.550199E+03  3.707042E+03 -9.098395E+02  7.808174E+03  6.859009E+02
       188   2  1.375938E+05 -6.707712E+03 -6.120697E+02 -8.442159E-01  5.154516E+03  6.243159E+02
       188   3  1.421630E+05 -5.233140E+03 -1.795425E+03 -2.491259E+03  2.500847E+03  4.847716E+02
       188   4  1.623996E+05  4.317055E+03  1.042883E+04 -1.959583E+03  7.799268E+03  6.858850E+02
       188   5  1.615196E+05 -7.604248E+02  5.202638E+03 -2.597115E+02  5.113687E+03  6.243096E+02
       188   6  1.624001E+05 -2.004073E+02  3.134262E+03 -1.959237E+03  2.428109E+03  4.847695E+02
       188   7  1.900203E+05  1.118426E+04  1.715057E+04 -3.009373E+03  7.790362E+03  6.858691E+02
       188   8  1.854460E+05  5.186820E+03  1.101731E+04 -5.185889E+02  5.072855E+03  6.243033E+02
       188   9  1.826376E+05  4.832297E+03  8.063920E+03 -1.427198E+03  2.355368E+03  4.847672E+02
       188  10  1.347795E+05 -2.550216E+03  3.706927E+03 -9.098438E+02  1.446085E-09 -7.879557E-11
       188  11  1.375938E+05 -6.707719E+03 -6.121204E+02 -8.468074E-01  1.599415E-10  1.242655E-10
       188  12  1.421630E+05 -5.233142E+03 -1.795437E+03 -2.491260E+03 -7.786215E-10  1.514169E-10
       188  13  1.623995E+05  4.317038E+03  1.042872E+04 -1.959587E+03  1.126701E-09 -9.855132E-11
       188  14  1.615196E+05 -7.604322E+02  5.202589E+03 -2.597141E+02  1.146108E-09  2.586713E-10
       188  15  1.624001E+05 -2.004092E+02  3.134251E+03 -1.959238E+03  1.011306E-09  5.413246E-10
       188  16  1.900203E+05  1.118424E+04  1.715045E+04 -3.009377E+03  6.434850E-10 -3.313550E-10
       188  17  1.854460E+05  5.186813E+03  1.101726E+04 -5.185914E+02 -3.051158E-09  2.694945E-10
       188  18  1.826375E+05  4.832295E+03  8.063909E+03 -1.427199E+03 -9.785500E-10  1.021119E-09
       188  19  1.347795E+05 -2.550199E+03  3.707042E+03 -9.098395E+02 -7.808174E+03 -6.859009E+02
       188  20  1.375938E+05 -6.707712E+03 -6.120697E+02 -8.442158E-01 -5.154516E+03 -6.243159E+02
       188  21  1.421630E+05 -5.233140E+03 -1.795425E+03 -2.491259E+03 -2.500847E+03 -4.847716E+02
       188  22  1.623996E+05  4.317055E+03  1.042883E+04 -1.959583E+03 -7.799268E+03 -6.858850E+02
       188  23  1.615196E+05 -7.604248E+02  5.202638E+03 -2.597115E+02 -5.113687E+03 -6.243096E+02
       188  24  1.624001E+05 -2.004073E+02  3.134262E+03 -1.959237E+03 -2.428109E+03 -4.847695E+02
       188  25  1.900203E+05  1.118426E+04  1.715057E+04 -3.009373E+03 -7.790362E+03 -6.858691E+02
       188  26  1.854460E+05  5.186820E+03  1.101731E+04 -5.185889E+02 -5.072855E+03 -6.243033E+02
       188  27  1.826376E+05  4.832297E+03  8.063920E+03 -1.427198E+03 -2.355368E+03 -4.847672E+02
       189   1  1.482629E+05 -2.918840E+03 -8.752890E+02 -1.854614E+03  1.981537E+03  3.928649E+02
       189   2  1.518099E+05 -2.610624E+03 -1.134344E+03 -2.469699E+02  1.314933E+03  2.621862E+02
       189   3  1.556124E+05 -1.629195E+03 -7.911085E+02 -2.024992E+03  6.483314E+02  1.243380E+02
       189   4  1.620658E+05  5.104072E+02  2.470495E+03 -1.956303E+03  1.929710E+03  3.928620E+02
       189   5  1.619378E+05 -9.301626E+01  1.327557E+03 -2.634613E+02  1.260166E+03  2.621841E+02
       189   6  1.620659E+05 -2.271098E+01  7.889532E+02 -1.956283E+03  5.906288E+02  1.243367E+02
       189   7  1.758688E+05  3.939641E+03  5.816265E+03 -2.057994E+03  1.877881E+03  3.928592E+02
       189   8  1.720658E+05  2.424584E+03  3.789451E+03 -2.799530E+02  1.205398E+03  2.621821E+02
       189   9  1.685194E+05  1.583770E+03  2.369012E+03 -1.887574E+03  5.329256E+02  1.243353E+02
       189  10  1.482629E+05 -2.918841E+03 -8.752967E+02 -1.854614E+03  1.716730E-09  8.904003E-11
       189  11  1.518099E+05 -2.610624E+03 -1.134347E+03 -2.469702E+02 -1.055132E-09 -1.278426E-10
       189  12  1.556124E+05 -1.629195E+03 -7.911093E+02 -2.024992E+03 -1.301227E-09 -1.871750E-10
       189  13  1.620658E+05  5.104060E+02  2.470488E+03 -1.956303E+03 -6.476096E-11  3.615359E-10
       189  14  1.619378E+05 -9.301676E+01  1.327554E+03 -2.634616E+02 -1.132138E-11 -2.479260E-10
       189  15  1.620659E+05 -2.271109E+01  7.889525E+02 -1.956283E+03 -1.742340E-09 -2.414863E-10
       189  16  1.758688E+05  3.939639E+03  5.816258E+03 -2.057994E+03 -7.501166E-10  6.615028E-10
       189  17  1.720658E+05  2.424583E+03  3.789448E+03 -2.799532E+02 -2.371995E-09 -4.922670E-10
       189  18  1.685194E+05  1.583770E+03  2.369011E+03 -1.887574E+03  8.140781E-10 -1.907411E-10
       189  19  1.482629E+05 -2.918840E+03 -8.752890E+02 -1.854614E+03 -1.981537E+03 -3.928649E+02
       189  20  1.518099E+05 -2.610624E+03 -1.134344E+03 -2.469699E+02 -1.314933E+03 -2.621862E+02
       189  21  1.556124E+05 -1.629195E+03 -7.911085E+02 -2.024992E+03 -6.483314E+02 -1.243380E+02
       189  22  1.620658E+05  5.104072E+02  2.470495E+03 -1.956303E+03 -1.929710E+03 -3.928620E+02
       189  23  1.619378E+05 -9.301626E+01  1.327557E+03 -2.634613E+02 -1.260166E+03 -2.621841E+02
       189  24  1.620659E+05 -2.271098E+01  7.889532E+02 -1.956283E+03 -5.906288E+02 -1.243367E+02
       189  25  1.758688E+05  3.939641E+03  5.816265E+03 -2.057994E+03 -1.877881E+03 -3.928592E+02
       189  26  1.720658E+05  2.424584E+03  3.789451E+03 -2.799530E+02 -1.205398E+03 -2.621821E+02
       189  27  1.685194E+05  1.583770E+03  2.369012E+03 -1.887574E+03 -5.329256E+02 -1.243353E+02
       190   1  1.619831E+05  5.208168E+01  6.194210E+02 -1.949038E+03  5.200871E+02  4.314282E+01
       190   2  1.656323E+05  8.916907E+02  1.248834E+03 -2.653202E+02  3.383775E+02 -9.384663E+01
       190   3  1.693262E+05  1.814238E+03  2.017321E+03 -1.964664E+03  1.566654E+02 -2.314985E+02
       190   4  1.620189E+05  5.874904E+01  6.169231E+02 -1.955712E+03  4.643206E+02  4.314162E+01
       190   5  1.619966E+05 -1.208565E+01  3.650016E+02 -2.641803E+02  2.823400E+02 -9.384808E+01
       190   6  1.620189E+05  5.241113E-02  2.523295E+02 -1.955711E+03  1.003580E+02 -2.315002E+02
       190   7  1.620548E+05  6.541641E+01  6.144251E+02 -1.962386E+03  4.085541E+02  4.314043E+01
       190   8  1.583609E+05 -9.158630E+02 -5.188315E+02 -2.630404E+02  2.263028E+02 -9.384954E+01
       190   9  1.547117E+05 -1.814137E+03 -1.512666E+03 -1.946759E+03  4.405114E+01 -2.315019E+02
       190  10  1.619831E+05  5.208161E+01  6.194205E+02 -1.949038E+03 -2.750698E-09 -7.935708E-11
       190  11  1.656323E+05  8.916907E+02  1.248833E+03 -2.653202E+02 -2.685674E-10  6.441777E-11
       190  12  1.693262E+05  1.814238E+03  2.017321E+03 -1.964664E+03  1.706955E-09 -3.232264E-10
       190  13  1.620189E+05  5.874898E+01  6.169227E+02 -1.955712E+03 -3.224823E-09  8.347480E-12
       190  14  1.619966E+05 -1.208568E+01  3.650014E+02 -2.641803E+02 -4.344990E-09 -1.164482E-11
       190  15  1.620189E+05  5.235090E-02  2.523294E+02 -1.955711E+03 -1.423443E-09 -1.994257E-10
       190  16  1.620548E+05  6.541636E+01  6.144248E+02 -1.962386E+03 -7.565157E-10  7.596736E-11
       190  17  1.583609E+05 -9.158630E+02 -5.188316E+02 -2.630404E+02  2.027406E-10 -8.871680E-11
       190  18  1.547117E+05 -1.814138E+03 -1.512666E+03 -1.946759E+03 -3.422512E-10 -1.349833E-10
       190  19  1.619831E+05  5.208168E+01  6.194210E+02 -1.949038E+03 -5.200871E+02 -4.314282E+01
       190  20  1.656323E+05  8.916907E+02  1.248834E+03 -2.653202E+02 -3.383775E+02  9.384663E+01
       190  21  1.693262E+05  1.814238E+03  2.017321E+03 -1.964664E+03 -1.566654E+02  2.314985E+02
       190  22  1.620189E+05  5.874904E+01  6.169231E+02 -1.955712E+03 -4.643206E+02 -4.314162E+01
       190  23  1.619966E+05 -1.208565E+01  3.650016E+02 -2.641803E+02 -2.823400E+02  9.384808E+01
       190  24  1.620189E+05  5.241115E-02  2.523295E+02 -1.955711E+03 -1.003580E+02  2.315002E+02
       190  25  1.620548E+05  6.541641E+01  6.144251E+02 -1.962386E+03 -4.085541E+02 -4.314043E+01
       190  26  1.583609E+05 -9.158630E+02 -5.188315E+02 -2.630404E+02 -2.263028E+02  9.384954E+01
       190  27  1.547117E+05 -1.814137E+03 -1.512666E+03 -1.946759E+03 -4.405114E+01  2.315019E+02
       191   1  1.757456E+05  3.420832E+03  3.575037E+03 -1.954358E+03  1.135902E+02 -3.119173E+02
       191   2  1.794143E+05  4.322107E+03  4.452116E+03 -2.614262E+02  4.141318E+00 -4.497862E+02
       191   3  1.831086E+05  5.265024E+03  5.411033E+03 -1.960757E+03 -1.053023E+02 -5.870117E+02
       191   4  1.620146E+05  5.313987E+00  2.258027E+02 -1.957757E+03  5.719698E+01 -3.119195E+02
       191   5  1.620019E+05 -6.274604E+00  2.193141E+02 -2.616233E+02 -5.198701E+01 -4.497896E+02
       191   6  1.620146E+05  2.373439E+01  2.944819E+02 -1.957758E+03 -1.611650E+02 -5.870161E+02
       191   7  1.482839E+05 -3.410218E+03 -3.123445E+03 -1.961156E+03  8.049862E-01 -3.119217E+02
       191   8  1.445897E+05 -4.334678E+03 -4.013509E+03 -2.618204E+02 -1.081138E+02 -4.497930E+02
       191   9  1.409211E+05 -5.217588E+03 -4.822101E+03 -1.954760E+03 -2.170259E+02 -5.870206E+02
       191  10  1.757456E+05  3.420832E+03  3.575037E+03 -1.954358E+03 -4.377556E-10 -2.983246E-10
       191  11  1.794143E+05  4.322107E+03  4.452115E+03 -2.614262E+02  6.326844E-10  4.536563E-10
       191  12  1.831086E+05  5.265024E+03  5.411032E+03 -1.960757E+03  8.056789E-10  5.738969E-10
       191  13  1.620146E+05  5.313881E+00  2.258026E+02 -1.957757E+03 -9.599767E-10 -2.059843E-10
       191  14  1.620019E+05 -6.274822E+00  2.193137E+02 -2.616233E+02  2.260270E-09  1.759066E-10
       191  15  1.620146E+05  2.373401E+01  2.944812E+02 -1.957758E+03 -1.054947E-09  6.760385E-10
       191  16  1.482839E+05 -3.410218E+03 -3.123445E+03 -1.961156E+03 -1.020222E-10 -3.029332E-10
       191  17  1.445897E+05 -4.334679E+03 -4.013510E+03 -2.618204E+02 -2.228703E-09 -2.853264E-10
       191  18  1.409211E+05 -5.217588E+03 -4.822102E+03 -1.954760E+03 -1.717165E-09  6.914816E-10
       191  19  1.757456E+05  3.420832E+03  3.575037E+03 -1.954358E+03 -1.135902E+02  3.119173E+02
       191  20  1.794143E+05  4.322107E+03  4.452116E+03 -2.614262E+02 -4.141318E+00  4.497862E+02
       191  21  1.831086E+05  5.265024E+03  5.411033E+03 -1.960757E+03  1.053023E+02  5.870117E+02
       191  22  1.620146E+05  5.313987E+00  2.258027E+02 -1.957757E+03 -5.719698E+01  3.119195E+02
       191  23  1.620019E+05 -6.274604E+00  2.193141E+02 -2.616233E+02  5.198701E+01  4.497896E+02
       191  24  1.620146E+05  2.373439E+01  2.944819E+02 -1.957758E+03  1.611650E+02  5.870161E+02
       191  25  1.482839E+05 -3.410218E+03 -3.123445E+03 -1.961156E+03 -8.049862E-01  3.119217E+02
       191  26  1.445897E+05 -4.334678E+03 -4.013509E+03 -2.618204E+02  1.081138E+02  4.497930E+02
       191  27  1.409211E+05 -5.217588E+03 -4.822101E+03 -1.954760E+03  2.170259E+02  5.870206E+02
       192   1  1.895798E+05  6.840629E+03  7.063786E+03 -1.933178E+03 -1.609211E+02 -6.691604E+02
       192   2  1.932291E+05  7.729340E+03  8.162261E+03 -2.607128E+02 -4.503478E+02 -8.079897E+02
       192   3  1.969885E+05  8.897623E+03  9.519512E+03 -2.001859E+03 -7.397624E+02 -9.364720E+02
       192   4  1.620332E+05 -9.135475E+00  3.562210E+02 -1.962495E+03 -2.196730E+02 -6.691662E+02
       192   5  1.619785E+05 -3.885330E+01  5.657578E+02 -2.556961E+02 -5.048641E+02 -8.079973E+02
       192   6  1.620331E+05  2.102893E+02  1.031154E+03 -1.962519E+03 -7.900415E+02 -9.364812E+02
       192   7  1.344872E+05 -6.858955E+03 -6.351399E+03 -1.991811E+03 -2.784223E+02 -6.691721E+02
       192   8  1.307287E+05 -7.807118E+03 -7.030816E+03 -2.506797E+02 -5.593777E+02 -8.080050E+02
       192   9  1.270788E+05 -8.477134E+03 -7.457291E+03 -1.923181E+03 -8.403177E+02 -9.364904E+02
       192  10  1.895798E+05  6.840628E+03  7.063785E+03 -1.933178E+03  1.506923E-09  4.522474E-10
       192  11  1.932291E+05  7.729339E+03  8.162259E+03 -2.607131E+02 -1.149711E-09 -1.581243E-10
       192  12  1.969885E+05  8.897622E+03  9.519509E+03 -2.001859E+03 -1.311376E-09  1.728062E-10
       192  13  1.620332E+05 -9.135968E+00  3.562201E+02 -1.962495E+03  2.143533E-09  5.449240E-10
       192  14  1.619785E+05 -3.885407E+01  5.657561E+02 -2.556964E+02 -8.610778E-11 -2.150989E-10
       192  15  1.620331E+05  2.102882E+02  1.031151E+03 -1.962520E+03  3.524546E-10 -3.198700E-11
       192  16  1.344872E+05 -6.858956E+03 -6.351400E+03 -1.991812E+03 -1.010280E-09  5.877282E-10
       192  17  1.307287E+05 -7.807119E+03 -7.030818E+03 -2.506800E+02 -1.757855E-09 -3.829226E-10
       192  18  1.270788E+05 -8.477135E+03 -7.457294E+03 -1.923182E+03 -5.383211E-10 -1.080220E-10
       192  19  1.895798E+05  6.840629E+03  7.063786E+03 -1.933178E+03  1.609211E+02  6.691604E+02
       192  20  1.932291E+05  7.729340E+03  8.162261E+03 -2.607128E+02  4.503478E+02  8.079897E+02
       192  21  1.969885E+05  8.897623E+03  9.519512E+03 -2.001859E+03  7.397624E+02  9.364720E+02
       192  22  1.620332E+05 -9.135475E+00  3.562210E+02 -1.962495E+03  2.196730E+02  6.691662E+02
       192  23  1.619785E+05 -3.885330E+01  5.657578E+02 -2.556961E+02  5.048641E+02  8.079973E+02
       192  24  1.620331E+05  2.102893E+02  1.031154E+03 -1.962519E+03  7.900415E+02  9.364812E+02
       192  25  1.344872E+05 -6.858955E+03 -6.351399E+03 -1.991811E+03  2.784223E+02  6.691721E+02
       192  26  1.307287E+05 -7.807118E+03 -7.030816E+03 -2.506797E+02  5.593777E+02  8.080050E+02
       192  27  1.270788E+05 -8.477134E+03 -7.457291E+03 -1.923181E+03  8.403177E+02  9.364904E+02
       193   1  2.036310E+05  1.022449E+04  1.139125E+04 -1.745552E+03 -9.163726E+02 -1.034834E+03
       193   2  2.070029E+05  1.091969E+04  1.313948E+04 -3.493278E+02 -2.075832E+03 -1.176606E+03
       193   3  2.111152E+05  1.395307E+04  1.622794E+04 -2.396847E+03 -3.235324E+03 -1.202883E+03
       193   4  1.621714E+05 -8.339156E+01  1.303312E+03 -1.969091E+03 -9.976859E+02 -1.034849E+03
       193   5  1.618052E+05 -3.148760E+02  2.154851E+03 -2.473907E+02 -2.109940E+03 -1.176618E+03
       193   6  1.621711E+05  1.783715E+03  4.313908E+03 -1.969443E+03 -3.222219E+03 -1.202889E+03
       193   7  1.207133E+05 -1.039140E+04 -8.784754E+03 -2.192615E+03 -1.078994E+03 -1.034864E+03
       193   8  1.166093E+05 -1.154959E+04 -8.829925E+03 -1.454612E+02 -2.144045E+03 -1.176629E+03
       193   9  1.132293E+05 -1.038581E+04 -7.600297E+03 -1.542073E+03 -3.209114E+03 -1.202894E+03
       193  10  2.036310E+05  1.022449E+04  1.139125E+04 -1.745553E+03  3.541735E-10 -6.572121E-11
       193  11  2.070029E+05  1.091968E+04  1.313947E+04 -3.493297E+02  3.245872E-10 -6.188152E-10
       193  12  2.111152E+05  1.395306E+04  1.622792E+04 -2.396850E+03  8.796787E-10  9.906712E-11
       193  13  1.621714E+05 -8.339297E+01  1.303309E+03 -1.969092E+03 -1.260841E-11 -1.038470E-10
       193  14  1.618052E+05 -3.148787E+02  2.154840E+03 -2.473927E+02  2.111062E-09 -5.105180E-10
       193  15  1.621711E+05  1.783711E+03  4.313885E+03 -1.969446E+03 -1.325592E-10 -7.067794E-11
       193  16  1.207133E+05 -1.039140E+04 -8.784759E+03 -2.192616E+03 -9.051505E-10 -5.533108E-11
       193  17  1.166093E+05 -1.154959E+04 -8.829936E+03 -1.454632E+02  3.112837E-10 -2.890109E-11
       193  18  1.132293E+05 -1.038582E+04 -7.600320E+03 -1.542076E+03  3.393395E-10 -9.362620E-11
       193  19  2.036310E+05  1.022449E+04  1.139125E+04 -1.745552E+03  9.163726E+02  1.034834E+03
       193  20  2.070029E+05  1.091969E+04  1.313948E+04 -3.493278E+02  2.075832E+03  1.176606E+03
       193  21  2.111152E+05  1.395307E+04  1.622794E+04 -2.396847E+03  3.235324E+03  1.202883E+03
       193  22  1.621714E+05 -8.339156E+01  1.303312E+03 -1.969091E+03  9.976859E+02  1.034849E+03
       193  23  1.618052E+05 -3.148760E+02  2.154851E+03 -2.473907E+02  2.109940E+03  1.176618E+03
       193  24  1.621711E+05  1.783715E+03  4.313908E+03 -1.969443E+03  3.222219E+03  1.202889E+03
       193  25  1.207133E+05 -1.039140E+04 -8.784754E+03 -2.192615E+03  1.078994E+03  1.034864E+03
       193  26  1.166093E+05 -1.154959E+04 -8.829925E+03 -1.454612E+02  2.144045E+03  1.176629E+03
       193  27  1.132293E+05 -1.038581E+04 -7.600297E+03 -1.542073E+03  3.209114E+03  1.202894E+03
       194   1  2.187414E+05  1.309654E+04  1.874829E+04 -2.096965E+02 -3.738865E+03 -1.468040E+03
       194   2  2.197819E+05  1.214350E+04  2.266211E+04 -1.323051E+03 -8.731402E+03 -1.628879E+03
       194   3  2.263496E+05  3.066909E+04  3.469681E+04 -5.905920E+03 -1.372433E+04 -5.510587E+02
       194   4  1.632174E+05 -7.045177E+02  5.259837E+03 -1.973507E+03 -4.056547E+03 -1.468108E+03
       194   5  1.604968E+05 -2.587481E+03  8.276262E+03 -2.410678E+02 -8.543210E+03 -1.628855E+03
       194   6  1.632162E+05  1.492134E+04  1.906288E+04 -1.978134E+03 -1.303023E+04 -5.509358E+02
       194   7  1.076962E+05 -1.450579E+04 -8.228839E+03 -3.737159E+03 -4.374201E+03 -1.468174E+03
       194   8  1.012149E+05 -1.731872E+04 -6.109840E+03  8.408119E+02 -8.355036E+03 -1.628830E+03
       194   9  1.000863E+05 -8.266610E+02  3.428655E+03  1.949253E+03 -1.233620E+04 -5.508040E+02
       194  10  2.187414E+05  1.309653E+04  1.874826E+04 -2.097009E+02  5.396301E-11  1.687762E-10
       194  11  2.197818E+05  1.214348E+04  2.266196E+04 -1.323063E+03 -1.174910E-09 -6.526163E-10
       194  12  2.263494E+05  3.066904E+04  3.469646E+04 -5.905926E+03  1.102045E-09 -2.760004E-10
       194  13  1.632174E+05 -7.045245E+02  5.259803E+03 -1.973512E+03  9.064883E-10 -7.190208E-10
       194  14  1.604967E+05 -2.587504E+03  8.276120E+03 -2.410790E+02  2.254631E-09  7.346108E-10
       194  15  1.632160E+05  1.492129E+04  1.906256E+04 -1.978140E+03  9.220228E-10  7.447557E-11
       194  16  1.076962E+05 -1.450579E+04 -8.228879E+03 -3.737164E+03  1.213583E-09  2.477014E-11
       194  17  1.012148E+05 -1.731874E+04 -6.109976E+03  8.408010E+02 -1.044372E-09  7.647288E-10
       194  18  1.000862E+05 -8.267022E+02  3.428368E+03  1.949247E+03 -2.942019E-10 -1.206115E-10
       194  19  2.187414E+05  1.309654E+04  1.874829E+04 -2.096965E+02  3.738865E+03  1.468040E+03
       194  20  2.197819E+05  1.214350E+04  2.266211E+04 -1.323051E+03  8.731402E+03  1.628879E+03
       194  21  2.263496E+05  3.066909E+04  3.469681E+04 -5.905920E+03  1.372433E+04  5.510587E+02
       194  22  1.632174E+05 -7.045177E+02  5.259837E+03 -1.973507E+03  4.056547E+03  1.468108E+03
       194  23  1.604968E+05 -2.587481E+03  8.276262E+03 -2.410678E+02  8.543210E+03  1.628855E+03
       194  24  1.632162E+05  1.492134E+04  1.906288E+04 -1.978134E+03  1.303023E+04  5.509358E+02
       194  25  1.076962E+05 -1.450579E+04 -8.228839E+03 -3.737159E+03  4.374201E+03  1.468174E+03
       194  26  1.012149E+05 -1.731872E+04 -6.109840E+03  8.408119E+02  8.355036E+03  1.628830E+03
       194  27  1.000863E+05 -8.266610E+02  3.428655E+03  1.949253E+03  1.233620E+04  5.508040E+02
       195   1  1.494556E+06  6.033398E+06  1.496628E+06 -6.915969E+05  4.749897E+04  8.085194E+04
       195   2  1.130887E+06  4.745106E+06  1.138525E+06 -1.137390E+05  1.285344E+05  1.487554E+04
       195   3  8.465595E+05  3.508643E+06  8.472943E+05 -6.902644E+05  8.135851E+04 -5.164876E+04
       195   4  3.341684E+04  1.572119E+05  4.570124E+04 -6.708493E+05  4.768028E+04  2.117826E+04
       195   5 -1.104411E+04  1.371923E+05  2.406091E+04 -9.337975E+04  1.286337E+05  8.056490E+03
       195   6  1.498083E+04  1.584718E+05  3.304950E+04 -6.708293E+05  8.095731E+04 -5.749237E+03
       195   7 -1.430291E+06 -5.687783E+06 -1.407772E+06 -6.502612E+05  4.785878E+04 -3.793613E+04
       195   8 -1.154526E+06 -4.451416E+06 -1.091928E+06 -7.314349E+04  1.287331E+05  1.287447E+03
       195   9 -8.174205E+05 -3.181490E+06 -7.819995E+05 -6.514700E+05  8.055781E+04  3.990440E+04
       195  10  1.494552E+06  6.033390E+06  1.496612E+06 -6.915999E+05  2.118591E-09 -1.706598E-09
       195  11  1.130869E+06  4.745101E+06  1.138494E+06 -1.137406E+05 -5.614771E-10 -1.826198E-09
       195  12  8.465517E+05  3.508638E+06  8.472769E+05 -6.902610E+05 -4.096370E-10  4.659635E-09
       195  13  3.341428E+04  1.572108E+05  4.569612E+04 -6.708501E+05  4.574888E-10 -1.155066E-11
       195  14 -1.106189E+04  1.371878E+05  2.402969E+04 -9.338058E+04  1.833981E-09  2.827179E-09
       195  15  1.497379E+04  1.584700E+05  3.303712E+04 -6.708289E+05  4.991809E-10 -1.190129E-09
       195  16 -1.430294E+06 -5.687785E+06 -1.407779E+06 -6.502598E+05 -5.749193E-10 -6.519038E-10
       195  17 -1.154544E+06 -4.451420E+06 -1.091959E+06 -7.314362E+04  1.595255E-09  5.498669E-09
       195  18 -8.174279E+05 -3.181493E+06 -7.820148E+05 -6.514726E+05 -7.441569E-10  2.262451E-09
       195  19  1.494556E+06  6.033398E+06  1.496628E+06 -6.915969E+05 -4.749897E+04 -8.085194E+04
       195  20  1.130887E+06  4.745106E+06  1.138525E+06 -1.137390E+05 -1.285344E+05 -1.487554E+04
       195  21  8.465595E+05  3.508643E+06  8.472943E+05 -6.902644E+05 -8.135851E+04  5.164876E+04
       195  22  3.341684E+04  1.572119E+05  4.570124E+04 -6.708493E+05 -4.768028E+04 -2.117826E+04
       195  23 -1.104411E+04  1.371923E+05  2.406091E+04 -9.337975E+04 -1.286337E+05 -8.056490E+03
       195  24  1.498083E+04  1.584718E+05  3.304950E+04 -6.708293E+05 -8.095731E+04  5.749237E+03
       195  25 -1.430291E+06 -5.687783E+06 -1.407772E+06 -6.502612E+05 -4.785878E+04  3.793613E+04
       195  26 -1.154526E+06 -4.451416E+06 -1.091928E+06 -7.314349E+04 -1.287331E+05 -1.287447E+03
       195  27 -8.174205E+05 -3.181490E+06 -7.819995E+05 -6.514700E+05 -8.055781E+04 -3.990440E+04
       196   1  2.989273E+05  1.302658E+06  3.133868E+05 -6.836493E+05  3.278425E+04 -2.701498E+04
       196   2 -2.959409E+04  5.131379E+04  2.235747E+04 -9.079691E+04 -2.183907E+03 -5.144800E+04
       196   3 -2.931725E+05 -1.205773E+06 -2.423839E+05 -6.527286E+05 -3.674490E+04 -7.581929E+04
       196   4  1.268880E+04  1.506348E+05  3.422965E+04 -6.708841E+05  3.263856E+04 -1.255172E+04
       196   5 -3.960303E+03  1.542181E+05  4.737484E+04 -9.335734E+04 -2.323565E+03 -3.716726E+04
       196   6  4.446001E+04  1.506077E+05  8.700830E+04 -6.705758E+05 -3.688172E+04 -6.176934E+04
       196   7 -2.736466E+05 -1.000177E+06 -2.450223E+05 -6.581389E+05  3.249332E+04  1.884841E+03
       196   8  2.167283E+04  2.571325E+05  7.239221E+04 -9.591818E+04 -2.463328E+03 -2.288417E+04
       196   9  3.819581E+05  1.508671E+06  4.162683E+05 -6.884571E+05 -3.701919E+04 -4.768862E+04
       196  10  2.989260E+05  1.302657E+06  3.133834E+05 -6.836486E+05 -1.573220E-09 -5.628321E-09
       196  11 -2.959481E+04  5.131095E+04  2.235249E+04 -9.079700E+04  5.416370E-09 -3.526230E-09
       196  12 -2.931755E+05 -1.205779E+06 -2.423973E+05 -6.527308E+05 -7.009596E-09  4.180668E-10
       196  13  1.268761E+04  1.506344E+05  3.422736E+04 -6.708837E+05  1.063353E-09 -4.086238E-11
       196  14 -3.960680E+03  1.542166E+05  4.737223E+04 -9.335741E+04  7.429859E-09  5.130418E-09
       196  15  4.445752E+04  1.506032E+05  8.699856E+04 -6.705777E+05  5.179642E-09 -1.339307E-09
       196  16 -2.736477E+05 -1.000178E+06 -2.450243E+05 -6.581389E+05  1.397919E-09 -9.187649E-09
       196  17  2.167269E+04  2.571320E+05  7.239121E+04 -9.591822E+04 -5.152425E-09  8.707096E-09
       196  18  3.819560E+05  1.508668E+06  4.162615E+05 -6.884585E+05 -3.746670E-09  7.956717E-09
       196  19  2.989273E+05  1.302658E+06  3.133868E+05 -6.836493E+05 -3.278425E+04  2.701498E+04
       196  20 -2.959409E+04  5.131379E+04  2.235747E+04 -9.079691E+04  2.183907E+03  5.144800E+04
       196  21 -2.931725E+05 -1.205773E+06 -2.423839E+05 -6.527286E+05  3.674490E+04  7.581929E+04
       196  22  1.268880E+04  1.506348E+05  3.422965E+04 -6.708841E+05 -3.263856E+04  1.255172E+04
       196  23 -3.960303E+03  1.542181E+05  4.737484E+04 -9.335734E+04  2.323565E+03  3.716726E+04
       196  24  4.446001E+04  1.506077E+05  8.700830E+04 -6.705758E+05  3.688172E+04  6.176934E+04
       196  25 -2.736466E+05 -1.000177E+06 -2.450223E+05 -6.581389E+05 -3.249332E+04 -1.884841E+03
       196  26  2.167283E+04  2.571325E+05  7.239221E+04 -9.591818E+04  2.463328E+03  2.288417E+04
       196  27  3.819581E+05  1.508671E+06  4.162683E+05 -6.884571E+05  3.701919E+04  4.768862E+04
       197   1 -8.840220E+05 -3.365404E+06 -7.573088E+05 -6.806080E+05 -8.526745E+04 -1.258281E+05
       197   2 -1.250772E+06 -4.683688E+06 -1.006443E+06 -5.477189E+04 -1.334978E+05 -1.590622E+05
       197   3 -1.224161E+06 -5.871063E+06 -1.130300E+06 -5.846762E+05 -4.922903E+04 -1.915829E+05
       197   4 -1.097268E+03  1.796854E+05  1.075872E+05 -6.711849E+05 -8.566388E+04 -7.962012E+04
       197   5 -5.575190E+04  1.099848E+05  1.596318E+05 -9.330715E+04 -1.333834E+05 -1.671908E+05
       197   6  2.909948E+05  1.783690E+05  3.739951E+05 -6.705323E+05 -4.904984E+04 -2.541229E+05
       197   7  8.809020E+05  3.736282E+06  9.715774E+05 -6.616755E+05 -8.605768E+04 -3.314683E+04
       197   8  1.137577E+06  4.924733E+06  1.324042E+06 -1.321143E+05 -1.332686E+05 -1.753784E+05
       197   9  1.803423E+06  6.261239E+06  1.875567E+06 -7.571983E+05 -4.885456E+04 -3.172664E+05
       197  10 -8.840341E+05 -3.365423E+06 -7.573524E+05 -6.806167E+05 -3.786693E-09 -5.805630E-09
       197  11 -1.250798E+06 -4.683720E+06 -1.006524E+06 -5.478905E+04  3.493005E-09  9.812419E-10
       197  12 -1.224174E+06 -5.871103E+06 -1.130375E+06 -5.846838E+05  1.679851E-09  9.270587E-10
       197  13 -1.106861E+03  1.796766E+05  1.075615E+05 -6.711904E+05 -8.017937E-09 -1.041310E-10
       197  14 -5.577851E+04  1.099500E+05  1.595458E+05 -9.332510E+04  3.763277E-09  2.700211E-09
       197  15  2.909749E+05  1.782990E+05  3.738692E+05 -6.705424E+05  6.559725E-10 -1.138988E-10
       197  16  8.808937E+05  3.736279E+06  9.715614E+05 -6.616778E+05  2.009302E-09 -7.265138E-09
       197  17  1.137550E+06  4.924696E+06  1.323951E+06 -1.321331E+05  1.739613E-09  1.397674E-09
       197  18  1.803394E+06  6.261131E+06  1.875376E+06 -7.572107E+05 -4.205152E-10 -7.157374E-11
       197  19 -8.840220E+05 -3.365404E+06 -7.573088E+05 -6.806080E+05  8.526745E+04  1.258281E+05
       197  20 -1.250772E+06 -4.683688E+06 -1.006443E+06 -5.477189E+04  1.334978E+05  1.590622E+05
       197  21 -1.224161E+06 -5.871063E+06 -1.130300E+06 -5.846762E+05  4.922903E+04  1.915829E+05
       197  22 -1.097268E+03  1.796854E+05  1.075872E+05 -6.711849E+05  8.566388E+04  7.962012E+04
       197  23 -5.575190E+04  1.099848E+05  1.596318E+05 -9.330715E+04  1.333834E+05  1.671908E+05
       197  24  2.909948E+05  1.783690E+05  3.739951E+05 -6.705323E+05  4.904984E+04  2.541229E+05
       197  25  8.809020E+05  3.736282E+06  9.715774E+05 -6.616755E+05  8.605768E+04  3.314683E+04
       197  26  1.137577E+06  4.924733E+06  1.324042E+06 -1.321143E+05  1.332686E+05  1.753784E+05
       197  27  1.803423E+06  6.261239E+06  1.875567E+06 -7.571983E+05  4.885456E+04  3.172664E+05
       198   1 -2.389539E+05 -1.046652E+05 -5.121415E+04 -1.069349E+05 -2.576852E+04 -8.269810E+03
       198   2 -2.256599E+05 -7.605777E+04 -2.880781E+04 -1.007028E+05 -1.550420E+04 -1.323132E+03
       198   3 -2.163319E+05 -6.139836E+04 -1.803026E+04 -9.405371E+04 -4.371906E+03  3.311489E+03
       198   4 -1.537697E+05 -5.805913E+04 -2.663512E+04 -6.847061E+04 -1.785718E+04 -5.302666E+03
       198   5 -1.508424E+05 -4.152107E+04 -1.267410E+04 -7.244200E+04 -1.231925E+04 -1.286257E+02
       198   6 -1.509440E+05 -3.799410E+04 -6.596209E+03 -7.599699E+04 -5.913602E+03  2.733126E+03
       198   7 -6.857958E+04 -1.145071E+04 -2.057018E+03 -3.000147E+04 -9.944832E+03 -2.334670E+03
       198   8 -7.601937E+04 -6.983069E+03  3.459210E+03 -4.417793E+04 -9.133911E+03  1.066120E+03
       198   9 -8.555117E+04 -1.458925E+04  4.837865E+03 -5.793837E+04 -7.455482E+03  2.154694E+03
       198  10 -2.389547E+05 -1.046654E+05 -5.121552E+04 -1.069351E+05  7.763051E-10 -1.795114E-10
       198  11 -2.256602E+05 -7.605784E+04 -2.880826E+04 -1.007028E+05 -7.144832E-10  2.505104E-10
       198  12 -2.163319E+05 -6.139837E+04 -1.803032E+04 -9.405370E+04  1.202025E-09  6.412680E-10
       198  13 -1.537701E+05 -5.805924E+04 -2.663577E+04 -6.847068E+04  1.069133E-11  2.524176E-10
       198  14 -1.508426E+05 -4.152111E+04 -1.267439E+04 -7.244200E+04 -1.702061E-09  1.462708E-10
       198  15 -1.509441E+05 -3.799412E+04 -6.596289E+03 -7.599698E+04 -2.432849E-09 -5.730060E-10
       198  16 -6.857969E+04 -1.145075E+04 -2.057214E+03 -3.000149E+04  9.958846E-10  5.753024E-10
       198  17 -7.601946E+04 -6.983093E+03  3.459052E+03 -4.417792E+04  6.696188E-10  4.847461E-11
       198  18 -8.555123E+04 -1.458927E+04  4.837752E+03 -5.793835E+04 -2.736594E-09 -1.447579E-09
       198  19 -2.389539E+05 -1.046652E+05 -5.121415E+04 -1.069349E+05  2.576852E+04  8.269810E+03
       198  20 -2.256599E+05 -7.605777E+04 -2.880781E+04 -1.007028E+05  1.550420E+04  1.323132E+03
       198  21 -2.163319E+05 -6.139836E+04 -1.803026E+04 -9.405371E+04  4.371906E+03 -3.311489E+03
       198  22 -1.537697E+05 -5.805913E+04 -2.663512E+04 -6.847061E+04  1.785718E+04  5.302666E+03
       198  23 -1.508424E+05 -4.152107E+04 -1.267410E+04 -7.244200E+04  1.231925E+04  1.286257E+02
       198  24 -1.509440E+05 -3.799410E+04 -6.596209E+03 -7.599699E+04  5.913602E+03 -2.733126E+03
       198  25 -6.857958E+04 -1.145071E+04 -2.057018E+03 -3.000147E+04  9.944832E+03  2.334670E+03
       198  26 -7.601937E+04 -6.983069E+03  3.459210E+03 -4.417793E+04  9.133911E+03 -1.066120E+03
       198  27 -8.555117E+04 -1.458925E+04  4.837865E+03 -5.793837E+04  7.455482E+03 -2.154694E+03
       199   1 -2.051511E+05 -5.818215E+04 -1.443162E+04 -9.201745E+04 -3.535642E+03  3.040886E+03
       199   2 -1.909089E+05 -5.018380E+04 -9.127303E+03 -8.655780E+04 -1.423887E+03  2.885096E+03
       199   3 -1.751643E+05 -4.518707E+04 -5.406507E+03 -8.331805E+04  7.815164E+02  2.479665E+03
       199   4 -1.501799E+05 -3.763493E+04 -4.906169E+03 -7.587445E+04 -4.979476E+03  2.499250E+03
       199   5 -1.508861E+05 -3.550743E+04 -2.555191E+03 -7.501841E+04 -3.378000E+03  2.152087E+03
       199   6 -1.499889E+05 -3.628044E+04 -1.383307E+03 -7.638236E+04 -1.682905E+03  1.555274E+03
       199   7 -9.520609E+04 -1.708760E+04  4.619018E+03 -5.973028E+04 -6.423430E+03  1.957566E+03
       199   8 -1.108616E+05 -2.083087E+04  4.016902E+03 -6.347831E+04 -5.332248E+03  1.419026E+03
       199   9 -1.248125E+05 -2.737362E+04  2.639989E+03 -6.944632E+04 -4.147460E+03  6.308339E+02
       199  10 -2.051511E+05 -5.818216E+04 -1.443166E+04 -9.201744E+04 -1.544451E-09 -2.930118E-10
       199  11 -1.909089E+05 -5.018381E+04 -9.127323E+03 -8.655779E+04  3.078628E-09  5.109022E-10
       199  12 -1.751643E+05 -4.518708E+04 -5.406520E+03 -8.331805E+04  1.289640E-09  5.173161E-10
       199  13 -1.501799E+05 -3.763494E+04 -4.906227E+03 -7.587444E+04  3.242825E-09 -3.153061E-10
       199  14 -1.508861E+05 -3.550744E+04 -2.555221E+03 -7.501840E+04  3.282869E-09  2.433018E-10
       199  15 -1.499889E+05 -3.628044E+04 -1.383317E+03 -7.638235E+04  1.047882E-09 -7.898197E-11
       199  16 -9.520614E+04 -1.708762E+04  4.618933E+03 -5.973027E+04  2.510455E-09 -3.438854E-10
       199  17 -1.108616E+05 -2.083088E+04  4.016844E+03 -6.347830E+04 -1.520593E-09  4.308087E-10
       199  18 -1.248125E+05 -2.737363E+04  2.639956E+03 -6.944632E+04 -6.769630E-09 -6.383560E-10
       199  19 -2.051511E+05 -5.818215E+04 -1.443162E+04 -9.201745E+04  3.535642E+03 -3.040886E+03
       199  20 -1.909089E+05 -5.018380E+04 -9.127303E+03 -8.655780E+04  1.423887E+03 -2.885096E+03
       199  21 -1.751643E+05 -4.518707E+04 -5.406507E+03 -8.331805E+04 -7.815164E+02 -2.479665E+03
       199  22 -1.501799E+05 -3.763493E+04 -4.906169E+03 -7.587445E+04  4.979476E+03 -2.499250E+03
       199  23 -1.508861E+05 -3.550743E+04 -2.555191E+03 -7.501841E+04  3.378000E+03 -2.152087E+03
       199  24 -1.499889E+05 -3.628044E+04 -1.383307E+03 -7.638236E+04  1.682905E+03 -1.555274E+03
       199  25 -9.520609E+04 -1.708760E+04  4.619018E+03 -5.973028E+04  6.423430E+03 -1.957566E+03
       199  26 -1.108616E+05 -2.083087E+04  4.016902E+03 -6.347831E+04  5.332248E+03 -1.419026E+03
       199  27 -1.248125E+05 -2.737362E+04  2.639989E+03 -6.944632E+04  4.147460E+03 -6.308339E+02
       200   1 -1.654333E+05 -4.179408E+04 -3.484740E+03 -8.068819E+04  1.223854E+03  1.836281E+03
       200   2 -1.512359E+05 -3.525020E+04 -6.510167E+02 -7.523595E+04  2.014689E+03  7.484443E+02
       200   3 -1.350193E+05 -3.086430E+04  1.915636E+03 -7.217282E+04  2.815590E+03 -3.662701E+02
       200   4 -1.499152E+05 -3.626468E+04 -1.034644E+03 -7.636296E+04 -1.230075E+03  9.158343E+02
       200   5 -1.509257E+05 -3.515885E+04 -5.614333E+02 -7.518049E+04 -4.941950E+02 -1.926126E+02
       200   6 -1.499062E+05 -3.620012E+04 -3.117502E+02 -7.638720E+04  2.517409E+02 -1.327937E+03
       200   7 -1.343969E+05 -3.073524E+04  1.415472E+03 -7.203763E+04 -3.684069E+03 -4.636246E+00
       200   8 -1.506154E+05 -3.506750E+04 -4.718235E+02 -7.512503E+04 -3.003064E+03 -1.133664E+03
       200   9 -1.647927E+05 -4.153584E+04 -2.539060E+03 -8.060143E+04 -2.312012E+03 -2.289569E+03
       200  10 -1.654333E+05 -4.179408E+04 -3.484749E+03 -8.068819E+04 -3.934257E-09 -1.111720E-09
       200  11 -1.512359E+05 -3.525020E+04 -6.510254E+02 -7.523595E+04  2.588312E-10  4.186166E-10
       200  12 -1.350193E+05 -3.086430E+04  1.915621E+03 -7.217282E+04  3.361325E-09  9.723466E-10
       200  13 -1.499152E+05 -3.626468E+04 -1.034648E+03 -7.636296E+04 -7.709728E-11  2.875449E-10
       200  14 -1.509257E+05 -3.515885E+04 -5.614339E+02 -7.518049E+04  2.441000E-09  1.439645E-09
       200  15 -1.499062E+05 -3.620012E+04 -3.117536E+02 -7.638720E+04  7.372025E-10  5.748489E-10
       200  16 -1.343969E+05 -3.073525E+04  1.415446E+03 -7.203763E+04 -2.824361E-09  1.630013E-09
       200  17 -1.506155E+05 -3.506750E+04 -4.718428E+02 -7.512503E+04 -1.790837E-09  2.249523E-09
       200  18 -1.647927E+05 -4.153584E+04 -2.539079E+03 -8.060144E+04 -1.453852E-09  1.773715E-10
       200  19 -1.654333E+05 -4.179408E+04 -3.484740E+03 -8.068819E+04 -1.223854E+03 -1.836281E+03
       200  20 -1.512359E+05 -3.525020E+04 -6.510167E+02 -7.523595E+04 -2.014689E+03 -7.484443E+02
       200  21 -1.350193E+05 -3.086430E+04  1.915636E+03 -7.217282E+04 -2.815590E+03  3.662701E+02
       200  22 -1.499152E+05 -3.626468E+04 -1.034644E+03 -7.636296E+04  1.230075E+03 -9.158343E+02
       200  23 -1.509257E+05 -3.515885E+04 -5.614333E+02 -7.518049E+04  4.941950E+02  1.926126E+02
       200  24 -1.499062E+05 -3.620012E+04 -3.117502E+02 -7.638720E+04 -2.517409E+02  1.327937E+03
       200  25 -1.343969E+05 -3.073524E+04  1.415472E+03 -7.203763E+04  3.684069E+03  4.636246E+00
       200  26 -1.506154E+05 -3.506750E+04 -4.718235E+02 -7.512503E+04  3.003064E+03  1.133664E+03
       200  27 -1.647927E+05 -4.153584E+04 -2.539060E+03 -8.060143E+04  2.312012E+03  2.289569E+03
       201   1 -1.254239E+05 -2.744214E+04  3.528215E+03 -6.949451E+04  3.133443E+03 -1.080544E+03
       201   2 -1.112552E+05 -2.098074E+04  5.923528E+03 -6.403304E+04  3.677078E+03 -2.307599E+03
       201   3 -9.500843E+04 -1.661212E+04  8.263761E+03 -6.096551E+04  4.221541E+03 -3.536777E+03
       201   4 -1.498973E+05 -3.620144E+04 -2.362998E+02 -7.638321E+04  5.707813E+02 -2.041778E+03
       201   5 -1.509370E+05 -3.515737E+04 -1.378270E+02 -7.518547E+04  1.110009E+03 -3.270532E+03
       201   6 -1.498983E+05 -3.620544E+04 -9.108058E+01 -7.638191E+04  1.650060E+03 -4.501408E+03
       201   7 -1.743704E+05 -4.496078E+04 -4.000880E+03 -8.327174E+04 -1.991804E+03 -3.002983E+03
       201   8 -1.906173E+05 -4.933393E+04 -6.199247E+03 -8.633729E+04 -1.456904E+03 -4.233406E+03
       201   9 -2.047850E+05 -5.579844E+04 -8.445941E+03 -9.179703E+04 -9.211821E+02 -5.465949E+03
       201  10 -1.254240E+05 -2.744214E+04  3.528195E+03 -6.949451E+04 -6.162276E-10 -5.413376E-10
       201  11 -1.112552E+05 -2.098075E+04  5.923493E+03 -6.403303E+04 -8.300070E-12 -7.982946E-10
       201  12 -9.500845E+04 -1.661214E+04  8.263704E+03 -6.096550E+04  1.411395E-09 -4.068248E-10
       201  13 -1.498973E+05 -3.620144E+04 -2.363083E+02 -7.638321E+04  9.777363E-11 -2.592676E-10
       201  14 -1.509370E+05 -3.515738E+04 -1.378494E+02 -7.518547E+04  1.436707E-09 -5.978143E-10
       201  15 -1.498984E+05 -3.620546E+04 -9.112377E+01 -7.638190E+04 -1.399103E-09 -7.096383E-10
       201  16 -1.743704E+05 -4.496079E+04 -4.000904E+03 -8.327174E+04 -4.895628E-10  2.405781E-10
       201  17 -1.906173E+05 -4.933395E+04 -6.199285E+03 -8.633730E+04 -2.193321E-09 -1.271956E-10
       201  18 -2.047850E+05 -5.579847E+04 -8.445999E+03 -9.179703E+04 -1.610647E-09 -9.624329E-10
       201  19 -1.254239E+05 -2.744214E+04  3.528215E+03 -6.949451E+04 -3.133443E+03  1.080544E+03
       201  20 -1.112552E+05 -2.098074E+04  5.923528E+03 -6.403304E+04 -3.677078E+03  2.307599E+03
       201  21 -9.500843E+04 -1.661212E+04  8.263761E+03 -6.096551E+04 -4.221541E+03  3.536777E+03
       201  22 -1.498973E+05 -3.620144E+04 -2.362998E+02 -7.638321E+04 -5.707813E+02  2.041778E+03
       201  23 -1.509370E+05 -3.515737E+04 -1.378270E+02 -7.518547E+04 -1.110009E+03  3.270532E+03
       201  24 -1.498983E+05 -3.620544E+04 -9.108058E+01 -7.638191E+04 -1.650060E+03  4.501408E+03
       201  25 -1.743704E+05 -4.496078E+04 -4.000880E+03 -8.327174E+04  1.991804E+03  3.002983E+03
       201  26 -1.906173E+05 -4.933393E+04 -6.199247E+03 -8.633729E+04  1.456904E+03  4.233406E+03
       201  27 -2.047850E+05 -5.579844E+04 -8.445941E+03 -9.179703E+04  9.211821E+02  5.465949E+03
       202   1 -8.543073E+04 -1.318452E+04  9.807758E+03 -5.828373E+04  4.510619E+03 -4.263675E+03
       202   2 -7.127107E+04 -6.723141E+03  1.210306E+04 -5.282151E+04  5.008863E+03 -5.507840E+03
       202   3 -5.502656E+04 -2.348847E+03  1.437820E+04 -4.975171E+04  5.504827E+03 -6.745775E+03
       202   4 -1.498982E+05 -3.620616E+04 -8.092576E+01 -7.638125E+04  1.939142E+03 -5.228337E+03
       202   5 -1.509396E+05 -3.516278E+04 -8.083266E+01 -7.518459E+04  2.450067E+03 -6.467821E+03
       202   6 -1.498989E+05 -3.620893E+04 -1.109247E+02 -7.638037E+04  2.958714E+03 -7.701083E+03
       202   7 -2.143603E+05 -5.922706E+04 -9.969429E+03 -9.447679E+04 -6.320230E+02 -6.192882E+03
       202   8 -2.306013E+05 -6.360174E+04 -1.226479E+04 -9.754497E+04 -1.083830E+02 -7.427672E+03
       202   9 -2.447627E+05 -7.006849E+04 -1.460046E+04 -1.030055E+05  4.129820E+02 -8.656247E+03
       202  10 -8.543076E+04 -1.318454E+04  9.807686E+03 -5.828372E+04 -1.374169E-09 -6.353129E-10
       202  11 -7.127111E+04 -6.723180E+03  1.210296E+04 -5.282148E+04 -2.108725E-09  8.644346E-10
       202  12 -5.502660E+04 -2.348904E+03  1.437806E+04 -4.975168E+04  2.721811E-11  8.236119E-10
       202  13 -1.498982E+05 -3.620619E+04 -8.098419E+01 -7.638125E+04  1.080734E-09 -1.272673E-10
       202  14 -1.509396E+05 -3.516282E+04 -8.092255E+01 -7.518458E+04  1.231953E-09  6.404001E-10
       202  15 -1.498989E+05 -3.620900E+04 -1.110526E+02 -7.638035E+04 -4.641919E-10  3.251269E-10
       202  16 -2.143603E+05 -5.922710E+04 -9.969502E+03 -9.447680E+04  2.123824E-09  2.377404E-10
       202  17 -2.306013E+05 -6.360180E+04 -1.226490E+04 -9.754497E+04 -4.295900E-10  6.754660E-10
       202  18 -2.447627E+05 -7.006857E+04 -1.460060E+04 -1.030055E+05 -9.624854E-10 -2.062388E-10
       202  19 -8.543073E+04 -1.318452E+04  9.807758E+03 -5.828373E+04 -4.510619E+03  4.263675E+03
       202  20 -7.127107E+04 -6.723141E+03  1.210306E+04 -5.282151E+04 -5.008863E+03  5.507840E+03
       202  21 -5.502656E+04 -2.348847E+03  1.437820E+04 -4.975171E+04 -5.504827E+03  6.745775E+03
       202  22 -1.498982E+05 -3.620616E+04 -8.092576E+01 -7.638125E+04 -1.939142E+03  5.228337E+03
       202  23 -1.509396E+05 -3.516278E+04 -8.083266E+01 -7.518459E+04 -2.450067E+03  6.467821E+03
       202  24 -1.498989E+05 -3.620893E+04 -1.109247E+02 -7.638037E+04 -2.958714E+03  7.701083E+03
       202  25 -2.143603E+05 -5.922706E+04 -9.969429E+03 -9.447679E+04  6.320230E+02  6.192882E+03
       202  26 -2.306013E+05 -6.360174E+04 -1.226479E+04 -9.754497E+04  1.083830E+02  7.427672E+03
       202  27 -2.447627E+05 -7.006849E+04 -1.460046E+04 -1.030055E+05 -4.129820E+02  8.656247E+03
       203   1 -4.545183E+04  1.080163E+03  1.589179E+04 -4.707277E+04  5.800453E+03 -7.464456E+03
       203   2 -3.130215E+04  7.547110E+03  1.814137E+04 -4.161060E+04  6.254872E+03 -8.681869E+03
       203   3 -1.506801E+04  1.192893E+04  2.039230E+04 -3.853420E+04  6.687172E+03 -9.840106E+03
       203   4 -1.499037E+05 -3.620857E+04 -1.388714E+02 -7.638097E+04  3.252148E+03 -8.420648E+03
       203   5 -1.509369E+05 -3.516924E+04 -2.377782E+02 -7.518268E+04  3.827514E+03 -9.592800E+03
       203   6 -1.499098E+05 -3.623906E+04 -4.311525E+02 -7.637032E+04  4.380757E+03 -1.070577E+04
       203   7 -2.543438E+05 -7.349613E+04 -1.616965E+04 -1.056845E+05  7.042966E+02 -9.376669E+03
       203   8 -2.705555E+05 -7.788378E+04 -1.861690E+04 -1.087485E+05  1.400666E+03 -1.050354E+04
       203   9 -2.847303E+05 -8.440450E+04 -2.125439E+04 -1.141982E+05  2.074900E+03 -1.157122E+04
       203  10 -4.545188E+04  1.080094E+03  1.589162E+04 -4.707273E+04 -1.177445E-09 -3.576609E-10
       203  11 -3.130222E+04  7.547018E+03  1.814116E+04 -4.161056E+04 -1.049474E-09 -4.301347E-10
       203  12 -1.506808E+04  1.192882E+04  2.039203E+04 -3.853415E+04  3.624840E-09 -1.574551E-09
       203  13 -1.499038E+05 -3.620865E+04 -1.390245E+02 -7.638095E+04 -2.596642E-10  5.105100E-10
       203  14 -1.509370E+05 -3.516934E+04 -2.379787E+02 -7.518265E+04  9.259095E-10  2.910004E-10
       203  15 -1.499099E+05 -3.623919E+04 -4.314039E+02 -7.637028E+04 -3.601791E-10 -1.145198E-09
       203  16 -2.543438E+05 -7.349623E+04 -1.616982E+04 -1.056845E+05  1.856153E-09  9.192994E-10
       203  17 -2.705555E+05 -7.788390E+04 -1.861711E+04 -1.087484E+05 -3.488115E-10  8.238191E-10
       203  18 -2.847303E+05 -8.440464E+04 -2.125465E+04 -1.141982E+05 -2.654246E-09  1.861681E-11
       203  19 -4.545183E+04  1.080163E+03  1.589179E+04 -4.707277E+04 -5.800453E+03  7.464456E+03
       203  20 -3.130215E+04  7.547110E+03  1.814137E+04 -4.161060E+04 -6.254872E+03  8.681869E+03
       203  21 -1.506801E+04  1.192893E+04  2.039230E+04 -3.853420E+04 -6.687172E+03  9.840106E+03
       203  22 -1.499037E+05 -3.620857E+04 -1.388714E+02 -7.638097E+04 -3.252148E+03  8.420648E+03
       203  23 -1.509369E+05 -3.516924E+04 -2.377782E+02 -7.518268E+04 -3.827514E+03  9.592800E+03
       203  24 -1.499098E+05 -3.623906E+04 -4.311525E+02 -7.637032E+04 -4.380757E+03  1.070577E+04
       203  25 -2.543438E+05 -7.349613E+04 -1.616965E+04 -1.056845E+05 -7.042966E+02  9.376669E+03
       203  26 -2.705555E+05 -7.788378E+04 -1.861690E+04 -1.087485E+05 -1.400666E+03  1.050354E+04
       203  27 -2.847303E+05 -8.440450E+04 -2.125439E+04 -1.141982E+05 -2.074900E+03  1.157122E+04
       204   1 -5.474115E+03  1.535542E+04  2.186884E+04 -3.587925E+04  7.042936E+03 -1.048268E+04
       204   2  8.524842E+03  2.188829E+04  2.424029E+04 -3.027630E+04  6.784391E+03 -1.156726E+04
       204   3  2.460659E+04  2.624812E+04  2.700976E+04 -2.695977E+04  6.320780E+03 -1.210524E+04
       204   4 -1.499450E+05 -3.624061E+04 -5.742460E+02 -7.637134E+04  4.713819E+03 -1.135694E+04
       204   5 -1.509163E+05 -3.532500E+04 -1.058110E+03 -7.512273E+04  5.572911E+03 -1.202226E+04
       204   6 -1.500266E+05 -3.680410E+04 -2.029544E+03 -7.616086E+04  6.226941E+03 -1.214090E+04
       204   7 -2.943952E+05 -8.783514E+04 -2.301814E+04 -1.168551E+05  2.385247E+03 -1.223099E+04
       204   8 -3.103310E+05 -9.253601E+04 -2.635726E+04 -1.199586E+05  4.361752E+03 -1.247715E+04
       204   9 -3.246272E+05 -9.985321E+04 -3.106961E+04 -1.253490E+05  6.133131E+03 -1.217654E+04
       204  10 -5.474198E+03  1.535529E+04  2.186854E+04 -3.587919E+04 -5.851794E-08 -2.539815E-08
       204  11  8.524756E+03  2.188813E+04  2.423996E+04 -3.027623E+04 -8.905108E-10 -3.313417E-09
       204  12  2.460651E+04  2.624795E+04  2.700941E+04 -2.695971E+04  5.628738E-08  2.119043E-08
       204  13 -1.499451E+05 -3.624076E+04 -5.745301E+02 -7.637130E+04 -3.046550E-09 -2.395336E-09
       204  14 -1.509163E+05 -3.532517E+04 -1.058440E+03 -7.512267E+04 -1.792979E-09 -2.631921E-09
       204  15 -1.500266E+05 -3.680427E+04 -2.029894E+03 -7.616080E+04 -2.723801E-09 -5.617015E-10
       204  16 -2.943953E+05 -8.783531E+04 -2.301843E+04 -1.168550E+05  5.492213E-08  2.171324E-08
       204  17 -3.103311E+05 -9.253619E+04 -2.635759E+04 -1.199586E+05 -4.538559E-09 -1.763458E-09
       204  18 -3.246273E+05 -9.985338E+04 -3.106996E+04 -1.253489E+05 -5.951885E-08 -2.172912E-08
       204  19 -5.474115E+03  1.535542E+04  2.186884E+04 -3.587925E+04 -7.042936E+03  1.048268E+04
       204  20  8.524842E+03  2.188829E+04  2.424029E+04 -3.027630E+04 -6.784391E+03  1.156726E+04
       204  21  2.460659E+04  2.624812E+04  2.700976E+04 -2.695977E+04 -6.320780E+03  1.210524E+04
       204  22 -1.499450E+05 -3.624061E+04 -5.742460E+02 -7.637134E+04 -4.713819E+03  1.135694E+04
       204  23 -1.509163E+05 -3.532500E+04 -1.058110E+03 -7.512273E+04 -5.572911E+03  1.202226E+04
       204  24 -1.500266E+05 -3.680410E+04 -2.029544E+03 -7.616086E+04 -6.226941E+03  1.214090E+04
       204  25 -2.943952E+05 -8.783514E+04 -2.301814E+04 -1.168551E+05 -2.385247E+03  1.223099E+04
       204  26 -3.103310E+05 -9.253601E+04 -2.635726E+04 -1.199586E+05 -4.361752E+03  1.247715E+04
       204  27 -3.246272E+05 -9.985321E+04 -3.106961E+04 -1.253490E+05 -6.133131E+03  1.217654E+04
       205   1  3.442863E+04  2.954080E+04  2.866529E+04 -2.455872E+04  6.934910E+03 -1.215798E+04
       205   2  4.615263E+04  3.686328E+04  3.371526E+04 -1.629857E+04 -1.595995E+03 -1.264430E+04
       205   3  5.965815E+04  3.987844E+04  4.370554E+04 -8.988039E+03 -1.202727E+04 -8.070000E+03
       205   4 -1.503908E+05 -3.690552E+04 -2.728086E+03 -7.615666E+04  6.627009E+03 -1.227400E+04
       205   5 -1.508428E+05 -3.787386E+04 -5.241670E+03 -7.412617E+04  8.445828E+03 -8.875605E+03
       205   6 -1.515638E+05 -4.520034E+04 -1.101481E+04 -7.304563E+04  8.364365E+03 -4.156464E+02
       205   7 -3.351736E+05 -1.033483E+05 -3.412227E+04 -1.277401E+05  6.319205E+03 -1.238999E+04
       205   8 -3.477942E+05 -1.126052E+05 -4.419900E+04 -1.319354E+05  1.848407E+04 -5.108376E+03
       205   9 -3.627342E+05 -1.302711E+05 -6.573518E+04 -1.370805E+05  2.874777E+04  7.235112E+03
       205  10  3.442854E+04  2.954062E+04  2.866492E+04 -2.455865E+04  4.181603E-09  1.788234E-09
       205  11  4.615258E+04  3.686311E+04  3.371495E+04 -1.629858E+04 -4.992153E-09 -1.874242E-09
       205  12  5.965798E+04  3.987833E+04  4.370514E+04 -8.988117E+03 -6.428241E-09 -2.396307E-09
       205  13 -1.503909E+05 -3.690570E+04 -2.728451E+03 -7.615660E+04 -1.630515E-09 -6.128263E-10
       205  14 -1.508429E+05 -3.787396E+04 -5.241952E+03 -7.412611E+04 -8.349323E-09 -2.125104E-09
       205  15 -1.515638E+05 -4.520036E+04 -1.101494E+04 -7.304563E+04  4.230885E-10 -3.559538E-10
       205  16 -3.351736E+05 -1.033485E+05 -3.412263E+04 -1.277401E+05 -9.619513E-09 -2.692466E-09
       205  17 -3.477945E+05 -1.126053E+05 -4.419969E+04 -1.319353E+05 -9.088003E-09 -1.979018E-09
       205  18 -3.627351E+05 -1.302714E+05 -6.573683E+04 -1.370806E+05  7.628062E-10  7.171208E-10
       205  19  3.442863E+04  2.954080E+04  2.866529E+04 -2.455872E+04 -6.934910E+03  1.215798E+04
       205  20  4.615263E+04  3.686328E+04  3.371526E+04 -1.629857E+04  1.595995E+03  1.264430E+04
       205  21  5.965815E+04  3.987844E+04  4.370554E+04 -8.988039E+03  1.202727E+04  8.070000E+03
       205  22 -1.503908E+05 -3.690552E+04 -2.728086E+03 -7.615666E+04 -6.627009E+03  1.227400E+04
       205  23 -1.508428E+05 -3.787386E+04 -5.241670E+03 -7.412617E+04 -8.445828E+03  8.875605E+03
       205  24 -1.515638E+05 -4.520034E+04 -1.101481E+04 -7.304563E+04 -8.364365E+03  4.156464E+02
       205  25 -3.351736E+05 -1.033483E+05 -3.412227E+04 -1.277401E+05 -6.319205E+03  1.238999E+04
       205  26 -3.477942E+05 -1.126052E+05 -4.419900E+04 -1.319354E+05 -1.848407E+04  5.108376E+03
       205  27 -3.627342E+05 -1.302711E+05 -6.573518E+04 -1.370805E+05 -2.874777E+04 -7.235112E+03
       206   1 -1.093980E+05 -1.963250E+04 -3.249083E+04 -9.226472E+03 -3.874129E+04 -9.210710E+02
       206   2 -1.066143E+05  3.250548E+04 -1.325528E+03 -2.997149E+03 -2.583515E+04 -2.724012E+03
       206   3 -1.203053E+05  2.541968E+04  6.634523E+03  8.201413E+03 -1.293016E+04 -2.485769E+03
       206   4 -2.138502E+05 -4.569197E+04 -5.836555E+04  2.812919E+03 -3.989015E+04 -9.222383E+02
       206   5 -2.055369E+05  7.918388E+03 -2.533920E+04  3.193303E+02 -2.615350E+04 -2.724315E+03
       206   6 -2.138455E+05  2.155363E+03 -1.609774E+04  2.795122E+03 -1.241787E+04 -2.485426E+03
       206   7 -3.182921E+05 -7.175172E+04 -8.424101E+04  1.485028E+04 -4.103882E+04 -9.234502E+02
       206   8 -3.044506E+05 -1.666939E+04 -4.935357E+04  3.635278E+03 -2.647181E+04 -2.724620E+03
       206   9 -3.073777E+05 -2.110948E+04 -3.883062E+04 -2.610354E+03 -1.190567E+04 -2.485091E+03
       206  10 -1.093996E+05 -1.963291E+04 -3.249365E+04 -9.226500E+03 -5.630054E-10  3.164998E-10
       206  11 -1.066150E+05  3.250530E+04 -1.326796E+03 -2.997205E+03 -8.339998E-10  4.170768E-12
       206  12 -1.203054E+05  2.541962E+04  6.634198E+03  8.201387E+03  9.092451E-10 -1.250857E-09
       206  13 -2.138519E+05 -4.569240E+04 -5.836855E+04  2.812889E+03 -7.004171E-11  6.464204E-10
       206  14 -2.055377E+05  7.918196E+03 -2.534050E+04  3.192729E+02 -1.727260E-09  3.510405E-10
       206  15 -2.138457E+05  2.155315E+03 -1.609804E+04  2.795097E+03  3.526913E-10 -7.410482E-11
       206  16 -3.182939E+05 -7.175217E+04 -8.424418E+04  1.485025E+04 -4.359305E-10  3.015543E-10
       206  17 -3.044513E+05 -1.666958E+04 -4.935490E+04  3.635220E+03 -1.997143E-09 -7.910738E-10
       206  18 -3.073778E+05 -2.110953E+04 -3.883090E+04 -2.610377E+03 -7.468819E-10 -1.123995E-09
       206  19 -1.093980E+05 -1.963250E+04 -3.249083E+04 -9.226472E+03  3.874129E+04  9.210710E+02
       206  20 -1.066143E+05  3.250548E+04 -1.325528E+03 -2.997149E+03  2.583515E+04  2.724012E+03
       206  21 -1.203053E+05  2.541968E+04  6.634523E+03  8.201413E+03  1.293016E+04  2.485769E+03
       206  22 -2.138502E+05 -4.569197E+04 -5.836555E+04  2.812919E+03  3.989015E+04  9.222383E+02
       206  23 -2.055369E+05  7.918388E+03 -2.533920E+04  3.193303E+02  2.615350E+04  2.724315E+03
       206  24 -2.138455E+05  2.155363E+03 -1.609774E+04  2.795122E+03  1.241787E+04  2.485426E+03
       206  25 -3.182921E+05 -7.175172E+04 -8.424101E+04  1.485028E+04  4.103882E+04  9.234502E+02
       206  26 -3.044506E+05 -1.666939E+04 -4.935357E+04  3.635278E+03  2.647181E+04  2.724620E+03
       206  27 -3.073777E+05 -2.110948E+04 -3.883062E+04 -2.610354E+03  1.190567E+04  2.485091E+03
       207   1 -1.266988E+05  1.541506E+04  7.242431E+03  1.535258E+03 -9.834465E+03 -2.064266E+03
       207   2 -1.311318E+05  2.045713E+04  1.247394E+04 -1.390722E+01 -6.512625E+03 -2.044552E+03
       207   3 -1.377738E+05  1.838214E+04  1.376390E+04  3.537784E+03 -3.190902E+03 -1.831548E+03
       207   4 -2.106464E+05 -5.464594E+03 -1.320116E+04  2.832530E+03 -9.865670E+03 -2.064322E+03
       207   5 -2.095345E+05  9.616935E+02 -6.588282E+03  2.805024E+02 -6.465396E+03 -2.044544E+03
       207   6 -2.106455E+05  2.568109E+02 -3.971806E+03  2.829366E+03 -3.065207E+03 -1.831477E+03
       207   7 -2.945876E+05 -2.634476E+04 -3.364526E+04  4.129626E+03 -9.896871E+03 -2.064378E+03
       207   8 -2.879317E+05 -1.853420E+04 -2.565095E+04  5.748740E+02 -6.418173E+03 -2.044537E+03
       207   9 -2.835124E+05 -1.786891E+04 -2.170790E+04  2.121030E+03 -2.939527E+03 -1.831405E+03
       207  10 -1.266989E+05  1.541503E+04  7.242242E+03  1.535242E+03  8.657577E-11 -1.765068E-09
       207  11 -1.311318E+05  2.045712E+04  1.247386E+04 -1.391794E+01  1.696075E-09  6.076346E-10
       207  12 -1.377738E+05  1.838214E+04  1.376387E+04  3.537779E+03  4.283061E-10  5.654683E-10
       207  13 -2.106465E+05 -5.464625E+03 -1.320135E+04  2.832514E+03  2.748997E-12 -1.286028E-09
       207  14 -2.095346E+05  9.616777E+02 -6.588368E+03  2.804918E+02 -1.605973E-10 -1.123240E-10
       207  15 -2.106455E+05  2.568047E+02 -3.971830E+03  2.829361E+03  4.274235E-10 -3.236644E-10
       207  16 -2.945877E+05 -2.634479E+04 -3.364545E+04  4.129610E+03  4.323054E-10 -3.673173E-10
       207  17 -2.879317E+05 -1.853421E+04 -2.565104E+04  5.748634E+02 -2.978403E-09 -5.096217E-10
       207  18 -2.835124E+05 -1.786892E+04 -2.170792E+04  2.121025E+03 -1.408505E-09  6.513507E-10
       207  19 -1.266988E+05  1.541506E+04  7.242431E+03  1.535258E+03  9.834465E+03  2.064266E+03
       207  20 -1.311318E+05  2.045713E+04  1.247394E+04 -1.390722E+01  6.512625E+03  2.044552E+03
       207  21 -1.377738E+05  1.838214E+04  1.376390E+04  3.537784E+03  3.190902E+03  1.831548E+03
       207  22 -2.106464E+05 -5.464594E+03 -1.320116E+04  2.832530E+03  9.865670E+03  2.064322E+03
       207  23 -2.095345E+05  9.616935E+02 -6.588282E+03  2.805024E+02  6.465396E+03  2.044544E+03
       207  24 -2.106455E+05  2.568109E+02 -3.971806E+03  2.829366E+03  3.065207E+03  1.831477E+03
       207  25 -2.945876E+05 -2.634476E+04 -3.364526E+04  4.129626E+03  9.896871E+03  2.064378E+03
       207  26 -2.879317E+05 -1.853420E+04 -2.565095E+04  5.748740E+02  6.418173E+03  2.044537E+03
       207  27 -2.835124E+05 -1.786891E+04 -2.170790E+04  2.121030E+03  2.939527E+03  1.831405E+03
       208   1 -1.471111E+05  1.504816E+04  1.220098E+04  2.750585E+03 -2.508347E+03 -1.681109E+03
       208   2 -1.525670E+05  1.441486E+04  1.228715E+04  2.682855E+02 -1.662170E+03 -1.488243E+03
       208   3 -1.583482E+05  1.293651E+04  1.161028E+04  2.964018E+03 -8.160423E+02 -1.276067E+03
       208   4 -2.102238E+05 -6.437076E+02 -3.134191E+03  2.847881E+03 -2.433682E+03 -1.681069E+03
       208   5 -2.100604E+05  1.176642E+02 -1.694070E+03  2.586144E+02 -1.579706E+03 -1.488192E+03
       208   6 -2.102236E+05  3.258557E+01 -1.022457E+03  2.847411E+03 -7.257720E+02 -1.276004E+03
       208   7 -2.733330E+05 -1.633587E+04 -1.846965E+04  2.945166E+03 -2.359024E+03 -1.681030E+03
       208   8 -2.675508E+05 -1.417977E+04 -1.567553E+04  2.489437E+02 -1.497249E+03 -1.488141E+03
       208   9 -2.620966E+05 -1.287153E+04 -1.365539E+04  2.730813E+03 -6.355093E+02 -1.275942E+03
       208  10 -1.471111E+05  1.504815E+04  1.220096E+04  2.750582E+03  4.681007E-10  1.293360E-09
       208  11 -1.525670E+05  1.441485E+04  1.228714E+04  2.682835E+02  7.856796E-10  1.842926E-09
       208  12 -1.583482E+05  1.293650E+04  1.161028E+04  2.964017E+03  7.579294E-10 -1.294663E-10
       208  13 -2.102238E+05 -6.437123E+02 -3.134208E+03  2.847877E+03 -9.191310E-10 -3.420765E-10
       208  14 -2.100604E+05  1.176611E+02 -1.694079E+03  2.586125E+02 -7.330588E-10  1.507694E-09
       208  15 -2.102236E+05  3.258368E+01 -1.022462E+03  2.847410E+03 -8.565869E-10  1.595352E-09
       208  16 -2.733330E+05 -1.633587E+04 -1.846966E+04  2.945163E+03 -2.309587E-10  1.377315E-09
       208  17 -2.675508E+05 -1.417978E+04 -1.567554E+04  2.489419E+02 -6.789568E-10  1.312513E-09
       208  18 -2.620966E+05 -1.287154E+04 -1.365540E+04  2.730813E+03  1.610320E-10  9.423842E-10
       208  19 -1.471111E+05  1.504816E+04  1.220098E+04  2.750585E+03  2.508347E+03  1.681109E+03
       208  20 -1.525670E+05  1.441486E+04  1.228715E+04  2.682855E+02  1.662170E+03  1.488243E+03
       208  21 -1.583482E+05  1.293651E+04  1.161028E+04  2.964018E+03  8.160423E+02  1.276067E+03
       208  22 -2.102238E+05 -6.437076E+02 -3.134191E+03  2.847881E+03  2.433682E+03  1.681069E+03
       208  23 -2.100604E+05  1.176642E+02 -1.694070E+03  2.586144E+02  1.579706E+03  1.488192E+03
       208  24 -2.102236E+05  3.258557E+01 -1.022457E+03  2.847411E+03  7.257720E+02  1.276004E+03
       208  25 -2.733330E+05 -1.633587E+04 -1.846965E+04  2.945166E+03  2.359024E+03  1.681030E+03
       208  26 -2.675508E+05 -1.417977E+04 -1.567553E+04  2.489437E+02  1.497249E+03  1.488141E+03
       208  27 -2.620966E+05 -1.287153E+04 -1.365539E+04  2.730813E+03  6.355093E+02  1.275942E+03
       209   1 -1.681715E+05  1.036930E+04  9.382619E+03  2.874531E+03 -6.465441E+02 -1.149889E+03
       209   2 -1.738136E+05  9.048221E+03  8.314153E+03  2.668777E+02 -3.895965E+02 -9.389328E+02
       209   3 -1.795232E+05  7.624090E+03  7.050862E+03  2.889655E+03 -1.326763E+02 -7.255254E+02
       209   4 -2.101658E+05 -7.040115E+01 -8.128393E+02  2.859246E+03 -5.610488E+02 -1.149826E+03
       209   5 -2.101319E+05  1.657001E+01 -5.180245E+02  2.439934E+02 -3.031175E+02 -9.388661E+02
       209   6 -2.101658E+05  2.958542E-01 -4.187483E+02  2.859190E+03 -4.521116E+01 -7.254540E+02
       209   7 -2.521585E+05 -1.051023E+04 -1.100842E+04  2.843963E+03 -4.755594E+02 -1.149764E+03
       209   8 -2.464490E+05 -9.015178E+03 -9.350298E+03  2.211102E+02 -2.166435E+02 -9.387993E+02
       209   9 -2.408075E+05 -7.623568E+03 -7.888427E+03  2.828726E+03  4.224966E+01 -7.253827E+02
       209  10 -1.681715E+05  1.036930E+04  9.382615E+03  2.874530E+03  1.170973E-09 -3.535226E-10
       209  11 -1.738136E+05  9.048220E+03  8.314151E+03  2.668774E+02 -1.421761E-09  1.624413E-09
       209  12 -1.795232E+05  7.624090E+03  7.050861E+03  2.889655E+03 -3.352590E-10  9.947558E-10
       209  13 -2.101658E+05 -7.040265E+01 -8.128424E+02  2.859246E+03 -4.417966E-12  4.060666E-10
       209  14 -2.101319E+05  1.656904E+01 -5.180264E+02  2.439932E+02  7.067719E-10  1.274145E-09
       209  15 -2.101658E+05  2.952886E-01 -4.187493E+02  2.859190E+03 -2.121052E-09 -5.289109E-10
       209  16 -2.521585E+05 -1.051023E+04 -1.100843E+04  2.843962E+03 -2.266903E-09  5.903559E-10
       209  17 -2.464490E+05 -9.015179E+03 -9.350300E+03  2.211100E+02 -2.407476E-09 -7.898912E-10
       209  18 -2.408075E+05 -7.623568E+03 -7.888428E+03  2.828727E+03 -8.728402E-10 -9.878609E-10
       209  19 -1.681715E+05  1.036930E+04  9.382619E+03  2.874531E+03  6.465441E+02  1.149889E+03
       209  20 -1.738136E+05  9.048221E+03  8.314153E+03  2.668777E+02  3.895965E+02  9.389328E+02
       209  21 -1.795232E+05  7.624090E+03  7.050862E+03  2.889655E+03  1.326763E+02  7.255254E+02
       209  22 -2.101658E+05 -7.040115E+01 -8.128393E+02  2.859246E+03  5.610488E+02  1.149826E+03
       209  23 -2.101319E+05  1.657001E+01 -5.180245E+02  2.439934E+02  3.031175E+02  9.388661E+02
       209  24 -2.101658E+05  2.958541E-01 -4.187483E+02  2.859190E+03  4.521116E+01  7.254540E+02
       209  25 -2.521585E+05 -1.051023E+04 -1.100842E+04  2.843963E+03  4.755594E+02  1.149764E+03
       209  26 -2.464490E+05 -9.015178E+03 -9.350298E+03  2.211102E+02  2.166435E+02  9.387993E+02
       209  27 -2.408075E+05 -7.623568E+03 -7.888427E+03  2.828726E+03 -4.224966E+01  7.253827E+02
       210   1 -1.894821E+05  5.139663E+03  4.596373E+03  2.868612E+03 -5.724133E+01 -6.007028E+02
       210   2 -1.951547E+05  3.740735E+03  3.139588E+03  2.448235E+02  1.931992E+02 -3.867928E+02
       210   3 -2.008956E+05  2.243258E+03  1.492759E+03  2.881142E+03  4.436334E+02 -1.732881E+02
       210   4 -2.101657E+05 -4.611698E-01 -4.161204E+02  2.865783E+03  3.000858E+01 -6.006297E+02
       210   5 -2.101316E+05  1.622307E+01 -5.026878E+02  2.357537E+02  2.802784E+02 -3.867183E+02
       210   6 -2.101657E+05 -6.558886E+01 -7.791606E+02  2.865840E+03  5.305443E+02 -1.732122E+02
       210   7 -2.308489E+05 -5.140617E+03 -5.428644E+03  2.862953E+03  1.172556E+02 -6.005565E+02
       210   8 -2.251083E+05 -3.708305E+03 -4.144980E+03  2.266841E+02  3.673556E+02 -3.866438E+02
       210   9 -2.194357E+05 -2.374442E+03 -3.051086E+03  2.850538E+03  6.174538E+02 -1.731363E+02
       210  10 -1.894821E+05  5.139663E+03  4.596372E+03  2.868612E+03  3.512719E-09  8.112861E-10
       210  11 -1.951547E+05  3.740734E+03  3.139588E+03  2.448236E+02  1.152261E-09  1.583958E-09
       210  12 -2.008956E+05  2.243258E+03  1.492758E+03  2.881142E+03 -1.317187E-09 -1.558911E-09
       210  13 -2.101657E+05 -4.615574E-01 -4.161211E+02  2.865783E+03 -1.232968E-09  2.607947E-09
       210  14 -2.101316E+05  1.622289E+01 -5.026882E+02  2.357538E+02  2.316181E-10  2.269675E-09
       210  15 -2.101657E+05 -6.558896E+01 -7.791612E+02  2.865840E+03 -2.381780E-09 -1.468599E-09
       210  16 -2.308489E+05 -5.140617E+03 -5.428645E+03  2.862953E+03 -2.820820E-09  1.395756E-09
       210  17 -2.251083E+05 -3.708305E+03 -4.144981E+03  2.266843E+02 -2.705811E-09  1.021914E-09
       210  18 -2.194357E+05 -2.374442E+03 -3.051087E+03  2.850538E+03  1.705395E-10 -1.686537E-09
       210  19 -1.894821E+05  5.139663E+03  4.596373E+03  2.868612E+03  5.724133E+01  6.007028E+02
       210  20 -1.951547E+05  3.740735E+03  3.139588E+03  2.448235E+02 -1.931992E+02  3.867928E+02
       210  21 -2.008956E+05  2.243258E+03  1.492759E+03  2.881142E+03 -4.436334E+02  1.732881E+02
       210  22 -2.101657E+05 -4.611699E-01 -4.161204E+02  2.865783E+03 -3.000858E+01  6.006297E+02
       210  23 -2.101316E+05  1.622307E+01 -5.026878E+02  2.357537E+02 -2.802784E+02  3.867183E+02
       210  24 -2.101657E+05 -6.558886E+01 -7.791606E+02  2.865840E+03 -5.305443E+02  1.732122E+02
       210  25 -2.308489E+05 -5.140617E+03 -5.428644E+03  2.862953E+03 -1.172556E+02  6.005565E+02
       210  26 -2.251083E+05 -3.708305E+03 -4.144980E+03  2.266841E+02 -3.673556E+02  3.866438E+02
       210  27 -2.194357E+05 -2.374442E+03 -3.051086E+03  2.850538E+03 -6.174538E+02  1.731363E+02
       211   1 -2.109420E+05 -1.510043E+02 -1.170395E+03  2.783922E+03  5.987511E+02 -4.690629E+01
       211   2 -2.164948E+05 -1.486835E+03 -3.178323E+03  2.507601E+02  1.416463E+03  1.682142E+02
       211   3 -2.223666E+05 -3.627339E+03 -5.922325E+03  2.982558E+03  2.234178E+03  3.734016E+02
       211   4 -2.102213E+05  3.191242E+01 -9.775437E+02  2.866695E+03  6.882346E+02 -4.682768E+01
       211   5 -2.100622E+05  1.127867E+02 -1.614151E+03  2.344950E+02  1.501902E+03  1.682885E+02
       211   6 -2.102214E+05 -6.102998E+02 -2.984011E+03  2.867252E+03  2.315581E+03  3.734713E+02
       211   7 -2.095006E+05  2.148291E+02 -7.846924E+02  2.949468E+03  7.777183E+02 -4.674904E+01
       211   8 -2.036295E+05  1.712406E+03 -4.998222E+01  2.182296E+02  1.587343E+03  1.683627E+02
       211   9 -1.980761E+05  2.406728E+03 -4.570796E+01  2.751944E+03  2.396986E+03  3.735410E+02
       211  10 -2.109420E+05 -1.510044E+02 -1.170396E+03  2.783922E+03 -2.704049E-09 -3.720500E-10
       211  11 -2.164948E+05 -1.486836E+03 -3.178327E+03  2.507599E+02 -3.372408E-09  8.767862E-10
       211  12 -2.223666E+05 -3.627340E+03 -5.922335E+03  2.982558E+03 -2.452549E-10  4.093198E-10
       211  13 -2.102213E+05  3.191229E+01 -9.775446E+02  2.866695E+03 -5.163536E-12 -1.451612E-09
       211  14 -2.100622E+05  1.127860E+02 -1.614156E+03  2.344948E+02  3.045688E-10  4.049357E-10
       211  15 -2.102214E+05 -6.103013E+02 -2.984022E+03  2.867252E+03  1.463112E-10  9.999609E-10
       211  16 -2.095006E+05  2.148289E+02 -7.846935E+02  2.949468E+03  1.976199E-09 -6.567142E-10
       211  17 -2.036295E+05  1.712405E+03 -4.998701E+01  2.182294E+02 -3.483302E-10 -2.656515E-09
       211  18 -1.980761E+05  2.406727E+03 -4.571902E+01  2.751944E+03 -2.322815E-10 -5.491036E-10
       211  19 -2.109420E+05 -1.510043E+02 -1.170395E+03  2.783922E+03 -5.987511E+02  4.690629E+01
       211  20 -2.164948E+05 -1.486835E+03 -3.178323E+03  2.507601E+02 -1.416463E+03 -1.682142E+02
       211  21 -2.223666E+05 -3.627339E+03 -5.922325E+03  2.982558E+03 -2.234178E+03 -3.734016E+02
       211  22 -2.102213E+05  3.191242E+01 -9.775437E+02  2.866695E+03 -6.882346E+02  4.682768E+01
       211  23 -2.100622E+05  1.127867E+02 -1.614151E+03  2.344950E+02 -1.501902E+03 -1.682885E+02
       211  24 -2.102214E+05 -6.102998E+02 -2.984011E+03  2.867252E+03 -2.315581E+03 -3.734713E+02
       211  25 -2.095006E+05  2.148291E+02 -7.846924E+02  2.949468E+03 -7.777183E+02  4.674904E+01
       211  26 -2.036295E+05  1.712406E+03 -4.998222E+01  2.182296E+02 -1.587343E+03 -1.683627E+02
       211  27 -1.980761E+05  2.406728E+03 -4.570796E+01  2.751944E+03 -2.396986E+03 -3.735410E+02
       212   1 -2.327447E+05 -5.259632E+03 -9.177116E+03  2.207373E+03  2.807560E+03  5.138902E+02
       212   2 -2.373712E+05 -5.998767E+03 -1.303072E+04  5.359088E+02  6.086005E+03  7.318326E+02
       212   3 -2.441323E+05 -1.352936E+04 -2.071922E+04  4.111721E+03  9.364465E+03  8.445811E+02
       212   4 -2.106234E+05  2.462751E+02 -3.781000E+03  2.861496E+03  2.916844E+03  5.139860E+02
       212   5 -2.095602E+05  9.164672E+02 -6.269382E+03  2.400956E+02  6.152509E+03  7.318831E+02
       212   6 -2.106242E+05 -5.197215E+03 -1.256282E+04  2.865979E+03  9.388219E+03  8.445786E+02
       212   7 -1.885016E+05  5.752148E+03  1.615081E+03  3.515643E+03  3.026132E+03  5.140820E+02
       212   8 -1.817485E+05  7.831645E+03  4.918988E+02 -5.573111E+01  6.219016E+03  7.319336E+02
       212   9 -1.771150E+05  3.134852E+03 -4.406509E+03  1.620169E+03  9.411974E+03  8.445759E+02
       212  10 -2.327447E+05 -5.259634E+03 -9.177131E+03  2.207372E+03 -3.490731E-10  1.783033E-09
       212  11 -2.373712E+05 -5.998777E+03 -1.303079E+04  5.359053E+02  1.468326E-10  9.279979E-10
       212  12 -2.441324E+05 -1.352938E+04 -2.071938E+04  4.111714E+03  3.213052E-10  9.770988E-10
       212  13 -2.106234E+05  2.462725E+02 -3.781016E+03  2.861495E+03 -1.079612E-09  7.372101E-10
       212  14 -2.095602E+05  9.164564E+02 -6.269455E+03  2.400920E+02  8.514430E-10  1.168383E-09
       212  15 -2.106243E+05 -5.197240E+03 -1.256299E+04  2.865972E+03  1.411094E-09 -5.022528E-10
       212  16 -1.885017E+05  5.752145E+03  1.615063E+03  3.515642E+03  5.125589E-10  3.863734E-11
       212  17 -1.817485E+05  7.831634E+03  4.918251E+02 -5.573478E+01  6.420084E-10 -5.517649E-10
       212  18 -1.771151E+05  3.134828E+03 -4.406677E+03  1.620162E+03 -9.611849E-11 -1.847131E-09
       212  19 -2.327447E+05 -5.259632E+03 -9.177116E+03  2.207373E+03 -2.807560E+03 -5.138902E+02
       212  20 -2.373712E+05 -5.998767E+03 -1.303072E+04  5.359088E+02 -6.086005E+03 -7.318326E+02
       212  21 -2.441323E+05 -1.352936E+04 -2.071922E+04  4.111721E+03 -9.364465E+03 -8.445811E+02
       212  22 -2.106234E+05  2.462751E+02 -3.781000E+03  2.861496E+03 -2.916844E+03 -5.139860E+02
       212  23 -2.095602E+05  9.164672E+02 -6.269382E+03  2.400956E+02 -6.152509E+03 -7.318831E+02
       212  24 -2.106242E+05 -5.197215E+03 -1.256282E+04  2.865979E+03 -9.388219E+03 -8.445786E+02
       212  25 -1.885016E+05  5.752148E+03  1.615081E+03  3.515643E+03 -3.026132E+03 -5.140820E+02
       212  26 -1.817485E+05  7.831645E+03  4.918988E+02 -5.573112E+01 -6.219016E+03 -7.319336E+02
       212  27 -1.771150E+05  3.134852E+03 -4.406509E+03  1.620169E+03 -9.411974E+03 -8.445759E+02
       213   1 -2.570884E+05 -8.754261E+03 -2.588032E+04 -2.293922E+03  1.149631E+04  1.134091E+03
       213   2 -2.548020E+05 -4.649851E+03 -3.601650E+04  3.414036E+03  2.502076E+04  1.372485E+03
       213   3 -2.684295E+05 -5.712540E+04 -6.910613E+04  1.432806E+04  3.854615E+04  4.959861E+02
       213   4 -2.136692E+05  2.053872E+03 -1.531933E+04  2.842846E+03  1.181710E+04  1.134438E+03
       213   5 -2.057545E+05  7.537189E+03 -2.411200E+04  2.566090E+02  2.488758E+04  1.372248E+03
       213   6 -2.136736E+05 -4.347843E+04 -5.554148E+04  2.876460E+03  3.795915E+04  4.948418E+02
       213   7 -1.702481E+05  1.286196E+04 -4.758464E+03  7.979974E+03  1.213790E+04  1.134790E+03
       213   8 -1.567048E+05  1.972409E+04 -1.220768E+04 -2.901069E+03  2.475440E+04  1.372012E+03
       213   9 -1.589148E+05 -2.983119E+04 -4.197698E+04 -8.576147E+03  3.737209E+04  4.937193E+02
       213  10 -2.570886E+05 -8.754298E+03 -2.588057E+04 -2.293933E+03  3.479111E-10  5.421819E-10
       213  11 -2.548027E+05 -4.650021E+03 -3.601768E+04  3.414009E+03 -2.494709E-09 -1.167330E-09
       213  12 -2.684311E+05 -5.712579E+04 -6.910893E+04  1.432804E+04  6.834552E-12 -3.805592E-10
       213  13 -2.136693E+05  2.053833E+03 -1.531959E+04  2.842835E+03  9.302524E-10  9.527807E-10
       213  14 -2.057552E+05  7.537020E+03 -2.411317E+04  2.565815E+02 -1.674813E-09 -2.127833E-09
       213  15 -2.136752E+05 -4.347882E+04 -5.554419E+04  2.876445E+03 -1.268145E-09  1.294281E-09
       213  16 -1.702483E+05  1.286192E+04 -4.758743E+03  7.979963E+03 -2.737358E-10  5.212212E-10
       213  17 -1.567054E+05  1.972392E+04 -1.220883E+04 -2.901096E+03  2.051424E-10 -8.743046E-10
       213  18 -1.589163E+05 -2.983157E+04 -4.197961E+04 -8.576161E+03  7.023263E-10 -2.888864E-10
       213  19 -2.570884E+05 -8.754261E+03 -2.588032E+04 -2.293922E+03 -1.149631E+04 -1.134091E+03
       213  20 -2.548020E+05 -4.649851E+03 -3.601650E+04  3.414036E+03 -2.502076E+04 -1.372485E+03
       213  21 -2.684295E+05 -5.712540E+04 -6.910613E+04  1.432806E+04 -3.854615E+04 -4.959861E+02
       213  22 -2.136692E+05  2.053872E+03 -1.531933E+04  2.842846E+03 -1.181710E+04 -1.134438E+03
       213  23 -2.057545E+05  7.537189E+03 -2.411200E+04  2.566090E+02 -2.488758E+04 -1.372248E+03
       213  24 -2.136736E+05 -4.347843E+04 -5.554148E+04  2.876460E+03 -3.795915E+04 -4.948418E+02
       213  25 -1.702481E+05  1.286196E+04 -4.758464E+03  7.979974E+03 -1.213790E+04 -1.134790E+03
       213  26 -1.567048E+05  1.972409E+04 -1.220768E+04 -2.901069E+03 -2.475440E+04 -1.372012E+03
       213  27 -1.589148E+05 -2.983119E+04 -4.197698E+04 -8.576147E+03 -3.737209E+04 -4.937193E+02
       214   1  8.683339E+04  4.827537E+05  9.342051E+04 -4.694781E+04  2.347231E+03  3.288534E+04
       214   2  3.818125E+04  4.267897E+05  5.690242E+04 -2.534883E+04  6.722547E+03  1.705934E+04
       214   3  2.523299E+04  3.817984E+05  3.960614E+04 -2.618145E+04  5.297928E+03  1.232141E+03
       214   4  3.449429E+04  2.723339E+05  4.212694E+04 -3.114001E+04  2.350546E+03  2.677119E+04
       214   5 -9.517361E+02  2.672743E+05  2.071916E+04 -1.993192E+04  6.723368E+03  1.582303E+04
       214   6 -1.535004E+03  2.723429E+05  1.515144E+04 -3.115498E+04  5.296118E+03  4.872396E+03
       214   7 -1.784712E+04  6.195507E+04 -9.169583E+03 -1.533756E+04  2.353551E+03  2.065910E+04
       214   8 -4.008636E+04  1.077825E+05 -1.546573E+04 -1.451642E+04  6.724167E+03  1.458703E+04
       214   9 -2.830371E+04  1.628986E+05 -9.303943E+03 -3.612762E+04  5.294250E+03  8.512017E+03
       214  10  8.683309E+04  4.827525E+05  9.341847E+04 -4.694788E+04 -2.501056E-10 -7.317756E-10
       214  11  3.818112E+04  4.267894E+05  5.690179E+04 -2.534893E+04  1.787640E-10 -5.967664E-10
       214  12  2.523295E+04  3.817983E+05  3.960608E+04 -2.618145E+04 -9.619569E-10  6.358895E-10
       214  13  3.449409E+04  2.723331E+05  4.212558E+04 -3.114006E+04 -1.450561E-11 -3.839090E-10
       214  14 -9.518518E+02  2.672740E+05  2.071860E+04 -1.993201E+04 -5.776914E-10  4.802374E-10
       214  15 -1.535040E+03  2.723428E+05  1.515134E+04 -3.115500E+04  1.764526E-09 -2.017361E-11
       214  16 -1.784724E+04  6.195461E+04 -9.170395E+03 -1.533760E+04 -5.232322E-10  5.390639E-10
       214  17 -4.008647E+04  1.077823E+05 -1.546622E+04 -1.451650E+04  1.229894E-09 -7.075983E-10
       214  18 -2.830376E+04  1.628985E+05 -9.304132E+03 -3.612766E+04  2.360075E-09 -1.471075E-09
       214  19  8.683339E+04  4.827537E+05  9.342051E+04 -4.694781E+04 -2.347231E+03 -3.288534E+04
       214  20  3.818125E+04  4.267897E+05  5.690242E+04 -2.534883E+04 -6.722547E+03 -1.705934E+04
       214  21  2.523299E+04  3.817984E+05  3.960614E+04 -2.618145E+04 -5.297928E+03 -1.232141E+03
       214  22  3.449429E+04  2.723339E+05  4.212694E+04 -3.114001E+04 -2.350546E+03 -2.677119E+04
       214  23 -9.517361E+02  2.672743E+05  2.071916E+04 -1.993192E+04 -6.723368E+03 -1.582303E+04
       214  24 -1.535004E+03  2.723429E+05  1.515144E+04 -3.115498E+04 -5.296118E+03 -4.872396E+03
       214  25 -1.784712E+04  6.195507E+04 -9.169583E+03 -1.533756E+04 -2.353551E+03 -2.065910E+04
       214  26 -4.008636E+04  1.077825E+05 -1.546573E+04 -1.451642E+04 -6.724167E+03 -1.458703E+04
       214  27 -2.830371E+04  1.628986E+05 -9.303943E+03 -3.612762E+04 -5.294250E+03 -8.512017E+03
       215   1  1.807319E+04  3.367301E+05  2.908098E+04 -3.275200E+04  3.113411E+03  4.799642E+02
       215   2  3.539373E+03  2.850484E+05  1.780133E+04 -1.970515E+04  7.623591E+02 -6.750689E+03
       215   3 -4.306362E+03  2.359549E+05  1.289330E+04 -2.930150E+04 -1.623773E+03 -1.398086E+04
       215   4  1.901513E+03  2.706666E+05  1.427329E+04 -3.119804E+04  3.112392E+03  2.443893E+03
       215   5 -2.942407E+02  2.693762E+05  1.429950E+04 -1.987589E+04  7.613098E+02 -4.757067E+03
       215   6  4.193149E+03  2.706665E+05  2.067691E+04 -3.119683E+04 -1.624822E+03 -1.195812E+04
       215   7 -1.427045E+04  2.046071E+05 -5.346723E+02 -2.964424E+04  3.111383E+03  4.407615E+03
       215   8 -4.127868E+03  2.537042E+05  1.079767E+04 -2.004662E+04  7.602594E+02 -2.763494E+03
       215   9  1.269259E+04  3.053791E+05  2.846047E+04 -3.309226E+04 -1.625883E+03 -9.935261E+03
       215  10  1.807318E+04  3.367301E+05  2.908096E+04 -3.275200E+04 -1.191563E-09 -2.616226E-10
       215  11  3.539360E+03  2.850483E+05  1.780125E+04 -1.970515E+04  1.276361E-09 -1.219942E-09
       215  12 -4.306417E+03  2.359547E+05  1.289293E+04 -2.930152E+04 -6.407744E-10 -1.163098E-09
       215  13  1.901501E+03  2.706666E+05  1.427326E+04 -3.119805E+04  2.388126E-09 -5.392638E-10
       215  14 -2.942473E+02  2.693761E+05  1.429946E+04 -1.987589E+04  1.895413E-09  4.647644E-10
       215  15  4.193108E+03  2.706663E+05  2.067664E+04 -3.119684E+04 -6.604932E-10 -1.709552E-10
       215  16 -1.427047E+04  2.046071E+05 -5.347270E+02 -2.964425E+04  2.914045E-09  8.367620E-11
       215  17 -4.127871E+03  2.537042E+05  1.079765E+04 -2.004662E+04 -1.701631E-09 -3.690880E-10
       215  18  1.269256E+04  3.053790E+05  2.846027E+04 -3.309228E+04 -7.333272E-10  2.183766E-10
       215  19  1.807319E+04  3.367301E+05  2.908098E+04 -3.275200E+04 -3.113411E+03 -4.799642E+02
       215  20  3.539373E+03  2.850484E+05  1.780133E+04 -1.970515E+04 -7.623591E+02  6.750689E+03
       215  21 -4.306362E+03  2.359549E+05  1.289330E+04 -2.930150E+04  1.623773E+03  1.398086E+04
       215  22  1.901513E+03  2.706666E+05  1.427329E+04 -3.119804E+04 -3.112392E+03 -2.443893E+03
       215  23 -2.942407E+02  2.693762E+05  1.429950E+04 -1.987589E+04 -7.613098E+02  4.757067E+03
       215  24  4.193149E+03  2.706665E+05  2.067691E+04 -3.119683E+04  1.624822E+03  1.195812E+04
       215  25 -1.427045E+04  2.046071E+05 -5.346723E+02 -2.964424E+04 -3.111383E+03 -4.407615E+03
       215  26 -4.127868E+03  2.537042E+05  1.079767E+04 -2.004662E+04 -7.602594E+02  2.763494E+03
       215  27  1.269259E+04  3.053791E+05  2.846047E+04 -3.309226E+04  1.625883E+03  9.935261E+03
       216   1 -2.258657E+04  1.965025E+05  7.110572E+03 -4.134407E+04 -3.730845E+03 -1.906714E+04
       216   2 -3.334996E+04  1.363217E+05  1.001024E+04 -9.155100E+03 -5.327541E+03 -3.561598E+04
       216   3  2.523967E+04  9.562194E+04  4.101874E+04  5.853938E+02 -1.913786E+03 -5.216088E+04
       216   4 -3.494116E+03  2.745830E+05  2.457674E+04 -3.116299E+04 -3.732957E+03 -1.561587E+04
       216   5 -1.890514E+03  2.644755E+05  3.912117E+04 -1.992327E+04 -5.326485E+03 -3.637896E+04
       216   6  6.978756E+04  2.745705E+05  8.469494E+04 -3.113019E+04 -1.908910E+03 -5.713950E+04
       216   7  1.559832E+04  3.526695E+05  4.204263E+04 -2.098061E+04 -3.734955E+03 -1.216417E+04
       216   8  2.956823E+04  3.926449E+05  6.823109E+04 -3.069367E+04 -5.325404E+03 -3.714210E+04
       216   9  1.143369E+05  4.535504E+05  1.283694E+05 -6.285493E+04 -1.903526E+03 -6.211955E+04
       216  10 -2.258668E+04  1.965021E+05  7.109863E+03 -4.134412E+04  2.435407E-10 -3.968255E-10
       216  11 -3.335033E+04  1.363203E+05  1.000780E+04 -9.155253E+03 -2.619121E-10 -1.040428E-09
       216  12  2.523894E+04  9.561902E+04  4.101362E+04  5.853134E+02  1.498312E-10 -3.443004E-10
       216  13 -3.494196E+03  2.745828E+05  2.457626E+04 -3.116303E+04 -6.588352E-10 -4.336803E-10
       216  14 -1.890900E+03  2.644741E+05  3.911863E+04 -1.992342E+04 -1.979168E-09  4.445852E-10
       216  15  6.978668E+04  2.745670E+05  8.468880E+04 -3.113028E+04 -7.428906E-10 -8.781016E-12
       216  16  1.559826E+04  3.526694E+05  4.204232E+04 -2.098065E+04 -8.445896E-10  1.595261E-10
       216  17  2.956783E+04  3.926434E+05  6.822845E+04 -3.069383E+04  9.322363E-10 -4.336795E-10
       216  18  1.143358E+05  4.535462E+05  1.283622E+05 -6.285502E+04 -4.161730E-10 -3.869268E-10
       216  19 -2.258657E+04  1.965025E+05  7.110572E+03 -4.134407E+04  3.730845E+03  1.906714E+04
       216  20 -3.334996E+04  1.363217E+05  1.001024E+04 -9.155100E+03  5.327541E+03  3.561598E+04
       216  21  2.523967E+04  9.562194E+04  4.101874E+04  5.853938E+02  1.913786E+03  5.216088E+04
       216  22 -3.494116E+03  2.745830E+05  2.457674E+04 -3.116299E+04  3.732957E+03  1.561587E+04
       216  23 -1.890514E+03  2.644755E+05  3.912117E+04 -1.992327E+04  5.326485E+03  3.637896E+04
       216  24  6.978756E+04  2.745705E+05  8.469494E+04 -3.113019E+04  1.908910E+03  5.713950E+04
       216  25  1.559832E+04  3.526695E+05  4.204263E+04 -2.098061E+04  3.734955E+03  1.216417E+04
       216  26  2.956823E+04  3.926449E+05  6.823109E+04 -3.069367E+04  5.325404E+03  3.714210E+04
       216  27  1.143369E+05  4.535504E+05  1.283694E+05 -6.285493E+04  1.903526E+03  6.211955E+04
       217   1  5.885945E+04  8.535897E+03 -2.855022E+02  2.206338E+04 -1.416905E+03 -5.374183E+02
       217   2  5.946504E+04  1.038271E+04  1.036715E+03  2.139903E+04 -9.094859E+02 -3.568640E+02
       217   3  5.902617E+04  1.010711E+04  1.366135E+03  2.150493E+04 -4.067100E+02 -1.639561E+02
       217   4  5.175998E+04  5.879536E+03 -2.236483E+03  2.015760E+04 -1.417228E+03 -5.375393E+02
       217   5  5.239167E+04  7.717333E+03 -9.107099E+02  1.948092E+04 -9.095362E+02 -3.568828E+02
       217   6  5.197882E+04  7.432657E+03 -5.779587E+02  1.957450E+04 -4.064881E+02 -1.638727E+02
       217   7  4.466056E+04  3.223179E+03 -4.187467E+03  1.825184E+04 -1.417550E+03 -5.376604E+02
       217   8  4.531835E+04  5.051962E+03 -2.858139E+03  1.756283E+04 -9.095862E+02 -3.569017E+02
       217   9  4.493151E+04  4.758212E+03 -2.522057E+03  1.764409E+04 -4.062659E+02 -1.637893E+02
       217  10  5.885945E+04  8.535896E+03 -2.855053E+02  2.206337E+04 -9.976543E-06 -7.066648E-06
       217  11  5.946507E+04  1.038271E+04  1.036719E+03  2.139900E+04 -4.691582E-05 -3.137238E-05
       217  12  5.902621E+04  1.010711E+04  1.366145E+03  2.150488E+04 -8.543152E-05 -5.476707E-05
       217  13  5.175997E+04  5.879535E+03 -2.236487E+03  2.015760E+04 -3.094827E-05 -8.129480E-06
       217  14  5.239167E+04  7.717333E+03 -9.107118E+02  1.948092E+04 -1.373078E-04 -3.605996E-05
       217  15  5.197882E+04  7.432657E+03 -5.779593E+02  1.957450E+04 -2.436656E-04 -6.397442E-05
       217  16  4.466055E+04  3.223178E+03 -4.187472E+03  1.825185E+04 -1.201888E-05 -6.793964E-06
       217  17  4.531832E+04  5.051960E+03 -2.858146E+03  1.756285E+04 -5.067973E-05 -3.010335E-05
       217  18  4.493147E+04  4.758208E+03 -2.522068E+03  1.764414E+04 -8.775986E-05 -5.429222E-05
       217  19  5.885946E+04  8.535898E+03 -2.854998E+02  2.206337E+04  1.416905E+03  5.374183E+02
       217  20  5.946510E+04  1.038271E+04  1.036726E+03  2.139898E+04  9.094858E+02  3.568639E+02
       217  21  5.902626E+04  1.010711E+04  1.366155E+03  2.150484E+04  4.067099E+02  1.639560E+02
       217  22  5.175998E+04  5.879536E+03 -2.236483E+03  2.015760E+04  1.417227E+03  5.375393E+02
       217  23  5.239167E+04  7.717334E+03 -9.107101E+02  1.948092E+04  9.095359E+02  3.568827E+02
       217  24  5.197882E+04  7.432657E+03 -5.779591E+02  1.957450E+04  4.064876E+02  1.638726E+02
       217  25  4.466055E+04  3.223178E+03 -4.187469E+03  1.825186E+04  1.417550E+03  5.376604E+02
       217  26  4.531830E+04  5.051958E+03 -2.858150E+03  1.756288E+04  9.095861E+02  3.569016E+02
       217  27  4.493142E+04  4.758204E+03 -2.522077E+03  1.764418E+04  4.062657E+02  1.637892E+02
       218   1  5.565621E+04  8.501606E+03  5.111491E+02  2.067811E+04 -3.191553E+02 -1.272073E+02
       218   2  5.577495E+04  8.763683E+03  7.763439E+02  2.054192E+04 -2.064663E+02 -8.428931E+01
       218   3  5.567386E+04  8.745971E+03  8.611301E+02  2.058769E+04 -9.401090E+01 -4.074373E+01
       218   4  5.206428E+04  7.148326E+03 -4.777367E+02  1.970432E+04 -3.191497E+02 -1.272052E+02
       218   5  5.219146E+04  7.410604E+03 -2.108210E+02  1.956735E+04 -2.064472E+02 -8.428208E+01
       218   6  5.209881E+04  7.393087E+03 -1.243254E+02  1.961235E+04 -9.397831E+01 -4.073145E+01
       218   7  4.847236E+04  5.795047E+03 -1.466624E+03  1.873053E+04 -3.191437E+02 -1.272030E+02
       218   8  4.860799E+04  6.057526E+03 -1.197987E+03  1.859279E+04 -2.064278E+02 -8.427484E+01
       218   9  4.852378E+04  6.040205E+03 -1.109782E+03  1.863702E+04 -9.394547E+01 -4.071914E+01
       218  10  5.565626E+04  8.501610E+03  5.111595E+02  2.067806E+04 -9.427131E-05 -5.904977E-05
       218  11  5.577499E+04  8.763685E+03  7.763527E+02  2.054188E+04 -8.245603E-05 -5.026897E-05
       218  12  5.567389E+04  8.745971E+03  8.611372E+02  2.058766E+04 -7.006462E-05 -4.174985E-05
       218  13  5.206428E+04  7.148326E+03 -4.777368E+02  1.970432E+04 -2.642550E-04 -6.965602E-05
       218  14  5.219146E+04  7.410604E+03 -2.108210E+02  1.956735E+04 -2.286666E-04 -6.125727E-05
       218  15  5.209881E+04  7.393087E+03 -1.243253E+02  1.961235E+04 -1.930856E-04 -5.283595E-05
       218  16  4.847231E+04  5.795043E+03 -1.466635E+03  1.873058E+04 -9.375738E-05 -5.889388E-05
       218  17  4.860794E+04  6.057523E+03 -1.197996E+03  1.859284E+04 -8.098579E-05 -5.061140E-05
       218  18  4.852375E+04  6.040204E+03 -1.109789E+03  1.863706E+04 -6.880547E-05 -4.201952E-05
       218  19  5.565631E+04  8.501614E+03  5.111704E+02  2.067801E+04  3.191551E+02  1.272072E+02
       218  20  5.577503E+04  8.763687E+03  7.763617E+02  2.054183E+04  2.064662E+02  8.428921E+01
       218  21  5.567393E+04  8.745971E+03  8.611443E+02  2.058762E+04  9.401076E+01  4.074365E+01
       218  22  5.206428E+04  7.148326E+03 -4.777365E+02  1.970432E+04  3.191492E+02  1.272050E+02
       218  23  5.219146E+04  7.410604E+03 -2.108209E+02  1.956735E+04  2.064467E+02  8.428196E+01
       218  24  5.209881E+04  7.393087E+03 -1.243253E+02  1.961235E+04  9.397792E+01  4.073134E+01
       218  25  4.847226E+04  5.795039E+03 -1.466645E+03  1.873063E+04  3.191435E+02  1.272029E+02
       218  26  4.860790E+04  6.057521E+03 -1.198005E+03  1.859288E+04  2.064276E+02  8.427474E+01
       218  27  4.852371E+04  6.040204E+03 -1.109796E+03  1.863709E+04  9.394533E+01  4.071906E+01
       219   1  5.387620E+04  8.006522E+03  3.868297E+02  2.010520E+04 -7.579079E+01 -3.288542E+01
       219   2  5.390700E+04  8.031257E+03  4.459478E+02  2.006613E+04 -5.640209E+01 -2.431280E+01
       219   3  5.387447E+04  8.045736E+03  4.762220E+02  2.008859E+04 -3.678644E+01 -1.634379E+01
       219   4  5.211802E+04  7.342658E+03 -9.749201E+01  1.962705E+04 -7.575863E+01 -3.287331E+01
       219   5  5.215259E+04  7.368369E+03 -3.744168E+01  1.958855E+04 -5.638354E+01 -2.430580E+01
       219   6  5.212383E+04  7.383829E+03 -6.224542E+00  1.961157E+04 -3.678148E+01 -1.634191E+01
       219   7  5.035984E+04  6.678793E+03 -5.818140E+02  1.914890E+04 -7.572626E+01 -3.286117E+01
       219   8  5.039819E+04  6.705482E+03 -5.208315E+02  1.911097E+04 -5.636481E+01 -2.429879E+01
       219   9  5.037320E+04  6.721923E+03 -4.886714E+02  1.913456E+04 -3.677640E+01 -1.634002E+01
       219  10  5.387623E+04  8.006522E+03  3.868358E+02  2.010517E+04 -6.272771E-05 -3.696371E-05
       219  11  5.390702E+04  8.031256E+03  4.459525E+02  2.006611E+04 -5.030116E-05 -2.896498E-05
       219  12  5.387448E+04  8.045734E+03  4.762252E+02  2.008857E+04 -3.773079E-05 -2.104871E-05
       219  13  5.211802E+04  7.342658E+03 -9.749197E+01  1.962705E+04 -1.724748E-04 -4.770945E-05
       219  14  5.215259E+04  7.368369E+03 -3.744163E+01  1.958855E+04 -1.372229E-04 -3.852501E-05
       219  15  5.212383E+04  7.383829E+03 -6.224491E+00  1.961157E+04 -1.019732E-04 -2.934143E-05
       219  16  5.035981E+04  6.678794E+03 -5.818201E+02  1.914893E+04 -6.172510E-05 -3.719533E-05
       219  17  5.039816E+04  6.705483E+03 -5.208362E+02  1.911099E+04 -4.915882E-05 -2.930576E-05
       219  18  5.037319E+04  6.721925E+03 -4.886746E+02  1.913458E+04 -3.673951E-05 -2.133304E-05
       219  19  5.387626E+04  8.006522E+03  3.868420E+02  2.010514E+04  7.579066E+01  3.288535E+01
       219  20  5.390705E+04  8.031255E+03  4.459572E+02  2.006608E+04  5.640199E+01  2.431274E+01
       219  21  5.387450E+04  8.045733E+03  4.762284E+02  2.008855E+04  3.678637E+01  1.634375E+01
       219  22  5.211802E+04  7.342658E+03 -9.749190E+01  1.962705E+04  7.575829E+01  3.287321E+01
       219  23  5.215259E+04  7.368369E+03 -3.744158E+01  1.958855E+04  5.638326E+01  2.430572E+01
       219  24  5.212383E+04  7.383829E+03 -6.224434E+00  1.961157E+04  3.678128E+01  1.634186E+01
       219  25  5.035978E+04  6.678794E+03 -5.818263E+02  1.914896E+04  7.572614E+01  3.286110E+01
       219  26  5.039814E+04  6.705484E+03 -5.208408E+02  1.911102E+04  5.636471E+01  2.429873E+01
       219  27  5.037317E+04  6.721926E+03 -4.886779E+02  1.913460E+04  3.677632E+01  1.633998E+01
       220   1  5.286528E+04  7.648181E+03  2.092832E+02  1.981283E+04 -3.697660E+01 -1.604048E+01
       220   2  5.287271E+04  7.637765E+03  2.430102E+02  1.979546E+04 -5.816844E+01 -2.314388E+01
       220   3  5.286478E+04  7.670797E+03  2.972614E+02  1.980237E+04 -7.922007E+01 -3.061973E+01
       220   4  5.213093E+04  7.370564E+03  6.930997E+00  1.961277E+04 -3.695544E+01 -1.603251E+01
       220   5  5.214033E+04  7.361007E+03  4.121113E+01  1.959605E+04 -5.815562E+01 -2.313905E+01
       220   6  5.213437E+04  7.394899E+03  9.602208E+01  1.960362E+04 -7.921558E+01 -3.061804E+01
       220   7  5.139659E+04  7.092946E+03 -1.954213E+02  1.941271E+04 -3.693417E+01 -1.602453E+01
       220   8  5.140795E+04  7.084249E+03 -1.605880E+02  1.939665E+04 -5.814271E+01 -2.313421E+01
       220   9  5.140396E+04  7.119001E+03 -1.052173E+02  1.940487E+04 -7.921104E+01 -3.061634E+01
       220  10  5.286529E+04  7.648179E+03  2.092858E+02  1.981281E+04 -3.139863E-05 -1.725318E-05
       220  11  5.287272E+04  7.637764E+03  2.430120E+02  1.979545E+04 -2.255578E-05 -1.215686E-05
       220  12  5.286479E+04  7.670795E+03  2.972624E+02  1.980236E+04 -1.372644E-05 -7.060542E-06
       220  13  5.213093E+04  7.370564E+03  6.931027E+00  1.961277E+04 -8.466744E-05 -2.467524E-05
       220  14  5.214033E+04  7.361007E+03  4.121115E+01  1.959605E+04 -6.045285E-05 -1.781076E-05
       220  15  5.213437E+04  7.394899E+03  9.602210E+01  1.960362E+04 -3.623505E-05 -1.095528E-05
       220  16  5.139657E+04  7.092948E+03 -1.954238E+02  1.941272E+04 -3.067969E-05 -1.753444E-05
       220  17  5.140794E+04  7.084250E+03 -1.605898E+02  1.939666E+04 -2.192231E-05 -1.242035E-05
       220  18  5.140395E+04  7.119002E+03 -1.052183E+02  1.940488E+04 -1.315242E-05 -7.313343E-06
       220  19  5.286531E+04  7.648177E+03  2.092883E+02  1.981280E+04  3.697654E+01  1.604044E+01
       220  20  5.287274E+04  7.637762E+03  2.430137E+02  1.979544E+04  5.816840E+01  2.314385E+01
       220  21  5.286479E+04  7.670794E+03  2.972634E+02  1.980236E+04  7.922005E+01  3.061972E+01
       220  22  5.213093E+04  7.370564E+03  6.931062E+00  1.961277E+04  3.695527E+01  1.603246E+01
       220  23  5.214033E+04  7.361007E+03  4.121120E+01  1.959605E+04  5.815549E+01  2.313901E+01
       220  24  5.213437E+04  7.394899E+03  9.602215E+01  1.960362E+04  7.921551E+01  3.061802E+01
       220  25  5.139656E+04  7.092950E+03 -1.954264E+02  1.941274E+04  3.693411E+01  1.602449E+01
       220  26  5.140793E+04  7.084252E+03 -1.605916E+02  1.939667E+04  5.814267E+01  2.313418E+01
       220  27  5.140395E+04  7.119004E+03 -1.052192E+02  1.940489E+04  7.921102E+01  3.061632E+01
       221   1  5.218202E+04  7.388690E+03  1.382608E+02  1.962634E+04 -9.796095E+01 -3.744261E+01
       221   2  5.215913E+04  7.349349E+03  2.375243E+02  1.961184E+04 -2.151377E+02 -8.093755E+01
       221   3  5.219767E+04  7.506024E+03  4.716997E+02  1.957804E+04 -3.322940E+02 -1.244932E+02
       221   4  5.214357E+04  7.373169E+03  1.274766E+02  1.961485E+04 -9.794933E+01 -3.743823E+01
       221   5  5.212137E+04  7.335376E+03  2.271778E+02  1.960186E+04 -2.151274E+02 -8.093368E+01
       221   6  5.216059E+04  7.493598E+03  4.617920E+02  1.956957E+04 -3.322850E+02 -1.244898E+02
       221   7  5.210513E+04  7.357648E+03  1.166924E+02  1.960336E+04 -9.793767E+01 -3.743386E+01
       221   8  5.208360E+04  7.321402E+03  2.168313E+02  1.959189E+04 -2.151171E+02 -8.092980E+01
       221   9  5.212350E+04  7.481171E+03  4.518843E+02  1.956111E+04 -3.322761E+02 -1.244864E+02
       221  10  5.218202E+04  7.388689E+03  1.382614E+02  1.962633E+04 -8.996843E-06 -4.495113E-06
       221  11  5.215913E+04  7.349349E+03  2.375244E+02  1.961184E+04 -1.712989E-06 -8.191496E-07
       221  12  5.219767E+04  7.506025E+03  4.716992E+02  1.957804E+04  5.543941E-06  2.869886E-06
       221  13  5.214357E+04  7.373169E+03  1.274766E+02  1.961485E+04 -2.357305E-05 -7.196110E-06
       221  14  5.212137E+04  7.335376E+03  2.271778E+02  1.960186E+04 -4.272358E-06 -1.139630E-06
       221  15  5.216059E+04  7.493598E+03  4.617918E+02  1.956957E+04  1.502960E-05  4.915422E-06
       221  16  5.210512E+04  7.357649E+03  1.166918E+02  1.960337E+04 -8.544057E-06 -4.766280E-06
       221  17  5.208360E+04  7.321402E+03  2.168311E+02  1.959189E+04 -1.336291E-06 -1.072279E-06
       221  18  5.212351E+04  7.481170E+03  4.518843E+02  1.956110E+04  5.897565E-06  2.605560E-06
       221  19  5.218203E+04  7.388688E+03  1.382620E+02  1.962633E+04  9.796094E+01  3.744260E+01
       221  20  5.215913E+04  7.349349E+03  2.375247E+02  1.961184E+04  2.151377E+02  8.093755E+01
       221  21  5.219767E+04  7.506026E+03  4.716992E+02  1.957804E+04  3.322940E+02  1.244932E+02
       221  22  5.214357E+04  7.373169E+03  1.274767E+02  1.961485E+04  9.794928E+01  3.743822E+01
       221  23  5.212137E+04  7.335376E+03  2.271779E+02  1.960186E+04  2.151274E+02  8.093367E+01
       221  24  5.216059E+04  7.493598E+03  4.617921E+02  1.956957E+04  3.322851E+02  1.244898E+02
       221  25  5.210512E+04  7.357649E+03  1.166912E+02  1.960337E+04  9.793765E+01  3.743385E+01
       221  26  5.208360E+04  7.321402E+03  2.168310E+02  1.959189E+04  2.151171E+02  8.092980E+01
       221  27  5.212351E+04  7.481169E+03  4.518848E+02  1.956110E+04  3.322761E+02  1.244865E+02
       222   1  5.157014E+04  7.132342E+03  4.152863E+02  1.948046E+04 -4.202223E+02 -1.573147E+02
       222   2  5.139342E+04  6.929386E+03  8.252195E+02  1.945479E+04 -9.431262E+02 -3.534171E+02
       222   3  5.168769E+04  7.888892E+03  1.934599E+03  1.917517E+04 -1.466093E+03 -5.493613E+02
       222   4  5.220313E+04  7.365304E+03  5.884564E+02  1.964640E+04 -4.202150E+02 -1.573120E+02
       222   5  5.202207E+04  7.169429E+03  9.989333E+02  1.962850E+04 -9.431158E+02 -3.534132E+02
       222   6  5.231201E+04  8.136016E+03  2.108854E+03  1.935666E+04 -1.466079E+03 -5.493563E+02
       222   7  5.283611E+04  7.598266E+03  7.616265E+02  1.981234E+04 -4.202077E+02 -1.573092E+02
       222   8  5.265072E+04  7.409473E+03  1.172647E+03  1.980221E+04 -9.431054E+02 -3.534093E+02
       222   9  5.293633E+04  8.383139E+03  2.283108E+03  1.953814E+04 -1.466066E+03 -5.493513E+02
       222  10  5.157014E+04  7.132344E+03  4.152854E+02  1.948046E+04  9.968624E-06  4.971931E-06
       222  11  5.139341E+04  6.929389E+03  8.252169E+02  1.945480E+04  1.786218E-05  8.424938E-06
       222  12  5.168768E+04  7.888897E+03  1.934594E+03  1.917519E+04  2.576879E-05  1.183374E-05
       222  13  5.220313E+04  7.365304E+03  5.884561E+02  1.964640E+04  2.654691E-05  8.721373E-06
       222  14  5.202207E+04  7.169429E+03  9.989315E+02  1.962850E+04  4.683314E-05  1.574583E-05
       222  15  5.231201E+04  8.136015E+03  2.108849E+03  1.935666E+04  6.711603E-05  2.276969E-05
       222  16  5.283611E+04  7.598264E+03  7.616266E+02  1.981234E+04  1.027368E-05  4.652380E-06
       222  17  5.265073E+04  7.409468E+03  1.172646E+03  1.980221E+04  1.813369E-05  8.078647E-06
       222  18  5.293634E+04  8.383133E+03  2.283104E+03  1.953813E+04  2.598085E-05  1.155207E-05
       222  19  5.157014E+04  7.132346E+03  4.152854E+02  1.948047E+04  4.202223E+02  1.573147E+02
       222  20  5.139340E+04  6.929393E+03  8.252182E+02  1.945481E+04  9.431262E+02  3.534171E+02
       222  21  5.168767E+04  7.888904E+03  1.934597E+03  1.917520E+04  1.466093E+03  5.493613E+02
       222  22  5.220313E+04  7.365304E+03  5.884565E+02  1.964640E+04  4.202151E+02  1.573120E+02
       222  23  5.202207E+04  7.169429E+03  9.989334E+02  1.962850E+04  9.431159E+02  3.534132E+02
       222  24  5.231201E+04  8.136016E+03  2.108854E+03  1.935666E+04  1.466079E+03  5.493563E+02
       222  25  5.283612E+04  7.598262E+03  7.616274E+02  1.981233E+04  4.202077E+02  1.573092E+02
       222  26  5.265073E+04  7.409465E+03  1.172648E+03  1.980220E+04  9.431054E+02  3.534093E+02
       222  27  5.293635E+04  8.383128E+03  2.283110E+03  1.953812E+04  1.466066E+03  5.493513E+02
       223   1  5.094843E+04  6.729723E+03  2.191516E+03  1.943955E+04 -1.863503E+03 -6.982335E+02
       223   2  4.983941E+04  5.506104E+03  3.877379E+03  1.936684E+04 -4.175240E+03 -1.566411E+03
       223   3  5.172241E+04  1.158014E+04  9.269419E+03  1.748752E+04 -6.486871E+03 -2.434820E+03
       223   4  5.256152E+04  7.299953E+03  2.628126E+03  1.983836E+04 -1.863487E+03 -6.982275E+02
       223   5  5.141409E+04  6.119122E+03  4.314852E+03  1.981402E+04 -4.175235E+03 -1.566409E+03
       223   6  5.325866E+04  1.223593E+04  9.707756E+03  1.798307E+04 -6.486877E+03 -2.434823E+03
       223   7  5.417462E+04  7.870183E+03  3.064735E+03  2.023718E+04 -1.863472E+03 -6.982216E+02
       223   8  5.298876E+04  6.732139E+03  4.752324E+03  2.026120E+04 -4.175231E+03 -1.566408E+03
       223   9  5.479491E+04  1.289173E+04  1.014609E+04  1.847863E+04 -6.486884E+03 -2.434827E+03
       223  10  5.094841E+04  6.729728E+03  2.191508E+03  1.943956E+04  3.024745E-05  1.366985E-05
       223  11  4.983938E+04  5.506107E+03  3.877341E+03  1.936685E+04  3.767439E-05  1.643462E-05
       223  12  5.172235E+04  1.158013E+04  9.269328E+03  1.748753E+04  4.517782E-05  1.898845E-05
       223  13  5.256152E+04  7.299951E+03  2.628118E+03  1.983836E+04  7.839652E-05  2.685529E-05
       223  14  5.141407E+04  6.119114E+03  4.314815E+03  1.981401E+04  9.687639E-05  3.387058E-05
       223  15  5.325861E+04  1.223591E+04  9.707666E+03  1.798306E+04  1.153613E-04  4.088621E-05
       223  16  5.417463E+04  7.870174E+03  3.064729E+03  2.023716E+04  3.040599E-05  1.331017E-05
       223  17  5.298876E+04  6.732122E+03  4.752288E+03  2.026118E+04  3.781846E-05  1.601337E-05
       223  18  5.479488E+04  1.289170E+04  1.014600E+04  1.847859E+04  4.515741E-05  1.892104E-05
       223  19  5.094840E+04  6.729737E+03  2.191514E+03  1.943957E+04  1.863503E+03  6.982335E+02
       223  20  4.983938E+04  5.506124E+03  3.877377E+03  1.936687E+04  4.175240E+03  1.566411E+03
       223  21  5.172238E+04  1.158016E+04  9.269417E+03  1.748756E+04  6.486871E+03  2.434820E+03
       223  22  5.256152E+04  7.299953E+03  2.628126E+03  1.983836E+04  1.863487E+03  6.982276E+02
       223  23  5.141409E+04  6.119122E+03  4.314852E+03  1.981402E+04  4.175236E+03  1.566409E+03
       223  24  5.325866E+04  1.223593E+04  9.707756E+03  1.798307E+04  6.486877E+03  2.434823E+03
       223  25  5.417464E+04  7.870169E+03  3.064737E+03  2.023715E+04  1.863472E+03  6.982216E+02
       223  26  5.298879E+04  6.732120E+03  4.752326E+03  2.026117E+04  4.175231E+03  1.566408E+03
       223  27  5.479494E+04  1.289170E+04  1.014609E+04  1.847859E+04  6.486884E+03  2.434827E+03
       224   1  5.129659E+04  5.781994E+03  1.085246E+04  2.032711E+04 -8.293711E+03 -3.111917E+03
       224   2  4.446875E+04 -1.858891E+03  1.751244E+04  2.006490E+04 -1.850582E+04 -6.946951E+03
       224   3  5.626671E+04  3.671400E+04  4.442172E+04  7.880621E+03 -2.871635E+04 -1.078668E+04
       224   4  5.474991E+04  6.839145E+03  1.175443E+04  2.101290E+04 -8.293633E+03 -3.111884E+03
       224   5  4.765842E+04 -5.296040E+02  1.841608E+04  2.106063E+04 -1.850590E+04 -6.946985E+03
       224   6  5.919266E+04  3.831532E+04  4.532708E+04  9.186334E+03 -2.871657E+04 -1.078679E+04
       224   7  5.820324E+04  7.896296E+03  1.265640E+04  2.169870E+04 -8.293556E+03 -3.111851E+03
       224   8  5.084810E+04  7.996845E+02  1.931972E+04  2.205637E+04 -1.850597E+04 -6.947019E+03
       224   9  6.211861E+04  3.991664E+04  4.623243E+04  1.049205E+04 -2.871680E+04 -1.078690E+04
       224  10  5.129650E+04  5.781977E+03  1.085231E+04  2.032711E+04  4.217208E-05  1.729316E-05
       224  11  4.446836E+04 -1.859028E+03  1.751171E+04  2.006480E+04  2.397569E-05  9.378729E-06
       224  12  5.626579E+04  3.671366E+04  4.441996E+04  7.880374E+03  5.477942E-06  2.039743E-06
       224  13  5.474983E+04  6.839116E+03  1.175428E+04  2.101288E+04  1.071338E-04  3.808450E-05
       224  14  4.765804E+04 -5.297477E+02  1.841535E+04  2.106053E+04  6.037126E-05  2.146095E-05
       224  15  5.919174E+04  3.831497E+04  4.532531E+04  9.186084E+03  1.360881E-05  4.836394E-06
       224  16  5.820318E+04  7.896255E+03  1.265625E+04  2.169866E+04  4.181647E-05  1.774997E-05
       224  17  5.084772E+04  7.995344E+02  1.931899E+04  2.205625E+04  2.335206E-05  1.036451E-05
       224  18  6.211769E+04  3.991629E+04  4.623066E+04  1.049180E+04  5.190366E-06  2.408698E-06
       224  19  5.129656E+04  5.782017E+03  1.085246E+04  2.032715E+04  8.293711E+03  3.111917E+03
       224  20  4.446874E+04 -1.858878E+03  1.751244E+04  2.006492E+04  1.850582E+04  6.946951E+03
       224  21  5.626671E+04  3.671401E+04  4.442172E+04  7.880625E+03  2.871635E+04  1.078668E+04
       224  22  5.474991E+04  6.839145E+03  1.175443E+04  2.101290E+04  8.293633E+03  3.111884E+03
       224  23  4.765842E+04 -5.296039E+02  1.841608E+04  2.106063E+04  1.850590E+04  6.946985E+03
       224  24  5.919266E+04  3.831532E+04  4.532708E+04  9.186334E+03  2.871657E+04  1.078679E+04
       224  25  5.820327E+04  7.896273E+03  1.265640E+04  2.169866E+04  8.293556E+03  3.111851E+03
       224  26  5.084811E+04  7.996718E+02  1.931972E+04  2.205635E+04  1.850597E+04  6.947019E+03
       224  27  6.211861E+04  3.991664E+04  4.623243E+04  1.049205E+04  2.871680E+04  1.078690E+04
       225   1  2.832256E+04  1.130183E+04  1.677686E+03 -4.459648E+03 -2.694792E+04 -2.162447E+03
       225   2  1.734258E+04  4.695881E+04  2.098678E+04 -3.831519E+01 -1.904366E+04 -6.520065E+03
       225   3 -5.026707E+03  4.115953E+04  2.478969E+04  1.428387E+04 -1.114328E+04 -6.225334E+03
       225   4 -1.636008E+05 -3.648371E+04 -4.543132E+04  8.960399E+03 -3.111568E+04 -2.166224E+03
       225   5 -1.576503E+05  3.744593E+03 -2.012076E+04  3.994541E+03 -2.031129E+04 -6.521377E+03
       225   6 -1.635965E+05  2.006382E+03 -1.233407E+04  8.929847E+03 -9.510492E+03 -6.223838E+03
       225   7 -3.554901E+05 -8.427128E+04 -9.254286E+04  2.237628E+04 -3.528216E+04 -2.170182E+03
       225   8 -3.326149E+05 -3.947175E+04 -6.123039E+04  8.026249E+03 -2.157856E+04 -6.522705E+03
       225   9 -3.221431E+05 -3.714845E+04 -4.945953E+04  3.577192E+03 -7.878119E+03 -6.222369E+03
       225  10  2.832178E+04  1.130163E+04  1.676313E+03 -4.459695E+03 -6.927914E-10  7.498129E-10
       225  11  1.734218E+04  4.695867E+04  2.098602E+04 -3.841518E+01  5.285090E-10  2.923961E-09
       225  12 -5.026851E+03  4.115946E+04  2.478939E+04  1.428382E+04  1.204723E-09  1.589251E-09
       225  13 -1.636018E+05 -3.648397E+04 -4.543315E+04  8.960344E+03 -9.646552E-10 -9.576147E-10
       225  14 -1.576507E+05  3.744437E+03 -2.012162E+04  3.994435E+03  5.952352E-10 -1.883342E-09
       225  15 -1.635966E+05  2.006316E+03 -1.233432E+04  8.929800E+03 -8.876590E-10  4.634026E-10
       225  16 -3.554915E+05 -8.427162E+04 -9.254521E+04  2.237622E+04  1.596372E-09  5.641540E-10
       225  17 -3.326154E+05 -3.947192E+04 -6.123134E+04  8.026135E+03  7.375991E-10  2.854468E-09
       225  18 -3.221432E+05 -3.714851E+04 -4.945972E+04  3.577152E+03 -6.563877E-10  1.877665E-10
       225  19  2.832256E+04  1.130183E+04  1.677686E+03 -4.459648E+03  2.694792E+04  2.162447E+03
       225  20  1.734258E+04  4.695881E+04  2.098678E+04 -3.831519E+01  1.904366E+04  6.520065E+03
       225  21 -5.026707E+03  4.115953E+04  2.478969E+04  1.428387E+04  1.114328E+04  6.225334E+03
       225  22 -1.636008E+05 -3.648371E+04 -4.543132E+04  8.960399E+03  3.111568E+04  2.166224E+03
       225  23 -1.576503E+05  3.744593E+03 -2.012076E+04  3.994541E+03  2.031129E+04  6.521377E+03
       225  24 -1.635965E+05  2.006382E+03 -1.233407E+04  8.929847E+03  9.510492E+03  6.223838E+03
       225  25 -3.554901E+05 -8.427128E+04 -9.254286E+04  2.237628E+04  3.528216E+04  2.170182E+03
       225  26 -3.326149E+05 -3.947175E+04 -6.123039E+04  8.026249E+03  2.157856E+04  6.522705E+03
       225  27 -3.221431E+05 -3.714845E+04 -4.945953E+04  3.577192E+03  7.878119E+03  6.222369E+03
       226   1 -2.072751E+04  3.152757E+04  2.303687E+04  8.056828E+03 -7.855204E+03 -5.180313E+03
       226   2 -3.678783E+04  3.093300E+04  2.384495E+04  3.779871E+03 -5.379953E+03 -4.714689E+03
       226   3 -5.410382E+04  2.665952E+04  2.211896E+04  9.570651E+03 -2.905218E+03 -3.979845E+03
       226   4 -1.612378E+05 -3.180725E+03 -9.992286E+03  8.978436E+03 -7.648998E+03 -5.180206E+03
       226   5 -1.605943E+05  3.613395E+02 -5.196749E+03  3.942808E+03 -5.006309E+03 -4.714373E+03
       226   6 -1.612363E+05  1.949243E+02 -3.052055E+03  8.975074E+03 -2.364070E+03 -3.979301E+03
       226   7 -3.017298E+05 -3.789043E+04 -4.302280E+04  9.899829E+03 -7.442839E+03 -5.180098E+03
       226   8 -2.843866E+05 -3.021141E+04 -3.423949E+04  4.105709E+03 -4.632738E+03 -4.714056E+03
       226   9 -2.683583E+05 -2.627049E+04 -2.822386E+04  8.379598E+03 -1.823016E+03 -3.978757E+03
       226  10 -2.072759E+04  3.152753E+04  2.303671E+04  8.056796E+03 -2.153666E-09 -3.134618E-10
       226  11 -3.678787E+04  3.093297E+04  2.384485E+04  3.779851E+03 -1.342294E-09  1.508369E-09
       226  12 -5.410384E+04  2.665950E+04  2.211892E+04  9.570641E+03  5.990921E-10  2.462555E-09
       226  13 -1.612378E+05 -3.180769E+03 -9.992446E+03  8.978404E+03  9.594023E-10  3.812206E-09
       226  14 -1.605943E+05  3.613089E+02 -5.196838E+03  3.942789E+03  6.151701E-10 -6.155511E-09
       226  15 -1.612364E+05  1.949058E+02 -3.052096E+03  8.975066E+03 -8.030143E-10  3.013410E-09
       226  16 -3.017299E+05 -3.789047E+04 -4.302295E+04  9.899798E+03  1.483651E-09 -2.747551E-09
       226  17 -2.843866E+05 -3.021144E+04 -3.423957E+04  4.105691E+03  4.244462E-10 -1.680325E-09
       226  18 -2.683583E+05 -2.627050E+04 -2.822389E+04  8.379592E+03  3.036177E-10  2.594506E-10
       226  19 -2.072751E+04  3.152757E+04  2.303687E+04  8.056828E+03  7.855204E+03  5.180313E+03
       226  20 -3.678783E+04  3.093300E+04  2.384495E+04  3.779871E+03  5.379953E+03  4.714689E+03
       226  21 -5.410382E+04  2.665952E+04  2.211896E+04  9.570651E+03  2.905218E+03  3.979845E+03
       226  22 -1.612378E+05 -3.180725E+03 -9.992286E+03  8.978436E+03  7.648998E+03  5.180206E+03
       226  23 -1.605943E+05  3.613395E+02 -5.196749E+03  3.942808E+03  5.006309E+03  4.714373E+03
       226  24 -1.612363E+05  1.949243E+02 -3.052055E+03  8.975074E+03  2.364070E+03  3.979301E+03
       226  25 -3.017298E+05 -3.789043E+04 -4.302280E+04  9.899829E+03  7.442839E+03  5.180098E+03
       226  26 -2.843866E+05 -3.021141E+04 -3.423949E+04  4.105709E+03  4.632738E+03  4.714056E+03
       226  27 -2.683583E+05 -2.627049E+04 -2.822386E+04  8.379598E+03  1.823016E+03  3.978757E+03
       227   1 -7.194152E+04  2.172815E+04  1.847319E+04  9.012680E+03 -2.346332E+03 -3.502201E+03
       227   2 -8.857955E+04  1.790377E+04  1.564752E+04  3.998305E+03 -1.700925E+03 -2.757753E+03
       227   3 -1.054029E+05  1.377379E+04  1.231971E+04  9.089023E+03 -1.055640E+03 -1.997257E+03
       227   4 -1.609914E+05 -2.527457E+02 -2.370385E+03  8.984593E+03 -1.887124E+03 -3.501723E+03
       227   5 -1.608975E+05  4.564110E+01 -1.314903E+03  3.931845E+03 -1.231792E+03 -2.757237E+03
       227   6 -1.609907E+05  3.675925E+01 -7.684373E+02  8.984264E+03 -5.765661E+02 -1.996700E+03
       227   7 -2.500339E+05 -2.223420E+04 -2.321450E+04  8.956507E+03 -1.427982E+03 -3.501245E+03
       227   8 -2.332106E+05 -1.781285E+04 -1.827768E+04  3.865391E+03 -7.627146E+02 -2.756721E+03
       227   9 -2.165756E+05 -1.370049E+04 -1.385680E+04  8.879513E+03 -9.753461E+01 -1.996144E+03
       227  10 -7.194153E+04  2.172813E+04  1.847315E+04  9.012674E+03  1.295025E-09 -1.859354E-09
       227  11 -8.857956E+04  1.790376E+04  1.564750E+04  3.998301E+03 -1.317363E-09 -1.278915E-09
       227  12 -1.054029E+05  1.377379E+04  1.231970E+04  9.089021E+03 -8.354084E-10  5.606221E-11
       227  13 -1.609914E+05 -2.527598E+02 -2.370415E+03  8.984587E+03 -9.968585E-12 -5.004941E-10
       227  14 -1.608975E+05  4.563253E+01 -1.314920E+03  3.931842E+03  8.309869E-10 -8.546507E-10
       227  15 -1.609907E+05  3.675488E+01 -7.684454E+02  8.984263E+03  1.290429E-09 -6.189349E-10
       227  16 -2.500339E+05 -2.223421E+04 -2.321452E+04  8.956503E+03 -7.497969E-10 -2.136306E-09
       227  17 -2.332106E+05 -1.781286E+04 -1.827770E+04  3.865390E+03  9.957085E-10  2.611543E-09
       227  18 -2.165756E+05 -1.370050E+04 -1.385680E+04  8.879513E+03  2.055661E-09  3.397215E-09
       227  19 -7.194152E+04  2.172815E+04  1.847319E+04  9.012680E+03  2.346332E+03  3.502201E+03
       227  20 -8.857955E+04  1.790377E+04  1.564752E+04  3.998305E+03  1.700925E+03  2.757753E+03
       227  21 -1.054029E+05  1.377379E+04  1.231971E+04  9.089023E+03  1.055640E+03  1.997257E+03
       227  22 -1.609914E+05 -2.527457E+02 -2.370385E+03  8.984593E+03  1.887124E+03  3.501723E+03
       227  23 -1.608975E+05  4.564110E+01 -1.314903E+03  3.931845E+03  1.231792E+03  2.757237E+03
       227  24 -1.609907E+05  3.675925E+01 -7.684373E+02  8.984264E+03  5.765661E+02  1.996700E+03
       227  25 -2.500339E+05 -2.223420E+04 -2.321450E+04  8.956507E+03  1.427982E+03  3.501245E+03
       227  26 -2.332106E+05 -1.781285E+04 -1.827768E+04  3.865391E+03  7.627146E+02  2.756721E+03
       227  27 -2.165756E+05 -1.370049E+04 -1.385680E+04  8.879513E+03  9.753461E+01  1.996144E+03
       228   1 -1.234910E+05  9.243303E+03  8.144895E+03  9.027499E+03 -9.293082E+02 -1.551745E+03
       228   2 -1.402169E+05  5.130571E+03  4.503912E+03  3.953197E+03 -7.547130E+02 -7.905007E+02
       228   3 -1.569968E+05  1.011819E+03  7.411412E+02  8.997316E+03 -5.801518E+02 -2.825789E+01
       228   4 -1.609608E+05  3.257541E-01 -5.940761E+02  8.987332E+03 -4.547949E+02 -1.551182E+03
       228   5 -1.609335E+05  1.467383E+01 -3.553315E+02  3.928098E+03 -2.795921E+02 -7.899299E+02
       228   6 -1.609606E+05  2.291352E+01 -2.387910E+02  8.987305E+03 -1.044186E+02 -2.767777E+01
       228   7 -1.984292E+05 -9.242751E+03 -9.333142E+03  8.947168E+03  1.969000E+01 -1.550619E+03
       228   8 -1.816497E+05 -5.101253E+03 -5.214604E+03  3.902999E+03  1.955131E+02 -7.893590E+02
       228   9 -1.649243E+05 -9.659930E+02 -1.218724E+03  8.977293E+03  3.713115E+02 -2.709765E+01
       228  10 -1.234911E+05  9.243301E+03  8.144889E+03  9.027497E+03 -1.804464E-09 -1.075154E-09
       228  11 -1.402169E+05  5.130570E+03  4.503910E+03  3.953197E+03 -2.454930E-10  3.197200E-09
       228  12 -1.569968E+05  1.011819E+03  7.411406E+02  8.997316E+03  2.781183E-09  3.352280E-09
       228  13 -1.609608E+05  3.231150E-01 -5.940810E+02  8.987332E+03  1.074255E-09  6.246165E-10
       228  14 -1.609335E+05  1.467314E+01 -3.553328E+02  3.928098E+03  3.338777E-10 -1.995770E-09
       228  15 -1.609606E+05  2.291352E+01 -2.387910E+02  8.987305E+03 -7.295572E-10 -3.143143E-09
       228  16 -1.984292E+05 -9.242754E+03 -9.333146E+03  8.947168E+03  2.337808E-09  2.767160E-10
       228  17 -1.816497E+05 -5.101254E+03 -5.214605E+03  3.903000E+03 -1.577916E-09  4.287135E-09
       228  18 -1.649243E+05 -9.659931E+02 -1.218724E+03  8.977293E+03 -2.650706E-09  2.174860E-09
       228  19 -1.234910E+05  9.243303E+03  8.144895E+03  9.027499E+03  9.293082E+02  1.551745E+03
       228  20 -1.402169E+05  5.130571E+03  4.503912E+03  3.953197E+03  7.547130E+02  7.905007E+02
       228  21 -1.569968E+05  1.011819E+03  7.411412E+02  8.997316E+03  5.801518E+02  2.825789E+01
       228  22 -1.609608E+05  3.257542E-01 -5.940761E+02  8.987332E+03  4.547949E+02  1.551182E+03
       228  23 -1.609335E+05  1.467383E+01 -3.553315E+02  3.928098E+03  2.795921E+02  7.899299E+02
       228  24 -1.609606E+05  2.291352E+01 -2.387910E+02  8.987305E+03  1.044186E+02  2.767777E+01
       228  25 -1.984292E+05 -9.242751E+03 -9.333142E+03  8.947168E+03 -1.969000E+01  1.550619E+03
       228  26 -1.816497E+05 -5.101253E+03 -5.214604E+03  3.902999E+03 -1.955131E+02  7.893590E+02
       228  27 -1.649243E+05 -9.659930E+02 -1.218724E+03  8.977293E+03 -3.713115E+02  2.709765E+01
       229   1 -1.751215E+05 -3.486446E+03 -3.582433E+03  8.974642E+03 -5.401542E+02  4.156695E+02
       229   2 -1.918516E+05 -7.622333E+03 -7.449896E+03  3.900445E+03 -4.420323E+02  1.177764E+03
       229   3 -2.086207E+05 -1.174758E+04 -1.138505E+04  8.943481E+03 -3.438710E+02  1.938723E+03
       229   4 -1.609573E+05  2.144771E+01 -2.098599E+02  8.987035E+03 -6.443137E+01  4.162483E+02
       229   5 -1.609377E+05  1.196722E+01 -1.985747E+02  3.928440E+03  3.297660E+01  1.178329E+03
       229   6 -1.609576E+05  1.321000E+01 -2.545314E+02  8.987045E+03  1.304265E+02  1.939277E+03
       229   7 -1.467930E+05  3.529327E+03  3.162700E+03  8.999429E+03  4.113023E+02  4.168271E+02
       229   8 -1.300230E+05  7.646199E+03  7.052682E+03  3.956435E+03  5.080090E+02  1.178895E+03
       229   9 -1.132923E+05  1.177384E+04  1.087583E+04  9.030611E+03  6.047602E+02  1.939830E+03
       229  10 -1.751215E+05 -3.486446E+03 -3.582434E+03  8.974642E+03 -3.729750E-09  2.726547E-09
       229  11 -1.918516E+05 -7.622334E+03 -7.449899E+03  3.900446E+03 -8.303614E-10  4.054773E-10
       229  12 -2.086207E+05 -1.174758E+04 -1.138506E+04  8.943482E+03  3.274486E-09 -1.524995E-09
       229  13 -1.609573E+05  2.144753E+01 -2.098602E+02  8.987035E+03  9.620869E-10  2.005086E-10
       229  14 -1.609377E+05  1.196573E+01 -1.985774E+02  3.928440E+03 -1.399695E-09 -2.493354E-09
       229  15 -1.609576E+05  1.320596E+01 -2.545384E+02  8.987045E+03  2.092904E-11 -2.037954E-09
       229  16 -1.467930E+05  3.529327E+03  3.162699E+03  8.999429E+03  3.575243E-09  1.614585E-09
       229  17 -1.300230E+05  7.646198E+03  7.052679E+03  3.956435E+03  7.148083E-10 -3.483408E-09
       229  18 -1.132923E+05  1.177383E+04  1.087582E+04  9.030610E+03 -3.465615E-09 -2.884666E-09
       229  19 -1.751215E+05 -3.486446E+03 -3.582433E+03  8.974642E+03  5.401542E+02 -4.156695E+02
       229  20 -1.918516E+05 -7.622333E+03 -7.449896E+03  3.900445E+03  4.420323E+02 -1.177764E+03
       229  21 -2.086207E+05 -1.174758E+04 -1.138505E+04  8.943481E+03  3.438710E+02 -1.938723E+03
       229  22 -1.609573E+05  2.144771E+01 -2.098599E+02  8.987035E+03  6.443137E+01 -4.162483E+02
       229  23 -1.609377E+05  1.196722E+01 -1.985747E+02  3.928440E+03 -3.297660E+01 -1.178329E+03
       229  24 -1.609576E+05  1.321000E+01 -2.545314E+02  8.987045E+03 -1.304265E+02 -1.939277E+03
       229  25 -1.467930E+05  3.529327E+03  3.162700E+03  8.999429E+03 -4.113023E+02 -4.168271E+02
       229  26 -1.300230E+05  7.646199E+03  7.052682E+03  3.956435E+03 -5.080090E+02 -1.178895E+03
       229  27 -1.132923E+05  1.177384E+04  1.087583E+04  9.030611E+03 -6.047602E+02 -1.939830E+03
       230   1 -2.267411E+05 -1.622702E+04 -1.578578E+04  8.905815E+03 -2.986721E+02  2.384138E+03
       230   2 -2.434226E+05 -2.035181E+04 -1.984278E+04  3.862967E+03 -4.390316E+01  3.143891E+03
       230   3 -2.601851E+05 -2.457500E+04 -2.409553E+04  8.918975E+03  2.109929E+02  3.886743E+03
       230   4 -1.609669E+05  2.653390E+01 -3.073011E+02  8.982907E+03  1.803738E+02  2.384682E+03
       230   5 -1.609277E+05  2.130584E+01 -4.915177E+02  3.933581E+03  4.246276E+02  3.144391E+03
       230   6 -1.609676E+05 -8.040394E+01 -8.640841E+02  8.983026E+03  6.690151E+02  3.887201E+03
       230   7 -9.518876E+04  1.627978E+04  1.517088E+04  9.060007E+03  6.594702E+02  2.385227E+03
       230   8 -7.842647E+04  2.039394E+04  1.885928E+04  4.004201E+03  8.932202E+02  3.144891E+03
       230   9 -6.174104E+04  2.441350E+04  2.236669E+04  9.047085E+03  1.127110E+03  3.887659E+03
       230  10 -2.267411E+05 -1.622702E+04 -1.578579E+04  8.905815E+03  1.624571E-09 -1.281164E-09
       230  11 -2.434226E+05 -2.035182E+04 -1.984280E+04  3.862968E+03  3.737113E-09 -1.482659E-09
       230  12 -2.601851E+05 -2.457502E+04 -2.409555E+04  8.918974E+03  4.516258E-09 -2.679482E-09
       230  13 -1.609669E+05  2.652779E+01 -3.073118E+02  8.982907E+03  2.958214E-12  3.401470E-10
       230  14 -1.609277E+05  2.129518E+01 -4.915366E+02  3.933580E+03 -8.350457E-10  3.966556E-09
       230  15 -1.609676E+05 -8.042029E+01 -8.641133E+02  8.983024E+03 -9.307596E-10  4.132548E-09
       230  16 -9.518876E+04  1.627977E+04  1.517087E+04  9.060005E+03 -2.068680E-09  1.950243E-09
       230  17 -7.842647E+04  2.039393E+04  1.885926E+04  4.004199E+03 -2.635608E-09 -1.962118E-09
       230  18 -6.174105E+04  2.441348E+04  2.236666E+04  9.047081E+03 -4.804081E-09  1.121165E-09
       230  19 -2.267411E+05 -1.622702E+04 -1.578578E+04  8.905815E+03  2.986721E+02 -2.384138E+03
       230  20 -2.434226E+05 -2.035181E+04 -1.984278E+04  3.862967E+03  4.390316E+01 -3.143891E+03
       230  21 -2.601851E+05 -2.457500E+04 -2.409553E+04  8.918975E+03 -2.109929E+02 -3.886743E+03
       230  22 -1.609669E+05  2.653390E+01 -3.073011E+02  8.982907E+03 -1.803738E+02 -2.384682E+03
       230  23 -1.609277E+05  2.130584E+01 -4.915177E+02  3.933581E+03 -4.246276E+02 -3.144391E+03
       230  24 -1.609676E+05 -8.040394E+01 -8.640841E+02  8.983026E+03 -6.690151E+02 -3.887201E+03
       230  25 -9.518876E+04  1.627978E+04  1.517088E+04  9.060007E+03 -6.594702E+02 -2.385227E+03
       230  26 -7.842647E+04  2.039394E+04  1.885928E+04  4.004201E+03 -8.932202E+02 -3.144891E+03
       230  27 -6.174104E+04  2.441350E+04  2.236669E+04  9.047085E+03 -1.127110E+03 -3.887659E+03
       231   1 -2.783410E+05 -2.889363E+04 -2.866257E+04  8.697454E+03  2.980854E+02  4.365418E+03
       231   2 -2.947643E+05 -3.294754E+04 -3.330167E+04  3.938243E+03  1.428186E+03  5.097141E+03
       231   3 -3.116845E+05 -3.835487E+04 -3.901779E+04  9.239080E+03  2.558691E+03  5.546229E+03
       231   4 -1.610547E+05  8.122812E+01 -1.106840E+03  8.973959E+03  8.420423E+02  4.365939E+03
       231   5 -1.608221E+05  1.325896E+02 -1.877530E+03  3.944585E+03  1.796028E+03  5.097431E+03
       231   6 -1.610559E+05 -1.138701E+03 -3.602733E+03  8.975132E+03  2.750447E+03  5.546315E+03
       231   7 -4.375571E+04  2.905511E+04  2.644795E+04  9.250514E+03  1.386101E+03  4.366461E+03
       231   8 -2.686331E+04  3.321144E+04  2.954538E+04  3.950925E+03  2.163948E+03  5.097721E+03
       231   9 -1.040644E+04  3.607585E+04  3.181077E+04  8.711115E+03  2.942248E+03  5.546401E+03
       231  10 -2.783410E+05 -2.889365E+04 -2.866261E+04  8.697453E+03  2.463946E-09 -2.712110E-09
       231  11 -2.947643E+05 -3.294757E+04 -3.330172E+04  3.938237E+03 -8.443482E-10  1.694622E-10
       231  12 -3.116845E+05 -3.835491E+04 -3.901786E+04  9.239068E+03 -2.130200E-09 -2.380568E-09
       231  13 -1.610547E+05  8.120746E+01 -1.106878E+03  8.973956E+03 -2.040934E-09  1.360671E-09
       231  14 -1.608221E+05  1.325608E+02 -1.877585E+03  3.944578E+03 -4.350667E-10  2.991158E-09
       231  15 -1.610559E+05 -1.138736E+03 -3.602805E+03  8.975120E+03  1.614597E-09 -8.719637E-10
       231  16 -4.375571E+04  2.905508E+04  2.644791E+04  9.250509E+03 -2.295322E-09 -2.422054E-09
       231  17 -2.686332E+04  3.321141E+04  2.954532E+04  3.950916E+03  7.110213E-10 -4.893238E-09
       231  18 -1.040646E+04  3.607582E+04  3.181069E+04  8.711102E+03  2.948174E-09 -6.191186E-10
       231  19 -2.783410E+05 -2.889363E+04 -2.866257E+04  8.697454E+03 -2.980854E+02 -4.365418E+03
       231  20 -2.947643E+05 -3.294754E+04 -3.330167E+04  3.938243E+03 -1.428186E+03 -5.097141E+03
       231  21 -3.116845E+05 -3.835487E+04 -3.901779E+04  9.239080E+03 -2.558691E+03 -5.546229E+03
       231  22 -1.610547E+05  8.122812E+01 -1.106840E+03  8.973959E+03 -8.420423E+02 -4.365939E+03
       231  23 -1.608221E+05  1.325896E+02 -1.877530E+03  3.944585E+03 -1.796028E+03 -5.097431E+03
       231  24 -1.610559E+05 -1.138701E+03 -3.602733E+03  8.975132E+03 -2.750447E+03 -5.546315E+03
       231  25 -4.375571E+04  2.905511E+04  2.644795E+04  9.250514E+03 -1.386101E+03 -4.366461E+03
       231  26 -2.686331E+04  3.321144E+04  2.954538E+04  3.950925E+03 -2.163948E+03 -5.097721E+03
       231  27 -1.040644E+04  3.607585E+04  3.181077E+04  8.711115E+03 -2.942248E+03 -5.546401E+03
       232   1 -3.305811E+05 -4.091785E+04 -4.393985E+04  6.928179E+03  1.731532E+03  6.617324E+03
       232   2 -3.448238E+05 -4.436791E+04 -5.073461E+04  5.381194E+03  8.670491E+03  6.887766E+03
       232   3 -3.638739E+05 -6.345399E+04 -6.595646E+04  1.370479E+04  1.561263E+04  2.272738E+03
       232   4 -1.619041E+05  7.300625E+02 -4.445399E+03  8.929111E+03  3.420753E+03  6.618703E+03
       232   5 -1.597666E+05  1.347860E+03 -7.252700E+03  3.999008E+03  7.313559E+03  6.886532E+03
       232   6 -1.619066E+05 -1.313894E+04 -1.636970E+04  8.939470E+03  1.120981E+04  2.269462E+03
       232   7  6.799242E+03  4.237597E+04  3.504713E+04  1.093059E+04  5.110431E+03  6.620092E+03
       232   8  2.532217E+04  4.706120E+04  3.622687E+04  2.616401E+03  5.956225E+03  6.885304E+03
       232   9  4.009793E+04  3.717319E+04  3.321414E+04  4.172589E+03  6.805552E+03  2.266254E+03
       232  10 -3.305811E+05 -4.091790E+04 -4.393994E+04  6.928169E+03 -9.354329E-11 -2.890417E-09
       232  11 -3.448239E+05 -4.436798E+04 -5.073484E+04  5.381146E+03  1.280974E-09 -3.647770E-10
       232  12 -3.638742E+05 -6.345407E+04 -6.595693E+04  1.370476E+04  7.426976E-10  1.174354E-09
       232  13 -1.619041E+05  7.300123E+02 -4.445504E+03  8.929093E+03 -1.074628E-09  3.474876E-10
       232  14 -1.597667E+05  1.347795E+03 -7.252890E+03  3.998967E+03  2.482682E-09 -2.353593E-10
       232  15 -1.619067E+05 -1.313897E+04 -1.636995E+04  8.939449E+03  3.275547E-10  1.369854E-09
       232  16  6.799202E+03  4.237591E+04  3.504699E+04  1.093056E+04 -3.415440E-10  8.494322E-10
       232  17  2.532212E+04  4.706113E+04  3.622671E+04  2.616368E+03 -2.454852E-09  8.653685E-10
       232  18  4.009788E+04  3.717318E+04  3.321404E+04  4.172576E+03 -1.323740E-09 -7.945600E-10
       232  19 -3.305811E+05 -4.091785E+04 -4.393985E+04  6.928179E+03 -1.731532E+03 -6.617324E+03
       232  20 -3.448238E+05 -4.436791E+04 -5.073461E+04  5.381194E+03 -8.670491E+03 -6.887766E+03
       232  21 -3.638739E+05 -6.345399E+04 -6.595646E+04  1.370479E+04 -1.561263E+04 -2.272738E+03
       232  22 -1.619041E+05  7.300625E+02 -4.445399E+03  8.929111E+03 -3.420753E+03 -6.618703E+03
       232  23 -1.597666E+05  1.347860E+03 -7.252700E+03  3.999008E+03 -7.313559E+03 -6.886532E+03
       232  24 -1.619066E+05 -1.313894E+04 -1.636970E+04  8.939470E+03 -1.120981E+04 -2.269462E+03
       232  25  6.799242E+03  4.237597E+04  3.504713E+04  1.093059E+04 -5.110431E+03 -6.620092E+03
       232  26  2.532217E+04  4.706120E+04  3.622687E+04  2.616401E+03 -5.956225E+03 -6.885304E+03
       232  27  4.009793E+04  3.717319E+04  3.321414E+04  4.172589E+03 -6.805552E+03 -2.266254E+03
       233   1 -1.245538E+05 -4.653836E+05 -1.220975E+05  1.059059E+05 -5.082619E+03 -3.688852E+04
       233   2 -8.388139E+04 -3.590042E+05 -7.629331E+04  8.818749E+04 -1.530483E+04 -1.553260E+04
       233   3 -5.595457E+04 -2.585296E+05 -4.758099E+04  9.542734E+04 -1.418208E+04  5.835338E+03
       233   4 -1.530297E+04 -2.448245E+04 -1.693956E+04  9.660656E+04 -5.094789E+03 -1.250903E+04
       233   5 -2.925146E+03 -2.302683E+04 -7.590583E+03  8.413114E+04 -1.530738E+04 -8.565138E+03
       233   6 -2.644806E+02 -2.445995E+04 -3.233660E+03  9.661422E+04 -1.417747E+04 -4.613282E+03
       233   7  9.393443E+04  4.165986E+05  8.820701E+04  8.730058E+04 -5.107688E+03  1.188772E+04
       233   8  7.802411E+04  3.130580E+05  6.110636E+04  8.007257E+04 -1.531003E+04 -1.593971E+03
       233   9  5.542246E+04  2.096629E+05  4.111164E+04  9.780156E+04 -1.417289E+04 -1.506575E+04
       233  10 -1.245542E+05 -4.653851E+05 -1.221001E+05  1.059058E+05  6.127402E-10  1.361502E-09
       233  11 -8.388171E+04 -3.590045E+05 -7.629420E+04  8.818730E+04 -6.040321E-10 -2.071456E-09
       233  12 -5.595479E+04 -2.585297E+05 -4.758143E+04  9.542741E+04 -8.482869E-10 -4.543942E-09
       233  13 -1.530304E+04 -2.448262E+04 -1.693991E+04  9.660651E+04  1.714746E-09 -2.644602E-10
       233  14 -2.925417E+03 -2.302697E+04 -7.591161E+03  8.413104E+04  4.286118E-11 -9.439437E-10
       233  15 -2.647021E+02 -2.446003E+04 -3.234078E+03  9.661417E+04 -2.156032E-10 -5.774104E-10
       233  16  9.393436E+04  4.165984E+05  8.820670E+04  8.730063E+04  8.056770E-11 -1.976406E-09
       233  17  7.802386E+04  3.130579E+05  6.110591E+04  8.007255E+04  1.339766E-09  1.068253E-09
       233  18  5.542219E+04  2.096626E+05  4.111084E+04  9.780139E+04  1.012381E-10  4.335077E-09
       233  19 -1.245538E+05 -4.653836E+05 -1.220975E+05  1.059059E+05  5.082619E+03  3.688852E+04
       233  20 -8.388139E+04 -3.590042E+05 -7.629331E+04  8.818749E+04  1.530483E+04  1.553260E+04
       233  21 -5.595457E+04 -2.585296E+05 -4.758099E+04  9.542734E+04  1.418208E+04 -5.835338E+03
       233  22 -1.530297E+04 -2.448245E+04 -1.693956E+04  9.660656E+04  5.094789E+03  1.250903E+04
       233  23 -2.925146E+03 -2.302683E+04 -7.590583E+03  8.413114E+04  1.530738E+04  8.565138E+03
       233  24 -2.644806E+02 -2.445995E+04 -3.233660E+03  9.661422E+04  1.417747E+04  4.613282E+03
       233  25  9.393443E+04  4.165986E+05  8.820701E+04  8.730058E+04  5.107688E+03 -1.188772E+04
       233  26  7.802411E+04  3.130580E+05  6.110636E+04  8.007257E+04  1.531003E+04  1.593971E+03
       233  27  5.542246E+04  2.096629E+05  4.111164E+04  9.780156E+04  1.417289E+04  1.506575E+04
       234   1 -3.991325E+04 -1.885049E+05 -3.282536E+04  9.682572E+04 -1.006115E+04  4.525721E+03
       234   2 -1.452529E+04 -8.521086E+04 -9.824532E+03  8.409504E+04 -4.206983E+03  4.230830E+03
       234   3  1.109083E+04  1.822537E+04  1.343334E+04  9.699028E+04  1.877771E+03  3.935708E+03
       234   4 -7.360533E+02 -2.376959E+04 -1.695742E+03  9.676096E+04 -1.005763E+04 -4.287825E+03
       234   5 -2.862914E+01 -2.386438E+04  1.307698E+03  8.394840E+04 -4.203536E+03 -4.937365E+03
       234   6  9.691826E+02 -2.376539E+04  4.814886E+03  9.676159E+04  1.881109E+03 -5.587090E+03
       234   7  3.843961E+04  1.409921E+05  2.943297E+04  9.669618E+04 -1.005411E+04 -1.310365E+04
       234   8  1.446787E+04  3.748595E+04  1.244009E+04  8.380175E+04 -4.200084E+03 -1.410644E+04
       234   9 -9.152529E+03 -6.575429E+04 -3.803318E+03  9.653292E+04  1.884454E+03 -1.510926E+04
       234  10 -3.991337E+04 -1.885049E+05 -3.282558E+04  9.682575E+04 -5.808083E-10  3.069261E-09
       234  11 -1.452532E+04 -8.521088E+04 -9.824598E+03  8.409505E+04 -1.363251E-09 -3.968004E-10
       234  12  1.109082E+04  1.822535E+04  1.343330E+04  9.699028E+04 -6.369816E-10 -3.771847E-09
       234  13 -7.361668E+02 -2.376964E+04 -1.695967E+03  9.676092E+04 -5.218704E-10 -5.393245E-10
       234  14 -2.865465E+01 -2.386441E+04  1.307619E+03  8.394838E+04  6.071969E-10 -9.612555E-10
       234  15  9.691704E+02 -2.376543E+04  4.814820E+03  9.676160E+04 -2.111402E-09  4.250211E-10
       234  16  3.843945E+04  1.409919E+05  2.943245E+04  9.669607E+04  2.865705E-10 -4.057688E-09
       234  17  1.446780E+04  3.748573E+04  1.243969E+04  8.380170E+04  7.906230E-10  4.514223E-10
       234  18 -9.152595E+03 -6.575453E+04 -3.803754E+03  9.653294E+04  1.306749E-09  3.507794E-09
       234  19 -3.991325E+04 -1.885049E+05 -3.282536E+04  9.682572E+04  1.006115E+04 -4.525721E+03
       234  20 -1.452529E+04 -8.521086E+04 -9.824532E+03  8.409504E+04  4.206983E+03 -4.230830E+03
       234  21  1.109083E+04  1.822537E+04  1.343334E+04  9.699028E+04 -1.877771E+03 -3.935708E+03
       234  22 -7.360533E+02 -2.376959E+04 -1.695742E+03  9.676096E+04  1.005763E+04  4.287825E+03
       234  23 -2.862914E+01 -2.386438E+04  1.307698E+03  8.394840E+04  4.203536E+03  4.937365E+03
       234  24  9.691826E+02 -2.376539E+04  4.814886E+03  9.676159E+04 -1.881109E+03  5.587090E+03
       234  25  3.843961E+04  1.409921E+05  2.943297E+04  9.669618E+04  1.005411E+04  1.310365E+04
       234  26  1.446787E+04  3.748595E+04  1.244009E+04  8.380175E+04  4.200084E+03  1.410644E+04
       234  27 -9.152529E+03 -6.575429E+04 -3.803318E+03  9.653292E+04 -1.884454E+03  1.510926E+04
       235   1  2.679214E+04  8.853180E+04  2.862960E+04  9.456527E+04  6.068419E+03  4.243405E+03
       235   2  5.626839E+04  1.883292E+05  5.804154E+04  9.072578E+04  8.835639E+03 -1.562836E+04
       235   3  1.044079E+05  2.954295E+05  1.050623E+05  1.120539E+05  3.224275E+03 -3.550836E+04
       235   4  2.009470E+02 -2.268542E+04  6.896018E+03  9.665734E+04  6.072350E+03 -6.430915E+03
       235   5  4.658714E+03 -2.522384E+04  1.349009E+04  8.407981E+04  8.835137E+03 -1.342887E+04
       235   6  2.554955E+04 -2.269931E+04  2.875692E+04  9.666902E+04  3.218581E+03 -2.043180E+04
       235   7 -2.639091E+04 -1.338905E+05 -1.483773E+04  9.874903E+04  6.076210E+03 -1.710336E+04
       235   8 -4.695371E+04 -2.387336E+05 -3.106384E+04  7.743616E+04  8.834588E+03 -1.123012E+04
       235   9 -5.331511E+04 -3.407344E+05 -4.755463E+04  8.129211E+04  3.212139E+03 -5.362930E+03
       235  10  2.679209E+04  8.853178E+04  2.862950E+04  9.456525E+04 -2.329016E-11  1.614236E-09
       235  11  5.626824E+04  1.883289E+05  5.804093E+04  9.072589E+04  2.031754E-09 -6.378774E-10
       235  12  1.044075E+05  2.954281E+05  1.050599E+05  1.120539E+05  1.294714E-09 -1.354684E-09
       235  13  2.008963E+02 -2.268548E+04  6.895871E+03  9.665737E+04 -1.485392E-09 -6.014170E-12
       235  14  4.658582E+03 -2.522406E+04  1.348960E+04  8.407990E+04  8.755873E-10 -6.007305E-10
       235  15  2.554942E+04 -2.269976E+04  2.875612E+04  9.666908E+04  1.290494E-09  4.458786E-10
       235  16 -2.639103E+04 -1.338909E+05 -1.483835E+04  9.874911E+04 -8.315449E-10 -2.300200E-09
       235  17 -4.695382E+04 -2.387338E+05 -3.106423E+04  7.743624E+04  2.830886E-10 -1.133424E-10
       235  18 -5.331513E+04 -3.407344E+05 -4.755470E+04  8.129213E+04  5.163072E-10  1.844726E-09
       235  19  2.679214E+04  8.853180E+04  2.862960E+04  9.456527E+04 -6.068419E+03 -4.243405E+03
       235  20  5.626839E+04  1.883292E+05  5.804154E+04  9.072578E+04 -8.835639E+03  1.562836E+04
       235  21  1.044079E+05  2.954295E+05  1.050623E+05  1.120539E+05 -3.224275E+03  3.550836E+04
       235  22  2.009470E+02 -2.268542E+04  6.896018E+03  9.665734E+04 -6.072350E+03  6.430915E+03
       235  23  4.658714E+03 -2.522384E+04  1.349009E+04  8.407981E+04 -8.835137E+03  1.342887E+04
       235  24  2.554955E+04 -2.269931E+04  2.875692E+04  9.666902E+04 -3.218581E+03  2.043180E+04
       235  25 -2.639091E+04 -1.338905E+05 -1.483773E+04  9.874903E+04 -6.076210E+03  1.710336E+04
       235  26 -4.695371E+04 -2.387336E+05 -3.106384E+04  7.743616E+04 -8.834588E+03  1.123012E+04
       235  27 -5.331511E+04 -3.407344E+05 -4.755463E+04  8.129211E+04 -3.212139E+03  5.362930E+03
       236   1  3.738021E+05  1.361271E+05  8.312183E+04  1.356632E+05  3.480494E+04  1.087813E+04
       236   2  3.619850E+05  8.729127E+04  5.161622E+04  1.335383E+05  2.255186E+04  1.592798E+03
       236   3  3.619588E+05  7.796222E+04  4.020252E+04  1.263728E+05  8.822599E+03 -3.763636E+03
       236   4  2.448304E+05  7.244380E+04  4.571774E+04  8.490552E+04  2.989208E+04  9.030545E+03
       236   5  2.367835E+05  3.553490E+04  1.971603E+04  9.399373E+04  2.082089E+04  9.418012E+02
       236   6  2.399001E+05  3.750677E+04  1.128904E+04  9.804075E+04  1.027309E+04 -3.218341E+03
       236   7  1.158773E+05  8.766361E+03  8.312728E+03  3.415933E+04  2.498040E+04  7.183707E+03
       236   8  1.115979E+05 -1.621919E+04 -1.218528E+04  5.445694E+04  1.909031E+04  2.909849E+02
       236   9  1.178551E+05 -2.948665E+03 -1.762568E+04  6.971323E+04  1.172327E+04 -2.673129E+03
       236  10  3.738008E+05  1.361266E+05  8.311934E+04  1.356629E+05  2.759160E-10 -9.023311E-10
       236  11  3.619845E+05  8.729113E+04  5.161526E+04  1.335382E+05  9.559998E-10  1.755828E-09
       236  12  3.619587E+05  7.796219E+04  4.020234E+04  1.263728E+05  3.450309E-10  2.468835E-09
       236  13  2.448294E+05  7.244347E+04  4.571590E+04  8.490531E+04  1.287699E-09 -1.615713E-09
       236  14  2.367830E+05  3.553479E+04  1.971521E+04  9.399371E+04  5.841733E-10 -7.555219E-10
       236  15  2.398999E+05  3.750673E+04  1.128883E+04  9.804077E+04 -1.086779E-09  6.584574E-10
       236  16  1.158766E+05  8.766138E+03  8.311459E+03  3.415919E+04  5.928448E-12  1.921423E-09
       236  17  1.115976E+05 -1.621929E+04 -1.218596E+04  5.445693E+04  1.717268E-11 -6.417633E-11
       236  18  1.178550E+05 -2.948709E+03 -1.762595E+04  6.971326E+04  1.058378E-10  1.408627E-09
       236  19  3.738021E+05  1.361271E+05  8.312183E+04  1.356632E+05 -3.480494E+04 -1.087813E+04
       236  20  3.619850E+05  8.729127E+04  5.161622E+04  1.335383E+05 -2.255186E+04 -1.592798E+03
       236  21  3.619588E+05  7.796222E+04  4.020252E+04  1.263728E+05 -8.822599E+03  3.763636E+03
       236  22  2.448304E+05  7.244380E+04  4.571774E+04  8.490552E+04 -2.989208E+04 -9.030545E+03
       236  23  2.367835E+05  3.553490E+04  1.971603E+04  9.399373E+04 -2.082089E+04 -9.418012E+02
       236  24  2.399001E+05  3.750677E+04  1.128904E+04  9.804075E+04 -1.027309E+04  3.218341E+03
       236  25  1.158773E+05  8.766361E+03  8.312728E+03  3.415933E+04 -2.498040E+04 -7.183707E+03
       236  26  1.115979E+05 -1.621919E+04 -1.218528E+04  5.445694E+04 -1.909031E+04 -2.909849E+02
       236  27  1.178551E+05 -2.948665E+03 -1.762568E+04  6.971323E+04 -1.172327E+04  2.673129E+03
       237   1  3.467888E+05  8.234284E+04  3.574892E+04  1.264025E+05  8.272837E+03 -3.091363E+03
       237   2  3.376029E+05  7.380490E+04  2.864736E+04  1.216267E+05  5.646570E+03 -3.626269E+03
       237   3  3.260291E+05  7.129122E+04  2.403890E+04  1.204472E+05  2.953079E+03 -3.982425E+03
       237   4  2.384292E+05  4.114951E+04  8.982431E+03  9.584342E+04  8.520637E+03 -2.998286E+03
       237   5  2.394781E+05  3.702185E+04  4.580114E+03  9.447042E+04  6.039438E+03 -3.478607E+03
       237   6  2.381107E+05  3.888993E+04  2.556326E+03  9.669357E+04  3.490969E+03 -3.780186E+03
       237   7  1.300811E+05 -4.289878E+01 -1.778496E+04  6.528927E+04  8.768391E+03 -2.905227E+03
       237   8  1.413632E+05  2.395680E+02 -1.948779E+04  6.731810E+04  6.432237E+03 -3.330972E+03
       237   9  1.502003E+05  6.489279E+03 -1.892672E+04  7.294308E+04  4.028774E+03 -3.577978E+03
       237  10  3.467887E+05  8.234281E+04  3.574878E+04  1.264025E+05 -1.342488E-09  2.312747E-09
       237  11  3.376028E+05  7.380488E+04  2.864727E+04  1.216267E+05 -3.081194E-09  1.343446E-09
       237  12  3.260291E+05  7.129120E+04  2.403886E+04  1.204472E+05  8.189771E-10  9.647676E-10
       237  13  2.384291E+05  4.114948E+04  8.982278E+03  9.584344E+04 -2.341360E-09  1.698279E-09
       237  14  2.394781E+05  3.702182E+04  4.580023E+03  9.447043E+04 -5.578835E-09 -3.970654E-09
       237  15  2.381107E+05  3.888991E+04  2.556276E+03  9.669358E+04 -1.827692E-10 -6.139877E-10
       237  16  1.300810E+05 -4.292849E+01 -1.778512E+04  6.528929E+04 -3.685473E-09 -7.824178E-10
       237  17  1.413631E+05  2.395450E+02 -1.948789E+04  6.731812E+04 -4.102269E-09  1.130752E-09
       237  18  1.502003E+05  6.489261E+03 -1.892677E+04  7.294310E+04 -9.070556E-10 -2.948175E-09
       237  19  3.467888E+05  8.234284E+04  3.574892E+04  1.264025E+05 -8.272837E+03  3.091363E+03
       237  20  3.376029E+05  7.380490E+04  2.864736E+04  1.216267E+05 -5.646570E+03  3.626269E+03
       237  21  3.260291E+05  7.129122E+04  2.403890E+04  1.204472E+05 -2.953079E+03  3.982425E+03
       237  22  2.384292E+05  4.114951E+04  8.982431E+03  9.584342E+04 -8.520637E+03  2.998286E+03
       237  23  2.394781E+05  3.702185E+04  4.580114E+03  9.447042E+04 -6.039438E+03  3.478607E+03
       237  24  2.381107E+05  3.888993E+04  2.556326E+03  9.669357E+04 -3.490969E+03  3.780186E+03
       237  25  1.300811E+05 -4.289878E+01 -1.778496E+04  6.528927E+04 -8.768391E+03  2.905227E+03
       237  26  1.413632E+05  2.395680E+02 -1.948779E+04  6.731810E+04 -6.432237E+03  3.330972E+03
       237  27  1.502003E+05  6.489279E+03 -1.892672E+04  7.294308E+04 -4.028774E+03  3.577978E+03
       238   1  3.162652E+05  6.829977E+04  2.108158E+04  1.180452E+05  2.507085E+03 -3.723100E+03
       238   2  3.074091E+05  6.239182E+04  1.763011E+04  1.130970E+05  1.743999E+03 -3.325545E+03
       238   3  2.950839E+05  6.025188E+04  1.462161E+04  1.122415E+05  9.780391E+02 -2.920531E+03
       238   4  2.379787E+05  3.911343E+04  1.951669E+03  9.653384E+04  2.989323E+03 -3.541771E+03
       238   5  2.397046E+05  3.716276E+04  1.061077E+03  9.451289E+04  2.232349E+03 -3.141888E+03
       238   6  2.379601E+05  3.897901E+04  6.087199E+02  9.658457E+04  1.472493E+03 -2.734551E+03
       238   7  1.596979E+05  9.927359E+03 -1.717881E+04  7.502481E+04  3.471497E+03 -3.360466E+03
       238   8  1.720044E+05  1.193396E+04 -1.550835E+04  7.593053E+04  2.720643E+03 -2.958254E+03
       238   9  1.808396E+05  1.770636E+04 -1.340442E+04  8.092899E+04  1.966898E+03 -2.548590E+03
       238  10  3.162652E+05  6.829976E+04  2.108154E+04  1.180452E+05 -3.066368E-09 -2.635919E-09
       238  11  3.074091E+05  6.239180E+04  1.763008E+04  1.130970E+05  3.840279E-09  3.533426E-09
       238  12  2.950839E+05  6.025187E+04  1.462159E+04  1.122415E+05  4.325854E-09  3.617213E-09
       238  13  2.379787E+05  3.911341E+04  1.951629E+03  9.653385E+04  1.717754E-09 -6.317817E-10
       238  14  2.397046E+05  3.716275E+04  1.061049E+03  9.451289E+04  5.990511E-09  4.506449E-09
       238  15  2.379601E+05  3.897901E+04  6.087018E+02  9.658458E+04  3.349334E-09  1.536542E-09
       238  16  1.596979E+05  9.927343E+03 -1.717885E+04  7.502481E+04  7.121754E-09  2.450309E-10
       238  17  1.720043E+05  1.193395E+04 -1.550838E+04  7.593054E+04  3.888547E-09  2.750792E-09
       238  18  1.808395E+05  1.770635E+04 -1.340444E+04  8.092900E+04 -1.296803E-09 -4.435289E-10
       238  19  3.162652E+05  6.829977E+04  2.108158E+04  1.180452E+05 -2.507085E+03  3.723100E+03
       238  20  3.074091E+05  6.239182E+04  1.763011E+04  1.130970E+05 -1.743999E+03  3.325545E+03
       238  21  2.950839E+05  6.025188E+04  1.462161E+04  1.122415E+05 -9.780391E+02  2.920531E+03
       238  22  2.379787E+05  3.911343E+04  1.951669E+03  9.653384E+04 -2.989323E+03  3.541771E+03
       238  23  2.397046E+05  3.716276E+04  1.061077E+03  9.451289E+04 -2.232349E+03  3.141888E+03
       238  24  2.379601E+05  3.897901E+04  6.087199E+02  9.658457E+04 -1.472493E+03  2.734551E+03
       238  25  1.596979E+05  9.927359E+03 -1.717881E+04  7.502481E+04 -3.471497E+03  3.360466E+03
       238  26  1.720044E+05  1.193396E+04 -1.550835E+04  7.593053E+04 -2.720643E+03  2.958254E+03
       238  27  1.808396E+05  1.770636E+04 -1.340442E+04  8.092899E+04 -1.966898E+03  2.548590E+03
       239   1  2.857385E+05  5.679532E+04  1.213529E+04  1.096947E+05  7.579481E+02 -2.598261E+03
       239   2  2.769515E+05  5.105979E+04  9.424505E+03  1.047431E+05  3.729347E+02 -2.049781E+03
       239   3  2.645983E+05  4.892975E+04  6.833142E+03  1.038936E+05 -1.209169E+01 -1.501342E+03
       239   4  2.379454E+05  3.898858E+04  4.762432E+02  9.656967E+04  1.249494E+03 -2.413363E+03
       239   5  2.397284E+05  3.718313E+04  3.141963E+02  9.451971E+04  8.644592E+02 -1.864876E+03
       239   6  2.379450E+05  3.898322E+04  2.715939E+02  9.657184E+04  4.794072E+02 -1.316431E+03
       239   7  1.901547E+05  2.118209E+04 -1.118291E+04  8.344558E+04  1.740996E+03 -2.228480E+03
       239   8  2.025066E+05  2.330657E+04 -8.796216E+03  8.429686E+04  1.355952E+03 -1.679984E+03
       239   9  2.112922E+05  2.903668E+04 -6.290041E+03  8.925036E+04  9.708853E+02 -1.131527E+03
       239  10  2.857385E+05  5.679531E+04  1.213527E+04  1.096947E+05 -2.064328E-10 -1.308075E-09
       239  11  2.769515E+05  5.105979E+04  9.424497E+03  1.047431E+05 -1.923881E-10  5.720234E-10
       239  12  2.645983E+05  4.892975E+04  6.833137E+03  1.038936E+05  2.378669E-09 -2.158736E-09
       239  13  2.379454E+05  3.898858E+04  4.762294E+02  9.656968E+04  1.066581E-09 -1.052594E-11
       239  14  2.397284E+05  3.718313E+04  3.141884E+02  9.451971E+04  2.911031E-10 -5.048807E-10
       239  15  2.379450E+05  3.898322E+04  2.715903E+02  9.657184E+04  9.836827E-10 -3.293184E-09
       239  16  1.901547E+05  2.118208E+04 -1.118292E+04  8.344558E+04  5.916649E-10 -2.148648E-10
       239  17  2.025066E+05  2.330657E+04 -8.796225E+03  8.429686E+04  2.678109E-09 -4.919715E-10
       239  18  2.112922E+05  2.903668E+04 -6.290045E+03  8.925036E+04 -4.951901E-10 -1.174692E-09
       239  19  2.857385E+05  5.679532E+04  1.213529E+04  1.096947E+05 -7.579481E+02  2.598261E+03
       239  20  2.769515E+05  5.105979E+04  9.424505E+03  1.047431E+05 -3.729347E+02  2.049781E+03
       239  21  2.645983E+05  4.892975E+04  6.833142E+03  1.038936E+05  1.209169E+01  1.501342E+03
       239  22  2.379454E+05  3.898858E+04  4.762432E+02  9.656967E+04 -1.249494E+03  2.413363E+03
       239  23  2.397284E+05  3.718313E+04  3.141963E+02  9.451971E+04 -8.644592E+02  1.864876E+03
       239  24  2.379450E+05  3.898322E+04  2.715939E+02  9.657184E+04 -4.794072E+02  1.316431E+03
       239  25  1.901547E+05  2.118209E+04 -1.118291E+04  8.344558E+04 -1.740996E+03  2.228480E+03
       239  26  2.025066E+05  2.330657E+04 -8.796216E+03  8.429686E+04 -1.355952E+03  1.679984E+03
       239  27  2.112922E+05  2.903668E+04 -6.290041E+03  8.925036E+04 -9.708853E+02  1.131527E+03
       240   1  2.553042E+05  4.545324E+04  4.497760E+03  1.013478E+05 -1.911671E+02 -1.165317E+03
       240   2  2.465254E+05  3.972933E+04  2.061305E+03  9.639953E+04 -6.161805E+02 -6.324303E+02
       240   3  2.341912E+05  3.761168E+04 -2.248013E+02  9.554892E+04 -1.041074E+03 -9.983381E+01
       240   4  2.379473E+05  3.898232E+04  2.860369E+02  9.657127E+04  3.000916E+02 -9.804896E+02
       240   5  2.397257E+05  3.718355E+04  3.951396E+02  9.452082E+04 -1.251639E+02 -4.476924E+02
       240   6  2.379485E+05  3.899105E+04  6.547689E+02  9.656800E+04 -5.503032E+02  8.481364E+01
       240   7  2.205906E+05  3.251143E+04 -3.925706E+03  9.179481E+04  7.913352E+02 -7.956682E+02
       240   8  2.329260E+05  3.463779E+04 -1.271023E+03  9.264213E+04  3.658455E+02 -2.629572E+02
       240   9  2.417059E+05  4.037042E+04  1.534334E+03  9.758708E+04 -5.953097E+01  2.694614E+02
       240  10  2.553042E+05  4.545323E+04  4.497757E+03  1.013478E+05  2.964064E-09  4.246634E-10
       240  11  2.465254E+05  3.972933E+04  2.061303E+03  9.639953E+04 -7.333989E-11 -3.398520E-09
       240  12  2.341912E+05  3.761168E+04 -2.248033E+02  9.554892E+04 -9.998006E-10 -6.053562E-10
       240  13  2.379473E+05  3.898232E+04  2.860349E+02  9.657127E+04  1.123991E-09  3.279177E-09
       240  14  2.397257E+05  3.718355E+04  3.951392E+02  9.452082E+04  3.099037E-10 -1.926630E-10
       240  15  2.379485E+05  3.899105E+04  6.547683E+02  9.656800E+04  1.198028E-09 -2.016384E-09
       240  16  2.205906E+05  3.251143E+04 -3.925709E+03  9.179481E+04 -1.521585E-09 -2.276562E-09
       240  17  2.329260E+05  3.463779E+04 -1.271024E+03  9.264213E+04  1.468194E-09 -5.936241E-09
       240  18  2.417059E+05  4.037042E+04  1.534334E+03  9.758708E+04  1.885401E-09 -9.670695E-10
       240  19  2.553042E+05  4.545324E+04  4.497760E+03  1.013478E+05  1.911671E+02  1.165317E+03
       240  20  2.465254E+05  3.972933E+04  2.061305E+03  9.639953E+04  6.161805E+02  6.324303E+02
       240  21  2.341912E+05  3.761168E+04 -2.248013E+02  9.554892E+04  1.041074E+03  9.983381E+01
       240  22  2.379473E+05  3.898232E+04  2.860369E+02  9.657127E+04 -3.000916E+02  9.804896E+02
       240  23  2.397257E+05  3.718355E+04  3.951396E+02  9.452082E+04  1.251639E+02  4.476924E+02
       240  24  2.379485E+05  3.899105E+04  6.547689E+02  9.656800E+04  5.503032E+02 -8.481364E+01
       240  25  2.205906E+05  3.251143E+04 -3.925706E+03  9.179481E+04 -7.913352E+02  7.956682E+02
       240  26  2.329260E+05  3.463779E+04 -1.271023E+03  9.264213E+04 -3.658455E+02  2.629572E+02
       240  27  2.417059E+05  4.037042E+04  1.534334E+03  9.758708E+04  5.953097E+01 -2.694614E+02
       241   1  2.248969E+05  3.414392E+04 -2.375224E+03  9.304962E+04 -1.300401E+03  2.065027E+02
       241   2  2.160751E+05  2.837732E+04 -4.259304E+03  8.805203E+04 -2.283651E+03  5.283083E+02
       241   3  2.038489E+05  2.643734E+04 -5.520510E+03  8.712408E+04 -3.264816E+03  8.446474E+02
       241   4  2.379730E+05  3.897473E+04  8.536451E+02  9.658640E+04 -8.078346E+02  3.918234E+02
       241   5  2.396884E+05  3.715867E+04  1.516842E+03  9.451474E+04 -1.795542E+03  7.119436E+02
       241   6  2.380004E+05  3.917018E+04  2.806485E+03  9.651274E+04 -2.781176E+03  1.026592E+03
       241   7  2.510493E+05  4.380558E+04  4.082520E+03  1.001233E+05 -3.152545E+02  5.771493E+02
       241   8  2.633024E+05  4.594007E+04  7.292962E+03  1.009777E+05 -1.307411E+03  8.955868E+02
       241   9  2.721530E+05  5.190310E+04  1.113340E+04  1.059019E+05 -2.297507E+03  1.208548E+03
       241  10  2.248969E+05  3.414392E+04 -2.375228E+03  9.304962E+04 -1.128909E-09 -2.572013E-09
       241  11  2.160751E+05  2.837732E+04 -4.259314E+03  8.805203E+04 -2.708718E-09 -2.864581E-09
       241  12  2.038489E+05  2.643734E+04 -5.520532E+03  8.712408E+04  2.822139E-10  1.141751E-09
       241  13  2.379730E+05  3.897473E+04  8.536436E+02  9.658640E+04  9.852687E-10 -3.060243E-10
       241  14  2.396884E+05  3.715866E+04  1.516835E+03  9.451474E+04  9.456658E-10  3.168341E-09
       241  15  2.380004E+05  3.917017E+04  2.806469E+03  9.651274E+04 -7.120816E-10 -1.342297E-09
       241  16  2.510493E+05  4.380558E+04  4.082519E+03  1.001233E+05  1.014913E-10  7.865598E-10
       241  17  2.633024E+05  4.594007E+04  7.292957E+03  1.009777E+05 -1.109098E-09 -4.723430E-10
       241  18  2.721530E+05  5.190309E+04  1.113338E+04  1.059019E+05 -1.002329E-09 -3.427004E-09
       241  19  2.248969E+05  3.414392E+04 -2.375224E+03  9.304962E+04  1.300401E+03 -2.065027E+02
       241  20  2.160751E+05  2.837732E+04 -4.259304E+03  8.805203E+04  2.283651E+03 -5.283083E+02
       241  21  2.038489E+05  2.643734E+04 -5.520510E+03  8.712408E+04  3.264816E+03 -8.446474E+02
       241  22  2.379730E+05  3.897473E+04  8.536451E+02  9.658640E+04  8.078346E+02 -3.918234E+02
       241  23  2.396884E+05  3.715867E+04  1.516842E+03  9.451474E+04  1.795542E+03 -7.119436E+02
       241  24  2.380004E+05  3.917018E+04  2.806485E+03  9.651274E+04  2.781176E+03 -1.026592E+03
       241  25  2.510493E+05  4.380558E+04  4.082520E+03  1.001233E+05  3.152545E+02 -5.771493E+02
       241  26  2.633024E+05  4.594007E+04  7.292962E+03  1.009777E+05  1.307411E+03 -8.955868E+02
       241  27  2.721530E+05  5.190310E+04  1.113340E+04  1.059019E+05  2.297507E+03 -1.208548E+03
       242   1  1.943332E+05  2.303800E+04 -6.991666E+03  8.526355E+04 -3.960409E+03  1.001572E+03
       242   2  1.855405E+05  1.660150E+04 -6.636234E+03  7.937513E+04 -7.440109E+03  3.584549E+02
       242   3  1.748535E+05  1.717801E+04 -2.932431E+03  7.682981E+04 -1.087316E+04 -4.083847E+02
       242   4  2.381935E+05  3.884623E+04  3.680056E+03  9.674102E+04 -3.438423E+03  1.197936E+03
       242   5  2.393607E+05  3.695950E+04  6.600354E+03  9.445625E+04 -7.018554E+03  5.170086E+02
       242   6  2.386534E+05  4.210538E+04  1.294833E+04  9.551447E+04 -1.055211E+04 -2.876724E+02
       242   7  2.820554E+05  5.465449E+04  1.435158E+04  1.082192E+05 -2.916399E+03  1.394314E+03
       242   8  2.931838E+05  5.731773E+04  1.983672E+04  1.095386E+05 -6.596959E+03  6.755778E+02
       242   9  3.024576E+05  6.703324E+04  2.882885E+04  1.142010E+05 -1.023102E+04 -1.669445E+02
       242  10  1.943332E+05  2.303799E+04 -6.991698E+03  8.526356E+04  6.680371E-10  3.463504E-09
       242  11  1.855404E+05  1.660148E+04 -6.636338E+03  7.937513E+04 -8.037029E-10  4.534040E-09
       242  12  1.748534E+05  1.717798E+04 -2.932653E+03  7.682981E+04  3.317695E-10 -5.475865E-10
       242  13  2.381934E+05  3.884622E+04  3.680031E+03  9.674103E+04  1.374963E-10 -1.717350E-09
       242  14  2.393607E+05  3.695949E+04  6.600261E+03  9.445626E+04 -1.641311E-09  2.572525E-09
       242  15  2.386533E+05  4.210535E+04  1.294812E+04  9.551447E+04  5.154776E-10  7.428134E-10
       242  16  2.820554E+05  5.465448E+04  1.435156E+04  1.082192E+05 -1.277476E-09 -1.425537E-09
       242  17  2.931838E+05  5.731772E+04  1.983664E+04  1.095386E+05  5.272646E-10  1.676333E-09
       242  18  3.024575E+05  6.703322E+04  2.882865E+04  1.142010E+05  1.015143E-10  1.413878E-09
       242  19  1.943332E+05  2.303800E+04 -6.991666E+03  8.526355E+04  3.960409E+03 -1.001572E+03
       242  20  1.855405E+05  1.660150E+04 -6.636234E+03  7.937513E+04  7.440109E+03 -3.584549E+02
       242  21  1.748535E+05  1.717801E+04 -2.932431E+03  7.682981E+04  1.087316E+04  4.083847E+02
       242  22  2.381935E+05  3.884623E+04  3.680056E+03  9.674102E+04  3.438423E+03 -1.197936E+03
       242  23  2.393607E+05  3.695950E+04  6.600354E+03  9.445625E+04  7.018554E+03 -5.170086E+02
       242  24  2.386534E+05  4.210538E+04  1.294833E+04  9.551447E+04  1.055211E+04  2.876724E+02
       242  25  2.820554E+05  5.465449E+04  1.435158E+04  1.082192E+05  2.916399E+03 -1.394314E+03
       242  26  2.931838E+05  5.731773E+04  1.983672E+04  1.095386E+05  6.596959E+03 -6.755778E+02
       242  27  3.024576E+05  6.703324E+04  2.882885E+04  1.142010E+05  1.023102E+04  1.669445E+02
       243   1  1.614757E+05  1.456928E+04 -1.808007E+03  8.440167E+04 -1.405405E+04 -8.742356E+02
       243   2  1.563284E+05 -2.016510E+03  7.500923E+03  6.453592E+04 -2.717806E+04 -5.732955E+03
       243   3  1.683847E+05  3.547034E+04  4.040535E+04  3.563238E+04 -3.928072E+04 -1.330676E+04
       243   4  2.407574E+05  3.687051E+04  1.627403E+04  9.869992E+04 -1.290175E+04 -4.406673E+02
       243   5  2.354976E+05  3.479906E+04  2.842454E+04  9.374754E+04 -2.822519E+04 -6.127201E+03
       243   6  2.478733E+05  8.723028E+04  6.591041E+04  7.975838E+04 -4.252727E+04 -1.452935E+04
       243   7  3.200456E+05  5.917170E+04  3.435575E+04  1.129996E+05 -1.174928E+04 -7.071357E+00
       243   8  3.146726E+05  7.161584E+04  4.934746E+04  1.229627E+05 -2.927246E+04 -6.521529E+03
       243   9  3.273679E+05  1.389946E+05  9.141454E+04  1.238899E+05 -4.577422E+04 -1.575237E+04
       243  10  1.614755E+05  1.456923E+04 -1.808380E+03  8.440166E+04  1.793234E-09 -5.334786E-10
       243  11  1.563276E+05 -2.016744E+03  7.499474E+03  6.453579E+04  3.836668E-10 -2.647113E-09
       243  12  1.683830E+05  3.546973E+04  4.040212E+04  3.563196E+04 -2.434291E-10 -4.389115E-11
       243  13  2.407572E+05  3.687046E+04  1.627372E+04  9.869992E+04  2.315674E-09 -5.624875E-10
       243  14  2.354968E+05  3.479880E+04  2.842297E+04  9.374741E+04  8.006792E-10 -2.057491E-09
       243  15  2.478713E+05  8.722957E+04  6.590661E+04  7.975788E+04  8.481555E-10  1.189167E-09
       243  16  3.200454E+05  5.917166E+04  3.435549E+04  1.129996E+05 -5.663046E-10 -6.855476E-11
       243  17  3.146716E+05  7.161557E+04  4.934577E+04  1.229625E+05  1.172976E-10 -1.117703E-09
       243  18  3.273656E+05  1.389938E+05  9.141014E+04  1.238894E+05  6.429702E-10  9.515191E-10
       243  19  1.614757E+05  1.456928E+04 -1.808007E+03  8.440167E+04  1.405405E+04  8.742356E+02
       243  20  1.563284E+05 -2.016510E+03  7.500923E+03  6.453592E+04  2.717806E+04  5.732955E+03
       243  21  1.683847E+05  3.547034E+04  4.040535E+04  3.563238E+04  3.928072E+04  1.330676E+04
       243  22  2.407574E+05  3.687051E+04  1.627403E+04  9.869992E+04  1.290175E+04  4.406673E+02
       243  23  2.354976E+05  3.479906E+04  2.842454E+04  9.374754E+04  2.822519E+04  6.127201E+03
       243  24  2.478733E+05  8.723028E+04  6.591041E+04  7.975838E+04  4.252727E+04  1.452935E+04
       243  25  3.200456E+05  5.917170E+04  3.435575E+04  1.129996E+05  1.174928E+04  7.071357E+00
       243  26  3.146726E+05  7.161584E+04  4.934746E+04  1.229627E+05  2.927246E+04  6.521529E+03
       243  27  3.273679E+05  1.389946E+05  9.141454E+04  1.238899E+05  4.577422E+04  1.575237E+04
       244   1 -5.726420E+04 -3.278950E+05 -5.839795E+04  4.392552E+04 -1.931397E+03 -1.081904E+04
       244   2 -3.080583E+04 -2.569576E+05 -3.426370E+04  2.408977E+04 -4.991132E+03 -4.060652E+03
       244   3 -1.394630E+04 -1.892355E+05 -1.692080E+04  3.918579E+04 -2.469229E+03  2.701797E+03
       244   4 -8.253745E+03 -1.311755E+05 -1.014237E+04  4.037411E+04 -1.933787E+03 -6.471870E+03
       244   5  4.775881E+02 -1.299234E+05 -4.916339E+03  2.291077E+04 -4.991159E+03 -3.863771E+03
       244   6  3.321070E+02 -1.311703E+05 -3.597572E+03  4.037904E+04 -2.467352E+03 -1.252439E+03
       244   7  4.075389E+04  6.557928E+04  3.811045E+04  3.682159E+04 -1.936226E+03 -2.123324E+03
       244   8  3.175988E+04 -2.874267E+03  2.442995E+04  2.173152E+04 -4.991187E+03 -3.666851E+03
       244   9  1.461030E+04 -7.310184E+04  9.725492E+03  4.157241E+04 -2.465491E+03 -5.207041E+03
       244  10 -5.726423E+04 -3.278951E+05 -5.839817E+04  4.392550E+04  8.737891E-10  3.575238E-11
       244  11 -3.080586E+04 -2.569576E+05 -3.426378E+04  2.408975E+04  1.676719E-09  1.914626E-09
       244  12 -1.394631E+04 -1.892355E+05 -1.692082E+04  3.918579E+04 -1.288542E-10  9.103472E-10
       244  13 -8.253761E+03 -1.311756E+05 -1.014245E+04  4.037410E+04  6.373494E-10  5.663049E-10
       244  14  4.775573E+02 -1.299234E+05 -4.916414E+03  2.291075E+04  6.482467E-10  4.920612E-10
       244  15  3.321000E+02 -1.311703E+05 -3.597586E+03  4.037904E+04 -3.858302E-12  2.593231E-10
       244  16  4.075389E+04  6.557927E+04  3.811043E+04  3.682158E+04  3.441774E-10  2.338819E-10
       244  17  3.175985E+04 -2.874288E+03  2.442987E+04  2.173151E+04  1.198731E-09 -3.451498E-10
       244  18  1.461028E+04 -7.310187E+04  9.725430E+03  4.157240E+04 -1.381795E-09 -1.413519E-09
       244  19 -5.726420E+04 -3.278950E+05 -5.839795E+04  4.392552E+04  1.931397E+03  1.081904E+04
       244  20 -3.080583E+04 -2.569576E+05 -3.426370E+04  2.408977E+04  4.991132E+03  4.060652E+03
       244  21 -1.394630E+04 -1.892355E+05 -1.692080E+04  3.918579E+04  2.469229E+03 -2.701797E+03
       244  22 -8.253745E+03 -1.311755E+05 -1.014237E+04  4.037411E+04  1.933787E+03  6.471870E+03
       244  23  4.775881E+02 -1.299234E+05 -4.916339E+03  2.291077E+04  4.991159E+03  3.863771E+03
       244  24  3.321070E+02 -1.311703E+05 -3.597572E+03  4.037904E+04  2.467352E+03  1.252439E+03
       244  25  4.075389E+04  6.557928E+04  3.811045E+04  3.682159E+04  1.936226E+03  2.123324E+03
       244  26  3.175988E+04 -2.874267E+03  2.442995E+04  2.173152E+04  4.991187E+03  3.666851E+03
       244  27  1.461030E+04 -7.310184E+04  9.725492E+03  4.157241E+04  2.465491E+03  5.207041E+03
       245   1  1.100484E+03 -1.239870E+05 -1.799141E+03  4.081452E+04  2.494998E+02  1.700000E+03
       245   2  1.879478E+04 -5.438424E+04  1.412465E+04  2.278378E+04  3.346221E+03  3.221109E+03
       245   3  3.461360E+04  1.460924E+04  2.860006E+04  3.987821E+04  6.263578E+03  4.742652E+03
       245   4 -5.672276E+02 -1.307558E+05 -3.370239E+03  4.042072E+04  2.505965E+02 -6.709441E+02
       245   5  1.035145E+02 -1.304387E+05 -3.269307E+03  2.285782E+04  3.347387E+03  9.833603E+02
       245   6 -1.124168E+03 -1.307587E+05 -4.709154E+03  4.042042E+04  6.264789E+03  2.637934E+03
       245   7 -2.234939E+03 -1.375245E+05 -4.941318E+03  4.002692E+04  2.516961E+02 -3.041862E+03
       245   8 -1.858815E+04 -2.064878E+05 -2.066362E+04  2.293186E+04  3.348553E+03 -1.254116E+03
       245   9 -3.686341E+04 -2.761070E+05 -3.801974E+04  4.096250E+04  6.265997E+03  5.337047E+02
       245  10  1.100483E+03 -1.239870E+05 -1.799147E+03  4.081452E+04 -1.968378E-10  1.678047E-09
       245  11  1.879476E+04 -5.438425E+04  1.412461E+04  2.278377E+04  6.474544E-10  1.627871E-09
       245  12  3.461355E+04  1.460920E+04  2.859995E+04  3.987819E+04 -6.350729E-10  9.046248E-10
       245  13 -5.672278E+02 -1.307558E+05 -3.370240E+03  4.042072E+04 -1.456818E-09 -5.355504E-10
       245  14  1.035022E+02 -1.304387E+05 -3.269330E+03  2.285782E+04 -1.375774E-11  3.535875E-11
       245  15 -1.124212E+03 -1.307587E+05 -4.709241E+03  4.042041E+04 -2.265660E-10 -3.190848E-10
       245  16 -2.234941E+03 -1.375245E+05 -4.941336E+03  4.002692E+04 -9.064537E-10 -2.762889E-09
       245  17 -1.858816E+04 -2.064878E+05 -2.066365E+04  2.293186E+04  3.712345E-10 -6.116826E-10
       245  18 -3.686345E+04 -2.761070E+05 -3.801982E+04  4.096250E+04  1.980837E-09 -8.350070E-10
       245  19  1.100484E+03 -1.239870E+05 -1.799141E+03  4.081452E+04 -2.494998E+02 -1.700000E+03
       245  20  1.879478E+04 -5.438424E+04  1.412465E+04  2.278378E+04 -3.346221E+03 -3.221109E+03
       245  21  3.461360E+04  1.460924E+04  2.860006E+04  3.987821E+04 -6.263578E+03 -4.742652E+03
       245  22 -5.672276E+02 -1.307558E+05 -3.370239E+03  4.042072E+04 -2.505965E+02  6.709441E+02
       245  23  1.035145E+02 -1.304387E+05 -3.269307E+03  2.285782E+04 -3.347387E+03 -9.833603E+02
       245  24 -1.124168E+03 -1.307587E+05 -4.709154E+03  4.042042E+04 -6.264789E+03 -2.637934E+03
       245  25 -2.234939E+03 -1.375245E+05 -4.941318E+03  4.002692E+04 -2.516961E+02  3.041862E+03
       245  26 -1.858815E+04 -2.064878E+05 -2.066362E+04  2.293186E+04 -3.348553E+03  1.254116E+03
       245  27 -3.686341E+04 -2.761070E+05 -3.801974E+04  4.096250E+04 -6.265997E+03 -5.337047E+02
       246   1  5.239902E+04  7.860579E+04  4.247212E+04  4.252467E+04  9.381738E+03  8.367220E+03
       246   2  6.954415E+04  1.496481E+05  5.560285E+04  2.071164E+04  1.129396E+04  6.065205E+03
       246   3  7.140525E+04  2.172797E+05  6.643311E+04  3.365956E+04  3.897970E+03  3.755773E+03
       246   4  7.468572E+02 -1.316489E+05 -5.545567E+03  4.034339E+04  9.384702E+03  3.481044E+03
       246   5  8.882361E+02 -1.293452E+05 -8.672259E+03  2.295615E+04  1.129292E+04  8.104146E+03
       246   6 -1.546006E+04 -1.316602E+05 -1.890995E+04  4.033120E+04  3.891022E+03  1.271994E+04
       246   7 -5.090834E+04 -3.418625E+05 -5.356605E+04  3.816286E+04  9.387702E+03 -1.403492E+03
       246   8 -6.777310E+04 -4.082665E+05 -7.295252E+04  2.519966E+04  1.129188E+04  1.014218E+04
       246   9 -1.023342E+05 -4.804890E+05 -1.042616E+05  4.699910E+04  3.884265E+03  2.167909E+04
       246  10  5.239890E+04  7.860569E+04  4.247182E+04  4.252460E+04 -2.339956E-09 -1.349404E-10
       246  11  6.954400E+04  1.496480E+05  5.560254E+04  2.071158E+04 -1.612399E-09  1.463563E-09
       246  12  7.140523E+04  2.172797E+05  6.643305E+04  3.365954E+04 -1.404834E-09 -1.682328E-10
       246  13  7.467594E+02 -1.316489E+05 -5.545756E+03  4.034336E+04 -1.028392E-09  5.158305E-10
       246  14  8.880816E+02 -1.293453E+05 -8.672622E+03  2.295608E+04  5.578087E-10 -2.466424E-10
       246  15 -1.546012E+04 -1.316604E+05 -1.891028E+04  4.033116E+04  1.009628E-09 -1.123251E-09
       246  16 -5.090844E+04 -3.418625E+05 -5.356622E+04  3.816287E+04  3.633891E-10  4.279773E-10
       246  17 -6.777327E+04 -4.082667E+05 -7.295295E+04  2.519957E+04  4.579310E-10 -1.950943E-09
       246  18 -1.023343E+05 -4.804895E+05 -1.042625E+05  4.699903E+04 -5.429442E-10 -1.677325E-09
       246  19  5.239902E+04  7.860579E+04  4.247212E+04  4.252467E+04 -9.381738E+03 -8.367220E+03
       246  20  6.954415E+04  1.496481E+05  5.560285E+04  2.071164E+04 -1.129396E+04 -6.065205E+03
       246  21  7.140525E+04  2.172797E+05  6.643311E+04  3.365956E+04 -3.897970E+03 -3.755773E+03
       246  22  7.468572E+02 -1.316489E+05 -5.545567E+03  4.034339E+04 -9.384702E+03 -3.481044E+03
       246  23  8.882361E+02 -1.293452E+05 -8.672259E+03  2.295615E+04 -1.129292E+04 -8.104146E+03
       246  24 -1.546006E+04 -1.316602E+05 -1.890995E+04  4.033120E+04 -3.891022E+03 -1.271994E+04
       246  25 -5.090834E+04 -3.418625E+05 -5.356605E+04  3.816286E+04 -9.387702E+03  1.403492E+03
       246  26 -6.777310E+04 -4.082665E+05 -7.295252E+04  2.519966E+04 -1.129188E+04 -1.014218E+04
       246  27 -1.023342E+05 -4.804890E+05 -1.042616E+05  4.699910E+04 -3.884265E+03 -2.167909E+04
       247   1  1.199393E+05  6.833150E+04  6.199316E+04  1.628361E+04  1.204124E+04 -4.910812E+03
       247   2  9.267356E+04  7.297978E+04  5.274020E+04  1.972235E+04  3.105590E+03 -1.639690E+04
       247   3  6.447055E+04  6.919847E+04  4.720125E+04  2.887617E+04 -5.832409E+03 -1.950201E+04
       247   4 -2.315239E+05 -1.845167E+04 -2.049838E+04  2.768235E+04 -1.428813E+04 -4.922153E+03
       247   5 -2.298278E+05 -4.057530E+03 -9.953727E+03  2.482015E+04 -9.142042E+03 -1.640355E+04
       247   6 -2.315162E+05 -5.405832E+02 -5.475431E+03  2.767328E+04 -3.998871E+03 -1.950181E+04
       247   7 -5.828715E+05 -1.052428E+05 -1.029957E+05  3.907459E+04 -4.060269E+04 -4.934464E+03
       247   8 -5.522288E+05 -8.110089E+04 -7.265200E+04  2.991523E+04 -2.138345E+04 -1.641041E+04
       247   9 -5.274174E+05 -7.028447E+04 -5.815540E+04  2.647098E+04 -2.166182E+03 -1.950162E+04
       247  10  1.199392E+05  6.833144E+04  6.199284E+04  1.628365E+04  1.885177E-09 -7.325550E-11
       247  11  9.267348E+04  7.297949E+04  5.273968E+04  1.972239E+04  4.049089E-10 -9.374436E-10
       247  12  6.447042E+04  6.919805E+04  4.720047E+04  2.887608E+04  5.041940E-10 -1.014368E-09
       247  13 -2.315241E+05 -1.845175E+04 -2.049881E+04  2.768229E+04  1.235144E-10  2.748471E-10
       247  14 -2.298279E+05 -4.057841E+03 -9.954389E+03  2.482003E+04  2.972420E-10 -7.391566E-10
       247  15 -2.315163E+05 -5.409959E+02 -5.476176E+03  2.767322E+04 -2.941181E-10 -5.600492E-10
       247  16 -5.828733E+05 -1.052433E+05 -1.029988E+05  3.907442E+04 -1.823677E-09 -5.566123E-11
       247  17 -5.522294E+05 -8.110130E+04 -7.265336E+04  2.991494E+04 -5.730200E-10 -1.876677E-09
       247  18 -5.274175E+05 -7.028488E+04 -5.815612E+04  2.647094E+04 -1.979600E-09 -2.633504E-09
       247  19  1.199393E+05  6.833150E+04  6.199316E+04  1.628361E+04 -1.204124E+04  4.910812E+03
       247  20  9.267356E+04  7.297978E+04  5.274020E+04  1.972235E+04 -3.105590E+03  1.639690E+04
       247  21  6.447055E+04  6.919847E+04  4.720125E+04  2.887617E+04  5.832409E+03  1.950201E+04
       247  22 -2.315239E+05 -1.845167E+04 -2.049838E+04  2.768235E+04  1.428813E+04  4.922153E+03
       247  23 -2.298278E+05 -4.057530E+03 -9.953727E+03  2.482015E+04  9.142042E+03  1.640355E+04
       247  24 -2.315162E+05 -5.405832E+02 -5.475431E+03  2.767328E+04  3.998871E+03  1.950181E+04
       247  25 -5.828715E+05 -1.052428E+05 -1.029957E+05  3.907459E+04  4.060269E+04  4.934464E+03
       247  26 -5.522288E+05 -8.110089E+04 -7.265200E+04  2.991523E+04  2.138345E+04  1.641041E+04
       247  27 -5.274174E+05 -7.028447E+04 -5.815540E+04  2.647098E+04  2.166182E+03  1.950162E+04
       248   1  4.669260E+04  6.447655E+04  4.475680E+04  2.758419E+04 -4.164588E+03 -1.870851E+04
       248   2  1.903461E+04  5.843211E+04  4.065932E+04  2.468290E+04 -4.272442E+03 -1.781336E+04
       248   3 -8.697935E+03  5.204110E+04  3.654503E+04  2.804738E+04 -4.381006E+03 -1.617202E+04
       248   4 -2.308273E+05 -8.176090E+02 -4.170054E+03  2.779680E+04 -3.286295E+03 -1.870874E+04
       248   5 -2.306786E+05 -1.069728E+02 -2.295620E+03  2.466356E+04 -2.140889E+03 -1.781267E+04
       248   6 -2.308225E+05  3.951049E+01 -1.308483E+03  2.779625E+04 -9.961789E+02 -1.617027E+04
       248   7 -5.082718E+05 -6.611598E+04 -5.309973E+04  2.800931E+04 -2.408382E+03 -1.870897E+04
       248   8 -4.803305E+05 -5.864939E+04 -4.525266E+04  2.464422E+04 -1.016765E+01 -1.781199E+04
       248   9 -4.528985E+05 -5.196469E+04 -3.916358E+04  2.754520E+04  2.387476E+03 -1.616851E+04
       248  10  4.669249E+04  6.447617E+04  4.475611E+04  2.758413E+04 -5.896892E-10 -1.464076E-09
       248  11  1.903450E+04  5.843176E+04  4.065869E+04  2.468284E+04 -4.816150E-10 -7.077676E-11
       248  12 -8.698026E+03  5.204081E+04  3.654450E+04  2.804732E+04  2.311495E-10  7.557792E-10
       248  13 -2.308274E+05 -8.179877E+02 -4.170732E+03  2.779676E+04 -8.055983E-10 -1.217463E-09
       248  14 -2.306787E+05 -1.073147E+02 -2.296225E+03  2.466353E+04  2.264910E-10 -3.622866E-10
       248  15 -2.308226E+05  3.922947E+01 -1.308976E+03  2.779623E+04 -1.492441E-09 -5.855309E-10
       248  16 -5.082719E+05 -6.611636E+04 -5.310040E+04  2.800927E+04  2.912458E-10 -1.016858E-09
       248  17 -4.803306E+05 -5.864973E+04 -4.525325E+04  2.464422E+04 -4.951896E-10  1.086987E-10
       248  18 -4.528986E+05 -5.196498E+04 -3.916408E+04  2.754523E+04 -5.996127E-10  3.028189E-10
       248  19  4.669260E+04  6.447655E+04  4.475680E+04  2.758419E+04  4.164588E+03  1.870851E+04
       248  20  1.903461E+04  5.843211E+04  4.065932E+04  2.468290E+04  4.272442E+03  1.781336E+04
       248  21 -8.697935E+03  5.204110E+04  3.654503E+04  2.804738E+04  4.381006E+03  1.617202E+04
       248  22 -2.308273E+05 -8.176090E+02 -4.170054E+03  2.779680E+04  3.286295E+03  1.870874E+04
       248  23 -2.306786E+05 -1.069728E+02 -2.295620E+03  2.466356E+04  2.140889E+03  1.781267E+04
       248  24 -2.308225E+05  3.951049E+01 -1.308483E+03  2.779625E+04  9.961789E+02  1.617027E+04
       248  25 -5.082718E+05 -6.611598E+04 -5.309973E+04  2.800931E+04  2.408382E+03  1.870897E+04
       248  26 -4.803305E+05 -5.864939E+04 -4.525266E+04  2.464422E+04  1.016765E+01  1.781199E+04
       248  27 -4.528985E+05 -5.196469E+04 -3.916358E+04  2.754520E+04 -2.387476E+03  1.616851E+04
       249   1 -2.674660E+04  4.775586E+04  3.363084E+04  2.796488E+04 -4.096238E+03 -1.498517E+04
       249   2 -5.444469E+04  4.128561E+04  2.931027E+04  2.478305E+04 -3.927762E+03 -1.298709E+04
       249   3 -8.217156E+04  3.481459E+04  2.487781E+04  2.791954E+04 -3.759600E+03 -1.092220E+04
       249   4 -2.307669E+05  2.090888E+01 -9.945358E+02  2.780799E+04 -7.956683E+02 -1.498333E+04
       249   5 -2.307407E+05  4.488129E+01 -5.691841E+02  2.464877E+04 -5.150966E+02 -1.298495E+04
       249   6 -2.307636E+05  4.863824E+01 -3.336666E+02  2.780797E+04 -2.348325E+02 -1.091976E+04
       249   7 -4.347461E+05 -4.771624E+04 -3.562122E+04  2.765116E+04  2.503852E+03 -1.498148E+04
       249   8 -4.070061E+05 -4.119748E+04 -3.044960E+04  2.451452E+04  2.896630E+03 -1.298282E+04
       249   9 -3.793338E+05 -3.471847E+04 -2.554581E+04  2.769642E+04  3.289118E+03 -1.091732E+04
       249  10 -2.674667E+04  4.775562E+04  3.363039E+04  2.796483E+04 -1.816469E-10  1.725990E-09
       249  11 -5.444475E+04  4.128542E+04  2.930993E+04  2.478301E+04 -1.010555E-10  1.909046E-09
       249  12 -8.217161E+04  3.481445E+04  2.487756E+04  2.791951E+04  6.049045E-10  1.795125E-10
       249  13 -2.307669E+05  2.066766E+01 -9.949588E+02  2.780799E+04 -1.637954E-09 -4.864335E-10
       249  14 -2.307408E+05  4.470018E+01 -5.695014E+02  2.464876E+04  7.075101E-10  1.399171E-09
       249  15 -2.307636E+05  4.851020E+01 -3.338908E+02  2.780797E+04  6.047544E-10  1.690590E-09
       249  16 -4.347462E+05 -4.771649E+04 -3.562166E+04  2.765119E+04  7.978683E-10  6.372923E-10
       249  17 -4.070061E+05 -4.119767E+04 -3.044994E+04  2.451455E+04 -1.177000E-09  1.045518E-09
       249  18 -3.793339E+05 -3.471860E+04 -2.554605E+04  2.769645E+04 -1.883411E-09  5.434355E-11
       249  19 -2.674660E+04  4.775586E+04  3.363084E+04  2.796488E+04  4.096238E+03  1.498517E+04
       249  20 -5.444469E+04  4.128561E+04  2.931027E+04  2.478305E+04  3.927762E+03  1.298709E+04
       249  21 -8.217156E+04  3.481459E+04  2.487781E+04  2.791954E+04  3.759600E+03  1.092220E+04
       249  22 -2.307669E+05  2.090888E+01 -9.945358E+02  2.780799E+04  7.956683E+02  1.498333E+04
       249  23 -2.307407E+05  4.488129E+01 -5.691841E+02  2.464877E+04  5.150966E+02  1.298495E+04
       249  24 -2.307636E+05  4.863824E+01 -3.336666E+02  2.780797E+04  2.348325E+02  1.091976E+04
       249  25 -4.347461E+05 -4.771624E+04 -3.562122E+04  2.765116E+04 -2.503852E+03  1.498148E+04
       249  26 -4.070061E+05 -4.119748E+04 -3.044960E+04  2.451452E+04 -2.896630E+03  1.298282E+04
       249  27 -3.793338E+05 -3.471847E+04 -2.554581E+04  2.769642E+04 -3.289118E+03  1.091732E+04
       250   1 -1.002461E+05  3.055990E+04  2.176846E+04  2.790387E+04 -3.699889E+03 -9.699638E+03
       250   2 -1.279645E+05  2.408172E+04  1.722313E+04  2.471813E+04 -3.629534E+03 -7.602509E+03
       250   3 -1.556991E+05  1.761363E+04  1.263158E+04  2.785810E+04 -3.559345E+03 -5.499489E+03
       250   4 -2.307559E+05  4.748898E+01 -2.592281E+02  2.780961E+04 -1.821077E+02 -9.697097E+03
       250   5 -2.307455E+05  4.366293E+01 -1.652218E+02  2.464673E+04 -1.019707E+02 -7.599833E+03
       250   6 -2.307540E+05  4.813723E+01 -1.243771E+02  2.780961E+04 -2.199597E+01 -5.496675E+03
       250   7 -3.612490E+05 -3.046581E+04 -2.228742E+04  2.771536E+04  3.334958E+03 -9.694558E+03
       250   8 -3.335160E+05 -2.399495E+04 -1.755386E+04  2.457533E+04  3.425027E+03 -7.597157E+03
       250   9 -3.058035E+05 -1.751765E+04 -1.288047E+04  2.776113E+04  3.514939E+03 -5.493861E+03
       250  10 -1.002461E+05  3.055979E+04  2.176826E+04  2.790384E+04  1.362368E-09  1.306794E-10
       250  11 -1.279645E+05  2.408166E+04  1.722299E+04  2.471811E+04 -3.487139E-10  2.543324E-09
       250  12 -1.556991E+05  1.761360E+04  1.263150E+04  2.785808E+04 -7.868545E-10  1.531571E-09
       250  13 -2.307560E+05  4.738801E+01 -2.594048E+02  2.780961E+04  1.466666E-09  1.199198E-10
       250  14 -2.307455E+05  4.360091E+01 -1.653303E+02  2.464673E+04 -3.327996E-11  1.893691E-09
       250  15 -2.307541E+05  4.810479E+01 -1.244339E+02  2.780961E+04 -1.038636E-09  6.803371E-10
       250  16 -3.612491E+05 -3.046591E+04 -2.228762E+04  2.771539E+04 -4.620206E-10 -7.737045E-11
       250  17 -3.335160E+05 -2.399501E+04 -1.755399E+04  2.457535E+04  7.104691E-10  1.609329E-10
       250  18 -3.058035E+05 -1.751769E+04 -1.288055E+04  2.776114E+04  1.596901E-10  7.763165E-10
       250  19 -1.002461E+05  3.055990E+04  2.176846E+04  2.790387E+04  3.699889E+03  9.699638E+03
       250  20 -1.279645E+05  2.408172E+04  1.722313E+04  2.471813E+04  3.629534E+03  7.602509E+03
       250  21 -1.556991E+05  1.761363E+04  1.263158E+04  2.785810E+04  3.559345E+03  5.499489E+03
       250  22 -2.307559E+05  4.748898E+01 -2.592281E+02  2.780961E+04  1.821077E+02  9.697097E+03
       250  23 -2.307455E+05  4.366293E+01 -1.652218E+02  2.464673E+04  1.019707E+02  7.599833E+03
       250  24 -2.307540E+05  4.813723E+01 -1.243771E+02  2.780961E+04  2.199597E+01  5.496675E+03
       250  25 -3.612490E+05 -3.046581E+04 -2.228742E+04  2.771536E+04 -3.334958E+03  9.694558E+03
       250  26 -3.335160E+05 -2.399495E+04 -1.755386E+04  2.457533E+04 -3.425027E+03  7.597157E+03
       250  27 -3.058035E+05 -1.751765E+04 -1.288047E+04  2.776113E+04 -3.514939E+03  5.493861E+03
       251   1 -1.737848E+05  1.335991E+04  9.455480E+03  2.784556E+04 -3.538152E+03 -4.273441E+03
       251   2 -2.015078E+05  6.882834E+03  4.805536E+03  2.465781E+04 -3.467229E+03 -2.168929E+03
       251   3 -2.292500E+05  4.135384E+02  1.077688E+02  2.779831E+04 -3.396351E+03 -6.755233E+01
       251   4 -2.307535E+05  4.862218E+01 -1.190825E+02  2.781017E+04 -8.256292E-01 -4.270578E+03
       251   5 -2.307439E+05  4.583296E+01 -1.361645E+02  2.464603E+04  6.477782E+01 -2.166033E+03
       251   6 -2.307529E+05  5.188731E+01 -1.972807E+02  2.781017E+04  1.303400E+02 -6.462402E+01
       251   7 -2.877190E+05 -1.326283E+04 -9.693700E+03  2.777478E+04  3.536187E+03 -4.267715E+03
       251   8 -2.599792E+05 -6.791206E+03 -5.077845E+03  2.463425E+04  3.596624E+03 -2.163138E+03
       251   9 -2.322559E+05 -3.097573E+02 -5.022836E+02  2.782202E+04  3.657023E+03 -6.169556E+01
       251  10 -1.737848E+05  1.335989E+04  9.455422E+03  2.784555E+04  2.069636E-09 -1.459249E-10
       251  11 -2.015078E+05  6.882825E+03  4.805504E+03  2.465780E+04 -1.414116E-10 -1.055903E-10
       251  12 -2.292500E+05  4.135353E+02  1.077471E+02  2.779831E+04 -2.493367E-09 -4.190747E-10
       251  13 -2.307535E+05  4.860260E+01 -1.191167E+02  2.781017E+04  2.420047E-10  2.812050E-09
       251  14 -2.307439E+05  4.582792E+01 -1.361733E+02  2.464603E+04 -2.117663E-09  1.280783E-10
       251  15 -2.307529E+05  5.188730E+01 -1.972807E+02  2.781017E+04  5.768381E-10 -4.929522E-10
       251  16 -2.877190E+05 -1.326285E+04 -9.693758E+03  2.777479E+04 -3.424184E-09  2.088383E-09
       251  17 -2.599792E+05 -6.791215E+03 -5.077878E+03  2.463426E+04 -1.011793E-09 -5.880273E-10
       251  18 -2.322559E+05 -3.097609E+02 -5.023087E+02  2.782202E+04  1.337338E-09 -7.755435E-10
       251  19 -1.737848E+05  1.335991E+04  9.455480E+03  2.784556E+04  3.538152E+03  4.273441E+03
       251  20 -2.015078E+05  6.882834E+03  4.805536E+03  2.465781E+04  3.467229E+03  2.168929E+03
       251  21 -2.292500E+05  4.135384E+02  1.077688E+02  2.779831E+04  3.396351E+03  6.755233E+01
       251  22 -2.307535E+05  4.862218E+01 -1.190825E+02  2.781017E+04  8.256292E-01  4.270578E+03
       251  23 -2.307439E+05  4.583296E+01 -1.361645E+02  2.464603E+04 -6.477782E+01  2.166033E+03
       251  24 -2.307529E+05  5.188731E+01 -1.972807E+02  2.781017E+04 -1.303400E+02  6.462402E+01
       251  25 -2.877190E+05 -1.326283E+04 -9.693700E+03  2.777478E+04 -3.536187E+03  4.267715E+03
       251  26 -2.599792E+05 -6.791206E+03 -5.077845E+03  2.463425E+04 -3.596624E+03  2.163138E+03
       251  27 -2.322559E+05 -3.097573E+02 -5.022836E+02  2.782202E+04 -3.657023E+03  6.169556E+01
       252   1 -2.473434E+05 -3.840246E+03 -3.127952E+03  2.778011E+04 -3.361664E+03  1.157006E+03
       252   2 -2.750477E+05 -1.032073E+04 -7.951881E+03  2.459175E+04 -3.086462E+03  3.238832E+03
       252   3 -3.028052E+05 -1.682512E+04 -1.296448E+04  2.772871E+04 -2.811173E+03  5.278532E+03
       252   4 -2.307581E+05  5.354688E+01 -2.490367E+02  2.780950E+04  1.696755E+02  1.159932E+03
       252   5 -2.307377E+05  5.101452E+01 -4.164074E+02  2.464686E+04  3.740697E+02  3.241645E+03
       252   6 -2.307590E+05  3.689792E+01 -7.232792E+02  2.780952E+04  5.785621E+02  5.281233E+03
       252   7 -2.141725E+05  3.947331E+03  2.629916E+03  2.783889E+04  3.701106E+03  1.162859E+03
       252   8 -1.864258E+05  1.042266E+04  7.119047E+03  2.470197E+04  3.834840E+03  3.244458E+03
       252   9 -1.587076E+05  1.689865E+04  1.151780E+04  2.789033E+04  3.968678E+03  5.283935E+03
       252  10 -2.473434E+05 -3.840250E+03 -3.127976E+03  2.778012E+04  7.908955E-10  5.570668E-10
       252  11 -2.750477E+05 -1.032074E+04 -7.951919E+03  2.459176E+04 -1.984668E-09 -8.450839E-10
       252  12 -3.028052E+05 -1.682516E+04 -1.296455E+04  2.772873E+04 -3.625419E-09  1.543719E-10
       252  13 -2.307581E+05  5.354543E+01 -2.490393E+02  2.780950E+04  4.321421E-10 -2.198697E-10
       252  14 -2.307377E+05  5.100320E+01 -4.164274E+02  2.464685E+04 -1.491563E-09 -6.517608E-10
       252  15 -2.307590E+05  3.686788E+01 -7.233322E+02  2.780951E+04 -2.558440E-10  7.318898E-10
       252  16 -2.141726E+05  3.947326E+03  2.629887E+03  2.783888E+04 -2.991941E-10  7.159960E-10
       252  17 -1.864258E+05  1.042264E+04  7.119000E+03  2.470196E+04  5.714098E-10 -2.784978E-09
       252  18 -1.587076E+05  1.689862E+04  1.151772E+04  2.789031E+04  1.191919E-09  7.566561E-11
       252  19 -2.473434E+05 -3.840246E+03 -3.127952E+03  2.778011E+04  3.361664E+03 -1.157006E+03
       252  20 -2.750477E+05 -1.032073E+04 -7.951881E+03  2.459175E+04  3.086462E+03 -3.238832E+03
       252  21 -3.028052E+05 -1.682512E+04 -1.296448E+04  2.772871E+04  2.811173E+03 -5.278532E+03
       252  22 -2.307581E+05  5.354688E+01 -2.490367E+02  2.780950E+04 -1.696755E+02 -1.159932E+03
       252  23 -2.307377E+05  5.101452E+01 -4.164074E+02  2.464686E+04 -3.740697E+02 -3.241645E+03
       252  24 -2.307590E+05  3.689792E+01 -7.232792E+02  2.780952E+04 -5.785621E+02 -5.281233E+03
       252  25 -2.141725E+05  3.947331E+03  2.629916E+03  2.783889E+04 -3.701106E+03 -1.162859E+03
       252  26 -1.864258E+05  1.042266E+04  7.119047E+03  2.470197E+04 -3.834840E+03 -3.244458E+03
       252  27 -1.587076E+05  1.689865E+04  1.151780E+04  2.789033E+04 -3.968678E+03 -5.283935E+03
       253   1 -3.209504E+05 -2.107600E+04 -1.640464E+04  2.764680E+04 -2.719451E+03  6.480839E+03
       253   2 -3.484963E+05 -2.770180E+04 -2.205170E+04  2.465719E+04 -1.095732E+03  8.295984E+03
       253   3 -3.763988E+05 -3.487155E+04 -2.889506E+04  2.796092E+04  5.283820E+02  9.638103E+03
       253   4 -2.307991E+05  5.106696E+01 -9.504315E+02  2.780232E+04  7.238193E+02  6.483524E+03
       253   5 -2.306904E+05 -5.548713E+01 -1.665035E+03  2.465593E+04  1.553272E+03  8.297910E+03
       253   6 -2.308014E+05 -5.680475E+02 -3.024185E+03  2.780281E+04  2.383202E+03  9.639316E+03
       253   7 -1.406398E+05  2.117771E+04  1.450355E+04  2.795786E+04  4.167574E+03  6.486211E+03
       253   8 -1.128709E+05  2.759008E+04  1.872117E+04  2.465467E+04  4.202764E+03  8.299837E+03
       253   9 -8.518330E+04  3.373428E+04  2.284591E+04  2.764466E+04  4.238444E+03  9.640528E+03
       253  10 -3.209504E+05 -2.107605E+04 -1.640474E+04  2.764681E+04  4.740645E-10  2.228232E-09
       253  11 -3.484963E+05 -2.770188E+04 -2.205183E+04  2.465720E+04  6.024381E-10  1.083917E-09
       253  12 -3.763988E+05 -3.487165E+04 -2.889523E+04  2.796091E+04  3.026659E-10  1.739989E-09
       253  13 -2.307991E+05  5.102168E+01 -9.505115E+02  2.780232E+04  4.072023E-10  1.404958E-09
       253  14 -2.306904E+05 -5.556171E+01 -1.665168E+03  2.465592E+04 -3.990749E-10  1.772780E-09
       253  15 -2.308015E+05 -5.681488E+02 -3.024370E+03  2.780279E+04  3.666334E-11  4.762685E-11
       253  16 -1.406399E+05  2.117766E+04  1.450344E+04  2.795784E+04 -7.169468E-10  1.141088E-09
       253  17 -1.128709E+05  2.759001E+04  1.872101E+04  2.465464E+04 -1.093827E-09  2.133381E-10
       253  18 -8.518334E+04  3.373418E+04  2.284570E+04  2.764463E+04 -9.629439E-10 -1.794842E-09
       253  19 -3.209504E+05 -2.107600E+04 -1.640464E+04  2.764680E+04  2.719451E+03 -6.480839E+03
       253  20 -3.484963E+05 -2.770180E+04 -2.205170E+04  2.465719E+04  1.095732E+03 -8.295984E+03
       253  21 -3.763988E+05 -3.487155E+04 -2.889506E+04  2.796092E+04 -5.283820E+02 -9.638103E+03
       253  22 -2.307991E+05  5.106696E+01 -9.504315E+02  2.780232E+04 -7.238193E+02 -6.483524E+03
       253  23 -2.306904E+05 -5.548713E+01 -1.665035E+03  2.465593E+04 -1.553272E+03 -8.297910E+03
       253  24 -2.308014E+05 -5.680475E+02 -3.024185E+03  2.780281E+04 -2.383202E+03 -9.639316E+03
       253  25 -1.406398E+05  2.117771E+04  1.450355E+04  2.795786E+04 -4.167574E+03 -6.486211E+03
       253  26 -1.128709E+05  2.759008E+04  1.872117E+04  2.465467E+04 -4.202764E+03 -8.299837E+03
       253  27 -8.518330E+04  3.373428E+04  2.284591E+04  2.764466E+04 -4.238444E+03 -9.640528E+03
       254   1 -3.952338E+05 -3.904957E+04 -3.338599E+04  2.684871E+04  4.393630E+02  1.059063E+04
       254   2 -4.209813E+05 -4.860183E+04 -4.468226E+04  2.843631E+04  1.309088E+04  9.407340E+03
       254   3 -4.507428E+05 -6.759308E+04 -6.657920E+04  3.597060E+04  2.574515E+04  2.909227E+03
       254   4 -2.313010E+05 -3.666172E+02 -3.970700E+03  2.772456E+04  2.899533E+03  1.059222E+04
       254   5 -2.300717E+05 -2.918838E+03 -7.217311E+03  2.475577E+04  6.627805E+03  9.402453E+03
       254   6 -2.313059E+05 -1.335860E+04 -1.486433E+04  2.773377E+04  1.035937E+04  2.898426E+03
       254   7 -6.734195E+04  3.831484E+04  2.544358E+04  2.860064E+04  5.360335E+03  1.059382E+04
       254   8 -3.912709E+04  4.276203E+04  3.024604E+04  2.107406E+04  1.627804E+02  9.397643E+03
       254   9 -1.182395E+04  4.087283E+04  3.684814E+04  1.949400E+04 -5.031821E+03  2.888036E+03
       254  10 -3.952338E+05 -3.904969E+04 -3.338620E+04  2.684871E+04 -9.374963E-10  8.815143E-10
       254  11 -4.209815E+05 -4.860197E+04 -4.468275E+04  2.843621E+04  2.111545E-10 -6.357380E-10
       254  12 -4.507435E+05 -6.759327E+04 -6.658046E+04  3.597054E+04  3.201636E-10 -2.000316E-10
       254  13 -2.313010E+05 -3.667399E+02 -3.970926E+03  2.772453E+04  2.128424E-10  2.143346E-09
       254  14 -2.300718E+05 -2.918945E+03 -7.217560E+03  2.475572E+04 -2.345623E-09 -2.148828E-09
       254  15 -2.313060E+05 -1.335864E+04 -1.486455E+04  2.773375E+04  2.358577E-11  7.717184E-10
       254  16 -6.734201E+04  3.831471E+04  2.544331E+04  2.860059E+04  1.644717E-09  6.023050E-10
       254  17 -3.912712E+04  4.276193E+04  3.024587E+04  2.107406E+04 -8.636175E-10  1.754114E-10
       254  18 -1.182398E+04  4.087281E+04  3.684808E+04  1.949401E+04  3.612008E-10  3.543411E-11
       254  19 -3.952338E+05 -3.904957E+04 -3.338599E+04  2.684871E+04 -4.393630E+02 -1.059063E+04
       254  20 -4.209813E+05 -4.860183E+04 -4.468226E+04  2.843631E+04 -1.309088E+04 -9.407340E+03
       254  21 -4.507428E+05 -6.759308E+04 -6.657920E+04  3.597060E+04 -2.574515E+04 -2.909227E+03
       254  22 -2.313010E+05 -3.666172E+02 -3.970700E+03  2.772456E+04 -2.899533E+03 -1.059222E+04
       254  23 -2.300717E+05 -2.918838E+03 -7.217311E+03  2.475577E+04 -6.627805E+03 -9.402453E+03
       254  24 -2.313059E+05 -1.335860E+04 -1.486433E+04  2.773377E+04 -1.035937E+04 -2.898426E+03
       254  25 -6.734195E+04  3.831484E+04  2.544358E+04  2.860064E+04 -5.360335E+03 -1.059382E+04
       254  26 -3.912709E+04  4.276203E+04  3.024604E+04  2.107406E+04 -1.627804E+02 -9.397643E+03
       254  27 -1.182395E+04  4.087283E+04  3.684814E+04  1.949400E+04  5.031821E+03 -2.888036E+03
       255   1 -4.424045E+04  3.860696E+04  3.269696E+04  1.416889E+03 -9.400585E+03 -3.152697E+03
       255   2 -6.010854E+04  5.515032E+04  3.844164E+04  4.076088E+03 -8.540604E+03 -9.903503E+03
       255   3 -8.117432E+04  5.132441E+04  3.853875E+04  1.452171E+04 -7.684765E+03 -1.035976E+04
       255   4 -2.865861E+05 -2.162025E+04 -2.612696E+04  1.125769E+04 -1.794772E+04 -3.158584E+03
       255   5 -2.835113E+05  4.090592E+02 -1.185101E+04  7.356187E+03 -1.165139E+04 -9.906097E+03
       255   6 -2.865807E+05  1.120944E+03 -7.000646E+03  1.124139E+04 -5.359122E+03 -1.035807E+04
       255   7 -5.288778E+05 -8.185138E+04 -8.495479E+04  2.109462E+04 -2.649152E+04 -3.164743E+03
       255   8 -5.068675E+05 -5.433557E+04 -6.214679E+04  1.063509E+04 -1.476107E+04 -9.908725E+03
       255   9 -4.919476E+05 -4.908533E+04 -5.254264E+04  7.962148E+03 -3.034239E+03 -1.035640E+04
       255  10 -4.424055E+04  3.860693E+04  3.269678E+04  1.416865E+03 -1.073073E-08  1.685212E-10
       255  11 -6.010865E+04  5.515019E+04  3.844132E+04  4.076020E+03 -5.175245E-10  2.777826E-09
       255  12 -8.117441E+04  5.132428E+04  3.853844E+04  1.452165E+04  1.010809E-08  3.697663E-10
       255  13 -2.865865E+05 -2.162035E+04 -2.612758E+04  1.125764E+04  1.950811E-10 -1.003660E-09
       255  14 -2.835114E+05  4.089174E+02 -1.185145E+04  7.356094E+03  8.473375E-10 -2.381657E-09
       255  15 -2.865807E+05  1.120821E+03 -7.000902E+03  1.124134E+04  2.644977E-11 -4.178363E-10
       255  16 -5.288786E+05 -8.185158E+04 -8.495613E+04  2.109455E+04  9.399441E-09  4.421852E-10
       255  17 -5.068678E+05 -5.433574E+04 -6.214739E+04  1.063497E+04 -1.431700E-09  2.121219E-09
       255  18 -4.919476E+05 -4.908545E+04 -5.254286E+04  7.962123E+03 -9.998108E-09 -9.868934E-10
       255  19 -4.424045E+04  3.860696E+04  3.269696E+04  1.416889E+03  9.400585E+03  3.152697E+03
       255  20 -6.010854E+04  5.515032E+04  3.844164E+04  4.076088E+03  8.540604E+03  9.903503E+03
       255  21 -8.117432E+04  5.132441E+04  3.853875E+04  1.452171E+04  7.684765E+03  1.035976E+04
       255  22 -2.865861E+05 -2.162025E+04 -2.612696E+04  1.125769E+04  1.794772E+04  3.158584E+03
       255  23 -2.835113E+05  4.090592E+02 -1.185101E+04  7.356187E+03  1.165139E+04  9.906097E+03
       255  24 -2.865807E+05  1.120944E+03 -7.000646E+03  1.124139E+04  5.359122E+03  1.035807E+04
       255  25 -5.288778E+05 -8.185138E+04 -8.495479E+04  2.109462E+04  2.649152E+04  3.164743E+03
       255  26 -5.068675E+05 -5.433557E+04 -6.214679E+04  1.063509E+04  1.476107E+04  9.908725E+03
       255  27 -4.919476E+05 -4.908533E+04 -5.254264E+04  7.962148E+03  3.034239E+03  1.035640E+04
       256   1 -9.561901E+04  4.514110E+04  3.670024E+04  1.098752E+04 -4.814250E+03 -9.166417E+03
       256   2 -1.138712E+05  4.191545E+04  3.502201E+04  7.283483E+03 -3.546061E+03 -8.496473E+03
       256   3 -1.326086E+05  3.743421E+04  3.220284E+04  1.165878E+04 -2.278387E+03 -7.543417E+03
       256   4 -2.853318E+05 -1.265242E+03 -5.583859E+03  1.131155E+04 -4.357810E+03 -9.166230E+03
       256   5 -2.850665E+05  6.298452E+01 -3.008668E+03  7.271198E+03 -2.845463E+03 -8.496000E+03
       256   6 -2.853296E+05  9.295251E+01 -1.744366E+03  1.131032E+04 -1.333598E+03 -7.542624E+03
       256   7 -4.750111E+05 -4.767403E+04 -4.787021E+04  1.163549E+04 -3.901507E+03 -9.166042E+03
       256   8 -4.562345E+05 -4.179146E+04 -4.104117E+04  7.258911E+03 -2.145057E+03 -8.495528E+03
       256   9 -4.380289E+05 -3.724989E+04 -3.569302E+04  1.096195E+04 -3.890384E+02 -7.541831E+03
       256  10 -9.561906E+04  4.514101E+04  3.670003E+04  1.098748E+04  3.113480E-10 -6.140843E-10
       256  11 -1.138712E+05  4.191537E+04  3.502185E+04  7.283459E+03  1.797498E-10  1.323991E-09
       256  12 -1.326086E+05  3.743415E+04  3.220272E+04  1.165877E+04  2.309044E-09  3.601215E-09
       256  13 -2.853319E+05 -1.265337E+03 -5.584053E+03  1.131152E+04  1.950827E-09  2.377544E-09
       256  14 -2.850665E+05  6.290485E+01 -3.008819E+03  7.271179E+03 -1.626245E-10 -4.747784E-09
       256  15 -2.853297E+05  9.289095E+01 -1.744476E+03  1.131032E+04  2.353641E-10  2.798143E-09
       256  16 -4.750112E+05 -4.767412E+04 -4.787039E+04  1.163546E+04  1.253588E-09 -2.320053E-09
       256  17 -4.562345E+05 -4.179154E+04 -4.104132E+04  7.258896E+03 -1.234976E-09  4.222311E-10
       256  18 -4.380290E+05 -3.724995E+04 -3.569312E+04  1.096195E+04 -1.778148E-09  7.065389E-10
       256  19 -9.561901E+04  4.514110E+04  3.670024E+04  1.098752E+04  4.814250E+03  9.166417E+03
       256  20 -1.138712E+05  4.191545E+04  3.502201E+04  7.283483E+03  3.546061E+03  8.496473E+03
       256  21 -1.326086E+05  3.743421E+04  3.220284E+04  1.165878E+04  2.278387E+03  7.543417E+03
       256  22 -2.853318E+05 -1.265242E+03 -5.583859E+03  1.131155E+04  4.357810E+03  9.166230E+03
       256  23 -2.850665E+05  6.298452E+01 -3.008668E+03  7.271198E+03  2.845463E+03  8.496000E+03
       256  24 -2.853296E+05  9.295251E+01 -1.744366E+03  1.131032E+04  1.333598E+03  7.542624E+03
       256  25 -4.750111E+05 -4.767403E+04 -4.787021E+04  1.163549E+04  3.901507E+03  9.166042E+03
       256  26 -4.562345E+05 -4.179146E+04 -4.104117E+04  7.258911E+03  2.145057E+03  8.495528E+03
       256  27 -4.380289E+05 -3.724989E+04 -3.569302E+04  1.096195E+04  3.890384E+02  7.541831E+03
       257   1 -1.481489E+05  3.345262E+04  2.904133E+04  1.143758E+04 -1.924541E+03 -6.923122E+03
       257   2 -1.666706E+05  2.899504E+04  2.553619E+04  7.369929E+03 -1.554037E+03 -5.918039E+03
       257   3 -1.852717E+05  2.447470E+04  2.177043E+04  1.142637E+04 -1.183714E+03 -4.899273E+03
       257   4 -2.852293E+05 -4.711220E+01 -1.343764E+03  1.132064E+04 -1.062386E+03 -6.922361E+03
       257   5 -2.851878E+05  2.381827E+01 -7.725326E+02  7.258506E+03 -6.801434E+02 -5.917204E+03
       257   6 -2.852280E+05  3.001470E+01 -4.700365E+02  1.132056E+04 -2.980708E+02 -4.898361E+03
       257   7 -4.222921E+05 -3.354811E+04 -3.173002E+04  1.120372E+04 -2.004195E+02 -6.921602E+03
       257   8 -4.036920E+05 -2.894836E+04 -2.708213E+04  7.147101E+03  1.935850E+02 -5.916370E+03
       257   9 -3.851749E+05 -2.441535E+04 -2.271112E+04  1.121477E+04  5.874312E+02 -4.897450E+03
       257  10 -1.481489E+05  3.345256E+04  2.904124E+04  1.143757E+04 -5.769793E-09 -1.982250E-09
       257  11 -1.666706E+05  2.899500E+04  2.553612E+04  7.369921E+03  8.401525E-10 -3.428754E-09
       257  12 -1.852717E+05  2.447467E+04  2.177038E+04  1.142636E+04  6.423443E-09 -2.856430E-09
       257  13 -2.852293E+05 -4.716396E+01 -1.343857E+03  1.132064E+04  1.074467E-09 -8.356409E-10
       257  14 -2.851879E+05  2.378055E+01 -7.725993E+02  7.258503E+03 -7.144651E-10 -3.142718E-09
       257  15 -2.852280E+05  2.998892E+01 -4.700817E+02  1.132056E+04  2.234479E-09 -2.072308E-09
       257  16 -4.222922E+05 -3.354816E+04 -3.173011E+04  1.120372E+04  5.970897E-09 -2.473129E-09
       257  17 -4.036920E+05 -2.894839E+04 -2.708219E+04  7.147102E+03 -1.896299E-09  2.857689E-10
       257  18 -3.851749E+05 -2.441537E+04 -2.271117E+04  1.121477E+04 -7.580611E-09  2.876510E-09
       257  19 -1.481489E+05  3.345262E+04  2.904133E+04  1.143758E+04  1.924541E+03  6.923122E+03
       257  20 -1.666706E+05  2.899504E+04  2.553619E+04  7.369929E+03  1.554037E+03  5.918039E+03
       257  21 -1.852717E+05  2.447470E+04  2.177043E+04  1.142637E+04  1.183714E+03  4.899273E+03
       257  22 -2.852293E+05 -4.711220E+01 -1.343764E+03  1.132064E+04  1.062386E+03  6.922361E+03
       257  23 -2.851878E+05  2.381827E+01 -7.725326E+02  7.258506E+03  6.801434E+02  5.917204E+03
       257  24 -2.852280E+05  3.001470E+01 -4.700365E+02  1.132056E+04  2.980708E+02  4.898361E+03
       257  25 -4.222921E+05 -3.354811E+04 -3.173002E+04  1.120372E+04  2.004195E+02  6.921602E+03
       257  26 -4.036920E+05 -2.894836E+04 -2.708213E+04  7.147101E+03 -1.935850E+02  5.916370E+03
       257  27 -3.851749E+05 -2.441535E+04 -2.271112E+04  1.121477E+04 -5.874312E+02  4.897450E+03
       258   1 -2.009444E+05  2.061292E+04  1.827475E+04  1.140439E+04 -1.104723E+03 -4.303008E+03
       258   2 -2.195328E+05  1.607183E+04  1.429902E+04  7.312405E+03 -9.696627E+02 -3.280545E+03
       258   3 -2.381567E+05  1.154290E+04  1.023347E+04  1.136385E+04 -8.346978E+02 -2.256937E+03
       258   4 -2.852171E+05  2.290977E+01 -3.793694E+02  1.132487E+04 -2.221398E+02 -4.302069E+03
       258   5 -2.851989E+05  1.958913E+01 -2.774001E+02  7.253129E+03 -8.611766E+01 -3.279570E+03
       258   6 -2.852164E+05  2.828155E+01 -2.659233E+02  1.132487E+04  4.981290E+01 -2.255925E+03
       258   7 -3.694833E+05 -2.056758E+04 -1.903393E+04  1.124536E+04  6.603251E+02 -4.301129E+03
       258   8 -3.508608E+05 -1.603294E+04 -1.485409E+04  7.193859E+03  7.973350E+02 -3.278595E+03
       258   9 -3.322741E+05 -1.148649E+04 -1.076545E+04  1.128589E+04  9.342573E+02 -2.254912E+03
       258  10 -2.009444E+05  2.061290E+04  1.827471E+04  1.140439E+04  2.233284E-09 -3.564727E-09
       258  11 -2.195329E+05  1.607182E+04  1.429900E+04  7.312402E+03  4.764437E-09 -1.005084E-09
       258  12 -2.381567E+05  1.154289E+04  1.023346E+04  1.136385E+04  5.794846E-09  6.633360E-10
       258  13 -2.852171E+05  2.288988E+01 -3.794043E+02  1.132487E+04  1.067456E-09  9.056107E-10
       258  14 -2.851989E+05  1.957758E+01 -2.774203E+02  7.253129E+03  1.528327E-09 -2.427029E-10
       258  15 -2.852164E+05  2.827609E+01 -2.659329E+02  1.132487E+04  7.455034E-10  2.650040E-09
       258  16 -3.694833E+05 -2.056760E+04 -1.903396E+04  1.124537E+04 -2.018155E-09  1.174464E-09
       258  17 -3.508608E+05 -1.603295E+04 -1.485411E+04  7.193861E+03 -5.610573E-09  4.063339E-09
       258  18 -3.322741E+05 -1.148649E+04 -1.076546E+04  1.128589E+04 -7.707044E-09  9.326278E-10
       258  19 -2.009444E+05  2.061292E+04  1.827475E+04  1.140439E+04  1.104723E+03  4.303008E+03
       258  20 -2.195328E+05  1.607183E+04  1.429902E+04  7.312405E+03  9.696627E+02  3.280545E+03
       258  21 -2.381567E+05  1.154290E+04  1.023347E+04  1.136385E+04  8.346978E+02  2.256937E+03
       258  22 -2.852171E+05  2.290977E+01 -3.793694E+02  1.132487E+04  2.221398E+02  4.302069E+03
       258  23 -2.851989E+05  1.958913E+01 -2.774001E+02  7.253129E+03  8.611766E+01  3.279570E+03
       258  24 -2.852164E+05  2.828155E+01 -2.659233E+02  1.132487E+04 -4.981290E+01  2.255925E+03
       258  25 -3.694833E+05 -2.056758E+04 -1.903393E+04  1.124536E+04 -6.603251E+02  4.301129E+03
       258  26 -3.508608E+05 -1.603294E+04 -1.485409E+04  7.193859E+03 -7.973350E+02  3.278595E+03
       258  27 -3.322741E+05 -1.148649E+04 -1.076545E+04  1.128589E+04 -9.342573E+02  2.254912E+03
       259   1 -2.538685E+05  7.681620E+03  6.615286E+03  1.134912E+04 -7.851728E+02 -1.660762E+03
       259   2 -2.724695E+05  3.133616E+03  2.412752E+03  7.249116E+03 -5.824293E+02 -6.363144E+02
       259   3 -2.911179E+05 -1.406791E+03 -1.925348E+03  1.130082E+04 -3.797121E+02  3.878947E+02
       259   4 -2.852188E+05  2.839224E+01 -2.909944E+02  1.132670E+04  9.957584E+01 -1.659736E+03
       259   5 -2.851948E+05  2.283200E+01 -4.120152E+02  7.250840E+03  3.020912E+02 -6.352822E+02
       259   6 -2.852187E+05  2.485955E+01 -6.685057E+02  1.132670E+04  5.045862E+02  3.889342E+02
       259   7 -3.165682E+05 -7.624901E+03 -7.197332E+03  1.130428E+04  9.842803E+02 -1.658709E+03
       259   8 -2.979199E+05 -3.087963E+03 -3.236789E+03  7.252564E+03  1.186594E+03 -6.342500E+02
       259   9 -2.793195E+05  1.456508E+03  5.883380E+02  1.135258E+04  1.388893E+03  3.899737E+02
       259  10 -2.538685E+05  7.681617E+03  6.615279E+03  1.134912E+04 -8.402965E-09 -2.198873E-10
       259  11 -2.724695E+05  3.133616E+03  2.412751E+03  7.249116E+03 -6.409138E-09 -4.098020E-09
       259  12 -2.911179E+05 -1.406791E+03 -1.925349E+03  1.130082E+04 -4.972708E-09 -1.684462E-09
       259  13 -2.852188E+05  2.838928E+01 -2.909996E+02  1.132670E+04  8.711004E-10  6.594672E-09
       259  14 -2.851948E+05  2.283154E+01 -4.120161E+02  7.250841E+03 -8.438686E-10  9.077447E-11
       259  15 -2.852187E+05  2.485932E+01 -6.685065E+02  1.132670E+04  9.917250E-13 -1.980655E-09
       259  16 -3.165683E+05 -7.624905E+03 -7.197339E+03  1.130428E+04  8.593615E-09 -1.819583E-10
       259  17 -2.979199E+05 -3.087963E+03 -3.236793E+03  7.252565E+03  5.381677E-09 -5.669551E-09
       259  18 -2.793195E+05  1.456507E+03  5.883341E+02  1.135258E+04  4.676884E-09 -4.097255E-09
       259  19 -2.538685E+05  7.681620E+03  6.615286E+03  1.134912E+04  7.851728E+02  1.660762E+03
       259  20 -2.724695E+05  3.133616E+03  2.412752E+03  7.249116E+03  5.824293E+02  6.363144E+02
       259  21 -2.911179E+05 -1.406791E+03 -1.925348E+03  1.130082E+04  3.797121E+02 -3.878947E+02
       259  22 -2.852188E+05  2.839224E+01 -2.909944E+02  1.132670E+04 -9.957584E+01  1.659736E+03
       259  23 -2.851948E+05  2.283200E+01 -4.120152E+02  7.250840E+03 -3.020912E+02  6.352822E+02
       259  24 -2.852187E+05  2.485955E+01 -6.685057E+02  1.132670E+04 -5.045862E+02 -3.889342E+02
       259  25 -3.165682E+05 -7.624901E+03 -7.197332E+03  1.130428E+04 -9.842803E+02  1.658709E+03
       259  26 -2.979199E+05 -3.087963E+03 -3.236789E+03  7.252564E+03 -1.186594E+03  6.342500E+02
       259  27 -2.793195E+05  1.456508E+03  5.883380E+02  1.135258E+04 -1.388893E+03 -3.899737E+02
       260   1 -3.068560E+05 -5.255696E+03 -5.716212E+03  1.125838E+04 -2.446554E+02  9.851328E+02
       260   2 -3.253959E+05 -9.796928E+03 -1.041370E+04  7.179494E+03  4.970487E+02  2.008195E+03
       260   3 -3.440911E+05 -1.448221E+04 -1.563564E+04  1.124885E+04  1.238807E+03  3.022205E+03
       260   4 -2.852424E+05  3.880045E+01 -8.652876E+02  1.132587E+04  6.421084E+02  9.861705E+02
       260   5 -2.851657E+05  3.837205E+01 -1.481941E+03  7.251847E+03  1.376034E+03  2.009201E+03
       260   6 -2.852430E+05 -1.046505E+02 -2.617522E+03  1.132604E+04  2.110035E+03  3.023182E+03
       260   7 -2.636284E+05  5.333265E+03  3.985610E+03  1.139336E+04  1.528903E+03  9.872084E+02
       260   8 -2.449340E+05  9.873563E+03  7.449717E+03  7.324204E+03  2.255075E+03  2.010208E+03
       260   9 -2.263916E+05  1.427268E+04  1.040038E+04  1.140323E+04  2.981344E+03  3.024158E+03
       260  10 -3.068560E+05 -5.255697E+03 -5.716214E+03  1.125838E+04 -4.429938E-09 -1.071317E-09
       260  11 -3.253959E+05 -9.796933E+03 -1.041370E+04  7.179493E+03 -1.287562E-09 -3.194999E-09
       260  12 -3.440911E+05 -1.448222E+04 -1.563566E+04  1.124885E+04 -1.205791E-10 -6.318047E-10
       260  13 -2.852424E+05  3.879929E+01 -8.652902E+02  1.132587E+04  1.061247E-09 -5.241948E-10
       260  14 -2.851657E+05  3.836721E+01 -1.481952E+03  7.251845E+03 -1.921668E-09  8.706617E-10
       260  15 -2.852430E+05 -1.046615E+02 -2.617548E+03  1.132603E+04 -1.809510E-09  3.814091E-10
       260  16 -2.636284E+05  5.333263E+03  3.985604E+03  1.139336E+04  2.902313E-09  8.790291E-10
       260  17 -2.449340E+05  9.873558E+03  7.449700E+03  7.324201E+03  8.183208E-10 -2.142217E-09
       260  18 -2.263916E+05  1.427267E+04  1.040035E+04  1.140322E+04 -1.306848E-09  2.582113E-09
       260  19 -3.068560E+05 -5.255696E+03 -5.716212E+03  1.125838E+04  2.446554E+02 -9.851328E+02
       260  20 -3.253959E+05 -9.796928E+03 -1.041370E+04  7.179494E+03 -4.970487E+02 -2.008195E+03
       260  21 -3.440911E+05 -1.448221E+04 -1.563564E+04  1.124885E+04 -1.238807E+03 -3.022205E+03
       260  22 -2.852424E+05  3.880045E+01 -8.652876E+02  1.132587E+04 -6.421084E+02 -9.861705E+02
       260  23 -2.851657E+05  3.837205E+01 -1.481941E+03  7.251847E+03 -1.376034E+03 -2.009201E+03
       260  24 -2.852430E+05 -1.046505E+02 -2.617522E+03  1.132604E+04 -2.110035E+03 -3.023182E+03
       260  25 -2.636284E+05  5.333265E+03  3.985610E+03  1.139336E+04 -1.528903E+03 -9.872084E+02
       260  26 -2.449340E+05  9.873563E+03  7.449717E+03  7.324204E+03 -2.255075E+03 -2.010208E+03
       260  27 -2.263916E+05  1.427268E+04  1.040038E+04  1.140323E+04 -2.981344E+03 -3.024158E+03
       261   1 -3.599892E+05 -1.806570E+04 -2.000806E+04  1.079424E+04  1.711190E+03  3.636879E+03
       261   2 -3.780401E+05 -2.264623E+04 -2.658705E+04  7.387668E+03  4.841197E+03  4.617665E+03
       261   3 -3.971650E+05 -2.981782E+04 -3.585688E+04  1.210901E+04  7.971429E+03  5.403403E+03
       261   4 -2.854414E+05  1.704964E+02 -3.408669E+03  1.132063E+04  2.639628E+03  3.637899E+03
       261   5 -2.849198E+05  1.232216E+02 -5.892711E+03  7.258145E+03  5.601586E+03  4.618445E+03
       261   6 -2.854432E+05 -2.485652E+03 -1.095051E+04  1.132352E+04  8.563860E+03  5.403953E+03
       261   7 -2.108884E+05  1.840632E+04  1.319038E+04  1.184708E+04  3.568176E+03  3.638920E+03
       261   8 -1.917914E+05  2.289209E+04  1.480109E+04  7.128599E+03  6.362087E+03  4.619226E+03
       261   9 -1.737096E+05  2.484567E+04  1.395508E+04  1.053788E+04  9.156396E+03  5.404501E+03
       261  10 -3.599892E+05 -1.806572E+04 -2.000809E+04  1.079423E+04 -2.750555E-10  3.060831E-10
       261  11 -3.780401E+05 -2.264626E+04 -2.658714E+04  7.387650E+03 -2.424406E-09  3.450583E-09
       261  12 -3.971651E+05 -2.981787E+04 -3.585705E+04  1.210898E+04 -3.075817E-09 -1.547440E-09
       261  13 -2.854414E+05  1.704803E+02 -3.408707E+03  1.132062E+04 -1.956395E-09 -2.842963E-09
       261  14 -2.849198E+05  1.231903E+02 -5.892810E+03  7.258124E+03  4.759626E-10 -3.896719E-10
       261  15 -2.854432E+05 -2.485703E+03 -1.095070E+04  1.132348E+04 -2.105395E-10 -5.598563E-09
       261  16 -2.108885E+05  1.840630E+04  1.319033E+04  1.184707E+04  6.565289E-11 -1.117129E-09
       261  17 -1.917915E+05  2.289205E+04  1.480098E+04  7.128575E+03  1.461785E-09 -4.670591E-09
       261  18 -1.737097E+05  2.484562E+04  1.395487E+04  1.053784E+04  3.503039E-09  1.381985E-09
       261  19 -3.599892E+05 -1.806570E+04 -2.000806E+04  1.079424E+04 -1.711190E+03 -3.636879E+03
       261  20 -3.780401E+05 -2.264623E+04 -2.658705E+04  7.387668E+03 -4.841197E+03 -4.617665E+03
       261  21 -3.971650E+05 -2.981782E+04 -3.585688E+04  1.210901E+04 -7.971429E+03 -5.403403E+03
       261  22 -2.854414E+05  1.704964E+02 -3.408669E+03  1.132063E+04 -2.639628E+03 -3.637899E+03
       261  23 -2.849198E+05  1.232216E+02 -5.892711E+03  7.258145E+03 -5.601586E+03 -4.618445E+03
       261  24 -2.854432E+05 -2.485652E+03 -1.095051E+04  1.132352E+04 -8.563860E+03 -5.403953E+03
       261  25 -2.108884E+05  1.840632E+04  1.319038E+04  1.184708E+04 -3.568176E+03 -3.638920E+03
       261  26 -1.917914E+05  2.289209E+04  1.480109E+04  7.128599E+03 -6.362087E+03 -4.619226E+03
       261  27 -1.737096E+05  2.484567E+04  1.395508E+04  1.053788E+04 -9.156396E+03 -5.404501E+03
       262   1 -4.153538E+05 -2.897512E+04 -4.201076E+04  4.983379E+03  8.647267E+03  6.412324E+03
       262   2 -4.275838E+05 -3.489679E+04 -5.608207E+04  1.388683E+04  2.473559E+04  6.434957E+03
       262   3 -4.525485E+05 -8.332113E+04 -9.126029E+04  3.073864E+04  4.082715E+04  2.115965E+03
       262   4 -2.878955E+05  2.197879E+03 -1.373190E+04  1.127052E+04  1.052870E+04  6.414273E+03
       262   5 -2.818585E+05  8.116836E+02 -2.324481E+04  7.317675E+03  2.286988E+04  6.432743E+03
       262   6 -2.879031E+05 -4.242157E+04 -5.125846E+04  1.131382E+04  3.521493E+04  2.109378E+03
       262   7 -1.604219E+05  3.336993E+04  1.454598E+04  1.755897E+04  1.241051E+04  6.416260E+03
       262   8 -1.361133E+05  3.651887E+04  9.591139E+03  7.469572E+02  2.100373E+04  6.430570E+03
       262   9 -1.232320E+05 -1.522554E+03 -1.125827E+04 -8.116183E+03  2.960123E+04  2.103144E+03
       262  10 -4.153539E+05 -2.897519E+04 -4.201098E+04  4.983335E+03  2.120980E-09 -1.539076E-09
       262  11 -4.275845E+05 -3.489700E+04 -5.608330E+04  1.388670E+04  4.066791E-09  5.727549E-10
       262  12 -4.525502E+05 -8.332159E+04 -9.126343E+04  3.073857E+04  2.541104E-09  2.274583E-09
       262  13 -2.878956E+05  2.197805E+03 -1.373219E+04  1.127047E+04 -1.865020E-12 -4.232567E-09
       262  14 -2.818591E+05  8.114987E+02 -2.324587E+04  7.317557E+03  8.150978E-10 -1.437661E-09
       262  15 -2.879044E+05 -4.242191E+04 -5.126080E+04  1.131376E+04 -3.237393E-10  8.316292E-10
       262  16 -1.604221E+05  3.336985E+04  1.454562E+04  1.755890E+04 -1.812085E-09  1.181417E-09
       262  17 -1.361138E+05  3.651871E+04  9.590232E+03  7.468484E+02 -6.658809E-09  3.129865E-09
       262  18 -1.232330E+05 -1.522794E+03 -1.125992E+04 -8.116233E+03 -3.646560E-09  8.081587E-10
       262  19 -4.153538E+05 -2.897512E+04 -4.201076E+04  4.983379E+03 -8.647267E+03 -6.412324E+03
       262  20 -4.275838E+05 -3.489679E+04 -5.608207E+04  1.388683E+04 -2.473559E+04 -6.434957E+03
       262  21 -4.525485E+05 -8.332113E+04 -9.126029E+04  3.073864E+04 -4.082715E+04 -2.115965E+03
       262  22 -2.878955E+05  2.197879E+03 -1.373190E+04  1.127052E+04 -1.052870E+04 -6.414273E+03
       262  23 -2.818585E+05  8.116836E+02 -2.324481E+04  7.317675E+03 -2.286988E+04 -6.432743E+03
       262  24 -2.879031E+05 -4.242157E+04 -5.125846E+04  1.131382E+04 -3.521493E+04 -2.109378E+03
       262  25 -1.604219E+05  3.336993E+04  1.454598E+04  1.755897E+04 -1.241051E+04 -6.416260E+03
       262  26 -1.361133E+05  3.651887E+04  9.591139E+03  7.469572E+02 -2.100373E+04 -6.430570E+03
       262  27 -1.232320E+05 -1.522554E+03 -1.125827E+04 -8.116183E+03 -2.960123E+04 -2.103144E+03

 stresses (elem, integ.pnt.,sxx,syy,szz,sxy,sxz,syz) for set ELALL and time  0.8750000E+00

         1   1  3.708603E+04  1.770064E+05  2.319244E+05  2.976105E+03  1.582382E+05  7.585283E-01
         1   2  1.408966E+03 -4.283806E+04  9.878990E+04  7.456213E+02  1.041722E+05  1.251111E-01
         1   3  3.707875E+04 -5.471443E+03  6.516975E+04 -1.484791E+03  5.010437E+04 -1.198238E-01
         1   4  3.708602E+04  1.770064E+05  2.319244E+05 -3.361784E-07  1.582382E+05 -6.082074E-11
         1   5  1.408965E+03 -4.283806E+04  9.878990E+04 -5.881501E-07  1.041722E+05  7.894012E-10
         1   6  3.707875E+04 -5.471447E+03  6.516975E+04  8.140374E-07  5.010437E+04 -5.015164E-10
         1   7  3.708603E+04  1.770064E+05  2.319244E+05 -2.976105E+03  1.582382E+05 -7.585283E-01
         1   8  1.408966E+03 -4.283806E+04  9.878990E+04 -7.456213E+02  1.041722E+05 -1.251111E-01
         1   9  3.707875E+04 -5.471443E+03  6.516975E+04  1.484791E+03  5.010437E+04  1.198238E-01
         1  10  3.705914E+04  1.769997E+05  2.318774E+05  2.976105E+03 -2.134356E-09 -1.795502E-11
         1  11  1.397314E+03 -4.284097E+04  9.876951E+04  7.456213E+02 -1.612460E-09 -1.567675E-10
         1  12  3.707605E+04 -5.472117E+03  6.516504E+04 -1.484791E+03  1.761623E-09 -4.150147E-10
         1  13  3.705913E+04  1.769997E+05  2.318774E+05 -6.045565E-08  1.682860E-11 -3.707615E-11
         1  14  1.397314E+03 -4.284098E+04  9.876951E+04 -1.746226E-07 -4.308371E-09  3.740899E-10
         1  15  3.707605E+04 -5.472121E+03  6.516504E+04 -7.023180E-07 -1.076952E-09 -2.916744E-10
         1  16  3.705914E+04  1.769997E+05  2.318774E+05 -2.976105E+03  2.155354E-09 -5.622868E-11
         1  17  1.397314E+03 -4.284097E+04  9.876951E+04 -7.456213E+02  4.843745E-09 -1.720547E-10
         1  18  3.707605E+04 -5.472117E+03  6.516504E+04  1.484791E+03  2.685388E-09 -4.375813E-10
         1  19  3.708603E+04  1.770064E+05  2.319244E+05  2.976105E+03 -1.582382E+05 -7.585283E-01
         1  20  1.408966E+03 -4.283806E+04  9.878990E+04  7.456213E+02 -1.041722E+05 -1.251111E-01
         1  21  3.707875E+04 -5.471443E+03  6.516975E+04 -1.484791E+03 -5.010437E+04  1.198238E-01
         1  22  3.708602E+04  1.770064E+05  2.319244E+05  7.667130E-07 -1.582382E+05  3.282055E-10
         1  23  1.408965E+03 -4.283806E+04  9.878990E+04  3.767476E-07 -1.041722E+05 -1.136573E-09
         1  24  3.707875E+04 -5.471447E+03  6.516975E+04  6.072621E-07 -5.010437E+04 -3.528360E-10
         1  25  3.708603E+04  1.770064E+05  2.319244E+05 -2.976105E+03 -1.582382E+05  7.585282E-01
         1  26  1.408966E+03 -4.283806E+04  9.878990E+04 -7.456213E+02 -1.041722E+05  1.251111E-01
         1  27  3.707875E+04 -5.471443E+03  6.516975E+04  1.484791E+03 -5.010437E+04 -1.198238E-01
         2   1  2.385960E+04  2.780640E+04  5.400246E+04  4.482002E+02  3.925364E+04  2.833762E-02
         2   2  1.792739E+04 -6.735859E+03  2.558030E+04  1.052446E+02  2.578874E+04  4.371632E-03
         2   3  2.385936E+04 -8.351422E+02  1.603580E+04 -2.377104E+02  1.232392E+04 -4.718529E-03
         2   4  2.385960E+04  2.780640E+04  5.400246E+04  2.586959E-07  3.925364E+04 -2.152033E-10
         2   5  1.792739E+04 -6.735859E+03  2.558030E+04  2.304591E-07  2.578874E+04  7.659303E-10
         2   6  2.385936E+04 -8.351423E+02  1.603580E+04 -8.316588E-07  1.232392E+04 -1.482485E-10
         2   7  2.385960E+04  2.780640E+04  5.400246E+04 -4.482002E+02  3.925364E+04 -2.833762E-02
         2   8  1.792739E+04 -6.735859E+03  2.558030E+04 -1.052446E+02  2.578874E+04 -4.371631E-03
         2   9  2.385936E+04 -8.351422E+02  1.603580E+04  2.377104E+02  1.232392E+04  4.718529E-03
         2  10  2.385794E+04  2.780599E+04  5.399956E+04  4.482002E+02  3.220064E-09 -1.102179E-10
         2  11  1.792668E+04 -6.736037E+03  2.557905E+04  1.052446E+02  5.383960E-09  1.402748E-10
         2  12  2.385920E+04 -8.351829E+02  1.603552E+04 -2.377104E+02  2.297632E-09  7.021198E-11
         2  13  2.385794E+04  2.780599E+04  5.399956E+04 -1.946970E-06  4.303550E-09 -1.877727E-10
         2  14  1.792668E+04 -6.736037E+03  2.557905E+04  6.440137E-07 -2.154814E-09  1.276642E-12
         2  15  2.385920E+04 -8.351831E+02  1.603552E+04 -8.316587E-07  8.077791E-09 -3.497334E-12
         2  16  2.385794E+04  2.780599E+04  5.399956E+04 -4.482002E+02 -2.138838E-09  2.838346E-11
         2  17  1.792668E+04 -6.736037E+03  2.557905E+04 -1.052446E+02  8.079652E-09  1.744078E-10
         2  18  2.385920E+04 -8.351829E+02  1.603552E+04  2.377104E+02  1.604704E-09  3.524512E-11
         2  19  2.385960E+04  2.780640E+04  5.400246E+04  4.482002E+02 -3.925364E+04 -2.833762E-02
         2  20  1.792739E+04 -6.735859E+03  2.558030E+04  1.052446E+02 -2.578874E+04 -4.371630E-03
         2  21  2.385936E+04 -8.351422E+02  1.603580E+04 -2.377104E+02 -1.232392E+04  4.718529E-03
         2  22  2.385960E+04  2.780640E+04  5.400246E+04  5.344041E-07 -3.925364E+04  6.951989E-11
         2  23  1.792739E+04 -6.735859E+03  2.558030E+04  1.746826E-06 -2.578874E+04 -3.888839E-10
         2  24  2.385936E+04 -8.351423E+02  1.603580E+04 -2.802465E-07 -1.232392E+04  1.414625E-10
         2  25  2.385960E+04  2.780640E+04  5.400246E+04 -4.482002E+02 -3.925364E+04  2.833762E-02
         2  26  1.792739E+04 -6.735859E+03  2.558030E+04 -1.052446E+02 -2.578874E+04  4.371631E-03
         2  27  2.385936E+04 -8.351422E+02  1.603580E+04  2.377104E+02 -1.232392E+04 -4.718529E-03
         3   1  2.167413E+04  4.346560E+03  1.289696E+04  6.539797E+01  9.694385E+03  1.021164E-03
         3   2  2.065865E+04 -1.058349E+03  6.615822E+03  1.351664E+01  6.296280E+03  1.370768E-04
         3   3  2.167417E+04 -1.089551E+02  4.135518E+03 -3.836398E+01  2.898235E+03 -1.790888E-04
         3   4  2.167413E+04  4.346560E+03  1.289696E+04  6.103191E-07  9.694385E+03 -4.519017E-10
         3   5  2.065865E+04 -1.058349E+03  6.615822E+03  1.081648E-06  6.296280E+03  7.165520E-11
         3   6  2.167417E+04 -1.089551E+02  4.135518E+03  2.433774E-07  2.898235E+03 -2.436856E-10
         3   7  2.167413E+04  4.346560E+03  1.289696E+04 -6.539797E+01  9.694385E+03 -1.021164E-03
         3   8  2.065865E+04 -1.058349E+03  6.615822E+03 -1.351663E+01  6.296280E+03 -1.370771E-04
         3   9  2.167417E+04 -1.089551E+02  4.135518E+03  3.836398E+01  2.898235E+03  1.790885E-04
         3  10  2.167403E+04  4.346535E+03  1.289678E+04  6.539797E+01 -3.238429E-09 -2.368493E-10
         3  11  2.065861E+04 -1.058359E+03  6.615747E+03  1.351663E+01  1.615600E-09  6.552790E-11
         3  12  2.167416E+04 -1.089574E+02  4.135502E+03 -3.836398E+01 -1.072248E-09 -2.404059E-11
         3  13  2.167403E+04  4.346535E+03  1.289678E+04  5.890452E-08  8.616027E-09 -8.233748E-11
         3  14  2.065861E+04 -1.058359E+03  6.615747E+03  1.081648E-06  4.308483E-09  5.810734E-11
         3  15  2.167416E+04 -1.089574E+02  4.135502E+03  1.001572E-06 -5.384936E-10 -6.627074E-11
         3  16  2.167403E+04  4.346535E+03  1.289678E+04 -6.539797E+01  5.389691E-09  4.800426E-11
         3  17  2.065861E+04 -1.058359E+03  6.615747E+03 -1.351663E+01 -5.377961E-10 -8.711353E-13
         3  18  2.167416E+04 -1.089574E+02  4.135502E+03  3.836398E+01 -8.126188E-10 -1.121721E-10
         3  19  2.167413E+04  4.346560E+03  1.289696E+04  6.539797E+01 -9.694385E+03 -1.021164E-03
         3  20  2.065865E+04 -1.058349E+03  6.615822E+03  1.351663E+01 -6.296280E+03 -1.370768E-04
         3  21  2.167417E+04 -1.089551E+02  4.135518E+03 -3.836398E+01 -2.898235E+03  1.790888E-04
         3  22  2.167413E+04  4.346560E+03  1.289696E+04 -2.168028E-07 -9.694385E+03  2.653177E-10
         3  23  2.065865E+04 -1.058349E+03  6.615822E+03  1.081648E-06 -6.296280E+03  6.492109E-12
         3  24  2.167417E+04 -1.089551E+02  4.135518E+03  7.947920E-07 -2.898235E+03  1.082455E-10
         3  25  2.167413E+04  4.346560E+03  1.289696E+04 -6.539797E+01 -9.694385E+03  1.021164E-03
         3  26  2.065865E+04 -1.058349E+03  6.615822E+03 -1.351663E+01 -6.296280E+03  1.370766E-04
         3  27  2.167417E+04 -1.089551E+02  4.135518E+03  3.836398E+01 -2.898235E+03 -1.790889E-04
         4   1  2.131680E+04  6.716071E+02  3.351700E+03  9.984390E+00  2.218551E+03  3.567773E-05
         4   2  2.110536E+04 -1.906655E+02  2.078523E+03  1.322813E+00  1.168479E+03  2.489643E-06
         4   3  2.131681E+04  9.174434E+01  1.775156E+03 -7.338895E+00  1.183917E+02 -1.399452E-06
         4   4  2.131680E+04  6.716071E+02  3.351700E+03  5.422311E-07  2.218551E+03 -2.783205E-10
         4   5  2.110536E+04 -1.906655E+02  2.078523E+03 -3.139569E-07  1.168479E+03  7.631235E-11
         4   6  2.131681E+04  9.174434E+01  1.775156E+03  2.773234E-07  1.183917E+02  1.209841E-10
         4   7  2.131680E+04  6.716071E+02  3.351700E+03 -9.984385E+00  2.218551E+03 -3.567811E-05
         4   8  2.110536E+04 -1.906655E+02  2.078523E+03 -1.322813E+00  1.168479E+03 -2.489326E-06
         4   9  2.131681E+04  9.174434E+01  1.775156E+03  7.338895E+00  1.183917E+02  1.399696E-06
         4  10  2.131680E+04  6.716058E+02  3.351691E+03  9.984382E+00 -2.336054E-12 -7.027987E-11
         4  11  2.110535E+04 -1.906658E+02  2.078521E+03  1.322809E+00 -1.078483E-09 -5.375583E-12
         4  12  2.131681E+04  9.174434E+01  1.775156E+03 -7.338893E+00 -9.451396E-10  1.079694E-10
         4  13  2.131680E+04  6.716058E+02  3.351691E+03 -9.183935E-09 -8.615149E-09 -1.098403E-10
         4  14  2.110535E+04 -1.906658E+02  2.078521E+03 -5.896643E-07  2.153001E-09  8.275581E-12
         4  15  2.131681E+04  9.174434E+01  1.775156E+03 -6.876531E-07  4.306689E-09  1.375024E-10
         4  16  2.131680E+04  6.716058E+02  3.351691E+03 -9.984382E+00  1.080505E-09 -1.325725E-10
         4  17  2.110535E+04 -1.906658E+02  2.078521E+03 -1.322809E+00 -5.346205E-10 -1.172814E-11
         4  18  2.131681E+04  9.174434E+01  1.775156E+03  7.338890E+00  6.869144E-09  1.963498E-10
         4  19  2.131680E+04  6.716071E+02  3.351700E+03  9.984387E+00 -2.218551E+03 -3.567803E-05
         4  20  2.110536E+04 -1.906655E+02  2.078523E+03  1.322810E+00 -1.168479E+03 -2.489675E-06
         4  21  2.131681E+04  9.174434E+01  1.775156E+03 -7.338886E+00 -1.183917E+02  1.399617E-06
         4  22  2.131680E+04  6.716071E+02  3.351700E+03  5.422311E-07 -2.218551E+03  5.965505E-11
         4  23  2.110536E+04 -1.906655E+02  2.078523E+03 -5.896643E-07 -1.168479E+03 -6.167622E-11
         4  24  2.131681E+04  9.174434E+01  1.775156E+03  8.287386E-07 -1.183917E+02  1.583556E-10
         4  25  2.131680E+04  6.716071E+02  3.351700E+03 -9.984385E+00 -2.218551E+03  3.567806E-05
         4  26  2.110536E+04 -1.906655E+02  2.078523E+03 -1.322808E+00 -1.168479E+03  2.489490E-06
         4  27  2.131681E+04  9.174434E+01  1.775156E+03  7.338891E+00 -1.183917E+02 -1.399232E-06
         5   1  2.132091E+04  8.400951E+01  1.789115E+03  7.668249E+00 -2.049296E+02 -2.531234E-06
         5   2  2.110023E+04 -1.995104E+02  2.156945E+03 -1.409115E+00 -1.294836E+03  2.938611E-06
         5   3  2.132090E+04  7.147595E+02  3.533788E+03 -1.048648E+01 -2.384744E+03  4.027927E-05
         5   4  2.132091E+04  8.400951E+01  1.789115E+03  4.944374E-07 -2.049296E+02 -2.237483E-11
         5   5  2.110023E+04 -1.995104E+02  2.156945E+03 -7.604390E-09 -1.294836E+03 -1.480385E-10
         5   6  2.132090E+04  7.147595E+02  3.533788E+03  2.316356E-06 -2.384744E+03  4.019352E-11
         5   7  2.132091E+04  8.400951E+01  1.789115E+03 -7.668253E+00 -2.049296E+02  2.531190E-06
         5   8  2.110023E+04 -1.995104E+02  2.156945E+03  1.409115E+00 -1.294836E+03 -2.938923E-06
         5   9  2.132090E+04  7.147595E+02  3.533788E+03  1.048648E+01 -2.384744E+03 -4.027925E-05
         5  10  2.132091E+04  8.400950E+01  1.789115E+03  7.668252E+00  1.086594E-09 -1.750688E-11
         5  11  2.110023E+04 -1.995108E+02  2.156942E+03 -1.409120E+00  1.076866E-09 -1.929337E-10
         5  12  2.132090E+04  7.147580E+02  3.533777E+03 -1.048648E+01  4.835040E-09  1.150887E-10
         5  13  2.132091E+04  8.400950E+01  1.789115E+03  2.187298E-07 -1.871033E-12  4.143178E-11
         5  14  2.110023E+04 -1.995108E+02  2.156942E+03 -8.347267E-07  6.460845E-09 -1.555349E-10
         5  15  2.132090E+04  7.147580E+02  3.533777E+03  1.282453E-06 -1.617496E-09  5.538743E-11
         5  16  2.132091E+04  8.400950E+01  1.789115E+03 -7.668250E+00  4.299127E-09  1.171951E-10
         5  17  2.110023E+04 -1.995108E+02  2.156942E+03  1.409119E+00  1.615363E-09 -1.265499E-10
         5  18  2.132090E+04  7.147580E+02  3.533777E+03  1.048648E+01 -4.565531E-09 -1.023031E-11
         5  19  2.132091E+04  8.400951E+01  1.789115E+03  7.668255E+00  2.049296E+02  2.531093E-06
         5  20  2.110023E+04 -1.995104E+02  2.156945E+03 -1.409118E+00  1.294836E+03 -2.939028E-06
         5  21  2.132090E+04  7.147595E+02  3.533788E+03 -1.048648E+01  2.384744E+03 -4.027918E-05
         5  22  2.132091E+04  8.400951E+01  1.789115E+03  1.045852E-06  2.049296E+02  1.091583E-10
         5  23  2.110023E+04 -1.995104E+02  2.156945E+03 -7.604390E-09  1.294836E+03 -1.633400E-10
         5  24  2.132090E+04  7.147595E+02  3.533788E+03  1.213526E-06  2.384744E+03  5.797919E-11
         5  25  2.132091E+04  8.400951E+01  1.789115E+03 -7.668253E+00  2.049296E+02 -2.530851E-06
         5  26  2.110023E+04 -1.995104E+02  2.156945E+03  1.409115E+00  1.294836E+03  2.938734E-06
         5  27  2.132090E+04  7.147595E+02  3.533788E+03  1.048648E+01  2.384744E+03  4.027934E-05
         6   1  2.170260E+04 -1.179348E+02  4.374933E+03  4.080097E+01 -3.102645E+03 -2.038978E-04
         6   2  2.062310E+04 -1.125360E+03  7.024216E+03 -1.437238E+01 -6.710724E+03  1.553499E-04
         6   3  2.170257E+04  4.623783E+03  1.371168E+04 -6.954485E+01 -1.031876E+04  1.155855E-03
         6   4  2.170260E+04 -1.179348E+02  4.374933E+03  1.591445E-06 -3.102645E+03  2.050313E-10
         6   5  2.062310E+04 -1.125360E+03  7.024216E+03 -5.348997E-07 -6.710724E+03  7.844191E-11
         6   6  2.170257E+04  4.623783E+03  1.371168E+04  3.370760E-07 -1.031876E+04 -5.760346E-10
         6   7  2.170260E+04 -1.179348E+02  4.374933E+03 -4.080097E+01 -3.102645E+03  2.038982E-04
         6   8  2.062310E+04 -1.125360E+03  7.024216E+03  1.437238E+01 -6.710724E+03 -1.553497E-04
         6   9  2.170257E+04  4.623783E+03  1.371168E+04  6.954485E+01 -1.031876E+04 -1.155855E-03
         6  10  2.170259E+04 -1.179374E+02  4.374915E+03  4.080097E+01  1.834094E-12  1.985091E-10
         6  11  2.062305E+04 -1.125372E+03  7.024131E+03 -1.437239E+01 -1.070612E-09 -1.838426E-10
         6  12  2.170245E+04  4.623755E+03  1.371148E+04 -6.954485E+01  1.086609E-09 -3.665093E-10
         6  13  2.170259E+04 -1.179374E+02  4.374915E+03  1.591445E-06  2.808473E-12  1.696571E-10
         6  14  2.062305E+04 -1.125372E+03  7.024131E+03  1.119340E-06 -2.152518E-09 -1.331785E-12
         6  15  2.170245E+04  4.623755E+03  1.371148E+04 -5.245093E-07 -2.152998E-09 -3.574316E-10
         6  16  2.170259E+04 -1.179374E+02  4.374915E+03 -4.080097E+01 -4.310598E-09  1.576340E-10
         6  17  2.062305E+04 -1.125372E+03  7.024131E+03  1.437238E+01  2.148586E-09  6.128508E-11
         6  18  2.170245E+04  4.623755E+03  1.371148E+04  6.954486E+01 -3.781739E-09 -3.846394E-10
         6  19  2.170260E+04 -1.179348E+02  4.374933E+03  4.080097E+01  3.102645E+03  2.038982E-04
         6  20  2.062310E+04 -1.125360E+03  7.024216E+03 -1.437238E+01  6.710724E+03 -1.553489E-04
         6  21  2.170257E+04  4.623783E+03  1.371168E+04 -6.954485E+01  1.031876E+04 -1.155855E-03
         6  22  2.170260E+04 -1.179348E+02  4.374933E+03  1.315737E-06  3.102645E+03  1.335096E-10
         6  23  2.062310E+04 -1.125360E+03  7.024216E+03  1.395047E-06  6.710724E+03 -5.005364E-11
         6  24  2.170257E+04  4.623783E+03  1.371168E+04 -2.143387E-07  1.031876E+04 -1.505002E-10
         6  25  2.170260E+04 -1.179348E+02  4.374933E+03 -4.080097E+01  3.102645E+03 -2.038980E-04
         6  26  2.062310E+04 -1.125360E+03  7.024216E+03  1.437238E+01  6.710724E+03  1.553493E-04
         6  27  2.170257E+04  4.623783E+03  1.371168E+04  6.954485E+01  1.031876E+04  1.155854E-03
         7   1  2.402742E+04 -8.887544E+02  1.705263E+04  2.528720E+02 -1.311494E+04 -5.341660E-03
         7   2  1.771736E+04 -7.165361E+03  2.720860E+04 -1.119562E+02 -2.743667E+04  4.947586E-03
         7   3  2.402771E+04  2.958005E+04  5.744486E+04 -4.767906E+02 -4.175870E+04  3.206905E-02
         7   4  2.402742E+04 -8.887545E+02  1.705263E+04 -5.905175E-08 -1.311494E+04  1.369916E-11
         7   5  1.771736E+04 -7.165361E+03  2.720860E+04 -1.097764E-06 -2.743667E+04  1.159644E-09
         7   6  2.402771E+04  2.958005E+04  5.744486E+04  5.860985E-07 -4.175870E+04  1.688024E-09
         7   7  2.402742E+04 -8.887544E+02  1.705263E+04 -2.528720E+02 -1.311494E+04  5.341661E-03
         7   8  1.771736E+04 -7.165361E+03  2.720860E+04  1.119562E+02 -2.743667E+04 -4.947588E-03
         7   9  2.402771E+04  2.958005E+04  5.744486E+04  4.767906E+02 -4.175870E+04 -3.206905E-02
         7  10  2.402724E+04 -8.888006E+02  1.705231E+04  2.528720E+02  6.431648E-09 -1.186526E-10
         7  11  1.771655E+04 -7.165563E+03  2.720719E+04 -1.119562E+02 -2.695199E-09  3.534257E-10
         7  12  2.402584E+04  2.957959E+04  5.744158E+04 -4.767906E+02 -3.751623E-09  4.958425E-10
         7  13  2.402724E+04 -8.888007E+02  1.705231E+04 -1.437581E-06  4.296243E-09 -1.345367E-10
         7  14  1.771655E+04 -7.165563E+03  2.720719E+04 -6.842100E-07  1.077018E-08  4.989414E-10
         7  15  2.402584E+04  2.957959E+04  5.744158E+04 -6.890523E-07  4.312045E-09  2.629449E-10
         7  16  2.402724E+04 -8.888006E+02  1.705231E+04 -2.528720E+02 -2.124700E-09 -1.504203E-10
         7  17  1.771655E+04 -7.165563E+03  2.720719E+04  1.119562E+02  3.232418E-09  4.997519E-10
         7  18  2.402584E+04  2.957959E+04  5.744158E+04  4.767906E+02  6.983986E-09  4.363852E-10
         7  19  2.402742E+04 -8.887544E+02  1.705263E+04  2.528720E+02  1.311494E+04  5.341664E-03
         7  20  1.771736E+04 -7.165361E+03  2.720860E+04 -1.119562E+02  2.743667E+04 -4.947584E-03
         7  21  2.402771E+04  2.958005E+04  5.744486E+04 -4.767906E+02  4.175870E+04 -3.206904E-02
         7  22  2.402742E+04 -8.887545E+02  1.705263E+04 -1.437581E-06  1.311494E+04 -3.093455E-10
         7  23  1.771736E+04 -7.165361E+03  2.720860E+04 -5.463586E-07  2.743667E+04 -3.700298E-11
         7  24  2.402771E+04  2.958005E+04  5.744486E+04  8.618063E-07  4.175870E+04 -1.290782E-09
         7  25  2.402742E+04 -8.887544E+02  1.705263E+04 -2.528720E+02  1.311494E+04 -5.341661E-03
         7  26  1.771736E+04 -7.165361E+03  2.720860E+04  1.119562E+02  2.743667E+04  4.947584E-03
         7  27  2.402771E+04  2.958005E+04  5.744486E+04  4.767906E+02  4.175870E+04  3.206904E-02
         8   1  3.808997E+04 -5.820192E+03  6.932509E+04  1.579472E+03 -5.330143E+04 -1.355976E-01
         8   2  1.457745E+02 -4.556986E+04  1.050919E+05 -7.931650E+02 -1.108169E+05  1.415782E-01
         8   3  3.809834E+04  1.882959E+05  2.467200E+05 -3.165920E+03 -1.683313E+05  8.583749E-01
         8   4  3.808997E+04 -5.820196E+03  6.932509E+04  1.451587E-07 -5.330143E+04 -4.434265E-10
         8   5  1.457738E+02 -4.556986E+04  1.050919E+05 -8.374074E-07 -1.108169E+05 -6.227144E-09
         8   6  3.809833E+04  1.882958E+05  2.467200E+05  6.268101E-07 -1.683313E+05 -1.869354E-09
         8   7  3.808997E+04 -5.820192E+03  6.932509E+04 -1.579472E+03 -5.330143E+04  1.355976E-01
         8   8  1.457745E+02 -4.556986E+04  1.050919E+05  7.931650E+02 -1.108169E+05 -1.415782E-01
         8   9  3.809834E+04  1.882959E+05  2.467200E+05  3.165920E+03 -1.683313E+05 -8.583749E-01
         8  10  3.808692E+04 -5.820954E+03  6.931975E+04  1.579472E+03 -1.030255E-09 -9.955363E-10
         8  11  1.325894E+02 -4.557315E+04  1.050688E+05 -7.931650E+02 -1.077339E-09 -1.091697E-09
         8  12  3.806792E+04  1.882882E+05  2.466667E+05 -3.165920E+03  3.458844E-10  1.181626E-10
         8  13  3.808692E+04 -5.820959E+03  6.931975E+04 -1.305425E-07  1.262156E-11 -8.936818E-10
         8  14  1.325887E+02 -4.557315E+04  1.050688E+05  2.653265E-07 -2.050440E-11 -2.043804E-09
         8  15  3.806791E+04  1.882882E+05  2.466667E+05  1.488448E-06 -3.757442E-09 -7.374297E-10
         8  16  3.808692E+04 -5.820954E+03  6.931975E+04 -1.579472E+03  2.116763E-09 -6.200353E-10
         8  17  1.325894E+02 -4.557315E+04  1.050688E+05  7.931649E+02  5.381981E-09 -1.331182E-09
         8  18  3.806792E+04  1.882882E+05  2.466667E+05  3.165920E+03  1.960417E-09 -4.291802E-09
         8  19  3.808997E+04 -5.820192E+03  6.932509E+04  1.579472E+03  5.330143E+04  1.355976E-01
         8  20  1.457745E+02 -4.556986E+04  1.050919E+05 -7.931650E+02  1.108169E+05 -1.415782E-01
         8  21  3.809834E+04  1.882959E+05  2.467200E+05 -3.165920E+03  1.683313E+05 -8.583749E-01
         8  22  3.808997E+04 -5.820196E+03  6.932509E+04  4.208582E-07  5.330143E+04 -1.242694E-09
         8  23  1.457738E+02 -4.556986E+04  1.050919E+05 -1.035688E-08  1.108169E+05  2.353749E-09
         8  24  3.809833E+04  1.882958E+05  2.467200E+05  6.957417E-07  1.683313E+05 -9.061281E-10
         8  25  3.808997E+04 -5.820192E+03  6.932509E+04 -1.579472E+03  5.330143E+04 -1.355976E-01
         8  26  1.457745E+02 -4.556986E+04  1.050919E+05  7.931650E+02  1.108169E+05  1.415782E-01
         8  27  3.809834E+04  1.882959E+05  2.467200E+05  3.165920E+03  1.683313E+05  8.583749E-01
         9   1  2.434614E+06  8.914611E+06  2.308302E+06 -1.701276E+06  1.119127E+05  8.804327E+05
         9   2  1.967320E+06  7.600711E+06  1.556174E+06 -1.566732E+06  3.762736E+05  4.025746E+05
         9   3  1.628427E+06  6.385347E+06  1.145363E+06 -1.635678E+06  4.393787E+05 -7.397991E+04
         9   4  1.005938E+05 -5.996190E+05  1.053604E+05 -1.610735E+06  1.145439E+05  6.884633E+04
         9   5  3.257756E+04 -6.063061E+05  5.614088E+04 -1.509185E+06  3.781760E+05  4.179737E+04
         9   6  1.614162E+04 -5.929250E+05  3.799621E+04 -1.611104E+06  4.393744E+05  1.494775E+04
         9   7 -2.239399E+06 -1.002955E+07 -2.101200E+06 -1.521418E+06  1.169737E+05 -7.305320E+05
         9   8 -1.905889E+06 -8.748108E+06 -1.446149E+06 -1.452280E+06  3.800308E+05 -3.143839E+05
         9   9 -1.598559E+06 -7.523028E+06 -1.070589E+06 -1.586698E+06  4.393767E+05  1.029192E+05
         9  10  2.434395E+06  8.913784E+06  2.306840E+06 -1.701356E+06  2.861119E-10  1.482487E-08
         9  11  1.967124E+06  7.600500E+06  1.555605E+06 -1.566854E+06  8.312453E-09  3.605464E-08
         9  12  1.628218E+06  6.385289E+06  1.144990E+06 -1.635652E+06  8.429160E-09  5.236708E-08
         9  13  1.005784E+05 -5.996276E+05  1.053268E+05 -1.610741E+06 -2.909969E-09  3.794941E-11
         9  14  3.242351E+04 -6.063464E+05  5.586875E+04 -1.509198E+06 -7.287779E-09 -5.930030E-11
         9  15  1.593430E+04 -5.929770E+05  3.763304E+04 -1.611109E+06 -1.428175E-08 -5.840249E-11
         9  16 -2.239559E+06 -1.003014E+07 -2.102244E+06 -1.521349E+06  4.670874E-09 -1.488419E-08
         9  17 -1.906071E+06 -8.748253E+06 -1.446607E+06 -1.452183E+06  4.644224E-09 -3.567247E-08
         9  18 -1.598769E+06 -7.523091E+06 -1.070972E+06 -1.586735E+06  5.432396E-09 -5.164220E-08
         9  19  2.434614E+06  8.914611E+06  2.308302E+06 -1.701276E+06 -1.119127E+05 -8.804327E+05
         9  20  1.967320E+06  7.600711E+06  1.556174E+06 -1.566732E+06 -3.762736E+05 -4.025746E+05
         9  21  1.628427E+06  6.385347E+06  1.145363E+06 -1.635678E+06 -4.393787E+05  7.397991E+04
         9  22  1.005938E+05 -5.996190E+05  1.053604E+05 -1.610735E+06 -1.145439E+05 -6.884633E+04
         9  23  3.257756E+04 -6.063061E+05  5.614088E+04 -1.509185E+06 -3.781760E+05 -4.179737E+04
         9  24  1.614162E+04 -5.929250E+05  3.799621E+04 -1.611104E+06 -4.393744E+05 -1.494775E+04
         9  25 -2.239399E+06 -1.002955E+07 -2.101200E+06 -1.521418E+06 -1.169737E+05  7.305320E+05
         9  26 -1.905889E+06 -8.748108E+06 -1.446149E+06 -1.452280E+06 -3.800308E+05  3.143839E+05
         9  27 -1.598559E+06 -7.523028E+06 -1.070589E+06 -1.586698E+06 -4.393767E+05 -1.029192E+05
        10   1  1.439047E+06  5.581584E+06  9.875395E+05 -1.642335E+06  4.079319E+05 -8.568091E+04
        10   2  1.139785E+06  4.310356E+06  7.513953E+05 -1.523470E+06  3.533050E+05 -1.582296E+05
        10   3  8.639101E+05  3.055723E+06  5.680048E+05 -1.622799E+06  2.738134E+05 -2.309219E+05
        10   4  1.677742E+04 -5.942559E+05  3.395063E+04 -1.614396E+06  4.077689E+05  9.070985E+03
        10   5  1.748640E+04 -5.949169E+05  3.425724E+04 -1.505227E+06  3.526195E+05 -8.139359E+03
        10   6  3.214618E+04 -5.900836E+05  4.911035E+04 -1.614351E+06  2.725036E+05 -2.563154E+04
        10   7 -1.407337E+06 -6.732168E+06 -9.204740E+05 -1.586648E+06  4.076130E+05  1.029223E+05
        10   8 -1.105913E+06 -5.476001E+06 -6.832111E+05 -1.487071E+06  3.519390E+05  1.408204E+05
        10   9 -8.001956E+05 -4.222395E+06 -4.698193E+05 -1.605917E+06  2.711938E+05  1.785098E+05
        10  10  1.438866E+06  5.581531E+06  9.872135E+05 -1.642307E+06  4.393796E-09 -6.642961E-08
        10  11  1.139645E+06  4.310296E+06  7.511146E+05 -1.523425E+06  4.334179E-09 -4.450153E-08
        10  12  8.638157E+05  3.055646E+06  5.677649E+05 -1.622748E+06  2.373036E-09 -1.774369E-08
        10  13  1.659889E+04 -5.943006E+05  3.363806E+04 -1.614399E+06 -1.608037E-08  4.162329E-11
        10  14  1.735291E+04 -5.949503E+05  3.402356E+04 -1.505225E+06 -1.123026E-08 -1.319890E-10
        10  15  3.206632E+04 -5.901041E+05  4.896970E+04 -1.614346E+06  5.157772E-09 -9.986799E-11
        10  16 -1.407518E+06 -6.732224E+06 -9.208067E+05 -1.586682E+06  5.840324E-09  6.604847E-08
        10  17 -1.106051E+06 -5.476055E+06 -6.834819E+05 -1.487111E+06  5.971317E-09  4.419780E-08
        10  18 -8.002834E+05 -4.222449E+06 -4.700183E+05 -1.605956E+06 -4.350610E-10  1.773846E-08
        10  19  1.439047E+06  5.581584E+06  9.875395E+05 -1.642335E+06 -4.079319E+05  8.568091E+04
        10  20  1.139785E+06  4.310356E+06  7.513953E+05 -1.523470E+06 -3.533050E+05  1.582296E+05
        10  21  8.639101E+05  3.055723E+06  5.680048E+05 -1.622799E+06 -2.738134E+05  2.309219E+05
        10  22  1.677742E+04 -5.942559E+05  3.395063E+04 -1.614396E+06 -4.077689E+05 -9.070985E+03
        10  23  1.748640E+04 -5.949169E+05  3.425724E+04 -1.505227E+06 -3.526195E+05  8.139359E+03
        10  24  3.214618E+04 -5.900836E+05  4.911035E+04 -1.614351E+06 -2.725036E+05  2.563154E+04
        10  25 -1.407337E+06 -6.732168E+06 -9.204740E+05 -1.586648E+06 -4.076130E+05 -1.029223E+05
        10  26 -1.105913E+06 -5.476001E+06 -6.832111E+05 -1.487071E+06 -3.519390E+05 -1.408204E+05
        10  27 -8.001956E+05 -4.222395E+06 -4.698193E+05 -1.605917E+06 -2.711938E+05 -1.785098E+05
        11   1  6.893364E+05  2.272739E+06  4.630841E+05 -1.625782E+06  2.189416E+05 -2.401958E+05
        11   2  4.450482E+05  9.979742E+05  3.285029E+05 -1.444662E+06  1.256256E+05 -2.987014E+05
        11   3  2.912532E+05 -2.470375E+05  2.539986E+05 -1.483456E+06  3.079197E+04 -3.571980E+05
        11   4  3.824485E+04 -5.842481E+05  6.167349E+04 -1.614761E+06  2.175111E+05 -3.432490E+04
        11   5  8.297183E+04 -5.972588E+05  1.072341E+05 -1.504320E+06  1.241052E+05 -8.961033E+04
        11   6  2.177279E+05 -5.828225E+05  2.105094E+05 -1.613682E+06  2.919355E+04 -1.449873E+05
        11   7 -6.131886E+05 -3.432891E+06 -3.396863E+05 -1.603771E+06  2.160832E+05  1.706428E+05
        11   8 -2.791781E+05 -2.189807E+06 -1.138985E+05 -1.563811E+06  1.225419E+05  1.189682E+05
        11   9  1.442869E+05 -9.183577E+05  1.671983E+05 -1.743835E+06  2.750544E+04  6.711414E+04
        11  10  6.892697E+05  2.272665E+06  4.628867E+05 -1.625739E+06 -1.009294E-09 -3.383954E-09
        11  11  4.450075E+05  9.978745E+05  3.283063E+05 -1.444631E+06 -4.665418E-09 -2.353757E-09
        11  12  2.912179E+05 -2.471748E+05  2.537571E+05 -1.483447E+06 -1.494180E-09 -2.289299E-09
        11  13  3.819378E+04 -5.842620E+05  6.158249E+04 -1.614755E+06 -2.283496E-09  4.079862E-11
        11  14  8.295319E+04 -5.972715E+05  1.071902E+05 -1.504311E+06  6.973015E-09  3.727277E-10
        11  15  2.177213E+05 -5.828453E+05  2.104683E+05 -1.613679E+06  5.961287E-09  1.452852E-10
        11  16 -6.132467E+05 -3.432935E+06 -3.398295E+05 -1.603800E+06 -3.550899E-09  3.599401E-09
        11  17 -2.791981E+05 -2.189826E+06 -1.139536E+05 -1.563823E+06  9.458417E-09  2.743177E-09
        11  18  1.442848E+05 -9.183628E+05  1.671883E+05 -1.743836E+06  2.707853E-10  2.475879E-09
        11  19  6.893364E+05  2.272739E+06  4.630841E+05 -1.625782E+06 -2.189416E+05  2.401958E+05
        11  20  4.450482E+05  9.979742E+05  3.285029E+05 -1.444662E+06 -1.256256E+05  2.987014E+05
        11  21  2.912532E+05 -2.470375E+05  2.539986E+05 -1.483456E+06 -3.079197E+04  3.571980E+05
        11  22  3.824485E+04 -5.842481E+05  6.167349E+04 -1.614761E+06 -2.175111E+05  3.432490E+04
        11  23  8.297183E+04 -5.972588E+05  1.072341E+05 -1.504320E+06 -1.241052E+05  8.961033E+04
        11  24  2.177279E+05 -5.828225E+05  2.105094E+05 -1.613682E+06 -2.919355E+04  1.449873E+05
        11  25 -6.131886E+05 -3.432891E+06 -3.396863E+05 -1.603771E+06 -2.160832E+05 -1.706428E+05
        11  26 -2.791781E+05 -2.189807E+06 -1.138985E+05 -1.563811E+06 -1.225419E+05 -1.189682E+05
        11  27  1.442869E+05 -9.183577E+05  1.671983E+05 -1.743835E+06 -2.750544E+04 -6.711414E+04
        12   1 -1.006520E+07 -3.258763E+06 -2.258696E+06 -3.278092E+06 -9.176914E+05 -3.208675E+05
        12   2 -9.758429E+06 -1.819322E+06 -1.373405E+06 -3.410494E+06 -5.993010E+05 -1.606077E+05
        12   3 -9.798460E+06 -1.961816E+06 -1.112729E+06 -3.369775E+06 -2.621929E+05 -5.072001E+04
        12   4 -7.159090E+06 -2.007020E+06 -1.422402E+06 -2.338996E+06 -9.071808E+05 -3.172352E+05
        12   5 -6.916176E+06 -7.145464E+05 -5.854723E+05 -2.612543E+06 -5.984954E+05 -1.603775E+05
        12   6 -7.015542E+06 -9.979676E+05 -3.630333E+05 -2.713601E+06 -2.711753E+05 -5.396189E+04
        12   7 -4.244711E+06 -7.540857E+05 -5.869415E+05 -1.395626E+06 -8.966055E+05 -3.135709E+05
        12   8 -4.066073E+06  3.908097E+05  2.017048E+05 -1.811198E+06 -5.976798E+05 -1.601431E+05
        12   9 -4.225130E+06 -3.399003E+04  3.859833E+05 -2.054860E+06 -2.802000E+05 -5.721655E+04
        12  10 -1.006614E+07 -3.259107E+06 -2.260505E+06 -3.278332E+06  2.376070E-10 -3.037752E-10
        12  11 -9.758827E+06 -1.819449E+06 -1.374141E+06 -3.410573E+06 -1.425729E-09 -8.741410E-10
        12  12 -9.798536E+06 -1.961838E+06 -1.112865E+06 -3.369786E+06 -2.907505E-09 -1.371071E-09
        12  13 -7.160010E+06 -2.007354E+06 -1.424160E+06 -2.339230E+06  4.300468E-09 -7.725962E-11
        12  14 -6.916571E+06 -7.146721E+05 -5.862031E+05 -2.612621E+06  2.364414E-09 -1.388366E-09
        12  15 -7.015623E+06 -9.979908E+05 -3.631788E+05 -2.713613E+06  2.610547E-10 -1.970826E-09
        12  16 -4.245606E+06 -7.544098E+05 -5.886500E+05 -1.395854E+06  7.089916E-10 -6.440724E-10
        12  17 -4.066465E+06  3.906851E+05  2.009796E+05 -1.811276E+06 -1.769559E-10 -8.509334E-10
        12  18 -4.225215E+06 -3.401486E+04  3.858283E+05 -2.054873E+06  2.842382E-09 -1.066729E-11
        12  19 -1.006520E+07 -3.258763E+06 -2.258696E+06 -3.278092E+06  9.176914E+05  3.208675E+05
        12  20 -9.758429E+06 -1.819322E+06 -1.373405E+06 -3.410494E+06  5.993010E+05  1.606077E+05
        12  21 -9.798460E+06 -1.961816E+06 -1.112729E+06 -3.369775E+06  2.621929E+05  5.072001E+04
        12  22 -7.159090E+06 -2.007020E+06 -1.422402E+06 -2.338996E+06  9.071808E+05  3.172352E+05
        12  23 -6.916176E+06 -7.145464E+05 -5.854723E+05 -2.612543E+06  5.984954E+05  1.603775E+05
        12  24 -7.015542E+06 -9.979676E+05 -3.630333E+05 -2.713601E+06  2.711753E+05  5.396189E+04
        12  25 -4.244711E+06 -7.540857E+05 -5.869415E+05 -1.395626E+06  8.966055E+05  3.135709E+05
        12  26 -4.066073E+06  3.908097E+05  2.017048E+05 -1.811198E+06  5.976798E+05  1.601431E+05
        12  27 -4.225130E+06 -3.399003E+04  3.859833E+05 -2.054860E+06  2.802000E+05  5.721655E+04
        13   1 -8.475409E+06 -1.813716E+06 -7.289745E+05 -3.112521E+06 -2.119174E+05 -4.651607E+04
        13   2 -8.298469E+06 -1.297625E+06 -4.712963E+05 -2.821956E+06 -1.353343E+05 -2.494753E+04
        13   3 -7.801214E+06 -1.387831E+06 -3.243830E+05 -2.959087E+06 -5.537537E+04 -1.279421E+04
        13   4 -6.927088E+06 -1.219711E+06 -3.012674E+05 -2.685420E+06 -2.124157E+05 -4.671030E+04
        13   5 -7.077517E+06 -8.419296E+05 -1.366791E+05 -2.498576E+06 -1.377409E+05 -2.581720E+04
        13   6 -6.907184E+06 -1.069731E+06 -8.108803E+04 -2.739441E+06 -5.973716E+04 -1.435108E+04
        13   7 -5.376446E+06 -6.255476E+05  1.262172E+05 -2.257333E+06 -2.129147E+05 -4.690481E+04
        13   8 -5.855125E+06 -3.861590E+05  1.978013E+05 -2.174616E+06 -1.401525E+05 -2.668871E+04
        13   9 -6.012387E+06 -7.516096E+05  1.621347E+05 -2.519516E+06 -6.410584E+04 -1.591021E+04
        13  10 -8.475458E+06 -1.813731E+06 -7.290643E+05 -3.112529E+06  3.291523E-09 -3.474425E-09
        13  11 -8.298489E+06 -1.297631E+06 -4.713324E+05 -2.821959E+06 -6.490337E-09  3.313918E-09
        13  12 -7.801218E+06 -1.387832E+06 -3.243892E+05 -2.959088E+06 -2.537814E-09 -1.099000E-09
        13  13 -6.927138E+06 -1.219726E+06 -3.013574E+05 -2.685428E+06  1.138201E-09 -1.962666E-09
        13  14 -7.077538E+06 -8.419355E+05 -1.367165E+05 -2.498579E+06  2.507972E-09 -2.653855E-09
        13  15 -6.907188E+06 -1.069732E+06 -8.109521E+04 -2.739442E+06  3.875676E-09 -2.460624E-09
        13  16 -5.376495E+06 -6.255623E+05  1.261270E+05 -2.257341E+06  4.882926E-09 -2.605834E-09
        13  17 -5.855147E+06 -3.861651E+05  1.977626E+05 -2.174619E+06  5.641818E-09 -4.842362E-09
        13  18 -6.012392E+06 -7.516110E+05  1.621264E+05 -2.519516E+06  4.133949E-09 -4.401814E-09
        13  19 -8.475409E+06 -1.813716E+06 -7.289745E+05 -3.112521E+06  2.119174E+05  4.651607E+04
        13  20 -8.298469E+06 -1.297625E+06 -4.712963E+05 -2.821956E+06  1.353343E+05  2.494753E+04
        13  21 -7.801214E+06 -1.387831E+06 -3.243830E+05 -2.959087E+06  5.537537E+04  1.279421E+04
        13  22 -6.927088E+06 -1.219711E+06 -3.012674E+05 -2.685420E+06  2.124157E+05  4.671030E+04
        13  23 -7.077517E+06 -8.419296E+05 -1.366791E+05 -2.498576E+06  1.377409E+05  2.581720E+04
        13  24 -6.907184E+06 -1.069731E+06 -8.108803E+04 -2.739441E+06  5.973716E+04  1.435108E+04
        13  25 -5.376446E+06 -6.255476E+05  1.262172E+05 -2.257333E+06  2.129147E+05  4.690481E+04
        13  26 -5.855125E+06 -3.861590E+05  1.978013E+05 -2.174616E+06  1.401525E+05  2.668871E+04
        13  27 -6.012387E+06 -7.516096E+05  1.621347E+05 -2.519516E+06  6.410584E+04  1.591021E+04
        14   1 -6.146839E+06 -8.223571E+05  1.409586E+05 -2.537540E+06 -4.079152E+04 -1.944012E+04
        14   2 -6.000685E+06 -4.647663E+05  2.668553E+05 -2.206595E+06 -1.992750E+04 -2.743013E+04
        14   3 -5.456699E+06 -5.448721E+05  3.733181E+05 -2.355900E+06  7.607781E+00 -3.262393E+04
        14   4 -6.898309E+06 -1.095394E+06 -6.463658E+04 -2.728532E+06 -4.410096E+04 -2.062221E+04
        14   5 -7.095826E+06 -8.679977E+05 -3.192369E+04 -2.491276E+06 -2.263453E+04 -2.840487E+04
        14   6 -6.895709E+06 -1.078511E+06 -1.912358E+04 -2.734370E+06 -2.107701E+03 -3.339226E+04
        14   7 -7.649239E+06 -1.368410E+06 -2.702836E+05 -2.919317E+06 -4.740595E+04 -2.180275E+04
        14   8 -8.189813E+06 -1.271177E+06 -3.308121E+05 -2.775504E+06 -2.533625E+04 -2.937770E+04
        14   9 -8.332723E+06 -1.612051E+06 -4.117536E+05 -3.112045E+06 -4.217562E+03 -3.415862E+04
        14  10 -6.146841E+06 -8.223579E+05  1.409547E+05 -2.537541E+06 -1.044625E-09  1.216884E-09
        14  11 -6.000686E+06 -4.647672E+05  2.668531E+05 -2.206596E+06 -3.087381E-09  5.204066E-09
        14  12 -5.456700E+06 -5.448733E+05  3.733161E+05 -2.355900E+06 -2.149353E-09  3.379883E-09
        14  13 -6.898312E+06 -1.095395E+06 -6.464110E+04 -2.728533E+06  3.761729E-09 -4.068984E-09
        14  14 -7.095827E+06 -8.679987E+05 -3.192619E+04 -2.491276E+06 -7.825723E-09  2.128363E-09
        14  15 -6.895709E+06 -1.078513E+06 -1.912568E+04 -2.734370E+06  2.860524E-10  5.315241E-10
        14  16 -7.649241E+06 -1.368411E+06 -2.702888E+05 -2.919318E+06  6.766008E-09  5.016267E-10
        14  17 -8.189814E+06 -1.271178E+06 -3.308149E+05 -2.775505E+06  4.263504E-09  1.040407E-09
        14  18 -8.332724E+06 -1.612053E+06 -4.117559E+05 -3.112045E+06 -1.203141E-09 -1.671810E-09
        14  19 -6.146839E+06 -8.223571E+05  1.409586E+05 -2.537540E+06  4.079152E+04  1.944012E+04
        14  20 -6.000685E+06 -4.647663E+05  2.668553E+05 -2.206595E+06  1.992750E+04  2.743013E+04
        14  21 -5.456699E+06 -5.448721E+05  3.733181E+05 -2.355900E+06 -7.607781E+00  3.262393E+04
        14  22 -6.898309E+06 -1.095394E+06 -6.463658E+04 -2.728532E+06  4.410096E+04  2.062221E+04
        14  23 -7.095826E+06 -8.679977E+05 -3.192369E+04 -2.491276E+06  2.263453E+04  2.840487E+04
        14  24 -6.895709E+06 -1.078511E+06 -1.912358E+04 -2.734370E+06  2.107701E+03  3.339226E+04
        14  25 -7.649239E+06 -1.368410E+06 -2.702836E+05 -2.919317E+06  4.740595E+04  2.180275E+04
        14  26 -8.189813E+06 -1.271177E+06 -3.308121E+05 -2.775504E+06  2.533625E+04  2.937770E+04
        14  27 -8.332723E+06 -1.612051E+06 -4.117536E+05 -3.112045E+06  4.217562E+03  3.415862E+04
        15   1 -4.273014E+06 -4.493858E+04  7.149804E+05 -1.975899E+06  6.014367E+03 -3.875737E+04
        15   2 -4.236738E+06  1.182313E+05  7.590138E+05 -1.815037E+06  1.309537E+04 -4.794411E+04
        15   3 -3.954822E+06  9.074145E+04  8.118536E+05 -1.869642E+06  1.702485E+04 -4.834056E+04
        15   4 -6.932010E+06 -1.029816E+06 -1.217763E+04 -2.674018E+06  2.752373E+03 -3.995348E+04
        15   5 -7.054523E+06 -9.353588E+05 -1.220075E+04 -2.565725E+06  1.177792E+04 -4.844571E+04
        15   6 -6.931902E+06 -1.032137E+06 -4.981370E+03 -2.672995E+06  1.764391E+04 -4.812862E+04
        15   7 -9.584192E+06 -2.014359E+06 -7.399777E+05 -3.369434E+06 -4.940745E+02 -4.114400E+04
        15   8 -9.864647E+06 -1.988542E+06 -7.841395E+05 -3.313326E+06  1.046718E+04 -4.894491E+04
        15   9 -9.900429E+06 -2.154528E+06 -8.226301E+05 -3.472851E+06  1.825975E+04 -4.791796E+04
        15  10 -4.273014E+06 -4.494019E+04  7.149776E+05 -1.975899E+06 -5.360427E-09  1.748725E-09
        15  11 -4.236738E+06  1.182288E+05  7.590091E+05 -1.815037E+06 -7.562518E-09  5.576477E-09
        15  12 -3.954823E+06  9.073887E+04  8.118487E+05 -1.869642E+06  1.236199E-09  1.176052E-09
        15  13 -6.932011E+06 -1.029817E+06 -1.218064E+04 -2.674018E+06  2.957262E-10  1.811481E-09
        15  14 -7.054524E+06 -9.353614E+05 -1.220540E+04 -2.565725E+06  9.319760E-09  5.238876E-09
        15  15 -6.931903E+06 -1.032139E+06 -4.986290E+03 -2.672994E+06 -2.597423E-09  1.515730E-09
        15  16 -9.584193E+06 -2.014361E+06 -7.399809E+05 -3.369434E+06  3.063472E-09 -1.748138E-10
        15  17 -9.864648E+06 -1.988544E+06 -7.841442E+05 -3.313326E+06 -1.945271E-09 -1.831620E-09
        15  18 -9.900430E+06 -2.154531E+06 -8.226351E+05 -3.472850E+06  2.287574E-09  6.462227E-10
        15  19 -4.273014E+06 -4.493858E+04  7.149804E+05 -1.975899E+06 -6.014367E+03  3.875737E+04
        15  20 -4.236738E+06  1.182313E+05  7.590138E+05 -1.815037E+06 -1.309537E+04  4.794411E+04
        15  21 -3.954822E+06  9.074145E+04  8.118536E+05 -1.869642E+06 -1.702485E+04  4.834056E+04
        15  22 -6.932010E+06 -1.029816E+06 -1.217763E+04 -2.674018E+06 -2.752373E+03  3.995348E+04
        15  23 -7.054523E+06 -9.353588E+05 -1.220075E+04 -2.565725E+06 -1.177792E+04  4.844571E+04
        15  24 -6.931902E+06 -1.032137E+06 -4.981370E+03 -2.672995E+06 -1.764391E+04  4.812862E+04
        15  25 -9.584192E+06 -2.014359E+06 -7.399777E+05 -3.369434E+06  4.940745E+02  4.114400E+04
        15  26 -9.864647E+06 -1.988542E+06 -7.841395E+05 -3.313326E+06 -1.046718E+04  4.894491E+04
        15  27 -9.900429E+06 -2.154528E+06 -8.226301E+05 -3.472851E+06 -1.825975E+04  4.791796E+04
        16   1 -3.878697E+06  2.239470E+05  8.538493E+05 -1.741707E+06  1.934622E+04 -4.848510E+04
        16   2 -3.954042E+06  1.254279E+05  8.171967E+05 -1.841328E+06  2.281277E+04 -4.831241E+04
        16   3 -4.099696E+06  1.635234E+05  7.918112E+05 -1.779881E+06  2.265343E+04 -3.876338E+04
        16   4 -7.002393E+06 -9.589809E+05 -4.333188E+03 -2.589565E+06  1.808146E+04 -4.898036E+04
        16   5 -6.966976E+06 -1.026580E+06 -1.240622E+04 -2.670355E+06  2.362769E+04 -4.802177E+04
        16   6 -7.002526E+06 -9.580850E+05 -1.089729E+04 -2.590046E+06  2.554006E+04 -3.766434E+04
        16   7 -1.011666E+07 -2.141356E+06 -8.634120E+05 -3.433548E+06  1.682384E+04 -4.947303E+04
        16   8 -9.971130E+06 -2.178036E+06 -8.428480E+05 -3.495717E+06  2.443821E+04 -4.773288E+04
        16   9 -9.897202E+06 -2.079145E+06 -8.143915E+05 -3.396750E+06  2.841159E+04 -3.657121E+04
        16  10 -3.878698E+06  2.239444E+05  8.538442E+05 -1.741707E+06  3.173403E-09  7.641545E-10
        16  11 -3.954043E+06  1.254252E+05  8.171914E+05 -1.841327E+06  3.601592E-09  1.176953E-09
        16  12 -4.099697E+06  1.635217E+05  7.918074E+05 -1.779881E+06 -3.221827E-09  2.507172E-09
        16  13 -7.002394E+06 -9.589836E+05 -4.338292E+03 -2.589564E+06  3.325472E-09  5.836916E-11
        16  14 -6.966978E+06 -1.026583E+06 -1.241158E+04 -2.670354E+06  1.848827E-09  3.947255E-09
        16  15 -7.002527E+06 -9.580867E+05 -1.090117E+04 -2.590045E+06 -3.661512E-10 -7.003802E-10
        16  16 -1.011666E+07 -2.141359E+06 -8.634171E+05 -3.433547E+06 -6.586945E-09  1.580174E-09
        16  17 -9.971131E+06 -2.178039E+06 -8.428534E+05 -3.495716E+06 -5.990490E-09  4.675266E-09
        16  18 -9.897203E+06 -2.079146E+06 -8.143956E+05 -3.396749E+06  7.155318E-11 -1.313317E-09
        16  19 -3.878697E+06  2.239470E+05  8.538493E+05 -1.741707E+06 -1.934622E+04  4.848510E+04
        16  20 -3.954042E+06  1.254279E+05  8.171967E+05 -1.841328E+06 -2.281277E+04  4.831241E+04
        16  21 -4.099696E+06  1.635234E+05  7.918112E+05 -1.779881E+06 -2.265343E+04  3.876338E+04
        16  22 -7.002393E+06 -9.589809E+05 -4.333188E+03 -2.589565E+06 -1.808146E+04  4.898036E+04
        16  23 -6.966976E+06 -1.026580E+06 -1.240622E+04 -2.670355E+06 -2.362769E+04  4.802177E+04
        16  24 -7.002526E+06 -9.580850E+05 -1.089729E+04 -2.590046E+06 -2.554006E+04  3.766434E+04
        16  25 -1.011666E+07 -2.141356E+06 -8.634120E+05 -3.433548E+06 -1.682384E+04  4.947303E+04
        16  26 -9.971130E+06 -2.178036E+06 -8.428480E+05 -3.495717E+06 -2.443821E+04  4.773288E+04
        16  27 -9.897202E+06 -2.079145E+06 -8.143915E+05 -3.396750E+06 -2.841159E+04  3.657121E+04
        17   1 -5.157332E+06 -1.606647E+05  5.110676E+05 -1.994371E+06  2.356626E+04 -3.152166E+04
        17   2 -5.278903E+06 -4.692072E+05  4.123147E+05 -2.296246E+06  3.450509E+04 -1.690785E+04
        17   3 -5.793322E+06 -4.091694E+05  2.983130E+05 -2.156988E+06  4.363413E+04  2.081598E+03
        17   4 -7.071764E+06 -9.010348E+05 -1.744625E+04 -2.529231E+06  2.506200E+04 -3.094897E+04
        17   5 -6.876462E+06 -1.092022E+06 -3.030160E+04 -2.747260E+06  3.694345E+04 -1.595910E+04
        17   6 -7.074422E+06 -9.146220E+05 -5.919123E+04 -2.524112E+06  4.702092E+04  3.415170E+03
        17   7 -8.982639E+06 -1.641164E+06 -5.463006E+05 -3.062582E+06  2.655256E+04 -3.037832E+04
        17   8 -8.471543E+06 -1.714659E+06 -4.731563E+05 -3.197209E+06  3.937470E+04 -1.501315E+04
        17   9 -8.353925E+06 -1.419951E+06 -4.168504E+05 -2.890537E+06  5.039977E+04  4.745565E+03
        17  10 -5.157333E+06 -1.606660E+05  5.110647E+05 -1.994371E+06 -3.799118E-09 -1.496780E-09
        17  11 -5.278904E+06 -4.692079E+05  4.123120E+05 -2.296246E+06 -6.940257E-09  3.020434E-09
        17  12 -5.793324E+06 -4.091699E+05  2.983094E+05 -2.156988E+06  2.643874E-09 -4.023221E-09
        17  13 -7.071765E+06 -9.010360E+05 -1.744923E+04 -2.529230E+06  6.354372E-09 -3.736845E-09
        17  14 -6.876464E+06 -1.092023E+06 -3.030466E+04 -2.747260E+06 -4.202526E-09  3.935359E-09
        17  15 -7.074424E+06 -9.146226E+05 -5.919546E+04 -2.524112E+06 -2.409096E-09  1.404453E-09
        17  16 -8.982640E+06 -1.641165E+06 -5.463037E+05 -3.062582E+06  3.064095E-09  1.184666E-10
        17  17 -8.471545E+06 -1.714660E+06 -4.731596E+05 -3.197208E+06  7.048469E-09 -5.435262E-09
        17  18 -8.353928E+06 -1.419952E+06 -4.168552E+05 -2.890537E+06 -1.016950E-09 -4.831317E-09
        17  19 -5.157332E+06 -1.606647E+05  5.110676E+05 -1.994371E+06 -2.356626E+04  3.152166E+04
        17  20 -5.278903E+06 -4.692072E+05  4.123147E+05 -2.296246E+06 -3.450509E+04  1.690785E+04
        17  21 -5.793322E+06 -4.091694E+05  2.983130E+05 -2.156988E+06 -4.363413E+04 -2.081598E+03
        17  22 -7.071764E+06 -9.010348E+05 -1.744625E+04 -2.529231E+06 -2.506200E+04  3.094897E+04
        17  23 -6.876462E+06 -1.092022E+06 -3.030160E+04 -2.747260E+06 -3.694345E+04  1.595910E+04
        17  24 -7.074422E+06 -9.146220E+05 -5.919123E+04 -2.524112E+06 -4.702092E+04 -3.415170E+03
        17  25 -8.982639E+06 -1.641164E+06 -5.463006E+05 -3.062582E+06 -2.655256E+04  3.037832E+04
        17  26 -8.471543E+06 -1.714659E+06 -4.731563E+05 -3.197209E+06 -3.937470E+04  1.501315E+04
        17  27 -8.353925E+06 -1.419951E+06 -4.168504E+05 -2.890537E+06 -5.039977E+04 -4.745565E+03
        18   1 -7.390324E+06 -1.009453E+06 -1.608150E+05 -2.618890E+06  4.976061E+04  1.635220E+04
        18   2 -7.500981E+06 -1.333334E+06 -3.082613E+05 -2.948937E+06  1.120775E+05  5.753309E+04
        18   3 -8.143998E+06 -1.397937E+06 -5.596494E+05 -2.742266E+06  1.772547E+05  9.140792E+04
        18   4 -7.095963E+06 -8.827743E+05 -7.552994E+04 -2.524634E+06  5.379836E+04  1.794841E+04
        18   5 -6.840535E+06 -1.079841E+06 -1.259676E+05 -2.766662E+06  1.145660E+05  5.851026E+04
        18   6 -7.117112E+06 -1.017199E+06 -2.789637E+05 -2.472060E+06  1.782371E+05  9.178352E+04
        18   7 -6.801517E+06 -7.560842E+05  9.746573E+03 -2.430335E+06  5.783826E+04  1.954564E+04
        18   8 -6.179663E+06 -8.263217E+05  5.628573E+04 -2.584210E+06  1.170573E+05  5.948853E+04
        18   9 -6.089200E+06 -6.364149E+05  1.626238E+03 -2.201453E+06  1.792210E+05  9.215967E+04
        18  10 -7.390327E+06 -1.009454E+06 -1.608202E+05 -2.618891E+06  1.321337E-10  1.724962E-09
        18  11 -7.500996E+06 -1.333341E+06 -3.082915E+05 -2.948942E+06 -3.092500E-09 -1.183364E-08
        18  12 -8.144034E+06 -1.397955E+06 -5.597252E+05 -2.742279E+06 -6.303560E-09  1.835419E-09
        18  13 -7.095966E+06 -8.827754E+05 -7.553606E+04 -2.524635E+06  2.051807E-09 -3.547156E-09
        18  14 -6.840550E+06 -1.079848E+06 -1.259991E+05 -2.766667E+06 -2.001794E-09 -1.819239E-09
        18  15 -7.117149E+06 -1.017217E+06 -2.790402E+05 -2.472073E+06 -2.338367E-09 -3.982431E-09
        18  16 -6.801521E+06 -7.560856E+05  9.739481E+03 -2.430336E+06 -9.654704E-10  6.290369E-09
        18  17 -6.179679E+06 -8.263293E+05  5.625295E+04 -2.584216E+06  5.857746E-10 -1.734313E-09
        18  18 -6.089237E+06 -6.364328E+05  1.549084E+03 -2.201467E+06  3.581021E-09 -4.988838E-09
        18  19 -7.390324E+06 -1.009453E+06 -1.608150E+05 -2.618890E+06 -4.976061E+04 -1.635220E+04
        18  20 -7.500981E+06 -1.333334E+06 -3.082613E+05 -2.948937E+06 -1.120775E+05 -5.753309E+04
        18  21 -8.143998E+06 -1.397937E+06 -5.596494E+05 -2.742266E+06 -1.772547E+05 -9.140792E+04
        18  22 -7.095963E+06 -8.827743E+05 -7.552994E+04 -2.524634E+06 -5.379836E+04 -1.794841E+04
        18  23 -6.840535E+06 -1.079841E+06 -1.259676E+05 -2.766662E+06 -1.145660E+05 -5.851026E+04
        18  24 -7.117112E+06 -1.017199E+06 -2.789637E+05 -2.472060E+06 -1.782371E+05 -9.178352E+04
        18  25 -6.801517E+06 -7.560842E+05  9.746573E+03 -2.430335E+06 -5.783826E+04 -1.954564E+04
        18  26 -6.179663E+06 -8.263217E+05  5.628573E+04 -2.584210E+06 -1.170573E+05 -5.948853E+04
        18  27 -6.089200E+06 -6.364149E+05  1.626238E+03 -2.201453E+06 -1.792210E+05 -9.215967E+04
        19   1 -9.408933E+06 -1.872985E+06 -9.907034E+05 -3.320976E+06  2.139131E+05  1.211656E+05
        19   2 -9.390244E+06 -1.816216E+06 -1.250374E+06 -3.430491E+06  5.144846E+05  2.536889E+05
        19   3 -1.012595E+07 -2.797551E+06 -2.089776E+06 -2.898864E+06  8.333573E+05  3.384453E+05
        19   4 -7.106597E+06 -9.044140E+05 -3.361187E+05 -2.603573E+06  2.228225E+05  1.246698E+05
        19   5 -6.800873E+06 -8.524420E+05 -5.412537E+05 -2.746919E+06  5.140410E+05  2.534609E+05
        19   6 -7.245446E+06 -1.833309E+06 -1.316584E+06 -2.249699E+06  8.236912E+05  3.345034E+05
        19   7 -4.799071E+06  6.477504E+04  3.179483E+05 -1.883624E+06  2.317674E+05  1.281902E+05
        19   8 -4.204985E+06  1.116406E+05  1.672541E+05 -2.060780E+06  5.135905E+05  2.532306E+05
        19   9 -4.356894E+06 -8.690299E+05 -5.441061E+05 -1.597995E+06  8.139655E+05  3.305455E+05
        19  10 -9.408986E+06 -1.873014E+06 -9.908189E+05 -3.320997E+06 -3.304178E-09 -6.976892E-10
        19  11 -9.390550E+06 -1.816358E+06 -1.251003E+06 -3.430597E+06 -1.752285E-09  1.550096E-09
        19  12 -1.012674E+07 -2.797866E+06 -2.091324E+06 -2.899094E+06  3.884438E-09  1.433533E-09
        19  13 -7.106655E+06 -9.044444E+05 -3.362428E+05 -2.603595E+06 -3.216955E-10 -2.396558E-09
        19  14 -6.801177E+06 -8.525836E+05 -5.418789E+05 -2.747024E+06 -2.174238E-09  9.398712E-09
        19  15 -7.246212E+06 -1.833615E+06 -1.318089E+06 -2.249923E+06 -2.220293E-09 -1.166082E-09
        19  16 -4.799133E+06  6.474274E+04  3.178153E+05 -1.883648E+06  5.172768E-09 -9.781102E-10
        19  17 -4.205287E+06  1.114999E+05  1.666328E+05 -2.060885E+06  9.252226E-10  8.829541E-09
        19  18 -4.357639E+06 -8.693276E+05 -5.455682E+05 -1.598212E+06 -4.404860E-09  1.909335E-09
        19  19 -9.408933E+06 -1.872985E+06 -9.907034E+05 -3.320976E+06 -2.139131E+05 -1.211656E+05
        19  20 -9.390244E+06 -1.816216E+06 -1.250374E+06 -3.430491E+06 -5.144846E+05 -2.536889E+05
        19  21 -1.012595E+07 -2.797551E+06 -2.089776E+06 -2.898864E+06 -8.333573E+05 -3.384453E+05
        19  22 -7.106597E+06 -9.044140E+05 -3.361187E+05 -2.603573E+06 -2.228225E+05 -1.246698E+05
        19  23 -6.800873E+06 -8.524420E+05 -5.412537E+05 -2.746919E+06 -5.140410E+05 -2.534609E+05
        19  24 -7.245446E+06 -1.833309E+06 -1.316584E+06 -2.249699E+06 -8.236912E+05 -3.345034E+05
        19  25 -4.799071E+06  6.477504E+04  3.179483E+05 -1.883624E+06 -2.317674E+05 -1.281902E+05
        19  26 -4.204985E+06  1.116406E+05  1.672541E+05 -2.060780E+06 -5.135905E+05 -2.532306E+05
        19  27 -4.356894E+06 -8.690299E+05 -5.441061E+05 -1.597995E+06 -8.139655E+05 -3.305455E+05
        20   1 -8.942727E+04 -1.996029E+06 -1.515037E+05  3.638765E+04  5.173218E+02 -1.691795E+05
        20   2  1.427897E+05 -1.992324E+06 -1.759618E+04  4.771677E+03  1.429833E+03 -1.079155E+05
        20   3  1.039527E+05 -1.988503E+06  2.381572E+04  2.876528E+04  9.169611E+02 -4.666419E+04
        20   4 -1.862934E+05 -2.382578E+06 -2.483772E+05  3.348424E+04  5.181901E+02 -1.691475E+05
        20   5  4.503793E+04 -2.382398E+06 -1.153431E+05  5.839671E+03  1.429792E+03 -1.078828E+05
        20   6  5.204248E+03 -2.382174E+06 -7.485495E+04  3.380682E+04  9.164746E+02 -4.663110E+04
        20   7 -2.831708E+05 -2.768991E+06 -3.452619E+05  3.058268E+04  5.190586E+02 -1.691154E+05
        20   8 -5.272535E+04 -2.772334E+06 -2.131016E+05  6.907209E+03  1.429751E+03 -1.078500E+05
        20   9 -9.355592E+04 -2.775704E+06 -1.735374E+05  3.884554E+04  9.159884E+02 -4.659803E+04
        20  10 -8.943499E+04 -1.996059E+06 -1.515577E+05  3.638772E+04 -1.986496E-11 -1.356076E-10
        20  11  1.427865E+05 -1.992337E+06 -1.761814E+04  4.771802E+03 -5.670919E-09  4.321469E-09
        20  12  1.039521E+05 -1.988505E+06  2.381162E+04  2.876531E+04  7.578122E-09 -2.083357E-09
        20  13 -1.863011E+05 -2.382609E+06 -2.484311E+05  3.348431E+04 -5.678748E-09 -3.955634E-10
        20  14  4.503479E+04 -2.382411E+06 -1.153651E+05  5.839795E+03 -2.281881E-09 -1.732670E-09
        20  15  5.203660E+03 -2.382176E+06 -7.485906E+04  3.380685E+04  1.780172E-09 -3.778317E-09
        20  16 -2.831785E+05 -2.769022E+06 -3.453159E+05  3.058275E+04  2.091842E-09 -4.074018E-11
        20  17 -5.272849E+04 -2.772347E+06 -2.131236E+05  6.907334E+03 -1.684545E-09  4.109876E-09
        20  18 -9.355651E+04 -2.775706E+06 -1.735415E+05  3.884558E+04 -2.109871E-09  5.926796E-10
        20  19 -8.942727E+04 -1.996029E+06 -1.515037E+05  3.638765E+04 -5.173218E+02  1.691795E+05
        20  20  1.427897E+05 -1.992324E+06 -1.759618E+04  4.771677E+03 -1.429833E+03  1.079155E+05
        20  21  1.039527E+05 -1.988503E+06  2.381572E+04  2.876528E+04 -9.169611E+02  4.666419E+04
        20  22 -1.862934E+05 -2.382578E+06 -2.483772E+05  3.348424E+04 -5.181901E+02  1.691475E+05
        20  23  4.503793E+04 -2.382398E+06 -1.153431E+05  5.839671E+03 -1.429792E+03  1.078828E+05
        20  24  5.204248E+03 -2.382174E+06 -7.485495E+04  3.380682E+04 -9.164746E+02  4.663110E+04
        20  25 -2.831708E+05 -2.768991E+06 -3.452619E+05  3.058268E+04 -5.190586E+02  1.691154E+05
        20  26 -5.272535E+04 -2.772334E+06 -2.131016E+05  6.907209E+03 -1.429751E+03  1.078500E+05
        20  27 -9.355592E+04 -2.775704E+06 -1.735374E+05  3.884554E+04 -9.159884E+02  4.659803E+04
        21   1 -5.834458E+04 -2.493062E+06 -9.608294E+04  1.293757E+04  4.364961E+02 -3.405436E+04
        21   2 -1.557814E+04 -2.487443E+06 -7.246727E+04  3.427448E+04 -1.034323E+02 -1.044538E+04
        21   3 -4.637409E+04 -2.498563E+06 -8.170537E+04  1.167631E+04 -3.037886E+02  1.316749E+04
        21   4 -3.147435E+04 -2.386021E+06 -6.924154E+04  1.124986E+04  4.364613E+02 -3.404844E+04
        21   5  1.196411E+04 -2.377623E+06 -4.493804E+04  3.332407E+04 -1.034442E+02 -1.044399E+04
        21   6 -1.815152E+04 -2.385960E+06 -5.348097E+04  1.146370E+04 -3.037450E+02  1.316446E+04
        21   7 -4.604989E+03 -2.278969E+06 -4.240101E+04  9.561890E+03  4.364264E+02 -3.404252E+04
        21   8  3.950544E+04 -2.267792E+06 -1.740974E+04  3.237351E+04 -1.034562E+02 -1.044259E+04
        21   9  1.007009E+04 -2.273345E+06 -2.525754E+04  1.125108E+04 -3.037014E+02  1.316144E+04
        21  10 -5.834490E+04 -2.493063E+06 -9.608512E+04  1.293758E+04 -7.815578E-10 -1.763506E-09
        21  11 -1.557817E+04 -2.487443E+06 -7.246747E+04  3.427448E+04 -9.629307E-09  8.436048E-09
        21  12 -4.637414E+04 -2.498564E+06 -8.170570E+04  1.167632E+04 -4.090214E-10 -1.469248E-09
        21  13 -3.147467E+04 -2.386022E+06 -6.924372E+04  1.124987E+04 -7.736175E-10 -3.068003E-09
        21  14  1.196408E+04 -2.377623E+06 -4.493825E+04  3.332407E+04 -1.548329E-09 -2.778563E-09
        21  15 -1.815157E+04 -2.385960E+06 -5.348130E+04  1.146371E+04  9.813922E-10 -3.252462E-09
        21  16 -4.605301E+03 -2.278970E+06 -4.240319E+04  9.561902E+03 -1.870665E-09  1.641076E-10
        21  17  3.950541E+04 -2.267792E+06 -1.740994E+04  3.237351E+04  1.390171E-09  6.426674E-09
        21  18  1.007004E+04 -2.273345E+06 -2.525787E+04  1.125109E+04  1.768694E-09  1.997997E-10
        21  19 -5.834458E+04 -2.493062E+06 -9.608294E+04  1.293757E+04 -4.364961E+02  3.405436E+04
        21  20 -1.557814E+04 -2.487443E+06 -7.246727E+04  3.427448E+04  1.034323E+02  1.044538E+04
        21  21 -4.637409E+04 -2.498563E+06 -8.170537E+04  1.167631E+04  3.037886E+02 -1.316749E+04
        21  22 -3.147435E+04 -2.386021E+06 -6.924154E+04  1.124986E+04 -4.364613E+02  3.404844E+04
        21  23  1.196411E+04 -2.377623E+06 -4.493804E+04  3.332407E+04  1.034442E+02  1.044399E+04
        21  24 -1.815152E+04 -2.385960E+06 -5.348097E+04  1.146370E+04  3.037450E+02 -1.316446E+04
        21  25 -4.604989E+03 -2.278969E+06 -4.240101E+04  9.561890E+03 -4.364264E+02  3.404252E+04
        21  26  3.950544E+04 -2.267792E+06 -1.740974E+04  3.237351E+04  1.034562E+02  1.044259E+04
        21  27  1.007009E+04 -2.273345E+06 -2.525754E+04  1.125108E+04  3.037014E+02 -1.316144E+04
        22   1 -3.708719E+04 -2.533101E+06 -9.296102E+04  3.312745E+04 -3.807659E+02  2.313258E+04
        22   2 -4.454766E+03 -2.509987E+06 -1.088741E+05  9.262276E+03 -6.909447E+02  6.326503E+04
        22   3 -1.549994E+05 -2.527677E+06 -1.947231E+05  2.893335E+04 -6.172632E+02  1.034003E+05
        22   4 -1.499988E+03 -2.391273E+06 -5.740209E+04  3.111061E+04 -3.808676E+02  2.313992E+04
        22   5  3.038955E+04 -2.370973E+06 -7.402972E+04  9.041664E+03 -6.909320E+02  6.327107E+04
        22   6 -1.208751E+05 -2.391465E+06 -1.605809E+05  3.050835E+04 -6.169353E+02  1.034049E+05
        22   7  3.408570E+04 -2.249427E+06 -2.184468E+04  2.909334E+04 -3.809694E+02  2.314726E+04
        22   8  6.523239E+04 -2.231942E+06 -3.918677E+04  8.821032E+03 -6.909194E+02  6.327711E+04
        22   9 -8.675229E+04 -2.255237E+06 -1.264401E+05  3.208371E+04 -6.166075E+02  1.034095E+05
        22  10 -3.708734E+04 -2.533101E+06 -9.296203E+04  3.312746E+04 -5.596273E-09 -1.790294E-09
        22  11 -4.455846E+03 -2.509991E+06 -1.088817E+05  9.262311E+03 -5.413331E-09  5.129736E-09
        22  12 -1.550023E+05 -2.527688E+06 -1.947433E+05  2.893340E+04 -1.822149E-09  1.636290E-11
        22  13 -1.500132E+03 -2.391274E+06 -5.740310E+04  3.111061E+04  2.907882E-09 -2.192703E-09
        22  14  3.038847E+04 -2.370977E+06 -7.403727E+04  9.041699E+03 -1.548627E-09 -1.811090E-09
        22  15 -1.208780E+05 -2.391477E+06 -1.606011E+05  3.050840E+04 -1.013136E-09 -1.733733E-09
        22  16  3.408555E+04 -2.249428E+06 -2.184569E+04  2.909335E+04  1.472170E-09  6.347838E-10
        22  17  6.523131E+04 -2.231946E+06 -3.919432E+04  8.821067E+03  1.680264E-09  3.922141E-09
        22  18 -8.675517E+04 -2.255249E+06 -1.264603E+05  3.208377E+04 -2.985033E-09 -1.040899E-09
        22  19 -3.708719E+04 -2.533101E+06 -9.296102E+04  3.312745E+04  3.807659E+02 -2.313258E+04
        22  20 -4.454766E+03 -2.509987E+06 -1.088741E+05  9.262276E+03  6.909447E+02 -6.326503E+04
        22  21 -1.549994E+05 -2.527677E+06 -1.947231E+05  2.893335E+04  6.172632E+02 -1.034003E+05
        22  22 -1.499988E+03 -2.391273E+06 -5.740209E+04  3.111061E+04  3.808676E+02 -2.313992E+04
        22  23  3.038955E+04 -2.370973E+06 -7.402972E+04  9.041664E+03  6.909320E+02 -6.327107E+04
        22  24 -1.208751E+05 -2.391465E+06 -1.605809E+05  3.050835E+04  6.169353E+02 -1.034049E+05
        22  25  3.408570E+04 -2.249427E+06 -2.184468E+04  2.909334E+04  3.809694E+02 -2.314726E+04
        22  26  6.523239E+04 -2.231942E+06 -3.918677E+04  8.821032E+03  6.909194E+02 -6.327711E+04
        22  27 -8.675229E+04 -2.255237E+06 -1.264401E+05  3.208371E+04  6.166075E+02 -1.034095E+05
        23   1  1.436958E+05 -6.849119E+05  1.387363E+05 -2.689744E+02  1.983278E+04 -5.428310E+01
        23   2  1.433055E+05 -6.864923E+05  1.385238E+05  8.673451E+01  1.979793E+04 -5.172309E+02
        23   3  1.432045E+05 -6.876265E+05  1.387520E+05 -4.944212E+02  1.966170E+04 -9.803109E+02
        23   4 -5.000493E+01 -1.264983E+06  6.924279E+02 -2.082330E+02  1.983402E+04 -6.294978E+01
        23   5 -1.020808E+02 -1.265201E+06  8.081590E+02  2.602894E+02  1.979915E+04 -4.696346E+02
        23   6  1.253763E+02 -1.264983E+06  1.325675E+03 -2.081024E+02  1.966284E+04 -8.764517E+02
        23   7 -1.438202E+05 -1.844745E+06 -1.373750E+05 -1.475416E+02  1.983527E+04 -7.160836E+01
        23   8 -1.435339E+05 -1.843602E+06 -1.369310E+05  4.337129E+02  1.980036E+04 -4.220822E+02
        23   9 -1.429778E+05 -1.842032E+06 -1.361240E+05  7.800409E+01  1.966399E+04 -7.726884E+02
        23  10  1.436954E+05 -6.849120E+05  1.387356E+05 -2.689735E+02 -2.256298E-09  4.500572E-09
        23  11  1.433051E+05 -6.864924E+05  1.385231E+05  8.674275E+01 -1.462850E-09 -6.208514E-09
        23  12  1.432041E+05 -6.876266E+05  1.387513E+05 -4.944057E+02 -4.965860E-09 -1.374057E-08
        23  13 -5.042711E+01 -1.264983E+06  6.916891E+02 -2.082320E+02 -3.175238E-11 -4.583515E-11
        23  14 -1.025015E+02 -1.265201E+06  8.074224E+02  2.602969E+02 -4.091324E-09 -2.178438E-10
        23  15  1.249612E+02 -1.264983E+06  1.324948E+03 -2.080885E+02  1.589755E-09 -1.886544E-13
        23  16 -1.438206E+05 -1.844745E+06 -1.373758E+05 -1.475404E+02 -1.157644E-09 -4.600600E-09
        23  17 -1.435343E+05 -1.843602E+06 -1.369317E+05  4.337197E+02 -4.774996E-09  5.584518E-09
        23  18 -1.429783E+05 -1.842033E+06 -1.361248E+05  7.801634E+01 -3.245271E-10  1.310345E-08
        23  19  1.436958E+05 -6.849119E+05  1.387363E+05 -2.689744E+02 -1.983278E+04  5.428310E+01
        23  20  1.433055E+05 -6.864923E+05  1.385238E+05  8.673451E+01 -1.979793E+04  5.172309E+02
        23  21  1.432045E+05 -6.876265E+05  1.387520E+05 -4.944212E+02 -1.966170E+04  9.803109E+02
        23  22 -5.000493E+01 -1.264983E+06  6.924279E+02 -2.082330E+02 -1.983402E+04  6.294978E+01
        23  23 -1.020808E+02 -1.265201E+06  8.081590E+02  2.602894E+02 -1.979915E+04  4.696346E+02
        23  24  1.253763E+02 -1.264983E+06  1.325675E+03 -2.081024E+02 -1.966284E+04  8.764517E+02
        23  25 -1.438202E+05 -1.844745E+06 -1.373750E+05 -1.475416E+02 -1.983527E+04  7.160836E+01
        23  26 -1.435339E+05 -1.843602E+06 -1.369310E+05  4.337129E+02 -1.980036E+04  4.220822E+02
        23  27 -1.429778E+05 -1.842032E+06 -1.361240E+05  7.800409E+01 -1.966399E+04  7.726884E+02
        24   1  1.420944E+05 -6.908041E+05  1.382277E+05 -1.283675E+03  1.970315E+04 -1.018678E+03
        24   2  1.409163E+05 -6.954226E+05  1.382897E+05  3.961393E+02  1.950626E+04 -2.846351E+03
        24   3  1.421418E+05 -6.989053E+05  1.402067E+05 -7.162168E+02  1.846847E+04 -4.675522E+03
        24   4 -1.529995E+02 -1.264844E+06  1.645621E+03 -6.212926E+02  1.970448E+04 -1.140316E+03
        24   5 -3.209941E+02 -1.265371E+06  2.659919E+03  7.762640E+02  1.950704E+04 -2.503013E+03
        24   6  1.834732E+03 -1.264841E+06  5.206747E+03 -6.185075E+02  1.846835E+04 -3.867217E+03
        24   7 -1.424242E+05 -1.838582E+06 -1.349595E+05  4.054296E+01  1.970582E+04 -1.261842E+03
        24   8 -1.415818E+05 -1.835020E+06 -1.329927E+05  1.156128E+03  1.950782E+04 -2.159987E+03
        24   9 -1.384955E+05 -1.830483E+06 -1.298157E+05 -5.207749E+02  1.846823E+04 -3.059646E+03
        24  10  1.420940E+05 -6.908043E+05  1.382269E+05 -1.283659E+03 -3.299001E-09  3.622535E-09
        24  11  1.409159E+05 -6.954227E+05  1.382890E+05  3.961840E+02 -1.233264E-09  3.065480E-09
        24  12  1.421414E+05 -6.989054E+05  1.402060E+05 -7.161473E+02  4.103269E-10 -3.034801E-10
        24  13 -1.534166E+02 -1.264844E+06  1.644890E+03 -6.212745E+02 -2.041924E-11  1.873870E-11
        24  14 -3.214042E+02 -1.265371E+06  2.659193E+03  7.763033E+02  3.161229E-09 -5.682907E-10
        24  15  1.834362E+03 -1.264842E+06  5.206079E+03 -6.184499E+02 -2.208372E-09 -6.128373E-11
        24  16 -1.424246E+05 -1.838582E+06 -1.349602E+05  4.056301E+01  1.986147E-09 -4.366332E-09
        24  17 -1.415822E+05 -1.835020E+06 -1.329934E+05  1.156162E+03 -9.428714E-10 -5.049161E-09
        24  18 -1.384958E+05 -1.830483E+06 -1.298164E+05 -5.207294E+02 -3.774949E-09 -8.831370E-10
        24  19  1.420944E+05 -6.908041E+05  1.382277E+05 -1.283675E+03 -1.970315E+04  1.018678E+03
        24  20  1.409163E+05 -6.954226E+05  1.382897E+05  3.961393E+02 -1.950626E+04  2.846351E+03
        24  21  1.421418E+05 -6.989053E+05  1.402067E+05 -7.162168E+02 -1.846847E+04  4.675522E+03
        24  22 -1.529995E+02 -1.264844E+06  1.645621E+03 -6.212926E+02 -1.970448E+04  1.140316E+03
        24  23 -3.209941E+02 -1.265371E+06  2.659919E+03  7.762640E+02 -1.950704E+04  2.503013E+03
        24  24  1.834732E+03 -1.264841E+06  5.206747E+03 -6.185075E+02 -1.846835E+04  3.867217E+03
        24  25 -1.424242E+05 -1.838582E+06 -1.349595E+05  4.054296E+01 -1.970582E+04  1.261842E+03
        24  26 -1.415818E+05 -1.835020E+06 -1.329927E+05  1.156128E+03 -1.950782E+04  2.159987E+03
        24  27 -1.384955E+05 -1.830483E+06 -1.298157E+05 -5.207749E+02 -1.846823E+04  3.059646E+03
        25   1  1.375208E+05 -7.041367E+05  1.392074E+05 -4.452749E+03  1.996300E+04 -2.093503E+03
        25   2  1.343459E+05 -7.146392E+05  1.415889E+05  2.454422E+03  1.899890E+04 -1.419659E+04
        25   3  1.554286E+05 -7.172365E+05  1.579761E+05  4.486898E+03  6.077992E+03 -2.632801E+04
        25   4 -1.066468E+03 -1.263574E+06  6.369250E+03 -1.096185E+03  1.996895E+04 -4.844508E+03
        25   5 -2.509040E+03 -1.266948E+06  1.018230E+04  1.363417E+03  1.899227E+04 -1.034777E+04
        25   6  1.916985E+04 -1.263559E+06  2.341871E+04 -1.051955E+03  6.054232E+03 -1.587949E+04
        25   7 -1.396762E+05 -1.822723E+06 -1.264907E+05  2.257458E+03  1.997486E+04 -7.593042E+03
        25   8 -1.393860E+05 -1.818977E+06 -1.212456E+05  2.735300E+02  1.898563E+04 -6.502359E+03
        25   9 -1.171110E+05 -1.809610E+06 -1.111603E+05 -6.585763E+03  6.030275E+03 -5.440147E+03
        25  10  1.375203E+05 -7.041369E+05  1.392066E+05 -4.452716E+03 -3.475921E-10  3.002825E-09
        25  11  1.343455E+05 -7.146395E+05  1.415878E+05  2.454639E+03 -3.400944E-09  3.699601E-10
        25  12  1.554284E+05 -7.172372E+05  1.579747E+05  4.487027E+03 -7.221515E-09 -2.916457E-09
        25  13 -1.066902E+03 -1.263574E+06  6.368457E+03 -1.096108E+03  2.742839E-09  3.899657E-11
        25  14 -2.509456E+03 -1.266948E+06  1.018142E+04  1.363576E+03  3.829988E-10 -1.041152E-09
        25  15  1.916975E+04 -1.263560E+06  2.341816E+04 -1.051878E+03 -1.023764E-08 -1.279975E-10
        25  16 -1.396767E+05 -1.822723E+06 -1.264915E+05  2.257580E+03 -1.664806E-09 -4.521904E-09
        25  17 -1.393864E+05 -1.818977E+06 -1.212463E+05  2.736295E+02  3.916418E-09 -3.597804E-09
        25  18 -1.171110E+05 -1.809610E+06 -1.111605E+05 -6.585737E+03 -7.411174E-09  1.089846E-09
        25  19  1.375208E+05 -7.041367E+05  1.392074E+05 -4.452749E+03 -1.996300E+04  2.093503E+03
        25  20  1.343459E+05 -7.146392E+05  1.415889E+05  2.454422E+03 -1.899890E+04  1.419659E+04
        25  21  1.554286E+05 -7.172365E+05  1.579761E+05  4.486898E+03 -6.077992E+03  2.632801E+04
        25  22 -1.066468E+03 -1.263574E+06  6.369250E+03 -1.096185E+03 -1.996895E+04  4.844508E+03
        25  23 -2.509040E+03 -1.266948E+06  1.018230E+04  1.363417E+03 -1.899227E+04  1.034777E+04
        25  24  1.916985E+04 -1.263559E+06  2.341871E+04 -1.051955E+03 -6.054232E+03  1.587949E+04
        25  25 -1.396762E+05 -1.822723E+06 -1.264907E+05  2.257458E+03 -1.997486E+04  7.593042E+03
        25  26 -1.393860E+05 -1.818977E+06 -1.212456E+05  2.735300E+02 -1.898563E+04  6.502359E+03
        25  27 -1.171110E+05 -1.809610E+06 -1.111603E+05 -6.585763E+03 -6.030275E+03  5.440147E+03
        26   1  7.845980E+04  8.407992E+05  4.425692E+04 -5.330938E+00  2.739275E+04 -9.984306E+00
        26   2  7.848102E+04  8.407877E+05  4.437381E+04 -1.332659E+01  2.731878E+04 -3.562059E+02
        26   3  7.856487E+04  8.408434E+05  4.473359E+04 -2.850838E+01  2.710425E+04 -7.024543E+02
        26   4 -2.313630E+01  4.923540E+05  1.468779E+01 -1.596860E+00  2.739437E+04 -1.131764E+00
        26   5 -2.325757E+01  4.923497E+05  1.775447E+01  1.996556E+00  2.732038E+04 -9.588680E+00
        26   6 -1.931995E+01  4.923540E+05  2.940079E+01 -1.596062E+00  2.710578E+04 -1.806732E+01
        26   7 -7.851104E+04  1.440333E+05 -4.422799E+04  2.135407E+00  2.739599E+04  7.716060E+00
        26   8 -7.853250E+04  1.440362E+05 -4.433876E+04  1.731241E+01  2.732197E+04  3.368438E+02
        26   9 -7.860851E+04  1.439890E+05 -4.467534E+04  2.530347E+01  2.710730E+04  6.659546E+02
        26  10  7.845900E+04  8.407990E+05  4.425551E+04 -5.330717E+00 -1.345415E-08 -3.740911E-08
        26  11  7.848022E+04  8.407875E+05  4.437240E+04 -1.331876E+01 -4.769223E-09 -8.450087E-09
        26  12  7.856408E+04  8.408432E+05  4.473221E+04 -2.849305E+01 -6.704903E-10  1.919963E-08
        26  13 -2.394234E+01  4.923538E+05  1.327722E+01 -1.596835E+00  3.172753E-09  2.482912E-11
        26  14 -2.405926E+01  4.923495E+05  1.635151E+01  1.996767E+00  8.155399E-09 -1.197121E-10
        26  15 -2.010910E+01  4.923538E+05  2.801978E+01 -1.595668E+00  7.530626E-09  1.542343E-10
        26  16 -7.851184E+04  1.440331E+05 -4.422940E+04  2.135237E+00 -1.291963E-08  3.730296E-08
        26  17 -7.853331E+04  1.440360E+05 -4.434017E+04  1.730499E+01 -3.798972E-09  8.395117E-09
        26  18 -7.860930E+04  1.439888E+05 -4.467672E+04  2.528893E+01  2.399715E-09 -1.916675E-08
        26  19  7.845980E+04  8.407992E+05  4.425692E+04 -5.330938E+00 -2.739275E+04  9.984306E+00
        26  20  7.848102E+04  8.407877E+05  4.437381E+04 -1.332659E+01 -2.731878E+04  3.562059E+02
        26  21  7.856487E+04  8.408434E+05  4.473359E+04 -2.850838E+01 -2.710425E+04  7.024543E+02
        26  22 -2.313630E+01  4.923540E+05  1.468779E+01 -1.596860E+00 -2.739437E+04  1.131764E+00
        26  23 -2.325757E+01  4.923497E+05  1.775447E+01  1.996556E+00 -2.732038E+04  9.588680E+00
        26  24 -1.931995E+01  4.923540E+05  2.940079E+01 -1.596062E+00 -2.710578E+04  1.806732E+01
        26  25 -7.851104E+04  1.440333E+05 -4.422799E+04  2.135407E+00 -2.739599E+04 -7.716060E+00
        26  26 -7.853250E+04  1.440362E+05 -4.433876E+04  1.731241E+01 -2.732197E+04 -3.368438E+02
        26  27 -7.860851E+04  1.439890E+05 -4.467534E+04  2.530347E+01 -2.710730E+04 -6.659546E+02
        27   1  7.863357E+04  8.409366E+05  4.498614E+04 -5.085686E+01  2.696286E+04 -7.806992E+02
        27   2  7.885783E+04  8.408053E+05  4.619870E+04 -1.169105E+01  2.618558E+04 -3.035443E+03
        27   3  7.949324E+04  8.410765E+05  4.898248E+04 -4.225409E+01  2.448352E+04 -5.290470E+03
        27   4 -1.763150E+01  4.923559E+05  3.816198E+01 -1.549715E+01  2.696435E+04 -2.344944E+01
        27   5 -5.826609E+00  4.923474E+05  6.613918E+01  1.937493E+01  2.618658E+04 -5.615018E+01
        27   6  3.177590E+01  4.923560E+05  1.237373E+02 -1.549070E+01  2.448377E+04 -8.912813E+01
        27   7 -7.867387E+04  1.438996E+05 -4.491042E+04  1.984557E+01  2.696583E+04  7.333962E+02
        27   8 -7.887462E+04  1.440133E+05 -4.606730E+04  5.042782E+01  2.618758E+04  2.921551E+03
        27   9 -7.943509E+04  1.437587E+05 -4.873648E+04  1.126348E+01  2.448401E+04  5.109423E+03
        27  10  7.863279E+04  8.409364E+05  4.498477E+04 -5.083991E+01  3.636389E-09 -3.170505E-10
        27  11  7.885709E+04  8.408051E+05  4.619740E+04 -1.162706E+01  3.076799E-09 -3.018107E-09
        27  12  7.949259E+04  8.410763E+05  4.898130E+04 -4.214981E+01 -9.102797E-10 -4.717098E-09
        27  13 -1.841243E+01  4.923557E+05  3.679534E+01 -1.549665E+01  8.813152E-10  1.037569E-10
        27  14 -6.563142E+00  4.923472E+05  6.485024E+01  1.937611E+01 -6.854246E-10 -4.007230E-10
        27  15  3.113204E+01  4.923558E+05  1.226105E+02 -1.548894E+01  3.177153E-09  2.565440E-10
        27  16 -7.867465E+04  1.438994E+05 -4.491179E+04  1.982965E+01 -1.575579E-10  1.057638E-10
        27  17 -7.887536E+04  1.440131E+05 -4.606861E+04  5.036620E+01  2.435347E-09  2.783262E-09
        27  18 -7.943574E+04  1.437585E+05 -4.873765E+04  1.116273E+01  3.321699E-09  4.763055E-09
        27  19  7.863357E+04  8.409366E+05  4.498614E+04 -5.085686E+01 -2.696286E+04  7.806992E+02
        27  20  7.885783E+04  8.408053E+05  4.619870E+04 -1.169105E+01 -2.618558E+04  3.035443E+03
        27  21  7.949324E+04  8.410765E+05  4.898248E+04 -4.225409E+01 -2.448352E+04  5.290470E+03
        27  22 -1.763150E+01  4.923559E+05  3.816198E+01 -1.549715E+01 -2.696435E+04  2.344944E+01
        27  23 -5.826609E+00  4.923474E+05  6.613918E+01  1.937493E+01 -2.618658E+04  5.615018E+01
        27  24  3.177590E+01  4.923560E+05  1.237373E+02 -1.549070E+01 -2.448377E+04  8.912813E+01
        27  25 -7.867387E+04  1.438996E+05 -4.491042E+04  1.984557E+01 -2.696583E+04 -7.333962E+02
        27  26 -7.887462E+04  1.440133E+05 -4.606730E+04  5.042782E+01 -2.618758E+04 -2.921551E+03
        27  27 -7.943509E+04  1.437587E+05 -4.873648E+04  1.126348E+01 -2.448401E+04 -5.109423E+03
        28   1  7.998588E+04  8.416351E+05  5.084156E+04 -1.702670E+02  2.340796E+04 -5.855391E+03
        28   2  8.162200E+04  8.403209E+05  5.973847E+04  2.969516E+02  1.760606E+04 -2.242119E+04
        28   3  8.634502E+04  8.419386E+05  8.018367E+04  1.896406E+02  4.974087E+03 -3.898986E+04
        28   4  5.242047E+01  4.923713E+05  1.660276E+02 -1.277627E+02  2.340785E+04 -1.107887E+02
        28   5  1.909654E+02  4.923284E+05  3.058583E+02  1.597532E+02  1.760050E+04 -2.659802E+02
        28   6  5.703137E+02  4.923716E+05  6.075317E+02 -1.276407E+02  4.961351E+03 -4.240009E+02
        28   7 -7.988662E+04  1.432305E+05 -5.051138E+04 -8.527613E+01  2.340773E+04  5.630721E+03
        28   8 -8.124624E+04  1.444558E+05 -5.912893E+04  2.264218E+01  1.759494E+04  2.187722E+04
        28   9 -8.521204E+04  1.429209E+05 -7.897096E+04 -4.447334E+02  4.948572E+03  3.812037E+04
        28  10  7.998528E+04  8.416349E+05  5.084046E+04 -1.701566E+02 -9.843124E-11 -2.478399E-09
        28  11  8.162153E+04  8.403203E+05  5.973695E+04  2.972694E+02  1.288056E-09 -1.408744E-09
        28  12  8.634459E+04  8.419370E+05  8.018077E+04  1.897968E+02  3.311109E-09  1.252932E-09
        28  13  5.183195E+01  4.923712E+05  1.649977E+02 -1.277607E+02  2.017935E-09  2.459752E-10
        28  14  1.906327E+02  4.923283E+05  3.052759E+02  1.597569E+02 -2.460839E-09 -6.611066E-10
        28  15  5.702872E+02  4.923716E+05  6.074851E+02 -1.276390E+02 -1.973432E-10  4.195942E-10
        28  16 -7.988722E+04  1.432304E+05 -5.051247E+04 -8.538228E+01 -9.721624E-11  2.136772E-09
        28  17 -8.124670E+04  1.444552E+05 -5.913041E+04  2.233216E+01 -3.676471E-09  1.182241E-09
        28  18 -8.521246E+04  1.429193E+05 -7.897374E+04 -4.448853E+02 -8.143168E-10 -1.137638E-09
        28  19  7.998588E+04  8.416351E+05  5.084156E+04 -1.702670E+02 -2.340796E+04  5.855391E+03
        28  20  8.162200E+04  8.403209E+05  5.973847E+04  2.969516E+02 -1.760606E+04  2.242119E+04
        28  21  8.634502E+04  8.419386E+05  8.018367E+04  1.896406E+02 -4.974087E+03  3.898986E+04
        28  22  5.242047E+01  4.923713E+05  1.660276E+02 -1.277627E+02 -2.340785E+04  1.107887E+02
        28  23  1.909654E+02  4.923284E+05  3.058583E+02  1.597532E+02 -1.760050E+04  2.659802E+02
        28  24  5.703137E+02  4.923716E+05  6.075317E+02 -1.276407E+02 -4.961351E+03  4.240009E+02
        28  25 -7.988662E+04  1.432305E+05 -5.051138E+04 -8.527613E+01 -2.340773E+04 -5.630721E+03
        28  26 -8.124624E+04  1.444558E+05 -5.912893E+04  2.264218E+01 -1.759494E+04 -2.187722E+04
        28  27 -8.521204E+04  1.429209E+05 -7.897096E+04 -4.447334E+02 -4.948572E+03 -3.812037E+04
        29   1 -3.882128E+06 -3.858723E+05 -4.873121E+05  9.222285E+03 -2.903743E+05 -1.091989E+03
        29   2 -3.836304E+06  1.374063E+04 -2.473571E+05 -1.520800E+04 -1.908447E+05  2.706276E+02
        29   3 -3.888522E+06 -5.394255E+04 -1.828631E+05  1.728193E+04 -9.131899E+04  4.381182E+02
        29   4 -3.630486E+06 -3.226253E+05 -4.241169E+05  1.552357E+04 -2.904198E+05 -1.094767E+03
        29   5 -3.581138E+06  7.779704E+04 -1.833034E+05 -1.363054E+04 -1.908834E+05  2.701504E+02
        29   6 -3.629776E+06  1.102970E+04 -1.179027E+05  1.413372E+04 -9.135037E+04  4.385832E+02
        29   7 -3.378786E+06 -2.593830E+05 -3.609265E+05  2.182736E+04 -2.904653E+05 -1.097545E+03
        29   8 -3.325913E+06  1.418485E+05 -1.192547E+05 -1.205245E+04 -1.909221E+05  2.696732E+02
        29   9 -3.370969E+06  7.599688E+04 -5.294744E+04  1.098423E+04 -9.138175E+04  4.390482E+02
        29  10 -3.882219E+06 -3.858951E+05 -4.874715E+05  9.222030E+03  8.388177E-10 -2.384780E-09
        29  11 -3.836344E+06  1.373078E+04 -2.474260E+05 -1.520796E+04  3.917922E-10  5.214533E-09
        29  12 -3.888531E+06 -5.394481E+04 -1.828789E+05  1.728196E+04 -3.329650E-09  5.855793E-10
        29  13 -3.630577E+06 -3.226481E+05 -4.242763E+05  1.552331E+04 -2.042532E-09  2.182675E-09
        29  14 -3.581178E+06  7.778719E+04 -1.833723E+05 -1.363050E+04 -6.433305E-09  3.637371E-09
        29  15 -3.629785E+06  1.102744E+04 -1.179185E+05  1.413375E+04 -9.457759E-10 -2.711550E-09
        29  16 -3.378877E+06 -2.594058E+05 -3.610859E+05  2.182710E+04 -3.355342E-09 -3.102382E-09
        29  17 -3.325952E+06  1.418386E+05 -1.193236E+05 -1.205240E+04  1.139084E-09  3.432236E-09
        29  18 -3.370978E+06  7.599463E+04 -5.296322E+04  1.098426E+04  3.577806E-09 -1.209283E-10
        29  19 -3.882128E+06 -3.858723E+05 -4.873121E+05  9.222285E+03  2.903743E+05  1.091989E+03
        29  20 -3.836304E+06  1.374063E+04 -2.473571E+05 -1.520800E+04  1.908447E+05 -2.706276E+02
        29  21 -3.888522E+06 -5.394255E+04 -1.828631E+05  1.728193E+04  9.131899E+04 -4.381182E+02
        29  22 -3.630486E+06 -3.226253E+05 -4.241169E+05  1.552357E+04  2.904198E+05  1.094767E+03
        29  23 -3.581138E+06  7.779704E+04 -1.833034E+05 -1.363054E+04  1.908834E+05 -2.701504E+02
        29  24 -3.629776E+06  1.102970E+04 -1.179027E+05  1.413372E+04  9.135037E+04 -4.385832E+02
        29  25 -3.378786E+06 -2.593830E+05 -3.609265E+05  2.182736E+04  2.904653E+05  1.097545E+03
        29  26 -3.325913E+06  1.418485E+05 -1.192547E+05 -1.205245E+04  1.909221E+05 -2.696732E+02
        29  27 -3.370969E+06  7.599688E+04 -5.294744E+04  1.098423E+04  9.138175E+04 -4.390482E+02
        30   1 -3.501512E+06 -2.404247E+04 -7.132408E+04 -4.499894E+03 -7.190411E+04  1.550812E+02
        30   2 -3.492025E+06  4.049821E+04 -1.916915E+04  7.942351E+03 -4.718805E+04 -1.689329E+02
        30   3 -3.498425E+06  3.016468E+04 -6.654538E+02 -2.834504E+03 -2.247128E+04 -1.153504E+02
        30   4 -3.611736E+06 -5.171409E+04 -9.899075E+04 -3.436737E+03 -7.190593E+04  1.549872E+02
        30   5 -3.603720E+06  1.246439E+04 -4.720022E+04  8.240594E+03 -4.718469E+04 -1.689546E+02
        30   6 -3.611597E+06  1.760021E+03 -2.906890E+04 -3.301441E+03 -2.246280E+04 -1.153336E+02
        30   7 -3.721949E+06 -7.938663E+04 -1.266583E+05 -2.373762E+03 -7.190774E+04  1.548932E+02
        30   8 -3.715404E+06 -1.557039E+04 -7.523224E+04  8.538787E+03 -4.718133E+04 -1.689763E+02
        30   9 -3.724757E+06 -2.664561E+04 -5.747332E+04 -3.768294E+03 -2.245433E+04 -1.153168E+02
        30  10 -3.501518E+06 -2.404387E+04 -7.133385E+04 -4.499885E+03 -6.439476E-09 -8.294995E-09
        30  11 -3.492027E+06  4.049761E+04 -1.917335E+04  7.942345E+03  1.399945E-09  7.612776E-09
        30  12 -3.498425E+06  3.016454E+04 -6.664081E+02 -2.834506E+03 -9.107388E-10 -1.124616E-08
        30  13 -3.611742E+06 -5.171549E+04 -9.900052E+04 -3.436728E+03  2.089202E-09 -3.281777E-09
        30  14 -3.603723E+06  1.246379E+04 -4.720443E+04  8.240588E+03 -3.103987E-09  3.512237E-11
        30  15 -3.611598E+06  1.759884E+03 -2.906985E+04 -3.301443E+03 -3.299330E-09  2.190830E-09
        30  16 -3.721954E+06 -7.938803E+04 -1.266681E+05 -2.373753E+03  5.764899E-09 -4.765873E-09
        30  17 -3.715406E+06 -1.557099E+04 -7.523645E+04  8.538781E+03  4.321985E-09 -1.165543E-09
        30  18 -3.724758E+06 -2.664575E+04 -5.747427E+04 -3.768296E+03 -3.767650E-10  1.507723E-08
        30  19 -3.501512E+06 -2.404247E+04 -7.132408E+04 -4.499894E+03  7.190411E+04 -1.550812E+02
        30  20 -3.492025E+06  4.049821E+04 -1.916915E+04  7.942351E+03  4.718805E+04  1.689329E+02
        30  21 -3.498425E+06  3.016468E+04 -6.654538E+02 -2.834504E+03  2.247128E+04  1.153504E+02
        30  22 -3.611736E+06 -5.171409E+04 -9.899075E+04 -3.436737E+03  7.190593E+04 -1.549872E+02
        30  23 -3.603720E+06  1.246439E+04 -4.720022E+04  8.240594E+03  4.718469E+04  1.689546E+02
        30  24 -3.611597E+06  1.760021E+03 -2.906890E+04 -3.301441E+03  2.246280E+04  1.153336E+02
        30  25 -3.721949E+06 -7.938663E+04 -1.266583E+05 -2.373762E+03  7.190774E+04 -1.548932E+02
        30  26 -3.715404E+06 -1.557039E+04 -7.523224E+04  8.538787E+03  4.718133E+04  1.689763E+02
        30  27 -3.724757E+06 -2.664561E+04 -5.747332E+04 -3.768294E+03  2.245433E+04  1.153168E+02
        31   1 -3.659306E+06 -2.099740E+04 -3.634890E+04  3.764283E+03 -1.773607E+04  1.845814E+01
        31   2 -3.658624E+06 -1.085539E+04 -2.500735E+04 -8.002177E+02 -1.151608E+04  1.042141E+02
        31   3 -3.660473E+06 -1.276919E+04 -2.048531E+04  4.013811E+03 -5.296172E+03  5.350037E+01
        31   4 -3.608659E+06 -8.284220E+03 -2.363609E+04  3.908810E+03 -1.773346E+04  1.845548E+01
        31   5 -3.607380E+06  2.007104E+03 -1.214605E+04 -7.821198E+02 -1.151628E+04  1.042131E+02
        31   6 -3.608631E+06  2.436915E+02 -7.473154E+03  3.905435E+03 -5.299188E+03  5.350335E+01
        31   7 -3.558010E+06  4.428761E+03 -1.092348E+04  4.053348E+03 -1.773085E+04  1.845282E+01
        31   8 -3.556134E+06  1.486939E+04  7.150548E+02 -7.640202E+02 -1.151649E+04  1.042121E+02
        31   9 -3.556788E+06  1.325637E+04  5.538796E+03  3.797050E+03 -5.302205E+03  5.350634E+01
        31  10 -3.659307E+06 -2.099748E+04 -3.634949E+04  3.764283E+03  2.386103E-09  9.506372E-09
        31  11 -3.658624E+06 -1.085542E+04 -2.500760E+04 -8.002168E+02  5.872840E-09  1.404837E-08
        31  12 -3.660473E+06 -1.276920E+04 -2.048536E+04  4.013811E+03  5.421183E-10 -5.280061E-08
        31  13 -3.608660E+06 -8.284305E+03 -2.363668E+04  3.908810E+03  2.264940E-09  2.267068E-09
        31  14 -3.607381E+06  2.007068E+03 -1.214630E+04 -7.821188E+02 -2.165210E-09  1.476281E-09
        31  15 -3.608631E+06  2.436839E+02 -7.473207E+03  3.905435E+03  4.021197E-09  3.527238E-09
        31  16 -3.558010E+06  4.428676E+03 -1.092407E+04  4.053348E+03 -4.384551E-09  6.613557E-10
        31  17 -3.556134E+06  1.486936E+04  7.148041E+02 -7.640192E+02 -1.658095E-09 -1.067539E-08
        31  18 -3.556788E+06  1.325636E+04  5.538743E+03  3.797050E+03 -2.551953E-09  5.473344E-08
        31  19 -3.659306E+06 -2.099740E+04 -3.634890E+04  3.764283E+03  1.773607E+04 -1.845814E+01
        31  20 -3.658624E+06 -1.085539E+04 -2.500735E+04 -8.002177E+02  1.151608E+04 -1.042141E+02
        31  21 -3.660473E+06 -1.276919E+04 -2.048531E+04  4.013811E+03  5.296172E+03 -5.350037E+01
        31  22 -3.608659E+06 -8.284220E+03 -2.363609E+04  3.908810E+03  1.773346E+04 -1.845548E+01
        31  23 -3.607380E+06  2.007104E+03 -1.214605E+04 -7.821198E+02  1.151628E+04 -1.042131E+02
        31  24 -3.608631E+06  2.436916E+02 -7.473154E+03  3.905435E+03  5.299188E+03 -5.350335E+01
        31  25 -3.558010E+06  4.428761E+03 -1.092348E+04  4.053348E+03  1.773085E+04 -1.845282E+01
        31  26 -3.556134E+06  1.486939E+04  7.150548E+02 -7.640202E+02  1.151649E+04 -1.042121E+02
        31  27 -3.556788E+06  1.325637E+04  5.538796E+03  3.797050E+03  5.302205E+03 -5.350634E+01
        32   1 -3.579670E+06  5.834733E+03  1.058848E+03  1.177525E+03 -4.080233E+03 -1.246891E+01
        32   2 -3.579296E+06  7.561055E+03  3.448078E+03  2.559038E+03 -2.195609E+03 -5.600143E+01
        32   3 -3.579319E+06  7.080795E+03  4.134078E+03  1.229877E+03 -3.109063E+02 -2.404758E+01
        32   4 -3.608162E+06 -1.316805E+03 -6.092441E+03  1.218526E+03 -4.082002E+03 -1.246740E+01
        32   5 -3.607961E+06  3.661837E+02 -3.746078E+03  2.574474E+03 -2.195650E+03 -5.600158E+01
        32   6 -3.608158E+06 -1.577778E+02 -3.104207E+03  1.219739E+03 -3.092209E+02 -2.404802E+01
        32   7 -3.636654E+06 -8.468405E+03 -1.324379E+04  1.259525E+03 -4.083772E+03 -1.246590E+01
        32   8 -3.636626E+06 -6.828750E+03 -1.094030E+04  2.589909E+03 -2.195692E+03 -5.600174E+01
        32   9 -3.636996E+06 -7.396414E+03 -1.034256E+04  1.209602E+03 -3.075355E+02 -2.404846E+01
        32  10 -3.579670E+06  5.834728E+03  1.058816E+03  1.177524E+03 -2.813881E-06 -2.126268E-07
        32  11 -3.579296E+06  7.561054E+03  3.448069E+03  2.559032E+03 -1.253786E-05 -5.131037E-07
        32  12 -3.579319E+06  7.080796E+03  4.134078E+03  1.229866E+03 -2.229008E-05 -5.162786E-07
        32  13 -3.608162E+06 -1.316810E+03 -6.092472E+03  1.218526E+03 -7.082973E-06  7.241026E-08
        32  14 -3.607961E+06  3.661825E+02 -3.746088E+03  2.574474E+03 -3.142563E-05  3.018913E-07
        32  15 -3.608158E+06 -1.577778E+02 -3.104208E+03  1.219739E+03 -5.577381E-05  5.150555E-07
        32  16 -3.636654E+06 -8.468410E+03 -1.324382E+04  1.259526E+03 -2.851638E-06  1.377321E-07
        32  17 -3.636626E+06 -6.828752E+03 -1.094031E+04  2.589915E+03 -1.260286E-05  8.391349E-08
        32  18 -3.636996E+06 -7.396414E+03 -1.034256E+04  1.209613E+03 -2.232437E-05 -2.882456E-07
        32  19 -3.579670E+06  5.834733E+03  1.058848E+03  1.177522E+03  4.080233E+03  1.246891E+01
        32  20 -3.579296E+06  7.561056E+03  3.448078E+03  2.559026E+03  2.195609E+03  5.600143E+01
        32  21 -3.579319E+06  7.080796E+03  4.134078E+03  1.229855E+03  3.109063E+02  2.404757E+01
        32  22 -3.608162E+06 -1.316805E+03 -6.092441E+03  1.218526E+03  4.082002E+03  1.246740E+01
        32  23 -3.607961E+06  3.661838E+02 -3.746078E+03  2.574474E+03  2.195650E+03  5.600158E+01
        32  24 -3.608158E+06 -1.577778E+02 -3.104208E+03  1.219739E+03  3.092208E+02  2.404802E+01
        32  25 -3.636654E+06 -8.468405E+03 -1.324379E+04  1.259528E+03  4.083772E+03  1.246590E+01
        32  26 -3.636626E+06 -6.828751E+03 -1.094030E+04  2.589921E+03  2.195692E+03  5.600174E+01
        32  27 -3.636996E+06 -7.396415E+03 -1.034256E+04  1.209623E+03  3.075354E+02  2.404846E+01
        33   1 -3.635531E+06 -7.040148E+03 -9.966531E+03  1.378414E+03  2.452068E+02  2.203804E+01
        33   2 -3.635200E+06 -6.481518E+03 -1.052557E+04  2.377579E+03  2.104012E+03  5.325701E+01
        33   3 -3.635287E+06 -8.073726E+03 -1.276469E+04  1.425855E+03  3.962774E+03  1.280321E+01
        33   4 -3.608162E+06 -1.703725E+02 -3.097017E+03  1.388553E+03  2.468262E+02  2.203763E+01
        33   5 -3.607956E+06  3.568924E+02 -3.687844E+03  2.363440E+03  2.103991E+03  5.325686E+01
        33   6 -3.608167E+06 -1.266334E+03 -5.957548E+03  1.387442E+03  3.961111E+03  1.280455E+01
        33   7 -3.580793E+06  6.699346E+03  3.772439E+03  1.398693E+03  2.484458E+02  2.203722E+01
        33   8 -3.580711E+06  7.195246E+03  3.149831E+03  2.349300E+03  2.103970E+03  5.325671E+01
        33   9 -3.581046E+06  5.541001E+03  8.495415E+02  1.349028E+03  3.959449E+03  1.280589E+01
        33  10 -3.635531E+06 -7.040148E+03 -9.966531E+03  1.378403E+03 -2.232630E-05 -2.864054E-07
        33  11 -3.635200E+06 -6.481518E+03 -1.052558E+04  2.377573E+03 -1.259600E-05  8.122405E-08
        33  12 -3.635287E+06 -8.073730E+03 -1.276472E+04  1.425854E+03 -2.853044E-06  1.289947E-07
        33  13 -3.608162E+06 -1.703725E+02 -3.097017E+03  1.388553E+03 -5.576811E-05  5.161598E-07
        33  14 -3.607956E+06  3.568911E+02 -3.687852E+03  2.363439E+03 -3.142884E-05  2.988559E-07
        33  15 -3.608167E+06 -1.266339E+03 -5.957578E+03  1.387442E+03 -7.082417E-06  6.925713E-08
        33  16 -3.580793E+06  6.699345E+03  3.772439E+03  1.398704E+03 -2.229041E-05 -5.027613E-07
        33  17 -3.580711E+06  7.195244E+03  3.149822E+03  2.349306E+03 -1.254318E-05 -5.138328E-07
        33  18 -3.581046E+06  5.540997E+03  8.495118E+02  1.349029E+03 -2.814919E-06 -2.237728E-07
        33  19 -3.635531E+06 -7.040147E+03 -9.966531E+03  1.378392E+03 -2.452069E+02 -2.203804E+01
        33  20 -3.635200E+06 -6.481517E+03 -1.052557E+04  2.377567E+03 -2.104012E+03 -5.325701E+01
        33  21 -3.635287E+06 -8.073726E+03 -1.276469E+04  1.425853E+03 -3.962774E+03 -1.280321E+01
        33  22 -3.608162E+06 -1.703725E+02 -3.097017E+03  1.388553E+03 -2.468264E+02 -2.203763E+01
        33  23 -3.607956E+06  3.568923E+02 -3.687844E+03  2.363440E+03 -2.103991E+03 -5.325686E+01
        33  24 -3.608167E+06 -1.266334E+03 -5.957548E+03  1.387442E+03 -3.961111E+03 -1.280455E+01
        33  25 -3.580793E+06  6.699345E+03  3.772439E+03  1.398715E+03 -2.484458E+02 -2.203722E+01
        33  26 -3.580711E+06  7.195245E+03  3.149831E+03  2.349312E+03 -2.103970E+03 -5.325671E+01
        33  27 -3.581046E+06  5.541001E+03  8.495414E+02  1.349030E+03 -3.959449E+03 -1.280590E+01
        34   1 -3.562212E+06  1.188484E+04  4.346511E+03  3.510471E+03  5.155940E+03 -4.770583E+01
        34   2 -3.561405E+06  1.347432E+04 -3.108668E+02 -3.984234E+02  1.121583E+04 -9.407318E+01
        34   3 -3.563268E+06  3.384116E+03 -1.163988E+04  3.748550E+03  1.727562E+04 -1.824173E+01
        34   4 -3.608663E+06  2.256515E+02 -7.312021E+03  3.611759E+03  5.153229E+03 -4.770316E+01
        34   5 -3.607341E+06  1.944853E+03 -1.183927E+04 -4.149861E+02  1.121564E+04 -9.407402E+01
        34   6 -3.608689E+06 -8.016584E+03 -2.304026E+04  3.614176E+03  1.727796E+04 -1.824450E+01
        34   7 -3.655112E+06 -1.143370E+04 -1.897072E+04  3.713040E+03  5.150519E+03 -4.770050E+01
        34   8 -3.653275E+06 -9.584775E+03 -2.336783E+04 -4.315473E+02  1.121546E+04 -9.407486E+01
        34   9 -3.654109E+06 -1.941744E+04 -3.444080E+04  3.479811E+03  1.728031E+04 -1.824728E+01
        34  10 -3.562212E+06  1.188483E+04  4.346461E+03  3.510471E+03 -5.488718E-09  5.557076E-08
        34  11 -3.561405E+06  1.347429E+04 -3.111046E+02 -3.984226E+02 -1.125490E-09 -2.325586E-09
        34  12 -3.563268E+06  3.384036E+03 -1.164044E+04  3.748550E+03  3.151121E-09 -1.281558E-09
        34  13 -3.608663E+06  2.256443E+02 -7.312071E+03  3.611759E+03 -2.409016E-09  2.279654E-10
        34  14 -3.607341E+06  1.944819E+03 -1.183951E+04 -4.149852E+02  1.808740E-09  5.478360E-09
        34  15 -3.608689E+06 -8.016665E+03 -2.304083E+04  3.614176E+03 -2.457766E-09  2.432408E-09
        34  16 -3.655112E+06 -1.143370E+04 -1.897077E+04  3.713041E+03  3.325269E-09 -5.133950E-08
        34  17 -3.653275E+06 -9.584809E+03 -2.336807E+04 -4.315465E+02  2.812517E-10  1.779827E-08
        34  18 -3.654109E+06 -1.941752E+04 -3.444137E+04  3.479811E+03 -1.858233E-09  4.012903E-09
        34  19 -3.562212E+06  1.188484E+04  4.346511E+03  3.510471E+03 -5.155940E+03  4.770583E+01
        34  20 -3.561405E+06  1.347432E+04 -3.108668E+02 -3.984234E+02 -1.121583E+04  9.407318E+01
        34  21 -3.563268E+06  3.384116E+03 -1.163988E+04  3.748550E+03 -1.727562E+04  1.824173E+01
        34  22 -3.608663E+06  2.256514E+02 -7.312021E+03  3.611759E+03 -5.153229E+03  4.770316E+01
        34  23 -3.607341E+06  1.944853E+03 -1.183927E+04 -4.149861E+02 -1.121564E+04  9.407402E+01
        34  24 -3.608689E+06 -8.016584E+03 -2.304026E+04  3.614176E+03 -1.727796E+04  1.824450E+01
        34  25 -3.655112E+06 -1.143370E+04 -1.897072E+04  3.713040E+03 -5.150519E+03  4.770050E+01
        34  26 -3.653275E+06 -9.584775E+03 -2.336783E+04 -4.315473E+02 -1.121546E+04  9.407486E+01
        34  27 -3.654109E+06 -1.941744E+04 -3.444080E+04  3.479811E+03 -1.728031E+04  1.824728E+01
        35   1 -3.711624E+06 -2.339537E+04 -5.346486E+04 -3.107801E+03  2.189561E+04  1.002664E+02
        35   2 -3.702069E+06 -1.260749E+04 -7.069038E+04  7.715255E+03  4.598695E+04  1.478946E+02
        35   3 -3.709178E+06 -7.471830E+04 -1.209399E+05 -1.789295E+03  7.007812E+04 -1.359743E+02
        35   4 -3.611769E+06  1.670102E+03 -2.840041E+04 -2.662997E+03  2.190305E+04  1.002817E+02
        35   5 -3.603504E+06  1.213393E+04 -4.595140E+04  7.441237E+03  4.598982E+04  1.478751E+02
        35   6 -3.611900E+06 -5.029359E+04 -9.651949E+04 -2.781945E+03  7.007639E+04 -1.360634E+02
        35   7 -3.511904E+06  2.673481E+04 -3.336714E+03 -2.218121E+03  2.191049E+04  1.002971E+02
        35   8 -3.504930E+06  3.687460E+04 -2.121316E+04  7.167177E+03  4.599270E+04  1.478557E+02
        35   9 -3.514612E+06 -2.586960E+04 -7.209975E+04 -3.774746E+03  7.007465E+04 -1.361525E+02
        35  10 -3.711624E+06 -2.339550E+04 -5.346577E+04 -3.107803E+03 -3.395020E-09  1.118291E-08
        35  11 -3.702071E+06 -1.260806E+04 -7.069438E+04  7.715250E+03  3.438725E-09  5.263379E-09
        35  12 -3.709184E+06 -7.471963E+04 -1.209492E+05 -1.789287E+03  9.496323E-10  3.762266E-09
        35  13 -3.611769E+06  1.669972E+03 -2.840131E+04 -2.662999E+03  2.244415E-10  2.235895E-09
        35  14 -3.603506E+06  1.213336E+04 -4.595540E+04  7.441231E+03 -2.381917E-10 -2.010640E-10
        35  15 -3.611905E+06 -5.029492E+04 -9.652877E+04 -2.781937E+03  2.178846E-09  2.977604E-10
        35  16 -3.511905E+06  2.673468E+04 -3.337622E+03 -2.218123E+03  3.361437E-09 -1.075831E-08
        35  17 -3.504933E+06  3.687403E+04 -2.121716E+04  7.167172E+03 -8.414944E-10 -2.554635E-09
        35  18 -3.514618E+06 -2.587093E+04 -7.210903E+04 -3.774738E+03  3.406209E-10 -5.265907E-10
        35  19 -3.711624E+06 -2.339537E+04 -5.346486E+04 -3.107801E+03 -2.189561E+04 -1.002664E+02
        35  20 -3.702069E+06 -1.260749E+04 -7.069038E+04  7.715255E+03 -4.598695E+04 -1.478946E+02
        35  21 -3.709178E+06 -7.471830E+04 -1.209399E+05 -1.789295E+03 -7.007812E+04  1.359743E+02
        35  22 -3.611769E+06  1.670102E+03 -2.840041E+04 -2.662997E+03 -2.190305E+04 -1.002817E+02
        35  23 -3.603504E+06  1.213393E+04 -4.595140E+04  7.441237E+03 -4.598982E+04 -1.478751E+02
        35  24 -3.611900E+06 -5.029359E+04 -9.651949E+04 -2.781945E+03 -7.007639E+04  1.360634E+02
        35  25 -3.511904E+06  2.673481E+04 -3.336714E+03 -2.218121E+03 -2.191049E+04 -1.002971E+02
        35  26 -3.504930E+06  3.687460E+04 -2.121316E+04  7.167177E+03 -4.599270E+04 -1.478557E+02
        35  27 -3.514612E+06 -2.586960E+04 -7.209975E+04 -3.774746E+03 -7.007465E+04  1.361525E+02
        36   1 -3.403029E+06  6.771244E+04 -5.812885E+04  9.638832E+03  8.913931E+04 -3.877465E+02
        36   2 -3.355392E+06  1.323941E+05 -1.219430E+05 -1.025591E+04  1.861080E+05 -2.537991E+02
        36   3 -3.409926E+06 -2.594415E+05 -3.582543E+05  1.977085E+04  2.830806E+05  9.193802E+02
        36   4 -3.630724E+06  1.055409E+04 -1.152767E+05  1.263322E+04  8.911211E+04 -3.873145E+02
        36   5 -3.579949E+06  7.603847E+04 -1.782964E+05 -1.174110E+04  1.860748E+05 -2.542400E+02
        36   6 -3.631392E+06 -3.150850E+05 -4.138547E+05  1.380754E+04  2.830419E+05  9.167868E+02
        36   7 -3.858372E+06 -4.660818E+04 -1.724285E+05  1.562652E+04  8.908491E+04 -3.868826E+02
        36   8 -3.804460E+06  1.967902E+04 -2.346536E+05 -1.322577E+04  1.860416E+05 -2.546808E+02
        36   9 -3.852814E+06 -3.707321E+05 -4.694587E+05  7.846326E+03  2.830032E+05  9.141933E+02
        36  10 -3.403037E+06  6.771030E+04 -5.814386E+04  9.638860E+03  8.417963E-10 -3.024091E-09
        36  11 -3.355429E+06  1.323847E+05 -1.220085E+05 -1.025587E+04 -2.647306E-09 -2.420590E-09
        36  12 -3.410012E+06 -2.594631E+05 -3.584057E+05  1.977064E+04 -3.195756E-10 -4.559395E-11
        36  13 -3.630733E+06  1.055194E+04 -1.152917E+05  1.263325E+04 -2.047953E-09  1.173045E-09
        36  14 -3.579986E+06  7.602910E+04 -1.783618E+05 -1.174107E+04  6.673155E-09  1.767117E-09
        36  15 -3.631479E+06 -3.151066E+05 -4.140061E+05  1.380733E+04 -4.550492E-09  1.638922E-09
        36  16 -3.858380E+06 -4.661033E+04 -1.724435E+05  1.562655E+04 -2.142441E-09 -1.744136E-09
        36  17 -3.804497E+06  1.966966E+04 -2.347190E+05 -1.322573E+04  6.881920E-09  4.774096E-09
        36  18 -3.852901E+06 -3.707537E+05 -4.696102E+05  7.846118E+03  2.268931E-09  4.446257E-10
        36  19 -3.403029E+06  6.771244E+04 -5.812885E+04  9.638832E+03 -8.913931E+04  3.877465E+02
        36  20 -3.355392E+06  1.323941E+05 -1.219430E+05 -1.025591E+04 -1.861080E+05  2.537991E+02
        36  21 -3.409926E+06 -2.594415E+05 -3.582543E+05  1.977085E+04 -2.830806E+05 -9.193802E+02
        36  22 -3.630724E+06  1.055409E+04 -1.152767E+05  1.263322E+04 -8.911211E+04  3.873145E+02
        36  23 -3.579949E+06  7.603847E+04 -1.782964E+05 -1.174110E+04 -1.860748E+05  2.542400E+02
        36  24 -3.631392E+06 -3.150850E+05 -4.138547E+05  1.380754E+04 -2.830419E+05 -9.167868E+02
        36  25 -3.858372E+06 -4.660818E+04 -1.724285E+05  1.562652E+04 -8.908491E+04  3.868826E+02
        36  26 -3.804460E+06  1.967902E+04 -2.346536E+05 -1.322577E+04 -1.860416E+05  2.546808E+02
        36  27 -3.852814E+06 -3.707321E+05 -4.694587E+05  7.846326E+03 -2.830032E+05 -9.141933E+02
        37   1  2.472821E+05  2.213227E+04  3.240068E+05 -2.964803E+03 -1.171645E+03  2.209137E+05
        37   2 -5.982930E+04 -2.768871E+04  1.381065E+05 -1.211823E+03 -7.701349E+02  1.453465E+05
        37   3 -7.642243E+03  2.217306E+04  9.125613E+04  1.916205E+03 -3.693672E+02  6.977627E+04
        37   4  2.472381E+05  2.217629E+04  3.240068E+05  1.192171E+03 -1.170166E+03  2.209137E+05
        37   5 -5.984033E+04 -2.767767E+04  1.381065E+05 -1.703683E+02 -7.698910E+02  1.453465E+05
        37   6 -7.620279E+03  2.215108E+04  9.125613E+04 -1.577014E+02 -3.696003E+02  6.977627E+04
        37   7  2.471941E+05  2.222035E+04  3.240068E+05  5.349145E+03 -1.168686E+03  2.209138E+05
        37   8 -5.985136E+04 -2.766664E+04  1.381065E+05  8.710869E+02 -7.696472E+02  1.453465E+05
        37   9 -7.598300E+03  2.212912E+04  9.125613E+04 -2.231608E+03 -3.698334E+02  6.977627E+04
        37  10  2.472690E+05  2.207988E+04  3.239151E+05 -2.964595E+03 -2.436979E-09 -2.364987E-11
        37  11 -5.983497E+04 -2.771139E+04  1.380668E+05 -1.211733E+03 -1.818422E-09  4.040146E-11
        37  12 -7.643550E+03  2.216783E+04  9.124698E+04  1.916226E+03  4.714877E-09 -1.480848E-10
        37  13  2.472250E+05  2.212390E+04  3.239151E+05  1.192379E+03 -7.740437E-10  6.314923E-11
        37  14 -5.984600E+04 -2.770036E+04  1.380668E+05 -1.702782E+02  3.195960E-09  5.587480E-12
        37  15 -7.621586E+03  2.214586E+04  9.124698E+04 -1.576806E+02 -8.891648E-10 -8.998865E-11
        37  16  2.471810E+05  2.216796E+04  3.239151E+05  5.349353E+03 -4.591795E-09 -3.634008E-12
        37  17 -5.985703E+04 -2.768932E+04  1.380668E+05  8.711770E+02 -1.461500E-09 -6.141618E-11
        37  18 -7.599607E+03  2.212389E+04  9.124698E+04 -2.231587E+03  8.982452E-10  7.921780E-11
        37  19  2.472821E+05  2.213227E+04  3.240068E+05 -2.964803E+03  1.171645E+03 -2.209137E+05
        37  20 -5.982930E+04 -2.768871E+04  1.381065E+05 -1.211823E+03  7.701349E+02 -1.453465E+05
        37  21 -7.642243E+03  2.217306E+04  9.125613E+04  1.916205E+03  3.693672E+02 -6.977627E+04
        37  22  2.472381E+05  2.217629E+04  3.240068E+05  1.192171E+03  1.170166E+03 -2.209137E+05
        37  23 -5.984033E+04 -2.767767E+04  1.381065E+05 -1.703683E+02  7.698910E+02 -1.453465E+05
        37  24 -7.620279E+03  2.215108E+04  9.125613E+04 -1.577014E+02  3.696003E+02 -6.977627E+04
        37  25  2.471941E+05  2.222035E+04  3.240068E+05  5.349145E+03  1.168686E+03 -2.209138E+05
        37  26 -5.985136E+04 -2.766664E+04  1.381065E+05  8.710869E+02  7.696472E+02 -1.453465E+05
        37  27 -7.598300E+03  2.212912E+04  9.125613E+04 -2.231608E+03  3.698334E+02 -6.977627E+04
        38   1  3.884280E+04  3.697506E+03  7.573296E+04 -4.413052E+02 -2.891172E+02  5.457156E+04
        38   2 -9.441380E+03 -4.628376E+03  3.625962E+04 -1.724659E+02 -1.880448E+02  3.549910E+04
        38   3 -1.029075E+03  3.705366E+03  2.337967E+04  3.084507E+02 -8.700274E+01  1.642678E+04
        38   4  3.883615E+04  3.704152E+03  7.573296E+04  1.860971E+02 -2.890620E+02  5.457156E+04
        38   5 -9.442937E+03 -4.626819E+03  3.625962E+04 -2.551137E+01 -1.880364E+02  3.549910E+04
        38   6 -1.025542E+03  3.701833E+03  2.337967E+04 -2.504130E+01 -8.701157E+01  1.642678E+04
        38   7  3.882951E+04  3.710799E+03  7.573296E+04  8.134995E+02 -2.890069E+02  5.457156E+04
        38   8 -9.444493E+03 -4.625263E+03  3.625962E+04  1.214431E+02 -1.880280E+02  3.549910E+04
        38   9 -1.022009E+03  3.698300E+03  2.337967E+04 -3.585333E+02 -8.702039E+01  1.642678E+04
        38  10  3.884200E+04  3.694308E+03  7.572736E+04 -4.412925E+02  1.438148E-09 -1.129820E-10
        38  11 -9.441718E+03 -4.629729E+03  3.625725E+04 -1.724605E+02  1.505339E-10  5.029029E-11
        38  12 -1.029148E+03  3.705077E+03  2.337916E+04  3.084519E+02  9.878721E-10 -1.868294E-10
        38  13  3.883535E+04  3.700955E+03  7.572736E+04  1.861098E+02  6.196459E-09  7.444197E-11
        38  14 -9.443275E+03 -4.628173E+03  3.625725E+04 -2.550600E+01  2.613631E-09  6.831026E-11
        38  15 -1.025615E+03  3.701543E+03  2.337916E+04 -2.504015E+01 -4.059891E-10 -8.335257E-11
        38  16  3.882871E+04  3.707602E+03  7.572736E+04  8.135122E+02 -2.688250E-09  1.486474E-10
        38  17 -9.444832E+03 -4.626616E+03  3.625725E+04  1.214485E+02  1.674788E-09 -5.764216E-11
        38  18 -1.022081E+03  3.698010E+03  2.337916E+04 -3.585322E+02  3.727342E-10  1.108548E-10
        38  19  3.884280E+04  3.697506E+03  7.573296E+04 -4.413052E+02  2.891172E+02 -5.457156E+04
        38  20 -9.441380E+03 -4.628376E+03  3.625962E+04 -1.724659E+02  1.880448E+02 -3.549910E+04
        38  21 -1.029075E+03  3.705366E+03  2.337967E+04  3.084507E+02  8.700274E+01 -1.642678E+04
        38  22  3.883615E+04  3.704152E+03  7.573296E+04  1.860971E+02  2.890620E+02 -5.457156E+04
        38  23 -9.442937E+03 -4.626819E+03  3.625962E+04 -2.551137E+01  1.880364E+02 -3.549910E+04
        38  24 -1.025542E+03  3.701833E+03  2.337967E+04 -2.504130E+01  8.701157E+01 -1.642678E+04
        38  25  3.882951E+04  3.710799E+03  7.573296E+04  8.134995E+02  2.890069E+02 -5.457156E+04
        38  26 -9.444493E+03 -4.625263E+03  3.625962E+04  1.214431E+02  1.880280E+02 -3.549910E+04
        38  27 -1.022009E+03  3.698300E+03  2.337967E+04 -3.585333E+02  8.702039E+01 -1.642678E+04
        39   1  6.047451E+03  7.354041E+02  1.928103E+04 -7.164915E+01 -6.647879E+01  1.255005E+04
        39   2 -1.701392E+03 -9.204797E+02  1.137763E+04 -2.108031E+01 -3.560022E+01  6.720875E+03
        39   3  7.658303E+02  7.369392E+02  9.823470E+03  6.605187E+01 -4.723756E+00  8.918083E+02
        39   4  6.046394E+03  7.364611E+02  1.928103E+04  2.812716E+01 -6.647677E+01  1.255005E+04
        39   5 -1.701572E+03 -9.203002E+02  1.137763E+04 -4.138460E+00 -3.560004E+01  6.720875E+03
        39   6  7.665284E+02  7.362411E+02  9.823470E+03  1.604343E-01 -4.723850E+00  8.918083E+02
        39   7  6.045337E+03  7.375182E+02  1.928103E+04  1.279035E+02 -6.647476E+01  1.255005E+04
        39   8 -1.701751E+03 -9.201207E+02  1.137763E+04  1.280339E+01 -3.559985E+01  6.720875E+03
        39   9  7.672265E+02  7.355430E+02  9.823470E+03 -6.573100E+01 -4.723945E+00  8.918083E+02
        39  10  6.047409E+03  7.352349E+02  1.928074E+04 -7.164847E+01 -4.120080E-09 -9.293509E-11
        39  11 -1.701404E+03 -9.205282E+02  1.137755E+04 -2.108012E+01 -4.118708E-09 -1.666945E-11
        39  12  7.658301E+02  7.369383E+02  9.823469E+03  6.605188E+01  2.029277E-09 -2.545865E-10
        39  13  6.046352E+03  7.362920E+02  1.928074E+04  2.812783E+01 -3.136595E-09  1.950900E-11
        39  14 -1.701584E+03 -9.203487E+02  1.137755E+04 -4.138268E+00 -6.366358E-09 -6.252077E-11
        39  15  7.665282E+02  7.362402E+02  9.823469E+03  1.604376E-01 -5.066238E-09 -2.269849E-11
        39  16  6.045295E+03  7.373490E+02  1.928074E+04  1.279041E+02 -2.235151E-09  7.210007E-11
        39  17 -1.701763E+03 -9.201692E+02  1.137755E+04  1.280358E+01 -3.754955E-09 -7.275960E-11
        39  18  7.672262E+02  7.355422E+02  9.823469E+03 -6.573100E+01 -5.510102E-09  1.849546E-10
        39  19  6.047451E+03  7.354041E+02  1.928103E+04 -7.164915E+01  6.647879E+01 -1.255005E+04
        39  20 -1.701392E+03 -9.204797E+02  1.137763E+04 -2.108031E+01  3.560022E+01 -6.720875E+03
        39  21  7.658303E+02  7.369392E+02  9.823470E+03  6.605187E+01  4.723756E+00 -8.918083E+02
        39  22  6.046394E+03  7.364611E+02  1.928103E+04  2.812716E+01  6.647677E+01 -1.255005E+04
        39  23 -1.701572E+03 -9.203002E+02  1.137763E+04 -4.138460E+00  3.560004E+01 -6.720875E+03
        39  24  7.665284E+02  7.362411E+02  9.823470E+03  1.604343E-01  4.723850E+00 -8.918083E+02
        39  25  6.045337E+03  7.375182E+02  1.928103E+04  1.279035E+02  6.647476E+01 -1.255005E+04
        39  26 -1.701751E+03 -9.201207E+02  1.137763E+04  1.280339E+01  3.559985E+01 -6.720875E+03
        39  27  7.672265E+02  7.355430E+02  9.823470E+03 -6.573100E+01  4.723945E+00 -8.918083E+02
        40   1 -8.160284E+06 -2.584343E+06 -1.658898E+06 -2.861857E+06 -8.514175E+05 -3.092728E+05
        40   2 -7.962748E+06 -1.348219E+06 -8.743315E+05 -3.041498E+06 -5.516381E+05 -1.652893E+05
        40   3 -8.260256E+06 -1.345372E+06 -6.584945E+05 -2.910205E+06 -2.413519E+05 -4.889672E+04
        40   4 -7.109988E+06 -1.922693E+06 -1.317546E+06 -2.310906E+06 -8.355308E+05 -3.036732E+05
        40   5 -6.793177E+06 -8.304680E+05 -5.459316E+05 -2.647011E+06 -5.470104E+05 -1.636181E+05
        40   6 -6.968329E+06 -9.679962E+05 -3.332873E+05 -2.672468E+06 -2.479312E+05 -5.134015E+04
        40   7 -6.058438E+06 -1.260246E+06 -9.762923E+05 -1.758909E+06 -8.196132E+05 -2.980444E+05
        40   8 -5.622248E+06 -3.124856E+05 -2.176618E+05 -2.251793E+06 -5.423721E+05 -1.619414E+05
        40   9 -5.674751E+06 -5.906535E+05 -8.201065E+03 -2.434353E+06 -2.545253E+05 -5.378622E+04
        40  10 -8.161098E+06 -2.584645E+06 -1.660463E+06 -2.862071E+06 -2.519999E-09  8.915608E-11
        40  11 -7.963086E+06 -1.348332E+06 -8.749640E+05 -3.041572E+06 -5.285206E-09  8.678146E-11
        40  12 -8.260320E+06 -1.345390E+06 -6.586102E+05 -2.910214E+06 -1.073466E-09  1.116051E-09
        40  13 -7.110771E+06 -1.922984E+06 -1.319050E+06 -2.311112E+06 -5.533538E-09 -1.985458E-10
        40  14 -6.793508E+06 -8.305787E+05 -5.465521E+05 -2.647084E+06 -4.802622E-09 -3.228313E-10
        40  15 -6.968396E+06 -9.680158E+05 -3.334092E+05 -2.672479E+06 -4.427400E-09 -8.076741E-10
        40  16 -6.059190E+06 -1.260525E+06 -9.777370E+05 -1.759107E+06 -1.760750E-09  3.285254E-10
        40  17 -5.622573E+06 -3.125941E+05 -2.182703E+05 -2.251864E+06 -3.159878E-09  1.422501E-09
        40  18 -5.674822E+06 -5.906743E+05 -8.329578E+03 -2.434364E+06 -4.469488E-09  1.529373E-09
        40  19 -8.160284E+06 -2.584343E+06 -1.658898E+06 -2.861857E+06  8.514175E+05  3.092728E+05
        40  20 -7.962748E+06 -1.348219E+06 -8.743315E+05 -3.041498E+06  5.516381E+05  1.652893E+05
        40  21 -8.260256E+06 -1.345372E+06 -6.584945E+05 -2.910205E+06  2.413519E+05  4.889672E+04
        40  22 -7.109988E+06 -1.922693E+06 -1.317546E+06 -2.310906E+06  8.355308E+05  3.036732E+05
        40  23 -6.793177E+06 -8.304680E+05 -5.459316E+05 -2.647011E+06  5.470104E+05  1.636181E+05
        40  24 -6.968329E+06 -9.679962E+05 -3.332873E+05 -2.672468E+06  2.479312E+05  5.134015E+04
        40  25 -6.058438E+06 -1.260246E+06 -9.762923E+05 -1.758909E+06  8.196132E+05  2.980444E+05
        40  26 -5.622248E+06 -3.124856E+05 -2.176618E+05 -2.251793E+06  5.423721E+05  1.619414E+05
        40  27 -5.674751E+06 -5.906535E+05 -8.201065E+03 -2.434353E+06  2.545253E+05  5.378622E+04
        41   1 -8.039669E+06 -1.570407E+06 -5.794733E+05 -2.934868E+06 -1.991051E+05 -3.828833E+04
        41   2 -7.972006E+06 -1.380804E+06 -4.178501E+05 -2.914547E+06 -1.308460E+05 -1.232132E+04
        41   3 -7.923675E+06 -1.377468E+06 -3.465630E+05 -2.905705E+06 -6.130154E+04  1.025267E+04
        41   4 -6.918855E+06 -1.116544E+06 -2.719163E+05 -2.599994E+06 -1.985718E+05 -3.810254E+04
        41   5 -6.901094E+06 -9.676218E+05 -1.286004E+05 -2.615256E+06 -1.316280E+05 -1.262251E+04
        41   6 -6.902296E+06 -1.004539E+06 -7.443872E+04 -2.642019E+06 -6.340585E+04  9.459118E+03
        41   7 -5.796811E+06 -6.625569E+05  3.552401E+04 -2.264548E+06 -1.980372E+05 -3.791615E+04
        41   8 -5.829060E+06 -5.543587E+05  1.605463E+05 -2.315489E+06 -1.324113E+05 -1.292422E+04
        41   9 -5.879896E+06 -6.315643E+05  1.975952E+05 -2.377943E+06 -6.551396E+04  8.664262E+03
        41  10 -8.039713E+06 -1.570419E+06 -5.795517E+05 -2.934874E+06  1.035483E-09  1.312715E-09
        41  11 -7.972025E+06 -1.380809E+06 -4.178830E+05 -2.914548E+06 -1.444996E-09 -2.091918E-10
        41  12 -7.923679E+06 -1.377469E+06 -3.465703E+05 -2.905704E+06 -4.276345E-10 -8.030411E-10
        41  13 -6.918898E+06 -1.116556E+06 -2.719941E+05 -2.600000E+06 -3.869232E-10 -9.932783E-10
        41  14 -6.901113E+06 -9.676267E+05 -1.286336E+05 -2.615258E+06  2.334206E-09 -1.655909E-09
        41  15 -6.902300E+06 -1.004540E+06 -7.444651E+04 -2.642018E+06 -9.433023E-10 -6.463252E-10
        41  16 -5.796854E+06 -6.625692E+05  3.544681E+04 -2.264555E+06 -2.911386E-09  7.062670E-10
        41  17 -5.829079E+06 -5.543637E+05  1.605127E+05 -2.315490E+06  1.004371E-09 -1.710502E-09
        41  18 -5.879901E+06 -6.315655E+05  1.975869E+05 -2.377943E+06 -1.230392E-09 -1.157617E-09
        41  19 -8.039669E+06 -1.570407E+06 -5.794733E+05 -2.934868E+06  1.991051E+05  3.828833E+04
        41  20 -7.972006E+06 -1.380804E+06 -4.178501E+05 -2.914547E+06  1.308460E+05  1.232132E+04
        41  21 -7.923675E+06 -1.377468E+06 -3.465630E+05 -2.905705E+06  6.130154E+04 -1.025267E+04
        41  22 -6.918855E+06 -1.116544E+06 -2.719163E+05 -2.599994E+06  1.985718E+05  3.810254E+04
        41  23 -6.901094E+06 -9.676218E+05 -1.286004E+05 -2.615256E+06  1.316280E+05  1.262251E+04
        41  24 -6.902296E+06 -1.004539E+06 -7.443872E+04 -2.642019E+06  6.340585E+04 -9.459118E+03
        41  25 -5.796811E+06 -6.625569E+05  3.552401E+04 -2.264548E+06  1.980372E+05  3.791615E+04
        41  26 -5.829060E+06 -5.543587E+05  1.605463E+05 -2.315489E+06  1.324113E+05  1.292422E+04
        41  27 -5.879896E+06 -6.315643E+05  1.975952E+05 -2.377943E+06  6.551396E+04 -8.664262E+03
        42   1 -7.755072E+06 -1.356193E+06 -2.908510E+05 -2.876700E+06 -5.029190E+04  1.153314E+04
        42   2 -7.680404E+06 -1.265331E+06 -2.341084E+05 -2.811395E+06 -3.327686E+04  1.350067E+04
        42   3 -7.545169E+06 -1.259311E+06 -1.934219E+05 -2.819852E+06 -1.593297E+04  1.457289E+04
        42   4 -6.890947E+06 -1.026651E+06 -5.841771E+04 -2.639060E+06 -5.178068E+04  1.097094E+04
        42   5 -6.920270E+06 -9.776465E+05 -2.989834E+04 -2.604640E+06 -3.512233E+04  1.280676E+04
        42   6 -6.888957E+06 -1.013391E+06 -1.712993E+04 -2.643980E+06 -1.813825E+04  1.374661E+04
        42   7 -6.026092E+06 -6.970613E+05  1.739490E+05 -2.401115E+06 -5.327172E+04  1.040787E+04
        42   8 -6.159572E+06 -6.899279E+05  1.742601E+05 -2.397652E+06 -3.697030E+04  1.211191E+04
        42   9 -6.232326E+06 -7.674488E+05  1.591233E+05 -2.467939E+06 -2.034611E+04  1.291937E+04
        42  10 -7.755075E+06 -1.356193E+06 -2.908560E+05 -2.876700E+06 -6.621281E-10  5.274656E-10
        42  11 -7.680405E+06 -1.265331E+06 -2.341109E+05 -2.811395E+06  6.867269E-09  1.236449E-09
        42  12 -7.545169E+06 -1.259311E+06 -1.934228E+05 -2.819852E+06  2.194187E-09 -5.039126E-10
        42  13 -6.890950E+06 -1.026652E+06 -5.842301E+04 -2.639059E+06  4.548471E-09 -3.758869E-10
        42  14 -6.920271E+06 -9.776470E+05 -2.990098E+04 -2.604639E+06  2.018845E-09  2.892419E-10
        42  15 -6.888957E+06 -1.013392E+06 -1.713091E+04 -2.643980E+06  3.446785E-09  2.838821E-10
        42  16 -6.026095E+06 -6.970622E+05  1.739434E+05 -2.401114E+06 -8.452015E-10 -1.099774E-09
        42  17 -6.159574E+06 -6.899285E+05  1.742573E+05 -2.397652E+06  3.442955E-09 -1.480414E-09
        42  18 -6.232327E+06 -7.674491E+05  1.591223E+05 -2.467939E+06 -5.312093E-11  5.916513E-10
        42  19 -7.755072E+06 -1.356193E+06 -2.908510E+05 -2.876700E+06  5.029190E+04 -1.153314E+04
        42  20 -7.680404E+06 -1.265331E+06 -2.341084E+05 -2.811395E+06  3.327686E+04 -1.350067E+04
        42  21 -7.545169E+06 -1.259311E+06 -1.934219E+05 -2.819852E+06  1.593297E+04 -1.457289E+04
        42  22 -6.890947E+06 -1.026651E+06 -5.841771E+04 -2.639060E+06  5.178068E+04 -1.097094E+04
        42  23 -6.920270E+06 -9.776465E+05 -2.989834E+04 -2.604640E+06  3.512233E+04 -1.280676E+04
        42  24 -6.888957E+06 -1.013391E+06 -1.712993E+04 -2.643980E+06  1.813825E+04 -1.374661E+04
        42  25 -6.026092E+06 -6.970613E+05  1.739490E+05 -2.401115E+06  5.327172E+04 -1.040787E+04
        42  26 -6.159572E+06 -6.899279E+05  1.742601E+05 -2.397652E+06  3.697030E+04 -1.211191E+04
        42  27 -6.232326E+06 -7.674488E+05  1.591233E+05 -2.467939E+06  2.034611E+04 -1.291937E+04
        43   1 -7.339360E+06 -1.190206E+06 -1.350218E+05 -2.770047E+06 -1.235193E+04  1.246249E+04
        43   2 -7.250568E+06 -1.097702E+06 -9.512252E+04 -2.687311E+06 -6.249232E+03  8.738161E+03
        43   3 -7.079867E+06 -1.090541E+06 -5.889012E+04 -2.699808E+06 -3.666855E+01  4.708431E+03
        43   4 -6.884897E+06 -1.018687E+06 -1.346356E+04 -2.646790E+06 -1.451871E+04  1.165189E+04
        43   5 -6.925732E+06 -9.752717E+05 -7.974267E+03 -2.599448E+06 -8.542199E+03  7.881451E+03
        43   6 -6.884657E+06 -1.017171E+06 -6.048336E+03 -2.647344E+06 -2.456859E+03  3.805400E+03
        43   7 -6.430230E+06 -8.471546E+05  1.080770E+05 -2.523449E+06 -1.668726E+04  1.084063E+04
        43   8 -6.600795E+06 -8.528353E+05  7.916452E+04 -2.511544E+06 -1.083649E+04  7.024245E+03
        43   9 -6.689410E+06 -9.438002E+05  4.678967E+04 -2.594865E+06 -4.877879E+03  2.902062E+03
        43  10 -7.339360E+06 -1.190207E+06 -1.350224E+05 -2.770047E+06  5.730798E-10 -8.171515E-10
        43  11 -7.250568E+06 -1.097702E+06 -9.512273E+04 -2.687311E+06  1.208695E-09 -8.028295E-10
        43  12 -7.079867E+06 -1.090541E+06 -5.889016E+04 -2.699808E+06 -4.282389E-09  2.238530E-09
        43  13 -6.884897E+06 -1.018687E+06 -1.346421E+04 -2.646790E+06 -5.747522E-10  5.918362E-10
        43  14 -6.925732E+06 -9.752718E+05 -7.974521E+03 -2.599448E+06 -5.415990E-09 -6.096210E-10
        43  15 -6.884657E+06 -1.017171E+06 -6.048374E+03 -2.647344E+06 -2.073537E-09  7.344611E-11
        43  16 -6.430230E+06 -8.471548E+05  1.080762E+05 -2.523449E+06  2.796502E-10  1.866719E-09
        43  17 -6.600795E+06 -8.528354E+05  7.916421E+04 -2.511544E+06  5.236936E-09 -4.788870E-10
        43  18 -6.689410E+06 -9.438003E+05  4.678961E+04 -2.594865E+06 -1.976814E-09  2.119039E-10
        43  19 -7.339360E+06 -1.190206E+06 -1.350218E+05 -2.770047E+06  1.235193E+04 -1.246249E+04
        43  20 -7.250568E+06 -1.097702E+06 -9.512252E+04 -2.687311E+06  6.249232E+03 -8.738161E+03
        43  21 -7.079867E+06 -1.090541E+06 -5.889012E+04 -2.699808E+06  3.666855E+01 -4.708431E+03
        43  22 -6.884897E+06 -1.018687E+06 -1.346356E+04 -2.646790E+06  1.451871E+04 -1.165189E+04
        43  23 -6.925732E+06 -9.752717E+05 -7.974267E+03 -2.599448E+06  8.542199E+03 -7.881451E+03
        43  24 -6.884657E+06 -1.017171E+06 -6.048336E+03 -2.647344E+06  2.456859E+03 -3.805400E+03
        43  25 -6.430230E+06 -8.471546E+05  1.080770E+05 -2.523449E+06  1.668726E+04 -1.084063E+04
        43  26 -6.600795E+06 -8.528353E+05  7.916452E+04 -2.511544E+06  1.083649E+04 -7.024245E+03
        43  27 -6.689410E+06 -9.438002E+05  4.678967E+04 -2.594865E+06  4.877879E+03 -2.902062E+03
        44   1 -6.855001E+06 -1.006865E+06  2.402935E+03 -2.640280E+06  2.196277E+03  1.720557E+03
        44   2 -6.763839E+06 -9.134204E+05  3.654685E+04 -2.554746E+06  7.771958E+03 -2.636883E+03
        44   3 -6.588428E+06 -9.072747E+05  6.757982E+04 -2.567229E+06  1.328952E+04 -6.828620E+03
        44   4 -6.884149E+06 -1.017732E+06 -5.897064E+03 -2.647915E+06 -2.286934E+02  8.159707E+02
        44   5 -6.926347E+06 -9.746442E+05 -7.034874E+03 -2.598693E+06  5.415742E+03 -3.516437E+03
        44   6 -6.884325E+06 -1.018872E+06 -1.133761E+04 -2.647497E+06  1.100121E+04 -7.683363E+03
        44   7 -6.913297E+06 -1.028599E+06 -1.419715E+04 -2.655551E+06 -2.653544E+03 -8.857338E+01
        44   8 -7.088830E+06 -1.035867E+06 -5.061916E+04 -2.642631E+06  3.060197E+03 -4.395740E+03
        44   9 -7.180139E+06 -1.130465E+06 -9.026336E+04 -2.727731E+06  8.714094E+03 -8.537659E+03
        44  10 -6.855001E+06 -1.006865E+06  2.402920E+03 -2.640280E+06 -2.515168E-10  1.066894E-09
        44  11 -6.763839E+06 -9.134204E+05  3.654672E+04 -2.554746E+06 -3.059594E-09 -5.110304E-11
        44  12 -6.588428E+06 -9.072748E+05  6.757940E+04 -2.567228E+06  2.724133E-09 -5.495763E-11
        44  13 -6.884149E+06 -1.017732E+06 -5.897066E+03 -2.647915E+06 -1.815766E-09  9.720135E-11
        44  14 -6.926347E+06 -9.746443E+05 -7.034953E+03 -2.598693E+06  3.952753E-09 -4.586526E-10
        44  15 -6.884325E+06 -1.018872E+06 -1.133795E+04 -2.647497E+06  4.002811E-10 -5.830426E-10
        44  16 -6.913297E+06 -1.028599E+06 -1.419716E+04 -2.655551E+06 -3.177355E-09 -3.681014E-10
        44  17 -7.088830E+06 -1.035867E+06 -5.061922E+04 -2.642631E+06  1.074971E-09  1.620493E-09
        44  18 -7.180139E+06 -1.130465E+06 -9.026364E+04 -2.727731E+06 -1.253408E-09 -1.538304E-09
        44  19 -6.855001E+06 -1.006865E+06  2.402935E+03 -2.640280E+06 -2.196277E+03 -1.720557E+03
        44  20 -6.763839E+06 -9.134204E+05  3.654685E+04 -2.554746E+06 -7.771958E+03  2.636883E+03
        44  21 -6.588428E+06 -9.072747E+05  6.757982E+04 -2.567229E+06 -1.328952E+04  6.828620E+03
        44  22 -6.884149E+06 -1.017732E+06 -5.897064E+03 -2.647915E+06  2.286934E+02 -8.159707E+02
        44  23 -6.926347E+06 -9.746442E+05 -7.034874E+03 -2.598693E+06 -5.415742E+03  3.516437E+03
        44  24 -6.884325E+06 -1.018872E+06 -1.133761E+04 -2.647497E+06 -1.100121E+04  7.683363E+03
        44  25 -6.913297E+06 -1.028599E+06 -1.419715E+04 -2.655551E+06  2.653544E+03  8.857338E+01
        44  26 -7.088830E+06 -1.035867E+06 -5.061916E+04 -2.642631E+06 -3.060197E+03  4.395740E+03
        44  27 -7.180139E+06 -1.130465E+06 -9.026336E+04 -2.727731E+06 -8.714094E+03  8.537659E+03
        45   1 -6.378316E+06 -8.243874E+05  1.224450E+05 -2.509334E+06  1.661450E+04 -9.230025E+03
        45   2 -6.298585E+06 -7.404925E+05  1.426874E+05 -2.433008E+06  3.076524E+04 -9.771385E+03
        45   3 -6.150604E+06 -7.448178E+05  1.501424E+05 -2.438799E+06  4.464026E+04 -9.545187E+03
        45   4 -6.887345E+06 -1.014864E+06 -1.429019E+04 -2.645565E+06  1.428187E+04 -1.010230E+04
        45   5 -6.922249E+06 -9.761765E+05 -2.466509E+04 -2.602479E+06  2.874389E+04 -1.052932E+04
        45   6 -6.888981E+06 -1.025787E+06 -4.808592E+04 -2.641519E+06  4.292758E+04 -1.018939E+04
        45   7 -7.396119E+06 -1.205325E+06 -1.510474E+05 -2.781694E+06  1.195139E+04 -1.097379E+04
        45   8 -7.545531E+06 -1.211836E+06 -1.920514E+05 -2.771794E+06  2.672480E+04 -1.128641E+04
        45   9 -7.626825E+06 -1.306721E+06 -2.463625E+05 -2.844018E+06  4.121714E+04 -1.083274E+04
        45  10 -6.378316E+06 -8.243875E+05  1.224443E+05 -2.509334E+06  3.090804E-10 -1.575168E-10
        45  11 -6.298586E+06 -7.404929E+05  1.426855E+05 -2.433008E+06  1.444925E-09  2.370816E-10
        45  12 -6.150606E+06 -7.448184E+05  1.501385E+05 -2.438798E+06  5.666200E-10  9.096180E-11
        45  13 -6.887346E+06 -1.014864E+06 -1.429077E+04 -2.645565E+06  2.234009E-09 -6.334699E-10
        45  14 -6.922250E+06 -9.761769E+05 -2.466686E+04 -2.602479E+06 -2.585965E-09 -5.378699E-10
        45  15 -6.888983E+06 -1.025788E+06 -4.808960E+04 -2.641519E+06 -4.010490E-09 -1.693051E-10
        45  16 -7.396119E+06 -1.205325E+06 -1.510479E+05 -2.781694E+06  5.624534E-10 -1.273197E-10
        45  17 -7.545531E+06 -1.211837E+06 -1.920530E+05 -2.771794E+06 -2.041534E-09  1.759199E-09
        45  18 -7.626827E+06 -1.306722E+06 -2.463659E+05 -2.844018E+06  1.510329E-09  5.476985E-10
        45  19 -6.378316E+06 -8.243874E+05  1.224450E+05 -2.509334E+06 -1.661450E+04  9.230025E+03
        45  20 -6.298585E+06 -7.404925E+05  1.426874E+05 -2.433008E+06 -3.076524E+04  9.771385E+03
        45  21 -6.150604E+06 -7.448178E+05  1.501424E+05 -2.438799E+06 -4.464026E+04  9.545187E+03
        45  22 -6.887345E+06 -1.014864E+06 -1.429019E+04 -2.645565E+06 -1.428187E+04  1.010230E+04
        45  23 -6.922249E+06 -9.761765E+05 -2.466509E+04 -2.602479E+06 -2.874389E+04  1.052932E+04
        45  24 -6.888981E+06 -1.025787E+06 -4.808592E+04 -2.641519E+06 -4.292758E+04  1.018939E+04
        45  25 -7.396119E+06 -1.205325E+06 -1.510474E+05 -2.781694E+06 -1.195139E+04  1.097379E+04
        45  26 -7.545531E+06 -1.211836E+06 -1.920514E+05 -2.771794E+06 -2.672480E+04  1.128641E+04
        45  27 -7.626825E+06 -1.306721E+06 -2.463625E+05 -2.844018E+06 -4.121714E+04  1.083274E+04
        46   1 -5.983116E+06 -6.726749E+05  1.825716E+05 -2.406523E+06  5.511748E+04 -8.846759E+03
        46   2 -5.923085E+06 -5.905920E+05  1.592068E+05 -2.338019E+06  1.103425E+05  7.607491E+03
        46   3 -5.861089E+06 -6.780764E+05  6.369049E+04 -2.298729E+06  1.643396E+05  2.736773E+04
        46   4 -6.898592E+06 -1.007264E+06 -6.122394E+04 -2.643553E+06  5.278493E+04 -9.723911E+03
        46   5 -6.906189E+06 -9.683816E+05 -1.057290E+05 -2.611693E+06  1.093213E+05  7.218285E+03
        46   6 -6.912171E+06 -1.099462E+06 -2.235272E+05 -2.609043E+06  1.646222E+05  2.746270E+04
        46   7 -7.813254E+06 -1.341818E+06 -3.050932E+05 -2.880270E+06  5.045616E+04 -1.059976E+04
        46   8 -7.888351E+06 -1.346105E+06 -3.707515E+05 -2.884968E+06  1.083018E+05  6.829727E+03
        46   9 -7.962173E+06 -1.520745E+06 -5.108461E+05 -2.918863E+06  1.649041E+05  2.755735E+04
        46  10 -5.983120E+06 -6.726758E+05  1.825657E+05 -2.406522E+06 -5.497876E-09 -5.574367E-10
        46  11 -5.923098E+06 -5.905954E+05  1.591835E+05 -2.338020E+06 -1.129314E-09  1.316591E-09
        46  12 -5.861119E+06 -6.780845E+05  6.363778E+04 -2.298732E+06  2.377366E-09  1.592565E-09
        46  13 -6.898595E+06 -1.007265E+06 -6.122940E+04 -2.643553E+06 -1.645780E-09 -8.352486E-10
        46  14 -6.906202E+06 -9.683849E+05 -1.057518E+05 -2.611694E+06  5.439711E-09 -4.500212E-10
        46  15 -6.912201E+06 -1.099471E+06 -2.235802E+05 -2.609047E+06  4.846470E-10  5.888572E-10
        46  16 -7.813257E+06 -1.341819E+06 -3.050982E+05 -2.880270E+06  4.602765E-09 -2.350533E-09
        46  17 -7.888364E+06 -1.346109E+06 -3.707739E+05 -2.884969E+06  2.396668E-09 -9.137477E-10
        46  18 -7.962203E+06 -1.520753E+06 -5.108994E+05 -2.918867E+06  9.283041E-11  7.185105E-10
        46  19 -5.983116E+06 -6.726749E+05  1.825716E+05 -2.406523E+06 -5.511748E+04  8.846759E+03
        46  20 -5.923085E+06 -5.905920E+05  1.592068E+05 -2.338019E+06 -1.103425E+05 -7.607491E+03
        46  21 -5.861089E+06 -6.780764E+05  6.369049E+04 -2.298729E+06 -1.643396E+05 -2.736773E+04
        46  22 -6.898592E+06 -1.007264E+06 -6.122394E+04 -2.643553E+06 -5.278493E+04  9.723911E+03
        46  23 -6.906189E+06 -9.683816E+05 -1.057290E+05 -2.611693E+06 -1.093213E+05 -7.218285E+03
        46  24 -6.912171E+06 -1.099462E+06 -2.235272E+05 -2.609043E+06 -1.646222E+05 -2.746270E+04
        46  25 -7.813254E+06 -1.341818E+06 -3.050932E+05 -2.880270E+06 -5.045616E+04  1.059976E+04
        46  26 -7.888351E+06 -1.346105E+06 -3.707515E+05 -2.884968E+06 -1.083018E+05 -6.829727E+03
        46  27 -7.962173E+06 -1.520745E+06 -5.108461E+05 -2.918863E+06 -1.649041E+05 -2.755735E+04
        47   1 -5.721769E+06 -6.025795E+05  3.849959E+04 -2.426266E+06  2.125532E+05  3.957300E+04
        47   2 -5.664850E+06 -3.599440E+05 -1.284407E+05 -2.263008E+06  4.475165E+05  1.265010E+05
        47   3 -5.995339E+06 -1.137982E+06 -7.450795E+05 -1.859966E+06  6.719620E+05  2.412410E+05
        47   4 -6.953794E+06 -9.763267E+05 -2.739565E+05 -2.667414E+06  2.057004E+05  3.701807E+04
        47   5 -6.816543E+06 -8.568519E+05 -4.488625E+05 -2.639121E+06  4.519622E+05  1.281259E+05
        47   6 -7.069768E+06 -1.761575E+06 -1.083164E+06 -2.370805E+06  6.877249E+05  2.469358E+05
        47   7 -8.184327E+06 -1.350094E+06 -5.865263E+05 -2.908184E+06  1.988624E+05  3.446616E+04
        47   8 -7.966926E+06 -1.353563E+06 -7.694086E+05 -3.014555E+06  4.563981E+05  1.297459E+05
        47   9 -8.142951E+06 -2.384544E+06 -1.421358E+06 -2.880683E+06  7.034567E+05  2.526048E+05
        47  10 -5.721818E+06 -6.025935E+05  3.841083E+04 -2.426273E+06  2.951321E-10  2.162404E-10
        47  11 -5.665071E+06 -3.600159E+05 -1.288515E+05 -2.263054E+06 -5.001473E-09  5.646366E-10
        47  12 -5.995844E+06 -1.138168E+06 -7.460476E+05 -1.860097E+06  1.419941E-10 -6.979002E-10
        47  13 -6.953840E+06 -9.763397E+05 -2.740396E+05 -2.667421E+06 -2.828678E-10  1.393969E-09
        47  14 -6.816769E+06 -8.569255E+05 -4.492826E+05 -2.639168E+06 -7.843661E-09  2.100719E-09
        47  15 -7.070298E+06 -1.761771E+06 -1.084180E+06 -2.370943E+06  4.757046E-09 -9.710110E-10
        47  16 -8.184370E+06 -1.350106E+06 -5.866040E+05 -2.908189E+06  1.379934E-09  3.668646E-10
        47  17 -7.967157E+06 -1.353638E+06 -7.698380E+05 -3.014603E+06  1.337774E-09 -7.333400E-10
        47  18 -8.143506E+06 -2.384749E+06 -1.422424E+06 -2.880827E+06  2.134042E-09  3.195092E-11
        47  19 -5.721769E+06 -6.025795E+05  3.849959E+04 -2.426266E+06 -2.125532E+05 -3.957300E+04
        47  20 -5.664850E+06 -3.599440E+05 -1.284407E+05 -2.263008E+06 -4.475165E+05 -1.265010E+05
        47  21 -5.995339E+06 -1.137982E+06 -7.450795E+05 -1.859966E+06 -6.719620E+05 -2.412410E+05
        47  22 -6.953794E+06 -9.763267E+05 -2.739565E+05 -2.667414E+06 -2.057004E+05 -3.701807E+04
        47  23 -6.816543E+06 -8.568519E+05 -4.488625E+05 -2.639121E+06 -4.519622E+05 -1.281259E+05
        47  24 -7.069768E+06 -1.761575E+06 -1.083164E+06 -2.370805E+06 -6.877249E+05 -2.469358E+05
        47  25 -8.184327E+06 -1.350094E+06 -5.865263E+05 -2.908184E+06 -1.988624E+05 -3.446616E+04
        47  26 -7.966926E+06 -1.353563E+06 -7.694086E+05 -3.014555E+06 -4.563981E+05 -1.297459E+05
        47  27 -8.142951E+06 -2.384544E+06 -1.421358E+06 -2.880683E+06 -7.034567E+05 -2.526048E+05
        48   1  3.152313E+05  5.083338E+04  3.530108E+05 -2.187678E+05 -9.098466E+02  2.221381E+05
        48   2  5.779544E+04 -2.064766E+04  1.771284E+05 -1.123454E+05 -8.476052E+02  1.300203E+05
        48   3 -3.554169E+03 -3.121239E+04  1.102392E+05 -1.580233E+04 -2.476987E+03  3.789866E+04
        48   4  2.994058E+05 -3.980744E+03  3.390800E+05 -3.732733E+04 -8.420245E+02  2.215014E+05
        48   5  5.342693E+04 -3.421805E+04  1.733329E+05 -3.308187E+04 -8.397923E+02  1.319030E+05
        48   6  3.063580E+03 -3.990508E+03  1.148321E+05 -3.870071E+04 -2.498899E+03  4.229491E+04
        48   7  2.837036E+05 -5.872159E+04  3.251666E+05  1.440968E+05 -7.745696E+02  2.208647E+05
        48   8  4.908201E+04 -4.777478E+04  1.695407E+05  4.617990E+04 -8.314983E+02  1.337857E+05
        48   9  9.683263E+03  2.323326E+04  1.194253E+05 -6.160014E+04 -2.521135E+03  4.669135E+04
        48  10  3.152181E+05  5.078041E+04  3.529181E+05 -2.187676E+05  1.705950E-09  3.301942E-08
        48  11  5.779091E+04 -2.066581E+04  1.770967E+05 -1.123453E+05  3.252408E-09  2.870599E-10
        48  12 -3.554561E+03 -3.121393E+04  1.102365E+05 -1.580225E+04 -1.386925E-10 -3.579538E-08
        48  13  2.993926E+05 -4.033416E+03  3.389878E+05 -3.732719E+04 -3.799571E-09  1.251600E-09
        48  14  5.342226E+04 -3.423673E+04  1.733002E+05 -3.308178E+04  4.298244E-09  1.081658E-10
        48  15  3.063093E+03 -3.992430E+03  1.148287E+05 -3.870063E+04 -1.198611E-09  4.319776E-10
        48  16  2.836905E+05 -5.877396E+04  3.250749E+05  1.440970E+05 -1.090641E-10 -3.376478E-08
        48  17  4.907721E+04 -4.779400E+04  1.695071E+05  4.617999E+04  1.452581E-09  2.843161E-09
        48  18  9.682671E+03  2.323092E+04  1.194212E+05 -6.160005E+04 -1.364318E-10  3.571416E-08
        48  19  3.152313E+05  5.083338E+04  3.530108E+05 -2.187678E+05  9.098466E+02 -2.221381E+05
        48  20  5.779544E+04 -2.064766E+04  1.771284E+05 -1.123454E+05  8.476052E+02 -1.300203E+05
        48  21 -3.554169E+03 -3.121239E+04  1.102392E+05 -1.580233E+04  2.476987E+03 -3.789866E+04
        48  22  2.994058E+05 -3.980744E+03  3.390800E+05 -3.732733E+04  8.420245E+02 -2.215014E+05
        48  23  5.342693E+04 -3.421805E+04  1.733329E+05 -3.308187E+04  8.397923E+02 -1.319030E+05
        48  24  3.063580E+03 -3.990508E+03  1.148321E+05 -3.870071E+04  2.498899E+03 -4.229491E+04
        48  25  2.837036E+05 -5.872159E+04  3.251666E+05  1.440968E+05  7.745696E+02 -2.208647E+05
        48  26  4.908201E+04 -4.777478E+04  1.695407E+05  4.617990E+04  8.314983E+02 -1.337857E+05
        48  27  9.683263E+03  2.323326E+04  1.194253E+05 -6.160014E+04  2.521135E+03 -4.669135E+04
        49   1 -1.408590E+03 -7.029113E+04  9.324659E+04 -4.662199E+04 -4.140722E+03  2.108483E+04
        49   2 -1.941104E+04 -1.183197E+05  8.228460E+04 -3.243466E+04 -6.510855E+03 -2.831124E+04
        49   3 -1.327101E+04 -1.539928E+05  1.095015E+05 -2.875328E+04 -8.523630E+03 -7.770318E+04
        49   4  1.160910E+04 -1.466300E+04  1.031563E+05 -3.862768E+04 -4.160026E+03  2.528957E+04
        49   5  3.650366E+03 -2.088622E+04  1.001065E+05 -3.335561E+04 -6.527707E+03 -2.465499E+04
        49   6  1.992669E+04 -1.466299E+04  1.356130E+05 -3.858869E+04 -8.536652E+03 -7.459858E+04
        49   7  2.462688E+04  4.096832E+04  1.130659E+05 -3.063264E+04 -4.179221E+03  2.949468E+04
        49   8  2.671124E+04  7.655653E+04  1.179282E+05 -3.427670E+04 -6.544568E+03 -2.099817E+04
        49   9  5.312362E+04  1.246858E+05  1.617237E+05 -4.842635E+04 -8.549771E+03 -7.149331E+04
        49  10 -1.408728E+03 -7.029161E+04  9.324572E+04 -4.662192E+04  2.193900E-09 -3.046439E-09
        49  11 -1.941130E+04 -1.183206E+05  8.228302E+04 -3.243480E+04 -6.152830E-10  2.355662E-08
        49  12 -1.327271E+04 -1.539993E+05  1.094900E+05 -2.875382E+04 -5.411898E-09  4.190204E-08
        49  13  1.160891E+04 -1.466369E+04  1.031550E+05 -3.862760E+04  5.571969E-09  1.361309E-09
        49  14  3.650157E+03 -2.088689E+04  1.001053E+05 -3.335574E+04 -2.057266E-09 -2.450798E-10
        49  15  1.992512E+04 -1.466898E+04  1.356024E+05 -3.858921E+04 -1.016564E-08  4.658291E-10
        49  16  2.462663E+04  4.096739E+04  1.130643E+05 -3.063254E+04  1.829149E-09  2.624683E-09
        49  17  2.671108E+04  7.655604E+04  1.179272E+05 -3.427681E+04  1.884980E-09 -2.034168E-08
        49  18  5.312217E+04  1.246803E+05  1.617139E+05 -4.842684E+04 -3.097607E-09 -4.235316E-08
        49  19 -1.408590E+03 -7.029113E+04  9.324659E+04 -4.662199E+04  4.140722E+03 -2.108483E+04
        49  20 -1.941104E+04 -1.183197E+05  8.228460E+04 -3.243466E+04  6.510855E+03  2.831124E+04
        49  21 -1.327101E+04 -1.539928E+05  1.095015E+05 -2.875328E+04  8.523630E+03  7.770318E+04
        49  22  1.160910E+04 -1.466300E+04  1.031563E+05 -3.862768E+04  4.160026E+03 -2.528957E+04
        49  23  3.650366E+03 -2.088622E+04  1.001065E+05 -3.335561E+04  6.527707E+03  2.465499E+04
        49  24  1.992669E+04 -1.466299E+04  1.356130E+05 -3.858869E+04  8.536652E+03  7.459858E+04
        49  25  2.462688E+04  4.096832E+04  1.130659E+05 -3.063264E+04  4.179221E+03 -2.949468E+04
        49  26  2.671124E+04  7.655653E+04  1.179282E+05 -3.427670E+04  6.544568E+03  2.099817E+04
        49  27  5.312362E+04  1.246858E+05  1.617237E+05 -4.842635E+04  8.549771E+03  7.149331E+04
        50   1 -3.480208E+04 -1.631571E+05  1.337080E+05 -7.805087E+04 -1.005113E+04 -1.015273E+05
        50   2  3.833617E+04 -2.530010E+05  2.358971E+05  9.920059E+04 -9.024533E+03 -2.359098E+05
        50   3  4.375232E+05 -2.438491E+05  5.071612E+05  2.672925E+05 -1.701401E+03 -3.702499E+05
        50   4  4.691537E+03  4.923032E+03  1.652756E+05 -3.866582E+04 -1.007626E+04 -9.743851E+04
        50   5  8.974836E+04 -4.535379E+04  2.782191E+05 -3.294722E+04 -8.948864E+03 -2.414901E+05
        50   6  5.023598E+05  4.939086E+03  5.669032E+05 -3.640007E+04 -1.451616E+03 -3.855104E+05
        50   7  4.418944E+04  1.730339E+05  1.968429E+05  7.301733E+02 -1.010087E+04 -9.334865E+04
        50   8  1.412232E+05  1.623717E+05  3.205481E+05 -1.651402E+05 -8.870837E+03 -2.470722E+05
        50   9  5.675380E+05  2.539818E+05  6.266910E+05 -3.402156E+05 -1.186973E+03 -4.007771E+05
        50  10 -3.480496E+04 -1.631682E+05  1.336884E+05 -7.805170E+04 -5.738435E-09 -4.316774E-08
        50  11  3.832114E+04 -2.530608E+05  2.357923E+05  9.919888E+04 -5.022987E-10 -2.160700E-08
        50  12  4.374864E+05 -2.439963E+05  5.069035E+05  2.672920E+05  1.457571E-09  1.811269E-09
        50  13  4.688880E+03  4.912811E+03  1.652576E+05 -3.866662E+04 -1.332270E-08  1.336841E-09
        50  14  8.973262E+04 -4.541642E+04  2.781093E+05 -3.294896E+04 -4.722478E-09  3.365966E-10
        50  15  5.023199E+05  4.779562E+03  5.666239E+05 -3.640052E+04 -1.064296E-09  4.432446E-10
        50  16  4.418699E+04  1.730245E+05  1.968264E+05  7.294141E+02 -1.851107E-09  4.233078E-08
        50  17  1.412067E+05  1.623062E+05  3.204333E+05 -1.651419E+05 -7.251800E-10  2.502687E-08
        50  18  5.674949E+05  2.538094E+05  6.263892E+05 -3.402160E+05  3.433829E-09 -2.395936E-09
        50  19 -3.480208E+04 -1.631571E+05  1.337080E+05 -7.805087E+04  1.005113E+04  1.015273E+05
        50  20  3.833617E+04 -2.530010E+05  2.358971E+05  9.920059E+04  9.024533E+03  2.359098E+05
        50  21  4.375232E+05 -2.438491E+05  5.071612E+05  2.672925E+05  1.701401E+03  3.702499E+05
        50  22  4.691537E+03  4.923032E+03  1.652756E+05 -3.866582E+04  1.007626E+04  9.743851E+04
        50  23  8.974836E+04 -4.535379E+04  2.782191E+05 -3.294722E+04  8.948864E+03  2.414901E+05
        50  24  5.023598E+05  4.939086E+03  5.669032E+05 -3.640007E+04  1.451616E+03  3.855104E+05
        50  25  4.418944E+04  1.730339E+05  1.968429E+05  7.301733E+02  1.010087E+04  9.334865E+04
        50  26  1.412232E+05  1.623717E+05  3.205481E+05 -1.651402E+05  8.870837E+03  2.470722E+05
        50  27  5.675380E+05  2.539818E+05  6.266910E+05 -3.402156E+05  1.186973E+03  4.007771E+05
        51   1 -5.234355E+06 -1.610655E+06 -9.688159E+05 -1.823981E+06 -3.756186E+05 -1.253893E+05
        51   2 -5.102380E+06 -1.037032E+06 -6.123268E+05 -1.851720E+06 -2.469677E+05 -4.214080E+04
        51   3 -5.129920E+06 -1.030451E+06 -5.017317E+05 -1.801931E+06 -1.053877E+05  7.089127E+03
        51   4 -3.803977E+06 -9.559582E+05 -5.543722E+05 -1.320484E+06 -3.562444E+05 -1.181162E+05
        51   5 -3.696523E+06 -4.733546E+05 -2.302625E+05 -1.435200E+06 -2.417386E+05 -4.018440E+04
        51   6 -3.745307E+06 -5.542644E+05 -1.403289E+05 -1.472515E+06 -1.143270E+05  3.718625E+03
        51   7 -2.371592E+06 -3.008643E+05 -1.401320E+05 -8.158425E+05 -3.368200E+05 -1.108152E+05
        51   8 -2.288745E+06  9.050768E+04  1.516209E+05 -1.017798E+06 -2.364960E+05 -3.822215E+04
        51   9 -2.358833E+06 -7.804142E+04  2.209148E+05 -1.142467E+06 -1.232882E+05  3.416110E+02
        51  10 -5.234512E+06 -1.610710E+06 -9.691134E+05 -1.824019E+06  1.147468E-09 -5.198594E-11
        51  11 -5.102446E+06 -1.037051E+06 -6.124458E+05 -1.851728E+06 -4.517331E-09  3.442145E-10
        51  12 -5.129932E+06 -1.030454E+06 -5.017528E+05 -1.801930E+06  1.731396E-09 -6.624375E-10
        51  13 -3.804118E+06 -9.560076E+05 -5.546388E+05 -1.320518E+06  1.534604E-09 -8.649835E-10
        51  14 -3.696586E+06 -4.733722E+05 -2.303761E+05 -1.435208E+06 -4.024324E-09 -1.764905E-09
        51  15 -3.745321E+06 -5.542679E+05 -1.403537E+05 -1.472515E+06 -2.162923E-09 -1.016318E-09
        51  16 -2.371718E+06 -3.009082E+05 -1.403693E+05 -8.158726E+05 -1.232913E-09  3.174738E-10
        51  17 -2.288805E+06  9.049100E+04  1.515126E+05 -1.017806E+06  4.637277E-09 -1.047484E-09
        51  18 -2.358850E+06 -7.804551E+04  2.208861E+05 -1.142467E+06  2.236301E-09 -1.002817E-09
        51  19 -5.234355E+06 -1.610655E+06 -9.688159E+05 -1.823981E+06  3.756186E+05  1.253893E+05
        51  20 -5.102380E+06 -1.037032E+06 -6.123268E+05 -1.851720E+06  2.469677E+05  4.214080E+04
        51  21 -5.129920E+06 -1.030451E+06 -5.017317E+05 -1.801931E+06  1.053877E+05 -7.089127E+03
        51  22 -3.803977E+06 -9.559582E+05 -5.543722E+05 -1.320484E+06  3.562444E+05  1.181162E+05
        51  23 -3.696523E+06 -4.733546E+05 -2.302625E+05 -1.435200E+06  2.417386E+05  4.018440E+04
        51  24 -3.745307E+06 -5.542644E+05 -1.403289E+05 -1.472515E+06  1.143270E+05 -3.718625E+03
        51  25 -2.371592E+06 -3.008643E+05 -1.401320E+05 -8.158425E+05  3.368200E+05  1.108152E+05
        51  26 -2.288745E+06  9.050768E+04  1.516209E+05 -1.017798E+06  2.364960E+05  3.822215E+04
        51  27 -2.358833E+06 -7.804142E+04  2.209148E+05 -1.142467E+06  1.232882E+05 -3.416110E+02
        52   1 -4.905169E+06 -1.076865E+06 -4.338788E+05 -1.778150E+06 -9.158451E+04  4.095495E+03
        52   2 -4.821481E+06 -9.391016E+05 -3.435426E+05 -1.716692E+06 -6.127874E+04  1.395683E+04
        52   3 -4.691937E+06 -9.324646E+05 -2.916284E+05 -1.720270E+06 -2.965005E+04  2.028501E+04
        52   4 -3.723329E+06 -6.181487E+05 -1.145721E+05 -1.443627E+06 -9.151920E+04  4.112777E+03
        52   5 -3.742974E+06 -5.290395E+05 -5.437196E+04 -1.419997E+06 -6.265766E+04  1.343392E+04
        52   6 -3.716445E+06 -5.706914E+05 -3.138380E+04 -1.461409E+06 -3.247986E+04  1.922172E+04
        52   7 -2.540128E+06 -1.593273E+05  2.046101E+05 -1.108516E+06 -9.145362E+04  4.130176E+03
        52   8 -2.663337E+06 -1.189028E+05  2.346962E+05 -1.122831E+06 -6.403916E+04  1.291003E+04
        52   9 -2.740031E+06 -2.088699E+05  2.287776E+05 -1.202181E+06 -3.531458E+04  1.815666E+04
        52  10 -4.905178E+06 -1.076867E+06 -4.338947E+05 -1.778150E+06 -1.320820E-09 -1.226304E-09
        52  11 -4.821485E+06 -9.391029E+05 -3.435501E+05 -1.716691E+06  6.040930E-09  3.321228E-10
        52  12 -4.691938E+06 -9.324653E+05 -2.916308E+05 -1.720269E+06  1.233932E-09  3.263226E-10
        52  13 -3.723338E+06 -6.181510E+05 -1.145880E+05 -1.443626E+06 -1.405832E-09 -1.390450E-09
        52  14 -3.742979E+06 -5.290408E+05 -5.437971E+04 -1.419996E+06 -3.459729E-10  1.772376E-10
        52  15 -3.716446E+06 -5.706921E+05 -3.138648E+04 -1.461408E+06  3.105299E-09 -3.301185E-10
        52  16 -2.540137E+06 -1.593295E+05  2.045943E+05 -1.108515E+06  1.999421E-09 -3.808230E-10
        52  17 -2.663341E+06 -1.189041E+05  2.346882E+05 -1.122831E+06 -8.607876E-09  2.092988E-10
        52  18 -2.740033E+06 -2.088706E+05  2.287747E+05 -1.202181E+06 -3.660980E-09 -7.706947E-10
        52  19 -4.905169E+06 -1.076865E+06 -4.338788E+05 -1.778150E+06  9.158451E+04 -4.095495E+03
        52  20 -4.821481E+06 -9.391016E+05 -3.435426E+05 -1.716692E+06  6.127874E+04 -1.395683E+04
        52  21 -4.691937E+06 -9.324646E+05 -2.916284E+05 -1.720270E+06  2.965005E+04 -2.028501E+04
        52  22 -3.723329E+06 -6.181487E+05 -1.145721E+05 -1.443627E+06  9.151920E+04 -4.112777E+03
        52  23 -3.742974E+06 -5.290395E+05 -5.437196E+04 -1.419997E+06  6.265766E+04 -1.343392E+04
        52  24 -3.716445E+06 -5.706914E+05 -3.138380E+04 -1.461409E+06  3.247986E+04 -1.922172E+04
        52  25 -2.540128E+06 -1.593273E+05  2.046101E+05 -1.108516E+06  9.145362E+04 -4.130176E+03
        52  26 -2.663337E+06 -1.189028E+05  2.346962E+05 -1.122831E+06  6.403916E+04 -1.291003E+04
        52  27 -2.740031E+06 -2.088699E+05  2.287776E+05 -1.202181E+06  3.531458E+04 -1.815666E+04
        53   1 -4.480338E+06 -8.711595E+05 -2.301845E+05 -1.670600E+06 -2.464476E+04  1.824802E+04
        53   2 -4.390488E+06 -7.730879E+05 -1.836366E+05 -1.588199E+06 -1.604723E+04  1.571871E+04
        53   3 -4.220096E+06 -7.655387E+05 -1.438958E+05 -1.599937E+06 -7.242503E+03  1.261154E+04
        53   4 -3.711372E+06 -5.805753E+05 -2.470355E+04 -1.460762E+06 -2.667609E+04  1.748557E+04
        53   5 -3.751230E+06 -5.324448E+05 -1.271727E+04 -1.414766E+06 -1.831534E+04  1.486976E+04
        53   6 -3.710516E+06 -5.747794E+05 -7.341380E+03 -1.462910E+06 -9.749036E+03  1.167583E+04
        53   7 -2.941834E+06 -2.899559E+05  1.807249E+05 -1.250689E+06 -2.871020E+04  1.672208E+04
        53   8 -3.111576E+06 -2.917777E+05  1.581661E+05 -1.241170E+06 -2.058602E+04  1.401984E+04
        53   9 -3.200684E+06 -3.840052E+05  1.291905E+05 -1.325780E+06 -1.225785E+04  1.073929E+04
        53  10 -4.480339E+06 -8.711600E+05 -2.301862E+05 -1.670600E+06 -7.631712E-10 -1.208149E-09
        53  11 -4.390488E+06 -7.730882E+05 -1.836375E+05 -1.588198E+06  3.322857E-09  3.919523E-10
        53  12 -4.220096E+06 -7.655389E+05 -1.438962E+05 -1.599937E+06  1.637403E-09  1.920702E-09
        53  13 -3.711373E+06 -5.805759E+05 -2.470546E+04 -1.460762E+06 -2.640559E-10 -1.186480E-09
        53  14 -3.751231E+06 -5.324451E+05 -1.271831E+04 -1.414765E+06  3.040396E-09  6.349000E-10
        53  15 -3.710516E+06 -5.747795E+05 -7.341814E+03 -1.462910E+06  1.763840E-09  4.314920E-10
        53  16 -2.941835E+06 -2.899564E+05  1.807228E+05 -1.250689E+06 -1.014136E-09 -1.015864E-09
        53  17 -3.111577E+06 -2.917780E+05  1.581650E+05 -1.241170E+06  1.640516E-09  6.006929E-10
        53  18 -3.200684E+06 -3.840054E+05  1.291900E+05 -1.325780E+06  2.788464E-09  8.662092E-10
        53  19 -4.480338E+06 -8.711595E+05 -2.301845E+05 -1.670600E+06  2.464476E+04 -1.824802E+04
        53  20 -4.390488E+06 -7.730879E+05 -1.836366E+05 -1.588199E+06  1.604723E+04 -1.571871E+04
        53  21 -4.220096E+06 -7.655387E+05 -1.438958E+05 -1.599937E+06  7.242503E+03 -1.261154E+04
        53  22 -3.711372E+06 -5.805753E+05 -2.470355E+04 -1.460762E+06  2.667609E+04 -1.748557E+04
        53  23 -3.751230E+06 -5.324448E+05 -1.271727E+04 -1.414766E+06  1.831534E+04 -1.486976E+04
        53  24 -3.710516E+06 -5.747794E+05 -7.341380E+03 -1.462910E+06  9.749036E+03 -1.167583E+04
        53  25 -2.941834E+06 -2.899559E+05  1.807249E+05 -1.250689E+06  2.871020E+04 -1.672208E+04
        53  26 -3.111576E+06 -2.917777E+05  1.581661E+05 -1.241170E+06  2.058602E+04 -1.401984E+04
        53  27 -3.200684E+06 -3.840052E+05  1.291905E+05 -1.325780E+06  1.225785E+04 -1.073929E+04
        54   1 -3.991359E+06 -6.829762E+05 -8.079836E+04 -1.540474E+06 -4.962533E+03  9.578618E+03
        54   2 -3.895749E+06 -5.850348E+05 -4.172882E+04 -1.451264E+06 -9.228638E+02  4.488356E+03
        54   3 -3.711606E+06 -5.772943E+05 -4.348400E+03 -1.464769E+06  3.148879E+03 -6.936540E+02
        54   4 -3.709005E+06 -5.769251E+05 -5.859237E+03 -1.463969E+06 -7.403253E+03  8.668495E+03
        54   5 -3.753217E+06 -5.315191E+05 -3.656565E+03 -1.412722E+06 -3.401873E+03  3.564430E+03
        54   6 -3.708911E+06 -5.763051E+05 -3.110375E+03 -1.464197E+06  6.310687E+02 -1.631456E+03
        54   7 -3.426573E+06 -4.708690E+05  6.907310E+04 -1.387433E+06 -9.845202E+03  7.757913E+03
        54   8 -3.610667E+06 -4.780024E+05  3.441377E+04 -1.374173E+06 -5.881500E+03  2.640274E+03
        54   9 -3.706215E+06 -5.753159E+05 -1.872330E+03 -1.463624E+06 -1.886730E+03 -2.569252E+03
        54  10 -3.991359E+06 -6.829763E+05 -8.079858E+04 -1.540474E+06 -5.086814E-09  1.629213E-09
        54  11 -3.895749E+06 -5.850349E+05 -4.172886E+04 -1.451264E+06 -1.816678E-09  2.296715E-09
        54  12 -3.711606E+06 -5.772943E+05 -4.348420E+03 -1.464769E+06  1.288165E-09 -7.821193E-10
        54  13 -3.709005E+06 -5.769252E+05 -5.859481E+03 -1.463969E+06 -1.607868E-09 -1.692496E-10
        54  14 -3.753217E+06 -5.315191E+05 -3.656611E+03 -1.412722E+06 -4.642653E-09 -2.913981E-10
        54  15 -3.708911E+06 -5.763051E+05 -3.110381E+03 -1.464197E+06 -1.815201E-09  3.798167E-10
        54  16 -3.426573E+06 -4.708691E+05  6.907280E+04 -1.387433E+06  3.043663E-09  2.226381E-09
        54  17 -3.610667E+06 -4.780024E+05  3.441369E+04 -1.374173E+06  3.163693E-10  2.432935E-09
        54  18 -3.706215E+06 -5.753159E+05 -1.872349E+03 -1.463624E+06  2.457719E-09  7.475826E-10
        54  19 -3.991359E+06 -6.829762E+05 -8.079836E+04 -1.540474E+06  4.962533E+03 -9.578618E+03
        54  20 -3.895749E+06 -5.850348E+05 -4.172882E+04 -1.451264E+06  9.228638E+02 -4.488356E+03
        54  21 -3.711606E+06 -5.772943E+05 -4.348400E+03 -1.464769E+06 -3.148879E+03  6.936540E+02
        54  22 -3.709005E+06 -5.769251E+05 -5.859237E+03 -1.463969E+06  7.403253E+03 -8.668495E+03
        54  23 -3.753217E+06 -5.315191E+05 -3.656565E+03 -1.412722E+06  3.401873E+03 -3.564430E+03
        54  24 -3.708911E+06 -5.763051E+05 -3.110375E+03 -1.464197E+06 -6.310687E+02  1.631456E+03
        54  25 -3.426573E+06 -4.708690E+05  6.907310E+04 -1.387433E+06  9.845202E+03 -7.757913E+03
        54  26 -3.610667E+06 -4.780024E+05  3.441377E+04 -1.374173E+06  5.881500E+03 -2.640274E+03
        54  27 -3.706215E+06 -5.753159E+05 -1.872330E+03 -1.463624E+06  1.886730E+03  2.569252E+03
        55   1 -3.479291E+06 -4.896357E+05  5.872463E+04 -1.401806E+06  4.953186E+03 -3.962692E+03
        55   2 -3.385710E+06 -3.941467E+05  9.374831E+04 -1.313954E+06  9.196210E+03 -9.012501E+03
        55   3 -3.205132E+06 -3.873311E+05  1.269461E+05 -1.326708E+06  1.337065E+04 -1.385940E+04
        55   4 -3.709259E+06 -5.758801E+05 -3.201149E+03 -1.463771E+06  2.436195E+03 -4.900492E+03
        55   5 -3.752816E+06 -5.320067E+05 -4.289769E+03 -1.413288E+06  6.763450E+03 -9.920283E+03
        55   6 -3.709408E+06 -5.768298E+05 -7.270925E+03 -1.463424E+06  1.102157E+04 -1.473722E+04
        55   7 -3.939177E+06 -6.621224E+05 -6.513212E+04 -1.525716E+06 -7.978638E+01 -5.837918E+03
        55   8 -4.119794E+06 -6.698597E+05 -1.023403E+05 -1.512570E+06  4.332260E+03 -1.082748E+04
        55   9 -4.213441E+06 -7.663147E+05 -1.415109E+05 -1.600041E+06  8.674574E+03 -1.561425E+04
        55  10 -3.479291E+06 -4.896357E+05  5.872456E+04 -1.401806E+06  3.045481E-09  2.071862E-09
        55  11 -3.385710E+06 -3.941469E+05  9.374800E+04 -1.313954E+06  6.796253E-09  5.932932E-09
        55  12 -3.205132E+06 -3.873313E+05  1.269454E+05 -1.326708E+06  8.473403E-10  2.145043E-09
        55  13 -3.709259E+06 -5.758802E+05 -3.201205E+03 -1.463771E+06  1.013769E-09  4.967533E-11
        55  14 -3.752816E+06 -5.320068E+05 -4.290039E+03 -1.413288E+06  4.965007E-09  4.959467E-09
        55  15 -3.709409E+06 -5.768301E+05 -7.271561E+03 -1.463424E+06 -5.620303E-09  1.765474E-09
        55  16 -3.939178E+06 -6.621224E+05 -6.513218E+04 -1.525716E+06 -2.238214E-09  2.215336E-09
        55  17 -4.119794E+06 -6.698599E+05 -1.023406E+05 -1.512569E+06 -1.592558E-09 -4.303066E-10
        55  18 -4.213441E+06 -7.663150E+05 -1.415115E+05 -1.600041E+06  2.883779E-09  1.910132E-09
        55  19 -3.479291E+06 -4.896357E+05  5.872463E+04 -1.401806E+06 -4.953186E+03  3.962692E+03
        55  20 -3.385710E+06 -3.941467E+05  9.374831E+04 -1.313954E+06 -9.196210E+03  9.012501E+03
        55  21 -3.205132E+06 -3.873311E+05  1.269461E+05 -1.326708E+06 -1.337065E+04  1.385940E+04
        55  22 -3.709259E+06 -5.758801E+05 -3.201149E+03 -1.463771E+06 -2.436195E+03  4.900492E+03
        55  23 -3.752816E+06 -5.320067E+05 -4.289769E+03 -1.413288E+06 -6.763450E+03  9.920283E+03
        55  24 -3.709408E+06 -5.768298E+05 -7.270925E+03 -1.463424E+06 -1.102157E+04  1.473722E+04
        55  25 -3.939177E+06 -6.621224E+05 -6.513212E+04 -1.525716E+06  7.978638E+01  5.837918E+03
        55  26 -4.119794E+06 -6.698597E+05 -1.023403E+05 -1.512570E+06 -4.332260E+03  1.082748E+04
        55  27 -4.213441E+06 -7.663147E+05 -1.415109E+05 -1.600041E+06 -8.674574E+03  1.561425E+04
        56   1 -2.988736E+06 -3.028734E+05  1.841969E+05 -1.266795E+06  1.600309E+04 -1.661038E+04
        56   2 -2.905189E+06 -2.154670E+05  2.094985E+05 -1.186752E+06  2.595699E+04 -1.896070E+04
        56   3 -2.746306E+06 -2.154890E+05  2.266895E+05 -1.194433E+06  3.566586E+04 -2.061710E+04
        56   4 -3.711690E+06 -5.737076E+05 -9.215506E+03 -1.461666E+06  1.358645E+04 -1.751496E+04
        56   5 -3.749870E+06 -5.336581E+05 -1.620895E+04 -1.416423E+06  2.382307E+04 -1.976236E+04
        56   6 -3.712786E+06 -5.811092E+05 -3.154596E+04 -1.458916E+06  3.381284E+04 -2.131602E+04
        56   7 -4.434132E+06 -8.445100E+05 -2.026719E+05 -1.656330E+06  1.117294E+04 -1.841839E+04
        56   8 -4.593856E+06 -8.518060E+05 -2.419784E+05 -1.645811E+06  2.169236E+04 -2.056283E+04
        56   9 -4.678364E+06 -9.466734E+05 -2.898646E+05 -1.723027E+06  3.196297E+04 -2.201375E+04
        56  10 -2.988737E+06 -3.028737E+05  1.841959E+05 -1.266795E+06 -3.634418E-09 -1.094749E-09
        56  11 -2.905190E+06 -2.154676E+05  2.094965E+05 -1.186752E+06  2.322292E-09  1.730906E-09
        56  12 -2.746307E+06 -2.154898E+05  2.266863E+05 -1.194432E+06  1.719404E-09  1.917774E-09
        56  13 -3.711691E+06 -5.737080E+05 -9.216428E+03 -1.461666E+06 -6.294909E-09  1.340198E-09
        56  14 -3.749870E+06 -5.336587E+05 -1.621075E+04 -1.416423E+06  8.093771E-11 -8.514880E-10
        56  15 -3.712787E+06 -5.811100E+05 -3.154896E+04 -1.458916E+06 -2.477388E-09  1.272309E-09
        56  16 -4.434132E+06 -8.445104E+05 -2.026728E+05 -1.656330E+06  2.815578E-09  1.196161E-09
        56  17 -4.593857E+06 -8.518066E+05 -2.419801E+05 -1.645810E+06 -1.577192E-09  1.747803E-09
        56  18 -4.678366E+06 -9.466741E+05 -2.898674E+05 -1.723026E+06 -3.056871E-09  1.950001E-10
        56  19 -2.988736E+06 -3.028734E+05  1.841969E+05 -1.266795E+06 -1.600309E+04  1.661038E+04
        56  20 -2.905189E+06 -2.154670E+05  2.094985E+05 -1.186752E+06 -2.595699E+04  1.896070E+04
        56  21 -2.746306E+06 -2.154890E+05  2.266895E+05 -1.194433E+06 -3.566586E+04  2.061710E+04
        56  22 -3.711690E+06 -5.737076E+05 -9.215506E+03 -1.461666E+06 -1.358645E+04  1.751496E+04
        56  23 -3.749870E+06 -5.336581E+05 -1.620895E+04 -1.416423E+06 -2.382307E+04  1.976236E+04
        56  24 -3.712786E+06 -5.811092E+05 -3.154596E+04 -1.458916E+06 -3.381284E+04  2.131602E+04
        56  25 -4.434132E+06 -8.445100E+05 -2.026719E+05 -1.656330E+06 -1.117294E+04  1.841839E+04
        56  26 -4.593856E+06 -8.518060E+05 -2.419784E+05 -1.645811E+06 -2.169236E+04  2.056283E+04
        56  27 -4.678364E+06 -9.466734E+05 -2.898646E+05 -1.723027E+06 -3.196297E+04  2.201375E+04
        57   1 -2.561175E+06 -1.393912E+05  2.683046E+05 -1.152264E+06  4.348628E+04 -2.133097E+04
        57   2 -2.492412E+06 -5.399076E+04  2.645625E+05 -1.078198E+06  7.984820E+04 -1.263130E+04
        57   3 -2.391572E+06 -1.079891E+05  2.145438E+05 -1.055674E+06  1.147951E+05 -1.299627E+02
        57   4 -3.719145E+06 -5.686750E+05 -4.012420E+04 -1.459979E+06  4.078821E+04 -2.234903E+04
        57   5 -3.739409E+06 -5.290325E+05 -6.955053E+04 -1.422825E+06  7.869477E+04 -1.307269E+04
        57   6 -3.727976E+06 -6.292104E+05 -1.465584E+05 -1.437215E+06  1.151794E+05  5.247630E+00
        57   7 -4.875818E+06 -9.978907E+05 -3.486699E+05 -1.767180E+06  3.809565E+04 -2.336510E+04
        57   8 -4.984898E+06 -1.003973E+06 -4.038006E+05 -1.766821E+06  7.754378E+04 -1.351316E+04
        57   9 -5.062644E+06 -1.150292E+06 -5.078200E+05 -1.817999E+06  1.155625E+05  1.399875E+02
        57  10 -2.561178E+06 -1.393922E+05  2.683002E+05 -1.152263E+06 -2.442983E-09  1.360588E-09
        57  11 -2.492419E+06 -5.399264E+04  2.645502E+05 -1.078197E+06 -1.611009E-09  1.188005E-10
        57  12 -2.391587E+06 -1.079926E+05  2.145190E+05 -1.055674E+06 -2.007949E-09 -6.680502E-10
        57  13 -3.719147E+06 -5.686760E+05 -4.012827E+04 -1.459979E+06 -2.624092E-09  4.957692E-10
        57  14 -3.739416E+06 -5.290344E+05 -6.956255E+04 -1.422824E+06 -1.958291E-09 -1.837284E-09
        57  15 -3.727990E+06 -6.292140E+05 -1.465835E+05 -1.437215E+06  4.098870E-10 -7.710164E-10
        57  16 -4.875820E+06 -9.978917E+05 -3.486737E+05 -1.767179E+06 -3.145620E-09  5.633769E-10
        57  17 -4.984905E+06 -1.003975E+06 -4.038123E+05 -1.766821E+06 -7.494632E-10 -1.094339E-09
        57  18 -5.062659E+06 -1.150295E+06 -5.078453E+05 -1.817999E+06  2.307209E-09  4.637017E-10
        57  19 -2.561175E+06 -1.393912E+05  2.683046E+05 -1.152264E+06 -4.348628E+04  2.133097E+04
        57  20 -2.492412E+06 -5.399076E+04  2.645625E+05 -1.078198E+06 -7.984820E+04  1.263130E+04
        57  21 -2.391572E+06 -1.079891E+05  2.145438E+05 -1.055674E+06 -1.147951E+05  1.299627E+02
        57  22 -3.719145E+06 -5.686750E+05 -4.012420E+04 -1.459979E+06 -4.078821E+04  2.234903E+04
        57  23 -3.739409E+06 -5.290325E+05 -6.955053E+04 -1.422825E+06 -7.869477E+04  1.307269E+04
        57  24 -3.727976E+06 -6.292104E+05 -1.465584E+05 -1.437215E+06 -1.151794E+05 -5.247630E+00
        57  25 -4.875818E+06 -9.978907E+05 -3.486699E+05 -1.767180E+06 -3.809565E+04  2.336510E+04
        57  26 -4.984898E+06 -1.003973E+06 -4.038006E+05 -1.766821E+06 -7.754378E+04  1.351316E+04
        57  27 -5.062644E+06 -1.150292E+06 -5.078200E+05 -1.817999E+06 -1.155625E+05 -1.399875E+02
        58   1 -2.226686E+06 -3.057373E+04  2.172555E+05 -1.118409E+06  1.527298E+05  6.100046E+03
        58   2 -2.162602E+06  1.589944E+05  1.187759E+05 -9.833276E+05  3.000439E+05  5.855629E+04
        58   3 -2.320073E+06 -3.437958E+05 -2.669432E+05 -7.212313E+05  4.336485E+05  1.470808E+05
        58   4 -3.755389E+06 -5.483576E+05 -1.795520E+05 -1.475158E+06  1.435679E+05  2.638974E+03
        58   5 -3.680580E+06 -4.567890E+05 -2.945033E+05 -1.441209E+06  3.058460E+05  6.072903E+04
        58   6 -3.830956E+06 -1.061613E+06 -7.091744E+05 -1.280081E+06  4.543950E+05  1.548696E+05
        58   7 -5.281834E+06 -1.066109E+06 -5.765522E+05 -1.831162E+06  1.344305E+05 -8.150712E+02
        58   8 -5.196313E+06 -1.072336E+06 -7.079915E+05 -1.898040E+06  3.116315E+05  6.289451E+04
        58   9 -5.339566E+06 -1.778889E+06 -1.151627E+06 -1.837565E+06  4.750842E+05  1.626245E+05
        58  10 -2.226711E+06 -3.058006E+04  2.172114E+05 -1.118409E+06  2.018550E-09  2.436013E-09
        58  11 -2.162700E+06  1.589664E+05  1.185996E+05 -9.833418E+05  1.111388E-09  7.146953E-09
        58  12 -2.320282E+06 -3.438698E+05 -2.673389E+05 -7.212828E+05  1.347804E-09  1.299550E-09
        58  13 -3.755412E+06 -5.483632E+05 -1.795910E+05 -1.475158E+06  8.231860E-10  2.620104E-09
        58  14 -3.680682E+06 -4.568183E+05 -2.946872E+05 -1.441224E+06  8.244704E-10 -3.008780E-09
        58  15 -3.831186E+06 -1.061695E+06 -7.096105E+05 -1.280138E+06  3.500612E-09  1.210956E-09
        58  16 -5.281854E+06 -1.066114E+06 -5.765864E+05 -1.831162E+06  2.070432E-10 -1.429395E-09
        58  17 -5.196419E+06 -1.072366E+06 -7.081832E+05 -1.898056E+06 -2.772875E-09  4.087176E-09
        58  18 -5.339817E+06 -1.778979E+06 -1.152105E+06 -1.837628E+06  1.626359E-09  1.332317E-09
        58  19 -2.226686E+06 -3.057373E+04  2.172555E+05 -1.118409E+06 -1.527298E+05 -6.100046E+03
        58  20 -2.162602E+06  1.589944E+05  1.187759E+05 -9.833276E+05 -3.000439E+05 -5.855629E+04
        58  21 -2.320073E+06 -3.437958E+05 -2.669432E+05 -7.212313E+05 -4.336485E+05 -1.470808E+05
        58  22 -3.755389E+06 -5.483576E+05 -1.795520E+05 -1.475158E+06 -1.435679E+05 -2.638974E+03
        58  23 -3.680580E+06 -4.567890E+05 -2.945033E+05 -1.441209E+06 -3.058460E+05 -6.072903E+04
        58  24 -3.830956E+06 -1.061613E+06 -7.091744E+05 -1.280081E+06 -4.543950E+05 -1.548696E+05
        58  25 -5.281834E+06 -1.066109E+06 -5.765522E+05 -1.831162E+06 -1.344305E+05  8.150712E+02
        58  26 -5.196313E+06 -1.072336E+06 -7.079915E+05 -1.898040E+06 -3.116315E+05 -6.289451E+04
        58  27 -5.339566E+06 -1.778889E+06 -1.151627E+06 -1.837565E+06 -4.750842E+05 -1.626245E+05
        59   1  1.714210E+05 -7.485007E+05  1.615601E+05  3.349690E+03  7.536301E+03 -8.119454E+03
        59   2  1.954359E+05 -7.586858E+05  1.688388E+05  3.239042E+03  2.302906E+04 -6.229300E+03
        59   3  1.880152E+05 -7.762410E+05  1.672078E+05 -7.849720E+03  2.251138E+04 -4.381198E+03
        59   4 -2.454704E+04 -1.533356E+06 -3.265706E+04 -2.485358E+03  7.564538E+03 -1.881053E+04
        59   5  3.989070E+03 -1.529021E+06 -1.715165E+04  3.037150E+03  2.304147E+04 -9.634759E+03
        59   6 -1.986198E+02 -1.533335E+06 -1.563295E+04 -2.419182E+03  2.249919E+04 -5.008291E+02
        59   7 -2.205610E+05 -2.317649E+06 -2.269196E+05 -8.312652E+03  7.592995E+03 -2.948808E+04
        59   8 -1.875013E+05 -2.298813E+06 -2.031847E+05  2.835926E+03  2.305388E+04 -1.303600E+04
        59   9 -1.884544E+05 -2.289904E+06 -1.985148E+05  3.005172E+03  2.248705E+04  3.374819E+03
        59  10  1.714209E+05 -7.485008E+05  1.615598E+05  3.349739E+03 -8.501209E-09  3.695729E-09
        59  11  1.954354E+05 -7.586860E+05  1.688378E+05  3.239157E+03 -1.328515E-09 -5.627529E-09
        59  12  1.880147E+05 -7.762411E+05  1.672068E+05 -7.849641E+03 -2.315825E-09 -6.772628E-09
        59  13 -2.454720E+04 -1.533356E+06 -3.265783E+04 -2.485243E+03 -1.089584E-08  9.374918E-11
        59  14  3.988475E+03 -1.529022E+06 -1.715282E+04  3.037329E+03  4.394392E-09 -3.311153E-09
        59  15 -1.991631E+02 -1.533335E+06 -1.563390E+04 -2.419173E+03 -2.164244E-09 -4.118101E-09
        59  16 -2.205613E+05 -2.317650E+06 -2.269214E+05 -8.312471E+03 -6.382499E-09 -3.021375E-09
        59  17 -1.875019E+05 -2.298813E+06 -2.031860E+05  2.836168E+03  4.098879E-09 -2.899963E-10
        59  18 -1.884549E+05 -2.289905E+06 -1.985157E+05  3.005111E+03 -2.356373E-09  4.799012E-09
        59  19  1.714210E+05 -7.485007E+05  1.615601E+05  3.349690E+03 -7.536301E+03  8.119454E+03
        59  20  1.954359E+05 -7.586858E+05  1.688388E+05  3.239042E+03 -2.302906E+04  6.229300E+03
        59  21  1.880152E+05 -7.762410E+05  1.672078E+05 -7.849720E+03 -2.251138E+04  4.381198E+03
        59  22 -2.454704E+04 -1.533356E+06 -3.265706E+04 -2.485358E+03 -7.564538E+03  1.881053E+04
        59  23  3.989070E+03 -1.529021E+06 -1.715165E+04  3.037150E+03 -2.304147E+04  9.634759E+03
        59  24 -1.986198E+02 -1.533335E+06 -1.563295E+04 -2.419182E+03 -2.249919E+04  5.008291E+02
        59  25 -2.205610E+05 -2.317649E+06 -2.269196E+05 -8.312652E+03 -7.592995E+03  2.948808E+04
        59  26 -1.875013E+05 -2.298813E+06 -2.031847E+05  2.835926E+03 -2.305388E+04  1.303600E+04
        59  27 -1.884544E+05 -2.289904E+06 -1.985148E+05  3.005172E+03 -2.248705E+04 -3.374819E+03
        60   1  1.797960E+05 -8.007499E+05  1.611046E+05 -3.301874E+03  1.995925E+04  3.091925E+03
        60   2  1.794505E+05 -8.174693E+05  1.530675E+05  1.480899E+03  2.053992E+04  1.184641E+04
        60   3  1.602748E+05 -8.395146E+05  1.347306E+05 -9.758448E+03  1.870632E+04  2.058903E+04
        60   4 -2.207231E+03 -1.532633E+06 -1.616683E+04 -3.550066E+03  1.996402E+04  2.260344E+03
        60   5  2.325977E+03 -1.529875E+06 -1.915254E+04  4.437573E+03  2.054036E+04  1.210485E+04
        60   6 -1.217272E+04 -1.532639E+06 -3.320452E+04 -3.598171E+03  1.870128E+04  2.193773E+04
        60   7 -1.842498E+05 -2.264025E+06 -1.934768E+05 -3.797488E+03  1.996879E+04  1.429741E+03
        60   8 -1.748357E+05 -2.241815E+06 -1.914091E+05  7.391339E+03  2.054080E+04  1.236298E+04
        60   9 -1.846554E+05 -2.225324E+06 -2.011743E+05  2.555728E+03  1.869627E+04  2.328492E+04
        60  10  1.797955E+05 -8.007501E+05  1.611038E+05 -3.301923E+03 -2.558231E-09  2.294299E-09
        60  11  1.794500E+05 -8.174695E+05  1.530665E+05  1.480703E+03  3.877859E-09 -6.626175E-09
        60  12  1.602743E+05 -8.395152E+05  1.347292E+05 -9.758758E+03  3.055027E-10 -3.811224E-09
        60  13 -2.207660E+03 -1.532633E+06 -1.616759E+04 -3.550102E+03 -1.317212E-09  6.357165E-11
        60  14  2.325485E+03 -1.529875E+06 -1.915361E+04  4.437372E+03 -1.018273E-09 -4.572104E-09
        60  15 -1.217322E+04 -1.532640E+06 -3.320608E+04 -3.598501E+03  3.231489E-09 -5.446604E-09
        60  16 -1.842502E+05 -2.264025E+06 -1.934776E+05 -3.797511E+03 -2.893515E-09 -1.361461E-09
        60  17 -1.748362E+05 -2.241815E+06 -1.914102E+05  7.391134E+03  1.299565E-09 -1.574246E-09
        60  18 -1.846560E+05 -2.225325E+06 -2.011760E+05  2.555377E+03 -5.626930E-09  1.174035E-09
        60  19  1.797960E+05 -8.007499E+05  1.611046E+05 -3.301874E+03 -1.995925E+04 -3.091925E+03
        60  20  1.794505E+05 -8.174693E+05  1.530675E+05  1.480899E+03 -2.053992E+04 -1.184641E+04
        60  21  1.602748E+05 -8.395146E+05  1.347306E+05 -9.758448E+03 -1.870632E+04 -2.058903E+04
        60  22 -2.207231E+03 -1.532633E+06 -1.616683E+04 -3.550066E+03 -1.996402E+04 -2.260344E+03
        60  23  2.325977E+03 -1.529875E+06 -1.915254E+04  4.437573E+03 -2.054036E+04 -1.210485E+04
        60  24 -1.217272E+04 -1.532639E+06 -3.320452E+04 -3.598171E+03 -1.870128E+04 -2.193773E+04
        60  25 -1.842498E+05 -2.264025E+06 -1.934768E+05 -3.797488E+03 -1.996879E+04 -1.429741E+03
        60  26 -1.748357E+05 -2.241815E+06 -1.914091E+05  7.391339E+03 -2.054080E+04 -1.236298E+04
        60  27 -1.846554E+05 -2.225324E+06 -2.011743E+05  2.555728E+03 -1.869627E+04 -2.328492E+04
        61   1  1.689797E+05 -8.800372E+05  1.195833E+05  6.818232E+03  1.966407E+04  3.055731E+04
        61   2  1.752683E+05 -8.857891E+05  9.196688E+04 -5.877952E+03  1.858080E+04  5.826995E+04
        61   3  4.358757E+04 -9.293868E+05  1.185808E+04 -3.966999E+04  5.487868E+03  8.590938E+04
        61   4  5.107485E+03 -1.540007E+06 -3.971334E+04 -4.484886E+03  1.967666E+04  2.823073E+04
        61   5  1.733060E+04 -1.520634E+06 -6.137233E+04  5.733590E+03  1.856572E+04  6.138450E+04
        61   6 -1.094382E+05 -1.540091E+06 -1.393449E+05 -5.147402E+03  5.441717E+03  9.446561E+04
        61   7 -1.587960E+05 -2.199577E+06 -1.990411E+05 -1.577542E+04  1.968934E+04  2.590660E+04
        61   8 -1.406362E+05 -2.155110E+06 -2.147404E+05  1.733371E+04  1.855075E+04  6.449586E+04
        61   9 -2.624878E+05 -2.150454E+06 -2.905748E+05  2.934163E+04  5.396498E+03  1.030134E+05
        61  10  1.689790E+05 -8.800383E+05  1.195808E+05  6.817748E+03 -1.911542E-09 -1.617992E-10
        61  11  1.752670E+05 -8.857928E+05  9.195984E+04 -5.878825E+03  1.448687E-09 -9.239249E-09
        61  12  4.358556E+04 -9.293947E+05  1.184414E+04 -3.967037E+04  2.980664E-10 -5.824270E-09
        61  13  5.106855E+03 -1.540008E+06 -3.971557E+04 -4.485333E+03 -4.184433E-09 -9.305808E-11
        61  14  1.732922E+04 -1.520638E+06 -6.138007E+04  5.732672E+03 -5.633473E-09 -6.068420E-09
        61  15 -1.094407E+05 -1.540101E+06 -1.393617E+05 -5.147816E+03 -9.018106E-10 -6.899624E-09
        61  16 -1.587966E+05 -2.199578E+06 -1.990431E+05 -1.577583E+04 -3.060548E-09  1.410868E-09
        61  17 -1.406377E+05 -2.155114E+06 -2.147489E+05  1.733274E+04 -3.062444E-09 -1.875689E-09
        61  18 -2.624907E+05 -2.150465E+06 -2.905949E+05  2.934118E+04 -1.558105E-09  2.735672E-09
        61  19  1.689797E+05 -8.800372E+05  1.195833E+05  6.818232E+03 -1.966407E+04 -3.055731E+04
        61  20  1.752683E+05 -8.857891E+05  9.196688E+04 -5.877952E+03 -1.858080E+04 -5.826995E+04
        61  21  4.358757E+04 -9.293868E+05  1.185808E+04 -3.966999E+04 -5.487868E+03 -8.590938E+04
        61  22  5.107485E+03 -1.540007E+06 -3.971334E+04 -4.484886E+03 -1.967666E+04 -2.823073E+04
        61  23  1.733060E+04 -1.520634E+06 -6.137233E+04  5.733590E+03 -1.856572E+04 -6.138450E+04
        61  24 -1.094382E+05 -1.540091E+06 -1.393449E+05 -5.147402E+03 -5.441717E+03 -9.446561E+04
        61  25 -1.587960E+05 -2.199577E+06 -1.990411E+05 -1.577542E+04 -1.968934E+04 -2.590660E+04
        61  26 -1.406362E+05 -2.155110E+06 -2.147404E+05  1.733371E+04 -1.855075E+04 -6.449586E+04
        61  27 -2.624878E+05 -2.150454E+06 -2.905748E+05  2.934163E+04 -5.396498E+03 -1.030134E+05
        62   1  4.881314E+02  1.210720E+02  1.202652E+02  4.459772E+00  1.128192E+00 -3.291799E-01
        62   2  4.876073E+02  1.224536E+02  1.192910E+02 -1.971193E+00  2.538793E+00 -9.053133E-01
        62   3  4.865013E+02  1.218359E+02  1.169190E+02  4.494129E+00  3.949000E+00 -6.196837E-01
        62   4 -1.175851E+00 -1.253846E+00 -2.056424E+00  4.309435E+00  1.104005E+00 -3.291913E-01
        62   5 -8.832015E-01  3.335612E-01 -2.817510E+00 -2.138989E+00  2.535280E+00 -9.053143E-01
        62   6 -1.175902E+00 -8.185848E-02 -4.990603E+00  4.308875E+00  3.966161E+00 -6.196741E-01
        62   7 -4.904828E+02 -1.235797E+02 -1.243781E+02  4.159096E+00  1.079822E+00 -3.292030E-01
        62   8 -4.893734E+02 -1.217864E+02 -1.249260E+02 -2.306787E+00  2.531786E+00 -9.053165E-01
        62   9 -4.888529E+02 -1.219996E+02 -1.269002E+02  4.123619E+00  3.983355E+00 -6.196668E-01
        62  10  4.881314E+02  1.210721E+02  1.202652E+02  4.459089E+00 -1.393627E-06 -1.282266E-07
        62  11  4.876074E+02  1.224542E+02  1.192911E+02 -1.974219E+00 -6.251710E-06 -4.442510E-07
        62  12  4.865015E+02  1.218368E+02  1.169193E+02  4.488766E+00 -1.114952E-05 -5.711723E-07
        62  13 -1.175969E+00 -1.253850E+00 -2.056449E+00  4.309436E+00 -3.549629E-06  7.939582E-08
        62  14 -8.833099E-01  3.335957E-01 -2.817525E+00 -2.138990E+00 -1.573960E-05  3.514666E-07
        62  15 -1.176021E+00 -8.186534E-02 -4.990628E+00  4.308876E+00 -2.793446E-05  6.241099E-07
        62  16 -4.904829E+02 -1.235798E+02 -1.243781E+02  4.159781E+00 -1.445186E-06 -3.335671E-09
        62  17 -4.893736E+02 -1.217869E+02 -1.249261E+02 -2.303767E+00 -6.338531E-06 -1.372842E-07
        62  18 -4.888532E+02 -1.220005E+02 -1.269005E+02  4.128982E+00 -1.119377E-05 -4.576708E-07
        62  19  4.881314E+02  1.210723E+02  1.202653E+02  4.458406E+00 -1.128195E+00  3.291797E-01
        62  20  4.876075E+02  1.224548E+02  1.192912E+02 -1.977244E+00 -2.538806E+00  9.053125E-01
        62  21  4.865017E+02  1.218378E+02  1.169195E+02  4.483403E+00 -3.949022E+00  6.196825E-01
        62  22 -1.176087E+00 -1.253855E+00 -2.056474E+00  4.309438E+00 -1.104012E+00  3.291915E-01
        62  23 -8.834184E-01  3.336299E-01 -2.817540E+00 -2.138991E+00 -2.535311E+00  9.053150E-01
        62  24 -1.176140E+00 -8.187273E-02 -4.990654E+00  4.308878E+00 -3.966217E+00  6.196753E-01
        62  25 -4.904830E+02 -1.235799E+02 -1.243782E+02  4.160459E+00 -1.079825E+00  3.292030E-01
        62  26 -4.893737E+02 -1.217874E+02 -1.249262E+02 -2.300746E+00 -2.531798E+00  9.053162E-01
        62  27 -4.888535E+02 -1.220015E+02 -1.269007E+02  4.134346E+00 -3.983378E+00  6.196658E-01
        63   1  2.084400E+02  5.224263E+01  4.586851E+01  4.368000E+00  5.013157E+00 -3.899766E-01
        63   2  2.081923E+02  5.251759E+01  4.099832E+01 -2.071515E+00  1.058921E+01 -3.456750E-01
        63   3  2.067904E+02  5.105776E+01  3.206526E+01  4.383804E+00  1.616520E+01 -1.539344E-01
        63   4 -1.302508E+00 -1.920593E-01 -6.561039E+00  4.308626E+00  5.012366E+00 -3.899758E-01
        63   5 -7.250697E-01  2.891384E-01 -1.122558E+01 -2.138597E+00  1.059197E+01 -3.456730E-01
        63   6 -1.302523E+00 -9.650727E-01 -1.995545E+01  4.309012E+00  1.617149E+01 -1.539310E-01
        63   7 -2.110450E+02 -5.262676E+01 -5.899060E+01  4.249252E+00  5.011610E+00 -3.899774E-01
        63   8 -2.096425E+02 -5.193933E+01 -6.344949E+01 -2.205677E+00  1.059474E+01 -3.456725E-01
        63   9 -2.093954E+02 -5.298792E+01 -7.197618E+01  4.234219E+00  1.617780E+01 -1.539283E-01
        63  10  2.084403E+02  5.224362E+01  4.586876E+01  4.362493E+00 -1.149415E-05 -4.869873E-07
        63  11  2.081925E+02  5.251820E+01  4.099848E+01 -2.075170E+00 -7.654554E-06 -2.337103E-07
        63  12  2.067905E+02  5.105802E+01  3.206533E+01  4.381996E+00 -3.798829E-06 -4.386081E-08
        63  13 -1.302414E+00 -1.920510E-01 -6.561019E+00  4.308625E+00 -2.867918E-05  6.392569E-07
        63  14 -7.249826E-01  2.891173E-01 -1.122557E+01 -2.138595E+00 -1.905230E-05  4.124100E-07
        63  15 -1.302436E+00 -9.650951E-01 -1.995544E+01  4.309012E+00 -9.428172E-06  1.857644E-07
        63  16 -2.110452E+02 -5.262776E+01 -5.899084E+01  4.254762E+00 -1.144903E-05 -5.651267E-07
        63  17 -2.096426E+02 -5.194001E+01 -6.344966E+01 -2.202016E+00 -7.582751E-06 -4.478130E-07
        63  18 -2.093955E+02 -5.298825E+01 -7.197625E+01  4.236032E+00 -3.740443E-06 -2.653081E-07
        63  19  2.084406E+02  5.224461E+01  4.586902E+01  4.356985E+00 -5.013180E+00  3.899756E-01
        63  20  2.081927E+02  5.251881E+01  4.099864E+01 -2.078825E+00 -1.058923E+01  3.456745E-01
        63  21  2.067906E+02  5.105827E+01  3.206540E+01  4.380184E+00 -1.616521E+01  1.539343E-01
        63  22 -1.302319E+00 -1.920433E-01 -6.560998E+00  4.308625E+00 -5.012424E+00  3.899771E-01
        63  23 -7.248953E-01  2.890963E-01 -1.122556E+01 -2.138594E+00 -1.059200E+01  3.456738E-01
        63  24 -1.302349E+00 -9.651178E-01 -1.995543E+01  4.309012E+00 -1.617151E+01  1.539314E-01
        63  25 -2.110454E+02 -5.262877E+01 -5.899109E+01  4.260267E+00 -5.011633E+00  3.899763E-01
        63  26 -2.096427E+02 -5.194069E+01 -6.344982E+01 -2.198355E+00 -1.059476E+01  3.456716E-01
        63  27 -2.093955E+02 -5.298858E+01 -7.197633E+01  4.237844E+00 -1.617781E+01  1.539278E-01
        64   1 -7.208874E+01 -1.736873E+01 -4.359006E+01  4.206001E+00  2.034524E+01 -3.097004E-02
        64   2 -7.019260E+01 -1.599530E+01 -6.266095E+01 -2.185093E+00  4.277436E+01  1.275480E-01
        64   3 -7.373493E+01 -2.463907E+01 -9.884129E+01  4.320844E+00  6.520313E+01  3.109401E-01
        64   4 -2.254461E+00  9.005199E-02 -2.613083E+01  4.308060E+00  2.034847E+01 -3.096842E-02
        64   5  4.648337E-01  1.668825E+00 -4.499823E+01 -2.138751E+00  4.277820E+01  1.275495E-01
        64   6 -2.254451E+00 -6.769700E+00 -8.097549E+01  4.311470E+00  6.520758E+01  3.109415E-01
        64   7  6.757977E+01  1.754882E+01 -8.671612E+00  4.410116E+00  2.035171E+01 -3.096703E-02
        64   8  7.112223E+01  1.933294E+01 -2.733552E+01 -2.092406E+00  4.278203E+01  1.275515E-01
        64   9  6.922599E+01  1.109966E+01 -6.310971E+01  4.302097E+00  6.521201E+01  3.109442E-01
        64  10 -7.208867E+01 -1.736867E+01 -4.359003E+01  4.205476E+00 -1.120662E-06  6.044895E-08
        64  11 -7.019262E+01 -1.599556E+01 -6.266101E+01 -2.183056E+00  4.218164E-06  2.514387E-07
        64  12 -7.373503E+01 -2.463964E+01 -9.884143E+01  4.325444E+00  9.559530E-06  4.159066E-07
        64  13 -2.254337E+00  9.003826E-02 -2.613081E+01  4.308059E+00 -2.739758E-06  6.297922E-08
        64  14  4.649537E-01  1.668800E+00 -4.499821E+01 -2.138750E+00  1.060378E-05 -1.347569E-07
        64  15 -2.254334E+00 -6.769725E+00 -8.097548E+01  4.311470E+00  2.396126E-05 -3.336329E-07
        64  16  6.757979E+01  1.754869E+01 -8.671635E+00  4.410646E+00 -1.071996E-06 -1.643581E-07
        64  17  7.112232E+01  1.933311E+01 -2.733547E+01 -2.094444E+00  4.275619E-06 -2.445992E-08
        64  18  6.922616E+01  1.110013E+01 -6.310959E+01  4.297497E+00  9.604985E-06  1.444146E-07
        64  19 -7.208860E+01 -1.736860E+01 -4.359001E+01  4.204954E+00 -2.034524E+01  3.097016E-02
        64  20 -7.019263E+01 -1.599582E+01 -6.266106E+01 -2.181015E+00 -4.277435E+01 -1.275475E-01
        64  21 -7.373513E+01 -2.464021E+01 -9.884155E+01  4.330047E+00 -6.520311E+01 -3.109393E-01
        64  22 -2.254212E+00  9.002446E-02 -2.613078E+01  4.308059E+00 -2.034848E+01  3.096855E-02
        64  23  4.650776E-01  1.668776E+00 -4.499819E+01 -2.138750E+00 -4.277818E+01 -1.275498E-01
        64  24 -2.254207E+00 -6.769747E+00 -8.097545E+01  4.311470E+00 -6.520753E+01 -3.109422E-01
        64  25  6.757981E+01  1.754856E+01 -8.671658E+00  4.411171E+00 -2.035172E+01  3.096670E-02
        64  26  7.112242E+01  1.933328E+01 -2.733542E+01 -2.096480E+00 -4.278202E+01 -1.275516E-01
        64  27  6.922634E+01  1.110062E+01 -6.310945E+01  4.292898E+00 -6.521199E+01 -3.109439E-01
        65   1 -3.567309E+02 -8.629234E+01 -1.927656E+02  3.728286E+00  8.210411E+01  4.217793E-01
        65   2 -3.434304E+02 -7.653052E+01 -2.676961E+02 -2.259761E+00  1.724328E+02  6.314719E-01
        65   3 -3.583964E+02 -1.329685E+02 -4.179749E+02  4.663914E+00  2.627629E+02  8.428361E-01
        65   4 -7.327372E+00  1.058190E+00 -1.054205E+02  4.304771E+00  8.210810E+01  4.217804E-01
        65   5  6.805924E+00  1.102716E+01 -1.801455E+02 -2.139824E+00  1.724369E+02  6.314727E-01
        65   6 -7.327316E+00 -4.520367E+01 -3.302188E+02  4.327299E+00  2.627671E+02  8.428366E-01
        65   7  3.420762E+02  8.840870E+01 -1.807542E+01  4.881253E+00  8.211205E+01  4.217831E-01
        65   8  3.570423E+02  9.858482E+01 -9.259493E+01 -2.019886E+00  1.724409E+02  6.314755E-01
        65   9  3.437418E+02  4.256114E+01 -2.424628E+02  3.990682E+00  2.627712E+02  8.428394E-01
        65  10 -3.567311E+02 -8.629305E+01 -1.927658E+02  3.734413E+00  1.274555E-05  4.867493E-07
        65  11 -3.434306E+02 -7.653138E+01 -2.676964E+02 -2.250960E+00  1.832844E-05  5.763510E-07
        65  12 -3.583967E+02 -1.329695E+02 -4.179753E+02  4.675396E+00  2.390989E-05  6.539432E-07
        65  13 -7.327251E+00  1.058166E+00 -1.054205E+02  4.304771E+00  3.190170E-05 -4.173328E-07
        65  14  6.806020E+00  1.102713E+01 -1.801456E+02 -2.139823E+00  4.584306E-05 -5.114439E-07
        65  15 -7.327262E+00 -4.520371E+01 -3.302189E+02  4.327298E+00  5.978706E-05 -6.049990E-07
        65  16  3.420765E+02  8.840932E+01 -1.807527E+01  4.875133E+00  1.277350E-05  2.189214E-07
        65  17  3.570425E+02  9.858558E+01 -9.259478E+01 -2.028688E+00  1.834952E-05  2.936627E-07
        65  18  3.437421E+02  4.256204E+01 -2.424627E+02  3.979203E+00  2.391921E-05  3.809174E-07
        65  19 -3.567312E+02 -8.629375E+01 -1.927660E+02  3.740538E+00 -8.210408E+01 -4.217784E-01
        65  20 -3.434307E+02 -7.653223E+01 -2.676966E+02 -2.242155E+00 -1.724328E+02 -6.314707E-01
        65  21 -3.583968E+02 -1.329705E+02 -4.179754E+02  4.686875E+00 -2.627628E+02 -8.428348E-01
        65  22 -7.327115E+00  1.058147E+00 -1.054205E+02  4.304771E+00 -8.210803E+01 -4.217813E-01
        65  23  6.806179E+00  1.102711E+01 -1.801455E+02 -2.139823E+00 -1.724368E+02 -6.314738E-01
        65  24 -7.327060E+00 -4.520372E+01 -3.302188E+02  4.327297E+00 -2.627669E+02 -8.428378E-01
        65  25  3.420767E+02  8.840993E+01 -1.807509E+01  4.869007E+00 -8.211202E+01 -4.217827E-01
        65  26  3.570428E+02  9.858635E+01 -9.259452E+01 -2.037488E+00 -1.724409E+02 -6.314749E-01
        65  27  3.437424E+02  4.256298E+01 -2.424623E+02  3.967723E+00 -2.627711E+02 -8.428386E-01
        66   1 -6.644581E+02 -1.493318E+02 -5.832792E+02  1.339974E+00  3.313619E+02  9.757918E-01
        66   2 -5.878395E+02 -8.568921E+01 -8.759972E+02 -1.784915E+00  6.951003E+02  1.316004E+00
        66   3 -6.661127E+02 -4.528854E+02 -1.513198E+03  8.109739E+00  1.058839E+03  1.640361E+00
        66   4 -3.546631E+01  7.917397E+00 -4.260432E+02  4.287647E+00  3.313664E+02  9.757940E-01
        66   5  4.197977E+01  7.176228E+01 -7.185577E+02 -2.151230E+00  6.951047E+02  1.316004E+00
        66   6 -3.546584E+01 -2.952314E+02 -1.355555E+03  4.429434E+00  1.058843E+03  1.640355E+00
        66   7  5.935258E+02  1.651665E+02 -2.688072E+02  7.235323E+00  3.313707E+02  9.757985E-01
        66   8  6.717993E+02  2.292137E+02 -5.611183E+02 -2.517545E+00  6.951090E+02  1.316006E+00
        66   9  5.951814E+02 -1.375773E+02 -1.197912E+03  7.491263E-01  1.058847E+03  1.640352E+00
        66  10 -6.644584E+02 -1.493328E+02 -5.832797E+02  1.353002E+00  2.714112E-05  6.778787E-07
        66  11 -5.878402E+02 -8.569036E+01 -8.759983E+02 -1.769242E+00  3.265685E-05  6.772508E-07
        66  12 -6.661142E+02 -4.528867E+02 -1.513200E+03  8.128054E+00  3.816809E-05  6.530905E-07
        66  13 -3.546630E+01  7.917344E+00 -4.260434E+02  4.287647E+00  6.785733E-05 -6.263967E-07
        66  14  4.197938E+01  7.176213E+01 -7.185586E+02 -2.151230E+00  8.163185E-05 -6.086435E-07
        66  15 -3.546691E+01 -2.952317E+02 -1.355557E+03  4.429432E+00  9.541223E-05 -5.936394E-07
        66  16  5.935260E+02  1.651674E+02 -2.688072E+02  7.222293E+00  2.713971E-05  4.030318E-07
        66  17  6.717991E+02  2.292145E+02 -5.611190E+02 -2.533218E+00  3.265172E-05  3.943323E-07
        66  18  5.951805E+02 -1.375767E+02 -1.197914E+03  7.308056E-01  3.816257E-05  4.040097E-07
        66  19 -6.644586E+02 -1.493339E+02 -5.832797E+02  1.366030E+00 -3.313619E+02 -9.757904E-01
        66  20 -5.878399E+02 -8.569126E+01 -8.759977E+02 -1.753566E+00 -6.951003E+02 -1.316002E+00
        66  21 -6.661132E+02 -4.528874E+02 -1.513198E+03  8.146373E+00 -1.058839E+03 -1.640360E+00
        66  22 -3.546606E+01  7.917349E+00 -4.260432E+02  4.287647E+00 -3.313662E+02 -9.757952E-01
        66  23  4.198002E+01  7.176223E+01 -7.185577E+02 -2.151229E+00 -6.951045E+02 -1.316005E+00
        66  24 -3.546558E+01 -2.952314E+02 -1.355555E+03  4.429434E+00 -1.058843E+03 -1.640357E+00
        66  25  5.935264E+02  1.651684E+02 -2.688067E+02  7.209264E+00 -3.313706E+02 -9.757977E-01
        66  26  6.718000E+02  2.292156E+02 -5.611178E+02 -2.548893E+00 -6.951089E+02 -1.316005E+00
        66  27  5.951820E+02 -1.375755E+02 -1.197911E+03  7.124891E-01 -1.058847E+03 -1.640351E+00
        67   1 -1.105976E+03 -1.722506E+02 -1.951921E+03 -1.288481E+01  1.338457E+03  1.871735E+00
        67   2 -6.651680E+02  2.343374E+02 -3.076516E+03  3.369226E+00  2.802633E+03  2.693316E+00
        67   3 -1.107615E+03 -2.131042E+03 -5.847260E+03  3.331407E+01  4.266785E+03  3.417784E+00
        67   4 -1.973239E+02  5.492842E+01 -1.724773E+03  4.187973E+00  1.338463E+03  1.871772E+00
        67   5  2.443063E+02  4.616952E+02 -2.849171E+03 -2.227311E+00  2.802638E+03  2.693291E+00
        67   6 -1.973167E+02 -1.903503E+03 -5.619715E+03  5.048545E+00  4.266790E+03  3.417589E+00
        67   7  7.113286E+02  2.821073E+02 -1.497626E+03  2.126077E+01  1.338469E+03  1.871812E+00
        67   8  1.153781E+03  6.890530E+02 -2.621826E+03 -7.823854E+00  2.802644E+03  2.693267E+00
        67   9  7.129821E+02 -1.675964E+03 -5.392171E+03 -2.321703E+01  4.266795E+03  3.417395E+00
        67  10 -1.105978E+03 -1.722520E+02 -1.951925E+03 -1.286504E+01  4.119579E-05  6.301747E-07
        67  11 -6.651766E+02  2.343345E+02 -3.076531E+03  3.391327E+00  4.606861E-05  5.436079E-07
        67  12 -1.107634E+03 -2.131048E+03 -5.847295E+03  3.333851E+01  5.094175E-05  3.937411E-07
        67  13 -1.973258E+02  5.492791E+01 -1.724777E+03  4.187971E+00  1.029666E-04 -5.547312E-07
        67  14  2.442980E+02  4.616931E+02 -2.849186E+03 -2.227317E+00  1.151408E-04 -4.361487E-07
        67  15 -1.973361E+02 -1.903508E+03 -5.619750E+03  5.048532E+00  1.273226E-04 -3.184116E-07
        67  16  7.113269E+02  2.821077E+02 -1.497629E+03  2.124100E+01  4.117744E-05  3.711887E-07
        67  17  1.153773E+03  6.890516E+02 -2.621840E+03 -7.845970E+00  4.604979E-05  2.793849E-07
        67  18  7.129628E+02 -1.675969E+03 -5.392205E+03 -2.324148E+01  5.091288E-05  2.504992E-07
        67  19 -1.105976E+03 -1.722525E+02 -1.951922E+03 -1.284527E+01 -1.338457E+03 -1.871734E+00
        67  20 -6.651683E+02  2.343358E+02 -3.076517E+03  3.413441E+00 -2.802633E+03 -2.693315E+00
        67  21 -1.107615E+03 -2.131044E+03 -5.847260E+03  3.336296E+01 -4.266785E+03 -3.417783E+00
        67  22 -1.973237E+02  5.492837E+01 -1.724773E+03  4.187974E+00 -1.338463E+03 -1.871774E+00
        67  23  2.443065E+02  4.616952E+02 -2.849171E+03 -2.227310E+00 -2.802638E+03 -2.693292E+00
        67  24 -1.973165E+02 -1.903503E+03 -5.619715E+03  5.048544E+00 -4.266790E+03 -3.417589E+00
        67  25  7.113291E+02  2.821090E+02 -1.497625E+03  2.122124E+01 -1.338469E+03 -1.871811E+00
        67  26  1.153782E+03  6.890544E+02 -2.621826E+03 -7.868073E+00 -2.802644E+03 -2.693267E+00
        67  27  7.129825E+02 -1.675963E+03 -5.392170E+03 -2.326592E+01 -4.266795E+03 -3.417395E+00
        68   1 -2.343864E+03  6.951703E+01 -7.297881E+03 -1.008677E+02  5.413794E+03  4.034120E+00
        68   2  2.519311E+02  2.652092E+03 -1.148639E+04  4.302823E+01  1.130420E+04  6.625824E+00
        68   3 -2.345668E+03 -1.247416E+04 -2.393665E+04  2.045577E+02  1.719469E+04  8.668396E+00
        68   4 -1.155122E+03  3.668104E+02 -7.000698E+03  3.607367E+00  5.413809E+03  4.035033E+00
        68   5  1.441629E+03  2.949462E+03 -1.118900E+04 -2.686940E+00  1.130422E+04  6.624989E+00
        68   6 -1.155006E+03 -1.217669E+04 -2.363905E+04  8.650215E+00  1.719470E+04  8.662964E+00
        68   7  3.362219E+01  6.641037E+02 -6.703515E+03  1.080826E+02  5.413824E+03  4.035948E+00
        68   8  2.631327E+03  3.246832E+03 -1.089162E+04 -4.840220E+01  1.130423E+04  6.624155E+00
        68   9  3.565827E+01 -1.187923E+04 -2.334145E+04 -1.872576E+02  1.719471E+04  8.657531E+00
        68  10 -2.343896E+03  6.950872E+01 -7.297937E+03 -1.008424E+02  5.268284E-05  3.153156E-07
        68  11  2.517938E+02  2.652057E+03 -1.148663E+04  4.305396E+01  5.376076E-05  1.560614E-07
        68  12 -2.345986E+03 -1.247424E+04 -2.393721E+04  2.045839E+02  5.482640E-05 -1.309452E-07
        68  13 -1.155153E+03  3.668025E+02 -7.000753E+03  3.607348E+00  1.316461E-04 -2.328433E-07
        68  14  1.441491E+03  2.949428E+03 -1.118924E+04 -2.687001E+00  1.343329E-04 -5.477172E-08
        68  15 -1.155323E+03 -1.217677E+04 -2.363961E+04  8.650095E+00  1.370207E-04  1.258720E-07
        68  16  3.359086E+01  6.640962E+02 -6.703570E+03  1.080573E+02  5.263917E-05  1.905557E-07
        68  17  2.631190E+03  3.246798E+03 -1.089186E+04 -4.842806E+01  5.370764E-05  6.045159E-08
        68  18  3.534080E+01 -1.187931E+04 -2.334200E+04 -1.872841E+02  5.479231E-05  6.113199E-08
        68  19 -2.343865E+03  6.951614E+01 -7.297882E+03 -1.008171E+02 -5.413794E+03 -4.034120E+00
        68  20  2.519310E+02  2.652092E+03 -1.148639E+04  4.307981E+01 -1.130420E+04 -6.625824E+00
        68  21 -2.345668E+03 -1.247416E+04 -2.393665E+04  2.046103E+02 -1.719469E+04 -8.668397E+00
        68  22 -1.155122E+03  3.668104E+02 -7.000698E+03  3.607366E+00 -5.413809E+03 -4.035034E+00
        68  23  1.441629E+03  2.949462E+03 -1.118900E+04 -2.686942E+00 -1.130422E+04 -6.624990E+00
        68  24 -1.155006E+03 -1.217669E+04 -2.363905E+04  8.650216E+00 -1.719470E+04 -8.662963E+00
        68  25  3.362247E+01  6.641045E+02 -6.703515E+03  1.080320E+02 -5.413824E+03 -4.035947E+00
        68  26  2.631328E+03  3.246832E+03 -1.089162E+04 -4.845379E+01 -1.130423E+04 -6.624154E+00
        68  27  3.565830E+01 -1.187923E+04 -2.334145E+04 -1.873103E+02 -1.719471E+04 -8.657530E+00
        69   1 -8.415848E+03  2.027673E+03 -2.889733E+04 -6.503258E+02  2.194356E+04  1.076786E+01
        69   2  7.203788E+03  1.839172E+04 -4.361121E+04  3.208615E+02  4.562069E+04  1.970464E+01
        69   3 -8.416915E+03 -7.788097E+04 -1.018967E+05  1.331585E+03  6.929800E+04  2.562177E+01
        69   4 -6.943143E+03  2.396480E+03 -2.852905E+04  2.922841E-01  2.194362E+04  1.079086E+01
        69   5  8.677873E+03  1.875992E+04 -4.324279E+04 -5.284697E+00  4.562073E+04  1.968066E+01
        69   6 -6.941377E+03 -7.751323E+04 -1.015280E+05  2.869413E+01  6.929802E+04  2.547630E+01
        69   7 -5.470435E+03  2.765290E+03 -2.816078E+04  6.509119E+02  2.194369E+04  1.081387E+01
        69   8  1.015196E+04  1.912813E+04 -4.287436E+04 -3.314317E+02  4.562076E+04  1.965667E+01
        69   9 -5.465833E+03 -7.714548E+04 -1.011594E+05 -1.274199E+03  6.929803E+04  2.533083E+01
        69  10 -8.416366E+03  2.027544E+03 -2.889824E+04 -6.503025E+02  4.890407E-05 -4.388196E-07
        69  11  7.201553E+03  1.839116E+04 -4.361512E+04  3.208740E+02  2.755420E-05 -6.893500E-07
        69  12 -8.422072E+03 -7.788226E+04 -1.019057E+05  1.331586E+03  6.205585E-06 -2.542433E-07
        69  13 -6.943661E+03  2.396351E+03 -2.852996E+04  2.920921E-01  1.222678E-04  1.557622E-07
        69  14  8.675638E+03  1.875936E+04 -4.324670E+04 -5.285420E+00  6.890113E-05  8.699920E-08
        69  15 -6.946534E+03 -7.751452E+04 -1.015370E+05  2.869270E+01  1.552700E-05  1.880560E-08
        69  16 -5.470952E+03  2.765160E+03 -2.816168E+04  6.508883E+02  4.890852E-05  3.013978E-07
        69  17  1.014973E+04  1.912757E+04 -4.287827E+04 -3.314456E+02  2.757296E-05  6.065917E-07
        69  18 -5.470990E+03 -7.714677E+04 -1.011684E+05 -1.274204E+03  6.214087E-06  2.344653E-07
        69  19 -8.415849E+03  2.027673E+03 -2.889733E+04 -6.502789E+02 -2.194356E+04 -1.076786E+01
        69  20  7.203788E+03  1.839172E+04 -4.361121E+04  3.208880E+02 -4.562069E+04 -1.970464E+01
        69  21 -8.416915E+03 -7.788097E+04 -1.018967E+05  1.331591E+03 -6.929800E+04 -2.562177E+01
        69  22 -6.943144E+03  2.396481E+03 -2.852905E+04  2.922826E-01 -2.194362E+04 -1.079086E+01
        69  23  8.677872E+03  1.875992E+04 -4.324279E+04 -5.284697E+00 -4.562073E+04 -1.968066E+01
        69  24 -6.941378E+03 -7.751323E+04 -1.015280E+05  2.869413E+01 -6.929802E+04 -2.547630E+01
        69  25 -5.470435E+03  2.765290E+03 -2.816078E+04  6.508650E+02 -2.194369E+04 -1.081387E+01
        69  26  1.015196E+04  1.912813E+04 -4.287436E+04 -3.314581E+02 -4.562076E+04 -1.965667E+01
        69  27 -5.465833E+03 -7.714548E+04 -1.011594E+05 -1.274205E+03 -6.929803E+04 -2.533083E+01
        70   1 -4.059948E+02 -1.589595E+02 -1.143292E+02 -1.148470E+02 -3.469510E-01  2.076645E-01
        70   2 -4.099744E+02 -1.524317E+02 -1.138923E+02 -1.092151E+02  1.418448E-01  9.583907E-01
        70   3 -4.042451E+02 -1.574533E+02 -1.143051E+02 -1.146979E+02  9.336394E-01  9.023142E-01
        70   4  3.619528E+00 -4.226206E+00 -1.464374E+00 -3.388119E+00 -3.267146E-01  2.152635E-01
        70   5 -1.176117E+00  1.978083E+00 -1.263342E+00  2.007504E+00  1.439563E-01  9.591806E-01
        70   6  3.741051E+00 -3.363781E+00 -1.897662E+00 -3.712041E+00  9.176257E-01  8.962954E-01
        70   7  4.132339E+02  1.505071E+02  1.114004E+02  1.080708E+02 -3.064812E-01  2.228627E-01
        70   8  4.076223E+02  1.563879E+02  1.113656E+02  1.132302E+02  1.460551E-01  9.599715E-01
        70   9  4.117274E+02  1.507258E+02  1.105097E+02  1.072739E+02  9.015890E-01  8.902783E-01
        70  10 -4.059952E+02 -1.589597E+02 -1.143293E+02 -1.148466E+02  6.234813E-07  5.646335E-07
        70  11 -4.099764E+02 -1.524326E+02 -1.138929E+02 -1.092131E+02  3.061699E-06  2.522438E-06
        70  12 -4.042487E+02 -1.574548E+02 -1.143061E+02 -1.146944E+02  5.697156E-06  4.409036E-06
        70  13  3.619591E+00 -4.226199E+00 -1.464360E+00 -3.388101E+00  2.186872E-06  4.635576E-07
        70  14 -1.176068E+00  1.978076E+00 -1.263333E+00  2.007536E+00  9.697299E-06  2.050973E-06
        70  15  3.741121E+00 -3.363767E+00 -1.897645E+00 -3.712030E+00  1.720719E-05  3.634438E-06
        70  16  4.132344E+02  1.505073E+02  1.114005E+02  1.080704E+02  8.391634E-07  5.606765E-07
        70  17  4.076243E+02  1.563887E+02  1.113661E+02  1.132282E+02  3.437020E-06  2.466094E-06
        70  18  4.117310E+02  1.507272E+02  1.105108E+02  1.072704E+02  5.839337E-06  4.430908E-06
        70  19 -4.059957E+02 -1.589599E+02 -1.143294E+02 -1.148461E+02  3.469523E-01 -2.076634E-01
        70  20 -4.099784E+02 -1.524335E+02 -1.138934E+02 -1.092111E+02 -1.418387E-01 -9.583856E-01
        70  21 -4.042523E+02 -1.574563E+02 -1.143071E+02 -1.146909E+02 -9.336280E-01 -9.023054E-01
        70  22  3.619654E+00 -4.226193E+00 -1.464346E+00 -3.388082E+00  3.267190E-01 -2.152626E-01
        70  23 -1.176020E+00  1.978069E+00 -1.263325E+00  2.007568E+00 -1.439370E-01 -9.591765E-01
        70  24  3.741191E+00 -3.363755E+00 -1.897629E+00 -3.712016E+00 -9.175912E-01 -8.962882E-01
        70  25  4.132349E+02  1.505075E+02  1.114007E+02  1.080699E+02  3.064828E-01 -2.228616E-01
        70  26  4.076263E+02  1.563895E+02  1.113667E+02  1.132263E+02 -1.460482E-01 -9.599666E-01
        70  27  4.117346E+02  1.507287E+02  1.105118E+02  1.072669E+02 -9.015773E-01 -8.902694E-01
        71   1 -8.350310E+01 -3.641556E+01 -2.644150E+01 -2.741474E+01  1.366372E+00  7.914582E-01
        71   2 -8.743860E+01 -3.067488E+01 -2.785086E+01 -2.143262E+01  3.447083E+00  1.479451E+00
        71   3 -8.190288E+01 -3.619960E+01 -3.108073E+01 -2.679219E+01  5.579612E+00  2.029481E+00
        71   4  3.661744E+00 -3.485066E+00 -2.426339E+00 -3.693294E+00  1.366094E+00  7.913491E-01
        71   5 -1.104065E+00  1.935706E+00 -4.064433E+00  2.057066E+00  3.443697E+00  1.478178E+00
        71   6  3.602020E+00 -3.908369E+00 -7.520577E+00 -3.534333E+00  5.573117E+00  2.027044E+00
        71   7  9.082662E+01  2.944543E+01  2.158883E+01  2.002815E+01  1.365795E+00  7.912416E-01
        71   8  8.523051E+01  3.454630E+01  1.972200E+01  2.554676E+01  3.440306E+00  1.476906E+00
        71   9  8.910698E+01  2.838287E+01  1.603959E+01  1.972353E+01  5.566634E+00  2.024608E+00
        71  10 -8.350644E+01 -3.641693E+01 -2.644244E+01 -2.741151E+01  5.491124E-06  4.078770E-06
        71  11 -8.743941E+01 -3.067522E+01 -2.785109E+01 -2.143188E+01  1.521700E-06  9.575509E-07
        71  12 -8.190119E+01 -3.619892E+01 -3.108025E+01 -2.679390E+01 -2.537271E-06 -2.138481E-06
        71  13  3.661642E+00 -3.485077E+00 -2.426361E+00 -3.693324E+00  1.587672E-05  3.346503E-06
        71  14 -1.104150E+00  1.935711E+00 -4.064449E+00  2.057021E+00  3.791354E-06  7.727184E-07
        71  15  3.601935E+00 -3.908363E+00 -7.520593E+00 -3.534378E+00 -8.293176E-06 -1.802865E-06
        71  16  9.082991E+01  2.944682E+01  2.158976E+01  2.002489E+01  5.149974E-06  4.084170E-06
        71  17  8.523131E+01  3.454669E+01  1.972224E+01  2.554594E+01  1.001674E-06  1.027914E-06
        71  18  8.910526E+01  2.838224E+01  1.603912E+01  1.972518E+01 -3.062349E-06 -2.063809E-06
        71  19 -8.350978E+01 -3.641831E+01 -2.644338E+01 -2.740829E+01 -1.366361E+00 -7.914500E-01
        71  20 -8.744023E+01 -3.067557E+01 -2.785132E+01 -2.143113E+01 -3.447080E+00 -1.479449E+00
        71  21 -8.189949E+01 -3.619825E+01 -3.107978E+01 -2.679562E+01 -5.579617E+00 -2.029485E+00
        71  22  3.661540E+00 -3.485088E+00 -2.426384E+00 -3.693353E+00 -1.366062E+00 -7.913424E-01
        71  23 -1.104235E+00  1.935716E+00 -4.064465E+00  2.056976E+00 -3.443690E+00 -1.478177E+00
        71  24  3.601850E+00 -3.908356E+00 -7.520608E+00 -3.534423E+00 -5.573134E+00 -2.027048E+00
        71  25  9.083319E+01  2.944820E+01  2.159069E+01  2.002162E+01 -1.365785E+00 -7.912334E-01
        71  26  8.523209E+01  3.454708E+01  1.972247E+01  2.554512E+01 -3.440304E+00 -1.476904E+00
        71  27  8.910354E+01  2.838162E+01  1.603865E+01  1.972682E+01 -5.566640E+00 -2.024612E+00
        72   1  2.385123E+02  8.548976E+01  5.493872E+01  6.002310E+01  7.080358E+00  2.435361E+00
        72   2  2.357708E+02  9.200859E+01  4.754054E+01  6.623270E+01  1.600565E+01  5.580572E+00
        72   3  2.395560E+02  8.215569E+01  3.185794E+01  6.204541E+01  2.493953E+01  8.702711E+00
        72   4  3.185594E+00 -3.355426E+00 -9.892525E+00 -3.958205E+00  7.076537E+00  2.433931E+00
        72   5 -3.610633E-01  2.822069E+00 -1.751709E+01  1.994498E+00  1.600130E+01  5.578947E+00
        72   6  2.619155E+00 -7.372142E+00 -3.342568E+01 -2.449806E+00  2.493465E+01  8.700891E+00
        72   7 -2.321410E+02 -9.220060E+01 -7.472376E+01 -6.793948E+01  7.072739E+00  2.432500E+00
        72   8 -2.364928E+02 -8.636443E+01 -8.257471E+01 -6.224367E+01  1.599699E+01  5.577320E+00
        72   9 -2.343175E+02 -9.689995E+01 -9.870928E+01 -6.694498E+01  2.492983E+01  8.699068E+00
        72  10  2.385157E+02  8.549105E+01  5.493964E+01  6.001976E+01 -5.223593E-06 -4.153492E-06
        72  11  2.357773E+02  9.201099E+01  4.754232E+01  6.622627E+01 -1.041333E-05 -8.013107E-06
        72  12  2.395656E+02  8.215920E+01  3.186056E+01  6.203588E+01 -1.564227E-05 -1.186162E-05
        72  13  3.185477E+00 -3.355428E+00 -9.892549E+00 -3.958255E+00 -1.628546E-05 -3.546128E-06
        72  14 -3.611755E-01  2.822073E+00 -1.751711E+01  1.994443E+00 -3.165999E-05 -6.960002E-06
        72  15  2.619041E+00 -7.372137E+00 -3.342570E+01 -2.449861E+00 -4.704191E-05 -1.037750E-05
        72  16 -2.321444E+02 -9.220185E+01 -7.472468E+01 -6.793622E+01 -5.774461E-06 -4.088872E-06
        72  17 -2.364993E+02 -8.636678E+01 -8.257649E+01 -6.223733E+01 -1.102341E-05 -7.922835E-06
        72  18 -2.343272E+02 -9.690341E+01 -9.871190E+01 -6.693555E+01 -1.623636E-05 -1.176930E-05
        72  19  2.385190E+02  8.549234E+01  5.494056E+01  6.001643E+01 -7.080368E+00 -2.435369E+00
        72  20  2.357838E+02  9.201339E+01  4.754409E+01  6.621984E+01 -1.600567E+01 -5.580588E+00
        72  21  2.395752E+02  8.216271E+01  3.186318E+01  6.202636E+01 -2.493956E+01 -8.702735E+00
        72  22  3.185360E+00 -3.355430E+00 -9.892573E+00 -3.958305E+00 -7.076570E+00 -2.433938E+00
        72  23 -3.612867E-01  2.822077E+00 -1.751713E+01  1.994388E+00 -1.600137E+01 -5.578961E+00
        72  24  2.618930E+00 -7.372132E+00 -3.342572E+01 -2.449914E+00 -2.493474E+01 -8.700911E+00
        72  25 -2.321478E+02 -9.220310E+01 -7.472561E+01 -6.793297E+01 -7.072750E+00 -2.432508E+00
        72  26 -2.365058E+02 -8.636913E+01 -8.257826E+01 -6.223099E+01 -1.599701E+01 -5.577336E+00
        72  27 -2.343368E+02 -9.690686E+01 -9.871452E+01 -6.692611E+01 -2.492986E+01 -8.699091E+00
        73   1  5.585429E+02  2.073628E+02  1.100181E+02  1.463677E+02  3.141405E+01  1.099594E+01
        73   2  5.622870E+02  2.197195E+02  7.707711E+01  1.532099E+02  7.061880E+01  2.549326E+01
        73   3  5.560497E+02  1.815337E+02  4.130938E+00  1.573825E+02  1.098246E+02  3.998987E+01
        73   4  6.195328E-01 -3.133804E+00 -4.365465E+01 -5.176327E+00  3.140955E+01  1.099427E+01
        73   5  3.714634E+00  8.701110E+00 -7.682658E+01  1.205216E+00  7.061425E+01  2.549157E+01
        73   6 -3.170676E+00 -3.000758E+01 -1.500038E+02  4.916066E+00  1.098200E+02  3.998816E+01
        73   7 -5.573036E+02 -2.136304E+02 -1.973274E+02 -1.567202E+02  3.140514E+01  1.099260E+01
        73   8 -5.548573E+02 -2.023173E+02 -2.307303E+02 -1.507993E+02  7.060979E+01  2.548988E+01
        73   9 -5.623905E+02 -2.415488E+02 -3.041384E+02 -1.475502E+02  1.098155E+02  3.998645E+01
        73  10  5.585543E+02  2.073669E+02  1.100212E+02  1.463564E+02 -1.874960E-05 -1.410646E-05
        73  11  5.623016E+02  2.197246E+02  7.708103E+01  1.531954E+02 -2.416980E-05 -1.796961E-05
        73  12  5.560675E+02  1.815397E+02  4.135653E+00  1.573649E+02 -2.961029E-05 -2.182868E-05
        73  13  6.194146E-01 -3.133802E+00 -4.365467E+01 -5.176383E+00 -5.611641E-05 -1.243900E-05
        73  14  3.714512E+00  8.701112E+00 -7.682661E+01  1.205159E+00 -7.194314E-05 -1.610557E-05
        73  15 -3.170807E+00 -3.000758E+01 -1.500038E+02  4.916007E+00 -8.775793E-05 -1.977069E-05
        73  16 -5.573151E+02 -2.136344E+02 -1.973305E+02 -1.567090E+02 -1.932836E-05 -1.400975E-05
        73  17 -5.548720E+02 -2.023223E+02 -2.307342E+02 -1.507849E+02 -2.476145E-05 -1.786511E-05
        73  18 -5.624083E+02 -2.415547E+02 -3.041432E+02 -1.475327E+02 -3.018296E-05 -2.172675E-05
        73  19  5.585658E+02  2.073710E+02  1.100243E+02  1.463450E+02 -3.141408E+01 -1.099597E+01
        73  20  5.623162E+02  2.197296E+02  7.708496E+01  1.531809E+02 -7.061885E+01 -2.549329E+01
        73  21  5.560852E+02  1.815457E+02  4.140420E+00  1.573473E+02 -1.098247E+02 -3.998992E+01
        73  22  6.192987E-01 -3.133799E+00 -4.365469E+01 -5.176438E+00 -3.140967E+01 -1.099430E+01
        73  23  3.714402E+00  8.701119E+00 -7.682662E+01  1.205103E+00 -7.061439E+01 -2.549160E+01
        73  24 -3.170911E+00 -3.000757E+01 -1.500038E+02  4.915956E+00 -1.098202E+02 -3.998820E+01
        73  25 -5.573266E+02 -2.136385E+02 -1.973336E+02 -1.566977E+02 -3.140517E+01 -1.099262E+01
        73  26 -5.548866E+02 -2.023272E+02 -2.307381E+02 -1.507705E+02 -7.060984E+01 -2.548991E+01
        73  27 -5.624261E+02 -2.415606E+02 -3.041479E+02 -1.475152E+02 -1.098156E+02 -3.998649E+01
        74   1  8.671871E+02  3.302092E+02  4.877936E+01  2.258029E+02  1.385659E+02  5.064669E+01
        74   2  9.085415E+02  3.794595E+02 -9.325921E+01  2.353582E+02  3.116670E+02  1.154300E+02
        74   3  8.413888E+02  1.587198E+02 -4.343692E+02  2.951244E+02  4.847576E+02  1.802382E+02
        74   4 -1.412475E+01 -1.210118E+00 -1.937472E+02 -1.246349E+01  1.385610E+02  5.064486E+01
        74   5  2.779285E+01  4.633647E+01 -3.360107E+02 -4.723973E+00  3.116623E+02  1.154283E+02
        74   6 -3.879765E+01 -1.761066E+02 -6.773459E+02  5.322730E+01  4.847533E+02  1.802366E+02
        74   7 -8.954360E+02 -3.326294E+02 -4.362739E+02 -2.507296E+02  1.385562E+02  5.064304E+01
        74   8 -8.529553E+02 -2.867866E+02 -5.787622E+02 -2.448059E+02  3.116578E+02  1.154265E+02
        74   9 -9.189836E+02 -5.109330E+02 -9.203228E+02 -1.886696E+02  4.847491E+02  1.802350E+02
        74  10  8.672066E+02  3.302156E+02  4.878452E+01  2.257835E+02 -3.275775E-05 -2.401933E-05
        74  11  9.085640E+02  3.794666E+02 -9.325349E+01  2.353358E+02 -3.812679E-05 -2.767544E-05
        74  12  8.414140E+02  1.587275E+02 -4.343630E+02  2.950990E+02 -4.350834E-05 -3.132024E-05
        74  13 -1.412488E+01 -1.210123E+00 -1.937473E+02 -1.246355E+01 -9.685282E-05 -2.192685E-05
        74  14  2.779263E+01  4.633643E+01 -3.360109E+02 -4.724056E+00 -1.122746E-04 -2.567055E-05
        74  15 -3.879803E+01 -1.761067E+02 -6.773464E+02  5.322718E+01 -1.276973E-04 -2.941536E-05
        74  16 -8.954556E+02 -3.326358E+02 -4.362792E+02 -2.507103E+02 -3.331013E-05 -2.390786E-05
        74  17 -8.529780E+02 -2.867937E+02 -5.787684E+02 -2.447836E+02 -3.866408E-05 -2.755682E-05
        74  18 -9.190095E+02 -5.109408E+02 -9.203299E+02 -1.886444E+02 -4.399557E-05 -3.122043E-05
        74  19  8.672262E+02  3.302221E+02  4.878975E+01  2.257641E+02 -1.385660E+02 -5.064674E+01
        74  20  9.085866E+02  3.794737E+02 -9.324735E+01  2.353134E+02 -3.116670E+02 -1.154300E+02
        74  21  8.414398E+02  1.587354E+02 -4.343558E+02  2.950736E+02 -4.847577E+02 -1.802383E+02
        74  22 -1.412497E+01 -1.210111E+00 -1.937473E+02 -1.246360E+01 -1.385612E+02 -5.064491E+01
        74  23  2.779263E+01  4.633648E+01 -3.360107E+02 -4.724083E+00 -3.116626E+02 -1.154283E+02
        74  24 -3.879789E+01 -1.761066E+02 -6.773459E+02  5.322720E+01 -4.847535E+02 -1.802367E+02
        74  25 -8.954751E+02 -3.326422E+02 -4.362843E+02 -2.506910E+02 -1.385563E+02 -5.064308E+01
        74  26 -8.530005E+02 -2.868007E+02 -5.787741E+02 -2.447613E+02 -3.116579E+02 -1.154266E+02
        74  27 -9.190348E+02 -5.109485E+02 -9.203361E+02 -1.886190E+02 -4.847492E+02 -1.802351E+02
        75   1  1.106903E+03  4.605726E+02 -5.306569E+02  2.623753E+02  6.135691E+02  2.284753E+02
        75   2  1.375559E+03  7.441715E+02 -1.129916E+03  2.847250E+02  1.378510E+03  5.155641E+02
        75   3  9.309451E+02 -6.475908E+02 -2.752273E+03  7.074683E+02  2.143399E+03  8.027728E+02
        75   4 -1.024564E+02  1.291207E+01 -8.620329E+02 -5.726399E+01  6.135623E+02  2.284727E+02
        75   5  1.746467E+02  2.869369E+02 -1.461514E+03 -4.573052E+01  1.378505E+03  5.155621E+02
        75   6 -2.615225E+02 -1.114400E+03 -3.084095E+03  3.661983E+02  2.143395E+03  8.027713E+02
        75   7 -1.311814E+03 -4.347482E+02 -1.193409E+03 -3.769026E+02  6.135556E+02  2.284702E+02
        75   8 -1.026264E+03 -1.702975E+02 -1.793112E+03 -3.761854E+02  1.378500E+03  5.155600E+02
        75   9 -1.453989E+03 -1.581209E+03 -3.415917E+03  2.492892E+01  2.143391E+03  8.027697E+02
        75  10  1.106930E+03  4.605805E+02 -5.306506E+02  2.623482E+02 -4.645031E-05 -3.327280E-05
        75  11  1.375586E+03  7.441791E+02 -1.129912E+03  2.846949E+02 -5.114879E-05 -3.629226E-05
        75  12  9.309721E+02 -6.475840E+02 -2.752274E+03  7.074348E+02 -5.592982E-05 -3.926856E-05
        75  13 -1.024569E+02  1.291192E+01 -8.620337E+02 -5.726416E+01 -1.360493E-04 -3.150010E-05
        75  14  1.746445E+02  2.869361E+02 -1.461518E+03 -4.573114E+01 -1.493307E-04 -3.492426E-05
        75  15 -2.615277E+02 -1.114402E+03 -3.084105E+03  3.661969E+02 -1.626113E-04 -3.835187E-05
        75  16 -1.311842E+03 -4.347564E+02 -1.193417E+03 -3.768758E+02 -4.690341E-05 -3.314979E-05
        75  17 -1.026296E+03 -1.703067E+02 -1.793124E+03 -3.761565E+02 -5.159509E-05 -3.616380E-05
        75  18 -1.454026E+03 -1.581220E+03 -3.415935E+03  2.495953E+01 -5.619924E-05 -3.921899E-05
        75  19  1.106957E+03  4.605888E+02 -5.306428E+02  2.623213E+02 -6.135692E+02 -2.284753E+02
        75  20  1.375618E+03  7.441883E+02 -1.129901E+03  2.846659E+02 -1.378510E+03 -5.155642E+02
        75  21  9.310093E+02 -6.475734E+02 -2.752256E+03  7.074042E+02 -2.143399E+03 -8.027729E+02
        75  22 -1.024566E+02  1.291208E+01 -8.620330E+02 -5.726409E+01 -6.135626E+02 -2.284728E+02
        75  23  1.746465E+02  2.869369E+02 -1.461514E+03 -4.573062E+01 -1.378505E+03 -5.155622E+02
        75  24 -2.615227E+02 -1.114400E+03 -3.084095E+03  3.661982E+02 -2.143395E+03 -8.027713E+02
        75  25 -1.311868E+03 -4.347643E+02 -1.193423E+03 -3.768488E+02 -6.135557E+02 -2.284703E+02
        75  26 -1.026323E+03 -1.703142E+02 -1.793127E+03 -3.761265E+02 -1.378500E+03 -5.155601E+02
        75  27 -1.454053E+03 -1.581227E+03 -3.415934E+03  2.499292E+01 -2.143391E+03 -8.027698E+02
        76   1  9.371387E+02  6.483570E+02 -3.422566E+03  3.515575E+01  2.724375E+03  1.020829E+03
        76   2  2.575869E+03  2.412503E+03 -5.889050E+03  1.130911E+02  6.104688E+03  2.290509E+03
        76   3 -2.018455E+02 -6.448555E+03 -1.377405E+04  2.887080E+03  9.484808E+03  3.560871E+03
        76   4 -6.304053E+02  1.137777E+02 -3.842954E+03 -3.322435E+02  2.724360E+03  1.020823E+03
        76   5  1.068320E+03  1.816755E+03 -6.309669E+03 -3.240994E+02  6.104679E+03  2.290505E+03
        76   6 -1.649409E+03 -7.105490E+03 -1.419492E+04  2.380099E+03  9.484806E+03  3.560868E+03
        76   7 -2.197947E+03 -4.208016E+02 -4.263344E+03 -6.996421E+02  2.724344E+03  1.020818E+03
        76   8 -4.392264E+02  1.221008E+03 -6.730288E+03 -7.612889E+02  6.104670E+03  2.290502E+03
        76   9 -3.096970E+03 -7.762425E+03 -1.461578E+04  1.873119E+03  9.484805E+03  3.560865E+03
        76  10  9.371634E+02  6.483625E+02 -3.422573E+03  3.512067E+01 -5.762559E-05 -4.023374E-05
        76  11  2.575861E+03  2.412495E+03 -5.889122E+03  1.130467E+02 -5.849358E-05 -4.044208E-05
        76  12 -2.019122E+02 -6.448585E+03 -1.377424E+04  2.887019E+03 -5.954081E-05 -4.053679E-05
        76  13 -6.304136E+02  1.137746E+02 -3.842970E+03 -3.322458E+02 -1.670506E-04 -3.960732E-05
        76  14  1.068279E+03  1.816740E+03 -6.309749E+03 -3.241106E+02 -1.690243E-04 -4.048361E-05
        76  15 -1.649509E+03 -7.105528E+03 -1.419511E+04  2.380072E+03 -1.710083E-04 -4.134585E-05
        76  16 -2.197988E+03 -4.208133E+02 -4.263368E+03 -6.996115E+02 -5.772445E-05 -4.013970E-05
        76  17 -4.393010E+02  1.220984E+03 -6.730376E+03 -7.612671E+02 -5.853990E-05 -4.036085E-05
        76  18 -3.097104E+03 -7.762471E+03 -1.461598E+04  1.873125E+03 -5.918505E-05 -4.066252E-05
        76  19  9.372046E+02  6.483743E+02 -3.422549E+03  3.509007E+01 -2.724375E+03 -1.020829E+03
        76  20  2.575935E+03  2.412519E+03 -5.889033E+03  1.130249E+02 -6.104688E+03 -2.290509E+03
        76  21 -2.017789E+02 -6.448539E+03 -1.377404E+04  2.887013E+03 -9.484808E+03 -3.560871E+03
        76  22 -6.304053E+02  1.137778E+02 -3.842954E+03 -3.322436E+02 -2.724360E+03 -1.020823E+03
        76  23  1.068320E+03  1.816755E+03 -6.309669E+03 -3.240994E+02 -6.104679E+03 -2.290505E+03
        76  24 -1.649409E+03 -7.105490E+03 -1.419492E+04  2.380099E+03 -9.484807E+03 -3.560868E+03
        76  25 -2.198013E+03 -4.208189E+02 -4.263360E+03 -6.995765E+02 -2.724344E+03 -1.020818E+03
        76  26 -4.392927E+02  1.220991E+03 -6.730304E+03 -7.612227E+02 -6.104671E+03 -2.290502E+03
        76  27 -3.097037E+03 -7.762441E+03 -1.461580E+04  1.873186E+03 -9.484805E+03 -3.560865E+03
        77   1 -1.724314E+03  1.236609E+03 -1.667618E+04 -1.832405E+03  1.212533E+04  4.552505E+03
        77   2  8.294352E+03  1.235677E+04 -2.641636E+04 -1.508975E+03  2.705801E+04  1.016320E+04
        77   3 -9.010702E+03 -4.399991E+04 -6.576356E+04  1.636591E+04  4.198950E+04  1.577743E+04
        77   4 -3.840034E+03  7.995010E+02 -1.718670E+04 -2.036198E+03  1.212526E+04  4.552488E+03
        77   5  6.572544E+03  1.152477E+04 -2.692707E+04 -2.163975E+03  2.705798E+04  1.016318E+04
        77   6 -1.033868E+04 -4.522691E+04 -6.627455E+04  1.525972E+04  4.198953E+04  1.577738E+04
        77   7 -5.955749E+03  3.623932E+02 -1.769723E+04 -2.239991E+03  1.212520E+04  4.552471E+03
        77   8  4.850739E+03  1.069277E+04 -2.743778E+04 -2.818973E+03  2.705796E+04  1.016316E+04
        77   9 -1.166665E+04 -4.645391E+04 -6.678554E+04  1.415354E+04  4.198955E+04  1.577732E+04
        77  10 -1.724448E+03  1.236554E+03 -1.667649E+04 -1.832479E+03 -5.380697E-05 -3.595027E-05
        77  11  8.293555E+03  1.235646E+04 -2.641793E+04 -1.509213E+03 -3.112140E-05 -2.002111E-05
        77  12 -9.012658E+03 -4.400065E+04 -6.576734E+04  1.636537E+04 -7.429220E-06 -4.548676E-06
        77  13 -3.840197E+03  7.994393E+02 -1.718702E+04 -2.036242E+03 -1.522413E-04 -3.691515E-05
        77  14  6.571731E+03  1.152446E+04 -2.692864E+04 -2.164196E+03 -8.578589E-05 -2.081398E-05
        77  15 -1.034064E+04 -4.522765E+04 -6.627833E+04  1.525919E+04 -1.933487E-05 -4.695206E-06
        77  16 -5.955942E+03  3.623246E+02 -1.769755E+04 -2.240005E+03 -5.197079E-05 -3.621040E-05
        77  17  4.849909E+03  1.069246E+04 -2.743935E+04 -2.819178E+03 -2.847382E-05 -2.067168E-05
        77  18 -1.166861E+04 -4.645465E+04 -6.678932E+04  1.415301E+04 -5.998903E-06 -4.631320E-06
        77  19 -1.724255E+03  1.236622E+03 -1.667616E+04 -1.832464E+03 -1.212533E+04 -4.552505E+03
        77  20  8.294385E+03  1.235677E+04 -2.641635E+04 -1.509008E+03 -2.705801E+04 -1.016320E+04
        77  21 -9.010694E+03 -4.399990E+04 -6.576356E+04  1.636590E+04 -4.198950E+04 -1.577743E+04
        77  22 -3.840033E+03  7.995011E+02 -1.718670E+04 -2.036197E+03 -1.212527E+04 -4.552488E+03
        77  23  6.572545E+03  1.152477E+04 -2.692707E+04 -2.163975E+03 -2.705798E+04 -1.016318E+04
        77  24 -1.033868E+04 -4.522691E+04 -6.627455E+04  1.525972E+04 -4.198953E+04 -1.577738E+04
        77  25 -5.955808E+03  3.623795E+02 -1.769724E+04 -2.239931E+03 -1.212520E+04 -4.552471E+03
        77  26  4.850706E+03  1.069276E+04 -2.743779E+04 -2.818939E+03 -2.705796E+04 -1.016316E+04
        77  27 -1.166666E+04 -4.645391E+04 -6.678554E+04  1.415355E+04 -4.198955E+04 -1.577732E+04
        78   1  8.637403E+04  8.420424E+05  8.035725E+04 -4.515767E+02  4.933381E+03  3.809438E+04
        78   2  8.179733E+04  8.406188E+05  6.073266E+04 -5.195518E+02  1.745993E+04  2.092196E+04
        78   3  8.047498E+04  8.422495E+05  5.309687E+04  1.585512E+01  2.304847E+04  3.747570E+03
        78   4  5.725961E+02  4.923888E+05  7.378334E+02  1.344235E+02  4.947483E+03 -3.192754E+02
        78   5  2.450765E+02  4.923067E+05  1.015442E+03 -1.675395E+02  1.746965E+04 -8.215242E+02
        78   6  2.808514E+02  4.923883E+05  1.715391E+03  1.342585E+02  2.305203E+04 -1.325776E+03
        78   7 -8.523650E+04  1.428516E+05 -7.888399E+04  7.201003E+02  4.961517E+03 -3.871152E+04
        78   8 -8.131339E+04  1.441148E+05 -5.870408E+04  1.842805E+02  1.747934E+04 -2.255321E+04
        78   9 -7.991895E+04  1.426502E+05 -4.966815E+04  2.526055E+02  2.305559E+04 -6.396385E+03
        78  10  8.637362E+04  8.420409E+05  8.035448E+04 -4.517280E+02  3.067248E-09  2.480289E-09
        78  11  8.179688E+04  8.406182E+05  6.073127E+04 -5.198459E+02  4.298529E-09  4.543654E-10
        78  12  8.047441E+04  8.422494E+05  5.309585E+04  1.578558E+01  1.515718E-09 -1.580621E-10
        78  13  5.725698E+02  4.923888E+05  7.377872E+02  1.344248E+02 -1.878427E-09  3.364248E-10
        78  14  2.447485E+02  4.923067E+05  1.014867E+03 -1.675280E+02  5.523102E-09 -8.640827E-10
        78  15  2.802802E+02  4.923882E+05  1.714389E+03  1.342831E+02  2.035853E-10  4.676724E-10
        78  16 -8.523693E+04  1.428500E+05 -7.888686E+04  7.202550E+02 -1.802286E-09 -3.102026E-09
        78  17 -8.131385E+04  1.441141E+05 -5.870561E+04  1.845980E+02 -4.390548E-09 -7.567202E-10
        78  18 -7.991953E+04  1.426501E+05 -4.966922E+04  2.527243E+02 -3.779026E-09  3.542517E-10
        78  19  8.637403E+04  8.420424E+05  8.035725E+04 -4.515767E+02 -4.933381E+03 -3.809438E+04
        78  20  8.179733E+04  8.406188E+05  6.073266E+04 -5.195518E+02 -1.745993E+04 -2.092196E+04
        78  21  8.047498E+04  8.422495E+05  5.309687E+04  1.585512E+01 -2.304847E+04 -3.747570E+03
        78  22  5.725961E+02  4.923888E+05  7.378334E+02  1.344235E+02 -4.947483E+03  3.192754E+02
        78  23  2.450765E+02  4.923067E+05  1.015442E+03 -1.675395E+02 -1.746965E+04  8.215242E+02
        78  24  2.808514E+02  4.923883E+05  1.715391E+03  1.342585E+02 -2.305203E+04  1.325776E+03
        78  25 -8.523650E+04  1.428516E+05 -7.888399E+04  7.201003E+02 -4.961517E+03  3.871152E+04
        78  26 -8.131339E+04  1.441148E+05 -5.870408E+04  1.842805E+02 -1.747934E+04  2.255321E+04
        78  27 -7.991895E+04  1.426502E+05 -4.966815E+04  2.526055E+02 -2.305559E+04  6.396385E+03
        79   1  8.017441E+04  8.420327E+05  5.209101E+04 -2.130838E+02  2.398779E+04  2.803419E+03
        79   2  8.051311E+04  8.415270E+05  5.232476E+04  7.313301E+02  2.492379E+04 -3.633919E+03
        79   3  8.304835E+04  8.424140E+05  5.729685E+04  1.706642E+03  2.401431E+04 -1.007224E+04
        79   4  3.533742E+02  4.924906E+05  2.256471E+03  6.845815E+00  2.399127E+04 -1.654152E+03
        79   5  1.033116E+03  4.921780E+05  3.996294E+03 -7.964368E+00  2.492523E+04 -3.656237E+03
        79   6  3.140660E+03  4.924895E+05  7.397917E+03  8.125496E+00  2.401319E+04 -5.659289E+03
        79   7 -7.947318E+04  1.430718E+05 -4.757978E+04  2.266603E+02  2.399474E+04 -6.109324E+03
        79   8 -7.845225E+04  1.429528E+05 -4.433360E+04 -7.468095E+02  2.492667E+04 -3.678542E+03
        79   9 -7.677255E+04  1.426887E+05 -4.250273E+04 -1.689378E+03  2.401204E+04 -1.248717E+03
        79  10  8.017379E+04  8.420325E+05  5.208991E+04 -2.131379E+02 -9.319477E-10 -1.887748E-09
        79  11  8.051244E+04  8.415268E+05  5.232356E+04  7.314030E+02  3.957300E-09 -2.932844E-09
        79  12  8.304770E+04  8.424137E+05  5.729557E+04  1.706837E+03 -1.328434E-09 -1.351809E-09
        79  13  3.527553E+02  4.924904E+05  2.255384E+03  6.877771E+00  2.833915E-09  5.376123E-10
        79  14  1.032445E+03  4.921778E+05  3.995101E+03 -7.890985E+00 -6.745385E-09 -1.081220E-09
        79  15  3.140032E+03  4.924893E+05  7.396773E+03  8.234924E+00 -2.195054E-09  5.573615E-10
        79  16 -7.947381E+04  1.430716E+05 -4.758093E+04  2.267784E+02 -1.587273E-09  1.175414E-09
        79  17 -7.845292E+04  1.429526E+05 -4.433479E+04 -7.467357E+02 -9.712371E-10  2.567746E-09
        79  18 -7.677317E+04  1.426885E+05 -4.250382E+04 -1.689353E+03 -3.112984E-09  1.491489E-09
        79  19  8.017441E+04  8.420327E+05  5.209101E+04 -2.130838E+02 -2.398779E+04 -2.803419E+03
        79  20  8.051311E+04  8.415270E+05  5.232476E+04  7.313301E+02 -2.492379E+04  3.633919E+03
        79  21  8.304835E+04  8.424140E+05  5.729685E+04  1.706642E+03 -2.401431E+04  1.007224E+04
        79  22  3.533742E+02  4.924906E+05  2.256471E+03  6.845815E+00 -2.399127E+04  1.654152E+03
        79  23  1.033116E+03  4.921780E+05  3.996294E+03 -7.964368E+00 -2.492523E+04  3.656237E+03
        79  24  3.140660E+03  4.924895E+05  7.397917E+03  8.125496E+00 -2.401319E+04  5.659289E+03
        79  25 -7.947318E+04  1.430718E+05 -4.757978E+04  2.266603E+02 -2.399474E+04  6.109324E+03
        79  26 -7.845225E+04  1.429528E+05 -4.433360E+04 -7.468095E+02 -2.492667E+04  3.678542E+03
        79  27 -7.677255E+04  1.426887E+05 -4.250273E+04 -1.689378E+03 -2.401204E+04  1.248717E+03
        80   1  8.466016E+04  8.438724E+05  6.140382E+04  1.046042E+03  2.308896E+04 -1.198156E+04
        80   2  9.414805E+04  8.403634E+05  7.823410E+04  1.235277E+04  1.752821E+04 -3.805974E+04
        80   3  1.204133E+05  8.444446E+05  1.162227E+05  2.312183E+04  5.001002E+03 -6.414356E+04
        80   4  4.323610E+03  4.933930E+05  9.918186E+03 -1.194987E+02  2.308728E+04 -6.950185E+03
        80   5  1.237557E+04  4.910449E+05  1.832536E+04  1.581543E+02  1.751595E+04 -1.628843E+04
        80   6  3.430541E+04  4.933858E+05  3.627777E+04 -1.020500E+02  4.977284E+03 -2.563184E+04
        80   7 -7.601863E+04  1.430371E+05 -4.156952E+04 -1.284338E+03  2.308558E+04 -1.921532E+03
        80   8 -6.940259E+04  1.418475E+05 -4.158562E+04 -1.202937E+04  1.750283E+04  5.471023E+03
        80   9 -5.180816E+04  1.424455E+05 -4.366930E+04 -2.331268E+04  4.950681E+03  1.285831E+04
        80  10  8.465955E+04  8.438721E+05  6.140255E+04  1.046265E+03 -1.164895E-09  7.136690E-08
        80  11  9.414733E+04  8.403617E+05  7.823080E+04  1.235330E+04 -2.239130E-09  1.903487E-09
        80  12  1.204122E+05  8.444402E+05  1.162149E+05  2.312209E+04 -2.082365E-09 -6.505766E-08
        80  13  4.323025E+03  4.933928E+05  9.917093E+03 -1.193695E+02 -3.479149E-09  6.335534E-10
        80  14  1.237517E+04  4.910445E+05  1.832429E+04  1.583840E+02 -4.522494E-09 -1.369048E-09
        80  15  3.430521E+04  4.933851E+05  3.627649E+04 -1.019473E+02  1.540163E-10  8.720612E-10
        80  16 -7.601920E+04  1.430369E+05 -4.157053E+04 -1.284302E+03 -5.407508E-09 -7.232928E-08
        80  17 -6.940293E+04  1.418474E+05 -4.158625E+04 -1.202945E+04 -2.955094E-09 -2.408925E-09
        80  18 -5.180823E+04  1.424453E+05 -4.366966E+04 -2.331273E+04  4.316075E-10  6.526940E-08
        80  19  8.466016E+04  8.438724E+05  6.140382E+04  1.046042E+03 -2.308896E+04  1.198156E+04
        80  20  9.414805E+04  8.403634E+05  7.823410E+04  1.235277E+04 -1.752821E+04  3.805974E+04
        80  21  1.204133E+05  8.444446E+05  1.162227E+05  2.312183E+04 -5.001002E+03  6.414356E+04
        80  22  4.323610E+03  4.933930E+05  9.918186E+03 -1.194987E+02 -2.308728E+04  6.950185E+03
        80  23  1.237557E+04  4.910449E+05  1.832536E+04  1.581543E+02 -1.751595E+04  1.628843E+04
        80  24  3.430541E+04  4.933858E+05  3.627777E+04 -1.020500E+02 -4.977284E+03  2.563184E+04
        80  25 -7.601863E+04  1.430371E+05 -4.156952E+04 -1.284338E+03 -2.308558E+04  1.921532E+03
        80  26 -6.940259E+04  1.418475E+05 -4.158562E+04 -1.202937E+04 -1.750283E+04 -5.471023E+03
        80  27 -5.180816E+04  1.424455E+05 -4.366930E+04 -2.331268E+04 -4.950681E+03 -1.285831E+04
        81   1  2.320073E+05  4.444617E+05  5.930541E+05  2.912304E+03  4.278353E+05  1.781040E+03
        81   2  1.313063E+05 -1.508461E+05  2.319433E+05  4.657459E+03  2.817469E+05  8.752430E+02
        81   3  2.335100E+05 -4.898043E+04  1.422227E+05 -6.880581E+03  1.356543E+05  2.248349E+02
        81   4  3.718062E+05  4.793159E+05  6.279667E+05 -4.719475E+03  4.278905E+05  1.775714E+03
        81   5  2.703699E+05 -1.160973E+05  2.666918E+05  2.867247E+03  2.817793E+05  8.743945E+02
        81   6  3.718019E+05 -1.441481E+04  1.767801E+05 -2.829843E+03  1.356642E+05  2.257118E+02
        81   7  5.116229E+05  5.141689E+05  6.628778E+05 -1.235299E+04  4.279456E+05  1.770387E+03
        81   8  4.094511E+05 -8.134987E+04  3.014389E+05  1.076625E+03  2.818117E+05  8.735459E+02
        81   9  5.101112E+05  2.014943E+04  2.113361E+05  1.221796E+03  1.356740E+05  2.265888E+02
        81  10  2.318109E+05  4.444126E+05  5.927103E+05  2.911691E+03 -2.161307E-09 -3.386191E-09
        81  11  1.312211E+05 -1.508674E+05  2.317941E+05  4.657261E+03  1.802622E-09 -2.450793E-09
        81  12  2.334902E+05 -4.898537E+04  1.421881E+05 -6.880605E+03  2.278616E-09 -2.057839E-09
        81  13  3.716098E+05  4.792668E+05  6.276228E+05 -4.720086E+03  2.133731E-09 -1.223877E-09
        81  14  2.702847E+05 -1.161186E+05  2.665427E+05  2.867049E+03 -2.153805E-09 -3.649321E-10
        81  15  3.717821E+05 -1.441975E+04  1.767456E+05 -2.829867E+03  4.072132E-12  2.205370E-10
        81  16  5.114264E+05  5.141197E+05  6.625339E+05 -1.235360E+04 -1.606822E-09  1.443061E-09
        81  17  4.093659E+05 -8.137117E+04  3.012898E+05  1.076426E+03  7.784021E-10 -6.580134E-10
        81  18  5.100914E+05  2.014450E+04  2.113016E+05  1.221771E+03 -1.246050E-09  2.027503E-09
        81  19  2.320073E+05  4.444617E+05  5.930541E+05  2.912304E+03 -4.278353E+05 -1.781040E+03
        81  20  1.313063E+05 -1.508461E+05  2.319433E+05  4.657459E+03 -2.817469E+05 -8.752430E+02
        81  21  2.335100E+05 -4.898043E+04  1.422227E+05 -6.880581E+03 -1.356543E+05 -2.248349E+02
        81  22  3.718062E+05  4.793159E+05  6.279667E+05 -4.719475E+03 -4.278905E+05 -1.775714E+03
        81  23  2.703699E+05 -1.160973E+05  2.666918E+05  2.867247E+03 -2.817793E+05 -8.743945E+02
        81  24  3.718019E+05 -1.441481E+04  1.767801E+05 -2.829843E+03 -1.356642E+05 -2.257118E+02
        81  25  5.116229E+05  5.141689E+05  6.628778E+05 -1.235299E+04 -4.279456E+05 -1.770387E+03
        81  26  4.094511E+05 -8.134987E+04  3.014389E+05  1.076625E+03 -2.818117E+05 -8.735459E+02
        81  27  5.101112E+05  2.014943E+04  2.113361E+05  1.221796E+03 -1.356740E+05 -2.265888E+02
        82   1  3.045359E+05  6.756036E+04  1.386445E+05  3.309430E+02  1.061966E+05  5.806750E+01
        82   2  2.884790E+05 -2.545467E+04  6.183355E+04  4.703997E+02  6.980380E+04  2.911092E+00
        82   3  3.048164E+05 -9.504914E+03  3.603918E+04 -1.514848E+03  3.341103E+04  1.849290E+00
        82   4  3.339064E+05  7.490048E+04  1.459830E+05 -8.792855E+02  1.061979E+05  5.786080E+01
        82   5  3.177152E+05 -1.814772E+04  6.913942E+04  1.752805E+02  6.980490E+04  2.878546E+00
        82   6  3.339171E+05 -2.233846E+03  4.331086E+04 -8.948438E+02  3.341194E+04  1.882793E+00
        82   7  3.632776E+05  8.224054E+04  1.533215E+05 -2.089571E+03  1.061992E+05  5.765410E+01
        82   8  3.469523E+05 -1.084084E+04  7.644521E+04 -1.198524E+02  6.980601E+04  2.846001E+00
        82   9  3.630185E+05  5.037159E+03  5.058248E+04 -2.748099E+02  3.341284E+04  1.916297E+00
        82  10  3.045238E+05  6.755734E+04  1.386233E+05  3.309381E+02  5.845840E-10  8.423906E-10
        82  11  2.884737E+05 -2.545598E+04  6.182440E+04  4.703996E+02  1.442766E-09  1.140069E-09
        82  12  3.048152E+05 -9.505213E+03  3.603708E+04 -1.514848E+03  1.993502E-09 -6.498604E-09
        82  13  3.338943E+05  7.489745E+04  1.459618E+05 -8.792904E+02  2.098920E-09 -4.092732E-11
        82  14  3.177100E+05 -1.814903E+04  6.913026E+04  1.752804E+02  2.256584E-09 -1.213527E-09
        82  15  3.339159E+05 -2.234146E+03  4.330876E+04 -8.948438E+02 -1.122760E-09  6.300861E-10
        82  16  3.632655E+05  8.223751E+04  1.533003E+05 -2.089576E+03 -1.079182E-09 -5.458900E-10
        82  17  3.469471E+05 -1.084214E+04  7.643606E+04 -1.198526E+02 -2.399070E-09 -2.211646E-09
        82  18  3.630173E+05  5.036860E+03  5.058038E+04 -2.748099E+02 -4.933713E-09  7.782862E-09
        82  19  3.045359E+05  6.756036E+04  1.386445E+05  3.309430E+02 -1.061966E+05 -5.806750E+01
        82  20  2.884790E+05 -2.545467E+04  6.183355E+04  4.703997E+02 -6.980380E+04 -2.911092E+00
        82  21  3.048164E+05 -9.504914E+03  3.603918E+04 -1.514848E+03 -3.341103E+04 -1.849290E+00
        82  22  3.339064E+05  7.490048E+04  1.459830E+05 -8.792855E+02 -1.061979E+05 -5.786080E+01
        82  23  3.177152E+05 -1.814772E+04  6.913942E+04  1.752805E+02 -6.980490E+04 -2.878546E+00
        82  24  3.339171E+05 -2.233846E+03  4.331086E+04 -8.948438E+02 -3.341194E+04 -1.882793E+00
        82  25  3.632776E+05  8.224054E+04  1.533215E+05 -2.089571E+03 -1.061992E+05 -5.765410E+01
        82  26  3.469523E+05 -1.084084E+04  7.644521E+04 -1.198524E+02 -6.980601E+04 -2.846001E+00
        82  27  3.630185E+05  5.037159E+03  5.058248E+04 -2.748099E+02 -3.341284E+04 -1.916297E+00
        83   1  3.219820E+05  1.020403E+04  3.327609E+04 -3.191841E+02  2.631224E+04 -1.715554E+00
        83   2  3.192795E+05 -4.319092E+03  1.623355E+04 -2.535223E+02  1.721195E+04 -1.322166E+01
        83   3  3.220396E+05 -1.791932E+03  9.379598E+03 -6.096365E+02  8.111755E+03 -3.969493E+00
        83   4  3.279298E+05  1.169084E+04  3.476219E+04 -4.992384E+02  2.631166E+04 -1.722394E+00
        83   5  3.252000E+05 -2.839396E+03  1.771307E+04 -2.946428E+02  1.721179E+04 -1.322249E+01
        83   6  3.279327E+05 -3.195122E+02  1.085218E+04 -5.118226E+02  8.112019E+03 -3.968464E+00
        83   7  3.338777E+05  1.317764E+04  3.624829E+04 -6.792945E+02  2.631108E+04 -1.729233E+00
        83   8  3.311206E+05 -1.359703E+03  1.919259E+04 -3.357637E+02  1.721163E+04 -1.322332E+01
        83   9  3.338258E+05  1.152905E+03  1.232476E+04 -4.140077E+02  8.112283E+03 -3.967436E+00
        83  10  3.219812E+05  1.020384E+04  3.327479E+04 -3.191840E+02  1.290228E-09  2.243766E-09
        83  11  3.192792E+05 -4.319171E+03  1.623299E+04 -2.535221E+02 -5.750206E-09  9.671908E-09
        83  12  3.220395E+05 -1.791949E+03  9.379475E+03 -6.096365E+02  1.052386E-08 -4.337796E-08
        83  13  3.279291E+05  1.169065E+04  3.476089E+04 -4.992384E+02  2.169405E-09  3.441393E-10
        83  14  3.251997E+05 -2.839476E+03  1.771251E+04 -2.946426E+02  2.066403E-09 -1.197033E-10
        83  15  3.279326E+05 -3.195299E+02  1.085206E+04 -5.118226E+02 -6.765388E-10  3.075613E-10
        83  16  3.338770E+05  1.317746E+04  3.624699E+04 -6.792945E+02  2.244362E-09 -1.812136E-09
        83  17  3.311203E+05 -1.359783E+03  1.919203E+04 -3.357636E+02  6.177379E-09 -1.202340E-08
        83  18  3.338257E+05  1.152887E+03  1.232463E+04 -4.140077E+02 -7.957105E-09  4.190700E-08
        83  19  3.219820E+05  1.020403E+04  3.327609E+04 -3.191841E+02 -2.631224E+04  1.715554E+00
        83  20  3.192795E+05 -4.319092E+03  1.623355E+04 -2.535223E+02 -1.721195E+04  1.322166E+01
        83  21  3.220396E+05 -1.791932E+03  9.379598E+03 -6.096365E+02 -8.111755E+03  3.969492E+00
        83  22  3.279298E+05  1.169084E+04  3.476219E+04 -4.992384E+02 -2.631166E+04  1.722394E+00
        83  23  3.252000E+05 -2.839396E+03  1.771307E+04 -2.946428E+02 -1.721179E+04  1.322249E+01
        83  24  3.279327E+05 -3.195122E+02  1.085218E+04 -5.118226E+02 -8.112019E+03  3.968464E+00
        83  25  3.338777E+05  1.317764E+04  3.624829E+04 -6.792945E+02 -2.631108E+04  1.729233E+00
        83  26  3.311206E+05 -1.359703E+03  1.919259E+04 -3.357637E+02 -1.721163E+04  1.322332E+01
        83  27  3.338258E+05  1.152905E+03  1.232476E+04 -4.140077E+02 -8.112283E+03  3.967436E+00
        84   1  3.260317E+05  1.581915E+03  8.399976E+03 -4.103144E+02  6.343278E+03 -1.020407E+00
        84   2  3.255282E+05 -6.928173E+02  4.651974E+03 -3.790902E+02  3.875854E+03 -4.064271E+00
        84   3  3.260462E+05 -1.655832E+02  3.210233E+03 -4.551830E+02  1.408478E+03 -2.733355E+00
        84   4  3.269454E+05  1.810306E+03  8.628221E+03 -4.360811E+02  6.343086E+03 -1.020429E+00
        84   5  3.264349E+05 -4.662091E+02  4.878564E+03 -3.834880E+02  3.875765E+03 -4.064182E+00
        84   6  3.269460E+05  5.922198E+01  3.435094E+03 -4.382121E+02  1.408491E+03 -2.733327E+00
        84   7  3.278591E+05  2.038697E+03  8.856466E+03 -4.618480E+02  6.342895E+03 -1.020451E+00
        84   8  3.273416E+05 -2.396009E+02  5.105153E+03 -3.878859E+02  3.875675E+03 -4.064095E+00
        84   9  3.278457E+05  2.840272E+02  3.659955E+03 -4.212412E+02  1.408503E+03 -2.733305E+00
        84  10  3.260317E+05  1.581904E+03  8.399901E+03 -4.103155E+02 -2.271585E-06 -2.787630E-07
        84  11  3.255282E+05 -6.928200E+02  4.651946E+03 -3.790952E+02 -1.027258E-05 -8.389149E-07
        84  12  3.260462E+05 -1.655817E+02  3.210230E+03 -4.551918E+02 -1.833440E-05 -1.149535E-06
        84  13  3.269454E+05  1.810295E+03  8.628146E+03 -4.360811E+02 -5.836215E-06  1.775706E-07
        84  14  3.264349E+05 -4.662130E+02  4.878536E+03 -3.834880E+02 -2.589159E-05  7.947709E-07
        84  15  3.269460E+05  5.922143E+01  3.435090E+03 -4.382121E+02 -4.595004E-05  1.410789E-06
        84  16  3.278590E+05  2.038686E+03  8.856391E+03 -4.618469E+02 -2.397242E-06  9.361066E-09
        84  17  3.273416E+05 -2.396060E+02  5.105125E+03 -3.878809E+02 -1.044359E-05 -3.545006E-07
        84  18  3.278457E+05  2.840245E+02  3.659951E+03 -4.212323E+02 -1.843247E-05 -9.688296E-07
        84  19  3.260317E+05  1.581915E+03  8.399976E+03 -4.103166E+02 -6.343278E+03  1.020406E+00
        84  20  3.255282E+05 -6.928147E+02  4.651975E+03 -3.791002E+02 -3.875854E+03  4.064270E+00
        84  21  3.260462E+05 -1.655790E+02  3.210234E+03 -4.552006E+02 -1.408478E+03  2.733353E+00
        84  22  3.269454E+05  1.810306E+03  8.628221E+03 -4.360811E+02 -6.343086E+03  1.020429E+00
        84  23  3.264349E+05 -4.662090E+02  4.878564E+03 -3.834880E+02 -3.875765E+03  4.064183E+00
        84  24  3.269460E+05  5.922195E+01  3.435094E+03 -4.382121E+02 -1.408491E+03  2.733330E+00
        84  25  3.278591E+05  2.038697E+03  8.856466E+03 -4.618457E+02 -6.342895E+03  1.020451E+00
        84  26  3.273416E+05 -2.396031E+02  5.105153E+03 -3.878759E+02 -3.875675E+03  4.064095E+00
        84  27  3.278457E+05  2.840230E+02  3.659954E+03 -4.212235E+02 -1.408503E+03  2.733303E+00
        85   1  3.281176E+05  5.785586E+02  3.395566E+03 -4.337044E+02  8.175882E+02 -7.827664E-01
        85   2  3.278530E+05  8.376221E+01  3.183677E+03 -3.808834E+02 -6.254781E+02 -1.540144E-01
        85   3  3.281337E+05  1.017836E+03  4.268227E+03 -4.543800E+02 -2.068574E+03 -6.119189E+00
        85   4  3.268401E+05  2.593434E+02  3.076327E+03 -4.418125E+02  8.176384E+02 -7.828384E-01
        85   5  3.265674E+05 -2.375196E+02  2.862412E+03 -3.783955E+02 -6.255837E+02 -1.538857E-01
        85   6  3.268400E+05  6.945161E+02  3.945045E+03 -4.412958E+02 -2.068836E+03 -6.118914E+00
        85   7  3.255627E+05 -5.987198E+01  2.757088E+03 -4.499207E+02  8.176886E+02 -7.829153E-01
        85   8  3.252818E+05 -5.588016E+02  2.541147E+03 -3.759075E+02 -6.256892E+02 -1.537598E-01
        85   9  3.255463E+05  3.711962E+02  3.621864E+03 -4.282116E+02 -2.069097E+03 -6.118640E+00
        85  10  3.281176E+05  5.785605E+02  3.395565E+03 -4.337132E+02 -1.843092E-05 -9.667000E-07
        85  11  3.278530E+05  8.376321E+01  3.183677E+03 -3.808884E+02 -1.044214E-05 -3.539321E-07
        85  12  3.281337E+05  1.017835E+03  4.268219E+03 -4.543811E+02 -2.395101E-06  7.085164E-09
        85  13  3.268401E+05  2.593432E+02  3.076326E+03 -4.418125E+02 -4.595103E-05  1.411610E-06
        85  14  3.265674E+05 -2.375198E+02  2.862412E+03 -3.783955E+02 -2.589032E-05  7.939754E-07
        85  15  3.268400E+05  6.945149E+02  3.945037E+03 -4.412958E+02 -5.838213E-06  1.777262E-07
        85  16  3.255627E+05 -5.987428E+01  2.757087E+03 -4.499119E+02 -1.833053E-05 -1.148217E-06
        85  17  3.252818E+05 -5.588029E+02  2.541146E+03 -3.759026E+02 -1.027370E-05 -8.397185E-07
        85  18  3.255463E+05  3.711948E+02  3.621856E+03 -4.282105E+02 -2.274911E-06 -2.800908E-07
        85  19  3.281176E+05  5.785628E+02  3.395567E+03 -4.337220E+02 -8.175883E+02  7.827645E-01
        85  20  3.278530E+05  8.376441E+01  3.183678E+03 -3.808933E+02  6.254781E+02  1.540137E-01
        85  21  3.281337E+05  1.017836E+03  4.268227E+03 -4.543822E+02  2.068574E+03  6.119189E+00
        85  22  3.268401E+05  2.593434E+02  3.076327E+03 -4.418125E+02 -8.176385E+02  7.828412E-01
        85  23  3.265674E+05 -2.375197E+02  2.862412E+03 -3.783955E+02  6.255836E+02  1.538873E-01
        85  24  3.268400E+05  6.945161E+02  3.945046E+03 -4.412958E+02  2.068836E+03  6.118915E+00
        85  25  3.255627E+05 -5.987622E+01  2.757087E+03 -4.499030E+02 -8.176886E+02  7.829130E-01
        85  26  3.252818E+05 -5.588041E+02  2.541147E+03 -3.758976E+02  6.256892E+02  1.537581E-01
        85  27  3.255463E+05  3.711956E+02  3.621864E+03 -4.282094E+02  2.069097E+03  6.118640E+00
        86   1  3.346502E+05  1.774695E+03  6.557607E+03 -5.014122E+02 -2.853823E+03 -4.054315E+00
        86   2  3.335987E+05  7.620938E+02  9.083611E+03 -2.834212E+02 -6.553565E+03 -4.364888E-01
        86   3  3.347183E+05  6.404506E+03  1.568638E+04 -6.039689E+02 -1.025334E+04 -2.258634E+01
        86   4  3.272015E+05 -8.668041E+01  4.696241E+03 -5.349552E+02 -2.853507E+03 -4.054507E+00
        86   5  3.261153E+05 -1.108096E+03  7.213558E+03 -2.634023E+02 -6.553829E+03 -4.363563E-01
        86   6  3.272003E+05  4.525647E+03  1.380807E+04 -5.303885E+02 -1.025419E+04 -2.258666E+01
        86   7  3.197527E+05 -1.948060E+03  2.834871E+03 -5.684977E+02 -2.853192E+03 -4.054699E+00
        86   8  3.186319E+05 -2.978291E+03  5.343501E+03 -2.433836E+02 -6.554093E+03 -4.362239E-01
        86   9  3.196825E+05  2.646783E+03  1.192977E+04 -4.568089E+02 -1.025503E+04 -2.258697E+01
        86  10  3.346502E+05  1.774693E+03  6.557592E+03 -5.014122E+02 -1.060809E-08  4.006525E-08
        86  11  3.335986E+05  7.620823E+02  9.083531E+03 -2.834212E+02  2.580426E-09 -9.978135E-09
        86  12  3.347181E+05  6.404478E+03  1.568618E+04 -6.039690E+02 -4.313997E-11 -1.599728E-09
        86  13  3.272014E+05 -8.668262E+01  4.696226E+03 -5.349552E+02 -5.218765E-11 -1.303365E-09
        86  14  3.261152E+05 -1.108108E+03  7.213477E+03 -2.634023E+02 -1.018703E-09 -1.093357E-09
        86  15  3.272002E+05  4.525618E+03  1.380788E+04 -5.303886E+02 -3.728389E-09 -2.080196E-10
        86  16  3.197527E+05 -1.948063E+03  2.834855E+03 -5.684977E+02  1.040031E-08 -4.390883E-08
        86  17  3.186319E+05 -2.978302E+03  5.343420E+03 -2.433836E+02  9.820750E-10  1.108740E-08
        86  18  3.196824E+05  2.646754E+03  1.192957E+04 -4.568091E+02 -1.624155E-09  2.749024E-09
        86  19  3.346502E+05  1.774695E+03  6.557607E+03 -5.014122E+02  2.853823E+03  4.054315E+00
        86  20  3.335987E+05  7.620938E+02  9.083611E+03 -2.834212E+02  6.553565E+03  4.364888E-01
        86  21  3.347183E+05  6.404506E+03  1.568638E+04 -6.039689E+02  1.025334E+04  2.258634E+01
        86  22  3.272015E+05 -8.668045E+01  4.696241E+03 -5.349551E+02  2.853507E+03  4.054507E+00
        86  23  3.261153E+05 -1.108096E+03  7.213558E+03 -2.634023E+02  6.553829E+03  4.363563E-01
        86  24  3.272003E+05  4.525647E+03  1.380807E+04 -5.303885E+02  1.025419E+04  2.258666E+01
        86  25  3.197527E+05 -1.948060E+03  2.834871E+03 -5.684977E+02  2.853192E+03  4.054699E+00
        86  26  3.186319E+05 -2.978291E+03  5.343501E+03 -2.433836E+02  6.554093E+03  4.362239E-01
        86  27  3.196825E+05  2.646783E+03  1.192977E+04 -4.568089E+02  1.025503E+04  2.258697E+01
        87   1  3.664017E+05  8.345714E+03  2.636818E+04 -7.820205E+02 -1.307609E+04 -3.024895E+01
        87   2  3.599973E+05  2.161974E+03  3.650571E+04  2.056454E+02 -2.743192E+04 -4.178096E+01
        87   3  3.667356E+05  3.840954E+04  6.672780E+04 -1.474717E+03 -4.178762E+04 -1.027538E+02
        87   4  3.296392E+05 -8.407374E+02  1.718192E+04 -1.007572E+03 -1.307553E+04 -3.024435E+01
        87   5  3.230652E+05 -7.067525E+03  2.727707E+04  3.252793E+02 -2.743179E+04 -4.178604E+01
        87   6  3.296345E+05  2.913841E+04  5.745791E+04 -1.009912E+03 -4.178793E+04 -1.027856E+02
        87   7  2.928779E+05 -1.002729E+04  7.995556E+03 -1.233110E+03 -1.307496E+04 -3.023974E+01
        87   8  2.861342E+05 -1.629713E+04  1.804832E+04  4.449062E+02 -2.743167E+04 -4.179112E+01
        87   9  2.925347E+05  1.986717E+04  4.818791E+04 -5.451338E+02 -4.178824E+04 -1.028175E+02
        87  10  3.664015E+05  8.345668E+03  2.636786E+04 -7.820208E+02 -2.570217E-09  8.246970E-09
        87  11  3.599965E+05  2.161772E+03  3.650430E+04  2.056445E+02 -1.720601E-11 -3.049360E-09
        87  12  3.667337E+05  3.840907E+04  6.672452E+04 -1.474721E+03 -2.790279E-09 -8.608682E-10
        87  13  3.296390E+05 -8.407833E+02  1.718160E+04 -1.007572E+03 -2.149661E-09  2.109965E-10
        87  14  3.230643E+05 -7.067727E+03  2.727566E+04  3.252784E+02 -5.501120E-09 -2.895845E-10
        87  15  3.296327E+05  2.913794E+04  5.745463E+04 -1.009915E+03  5.493673E-10 -1.885365E-10
        87  16  2.928777E+05 -1.002734E+04  7.995235E+03 -1.233110E+03 -1.514264E-09 -6.618907E-09
        87  17  2.861334E+05 -1.629733E+04  1.804691E+04  4.449052E+02 -3.228113E-09  1.158603E-09
        87  18  2.925329E+05  1.986670E+04  4.818463E+04 -5.451373E+02 -5.718881E-10  1.019177E-09
        87  19  3.664017E+05  8.345714E+03  2.636818E+04 -7.820205E+02  1.307609E+04  3.024895E+01
        87  20  3.599973E+05  2.161974E+03  3.650571E+04  2.056454E+02  2.743192E+04  4.178096E+01
        87  21  3.667356E+05  3.840954E+04  6.672780E+04 -1.474717E+03  4.178762E+04  1.027538E+02
        87  22  3.296392E+05 -8.407374E+02  1.718192E+04 -1.007572E+03  1.307553E+04  3.024435E+01
        87  23  3.230652E+05 -7.067525E+03  2.727707E+04  3.252793E+02  2.743179E+04  4.178604E+01
        87  24  3.296345E+05  2.913841E+04  5.745791E+04 -1.009912E+03  4.178793E+04  1.027856E+02
        87  25  2.928779E+05 -1.002729E+04  7.995556E+03 -1.233110E+03  1.307496E+04  3.023974E+01
        87  26  2.861342E+05 -1.629713E+04  1.804832E+04  4.449062E+02  2.743167E+04  4.179112E+01
        87  27  2.925347E+05  1.986717E+04  4.818791E+04 -5.451338E+02  4.178824E+04  1.028175E+02
        88   1  5.251538E+05  3.925329E+04  1.147518E+05 -1.660303E+03 -5.352676E+04 -2.628094E+02
        88   2  4.798226E+05 -1.400011E+03  1.489635E+05  3.024439E+03 -1.109896E+05 -6.821494E+02
        88   3  5.269184E+05  2.345303E+05  2.928814E+05 -6.807950E+03 -1.684535E+05 -1.028879E+03
        88   4  3.472493E+05 -5.204005E+03  7.030139E+04 -3.344929E+03 -5.352590E+04 -2.626775E+02
        88   5  3.010293E+05 -4.607381E+04  1.042929E+05  3.400573E+03 -1.109725E+05 -6.822442E+02
        88   6  3.472521E+05  1.896773E+05  2.480009E+05 -4.371203E+03 -1.684202E+05 -1.029559E+03
        88   7  1.693734E+05 -4.966367E+04  2.584864E+04 -5.029078E+03 -5.352504E+04 -2.625456E+02
        88   8  1.222649E+05 -9.075002E+04  5.961987E+04  3.776577E+03 -1.109554E+05 -6.823390E+02
        88   9  1.676150E+05  1.448219E+05  2.031180E+05 -1.935201E+03 -1.683868E+05 -1.030239E+03
        88  10  5.251508E+05  3.925252E+04  1.147464E+05 -1.660315E+03 -1.439761E-11  8.494824E-10
        88  11  4.798094E+05 -1.403315E+03  1.489404E+05  3.024378E+03  4.890942E-10 -2.860918E-09
        88  12  5.268879E+05  2.345227E+05  2.928281E+05 -6.808089E+03 -7.625036E-10 -2.586106E-09
        88  13  3.472462E+05 -5.204774E+03  7.029601E+04 -3.344940E+03 -2.056941E-09  8.636264E-11
        88  14  3.010161E+05 -4.607711E+04  1.042698E+05  3.400512E+03 -9.229253E-10  2.861477E-09
        88  15  3.472216E+05  1.896697E+05  2.479476E+05 -4.371343E+03  2.052561E-09 -1.592427E-09
        88  16  1.693704E+05 -4.966444E+04  2.584326E+04 -5.029089E+03 -1.986008E-10 -1.603577E-09
        88  17  1.222517E+05 -9.075332E+04  5.959674E+04  3.776516E+03  2.864044E-10 -1.417545E-09
        88  18  1.675845E+05  1.448143E+05  2.030647E+05 -1.935341E+03 -1.549867E-09 -2.564335E-09
        88  19  5.251538E+05  3.925329E+04  1.147518E+05 -1.660303E+03  5.352676E+04  2.628094E+02
        88  20  4.798226E+05 -1.400011E+03  1.489635E+05  3.024439E+03  1.109896E+05  6.821494E+02
        88  21  5.269184E+05  2.345303E+05  2.928814E+05 -6.807950E+03  1.684535E+05  1.028879E+03
        88  22  3.472493E+05 -5.204005E+03  7.030139E+04 -3.344929E+03  5.352590E+04  2.626775E+02
        88  23  3.010293E+05 -4.607381E+04  1.042929E+05  3.400573E+03  1.109725E+05  6.822442E+02
        88  24  3.472521E+05  1.896773E+05  2.480009E+05 -4.371203E+03  1.684202E+05  1.029559E+03
        88  25  1.693734E+05 -4.966367E+04  2.584864E+04 -5.029078E+03  5.352504E+04  2.625456E+02
        88  26  1.222649E+05 -9.075002E+04  5.961987E+04  3.776577E+03  1.109554E+05  6.823390E+02
        88  27  1.676150E+05  1.448219E+05  2.031180E+05 -1.935201E+03  1.683868E+05  1.030239E+03
        89   1 -8.418785E+06 -2.492392E+06 -1.493989E+06 -2.974792E+06 -7.253535E+05 -2.591661E+05
        89   2 -8.227679E+06 -1.421020E+06 -8.184997E+05 -3.102824E+06 -4.708854E+05 -1.302515E+05
        89   3 -8.431249E+06 -1.416454E+06 -6.263593E+05 -2.994541E+06 -2.045598E+05 -3.253733E+04
        89   4 -7.199235E+06 -1.807428E+06 -1.114150E+06 -2.418764E+06 -7.078036E+05 -2.528265E+05
        89   5 -6.943914E+06 -8.719982E+05 -4.617510E+05 -2.689317E+06 -4.660867E+05 -1.284996E+05
        89   6 -7.079914E+06 -9.995973E+05 -2.817517E+05 -2.723806E+06 -2.124994E+05 -3.550205E+04
        89   7 -5.978100E+06 -1.121751E+06 -7.344545E+05 -1.861556E+06 -6.902142E+05 -2.464557E+05
        89   8 -5.658521E+06 -3.227459E+05 -1.051570E+05 -2.274980E+06 -4.612761E+05 -1.267417E+05
        89   9 -5.726789E+06 -5.827623E+05  6.271498E+04 -2.452598E+06 -2.204579E+05 -3.847080E+04
        89  10 -8.419375E+06 -2.492609E+06 -1.495122E+06 -2.974945E+06 -2.163267E-09 -1.012247E-09
        89  11 -8.227924E+06 -1.421099E+06 -8.189552E+05 -3.102874E+06 -1.382902E-09 -1.316581E-09
        89  12 -8.431295E+06 -1.416466E+06 -6.264411E+05 -2.994546E+06 -8.516075E-10  2.546809E-09
        89  13 -7.199796E+06 -1.807634E+06 -1.115226E+06 -2.418909E+06  2.036748E-09 -6.201588E-10
        89  14 -6.944154E+06 -8.720755E+05 -4.621959E+05 -2.689366E+06 -2.056845E-09 -1.332331E-09
        89  15 -7.079964E+06 -9.996109E+05 -2.818400E+05 -2.723812E+06  3.664371E-09  1.914863E-09
        89  16 -5.978632E+06 -1.121946E+06 -7.354747E+05 -1.861693E+06 -6.553695E-10  6.123046E-11
        89  17 -5.658756E+06 -3.228212E+05 -1.055917E+05 -2.275027E+06  2.608303E-10  5.844924E-10
        89  18 -5.726842E+06 -5.827771E+05  6.261988E+04 -2.452605E+06  1.132599E-09  2.906169E-09
        89  19 -8.418785E+06 -2.492392E+06 -1.493989E+06 -2.974792E+06  7.253535E+05  2.591661E+05
        89  20 -8.227679E+06 -1.421020E+06 -8.184997E+05 -3.102824E+06  4.708854E+05  1.302515E+05
        89  21 -8.431249E+06 -1.416454E+06 -6.263593E+05 -2.994541E+06  2.045598E+05  3.253733E+04
        89  22 -7.199235E+06 -1.807428E+06 -1.114150E+06 -2.418764E+06  7.078036E+05  2.528265E+05
        89  23 -6.943914E+06 -8.719982E+05 -4.617510E+05 -2.689317E+06  4.660867E+05  1.284996E+05
        89  24 -7.079914E+06 -9.995973E+05 -2.817517E+05 -2.723806E+06  2.124994E+05  3.550205E+04
        89  25 -5.978100E+06 -1.121751E+06 -7.344545E+05 -1.861556E+06  6.902142E+05  2.464557E+05
        89  26 -5.658521E+06 -3.227459E+05 -1.051570E+05 -2.274980E+06  4.612761E+05  1.267417E+05
        89  27 -5.726789E+06 -5.827623E+05  6.271498E+04 -2.452598E+06  2.204579E+05  3.847080E+04
        90   1 -8.172915E+06 -1.581398E+06 -5.406043E+05 -2.998270E+06 -1.700574E+05 -2.654346E+04
        90   2 -8.084113E+06 -1.388255E+06 -3.913375E+05 -2.951105E+06 -1.115220E+05 -5.738809E+03
        90   3 -7.981470E+06 -1.382679E+06 -3.186879E+05 -2.948082E+06 -5.159768E+04  1.138238E+04
        90   4 -7.036561E+06 -1.126931E+06 -2.299061E+05 -2.664523E+06 -1.699474E+05 -2.651486E+04
        90   5 -7.036679E+06 -9.858792E+05 -1.087453E+05 -2.660197E+06 -1.128655E+05 -6.249276E+03
        90   6 -7.022584E+06 -1.031962E+06 -6.292529E+04 -2.700028E+06 -5.440507E+04  1.032808E+04
        90   7 -5.898939E+06 -6.723445E+05  8.067453E+04 -2.330200E+06 -1.698371E+05 -2.648604E+04
        90   8 -5.988171E+06 -5.834278E+05  1.737488E+05 -2.368835E+06 -1.142114E+05 -6.760664E+03
        90   9 -6.062801E+06 -6.812055E+05  1.927570E+05 -2.451629E+06 -5.721724E+04  9.272120E+03
        90  10 -8.172946E+06 -1.581407E+06 -5.406608E+05 -2.998274E+06  1.474719E-09  2.703129E-09
        90  11 -8.084127E+06 -1.388259E+06 -3.913612E+05 -2.951106E+06 -2.837903E-10 -5.265750E-10
        90  12 -7.981473E+06 -1.382680E+06 -3.186932E+05 -2.948082E+06 -5.563364E-10 -4.915632E-10
        90  13 -7.036593E+06 -1.126940E+06 -2.299624E+05 -2.664527E+06  4.537433E-09  1.695135E-09
        90  14 -7.036693E+06 -9.858827E+05 -1.087696E+05 -2.660197E+06  2.425841E-10 -2.990661E-10
        90  15 -7.022587E+06 -1.031963E+06 -6.293110E+04 -2.700028E+06 -1.430870E-09 -9.501979E-11
        90  16 -5.898971E+06 -6.723531E+05  8.061843E+04 -2.330204E+06  3.092754E-09  2.343828E-10
        90  17 -5.988186E+06 -5.834313E+05  1.737240E+05 -2.368836E+06  1.435390E-10 -3.471078E-10
        90  18 -6.062805E+06 -6.812065E+05  1.927506E+05 -2.451629E+06 -1.542285E-10 -9.313557E-11
        90  19 -8.172915E+06 -1.581398E+06 -5.406043E+05 -2.998270E+06  1.700574E+05  2.654346E+04
        90  20 -8.084113E+06 -1.388255E+06 -3.913375E+05 -2.951105E+06  1.115220E+05  5.738809E+03
        90  21 -7.981470E+06 -1.382679E+06 -3.186879E+05 -2.948082E+06  5.159768E+04 -1.138238E+04
        90  22 -7.036561E+06 -1.126931E+06 -2.299061E+05 -2.664523E+06  1.699474E+05  2.651486E+04
        90  23 -7.036679E+06 -9.858792E+05 -1.087453E+05 -2.660197E+06  1.128655E+05  6.249276E+03
        90  24 -7.022584E+06 -1.031962E+06 -6.292529E+04 -2.700028E+06  5.440507E+04 -1.032808E+04
        90  25 -5.898939E+06 -6.723445E+05  8.067453E+04 -2.330200E+06  1.698371E+05  2.648604E+04
        90  26 -5.988171E+06 -5.834278E+05  1.737488E+05 -2.368835E+06  1.142114E+05  6.760664E+03
        90  27 -6.062801E+06 -6.812055E+05  1.927570E+05 -2.451629E+06  5.721724E+04 -9.272120E+03
        91   1 -7.756353E+06 -1.334150E+06 -2.491961E+05 -2.901991E+06 -4.197085E+04  1.105589E+04
        91   2 -7.659080E+06 -1.222658E+06 -1.879988E+05 -2.814951E+06 -2.679171E+04  1.067902E+04
        91   3 -7.479029E+06 -1.214826E+06 -1.404773E+05 -2.827165E+06 -1.132361E+04  9.511022E+03
        91   4 -7.012638E+06 -1.051151E+06 -4.942242E+04 -2.698078E+06 -4.407735E+04  1.026510E+04
        91   5 -7.053207E+06 -9.937164E+05 -2.529491E+04 -2.650536E+06 -2.921672E+04  9.771274E+03
        91   6 -7.010949E+06 -1.039863E+06 -1.457289E+04 -2.702252E+06 -1.407047E+04  8.485448E+03
        91   7 -6.268384E+06 -7.681179E+05  1.503016E+05 -2.493940E+06 -4.618664E+04  9.473253E+03
        91   8 -6.446976E+06 -7.647532E+05  1.373764E+05 -2.485975E+06 -3.164434E+04  8.862541E+03
        91   9 -6.542654E+06 -8.648879E+05  1.113124E+05 -2.577253E+06 -1.681964E+04  7.459031E+03
        91  10 -7.756355E+06 -1.334150E+06 -2.491996E+05 -2.901991E+06 -1.514547E-09  3.342206E-10
        91  11 -7.659081E+06 -1.222658E+06 -1.880004E+05 -2.814951E+06  2.112059E-09  2.381178E-10
        91  12 -7.479029E+06 -1.214826E+06 -1.404777E+05 -2.827165E+06 -7.081595E-10  1.014984E-09
        91  13 -7.012640E+06 -1.051152E+06 -4.942630E+04 -2.698077E+06 -4.276590E-10 -3.883288E-10
        91  14 -7.053208E+06 -9.937167E+05 -2.529671E+04 -2.650536E+06  1.233238E-09 -7.396080E-12
        91  15 -7.010949E+06 -1.039863E+06 -1.457340E+04 -2.702252E+06 -1.343573E-09 -1.111166E-09
        91  16 -6.268386E+06 -7.681185E+05  1.502974E+05 -2.493940E+06 -1.477962E-09  3.448442E-10
        91  17 -6.446977E+06 -7.647535E+05  1.373743E+05 -2.485975E+06 -9.338297E-10  5.593120E-10
        91  18 -6.542654E+06 -8.648881E+05  1.113118E+05 -2.577253E+06  2.762747E-09 -9.775282E-10
        91  19 -7.756353E+06 -1.334150E+06 -2.491961E+05 -2.901991E+06  4.197085E+04 -1.105589E+04
        91  20 -7.659080E+06 -1.222658E+06 -1.879988E+05 -2.814951E+06  2.679171E+04 -1.067902E+04
        91  21 -7.479029E+06 -1.214826E+06 -1.404773E+05 -2.827165E+06  1.132361E+04 -9.511022E+03
        91  22 -7.012638E+06 -1.051151E+06 -4.942242E+04 -2.698078E+06  4.407735E+04 -1.026510E+04
        91  23 -7.053207E+06 -9.937164E+05 -2.529491E+04 -2.650536E+06  2.921672E+04 -9.771274E+03
        91  24 -7.010949E+06 -1.039863E+06 -1.457289E+04 -2.702252E+06  1.407047E+04 -8.485448E+03
        91  25 -6.268384E+06 -7.681179E+05  1.503016E+05 -2.493940E+06  4.618664E+04 -9.473253E+03
        91  26 -6.446976E+06 -7.647532E+05  1.373764E+05 -2.485975E+06  3.164434E+04 -8.862541E+03
        91  27 -6.542654E+06 -8.648879E+05  1.113124E+05 -2.577253E+06  1.681964E+04 -7.459031E+03
        92   1 -7.225311E+06 -1.125437E+06 -6.920166E+04 -2.762660E+06 -7.848989E+03  6.511106E+03
        92   2 -7.119671E+06 -1.016295E+06 -2.377449E+04 -2.664183E+06 -1.935854E+03  1.417804E+03
        92   3 -6.916519E+06 -1.007863E+06  1.846702E+04 -2.679213E+06  4.005468E+03 -3.751809E+03
        92   4 -7.008253E+06 -1.043583E+06 -1.149921E+04 -2.703772E+06 -1.054273E+04  5.506342E+03
        92   5 -7.056913E+06 -9.926576E+05 -6.941369E+03 -2.647224E+06 -4.661031E+03  4.015177E+02
        92   6 -7.008078E+06 -1.042437E+06 -5.540734E+03 -2.704193E+06  1.247849E+03 -4.779881E+03
        92   7 -6.791150E+06 -9.617263E+05  4.619914E+04 -2.644865E+06 -1.323751E+04  4.501187E+03
        92   8 -6.994152E+06 -9.690204E+05  9.891411E+03 -2.630265E+06 -7.386510E+03 -6.148810E+02
        92   9 -7.099629E+06 -1.077009E+06 -2.954911E+04 -2.729168E+06 -1.509313E+03 -5.807780E+03
        92  10 -7.225311E+06 -1.125437E+06 -6.920185E+04 -2.762660E+06 -2.598948E-09  1.003167E-09
        92  11 -7.119671E+06 -1.016295E+06 -2.377450E+04 -2.664183E+06  4.078154E-09  5.080052E-09
        92  12 -6.916519E+06 -1.007863E+06  1.846696E+04 -2.679213E+06  1.764661E-09  1.136400E-09
        92  13 -7.008253E+06 -1.043583E+06 -1.149948E+04 -2.703772E+06 -3.036740E-09 -1.942123E-09
        92  14 -7.056913E+06 -9.926576E+05 -6.941411E+03 -2.647224E+06  1.998794E-09  8.642582E-10
        92  15 -7.008078E+06 -1.042437E+06 -5.540780E+03 -2.704193E+06  2.096982E-09  3.058094E-09
        92  16 -6.791150E+06 -9.617264E+05  4.619877E+04 -2.644865E+06  1.850648E-09 -1.808657E-09
        92  17 -6.994153E+06 -9.690204E+05  9.891307E+03 -2.630265E+06 -1.584146E-09 -1.243058E-09
        92  18 -7.099629E+06 -1.077009E+06 -2.954917E+04 -2.729168E+06 -2.850563E-09 -8.098299E-10
        92  19 -7.225311E+06 -1.125437E+06 -6.920166E+04 -2.762660E+06  7.848989E+03 -6.511106E+03
        92  20 -7.119671E+06 -1.016295E+06 -2.377449E+04 -2.664183E+06  1.935854E+03 -1.417804E+03
        92  21 -6.916519E+06 -1.007863E+06  1.846702E+04 -2.679213E+06 -4.005468E+03  3.751809E+03
        92  22 -7.008253E+06 -1.043583E+06 -1.149921E+04 -2.703772E+06  1.054273E+04 -5.506342E+03
        92  23 -7.056913E+06 -9.926576E+05 -6.941369E+03 -2.647224E+06  4.661031E+03 -4.015177E+02
        92  24 -7.008078E+06 -1.042437E+06 -5.540734E+03 -2.704193E+06 -1.247849E+03  4.779881E+03
        92  25 -6.791150E+06 -9.617263E+05  4.619914E+04 -2.644865E+06  1.323751E+04 -4.501187E+03
        92  26 -6.994152E+06 -9.690204E+05  9.891411E+03 -2.630265E+06  7.386510E+03  6.148810E+02
        92  27 -7.099629E+06 -1.077009E+06 -2.954911E+04 -2.729168E+06  1.509313E+03  5.807780E+03
        93   1 -6.662828E+06 -9.106808E+05  8.798062E+04 -2.609260E+06  6.320781E+03 -7.230301E+03
        93   2 -6.564264E+06 -8.093996E+05  1.247519E+05 -2.516374E+06  1.196210E+04 -1.226774E+04
        93   3 -6.373788E+06 -8.025942E+05  1.586305E+05 -2.529687E+06  1.744035E+04 -1.684173E+04
        93   4 -7.009359E+06 -1.041023E+06 -5.505541E+03 -2.702600E+06  3.570903E+03 -8.256147E+03
        93   5 -7.055402E+06 -9.944655E+05 -6.963587E+03 -2.649237E+06  9.404688E+03 -1.322372E+04
        93   6 -7.009590E+06 -1.042432E+06 -1.146894E+04 -2.702088E+06  1.507445E+04 -1.772789E+04
        93   7 -7.355774E+06 -1.171358E+06 -9.900265E+04 -2.795893E+06  8.227220E+02 -9.281363E+03
        93   8 -7.546304E+06 -1.179518E+06 -1.387006E+05 -2.782004E+06  6.849514E+03 -1.417886E+04
        93   9 -7.644997E+06 -1.282245E+06 -1.816040E+05 -2.874327E+06  1.271124E+04 -1.861305E+04
        93  10 -6.662829E+06 -9.106808E+05  8.798044E+04 -2.609260E+06  1.780845E-09  4.336754E-09
        93  11 -6.564265E+06 -8.093998E+05  1.247513E+05 -2.516374E+06 -2.865941E-09 -2.285390E-09
        93  12 -6.373788E+06 -8.025946E+05  1.586294E+05 -2.529687E+06 -3.896045E-09 -7.101915E-10
        93  13 -7.009359E+06 -1.041023E+06 -5.505693E+03 -2.702600E+06 -1.808767E-10  2.854506E-10
        93  14 -7.055402E+06 -9.944657E+05 -6.964080E+03 -2.649237E+06  4.389773E-09  5.378401E-09
        93  15 -7.009590E+06 -1.042432E+06 -1.146995E+04 -2.702088E+06  2.862985E-09  7.725172E-10
        93  16 -7.355774E+06 -1.171358E+06 -9.900281E+04 -2.795893E+06  4.185951E-10  1.095855E-09
        93  17 -7.546304E+06 -1.179518E+06 -1.387010E+05 -2.782003E+06  5.989219E-10  5.779590E-11
        93  18 -7.644997E+06 -1.282246E+06 -1.816050E+05 -2.874327E+06  3.080158E-09  4.752659E-10
        93  19 -6.662828E+06 -9.106808E+05  8.798062E+04 -2.609260E+06 -6.320781E+03  7.230301E+03
        93  20 -6.564264E+06 -8.093996E+05  1.247519E+05 -2.516374E+06 -1.196210E+04  1.226774E+04
        93  21 -6.373788E+06 -8.025942E+05  1.586305E+05 -2.529687E+06 -1.744035E+04  1.684173E+04
        93  22 -7.009359E+06 -1.041023E+06 -5.505541E+03 -2.702600E+06 -3.570903E+03  8.256147E+03
        93  23 -7.055402E+06 -9.944655E+05 -6.963587E+03 -2.649237E+06 -9.404688E+03  1.322372E+04
        93  24 -7.009590E+06 -1.042432E+06 -1.146894E+04 -2.702088E+06 -1.507445E+04  1.772789E+04
        93  25 -7.355774E+06 -1.171358E+06 -9.900265E+04 -2.795893E+06 -8.227220E+02  9.281363E+03
        93  26 -7.546304E+06 -1.179518E+06 -1.387006E+05 -2.782004E+06 -6.849514E+03  1.417886E+04
        93  27 -7.644997E+06 -1.282245E+06 -1.816040E+05 -2.874327E+06 -1.271124E+04  1.861305E+04
        94   1 -6.159227E+06 -7.148167E+05  2.152233E+05 -2.467365E+06  2.081852E+04 -1.933576E+04
        94   2 -6.083031E+06 -6.334754E+05  2.339209E+05 -2.393378E+06  3.512861E+04 -1.979290E+04
        94   3 -5.940196E+06 -6.379780E+05  2.398785E+05 -2.398042E+06  4.903501E+04 -1.913095E+04
        94   4 -7.014690E+06 -1.036131E+06 -1.448641E+04 -2.697655E+06  1.841408E+04 -2.023824E+04
        94   5 -7.048813E+06 -9.988211E+05 -2.529603E+04 -2.656219E+06  3.317691E+04 -2.052888E+04
        94   6 -7.016407E+06 -1.047471E+06 -4.922327E+04 -2.693446E+06  4.753332E+04 -1.970054E+04
        94   7 -7.869439E+06 -1.357403E+06 -2.442605E+05 -2.927656E+06  1.601332E+04 -2.113937E+04
        94   8 -8.013685E+06 -1.364111E+06 -2.845958E+05 -2.918685E+06  3.122856E+04 -2.126360E+04
        94   9 -8.091490E+06 -1.456892E+06 -3.384288E+05 -2.988381E+06  4.603446E+04 -2.026906E+04
        94  10 -6.159228E+06 -7.148172E+05  2.152218E+05 -2.467365E+06  2.176223E-09 -9.619596E-10
        94  11 -6.083032E+06 -6.334761E+05  2.339179E+05 -2.393377E+06 -8.240100E-10  1.270326E-09
        94  12 -5.940199E+06 -6.379791E+05  2.398732E+05 -2.398042E+06 -3.409231E-09 -1.126340E-09
        94  13 -7.014691E+06 -1.036131E+06 -1.448781E+04 -2.697655E+06  3.846168E-09  7.459858E-10
        94  14 -7.048814E+06 -9.988219E+05 -2.529890E+04 -2.656218E+06  2.976007E-09 -9.843928E-10
        94  15 -7.016409E+06 -1.047472E+06 -4.922827E+04 -2.693445E+06  2.963803E-10 -3.308423E-10
        94  16 -7.869439E+06 -1.357404E+06 -2.442618E+05 -2.927656E+06  2.458156E-10 -1.780457E-09
        94  17 -8.013687E+06 -1.364112E+06 -2.845985E+05 -2.918685E+06  4.837347E-09  6.202899E-10
        94  18 -8.091493E+06 -1.456893E+06 -3.384335E+05 -2.988380E+06  1.609276E-09  1.525450E-09
        94  19 -6.159227E+06 -7.148167E+05  2.152233E+05 -2.467365E+06 -2.081852E+04  1.933576E+04
        94  20 -6.083031E+06 -6.334754E+05  2.339209E+05 -2.393378E+06 -3.512861E+04  1.979290E+04
        94  21 -5.940196E+06 -6.379780E+05  2.398785E+05 -2.398042E+06 -4.903501E+04  1.913095E+04
        94  22 -7.014690E+06 -1.036131E+06 -1.448641E+04 -2.697655E+06 -1.841408E+04  2.023824E+04
        94  23 -7.048813E+06 -9.988211E+05 -2.529603E+04 -2.656219E+06 -3.317691E+04  2.052888E+04
        94  24 -7.016407E+06 -1.047471E+06 -4.922327E+04 -2.693446E+06 -4.753332E+04  1.970054E+04
        94  25 -7.869439E+06 -1.357403E+06 -2.442605E+05 -2.927656E+06 -1.601332E+04  2.113937E+04
        94  26 -8.013685E+06 -1.364111E+06 -2.845958E+05 -2.918685E+06 -3.122856E+04  2.126360E+04
        94  27 -8.091490E+06 -1.456892E+06 -3.384288E+05 -2.988381E+06 -4.603446E+04  2.026906E+04
        95   1 -5.794521E+06 -5.707987E+05  2.666118E+05 -2.368835E+06  5.967581E+04 -1.806232E+04
        95   2 -5.748393E+06 -5.011379E+05  2.368760E+05 -2.312008E+06  1.157973E+05 -4.150570E+02
        95   3 -5.712623E+06 -5.913444E+05  1.336433E+05 -2.269034E+06  1.704600E+05  2.112248E+04
        95   4 -7.028249E+06 -1.026436E+06 -6.268144E+04 -2.693241E+06  5.749051E+04 -1.889011E+04
        95   5 -7.029884E+06 -9.934451E+05 -1.084424E+05 -2.668574E+06  1.151435E+05 -6.700941E+02
        95   6 -7.042291E+06 -1.120800E+06 -2.290462E+05 -2.657747E+06  1.713312E+05  2.143814E+04
        95   7 -8.260494E+06 -1.482002E+06 -3.921081E+05 -3.017066E+06  5.530995E+04 -1.971624E+04
        95   8 -8.309771E+06 -1.485640E+06 -4.539072E+05 -3.024462E+06  1.144909E+05 -9.246395E+02
        95   9 -8.370229E+06 -1.650097E+06 -5.918963E+05 -3.045679E+06  1.722000E+05  2.175277E+04
        95  10 -5.794525E+06 -5.708000E+05  2.666044E+05 -2.368834E+06 -5.169902E-09 -2.497212E-10
        95  11 -5.748408E+06 -5.011415E+05  2.368505E+05 -2.312007E+06 -6.850113E-12  7.850726E-10
        95  12 -5.712654E+06 -5.913528E+05  1.335873E+05 -2.269037E+06  1.579058E-09  3.195800E-09
        95  13 -7.028252E+06 -1.026438E+06 -6.268837E+04 -2.693240E+06  4.073069E-12  5.211727E-10
        95  14 -7.029898E+06 -9.934487E+05 -1.084676E+05 -2.668573E+06  5.383901E-09 -5.579669E-10
        95  15 -7.042323E+06 -1.120808E+06 -2.291029E+05 -2.657750E+06 -1.212853E-09  1.926260E-09
        95  16 -8.260497E+06 -1.482003E+06 -3.921146E+05 -3.017066E+06  3.948993E-09  2.129292E-09
        95  17 -8.309785E+06 -1.485644E+06 -4.539321E+05 -3.024462E+06 -1.009332E-09 -9.141508E-11
        95  18 -8.370261E+06 -1.650106E+06 -5.919537E+05 -3.045682E+06 -1.275497E-09  7.384220E-10
        95  19 -5.794521E+06 -5.707987E+05  2.666118E+05 -2.368835E+06 -5.967581E+04  1.806232E+04
        95  20 -5.748393E+06 -5.011379E+05  2.368760E+05 -2.312008E+06 -1.157973E+05  4.150570E+02
        95  21 -5.712623E+06 -5.913444E+05  1.336433E+05 -2.269034E+06 -1.704600E+05 -2.112248E+04
        95  22 -7.028249E+06 -1.026436E+06 -6.268144E+04 -2.693241E+06 -5.749051E+04  1.889011E+04
        95  23 -7.029884E+06 -9.934451E+05 -1.084424E+05 -2.668574E+06 -1.151435E+05  6.700941E+02
        95  24 -7.042291E+06 -1.120800E+06 -2.290462E+05 -2.657747E+06 -1.713312E+05 -2.143814E+04
        95  25 -8.260494E+06 -1.482002E+06 -3.921081E+05 -3.017066E+06 -5.530995E+04  1.971624E+04
        95  26 -8.309771E+06 -1.485640E+06 -4.539072E+05 -3.024462E+06 -1.144909E+05  9.246395E+02
        95  27 -8.370229E+06 -1.650097E+06 -5.918963E+05 -3.045679E+06 -1.722000E+05 -2.175277E+04
        96   1 -5.616151E+06 -5.299104E+05  9.538969E+04 -2.409980E+06  2.203550E+05  3.429903E+04
        96   2 -5.580963E+06 -3.032227E+05 -8.443303E+04 -2.263666E+06  4.594668E+05  1.247584E+05
        96   3 -5.963746E+06 -1.099868E+06 -7.240036E+05 -1.846364E+06  6.866975E+05  2.463860E+05
        96   4 -7.086388E+06 -9.932310E+05 -2.807570E+05 -2.716049E+06  2.132669E+05  3.163935E+04
        96   5 -6.935762E+06 -8.812142E+05 -4.601286E+05 -2.699005E+06  4.650132E+05  1.268083E+05
        96   6 -7.206577E+06 -1.796551E+06 -1.110141E+06 -2.410679E+06  7.049067E+05  2.530414E+05
        96   7 -8.554514E+06 -1.456566E+06 -6.570733E+05 -3.021530E+06  2.061969E+05  2.898385E+04
        96   8 -8.288751E+06 -1.458952E+06 -8.359954E+05 -3.133424E+06  4.705451E+05  1.288511E+05
        96   9 -8.447765E+06 -2.492504E+06 -1.496427E+06 -2.973777E+06  7.230742E+05  2.596641E+05
        96  10 -5.616204E+06 -5.299249E+05  9.529529E+04 -2.409986E+06 -1.810520E-09  2.858915E-09
        96  11 -5.581196E+06 -3.032970E+05 -8.486349E+04 -2.263712E+06 -3.767360E-09  5.661466E-09
        96  12 -5.964273E+06 -1.100062E+06 -7.250145E+05 -1.846501E+06 -2.297138E-10  7.742617E-10
        96  13 -7.086437E+06 -9.932445E+05 -2.808454E+05 -2.716055E+06  1.731783E-10  4.201929E-09
        96  14 -6.936001E+06 -8.812907E+05 -4.605708E+05 -2.699052E+06  1.213427E-08 -3.874519E-09
        96  15 -7.207134E+06 -1.796756E+06 -1.111209E+06 -2.410824E+06  1.335700E-09  9.660274E-10
        96  16 -8.554560E+06 -1.456579E+06 -6.571560E+05 -3.021535E+06 -1.956357E-09 -3.481180E-10
        96  17 -8.288996E+06 -1.459031E+06 -8.364496E+05 -3.133474E+06 -3.182171E-09  3.238682E-09
        96  18 -8.448351E+06 -2.492720E+06 -1.497553E+06 -2.973930E+06 -1.479968E-09 -3.581169E-10
        96  19 -5.616151E+06 -5.299104E+05  9.538969E+04 -2.409980E+06 -2.203550E+05 -3.429903E+04
        96  20 -5.580963E+06 -3.032227E+05 -8.443303E+04 -2.263666E+06 -4.594668E+05 -1.247584E+05
        96  21 -5.963746E+06 -1.099868E+06 -7.240036E+05 -1.846364E+06 -6.866975E+05 -2.463860E+05
        96  22 -7.086388E+06 -9.932310E+05 -2.807570E+05 -2.716049E+06 -2.132669E+05 -3.163935E+04
        96  23 -6.935762E+06 -8.812142E+05 -4.601286E+05 -2.699005E+06 -4.650132E+05 -1.268083E+05
        96  24 -7.206577E+06 -1.796551E+06 -1.110141E+06 -2.410679E+06 -7.049067E+05 -2.530414E+05
        96  25 -8.554514E+06 -1.456566E+06 -6.570733E+05 -3.021530E+06 -2.061969E+05 -2.898385E+04
        96  26 -8.288751E+06 -1.458952E+06 -8.359954E+05 -3.133424E+06 -4.705451E+05 -1.288511E+05
        96  27 -8.447765E+06 -2.492504E+06 -1.496427E+06 -2.973777E+06 -7.230742E+05 -2.596641E+05
        97   1 -1.436184E+06 -2.184670E+05 -1.779243E+05 -1.019512E+04  1.028156E+05  1.293385E+04
        97   2 -1.387806E+06 -3.584163E+05 -2.513954E+05 -4.235018E+02  7.323319E+04  3.722392E+04
        97   3 -1.287864E+06 -3.232705E+05 -2.610667E+05 -5.872632E+04  4.379524E+04  3.387702E+04
        97   4 -1.679543E+04  1.355468E+05  1.738417E+05 -4.004353E+04  1.185905E+05  1.301565E+04
        97   5 -4.350277E+04 -2.409612E+04  7.514646E+04 -5.626555E+03  7.767204E+04  3.723842E+04
        97   6 -1.678464E+04 -6.877647E+03  4.802310E+04 -3.927290E+04  3.690230E+04  3.384829E+04
        97   7  1.404429E+06  4.894138E+05  5.254592E+05 -6.996290E+04  1.344014E+05  1.309584E+04
        97   8  1.302453E+06  3.100913E+05  4.015578E+05 -1.084286E+04  8.212034E+04  3.725284E+04
        97   9  1.255772E+06  3.093975E+05  3.569962E+05 -1.978078E+04  2.999520E+04  3.381916E+04
        97  10 -1.436196E+06 -2.184700E+05 -1.779445E+05 -1.019619E+04  1.693387E-09  2.107554E-09
        97  11 -1.387812E+06 -3.584192E+05 -2.514081E+05 -4.256992E+02  2.931157E-10 -1.469174E-09
        97  12 -1.287866E+06 -3.232722E+05 -2.610725E+05 -5.872752E+04  1.134405E-09 -2.823157E-10
        97  13 -1.681058E+04  1.355429E+05  1.738150E+05 -4.004477E+04 -1.175827E-11  4.455870E-10
        97  14 -4.350962E+04 -2.409922E+04  7.513252E+04 -5.628884E+03  3.904810E-09 -6.310229E-09
        97  15 -1.678641E+04 -6.879243E+03  4.801839E+04 -3.927390E+04  1.219096E-09  9.128144E-11
        97  16  1.404410E+06  4.894088E+05  5.254250E+05 -6.996432E+04  1.694948E-09 -9.865024E-10
        97  17  1.302446E+06  3.100880E+05  4.015425E+05 -1.084532E+04  1.619438E-10 -1.687264E-09
        97  18  1.255771E+06  3.093960E+05  3.569924E+05 -1.978159E+04 -1.807564E-09 -1.417993E-09
        97  19 -1.436184E+06 -2.184670E+05 -1.779243E+05 -1.019512E+04 -1.028156E+05 -1.293385E+04
        97  20 -1.387806E+06 -3.584163E+05 -2.513954E+05 -4.235018E+02 -7.323319E+04 -3.722392E+04
        97  21 -1.287864E+06 -3.232705E+05 -2.610667E+05 -5.872632E+04 -4.379524E+04 -3.387702E+04
        97  22 -1.679543E+04  1.355468E+05  1.738417E+05 -4.004353E+04 -1.185905E+05 -1.301565E+04
        97  23 -4.350277E+04 -2.409612E+04  7.514646E+04 -5.626555E+03 -7.767204E+04 -3.723842E+04
        97  24 -1.678464E+04 -6.877647E+03  4.802310E+04 -3.927290E+04 -3.690230E+04 -3.384829E+04
        97  25  1.404429E+06  4.894138E+05  5.254592E+05 -6.996290E+04 -1.344014E+05 -1.309584E+04
        97  26  1.302453E+06  3.100913E+05  4.015578E+05 -1.084286E+04 -8.212034E+04 -3.725284E+04
        97  27  1.255772E+06  3.093975E+05  3.569962E+05 -1.978078E+04 -2.999520E+04 -3.381916E+04
        98   1 -1.168979E+06 -2.685547E+05 -2.390315E+05 -3.835894E+04  2.880942E+04  2.811573E+04
        98   2 -1.099501E+06 -2.689644E+05 -2.404614E+05 -6.453751E+03  1.981991E+04  2.786585E+04
        98   3 -1.021249E+06 -2.484719E+05 -2.303158E+05 -4.261958E+04  1.083048E+04  2.502554E+04
        98   4 -2.657486E+04  1.574149E+04  3.932277E+04 -3.954055E+04  2.928335E+04  2.811370E+04
        98   5 -3.103909E+04 -3.144683E+03  1.944424E+04 -5.484028E+03  1.922205E+04  2.786127E+04
        98   6 -2.655849E+04 -9.608095E+02  1.187156E+04 -3.949099E+04  9.161930E+03  2.502035E+04
        98   7  1.117022E+06  2.999415E+05  3.175822E+05 -4.072525E+04  2.975811E+04  2.811167E+04
        98   8  1.038466E+06  2.625910E+05  2.792672E+05 -4.513247E+03  1.862315E+04  2.785670E+04
        98   9  9.690356E+05  2.464774E+05  2.539872E+05 -3.635769E+04  7.490699E+03  2.501514E+04
        98  10 -1.168981E+06 -2.685558E+05 -2.390345E+05 -3.835959E+04 -9.527443E-10 -1.838616E-09
        98  11 -1.099501E+06 -2.689654E+05 -2.404636E+05 -6.454196E+03 -4.690790E-09  2.455324E-09
        98  12 -1.021249E+06 -2.484726E+05 -2.303172E+05 -4.261980E+04  2.195472E-09 -2.287792E-09
        98  13 -2.657600E+04  1.574041E+04  3.931967E+04 -3.954122E+04 -1.571355E-13 -5.979838E-10
        98  14 -3.103970E+04 -3.145616E+03  1.944209E+04 -5.484459E+03  3.301531E-10 -3.186177E-10
        98  15 -2.655875E+04 -9.615043E+02  1.187022E+04 -3.949117E+04  2.223284E-09 -2.111463E-09
        98  16  1.117021E+06  2.999404E+05  3.175791E+05 -4.072593E+04  1.984466E-09  1.481154E-09
        98  17  1.038465E+06  2.625901E+05  2.792651E+05 -4.513664E+03  3.074628E-09 -3.638881E-09
        98  18  9.690354E+05  2.464767E+05  2.539859E+05 -3.635784E+04 -1.047400E-09 -4.720555E-10
        98  19 -1.168979E+06 -2.685547E+05 -2.390315E+05 -3.835894E+04 -2.880942E+04 -2.811573E+04
        98  20 -1.099501E+06 -2.689644E+05 -2.404614E+05 -6.453751E+03 -1.981991E+04 -2.786585E+04
        98  21 -1.021249E+06 -2.484719E+05 -2.303158E+05 -4.261958E+04 -1.083048E+04 -2.502554E+04
        98  22 -2.657486E+04  1.574149E+04  3.932277E+04 -3.954055E+04 -2.928335E+04 -2.811370E+04
        98  23 -3.103909E+04 -3.144683E+03  1.944424E+04 -5.484028E+03 -1.922205E+04 -2.786127E+04
        98  24 -2.655849E+04 -9.608095E+02  1.187156E+04 -3.949099E+04 -9.161930E+03 -2.502035E+04
        98  25  1.117022E+06  2.999415E+05  3.175822E+05 -4.072525E+04 -2.975811E+04 -2.811167E+04
        98  26  1.038466E+06  2.625910E+05  2.792672E+05 -4.513247E+03 -1.862315E+04 -2.785670E+04
        98  27  9.690356E+05  2.464774E+05  2.539872E+05 -3.635769E+04 -7.490699E+03 -2.501514E+04
        99   1 -8.934898E+05 -2.136484E+05 -2.010800E+05 -3.997276E+04  8.245643E+03  2.302004E+04
        99   2 -8.205615E+05 -1.973783E+05 -1.876550E+05 -5.750902E+03  5.876636E+03  2.047926E+04
        99   3 -7.455186E+05 -1.786398E+05 -1.718228E+05 -3.977206E+04  3.502117E+03  1.769424E+04
        99   4 -2.800198E+04  1.621042E+03  9.298909E+03 -3.954569E+04  7.267812E+03  2.301680E+04
        99   5 -2.905850E+04 -4.889867E+02  4.882616E+03 -5.425910E+03  4.796108E+03  2.047690E+04
        99   6 -2.798932E+04 -1.141405E+02  2.942618E+03 -3.954376E+04  2.319172E+03  1.769292E+04
        99   7  8.381702E+05  2.168354E+05  2.196236E+05 -3.911820E+04  6.288615E+03  2.301357E+04
        99   8  7.630168E+05  1.963542E+05  1.973748E+05 -5.100588E+03  3.714201E+03  2.047454E+04
        99   9  6.900100E+05  1.783736E+05  1.776707E+05 -3.931518E+04  1.134860E+03  1.769160E+04
        99  10 -8.934900E+05 -2.136490E+05 -2.010812E+05 -3.997291E+04  1.208924E-09 -1.222027E-09
        99  11 -8.205617E+05 -1.973788E+05 -1.876558E+05 -5.750999E+03  8.372221E-10  1.583471E-10
        99  12 -7.455187E+05 -1.786402E+05 -1.718234E+05 -3.977211E+04 -1.977116E-09  5.530144E-10
        99  13 -2.800218E+04  1.620459E+03  9.297814E+03 -3.954582E+04  2.604071E-12 -1.487034E-09
        99  14 -2.905864E+04 -4.894431E+02  4.881784E+03 -5.425990E+03  4.393367E-09 -3.478572E-10
        99  15 -2.798941E+04 -1.144781E+02  2.942020E+03 -3.954379E+04  1.075798E-09  5.949668E-10
        99  16  8.381700E+05  2.168348E+05  2.196226E+05 -3.911832E+04 -1.376359E-09 -8.882417E-10
        99  17  7.630166E+05  1.963538E+05  1.973740E+05 -5.100649E+03 -2.301344E-09 -8.065550E-10
        99  18  6.900099E+05  1.783733E+05  1.776701E+05 -3.931520E+04  6.629922E-10 -2.015435E-11
        99  19 -8.934898E+05 -2.136484E+05 -2.010800E+05 -3.997276E+04 -8.245643E+03 -2.302004E+04
        99  20 -8.205615E+05 -1.973783E+05 -1.876550E+05 -5.750902E+03 -5.876636E+03 -2.047926E+04
        99  21 -7.455186E+05 -1.786398E+05 -1.718228E+05 -3.977206E+04 -3.502117E+03 -1.769424E+04
        99  22 -2.800198E+04  1.621042E+03  9.298909E+03 -3.954569E+04 -7.267812E+03 -2.301680E+04
        99  23 -2.905850E+04 -4.889867E+02  4.882616E+03 -5.425910E+03 -4.796108E+03 -2.047690E+04
        99  24 -2.798932E+04 -1.141405E+02  2.942618E+03 -3.954376E+04 -2.319172E+03 -1.769292E+04
        99  25  8.381702E+05  2.168354E+05  2.196236E+05 -3.911820E+04 -6.288615E+03 -2.301357E+04
        99  26  7.630168E+05  1.963542E+05  1.973748E+05 -5.100588E+03 -3.714201E+03 -2.047454E+04
        99  27  6.900100E+05  1.783736E+05  1.776707E+05 -3.931518E+04 -1.134860E+03 -1.769160E+04
       100   1 -6.163452E+05 -1.460959E+05 -1.405874E+05 -3.944519E+04  2.966453E+03  1.603952E+04
       100   2 -5.424910E+05 -1.279109E+05 -1.238412E+05 -5.176125E+03  2.393108E+03  1.328133E+04
       100   3 -4.681180E+05 -1.093646E+05 -1.065592E+05 -3.923996E+04  1.816109E+03  1.050005E+04
       100   4 -2.829669E+04  1.210227E+02  2.220734E+03 -3.956465E+04  1.847729E+03  1.603885E+04
       100   5 -2.855025E+04 -8.726996E+01  1.159682E+03 -5.399939E+03  1.264405E+03  1.328134E+04
       100   6 -2.828841E+04  6.795213E+01  6.413419E+02 -3.956463E+04  6.774946E+02  1.050076E+04
       100   7  5.600678E+05  1.463125E+05  1.450039E+05 -3.968419E+04  7.279480E+02  1.603818E+04
       100   8  4.856317E+05  1.277170E+05  1.261414E+05 -5.623900E+03  1.347688E+02  1.328134E+04
       100   9  4.117178E+05  1.094862E+05  1.078278E+05 -3.988947E+04 -4.619250E+02  1.050148E+04
       100  10 -6.163453E+05 -1.460962E+05 -1.405879E+05 -3.944523E+04 -2.365324E-09  2.430976E-10
       100  11 -5.424910E+05 -1.279111E+05 -1.238415E+05 -5.176150E+03 -5.612009E-11  4.502225E-10
       100  12 -4.681181E+05 -1.093647E+05 -1.065594E+05 -3.923997E+04  1.604173E-09  1.201792E-09
       100  13 -2.829676E+04  1.207455E+02  2.220244E+03 -3.956467E+04  2.165233E-09 -1.838785E-10
       100  14 -2.855030E+04 -8.745980E+01  1.159348E+03 -5.399953E+03  3.147568E-09 -1.712202E-09
       100  15 -2.828844E+04  6.783360E+01  6.411338E+02 -3.956463E+04 -1.653910E-09 -1.929149E-09
       100  16  5.600677E+05  1.463122E+05  1.450034E+05 -3.968420E+04  3.314043E-10 -4.040301E-10
       100  17  4.856316E+05  1.277168E+05  1.261411E+05 -5.623902E+03 -4.050502E-09 -2.041451E-11
       100  18  4.117177E+05  1.094861E+05  1.078276E+05 -3.988947E+04 -3.176602E-09  5.051027E-10
       100  19 -6.163452E+05 -1.460959E+05 -1.405874E+05 -3.944519E+04 -2.966453E+03 -1.603952E+04
       100  20 -5.424910E+05 -1.279109E+05 -1.238412E+05 -5.176125E+03 -2.393108E+03 -1.328133E+04
       100  21 -4.681180E+05 -1.093646E+05 -1.065592E+05 -3.923996E+04 -1.816109E+03 -1.050005E+04
       100  22 -2.829669E+04  1.210227E+02  2.220734E+03 -3.956465E+04 -1.847729E+03 -1.603885E+04
       100  23 -2.855025E+04 -8.726996E+01  1.159682E+03 -5.399939E+03 -1.264405E+03 -1.328134E+04
       100  24 -2.828841E+04  6.795213E+01  6.413419E+02 -3.956463E+04 -6.774946E+02 -1.050076E+04
       100  25  5.600678E+05  1.463125E+05  1.450039E+05 -3.968419E+04 -7.279480E+02 -1.603818E+04
       100  26  4.856317E+05  1.277170E+05  1.261414E+05 -5.623900E+03 -1.347688E+02 -1.328134E+04
       100  27  4.117178E+05  1.094862E+05  1.078278E+05 -3.988947E+04  4.619250E+02 -1.050148E+04
       101   1 -3.385703E+05 -7.702441E+04 -7.479333E+04 -3.931854E+04  1.713444E+03  8.875390E+03
       101   2 -2.643309E+05 -5.867168E+04 -5.732287E+04 -5.157300E+03  1.675612E+03  6.094413E+03
       101   3 -1.901836E+05 -4.019814E+04 -3.982627E+04 -3.938017E+04  1.636145E+03  3.321860E+03
       101   4 -2.839537E+04  6.502572E+01  4.093476E+02 -3.957643E+04  5.776724E+02  8.876474E+03
       101   5 -2.834521E+04  1.150483E+01  6.447053E+01 -5.385175E+03  5.431925E+02  6.095798E+03
       101   6 -2.839157E+04  7.888259E+01 -2.560075E+02 -3.957643E+04  5.070807E+02  3.323564E+03
       101   7  2.818674E+05  7.714740E+04  7.560509E+04 -3.983441E+04 -5.586651E+02  8.877558E+03
       101   8  2.076914E+05  5.869059E+04  5.744778E+04 -5.613120E+03 -5.896569E+02  6.097184E+03
       101   9  1.334243E+05  4.035397E+04  3.931235E+04 -3.977272E+04 -6.222773E+02  3.325269E+03
       101  10 -3.385703E+05 -7.702450E+04 -7.479348E+04 -3.931856E+04 -3.158086E-09  1.382687E-09
       101  11 -2.643310E+05 -5.867172E+04 -5.732294E+04 -5.157308E+03 -7.344100E-10  1.355538E-09
       101  12 -1.901836E+05 -4.019815E+04 -3.982630E+04 -3.938018E+04  3.720599E-10 -7.239137E-10
       101  13 -2.839539E+04  6.494102E+01  4.091989E+02 -3.957643E+04 -2.142777E-09  7.908964E-10
       101  14 -2.834522E+04  1.146485E+01  6.440015E+01 -5.385178E+03 -2.314929E-09  1.637388E-09
       101  15 -2.839157E+04  7.887066E+01 -2.560287E+02 -3.957643E+04  2.089489E-09 -2.859674E-09
       101  16  2.818674E+05  7.714732E+04  7.560494E+04 -3.983441E+04 -1.565630E-09  1.656671E-09
       101  17  2.076914E+05  5.869055E+04  5.744771E+04 -5.613117E+03  3.210074E-11  1.922403E-09
       101  18  1.334243E+05  4.035395E+04  3.931233E+04 -3.977272E+04 -1.636723E-09 -3.590641E-10
       101  19 -3.385703E+05 -7.702441E+04 -7.479333E+04 -3.931854E+04 -1.713444E+03 -8.875390E+03
       101  20 -2.643309E+05 -5.867168E+04 -5.732287E+04 -5.157300E+03 -1.675612E+03 -6.094413E+03
       101  21 -1.901836E+05 -4.019814E+04 -3.982627E+04 -3.938017E+04 -1.636145E+03 -3.321860E+03
       101  22 -2.839537E+04  6.502572E+01  4.093476E+02 -3.957643E+04 -5.776724E+02 -8.876474E+03
       101  23 -2.834521E+04  1.150483E+01  6.447053E+01 -5.385175E+03 -5.431925E+02 -6.095798E+03
       101  24 -2.839157E+04  7.888259E+01 -2.560075E+02 -3.957643E+04 -5.070807E+02 -3.323564E+03
       101  25  2.818674E+05  7.714740E+04  7.560509E+04 -3.983441E+04  5.586651E+02 -8.877558E+03
       101  26  2.076914E+05  5.869059E+04  5.744778E+04 -5.613120E+03  5.896569E+02 -6.097184E+03
       101  27  1.334243E+05  4.035397E+04  3.931235E+04 -3.977272E+04  6.222773E+02 -3.325269E+03
       102   1 -6.048535E+04 -7.787726E+03 -7.999283E+03 -3.960134E+04  1.726412E+03  1.683288E+03
       102   2  1.393162E+04  1.057833E+04  9.353759E+03 -5.417758E+03  2.128549E+03 -1.102394E+03
       102   3  8.796633E+04  2.862142E+04  2.630958E+04 -3.963174E+04  2.531209E+03 -3.767053E+03
       102   4 -2.845084E+04  1.315733E+02 -4.381405E+02 -3.957961E+04  5.654606E+02  1.685141E+03
       102   5 -2.825267E+04  9.054163E+01 -9.004429E+02 -5.381003E+03  1.016867E+03 -1.100686E+03
       102   6 -2.845154E+04 -2.819494E+02 -1.794185E+03 -3.958025E+04  1.468751E+03 -3.765466E+03
       102   7  3.584606E+03  8.050800E+03  7.122936E+03 -3.955788E+04 -5.955507E+02  1.686993E+03
       102   8 -7.043533E+04 -1.039738E+04 -1.115477E+04 -5.344250E+03 -9.473847E+01 -1.098977E+03
       102   9 -1.448570E+05 -2.918630E+04 -2.989892E+04 -3.952876E+04  4.064911E+02 -3.763878E+03
       102  10 -6.048535E+04 -7.787730E+03 -7.999294E+03 -3.960135E+04 -2.239877E-09  6.033501E-10
       102  11  1.393162E+04  1.057833E+04  9.353748E+03 -5.417756E+03 -2.282784E-09 -5.354987E-10
       102  12  8.796632E+04  2.862140E+04  2.630954E+04 -3.963173E+04  7.909119E-11 -1.388188E-10
       102  13 -2.845084E+04  1.315702E+02 -4.381464E+02 -3.957961E+04  2.143991E-09 -1.889354E-09
       102  14 -2.825267E+04  9.054005E+01 -9.004471E+02 -5.381002E+03 -2.170474E-10 -2.221706E-09
       102  15 -2.845154E+04 -2.819652E+02 -1.794216E+03 -3.958024E+04 -2.198500E-09  2.979757E-10
       102  16  3.584605E+03  8.050797E+03  7.122930E+03 -3.955788E+04  3.790697E-09  1.130209E-09
       102  17 -7.043533E+04 -1.039738E+04 -1.115477E+04 -5.344250E+03 -1.177698E-09 -2.244864E-09
       102  18 -1.448570E+05 -2.918632E+04 -2.989895E+04 -3.952876E+04  1.827588E-09 -1.149968E-09
       102  19 -6.048535E+04 -7.787726E+03 -7.999283E+03 -3.960134E+04 -1.726412E+03 -1.683288E+03
       102  20  1.393162E+04  1.057833E+04  9.353759E+03 -5.417758E+03 -2.128549E+03  1.102394E+03
       102  21  8.796633E+04  2.862142E+04  2.630958E+04 -3.963174E+04 -2.531209E+03  3.767053E+03
       102  22 -2.845084E+04  1.315733E+02 -4.381405E+02 -3.957961E+04 -5.654606E+02 -1.685141E+03
       102  23 -2.825267E+04  9.054163E+01 -9.004429E+02 -5.381003E+03 -1.016867E+03  1.100686E+03
       102  24 -2.845154E+04 -2.819494E+02 -1.794185E+03 -3.958025E+04 -1.468751E+03  3.765466E+03
       102  25  3.584606E+03  8.050800E+03  7.122936E+03 -3.955788E+04  5.955507E+02 -1.686993E+03
       102  26 -7.043533E+04 -1.039738E+04 -1.115477E+04 -5.344250E+03  9.473847E+01  1.098977E+03
       102  27 -1.448570E+05 -2.918630E+04 -2.989892E+04 -3.952876E+04 -4.064911E+02  3.763878E+03
       103   1  2.175324E+05  6.151489E+04  5.777391E+04 -4.024200E+04  3.234560E+03 -5.578245E+03
       103   2  2.923586E+05  8.019740E+04  7.398729E+04 -5.481009E+03  4.699688E+03 -8.380503E+03
       103   3  3.659850E+05  9.491463E+04  8.824867E+04 -3.906589E+04  6.168389E+03 -9.890007E+03
       103   4 -2.866561E+04  2.667386E+02 -2.288373E+03 -3.956756E+04  1.827329E+03 -5.576332E+03
       103   5 -2.801959E+04  5.609625E+02 -3.869787E+03 -5.395277E+03  3.819121E+03 -8.379733E+03
       103   6 -2.867084E+04 -3.202411E+03 -7.769510E+03 -3.957114E+04  5.814314E+03 -9.890073E+03
       103   7 -2.748083E+05 -6.098588E+04 -6.235506E+04 -3.889336E+04  4.206537E+02 -5.574422E+03
       103   8 -3.483041E+05 -7.908302E+04 -8.173429E+04 -5.309560E+03  2.939008E+03 -8.378963E+03
       103   9 -4.231846E+05 -1.013309E+05 -1.037990E+05 -4.007602E+04  5.460463E+03 -9.890140E+03
       103  10  2.175323E+05  6.151485E+04  5.777383E+04 -4.024198E+04 -3.995910E-09 -1.634808E-09
       103  11  2.923586E+05  8.019732E+04  7.398712E+04 -5.480977E+03  7.907741E-10  1.153851E-09
       103  12  3.659849E+05  9.491452E+04  8.824842E+04 -3.906584E+04  3.443721E-09 -1.049261E-09
       103  13 -2.866562E+04  2.667043E+02 -2.288438E+03 -3.956755E+04  2.153241E-09  8.120468E-11
       103  14 -2.801962E+04  5.608832E+02 -3.869947E+03 -5.395251E+03  9.197111E-10  6.454548E-10
       103  15 -2.867090E+04 -3.202525E+03 -7.769757E+03 -3.957109E+04  5.088964E-09 -4.632410E-10
       103  16 -2.748083E+05 -6.098592E+04 -6.235512E+04 -3.889336E+04  1.812335E-09  2.483199E-10
       103  17 -3.483042E+05 -7.908310E+04 -8.173444E+04 -5.309540E+03 -2.375180E-10  1.368329E-09
       103  18 -4.231847E+05 -1.013310E+05 -1.037992E+05 -4.007598E+04  2.378021E-10 -6.415985E-10
       103  19  2.175324E+05  6.151489E+04  5.777391E+04 -4.024200E+04 -3.234560E+03  5.578245E+03
       103  20  2.923586E+05  8.019740E+04  7.398729E+04 -5.481009E+03 -4.699688E+03  8.380503E+03
       103  21  3.659850E+05  9.491463E+04  8.824867E+04 -3.906589E+04 -6.168389E+03  9.890007E+03
       103  22 -2.866561E+04  2.667386E+02 -2.288373E+03 -3.956756E+04 -1.827329E+03  5.576332E+03
       103  23 -2.801959E+04  5.609625E+02 -3.869787E+03 -5.395277E+03 -3.819121E+03  8.379733E+03
       103  24 -2.867084E+04 -3.202411E+03 -7.769510E+03 -3.957114E+04 -5.814314E+03  9.890073E+03
       103  25 -2.748083E+05 -6.098588E+04 -6.235506E+04 -3.889336E+04 -4.206537E+02  5.574422E+03
       103  26 -3.483041E+05 -7.908302E+04 -8.173429E+04 -5.309560E+03 -2.939008E+03  8.378963E+03
       103  27 -4.231846E+05 -1.013309E+05 -1.037990E+05 -4.007602E+04 -5.460463E+03  9.890140E+03
       104   1  4.939576E+05  1.316737E+05  1.180238E+05 -4.297290E+04  1.133454E+04 -1.354142E+04
       104   2  5.723541E+05  1.532043E+05  1.301352E+05 -3.649898E+03  1.383108E+04 -1.651490E+04
       104   3  6.425477E+05  1.409332E+05  1.322878E+05 -3.232669E+04  1.632972E+04 -5.722197E+03
       104   4 -3.046045E+04  1.318777E+03 -9.450946E+03 -3.949119E+04  7.306485E+03 -1.353893E+04
       104   5 -2.586979E+04  4.576970E+03 -1.498601E+04 -5.489031E+03  1.541735E+04 -1.651647E+04
       104   6 -3.047033E+04 -2.695849E+04 -3.438606E+04 -3.949121E+04  2.352987E+04 -5.722048E+03
       104   7 -5.546275E+05 -1.290563E+05 -1.369455E+05 -3.601236E+04  3.281816E+03 -1.353649E+04
       104   8 -6.237670E+05 -1.440766E+05 -1.601331E+05 -7.326360E+03  1.700210E+04 -1.651806E+04
       104   9 -7.030770E+05 -1.948838E+05 -2.010934E+05 -4.664797E+04  3.072221E+04 -5.722066E+03
       104  10  4.939574E+05  1.316734E+05  1.180232E+05 -4.297277E+04  2.475279E-10 -1.305781E-09
       104  11  5.723538E+05  1.532040E+05  1.301343E+05 -3.649715E+03  2.020688E-09  9.929535E-10
       104  12  6.425474E+05  1.409331E+05  1.322872E+05 -3.232661E+04  2.301713E-09  6.929497E-10
       104  13 -3.046056E+04  1.318566E+03 -9.451390E+03 -3.949111E+04  2.160841E-11  5.072409E-10
       104  14 -2.587012E+04  4.576613E+03 -1.498697E+04 -5.488826E+03  5.349369E-09  7.599377E-10
       104  15 -3.047093E+04 -2.695867E+04 -3.438716E+04 -3.949110E+04  2.166748E-09  4.235060E-10
       104  16 -5.546276E+05 -1.290565E+05 -1.369459E+05 -3.601233E+04 -8.362102E-11 -4.979667E-10
       104  17 -6.237674E+05 -1.440770E+05 -1.601341E+05 -7.326133E+03 -1.729931E-09  7.700467E-10
       104  18 -7.030780E+05 -1.948841E+05 -2.010952E+05 -4.664783E+04 -6.980833E-10  4.552273E-10
       104  19  4.939576E+05  1.316737E+05  1.180238E+05 -4.297290E+04 -1.133454E+04  1.354142E+04
       104  20  5.723541E+05  1.532043E+05  1.301352E+05 -3.649898E+03 -1.383108E+04  1.651490E+04
       104  21  6.425477E+05  1.409332E+05  1.322878E+05 -3.232669E+04 -1.632972E+04  5.722197E+03
       104  22 -3.046045E+04  1.318777E+03 -9.450946E+03 -3.949119E+04 -7.306485E+03  1.353893E+04
       104  23 -2.586979E+04  4.576970E+03 -1.498601E+04 -5.489031E+03 -1.541735E+04  1.651647E+04
       104  24 -3.047033E+04 -2.695849E+04 -3.438606E+04 -3.949121E+04 -2.352987E+04  5.722048E+03
       104  25 -5.546275E+05 -1.290563E+05 -1.369455E+05 -3.601236E+04 -3.281816E+03  1.353649E+04
       104  26 -6.237670E+05 -1.440766E+05 -1.601331E+05 -7.326360E+03 -1.700210E+04  1.651806E+04
       104  27 -7.030770E+05 -1.948838E+05 -2.010934E+05 -4.664797E+04 -3.072221E+04  5.722066E+03
       105   1  1.225750E+06  4.092845E+06  1.177433E+06 -1.128895E+06  5.073072E+04  2.832645E+05
       105   2  8.635231E+05  2.907008E+06  7.560273E+05 -9.615644E+05  1.563962E+05  8.028380E+04
       105   3  5.757034E+05  1.764175E+06  4.844534E+05 -1.079585E+06  1.412391E+05 -1.230646E+05
       105   4  6.949643E+04 -5.804993E+05  6.358735E+04 -1.066729E+06  5.278473E+04  3.340097E+04
       105   5  2.236497E+04 -5.842729E+05  3.902322E+04 -9.242488E+05  1.570373E+05  1.429533E+04
       105   6  1.811941E+04 -5.779138E+05  3.723396E+04 -1.067168E+06  1.401717E+05 -5.569257E+03
       105   7 -1.088291E+06 -5.233748E+06 -1.051558E+06 -1.004977E+06  5.479804E+04 -2.146002E+05
       105   8 -8.195548E+05 -4.064001E+06 -6.786165E+05 -8.871140E+05  1.576727E+05 -5.133007E+04
       105   9 -5.397799E+05 -2.914695E+06 -4.101825E+05 -1.054783E+06  1.391065E+05  1.114942E+05
       105  10  1.225726E+06  4.092759E+06  1.177278E+06 -1.128906E+06  1.644805E-09 -1.158586E-08
       105  11  8.634951E+05  2.906994E+06  7.559692E+05 -9.615745E+05 -1.381275E-09 -2.435050E-09
       105  12  5.756780E+05  1.764154E+06  4.843877E+05 -1.079571E+06  2.347177E-09  1.070761E-08
       105  13  6.949314E+04 -5.805013E+05  6.358001E+04 -1.066731E+06  3.655533E-09  3.238378E-09
       105  14  2.233844E+04 -5.842798E+05  3.897649E+04 -9.242506E+05 -2.803091E-09 -3.891879E-09
       105  15  1.809832E+04 -5.779191E+05  3.719700E+04 -1.067167E+06 -5.962967E-09  9.302455E-10
       105  16 -1.088307E+06 -5.233799E+06 -1.051651E+06 -1.004967E+06  3.103929E-10  8.351210E-09
       105  17 -8.195821E+05 -4.064010E+06 -6.786682E+05 -8.871075E+05  1.030473E-08  1.159600E-09
       105  18 -5.398041E+05 -2.914714E+06 -4.102425E+05 -1.054796E+06  2.891621E-09 -1.029199E-08
       105  19  1.225750E+06  4.092845E+06  1.177433E+06 -1.128895E+06 -5.073072E+04 -2.832645E+05
       105  20  8.635231E+05  2.907008E+06  7.560273E+05 -9.615644E+05 -1.563962E+05 -8.028380E+04
       105  21  5.757034E+05  1.764175E+06  4.844534E+05 -1.079585E+06 -1.412391E+05  1.230646E+05
       105  22  6.949643E+04 -5.804993E+05  6.358735E+04 -1.066729E+06 -5.278473E+04 -3.340097E+04
       105  23  2.236497E+04 -5.842729E+05  3.902322E+04 -9.242488E+05 -1.570373E+05 -1.429533E+04
       105  24  1.811941E+04 -5.779138E+05  3.723396E+04 -1.067168E+06 -1.401717E+05  5.569257E+03
       105  25 -1.088291E+06 -5.233748E+06 -1.051558E+06 -1.004977E+06 -5.479804E+04  2.146002E+05
       105  26 -8.195548E+05 -4.064001E+06 -6.786165E+05 -8.871140E+05 -1.576727E+05  5.133007E+04
       105  27 -5.397799E+05 -2.914695E+06 -4.101825E+05 -1.054783E+06 -1.391065E+05 -1.114942E+05
       106   1  3.913229E+05  9.793270E+05  3.383767E+05 -1.083304E+06  9.442169E+04 -1.119131E+05
       106   2  1.117424E+05 -1.850899E+05  1.297990E+05 -9.240417E+05  2.834017E+04 -1.432499E+05
       106   3 -1.489494E+05 -1.344958E+06 -5.519078E+04 -1.057382E+06 -3.917457E+04 -1.745664E+05
       106   4  2.004159E+04 -5.789367E+05  4.075250E+04 -1.068718E+06  9.347684E+04 -1.255388E+04
       106   5  1.822572E+04 -5.801999E+05  5.748677E+04 -9.223514E+05  2.736158E+04 -4.179505E+04
       106   6  3.499302E+04 -5.786232E+05  9.633473E+04 -1.068578E+06 -4.018964E+04 -7.107091E+04
       106   7 -3.513771E+05 -2.134841E+06 -2.569449E+05 -1.054163E+06  9.253522E+04  8.656210E+04
       106   8 -7.529432E+04 -9.751360E+05 -1.479308E+04 -9.206619E+05  2.638316E+04  5.959692E+04
       106   9  2.189058E+05  1.882974E+05  2.478717E+05 -1.079786E+06 -4.120769E+04  3.254987E+04
       106  10  3.913100E+05  9.793112E+05  3.383366E+05 -1.083296E+06  1.008821E-09  1.899883E-08
       106  11  1.117361E+05 -1.851122E+05  1.297589E+05 -9.240385E+05  5.588689E-11 -4.621382E-10
       106  12 -1.489593E+05 -1.344991E+06 -5.525110E+04 -1.057388E+06 -2.487239E-09 -1.329268E-08
       106  13  2.003217E+04 -5.789392E+05  4.073580E+04 -1.068717E+06 -7.027068E-09  3.812617E-09
       106  14  1.822445E+04 -5.802020E+05  5.748208E+04 -9.223505E+05 -1.096274E-08 -5.119245E-09
       106  15  3.498992E+04 -5.786290E+05  9.632217E+04 -1.068580E+06 -1.470636E-09  1.817717E-09
       106  16 -3.513884E+05 -2.134851E+06 -2.569751E+05 -1.054169E+06  2.707302E-09 -2.391287E-08
       106  17 -7.529603E+04 -9.751400E+05 -1.480108E+04 -9.206632E+05  6.975831E-10 -3.480968E-09
       106  18  2.189037E+05  1.882958E+05  2.478666E+05 -1.079785E+06  2.940403E-09  1.424095E-08
       106  19  3.913229E+05  9.793270E+05  3.383767E+05 -1.083304E+06 -9.442169E+04  1.119131E+05
       106  20  1.117424E+05 -1.850899E+05  1.297990E+05 -9.240417E+05 -2.834017E+04  1.432499E+05
       106  21 -1.489494E+05 -1.344958E+06 -5.519078E+04 -1.057382E+06  3.917457E+04  1.745664E+05
       106  22  2.004159E+04 -5.789367E+05  4.075250E+04 -1.068718E+06 -9.347684E+04  1.255388E+04
       106  23  1.822572E+04 -5.801999E+05  5.748677E+04 -9.223514E+05 -2.736158E+04  4.179505E+04
       106  24  3.499302E+04 -5.786232E+05  9.633473E+04 -1.068578E+06  4.018964E+04  7.107091E+04
       106  25 -3.513771E+05 -2.134841E+06 -2.569449E+05 -1.054163E+06 -9.253522E+04 -8.656210E+04
       106  26 -7.529432E+04 -9.751360E+05 -1.479308E+04 -9.206619E+05 -2.638316E+04 -5.959692E+04
       106  27  2.189058E+05  1.882974E+05  2.478717E+05 -1.079786E+06  4.120769E+04 -3.254987E+04
       107   1 -3.475784E+05 -2.109911E+06 -1.770947E+05 -1.089490E+06 -8.601872E+04 -2.061381E+05
       107   2 -5.682032E+05 -3.294145E+06 -3.426641E+05 -8.008423E+05 -1.139687E+05 -1.653822E+05
       107   3 -5.466899E+05 -4.425638E+06 -4.752898E+05 -7.982090E+05 -3.985178E+04 -1.239853E+05
       107   4  2.193981E+04 -5.623401E+05  1.235549E+05 -1.067581E+06 -8.716014E+04 -8.803791E+04
       107   5  8.606420E+04 -6.021508E+05  2.186335E+05 -9.230375E+05 -1.135764E+05 -2.013631E+05
       107   6  4.184920E+05 -5.642110E+05  4.535372E+05 -1.064181E+06 -3.814695E+04 -3.139882E+05
       107   7  3.913249E+05  9.875698E+05  4.241446E+05 -1.045610E+06 -8.829147E+04  3.035111E+04
       107   8  7.399176E+05  2.096758E+06  7.795427E+05 -1.045754E+06 -1.131710E+05 -2.374966E+05
       107   9  1.382849E+06  3.311147E+06  1.381469E+06 -1.331784E+06 -3.628491E+04 -5.051701E+05
       107  10 -3.475979E+05 -2.109959E+06 -1.771889E+05 -1.089504E+06  4.448600E-10  5.552984E-09
       107  11 -5.682246E+05 -3.294178E+06 -3.427403E+05 -8.008575E+05  8.472336E-09 -2.357434E-10
       107  12 -5.466958E+05 -4.425655E+06 -4.753219E+05 -7.982130E+05  2.898979E-09 -2.907460E-09
       107  13  2.192955E+04 -5.623505E+05  1.235260E+05 -1.067588E+06  3.729797E-09  4.616497E-09
       107  14  8.603941E+04 -6.021979E+05  2.185329E+05 -9.230559E+05 -3.260543E-09 -4.349531E-09
       107  15  4.184639E+05 -5.643173E+05  4.533490E+05 -1.064191E+06  2.196416E-09  1.756319E-09
       107  16  3.913163E+05  9.875667E+05  4.241283E+05 -1.045608E+06  1.669878E-09 -9.428604E-09
       107  17  7.398887E+05  2.096694E+06  7.794127E+05 -1.045776E+06  5.321699E-09 -2.935462E-09
       107  18  1.382780E+06  3.310874E+06  1.380990E+06 -1.331799E+06  3.517059E-09  3.001471E-09
       107  19 -3.475784E+05 -2.109911E+06 -1.770947E+05 -1.089490E+06  8.601872E+04  2.061381E+05
       107  20 -5.682032E+05 -3.294145E+06 -3.426641E+05 -8.008423E+05  1.139687E+05  1.653822E+05
       107  21 -5.466899E+05 -4.425638E+06 -4.752898E+05 -7.982090E+05  3.985178E+04  1.239853E+05
       107  22  2.193981E+04 -5.623401E+05  1.235549E+05 -1.067581E+06  8.716014E+04  8.803791E+04
       107  23  8.606420E+04 -6.021508E+05  2.186335E+05 -9.230375E+05  1.135764E+05  2.013631E+05
       107  24  4.184920E+05 -5.642110E+05  4.535372E+05 -1.064181E+06  3.814695E+04  3.139882E+05
       107  25  3.913249E+05  9.875698E+05  4.241446E+05 -1.045610E+06  8.829147E+04 -3.035111E+04
       107  26  7.399176E+05  2.096758E+06  7.795427E+05 -1.045754E+06  1.131710E+05  2.374966E+05
       107  27  1.382849E+06  3.311147E+06  1.381469E+06 -1.331784E+06  3.628491E+04  5.051701E+05
       108   1 -4.273256E+06 -1.673278E+06 -9.706499E+05 -1.448130E+06 -2.383932E+05 -1.718710E+04
       108   2 -3.992577E+06 -1.606087E+06 -7.947783E+05 -1.345116E+06 -1.621621E+05  1.812586E+05
       108   3 -3.660217E+06 -1.554448E+06 -7.068168E+05 -1.316640E+06 -4.239013E+04  2.660065E+05
       108   4 -6.577689E+04 -1.334389E+05  1.165053E+05 -3.412236E+05  5.016916E+04  9.276399E+04
       108   5 -1.137358E+05 -1.871208E+05  5.269932E+04 -2.864890E+05 -3.353945E+04  2.300090E+05
       108   6 -7.827330E+04 -2.246592E+05  2.842812E+04 -3.062748E+05 -7.392323E+04  2.539036E+05
       108   7  4.159034E+06  1.407300E+06  1.202529E+06  7.723965E+05  3.408861E+05  2.034708E+05
       108   8  3.780419E+06  1.232973E+06  8.993386E+05  7.782030E+05  9.595658E+04  2.790800E+05
       108   9  3.516967E+06  1.106330E+06  7.630296E+05  7.095390E+05 -1.056545E+05  2.417249E+05
       108  10 -4.273318E+06 -1.673294E+06 -9.707580E+05 -1.448133E+06  1.851272E-09  1.126739E-09
       108  11 -3.992614E+06 -1.606129E+06 -7.948895E+05 -1.345092E+06 -7.917182E-09 -2.395743E-09
       108  12 -3.660237E+06 -1.554525E+06 -7.069532E+05 -1.316631E+06 -8.146789E-09 -4.712714E-09
       108  13 -6.578190E+04 -1.334488E+05  1.164844E+05 -3.412274E+05  2.196870E-09  1.576895E-09
       108  14 -1.137512E+05 -1.871779E+05  5.259778E+04 -2.864828E+05 -9.667048E-09 -8.802876E-09
       108  15 -7.829647E+04 -2.247299E+05  2.829671E+04 -3.062597E+05 -6.126822E-09 -2.274512E-09
       108  16  4.158899E+06  1.407225E+06  1.202234E+06  7.723409E+05 -7.467410E-09 -3.546772E-09
       108  17  3.780388E+06  1.232887E+06  8.991753E+05  7.781815E+05 -8.344471E-09 -1.025112E-08
       108  18  3.516939E+06  1.106265E+06  7.628989E+05  7.095595E+05 -8.380824E-09 -5.935818E-09
       108  19 -4.273256E+06 -1.673278E+06 -9.706499E+05 -1.448130E+06  2.383932E+05  1.718710E+04
       108  20 -3.992577E+06 -1.606087E+06 -7.947783E+05 -1.345116E+06  1.621621E+05 -1.812586E+05
       108  21 -3.660217E+06 -1.554448E+06 -7.068168E+05 -1.316640E+06  4.239013E+04 -2.660065E+05
       108  22 -6.577689E+04 -1.334389E+05  1.165053E+05 -3.412236E+05 -5.016916E+04 -9.276399E+04
       108  23 -1.137358E+05 -1.871208E+05  5.269932E+04 -2.864890E+05  3.353945E+04 -2.300090E+05
       108  24 -7.827330E+04 -2.246592E+05  2.842812E+04 -3.062748E+05  7.392323E+04 -2.539036E+05
       108  25  4.159034E+06  1.407300E+06  1.202529E+06  7.723965E+05 -3.408861E+05 -2.034708E+05
       108  26  3.780419E+06  1.232973E+06  8.993386E+05  7.782030E+05 -9.595658E+04 -2.790800E+05
       108  27  3.516967E+06  1.106330E+06  7.630296E+05  7.095390E+05  1.056545E+05 -2.417249E+05
       109   1 -3.470383E+06 -1.469496E+06 -6.715816E+05 -1.255727E+06 -6.289217E+04  2.433789E+05
       109   2 -3.211662E+06 -1.335164E+06 -6.129149E+05 -1.142555E+06 -5.360919E+04  2.347758E+05
       109   3 -2.894741E+06 -1.256111E+06 -5.573407E+05 -1.093661E+06 -4.147278E+04  2.184790E+05
       109   4 -8.053479E+04 -2.221649E+05  2.165986E+04 -3.106659E+05 -7.229452E+04  2.396828E+05
       109   5 -1.104975E+05 -1.966106E+05  1.122587E+04 -2.780092E+05 -7.385874E+04  2.270080E+05
       109   6 -8.020914E+04 -2.241711E+05  6.308088E+03 -3.096395E+05 -7.257991E+04  2.066597E+05
       109   7  3.321174E+06  1.026173E+06  7.143154E+05  6.391850E+05 -8.175311E+04  2.359661E+05
       109   8  3.000609E+06  9.427906E+05  6.348947E+05  5.905456E+05 -9.421794E+04  2.191992E+05
       109   9  2.742504E+06  8.084635E+05  5.695725E+05  4.776784E+05 -1.038392E+05  1.947831E+05
       109  10 -3.470403E+06 -1.469561E+06 -6.717003E+05 -1.255714E+06 -1.307544E-09 -1.497894E-09
       109  11 -3.211680E+06 -1.335224E+06 -6.130239E+05 -1.142545E+06 -4.922742E-09  3.885180E-11
       109  12 -2.894755E+06 -1.256163E+06 -5.574337E+05 -1.093653E+06  2.726415E-09 -5.909581E-10
       109  13 -8.055581E+04 -2.222280E+05  2.154209E+04 -3.106520E+05 -5.879580E-09 -6.159715E-09
       109  14 -1.105171E+05 -1.966674E+05  1.111879E+04 -2.779957E+05 -1.732829E-09 -6.226152E-09
       109  15 -8.022626E+04 -2.242184E+05  6.217942E+03 -3.096274E+05 -2.143864E-09 -2.384032E-09
       109  16  3.321152E+06  1.026111E+06  7.141982E+05  6.392005E+05 -8.240855E-09 -2.034023E-09
       109  17  3.000587E+06  9.427366E+05  6.347877E+05  5.905622E+05 -1.322999E-09 -3.070648E-09
       109  18  2.742482E+06  8.084199E+05  5.694809E+05  4.776947E+05  7.288896E-09 -1.729349E-09
       109  19 -3.470383E+06 -1.469496E+06 -6.715816E+05 -1.255727E+06  6.289217E+04 -2.433789E+05
       109  20 -3.211662E+06 -1.335164E+06 -6.129149E+05 -1.142555E+06  5.360919E+04 -2.347758E+05
       109  21 -2.894741E+06 -1.256111E+06 -5.573407E+05 -1.093661E+06  4.147278E+04 -2.184790E+05
       109  22 -8.053479E+04 -2.221649E+05  2.165986E+04 -3.106659E+05  7.229452E+04 -2.396828E+05
       109  23 -1.104975E+05 -1.966106E+05  1.122587E+04 -2.780092E+05  7.385874E+04 -2.270080E+05
       109  24 -8.020914E+04 -2.241711E+05  6.308088E+03 -3.096395E+05  7.257991E+04 -2.066597E+05
       109  25  3.321174E+06  1.026173E+06  7.143154E+05  6.391850E+05  8.175311E+04 -2.359661E+05
       109  26  3.000609E+06  9.427906E+05  6.348947E+05  5.905456E+05  9.421794E+04 -2.191992E+05
       109  27  2.742504E+06  8.084635E+05  5.695725E+05  4.776784E+05  1.038392E+05 -1.947831E+05
       110   1 -2.698912E+06 -1.182544E+06 -5.179198E+05 -1.038474E+06 -3.895067E+04  2.047394E+05
       110   2 -2.439356E+06 -1.047120E+06 -4.624683E+05 -9.251162E+05 -3.134259E+04  1.832622E+05
       110   3 -2.121729E+06 -9.683436E+05 -4.063768E+05 -8.764153E+05 -2.358402E+04  1.612386E+05
       110   4 -8.032255E+04 -2.238815E+05  4.691105E+03 -3.100254E+05 -6.859769E+04  1.934958E+05
       110   5 -1.090620E+05 -1.950341E+05  2.446215E+03 -2.778101E+05 -6.175922E+04  1.717659E+05
       110   6 -7.968704E+04 -2.226815E+05  1.435663E+03 -3.102720E+05 -5.477052E+04  1.494909E+05
       110   7  2.545394E+06  7.353971E+05  5.269844E+05  4.212838E+05 -9.838003E+04  1.822015E+05
       110   8  2.226867E+06  6.575333E+05  4.671082E+05  3.717546E+05 -9.229916E+04  1.602233E+05
       110   9  1.966671E+06  5.233448E+05  4.090527E+05  2.575990E+05 -8.606758E+04  1.377018E+05
       110  10 -2.698925E+06 -1.182590E+06 -5.180015E+05 -1.038468E+06  8.702422E-09  2.464984E-10
       110  11 -2.439366E+06 -1.047156E+06 -4.625333E+05 -9.251116E+05  3.128366E-09 -1.150935E-09
       110  12 -2.121736E+06 -9.683717E+05 -4.064267E+05 -8.764122E+05  3.950055E-09  1.701617E-10
       110  13 -8.033764E+04 -2.239229E+05  4.611913E+03 -3.100147E+05 -9.791649E-10 -2.653853E-09
       110  14 -1.090740E+05 -1.950668E+05  2.383612E+03 -2.778015E+05  2.200524E-09 -1.954740E-09
       110  15 -7.969626E+04 -2.227063E+05  1.388036E+03 -3.102654E+05  2.494115E-09  1.532515E-09
       110  16  2.545375E+06  7.353588E+05  5.269038E+05  4.212982E+05 -9.543469E-10 -4.777641E-09
       110  17  2.226851E+06  6.575034E+05  4.670440E+05  3.717665E+05 -3.262053E-09 -2.433681E-09
       110  18  1.966658E+06  5.233224E+05  4.090032E+05  2.576085E+05  7.305152E-09  3.011295E-09
       110  19 -2.698912E+06 -1.182544E+06 -5.179198E+05 -1.038474E+06  3.895067E+04 -2.047394E+05
       110  20 -2.439356E+06 -1.047120E+06 -4.624683E+05 -9.251162E+05  3.134259E+04 -1.832622E+05
       110  21 -2.121729E+06 -9.683436E+05 -4.063768E+05 -8.764153E+05  2.358402E+04 -1.612386E+05
       110  22 -8.032255E+04 -2.238815E+05  4.691105E+03 -3.100254E+05  6.859769E+04 -1.934958E+05
       110  23 -1.090620E+05 -1.950341E+05  2.446215E+03 -2.778101E+05  6.175922E+04 -1.717659E+05
       110  24 -7.968704E+04 -2.226815E+05  1.435663E+03 -3.102720E+05  5.477052E+04 -1.494909E+05
       110  25  2.545394E+06  7.353971E+05  5.269844E+05  4.212838E+05  9.838003E+04 -1.822015E+05
       110  26  2.226867E+06  6.575333E+05  4.671082E+05  3.717546E+05  9.229916E+04 -1.602233E+05
       110  27  1.966671E+06  5.233448E+05  4.090527E+05  2.575990E+05  8.606758E+04 -1.377018E+05
       111   1 -1.924863E+06 -8.956415E+05 -3.657572E+05 -8.217377E+05 -1.902955E+04  1.482607E+05
       111   2 -1.663837E+06 -7.608787E+05 -3.093029E+05 -7.086281E+05 -1.091300E+04  1.261296E+05
       111   3 -1.345367E+06 -6.828670E+05 -2.525825E+05 -6.605799E+05 -2.813390E+03  1.039439E+05
       111   4 -7.965824E+04 -2.225127E+05  1.039051E+03 -3.103747E+05 -5.014094E+04  1.365601E+05
       111   5 -1.081277E+05 -1.937092E+05  4.999191E+02 -2.779284E+05 -4.210080E+04  1.144256E+05
       111   6 -7.923552E+04 -2.216437E+05  2.782718E+02 -3.105690E+05 -3.407757E+04  9.223669E+04
       111   7  1.769058E+06  4.509082E+05  3.676742E+05  2.023942E+05 -8.135164E+04  1.248223E+05
       111   8  1.450087E+06  3.736710E+05  3.101918E+05  1.537720E+05 -7.337271E+04  1.026901E+05
       111   9  1.188565E+06  2.397223E+05  2.530692E+05  4.010622E+04 -6.541058E+04  8.050371E+04
       111  10 -1.924869E+06 -8.956652E+05 -3.657992E+05 -8.217354E+05  9.555911E-09  4.358135E-09
       111  11 -1.663841E+06 -7.608958E+05 -3.093330E+05 -7.086270E+05 -7.183049E-10 -3.006651E-10
       111  12 -1.345370E+06 -6.828786E+05 -2.526028E+05 -6.605797E+05 -3.409477E-11 -3.572187E-09
       111  13 -7.966594E+04 -2.225334E+05  9.992873E+02 -3.103692E+05 -6.320446E-10  1.738818E-09
       111  14 -1.081331E+05 -1.937237E+05  4.719873E+02 -2.779245E+05 -7.121488E-09 -1.807853E-09
       111  15 -7.923905E+04 -2.216531E+05  2.601045E+02 -3.105665E+05 -2.038956E-09 -3.804935E-09
       111  16  1.769046E+06  4.508897E+05  3.676325E+05  2.024023E+05 -8.283612E-09  1.289433E-10
       111  17  1.450078E+06  3.736582E+05  3.101619E+05  1.537781E+05 -1.311249E-08 -2.113006E-09
       111  18  1.188559E+06  2.397142E+05  2.530490E+05  4.011046E+04 -6.432781E-09 -3.666916E-09
       111  19 -1.924863E+06 -8.956415E+05 -3.657572E+05 -8.217377E+05  1.902955E+04 -1.482607E+05
       111  20 -1.663837E+06 -7.608787E+05 -3.093029E+05 -7.086281E+05  1.091300E+04 -1.261296E+05
       111  21 -1.345367E+06 -6.828670E+05 -2.525825E+05 -6.605799E+05  2.813390E+03 -1.039439E+05
       111  22 -7.965824E+04 -2.225127E+05  1.039051E+03 -3.103747E+05  5.014094E+04 -1.365601E+05
       111  23 -1.081277E+05 -1.937092E+05  4.999191E+02 -2.779284E+05  4.210080E+04 -1.144256E+05
       111  24 -7.923552E+04 -2.216437E+05  2.782718E+02 -3.105690E+05  3.407757E+04 -9.223669E+04
       111  25  1.769058E+06  4.509082E+05  3.676742E+05  2.023942E+05  8.135164E+04 -1.248223E+05
       111  26  1.450087E+06  3.736710E+05  3.101918E+05  1.537720E+05  7.337271E+04 -1.026901E+05
       111  27  1.188565E+06  2.397223E+05  2.530692E+05  4.010622E+04  6.541058E+04 -8.050371E+04
       112   1 -1.147849E+06 -6.104453E+05 -2.116635E+05 -6.060745E+05  1.980895E+03  9.104826E+04
       112   2 -8.858824E+05 -4.761579E+05 -1.548937E+05 -4.930790E+05  1.028901E+04  6.893134E+04
       112   3 -5.668644E+05 -3.986669E+05 -9.810917E+04 -4.453787E+05  1.857721E+04  4.681704E+04
       112   4 -7.920861E+04 -2.215426E+05  1.482841E+02 -3.106208E+05 -2.929683E+04  7.934727E+04
       112   5 -1.075796E+05 -1.929239E+05 -6.252591E+01 -2.780070E+05 -2.098788E+04  5.724325E+04
       112   6 -7.899332E+04 -2.211059E+05 -2.645966E+02 -3.107170E+05 -1.269893E+04  3.514206E+04
       112   7  9.906152E+05  1.674594E+05  2.119105E+05 -1.469561E+04 -6.063239E+04  6.762467E+04
       112   8  6.713479E+05  9.036165E+04  1.547431E+05 -6.268582E+04 -5.230675E+04  4.553947E+04
       112   9  4.091211E+05 -4.352535E+04  9.757146E+04 -1.759580E+05 -4.400120E+04  2.345731E+04
       112  10 -1.147852E+06 -6.104542E+05 -2.116791E+05 -6.060746E+05 -9.869251E-09 -4.832445E-09
       112  11 -8.858838E+05 -4.761630E+05 -1.549028E+05 -4.930796E+05  1.706761E-08  1.215693E-08
       112  12 -5.668653E+05 -3.986694E+05 -9.811394E+04 -4.453794E+05  6.151534E-08  2.804285E-08
       112  13 -7.921122E+04 -2.215496E+05  1.348416E+02 -3.106189E+05 -5.884250E-09 -3.179584E-09
       112  14 -1.075810E+05 -1.929275E+05 -6.951046E+01 -2.780060E+05 -3.472254E-09  3.467372E-09
       112  15 -7.899382E+04 -2.211073E+05 -2.672200E+02 -3.107166E+05  1.559426E-08  1.550696E-08
       112  16  9.906100E+05  1.674536E+05  2.118950E+05 -1.469231E+04  5.948571E-10 -3.841800E-09
       112  17  6.713444E+05  9.035869E+04  1.547341E+05 -6.268390E+04 -2.577248E-08 -1.695283E-08
       112  18  4.091189E+05 -4.352646E+04  9.756680E+04 -1.759571E+05 -3.128909E-08 -1.551725E-08
       112  19 -1.147849E+06 -6.104453E+05 -2.116635E+05 -6.060745E+05 -1.980895E+03 -9.104826E+04
       112  20 -8.858824E+05 -4.761579E+05 -1.548937E+05 -4.930790E+05 -1.028901E+04 -6.893134E+04
       112  21 -5.668644E+05 -3.986669E+05 -9.810917E+04 -4.453787E+05 -1.857721E+04 -4.681704E+04
       112  22 -7.920861E+04 -2.215426E+05  1.482841E+02 -3.106208E+05  2.929683E+04 -7.934727E+04
       112  23 -1.075796E+05 -1.929239E+05 -6.252591E+01 -2.780070E+05  2.098788E+04 -5.724325E+04
       112  24 -7.899332E+04 -2.211059E+05 -2.645966E+02 -3.107170E+05  1.269893E+04 -3.514206E+04
       112  25  9.906152E+05  1.674594E+05  2.119105E+05 -1.469561E+04  6.063239E+04 -6.762467E+04
       112  26  6.713479E+05  9.036165E+04  1.547431E+05 -6.268582E+04  5.230675E+04 -4.553947E+04
       112  27  4.091211E+05 -4.352535E+04  9.757146E+04 -1.759580E+05  4.400120E+04 -2.345731E+04
       113   1 -3.689457E+05 -3.263941E+05 -5.719356E+04 -3.909112E+05  2.349636E+04  3.396693E+04
       113   2 -1.065615E+05 -1.923837E+05 -5.521546E+02 -2.778817E+05  3.182792E+04  1.198192E+04
       113   3  2.127334E+05 -1.151621E+05  5.601458E+04 -2.302158E+05  4.007171E+04 -9.768772E+03
       113   4 -7.900157E+04 -2.210701E+05 -4.187706E+02 -3.107394E+05 -7.834296E+03  2.227538E+04
       113   5 -1.073780E+05 -1.926484E+05 -8.629126E+02 -2.780350E+05  8.211500E+02  4.110519E+02
       113   6 -7.900327E+04 -2.210913E+05 -1.642771E+03 -3.107311E+05  9.388705E+03 -2.121876E+04
       113   7  2.110343E+05 -1.157371E+05  5.635709E+04 -2.305317E+05 -3.918090E+04  1.057788E+04
       113   8 -1.081923E+05 -1.929122E+05 -1.169553E+03 -2.781877E+05 -3.018571E+04 -1.115986E+04
       113   9 -3.706500E+05 -3.270124E+05 -5.930008E+04 -3.912108E+05 -2.127886E+04 -3.266298E+04
       113  10 -3.689466E+05 -3.263954E+05 -5.719677E+04 -3.909118E+05 -3.680829E-08 -1.256856E-08
       113  11 -1.065627E+05 -1.923841E+05 -5.543290E+02 -2.778820E+05 -2.535196E-08 -1.227281E-08
       113  12  2.127316E+05 -1.151626E+05  5.601138E+04 -2.302155E+05  4.680511E-09 -1.335922E-09
       113  13 -7.900177E+04 -2.210707E+05 -4.198183E+02 -3.107393E+05  1.725902E-08  1.425567E-08
       113  14 -1.073780E+05 -1.926484E+05 -8.629142E+02 -2.780350E+05  6.152827E-09  1.971913E-09
       113  15 -7.900349E+04 -2.210918E+05 -1.643783E+03 -3.107309E+05 -4.646288E-09 -2.589414E-10
       113  16  2.110326E+05 -1.157376E+05  5.635400E+04 -2.305314E+05  7.344579E-08  2.732463E-08
       113  17 -1.081933E+05 -1.929126E+05 -1.171500E+03 -2.781880E+05  2.586515E-08  1.355435E-08
       113  18 -3.706508E+05 -3.270137E+05 -5.930294E+04 -3.912114E+05 -4.732093E-09 -1.781239E-09
       113  19 -3.689457E+05 -3.263941E+05 -5.719356E+04 -3.909112E+05 -2.349636E+04 -3.396693E+04
       113  20 -1.065615E+05 -1.923837E+05 -5.521546E+02 -2.778817E+05 -3.182792E+04 -1.198192E+04
       113  21  2.127334E+05 -1.151621E+05  5.601458E+04 -2.302158E+05 -4.007171E+04  9.768772E+03
       113  22 -7.900157E+04 -2.210701E+05 -4.187706E+02 -3.107394E+05  7.834296E+03 -2.227538E+04
       113  23 -1.073780E+05 -1.926484E+05 -8.629126E+02 -2.780350E+05 -8.211500E+02 -4.110519E+02
       113  24 -7.900327E+04 -2.210913E+05 -1.642771E+03 -3.107311E+05 -9.388705E+03  2.121876E+04
       113  25  2.110343E+05 -1.157371E+05  5.635709E+04 -2.305317E+05  3.918090E+04 -1.057788E+04
       113  26 -1.081923E+05 -1.929122E+05 -1.169553E+03 -2.781877E+05  3.018571E+04  1.115986E+04
       113  27 -3.706500E+05 -3.270124E+05 -5.930008E+04 -3.912108E+05  2.127886E+04  3.266298E+04
       114   1  4.109272E+05 -4.293201E+04  9.654849E+04 -1.757645E+05  4.587537E+04 -2.228737E+04
       114   2  6.728643E+05  9.117669E+04  1.533026E+05 -6.238406E+04  5.061943E+04 -4.375756E+04
       114   3  9.919983E+05  1.685902E+05  2.121833E+05 -1.393484E+04  5.407051E+04 -6.173279E+04
       114   4 -7.914230E+04 -2.210445E+05 -2.201684E+03 -3.107362E+05  1.450584E+04 -3.399727E+04
       114   5 -1.074032E+05 -1.930428E+05 -4.093380E+03 -2.779695E+05  2.419080E+04 -5.363472E+04
       114   6 -7.952775E+04 -2.227266E+05 -7.768559E+03 -3.101736E+05  3.258327E+04 -6.977416E+04
       114   7 -5.689585E+05 -3.991346E+05 -1.009584E+05 -4.456080E+05 -1.683687E+04 -4.569717E+04
       114   8 -8.870429E+05 -4.772102E+05 -1.615164E+05 -4.933046E+05 -2.202198E+03 -6.349854E+04
       114   9 -1.149885E+06 -6.139501E+05 -2.277802E+05 -6.059435E+05  1.113567E+04 -7.780067E+04
       114  10  4.109248E+05 -4.293311E+04  9.654361E+04 -1.757637E+05 -3.751046E-10 -1.917587E-09
       114  11  6.728610E+05  9.117395E+04  1.532941E+05 -6.238228E+04  1.455692E-09 -1.618603E-09
       114  12  9.919942E+05  1.685854E+05  2.121707E+05 -1.393215E+04 -4.509691E-11  6.288142E-10
       114  13 -7.914283E+04 -2.210458E+05 -2.204251E+03 -3.107358E+05  7.011018E-09 -8.952016E-10
       114  14 -1.074046E+05 -1.930461E+05 -4.099884E+03 -2.779685E+05 -1.111548E-09 -6.822400E-10
       114  15 -7.953019E+04 -2.227321E+05 -7.779701E+03 -3.101718E+05 -2.961656E-11 -2.706024E-10
       114  16 -5.689594E+05 -3.991370E+05 -1.009628E+05 -4.456086E+05  3.200349E-09  9.669714E-10
       114  17 -8.870440E+05 -4.772145E+05 -1.615240E+05 -4.933047E+05  3.744435E-09 -6.734745E-10
       114  18 -1.149887E+06 -6.139567E+05 -2.277919E+05 -6.059428E+05  1.733932E-09 -9.013729E-10
       114  19  4.109272E+05 -4.293201E+04  9.654849E+04 -1.757645E+05 -4.587537E+04  2.228737E+04
       114  20  6.728643E+05  9.117669E+04  1.533026E+05 -6.238406E+04 -5.061943E+04  4.375756E+04
       114  21  9.919983E+05  1.685902E+05  2.121833E+05 -1.393484E+04 -5.407051E+04  6.173279E+04
       114  22 -7.914230E+04 -2.210445E+05 -2.201684E+03 -3.107362E+05 -1.450584E+04  3.399727E+04
       114  23 -1.074032E+05 -1.930428E+05 -4.093380E+03 -2.779695E+05 -2.419080E+04  5.363472E+04
       114  24 -7.952775E+04 -2.227266E+05 -7.768559E+03 -3.101736E+05 -3.258327E+04  6.977416E+04
       114  25 -5.689585E+05 -3.991346E+05 -1.009584E+05 -4.456080E+05  1.683687E+04  4.569717E+04
       114  26 -8.870429E+05 -4.772102E+05 -1.615164E+05 -4.933046E+05  2.202198E+03  6.349854E+04
       114  27 -1.149885E+06 -6.139501E+05 -2.277802E+05 -6.059435E+05 -1.113567E+04  7.780067E+04
       115   1  1.192994E+06  2.407594E+05  2.513483E+05  3.808871E+04  7.025572E+04 -7.044809E+04
       115   2  1.444946E+06  3.795615E+05  3.245719E+05  1.593525E+05  5.572380E+03 -9.055980E+04
       115   3  1.756397E+06  4.554934E+05  4.421914E+05  2.240686E+05 -7.856878E+04 -5.892148E+04
       115   4 -8.129127E+04 -2.211906E+05 -1.015587E+04 -3.105724E+05  3.859221E+04 -8.230255E+04
       115   5 -1.062020E+05 -1.989147E+05 -1.912390E+04 -2.761926E+05  4.735743E+04 -7.494094E+04
       115   6 -8.622308E+04 -2.540783E+05 -4.181313E+04 -2.984030E+05  3.667405E+04 -1.574918E+04
       115   7 -1.353919E+06 -6.830127E+05 -2.717415E+05 -6.585780E+05  6.998341E+03 -9.413137E+04
       115   8 -1.654897E+06 -7.771771E+05 -3.629554E+05 -7.107280E+05  8.902927E+04 -5.936593E+04
       115   9 -1.925468E+06 -9.633572E+05 -5.260346E+05 -8.194347E+05  1.515391E+05  2.727238E+04
       115  10  1.192988E+06  2.407527E+05  2.513298E+05  3.809270E+04  1.690630E-09  9.094078E-10
       115  11  1.444944E+06  3.795527E+05  3.245564E+05  1.593529E+05 -2.613880E-09 -1.437688E-09
       115  12  1.756389E+06  4.554880E+05  4.421733E+05  2.240649E+05 -2.206913E-09 -1.296643E-09
       115  13 -8.129469E+04 -2.211983E+05 -1.017140E+04 -3.105698E+05  7.981218E-11  2.223924E-10
       115  14 -1.062059E+05 -1.989213E+05 -1.913866E+04 -2.761897E+05  2.719045E-09 -5.100892E-10
       115  15 -8.622459E+04 -2.540790E+05 -4.181613E+04 -2.984026E+05  2.029880E-09 -4.430194E-10
       115  16 -1.353921E+06 -6.830222E+05 -2.717583E+05 -6.585775E+05  1.836156E-09 -2.894396E-09
       115  17 -1.654907E+06 -7.771830E+05 -3.629769E+05 -7.107237E+05  3.221725E-09 -5.512267E-10
       115  18 -1.925493E+06 -9.633642E+05 -5.260793E+05 -8.194380E+05  1.643665E-09  3.974119E-10
       115  19  1.192994E+06  2.407594E+05  2.513483E+05  3.808871E+04 -7.025572E+04  7.044809E+04
       115  20  1.444946E+06  3.795615E+05  3.245719E+05  1.593525E+05 -5.572380E+03  9.055980E+04
       115  21  1.756397E+06  4.554934E+05  4.421914E+05  2.240686E+05  7.856878E+04  5.892148E+04
       115  22 -8.129127E+04 -2.211906E+05 -1.015587E+04 -3.105724E+05 -3.859221E+04  8.230255E+04
       115  23 -1.062020E+05 -1.989147E+05 -1.912390E+04 -2.761926E+05 -4.735743E+04  7.494094E+04
       115  24 -8.622308E+04 -2.540783E+05 -4.181313E+04 -2.984030E+05 -3.667405E+04  1.574918E+04
       115  25 -1.353919E+06 -6.830127E+05 -2.717415E+05 -6.585780E+05 -6.998341E+03  9.413137E+04
       115  26 -1.654897E+06 -7.771771E+05 -3.629554E+05 -7.107280E+05 -8.902927E+04  5.936593E+04
       115  27 -1.925468E+06 -9.633572E+05 -5.260346E+05 -8.194347E+05 -1.515391E+05 -2.727238E+04
       116   1 -1.675210E+05 -8.419597E+04 -7.451762E+04 -6.008962E+04 -1.574307E+04  5.934249E+03
       116   2 -1.048538E+05 -8.870371E+04 -5.731541E+04 -6.794623E+04 -2.081943E+03  1.974024E+04
       116   3 -4.100129E+04 -8.144147E+04 -4.606485E+04 -8.522787E+04  1.158446E+04  2.331941E+04
       116   4  3.327591E+05  3.901360E+04  4.135460E+04 -8.659666E+04  2.920800E+04  5.941501E+03
       116   5  3.300735E+05  1.390363E+04  2.086614E+04 -8.188308E+04  1.857367E+04  1.974117E+04
       116   6  3.327829E+05  4.775571E+03  1.129442E+04 -8.659328E+04  7.943019E+03  2.331788E+04
       116   7  8.332762E+05  1.622093E+05  1.572180E+05 -1.131252E+05  7.419502E+04  5.944913E+03
       116   8  7.651864E+05  1.165014E+05  9.904209E+04 -9.582996E+04  3.924334E+04  1.974118E+04
       116   9  7.067068E+05  9.098588E+04  6.865068E+04 -8.795953E+04  4.299470E+03  2.331637E+04
       116  10 -1.675212E+05 -8.419607E+04 -7.451816E+04 -6.008955E+04 -3.789568E-09  5.088454E-10
       116  11 -1.048539E+05 -8.870413E+04 -5.731616E+04 -6.794620E+04 -2.981031E-09  1.275670E-09
       116  12 -4.100158E+04 -8.144209E+04 -4.606613E+04 -8.522809E+04 -2.912144E-09  5.293739E-10
       116  13  3.327582E+05  3.901333E+04  4.135294E+04 -8.659680E+04 -2.020868E-09  7.597097E-10
       116  14  3.300730E+05  1.390312E+04  2.086476E+04 -8.188338E+04  1.161333E-09  1.376089E-09
       116  15  3.327826E+05  4.774970E+03  1.129328E+04 -8.659342E+04  2.567629E-09  1.261866E-11
       116  16  8.332703E+05  1.622078E+05  1.572077E+05 -1.131256E+05  2.339170E-09  8.864018E-10
       116  17  7.651846E+05  1.165006E+05  9.903847E+04 -9.583058E+04  1.423047E-09  1.579818E-09
       116  18  7.067066E+05  9.098529E+04  6.864962E+04 -8.795961E+04  5.358576E-09 -1.103149E-10
       116  19 -1.675210E+05 -8.419597E+04 -7.451762E+04 -6.008962E+04  1.574307E+04 -5.934249E+03
       116  20 -1.048538E+05 -8.870371E+04 -5.731541E+04 -6.794623E+04  2.081943E+03 -1.974024E+04
       116  21 -4.100129E+04 -8.144147E+04 -4.606485E+04 -8.522787E+04 -1.158446E+04 -2.331941E+04
       116  22  3.327591E+05  3.901360E+04  4.135460E+04 -8.659666E+04 -2.920800E+04 -5.941501E+03
       116  23  3.300735E+05  1.390363E+04  2.086614E+04 -8.188308E+04 -1.857367E+04 -1.974117E+04
       116  24  3.327829E+05  4.775571E+03  1.129442E+04 -8.659328E+04 -7.943019E+03 -2.331788E+04
       116  25  8.332762E+05  1.622093E+05  1.572180E+05 -1.131252E+05 -7.419502E+04 -5.944913E+03
       116  26  7.651864E+05  1.165014E+05  9.904209E+04 -9.582996E+04 -3.924334E+04 -1.974118E+04
       116  27  7.067068E+05  9.098588E+04  6.865068E+04 -8.795953E+04 -4.299470E+03 -2.331637E+04
       117   1 -2.318864E+03 -7.322493E+04 -4.110558E+04 -8.472795E+04  1.086523E+04  2.195980E+04
       117   2  6.077962E+04 -6.051860E+04 -3.304273E+04 -8.068889E+04  1.184117E+04  1.942597E+04
       117   3  1.240183E+05 -4.679274E+04 -2.535803E+04 -8.682906E+04  1.281691E+04  1.552318E+04
       117   4  3.317446E+05  3.482091E+03  8.425905E+03 -8.676174E+04  6.473809E+03  2.195854E+04
       117   5  3.314005E+05  1.111969E+03  4.547445E+03 -8.167236E+04  4.195835E+03  1.942522E+04
       117   6  3.317570E+05  3.259318E+02  2.549394E+03 -8.676179E+04  1.917578E+03  1.552326E+04
       117   7  6.659202E+05  8.018390E+04  5.795540E+04 -8.879666E+04  2.080123E+03  2.195731E+04
       117   8  6.020958E+05  6.273934E+04  4.213696E+04 -8.265626E+04 -3.452679E+03  1.942450E+04
       117   9  5.395399E+05  4.744282E+04  3.045688E+04 -8.669449E+04 -8.985230E+03  1.552335E+04
       117  10 -2.319121E+03 -7.322548E+04 -4.110671E+04 -8.472814E+04 -2.073604E-07 -1.327679E-09
       117  11  6.077937E+04 -6.051905E+04 -3.304371E+04 -8.068908E+04 -4.242931E-10 -4.311126E-09
       117  12  1.240180E+05 -4.679305E+04 -2.535879E+04 -8.682922E+04  2.044083E-07 -4.255496E-09
       117  13  3.317444E+05  3.481562E+03  8.424920E+03 -8.676185E+04  2.273685E-09 -1.446103E-09
       117  14  3.314004E+05  1.111559E+03  4.546702E+03 -8.167242E+04 -1.999119E-09 -3.684266E-09
       117  15  3.317569E+05  3.256720E+02  2.548935E+03 -8.676181E+04 -1.994866E-09 -3.874872E-09
       117  16  6.659201E+05  8.018339E+04  5.795448E+04 -8.879670E+04  2.073963E-07 -1.786256E-09
       117  17  6.020957E+05  6.273893E+04  4.213623E+04 -8.265621E+04  2.886965E-09 -3.167680E-09
       117  18  5.395397E+05  4.744254E+04  3.045628E+04 -8.669438E+04 -2.029601E-07 -3.460657E-09
       117  19 -2.318864E+03 -7.322493E+04 -4.110558E+04 -8.472795E+04 -1.086523E+04 -2.195980E+04
       117  20  6.077962E+04 -6.051860E+04 -3.304273E+04 -8.068889E+04 -1.184117E+04 -1.942597E+04
       117  21  1.240183E+05 -4.679274E+04 -2.535803E+04 -8.682906E+04 -1.281691E+04 -1.552318E+04
       117  22  3.317446E+05  3.482091E+03  8.425905E+03 -8.676174E+04 -6.473809E+03 -2.195854E+04
       117  23  3.314005E+05  1.111969E+03  4.547445E+03 -8.167236E+04 -4.195835E+03 -1.942522E+04
       117  24  3.317570E+05  3.259318E+02  2.549394E+03 -8.676179E+04 -1.917578E+03 -1.552326E+04
       117  25  6.659202E+05  8.018390E+04  5.795540E+04 -8.879666E+04 -2.080123E+03 -2.195731E+04
       117  26  6.020958E+05  6.273934E+04  4.213696E+04 -8.265626E+04  3.452679E+03 -1.942450E+04
       117  27  5.395399E+05  4.744282E+04  3.045688E+04 -8.669449E+04  8.985230E+03 -1.552335E+04
       118   1  1.629735E+05 -3.796458E+04 -2.044296E+04 -8.674276E+04  1.254143E+04  1.279124E+04
       118   2  2.261056E+05 -2.382175E+04 -1.279679E+04 -8.165330E+04  1.244187E+04  8.071439E+03
       118   3  2.892750E+05 -9.606666E+03 -5.066904E+03 -8.684198E+04  1.234205E+04  3.169103E+03
       118   4  3.316284E+05  2.297764E+02  1.920772E+03 -8.678387E+04  1.541948E+03  1.279166E+04
       118   5  3.315760E+05  4.003711E+01  1.075063E+03 -8.164487E+04  1.007975E+03  8.072222E+03
       118   6  3.316331E+05 -1.760838E+00  6.144836E+02 -8.678390E+04  4.737656E+02  3.170255E+03
       118   7  5.003125E+05  3.842299E+04  2.428474E+04 -8.682499E+04 -9.460380E+03  1.279209E+04
       118   8  4.370580E+05  2.390143E+04  1.494733E+04 -8.163644E+04 -1.042777E+04  8.073004E+03
       118   9  3.739933E+05  9.603143E+03  6.296385E+03 -8.672583E+04 -1.139529E+04  3.171405E+03
       118  10  1.629733E+05 -3.796480E+04 -2.044356E+04 -8.674289E+04 -2.808405E-08 -2.437369E-09
       118  11  2.261054E+05 -2.382186E+04 -1.279720E+04 -8.165338E+04  8.779230E-09  1.715097E-09
       118  12  2.892749E+05 -9.606718E+03 -5.067209E+03 -8.684201E+04  4.093346E-08  5.997067E-09
       118  13  3.316283E+05  2.296000E+02  1.920460E+03 -8.678389E+04  2.034683E-09 -4.267496E-09
       118  14  3.315759E+05  3.996685E+01  1.074938E+03 -8.164488E+04 -4.316068E-09 -7.316394E-09
       118  15  3.316331E+05 -1.771693E+00  6.144643E+02 -8.678391E+04 -2.413295E-10 -1.083590E-08
       118  16  5.003124E+05  3.842279E+04  2.428426E+04 -8.682490E+04  2.573110E-08 -1.648412E-09
       118  17  4.370579E+05  2.390133E+04  1.494700E+04 -8.163637E+04 -7.582597E-09  3.406745E-09
       118  18  3.739931E+05  9.603098E+03  6.296122E+03 -8.672580E+04 -4.314920E-08  7.207135E-09
       118  19  1.629735E+05 -3.796458E+04 -2.044296E+04 -8.674276E+04 -1.254143E+04 -1.279124E+04
       118  20  2.261056E+05 -2.382175E+04 -1.279679E+04 -8.165330E+04 -1.244187E+04 -8.071439E+03
       118  21  2.892750E+05 -9.606666E+03 -5.066904E+03 -8.684198E+04 -1.234205E+04 -3.169103E+03
       118  22  3.316284E+05  2.297764E+02  1.920772E+03 -8.678387E+04 -1.541948E+03 -1.279166E+04
       118  23  3.315760E+05  4.003711E+01  1.075063E+03 -8.164487E+04 -1.007975E+03 -8.072222E+03
       118  24  3.316331E+05 -1.760838E+00  6.144836E+02 -8.678390E+04 -4.737656E+02 -3.170255E+03
       118  25  5.003125E+05  3.842299E+04  2.428474E+04 -8.682499E+04  9.460380E+03 -1.279209E+04
       118  26  4.370580E+05  2.390143E+04  1.494733E+04 -8.163644E+04  1.042777E+04 -8.073004E+03
       118  27  3.739933E+05  9.603143E+03  6.296385E+03 -8.672583E+04  1.139529E+04 -3.171405E+03
       119   1  3.282583E+05 -7.627453E+02  2.338532E+01 -8.682579E+04  1.225952E+04  2.545523E+02
       119   2  3.914034E+05  1.346033E+04  7.859910E+03 -8.167102E+04  1.217430E+04 -4.753774E+03
       119   3  4.545680E+05  2.768643E+04  1.575367E+04 -8.680743E+04  1.208923E+04 -9.781681E+03
       119   4  3.316141E+05 -3.269648E+00  4.660914E+02 -8.678684E+04  3.778712E+02  2.557480E+02
       119   5  3.316016E+05 -1.349996E+01  2.673070E+02 -8.164122E+04  2.454132E+02 -4.752765E+03
       119   6  3.316115E+05 -1.269394E+01  1.578409E+02 -8.678685E+04  1.131131E+02 -9.780868E+03
       119   7  3.349701E+05  7.562813E+02  9.093276E+02 -8.674789E+04 -1.150384E+04  2.569422E+02
       119   8  2.718037E+05 -1.348740E+04 -7.324774E+03 -8.161143E+04 -1.168238E+04 -4.751757E+03
       119   9  2.086709E+05 -2.771236E+04 -1.543750E+04 -8.676626E+04 -1.186075E+04 -9.780056E+03
       119  10  3.282582E+05 -7.627857E+02  2.310291E+01 -8.682579E+04 -3.975369E-08  6.439688E-09
       119  11  3.914033E+05  1.346026E+04  7.859589E+03 -8.167098E+04 -6.263316E-09  3.740529E-09
       119  12  4.545678E+05  2.768629E+04  1.575321E+04 -8.680734E+04  2.929858E-08  1.183046E-09
       119  13  3.316141E+05 -3.269756E+00  4.660910E+02 -8.678684E+04  2.171925E-09 -1.060787E-08
       119  14  3.316016E+05 -1.352423E+01  2.672645E+02 -8.164122E+04 -4.375052E-09 -5.542534E-09
       119  15  3.316115E+05 -1.279668E+01  1.576610E+02 -8.678684E+04  3.388897E-09 -3.368122E-10
       119  16  3.349700E+05  7.562457E+02  9.090789E+02 -8.674788E+04  4.247823E-08  7.294996E-09
       119  17  2.718035E+05 -1.348746E+04 -7.325073E+03 -8.161147E+04  7.713678E-09  4.895196E-09
       119  18  2.086707E+05 -2.771250E+04 -1.543794E+04 -8.676636E+04 -3.012204E-08  2.628218E-09
       119  19  3.282583E+05 -7.627453E+02  2.338532E+01 -8.682579E+04 -1.225952E+04 -2.545523E+02
       119  20  3.914034E+05  1.346033E+04  7.859910E+03 -8.167102E+04 -1.217430E+04  4.753774E+03
       119  21  4.545680E+05  2.768643E+04  1.575367E+04 -8.680743E+04 -1.208923E+04  9.781681E+03
       119  22  3.316141E+05 -3.269648E+00  4.660914E+02 -8.678684E+04 -3.778712E+02 -2.557480E+02
       119  23  3.316016E+05 -1.349996E+01  2.673070E+02 -8.164122E+04 -2.454132E+02  4.752765E+03
       119  24  3.316115E+05 -1.269394E+01  1.578409E+02 -8.678685E+04 -1.131131E+02  9.780868E+03
       119  25  3.349701E+05  7.562813E+02  9.093276E+02 -8.674789E+04  1.150384E+04 -2.569422E+02
       119  26  2.718037E+05 -1.348740E+04 -7.324774E+03 -8.161143E+04  1.168238E+04  4.751757E+03
       119  27  2.086709E+05 -2.771236E+04 -1.543750E+04 -8.676626E+04  1.186075E+04  9.780056E+03
       120   1  4.935651E+05  3.652203E+04  2.092535E+04 -8.680298E+04  1.206368E+04 -1.271566E+04
       120   2  5.567246E+05  5.074336E+04  2.889786E+04 -8.164520E+04  1.194390E+04 -1.773562E+04
       120   3  6.199136E+05  6.497849E+04  3.695360E+04 -8.677971E+04  1.182469E+04 -2.272134E+04
       120   4  3.316070E+05 -1.436040E+01  1.232101E+02 -8.678712E+04  8.759283E+01 -1.271512E+04
       120   5  3.315964E+05 -2.256487E+01  7.884538E+01 -8.164088E+04  4.861071E+01 -1.773581E+04
       120   6  3.315972E+05 -3.092415E+01  6.125002E+01 -8.678713E+04  1.021260E+01 -2.272227E+04
       120   7  1.696760E+05 -3.655175E+04 -2.067851E+04 -8.677127E+04 -1.188552E+04 -1.271458E+04
       120   8  1.065205E+05 -5.079050E+04 -2.873986E+04 -8.163655E+04 -1.184258E+04 -1.773601E+04
       120   9  4.336625E+04 -6.504368E+04 -3.683094E+04 -8.679454E+04 -1.179905E+04 -2.272320E+04
       120  10  4.935649E+05  3.652181E+04  2.092477E+04 -8.680286E+04  4.920574E-09  5.427715E-10
       120  11  5.567243E+05  5.074298E+04  2.889700E+04 -8.164503E+04  3.063273E-09  7.454566E-10
       120  12  6.199133E+05  6.497790E+04  3.695237E+04 -8.677949E+04  2.042813E-09  7.598803E-10
       120  13  3.316069E+05 -1.453404E+01  1.229062E+02 -8.678712E+04  4.556401E-09  1.081273E-09
       120  14  3.315963E+05 -2.290270E+01  7.825417E+01 -8.164088E+04 -3.005014E-09  8.003763E-10
       120  15  3.315970E+05 -3.147865E+01  6.027963E+01 -8.678713E+04 -4.250943E-09  7.182898E-10
       120  16  1.696758E+05 -3.655196E+04 -2.067908E+04 -8.677139E+04 -7.772780E-09  1.613142E-09
       120  17  1.065202E+05 -5.079087E+04 -2.874072E+04 -8.163672E+04 -2.530412E-09  7.300376E-10
       120  18  4.336597E+04 -6.504428E+04 -3.683217E+04 -8.679475E+04 -1.339084E-09  5.922675E-10
       120  19  4.935651E+05  3.652203E+04  2.092535E+04 -8.680298E+04 -1.206368E+04  1.271566E+04
       120  20  5.567246E+05  5.074336E+04  2.889786E+04 -8.164520E+04 -1.194390E+04  1.773562E+04
       120  21  6.199136E+05  6.497849E+04  3.695360E+04 -8.677971E+04 -1.182469E+04  2.272134E+04
       120  22  3.316070E+05 -1.436040E+01  1.232101E+02 -8.678712E+04 -8.759283E+01  1.271512E+04
       120  23  3.315964E+05 -2.256487E+01  7.884538E+01 -8.164088E+04 -4.861071E+01  1.773581E+04
       120  24  3.315972E+05 -3.092415E+01  6.125002E+01 -8.678713E+04 -1.021260E+01  2.272227E+04
       120  25  1.696760E+05 -3.655175E+04 -2.067851E+04 -8.677127E+04  1.188552E+04  1.271458E+04
       120  26  1.065205E+05 -5.079050E+04 -2.873986E+04 -8.163655E+04  1.184258E+04  1.773601E+04
       120  27  4.336625E+04 -6.504368E+04 -3.683094E+04 -8.679454E+04  1.179905E+04  2.272320E+04
       121   1  6.589472E+05  7.382632E+04  4.221796E+04 -8.676771E+04  1.179520E+04 -2.562101E+04
       121   2  7.220855E+05  8.809729E+04  5.054866E+04 -8.160887E+04  1.108966E+04 -3.043958E+04
       121   3  7.853639E+05  1.024902E+05  5.937282E+04 -8.672661E+04  1.038497E+04 -3.497540E+04
       121   4  3.315947E+05 -3.754708E+01  5.979591E+01 -8.678368E+04 -3.582927E-01 -2.562253E+04
       121   5  3.315761E+05 -5.193762E+01  6.882132E+01 -8.164519E+04 -3.385561E+01 -3.044230E+04
       121   6  3.315778E+05 -6.059194E+01  1.049518E+02 -8.678368E+04 -6.644545E+01 -3.497922E+04
       121   7  4.352211E+03 -7.390578E+04 -4.209837E+04 -8.679963E+04 -1.179001E+04 -2.562405E+04
       121   8 -5.877711E+04 -8.820743E+04 -5.041135E+04 -8.168149E+04 -1.115072E+04 -3.044501E+04
       121   9 -1.219977E+05 -1.026200E+05 -5.916378E+04 -8.684069E+04 -1.051060E+04 -3.498304E+04
       121  10  6.589469E+05  7.382558E+04  4.221646E+04 -8.676747E+04 -8.651160E-10  1.225631E-09
       121  11  7.220851E+05  8.809626E+04  5.054669E+04 -8.160859E+04 -2.947869E-09  1.225669E-09
       121  12  7.853635E+05  1.024889E+05  5.937032E+04 -8.672632E+04  3.913916E-09  3.635793E-10
       121  13  3.315945E+05 -3.825217E+01  5.856201E+01 -8.678368E+04  8.249875E-12  9.361879E-10
       121  14  3.315758E+05 -5.293293E+01  6.707954E+01 -8.164519E+04  3.084102E-09  9.668474E-10
       121  15  3.315774E+05 -6.190603E+01  1.026521E+02 -8.678368E+04  2.923218E-09  3.863997E-10
       121  16  4.351885E+03 -7.390652E+04 -4.209986E+04 -8.679987E+04 -2.777537E-09  6.023844E-10
       121  17 -5.877749E+04 -8.820846E+04 -5.041333E+04 -8.168176E+04 -2.657178E-09  5.467959E-10
       121  18 -1.219982E+05 -1.026213E+05 -5.916629E+04 -8.684098E+04 -2.047409E-09  6.871024E-10
       121  19  6.589472E+05  7.382632E+04  4.221796E+04 -8.676771E+04 -1.179520E+04  2.562101E+04
       121  20  7.220855E+05  8.809729E+04  5.054866E+04 -8.160887E+04 -1.108966E+04  3.043958E+04
       121  21  7.853639E+05  1.024902E+05  5.937282E+04 -8.672661E+04 -1.038497E+04  3.497540E+04
       121  22  3.315947E+05 -3.754708E+01  5.979591E+01 -8.678368E+04  3.582927E-01  2.562253E+04
       121  23  3.315761E+05 -5.193762E+01  6.882132E+01 -8.164519E+04  3.385561E+01  3.044230E+04
       121  24  3.315778E+05 -6.059194E+01  1.049518E+02 -8.678368E+04  6.644545E+01  3.497922E+04
       121  25  4.352211E+03 -7.390578E+04 -4.209837E+04 -8.679963E+04  1.179001E+04  2.562405E+04
       121  26 -5.877711E+04 -8.820743E+04 -5.041135E+04 -8.168149E+04  1.115072E+04  3.044501E+04
       121  27 -1.219977E+05 -1.026200E+05 -5.916378E+04 -8.684069E+04  1.051060E+04  3.498304E+04
       122   1  8.245608E+05  1.114641E+05  6.514403E+04 -8.666854E+04  1.021217E+04 -3.759176E+04
       122   2  8.873577E+05  1.261638E+05  7.587416E+04 -8.161875E+04  5.056202E+03 -4.086171E+04
       122   3  9.510954E+05  1.418181E+05  9.020375E+04 -8.668963E+04 -1.002679E+02 -4.201146E+04
       122   4  3.315800E+05 -6.647126E+01  1.345708E+02 -8.674906E+04 -8.580563E+01 -3.759637E+04
       122   5  3.315374E+05 -4.913404E+01  2.284494E+02 -8.168845E+04 -1.980893E+02 -4.086663E+04
       122   6  3.315563E+05  4.799565E+01  4.223161E+02 -8.674909E+04 -3.102979E+02 -4.201568E+04
       122   7 -1.611525E+05 -1.116072E+05 -6.487622E+04 -8.682951E+04 -1.037600E+04 -3.760098E+04
       122   8 -2.239689E+05 -1.262755E+05 -7.542029E+04 -8.175809E+04 -5.447896E+03 -4.087154E+04
       122   9 -2.875962E+05 -1.417397E+05 -8.936536E+04 -8.680849E+04 -5.201273E+02 -4.201990E+04
       122  10  8.245603E+05  1.114625E+05  6.514118E+04 -8.666823E+04  2.780045E-09 -6.288716E-10
       122  11  8.873572E+05  1.261620E+05  7.587097E+04 -8.161858E+04  1.529819E-09 -1.551983E-09
       122  12  9.510949E+05  1.418162E+05  9.020043E+04 -8.668963E+04  2.758071E-09 -1.840680E-09
       122  13  3.315796E+05 -6.798934E+01  1.319142E+02 -8.674907E+04  2.166902E-09 -1.725093E-10
       122  14  3.315369E+05 -5.092771E+01  2.253104E+02 -8.168846E+04 -4.423994E-11 -1.041069E-09
       122  15  3.315558E+05  4.609969E+01  4.189980E+02 -8.674910E+04 -4.237530E-09 -1.559396E-09
       122  16 -1.611530E+05 -1.116088E+05 -6.487908E+04 -8.682983E+04 -1.113202E-09  4.261532E-10
       122  17 -2.239694E+05 -1.262773E+05 -7.542348E+04 -8.175827E+04 -2.739763E-09  2.750488E-10
       122  18 -2.875967E+05 -1.417416E+05 -8.936868E+04 -8.680851E+04 -3.442613E-09 -1.055649E-09
       122  19  8.245608E+05  1.114641E+05  6.514403E+04 -8.666854E+04 -1.021217E+04  3.759176E+04
       122  20  8.873577E+05  1.261638E+05  7.587416E+04 -8.161875E+04 -5.056202E+03  4.086171E+04
       122  21  9.510954E+05  1.418181E+05  9.020375E+04 -8.668963E+04  1.002679E+02  4.201146E+04
       122  22  3.315800E+05 -6.647126E+01  1.345708E+02 -8.674906E+04  8.580563E+01  3.759637E+04
       122  23  3.315374E+05 -4.913404E+01  2.284494E+02 -8.168845E+04  1.980893E+02  4.086663E+04
       122  24  3.315563E+05  4.799565E+01  4.223161E+02 -8.674909E+04  3.102979E+02  4.201568E+04
       122  25 -1.611525E+05 -1.116072E+05 -6.487622E+04 -8.682951E+04  1.037600E+04  3.760098E+04
       122  26 -2.239689E+05 -1.262755E+05 -7.542029E+04 -8.175809E+04  5.447896E+03  4.087154E+04
       122  27 -2.875962E+05 -1.417397E+05 -8.936536E+04 -8.680849E+04  5.201273E+02  4.201990E+04
       123   1  9.913470E+05  1.517594E+05  9.962875E+04 -8.636102E+04 -1.335006E+03 -4.250223E+04
       123   2  1.051338E+06  1.698042E+05  1.280000E+05 -8.247605E+04 -3.954788E+04 -3.419625E+04
       123   3  1.118182E+06  1.952115E+05  1.830722E+05 -8.753799E+04 -7.777855E+04 -1.005070E+04
       123   4  3.316036E+05  1.013973E+02  5.662038E+02 -8.648789E+04 -3.841733E+02 -4.250630E+04
       123   5  3.314311E+05  5.486060E+02  1.037442E+03 -8.201513E+04 -9.056925E+02 -3.418285E+04
       123   6  3.315741E+05  1.824196E+03  2.061063E+03 -8.648857E+04 -1.439955E+03 -1.001146E+04
       123   7 -3.277037E+05 -1.515772E+05 -9.850496E+04 -8.661463E+04  5.656911E+02 -4.251037E+04
       123   8 -3.879666E+05 -1.687346E+05 -1.259385E+05 -8.155477E+04  3.769306E+04 -3.416939E+04
       123   9 -4.544493E+05 -1.916032E+05 -1.789692E+05 -8.544053E+04  7.480282E+04 -9.971933E+03
       123  10  9.913465E+05  1.517575E+05  9.962535E+04 -8.636106E+04 -4.059060E-09 -1.474547E-09
       123  11  1.051336E+06  1.698026E+05  1.279948E+05 -8.247714E+04 -1.787854E-09 -1.025244E-09
       123  12  1.118175E+06  1.952098E+05  1.830607E+05 -8.753862E+04  2.662988E-09 -8.739641E-11
       123  13  3.316031E+05  9.945674E+01  5.628077E+02 -8.648790E+04 -2.512013E-09 -2.726043E-09
       123  14  3.314308E+05  5.473509E+02  1.035244E+03 -8.201515E+04 -2.954802E-09  1.503864E-09
       123  15  3.315741E+05  1.824087E+03  2.060871E+03 -8.648859E+04 -5.049041E-09  3.089620E-10
       123  16 -3.277041E+05 -1.515792E+05 -9.850836E+04 -8.661461E+04 -1.487728E-09 -1.007247E-09
       123  17 -3.879684E+05 -1.687362E+05 -1.259433E+05 -8.155374E+04 -2.549634E-09  1.264266E-09
       123  18 -4.544554E+05 -1.916048E+05 -1.789799E+05 -8.543993E+04 -2.486619E-09 -2.280865E-10
       123  19  9.913470E+05  1.517594E+05  9.962875E+04 -8.636102E+04  1.335006E+03  4.250223E+04
       123  20  1.051338E+06  1.698042E+05  1.280000E+05 -8.247605E+04  3.954788E+04  3.419625E+04
       123  21  1.118182E+06  1.952115E+05  1.830722E+05 -8.753799E+04  7.777855E+04  1.005070E+04
       123  22  3.316036E+05  1.013973E+02  5.662038E+02 -8.648789E+04  3.841733E+02  4.250630E+04
       123  23  3.314311E+05  5.486060E+02  1.037442E+03 -8.201513E+04  9.056925E+02  3.418285E+04
       123  24  3.315741E+05  1.824196E+03  2.061063E+03 -8.648857E+04  1.439955E+03  1.001146E+04
       123  25 -3.277037E+05 -1.515772E+05 -9.850496E+04 -8.661463E+04 -5.656911E+02  4.251037E+04
       123  26 -3.879666E+05 -1.687346E+05 -1.259385E+05 -8.155477E+04 -3.769306E+04  3.416939E+04
       123  27 -4.544493E+05 -1.916032E+05 -1.789692E+05 -8.544053E+04 -7.480282E+04  9.971933E+03
       124   1  1.768591E+05  8.539928E+05  1.695799E+05 -2.564478E+05  6.552700E+03  4.492055E+04
       124   2  1.202881E+05  6.486731E+05  1.001631E+05 -2.380333E+05  1.909522E+04  9.767904E+03
       124   3  7.103344E+04  4.497791E+05  5.543569E+04 -2.543885E+05  1.596720E+04 -2.537725E+04
       124   4  2.976307E+03  1.506485E+05  3.106870E+03 -2.541267E+05  6.586388E+03  9.196749E+02
       124   5  1.155309E+03  1.504242E+05  2.523054E+03 -2.367417E+05  1.910465E+04 -3.445719E+02
       124   6  7.779176E+02  1.507151E+05  3.117094E+03 -2.541282E+05  1.594667E+04 -1.612510E+03
       124   7 -1.709410E+05 -5.522375E+05 -1.633932E+05 -2.518080E+05  6.619776E+03 -4.303167E+04
       124   8 -1.179924E+05 -3.475867E+05 -9.512861E+04 -2.354512E+05  1.911405E+04 -1.044911E+04
       124   9 -6.948216E+04 -1.482602E+05 -4.920258E+04 -2.538679E+05  1.592616E+04  2.214113E+04
       124  10  1.768586E+05  8.539907E+05  1.695760E+05 -2.564480E+05 -1.776915E-09 -5.904189E-09
       124  11  1.202877E+05  6.486729E+05  1.001623E+05 -2.380334E+05 -2.776647E-09 -6.839879E-09
       124  12  7.103299E+04  4.497783E+05  5.543400E+04 -2.543882E+05 -3.102283E-09 -9.499232E-09
       124  13  2.976260E+03  1.506485E+05  3.106787E+03 -2.541267E+05  1.616292E-09 -1.406759E-11
       124  14  1.154917E+03  1.504241E+05  2.522367E+03 -2.367417E+05 -1.204294E-09 -4.494191E-10
       124  15  7.776438E+02  1.507150E+05  3.116611E+03 -2.541281E+05 -2.989104E-09 -8.174627E-10
       124  16 -1.709415E+05 -5.522395E+05 -1.633967E+05 -2.518078E+05 -7.099450E-10  5.909093E-09
       124  17 -1.179928E+05 -3.475869E+05 -9.512950E+04 -2.354510E+05  1.861240E-10  6.879718E-09
       124  18 -6.948257E+04 -1.482608E+05 -4.920398E+04 -2.538681E+05 -4.629605E-09  9.570125E-09
       124  19  1.768591E+05  8.539928E+05  1.695799E+05 -2.564478E+05 -6.552700E+03 -4.492055E+04
       124  20  1.202881E+05  6.486731E+05  1.001631E+05 -2.380333E+05 -1.909522E+04 -9.767904E+03
       124  21  7.103344E+04  4.497791E+05  5.543569E+04 -2.543885E+05 -1.596720E+04  2.537725E+04
       124  22  2.976307E+03  1.506485E+05  3.106870E+03 -2.541267E+05 -6.586388E+03 -9.196749E+02
       124  23  1.155309E+03  1.504242E+05  2.523054E+03 -2.367417E+05 -1.910465E+04  3.445719E+02
       124  24  7.779176E+02  1.507151E+05  3.117094E+03 -2.541282E+05 -1.594667E+04  1.612510E+03
       124  25 -1.709410E+05 -5.522375E+05 -1.633932E+05 -2.518080E+05 -6.619776E+03  4.303167E+04
       124  26 -1.179924E+05 -3.475867E+05 -9.512861E+04 -2.354512E+05 -1.911405E+04  1.044911E+04
       124  27 -6.948216E+04 -1.482602E+05 -4.920258E+04 -2.538679E+05 -1.592616E+04 -2.214113E+04
       125   1  4.122212E+04  3.225337E+05  3.426477E+04 -2.548041E+05  8.869046E+03 -2.617121E+04
       125   2 -5.536814E+03  1.201631E+05  1.666726E+03 -2.356324E+05 -2.150721E+03 -2.892571E+04
       125   3 -5.032996E+04 -8.135063E+04 -2.865892E+04 -2.522299E+05 -1.301777E+04 -3.167912E+04
       125   4  7.888268E+02  1.508056E+05  3.781967E+03 -2.543499E+05  8.847369E+03 -2.191321E+03
       125   5  1.402461E+03  1.503668E+05  6.154605E+03 -2.364643E+05 -2.171803E+03 -5.279714E+03
       125   6  4.041041E+03  1.508011E+05  1.102950E+04 -2.543473E+05 -1.303830E+04 -8.367853E+03
       125   7 -3.964578E+04 -2.089238E+04 -2.669978E+04 -2.538958E+05  8.825722E+03  2.178213E+04
       125   8  8.341997E+03  1.805725E+05  1.064457E+04 -2.372962E+05 -2.192948E+03  1.836738E+04
       125   9  5.840948E+04  3.830071E+05  5.071816E+04 -2.564656E+05 -1.305898E+04  1.495186E+04
       125  10  4.122185E+04  3.225329E+05  3.426334E+04 -2.548039E+05 -2.752326E-09 -8.400712E-08
       125  11 -5.537043E+03  1.201622E+05  1.665146E+03 -2.356325E+05 -4.695737E-09 -5.610348E-08
       125  12 -5.033041E+04 -8.135176E+04 -2.866112E+04 -2.522302E+05 -7.297511E-09 -2.239034E-08
       125  13  7.887415E+02  1.508056E+05  3.781811E+03 -2.543499E+05 -1.297416E-09  2.995851E-11
       125  14  1.402449E+03  1.503667E+05  6.154544E+03 -2.364643E+05  1.139192E-08 -5.845582E-10
       125  15  4.040839E+03  1.508010E+05  1.102904E+04 -2.543474E+05  2.522724E-08 -8.551436E-10
       125  16 -3.964599E+04 -2.089291E+04 -2.670082E+04 -2.538959E+05 -6.651134E-09  8.398618E-08
       125  17  8.341901E+03  1.805722E+05  1.064393E+04 -2.372962E+05 -2.360300E-09  5.600076E-08
       125  18  5.840924E+04  3.830068E+05  5.071742E+04 -2.564654E+05 -1.144521E-08  2.239843E-08
       125  19  4.122212E+04  3.225337E+05  3.426477E+04 -2.548041E+05 -8.869046E+03  2.617121E+04
       125  20 -5.536814E+03  1.201631E+05  1.666726E+03 -2.356324E+05  2.150721E+03  2.892571E+04
       125  21 -5.032996E+04 -8.135063E+04 -2.865892E+04 -2.522299E+05  1.301777E+04  3.167912E+04
       125  22  7.888268E+02  1.508056E+05  3.781967E+03 -2.543499E+05 -8.847369E+03  2.191321E+03
       125  23  1.402461E+03  1.503668E+05  6.154605E+03 -2.364643E+05  2.171803E+03  5.279714E+03
       125  24  4.041041E+03  1.508011E+05  1.102950E+04 -2.543473E+05  1.303830E+04  8.367853E+03
       125  25 -3.964578E+04 -2.089238E+04 -2.669978E+04 -2.538958E+05 -8.825722E+03 -2.178213E+04
       125  26  8.341997E+03  1.805725E+05  1.064457E+04 -2.372962E+05  2.192948E+03 -1.836738E+04
       125  27  5.840948E+04  3.830071E+05  5.071816E+04 -2.564656E+05  1.305898E+04 -1.495186E+04
       126   1 -7.917886E+04 -2.072369E+05 -4.710489E+04 -2.535415E+05 -1.997764E+04 -3.334597E+04
       126   2 -1.171205E+05 -4.097977E+05 -8.153227E+04 -2.196097E+05 -2.220733E+04 -1.044307E+04
       126   3 -1.385873E+05 -6.111808E+05 -1.267592E+05 -2.203532E+05 -7.482119E+03  1.245575E+04
       126   4  5.072398E+03  1.522567E+05  1.463548E+04 -2.541042E+05 -1.999685E+04 -1.027939E+04
       126   5  1.625249E+04  1.484752E+05  2.682204E+04 -2.367550E+05 -2.219477E+04 -2.398548E+04
       126   6  5.025436E+04  1.521788E+05  5.362964E+04 -2.540737E+05 -7.446053E+03 -3.768799E+04
       126   7  8.931703E+04  5.118785E+05  7.637350E+04 -2.546671E+05 -2.001610E+04  1.280013E+04
       126   8  1.496080E+05  7.070486E+05  1.351625E+05 -2.539159E+05 -2.218147E+04 -3.753979E+04
       126   9  2.390598E+05  9.160822E+05  2.339882E+05 -2.878358E+05 -7.404569E+03 -8.789307E+04
       126  10 -7.917958E+04 -2.072382E+05 -4.710773E+04 -2.535420E+05 -7.928376E-09  1.875247E-08
       126  11 -1.171210E+05 -4.097980E+05 -8.153340E+04 -2.196099E+05 -8.284427E-09  4.981336E-08
       126  12 -1.385874E+05 -6.111809E+05 -1.267596E+05 -2.203531E+05 -2.198382E-10  7.213867E-08
       126  13  5.071940E+03  1.522565E+05  1.463453E+04 -2.541043E+05  3.078384E-08 -1.667185E-11
       126  14  1.625181E+04  1.484745E+05  2.682003E+04 -2.367554E+05  2.063538E-08 -4.627468E-10
       126  15  5.025392E+04  1.521773E+05  5.362687E+04 -2.540739E+05  7.110374E-09 -5.406899E-10
       126  16  8.931655E+04  5.118782E+05  7.637244E+04 -2.546669E+05 -8.376303E-09 -1.866542E-08
       126  17  1.496071E+05  7.070470E+05  1.351589E+05 -2.539165E+05 -8.199380E-10 -4.971939E-08
       126  18  2.390577E+05  9.160739E+05  2.339736E+05 -2.878363E+05 -6.840208E-10 -7.213108E-08
       126  19 -7.917886E+04 -2.072369E+05 -4.710489E+04 -2.535415E+05  1.997764E+04  3.334597E+04
       126  20 -1.171205E+05 -4.097977E+05 -8.153227E+04 -2.196097E+05  2.220733E+04  1.044307E+04
       126  21 -1.385873E+05 -6.111808E+05 -1.267592E+05 -2.203532E+05  7.482119E+03 -1.245575E+04
       126  22  5.072398E+03  1.522567E+05  1.463548E+04 -2.541042E+05  1.999685E+04  1.027939E+04
       126  23  1.625249E+04  1.484752E+05  2.682204E+04 -2.367550E+05  2.219477E+04  2.398548E+04
       126  24  5.025436E+04  1.521788E+05  5.362964E+04 -2.540737E+05  7.446053E+03  3.768799E+04
       126  25  8.931703E+04  5.118785E+05  7.637350E+04 -2.546671E+05  2.001610E+04 -1.280013E+04
       126  26  1.496080E+05  7.070486E+05  1.351625E+05 -2.539159E+05  2.218147E+04  3.753979E+04
       126  27  2.390598E+05  9.160822E+05  2.339882E+05 -2.878358E+05  7.404569E+03  8.789307E+04
       127   1 -3.408675E+05 -1.917181E+05 -1.211788E+05 -1.436013E+05 -5.895153E+04 -1.885251E+04
       127   2 -3.199668E+05 -1.184004E+05 -6.977507E+04 -1.341475E+05 -3.688262E+04 -3.345864E+03
       127   3 -3.130839E+05 -9.025902E+04 -4.764547E+04 -1.199465E+05 -1.276963E+04  6.719915E+03
       127   4 -1.676765E+05 -9.397424E+04 -6.986839E+04 -6.253175E+04 -4.614533E+04 -1.405023E+04
       127   5 -1.575920E+05 -4.490396E+04 -3.187203E+04 -7.512753E+04 -3.177373E+04 -1.429921E+03
       127   6 -1.599959E+05 -3.948023E+04 -1.704573E+04 -8.297835E+04 -1.535899E+04  5.748210E+03
       127   7  5.544548E+03  3.783698E+03 -1.856063E+04  1.856099E+04 -3.333543E+04 -9.244862E+03
       127   8  4.809552E+03  2.859837E+04  6.029195E+03 -1.609224E+04 -2.666343E+04  4.868403E+02
       127   9 -6.883021E+03  1.129981E+04  1.355314E+04 -4.600201E+04 -1.794905E+04  4.776296E+03
       127  10 -3.408713E+05 -1.917194E+05 -1.211860E+05 -1.436022E+05  6.532180E-10  1.042710E-09
       127  11 -3.199683E+05 -1.184007E+05 -6.977765E+04 -1.341476E+05 -5.924153E-09  1.250306E-09
       127  12 -3.130841E+05 -9.025912E+04 -4.764586E+04 -1.199464E+05 -2.075738E-09  1.434440E-09
       127  13 -1.676788E+05 -9.397502E+04 -6.987276E+04 -6.253227E+04  2.225683E-10 -2.319946E-10
       127  14 -1.575931E+05 -4.490423E+04 -3.187393E+04 -7.512756E+04  4.320467E-09 -8.620311E-11
       127  15 -1.599961E+05 -3.948033E+04 -1.704624E+04 -8.297827E+04  1.548687E-08  4.081877E-09
       127  16  5.543332E+03  3.783308E+03 -1.856288E+04  1.856074E+04  2.637813E-10 -2.266159E-09
       127  17  4.808789E+03  2.859818E+04  6.027858E+03 -1.609223E+04  6.820294E-09 -8.214689E-10
       127  18 -6.883373E+03  1.129970E+04  1.355249E+04 -4.600194E+04  1.411346E-08  7.044037E-09
       127  19 -3.408675E+05 -1.917181E+05 -1.211788E+05 -1.436013E+05  5.895153E+04  1.885251E+04
       127  20 -3.199668E+05 -1.184004E+05 -6.977507E+04 -1.341475E+05  3.688262E+04  3.345864E+03
       127  21 -3.130839E+05 -9.025902E+04 -4.764547E+04 -1.199465E+05  1.276963E+04 -6.719915E+03
       127  22 -1.676765E+05 -9.397424E+04 -6.986839E+04 -6.253175E+04  4.614533E+04  1.405023E+04
       127  23 -1.575920E+05 -4.490396E+04 -3.187203E+04 -7.512753E+04  3.177373E+04  1.429921E+03
       127  24 -1.599959E+05 -3.948023E+04 -1.704573E+04 -8.297835E+04  1.535899E+04 -5.748210E+03
       127  25  5.544548E+03  3.783698E+03 -1.856063E+04  1.856099E+04  3.333543E+04  9.244862E+03
       127  26  4.809552E+03  2.859837E+04  6.029195E+03 -1.609224E+04  2.666343E+04 -4.868403E+02
       127  27 -6.883021E+03  1.129981E+04  1.355314E+04 -4.600201E+04  1.794905E+04 -4.776296E+03
       128   1 -2.902464E+05 -9.059526E+04 -4.022036E+04 -1.187164E+05 -1.146927E+04  5.999066E+03
       128   2 -2.685068E+05 -7.714502E+04 -2.883708E+04 -1.095769E+05 -7.016172E+03  6.234575E+03
       128   3 -2.433267E+05 -7.019883E+04 -2.090583E+04 -1.054484E+05 -2.425524E+03  6.103436E+03
       128   4 -1.578772E+05 -4.146136E+04 -1.302535E+04 -8.129644E+04 -1.299159E+04  5.427697E+03
       128   5 -1.594966E+05 -3.718670E+04 -6.881240E+03 -7.919334E+04 -9.056688E+03  5.468918E+03
       128   6 -1.575731E+05 -3.931320E+04 -3.777967E+03 -8.210153E+04 -4.984372E+03  5.143462E+03
       128   7 -2.549108E+04  7.673756E+03  1.416846E+04 -4.386937E+04 -1.451425E+04  4.856198E+03
       128   8 -5.047422E+04  2.772671E+03  1.507403E+04 -4.880487E+04 -1.109759E+04  4.703115E+03
       128   9 -7.181121E+04 -8.426722E+03  1.334977E+04 -5.875152E+04 -7.543621E+03  4.183342E+03
       128  10 -2.902466E+05 -9.059533E+04 -4.022068E+04 -1.187163E+05  1.392282E-08  4.896468E-09
       128  11 -2.685068E+05 -7.714508E+04 -2.883724E+04 -1.095768E+05  2.023342E-09  1.925122E-10
       128  12 -2.433268E+05 -7.019887E+04 -2.090591E+04 -1.054484E+05 -3.627366E-09 -8.424456E-10
       128  13 -1.578774E+05 -4.146143E+04 -1.302573E+04 -8.129638E+04  9.120512E-09  5.113487E-09
       128  14 -1.594967E+05 -3.718676E+04 -6.881450E+03 -7.919330E+04  4.869884E-09  1.731285E-09
       128  15 -1.575732E+05 -3.931323E+04 -3.778063E+03 -8.210151E+04  3.976467E-10  1.415057E-09
       128  16 -2.549131E+04  7.673674E+03  1.416802E+04 -4.386931E+04 -9.087338E-10  4.815972E-09
       128  17 -5.047436E+04  2.772614E+03  1.507376E+04 -4.880483E+04 -3.552719E-09  4.508486E-09
       128  18 -7.181128E+04 -8.426756E+03  1.334963E+04 -5.875150E+04  1.649483E-09  3.842464E-09
       128  19 -2.902464E+05 -9.059526E+04 -4.022036E+04 -1.187164E+05  1.146927E+04 -5.999066E+03
       128  20 -2.685068E+05 -7.714502E+04 -2.883708E+04 -1.095769E+05  7.016172E+03 -6.234575E+03
       128  21 -2.433267E+05 -7.019883E+04 -2.090583E+04 -1.054484E+05  2.425524E+03 -6.103436E+03
       128  22 -1.578772E+05 -4.146136E+04 -1.302535E+04 -8.129644E+04  1.299159E+04 -5.427697E+03
       128  23 -1.594966E+05 -3.718670E+04 -6.881240E+03 -7.919334E+04  9.056688E+03 -5.468918E+03
       128  24 -1.575731E+05 -3.931320E+04 -3.777967E+03 -8.210153E+04  4.984372E+03 -5.143462E+03
       128  25 -2.549108E+04  7.673756E+03  1.416846E+04 -4.386937E+04  1.451425E+04 -4.856198E+03
       128  26 -5.047422E+04  2.772671E+03  1.507403E+04 -4.880487E+04  1.109759E+04 -4.703115E+03
       128  27 -7.181121E+04 -8.426722E+03  1.334977E+04 -5.875152E+04  7.543621E+03 -4.183342E+03
       129   1 -2.268024E+05 -6.457339E+04 -1.661624E+04 -1.011184E+05 -1.571874E+03  5.223666E+03
       129   2 -2.053070E+05 -5.355852E+04 -1.064566E+04 -9.189915E+04 -9.304570E+01  3.759554E+03
       129   3 -1.792953E+05 -4.729067E+04 -5.302468E+03 -8.802438E+04  1.395008E+03  2.270613E+03
       129   4 -1.574184E+05 -3.939727E+04 -2.843645E+03 -8.200521E+04 -4.059229E+03  4.290568E+03
       129   5 -1.596764E+05 -3.700631E+04 -1.563870E+03 -7.934060E+04 -2.615466E+03  2.813365E+03
       129   6 -1.574117E+05 -3.935537E+04 -8.836220E+02 -8.202057E+04 -1.162516E+03  1.311324E+03
       129   7 -8.802945E+04 -1.422075E+04  1.092874E+04 -6.289010E+04 -6.546881E+03  3.357361E+03
       129   8 -1.140439E+05 -2.045400E+04  7.517788E+03 -6.678126E+04 -5.138075E+03  1.867105E+03
       129   9 -1.355277E+05 -3.142009E+04  3.535177E+03 -7.601660E+04 -3.720115E+03  3.520063E+02
       129  10 -2.268024E+05 -6.457342E+04 -1.661629E+04 -1.011184E+05 -7.795860E-10  3.477432E-10
       129  11 -2.053070E+05 -5.355854E+04 -1.064568E+04 -9.189915E+04 -1.536656E-08 -6.415942E-09
       129  12 -1.792953E+05 -4.729068E+04 -5.302482E+03 -8.802439E+04 -2.755011E-08 -7.741581E-09
       129  13 -1.574184E+05 -3.939729E+04 -2.843710E+03 -8.200520E+04  3.969473E-11 -3.134367E-10
       129  14 -1.596764E+05 -3.700632E+04 -1.563898E+03 -7.934060E+04  2.218190E-09 -5.140325E-09
       129  15 -1.574117E+05 -3.935537E+04 -8.836278E+02 -8.202056E+04  9.058256E-09 -7.492939E-09
       129  16 -8.802950E+04 -1.422077E+04  1.092864E+04 -6.289008E+04 -2.507914E-09  1.375538E-09
       129  17 -1.140439E+05 -2.045402E+04  7.517731E+03 -6.678125E+04  1.482266E-08  6.017425E-09
       129  18 -1.355278E+05 -3.142010E+04  3.535151E+03 -7.601660E+04  3.034707E-08  1.029728E-08
       129  19 -2.268024E+05 -6.457339E+04 -1.661624E+04 -1.011184E+05  1.571874E+03 -5.223666E+03
       129  20 -2.053070E+05 -5.355852E+04 -1.064566E+04 -9.189915E+04  9.304570E+01 -3.759554E+03
       129  21 -1.792953E+05 -4.729067E+04 -5.302468E+03 -8.802438E+04 -1.395008E+03 -2.270613E+03
       129  22 -1.574184E+05 -3.939727E+04 -2.843645E+03 -8.200521E+04  4.059229E+03 -4.290568E+03
       129  23 -1.596764E+05 -3.700631E+04 -1.563870E+03 -7.934060E+04  2.615466E+03 -2.813365E+03
       129  24 -1.574117E+05 -3.935537E+04 -8.836220E+02 -8.202057E+04  1.162516E+03 -1.311324E+03
       129  25 -8.802945E+04 -1.422075E+04  1.092874E+04 -6.289010E+04  6.546881E+03 -3.357361E+03
       129  26 -1.140439E+05 -2.045400E+04  7.517788E+03 -6.678126E+04  5.138075E+03 -1.867105E+03
       129  27 -1.355277E+05 -3.142009E+04  3.535177E+03 -7.601660E+04  3.720115E+03 -3.520063E+02
       130   1 -1.631082E+05 -4.139302E+04 -1.746191E+03 -8.356085E+04  1.914679E+03  1.265921E+03
       130   2 -1.416798E+05 -3.043869E+04  3.161288E+03 -7.432000E+04  2.806031E+03 -4.578866E+02
       130   3 -1.156269E+05 -2.414455E+04  7.908501E+03 -7.041696E+04  3.697940E+03 -2.183089E+03
       130   4 -1.573921E+05 -3.935840E+04 -6.804281E+02 -8.201134E+04 -6.381141E+02  3.084167E+02
       130   5 -1.597047E+05 -3.703252E+04 -4.268985E+02 -7.934071E+04  2.511860E+02 -1.416191E+03
       130   6 -1.573935E+05 -3.936673E+04 -3.321776E+02 -8.200830E+04  1.141032E+03 -3.142193E+03
       130   7 -1.516759E+05 -3.732375E+04  3.853744E+02 -8.046180E+04 -3.190953E+03 -6.491043E+02
       130   8 -1.777294E+05 -4.362635E+04 -4.015095E+03 -8.436130E+04 -2.303590E+03 -2.374470E+03
       130   9 -1.991583E+05 -5.458876E+04 -8.572913E+03 -9.359892E+04 -1.415693E+03 -4.101228E+03
       130  10 -1.631082E+05 -4.139302E+04 -1.746201E+03 -8.356085E+04  2.417267E-08  1.195034E-08
       130  11 -1.416799E+05 -3.043869E+04  3.161273E+03 -7.432000E+04  2.260584E-08  8.909458E-09
       130  12 -1.156269E+05 -2.414456E+04  7.908467E+03 -7.041695E+04  9.958987E-09  2.357599E-09
       130  13 -1.573921E+05 -3.935840E+04 -6.804291E+02 -8.201134E+04  8.479497E-09 -5.426143E-09
       130  14 -1.597047E+05 -3.703252E+04 -4.269024E+02 -7.934071E+04  6.081279E-09 -3.698814E-10
       130  15 -1.573935E+05 -3.936674E+04 -3.321986E+02 -8.200830E+04 -4.800749E-09  4.510566E-10
       130  16 -1.516759E+05 -3.732375E+04  3.853545E+02 -8.046181E+04 -1.319859E-08 -5.297512E-09
       130  17 -1.777294E+05 -4.362636E+04 -4.015115E+03 -8.436130E+04 -1.474489E-08  1.802873E-10
       130  18 -1.991583E+05 -5.458878E+04 -8.572948E+03 -9.359892E+04 -1.218089E-08  4.851131E-10
       130  19 -1.631082E+05 -4.139302E+04 -1.746191E+03 -8.356085E+04 -1.914679E+03 -1.265921E+03
       130  20 -1.416798E+05 -3.043869E+04  3.161288E+03 -7.432000E+04 -2.806031E+03  4.578866E+02
       130  21 -1.156269E+05 -2.414455E+04  7.908501E+03 -7.041696E+04 -3.697940E+03  2.183089E+03
       130  22 -1.573921E+05 -3.935840E+04 -6.804281E+02 -8.201134E+04  6.381141E+02 -3.084167E+02
       130  23 -1.597047E+05 -3.703252E+04 -4.268985E+02 -7.934071E+04 -2.511860E+02  1.416191E+03
       130  24 -1.573935E+05 -3.936673E+04 -3.321776E+02 -8.200830E+04 -1.141032E+03  3.142193E+03
       130  25 -1.516759E+05 -3.732375E+04  3.853744E+02 -8.046180E+04  3.190953E+03  6.491043E+02
       130  26 -1.777294E+05 -4.362635E+04 -4.015095E+03 -8.436130E+04  2.303590E+03  2.374470E+03
       130  27 -1.991583E+05 -5.458876E+04 -8.572913E+03 -9.359892E+04  1.415693E+03  4.101228E+03
       131   1 -9.947328E+04 -1.823464E+04  1.126265E+04 -6.595058E+04  4.147708E+03 -3.213772E+03
       131   2 -7.805149E+04 -7.276016E+03  1.582809E+04 -5.671245E+04  5.028204E+03 -4.942449E+03
       131   3 -5.200438E+04 -9.755497E+02  2.024182E+04 -5.281023E+04  5.907827E+03 -6.668427E+03
       131   4 -1.573941E+05 -3.936692E+04 -3.302044E+02 -8.200789E+04  1.590820E+03 -4.172905E+03
       131   5 -1.597063E+05 -3.703581E+04 -4.159428E+02 -7.934068E+04  2.475025E+03 -5.900296E+03
       131   6 -1.573946E+05 -3.936359E+04 -6.563170E+02 -8.200957E+04  3.358352E+03 -7.624996E+03
       131   7 -2.153109E+05 -6.049872E+04 -1.192306E+04 -9.806369E+04 -9.657905E+02 -5.131935E+03
       131   8 -2.413543E+05 -6.679501E+04 -1.666027E+04 -1.019662E+05 -7.779335E+01 -6.858008E+03
       131   9 -2.627741E+05 -7.775098E+04 -2.155519E+04 -1.112046E+05  8.093218E+02 -8.581399E+03
       131  10 -9.947330E+04 -1.823465E+04  1.126260E+04 -6.595057E+04 -1.994390E-09 -8.298670E-10
       131  11 -7.805152E+04 -7.276049E+03  1.582800E+04 -5.671243E+04 -1.199213E-08 -4.292931E-10
       131  12 -5.200442E+04 -9.756068E+02  2.024167E+04 -5.281020E+04 -5.114966E-09  6.669611E-11
       131  13 -1.573941E+05 -3.936694E+04 -3.302419E+02 -8.200789E+04 -1.064398E-08 -3.632946E-10
       131  14 -1.597063E+05 -3.703585E+04 -4.160197E+02 -7.934067E+04 -1.062594E-08 -5.741853E-10
       131  15 -1.573946E+05 -3.936365E+04 -6.564474E+02 -8.200955E+04 -3.450185E-09 -2.094543E-10
       131  16 -2.153109E+05 -6.049875E+04 -1.192312E+04 -9.806369E+04 -1.127300E-08  8.554736E-11
       131  17 -2.413543E+05 -6.679507E+04 -1.666036E+04 -1.019662E+05 -1.168981E-08 -6.756836E-10
       131  18 -2.627741E+05 -7.775106E+04 -2.155533E+04 -1.112046E+05  1.234664E-11 -3.524908E-11
       131  19 -9.947328E+04 -1.823464E+04  1.126265E+04 -6.595058E+04 -4.147708E+03  3.213772E+03
       131  20 -7.805149E+04 -7.276016E+03  1.582809E+04 -5.671245E+04 -5.028204E+03  4.942449E+03
       131  21 -5.200438E+04 -9.755497E+02  2.024182E+04 -5.281023E+04 -5.907827E+03  6.668427E+03
       131  22 -1.573941E+05 -3.936692E+04 -3.302044E+02 -8.200789E+04 -1.590820E+03  4.172905E+03
       131  23 -1.597063E+05 -3.703581E+04 -4.159428E+02 -7.934068E+04 -2.475025E+03  5.900296E+03
       131  24 -1.573946E+05 -3.936359E+04 -6.563170E+02 -8.200957E+04 -3.358352E+03  7.624996E+03
       131  25 -2.153109E+05 -6.049872E+04 -1.192306E+04 -9.806369E+04  9.657905E+02  5.131935E+03
       131  26 -2.413543E+05 -6.679501E+04 -1.666027E+04 -1.019662E+05  7.779335E+01  6.858008E+03
       131  27 -2.627741E+05 -7.775098E+04 -2.155519E+04 -1.112046E+05 -8.093218E+02  8.581399E+03
       132   1 -3.586640E+04  4.926413E+03  2.339878E+04 -4.836342E+04  6.434066E+03 -7.669866E+03
       132   2 -1.440845E+04  1.588596E+04  2.741188E+04 -3.913122E+04  7.801152E+03 -9.195517E+03
       132   3  1.158582E+04  2.212268E+04  3.089103E+04 -3.523670E+04  9.154543E+03 -1.068396E+04
       132   4 -1.574147E+05 -3.936100E+04 -8.503362E+02 -8.201759E+04  3.877905E+03 -8.629036E+03
       132   5 -1.596820E+05 -3.701667E+04 -1.501793E+03 -7.934082E+04  5.297399E+03 -1.013521E+04
       132   6 -1.574238E+05 -3.940571E+04 -2.728784E+03 -8.200207E+04  6.703164E+03 -1.160418E+04
       132   7 -2.789477E+05 -8.364711E+04 -2.510012E+04 -1.156657E+05  1.322282E+03 -9.588005E+03
       132   8 -3.049332E+05 -8.991724E+04 -3.041627E+04 -1.195416E+05  2.794286E+03 -1.107467E+04
       132   9 -3.264026E+05 -1.009311E+05 -3.634953E+04 -1.287553E+05  4.252522E+03 -1.252413E+04
       132  10 -3.586646E+04  4.926339E+03  2.339859E+04 -4.836338E+04 -1.477887E-08 -4.887527E-09
       132  11 -1.440854E+04  1.588585E+04  2.741161E+04 -3.913116E+04 -2.466839E-08 -9.813286E-09
       132  12  1.158570E+04  2.212253E+04  3.089066E+04 -3.523662E+04 -1.457174E-08 -7.755169E-09
       132  13 -1.574147E+05 -3.936108E+04 -8.505044E+02 -8.201756E+04 -8.024410E-10 -1.390408E-09
       132  14 -1.596821E+05 -3.701679E+04 -1.502038E+03 -7.934078E+04 -5.437470E-10 -3.907813E-09
       132  15 -1.574239E+05 -3.940587E+04 -2.729121E+03 -8.200201E+04  5.864471E-09 -2.330115E-09
       132  16 -2.789477E+05 -8.364721E+04 -2.510029E+04 -1.156656E+05  1.215368E-08  2.099354E-09
       132  17 -3.049332E+05 -8.991738E+04 -3.041651E+04 -1.195415E+05  1.454067E-08  1.065468E-09
       132  18 -3.264026E+05 -1.009313E+05 -3.634986E+04 -1.287553E+05  2.570925E-08  3.063186E-09
       132  19 -3.586640E+04  4.926413E+03  2.339878E+04 -4.836342E+04 -6.434066E+03  7.669866E+03
       132  20 -1.440845E+04  1.588596E+04  2.741188E+04 -3.913122E+04 -7.801152E+03  9.195517E+03
       132  21  1.158582E+04  2.212268E+04  3.089103E+04 -3.523670E+04 -9.154543E+03  1.068396E+04
       132  22 -1.574147E+05 -3.936100E+04 -8.503362E+02 -8.201759E+04 -3.877905E+03  8.629036E+03
       132  23 -1.596820E+05 -3.701667E+04 -1.501793E+03 -7.934082E+04 -5.297399E+03  1.013521E+04
       132  24 -1.574238E+05 -3.940571E+04 -2.728784E+03 -8.200207E+04 -6.703164E+03  1.160418E+04
       132  25 -2.789477E+05 -8.364711E+04 -2.510012E+04 -1.156657E+05 -1.322282E+03  9.588005E+03
       132  26 -3.049332E+05 -8.991724E+04 -3.041627E+04 -1.195416E+05 -2.794286E+03  1.107467E+04
       132  27 -3.264026E+05 -1.009311E+05 -3.634953E+04 -1.287553E+05 -4.252522E+03  1.252413E+04
       133   1  2.778720E+04  2.792295E+04  3.334849E+04 -3.107933E+04  1.016426E+04 -1.150388E+04
       133   2  4.907306E+04  3.910539E+04  3.527919E+04 -2.118590E+04  1.329133E+04 -1.207986E+04
       133   3  7.408914E+04  4.412892E+04  3.490543E+04 -1.629422E+04  1.621424E+04 -1.211069E+04
       133   4 -1.575741E+05 -3.932293E+04 -3.624356E+03 -8.209045E+04  7.606798E+03 -1.246405E+04
       133   5 -1.595097E+05 -3.719889E+04 -6.601257E+03 -7.920278E+04  1.150441E+04 -1.275110E+04
       133   6 -1.578690E+05 -4.138732E+04 -1.249395E+04 -8.131749E+04  1.519774E+04 -1.249293E+04
       133   7 -3.429015E+05 -1.065665E+05 -4.059926E+04 -1.330880E+05  5.050134E+03 -1.342393E+04
       133   8 -3.680485E+05 -1.134997E+05 -4.848407E+04 -1.372019E+05  9.718134E+03 -1.342209E+04
       133   9 -3.897719E+05 -1.268988E+05 -5.989608E+04 -1.463183E+05  1.418164E+04 -1.287501E+04
       133  10  2.778705E+04  2.792278E+04  3.334805E+04 -3.107923E+04  4.997864E-08  1.608753E-08
       133  11  4.907284E+04  3.910519E+04  3.527859E+04 -2.118578E+04  2.332649E-08  7.960015E-09
       133  12  7.408882E+04  4.412869E+04  3.490466E+04 -1.629406E+04 -2.154374E-09 -8.845479E-10
       133  13 -1.575742E+05 -3.932311E+04 -3.624757E+03 -8.209037E+04  1.191214E-08  1.374920E-10
       133  14 -1.595099E+05 -3.719910E+04 -6.601811E+03 -7.920266E+04  2.707783E-09  2.128490E-09
       133  15 -1.578693E+05 -4.138754E+04 -1.249467E+04 -8.131733E+04  3.246397E-09  2.117230E-09
       133  16 -3.429016E+05 -1.065667E+05 -4.059964E+04 -1.330879E+05 -3.104283E-08 -1.556374E-08
       133  17 -3.680487E+05 -1.134999E+05 -4.848458E+04 -1.372018E+05 -1.478386E-08 -3.363397E-09
       133  18 -3.897722E+05 -1.268990E+05 -5.989677E+04 -1.463181E+05  1.582417E-10  5.051184E-09
       133  19  2.778720E+04  2.792295E+04  3.334849E+04 -3.107933E+04 -1.016426E+04  1.150388E+04
       133  20  4.907306E+04  3.910539E+04  3.527919E+04 -2.118590E+04 -1.329133E+04  1.207986E+04
       133  21  7.408914E+04  4.412892E+04  3.490543E+04 -1.629422E+04 -1.621424E+04  1.211069E+04
       133  22 -1.575741E+05 -3.932293E+04 -3.624356E+03 -8.209045E+04 -7.606798E+03  1.246405E+04
       133  23 -1.595097E+05 -3.719889E+04 -6.601257E+03 -7.920278E+04 -1.150441E+04  1.275110E+04
       133  24 -1.578690E+05 -4.138732E+04 -1.249395E+04 -8.131749E+04 -1.519774E+04  1.249293E+04
       133  25 -3.429015E+05 -1.065665E+05 -4.059926E+04 -1.330880E+05 -5.050134E+03  1.342393E+04
       133  26 -3.680485E+05 -1.134997E+05 -4.848407E+04 -1.372019E+05 -9.718134E+03  1.342209E+04
       133  27 -3.897719E+05 -1.268988E+05 -5.989608E+04 -1.463183E+05 -1.418164E+04  1.287501E+04
       134   1  9.266177E+04  4.791342E+04  3.447514E+04 -1.809119E+04  2.008869E+04 -1.186800E+04
       134   2  1.044578E+05  6.501327E+04  2.883876E+04  1.069184E+04  2.388188E+04 -7.924609E+03
       134   3  1.065980E+05  4.249053E+04  1.005194E+04  4.398100E+04  2.463832E+04  4.104886E+03
       134   4 -1.599291E+05 -3.946016E+04 -1.634992E+04 -8.289821E+04  1.748591E+04 -1.284575E+04
       134   5 -1.576534E+05 -4.463874E+04 -3.057181E+04 -7.534302E+04  3.272299E+04 -4.605924E+03
       134   6 -1.673074E+05 -9.171826E+04 -6.701603E+04 -6.328120E+04  4.492225E+04  1.172115E+04
       134   7 -4.124541E+05 -1.268299E+05 -6.717798E+04 -1.476815E+05  1.488426E+04 -1.382312E+04
       134   8 -4.196907E+05 -1.542780E+05 -8.998548E+04 -1.613414E+05  4.155997E+04 -1.289266E+03
       134   9 -4.411298E+05 -2.259018E+05 -1.440871E+05 -1.704926E+05  6.519596E+04  1.933098E+04
       134  10  9.266130E+04  4.791316E+04  3.447412E+04 -1.809100E+04  1.566468E-09  1.390494E-09
       134  11  1.044572E+05  6.501305E+04  2.883757E+04  1.069199E+04 -1.512305E-09  8.753449E-11
       134  12  1.065974E+05  4.249035E+04  1.005076E+04  4.398092E+04  6.882237E-10  3.596033E-10
       134  13 -1.599294E+05 -3.946042E+04 -1.635080E+04 -8.289802E+04 -4.487131E-09  1.242334E-09
       134  14 -1.576545E+05 -4.463905E+04 -3.057386E+04 -7.534290E+04  8.774401E-10  5.723926E-10
       134  15 -1.673096E+05 -9.171895E+04 -6.702008E+04 -6.328162E+04  1.337334E-09  1.699789E-09
       134  16 -4.124544E+05 -1.268301E+05 -6.717875E+04 -1.476814E+05 -5.637839E-09  9.452410E-10
       134  17 -4.196926E+05 -1.542785E+05 -8.998873E+04 -1.613414E+05 -4.682437E-09  1.023969E-09
       134  18 -4.411344E+05 -2.259034E+05 -1.440958E+05 -1.704936E+05 -2.197878E-09 -7.489421E-11
       134  19  9.266177E+04  4.791342E+04  3.447514E+04 -1.809119E+04 -2.008869E+04  1.186800E+04
       134  20  1.044578E+05  6.501327E+04  2.883876E+04  1.069184E+04 -2.388188E+04  7.924609E+03
       134  21  1.065980E+05  4.249053E+04  1.005194E+04  4.398100E+04 -2.463832E+04 -4.104886E+03
       134  22 -1.599291E+05 -3.946016E+04 -1.634992E+04 -8.289821E+04 -1.748591E+04  1.284575E+04
       134  23 -1.576534E+05 -4.463874E+04 -3.057181E+04 -7.534302E+04 -3.272299E+04  4.605924E+03
       134  24 -1.673074E+05 -9.171826E+04 -6.701603E+04 -6.328120E+04 -4.492225E+04 -1.172115E+04
       134  25 -4.124541E+05 -1.268299E+05 -6.717798E+04 -1.476815E+05 -1.488426E+04  1.382312E+04
       134  26 -4.196907E+05 -1.542780E+05 -8.998548E+04 -1.613414E+05 -4.155997E+04  1.289266E+03
       134  27 -4.411298E+05 -2.259018E+05 -1.440871E+05 -1.704926E+05 -6.519596E+04 -1.933098E+04
       135   1  7.803770E+05  1.235838E+05  1.100192E+05  1.342968E+04  3.233100E+04 -9.282006E+03
       135   2  7.476362E+05  1.373018E+05  9.198524E+04  2.517008E+04  1.329133E+04 -3.207971E+04
       135   3  7.138761E+05  1.369463E+05  8.283439E+04  4.166170E+04 -5.755663E+03 -4.063542E+04
       135   4  1.039230E+05 -4.277257E+04 -4.591160E+04  4.156258E+04 -3.230392E+04 -9.332382E+03
       135   5  1.071121E+05 -1.369207E+04 -2.293169E+04  3.916874E+04 -2.055270E+04 -3.211209E+04
       135   6  1.039342E+05 -4.037287E+03 -1.244210E+04  4.152593E+04 -8.810172E+03 -4.064220E+04
       135   7 -5.720974E+05 -2.091557E+05 -2.018567E+05  6.966454E+04 -9.686902E+04 -9.388641E+03
       135   8 -5.330097E+05 -1.647074E+05 -1.378600E+05  5.315247E+04 -5.436283E+04 -3.214602E+04
       135   9 -5.056370E+05 -1.450391E+05 -1.077274E+05  4.139019E+04 -1.186179E+04 -4.064898E+04
       135  10  7.803758E+05  1.235834E+05  1.100171E+05  1.342992E+04  2.725307E-08 -1.413233E-09
       135  11  7.476358E+05  1.373007E+05  9.198297E+04  2.517042E+04 -6.784859E-09 -6.162505E-09
       135  12  7.138757E+05  1.369445E+05  8.283123E+04  4.166151E+04 -4.186229E-08 -8.568716E-09
       135  13  1.039219E+05 -4.277294E+04 -4.591373E+04  4.156234E+04  5.686560E-11  1.516967E-09
       135  14  1.071113E+05 -1.369329E+04 -2.293442E+04  3.916820E+04 -9.553132E-10  4.208976E-09
       135  15  1.039336E+05 -4.039081E+03 -1.244535E+04  4.152564E+04 -5.159365E-10  9.958829E-09
       135  16 -5.721075E+05 -2.091583E+05 -2.018745E+05  6.966380E+04 -2.794885E-08 -1.164888E-09
       135  17 -5.330131E+05 -1.647093E+05 -1.378675E+05  5.315106E+04  7.762346E-09 -7.570738E-09
       135  18 -5.056376E+05 -1.450409E+05 -1.077308E+05  4.138981E+04  4.216987E-08 -1.051837E-08
       135  19  7.803770E+05  1.235838E+05  1.100192E+05  1.342968E+04 -3.233100E+04  9.282006E+03
       135  20  7.476362E+05  1.373018E+05  9.198524E+04  2.517008E+04 -1.329133E+04  3.207971E+04
       135  21  7.138761E+05  1.369463E+05  8.283439E+04  4.166170E+04  5.755663E+03  4.063542E+04
       135  22  1.039230E+05 -4.277257E+04 -4.591160E+04  4.156258E+04  3.230392E+04  9.332382E+03
       135  23  1.071121E+05 -1.369207E+04 -2.293169E+04  3.916874E+04  2.055270E+04  3.211209E+04
       135  24  1.039342E+05 -4.037287E+03 -1.244210E+04  4.152593E+04  8.810172E+03  4.064220E+04
       135  25 -5.720974E+05 -2.091557E+05 -2.018567E+05  6.966454E+04  9.686902E+04  9.388641E+03
       135  26 -5.330097E+05 -1.647074E+05 -1.378600E+05  5.315247E+04  5.436283E+04  3.214602E+04
       135  27 -5.056370E+05 -1.450391E+05 -1.077274E+05  4.139019E+04  1.186179E+04  4.064898E+04
       136   1  6.935282E+05  1.323805E+05  8.017968E+04  4.051438E+04 -4.364685E+03 -4.089804E+04
       136   2  6.604533E+05  1.261878E+05  7.545675E+04  3.857757E+04 -5.563678E+03 -4.134723E+04
       136   3  6.273057E+05  1.190552E+05  7.128203E+04  4.241606E+04 -6.764816E+03 -4.006701E+04
       136   4  1.051931E+05 -3.127916E+03 -9.327545E+03  4.175578E+04 -7.197380E+03 -4.090470E+04
       136   5  1.055602E+05 -8.431420E+02 -5.067532E+03  3.886622E+04 -4.659215E+03 -4.134990E+04
       136   6  1.052051E+05 -1.472409E+02 -2.853811E+03  4.175229E+04 -2.123192E+03 -4.006489E+04
       136   7 -4.827955E+05 -1.386529E+05 -9.884205E+04  4.299586E+04 -1.002750E+04 -4.091137E+04
       136   8 -4.490227E+05 -1.278882E+05 -8.559686E+04  3.915450E+04 -3.755524E+03 -4.135258E+04
       136   9 -4.166199E+05 -1.193620E+05 -7.699345E+04  4.108902E+04  2.514702E+03 -4.006278E+04
       136  10  6.935277E+05  1.323787E+05  8.017650E+04  4.051424E+04  3.301768E-08 -8.546245E-09
       136  11  6.604528E+05  1.261860E+05  7.545348E+04  3.857739E+04  4.117401E-10 -2.441035E-09
       136  12  6.273052E+05  1.190535E+05  7.127893E+04  4.241584E+04 -2.624386E-08  1.651308E-09
       136  13  1.051926E+05 -3.129727E+03 -9.330787E+03  4.175554E+04  2.158497E-09  9.455904E-09
       136  14  1.055597E+05 -8.449840E+02 -5.070786E+03  3.886606E+04  2.300935E-09  7.356139E-09
       136  15  1.052046E+05 -1.489659E+02 -2.856836E+03  4.175222E+04  7.057681E-10  1.166903E-09
       136  16 -4.827960E+05 -1.386547E+05 -9.884538E+04  4.299553E+04 -2.960042E-08 -6.865381E-09
       136  17 -4.490231E+05 -1.278901E+05 -8.560010E+04  3.915437E+04 -3.270742E-09 -1.296455E-09
       136  18 -4.166204E+05 -1.193637E+05 -7.699648E+04  4.108910E+04  2.663830E-08 -1.705691E-11
       136  19  6.935282E+05  1.323805E+05  8.017968E+04  4.051438E+04  4.364685E+03  4.089804E+04
       136  20  6.604533E+05  1.261878E+05  7.545675E+04  3.857757E+04  5.563678E+03  4.134723E+04
       136  21  6.273057E+05  1.190552E+05  7.128203E+04  4.241606E+04  6.764816E+03  4.006701E+04
       136  22  1.051931E+05 -3.127916E+03 -9.327545E+03  4.175578E+04  7.197380E+03  4.090470E+04
       136  23  1.055602E+05 -8.431420E+02 -5.067532E+03  3.886622E+04  4.659215E+03  4.134990E+04
       136  24  1.052051E+05 -1.472409E+02 -2.853811E+03  4.175229E+04  2.123192E+03  4.006489E+04
       136  25 -4.827955E+05 -1.386529E+05 -9.884205E+04  4.299586E+04  1.002750E+04  4.091137E+04
       136  26 -4.490227E+05 -1.278882E+05 -8.559686E+04  3.915450E+04  3.755524E+03  4.135258E+04
       136  27 -4.166199E+05 -1.193620E+05 -7.699345E+04  4.108902E+04 -2.514702E+03  4.006278E+04
       137   1  6.066607E+05  1.142859E+05  6.863990E+04  4.228172E+04 -6.365141E+03 -3.874942E+04
       137   2  5.735955E+05  1.067964E+05  6.449018E+04  3.934369E+04 -6.217439E+03 -3.648568E+04
       137   3  5.405013E+05  9.927828E+04  6.023646E+04  4.230040E+04 -6.070659E+03 -3.401228E+04
       137   4  1.053454E+05 -9.411168E+01 -2.155858E+03  4.177909E+04 -1.697512E+03 -3.874684E+04
       137   5  1.054050E+05  5.489067E+01 -1.213840E+03  3.883146E+04 -1.097106E+03 -3.648184E+04
       137   6  1.053558E+05  9.662894E+01 -6.903287E+02  4.177883E+04 -4.976148E+02 -3.400710E+04
       137   7 -3.957157E+05 -1.144854E+05 -7.295498E+04  4.127680E+04  2.966516E+03 -3.874427E+04
       137   8 -3.625635E+05 -1.066964E+05 -6.692063E+04  3.831956E+04  4.019538E+03 -3.647801E+04
       137   9 -3.295977E+05 -9.909344E+04 -6.161943E+04  4.125758E+04  5.071697E+03 -3.400192E+04
       137  10  6.066603E+05  1.142843E+05  6.863700E+04  4.228152E+04 -6.885707E-09  3.546474E-09
       137  11  5.735951E+05  1.067950E+05  6.448761E+04  3.934351E+04 -1.309597E-09  2.967441E-09
       137  12  5.405009E+05  9.927703E+04  6.023422E+04  4.230023E+04 -3.063569E-09  6.222262E-10
       137  13  1.053450E+05 -9.572468E+01 -2.158685E+03  4.177904E+04 -4.405547E-09 -5.807301E-10
       137  14  1.054046E+05  5.346109E+01 -1.216343E+03  3.883143E+04 -1.995492E-09  2.382845E-09
       137  15  1.053555E+05  9.538695E+01 -6.925026E+02  4.177882E+04  2.410668E-09  2.987738E-09
       137  16 -3.957161E+05 -1.144871E+05 -7.295781E+04  4.127689E+04  6.819442E-09  9.921910E-10
       137  17 -3.625639E+05 -1.066979E+05 -6.692316E+04  3.831968E+04  1.559301E-09  2.038446E-09
       137  18 -3.295981E+05 -9.909469E+04 -6.162166E+04  4.125772E+04  1.703051E-09  1.371102E-10
       137  19  6.066607E+05  1.142859E+05  6.863990E+04  4.228172E+04  6.365141E+03  3.874942E+04
       137  20  5.735955E+05  1.067964E+05  6.449018E+04  3.934369E+04  6.217439E+03  3.648568E+04
       137  21  5.405013E+05  9.927828E+04  6.023646E+04  4.230040E+04  6.070659E+03  3.401228E+04
       137  22  1.053454E+05 -9.411168E+01 -2.155858E+03  4.177909E+04  1.697512E+03  3.874684E+04
       137  23  1.054050E+05  5.489067E+01 -1.213840E+03  3.883146E+04  1.097106E+03  3.648184E+04
       137  24  1.053558E+05  9.662894E+01 -6.903287E+02  4.177883E+04  4.976148E+02  3.400710E+04
       137  25 -3.957157E+05 -1.144854E+05 -7.295498E+04  4.127680E+04 -2.966516E+03  3.874427E+04
       137  26 -3.625635E+05 -1.066964E+05 -6.692063E+04  3.831956E+04 -4.019538E+03  3.647801E+04
       137  27 -3.295977E+05 -9.909344E+04 -6.161943E+04  4.125758E+04 -5.071697E+03  3.400192E+04
       138   1  5.198472E+05  9.453863E+04  5.736196E+04  4.226874E+04 -5.966438E+03 -3.250354E+04
       138   2  4.867925E+05  8.700513E+04  5.297359E+04  3.928213E+04 -5.879226E+03 -2.991147E+04
       138   3  4.537221E+05  7.949194E+04  4.853046E+04  4.220148E+04 -5.792623E+03 -2.729426E+04
       138   4  1.053774E+05  9.829675E+01 -5.209290E+02  4.178135E+04 -3.908891E+02 -3.249795E+04
       138   5  1.053950E+05  9.885226E+01 -2.915103E+02  3.882826E+04 -2.496104E+02 -2.990517E+04
       138   6  1.053859E+05  1.102089E+02 -1.546807E+02  4.178134E+04 -1.089383E+02 -2.728724E+04
       138   7 -3.089184E+05 -9.434966E+04 -5.840587E+04  4.129423E+04  5.181105E+03 -3.249236E+04
       138   8 -2.758550E+05 -8.681388E+04 -5.355833E+04  3.837462E+04  5.376701E+03 -2.989887E+04
       138   9 -2.428272E+05 -7.927690E+04 -4.884123E+04  4.136139E+04  5.571700E+03 -2.728023E+04
       138  10  5.198469E+05  9.453749E+04  5.735991E+04  4.226859E+04 -2.819750E-08  9.952776E-10
       138  11  4.867922E+05  8.700416E+04  5.297185E+04  3.928199E+04 -3.093989E-08  7.889318E-09
       138  12  4.537219E+05  7.949113E+04  4.852899E+04  4.220135E+04 -2.773501E-08  1.091357E-08
       138  13  1.053771E+05  9.716256E+01 -5.229140E+02  4.178134E+04  4.298351E-09 -3.458948E-09
       138  14  1.053948E+05  9.789185E+01 -2.931911E+02  3.882826E+04  2.412966E-10 -1.190052E-08
       138  15  1.053857E+05  1.094093E+02 -1.560801E+02  4.178133E+04 -1.162010E-09 -2.615011E-08
       138  16 -3.089187E+05 -9.435080E+04 -5.840790E+04  4.129436E+04  2.951929E-08  4.740138E-10
       138  17 -2.758553E+05 -8.681484E+04 -5.356006E+04  3.837475E+04  3.009188E-08  4.478534E-09
       138  18 -2.428274E+05 -7.927770E+04 -4.884269E+04  4.136151E+04  2.634003E-08  8.304925E-09
       138  19  5.198472E+05  9.453863E+04  5.736196E+04  4.226874E+04  5.966438E+03  3.250354E+04
       138  20  4.867925E+05  8.700513E+04  5.297359E+04  3.928213E+04  5.879226E+03  2.991147E+04
       138  21  4.537221E+05  7.949194E+04  4.853046E+04  4.220148E+04  5.792623E+03  2.729426E+04
       138  22  1.053774E+05  9.829675E+01 -5.209290E+02  4.178135E+04  3.908891E+02  3.249795E+04
       138  23  1.053950E+05  9.885226E+01 -2.915103E+02  3.882826E+04  2.496104E+02  2.990517E+04
       138  24  1.053859E+05  1.102089E+02 -1.546807E+02  4.178134E+04  1.089383E+02  2.728724E+04
       138  25 -3.089184E+05 -9.434966E+04 -5.840587E+04  4.129423E+04 -5.181105E+03  3.249236E+04
       138  26 -2.758550E+05 -8.681388E+04 -5.355833E+04  3.837462E+04 -5.376701E+03  2.989887E+04
       138  27 -2.428272E+05 -7.927690E+04 -4.884123E+04  4.136139E+04 -5.571700E+03  2.728023E+04
       139   1  4.330726E+05  7.476336E+04  4.557050E+04  4.218117E+04 -5.770519E+03 -2.576282E+04
       139   2  4.000293E+05  6.723810E+04  4.108453E+04  3.919405E+04 -5.762414E+03 -2.313183E+04
       139   3  3.669740E+05  5.973394E+04  3.659336E+04  4.211548E+04 -5.754756E+03 -2.049837E+04
       139   4  1.053915E+05  1.119184E+02 -1.073716E+02  4.178190E+04 -8.707405E+01 -2.575547E+04
       139   5  1.054016E+05  1.058965E+02 -3.420695E+01  3.882755E+04 -7.372615E+01 -2.312398E+04
       139   6  1.053982E+05  1.202209E+02  3.018516E+01  4.178190E+04 -6.082499E+01 -2.049002E+04
       139   7 -2.221807E+05 -7.454427E+04 -4.578646E+04  4.138282E+04  5.593506E+03 -2.574813E+04
       139   8 -1.891381E+05 -6.703015E+04 -4.115391E+04  3.846120E+04  5.612383E+03 -2.311614E+04
       139   9 -1.561082E+05 -5.949652E+04 -3.653374E+04  4.144844E+04  5.630814E+03 -2.048167E+04
       139  10  4.330724E+05  7.476264E+04  4.556919E+04  4.218105E+04  3.578706E-08  8.592517E-09
       139  11  4.000291E+05  6.723752E+04  4.108346E+04  3.919395E+04  7.109783E-08  1.096055E-09
       139  12  3.669738E+05  5.973348E+04  3.659251E+04  4.211538E+04  9.101259E-08 -4.516674E-09
       139  13  1.053913E+05  1.112061E+02 -1.086182E+02  4.178190E+04  2.539978E-11 -2.067475E-08
       139  14  1.054014E+05  1.053223E+02 -3.521185E+01  3.882755E+04  2.389314E-09 -7.426062E-09
       139  15  1.053980E+05  1.197701E+02  2.939615E+01  4.178190E+04 -2.966720E-09  8.951528E-09
       139  16 -2.221809E+05 -7.454499E+04 -4.578776E+04  4.138293E+04 -3.617322E-08  9.795022E-09
       139  17 -1.891382E+05 -6.703073E+04 -4.115497E+04  3.846131E+04 -7.259978E-08  7.983377E-10
       139  18 -1.561084E+05 -5.949698E+04 -3.653458E+04  4.144853E+04 -9.227627E-08 -5.084100E-09
       139  19  4.330726E+05  7.476336E+04  4.557050E+04  4.218117E+04  5.770519E+03  2.576282E+04
       139  20  4.000293E+05  6.723810E+04  4.108453E+04  3.919405E+04  5.762414E+03  2.313183E+04
       139  21  3.669740E+05  5.973394E+04  3.659336E+04  4.211548E+04  5.754756E+03  2.049837E+04
       139  22  1.053915E+05  1.119184E+02 -1.073716E+02  4.178190E+04  8.707405E+01  2.575547E+04
       139  23  1.054016E+05  1.058965E+02 -3.420695E+01  3.882755E+04  7.372615E+01  2.312398E+04
       139  24  1.053982E+05  1.202209E+02  3.018516E+01  4.178190E+04  6.082499E+01  2.049002E+04
       139  25 -2.221807E+05 -7.454427E+04 -4.578646E+04  4.138282E+04 -5.593506E+03  2.574813E+04
       139  26 -1.891381E+05 -6.703015E+04 -4.115391E+04  3.846120E+04 -5.612383E+03  2.311614E+04
       139  27 -1.561082E+05 -5.949652E+04 -3.653374E+04  4.144844E+04 -5.630814E+03  2.048167E+04
       140   1  3.463331E+05  5.500808E+04  3.362475E+04  4.209538E+04 -5.764822E+03 -1.896482E+04
       140   2  3.132942E+05  4.748892E+04  2.915730E+04  3.910161E+04 -5.837825E+03 -1.633152E+04
       140   3  2.802540E+05  4.000609E+04  2.474002E+04  4.201390E+04 -5.911133E+03 -1.370076E+04
       140   4  1.054028E+05  1.221864E+02  6.399815E+01  4.178134E+04 -7.136744E+01 -1.895622E+04
       140   5  1.054059E+05  1.196416E+02  1.503542E+02  3.882824E+04 -1.499871E+02 -1.632258E+04
       140   6  1.054074E+05  1.544373E+02  2.906956E+02  4.178130E+04 -2.289156E+02 -1.369149E+04
       140   7 -1.354687E+05 -5.476626E+04 -3.349735E+04  4.146741E+04  5.619977E+03 -1.894763E+04
       140   8 -1.024386E+05 -4.725153E+04 -2.885701E+04  3.855494E+04  5.536031E+03 -1.631365E+04
       140   9 -6.940805E+04 -3.969856E+04 -2.415889E+04  4.154876E+04  5.451773E+03 -1.368222E+04
       140  10  3.463330E+05  5.500768E+04  3.362401E+04  4.209529E+04 -1.771409E-07 -4.347892E-09
       140  11  3.132941E+05  4.748862E+04  2.915674E+04  3.910153E+04 -5.377070E-08 -5.097017E-09
       140  12  2.802539E+05  4.000588E+04  2.473960E+04  4.201383E+04  7.496953E-08 -9.003344E-10
       140  13  1.054027E+05  1.218005E+02  6.332284E+01  4.178134E+04  2.614721E-11  1.215552E-08
       140  14  1.054058E+05  1.193554E+02  1.498535E+02  3.882823E+04 -3.080808E-09  3.783736E-09
       140  15  1.054074E+05  1.542360E+02  2.903432E+02  4.178130E+04  4.257370E-10 -1.881094E-10
       140  16 -1.354688E+05 -5.476666E+04 -3.349808E+04  4.146749E+04  1.763893E-07 -3.830542E-09
       140  17 -1.024387E+05 -4.725183E+04 -2.885757E+04  3.855501E+04  5.479944E-08 -1.113556E-08
       140  18 -6.940813E+04 -3.969877E+04 -2.415930E+04  4.154882E+04 -7.485516E-08 -4.951845E-09
       140  19  3.463331E+05  5.500808E+04  3.362475E+04  4.209538E+04  5.764822E+03  1.896482E+04
       140  20  3.132942E+05  4.748892E+04  2.915730E+04  3.910161E+04  5.837825E+03  1.633152E+04
       140  21  2.802540E+05  4.000609E+04  2.474002E+04  4.201390E+04  5.911133E+03  1.370076E+04
       140  22  1.054028E+05  1.221864E+02  6.399815E+01  4.178134E+04  7.136744E+01  1.895622E+04
       140  23  1.054059E+05  1.196416E+02  1.503542E+02  3.882824E+04  1.499871E+02  1.632258E+04
       140  24  1.054074E+05  1.544373E+02  2.906956E+02  4.178130E+04  2.289156E+02  1.369149E+04
       140  25 -1.354687E+05 -5.476626E+04 -3.349735E+04  4.146741E+04 -5.619977E+03  1.894763E+04
       140  26 -1.024386E+05 -4.725153E+04 -2.885701E+04  3.855494E+04 -5.536031E+03  1.631365E+04
       140  27 -6.940805E+04 -3.969856E+04 -2.415889E+04  4.154876E+04 -5.451773E+03  1.368222E+04
       141   1  2.596338E+05  3.528678E+04  2.183505E+04  4.200987E+04 -5.970874E+03 -1.216966E+04
       141   2  2.265633E+05  2.785467E+04  1.757431E+04  3.888375E+04 -6.278498E+03 -9.551962E+03
       141   3  1.935698E+05  2.065901E+04  1.356572E+04  4.166047E+04 -6.586248E+03 -6.956717E+03
       141   4  1.054277E+05  1.628555E+02  3.908195E+02  4.178064E+04 -2.893277E+02 -1.216023E+04
       141   5  1.053872E+05  2.500822E+02  7.032904E+02  3.882884E+04 -6.456063E+02 -9.542410E+03
       141   6  1.054304E+05  5.821101E+02  1.301474E+03  4.177993E+04 -1.002025E+03 -6.947052E+03
       141   7 -4.875425E+04 -3.496210E+04 -2.105358E+04  4.155145E+04  5.390870E+03 -1.215080E+04
       141   8 -1.577408E+04 -2.735514E+04 -1.616779E+04  3.877393E+04  4.986235E+03 -9.532859E+03
       141   9  1.729882E+04 -1.949511E+04 -1.096275E+04  4.189937E+04  4.581441E+03 -6.937384E+03
       141  10  2.596337E+05  3.528661E+04  2.183471E+04  4.200981E+04  5.381054E-08  2.192156E-09
       141  11  2.265633E+05  2.785456E+04  1.757406E+04  3.888370E+04  6.193309E-08 -2.009617E-09
       141  12  1.935698E+05  2.065894E+04  1.356555E+04  4.166043E+04  6.448157E-08 -1.390547E-09
       141  13  1.054276E+05  1.626967E+02  3.905414E+02  4.178063E+04 -3.048593E-11  2.950681E-09
       141  14  1.053871E+05  2.499843E+02  7.031185E+02  3.882883E+04 -8.452926E-10  9.754930E-09
       141  15  1.054303E+05  5.820580E+02  1.301381E+03  4.177993E+04  3.749610E-09  1.468368E-08
       141  16 -4.875432E+04 -3.496227E+04 -2.105391E+04  4.155151E+04 -5.565332E-08 -1.038401E-09
       141  17 -1.577413E+04 -2.735524E+04 -1.616801E+04  3.877397E+04 -6.242810E-08  2.219086E-10
       141  18  1.729878E+04 -1.949517E+04 -1.096288E+04  4.189940E+04 -6.091125E-08 -5.979165E-09
       141  19  2.596338E+05  3.528678E+04  2.183505E+04  4.200987E+04  5.970874E+03  1.216966E+04
       141  20  2.265633E+05  2.785467E+04  1.757431E+04  3.888375E+04  6.278498E+03  9.551962E+03
       141  21  1.935698E+05  2.065901E+04  1.356572E+04  4.166047E+04  6.586248E+03  6.956717E+03
       141  22  1.054277E+05  1.628555E+02  3.908195E+02  4.178064E+04  2.893277E+02  1.216023E+04
       141  23  1.053872E+05  2.500822E+02  7.032904E+02  3.882884E+04  6.456063E+02  9.542410E+03
       141  24  1.054304E+05  5.821101E+02  1.301474E+03  4.177993E+04  1.002025E+03  6.947052E+03
       141  25 -4.875425E+04 -3.496210E+04 -2.105358E+04  4.155145E+04 -5.390870E+03  1.215080E+04
       141  26 -1.577408E+04 -2.735514E+04 -1.616779E+04  3.877393E+04 -4.986235E+03  9.532859E+03
       141  27  1.729882E+04 -1.949511E+04 -1.096275E+04  4.189937E+04 -4.581441E+03  6.937384E+03
       142   1  1.730981E+05  1.605100E+04  1.096561E+04  4.182382E+04 -6.810757E+03 -5.446436E+03
       142   2  1.396728E+05  9.836951E+03  7.688228E+03  3.685741E+04 -8.055136E+03 -2.957496E+03
       142   3  1.070532E+05  6.295303E+03  5.881269E+03  3.777789E+04 -9.299225E+03 -6.529765E+02
       142   4  1.056066E+05  7.093143E+02  1.737648E+03  4.177710E+04 -1.229654E+03 -5.436699E+03
       142   5  1.051698E+05  2.048949E+03  3.204408E+03  3.882902E+04 -2.872519E+03 -2.948427E+03
       142   6  1.056071E+05  6.130347E+03  6.418334E+03  4.176777E+04 -4.515154E+03 -6.445901E+02
       142   7  3.811981E+04 -1.463255E+04 -7.490249E+03  4.173038E+04  4.350869E+03 -5.426962E+03
       142   8  7.066806E+04 -5.739072E+03 -1.279316E+03  4.080052E+04  2.309824E+03 -2.939325E+03
       142   9  1.041612E+05  5.965463E+03  6.955494E+03  4.575764E+04  2.689088E+02 -6.361422E+02
       142  10  1.730981E+05  1.605096E+04  1.096547E+04  4.182379E+04 -6.360292E-08 -3.073727E-09
       142  11  1.396727E+05  9.836924E+03  7.688090E+03  3.685739E+04 -3.393818E-08 -4.198215E-09
       142  12  1.070531E+05  6.295280E+03  5.881106E+03  3.777789E+04 -1.965483E-10 -1.380997E-09
       142  13  1.056066E+05  7.092822E+02  1.737590E+03  4.177709E+04  2.276303E-09  1.747659E-08
       142  14  1.051698E+05  2.048938E+03  3.204376E+03  3.882902E+04  1.245848E-09  2.084753E-09
       142  15  1.056071E+05  6.130341E+03  6.418294E+03  4.176777E+04 -5.544153E-10  4.253302E-09
       142  16  3.811978E+04 -1.463259E+04 -7.490340E+03  4.173040E+04  6.407713E-08 -2.174554E-09
       142  17  7.066806E+04 -5.739083E+03 -1.279342E+03  4.080052E+04  3.133871E-08 -1.559903E-09
       142  18  1.041612E+05  5.965462E+03  6.955493E+03  4.575764E+04  5.946214E-10 -1.225865E-09
       142  19  1.730981E+05  1.605100E+04  1.096561E+04  4.182382E+04  6.810757E+03  5.446436E+03
       142  20  1.396728E+05  9.836951E+03  7.688228E+03  3.685741E+04  8.055136E+03  2.957496E+03
       142  21  1.070532E+05  6.295303E+03  5.881269E+03  3.777789E+04  9.299225E+03  6.529765E+02
       142  22  1.056066E+05  7.093143E+02  1.737648E+03  4.177710E+04  1.229654E+03  5.436699E+03
       142  23  1.051698E+05  2.048949E+03  3.204408E+03  3.882902E+04  2.872519E+03  2.948427E+03
       142  24  1.056071E+05  6.130347E+03  6.418334E+03  4.176777E+04  4.515154E+03  6.445901E+02
       142  25  3.811981E+04 -1.463255E+04 -7.490249E+03  4.173038E+04 -4.350869E+03  5.426962E+03
       142  26  7.066806E+04 -5.739072E+03 -1.279316E+03  4.080052E+04 -2.309824E+03  2.939325E+03
       142  27  1.041612E+05  5.965463E+03  6.955494E+03  4.575764E+04 -2.689088E+02  6.361422E+02
       143   1  1.040375E+04  3.713523E+05  1.147549E+04 -3.051098E+04 -2.030282E+02  2.475064E+03
       143   2 -1.579715E+03  3.419460E+05  2.631578E+03 -2.483974E+04 -1.288618E+03 -6.568839E+02
       143   3 -9.384573E+03  3.139797E+05 -3.132679E+03 -2.637116E+04 -2.988614E+03 -3.789137E+03
       143   4  6.097011E+03  3.543045E+05  7.015930E+03 -2.674726E+04 -2.038885E+02  3.656001E+03
       143   5  1.092140E+03  3.536656E+05  4.290758E+03 -2.314810E+04 -1.290169E+03  1.453406E+03
       143   6  1.047303E+02  3.543052E+05  4.000304E+03 -2.675153E+04 -2.990832E+03 -7.496155E+02
       143   7  1.790303E+03  3.372570E+05  2.556357E+03 -2.298364E+04 -2.047344E+02  4.836905E+03
       143   8  3.764003E+03  3.653854E+05  5.949955E+03 -2.145643E+04 -1.291709E+03  3.563735E+03
       143   9  9.593950E+03  3.946323E+05  1.113326E+04 -2.713192E+04 -2.993053E+03  2.290098E+03
       143  10  1.040375E+04  3.713523E+05  1.147548E+04 -3.051098E+04 -8.547814E-10  1.254529E-09
       143  11 -1.579717E+03  3.419460E+05  2.631574E+03 -2.483974E+04  2.612354E-09 -3.009918E-09
       143  12 -9.384587E+03  3.139796E+05 -3.132723E+03 -2.637117E+04 -8.090951E-10 -3.490450E-09
       143  13  6.097007E+03  3.543045E+05  7.015905E+03 -2.674726E+04  4.758510E-09 -7.227370E-10
       143  14  1.092138E+03  3.536656E+05  4.290751E+03 -2.314810E+04 -9.547300E-10 -6.976130E-10
       143  15  1.047206E+02  3.543052E+05  4.000287E+03 -2.675153E+04  1.655874E-09 -6.331084E-11
       143  16  1.790297E+03  3.372570E+05  2.556313E+03 -2.298364E+04 -1.938651E-09 -5.021069E-10
       143  17  3.763997E+03  3.653854E+05  5.949928E+03 -2.145642E+04 -4.602761E-09  6.060777E-10
       143  18  9.593939E+03  3.946323E+05  1.113324E+04 -2.713192E+04 -2.319680E-10  3.944531E-09
       143  19  1.040375E+04  3.713523E+05  1.147549E+04 -3.051098E+04  2.030282E+02 -2.475064E+03
       143  20 -1.579715E+03  3.419460E+05  2.631578E+03 -2.483974E+04  1.288618E+03  6.568839E+02
       143  21 -9.384573E+03  3.139797E+05 -3.132679E+03 -2.637116E+04  2.988614E+03  3.789137E+03
       143  22  6.097011E+03  3.543045E+05  7.015930E+03 -2.674726E+04  2.038885E+02 -3.656001E+03
       143  23  1.092140E+03  3.536656E+05  4.290758E+03 -2.314810E+04  1.290169E+03 -1.453406E+03
       143  24  1.047303E+02  3.543052E+05  4.000304E+03 -2.675153E+04  2.990832E+03  7.496155E+02
       143  25  1.790303E+03  3.372570E+05  2.556357E+03 -2.298364E+04  2.047344E+02 -4.836905E+03
       143  26  3.764003E+03  3.653854E+05  5.949955E+03 -2.145643E+04  1.291709E+03 -3.563735E+03
       143  27  9.593950E+03  3.946323E+05  1.113326E+04 -2.713192E+04  2.993053E+03 -2.290098E+03
       144   1 -1.383027E+04  2.946495E+05 -6.376851E+03 -2.715710E+04 -4.189353E+03 -4.439447E+03
       144   2 -2.062129E+04  2.656138E+05 -9.961864E+03 -2.299100E+04 -6.006503E+03 -7.021778E+03
       144   3 -2.600230E+04  2.372566E+05 -1.151663E+04 -2.604825E+04 -7.498182E+03 -9.603664E+03
       144   4  2.232736E+02  3.541901E+05  4.375560E+03 -2.675564E+04 -4.191510E+03 -1.442179E+03
       144   5  2.361759E+02  3.538075E+05  6.161242E+03 -2.314345E+04 -6.008205E+03 -4.517229E+03
       144   6  1.744480E+03  3.541878E+05  1.031893E+04 -2.675453E+04 -7.499449E+03 -7.591949E+03
       144   7  1.427662E+04  4.137342E+05  1.512786E+04 -2.635414E+04 -4.193662E+03  1.555368E+03
       144   8  2.109320E+04  4.420087E+05  2.228406E+04 -2.329593E+04 -6.009908E+03 -2.012335E+03
       144   9  2.949048E+04  4.711322E+05  3.215392E+04 -2.746095E+04 -7.500721E+03 -5.579865E+03
       144  10 -1.383029E+04  2.946495E+05 -6.376921E+03 -2.715711E+04 -1.649697E-09  7.924076E-10
       144  11 -2.062134E+04  2.656138E+05 -9.962025E+03 -2.299103E+04  2.143871E-09 -2.322847E-09
       144  12 -2.600238E+04  2.372565E+05 -1.151691E+04 -2.604831E+04 -4.489021E-10 -1.814010E-09
       144  13  2.232542E+02  3.541901E+05  4.375523E+03 -2.675564E+04  6.380568E-10 -8.067491E-10
       144  14  2.361316E+02  3.538075E+05  6.161136E+03 -2.314348E+04  3.666146E-09 -6.008795E-10
       144  15  1.744405E+03  3.541877E+05  1.031872E+04 -2.675458E+04  1.202147E-09 -8.780790E-11
       144  16  1.427660E+04  4.137342E+05  1.512783E+04 -2.635413E+04 -9.318106E-10 -3.825469E-11
       144  17  2.109316E+04  4.420087E+05  2.228398E+04 -2.329594E+04 -1.147925E-09  1.585583E-10
       144  18  2.949041E+04  4.711322E+05  3.215376E+04 -2.746099E+04  1.093699E-09  2.194908E-09
       144  19 -1.383027E+04  2.946495E+05 -6.376851E+03 -2.715710E+04  4.189353E+03  4.439447E+03
       144  20 -2.062129E+04  2.656138E+05 -9.961864E+03 -2.299100E+04  6.006503E+03  7.021778E+03
       144  21 -2.600230E+04  2.372566E+05 -1.151663E+04 -2.604825E+04  7.498182E+03  9.603664E+03
       144  22  2.232736E+02  3.541901E+05  4.375560E+03 -2.675564E+04  4.191510E+03  1.442179E+03
       144  23  2.361759E+02  3.538075E+05  6.161242E+03 -2.314345E+04  6.008205E+03  4.517229E+03
       144  24  1.744480E+03  3.541878E+05  1.031893E+04 -2.675453E+04  7.499449E+03  7.591949E+03
       144  25  1.427662E+04  4.137342E+05  1.512786E+04 -2.635414E+04  4.193662E+03 -1.555368E+03
       144  26  2.109320E+04  4.420087E+05  2.228406E+04 -2.329593E+04  6.009908E+03  2.012335E+03
       144  27  2.949048E+04  4.711322E+05  3.215392E+04 -2.746095E+04  7.500721E+03  5.579865E+03
       145   1 -3.197076E+04  2.195982E+05 -1.234890E+04 -3.012853E+04 -8.612199E+03 -1.213343E+04
       145   2 -3.179491E+04  1.871822E+05 -9.722613E+03 -1.186647E+04 -8.004044E+03 -1.691485E+04
       145   3 -4.719738E+03  1.621086E+05  2.740184E+03 -5.290461E+02 -2.505789E+03 -2.169308E+04
       145   4  3.992959E+02  3.559341E+05  1.323686E+04 -2.669249E+04 -8.613997E+03 -9.352690E+03
       145   5  7.741597E+03  3.516178E+05  2.348795E+04 -2.321683E+04 -8.000599E+03 -2.153233E+04
       145   6  4.326227E+04  3.559237E+05  4.870920E+04 -2.666504E+04 -2.497464E+03 -3.370905E+04
       145   7  3.276832E+04  4.922879E+05  3.882185E+04 -2.325567E+04 -8.615764E+03 -6.571351E+03
       145   8  4.727692E+04  5.160795E+05  5.669727E+04 -3.457024E+04 -7.996986E+03 -2.615101E+04
       145   9  9.124422E+04  5.497750E+05  9.467651E+04 -5.280923E+04 -2.488129E+03 -4.572875E+04
       145  10 -3.197088E+04  2.195980E+05 -1.234932E+04 -3.012861E+04 -1.656086E-09 -2.330028E-08
       145  11 -3.179506E+04  1.871819E+05 -9.723271E+03 -1.186658E+04  3.497063E-09 -3.204754E-09
       145  12 -4.719871E+03  1.621081E+05  2.739288E+03 -5.290898E+02 -1.418505E-09  2.075369E-08
       145  13  3.991927E+02  3.559339E+05  1.323655E+04 -2.669255E+04  2.051730E-09 -7.220383E-10
       145  14  7.741404E+03  3.516173E+05  2.348696E+04 -2.321697E+04  4.613526E-09 -5.876574E-10
       145  15  4.326196E+04  3.559225E+05  4.870706E+04 -2.666511E+04 -1.310137E-09 -1.788489E-10
       145  16  3.276823E+04  4.922879E+05  3.882163E+04 -2.325572E+04  2.117988E-09  2.411825E-08
       145  17  4.727667E+04  5.160787E+05  5.669586E+04 -3.457041E+04  5.178552E-09  1.191008E-09
       145  18  9.124365E+04  5.497727E+05  9.467257E+04 -5.280932E+04  1.393850E-09 -2.041007E-08
       145  19 -3.197076E+04  2.195982E+05 -1.234890E+04 -3.012853E+04  8.612199E+03  1.213343E+04
       145  20 -3.179491E+04  1.871822E+05 -9.722613E+03 -1.186647E+04  8.004044E+03  1.691485E+04
       145  21 -4.719738E+03  1.621086E+05  2.740184E+03 -5.290461E+02  2.505789E+03  2.169308E+04
       145  22  3.992959E+02  3.559341E+05  1.323686E+04 -2.669249E+04  8.613997E+03  9.352690E+03
       145  23  7.741597E+03  3.516178E+05  2.348795E+04 -2.321683E+04  8.000599E+03  2.153233E+04
       145  24  4.326227E+04  3.559237E+05  4.870920E+04 -2.666504E+04  2.497464E+03  3.370905E+04
       145  25  3.276832E+04  4.922879E+05  3.882185E+04 -2.325567E+04  8.615764E+03  6.571351E+03
       145  26  4.727692E+04  5.160795E+05  5.669727E+04 -3.457024E+04  7.996986E+03  2.615101E+04
       145  27  9.124422E+04  5.497750E+05  9.467651E+04 -5.280923E+04  2.488129E+03  4.572875E+04
       146   1  8.513717E+05  3.057287E+05  1.543165E+05  3.159519E+05  6.019667E+04  1.253195E+04
       146   2  8.055225E+05  2.807634E+05  1.100188E+05  3.021600E+05  3.900925E+04 -1.950815E+04
       146   3  7.599416E+05  2.662943E+05  8.861573E+04  2.945835E+05  1.240788E+04 -3.712723E+04
       146   4  2.359846E+05  7.634427E+04 -1.637874E+03  1.482434E+05  2.249833E+03 -9.253667E+03
       146   5  2.388708E+05  7.462692E+04 -7.819072E+02  1.449117E+05  1.059149E+04 -3.019741E+04
       146   6  2.361811E+05  7.756421E+04 -4.035808E+02  1.477950E+05  1.351296E+04 -3.671530E+04
       146   7 -3.789988E+05 -1.530033E+05 -1.576008E+05 -1.930604E+04 -5.563169E+04 -3.101493E+04
       146   8 -3.274335E+05 -1.314756E+05 -1.115900E+05 -1.220003E+04 -1.779783E+04 -4.087603E+04
       146   9 -2.872867E+05 -1.111380E+05 -8.942994E+04  1.122526E+03  1.461705E+04 -3.630374E+04
       146  10  8.513678E+05  3.057276E+05  1.543094E+05  3.159513E+05 -2.167433E-10  2.351443E-10
       146  11  8.055208E+05  2.807625E+05  1.100153E+05  3.021606E+05 -2.479765E-09 -1.632198E-09
       146  12  7.599411E+05  2.662927E+05  8.861285E+04  2.945839E+05 -6.259936E-09 -7.222412E-10
       146  13  2.359846E+05  7.634418E+04 -1.638045E+03  1.482434E+05  2.582699E-09  1.339313E-09
       146  14  2.388704E+05  7.462591E+04 -7.838319E+02  1.449119E+05  9.609504E-10 -1.904718E-09
       146  15  2.361805E+05  7.756272E+04 -4.064576E+02  1.477954E+05 -8.243784E-11  9.740637E-10
       146  16 -3.790024E+05 -1.530052E+05 -1.576085E+05 -1.930743E+04 -1.212339E-09 -6.945653E-10
       146  17 -3.274343E+05 -1.314775E+05 -1.115937E+05 -1.220062E+04  5.704311E-09 -1.040097E-09
       146  18 -2.872873E+05 -1.111395E+05 -8.943282E+04  1.122953E+03  7.465595E-09  1.826691E-09
       146  19  8.513717E+05  3.057287E+05  1.543165E+05  3.159519E+05 -6.019667E+04 -1.253195E+04
       146  20  8.055225E+05  2.807634E+05  1.100188E+05  3.021600E+05 -3.900925E+04  1.950815E+04
       146  21  7.599416E+05  2.662943E+05  8.861573E+04  2.945835E+05 -1.240788E+04  3.712723E+04
       146  22  2.359846E+05  7.634427E+04 -1.637874E+03  1.482434E+05 -2.249833E+03  9.253667E+03
       146  23  2.388708E+05  7.462692E+04 -7.819072E+02  1.449117E+05 -1.059149E+04  3.019741E+04
       146  24  2.361811E+05  7.756421E+04 -4.035808E+02  1.477950E+05 -1.351296E+04  3.671530E+04
       146  25 -3.789988E+05 -1.530033E+05 -1.576008E+05 -1.930604E+04  5.563169E+04  3.101493E+04
       146  26 -3.274335E+05 -1.314756E+05 -1.115900E+05 -1.220003E+04  1.779783E+04  4.087603E+04
       146  27 -2.872867E+05 -1.111380E+05 -8.942994E+04  1.122526E+03 -1.461705E+04  3.630374E+04
       147   1  7.307460E+05  2.556607E+05  8.186851E+04  2.867313E+05  1.277421E+04 -3.610880E+04
       147   2  6.887305E+05  2.359896E+05  7.114997E+04  2.709084E+05  9.286961E+03 -3.625847E+04
       147   3  6.412818E+05  2.229588E+05  6.288570E+04  2.620054E+05  5.213947E+03 -3.485265E+04
       147   4  2.360653E+05  7.776283E+04 -3.001496E+02  1.479933E+05  1.326778E+04 -3.592662E+04
       147   5  2.391118E+05  7.481429E+04 -1.568460E+02  1.445150E+05  1.296530E+04 -3.487751E+04
       147   6  2.360937E+05  7.787609E+04 -8.044216E+01  1.479561E+05  1.207665E+04 -3.227232E+04
       147   7 -2.583606E+05 -1.001126E+05 -8.247645E+04  9.357145E+03  1.376094E+04 -3.574459E+04
       147   8 -2.102926E+05 -8.634104E+04 -7.146817E+04  1.820668E+04  1.664085E+04 -3.349761E+04
       147   9 -1.689175E+05 -6.718928E+04 -6.304909E+04  3.397682E+04  1.893462E+04 -2.969377E+04
       147  10  7.307454E+05  2.556592E+05  8.186576E+04  2.867316E+05 -2.673521E-09  2.484165E-09
       147  11  6.887301E+05  2.359882E+05  7.114734E+04  2.709087E+05 -2.261731E-09  7.805629E-10
       147  12  6.412815E+05  2.229575E+05  6.288337E+04  2.620055E+05  7.552178E-09 -3.359721E-09
       147  13  2.360648E+05  7.776140E+04 -3.029064E+02  1.479937E+05 -2.163330E-10 -4.584403E-10
       147  14  2.391113E+05  7.481294E+04 -1.594482E+02  1.445154E+05  1.327884E-10  5.467432E-09
       147  15  2.360933E+05  7.787493E+04 -8.267375E+01  1.479564E+05  5.217139E-09 -2.748205E-09
       147  16 -2.583611E+05 -1.001141E+05 -8.247921E+04  9.357541E+03 -1.139348E-09 -1.232389E-09
       147  17 -2.102932E+05 -8.634232E+04 -7.147079E+04  1.820713E+04  2.292832E-09  1.225858E-09
       147  18 -1.689181E+05 -6.719032E+04 -6.305142E+04  3.397727E+04  3.957228E-09 -6.544695E-10
       147  19  7.307460E+05  2.556607E+05  8.186851E+04  2.867313E+05 -1.277421E+04  3.610880E+04
       147  20  6.887305E+05  2.359896E+05  7.114997E+04  2.709084E+05 -9.286961E+03  3.625847E+04
       147  21  6.412818E+05  2.229588E+05  6.288570E+04  2.620054E+05 -5.213947E+03  3.485265E+04
       147  22  2.360653E+05  7.776283E+04 -3.001496E+02  1.479933E+05 -1.326778E+04  3.592662E+04
       147  23  2.391118E+05  7.481429E+04 -1.568460E+02  1.445150E+05 -1.296530E+04  3.487751E+04
       147  24  2.360937E+05  7.787609E+04 -8.044216E+01  1.479561E+05 -1.207665E+04  3.227232E+04
       147  25 -2.583606E+05 -1.001126E+05 -8.247645E+04  9.357145E+03 -1.376094E+04  3.574459E+04
       147  26 -2.102926E+05 -8.634104E+04 -7.146817E+04  1.820668E+04 -1.664085E+04  3.349761E+04
       147  27 -1.689175E+05 -6.718928E+04 -6.304909E+04  3.397682E+04 -1.893462E+04  2.969377E+04
       148   1  6.130756E+05  2.128332E+05  5.816159E+04  2.541191E+05  4.540167E+03 -3.282283E+04
       148   2  5.715123E+05  1.937800E+05  5.103931E+04  2.380869E+05  2.930945E+03 -2.954379E+04
       148   3  5.238951E+05  1.809228E+05  4.418032E+04  2.290469E+05  1.258163E+03 -2.609803E+04
       148   4  2.360835E+05  7.790061E+04 -5.828170E+01  1.479743E+05  1.133478E+04 -3.026750E+04
       148   5  2.391541E+05  7.485083E+04 -2.460456E+01  1.444757E+05  1.006680E+04 -2.685909E+04
       148   6  2.361003E+05  7.792971E+04  1.622395E+00  1.479689E+05  8.735207E+03 -2.328391E+04
       148   7 -1.407507E+05 -5.701520E+04 -5.827890E+04  4.189136E+04  1.812496E+04 -2.771385E+04
       148   8 -9.308465E+04 -4.406648E+04 -5.108994E+04  5.091171E+04  1.719862E+04 -2.417592E+04
       148   9 -5.160844E+04 -2.505583E+04 -4.417900E+04  6.692540E+04  1.620868E+04 -2.047114E+04
       148  10  6.130753E+05  2.128321E+05  5.815952E+04  2.541193E+05  9.781350E-09 -3.420856E-09
       148  11  5.715121E+05  1.937790E+05  5.103766E+04  2.380870E+05  1.777192E-09 -1.787235E-09
       148  12  5.238949E+05  1.809221E+05  4.417904E+04  2.290469E+05 -6.812365E-09 -8.648952E-09
       148  13  2.360831E+05  7.789959E+04 -6.024499E+01  1.479746E+05  5.088773E-09 -1.555787E-09
       148  14  2.391538E+05  7.485003E+04 -2.615089E+01  1.444760E+05 -2.031610E-10 -6.199918E-09
       148  15  2.361000E+05  7.792910E+04  4.600464E-01  1.479691E+05 -1.421388E-08 -2.476017E-09
       148  16 -1.407512E+05 -5.701611E+04 -5.828096E+04  4.189176E+04  4.304946E-09  1.302862E-09
       148  17 -9.308513E+04 -4.406719E+04 -5.109159E+04  5.091205E+04 -3.824417E-09  3.210897E-09
       148  18 -5.160883E+04 -2.505635E+04 -4.418028E+04  6.692567E+04 -1.135713E-08  2.376192E-09
       148  19  6.130756E+05  2.128332E+05  5.816159E+04  2.541191E+05 -4.540167E+03  3.282283E+04
       148  20  5.715123E+05  1.937800E+05  5.103931E+04  2.380869E+05 -2.930945E+03  2.954379E+04
       148  21  5.238951E+05  1.809228E+05  4.418032E+04  2.290469E+05 -1.258163E+03  2.609803E+04
       148  22  2.360835E+05  7.790061E+04 -5.828170E+01  1.479743E+05 -1.133478E+04  3.026750E+04
       148  23  2.391541E+05  7.485083E+04 -2.460456E+01  1.444757E+05 -1.006680E+04  2.685909E+04
       148  24  2.361003E+05  7.792971E+04  1.622395E+00  1.479689E+05 -8.735207E+03  2.328391E+04
       148  25 -1.407507E+05 -5.701520E+04 -5.827890E+04  4.189136E+04 -1.812496E+04  2.771385E+04
       148  26 -9.308465E+04 -4.406648E+04 -5.108994E+04  5.091171E+04 -1.719862E+04  2.417592E+04
       148  27 -5.160844E+04 -2.505583E+04 -4.417900E+04  6.692540E+04 -1.620868E+04  2.047114E+04
       149   1  4.958224E+05  1.708527E+05  3.967477E+04  2.211580E+05  4.633612E+02 -2.396387E+04
       149   2  4.543418E+05  1.518715E+05  3.295064E+04  2.051108E+05 -9.672378E+02 -2.032655E+04
       149   3  4.067400E+05  1.390328E+05  2.626895E+04  1.960587E+05 -2.404519E+03 -1.667287E+04
       149   4  2.361015E+05  7.793501E+04  1.255064E+01  1.479689E+05  7.931642E+03 -2.115257E+04
       149   5  2.391707E+05  7.487364E+04  4.072867E+01  1.444708E+05  6.534360E+03 -1.750207E+04
       149   6  2.361098E+05  7.794784E+04  8.456647E+01  1.479669E+05  5.130396E+03 -1.383523E+04
       149   7 -2.354633E+04 -1.497541E+04 -3.965035E+04  7.480864E+04  1.539662E+04 -1.834251E+04
       149   8  2.405114E+04 -2.118717E+03 -3.286922E+04  8.385097E+04  1.403317E+04 -1.467864E+04
       149   9  6.551323E+04  1.686683E+04 -2.609941E+04  9.988817E+04  1.266303E+04 -1.099844E+04
       149  10  4.958223E+05  1.708521E+05  3.967369E+04  2.211580E+05 -6.313814E-08 -2.731841E-08
       149  11  4.543417E+05  1.518711E+05  3.294986E+04  2.051108E+05 -2.178034E-08 -6.015888E-09
       149  12  4.067399E+05  1.390325E+05  2.626841E+04  1.960586E+05  4.448988E-08  1.917397E-08
       149  13  2.361013E+05  7.793451E+04  1.159147E+01  1.479690E+05 -2.156263E-08 -4.045702E-09
       149  14  2.391706E+05  7.487330E+04  4.007269E+01  1.444709E+05 -2.922677E-08 -5.727548E-09
       149  15  2.361097E+05  7.794763E+04  8.415724E+01  1.479669E+05 -1.394597E-08 -1.954731E-09
       149  16 -2.354668E+04 -1.497583E+04 -3.965143E+04  7.480887E+04  3.423742E-08  1.875438E-08
       149  17  2.405087E+04 -2.119001E+03 -3.286999E+04  8.385113E+04 -2.097699E-08 -8.954437E-09
       149  18  6.551303E+04  1.686666E+04 -2.609994E+04  9.988828E+04 -6.093602E-08 -2.738881E-08
       149  19  4.958224E+05  1.708527E+05  3.967477E+04  2.211580E+05 -4.633612E+02  2.396387E+04
       149  20  4.543418E+05  1.518715E+05  3.295064E+04  2.051108E+05  9.672378E+02  2.032655E+04
       149  21  4.067400E+05  1.390328E+05  2.626895E+04  1.960587E+05  2.404519E+03  1.667287E+04
       149  22  2.361015E+05  7.793501E+04  1.255064E+01  1.479689E+05 -7.931642E+03  2.115257E+04
       149  23  2.391707E+05  7.487364E+04  4.072867E+01  1.444708E+05 -6.534360E+03  1.750207E+04
       149  24  2.361098E+05  7.794784E+04  8.456647E+01  1.479669E+05 -5.130396E+03  1.383523E+04
       149  25 -2.354633E+04 -1.497541E+04 -3.965035E+04  7.480864E+04 -1.539662E+04  1.834251E+04
       149  26  2.405114E+04 -2.118717E+03 -3.286922E+04  8.385097E+04 -1.403317E+04  1.467864E+04
       149  27  6.551323E+04  1.686683E+04 -2.609941E+04  9.988817E+04 -1.266303E+04  1.099844E+04
       150   1  3.786959E+05  1.289676E+05  2.180729E+04  1.881735E+05 -3.227211E+03 -1.453473E+04
       150   2  3.372343E+05  1.099920E+05  1.518932E+04  1.721343E+05 -4.702861E+03 -1.089066E+04
       150   3  2.896524E+05  9.715511E+04  8.639185E+03  1.630899E+05 -6.175921E+03 -7.254092E+03
       150   4  2.361152E+05  7.794971E+04  1.154624E+02  1.479680E+05  4.306145E+03 -1.169740E+04
       150   5  2.391757E+05  7.487913E+04  2.127022E+02  1.444712E+05  2.814987E+03 -8.058858E+03
       150   6  2.361178E+05  7.795062E+04  3.901657E+02  1.479687E+05  1.326419E+03 -4.427840E+03
       150   7  9.355488E+04  2.693340E+04 -2.157689E+04  1.077707E+05  1.183777E+04 -8.860723E+03
       150   8  1.411270E+05  3.976715E+04 -1.476398E+04  1.168121E+05  1.033163E+04 -5.227514E+03
       150   9  1.825865E+05  5.874647E+04 -7.858662E+03  1.328488E+05  8.828078E+03 -1.601845E+03
       150  10  3.786959E+05  1.289674E+05  2.180688E+04  1.881734E+05 -6.128527E-09 -1.714877E-10
       150  11  3.372342E+05  1.099918E+05  1.518905E+04  1.721342E+05  2.410790E-09  2.910831E-09
       150  12  2.896524E+05  9.715505E+04  8.639015E+03  1.630898E+05  8.212815E-09  4.893992E-10
       150  13  2.361152E+05  7.794956E+04  1.151704E+02  1.479680E+05 -4.720503E-09  1.264517E-09
       150  14  2.391757E+05  7.487906E+04  2.125653E+02  1.444712E+05 -3.360976E-09  2.892084E-09
       150  15  2.361178E+05  7.795060E+04  3.901256E+02  1.479687E+05  6.605693E-10 -7.628529E-10
       150  16  9.355471E+04  2.693327E+04 -2.157730E+04  1.077708E+05  5.735322E-09  1.171071E-09
       150  17  1.411269E+05  3.976710E+04 -1.476423E+04  1.168121E+05  5.771072E-09  5.205088E-09
       150  18  1.825864E+05  5.874645E+04 -7.858813E+03  1.328488E+05 -2.800208E-09 -4.883110E-09
       150  19  3.786959E+05  1.289676E+05  2.180729E+04  1.881735E+05  3.227211E+03  1.453473E+04
       150  20  3.372343E+05  1.099920E+05  1.518932E+04  1.721343E+05  4.702861E+03  1.089066E+04
       150  21  2.896524E+05  9.715511E+04  8.639185E+03  1.630899E+05  6.175921E+03  7.254092E+03
       150  22  2.361152E+05  7.794971E+04  1.154624E+02  1.479680E+05 -4.306145E+03  1.169740E+04
       150  23  2.391757E+05  7.487913E+04  2.127022E+02  1.444712E+05 -2.814987E+03  8.058858E+03
       150  24  2.361178E+05  7.795062E+04  3.901657E+02  1.479687E+05 -1.326419E+03  4.427840E+03
       150  25  9.355488E+04  2.693340E+04 -2.157689E+04  1.077707E+05 -1.183777E+04  8.860723E+03
       150  26  1.411270E+05  3.976715E+04 -1.476398E+04  1.168121E+05 -1.033163E+04  5.227514E+03
       150  27  1.825865E+05  5.874647E+04 -7.858662E+03  1.328488E+05 -8.828078E+03  1.601845E+03
       151   1  2.616199E+05  8.709668E+04  4.270287E+03  1.552241E+05 -7.059052E+03 -5.145512E+03
       151   2  2.201547E+05  6.810838E+04 -2.090547E+03  1.391662E+05 -8.728381E+03 -1.632593E+03
       151   3  1.726259E+05  5.531893E+04 -8.208533E+03  1.300912E+05 -1.036612E+04  1.796781E+03
       151   4  2.361344E+05  7.794853E+04  5.213532E+02  1.479746E+05  4.463764E+02 -2.318036E+03
       151   5  2.391577E+05  7.488620E+04  9.493183E+02  1.444631E+05 -1.394203E+03  1.130305E+03
       151   6  2.361488E+05  7.805620E+04  1.755484E+03  1.479336E+05 -3.203226E+03  4.495111E+03
       151   7  2.106500E+05  6.880061E+04 -3.227261E+03  1.407254E+05  7.951393E+03  5.092839E+02
       151   8  2.581613E+05  8.166410E+04  3.989408E+03  1.497602E+05  5.940212E+03  3.893292E+03
       151   9  2.996770E+05  1.007942E+05  1.171986E+04  1.657780E+05  3.960526E+03  7.193762E+03
       151  10  2.616198E+05  8.709664E+04  4.270144E+03  1.552241E+05  3.699024E-10 -2.666832E-09
       151  11  2.201546E+05  6.810836E+04 -2.090696E+03  1.391661E+05 -1.478809E-09 -7.504270E-10
       151  12  1.726258E+05  5.531889E+04 -8.208741E+03  1.300913E+05 -2.221794E-09  3.536643E-11
       151  13  2.361344E+05  7.794852E+04  5.213427E+02  1.479746E+05  5.905384E-10  3.361250E-10
       151  14  2.391577E+05  7.488620E+04  9.493122E+02  1.444631E+05  2.436980E-09 -6.073082E-11
       151  15  2.361488E+05  7.805618E+04  1.755426E+03  1.479337E+05  1.563340E-09 -2.024339E-09
       151  16  2.106499E+05  6.880059E+04 -3.227380E+03  1.407254E+05  3.378805E-09 -2.600418E-09
       151  17  2.581612E+05  8.166407E+04  3.989313E+03  1.497601E+05  4.165165E-09  1.564611E-10
       151  18  2.996770E+05  1.007942E+05  1.171973E+04  1.657780E+05  4.899499E-09  1.428639E-09
       151  19  2.616199E+05  8.709668E+04  4.270287E+03  1.552241E+05  7.059052E+03  5.145512E+03
       151  20  2.201547E+05  6.810838E+04 -2.090547E+03  1.391662E+05  8.728381E+03  1.632593E+03
       151  21  1.726259E+05  5.531893E+04 -8.208533E+03  1.300912E+05  1.036612E+04 -1.796781E+03
       151  22  2.361344E+05  7.794853E+04  5.213532E+02  1.479746E+05 -4.463764E+02  2.318036E+03
       151  23  2.391577E+05  7.488620E+04  9.493183E+02  1.444631E+05  1.394203E+03 -1.130305E+03
       151  24  2.361488E+05  7.805620E+04  1.755484E+03  1.479336E+05  3.203226E+03 -4.495111E+03
       151  25  2.106500E+05  6.880061E+04 -3.227261E+03  1.407254E+05 -7.951393E+03 -5.092839E+02
       151  26  2.581613E+05  8.166410E+04  3.989408E+03  1.497602E+05 -5.940212E+03 -3.893292E+03
       151  27  2.996770E+05  1.007942E+05  1.171986E+04  1.657780E+05 -3.960526E+03 -7.193762E+03
       152   1  1.445626E+05  4.534691E+04 -1.222863E+04  1.223552E+05 -1.149647E+04  3.737049E+03
       152   2  1.035117E+05  2.619379E+04 -1.775115E+04  1.055139E+05 -1.327755E+04  6.640737E+03
       152   3  5.686266E+04  1.422197E+04 -2.252794E+04  9.534955E+04 -1.476622E+04  8.768912E+03
       152   4  2.362770E+05  7.807773E+04  2.348490E+03  1.479628E+05 -4.300640E+03  6.447667E+03
       152   5  2.390803E+05  7.547346E+04  4.338692E+03  1.441933E+05 -7.668722E+03  8.753181E+03
       152   6  2.365973E+05  8.036419E+04  8.331579E+03  1.470998E+05 -1.074445E+04  1.028326E+04
       152   7  3.280006E+05  1.108094E+05  1.692566E+04  1.735740E+05  2.896309E+03  9.158703E+03
       152   8  3.746678E+05  1.247548E+05  2.642803E+04  1.828804E+05 -2.058628E+03  1.086611E+04
       152   9  4.163641E+05  1.465091E+05  3.918964E+04  1.988635E+05 -6.721494E+03  1.179808E+04
       152  10  1.445624E+05  4.534685E+04 -1.222890E+04  1.223553E+05 -5.848662E-08 -2.135249E-08
       152  11  1.035115E+05  2.619369E+04 -1.775156E+04  1.055139E+05 -6.164670E-09 -5.262027E-09
       152  12  5.686240E+04  1.422183E+04 -2.252849E+04  9.534966E+04  4.995679E-08  1.846255E-08
       152  13  2.362770E+05  7.807768E+04  2.348377E+03  1.479628E+05 -5.382272E-09  1.455140E-09
       152  14  2.390802E+05  7.547336E+04  4.338437E+03  1.441933E+05 -9.143452E-09 -7.429334E-09
       152  15  2.365971E+05  8.036405E+04  8.331163E+03  1.470998E+05 -8.235191E-09 -2.317615E-09
       152  16  3.280006E+05  1.108094E+05  1.692549E+04  1.735740E+05  4.926374E-08  1.725185E-08
       152  17  3.746678E+05  1.247547E+05  2.642780E+04  1.828804E+05 -1.200256E-08 -4.362573E-09
       152  18  4.163640E+05  1.465090E+05  3.918930E+04  1.988635E+05 -5.928602E-08 -2.362507E-08
       152  19  1.445626E+05  4.534691E+04 -1.222863E+04  1.223552E+05  1.149647E+04 -3.737049E+03
       152  20  1.035117E+05  2.619379E+04 -1.775115E+04  1.055139E+05  1.327755E+04 -6.640737E+03
       152  21  5.686266E+04  1.422197E+04 -2.252794E+04  9.534955E+04  1.476622E+04 -8.768912E+03
       152  22  2.362770E+05  7.807773E+04  2.348490E+03  1.479628E+05  4.300640E+03 -6.447667E+03
       152  23  2.390803E+05  7.547346E+04  4.338692E+03  1.441933E+05  7.668722E+03 -8.753181E+03
       152  24  2.365973E+05  8.036419E+04  8.331579E+03  1.470998E+05  1.074445E+04 -1.028326E+04
       152  25  3.280006E+05  1.108094E+05  1.692566E+04  1.735740E+05 -2.896309E+03 -9.158703E+03
       152  26  3.746678E+05  1.247548E+05  2.642803E+04  1.828804E+05  2.058628E+03 -1.086611E+04
       152  27  4.163641E+05  1.465091E+05  3.918964E+04  1.988635E+05  6.721494E+03 -1.179808E+04
       153   1  2.850275E+04  5.538705E+03 -2.531757E+04  8.890885E+04 -1.687958E+04  9.639336E+03
       153   2 -4.696819E+03 -1.574029E+04 -2.920880E+04  5.929058E+04 -1.275211E+04  9.507917E+03
       153   3 -3.804361E+04 -1.544174E+04 -3.136169E+04  3.167191E+04 -5.919894E+03  2.190402E+03
       153   4  2.379275E+05  8.093363E+04  1.120131E+04  1.472659E+05 -1.255480E+04  1.126764E+04
       153   5  2.389546E+05  8.570217E+04  2.151922E+04  1.398580E+05 -2.312433E+04  5.601150E+03
       153   6  2.427418E+05  1.149547E+05  4.521891E+04  1.344502E+05 -3.099004E+04 -7.249804E+03
       153   7  4.474024E+05  1.563342E+05  4.771996E+04  2.056424E+05 -8.228380E+03  1.289655E+04
       153   8  4.826675E+05  1.871547E+05  7.224446E+04  2.204564E+05 -3.350087E+04  1.692233E+03
       153   9  5.236009E+05  2.453667E+05  1.217933E+05  2.372728E+05 -5.607196E+04 -1.669700E+04
       153  10  2.850242E+04  5.538529E+03 -2.531828E+04  8.890898E+04 -3.788667E-09  9.340441E-10
       153  11 -4.697018E+03 -1.574043E+04 -2.920927E+04  5.929067E+04 -2.520836E-09  4.620859E-10
       153  12 -3.804365E+04 -1.544175E+04 -3.136176E+04  3.167192E+04  2.632241E-09  3.285207E-10
       153  13  2.379273E+05  8.093345E+04  1.120077E+04  1.472660E+05 -1.804821E-09 -9.042525E-10
       153  14  2.389540E+05  8.570199E+04  2.151816E+04  1.398581E+05 -1.701490E-09  1.280011E-09
       153  15  2.427407E+05  1.149544E+05  4.521701E+04  1.344501E+05  3.152789E-10  1.315501E-09
       153  16  4.474023E+05  1.563340E+05  4.771952E+04  2.056425E+05  1.531782E-09 -8.030051E-10
       153  17  4.826663E+05  1.871544E+05  7.224234E+04  2.204564E+05 -3.435241E-10  1.426430E-10
       153  18  5.235974E+05  2.453656E+05  1.217869E+05  2.372721E+05 -5.973496E-10 -1.837617E-09
       153  19  2.850275E+04  5.538705E+03 -2.531757E+04  8.890885E+04  1.687958E+04 -9.639336E+03
       153  20 -4.696819E+03 -1.574029E+04 -2.920880E+04  5.929058E+04  1.275211E+04 -9.507917E+03
       153  21 -3.804361E+04 -1.544174E+04 -3.136169E+04  3.167191E+04  5.919894E+03 -2.190402E+03
       153  22  2.379275E+05  8.093363E+04  1.120131E+04  1.472659E+05  1.255480E+04 -1.126764E+04
       153  23  2.389546E+05  8.570217E+04  2.151922E+04  1.398580E+05  2.312433E+04 -5.601150E+03
       153  24  2.427418E+05  1.149547E+05  4.521891E+04  1.344502E+05  3.099004E+04  7.249804E+03
       153  25  4.474024E+05  1.563342E+05  4.771996E+04  2.056424E+05  8.228380E+03 -1.289655E+04
       153  26  4.826675E+05  1.871547E+05  7.224446E+04  2.204564E+05  3.350087E+04 -1.692233E+03
       153  27  5.236009E+05  2.453667E+05  1.217933E+05  2.372728E+05  5.607196E+04  1.669700E+04
       154   1 -2.164918E+05 -1.049013E+06 -2.486412E+05  6.789946E+04 -3.186144E+03 -1.020719E+05
       154   2 -6.265874E+04 -9.601057E+05 -1.487616E+05  1.462751E+04 -9.210232E+03 -6.202147E+04
       154   3 -6.267461E+04 -9.145012E+05 -1.133774E+05  2.297157E+04 -6.659605E+03 -2.195455E+04
       154   4 -1.161262E+05 -6.477258E+05 -1.490804E+05  3.654734E+04 -3.187344E+03 -9.793350E+04
       154   5  2.038502E+04 -6.263675E+05 -6.771214E+04  5.829342E+03 -9.209943E+03 -6.135655E+04
       154   6  3.695449E+03 -6.476862E+05 -4.839626E+04  3.672888E+04 -6.656941E+03 -2.476764E+04
       154   7 -1.576914E+04 -2.462906E+05 -4.953103E+04  5.174963E+03 -3.188964E+03 -9.379245E+04
       154   8  1.034209E+05 -2.925274E+05  1.332929E+04 -2.973538E+03 -9.209673E+03 -6.069127E+04
       154   9  7.006098E+04 -3.808056E+05  1.657986E+04  5.049214E+04 -6.654403E+03 -2.758194E+04
       154  10 -2.164946E+05 -1.049024E+06 -2.486609E+05  6.789920E+04 -2.454534E-10  2.957603E-09
       154  11 -6.265986E+04 -9.601098E+05 -1.487690E+05  1.462705E+04 -7.666653E-10  1.312460E-09
       154  12 -6.267479E+04 -9.145018E+05 -1.133784E+05  2.297145E+04 -3.442660E-09  1.078292E-10
       154  13 -1.161288E+05 -6.477362E+05 -1.490985E+05  3.654709E+04  3.534892E-09  3.563836E-09
       154  14  2.038392E+04 -6.263716E+05 -6.771938E+04  5.828887E+03  3.022858E-09  6.851470E-09
       154  15  3.695237E+03 -6.476868E+05 -4.839750E+04  3.672875E+04 -2.217517E-10  5.094224E-10
       154  16 -1.577151E+04 -2.463000E+05 -4.954759E+04  5.174722E+03  3.717724E-09 -8.652334E-10
       154  17  1.034198E+05 -2.925314E+05  1.332221E+04 -2.973989E+03  4.768548E-09 -2.245067E-09
       154  18  7.006073E+04 -3.808064E+05  1.657835E+04  5.049199E+04  5.826463E-11 -2.928738E-10
       154  19 -2.164918E+05 -1.049013E+06 -2.486412E+05  6.789946E+04  3.186144E+03  1.020719E+05
       154  20 -6.265874E+04 -9.601057E+05 -1.487616E+05  1.462751E+04  9.210232E+03  6.202147E+04
       154  21 -6.267461E+04 -9.145012E+05 -1.133774E+05  2.297157E+04  6.659605E+03  2.195455E+04
       154  22 -1.161262E+05 -6.477258E+05 -1.490804E+05  3.654734E+04  3.187344E+03  9.793350E+04
       154  23  2.038502E+04 -6.263675E+05 -6.771214E+04  5.829342E+03  9.209943E+03  6.135655E+04
       154  24  3.695449E+03 -6.476862E+05 -4.839626E+04  3.672888E+04  6.656941E+03  2.476764E+04
       154  25 -1.576914E+04 -2.462906E+05 -4.953103E+04  5.174963E+03  3.188964E+03  9.379245E+04
       154  26  1.034209E+05 -2.925274E+05  1.332929E+04 -2.973538E+03  9.209673E+03  6.069127E+04
       154  27  7.006098E+04 -3.808056E+05  1.657986E+04  5.049214E+04  6.654403E+03  2.758194E+04
       155   1 -5.020503E+04 -7.889358E+05 -7.942306E+04  4.215984E+04 -3.841279E+03 -1.608524E+04
       155   2 -1.499100E+04 -7.152490E+05 -5.301921E+04  5.605710E+03 -2.096793E+03  1.334326E+03
       155   3 -1.681933E+04 -6.529296E+05 -4.719344E+04  3.169509E+04 -6.824722E+01  1.875562E+04
       155   4 -1.331297E+04 -6.407184E+05 -4.336005E+04  3.689696E+04 -3.840445E+03 -1.674761E+04
       155   5  4.964364E+03 -6.350426E+05 -3.350883E+04  5.575553E+03 -2.096052E+03  5.589004E+02
       155   6 -1.377805E+04 -6.407174E+05 -4.415440E+04  3.689773E+04 -6.733546E+01  1.786525E+04
       155   7  2.357758E+04 -4.924808E+05 -7.298623E+03  3.163282E+04 -3.839600E+03 -1.741014E+04
       155   8  2.491925E+04 -5.548303E+05 -1.399891E+04  5.545393E+03 -2.095312E+03 -2.166249E+02
       155   9 -1.073667E+04 -6.285049E+05 -4.111535E+04  4.210047E+04 -6.643865E+01  1.697487E+04
       155  10 -5.020512E+04 -7.889361E+05 -7.942358E+04  4.215979E+04 -4.066119E-09  2.330214E-09
       155  11 -1.499100E+04 -7.152490E+05 -5.301922E+04  5.605712E+03 -2.841376E-09  1.972712E-09
       155  12 -1.681943E+04 -6.529300E+05 -4.719410E+04  3.169509E+04 -4.002695E-09  1.419821E-09
       155  13 -1.331306E+04 -6.407187E+05 -4.336061E+04  3.689690E+04 -9.545516E-11  1.172004E-09
       155  14  4.964359E+03 -6.350426E+05 -3.350884E+04  5.575554E+03  3.667325E-10  5.627234E-09
       155  15 -1.377813E+04 -6.407177E+05 -4.415500E+04  3.689773E+04  9.574142E-11  2.545699E-11
       155  16  2.357748E+04 -4.924811E+05 -7.299221E+03  3.163276E+04 -8.010040E-10 -1.845177E-09
       155  17  2.491925E+04 -5.548303E+05 -1.399892E+04  5.545393E+03 -3.004464E-09 -3.111980E-09
       155  18 -1.073675E+04 -6.285052E+05 -4.111589E+04  4.210047E+04 -1.686178E-09 -2.088121E-09
       155  19 -5.020503E+04 -7.889358E+05 -7.942306E+04  4.215984E+04  3.841279E+03  1.608524E+04
       155  20 -1.499100E+04 -7.152490E+05 -5.301921E+04  5.605710E+03  2.096793E+03 -1.334326E+03
       155  21 -1.681933E+04 -6.529296E+05 -4.719344E+04  3.169509E+04  6.824722E+01 -1.875562E+04
       155  22 -1.331297E+04 -6.407184E+05 -4.336005E+04  3.689696E+04  3.840445E+03  1.674761E+04
       155  23  4.964364E+03 -6.350426E+05 -3.350883E+04  5.575553E+03  2.096052E+03 -5.589004E+02
       155  24 -1.377805E+04 -6.407174E+05 -4.415440E+04  3.689773E+04  6.733546E+01 -1.786525E+04
       155  25  2.357758E+04 -4.924808E+05 -7.298623E+03  3.163282E+04  3.839600E+03  1.741014E+04
       155  26  2.491925E+04 -5.548303E+05 -1.399891E+04  5.545393E+03  2.095312E+03  2.166249E+02
       155  27 -1.073667E+04 -6.285049E+05 -4.111535E+04  4.210047E+04  6.643865E+01 -1.697487E+04
       156   1  3.053247E+04 -5.411129E+05 -2.341941E+04  5.121434E+04  2.362714E+03  2.823295E+04
       156   2  6.450016E+04 -4.513635E+05 -2.739153E+04 -3.231028E+03  4.877317E+03  6.366554E+04
       156   3 -5.931249E+04 -4.054548E+05 -9.383717E+04  4.595466E+03  1.808295E+03  9.909637E+04
       156   4  3.945190E+03 -6.480245E+05 -4.952497E+04  3.686294E+04  2.363976E+03  2.605173E+04
       156   5  2.107665E+04 -6.259157E+05 -6.974811E+04  5.656098E+03  4.878219E+03  6.375065E+04
       156   6 -1.199926E+05 -6.480629E+05 -1.540345E+05  3.672357E+04  1.810796E+03  1.014438E+05
       156   7 -2.264215E+04 -7.549251E+05 -7.563124E+04  2.251403E+04  2.365340E+03  2.387089E+04
       156   8 -2.234880E+04 -8.004398E+05 -1.121069E+05  1.454072E+04  4.879124E+03  6.383574E+04
       156   9 -1.806733E+05 -8.906152E+05 -2.142357E+05  6.883911E+04  1.813541E+03  1.037904E+05
       156  10  3.053225E+04 -5.411138E+05 -2.342092E+04  5.121428E+04 -1.455136E-09  1.798198E-09
       156  11  6.449904E+04 -4.513679E+05 -2.739920E+04 -3.231278E+03  9.352130E-11  1.687111E-09
       156  12 -5.931513E+04 -4.054654E+05 -9.385564E+04  4.595322E+03  6.510769E-10  5.601422E-10
       156  13  3.945002E+03 -6.480252E+05 -4.952626E+04  3.686289E+04  1.702078E-09  2.089475E-09
       156  14  2.107554E+04 -6.259200E+05 -6.975580E+04  5.655847E+03  2.291962E-09  4.961000E-09
       156  15 -1.199954E+05 -6.480739E+05 -1.540539E+05  3.672342E+04  8.093761E-10  8.643238E-10
       156  16 -2.264231E+04 -7.549258E+05 -7.563232E+04  2.251398E+04 -1.726895E-09 -9.082779E-10
       156  17 -2.234992E+04 -8.004442E+05 -1.121146E+05  1.454047E+04 -1.901856E-10 -1.195708E-09
       156  18 -1.806762E+05 -8.906268E+05 -2.142559E+05  6.883896E+04  4.493377E-09  4.075016E-10
       156  19  3.053247E+04 -5.411129E+05 -2.341941E+04  5.121434E+04 -2.362714E+03 -2.823295E+04
       156  20  6.450016E+04 -4.513635E+05 -2.739153E+04 -3.231028E+03 -4.877317E+03 -6.366554E+04
       156  21 -5.931249E+04 -4.054548E+05 -9.383717E+04  4.595466E+03 -1.808295E+03 -9.909637E+04
       156  22  3.945190E+03 -6.480245E+05 -4.952497E+04  3.686294E+04 -2.363976E+03 -2.605173E+04
       156  23  2.107665E+04 -6.259157E+05 -6.974811E+04  5.656098E+03 -4.878219E+03 -6.375065E+04
       156  24 -1.199926E+05 -6.480629E+05 -1.540345E+05  3.672357E+04 -1.810796E+03 -1.014438E+05
       156  25 -2.264215E+04 -7.549251E+05 -7.563124E+04  2.251403E+04 -2.365340E+03 -2.387089E+04
       156  26 -2.234880E+04 -8.004398E+05 -1.121069E+05  1.454072E+04 -4.879124E+03 -6.383574E+04
       156  27 -1.806733E+05 -8.906152E+05 -2.142357E+05  6.883911E+04 -1.813541E+03 -1.037904E+05
       157   1  3.990008E+05  1.354245E+05  8.279776E+04  1.473274E+05  4.146558E+04  1.463674E+04
       157   2  3.848411E+05  7.087809E+04  4.323151E+04  1.482869E+05  2.665434E+04  7.121663E+03
       157   3  3.883229E+05  6.511892E+04  2.996659E+04  1.407027E+05  1.108132E+04  1.628302E+03
       157   4  3.345967E+05  9.507050E+04  6.221784E+04  1.132988E+05  3.988358E+04  1.403903E+04
       157   5  3.226129E+05  4.268854E+04  2.622306E+04  1.262829E+05  2.625527E+04  6.970938E+03
       157   6  3.280384E+05  4.886225E+04  1.559461E+04  1.307225E+05  1.186494E+04  1.923882E+03
       157   7  2.701979E+05  5.471995E+04  4.163780E+04  7.927458E+04  3.830178E+04  1.344150E+04
       157   8  2.603887E+05  1.449986E+04  9.214320E+03  1.042811E+05  2.585624E+04  6.820237E+03
       157   9  2.677572E+05  3.260542E+04  1.222317E+03  1.207430E+05  1.264848E+04  2.219453E+03
       157  10  3.989989E+05  1.354238E+05  8.279413E+04  1.473269E+05 -6.149177E-09 -1.650694E-09
       157  11  3.848403E+05  7.087785E+04  4.323008E+04  1.482868E+05 -2.300425E-09 -2.029025E-09
       157  12  3.883228E+05  6.511888E+04  2.996636E+04  1.407026E+05  4.799553E-09  6.510028E-09
       157  13  3.345949E+05  9.506986E+04  6.221448E+04  1.132984E+05 -8.857313E-10 -5.131447E-09
       157  14  3.226121E+05  4.268831E+04  2.622168E+04  1.262827E+05  2.824770E-09 -6.902357E-09
       157  15  3.280383E+05  4.886221E+04  1.559433E+04  1.307225E+05  2.930835E-09  1.625334E-09
       157  16  2.701963E+05  5.471937E+04  4.163470E+04  7.927416E+04  6.866692E-09  5.542401E-09
       157  17  2.603879E+05  1.449963E+04  9.212977E+03  1.042809E+05  1.225905E-09  2.030028E-09
       157  18  2.677570E+05  3.260537E+04  1.222008E+03  1.207430E+05 -5.612630E-09 -2.935907E-09
       157  19  3.990008E+05  1.354245E+05  8.279776E+04  1.473274E+05 -4.146558E+04 -1.463674E+04
       157  20  3.848411E+05  7.087809E+04  4.323151E+04  1.482869E+05 -2.665434E+04 -7.121663E+03
       157  21  3.883229E+05  6.511892E+04  2.996659E+04  1.407027E+05 -1.108132E+04 -1.628302E+03
       157  22  3.345967E+05  9.507050E+04  6.221784E+04  1.132988E+05 -3.988358E+04 -1.403903E+04
       157  23  3.226129E+05  4.268854E+04  2.622306E+04  1.262829E+05 -2.625527E+04 -6.970938E+03
       157  24  3.280384E+05  4.886225E+04  1.559461E+04  1.307225E+05 -1.186494E+04 -1.923882E+03
       157  25  2.701979E+05  5.471995E+04  4.163780E+04  7.927458E+04 -3.830178E+04 -1.344150E+04
       157  26  2.603887E+05  1.449986E+04  9.214320E+03  1.042811E+05 -2.585624E+04 -6.820237E+03
       157  27  2.677572E+05  3.260542E+04  1.222317E+03  1.207430E+05 -1.264848E+04 -2.219453E+03
       158   1  3.690208E+05  7.237553E+04  2.399637E+04  1.403487E+05  9.337408E+03  1.603564E+03
       158   2  3.605295E+05  6.078756E+04  1.493840E+04  1.354895E+05  5.942049E+03  7.216788E+02
       158   3  3.496351E+05  5.905883E+04  9.698855E+03  1.348035E+05  2.499244E+03 -3.418039E+01
       158   4  3.260262E+05  5.489076E+04  1.260459E+04  1.271942E+05  9.504079E+03  1.666377E+03
       158   5  3.269300E+05  4.781832E+04  6.182287E+03  1.259186E+05  6.182585E+03  8.123721E+02
       158   6  3.254162E+05  5.059064E+04  3.520113E+03  1.288163E+05  2.813594E+03  8.436488E+01
       158   7  2.830335E+05  3.740620E+04  1.212649E+03  1.140406E+05  9.670737E+03  1.729185E+03
       158   8  2.933317E+05  3.484920E+04 -2.573901E+03  1.163483E+05  6.423106E+03  9.030595E+02
       158   9  3.011978E+05  4.212250E+04 -2.658654E+03  1.228292E+05  3.127930E+03  2.029055E+02
       158  10  3.690207E+05  7.237550E+04  2.399620E+04  1.403486E+05  6.142919E-09  4.270171E-09
       158  11  3.605294E+05  6.078755E+04  1.493833E+04  1.354895E+05  8.304718E-09  1.497088E-09
       158  12  3.496351E+05  5.905883E+04  9.698844E+03  1.348035E+05  3.032542E-09  3.419953E-09
       158  13  3.260261E+05  5.489073E+04  1.260441E+04  1.271942E+05  3.754679E-10 -1.113435E-09
       158  14  3.269299E+05  4.781831E+04  6.182214E+03  1.259186E+05 -4.690992E-10 -5.806229E-09
       158  15  3.254161E+05  5.059064E+04  3.520098E+03  1.288163E+05 -5.242847E-10  9.029848E-09
       158  16  2.830334E+05  3.740617E+04  1.212468E+03  1.140406E+05 -5.246433E-09 -6.565793E-10
       158  17  2.933316E+05  3.484918E+04 -2.573980E+03  1.163483E+05 -4.973322E-09  8.389878E-09
       158  18  3.011978E+05  4.212249E+04 -2.658672E+03  1.228292E+05 -3.535233E-09  2.041927E-09
       158  19  3.690208E+05  7.237553E+04  2.399637E+04  1.403487E+05 -9.337408E+03 -1.603564E+03
       158  20  3.605295E+05  6.078756E+04  1.493840E+04  1.354895E+05 -5.942049E+03 -7.216788E+02
       158  21  3.496351E+05  5.905883E+04  9.698855E+03  1.348035E+05 -2.499244E+03  3.418039E+01
       158  22  3.260262E+05  5.489076E+04  1.260459E+04  1.271942E+05 -9.504079E+03 -1.666377E+03
       158  23  3.269300E+05  4.781832E+04  6.182287E+03  1.259186E+05 -6.182585E+03 -8.123721E+02
       158  24  3.254162E+05  5.059064E+04  3.520113E+03  1.288163E+05 -2.813594E+03 -8.436488E+01
       158  25  2.830335E+05  3.740620E+04  1.212649E+03  1.140406E+05 -9.670737E+03 -1.729185E+03
       158  26  2.933317E+05  3.484920E+04 -2.573901E+03  1.163483E+05 -6.423106E+03 -9.030595E+02
       158  27  3.011978E+05  4.212250E+04 -2.658654E+03  1.228292E+05 -3.127930E+03 -2.029055E+02
       159   1  3.372622E+05  5.575052E+04  5.832824E+03  1.318734E+05  1.923436E+03  8.988872E+01
       159   2  3.294431E+05  4.910912E+04  1.982175E+03  1.264717E+05  1.008035E+03  2.876860E+02
       159   3  3.171639E+05  4.768916E+04 -1.191338E+03  1.263620E+05  8.967296E+01  4.933396E+02
       159   4  3.251856E+05  5.113493E+04  2.727435E+03  1.284721E+05  2.199012E+03  1.938121E+02
       159   5  3.273883E+05  4.832915E+04  1.449166E+03  1.258999E+05  1.288219E+03  3.933484E+02
       159   6  3.251302E+05  5.074398E+04  8.444639E+02  1.286196E+05  3.744527E+02  6.007366E+02
       159   7  3.131091E+05  4.651933E+04 -3.779784E+02  1.250709E+05  2.474582E+03  2.977336E+02
       159   8  3.253336E+05  4.754917E+04  9.161560E+02  1.253282E+05  1.568402E+03  4.990107E+02
       159   9  3.330965E+05  5.379880E+04  2.880262E+03  1.308774E+05  6.592365E+02  7.081352E+02
       159  10  3.372622E+05  5.575052E+04  5.832817E+03  1.318734E+05  4.366461E-09  5.678634E-09
       159  11  3.294431E+05  4.910912E+04  1.982173E+03  1.264717E+05  2.044204E-09  9.431455E-10
       159  12  3.171639E+05  4.768916E+04 -1.191339E+03  1.263620E+05  7.780309E-10  5.929001E-09
       159  13  3.251856E+05  5.113493E+04  2.727426E+03  1.284721E+05  2.037603E-09  1.762157E-09
       159  14  3.273883E+05  4.832915E+04  1.449163E+03  1.258999E+05 -1.469481E-09  1.750669E-09
       159  15  3.251302E+05  5.074398E+04  8.444630E+02  1.286196E+05 -1.283414E-09  7.757676E-10
       159  16  3.131091E+05  4.651933E+04 -3.779901E+02  1.250709E+05 -4.994989E-09  4.121460E-09
       159  17  3.253336E+05  4.754917E+04  9.161509E+02  1.253282E+05 -3.262416E-09  2.050984E-09
       159  18  3.330965E+05  5.379880E+04  2.880260E+03  1.308774E+05  1.539583E-10  3.897208E-09
       159  19  3.372622E+05  5.575052E+04  5.832824E+03  1.318734E+05 -1.923436E+03 -8.988872E+01
       159  20  3.294431E+05  4.910912E+04  1.982175E+03  1.264717E+05 -1.008035E+03 -2.876860E+02
       159  21  3.171639E+05  4.768916E+04 -1.191338E+03  1.263620E+05 -8.967296E+01 -4.933396E+02
       159  22  3.251856E+05  5.113493E+04  2.727435E+03  1.284721E+05 -2.199012E+03 -1.938121E+02
       159  23  3.273883E+05  4.832915E+04  1.449166E+03  1.258999E+05 -1.288219E+03 -3.933484E+02
       159  24  3.251302E+05  5.074398E+04  8.444639E+02  1.286196E+05 -3.744527E+02 -6.007366E+02
       159  25  3.131091E+05  4.651933E+04 -3.779784E+02  1.250709E+05 -2.474582E+03 -2.977336E+02
       159  26  3.253336E+05  4.754917E+04  9.161560E+02  1.253282E+05 -1.568402E+03 -4.990107E+02
       159  27  3.330965E+05  5.379880E+04  2.880262E+03  1.308774E+05 -6.592365E+02 -7.081352E+02
       160   1  3.054740E+05  4.341061E+04 -4.443412E+03  1.232061E+05 -1.391653E+02  7.299533E+02
       160   2  2.977254E+05  3.720774E+04 -7.237270E+03  1.177411E+05 -5.475436E+02  1.128680E+03
       160   3  2.852829E+05  3.580307E+04 -9.849195E+03  1.176695E+05 -9.563019E+02  1.528535E+03
       160   4  3.250985E+05  5.079228E+04  6.705544E+02  1.285885E+05  1.433731E+02  8.365018E+02
       160   5  3.274433E+05  4.837810E+04  4.505506E+02  1.258975E+05 -2.643594E+02  1.235462E+03
       160   6  3.250941E+05  5.076195E+04  4.119801E+02  1.285999E+05 -6.724773E+02  1.635550E+03
       160   7  3.447234E+05  5.817394E+04  5.784470E+03  1.339711E+05  4.259204E+02  9.430537E+02
       160   8  3.571621E+05  5.954852E+04  8.138298E+03  1.340543E+05  1.883955E+01  1.342250E+03
       160   9  3.649069E+05  6.572099E+04  1.067306E+04  1.395309E+05 -3.886317E+02  1.742574E+03
       160  10  3.054740E+05  4.341061E+04 -4.443413E+03  1.232061E+05 -2.805477E-09  1.557779E-09
       160  11  2.977254E+05  3.720774E+04 -7.237273E+03  1.177411E+05 -4.762532E-09  4.660032E-09
       160  12  2.852829E+05  3.580307E+04 -9.849201E+03  1.176695E+05 -1.423451E-09  1.038836E-08
       160  13  3.250985E+05  5.079228E+04  6.705530E+02  1.285885E+05 -4.144557E-09 -5.059901E-11
       160  14  3.274433E+05  4.837810E+04  4.505476E+02  1.258975E+05 -4.537195E-09  9.804104E-10
       160  15  3.250941E+05  5.076195E+04  4.119742E+02  1.285999E+05 -2.359228E-09 -2.988048E-09
       160  16  3.447234E+05  5.817394E+04  5.784468E+03  1.339711E+05 -2.689921E-09  7.907839E-09
       160  17  3.571621E+05  5.954852E+04  8.138295E+03  1.340543E+05 -4.945808E-09 -3.394626E-09
       160  18  3.649069E+05  6.572099E+04  1.067306E+04  1.395309E+05 -2.829462E-11  5.318724E-09
       160  19  3.054740E+05  4.341061E+04 -4.443412E+03  1.232061E+05  1.391653E+02 -7.299533E+02
       160  20  2.977254E+05  3.720774E+04 -7.237270E+03  1.177411E+05  5.475436E+02 -1.128680E+03
       160  21  2.852829E+05  3.580307E+04 -9.849195E+03  1.176695E+05  9.563019E+02 -1.528535E+03
       160  22  3.250985E+05  5.079228E+04  6.705544E+02  1.285885E+05 -1.433731E+02 -8.365018E+02
       160  23  3.274433E+05  4.837810E+04  4.505506E+02  1.258975E+05  2.643594E+02 -1.235462E+03
       160  24  3.250941E+05  5.076195E+04  4.119801E+02  1.285999E+05  6.724773E+02 -1.635550E+03
       160  25  3.447234E+05  5.817394E+04  5.784470E+03  1.339711E+05 -4.259204E+02 -9.430537E+02
       160  26  3.571621E+05  5.954852E+04  8.138298E+03  1.340543E+05 -1.883955E+01 -1.342250E+03
       160  27  3.649069E+05  6.572099E+04  1.067306E+04  1.395309E+05  3.886317E+02 -1.742574E+03
       161   1  2.736169E+05  3.142700E+04 -1.290655E+04  1.145008E+05 -1.134515E+03  1.784476E+03
       161   2  2.658182E+05  2.521532E+04 -1.530657E+04  1.089894E+05 -1.634957E+03  2.151735E+03
       161   3  2.533263E+05  2.385962E+04 -1.744803E+04  1.089006E+05 -2.135475E+03  2.519436E+03
       161   4  3.250927E+05  5.076605E+04  4.447548E+02  1.286095E+05 -8.501375E+02  1.891690E+03
       161   5  3.274430E+05  4.836480E+04  6.329918E+02  1.258882E+05 -1.350366E+03  2.259010E+03
       161   6  3.251000E+05  5.081945E+04  1.079595E+03  1.285893E+05 -1.850676E+03  2.626770E+03
       161   7  3.765710E+05  7.010525E+04  1.379584E+04  1.427193E+05 -5.657345E+02  1.998914E+03
       161   8  3.890715E+05  7.151449E+04  1.657221E+04  1.427884E+05 -1.065745E+03  2.366297E+03
       161   9  3.968784E+05  7.777951E+04  1.960673E+04  1.482800E+05 -1.565842E+03  2.734118E+03
       161  10  2.736169E+05  3.142700E+04 -1.290656E+04  1.145008E+05 -7.633848E-09  2.536510E-09
       161  11  2.658182E+05  2.521531E+04 -1.530659E+04  1.089894E+05 -5.115454E-09  1.658232E-10
       161  12  2.533263E+05  2.385961E+04 -1.744805E+04  1.089006E+05  6.381283E-09  3.228658E-09
       161  13  3.250927E+05  5.076604E+04  4.447467E+02  1.286096E+05 -4.287793E-09  1.352329E-09
       161  14  3.274430E+05  4.836480E+04  6.329788E+02  1.258882E+05 -4.423312E-09 -6.853054E-09
       161  15  3.251000E+05  5.081944E+04  1.079576E+03  1.285893E+05  1.000885E-09  2.721389E-09
       161  16  3.765710E+05  7.010525E+04  1.379583E+04  1.427193E+05  2.500766E-09  1.996228E-09
       161  17  3.890715E+05  7.151448E+04  1.657220E+04  1.427884E+05 -3.620738E-09 -2.381351E-09
       161  18  3.968784E+05  7.777950E+04  1.960671E+04  1.482800E+05 -4.454765E-09 -3.718552E-09
       161  19  2.736169E+05  3.142700E+04 -1.290655E+04  1.145008E+05  1.134515E+03 -1.784476E+03
       161  20  2.658182E+05  2.521532E+04 -1.530657E+04  1.089894E+05  1.634957E+03 -2.151735E+03
       161  21  2.533263E+05  2.385962E+04 -1.744803E+04  1.089006E+05  2.135475E+03 -2.519436E+03
       161  22  3.250927E+05  5.076605E+04  4.447548E+02  1.286095E+05  8.501375E+02 -1.891690E+03
       161  23  3.274430E+05  4.836480E+04  6.329918E+02  1.258882E+05  1.350366E+03 -2.259010E+03
       161  24  3.251000E+05  5.081945E+04  1.079595E+03  1.285893E+05  1.850676E+03 -2.626770E+03
       161  25  3.765710E+05  7.010525E+04  1.379584E+04  1.427193E+05  5.657345E+02 -1.998914E+03
       161  26  3.890715E+05  7.151449E+04  1.657221E+04  1.427884E+05  1.065745E+03 -2.366297E+03
       161  27  3.968784E+05  7.777951E+04  1.960673E+04  1.482800E+05  1.565842E+03 -2.734118E+03
       162   1  2.415398E+05  1.944840E+04 -2.024025E+04  1.058505E+05 -2.453423E+03  2.727659E+03
       162   2  2.335949E+05  1.302123E+04 -2.178169E+04  1.001453E+05 -3.878499E+03  2.750206E+03
       162   3  2.213161E+05  1.224782E+04 -2.217459E+04  9.976018E+04 -5.297855E+03  2.757860E+03
       162   4  3.251445E+05  5.074992E+04  1.401389E+03  1.286594E+05 -2.162719E+03  2.837203E+03
       162   5  3.273581E+05  4.825907E+04  2.473992E+03  1.258723E+05 -3.596695E+03  2.856366E+03
       162   6  3.252394E+05  5.142371E+04  4.702129E+03  1.284052E+05 -5.024971E+03  2.860631E+03
       162   7  4.087563E+05  8.205199E+04  2.304252E+04  1.514713E+05 -1.871971E+03  2.946764E+03
       162   8  4.211299E+05  8.349754E+04  2.672899E+04  1.516028E+05 -3.314843E+03  2.962545E+03
       162   9  4.291733E+05  9.060031E+04  3.157795E+04  1.570545E+05 -4.752037E+03  2.963420E+03
       162  10  2.415398E+05  1.944839E+04 -2.024027E+04  1.058505E+05  8.127501E-09  7.156495E-09
       162  11  2.335949E+05  1.302122E+04 -2.178174E+04  1.001453E+05  2.339357E-09  1.469035E-08
       162  12  2.213161E+05  1.224780E+04 -2.217465E+04  9.976019E+04 -1.945669E-09 -2.151769E-09
       162  13  3.251445E+05  5.074991E+04  1.401365E+03  1.286595E+05  2.850723E-09  1.396367E-09
       162  14  3.273581E+05  4.825906E+04  2.473953E+03  1.258723E+05  6.712967E-10  2.091699E-09
       162  15  3.252394E+05  5.142369E+04  4.702067E+03  1.284052E+05  8.710183E-10  2.722430E-09
       162  16  4.087563E+05  8.205198E+04  2.304250E+04  1.514713E+05  6.630967E-10 -2.520103E-09
       162  17  4.211299E+05  8.349752E+04  2.672896E+04  1.516028E+05  3.132304E-09  6.595374E-09
       162  18  4.291733E+05  9.060030E+04  3.157789E+04  1.570546E+05  2.650372E-09  6.167909E-09
       162  19  2.415398E+05  1.944840E+04 -2.024025E+04  1.058505E+05  2.453423E+03 -2.727659E+03
       162  20  2.335949E+05  1.302123E+04 -2.178169E+04  1.001453E+05  3.878499E+03 -2.750206E+03
       162  21  2.213161E+05  1.224782E+04 -2.217459E+04  9.976018E+04  5.297855E+03 -2.757860E+03
       162  22  3.251445E+05  5.074992E+04  1.401389E+03  1.286594E+05  2.162719E+03 -2.837203E+03
       162  23  3.273581E+05  4.825907E+04  2.473992E+03  1.258723E+05  3.596695E+03 -2.856366E+03
       162  24  3.252394E+05  5.142371E+04  4.702129E+03  1.284052E+05  5.024971E+03 -2.860631E+03
       162  25  4.087563E+05  8.205199E+04  2.304252E+04  1.514713E+05  1.871971E+03 -2.946764E+03
       162  26  4.211299E+05  8.349754E+04  2.672899E+04  1.516028E+05  3.314843E+03 -2.962545E+03
       162  27  4.291733E+05  9.060031E+04  3.157795E+04  1.570545E+05  4.752037E+03 -2.963420E+03
       163   1  2.089152E+05  7.752238E+03 -2.393268E+04  9.814985E+04 -6.370607E+03  2.724674E+03
       163   2  2.007064E+05 -5.046426E+02 -2.197720E+04  9.077836E+04 -1.190888E+04  1.182919E+03
       163   3  1.916331E+05  4.917689E+03 -1.363714E+04  8.685120E+04 -1.734551E+04 -6.281490E+02
       163   4  3.256304E+05  5.049279E+04  6.079233E+03  1.290131E+05 -6.013621E+03  2.859120E+03
       163   5  3.265738E+05  4.735908E+04  1.069058E+04  1.258888E+05 -1.171042E+04  1.257581E+03
       163   6  3.266834E+05  5.793461E+04  2.181107E+04  1.262088E+05 -1.730569E+04 -6.133191E+02
       163   7  4.423584E+05  9.323390E+04  3.608992E+04  1.598813E+05 -5.656564E+03  2.993592E+03
       163   8  4.524566E+05  9.522392E+04  4.335704E+04  1.610057E+05 -1.151191E+04  1.332261E+03
       163   9  4.617518E+05  1.109533E+05  5.725786E+04  1.655744E+05 -1.726586E+04 -5.984850E+02
       163  10  2.089152E+05  7.752219E+03 -2.393277E+04  9.814986E+04  3.806396E-09  7.383141E-10
       163  11  2.007063E+05 -5.046822E+02 -2.197747E+04  9.077837E+04 -1.269346E-09 -5.386273E-09
       163  12  1.916328E+05  4.917608E+03 -1.363771E+04  8.685119E+04  6.225713E-10 -6.764319E-09
       163  13  3.256304E+05  5.049278E+04  6.079149E+03  1.290131E+05 -5.735704E-09 -3.053261E-10
       163  14  3.265737E+05  4.735904E+04  1.069032E+04  1.258888E+05  1.052335E-10 -7.370891E-10
       163  15  3.266831E+05  5.793453E+04  2.181051E+04  1.262088E+05 -2.049239E-10 -2.908750E-09
       163  16  4.423584E+05  9.323388E+04  3.608984E+04  1.598813E+05 -2.578446E-09  3.675857E-09
       163  17  4.524565E+05  9.522388E+04  4.335678E+04  1.610057E+05 -6.739361E-10  3.795768E-09
       163  18  4.617515E+05  1.109532E+05  5.725730E+04  1.655744E+05 -5.775301E-11  2.472998E-09
       163  19  2.089152E+05  7.752238E+03 -2.393268E+04  9.814985E+04  6.370607E+03 -2.724674E+03
       163  20  2.007064E+05 -5.046426E+02 -2.197720E+04  9.077836E+04  1.190888E+04 -1.182919E+03
       163  21  1.916331E+05  4.917689E+03 -1.363714E+04  8.685120E+04  1.734551E+04  6.281490E+02
       163  22  3.256304E+05  5.049279E+04  6.079233E+03  1.290131E+05  6.013621E+03 -2.859120E+03
       163  23  3.265738E+05  4.735908E+04  1.069058E+04  1.258888E+05  1.171042E+04 -1.257581E+03
       163  24  3.266834E+05  5.793461E+04  2.181107E+04  1.262088E+05  1.730569E+04  6.133191E+02
       163  25  4.423584E+05  9.323390E+04  3.608992E+04  1.598813E+05  5.656564E+03 -2.993592E+03
       163  26  4.524566E+05  9.522392E+04  4.335704E+04  1.610057E+05  1.151191E+04 -1.332261E+03
       163  27  4.617518E+05  1.109533E+05  5.725786E+04  1.655744E+05  1.726586E+04  5.984850E+02
       164   1  1.733185E+05 -3.311452E+02 -1.141769E+04  1.006804E+05 -2.272779E+04 -1.655090E+03
       164   2  1.659154E+05 -2.734412E+04  4.181984E+03  7.601109E+04 -4.493786E+04 -9.820208E+03
       164   3  1.914691E+05  4.321066E+04  6.168107E+04  3.281958E+04 -6.551213E+04 -2.232959E+04
       164   4  3.301691E+05  4.750037E+04  2.698766E+04  1.323135E+05 -2.136066E+04 -1.139934E+03
       164   5  3.191043E+05  3.847409E+04  4.538183E+04  1.265137E+05 -4.611621E+04 -1.026466E+04
       164   6  3.414898E+05  1.275032E+05  1.076838E+05  1.021947E+05 -6.923599E+04 -2.373474E+04
       164   7  4.870440E+05  9.533178E+04  6.539135E+04  1.639529E+05 -1.999314E+04 -6.246949E+02
       164   8  4.723154E+05  1.042955E+05  8.657938E+04  1.770280E+05 -4.729487E+04 -1.070928E+04
       164   9  4.915324E+05  2.118058E+05  1.536839E+05  1.715868E+05 -7.296079E+04 -2.514066E+04
       164  10  1.733179E+05 -3.312868E+02 -1.141867E+04  1.006803E+05  2.533800E-09 -1.747984E-09
       164  11  1.659132E+05 -2.734476E+04  4.178009E+03  7.601073E+04  7.560441E-10 -1.361898E-10
       164  12  1.914644E+05  4.320897E+04  6.167207E+04  3.281841E+04 -1.977695E-09 -1.456452E-09
       164  13  3.301686E+05  4.750024E+04  2.698680E+04  1.323135E+05  4.786618E-10 -4.091428E-09
       164  14  3.191020E+05  3.847340E+04  4.537764E+04  1.265133E+05 -3.395970E-09 -3.341341E-09
       164  15  3.414845E+05  1.275013E+05  1.076737E+05  1.021934E+05  2.067466E-09 -3.708199E-09
       164  16  4.870435E+05  9.533167E+04  6.539059E+04  1.639529E+05 -1.808516E-09 -4.524576E-09
       164  17  4.723130E+05  1.042948E+05  8.657496E+04  1.770276E+05 -9.407472E-10 -4.121274E-09
       164  18  4.915265E+05  2.118037E+05  1.536727E+05  1.715853E+05  1.111804E-10 -2.048761E-09
       164  19  1.733185E+05 -3.311452E+02 -1.141769E+04  1.006804E+05  2.272779E+04  1.655090E+03
       164  20  1.659154E+05 -2.734412E+04  4.181984E+03  7.601109E+04  4.493786E+04  9.820208E+03
       164  21  1.914691E+05  4.321066E+04  6.168107E+04  3.281958E+04  6.551213E+04  2.232959E+04
       164  22  3.301691E+05  4.750037E+04  2.698766E+04  1.323135E+05  2.136066E+04  1.139934E+03
       164  23  3.191043E+05  3.847409E+04  4.538183E+04  1.265137E+05  4.611621E+04  1.026466E+04
       164  24  3.414898E+05  1.275032E+05  1.076838E+05  1.021947E+05  6.923599E+04  2.373474E+04
       164  25  4.870440E+05  9.533178E+04  6.539135E+04  1.639529E+05  1.999314E+04  6.246949E+02
       164  26  4.723154E+05  1.042955E+05  8.657938E+04  1.770280E+05  4.729487E+04  1.070928E+04
       164  27  4.915324E+05  2.118058E+05  1.536839E+05  1.715868E+05  7.296079E+04  2.514066E+04
       165   1 -2.397502E+02 -4.764862E+05 -2.243210E+03 -1.339600E+02 -4.225175E+01  1.667855E+02
       165   2 -4.999507E+02 -4.777873E+05 -3.043838E+03  2.668075E+02 -8.248189E+01  1.394528E+03
       165   3 -1.461807E+03 -4.794269E+05 -4.820269E+03 -3.349827E+02 -1.437143E+02  2.622261E+03
       165   4 -1.817127E+01 -4.755893E+05 -2.033931E+03 -2.226270E+02 -4.227025E+01  1.823852E+02
       165   5  8.653661E+01 -4.754193E+05 -2.480559E+03  2.783592E+02 -8.251399E+01  1.421718E+03
       165   6 -5.124170E+02 -4.755896E+05 -3.911035E+03 -2.232109E+02 -1.437596E+02  2.661044E+03
       165   7  2.034076E+02 -4.746924E+05 -1.824651E+03 -3.112941E+02 -4.228875E+01  1.979848E+02
       165   8  6.730235E+02 -4.730512E+05 -1.917281E+03  2.899109E+02 -8.254610E+01  1.448908E+03
       165   9  4.369721E+02 -4.717523E+05 -3.001803E+03 -1.114383E+02 -1.438048E+02  2.699827E+03
       165  10 -2.397502E+02 -4.764862E+05 -2.243210E+03 -1.339600E+02  9.637532E-10  6.441811E-09
       165  11 -4.999513E+02 -4.777873E+05 -3.043842E+03  2.668076E+02 -3.393897E-09  2.140272E-09
       165  12 -1.461809E+03 -4.794269E+05 -4.820282E+03 -3.349824E+02 -4.143150E-09 -1.611956E-09
       165  13 -1.817128E+01 -4.755893E+05 -2.033931E+03 -2.226270E+02  5.057295E-09  2.080468E-11
       165  14  8.653606E+01 -4.754193E+05 -2.480563E+03  2.783593E+02  1.318097E-09 -3.449303E-09
       165  15 -5.124189E+02 -4.755896E+05 -3.911049E+03 -2.232106E+02  5.196878E-11  1.038209E-10
       165  16  2.034076E+02 -4.746924E+05 -1.824651E+03 -3.112941E+02  2.625218E-09 -5.916451E-09
       165  17  6.730230E+02 -4.730512E+05 -1.917285E+03  2.899110E+02 -1.203357E-09 -1.431358E-09
       165  18  4.369702E+02 -4.717523E+05 -3.001817E+03 -1.114380E+02  9.123883E-10  4.654897E-09
       165  19 -2.397502E+02 -4.764862E+05 -2.243210E+03 -1.339600E+02  4.225175E+01 -1.667855E+02
       165  20 -4.999507E+02 -4.777873E+05 -3.043838E+03  2.668075E+02  8.248189E+01 -1.394528E+03
       165  21 -1.461807E+03 -4.794269E+05 -4.820269E+03 -3.349827E+02  1.437143E+02 -2.622261E+03
       165  22 -1.817127E+01 -4.755893E+05 -2.033931E+03 -2.226270E+02  4.227025E+01 -1.823852E+02
       165  23  8.653661E+01 -4.754193E+05 -2.480559E+03  2.783592E+02  8.251399E+01 -1.421718E+03
       165  24 -5.124170E+02 -4.755896E+05 -3.911035E+03 -2.232109E+02  1.437596E+02 -2.661044E+03
       165  25  2.034076E+02 -4.746924E+05 -1.824651E+03 -3.112941E+02  4.228875E+01 -1.979848E+02
       165  26  6.730235E+02 -4.730512E+05 -1.917281E+03  2.899109E+02  8.254610E+01 -1.448908E+03
       165  27  4.369721E+02 -4.717523E+05 -3.001803E+03 -1.114383E+02  1.438048E+02 -2.699827E+03
       166   1 -1.113396E+03 -4.816220E+05 -6.209704E+03  5.825033E+02 -1.869462E+02  3.398204E+03
       166   2 -1.034279E+03 -4.820014E+05 -9.673627E+03 -1.260246E+02 -2.512978E+02  7.487775E+03
       166   3 -7.499003E+03 -4.845529E+05 -1.743809E+04 -1.836187E+03 -2.961795E+02  1.157735E+04
       166   4  2.830595E+02 -4.759960E+05 -4.867729E+03 -2.205459E+02 -1.869956E+02  3.436438E+03
       166   5  7.204087E+02 -4.749119E+05 -7.987691E+03  2.769468E+02 -2.513250E+02  7.515302E+03
       166   6 -5.384183E+03 -4.759980E+05 -1.540071E+04 -2.271953E+02 -2.961688E+02  1.159417E+04
       166   7  1.679515E+03 -4.703700E+05 -3.525756E+03 -1.023602E+03 -1.870450E+02  3.474673E+03
       166   8  2.475094E+03 -4.678224E+05 -6.301759E+03  6.799229E+02 -2.513522E+02  7.542829E+03
       166   9 -3.269359E+03 -4.674431E+05 -1.336334E+04  1.381818E+03 -2.961580E+02  1.161100E+04
       166  10 -1.113399E+03 -4.816220E+05 -6.209726E+03  5.825038E+02 -2.149087E-09 -1.284184E-09
       166  11 -1.034294E+03 -4.820014E+05 -9.673732E+03 -1.260231E+02 -4.710333E-10 -3.248035E-09
       166  12 -7.499039E+03 -4.845530E+05 -1.743834E+04 -1.836184E+03 -4.475585E-10 -3.120430E-09
       166  13  2.830562E+02 -4.759960E+05 -4.867751E+03 -2.205454E+02 -2.287950E-09  1.666421E-11
       166  14  7.203935E+02 -4.749120E+05 -7.987798E+03  2.769484E+02  1.084582E-10 -8.742323E-10
       166  15 -5.384219E+03 -4.759982E+05 -1.540096E+04 -2.271926E+02  2.240551E-09  3.421585E-10
       166  16  1.679512E+03 -4.703700E+05 -3.525779E+03 -1.023602E+03  8.378582E-10  1.301306E-09
       166  17  2.475078E+03 -4.678225E+05 -6.301866E+03  6.799244E+02  4.147019E-09  5.989895E-09
       166  18 -3.269395E+03 -4.674432E+05 -1.336359E+04  1.381821E+03  1.477972E-10  4.516443E-09
       166  19 -1.113396E+03 -4.816220E+05 -6.209704E+03  5.825033E+02  1.869462E+02 -3.398204E+03
       166  20 -1.034279E+03 -4.820014E+05 -9.673627E+03 -1.260246E+02  2.512978E+02 -7.487775E+03
       166  21 -7.499003E+03 -4.845529E+05 -1.743809E+04 -1.836187E+03  2.961795E+02 -1.157735E+04
       166  22  2.830595E+02 -4.759960E+05 -4.867729E+03 -2.205459E+02  1.869956E+02 -3.436438E+03
       166  23  7.204087E+02 -4.749119E+05 -7.987691E+03  2.769468E+02  2.513250E+02 -7.515302E+03
       166  24 -5.384183E+03 -4.759980E+05 -1.540071E+04 -2.271953E+02  2.961688E+02 -1.159417E+04
       166  25  1.679515E+03 -4.703700E+05 -3.525756E+03 -1.023602E+03  1.870450E+02 -3.474673E+03
       166  26  2.475094E+03 -4.678224E+05 -6.301759E+03  6.799229E+02  2.513522E+02 -7.542829E+03
       166  27 -3.269359E+03 -4.674431E+05 -1.336334E+04  1.381818E+03  2.961580E+02 -1.161100E+04
       167   1  3.445723E+02 -4.899705E+05 -2.134913E+04  7.379777E+03 -3.780329E+02  1.438834E+04
       167   2  4.100533E+03 -4.821113E+05 -3.319385E+04 -5.219247E+03 -4.403837E+02  3.093009E+04
       167   3 -5.825060E+04 -4.929402E+05 -7.234078E+04 -1.884941E+04 -1.926048E+02  4.747199E+04
       167   4  2.919925E+03 -4.796591E+05 -1.889529E+04 -2.088147E+02 -3.783362E+02  1.449774E+04
       167   5  7.000714E+03 -4.703365E+05 -3.039699E+04  2.734252E+02 -4.400370E+02  3.086830E+04
       167   6 -5.499582E+04 -4.796723E+05 -6.908167E+04 -2.759083E+02 -1.909131E+02  4.723904E+04
       167   7  5.495487E+03 -4.693474E+05 -1.644143E+04 -7.797533E+03 -3.786422E+02  1.460714E+04
       167   8  9.900998E+03 -4.585615E+05 -2.760012E+04  5.766203E+03 -4.396913E+02  3.080650E+04
       167   9 -5.173975E+04 -4.664034E+05 -6.582239E+04  1.829799E+04 -1.892353E+02  4.700608E+04
       167  10  3.445165E+02 -4.899707E+05 -2.134952E+04  7.379781E+03  2.389375E-09 -1.609281E-09
       167  11  4.100276E+03 -4.821123E+05 -3.319565E+04 -5.219237E+03  5.158309E-09 -1.126882E-09
       167  12 -5.825121E+04 -4.929426E+05 -7.234502E+04 -1.884940E+04  2.367784E-09  9.601024E-10
       167  13  2.919869E+03 -4.796593E+05 -1.889569E+04 -2.088102E+02  2.781688E-09  2.198637E-09
       167  14  7.000458E+03 -4.703375E+05 -3.039878E+04  2.734362E+02 -1.817698E-09 -4.645411E-09
       167  15 -5.499642E+04 -4.796747E+05 -6.908587E+04 -2.759010E+02 -2.502773E-09  1.074571E-09
       167  16  5.495429E+03 -4.693476E+05 -1.644183E+04 -7.797528E+03  3.095703E-09  2.162621E-09
       167  17  9.900743E+03 -4.585625E+05 -2.760190E+04  5.766214E+03  1.718002E-09  5.885460E-09
       167  18 -5.174035E+04 -4.664058E+05 -6.582654E+04  1.829800E+04  8.077923E-10  3.710711E-09
       167  19  3.445723E+02 -4.899705E+05 -2.134913E+04  7.379777E+03  3.780329E+02 -1.438834E+04
       167  20  4.100533E+03 -4.821113E+05 -3.319385E+04 -5.219247E+03  4.403837E+02 -3.093009E+04
       167  21 -5.825060E+04 -4.929402E+05 -7.234078E+04 -1.884941E+04  1.926048E+02 -4.747199E+04
       167  22  2.919925E+03 -4.796591E+05 -1.889529E+04 -2.088147E+02  3.783362E+02 -1.449774E+04
       167  23  7.000714E+03 -4.703365E+05 -3.039699E+04  2.734252E+02  4.400370E+02 -3.086830E+04
       167  24 -5.499582E+04 -4.796723E+05 -6.908167E+04 -2.759083E+02  1.909131E+02 -4.723904E+04
       167  25  5.495487E+03 -4.693474E+05 -1.644143E+04 -7.797533E+03  3.786422E+02 -1.460714E+04
       167  26  9.900998E+03 -4.585615E+05 -2.760012E+04  5.766203E+03  4.396913E+02 -3.080650E+04
       167  27 -5.173975E+04 -4.664034E+05 -6.582239E+04  1.829799E+04  1.892353E+02 -4.700608E+04
       168   1  3.453785E-01  9.271355E-02  1.566071E+01  8.522480E-03 -1.418913E+00 -9.461594E-03
       168   2 -4.319797E-01 -2.057656E-01  1.932246E+01  9.162631E-03 -1.098696E+01 -7.326307E-02
       168   3  3.453032E-01  7.308369E-01  2.952230E+01  1.193703E-02 -2.055486E+01 -1.370636E-01
       168   4  3.454690E-01  9.262116E-02  1.566071E+01  1.686880E-03 -1.418913E+00 -9.461584E-03
       168   5 -4.318363E-01 -2.059025E-01  1.932246E+01 -1.506493E-03 -1.098696E+01 -7.326305E-02
       168   6  3.454981E-01  7.306491E-01  2.952230E+01 -2.568308E-03 -2.055486E+01 -1.370636E-01
       168   7  3.455595E-01  9.252847E-02  1.566071E+01 -5.151194E-03 -1.418913E+00 -9.461576E-03
       168   8 -4.316929E-01 -2.060399E-01  1.932246E+01 -1.217651E-02 -1.098696E+01 -7.326305E-02
       168   9  3.456948E-01  7.304693E-01  2.952231E+01 -1.707421E-02 -2.055486E+01 -1.370636E-01
       168  10  3.453774E-01  9.270947E-02  1.566071E+01  8.521870E-03  2.375668E-09 -3.264531E-09
       168  11 -4.319789E-01 -2.057618E-01  1.932246E+01  9.164903E-03 -1.534995E-09 -4.860058E-09
       168  12  3.453037E-01  7.308401E-01  2.952230E+01  1.193747E-02 -1.235427E-11  2.233465E-09
       168  13  3.454694E-01  9.262265E-02  1.566071E+01  1.686351E-03 -5.262620E-10 -4.884613E-09
       168  14 -4.318366E-01 -2.059034E-01  1.932246E+01 -1.506673E-03 -2.309209E-09  6.117600E-10
       168  15  3.454974E-01  7.306482E-01  2.952230E+01 -2.568582E-03 -1.851082E-09  4.050708E-09
       168  16  3.455614E-01  9.253583E-02  1.566072E+01 -5.150573E-03  3.178185E-10  6.070775E-09
       168  17 -4.316925E-01 -2.060377E-01  1.932246E+01 -1.217762E-02 -1.678488E-09 -1.087358E-08
       168  18  3.456896E-01  7.304510E-01  2.952230E+01 -1.707264E-02 -2.221092E-09 -4.545212E-09
       168  19  3.453792E-01  9.271716E-02  1.566072E+01  8.523621E-03  1.418913E+00  9.461580E-03
       168  20 -4.319784E-01 -2.057601E-01  1.932246E+01  9.163600E-03  1.098696E+01  7.326308E-02
       168  21  3.453056E-01  7.308457E-01  2.952231E+01  1.193705E-02  2.055486E+01  1.370636E-01
       168  22  3.454700E-01  9.262522E-02  1.566072E+01  1.686323E-03  1.418913E+00  9.461578E-03
       168  23 -4.318368E-01 -2.059045E-01  1.932246E+01 -1.506462E-03  1.098696E+01  7.326306E-02
       168  24  3.454975E-01  7.306469E-01  2.952230E+01 -2.568536E-03  2.055486E+01  1.370636E-01
       168  25  3.455626E-01  9.254026E-02  1.566072E+01 -5.150911E-03  1.418913E+00  9.461574E-03
       168  26 -4.316952E-01 -2.060490E-01  1.932246E+01 -1.217706E-02  1.098696E+01  7.326306E-02
       168  27  3.456914E-01  7.304561E-01  2.952230E+01 -1.707386E-02  2.055486E+01  1.370636E-01
       169   1  1.354849E+00 -3.134588E-02  3.757814E+01  7.927207E-02 -2.663565E+01 -1.776115E-01
       169   2 -1.695402E+00 -1.344974E+00  6.315126E+01  4.399896E-02 -5.798925E+01 -3.866831E-01
       169   3  1.355726E+00  5.416725E+00  1.111560E+02 -4.433210E-03 -8.934331E+01 -5.957578E-01
       169   4  1.355783E+00 -3.227502E-02  3.757814E+01  9.256796E-03 -2.663565E+01 -1.776115E-01
       169   5 -1.694785E+00 -1.345594E+00  6.315126E+01 -2.328381E-03 -5.798925E+01 -3.866831E-01
       169   6  1.356029E+00  5.416424E+00  1.111560E+02 -2.707674E-02 -8.934331E+01 -5.957578E-01
       169   7  1.356719E+00 -3.319893E-02  3.757814E+01 -6.076047E-02 -2.663565E+01 -1.776115E-01
       169   8 -1.694166E+00 -1.346208E+00  6.315126E+01 -4.865693E-02 -5.798925E+01 -3.866830E-01
       169   9  1.356332E+00  5.416127E+00  1.111560E+02 -4.972026E-02 -8.934331E+01 -5.957578E-01
       169  10  1.354849E+00 -3.134279E-02  3.757814E+01  7.927108E-02  1.395275E-09  2.139575E-09
       169  11 -1.695405E+00 -1.344974E+00  6.315125E+01  4.400122E-02 -5.519878E-10  1.950956E-09
       169  12  1.355718E+00  5.416721E+00  1.111560E+02 -4.432939E-03  6.467349E-10 -5.364889E-09
       169  13  1.355783E+00 -3.227371E-02  3.757814E+01  9.256227E-03 -5.335978E-10  1.776644E-09
       169  14 -1.694788E+00 -1.345595E+00  6.315125E+01 -2.328624E-03 -1.550464E-09  1.047427E-08
       169  15  1.356020E+00  5.416423E+00  1.111560E+02 -2.707693E-02 -1.351538E-09 -1.864516E-09
       169  16  1.356716E+00 -3.320759E-02  3.757814E+01 -6.075923E-02  1.014318E-09 -2.165929E-09
       169  17 -1.694171E+00 -1.346215E+00  6.315125E+01 -4.865772E-02 -2.732571E-09  4.731699E-09
       169  18  1.356320E+00  5.416114E+00  1.111560E+02 -4.971965E-02 -2.286432E-09 -1.327671E-09
       169  19  1.354850E+00 -3.134115E-02  3.757814E+01  7.927202E-02  2.663565E+01  1.776115E-01
       169  20 -1.695401E+00 -1.344971E+00  6.315126E+01  4.400000E-02  5.798925E+01  3.866831E-01
       169  21  1.355726E+00  5.416721E+00  1.111560E+02 -4.433153E-03  8.934331E+01  5.957578E-01
       169  22  1.355783E+00 -3.227610E-02  3.757814E+01  9.256461E-03  2.663565E+01  1.776115E-01
       169  23 -1.694785E+00 -1.345594E+00  6.315126E+01 -2.328590E-03  5.798925E+01  3.866831E-01
       169  24  1.356029E+00  5.416424E+00  1.111560E+02 -2.707708E-02  8.934331E+01  5.957578E-01
       169  25  1.356715E+00 -3.321509E-02  3.757814E+01 -6.075927E-02  2.663565E+01  1.776115E-01
       169  26 -1.694166E+00 -1.346210E+00  6.315126E+01 -4.865815E-02  5.798925E+01  3.866831E-01
       169  27  1.356331E+00  5.416125E+00  1.111560E+02 -4.972081E-02  8.934331E+01  5.957578E-01
       170   1  6.671787E+00 -6.531738E-01  1.452655E+02  4.653244E-01 -1.125843E+02 -7.507329E-01
       170   2 -8.348593E+00 -9.218139E+00  2.498287E+02  1.187327E-01 -2.371035E+02 -1.581050E+00
       170   3  6.681635E+00  3.755818E+01  4.492968E+02 -3.965058E-01 -3.616227E+02 -2.411367E+00
       170   4  6.677342E+00 -6.587225E-01  1.452655E+02  4.892089E-02 -1.125843E+02 -7.507328E-01
       170   5 -8.347086E+00 -9.219645E+00  2.498287E+02  5.818688E-03 -2.371035E+02 -1.581050E+00
       170   6  6.679097E+00  3.756074E+01  4.492968E+02 -2.059336E-01 -3.616227E+02 -2.411367E+00
       170   7  6.682898E+00 -6.642686E-01  1.452655E+02 -3.674844E-01 -1.125843E+02 -7.507328E-01
       170   8 -8.345580E+00 -9.221149E+00  2.498287E+02 -1.070958E-01 -2.371035E+02 -1.581050E+00
       170   9  6.676559E+00  3.756329E+01  4.492968E+02 -1.536230E-02 -3.616227E+02 -2.411367E+00
       170  10  6.671774E+00 -6.531743E-01  1.452654E+02  4.653224E-01  1.433562E-09 -4.513226E-09
       170  11 -8.348652E+00 -9.218151E+00  2.498286E+02  1.187341E-01 -8.811742E-10 -2.667496E-09
       170  12  6.681497E+00  3.755816E+01  4.492966E+02 -3.965061E-01  1.397064E-09  3.376477E-09
       170  13  6.677329E+00 -6.587248E-01  1.452654E+02  4.892020E-02 -5.095130E-10 -2.182552E-09
       170  14 -8.347146E+00 -9.219658E+00  2.498286E+02  5.818214E-03 -1.533455E-09  1.639731E-09
       170  15  6.678957E+00  3.756070E+01  4.492966E+02 -2.059346E-01 -1.325637E-09 -1.271873E-09
       170  16  6.682882E+00 -6.642798E-01  1.452654E+02 -3.674825E-01  5.065111E-10 -4.329054E-09
       170  17 -8.345639E+00 -9.221162E+00  2.498286E+02 -1.070967E-01 -2.176399E-09  1.133493E-08
       170  18  6.676415E+00  3.756324E+01  4.492966E+02 -1.536116E-02 -2.829368E-09  3.140617E-09
       170  19  6.671788E+00 -6.531702E-01  1.452655E+02  4.653247E-01  1.125843E+02  7.507329E-01
       170  20 -8.348592E+00 -9.218138E+00  2.498287E+02  1.187328E-01  2.371035E+02  1.581050E+00
       170  21  6.681636E+00  3.755819E+01  4.492968E+02 -3.965058E-01  3.616227E+02  2.411367E+00
       170  22  6.677342E+00 -6.587214E-01  1.452655E+02  4.892065E-02  1.125843E+02  7.507328E-01
       170  23 -8.347085E+00 -9.219640E+00  2.498287E+02  5.818669E-03  2.371035E+02  1.581050E+00
       170  24  6.679097E+00  3.756073E+01  4.492968E+02 -2.059342E-01  3.616227E+02  2.411367E+00
       170  25  6.682897E+00 -6.642727E-01  1.452655E+02 -3.674830E-01  1.125843E+02  7.507327E-01
       170  26 -8.345579E+00 -9.221146E+00  2.498287E+02 -1.070968E-01  2.371035E+02  1.581050E+00
       170  27  6.676558E+00  3.756329E+01  4.492968E+02 -1.536213E-02  3.616227E+02  2.411367E+00
       171   1  3.486586E+01 -5.825089E+00  5.848855E+02  2.757482E+00 -4.553852E+02 -3.036595E+00
       171   2 -4.362577E+01 -6.116823E+01  9.993340E+02  8.093999E-02 -9.564740E+02 -6.377946E+00
       171   3  3.494544E+01  2.506910E+02  1.831826E+03 -3.996871E+00 -1.457556E+03 -9.719245E+00
       171   4  3.489902E+01 -5.858234E+00  5.848855E+02  2.717895E-01 -4.553852E+02 -3.036593E+00
       171   5 -4.362625E+01 -6.116776E+01  9.993340E+02  1.169753E-01 -9.564740E+02 -6.377946E+00
       171   6  3.491133E+01  2.507251E+02  1.831826E+03 -1.439150E+00 -1.457556E+03 -9.719251E+00
       171   7  3.493217E+01 -5.891374E+00  5.848855E+02 -2.213904E+00 -4.553852E+02 -3.036591E+00
       171   8 -4.362673E+01 -6.116728E+01  9.993340E+02  1.530097E-01 -9.564740E+02 -6.377946E+00
       171   9  3.487722E+01  2.507592E+02  1.831826E+03  1.118569E+00 -1.457556E+03 -9.719257E+00
       171  10  3.486564E+01 -5.825140E+00  5.848851E+02  2.757478E+00  1.785569E-09  9.485421E-10
       171  11 -4.362675E+01 -6.116848E+01  9.993323E+02  8.093731E-02 -1.430157E-09 -4.284297E-09
       171  12  3.494316E+01  2.506904E+02  1.831822E+03 -3.996882E+00 -8.697919E-10  2.765555E-09
       171  13  3.489879E+01 -5.858289E+00  5.848851E+02  2.717879E-01 -1.092741E-09  6.332099E-09
       171  14 -4.362723E+01 -6.116800E+01  9.993323E+02  1.169701E-01 -2.853796E-09 -2.575799E-10
       171  15  3.490905E+01  2.507245E+02  1.831822E+03 -1.439162E+00 -1.603274E-09  2.486160E-09
       171  16  3.493195E+01 -5.891442E+00  5.848851E+02 -2.213904E+00 -1.651025E-10 -2.823121E-09
       171  17 -4.362771E+01 -6.116753E+01  9.993323E+02  1.530039E-01 -1.013503E-09  1.172339E-10
       171  18  3.487494E+01  2.507587E+02  1.831822E+03  1.118560E+00 -3.796154E-09  6.183160E-09
       171  19  3.486586E+01 -5.825087E+00  5.848855E+02  2.757481E+00  4.553852E+02  3.036595E+00
       171  20 -4.362577E+01 -6.116824E+01  9.993340E+02  8.094023E-02  9.564740E+02  6.377946E+00
       171  21  3.494544E+01  2.506910E+02  1.831826E+03 -3.996871E+00  1.457556E+03  9.719245E+00
       171  22  3.489902E+01 -5.858235E+00  5.848855E+02  2.717891E-01  4.553852E+02  3.036593E+00
       171  23 -4.362625E+01 -6.116776E+01  9.993340E+02  1.169753E-01  9.564740E+02  6.377946E+00
       171  24  3.491133E+01  2.507251E+02  1.831826E+03 -1.439151E+00  1.457556E+03  9.719251E+00
       171  25  3.493217E+01 -5.891384E+00  5.848855E+02 -2.213903E+00  4.553852E+02  3.036591E+00
       171  26 -4.362673E+01 -6.116727E+01  9.993340E+02  1.530088E-01  9.564740E+02  6.377946E+00
       171  27  3.487722E+01  2.507592E+02  1.831826E+03  1.118569E+00  1.457556E+03  9.719258E+00
       172   1  1.909471E+02 -4.365545E+01  2.363436E+03  1.667132E+01 -1.838126E+03 -1.225701E+01
       172   2 -2.389033E+02 -3.981182E+02  3.985982E+03 -2.190204E+00 -3.855775E+03 -2.571100E+01
       172   3  1.915260E+02  1.637334E+03  7.519638E+03 -3.125232E+01 -5.873458E+03 -3.916510E+01
       172   4  1.911486E+02 -4.385689E+01  2.363436E+03  1.567130E+00 -1.838126E+03 -1.225697E+01
       172   5 -2.389467E+02 -3.980748E+02  3.985982E+03  1.061144E+00 -3.855775E+03 -2.571102E+01
       172   6  1.912378E+02  1.637622E+03  7.519638E+03 -9.645187E+00 -5.873458E+03 -3.916531E+01
       172   7  1.913500E+02 -4.405833E+01  2.363436E+03 -1.353706E+01 -1.838126E+03 -1.225692E+01
       172   8 -2.389900E+02 -3.980314E+02  3.985982E+03  4.312490E+00 -3.855775E+03 -2.571104E+01
       172   9  1.909497E+02  1.637910E+03  7.519638E+03  1.196194E+01 -5.873458E+03 -3.916551E+01
       172  10  1.909435E+02 -4.365635E+01  2.363430E+03  1.667130E+01  2.084167E-09 -4.239043E-09
       172  11 -2.389193E+02 -3.981222E+02  3.985954E+03 -2.190281E+00 -2.101612E-09 -1.839150E-08
       172  12  1.914890E+02  1.637325E+03  7.519573E+03 -3.125250E+01 -3.188304E-11  4.792122E-09
       172  13  1.911450E+02 -4.385779E+01  2.363430E+03  1.567112E+00 -5.184912E-10 -8.251923E-10
       172  14 -2.389626E+02 -3.980788E+02  3.985954E+03  1.061063E+00 -3.100765E-09 -4.466856E-09
       172  15  1.912008E+02  1.637613E+03  7.519573E+03 -9.645372E+00 -1.540058E-09  3.970693E-09
       172  16  1.913464E+02 -4.405924E+01  2.363430E+03 -1.353708E+01 -1.470489E-10 -1.548319E-09
       172  17 -2.390060E+02 -3.980354E+02  3.985954E+03  4.312409E+00 -2.391933E-09 -2.746873E-09
       172  18  1.909126E+02  1.637901E+03  7.519573E+03  1.196176E+01 -1.634596E-09  4.145979E-09
       172  19  1.909471E+02 -4.365546E+01  2.363436E+03  1.667132E+01  1.838126E+03  1.225701E+01
       172  20 -2.389033E+02 -3.981182E+02  3.985982E+03 -2.190204E+00  3.855775E+03  2.571100E+01
       172  21  1.915260E+02  1.637334E+03  7.519638E+03 -3.125232E+01  5.873458E+03  3.916510E+01
       172  22  1.911486E+02 -4.385689E+01  2.363436E+03  1.567130E+00  1.838126E+03  1.225697E+01
       172  23 -2.389467E+02 -3.980748E+02  3.985982E+03  1.061143E+00  3.855775E+03  2.571102E+01
       172  24  1.912378E+02  1.637622E+03  7.519638E+03 -9.645187E+00  5.873458E+03  3.916531E+01
       172  25  1.913500E+02 -4.405833E+01  2.363436E+03 -1.353706E+01  1.838126E+03  1.225692E+01
       172  26 -2.389900E+02 -3.980314E+02  3.985982E+03  4.312489E+00  3.855775E+03  2.571104E+01
       172  27  1.909497E+02  1.637910E+03  7.519638E+03  1.196194E+01  5.873458E+03  3.916551E+01
       173   1  1.088016E+03 -3.032963E+02  9.567919E+03  1.022734E+02 -7.424617E+03 -4.950984E+01
       173   2 -1.361114E+03 -2.561466E+03  1.580547E+04 -2.471045E+01 -1.554641E+04 -1.036655E+02
       173   3  1.092083E+03  1.055661E+04  3.117535E+04 -2.215391E+02 -2.366826E+04 -1.578183E+02
       173   4  1.089256E+03 -3.045364E+02  9.567919E+03  9.294480E+00 -7.424617E+03 -4.950873E+01
       173   5 -1.361551E+03 -2.561029E+03  1.580547E+04  7.998702E+00 -1.554641E+04 -1.036664E+02
       173   6  1.089971E+03  1.055872E+04  3.117535E+04 -6.314219E+01 -2.366826E+04 -1.578244E+02
       173   7  1.090496E+03 -3.057764E+02  9.567919E+03 -8.368448E+01 -7.424617E+03 -4.950761E+01
       173   8 -1.361987E+03 -2.560593E+03  1.580547E+04  4.070785E+01 -1.554641E+04 -1.036672E+02
       173   9  1.087858E+03  1.056083E+04  3.117535E+04  9.525473E+01 -2.366826E+04 -1.578304E+02
       173  10  1.087957E+03 -3.033111E+02  9.567815E+03  1.022731E+02  1.152767E-09  7.904977E-09
       173  11 -1.361374E+03 -2.561530E+03  1.580502E+04 -2.471174E+01 -9.128457E-10 -1.843389E-09
       173  12  1.091482E+03  1.055646E+04  3.117429E+04 -2.215421E+02  1.857337E-10 -1.986334E-09
       173  13  1.089197E+03 -3.045512E+02  9.567815E+03  9.294184E+00  5.152135E-10  5.666093E-09
       173  14 -1.361810E+03 -2.561094E+03  1.580502E+04  7.997404E+00 -2.599306E-09  2.111202E-09
       173  15  1.089369E+03  1.055857E+04  3.117429E+04 -6.314520E+01 -1.258491E-09  4.101671E-09
       173  16  1.090437E+03 -3.057912E+02  9.567815E+03 -8.368477E+01  1.143669E-10  3.011031E-09
       173  17 -1.362246E+03 -2.560658E+03  1.580502E+04  4.070655E+01 -1.508733E-10 -9.004145E-09
       173  18  1.087257E+03  1.056068E+04  3.117429E+04  9.525173E+01 -3.129020E-09  1.262567E-09
       173  19  1.088016E+03 -3.032963E+02  9.567919E+03  1.022734E+02  7.424617E+03  4.950984E+01
       173  20 -1.361114E+03 -2.561466E+03  1.580547E+04 -2.471045E+01  1.554641E+04  1.036655E+02
       173  21  1.092083E+03  1.055661E+04  3.117535E+04 -2.215391E+02  2.366826E+04  1.578183E+02
       173  22  1.089256E+03 -3.045364E+02  9.567919E+03  9.294480E+00  7.424617E+03  4.950873E+01
       173  23 -1.361551E+03 -2.561029E+03  1.580547E+04  7.998702E+00  1.554641E+04  1.036664E+02
       173  24  1.089971E+03  1.055872E+04  3.117535E+04 -6.314219E+01  2.366826E+04  1.578244E+02
       173  25  1.090496E+03 -3.057764E+02  9.567919E+03 -8.368448E+01  7.424617E+03  4.950761E+01
       173  26 -1.361987E+03 -2.560593E+03  1.580547E+04  4.070785E+01  1.554641E+04  1.036672E+02
       173  27  1.087858E+03  1.056083E+04  3.117535E+04  9.525473E+01  2.366826E+04  1.578304E+02
       174   1  6.395572E+03 -2.026336E+03  3.883716E+04  6.336639E+02 -3.003127E+04 -2.002820E+02
       174   2 -7.999074E+03 -1.636387E+04  6.207766E+04 -1.998353E+02 -6.270524E+04 -4.181044E+02
       174   3  6.424517E+03  6.752893E+04  1.311549E+05 -1.496199E+03 -9.537916E+04 -6.358387E+02
       174   4  6.403272E+03 -2.034037E+03  3.883716E+04  5.626405E+01 -3.003127E+04 -2.002541E+02
       174   5 -8.002482E+03 -1.636046E+04  6.207766E+04  5.573501E+01 -6.270524E+04 -4.181302E+02
       174   6  6.409998E+03  6.754345E+04  1.311549E+05 -4.076673E+02 -9.537916E+04 -6.360059E+02
       174   7  6.410973E+03 -2.041737E+03  3.883716E+04 -5.211358E+02 -3.003127E+04 -2.002261E+02
       174   8 -8.005891E+03 -1.635705E+04  6.207766E+04  3.113053E+02 -6.270524E+04 -4.181560E+02
       174   9  6.395482E+03  6.755797E+04  1.311549E+05  6.808644E+02 -9.537916E+04 -6.361732E+02
       174  10  6.394603E+03 -2.026578E+03  3.883547E+04  6.336590E+02  1.778697E-09 -3.813942E-09
       174  11 -8.003296E+03 -1.636492E+04  6.207027E+04 -1.998564E+02 -1.870493E-09  5.309727E-09
       174  12  6.414749E+03  6.752649E+04  1.311378E+05 -1.496248E+03  1.437640E-11  1.923481E-11
       174  13  6.402304E+03 -2.034279E+03  3.883547E+04  5.625921E+01 -1.076154E-09 -1.482788E-09
       174  14 -8.006704E+03 -1.636151E+04  6.207027E+04  5.571390E+01 -2.566629E-09 -9.951466E-09
       174  15  6.400230E+03  6.754100E+04  1.311378E+05 -4.077162E+02 -1.196773E-09  1.501412E-09
       174  16  6.410005E+03 -2.041980E+03  3.883547E+04 -5.211406E+02  1.239747E-09 -4.906982E-10
       174  17 -8.010113E+03 -1.635810E+04  6.207027E+04  3.112842E+02  3.573776E-10 -5.640367E-09
       174  18  6.385714E+03  6.755552E+04  1.311378E+05  6.808156E+02 -2.049105E-09  1.176355E-09
       174  19  6.395572E+03 -2.026336E+03  3.883716E+04  6.336639E+02  3.003127E+04  2.002820E+02
       174  20 -7.999074E+03 -1.636387E+04  6.207766E+04 -1.998353E+02  6.270524E+04  4.181044E+02
       174  21  6.424517E+03  6.752893E+04  1.311549E+05 -1.496199E+03  9.537916E+04  6.358387E+02
       174  22  6.403272E+03 -2.034037E+03  3.883716E+04  5.626405E+01  3.003127E+04  2.002541E+02
       174  23 -8.002482E+03 -1.636046E+04  6.207766E+04  5.573501E+01  6.270524E+04  4.181302E+02
       174  24  6.409998E+03  6.754345E+04  1.311549E+05 -4.076673E+02  9.537916E+04  6.360059E+02
       174  25  6.410973E+03 -2.041737E+03  3.883716E+04 -5.211358E+02  3.003127E+04  2.002261E+02
       174  26 -8.005891E+03 -1.635705E+04  6.207766E+04  3.113053E+02  6.270524E+04  4.181560E+02
       174  27  6.395482E+03  6.755797E+04  1.311549E+05  6.808644E+02  9.537916E+04  6.361732E+02
       175   1  3.847089E+04 -1.323924E+04  1.583031E+05  3.951758E+03 -1.217408E+05 -8.124977E+02
       175   2 -4.809010E+04 -1.040756E+05  2.400527E+05 -1.437695E+03 -2.530581E+05 -1.686700E+03
       175   3  3.868975E+04  4.298619E+05  5.635643E+05 -9.838218E+03 -3.843716E+05 -2.558586E+03
       175   4  3.851897E+04 -1.328736E+04  1.583031E+05  3.454696E+02 -1.217408E+05 -8.117905E+02
       175   5 -4.811425E+04 -1.040515E+05  2.400527E+05  3.730165E+02 -2.530581E+05 -1.687439E+03
       175   6  3.859329E+04  4.299582E+05  5.635643E+05 -2.609810E+03 -3.843716E+05 -2.563061E+03
       175   7  3.856708E+04 -1.333543E+04  1.583031E+05 -3.260819E+03 -1.217408E+05 -8.110833E+02
       175   8 -4.813840E+04 -1.040273E+05  2.400527E+05  2.183728E+03 -2.530581E+05 -1.688177E+03
       175   9  3.849694E+04  4.300547E+05  5.635643E+05  4.618597E+03 -3.843716E+05 -2.567537E+03
       175  10  3.845498E+04 -1.324322E+04  1.582752E+05  3.951679E+03  2.748966E-09  1.255086E-09
       175  11 -4.815885E+04 -1.040928E+05  2.399324E+05 -1.438038E+03 -1.702878E-10 -4.567132E-09
       175  12  3.853118E+04  4.298222E+05  5.632867E+05 -9.839010E+03 -6.843453E-10 -5.900068E-09
       175  13  3.850306E+04 -1.329134E+04  1.582752E+05  3.453900E+02 -5.498005E-10  6.777905E-09
       175  14 -4.818300E+04 -1.040687E+05  2.399324E+05  3.726727E+02 -1.003241E-09  6.431685E-09
       175  15  3.843472E+04  4.299186E+05  5.632867E+05 -2.610603E+03 -5.644121E-10 -2.551940E-09
       175  16  3.855117E+04 -1.333941E+04  1.582752E+05 -3.260899E+03 -2.525663E-10  3.719534E-09
       175  17 -4.820715E+04 -1.040445E+05  2.399324E+05  2.183384E+03 -1.182633E-09 -2.636785E-09
       175  18  3.833837E+04  4.300151E+05  5.632867E+05  4.617803E+03 -1.160508E-09 -3.402840E-09
       175  19  3.847089E+04 -1.323924E+04  1.583031E+05  3.951758E+03  1.217408E+05  8.124977E+02
       175  20 -4.809010E+04 -1.040756E+05  2.400527E+05 -1.437695E+03  2.530581E+05  1.686700E+03
       175  21  3.868975E+04  4.298619E+05  5.635643E+05 -9.838218E+03  3.843716E+05  2.558586E+03
       175  22  3.851897E+04 -1.328736E+04  1.583031E+05  3.454696E+02  1.217408E+05  8.117905E+02
       175  23 -4.811425E+04 -1.040515E+05  2.400527E+05  3.730165E+02  2.530581E+05  1.687439E+03
       175  24  3.859329E+04  4.299582E+05  5.635643E+05 -2.609810E+03  3.843716E+05  2.563061E+03
       175  25  3.856708E+04 -1.333543E+04  1.583031E+05 -3.260819E+03  1.217408E+05  8.110833E+02
       175  26 -4.813840E+04 -1.040273E+05  2.400527E+05  2.183728E+03  2.530581E+05  1.688177E+03
       175  27  3.849694E+04  4.300547E+05  5.635643E+05  4.618597E+03  3.843716E+05  2.567537E+03
       176   1  4.300482E+05  3.850305E+04  5.635977E+05 -4.619026E+03 -2.566168E+03  3.841666E+05
       176   2 -1.040368E+05 -4.814621E+04  2.402376E+05 -2.183896E+03 -1.686201E+03  2.527619E+05
       176   3 -1.329762E+04  3.857322E+04  1.587157E+05  3.261221E+03 -8.084762E+02  1.213495E+05
       176   4  4.299517E+05  3.859940E+04  5.635977E+05  2.609726E+03 -2.561695E+03  3.841667E+05
       176   5 -1.040610E+05 -4.812206E+04  2.402376E+05 -3.730277E+02 -1.685464E+03  2.527619E+05
       176   6 -1.324954E+04  3.852511E+04  1.587157E+05 -3.452583E+02 -8.091812E+02  1.213495E+05
       176   7  4.298554E+05  3.869587E+04  5.635977E+05  9.838479E+03 -2.557221E+03  3.841667E+05
       176   8 -1.040851E+05 -4.809790E+04  2.402376E+05  1.437841E+03 -1.684726E+03  2.527620E+05
       176   9 -1.320142E+04  3.847702E+04  1.587157E+05 -3.951738E+03 -8.098861E+02  1.213495E+05
       176  10  4.300086E+05  3.834465E+04  5.633203E+05 -4.618233E+03  8.732380E-10  1.048255E-09
       176  11 -1.040540E+05 -4.821479E+04  2.401175E+05 -2.183553E+03 -1.633751E-09 -1.220776E-08
       176  12 -1.330157E+04  3.855741E+04  1.586880E+05  3.261300E+03  2.505374E-09 -2.898285E-09
       176  13  4.299121E+05  3.844100E+04  5.633203E+05  2.610518E+03  3.503981E-09  7.174947E-09
       176  14 -1.040781E+05 -4.819065E+04  2.401175E+05 -3.726847E+02 -5.416676E-09 -7.435188E-09
       176  15 -1.325349E+04  3.850930E+04  1.586880E+05 -3.451793E+02  2.659408E-09  4.953237E-09
       176  16  4.298158E+05  3.853747E+04  5.633203E+05  9.839270E+03  4.414020E-09  4.692730E-09
       176  17 -1.041023E+05 -4.816649E+04  2.401175E+05  1.438184E+03 -1.321817E-09  3.116912E-09
       176  18 -1.320537E+04  3.846122E+04  1.586880E+05 -3.951659E+03  1.029003E-09 -5.524532E-10
       176  19  4.300482E+05  3.850305E+04  5.635977E+05 -4.619026E+03  2.566168E+03 -3.841666E+05
       176  20 -1.040368E+05 -4.814621E+04  2.402376E+05 -2.183896E+03  1.686201E+03 -2.527619E+05
       176  21 -1.329762E+04  3.857322E+04  1.587157E+05  3.261221E+03  8.084762E+02 -1.213495E+05
       176  22  4.299517E+05  3.859940E+04  5.635977E+05  2.609726E+03  2.561695E+03 -3.841667E+05
       176  23 -1.040610E+05 -4.812206E+04  2.402376E+05 -3.730277E+02  1.685464E+03 -2.527619E+05
       176  24 -1.324954E+04  3.852511E+04  1.587157E+05 -3.452583E+02  8.091812E+02 -1.213495E+05
       176  25  4.298554E+05  3.869587E+04  5.635977E+05  9.838479E+03  2.557221E+03 -3.841667E+05
       176  26 -1.040851E+05 -4.809790E+04  2.402376E+05  1.437841E+03  1.684726E+03 -2.527620E+05
       176  27 -1.320142E+04  3.847702E+04  1.587157E+05 -3.951738E+03  8.098861E+02 -1.213495E+05
       177   1  6.755191E+04  6.429992E+03  1.317123E+05 -6.836490E+02 -6.329893E+02  9.490175E+04
       177   2 -1.641806E+04 -8.049186E+03  6.306111E+04 -3.114027E+02 -4.116804E+02  6.173419E+04
       177   3 -1.791008E+03  6.445564E+03  4.065942E+04  5.251199E+02 -1.904638E+02  2.856706E+04
       177   4  6.753736E+04  6.444542E+03  1.317123E+05  4.073963E+02 -6.328225E+02  9.490175E+04
       177   5 -1.642147E+04 -8.045778E+03  6.306111E+04 -5.585312E+01 -4.116550E+02  6.173419E+04
       177   6 -1.783274E+03  6.437829E+03  4.065942E+04 -5.482228E+01 -1.904905E+02  2.856706E+04
       177   7  6.752281E+04  6.459095E+03  1.317123E+05  1.498442E+03 -6.326557E+02  9.490175E+04
       177   8 -1.642487E+04 -8.042370E+03  6.306111E+04  1.996964E+02 -4.116296E+02  6.173419E+04
       177   9 -1.775539E+03  6.430095E+03  4.065942E+04 -6.347644E+02 -1.905172E+02  2.856706E+04
       177  10  6.754949E+04  6.420322E+03  1.316953E+05 -6.836006E+02  2.188299E-09  1.260407E-09
       177  11 -1.641908E+04 -8.053279E+03  6.305394E+04 -3.113822E+02  1.888218E-09 -1.227083E-08
       177  12 -1.791228E+03  6.444688E+03  4.065788E+04  5.251243E+02 -3.040930E-09 -2.782730E-09
       177  13  6.753494E+04  6.434872E+03  1.316953E+05  4.074447E+02  2.210887E-09  7.193200E-09
       177  14 -1.642249E+04 -8.049870E+03  6.305394E+04 -5.583265E+01  5.127637E-09 -7.500175E-09
       177  15 -1.783494E+03  6.436953E+03  4.065788E+04 -5.481790E+01  5.558172E-09  4.882191E-09
       177  16  6.752039E+04  6.449425E+03  1.316953E+05  1.498490E+03  2.142709E-09  4.093827E-09
       177  17 -1.642590E+04 -8.046462E+03  6.305394E+04  1.997169E+02 -2.635336E-09  3.148067E-09
       177  18 -1.775758E+03  6.429219E+03  4.065788E+04 -6.347601E+02 -1.442929E-10 -6.567999E-10
       177  19  6.755191E+04  6.429992E+03  1.317123E+05 -6.836490E+02  6.329893E+02 -9.490175E+04
       177  20 -1.641806E+04 -8.049186E+03  6.306111E+04 -3.114027E+02  4.116804E+02 -6.173419E+04
       177  21 -1.791008E+03  6.445564E+03  4.065942E+04  5.251199E+02  1.904638E+02 -2.856706E+04
       177  22  6.753736E+04  6.444542E+03  1.317123E+05  4.073963E+02  6.328225E+02 -9.490175E+04
       177  23 -1.642147E+04 -8.045778E+03  6.306111E+04 -5.585312E+01  4.116550E+02 -6.173419E+04
       177  24 -1.783274E+03  6.437829E+03  4.065942E+04 -5.482228E+01  1.904905E+02 -2.856706E+04
       177  25  6.752281E+04  6.459095E+03  1.317123E+05  1.498442E+03  6.326557E+02 -9.490175E+04
       177  26 -1.642487E+04 -8.042370E+03  6.306111E+04  1.996964E+02  4.116296E+02 -6.173419E+04
       177  27 -1.775539E+03  6.430095E+03  4.065942E+04 -6.347644E+02  1.905172E+02 -2.856706E+04
       178   1  1.051721E+04  1.278688E+03  3.353124E+04 -1.119351E+02 -1.455392E+02  2.182499E+04
       178   2 -2.958712E+03 -1.600855E+03  1.978647E+04 -3.852201E+01 -7.793728E+01  1.168785E+04
       178   3  1.331510E+03  1.281905E+03  1.708358E+04  1.149365E+02 -1.034140E+01  1.550900E+03
       178   4  1.051490E+04  1.281002E+03  3.353124E+04  6.157608E+01 -1.455331E+02  2.182499E+04
       178   5 -2.959105E+03 -1.600462E+03  1.978647E+04 -9.060088E+00 -7.793672E+01  1.168785E+04
       178   6  1.333038E+03  1.280377E+03  1.708358E+04  3.511717E-01 -1.034169E+01  1.550900E+03
       178   7  1.051259E+04  1.283316E+03  3.353124E+04  2.350872E+02 -1.455270E+02  2.182499E+04
       178   8 -2.959498E+03 -1.600069E+03  1.978647E+04  2.040184E+01 -7.793617E+01  1.168785E+04
       178   9  1.334566E+03  1.278848E+03  1.708358E+04 -1.142342E+02 -1.034198E+01  1.550900E+03
       178  10  1.051709E+04  1.278177E+03  3.353034E+04 -1.119325E+02 -2.642435E-11  1.369358E-09
       178  11 -2.958749E+03 -1.601001E+03  1.978621E+04 -3.852129E+01  2.109892E-09 -1.217053E-08
       178  12  1.331509E+03  1.281902E+03  1.708357E+04  1.149365E+02 -2.403394E-09 -2.102537E-09
       178  13  1.051477E+04  1.280491E+03  3.353034E+04  6.157864E+01 -4.267325E-09  7.166354E-09
       178  14 -2.959142E+03 -1.600608E+03  1.978621E+04 -9.059355E+00  1.723325E-09 -6.975106E-09
       178  15  1.333037E+03  1.280374E+03  1.708357E+04  3.511845E-01 -5.055943E-09  4.846678E-09
       178  16  1.051246E+04  1.282805E+03  3.353034E+04  2.350898E+02  2.458572E-09  3.888814E-09
       178  17 -2.959535E+03 -1.600215E+03  1.978621E+04  2.040257E+01 -2.245150E-09  3.248266E-09
       178  18  1.334566E+03  1.278846E+03  1.708357E+04 -1.142342E+02 -7.748500E-09 -1.486968E-09
       178  19  1.051721E+04  1.278688E+03  3.353124E+04 -1.119351E+02  1.455392E+02 -2.182499E+04
       178  20 -2.958712E+03 -1.600855E+03  1.978647E+04 -3.852202E+01  7.793728E+01 -1.168785E+04
       178  21  1.331510E+03  1.281905E+03  1.708358E+04  1.149365E+02  1.034140E+01 -1.550900E+03
       178  22  1.051490E+04  1.281002E+03  3.353124E+04  6.157608E+01  1.455331E+02 -2.182499E+04
       178  23 -2.959105E+03 -1.600462E+03  1.978647E+04 -9.060090E+00  7.793672E+01 -1.168785E+04
       178  24  1.333038E+03  1.280377E+03  1.708358E+04  3.511718E-01  1.034169E+01 -1.550900E+03
       178  25  1.051259E+04  1.283316E+03  3.353124E+04  2.350872E+02  1.455270E+02 -2.182499E+04
       178  26 -2.959498E+03 -1.600069E+03  1.978647E+04  2.040184E+01  7.793617E+01 -1.168785E+04
       178  27  1.334566E+03  1.278848E+03  1.708358E+04 -1.142342E+02  1.034198E+01 -1.550900E+03
       179   1 -6.616511E+06 -2.173295E+06 -1.137405E+06 -2.358932E+06 -3.962828E+05 -8.525332E+04
       179   2 -6.428034E+06 -1.894796E+06 -8.402751E+05 -2.290082E+06 -2.640579E+05  1.187604E+05
       179   3 -6.275537E+06 -1.778225E+06 -7.147427E+05 -2.233265E+06 -9.349038E+04  2.229363E+05
       179   4 -3.023192E+06 -7.201640E+05 -1.813550E+05 -1.277796E+06 -1.387075E+05  1.304547E+04
       179   5 -3.008850E+06 -5.832823E+05 -8.300421E+04 -1.298286E+06 -1.461775E+05  1.635555E+05
       179   6 -3.002225E+06 -5.799885E+05 -4.418575E+04 -1.330895E+06 -1.154938E+05  2.144435E+05
       179   7  5.829006E+05  7.343310E+05  7.738283E+05 -1.907369E+05  1.205175E+05  1.120637E+05
       179   8  4.223326E+05  7.294058E+05  6.736004E+05 -3.013322E+05 -2.758732E+04  2.086387E+05
       179   9  2.822466E+05  6.191592E+05  6.258354E+05 -4.240875E+05 -1.376237E+05  2.059043E+05
       179  10 -6.616683E+06 -2.173346E+06 -1.137717E+06 -2.358960E+06  1.408651E-09  1.054664E-09
       179  11 -6.428113E+06 -1.894830E+06 -8.404334E+05 -2.290057E+06 -1.351458E-09  1.939950E-09
       179  12 -6.275560E+06 -1.778280E+06 -7.148523E+05 -2.233249E+06  1.733872E-09 -1.180085E-10
       179  13 -3.023212E+06 -7.201694E+05 -1.813917E+05 -1.277794E+06  3.234337E-09  2.958590E-09
       179  14 -3.008880E+06 -5.833167E+05 -8.309456E+04 -1.298267E+06 -5.102817E-10 -6.188654E-09
       179  15 -3.002251E+06 -5.800414E+05 -4.429705E+04 -1.330875E+06 -6.939756E-10  6.758460E-11
       179  16  5.828817E+05  7.343137E+05  7.737774E+05 -1.907478E+05  9.010294E-10 -1.838541E-09
       179  17  4.223201E+05  7.293589E+05  6.735172E+05 -3.013275E+05  3.182413E-10 -9.380272E-09
       179  18  2.822149E+05  6.191087E+05  6.257203E+05 -4.240648E+05 -3.119546E-10 -6.778763E-09
       179  19 -6.616511E+06 -2.173295E+06 -1.137405E+06 -2.358932E+06  3.962828E+05  8.525332E+04
       179  20 -6.428034E+06 -1.894796E+06 -8.402751E+05 -2.290082E+06  2.640579E+05 -1.187604E+05
       179  21 -6.275537E+06 -1.778225E+06 -7.147427E+05 -2.233265E+06  9.349038E+04 -2.229363E+05
       179  22 -3.023192E+06 -7.201640E+05 -1.813550E+05 -1.277796E+06  1.387075E+05 -1.304547E+04
       179  23 -3.008850E+06 -5.832823E+05 -8.300421E+04 -1.298286E+06  1.461775E+05 -1.635555E+05
       179  24 -3.002225E+06 -5.799885E+05 -4.418575E+04 -1.330895E+06  1.154938E+05 -2.144435E+05
       179  25  5.829006E+05  7.343310E+05  7.738283E+05 -1.907369E+05 -1.205175E+05 -1.120637E+05
       179  26  4.223326E+05  7.294058E+05  6.736004E+05 -3.013322E+05  2.758732E+04 -2.086387E+05
       179  27  2.822466E+05  6.191592E+05  6.258354E+05 -4.240875E+05  1.376237E+05 -2.059043E+05
       180   1 -6.119522E+06 -1.743188E+06 -6.751515E+05 -2.203328E+06 -1.042188E+05  2.085113E+05
       180   2 -5.937704E+06 -1.639325E+06 -6.086503E+05 -2.124235E+06 -8.343589E+04  2.102431E+05
       180   3 -5.719325E+06 -1.581205E+06 -5.573730E+05 -2.088866E+06 -6.006495E+04  2.050722E+05
       180   4 -2.995571E+06 -5.860271E+05 -3.380351E+04 -1.327936E+06 -1.069830E+05  2.073425E+05
       180   5 -3.014113E+06 -5.608443E+05 -1.803967E+04 -1.307223E+06 -9.582686E+04  2.054395E+05
       180   6 -2.994197E+06 -5.794493E+05 -9.773606E+03 -1.330233E+06 -8.209600E+04  1.966490E+05
       180   7  1.385116E+05  5.720138E+05  6.070425E+05 -4.484213E+05 -1.097625E+05  2.061683E+05
       180   8 -8.163516E+04  5.184019E+05  5.721470E+05 -4.866127E+05 -1.082813E+05  2.006123E+05
       180   9 -2.613564E+05  4.229594E+05  5.374608E+05 -5.684924E+05 -1.042319E+05  1.881865E+05
       180  10 -6.119545E+06 -1.743237E+06 -6.752535E+05 -2.203310E+06  2.044837E-09  9.358464E-10
       180  11 -5.937723E+06 -1.639374E+06 -6.087462E+05 -2.124221E+06 -3.294133E-09  1.854961E-09
       180  12 -5.719340E+06 -1.581251E+06 -5.574587E+05 -2.088856E+06 -2.543855E-09  4.792391E-10
       180  13 -2.995595E+06 -5.860762E+05 -3.390564E+04 -1.327919E+06  1.138629E-09 -5.173304E-09
       180  14 -3.014134E+06 -5.608920E+05 -1.813607E+04 -1.307207E+06  8.895636E-10 -5.211983E-09
       180  15 -2.994214E+06 -5.794926E+05 -9.858797E+03 -1.330220E+06 -1.067280E-09 -2.842507E-10
       180  16  1.384873E+05  5.719650E+05  6.069402E+05 -4.484031E+05  2.011852E-10 -1.384482E-09
       180  17 -8.165851E+04  5.183556E+05  5.720495E+05 -4.865952E+05  3.198338E-10 -1.583662E-09
       180  18 -2.613775E+05  4.229185E+05  5.373740E+05 -5.684766E+05  7.556653E-10  1.124378E-09
       180  19 -6.119522E+06 -1.743188E+06 -6.751515E+05 -2.203328E+06  1.042188E+05 -2.085113E+05
       180  20 -5.937704E+06 -1.639325E+06 -6.086503E+05 -2.124235E+06  8.343589E+04 -2.102431E+05
       180  21 -5.719325E+06 -1.581205E+06 -5.573730E+05 -2.088866E+06  6.006495E+04 -2.050722E+05
       180  22 -2.995571E+06 -5.860271E+05 -3.380351E+04 -1.327936E+06  1.069830E+05 -2.073425E+05
       180  23 -3.014113E+06 -5.608443E+05 -1.803967E+04 -1.307223E+06  9.582686E+04 -2.054395E+05
       180  24 -2.994197E+06 -5.794493E+05 -9.773606E+03 -1.330233E+06  8.209600E+04 -1.966490E+05
       180  25  1.385116E+05  5.720138E+05  6.070425E+05 -4.484213E+05  1.097625E+05 -2.061683E+05
       180  26 -8.163516E+04  5.184019E+05  5.721470E+05 -4.866127E+05  1.082813E+05 -2.006123E+05
       180  27 -2.613564E+05  4.229594E+05  5.374608E+05 -5.684924E+05  1.042319E+05 -1.881865E+05
       181   1 -5.578444E+06 -1.529859E+06 -5.256489E+05 -2.050199E+06 -5.629704E+04  1.960092E+05
       181   2 -5.391556E+06 -1.431460E+06 -4.804821E+05 -1.968288E+06 -4.757925E+04  1.819070E+05
       181   3 -5.162894E+06 -1.374376E+06 -4.372894E+05 -1.933002E+06 -3.866699E+04  1.671855E+05
       181   4 -2.993429E+06 -5.798344E+05 -7.392629E+03 -1.330446E+06 -7.723705E+04  1.880164E+05
       181   5 -3.014123E+06 -5.587447E+05 -4.180929E+03 -1.307249E+06 -6.937480E+04  1.736184E+05
       181   6 -2.992931E+06 -5.787943E+05 -2.264190E+03 -1.330683E+06 -6.131965E+04  1.586022E+05
       181   7 -4.014296E+05  3.707961E+05  5.105491E+05 -6.078835E+05 -9.827193E+04  1.799881E+05
       181   8 -6.307921E+05  3.144765E+05  4.718528E+05 -6.438397E+05 -9.126101E+04  1.652960E+05
       181   9 -8.180651E+05  2.172028E+05  4.325360E+05 -7.263960E+05 -8.405816E+04  1.499868E+05
       181  10 -5.578458E+06 -1.529902E+06 -5.257269E+05 -2.050190E+06  4.726388E-09 -3.675554E-10
       181  11 -5.391567E+06 -1.431496E+06 -4.805484E+05 -1.968281E+06 -4.437087E-10 -6.451777E-10
       181  12 -5.162903E+06 -1.374406E+06 -4.373446E+05 -1.932997E+06  9.911596E-10 -1.379859E-09
       181  13 -2.993445E+06 -5.798739E+05 -7.470138E+03 -1.330434E+06 -2.298193E-10  6.330238E-11
       181  14 -3.014136E+06 -5.587783E+05 -4.246508E+03 -1.307239E+06  2.234547E-09  6.309500E-10
       181  15 -2.992941E+06 -5.788223E+05 -2.318435E+03 -1.330675E+06 -1.779515E-09  2.765293E-10
       181  16 -4.014486E+05  3.707588E+05  5.104702E+05 -6.078692E+05 -2.718985E-10 -2.445513E-09
       181  17 -6.308084E+05  3.144450E+05  4.717859E+05 -6.438276E+05 -1.530360E-09 -5.934779E-10
       181  18 -8.180787E+05  2.171768E+05  4.324805E+05 -7.263859E+05  2.547584E-09 -7.404259E-11
       181  19 -5.578444E+06 -1.529859E+06 -5.256489E+05 -2.050199E+06  5.629704E+04 -1.960092E+05
       181  20 -5.391556E+06 -1.431460E+06 -4.804821E+05 -1.968288E+06  4.757925E+04 -1.819070E+05
       181  21 -5.162894E+06 -1.374376E+06 -4.372894E+05 -1.933002E+06  3.866699E+04 -1.671855E+05
       181  22 -2.993429E+06 -5.798344E+05 -7.392629E+03 -1.330446E+06  7.723705E+04 -1.880164E+05
       181  23 -3.014123E+06 -5.587447E+05 -4.180929E+03 -1.307249E+06  6.937480E+04 -1.736184E+05
       181  24 -2.992931E+06 -5.787943E+05 -2.264190E+03 -1.330683E+06  6.131965E+04 -1.586022E+05
       181  25 -4.014296E+05  3.707961E+05  5.105491E+05 -6.078835E+05  9.827193E+04 -1.799881E+05
       181  26 -6.307921E+05  3.144765E+05  4.718528E+05 -6.438397E+05  9.126101E+04 -1.652960E+05
       181  27 -8.180651E+05  2.172028E+05  4.325360E+05 -7.263960E+05  8.405816E+04 -1.499868E+05
       182   1 -5.018899E+06 -1.321182E+06 -4.066851E+05 -1.893138E+06 -3.468591E+04  1.579225E+05
       182   2 -4.826786E+06 -1.221212E+06 -3.637933E+05 -1.809490E+06 -2.776070E+04  1.419618E+05
       182   3 -4.592007E+06 -1.163257E+06 -3.213164E+05 -1.773842E+06 -2.080742E+04  1.258416E+05
       182   4 -2.992614E+06 -5.788828E+05 -1.760440E+03 -1.330968E+06 -5.742733E+04  1.493210E+05
       182   5 -3.013762E+06 -5.575405E+05 -1.149821E+03 -1.307039E+06 -5.072106E+04  1.332998E+05
       182   6 -2.992254E+06 -5.781683E+05 -7.850670E+02 -1.331122E+06 -4.398710E+04  1.171194E+05
       182   7 -9.620691E+05  1.637724E+05  4.029652E+05 -7.670873E+05 -8.024897E+04  1.406894E+05
       182   8 -1.197316E+06  1.064196E+05  3.613381E+05 -8.032180E+05 -7.375402E+04  1.246107E+05
       182   9 -1.389826E+06  7.148774E+03  3.196287E+05 -8.873336E+05 -6.723159E+04  1.083730E+05
       182  10 -5.018907E+06 -1.321209E+06 -4.067341E+05 -1.893133E+06 -6.210704E-10 -4.627853E-10
       182  11 -4.826793E+06 -1.221234E+06 -3.638326E+05 -1.809487E+06 -2.788475E-09 -6.832405E-11
       182  12 -4.592011E+06 -1.163274E+06 -3.213469E+05 -1.773840E+06 -2.019571E-09 -6.968031E-10
       182  13 -2.992623E+06 -5.789076E+05 -1.808456E+03 -1.330961E+06 -3.314006E-10  1.493919E-10
       182  14 -3.013769E+06 -5.575602E+05 -1.187982E+03 -1.307034E+06 -2.274355E-09  1.324512E-09
       182  15 -2.992259E+06 -5.781835E+05 -8.144304E+02 -1.331118E+06 -7.109979E-10 -5.243965E-11
       182  16 -9.620813E+05  1.637495E+05  4.029160E+05 -7.670783E+05  1.215875E-09  8.354023E-10
       182  17 -1.197326E+06  1.064015E+05  3.612988E+05 -8.032106E+05  6.940052E-10  1.710816E-09
       182  18 -1.389834E+06  7.134976E+03  3.195982E+05 -8.873277E+05  1.703950E-09  1.672680E-09
       182  19 -5.018899E+06 -1.321182E+06 -4.066851E+05 -1.893138E+06  3.468591E+04 -1.579225E+05
       182  20 -4.826786E+06 -1.221212E+06 -3.637933E+05 -1.809490E+06  2.776070E+04 -1.419618E+05
       182  21 -4.592007E+06 -1.163257E+06 -3.213164E+05 -1.773842E+06  2.080742E+04 -1.258416E+05
       182  22 -2.992614E+06 -5.788828E+05 -1.760440E+03 -1.330968E+06  5.742733E+04 -1.493210E+05
       182  23 -3.013762E+06 -5.575405E+05 -1.149821E+03 -1.307039E+06  5.072106E+04 -1.332998E+05
       182  24 -2.992254E+06 -5.781683E+05 -7.850670E+02 -1.331122E+06  4.398710E+04 -1.171194E+05
       182  25 -9.620691E+05  1.637724E+05  4.029652E+05 -7.670873E+05  8.024897E+04 -1.406894E+05
       182  26 -1.197316E+06  1.064196E+05  3.613381E+05 -8.032180E+05  7.375402E+04 -1.246107E+05
       182  27 -1.389826E+06  7.148774E+03  3.196287E+05 -8.873336E+05  6.723159E+04 -1.083730E+05
       183   1 -4.444811E+06 -1.109124E+06 -2.905835E+05 -1.733289E+06 -1.693948E+04  1.163137E+05
       183   2 -4.248713E+06 -1.007870E+06 -2.478208E+05 -1.648432E+06 -1.010849E+04  9.993000E+04
       183   3 -4.009575E+06 -9.493483E+05 -2.054197E+05 -1.612580E+06 -3.268151E+03  8.346206E+04
       183   4 -2.992061E+06 -5.782217E+05 -7.800482E+02 -1.331344E+06 -4.024404E+04  1.075559E+05
       183   5 -3.013434E+06 -5.566065E+05 -9.658655E+02 -1.306892E+06 -3.352954E+04  9.114373E+04
       183   6 -2.991802E+06 -5.776988E+05 -1.425003E+03 -1.331458E+06 -2.680598E+04  7.464746E+04
       183   7 -1.537114E+06 -4.713531E+04  2.889250E+05 -9.285206E+05 -6.360754E+04  9.877601E+04
       183   8 -1.776574E+06 -1.052118E+05  2.458168E+05 -9.647202E+05 -5.700084E+04  8.233866E+04
       183   9 -1.972960E+06 -2.059628E+05  2.025196E+05 -1.049909E+06 -5.038530E+04  6.581734E+04
       183  10 -4.444815E+06 -1.109138E+06 -2.906094E+05 -1.733287E+06 -2.879216E-09 -1.153246E-09
       183  11 -4.248715E+06 -1.007881E+06 -2.478397E+05 -1.648431E+06 -1.470769E-08 -4.338162E-09
       183  12 -4.009577E+06 -9.493558E+05 -2.054328E+05 -1.612580E+06 -2.706947E-08 -8.880593E-09
       183  13 -2.992066E+06 -5.782346E+05 -8.047892E+02 -1.331340E+06 -4.282498E-10  1.074407E-11
       183  14 -3.013438E+06 -5.566157E+05 -9.835593E+02 -1.306890E+06 -1.705962E-09 -3.160149E-09
       183  15 -2.991804E+06 -5.777050E+05 -1.436805E+03 -1.331457E+06 -5.712351E-09 -8.908871E-09
       183  16 -1.537121E+06 -4.714685E+04  2.888991E+05 -9.285155E+05  3.964810E-09  3.207557E-09
       183  17 -1.776579E+06 -1.052200E+05  2.457979E+05 -9.647164E+05  1.173391E-08  7.120103E-09
       183  18 -1.972964E+06 -2.059681E+05  2.025067E+05 -1.049907E+06  1.501891E-08  7.165830E-09
       183  19 -4.444811E+06 -1.109124E+06 -2.905835E+05 -1.733289E+06  1.693948E+04 -1.163137E+05
       183  20 -4.248713E+06 -1.007870E+06 -2.478208E+05 -1.648432E+06  1.010849E+04 -9.993000E+04
       183  21 -4.009575E+06 -9.493483E+05 -2.054197E+05 -1.612580E+06  3.268151E+03 -8.346206E+04
       183  22 -2.992061E+06 -5.782217E+05 -7.800482E+02 -1.331344E+06  4.024404E+04 -1.075559E+05
       183  23 -3.013434E+06 -5.566065E+05 -9.658655E+02 -1.306892E+06  3.352954E+04 -9.114373E+04
       183  24 -2.991802E+06 -5.776988E+05 -1.425003E+03 -1.331458E+06  2.680598E+04 -7.464746E+04
       183  25 -1.537114E+06 -4.713531E+04  2.889250E+05 -9.285206E+05  6.360754E+04 -9.877601E+04
       183  26 -1.776574E+06 -1.052118E+05  2.458168E+05 -9.647202E+05  5.700084E+04 -8.233866E+04
       183  27 -1.972960E+06 -2.059628E+05  2.025196E+05 -1.049909E+06  5.038530E+04 -6.581734E+04
       184   1 -3.860117E+06 -8.945942E+05 -1.746871E+05 -1.571563E+06  7.538199E+02  7.384080E+04
       184   2 -3.661397E+06 -7.925825E+05 -1.326902E+05 -1.485935E+06  8.585312E+03  5.766258E+04
       184   3 -3.419608E+06 -7.339009E+05 -9.186991E+04 -1.449956E+06  1.638574E+04  4.153754E+04
       184   4 -2.991733E+06 -5.777278E+05 -1.858509E+03 -1.331621E+06 -2.288425E+04  6.499573E+04
       184   5 -3.013169E+06 -5.559605E+05 -3.281039E+03 -1.306801E+06 -1.497830E+04  4.885328E+04
       184   6 -2.991610E+06 -5.775426E+05 -5.943873E+03 -1.331649E+06 -7.104026E+03  3.276387E+04
       184   7 -2.122556E+06 -2.607926E+05  1.709388E+05 -1.091364E+06 -4.655820E+04  5.613724E+04
       184   8 -2.364500E+06 -3.193006E+05  1.261112E+05 -1.127492E+06 -3.856855E+04  4.003399E+04
       184   9 -2.563421E+06 -4.211680E+05  7.997568E+04 -1.213265E+06 -3.061127E+04  2.398364E+04
       184  10 -3.860119E+06 -8.946001E+05 -1.746973E+05 -1.571563E+06  1.432077E-08  7.445983E-09
       184  11 -3.661398E+06 -7.925861E+05 -1.326966E+05 -1.485935E+06  1.178162E-08  8.241846E-09
       184  12 -3.419608E+06 -7.339028E+05 -9.187366E+04 -1.449956E+06  1.948554E-09  3.711175E-09
       184  13 -2.991735E+06 -5.777325E+05 -1.867417E+03 -1.331620E+06 -6.776609E-09 -1.092533E-08
       184  14 -3.013170E+06 -5.559632E+05 -3.285938E+03 -1.306801E+06 -2.760372E-09 -7.212392E-09
       184  15 -2.991610E+06 -5.775438E+05 -5.945982E+03 -1.331648E+06  1.167017E-10  1.660540E-10
       184  16 -2.122559E+06 -2.607965E+05  1.709288E+05 -1.091362E+06 -2.570338E-08 -9.012858E-09
       184  17 -2.364502E+06 -3.193027E+05  1.261054E+05 -1.127491E+06 -1.398361E-08 -6.321503E-09
       184  18 -2.563422E+06 -4.211689E+05  7.997283E+04 -1.213264E+06 -2.233392E-09 -1.167699E-09
       184  19 -3.860117E+06 -8.945942E+05 -1.746871E+05 -1.571563E+06 -7.538199E+02 -7.384080E+04
       184  20 -3.661397E+06 -7.925825E+05 -1.326902E+05 -1.485935E+06 -8.585312E+03 -5.766258E+04
       184  21 -3.419608E+06 -7.339009E+05 -9.186991E+04 -1.449956E+06 -1.638574E+04 -4.153754E+04
       184  22 -2.991733E+06 -5.777278E+05 -1.858509E+03 -1.331621E+06  2.288425E+04 -6.499573E+04
       184  23 -3.013169E+06 -5.559605E+05 -3.281039E+03 -1.306801E+06  1.497830E+04 -4.885328E+04
       184  24 -2.991610E+06 -5.775426E+05 -5.943873E+03 -1.331649E+06  7.104026E+03 -3.276387E+04
       184  25 -2.122556E+06 -2.607926E+05  1.709388E+05 -1.091364E+06  4.655820E+04 -5.613724E+04
       184  26 -2.364500E+06 -3.193006E+05  1.261112E+05 -1.127492E+06  3.856855E+04 -4.003399E+04
       184  27 -2.563421E+06 -4.211680E+05  7.997568E+04 -1.213265E+06  3.061127E+04 -2.398364E+04
       185   1 -3.268800E+06 -6.790225E+05 -6.243987E+04 -1.409249E+06  2.148783E+04  3.223942E+04
       185   2 -3.069419E+06 -5.762983E+05 -2.471556E+04 -1.321848E+06  3.268966E+04  1.801237E+04
       185   3 -2.828597E+06 -5.201429E+05  8.274721E+03 -1.283601E+06  4.333645E+04  5.271749E+03
       185   4 -2.991899E+06 -5.773696E+05 -7.908421E+03 -1.331896E+06 -2.327650E+03  2.334683E+04
       185   5 -3.012704E+06 -5.561184E+05 -1.442797E+04 -1.306474E+06  1.096488E+04  9.900996E+03
       185   6 -2.992537E+06 -5.818576E+05 -2.734678E+04 -1.330226E+06  2.370051E+04 -2.059168E+03
       185   7 -2.714920E+06 -4.757100E+05  4.662132E+04 -1.254511E+06 -2.615437E+04  1.444995E+04
       185   8 -2.955985E+06 -5.359379E+05 -4.138459E+03 -1.291097E+06 -1.076202E+04  1.788855E+03
       185   9 -3.156450E+06 -6.435699E+05 -6.296858E+04 -1.376839E+06  4.070031E+03 -9.387922E+03
       185  10 -3.268801E+06 -6.790237E+05 -6.244270E+04 -1.409250E+06  6.014963E-09  3.913196E-09
       185  11 -3.069420E+06 -5.762990E+05 -2.471819E+04 -1.321849E+06 -5.017109E-09 -2.789144E-09
       185  12 -2.828599E+06 -5.201434E+05  8.271122E+03 -1.283601E+06 -1.419459E-08 -6.380229E-09
       185  13 -2.991900E+06 -5.773702E+05 -7.909454E+03 -1.331896E+06 -1.408255E-10  1.054037E-09
       185  14 -3.012705E+06 -5.561186E+05 -1.442838E+04 -1.306474E+06  3.828031E-10 -3.962870E-10
       185  15 -2.992537E+06 -5.818577E+05 -2.734785E+04 -1.330225E+06 -2.844709E-09 -3.726900E-09
       185  16 -2.714920E+06 -4.757104E+05  4.661964E+04 -1.254511E+06 -5.168060E-09 -6.468193E-10
       185  17 -2.955985E+06 -5.359379E+05 -4.138684E+03 -1.291097E+06  4.764800E-09  6.329293E-10
       185  18 -3.156450E+06 -6.435700E+05 -6.296878E+04 -1.376839E+06  8.805552E-09 -8.197082E-10
       185  19 -3.268800E+06 -6.790225E+05 -6.243987E+04 -1.409249E+06 -2.148783E+04 -3.223942E+04
       185  20 -3.069419E+06 -5.762983E+05 -2.471556E+04 -1.321848E+06 -3.268966E+04 -1.801237E+04
       185  21 -2.828597E+06 -5.201429E+05  8.274721E+03 -1.283601E+06 -4.333645E+04 -5.271749E+03
       185  22 -2.991899E+06 -5.773696E+05 -7.908421E+03 -1.331896E+06  2.327650E+03 -2.334683E+04
       185  23 -3.012704E+06 -5.561184E+05 -1.442797E+04 -1.306474E+06 -1.096488E+04 -9.900996E+03
       185  24 -2.992537E+06 -5.818576E+05 -2.734678E+04 -1.330226E+06 -2.370051E+04  2.059168E+03
       185  25 -2.714920E+06 -4.757100E+05  4.662132E+04 -1.254511E+06  2.615437E+04 -1.444995E+04
       185  26 -2.955985E+06 -5.359379E+05 -4.138459E+03 -1.291097E+06  1.076202E+04 -1.788855E+03
       185  27 -3.156450E+06 -6.435699E+05 -6.296858E+04 -1.376839E+06 -4.070031E+03  9.387922E+03
       186   1 -2.672316E+06 -4.694394E+05  3.143763E+04 -1.255725E+06  5.549764E+04 -1.445768E+03
       186   2 -2.494381E+06 -3.541529E+05  5.442012E+04 -1.127444E+06  6.152636E+04 -5.877605E+03
       186   3 -2.303433E+06 -3.574519E+05  5.353840E+04 -1.027137E+06  5.923457E+04  1.194523E+04
       186   4 -2.997126E+06 -5.775443E+05 -3.579463E+04 -1.333601E+06  3.150687E+04 -1.040300E+04
       186   5 -3.008640E+06 -5.725831E+05 -6.700610E+04 -1.298181E+06  6.890777E+04 -3.125608E+03
       186   6 -3.013464E+06 -6.925142E+05 -1.470464E+05 -1.290768E+06  9.798159E+04  2.641409E+04
       186   7 -3.321829E+06 -6.856452E+05 -1.030304E+05 -1.411442E+06  7.529570E+03 -1.935628E+04
       186   8 -3.522621E+06 -7.909649E+05 -1.884482E+05 -1.468776E+06  7.628242E+04 -3.770078E+02
       186   9 -3.722962E+06 -1.027442E+06 -3.476647E+05 -1.554087E+06  1.366787E+05  4.085341E+04
       186  10 -2.672319E+06 -4.694403E+05  3.143181E+04 -1.255725E+06  4.029407E-08  1.396430E-08
       186  11 -2.494385E+06 -3.541539E+05  5.441292E+04 -1.127443E+06  1.549178E-08  6.717005E-09
       186  12 -2.303437E+06 -3.574530E+05  5.353151E+04 -1.027137E+06 -2.217193E-08 -8.943783E-09
       186  13 -2.997127E+06 -5.775447E+05 -3.579671E+04 -1.333601E+06  9.745938E-11 -1.334262E-09
       186  14 -3.008645E+06 -5.725844E+05 -6.701508E+04 -1.298181E+06  6.760171E-09  3.723632E-09
       186  15 -3.013474E+06 -6.925176E+05 -1.470659E+05 -1.290770E+06  2.947334E-09  1.112451E-09
       186  16 -3.321829E+06 -6.856456E+05 -1.030312E+05 -1.411442E+06 -4.135215E-08 -2.157117E-08
       186  17 -3.522628E+06 -7.909664E+05 -1.884592E+05 -1.468776E+06 -3.458137E-09 -2.578066E-09
       186  18 -3.722983E+06 -1.027448E+06 -3.477032E+05 -1.554092E+06  2.634919E-08  9.380994E-09
       186  19 -2.672316E+06 -4.694394E+05  3.143763E+04 -1.255725E+06 -5.549764E+04  1.445768E+03
       186  20 -2.494381E+06 -3.541529E+05  5.442012E+04 -1.127444E+06 -6.152636E+04  5.877605E+03
       186  21 -2.303433E+06 -3.574519E+05  5.353840E+04 -1.027137E+06 -5.923457E+04 -1.194523E+04
       186  22 -2.997126E+06 -5.775443E+05 -3.579463E+04 -1.333601E+06 -3.150687E+04  1.040300E+04
       186  23 -3.008640E+06 -5.725831E+05 -6.700610E+04 -1.298181E+06 -6.890777E+04  3.125608E+03
       186  24 -3.013464E+06 -6.925142E+05 -1.470464E+05 -1.290768E+06 -9.798159E+04 -2.641409E+04
       186  25 -3.321829E+06 -6.856452E+05 -1.030304E+05 -1.411442E+06 -7.529570E+03  1.935628E+04
       186  26 -3.522621E+06 -7.909649E+05 -1.884482E+05 -1.468776E+06 -7.628242E+04  3.770078E+02
       186  27 -3.722962E+06 -1.027442E+06 -3.476647E+05 -1.554087E+06 -1.366787E+05 -4.085341E+04
       187   1  2.196277E+05  4.506665E+04  6.286417E+04  1.330345E+04  5.479360E+04  6.547357E+02
       187   2  2.147728E+05 -2.789687E+04  1.884750E+04  4.222399E+03  3.626383E+04  1.875786E+03
       187   3  2.329994E+05 -1.822538E+04  7.554375E+03 -1.098061E+04  1.773381E+04  1.600316E+03
       187   4  2.942290E+05  6.366601E+04  8.133680E+04 -3.502760E+03  5.560430E+04  6.534549E+02
       187   5  2.826410E+05 -1.103607E+04  3.531303E+04 -4.336920E+02  3.646143E+04  1.875542E+03
       187   6  2.942378E+05 -3.002223E+03  2.243557E+04 -3.486449E+03  1.731852E+04  1.600455E+03
       187   7  3.688359E+05  8.226601E+04  9.980916E+04 -2.031099E+04  5.641509E+04  6.521304E+02
       187   8  3.505135E+05  5.824469E+03  5.177824E+04 -5.090294E+03  3.665905E+04  1.875294E+03
       187   9  3.554797E+05  1.222087E+04  3.731653E+04  4.008453E+03  1.690320E+04  1.600584E+03
       187  10  2.196245E+05  4.506585E+04  6.285853E+04  1.330342E+04  6.302059E-10 -3.639709E-10
       187  11  2.147714E+05 -2.789723E+04  1.884502E+04  4.222344E+03 -6.762635E-10 -2.894268E-10
       187  12  2.329991E+05 -1.822547E+04  7.553779E+03 -1.098063E+04 -1.134870E-09 -6.027509E-10
       187  13  2.942257E+05  6.366518E+04  8.133099E+04 -3.502789E+03  8.987996E-11  1.474136E-10
       187  14  2.826396E+05 -1.103643E+04  3.531052E+04 -4.337471E+02 -1.035315E-09 -1.422423E-10
       187  15  2.942375E+05 -3.002307E+03  2.243500E+04 -3.486472E+03  9.432985E-10 -4.769356E-10
       187  16  3.688325E+05  8.226516E+04  9.980319E+04 -2.031102E+04  2.041538E-09  1.984402E-10
       187  17  3.505120E+05  5.824104E+03  5.177570E+04 -5.090349E+03 -5.321097E-09  5.488296E-11
       187  18  3.554794E+05  1.222079E+04  3.731599E+04  4.008431E+03 -2.640380E-09  2.256871E-10
       187  19  2.196277E+05  4.506665E+04  6.286417E+04  1.330345E+04 -5.479360E+04 -6.547357E+02
       187  20  2.147728E+05 -2.789687E+04  1.884750E+04  4.222399E+03 -3.626383E+04 -1.875786E+03
       187  21  2.329994E+05 -1.822538E+04  7.554375E+03 -1.098061E+04 -1.773381E+04 -1.600316E+03
       187  22  2.942290E+05  6.366601E+04  8.133680E+04 -3.502760E+03 -5.560430E+04 -6.534549E+02
       187  23  2.826410E+05 -1.103607E+04  3.531303E+04 -4.336920E+02 -3.646143E+04 -1.875542E+03
       187  24  2.942378E+05 -3.002223E+03  2.243557E+04 -3.486449E+03 -1.731852E+04 -1.600455E+03
       187  25  3.688359E+05  8.226601E+04  9.980916E+04 -2.031099E+04 -5.641509E+04 -6.521304E+02
       187  26  3.505135E+05  5.824469E+03  5.177824E+04 -5.090294E+03 -3.665905E+04 -1.875294E+03
       187  27  3.554797E+05  1.222087E+04  3.731653E+04  4.008453E+03 -1.690320E+04 -1.600584E+03
       188   1  2.400840E+05 -4.738747E+03  6.305661E+03 -1.626078E+03  1.377472E+04  1.234205E+03
       188   2  2.451050E+05 -1.205759E+04 -1.299172E+03  4.442336E+00  9.094048E+03  1.125165E+03
       188   3  2.532233E+05 -9.442640E+03 -3.372971E+03 -4.414028E+03  4.413333E+03  8.768903E+02
       188   4  2.897742E+05  7.614055E+03  1.839703E+04 -3.475851E+03  1.375962E+04  1.234155E+03
       188   5  2.882215E+05 -1.341460E+03  9.178099E+03 -4.508783E+02  9.021768E+03  1.125146E+03
       188   6  2.897758E+05 -3.536748E+02  5.529566E+03 -3.474855E+03  4.283925E+03  8.768848E+02
       188   7  3.394666E+05  1.996669E+04  3.048822E+04 -5.325772E+03  1.374452E+04  1.234106E+03
       188   8  3.313397E+05  9.374530E+03  1.965524E+04 -9.062306E+02  8.949483E+03  1.125127E+03
       188   9  3.263294E+05  8.735195E+03  1.443201E+04 -2.535627E+03  4.154508E+03  8.768789E+02
       188  10  2.400837E+05 -4.738800E+03  6.305302E+03 -1.626092E+03 -8.493742E-11 -3.651463E-10
       188  11  2.451049E+05 -1.205761E+04 -1.299330E+03  4.434096E+00  1.897397E-09  2.618444E-10
       188  12  2.532233E+05 -9.442646E+03 -3.373009E+03 -4.414031E+03 -2.352195E-10 -6.896729E-11
       188  13  2.897740E+05  7.614003E+03  1.839667E+04 -3.475864E+03 -2.052718E-09 -5.300376E-11
       188  14  2.882214E+05 -1.341483E+03  9.177944E+03 -4.508864E+02 -3.104902E-09  4.832068E-11
       188  15  2.897757E+05 -3.536805E+02  5.529530E+03 -3.474858E+03 -3.887850E-09  7.605370E-11
       188  16  3.394664E+05  1.996664E+04  3.048786E+04 -5.325785E+03 -1.928941E-11 -1.182265E-10
       188  17  3.313396E+05  9.374507E+03  1.965508E+04 -9.062387E+02 -2.849009E-09 -2.687121E-10
       188  18  3.263294E+05  8.735190E+03  1.443197E+04 -2.535629E+03 -5.288075E-10  3.029093E-10
       188  19  2.400840E+05 -4.738747E+03  6.305661E+03 -1.626078E+03 -1.377472E+04 -1.234205E+03
       188  20  2.451050E+05 -1.205759E+04 -1.299172E+03  4.442336E+00 -9.094048E+03 -1.125165E+03
       188  21  2.532233E+05 -9.442640E+03 -3.372971E+03 -4.414028E+03 -4.413333E+03 -8.768903E+02
       188  22  2.897742E+05  7.614055E+03  1.839703E+04 -3.475851E+03 -1.375962E+04 -1.234155E+03
       188  23  2.882215E+05 -1.341460E+03  9.178099E+03 -4.508783E+02 -9.021768E+03 -1.125146E+03
       188  24  2.897758E+05 -3.536748E+02  5.529566E+03 -3.474855E+03 -4.283925E+03 -8.768848E+02
       188  25  3.394666E+05  1.996669E+04  3.048822E+04 -5.325772E+03 -1.374452E+04 -1.234106E+03
       188  26  3.313397E+05  9.374530E+03  1.965524E+04 -9.062306E+02 -8.949483E+03 -1.125127E+03
       188  27  3.263294E+05  8.735195E+03  1.443201E+04 -2.535627E+03 -4.154508E+03 -8.768789E+02
       189   1  2.640562E+05 -5.342575E+03 -1.732427E+03 -3.285909E+03  3.496417E+03  7.134912E+02
       189   2  2.703464E+05 -4.790435E+03 -2.181482E+03 -4.346671E+02  2.320140E+03  4.817711E+02
       189   3  2.770877E+05 -3.051116E+03 -1.567938E+03 -3.586083E+03  1.143860E+03  2.374554E+02
       189   4  2.891858E+05  8.999790E+02  4.358560E+03 -3.464897E+03  3.404525E+03  7.134833E+02
       189   5  2.889599E+05 -1.640935E+02  2.342502E+03 -4.635492E+02  2.223063E+03  4.817658E+02
       189   6  2.891861E+05 -4.008546E+01  1.392630E+03 -3.464848E+03  1.041610E+03  2.374526E+02
       189   7  3.143159E+05  7.142487E+03  1.044950E+04 -3.643892E+03  3.312630E+03  7.134754E+02
       189   8  3.075737E+05  4.462223E+03  6.866460E+03 -4.924322E+02  2.125983E+03  4.817605E+02
       189   9  3.012845E+05  2.970934E+03  4.353188E+03 -3.343611E+03  9.393582E+02  2.374496E+02
       189  10  2.640562E+05 -5.342578E+03 -1.732451E+03 -3.285911E+03  1.592396E-09  7.870339E-11
       189  11  2.703464E+05 -4.790437E+03 -2.181492E+03 -4.346680E+02 -3.091288E-09  3.037396E-10
       189  12  2.770877E+05 -3.051116E+03 -1.567941E+03 -3.586083E+03  2.495717E-09 -2.490842E-10
       189  13  2.891857E+05  8.999754E+02  4.358538E+03 -3.464899E+03 -2.250070E-09  1.627496E-10
       189  14  2.889599E+05 -1.640951E+02  2.342492E+03 -4.635501E+02 -1.090164E-09  1.407803E-10
       189  15  2.891861E+05 -4.008581E+01  1.392628E+03 -3.464848E+03  4.911446E-09 -3.112967E-11
       189  16  3.143159E+05  7.142483E+03  1.044948E+04 -3.643894E+03 -7.009958E-10  3.805137E-10
       189  17  3.075737E+05  4.462221E+03  6.866451E+03 -4.924330E+02 -1.564255E-09 -1.903923E-10
       189  18  3.012845E+05  2.970934E+03  4.353187E+03 -3.343612E+03 -4.214720E-10  3.009029E-10
       189  19  2.640562E+05 -5.342575E+03 -1.732427E+03 -3.285909E+03 -3.496417E+03 -7.134912E+02
       189  20  2.703464E+05 -4.790435E+03 -2.181482E+03 -4.346671E+02 -2.320140E+03 -4.817711E+02
       189  21  2.770877E+05 -3.051116E+03 -1.567938E+03 -3.586083E+03 -1.143860E+03 -2.374554E+02
       189  22  2.891858E+05  8.999790E+02  4.358560E+03 -3.464897E+03 -3.404525E+03 -7.134833E+02
       189  23  2.889599E+05 -1.640935E+02  2.342502E+03 -4.635492E+02 -2.223063E+03 -4.817658E+02
       189  24  2.891861E+05 -4.008546E+01  1.392630E+03 -3.464848E+03 -1.041610E+03 -2.374526E+02
       189  25  3.143159E+05  7.142487E+03  1.044950E+04 -3.643892E+03 -3.312630E+03 -7.134754E+02
       189  26  3.075737E+05  4.462223E+03  6.866460E+03 -4.924322E+02 -2.125983E+03 -4.817605E+02
       189  27  3.012845E+05  2.970934E+03  4.353188E+03 -3.343611E+03 -9.393582E+02 -2.374496E+02
       190   1  2.883734E+05 -7.385857E+01  9.318026E+02 -3.450985E+03  9.173736E+02  9.362896E+01
       190   2  2.948387E+05  1.414026E+03  2.049226E+03 -4.681659E+02  5.960337E+02 -1.490240E+02
       190   3  3.013830E+05  3.048129E+03  3.412473E+03 -3.478442E+03  2.746894E+02 -3.929380E+02
       190   4  2.891032E+05  1.035499E+02  1.089320E+03 -3.462743E+03  8.185956E+02  9.362649E+01
       190   5  2.890637E+05 -2.133121E+01  6.455410E+02 -4.661930E+02  4.967392E+02 -1.490272E+02
       190   6  2.891033E+05  7.455787E-02  4.479190E+02 -3.462741E+03  1.748816E+02 -3.929418E+02
       190   7  2.898330E+05  2.809584E+02  1.246837E+03 -3.474501E+03  7.198175E+02  9.362403E+01
       190   8  2.832888E+05 -1.456691E+03 -7.581468E+02 -4.642201E+02  3.974455E+02 -1.490304E+02
       190   9  2.768236E+05 -3.047991E+03 -2.516646E+03 -3.447040E+03  7.507569E+01 -3.929457E+02
       190  10  2.883734E+05 -7.385880E+01  9.318010E+02 -3.450985E+03  6.045879E-10 -2.525046E-10
       190  11  2.948387E+05  1.414026E+03  2.049226E+03 -4.681658E+02  3.455099E-09  2.179750E-10
       190  12  3.013830E+05  3.048129E+03  3.412473E+03 -3.478441E+03  8.801984E-10 -8.415975E-10
       190  13  2.891032E+05  1.035497E+02  1.089319E+03 -3.462743E+03  4.304196E-09 -1.434067E-11
       190  14  2.890637E+05 -2.133130E+01  6.455405E+02 -4.661929E+02 -3.297458E-09 -1.603362E-10
       190  15  2.891033E+05  7.438387E-02  4.479186E+02 -3.462741E+03 -1.486790E-09 -2.505198E-10
       190  16  2.898330E+05  2.809582E+02  1.246836E+03 -3.474501E+03 -5.483230E-10  3.121445E-11
       190  17  2.832888E+05 -1.456691E+03 -7.581471E+02 -4.642200E+02  2.021037E-10 -5.822641E-10
       190  18  2.768236E+05 -3.047991E+03 -2.516646E+03 -3.447040E+03  1.247042E-09  3.018799E-10
       190  19  2.883734E+05 -7.385857E+01  9.318026E+02 -3.450985E+03 -9.173736E+02 -9.362896E+01
       190  20  2.948387E+05  1.414026E+03  2.049226E+03 -4.681659E+02 -5.960337E+02  1.490240E+02
       190  21  3.013830E+05  3.048129E+03  3.412473E+03 -3.478442E+03 -2.746894E+02  3.929380E+02
       190  22  2.891032E+05  1.035499E+02  1.089320E+03 -3.462743E+03 -8.185956E+02 -9.362649E+01
       190  23  2.890637E+05 -2.133121E+01  6.455410E+02 -4.661930E+02 -4.967392E+02  1.490272E+02
       190  24  2.891033E+05  7.455789E-02  4.479190E+02 -3.462741E+03 -1.748816E+02  3.929418E+02
       190  25  2.898330E+05  2.809584E+02  1.246837E+03 -3.474501E+03 -7.198175E+02 -9.362403E+01
       190  26  2.832888E+05 -1.456691E+03 -7.581468E+02 -4.642201E+02 -3.974455E+02  1.490304E+02
       190  27  2.768236E+05 -3.047991E+03 -2.516646E+03 -3.447040E+03 -7.507569E+01  3.929457E+02
       191   1  3.127614E+05  5.895207E+03  6.174157E+03 -3.462658E+03  1.981022E+02 -5.354435E+02
       191   2  3.192731E+05  7.494780E+03  7.733439E+03 -4.575671E+02  2.103948E+00 -7.799755E+02
       191   3  3.258316E+05  9.168871E+03  9.439432E+03 -3.473525E+03 -1.938779E+02 -1.023777E+03
       191   4  2.890959E+05  9.267218E+00  4.020015E+02 -3.468956E+03  9.814673E+01 -5.354489E+02
       191   5  2.890726E+05 -1.136009E+01  3.930449E+02 -4.584241E+02 -9.754600E+01 -7.799845E+02
       191   6  2.890959E+05  4.248326E+01  5.305938E+02 -3.468959E+03 -2.932203E+02 -1.023789E+03
       191   7  2.654310E+05 -5.876714E+03 -5.370194E+03 -3.475254E+03 -1.804956E+00 -5.354543E+02
       191   8  2.588729E+05 -7.517568E+03 -6.947415E+03 -4.592811E+02 -1.971911E+02 -7.799936E+02
       191   9  2.523614E+05 -9.084004E+03 -8.378342E+03 -3.464394E+03 -3.925568E+02 -1.023802E+03
       191  10  3.127614E+05  5.895207E+03  6.174156E+03 -3.462658E+03 -1.632861E-09 -6.199440E-10
       191  11  3.192731E+05  7.494780E+03  7.733438E+03 -4.575671E+02  3.603854E-09  8.827063E-10
       191  12  3.258316E+05  9.168870E+03  9.439430E+03 -3.473526E+03 -4.133621E-10  1.595510E-11
       191  13  2.890959E+05  9.266908E+00  4.020009E+02 -3.468956E+03  2.384103E-09  1.812788E-10
       191  14  2.890726E+05 -1.136074E+01  3.930438E+02 -4.584242E+02  2.344013E-09  6.490757E-10
       191  15  2.890959E+05  4.248212E+01  5.305916E+02 -3.468960E+03 -3.196217E-09 -2.667555E-10
       191  16  2.654310E+05 -5.876715E+03 -5.370195E+03 -3.475254E+03 -5.100775E-10  7.924262E-10
       191  17  2.588729E+05 -7.517568E+03 -6.947416E+03 -4.592812E+02 -4.373678E-09  2.251901E-10
       191  18  2.523614E+05 -9.084005E+03 -8.378344E+03 -3.464394E+03  2.890245E-10 -7.092869E-10
       191  19  3.127614E+05  5.895207E+03  6.174157E+03 -3.462658E+03 -1.981022E+02  5.354435E+02
       191  20  3.192731E+05  7.494780E+03  7.733439E+03 -4.575671E+02 -2.103948E+00  7.799755E+02
       191  21  3.258316E+05  9.168871E+03  9.439432E+03 -3.473525E+03  1.938779E+02  1.023777E+03
       191  22  2.890959E+05  9.267218E+00  4.020015E+02 -3.468956E+03 -9.814673E+01  5.354489E+02
       191  23  2.890726E+05 -1.136009E+01  3.930449E+02 -4.584241E+02  9.754600E+01  7.799845E+02
       191  24  2.890959E+05  4.248326E+01  5.305938E+02 -3.468959E+03  2.932203E+02  1.023789E+03
       191  25  2.654310E+05 -5.876714E+03 -5.370194E+03 -3.475254E+03  1.804956E+00  5.354543E+02
       191  26  2.588729E+05 -7.517568E+03 -6.947415E+03 -4.592811E+02  1.971911E+02  7.799936E+02
       191  27  2.523614E+05 -9.084004E+03 -8.378342E+03 -3.464394E+03  3.925568E+02  1.023802E+03
       192   1  3.373407E+05  1.196956E+04  1.238068E+04 -3.429429E+03 -2.942795E+02 -1.169834E+03
       192   2  3.438463E+05  1.355353E+04  1.434533E+04 -4.468776E+02 -8.169235E+02 -1.417084E+03
       192   3  3.505535E+05  1.564230E+04  1.677782E+04 -3.551610E+03 -1.339535E+03 -1.646697E+03
       192   4  2.891298E+05 -1.682032E+01  6.428963E+02 -3.483658E+03 -3.987543E+02 -1.169850E+03
       192   5  2.890295E+05 -7.055602E+01  1.022357E+03 -4.400341E+02 -9.141582E+02 -1.417107E+03
       192   6  2.891296E+05  3.793141E+02  1.864680E+03 -3.483727E+03 -1.429524E+03 -1.646725E+03
       192   7  2.409210E+05 -1.200337E+04 -1.109505E+04 -3.537884E+03 -5.032209E+02 -1.169867E+03
       192   8  2.342154E+05 -1.369486E+04 -1.230083E+04 -4.331914E+02 -1.011384E+03 -1.417129E+03
       192   9  2.277090E+05 -1.488395E+04 -1.304873E+04 -3.415852E+03 -1.519504E+03 -1.646752E+03
       192  10  3.373407E+05  1.196955E+04  1.238067E+04 -3.429429E+03  2.200920E-10 -3.533055E-10
       192  11  3.438463E+05  1.355352E+04  1.434533E+04 -4.468785E+02  4.923665E-10 -2.623070E-10
       192  12  3.505535E+05  1.564230E+04  1.677781E+04 -3.551612E+03  8.855545E-10  8.383966E-10
       192  13  2.891298E+05 -1.682184E+01  6.428934E+02 -3.483659E+03  2.154257E-09 -4.553350E-10
       192  14  2.890295E+05 -7.055840E+01  1.022351E+03 -4.400352E+02 -1.453394E-10  1.394829E-10
       192  15  2.891296E+05  3.793107E+02  1.864671E+03 -3.483729E+03 -1.428860E-09  7.032736E-10
       192  16  2.409210E+05 -1.200337E+04 -1.109505E+04 -3.537884E+03 -2.987701E-10 -7.119518E-10
       192  17  2.342154E+05 -1.369486E+04 -1.230084E+04 -4.331926E+02 -1.410471E-09  3.276204E-10
       192  18  2.277090E+05 -1.488396E+04 -1.304874E+04 -3.415854E+03 -1.995239E-09  9.341565E-10
       192  19  3.373407E+05  1.196956E+04  1.238068E+04 -3.429429E+03  2.942795E+02  1.169834E+03
       192  20  3.438463E+05  1.355353E+04  1.434533E+04 -4.468776E+02  8.169235E+02  1.417084E+03
       192  21  3.505535E+05  1.564230E+04  1.677782E+04 -3.551610E+03  1.339535E+03  1.646697E+03
       192  22  2.891298E+05 -1.682032E+01  6.428963E+02 -3.483658E+03  3.987543E+02  1.169850E+03
       192  23  2.890295E+05 -7.055602E+01  1.022357E+03 -4.400341E+02  9.141582E+02  1.417107E+03
       192  24  2.891296E+05  3.793141E+02  1.864680E+03 -3.483727E+03  1.429524E+03  1.646725E+03
       192  25  2.409210E+05 -1.200337E+04 -1.109505E+04 -3.537884E+03  5.032209E+02  1.169867E+03
       192  26  2.342154E+05 -1.369486E+04 -1.230083E+04 -4.331914E+02  1.011384E+03  1.417129E+03
       192  27  2.277090E+05 -1.488395E+04 -1.304873E+04 -3.415852E+03  1.519504E+03  1.646752E+03
       193   1  3.624406E+05  1.801029E+04  2.013171E+04 -3.096740E+03 -1.659927E+03 -1.822504E+03
       193   2  3.684910E+05  1.925618E+04  2.328234E+04 -5.905828E+02 -3.755192E+03 -2.076893E+03
       193   3  3.758860E+05  2.472922E+04  2.885639E+04 -4.270919E+03 -5.850532E+03 -2.127009E+03
       193   4  2.893802E+05 -1.515514E+02  2.357265E+03 -3.505401E+03 -1.805114E+03 -1.822548E+03
       193   5  2.887148E+05 -5.701233E+02  3.897093E+03 -4.126720E+02 -3.816769E+03 -2.076929E+03
       193   6  2.893795E+05  3.224233E+03  7.802512E+03 -3.506471E+03 -5.828476E+03 -2.127029E+03
       193   7  2.163247E+05 -1.831379E+04 -1.541756E+04 -3.914015E+03 -1.950283E+03 -1.822592E+03
       193   8  2.089444E+05 -2.039689E+04 -1.548861E+04 -2.347845E+02 -3.878338E+03 -2.076964E+03
       193   9  2.028798E+05 -1.828130E+04 -1.325191E+04 -2.742130E+03 -5.806422E+03 -2.127048E+03
       193  10  3.624406E+05  1.801029E+04  2.013170E+04 -3.096743E+03 -6.683916E-10  6.259620E-10
       193  11  3.684910E+05  1.925617E+04  2.328230E+04 -5.905891E+02 -6.846709E-09 -6.154907E-10
       193  12  3.758859E+05  2.472920E+04  2.885632E+04 -4.270929E+03 -3.223810E-09 -8.488860E-10
       193  13  2.893802E+05 -1.515558E+02  2.357252E+03 -3.505404E+03 -4.316968E-09  6.828798E-10
       193  14  2.887148E+05 -5.701318E+02  3.897058E+03 -4.126784E+02 -8.692370E-09 -2.198760E-10
       193  15  2.893794E+05  3.224219E+03  7.802439E+03 -3.506481E+03 -5.639774E-09 -9.175657E-10
       193  16  2.163247E+05 -1.831379E+04 -1.541758E+04 -3.914018E+03  1.185233E-09  8.446992E-10
       193  17  2.089444E+05 -2.039690E+04 -1.548865E+04 -2.347909E+02 -2.131271E-09  8.251315E-10
       193  18  2.028797E+05 -1.828131E+04 -1.325198E+04 -2.742140E+03  3.422786E-10 -8.468414E-10
       193  19  3.624406E+05  1.801029E+04  2.013171E+04 -3.096740E+03  1.659927E+03  1.822504E+03
       193  20  3.684910E+05  1.925618E+04  2.328234E+04 -5.905828E+02  3.755192E+03  2.076893E+03
       193  21  3.758860E+05  2.472922E+04  2.885639E+04 -4.270919E+03  5.850532E+03  2.127009E+03
       193  22  2.893802E+05 -1.515514E+02  2.357265E+03 -3.505401E+03  1.805114E+03  1.822548E+03
       193  23  2.887148E+05 -5.701233E+02  3.897093E+03 -4.126720E+02  3.816769E+03  2.076929E+03
       193  24  2.893795E+05  3.224233E+03  7.802512E+03 -3.506471E+03  5.828476E+03  2.127029E+03
       193  25  2.163247E+05 -1.831379E+04 -1.541756E+04 -3.914015E+03  1.950283E+03  1.822592E+03
       193  26  2.089444E+05 -2.039689E+04 -1.548861E+04 -2.347845E+02  3.878338E+03  2.076964E+03
       193  27  2.028798E+05 -1.828130E+04 -1.325191E+04 -2.742130E+03  5.806422E+03  2.127048E+03
       194   1  3.896509E+05  2.317435E+04  3.340900E+04 -3.252923E+02 -6.771257E+03 -2.601036E+03
       194   2  3.915514E+05  2.145490E+04  4.049227E+04 -2.326363E+03 -1.578591E+04 -2.893326E+03
       194   3  4.034554E+05  5.495922E+04  6.225306E+04 -1.062798E+04 -2.480176E+04 -9.839271E+02
       194   4  2.912728E+05 -1.275703E+03  9.513635E+03 -3.526678E+03 -7.337710E+03 -2.601239E+03
       194   5  2.863463E+05 -4.680852E+03  1.496828E+04 -3.835958E+02 -1.545247E+04 -2.893257E+03
       194   6  2.912687E+05  2.698471E+04  3.447747E+04 -3.541027E+03 -2.356832E+04 -9.835713E+02
       194   7  1.929037E+05 -2.572643E+04 -1.438242E+04 -6.727557E+03 -7.904073E+03 -2.601437E+03
       194   8  1.811513E+05 -3.081740E+04 -1.055651E+04  1.558840E+03 -1.511909E+04 -2.893186E+03
       194   9  1.790936E+05 -9.905428E+02  6.700987E+03  3.544640E+03 -2.233509E+04 -9.831874E+02
       194  10  3.896508E+05  2.317433E+04  3.340890E+04 -3.253065E+02 -7.100518E-10 -9.994917E-10
       194  11  3.915511E+05  2.145482E+04  4.049178E+04 -2.326399E+03  1.215521E-09 -1.699964E-09
       194  12  4.034548E+05  5.495905E+04  6.225190E+04 -1.062800E+04  1.350848E-09 -4.612514E-10
       194  13  2.912728E+05 -1.275724E+03  9.513522E+03 -3.526694E+03 -2.457429E-09 -2.457236E-09
       194  14  2.863460E+05 -4.680925E+03  1.496781E+04 -3.836318E+02 -3.046385E-09  6.158077E-10
       194  15  2.912681E+05  2.698456E+04  3.447643E+04 -3.541046E+03 -2.991413E-09 -5.580752E-11
       194  16  1.929036E+05 -2.572645E+04 -1.438255E+04 -6.727573E+03 -4.980408E-10 -1.244801E-09
       194  17  1.811511E+05 -3.081747E+04 -1.055695E+04  1.558805E+03 -3.209327E-09  4.636836E-10
       194  18  1.790930E+05 -9.906777E+02  6.700048E+03  3.544623E+03  4.844902E-10 -5.142675E-10
       194  19  3.896509E+05  2.317435E+04  3.340900E+04 -3.252923E+02  6.771257E+03  2.601036E+03
       194  20  3.915514E+05  2.145490E+04  4.049227E+04 -2.326363E+03  1.578591E+04  2.893326E+03
       194  21  4.034554E+05  5.495922E+04  6.225306E+04 -1.062798E+04  2.480176E+04  9.839271E+02
       194  22  2.912728E+05 -1.275703E+03  9.513635E+03 -3.526678E+03  7.337710E+03  2.601239E+03
       194  23  2.863463E+05 -4.680852E+03  1.496828E+04 -3.835958E+02  1.545247E+04  2.893257E+03
       194  24  2.912687E+05  2.698471E+04  3.447747E+04 -3.541027E+03  2.356832E+04  9.835713E+02
       194  25  1.929037E+05 -2.572643E+04 -1.438242E+04 -6.727557E+03  7.904073E+03  2.601437E+03
       194  26  1.811513E+05 -3.081740E+04 -1.055651E+04  1.558840E+03  1.511909E+04  2.893186E+03
       194  27  1.790936E+05 -9.905428E+02  6.700987E+03  3.544640E+03  2.233509E+04  9.831874E+02
       195   1  2.626487E+06  1.064023E+07  2.630936E+06 -1.233854E+06  8.318910E+04  1.429256E+05
       195   2  1.981433E+06  8.346443E+06  1.996602E+06 -2.253065E+05  2.257384E+05  2.805948E+04
       195   3  1.504155E+06  6.182175E+06  1.491570E+06 -1.248544E+06  1.435302E+05 -8.849450E+04
       195   4  5.872796E+04  2.851301E+05  8.129169E+04 -1.182334E+06  8.375101E+04  3.749799E+04
       195   5 -2.535545E+04  2.327071E+05  3.848152E+04 -1.654562E+05  2.260453E+05  1.601181E+04
       195   6  4.292830E+04  2.890318E+05  6.153526E+04 -1.182065E+06  1.422868E+05 -7.586680E+03
       195   7 -2.516971E+06 -9.973518E+06 -2.476224E+06 -1.131470E+06  8.430194E+04 -6.620009E+04
       195   8 -2.036933E+06 -7.821372E+06 -1.924351E+06 -1.062325E+05  2.263526E+05  4.118588E+03
       195   9 -1.420833E+06 -5.572597E+06 -1.370982E+06 -1.116057E+06  1.410542E+05  7.256132E+04
       195  10  2.626474E+06  1.064021E+07  2.630885E+06 -1.233864E+06  9.841406E-10 -2.049876E-09
       195  11  1.981378E+06  8.346429E+06  1.996505E+06 -2.253116E+05 -3.556369E-09 -3.099883E-09
       195  12  1.504131E+06  6.182161E+06  1.491517E+06 -1.248534E+06 -7.252423E-10  7.534502E-09
       195  13  5.872004E+04  2.851267E+05  8.127584E+04 -1.182337E+06  1.267663E-09 -1.346008E-11
       195  14 -2.541040E+04  2.326931E+05  3.838500E+04 -1.654591E+05 -8.239598E-11  5.054129E-09
       195  15  4.290655E+04  2.890263E+05  6.149711E+04 -1.182064E+06  7.791022E-10 -1.972662E-09
       195  16 -2.516980E+06 -9.973525E+06 -2.476245E+06 -1.131466E+06 -8.419677E-11 -2.085185E-09
       195  17 -2.036988E+06 -7.821385E+06 -1.924447E+06 -1.062333E+05  1.538593E-09  9.534867E-09
       195  18 -1.420856E+06 -5.572608E+06 -1.371030E+06 -1.116065E+06 -1.580970E-09  4.796487E-09
       195  19  2.626487E+06  1.064023E+07  2.630936E+06 -1.233854E+06 -8.318910E+04 -1.429256E+05
       195  20  1.981433E+06  8.346443E+06  1.996602E+06 -2.253065E+05 -2.257384E+05 -2.805948E+04
       195  21  1.504155E+06  6.182175E+06  1.491570E+06 -1.248544E+06 -1.435302E+05  8.849450E+04
       195  22  5.872796E+04  2.851301E+05  8.129169E+04 -1.182334E+06 -8.375101E+04 -3.749799E+04
       195  23 -2.535545E+04  2.327071E+05  3.848152E+04 -1.654562E+05 -2.260453E+05 -1.601181E+04
       195  24  4.292830E+04  2.890318E+05  6.153526E+04 -1.182065E+06 -1.422868E+05  7.586680E+03
       195  25 -2.516971E+06 -9.973518E+06 -2.476224E+06 -1.131470E+06 -8.430194E+04  6.620009E+04
       195  26 -2.036933E+06 -7.821372E+06 -1.924351E+06 -1.062325E+05 -2.263526E+05 -4.118588E+03
       195  27 -1.420833E+06 -5.572597E+06 -1.370982E+06 -1.116057E+06 -1.410542E+05 -7.256132E+04
       196   1  5.386557E+05  2.286693E+06  5.501932E+05 -1.213749E+06  5.788512E+04 -4.648155E+04
       196   2 -4.902530E+04  1.015950E+05  3.966761E+04 -1.609636E+05 -3.265757E+03 -9.020068E+04
       196   3 -5.041487E+05 -2.122363E+06 -4.273363E+05 -1.137398E+06 -6.362825E+04 -1.337260E+05
       196   4  3.604033E+04  2.643042E+05  6.037893E+04 -1.181440E+06  5.743450E+04 -2.101944E+04
       196   5 -3.017841E+03  2.859518E+05  8.449613E+04 -1.664370E+05 -3.696895E+03 -6.511050E+04
       196   6  9.083919E+04  2.642250E+05  1.526225E+05 -1.180504E+06 -6.404893E+04 -1.091584E+05
       196   7 -4.668724E+05 -1.754356E+06 -4.297273E+05 -1.149216E+06  5.698574E+04  4.360292E+03
       196   8  4.298753E+04  4.703410E+05  1.293246E+05 -1.719120E+05 -4.128411E+03 -4.001290E+04
       196   9  6.854119E+05  2.656026E+06  7.321718E+05 -1.223749E+06 -6.447217E+04 -8.449573E+04
       196  10  5.386515E+05  2.286690E+06  5.501829E+05 -1.213747E+06 -2.434386E-09 -7.996459E-09
       196  11 -4.902750E+04  1.015863E+05  3.965230E+04 -1.609638E+05  8.591272E-09 -6.173404E-09
       196  12 -5.041579E+05 -2.122383E+06 -4.273777E+05 -1.137405E+06 -1.112748E-08 -1.814635E-09
       196  13  3.603667E+04  2.643029E+05  6.037191E+04 -1.181439E+06  3.840092E-10  2.159376E-11
       196  14 -3.018993E+03  2.859472E+05  8.448814E+04 -1.664372E+05  1.494007E-08  9.307549E-09
       196  15  9.083157E+04  2.642111E+05  1.525924E+05 -1.180510E+06  9.170281E-09 -2.236151E-09
       196  16 -4.668759E+05 -1.754356E+06 -4.297334E+05 -1.149216E+06  1.695934E-09 -1.780798E-08
       196  17  4.298709E+04  4.703392E+05  1.293215E+05 -1.719121E+05 -9.404581E-09  1.566675E-08
       196  18  6.854055E+05  2.656017E+06  7.321505E+05 -1.223754E+06 -7.598997E-09  1.661015E-08
       196  19  5.386557E+05  2.286693E+06  5.501932E+05 -1.213749E+06 -5.788512E+04  4.648155E+04
       196  20 -4.902530E+04  1.015950E+05  3.966761E+04 -1.609636E+05  3.265757E+03  9.020068E+04
       196  21 -5.041487E+05 -2.122363E+06 -4.273363E+05 -1.137398E+06  6.362825E+04  1.337260E+05
       196  22  3.604033E+04  2.643042E+05  6.037893E+04 -1.181440E+06 -5.743450E+04  2.101944E+04
       196  23 -3.017841E+03  2.859518E+05  8.449613E+04 -1.664370E+05  3.696895E+03  6.511050E+04
       196  24  9.083919E+04  2.642250E+05  1.526225E+05 -1.180504E+06  6.404893E+04  1.091584E+05
       196  25 -4.668724E+05 -1.754356E+06 -4.297273E+05 -1.149216E+06 -5.698574E+04 -4.360292E+03
       196  26  4.298753E+04  4.703410E+05  1.293246E+05 -1.719120E+05  4.128411E+03  4.001290E+04
       196  27  6.854119E+05  2.656026E+06  7.321718E+05 -1.223749E+06  6.447217E+04  8.449573E+04
       197   1 -1.539018E+06 -5.901104E+06 -1.329456E+06 -1.166331E+06 -1.484519E+05 -2.227561E+05
       197   2 -2.208838E+06 -8.237700E+06 -1.777467E+06 -7.493530E+04 -2.338143E+05 -2.793344E+05
       197   3 -2.159822E+06 -1.030005E+07 -1.992485E+06 -1.019679E+06 -8.618053E+04 -3.337261E+05
       197   4  1.445496E+04  3.271188E+05  1.921913E+05 -1.183196E+06 -1.496688E+05 -1.419647E+05
       197   5 -1.044118E+05  1.829154E+05  2.753049E+05 -1.651902E+05 -2.334538E+05 -2.944420E+05
       197   6  5.081396E+05  3.230367E+05  6.559008E+05 -1.181415E+06 -8.562568E+04 -4.449632E+05
       197   7  1.565063E+06  6.590937E+06  1.711037E+06 -1.200057E+06 -1.508837E+05 -6.035298E+04
       197   8  1.994787E+06  8.668777E+06  2.322925E+06 -2.565317E+05 -2.330924E+05 -3.097341E+05
       197   9  3.167665E+06  1.104967E+07  3.295858E+06 -1.345774E+06 -8.501951E+04 -5.580735E+05
       197  10 -1.539055E+06 -5.901163E+06 -1.329592E+06 -1.166358E+06 -6.153154E-09 -1.105267E-08
       197  11 -2.208918E+06 -8.237800E+06 -1.777718E+06 -7.498819E+04  5.776800E-09  1.433953E-09
       197  12 -2.159860E+06 -1.030018E+07 -1.992712E+06 -1.019702E+06  3.089440E-09  1.635956E-09
       197  13  1.442543E+04  3.270911E+05  1.921111E+05 -1.183213E+06 -1.366174E-08 -8.021677E-11
       197  14 -1.044936E+05  1.828077E+05  2.750395E+05 -1.652456E+05  6.726186E-09  4.652519E-09
       197  15  5.080785E+05  3.228222E+05  6.555148E+05 -1.181446E+06  1.195165E-09 -1.726457E-10
       197  16  1.565038E+06  6.590927E+06  1.710988E+06 -1.200064E+06  2.958892E-09 -1.192873E-08
       197  17  1.994703E+06  8.668660E+06  2.322645E+06 -2.565895E+05  3.233430E-09  2.477750E-09
       197  18  3.167575E+06  1.104934E+07  3.295269E+06 -1.345812E+06 -3.053507E-10 -2.546548E-10
       197  19 -1.539018E+06 -5.901104E+06 -1.329456E+06 -1.166331E+06  1.484519E+05  2.227561E+05
       197  20 -2.208838E+06 -8.237700E+06 -1.777467E+06 -7.493530E+04  2.338143E+05  2.793344E+05
       197  21 -2.159822E+06 -1.030005E+07 -1.992485E+06 -1.019679E+06  8.618053E+04  3.337261E+05
       197  22  1.445496E+04  3.271188E+05  1.921913E+05 -1.183196E+06  1.496688E+05  1.419647E+05
       197  23 -1.044118E+05  1.829154E+05  2.753049E+05 -1.651902E+05  2.334538E+05  2.944420E+05
       197  24  5.081396E+05  3.230367E+05  6.559008E+05 -1.181415E+06  8.562568E+04  4.449632E+05
       197  25  1.565063E+06  6.590937E+06  1.711037E+06 -1.200057E+06  1.508837E+05  6.035298E+04
       197  26  1.994787E+06  8.668777E+06  2.322925E+06 -2.565317E+05  2.330924E+05  3.097341E+05
       197  27  3.167665E+06  1.104967E+07  3.295858E+06 -1.345774E+06  8.501951E+04  5.580735E+05
       198   1 -4.237183E+05 -1.864415E+05 -9.169403E+04 -1.892490E+05 -4.601974E+04 -1.471526E+04
       198   2 -4.000503E+05 -1.357822E+05 -5.178907E+04 -1.782035E+05 -2.772978E+04 -2.176953E+03
       198   3 -3.834175E+05 -1.098219E+05 -3.260934E+04 -1.664379E+05 -7.862878E+03  6.163986E+03
       198   4 -2.684103E+05 -1.022905E+05 -4.704447E+04 -1.199838E+05 -3.156459E+04 -9.293444E+03
       198   5 -2.632451E+05 -7.307170E+04 -2.238491E+04 -1.269908E+05 -2.185266E+04  2.741056E+01
       198   6 -2.634133E+05 -6.685016E+04 -1.164971E+04 -1.332791E+05 -1.056473E+04  5.150105E+03
       198   7 -1.130797E+05 -1.813033E+04 -2.397120E+03 -5.070164E+04 -1.710581E+04 -3.868740E+03
       198   8 -1.264208E+05 -1.035658E+04  7.018170E+03 -7.576691E+04 -1.597420E+04  2.232586E+03
       198   9 -1.433929E+05 -2.387671E+04  9.309768E+03 -1.001140E+05 -1.326715E+04  4.136011E+03
       198  10 -4.237206E+05 -1.864423E+05 -9.169842E+04 -1.892496E+05 -3.421632E-09 -8.391250E-10
       198  11 -4.000511E+05 -1.357824E+05 -5.179052E+04 -1.782036E+05 -2.066961E-09  1.725490E-09
       198  12 -3.834176E+05 -1.098220E+05 -3.260953E+04 -1.664379E+05  2.873757E-09  1.837561E-09
       198  13 -2.684114E+05 -1.022908E+05 -4.704651E+04 -1.199841E+05  1.989830E-09  1.129517E-09
       198  14 -2.632456E+05 -7.307183E+04 -2.238581E+04 -1.269908E+05 -2.875548E-09  2.281535E-09
       198  15 -2.634134E+05 -6.685022E+04 -1.164997E+04 -1.332790E+05 -2.410724E-09  7.170318E-10
       198  16 -1.130800E+05 -1.813043E+04 -2.397698E+03 -5.070170E+04  6.076747E-09  2.923752E-09
       198  17 -1.264210E+05 -1.035665E+04  7.017681E+03 -7.576688E+04  3.260672E-09  2.827143E-09
       198  18 -1.433931E+05 -2.387677E+04  9.309405E+03 -1.001139E+05 -4.487735E-09  1.700221E-10
       198  19 -4.237183E+05 -1.864415E+05 -9.169403E+04 -1.892490E+05  4.601974E+04  1.471526E+04
       198  20 -4.000503E+05 -1.357822E+05 -5.178907E+04 -1.782035E+05  2.772978E+04  2.176953E+03
       198  21 -3.834175E+05 -1.098219E+05 -3.260934E+04 -1.664379E+05  7.862878E+03 -6.163986E+03
       198  22 -2.684103E+05 -1.022905E+05 -4.704447E+04 -1.199838E+05  3.156459E+04  9.293444E+03
       198  23 -2.632451E+05 -7.307170E+04 -2.238491E+04 -1.269908E+05  2.185266E+04 -2.741056E+01
       198  24 -2.634133E+05 -6.685016E+04 -1.164971E+04 -1.332791E+05  1.056473E+04 -5.150105E+03
       198  25 -1.130797E+05 -1.813033E+04 -2.397120E+03 -5.070164E+04  1.710581E+04  3.868740E+03
       198  26 -1.264208E+05 -1.035658E+04  7.018170E+03 -7.576691E+04  1.597420E+04 -2.232586E+03
       198  27 -1.433929E+05 -2.387671E+04  9.309768E+03 -1.001140E+05  1.326715E+04 -4.136011E+03
       199   1 -3.635543E+05 -1.040972E+05 -2.621738E+04 -1.628115E+05 -6.392050E+03  5.686452E+03
       199   2 -3.382379E+05 -8.988794E+04 -1.678958E+04 -1.531085E+05 -2.639986E+03  5.427175E+03
       199   3 -3.102484E+05 -8.100893E+04 -1.017858E+04 -1.473521E+05  1.282182E+03  4.714644E+03
       199   4 -2.620619E+05 -6.621702E+04 -8.664868E+03 -1.330643E+05 -8.916082E+03  4.739346E+03
       199   5 -2.633207E+05 -6.244688E+04 -4.512605E+03 -1.315395E+05 -6.090180E+03  4.132709E+03
       199   6 -2.617234E+05 -6.382340E+04 -2.442806E+03 -1.339616E+05 -3.094292E+03  3.072788E+03
       199   7 -1.605597E+05 -2.833605E+04  8.887043E+03 -1.033128E+05 -1.144052E+04  3.792073E+03
       199   8 -1.883975E+05 -3.500517E+04  7.764302E+03 -1.099680E+05 -9.540816E+03  2.838069E+03
       199   9 -2.131951E+05 -4.663740E+04  5.293166E+03 -1.205700E+05 -7.471180E+03  1.430781E+03
       199  10 -3.635544E+05 -1.040973E+05 -2.621752E+04 -1.628115E+05 -1.665165E-09  3.354797E-10
       199  11 -3.382379E+05 -8.988798E+04 -1.678965E+04 -1.531084E+05 -1.513004E-09  9.435889E-10
       199  12 -3.102484E+05 -8.100896E+04 -1.017863E+04 -1.473521E+05 -8.794870E-10 -9.450605E-10
       199  13 -2.620620E+05 -6.621707E+04 -8.665060E+03 -1.330643E+05  2.028059E-09  7.164164E-12
       199  14 -2.633208E+05 -6.244691E+04 -4.512707E+03 -1.315395E+05  5.508975E-09  2.767179E-10
       199  15 -2.617234E+05 -6.382341E+04 -2.442842E+03 -1.339616E+05  7.744553E-09  1.845574E-09
       199  16 -1.605598E+05 -2.833610E+04  8.886770E+03 -1.033128E+05  5.894769E-09 -3.134249E-10
       199  17 -1.883976E+05 -3.500520E+04  7.764116E+03 -1.099680E+05  6.410660E-09  4.031064E-10
       199  18 -2.131952E+05 -4.663742E+04  5.293057E+03 -1.205700E+05  5.247859E-09  4.676172E-09
       199  19 -3.635543E+05 -1.040972E+05 -2.621738E+04 -1.628115E+05  6.392050E+03 -5.686452E+03
       199  20 -3.382379E+05 -8.988794E+04 -1.678958E+04 -1.531085E+05  2.639986E+03 -5.427175E+03
       199  21 -3.102484E+05 -8.100893E+04 -1.017858E+04 -1.473521E+05 -1.282182E+03 -4.714644E+03
       199  22 -2.620619E+05 -6.621702E+04 -8.664868E+03 -1.330643E+05  8.916082E+03 -4.739346E+03
       199  23 -2.633207E+05 -6.244688E+04 -4.512605E+03 -1.315395E+05  6.090180E+03 -4.132709E+03
       199  24 -2.617234E+05 -6.382340E+04 -2.442806E+03 -1.339616E+05  3.094292E+03 -3.072788E+03
       199  25 -1.605597E+05 -2.833605E+04  8.887043E+03 -1.033128E+05  1.144052E+04 -3.792073E+03
       199  26 -1.883975E+05 -3.500517E+04  7.764302E+03 -1.099680E+05  9.540816E+03 -2.838069E+03
       199  27 -2.131951E+05 -4.663740E+04  5.293166E+03 -1.205700E+05  7.471180E+03 -1.430781E+03
       200   1 -2.929512E+05 -7.497511E+04 -6.764312E+03 -1.426763E+05  2.065745E+03  3.570689E+03
       200   2 -2.677145E+05 -6.334008E+04 -1.728969E+03 -1.329836E+05  3.469889E+03  1.637865E+03
       200   3 -2.388866E+05 -5.554181E+04  2.832612E+03 -1.275376E+05  4.892318E+03 -3.437477E+02
       200   4 -2.615929E+05 -6.379556E+04 -1.827050E+03 -1.339276E+05 -2.291771E+03  1.935982E+03
       200   5 -2.633900E+05 -6.182997E+04 -9.913354E+02 -1.318255E+05 -9.874007E+02 -3.426065E+01
       200   6 -2.615769E+05 -6.368139E+04 -5.503250E+02 -1.339704E+05  3.352231E+02 -2.053296E+03
       200   7 -2.302336E+05 -5.261591E+04  3.110272E+03 -1.251785E+05 -6.649517E+03  3.011883E+02
       200   8 -2.590655E+05 -6.031985E+04 -2.536245E+02 -1.306675E+05 -5.444695E+03 -1.706387E+03
       200   9 -2.842663E+05 -7.182078E+04 -3.933101E+03 -1.404030E+05 -4.221641E+03 -3.762757E+03
       200  10 -2.929512E+05 -7.497512E+04 -6.764344E+03 -1.426763E+05 -1.722134E-08 -7.369600E-09
       200  11 -2.677145E+05 -6.334009E+04 -1.728997E+03 -1.329836E+05  4.672265E-09  2.188135E-09
       200  12 -2.388866E+05 -5.554181E+04  2.832567E+03 -1.275375E+05  3.253956E-08  1.718364E-08
       200  13 -2.615930E+05 -6.379557E+04 -1.827067E+03 -1.339276E+05  6.882432E-09 -4.332081E-10
       200  14 -2.633900E+05 -6.182997E+04 -9.913373E+02 -1.318255E+05 -9.804819E-11 -7.607731E-09
       200  15 -2.615769E+05 -6.368139E+04 -5.503331E+02 -1.339704E+05  1.436782E-09 -1.094661E-08
       200  16 -2.302336E+05 -5.261592E+04  3.110188E+03 -1.251785E+05  1.825197E-08  1.093443E-08
       200  17 -2.590656E+05 -6.031986E+04 -2.536857E+02 -1.306675E+05 -1.116158E-08  2.031967E-09
       200  18 -2.842663E+05 -7.182080E+04 -3.933161E+03 -1.404030E+05 -2.997025E-08 -4.068447E-09
       200  19 -2.929512E+05 -7.497511E+04 -6.764312E+03 -1.426763E+05 -2.065745E+03 -3.570689E+03
       200  20 -2.677145E+05 -6.334008E+04 -1.728969E+03 -1.329836E+05 -3.469889E+03 -1.637865E+03
       200  21 -2.388866E+05 -5.554181E+04  2.832612E+03 -1.275376E+05 -4.892318E+03  3.437477E+02
       200  22 -2.615929E+05 -6.379556E+04 -1.827050E+03 -1.339276E+05  2.291771E+03 -1.935982E+03
       200  23 -2.633900E+05 -6.182997E+04 -9.913354E+02 -1.318255E+05  9.874007E+02  3.426065E+01
       200  24 -2.615769E+05 -6.368139E+04 -5.503250E+02 -1.339704E+05 -3.352231E+02  2.053296E+03
       200  25 -2.302336E+05 -5.261591E+04  3.110272E+03 -1.251785E+05  6.649517E+03 -3.011883E+02
       200  26 -2.590655E+05 -6.031985E+04 -2.536245E+02 -1.306675E+05  5.444695E+03  1.706387E+03
       200  27 -2.842663E+05 -7.182078E+04 -3.933101E+03 -1.404030E+05  4.221641E+03  3.762757E+03
       201   1 -2.218291E+05 -4.945699E+04  5.699146E+03 -1.227757E+05  5.456797E+03 -1.613791E+03
       201   2 -1.966443E+05 -3.796916E+04  9.956823E+03 -1.130662E+05  6.422522E+03 -3.795381E+03
       201   3 -1.677640E+05 -3.020236E+04  1.411728E+04 -1.076117E+05  7.389772E+03 -5.980763E+03
       201   4 -2.615613E+05 -6.368384E+04 -4.170604E+02 -1.339634E+05  9.018950E+02 -3.322550E+03
       201   5 -2.634104E+05 -6.182809E+04 -2.431500E+02 -1.318342E+05  1.859687E+03 -5.507247E+03
       201   6 -2.615637E+05 -6.369223E+04 -1.604349E+02 -1.339608E+05  2.818997E+03 -7.695732E+03
       201   7 -3.012921E+05 -7.791069E+04 -6.533337E+03 -1.451504E+05 -3.652754E+03 -5.031213E+03
       201   8 -3.301720E+05 -8.568670E+04 -1.044321E+04 -1.506005E+05 -2.702658E+03 -7.218928E+03
       201   9 -3.553540E+05 -9.718117E+04 -1.443819E+04 -1.603061E+05 -1.751052E+03 -9.410428E+03
       201  10 -2.218292E+05 -4.945700E+04  5.699085E+03 -1.227757E+05 -2.803983E-08 -5.314871E-09
       201  11 -1.966444E+05 -3.796918E+04  9.956718E+03 -1.130662E+05 -9.881585E-09 -7.730370E-10
       201  12 -1.677641E+05 -3.020241E+04  1.411711E+04 -1.076117E+05  1.809411E-08  6.984519E-09
       201  13 -2.615613E+05 -6.368385E+04 -4.170826E+02 -1.339634E+05  1.547875E-09 -1.181467E-08
       201  14 -2.634104E+05 -6.182813E+04 -2.432135E+02 -1.318342E+05 -4.666972E-09 -1.025328E-08
       201  15 -2.615638E+05 -6.369230E+04 -1.605611E+02 -1.339608E+05  2.704360E-09 -3.663087E-09
       201  16 -3.012922E+05 -7.791072E+04 -6.533410E+03 -1.451505E+05  3.070282E-08  1.707851E-08
       201  17 -3.301720E+05 -8.568676E+04 -1.044333E+04 -1.506005E+05  2.402227E-09  5.055854E-10
       201  18 -3.553540E+05 -9.718126E+04 -1.443837E+04 -1.603061E+05 -2.075715E-08 -9.809190E-09
       201  19 -2.218291E+05 -4.945699E+04  5.699146E+03 -1.227757E+05 -5.456797E+03  1.613791E+03
       201  20 -1.966443E+05 -3.796916E+04  9.956823E+03 -1.130662E+05 -6.422522E+03  3.795381E+03
       201  21 -1.677640E+05 -3.020236E+04  1.411728E+04 -1.076117E+05 -7.389772E+03  5.980763E+03
       201  22 -2.615613E+05 -6.368384E+04 -4.170604E+02 -1.339634E+05 -9.018950E+02  3.322550E+03
       201  23 -2.634104E+05 -6.182809E+04 -2.431500E+02 -1.318342E+05 -1.859687E+03  5.507247E+03
       201  24 -2.615637E+05 -6.369223E+04 -1.604349E+02 -1.339608E+05 -2.818997E+03  7.695732E+03
       201  25 -3.012921E+05 -7.791069E+04 -6.533337E+03 -1.451504E+05  3.652754E+03  5.031213E+03
       201  26 -3.301720E+05 -8.568670E+04 -1.044321E+04 -1.506005E+05  2.702658E+03  7.218928E+03
       201  27 -3.553540E+05 -9.718117E+04 -1.443819E+04 -1.603061E+05  1.751052E+03  9.410428E+03
       202   1 -1.507397E+05 -2.410850E+04  1.686230E+04 -1.028435E+05  7.903303E+03 -7.273087E+03
       202   2 -1.255761E+05 -1.262259E+04  2.094238E+04 -9.313290E+04  8.788246E+03 -9.484972E+03
       202   3 -9.670468E+04 -4.846844E+03  2.498758E+04 -8.767367E+04  9.669201E+03 -1.168569E+04
       202   4 -2.615638E+05 -6.369384E+04 -1.423654E+02 -1.339593E+05  3.332750E+03 -8.988076E+03
       202   5 -2.634165E+05 -6.184041E+04 -1.420116E+02 -1.318325E+05  4.240330E+03 -1.119171E+04
       202   6 -2.615666E+05 -6.370158E+04 -1.944371E+02 -1.339572E+05  5.143927E+03 -1.338418E+04
       202   7 -3.723731E+05 -1.032774E+05 -1.714675E+04 -1.650696E+05 -1.236889E+03 -1.070272E+04
       202   8 -4.012364E+05 -1.110562E+05 -2.122659E+04 -1.705240E+05 -3.065185E+02 -1.289804E+04
       202   9 -4.264011E+05 -1.225542E+05 -2.537730E+04 -1.802297E+05  6.198693E+02 -1.508222E+04
       202  10 -1.507398E+05 -2.410857E+04  1.686208E+04 -1.028434E+05  9.839111E-10  1.135708E-09
       202  11 -1.255762E+05 -1.262271E+04  2.094207E+04 -9.313283E+04 -6.974807E-09  2.298900E-09
       202  12 -9.670482E+04 -4.847016E+03  2.498715E+04 -8.767358E+04 -4.692085E-09  1.774474E-09
       202  13 -2.615638E+05 -6.369393E+04 -1.425380E+02 -1.339593E+05 -2.061449E-09 -5.248496E-10
       202  14 -2.634166E+05 -6.184055E+04 -1.422807E+02 -1.318325E+05 -2.629702E-09 -1.145946E-10
       202  15 -2.615667E+05 -6.370178E+04 -1.948234E+02 -1.339572E+05 -5.765116E-10  4.088645E-10
       202  16 -3.723732E+05 -1.032775E+05 -1.714697E+04 -1.650696E+05 -6.288284E-09 -2.351010E-09
       202  17 -4.012364E+05 -1.110564E+05 -2.122690E+04 -1.705240E+05 -1.077360E-08 -1.995081E-09
       202  18 -4.264012E+05 -1.225544E+05 -2.537772E+04 -1.802297E+05 -4.457397E-09 -1.061006E-09
       202  19 -1.507397E+05 -2.410850E+04  1.686230E+04 -1.028435E+05 -7.903303E+03  7.273087E+03
       202  20 -1.255761E+05 -1.262259E+04  2.094238E+04 -9.313290E+04 -8.788246E+03  9.484972E+03
       202  21 -9.670468E+04 -4.846844E+03  2.498758E+04 -8.767367E+04 -9.669201E+03  1.168569E+04
       202  22 -2.615638E+05 -6.369384E+04 -1.423654E+02 -1.339593E+05 -3.332750E+03  8.988076E+03
       202  23 -2.634165E+05 -6.184041E+04 -1.420116E+02 -1.318325E+05 -4.240330E+03  1.119171E+04
       202  24 -2.615666E+05 -6.370158E+04 -1.944371E+02 -1.339572E+05 -5.143927E+03  1.338418E+04
       202  25 -3.723731E+05 -1.032774E+05 -1.714675E+04 -1.650696E+05  1.236889E+03  1.070272E+04
       202  26 -4.012364E+05 -1.110562E+05 -2.122659E+04 -1.705240E+05  3.065185E+02  1.289804E+04
       202  27 -4.264011E+05 -1.225542E+05 -2.537730E+04 -1.802297E+05 -6.198693E+02  1.508222E+04
       203   1 -7.969003E+04  1.248563E+03  2.767858E+04 -8.291029E+04  1.019388E+04 -1.296333E+04
       203   2 -5.455315E+04  1.274163E+04  3.167730E+04 -7.320081E+04  1.100061E+04 -1.512785E+04
       203   3 -2.570883E+04  2.052942E+04  3.568009E+04 -6.772923E+04  1.176843E+04 -1.718793E+04
       203   4 -2.615757E+05 -6.370154E+04 -2.432500E+02 -1.339578E+05  5.665127E+03 -1.466332E+04
       203   5 -2.634145E+05 -6.185652E+04 -4.166187E+02 -1.318288E+05  6.685185E+03 -1.674814E+04
       203   6 -2.615887E+05 -6.375922E+04 -7.549439E+02 -1.339383E+05  7.666326E+03 -1.872849E+04
       203   7 -4.434254E+05 -1.286481E+05 -2.816545E+04 -1.849911E+05  1.137774E+03 -1.636278E+04
       203   8 -4.722273E+05 -1.364495E+05 -3.251073E+04 -1.904379E+05  2.371321E+03 -1.836784E+04
       203   9 -4.974055E+05 -1.480409E+05 -3.718995E+04 -2.001228E+05  3.565920E+03 -2.026842E+04
       203  10 -7.969018E+04  1.248355E+03  2.767807E+04 -8.291018E+04  2.623311E-09  1.699821E-09
       203  11 -5.455334E+04  1.274135E+04  3.167664E+04 -7.320068E+04  7.133938E-09  7.099269E-10
       203  12 -2.570906E+04  2.052906E+04  3.567927E+04 -6.772907E+04  3.661505E-10  2.774014E-10
       203  13 -2.615758E+05 -6.370178E+04 -2.437143E+02 -1.339577E+05  1.673035E-09  9.140079E-10
       203  14 -2.634146E+05 -6.185683E+04 -4.172297E+02 -1.318287E+05  9.290813E-10  1.034493E-10
       203  15 -2.615889E+05 -6.375962E+04 -7.557134E+02 -1.339381E+05  5.972222E-10 -1.173371E-09
       203  16 -4.434255E+05 -1.286484E+05 -2.816596E+04 -1.849911E+05 -1.787787E-09 -5.888620E-10
       203  17 -4.722274E+05 -1.364499E+05 -3.251137E+04 -1.904379E+05 -8.339781E-09 -8.341272E-10
       203  18 -4.974057E+05 -1.480413E+05 -3.719075E+04 -2.001227E+05 -6.663629E-09 -1.339604E-09
       203  19 -7.969003E+04  1.248563E+03  2.767858E+04 -8.291029E+04 -1.019388E+04  1.296333E+04
       203  20 -5.455315E+04  1.274163E+04  3.167730E+04 -7.320081E+04 -1.100061E+04  1.512785E+04
       203  21 -2.570883E+04  2.052942E+04  3.568009E+04 -6.772923E+04 -1.176843E+04  1.718793E+04
       203  22 -2.615757E+05 -6.370154E+04 -2.432500E+02 -1.339578E+05 -5.665127E+03  1.466332E+04
       203  23 -2.634145E+05 -6.185652E+04 -4.166187E+02 -1.318288E+05 -6.685185E+03  1.674814E+04
       203  24 -2.615887E+05 -6.375922E+04 -7.549439E+02 -1.339383E+05 -7.666326E+03  1.872849E+04
       203  25 -4.434254E+05 -1.286481E+05 -2.816545E+04 -1.849911E+05 -1.137774E+03  1.636278E+04
       203  26 -4.722273E+05 -1.364495E+05 -3.251073E+04 -1.904379E+05 -2.371321E+03  1.836784E+04
       203  27 -4.974055E+05 -1.480409E+05 -3.718995E+04 -2.001228E+05 -3.565920E+03  2.026842E+04
       204   1 -8.667296E+03  2.661935E+04  3.830587E+04 -6.300781E+04  1.239819E+04 -1.833139E+04
       204   2  1.619208E+04  3.822476E+04  4.252026E+04 -5.305445E+04  1.194656E+04 -2.026278E+04
       204   3  4.475760E+04  4.597513E+04  4.744064E+04 -4.716231E+04  1.113391E+04 -2.123211E+04
       204   4 -2.616513E+05 -6.376271E+04 -1.005353E+03 -1.339393E+05  8.256617E+03 -1.988700E+04
       204   5 -2.633819E+05 -6.213578E+04 -1.852921E+03 -1.317236E+05  9.772031E+03 -2.108037E+04
       204   6 -2.617973E+05 -6.475424E+04 -3.553357E+03 -1.335698E+05  1.092641E+04 -2.131138E+04
       204   7 -5.145694E+05 -1.541393E+05 -4.031840E+04 -2.048445E+05  4.116781E+03 -2.144197E+04
       204   8 -5.428736E+05 -1.624888E+05 -4.622803E+04 -2.103599E+05  7.598528E+03 -2.189757E+04
       204   9 -5.682520E+05 -1.754740E+05 -5.454967E+04 -2.199374E+05  1.071903E+04 -2.139060E+04
       204  10 -8.667552E+03  2.661895E+04  3.830495E+04 -6.300762E+04 -5.352117E-09 -1.446290E-09
       204  11  1.619182E+04  3.822428E+04  4.251922E+04 -5.305426E+04 -7.111381E-09 -1.475743E-09
       204  12  4.475734E+04  4.597461E+04  4.743956E+04 -4.716212E+04 -7.015085E-09  1.671281E-09
       204  13 -2.616515E+05 -6.376315E+04 -1.006225E+03 -1.339392E+05 -3.950955E-09 -1.130639E-09
       204  14 -2.633821E+05 -6.213628E+04 -1.853935E+03 -1.317234E+05 -4.774932E-09  4.179241E-10
       204  15 -2.617975E+05 -6.475476E+04 -3.554434E+03 -1.335697E+05 -1.265234E-09  1.771994E-09
       204  16 -5.145695E+05 -1.541398E+05 -4.031930E+04 -2.048444E+05 -5.478616E-09  9.178159E-10
       204  17 -5.428738E+05 -1.624893E+05 -4.622904E+04 -2.103597E+05 -7.566516E-09  2.608069E-09
       204  18 -5.682522E+05 -1.754745E+05 -5.455075E+04 -2.199372E+05  2.231572E-09  2.934688E-09
       204  19 -8.667296E+03  2.661935E+04  3.830587E+04 -6.300781E+04 -1.239819E+04  1.833139E+04
       204  20  1.619208E+04  3.822476E+04  4.252026E+04 -5.305445E+04 -1.194656E+04  2.026278E+04
       204  21  4.475760E+04  4.597513E+04  4.744064E+04 -4.716231E+04 -1.113391E+04  2.123211E+04
       204  22 -2.616513E+05 -6.376271E+04 -1.005353E+03 -1.339393E+05 -8.256617E+03  1.988700E+04
       204  23 -2.633819E+05 -6.213578E+04 -1.852921E+03 -1.317236E+05 -9.772031E+03  2.108037E+04
       204  24 -2.617973E+05 -6.475424E+04 -3.553357E+03 -1.335698E+05 -1.092641E+04  2.131138E+04
       204  25 -5.145694E+05 -1.541393E+05 -4.031840E+04 -2.048445E+05 -4.116781E+03  2.144197E+04
       204  26 -5.428736E+05 -1.624888E+05 -4.622803E+04 -2.103599E+05 -7.598528E+03  2.189757E+04
       204  27 -5.682520E+05 -1.754740E+05 -5.454967E+04 -2.199374E+05 -1.071903E+04  2.139060E+04
       205   1  6.219174E+04  5.183173E+04  5.038478E+04 -4.288462E+04  1.221622E+04 -2.133779E+04
       205   2  8.304610E+04  6.482065E+04  5.932729E+04 -2.829225E+04 -2.811679E+03 -2.222566E+04
       205   3  1.070935E+05  7.024424E+04  7.699498E+04 -1.541496E+04 -2.118657E+04 -1.420927E+04
       205   4 -2.624366E+05 -6.493204E+04 -4.776156E+03 -1.335611E+05  1.163209E+04 -2.155858E+04
       205   5 -2.632579E+05 -6.660405E+04 -9.177939E+03 -1.299797E+05  1.481628E+04 -1.560618E+04
       205   6 -2.644959E+05 -7.945164E+04 -1.928586E+04 -1.281139E+05  1.465349E+04 -7.465361E+02
       205   7 -5.869521E+05 -1.816851E+05 -5.993974E+04 -2.241931E+05  1.104828E+04 -2.177924E+04
       205   8 -6.094305E+05 -1.980127E+05 -7.768568E+04 -2.316116E+05  3.243341E+04 -8.991146E+03
       205   9 -6.359351E+05 -2.291265E+05 -1.155694E+05 -2.407451E+05  5.046896E+04  1.270541E+04
       205  10  6.219145E+04  5.183120E+04  5.038365E+04 -4.288441E+04  4.490183E-11  2.997847E-09
       205  11  8.304596E+04  6.482012E+04  5.932634E+04 -2.829230E+04  5.365536E-09  2.256811E-09
       205  12  1.070930E+05  7.024391E+04  7.699375E+04 -1.541520E+04  3.196126E-09  1.453858E-09
       205  13 -2.624368E+05 -6.493257E+04 -4.777283E+03 -1.335609E+05  2.159450E-09  2.260464E-09
       205  14 -2.632582E+05 -6.660437E+04 -9.178809E+03 -1.299795E+05  4.132496E-09  1.876506E-09
       205  15 -2.644962E+05 -7.945170E+04 -1.928627E+04 -1.281139E+05  4.297647E-10  1.430211E-09
       205  16 -5.869524E+05 -1.816857E+05 -5.994086E+04 -2.241929E+05  1.569190E-10  1.599850E-09
       205  17 -6.094316E+05 -1.980131E+05 -7.768781E+04 -2.316113E+05 -9.228969E-10  2.117777E-09
       205  18 -6.359379E+05 -2.291274E+05 -1.155745E+05 -2.407456E+05 -1.239569E-09 -2.177440E-10
       205  19  6.219174E+04  5.183173E+04  5.038478E+04 -4.288462E+04 -1.221622E+04  2.133779E+04
       205  20  8.304610E+04  6.482065E+04  5.932729E+04 -2.829225E+04  2.811679E+03  2.222566E+04
       205  21  1.070935E+05  7.024424E+04  7.699498E+04 -1.541496E+04  2.118657E+04  1.420927E+04
       205  22 -2.624366E+05 -6.493204E+04 -4.776156E+03 -1.335611E+05 -1.163209E+04  2.155858E+04
       205  23 -2.632579E+05 -6.660405E+04 -9.177939E+03 -1.299797E+05 -1.481628E+04  1.560618E+04
       205  24 -2.644959E+05 -7.945164E+04 -1.928586E+04 -1.281139E+05 -1.465349E+04  7.465361E+02
       205  25 -5.869521E+05 -1.816851E+05 -5.993974E+04 -2.241931E+05 -1.104828E+04  2.177924E+04
       205  26 -6.094305E+05 -1.980127E+05 -7.768568E+04 -2.316116E+05 -3.243341E+04  8.991146E+03
       205  27 -6.359351E+05 -2.291265E+05 -1.155694E+05 -2.407451E+05 -5.046896E+04 -1.270541E+04
       206   1 -1.930203E+05 -3.474570E+04 -5.726450E+04 -1.639853E+04 -6.790362E+04 -1.619944E+03
       206   2 -1.878336E+05  5.670944E+04 -2.565875E+03 -5.350397E+03 -4.527245E+04 -4.759665E+03
       206   3 -2.115021E+05  4.438674E+04  1.146371E+04  1.412831E+04 -2.264447E+04 -4.347711E+03
       206   4 -3.747329E+05 -8.007404E+04 -1.022817E+05  4.663977E+03 -6.989951E+04 -1.623496E+03
       206   5 -3.601685E+05  1.387491E+04 -4.440535E+04  4.217077E+02 -4.582626E+04 -4.760583E+03
       206   6 -3.747185E+05  3.779169E+03 -2.820836E+04  4.610256E+03 -2.175581E+04 -4.346675E+03
       206   7 -5.564146E+05 -1.254032E+05 -1.473010E+05  2.572031E+04 -7.189481E+04 -1.627184E+03
       206   8 -5.324761E+05 -2.896168E+04 -8.624695E+04  6.192200E+03 -4.637991E+04 -4.761511E+03
       206   9 -5.379104E+05 -3.683003E+04 -6.788231E+04 -4.905289E+03 -2.086739E+04 -4.345667E+03
       206  10 -1.930252E+05 -3.474694E+04 -5.727317E+04 -1.639862E+04  5.461578E-10  3.081945E-10
       206  11 -1.878358E+05  5.670886E+04 -2.569770E+03 -5.350570E+03 -5.585111E-10 -7.539897E-10
       206  12 -2.115027E+05  4.438658E+04  1.146271E+04  1.412823E+04  4.304064E-10 -2.762648E-09
       206  13 -3.747382E+05 -8.007535E+04 -1.022909E+05  4.663886E+03 -1.282460E-10  1.056892E-09
       206  14 -3.601707E+05  1.387432E+04 -4.440934E+04  4.215320E+02 -1.961117E-10  1.047745E-09
       206  15 -3.747191E+05  3.779022E+03 -2.820928E+04  4.610180E+03 -1.127327E-09  1.106811E-09
       206  16 -5.564201E+05 -1.254046E+05 -1.473108E+05  2.572022E+04  1.810763E-09  4.252746E-10
       206  17 -5.324784E+05 -2.896228E+04 -8.625104E+04  6.192022E+03 -2.979216E-09 -1.839462E-09
       206  18 -5.379109E+05 -3.683016E+04 -6.788316E+04 -4.905362E+03 -3.701013E-09 -3.019867E-09
       206  19 -1.930203E+05 -3.474570E+04 -5.726450E+04 -1.639853E+04  6.790362E+04  1.619944E+03
       206  20 -1.878336E+05  5.670944E+04 -2.565875E+03 -5.350397E+03  4.527245E+04  4.759665E+03
       206  21 -2.115021E+05  4.438674E+04  1.146371E+04  1.412831E+04  2.264447E+04  4.347711E+03
       206  22 -3.747329E+05 -8.007404E+04 -1.022817E+05  4.663977E+03  6.989951E+04  1.623496E+03
       206  23 -3.601685E+05  1.387491E+04 -4.440535E+04  4.217077E+02  4.582626E+04  4.760583E+03
       206  24 -3.747185E+05  3.779169E+03 -2.820836E+04  4.610256E+03  2.175581E+04  4.346675E+03
       206  25 -5.564146E+05 -1.254032E+05 -1.473010E+05  2.572031E+04  7.189481E+04  1.627184E+03
       206  26 -5.324761E+05 -2.896168E+04 -8.624695E+04  6.192200E+03  4.637991E+04  4.761511E+03
       206  27 -5.379104E+05 -3.683003E+04 -6.788231E+04 -4.905289E+03  2.086739E+04  4.345667E+03
       207   1 -2.222767E+05  2.694952E+04  1.263116E+04  2.481351E+03 -1.722895E+04 -3.617214E+03
       207   2 -2.298699E+05  3.582873E+04  2.184098E+04 -1.528810E+02 -1.140751E+04 -3.585903E+03
       207   3 -2.413278E+05  3.224369E+04  2.414607E+04  5.990166E+03 -5.586482E+03 -3.215943E+03
       207   4 -3.691151E+05 -9.575409E+03 -2.313294E+04  4.712019E+03 -1.728468E+04 -3.617386E+03
       207   5 -3.671691E+05  1.684045E+03 -1.154546E+04  3.185200E+02 -1.132638E+04 -3.585882E+03
       207   6 -3.691123E+05  4.539614E+02 -6.958923E+03  4.702424E+03 -5.368397E+03 -3.215728E+03
       207   7 -5.159338E+05 -4.610191E+04 -5.889860E+04  6.942152E+03 -1.734038E+04 -3.617558E+03
       207   8 -5.044510E+05 -3.246202E+04 -4.493327E+04  7.898120E+02 -1.124526E+04 -3.585860E+03
       207   9 -4.968819E+05 -3.133696E+04 -3.806510E+04  3.414943E+03 -5.150356E+03 -3.215514E+03
       207  10 -2.222770E+05  2.694943E+04  1.263057E+04  2.481301E+03  2.615420E-10 -3.455717E-09
       207  11 -2.298701E+05  3.582868E+04  2.184071E+04 -1.529139E+02  6.208611E-10  5.076613E-10
       207  12 -2.413279E+05  3.224367E+04  2.414599E+04  5.990152E+03 -3.592288E-09  2.299226E-10
       207  13 -3.691154E+05 -9.575503E+03 -2.313353E+04  4.711968E+03  3.688322E-12 -7.116542E-10
       207  14 -3.671692E+05  1.683997E+03 -1.154573E+04  3.184873E+02 -4.580413E-09  4.247479E-10
       207  15 -3.691124E+05  4.539425E+02 -6.958996E+03  4.702410E+03  3.251866E-10 -1.166628E-09
       207  16 -5.159341E+05 -4.610200E+04 -5.889919E+04  6.942102E+03  2.972734E-10 -1.219683E-09
       207  17 -5.044511E+05 -3.246207E+04 -4.493353E+04  7.897795E+02  3.674736E-10 -5.559033E-10
       207  18 -4.968820E+05 -3.133698E+04 -3.806517E+04  3.414930E+03  2.039106E-09  3.087623E-10
       207  19 -2.222767E+05  2.694952E+04  1.263116E+04  2.481351E+03  1.722895E+04  3.617214E+03
       207  20 -2.298699E+05  3.582873E+04  2.184098E+04 -1.528810E+02  1.140751E+04  3.585903E+03
       207  21 -2.413278E+05  3.224369E+04  2.414607E+04  5.990166E+03  5.586482E+03  3.215943E+03
       207  22 -3.691151E+05 -9.575409E+03 -2.313294E+04  4.712019E+03  1.728468E+04  3.617386E+03
       207  23 -3.671691E+05  1.684045E+03 -1.154546E+04  3.185200E+02  1.132638E+04  3.585882E+03
       207  24 -3.691123E+05  4.539614E+02 -6.958923E+03  4.702424E+03  5.368397E+03  3.215728E+03
       207  25 -5.159338E+05 -4.610191E+04 -5.889860E+04  6.942152E+03  1.734038E+04  3.617558E+03
       207  26 -5.044510E+05 -3.246202E+04 -4.493327E+04  7.898120E+02  1.124526E+04  3.585860E+03
       207  27 -4.968819E+05 -3.133696E+04 -3.806510E+04  3.414943E+03  5.150356E+03  3.215514E+03
       208   1 -2.574845E+05  2.644999E+04  2.145689E+04  4.629586E+03 -4.391636E+03 -2.954782E+03
       208   2 -2.669754E+05  2.535351E+04  2.162332E+04  3.095920E+02 -2.909645E+03 -2.619381E+03
       208   3 -2.770378E+05  2.278585E+04  2.045455E+04  5.000728E+03 -1.427810E+03 -2.248567E+03
       208   4 -3.683748E+05 -1.124869E+03 -5.491658E+03  4.758530E+03 -4.262267E+03 -2.954664E+03
       208   5 -3.680874E+05  2.056534E+02 -2.968706E+03  2.522025E+02 -2.766073E+03 -2.619229E+03
       208   6 -3.683741E+05  6.238830E+01 -1.790987E+03  4.757099E+03 -1.270012E+03 -2.248378E+03
       208   7 -4.792539E+05 -2.870063E+04 -3.244110E+04  4.887448E+03 -4.132922E+03 -2.954547E+03
       208   8 -4.691900E+05 -2.494296E+04 -2.756147E+04  1.948193E+02 -2.622525E+03 -2.619077E+03
       208   9 -4.597028E+05 -2.266169E+04 -2.403713E+04  4.513504E+03 -1.112236E+03 -2.248188E+03
       208  10 -2.574845E+05  2.644998E+04  2.145684E+04  4.629576E+03 -9.454880E-10  1.613661E-09
       208  11 -2.669754E+05  2.535350E+04  2.162329E+04  3.095859E+02 -1.687261E-09  2.980805E-09
       208  12 -2.770378E+05  2.278585E+04  2.045454E+04  5.000725E+03  3.432541E-09  6.283139E-11
       208  13 -3.683748E+05 -1.124883E+03 -5.491709E+03  4.758520E+03 -1.879112E-09 -1.624947E-09
       208  14 -3.680874E+05  2.056440E+02 -2.968734E+03  2.521966E+02  2.887310E-09  2.321812E-09
       208  15 -3.683741E+05  6.238244E+01 -1.790999E+03  4.757097E+03  5.351151E-09  3.367001E-09
       208  16 -4.792540E+05 -2.870065E+04 -3.244115E+04  4.887438E+03  3.106262E-09  1.178410E-09
       208  17 -4.691900E+05 -2.494296E+04 -2.756150E+04  1.948138E+02 -2.109785E-10  2.022388E-09
       208  18 -4.597028E+05 -2.266170E+04 -2.403714E+04  4.513502E+03  2.509612E-09  3.003801E-09
       208  19 -2.574845E+05  2.644999E+04  2.145689E+04  4.629586E+03  4.391636E+03  2.954782E+03
       208  20 -2.669754E+05  2.535351E+04  2.162332E+04  3.095920E+02  2.909645E+03  2.619381E+03
       208  21 -2.770378E+05  2.278585E+04  2.045455E+04  5.000728E+03  1.427810E+03  2.248567E+03
       208  22 -3.683748E+05 -1.124869E+03 -5.491658E+03  4.758530E+03  4.262267E+03  2.954664E+03
       208  23 -3.680874E+05  2.056534E+02 -2.968706E+03  2.522025E+02  2.766073E+03  2.619229E+03
       208  24 -3.683741E+05  6.238830E+01 -1.790987E+03  4.757099E+03  1.270012E+03  2.248378E+03
       208  25 -4.792539E+05 -2.870063E+04 -3.244110E+04  4.887448E+03  4.132922E+03  2.954547E+03
       208  26 -4.691900E+05 -2.494296E+04 -2.756147E+04  1.948193E+02  2.622525E+03  2.619077E+03
       208  27 -4.597028E+05 -2.266169E+04 -2.403713E+04  4.513504E+03  1.112236E+03  2.248188E+03
       209   1 -2.942099E+05  1.829659E+04  1.656050E+04  4.852918E+03 -1.131152E+03 -2.027823E+03
       209   2 -3.041003E+05  1.597461E+04  1.468568E+04  2.761912E+02 -6.816624E+02 -1.658189E+03
       209   3 -3.141168E+05  1.348301E+04  1.247039E+04  4.872642E+03 -2.322538E+02 -1.283139E+03
       209   4 -3.682739E+05 -1.185740E+02 -1.424034E+03  4.793693E+03 -9.816728E+02 -2.027634E+03
       209   5 -3.682104E+05  2.907139E+01 -9.076130E+02  2.069887E+02 -5.300241E+02 -1.657985E+03
       209   6 -3.682737E+05  6.663714E+00 -7.332172E+02  4.793521E+03 -7.844934E+01 -1.282921E+03
       209   7 -4.423328E+05 -1.853414E+04 -1.940896E+04  4.734474E+03 -8.322113E+02 -2.027445E+03
       209   8 -4.323167E+05 -1.591677E+04 -1.650120E+04  1.377921E+02 -3.784014E+02 -1.657782E+03
       209   9 -4.224278E+05 -1.346990E+04 -1.393704E+04  4.714406E+03  7.534178E+01 -1.282703E+03
       209  10 -2.942099E+05  1.829658E+04  1.656049E+04  4.852916E+03  4.670435E-09 -8.485840E-10
       209  11 -3.041003E+05  1.597461E+04  1.468567E+04  2.761903E+02 -3.012013E-09  3.977302E-09
       209  12 -3.141168E+05  1.348301E+04  1.247039E+04  4.872642E+03 -4.397731E-09  4.248622E-09
       209  13 -3.682739E+05 -1.185787E+02 -1.424043E+03  4.793692E+03  4.290697E-09  3.433150E-10
       209  14 -3.682104E+05  2.906837E+01 -9.076187E+02  2.069880E+02  2.588743E-09  1.126381E-09
       209  15 -3.682737E+05  6.661945E+00 -7.332203E+02  4.793521E+03 -3.407913E-09 -9.598564E-10
       209  16 -4.423328E+05 -1.853414E+04 -1.940897E+04  4.734473E+03 -3.035201E-10  1.759896E-09
       209  17 -4.323167E+05 -1.591678E+04 -1.650121E+04  1.377916E+02 -3.747592E-09 -1.720573E-09
       209  18 -4.224278E+05 -1.346990E+04 -1.393704E+04  4.714406E+03  2.675707E-09 -2.223625E-10
       209  19 -2.942099E+05  1.829659E+04  1.656050E+04  4.852918E+03  1.131152E+03  2.027823E+03
       209  20 -3.041003E+05  1.597461E+04  1.468568E+04  2.761912E+02  6.816624E+02  1.658189E+03
       209  21 -3.141168E+05  1.348301E+04  1.247039E+04  4.872642E+03  2.322538E+02  1.283139E+03
       209  22 -3.682739E+05 -1.185740E+02 -1.424034E+03  4.793693E+03  9.816728E+02  2.027634E+03
       209  23 -3.682104E+05  2.907139E+01 -9.076130E+02  2.069887E+02  5.300241E+02  1.657985E+03
       209  24 -3.682737E+05  6.663714E+00 -7.332172E+02  4.793521E+03  7.844934E+01  1.282921E+03
       209  25 -4.423328E+05 -1.853414E+04 -1.940896E+04  4.734474E+03  8.322113E+02  2.027445E+03
       209  26 -4.323167E+05 -1.591677E+04 -1.650120E+04  1.377921E+02  3.784014E+02  1.657782E+03
       209  27 -4.224278E+05 -1.346990E+04 -1.393704E+04  4.714406E+03 -7.534178E+01  1.282703E+03
       210   1 -3.316300E+05  9.113155E+03  8.153380E+03  4.836253E+03 -1.003323E+02 -1.063501E+03
       210   2 -3.416143E+05  6.643522E+03  5.588435E+03  2.105533E+02  3.377484E+02 -6.867696E+02
       210   3 -3.517296E+05  4.012889E+03  2.690823E+03  4.849037E+03  7.758037E+02 -3.102683E+02
       210   4 -3.682741E+05  5.062385E+00 -7.287470E+02  4.813738E+03  5.309201E+01 -1.063277E+03
       210   5 -3.682087E+05  2.878402E+01 -8.802179E+02  1.817205E+02  4.910614E+02 -6.865414E+02
       210   6 -3.682741E+05 -1.084359E+02 -1.364242E+03  4.813911E+03  9.290124E+02 -3.100353E+02
       210   7 -4.049170E+05 -9.103128E+03 -9.610970E+03  4.791224E+03  2.065073E+02 -1.063053E+03
       210   8 -3.948024E+05 -6.586007E+03 -7.348922E+03  1.528886E+02  6.443678E+02 -6.863132E+02
       210   9 -3.848183E+05 -4.229781E+03 -5.419327E+03  4.778786E+03  1.082217E+03 -3.098023E+02
       210  10 -3.316300E+05  9.113153E+03  8.153378E+03  4.836253E+03  1.581888E-09  2.239016E-09
       210  11 -3.416143E+05  6.643522E+03  5.588434E+03  2.105535E+02  1.170981E-09  1.576104E-09
       210  12 -3.517296E+05  4.012889E+03  2.690822E+03  4.849037E+03 -1.560304E-09 -2.019343E-09
       210  13 -3.682741E+05  5.061171E+00 -7.287491E+02  4.813738E+03 -3.012834E-10  4.030386E-09
       210  14 -3.682087E+05  2.878344E+01 -8.802193E+02  1.817207E+02  5.453312E-10  4.165570E-10
       210  15 -3.682741E+05 -1.084362E+02 -1.364244E+03  4.813912E+03 -1.255313E-09 -2.206580E-09
       210  16 -4.049170E+05 -9.103130E+03 -9.610973E+03  4.791224E+03 -3.876885E-09  2.977941E-09
       210  17 -3.948024E+05 -6.586007E+03 -7.348924E+03  1.528889E+02 -4.595921E-10 -9.481116E-10
       210  18 -3.848183E+05 -4.229782E+03 -5.419330E+03  4.778786E+03 -1.190253E-09 -2.548964E-09
       210  19 -3.316300E+05  9.113155E+03  8.153380E+03  4.836253E+03  1.003323E+02  1.063501E+03
       210  20 -3.416143E+05  6.643522E+03  5.588435E+03  2.105533E+02 -3.377484E+02  6.867696E+02
       210  21 -3.517296E+05  4.012889E+03  2.690823E+03  4.849037E+03 -7.758037E+02  3.102683E+02
       210  22 -3.682741E+05  5.062385E+00 -7.287470E+02  4.813738E+03 -5.309201E+01  1.063277E+03
       210  23 -3.682087E+05  2.878402E+01 -8.802179E+02  1.817205E+02 -4.910614E+02  6.865414E+02
       210  24 -3.682741E+05 -1.084359E+02 -1.364242E+03  4.813911E+03 -9.290124E+02  3.100353E+02
       210  25 -4.049170E+05 -9.103128E+03 -9.610970E+03  4.791224E+03 -2.065073E+02  1.063053E+03
       210  26 -3.948024E+05 -6.586007E+03 -7.348922E+03  1.528886E+02 -6.443678E+02  6.863132E+02
       210  27 -3.848183E+05 -4.229781E+03 -5.419327E+03  4.778786E+03 -1.082217E+03  3.098023E+02
       211   1 -3.694386E+05 -2.098755E+02 -2.002233E+03  4.671369E+03  1.047208E+03 -8.725369E+01
       211   2 -3.792204E+05 -2.571074E+03 -5.534056E+03  2.007889E+02  2.478760E+03  2.928473E+02
       211   3 -3.895729E+05 -6.329949E+03 -1.035509E+04  5.010256E+03  3.910323E+03  6.553618E+02
       211   4 -3.683715E+05  6.228607E+01 -1.711631E+03  4.816755E+03  1.204925E+03 -8.701248E+01
       211   5 -3.680869E+05  1.979741E+02 -2.826344E+03  1.775862E+02  2.629328E+03  2.930751E+02
       211   6 -3.683720E+05 -1.062743E+03 -5.225269E+03  4.818456E+03  4.053766E+03  6.555757E+02
       211   7 -3.673044E+05  3.344476E+02 -1.421030E+03  4.962142E+03  1.362643E+03 -8.677119E+01
       211   8 -3.569534E+05  2.967013E+03 -1.186418E+02  1.543832E+02  2.779899E+03  2.933028E+02
       211   9 -3.471706E+05  4.204430E+03 -9.547555E+01  4.626649E+03  4.197213E+03  6.557896E+02
       211  10 -3.694386E+05 -2.098758E+02 -2.002235E+03  4.671369E+03 -1.280913E-09  6.567999E-10
       211  11 -3.792204E+05 -2.571076E+03 -5.534067E+03  2.007883E+02  1.024091E-09  1.413818E-09
       211  12 -3.895730E+05 -6.329953E+03 -1.035512E+04  5.010253E+03 -1.224918E-09 -1.773634E-10
       211  13 -3.683715E+05  6.228567E+01 -1.711634E+03  4.816756E+03 -2.886216E-12 -8.710464E-10
       211  14 -3.680869E+05  1.979722E+02 -2.826357E+03  1.775856E+02 -4.711271E-09  2.239063E-09
       211  15 -3.683720E+05 -1.062748E+03 -5.225300E+03  4.818454E+03  6.172277E-10  8.544126E-10
       211  16 -3.673044E+05  3.344471E+02 -1.421034E+03  4.962143E+03  5.075967E-10  4.371818E-10
       211  17 -3.569534E+05  2.967011E+03 -1.186565E+02  1.543825E+02  6.812695E-10 -2.579731E-09
       211  18 -3.471706E+05  4.204425E+03 -9.550948E+01  4.626647E+03 -2.068282E-10 -6.145754E-10
       211  19 -3.694386E+05 -2.098755E+02 -2.002233E+03  4.671369E+03 -1.047208E+03  8.725369E+01
       211  20 -3.792204E+05 -2.571074E+03 -5.534056E+03  2.007889E+02 -2.478760E+03 -2.928473E+02
       211  21 -3.895729E+05 -6.329949E+03 -1.035509E+04  5.010256E+03 -3.910323E+03 -6.553618E+02
       211  22 -3.683715E+05  6.228607E+01 -1.711631E+03  4.816755E+03 -1.204925E+03  8.701248E+01
       211  23 -3.680869E+05  1.979741E+02 -2.826344E+03  1.775862E+02 -2.629328E+03 -2.930751E+02
       211  24 -3.683720E+05 -1.062743E+03 -5.225269E+03  4.818456E+03 -4.053766E+03 -6.555757E+02
       211  25 -3.673044E+05  3.344476E+02 -1.421030E+03  4.962142E+03 -1.362643E+03  8.677119E+01
       211  26 -3.569534E+05  2.967013E+03 -1.186418E+02  1.543832E+02 -2.779899E+03 -2.933028E+02
       211  27 -3.471706E+05  4.204430E+03 -9.547555E+01  4.626649E+03 -4.197213E+03 -6.557896E+02
       212   1 -4.078431E+05 -9.215124E+03 -1.607976E+04  3.637247E+03  4.913994E+03  9.033061E+02
       212   2 -4.159780E+05 -1.052258E+04 -2.283729E+04  6.894525E+02  1.065478E+04  1.290225E+03
       212   3 -4.278617E+05 -2.371382E+04 -3.631129E+04  6.969669E+03  1.639567E+04  1.491917E+03
       212   4 -3.690755E+05  4.376458E+02 -6.620768E+03  4.801321E+03  5.106303E+03  9.035995E+02
       212   5 -3.672089E+05  1.605391E+03 -1.097860E+04  1.941432E+02  1.077194E+04  1.290380E+03
       212   6 -3.690780E+05 -9.097095E+03 -2.200029E+04  4.814982E+03  1.643778E+04  1.491909E+03
       212   7 -3.303065E+05  1.009031E+04  2.838114E+03  5.965467E+03  5.298625E+03  9.038936E+02
       212   8 -3.184377E+05  1.373319E+04  8.799263E+02 -3.012059E+02  1.088911E+04  1.290535E+03
       212   9 -3.102911E+05  5.519394E+03 -7.689539E+03  2.660089E+03  1.647990E+04  1.491901E+03
       212  10 -4.078431E+05 -9.215131E+03 -1.607981E+04  3.637243E+03 -3.309053E-09  2.294794E-09
       212  11 -4.159781E+05 -1.052261E+04 -2.283751E+04  6.894414E+02 -7.467362E-10  2.589894E-09
       212  12 -4.278620E+05 -2.371390E+04 -3.631180E+04  6.969649E+03  2.657317E-09  2.690598E-09
       212  13 -3.690755E+05  4.376379E+02 -6.620819E+03  4.801317E+03  4.804583E-12  8.083079E-10
       212  14 -3.672090E+05  1.605358E+03 -1.097882E+04  1.941320E+02  1.754030E-09  1.575928E-09
       212  15 -3.690783E+05 -9.097170E+03 -2.200080E+04  4.814962E+03  5.505003E-09  2.785369E-10
       212  16 -3.303066E+05  1.009030E+04  2.838060E+03  5.965463E+03  3.175830E-09  5.456015E-10
       212  17 -3.184378E+05  1.373315E+04  8.797002E+02 -3.012172E+02  2.048409E-09 -1.177706E-09
       212  18 -3.102914E+05  5.519318E+03 -7.690054E+03  2.660069E+03 -2.844022E-09 -2.816641E-09
       212  19 -4.078431E+05 -9.215124E+03 -1.607976E+04  3.637247E+03 -4.913994E+03 -9.033061E+02
       212  20 -4.159780E+05 -1.052258E+04 -2.283729E+04  6.894525E+02 -1.065478E+04 -1.290225E+03
       212  21 -4.278617E+05 -2.371382E+04 -3.631129E+04  6.969669E+03 -1.639567E+04 -1.491917E+03
       212  22 -3.690755E+05  4.376458E+02 -6.620768E+03  4.801321E+03 -5.106303E+03 -9.035995E+02
       212  23 -3.672089E+05  1.605391E+03 -1.097860E+04  1.941432E+02 -1.077194E+04 -1.290380E+03
       212  24 -3.690780E+05 -9.097095E+03 -2.200029E+04  4.814982E+03 -1.643778E+04 -1.491909E+03
       212  25 -3.303065E+05  1.009031E+04  2.838114E+03  5.965467E+03 -5.298625E+03 -9.038936E+02
       212  26 -3.184377E+05  1.373319E+04  8.799263E+02 -3.012059E+02 -1.088911E+04 -1.290535E+03
       212  27 -3.102911E+05  5.519394E+03 -7.689539E+03  2.660089E+03 -1.647990E+04 -1.491901E+03
       213   1 -4.505567E+05 -1.536945E+04 -4.535539E+04 -4.277893E+03  2.012772E+04  2.001204E+03
       213   2 -4.465394E+05 -8.162480E+03 -6.310016E+04  5.728705E+03  4.381191E+04  2.431606E+03
       213   3 -4.704016E+05 -1.000413E+05 -1.210465E+05  2.486620E+04  6.749873E+04  9.068741E+02
       213   4 -3.744089E+05  3.602636E+03 -2.682734E+04  4.750878E+03  2.069025E+04  2.002264E+03
       213   5 -3.605470E+05  1.320074E+04 -4.222596E+04  2.364842E+02  4.357956E+04  2.430881E+03
       213   6 -3.744226E+05 -7.614222E+04 -9.726991E+04  4.853228E+03  6.647191E+04  9.033757E+02
       213   7 -2.982557E+05  2.257460E+04 -8.299665E+03  1.378076E+04  2.125285E+04  2.003341E+03
       213   8 -2.745477E+05  3.456352E+04 -2.135228E+04 -5.256502E+03  4.334718E+04  2.430161E+03
       213   9 -2.784344E+05 -5.224230E+04 -7.349378E+04 -1.516284E+04  6.544493E+04  8.999438E+02
       213  10 -4.505571E+05 -1.536957E+04 -4.535616E+04 -4.277925E+03  8.529684E-11  1.889385E-09
       213  11 -4.465414E+05 -8.163002E+03 -6.310378E+04  5.728619E+03 -3.690902E-11  3.063304E-10
       213  12 -4.704065E+05 -1.000425E+05 -1.210551E+05  2.486615E+04  3.466581E-10  3.233799E-10
       213  13 -3.744094E+05  3.602517E+03 -2.682815E+04  4.750845E+03  1.895382E-09  3.317840E-09
       213  14 -3.605490E+05  1.320022E+04 -4.222954E+04  2.363988E+02 -1.174451E-09 -2.223276E-09
       213  15 -3.744274E+05 -7.614341E+04 -9.727822E+04  4.853180E+03 -1.937580E-09  1.708125E-09
       213  16 -2.982562E+05  2.257448E+04 -8.300522E+03  1.378072E+04 -3.571902E-10  1.343878E-09
       213  17 -2.745497E+05  3.456301E+04 -2.135582E+04 -5.256587E+03  3.372651E-10 -1.303735E-10
       213  18 -2.784390E+05 -5.224345E+04 -7.350183E+04 -1.516289E+04 -1.465024E-10 -3.374771E-10
       213  19 -4.505567E+05 -1.536945E+04 -4.535539E+04 -4.277893E+03 -2.012772E+04 -2.001204E+03
       213  20 -4.465394E+05 -8.162480E+03 -6.310016E+04  5.728705E+03 -4.381191E+04 -2.431606E+03
       213  21 -4.704016E+05 -1.000413E+05 -1.210465E+05  2.486620E+04 -6.749873E+04 -9.068741E+02
       213  22 -3.744089E+05  3.602636E+03 -2.682734E+04  4.750878E+03 -2.069025E+04 -2.002264E+03
       213  23 -3.605470E+05  1.320074E+04 -4.222596E+04  2.364842E+02 -4.357956E+04 -2.430881E+03
       213  24 -3.744226E+05 -7.614222E+04 -9.726991E+04  4.853228E+03 -6.647191E+04 -9.033757E+02
       213  25 -2.982557E+05  2.257460E+04 -8.299665E+03  1.378076E+04 -2.125285E+04 -2.003341E+03
       213  26 -2.745477E+05  3.456352E+04 -2.135228E+04 -5.256502E+03 -4.334718E+04 -2.430161E+03
       213  27 -2.784344E+05 -5.224230E+04 -7.349378E+04 -1.516284E+04 -6.544493E+04 -8.999438E+02
       214   1  1.534409E+05  8.510770E+05  1.649197E+05 -8.347114E+04  4.146726E+03  5.778280E+04
       214   2  6.776017E+04  7.514172E+05  1.004821E+05 -4.526337E+04  1.190870E+04  2.992793E+04
       214   3  4.469371E+04  6.709963E+05  6.980936E+04 -4.705863E+04  9.369744E+03  2.069795E+03
       214   4  6.047654E+04  4.772862E+05  7.382610E+04 -5.567642E+04  4.156925E+03  4.692681E+04
       214   5 -1.650699E+03  4.684302E+05  3.630756E+04 -3.569845E+04  1.191123E+04  2.774322E+04
       214   6 -2.651440E+03  4.773141E+05  2.654961E+04 -5.572187E+04  9.364137E+03  8.552235E+03
       214   7 -3.249522E+04  1.036246E+05 -1.727684E+04 -2.789844E+04  4.166158E+03  3.607734E+04
       214   8 -7.106674E+04  1.855178E+05 -2.787209E+04 -2.613791E+04  1.191369E+04  2.555949E+04
       214   9 -4.999883E+04  2.836670E+05 -1.671230E+04 -6.438238E+04  9.358349E+03  1.503268E+04
       214  10  1.534400E+05  8.510734E+05  1.649134E+05 -8.347133E+04  6.250665E-10 -2.089859E-09
       214  11  6.775977E+04  7.514162E+05  1.004802E+05 -4.526366E+04  1.000608E-10 -4.179301E-09
       214  12  4.469362E+04  6.709963E+05  6.980918E+04 -4.705865E+04 -3.895752E-11 -2.463832E-09
       214  13  6.047593E+04  4.772838E+05  7.382193E+04 -5.567658E+04 -2.201150E-09 -6.351231E-10
       214  14 -1.651058E+03  4.684294E+05  3.630585E+04 -3.569872E+04 -4.401036E-09  8.098047E-10
       214  15 -2.651554E+03  4.773140E+05  2.654931E+04 -5.572194E+04  6.496564E-10 -1.963619E-10
       214  16 -3.249559E+04  1.036232E+05 -1.727931E+04 -2.789856E+04 -2.083455E-09  1.743530E-09
       214  17 -7.106707E+04  1.855170E+05 -2.787359E+04 -2.613816E+04 -2.185189E-09  2.013987E-09
       214  18 -4.999899E+04  2.836668E+05 -1.671289E+04 -6.438249E+04  3.275164E-09  1.028649E-09
       214  19  1.534409E+05  8.510770E+05  1.649197E+05 -8.347114E+04 -4.146726E+03 -5.778280E+04
       214  20  6.776017E+04  7.514172E+05  1.004821E+05 -4.526337E+04 -1.190870E+04 -2.992793E+04
       214  21  4.469371E+04  6.709963E+05  6.980936E+04 -4.705863E+04 -9.369744E+03 -2.069795E+03
       214  22  6.047654E+04  4.772862E+05  7.382610E+04 -5.567642E+04 -4.156925E+03 -4.692681E+04
       214  23 -1.650699E+03  4.684302E+05  3.630756E+04 -3.569845E+04 -1.191123E+04 -2.774322E+04
       214  24 -2.651440E+03  4.773141E+05  2.654961E+04 -5.572187E+04 -9.364137E+03 -8.552235E+03
       214  25 -3.249522E+04  1.036246E+05 -1.727684E+04 -2.789844E+04 -4.166158E+03 -3.607734E+04
       214  26 -7.106674E+04  1.855178E+05 -2.787209E+04 -2.613791E+04 -1.191369E+04 -2.555949E+04
       214  27 -4.999883E+04  2.836670E+05 -1.671230E+04 -6.438238E+04 -9.358349E+03 -1.503268E+04
       215   1  3.184004E+04  5.906835E+05  5.107145E+04 -5.854424E+04  5.479508E+03  7.903090E+02
       215   2  5.986068E+03  4.985995E+05  3.095985E+04 -3.531596E+04  1.292263E+03 -1.187494E+04
       215   3 -8.129985E+03  4.110216E+05  2.200400E+04 -5.244823E+04 -2.953850E+03 -2.453868E+04
       215   4  3.373035E+03  4.743726E+05  2.500743E+04 -5.578935E+04  5.476341E+03  4.294453E+03
       215   5 -4.874603E+02  4.721277E+05  2.504633E+04 -3.560740E+04  1.289007E+03 -8.320668E+03
       215   6  7.381927E+03  4.743723E+05  3.620679E+04 -5.578566E+04 -2.957102E+03 -2.093607E+04
       215   7 -2.509486E+04  3.580744E+05 -1.057406E+03 -5.303497E+04  5.473206E+03  7.797948E+03
       215   8 -6.961029E+03  4.456566E+05  1.913282E+04 -3.589883E+04  1.285748E+03 -4.766549E+03
       215   9  2.289361E+04  5.377267E+05  5.040937E+04 -5.912344E+04 -2.960392E+03 -1.733309E+04
       215  10  3.184001E+04  5.906835E+05  5.107140E+04 -5.854425E+04  1.809541E-09  8.849107E-09
       215  11  5.986029E+03  4.985994E+05  3.095958E+04 -3.531594E+04  2.974995E-09  7.564192E-09
       215  12 -8.130156E+03  4.110209E+05  2.200286E+04 -5.244828E+04 -2.909500E-09  3.892077E-09
       215  13  3.372997E+03  4.743726E+05  2.500734E+04 -5.578937E+04  1.946117E-09 -7.524489E-10
       215  14 -4.874807E+02  4.721276E+05  2.504620E+04 -3.560739E+04  9.953113E-11  9.162024E-10
       215  15  7.381800E+03  4.743718E+05  3.620595E+04 -5.578571E+04 -4.394585E-09 -2.651226E-10
       215  16 -2.509491E+04  3.580743E+05 -1.057576E+03 -5.303501E+04  4.045338E-09 -9.076579E-09
       215  17 -6.961037E+03  4.456566E+05  1.913277E+04 -3.589883E+04  1.326992E-09 -1.026907E-08
       215  18  2.289352E+04  5.377264E+05  5.040879E+04 -5.912348E+04  1.322057E-09 -5.425699E-09
       215  19  3.184004E+04  5.906835E+05  5.107145E+04 -5.854424E+04 -5.479508E+03 -7.903090E+02
       215  20  5.986068E+03  4.985995E+05  3.095985E+04 -3.531596E+04 -1.292263E+03  1.187494E+04
       215  21 -8.129985E+03  4.110216E+05  2.200400E+04 -5.244823E+04  2.953850E+03  2.453868E+04
       215  22  3.373035E+03  4.743726E+05  2.500743E+04 -5.578935E+04 -5.476341E+03 -4.294453E+03
       215  23 -4.874603E+02  4.721277E+05  2.504633E+04 -3.560740E+04 -1.289007E+03  8.320668E+03
       215  24  7.381927E+03  4.743723E+05  3.620679E+04 -5.578566E+04  2.957102E+03  2.093607E+04
       215  25 -2.509486E+04  3.580744E+05 -1.057406E+03 -5.303497E+04 -5.473206E+03 -7.797948E+03
       215  26 -6.961029E+03  4.456566E+05  1.913282E+04 -3.589883E+04 -1.285748E+03  4.766549E+03
       215  27  2.289361E+04  5.377267E+05  5.040937E+04 -5.912344E+04  2.960392E+03  1.733309E+04
       216   1 -4.044895E+04  3.405587E+05  1.157671E+04 -7.351852E+04 -6.709286E+03 -3.350456E+04
       216   2 -5.974187E+04  2.335870E+05  1.626586E+04 -1.677070E+04 -9.540470E+03 -6.230922E+04
       216   3  4.238447E+04  1.606839E+05  7.005235E+04 -3.317885E+01 -3.406573E+03 -9.110197E+04
       216   4 -6.074784E+03  4.812314E+05  4.303359E+04 -5.573644E+04 -6.715827E+03 -2.734420E+04
       216   5 -3.286972E+03  4.635380E+05  6.849297E+04 -3.568431E+04 -9.537194E+03 -6.369651E+04
       216   6  1.221989E+05  4.811924E+05  1.482725E+05 -5.563713E+04 -3.391562E+03 -1.000413E+05
       216   7  2.829925E+04  6.219233E+05  7.448953E+04 -3.795028E+04 -6.722015E+03 -2.118245E+04
       216   8  5.316561E+04  6.935388E+05  1.207169E+05 -5.460497E+04 -9.533835E+03 -6.508430E+04
       216   9  2.020173E+05  8.018013E+05  2.264872E+05 -1.112698E+05 -3.374956E+03 -1.089853E+05
       216  10 -4.044930E+04  3.405575E+05  1.157452E+04 -7.351870E+04 -3.187532E-09 -8.878740E-09
       216  11 -5.974301E+04  2.335828E+05  1.625840E+04 -1.677118E+04 -2.633657E-09 -8.278749E-09
       216  12  4.238223E+04  1.606750E+05  7.003674E+04 -3.342876E+01 -2.357440E-09 -2.034006E-09
       216  13 -6.075033E+03  4.812306E+05  4.303210E+04 -5.573658E+04 -4.885917E-09 -9.413841E-10
       216  14 -3.288158E+03  4.635336E+05  6.848518E+04 -3.568480E+04 -2.608623E-09  7.810181E-10
       216  15  1.221962E+05  4.811817E+05  1.482537E+05 -5.563741E+04 -3.939918E-09 -6.203619E-11
       216  16  2.829908E+04  6.219229E+05  7.448860E+04 -3.795040E+04  3.793410E-09  8.468878E-09
       216  17  5.316438E+04  6.935342E+05  1.207087E+05 -5.460547E+04  4.847002E-09  5.723001E-09
       216  18  2.020141E+05  8.017886E+05  2.264649E+05 -1.112701E+05  2.309569E-09  9.131630E-10
       216  19 -4.044895E+04  3.405587E+05  1.157671E+04 -7.351852E+04  6.709286E+03  3.350456E+04
       216  20 -5.974187E+04  2.335870E+05  1.626586E+04 -1.677070E+04  9.540470E+03  6.230922E+04
       216  21  4.238447E+04  1.606839E+05  7.005235E+04 -3.317885E+01  3.406573E+03  9.110197E+04
       216  22 -6.074784E+03  4.812314E+05  4.303359E+04 -5.573644E+04  6.715827E+03  2.734420E+04
       216  23 -3.286972E+03  4.635380E+05  6.849297E+04 -3.568431E+04  9.537194E+03  6.369651E+04
       216  24  1.221989E+05  4.811924E+05  1.482725E+05 -5.563713E+04  3.391562E+03  1.000413E+05
       216  25  2.829925E+04  6.219233E+05  7.448953E+04 -3.795028E+04  6.722015E+03  2.118245E+04
       216  26  5.316561E+04  6.935388E+05  1.207169E+05 -5.460497E+04  9.533835E+03  6.508430E+04
       216  27  2.020173E+05  8.018013E+05  2.264872E+05 -1.112698E+05  3.374956E+03  1.089853E+05
       217   1  1.024569E+05  1.495306E+04 -5.800092E+02  3.849136E+04 -2.763740E+03 -1.049163E+03
       217   2  1.036462E+05  1.849826E+04  1.989152E+03  3.713491E+04 -1.773527E+03 -6.965483E+02
       217   3  1.027661E+05  1.801081E+04  2.636502E+03  3.739993E+04 -7.926630E+02 -3.190835E+02
       217   4  8.870976E+04  9.807252E+03 -4.358086E+03  3.479860E+04 -2.764356E+03 -1.049394E+03
       217   5  8.995802E+04  1.333688E+04 -1.779967E+03  3.341924E+04 -1.773604E+03 -6.965777E+02
       217   6  8.913679E+04  1.283370E+04 -1.124120E+03  3.366138E+04 -7.922030E+02 -3.189105E+02
       217   7  7.496280E+04  4.661451E+03 -8.136178E+03  3.110593E+04 -2.764971E+03 -1.049625E+03
       217   8  7.627006E+04  8.175504E+03 -5.549104E+03  2.970365E+04 -1.773682E+03 -6.966070E+02
       217   9  7.550766E+04  7.656612E+03 -4.884760E+03  2.992291E+04 -7.917430E+02 -3.187374E+02
       217  10  1.024569E+05  1.495306E+04 -5.800256E+02  3.849135E+04 -9.265912E-08  6.334902E-08
       217  11  1.036462E+05  1.849826E+04  1.989146E+03  3.713491E+04 -8.484607E-08  5.462341E-08
       217  12  1.027661E+05  1.801080E+04  2.636501E+03  3.739993E+04  4.394823E-07 -3.087236E-07
       217  13  8.870975E+04  9.807248E+03 -4.358103E+03  3.479860E+04  3.920436E-09  3.083646E-09
       217  14  8.995801E+04  1.333688E+04 -1.779974E+03  3.341924E+04 -2.499252E-09 -1.892033E-09
       217  15  8.913679E+04  1.283370E+04 -1.124122E+03  3.366138E+04  9.446727E-09 -1.993807E-08
       217  16  7.496279E+04  4.661448E+03 -8.136195E+03  3.110592E+04  9.213368E-08 -5.920724E-08
       217  17  7.627006E+04  8.175502E+03 -5.549110E+03  2.970365E+04  8.539770E-08 -5.938276E-08
       217  18  7.550766E+04  7.656612E+03 -4.884761E+03  2.992291E+04 -4.233567E-07  2.681967E-07
       217  19  1.024569E+05  1.495306E+04 -5.800092E+02  3.849136E+04  2.763740E+03  1.049163E+03
       217  20  1.036462E+05  1.849826E+04  1.989152E+03  3.713491E+04  1.773527E+03  6.965483E+02
       217  21  1.027661E+05  1.801081E+04  2.636502E+03  3.739993E+04  7.926630E+02  3.190835E+02
       217  22  8.870976E+04  9.807252E+03 -4.358086E+03  3.479860E+04  2.764356E+03  1.049394E+03
       217  23  8.995802E+04  1.333688E+04 -1.779968E+03  3.341924E+04  1.773604E+03  6.965777E+02
       217  24  8.913679E+04  1.283370E+04 -1.124120E+03  3.366138E+04  7.922030E+02  3.189105E+02
       217  25  7.496280E+04  4.661451E+03 -8.136178E+03  3.110593E+04  2.764971E+03  1.049625E+03
       217  26  7.627006E+04  8.175504E+03 -5.549104E+03  2.970365E+04  1.773682E+03  6.966070E+02
       217  27  7.550766E+04  7.656612E+03 -4.884760E+03  2.992291E+04  7.917430E+02  3.187374E+02
       218   1  9.494467E+04  1.437954E+04  6.191427E+02  3.541941E+04 -6.228599E+02 -2.468216E+02
       218   2  9.517738E+04  1.488873E+04  1.136001E+03  3.514860E+04 -4.030482E+02 -1.620350E+02
       218   3  9.497827E+04  1.485736E+04  1.301140E+03  3.524204E+04 -1.832605E+02 -7.717322E+01
       218   4  8.930950E+04  1.225589E+04 -9.323011E+02  3.389098E+04 -6.228155E+02 -2.468049E+02
       218   5  8.955929E+04  1.276561E+04 -4.119519E+02  3.361875E+04 -4.030042E+02 -1.620184E+02
       218   6  8.937725E+04  1.273475E+04 -2.433247E+02  3.371078E+04 -1.832169E+02 -7.715674E+01
       218   7  8.367436E+04  1.013224E+04 -2.483748E+03  3.236256E+04 -6.227711E+02 -2.467882E+02
       218   8  8.394123E+04  1.064248E+04 -1.959908E+03  3.208892E+04 -4.029599E+02 -1.620018E+02
       218   9  8.377628E+04  1.061215E+04 -1.787792E+03  3.217952E+04 -1.831728E+02 -7.714020E+01
       218  10  9.494468E+04  1.437954E+04  6.191438E+02  3.541940E+04 -1.795515E-05 -1.263065E-05
       218  11  9.517742E+04  1.488873E+04  1.136010E+03  3.514855E+04 -8.598940E-05 -5.445349E-05
       218  12  9.497834E+04  1.485736E+04  1.301156E+03  3.524196E+04 -1.561702E-04 -9.488690E-05
       218  13  8.930950E+04  1.225589E+04 -9.323023E+02  3.389097E+04 -5.565287E-05 -1.540625E-05
       218  14  8.955929E+04  1.276561E+04 -4.119525E+02  3.361875E+04 -2.469311E-04 -6.824936E-05
       218  15  8.937725E+04  1.273475E+04 -2.433252E+02  3.371078E+04 -4.381916E-04 -1.211001E-04
       218  16  8.367435E+04  1.013224E+04 -2.483751E+03  3.236257E+04 -2.215545E-05 -1.141550E-05
       218  17  8.394119E+04  1.064248E+04 -1.959917E+03  3.208896E+04 -9.202087E-05 -5.203528E-05
       218  18  8.377620E+04  1.061215E+04 -1.787808E+03  3.217960E+04 -1.597235E-04 -9.405595E-05
       218  19  9.494469E+04  1.437954E+04  6.191466E+02  3.541939E+04  6.228599E+02  2.468216E+02
       218  20  9.517747E+04  1.488873E+04  1.136019E+03  3.514851E+04  4.030480E+02  1.620349E+02
       218  21  9.497842E+04  1.485736E+04  1.301171E+03  3.524188E+04  1.832602E+02  7.717303E+01
       218  22  8.930950E+04  1.225589E+04 -9.323018E+02  3.389097E+04  6.228154E+02  2.468049E+02
       218  23  8.955929E+04  1.276561E+04 -4.119524E+02  3.361875E+04  4.030037E+02  1.620183E+02
       218  24  8.937725E+04  1.273475E+04 -2.433255E+02  3.371077E+04  1.832161E+02  7.715650E+01
       218  25  8.367434E+04  1.013224E+04 -2.483752E+03  3.236258E+04  6.227710E+02  2.467882E+02
       218  26  8.394114E+04  1.064248E+04 -1.959926E+03  3.208901E+04  4.029597E+02  1.620017E+02
       218  27  8.377612E+04  1.061215E+04 -1.787824E+03  3.217968E+04  1.831725E+02  7.714001E+01
       219   1  9.168825E+04  1.348870E+04  4.336804E+02  3.435198E+04 -1.475133E+02 -6.198085E+01
       219   2  9.174253E+04  1.354540E+04  5.483583E+02  3.428438E+04 -1.084458E+02 -4.468839E+01
       219   3  9.168729E+04  1.356593E+04  6.054290E+02  3.432025E+04 -6.876242E+01 -2.903123E+01
       219   4  8.941833E+04  1.263104E+04 -1.916865E+02  3.373405E+04 -1.474439E+02 -6.195466E+01
       219   5  8.947876E+04  1.268919E+04 -7.552464E+01  3.366723E+04 -1.084133E+02 -4.467608E+01
       219   6  8.942968E+04  1.271118E+04 -1.694094E+01  3.370387E+04 -6.876670E+01 -2.903280E+01
       219   7  8.714842E+04  1.177339E+04 -8.170539E+02  3.311611E+04 -1.473740E+02 -6.192841E+01
       219   8  8.721501E+04  1.183298E+04 -6.994081E+02  3.305007E+04 -1.083803E+02 -4.466372E+01
       219   9  8.717208E+04  1.185643E+04 -6.393115E+02  3.308750E+04 -6.877068E+01 -2.903434E+01
       219  10  9.168833E+04  1.348870E+04  4.336969E+02  3.435190E+04 -1.675681E-04 -9.946586E-05
       219  11  9.174259E+04  1.354540E+04  5.483704E+02  3.428432E+04 -1.300197E-04 -7.462925E-05
       219  12  9.168733E+04  1.356593E+04  6.054368E+02  3.432020E+04 -9.099950E-05 -5.064173E-05
       219  13  8.941833E+04  1.263104E+04 -1.916863E+02  3.373405E+04 -4.622705E-04 -1.281315E-04
       219  14  8.947876E+04  1.268919E+04 -7.552453E+01  3.366723E+04 -3.537686E-04 -9.941478E-05
       219  15  8.942968E+04  1.271118E+04 -1.694078E+01  3.370387E+04 -2.452767E-04 -7.067543E-05
       219  16  8.714834E+04  1.177339E+04 -8.170703E+02  3.311620E+04 -1.659607E-04 -9.941815E-05
       219  17  8.721494E+04  1.183299E+04 -6.994203E+02  3.305014E+04 -1.262571E-04 -7.592065E-05
       219  18  8.717204E+04  1.185643E+04 -6.393193E+02  3.308755E+04 -8.804182E-05 -5.151975E-05
       219  19  9.168841E+04  1.348870E+04  4.337135E+02  3.435181E+04  1.475130E+02  6.198065E+01
       219  20  9.174265E+04  1.354539E+04  5.483825E+02  3.428425E+04  1.084455E+02  4.468824E+01
       219  21  9.168737E+04  1.356592E+04  6.054446E+02  3.432016E+04  6.876223E+01  2.903113E+01
       219  22  8.941833E+04  1.263104E+04 -1.916860E+02  3.373405E+04  1.474430E+02  6.195440E+01
       219  23  8.947877E+04  1.268919E+04 -7.552437E+01  3.366723E+04  1.084125E+02  4.467588E+01
       219  24  8.942968E+04  1.271118E+04 -1.694061E+01  3.370387E+04  6.876621E+01  2.903266E+01
       219  25  8.714825E+04  1.177339E+04 -8.170867E+02  3.311629E+04  1.473737E+02  6.192821E+01
       219  26  8.721488E+04  1.183299E+04 -6.994325E+02  3.305020E+04  1.083800E+02  4.466357E+01
       219  27  8.717200E+04  1.185644E+04 -6.393271E+02  3.308759E+04  6.877050E+01  2.903424E+01
       220   1  9.024622E+04  1.298896E+04  2.283988E+02  3.392422E+04 -6.812221E+01 -2.835852E+01
       220   2  9.025457E+04  1.297892E+04  2.898145E+02  3.390071E+04 -1.037303E+02 -4.038443E+01
       220   3  9.024756E+04  1.303041E+04  3.855356E+02  3.390605E+04 -1.390357E+02 -5.321301E+01
       220   4  8.944386E+04  1.268525E+04  7.242671E+00  3.370523E+04 -6.808601E+01 -2.834486E+01
       220   5  8.945462E+04  1.267632E+04  6.934464E+01  3.368258E+04 -1.037120E+02 -4.037755E+01
       220   6  8.945005E+04  1.272892E+04  1.657664E+02  3.368878E+04 -1.390354E+02 -5.321289E+01
       220   7  8.864149E+04  1.238155E+04 -2.139136E+02  3.348625E+04 -6.804956E+01 -2.833117E+01
       220   8  8.865468E+04  1.237372E+04 -1.511253E+02  3.346445E+04 -1.036936E+02 -4.037063E+01
       220   9  8.865253E+04  1.242743E+04 -5.400284E+01  3.347151E+04 -1.390351E+02 -5.321277E+01
       220  10  9.024626E+04  1.298895E+04  2.284048E+02  3.392418E+04 -7.270484E-05 -4.001623E-05
       220  11  9.025459E+04  1.297892E+04  2.898184E+02  3.390068E+04 -5.066029E-05 -2.729925E-05
       220  12  9.024757E+04  1.303041E+04  3.855376E+02  3.390604E+04 -2.854782E-05 -1.464229E-05
       220  13  8.944386E+04  1.268525E+04  7.242747E+00  3.370523E+04 -1.961126E-04 -5.727881E-05
       220  14  8.945462E+04  1.267632E+04  6.934470E+01  3.368258E+04 -1.356230E-04 -3.998408E-05
       220  15  8.945005E+04  1.272892E+04  1.657665E+02  3.368878E+04 -7.513709E-05 -2.271103E-05
       220  16  8.864146E+04  1.238155E+04 -2.139196E+02  3.348628E+04 -7.105528E-05 -4.066294E-05
       220  17  8.865466E+04  1.237373E+04 -1.511293E+02  3.346448E+04 -4.906466E-05 -2.798280E-05
       220  18  8.865252E+04  1.242743E+04 -5.400489E+01  3.347153E+04 -2.713886E-05 -1.526804E-05
       220  19  9.024629E+04  1.298895E+04  2.284107E+02  3.392415E+04  6.812206E+01  2.835844E+01
       220  20  9.025461E+04  1.297891E+04  2.898224E+02  3.390066E+04  1.037302E+02  4.038438E+01
       220  21  9.024759E+04  1.303041E+04  3.855396E+02  3.390603E+04  1.390357E+02  5.321298E+01
       220  22  8.944386E+04  1.268525E+04  7.242844E+00  3.370523E+04  6.808562E+01  2.834475E+01
       220  23  8.945462E+04  1.267632E+04  6.934481E+01  3.368258E+04  1.037118E+02  4.037747E+01
       220  24  8.945005E+04  1.272892E+04  1.657666E+02  3.368878E+04  1.390353E+02  5.321285E+01
       220  25  8.864143E+04  1.238155E+04 -2.139255E+02  3.348632E+04  6.804942E+01  2.833109E+01
       220  26  8.865463E+04  1.237373E+04 -1.511332E+02  3.346450E+04  1.036935E+02  4.037058E+01
       220  27  8.865251E+04  1.242744E+04 -5.400685E+01  3.347154E+04  1.390350E+02  5.321273E+01
       221   1  8.945321E+04  1.268773E+04  2.175962E+02  3.370671E+04 -1.713820E+02 -6.521351E+01
       221   2  8.940836E+04  1.262599E+04  3.911666E+02  3.368867E+04 -3.749305E+02 -1.411679E+02
       221   3  8.948258E+04  1.289280E+04  7.992614E+02  3.362302E+04 -5.784610E+02 -2.171817E+02
       221   4  8.946611E+04  1.269088E+04  2.208160E+02  3.370847E+04 -1.713675E+02 -6.520805E+01
       221   5  8.942143E+04  1.263146E+04  3.948748E+02  3.369278E+04 -3.749173E+02 -1.411630E+02
       221   6  8.949583E+04  1.290059E+04  8.034590E+02  3.362948E+04 -5.784490E+02 -2.171772E+02
       221   7  8.947901E+04  1.269404E+04  2.240359E+02  3.371022E+04 -1.713529E+02 -6.520258E+01
       221   8  8.943451E+04  1.263693E+04  3.985829E+02  3.369688E+04 -3.749041E+02 -1.411580E+02
       221   9  8.950909E+04  1.290837E+04  8.076565E+02  3.363593E+04 -5.784371E+02 -2.171727E+02
       221  10  8.945322E+04  1.268772E+04  2.175973E+02  3.370671E+04 -1.719161E-05 -8.536763E-06
       221  11  8.940836E+04  1.262599E+04  3.911665E+02  3.368867E+04 -7.478085E-07 -2.718548E-07
       221  12  8.948257E+04  1.289280E+04  7.992599E+02  3.362303E+04  1.561458E-05  8.063888E-06
       221  13  8.946611E+04  1.269088E+04  2.208160E+02  3.370847E+04 -4.486601E-05 -1.369119E-05
       221  14  8.942143E+04  1.263146E+04  3.948745E+02  3.369278E+04 -1.350651E-06  2.638270E-08
       221  15  8.949583E+04  1.290059E+04  8.034583E+02  3.362948E+04  4.216945E-05  1.374113E-05
       221  16  8.947900E+04  1.269404E+04  2.240346E+02  3.371023E+04 -1.616205E-05 -9.164929E-06
       221  17  8.943451E+04  1.263693E+04  3.985825E+02  3.369688E+04  9.200862E-08 -8.306296E-07
       221  18  8.950909E+04  1.290837E+04  8.076566E+02  3.363593E+04  1.642736E-05  7.427411E-06
       221  19  8.945323E+04  1.268772E+04  2.175985E+02  3.370670E+04  1.713819E+02  6.521349E+01
       221  20  8.940836E+04  1.262599E+04  3.911670E+02  3.368867E+04  3.749305E+02  1.411679E+02
       221  21  8.948257E+04  1.289281E+04  7.992598E+02  3.362304E+04  5.784610E+02  2.171817E+02
       221  22  8.946611E+04  1.269088E+04  2.208162E+02  3.370847E+04  1.713674E+02  6.520802E+01
       221  23  8.942143E+04  1.263146E+04  3.948749E+02  3.369278E+04  3.749173E+02  1.411630E+02
       221  24  8.949583E+04  1.290059E+04  8.034591E+02  3.362948E+04  5.784491E+02  2.171772E+02
       221  25  8.947899E+04  1.269404E+04  2.240335E+02  3.371023E+04  1.713529E+02  6.520256E+01
       221  26  8.943451E+04  1.263693E+04  3.985826E+02  3.369688E+04  3.749041E+02  1.411580E+02
       221  27  8.950910E+04  1.290837E+04  8.076581E+02  3.363592E+04  5.784371E+02  2.171727E+02
       222   1  8.874321E+04  1.237646E+04  7.985316E+02  3.354996E+04 -7.313630E+02 -2.745443E+02
       222   2  8.843177E+04  1.202833E+04  1.512380E+03  3.351100E+04 -1.641155E+03 -6.166305E+02
       222   3  8.894994E+04  1.369313E+04  3.443464E+03  3.301843E+04 -2.551148E+03 -9.581999E+02
       222   4  8.956909E+04  1.267802E+04  1.023987E+03  3.376404E+04 -7.313588E+02 -2.745427E+02
       222   5  8.924931E+04  1.234193E+04  1.738568E+03  3.373838E+04 -1.641140E+03 -6.166250E+02
       222   6  8.975914E+04  1.401877E+04  3.670375E+03  3.325910E+04 -2.551123E+03 -9.581905E+02
       222   7  9.039498E+04  1.297957E+04  1.249442E+03  3.397812E+04 -7.313546E+02 -2.745411E+02
       222   8  9.006686E+04  1.265553E+04  1.964756E+03  3.396575E+04 -1.641126E+03 -6.166194E+02
       222   9  9.056834E+04  1.434441E+04  3.897286E+03  3.349977E+04 -2.551097E+03 -9.581811E+02
       222  10  8.874320E+04  1.237647E+04  7.985292E+02  3.354997E+04  2.627438E-05  1.314019E-05
       222  11  8.843175E+04  1.202834E+04  1.512373E+03  3.351102E+04  4.649001E-05  2.206267E-05
       222  12  8.894990E+04  1.369314E+04  3.443448E+03  3.301845E+04  6.675078E-05  3.089469E-05
       222  13  8.956909E+04  1.267802E+04  1.023986E+03  3.376404E+04  6.998504E-05  2.297142E-05
       222  14  8.924931E+04  1.234193E+04  1.738562E+03  3.373838E+04  1.220489E-04  4.097966E-05
       222  15  8.975913E+04  1.401877E+04  3.670361E+03  3.325910E+04  1.741182E-04  5.898805E-05
       222  16  9.039499E+04  1.297957E+04  1.249442E+03  3.397811E+04  2.703139E-05  1.235406E-05
       222  17  9.006687E+04  1.265552E+04  1.964752E+03  3.396573E+04  4.720690E-05  2.118986E-05
       222  18  9.056835E+04  1.434439E+04  3.897275E+03  3.349974E+04  6.733775E-05  3.012407E-05
       222  19  8.874319E+04  1.237647E+04  7.985292E+02  3.354999E+04  7.313631E+02  2.745443E+02
       222  20  8.843173E+04  1.202835E+04  1.512377E+03  3.351104E+04  1.641155E+03  6.166306E+02
       222  21  8.894988E+04  1.369316E+04  3.443460E+03  3.301848E+04  2.551148E+03  9.582000E+02
       222  22  8.956909E+04  1.267802E+04  1.023987E+03  3.376404E+04  7.313589E+02  2.745427E+02
       222  23  8.924931E+04  1.234193E+04  1.738568E+03  3.373838E+04  1.641141E+03  6.166250E+02
       222  24  8.975914E+04  1.401877E+04  3.670375E+03  3.325910E+04  2.551123E+03  9.581906E+02
       222  25  9.039500E+04  1.297956E+04  1.249444E+03  3.397810E+04  7.313547E+02  2.745411E+02
       222  26  9.006689E+04  1.265551E+04  1.964759E+03  3.396571E+04  1.641126E+03  6.166195E+02
       222  27  9.056839E+04  1.434438E+04  3.897291E+03  3.349971E+04  2.551098E+03  9.581812E+02
       223   1  8.783469E+04  1.174447E+04  3.938708E+03  3.352906E+04 -3.242660E+03 -1.217816E+03
       223   2  8.590482E+04  9.614361E+03  6.872941E+03  3.340214E+04 -7.265335E+03 -2.731310E+03
       223   3  8.918515E+04  2.018214E+04  1.625747E+04  3.012780E+04 -1.128805E+04 -4.244613E+03
       223   4  9.019027E+04  1.256700E+04  4.574226E+03  3.410117E+04 -3.242645E+03 -1.217810E+03
       223   5  8.819351E+04  1.051148E+04  7.509983E+03  3.405836E+04 -7.265330E+03 -2.731309E+03
       223   6  9.140693E+04  2.115381E+04  1.689603E+04  3.086813E+04 -1.128806E+04 -4.244618E+03
       223   7  9.254586E+04  1.338953E+04  5.209743E+03  3.467328E+04 -3.242630E+03 -1.217804E+03
       223   8  9.048220E+04  1.140859E+04  8.147024E+03  3.471458E+04 -7.265326E+03 -2.731308E+03
       223   9  9.362871E+04  2.212548E+04  1.753459E+04  3.160846E+04 -1.128806E+04 -4.244623E+03
       223  10  8.783465E+04  1.174449E+04  3.938683E+03  3.352909E+04  7.971936E-05  3.633631E-05
       223  11  8.590472E+04  9.614366E+03  6.872825E+03  3.340217E+04  1.039876E-04  4.576171E-05
       223  12  8.918496E+04  2.018212E+04  1.625720E+04  3.012781E+04  1.285309E-04  5.450718E-05
       223  13  9.019026E+04  1.256700E+04  4.574204E+03  3.410116E+04  2.069896E-04  7.084363E-05
       223  14  8.819345E+04  1.051145E+04  7.509870E+03  3.405834E+04  2.678727E-04  9.357241E-05
       223  15  9.140678E+04  2.115376E+04  1.689576E+04  3.086809E+04  3.287686E-04  1.163018E-04
       223  16  9.254588E+04  1.338951E+04  5.209723E+03  3.467324E+04  8.025350E-05  3.526011E-05
       223  17  9.048218E+04  1.140854E+04  8.146913E+03  3.471452E+04  1.045484E-04  4.441211E-05
       223  18  9.362861E+04  2.212539E+04  1.753431E+04  3.160837E+04  1.285747E-04  5.423116E-05
       223  19  8.783463E+04  1.174451E+04  3.938703E+03  3.352913E+04  3.242660E+03  1.217816E+03
       223  20  8.590474E+04  9.614414E+03  6.872936E+03  3.340223E+04  7.265335E+03  2.731311E+03
       223  21  8.918505E+04  2.018221E+04  1.625747E+04  3.012790E+04  1.128805E+04  4.244613E+03
       223  22  9.019027E+04  1.256700E+04  4.574226E+03  3.410117E+04  3.242645E+03  1.217810E+03
       223  23  8.819351E+04  1.051148E+04  7.509983E+03  3.405836E+04  7.265331E+03  2.731309E+03
       223  24  9.140693E+04  2.115381E+04  1.689603E+04  3.086813E+04  1.128806E+04  4.244618E+03
       223  25  9.254592E+04  1.338950E+04  5.209748E+03  3.467321E+04  3.242631E+03  1.217804E+03
       223  26  9.048228E+04  1.140854E+04  8.147029E+03  3.471449E+04  7.265326E+03  2.731308E+03
       223  27  9.362880E+04  2.212541E+04  1.753459E+04  3.160836E+04  1.128806E+04  4.244623E+03
       224   1  8.795953E+04  9.926651E+03  1.888307E+04  3.495606E+04 -1.443263E+04 -5.424417E+03
       224   2  7.608797E+04 -3.393885E+03  3.047313E+04  3.447605E+04 -3.220315E+04 -1.210720E+04
       224   3  9.662271E+04  6.373891E+04  7.730802E+04  1.327090E+04 -4.997126E+04 -1.879713E+04
       224   4  9.399054E+04  1.177609E+04  2.045888E+04  3.615790E+04 -1.443252E+04 -5.424363E+03
       224   5  8.166289E+04 -1.069098E+03  3.205274E+04  3.621759E+04 -3.220335E+04 -1.210729E+04
       224   6  1.017413E+05  6.653868E+04  7.889144E+04  1.555226E+04 -4.997175E+04 -1.879740E+04
       224   7  1.000216E+05  1.362554E+04  2.203468E+04  3.735975E+04 -1.443241E+04 -5.424308E+03
       224   8  8.723784E+04  1.255694E+03  3.363236E+04  3.795915E+04 -3.220355E+04 -1.210738E+04
       224   9  1.068600E+05  6.933845E+04  8.047486E+04  1.783365E+04 -4.997225E+04 -1.879767E+04
       224  10  8.795926E+04  9.926596E+03  1.888262E+04  3.495605E+04  1.208519E-04  4.999759E-05
       224  11  7.608679E+04 -3.394302E+03  3.047090E+04  3.447576E+04  6.873932E-05  2.711376E-05
       224  12  9.661993E+04  6.373786E+04  7.730266E+04  1.327015E+04  1.571625E-05  5.899543E-06
       224  13  9.399031E+04  1.177601E+04  2.045843E+04  3.615784E+04  3.074404E-04  1.090514E-04
       224  14  8.166174E+04 -1.069533E+03  3.205052E+04  3.621728E+04  1.732479E-04  6.144660E-05
       224  15  1.017385E+05  6.653763E+04  7.888609E+04  1.555151E+04  3.905335E-05  1.384921E-05
       224  16  1.000214E+05  1.362542E+04  2.203424E+04  3.735964E+04  1.198231E-04  5.126622E-05
       224  17  8.723672E+04  1.255240E+03  3.363013E+04  3.795881E+04  6.689065E-05  2.993144E-05
       224  18  1.068572E+05  6.933740E+04  8.046951E+04  1.783288E+04  1.485754E-05  6.953027E-06
       224  19  8.795944E+04  9.926716E+03  1.888306E+04  3.495616E+04  1.443263E+04  5.424417E+03
       224  20  7.608792E+04 -3.393848E+03  3.047312E+04  3.447610E+04  3.220315E+04  1.210720E+04
       224  21  9.662270E+04  6.373892E+04  7.730802E+04  1.327092E+04  4.997126E+04  1.879713E+04
       224  22  9.399054E+04  1.177609E+04  2.045888E+04  3.615790E+04  1.443252E+04  5.424363E+03
       224  23  8.166289E+04 -1.069097E+03  3.205274E+04  3.621759E+04  3.220335E+04  1.210729E+04
       224  24  1.017413E+05  6.653867E+04  7.889144E+04  1.555226E+04  4.997175E+04  1.879740E+04
       224  25  1.000217E+05  1.362547E+04  2.203469E+04  3.735965E+04  1.443241E+04  5.424308E+03
       224  26  8.723789E+04  1.255658E+03  3.363236E+04  3.795910E+04  3.220355E+04  1.210738E+04
       224  27  1.068600E+05  6.933844E+04  8.047486E+04  1.783363E+04  4.997225E+04  1.879767E+04
       225   1  4.889217E+04  1.963131E+04  2.806340E+03 -7.903909E+03 -4.716211E+04 -3.804530E+03
       225   2  2.984009E+04  8.207056E+04  3.663704E+04 -1.448202E+02 -3.331570E+04 -1.141681E+04
       225   3 -9.127729E+03  7.200786E+04  4.333965E+04  2.485453E+04 -1.948105E+04 -1.089980E+04
       225   4 -2.864040E+05 -6.382433E+04 -7.949254E+04  1.543683E+04 -5.443954E+04 -3.816011E+03
       225   5 -2.759940E+05  6.552200E+03 -3.520821E+04  6.769754E+03 -3.552940E+04 -1.142080E+04
       225   6 -2.863911E+05  3.527040E+03 -2.157978E+04  1.534387E+04 -1.663017E+04 -1.089525E+04
       225   7 -6.215966E+05 -1.472862E+05 -1.617992E+05  3.876492E+04 -6.171304E+04 -3.828044E+03
       225   8 -5.817419E+05 -6.897264E+04 -1.070598E+05  1.368087E+04 -3.774200E+04 -1.142484E+04
       225   9 -5.635834E+05 -6.495891E+04 -8.650437E+04  5.837461E+03 -1.378056E+04 -1.089079E+04
       225  10  4.888978E+04  1.963070E+04  2.802133E+03 -7.904053E+03 -2.233099E-09  1.858700E-09
       225  11  2.983887E+04  8.207012E+04  3.663471E+04 -1.451265E+02 -3.083489E-10  6.501631E-09
       225  12 -9.128169E+03  7.200763E+04  4.333871E+04  2.485436E+04  1.854222E-09  2.075407E-09
       225  13 -2.864072E+05 -6.382514E+04 -7.949814E+04  1.543667E+04 -1.963982E-09 -1.858138E-09
       225  14 -2.759954E+05  6.551721E+03 -3.521083E+04  6.769427E+03  1.035864E-10 -2.702654E-09
       225  15 -2.863914E+05  3.526838E+03 -2.158052E+04  1.534373E+04 -1.519187E-09  2.603712E-09
       225  16 -6.216007E+05 -1.472873E+05 -1.618064E+05  3.876473E+04  2.409610E-09 -7.334493E-11
       225  17 -5.817435E+05 -6.897316E+04 -1.070628E+05  1.368052E+04 -4.003924E-09  3.927335E-09
       225  18 -5.635836E+05 -6.495909E+04 -8.650495E+04  5.837340E+03 -1.048561E-09 -2.533953E-10
       225  19  4.889217E+04  1.963131E+04  2.806340E+03 -7.903909E+03  4.716211E+04  3.804530E+03
       225  20  2.984009E+04  8.207056E+04  3.663704E+04 -1.448202E+02  3.331570E+04  1.141681E+04
       225  21 -9.127729E+03  7.200786E+04  4.333965E+04  2.485453E+04  1.948105E+04  1.089980E+04
       225  22 -2.864040E+05 -6.382433E+04 -7.949254E+04  1.543683E+04  5.443954E+04  3.816011E+03
       225  23 -2.759940E+05  6.552200E+03 -3.520821E+04  6.769754E+03  3.552940E+04  1.142080E+04
       225  24 -2.863911E+05  3.527040E+03 -2.157978E+04  1.534387E+04  1.663017E+04  1.089525E+04
       225  25 -6.215966E+05 -1.472862E+05 -1.617992E+05  3.876492E+04  6.171304E+04  3.828044E+03
       225  26 -5.817419E+05 -6.897264E+04 -1.070598E+05  1.368087E+04  3.774200E+04  1.142484E+04
       225  27 -5.635834E+05 -6.495891E+04 -8.650437E+04  5.837461E+03  1.378056E+04  1.089079E+04
       226   1 -3.645187E+04  5.517287E+04  4.030346E+04  1.396987E+04 -1.373466E+04 -9.072852E+03
       226   2 -6.445970E+04  5.414589E+04  4.173665E+04  6.501151E+03 -9.403826E+03 -8.259131E+03
       226   3 -9.467521E+04  4.670974E+04  3.873932E+04  1.659708E+04 -5.074521E+03 -6.973590E+03
       226   4 -2.822675E+05 -5.549180E+03 -1.748328E+04  1.545097E+04 -1.337514E+04 -9.072529E+03
       226   5 -2.811349E+05  6.382929E+02 -9.093540E+03  6.663291E+03 -8.751592E+03 -8.258170E+03
       226   6 -2.822631E+05  3.643282E+02 -5.339064E+03  1.544072E+04 -4.129371E+03 -6.971934E+03
       226   7 -5.280274E+05 -6.627553E+04 -7.527417E+04  1.693146E+04 -1.301577E+04 -9.072204E+03
       226   8 -4.977669E+05 -5.287265E+04 -5.992694E+04  6.825356E+03 -8.099585E+03 -8.257209E+03
       226   9 -4.698186E+05 -4.598359E+04 -4.941986E+04  1.428470E+04 -3.184504E+03 -6.970282E+03
       226  10 -3.645210E+04  5.517273E+04  4.030295E+04  1.396977E+04 -2.336968E-09 -1.020358E-09
       226  11 -6.445982E+04  5.414579E+04  4.173636E+04  6.501088E+03  9.652691E-10  2.591996E-09
       226  12 -9.467525E+04  4.670968E+04  3.873918E+04  1.659705E+04  1.450628E-11  5.595943E-09
       226  13 -2.822677E+05 -5.549316E+03 -1.748378E+04  1.545088E+04  1.954368E-09  6.368747E-09
       226  14 -2.811350E+05  6.381991E+02 -9.093812E+03  6.663233E+03  4.447620E-09 -8.895693E-09
       226  15 -2.822632E+05  3.642715E+02 -5.339187E+03  1.544070E+04 -1.058989E-09  6.571311E-09
       226  16 -5.280276E+05 -6.627567E+04 -7.527465E+04  1.693137E+04  3.481716E-10 -4.391599E-09
       226  17 -4.977670E+05 -5.287274E+04 -5.992719E+04  6.825302E+03 -2.788633E-10 -2.145017E-09
       226  18 -4.698187E+05 -4.598364E+04 -4.941997E+04  1.428468E+04 -1.058611E-09  9.685099E-10
       226  19 -3.645187E+04  5.517287E+04  4.030346E+04  1.396987E+04  1.373466E+04  9.072852E+03
       226  20 -6.445970E+04  5.414589E+04  4.173665E+04  6.501151E+03  9.403826E+03  8.259131E+03
       226  21 -9.467521E+04  4.670974E+04  3.873932E+04  1.659708E+04  5.074521E+03  6.973590E+03
       226  22 -2.822675E+05 -5.549180E+03 -1.748328E+04  1.545097E+04  1.337514E+04  9.072529E+03
       226  23 -2.811349E+05  6.382929E+02 -9.093540E+03  6.663291E+03  8.751592E+03  8.258170E+03
       226  24 -2.822631E+05  3.643282E+02 -5.339064E+03  1.544072E+04  4.129371E+03  6.971934E+03
       226  25 -5.280274E+05 -6.627553E+04 -7.527417E+04  1.693146E+04  1.301577E+04  9.072204E+03
       226  26 -4.977669E+05 -5.287265E+04 -5.992694E+04  6.825356E+03  8.099585E+03  8.257209E+03
       226  27 -4.698186E+05 -4.598359E+04 -4.941986E+04  1.428470E+04  3.184504E+03  6.970282E+03
       227   1 -1.258326E+05  3.809202E+04  3.237193E+04  1.561261E+04 -4.098277E+03 -6.138586E+03
       227   2 -1.549049E+05  3.139404E+04  2.743309E+04  6.830684E+03 -2.970455E+03 -4.836642E+03
       227   3 -1.843257E+05  2.419105E+04  2.161693E+04  1.571411E+04 -1.843022E+03 -3.505871E+03
       227   4 -2.818363E+05 -4.195154E+02 -4.147116E+03  1.546682E+04 -3.295831E+03 -6.137132E+03
       227   5 -2.816593E+05  8.992527E+01 -2.300678E+03  6.633522E+03 -2.150299E+03 -4.835070E+03
       227   6 -2.818343E+05  9.135926E+01 -1.343906E+03  1.546581E+04 -1.005104E+03 -3.504176E+03
       227   7 -4.378176E+05 -3.893278E+04 -4.066781E+04  1.532105E+04 -2.493584E+03 -6.135678E+03
       227   8 -4.083988E+05 -3.121533E+04 -3.203554E+04  6.436394E+03 -1.330309E+03 -4.833499E+03
       227   9 -3.793341E+05 -2.400901E+04 -2.430539E+04  1.521754E+04 -1.673166E+02 -3.502481E+03
       227  10 -1.258327E+05  3.809198E+04  3.237182E+04  1.561259E+04  1.047159E-09 -1.154816E-09
       227  11 -1.549049E+05  3.139401E+04  2.743303E+04  6.830672E+03 -2.483397E-09 -2.708813E-09
       227  12 -1.843258E+05  2.419104E+04  2.161690E+04  1.571410E+04 -1.846542E-09 -2.009075E-09
       227  13 -2.818363E+05 -4.195588E+02 -4.147207E+03  1.546680E+04 -2.132502E-09 -6.288497E-10
       227  14 -2.816593E+05  8.989892E+01 -2.300731E+03  6.633514E+03 -2.579677E-09 -2.576200E-09
       227  15 -2.818343E+05  9.134580E+01 -1.343931E+03  1.546580E+04 -1.482352E-09 -2.956899E-09
       227  16 -4.378176E+05 -3.893282E+04 -4.066790E+04  1.532103E+04 -1.118913E-09 -3.850063E-09
       227  17 -4.083988E+05 -3.121535E+04 -3.203559E+04  6.436388E+03  1.182505E-09  6.626778E-10
       227  18 -3.793341E+05 -2.400903E+04 -2.430541E+04  1.521754E+04  1.695599E-09  5.391113E-09
       227  19 -1.258326E+05  3.809202E+04  3.237193E+04  1.561261E+04  4.098277E+03  6.138586E+03
       227  20 -1.549049E+05  3.139404E+04  2.743309E+04  6.830684E+03  2.970455E+03  4.836642E+03
       227  21 -1.843257E+05  2.419105E+04  2.161693E+04  1.571411E+04  1.843022E+03  3.505871E+03
       227  22 -2.818363E+05 -4.195154E+02 -4.147116E+03  1.546682E+04  3.295831E+03  6.137132E+03
       227  23 -2.816593E+05  8.992527E+01 -2.300678E+03  6.633522E+03  2.150299E+03  4.835070E+03
       227  24 -2.818343E+05  9.135926E+01 -1.343906E+03  1.546581E+04  1.005104E+03  3.504176E+03
       227  25 -4.378176E+05 -3.893278E+04 -4.066781E+04  1.532105E+04  2.493584E+03  6.135678E+03
       227  26 -4.083988E+05 -3.121533E+04 -3.203554E+04  6.436394E+03  1.330309E+03  4.833499E+03
       227  27 -3.793341E+05 -2.400901E+04 -2.430539E+04  1.521754E+04  1.673166E+02  3.502481E+03
       228   1 -2.159709E+05  1.626391E+04  1.431216E+04  1.558958E+04 -1.623040E+03 -2.726289E+03
       228   2 -2.452228E+05  9.051670E+03  7.940196E+03  6.690497E+03 -1.318950E+03 -1.393977E+03
       228   3 -2.745998E+05  1.859675E+03  1.355146E+03  1.549805E+04 -1.014964E+03 -5.970056E+01
       228   4 -2.817827E+05  2.733640E+01 -1.039222E+03  1.547531E+04 -7.928720E+02 -2.724574E+03
       228   5 -2.817194E+05  3.768395E+01 -6.214874E+02  6.621918E+03 -4.876037E+02 -1.392236E+03
       228   6 -2.817822E+05  6.811760E+01 -4.176389E+02  1.547522E+04 -1.824264E+02 -5.793087E+01
       228   7 -3.475906E+05 -1.620954E+04 -1.639089E+04  1.536105E+04  3.720905E+01 -2.722858E+03
       228   8 -3.182147E+05 -8.976396E+03 -9.183259E+03  6.553342E+03  3.436937E+02 -1.390495E+03
       228   9 -2.889645E+05 -1.723443E+03 -2.190425E+03  1.545240E+04  6.501018E+02 -5.616124E+01
       228  10 -2.159709E+05  1.626390E+04  1.431214E+04  1.558958E+04  1.158561E-09 -6.061050E-09
       228  11 -2.452228E+05  9.051667E+03  7.940189E+03  6.690495E+03  3.079337E-09  2.829596E-10
       228  12 -2.745998E+05  1.859675E+03  1.355144E+03  1.549805E+04 -3.136692E-10  1.108363E-09
       228  13 -2.817827E+05  2.732826E+01 -1.039237E+03  1.547531E+04  1.492062E-12 -3.024824E-10
       228  14 -2.817194E+05  3.768181E+01 -6.214915E+02  6.621917E+03 -6.811473E-09 -4.278297E-09
       228  15 -2.817822E+05  6.811758E+01 -4.176390E+02  1.547522E+04 -2.817886E-09 -1.639646E-09
       228  16 -3.475906E+05 -1.620955E+04 -1.639091E+04  1.536105E+04  4.067077E-10  9.581519E-10
       228  17 -3.182147E+05 -8.976398E+03 -9.183263E+03  6.553342E+03 -1.677974E-09  6.869293E-09
       228  18 -2.889645E+05 -1.723443E+03 -2.190426E+03  1.545240E+04 -3.328947E-09  1.970655E-09
       228  19 -2.159709E+05  1.626391E+04  1.431216E+04  1.558958E+04  1.623040E+03  2.726289E+03
       228  20 -2.452228E+05  9.051670E+03  7.940196E+03  6.690497E+03  1.318950E+03  1.393977E+03
       228  21 -2.745998E+05  1.859675E+03  1.355146E+03  1.549805E+04  1.014964E+03  5.970056E+01
       228  22 -2.817827E+05  2.733640E+01 -1.039222E+03  1.547531E+04  7.928720E+02  2.724574E+03
       228  23 -2.817194E+05  3.768395E+01 -6.214874E+02  6.621918E+03  4.876037E+02  1.392236E+03
       228  24 -2.817822E+05  6.811760E+01 -4.176389E+02  1.547522E+04  1.824264E+02  5.793087E+01
       228  25 -3.475906E+05 -1.620954E+04 -1.639089E+04  1.536105E+04 -3.720905E+01  2.722858E+03
       228  26 -3.182147E+05 -8.976396E+03 -9.183259E+03  6.553342E+03 -3.436937E+02  1.390495E+03
       228  27 -2.889645E+05 -1.723443E+03 -2.190425E+03  1.545240E+04 -6.501018E+02  5.616124E+01
       229   1 -3.063216E+05 -6.014372E+03 -6.213125E+03  1.543598E+04 -9.457182E+02  7.173647E+02
       229   2 -3.355773E+05 -1.326790E+04 -1.298091E+04  6.538366E+03 -7.749640E+02  2.051204E+03
       229   3 -3.649315E+05 -2.047224E+04 -1.986735E+04  1.534352E+04 -6.040874E+02  3.382736E+03
       229   4 -2.817764E+05  6.558290E+01 -3.670458E+02  1.547435E+04 -1.132333E+02  7.191304E+02
       229   5 -2.817270E+05  3.275372E+01 -3.475930E+02  6.623027E+03  5.606826E+01  2.052928E+03
       229   6 -2.817772E+05  4.931867E+01 -4.458611E+02  1.547438E+04  2.255003E+02  3.384423E+03
       229   7 -2.572307E+05  6.145494E+03  5.478993E+03  1.551271E+04  7.192842E+02  7.208961E+02
       229   8 -2.278741E+05  1.333320E+04  1.228552E+04  6.707695E+03  8.871722E+02  2.054653E+03
       229   9 -1.986164E+05  2.057038E+04  1.897516E+04  1.560526E+04  1.055199E+03  3.386110E+03
       229  10 -3.063216E+05 -6.014372E+03 -6.213127E+03  1.543598E+04 -5.386452E-09  2.881122E-10
       229  11 -3.355773E+05 -1.326791E+04 -1.298091E+04  6.538367E+03 -2.949896E-09 -3.722436E-09
       229  12 -3.649315E+05 -2.047225E+04 -1.986737E+04  1.534352E+04 -1.744849E-09 -2.198902E-09
       229  13 -2.817764E+05  6.558234E+01 -3.670468E+02  1.547435E+04 -2.345911E-09  5.336683E-09
       229  14 -2.817270E+05  3.274919E+01 -3.476009E+02  6.623027E+03  1.601189E-09 -2.777374E-09
       229  15 -2.817772E+05  4.930636E+01 -4.458827E+02  1.547438E+04  3.195374E-10 -4.104601E-09
       229  16 -2.572307E+05  6.145494E+03  5.478991E+03  1.551271E+04  3.450490E-09  9.734389E-10
       229  17 -2.278741E+05  1.333320E+04  1.228551E+04  6.707693E+03  2.843321E-09 -9.374878E-09
       229  18 -1.986164E+05  2.057037E+04  1.897514E+04  1.560525E+04  1.397572E-09 -6.169375E-09
       229  19 -3.063216E+05 -6.014372E+03 -6.213125E+03  1.543598E+04  9.457182E+02 -7.173647E+02
       229  20 -3.355773E+05 -1.326790E+04 -1.298091E+04  6.538366E+03  7.749640E+02 -2.051204E+03
       229  21 -3.649315E+05 -2.047224E+04 -1.986735E+04  1.534352E+04  6.040874E+02 -3.382736E+03
       229  22 -2.817764E+05  6.558290E+01 -3.670458E+02  1.547435E+04  1.132333E+02 -7.191304E+02
       229  23 -2.817270E+05  3.275372E+01 -3.475930E+02  6.623027E+03 -5.606826E+01 -2.052928E+03
       229  24 -2.817772E+05  4.931867E+01 -4.458611E+02  1.547438E+04 -2.255003E+02 -3.384423E+03
       229  25 -2.572307E+05  6.145494E+03  5.478993E+03  1.551271E+04 -7.192842E+02 -7.208961E+02
       229  26 -2.278741E+05  1.333320E+04  1.228552E+04  6.707695E+03 -8.871722E+02 -2.054653E+03
       229  27 -1.986164E+05  2.057038E+04  1.897516E+04  1.560526E+04 -1.055199E+03 -3.386110E+03
       230   1 -3.966225E+05 -2.830786E+04 -2.756539E+04  1.525211E+04 -5.253475E+02  4.161894E+03
       230   2 -4.257600E+05 -3.553385E+04 -3.465763E+04  6.424537E+03 -7.942294E+01  5.490510E+03
       230   3 -4.550621E+05 -4.290320E+04 -4.209207E+04  1.524592E+04  3.668858E+02  6.788770E+03
       230   4 -2.817926E+05  7.299715E+01 -5.379831E+02  1.546226E+04  3.122286E+02  4.163553E+03
       230   5 -2.817129E+05  4.679200E+01 -8.618547E+02  6.638086E+03  7.392989E+02  5.492033E+03
       230   6 -2.817947E+05 -1.192953E+02 -1.514606E+03  1.546263E+04  1.166774E+03  6.790163E+03
       230   7 -1.669505E+05  2.845291E+04  2.648852E+04  1.567243E+04  1.149959E+03  4.165212E+03
       230   8 -1.376466E+05  3.562596E+04  3.293250E+04  6.851676E+03  1.558210E+03  5.493556E+03
       230   9 -1.084996E+05  4.266248E+04  3.906081E+04  1.567938E+04  1.966884E+03  6.791556E+03
       230  10 -3.966225E+05 -2.830788E+04 -2.756542E+04  1.525212E+04 -7.745703E-10 -1.422902E-09
       230  11 -4.257600E+05 -3.553388E+04 -3.465768E+04  6.424537E+03 -1.269866E-09 -4.178963E-09
       230  12 -4.550621E+05 -4.290325E+04 -4.209216E+04  1.524592E+04 -3.224000E-10 -4.870896E-10
       230  13 -2.817926E+05  7.297851E+01 -5.380158E+02  1.546225E+04 -2.140419E-09 -2.499860E-09
       230  14 -2.817129E+05  4.675947E+01 -8.619124E+02  6.638083E+03  2.707672E-09 -5.308179E-10
       230  15 -2.817947E+05 -1.193452E+02 -1.514695E+03  1.546262E+04 -5.446565E-10  4.610426E-09
       230  16 -1.669505E+05  2.845289E+04  2.648848E+04  1.567243E+04 -1.215114E-09  2.784008E-09
       230  17 -1.376466E+05  3.562592E+04  3.293244E+04  6.851669E+03  5.764320E-10 -2.334567E-09
       230  18 -1.084996E+05  4.266243E+04  3.906072E+04  1.567937E+04 -2.569214E-09  2.928345E-09
       230  19 -3.966225E+05 -2.830786E+04 -2.756539E+04  1.525211E+04  5.253475E+02 -4.161894E+03
       230  20 -4.257600E+05 -3.553385E+04 -3.465763E+04  6.424537E+03  7.942294E+01 -5.490510E+03
       230  21 -4.550621E+05 -4.290320E+04 -4.209207E+04  1.524592E+04 -3.668858E+02 -6.788770E+03
       230  22 -2.817926E+05  7.299715E+01 -5.379831E+02  1.546226E+04 -3.122286E+02 -4.163553E+03
       230  23 -2.817129E+05  4.679200E+01 -8.618547E+02  6.638086E+03 -7.392989E+02 -5.492033E+03
       230  24 -2.817947E+05 -1.192953E+02 -1.514606E+03  1.546263E+04 -1.166774E+03 -6.790163E+03
       230  25 -1.669505E+05  2.845291E+04  2.648852E+04  1.567243E+04 -1.149959E+03 -4.165212E+03
       230  26 -1.376466E+05  3.562596E+04  3.293250E+04  6.851676E+03 -1.558210E+03 -5.493556E+03
       230  27 -1.084996E+05  4.266248E+04  3.906081E+04  1.567938E+04 -1.966884E+03 -6.791556E+03
       231   1 -4.867559E+05 -5.044318E+04 -5.006785E+04  1.483139E+04  5.200393E+02  7.624576E+03
       231   2 -5.153794E+05 -5.752741E+04 -5.816584E+04  6.529772E+03  2.499655E+03  8.902512E+03
       231   3 -5.448817E+05 -6.695717E+04 -6.814789E+04  1.576859E+04  4.480501E+03  9.686039E+03
       231   4 -2.819453E+05  1.646007E+02 -1.939402E+03  1.543715E+04  1.469223E+03  7.626161E+03
       231   5 -2.815343E+05  2.374192E+02 -3.292774E+03  6.668925E+03  3.141089E+03  8.903392E+03
       231   6 -2.819490E+05 -1.981247E+03 -6.315848E+03  1.544074E+04  4.814277E+03  9.686298E+03
       231   7 -7.709607E+04  5.076939E+04  4.618617E+04  1.604310E+04  2.418717E+03  7.627747E+03
       231   8 -4.763888E+04  5.799835E+04  5.157655E+04  6.808109E+03  3.782763E+03  8.904272E+03
       231   9 -1.895275E+04  6.298974E+04  5.551145E+04  1.511274E+04  5.148193E+03  9.686556E+03
       231  10 -4.867559E+05 -5.044324E+04 -5.006796E+04  1.483139E+04  3.851743E-09  2.283869E-10
       231  11 -5.153794E+05 -5.752750E+04 -5.816600E+04  6.529754E+03  1.260592E-09  4.871284E-09
       231  12 -5.448817E+05 -6.695728E+04 -6.814810E+04  1.576855E+04  2.100356E-09 -1.873615E-09
       231  13 -2.819453E+05  1.645377E+02 -1.939516E+03  1.543714E+04 -4.101642E-09 -4.555152E-09
       231  14 -2.815344E+05  2.373315E+02 -3.292942E+03  6.668903E+03 -5.072482E-09  9.641103E-10
       231  15 -2.819491E+05 -1.981354E+03 -6.316068E+03  1.544071E+04 -2.683410E-09  1.848235E-09
       231  16 -7.709609E+04  5.076933E+04  4.618605E+04  1.604308E+04 -5.739207E-09 -2.710905E-09
       231  17 -4.763891E+04  5.799826E+04  5.157637E+04  6.808082E+03 -1.091427E-09 -7.614399E-09
       231  18 -1.895280E+04  6.298963E+04  5.551122E+04  1.511270E+04 -3.812046E-09  3.214169E-10
       231  19 -4.867559E+05 -5.044318E+04 -5.006785E+04  1.483139E+04 -5.200393E+02 -7.624576E+03
       231  20 -5.153794E+05 -5.752741E+04 -5.816584E+04  6.529772E+03 -2.499655E+03 -8.902512E+03
       231  21 -5.448817E+05 -6.695717E+04 -6.814789E+04  1.576859E+04 -4.480501E+03 -9.686039E+03
       231  22 -2.819453E+05  1.646007E+02 -1.939402E+03  1.543715E+04 -1.469223E+03 -7.626161E+03
       231  23 -2.815343E+05  2.374192E+02 -3.292774E+03  6.668925E+03 -3.141089E+03 -8.903392E+03
       231  24 -2.819490E+05 -1.981247E+03 -6.315848E+03  1.544074E+04 -4.814277E+03 -9.686298E+03
       231  25 -7.709607E+04  5.076939E+04  4.618617E+04  1.604310E+04 -2.418717E+03 -7.627747E+03
       231  26 -4.763888E+04  5.799835E+04  5.157655E+04  6.808109E+03 -3.782763E+03 -8.904272E+03
       231  27 -1.895275E+04  6.298974E+04  5.551145E+04  1.511274E+04 -5.148193E+03 -9.686556E+03
       232   1 -5.777749E+05 -7.140244E+04 -7.672625E+04  1.169209E+04  3.043988E+03  1.155143E+04
       232   2 -6.024932E+05 -7.739556E+04 -8.858058E+04  9.062063E+03  1.518025E+04  1.202641E+04
       232   3 -6.356209E+05 -1.107677E+05 -1.151825E+05  2.358885E+04  2.732632E+04  3.979345E+03
       232   4 -2.834324E+05  1.294674E+03 -7.792200E+03  1.534352E+04  5.987661E+03  1.155562E+04
       232   5 -2.796944E+05  2.361078E+03 -1.271850E+04  6.780982E+03  1.281346E+04  1.202266E+04
       232   6 -2.834402E+05 -2.302158E+04 -2.869834E+04  1.537515E+04  1.964978E+04  3.969394E+03
       232   7  1.099001E+04  7.398568E+04  6.113598E+04  1.899666E+04  8.932720E+03  1.155983E+04
       232   8  4.320040E+04  8.211031E+04  6.313646E+04  4.498672E+03  1.044543E+04  1.201893E+04
       232   9  6.885377E+04  6.471561E+04  5.777699E+04  7.156731E+03  1.196889E+04  3.959649E+03
       232  10 -5.777750E+05 -7.140259E+04 -7.672652E+04  1.169206E+04  2.842818E-09 -3.470243E-09
       232  11 -6.024935E+05 -7.739577E+04 -8.858129E+04  9.061916E+03  6.055512E-10  8.977202E-11
       232  12 -6.356217E+05 -1.107679E+05 -1.151840E+05  2.358877E+04  1.649450E-09  3.328443E-09
       232  13 -2.834325E+05  1.294521E+03 -7.792519E+03  1.534346E+04 -2.164215E-09  1.406104E-09
       232  14 -2.796946E+05  2.360879E+03 -1.271908E+04  6.780857E+03 -1.444087E-09  4.389080E-09
       232  15 -2.834406E+05 -2.302170E+04 -2.869909E+04  1.537508E+04  6.802784E-10  2.565477E-09
       232  16  1.098988E+04  7.398552E+04  6.113558E+04  1.899658E+04 -4.774870E-09  4.246107E-09
       232  17  4.320025E+04  8.211012E+04  6.313598E+04  4.498571E+03 -7.709234E-09  4.064151E-09
       232  18  6.885361E+04  6.471556E+04  5.777669E+04  7.156693E+03 -2.516143E-09 -1.557606E-09
       232  19 -5.777749E+05 -7.140244E+04 -7.672625E+04  1.169209E+04 -3.043988E+03 -1.155143E+04
       232  20 -6.024932E+05 -7.739556E+04 -8.858058E+04  9.062063E+03 -1.518025E+04 -1.202641E+04
       232  21 -6.356209E+05 -1.107677E+05 -1.151825E+05  2.358885E+04 -2.732632E+04 -3.979345E+03
       232  22 -2.834324E+05  1.294674E+03 -7.792200E+03  1.534352E+04 -5.987661E+03 -1.155562E+04
       232  23 -2.796944E+05  2.361078E+03 -1.271850E+04  6.780982E+03 -1.281346E+04 -1.202266E+04
       232  24 -2.834402E+05 -2.302158E+04 -2.869834E+04  1.537515E+04 -1.964978E+04 -3.969394E+03
       232  25  1.099001E+04  7.398568E+04  6.113598E+04  1.899666E+04 -8.932720E+03 -1.155983E+04
       232  26  4.320040E+04  8.211031E+04  6.313646E+04  4.498672E+03 -1.044543E+04 -1.201893E+04
       232  27  6.885377E+04  6.471561E+04  5.777699E+04  7.156731E+03 -1.196889E+04 -3.959649E+03
       233   1 -2.178840E+05 -8.131829E+05 -2.134227E+05  1.853716E+05 -8.856605E+03 -6.448027E+04
       233   2 -1.467228E+05 -6.273093E+05 -1.333393E+05  1.543355E+05 -2.673205E+04 -2.716454E+04
       233   3 -9.788249E+04 -4.516873E+05 -8.313630E+04  1.669183E+05 -2.477840E+04  1.018734E+04
       233   4 -2.695192E+04 -4.288331E+04 -2.965726E+04  1.688673E+05 -8.893457E+03 -2.190037E+04
       233   5 -5.260376E+03 -4.035405E+04 -1.329197E+04  1.470692E+05 -2.673977E+04 -1.500015E+04
       233   6 -5.921438E+02 -4.281460E+04 -5.659956E+03  1.688905E+05 -2.476443E+04 -8.075800E+03
       233   7  1.639393E+05  7.279654E+05  1.540734E+05  1.523424E+05 -8.932559E+03  2.073220E+04
       233   8  1.361807E+05  5.469293E+05  1.067377E+05  1.397960E+05 -2.674777E+04 -2.824442E+03
       233   9  9.668862E+04  3.662203E+05  7.181021E+04  1.708642E+05 -2.475058E+04 -2.635068E+04
       233  10 -2.178852E+05 -8.131874E+05 -2.134307E+05  1.853711E+05  1.182395E-09 -2.514454E-09
       233  11 -1.467237E+05 -6.273103E+05 -1.333420E+05  1.543349E+05 -6.377376E-10 -2.567917E-09
       233  12 -9.788318E+04 -4.516876E+05 -8.313765E+04  1.669185E+05 -4.535385E-09 -4.168734E-09
       233  13 -2.695213E+04 -4.288385E+04 -2.965831E+04  1.688671E+05  7.274787E-11  1.083359E-09
       233  14 -5.261204E+03 -4.035448E+04 -1.329374E+04  1.470689E+05  3.565067E-10 -9.051340E-10
       233  15 -5.928197E+02 -4.281484E+04 -5.661230E+03  1.688904E+05 -3.436867E-09  1.447029E-09
       233  16  1.639391E+05  7.279649E+05  1.540725E+05  1.523426E+05 -2.045835E-09  9.549910E-10
       233  17  1.361799E+05  5.469291E+05  1.067363E+05  1.397959E+05 -3.432912E-10  2.815099E-09
       233  18  9.668778E+04  3.662194E+05  7.180776E+04  1.708636E+05 -3.618520E-09  3.651806E-09
       233  19 -2.178840E+05 -8.131829E+05 -2.134227E+05  1.853716E+05  8.856605E+03  6.448027E+04
       233  20 -1.467228E+05 -6.273093E+05 -1.333393E+05  1.543355E+05  2.673205E+04  2.716454E+04
       233  21 -9.788249E+04 -4.516873E+05 -8.313630E+04  1.669183E+05  2.477840E+04 -1.018734E+04
       233  22 -2.695192E+04 -4.288331E+04 -2.965726E+04  1.688673E+05  8.893457E+03  2.190037E+04
       233  23 -5.260376E+03 -4.035405E+04 -1.329197E+04  1.470692E+05  2.673977E+04  1.500015E+04
       233  24 -5.921438E+02 -4.281460E+04 -5.659956E+03  1.688905E+05  2.476443E+04  8.075800E+03
       233  25  1.639393E+05  7.279654E+05  1.540734E+05  1.523424E+05  8.932559E+03 -2.073220E+04
       233  26  1.361807E+05  5.469293E+05  1.067377E+05  1.397960E+05  2.674777E+04  2.824442E+03
       233  27  9.668862E+04  3.662203E+05  7.181021E+04  1.708642E+05  2.475058E+04  2.635068E+04
       234   1 -6.983451E+04 -3.293017E+05 -5.734121E+04  1.693317E+05 -1.757368E+04  7.901381E+03
       234   2 -2.543203E+04 -1.487809E+05 -1.713220E+04  1.470340E+05 -7.339820E+03  7.389224E+03
       234   3  1.933440E+04  3.203966E+04  2.352553E+04  1.695296E+05  3.295968E+03  6.876361E+03
       234   4 -1.408048E+03 -4.160570E+04 -2.969711E+03  1.691466E+05 -1.756303E+04 -7.505011E+03
       234   5 -1.472641E+02 -4.178761E+04  2.284182E+03  1.467512E+05 -7.329396E+03 -8.635966E+03
       234   6  1.586905E+03 -4.159290E+04  8.417796E+03  1.691485E+05  3.306053E+03 -9.767488E+03
       234   7  6.701371E+04  2.461708E+05  5.139902E+04  1.689615E+05 -1.755237E+04 -2.291837E+04
       234   8  2.513700E+04  6.521741E+04  2.170107E+04  1.464683E+05 -7.318958E+03 -2.466384E+04
       234   9 -1.616078E+04 -1.152197E+05 -6.689189E+03  1.687675E+05  3.316159E+03 -2.640940E+04
       234  10 -6.983486E+04 -3.293019E+05 -5.734191E+04  1.693318E+05 -3.134029E-09  1.681721E-09
       234  11 -2.543211E+04 -1.487810E+05 -1.713240E+04  1.470340E+05 -2.404346E-09  6.473827E-10
       234  12  1.933438E+04  3.203961E+04  2.352542E+04  1.695296E+05  1.367349E-09 -1.227431E-09
       234  13 -1.408395E+03 -4.160584E+04 -2.970397E+03  1.691465E+05 -2.489581E-09  1.071696E-09
       234  14 -1.473417E+02 -4.178771E+04  2.283941E+03  1.467511E+05  1.173975E-09 -4.290340E-10
       234  15  1.586868E+03 -4.159300E+04  8.417597E+03  1.691486E+05  1.923104E-09  5.003585E-10
       234  16  6.701324E+04  2.461702E+05  5.139746E+04  1.689612E+05 -1.949230E-09 -3.239727E-09
       234  17  2.513678E+04  6.521674E+04  2.169983E+04  1.464682E+05  3.795508E-09 -3.308794E-10
       234  18 -1.616098E+04 -1.152205E+05 -6.690520E+03  1.687676E+05  1.817037E-09  2.437336E-09
       234  19 -6.983451E+04 -3.293017E+05 -5.734121E+04  1.693317E+05  1.757368E+04 -7.901381E+03
       234  20 -2.543203E+04 -1.487809E+05 -1.713220E+04  1.470340E+05  7.339820E+03 -7.389224E+03
       234  21  1.933440E+04  3.203966E+04  2.352553E+04  1.695296E+05 -3.295968E+03 -6.876361E+03
       234  22 -1.408048E+03 -4.160570E+04 -2.969711E+03  1.691466E+05  1.756303E+04  7.505011E+03
       234  23 -1.472641E+02 -4.178761E+04  2.284182E+03  1.467512E+05  7.329396E+03  8.635966E+03
       234  24  1.586905E+03 -4.159290E+04  8.417796E+03  1.691485E+05 -3.306053E+03  9.767488E+03
       234  25  6.701371E+04  2.461708E+05  5.139902E+04  1.689615E+05  1.755237E+04  2.291837E+04
       234  26  2.513700E+04  6.521741E+04  2.170107E+04  1.464683E+05  7.318958E+03  2.466384E+04
       234  27 -1.616078E+04 -1.152197E+05 -6.689189E+03  1.687675E+05 -3.316159E+03  2.640940E+04
       235   1  4.677785E+04  1.549354E+05  5.008914E+04  1.652631E+05  1.062048E+04  7.415772E+03
       235   2  9.828997E+04  3.293700E+05  1.014989E+05  1.585080E+05  1.546411E+04 -2.732696E+04
       235   3  1.824004E+05  5.166306E+05  1.836947E+05  1.957547E+05  5.658403E+03 -6.209515E+04
       235   4  2.401172E+02 -3.970509E+04  1.205650E+04  1.689653E+05  1.063237E+04 -1.124171E+04
       235   5  8.030941E+03 -4.417645E+04  2.358007E+04  1.469835E+05  1.546260E+04 -2.347001E+04
       235   6  4.452570E+04 -3.974751E+04  5.026664E+04  1.690007E+05  5.641158E+03 -3.571356E+04
       235   7 -4.629965E+04 -2.343084E+05 -2.597663E+04  1.726664E+05  1.064404E+04 -2.989346E+04
       235   8 -8.223648E+04 -4.175906E+05 -5.434631E+04  1.354660E+05  1.546094E+04 -1.961533E+04
       235   9 -9.336837E+04 -5.958392E+05 -8.318031E+04  1.422709E+05  5.621635E+03 -9.355497E+03
       235  10  4.677771E+04  1.549353E+05  5.008883E+04  1.652630E+05  4.202342E-09  3.237042E-09
       235  11  9.828952E+04  3.293691E+05  1.014970E+05  1.585084E+05  1.736883E-09 -2.712981E-10
       235  12  1.823993E+05  5.166264E+05  1.836874E+05  1.957550E+05  6.535691E-10 -4.564697E-09
       235  13  2.399619E+02 -3.970525E+04  1.205605E+04  1.689654E+05  8.441731E-10  5.177599E-10
       235  14  8.030536E+03 -4.417711E+04  2.357858E+04  1.469838E+05  7.203259E-10 -1.849691E-09
       235  15  4.452532E+04 -3.974889E+04  5.026418E+04  1.690009E+05  1.325261E-09  1.471059E-09
       235  16 -4.630001E+04 -2.343094E+05 -2.597853E+04  1.726667E+05 -1.175402E-09 -4.464695E-09
       235  17 -8.223684E+04 -4.175910E+05 -5.434748E+04  1.354662E+05  4.663611E-09  3.292363E-10
       235  18 -9.336843E+04 -5.958393E+05 -8.318053E+04  1.422709E+05  4.066267E-09  5.184257E-09
       235  19  4.677785E+04  1.549354E+05  5.008914E+04  1.652631E+05 -1.062048E+04 -7.415772E+03
       235  20  9.828997E+04  3.293700E+05  1.014989E+05  1.585080E+05 -1.546411E+04  2.732696E+04
       235  21  1.824004E+05  5.166306E+05  1.836947E+05  1.957547E+05 -5.658403E+03  6.209515E+04
       235  22  2.401172E+02 -3.970509E+04  1.205650E+04  1.689653E+05 -1.063237E+04  1.124171E+04
       235  23  8.030941E+03 -4.417645E+04  2.358007E+04  1.469835E+05 -1.546260E+04  2.347001E+04
       235  24  4.452570E+04 -3.974751E+04  5.026664E+04  1.690007E+05 -5.641158E+03  3.571356E+04
       235  25 -4.629965E+04 -2.343084E+05 -2.597663E+04  1.726664E+05 -1.064404E+04  2.989346E+04
       235  26 -8.223648E+04 -4.175906E+05 -5.434631E+04  1.354660E+05 -1.546094E+04  1.961533E+04
       235  27 -9.336837E+04 -5.958392E+05 -8.318031E+04  1.422709E+05 -5.621635E+03  9.355497E+03
       236   1  6.542776E+05  2.387573E+05  1.456005E+05  2.378611E+05  6.091498E+04  1.906991E+04
       236   2  6.334564E+05  1.532225E+05  9.042788E+04  2.340958E+05  3.947301E+04  2.792254E+03
       236   3  6.332198E+05  1.368536E+05  7.041550E+04  2.215585E+05  1.543851E+04 -6.595260E+03
       236   4  4.279942E+05  1.269750E+05  7.998011E+04  1.487795E+05  5.229502E+04  1.582138E+04
       236   5  4.139285E+05  6.239343E+04  3.449252E+04  1.646723E+05  3.643771E+04  1.648259E+03
       236   6  4.193500E+05  6.588442E+04  1.975123E+04  1.717908E+05  1.798668E+04 -5.635530E+03
       236   7  2.017658E+05  1.520941E+04  1.435618E+04  5.973220E+04  4.367861E+04  1.257512E+04
       236   8  1.944491E+05 -2.842891E+04 -2.144646E+04  9.527233E+04  3.340358E+04  5.048171E+02
       236   9  2.055238E+05 -5.084336E+03 -3.091660E+04  1.220372E+05  2.053391E+04 -4.676063E+03
       236  10  6.542735E+05  2.387559E+05  1.455928E+05  2.378602E+05 -3.373451E-10 -1.539702E-09
       236  11  6.334547E+05  1.532221E+05  9.042494E+04  2.340957E+05 -2.350150E-09 -6.824546E-10
       236  12  6.332195E+05  1.368535E+05  7.041498E+04  2.215586E+05 -2.273738E-09  9.851032E-10
       236  13  4.279912E+05  1.269740E+05  7.997450E+04  1.487788E+05 -1.732278E-09 -2.950154E-09
       236  14  4.139270E+05  6.239308E+04  3.449002E+04  1.646722E+05 -2.624914E-09 -3.924866E-09
       236  15  4.193497E+05  6.588430E+04  1.975056E+04  1.717908E+05 -4.183219E-09 -3.371593E-10
       236  16  2.017637E+05  1.520872E+04  1.435230E+04  5.973176E+04  1.089595E-09  3.960716E-09
       236  17  1.944479E+05 -2.842921E+04 -2.144856E+04  9.527232E+04 -1.430394E-09  1.005650E-09
       236  18  2.055234E+05 -5.084472E+03 -3.091743E+04  1.220373E+05 -4.386301E-09  1.397695E-09
       236  19  6.542776E+05  2.387573E+05  1.456005E+05  2.378611E+05 -6.091498E+04 -1.906991E+04
       236  20  6.334564E+05  1.532225E+05  9.042788E+04  2.340958E+05 -3.947301E+04 -2.792254E+03
       236  21  6.332198E+05  1.368536E+05  7.041550E+04  2.215585E+05 -1.543851E+04  6.595260E+03
       236  22  4.279942E+05  1.269750E+05  7.998011E+04  1.487795E+05 -5.229502E+04 -1.582138E+04
       236  23  4.139285E+05  6.239343E+04  3.449252E+04  1.646723E+05 -3.643771E+04 -1.648259E+03
       236  24  4.193500E+05  6.588442E+04  1.975123E+04  1.717908E+05 -1.798668E+04  5.635530E+03
       236  25  2.017658E+05  1.520941E+04  1.435618E+04  5.973220E+04 -4.367861E+04 -1.257512E+04
       236  26  1.944491E+05 -2.842891E+04 -2.144646E+04  9.527233E+04 -3.340358E+04 -5.048171E+02
       236  27  2.055238E+05 -5.084336E+03 -3.091660E+04  1.220372E+05 -2.053391E+04  4.676063E+03
       237   1  6.065629E+05  1.444714E+05  6.259647E+04  2.215523E+05  1.448026E+04 -5.410489E+03
       237   2  5.904140E+05  1.294747E+05  5.014879E+04  2.131509E+05  9.883804E+03 -6.344320E+03
       237   3  5.700518E+05  1.250595E+05  4.206351E+04  2.110712E+05  5.169717E+03 -6.966116E+03
       237   4  4.167862E+05  7.224585E+04  1.571539E+04  1.679337E+05  1.491720E+04 -5.246170E+03
       237   5  4.186394E+05  6.500615E+04  8.013137E+03  1.655173E+05  1.057461E+04 -6.084240E+03
       237   6  4.162292E+05  6.829855E+04  4.473242E+03  1.694225E+05  6.114238E+03 -6.610297E+03
       237   7  2.270451E+05  2.318381E+01 -3.116845E+04  1.143300E+05  1.535399E+04 -5.081909E+03
       237   8  2.468942E+05  5.399173E+02 -3.412463E+04  1.178959E+05  1.126520E+04 -5.824240E+03
       237   9  2.624307E+05  1.153932E+04 -3.311860E+04  1.277833E+05  7.058500E+03 -6.254573E+03
       237  10  6.065627E+05  1.444713E+05  6.259602E+04  2.215524E+05 -8.216451E-09  1.822119E-09
       237  11  5.904138E+05  1.294746E+05  5.014853E+04  2.131510E+05 -2.961272E-09  5.006659E-09
       237  12  5.700518E+05  1.250595E+05  4.206337E+04  2.110713E+05  3.637391E-09  5.030773E-09
       237  13  4.167860E+05  7.224576E+04  1.571492E+04  1.679337E+05 -6.222004E-09  9.959355E-10
       237  14  4.186392E+05  6.500608E+04  8.012857E+03  1.655174E+05 -2.218404E-09 -6.794896E-09
       237  15  4.162292E+05  6.829849E+04  4.473089E+03  1.694226E+05  9.425407E-10  1.539805E-09
       237  16  2.270448E+05  2.309279E+01 -3.116894E+04  1.143301E+05 -3.550528E-09 -1.645748E-09
       237  17  2.468941E+05  5.398468E+02 -3.412493E+04  1.178959E+05 -3.534714E-09  2.681765E-09
       237  18  2.624306E+05  1.153926E+04 -3.311877E+04  1.277833E+05 -2.079125E-09 -2.864001E-10
       237  19  6.065629E+05  1.444714E+05  6.259647E+04  2.215523E+05 -1.448026E+04  5.410489E+03
       237  20  5.904140E+05  1.294747E+05  5.014879E+04  2.131509E+05 -9.883804E+03  6.344320E+03
       237  21  5.700518E+05  1.250595E+05  4.206351E+04  2.110712E+05 -5.169717E+03  6.966116E+03
       237  22  4.167862E+05  7.224585E+04  1.571539E+04  1.679337E+05 -1.491720E+04  5.246170E+03
       237  23  4.186394E+05  6.500615E+04  8.013137E+03  1.655173E+05 -1.057461E+04  6.084240E+03
       237  24  4.162292E+05  6.829855E+04  4.473242E+03  1.694225E+05 -6.114238E+03  6.610297E+03
       237  25  2.270451E+05  2.318381E+01 -3.116845E+04  1.143300E+05 -1.535399E+04  5.081909E+03
       237  26  2.468942E+05  5.399173E+02 -3.412463E+04  1.178959E+05 -1.126520E+04  5.824240E+03
       237  27  2.624307E+05  1.153932E+04 -3.311860E+04  1.277833E+05 -7.058500E+03  6.254573E+03
       238   1  5.529211E+05  1.197960E+05  3.687609E+04  2.068401E+05  4.389161E+03 -6.510442E+03
       238   2  5.374019E+05  1.094284E+05  3.082869E+04  1.981604E+05  3.053190E+03 -5.813095E+03
       238   3  5.157925E+05  1.056772E+05  2.555641E+04  1.966476E+05  1.712452E+03 -5.103635E+03
       238   4  4.160027E+05  6.868465E+04  3.415007E+03  1.691375E+05  5.235199E+03 -6.191680E+03
       238   5  4.190329E+05  6.526096E+04  1.856524E+03  1.655982E+05  3.909261E+03 -5.490466E+03
       238   6  4.159710E+05  6.845195E+04  1.065452E+03  1.692258E+05  2.578527E+03 -4.777149E+03
       238   7  2.791020E+05  1.757437E+04 -3.004767E+04  1.314422E+05  6.081037E+03 -5.872992E+03
       238   8  3.006774E+05  2.109442E+04 -2.711678E+04  1.330415E+05  4.765155E+03 -5.167904E+03
       238   9  3.161592E+05  3.122739E+04 -2.342626E+04  1.418080E+05  3.444449E+03 -4.450721E+03
       238  10  5.529211E+05  1.197959E+05  3.687597E+04  2.068401E+05  1.098911E-09 -1.546749E-09
       238  11  5.374019E+05  1.094283E+05  3.082861E+04  1.981604E+05  3.822622E-09  6.460929E-09
       238  12  5.157925E+05  1.056772E+05  2.555635E+04  1.966476E+05  5.482462E-09  4.986779E-09
       238  13  4.160026E+05  6.868460E+04  3.414883E+03  1.691375E+05  6.965529E-09  1.515017E-09
       238  14  4.190329E+05  6.526093E+04  1.856439E+03  1.655982E+05  3.890026E-09  7.158971E-09
       238  15  4.159709E+05  6.845193E+04  1.065397E+03  1.692258E+05  2.553316E-09  7.619663E-09
       238  16  2.791020E+05  1.757432E+04 -3.004780E+04  1.314423E+05  6.586208E-09  7.664193E-10
       238  17  3.006774E+05  2.109438E+04 -2.711688E+04  1.330416E+05  1.808825E-09  3.837745E-09
       238  18  3.161592E+05  3.122737E+04 -2.342632E+04  1.418080E+05  2.095713E-09  2.860708E-09
       238  19  5.529211E+05  1.197960E+05  3.687609E+04  2.068401E+05 -4.389161E+03  6.510442E+03
       238  20  5.374019E+05  1.094284E+05  3.082869E+04  1.981604E+05 -3.053190E+03  5.813095E+03
       238  21  5.157925E+05  1.056772E+05  2.555641E+04  1.966476E+05 -1.712452E+03  5.103635E+03
       238  22  4.160027E+05  6.868465E+04  3.415007E+03  1.691375E+05 -5.235199E+03  6.191680E+03
       238  23  4.190329E+05  6.526096E+04  1.856524E+03  1.655982E+05 -3.909261E+03  5.490466E+03
       238  24  4.159710E+05  6.845195E+04  1.065452E+03  1.692258E+05 -2.578527E+03  4.777149E+03
       238  25  2.791020E+05  1.757437E+04 -3.004767E+04  1.314422E+05 -6.081037E+03  5.872992E+03
       238  26  3.006774E+05  2.109442E+04 -2.711678E+04  1.330415E+05 -4.765155E+03  5.167904E+03
       238  27  3.161592E+05  3.122739E+04 -2.342626E+04  1.418080E+05 -3.444449E+03  4.450721E+03
       239   1  4.994363E+05  9.961577E+04  2.120363E+04  1.921765E+05  1.327228E+03 -4.539427E+03
       239   2  4.840713E+05  8.956772E+04  1.646107E+04  1.835072E+05  6.531017E+02 -3.579939E+03
       239   3  4.624562E+05  8.583944E+04  1.192732E+04  1.820060E+05 -2.089826E+01 -2.621047E+03
       239   4  4.159477E+05  6.846584E+04  8.334654E+02  1.691964E+05  2.187648E+03 -4.215034E+03
       239   5  4.190728E+05  6.530180E+04  5.498531E+02  1.656141E+05  1.513074E+03 -3.255670E+03
       239   6  4.159475E+05  6.845770E+04  4.754347E+02  1.691999E+05  8.386164E+02 -2.296903E+03
       239   7  3.324664E+05  3.731655E+04 -1.953711E+04  1.462192E+05  3.047937E+03 -3.890689E+03
       239   8  3.540785E+05  4.103618E+04 -1.536168E+04  1.477228E+05  2.372949E+03 -2.931438E+03
       239   9  3.694407E+05  5.107602E+04 -1.097668E+04  1.563946E+05  1.698065E+03 -1.972784E+03
       239  10  4.994363E+05  9.961575E+04  2.120359E+04  1.921765E+05  1.682215E-09 -4.864705E-09
       239  11  4.840713E+05  8.956771E+04  1.646105E+04  1.835072E+05 -3.077606E-10 -5.831768E-09
       239  12  4.624562E+05  8.583943E+04  1.192731E+04  1.820060E+05  4.263783E-09 -4.419598E-09
       239  13  4.159477E+05  6.846582E+04  8.334230E+02  1.691964E+05 -1.276643E-09  6.195355E-10
       239  14  4.190728E+05  6.530179E+04  5.498289E+02  1.656141E+05  2.109545E-09 -3.994251E-09
       239  15  4.159475E+05  6.845769E+04  4.754235E+02  1.691999E+05 -4.615064E-09 -6.659913E-09
       239  16  3.324664E+05  3.731653E+04 -1.953716E+04  1.462192E+05  2.536637E-09  2.531793E-09
       239  17  3.540785E+05  4.103617E+04 -1.536171E+04  1.477228E+05 -4.385703E-09 -2.474360E-09
       239  18  3.694407E+05  5.107602E+04 -1.097669E+04  1.563946E+05 -1.026902E-08 -5.452027E-09
       239  19  4.994363E+05  9.961577E+04  2.120363E+04  1.921765E+05 -1.327228E+03  4.539427E+03
       239  20  4.840713E+05  8.956772E+04  1.646107E+04  1.835072E+05 -6.531017E+02  3.579939E+03
       239  21  4.624562E+05  8.583944E+04  1.192732E+04  1.820060E+05  2.089826E+01  2.621047E+03
       239  22  4.159477E+05  6.846584E+04  8.334654E+02  1.691964E+05 -2.187648E+03  4.215034E+03
       239  23  4.190728E+05  6.530180E+04  5.498531E+02  1.656141E+05 -1.513074E+03  3.255670E+03
       239  24  4.159475E+05  6.845770E+04  4.754347E+02  1.691999E+05 -8.386164E+02  2.296903E+03
       239  25  3.324664E+05  3.731655E+04 -1.953711E+04  1.462192E+05 -3.047937E+03  3.890689E+03
       239  26  3.540785E+05  4.103618E+04 -1.536168E+04  1.477228E+05 -2.372949E+03  2.931438E+03
       239  27  3.694407E+05  5.107602E+04 -1.097668E+04  1.563946E+05 -1.698065E+03  1.972784E+03
       240   1  4.462121E+05  7.975278E+04  7.844514E+03  1.775444E+05 -3.343627E+02 -2.033708E+03
       240   2  4.308756E+05  6.973229E+04  3.585550E+03  1.688880E+05 -1.078427E+03 -1.102786E+03
       240   3  4.093121E+05  6.602775E+04 -4.104633E+02  1.673855E+05 -1.822249E+03 -1.724691E+02
       240   4  4.159526E+05  6.845495E+04  5.006254E+02  1.691975E+05  5.244945E+02 -1.709794E+03
       240   5  4.190674E+05  6.530470E+04  6.915089E+02  1.656177E+05 -2.200757E+02 -7.790557E+02
       240   6  4.159549E+05  6.847042E+04  1.145723E+03  1.691917E+05 -9.644140E+02  1.510733E+02
       240   7  3.856939E+05  5.715719E+04 -6.843326E+03  1.608510E+05  1.383306E+03 -1.385897E+03
       240   8  4.072593E+05  6.087713E+04 -2.202532E+03  1.623475E+05  6.382557E+02 -4.553332E+02
       240   9  4.225977E+05  7.091308E+04  2.701901E+03  1.709979E+05 -1.065730E+02  4.746178E+02
       240  10  4.462121E+05  7.975278E+04  7.844506E+03  1.775444E+05 -7.007817E-11  7.767751E-10
       240  11  4.308756E+05  6.973229E+04  3.585546E+03  1.688880E+05 -1.225616E-09 -5.285181E-09
       240  12  4.093121E+05  6.602774E+04 -4.104696E+02  1.673855E+05  1.598673E-09 -2.031640E-09
       240  13  4.159526E+05  6.845495E+04  5.006193E+02  1.691975E+05 -2.387946E-09  4.825792E-09
       240  14  4.190674E+05  6.530470E+04  6.915076E+02  1.656177E+05  1.957304E-10  2.518576E-10
       240  15  4.159549E+05  6.847042E+04  1.145721E+03  1.691917E+05  4.872501E-09  4.642772E-11
       240  16  3.856939E+05  5.715719E+04 -6.843334E+03  1.608510E+05 -3.892378E-09 -3.184520E-09
       240  17  4.072593E+05  6.087713E+04 -2.202533E+03  1.623475E+05  3.771467E-09 -8.929161E-09
       240  18  4.225977E+05  7.091308E+04  2.701900E+03  1.709979E+05  4.064439E-09  1.084901E-09
       240  19  4.462121E+05  7.975278E+04  7.844514E+03  1.775444E+05  3.343627E+02  2.033708E+03
       240  20  4.308756E+05  6.973229E+04  3.585550E+03  1.688880E+05  1.078427E+03  1.102786E+03
       240  21  4.093121E+05  6.602775E+04 -4.104633E+02  1.673855E+05  1.822249E+03  1.724691E+02
       240  22  4.159526E+05  6.845495E+04  5.006254E+02  1.691975E+05 -5.244945E+02  1.709794E+03
       240  23  4.190674E+05  6.530470E+04  6.915089E+02  1.656177E+05  2.200757E+02  7.790557E+02
       240  24  4.159549E+05  6.847042E+04  1.145723E+03  1.691917E+05  9.644140E+02 -1.510733E+02
       240  25  3.856939E+05  5.715719E+04 -6.843326E+03  1.608510E+05 -1.383306E+03  1.385897E+03
       240  26  4.072593E+05  6.087713E+04 -2.202532E+03  1.623475E+05 -6.382557E+02  4.553332E+02
       240  27  4.225977E+05  7.091308E+04  2.701901E+03  1.709979E+05  1.065730E+02 -4.746178E+02
       241   1  3.930705E+05  5.995965E+04 -4.168558E+03  1.630082E+05 -2.276364E+03  3.625381E+02
       241   2  3.776537E+05  4.986083E+04 -7.462872E+03  1.542632E+05 -3.997138E+03  9.234298E+02
       241   3  3.562723E+05  4.646535E+04 -9.667413E+03  1.526256E+05 -5.714325E+03  1.475086E+03
       241   4  4.159972E+05  6.844240E+04  1.493689E+03  1.692245E+05 -1.415304E+03  6.872906E+02
       241   5  4.190025E+05  6.526030E+04  2.653828E+03  1.656064E+05 -3.143665E+03  1.245293E+03
       241   6  4.160448E+05  6.878314E+04  4.909801E+03  1.690956E+05 -4.868480E+03  1.794045E+03
       241   7  4.389244E+05  7.692521E+04  7.155929E+03  1.754410E+05 -5.542047E+02  1.012057E+03
       241   8  4.603531E+05  8.065993E+04  1.277043E+04  1.769503E+05 -2.290129E+03  1.567180E+03
       241   9  4.758207E+05  9.110119E+04  1.948675E+04  1.855670E+05 -4.022546E+03  2.113038E+03
       241  10  3.930705E+05  5.995965E+04 -4.168568E+03  1.630082E+05  3.370000E-09 -4.155919E-09
       241  11  3.776537E+05  4.986083E+04 -7.462904E+03  1.542633E+05 -7.670471E-10 -5.087498E-09
       241  12  3.562723E+05  4.646534E+04 -9.667478E+03  1.526256E+05 -4.326334E-09  2.019846E-09
       241  13  4.159972E+05  6.844239E+04  1.493684E+03  1.692245E+05  3.913262E-09  9.774233E-10
       241  14  4.190025E+05  6.526030E+04  2.653806E+03  1.656064E+05  1.725664E-09  7.645877E-09
       241  15  4.160447E+05  6.878313E+04  4.909751E+03  1.690956E+05 -3.200683E-09  5.158885E-11
       241  16  4.389244E+05  7.692521E+04  7.155926E+03  1.754410E+05  2.136434E-09  4.856742E-09
       241  17  4.603530E+05  8.065993E+04  1.277042E+04  1.769503E+05  2.765303E-09 -5.409533E-12
       241  18  4.758207E+05  9.110118E+04  1.948671E+04  1.855670E+05  3.194234E-09 -3.495947E-09
       241  19  3.930705E+05  5.995965E+04 -4.168558E+03  1.630082E+05  2.276364E+03 -3.625381E+02
       241  20  3.776537E+05  4.986083E+04 -7.462872E+03  1.542632E+05  3.997138E+03 -9.234298E+02
       241  21  3.562723E+05  4.646535E+04 -9.667413E+03  1.526256E+05  5.714325E+03 -1.475086E+03
       241  22  4.159972E+05  6.844240E+04  1.493689E+03  1.692245E+05  1.415304E+03 -6.872906E+02
       241  23  4.190025E+05  6.526030E+04  2.653828E+03  1.656064E+05  3.143665E+03 -1.245293E+03
       241  24  4.160448E+05  6.878314E+04  4.909801E+03  1.690956E+05  4.868480E+03 -1.794045E+03
       241  25  4.389244E+05  7.692521E+04  7.155929E+03  1.754410E+05  5.542047E+02 -1.012057E+03
       241  26  4.603531E+05  8.065993E+04  1.277043E+04  1.769503E+05  2.290129E+03 -1.567180E+03
       241  27  4.758207E+05  9.110119E+04  1.948675E+04  1.855670E+05  4.022546E+03 -2.113038E+03
       242   1  3.396260E+05  4.051535E+04 -1.224084E+04  1.493636E+05 -6.932178E+03  1.748533E+03
       242   2  3.242377E+05  2.922813E+04 -1.162481E+04  1.390495E+05 -1.301908E+04  6.195752E+02
       242   3  3.055206E+05  3.022430E+04 -5.151785E+03  1.345815E+05 -1.902428E+04 -7.251949E+02
       242   4  4.163800E+05  6.821935E+04  6.438120E+03  1.694980E+05 -6.018796E+03  2.092940E+03
       242   5  4.184303E+05  6.490802E+04  1.154617E+04  1.655007E+05 -1.228134E+04  8.976627E+02
       242   6  4.171859E+05  7.391397E+04  2.264958E+04  1.673492E+05 -1.846239E+04 -5.135157E+02
       242   7  4.931395E+05  9.592354E+04  2.511655E+04  1.896344E+05 -5.105295E+03  2.437388E+03
       242   8  5.126318E+05  1.005886E+05  3.471647E+04  1.919556E+05 -1.154348E+04  1.175798E+03
       242   9  5.288640E+05  1.176050E+05  5.045012E+04  2.001226E+05 -1.790039E+04 -3.017895E+02
       242  10  3.396259E+05  4.051533E+04 -1.224094E+04  1.493636E+05  8.233542E-10  5.453496E-09
       242  11  3.242375E+05  2.922808E+04 -1.162513E+04  1.390495E+05  2.709043E-09  8.607374E-09
       242  12  3.055202E+05  3.022420E+04 -5.152466E+03  1.345815E+05  2.017442E-09  1.017158E-10
       242  13  4.163800E+05  6.821934E+04  6.438044E+03  1.694980E+05  5.394463E-09 -4.505985E-09
       242  14  4.184302E+05  6.490798E+04  1.154588E+04  1.655008E+05 -2.624144E-09  4.333012E-09
       242  15  4.171855E+05  7.391388E+04  2.264894E+04  1.673492E+05  1.871910E-09  1.217475E-09
       242  16  4.931395E+05  9.592352E+04  2.511649E+04  1.896345E+05  1.770791E-09 -1.743100E-09
       242  17  5.126316E+05  1.005886E+05  3.471622E+04  1.919556E+05 -3.011885E-09  4.566533E-10
       242  18  5.288637E+05  1.176050E+05  5.044952E+04  2.001226E+05 -1.454945E-09  1.929457E-09
       242  19  3.396260E+05  4.051535E+04 -1.224084E+04  1.493636E+05  6.932178E+03 -1.748533E+03
       242  20  3.242377E+05  2.922813E+04 -1.162481E+04  1.390495E+05  1.301908E+04 -6.195752E+02
       242  21  3.055206E+05  3.022430E+04 -5.151785E+03  1.345815E+05  1.902428E+04  7.251949E+02
       242  22  4.163800E+05  6.821935E+04  6.438120E+03  1.694980E+05  6.018796E+03 -2.092940E+03
       242  23  4.184303E+05  6.490802E+04  1.154617E+04  1.655007E+05  1.228134E+04 -8.976627E+02
       242  24  4.171859E+05  7.391397E+04  2.264958E+04  1.673492E+05  1.846239E+04  5.135157E+02
       242  25  4.931395E+05  9.592354E+04  2.511655E+04  1.896344E+05  5.105295E+03 -2.437388E+03
       242  26  5.126318E+05  1.005886E+05  3.471647E+04  1.919556E+05  1.154348E+04 -1.175798E+03
       242  27  5.288640E+05  1.176050E+05  5.045012E+04  2.001226E+05  1.790039E+04  3.017895E+02
       243   1  2.820605E+05  2.567379E+04 -3.192668E+03  1.478067E+05 -2.459247E+04 -1.543614E+03
       243   2  2.730396E+05 -3.427533E+03  1.307066E+04  1.130367E+05 -4.753606E+04 -1.005303E+04
       243   3  2.941089E+05  6.205384E+04  7.059965E+04  6.244445E+04 -6.868752E+04 -2.331523E+04
       243   4  4.208555E+05  6.477076E+04  2.846718E+04  1.729348E+05 -2.257411E+04 -7.822899E+02
       243   5  4.116758E+05  6.112200E+04  4.972004E+04  1.642519E+05 -4.937157E+04 -1.074614E+04
       243   6  4.333385E+05  1.528026E+05  1.152842E+05  1.397494E+05 -7.437706E+04 -2.546452E+04
       243   7  5.596700E+05  1.038676E+05  6.012598E+04  1.980672E+05 -2.055526E+04 -2.088220E+01
       243   8  5.503303E+05  1.256757E+05  8.636754E+04  2.154782E+05 -5.120751E+04 -1.143952E+04
       243   9  5.725883E+05  2.435660E+05  1.599665E+05  2.170725E+05 -8.006789E+04 -2.761518E+04
       243  10  2.820599E+05  2.567362E+04 -3.193809E+03  1.478067E+05  4.050493E-09  8.404976E-10
       243  11  2.730372E+05 -3.428247E+03  1.306622E+04  1.130363E+05  7.012861E-09  1.122798E-09
       243  12  2.941036E+05  6.205199E+04  7.058977E+04  6.244316E+04  3.148042E-10  8.294595E-10
       243  13  4.208549E+05  6.477062E+04  2.846622E+04  1.729348E+05  2.809021E-09 -1.981850E-09
       243  14  4.116731E+05  6.112122E+04  4.971525E+04  1.642515E+05 -4.307577E-09 -5.474105E-09
       243  15  4.333324E+05  1.528004E+05  1.152726E+05  1.397479E+05  3.515018E-09  3.783373E-09
       243  16  5.596695E+05  1.038674E+05  6.012519E+04  1.980672E+05 -2.088202E-09  5.217187E-10
       243  17  5.503275E+05  1.256748E+05  8.636237E+04  2.154778E+05  3.774290E-09 -1.665546E-09
       243  18  5.725812E+05  2.435634E+05  1.599530E+05  2.170707E+05  2.374746E-09  1.436672E-09
       243  19  2.820605E+05  2.567379E+04 -3.192668E+03  1.478067E+05  2.459247E+04  1.543614E+03
       243  20  2.730396E+05 -3.427533E+03  1.307066E+04  1.130367E+05  4.753606E+04  1.005303E+04
       243  21  2.941089E+05  6.205384E+04  7.059965E+04  6.244445E+04  6.868752E+04  2.331523E+04
       243  22  4.208555E+05  6.477076E+04  2.846718E+04  1.729348E+05  2.257411E+04  7.822899E+02
       243  23  4.116758E+05  6.112200E+04  4.972004E+04  1.642519E+05  4.937157E+04  1.074614E+04
       243  24  4.333385E+05  1.528026E+05  1.152842E+05  1.397494E+05  7.437706E+04  2.546452E+04
       243  25  5.596700E+05  1.038676E+05  6.012598E+04  1.980672E+05  2.055526E+04  2.088220E+01
       243  26  5.503303E+05  1.256757E+05  8.636754E+04  2.154782E+05  5.120751E+04  1.143952E+04
       243  27  5.725883E+05  2.435660E+05  1.599665E+05  2.170725E+05  8.006789E+04  2.761518E+04
       244   1 -1.008484E+05 -5.757951E+05 -1.027518E+05  7.726918E+04 -3.397809E+03 -1.899666E+04
       244   2 -5.441013E+04 -4.513605E+05 -6.039710E+04  4.243250E+04 -8.808283E+03 -7.128502E+03
       244   3 -2.483268E+04 -3.324907E+05 -2.995898E+04  6.889336E+04 -4.391045E+03  4.751973E+03
       244   4 -1.451879E+04 -2.293782E+05 -1.775858E+04  7.094006E+04 -3.405134E+03 -1.133267E+04
       244   5  7.986751E+02 -2.272160E+05 -8.607635E+03  4.029904E+04 -8.808374E+03 -6.768787E+03
       244   6  5.283169E+02 -2.293620E+05 -6.294547E+03  7.095507E+04 -4.385330E+03 -2.195059E+03
       244   7  7.180213E+04  1.171482E+05  6.722605E+04  6.460743E+04 -3.412614E+03 -3.664400E+03
       244   8  5.600397E+04 -3.024981E+03  4.317848E+04  3.816482E+04 -8.808468E+03 -6.408943E+03
       244   9  2.588861E+04 -1.262233E+05  1.736937E+04  7.301714E+04 -4.379661E+03 -9.143235E+03
       244  10 -1.008486E+05 -5.757955E+05 -1.027525E+05  7.726913E+04  1.329985E-09 -8.240607E-09
       244  11 -5.441022E+04 -4.513606E+05 -6.039734E+04  4.243245E+04  2.611116E-09  7.522942E-09
       244  12 -2.483270E+04 -3.324907E+05 -2.995906E+04  6.889337E+04 -8.906750E-10  1.580364E-08
       244  13 -1.451884E+04 -2.293783E+05 -1.775885E+04  7.094003E+04  5.621130E-09  1.114331E-09
       244  14  7.985795E+02 -2.272161E+05 -8.607867E+03  4.029900E+04  4.203868E-10 -6.276225E-10
       244  15  5.282950E+02 -2.293620E+05 -6.294592E+03  7.095506E+04 -1.246307E-10 -2.531100E-10
       244  16  7.180212E+04  1.171482E+05  6.722600E+04  6.460742E+04 -1.348433E-09  7.694545E-09
       244  17  5.600387E+04 -3.025046E+03  4.317826E+04  3.816478E+04  3.983960E-09 -6.988640E-09
       244  18  2.588857E+04 -1.262234E+05  1.736918E+04  7.301710E+04  5.016578E-10 -1.744413E-08
       244  19 -1.008484E+05 -5.757951E+05 -1.027518E+05  7.726918E+04  3.397809E+03  1.899666E+04
       244  20 -5.441013E+04 -4.513605E+05 -6.039710E+04  4.243250E+04  8.808283E+03  7.128502E+03
       244  21 -2.483268E+04 -3.324907E+05 -2.995898E+04  6.889336E+04  4.391045E+03 -4.751973E+03
       244  22 -1.451879E+04 -2.293782E+05 -1.775858E+04  7.094006E+04  3.405134E+03  1.133267E+04
       244  23  7.986751E+02 -2.272160E+05 -8.607635E+03  4.029904E+04  8.808374E+03  6.768787E+03
       244  24  5.283169E+02 -2.293620E+05 -6.294547E+03  7.095507E+04  4.385330E+03  2.195059E+03
       244  25  7.180213E+04  1.171482E+05  6.722605E+04  6.460743E+04  3.412614E+03  3.664400E+03
       244  26  5.600397E+04 -3.024981E+03  4.317848E+04  3.816482E+04  8.808468E+03  6.408943E+03
       244  27  2.588861E+04 -1.262233E+05  1.736937E+04  7.301714E+04  4.379661E+03  9.143235E+03
       245   1  1.583893E+03 -2.179676E+05 -3.415864E+03  7.171760E+04  3.848947E+02  2.982392E+03
       245   2  3.265798E+04 -9.584372E+04  2.453400E+04  4.003566E+04  5.817864E+03  5.646479E+03
       245   3  6.039535E+04  2.527463E+04  4.994810E+04  7.000085E+04  1.093853E+04  8.311899E+03
       245   4 -1.045398E+03 -2.286379E+05 -5.896211E+03  7.102882E+04  3.882269E+02 -1.176695E+03
       245   5  1.488541E+02 -2.281124E+05 -5.718698E+03  4.020430E+04  5.821411E+03  1.718974E+03
       245   6 -2.033282E+03 -2.286467E+05 -8.237474E+03  7.102790E+04  1.094222E+04  4.615468E+03
       245   7 -3.674687E+03 -2.393080E+05 -8.376501E+03  7.034004E+04  3.915684E+02 -5.335710E+03
       245   8 -3.236148E+04 -3.603647E+05 -3.597248E+04  4.037291E+04  5.824956E+03 -2.207700E+03
       245   9 -6.446639E+04 -4.825083E+05 -6.642724E+04  7.205453E+04  1.094590E+04  9.205370E+02
       245  10  1.583891E+03 -2.179676E+05 -3.415881E+03  7.171760E+04  5.271232E-10 -1.064834E-09
       245  11  3.265793E+04 -9.584376E+04  2.453388E+04  4.003563E+04  4.068023E-09  1.897038E-10
       245  12  6.039520E+04  2.527453E+04  4.994775E+04  7.000078E+04  2.449307E-09  1.527085E-09
       245  13 -1.045399E+03 -2.286379E+05 -5.896214E+03  7.102882E+04  2.808538E-09  1.485910E-12
       245  14  1.488169E+02 -2.281124E+05 -5.718767E+03  4.020429E+04  1.276161E-09  6.029132E-10
       245  15 -2.033417E+03 -2.286468E+05 -8.237739E+03  7.102785E+04  1.833854E-09  6.083623E-11
       245  16 -3.674695E+03 -2.393080E+05 -8.376554E+03  7.034004E+04  1.206326E-09  5.273742E-10
       245  17 -3.236152E+04 -3.603648E+05 -3.597256E+04  4.037292E+04  5.378934E-09  1.685526E-09
       245  18 -6.446652E+04 -4.825084E+05 -6.642747E+04  7.205452E+04  2.228574E-09 -1.917330E-09
       245  19  1.583893E+03 -2.179676E+05 -3.415864E+03  7.171760E+04 -3.848947E+02 -2.982392E+03
       245  20  3.265798E+04 -9.584372E+04  2.453400E+04  4.003566E+04 -5.817864E+03 -5.646479E+03
       245  21  6.039535E+04  2.527463E+04  4.994810E+04  7.000085E+04 -1.093853E+04 -8.311899E+03
       245  22 -1.045398E+03 -2.286379E+05 -5.896211E+03  7.102882E+04 -3.882269E+02  1.176695E+03
       245  23  1.488541E+02 -2.281124E+05 -5.718698E+03  4.020430E+04 -5.821411E+03 -1.718974E+03
       245  24 -2.033282E+03 -2.286467E+05 -8.237474E+03  7.102790E+04 -1.094222E+04 -4.615468E+03
       245  25 -3.674687E+03 -2.393080E+05 -8.376501E+03  7.034004E+04 -3.915684E+02  5.335710E+03
       245  26 -3.236148E+04 -3.603647E+05 -3.597248E+04  4.037291E+04 -5.824956E+03  2.207700E+03
       245  27 -6.446639E+04 -4.825083E+05 -6.642724E+04  7.205453E+04 -1.094590E+04 -9.205370E+02
       246   1  9.159122E+04  1.376096E+05  7.430266E+04  7.458366E+04  1.640429E+04  1.465876E+04
       246   2  1.216761E+05  2.621486E+05  9.733748E+04  3.626602E+04  1.976449E+04  1.062173E+04
       246   3  1.249939E+05  3.808608E+05  1.163758E+05  5.890912E+04  6.820927E+03  6.562050E+03
       246   4  1.237166E+03 -2.301947E+05 -9.697483E+03  7.088728E+04  1.641331E+04  6.091269E+03
       246   5  1.489156E+03 -2.262364E+05 -1.517711E+04  4.038626E+04  1.976133E+04  1.418359E+04
       246   6 -2.714241E+04 -2.302296E+05 -3.308113E+04  7.085018E+04  6.799781E+03  2.225376E+04
       246   7 -8.912618E+04 -5.978734E+05 -9.370619E+04  6.719312E+04  1.642243E+04 -2.471194E+03
       246   8 -1.187144E+05 -7.144007E+05 -1.277075E+05  4.450329E+04  1.975822E+04  1.774267E+04
       246   9 -1.793057E+05 -8.409790E+05 -1.825643E+05  8.277957E+04  6.779228E+03  3.793005E+04
       246  10  9.159087E+04  1.376093E+05  7.430175E+04  7.458347E+04 -2.212906E-10  9.385141E-10
       246  11  1.216756E+05  2.621483E+05  9.733654E+04  3.626585E+04  1.220048E-09  4.452183E-09
       246  12  1.249938E+05  3.808608E+05  1.163756E+05  5.890908E+04 -2.064326E-09 -1.600589E-10
       246  13  1.236867E+03 -2.301948E+05 -9.698059E+03  7.088720E+04  2.016642E-09  1.037920E-09
       246  14  1.488682E+03 -2.262367E+05 -1.517822E+04  4.038603E+04  4.125457E-09 -1.572677E-09
       246  15 -2.714259E+04 -2.302301E+05 -3.308215E+04  7.085006E+04  1.883806E-09 -2.809949E-10
       246  16 -8.912647E+04 -5.978735E+05 -9.370671E+04  6.719315E+04  3.028109E-09 -3.052280E-09
       246  17 -1.187149E+05 -7.144011E+05 -1.277088E+05  4.450301E+04  3.956618E-09 -1.067703E-09
       246  18 -1.793061E+05 -8.409805E+05 -1.825671E+05  8.277936E+04 -5.451250E-10 -1.896361E-09
       246  19  9.159122E+04  1.376096E+05  7.430266E+04  7.458366E+04 -1.640429E+04 -1.465876E+04
       246  20  1.216761E+05  2.621486E+05  9.733748E+04  3.626602E+04 -1.976449E+04 -1.062173E+04
       246  21  1.249939E+05  3.808608E+05  1.163758E+05  5.890912E+04 -6.820927E+03 -6.562050E+03
       246  22  1.237166E+03 -2.301947E+05 -9.697483E+03  7.088728E+04 -1.641331E+04 -6.091269E+03
       246  23  1.489156E+03 -2.262364E+05 -1.517711E+04  4.038626E+04 -1.976133E+04 -1.418359E+04
       246  24 -2.714241E+04 -2.302296E+05 -3.308113E+04  7.085018E+04 -6.799781E+03 -2.225376E+04
       246  25 -8.912618E+04 -5.978734E+05 -9.370619E+04  6.719312E+04 -1.642243E+04  2.471194E+03
       246  26 -1.187144E+05 -7.144007E+05 -1.277075E+05  4.450329E+04 -1.975822E+04 -1.774267E+04
       246  27 -1.793057E+05 -8.409790E+05 -1.825643E+05  8.277957E+04 -6.779228E+03 -3.793005E+04
       247   1  2.120526E+05  1.200308E+05  1.088977E+05  2.850455E+04  2.120284E+04 -8.617843E+03
       247   2  1.643089E+05  1.281697E+05  9.264191E+04  3.453056E+04  5.506764E+03 -2.879657E+04
       247   3  1.149450E+05  1.215708E+05  8.293243E+04  5.055978E+04 -1.019652E+04 -3.426268E+04
       247   4 -4.049572E+05 -3.231138E+04 -3.591976E+04  4.832498E+04 -2.503380E+04 -8.652127E+03
       247   5 -4.019856E+05 -7.101292E+03 -1.744370E+04  4.330932E+04 -1.600764E+04 -2.881678E+04
       247   6 -4.049337E+05 -9.297265E+02 -9.593811E+03  4.829755E+04 -6.990158E+03 -3.426212E+04
       247   7 -1.021611E+06 -1.846781E+05 -1.807550E+05  6.812551E+04 -7.122477E+04 -8.689382E+03
       247   8 -9.679709E+05 -1.423909E+05 -1.275427E+05  5.207983E+04 -3.750285E+04 -2.883761E+04
       247   9 -9.245484E+05 -1.234451E+05 -1.021302E+05  4.603721E+04 -3.786401E+03 -3.426158E+04
       247  10  2.120521E+05  1.200306E+05  1.088967E+05  2.850469E+04 -5.989167E-10  2.554983E-10
       247  11  1.643087E+05  1.281688E+05  9.264029E+04  3.453069E+04 -1.422230E-09 -2.739012E-10
       247  12  1.149446E+05  1.215695E+05  8.293003E+04  5.055950E+04  1.696411E-09 -2.579188E-10
       247  13 -4.049579E+05 -3.231163E+04 -3.592108E+04  4.832480E+04 -1.971983E-09  6.151652E-10
       247  14 -4.019861E+05 -7.102252E+03 -1.744574E+04  4.330895E+04 -4.163043E-10 -4.207840E-10
       247  15 -4.049340E+05 -9.309999E+02 -9.596108E+03  4.829736E+04 -8.627679E-10  4.821379E-10
       247  16 -1.021616E+06 -1.846795E+05 -1.807647E+05  6.812502E+04 -8.474846E-10 -1.735237E-10
       247  17 -9.679727E+05 -1.423922E+05 -1.275469E+05  5.207896E+04 -3.698135E-09 -3.353591E-09
       247  18 -9.245487E+05 -1.234464E+05 -1.021324E+05  4.603710E+04 -2.964465E-09 -2.852825E-09
       247  19  2.120526E+05  1.200308E+05  1.088977E+05  2.850455E+04 -2.120284E+04  8.617843E+03
       247  20  1.643089E+05  1.281697E+05  9.264191E+04  3.453056E+04 -5.506764E+03  2.879657E+04
       247  21  1.149450E+05  1.215708E+05  8.293243E+04  5.055978E+04  1.019652E+04  3.426268E+04
       247  22 -4.049572E+05 -3.231138E+04 -3.591976E+04  4.832498E+04  2.503380E+04  8.652127E+03
       247  23 -4.019856E+05 -7.101292E+03 -1.744370E+04  4.330932E+04  1.600764E+04  2.881678E+04
       247  24 -4.049337E+05 -9.297265E+02 -9.593811E+03  4.829755E+04  6.990158E+03  3.426212E+04
       247  25 -1.021611E+06 -1.846781E+05 -1.807550E+05  6.812551E+04  7.122477E+04  8.689382E+03
       247  26 -9.679709E+05 -1.423909E+05 -1.275427E+05  5.207983E+04  3.750285E+04  2.883761E+04
       247  27 -9.245484E+05 -1.234451E+05 -1.021302E+05  4.603721E+04  3.786401E+03  3.426158E+04
       248   1  8.380881E+04  1.133018E+05  7.865006E+04  4.829870E+04 -7.271967E+03 -3.287335E+04
       248   2  3.535355E+04  1.027124E+05  7.146614E+04  4.321095E+04 -7.465533E+03 -3.130984E+04
       248   3 -1.323006E+04  9.152872E+04  6.425877E+04  4.909997E+04 -7.661266E+03 -2.843566E+04
       248   4 -4.037264E+05 -1.411451E+03 -7.306925E+03  4.851738E+04 -5.742417E+03 -3.287410E+04
       248   5 -4.034628E+05 -1.655885E+02 -4.023332E+03  4.302789E+04 -3.735102E+03 -3.130780E+04
       248   6 -4.037117E+05  1.037239E+02 -2.292276E+03  4.851568E+04 -1.729931E+03 -2.843036E+04
       248   7 -8.910291E+05 -1.161378E+05 -9.327260E+04  4.873582E+04 -4.214032E+03 -3.287485E+04
       248   8 -8.420900E+05 -1.030539E+05 -7.951929E+04  4.284492E+04 -7.224570E+00 -3.130576E+04
       248   9 -7.940432E+05 -9.132936E+04 -6.884821E+04  4.793172E+04  4.197793E+03 -2.842507E+04
       248  10  8.380846E+04  1.133007E+05  7.864793E+04  4.829851E+04 -1.910420E-09 -1.558428E-09
       248  11  3.535323E+04  1.027114E+05  7.146419E+04  4.321076E+04 -6.089722E-10  6.821798E-11
       248  12 -1.323034E+04  9.152784E+04  6.425714E+04  4.909979E+04  1.380817E-09  1.116114E-10
       248  13 -4.037267E+05 -1.412620E+03 -7.309017E+03  4.851723E+04 -5.959165E-10 -1.012273E-09
       248  14 -4.034631E+05 -1.666446E+02 -4.025200E+03  4.302780E+04  3.762840E-09 -4.374966E-10
       248  15 -4.037119E+05  1.028553E+02 -2.293800E+03  4.851564E+04  2.025105E-10 -1.744157E-09
       248  16 -8.910294E+05 -1.161389E+05 -9.327466E+04  4.873571E+04 -7.971958E-10  6.825192E-11
       248  17 -8.420902E+05 -1.030550E+05 -7.952113E+04  4.284492E+04  1.920077E-10  1.482888E-09
       248  18 -7.940434E+05 -9.133023E+04 -6.884976E+04  4.793182E+04 -1.235573E-09  1.884951E-10
       248  19  8.380881E+04  1.133018E+05  7.865006E+04  4.829870E+04  7.271967E+03  3.287335E+04
       248  20  3.535355E+04  1.027124E+05  7.146614E+04  4.321095E+04  7.465533E+03  3.130984E+04
       248  21 -1.323006E+04  9.152872E+04  6.425877E+04  4.909997E+04  7.661266E+03  2.843566E+04
       248  22 -4.037264E+05 -1.411451E+03 -7.306925E+03  4.851738E+04  5.742417E+03  3.287410E+04
       248  23 -4.034628E+05 -1.655885E+02 -4.023332E+03  4.302789E+04  3.735102E+03  3.130780E+04
       248  24 -4.037117E+05  1.037239E+02 -2.292276E+03  4.851568E+04  1.729931E+03  2.843036E+04
       248  25 -8.910291E+05 -1.161378E+05 -9.327260E+04  4.873582E+04  4.214032E+03  3.287485E+04
       248  26 -8.420900E+05 -1.030539E+05 -7.951929E+04  4.284492E+04  7.224570E+00  3.130576E+04
       248  27 -7.940432E+05 -9.132936E+04 -6.884821E+04  4.793172E+04 -4.197793E+03  2.842507E+04
       249   1 -4.486301E+04  8.402055E+04  5.915040E+04  4.894974E+04 -7.163960E+03 -2.635558E+04
       249   2 -9.341491E+04  7.267629E+04  5.157430E+04  4.335860E+04 -6.871370E+03 -2.285337E+04
       249   3 -1.420222E+05  6.134300E+04  4.380435E+04  4.884368E+04 -6.579751E+03 -1.923320E+04
       249   4 -4.036137E+05  7.382469E+01 -1.742477E+03  4.853799E+04 -1.379550E+03 -2.634998E+04
       249   5 -4.035625E+05  1.149509E+02 -9.976073E+02  4.299968E+04 -8.892510E+02 -2.284688E+04
       249   6 -4.036036E+05  1.327640E+02 -5.841569E+02  4.853791E+04 -3.998996E+02 -1.922577E+04
       249   7 -7.622375E+05 -8.387970E+04 -6.263941E+04  4.812644E+04  4.401623E+03 -2.634439E+04
       249   8 -7.136153E+05 -7.245145E+04 -5.357249E+04  4.264092E+04  5.089976E+03 -2.284039E+04
       249   9 -6.651174E+05 -6.108107E+04 -4.497474E+04  4.823225E+04  5.777431E+03 -1.921835E+04
       249  10 -4.486325E+04  8.401979E+04  5.914899E+04  4.894958E+04 -1.985217E-09  2.390928E-10
       249  11 -9.341511E+04  7.267572E+04  5.157323E+04  4.335848E+04  3.512894E-10 -3.622294E-10
       249  12 -1.420224E+05  6.134259E+04  4.380357E+04  4.884358E+04  2.745977E-10 -2.218770E-10
       249  13 -4.036139E+05  7.307874E+01 -1.743785E+03  4.853796E+04 -1.246790E-09 -2.659482E-09
       249  14 -4.035627E+05  1.143902E+02 -9.985895E+02  4.299967E+04 -6.362684E-10  3.412484E-10
       249  15 -4.036037E+05  1.323671E+02 -5.848517E+02  4.853790E+04 -4.529931E-10  2.715015E-09
       249  16 -7.622377E+05 -8.388045E+04 -6.264075E+04  4.812653E+04  1.666785E-09  2.056717E-10
       249  17 -7.136155E+05 -7.245202E+04 -5.357352E+04  4.264101E+04 -2.711269E-09  1.270434E-09
       249  18 -6.651176E+05 -6.108148E+04 -4.497549E+04  4.823234E+04 -4.223930E-09  4.098218E-10
       249  19 -4.486301E+04  8.402055E+04  5.915040E+04  4.894974E+04  7.163960E+03  2.635558E+04
       249  20 -9.341491E+04  7.267629E+04  5.157430E+04  4.335860E+04  6.871370E+03  2.285337E+04
       249  21 -1.420222E+05  6.134300E+04  4.380435E+04  4.884368E+04  6.579751E+03  1.923320E+04
       249  22 -4.036137E+05  7.382469E+01 -1.742477E+03  4.853799E+04  1.379550E+03  2.634998E+04
       249  23 -4.035625E+05  1.149509E+02 -9.976073E+02  4.299968E+04  8.892510E+02  2.284688E+04
       249  24 -4.036036E+05  1.327640E+02 -5.841569E+02  4.853791E+04  3.998996E+02  1.922577E+04
       249  25 -7.622375E+05 -8.387970E+04 -6.263941E+04  4.812644E+04 -4.401623E+03  2.634439E+04
       249  26 -7.136153E+05 -7.245145E+04 -5.357249E+04  4.264092E+04 -5.089976E+03  2.284039E+04
       249  27 -6.651174E+05 -6.108107E+04 -4.497474E+04  4.823225E+04 -5.777431E+03  1.921835E+04
       250   1 -1.737163E+05  5.388340E+04  3.835114E+04  4.880563E+04 -6.477008E+03 -1.708941E+04
       250   2 -2.223210E+05  4.251793E+04  3.037838E+04  4.319940E+04 -6.356382E+03 -1.341161E+04
       250   3 -2.709633E+05  3.118276E+04  2.232565E+04  4.868719E+04 -6.236265E+03 -9.723046E+03
       250   4 -4.035898E+05  1.325116E+02 -4.538948E+02  4.854186E+04 -3.087225E+02 -1.708168E+04
       250   5 -4.035649E+05  1.225840E+02 -2.892680E+02  4.299475E+04 -1.703456E+02 -1.340346E+04
       250   6 -4.035839E+05  1.397669E+02 -2.172695E+02  4.854185E+04 -3.246916E+01 -9.714468E+03
       250   7 -6.334111E+05 -5.362114E+04 -3.926047E+04  4.827817E+04  5.857353E+03 -1.707396E+04
       250   8 -5.847764E+05 -4.227447E+04 -3.095783E+04  4.279015E+04  6.013943E+03 -1.339531E+04
       250   9 -5.361871E+05 -3.090414E+04 -2.276062E+04  4.839654E+04  6.170043E+03 -9.705892E+03
       250  10 -1.737164E+05  5.388308E+04  3.835051E+04  4.880554E+04  3.782057E-09  1.525836E-09
       250  11 -2.223211E+05  4.251772E+04  3.037796E+04  4.319933E+04 -8.284471E-10  5.136539E-09
       250  12 -2.709634E+05  3.118265E+04  2.232540E+04  4.868714E+04 -3.345168E-10  3.261709E-09
       250  13 -4.035899E+05  1.321983E+02 -4.544432E+02  4.854185E+04 -4.142598E-10  1.081607E-09
       250  14 -4.035650E+05  1.223912E+02 -2.896055E+02  4.299475E+04 -2.070095E-09  4.281415E-09
       250  15 -4.035839E+05  1.396656E+02 -2.174468E+02  4.854185E+04 -2.678972E-09  7.977218E-10
       250  16 -6.334113E+05 -5.362146E+04 -3.926109E+04  4.827825E+04 -3.536252E-09  7.653570E-10
       250  17 -5.847765E+05 -4.227468E+04 -3.095823E+04  4.279021E+04 -7.675450E-11  5.639303E-10
       250  18 -5.361871E+05 -3.090425E+04 -2.276087E+04  4.839658E+04  1.785341E-10  1.017053E-10
       250  19 -1.737163E+05  5.388340E+04  3.835114E+04  4.880563E+04  6.477008E+03  1.708941E+04
       250  20 -2.223210E+05  4.251793E+04  3.037838E+04  4.319940E+04  6.356382E+03  1.341161E+04
       250  21 -2.709633E+05  3.118276E+04  2.232565E+04  4.868719E+04  6.236265E+03  9.723046E+03
       250  22 -4.035898E+05  1.325116E+02 -4.538948E+02  4.854186E+04  3.087225E+02  1.708168E+04
       250  23 -4.035649E+05  1.225840E+02 -2.892680E+02  4.299475E+04  1.703456E+02  1.340346E+04
       250  24 -4.035839E+05  1.397669E+02 -2.172695E+02  4.854185E+04  3.246916E+01  9.714468E+03
       250  25 -6.334111E+05 -5.362114E+04 -3.926047E+04  4.827817E+04 -5.857353E+03  1.707396E+04
       250  26 -5.847764E+05 -4.227447E+04 -3.095783E+04  4.279015E+04 -6.013943E+03  1.339531E+04
       250  27 -5.361871E+05 -3.090414E+04 -2.276062E+04  4.839654E+04 -6.170043E+03  9.705892E+03
       251   1 -3.026857E+05  2.372145E+04  1.675377E+04  4.865161E+04 -6.200839E+03 -7.572422E+03
       251   2 -3.513058E+05  1.235314E+04  8.596394E+03  4.303788E+04 -6.079252E+03 -3.880609E+03
       251   3 -3.999708E+05  1.011271E+03  3.556325E+02  4.852504E+04 -5.957806E+03 -1.941524E+02
       251   4 -4.035827E+05  1.414572E+02 -2.080122E+02  4.854334E+04  3.220662E+00 -7.563691E+03
       251   5 -4.035594E+05  1.310581E+02 -2.377884E+02  4.299288E+04  1.156175E+02 -3.871777E+03
       251   6 -4.035810E+05  1.489632E+02 -3.444393E+02  4.854334E+04  2.278832E+02 -1.852165E+02
       251   7 -5.044697E+05 -2.343905E+04 -1.716997E+04  4.843510E+04  6.206305E+03 -7.554961E+03
       251   8 -4.558103E+05 -1.209115E+04 -9.071914E+03  4.294787E+04  6.309983E+03 -3.862945E+03
       251   9 -4.071912E+05 -7.133251E+02 -1.044368E+03  4.856164E+04  6.413537E+03 -1.762801E+02
       251  10 -3.026857E+05  2.372137E+04  1.675359E+04  4.865157E+04  1.068541E-08 -1.510821E-10
       251  11 -3.513058E+05  1.235312E+04  8.596296E+03  4.303787E+04  1.301329E-09 -1.893224E-09
       251  12 -3.999709E+05  1.011262E+03  3.555656E+02  4.852504E+04 -5.432461E-09 -4.886942E-10
       251  13 -4.035827E+05  1.413958E+02 -2.081197E+02  4.854334E+04 -1.711866E-09  3.717998E-09
       251  14 -4.035594E+05  1.310420E+02 -2.378166E+02  4.299288E+04 -3.025993E-09 -7.740132E-10
       251  15 -4.035810E+05  1.489631E+02 -3.444395E+02  4.854334E+04 -1.167812E-09 -2.160291E-09
       251  16 -5.044697E+05 -2.343912E+04 -1.717015E+04  4.843513E+04 -8.471113E-09  1.670091E-09
       251  17 -4.558103E+05 -1.209118E+04 -9.072017E+03  4.294789E+04 -3.642039E-09 -2.059126E-09
       251  18 -4.071912E+05 -7.133362E+02 -1.044445E+03  4.856164E+04  3.591417E-09 -1.919984E-09
       251  19 -3.026857E+05  2.372145E+04  1.675377E+04  4.865161E+04  6.200839E+03  7.572422E+03
       251  20 -3.513058E+05  1.235314E+04  8.596394E+03  4.303788E+04  6.079252E+03  3.880609E+03
       251  21 -3.999708E+05  1.011271E+03  3.556325E+02  4.852504E+04  5.957806E+03  1.941524E+02
       251  22 -4.035827E+05  1.414572E+02 -2.080122E+02  4.854334E+04 -3.220662E+00  7.563691E+03
       251  23 -4.035594E+05  1.310581E+02 -2.377884E+02  4.299288E+04 -1.156175E+02  3.871777E+03
       251  24 -4.035810E+05  1.489632E+02 -3.444393E+02  4.854334E+04 -2.278832E+02  1.852165E+02
       251  25 -5.044697E+05 -2.343905E+04 -1.716997E+04  4.843510E+04 -6.206305E+03  7.554961E+03
       251  26 -4.558103E+05 -1.209115E+04 -9.071914E+03  4.294787E+04 -6.309983E+03  3.862945E+03
       251  27 -4.071912E+05 -7.133251E+02 -1.044368E+03  4.856164E+04 -6.413537E+03  1.762801E+02
       252   1 -4.317080E+05 -6.451890E+03 -5.321009E+03  4.847827E+04 -5.898500E+03  1.954162E+03
       252   2 -4.802928E+05 -1.782818E+04 -1.378245E+04  4.286384E+04 -5.419433E+03  5.606724E+03
       252   3 -5.289819E+05 -2.923355E+04 -2.257382E+04  4.834501E+04 -4.940103E+03  9.185436E+03
       252   4 -4.035901E+05  1.517830E+02 -4.348690E+02  4.854212E+04  2.952233E+02  1.963094E+03
       252   5 -4.035489E+05  1.396835E+02 -7.275156E+02  4.299439E+04  6.501094E+02  5.615309E+03
       252   6 -4.035927E+05  1.201710E+02 -1.263852E+03  4.854217E+04  1.005294E+03  9.193680E+03
       252   7 -3.754713E+05  6.755434E+03  4.451388E+03  4.860597E+04  6.489219E+03  1.972026E+03
       252   8 -3.267991E+05  1.810725E+04  1.232736E+04  4.312495E+04  6.720379E+03  5.623895E+03
       252   9 -2.781879E+05  2.947308E+04  2.004574E+04  4.873937E+04  6.951855E+03  9.201928E+03
       252  10 -4.317081E+05 -6.451904E+03 -5.321082E+03  4.847828E+04  2.142461E-09  2.331141E-09
       252  11 -4.802929E+05 -1.782822E+04 -1.378256E+04  4.286386E+04  3.654534E-09  3.698488E-11
       252  12 -5.289819E+05 -2.923365E+04 -2.257402E+04  4.834505E+04  1.895401E-09 -1.676925E-09
       252  13 -4.035901E+05  1.517788E+02 -4.348764E+02  4.854212E+04  7.199516E-10 -8.612684E-10
       252  14 -4.035489E+05  1.396495E+02 -7.275757E+02  4.299439E+04  2.505696E-09 -1.832221E-10
       252  15 -4.035927E+05  1.200799E+02 -1.264012E+03  4.854216E+04  6.789530E-10 -1.912104E-09
       252  16 -3.754713E+05  6.755419E+03  4.451302E+03  4.860596E+04  5.282266E-10  1.319370E-09
       252  17 -3.267991E+05  1.810721E+04  1.232722E+04  4.312492E+04 -2.548670E-09 -5.823561E-09
       252  18 -2.781880E+05  2.947297E+04  2.004549E+04  4.873931E+04 -6.418843E-09 -3.727821E-09
       252  19 -4.317080E+05 -6.451890E+03 -5.321009E+03  4.847827E+04  5.898500E+03 -1.954162E+03
       252  20 -4.802928E+05 -1.782818E+04 -1.378245E+04  4.286384E+04  5.419433E+03 -5.606724E+03
       252  21 -5.289819E+05 -2.923355E+04 -2.257382E+04  4.834501E+04  4.940103E+03 -9.185436E+03
       252  22 -4.035901E+05  1.517830E+02 -4.348690E+02  4.854212E+04 -2.952233E+02 -1.963094E+03
       252  23 -4.035489E+05  1.396835E+02 -7.275156E+02  4.299439E+04 -6.501094E+02 -5.615309E+03
       252  24 -4.035927E+05  1.201710E+02 -1.263852E+03  4.854217E+04 -1.005294E+03 -9.193680E+03
       252  25 -3.754713E+05  6.755434E+03  4.451388E+03  4.860597E+04 -6.489219E+03 -1.972026E+03
       252  26 -3.267991E+05  1.810725E+04  1.232736E+04  4.312495E+04 -6.720379E+03 -5.623895E+03
       252  27 -2.781879E+05  2.947308E+04  2.004574E+04  4.873937E+04 -6.951855E+03 -9.201928E+03
       253   1 -5.608037E+05 -3.669178E+04 -2.860707E+04  4.818731E+04 -4.780775E+03  1.129470E+04
       253   2 -6.090996E+05 -4.832092E+04 -3.850590E+04  4.292504E+04 -1.943076E+03  1.448151E+04
       253   3 -6.580279E+05 -6.088855E+04 -5.049674E+04  4.869991E+04  8.958596E+02  1.684031E+04
       253   4 -4.036630E+05  1.439248E+02 -1.660792E+03  4.852892E+04  1.257821E+03  1.130289E+04
       253   5 -4.034697E+05 -5.186640E+01 -2.910336E+03  4.301120E+04  2.705780E+03  1.448739E+04
       253   6 -4.036701E+05 -9.446107E+02 -5.286066E+03  4.853041E+04  4.155210E+03  1.684402E+04
       253   7 -2.464980E+05  3.697833E+04  2.528479E+04  4.887061E+04  7.297899E+03  1.131109E+04
       253   8 -1.977982E+05  4.821492E+04  3.268384E+04  4.309737E+04  7.356129E+03  1.449327E+04
       253   9 -1.492491E+05  5.899576E+04  3.992222E+04  4.836082E+04  7.415858E+03  1.684772E+04
       253  10 -5.608038E+05 -3.669193E+04 -2.860735E+04  4.818736E+04 -1.130819E-08  8.142452E-10
       253  11 -6.090996E+05 -4.832114E+04 -3.850630E+04  4.292506E+04  3.582595E-08  2.919310E-10
       253  12 -6.580280E+05 -6.088885E+04 -5.049727E+04  4.869990E+04  7.690120E-08  2.422635E-09
       253  13 -4.036631E+05  1.437872E+02 -1.661035E+03  4.852891E+04  2.851971E-09 -2.994770E-11
       253  14 -4.034697E+05 -5.209370E+01 -2.910745E+03  4.301117E+04  2.543855E-09  6.947700E-09
       253  15 -4.036702E+05 -9.449199E+02 -5.286632E+03  4.853036E+04  3.326606E-09  8.586778E-09
       253  16 -2.464981E+05  3.697818E+04  2.528445E+04  4.887054E+04  1.031351E-08 -1.485666E-09
       253  17 -1.977983E+05  4.821468E+04  3.268335E+04  4.309728E+04 -3.772490E-08 -6.269113E-10
       253  18 -1.492493E+05  5.899544E+04  3.992158E+04  4.836072E+04 -7.635527E-08 -2.527181E-09
       253  19 -5.608037E+05 -3.669178E+04 -2.860707E+04  4.818731E+04  4.780775E+03 -1.129470E+04
       253  20 -6.090996E+05 -4.832092E+04 -3.850590E+04  4.292504E+04  1.943076E+03 -1.448151E+04
       253  21 -6.580279E+05 -6.088855E+04 -5.049674E+04  4.869991E+04 -8.958596E+02 -1.684031E+04
       253  22 -4.036630E+05  1.439248E+02 -1.660792E+03  4.852892E+04 -1.257821E+03 -1.130289E+04
       253  23 -4.034697E+05 -5.186640E+01 -2.910336E+03  4.301120E+04 -2.705780E+03 -1.448739E+04
       253  24 -4.036701E+05 -9.446107E+02 -5.286066E+03  4.853041E+04 -4.155210E+03 -1.684402E+04
       253  25 -2.464980E+05  3.697833E+04  2.528479E+04  4.887061E+04 -7.297899E+03 -1.131109E+04
       253  26 -1.977982E+05  4.821492E+04  3.268384E+04  4.309737E+04 -7.356129E+03 -1.449327E+04
       253  27 -1.492491E+05  5.899576E+04  3.992222E+04  4.836082E+04 -7.415858E+03 -1.684772E+04
       254   1 -6.910411E+05 -6.821978E+04 -5.836505E+04  4.674322E+04  7.384758E+02  1.851191E+04
       254   2 -7.361797E+05 -8.495144E+04 -7.814005E+04  4.949105E+04  2.286525E+04  1.646155E+04
       254   3 -7.883425E+05 -1.181723E+05 -1.164557E+05  6.266806E+04  4.500011E+04  5.110754E+03
       254   4 -4.045435E+05 -5.944360E+02 -6.940403E+03  4.839162E+04  5.056518E+03  1.851676E+04
       254   5 -4.023956E+05 -5.064952E+03 -1.261692E+04  4.319084E+04  1.157583E+04  1.644670E+04
       254   6 -4.045585E+05 -2.330821E+04 -2.598487E+04  4.841962E+04  1.810507E+04  5.077922E+03
       254   7 -1.179658E+05  6.702635E+04  4.448116E+04  5.004078E+04  9.376499E+03  1.852163E+04
       254   8 -6.850439E+04  7.481503E+04  5.290131E+04  3.688713E+04  2.804593E+02  1.643208E+04
       254   9 -2.063675E+04  7.154652E+04  6.447869E+04  3.416227E+04 -8.806514E+03  5.046337E+03
       254  10 -6.910412E+05 -6.822015E+04 -5.836570E+04  4.674321E+04 -1.019329E-07  6.555409E-10
       254  11 -7.361803E+05 -8.495187E+04 -7.814154E+04  4.949075E+04 -3.660690E-08 -1.918904E-09
       254  12 -7.883447E+05 -1.181729E+05 -1.164596E+05  6.266788E+04  3.482630E-08  9.766067E-11
       254  13 -4.045436E+05 -5.948110E+02 -6.941095E+03  4.839155E+04  1.479517E-09  1.093839E-08
       254  14 -4.023959E+05 -5.065279E+03 -1.261768E+04  4.319069E+04 -3.384026E-10  7.856204E-10
       254  15 -4.045588E+05 -2.330832E+04 -2.598553E+04  4.841954E+04  3.054105E-11  1.857450E-09
       254  16 -1.179660E+05  6.702596E+04  4.448035E+04  5.004064E+04  1.013986E-07  2.184569E-10
       254  17 -6.850446E+04  7.481474E+04  5.290080E+04  3.688713E+04  3.681616E-08 -3.932237E-10
       254  18 -2.063684E+04  7.154648E+04  6.447850E+04  3.416230E+04 -3.594896E-08  5.031409E-10
       254  19 -6.910411E+05 -6.821978E+04 -5.836505E+04  4.674322E+04 -7.384758E+02 -1.851191E+04
       254  20 -7.361797E+05 -8.495144E+04 -7.814005E+04  4.949105E+04 -2.286525E+04 -1.646155E+04
       254  21 -7.883425E+05 -1.181723E+05 -1.164557E+05  6.266806E+04 -4.500011E+04 -5.110754E+03
       254  22 -4.045435E+05 -5.944360E+02 -6.940403E+03  4.839162E+04 -5.056518E+03 -1.851676E+04
       254  23 -4.023956E+05 -5.064952E+03 -1.261692E+04  4.319084E+04 -1.157583E+04 -1.644670E+04
       254  24 -4.045585E+05 -2.330821E+04 -2.598487E+04  4.841962E+04 -1.810507E+04 -5.077922E+03
       254  25 -1.179658E+05  6.702635E+04  4.448116E+04  5.004078E+04 -9.376499E+03 -1.852163E+04
       254  26 -6.850439E+04  7.481503E+04  5.290131E+04  3.688713E+04 -2.804593E+02 -1.643208E+04
       254  27 -2.063675E+04  7.154652E+04  6.447869E+04  3.416227E+04  8.806514E+03 -5.046337E+03
       255   1 -7.798220E+04  6.739614E+04  5.705798E+04  2.236190E+03 -1.646850E+04 -5.518949E+03
       255   2 -1.055289E+05  9.640586E+04  6.717455E+04  6.927580E+03 -1.493905E+04 -1.732313E+04
       255   3 -1.421590E+05  8.979559E+04  6.740463E+04  2.515357E+04 -1.342217E+04 -1.812826E+04
       255   4 -5.013995E+05 -3.782400E+04 -4.572533E+04  1.929978E+04 -3.140423E+04 -5.536830E+03
       255   5 -4.960208E+05  7.169138E+02 -2.074301E+04  1.250727E+04 -2.037814E+04 -1.733102E+04
       255   6 -5.013828E+05  1.975792E+03 -1.225060E+04  1.925019E+04 -9.364358E+03 -1.812312E+04
       255   7 -9.246519E+05 -1.430561E+05 -1.485206E+05  3.635166E+04 -4.632980E+04 -5.555538E+03
       255   8 -8.863707E+05 -9.498234E+04 -1.086702E+05  1.808337E+04 -2.581385E+04 -1.733901E+04
       255   9 -8.604859E+05 -8.585259E+04 -9.191376E+04  1.335022E+04 -5.308864E+03 -1.811806E+04
       255  10 -7.798250E+04  6.739604E+04  5.705741E+04  2.236117E+03 -4.671536E-09  7.294945E-10
       255  11 -1.055292E+05  9.640548E+04  6.717357E+04  6.927371E+03  8.655759E-10  2.785058E-09
       255  12 -1.421593E+05  8.979519E+04  6.740367E+04  2.515338E+04  1.496291E-10 -5.292212E-10
       255  13 -5.014006E+05 -3.782430E+04 -4.572724E+04  1.929964E+04 -2.878518E-09 -1.428681E-09
       255  14 -4.960213E+05  7.164797E+02 -2.074435E+04  1.250699E+04 -1.605438E-09 -4.858284E-09
       255  15 -5.013830E+05  1.975416E+03 -1.225138E+04  1.925006E+04  2.823015E-09 -7.228542E-10
       255  16 -9.246542E+05 -1.430567E+05 -1.485247E+05  3.635145E+04  4.184653E-09  2.272705E-10
       255  17 -8.863715E+05 -9.498284E+04 -1.086720E+05  1.808301E+04 -3.593137E-09  2.456823E-09
       255  18 -8.604860E+05 -8.585295E+04 -9.191443E+04  1.335015E+04 -5.781933E-10  4.326947E-11
       255  19 -7.798220E+04  6.739614E+04  5.705798E+04  2.236190E+03  1.646850E+04  5.518949E+03
       255  20 -1.055289E+05  9.640586E+04  6.717455E+04  6.927580E+03  1.493905E+04  1.732313E+04
       255  21 -1.421590E+05  8.979559E+04  6.740463E+04  2.515357E+04  1.342217E+04  1.812826E+04
       255  22 -5.013995E+05 -3.782400E+04 -4.572533E+04  1.929978E+04  3.140423E+04  5.536830E+03
       255  23 -4.960208E+05  7.169138E+02 -2.074301E+04  1.250727E+04  2.037814E+04  1.733102E+04
       255  24 -5.013828E+05  1.975792E+03 -1.225060E+04  1.925019E+04  9.364358E+03  1.812312E+04
       255  25 -9.246519E+05 -1.430561E+05 -1.485206E+05  3.635166E+04  4.632980E+04  5.555538E+03
       255  26 -8.863707E+05 -9.498234E+04 -1.086702E+05  1.808337E+04  2.581385E+04  1.733901E+04
       255  27 -8.604859E+05 -8.585259E+04 -9.191376E+04  1.335022E+04  5.308864E+03  1.811806E+04
       256   1 -1.672929E+05  7.900176E+04  6.421691E+04  1.897994E+04 -8.407840E+03 -1.604401E+04
       256   2 -1.991197E+05  7.337798E+04  6.130285E+04  1.251553E+04 -6.189278E+03 -1.487643E+04
       256   3 -2.317984E+05  6.557818E+04  5.639608E+04  2.014179E+04 -3.972262E+03 -1.321207E+04
       256   4 -4.991997E+05 -2.198924E+03 -9.771753E+03  1.938922E+04 -7.613911E+03 -1.604345E+04
       256   5 -4.987322E+05  1.191590E+02 -5.266294E+03  1.234177E+04 -4.967515E+03 -1.487500E+04
       256   6 -4.991929E+05  1.861474E+02 -3.051719E+03  1.938546E+04 -2.322557E+03 -1.320967E+04
       256   7 -8.310036E+05 -8.340708E+04 -8.376732E+04  1.979824E+04 -6.820402E+03 -1.604289E+04
       256   8 -7.982608E+05 -7.314574E+04 -7.184102E+04  1.216807E+04 -3.746335E+03 -1.487357E+04
       256   9 -7.665206E+05 -6.521073E+04 -6.250397E+04  1.862943E+04 -6.735550E+02 -1.320726E+04
       256  10 -1.672931E+05  7.900146E+04  6.421630E+04  1.897983E+04  2.545182E-10 -3.894819E-09
       256  11 -1.991198E+05  7.337774E+04  6.130236E+04  1.251545E+04  3.237810E-09 -1.825459E-09
       256  12 -2.317985E+05  6.557799E+04  5.639572E+04  2.014175E+04  1.868043E-09  4.140789E-09
       256  13 -4.991998E+05 -2.199215E+03 -9.772345E+03  1.938912E+04  7.142589E-10  4.566862E-09
       256  14 -4.987322E+05  1.189148E+02 -5.266756E+03  1.234171E+04 -3.640368E-09 -1.020219E-08
       256  15 -4.991930E+05  1.859586E+02 -3.052057E+03  1.938544E+04 -1.346592E-10  1.820603E-09
       256  16 -8.310037E+05 -8.340737E+04 -8.376789E+04  1.979816E+04  1.160770E-09 -3.639854E-09
       256  17 -7.982608E+05 -7.314598E+04 -7.184146E+04  1.216803E+04 -6.452780E-09 -2.750401E-09
       256  18 -7.665207E+05 -6.521092E+04 -6.250430E+04  1.862943E+04 -1.770064E-09 -1.332397E-10
       256  19 -1.672929E+05  7.900176E+04  6.421691E+04  1.897994E+04  8.407840E+03  1.604401E+04
       256  20 -1.991197E+05  7.337798E+04  6.130285E+04  1.251553E+04  6.189278E+03  1.487643E+04
       256  21 -2.317984E+05  6.557818E+04  5.639608E+04  2.014179E+04  3.972262E+03  1.321207E+04
       256  22 -4.991997E+05 -2.198924E+03 -9.771753E+03  1.938922E+04  7.613911E+03  1.604345E+04
       256  23 -4.987322E+05  1.191590E+02 -5.266294E+03  1.234177E+04  4.967515E+03  1.487500E+04
       256  24 -4.991929E+05  1.861474E+02 -3.051719E+03  1.938546E+04  2.322557E+03  1.320967E+04
       256  25 -8.310036E+05 -8.340708E+04 -8.376732E+04  1.979824E+04  6.820402E+03  1.604289E+04
       256  26 -7.982608E+05 -7.314574E+04 -7.184102E+04  1.216807E+04  3.746335E+03  1.487357E+04
       256  27 -7.665206E+05 -6.521073E+04 -6.250397E+04  1.862943E+04  6.735550E+02  1.320726E+04
       257   1 -2.589471E+05  5.862106E+04  5.087290E+04  1.975229E+04 -3.355639E+03 -1.212810E+04
       257   2 -2.913319E+05  5.081581E+04  4.474136E+04  1.262419E+04 -2.709474E+03 -1.037040E+04
       257   3 -3.238695E+05  4.292348E+04  3.815616E+04  1.970518E+04 -2.063873E+03 -8.587361E+03
       257   4 -4.990184E+05 -5.861908E+01 -2.351251E+03  1.941291E+04 -1.848926E+03 -1.212579E+04
       257   5 -4.989378E+05  5.720253E+01 -1.352218E+03  1.230809E+04 -1.181123E+03 -1.036786E+04
       257   6 -4.990143E+05  8.231063E+01 -8.218593E+02  1.941265E+04 -5.138506E+02 -8.584582E+03
       257   7 -7.390359E+05 -5.874219E+04 -5.557898E+04  1.907363E+04 -3.427900E+02 -1.212348E+04
       257   8 -7.065034E+05 -5.070432E+04 -4.744847E+04  1.199208E+04  3.467220E+02 -1.036532E+04
       257   9 -6.741305E+05 -4.276093E+04 -3.980179E+04  1.912020E+04  1.035739E+03 -8.581803E+03
       257  10 -2.589472E+05  5.862090E+04  5.087261E+04  1.975226E+04  2.040980E-10 -2.911482E-09
       257  11 -2.913320E+05  5.081570E+04  4.474115E+04  1.262416E+04 -9.107008E-10 -2.618388E-09
       257  12 -3.238696E+05  4.292340E+04  3.815602E+04  1.970516E+04 -5.381827E-09 -4.793695E-10
       257  13 -4.990185E+05 -5.877785E+01 -2.351534E+03  1.941289E+04 -1.067222E-09 -1.200332E-09
       257  14 -4.989378E+05  5.708676E+01 -1.352423E+03  1.230808E+04  7.760858E-10 -1.340870E-09
       257  15 -4.990143E+05  8.223145E+01 -8.219982E+02  1.941265E+04  1.830698E-09  3.791300E-10
       257  16 -7.390359E+05 -5.874235E+04 -5.557925E+04  1.907363E+04 -4.705707E-09 -3.165925E-09
       257  17 -7.065034E+05 -5.070444E+04 -4.744868E+04  1.199208E+04 -3.576494E-09  3.369358E-09
       257  18 -6.741305E+05 -4.276101E+04 -3.980193E+04  1.912020E+04  5.397798E-09  7.315523E-09
       257  19 -2.589471E+05  5.862106E+04  5.087290E+04  1.975229E+04  3.355639E+03  1.212810E+04
       257  20 -2.913319E+05  5.081581E+04  4.474136E+04  1.262419E+04  2.709474E+03  1.037040E+04
       257  21 -3.238695E+05  4.292348E+04  3.815616E+04  1.970518E+04  2.063873E+03  8.587361E+03
       257  22 -4.990184E+05 -5.861908E+01 -2.351251E+03  1.941291E+04  1.848926E+03  1.212579E+04
       257  23 -4.989378E+05  5.720253E+01 -1.352218E+03  1.230809E+04  1.181123E+03  1.036786E+04
       257  24 -4.990143E+05  8.231063E+01 -8.218593E+02  1.941265E+04  5.138506E+02  8.584582E+03
       257  25 -7.390359E+05 -5.874219E+04 -5.557898E+04  1.907363E+04  3.427900E+02  1.212348E+04
       257  26 -7.065034E+05 -5.070432E+04 -4.744847E+04  1.199208E+04 -3.467220E+02  1.036532E+04
       257  27 -6.741305E+05 -4.276093E+04 -3.980179E+04  1.912020E+04 -1.035739E+03  8.581803E+03
       258   1 -3.513134E+05  3.616047E+04  3.203361E+04  1.965676E+04 -1.927523E+03 -7.543211E+03
       258   2 -3.838702E+05  2.819255E+04  2.506610E+04  1.246784E+04 -1.693361E+03 -5.751800E+03
       258   3 -4.165097E+05  2.026975E+04  1.794236E+04  1.954789E+04 -1.459494E+03 -3.957593E+03
       258   4 -4.989961E+05  7.008832E+01 -6.635647E+02  1.942601E+04 -3.819542E+02 -7.540345E+03
       258   5 -4.989529E+05  5.406821E+01 -4.852337E+02  1.229143E+04 -1.454624E+02 -5.748822E+03
       258   6 -4.989939E+05  8.281737E+01 -4.647549E+02  1.942599E+04  9.074663E+01 -3.954500E+03
       258   7 -6.466583E+05 -3.602177E+04 -3.336208E+04  1.919530E+04  1.163251E+03 -7.537479E+03
       258   8 -6.140232E+05 -2.808531E+04 -2.603739E+04  1.211505E+04  1.402152E+03 -5.745844E+03
       258   9 -5.814717E+05 -2.010457E+04 -1.887229E+04  1.930410E+04  1.640783E+03 -3.951406E+03
       258  10 -3.513135E+05  3.616041E+04  3.203350E+04  1.965675E+04 -3.747390E-10 -3.682369E-09
       258  11 -3.838702E+05  2.819252E+04  2.506604E+04  1.246783E+04 -2.856584E-09  6.759573E-10
       258  12 -4.165097E+05  2.026973E+04  1.794233E+04  1.954789E+04 -5.660540E-09  9.015072E-11
       258  13 -4.989961E+05  7.002725E+01 -6.636718E+02  1.942601E+04 -1.037814E-09  2.731441E-09
       258  14 -4.989529E+05  5.403272E+01 -4.852959E+02  1.229143E+04 -1.661501E-10 -3.441798E-09
       258  15 -4.989939E+05  8.280058E+01 -4.647843E+02  1.942599E+04  1.824688E-09 -3.376644E-09
       258  16 -6.466583E+05 -3.602183E+04 -3.336219E+04  1.919531E+04  7.269456E-10  3.342896E-09
       258  17 -6.140232E+05 -2.808535E+04 -2.603745E+04  1.211506E+04 -1.998355E-09  4.629097E-09
       258  18 -5.814717E+05 -2.010459E+04 -1.887232E+04  1.930410E+04  4.384106E-09  1.453318E-09
       258  19 -3.513134E+05  3.616047E+04  3.203361E+04  1.965676E+04  1.927523E+03  7.543211E+03
       258  20 -3.838702E+05  2.819255E+04  2.506610E+04  1.246784E+04  1.693361E+03  5.751800E+03
       258  21 -4.165097E+05  2.026975E+04  1.794236E+04  1.954789E+04  1.459494E+03  3.957593E+03
       258  22 -4.989961E+05  7.008832E+01 -6.635647E+02  1.942601E+04  3.819542E+02  7.540345E+03
       258  23 -4.989529E+05  5.406821E+01 -4.852337E+02  1.229143E+04  1.454624E+02  5.748822E+03
       258  24 -4.989939E+05  8.281737E+01 -4.647549E+02  1.942599E+04 -9.074663E+01  3.954500E+03
       258  25 -6.466583E+05 -3.602177E+04 -3.336208E+04  1.919530E+04 -1.163251E+03  7.537479E+03
       258  26 -6.140232E+05 -2.808531E+04 -2.603739E+04  1.211505E+04 -1.402152E+03  5.745844E+03
       258  27 -5.814717E+05 -2.010457E+04 -1.887229E+04  1.930410E+04 -1.640783E+03  3.951406E+03
       259   1 -4.440565E+05  1.349864E+04  1.159742E+04  1.950661E+04 -1.374243E+03 -2.912247E+03
       259   2 -4.766581E+05  5.510783E+03  4.227820E+03  1.229586E+04 -1.021436E+03 -1.115501E+03
       259   3 -5.093667E+05 -2.439534E+03 -3.378882E+03  1.937970E+04 -6.687052E+02  6.809855E+02
       259   4 -4.989984E+05  8.310245E+01 -5.087455E+02  1.943165E+04  1.767876E+02 -2.909110E+03
       259   5 -4.989440E+05  6.156698E+01 -7.203839E+02  1.228435E+04  5.293118E+02 -1.112346E+03
       259   6 -4.989981E+05  7.756136E+01 -1.169024E+03  1.943166E+04  8.817772E+02  6.841631E+02
       259   7 -5.539374E+05 -1.333264E+04 -1.261508E+04  1.935669E+04  1.727683E+03 -2.905974E+03
       259   8 -5.212294E+05 -5.387682E+03 -5.668610E+03  1.227283E+04  2.080004E+03 -1.109191E+03
       259   9 -4.886293E+05  2.594651E+03  1.040836E+03  1.948363E+04  2.432285E+03  6.873409E+02
       259  10 -4.440565E+05  1.349863E+04  1.159740E+04  1.950661E+04  3.825905E-10 -2.081873E-10
       259  11 -4.766581E+05  5.510782E+03  4.227816E+03  1.229586E+04 -1.014781E-09 -6.643650E-09
       259  12 -5.093667E+05 -2.439535E+03 -3.378884E+03  1.937970E+04 -2.689596E-09 -3.620214E-09
       259  13 -4.989984E+05  8.309335E+01 -5.087614E+02  1.943165E+04  1.755972E-09  3.863874E-09
       259  14 -4.989440E+05  6.156557E+01 -7.203868E+02  1.228435E+04  5.521308E-10 -4.467789E-09
       259  15 -4.989981E+05  7.756065E+01 -1.169027E+03  1.943166E+04  1.857730E-09 -6.728973E-09
       259  16 -5.539374E+05 -1.333265E+04 -1.261510E+04  1.935669E+04 -1.718574E-11  1.420499E-09
       259  17 -5.212294E+05 -5.387684E+03 -5.668620E+03  1.227284E+04 -4.156994E-11 -1.002372E-08
       259  18 -4.886293E+05  2.594649E+03  1.040824E+03  1.948363E+04  4.122813E-09 -6.628330E-09
       259  19 -4.440565E+05  1.349864E+04  1.159742E+04  1.950661E+04  1.374243E+03  2.912247E+03
       259  20 -4.766581E+05  5.510783E+03  4.227820E+03  1.229586E+04  1.021436E+03  1.115501E+03
       259  21 -5.093667E+05 -2.439534E+03 -3.378882E+03  1.937970E+04  6.687052E+02 -6.809855E+02
       259  22 -4.989984E+05  8.310245E+01 -5.087455E+02  1.943165E+04 -1.767876E+02  2.909110E+03
       259  23 -4.989440E+05  6.156698E+01 -7.203839E+02  1.228435E+04 -5.293118E+02  1.112346E+03
       259  24 -4.989981E+05  7.756136E+01 -1.169024E+03  1.943166E+04 -8.817772E+02 -6.841631E+02
       259  25 -5.539374E+05 -1.333264E+04 -1.261508E+04  1.935669E+04 -1.727683E+03  2.905974E+03
       259  26 -5.212294E+05 -5.387682E+03 -5.668610E+03  1.227283E+04 -2.080004E+03  1.109191E+03
       259  27 -4.886293E+05  2.594651E+03  1.040836E+03  1.948363E+04 -2.432285E+03 -6.873409E+02
       260   1 -5.369648E+05 -9.190971E+03 -1.002735E+04  1.928613E+04 -4.333753E+02  1.728610E+03
       260   2 -5.694505E+05 -1.716603E+04 -1.826094E+04  1.211513E+04  8.626746E+02  3.523597E+03
       260   3 -6.022309E+05 -2.536922E+04 -2.741226E+04  1.922888E+04  2.158876E+03  5.302251E+03
       260   4 -4.990393E+05  1.019260E+02 -1.513184E+03  1.942928E+04  1.121280E+03  1.731782E+03
       260   5 -4.988938E+05  8.811644E+01 -2.592066E+03  1.228722E+04  2.403338E+03  3.526672E+03
       260   6 -4.990411E+05 -1.511593E+02 -4.578692E+03  1.942980E+04  3.685615E+03  5.305234E+03
       260   7 -4.611125E+05  9.394726E+03  7.000902E+03  1.957245E+04  2.676030E+03  1.734954E+03
       260   8 -4.283326E+05  1.734193E+04  1.307650E+04  1.245932E+04  3.944176E+03  3.529747E+03
       260   9 -3.958414E+05  2.506619E+04  1.825423E+04  1.963075E+04  5.212605E+03  5.308217E+03
       260  10 -5.369648E+05 -9.190974E+03 -1.002736E+04  1.928613E+04 -5.887122E-09 -3.421541E-10
       260  11 -5.694505E+05 -1.716605E+04 -1.826096E+04  1.211513E+04  5.292119E-09 -3.513867E-09
       260  12 -6.022309E+05 -2.536925E+04 -2.741233E+04  1.922887E+04  9.487268E-09 -5.203432E-10
       260  13 -4.990393E+05  1.019224E+02 -1.513192E+03  1.942928E+04  1.063233E-09 -5.668406E-10
       260  14 -4.988939E+05  8.810154E+01 -2.592101E+03  1.228721E+04  2.705270E-09  3.535432E-09
       260  15 -4.990411E+05 -1.511931E+02 -4.578771E+03  1.942978E+04 -7.902806E-10  8.257579E-09
       260  16 -4.611125E+05  9.394721E+03  7.000883E+03  1.957244E+04  3.916471E-09  2.719378E-10
       260  17 -4.283326E+05  1.734191E+04  1.307645E+04  1.245931E+04 -7.690234E-09 -3.157570E-09
       260  18 -3.958414E+05  2.506615E+04  1.825413E+04  1.963073E+04 -9.906076E-09  3.716143E-09
       260  19 -5.369648E+05 -9.190971E+03 -1.002735E+04  1.928613E+04  4.333753E+02 -1.728610E+03
       260  20 -5.694505E+05 -1.716603E+04 -1.826094E+04  1.211513E+04 -8.626746E+02 -3.523597E+03
       260  21 -6.022309E+05 -2.536922E+04 -2.741226E+04  1.922888E+04 -2.158876E+03 -5.302251E+03
       260  22 -4.990393E+05  1.019260E+02 -1.513184E+03  1.942928E+04 -1.121280E+03 -1.731782E+03
       260  23 -4.988938E+05  8.811644E+01 -2.592066E+03  1.228722E+04 -2.403338E+03 -3.526672E+03
       260  24 -4.990411E+05 -1.511593E+02 -4.578692E+03  1.942980E+04 -3.685615E+03 -5.305234E+03
       260  25 -4.611125E+05  9.394726E+03  7.000902E+03  1.957245E+04 -2.676030E+03 -1.734954E+03
       260  26 -4.283326E+05  1.734193E+04  1.307650E+04  1.245932E+04 -3.944176E+03 -3.529747E+03
       260  27 -3.958414E+05  2.506619E+04  1.825423E+04  1.963075E+04 -5.212605E+03 -5.308217E+03
       261   1 -6.300845E+05 -3.165222E+04 -3.507300E+04  1.841164E+04  2.984595E+03  6.380067E+03
       261   2 -6.616753E+05 -3.968438E+04 -4.658936E+04  1.243074E+04  8.459334E+03  8.102319E+03
       261   3 -6.951638E+05 -5.222780E+04 -6.281398E+04  2.068222E+04  1.393476E+04  9.481786E+03
       261   4 -4.993878E+05  3.301526E+02 -5.962466E+03  1.941544E+04  4.610882E+03  6.383180E+03
       261   5 -4.984671E+05  2.335902E+02 -1.030897E+04  1.230375E+04  9.790901E+03  8.104700E+03
       261   6 -4.993932E+05 -4.322170E+03 -1.915791E+04  1.942426E+04  1.497189E+04  9.483462E+03
       261   7 -3.686752E+05  3.231137E+04  2.314701E+04  2.041944E+04  6.237508E+03  6.386298E+03
       261   8 -3.352340E+05  4.014976E+04  2.596977E+04  1.217671E+04  1.112281E+04  8.107081E+03
       261   9 -3.035868E+05  4.358086E+04  2.449577E+04  1.816588E+04  1.600934E+04  9.485133E+03
       261  10 -6.300845E+05 -3.165226E+04 -3.507310E+04  1.841162E+04 -4.593384E-09 -6.929522E-11
       261  11 -6.616753E+05 -3.968447E+04 -4.658961E+04  1.243069E+04 -4.706154E-09  3.380900E-09
       261  12 -6.951640E+05 -5.222795E+04 -6.281452E+04  2.068211E+04 -3.382078E-09 -4.660174E-09
       261  13 -4.993879E+05  3.301031E+02 -5.962582E+03  1.941541E+04  1.462605E-09  1.597851E-10
       261  14 -4.984672E+05  2.334940E+02 -1.030927E+04  1.230369E+04  3.261335E-09  7.913386E-09
       261  15 -4.993935E+05 -4.322327E+03 -1.915850E+04  1.942414E+04 -5.553602E-10  1.965717E-09
       261  16 -3.686752E+05  3.231131E+04  2.314686E+04  2.041941E+04  4.736771E-09 -3.158648E-09
       261  17 -3.352342E+05  4.014966E+04  2.596941E+04  1.217664E+04  2.032343E-09 -1.061316E-08
       261  18 -3.035871E+05  4.358070E+04  2.449512E+04  1.816576E+04  1.507585E-09  1.040538E-09
       261  19 -6.300845E+05 -3.165222E+04 -3.507300E+04  1.841164E+04 -2.984595E+03 -6.380067E+03
       261  20 -6.616753E+05 -3.968438E+04 -4.658936E+04  1.243074E+04 -8.459334E+03 -8.102319E+03
       261  21 -6.951638E+05 -5.222780E+04 -6.281398E+04  2.068222E+04 -1.393476E+04 -9.481786E+03
       261  22 -4.993878E+05  3.301526E+02 -5.962466E+03  1.941544E+04 -4.610882E+03 -6.383180E+03
       261  23 -4.984671E+05  2.335902E+02 -1.030897E+04  1.230375E+04 -9.790901E+03 -8.104700E+03
       261  24 -4.993932E+05 -4.322170E+03 -1.915791E+04  1.942426E+04 -1.497189E+04 -9.483462E+03
       261  25 -3.686752E+05  3.231137E+04  2.314701E+04  2.041944E+04 -6.237508E+03 -6.386298E+03
       261  26 -3.352340E+05  4.014976E+04  2.596977E+04  1.217671E+04 -1.112281E+04 -8.107081E+03
       261  27 -3.035868E+05  4.358086E+04  2.449577E+04  1.816588E+04 -1.600934E+04 -9.485133E+03
       262   1 -7.269555E+05 -5.077208E+04 -7.357996E+04  8.186636E+03  1.511417E+04  1.124812E+04
       262   2 -7.483211E+05 -6.109798E+04 -9.818853E+04  2.377044E+04  4.326408E+04  1.130536E+04
       262   3 -7.919830E+05 -1.457748E+05 -1.597332E+05  5.327080E+04  7.142417E+04  3.757737E+03
       262   4 -5.036818E+05  3.872277E+03 -2.402368E+04  1.931412E+04  1.840713E+04  1.125406E+04
       262   5 -4.931187E+05  1.434639E+03 -4.066887E+04  1.242096E+04  3.999880E+04  1.129860E+04
       262   6 -5.037052E+05 -7.419975E+04 -8.968352E+04  1.944602E+04  6.160253E+04  3.737650E+03
       262   7 -2.803613E+05  5.851373E+04  2.552960E+04  3.044563E+04  2.170127E+04  1.126012E+04
       262   8 -2.378555E+05  6.396329E+04  1.684675E+04  1.066729E+03  3.673218E+04  1.129197E+04
       262   9 -2.153487E+05 -2.626378E+03 -1.963885E+04 -1.439456E+04  5.177633E+04  3.718639E+03
       262  10 -7.269558E+05 -5.077228E+04 -7.358063E+04  8.186499E+03 -1.046029E-09 -4.126638E-09
       262  11 -7.483231E+05 -6.109862E+04 -9.819229E+04  2.377005E+04  3.627013E-09  9.778176E-10
       262  12 -7.919885E+05 -1.457762E+05 -1.597428E+05  5.327058E+04  1.347739E-09  4.846272E-09
       262  13 -5.036822E+05  3.872050E+03 -2.402456E+04  1.931395E+04  1.068926E-09  7.444741E-10
       262  14 -4.931205E+05  1.434072E+03 -4.067212E+04  1.242059E+04  6.154090E-10  7.227635E-10
       262  15 -5.037093E+05 -7.420079E+04 -8.969068E+04  1.944583E+04 -1.330526E-09  2.745698E-09
       262  16 -2.803619E+05  5.851346E+04  2.552848E+04  3.044544E+04  2.226527E-09  3.261284E-09
       262  17 -2.378569E+05  6.396279E+04  1.684397E+04  1.066395E+03 -4.755319E-09  3.788760E-09
       262  18 -2.153515E+05 -2.627113E+03 -1.964392E+04 -1.439472E+04 -3.371118E-09  2.062912E-09
       262  19 -7.269555E+05 -5.077208E+04 -7.357996E+04  8.186636E+03 -1.511417E+04 -1.124812E+04
       262  20 -7.483211E+05 -6.109798E+04 -9.818853E+04  2.377044E+04 -4.326408E+04 -1.130536E+04
       262  21 -7.919830E+05 -1.457748E+05 -1.597332E+05  5.327080E+04 -7.142417E+04 -3.757737E+03
       262  22 -5.036818E+05  3.872277E+03 -2.402368E+04  1.931412E+04 -1.840713E+04 -1.125406E+04
       262  23 -4.931187E+05  1.434639E+03 -4.066887E+04  1.242096E+04 -3.999880E+04 -1.129860E+04
       262  24 -5.037052E+05 -7.419975E+04 -8.968352E+04  1.944602E+04 -6.160253E+04 -3.737650E+03
       262  25 -2.803613E+05  5.851373E+04  2.552960E+04  3.044563E+04 -2.170127E+04 -1.126012E+04
       262  26 -2.378555E+05  6.396329E+04  1.684675E+04  1.066729E+03 -3.673218E+04 -1.129197E+04
       262  27 -2.153487E+05 -2.626378E+03 -1.963885E+04 -1.439456E+04 -5.177633E+04 -3.718639E+03

 stresses (elem, integ.pnt.,sxx,syy,szz,sxy,sxz,syz) for set ELALL and time  0.9375000E+00

         1   1  4.265426E+04  1.880360E+05  2.463797E+05  3.161565E+03  1.680987E+05  8.560033E-01
         1   2  4.753981E+03 -4.550730E+04  1.049476E+05  7.920813E+02  1.106637E+05  1.411882E-01
         1   3  4.264637E+04 -5.812334E+03  6.923143E+04 -1.577320E+03  5.322676E+04 -1.352222E-01
         1   4  4.265425E+04  1.880360E+05  2.463797E+05 -1.947886E-07  1.680987E+05 -1.014713E-09
         1   5  4.753980E+03 -4.550730E+04  1.049476E+05 -2.040216E-06  1.106637E+05  2.916599E-10
         1   6  4.264637E+04 -5.812339E+03  6.923143E+04  6.287380E-07  5.322676E+04 -6.219257E-10
         1   7  4.265426E+04  1.880360E+05  2.463797E+05 -3.161565E+03  1.680987E+05 -8.560033E-01
         1   8  4.753981E+03 -4.550730E+04  1.049476E+05 -7.920813E+02  1.106637E+05 -1.411882E-01
         1   9  4.264637E+04 -5.812334E+03  6.923143E+04  1.577320E+03  5.322676E+04  1.352222E-01
         1  10  4.262392E+04  1.880284E+05  2.463266E+05  3.161565E+03 -4.329542E-09 -2.883229E-11
         1  11  4.740832E+03 -4.551058E+04  1.049246E+05  7.920813E+02  7.625834E-14  1.022427E-09
         1  12  4.264333E+04 -5.813094E+03  6.922611E+04 -1.577320E+03 -4.552280E-09  3.026181E-10
         1  13  4.262391E+04  1.880284E+05  2.463266E+05 -4.705135E-07  1.945892E-29 -5.136732E-14
         1  14  4.740832E+03 -4.551058E+04  1.049246E+05 -7.996377E-07 -4.308388E-09 -1.150406E-13
         1  15  4.264333E+04 -5.813099E+03  6.922611E+04  2.496495E-07 -2.170869E-09 -4.724751E-14
         1  16  4.262392E+04  1.880284E+05  2.463266E+05 -3.161565E+03  4.308479E-09  2.871441E-11
         1  17  4.740832E+03 -4.551058E+04  1.049246E+05 -7.920813E+02  5.385395E-09 -1.022710E-09
         1  18  4.264333E+04 -5.813094E+03  6.922611E+04  1.577320E+03  4.198852E-09 -3.348159E-11
         1  19  4.265426E+04  1.880360E+05  2.463797E+05  3.161565E+03 -1.680987E+05 -8.560033E-01
         1  20  4.753981E+03 -4.550730E+04  1.049476E+05  7.920813E+02 -1.106637E+05 -1.411882E-01
         1  21  4.264637E+04 -5.812334E+03  6.923143E+04 -1.577320E+03 -5.322676E+04  1.352222E-01
         1  22  4.265425E+04  1.880360E+05  2.463797E+05  3.566595E-07 -1.680987E+05 -1.708828E-10
         1  23  4.753980E+03 -4.550730E+04  1.049476E+05  7.166253E-07 -1.106637E+05 -6.048659E-10
         1  24  4.264637E+04 -5.812339E+03  6.923143E+04  1.490305E-06 -5.322676E+04  2.474012E-10
         1  25  4.265426E+04  1.880360E+05  2.463797E+05 -3.161565E+03 -1.680987E+05  8.560033E-01
         1  26  4.753981E+03 -4.550730E+04  1.049476E+05 -7.920813E+02 -1.106637E+05  1.411882E-01
         1  27  4.264637E+04 -5.812334E+03  6.923143E+04  1.577320E+03 -5.322676E+04 -1.352222E-01
         2   1  2.860337E+04  2.953909E+04  5.736814E+04  4.761317E+02  4.169961E+04  3.197919E-02
         2   2  2.230151E+04 -7.155593E+03  2.717502E+04  1.118035E+02  2.739535E+04  4.933361E-03
         2   3  2.860317E+04 -8.871323E+02  1.703612E+04 -2.525239E+02  1.309117E+04 -5.324603E-03
         2   4  2.860337E+04  2.953909E+04  5.736814E+04  1.660924E-07  4.169961E+04 -5.418258E-11
         2   5  2.230151E+04 -7.155593E+03  2.717502E+04 -6.952556E-07  2.739535E+04  8.222973E-10
         2   6  2.860317E+04 -8.871324E+02  1.703612E+04  5.801012E-07  1.309117E+04 -1.399900E-10
         2   7  2.860337E+04  2.953909E+04  5.736814E+04 -4.761317E+02  4.169961E+04 -3.197919E-02
         2   8  2.230151E+04 -7.155593E+03  2.717502E+04 -1.118035E+02  2.739535E+04 -4.933362E-03
         2   9  2.860317E+04 -8.871323E+02  1.703612E+04  2.525239E+02  1.309117E+04  5.324604E-03
         2  10  2.860150E+04  2.953862E+04  5.736487E+04  4.761317E+02 -1.085156E-09  3.640014E-11
         2  11  2.230071E+04 -7.155794E+03  2.717361E+04  1.118035E+02  3.234745E-09  3.918730E-10
         2  12  2.860298E+04 -8.871783E+02  1.703580E+04 -2.525239E+02  6.754707E-09 -1.773882E-10
         2  13  2.860150E+04  2.953862E+04  5.736487E+04 -6.610339E-07  4.307681E-09  1.524480E-10
         2  14  2.230071E+04 -7.155794E+03  2.717361E+04 -9.709589E-07 -4.309075E-09  3.277534E-10
         2  15  2.860298E+04 -8.871784E+02  1.703580E+04 -6.605779E-07  8.801581E-12 -1.145165E-10
         2  16  2.860150E+04  2.953862E+04  5.736487E+04 -4.761317E+02  3.245513E-09  4.187512E-10
         2  17  2.230071E+04 -7.155794E+03  2.717361E+04 -1.118035E+02 -5.388058E-09  4.607276E-11
         2  18  2.860298E+04 -8.871783E+02  1.703580E+04  2.525239E+02 -1.093724E-09 -7.492298E-11
         2  19  2.860337E+04  2.953909E+04  5.736814E+04  4.761317E+02 -4.169961E+04 -3.197919E-02
         2  20  2.230151E+04 -7.155593E+03  2.717502E+04  1.118035E+02 -2.739535E+04 -4.933361E-03
         2  21  2.860317E+04 -8.871323E+02  1.703612E+04 -2.525239E+02 -1.309117E+04  5.324603E-03
         2  22  2.860337E+04  2.953909E+04  5.736814E+04  7.175098E-07 -4.169961E+04  5.041965E-10
         2  23  2.230151E+04 -7.155593E+03  2.717502E+04 -4.195524E-07 -2.739535E+04 -2.022441E-10
         2  24  2.860317E+04 -8.871324E+02  1.703612E+04  2.868823E-08 -1.309117E+04 -1.511035E-10
         2  25  2.860337E+04  2.953909E+04  5.736814E+04 -4.761317E+02 -4.169961E+04  3.197919E-02
         2  26  2.230151E+04 -7.155593E+03  2.717502E+04 -1.118035E+02 -2.739535E+04  4.933362E-03
         2  27  2.860317E+04 -8.871323E+02  1.703612E+04  2.525239E+02 -1.309117E+04 -5.324604E-03
         3   1  2.628180E+04  4.617400E+03  1.370197E+04  6.947717E+01  1.029754E+04  1.152347E-03
         3   2  2.520292E+04 -1.124380E+03  7.030353E+03  1.435995E+01  6.686549E+03  1.546551E-04
         3   3  2.628185E+04 -1.154080E+02  4.397267E+03 -4.075649E+01  3.075624E+03 -2.019004E-04
         3   4  2.628180E+04  4.617400E+03  1.370197E+04  2.177160E-07  1.029754E+04 -3.349578E-10
         3   5  2.520292E+04 -1.124380E+03  7.030353E+03 -8.285286E-07  6.686549E+03  3.212464E-10
         3   6  2.628185E+04 -1.154080E+02  4.397267E+03 -1.171375E-07  3.075624E+03  1.287614E-10
         3   7  2.628180E+04  4.617400E+03  1.370197E+04 -6.947717E+01  1.029754E+04 -1.152347E-03
         3   8  2.520292E+04 -1.124380E+03  7.030353E+03 -1.435995E+01  6.686549E+03 -1.546548E-04
         3   9  2.628185E+04 -1.154080E+02  4.397267E+03  4.075649E+01  3.075624E+03  2.019009E-04
         3  10  2.628169E+04  4.617372E+03  1.370177E+04  6.947716E+01 -4.325335E-09 -1.492946E-10
         3  11  2.520287E+04 -1.124392E+03  7.030269E+03  1.435995E+01 -6.462569E-09  2.684566E-10
         3  12  2.628184E+04 -1.154106E+02  4.397249E+03 -4.075650E+01 -2.004333E-09  6.347195E-12
         3  13  2.628169E+04  4.617372E+03  1.370177E+04  4.934240E-07 -5.425979E-13 -1.529225E-10
         3  14  2.520287E+04 -1.124392E+03  7.030269E+03 -1.392607E-07 -2.153457E-09  2.345976E-10
         3  15  2.628184E+04 -1.154106E+02  4.397249E+03  4.687414E-07  1.614958E-09 -3.673922E-11
         3  16  2.628169E+04  4.617372E+03  1.370177E+04 -6.947716E+01  3.246466E-09 -8.779051E-11
         3  17  2.520287E+04 -1.124392E+03  7.030269E+03 -1.435995E+01  7.540502E-09  2.413460E-10
         3  18  2.628184E+04 -1.154106E+02  4.397249E+03  4.075650E+01  1.870447E-09 -8.751169E-11
         3  19  2.628180E+04  4.617400E+03  1.370197E+04  6.947716E+01 -1.029754E+04 -1.152348E-03
         3  20  2.520292E+04 -1.124380E+03  7.030353E+03  1.435995E+01 -6.686549E+03 -1.546547E-04
         3  21  2.628185E+04 -1.154080E+02  4.397267E+03 -4.075650E+01 -3.075624E+03  2.019004E-04
         3  22  2.628180E+04  4.617400E+03  1.370197E+04  2.177163E-07 -1.029754E+04  2.179776E-11
         3  23  2.520292E+04 -1.124380E+03  7.030353E+03  9.635679E-07 -6.686549E+03  1.015708E-10
         3  24  2.628185E+04 -1.154080E+02  4.397267E+03  4.342779E-07 -3.075624E+03 -2.181887E-10
         3  25  2.628180E+04  4.617400E+03  1.370197E+04 -6.947717E+01 -1.029754E+04  1.152347E-03
         3  26  2.520292E+04 -1.124380E+03  7.030353E+03 -1.435995E+01 -6.686549E+03  1.546547E-04
         3  27  2.628185E+04 -1.154080E+02  4.397267E+03  4.075649E+01 -3.075624E+03 -2.019012E-04
         4   1  2.590247E+04  7.134044E+02  3.565817E+03  1.062885E+01  2.352739E+03  4.027775E-05
         4   2  2.567715E+04 -2.030942E+02  2.217012E+03  1.404920E+00  1.232735E+03  2.789192E-06
         4   3  2.590248E+04  9.970696E+01  1.902196E+03 -7.819146E+00  1.127141E+02 -1.419586E-06
         4   4  2.590247E+04  7.134044E+02  3.565817E+03 -2.197525E-07  2.352739E+03 -1.542514E-10
         4   5  2.567715E+04 -2.030942E+02  2.217012E+03 -1.273155E-06  1.232735E+03 -2.831029E-10
         4   6  2.590248E+04  9.970696E+01  1.902196E+03 -8.642165E-08  1.127141E+02  5.203103E-11
         4   7  2.590247E+04  7.134044E+02  3.565817E+03 -1.062885E+01  2.352739E+03 -4.027782E-05
         4   8  2.567715E+04 -2.030942E+02  2.217012E+03 -1.404919E+00  1.232735E+03 -2.789571E-06
         4   9  2.590248E+04  9.970696E+01  1.902196E+03  7.819151E+00  1.127141E+02  1.419633E-06
         4  10  2.590246E+04  7.134030E+02  3.565806E+03  1.062885E+01 -2.156694E-09 -2.012215E-10
         4  11  2.567715E+04 -2.030946E+02  2.217009E+03  1.404918E+00 -5.387630E-09 -8.803895E-11
         4  12  2.590248E+04  9.970695E+01  1.902196E+03 -7.819151E+00 -1.401898E-10  2.082914E-10
         4  13  2.590246E+04  7.134030E+02  3.565806E+03 -4.954605E-07  6.816167E-13 -1.983110E-10
         4  14  2.567715E+04 -2.030946E+02  2.217009E+03 -7.217393E-07 -2.155116E-09 -4.278517E-11
         4  15  2.590248E+04  9.970695E+01  1.902196E+03 -5.195809E-08 -3.770608E-09  1.733750E-10
         4  16  2.590246E+04  7.134030E+02  3.565806E+03 -1.062885E+01 -7.535583E-09 -2.038139E-10
         4  17  2.567715E+04 -2.030946E+02  2.217009E+03 -1.404919E+00 -3.225381E-09  1.088218E-11
         4  18  2.590248E+04  9.970695E+01  1.902196E+03  7.819152E+00  4.986502E-09  1.370960E-10
         4  19  2.590247E+04  7.134044E+02  3.565817E+03  1.062885E+01 -2.352739E+03 -4.027827E-05
         4  20  2.567715E+04 -2.030942E+02  2.217012E+03  1.404913E+00 -1.232735E+03 -2.789362E-06
         4  21  2.590248E+04  9.970696E+01  1.902196E+03 -7.819153E+00 -1.127141E+02  1.419949E-06
         4  22  2.590247E+04  7.134044E+02  3.565817E+03 -7.711685E-07 -2.352739E+03 -2.385004E-10
         4  23  2.567715E+04 -2.030942E+02  2.217012E+03 -8.595932E-07 -1.232735E+03  2.022997E-10
         4  24  2.590248E+04  9.970696E+01  1.902196E+03  4.649946E-07 -1.127141E+02  2.903161E-10
         4  25  2.590247E+04  7.134044E+02  3.565817E+03 -1.062885E+01 -2.352739E+03  4.027770E-05
         4  26  2.567715E+04 -2.030942E+02  2.217012E+03 -1.404922E+00 -1.232735E+03  2.789706E-06
         4  27  2.590248E+04  9.970696E+01  1.902196E+03  7.819149E+00 -1.127141E+02 -1.419205E-06
         5   1  2.590824E+04  8.885151E+01  1.921786E+03  8.281430E+00 -2.341674E+02 -3.123356E-06
         5   2  2.566995E+04 -2.155080E+02  2.327073E+03 -1.526047E+00 -1.410074E+03  3.465759E-06
         5   3  2.590823E+04  7.739664E+02  3.821368E+03 -1.133352E+01 -2.585981E+03  4.720584E-05
         5   4  2.590824E+04  8.885151E+01  1.921786E+03  2.449553E-07 -2.341674E+02  1.338903E-10
         5   5  2.566995E+04 -2.155080E+02  2.327073E+03 -5.955735E-07 -1.410074E+03 -6.964105E-11
         5   6  2.590823E+04  7.739664E+02  3.821368E+03 -4.366611E-07 -2.585981E+03 -3.517040E-11
         5   7  2.590824E+04  8.885151E+01  1.921786E+03 -8.281432E+00 -2.341674E+02  3.123638E-06
         5   8  2.566995E+04 -2.155080E+02  2.327073E+03  1.526046E+00 -1.410074E+03 -3.465909E-06
         5   9  2.590823E+04  7.739664E+02  3.821368E+03  1.133351E+01 -2.585981E+03 -4.720601E-05
         5  10  2.590824E+04  8.885149E+01  1.921786E+03  8.281433E+00 -4.298083E-09  1.404178E-10
         5  11  2.566995E+04 -2.155085E+02  2.327069E+03 -1.526046E+00  1.077912E-09 -1.180810E-10
         5  12  2.590822E+04  7.739646E+02  3.821355E+03 -1.133351E+01  4.836076E-09  3.881432E-11
         5  13  2.590824E+04  8.885149E+01  1.921786E+03 -3.064609E-07 -2.544058E-12  1.035669E-10
         5  14  2.566995E+04 -2.155085E+02  2.327069E+03 -4.415762E-08 -4.309090E-09 -1.194480E-10
         5  15  2.590822E+04  7.739646E+02  3.821355E+03 -1.160395E-06 -5.401069E-10  3.392223E-11
         5  16  2.590824E+04  8.885149E+01  1.921786E+03 -8.281435E+00 -1.086347E-09  1.129915E-10
         5  17  2.566995E+04 -2.155085E+02  2.327069E+03  1.526049E+00  1.075777E-09 -7.033660E-11
         5  18  2.590822E+04  7.739646E+02  3.821355E+03  1.133351E+01 -2.009047E-09 -4.333718E-12
         5  19  2.590824E+04  8.885151E+01  1.921786E+03  8.281430E+00  2.341674E+02  3.123535E-06
         5  20  2.566995E+04 -2.155080E+02  2.327073E+03 -1.526045E+00  1.410074E+03 -3.466094E-06
         5  21  2.590823E+04  7.739664E+02  3.821368E+03 -1.133352E+01  2.585981E+03 -4.720582E-05
         5  22  2.590824E+04  8.885151E+01  1.921786E+03  1.072079E-06  2.341674E+02  8.206060E-11
         5  23  2.566995E+04 -2.155080E+02  2.327073E+03 -4.415762E-08  1.410074E+03 -1.619681E-10
         5  24  2.590823E+04  7.739664E+02  3.821368E+03  1.492185E-07  2.585981E+03  1.039001E-10
         5  25  2.590824E+04  8.885151E+01  1.921786E+03 -8.281430E+00  2.341674E+02 -3.123278E-06
         5  26  2.566995E+04 -2.155080E+02  2.327073E+03  1.526043E+00  1.410074E+03  3.465848E-06
         5  27  2.590823E+04  7.739664E+02  3.821368E+03  1.133351E+01  2.585981E+03  4.720611E-05
         6   1  2.632176E+04 -1.280119E+02  4.733279E+03  4.417654E+01 -3.362519E+03 -2.392566E-04
         6   2  2.515303E+04 -1.218423E+03  7.603533E+03 -1.556101E+01 -7.268204E+03  1.821690E-04
         6   3  2.632171E+04  5.006479E+03  1.484540E+04 -7.529761E+01 -1.117384E+04  1.355164E-03
         6   4  2.632176E+04 -1.280119E+02  4.733279E+03  5.248665E-07 -3.362519E+03 -1.975571E-12
         6   5  2.515303E+04 -1.218423E+03  7.603533E+03  6.975107E-07 -7.268204E+03 -1.124172E-10
         6   6  2.632171E+04  5.006479E+03  1.484540E+04  1.662817E-06 -1.117384E+04 -3.039774E-10
         6   7  2.632176E+04 -1.280119E+02  4.733279E+03 -4.417654E+01 -3.362519E+03  2.392565E-04
         6   8  2.515303E+04 -1.218423E+03  7.603533E+03  1.556101E+01 -7.268204E+03 -1.821691E-04
         6   9  2.632171E+04  5.006479E+03  1.484540E+04  7.529761E+01 -1.117384E+04 -1.355163E-03
         6  10  2.632175E+04 -1.280150E+02  4.733258E+03  4.417654E+01  2.161048E-09  1.121344E-10
         6  11  2.515298E+04 -1.218437E+03  7.603433E+03 -1.556101E+01 -1.073341E-09 -1.174025E-10
         6  12  2.632157E+04  5.006445E+03  1.484517E+04 -7.529761E+01  2.825898E-09 -2.308402E-10
         6  13  2.632175E+04 -1.280150E+02  4.733258E+03 -2.654910E-08  8.425190E-13  5.675681E-11
         6  14  2.515298E+04 -1.218437E+03  7.603433E+03  1.460966E-07 -8.613649E-09 -1.518896E-10
         6  15  2.632157E+04  5.006445E+03  1.484517E+04  9.390841E-07 -9.690954E-09 -2.217043E-10
         6  16  2.632175E+04 -1.280150E+02  4.733258E+03 -4.417654E+01 -8.621415E-09  5.586836E-12
         6  17  2.515298E+04 -1.218437E+03  7.603433E+03  1.556102E+01  3.229023E-09 -1.274824E-10
         6  18  2.632157E+04  5.006445E+03  1.484517E+04  7.529761E+01 -4.174458E-09 -2.315040E-10
         6  19  2.632176E+04 -1.280119E+02  4.733279E+03  4.417654E+01  3.362519E+03  2.392568E-04
         6  20  2.515303E+04 -1.218423E+03  7.603533E+03 -1.556101E+01  7.268204E+03 -1.821680E-04
         6  21  2.632171E+04  5.006479E+03  1.484540E+04 -7.529761E+01  1.117384E+04 -1.355163E-03
         6  22  2.632176E+04 -1.280119E+02  4.733279E+03  2.491586E-07  3.362519E+03  1.081759E-10
         6  23  2.515303E+04 -1.218423E+03  7.603533E+03  8.353642E-07  7.268204E+03 -2.214662E-10
         6  24  2.632171E+04  5.006479E+03  1.484540E+04  1.662817E-06  1.117384E+04 -1.415902E-10
         6  25  2.632176E+04 -1.280119E+02  4.733279E+03 -4.417654E+01  3.362519E+03 -2.392566E-04
         6  26  2.515303E+04 -1.218423E+03  7.603533E+03  1.556101E+01  7.268204E+03  1.821682E-04
         6  27  2.632171E+04  5.006479E+03  1.484540E+04  7.529761E+01  1.117384E+04  1.355162E-03
         7   1  2.883904E+04 -9.623557E+02  1.846319E+04  2.738028E+02 -1.420129E+04 -6.262845E-03
         7   2  2.200673E+04 -7.758383E+03  2.946027E+04 -1.212223E+02 -2.970817E+04  5.800552E-03
         7   3  2.883933E+04  3.202825E+04  6.219948E+04 -5.162540E+02 -4.521538E+04  3.759742E-02
         7   4  2.883904E+04 -9.623559E+02  1.846319E+04  6.153258E-07 -1.420129E+04  3.106160E-10
         7   5  2.200673E+04 -7.758383E+03  2.946027E+04 -8.827858E-07 -2.970817E+04  1.041726E-09
         7   6  2.883932E+04  3.202825E+04  6.219948E+04  6.596928E-08 -4.521538E+04  1.463596E-09
         7   7  2.883904E+04 -9.623557E+02  1.846319E+04 -2.738028E+02 -1.420129E+04  6.262847E-03
         7   8  2.200673E+04 -7.758383E+03  2.946027E+04  1.212223E+02 -2.970817E+04 -5.800555E-03
         7   9  2.883933E+04  3.202825E+04  6.219948E+04  5.162540E+02 -4.521538E+04 -3.759743E-02
         7  10  2.883882E+04 -9.624099E+02  1.846281E+04  2.738028E+02  1.052906E-09 -8.891219E-11
         7  11  2.200578E+04 -7.758620E+03  2.945861E+04 -1.212223E+02 -9.690226E-09  3.276768E-10
         7  12  2.883713E+04  3.202771E+04  6.219564E+04 -5.162540E+02 -4.694381E-09  2.872210E-10
         7  13  2.883882E+04 -9.624100E+02  1.846281E+04  6.391354E-08 -8.958492E-12  4.995703E-11
         7  14  2.200578E+04 -7.758620E+03  2.945861E+04 -4.692315E-07 -6.458648E-09  4.804811E-10
         7  15  2.883713E+04  3.202770E+04  6.219564E+04 -5.888394E-07 -5.379333E-10  3.686213E-11
         7  16  2.883882E+04 -9.624099E+02  1.846281E+04 -2.738028E+02 -3.211120E-09  2.561302E-10
         7  17  2.200578E+04 -7.758620E+03  2.945861E+04  1.212223E+02  8.609904E-09  5.854072E-10
         7  18  2.883713E+04  3.202771E+04  6.219564E+04  5.162540E+02  5.623459E-09 -3.951432E-10
         7  19  2.883904E+04 -9.623557E+02  1.846319E+04  2.738028E+02  1.420129E+04  6.262849E-03
         7  20  2.200673E+04 -7.758383E+03  2.946027E+04 -1.212223E+02  2.970817E+04 -5.800550E-03
         7  21  2.883933E+04  3.202825E+04  6.219948E+04 -5.162540E+02  4.521538E+04 -3.759741E-02
         7  22  2.883904E+04 -9.623559E+02  1.846319E+04  3.396202E-07  1.420129E+04 -1.553700E-10
         7  23  2.200673E+04 -7.758383E+03  2.946027E+04  4.957284E-07  2.970817E+04  1.169212E-10
         7  24  2.883932E+04  3.202825E+04  6.219948E+04  8.930949E-07  4.521538E+04 -1.540094E-09
         7  25  2.883904E+04 -9.623557E+02  1.846319E+04 -2.738028E+02  1.420129E+04 -6.262846E-03
         7  26  2.200673E+04 -7.758383E+03  2.946027E+04  1.212223E+02  2.970817E+04  5.800550E-03
         7  27  2.883933E+04  3.202825E+04  6.219948E+04  5.162540E+02  4.521538E+04  3.759742E-02
         8   1  4.406564E+04 -6.301841E+03  7.506338E+04  1.710205E+03 -5.771372E+04 -1.589734E-01
         8   2  2.981154E+03 -4.934129E+04  1.137924E+05 -8.588068E+02 -1.199893E+05  1.659828E-01
         8   3  4.407515E+04  2.038800E+05  2.671451E+05 -3.427957E+03 -1.822636E+05  1.006340E+00
         8   4  4.406563E+04 -6.301847E+03  7.506338E+04  5.884230E-07 -5.771372E+04 -6.079739E-10
         8   5  2.981153E+03 -4.934129E+04  1.137924E+05  1.206762E-06 -1.199893E+05 -6.243733E-09
         8   6  4.407513E+04  2.038800E+05  2.671451E+05  2.745984E-07 -1.822636E+05 -1.569758E-09
         8   7  4.406564E+04 -6.301841E+03  7.506338E+04 -1.710205E+03 -5.771372E+04  1.589734E-01
         8   8  2.981154E+03 -4.934129E+04  1.137924E+05  8.588068E+02 -1.199893E+05 -1.659828E-01
         8   9  4.407515E+04  2.038800E+05  2.671451E+05  3.427957E+03 -1.822636E+05 -1.006340E+00
         8  10  4.406206E+04 -6.302735E+03  7.505712E+04  1.710205E+03  3.256078E-09 -2.712998E-10
         8  11  2.965696E+03 -4.934515E+04  1.137653E+05 -8.588068E+02  5.382043E-09  1.152843E-10
         8  12  4.403948E+04  2.038711E+05  2.670827E+05 -3.427957E+03 -9.605927E-10 -2.121576E-09
         8  13  4.406206E+04 -6.302741E+03  7.505712E+04  3.127224E-07  3.365774E-11 -7.017897E-10
         8  14  2.965695E+03 -4.934515E+04  1.137653E+05  7.932383E-07 -2.157950E-09 -1.642077E-09
         8  15  4.403947E+04  2.038711E+05  2.670826E+05  3.090639E-07 -1.081456E-09 -6.054397E-10
         8  16  4.406206E+04 -6.302735E+03  7.505712E+04 -1.710205E+03  1.035492E-09  2.264693E-10
         8  17  2.965696E+03 -4.934515E+04  1.137653E+05  8.588068E+02  1.077082E-09 -1.251190E-09
         8  18  4.403948E+04  2.038711E+05  2.670827E+05  3.427957E+03  1.920422E-09 -1.452845E-09
         8  19  4.406564E+04 -6.301841E+03  7.506338E+04  1.710205E+03  5.771372E+04  1.589735E-01
         8  20  2.981154E+03 -4.934129E+04  1.137924E+05 -8.588068E+02  1.199893E+05 -1.659827E-01
         8  21  4.407515E+04  2.038800E+05  2.671451E+05 -3.427957E+03  1.822636E+05 -1.006340E+00
         8  22  4.406563E+04 -6.301847E+03  7.506338E+04  5.884227E-07  5.771372E+04 -1.066298E-09
         8  23  2.981153E+03 -4.934129E+04  1.137924E+05  5.175565E-07  1.199893E+05  3.282703E-09
         8  24  4.407513E+04  2.038800E+05  2.671451E+05 -2.079220E-07  1.822636E+05 -7.157874E-10
         8  25  4.406564E+04 -6.301841E+03  7.506338E+04 -1.710205E+03  5.771372E+04 -1.589735E-01
         8  26  2.981154E+03 -4.934129E+04  1.137924E+05  8.588068E+02  1.199893E+05  1.659828E-01
         8  27  4.407515E+04  2.038800E+05  2.671451E+05  3.427957E+03  1.822636E+05  1.006340E+00
         9   1  2.636932E+06  9.679376E+06  2.499246E+06 -1.844135E+06  1.212484E+05  9.519122E+05
         9   2  2.133586E+06  8.253394E+06  1.686029E+06 -1.700000E+06  4.083094E+05  4.346148E+05
         9   3  1.767693E+06  6.934106E+06  1.241741E+06 -1.776651E+06  4.770207E+05 -8.115161E+04
         9   4  1.036485E+05 -6.514844E+05  1.081702E+05 -1.747496E+06  1.243429E+05  7.033456E+04
         9   5  3.347800E+04 -6.582551E+05  5.780484E+04 -1.637320E+06  4.105498E+05  4.272086E+04
         9   6  1.742713E+04 -6.435983E+05  3.961755E+04 -1.747909E+06  4.770160E+05  1.534209E+04
         9   7 -2.436674E+06 -1.088302E+07 -2.287169E+06 -1.652256E+06  1.272079E+05 -7.968578E+05
         9   8 -2.071020E+06 -9.493054E+06 -1.573079E+06 -1.575386E+06  4.127359E+05 -3.437565E+05
         9   9 -1.735686E+06 -8.164530E+06 -1.163942E+06 -1.719380E+06  4.770199E+05  1.107099E+05
         9  10  2.636677E+06  9.678411E+06  2.497539E+06 -1.844228E+06  3.330983E-09  5.383047E-08
         9  11  2.133357E+06  8.253148E+06  1.685363E+06 -1.700142E+06  2.487962E-09 -8.631547E-08
         9  12  1.767447E+06  6.934037E+06  1.241302E+06 -1.776620E+06  5.661888E-09 -2.194227E-07
         9  13  1.036306E+05 -6.514939E+05  1.081318E+05 -1.747503E+06  1.314557E-09 -3.132902E-11
         9  14  3.329651E+04 -6.583023E+05  5.748456E+04 -1.637334E+06 -4.423425E-09  7.667502E-11
         9  15  1.718278E+04 -6.436596E+05  3.918955E+04 -1.747915E+06  6.883194E-09  1.171635E-10
         9  16 -2.436865E+06 -1.088372E+07 -2.288412E+06 -1.652174E+06  2.548006E-09 -5.347702E-08
         9  17 -2.071234E+06 -9.493228E+06 -1.573622E+06 -1.575271E+06 -2.660022E-09  8.513463E-08
         9  18 -1.735934E+06 -8.164604E+06 -1.164394E+06 -1.719423E+06  7.770786E-10  2.172202E-07
         9  19  2.636932E+06  9.679376E+06  2.499246E+06 -1.844135E+06 -1.212484E+05 -9.519122E+05
         9  20  2.133586E+06  8.253394E+06  1.686029E+06 -1.700000E+06 -4.083094E+05 -4.346148E+05
         9  21  1.767693E+06  6.934106E+06  1.241741E+06 -1.776651E+06 -4.770207E+05  8.115161E+04
         9  22  1.036485E+05 -6.514844E+05  1.081702E+05 -1.747496E+06 -1.243429E+05 -7.033456E+04
         9  23  3.347800E+04 -6.582551E+05  5.780484E+04 -1.637320E+06 -4.105498E+05 -4.272086E+04
         9  24  1.742713E+04 -6.435983E+05  3.961755E+04 -1.747909E+06 -4.770160E+05 -1.534209E+04
         9  25 -2.436674E+06 -1.088302E+07 -2.287169E+06 -1.652256E+06 -1.272079E+05  7.968578E+05
         9  26 -2.071020E+06 -9.493054E+06 -1.573079E+06 -1.575386E+06 -4.127359E+05  3.437565E+05
         9  27 -1.735686E+06 -8.164530E+06 -1.163942E+06 -1.719380E+06 -4.770199E+05 -1.107099E+05
        10   1  1.562613E+06  6.061745E+06  1.070888E+06 -1.783704E+06  4.429215E+05 -9.367132E+04
        10   2  1.238477E+06  4.681961E+06  8.152010E+05 -1.654594E+06  3.837093E+05 -1.721189E+05
        10   3  9.397414E+05  3.320275E+06  6.165562E+05 -1.762237E+06  2.975091E+05 -2.507364E+05
        10   4  1.850744E+04 -6.448001E+05  3.562280E+04 -1.751485E+06  4.427300E+05  9.144868E+03
        10   5  1.985337E+04 -6.452946E+05  3.650424E+04 -1.633022E+06  3.829021E+05 -9.200820E+03
        10   6  3.636538E+04 -6.398836E+05  5.294950E+04 -1.751427E+06  2.959660E+05 -2.787864E+04
        10   7 -1.527773E+06 -7.306639E+06 -1.000627E+06 -1.719502E+06  4.425474E+05  1.109004E+05
        10   8 -1.200068E+06 -5.944029E+06 -7.425822E+05 -1.611561E+06  3.821012E+05  1.523852E+05
        10   9 -8.676923E+05 -4.584123E+06 -5.106991E+05 -1.740641E+06  2.944236E+05  1.936247E+05
        10  10  1.562401E+06  6.061683E+06  1.070503E+06 -1.783671E+06 -2.537912E-09  2.258154E-07
        10  11  1.238312E+06  4.681890E+06  8.148699E+05 -1.654541E+06  4.163107E-09  8.540897E-08
        10  12  9.396299E+05  3.320184E+06  6.162733E+05 -1.762177E+06 -3.997026E-10 -6.153508E-08
        10  13  1.829700E+04 -6.448528E+05  3.525437E+04 -1.751488E+06  1.107976E-08  9.905902E-12
        10  14  1.969598E+04 -6.453340E+05  3.622870E+04 -1.633019E+06  6.084748E-09  1.622494E-10
        10  15  3.627118E+04 -6.399079E+05  5.278360E+04 -1.751420E+06  1.574125E-09  2.041340E-10
        10  16 -1.527987E+06 -7.306705E+06 -1.001019E+06 -1.719542E+06  1.325409E-09 -2.233302E-07
        10  17 -1.200231E+06 -5.944093E+06 -7.429012E+05 -1.611608E+06  3.096058E-09 -8.443061E-08
        10  18 -8.677958E+05 -4.584187E+06 -5.109336E+05 -1.740687E+06 -6.790279E-10  6.197585E-08
        10  19  1.562613E+06  6.061745E+06  1.070888E+06 -1.783704E+06 -4.429215E+05  9.367132E+04
        10  20  1.238477E+06  4.681961E+06  8.152010E+05 -1.654594E+06 -3.837093E+05  1.721189E+05
        10  21  9.397414E+05  3.320275E+06  6.165562E+05 -1.762237E+06 -2.975091E+05  2.507364E+05
        10  22  1.850744E+04 -6.448001E+05  3.562280E+04 -1.751485E+06 -4.427300E+05 -9.144868E+03
        10  23  1.985337E+04 -6.452946E+05  3.650424E+04 -1.633022E+06 -3.829021E+05  9.200820E+03
        10  24  3.636538E+04 -6.398836E+05  5.294950E+04 -1.751427E+06 -2.959660E+05  2.787864E+04
        10  25 -1.527773E+06 -7.306639E+06 -1.000627E+06 -1.719502E+06 -4.425474E+05 -1.109004E+05
        10  26 -1.200068E+06 -5.944029E+06 -7.425822E+05 -1.611561E+06 -3.821012E+05 -1.523852E+05
        10  27 -8.676923E+05 -4.584123E+06 -5.106991E+05 -1.740641E+06 -2.944236E+05 -1.936247E+05
        11   1  7.504662E+05  2.470483E+06  5.027979E+05 -1.765140E+06  2.379740E+05 -2.607764E+05
        11   2  4.853418E+05  1.087172E+06  3.569427E+05 -1.568024E+06  1.367062E+05 -3.243754E+05
        11   3  3.186164E+05 -2.638365E+05  2.763432E+05 -1.609532E+06  3.372246E+04 -3.879640E+05
        11   4  4.313153E+04 -6.334863E+05  6.666394E+04 -1.751876E+06  2.362887E+05 -3.729580E+04
        11   5  9.170753E+04 -6.474535E+05  1.162094E+05 -1.631992E+06  1.349135E+05 -9.725978E+04
        11   6  2.381638E+05 -6.318039E+05  2.283382E+05 -1.750603E+06  3.183648E+04 -1.573321E+05
        11   7 -6.646067E+05 -3.727609E+06 -3.694105E+05 -1.738650E+06  2.346070E+05  1.851200E+05
        11   8 -3.020141E+05 -2.378905E+06 -1.243636E+05 -1.695766E+06  1.330706E+05  1.292505E+05
        11   9  1.578102E+05 -9.994743E+05  1.805433E+05 -1.891587E+06  2.984483E+04  7.316953E+04
        11  10  7.503875E+05  2.470395E+06  5.025651E+05 -1.765090E+06 -5.881470E-09  2.579579E-09
        11  11  4.852938E+05  1.087054E+06  3.567108E+05 -1.567988E+06 -5.601136E-10  2.752795E-09
        11  12  3.185748E+05 -2.639984E+05  2.760582E+05 -1.609522E+06 -1.353442E-09  4.493391E-09
        11  13  4.307127E+04 -6.335027E+05  6.655656E+04 -1.751869E+06 -2.880821E-09  3.123658E-12
        11  14  9.168551E+04 -6.474685E+05  1.161575E+05 -1.631982E+06 -4.442003E-09 -2.172547E-10
        11  15  2.381561E+05 -6.318307E+05  2.282898E+05 -1.750599E+06  5.321697E-09 -7.195947E-11
        11  16 -6.646753E+05 -3.727661E+06 -3.695792E+05 -1.738685E+06 -5.222076E-09 -2.650303E-09
        11  17 -3.020377E+05 -2.378928E+06 -1.244286E+05 -1.695779E+06  2.354046E-09 -3.138827E-09
        11  18  1.578078E+05 -9.994803E+05  1.805315E+05 -1.891589E+06 -3.549925E-09 -4.199684E-09
        11  19  7.504662E+05  2.470483E+06  5.027979E+05 -1.765140E+06 -2.379740E+05  2.607764E+05
        11  20  4.853418E+05  1.087172E+06  3.569427E+05 -1.568024E+06 -1.367062E+05  3.243754E+05
        11  21  3.186164E+05 -2.638365E+05  2.763432E+05 -1.609532E+06 -3.372246E+04  3.879640E+05
        11  22  4.313153E+04 -6.334863E+05  6.666394E+04 -1.751876E+06 -2.362887E+05  3.729580E+04
        11  23  9.170753E+04 -6.474535E+05  1.162094E+05 -1.631992E+06 -1.349135E+05  9.725978E+04
        11  24  2.381638E+05 -6.318039E+05  2.283382E+05 -1.750603E+06 -3.183648E+04  1.573321E+05
        11  25 -6.646067E+05 -3.727609E+06 -3.694105E+05 -1.738650E+06 -2.346070E+05 -1.851200E+05
        11  26 -3.020141E+05 -2.378905E+06 -1.243636E+05 -1.695766E+06 -1.330706E+05 -1.292505E+05
        11  27  1.578102E+05 -9.994743E+05  1.805433E+05 -1.891587E+06 -2.984483E+04 -7.316953E+04
        12   1 -1.335653E+07 -4.528007E+06 -3.157157E+06 -4.237996E+06 -9.768549E+05 -3.196011E+05
        12   2 -1.307643E+07 -2.893966E+06 -2.208066E+06 -4.238406E+06 -6.454386E+05 -1.127528E+05
        12   3 -1.283892E+07 -3.028701E+06 -1.879386E+06 -4.212617E+06 -2.765798E+05 -8.057347E+03
        12   4 -7.417794E+06 -2.124948E+06 -1.476047E+06 -2.483029E+06 -9.560806E+05 -3.122242E+05
        12   5 -7.327810E+06 -7.186841E+05 -6.231579E+05 -2.690646E+06 -6.439711E+05 -1.123531E+05
        12   6 -7.270378E+06 -1.067889E+06 -3.701137E+05 -2.873148E+06 -2.947158E+05 -1.445787E+04
        12   7 -1.444664E+06  2.814269E+05  2.016542E+05 -7.121337E+05 -9.350403E+05 -3.047318E+05
        12   8 -1.547040E+06  1.458489E+06  9.586942E+05 -1.129669E+06 -6.424629E+05 -1.119373E+05
        12   9 -1.671817E+06  8.936427E+05  1.136398E+06 -1.522984E+06 -3.130220E+05 -2.091256E+04
        12  10 -1.335760E+07 -4.528383E+06 -3.159190E+06 -4.238252E+06 -2.354958E-09  5.624071E-10
        12  11 -1.307689E+07 -2.894095E+06 -2.208891E+06 -4.238466E+06  3.556936E-10 -6.394867E-10
        12  12 -1.283900E+07 -3.028722E+06 -1.879533E+06 -4.212619E+06  1.426463E-09 -4.250787E-09
        12  13 -7.418812E+06 -2.125304E+06 -1.477974E+06 -2.483272E+06  5.223547E-10  3.099192E-10
        12  14 -7.328263E+06 -7.188110E+05 -6.239716E+05 -2.690705E+06  2.438043E-09 -1.058266E-09
        12  15 -7.270472E+06 -1.067913E+06 -3.702792E+05 -2.873152E+06 -2.623544E-10  4.265367E-10
        12  16 -1.445629E+06  2.810914E+05  1.998314E+05 -7.123635E+05  1.942968E-10 -8.475162E-10
        12  17 -1.547488E+06  1.458364E+06  9.578922E+05 -1.129727E+06  3.991633E-10 -1.159211E-09
        12  18 -1.671923E+06  8.936158E+05  1.136213E+06 -1.522989E+06  3.727397E-09  2.017620E-09
        12  19 -1.335653E+07 -4.528007E+06 -3.157157E+06 -4.237996E+06  9.768549E+05  3.196011E+05
        12  20 -1.307643E+07 -2.893966E+06 -2.208066E+06 -4.238406E+06  6.454386E+05  1.127528E+05
        12  21 -1.283892E+07 -3.028701E+06 -1.879386E+06 -4.212617E+06  2.765798E+05  8.057347E+03
        12  22 -7.417794E+06 -2.124948E+06 -1.476047E+06 -2.483029E+06  9.560806E+05  3.122242E+05
        12  23 -7.327810E+06 -7.186841E+05 -6.231579E+05 -2.690646E+06  6.439711E+05  1.123531E+05
        12  24 -7.270378E+06 -1.067889E+06 -3.701137E+05 -2.873148E+06  2.947158E+05  1.445787E+04
        12  25 -1.444664E+06  2.814269E+05  2.016542E+05 -7.121337E+05  9.350403E+05  3.047318E+05
        12  26 -1.547040E+06  1.458489E+06  9.586942E+05 -1.129669E+06  6.424629E+05  1.119373E+05
        12  27 -1.671817E+06  8.936427E+05  1.136398E+06 -1.522984E+06  3.130220E+05  2.091256E+04
        13   1 -1.027861E+07 -2.516389E+06 -1.169265E+06 -3.730095E+06 -2.299530E+05 -1.998803E+04
        13   2 -9.951640E+06 -1.657259E+06 -8.075991E+05 -3.093063E+06 -1.456925E+05 -3.256080E+03
        13   3 -8.895221E+06 -1.810719E+06 -5.602073E+05 -3.397113E+06 -5.496454E+04 -5.731614E+03
        13   4 -7.155962E+06 -1.363840E+06 -3.147682E+05 -2.918463E+06 -2.310335E+05 -2.039521E+04
        13   5 -7.511158E+06 -7.737678E+05 -1.435746E+05 -2.477432E+06 -1.506355E+05 -4.970545E+03
        13   6 -7.136250E+06 -1.194651E+06 -8.303052E+04 -2.977466E+06 -6.388007E+04 -8.757172E+03
        13   7 -4.023886E+06 -2.108323E+05  5.388399E+05 -2.103097E+06 -2.321174E+05 -2.080354E+04
        13   8 -5.064931E+06  1.099457E+05  5.199125E+05 -1.859611E+06 -1.555989E+05 -6.692095E+03
        13   9 -5.374310E+06 -5.785163E+05  3.938692E+05 -2.556763E+06 -7.282312E+04 -1.179159E+04
        13  10 -1.027867E+07 -2.516404E+06 -1.169367E+06 -3.730099E+06  7.962285E-09 -9.484479E-10
        13  11 -9.951664E+06 -1.657265E+06 -8.076396E+05 -3.093063E+06  1.183331E-08  6.908826E-09
        13  12 -8.895225E+06 -1.810720E+06 -5.602131E+05 -3.397114E+06  6.187507E-09  2.332049E-09
        13  13 -7.156020E+06 -1.363855E+06 -3.148705E+05 -2.918467E+06  5.254423E-09  2.251585E-09
        13  14 -7.511183E+06 -7.737740E+05 -1.436178E+05 -2.477433E+06 -2.483762E-10  1.854459E-09
        13  15 -7.136254E+06 -1.194652E+06 -8.303843E+04 -2.977467E+06  5.647620E-09 -2.776381E-10
        13  16 -4.023944E+06 -2.108474E+05  5.387371E+05 -2.103101E+06 -3.389083E-09 -1.824319E-09
        13  17 -5.064957E+06  1.099391E+05  5.198665E+05 -1.859612E+06 -5.053794E-09 -1.223925E-09
        13  18 -5.374316E+06 -5.785179E+05  3.938589E+05 -2.556763E+06  3.840934E-09 -6.252366E-09
        13  19 -1.027861E+07 -2.516389E+06 -1.169265E+06 -3.730095E+06  2.299530E+05  1.998803E+04
        13  20 -9.951640E+06 -1.657259E+06 -8.075991E+05 -3.093063E+06  1.456925E+05  3.256080E+03
        13  21 -8.895221E+06 -1.810719E+06 -5.602073E+05 -3.397113E+06  5.496454E+04  5.731614E+03
        13  22 -7.155962E+06 -1.363840E+06 -3.147682E+05 -2.918463E+06  2.310335E+05  2.039521E+04
        13  23 -7.511158E+06 -7.737678E+05 -1.435746E+05 -2.477432E+06  1.506355E+05  4.970545E+03
        13  24 -7.136250E+06 -1.194651E+06 -8.303052E+04 -2.977466E+06  6.388007E+04  8.757172E+03
        13  25 -4.023886E+06 -2.108323E+05  5.388399E+05 -2.103097E+06  2.321174E+05  2.080354E+04
        13  26 -5.064931E+06  1.099457E+05  5.199125E+05 -1.859611E+06  1.555989E+05  6.692095E+03
        13  27 -5.374310E+06 -5.785163E+05  3.938692E+05 -2.556763E+06  7.282312E+04  1.179159E+04
        14   1 -5.507175E+06 -6.487397E+05  3.739399E+05 -2.572738E+06 -3.800173E+04 -2.411546E+04
        14   2 -5.208261E+06  3.237782E+04  5.947462E+05 -1.889845E+06 -1.224283E+04 -4.672305E+04
        14   3 -4.102410E+06 -1.229083E+05  7.979630E+05 -2.201774E+06  1.163670E+04 -6.300507E+04
        14   4 -7.127123E+06 -1.221714E+06 -6.594804E+04 -2.966877E+06 -4.485320E+04 -2.644159E+04
        14   5 -7.529245E+06 -8.006688E+05 -3.396819E+04 -2.469757E+06 -1.773391E+04 -4.862102E+04
        14   6 -7.125082E+06 -1.216687E+06 -2.064855E+04 -2.967897E+06  7.481785E+03 -6.446941E+04
        14   7 -8.744561E+06 -1.794619E+06 -5.060720E+05 -3.360101E+06 -5.168497E+04 -2.876116E+04
        14   8 -9.845061E+06 -1.633534E+06 -6.631656E+05 -3.047725E+06 -2.320230E+04 -5.051122E+04
        14   9 -1.013898E+07 -2.310117E+06 -8.400790E+05 -3.730663E+06  3.349227E+03 -6.592601E+04
        14  10 -5.507177E+06 -6.487407E+05  3.739360E+05 -2.572738E+06 -2.453022E-09  2.582407E-09
        14  11 -5.208262E+06  3.237544E+04  5.947419E+05 -1.889846E+06 -5.430826E-09  4.670022E-09
        14  12 -4.102411E+06 -1.229126E+05  7.979553E+05 -2.201773E+06  3.516876E-09  5.746717E-09
        14  13 -7.127125E+06 -1.221715E+06 -6.595321E+04 -2.966878E+06 -4.395199E-09 -1.125686E-09
        14  14 -7.529246E+06 -8.006714E+05 -3.397324E+04 -2.469757E+06 -9.769937E-09 -6.312502E-09
        14  15 -7.125083E+06 -1.216692E+06 -2.065644E+04 -2.967896E+06 -1.612705E-09 -9.872609E-09
        14  16 -8.744564E+06 -1.794620E+06 -5.060787E+05 -3.360102E+06  1.139093E-08  2.785600E-09
        14  17 -9.845062E+06 -1.633536E+06 -6.631715E+05 -3.047726E+06  1.858806E-08 -5.307911E-09
        14  18 -1.013898E+07 -2.310121E+06 -8.400872E+05 -3.730663E+06  2.371899E-09 -4.501263E-09
        14  19 -5.507175E+06 -6.487397E+05  3.739399E+05 -2.572738E+06  3.800173E+04  2.411546E+04
        14  20 -5.208261E+06  3.237782E+04  5.947462E+05 -1.889845E+06  1.224283E+04  4.672305E+04
        14  21 -4.102410E+06 -1.229083E+05  7.979630E+05 -2.201774E+06 -1.163670E+04  6.300507E+04
        14  22 -7.127123E+06 -1.221714E+06 -6.594804E+04 -2.966877E+06  4.485320E+04  2.644159E+04
        14  23 -7.529245E+06 -8.006688E+05 -3.396819E+04 -2.469757E+06  1.773391E+04  4.862102E+04
        14  24 -7.125082E+06 -1.216687E+06 -2.064855E+04 -2.967897E+06 -7.481785E+03  6.446941E+04
        14  25 -8.744561E+06 -1.794619E+06 -5.060720E+05 -3.360101E+06  5.168497E+04  2.876116E+04
        14  26 -9.845061E+06 -1.633534E+06 -6.631656E+05 -3.047725E+06  2.320230E+04  5.051122E+04
        14  27 -1.013898E+07 -2.310117E+06 -8.400790E+05 -3.730663E+06 -3.349227E+03  6.592601E+04
        15   1 -1.717438E+06  8.804698E+05  1.480518E+06 -1.442078E+06  1.967209E+04 -7.672282E+04
        15   2 -1.716984E+06  1.179449E+06  1.544042E+06 -1.132845E+06  3.086013E+04 -9.600993E+04
        15   3 -1.140925E+06  1.153673E+06  1.655528E+06 -1.201841E+06  3.560988E+04 -9.661868E+04
        15   4 -7.183199E+06 -1.101787E+06 -3.961848E+03 -2.834105E+06  1.305800E+04 -7.909847E+04
        15   5 -7.470266E+06 -9.463859E+05 -2.367931E+04 -2.641637E+06  2.838014E+04 -9.697632E+04
        15   6 -7.183619E+06 -1.117773E+06  1.207510E+03 -2.827848E+06  3.723189E+04 -9.609300E+04
        15   7 -1.262032E+07 -3.082887E+06 -1.491124E+06 -4.215145E+06  6.508363E+03 -8.145190E+04
        15   8 -1.319173E+07 -3.070681E+06 -1.594398E+06 -4.137835E+06  2.592604E+04 -9.793388E+04
        15   9 -1.319117E+07 -3.387251E+06 -1.656453E+06 -4.439535E+06  3.883690E+04 -9.557425E+04
        15  10 -1.717440E+06  8.804634E+05  1.480506E+06 -1.442077E+06  5.214048E-10  4.326614E-09
        15  11 -1.716987E+06  1.179439E+06  1.544023E+06 -1.132842E+06 -2.403029E-09  1.003317E-08
        15  12 -1.140929E+06  1.153663E+06  1.655508E+06 -1.201839E+06  7.946739E-10 -1.005133E-09
        15  13 -7.183201E+06 -1.101794E+06 -3.973888E+03 -2.834104E+06 -8.937041E-10  4.400894E-09
        15  14 -7.470269E+06 -9.463962E+05 -2.369842E+04 -2.641635E+06  8.530122E-09  6.488298E-09
        15  15 -7.183623E+06 -1.117783E+06  1.187631E+03 -2.827845E+06 -9.700194E-10 -3.537020E-09
        15  16 -1.262032E+07 -3.082894E+06 -1.491136E+06 -4.215145E+06  6.101842E-09 -1.801252E-09
        15  17 -1.319173E+07 -3.070691E+06 -1.594417E+06 -4.137833E+06 -1.277002E-08  4.776834E-09
        15  18 -1.319117E+07 -3.387262E+06 -1.656473E+06 -4.439532E+06 -1.443916E-09  4.064362E-10
        15  19 -1.717438E+06  8.804698E+05  1.480518E+06 -1.442078E+06 -1.967209E+04  7.672282E+04
        15  20 -1.716984E+06  1.179449E+06  1.544042E+06 -1.132845E+06 -3.086013E+04  9.600993E+04
        15  21 -1.140925E+06  1.153673E+06  1.655528E+06 -1.201841E+06 -3.560988E+04  9.661868E+04
        15  22 -7.183199E+06 -1.101787E+06 -3.961848E+03 -2.834105E+06 -1.305800E+04  7.909847E+04
        15  23 -7.470266E+06 -9.463859E+05 -2.367931E+04 -2.641637E+06 -2.838014E+04  9.697632E+04
        15  24 -7.183619E+06 -1.117773E+06  1.207510E+03 -2.827848E+06 -3.723189E+04  9.609300E+04
        15  25 -1.262032E+07 -3.082887E+06 -1.491124E+06 -4.215145E+06 -6.508363E+03  8.145190E+04
        15  26 -1.319173E+07 -3.070681E+06 -1.594398E+06 -4.137835E+06 -2.592604E+04  9.793388E+04
        15  27 -1.319117E+07 -3.387251E+06 -1.656453E+06 -4.439535E+06 -3.883690E+04  9.557425E+04
        16   1 -1.143761E+06  1.382541E+06  1.700776E+06 -9.661625E+05  3.690998E+04 -9.721352E+04
        16   2 -1.377682E+06  1.145159E+06  1.605190E+06 -1.208705E+06  4.105642E+04 -9.645569E+04
        16   3 -1.698501E+06  1.269340E+06  1.562445E+06 -1.039678E+06  3.755754E+04 -7.663124E+04
        16   4 -7.331602E+06 -9.641246E+05  2.504440E+03 -2.652690E+06  3.464000E+04 -9.814918E+04
        16   5 -7.286520E+06 -1.137884E+06 -2.457440E+04 -2.861293E+06  4.302684E+04 -9.576861E+04
        16   6 -7.330825E+06 -9.517812E+05 -2.304957E+03 -2.658237E+06  4.373525E+04 -7.423142E+04
        16   7 -1.348253E+07 -3.308591E+06 -1.699284E+06 -4.323988E+06  3.239565E+04 -9.907586E+04
        16   8 -1.316161E+07 -3.418633E+06 -1.657579E+06 -4.499543E+06  4.497665E+04 -9.509012E+04
        16   9 -1.293242E+07 -3.170534E+06 -1.570042E+06 -4.263338E+06  4.985016E+04 -7.185712E+04
        16  10 -1.143765E+06  1.382530E+06  1.700756E+06 -9.661597E+05 -2.139167E-09 -1.101305E-08
        16  11 -1.377686E+06  1.145149E+06  1.605169E+06 -1.208702E+06 -1.195035E-08  4.503533E-09
        16  12 -1.698504E+06  1.269333E+06  1.562432E+06 -1.039676E+06 -2.946049E-09 -1.327253E-09
        16  13 -7.331605E+06 -9.641352E+05  2.484162E+03 -2.652687E+06  8.789785E-10 -2.665256E-09
        16  14 -7.286524E+06 -1.137895E+06 -2.459503E+04 -2.861290E+06  4.801046E-09  4.690840E-09
        16  15 -7.330828E+06 -9.517876E+05 -2.318860E+03 -2.658234E+06 -2.409658E-09 -5.271025E-09
        16  16 -1.348253E+07 -3.308602E+06 -1.699304E+06 -4.323985E+06  5.126207E-09  3.851072E-09
        16  17 -1.316161E+07 -3.418643E+06 -1.657600E+06 -4.499540E+06  4.013315E-09  7.363805E-09
        16  18 -1.293242E+07 -3.170541E+06 -1.570056E+06 -4.263335E+06  8.857013E-10  1.228493E-09
        16  19 -1.143761E+06  1.382541E+06  1.700776E+06 -9.661625E+05 -3.690998E+04  9.721352E+04
        16  20 -1.377682E+06  1.145159E+06  1.605190E+06 -1.208705E+06 -4.105642E+04  9.645569E+04
        16  21 -1.698501E+06  1.269340E+06  1.562445E+06 -1.039678E+06 -3.755754E+04  7.663124E+04
        16  22 -7.331602E+06 -9.641246E+05  2.504440E+03 -2.652690E+06 -3.464000E+04  9.814918E+04
        16  23 -7.286520E+06 -1.137884E+06 -2.457440E+04 -2.861293E+06 -4.302684E+04  9.576861E+04
        16  24 -7.330825E+06 -9.517812E+05 -2.304957E+03 -2.658237E+06 -4.373525E+04  7.423142E+04
        16  25 -1.348253E+07 -3.308591E+06 -1.699284E+06 -4.323988E+06 -3.239565E+04  9.907586E+04
        16  26 -1.316161E+07 -3.418633E+06 -1.657579E+06 -4.499543E+06 -4.497665E+04  9.509012E+04
        16  27 -1.293242E+07 -3.170534E+06 -1.570042E+06 -4.263338E+06 -4.985016E+04  7.185712E+04
        17   1 -4.025337E+06  5.244213E+05  9.438146E+05 -1.541658E+06  3.492069E+04 -6.245885E+04
        17   2 -4.278407E+06 -1.445256E+05  7.473544E+05 -2.181580E+06  4.169304E+04 -3.695548E+04
        17   3 -5.364349E+06  1.817168E+04  5.400006E+05 -1.907744E+06  4.494423E+04 -3.670164E+03
        17   4 -7.490290E+06 -8.488514E+05 -1.857246E+04 -2.542917E+06  3.838195E+04 -6.109414E+04
        17   5 -7.074118E+06 -1.264598E+06 -3.297007E+04 -3.000166E+06  4.683778E+04 -3.487604E+04
        17   6 -7.492090E+06 -8.490325E+05 -5.967368E+04 -2.543543E+06  5.178204E+04 -8.505539E+02
        17   7 -1.094356E+07 -2.221202E+06 -9.820894E+05 -3.539039E+06  4.182142E+04 -5.973830E+04
        17   8 -9.862214E+06 -2.384028E+06 -8.140361E+05 -3.815345E+06  5.195615E+04 -3.280740E+04
        17   9 -9.615413E+06 -1.715830E+06 -6.597842E+05 -3.177318E+06  5.859305E+04  1.957835E+03
        17  10 -4.025339E+06  5.244168E+05  9.438050E+05 -1.541656E+06 -1.253228E-09 -3.551616E-09
        17  11 -4.278409E+06 -1.445275E+05  7.473486E+05 -2.181578E+06  4.868731E-09  1.102656E-08
        17  12 -5.364351E+06  1.817112E+04  5.399968E+05 -1.907744E+06  1.303342E-09 -2.024033E-09
        17  13 -7.490292E+06 -8.488558E+05 -1.858221E+04 -2.542915E+06  5.704827E-09 -1.388600E-08
        17  14 -7.074121E+06 -1.264600E+06 -3.297649E+04 -3.000164E+06 -7.670819E-10  1.390281E-08
        17  15 -7.492093E+06 -8.490333E+05 -5.967878E+04 -2.543543E+06  2.088052E-09  4.503193E-10
        17  16 -1.094356E+07 -2.221207E+06 -9.820994E+05 -3.539037E+06  5.289640E-09 -9.749506E-09
        17  17 -9.862217E+06 -2.384030E+06 -8.140432E+05 -3.815344E+06 -3.430891E-09 -1.293360E-08
        17  18 -9.615417E+06 -1.715830E+06 -6.597907E+05 -3.177318E+06  1.592146E-09 -2.127034E-09
        17  19 -4.025337E+06  5.244213E+05  9.438146E+05 -1.541658E+06 -3.492069E+04  6.245885E+04
        17  20 -4.278407E+06 -1.445256E+05  7.473544E+05 -2.181580E+06 -4.169304E+04  3.695548E+04
        17  21 -5.364349E+06  1.817168E+04  5.400006E+05 -1.907744E+06 -4.494423E+04  3.670164E+03
        17  22 -7.490290E+06 -8.488514E+05 -1.857246E+04 -2.542917E+06 -3.838195E+04  6.109414E+04
        17  23 -7.074118E+06 -1.264598E+06 -3.297007E+04 -3.000166E+06 -4.683778E+04  3.487604E+04
        17  24 -7.492090E+06 -8.490325E+05 -5.967368E+04 -2.543543E+06 -5.178204E+04  8.505539E+02
        17  25 -1.094356E+07 -2.221202E+06 -9.820894E+05 -3.539039E+06 -4.182142E+04  5.973830E+04
        17  26 -9.862214E+06 -2.384028E+06 -8.140361E+05 -3.815345E+06 -5.195615E+04  3.280740E+04
        17  27 -9.615413E+06 -1.715830E+06 -6.597842E+05 -3.177318E+06 -5.859305E+04 -1.957835E+03
        18   1 -8.616470E+06 -1.276700E+06 -3.915699E+05 -2.883048E+06  4.509395E+04  2.104752E+04
        18   2 -8.845195E+06 -1.977519E+06 -6.391192E+05 -3.547347E+06  1.054930E+05  8.021673E+04
        18   3 -1.007573E+07 -1.958095E+06 -9.961720E+05 -3.202492E+06  1.728053E+05  1.227488E+05
        18   4 -7.518527E+06 -8.171708E+05 -7.788390E+04 -2.544934E+06  5.353741E+04  2.454225E+04
        18   5 -7.030100E+06 -1.251837E+06 -1.317667E+05 -3.019044E+06  1.104555E+05  8.224164E+04
        18   6 -7.542678E+06 -9.652858E+05 -2.919365E+05 -2.484423E+06  1.743712E+05  1.233621E+05
        18   7 -6.419402E+06 -3.575149E+05  2.356837E+05 -2.206255E+06  6.199778E+04  2.804440E+04
        18   8 -5.211779E+06 -5.258911E+05  3.752729E+05 -2.489309E+06  1.154339E+05  8.427299E+04
        18   9 -5.003349E+06  2.796644E+04  4.116958E+05 -1.763666E+06  1.759427E+05  1.239775E+05
        18  10 -8.616473E+06 -1.276701E+06 -3.915746E+05 -2.883049E+06  1.140035E-09 -1.279939E-09
        18  11 -8.845209E+06 -1.977529E+06 -6.391527E+05 -3.547354E+06 -1.331853E-09 -2.909660E-08
        18  12 -1.007576E+07 -1.958119E+06 -9.962578E+05 -3.202510E+06 -1.177945E-08 -1.061383E-09
        18  13 -7.518530E+06 -8.171723E+05 -7.789051E+04 -2.544935E+06 -3.804202E-11 -9.356222E-09
        18  14 -7.030115E+06 -1.251848E+06 -1.318028E+05 -3.019051E+06 -6.408950E-10 -3.712655E-09
        18  15 -7.542715E+06 -9.653106E+05 -2.920232E+05 -2.484441E+06  6.776095E-10 -7.010689E-09
        18  16 -6.419407E+06 -3.575168E+05  2.356749E+05 -2.206256E+06 -2.119152E-09  1.909984E-08
        18  17 -5.211796E+06 -5.259024E+05  3.752341E+05 -2.489317E+06  3.223554E-09 -4.009815E-09
        18  18 -5.003387E+06  2.794149E+04  4.116080E+05 -1.763683E+06  1.245847E-08 -9.813662E-09
        18  19 -8.616470E+06 -1.276700E+06 -3.915699E+05 -2.883048E+06 -4.509395E+04 -2.104752E+04
        18  20 -8.845195E+06 -1.977519E+06 -6.391192E+05 -3.547347E+06 -1.054930E+05 -8.021673E+04
        18  21 -1.007573E+07 -1.958095E+06 -9.961720E+05 -3.202492E+06 -1.728053E+05 -1.227488E+05
        18  22 -7.518527E+06 -8.171708E+05 -7.788390E+04 -2.544934E+06 -5.353741E+04 -2.454225E+04
        18  23 -7.030100E+06 -1.251837E+06 -1.317667E+05 -3.019044E+06 -1.104555E+05 -8.224164E+04
        18  24 -7.542678E+06 -9.652858E+05 -2.919365E+05 -2.484423E+06 -1.743712E+05 -1.233621E+05
        18  25 -6.419402E+06 -3.575149E+05  2.356837E+05 -2.206255E+06 -6.199778E+04 -2.804440E+04
        18  26 -5.211779E+06 -5.258911E+05  3.752729E+05 -2.489309E+06 -1.154339E+05 -8.427299E+04
        18  27 -5.003349E+06  2.796644E+04  4.116958E+05 -1.763666E+06 -1.759427E+05 -1.239775E+05
        19   1 -1.244287E+07 -2.965846E+06 -1.760045E+06 -4.193870E+06  1.959113E+05  1.624104E+05
        19   2 -1.256500E+07 -3.057627E+06 -2.087686E+06 -4.444249E+06  5.158416E+05  3.197131E+05
        19   3 -1.351345E+07 -4.004597E+06 -2.991484E+06 -3.788105E+06  8.743537E+05  3.777924E+05
        19   4 -7.442388E+06 -8.944709E+05 -3.425047E+05 -2.674291E+06  2.138359E+05  1.696187E+05
        19   5 -7.107213E+06 -9.586767E+05 -5.765286E+05 -2.940134E+06  5.146730E+05  3.191352E+05
        19   6 -7.588696E+06 -1.866241E+06 -1.366776E+06 -2.300835E+06  8.542208E+05  3.697660E+05
        19   7 -2.417352E+06  1.179447E+06  1.072599E+06 -1.143107E+06  2.319162E+05  1.768952E+05
        19   8 -1.620301E+06  1.142090E+06  9.318489E+05 -1.423890E+06  5.134702E+05  3.185450E+05
        19   9 -1.629798E+06  2.731800E+05  2.547447E+05 -8.009794E+05  8.338298E+05  3.616556E+05
        19  10 -1.244292E+07 -2.965885E+06 -1.760169E+06 -4.193896E+06 -4.711073E-09 -6.145550E-10
        19  11 -1.256532E+07 -3.057812E+06 -2.088394E+06 -4.444384E+06  3.173953E-09 -8.408867E-10
        19  12 -1.351432E+07 -4.004964E+06 -2.993230E+06 -3.788375E+06  4.418610E-10  8.142505E-14
        19  13 -7.442446E+06 -8.945145E+05 -3.426464E+05 -2.674320E+06  5.993128E-09 -9.794682E-10
        19  14 -7.107528E+06 -9.588592E+05 -5.772268E+05 -2.940267E+06 -4.354246E-09  1.417428E-08
        19  15 -7.589525E+06 -1.866589E+06 -1.368426E+06 -2.301092E+06 -1.988969E-09 -1.387361E-09
        19  16 -2.417418E+06  1.179399E+06  1.072438E+06 -1.143140E+06  1.045750E-08 -5.121838E-09
        19  17 -1.620613E+06  1.141910E+06  9.311601E+05 -1.424022E+06  5.419832E-09  1.241474E-08
        19  18 -1.630582E+06  2.728518E+05  2.531873E+05 -8.012226E+05 -4.121470E-09  3.247532E-09
        19  19 -1.244287E+07 -2.965846E+06 -1.760045E+06 -4.193870E+06 -1.959113E+05 -1.624104E+05
        19  20 -1.256500E+07 -3.057627E+06 -2.087686E+06 -4.444249E+06 -5.158416E+05 -3.197131E+05
        19  21 -1.351345E+07 -4.004597E+06 -2.991484E+06 -3.788105E+06 -8.743537E+05 -3.777924E+05
        19  22 -7.442388E+06 -8.944709E+05 -3.425047E+05 -2.674291E+06 -2.138359E+05 -1.696187E+05
        19  23 -7.107213E+06 -9.586767E+05 -5.765286E+05 -2.940134E+06 -5.146730E+05 -3.191352E+05
        19  24 -7.588696E+06 -1.866241E+06 -1.366776E+06 -2.300835E+06 -8.542208E+05 -3.697660E+05
        19  25 -2.417352E+06  1.179447E+06  1.072599E+06 -1.143107E+06 -2.319162E+05 -1.768952E+05
        19  26 -1.620301E+06  1.142090E+06  9.318489E+05 -1.423890E+06 -5.134702E+05 -3.185450E+05
        19  27 -1.629798E+06  2.731800E+05  2.547447E+05 -8.009794E+05 -8.338298E+05 -3.616556E+05
        20   1 -9.472695E+04 -2.151864E+06 -1.622968E+05  4.453225E+04  5.882395E+02 -1.833655E+05
        20   2  1.562582E+05 -2.152240E+06 -1.824922E+04  4.810013E+03  1.634695E+03 -1.167141E+05
        20   3  1.146173E+05 -2.142281E+06  2.766739E+04  3.590197E+04  1.056956E+03 -5.007895E+04
        20   4 -2.012558E+05 -2.576892E+06 -2.688346E+05  4.142370E+04  5.892539E+02 -1.833253E+05
        20   5  4.859866E+04 -2.581758E+06 -1.259023E+05  6.207295E+03  1.634619E+03 -1.166751E+05
        20   6  5.692201E+03 -2.576377E+06 -8.115968E+04  4.180806E+04  1.056360E+03 -5.004151E+04
        20   7 -3.077983E+05 -3.001755E+06 -3.753862E+05  3.831734E+04  5.902685E+02 -1.832852E+05
        20   8 -5.907493E+04 -3.011107E+06 -2.335693E+05  7.603897E+03  1.634542E+03 -1.166360E+05
        20   9 -1.032471E+05 -3.010301E+06 -1.900011E+05  4.771054E+04  1.055763E+03 -5.000408E+04
        20  10 -9.473602E+04 -2.151900E+06 -1.623603E+05  4.453233E+04 -2.958544E-09 -2.141715E-10
        20  11  1.562546E+05 -2.152255E+06 -1.827491E+04  4.810167E+03 -8.107881E-09  4.686588E-09
        20  12  1.146166E+05 -2.142284E+06  2.766265E+04  3.590201E+04 -3.301017E-09 -2.304689E-09
        20  13 -2.012649E+05 -2.576928E+06 -2.688981E+05  4.142378E+04  2.968982E-09 -5.142217E-10
        20  14  4.859498E+04 -2.581772E+06 -1.259280E+05  6.207448E+03  7.647277E-09 -1.902253E-09
        20  15  5.691525E+03 -2.576379E+06 -8.116441E+04  4.180810E+04  5.213716E-09 -4.195222E-09
        20  16 -3.078074E+05 -3.001791E+06 -3.754496E+05  3.831742E+04  7.771665E-09 -3.425516E-11
        20  17 -5.907860E+04 -3.011122E+06 -2.335950E+05  7.604051E+03  3.394225E-09  4.573931E-09
        20  18 -1.032478E+05 -3.010304E+06 -1.900058E+05  4.771058E+04  3.737312E-09  3.648296E-10
        20  19 -9.472695E+04 -2.151864E+06 -1.622968E+05  4.453225E+04 -5.882395E+02  1.833655E+05
        20  20  1.562582E+05 -2.152240E+06 -1.824922E+04  4.810013E+03 -1.634695E+03  1.167141E+05
        20  21  1.146173E+05 -2.142281E+06  2.766739E+04  3.590197E+04 -1.056956E+03  5.007895E+04
        20  22 -2.012558E+05 -2.576892E+06 -2.688346E+05  4.142370E+04 -5.892539E+02  1.833253E+05
        20  23  4.859866E+04 -2.581758E+06 -1.259023E+05  6.207295E+03 -1.634619E+03  1.166751E+05
        20  24  5.692201E+03 -2.576377E+06 -8.115968E+04  4.180806E+04 -1.056360E+03  5.004151E+04
        20  25 -3.077983E+05 -3.001755E+06 -3.753862E+05  3.831734E+04 -5.902685E+02  1.832852E+05
        20  26 -5.907493E+04 -3.011107E+06 -2.335693E+05  7.603897E+03 -1.634542E+03  1.166360E+05
        20  27 -1.032471E+05 -3.010301E+06 -1.900011E+05  4.771054E+04 -1.055763E+03  5.000408E+04
        21   1 -6.035932E+04 -2.686692E+06 -1.018009E+05  1.554547E+04  5.311258E+02 -3.639196E+04
        21   2 -1.355639E+04 -2.680077E+06 -7.650723E+04  4.150679E+04 -8.689714E+01 -1.024287E+04
        21   3 -4.863077E+04 -2.693365E+06 -8.795862E+04  1.419147E+04 -3.625511E+02  1.591059E+04
        21   4 -3.437284E+04 -2.583229E+06 -7.584910E+04  1.371623E+04  5.310874E+02 -3.638585E+04
        21   5  1.324561E+04 -2.573245E+06 -4.972052E+04  4.047323E+04 -8.691586E+01 -1.024109E+04
        21   6 -2.100442E+04 -2.583159E+06 -6.032949E+04  1.395422E+04 -3.625056E+02  1.590819E+04
        21   7 -8.387177E+03 -2.479757E+06 -4.989807E+04  1.188670E+04  5.310490E+02 -3.637973E+04
        21   8  4.004674E+04 -2.466403E+06 -2.293467E+04  3.943953E+04 -8.693459E+01 -1.023931E+04
        21   9  6.621009E+03 -2.472942E+06 -3.270129E+04  1.371696E+04 -3.624600E+02  1.590578E+04
        21  10 -6.035968E+04 -2.686694E+06 -1.018034E+05  1.554549E+04 -1.675634E-09 -2.098325E-09
        21  11 -1.355641E+04 -2.680077E+06 -7.650743E+04  4.150678E+04 -1.245899E-08  9.297290E-09
        21  12 -4.863084E+04 -2.693366E+06 -8.795909E+04  1.419148E+04 -2.008093E-09 -1.583253E-09
        21  13 -3.437320E+04 -2.583231E+06 -7.585160E+04  1.371624E+04 -2.714434E-09 -3.743526E-09
        21  14  1.324558E+04 -2.573245E+06 -4.972071E+04  4.047323E+04 -1.180691E-08 -3.281357E-09
        21  15 -2.100449E+04 -2.583159E+06 -6.032997E+04  1.395423E+04 -2.584951E-09 -3.817375E-09
        21  16 -8.387534E+03 -2.479758E+06 -4.990056E+04  1.188672E+04  4.629562E-10  1.986737E-10
        21  17  4.004671E+04 -2.466403E+06 -2.293487E+04  3.943953E+04 -2.087680E-08  7.039058E-09
        21  18  6.620941E+03 -2.472942E+06 -3.270176E+04  1.371696E+04 -2.867083E-09  2.836123E-11
        21  19 -6.035932E+04 -2.686692E+06 -1.018009E+05  1.554547E+04 -5.311258E+02  3.639196E+04
        21  20 -1.355639E+04 -2.680077E+06 -7.650723E+04  4.150679E+04  8.689714E+01  1.024287E+04
        21  21 -4.863077E+04 -2.693365E+06 -8.795862E+04  1.419147E+04  3.625511E+02 -1.591059E+04
        21  22 -3.437284E+04 -2.583229E+06 -7.584910E+04  1.371623E+04 -5.310874E+02  3.638585E+04
        21  23  1.324561E+04 -2.573245E+06 -4.972052E+04  4.047323E+04  8.691586E+01  1.024109E+04
        21  24 -2.100442E+04 -2.583159E+06 -6.032949E+04  1.395422E+04  3.625056E+02 -1.590819E+04
        21  25 -8.387177E+03 -2.479757E+06 -4.989807E+04  1.188670E+04 -5.310490E+02  3.637973E+04
        21  26  4.004674E+04 -2.466403E+06 -2.293467E+04  3.943953E+04  8.693459E+01  1.023931E+04
        21  27  6.621009E+03 -2.472942E+06 -3.270129E+04  1.371696E+04  3.624600E+02 -1.590578E+04
        22   1 -4.623230E+04 -2.766901E+06 -1.095647E+05  4.070800E+04 -4.872145E+02  2.712387E+04
        22   2 -9.369461E+03 -2.742524E+06 -1.286700E+05  1.106595E+04 -8.839884E+02  7.294703E+04
        22   3 -1.812204E+05 -2.760159E+06 -2.266278E+05  3.569027E+04 -7.597190E+02  1.187747E+05
        22   4 -1.332499E+03 -2.588022E+06 -6.470428E+04  3.812722E+04 -4.873666E+02  2.713411E+04
        22   5  3.460025E+04 -2.567153E+06 -8.470133E+04  1.062681E+04 -8.839857E+02  7.295617E+04
        22   6 -1.381476E+05 -2.588278E+06 -1.835336E+05  3.739181E+04 -7.592988E+02  1.187825E+05
        22   7  4.356489E+04 -2.409114E+06 -1.984630E+04  3.554576E+04 -4.875187E+02  2.714434E+04
        22   8  7.856762E+04 -2.391754E+06 -4.073498E+04  1.018759E+04 -8.839831E+02  7.296530E+04
        22   9 -9.507698E+04 -2.416369E+06 -1.404417E+05  3.909386E+04 -7.588787E+02  1.187903E+05
        22  10 -4.623250E+04 -2.766901E+06 -1.095661E+05  4.070801E+04  3.107027E-09 -1.964739E-09
        22  11 -9.370898E+03 -2.742530E+06 -1.286801E+05  1.106600E+04 -1.084236E-08  5.458846E-09
        22  12 -1.812242E+05 -2.760174E+06 -2.266544E+05  3.569034E+04 -3.330490E-09 -1.538790E-10
        22  13 -1.332698E+03 -2.588023E+06 -6.470567E+04  3.812723E+04 -9.252064E-10 -2.620383E-09
        22  14  3.459881E+04 -2.567159E+06 -8.471138E+04  1.062686E+04 -3.575775E-10 -2.211889E-09
        22  15 -1.381514E+05 -2.588293E+06 -1.835602E+05  3.739188E+04 -4.574788E-09 -1.924703E-09
        22  16  4.356469E+04 -2.409115E+06 -1.984769E+04  3.554577E+04  2.576669E-09  6.812824E-10
        22  17  7.856619E+04 -2.391760E+06 -4.074502E+04  1.018764E+04 -8.047393E-09  4.612847E-09
        22  18 -9.508079E+04 -2.416385E+06 -1.404683E+05  3.909394E+04  4.807960E-09 -7.174726E-10
        22  19 -4.623230E+04 -2.766901E+06 -1.095647E+05  4.070800E+04  4.872145E+02 -2.712387E+04
        22  20 -9.369461E+03 -2.742524E+06 -1.286700E+05  1.106595E+04  8.839884E+02 -7.294703E+04
        22  21 -1.812204E+05 -2.760159E+06 -2.266278E+05  3.569027E+04  7.597190E+02 -1.187747E+05
        22  22 -1.332499E+03 -2.588022E+06 -6.470428E+04  3.812722E+04  4.873666E+02 -2.713411E+04
        22  23  3.460025E+04 -2.567153E+06 -8.470133E+04  1.062681E+04  8.839857E+02 -7.295617E+04
        22  24 -1.381476E+05 -2.588278E+06 -1.835336E+05  3.739181E+04  7.592988E+02 -1.187825E+05
        22  25  4.356489E+04 -2.409114E+06 -1.984630E+04  3.554576E+04  4.875187E+02 -2.714434E+04
        22  26  7.856762E+04 -2.391754E+06 -4.073498E+04  1.018759E+04  8.839831E+02 -7.296530E+04
        22  27 -9.507698E+04 -2.416369E+06 -1.404417E+05  3.909386E+04  7.588787E+02 -1.187903E+05
        23   1  1.539038E+05 -7.267780E+05  1.485929E+05 -3.047545E+02  2.124155E+04 -5.849969E+01
        23   2  1.534610E+05 -7.285783E+05  1.483388E+05  9.746490E+01  2.120172E+04 -5.527198E+02
        23   3  1.533297E+05 -7.298767E+05  1.485611E+05 -5.690366E+02  2.105048E+04 -1.047097E+03
        23   4 -5.791433E+01 -1.348032E+06  7.382495E+02 -2.375415E+02  2.124297E+04 -6.718202E+01
        23   5 -1.146449E+02 -1.348277E+06  8.587518E+02  2.969251E+02  2.120312E+04 -4.995555E+02
        23   6  1.293708E+02 -1.348031E+06  1.412908E+03 -2.373902E+02  2.105179E+04 -9.320864E+02
        23   7 -1.540475E+05 -1.968931E+06 -1.471435E+05 -1.703872E+02  2.124440E+04 -7.585565E+01
        23   8 -1.537180E+05 -1.967623E+06 -1.466482E+05  4.962236E+02  2.120451E+04 -4.464438E+02
        23   9 -1.530985E+05 -1.965835E+06 -1.457621E+05  9.399228E+01  2.105310E+04 -8.171894E+02
        23  10  1.539033E+05 -7.267781E+05  1.485921E+05 -3.047535E+02  1.828245E-09 -6.515406E-09
        23  11  1.534605E+05 -7.285784E+05  1.483380E+05  9.747434E+01 -7.121082E-10  1.410732E-09
        23  12  1.533292E+05 -7.298769E+05  1.485603E+05 -5.690188E+02 -4.148433E-09  8.360565E-09
        23  13 -5.839860E+01 -1.348032E+06  7.374021E+02 -2.375403E+02 -3.074241E-10  4.177942E-11
        23  14 -1.151275E+02 -1.348277E+06  8.579070E+02  2.969337E+02  3.968352E-09 -2.635645E-10
        23  15  1.288949E+02 -1.348032E+06  1.412074E+03 -2.373744E+02 -6.945098E-10 -2.520109E-11
        23  16 -1.540480E+05 -1.968931E+06 -1.471443E+05 -1.703859E+02 -1.450634E-09  6.277987E-09
        23  17 -1.537185E+05 -1.967623E+06 -1.466491E+05  4.962312E+02  3.351683E-09 -2.124370E-09
        23  18 -1.530990E+05 -1.965835E+06 -1.457629E+05  9.400615E+01  4.594780E-09 -8.986830E-09
        23  19  1.539038E+05 -7.267780E+05  1.485929E+05 -3.047545E+02 -2.124155E+04  5.849969E+01
        23  20  1.534610E+05 -7.285783E+05  1.483388E+05  9.746490E+01 -2.120172E+04  5.527198E+02
        23  21  1.533297E+05 -7.298767E+05  1.485611E+05 -5.690366E+02 -2.105048E+04  1.047097E+03
        23  22 -5.791433E+01 -1.348032E+06  7.382495E+02 -2.375415E+02 -2.124297E+04  6.718202E+01
        23  23 -1.146449E+02 -1.348277E+06  8.587518E+02  2.969251E+02 -2.120312E+04  4.995555E+02
        23  24  1.293708E+02 -1.348031E+06  1.412908E+03 -2.373902E+02 -2.105179E+04  9.320864E+02
        23  25 -1.540475E+05 -1.968931E+06 -1.471435E+05 -1.703872E+02 -2.124440E+04  7.585565E+01
        23  26 -1.537180E+05 -1.967623E+06 -1.466482E+05  4.962236E+02 -2.120451E+04  4.464438E+02
        23  27 -1.530985E+05 -1.965835E+06 -1.457621E+05  9.399228E+01 -2.105310E+04  8.171894E+02
        24   1  1.520842E+05 -7.335148E+05  1.479410E+05 -1.445403E+03  2.108961E+04 -1.089138E+03
        24   2  1.507517E+05 -7.387541E+05  1.479317E+05  4.383130E+02  2.086856E+04 -3.037525E+03
        24   3  1.519844E+05 -7.427593E+05  1.499054E+05 -8.621173E+02  1.974788E+04 -4.987639E+03
        24   4 -1.673065E+02 -1.347884E+06  1.753628E+03 -7.085142E+02  2.109113E+04 -1.213414E+03
        24   5 -3.475993E+02 -1.348457E+06  2.831583E+03  8.852453E+02  2.086945E+04 -2.664285E+03
        24   6  1.952052E+03 -1.347881E+06  5.547695E+03 -7.053336E+02  1.974774E+04 -4.116896E+03
        24   7 -1.524460E+05 -1.961907E+06 -1.444602E+05  2.772573E+01  2.109265E+04 -1.337568E+03
        24   8 -1.514737E+05 -1.957818E+06 -1.422946E+05  1.331847E+03  2.087033E+04 -2.291409E+03
        24   9 -1.481068E+05 -1.952666E+06 -1.388358E+05 -5.485656E+02  1.974759E+04 -3.246997E+03
        24  10  1.520837E+05 -7.335149E+05  1.479402E+05 -1.445385E+03 -8.408835E-09 -3.042103E-09
        24  11  1.507512E+05 -7.387542E+05  1.479309E+05  4.383641E+02 -6.618360E-10 -2.323176E-09
        24  12  1.519840E+05 -7.427594E+05  1.499046E+05 -8.620379E+02  1.798935E-09 -6.717200E-10
        24  13 -1.677843E+02 -1.347885E+06  1.752789E+03 -7.084935E+02 -4.768975E-09 -1.622254E-11
        24  14 -3.480686E+02 -1.348457E+06  2.830752E+03  8.852901E+02 -1.720537E-09 -7.401424E-10
        24  15  1.951629E+03 -1.347881E+06  5.546931E+03 -7.052681E+02  1.583827E-09 -2.436401E-10
        24  16 -1.524465E+05 -1.961907E+06 -1.444610E+05  2.774847E+01  3.730326E-09  2.215519E-09
        24  17 -1.514742E+05 -1.957818E+06 -1.422954E+05  1.331886E+03 -4.281183E-10  2.139968E-10
        24  18 -1.481073E+05 -1.952666E+06 -1.388365E+05 -5.485139E+02 -6.987117E-10 -6.909663E-10
        24  19  1.520842E+05 -7.335148E+05  1.479410E+05 -1.445403E+03 -2.108961E+04  1.089138E+03
        24  20  1.507517E+05 -7.387541E+05  1.479317E+05  4.383130E+02 -2.086856E+04  3.037525E+03
        24  21  1.519844E+05 -7.427593E+05  1.499054E+05 -8.621173E+02 -1.974788E+04  4.987639E+03
        24  22 -1.673065E+02 -1.347884E+06  1.753628E+03 -7.085142E+02 -2.109113E+04  1.213414E+03
        24  23 -3.475993E+02 -1.348457E+06  2.831583E+03  8.852453E+02 -2.086945E+04  2.664285E+03
        24  24  1.952052E+03 -1.347881E+06  5.547695E+03 -7.053336E+02 -1.974774E+04  4.116896E+03
        24  25 -1.524460E+05 -1.961907E+06 -1.444602E+05  2.772573E+01 -2.109265E+04  1.337568E+03
        24  26 -1.514737E+05 -1.957818E+06 -1.422946E+05  1.331847E+03 -2.087033E+04  2.291409E+03
        24  27 -1.481068E+05 -1.952666E+06 -1.388358E+05 -5.485656E+02 -1.974759E+04  3.246997E+03
        25   1  1.469376E+05 -7.488311E+05  1.487193E+05 -4.876800E+03  2.133084E+04 -2.235712E+03
        25   2  1.434277E+05 -7.605302E+05  1.511357E+05  2.645806E+03  2.028540E+04 -1.513484E+04
        25   3  1.657728E+05 -7.637860E+05  1.684837E+05  4.635477E+03  6.491066E+03 -2.806630E+04
        25   4 -1.139611E+03 -1.346531E+06  6.785884E+03 -1.244272E+03  2.133761E+04 -5.158089E+03
        25   5 -2.678720E+03 -1.350136E+06  1.084575E+04  1.547578E+03  2.027781E+04 -1.102019E+04
        25   6  2.042654E+04 -1.346515E+06  2.495132E+04 -1.193847E+03  6.463935E+03 -1.691476E+04
        25   7 -1.492426E+05 -1.943903E+06 -1.351724E+05  2.384887E+03  2.134434E+04 -8.077662E+03
        25   8 -1.488103E+05 -1.939421E+06 -1.294685E+05  4.505705E+02  2.027021E+04 -6.909429E+03
        25   9 -1.249449E+05 -1.928933E+06 -1.186057E+05 -7.017492E+03  6.436583E+03 -5.773684E+03
        25  10  1.469371E+05 -7.488312E+05  1.487184E+05 -4.876761E+03 -2.265297E-09 -3.617278E-10
        25  11  1.434272E+05 -7.605306E+05  1.511345E+05  2.646053E+03  5.025090E-10 -1.742120E-09
        25  12  1.657726E+05 -7.637869E+05  1.684822E+05  4.635623E+03 -4.533705E-09 -3.918343E-09
        25  13 -1.140107E+03 -1.346531E+06  6.784979E+03 -1.244183E+03 -1.042355E-09  1.333552E-10
        25  14 -2.679194E+03 -1.350136E+06  1.084475E+04  1.547758E+03  2.238546E-09 -1.161452E-09
        25  15  2.042641E+04 -1.346515E+06  2.495070E+04 -1.193759E+03 -5.600861E-09 -2.326734E-10
        25  16 -1.492431E+05 -1.943903E+06 -1.351734E+05  2.385026E+03  3.140524E-09 -9.182775E-10
        25  17 -1.488107E+05 -1.939422E+06 -1.294694E+05  4.506834E+02 -4.945883E-09 -1.679843E-09
        25  18 -1.249449E+05 -1.928933E+06 -1.186059E+05 -7.017462E+03 -7.613722E-09  1.747959E-09
        25  19  1.469376E+05 -7.488311E+05  1.487193E+05 -4.876800E+03 -2.133084E+04  2.235712E+03
        25  20  1.434277E+05 -7.605302E+05  1.511357E+05  2.645806E+03 -2.028540E+04  1.513484E+04
        25  21  1.657728E+05 -7.637860E+05  1.684837E+05  4.635477E+03 -6.491066E+03  2.806630E+04
        25  22 -1.139611E+03 -1.346531E+06  6.785884E+03 -1.244272E+03 -2.133761E+04  5.158089E+03
        25  23 -2.678720E+03 -1.350136E+06  1.084575E+04  1.547578E+03 -2.027781E+04  1.102019E+04
        25  24  2.042654E+04 -1.346515E+06  2.495132E+04 -1.193847E+03 -6.463935E+03  1.691476E+04
        25  25 -1.492426E+05 -1.943903E+06 -1.351724E+05  2.384887E+03 -2.134434E+04  8.077662E+03
        25  26 -1.488103E+05 -1.939421E+06 -1.294685E+05  4.505705E+02 -2.027021E+04  6.909429E+03
        25  27 -1.249449E+05 -1.928933E+06 -1.186057E+05 -7.017492E+03 -6.436583E+03  5.773684E+03
        26   1  8.399913E+04  9.007704E+05  4.738227E+04 -5.908582E+00  2.932742E+04 -1.058813E+01
        26   2  8.402218E+04  9.007595E+05  4.750765E+04 -1.552729E+01  2.924831E+04 -3.810148E+02
        26   3  8.411237E+04  9.008210E+05  4.789309E+04 -3.257744E+01  2.901877E+04 -7.514718E+02
        26   4 -2.651025E+01  5.276960E+05  1.564582E+01 -1.651357E+00  2.932928E+04 -1.192084E+00
        26   5 -2.669555E+01  5.276911E+05  1.887046E+01  2.064793E+00  2.925014E+04 -1.015082E+01
        26   6 -2.241216E+01  5.276960E+05  3.140506E+01 -1.650375E+00  2.902052E+04 -1.913442E+01
        26   7 -8.405784E+04  1.547643E+05 -4.735148E+04  2.603661E+00  2.933114E+04  8.198595E+00
        26   8 -8.408127E+04  1.547654E+05 -4.747044E+04  1.964791E+01  2.925196E+04  3.605015E+02
        26   9 -8.416294E+04  1.547136E+05 -4.783091E+04  2.926096E+01  2.902227E+04  7.127847E+02
        26  10  8.399820E+04  9.007702E+05  4.738065E+04 -5.908332E+00 -5.832653E-09 -6.246004E-08
        26  11  8.402126E+04  9.007593E+05  4.750604E+04 -1.551832E+01 -2.794561E-09 -3.937103E-08
        26  12  8.411147E+04  9.008208E+05  4.789151E+04 -3.255989E+01  2.103822E-09 -1.319027E-08
        26  13 -2.743420E+01  5.276958E+05  1.402892E+01 -1.651328E+00 -2.421758E-08 -2.358070E-11
        26  14 -2.761451E+01  5.276909E+05  1.726227E+01  2.065033E+00 -2.254531E-09 -1.368776E-10
        26  15 -2.331675E+01  5.276958E+05  2.982203E+01 -1.649928E+00  1.684491E-09  1.296634E-10
        26  16 -8.405876E+04  1.547640E+05 -4.735310E+04  2.603468E+00 -2.624495E-09  6.234513E-08
        26  17 -8.408218E+04  1.547652E+05 -4.747205E+04  1.963941E+01 -3.463857E-09  3.929786E-08
        26  18 -8.416384E+04  1.547133E+05 -4.783250E+04  2.924430E+01 -2.416435E-09  1.317238E-08
        26  19  8.399913E+04  9.007704E+05  4.738227E+04 -5.908582E+00 -2.932742E+04  1.058813E+01
        26  20  8.402218E+04  9.007595E+05  4.750765E+04 -1.552729E+01 -2.924831E+04  3.810148E+02
        26  21  8.411237E+04  9.008210E+05  4.789309E+04 -3.257744E+01 -2.901877E+04  7.514718E+02
        26  22 -2.651025E+01  5.276960E+05  1.564582E+01 -1.651357E+00 -2.932928E+04  1.192084E+00
        26  23 -2.669555E+01  5.276911E+05  1.887046E+01  2.064793E+00 -2.925014E+04  1.015082E+01
        26  24 -2.241216E+01  5.276960E+05  3.140506E+01 -1.650375E+00 -2.902052E+04  1.913442E+01
        26  25 -8.405784E+04  1.547643E+05 -4.735148E+04  2.603662E+00 -2.933114E+04 -8.198595E+00
        26  26 -8.408127E+04  1.547654E+05 -4.747044E+04  1.964791E+01 -2.925196E+04 -3.605015E+02
        26  27 -8.416294E+04  1.547136E+05 -4.783091E+04  2.926096E+01 -2.902227E+04 -7.127847E+02
        27   1  8.418640E+04  9.009228E+05  4.816378E+04 -5.690957E+01  2.886752E+04 -8.350658E+02
        27   2  8.442763E+04  9.007869E+05  4.946280E+04 -1.624152E+01  2.803562E+04 -3.249163E+03
        27   3  8.510922E+04  9.010823E+05  5.244414E+04 -4.944621E+01  2.621361E+04 -5.663584E+03
        27   4 -2.059892E+01  5.276980E+05  4.078995E+01 -1.641821E+01  2.886923E+04 -2.486160E+01
        27   5 -7.981193E+00  5.276886E+05  7.069127E+01  2.052698E+01  2.803676E+04 -5.977921E+01
        27   6  3.243112E+01  5.276981E+05  1.324314E+02 -1.641072E+01  2.621389E+04 -9.501451E+01
        27   7 -8.423337E+04  1.546158E+05 -4.808290E+04  2.405235E+01  2.887093E+04  7.848796E+02
        27   8 -8.444948E+04  1.547324E+05 -4.932242E+04  5.727868E+01  2.803791E+04  3.127780E+03
        27   9 -8.505055E+04  1.544551E+05 -5.218096E+04  1.661199E+01  2.621417E+04  5.470357E+03
        27  10  8.418551E+04  9.009226E+05  4.816222E+04 -5.689016E+01 -1.125153E-09 -1.317739E-09
        27  11  8.442678E+04  9.007866E+05  4.946130E+04 -1.616818E+01  1.823840E-09 -2.805266E-09
        27  12  8.510847E+04  9.010820E+05  5.244278E+04 -4.932669E+01  4.019741E-09 -3.999813E-09
        27  13 -2.149410E+01  5.276978E+05  3.922338E+01 -1.641763E+01  2.043779E-09  1.463900E-10
        27  14 -8.825494E+00  5.276884E+05  6.921374E+01  2.052833E+01  7.544601E-10 -3.998423E-10
        27  15  3.169303E+01  5.276979E+05  1.311398E+02 -1.640872E+01  3.052102E-09  3.153782E-10
        27  16 -8.423426E+04  1.546155E+05 -4.808447E+04  2.403410E+01 -5.735462E-11  1.113125E-09
        27  17 -8.445033E+04  1.547321E+05 -4.932391E+04  5.720805E+01  3.319828E-09  2.632021E-09
        27  18 -8.505130E+04  1.544549E+05 -5.218231E+04  1.649649E+01  2.183186E-09  4.198105E-09
        27  19  8.418640E+04  9.009228E+05  4.816378E+04 -5.690957E+01 -2.886752E+04  8.350658E+02
        27  20  8.442763E+04  9.007869E+05  4.946280E+04 -1.624152E+01 -2.803562E+04  3.249163E+03
        27  21  8.510922E+04  9.010823E+05  5.244414E+04 -4.944621E+01 -2.621361E+04  5.663584E+03
        27  22 -2.059892E+01  5.276980E+05  4.078995E+01 -1.641821E+01 -2.886923E+04  2.486160E+01
        27  23 -7.981193E+00  5.276886E+05  7.069127E+01  2.052698E+01 -2.803676E+04  5.977921E+01
        27  24  3.243112E+01  5.276981E+05  1.324314E+02 -1.641072E+01 -2.621389E+04  9.501451E+01
        27  25 -8.423337E+04  1.546158E+05 -4.808290E+04  2.405235E+01 -2.887093E+04 -7.848796E+02
        27  26 -8.444948E+04  1.547324E+05 -4.932242E+04  5.727868E+01 -2.803791E+04 -3.127780E+03
        27  27 -8.505055E+04  1.544551E+05 -5.218096E+04  1.661199E+01 -2.621417E+04 -5.470357E+03
        28   1  8.563768E+04  9.016844E+05  5.443532E+04 -1.869203E+02  2.506225E+04 -6.268433E+03
        28   2  8.739165E+04  9.002850E+05  6.396268E+04  3.122990E+02  1.885091E+04 -2.400660E+04
        28   3  9.245138E+04  9.020252E+05  8.585504E+04  1.976940E+02  5.326666E+03 -4.174807E+04
        28   4  5.459416E+01  5.277146E+05  1.777244E+02 -1.365079E+02  2.506212E+04 -1.182036E+02
        28   5  2.032001E+02  5.276683E+05  3.273687E+02  1.706924E+02  1.884454E+04 -2.842614E+02
        28   6  6.102594E+02  5.277148E+05  6.504316E+02 -1.363677E+02  5.312067E+03 -4.535628E+02
        28   7 -8.553490E+04  1.538856E+05 -5.408202E+04 -8.611817E+01  2.506199E+04  6.028481E+03
        28   8 -8.699233E+04  1.551892E+05 -6.331044E+04  2.918346E+01  1.883816E+04  2.342430E+04
        28   9 -9.123963E+04  1.535378E+05 -8.455688E+04 -4.702158E+02  5.297418E+03  4.081630E+04
        28  10  8.563700E+04  9.016842E+05  5.443406E+04 -1.867939E+02  6.316869E-09  1.980620E-09
        28  11  8.739111E+04  9.002843E+05  6.396093E+04  3.126633E+02  1.457540E-09 -2.647646E-09
        28  12  9.245088E+04  9.020233E+05  8.585172E+04  1.978730E+02  4.449371E-09 -6.171293E-09
        28  13  5.391951E+01  5.277144E+05  1.765437E+02 -1.365055E+02  6.268807E-09  2.729064E-10
        28  14  2.028187E+02  5.276682E+05  3.267011E+02  1.706967E+02  2.556537E-09 -7.045552E-10
        28  15  6.102290E+02  5.277148E+05  6.503782E+02 -1.363658E+02  1.362289E-09  4.234758E-10
        28  16 -8.553558E+04  1.538854E+05 -5.408327E+04 -8.623985E+01  2.014329E-09 -2.381907E-09
        28  17 -8.699286E+04  1.551885E+05 -6.331213E+04  2.882806E+01  7.999501E-10  2.402447E-09
        28  18 -9.124011E+04  1.535361E+05 -8.456007E+04 -4.703899E+02  8.800487E-10  6.286929E-09
        28  19  8.563768E+04  9.016844E+05  5.443532E+04 -1.869203E+02 -2.506225E+04  6.268433E+03
        28  20  8.739165E+04  9.002850E+05  6.396268E+04  3.122990E+02 -1.885091E+04  2.400660E+04
        28  21  9.245138E+04  9.020252E+05  8.585504E+04  1.976940E+02 -5.326666E+03  4.174807E+04
        28  22  5.459416E+01  5.277146E+05  1.777244E+02 -1.365079E+02 -2.506212E+04  1.182036E+02
        28  23  2.032001E+02  5.276683E+05  3.273687E+02  1.706924E+02 -1.884454E+04  2.842614E+02
        28  24  6.102594E+02  5.277148E+05  6.504316E+02 -1.363677E+02 -5.312067E+03  4.535628E+02
        28  25 -8.553490E+04  1.538856E+05 -5.408202E+04 -8.611817E+01 -2.506199E+04 -6.028481E+03
        28  26 -8.699233E+04  1.551892E+05 -6.331044E+04  2.918346E+01 -1.883816E+04 -2.342430E+04
        28  27 -9.123963E+04  1.535378E+05 -8.455688E+04 -4.702158E+02 -5.297418E+03 -4.081630E+04
        29   1 -4.469464E+06 -4.589040E+05 -5.819528E+05  1.296293E+04 -3.521671E+05 -1.496810E+03
        29   2 -4.412896E+06  2.610817E+04 -2.905811E+05 -2.007556E+04 -2.314554E+05  2.137667E+02
        29   3 -4.477898E+06 -5.624348E+04 -2.127018E+05  2.247907E+04 -1.107497E+05  5.018233E+02
        29   4 -4.202061E+06 -3.916335E+05 -5.147502E+05  2.055953E+04 -3.522289E+05 -1.500899E+03
        29   5 -4.140813E+06  9.445572E+04 -2.222361E+05 -1.815732E+04 -2.315056E+05  2.130670E+02
        29   6 -4.201064E+06  1.331790E+04 -1.431542E+05  1.871632E+04 -1.107875E+05  5.024928E+02
        29   7 -3.934591E+06 -3.243682E+05 -4.475530E+05  2.815935E+04 -3.522907E+05 -1.504987E+03
        29   8 -3.868663E+06  1.627976E+05 -1.538967E+05 -1.623827E+04 -2.315558E+05  2.123672E+02
        29   9 -3.924161E+06  8.287348E+04 -7.361240E+04  1.495193E+04 -1.108252E+05  5.031625E+02
        29  10 -4.469598E+06 -4.589376E+05 -5.821876E+05  1.296251E+04 -5.435661E-10  2.639188E-09
        29  11 -4.412954E+06  2.609366E+04 -2.906825E+05 -2.007552E+04  1.928584E-09  2.537887E-09
        29  12 -4.477911E+06 -5.624680E+04 -2.127250E+05  2.247911E+04 -5.680936E-09  4.952119E-09
        29  13 -4.202194E+06 -3.916671E+05 -5.149849E+05  2.055911E+04 -7.277376E-11  1.201371E-09
        29  14 -4.140871E+06  9.444121E+04 -2.223375E+05 -1.815728E+04 -1.069053E-08  4.286977E-09
        29  15 -4.201077E+06  1.331458E+04 -1.431774E+05  1.871637E+04 -5.349911E-09  1.669107E-09
        29  16 -3.934725E+06 -3.244018E+05 -4.477877E+05  2.815892E+04 -8.040237E-11  1.738734E-09
        29  17 -3.868721E+06  1.627831E+05 -1.539981E+05 -1.623823E+04  2.295654E-09  6.008140E-09
        29  18 -3.924174E+06  8.287016E+04 -7.363563E+04  1.495197E+04  1.970226E-09  1.364452E-08
        29  19 -4.469464E+06 -4.589040E+05 -5.819528E+05  1.296293E+04  3.521671E+05  1.496810E+03
        29  20 -4.412896E+06  2.610817E+04 -2.905811E+05 -2.007556E+04  2.314554E+05 -2.137667E+02
        29  21 -4.477898E+06 -5.624348E+04 -2.127018E+05  2.247907E+04  1.107497E+05 -5.018233E+02
        29  22 -4.202061E+06 -3.916335E+05 -5.147502E+05  2.055953E+04  3.522289E+05  1.500899E+03
        29  23 -4.140813E+06  9.445572E+04 -2.222361E+05 -1.815732E+04  2.315056E+05 -2.130670E+02
        29  24 -4.201064E+06  1.331790E+04 -1.431542E+05  1.871632E+04  1.107875E+05 -5.024928E+02
        29  25 -3.934591E+06 -3.243682E+05 -4.475530E+05  2.815935E+04  3.522907E+05  1.504987E+03
        29  26 -3.868663E+06  1.627976E+05 -1.538967E+05 -1.623827E+04  2.315558E+05 -2.123672E+02
        29  27 -3.924161E+06  8.287348E+04 -7.361240E+04  1.495193E+04  1.108252E+05 -5.031625E+02
        30   1 -4.069884E+06 -3.531717E+04 -9.274530E+04 -5.427624E+03 -8.717057E+04  2.128237E+02
        30   2 -4.057605E+06  4.297841E+04 -2.932379E+04  1.001576E+04 -5.720983E+04 -1.499973E+02
        30   3 -4.066022E+06  3.040701E+04 -7.013719E+03 -3.461388E+03 -2.724819E+04 -1.141355E+02
        30   4 -4.178952E+06 -6.271766E+04 -1.201398E+05 -4.181559E+03 -8.717134E+04  2.126814E+02
        30   5 -4.168506E+06  1.512635E+04 -5.717305E+04  1.036441E+04 -5.720571E+04 -1.500274E+02
        30   6 -4.178760E+06  2.093328E+03 -3.532635E+04 -4.010480E+03 -2.723925E+04 -1.141121E+02
        30   7 -4.288009E+06 -9.011905E+04 -1.475353E+05 -2.935707E+03 -8.717212E+04  2.125390E+02
        30   8 -4.279395E+06 -1.272664E+04 -8.502326E+04  1.071301E+04 -5.720158E+04 -1.500576E+02
        30   9 -4.291487E+06 -2.622132E+04 -6.363995E+04 -4.559472E+03 -2.723031E+04 -1.140888E+02
        30  10 -4.069892E+06 -3.531923E+04 -9.275967E+04 -5.427609E+03 -1.155659E-08  1.090925E-09
        30  11 -4.057609E+06  4.297752E+04 -2.932998E+04  1.001576E+04 -5.545766E-09 -8.777932E-10
        30  12 -4.066022E+06  3.040681E+04 -7.015123E+03 -3.461391E+03 -5.175191E-09 -1.568371E-08
        30  13 -4.178960E+06 -6.271972E+04 -1.201542E+05 -4.181544E+03 -1.069405E-08 -1.212289E-09
        30  14 -4.168509E+06  1.512547E+04 -5.717924E+04  1.036441E+04 -1.275279E-08  1.736141E-09
        30  15 -4.178761E+06  2.093128E+03 -3.532775E+04 -4.010483E+03 -1.095185E-09  3.846480E-09
        30  16 -4.288017E+06 -9.012110E+04 -1.475497E+05 -2.935692E+03 -9.759876E-10  2.486572E-10
        30  17 -4.279398E+06 -1.272753E+04 -8.502945E+04  1.071300E+04  1.617524E-09 -1.058343E-08
        30  18 -4.291488E+06 -2.622152E+04 -6.364135E+04 -4.559474E+03  1.379585E-09  7.382289E-09
        30  19 -4.069884E+06 -3.531717E+04 -9.274530E+04 -5.427624E+03  8.717057E+04 -2.128237E+02
        30  20 -4.057605E+06  4.297841E+04 -2.932379E+04  1.001576E+04  5.720983E+04  1.499973E+02
        30  21 -4.066022E+06  3.040701E+04 -7.013719E+03 -3.461388E+03  2.724819E+04  1.141355E+02
        30  22 -4.178952E+06 -6.271766E+04 -1.201398E+05 -4.181559E+03  8.717134E+04 -2.126814E+02
        30  23 -4.168506E+06  1.512635E+04 -5.717305E+04  1.036441E+04  5.720571E+04  1.500274E+02
        30  24 -4.178760E+06  2.093328E+03 -3.532635E+04 -4.010480E+03  2.723925E+04  1.141121E+02
        30  25 -4.288009E+06 -9.011905E+04 -1.475353E+05 -2.935707E+03  8.717212E+04 -2.125390E+02
        30  26 -4.279395E+06 -1.272664E+04 -8.502326E+04  1.071301E+04  5.720158E+04  1.500576E+02
        30  27 -4.291487E+06 -2.622132E+04 -6.363995E+04 -4.559472E+03  2.723031E+04  1.140888E+02
        31   1 -4.221338E+06 -2.164969E+04 -4.031861E+04  4.662071E+03 -2.148939E+04  1.552761E+01
        31   2 -4.220254E+06 -9.389515E+03 -2.652430E+04 -7.196162E+02 -1.395237E+04  9.743123E+01
        31   3 -4.222707E+06 -1.171314E+04 -2.108609E+04  4.944291E+03 -6.415440E+03  5.142728E+01
        31   4 -4.174990E+06 -1.000818E+04 -2.867739E+04  4.826740E+03 -2.148709E+04  1.552293E+01
        31   5 -4.173202E+06  2.428105E+03 -1.470776E+04 -6.975275E+02 -1.395262E+04  9.743013E+01
        31   6 -4.174952E+06  2.816735E+02 -9.091984E+03  4.823750E+03 -6.418247E+03  5.143043E+01
        31   7 -4.128639E+06  1.633171E+03 -1.703634E+04  4.991420E+03 -2.148478E+04  1.551825E+01
        31   8 -4.126149E+06  1.424556E+04 -2.891380E+03 -6.754370E+02 -1.395287E+04  9.742903E+01
        31   9 -4.127195E+06  1.227631E+04  2.901943E+03  4.703201E+03 -6.421054E+03  5.143357E+01
        31  10 -4.221339E+06 -2.164982E+04 -4.031948E+04  4.662071E+03 -2.803599E-09  3.203014E-09
        31  11 -4.220254E+06 -9.389567E+03 -2.652467E+04 -7.196151E+02 -2.135379E-09  8.879356E-09
        31  12 -4.222707E+06 -1.171315E+04 -2.108616E+04  4.944291E+03  3.470743E-09 -7.667199E-08
        31  13 -4.174990E+06 -1.000830E+04 -2.867827E+04  4.826740E+03 -2.056293E-09  9.522569E-10
        31  14 -4.173202E+06  2.428052E+03 -1.470813E+04 -6.975264E+02 -4.321031E-09 -6.860274E-09
        31  15 -4.174952E+06  2.816624E+02 -9.092062E+03  4.823750E+03 -8.221049E-10 -1.571781E-09
        31  16 -4.128639E+06  1.633046E+03 -1.703722E+04  4.991421E+03 -3.085986E-10 -2.546409E-09
        31  17 -4.126149E+06  1.424550E+04 -2.891749E+03 -6.754359E+02 -1.763846E-09 -2.114605E-08
        31  18 -4.127195E+06  1.227630E+04  2.901865E+03  4.703201E+03 -4.597581E-09  6.140958E-08
        31  19 -4.221338E+06 -2.164969E+04 -4.031861E+04  4.662071E+03  2.148939E+04 -1.552761E+01
        31  20 -4.220254E+06 -9.389515E+03 -2.652430E+04 -7.196162E+02  1.395237E+04 -9.743123E+01
        31  21 -4.222707E+06 -1.171314E+04 -2.108609E+04  4.944291E+03  6.415440E+03 -5.142729E+01
        31  22 -4.174990E+06 -1.000818E+04 -2.867739E+04  4.826740E+03  2.148709E+04 -1.552293E+01
        31  23 -4.173202E+06  2.428105E+03 -1.470776E+04 -6.975275E+02  1.395262E+04 -9.743013E+01
        31  24 -4.174952E+06  2.816736E+02 -9.091984E+03  4.823750E+03  6.418247E+03 -5.143043E+01
        31  25 -4.128639E+06  1.633170E+03 -1.703634E+04  4.991420E+03  2.148478E+04 -1.551825E+01
        31  26 -4.126149E+06  1.424556E+04 -2.891380E+03 -6.754370E+02  1.395287E+04 -9.742903E+01
        31  27 -4.127195E+06  1.227631E+04  2.901943E+03  4.703201E+03  6.421054E+03 -5.143357E+01
        32   1 -4.150253E+06  4.465971E+03 -1.356665E+03  1.635064E+03 -4.933246E+03 -8.056516E+00
        32   2 -4.149712E+06  6.535561E+03  1.543553E+03  3.218654E+03 -2.640702E+03 -4.700352E+01
        32   3 -4.149849E+06  5.950302E+03  2.337489E+03  1.689380E+03 -3.480742E+02 -2.063664E+01
        32   4 -4.174323E+06 -1.579438E+03 -7.401864E+03  1.676637E+03 -4.934770E+03 -8.055276E+00
        32   5 -4.173980E+06  4.403737E+02 -4.551025E+03  3.233794E+03 -2.640745E+03 -4.700363E+01
        32   6 -4.174317E+06 -1.949874E+02 -3.807559E+03  1.678079E+03 -3.466368E+02 -2.063717E+01
        32   7 -4.198393E+06 -7.624891E+03 -1.344711E+04  1.718209E+03 -4.936295E+03 -8.054037E+00
        32   8 -4.198249E+06 -5.654858E+03 -1.064565E+04  3.248934E+03 -2.640788E+03 -4.700373E+01
        32   9 -4.198785E+06 -6.340322E+03 -9.952653E+03  1.666778E+03 -3.451992E+02 -2.063771E+01
        32  10 -4.150253E+06  4.465965E+03 -1.356711E+03  1.635063E+03 -3.428323E-06 -2.621258E-07
        32  11 -4.149712E+06  6.535560E+03  1.543540E+03  3.218647E+03 -1.527243E-05 -6.140034E-07
        32  12 -4.149849E+06  5.950303E+03  2.337489E+03  1.689367E+03 -2.713824E-05 -6.163900E-07
        32  13 -4.174323E+06 -1.579444E+03 -7.401910E+03  1.676637E+03 -8.624947E-06  8.675153E-08
        32  14 -4.173980E+06  4.403719E+02 -4.551038E+03  3.233794E+03 -3.826724E-05  3.703372E-07
        32  15 -4.174317E+06 -1.949875E+02 -3.807559E+03  1.678079E+03 -6.789950E-05  6.323415E-07
        32  16 -4.198393E+06 -7.624897E+03 -1.344715E+04  1.718211E+03 -3.472171E-06  1.560611E-07
        32  17 -4.198249E+06 -5.654861E+03 -1.064566E+04  3.248941E+03 -1.533801E-05  1.152804E-07
        32  18 -4.198785E+06 -6.340323E+03 -9.952653E+03  1.666791E+03 -2.718284E-05 -3.518827E-07
        32  19 -4.150253E+06  4.465971E+03 -1.356664E+03  1.635061E+03  4.933246E+03  8.056515E+00
        32  20 -4.149712E+06  6.535562E+03  1.543554E+03  3.218640E+03  2.640702E+03  4.700352E+01
        32  21 -4.149849E+06  5.950304E+03  2.337490E+03  1.689354E+03  3.480742E+02  2.063664E+01
        32  22 -4.174323E+06 -1.579438E+03 -7.401864E+03  1.676637E+03  4.934770E+03  8.055276E+00
        32  23 -4.173980E+06  4.403739E+02 -4.551025E+03  3.233794E+03  2.640745E+03  4.700363E+01
        32  24 -4.174317E+06 -1.949875E+02 -3.807559E+03  1.678079E+03  3.466366E+02  2.063717E+01
        32  25 -4.198393E+06 -7.624891E+03 -1.344711E+04  1.718212E+03  4.936295E+03  8.054037E+00
        32  26 -4.198249E+06 -5.654859E+03 -1.064565E+04  3.248949E+03  2.640788E+03  4.700373E+01
        32  27 -4.198785E+06 -6.340324E+03 -9.952653E+03  1.666804E+03  3.451992E+02  2.063771E+01
        33   1 -4.197097E+06 -5.923190E+03 -9.528787E+03  1.891137E+03  3.371467E+02  1.831099E+01
        33   2 -4.196612E+06 -5.250111E+03 -1.022804E+04  2.966591E+03  2.628459E+03  4.379908E+01
        33   3 -4.196835E+06 -7.205200E+03 -1.303336E+04  1.940606E+03  4.919730E+03  8.439153E+00
        33   4 -4.174324E+06 -2.033410E+02 -3.809150E+03  1.902813E+03  3.385086E+02  1.831050E+01
        33   5 -4.173972E+06  4.359835E+02 -4.542511E+03  2.952860E+03  2.628442E+03  4.379897E+01
        33   6 -4.174329E+06 -1.552560E+03 -7.380929E+03  1.901473E+03  4.918333E+03  8.440209E+00
        33   7 -4.151550E+06  5.516468E+03  1.910448E+03  1.914490E+03  3.398706E+02  1.831001E+01
        33   8 -4.151333E+06  6.122039E+03  1.142977E+03  2.939128E+03  2.628425E+03  4.379886E+01
        33   9 -4.151824E+06  4.100041E+03 -1.728534E+03  1.862338E+03  4.916935E+03  8.441265E+00
        33  10 -4.197097E+06 -5.923189E+03 -9.528787E+03  1.891124E+03 -2.718429E-05 -3.408429E-07
        33  11 -4.196612E+06 -5.250112E+03 -1.022805E+04  2.966583E+03 -1.534246E-05  9.008030E-08
        33  12 -4.196835E+06 -7.205206E+03 -1.303341E+04  1.940604E+03 -3.476846E-06  1.728619E-07
        33  13 -4.174324E+06 -2.033411E+02 -3.809150E+03  1.902813E+03 -6.790027E-05  6.325763E-07
        33  14 -4.173972E+06  4.359815E+02 -4.542524E+03  2.952860E+03 -3.826399E-05  3.668024E-07
        33  15 -4.174330E+06 -1.552567E+03 -7.380975E+03  1.901473E+03 -8.620183E-06  8.300828E-08
        33  16 -4.151550E+06  5.516467E+03  1.910447E+03  1.914503E+03 -2.713975E-05 -6.139265E-07
        33  17 -4.151333E+06  6.122036E+03  1.142964E+03  2.939136E+03 -1.526530E-05 -6.264236E-07
        33  18 -4.151824E+06  4.100034E+03 -1.728579E+03  1.862340E+03 -3.420444E-06 -2.712024E-07
        33  19 -4.197097E+06 -5.923188E+03 -9.528786E+03  1.891111E+03 -3.371467E+02 -1.831099E+01
        33  20 -4.196612E+06 -5.250110E+03 -1.022804E+04  2.966576E+03 -2.628459E+03 -4.379908E+01
        33  21 -4.196835E+06 -7.205200E+03 -1.303336E+04  1.940603E+03 -4.919730E+03 -8.439153E+00
        33  22 -4.174324E+06 -2.033410E+02 -3.809150E+03  1.902813E+03 -3.385087E+02 -1.831050E+01
        33  23 -4.173972E+06  4.359833E+02 -4.542511E+03  2.952860E+03 -2.628442E+03 -4.379897E+01
        33  24 -4.174329E+06 -1.552560E+03 -7.380929E+03  1.901473E+03 -4.918333E+03 -8.440209E+00
        33  25 -4.151550E+06  5.516466E+03  1.910447E+03  1.914516E+03 -3.398707E+02 -1.831001E+01
        33  26 -4.151333E+06  6.122037E+03  1.142977E+03  2.939143E+03 -2.628425E+03 -4.379887E+01
        33  27 -4.151824E+06  4.100041E+03 -1.728534E+03  1.862341E+03 -4.916935E+03 -8.441266E+00
        34   1 -4.133674E+06  1.064872E+04  1.297276E+03  4.288726E+03  6.403327E+03 -4.459292E+01
        34   2 -4.132391E+06  1.263694E+04 -4.426611E+03 -1.500282E+02  1.391310E+04 -8.558360E+01
        34   3 -4.134879E+06  1.904878E+02 -1.850614E+04  4.561210E+03  2.142273E+04 -1.576884E+01
        34   4 -4.175004E+06  2.681174E+02 -9.082703E+03  4.402856E+03  6.400884E+03 -4.459012E+01
        34   5 -4.173137E+06  2.403618E+03 -1.465901E+04 -1.713180E+02  1.391287E+04 -8.558457E+01
        34   6 -4.175041E+06 -9.896492E+03 -2.859289E+04  4.404540E+03  2.142472E+04 -1.577376E+01
        34   7 -4.216334E+06 -1.011261E+04 -1.946281E+04  4.516978E+03  6.398442E+03 -4.458732E+01
        34   8 -4.213881E+06 -7.829832E+03 -2.489153E+04 -1.926064E+02  1.391264E+04 -8.558553E+01
        34   9 -4.215201E+06 -1.998360E+04 -3.867976E+04  4.247881E+03  2.142671E+04 -1.577868E+01
        34  10 -4.133674E+06  1.064871E+04  1.297198E+03  4.288726E+03 -1.477157E-09  6.651097E-08
        34  11 -4.132391E+06  1.263689E+04 -4.426977E+03 -1.500272E+02 -2.468841E-11 -6.252504E-09
        34  12 -4.134879E+06  1.903636E+02 -1.850701E+04  4.561210E+03 -2.535031E-09 -2.853670E-09
        34  13 -4.175005E+06  2.681062E+02 -9.082781E+03  4.402856E+03  5.941348E-09  1.666320E-09
        34  14 -4.173137E+06  2.403566E+03 -1.465937E+04 -1.713171E+02 -1.472972E-09  4.276933E-09
        34  15 -4.175041E+06 -9.896616E+03 -2.859376E+04  4.404540E+03  6.608256E-10  2.053991E-09
        34  16 -4.216334E+06 -1.011262E+04 -1.946289E+04  4.516978E+03  7.591413E-09 -5.852719E-08
        34  17 -4.213881E+06 -7.829884E+03 -2.489190E+04 -1.926054E+02 -8.655816E-10  1.882659E-08
        34  18 -4.215202E+06 -1.998372E+04 -3.868063E+04  4.247881E+03  1.543054E-11  7.650747E-09
        34  19 -4.133674E+06  1.064872E+04  1.297276E+03  4.288726E+03 -6.403327E+03  4.459292E+01
        34  20 -4.132391E+06  1.263694E+04 -4.426611E+03 -1.500282E+02 -1.391310E+04  8.558360E+01
        34  21 -4.134879E+06  1.904878E+02 -1.850614E+04  4.561210E+03 -2.142273E+04  1.576884E+01
        34  22 -4.175004E+06  2.681173E+02 -9.082703E+03  4.402856E+03 -6.400884E+03  4.459012E+01
        34  23 -4.173137E+06  2.403618E+03 -1.465901E+04 -1.713180E+02 -1.391287E+04  8.558457E+01
        34  24 -4.175041E+06 -9.896492E+03 -2.859289E+04  4.404540E+03 -2.142472E+04  1.577376E+01
        34  25 -4.216334E+06 -1.011261E+04 -1.946281E+04  4.516978E+03 -6.398442E+03  4.458732E+01
        34  26 -4.213881E+06 -7.829832E+03 -2.489153E+04 -1.926064E+02 -1.391264E+04  8.558553E+01
        34  27 -4.215201E+06 -1.998360E+04 -3.867976E+04  4.247881E+03 -2.142671E+04  1.577868E+01
        35   1 -4.275060E+06 -2.207787E+04 -5.941783E+04 -3.558218E+03  2.717312E+04  9.474788E+01
        35   2 -4.262483E+06 -8.653053E+03 -8.065086E+04  9.449430E+03  5.704749E+04  1.233707E+02
        35   3 -4.272145E+06 -8.570020E+04 -1.431767E+05 -1.992359E+03  8.692165E+04 -1.870175E+02
        35   4 -4.179103E+06  2.024109E+03 -3.531665E+04 -3.022209E+03  2.718074E+04  9.477047E+01
        35   5 -4.168077E+06  1.505935E+04 -5.694085E+04  9.127420E+03  5.705099E+04  1.233427E+02
        35   6 -4.179286E+06 -6.236896E+04 -1.198505E+05 -3.172168E+03  8.692098E+04 -1.871585E+02
        35   7 -4.083138E+06  2.612539E+04 -1.121617E+04 -2.486116E+03  2.718835E+04  9.479307E+01
        35   8 -4.073664E+06  3.877107E+04 -3.323151E+04  8.805362E+03  5.705450E+04  1.233148E+02
        35   9 -4.086420E+06 -3.903839E+04 -9.652497E+04 -4.352150E+03  8.692030E+04 -1.872996E+02
        35  10 -4.275061E+06 -2.207807E+04 -5.941922E+04 -3.558220E+03 -4.483960E-09  2.388663E-08
        35  11 -4.262486E+06 -8.653934E+03 -8.065702E+04  9.449424E+03 -3.106651E-09  5.515180E-09
        35  12 -4.272153E+06 -8.570224E+04 -1.431909E+05 -1.992346E+03 -3.811748E-10  1.083628E-08
        35  13 -4.179104E+06  2.023909E+03 -3.531805E+04 -3.022211E+03 -6.007264E-09  2.215388E-09
        35  14 -4.168081E+06  1.505847E+04 -5.694701E+04  9.127414E+03  2.960481E-09  2.924751E-09
        35  15 -4.179295E+06 -6.237101E+04 -1.198648E+05 -3.172155E+03  6.723992E-10  2.828587E-09
        35  16 -4.083139E+06  2.612519E+04 -1.121757E+04 -2.486118E+03  1.745118E-11 -1.080271E-08
        35  17 -4.073667E+06  3.877019E+04 -3.323767E+04  8.805357E+03  3.110529E-09  1.638667E-08
        35  18 -4.086428E+06 -3.904043E+04 -9.653926E+04 -4.352137E+03  6.487888E-10  3.364129E-09
        35  19 -4.275060E+06 -2.207787E+04 -5.941783E+04 -3.558218E+03 -2.717312E+04 -9.474788E+01
        35  20 -4.262483E+06 -8.653053E+03 -8.065086E+04  9.449430E+03 -5.704749E+04 -1.233707E+02
        35  21 -4.272145E+06 -8.570020E+04 -1.431767E+05 -1.992359E+03 -8.692165E+04  1.870175E+02
        35  22 -4.179103E+06  2.024109E+03 -3.531665E+04 -3.022209E+03 -2.718074E+04 -9.477047E+01
        35  23 -4.168077E+06  1.505935E+04 -5.694085E+04  9.127420E+03 -5.705099E+04 -1.233427E+02
        35  24 -4.179286E+06 -6.236896E+04 -1.198505E+05 -3.172168E+03 -8.692098E+04  1.871585E+02
        35  25 -4.083138E+06  2.612539E+04 -1.121617E+04 -2.486116E+03 -2.718835E+04 -9.479307E+01
        35  26 -4.073664E+06  3.877107E+04 -3.323151E+04  8.805362E+03 -5.705450E+04 -1.233148E+02
        35  27 -4.086420E+06 -3.903839E+04 -9.652497E+04 -4.352150E+03 -8.692030E+04  1.872996E+02
        36   1 -3.968259E+06  7.202435E+04 -8.428196E+04  1.259587E+04  1.106321E+05 -4.365022E+02
        36   2 -3.906913E+06  1.525583E+05 -1.630229E+05 -1.320842E+04  2.309496E+05 -2.010361E+02
        36   3 -3.977195E+06 -3.344562E+05 -4.570220E+05  2.505801E+04  3.512726E+05  1.243520E+03
        36   4 -4.203341E+06  1.297188E+04 -1.433223E+05  1.623656E+04  1.106001E+05 -4.358540E+02
        36   5 -4.137971E+06  9.453477E+04 -2.210446E+05 -1.503476E+04  2.309070E+05 -2.017070E+02
        36   6 -4.204287E+06 -3.915656E+05 -5.140761E+05  1.776664E+04  3.512203E+05  1.239546E+03
        36   7 -4.438372E+06 -4.608476E+04 -2.023669E+05  1.987589E+04  1.105681E+05 -4.352059E+02
        36   8 -4.368980E+06  3.650717E+04 -2.790705E+05 -1.686044E+04  2.308645E+05 -2.023778E+02
        36   9 -4.431332E+06 -4.486786E+05 -5.711341E+05  1.047791E+04  3.511681E+05  1.235571E+03
        36  10 -3.968272E+06  7.202104E+04 -8.430510E+04  1.259591E+04 -1.141233E-09  1.304932E-09
        36  11 -3.906971E+06  1.525439E+05 -1.631238E+05 -1.320838E+04  1.663686E-09  6.091789E-09
        36  12 -3.977328E+06 -3.344896E+05 -4.572554E+05  2.505766E+04  1.846763E-09  3.159550E-09
        36  13 -4.203354E+06  1.296857E+04 -1.433455E+05  1.623660E+04  4.304752E-09  2.218381E-09
        36  14 -4.138029E+06  9.452033E+04 -2.211455E+05 -1.503473E+04  3.472120E-09  6.961645E-09
        36  15 -4.204420E+06 -3.915990E+05 -5.143095E+05  1.776629E+04 -3.046257E-09  2.421245E-09
        36  16 -4.438385E+06 -4.608807E+04 -2.023901E+05  1.987593E+04  2.098356E-09 -2.336052E-09
        36  17 -4.369038E+06  3.649273E+04 -2.791714E+05 -1.686040E+04  6.775320E-09  6.719219E-09
        36  18 -4.431466E+06 -4.487120E+05 -5.713675E+05  1.047756E+04 -7.860891E-10  5.876639E-09
        36  19 -3.968259E+06  7.202435E+04 -8.428196E+04  1.259587E+04 -1.106321E+05  4.365022E+02
        36  20 -3.906913E+06  1.525583E+05 -1.630229E+05 -1.320842E+04 -2.309496E+05  2.010361E+02
        36  21 -3.977195E+06 -3.344562E+05 -4.570220E+05  2.505801E+04 -3.512726E+05 -1.243520E+03
        36  22 -4.203341E+06  1.297188E+04 -1.433223E+05  1.623656E+04 -1.106001E+05  4.358540E+02
        36  23 -4.137971E+06  9.453477E+04 -2.210446E+05 -1.503476E+04 -2.309070E+05  2.017070E+02
        36  24 -4.204287E+06 -3.915656E+05 -5.140761E+05  1.776664E+04 -3.512203E+05 -1.239546E+03
        36  25 -4.438372E+06 -4.608476E+04 -2.023669E+05  1.987589E+04 -1.105681E+05  4.352059E+02
        36  26 -4.368980E+06  3.650717E+04 -2.790705E+05 -1.686044E+04 -2.308645E+05  2.023778E+02
        36  27 -4.431332E+06 -4.486786E+05 -5.711341E+05  1.047791E+04 -3.511681E+05 -1.235571E+03
        37   1  2.679230E+05  2.397848E+04  3.510578E+05 -3.101317E+03 -1.378397E+03  2.393498E+05
        37   2 -6.482119E+04 -2.999998E+04  1.496373E+05 -1.328784E+03 -9.060392E+02  1.574767E+05
        37   3 -8.281826E+03  2.402579E+04  9.887352E+04  2.061438E+03 -4.345524E+02  7.560002E+04
        37   4  2.678712E+05  2.403026E+04  3.510578E+05  1.402538E+03 -1.376660E+03  2.393498E+05
        37   5 -6.483418E+04 -2.998700E+04  1.496373E+05 -2.004359E+02 -9.057530E+02  1.574767E+05
        37   6 -8.255987E+03  2.399994E+04  9.887352E+04 -1.855314E+02 -4.348260E+02  7.560002E+04
        37   7  2.678194E+05  2.408210E+04  3.510578E+05  5.906393E+03 -1.374924E+03  2.393498E+05
        37   8 -6.484715E+04 -2.997402E+04  1.496373E+05  9.279124E+02 -9.054668E+02  1.574767E+05
        37   9 -8.230129E+03  2.397409E+04  9.887352E+04 -2.432501E+03 -4.350996E+02  7.560002E+04
        37  10  2.679077E+05  2.391698E+04  3.509501E+05 -3.101052E+03  5.683494E-11  7.467616E-11
        37  11 -6.482785E+04 -3.002660E+04  1.495907E+05 -1.328669E+03 -4.036833E-09  6.559525E-11
        37  12 -8.283361E+03  2.401965E+04  9.886278E+04  2.061465E+03  2.342335E-09  8.634001E-11
        37  13  2.678558E+05  2.396876E+04  3.509501E+05  1.402803E+03 -4.504792E-09  3.263904E-11
        37  14 -6.484083E+04 -3.001362E+04  1.495907E+05 -2.003211E+02 -2.100482E-09  4.625431E-11
        37  15 -8.257522E+03  2.399380E+04  9.886278E+04 -1.855049E+02  5.665050E-09  2.051421E-11
        37  16  2.678040E+05  2.402060E+04  3.509501E+05  5.906658E+03 -6.406491E-09 -1.654783E-11
        37  17 -6.485381E+04 -3.000064E+04  1.495907E+05  9.280272E+02  6.596591E-10 -1.093758E-10
        37  18 -8.231664E+03  2.396796E+04  9.886278E+04 -2.432474E+03  3.403058E-09 -1.248085E-10
        37  19  2.679230E+05  2.397848E+04  3.510578E+05 -3.101317E+03  1.378397E+03 -2.393498E+05
        37  20 -6.482119E+04 -2.999998E+04  1.496373E+05 -1.328784E+03  9.060392E+02 -1.574767E+05
        37  21 -8.281826E+03  2.402579E+04  9.887352E+04  2.061438E+03  4.345524E+02 -7.560002E+04
        37  22  2.678712E+05  2.403026E+04  3.510578E+05  1.402538E+03  1.376660E+03 -2.393498E+05
        37  23 -6.483418E+04 -2.998700E+04  1.496373E+05 -2.004359E+02  9.057530E+02 -1.574767E+05
        37  24 -8.255987E+03  2.399994E+04  9.887352E+04 -1.855314E+02  4.348260E+02 -7.560002E+04
        37  25  2.678194E+05  2.408210E+04  3.510578E+05  5.906393E+03  1.374924E+03 -2.393498E+05
        37  26 -6.484715E+04 -2.997402E+04  1.496373E+05  9.279124E+02  9.054668E+02 -1.574767E+05
        37  27 -8.230129E+03  2.397409E+04  9.887352E+04 -2.432501E+03  4.350996E+02 -7.560002E+04
        38   1  4.208506E+04  4.005801E+03  8.205424E+04 -4.608217E+02 -3.401373E+02  5.912593E+04
        38   2 -1.022917E+04 -5.014786E+03  3.928611E+04 -1.892309E+02 -2.212290E+02  3.846175E+04
        38   3 -1.115260E+03  4.014939E+03  2.533100E+04  3.318613E+02 -1.023562E+02  1.779773E+04
        38   4  4.207724E+04  4.013620E+03  8.205424E+04  2.189365E+02 -3.400726E+02  5.912593E+04
        38   5 -1.023101E+04 -5.012954E+03  3.928611E+04 -3.001348E+01 -2.212191E+02  3.846175E+04
        38   6 -1.111104E+03  4.010782E+03  2.533100E+04 -2.946035E+01 -1.023666E+02  1.779773E+04
        38   7  4.206942E+04  4.021440E+03  8.205424E+04  8.986947E+02 -3.400078E+02  5.912593E+04
        38   8 -1.023284E+04 -5.011123E+03  3.928611E+04  1.292040E+02 -2.212092E+02  3.846175E+04
        38   9 -1.106947E+03  4.006626E+03  2.533100E+04 -3.907820E+02 -1.023769E+02  1.779773E+04
        38  10  4.208413E+04  4.002047E+03  8.204767E+04 -4.608055E+02  3.826309E-09 -8.878511E-11
        38  11 -1.022957E+04 -5.016374E+03  3.928333E+04 -1.892241E+02  1.566061E-09 -7.633422E-11
        38  12 -1.115345E+03  4.014599E+03  2.533040E+04  3.318628E+02  2.358906E-10  3.180770E-11
        38  13  4.207630E+04  4.009867E+03  8.204767E+04  2.189527E+02  9.984151E-10  7.776356E-11
        38  14 -1.023140E+04 -5.014543E+03  3.928333E+04 -3.000663E+01 -1.564075E-09 -4.307206E-12
        38  15 -1.111189E+03  4.010442E+03  2.533040E+04 -2.945888E+01 -1.177503E-09  2.207685E-11
        38  16  4.206849E+04  4.017687E+03  8.204767E+04  8.987109E+02 -4.640877E-09  1.483147E-10
        38  17 -1.023323E+04 -5.012711E+03  3.928333E+04  1.292108E+02 -7.395562E-09  6.227039E-11
        38  18 -1.107032E+03  4.006286E+03  2.533040E+04 -3.907806E+02 -5.325536E-09 -1.219297E-10
        38  19  4.208506E+04  4.005801E+03  8.205424E+04 -4.608217E+02  3.401373E+02 -5.912593E+04
        38  20 -1.022917E+04 -5.014786E+03  3.928611E+04 -1.892309E+02  2.212290E+02 -3.846175E+04
        38  21 -1.115260E+03  4.014939E+03  2.533100E+04  3.318613E+02  1.023562E+02 -1.779773E+04
        38  22  4.207724E+04  4.013620E+03  8.205424E+04  2.189365E+02  3.400726E+02 -5.912593E+04
        38  23 -1.023101E+04 -5.012954E+03  3.928611E+04 -3.001348E+01  2.212191E+02 -3.846175E+04
        38  24 -1.111104E+03  4.010782E+03  2.533100E+04 -2.946035E+01  1.023666E+02 -1.779773E+04
        38  25  4.206942E+04  4.021440E+03  8.205424E+04  8.986947E+02  3.400078E+02 -5.912593E+04
        38  26 -1.023284E+04 -5.011123E+03  3.928611E+04  1.292040E+02  2.212092E+02 -3.846175E+04
        38  27 -1.106947E+03  4.006626E+03  2.533100E+04 -3.907820E+02  1.023769E+02 -1.779773E+04
        39   1  6.552245E+03  7.967190E+02  2.089026E+04 -7.501194E+01 -7.821027E+01  1.359744E+04
        39   2 -1.843370E+03 -9.973229E+02  1.232722E+04 -2.322441E+01 -4.188257E+01  7.281780E+03
        39   3  8.296819E+02  7.985102E+02  1.064334E+04  7.157879E+01 -5.557360E+00  9.662370E+02
        39   4  6.551001E+03  7.979626E+02  2.089026E+04  3.309065E+01 -7.820790E+01  1.359744E+04
        39   5 -1.843581E+03 -9.971118E+02  1.232722E+04 -4.868767E+00 -4.188236E+01  7.281780E+03
        39   6  8.305031E+02  7.976890E+02  1.064334E+04  1.887421E-01 -5.557472E+00  9.662370E+02
        39   7  6.549757E+03  7.992062E+02  2.089026E+04  1.411932E+02 -7.820554E+01  1.359744E+04
        39   8 -1.843792E+03 -9.969006E+02  1.232722E+04  1.348687E+01 -4.188214E+01  7.281780E+03
        39   9  8.313244E+02  7.968677E+02  1.064334E+04 -7.120130E+01 -5.557583E+00  9.662370E+02
        39  10  6.552195E+03  7.965205E+02  2.088992E+04 -7.501108E+01 -3.128317E-09  1.211147E-10
        39  11 -1.843384E+03 -9.973799E+02  1.232712E+04 -2.322416E+01 -5.541642E-09  1.850416E-10
        39  12  8.296816E+02  7.985092E+02  1.064334E+04  7.157879E+01  3.357793E-09 -9.433474E-11
        39  13  6.550951E+03  7.977640E+02  2.088992E+04  3.309150E+01 -7.369139E-09 -4.603703E-11
        39  14 -1.843595E+03 -9.971687E+02  1.232712E+04 -4.868522E+00 -4.548819E-09 -2.023382E-11
        39  15  8.305029E+02  7.976880E+02  1.064334E+04  1.887465E-01  8.462094E-10 -5.571986E-11
        39  16  6.549708E+03  7.990076E+02  2.088992E+04  1.411941E+02 -5.012685E-09 -9.525790E-11
        39  17 -1.843806E+03 -9.969576E+02  1.232712E+04  1.348712E+01  2.973652E-09 -2.558435E-10
        39  18  8.313241E+02  7.968667E+02  1.064334E+04 -7.120130E+01 -1.067104E-09  5.607306E-11
        39  19  6.552245E+03  7.967190E+02  2.089026E+04 -7.501194E+01  7.821027E+01 -1.359744E+04
        39  20 -1.843370E+03 -9.973229E+02  1.232722E+04 -2.322441E+01  4.188257E+01 -7.281780E+03
        39  21  8.296819E+02  7.985102E+02  1.064334E+04  7.157879E+01  5.557360E+00 -9.662370E+02
        39  22  6.551001E+03  7.979626E+02  2.089026E+04  3.309065E+01  7.820790E+01 -1.359744E+04
        39  23 -1.843581E+03 -9.971118E+02  1.232722E+04 -4.868767E+00  4.188236E+01 -7.281780E+03
        39  24  8.305031E+02  7.976890E+02  1.064334E+04  1.887421E-01  5.557472E+00 -9.662370E+02
        39  25  6.549757E+03  7.992062E+02  2.089026E+04  1.411932E+02  7.820554E+01 -1.359744E+04
        39  26 -1.843792E+03 -9.969006E+02  1.232722E+04  1.348687E+01  4.188214E+01 -7.281780E+03
        39  27  8.313244E+02  7.968677E+02  1.064334E+04 -7.120131E+01  5.557583E+00 -9.662370E+02
        40   1 -8.780348E+06 -2.774364E+06 -1.780837E+06 -3.079766E+06 -9.208424E+05 -3.355285E+05
        40   2 -8.574103E+06 -1.444008E+06 -9.344994E+05 -3.282699E+06 -5.965144E+05 -1.806193E+05
        40   3 -8.912396E+06 -1.441659E+06 -7.039506E+05 -3.139526E+06 -2.613374E+05 -5.417904E+04
        40   4 -7.702759E+06 -2.079885E+06 -1.427283E+06 -2.499433E+06 -9.043741E+05 -3.297762E+05
        40   5 -7.355046E+06 -9.007605E+05 -5.912829E+05 -2.868306E+06 -5.916291E+05 -1.788623E+05
        40   6 -7.548630E+06 -1.045898E+06 -3.609620E+05 -2.891397E+06 -2.679656E+05 -5.663515E+04
        40   7 -6.623828E+06 -1.384499E+06 -1.073831E+06 -1.917959E+06 -8.878730E+05 -3.239917E+05
        40   8 -6.134511E+06 -3.572535E+05 -2.482081E+05 -2.453108E+06 -5.867321E+05 -1.770992E+05
        40   9 -6.183023E+06 -6.501765E+05 -1.810764E+04 -2.642852E+06 -2.746094E+05 -5.909399E+04
        40  10 -8.781301E+06 -2.774719E+06 -1.782671E+06 -3.080017E+06  1.739861E-09 -9.402056E-11
        40  11 -8.574498E+06 -1.444141E+06 -9.352412E+05 -3.282787E+06 -3.440540E-09 -6.151572E-10
        40  12 -8.912471E+06 -1.441681E+06 -7.040866E+05 -3.139538E+06  8.985296E-10 -1.452264E-09
        40  13 -7.703677E+06 -2.080226E+06 -1.429049E+06 -2.499675E+06 -5.081402E-09 -2.712612E-10
        40  14 -7.355434E+06 -9.008909E+05 -5.920108E+05 -2.868392E+06 -3.909192E-09 -5.699115E-10
        40  15 -7.548709E+06 -1.045922E+06 -3.611049E+05 -2.891409E+06 -3.708142E-10 -1.138052E-09
        40  16 -6.624711E+06 -1.384827E+06 -1.075530E+06 -1.918193E+06 -2.666436E-09 -5.595024E-10
        40  17 -6.134892E+06 -3.573813E+05 -2.489222E+05 -2.453192E+06 -3.592156E-09 -8.996829E-10
        40  18 -6.183105E+06 -6.502008E+05 -1.825762E+04 -2.642865E+06 -4.424818E-09  5.143790E-10
        40  19 -8.780348E+06 -2.774364E+06 -1.780837E+06 -3.079766E+06  9.208424E+05  3.355285E+05
        40  20 -8.574103E+06 -1.444008E+06 -9.344994E+05 -3.282699E+06  5.965144E+05  1.806193E+05
        40  21 -8.912396E+06 -1.441659E+06 -7.039506E+05 -3.139526E+06  2.613374E+05  5.417904E+04
        40  22 -7.702759E+06 -2.079885E+06 -1.427283E+06 -2.499433E+06  9.043741E+05  3.297762E+05
        40  23 -7.355046E+06 -9.007605E+05 -5.912829E+05 -2.868306E+06  5.916291E+05  1.788623E+05
        40  24 -7.548630E+06 -1.045898E+06 -3.609620E+05 -2.891397E+06  2.679656E+05  5.663515E+04
        40  25 -6.623828E+06 -1.384499E+06 -1.073831E+06 -1.917959E+06  8.878730E+05  3.239917E+05
        40  26 -6.134511E+06 -3.572535E+05 -2.482081E+05 -2.453108E+06  5.867321E+05  1.770992E+05
        40  27 -6.183023E+06 -6.501765E+05 -1.810764E+04 -2.642852E+06  2.746094E+05  5.909399E+04
        41   1 -8.690706E+06 -1.692581E+06 -6.231052E+05 -3.171355E+06 -2.154032E+05 -4.204070E+04
        41   2 -8.623483E+06 -1.493334E+06 -4.504086E+05 -3.155031E+06 -1.416497E+05 -1.363136E+04
        41   3 -8.582782E+06 -1.490176E+06 -3.755362E+05 -3.144552E+06 -6.652031E+04  1.115006E+04
        41   4 -7.494640E+06 -1.207258E+06 -2.944826E+05 -2.813352E+06 -2.147357E+05 -4.180654E+04
        41   5 -7.472572E+06 -1.048788E+06 -1.392554E+05 -2.833187E+06 -1.423771E+05 -1.391325E+04
        41   6 -7.476622E+06 -1.085936E+06 -8.058626E+04 -2.858893E+06 -6.864967E+04  1.034615E+04
        41   7 -6.297173E+06 -7.217937E+05  3.400701E+04 -2.454696E+06 -2.140664E+05 -4.157158E+04
        41   8 -6.320364E+06 -6.041484E+05  1.717786E+05 -2.510791E+06 -1.431058E+05 -1.419564E+04
        41   9 -6.369265E+06 -6.816435E+05  2.142575E+05 -2.572775E+06 -7.078318E+04  9.540808E+03
        41  10 -8.690757E+06 -1.692595E+06 -6.231971E+05 -3.171362E+06  1.491431E-09 -1.254591E-09
        41  11 -8.623505E+06 -1.493340E+06 -4.504472E+05 -3.155032E+06 -4.965949E-09  2.150906E-09
        41  12 -8.582787E+06 -1.490178E+06 -3.755448E+05 -3.144552E+06  9.430417E-10  2.082402E-09
        41  13 -7.494691E+06 -1.207273E+06 -2.945737E+05 -2.813359E+06  4.490526E-10 -4.741339E-11
        41  14 -7.472594E+06 -1.048794E+06 -1.392943E+05 -2.833189E+06  2.373348E-10  1.106618E-09
        41  15 -7.476627E+06 -1.085938E+06 -8.059540E+04 -2.858892E+06  2.230017E-09  1.028032E-09
        41  16 -6.297223E+06 -7.218080E+05  3.391664E+04 -2.454703E+06  1.446279E-09  1.692233E-11
        41  17 -6.320386E+06 -6.041542E+05  1.717393E+05 -2.510792E+06 -3.709139E-09  1.363313E-10
        41  18 -6.369270E+06 -6.816450E+05  2.142478E+05 -2.572774E+06 -1.602301E-09 -3.994668E-11
        41  19 -8.690706E+06 -1.692581E+06 -6.231052E+05 -3.171355E+06  2.154032E+05  4.204070E+04
        41  20 -8.623483E+06 -1.493334E+06 -4.504086E+05 -3.155031E+06  1.416497E+05  1.363136E+04
        41  21 -8.582782E+06 -1.490176E+06 -3.755362E+05 -3.144552E+06  6.652031E+04 -1.115006E+04
        41  22 -7.494640E+06 -1.207258E+06 -2.944826E+05 -2.813352E+06  2.147357E+05  4.180654E+04
        41  23 -7.472572E+06 -1.048788E+06 -1.392554E+05 -2.833187E+06  1.423771E+05  1.391325E+04
        41  24 -7.476622E+06 -1.085936E+06 -8.058626E+04 -2.858893E+06  6.864967E+04 -1.034615E+04
        41  25 -6.297173E+06 -7.217937E+05  3.400701E+04 -2.454696E+06  2.140664E+05  4.157158E+04
        41  26 -6.320364E+06 -6.041484E+05  1.717786E+05 -2.510791E+06  1.431058E+05  1.419564E+04
        41  27 -6.369265E+06 -6.816435E+05  2.142575E+05 -2.572775E+06  7.078318E+04 -9.540808E+03
        42   1 -8.411001E+06 -1.471942E+06 -3.182676E+05 -3.116813E+06 -5.464169E+04  1.273766E+04
        42   2 -8.333621E+06 -1.376904E+06 -2.581119E+05 -3.049231E+06 -3.628602E+04  1.511189E+04
        42   3 -8.193648E+06 -1.370600E+06 -2.153351E+05 -3.057866E+06 -1.754979E+04  1.645037E+04
        42   4 -7.463776E+06 -1.110453E+06 -6.324112E+04 -2.856319E+06 -5.614415E+04  1.216938E+04
        42   5 -7.494028E+06 -1.058946E+06 -3.237376E+04 -2.820879E+06 -3.820008E+04  1.439155E+04
        42   6 -7.461605E+06 -1.096065E+06 -1.853250E+04 -2.861656E+06 -1.987896E+04  1.557729E+04
        42   7 -6.515674E+06 -7.489075E+05  1.917052E+05 -2.595459E+06 -5.764912E+04  1.160015E+04
        42   8 -6.653747E+06 -7.409470E+05  1.933014E+05 -2.592245E+06 -4.011699E+04  1.367013E+04
        42   9 -6.729041E+06 -8.215019E+05  1.782220E+05 -2.665234E+06 -2.221118E+04  1.470309E+04
        42  10 -8.411004E+06 -1.471943E+06 -3.182736E+05 -3.116812E+06  4.447276E-09  1.658676E-09
        42  11 -8.333623E+06 -1.376904E+06 -2.581149E+05 -3.049230E+06 -2.457078E-09 -9.921028E-11
        42  12 -8.193648E+06 -1.370600E+06 -2.153362E+05 -3.057866E+06  5.706286E-10  1.818814E-09
        42  13 -7.463780E+06 -1.110454E+06 -6.324738E+04 -2.856318E+06  2.068109E-09  3.617078E-10
        42  14 -7.494030E+06 -1.058947E+06 -3.237691E+04 -2.820879E+06  5.620266E-09 -6.450611E-10
        42  15 -7.461605E+06 -1.096065E+06 -1.853370E+04 -2.861655E+06 -1.775468E-09  2.498780E-09
        42  16 -6.515677E+06 -7.489086E+05  1.916987E+05 -2.595458E+06 -2.489678E-09 -3.099536E-11
        42  17 -6.653749E+06 -7.409477E+05  1.932980E+05 -2.592244E+06  8.577141E-10 -8.209865E-10
        42  18 -6.729041E+06 -8.215022E+05  1.782206E+05 -2.665234E+06 -2.429469E-09  2.611900E-09
        42  19 -8.411001E+06 -1.471942E+06 -3.182676E+05 -3.116813E+06  5.464169E+04 -1.273766E+04
        42  20 -8.333621E+06 -1.376904E+06 -2.581119E+05 -3.049231E+06  3.628602E+04 -1.511189E+04
        42  21 -8.193648E+06 -1.370600E+06 -2.153351E+05 -3.057866E+06  1.754979E+04 -1.645037E+04
        42  22 -7.463776E+06 -1.110453E+06 -6.324112E+04 -2.856319E+06  5.614415E+04 -1.216938E+04
        42  23 -7.494028E+06 -1.058946E+06 -3.237376E+04 -2.820879E+06  3.820008E+04 -1.439155E+04
        42  24 -7.461605E+06 -1.096065E+06 -1.853250E+04 -2.861656E+06  1.987896E+04 -1.557729E+04
        42  25 -6.515674E+06 -7.489075E+05  1.917052E+05 -2.595459E+06  5.764912E+04 -1.160015E+04
        42  26 -6.653747E+06 -7.409470E+05  1.933014E+05 -2.592245E+06  4.011699E+04 -1.367013E+04
        42  27 -6.729041E+06 -8.215019E+05  1.782220E+05 -2.665234E+06  2.221118E+04 -1.470309E+04
        43   1 -7.975424E+06 -1.298112E+06 -1.534444E+05 -3.005849E+06 -1.369823E+04  1.424019E+04
        43   2 -7.880464E+06 -1.199040E+06 -1.106504E+05 -2.917312E+06 -7.106051E+03  1.030940E+04
        43   3 -7.697797E+06 -1.191344E+06 -7.183361E+04 -2.930705E+06 -3.762636E+02  5.995741E+03
        43   4 -7.456760E+06 -1.102277E+06 -1.457139E+04 -2.865238E+06 -1.599207E+04  1.338186E+04
        43   5 -7.500482E+06 -1.055771E+06 -8.633805E+03 -2.814576E+06 -9.557951E+03  9.393319E+03
        43   6 -7.456492E+06 -1.100604E+06 -6.543710E+03 -2.865848E+06 -2.987437E+03  5.021684E+03
        43   7 -6.937831E+06 -9.064256E+05  1.242784E+05 -2.724519E+06 -1.828804E+04  1.252273E+04
        43   8 -7.120360E+06 -9.124929E+05  9.336984E+04 -2.711783E+06 -1.201152E+04  8.476617E+03
        43   9 -7.215131E+06 -1.009862E+06  5.874052E+04 -2.800968E+06 -5.599721E+03  4.047216E+03
        43  10 -7.975424E+06 -1.298112E+06 -1.534451E+05 -3.005849E+06  2.717564E-09  2.422896E-09
        43  11 -7.880464E+06 -1.199040E+06 -1.106507E+05 -2.917312E+06  6.982548E-11 -1.447027E-09
        43  12 -7.697797E+06 -1.191344E+06 -7.183368E+04 -2.930705E+06 -1.915003E-09  1.258757E-09
        43  13 -7.456760E+06 -1.102277E+06 -1.457221E+04 -2.865238E+06 -4.985909E-09  1.739332E-09
        43  14 -7.500482E+06 -1.055771E+06 -8.634142E+03 -2.814576E+06  3.698370E-09 -2.356906E-09
        43  15 -7.456492E+06 -1.100604E+06 -6.543773E+03 -2.865848E+06 -7.092020E-10  9.897214E-10
        43  16 -6.937831E+06 -9.064259E+05  1.242775E+05 -2.724519E+06 -3.912460E-10  1.501799E-09
        43  17 -7.120360E+06 -9.124930E+05  9.336944E+04 -2.711783E+06  1.888960E-09 -2.118654E-09
        43  18 -7.215131E+06 -1.009862E+06  5.874043E+04 -2.800968E+06  1.364905E-09  2.831636E-09
        43  19 -7.975424E+06 -1.298112E+06 -1.534444E+05 -3.005849E+06  1.369823E+04 -1.424019E+04
        43  20 -7.880464E+06 -1.199040E+06 -1.106504E+05 -2.917312E+06  7.106051E+03 -1.030940E+04
        43  21 -7.697797E+06 -1.191344E+06 -7.183361E+04 -2.930705E+06  3.762636E+02 -5.995741E+03
        43  22 -7.456760E+06 -1.102277E+06 -1.457139E+04 -2.865238E+06  1.599207E+04 -1.338186E+04
        43  23 -7.500482E+06 -1.055771E+06 -8.633805E+03 -2.814576E+06  9.557951E+03 -9.393319E+03
        43  24 -7.456492E+06 -1.100604E+06 -6.543710E+03 -2.865848E+06  2.987437E+03 -5.021684E+03
        43  25 -6.937831E+06 -9.064256E+05  1.242784E+05 -2.724519E+06  1.828804E+04 -1.252273E+04
        43  26 -7.120360E+06 -9.124929E+05  9.336984E+04 -2.711783E+06  1.201152E+04 -8.476617E+03
        43  27 -7.215131E+06 -1.009862E+06  5.874052E+04 -2.800968E+06  5.599721E+03 -4.047216E+03
        44   1 -7.454800E+06 -1.101242E+06 -5.623035E+03 -2.866770E+06  2.038735E+03  2.767687E+03
        44   2 -7.356029E+06 -9.999770E+05  3.139759E+04 -2.774100E+06  8.081977E+03 -1.943317E+03
        44   3 -7.165992E+06 -9.933194E+05  6.503304E+04 -2.787685E+06  1.406845E+04 -6.491955E+03
        44   4 -7.455711E+06 -1.101466E+06 -6.386993E+03 -2.866754E+06 -5.793149E+02  1.791420E+03
        44   5 -7.501423E+06 -1.054767E+06 -7.620090E+03 -2.813397E+06  5.531205E+03 -2.895102E+03
        44   6 -7.455900E+06 -1.102692E+06 -1.229098E+04 -2.866305E+06  1.158396E+04 -7.419526E+03
        44   7 -7.456621E+06 -1.101689E+06 -7.150921E+03 -2.866739E+06 -3.197367E+03  8.151488E+02
        44   8 -7.646797E+06 -1.109555E+06 -4.663985E+04 -2.852685E+06  2.981082E+03 -3.846645E+03
        44   9 -7.745729E+06 -1.212061E+06 -8.962302E+04 -2.944891E+06  9.100743E+03 -8.346622E+03
        44  10 -7.454800E+06 -1.101242E+06 -5.623057E+03 -2.866770E+06  3.605527E-09  2.098069E-09
        44  11 -7.356029E+06 -9.999770E+05  3.139746E+04 -2.774100E+06  5.717703E-10 -1.006540E-09
        44  12 -7.165992E+06 -9.933195E+05  6.503259E+04 -2.787685E+06  1.933961E-09 -3.363260E-10
        44  13 -7.455711E+06 -1.101466E+06 -6.386999E+03 -2.866754E+06  1.312454E-09  1.021152E-09
        44  14 -7.501423E+06 -1.054767E+06 -7.620164E+03 -2.813397E+06  3.495572E-09 -2.044261E-09
        44  15 -7.455900E+06 -1.102693E+06 -1.229134E+04 -2.866304E+06  5.328041E-10 -3.144918E-11
        44  16 -7.456621E+06 -1.101689E+06 -7.150942E+03 -2.866739E+06 -6.152800E-09 -5.036739E-10
        44  17 -7.646797E+06 -1.109556E+06 -4.663989E+04 -2.852685E+06  6.625661E-09  3.906585E-10
        44  18 -7.745729E+06 -1.212061E+06 -8.962330E+04 -2.944891E+06  4.155994E-09  1.372612E-09
        44  19 -7.454800E+06 -1.101242E+06 -5.623035E+03 -2.866770E+06 -2.038735E+03 -2.767687E+03
        44  20 -7.356029E+06 -9.999770E+05  3.139759E+04 -2.774100E+06 -8.081977E+03  1.943317E+03
        44  21 -7.165992E+06 -9.933194E+05  6.503304E+04 -2.787685E+06 -1.406845E+04  6.491955E+03
        44  22 -7.455711E+06 -1.101466E+06 -6.386993E+03 -2.866754E+06  5.793149E+02 -1.791420E+03
        44  23 -7.501423E+06 -1.054767E+06 -7.620090E+03 -2.813397E+06 -5.531205E+03  2.895102E+03
        44  24 -7.455900E+06 -1.102692E+06 -1.229098E+04 -2.866305E+06 -1.158396E+04  7.419526E+03
        44  25 -7.456621E+06 -1.101689E+06 -7.150921E+03 -2.866739E+06  3.197367E+03 -8.151488E+02
        44  26 -7.646797E+06 -1.109555E+06 -4.663985E+04 -2.852685E+06 -2.981082E+03  3.846645E+03
        44  27 -7.745729E+06 -1.212061E+06 -8.962302E+04 -2.944891E+06 -9.100743E+03  8.346622E+03
        45   1 -6.937883E+06 -9.033035E+05  1.246431E+05 -2.724857E+06  1.767094E+04 -9.104313E+03
        45   2 -6.851591E+06 -8.124882E+05  1.465441E+05 -2.642241E+06  3.300924E+04 -9.694601E+03
        45   3 -6.691454E+06 -8.172140E+05  1.545671E+05 -2.648539E+06  4.804503E+04 -9.441321E+03
        45   4 -7.459192E+06 -1.098327E+06 -1.549325E+04 -2.864189E+06  1.514120E+04 -1.004985E+04
        45   5 -7.496962E+06 -1.056449E+06 -2.674707E+04 -2.817530E+06  3.082097E+04 -1.051482E+04
        45   6 -7.460976E+06 -1.110198E+06 -5.216295E+04 -2.859797E+06  4.619516E+04 -1.013694E+04
        45   7 -7.980232E+06 -1.293334E+06 -1.556527E+05 -3.003413E+06  1.261383E+04 -1.099452E+04
        45   8 -8.141924E+06 -1.300384E+06 -2.000745E+05 -2.992652E+06  2.863522E+04 -1.133410E+04
        45   9 -8.229919E+06 -1.403145E+06 -2.589455E+05 -3.070813E+06  4.434781E+04 -1.083161E+04
        45  10 -6.937884E+06 -9.033037E+05  1.246424E+05 -2.724857E+06  4.681283E-09  2.352307E-09
        45  11 -6.851592E+06 -8.124886E+05  1.465419E+05 -2.642241E+06  4.926603E-09  1.441288E-09
        45  12 -6.691457E+06 -8.172147E+05  1.545626E+05 -2.648539E+06  2.335561E-09  1.378015E-10
        45  13 -7.459192E+06 -1.098327E+06 -1.549387E+04 -2.864189E+06  1.847556E-09  9.815682E-10
        45  14 -7.496963E+06 -1.056449E+06 -2.674908E+04 -2.817530E+06  8.275172E-11 -2.989245E-10
        45  15 -7.460978E+06 -1.110199E+06 -5.216719E+04 -2.859796E+06 -1.612107E-09  1.870606E-09
        45  16 -7.980232E+06 -1.293334E+06 -1.556532E+05 -3.003413E+06  1.194844E-09 -3.659936E-10
        45  17 -8.141925E+06 -1.300384E+06 -2.000763E+05 -2.992652E+06 -1.038637E-08 -1.932665E-09
        45  18 -8.229921E+06 -1.403145E+06 -2.589494E+05 -3.070813E+06  3.790843E-09  9.560836E-10
        45  19 -6.937883E+06 -9.033035E+05  1.246431E+05 -2.724857E+06 -1.767094E+04  9.104313E+03
        45  20 -6.851591E+06 -8.124882E+05  1.465441E+05 -2.642241E+06 -3.300924E+04  9.694601E+03
        45  21 -6.691454E+06 -8.172140E+05  1.545671E+05 -2.648539E+06 -4.804503E+04  9.441321E+03
        45  22 -7.459192E+06 -1.098327E+06 -1.549325E+04 -2.864189E+06 -1.514120E+04  1.004985E+04
        45  23 -7.496962E+06 -1.056449E+06 -2.674707E+04 -2.817530E+06 -3.082097E+04  1.051482E+04
        45  24 -7.460976E+06 -1.110198E+06 -5.216295E+04 -2.859797E+06 -4.619516E+04  1.013694E+04
        45  25 -7.980232E+06 -1.293334E+06 -1.556527E+05 -3.003413E+06 -1.261383E+04  1.099452E+04
        45  26 -8.141924E+06 -1.300384E+06 -2.000745E+05 -2.992652E+06 -2.863522E+04  1.133410E+04
        45  27 -8.229919E+06 -1.403145E+06 -2.589455E+05 -3.070813E+06 -4.434781E+04  1.083161E+04
        46   1 -6.511461E+06 -7.392291E+05  1.893844E+05 -2.613674E+06  5.936055E+04 -8.663158E+03
        46   2 -6.447715E+06 -6.515423E+05  1.635056E+05 -2.540617E+06  1.192713E+05  9.256252E+03
        46   3 -6.383122E+06 -7.466495E+05  5.928586E+04 -2.497794E+06  1.778714E+05  3.070712E+04
        46   4 -7.471636E+06 -1.089846E+06 -6.641309E+04 -2.861726E+06  5.686843E+04 -9.600063E+03
        46   5 -7.479264E+06 -1.048291E+06 -1.147086E+05 -2.827886E+06  1.181726E+05  8.837304E+03
        46   6 -7.486423E+06 -1.189961E+06 -2.425663E+05 -2.824274E+06  1.781575E+05  3.080161E+04
        46   7 -8.430915E+06 -1.440425E+06 -3.222917E+05 -3.109435E+06  5.438054E+04 -1.053551E+04
        46   8 -8.509775E+06 -1.444967E+06 -3.930186E+05 -3.114714E+06  1.170757E+05  8.419085E+03
        46   9 -8.588533E+06 -1.633158E+06 -5.445304E+05 -3.150207E+06  1.784427E+05  3.089575E+04
        46  10 -6.511465E+06 -7.392301E+05  1.893776E+05 -2.613674E+06 -3.705802E-09 -2.545644E-09
        46  11 -6.447730E+06 -6.515462E+05  1.634784E+05 -2.540618E+06 -5.441691E-09 -2.460582E-09
        46  12 -6.383157E+06 -7.466591E+05  5.922394E+04 -2.497798E+06 -4.948664E-09 -7.420533E-11
        46  13 -7.471640E+06 -1.089847E+06 -6.641940E+04 -2.861726E+06  1.638135E-09  5.954002E-10
        46  14 -7.479279E+06 -1.048295E+06 -1.147353E+05 -2.827887E+06  3.083149E-09 -1.717921E-09
        46  15 -7.486458E+06 -1.189971E+06 -2.426286E+05 -2.824278E+06 -5.596115E-09 -1.055771E-09
        46  16 -8.430919E+06 -1.440426E+06 -3.222975E+05 -3.109435E+06  6.696672E-09  2.084053E-10
        46  17 -8.509790E+06 -1.444971E+06 -3.930448E+05 -3.114715E+06  5.029038E-09 -1.768149E-09
        46  18 -8.588568E+06 -1.633168E+06 -5.445929E+05 -3.150211E+06  1.119720E-10 -1.889558E-09
        46  19 -6.511461E+06 -7.392291E+05  1.893844E+05 -2.613674E+06 -5.936055E+04  8.663158E+03
        46  20 -6.447715E+06 -6.515423E+05  1.635056E+05 -2.540617E+06 -1.192713E+05 -9.256252E+03
        46  21 -6.383122E+06 -7.466495E+05  5.928586E+04 -2.497794E+06 -1.778714E+05 -3.070712E+04
        46  22 -7.471636E+06 -1.089846E+06 -6.641309E+04 -2.861726E+06 -5.686843E+04  9.600063E+03
        46  23 -7.479264E+06 -1.048291E+06 -1.147086E+05 -2.827886E+06 -1.181726E+05 -8.837304E+03
        46  24 -7.486423E+06 -1.189961E+06 -2.425663E+05 -2.824274E+06 -1.781575E+05 -3.080161E+04
        46  25 -8.430915E+06 -1.440425E+06 -3.222917E+05 -3.109435E+06 -5.438054E+04  1.053551E+04
        46  26 -8.509775E+06 -1.444967E+06 -3.930186E+05 -3.114714E+06 -1.170757E+05 -8.419085E+03
        46  27 -8.588533E+06 -1.633158E+06 -5.445304E+05 -3.150207E+06 -1.784427E+05 -3.089575E+04
        47   1 -6.237501E+06 -6.662431E+05  3.059264E+04 -2.637205E+06  2.297437E+05  4.406933E+04
        47   2 -6.178781E+06 -4.060166E+05 -1.517837E+05 -2.462980E+06  4.851377E+05  1.387887E+05
        47   3 -6.543704E+06 -1.250982E+06 -8.227720E+05 -2.025138E+06  7.295281E+05  2.626001E+05
        47   4 -7.531910E+06 -1.055928E+06 -2.972957E+05 -2.887230E+06  2.226091E+05  4.141393E+04
        47   5 -7.381565E+06 -9.276407E+05 -4.871301E+05 -2.858197E+06  4.897681E+05  1.404740E+05
        47   6 -7.658140E+06 -1.908338E+06 -1.175742E+06 -2.565272E+06  7.459487E+05  2.684949E+05
        47   7 -8.824669E+06 -1.445638E+06 -6.253088E+05 -3.136845E+06  2.154906E+05  3.876174E+04
        47   8 -8.582918E+06 -1.449044E+06 -8.226124E+05 -3.252666E+06  4.943877E+05  1.421539E+05
        47   9 -8.771220E+06 -2.564982E+06 -1.528830E+06 -3.104344E+06  7.623357E+05  2.743609E+05
        47  10 -6.237559E+06 -6.662595E+05  3.048863E+04 -2.637213E+06 -1.180176E-10  8.007752E-10
        47  11 -6.179041E+06 -4.061016E+05 -1.522678E+05 -2.463034E+06 -4.210743E-10  2.220144E-09
        47  12 -6.544300E+06 -1.251201E+06 -8.239149E+05 -2.025293E+06  3.323426E-09  6.700931E-10
        47  13 -7.531964E+06 -1.055944E+06 -2.973933E+05 -2.887238E+06  1.972161E-09  5.571106E-10
        47  14 -7.381831E+06 -9.277276E+05 -4.876247E+05 -2.858253E+06 -5.945867E-09  2.369446E-09
        47  15 -7.658763E+06 -1.908568E+06 -1.176940E+06 -2.565435E+06  8.722535E-09 -8.520814E-10
        47  16 -8.824720E+06 -1.445652E+06 -6.254003E+05 -3.136852E+06 -2.780958E-10  1.085244E-09
        47  17 -8.583189E+06 -1.449133E+06 -8.231177E+05 -3.252724E+06  1.531172E-09 -2.033963E-10
        47  18 -8.771873E+06 -2.565223E+06 -1.530083E+06 -3.104514E+06 -1.095775E-09 -2.116017E-10
        47  19 -6.237501E+06 -6.662431E+05  3.059264E+04 -2.637205E+06 -2.297437E+05 -4.406933E+04
        47  20 -6.178781E+06 -4.060166E+05 -1.517837E+05 -2.462980E+06 -4.851377E+05 -1.387887E+05
        47  21 -6.543704E+06 -1.250982E+06 -8.227720E+05 -2.025138E+06 -7.295281E+05 -2.626001E+05
        47  22 -7.531910E+06 -1.055928E+06 -2.972957E+05 -2.887230E+06 -2.226091E+05 -4.141393E+04
        47  23 -7.381565E+06 -9.276407E+05 -4.871301E+05 -2.858197E+06 -4.897681E+05 -1.404740E+05
        47  24 -7.658140E+06 -1.908338E+06 -1.175742E+06 -2.565272E+06 -7.459487E+05 -2.684949E+05
        47  25 -8.824669E+06 -1.445638E+06 -6.253088E+05 -3.136845E+06 -2.154906E+05 -3.876174E+04
        47  26 -8.582918E+06 -1.449044E+06 -8.226124E+05 -3.252666E+06 -4.943877E+05 -1.421539E+05
        47  27 -8.771220E+06 -2.564982E+06 -1.528830E+06 -3.104344E+06 -7.623357E+05 -2.743609E+05
        48   1  3.120774E+05 -2.519719E+04  3.529008E+05 -2.199963E+05 -2.077492E+03  2.289054E+05
        48   2  4.370658E+04 -8.881508E+04  1.728114E+05 -1.091297E+05 -4.426483E+03  1.346891E+05
        48   3 -1.821027E+04 -8.862454E+04  1.056781E+05 -5.884141E+03 -6.461365E+03  4.047627E+04
        48   4  3.159767E+05  5.933038E+02  3.580084E+05 -2.873837E+04 -2.029172E+03  2.334979E+05
        48   5  5.631543E+04 -3.135085E+04  1.832798E+05 -2.568607E+04 -4.427930E+03  1.387544E+05
        48   6  3.148530E+03  5.814191E+02  1.218675E+05 -3.023991E+04 -6.479891E+03  4.401019E+04
        48   7  3.200135E+05  2.646308E+04  3.631356E+05  1.625274E+05 -1.978024E+03  2.380906E+05
        48   8  6.895033E+04  2.613164E+04  1.937518E+05  5.776541E+04 -4.428284E+03  1.428200E+05
        48   9  2.450909E+04  8.979639E+04  1.380569E+05 -5.459928E+04 -6.498693E+03  4.754460E+04
        48  10  3.120634E+05 -2.525344E+04  3.528023E+05 -2.199959E+05  1.988533E-09  2.958629E-08
        48  11  4.370169E+04 -8.883456E+04  1.727773E+05 -1.091292E+05  1.444571E-09  4.444466E-10
        48  12 -1.821076E+04 -8.862631E+04  1.056749E+05 -5.883930E+03  3.578325E-09 -3.290847E-08
        48  13  3.159621E+05  5.347717E+02  3.579059E+05 -2.873799E+04 -2.802903E-10  1.301459E-09
        48  14  5.631024E+04 -3.137153E+04  1.832436E+05 -2.568558E+04  7.893367E-09 -3.346905E-10
        48  15  3.147965E+03  5.793283E+02  1.218638E+05 -3.023968E+04  5.112086E-09 -2.914377E-11
        48  16  3.199983E+05  2.640223E+04  3.630291E+05  1.625277E+05  2.341707E-09 -3.025695E-08
        48  17  6.894484E+04  2.610973E+04  1.937135E+05  5.776592E+04  6.692766E-10  2.470201E-09
        48  18  2.450844E+04  8.979396E+04  1.380526E+05 -5.459903E+04  1.882726E-09  3.187888E-08
        48  19  3.120774E+05 -2.519719E+04  3.529008E+05 -2.199963E+05  2.077492E+03 -2.289054E+05
        48  20  4.370658E+04 -8.881508E+04  1.728114E+05 -1.091297E+05  4.426483E+03 -1.346891E+05
        48  21 -1.821027E+04 -8.862454E+04  1.056781E+05 -5.884141E+03  6.461365E+03 -4.047627E+04
        48  22  3.159767E+05  5.933038E+02  3.580084E+05 -2.873837E+04  2.029172E+03 -2.334979E+05
        48  23  5.631543E+04 -3.135085E+04  1.832798E+05 -2.568607E+04  4.427930E+03 -1.387544E+05
        48  24  3.148530E+03  5.814191E+02  1.218675E+05 -3.023991E+04  6.479891E+03 -4.401019E+04
        48  25  3.200135E+05  2.646308E+04  3.631356E+05  1.625274E+05  1.978024E+03 -2.380906E+05
        48  26  6.895033E+04  2.613164E+04  1.937518E+05  5.776541E+04  4.428284E+03 -1.428200E+05
        48  27  2.450909E+04  8.979639E+04  1.380569E+05 -5.459928E+04  6.498693E+03 -4.754460E+04
        49   1 -1.409329E+04 -1.220433E+05  8.948819E+04 -3.847509E+04 -7.767077E+03  2.226432E+04
        49   2 -3.024597E+04 -1.612904E+05  8.093885E+04 -2.485016E+04 -9.668824E+03 -3.044126E+04
        49   3 -2.059126E+04 -1.873091E+05  1.131492E+05 -1.940712E+04 -1.104253E+04 -8.314251E+04
        49   4  1.214762E+04 -1.064578E+04  1.097780E+05 -3.013207E+04 -7.784254E+03  2.592644E+04
        49   5  3.827180E+03 -1.732803E+04  1.072721E+05 -2.601896E+04 -9.682214E+03 -2.759017E+04
        49   6  2.145084E+04 -1.064571E+04  1.460831E+05 -3.008702E+04 -1.105059E+04 -8.110509E+04
        49   7  3.838810E+04  1.007640E+05  1.300674E+05 -2.178749E+04 -7.801332E+03  2.958920E+04
        49   8  3.789916E+04  1.266545E+05  1.336045E+05 -2.718802E+04 -9.695614E+03 -2.473842E+04
        49   9  6.349156E+04  1.660482E+05  1.790158E+05 -4.076999E+04 -1.105871E+04 -7.906709E+04
        49  10 -1.409348E+04 -1.220439E+05  8.948715E+04 -3.847495E+04 -2.863523E-09  2.101995E-08
        49  11 -3.024632E+04 -1.612915E+05  8.093693E+04 -2.485040E+04 -2.448201E-09 -2.298127E-11
        49  12 -2.059325E+04 -1.873166E+05  1.131359E+05 -1.940786E+04 -2.265823E-09 -2.544075E-08
        49  13  1.214737E+04 -1.064652E+04  1.097766E+05 -3.013190E+04 -4.133781E-10  7.887481E-10
        49  14  3.826875E+03 -1.732887E+04  1.072705E+05 -2.601918E+04  1.439907E-09 -6.307773E-11
        49  15  2.144895E+04 -1.065280E+04  1.460705E+05 -3.008774E+04  1.584297E-09  5.503047E-10
        49  16  3.838780E+04  1.007631E+05  1.300657E+05 -2.178731E+04 -7.905798E-10 -2.190972E-08
        49  17  3.789890E+04  1.266539E+05  1.336032E+05 -2.718821E+04 -1.186531E-09  3.546990E-09
        49  18  6.348975E+04  1.660414E+05  1.790038E+05 -4.077070E+04  2.083504E-09  2.481283E-08
        49  19 -1.409329E+04 -1.220433E+05  8.948819E+04 -3.847509E+04  7.767077E+03 -2.226432E+04
        49  20 -3.024597E+04 -1.612904E+05  8.093885E+04 -2.485016E+04  9.668824E+03  3.044126E+04
        49  21 -2.059126E+04 -1.873091E+05  1.131492E+05 -1.940712E+04  1.104253E+04  8.314251E+04
        49  22  1.214762E+04 -1.064578E+04  1.097780E+05 -3.013207E+04  7.784254E+03 -2.592644E+04
        49  23  3.827180E+03 -1.732803E+04  1.072721E+05 -2.601896E+04  9.682214E+03  2.759017E+04
        49  24  2.145084E+04 -1.064571E+04  1.460831E+05 -3.008702E+04  1.105059E+04  8.110509E+04
        49  25  3.838810E+04  1.007640E+05  1.300674E+05 -2.178749E+04  7.801332E+03 -2.958920E+04
        49  26  3.789916E+04  1.266545E+05  1.336045E+05 -2.718802E+04  9.695614E+03  2.473842E+04
        49  27  6.349156E+04  1.660482E+05  1.790158E+05 -4.076999E+04  1.105871E+04  7.906709E+04
        50   1 -4.185830E+04 -1.887600E+05  1.410521E+05 -7.269628E+04 -1.216273E+04 -1.087969E+05
        50   2  4.018498E+04 -2.732729E+05  2.541473E+05  1.173150E+05 -1.029278E+04 -2.543920E+05
        50   3  4.747617E+05 -2.506727E+05  5.502600E+05  3.006265E+05 -1.897990E+03 -3.999434E+05
        50   4  4.969268E+03  1.055255E+04  1.782926E+05 -3.017729E+04 -1.218453E+04 -1.057154E+05
        50   5  9.694218E+04 -4.380707E+04  3.006062E+05 -2.555974E+04 -1.020166E+04 -2.613509E+05
        50   6  5.429894E+05  1.057148E+04  6.128539E+05 -2.765991E+04 -1.608069E+03 -4.169530E+05
        50   7  5.180145E+04  2.099075E+05  2.155324E+05  1.235574E+04 -1.220590E+04 -1.026330E+05
        50   8  1.537725E+05  1.857526E+05  3.470735E+05 -1.684884E+05 -1.010736E+04 -2.683123E+05
        50   9  6.116166E+05  2.721095E+05  6.755016E+05 -3.560860E+05 -1.300248E+03 -4.339698E+05
        50  10 -4.186164E+04 -1.887727E+05  1.410296E+05 -7.269735E+04 -4.462768E-09 -4.565667E-10
        50  11  4.016749E+04 -2.733424E+05  2.540254E+05  1.173128E+05  1.276369E-09 -4.257224E-10
        50  12  4.747187E+05 -2.508445E+05  5.499593E+05  3.006259E+05  1.764433E-10 -4.715692E-09
        50  13  4.966109E+03  1.054051E+04  1.782713E+05 -3.017832E+04  6.955797E-13  1.343903E-09
        50  14  9.692374E+04 -4.388042E+04  3.004777E+05 -2.556189E+04 -2.399292E-09 -3.409365E-10
        50  15  5.429427E+05  1.038488E+04  6.125272E+05 -2.766045E+04  2.278612E-09  1.501903E-10
        50  16  5.179846E+04  2.098962E+05  2.155123E+05  1.235473E+04  2.012999E-09 -2.948811E-10
        50  17  1.537531E+05  1.856753E+05  3.469380E+05 -1.684906E+05  6.479899E-09  3.734782E-09
        50  18  6.115661E+05  2.719074E+05  6.751478E+05 -3.560865E+05  5.356936E-09  4.395498E-09
        50  19 -4.185830E+04 -1.887600E+05  1.410521E+05 -7.269628E+04  1.216273E+04  1.087969E+05
        50  20  4.018498E+04 -2.732729E+05  2.541473E+05  1.173150E+05  1.029278E+04  2.543920E+05
        50  21  4.747617E+05 -2.506727E+05  5.502600E+05  3.006265E+05  1.897990E+03  3.999434E+05
        50  22  4.969268E+03  1.055255E+04  1.782926E+05 -3.017729E+04  1.218453E+04  1.057154E+05
        50  23  9.694218E+04 -4.380707E+04  3.006062E+05 -2.555974E+04  1.020166E+04  2.613509E+05
        50  24  5.429894E+05  1.057148E+04  6.128539E+05 -2.765991E+04  1.608069E+03  4.169530E+05
        50  25  5.180145E+04  2.099075E+05  2.155324E+05  1.235574E+04  1.220590E+04  1.026330E+05
        50  26  1.537725E+05  1.857526E+05  3.470735E+05 -1.684884E+05  1.010736E+04  2.683123E+05
        50  27  6.116166E+05  2.721095E+05  6.755016E+05 -3.560860E+05  1.300248E+03  4.339698E+05
        51   1 -5.522844E+06 -1.699253E+06 -1.022645E+06 -1.924820E+06 -3.985449E+05 -1.333577E+05
        51   2 -5.384669E+06 -1.091927E+06 -6.448635E+05 -1.956234E+06 -2.619795E+05 -4.541478E+04
        51   3 -5.417749E+06 -1.085065E+06 -5.281320E+05 -1.903041E+06 -1.118735E+05  6.921072E+03
        51   4 -4.027935E+06 -1.012788E+06 -5.889450E+05 -1.396590E+06 -3.782928E+05 -1.257577E+05
        51   5 -3.912818E+06 -5.010675E+05 -2.446181E+05 -1.519601E+06 -2.565099E+05 -4.336923E+04
        51   6 -3.965500E+06 -5.860774E+05 -1.490626E+05 -1.558146E+06 -1.212115E+05  3.399827E+03
        51   7 -2.530833E+06 -3.258818E+05 -1.554673E+05 -8.671019E+05 -3.579858E+05 -1.181270E+05
        51   8 -2.438860E+06  8.999571E+04  1.554288E+05 -1.081999E+06 -2.510254E+05 -4.131722E+04
        51   9 -2.511203E+06 -8.704989E+04  2.298318E+05 -1.212556E+06 -1.305734E+05 -1.285297E+02
        51  10 -5.523020E+06 -1.699316E+06 -1.022980E+06 -1.924863E+06  9.852994E-10 -5.870192E-10
        51  11 -5.384743E+06 -1.091948E+06 -6.449977E+05 -1.956244E+06 -2.197639E-09 -8.020918E-10
        51  12 -5.417763E+06 -1.085069E+06 -5.281558E+05 -1.903041E+06 -1.549460E-10  1.954019E-10
        51  13 -4.028094E+06 -1.012844E+06 -5.892459E+05 -1.396628E+06  1.929070E-09 -1.444035E-09
        51  14 -3.912890E+06 -5.010874E+05 -2.447462E+05 -1.519610E+06 -3.542426E-09 -2.858035E-09
        51  15 -3.965516E+06 -5.860814E+05 -1.490904E+05 -1.558146E+06 -5.402707E-09 -3.924030E-10
        51  16 -2.530975E+06 -3.259314E+05 -1.557356E+05 -8.671361E+05 -5.265034E-09 -7.270959E-10
        51  17 -2.438928E+06  8.997685E+04  1.553067E+05 -1.082007E+06  3.326488E-09 -2.522878E-09
        51  18 -2.511221E+06 -8.705449E+04  2.297997E+05 -1.212556E+06 -6.489469E-10 -2.310587E-10
        51  19 -5.522844E+06 -1.699253E+06 -1.022645E+06 -1.924820E+06  3.985449E+05  1.333577E+05
        51  20 -5.384669E+06 -1.091927E+06 -6.448635E+05 -1.956234E+06  2.619795E+05  4.541478E+04
        51  21 -5.417749E+06 -1.085065E+06 -5.281320E+05 -1.903041E+06  1.118735E+05 -6.921072E+03
        51  22 -4.027935E+06 -1.012788E+06 -5.889450E+05 -1.396590E+06  3.782928E+05  1.257577E+05
        51  23 -3.912818E+06 -5.010675E+05 -2.446181E+05 -1.519601E+06  2.565099E+05  4.336923E+04
        51  24 -3.965500E+06 -5.860774E+05 -1.490626E+05 -1.558146E+06  1.212115E+05 -3.399827E+03
        51  25 -2.530833E+06 -3.258818E+05 -1.554673E+05 -8.671019E+05  3.579858E+05  1.181270E+05
        51  26 -2.438860E+06  8.999571E+04  1.554288E+05 -1.081999E+06  2.510254E+05  4.131722E+04
        51  27 -2.511203E+06 -8.704989E+04  2.298318E+05 -1.212556E+06  1.305734E+05  1.285297E+02
        52   1 -5.182365E+06 -1.135881E+06 -4.569744E+05 -1.878939E+06 -9.711201E+04  3.936894E+03
        52   2 -5.094541E+06 -9.905379E+05 -3.614122E+05 -1.814601E+06 -6.494551E+04  1.443306E+04
        52   3 -4.958876E+06 -9.835334E+05 -3.066435E+05 -1.818238E+06 -3.138274E+04  2.119992E+04
        52   4 -3.941968E+06 -6.541538E+05 -1.217042E+05 -1.527687E+06 -9.704265E+04  3.954903E+03
        52   5 -3.962394E+06 -5.599591E+05 -5.775866E+04 -1.503145E+06 -6.639674E+04  1.388246E+04
        52   6 -3.934641E+06 -6.037144E+05 -3.332864E+04 -1.546584E+06 -3.436199E+04  2.008047E+04
        52   7 -2.700072E+06 -1.723096E+05  2.134289E+05 -1.175787E+06 -9.697298E+04  3.973046E+03
        52   8 -2.829001E+06 -1.292981E+05  2.457819E+05 -1.191170E+06 -6.785083E+04  1.333078E+04
        52   9 -2.909389E+06 -2.238422E+05  2.398945E+05 -1.274526E+06 -3.734666E+04  1.895907E+04
        52  10 -5.182375E+06 -1.135884E+06 -4.569923E+05 -1.878939E+06  1.059321E-09 -1.444854E-09
        52  11 -5.094545E+06 -9.905393E+05 -3.614206E+05 -1.814601E+06  3.014227E-09 -5.981300E-10
        52  12 -4.958877E+06 -9.835342E+05 -3.066462E+05 -1.818238E+06 -1.297932E-09  2.953140E-09
        52  13 -3.941978E+06 -6.541564E+05 -1.217220E+05 -1.527687E+06  3.295426E-10 -1.521589E-09
        52  14 -3.962399E+06 -5.599605E+05 -5.776734E+04 -1.503144E+06 -2.274423E-09 -3.512780E-09
        52  15 -3.934642E+06 -6.037151E+05 -3.333162E+04 -1.546583E+06 -1.176727E-09 -3.745578E-09
        52  16 -2.700082E+06 -1.723122E+05  2.134112E+05 -1.175786E+06 -1.196796E-09  6.923089E-10
        52  17 -2.829006E+06 -1.292995E+05  2.457729E+05 -1.191169E+06 -2.636729E-09  1.135633E-09
        52  18 -2.909390E+06 -2.238430E+05  2.398912E+05 -1.274525E+06 -1.487589E-09  2.334550E-09
        52  19 -5.182365E+06 -1.135881E+06 -4.569744E+05 -1.878939E+06  9.711201E+04 -3.936894E+03
        52  20 -5.094541E+06 -9.905379E+05 -3.614122E+05 -1.814601E+06  6.494551E+04 -1.443306E+04
        52  21 -4.958876E+06 -9.835334E+05 -3.066435E+05 -1.818238E+06  3.138274E+04 -2.119992E+04
        52  22 -3.941968E+06 -6.541538E+05 -1.217042E+05 -1.527687E+06  9.704265E+04 -3.954903E+03
        52  23 -3.962394E+06 -5.599591E+05 -5.775866E+04 -1.503145E+06  6.639674E+04 -1.388246E+04
        52  24 -3.934641E+06 -6.037144E+05 -3.332864E+04 -1.546584E+06  3.436199E+04 -2.008047E+04
        52  25 -2.700072E+06 -1.723096E+05  2.134289E+05 -1.175787E+06  9.697298E+04 -3.973046E+03
        52  26 -2.829001E+06 -1.292981E+05  2.457819E+05 -1.191170E+06  6.785083E+04 -1.333078E+04
        52  27 -2.909389E+06 -2.238422E+05  2.398945E+05 -1.274526E+06  3.734666E+04 -1.895907E+04
        53   1 -4.735445E+06 -9.190980E+05 -2.417581E+05 -1.766047E+06 -2.606461E+04  1.906863E+04
        53   2 -4.640356E+06 -8.152528E+05 -1.924344E+05 -1.678834E+06 -1.693932E+04  1.640533E+04
        53   3 -4.460013E+06 -8.072444E+05 -1.503406E+05 -1.691274E+06 -7.590765E+03  1.311856E+04
        53   4 -3.929124E+06 -6.143626E+05 -2.623770E+04 -1.546062E+06 -2.821046E+04  1.826325E+04
        53   5 -3.971310E+06 -5.633878E+05 -1.350618E+04 -1.497378E+06 -1.934026E+04  1.550684E+04
        53   6 -3.928210E+06 -6.081878E+05 -7.792390E+03 -1.548348E+06 -1.024864E+04  1.212667E+04
        53   7 -3.122173E+06 -3.095883E+05  1.892250E+05 -1.325817E+06 -3.035938E+04  1.745671E+04
        53   8 -3.301830E+06 -3.114965E+05  1.653827E+05 -1.315744E+06 -2.174405E+04  1.460728E+04
        53   9 -3.396132E+06 -4.091150E+05  1.347313E+05 -1.405312E+06 -1.290904E+04  1.113386E+04
        53  10 -4.735446E+06 -9.190986E+05 -2.417601E+05 -1.766047E+06 -6.029737E-10  3.914060E-09
        53  11 -4.640356E+06 -8.152531E+05 -1.924354E+05 -1.678834E+06  2.295837E-09  1.975310E-09
        53  12 -4.460013E+06 -8.072446E+05 -1.503411E+05 -1.691273E+06  3.374538E-09  1.842399E-09
        53  13 -3.929125E+06 -6.143632E+05 -2.623982E+04 -1.546061E+06  4.176293E-09 -3.817568E-09
        53  14 -3.971310E+06 -5.633881E+05 -1.350734E+04 -1.497378E+06 -9.171679E-09 -1.583318E-09
        53  15 -3.928210E+06 -6.081880E+05 -7.792863E+03 -1.548348E+06  1.211552E-09 -1.435804E-09
        53  16 -3.122174E+06 -3.095889E+05  1.892227E+05 -1.325817E+06 -2.567877E-09  3.025505E-09
        53  17 -3.301830E+06 -3.114969E+05  1.653814E+05 -1.315744E+06 -4.263757E-09  2.443735E-09
        53  18 -3.396132E+06 -4.091152E+05  1.347308E+05 -1.405312E+06 -5.975213E-09 -2.368483E-09
        53  19 -4.735445E+06 -9.190980E+05 -2.417581E+05 -1.766047E+06  2.606461E+04 -1.906863E+04
        53  20 -4.640356E+06 -8.152528E+05 -1.924344E+05 -1.678834E+06  1.693932E+04 -1.640533E+04
        53  21 -4.460013E+06 -8.072444E+05 -1.503406E+05 -1.691274E+06  7.590765E+03 -1.311856E+04
        53  22 -3.929124E+06 -6.143626E+05 -2.623770E+04 -1.546062E+06  2.821046E+04 -1.826325E+04
        53  23 -3.971310E+06 -5.633878E+05 -1.350618E+04 -1.497378E+06  1.934026E+04 -1.550684E+04
        53  24 -3.928210E+06 -6.081878E+05 -7.792390E+03 -1.548348E+06  1.024864E+04 -1.212667E+04
        53  25 -3.122173E+06 -3.095883E+05  1.892250E+05 -1.325817E+06  3.035938E+04 -1.745671E+04
        53  26 -3.301830E+06 -3.114965E+05  1.653827E+05 -1.315744E+06  2.174405E+04 -1.460728E+04
        53  27 -3.396132E+06 -4.091150E+05  1.347313E+05 -1.405312E+06  1.290904E+04 -1.113386E+04
        54   1 -4.217300E+06 -7.197151E+05 -8.338592E+04 -1.628280E+06 -5.170545E+03  9.900634E+03
        54   2 -4.115831E+06 -6.157875E+05 -4.191273E+04 -1.533613E+06 -8.858887E+02  4.497760E+03
        54   3 -3.920434E+06 -6.075732E+05 -2.234611E+03 -1.547978E+06  3.432594E+03 -1.001845E+03
        54   4 -3.926561E+06 -6.105189E+05 -6.219890E+03 -1.549531E+06 -7.760094E+03  8.935367E+03
        54   5 -3.973468E+06 -5.623375E+05 -3.877515E+03 -1.495134E+06 -3.515787E+03  3.517953E+03
        54   6 -3.926461E+06 -6.098602E+05 -3.295654E+03 -1.549773E+06  7.617701E+02 -1.996276E+03
        54   7 -3.635741E+06 -5.013176E+05  7.093893E+04 -1.470749E+06 -1.035099E+04  7.969598E+03
        54   8 -3.831087E+06 -5.088866E+05  3.415579E+04 -1.456646E+06 -6.146341E+03  2.537902E+03
        54   9 -3.932489E+06 -6.121471E+05 -4.356651E+03 -1.551568E+06 -1.909001E+03 -2.990686E+03
        54  10 -4.217300E+06 -7.197152E+05 -8.338615E+04 -1.628280E+06 -4.974258E-10  5.480380E-10
        54  11 -4.115831E+06 -6.157875E+05 -4.191277E+04 -1.533613E+06 -9.913716E-09  3.008820E-09
        54  12 -3.920434E+06 -6.075732E+05 -2.234635E+03 -1.547978E+06 -1.105078E-09 -1.260300E-09
        54  13 -3.926562E+06 -6.105190E+05 -6.220153E+03 -1.549531E+06 -3.669365E-09 -9.876615E-10
        54  14 -3.973468E+06 -5.623375E+05 -3.877562E+03 -1.495134E+06 -2.451342E-09 -1.153530E-09
        54  15 -3.926461E+06 -6.098602E+05 -3.295663E+03 -1.549773E+06 -4.589578E-09 -7.947487E-10
        54  16 -3.635741E+06 -5.013177E+05  7.093861E+04 -1.470749E+06 -3.437577E-09  7.944004E-10
        54  17 -3.831087E+06 -5.088866E+05  3.415571E+04 -1.456646E+06 -6.094491E-09  2.200148E-09
        54  18 -3.932489E+06 -6.121471E+05 -4.356675E+03 -1.551568E+06 -1.336311E-09 -2.197814E-09
        54  19 -4.217300E+06 -7.197151E+05 -8.338592E+04 -1.628280E+06  5.170545E+03 -9.900634E+03
        54  20 -4.115831E+06 -6.157875E+05 -4.191273E+04 -1.533613E+06  8.858887E+02 -4.497760E+03
        54  21 -3.920434E+06 -6.075732E+05 -2.234611E+03 -1.547978E+06 -3.432594E+03  1.001845E+03
        54  22 -3.926561E+06 -6.105189E+05 -6.219890E+03 -1.549531E+06  7.760094E+03 -8.935367E+03
        54  23 -3.973468E+06 -5.623375E+05 -3.877515E+03 -1.495134E+06  3.515787E+03 -3.517953E+03
        54  24 -3.926461E+06 -6.098602E+05 -3.295654E+03 -1.549773E+06 -7.617701E+02  1.996276E+03
        54  25 -3.635741E+06 -5.013176E+05  7.093893E+04 -1.470749E+06  1.035099E+04 -7.969598E+03
        54  26 -3.831087E+06 -5.088866E+05  3.415579E+04 -1.456646E+06  6.146341E+03 -2.537902E+03
        54  27 -3.932489E+06 -6.121471E+05 -4.356651E+03 -1.551568E+06  1.909001E+03  2.990686E+03
        55   1 -3.674029E+06 -5.145310E+05  6.469319E+04 -1.481149E+06  5.344913E+03 -4.471671E+03
        55   2 -3.575003E+06 -4.134743E+05  1.017664E+05 -1.388161E+06  9.830906E+03 -9.826554E+03
        55   3 -3.383882E+06 -4.062584E+05  1.369172E+05 -1.401666E+06  1.423916E+04 -1.495118E+04
        55   4 -3.926878E+06 -6.093517E+05 -3.387482E+03 -1.549257E+06  2.675252E+03 -5.466037E+03
        55   5 -3.972989E+06 -5.629303E+05 -4.540230E+03 -1.495816E+06  7.256788E+03 -1.078690E+04
        55   6 -3.927041E+06 -6.103763E+05 -7.691123E+03 -1.548883E+06  1.175996E+04 -1.587756E+04
        55   7 -4.179668E+06 -7.041697E+05 -7.147437E+04 -1.617340E+06  6.771002E+00 -6.459966E+03
        55   8 -4.370824E+06 -7.123783E+05 -1.108615E+05 -1.603409E+06  4.684473E+03 -1.174657E+04
        55   9 -4.469917E+06 -8.144781E+05 -1.523260E+05 -1.695984E+06  9.283139E+03 -1.680304E+04
        55  10 -3.674029E+06 -5.145310E+05  6.469310E+04 -1.481149E+06 -5.106735E-09  1.427140E-09
        55  11 -3.575004E+06 -4.134744E+05  1.017661E+05 -1.388161E+06 -2.693470E-09  5.369645E-09
        55  12 -3.383882E+06 -4.062587E+05  1.369164E+05 -1.401666E+06 -5.493392E-09  4.387579E-10
        55  13 -3.926878E+06 -6.093518E+05 -3.387551E+03 -1.549257E+06 -6.463567E-10 -1.985532E-09
        55  14 -3.972989E+06 -5.629305E+05 -4.540547E+03 -1.495816E+06  3.562188E-09  4.498838E-09
        55  15 -3.927041E+06 -6.103766E+05 -7.691855E+03 -1.548883E+06 -8.462388E-10 -1.063357E-09
        55  16 -4.179668E+06 -7.041697E+05 -7.147445E+04 -1.617340E+06  5.241450E-09 -2.130547E-10
        55  17 -4.370824E+06 -7.123784E+05 -1.108618E+05 -1.603409E+06  2.775428E-09  1.245636E-09
        55  18 -4.469917E+06 -8.144784E+05 -1.523267E+05 -1.695984E+06  3.119135E-09  3.256197E-09
        55  19 -3.674029E+06 -5.145310E+05  6.469319E+04 -1.481149E+06 -5.344913E+03  4.471671E+03
        55  20 -3.575003E+06 -4.134743E+05  1.017664E+05 -1.388161E+06 -9.830906E+03  9.826554E+03
        55  21 -3.383882E+06 -4.062584E+05  1.369172E+05 -1.401666E+06 -1.423916E+04  1.495118E+04
        55  22 -3.926878E+06 -6.093517E+05 -3.387482E+03 -1.549257E+06 -2.675252E+03  5.466037E+03
        55  23 -3.972989E+06 -5.629303E+05 -4.540230E+03 -1.495816E+06 -7.256788E+03  1.078690E+04
        55  24 -3.927041E+06 -6.103763E+05 -7.691123E+03 -1.548883E+06 -1.175996E+04  1.587756E+04
        55  25 -4.179668E+06 -7.041697E+05 -7.147437E+04 -1.617340E+06 -6.771002E+00  6.459966E+03
        55  26 -4.370824E+06 -7.123783E+05 -1.108615E+05 -1.603409E+06 -4.684473E+03  1.174657E+04
        55  27 -4.469917E+06 -8.144781E+05 -1.523260E+05 -1.695984E+06 -9.283139E+03  1.680304E+04
        56   1 -3.155707E+06 -3.169607E+05  1.973379E+05 -1.338269E+06  1.701705E+04 -1.785436E+04
        56   2 -3.068129E+06 -2.252149E+05  2.238169E+05 -1.254245E+06  2.752547E+04 -2.031416E+04
        56   3 -2.901415E+06 -2.252723E+05  2.417473E+05 -1.262224E+06  3.776580E+04 -2.201373E+04
        56   4 -3.929598E+06 -6.069053E+05 -9.741464E+03 -1.546837E+06  1.446825E+04 -1.880847E+04
        56   5 -3.969710E+06 -5.648936E+05 -1.715177E+04 -1.499370E+06  2.528597E+04 -2.115577E+04
        56   6 -3.930765E+06 -6.147650E+05 -3.336580E+04 -1.543918E+06  3.583354E+04 -2.274300E+04
        56   7 -4.702903E+06 -8.968137E+05 -2.168715E+05 -1.755168E+06  1.192298E+04 -1.976127E+04
        56   8 -4.870500E+06 -9.045233E+05 -2.581911E+05 -1.744171E+06  2.305005E+04 -2.199604E+04
        56   9 -4.959092E+06 -1.004194E+06 -3.085732E+05 -1.825190E+06  3.390478E+04 -2.347095E+04
        56  10 -3.155707E+06 -3.169611E+05  1.973368E+05 -1.338269E+06 -5.081766E-09 -1.102567E-09
        56  11 -3.068130E+06 -2.252155E+05  2.238147E+05 -1.254245E+06 -1.285352E-09  1.972211E-09
        56  12 -2.901417E+06 -2.252732E+05  2.417437E+05 -1.262223E+06  1.453938E-09  1.315983E-09
        56  13 -3.929599E+06 -6.069058E+05 -9.742521E+03 -1.546837E+06 -5.252201E-09 -1.667325E-09
        56  14 -3.969710E+06 -5.648943E+05 -1.715381E+04 -1.499369E+06  9.068869E-10 -1.254070E-09
        56  15 -3.930767E+06 -6.147659E+05 -3.336919E+04 -1.543918E+06  2.472035E-09  1.093856E-09
        56  16 -4.702903E+06 -8.968141E+05 -2.168725E+05 -1.755167E+06 -1.582003E-09 -3.996871E-10
        56  17 -4.870501E+06 -9.045240E+05 -2.581931E+05 -1.744170E+06 -1.885212E-09  1.654735E-09
        56  18 -4.959094E+06 -1.004195E+06 -3.085764E+05 -1.825189E+06  1.300193E-10  2.396972E-10
        56  19 -3.155707E+06 -3.169607E+05  1.973379E+05 -1.338269E+06 -1.701705E+04  1.785436E+04
        56  20 -3.068129E+06 -2.252149E+05  2.238169E+05 -1.254245E+06 -2.752547E+04  2.031416E+04
        56  21 -2.901415E+06 -2.252723E+05  2.417473E+05 -1.262224E+06 -3.776580E+04  2.201373E+04
        56  22 -3.929598E+06 -6.069053E+05 -9.741464E+03 -1.546837E+06 -1.446825E+04  1.880847E+04
        56  23 -3.969710E+06 -5.648936E+05 -1.715177E+04 -1.499370E+06 -2.528597E+04  2.115577E+04
        56  24 -3.930765E+06 -6.147650E+05 -3.336580E+04 -1.543918E+06 -3.583354E+04  2.274300E+04
        56  25 -4.702903E+06 -8.968137E+05 -2.168715E+05 -1.755168E+06 -1.192298E+04  1.976127E+04
        56  26 -4.870500E+06 -9.045233E+05 -2.581911E+05 -1.744171E+06 -2.305005E+04  2.199604E+04
        56  27 -4.959092E+06 -1.004194E+06 -3.085732E+05 -1.825190E+06 -3.390478E+04  2.347095E+04
        57   1 -2.708786E+06 -1.456128E+05  2.849820E+05 -1.218124E+06  4.600372E+04 -2.272458E+04
        57   2 -2.638053E+06 -5.712934E+04  2.802834E+05 -1.141489E+06  8.443524E+04 -1.341760E+04
        57   3 -2.534949E+06 -1.143459E+05  2.266659E+05 -1.117307E+06  1.213692E+05 -8.760796E+01
        57   4 -3.937716E+06 -6.013626E+05 -4.243373E+04 -1.544769E+06  4.318961E+04 -2.378708E+04
        57   5 -3.958382E+06 -5.603158E+05 -7.358429E+04 -1.506492E+06  8.325089E+04 -1.387166E+04
        57   6 -3.947082E+06 -6.654212E+05 -1.550359E+05 -1.520672E+06  1.218070E+05  6.676065E+01
        57   7 -5.165183E+06 -1.057035E+06 -3.699812E+05 -1.870833E+06  4.038160E+04 -2.484739E+04
        57   8 -5.277019E+06 -1.063388E+06 -4.276057E+05 -1.870789E+06  8.206919E+04 -1.432472E+04
        57   9 -5.357275E+06 -1.216340E+06 -5.369158E+05 -1.923191E+06  1.222435E+05  2.205646E+02
        57  10 -2.708788E+06 -1.456140E+05  2.849770E+05 -1.218123E+06 -9.411295E-11  1.471005E-09
        57  11 -2.638060E+06 -5.713145E+04  2.802696E+05 -1.141488E+06 -9.081879E-10  1.276669E-09
        57  12 -2.534965E+06 -1.143498E+05  2.266381E+05 -1.117307E+06 -9.667297E-11  1.279083E-09
        57  13 -3.937718E+06 -6.013637E+05 -4.243830E+04 -1.544768E+06 -1.869454E-09  1.391033E-09
        57  14 -3.958389E+06 -5.603179E+05 -7.359774E+04 -1.506492E+06  2.731926E-09 -1.382465E-09
        57  15 -3.947098E+06 -6.654252E+05 -1.550640E+05 -1.520672E+06  3.948522E-10 -5.233413E-10
        57  16 -5.165185E+06 -1.057037E+06 -3.699855E+05 -1.870832E+06 -8.153578E-11  9.331703E-10
        57  17 -5.277026E+06 -1.063390E+06 -4.276188E+05 -1.870788E+06 -3.667762E-09 -4.009009E-10
        57  18 -5.357291E+06 -1.216344E+06 -5.369441E+05 -1.923191E+06 -5.723145E-09 -1.134238E-09
        57  19 -2.708786E+06 -1.456128E+05  2.849820E+05 -1.218124E+06 -4.600372E+04  2.272458E+04
        57  20 -2.638053E+06 -5.712934E+04  2.802834E+05 -1.141489E+06 -8.443524E+04  1.341760E+04
        57  21 -2.534949E+06 -1.143459E+05  2.266659E+05 -1.117307E+06 -1.213692E+05  8.760796E+01
        57  22 -3.937716E+06 -6.013626E+05 -4.243373E+04 -1.544769E+06 -4.318961E+04  2.378708E+04
        57  23 -3.958382E+06 -5.603158E+05 -7.358429E+04 -1.506492E+06 -8.325089E+04  1.387166E+04
        57  24 -3.947082E+06 -6.654212E+05 -1.550359E+05 -1.520672E+06 -1.218070E+05 -6.676065E+01
        57  25 -5.165183E+06 -1.057035E+06 -3.699812E+05 -1.870833E+06 -4.038160E+04  2.484739E+04
        57  26 -5.277019E+06 -1.063388E+06 -4.276057E+05 -1.870789E+06 -8.206919E+04  1.432472E+04
        57  27 -5.357275E+06 -1.216340E+06 -5.369158E+05 -1.923191E+06 -1.222435E+05 -2.205646E+02
        58   1 -2.366807E+06 -3.443783E+04  2.279245E+05 -1.184960E+06  1.613054E+05  6.618742E+03
        58   2 -2.302400E+06  1.629314E+05  1.224778E+05 -1.045076E+06  3.172518E+05  6.241779E+04
        58   3 -2.475362E+06 -3.690386E+05 -2.869607E+05 -7.671971E+05  4.588284E+05  1.559840E+05
        58   4 -3.976330E+06 -5.796152E+05 -1.899394E+05 -1.560521E+06  1.517681E+05  3.013959E+03
        58   5 -3.895803E+06 -4.842419E+05 -3.115731E+05 -1.526352E+06  3.233553E+05  6.470348E+04
        58   6 -4.056482E+06 -1.122493E+06 -7.502839E+05 -1.354003E+06  4.805525E+05  1.641399E+05
        58   7 -5.583349E+06 -1.124757E+06 -6.080167E+05 -1.935256E+06  1.422577E+05 -5.831324E+02
        58   8 -5.486731E+06 -1.131153E+06 -7.458545E+05 -2.006468E+06  3.294406E+05  6.698111E+04
        58   9 -5.635111E+06 -1.875349E+06 -1.213850E+06 -1.939307E+06  5.022138E+05  1.722583E+05
        58  10 -2.366835E+06 -3.444490E+04  2.278753E+05 -1.184961E+06  6.991775E-10  1.719063E-09
        58  11 -2.302510E+06  1.629001E+05  1.222805E+05 -1.045092E+06 -1.684548E-09  6.377478E-09
        58  12 -2.475596E+06 -3.691217E+05 -2.874040E+05 -7.672549E+05 -3.640981E-10  1.421112E-09
        58  13 -3.976355E+06 -5.796214E+05 -1.899829E+05 -1.560522E+06 -3.830701E-09  2.537875E-09
        58  14 -3.895917E+06 -4.842748E+05 -3.117789E+05 -1.526369E+06  1.019495E-09 -4.508284E-09
        58  15 -4.056739E+06 -1.122585E+06 -7.507721E+05 -1.354067E+06  1.113563E-09  3.767278E-10
        58  16 -5.583371E+06 -1.124762E+06 -6.080550E+05 -1.935256E+06 -7.440541E-10 -2.178491E-09
        58  17 -5.486850E+06 -1.131187E+06 -7.460690E+05 -2.006486E+06 -1.598118E-09  2.261040E-09
        58  18 -5.635392E+06 -1.875450E+06 -1.214385E+06 -1.939377E+06 -2.154766E-10 -3.224615E-10
        58  19 -2.366807E+06 -3.443783E+04  2.279245E+05 -1.184960E+06 -1.613054E+05 -6.618742E+03
        58  20 -2.302400E+06  1.629314E+05  1.224778E+05 -1.045076E+06 -3.172518E+05 -6.241779E+04
        58  21 -2.475362E+06 -3.690386E+05 -2.869607E+05 -7.671971E+05 -4.588284E+05 -1.559840E+05
        58  22 -3.976330E+06 -5.796152E+05 -1.899394E+05 -1.560521E+06 -1.517681E+05 -3.013959E+03
        58  23 -3.895803E+06 -4.842419E+05 -3.115731E+05 -1.526352E+06 -3.233553E+05 -6.470348E+04
        58  24 -4.056482E+06 -1.122493E+06 -7.502839E+05 -1.354003E+06 -4.805525E+05 -1.641399E+05
        58  25 -5.583349E+06 -1.124757E+06 -6.080167E+05 -1.935256E+06 -1.422577E+05  5.831324E+02
        58  26 -5.486731E+06 -1.131153E+06 -7.458545E+05 -2.006468E+06 -3.294406E+05 -6.698111E+04
        58  27 -5.635111E+06 -1.875349E+06 -1.213850E+06 -1.939307E+06 -5.022138E+05 -1.722583E+05
        59   1  1.825938E+05 -7.980068E+05  1.720808E+05  3.272693E+03  8.025966E+03 -8.655882E+03
        59   2  2.079349E+05 -8.098821E+05  1.795837E+05  3.554193E+03  2.450588E+04 -6.630968E+03
        59   3  1.997849E+05 -8.295691E+05  1.775975E+05 -8.691831E+03  2.391328E+04 -4.654068E+03
        59   4 -2.616275E+04 -1.634022E+06 -3.481377E+04 -2.836053E+03  8.058110E+03 -2.003604E+04
        59   5  4.242914E+03 -1.629423E+06 -1.830255E+04  3.465856E+03  2.451993E+04 -1.024327E+04
        59   6 -2.174468E+02 -1.633999E+06 -1.669447E+04 -2.760671E+03  2.389930E+04 -4.982860E+02
        59   7 -2.349714E+05 -2.469401E+06 -2.417598E+05 -8.936115E+03  8.090501E+03 -3.140086E+04
        59   8 -1.994982E+05 -2.448348E+06 -2.162369E+05  3.378138E+03  2.453400E+04 -1.385081E+04
        59   9 -2.002671E+05 -2.437835E+06 -2.110329E+05  3.163334E+03  2.388540E+04  3.652124E+03
        59  10  1.825937E+05 -7.980069E+05  1.720805E+05  3.272749E+03 -3.766075E-09  2.051392E-09
        59  11  2.079342E+05 -8.098823E+05  1.795824E+05  3.554324E+03  3.251762E-11 -3.435002E-09
        59  12  1.997843E+05 -8.295693E+05  1.775964E+05 -8.691741E+03 -3.402001E-10 -1.258070E-09
        59  13 -2.616293E+04 -1.634023E+06 -3.481465E+04 -2.835923E+03 -9.272595E-09  7.060263E-11
        59  14  4.242240E+03 -1.629423E+06 -1.830387E+04  3.466058E+03  3.240471E-09 -3.283155E-09
        59  15 -2.180597E+02 -1.633999E+06 -1.669555E+04 -2.760661E+03 -2.019873E-09 -4.226532E-09
        59  16 -2.349717E+05 -2.469402E+06 -2.417618E+05 -8.935910E+03 -3.805955E-09 -1.516681E-09
        59  17 -1.994989E+05 -2.448348E+06 -2.162384E+05  3.378412E+03 -7.746028E-10 -2.858157E-09
        59  18 -2.002677E+05 -2.437836E+06 -2.110340E+05  3.163263E+03  3.491475E-09 -7.726164E-10
        59  19  1.825938E+05 -7.980068E+05  1.720808E+05  3.272693E+03 -8.025966E+03  8.655882E+03
        59  20  2.079349E+05 -8.098821E+05  1.795837E+05  3.554193E+03 -2.450588E+04  6.630968E+03
        59  21  1.997849E+05 -8.295691E+05  1.775975E+05 -8.691831E+03 -2.391328E+04  4.654068E+03
        59  22 -2.616275E+04 -1.634022E+06 -3.481377E+04 -2.836053E+03 -8.058110E+03  2.003604E+04
        59  23  4.242914E+03 -1.629423E+06 -1.830255E+04  3.465856E+03 -2.451993E+04  1.024327E+04
        59  24 -2.174468E+02 -1.633999E+06 -1.669447E+04 -2.760671E+03 -2.389930E+04  4.982860E+02
        59  25 -2.349714E+05 -2.469401E+06 -2.417598E+05 -8.936115E+03 -8.090501E+03  3.140086E+04
        59  26 -1.994982E+05 -2.448348E+06 -2.162369E+05  3.378138E+03 -2.453400E+04  1.385081E+04
        59  27 -2.002671E+05 -2.437835E+06 -2.110329E+05  3.163334E+03 -2.388540E+04 -3.652124E+03
        60   1  1.905798E+05 -8.575083E+05  1.706372E+05 -3.901147E+03  2.116012E+04  3.309635E+03
        60   2  1.898731E+05 -8.766916E+05  1.617095E+05  1.743046E+03  2.172623E+04  1.268810E+04
        60   3  1.690426E+05 -9.015596E+05  1.417615E+05 -1.082066E+04  1.973569E+04  2.205307E+04
        60   4 -2.348469E+03 -1.633259E+06 -1.727464E+04 -4.034295E+03  2.116541E+04  2.449860E+03
        60   5  2.481608E+03 -1.630316E+06 -2.049151E+04  5.042957E+03  2.172662E+04  1.298181E+04
        60   6 -1.302658E+04 -1.633267E+06 -3.554032E+04 -4.089208E+03  1.972989E+04  2.350058E+04
        60   7 -1.953209E+05 -2.408459E+06 -2.052299E+05 -4.166705E+03  2.117071E+04  1.591156E+03
        60   8 -1.849515E+05 -2.383421E+06 -2.027333E+05  8.339442E+03  2.172701E+04  1.327516E+04
        60   9 -1.951350E+05 -2.364484E+06 -2.128807E+05  2.634902E+03  1.972412E+04  2.494637E+04
        60  10  1.905793E+05 -8.575084E+05  1.706364E+05 -3.901204E+03 -1.447184E-09  6.305594E-10
        60  11  1.898726E+05 -8.766919E+05  1.617083E+05  1.742824E+03  3.529776E-09 -9.835265E-09
        60  12  1.690421E+05 -9.015602E+05  1.417598E+05 -1.082101E+04  7.165289E-10 -6.558443E-09
        60  13 -2.348951E+03 -1.633260E+06 -1.727550E+04 -4.034337E+03 -3.257560E-11  2.890325E-10
        60  14  2.481056E+03 -1.630317E+06 -2.049272E+04  5.042730E+03 -1.535497E-10 -4.756896E-09
        60  15 -1.302715E+04 -1.633268E+06 -3.554209E+04 -4.089582E+03  3.348581E-09 -5.850874E-09
        60  16 -1.953214E+05 -2.408460E+06 -2.052308E+05 -4.166733E+03 -4.640121E-10  7.151302E-10
        60  17 -1.849521E+05 -2.383421E+06 -2.027345E+05  8.339209E+03 -4.906976E-09  1.474003E-09
        60  18 -1.951356E+05 -2.364485E+06 -2.128826E+05  2.634506E+03  1.624307E-09  3.862716E-09
        60  19  1.905798E+05 -8.575083E+05  1.706372E+05 -3.901147E+03 -2.116012E+04 -3.309635E+03
        60  20  1.898731E+05 -8.766916E+05  1.617095E+05  1.743046E+03 -2.172623E+04 -1.268810E+04
        60  21  1.690426E+05 -9.015596E+05  1.417615E+05 -1.082066E+04 -1.973569E+04 -2.205307E+04
        60  22 -2.348469E+03 -1.633259E+06 -1.727464E+04 -4.034295E+03 -2.116541E+04 -2.449860E+03
        60  23  2.481608E+03 -1.630316E+06 -2.049151E+04  5.042957E+03 -2.172662E+04 -1.298181E+04
        60  24 -1.302658E+04 -1.633267E+06 -3.554032E+04 -4.089208E+03 -1.972989E+04 -2.350058E+04
        60  25 -1.953209E+05 -2.408459E+06 -2.052299E+05 -4.166705E+03 -2.117071E+04 -1.591156E+03
        60  26 -1.849515E+05 -2.383421E+06 -2.027333E+05  8.339442E+03 -2.172701E+04 -1.327516E+04
        60  27 -1.951350E+05 -2.364484E+06 -2.128807E+05  2.634902E+03 -1.972412E+04 -2.494637E+04
        61   1  1.778177E+05 -9.470948E+05  1.250235E+05  6.899179E+03  2.067778E+04  3.262657E+04
        61   2  1.841745E+05 -9.547954E+05  9.508124E+04 -6.056003E+03  1.945075E+04  6.244887E+04
        61   3  4.281267E+04 -1.003059E+06  8.832586E+03 -4.290169E+04  5.696370E+03  9.218986E+04
        61   4  5.477475E+03 -1.641161E+06 -4.251311E+04 -5.077799E+03  2.069154E+04  3.023582E+04
        61   5  1.855227E+04 -1.620412E+06 -6.570929E+04  6.492579E+03  1.943384E+04  6.573095E+04
        61   6 -1.171640E+05 -1.641257E+06 -1.491991E+05 -5.831789E+03  5.645186E+03  1.011455E+05
        61   7 -1.668974E+05 -2.334784E+06 -2.100841E+05 -1.704072E+04  2.070541E+04  2.784773E+04
        61   8 -1.471019E+05 -2.285623E+06 -2.265315E+05  1.902823E+04  1.941706E+04  6.900949E+04
        61   9 -2.771664E+05 -2.279080E+06 -3.072602E+05  3.120047E+04  5.595050E+03  1.100918E+05
        61  10  1.778170E+05 -9.470961E+05  1.250207E+05  6.898635E+03 -2.700164E-09 -2.360807E-09
        61  11  1.841730E+05 -9.547997E+05  9.507319E+04 -6.056981E+03 -3.389750E-09 -1.021883E-08
        61  12  4.281035E+04 -1.003069E+06  8.816528E+03 -4.290211E+04 -2.004219E-09 -5.155895E-09
        61  13  5.476770E+03 -1.641162E+06 -4.251563E+04 -5.078303E+03 -4.897649E-09 -2.069164E-10
        61  14  1.855070E+04 -1.620417E+06 -6.571814E+04  6.491550E+03 -1.212535E-08 -6.466442E-09
        61  15 -1.171668E+05 -1.641268E+06 -1.492184E+05 -5.832249E+03 -3.208852E-09 -7.268065E-09
        61  16 -1.668981E+05 -2.334785E+06 -2.100864E+05 -1.704119E+04 -3.571898E-10  3.616935E-09
        61  17 -1.471036E+05 -2.285628E+06 -2.265412E+05  1.902715E+04 -6.262383E-09 -8.507245E-10
        61  18 -2.771697E+05 -2.279093E+06 -3.072831E+05  3.119998E+04  7.200986E-10  1.790974E-09
        61  19  1.778177E+05 -9.470948E+05  1.250235E+05  6.899179E+03 -2.067778E+04 -3.262657E+04
        61  20  1.841745E+05 -9.547954E+05  9.508124E+04 -6.056003E+03 -1.945075E+04 -6.244887E+04
        61  21  4.281267E+04 -1.003059E+06  8.832586E+03 -4.290169E+04 -5.696370E+03 -9.218986E+04
        61  22  5.477475E+03 -1.641161E+06 -4.251311E+04 -5.077799E+03 -2.069154E+04 -3.023582E+04
        61  23  1.855227E+04 -1.620412E+06 -6.570929E+04  6.492579E+03 -1.943384E+04 -6.573095E+04
        61  24 -1.171640E+05 -1.641257E+06 -1.491991E+05 -5.831789E+03 -5.645186E+03 -1.011455E+05
        61  25 -1.668974E+05 -2.334784E+06 -2.100841E+05 -1.704072E+04 -2.070541E+04 -2.784773E+04
        61  26 -1.471019E+05 -2.285623E+06 -2.265315E+05  1.902823E+04 -1.941706E+04 -6.900949E+04
        61  27 -2.771664E+05 -2.279080E+06 -3.072602E+05  3.120047E+04 -5.595050E+03 -1.100918E+05
        62   1  5.221654E+02  1.295121E+02  1.286468E+02  4.784788E+00  1.208734E+00 -3.520980E-01
        62   2  5.216013E+02  1.309922E+02  1.276022E+02 -2.095809E+00  2.720825E+00 -9.683490E-01
        62   3  5.204213E+02  1.303315E+02  1.250615E+02  4.821782E+00  4.232463E+00 -6.627085E-01
        62   4 -1.259736E+00 -1.343207E+00 -2.203937E+00  4.610799E+00  1.182860E+00 -3.521111E-01
        62   5 -9.499852E-01  3.571887E-01 -3.020429E+00 -2.288617E+00  2.717067E+00 -9.683501E-01
        62   6 -1.259795E+00 -8.712449E-02 -5.348454E+00  4.610157E+00  4.250820E+00 -6.626976E-01
        62   7 -5.246846E+02 -1.321985E+02 -1.330547E+02  4.436808E+00  1.156990E+00 -3.521244E-01
        62   8 -5.235009E+02 -1.302778E+02 -1.336431E+02 -2.481426E+00  2.713330E+00 -9.683527E-01
        62   9 -5.229406E+02 -1.305057E+02 -1.357584E+02  4.398530E+00  4.269216E+00 -6.626892E-01
        62  10  5.221654E+02  1.295122E+02  1.286469E+02  4.784010E+00 -1.588212E-06 -1.466726E-07
        62  11  5.216014E+02  1.309929E+02  1.276024E+02 -2.099259E+00 -7.127420E-06 -5.083592E-07
        62  12  5.204216E+02  1.303326E+02  1.250618E+02  4.815671E+00 -1.270520E-05 -6.547129E-07
        62  13 -1.259871E+00 -1.343212E+00 -2.203965E+00  4.610801E+00 -4.042866E-06  9.068769E-08
        62  14 -9.501089E-01  3.572276E-01 -3.020446E+00 -2.288619E+00 -1.793762E-05  4.018006E-07
        62  15 -1.259930E+00 -8.713255E-02 -5.348483E+00  4.610158E+00 -3.183485E-05  7.139092E-07
        62  16 -5.246847E+02 -1.321986E+02 -1.330548E+02  4.437585E+00 -1.645820E-06 -4.430438E-09
        62  17 -5.235011E+02 -1.302784E+02 -1.336433E+02 -2.477985E+00 -7.223518E-06 -1.591089E-07
        62  18 -5.229410E+02 -1.305069E+02 -1.357587E+02  4.404640E+00 -1.276037E-05 -5.254070E-07
        62  19  5.221654E+02  1.295124E+02  1.286469E+02  4.783234E+00 -1.208737E+00  3.520978E-01
        62  20  5.216015E+02  1.309936E+02  1.276026E+02 -2.102706E+00 -2.720839E+00  9.683480E-01
        62  21  5.204218E+02  1.303338E+02  1.250620E+02  4.809556E+00 -4.232488E+00  6.627072E-01
        62  22 -1.260006E+00 -1.343218E+00 -2.203993E+00  4.610802E+00 -1.182868E+00  3.521113E-01
        62  23 -9.502325E-01  3.572668E-01 -3.020463E+00 -2.288620E+00 -2.717103E+00  9.683509E-01
        62  24 -1.260066E+00 -8.714077E-02 -5.348512E+00  4.610160E+00 -4.250884E+00  6.626990E-01
        62  25 -5.246848E+02 -1.321987E+02 -1.330548E+02  4.438362E+00 -1.156994E+00  3.521244E-01
        62  26 -5.235013E+02 -1.302790E+02 -1.336434E+02 -2.474544E+00 -2.713344E+00  9.683524E-01
        62  27 -5.229413E+02 -1.305080E+02 -1.357590E+02  4.410753E+00 -4.269242E+00  6.626881E-01
        63   1  2.229131E+02  5.587078E+01  4.903902E+01  4.679078E+00  5.372867E+00 -4.169173E-01
        63   2  2.226489E+02  5.616569E+01  4.381964E+01 -2.210688E+00  1.134917E+01 -3.692823E-01
        63   3  2.211481E+02  5.460190E+01  3.424598E+01  4.696147E+00  1.732539E+01 -1.639187E-01
        63   4 -1.397110E+00 -2.057868E-01 -7.032019E+00  4.609892E+00  5.372020E+00 -4.169164E-01
        63   5 -7.784842E-01  3.097905E-01 -1.203137E+01 -2.288191E+00  1.135211E+01 -3.692800E-01
        63   6 -1.397127E+00 -1.033997E+00 -2.138763E+01  4.610332E+00  1.733212E+01 -1.639148E-01
        63   7 -2.257073E+02 -5.628237E+01 -6.310308E+01  4.540705E+00  5.371214E+00 -4.169183E-01
        63   8 -2.242058E+02 -5.554612E+01 -6.788240E+01 -2.365692E+00  1.135508E+01 -3.692794E-01
        63   9 -2.239423E+02 -5.666991E+01 -7.702126E+01  4.524517E+00  1.733887E+01 -1.639117E-01
        63  10  2.229134E+02  5.587191E+01  4.903932E+01  4.672801E+00 -1.309064E-05 -5.589144E-07
        63  11  2.226491E+02  5.616639E+01  4.381982E+01 -2.214857E+00 -8.717979E-06 -2.688735E-07
        63  12  2.211482E+02  5.460219E+01  3.424606E+01  4.694086E+00 -4.330186E-06 -5.095798E-08
        63  13 -1.397002E+00 -2.057776E-01 -7.031996E+00  4.609889E+00 -3.268753E-05  7.313569E-07
        63  14 -7.783850E-01  3.097665E-01 -1.203136E+01 -2.288190E+00 -2.171448E-05  4.711656E-07
        63  15 -1.397028E+00 -1.034022E+00 -2.138762E+01  4.610332E+00 -1.073800E-05  2.121952E-07
        63  16 -2.257075E+02 -5.628351E+01 -6.310336E+01  4.546978E+00 -1.305464E-05 -6.476002E-07
        63  17 -2.242060E+02 -5.554690E+01 -6.788259E+01 -2.361520E+00 -8.648317E-06 -5.126428E-07
        63  18 -2.239424E+02 -5.667028E+01 -7.702135E+01  4.526582E+00 -4.259725E-06 -3.030948E-07
        63  19  2.229137E+02  5.587304E+01  4.903961E+01  4.666527E+00 -5.372893E+00  4.169162E-01
        63  20  2.226493E+02  5.616708E+01  4.382001E+01 -2.219022E+00 -1.134919E+01  3.692817E-01
        63  21  2.211483E+02  5.460248E+01  3.424615E+01  4.692027E+00 -1.732540E+01  1.639186E-01
        63  22 -1.396895E+00 -2.057687E-01 -7.031973E+00  4.609888E+00 -5.372086E+00  4.169179E-01
        63  23 -7.782855E-01  3.097427E-01 -1.203134E+01 -2.288189E+00 -1.135216E+01  3.692809E-01
        63  24 -1.396929E+00 -1.034048E+00 -2.138760E+01  4.610333E+00 -1.733215E+01  1.639152E-01
        63  25 -2.257078E+02 -5.628466E+01 -6.310364E+01  4.553257E+00 -5.371240E+00  4.169170E-01
        63  26 -2.242061E+02 -5.554768E+01 -6.788278E+01 -2.357348E+00 -1.135510E+01  3.692784E-01
        63  27 -2.239424E+02 -5.667066E+01 -7.702143E+01  4.528645E+00 -1.733888E+01  1.639111E-01
        64   1 -7.723550E+01 -1.860795E+01 -4.671146E+01  4.497877E+00  2.180541E+01 -3.219682E-02
        64   2 -7.520131E+01 -1.713586E+01 -6.715066E+01 -2.339972E+00  4.584429E+01  1.382732E-01
        64   3 -7.899682E+01 -2.639951E+01 -1.059274E+02  4.621294E+00  6.988279E+01  3.353503E-01
        64   4 -2.417700E+00  9.673943E-02 -2.800630E+01  4.609237E+00  2.180887E+01 -3.219497E-02
        64   5  4.972095E-01  1.788532E+00 -4.822778E+01 -2.288364E+00  4.584840E+01  1.382750E-01
        64   6 -2.417688E+00 -7.255523E+00 -8.678722E+01  4.613149E+00  6.988756E+01  3.353520E-01
        64   7  7.240005E+01  1.880141E+01 -9.301159E+00  4.720598E+00  2.181234E+01 -3.219338E-02
        64   8  7.619568E+01  2.071291E+01 -2.930492E+01 -2.236754E+00  4.585250E+01  1.382773E-01
        64   9  7.416139E+01  1.188845E+01 -6.764708E+01  4.605008E+00  6.989229E+01  3.353550E-01
        64  10 -7.723542E+01 -1.860787E+01 -4.671143E+01  4.497280E+00 -1.273401E-06  6.872084E-08
        64  11 -7.520134E+01 -1.713616E+01 -6.715073E+01 -2.337646E+00  4.812256E-06  2.879448E-07
        64  12 -7.899693E+01 -2.640016E+01 -1.059275E+02  4.626541E+00  1.090174E-05  4.764511E-07
        64  13 -2.417558E+00  9.672371E-02 -2.800628E+01  4.609236E+00 -3.112377E-06  7.130022E-08
        64  14  4.973462E-01  1.788502E+00 -4.822776E+01 -2.288364E+00  1.210613E-05 -1.540171E-07
        64  15 -2.417554E+00 -7.255552E+00 -8.678721E+01  4.613149E+00  2.733050E-05 -3.815210E-07
        64  16  7.240007E+01  1.880126E+01 -9.301186E+00  4.721198E+00 -1.214325E-06 -1.876055E-07
        64  17  7.619579E+01  2.071310E+01 -2.930486E+01 -2.239078E+00  4.877979E-06 -2.677980E-08
        64  18  7.416159E+01  1.188900E+01 -6.764694E+01  4.599760E+00  1.095996E-05  1.667179E-07
        64  19 -7.723534E+01 -1.860780E+01 -4.671140E+01  4.496687E+00 -2.180541E+01  3.219696E-02
        64  20 -7.520135E+01 -1.713645E+01 -6.715079E+01 -2.335318E+00 -4.584428E+01 -1.382726E-01
        64  21 -7.899704E+01 -2.640081E+01 -1.059277E+02  4.631791E+00 -6.988277E+01 -3.353494E-01
        64  22 -2.417416E+00  9.670809E-02 -2.800625E+01  4.609237E+00 -2.180888E+01  3.219511E-02
        64  23  4.974876E-01  1.788475E+00 -4.822774E+01 -2.288362E+00 -4.584838E+01 -1.382753E-01
        64  24 -2.417410E+00 -7.255577E+00 -8.678718E+01  4.613150E+00 -6.988750E+01 -3.353527E-01
        64  25  7.240009E+01  1.880111E+01 -9.301212E+00  4.721796E+00 -2.181234E+01  3.219300E-02
        64  26  7.619590E+01  2.071330E+01 -2.930480E+01 -2.241400E+00 -4.585249E+01 -1.382773E-01
        64  27  7.416180E+01  1.188955E+01 -6.764678E+01  4.594516E+00 -6.989227E+01 -3.353547E-01
        65   1 -3.817915E+02 -9.234949E+01 -2.064647E+02  3.978134E+00  8.799671E+01  4.545802E-01
        65   2 -3.675366E+02 -8.188720E+01 -2.867730E+02 -2.427519E+00  1.848084E+02  6.823436E-01
        65   3 -3.835735E+02 -1.423756E+02 -4.478367E+02  4.982882E+00  2.816215E+02  9.118366E-01
        65   4 -7.853752E+00  1.134639E+00 -1.129864E+02  4.605482E+00  8.800098E+01  4.545815E-01
        65   5  7.292220E+00  1.181853E+01 -1.930749E+02 -2.289619E+00  1.848128E+02  6.823446E-01
        65   6 -7.853689E+00 -4.844822E+01 -3.539188E+02  4.631331E+00  2.816260E+02  9.118372E-01
        65   7  3.660841E+02  9.461874E+01 -1.950814E+01  5.232830E+00  8.800521E+01  4.545845E-01
        65   8  3.821211E+02  1.055242E+02 -9.937677E+01 -2.151715E+00  1.848171E+02  6.823478E-01
        65   9  3.678662E+02  4.547910E+01 -2.600008E+02  4.279778E+00  2.816304E+02  9.118404E-01
        65  10 -3.817917E+02 -9.235029E+01 -2.064649E+02  3.985121E+00  1.453415E-05  5.575684E-07
        65  11 -3.675368E+02 -8.188819E+01 -2.867733E+02 -2.417484E+00  2.090211E-05  6.607013E-07
        65  12 -3.835738E+02 -1.423767E+02 -4.478372E+02  4.995972E+00  2.726502E-05  7.501512E-07
        65  13 -7.853614E+00  1.134613E+00 -1.129864E+02  4.605482E+00  3.638827E-05 -4.773341E-07
        65  14  7.292329E+00  1.181849E+01 -1.930749E+02 -2.289619E+00  5.228648E-05 -5.848765E-07
        65  15 -7.853628E+00 -4.844827E+01 -3.539189E+02  4.631329E+00  6.818085E-05 -6.913799E-07
        65  16  3.660843E+02  9.461944E+01 -1.950796E+01  5.225845E+00  1.457211E-05  2.520966E-07
        65  17  3.821213E+02  1.055251E+02 -9.937660E+01 -2.161754E+00  2.092839E-05  3.379002E-07
        65  18  3.678665E+02  4.548013E+01 -2.600007E+02  4.266687E+00  2.727598E-05  4.384744E-07
        65  19 -3.817918E+02 -9.235109E+01 -2.064651E+02  3.992111E+00 -8.799668E+01 -4.545791E-01
        65  20 -3.675369E+02 -8.188916E+01 -2.867735E+02 -2.407442E+00 -1.848084E+02 -6.823423E-01
        65  21 -3.835740E+02 -1.423779E+02 -4.478373E+02  5.009064E+00 -2.816215E+02 -9.118351E-01
        65  22 -7.853459E+00  1.134590E+00 -1.129863E+02  4.605484E+00 -8.800091E+01 -4.545825E-01
        65  23  7.292511E+00  1.181847E+01 -1.930748E+02 -2.289618E+00 -1.848127E+02 -6.823458E-01
        65  24 -7.853396E+00 -4.844827E+01 -3.539187E+02  4.631329E+00 -2.816259E+02 -9.118386E-01
        65  25  3.660846E+02  9.462015E+01 -1.950776E+01  5.218861E+00 -8.800518E+01 -4.545840E-01
        65  26  3.821216E+02  1.055260E+02 -9.937630E+01 -2.171791E+00 -1.848171E+02 -6.823471E-01
        65  27  3.678669E+02  4.548120E+01 -2.600002E+02  4.253599E+00 -2.816304E+02 -9.118395E-01
        66   1 -7.110884E+02 -1.597848E+02 -6.248767E+02  1.410000E+00  3.551438E+02  1.056581E+00
        66   2 -6.289762E+02 -9.157479E+01 -9.386042E+02 -1.926329E+00  7.449880E+02  1.433765E+00
        66   3 -7.128592E+02 -4.851247E+02 -1.621536E+03  8.677044E+00  1.134832E+03  1.793557E+00
        66   4 -3.801003E+01  8.486422E+00 -4.566198E+02  4.585821E+00  3.551485E+02  1.056584E+00
        66   5  4.498777E+01  7.691262E+01 -7.701297E+02 -2.302688E+00  7.449927E+02  1.433765E+00
        66   6 -3.800950E+01 -3.164208E+02 -1.452843E+03  4.748503E+00  1.134837E+03  1.793550E+00
        66   7  6.350687E+02  1.767576E+02 -2.883629E+02  7.761642E+00  3.551532E+02  1.056589E+00
        66   8  7.189521E+02  2.454000E+02 -6.016552E+02 -2.679046E+00  7.449973E+02  1.433767E+00
        66   9  6.368406E+02 -1.477169E+02 -1.284151E+03  8.199588E-01  1.134841E+03  1.793546E+00
        66  10 -7.110888E+02 -1.597860E+02 -6.248773E+02  1.424858E+00  3.095300E-05  7.777240E-07
        66  11 -6.289770E+02 -9.157612E+01 -9.386056E+02 -1.908456E+00  3.723606E-05  7.766211E-07
        66  12 -7.128608E+02 -4.851262E+02 -1.621538E+03  8.697931E+00  4.352348E-05  7.493394E-07
        66  13 -3.801002E+01  8.486362E+00 -4.566200E+02  4.585820E+00  7.737978E-05 -7.158011E-07
        66  14  4.498732E+01  7.691244E+01 -7.701307E+02 -2.302689E+00  9.309394E-05 -6.951318E-07
        66  15 -3.801073E+01 -3.164211E+02 -1.452845E+03  4.748501E+00  1.088018E-04 -6.774090E-07
        66  16  6.350689E+02  1.767586E+02 -2.883629E+02  7.746785E+00  3.095089E-05  4.641731E-07
        66  17  7.189518E+02  2.454009E+02 -6.016559E+02 -2.696923E+00  3.723672E-05  4.542604E-07
        66  18  6.368395E+02 -1.477162E+02 -1.284153E+03  7.990687E-01  4.351747E-05  4.653933E-07
        66  19 -7.110889E+02 -1.597872E+02 -6.248773E+02  1.439715E+00 -3.551437E+02 -1.056580E+00
        66  20 -6.289767E+02 -9.157715E+01 -9.386048E+02 -1.890581E+00 -7.449879E+02 -1.433763E+00
        66  21 -7.128597E+02 -4.851270E+02 -1.621536E+03  8.718822E+00 -1.134832E+03 -1.793555E+00
        66  22 -3.800974E+01  8.486368E+00 -4.566198E+02  4.585821E+00 -3.551484E+02 -1.056585E+00
        66  23  4.498806E+01  7.691256E+01 -7.701296E+02 -2.302687E+00 -7.449925E+02 -1.433766E+00
        66  24 -3.800920E+01 -3.164208E+02 -1.452843E+03  4.748503E+00 -1.134837E+03 -1.793551E+00
        66  25  6.350694E+02  1.767598E+02 -2.883624E+02  7.731928E+00 -3.551531E+02 -1.056588E+00
        66  26  7.189528E+02  2.454021E+02 -6.016546E+02 -2.714795E+00 -7.449972E+02 -1.433767E+00
        66  27  6.368413E+02 -1.477148E+02 -1.284150E+03  7.781775E-01 -1.134841E+03 -1.793545E+00
        67   1 -1.183781E+03 -1.842221E+02 -2.091619E+03 -1.384955E+01  1.434518E+03  2.050639E+00
        67   2 -7.113505E+02  2.515477E+02 -3.296928E+03  3.586062E+00  3.003779E+03  2.979553E+00
        67   3 -1.185537E+03 -2.283595E+03 -6.266525E+03  3.573146E+01  4.573015E+03  3.802051E+00
        67   4 -2.114807E+02  5.887173E+01 -1.848560E+03  4.471420E+00  1.434525E+03  2.050682E+00
        67   5  2.618313E+02  4.948312E+02 -3.053658E+03 -2.389937E+00  3.003785E+03  2.979524E+00
        67   6 -2.114724E+02 -2.040119E+03 -6.023041E+03  5.458841E+00  4.573020E+03  3.801827E+00
        67   7  7.608205E+02  3.019654E+02 -1.605501E+03  2.279242E+01  1.434531E+03  2.050728E+00
        67   8  1.235014E+03  7.381146E+02 -2.810387E+03 -8.365942E+00  3.003791E+03  2.979497E+00
        67   9  7.625931E+02 -1.796643E+03 -5.779557E+03 -2.481383E+01  4.573026E+03  3.801605E+00
        67  10 -1.183784E+03 -1.842237E+02 -2.091623E+03 -1.382701E+01  4.697979E-05  7.231704E-07
        67  11 -7.113604E+02  2.515444E+02 -3.296945E+03  3.611261E+00  5.254080E-05  6.241872E-07
        67  12 -1.185560E+03 -2.283601E+03 -6.266564E+03  3.575932E+01  5.809777E-05  4.530796E-07
        67  13 -2.114828E+02  5.887115E+01 -1.848563E+03  4.471418E+00  1.174152E-04 -6.326423E-07
        67  14  2.618217E+02  4.948288E+02 -3.053675E+03 -2.389944E+00  1.313038E-04 -4.964871E-07
        67  15 -2.114947E+02 -2.040125E+03 -6.023080E+03  5.458826E+00  1.451918E-04 -3.612840E-07
        67  16  7.608186E+02  3.019659E+02 -1.605504E+03  2.276987E+01  4.695662E-05  4.279443E-07
        67  17  1.235004E+03  7.381130E+02 -2.810404E+03 -8.391161E+00  5.250749E-05  3.228338E-07
        67  18  7.625709E+02 -1.796648E+03 -5.779596E+03 -2.484172E+01  5.805622E-05  2.896613E-07
        67  19 -1.183782E+03 -1.842242E+02 -2.091619E+03 -1.380447E+01 -1.434518E+03 -2.050637E+00
        67  20 -7.113509E+02  2.515459E+02 -3.296929E+03  3.636479E+00 -3.003779E+03 -2.979552E+00
        67  21 -1.185537E+03 -2.283596E+03 -6.266525E+03  3.578721E+01 -4.573014E+03 -3.802050E+00
        67  22 -2.114804E+02  5.887168E+01 -1.848560E+03  4.471421E+00 -1.434525E+03 -2.050683E+00
        67  23  2.618315E+02  4.948312E+02 -3.053658E+03 -2.389937E+00 -3.003785E+03 -2.979525E+00
        67  24 -2.114721E+02 -2.040119E+03 -6.023041E+03  5.458840E+00 -4.573020E+03 -3.801828E+00
        67  25  7.608211E+02  3.019674E+02 -1.605500E+03  2.274733E+01 -1.434531E+03 -2.050727E+00
        67  26  1.235014E+03  7.381162E+02 -2.810387E+03 -8.416366E+00 -3.003791E+03 -2.979497E+00
        67  27  7.625936E+02 -1.796642E+03 -5.779557E+03 -2.486959E+01 -4.573026E+03 -3.801604E+00
        68   1 -2.510035E+03  7.500889E+01 -7.821138E+03 -1.081959E+02  5.802342E+03  4.497194E+00
        68   2  2.720327E+02  2.842946E+03 -1.231025E+04  4.605181E+01  1.211551E+04  7.454002E+00
        68   3 -2.511973E+03 -1.336891E+04 -2.565404E+04  2.195338E+02  1.842876E+04  9.810057E+00
        68   4 -1.238014E+03  3.931382E+02 -7.503134E+03  3.805344E+00  5.802359E+03  4.498243E+00
        68   5  1.545084E+03  3.161147E+03 -1.199202E+04 -2.917495E+00  1.211553E+04  7.453044E+00
        68   6 -1.237880E+03 -1.305062E+04 -2.533558E+04  9.591762E+00  1.842877E+04  9.803818E+00
        68   7  3.400912E+01  7.112675E+02 -7.185129E+03  1.158068E+02  5.802375E+03  4.499294E+00
        68   8  2.818136E+03  3.479348E+03 -1.167380E+04 -5.188690E+01  1.211554E+04  7.452086E+00
        68   9  3.621342E+01 -1.273232E+04 -2.501713E+04 -2.003507E+02  1.842878E+04  9.797578E+00
        68  10 -2.510071E+03  7.499934E+01 -7.821201E+03 -1.081670E+02  6.007848E-05  3.633306E-07
        68  11  2.718750E+02  2.842906E+03 -1.231052E+04  4.608114E+01  6.130553E-05  1.809814E-07
        68  12 -2.512337E+03 -1.336900E+04 -2.565467E+04  2.195637E+02  6.252804E-05 -1.469656E-07
        68  13 -1.238050E+03  3.931292E+02 -7.503197E+03  3.805322E+00  1.501289E-04 -2.631945E-07
        68  14  1.544926E+03  3.161107E+03 -1.199230E+04 -2.917569E+00  1.531925E-04 -5.912293E-08
        68  15 -1.238245E+03 -1.305071E+04 -2.533622E+04  9.591617E+00  1.562620E-04  1.478552E-07
        68  16  3.397313E+01  7.112589E+02 -7.185193E+03  1.157779E+02  6.002636E-05  2.210124E-07
        68  17  2.817979E+03  3.479308E+03 -1.167408E+04 -5.191639E+01  6.124884E-05  7.160218E-08
        68  18  3.584874E+01 -1.273241E+04 -2.501777E+04 -2.003809E+02  6.248636E-05  7.186750E-08
        68  19 -2.510035E+03  7.500787E+01 -7.821138E+03 -1.081382E+02 -5.802342E+03 -4.497193E+00
        68  20  2.720326E+02  2.842946E+03 -1.231025E+04  4.611063E+01 -1.211551E+04 -7.454002E+00
        68  21 -2.511973E+03 -1.336891E+04 -2.565404E+04  2.195938E+02 -1.842876E+04 -9.810058E+00
        68  22 -1.238014E+03  3.931382E+02 -7.503134E+03  3.805343E+00 -5.802359E+03 -4.498244E+00
        68  23  1.545084E+03  3.161147E+03 -1.199202E+04 -2.917496E+00 -1.211553E+04 -7.453044E+00
        68  24 -1.237880E+03 -1.305062E+04 -2.533558E+04  9.591764E+00 -1.842877E+04 -9.803817E+00
        68  25  3.400944E+01  7.112684E+02 -7.185129E+03  1.157491E+02 -5.802375E+03 -4.499293E+00
        68  26  2.818136E+03  3.479348E+03 -1.167380E+04 -5.194573E+01 -1.211554E+04 -7.452085E+00
        68  27  3.621346E+01 -1.273232E+04 -2.501713E+04 -2.004107E+02 -1.842878E+04 -9.797577E+00
        69   1 -9.017593E+03  2.173718E+03 -3.097066E+04 -6.973436E+02  2.351842E+04  1.218558E+01
        69   2  7.723036E+03  1.971229E+04 -4.674029E+04  3.436263E+02  4.889491E+04  2.240452E+01
        69   3 -9.018687E+03 -8.346991E+04 -1.092085E+05  1.428964E+03  7.427161E+04  2.932983E+01
        69   4 -7.441415E+03  2.568488E+03 -3.057650E+04  1.444501E-03  2.351849E+04  1.221201E+01
        69   5  9.300734E+03  2.010635E+04 -4.634597E+04 -5.898518E+00  4.889495E+04  2.237697E+01
        69   6 -7.439387E+03 -8.307640E+04 -1.088140E+05  3.259262E+01  7.427163E+04  2.916274E+01
        69   7 -5.865233E+03  2.963260E+03 -3.018234E+04  6.973483E+02  2.351856E+04  1.223843E+01
        69   8  1.087844E+04  2.050041E+04 -4.595166E+04 -3.554242E+02  4.889500E+04  2.234942E+01
        69   9 -5.860079E+03 -8.268288E+04 -1.084194E+05 -1.363783E+03  7.427165E+04  2.899564E+01
        69  10 -9.018187E+03  2.173570E+03 -3.097170E+04 -6.973171E+02  5.577460E-05 -4.991066E-07
        69  11  7.720469E+03  1.971165E+04 -4.674478E+04  3.436405E+02  3.141998E-05 -7.850849E-07
        69  12 -9.024612E+03 -8.347139E+04 -1.092189E+05  1.428966E+03  7.077981E-06 -2.905134E-07
        69  13 -7.442010E+03  2.568340E+03 -3.057754E+04  1.211807E-03  1.394470E-04  1.816186E-07
        69  14  9.298167E+03  2.010571E+04 -4.635047E+04 -5.899399E+00  7.858255E-05  1.010099E-07
        69  15 -7.445311E+03 -8.307788E+04 -1.088243E+05  3.259087E+01  1.770608E-05  2.183240E-08
        69  16 -5.865827E+03  2.963111E+03 -3.018337E+04  6.973213E+02  5.577748E-05  3.456169E-07
        69  17  1.087587E+04  2.049977E+04 -4.595615E+04 -3.554402E+02  3.144155E-05  6.921467E-07
        69  18 -5.866003E+03 -8.268436E+04 -1.084298E+05 -1.363788E+03  7.090284E-06  2.668929E-07
        69  19 -9.017594E+03  2.173719E+03 -3.097066E+04 -6.972901E+02 -2.351842E+04 -1.218558E+01
        69  20  7.723036E+03  1.971229E+04 -4.674029E+04  3.436565E+02 -4.889491E+04 -2.240452E+01
        69  21 -9.018688E+03 -8.346991E+04 -1.092085E+05  1.428971E+03 -7.427161E+04 -2.932983E+01
        69  22 -7.441416E+03  2.568488E+03 -3.057650E+04  1.441973E-03 -2.351849E+04 -1.221201E+01
        69  23  9.300733E+03  2.010635E+04 -4.634597E+04 -5.898517E+00 -4.889495E+04 -2.237697E+01
        69  24 -7.439388E+03 -8.307640E+04 -1.088140E+05  3.259262E+01 -7.427163E+04 -2.916274E+01
        69  25 -5.865234E+03  2.963259E+03 -3.018234E+04  6.972948E+02 -2.351856E+04 -1.223843E+01
        69  26  1.087843E+04  2.050041E+04 -4.595166E+04 -3.554544E+02 -4.889500E+04 -2.234942E+01
        69  27 -5.860080E+03 -8.268288E+04 -1.084194E+05 -1.363789E+03 -7.427165E+04 -2.899564E+01
        70   1 -4.341817E+02 -1.700145E+02 -1.222739E+02 -1.228360E+02 -3.716240E-01  2.219171E-01
        70   2 -4.384461E+02 -1.630257E+02 -1.218069E+02 -1.168084E+02  1.526028E-01  1.025369E+00
        70   3 -4.323088E+02 -1.684012E+02 -1.222486E+02 -1.226763E+02  1.000998E+00  9.657372E-01
        70   4  3.878874E+00 -4.524475E+00 -1.568764E+00 -3.625311E+00 -3.499794E-01  2.300456E-01
        70   5 -1.258929E+00  2.117875E+00 -1.354302E+00  2.149123E+00  1.548586E-01  1.026213E+00
        70   6  4.009071E+00 -3.600648E+00 -2.033162E+00 -3.972332E+00  9.838646E-01  9.592966E-01
        70   7  4.419395E+02  1.609656E+02  1.191363E+02  1.155854E+02 -3.283380E-01  2.381744E-01
        70   8  4.359283E+02  1.672615E+02  1.190982E+02  1.211067E+02  1.570998E-01  1.027058E+00
        70   9  4.403272E+02  1.612000E+02  1.181823E+02  1.147317E+02  9.667050E-01  9.528578E-01
        70  10 -4.341822E+02 -1.700148E+02 -1.222740E+02 -1.228354E+02  7.091950E-07  6.432268E-07
        70  11 -4.384484E+02 -1.630267E+02 -1.218075E+02 -1.168061E+02  3.482379E-06  2.872298E-06
        70  12 -4.323129E+02 -1.684029E+02 -1.222498E+02 -1.226722E+02  6.487691E-06  5.020557E-06
        70  13  3.878946E+00 -4.524468E+00 -1.568748E+00 -3.625290E+00  2.487756E-06  5.273839E-07
        70  14 -1.258873E+00  2.117867E+00 -1.354292E+00  2.149159E+00  1.103530E-05  2.333148E-06
        70  15  4.009152E+00 -3.600633E+00 -2.033143E+00 -3.972319E+00  1.958652E-05  4.134292E-06
        70  16  4.419401E+02  1.609658E+02  1.191364E+02  1.155849E+02  9.535032E-07  6.385052E-07
        70  17  4.359306E+02  1.672624E+02  1.190989E+02  1.211045E+02  3.912121E-06  2.807905E-06
        70  18  4.403313E+02  1.612017E+02  1.181834E+02  1.147277E+02  6.643390E-06  5.045183E-06
        70  19 -4.341827E+02 -1.700150E+02 -1.222741E+02 -1.228349E+02  3.716254E-01 -2.219158E-01
        70  20 -4.384507E+02 -1.630277E+02 -1.218082E+02 -1.168038E+02 -1.525958E-01 -1.025364E+00
        70  21 -4.323169E+02 -1.684046E+02 -1.222509E+02 -1.226682E+02 -1.000985E+00 -9.657271E-01
        70  22  3.879018E+00 -4.524460E+00 -1.568732E+00 -3.625269E+00  3.499844E-01 -2.300446E-01
        70  23 -1.258818E+00  2.117859E+00 -1.354283E+00  2.149196E+00 -1.548366E-01 -1.026209E+00
        70  24  4.009231E+00 -3.600618E+00 -2.033124E+00 -3.972304E+00 -9.838254E-01 -9.592883E-01
        70  25  4.419406E+02  1.609660E+02  1.191366E+02  1.155844E+02  3.283400E-01 -2.381732E-01
        70  26  4.359329E+02  1.672634E+02  1.190995E+02  1.211023E+02 -1.570920E-01 -1.027052E+00
        70  27  4.403354E+02  1.612034E+02  1.181846E+02  1.147237E+02 -9.666917E-01 -9.528477E-01
        71   1 -8.894542E+01 -3.881862E+01 -2.818705E+01 -2.922847E+01  1.464544E+00  8.472887E-01
        71   2 -9.315852E+01 -3.267179E+01 -2.969750E+01 -2.282479E+01  3.694259E+00  1.584622E+00
        71   3 -8.723233E+01 -3.858780E+01 -3.315902E+01 -2.856184E+01  5.979410E+00  2.174369E+00
        71   4  3.922399E+00 -3.731246E+00 -2.600182E+00 -3.952699E+00  1.464244E+00  8.471707E-01
        71   5 -1.179623E+00  2.073055E+00 -4.355518E+00  2.202895E+00  3.690633E+00  1.583259E+00
        71   6  3.858379E+00 -4.184896E+00 -8.059291E+00 -3.782326E+00  5.972458E+00  2.171761E+00
        71   7  9.679026E+01  3.135614E+01  2.298669E+01  2.132308E+01  1.463920E+00  8.470544E-01
        71   8  9.079933E+01  3.681792E+01  2.098648E+01  2.723059E+01  3.687001E+00  1.581897E+00
        71   9  9.494916E+01  3.021803E+01  1.704045E+01  2.099720E+01  5.965520E+00  2.169153E+00
        71  10 -8.894922E+01 -3.882019E+01 -2.818812E+01 -2.922481E+01  6.247255E-06  4.641982E-06
        71  11 -9.315944E+01 -3.267218E+01 -2.969776E+01 -2.282395E+01  1.717344E-06  1.079505E-06
        71  12 -8.723038E+01 -3.858703E+01 -3.315847E+01 -2.856381E+01 -2.914477E-06 -2.453963E-06
        71  13  3.922283E+00 -3.731258E+00 -2.600208E+00 -3.952734E+00  1.805534E-05  3.804532E-06
        71  14 -1.179719E+00  2.073061E+00 -4.355536E+00  2.202844E+00  4.267379E-06  8.697218E-07
        71  15  3.858282E+00 -4.184889E+00 -8.059309E+00 -3.782377E+00 -9.519555E-06 -2.067463E-06
        71  16  9.679399E+01  3.135772E+01  2.298775E+01  2.131937E+01  5.857806E-06  4.647646E-06
        71  17  9.080022E+01  3.681835E+01  2.098674E+01  2.722967E+01  1.120493E-06  1.158956E-06
        71  18  9.494718E+01  3.021730E+01  1.703991E+01  2.099909E+01 -3.510317E-06 -2.369338E-06
        71  19 -8.895302E+01 -3.882175E+01 -2.818920E+01 -2.922114E+01 -1.464532E+00 -8.472794E-01
        71  20 -9.316036E+01 -3.267257E+01 -2.969802E+01 -2.282311E+01 -3.694255E+00 -1.584620E+00
        71  21 -8.722844E+01 -3.858625E+01 -3.315793E+01 -2.856578E+01 -5.979415E+00 -2.174374E+00
        71  22  3.922166E+00 -3.731271E+00 -2.600234E+00 -3.952767E+00 -1.464208E+00 -8.471631E-01
        71  23 -1.179818E+00  2.073067E+00 -4.355554E+00  2.202792E+00 -3.690624E+00 -1.583258E+00
        71  24  3.858185E+00 -4.184882E+00 -8.059327E+00 -3.782429E+00 -5.972477E+00 -2.171765E+00
        71  25  9.679773E+01  3.135930E+01  2.298882E+01  2.131565E+01 -1.463908E+00 -8.470451E-01
        71  26  9.080111E+01  3.681879E+01  2.098701E+01  2.722875E+01 -3.686999E+00 -1.581895E+00
        71  27  9.494520E+01  3.021658E+01  1.703937E+01  2.100097E+01 -5.965527E+00 -2.169157E+00
        72   1  2.557831E+02  9.169401E+01  5.892697E+01  6.438489E+01  7.587550E+00  2.609529E+00
        72   2  2.528482E+02  9.867436E+01  5.099845E+01  7.103204E+01  1.715195E+01  5.980511E+00
        72   3  2.568995E+02  8.811993E+01  3.419243E+01  6.655200E+01  2.672553E+01  9.326816E+00
        72   4  3.412738E+00 -3.591974E+00 -1.060092E+01 -4.236514E+00  7.583458E+00  2.607998E+00
        72   5 -3.840614E-01  3.022852E+00 -1.877183E+01  2.135573E+00  1.714729E+01  5.978771E+00
        72   6  2.805507E+00 -7.897093E+00 -3.581979E+01 -2.619648E+00  2.672030E+01  9.324867E+00
        72   7 -2.489575E+02 -9.887794E+01 -8.012881E+01 -7.285789E+01  7.579392E+00  2.606465E+00
        72   8 -2.536162E+02 -9.262863E+01 -8.854209E+01 -6.676086E+01  1.714268E+01  5.977029E+00
        72   9 -2.512883E+02 -1.039141E+02 -1.058320E+02 -7.179125E+01  2.671514E+01  9.322915E+00
        72  10  2.557869E+02  9.169549E+01  5.892803E+01  6.438107E+01 -5.975356E-06 -4.754317E-06
        72  11  2.528556E+02  9.867711E+01  5.100048E+01  7.102469E+01 -1.189299E-05 -9.158149E-06
        72  12  2.569105E+02  8.812394E+01  3.419543E+01  6.654112E+01 -1.785624E-05 -1.354737E-05
        72  13  3.412604E+00 -3.591977E+00 -1.060095E+01 -4.236571E+00 -1.863519E-05 -4.056450E-06
        72  14 -3.841893E-01  3.022857E+00 -1.877185E+01  2.135509E+00 -3.617635E-05 -7.950647E-06
        72  15  2.805378E+00 -7.897088E+00 -3.581981E+01 -2.619710E+00 -5.371658E-05 -1.184554E-05
        72  16 -2.489614E+02 -9.887937E+01 -8.012987E+01 -7.285416E+01 -6.606475E-06 -4.680805E-06
        72  17 -2.536237E+02 -9.263132E+01 -8.854411E+01 -6.675361E+01 -1.259766E-05 -9.055672E-06
        72  18 -2.512993E+02 -1.039180E+02 -1.058350E+02 -7.178047E+01 -1.853947E-05 -1.344219E-05
        72  19  2.557907E+02  9.169696E+01  5.892908E+01  6.437726E+01 -7.587562E+00 -2.609539E+00
        72  20  2.528630E+02  9.867985E+01  5.100250E+01  7.101734E+01 -1.715197E+01 -5.980530E+00
        72  21  2.569214E+02  8.812794E+01  3.419842E+01  6.653025E+01 -2.672557E+01 -9.326843E+00
        72  22  3.412470E+00 -3.591979E+00 -1.060098E+01 -4.236629E+00 -7.583496E+00 -2.608006E+00
        72  23 -3.843153E-01  3.022862E+00 -1.877187E+01  2.135446E+00 -1.714736E+01 -5.978787E+00
        72  24  2.805251E+00 -7.897083E+00 -3.581984E+01 -2.619772E+00 -2.672041E+01 -9.324891E+00
        72  25 -2.489653E+02 -9.888080E+01 -8.013093E+01 -7.285043E+01 -7.579405E+00 -2.606475E+00
        72  26 -2.536311E+02 -9.263401E+01 -8.854614E+01 -6.674636E+01 -1.714270E+01 -5.977047E+00
        72  27 -2.513104E+02 -1.039220E+02 -1.058380E+02 -7.176970E+01 -2.671518E+01 -9.322942E+00
        73   1  5.983867E+02  2.221727E+02  1.178569E+02  1.568276E+02  3.366345E+01  1.178459E+01
        73   2  6.023958E+02  2.354080E+02  8.255480E+01  1.641509E+02  7.567570E+01  2.732195E+01
        73   3  5.957119E+02  1.944925E+02  4.385039E+00  1.686328E+02  1.176891E+02  4.285861E+01
        73   4  6.656502E-01 -3.353741E+00 -4.678047E+01 -5.541167E+00  3.365864E+01  1.178280E+01
        73   5  3.980332E+00  9.322441E+00 -8.232991E+01  1.288460E+00  7.567082E+01  2.732014E+01
        73   6 -3.397006E+00 -3.215329E+01 -1.607470E+02  5.275575E+00  1.176841E+02  4.285677E+01
        73   7 -5.970552E+02 -2.288802E+02 -2.114179E+02 -1.679098E+02  3.365391E+01  1.178101E+01
        73   8 -5.944347E+02 -2.167631E+02 -2.472146E+02 -1.615738E+02  7.566605E+01  2.731833E+01
        73   9 -6.025052E+02 -2.587990E+02 -3.258790E+02 -1.580814E+02  1.176793E+02  4.285493E+01
        73  10  5.983998E+02  2.221773E+02  1.178605E+02  1.568147E+02 -2.140381E-05 -1.610779E-05
        73  11  6.024125E+02  2.354138E+02  8.255927E+01  1.641343E+02 -2.758885E-05 -2.051669E-05
        73  12  5.957321E+02  1.944994E+02  4.390423E+00  1.686127E+02 -3.379464E-05 -2.492064E-05
        73  13  6.655152E-01 -3.353739E+00 -4.678049E+01 -5.541232E+00 -6.406963E-05 -1.419621E-05
        73  14  3.980193E+00  9.322443E+00 -8.232995E+01  1.288395E+00 -8.211941E-05 -1.838011E-05
        73  15 -3.397155E+00 -3.215329E+01 -1.607470E+02  5.275508E+00 -1.001643E-04 -2.256202E-05
        73  16 -5.970683E+02 -2.288848E+02 -2.114215E+02 -1.678970E+02 -2.206340E-05 -1.599786E-05
        73  17 -5.944514E+02 -2.167688E+02 -2.472191E+02 -1.615574E+02 -2.825967E-05 -2.039748E-05
        73  18 -6.025256E+02 -2.588058E+02 -3.258844E+02 -1.580614E+02 -3.444072E-05 -2.480402E-05
        73  19  5.984128E+02  2.221820E+02  1.178640E+02  1.568017E+02 -3.366349E+01 -1.178463E+01
        73  20  6.024291E+02  2.354195E+02  8.256376E+01  1.641178E+02 -7.567575E+01 -2.732199E+01
        73  21  5.957523E+02  1.945062E+02  4.395867E+00  1.685926E+02 -1.176891E+02 -4.285866E+01
        73  22  6.653834E-01 -3.353736E+00 -4.678052E+01 -5.541294E+00 -3.365877E+01 -1.178283E+01
        73  23  3.980068E+00  9.322451E+00 -8.232996E+01  1.288332E+00 -7.567098E+01 -2.732018E+01
        73  24 -3.397274E+00 -3.215328E+01 -1.607470E+02  5.275451E+00 -1.176843E+02 -4.285682E+01
        73  25 -5.970814E+02 -2.288894E+02 -2.114250E+02 -1.678842E+02 -3.365395E+01 -1.178104E+01
        73  26 -5.944681E+02 -2.167745E+02 -2.472236E+02 -1.615409E+02 -7.566611E+01 -2.731837E+01
        73  27 -6.025458E+02 -2.588125E+02 -3.258898E+02 -1.580414E+02 -1.176794E+02 -4.285498E+01
        74   1  9.287911E+02  3.536953E+02  5.213857E+01  2.418674E+02  1.484879E+02  5.427973E+01
        74   2  9.730934E+02  4.064650E+02 -1.000774E+02  2.520947E+02  3.339846E+02  1.237101E+02
        74   3  9.011365E+02  1.699265E+02 -4.656152E+02  3.161613E+02  5.194701E+02  1.931675E+02
        74   4 -1.512951E+01 -1.291711E+00 -2.076219E+02 -1.334930E+01  1.484826E+02  5.427778E+01
        74   5  2.977788E+01  4.965202E+01 -3.600786E+02 -5.068110E+00  3.339796E+02  1.237082E+02
        74   6 -4.157505E+01 -1.887122E+02 -7.258576E+02  5.705330E+01  5.194654E+02  1.931658E+02
        74   7 -9.590493E+02 -3.562787E+02 -4.673825E+02 -2.685657E+02  1.484774E+02  5.427582E+01
        74   8 -9.135370E+02 -3.071610E+02 -6.200799E+02 -2.622306E+02  3.339748E+02  1.237064E+02
        74   9 -9.842860E+02 -5.473509E+02 -9.861002E+02 -2.020544E+02  5.194609E+02  1.931640E+02
        74  10  9.288133E+02  3.537026E+02  5.214445E+01  2.418453E+02 -3.738452E-05 -2.741947E-05
        74  11  9.731190E+02  4.064731E+02 -1.000708E+02  2.520691E+02 -4.350081E-05 -3.158847E-05
        74  12  9.011653E+02  1.699353E+02 -4.656082E+02  3.161322E+02 -4.964648E-05 -3.574666E-05
        74  13 -1.512966E+01 -1.291716E+00 -2.076220E+02 -1.334937E+01 -1.105359E-04 -2.502129E-05
        74  14  2.977763E+01  4.965198E+01 -3.600788E+02 -5.068207E+00 -1.281276E-04 -2.929144E-05
        74  15 -4.157548E+01 -1.887123E+02 -7.258582E+02  5.705317E+01 -1.457185E-04 -3.356464E-05
        74  16 -9.590717E+02 -3.562860E+02 -4.673884E+02 -2.685437E+02 -3.801231E-05 -2.729192E-05
        74  17 -9.135629E+02 -3.071692E+02 -6.200869E+02 -2.622052E+02 -4.412270E-05 -3.145341E-05
        74  18 -9.843155E+02 -5.473599E+02 -9.861083E+02 -2.020256E+02 -5.019965E-05 -3.563284E-05
        74  19  9.288357E+02  3.537100E+02  5.215043E+01  2.418232E+02 -1.484880E+02 -5.427979E+01
        74  20  9.731449E+02  4.064813E+02 -1.000638E+02  2.520436E+02 -3.339847E+02 -1.237101E+02
        74  21  9.011947E+02  1.699444E+02 -4.656000E+02  3.161033E+02 -5.194702E+02 -1.931675E+02
        74  22 -1.512976E+01 -1.291703E+00 -2.076219E+02 -1.334943E+01 -1.484828E+02 -5.427783E+01
        74  23  2.977763E+01  4.965203E+01 -3.600786E+02 -5.068237E+00 -3.339799E+02 -1.237083E+02
        74  24 -4.157532E+01 -1.887122E+02 -7.258577E+02  5.705319E+01 -5.194657E+02 -1.931658E+02
        74  25 -9.590940E+02 -3.562933E+02 -4.673943E+02 -2.685217E+02 -1.484775E+02 -5.427587E+01
        74  26 -9.135886E+02 -3.071772E+02 -6.200934E+02 -2.621797E+02 -3.339749E+02 -1.237064E+02
        74  27 -9.843444E+02 -5.473687E+02 -9.861154E+02 -2.019966E+02 -5.194610E+02 -1.931641E+02
        75   1  1.185341E+03  4.932736E+02 -5.688896E+02  2.809755E+02  6.575041E+02  2.448645E+02
        75   2  1.473208E+03  7.971744E+02 -1.211077E+03  3.049072E+02  1.477221E+03  5.525483E+02
        75   3  9.967381E+02 -6.942231E+02 -2.949623E+03  7.579895E+02  2.296880E+03  8.603624E+02
        75   4 -1.097773E+02  1.384001E+01 -9.237699E+02 -6.135997E+01  6.574967E+02  2.448618E+02
        75   5  1.871449E+02  3.074796E+02 -1.566194E+03 -4.901923E+01  1.477215E+03  5.525461E+02
        75   6 -2.802723E+02 -1.194180E+03 -3.304981E+03  3.924741E+02  2.296875E+03  8.603607E+02
        75   7 -1.404893E+03 -4.655933E+02 -1.278650E+03 -4.036947E+02  6.574896E+02  2.448591E+02
        75   8 -1.098916E+03 -1.822150E+02 -1.921312E+03 -4.029449E+02  1.477209E+03  5.525439E+02
        75   9 -1.557281E+03 -1.694137E+03 -3.660339E+03  2.695932E+01  2.296871E+03  8.603590E+02
        75  10  1.185371E+03  4.932826E+02 -5.688825E+02  2.809446E+02 -5.300159E-05 -3.797448E-05
        75  11  1.473239E+03  7.971831E+02 -1.211073E+03  3.048728E+02 -5.836114E-05 -4.141863E-05
        75  12  9.967689E+02 -6.942153E+02 -2.949625E+03  7.579514E+02 -6.381872E-05 -4.481365E-05
        75  13 -1.097778E+02  1.383984E+01 -9.237709E+02 -6.136016E+01 -1.552474E-04 -3.594434E-05
        75  14  1.871424E+02  3.074787E+02 -1.566199E+03 -4.901994E+01 -1.704004E-04 -3.985291E-05
        75  15 -2.802783E+02 -1.194182E+03 -3.304992E+03  3.924724E+02 -1.855522E-04 -4.376535E-05
        75  16 -1.404925E+03 -4.656026E+02 -1.278659E+03 -4.036641E+02 -5.351661E-05 -3.783397E-05
        75  17 -1.098952E+03 -1.822254E+02 -1.921326E+03 -4.029119E+02 -5.887371E-05 -4.127181E-05
        75  18 -1.557324E+03 -1.694149E+03 -3.660360E+03  2.699424E+01 -6.412450E-05 -4.475699E-05
        75  19  1.185403E+03  4.932921E+02 -5.688735E+02  2.809139E+02 -6.575042E+02 -2.448646E+02
        75  20  1.473275E+03  7.971936E+02 -1.211059E+03  3.048398E+02 -1.477221E+03 -5.525484E+02
        75  21  9.968114E+02 -6.942032E+02 -2.949604E+03  7.579164E+02 -2.296880E+03 -8.603625E+02
        75  22 -1.097775E+02  1.384003E+01 -9.237700E+02 -6.136008E+01 -6.574970E+02 -2.448619E+02
        75  23  1.871447E+02  3.074796E+02 -1.566195E+03 -4.901934E+01 -1.477215E+03 -5.525462E+02
        75  24 -2.802726E+02 -1.194180E+03 -3.304981E+03  3.924740E+02 -2.296876E+03 -8.603608E+02
        75  25 -1.404955E+03 -4.656116E+02 -1.278666E+03 -4.036332E+02 -6.574897E+02 -2.448592E+02
        75  26 -1.098984E+03 -1.822341E+02 -1.921330E+03 -4.028777E+02 -1.477209E+03 -5.525439E+02
        75  27 -1.557355E+03 -1.694157E+03 -3.660358E+03  2.703234E+01 -2.296871E+03 -8.603590E+02
        76   1  1.003146E+03  6.943811E+02 -3.668001E+03  3.739318E+01  2.919455E+03  1.094062E+03
        76   2  2.759195E+03  2.584864E+03 -6.311148E+03  1.208729E+02  6.541815E+03  2.454838E+03
        76   3 -2.176864E+02 -6.910560E+03 -1.476087E+04  3.093862E+03  1.016397E+04  3.816356E+03
        76   4 -6.755073E+02  1.219093E+02 -4.118188E+03 -3.560564E+02  2.919438E+03  1.094056E+03
        76   5  1.144844E+03  1.946836E+03 -6.761580E+03 -3.473622E+02  6.541805E+03  2.454834E+03
        76   6 -1.767746E+03 -7.614166E+03 -1.521156E+04  2.550842E+03  1.016396E+04  3.816353E+03
        76   7 -2.354158E+03 -4.505625E+02 -4.568375E+03 -7.495051E+02  2.919421E+03  1.094050E+03
        76   8 -4.695040E+02  1.308809E+03 -7.212013E+03 -8.155963E+02  6.541796E+03  2.454830E+03
        76   9 -3.317803E+03 -8.317771E+03 -1.566226E+04  2.007824E+03  1.016396E+04  3.816350E+03
        76  10  1.003174E+03  6.943874E+02 -3.668010E+03  3.735313E+01 -6.575622E-05 -4.591370E-05
        76  11  2.759185E+03  2.584855E+03 -6.311230E+03  1.208222E+02 -6.674707E-05 -4.614944E-05
        76  12 -2.177633E+02 -6.910594E+03 -1.476108E+04  3.093792E+03 -6.794178E-05 -4.625675E-05
        76  13 -6.755168E+02  1.219058E+02 -4.118206E+03 -3.560590E+02 -1.906166E-04 -4.519858E-05
        76  14  1.144797E+03  1.946818E+03 -6.761672E+03 -3.473752E+02 -1.928730E-04 -4.620032E-05
        76  15 -1.767861E+03 -7.614209E+03 -1.521179E+04  2.550811E+03 -1.951340E-04 -4.718744E-05
        76  16 -2.354205E+03 -4.505759E+02 -4.568403E+03 -7.494702E+02 -6.586320E-05 -4.580658E-05
        76  17 -4.695894E+02  1.308781E+03 -7.212114E+03 -8.155715E+02 -6.679813E-05 -4.605675E-05
        76  18 -3.317956E+03 -8.317823E+03 -1.566249E+04  2.007831E+03 -6.753325E-05 -4.640017E-05
        76  19  1.003221E+03  6.944009E+02 -3.667982E+03  3.731823E+01 -2.919455E+03 -1.094063E+03
        76  20  2.759270E+03  2.584883E+03 -6.311129E+03  1.207974E+02 -6.541815E+03 -2.454839E+03
        76  21 -2.176104E+02 -6.910542E+03 -1.476085E+04  3.093786E+03 -1.016397E+04 -3.816356E+03
        76  22 -6.755073E+02  1.219093E+02 -4.118188E+03 -3.560564E+02 -2.919438E+03 -1.094057E+03
        76  23  1.144844E+03  1.946836E+03 -6.761580E+03 -3.473623E+02 -6.541806E+03 -2.454834E+03
        76  24 -1.767746E+03 -7.614166E+03 -1.521156E+04  2.550842E+03 -1.016396E+04 -3.816353E+03
        76  25 -2.354233E+03 -4.505822E+02 -4.568394E+03 -7.494302E+02 -2.919421E+03 -1.094051E+03
        76  26 -4.695796E+02  1.308790E+03 -7.212032E+03 -8.155208E+02 -6.541796E+03 -2.454830E+03
        76  27 -3.317879E+03 -8.317789E+03 -1.566228E+04  2.007900E+03 -1.016396E+04 -3.816350E+03
        77   1 -1.848739E+03  1.324608E+03 -1.787083E+04 -1.964056E+03  1.299354E+04  4.879144E+03
        77   2  8.887434E+03  1.324117E+04 -2.830854E+04 -1.617610E+03  2.899545E+04  1.089248E+04
        77   3 -9.658861E+03 -4.714994E+04 -7.047367E+04  1.753966E+04  4.499608E+04  1.690965E+04
        77   4 -4.114844E+03  8.566003E+02 -1.841761E+04 -2.182218E+03  1.299347E+04  4.879126E+03
        77   5  7.043514E+03  1.234995E+04 -2.885551E+04 -2.319257E+03  2.899542E+04  1.089245E+04
        77   6 -1.108069E+04 -4.846451E+04 -7.102094E+04  1.635455E+04  4.499611E+04  1.690959E+04
        77   7 -6.380944E+03  3.885925E+02 -1.896439E+04 -2.400380E+03  1.299339E+04  4.879108E+03
        77   8  5.199597E+03  1.145873E+04 -2.940248E+04 -3.020901E+03  2.899539E+04  1.089243E+04
        77   9 -1.250251E+04 -4.977907E+04 -7.156821E+04  1.516945E+04  4.499613E+04  1.690953E+04
        77  10 -1.848893E+03  1.324545E+03 -1.787118E+04 -1.964141E+03 -6.139919E-05 -4.102331E-05
        77  11  8.886519E+03  1.324082E+04 -2.831033E+04 -1.617883E+03 -3.551217E-05 -2.284591E-05
        77  12 -9.661107E+03 -4.715079E+04 -7.047801E+04  1.753904E+04 -8.477472E-06 -5.189960E-06
        77  13 -4.115031E+03  8.565295E+02 -1.841797E+04 -2.182269E+03 -1.737169E-04 -4.213144E-05
        77  14  7.042580E+03  1.234960E+04 -2.885731E+04 -2.319511E+03 -9.788631E-05 -2.375524E-05
        77  15 -1.108294E+04 -4.846536E+04 -7.102528E+04  1.635394E+04 -2.205908E-05 -5.358626E-06
        77  16 -6.381166E+03  3.885138E+02 -1.896476E+04 -2.400397E+03 -5.930168E-05 -4.131991E-05
        77  17  5.198644E+03  1.145837E+04 -2.940429E+04 -3.021136E+03 -3.249090E-05 -2.358790E-05
        77  18 -1.250477E+04 -4.977992E+04 -7.157256E+04  1.516884E+04 -6.845032E-06 -5.284392E-06
        77  19 -1.848671E+03  1.324623E+03 -1.787081E+04 -1.964124E+03 -1.299354E+04 -4.879144E+03
        77  20  8.887473E+03  1.324118E+04 -2.830853E+04 -1.617648E+03 -2.899545E+04 -1.089248E+04
        77  21 -9.658852E+03 -4.714994E+04 -7.047367E+04  1.753965E+04 -4.499608E+04 -1.690965E+04
        77  22 -4.114843E+03  8.566004E+02 -1.841761E+04 -2.182218E+03 -1.299347E+04 -4.879126E+03
        77  23  7.043515E+03  1.234995E+04 -2.885551E+04 -2.319256E+03 -2.899542E+04 -1.089245E+04
        77  24 -1.108069E+04 -4.846451E+04 -7.102094E+04  1.635455E+04 -4.499611E+04 -1.690959E+04
        77  25 -6.381012E+03  3.885768E+02 -1.896440E+04 -2.400312E+03 -1.299339E+04 -4.879108E+03
        77  26  5.199559E+03  1.145872E+04 -2.940249E+04 -3.020862E+03 -2.899539E+04 -1.089243E+04
        77  27 -1.250252E+04 -4.977907E+04 -7.156822E+04  1.516946E+04 -4.499613E+04 -1.690953E+04
        78   1  9.248384E+04  9.021423E+05  8.604188E+04 -4.914723E+02  5.281494E+03  4.079210E+04
        78   2  8.758526E+04  9.006293E+05  6.503146E+04 -5.656183E+02  1.869525E+04  2.240424E+04
        78   3  8.617187E+04  9.023874E+05  5.685814E+04  8.107441E+00  2.468050E+04  4.014128E+03
        78   4  6.126914E+02  5.277333E+05  7.901260E+02  1.443615E+02  5.297661E+03 -3.430691E+02
        78   5  2.612251E+02  5.276450E+05  1.088095E+03 -1.798867E+02  1.870639E+04 -8.807588E+02
        78   6  2.994742E+02  5.277327E+05  1.838749E+03  1.441718E+02  2.468459E+04 -1.420745E+03
        78   7 -9.126725E+04  1.534577E+05 -8.446439E+04  7.798201E+02  5.313749E+03 -4.145368E+04
        78   8 -8.706994E+04  1.547984E+05 -6.285791E+04  2.056200E+02  1.871751E+04 -2.415222E+04
        78   9 -8.557942E+04  1.532193E+05 -5.318300E+04  2.801669E+02  2.468867E+04 -6.852477E+03
        78  10  9.248337E+04  9.021405E+05  8.603870E+04 -4.916457E+02 -1.262973E-10 -1.448742E-09
        78  11  8.758475E+04  9.006287E+05  6.502986E+04 -5.659555E+02 -2.088491E-09 -1.776425E-09
        78  12  8.617121E+04  9.023872E+05  5.685696E+04  8.027684E+00  9.395924E-12 -5.624238E-10
        78  13  6.126613E+02  5.277333E+05  7.900730E+02  1.443629E+02 -2.272398E-10  4.579655E-10
        78  14  2.608490E+02  5.276449E+05  1.087436E+03 -1.798734E+02 -3.561781E-09 -9.787411E-10
        78  15  2.988192E+02  5.277326E+05  1.837600E+03  1.442001E+02 -8.445559E-10  5.248534E-10
        78  16 -9.126774E+04  1.534559E+05 -8.446767E+04  7.799975E+02 -2.299669E-09  8.015409E-10
        78  17 -8.707047E+04  1.547977E+05 -6.285967E+04  2.059841E+02 -5.952659E-09  1.419365E-09
        78  18 -8.558009E+04  1.532191E+05 -5.318423E+04  2.803032E+02 -1.519252E-09  6.540733E-10
        78  19  9.248384E+04  9.021423E+05  8.604188E+04 -4.914723E+02 -5.281494E+03 -4.079210E+04
        78  20  8.758526E+04  9.006293E+05  6.503146E+04 -5.656183E+02 -1.869525E+04 -2.240424E+04
        78  21  8.617187E+04  9.023874E+05  5.685814E+04  8.107441E+00 -2.468050E+04 -4.014128E+03
        78  22  6.126914E+02  5.277333E+05  7.901260E+02  1.443615E+02 -5.297661E+03  3.430691E+02
        78  23  2.612251E+02  5.276450E+05  1.088095E+03 -1.798867E+02 -1.870639E+04  8.807588E+02
        78  24  2.994742E+02  5.277327E+05  1.838749E+03  1.441718E+02 -2.468459E+04  1.420745E+03
        78  25 -9.126725E+04  1.534577E+05 -8.446439E+04  7.798201E+02 -5.313749E+03  4.145368E+04
        78  26 -8.706994E+04  1.547984E+05 -6.285791E+04  2.056200E+02 -1.871751E+04  2.415222E+04
        78  27 -8.557942E+04  1.532193E+05 -5.318300E+04  2.801669E+02 -2.468867E+04  6.852477E+03
        79   1  8.585195E+04  9.021634E+05  5.578299E+04 -2.375553E+02  2.568688E+04  3.002799E+03
        79   2  8.621874E+04  9.016359E+05  5.603785E+04  7.729879E+02  2.669019E+04 -3.893283E+03
        79   3  8.893954E+04  9.026009E+05  6.136882E+04  1.818988E+03  2.571730E+04 -1.079049E+04
        79   4  3.772111E+02  5.278423E+05  2.418867E+03  7.856939E+00  2.569087E+04 -1.772714E+03
        79   5  1.105869E+03  5.275070E+05  4.284048E+03 -9.138008E+00  2.669184E+04 -3.918893E+03
        79   6  3.365368E+03  5.278411E+05  7.930808E+03  9.325861E+00  2.571602E+04 -6.066182E+03
        79   7 -8.510385E+04  1.536628E+05 -5.094722E+04  2.531321E+02  2.569485E+04 -6.545474E+03
        79   8 -8.401316E+04  1.535200E+05 -4.747139E+04 -7.907534E+02  2.669350E+04 -3.944489E+03
        79   9 -8.221514E+04  1.532231E+05 -4.550918E+04 -1.799178E+03  2.571470E+04 -1.344600E+03
        79  10  8.585124E+04  9.021632E+05  5.578173E+04 -2.376174E+02 -8.098783E-10 -8.062507E-09
        79  11  8.621797E+04  9.016357E+05  5.603648E+04  7.730716E+02 -8.053474E-10 -1.841820E-09
        79  12  8.893880E+04  9.026006E+05  6.136736E+04  1.819211E+03 -1.198277E-09  6.596221E-09
        79  13  3.765013E+02  5.278421E+05  2.417620E+03  7.893611E+00  2.945755E-09  4.940333E-10
        79  14  1.105099E+03  5.275068E+05  4.282680E+03 -9.053779E+00 -3.413889E-09 -1.172044E-09
        79  15  3.364648E+03  5.278409E+05  7.929496E+03  9.451473E+00  9.959534E-10  8.141806E-10
        79  16 -8.510457E+04  1.536626E+05 -5.094854E+04  2.532676E+02  6.501939E-10  7.203969E-09
        79  17 -8.401393E+04  1.535198E+05 -4.747276E+04 -7.906686E+02  3.403242E-09  1.613924E-09
        79  18 -8.221585E+04  1.532229E+05 -4.551042E+04 -1.799150E+03  5.625075E-10 -6.213158E-09
        79  19  8.585195E+04  9.021634E+05  5.578299E+04 -2.375553E+02 -2.568688E+04 -3.002799E+03
        79  20  8.621874E+04  9.016359E+05  5.603785E+04  7.729879E+02 -2.669019E+04  3.893283E+03
        79  21  8.893954E+04  9.026009E+05  6.136882E+04  1.818988E+03 -2.571730E+04  1.079049E+04
        79  22  3.772111E+02  5.278423E+05  2.418867E+03  7.856939E+00 -2.569087E+04  1.772714E+03
        79  23  1.105869E+03  5.275070E+05  4.284048E+03 -9.138008E+00 -2.669184E+04  3.918893E+03
        79  24  3.365368E+03  5.278411E+05  7.930808E+03  9.325861E+00 -2.571602E+04  6.066182E+03
        79  25 -8.510385E+04  1.536628E+05 -5.094722E+04  2.531321E+02 -2.569485E+04  6.545474E+03
        79  26 -8.401316E+04  1.535200E+05 -4.747139E+04 -7.907534E+02 -2.669350E+04  3.944489E+03
        79  27 -8.221514E+04  1.532231E+05 -4.550918E+04 -1.799178E+03 -2.571470E+04  1.344600E+03
        80   1  9.066946E+04  9.041738E+05  6.577156E+04  1.110595E+03  2.472696E+04 -1.283685E+04
        80   2  1.008426E+05  9.004312E+05  8.380844E+04  1.323055E+04  1.877359E+04 -4.077811E+04
        80   3  1.289986E+05  9.048230E+05  1.245159E+05  2.477807E+04  5.359058E+03 -6.872586E+04
        80   4  4.633639E+03  5.288096E+05  1.063265E+04 -1.272315E+02  2.472504E+04 -7.450147E+03
        80   5  1.326582E+04  5.262919E+05  1.964531E+04  1.691212E+02  1.875953E+04 -1.746119E+04
        80   6  3.677579E+04  5.288014E+05  3.889062E+04 -1.072026E+02  5.331863E+03 -2.747816E+04
        80   7 -8.140870E+04  1.535872E+05 -4.450864E+04 -1.364258E+03  2.472309E+04 -2.066557E+03
        80   8 -7.431745E+04  1.522916E+05 -4.452040E+04 -1.288418E+04  1.874448E+04  5.842143E+03
        80   9 -5.545353E+04  1.529157E+05 -4.673712E+04 -2.497727E+04  5.301357E+03  1.374481E+04
        80  10  9.066876E+04  9.041735E+05  6.577010E+04  1.110850E+03 -7.150829E-10 -7.182543E-08
        80  11  1.008417E+05  9.004293E+05  8.380466E+04  1.323117E+04  3.628534E-09 -3.167239E-09
        80  12  1.289973E+05  9.048179E+05  1.245070E+05  2.477837E+04  7.070714E-10  6.802260E-08
        80  13  4.632968E+03  5.288094E+05  1.063140E+04 -1.270832E+02 -4.344377E-10  7.686751E-10
        80  14  1.326536E+04  5.262915E+05  1.964407E+04  1.693850E+02  2.415647E-09 -1.359049E-09
        80  15  3.677556E+04  5.288005E+05  3.888915E+04 -1.070847E+02  1.480701E-09  1.033517E-09
        80  16 -8.140936E+04  1.535870E+05 -4.450979E+04 -1.364217E+03  1.323170E-09  7.093305E-08
        80  17 -7.431784E+04  1.522914E+05 -4.452113E+04 -1.288427E+04 -1.405669E-09  2.713777E-09
        80  18 -5.545361E+04  1.529155E+05 -4.673753E+04 -2.497733E+04  1.602471E-09 -6.774938E-08
        80  19  9.066946E+04  9.041738E+05  6.577156E+04  1.110595E+03 -2.472696E+04  1.283685E+04
        80  20  1.008426E+05  9.004312E+05  8.380844E+04  1.323055E+04 -1.877359E+04  4.077811E+04
        80  21  1.289986E+05  9.048230E+05  1.245159E+05  2.477807E+04 -5.359058E+03  6.872586E+04
        80  22  4.633639E+03  5.288096E+05  1.063265E+04 -1.272315E+02 -2.472504E+04  7.450147E+03
        80  23  1.326582E+04  5.262919E+05  1.964531E+04  1.691212E+02 -1.875953E+04  1.746119E+04
        80  24  3.677579E+04  5.288014E+05  3.889062E+04 -1.072026E+02 -5.331863E+03  2.747816E+04
        80  25 -8.140870E+04  1.535872E+05 -4.450864E+04 -1.364258E+03 -2.472309E+04  2.066557E+03
        80  26 -7.431745E+04  1.522916E+05 -4.452040E+04 -1.288418E+04 -1.874448E+04 -5.842143E+03
        80  27 -5.545353E+04  1.529157E+05 -4.673712E+04 -2.497727E+04 -5.301357E+03 -1.374481E+04
        81   1  1.107437E+05  4.593853E+05  6.121875E+05  3.706576E+03  4.398954E+05  1.888719E+03
        81   2  7.514684E+03 -1.527101E+05  2.409263E+05  4.026445E+03  2.896786E+05  9.437296E+02
        81   3  1.118696E+05 -4.810773E+04  1.484930E+05 -6.325597E+03  1.394571E+05  2.658815E+02
        81   4  2.448053E+05  4.928051E+05  6.456699E+05 -4.153903E+03  4.399495E+05  1.883078E+03
        81   5  1.410131E+05 -1.193489E+05  2.742885E+05  2.192081E+03  2.897106E+05  9.428352E+02
        81   6  2.447688E+05 -1.488217E+04  1.817079E+05 -2.134545E+03  1.394672E+05  2.668118E+02
        81   7  3.788833E+05  5.262238E+05  6.791511E+05 -1.201610E+04  4.400037E+05  1.877438E+03
        81   8  2.745277E+05 -8.598903E+04  3.076494E+05  3.573124E+02  2.897427E+05  9.419407E+02
        81   9  3.776840E+05  1.834212E+04  2.149215E+05  2.057401E+03  1.394774E+05  2.677420E+02
        81  10  1.105361E+05  4.593333E+05  6.118239E+05  3.705908E+03  1.526372E-09  1.281337E-09
        81  11  7.424607E+03 -1.527326E+05  2.407687E+05  4.026225E+03  4.582968E-09  1.556307E-09
        81  12  1.118487E+05 -4.811295E+04  1.484565E+05 -6.325627E+03  2.299151E-09 -3.946009E-09
        81  13  2.445976E+05  4.927532E+05  6.453063E+05 -4.154570E+03  4.231316E-09 -5.856243E-10
        81  14  1.409230E+05 -1.193714E+05  2.741308E+05  2.191861E+03 -4.311081E-09  6.764648E-10
        81  15  2.447479E+05 -1.488739E+04  1.816714E+05 -2.134575E+03 -9.903389E-10  1.002826E-10
        81  16  3.786756E+05  5.261719E+05  6.787875E+05 -1.201676E+04 -4.230306E-09  5.361633E-09
        81  17  2.744376E+05 -8.601155E+04  3.074917E+05  3.570927E+02 -3.051373E-11  6.751589E-10
        81  18  3.776632E+05  1.833690E+04  2.148850E+05  2.057371E+03 -4.917095E-10  4.765508E-09
        81  19  1.107437E+05  4.593853E+05  6.121875E+05  3.706576E+03 -4.398954E+05 -1.888719E+03
        81  20  7.514684E+03 -1.527101E+05  2.409263E+05  4.026445E+03 -2.896786E+05 -9.437296E+02
        81  21  1.118696E+05 -4.810773E+04  1.484930E+05 -6.325597E+03 -1.394571E+05 -2.658815E+02
        81  22  2.448053E+05  4.928051E+05  6.456699E+05 -4.153903E+03 -4.399495E+05 -1.883078E+03
        81  23  1.410131E+05 -1.193489E+05  2.742885E+05  2.192081E+03 -2.897106E+05 -9.428352E+02
        81  24  2.447688E+05 -1.488217E+04  1.817079E+05 -2.134545E+03 -1.394672E+05 -2.668118E+02
        81  25  3.788833E+05  5.262238E+05  6.791511E+05 -1.201610E+04 -4.400037E+05 -1.877438E+03
        81  26  2.745277E+05 -8.598903E+04  3.076494E+05  3.573124E+02 -2.897427E+05 -9.419407E+02
        81  27  3.776840E+05  1.834212E+04  2.149215E+05  2.057401E+03 -1.394774E+05 -2.677420E+02
        82   1  1.641789E+05  6.658231E+04  1.396451E+05  3.620965E+02  1.091759E+05  9.780843E+01
        82   2  1.474464E+05 -2.913078E+04  6.060656E+04  6.084898E+02  7.176562E+04  3.141227E+01
        82   3  1.644793E+05 -1.269563E+04  3.413517E+04 -1.499085E+03  3.435541E+04  1.562317E+01
        82   4  2.061440E+05  7.707063E+04  1.501322E+05 -8.756696E+02  1.091788E+05  9.759024E+01
        82   5  1.892645E+05 -1.867796E+04  7.105793E+04  3.032311E+02  7.176756E+04  3.137748E+01
        82   6  2.061483E+05 -2.282186E+03  4.454906E+04 -8.718192E+02  3.435635E+04  1.565843E+01
        82   7  2.481108E+05  8.755882E+04  1.606192E+05 -2.113519E+03  1.091818E+05  9.737205E+01
        82   8  2.310842E+05 -8.225282E+03  8.150918E+04 -2.047915E+00  7.176950E+04  3.134269E+01
        82   9  2.478190E+05  8.131129E+03  5.496281E+04 -2.445105E+02  3.435730E+04  1.569369E+01
        82  10  1.641661E+05  6.657911E+04  1.396227E+05  3.620879E+02  5.253094E-10  5.030725E-10
        82  11  1.474409E+05 -2.913216E+04  6.059688E+04  6.084880E+02 -2.846196E-09  4.564946E-09
        82  12  1.644780E+05 -1.269595E+04  3.413296E+04 -1.499086E+03  5.484116E-09 -1.844055E-08
        82  13  2.061313E+05  7.706743E+04  1.501098E+05 -8.756781E+02 -4.061896E-11 -7.304244E-10
        82  14  1.892590E+05 -1.867934E+04  7.104826E+04  3.032293E+02  6.440544E-11 -7.263473E-10
        82  15  2.061471E+05 -2.282503E+03  4.454684E+04 -8.718197E+02 -2.182111E-09  6.509583E-10
        82  16  2.480980E+05  8.755562E+04  1.605968E+05 -2.113528E+03  1.607451E-09 -1.533220E-09
        82  17  2.310787E+05 -8.226664E+03  8.149950E+04 -2.049726E+00  3.253974E-09 -5.197682E-09
        82  18  2.478177E+05  8.130812E+03  5.496060E+04 -2.445110E+02 -7.667641E-09  1.953706E-08
        82  19  1.641789E+05  6.658231E+04  1.396451E+05  3.620965E+02 -1.091759E+05 -9.780843E+01
        82  20  1.474464E+05 -2.913078E+04  6.060656E+04  6.084898E+02 -7.176562E+04 -3.141227E+01
        82  21  1.644793E+05 -1.269563E+04  3.413517E+04 -1.499085E+03 -3.435541E+04 -1.562317E+01
        82  22  2.061440E+05  7.707063E+04  1.501322E+05 -8.756696E+02 -1.091788E+05 -9.759024E+01
        82  23  1.892645E+05 -1.867796E+04  7.105793E+04  3.032311E+02 -7.176756E+04 -3.137748E+01
        82  24  2.061483E+05 -2.282186E+03  4.454906E+04 -8.718192E+02 -3.435635E+04 -1.565843E+01
        82  25  2.481108E+05  8.755882E+04  1.606192E+05 -2.113519E+03 -1.091818E+05 -9.737205E+01
        82  26  2.310842E+05 -8.225282E+03  8.150918E+04 -2.047913E+00 -7.176950E+04 -3.134269E+01
        82  27  2.478190E+05  8.131129E+03  5.496281E+04 -2.445105E+02 -3.435730E+04 -1.569369E+01
        83   1  1.874410E+05  8.897974E+03  3.262064E+04 -3.026655E+02  2.705314E+04  5.923300E+00
        83   2  1.846523E+05 -6.021968E+03  1.509445E+04 -9.513476E+01  1.770326E+04 -7.025765E+00
        83   3  1.875347E+05 -3.418968E+03  8.049932E+03 -6.002677E+02  8.353475E+03  5.582586E-01
        83   4  1.999043E+05  1.201355E+04  3.573528E+04 -4.936666E+02  2.705269E+04  5.915933E+00
        83   5  1.970697E+05 -2.918188E+03  1.819788E+04 -1.446131E+02  1.770314E+04 -7.026687E+00
        83   6  1.999059E+05 -3.272280E+02  1.114179E+04 -5.082221E+02  8.353685E+03  5.593538E-01
        83   7  2.123678E+05  1.512911E+04  3.884990E+04 -6.846715E+02  2.705225E+04  5.908566E+00
        83   8  2.094872E+05  1.855814E+02  2.130130E+04 -1.940925E+02  1.770302E+04 -7.027608E+00
        83   9  2.122773E+05  2.764501E+03  1.423364E+04 -4.161747E+02  8.353895E+03  5.604491E-01
        83  10  1.874402E+05  8.897778E+03  3.261926E+04 -3.026657E+02  7.511122E-10  5.444785E-09
        83  11  1.846520E+05 -6.022053E+03  1.509386E+04 -9.513467E+01 -9.031818E-09  2.578193E-08
        83  12  1.875346E+05 -3.418987E+03  8.049801E+03 -6.002677E+02  2.944789E-08 -1.149594E-07
        83  13  1.999035E+05  1.201335E+04  3.573390E+04 -4.936668E+02 -6.227492E-12  4.086029E-10
        83  14  1.970693E+05 -2.918272E+03  1.819729E+04 -1.446130E+02 -3.287745E-09 -9.271779E-12
        83  15  1.999058E+05 -3.272467E+02  1.114166E+04 -5.082221E+02  6.954856E-10 -1.034922E-09
        83  16  2.123670E+05  1.512891E+04  3.884853E+04 -6.846717E+02 -9.641052E-10 -4.716611E-09
        83  17  2.094868E+05  1.854973E+02  2.130071E+04 -1.940924E+02  6.427817E-09 -2.846272E-08
        83  18  2.122772E+05  2.764482E+03  1.423351E+04 -4.161747E+02 -2.783371E-08  1.091414E-07
        83  19  1.874410E+05  8.897974E+03  3.262064E+04 -3.026655E+02 -2.705314E+04 -5.923300E+00
        83  20  1.846523E+05 -6.021969E+03  1.509445E+04 -9.513476E+01 -1.770326E+04  7.025765E+00
        83  21  1.875347E+05 -3.418968E+03  8.049932E+03 -6.002677E+02 -8.353475E+03 -5.582588E-01
        83  22  1.999043E+05  1.201355E+04  3.573528E+04 -4.936666E+02 -2.705269E+04 -5.915933E+00
        83  23  1.970697E+05 -2.918188E+03  1.819788E+04 -1.446131E+02 -1.770314E+04  7.026687E+00
        83  24  1.999059E+05 -3.272279E+02  1.114179E+04 -5.082221E+02 -8.353685E+03 -5.593538E-01
        83  25  2.123678E+05  1.512911E+04  3.884990E+04 -6.846715E+02 -2.705225E+04 -5.908566E+00
        83  26  2.094872E+05  1.855814E+02  2.130130E+04 -1.940925E+02 -1.770302E+04  7.027608E+00
        83  27  2.122773E+05  2.764501E+03  1.423364E+04 -4.161747E+02 -8.353895E+03 -5.604489E-01
        84   1  1.964541E+05  1.252417E+03  8.240600E+03 -3.798746E+02  6.538731E+03  1.764405E+00
        84   2  1.959511E+05 -1.076891E+03  4.374506E+03 -2.559579E+02  4.022335E+03 -3.306846E+00
        84   3  1.964923E+05 -5.461792E+02  2.861632E+03 -4.261924E+02  1.505990E+03 -3.672152E+00
        84   4  1.988775E+05  1.858220E+03  8.846171E+03 -4.081218E+02  6.538477E+03  1.764525E+00
        84   5  1.983556E+05 -4.758807E+02  4.975462E+03 -2.624348E+02  4.022186E+03 -3.306631E+00
        84   6  1.988779E+05  5.001407E+01  3.457895E+03 -4.108993E+02  1.505945E+03 -3.672029E+00
        84   7  2.013010E+05  2.464023E+03  9.451742E+03 -4.363690E+02  6.538224E+03  1.764644E+00
        84   8  2.007602E+05  1.251292E+02  5.576418E+03 -2.689117E+02  4.022037E+03 -3.306425E+00
        84   9  2.012635E+05  6.462069E+02  4.054157E+03 -3.956062E+02  1.505900E+03 -3.671919E+00
        84  10  1.964540E+05  1.252407E+03  8.240520E+03 -3.798776E+02 -5.989627E-06 -7.589105E-07
        84  11  1.959511E+05 -1.076892E+03  4.374476E+03 -2.559710E+02 -2.710988E-05 -2.302169E-06
        84  12  1.964923E+05 -5.461738E+02  2.861629E+03 -4.262157E+02 -4.838487E-05 -3.184826E-06
        84  13  1.988775E+05  1.858209E+03  8.846090E+03 -4.081218E+02 -1.540565E-05  5.010972E-07
        84  14  1.983556E+05 -4.758849E+02  4.975432E+03 -2.624348E+02 -6.835186E-05  2.240167E-06
        84  15  1.988779E+05  5.001343E+01  3.457891E+03 -4.108993E+02 -1.212921E-04  3.980830E-06
        84  16  2.013010E+05  2.464011E+03  9.451661E+03 -4.363661E+02 -6.338908E-06  3.608304E-09
        84  17  2.007602E+05  1.251217E+02  5.576387E+03 -2.688986E+02 -2.758395E-05 -1.024375E-06
        84  18  2.012635E+05  6.462005E+02  4.054152E+03 -3.955829E+02 -4.866216E-05 -2.705789E-06
        84  19  1.964541E+05  1.252419E+03  8.240600E+03 -3.798806E+02 -6.538731E+03 -1.764406E+00
        84  20  1.959511E+05 -1.076884E+03  4.374507E+03 -2.559842E+02 -4.022335E+03  3.306841E+00
        84  21  1.964923E+05 -5.461673E+02  2.861635E+03 -4.262390E+02 -1.505990E+03  3.672145E+00
        84  22  1.988775E+05  1.858220E+03  8.846171E+03 -4.081218E+02 -6.538478E+03 -1.764524E+00
        84  23  1.983556E+05 -4.758804E+02  4.975462E+03 -2.624348E+02 -4.022186E+03  3.306636E+00
        84  24  1.988779E+05  5.001400E+01  3.457895E+03 -4.108993E+02 -1.505945E+03  3.672037E+00
        84  25  2.013010E+05  2.464022E+03  9.451741E+03 -4.363631E+02 -6.538224E+03 -1.764644E+00
        84  26  2.007602E+05  1.251230E+02  5.576416E+03 -2.688855E+02 -4.022037E+03  3.306423E+00
        84  27  2.012635E+05  6.461952E+02  4.054155E+03 -3.955596E+02 -1.505900E+03  3.671914E+00
        85   1  2.025691E+05  1.219592E+03  4.019337E+03 -4.151307E+02  9.137665E+02 -2.651768E+00
        85   2  2.023259E+05  7.297668E+02  3.740027E+03 -2.565275E+02 -4.890039E+02 -3.923045E+00
        85   3  2.026123E+05  1.604513E+03  4.716087E+03 -4.344959E+02 -1.891807E+03 -1.314319E+01
        85   4  1.987635E+05  2.684430E+02  3.068184E+03 -4.194586E+02  9.137738E+02 -2.651787E+00
        85   5  1.984987E+05 -2.268261E+02  2.783505E+03 -2.509057E+02 -4.891798E+02 -3.922772E+00
        85   6  1.987635E+05  6.425130E+02  3.754328E+03 -4.189244E+02 -1.892166E+03 -1.314269E+01
        85   7  1.949580E+05 -6.827075E+02  2.117030E+03 -4.237864E+02  9.137813E+02 -2.651819E+00
        85   8  1.946715E+05 -1.183420E+03  1.826982E+03 -2.452839E+02 -4.893557E+02 -3.922508E+00
        85   9  1.949146E+05 -3.194880E+02  2.792568E+03 -4.033530E+02 -1.892525E+03 -1.314220E+01
        85  10  2.025691E+05  1.219598E+03  4.019337E+03 -4.151540E+02 -4.866283E-05 -2.703692E-06
        85  11  2.023259E+05  7.297698E+02  3.740027E+03 -2.565406E+02 -2.757951E-05 -1.021954E-06
        85  12  2.026123E+05  1.604513E+03  4.716080E+03 -4.344988E+02 -6.334285E-06  2.524847E-10
        85  13  1.987635E+05  2.684428E+02  3.068183E+03 -4.194586E+02 -1.212936E-04  3.981668E-06
        85  14  1.984987E+05 -2.268263E+02  2.783505E+03 -2.509057E+02 -6.834724E-05  2.238231E-06
        85  15  1.987635E+05  6.425120E+02  3.754321E+03 -4.189244E+02 -1.540730E-05  5.014857E-07
        85  16  1.949580E+05 -6.827136E+02  2.117027E+03 -4.237631E+02 -4.838968E-05 -3.184508E-06
        85  17  1.946715E+05 -1.183424E+03  1.826980E+03 -2.452707E+02 -2.710485E-05 -2.303878E-06
        85  18  1.949146E+05 -3.194898E+02  2.792561E+03 -4.033500E+02 -5.989527E-06 -7.592528E-07
        85  19  2.025691E+05  1.219604E+03  4.019340E+03 -4.151773E+02 -9.137666E+02  2.651763E+00
        85  20  2.023259E+05  7.297730E+02  3.740029E+03 -2.565537E+02  4.890039E+02  3.923042E+00
        85  21  2.026123E+05  1.604514E+03  4.716087E+03 -4.345018E+02  1.891807E+03  1.314319E+01
        85  22  1.987635E+05  2.684431E+02  3.068185E+03 -4.194586E+02 -9.137741E+02  2.651795E+00
        85  23  1.984987E+05 -2.268264E+02  2.783505E+03 -2.509056E+02  4.891797E+02  3.922777E+00
        85  24  1.987635E+05  6.425130E+02  3.754328E+03 -4.189244E+02  1.892166E+03  1.314270E+01
        85  25  1.949580E+05 -6.827194E+02  2.117027E+03 -4.237398E+02 -9.137814E+02  2.651813E+00
        85  26  1.946715E+05 -1.183427E+03  1.826980E+03 -2.452576E+02  4.893556E+02  3.922503E+00
        85  27  1.949146E+05 -3.194897E+02  2.792568E+03 -4.033470E+02  1.892525E+03  1.314220E+01
        86   1  2.151493E+05  3.934268E+03  8.457568E+03 -5.279690E+02 -2.638073E+03 -1.366406E+01
        86   2  2.141419E+05  2.986273E+03  1.080176E+04 -1.193846E+02 -6.116603E+03 -1.375025E+01
        86   3  2.152652E+05  8.252835E+03  1.698862E+04 -6.191606E+02 -9.595167E+03 -3.874052E+01
        86   4  1.991193E+05 -7.214667E+01  4.451297E+03 -5.480827E+02 -2.637848E+03 -1.366425E+01
        86   5  1.980536E+05 -1.034867E+03  6.780948E+03 -9.170092E+01 -6.116897E+03 -1.375006E+01
        86   6  1.991188E+05  4.217148E+03  1.295370E+04 -5.436810E+02 -9.595979E+03 -3.874074E+01
        86   7  1.830896E+05 -4.078581E+03  4.450063E+02 -5.681959E+02 -2.637623E+03 -1.366444E+01
        86   8  1.819656E+05 -5.056026E+03  2.760116E+03 -6.401793E+01 -6.117191E+03 -1.374986E+01
        86   9  1.829726E+05  1.814409E+02  8.918753E+03 -4.682034E+02 -9.596792E+03 -3.874097E+01
        86  10  2.151493E+05  3.934266E+03  8.457555E+03 -5.279690E+02 -2.573503E-08  1.073323E-07
        86  11  2.141418E+05  2.986263E+03  1.080169E+04 -1.193846E+02  6.004100E-09 -2.684772E-08
        86  12  2.152651E+05  8.252811E+03  1.698845E+04 -6.191609E+02  1.236255E-09 -4.926369E-09
        86  13  1.991193E+05 -7.214858E+01  4.451284E+03 -5.480828E+02 -4.671039E-11 -2.741474E-09
        86  14  1.980536E+05 -1.034877E+03  6.780877E+03 -9.170099E+01 -2.119214E-09 -1.004174E-09
        86  15  1.991187E+05  4.217123E+03  1.295352E+04 -5.436813E+02  1.378711E-09 -6.223275E-10
        86  16  1.830896E+05 -4.078583E+03  4.449932E+02 -5.681959E+02  2.557495E-08 -1.145386E-07
        86  17  1.819656E+05 -5.056036E+03  2.760046E+03 -6.401799E+01 -6.479127E-09  2.776142E-08
        86  18  1.829725E+05  1.814162E+02  8.918579E+03 -4.682037E+02 -2.785613E-09  6.223305E-09
        86  19  2.151493E+05  3.934268E+03  8.457568E+03 -5.279690E+02  2.638073E+03  1.366406E+01
        86  20  2.141419E+05  2.986273E+03  1.080176E+04 -1.193846E+02  6.116603E+03  1.375025E+01
        86  21  2.152652E+05  8.252836E+03  1.698862E+04 -6.191606E+02  9.595167E+03  3.874052E+01
        86  22  1.991193E+05 -7.214676E+01  4.451297E+03 -5.480827E+02  2.637848E+03  1.366425E+01
        86  23  1.980536E+05 -1.034867E+03  6.780948E+03 -9.170092E+01  6.116897E+03  1.375006E+01
        86  24  1.991188E+05  4.217148E+03  1.295370E+04 -5.436810E+02  9.595979E+03  3.874074E+01
        86  25  1.830896E+05 -4.078581E+03  4.450062E+02 -5.681959E+02  2.637623E+03  1.366444E+01
        86  26  1.819656E+05 -5.056026E+03  2.760116E+03 -6.401793E+01  6.117191E+03  1.374986E+01
        86  27  1.829726E+05  1.814409E+02  8.918753E+03 -4.682034E+02  9.596792E+03  3.874097E+01
        87   1  2.549937E+05  1.259594E+04  2.950930E+04 -7.992256E+02 -1.225162E+04 -5.373402E+01
        87   2  2.486157E+05  6.760432E+03  3.892502E+04  3.671201E+02 -2.570167E+04 -7.877037E+01
        87   3  2.553663E+05  4.079124E+04  6.734450E+04 -1.429396E+03 -3.915160E+04 -1.378680E+02
        87   4  2.015625E+05 -7.578415E+02  1.615607E+04 -1.000215E+03 -1.225133E+04 -5.373001E+01
        87   5  1.949969E+05 -6.640730E+03  2.552507E+04  4.735313E+02 -2.570119E+04 -7.877510E+01
        87   6  2.015609E+05  2.734446E+04  5.389881E+04 -1.015603E+03 -3.915091E+04 -1.378958E+02
        87   7  1.481339E+05 -1.411184E+04  2.802619E+03 -1.201187E+03 -1.225104E+04 -5.372599E+01
        87   8  1.413808E+05 -2.004211E+04  1.212489E+04  5.799334E+02 -2.570070E+04 -7.877984E+01
        87   9  1.477582E+05  1.389746E+04  4.045290E+04 -6.018461E+02 -3.915022E+04 -1.379236E+02
        87  10  2.549935E+05  1.259590E+04  2.950902E+04 -7.992262E+02 -3.624198E-09  1.862426E-08
        87  11  2.486150E+05  6.760255E+03  3.892378E+04  3.671184E+02 -5.009996E-10 -6.233595E-09
        87  12  2.553647E+05  4.079083E+04  6.734162E+04 -1.429401E+03 -3.638522E-09 -6.917565E-10
        87  13  2.015623E+05 -7.578817E+02  1.615579E+04 -1.000216E+03  2.154248E-09  3.953065E-10
        87  14  1.949962E+05 -6.640907E+03  2.552383E+04  4.735296E+02 -2.223377E-09 -2.027880E-09
        87  15  2.015593E+05  2.734405E+04  5.389593E+04 -1.015608E+03 -4.012946E-09  8.342962E-10
        87  16  1.481337E+05 -1.411188E+04  2.802337E+03 -1.201188E+03  7.052291E-09 -1.965419E-08
        87  17  1.413801E+05 -2.004229E+04  1.212365E+04  5.799317E+02 -5.331829E-10  3.718569E-09
        87  18  1.477565E+05  1.389705E+04  4.045002E+04 -6.018504E+02  1.940431E-09  1.625482E-09
        87  19  2.549937E+05  1.259594E+04  2.950930E+04 -7.992256E+02  1.225162E+04  5.373402E+01
        87  20  2.486157E+05  6.760432E+03  3.892502E+04  3.671201E+02  2.570167E+04  7.877037E+01
        87  21  2.553663E+05  4.079124E+04  6.734450E+04 -1.429396E+03  3.915160E+04  1.378680E+02
        87  22  2.015625E+05 -7.578415E+02  1.615607E+04 -1.000215E+03  1.225133E+04  5.373001E+01
        87  23  1.949969E+05 -6.640730E+03  2.552507E+04  4.735313E+02  2.570119E+04  7.877510E+01
        87  24  2.015609E+05  2.734446E+04  5.389881E+04 -1.015603E+03  3.915091E+04  1.378958E+02
        87  25  1.481339E+05 -1.411184E+04  2.802619E+03 -1.201187E+03  1.225104E+04  5.372599E+01
        87  26  1.413808E+05 -2.004211E+04  1.212489E+04  5.799334E+02  2.570070E+04  7.877984E+01
        87  27  1.477582E+05  1.389746E+04  4.045290E+04 -6.018461E+02  3.915022E+04  1.379236E+02
        88   1  3.909279E+05  3.833725E+04  1.091265E+05 -8.521792E+02 -5.016145E+04 -2.879549E+02
        88   2  3.482286E+05  2.175827E+02  1.411463E+05  2.238527E+03 -1.040172E+05 -6.970850E+02
        88   3  3.922606E+05  2.213418E+05  2.760161E+05 -5.745236E+03 -1.578742E+05 -1.029658E+03
        88   4  2.179117E+05 -4.906765E+03  6.589084E+04 -2.502771E+03 -5.016073E+04 -2.878391E+02
        88   5  1.745441E+05 -4.318572E+04  9.774580E+04  2.516967E+03 -1.040015E+05 -6.971592E+02
        88   6  2.179222E+05  1.778132E+05  2.324599E+05 -3.537868E+03 -1.578434E+05 -1.030235E+03
        88   7  4.492258E+04 -4.815303E+04  2.265291E+04 -4.152912E+03 -5.016001E+04 -2.877233E+02
        88   8  8.869651E+02 -8.659130E+04  5.434303E+04  2.795304E+03 -1.039858E+05 -6.972334E+02
        88   9  4.361131E+04  1.342822E+05  1.889015E+05 -1.331160E+03 -1.578126E+05 -1.030812E+03
        88  10  3.909252E+05  3.833658E+04  1.091218E+05 -8.521909E+02 -6.409924E-10  3.986284E-09
        88  11  3.482170E+05  2.146800E+02  1.411260E+05  2.238469E+03  3.896936E-09 -2.179266E-09
        88  12  3.922338E+05  2.213351E+05  2.759692E+05 -5.745367E+03  5.618481E-10 -3.079580E-09
        88  13  2.179090E+05 -4.907441E+03  6.588611E+04 -2.502783E+03 -4.276983E-09  1.170907E-09
        88  14  1.745325E+05 -4.318862E+04  9.772548E+04  2.516908E+03  1.164868E-09  3.501685E-09
        88  15  2.178954E+05  1.778065E+05  2.324131E+05 -3.537999E+03 -1.166917E-09 -1.571209E-09
        88  16  4.491988E+04 -4.815371E+04  2.264818E+04 -4.152924E+03  1.893521E-09 -2.987294E-09
        88  17  8.753548E+02 -8.659420E+04  5.432271E+04  2.795245E+03 -3.232958E-09 -1.703351E-09
        88  18  4.358457E+04  1.342755E+05  1.888547E+05 -1.331291E+03  5.374888E-11 -2.363998E-09
        88  19  3.909279E+05  3.833725E+04  1.091265E+05 -8.521792E+02  5.016145E+04  2.879549E+02
        88  20  3.482286E+05  2.175827E+02  1.411463E+05  2.238527E+03  1.040172E+05  6.970850E+02
        88  21  3.922606E+05  2.213418E+05  2.760161E+05 -5.745236E+03  1.578742E+05  1.029658E+03
        88  22  2.179117E+05 -4.906765E+03  6.589084E+04 -2.502771E+03  5.016073E+04  2.878391E+02
        88  23  1.745441E+05 -4.318572E+04  9.774580E+04  2.516967E+03  1.040015E+05  6.971592E+02
        88  24  2.179222E+05  1.778132E+05  2.324599E+05 -3.537868E+03  1.578434E+05  1.030235E+03
        88  25  4.492258E+04 -4.815303E+04  2.265291E+04 -4.152912E+03  5.016001E+04  2.877233E+02
        88  26  8.869651E+02 -8.659130E+04  5.434303E+04  2.795304E+03  1.039858E+05  6.972334E+02
        88  27  4.361131E+04  1.342822E+05  1.889015E+05 -1.331160E+03  1.578126E+05  1.030812E+03
        89   1 -9.012934E+06 -2.661126E+06 -1.593296E+06 -3.186557E+06 -7.795370E+05 -2.791764E+05
        89   2 -8.810471E+06 -1.511489E+06 -8.678187E+05 -3.327845E+06 -5.058492E+05 -1.416217E+05
        89   3 -9.036330E+06 -1.506973E+06 -6.623806E+05 -3.210862E+06 -2.198519E+05 -3.644726E+04
        89   4 -7.755398E+06 -1.944638E+06 -1.199358E+06 -2.603321E+06 -7.613752E+05 -2.726529E+05
        89   5 -7.478615E+06 -9.392560E+05 -4.969699E+05 -2.896502E+06 -5.008834E+05 -1.398157E+05
        89   6 -7.626617E+06 -1.074989E+06 -3.032265E+05 -2.931693E+06 -2.280632E+05 -3.950936E+04
        89   7 -6.496163E+06 -1.227348E+06 -8.055717E+05 -2.018801E+06 -7.431711E+05 -2.660952E+05
        89   8 -6.145004E+06 -3.667681E+05 -1.262882E+05 -2.464258E+06 -4.959046E+05 -1.380032E+05
        89   9 -6.214952E+06 -6.430309E+05  5.577501E+04 -2.652019E+06 -2.362948E+05 -4.257572E+04
        89  10 -9.013616E+06 -2.661378E+06 -1.594606E+06 -3.186734E+06 -2.085849E-09 -7.290488E-10
        89  11 -8.810755E+06 -1.511581E+06 -8.683457E+05 -3.327904E+06  2.708410E-09 -4.619574E-10
        89  12 -9.036383E+06 -1.506988E+06 -6.624754E+05 -3.210869E+06 -3.141331E-11  2.470285E-10
        89  13 -7.756048E+06 -1.944877E+06 -1.200605E+06 -2.603490E+06 -6.233137E-10 -4.195485E-10
        89  14 -7.478893E+06 -9.393457E+05 -4.974852E+05 -2.896559E+06  4.440033E-09 -9.698493E-10
        89  15 -7.626674E+06 -1.075005E+06 -3.033286E+05 -2.931701E+06  3.252371E-09  4.658449E-10
        89  16 -6.496780E+06 -1.227575E+06 -8.067563E+05 -2.018962E+06  1.280371E-10  4.298772E-10
        89  17 -6.145275E+06 -3.668558E+05 -1.267919E+05 -2.464313E+06 -6.818628E-10  1.326871E-09
        89  18 -6.215013E+06 -6.430481E+05  5.566545E+04 -2.652027E+06 -5.513046E-10  9.432915E-10
        89  19 -9.012934E+06 -2.661126E+06 -1.593296E+06 -3.186557E+06  7.795370E+05  2.791764E+05
        89  20 -8.810471E+06 -1.511489E+06 -8.678187E+05 -3.327845E+06  5.058492E+05  1.416217E+05
        89  21 -9.036330E+06 -1.506973E+06 -6.623806E+05 -3.210862E+06  2.198519E+05  3.644726E+04
        89  22 -7.755398E+06 -1.944638E+06 -1.199358E+06 -2.603321E+06  7.613752E+05  2.726529E+05
        89  23 -7.478615E+06 -9.392560E+05 -4.969699E+05 -2.896502E+06  5.008834E+05  1.398157E+05
        89  24 -7.626617E+06 -1.074989E+06 -3.032265E+05 -2.931693E+06  2.280632E+05  3.950936E+04
        89  25 -6.496163E+06 -1.227348E+06 -8.055717E+05 -2.018801E+06  7.431711E+05  2.660952E+05
        89  26 -6.145004E+06 -3.667681E+05 -1.262882E+05 -2.464258E+06  4.959046E+05  1.380032E+05
        89  27 -6.214952E+06 -6.430309E+05  5.577501E+04 -2.652019E+06  2.362948E+05  4.257572E+04
        90   1 -8.764384E+06 -1.687247E+06 -5.717415E+05 -3.216960E+06 -1.825092E+05 -2.958976E+04
        90   2 -8.670640E+06 -1.481198E+06 -4.118010E+05 -3.167937E+06 -1.195806E+05 -7.195654E+03
        90   3 -8.563733E+06 -1.475348E+06 -3.343224E+05 -3.164442E+06 -5.518142E+04  1.129983E+04
        90   4 -7.579638E+06 -1.212433E+06 -2.474252E+05 -2.868281E+06 -1.824038E+05 -2.956452E+04
        90   5 -7.578873E+06 -1.061433E+06 -1.170065E+05 -2.864615E+06 -1.210057E+05 -7.737338E+03
        90   6 -7.564546E+06 -1.110167E+06 -6.769642E+04 -2.906495E+06 -5.814887E+04  1.018566E+04
        90   7 -6.393512E+06 -7.374866E+05  7.676292E+04 -2.518973E+06 -1.822978E+05 -2.953905E+04
        90   8 -6.485937E+06 -6.415852E+05  1.776813E+05 -2.560800E+06 -1.224335E+05 -8.280040E+03
        90   9 -6.564384E+06 -7.449432E+05  1.988422E+05 -2.648174E+06 -6.112158E+04  9.069672E+03
        90  10 -8.764420E+06 -1.687257E+06 -5.718068E+05 -3.216965E+06  2.400651E-09 -5.800413E-11
        90  11 -8.670655E+06 -1.481202E+06 -4.118284E+05 -3.167938E+06  2.226235E-09 -9.773514E-10
        90  12 -8.563736E+06 -1.475349E+06 -3.343284E+05 -3.164442E+06 -1.341863E-09 -1.438981E-09
        90  13 -7.579674E+06 -1.212443E+06 -2.474902E+05 -2.868285E+06  3.592922E-09 -2.166352E-10
        90  14 -7.578889E+06 -1.061437E+06 -1.170345E+05 -2.864616E+06  4.645557E-09 -7.307518E-10
        90  15 -7.564550E+06 -1.110168E+06 -6.770303E+04 -2.906494E+06 -1.991894E-09  1.706186E-10
        90  16 -6.393548E+06 -7.374966E+05  7.669810E+04 -2.518977E+06 -1.086487E-09 -1.110299E-09
        90  17 -6.485954E+06 -6.415893E+05  1.776527E+05 -2.560800E+06 -2.239885E-09 -9.030387E-10
        90  18 -6.564388E+06 -7.449443E+05  1.988350E+05 -2.648174E+06 -3.546190E-09  4.700525E-10
        90  19 -8.764384E+06 -1.687247E+06 -5.717415E+05 -3.216960E+06  1.825092E+05  2.958976E+04
        90  20 -8.670640E+06 -1.481198E+06 -4.118010E+05 -3.167937E+06  1.195806E+05  7.195654E+03
        90  21 -8.563733E+06 -1.475348E+06 -3.343224E+05 -3.164442E+06  5.518142E+04 -1.129983E+04
        90  22 -7.579638E+06 -1.212433E+06 -2.474252E+05 -2.868281E+06  1.824038E+05  2.956452E+04
        90  23 -7.578873E+06 -1.061433E+06 -1.170065E+05 -2.864615E+06  1.210057E+05  7.737338E+03
        90  24 -7.564546E+06 -1.110167E+06 -6.769642E+04 -2.906495E+06  5.814887E+04 -1.018566E+04
        90  25 -6.393512E+06 -7.374866E+05  7.676292E+04 -2.518973E+06  1.822978E+05  2.953905E+04
        90  26 -6.485937E+06 -6.415852E+05  1.776813E+05 -2.560800E+06  1.224335E+05  8.280040E+03
        90  27 -6.564384E+06 -7.449432E+05  1.988422E+05 -2.648174E+06  6.112158E+04 -9.069672E+03
        91   1 -8.323968E+06 -1.424360E+06 -2.602403E+05 -3.115868E+06 -4.481855E+04  1.101119E+04
        91   2 -8.220032E+06 -1.305114E+06 -1.946486E+05 -3.022903E+06 -2.850844E+04  1.064638E+04
        91   3 -8.027727E+06 -1.296748E+06 -1.437844E+05 -3.035994E+06 -1.188465E+04  9.422821E+03
        91   4 -7.553622E+06 -1.131058E+06 -5.317130E+04 -2.904661E+06 -4.706420E+04  1.016835E+04
        91   5 -7.596919E+06 -1.069580E+06 -2.720548E+04 -2.853878E+06 -3.109908E+04  9.676931E+03
        91   6 -7.551795E+06 -1.118895E+06 -1.567338E+04 -2.909154E+06 -1.482415E+04  8.325755E+03
        91   7 -6.782697E+06 -8.377190E+05  1.538444E+05 -2.693213E+06 -4.931292E+04  9.324348E+03
        91   8 -6.973427E+06 -8.340226E+05  1.402032E+05 -2.684697E+06 -3.369261E+04  8.706402E+03
        91   9 -7.075640E+06 -9.410305E+05  1.124178E+05 -2.782226E+06 -1.776615E+04  7.227773E+03
        91  10 -8.323970E+06 -1.424361E+06 -2.602444E+05 -3.115868E+06  3.439402E-10  2.236916E-10
        91  11 -8.220033E+06 -1.305114E+06 -1.946504E+05 -3.022902E+06 -4.735098E-10  4.326409E-10
        91  12 -8.027727E+06 -1.296748E+06 -1.437848E+05 -3.035994E+06 -2.284371E-09  5.479008E-10
        91  13 -7.553624E+06 -1.131059E+06 -5.317570E+04 -2.904661E+06 -3.716269E-09 -1.204297E-09
        91  14 -7.596920E+06 -1.069580E+06 -2.720749E+04 -2.853878E+06 -3.866380E-09 -1.169322E-09
        91  15 -7.551795E+06 -1.118895E+06 -1.567393E+04 -2.909154E+06 -4.210090E-09 -7.270074E-10
        91  16 -6.782699E+06 -8.377198E+05  1.538396E+05 -2.693213E+06 -3.226433E-09 -5.819142E-10
        91  17 -6.973428E+06 -8.340230E+05  1.402009E+05 -2.684697E+06 -5.300264E-09 -2.772472E-12
        91  18 -7.075640E+06 -9.410306E+05  1.124171E+05 -2.782226E+06 -1.804676E-10 -7.718094E-10
        91  19 -8.323968E+06 -1.424360E+06 -2.602403E+05 -3.115868E+06  4.481855E+04 -1.101119E+04
        91  20 -8.220032E+06 -1.305114E+06 -1.946486E+05 -3.022903E+06  2.850844E+04 -1.064638E+04
        91  21 -8.027727E+06 -1.296748E+06 -1.437844E+05 -3.035994E+06  1.188465E+04 -9.422821E+03
        91  22 -7.553622E+06 -1.131058E+06 -5.317130E+04 -2.904661E+06  4.706420E+04 -1.016835E+04
        91  23 -7.596919E+06 -1.069580E+06 -2.720548E+04 -2.853878E+06  3.109908E+04 -9.676931E+03
        91  24 -7.551795E+06 -1.118895E+06 -1.567338E+04 -2.909154E+06  1.482415E+04 -8.325755E+03
        91  25 -6.782697E+06 -8.377190E+05  1.538444E+05 -2.693213E+06  4.931292E+04 -9.324348E+03
        91  26 -6.973427E+06 -8.340226E+05  1.402032E+05 -2.684697E+06  3.369261E+04 -8.706402E+03
        91  27 -7.075640E+06 -9.410305E+05  1.124178E+05 -2.782226E+06  1.776615E+04 -7.227773E+03
        92   1 -7.755948E+06 -1.201004E+06 -6.738188E+04 -2.966959E+06 -8.152091E+03  6.210778E+03
        92   2 -7.643048E+06 -1.084330E+06 -1.877748E+04 -2.861705E+06 -1.814769E+03  7.621559E+02
        92   3 -7.425935E+06 -1.075327E+06  2.640095E+04 -2.877819E+06  4.545622E+03 -4.747726E+03
        92   4 -7.548898E+06 -1.122892E+06 -1.236735E+04 -2.910785E+06 -1.103733E+04  5.135008E+03
        92   5 -7.600901E+06 -1.068449E+06 -7.465447E+03 -2.850320E+06 -4.725122E+03 -3.228534E+02
        92   6 -7.548712E+06 -1.121674E+06 -5.965712E+03 -2.911232E+06  1.608996E+03 -5.842282E+03
        92   7 -7.341806E+06 -1.044778E+06  4.264346E+04 -2.854594E+06 -1.392363E+04  4.058837E+03
        92   8 -7.558753E+06 -1.052569E+06  3.846448E+03 -2.838934E+06 -7.635692E+03 -1.407943E+03
        92   9 -7.671473E+06 -1.168019E+06 -3.833355E+04 -2.944638E+06 -1.326978E+03 -6.936591E+03
        92  10 -7.755948E+06 -1.201004E+06 -6.738208E+04 -2.966958E+06  1.563954E-11  1.410063E-09
        92  11 -7.643048E+06 -1.084330E+06 -1.877749E+04 -2.861705E+06  3.798198E-09  3.171476E-09
        92  12 -7.425935E+06 -1.075327E+06  2.640087E+04 -2.877819E+06 -3.505570E-09 -1.951994E-09
        92  13 -7.548898E+06 -1.122892E+06 -1.236763E+04 -2.910785E+06 -6.461919E-09 -1.387327E-09
        92  14 -7.600901E+06 -1.068449E+06 -7.465489E+03 -2.850320E+06 -2.901506E-09  9.968516E-10
        92  15 -7.548712E+06 -1.121674E+06 -5.965781E+03 -2.911232E+06  6.235104E-10  1.931462E-09
        92  16 -7.341806E+06 -1.044778E+06  4.264306E+04 -2.854593E+06 -4.177945E-10 -1.657460E-09
        92  17 -7.558753E+06 -1.052569E+06  3.846333E+03 -2.838934E+06 -5.548355E-09 -4.137102E-10
        92  18 -7.671473E+06 -1.168019E+06 -3.833365E+04 -2.944638E+06 -3.150457E-09 -2.783865E-09
        92  19 -7.755948E+06 -1.201004E+06 -6.738188E+04 -2.966959E+06  8.152091E+03 -6.210778E+03
        92  20 -7.643048E+06 -1.084330E+06 -1.877748E+04 -2.861705E+06  1.814769E+03 -7.621559E+02
        92  21 -7.425935E+06 -1.075327E+06  2.640095E+04 -2.877819E+06 -4.545622E+03  4.747726E+03
        92  22 -7.548898E+06 -1.122892E+06 -1.236735E+04 -2.910785E+06  1.103733E+04 -5.135008E+03
        92  23 -7.600901E+06 -1.068449E+06 -7.465447E+03 -2.850320E+06  4.725122E+03  3.228534E+02
        92  24 -7.548712E+06 -1.121674E+06 -5.965712E+03 -2.911232E+06 -1.608996E+03  5.842282E+03
        92  25 -7.341806E+06 -1.044778E+06  4.264346E+04 -2.854594E+06  1.392363E+04 -4.058837E+03
        92  26 -7.558753E+06 -1.052569E+06  3.846448E+03 -2.838934E+06  7.635692E+03  1.407943E+03
        92  27 -7.671473E+06 -1.168019E+06 -3.833355E+04 -2.944638E+06  1.326978E+03  6.936591E+03
        93   1 -7.156055E+06 -9.715277E+05  1.004692E+05 -2.803036E+06  7.019378E+03 -8.452426E+03
        93   2 -7.052114E+06 -8.646048E+05  1.392403E+05 -2.704982E+06  1.303787E+04 -1.377960E+04
        93   3 -6.851091E+06 -8.574383E+05  1.749245E+05 -2.719007E+06  1.886187E+04 -1.855462E+04
        93   4 -7.550342E+06 -1.119877E+06 -5.924676E+03 -2.909207E+06  4.093005E+03 -9.543993E+03
        93   5 -7.598976E+06 -1.070746E+06 -7.511705E+03 -2.852878E+06  1.034065E+04 -1.478797E+04
        93   6 -7.550597E+06 -1.121427E+06 -1.236988E+04 -2.908645E+06  1.639274E+04 -1.947981E+04
        93   7 -7.944478E+06 -1.268218E+06 -1.123327E+05 -3.015317E+06  1.168689E+03 -1.063479E+04
        93   8 -8.145548E+06 -1.276869E+06 -1.542904E+05 -3.000654E+06  7.646075E+03 -1.579535E+04
        93   9 -8.249625E+06 -1.385387E+06 -1.997075E+05 -3.098086E+06  1.392668E+04 -2.040385E+04
        93  10 -7.156055E+06 -9.715278E+05  1.004689E+05 -2.803036E+06  1.805743E-09  1.797529E-09
        93  11 -7.052114E+06 -8.646050E+05  1.392396E+05 -2.704982E+06 -2.414192E-09 -2.207119E-09
        93  12 -6.851092E+06 -8.574387E+05  1.749232E+05 -2.719007E+06 -1.762431E-09 -3.205245E-10
        93  13 -7.550342E+06 -1.119877E+06 -5.924878E+03 -2.909207E+06 -1.759371E-09 -3.295701E-10
        93  14 -7.598977E+06 -1.070746E+06 -7.512315E+03 -2.852878E+06  3.394666E-09  4.651366E-09
        93  15 -7.550598E+06 -1.121428E+06 -1.237110E+04 -2.908644E+06  1.897975E-09  2.607966E-10
        93  16 -7.944478E+06 -1.268218E+06 -1.123329E+05 -3.015317E+06 -2.337058E-09 -1.053192E-09
        93  17 -8.145548E+06 -1.276870E+06 -1.542910E+05 -3.000654E+06 -3.157801E-09  8.954616E-11
        93  18 -8.249625E+06 -1.385388E+06 -1.997087E+05 -3.098086E+06  9.630842E-10  2.729643E-09
        93  19 -7.156055E+06 -9.715277E+05  1.004692E+05 -2.803036E+06 -7.019378E+03  8.452426E+03
        93  20 -7.052114E+06 -8.646048E+05  1.392403E+05 -2.704982E+06 -1.303787E+04  1.377960E+04
        93  21 -6.851091E+06 -8.574383E+05  1.749245E+05 -2.719007E+06 -1.886187E+04  1.855462E+04
        93  22 -7.550342E+06 -1.119877E+06 -5.924676E+03 -2.909207E+06 -4.093005E+03  9.543993E+03
        93  23 -7.598976E+06 -1.070746E+06 -7.511705E+03 -2.852878E+06 -1.034065E+04  1.478797E+04
        93  24 -7.550597E+06 -1.121427E+06 -1.236988E+04 -2.908645E+06 -1.639274E+04  1.947981E+04
        93  25 -7.944478E+06 -1.268218E+06 -1.123327E+05 -3.015317E+06 -1.168689E+03  1.063479E+04
        93  26 -8.145548E+06 -1.276869E+06 -1.542904E+05 -3.000654E+06 -7.646075E+03  1.579535E+04
        93  27 -8.249625E+06 -1.385387E+06 -1.997075E+05 -3.098086E+06 -1.392668E+04  2.040385E+04
        94   1 -6.628010E+06 -7.652264E+05  2.338551E+05 -2.653390E+06  2.245140E+04 -2.113080E+04
        94   2 -6.550414E+06 -6.820060E+05  2.522714E+05 -2.577747E+06  3.778061E+04 -2.138909E+04
        94   3 -6.404966E+06 -6.871912E+05  2.569859E+05 -2.582086E+06  5.265334E+04 -2.038377E+04
        94   4 -7.556540E+06 -1.114167E+06 -1.562112E+04 -2.903341E+06  1.994838E+04 -2.207084E+04
        94   5 -7.591336E+06 -1.076027E+06 -2.730588E+04 -2.861068E+06  3.578784E+04 -2.214137E+04
        94   6 -7.558404E+06 -1.126424E+06 -5.311883E+04 -2.898792E+06  5.116778E+04 -2.094835E+04
        94   7 -8.484227E+06 -1.463059E+06 -2.651733E+05 -3.152950E+06  1.744952E+04 -2.300935E+04
        94   8 -8.631201E+06 -1.469983E+06 -3.069794E+05 -3.143956E+06  3.379875E+04 -2.289228E+04
        94   9 -8.710546E+06 -1.565573E+06 -3.633429E+05 -3.214959E+06  4.968523E+04 -2.151180E+04
        94  10 -6.628010E+06 -7.652270E+05  2.338533E+05 -2.653389E+06 -2.539318E-10 -2.157905E-09
        94  11 -6.550415E+06 -6.820069E+05  2.522678E+05 -2.577746E+06 -6.516884E-10  8.776634E-10
        94  12 -6.404969E+06 -6.871924E+05  2.569799E+05 -2.582085E+06  3.874638E-09  2.439800E-09
        94  13 -7.556541E+06 -1.114168E+06 -1.562278E+04 -2.903340E+06 -4.873536E-10  6.886523E-10
        94  14 -7.591338E+06 -1.076028E+06 -2.730921E+04 -2.861068E+06 -1.445537E-10 -2.802349E-10
        94  15 -7.558407E+06 -1.126425E+06 -5.312461E+04 -2.898791E+06  2.934207E-09  2.367369E-09
        94  16 -8.484228E+06 -1.463060E+06 -2.651749E+05 -3.152950E+06 -9.866564E-10  7.929552E-10
        94  17 -8.631202E+06 -1.469984E+06 -3.069826E+05 -3.143955E+06  1.253469E-09 -1.557808E-09
        94  18 -8.710549E+06 -1.565574E+06 -3.633484E+05 -3.214958E+06 -1.114815E-09 -1.437149E-09
        94  19 -6.628010E+06 -7.652264E+05  2.338551E+05 -2.653390E+06 -2.245140E+04  2.113080E+04
        94  20 -6.550414E+06 -6.820060E+05  2.522714E+05 -2.577747E+06 -3.778061E+04  2.138909E+04
        94  21 -6.404966E+06 -6.871912E+05  2.569859E+05 -2.582086E+06 -5.265334E+04  2.038377E+04
        94  22 -7.556540E+06 -1.114167E+06 -1.562112E+04 -2.903341E+06 -1.994838E+04  2.207084E+04
        94  23 -7.591336E+06 -1.076027E+06 -2.730588E+04 -2.861068E+06 -3.578784E+04  2.214137E+04
        94  24 -7.558404E+06 -1.126424E+06 -5.311883E+04 -2.898792E+06 -5.116778E+04  2.094835E+04
        94  25 -8.484227E+06 -1.463059E+06 -2.651733E+05 -3.152950E+06 -1.744952E+04  2.300935E+04
        94  26 -8.631201E+06 -1.469983E+06 -3.069794E+05 -3.143956E+06 -3.379875E+04  2.289228E+04
        94  27 -8.710546E+06 -1.565573E+06 -3.633429E+05 -3.214959E+06 -4.968523E+04  2.151180E+04
        95   1 -6.262156E+06 -6.193875E+05  2.820795E+05 -2.553747E+06  6.398788E+04 -1.901744E+04
        95   2 -6.219328E+06 -5.512161E+05  2.472883E+05 -2.498883E+06  1.244579E+05  4.587627E+02
        95   3 -6.194151E+06 -6.491456E+05  1.331063E+05 -2.451485E+06  1.833927E+05  2.402088E+04
        95   4 -7.571695E+06 -1.103212E+06 -6.764765E+04 -2.898013E+06  6.181845E+04 -1.984041E+04
        95   5 -7.570261E+06 -1.070837E+06 -1.170572E+05 -2.875120E+06  1.238857E+05  2.334426E+02
        95   6 -7.586920E+06 -1.205078E+06 -2.472736E+05 -2.859677E+06  1.844116E+05  2.439096E+04
        95   7 -8.879562E+06 -1.586956E+06 -4.175253E+05 -3.241623E+06  5.965400E+04 -2.066161E+04
        95   8 -8.919409E+06 -1.590333E+06 -4.815658E+05 -3.250602E+06  1.233147E+05  8.552122E+00
        95   9 -8.977788E+06 -1.760835E+06 -6.278304E+05 -3.267009E+06  1.854276E+05  2.475978E+04
        95  10 -6.262160E+06 -6.193890E+05  2.820710E+05 -2.553746E+06 -9.245450E-10  4.101110E-11
        95  11 -6.219345E+06 -5.512203E+05  2.472589E+05 -2.498883E+06  1.267243E-09  2.117927E-09
        95  12 -6.194188E+06 -6.491554E+05  1.330413E+05 -2.451488E+06 -2.430053E-09  1.682013E-09
        95  13 -7.571699E+06 -1.103214E+06 -6.765563E+04 -2.898012E+06  4.372953E-09  4.044767E-09
        95  14 -7.570277E+06 -1.070842E+06 -1.170863E+05 -2.875120E+06  9.474860E-09  4.966417E-09
        95  15 -7.586957E+06 -1.205088E+06 -2.473395E+05 -2.859681E+06 -2.569365E-10  3.364929E-09
        95  16 -8.879566E+06 -1.586957E+06 -4.175329E+05 -3.241622E+06  9.052405E-09  1.352401E-09
        95  17 -8.919426E+06 -1.590337E+06 -4.815947E+05 -3.250602E+06  4.116540E-09  2.461378E-09
        95  18 -8.977825E+06 -1.760845E+06 -6.278972E+05 -3.267013E+06  1.356010E-09  2.630060E-09
        95  19 -6.262156E+06 -6.193875E+05  2.820795E+05 -2.553747E+06 -6.398788E+04  1.901744E+04
        95  20 -6.219328E+06 -5.512161E+05  2.472883E+05 -2.498883E+06 -1.244579E+05 -4.587627E+02
        95  21 -6.194151E+06 -6.491456E+05  1.331063E+05 -2.451485E+06 -1.833927E+05 -2.402088E+04
        95  22 -7.571695E+06 -1.103212E+06 -6.764765E+04 -2.898013E+06 -6.181845E+04  1.984041E+04
        95  23 -7.570261E+06 -1.070837E+06 -1.170572E+05 -2.875120E+06 -1.238857E+05 -2.334426E+02
        95  24 -7.586920E+06 -1.205078E+06 -2.472736E+05 -2.859677E+06 -1.844116E+05 -2.439096E+04
        95  25 -8.879562E+06 -1.586956E+06 -4.175253E+05 -3.241623E+06 -5.965400E+04  2.066161E+04
        95  26 -8.919409E+06 -1.590333E+06 -4.815658E+05 -3.250602E+06 -1.233147E+05 -8.552122E+00
        95  27 -8.977788E+06 -1.760835E+06 -6.278304E+05 -3.267009E+06 -1.854276E+05 -2.475978E+04
        96   1 -6.109557E+06 -5.898245E+05  8.662707E+04 -2.608514E+06  2.364337E+05  3.863050E+04
        96   2 -6.080108E+06 -3.538365E+05 -1.108716E+05 -2.458817E+06  4.952052E+05  1.372578E+05
        96   3 -6.510870E+06 -1.214833E+06 -8.056667E+05 -2.007030E+06  7.418927E+05  2.675322E+05
        96   4 -7.634854E+06 -1.066995E+06 -3.031187E+05 -2.922295E+06  2.294278E+05  3.600492E+04
        96   5 -7.468107E+06 -9.500413E+05 -4.967786E+05 -2.908517E+06  5.009641E+05  1.393816E+05
        96   6 -7.765173E+06 -1.934280E+06 -1.198821E+06 -2.592315E+06  7.604577E+05  2.742818E+05
        96   7 -9.157874E+06 -1.544186E+06 -6.930461E+05 -3.235453E+06  2.224403E+05  3.338350E+04
        96   8 -8.854202E+06 -1.545970E+06 -8.828662E+05 -3.357241E+06  5.067075E+05  1.414977E+05
        96   9 -9.017782E+06 -2.652917E+06 -1.592125E+06 -3.176313E+06  7.789796E+05  2.809964E+05
        96  10 -6.109618E+06 -5.898413E+05  8.651802E+04 -2.608522E+06 -2.429958E-09  2.862335E-09
        96  11 -6.080379E+06 -3.539237E+05 -1.113735E+05 -2.458872E+06 -4.365218E-09  5.725822E-09
        96  12 -6.511486E+06 -1.215060E+06 -8.068491E+05 -2.007191E+06 -1.497239E-09  5.668644E-10
        96  13 -7.634911E+06 -1.067011E+06 -3.032214E+05 -2.922302E+06  3.914415E-10  5.614001E-09
        96  14 -7.468384E+06 -9.501310E+05 -4.972939E+05 -2.908574E+06  1.208700E-08 -4.059645E-09
        96  15 -7.765822E+06 -1.934519E+06 -1.200067E+06 -2.592484E+06  2.335117E-10  8.250740E-10
        96  16 -9.157928E+06 -1.544201E+06 -6.931427E+05 -3.235459E+06 -3.524797E-09 -9.704785E-10
        96  17 -8.854486E+06 -1.546063E+06 -8.833949E+05 -3.357300E+06 -5.657521E-09  3.546448E-09
        96  18 -9.018463E+06 -2.653169E+06 -1.593435E+06 -3.176492E+06 -1.495375E-09  5.758030E-10
        96  19 -6.109557E+06 -5.898245E+05  8.662707E+04 -2.608514E+06 -2.364337E+05 -3.863050E+04
        96  20 -6.080108E+06 -3.538365E+05 -1.108716E+05 -2.458817E+06 -4.952052E+05 -1.372578E+05
        96  21 -6.510870E+06 -1.214833E+06 -8.056667E+05 -2.007030E+06 -7.418927E+05 -2.675322E+05
        96  22 -7.634854E+06 -1.066995E+06 -3.031187E+05 -2.922295E+06 -2.294278E+05 -3.600492E+04
        96  23 -7.468107E+06 -9.500413E+05 -4.967786E+05 -2.908517E+06 -5.009641E+05 -1.393816E+05
        96  24 -7.765173E+06 -1.934280E+06 -1.198821E+06 -2.592315E+06 -7.604577E+05 -2.742818E+05
        96  25 -9.157874E+06 -1.544186E+06 -6.930461E+05 -3.235453E+06 -2.224403E+05 -3.338350E+04
        96  26 -8.854202E+06 -1.545970E+06 -8.828662E+05 -3.357241E+06 -5.067075E+05 -1.414977E+05
        96  27 -9.017782E+06 -2.652917E+06 -1.592125E+06 -3.176313E+06 -7.789796E+05 -2.809964E+05
        97   1 -1.522559E+06 -2.316211E+05 -1.884485E+05 -1.117880E+04  1.094945E+05  1.377544E+04
        97   2 -1.471363E+06 -3.807046E+05 -2.667676E+05 -7.302453E+02  7.796655E+04  3.955173E+04
        97   3 -1.365007E+06 -3.433385E+05 -2.770834E+05 -6.263461E+04  4.660154E+04  3.598444E+04
        97   4 -1.533650E+04  1.442881E+05  1.850973E+05 -4.257469E+04  1.262538E+05  1.386771E+04
        97   5 -4.389521E+04 -2.568810E+04  7.999176E+04 -5.968719E+03  8.268547E+04  3.956812E+04
        97   6 -1.532447E+04 -7.352247E+03  5.113753E+04 -4.170309E+04  3.928496E+04  3.595204E+04
        97   7  1.493956E+06  5.200317E+05  5.584756E+05 -7.405006E+04  1.430535E+05  1.395818E+04
        97   8  1.385436E+06  3.291788E+05  4.266039E+05 -1.122161E+04  8.741506E+04  3.958441E+04
        97   9  1.336024E+06  3.285013E+05  3.792269E+05 -2.072744E+04  3.195242E+04  3.591919E+04
        97  10 -1.522572E+06 -2.316245E+05 -1.884715E+05 -1.118001E+04  1.642032E-09  1.595646E-09
        97  11 -1.471370E+06 -3.807080E+05 -2.667820E+05 -7.327312E+02 -1.999330E-09 -2.640783E-09
        97  12 -1.365010E+06 -3.433405E+05 -2.770899E+05 -6.263596E+04  1.385332E-09  7.296221E-10
        97  13 -1.535366E+04  1.442836E+05  1.850670E+05 -4.257610E+04 -2.104935E-09  2.101905E-10
        97  14 -4.390297E+04 -2.569161E+04  7.997596E+04 -5.971354E+03 -3.410374E-10 -7.391403E-09
        97  15 -1.532647E+04 -7.354050E+03  5.113220E+04 -4.170423E+04 -2.032368E-09  8.734420E-10
        97  16  1.493934E+06  5.200260E+05  5.584369E+05 -7.405166E+04  1.406627E-09 -1.233674E-09
        97  17  1.385427E+06  3.291751E+05  4.265867E+05 -1.122439E+04  1.173899E-10 -2.018026E-09
        97  18  1.336022E+06  3.284997E+05  3.792225E+05 -2.072836E+04 -2.086303E-09 -1.136142E-09
        97  19 -1.522559E+06 -2.316211E+05 -1.884485E+05 -1.117880E+04 -1.094945E+05 -1.377544E+04
        97  20 -1.471363E+06 -3.807046E+05 -2.667676E+05 -7.302453E+02 -7.796655E+04 -3.955173E+04
        97  21 -1.365007E+06 -3.433385E+05 -2.770834E+05 -6.263461E+04 -4.660154E+04 -3.598444E+04
        97  22 -1.533650E+04  1.442881E+05  1.850973E+05 -4.257469E+04 -1.262538E+05 -1.386771E+04
        97  23 -4.389521E+04 -2.568810E+04  7.999176E+04 -5.968719E+03 -8.268547E+04 -3.956812E+04
        97  24 -1.532447E+04 -7.352247E+03  5.113753E+04 -4.170309E+04 -3.928496E+04 -3.595204E+04
        97  25  1.493956E+06  5.200317E+05  5.584756E+05 -7.405006E+04 -1.430535E+05 -1.395818E+04
        97  26  1.385436E+06  3.291788E+05  4.266039E+05 -1.122161E+04 -8.741506E+04 -3.958441E+04
        97  27  1.336024E+06  3.285013E+05  3.792269E+05 -2.072744E+04 -3.195242E+04 -3.591919E+04
        98   1 -1.238816E+06 -2.851625E+05 -2.537103E+05 -4.091210E+04  3.066665E+04  2.986173E+04
        98   2 -1.165118E+06 -2.856335E+05 -2.552939E+05 -6.978736E+03  2.109626E+04  2.959315E+04
        98   3 -1.081932E+06 -2.638596E+05 -2.445246E+05 -4.534108E+04  1.152596E+04  2.657466E+04
        98   4 -2.576465E+04  1.672665E+04  4.186958E+04 -4.199396E+04  3.117168E+04  2.985945E+04
        98   5 -3.059018E+04 -3.365764E+03  2.069336E+04 -5.822334E+03  2.046249E+04  2.958799E+04
        98   6 -2.574617E+04 -1.036094E+03  1.264511E+04 -4.193792E+04  9.754625E+03  2.656880E+04
        98   7  1.188631E+06  3.185073E+05  3.373426E+05 -4.307902E+04  3.167765E+04  2.985717E+04
        98   8  1.105114E+06  2.788072E+05  2.965874E+05 -4.664550E+03  1.982754E+04  2.958284E+04
        98   9  1.031458E+06  2.617052E+05  2.697339E+05 -3.852935E+04  7.980264E+03  2.656293E+04
        98  10 -1.238818E+06 -2.851637E+05 -2.537137E+05 -4.091284E+04  5.402532E-10 -1.666607E-09
        98  11 -1.165119E+06 -2.856346E+05 -2.552964E+05 -6.979239E+03  2.350367E-09  3.896168E-10
        98  12 -1.081932E+06 -2.638604E+05 -2.445262E+05 -4.534133E+04  2.681160E-09 -2.297554E-09
        98  13 -2.576593E+04  1.672543E+04  4.186608E+04 -4.199471E+04  2.142683E-09 -4.484165E-10
        98  14 -3.059087E+04 -3.366816E+03  2.069092E+04 -5.822821E+03  3.550117E-10 -1.722942E-09
        98  15 -2.574646E+04 -1.036877E+03  1.264360E+04 -4.193813E+04 -1.275219E-09 -2.461478E-09
        98  16  1.188630E+06  3.185061E+05  3.373390E+05 -4.307978E+04 -4.922766E-10  1.428325E-09
        98  17  1.105113E+06  2.788062E+05  2.965850E+05 -4.665022E+03  5.958310E-10 -5.045017E-09
        98  18  1.031458E+06  2.617044E+05  2.697324E+05 -3.852952E+04 -5.938229E-10 -7.391070E-10
        98  19 -1.238816E+06 -2.851625E+05 -2.537103E+05 -4.091210E+04 -3.066665E+04 -2.986173E+04
        98  20 -1.165118E+06 -2.856335E+05 -2.552939E+05 -6.978736E+03 -2.109626E+04 -2.959315E+04
        98  21 -1.081932E+06 -2.638596E+05 -2.445246E+05 -4.534108E+04 -1.152596E+04 -2.657466E+04
        98  22 -2.576465E+04  1.672665E+04  4.186958E+04 -4.199396E+04 -3.117168E+04 -2.985945E+04
        98  23 -3.059018E+04 -3.365764E+03  2.069336E+04 -5.822334E+03 -2.046249E+04 -2.958799E+04
        98  24 -2.574617E+04 -1.036094E+03  1.264511E+04 -4.193792E+04 -9.754625E+03 -2.656880E+04
        98  25  1.188631E+06  3.185073E+05  3.373426E+05 -4.307902E+04 -3.167765E+04 -2.985717E+04
        98  26  1.105114E+06  2.788072E+05  2.965874E+05 -4.664550E+03 -1.982754E+04 -2.958284E+04
        98  27  1.031458E+06  2.617052E+05  2.697339E+05 -3.852935E+04 -7.980264E+03 -2.656293E+04
        99   1 -9.462776E+05 -2.268757E+05 -2.134874E+05 -4.250254E+04  8.774649E+03  2.444435E+04
        99   2 -8.688736E+05 -2.095925E+05 -1.992480E+05 -6.133193E+03  6.253816E+03  2.174569E+04
        99   3 -7.891442E+05 -1.896848E+05 -1.824320E+05 -4.223565E+04  3.726770E+03  1.878787E+04
        99   4 -2.729464E+04  1.706706E+03  9.901879E+03 -4.199568E+04  7.736613E+03  2.444070E+04
        99   5 -2.845586E+04 -5.293706E+02  5.194234E+03 -5.761725E+03  5.106600E+03  2.174303E+04
        99   6 -2.728037E+04 -1.233947E+02  3.136656E+03 -4.199351E+04  2.470690E+03  1.878638E+04
        99   7  8.924599E+05  2.302270E+05  2.332301E+05 -4.148829E+04  6.697037E+03  2.443705E+04
        99   8  8.126070E+05  2.084817E+05  2.095853E+05 -5.389854E+03  3.957830E+03  2.174037E+04
        99   9  7.351135E+05  1.893952E+05  1.886632E+05 -4.175104E+04  1.213070E+03  1.878489E+04
        99  10 -9.462778E+05 -2.268764E+05 -2.134887E+05 -4.250271E+04 -1.180779E-09  2.989645E-11
        99  11 -8.688738E+05 -2.095930E+05 -1.992490E+05 -6.133302E+03 -5.682125E-10  4.426030E-10
        99  12 -7.891443E+05 -1.896851E+05 -1.824327E+05 -4.223571E+04  2.401337E-10  9.047759E-10
        99  13 -2.729487E+04  1.706049E+03  9.900644E+03 -4.199584E+04 -2.152534E-09 -5.255746E-10
        99  14 -2.845601E+04 -5.298852E+02  5.193297E+03 -5.761814E+03 -3.139738E-09 -1.067038E-10
        99  15 -2.728047E+04 -1.237753E+02  3.135981E+03 -4.199354E+04  2.694680E-09  3.314447E-10
        99  16  8.924597E+05  2.302263E+05  2.332288E+05 -4.148842E+04 -1.651307E-09 -4.580519E-10
        99  17  8.126069E+05  2.084812E+05  2.095844E+05 -5.389923E+03  7.300872E-10 -1.218570E-09
        99  18  7.351134E+05  1.893948E+05  1.886625E+05 -4.175106E+04 -2.686276E-09 -7.156872E-10
        99  19 -9.462776E+05 -2.268757E+05 -2.134874E+05 -4.250254E+04 -8.774649E+03 -2.444435E+04
        99  20 -8.688736E+05 -2.095925E+05 -1.992480E+05 -6.133193E+03 -6.253816E+03 -2.174569E+04
        99  21 -7.891442E+05 -1.896848E+05 -1.824320E+05 -4.223565E+04 -3.726770E+03 -1.878787E+04
        99  22 -2.729464E+04  1.706706E+03  9.901879E+03 -4.199568E+04 -7.736613E+03 -2.444070E+04
        99  23 -2.845586E+04 -5.293706E+02  5.194234E+03 -5.761725E+03 -5.106600E+03 -2.174303E+04
        99  24 -2.728037E+04 -1.233947E+02  3.136656E+03 -4.199351E+04 -2.470690E+03 -1.878638E+04
        99  25  8.924599E+05  2.302270E+05  2.332301E+05 -4.148829E+04 -6.697037E+03 -2.443705E+04
        99  26  8.126070E+05  2.084817E+05  2.095853E+05 -5.389854E+03 -3.957830E+03 -2.174037E+04
        99  27  7.351135E+05  1.893952E+05  1.886632E+05 -4.175104E+04 -1.213070E+03 -1.878489E+04
       100   1 -6.519839E+05 -1.551287E+05 -1.492665E+05 -4.188270E+04  3.155784E+03  1.703058E+04
       100   2 -5.735708E+05 -1.358144E+05 -1.314878E+05 -5.482811E+03  2.545549E+03  1.410152E+04
       100   3 -4.945819E+05 -1.161112E+05 -1.131331E+05 -4.164749E+04  1.931195E+03  1.114800E+04
       100   4 -2.761562E+04  1.223416E+02  2.365143E+03 -4.201515E+04  1.967866E+03  1.702983E+04
       100   5 -2.789692E+04 -9.576616E+01  1.233699E+03 -5.734825E+03  1.347020E+03  1.410152E+04
       100   6 -2.760628E+04  7.738759E+01  6.855713E+02 -4.201512E+04  7.221307E+02  1.114880E+04
       100   7  5.971088E+05  1.553447E+05  1.539686E+05 -4.214770E+04  7.787551E+02  1.702907E+04
       100   8  5.180488E+05  1.356010E+05  1.339336E+05 -5.987014E+03  1.474381E+02  1.410153E+04
       100   9  4.395683E+05  1.162498E+05  1.144884E+05 -4.238297E+04 -4.878413E+02  1.114959E+04
       100  10 -6.519840E+05 -1.551290E+05 -1.492670E+05 -4.188274E+04  1.018734E-09  8.918270E-10
       100  11 -5.735708E+05 -1.358146E+05 -1.314881E+05 -5.482840E+03  4.287350E-10 -2.933959E-10
       100  12 -4.945819E+05 -1.161113E+05 -1.131334E+05 -4.164751E+04  2.021170E-09  6.127283E-10
       100  13 -2.761570E+04  1.220292E+02  2.364590E+03 -4.201518E+04 -2.140913E-09  7.615837E-10
       100  14 -2.789697E+04 -9.598018E+01  1.233322E+03 -5.734840E+03  3.142317E-09 -7.447346E-10
       100  15 -2.760632E+04  7.725398E+01  6.853368E+02 -4.201513E+04  1.038542E-09  3.732485E-13
       100  16  5.971088E+05  1.553444E+05  1.539680E+05 -4.214771E+04 -3.048343E-09 -8.188305E-10
       100  17  5.180488E+05  1.356007E+05  1.339332E+05 -5.987015E+03 -2.117789E-09 -8.926804E-10
       100  18  4.395683E+05  1.162497E+05  1.144882E+05 -4.238296E+04 -1.084768E-09  3.361627E-10
       100  19 -6.519839E+05 -1.551287E+05 -1.492665E+05 -4.188270E+04 -3.155784E+03 -1.703058E+04
       100  20 -5.735708E+05 -1.358144E+05 -1.314878E+05 -5.482811E+03 -2.545549E+03 -1.410152E+04
       100  21 -4.945819E+05 -1.161112E+05 -1.131331E+05 -4.164749E+04 -1.931195E+03 -1.114800E+04
       100  22 -2.761562E+04  1.223416E+02  2.365143E+03 -4.201515E+04 -1.967866E+03 -1.702983E+04
       100  23 -2.789692E+04 -9.576616E+01  1.233699E+03 -5.734825E+03 -1.347020E+03 -1.410152E+04
       100  24 -2.760628E+04  7.738759E+01  6.855713E+02 -4.201512E+04 -7.221307E+02 -1.114880E+04
       100  25  5.971088E+05  1.553447E+05  1.539686E+05 -4.214770E+04 -7.787551E+02 -1.702907E+04
       100  26  5.180488E+05  1.356010E+05  1.339336E+05 -5.987014E+03 -1.474381E+02 -1.410153E+04
       100  27  4.395683E+05  1.162498E+05  1.144884E+05 -4.238297E+04  4.878413E+02 -1.114959E+04
       101   1 -3.570215E+05 -8.177131E+04 -7.940252E+04 -4.173640E+04  1.821235E+03  9.422728E+03
       101   2 -2.781848E+05 -6.228441E+04 -6.085059E+04 -5.462715E+03  1.779683E+03  6.469572E+03
       101   3 -1.994512E+05 -4.265952E+04 -4.226939E+04 -4.180637E+04  1.736287E+03  3.525379E+03
       101   4 -2.772470E+04  7.151730E+01  4.371274E+02 -4.202732E+04  6.151761E+02  9.423948E+03
       101   5 -2.766846E+04  1.268952E+01  7.082663E+01 -5.719561E+03  5.771838E+02  6.471131E+03
       101   6 -2.772041E+04  9.197428E+01 -2.680285E+02 -4.202731E+04  5.373519E+02  3.527298E+03
       101   7  3.016712E+05  8.190639E+04  8.026896E+04 -4.231837E+04 -5.915207E+02  9.425168E+03
       101   8  2.229052E+05  6.230517E+04  6.098770E+04 -5.976490E+03 -6.257998E+02  6.472692E+03
       101   9  1.440372E+05  4.284129E+04  4.173118E+04 -4.224830E+04 -6.619146E+02  3.529218E+03
       101  10 -3.570215E+05 -8.177141E+04 -7.940269E+04 -4.173641E+04 -2.692935E-09 -1.728840E-10
       101  11 -2.781848E+05 -6.228445E+04 -6.085067E+04 -5.462724E+03 -2.229262E-09 -8.322791E-10
       101  12 -1.994512E+05 -4.265953E+04 -4.226942E+04 -4.180638E+04 -3.004078E-09 -4.873055E-10
       101  13 -2.772473E+04  7.142183E+01  4.369598E+02 -4.202733E+04  9.720790E-12  2.197872E-09
       101  14 -2.766847E+04  1.264447E+01  7.074731E+01 -5.719564E+03 -1.251489E-09  5.932381E-10
       101  15 -2.772042E+04  9.196084E+01 -2.680524E+02 -4.202731E+04  4.700919E-10 -2.257584E-09
       101  16  3.016712E+05  8.190629E+04  8.026879E+04 -4.231836E+04 -2.592578E-09  8.742483E-10
       101  17  2.229052E+05  6.230512E+04  6.098762E+04 -5.976487E+03  4.331377E-10  5.764177E-10
       101  18  1.440372E+05  4.284127E+04  4.173116E+04 -4.224830E+04  3.908605E-10 -1.180742E-10
       101  19 -3.570215E+05 -8.177131E+04 -7.940252E+04 -4.173640E+04 -1.821235E+03 -9.422728E+03
       101  20 -2.781848E+05 -6.228441E+04 -6.085059E+04 -5.462715E+03 -1.779683E+03 -6.469572E+03
       101  21 -1.994512E+05 -4.265952E+04 -4.226939E+04 -4.180637E+04 -1.736287E+03 -3.525379E+03
       101  22 -2.772470E+04  7.151730E+01  4.371274E+02 -4.202732E+04 -6.151761E+02 -9.423948E+03
       101  23 -2.766846E+04  1.268952E+01  7.082663E+01 -5.719561E+03 -5.771838E+02 -6.471131E+03
       101  24 -2.772041E+04  9.197428E+01 -2.680285E+02 -4.202731E+04 -5.373519E+02 -3.527298E+03
       101  25  3.016712E+05  8.190639E+04  8.026896E+04 -4.231837E+04  5.915207E+02 -9.425168E+03
       101  26  2.229052E+05  6.230517E+04  6.098770E+04 -5.976490E+03  6.257998E+02 -6.472692E+03
       101  27  1.440372E+05  4.284129E+04  4.173118E+04 -4.224830E+04  6.619146E+02 -3.529218E+03
       102   1 -6.172682E+04 -8.244025E+03 -8.472192E+03 -4.205146E+04  1.831209E+03  1.785370E+03
       102   2  1.730258E+04  1.125271E+04  9.957382E+03 -5.757507E+03  2.254760E+03 -1.172765E+03
       102   3  9.591389E+04  3.042014E+04  2.796731E+04 -4.209465E+04  2.678902E+03 -4.002379E+03
       102   4 -2.778438E+04  1.468291E+02 -4.612477E+02 -4.203060E+04  5.983981E+02  1.787456E+03
       102   5 -2.756771E+04  9.714913E+01 -9.497164E+02 -5.715243E+03  1.074266E+03 -1.170841E+03
       102   6 -2.778517E+04 -2.908225E+02 -1.894152E+03 -4.203131E+04  1.550671E+03 -4.000592E+03
       102   7  6.159120E+03  8.537602E+03  7.549623E+03 -4.200974E+04 -6.344793E+02  1.789542E+03
       102   8 -7.243616E+04 -1.105856E+04 -1.185696E+04 -5.672982E+03 -1.061433E+02 -1.168916E+03
       102   9 -1.514702E+05 -3.100291E+04 -3.175670E+04 -4.196798E+04  4.226637E+02 -3.998805E+03
       102  10 -6.172683E+04 -8.244029E+03 -8.472204E+03 -4.205146E+04 -1.904349E-09  1.362126E-09
       102  11  1.730257E+04  1.125271E+04  9.957370E+03 -5.757505E+03 -5.155590E-09 -9.144757E-10
       102  12  9.591388E+04  3.042013E+04  2.796726E+04 -4.209464E+04 -1.484488E-09  3.981443E-10
       102  13 -2.778438E+04  1.468256E+02 -4.612544E+02 -4.203060E+04 -1.244808E-11 -1.371072E-09
       102  14 -2.756771E+04  9.714734E+01 -9.497211E+02 -5.715242E+03  1.924348E-09 -2.771303E-09
       102  15 -2.778517E+04 -2.908403E+02 -1.894186E+03 -4.203131E+04 -3.008505E-09  1.323647E-09
       102  16  6.159119E+03  8.537598E+03  7.549616E+03 -4.200974E+04 -2.502741E-09  1.193940E-09
       102  17 -7.243616E+04 -1.105856E+04 -1.185696E+04 -5.672982E+03 -1.011357E-09 -3.070767E-09
       102  18 -1.514702E+05 -3.100292E+04 -3.175673E+04 -4.196798E+04  3.659019E-09  6.162185E-10
       102  19 -6.172682E+04 -8.244025E+03 -8.472192E+03 -4.205146E+04 -1.831209E+03 -1.785370E+03
       102  20  1.730258E+04  1.125271E+04  9.957382E+03 -5.757507E+03 -2.254760E+03  1.172765E+03
       102  21  9.591389E+04  3.042014E+04  2.796731E+04 -4.209465E+04 -2.678902E+03  4.002379E+03
       102  22 -2.778438E+04  1.468291E+02 -4.612477E+02 -4.203060E+04 -5.983981E+02 -1.787456E+03
       102  23 -2.756771E+04  9.714913E+01 -9.497164E+02 -5.715243E+03 -1.074266E+03  1.170841E+03
       102  24 -2.778517E+04 -2.908225E+02 -1.894152E+03 -4.203131E+04 -1.550671E+03  4.000592E+03
       102  25  6.159120E+03  8.537602E+03  7.549623E+03 -4.200974E+04  6.344793E+02 -1.789542E+03
       102  26 -7.243616E+04 -1.105856E+04 -1.185696E+04 -5.672982E+03  1.061433E+02  1.168916E+03
       102  27 -1.514702E+05 -3.100291E+04 -3.175670E+04 -4.196798E+04 -4.226637E+02  3.998805E+03
       103   1  2.335052E+05  6.534772E+04  6.138286E+04 -4.274964E+04  3.423271E+03 -5.925747E+03
       103   2  3.129603E+05  8.517613E+04  7.860749E+04 -5.840223E+03  4.967076E+03 -8.901510E+03
       103   3  3.911508E+05  1.008283E+05  9.377540E+04 -4.150772E+04  6.514906E+03 -1.050436E+04
       103   4 -2.800861E+04  2.898790E+02 -2.415181E+03 -4.201793E+04  1.928862E+03 -5.923593E+03
       103   5 -2.732734E+04  5.918704E+02 -4.086846E+03 -5.730195E+03  4.031947E+03 -8.900644E+03
       103   6 -2.801450E+04 -3.380469E+03 -8.204261E+03 -4.202194E+04  6.138863E+03 -1.050443E+04
       103   7 -2.894600E+05 -6.477301E+04 -6.621819E+04 -4.128650E+04  4.350812E+02 -5.921442E+03
       103   8 -3.675093E+05 -8.400090E+04 -8.678956E+04 -5.620193E+03  3.097328E+03 -8.899778E+03
       103   9 -4.470195E+05 -1.076022E+05 -1.101967E+05 -4.253576E+04  5.763071E+03 -1.050451E+04
       103  10  2.335051E+05  6.534768E+04  6.138277E+04 -4.274962E+04 -4.875613E-09 -1.391259E-09
       103  11  3.129602E+05  8.517604E+04  7.860730E+04 -5.840187E+03 -4.723124E-09  7.240589E-10
       103  12  3.911507E+05  1.008282E+05  9.377512E+04 -4.150767E+04  7.142760E-10 -2.064594E-10
       103  13 -2.800862E+04  2.898404E+02 -2.415254E+03 -4.201792E+04 -2.150598E-09  1.205950E-09
       103  14 -2.732738E+04  5.917809E+02 -4.087025E+03 -5.730166E+03 -1.244005E-09 -5.975870E-11
       103  15 -2.801457E+04 -3.380598E+03 -8.204539E+03 -4.202189E+04 -5.676715E-10 -3.314347E-11
       103  16 -2.894600E+05 -6.477304E+04 -6.621825E+04 -4.128649E+04  3.739565E-09  2.107842E-09
       103  17 -3.675093E+05 -8.400099E+04 -8.678973E+04 -5.620171E+03  1.426635E-10  4.434479E-10
       103  18 -4.470196E+05 -1.076023E+05 -1.101969E+05 -4.253571E+04 -2.039943E-10 -7.265522E-10
       103  19  2.335052E+05  6.534772E+04  6.138286E+04 -4.274964E+04 -3.423271E+03  5.925747E+03
       103  20  3.129603E+05  8.517613E+04  7.860749E+04 -5.840223E+03 -4.967076E+03  8.901510E+03
       103  21  3.911508E+05  1.008283E+05  9.377540E+04 -4.150772E+04 -6.514906E+03  1.050436E+04
       103  22 -2.800861E+04  2.898790E+02 -2.415181E+03 -4.201793E+04 -1.928862E+03  5.923593E+03
       103  23 -2.732734E+04  5.918704E+02 -4.086846E+03 -5.730195E+03 -4.031947E+03  8.900644E+03
       103  24 -2.801450E+04 -3.380469E+03 -8.204261E+03 -4.202194E+04 -6.138863E+03  1.050443E+04
       103  25 -2.894600E+05 -6.477301E+04 -6.621819E+04 -4.128650E+04 -4.350812E+02  5.921442E+03
       103  26 -3.675093E+05 -8.400090E+04 -8.678956E+04 -5.620193E+03 -3.097328E+03  8.899778E+03
       103  27 -4.470195E+05 -1.076022E+05 -1.101967E+05 -4.253576E+04 -5.763071E+03  1.050451E+04
       104   1  5.270685E+05  1.398388E+05  1.254060E+05 -4.563530E+04  1.199183E+04 -1.438222E+04
       104   2  6.102726E+05  1.626727E+05  1.382941E+05 -3.895743E+03  1.459539E+04 -1.753955E+04
       104   3  6.848660E+05  1.498346E+05  1.407011E+05 -3.436652E+04  1.720127E+04 -6.076954E+03
       104   4 -2.989726E+04  1.395921E+03 -9.977700E+03 -4.193709E+04  7.713769E+03 -1.437944E+04
       104   5 -2.507225E+04  4.826524E+03 -1.582862E+04 -5.829340E+03  1.627974E+04 -1.754132E+04
       104   6 -2.990836E+04 -2.846934E+04 -3.630932E+04 -4.193705E+04  2.484755E+04 -6.076763E+03
       104   7 -5.865800E+05 -1.370697E+05 -1.453838E+05 -3.824215E+04  3.439525E+03 -1.437670E+04
       104   8 -6.600487E+05 -1.530493E+05 -1.699805E+05 -7.760921E+03  1.796238E+04 -1.754311E+04
       104   9 -7.442188E+05 -2.068112E+05 -2.133575E+05 -4.949887E+04  3.248503E+04 -6.076759E+03
       104  10  5.270683E+05  1.398385E+05  1.254054E+05 -4.563516E+04 -2.217205E-09 -3.798898E-10
       104  11  6.102723E+05  1.626723E+05  1.382931E+05 -3.895537E+03 -2.377475E-09  6.132989E-10
       104  12  6.848657E+05  1.498345E+05  1.407005E+05 -3.436644E+04  3.108940E-09  3.751909E-10
       104  13 -2.989738E+04  1.395683E+03 -9.978200E+03 -4.193700E+04 -6.447103E-09  1.167507E-09
       104  14 -2.507262E+04  4.826122E+03 -1.582969E+04 -5.829110E+03 -2.190239E-09  1.109010E-10
       104  15 -2.990904E+04 -2.846954E+04 -3.631055E+04 -4.193693E+04  2.433634E-09  6.386237E-11
       104  16 -5.865801E+05 -1.370699E+05 -1.453842E+05 -3.824211E+04 -3.569229E-09 -2.676323E-10
       104  17 -6.600491E+05 -1.530497E+05 -1.699816E+05 -7.760668E+03 -8.326238E-10 -1.198976E-10
       104  18 -7.442199E+05 -2.068116E+05 -2.133596E+05 -4.949871E+04 -2.998608E-10  2.164250E-11
       104  19  5.270685E+05  1.398388E+05  1.254060E+05 -4.563530E+04 -1.199183E+04  1.438222E+04
       104  20  6.102726E+05  1.626727E+05  1.382941E+05 -3.895743E+03 -1.459539E+04  1.753955E+04
       104  21  6.848660E+05  1.498346E+05  1.407011E+05 -3.436652E+04 -1.720127E+04  6.076954E+03
       104  22 -2.989726E+04  1.395921E+03 -9.977700E+03 -4.193709E+04 -7.713769E+03  1.437944E+04
       104  23 -2.507225E+04  4.826524E+03 -1.582862E+04 -5.829340E+03 -1.627974E+04  1.754132E+04
       104  24 -2.990836E+04 -2.846934E+04 -3.630932E+04 -4.193705E+04 -2.484755E+04  6.076763E+03
       104  25 -5.865800E+05 -1.370697E+05 -1.453838E+05 -3.824215E+04 -3.439525E+03  1.437670E+04
       104  26 -6.600487E+05 -1.530493E+05 -1.699805E+05 -7.760921E+03 -1.796238E+04  1.754311E+04
       104  27 -7.442188E+05 -2.068112E+05 -2.133575E+05 -4.949887E+04 -3.248503E+04  6.076759E+03
       105   1  1.301811E+06  4.342937E+06  1.249563E+06 -1.198297E+06  5.370383E+04  3.007493E+05
       105   2  9.175279E+05  3.085804E+06  8.026904E+05 -1.020484E+06  1.660183E+05  8.528043E+04
       105   3  6.126920E+05  1.874308E+06  5.149259E+05 -1.145121E+06  1.501467E+05 -1.306032E+05
       105   4  7.480022E+04 -6.167500E+05  6.763106E+04 -1.130397E+06  5.601940E+04  3.542506E+04
       105   5  2.456796E+04 -6.206387E+05  4.160132E+04 -9.793914E+05  1.667419E+05  1.511546E+04
       105   6  2.035279E+04 -6.138408E+05  3.986634E+04 -1.130892E+06  1.489455E+05 -6.049440E+03
       105   7 -1.153937E+06 -5.553807E+06 -1.115765E+06 -1.062973E+06  5.828812E+04 -2.278011E+05
       105   8 -8.692500E+05 -4.314063E+06 -7.202039E+05 -9.385097E+05  1.674589E+05 -5.463975E+04
       105   9 -5.723423E+05 -3.096000E+06 -4.354158E+05 -1.116702E+06  1.477470E+05  1.180180E+05
       105  10  1.301784E+06  4.342839E+06  1.249389E+06 -1.198310E+06  1.698048E-09  4.694627E-08
       105  11  9.174963E+05  3.085789E+06  8.026249E+05 -1.020495E+06  2.191072E-09  1.996086E-08
       105  12  6.126633E+05  1.874284E+06  5.148517E+05 -1.145106E+06  6.878791E-09 -1.016484E-08
       105  13  7.479651E+04 -6.167522E+05  6.762279E+04 -1.130399E+06  5.963651E-10  3.676256E-09
       105  14  2.453805E+04 -6.206464E+05  4.154864E+04 -9.793934E+05 -8.295140E-09 -4.453739E-09
       105  15  2.032896E+04 -6.138467E+05  3.982461E+04 -1.130891E+06 -1.656773E-08  1.786938E-09
       105  16 -1.153955E+06 -5.553864E+06 -1.115869E+06 -1.062963E+06  3.055421E-10 -5.014623E-08
       105  17 -8.692809E+05 -4.314074E+06 -7.202622E+05 -9.385023E+05  1.106044E-08 -2.098965E-08
       105  18 -5.723696E+05 -3.096021E+06 -4.354832E+05 -1.116716E+06  5.787954E-09  1.130963E-08
       105  19  1.301811E+06  4.342937E+06  1.249563E+06 -1.198297E+06 -5.370383E+04 -3.007493E+05
       105  20  9.175279E+05  3.085804E+06  8.026904E+05 -1.020484E+06 -1.660183E+05 -8.528043E+04
       105  21  6.126920E+05  1.874308E+06  5.149259E+05 -1.145121E+06 -1.501467E+05  1.306032E+05
       105  22  7.480022E+04 -6.167500E+05  6.763106E+04 -1.130397E+06 -5.601940E+04 -3.542506E+04
       105  23  2.456796E+04 -6.206387E+05  4.160132E+04 -9.793914E+05 -1.667419E+05 -1.511546E+04
       105  24  2.035279E+04 -6.138408E+05  3.986634E+04 -1.130892E+06 -1.489455E+05  6.049440E+03
       105  25 -1.153937E+06 -5.553807E+06 -1.115765E+06 -1.062973E+06 -5.828812E+04  2.278011E+05
       105  26 -8.692500E+05 -4.314063E+06 -7.202039E+05 -9.385097E+05 -1.674589E+05  5.463975E+04
       105  27 -5.723423E+05 -3.096000E+06 -4.354158E+05 -1.116702E+06 -1.477470E+05 -1.180180E+05
       106   1  4.172968E+05  1.042251E+06  3.601720E+05 -1.148784E+06  1.005171E+05 -1.188676E+05
       106   2  1.208039E+05 -1.920207E+05  1.393854E+05 -9.793682E+05  3.050194E+04 -1.525540E+05
       106   3 -1.551571E+05 -1.421565E+06 -5.606498E+04 -1.120119E+06 -4.104993E+04 -1.862173E+05
       106   4  2.244303E+04 -6.149142E+05  4.369348E+04 -1.132537E+06  9.945411E+04 -1.356515E+04
       106   5  2.041454E+04 -6.161486E+05  6.175900E+04 -9.773794E+05  2.940052E+04 -4.500797E+04
       106   6  3.859405E+04 -6.145572E+05  1.035810E+05 -1.132376E+06 -4.219279E+04 -7.649029E+04
       106   7 -3.725661E+05 -2.269411E+06 -2.728680E+05 -1.116327E+06  9.839487E+04  9.146321E+04
       106   8 -7.997875E+04 -1.040077E+06 -1.583123E+04 -9.753916E+05  2.829932E+04  6.246660E+04
       106   9  2.323124E+05  1.931006E+05  2.632403E+05 -1.144648E+06 -4.333909E+04  3.337673E+04
       106  10  4.172822E+05  1.042233E+06  3.601266E+05 -1.148774E+06  9.045756E-09 -8.420424E-09
       106  11  1.207966E+05 -1.920460E+05  1.393399E+05 -9.793645E+05  7.462363E-09 -2.941650E-08
       106  12 -1.551683E+05 -1.421602E+06 -5.613352E+04 -1.120125E+06  4.472897E-09 -3.786278E-08
       106  13  2.243237E+04 -6.149170E+05  4.367456E+04 -1.132536E+06 -2.188969E-08  4.537839E-09
       106  14  2.041307E+04 -6.161510E+05  6.175358E+04 -9.773783E+05 -2.405648E-08 -4.768686E-09
       106  15  3.859056E+04 -6.145640E+05  1.035666E+05 -1.132379E+06 -6.663129E-09  2.126638E-09
       106  16 -3.725788E+05 -2.269423E+06 -2.729020E+05 -1.116334E+06  8.061319E-09  3.821313E-09
       106  17 -7.998066E+04 -1.040081E+06 -1.584009E+04 -9.753930E+05  3.725607E-09  2.567556E-08
       106  18  2.323101E+05  1.930989E+05  2.632347E+05 -1.144647E+06  5.937242E-09  3.874221E-08
       106  19  4.172968E+05  1.042251E+06  3.601720E+05 -1.148784E+06 -1.005171E+05  1.188676E+05
       106  20  1.208039E+05 -1.920207E+05  1.393854E+05 -9.793682E+05 -3.050194E+04  1.525540E+05
       106  21 -1.551571E+05 -1.421565E+06 -5.606498E+04 -1.120119E+06  4.104993E+04  1.862173E+05
       106  22  2.244303E+04 -6.149142E+05  4.369348E+04 -1.132537E+06 -9.945411E+04  1.356515E+04
       106  23  2.041454E+04 -6.161486E+05  6.175900E+04 -9.773794E+05 -2.940052E+04  4.500797E+04
       106  24  3.859405E+04 -6.145572E+05  1.035810E+05 -1.132376E+06  4.219279E+04  7.649029E+04
       106  25 -3.725661E+05 -2.269411E+06 -2.728680E+05 -1.116327E+06 -9.839487E+04 -9.146321E+04
       106  26 -7.997875E+04 -1.040077E+06 -1.583123E+04 -9.753916E+05 -2.829932E+04 -6.246660E+04
       106  27  2.323124E+05  1.931006E+05  2.632403E+05 -1.144648E+06  4.333909E+04 -3.337673E+04
       107   1 -3.658907E+05 -2.232173E+06 -1.848563E+05 -1.154408E+06 -9.068709E+04 -2.199333E+05
       107   2 -5.991938E+05 -3.487740E+06 -3.588430E+05 -8.457804E+05 -1.204046E+05 -1.786685E+05
       107   3 -5.712888E+05 -4.686184E+06 -4.955782E+05 -8.402695E+05 -4.205147E+04 -1.366777E+05
       107   4  2.453099E+04 -5.970414E+05  1.328703E+05 -1.131345E+06 -9.197228E+04 -9.476139E+04
       107   5  9.328772E+04 -6.398284E+05  2.351295E+05 -9.780302E+05 -1.199639E+05 -2.166341E+05
       107   6  4.509048E+05 -5.991349E+05  4.877888E+05 -1.127460E+06 -4.013206E+04 -3.377189E+05
       107   7  4.148041E+05  1.040702E+06  4.505303E+05 -1.108212E+06 -9.324609E+04  3.073400E+04
       107   8  7.853079E+05  2.215825E+06  8.286671E+05 -1.110876E+06 -1.195082E+05 -2.547700E+05
       107   9  1.472184E+06  3.503531E+06  1.470154E+06 -1.416514E+06 -3.803329E+04 -5.400805E+05
       107  10 -3.659126E+05 -2.232228E+06 -1.849631E+05 -1.154424E+06  7.307190E-09  4.430656E-08
       107  11 -5.992181E+05 -3.487779E+06 -3.589307E+05 -8.457977E+05  1.297318E-08  2.853347E-10
       107  12 -5.712957E+05 -4.686205E+06 -4.956169E+05 -8.402742E+05  3.453945E-09 -4.033904E-08
       107  13  2.451947E+04 -5.970533E+05  1.328374E+05 -1.131352E+06  7.546842E-10  4.381612E-09
       107  14  9.325960E+04 -6.398827E+05  2.350140E+05 -9.780511E+05 -6.981025E-09 -4.620923E-09
       107  15  4.508724E+05 -5.992578E+05  4.875711E+05 -1.127471E+06  3.042073E-09  1.586752E-09
       107  16  4.147945E+05  1.040698E+06  4.505123E+05 -1.108209E+06  4.430740E-09 -4.784838E-08
       107  17  7.852752E+05  2.215752E+06  8.285185E+05 -1.110901E+06  1.035299E-08 -3.053703E-09
       107  18  1.472105E+06  3.503219E+06  1.469606E+06 -1.416531E+06  3.929322E-09  4.070733E-08
       107  19 -3.658907E+05 -2.232173E+06 -1.848563E+05 -1.154408E+06  9.068709E+04  2.199333E+05
       107  20 -5.991938E+05 -3.487740E+06 -3.588430E+05 -8.457804E+05  1.204046E+05  1.786685E+05
       107  21 -5.712888E+05 -4.686184E+06 -4.955782E+05 -8.402695E+05  4.205147E+04  1.366777E+05
       107  22  2.453099E+04 -5.970414E+05  1.328703E+05 -1.131345E+06  9.197228E+04  9.476139E+04
       107  23  9.328772E+04 -6.398284E+05  2.351295E+05 -9.780302E+05  1.199639E+05  2.166341E+05
       107  24  4.509048E+05 -5.991349E+05  4.877888E+05 -1.127460E+06  4.013206E+04  3.377189E+05
       107  25  4.148041E+05  1.040702E+06  4.505303E+05 -1.108212E+06  9.324609E+04 -3.073400E+04
       107  26  7.853079E+05  2.215825E+06  8.286671E+05 -1.110876E+06  1.195082E+05  2.547700E+05
       107  27  1.472184E+06  3.503531E+06  1.470154E+06 -1.416514E+06  3.803329E+04  5.400805E+05
       108   1 -4.537476E+06 -1.778381E+06 -1.031117E+06 -1.538872E+06 -2.533512E+05 -1.841567E+04
       108   2 -4.239794E+06 -1.706670E+06 -8.441820E+05 -1.429346E+06 -1.723941E+05  1.923760E+05
       108   3 -3.887068E+06 -1.651554E+06 -7.506666E+05 -1.398874E+06 -4.514263E+04  2.824363E+05
       108   4 -7.129862E+04 -1.424943E+05  1.233138E+05 -3.627351E+05  5.296112E+04  9.841373E+04
       108   5 -1.222704E+05 -1.993084E+05  5.574850E+04 -3.046924E+05 -3.584796E+04  2.441638E+05
       108   6 -8.450294E+04 -2.390704E+05  3.008996E+04 -3.256831E+05 -7.860648E+04  2.695738E+05
       108   7  4.414421E+06  1.494415E+06  1.276470E+06  8.209805E+05  3.617028E+05  2.160964E+05
       108   8  4.012517E+06  1.309330E+06  9.547343E+05  8.268049E+05  1.016829E+05  2.963135E+05
       108   9  3.733050E+06  1.174768E+06  8.101201E+05  7.536529E+05 -1.122938E+05  2.566259E+05
       108  10 -4.537546E+06 -1.778399E+06 -1.031239E+06 -1.538875E+06 -1.745079E-09  9.204378E-10
       108  11 -4.239836E+06 -1.706718E+06 -8.443075E+05 -1.429319E+06 -6.363048E-09  1.365142E-09
       108  12 -3.887092E+06 -1.651640E+06 -7.508203E+05 -1.398863E+06 -3.073777E-09 -1.129639E-10
       108  13 -7.130424E+04 -1.425055E+05  1.232903E+05 -3.627393E+05  1.881706E-09  2.620752E-09
       108  14 -1.222878E+05 -1.993727E+05  5.563405E+04 -3.046854E+05 -1.064099E-09 -6.065537E-09
       108  15 -8.452907E+04 -2.391501E+05  2.994179E+04 -3.256660E+05  1.528610E-09  8.655018E-10
       108  16  4.414269E+06  1.494331E+06  1.276139E+06  8.209179E+05 -2.209668E-09 -1.551433E-09
       108  17  4.012483E+06  1.309233E+06  9.545503E+05  8.267807E+05 -6.362950E-09 -8.247906E-09
       108  18  3.733018E+06  1.174694E+06  8.099727E+05  7.536761E+05 -8.695074E-09 -4.759848E-09
       108  19 -4.537476E+06 -1.778381E+06 -1.031117E+06 -1.538872E+06  2.533512E+05  1.841567E+04
       108  20 -4.239794E+06 -1.706670E+06 -8.441820E+05 -1.429346E+06  1.723941E+05 -1.923760E+05
       108  21 -3.887068E+06 -1.651554E+06 -7.506666E+05 -1.398874E+06  4.514263E+04 -2.824363E+05
       108  22 -7.129862E+04 -1.424943E+05  1.233138E+05 -3.627351E+05 -5.296112E+04 -9.841373E+04
       108  23 -1.222704E+05 -1.993084E+05  5.574850E+04 -3.046924E+05  3.584796E+04 -2.441638E+05
       108  24 -8.450294E+04 -2.390704E+05  3.008996E+04 -3.256831E+05  7.860648E+04 -2.695738E+05
       108  25  4.414421E+06  1.494415E+06  1.276470E+06  8.209805E+05 -3.617028E+05 -2.160964E+05
       108  26  4.012517E+06  1.309330E+06  9.547343E+05  8.268049E+05 -1.016829E+05 -2.963135E+05
       108  27  3.733050E+06  1.174768E+06  8.101201E+05  7.536529E+05  1.122938E+05 -2.566259E+05
       109   1 -3.685604E+06 -1.561267E+06 -7.132320E+05 -1.334146E+06 -6.688796E+04  2.584106E+05
       109   2 -3.411082E+06 -1.418455E+06 -6.509053E+05 -1.213905E+06 -5.699421E+04  2.492869E+05
       109   3 -3.074624E+06 -1.334338E+06 -5.918529E+05 -1.161868E+06 -4.407151E+04  2.319909E+05
       109   4 -8.688789E+04 -2.364083E+05  2.292160E+04 -3.303512E+05 -7.686296E+04  2.544780E+05
       109   5 -1.187412E+05 -2.092179E+05  1.186548E+04 -2.957116E+05 -7.848819E+04  2.410302E+05
       109   6 -8.648620E+04 -2.384233E+05  6.678044E+03 -3.292866E+05 -7.709621E+04  2.194327E+05
       109   7  3.525200E+06  1.089587E+06  7.584146E+05  6.788480E+05 -8.690137E+04  2.505222E+05
       109   8  3.184810E+06  1.000977E+06  6.741043E+05  6.270047E+05 -1.001058E+05  2.327272E+05
       109   9  2.910877E+06  8.582766E+05  6.047759E+05  5.070133E+05 -1.102926E+05  2.068100E+05
       109  10 -3.685627E+06 -1.561340E+06 -7.133659E+05 -1.334132E+06  1.179765E-09  2.029741E-09
       109  11 -3.411102E+06 -1.418523E+06 -6.510281E+05 -1.213894E+06  2.994453E-09  1.640970E-09
       109  12 -3.074640E+06 -1.334397E+06 -5.919577E+05 -1.161860E+06  5.446881E-09 -5.737182E-10
       109  13 -8.691161E+04 -2.364794E+05  2.278881E+04 -3.303354E+05  4.207815E-09 -4.161300E-09
       109  14 -1.187634E+05 -2.092820E+05  1.174474E+04 -2.956963E+05  3.280390E-09 -5.382804E-09
       109  15 -8.650550E+04 -2.384766E+05  6.576403E+03 -3.292730E+05  2.923883E-09 -2.587012E-09
       109  16  3.525175E+06  1.089518E+06  7.582824E+05  6.788655E+05 -3.516314E-09 -1.091895E-09
       109  17  3.184784E+06  1.000916E+06  6.739837E+05  6.270234E+05 -2.522790E-10 -2.946415E-09
       109  18  2.910852E+06  8.582274E+05  6.046727E+05  5.070317E+05  7.459299E-10 -1.811118E-09
       109  19 -3.685604E+06 -1.561267E+06 -7.132320E+05 -1.334146E+06  6.688796E+04 -2.584106E+05
       109  20 -3.411082E+06 -1.418455E+06 -6.509053E+05 -1.213905E+06  5.699421E+04 -2.492869E+05
       109  21 -3.074624E+06 -1.334338E+06 -5.918529E+05 -1.161868E+06  4.407151E+04 -2.319909E+05
       109  22 -8.688789E+04 -2.364083E+05  2.292160E+04 -3.303512E+05  7.686296E+04 -2.544780E+05
       109  23 -1.187412E+05 -2.092179E+05  1.186548E+04 -2.957116E+05  7.848819E+04 -2.410302E+05
       109  24 -8.648620E+04 -2.384233E+05  6.678044E+03 -3.292866E+05  7.709621E+04 -2.194327E+05
       109  25  3.525200E+06  1.089587E+06  7.584146E+05  6.788480E+05  8.690137E+04 -2.505222E+05
       109  26  3.184810E+06  1.000977E+06  6.741043E+05  6.270047E+05  1.001058E+05 -2.327272E+05
       109  27  2.910877E+06  8.582766E+05  6.047759E+05  5.070133E+05  1.102926E+05 -2.068100E+05
       110   1 -2.866730E+06 -1.256156E+06 -5.499835E+05 -1.103235E+06 -4.138383E+04  2.174010E+05
       110   2 -2.591194E+06 -1.112238E+06 -4.910862E+05 -9.828212E+05 -3.328776E+04  1.945950E+05
       110   3 -2.253906E+06 -1.028475E+06 -4.314981E+05 -9.310492E+05 -2.503466E+04  1.712065E+05
       110   4 -8.660044E+04 -2.381007E+05  4.963154E+03 -3.297040E+05 -7.286089E+04  2.054550E+05
       110   5 -1.171369E+05 -2.074270E+05  2.580700E+03 -2.955117E+05 -6.558476E+04  1.823819E+05
       110   6 -8.588356E+04 -2.367431E+05  1.521648E+03 -3.299840E+05 -5.815189E+04  1.587280E+05
       110   7  2.701563E+06  7.806487E+05  5.595512E+05  4.470526E+05 -1.044905E+05  1.934518E+05
       110   8  2.363272E+06  6.979275E+05  4.959628E+05  3.943444E+05 -9.802082E+04  1.701167E+05
       110   9  2.087005E+06  5.553991E+05  4.343210E+05  2.730292E+05 -9.139381E+04  1.462028E+05
       110  10 -2.866745E+06 -1.256207E+06 -5.500755E+05 -1.103228E+06  2.526268E-08  7.347251E-09
       110  11 -2.591205E+06 -1.112279E+06 -4.911595E+05 -9.828160E+05  1.506288E-08  2.775553E-09
       110  12 -2.253914E+06 -1.028506E+06 -4.315544E+05 -9.310457E+05 -1.128846E-08 -5.398944E-09
       110  13 -8.661747E+04 -2.381475E+05  4.873865E+03 -3.296919E+05  2.480724E-09  2.270944E-10
       110  14 -1.171505E+05 -2.074639E+05  2.510119E+03 -2.955020E+05  9.861278E-09  4.883521E-09
       110  15 -8.589395E+04 -2.367710E+05  1.467955E+03 -3.299765E+05 -1.848765E-09  4.063575E-09
       110  16  2.701542E+06  7.806056E+05  5.594604E+05  4.470689E+05 -1.328962E-08 -6.850050E-09
       110  17  2.363253E+06  6.978938E+05  4.958904E+05  3.943579E+05  1.600398E-08  7.410226E-09
       110  18  2.086990E+06  5.553739E+05  4.342652E+05  2.730399E+05  2.904019E-08  1.369565E-08
       110  19 -2.866730E+06 -1.256156E+06 -5.499835E+05 -1.103235E+06  4.138383E+04 -2.174010E+05
       110  20 -2.591194E+06 -1.112238E+06 -4.910862E+05 -9.828212E+05  3.328776E+04 -1.945950E+05
       110  21 -2.253906E+06 -1.028475E+06 -4.314981E+05 -9.310492E+05  2.503466E+04 -1.712065E+05
       110  22 -8.660044E+04 -2.381007E+05  4.963154E+03 -3.297040E+05  7.286089E+04 -2.054550E+05
       110  23 -1.171369E+05 -2.074270E+05  2.580700E+03 -2.955117E+05  6.558476E+04 -1.823819E+05
       110  24 -8.588356E+04 -2.367431E+05  1.521648E+03 -3.299840E+05  5.815189E+04 -1.587280E+05
       110  25  2.701563E+06  7.806487E+05  5.595512E+05  4.470526E+05  1.044905E+05 -1.934518E+05
       110  26  2.363272E+06  6.979275E+05  4.959628E+05  3.943444E+05  9.802082E+04 -1.701167E+05
       110  27  2.087005E+06  5.553991E+05  4.343210E+05  2.730292E+05  9.139381E+04 -1.462028E+05
       111   1 -2.044853E+06 -9.512318E+05 -3.883547E+05 -8.729742E+05 -2.019404E+04  1.574225E+05
       111   2 -1.767659E+06 -8.080562E+05 -3.283900E+05 -7.528397E+05 -1.156739E+04  1.339167E+05
       111   3 -1.429420E+06 -7.251490E+05 -2.681373E+05 -7.018013E+05 -2.960636E+03  1.103516E+05
       111   4 -8.584904E+04 -2.365529E+05  1.099429E+03 -3.300986E+05 -5.323327E+04  1.449946E+05
       111   5 -1.160870E+05 -2.059365E+05  5.261462E+02 -2.956453E+05 -4.468973E+04  1.214861E+05
       111   6 -8.537212E+04 -2.355743E+05  2.965270E+02 -3.303169E+05 -3.616604E+04  9.791846E+04
       111   7  1.877114E+06  4.784558E+05  3.903722E+05  2.143622E+05 -8.638452E+04  1.325248E+05
       111   8  1.538309E+06  3.964206E+05  3.293173E+05  1.626769E+05 -7.790690E+04  1.090200E+05
       111   9  1.260556E+06  2.541608E+05  2.686515E+05  4.191576E+04 -6.944903E+04  8.545635E+04
       111  10 -2.044860E+06 -9.512586E+05 -3.884020E+05 -8.729716E+05  2.188553E-09  2.272675E-09
       111  11 -1.767664E+06 -8.080755E+05 -3.284240E+05 -7.528384E+05 -5.181231E-09  2.979266E-09
       111  12 -1.429423E+06 -7.251621E+05 -2.681602E+05 -7.018010E+05 -6.480489E-09  2.354813E-10
       111  13 -8.585772E+04 -2.365762E+05  1.054603E+03 -3.300924E+05 -5.232870E-09  2.977508E-09
       111  14 -1.160931E+05 -2.059528E+05  4.946628E+02 -2.956410E+05  2.413153E-09  2.854777E-09
       111  15 -8.537610E+04 -2.355849E+05  2.760542E+02 -3.303141E+05  9.675708E-10  2.464226E-09
       111  16  1.877102E+06  4.784349E+05  3.903252E+05  2.143714E+05  1.331781E-09  3.290618E-09
       111  17  1.538300E+06  3.964062E+05  3.292836E+05  1.626837E+05 -7.142405E-11  2.189407E-09
       111  18  1.260549E+06  2.541517E+05  2.686287E+05  4.192054E+04  8.302041E-09  5.750363E-09
       111  19 -2.044853E+06 -9.512318E+05 -3.883547E+05 -8.729742E+05  2.019404E+04 -1.574225E+05
       111  20 -1.767659E+06 -8.080562E+05 -3.283900E+05 -7.528397E+05  1.156739E+04 -1.339167E+05
       111  21 -1.429420E+06 -7.251490E+05 -2.681373E+05 -7.018013E+05  2.960636E+03 -1.103516E+05
       111  22 -8.584904E+04 -2.365529E+05  1.099429E+03 -3.300986E+05  5.323327E+04 -1.449946E+05
       111  23 -1.160870E+05 -2.059365E+05  5.261462E+02 -2.956453E+05  4.468973E+04 -1.214861E+05
       111  24 -8.537212E+04 -2.355743E+05  2.965270E+02 -3.303169E+05  3.616604E+04 -9.791846E+04
       111  25  1.877114E+06  4.784558E+05  3.903722E+05  2.143622E+05  8.638452E+04 -1.325248E+05
       111  26  1.538309E+06  3.964206E+05  3.293173E+05  1.626769E+05  7.790690E+04 -1.090200E+05
       111  27  1.260556E+06  2.541608E+05  2.686515E+05  4.191576E+04  6.944903E+04 -8.545635E+04
       112   1 -1.219633E+06 -6.482200E+05 -2.246735E+05 -6.439191E+05  2.132257E+03  9.665336E+04
       112   2 -9.413790E+05 -5.055779E+05 -1.643714E+05 -5.239120E+05  1.095797E+04  7.316019E+04
       112   3 -6.025195E+05 -4.232558E+05 -1.040528E+05 -4.732639E+05  1.976159E+04  4.966910E+04
       112   4 -8.534126E+04 -2.354604E+05  1.572291E+02 -3.303753E+05 -3.108870E+04  8.422721E+04
       112   5 -1.154701E+05 -2.050524E+05 -6.733518E+01 -2.957336E+05 -2.226330E+04  6.074811E+04
       112   6 -8.509873E+04 -2.349689E+05 -2.811395E+02 -3.304834E+05 -1.346010E+04  3.727131E+04
       112   7  1.050283E+06  1.774112E+05  2.249322E+05 -1.630024E+04 -6.437485E+04  7.177669E+04
       112   8  7.111424E+05  9.553133E+04  1.642081E+05 -6.727472E+04 -5.553190E+04  4.831833E+04
       112   9  4.325961E+05 -4.665996E+04  1.034810E+05 -1.875935E+05 -4.671124E+04  2.486251E+04
       112  10 -1.219635E+06 -6.482301E+05 -2.246911E+05 -6.439193E+05 -5.511925E-09 -1.989266E-09
       112  11 -9.413806E+05 -5.055837E+05 -1.643817E+05 -5.239126E+05 -2.852413E-08 -1.310742E-08
       112  12 -6.025206E+05 -4.232585E+05 -1.040581E+05 -4.732647E+05 -5.920100E-08 -1.857683E-08
       112  13 -8.534420E+04 -2.354683E+05  1.420836E+02 -3.303732E+05  7.981865E-09  1.135205E-10
       112  14 -1.154716E+05 -2.050565E+05 -7.520034E+01 -2.957326E+05  3.575117E-09 -1.158199E-08
       112  15 -8.509930E+04 -2.349704E+05 -2.840901E+02 -3.304830E+05 -3.435571E-09 -2.637460E-08
       112  16  1.050277E+06  1.774045E+05  2.249147E+05 -1.629652E+04  9.896277E-09  9.291974E-09
       112  17  7.111385E+05  9.552800E+04  1.641979E+05 -6.727256E+04  2.831729E-08  1.842621E-08
       112  18  4.325936E+05 -4.666121E+04  1.034757E+05 -1.875926E+05  3.783842E-08  1.798841E-08
       112  19 -1.219633E+06 -6.482200E+05 -2.246735E+05 -6.439191E+05 -2.132257E+03 -9.665336E+04
       112  20 -9.413790E+05 -5.055779E+05 -1.643714E+05 -5.239120E+05 -1.095797E+04 -7.316019E+04
       112  21 -6.025195E+05 -4.232558E+05 -1.040528E+05 -4.732639E+05 -1.976159E+04 -4.966910E+04
       112  22 -8.534126E+04 -2.354604E+05  1.572291E+02 -3.303753E+05  3.108870E+04 -8.422721E+04
       112  23 -1.154701E+05 -2.050524E+05 -6.733518E+01 -2.957336E+05  2.226330E+04 -6.074811E+04
       112  24 -8.509873E+04 -2.349689E+05 -2.811395E+02 -3.304834E+05  1.346010E+04 -3.727131E+04
       112  25  1.050283E+06  1.774112E+05  2.249322E+05 -1.630024E+04  6.437485E+04 -7.177669E+04
       112  26  7.111424E+05  9.553133E+04  1.642081E+05 -6.727472E+04  5.553190E+04 -4.831833E+04
       112  27  4.325961E+05 -4.665996E+04  1.034810E+05 -1.875935E+05  4.671124E+04 -2.486251E+04
       113   1 -3.922810E+05 -3.464947E+05 -6.059155E+04 -4.154238E+05  2.498618E+04  3.601886E+04
       113   2 -1.135585E+05 -2.041649E+05 -4.280148E+02 -2.953766E+05  3.383687E+04  1.266606E+04
       113   3  2.256128E+05 -1.221480E+05  5.965405E+04 -2.447655E+05  4.259433E+04 -1.043778E+04
       113   4 -8.510684E+04 -2.349287E+05 -4.461576E+02 -3.305083E+05 -8.294049E+03  2.360349E+04
       113   5 -1.152445E+05 -2.047433E+05 -9.210130E+02 -2.957650E+05  9.002700E+02  3.786563E+02
       113   6 -8.510891E+04 -2.349518E+05 -1.754457E+03 -3.304994E+05  1.000123E+04 -2.259698E+04
       113   7  2.221701E+05 -1.233527E+05  5.970042E+04 -2.455526E+05 -4.159221E+04  1.118142E+04
       113   8 -1.169282E+05 -2.053208E+05 -1.409366E+03 -2.961527E+05 -3.203637E+04 -1.190877E+04
       113   9 -3.957286E+05 -3.477465E+05 -6.316295E+04 -4.161930E+05 -2.257439E+04 -3.474966E+04
       113  10 -3.922820E+05 -3.464962E+05 -6.059516E+04 -4.154246E+05  3.618424E-08  1.953616E-08
       113  11 -1.135598E+05 -2.041654E+05 -4.304691E+02 -2.953769E+05  2.636445E-08  1.790800E-08
       113  12  2.256108E+05 -1.221486E+05  5.965044E+04 -2.447652E+05  5.040578E-09  7.953308E-09
       113  13 -8.510706E+04 -2.349294E+05 -4.473337E+02 -3.305082E+05 -3.978313E-09 -2.832277E-08
       113  14 -1.152445E+05 -2.047433E+05 -9.210148E+02 -2.957650E+05 -2.376948E-09 -1.463743E-08
       113  15 -8.510915E+04 -2.349524E+05 -1.755604E+03 -3.304992E+05 -1.832357E-09  1.954169E-09
       113  16  2.221682E+05 -1.233533E+05  5.969693E+04 -2.455522E+05 -5.613198E-08 -1.936062E-08
       113  17 -1.169293E+05 -2.053212E+05 -1.411563E+03 -2.961530E+05 -3.495886E-08 -1.037589E-08
       113  18 -3.957294E+05 -3.477479E+05 -6.316618E+04 -4.161936E+05 -1.114629E-08  1.923904E-09
       113  19 -3.922810E+05 -3.464947E+05 -6.059155E+04 -4.154238E+05 -2.498618E+04 -3.601886E+04
       113  20 -1.135585E+05 -2.041649E+05 -4.280148E+02 -2.953766E+05 -3.383687E+04 -1.266606E+04
       113  21  2.256128E+05 -1.221480E+05  5.965405E+04 -2.447655E+05 -4.259433E+04  1.043778E+04
       113  22 -8.510684E+04 -2.349287E+05 -4.461576E+02 -3.305083E+05  8.294049E+03 -2.360349E+04
       113  23 -1.152445E+05 -2.047433E+05 -9.210130E+02 -2.957650E+05 -9.002700E+02 -3.786563E+02
       113  24 -8.510891E+04 -2.349518E+05 -1.754457E+03 -3.304994E+05 -1.000123E+04  2.259698E+04
       113  25  2.221701E+05 -1.233527E+05  5.970042E+04 -2.455526E+05  4.159221E+04 -1.118142E+04
       113  26 -1.169282E+05 -2.053208E+05 -1.409366E+03 -2.961527E+05  3.203637E+04  1.190877E+04
       113  27 -3.957286E+05 -3.477465E+05 -6.316295E+04 -4.161930E+05  2.257439E+04  3.474966E+04
       114   1  4.361524E+05 -4.543616E+04  1.027071E+05 -1.869374E+05  4.875989E+04 -2.373497E+04
       114   2  7.143902E+05  9.699133E+04  1.629770E+05 -6.650052E+04  5.380915E+04 -4.653534E+04
       114   3  1.053385E+06  1.792016E+05  2.254971E+05 -1.503411E+04  5.748549E+04 -6.562145E+04
       114   4 -8.525798E+04 -2.349042E+05 -2.351574E+03 -3.305040E+05  1.543713E+04 -3.617057E+04
       114   5 -1.152827E+05 -2.051802E+05 -4.375858E+03 -2.956933E+05  2.573685E+04 -5.702470E+04
       114   6 -8.568267E+04 -2.367267E+05 -8.304891E+03 -3.298977E+05  3.466419E+04 -7.416112E+04
       114   7 -6.063820E+05 -4.243469E+05 -1.074177E+05 -4.739577E+05 -1.785533E+04 -4.859490E+04
       114   8 -9.442459E+05 -5.072928E+05 -1.717593E+05 -5.246030E+05 -2.295197E+03 -6.749901E+04
       114   9 -1.223430E+06 -6.525495E+05 -2.421743E+05 -6.442313E+05  1.188766E+04 -8.268401E+04
       114  10  4.361497E+05 -4.543740E+04  1.027016E+05 -1.869364E+05 -5.130683E-10  4.849817E-09
       114  11  7.143865E+05  9.698823E+04  1.629675E+05 -6.649850E+04 -2.226460E-08 -5.202443E-09
       114  12  1.053381E+06  1.791961E+05  2.254828E+05 -1.503107E+04 -4.767926E-08 -1.251968E-08
       114  13 -8.525859E+04 -2.349056E+05 -2.354480E+03 -3.305036E+05 -1.376747E-09  4.325693E-09
       114  14 -1.152842E+05 -2.051839E+05 -4.383212E+03 -2.956921E+05 -3.127280E-10 -2.963450E-09
       114  15 -8.568543E+04 -2.367329E+05 -8.317482E+03 -3.298956E+05 -1.261756E-08 -1.572060E-08
       114  16 -6.063829E+05 -4.243495E+05 -1.074228E+05 -4.739584E+05 -3.775614E-09  9.085821E-09
       114  17 -9.442471E+05 -5.072977E+05 -1.717679E+05 -5.246032E+05  1.585158E-08  1.795474E-08
       114  18 -1.223432E+06 -6.525569E+05 -2.421874E+05 -6.442305E+05  2.694683E-08  1.629649E-08
       114  19  4.361524E+05 -4.543616E+04  1.027071E+05 -1.869374E+05 -4.875989E+04  2.373497E+04
       114  20  7.143902E+05  9.699133E+04  1.629770E+05 -6.650052E+04 -5.380915E+04  4.653534E+04
       114  21  1.053385E+06  1.792016E+05  2.254971E+05 -1.503411E+04 -5.748549E+04  6.562145E+04
       114  22 -8.525798E+04 -2.349042E+05 -2.351574E+03 -3.305040E+05 -1.543713E+04  3.617057E+04
       114  23 -1.152827E+05 -2.051802E+05 -4.375858E+03 -2.956933E+05 -2.573685E+04  5.702470E+04
       114  24 -8.568267E+04 -2.367267E+05 -8.304891E+03 -3.298977E+05 -3.466419E+04  7.416112E+04
       114  25 -6.063820E+05 -4.243469E+05 -1.074177E+05 -4.739577E+05  1.785533E+04  4.859490E+04
       114  26 -9.442459E+05 -5.072928E+05 -1.717593E+05 -5.246030E+05  2.295197E+03  6.749901E+04
       114  27 -1.223430E+06 -6.525495E+05 -2.421743E+05 -6.442313E+05 -1.188766E+04  8.268401E+04
       115   1  1.266901E+06  2.558445E+05  2.670821E+05  4.020808E+04  7.468899E+04 -7.487484E+04
       115   2  1.534455E+06  4.032808E+05  3.447967E+05  1.691122E+05  6.017409E+03 -9.620764E+04
       115   3  1.865182E+06  4.838214E+05  4.696068E+05  2.380002E+05 -8.333236E+04 -6.255434E+04
       115   4 -8.756636E+04 -2.350949E+05 -1.085616E+04 -3.303236E+05  4.105328E+04 -8.746656E+04
       115   5 -1.140340E+05 -2.114947E+05 -2.045050E+04 -2.937874E+05  5.043525E+04 -7.960780E+04
       115   6 -9.285883E+04 -2.702748E+05 -4.470650E+04 -3.173152E+05  3.914931E+04 -1.667242E+04
       115   7 -1.440160E+06 -7.258896E+05 -2.888863E+05 -7.001149E+05  7.496195E+03 -1.000293E+05
       115   8 -1.759754E+06 -8.260292E+05 -3.858514E+05 -7.555471E+05  9.472525E+04 -6.305748E+04
       115   9 -2.047092E+06 -1.024042E+06 -5.592658E+05 -8.710054E+05  1.612046E+05  2.903929E+04
       115  10  1.266894E+06  2.558369E+05  2.670611E+05  4.021258E+04  3.508204E-08  1.904287E-08
       115  11  1.534452E+06  4.032709E+05  3.447792E+05  1.691127E+05  2.685909E-08  1.370552E-08
       115  12  1.865173E+06  4.838154E+05  4.695864E+05  2.379961E+05  4.609723E-09  2.044515E-09
       115  13 -8.757023E+04 -2.351035E+05 -1.087370E+04 -3.303207E+05 -9.009907E-09 -1.675568E-08
       115  14 -1.140384E+05 -2.115022E+05 -2.046718E+04 -2.937842E+05 -3.377730E-09 -8.102152E-09
       115  15 -9.286055E+04 -2.702755E+05 -4.470990E+04 -3.173147E+05  3.089209E-10 -1.705480E-09
       115  16 -1.440163E+06 -7.259004E+05 -2.889053E+05 -7.001143E+05 -5.562438E-08 -2.007492E-08
       115  17 -1.759765E+06 -8.260358E+05 -3.858757E+05 -7.555423E+05 -3.001810E-08 -1.113347E-08
       115  18 -2.047121E+06 -1.024050E+06 -5.593164E+05 -8.710091E+05 -4.704719E-10 -9.980285E-10
       115  19  1.266901E+06  2.558445E+05  2.670821E+05  4.020808E+04 -7.468899E+04  7.487484E+04
       115  20  1.534455E+06  4.032808E+05  3.447967E+05  1.691122E+05 -6.017409E+03  9.620764E+04
       115  21  1.865182E+06  4.838214E+05  4.696068E+05  2.380002E+05  8.333236E+04  6.255434E+04
       115  22 -8.756636E+04 -2.350949E+05 -1.085616E+04 -3.303236E+05 -4.105328E+04  8.746656E+04
       115  23 -1.140340E+05 -2.114947E+05 -2.045050E+04 -2.937874E+05 -5.043525E+04  7.960780E+04
       115  24 -9.285883E+04 -2.702748E+05 -4.470650E+04 -3.173152E+05 -3.914931E+04  1.667242E+04
       115  25 -1.440160E+06 -7.258896E+05 -2.888863E+05 -7.001149E+05 -7.496195E+03  1.000293E+05
       115  26 -1.759754E+06 -8.260292E+05 -3.858514E+05 -7.555471E+05 -9.472525E+04  6.305748E+04
       115  27 -2.047092E+06 -1.024042E+06 -5.592658E+05 -8.710054E+05 -1.612046E+05 -2.903929E+04
       116   1 -1.796685E+05 -9.028491E+04 -7.991253E+04 -6.442798E+04 -1.690868E+04  6.359592E+03
       116   2 -1.125081E+05 -9.508640E+04 -6.145204E+04 -7.283126E+04 -2.255148E+03  2.115602E+04
       116   3 -4.408207E+04 -8.729233E+04 -4.938294E+04 -9.133531E+04  1.240442E+04  2.499228E+04
       116   4  3.564916E+05  4.175951E+04  4.426907E+04 -9.279904E+04  3.126669E+04  6.367899E+03
       116   5  3.536170E+05  1.487985E+04  2.233678E+04 -8.774743E+04  1.988283E+04  2.115708E+04
       116   6  3.565189E+05  5.109227E+03  1.209066E+04 -9.279518E+04  8.503197E+03  2.499053E+04
       116   7  8.929240E+05  1.737880E+05  1.684406E+05 -1.211948E+05  7.948336E+04  6.371801E+03
       116   8  8.199552E+05  1.248351E+05  1.061192E+05 -1.026751E+05  4.203695E+04  2.115708E+04
       116   9  7.572804E+05  9.750304E+04  7.356079E+04 -9.425601E+04  4.599549E+03  2.498880E+04
       116  10 -1.796688E+05 -9.028503E+04 -7.991315E+04 -6.442789E+04 -3.227064E-09  7.425470E-10
       116  11 -1.125082E+05 -9.508689E+04 -6.145290E+04 -7.283122E+04 -5.606073E-09  1.712855E-09
       116  12 -4.408240E+04 -8.729304E+04 -4.938440E+04 -9.133556E+04 -2.865022E-09  2.520078E-10
       116  13  3.564905E+05  4.175920E+04  4.426716E+04 -9.279920E+04  2.268669E-09  7.696179E-10
       116  14  3.536164E+05  1.487926E+04  2.233519E+04 -8.774777E+04  1.167376E-09  1.505418E-09
       116  15  3.565186E+05  5.108537E+03  1.208935E+04 -9.279535E+04 -2.292723E-09  5.309072E-10
       116  16  8.929172E+05  1.737863E+05  1.684287E+05 -1.211952E+05  5.029832E-09  6.452718E-10
       116  17  8.199532E+05  1.248341E+05  1.061150E+05 -1.026758E+05  4.591344E-09  1.382226E-09
       116  18  7.572802E+05  9.750237E+04  7.355957E+04 -9.425611E+04  4.930489E-09  1.208465E-09
       116  19 -1.796685E+05 -9.028491E+04 -7.991253E+04 -6.442798E+04  1.690868E+04 -6.359592E+03
       116  20 -1.125081E+05 -9.508640E+04 -6.145204E+04 -7.283126E+04  2.255148E+03 -2.115602E+04
       116  21 -4.408207E+04 -8.729233E+04 -4.938294E+04 -9.133531E+04 -1.240442E+04 -2.499228E+04
       116  22  3.564916E+05  4.175951E+04  4.426907E+04 -9.279904E+04 -3.126669E+04 -6.367899E+03
       116  23  3.536170E+05  1.487985E+04  2.233678E+04 -8.774743E+04 -1.988283E+04 -2.115708E+04
       116  24  3.565189E+05  5.109227E+03  1.209066E+04 -9.279518E+04 -8.503197E+03 -2.499053E+04
       116  25  8.929240E+05  1.737880E+05  1.684406E+05 -1.211948E+05 -7.948336E+04 -6.371801E+03
       116  26  8.199552E+05  1.248351E+05  1.061192E+05 -1.026751E+05 -4.203695E+04 -2.115708E+04
       116  27  7.572804E+05  9.750304E+04  7.356079E+04 -9.425601E+04 -4.599549E+03 -2.498880E+04
       117   1 -2.627510E+03 -7.848518E+04 -4.406493E+04 -9.079962E+04  1.163543E+04  2.353543E+04
       117   2  6.499067E+04 -6.486525E+04 -3.541990E+04 -8.646945E+04  1.268420E+04  2.082034E+04
       117   3  1.327591E+05 -5.015455E+04 -2.718228E+04 -9.304761E+04  1.373275E+04  1.663815E+04
       117   4  3.554076E+05  3.725084E+03  9.019905E+03 -9.297562E+04  6.930338E+03  2.353399E+04
       117   5  3.550395E+05  1.188746E+03  4.868035E+03 -8.752172E+04  4.491806E+03  2.081949E+04
       117   6  3.554219E+05  3.481841E+02  2.729222E+03 -9.297568E+04  2.052948E+03  1.663825E+04
       117   7  7.135717E+05  8.592937E+04  6.210245E+04 -9.515292E+04  2.222645E+03  2.353258E+04
       117   8  6.451738E+05  6.723906E+04  4.515521E+04 -8.857450E+04 -3.704244E+03  2.081867E+04
       117   9  5.781354E+05  5.084886E+04  3.264080E+04 -9.290373E+04 -9.630845E+03  1.663835E+04
       117  10 -2.627804E+03 -7.848581E+04 -4.406622E+04 -9.079984E+04 -6.949581E-08 -1.358711E-09
       117  11  6.499038E+04 -6.486576E+04 -3.542102E+04 -8.646966E+04 -2.777777E-09 -3.029281E-09
       117  12  1.327589E+05 -5.015490E+04 -2.718315E+04 -9.304779E+04  6.593260E-08 -2.948573E-09
       117  13  3.554074E+05  3.724476E+03  9.018774E+03 -9.297575E+04  1.516446E-10 -4.735703E-10
       117  14  3.550394E+05  1.188275E+03  4.867182E+03 -8.752179E+04  1.248966E-09 -2.164082E-09
       117  15  3.554218E+05  3.478856E+02  2.728694E+03 -9.297571E+04 -9.331428E-10 -2.363105E-09
       117  16  7.135715E+05  8.592878E+04  6.210140E+04 -9.515296E+04  7.110439E-08  1.685413E-10
       117  17  6.451737E+05  6.723859E+04  4.515437E+04 -8.857444E+04  3.367925E-09 -1.389068E-09
       117  18  5.781352E+05  5.084854E+04  3.264010E+04 -9.290360E+04 -6.685688E-08 -1.737920E-09
       117  19 -2.627510E+03 -7.848518E+04 -4.406493E+04 -9.079962E+04 -1.163543E+04 -2.353543E+04
       117  20  6.499067E+04 -6.486525E+04 -3.541990E+04 -8.646945E+04 -1.268420E+04 -2.082034E+04
       117  21  1.327591E+05 -5.015455E+04 -2.718228E+04 -9.304761E+04 -1.373275E+04 -1.663815E+04
       117  22  3.554076E+05  3.725084E+03  9.019905E+03 -9.297562E+04 -6.930338E+03 -2.353399E+04
       117  23  3.550395E+05  1.188746E+03  4.868035E+03 -8.752172E+04 -4.491806E+03 -2.081949E+04
       117  24  3.554219E+05  3.481841E+02  2.729222E+03 -9.297568E+04 -2.052948E+03 -1.663825E+04
       117  25  7.135717E+05  8.592937E+04  6.210245E+04 -9.515292E+04 -2.222645E+03 -2.353258E+04
       117  26  6.451738E+05  6.723906E+04  4.515521E+04 -8.857450E+04  3.704244E+03 -2.081867E+04
       117  27  5.781354E+05  5.084886E+04  3.264080E+04 -9.290373E+04  9.630845E+03 -1.663835E+04
       118   1  1.745044E+05 -4.069383E+04 -2.191459E+04 -9.295514E+04  1.343793E+04  1.371060E+04
       118   2  2.421577E+05 -2.553779E+04 -1.372003E+04 -8.750119E+04  1.333188E+04  8.652887E+03
       118   3  3.098515E+05 -1.030454E+04 -5.436163E+03 -9.306136E+04  1.322553E+04  3.399560E+03
       118   4  3.552844E+05  2.455899E+02  2.056267E+03 -9.299931E+04  1.650805E+03  1.371110E+04
       118   5  3.552283E+05  4.287359E+01  1.150915E+03 -8.749232E+04  1.079156E+03  8.653792E+03
       118   6  3.552898E+05 -1.505075E+00  6.578931E+02 -9.299934E+04  5.072354E+02  3.400889E+03
       118   7  5.360980E+05  4.118370E+04  2.602739E+04 -9.304349E+04 -1.013959E+04  1.371159E+04
       118   8  4.683123E+05  2.562308E+04  1.602234E+04 -8.748346E+04 -1.117569E+04  8.654697E+03
       118   9  4.007305E+05  1.030153E+04  6.752539E+03 -9.293732E+04 -1.221195E+04  3.402216E+03
       118  10  1.745041E+05 -4.069408E+04 -2.191528E+04 -9.295528E+04 -2.641577E-08 -2.104575E-09
       118  11  2.421575E+05 -2.553792E+04 -1.372051E+04 -8.750128E+04  5.337042E-09  8.851103E-10
       118  12  3.098513E+05 -1.030460E+04 -5.436514E+03 -9.306140E+04  4.190885E-08  5.982598E-09
       118  13  3.552843E+05  2.453873E+02  2.055908E+03 -9.299933E+04 -1.408219E-10 -3.366688E-09
       118  14  3.552283E+05  4.279284E+01  1.150772E+03 -8.749233E+04 -4.312356E-09 -7.472446E-09
       118  15  3.552898E+05 -1.517566E+00  6.578709E+02 -9.299934E+04 -1.869733E-09 -1.095054E-08
       118  16  5.360978E+05  4.118347E+04  2.602685E+04 -9.304338E+04  2.461314E-08 -1.939124E-10
       118  17  4.683121E+05  2.562296E+04  1.602196E+04 -8.748338E+04 -9.019217E-09  3.922732E-09
       118  18  4.007303E+05  1.030147E+04  6.752237E+03 -9.293728E+04 -4.349289E-08  6.965573E-09
       118  19  1.745044E+05 -4.069383E+04 -2.191459E+04 -9.295514E+04 -1.343793E+04 -1.371060E+04
       118  20  2.421577E+05 -2.553779E+04 -1.372003E+04 -8.750119E+04 -1.333188E+04 -8.652887E+03
       118  21  3.098515E+05 -1.030454E+04 -5.436163E+03 -9.306136E+04 -1.322553E+04 -3.399560E+03
       118  22  3.552844E+05  2.455899E+02  2.056267E+03 -9.299931E+04 -1.650805E+03 -1.371110E+04
       118  23  3.552283E+05  4.287359E+01  1.150915E+03 -8.749232E+04 -1.079156E+03 -8.653792E+03
       118  24  3.552898E+05 -1.505075E+00  6.578931E+02 -9.299934E+04 -5.072354E+02 -3.400889E+03
       118  25  5.360980E+05  4.118370E+04  2.602739E+04 -9.304349E+04  1.013959E+04 -1.371159E+04
       118  26  4.683123E+05  2.562308E+04  1.602234E+04 -8.748346E+04  1.117569E+04 -8.654697E+03
       118  27  4.007305E+05  1.030153E+04  6.752539E+03 -9.293732E+04  1.221195E+04 -3.402216E+03
       119   1  3.516267E+05 -8.274560E+02  1.866058E+01 -9.304420E+04  1.313720E+04  2.763462E+02
       119   2  4.192943E+05  1.441369E+04  8.416388E+03 -8.752044E+04  1.304606E+04 -5.090530E+03
       119   3  4.869833E+05  2.965802E+04  1.687535E+04 -9.302473E+04  1.295511E+04 -1.047840E+04
       119   4  3.552694E+05 -3.077262E+00  4.990303E+02 -9.300248E+04  4.045458E+02  2.777258E+02
       119   5  3.552558E+05 -1.423227E+01  2.861842E+02 -8.748842E+04  2.627152E+02 -5.089365E+03
       119   6  3.552665E+05 -1.361467E+01  1.689855E+02 -9.300249E+04  1.210658E+02 -1.047746E+04
       119   7  3.589126E+05  8.213879E+02  9.800089E+02 -9.296076E+04 -1.232817E+04  2.791037E+02
       119   8  2.912219E+05 -1.444223E+04 -7.843421E+03 -8.745642E+04 -1.251938E+04 -5.088200E+03
       119   9  2.235678E+05 -2.968587E+04 -1.653683E+04 -9.298025E+04 -1.271039E+04 -1.047653E+04
       119  10  3.516265E+05 -8.275024E+02  1.833629E+01 -9.304421E+04 -4.080833E-08  7.302979E-09
       119  11  4.192941E+05  1.441362E+04  8.416020E+03 -8.752038E+04 -6.334016E-09  4.866686E-09
       119  12  4.869831E+05  2.965785E+04  1.687483E+04 -9.302462E+04  2.997129E-08  1.693221E-09
       119  13  3.552694E+05 -3.077389E+00  4.990299E+02 -9.300248E+04 -4.290757E-09 -1.069367E-08
       119  14  3.552558E+05 -1.426010E+01  2.861354E+02 -8.748842E+04  5.314459E-09 -6.239146E-09
       119  15  3.552664E+05 -1.373258E+01  1.687791E+02 -9.300249E+04 -1.742809E-09 -1.609141E-09
       119  16  3.589124E+05  8.213471E+02  9.797234E+02 -9.296076E+04  3.921252E-08  6.263864E-09
       119  17  2.912218E+05 -1.444230E+04 -7.843764E+03 -8.745647E+04  4.539741E-09  2.361235E-09
       119  18  2.235676E+05 -2.968603E+04 -1.653734E+04 -9.298036E+04 -2.992989E-08 -4.302379E-10
       119  19  3.516267E+05 -8.274560E+02  1.866058E+01 -9.304420E+04 -1.313720E+04 -2.763462E+02
       119  20  4.192943E+05  1.441369E+04  8.416388E+03 -8.752044E+04 -1.304606E+04  5.090530E+03
       119  21  4.869833E+05  2.965802E+04  1.687535E+04 -9.302473E+04 -1.295511E+04  1.047840E+04
       119  22  3.552694E+05 -3.077262E+00  4.990303E+02 -9.300248E+04 -4.045458E+02 -2.777258E+02
       119  23  3.552558E+05 -1.423227E+01  2.861842E+02 -8.748842E+04 -2.627152E+02  5.089365E+03
       119  24  3.552665E+05 -1.361467E+01  1.689855E+02 -9.300249E+04 -1.210658E+02  1.047746E+04
       119  25  3.589126E+05  8.213879E+02  9.800089E+02 -9.296076E+04  1.232817E+04 -2.791037E+02
       119  26  2.912219E+05 -1.444223E+04 -7.843421E+03 -8.745642E+04  1.251938E+04  5.088200E+03
       119  27  2.235678E+05 -2.968587E+04 -1.653683E+04 -9.298025E+04  1.271039E+04  1.047653E+04
       120   1  5.287739E+05  3.912589E+04  2.241729E+04 -9.302003E+04  1.292782E+04 -1.362244E+04
       120   2  5.964582E+05  5.436474E+04  3.096061E+04 -8.749242E+04  1.279970E+04 -1.900180E+04
       120   3  6.641750E+05  6.961828E+04  3.959308E+04 -9.299419E+04  1.267224E+04 -2.434452E+04
       120   4  3.552615E+05 -1.566582E+01  1.318996E+02 -9.300282E+04  9.373582E+01 -1.362181E+04
       120   5  3.552496E+05 -2.525740E+01  8.427219E+01 -8.748802E+04  5.206589E+01 -1.900201E+04
       120   6  3.552503E+05 -3.509100E+01  6.534894E+01 -9.300282E+04  1.106651E+01 -2.434558E+04
       120   7  1.817803E+05 -3.915838E+04 -2.215301E+04 -9.298562E+04 -1.273694E+04 -1.362119E+04
       120   8  1.141009E+05 -5.441757E+04 -3.079171E+04 -8.748360E+04 -1.269086E+04 -1.900223E+04
       120   9  4.642369E+04 -6.969230E+04 -3.946219E+04 -9.301145E+04 -1.264412E+04 -2.434664E+04
       120  10  5.287736E+05  3.912565E+04  2.241663E+04 -9.301989E+04  1.661011E-09  1.043771E-09
       120  11  5.964580E+05  5.436431E+04  3.095963E+04 -8.749223E+04  1.266433E-09  1.731507E-09
       120  12  6.641747E+05  6.961760E+04  3.959166E+04 -9.299394E+04  1.973902E-10  1.228467E-09
       120  13  3.552615E+05 -1.586510E+01  1.315508E+02 -9.300282E+04  2.427790E-09  2.441929E-10
       120  14  3.552495E+05 -2.564519E+01  8.359354E+01 -8.748801E+04  2.396741E-09  1.278676E-09
       120  15  3.552501E+05 -3.572757E+01  6.423494E+01 -9.300282E+04 -5.071137E-10  1.349830E-09
       120  16  1.817801E+05 -3.915862E+04 -2.215367E+04 -9.298576E+04 -2.361725E-09 -5.551614E-10
       120  17  1.141007E+05 -5.441800E+04 -3.079269E+04 -8.748380E+04 -5.042422E-09  7.197879E-10
       120  18  4.642336E+04 -6.969298E+04 -3.946360E+04 -9.301170E+04  3.228122E-09  1.397110E-09
       120  19  5.287739E+05  3.912589E+04  2.241729E+04 -9.302003E+04 -1.292782E+04  1.362244E+04
       120  20  5.964582E+05  5.436474E+04  3.096061E+04 -8.749242E+04 -1.279970E+04  1.900180E+04
       120  21  6.641750E+05  6.961828E+04  3.959308E+04 -9.299419E+04 -1.267224E+04  2.434452E+04
       120  22  3.552615E+05 -1.566582E+01  1.318996E+02 -9.300282E+04 -9.373582E+01  1.362181E+04
       120  23  3.552496E+05 -2.525740E+01  8.427219E+01 -8.748802E+04 -5.206589E+01  1.900201E+04
       120  24  3.552503E+05 -3.509100E+01  6.534894E+01 -9.300282E+04 -1.106651E+01  2.434558E+04
       120  25  1.817803E+05 -3.915838E+04 -2.215301E+04 -9.298562E+04  1.273694E+04  1.362119E+04
       120  26  1.141009E+05 -5.441757E+04 -3.079171E+04 -8.748360E+04  1.269086E+04  1.900223E+04
       120  27  4.642369E+04 -6.969230E+04 -3.946219E+04 -9.301145E+04  1.264412E+04  2.434664E+04
       121   1  7.060059E+05  7.909915E+04  4.523435E+04 -9.298095E+04  1.264085E+04 -2.745183E+04
       121   2  7.736699E+05  9.439101E+04  5.416147E+04 -8.745084E+04  1.188537E+04 -3.261548E+04
       121   3  8.414852E+05  1.098133E+05  6.361725E+04 -9.293360E+04  1.113086E+04 -3.747621E+04
       121   4  3.552474E+05 -4.276036E+01  6.373084E+01 -9.299920E+04 -1.815787E-01 -2.745356E+04
       121   5  3.552263E+05 -5.957534E+01  7.300619E+01 -8.749255E+04 -3.566244E+01 -3.261859E+04
       121   6  3.552280E+05 -7.043343E+01  1.113007E+02 -9.299920E+04 -7.010114E+01 -3.748059E+04
       121   7  4.615176E+03 -7.918967E+04 -4.510689E+04 -9.301743E+04 -1.263443E+04 -2.745529E+04
       121   8 -6.303788E+04 -9.451735E+04 -5.401585E+04 -8.753422E+04 -1.194906E+04 -3.262170E+04
       121   9 -1.307874E+05 -1.099640E+05 -6.339564E+04 -9.306473E+04 -1.126272E+04 -3.748497E+04
       121  10  7.060056E+05  7.909829E+04  4.523263E+04 -9.298067E+04 -3.243514E-09  8.741853E-10
       121  11  7.736694E+05  9.438983E+04  5.415921E+04 -8.745052E+04 -3.162560E-10 -2.704513E-11
       121  12  8.414847E+05  1.098118E+05  6.361437E+04 -9.293326E+04 -1.713715E-09 -3.858528E-10
       121  13  3.552472E+05 -4.356983E+01  6.231426E+01 -9.299920E+04 -1.280014E-11  9.246441E-10
       121  14  3.552260E+05 -6.071805E+01  7.100644E+01 -8.749255E+04  1.996768E-09  5.691407E-11
       121  15  3.552276E+05 -7.194219E+01  1.086604E+02 -9.299920E+04  7.528451E-10 -2.353285E-10
       121  16  4.614802E+03 -7.919052E+04 -4.510861E+04 -9.301771E+04 -3.964684E-10  9.259510E-10
       121  17 -6.303832E+04 -9.451853E+04 -5.401812E+04 -8.753453E+04  4.146557E-11  1.275370E-12
       121  18 -1.307880E+05 -1.099656E+05 -6.339852E+04 -9.306507E+04 -1.297117E-09  1.967896E-10
       121  19  7.060059E+05  7.909915E+04  4.523435E+04 -9.298095E+04 -1.264085E+04  2.745183E+04
       121  20  7.736699E+05  9.439101E+04  5.416147E+04 -8.745084E+04 -1.188537E+04  3.261548E+04
       121  21  8.414852E+05  1.098133E+05  6.361725E+04 -9.293360E+04 -1.113086E+04  3.747621E+04
       121  22  3.552474E+05 -4.276036E+01  6.373084E+01 -9.299920E+04  1.815788E-01  2.745356E+04
       121  23  3.552263E+05 -5.957534E+01  7.300619E+01 -8.749255E+04  3.566244E+01  3.261859E+04
       121  24  3.552280E+05 -7.043343E+01  1.113007E+02 -9.299920E+04  7.010114E+01  3.748059E+04
       121  25  4.615176E+03 -7.918967E+04 -4.510689E+04 -9.301743E+04  1.263443E+04  2.745529E+04
       121  26 -6.303788E+04 -9.451735E+04 -5.401585E+04 -8.753422E+04  1.194906E+04  3.262170E+04
       121  27 -1.307874E+05 -1.099640E+05 -6.339564E+04 -9.306473E+04  1.126272E+04  3.748497E+04
       122   1  8.834930E+05  1.194292E+05  6.980162E+04 -9.287019E+04  1.094612E+04 -4.028001E+04
       122   2  9.507942E+05  1.351804E+05  8.129938E+04 -8.745455E+04  5.422507E+03 -4.378443E+04
       122   3  1.019106E+06  1.519535E+05  9.665340E+04 -9.288516E+04 -1.016797E+02 -4.501700E+04
       122   4  3.552300E+05 -7.764496E+01  1.427139E+02 -9.296222E+04 -9.055787E+01 -4.028530E+04
       122   5  3.551825E+05 -6.129036E+01  2.419216E+02 -8.753877E+04 -2.092729E+02 -4.379007E+04
       122   6  3.552027E+05  3.970802E+01  4.475420E+02 -9.296224E+04 -3.279002E+02 -4.502184E+04
       122   7 -1.727480E+05 -1.195963E+05 -6.951772E+04 -9.305415E+04 -1.111830E+04 -4.029059E+04
       122   8 -2.400686E+05 -1.353184E+05 -8.081901E+04 -8.762291E+04 -5.835902E+03 -4.379571E+04
       122   9 -3.082561E+05 -1.518943E+05 -9.576548E+04 -9.303924E+04 -5.538892E+02 -4.502668E+04
       122  10  8.834924E+05  1.194275E+05  6.979834E+04 -9.286984E+04  5.319649E-10 -5.568820E-10
       122  11  9.507937E+05  1.351783E+05  8.129572E+04 -8.745436E+04  2.283152E-09 -8.791795E-10
       122  12  1.019105E+06  1.519513E+05  9.664959E+04 -9.288517E+04  1.424100E-09 -1.980432E-09
       122  13  3.552296E+05 -7.938797E+01  1.396636E+02 -9.296222E+04  4.311795E-12 -3.594668E-10
       122  14  3.551820E+05 -6.334985E+01  2.383174E+02 -8.753878E+04 -5.181888E-11 -1.105912E-09
       122  15  3.552022E+05  3.753102E+01  4.437321E+02 -9.296226E+04  1.965641E-09 -1.950582E-09
       122  16 -1.727485E+05 -1.195980E+05 -6.952100E+04 -9.305451E+04  6.072405E-10 -2.176028E-11
       122  17 -2.400691E+05 -1.353204E+05 -8.082268E+04 -8.762311E+04 -1.345704E-09 -4.614802E-10
       122  18 -3.082566E+05 -1.518965E+05 -9.576929E+04 -9.303926E+04 -2.748938E-09 -1.691489E-09
       122  19  8.834930E+05  1.194292E+05  6.980162E+04 -9.287019E+04 -1.094612E+04  4.028001E+04
       122  20  9.507942E+05  1.351804E+05  8.129938E+04 -8.745455E+04 -5.422507E+03  4.378443E+04
       122  21  1.019106E+06  1.519535E+05  9.665340E+04 -9.288516E+04  1.016797E+02  4.501700E+04
       122  22  3.552300E+05 -7.764496E+01  1.427139E+02 -9.296222E+04  9.055787E+01  4.028530E+04
       122  23  3.551825E+05 -6.129036E+01  2.419216E+02 -8.753877E+04  2.092729E+02  4.379007E+04
       122  24  3.552027E+05  3.970802E+01  4.475420E+02 -9.296224E+04  3.279002E+02  4.502184E+04
       122  25 -1.727480E+05 -1.195963E+05 -6.951772E+04 -9.305415E+04  1.111830E+04  4.029059E+04
       122  26 -2.400686E+05 -1.353184E+05 -8.081901E+04 -8.762291E+04  5.835902E+03  4.379571E+04
       122  27 -3.082561E+05 -1.518943E+05 -9.576548E+04 -9.303924E+04  5.538892E+02  4.502668E+04
       123   1  1.062246E+06  1.626058E+05  1.067522E+05 -9.253094E+04 -1.424012E+03 -4.554320E+04
       123   2  1.126545E+06  1.819385E+05  1.371499E+05 -8.835647E+04 -4.236803E+04 -3.664448E+04
       123   3  1.198187E+06  2.091534E+05  1.961541E+05 -9.377124E+04 -8.333247E+04 -1.077303E+04
       123   4  3.552524E+05  9.527796E+01  6.001430E+02 -9.268249E+04 -4.062163E+02 -4.554787E+04
       123   5  3.550663E+05  5.684085E+02  1.099022E+03 -8.788866E+04 -9.580473E+02 -3.662912E+04
       123   6  3.552186E+05  1.922195E+03  2.183944E+03 -9.268327E+04 -1.524502E+03 -1.072800E+04
       123   7 -3.512398E+05 -1.624390E+05 -1.055618E+05 -9.283388E+04  6.104683E+02 -4.555255E+04
       123   8 -4.158273E+05 -1.808334E+05 -1.349673E+05 -8.742147E+04  4.040206E+04 -3.661369E+04
       123   9 -4.870793E+05 -2.053550E+05 -1.918082E+05 -9.159683E+04  8.017344E+04 -1.068267E+04
       123  10  1.062245E+06  1.626036E+05  1.067483E+05 -9.253099E+04 -3.242837E-09 -2.336863E-09
       123  11  1.126542E+06  1.819366E+05  1.371440E+05 -8.835772E+04  3.684299E-09 -2.037262E-09
       123  12  1.198180E+06  2.091514E+05  1.961409E+05 -9.377196E+04 -2.936378E-11 -4.309646E-10
       123  13  3.552519E+05  9.304978E+01  5.962435E+02 -9.268251E+04 -3.745681E-10 -3.373842E-09
       123  14  3.550659E+05  5.669673E+02  1.096499E+03 -8.788869E+04  3.010102E-10  1.210993E-09
       123  15  3.552186E+05  1.922070E+03  2.183724E+03 -9.268328E+04 -2.094771E-09  2.792353E-10
       123  16 -3.512404E+05 -1.624412E+05 -1.055657E+05 -9.283385E+04  1.954839E-09 -1.324620E-09
       123  17 -4.158295E+05 -1.808352E+05 -1.349729E+05 -8.742028E+04 -3.246894E-09  1.429599E-09
       123  18 -4.870863E+05 -2.053568E+05 -1.918205E+05 -9.159614E+04 -2.806809E-09 -1.721877E-10
       123  19  1.062246E+06  1.626058E+05  1.067522E+05 -9.253094E+04  1.424012E+03  4.554320E+04
       123  20  1.126545E+06  1.819385E+05  1.371499E+05 -8.835647E+04  4.236803E+04  3.664448E+04
       123  21  1.198187E+06  2.091534E+05  1.961541E+05 -9.377124E+04  8.333247E+04  1.077303E+04
       123  22  3.552524E+05  9.527796E+01  6.001430E+02 -9.268249E+04  4.062163E+02  4.554787E+04
       123  23  3.550663E+05  5.684085E+02  1.099022E+03 -8.788866E+04  9.580473E+02  3.662912E+04
       123  24  3.552186E+05  1.922195E+03  2.183944E+03 -9.268327E+04  1.524502E+03  1.072800E+04
       123  25 -3.512398E+05 -1.624390E+05 -1.055618E+05 -9.283388E+04 -6.104683E+02  4.555255E+04
       123  26 -4.158273E+05 -1.808334E+05 -1.349673E+05 -8.742147E+04 -4.040206E+04  3.661369E+04
       123  27 -4.870793E+05 -2.053550E+05 -1.918082E+05 -9.159683E+04 -8.017344E+04  1.068267E+04
       124   1  1.895308E+05  9.152359E+05  1.816983E+05 -2.741468E+05  7.029528E+03  4.821298E+04
       124   2  1.290440E+05  6.957573E+05  1.074005E+05 -2.544594E+05  2.050870E+04  1.055149E+04
       124   3  7.639640E+04  4.831650E+05  5.955235E+04 -2.719335E+05  1.719798E+04 -2.710137E+04
       124   4  3.197814E+03  1.614891E+05  3.317223E+03 -2.716395E+05  7.068204E+03  9.820468E+02
       124   5  1.253525E+03  1.612519E+05  2.694502E+03 -2.530587E+05  2.051959E+04 -3.672716E+02
       124   6  8.562718E+02  1.615654E+05  3.330036E+03 -2.716412E+05  1.717453E+04 -1.720822E+03
       124   7 -1.831747E+05 -5.917313E+05 -1.750949E+05 -2.691350E+05  7.106531E+03 -4.619192E+04
       124   8 -1.265541E+05 -3.729796E+05 -1.020248E+05 -2.516591E+05  2.053043E+04 -1.127685E+04
       124   9 -7.468913E+04 -1.599315E+05 -5.289355E+04 -2.713490E+05  1.715109E+04  2.364699E+04
       124  10  1.895301E+05  9.152334E+05  1.816938E+05 -2.741471E+05  2.718380E-09 -5.899873E-08
       124  11  1.290436E+05  6.957571E+05  1.073995E+05 -2.544596E+05  2.718227E-09  3.920592E-09
       124  12  7.639589E+04  4.831641E+05  5.955041E+04 -2.719331E+05  4.950970E-10  6.706875E-08
       124  13  3.197760E+03  1.614891E+05  3.317127E+03 -2.716395E+05 -3.867753E-10 -3.246673E-11
       124  14  1.253073E+03  1.612518E+05  2.693711E+03 -2.530587E+05  2.964151E-09 -5.067928E-10
       124  15  8.559543E+02  1.615654E+05  3.329476E+03 -2.716412E+05  1.684193E-09 -9.360361E-10
       124  16 -1.831753E+05 -5.917336E+05 -1.750990E+05 -2.691348E+05  1.006014E-09  5.890194E-08
       124  17 -1.265546E+05 -3.729799E+05 -1.020259E+05 -2.516589E+05  1.971197E-09 -3.858978E-09
       124  18 -7.468960E+04 -1.599322E+05 -5.289515E+04 -2.713494E+05  5.611563E-10 -6.706418E-08
       124  19  1.895308E+05  9.152359E+05  1.816983E+05 -2.741468E+05 -7.029528E+03 -4.821298E+04
       124  20  1.290440E+05  6.957573E+05  1.074005E+05 -2.544594E+05 -2.050870E+04 -1.055149E+04
       124  21  7.639640E+04  4.831650E+05  5.955235E+04 -2.719335E+05 -1.719798E+04  2.710137E+04
       124  22  3.197814E+03  1.614891E+05  3.317223E+03 -2.716395E+05 -7.068204E+03 -9.820468E+02
       124  23  1.253525E+03  1.612519E+05  2.694502E+03 -2.530587E+05 -2.051959E+04  3.672716E+02
       124  24  8.562718E+02  1.615654E+05  3.330036E+03 -2.716412E+05 -1.717453E+04  1.720822E+03
       124  25 -1.831747E+05 -5.917313E+05 -1.750949E+05 -2.691350E+05 -7.106531E+03  4.619192E+04
       124  26 -1.265541E+05 -3.729796E+05 -1.020248E+05 -2.516591E+05 -2.053043E+04  1.127685E+04
       124  27 -7.468913E+04 -1.599315E+05 -5.289355E+04 -2.713490E+05 -1.715109E+04 -2.364699E+04
       125   1  4.453153E+04  3.471496E+05  3.691602E+04 -2.723726E+05  9.615536E+03 -2.795091E+04
       125   2 -5.452049E+03  1.308359E+05  2.063553E+03 -2.518726E+05 -2.158119E+03 -3.091426E+04
       125   3 -5.332914E+04 -8.455768E+04 -3.034717E+04 -2.696055E+05 -1.377822E+04 -3.387639E+04
       125   4  8.692772E+02  1.616626E+05  4.040183E+03 -2.718789E+05  9.590766E+03 -2.339836E+03
       125   5  1.523016E+03  1.611947E+05  6.574316E+03 -2.527612E+05 -2.182244E+03 -5.639445E+03
       125   6  4.342986E+03  1.616577E+05  1.178141E+04 -2.718760E+05 -1.380175E+04 -8.938780E+03
       125   7 -4.279451E+04 -2.378939E+04 -2.883447E+04 -2.713853E+05  9.566032E+03  2.326381E+04
       125   8  8.498383E+03  1.915557E+05  1.108746E+04 -2.536500E+05 -2.206440E+03  1.963656E+04
       125   9  6.201223E+04  4.079340E+05  5.391030E+04 -2.741474E+05 -1.382545E+04  1.600840E+04
       125  10  4.453122E+04  3.471487E+05  3.691438E+04 -2.723724E+05  3.452121E-10  3.514268E-08
       125  11 -5.452311E+03  1.308349E+05  2.061748E+03 -2.518726E+05  2.742258E-09 -3.850568E-09
       125  12 -5.332965E+04 -8.455896E+04 -3.034968E+04 -2.696058E+05  8.117271E-09 -4.326576E-08
       125  13  8.691769E+02  1.616626E+05  4.040000E+03 -2.718789E+05 -1.339487E-09 -1.798354E-11
       125  14  1.523002E+03  1.611946E+05  6.574248E+03 -2.527612E+05 -8.065916E-09 -6.007747E-10
       125  15  4.342760E+03  1.616576E+05  1.178090E+04 -2.718761E+05 -1.391262E-08 -8.993855E-10
       125  16 -4.279476E+04 -2.378999E+04 -2.883566E+04 -2.713855E+05  2.558630E-09 -3.516972E-08
       125  17  8.498275E+03  1.915553E+05  1.108673E+04 -2.536499E+05  3.209785E-09  3.783443E-09
       125  18  6.201195E+04  4.079337E+05  5.390946E+04 -2.741472E+05  4.641021E-09  4.338030E-08
       125  19  4.453153E+04  3.471496E+05  3.691602E+04 -2.723726E+05 -9.615536E+03  2.795091E+04
       125  20 -5.452049E+03  1.308359E+05  2.063553E+03 -2.518726E+05  2.158119E+03  3.091426E+04
       125  21 -5.332914E+04 -8.455768E+04 -3.034717E+04 -2.696055E+05  1.377822E+04  3.387639E+04
       125  22  8.692772E+02  1.616626E+05  4.040183E+03 -2.718789E+05 -9.590766E+03  2.339836E+03
       125  23  1.523016E+03  1.611947E+05  6.574316E+03 -2.527612E+05  2.182244E+03  5.639445E+03
       125  24  4.342986E+03  1.616577E+05  1.178141E+04 -2.718760E+05  1.380175E+04  8.938780E+03
       125  25 -4.279451E+04 -2.378939E+04 -2.883447E+04 -2.713853E+05 -9.566032E+03 -2.326381E+04
       125  26  8.498383E+03  1.915557E+05  1.108746E+04 -2.536500E+05  2.206440E+03 -1.963656E+04
       125  27  6.201223E+04  4.079340E+05  5.391030E+04 -2.741474E+05  1.382545E+04 -1.600840E+04
       126   1 -8.416521E+04 -2.191128E+05 -5.005960E+04 -2.710014E+05 -2.122181E+04 -3.565770E+04
       126   2 -1.247302E+05 -4.356287E+05 -8.682830E+04 -2.347359E+05 -2.363696E+04 -1.125404E+04
       126   3 -1.476823E+05 -6.508724E+05 -1.350902E+05 -2.355376E+05 -7.969722E+03  1.314505E+04
       126   4  5.443249E+03  1.632120E+05  1.563306E+04 -2.716169E+05 -2.124384E+04 -1.098133E+04
       126   5  1.737900E+04  1.591700E+05  2.864872E+04 -2.530699E+05 -2.362269E+04 -2.562028E+04
       126   6  5.369604E+04  1.631233E+05  5.728146E+04 -2.715820E+05 -7.928532E+03 -4.025513E+04
       126   7  9.504421E+04  5.456818E+05  8.132306E+04 -2.722326E+05 -2.126590E+04  1.370977E+04
       126   8  1.594684E+05  7.543097E+05  1.441100E+05 -2.714218E+05 -2.360757E+04 -3.999997E+04
       126   9  2.550333E+05  9.777373E+05  2.496187E+05 -3.076737E+05 -7.881177E+03 -9.372496E+04
       126  10 -8.416603E+04 -2.191143E+05 -5.006284E+04 -2.710020E+05  5.010480E-09  1.156968E-07
       126  11 -1.247309E+05 -4.356290E+05 -8.682959E+04 -2.347361E+05  5.154815E-09  1.199108E-08
       126  12 -1.476824E+05 -6.508726E+05 -1.350907E+05 -2.355375E+05  3.120478E-09 -9.085085E-08
       126  13  5.442732E+03  1.632118E+05  1.563198E+04 -2.716171E+05 -1.434634E-08  9.950412E-12
       126  14  1.737823E+04  1.591691E+05  2.864644E+04 -2.530704E+05 -6.889822E-09 -4.284520E-10
       126  15  5.369553E+04  1.631215E+05  5.727830E+04 -2.715823E+05 -1.837974E-09 -5.891720E-10
       126  16  9.504368E+04  5.456815E+05  8.132186E+04 -2.722324E+05  4.707987E-09 -1.156577E-07
       126  17  1.594674E+05  7.543079E+05  1.441060E+05 -2.714225E+05  1.208791E-09 -1.189733E-08
       126  18  2.550308E+05  9.777279E+05  2.496021E+05 -3.076743E+05  2.937633E-09  9.108585E-08
       126  19 -8.416521E+04 -2.191128E+05 -5.005960E+04 -2.710014E+05  2.122181E+04  3.565770E+04
       126  20 -1.247302E+05 -4.356287E+05 -8.682830E+04 -2.347359E+05  2.363696E+04  1.125404E+04
       126  21 -1.476823E+05 -6.508724E+05 -1.350902E+05 -2.355376E+05  7.969722E+03 -1.314505E+04
       126  22  5.443249E+03  1.632120E+05  1.563306E+04 -2.716169E+05  2.124384E+04  1.098133E+04
       126  23  1.737900E+04  1.591700E+05  2.864872E+04 -2.530699E+05  2.362269E+04  2.562028E+04
       126  24  5.369604E+04  1.631233E+05  5.728146E+04 -2.715820E+05  7.928532E+03  4.025513E+04
       126  25  9.504421E+04  5.456818E+05  8.132306E+04 -2.722326E+05  2.126590E+04 -1.370977E+04
       126  26  1.594684E+05  7.543097E+05  1.441100E+05 -2.714218E+05  2.360757E+04  3.999997E+04
       126  27  2.550333E+05  9.777373E+05  2.496187E+05 -3.076737E+05  7.881177E+03  9.372496E+04
       127   1 -3.653710E+05 -2.055259E+05 -1.299092E+05 -1.539292E+05 -6.320162E+04 -2.021346E+04
       127   2 -3.429723E+05 -1.269197E+05 -7.479922E+04 -1.437985E+05 -3.954201E+04 -3.590239E+03
       127   3 -3.356052E+05 -9.674907E+04 -5.107508E+04 -1.285744E+05 -1.369121E+04  7.201287E+03
       127   4 -1.797558E+05 -1.007503E+05 -7.491308E+04 -6.702729E+04 -4.947622E+04 -1.506651E+04
       127   5 -1.689415E+05 -4.813836E+04 -3.417320E+04 -8.053450E+04 -3.406641E+04 -1.536766E+03
       127   6 -1.715193E+05 -4.232189E+04 -1.827638E+04 -8.895087E+04 -1.646649E+04  6.159758E+03
       127   7  5.894104E+03  4.041686E+03 -1.991996E+04  1.990136E+04 -3.574654E+04 -9.915991E+03
       127   8  5.120116E+03  3.064987E+04  6.450752E+03 -1.725292E+04 -2.858918E+04  5.176465E+02
       127   9 -7.404902E+03  1.210672E+04  1.452130E+04 -4.931803E+04 -1.924259E+04  5.117990E+03
       127  10 -3.653754E+05 -2.055274E+05 -1.299175E+05 -1.539303E+05  1.058530E-09  4.356949E-10
       127  11 -3.429740E+05 -1.269202E+05 -7.480218E+04 -1.437986E+05 -6.579329E-09 -1.752131E-09
       127  12 -3.356055E+05 -9.674918E+04 -5.107553E+04 -1.285743E+05 -1.151151E-08 -3.391039E-10
       127  13 -1.797585E+05 -1.007512E+05 -7.491811E+04 -6.702789E+04 -6.083490E-09 -6.874680E-10
       127  14 -1.689427E+05 -4.813867E+04 -3.417539E+04 -8.053454E+04 -1.127496E-08 -1.818887E-09
       127  15 -1.715196E+05 -4.232200E+04 -1.827696E+04 -8.895079E+04 -3.623169E-09  1.632165E-09
       127  16  5.892705E+03  4.041237E+03 -1.992255E+04  1.990107E+04 -6.840858E-09 -2.596114E-09
       127  17  5.119238E+03  3.064965E+04  6.449216E+03 -1.725291E+04 -4.587443E-09 -1.242665E-09
       127  18 -7.405306E+03  1.210659E+04  1.452056E+04 -4.931795E+04  4.271161E-09  3.943853E-09
       127  19 -3.653710E+05 -2.055259E+05 -1.299092E+05 -1.539292E+05  6.320162E+04  2.021346E+04
       127  20 -3.429723E+05 -1.269197E+05 -7.479922E+04 -1.437985E+05  3.954201E+04  3.590239E+03
       127  21 -3.356052E+05 -9.674907E+04 -5.107508E+04 -1.285744E+05  1.369121E+04 -7.201287E+03
       127  22 -1.797558E+05 -1.007503E+05 -7.491308E+04 -6.702729E+04  4.947622E+04  1.506651E+04
       127  23 -1.689415E+05 -4.813836E+04 -3.417320E+04 -8.053450E+04  3.406641E+04  1.536766E+03
       127  24 -1.715193E+05 -4.232189E+04 -1.827638E+04 -8.895087E+04  1.646649E+04 -6.159758E+03
       127  25  5.894104E+03  4.041686E+03 -1.991996E+04  1.990136E+04  3.574654E+04  9.915991E+03
       127  26  5.120116E+03  3.064987E+04  6.450752E+03 -1.725292E+04  2.858918E+04 -5.176465E+02
       127  27 -7.404902E+03  1.210672E+04  1.452130E+04 -4.931803E+04  1.924259E+04 -5.117990E+03
       128   1 -3.111265E+05 -9.711206E+04 -4.311535E+04 -1.272571E+05 -1.229680E+04  6.428978E+03
       128   2 -2.878270E+05 -8.269486E+04 -3.091230E+04 -1.174616E+05 -7.522634E+03  6.681994E+03
       128   3 -2.608403E+05 -7.524941E+04 -2.241039E+04 -1.130365E+05 -2.601017E+03  6.541994E+03
       128   4 -1.692477E+05 -4.444603E+04 -1.396575E+04 -8.714756E+04 -1.392839E+04  5.816560E+03
       128   5 -1.709831E+05 -3.986350E+04 -7.378034E+03 -8.489385E+04 -9.709616E+03  5.861344E+03
       128   6 -1.689214E+05 -4.214242E+04 -4.050679E+03 -8.801085E+04 -5.343550E+03  5.513080E+03
       128   7 -2.734932E+04  8.221414E+03  1.518249E+04 -4.702980E+04 -1.556038E+04  5.203991E+03
       128   8 -5.412506E+04  2.969067E+03  1.615558E+04 -5.232042E+04 -1.189704E+04  5.040526E+03
       128   9 -7.699305E+04 -9.034475E+03  1.430886E+04 -6.298158E+04 -8.086541E+03  4.483999E+03
       128  10 -3.111267E+05 -9.711214E+04 -4.311571E+04 -1.272571E+05  2.355515E-10  3.935343E-09
       128  11 -2.878271E+05 -8.269492E+04 -3.091249E+04 -1.174616E+05  3.422731E-09  1.205361E-10
       128  12 -2.608403E+05 -7.524946E+04 -2.241048E+04 -1.130365E+05  1.899645E-09 -2.627815E-09
       128  13 -1.692479E+05 -4.444612E+04 -1.396618E+04 -8.714749E+04 -9.776093E-10  3.007680E-09
       128  14 -1.709832E+05 -3.986356E+04 -7.378276E+03 -8.489381E+04  2.286937E-09 -2.518958E-10
       128  15 -1.689214E+05 -4.214246E+04 -4.050790E+03 -8.801083E+04  2.194126E-09 -2.419530E-09
       128  16 -2.734959E+04  8.221320E+03  1.518199E+04 -4.702973E+04  1.541082E-10  1.516001E-09
       128  17 -5.412522E+04  2.969002E+03  1.615527E+04 -5.232038E+04 -4.641665E-10  7.383529E-10
       128  18 -7.699312E+04 -9.034515E+03  1.430870E+04 -6.298155E+04 -3.685232E-09 -2.019498E-09
       128  19 -3.111265E+05 -9.711206E+04 -4.311535E+04 -1.272571E+05  1.229680E+04 -6.428978E+03
       128  20 -2.878270E+05 -8.269486E+04 -3.091230E+04 -1.174616E+05  7.522634E+03 -6.681994E+03
       128  21 -2.608403E+05 -7.524941E+04 -2.241039E+04 -1.130365E+05  2.601017E+03 -6.541994E+03
       128  22 -1.692477E+05 -4.444603E+04 -1.396575E+04 -8.714756E+04  1.392839E+04 -5.816560E+03
       128  23 -1.709831E+05 -3.986350E+04 -7.378034E+03 -8.489385E+04  9.709616E+03 -5.861344E+03
       128  24 -1.689214E+05 -4.214242E+04 -4.050679E+03 -8.801085E+04  5.343550E+03 -5.513080E+03
       128  25 -2.734932E+04  8.221414E+03  1.518249E+04 -4.702980E+04  1.556038E+04 -5.203991E+03
       128  26 -5.412506E+04  2.969067E+03  1.615558E+04 -5.232042E+04  1.189704E+04 -5.040526E+03
       128  27 -7.699305E+04 -9.034475E+03  1.430886E+04 -6.298158E+04  8.086541E+03 -4.483999E+03
       129   1 -2.431295E+05 -6.922003E+04 -1.781238E+04 -1.083957E+05 -1.685846E+03  5.599132E+03
       129   2 -2.200909E+05 -5.741387E+04 -1.141248E+04 -9.851446E+04 -1.005079E+02  4.029988E+03
       129   3 -1.922115E+05 -5.069577E+04 -5.685278E+03 -9.436140E+04  1.494720E+03  2.434220E+03
       129   4 -1.687555E+05 -4.223255E+04 -3.048913E+03 -8.790764E+04 -4.351775E+03  4.599020E+03
       129   5 -1.711756E+05 -3.966974E+04 -1.676746E+03 -8.505173E+04 -2.804033E+03  3.015844E+03
       129   6 -1.687482E+05 -4.218747E+04 -9.473794E+02 -8.792413E+04 -1.246446E+03  1.406034E+03
       129   7 -9.437571E+04 -1.524460E+04  1.171431E+04 -6.741734E+04 -7.018046E+03  3.598782E+03
       129   8 -1.222581E+05 -2.192548E+04  8.058851E+03 -7.158808E+04 -5.507776E+03  2.001619E+03
       129   9 -1.452845E+05 -3.367919E+04  3.790469E+03 -8.148668E+04 -3.987700E+03  3.778146E+02
       129  10 -2.431295E+05 -6.922007E+04 -1.781244E+04 -1.083957E+05 -1.587504E-08 -7.766503E-09
       129  11 -2.200909E+05 -5.741389E+04 -1.141252E+04 -9.851446E+04  1.743861E-09 -9.015825E-10
       129  12 -1.922115E+05 -5.069578E+04 -5.685294E+03 -9.436141E+04  1.208224E-08  7.811331E-09
       129  13 -1.687555E+05 -4.223257E+04 -3.048988E+03 -8.790762E+04  1.559092E-10 -3.570189E-09
       129  14 -1.711757E+05 -3.966975E+04 -1.676778E+03 -8.505173E+04 -1.319176E-09 -4.232893E-09
       129  15 -1.687482E+05 -4.218747E+04 -9.473861E+02 -8.792413E+04 -1.697061E-09 -4.049800E-09
       129  16 -9.437577E+04 -1.524463E+04  1.171420E+04 -6.741732E+04  6.926397E-09  2.996524E-09
       129  17 -1.222581E+05 -2.192549E+04  8.058786E+03 -7.158807E+04 -7.587268E-10  2.366211E-09
       129  18 -1.452845E+05 -3.367919E+04  3.790439E+03 -8.148668E+04 -1.088639E-08  1.613034E-09
       129  19 -2.431295E+05 -6.922003E+04 -1.781238E+04 -1.083957E+05  1.685846E+03 -5.599132E+03
       129  20 -2.200909E+05 -5.741387E+04 -1.141248E+04 -9.851446E+04  1.005079E+02 -4.029988E+03
       129  21 -1.922115E+05 -5.069577E+04 -5.685278E+03 -9.436140E+04 -1.494720E+03 -2.434220E+03
       129  22 -1.687555E+05 -4.223255E+04 -3.048913E+03 -8.790764E+04  4.351775E+03 -4.599020E+03
       129  23 -1.711756E+05 -3.966974E+04 -1.676746E+03 -8.505173E+04  2.804033E+03 -3.015844E+03
       129  24 -1.687482E+05 -4.218747E+04 -9.473794E+02 -8.792413E+04  1.246446E+03 -1.406034E+03
       129  25 -9.437571E+04 -1.524460E+04  1.171431E+04 -6.741734E+04  7.018046E+03 -3.598782E+03
       129  26 -1.222581E+05 -2.192548E+04  8.058851E+03 -7.158808E+04  5.507776E+03 -2.001619E+03
       129  27 -1.452845E+05 -3.367919E+04  3.790469E+03 -8.148668E+04  3.987700E+03 -3.778146E+02
       130   1 -1.748619E+05 -4.437446E+04 -1.873457E+03 -8.957730E+04  2.051769E+03  1.357382E+03
       130   2 -1.518949E+05 -3.263326E+04  3.386607E+03 -7.967280E+04  3.007212E+03 -4.902114E+02
       130   3 -1.239711E+05 -2.588706E+04  8.474848E+03 -7.548937E+04  3.963254E+03 -2.339294E+03
       130   4 -1.687272E+05 -4.219071E+04 -7.295183E+02 -8.791425E+04 -6.843332E+02  3.311076E+02
       130   5 -1.712060E+05 -3.969777E+04 -4.576884E+02 -8.505184E+04  2.689156E+02 -1.517344E+03
       130   6 -1.687287E+05 -4.219971E+04 -3.561240E+02 -8.791097E+04  1.222749E+03 -3.367284E+03
       130   7 -1.625923E+05 -4.000694E+04  4.144653E+02 -8.625116E+04 -3.420487E+03 -6.951857E+02
       130   8 -1.905167E+05 -4.676227E+04 -4.301993E+03 -9.043075E+04 -2.469302E+03 -2.544447E+03
       130   9 -2.134842E+05 -5.851219E+04 -9.187160E+03 -1.003318E+05 -1.517544E+03 -4.395195E+03
       130  10 -1.748620E+05 -4.437446E+04 -1.873468E+03 -8.957731E+04 -3.563842E-08 -8.902908E-09
       130  11 -1.518949E+05 -3.263327E+04  3.386590E+03 -7.967280E+04 -1.045277E-08 -5.952478E-10
       130  12 -1.239711E+05 -2.588707E+04  8.474808E+03 -7.548936E+04  2.756807E-08  1.116789E-08
       130  13 -1.687272E+05 -4.219071E+04 -7.295194E+02 -8.791425E+04 -3.773236E-09 -4.738905E-09
       130  14 -1.712060E+05 -3.969777E+04 -4.576928E+02 -8.505184E+04 -8.370104E-09 -5.494175E-09
       130  15 -1.687287E+05 -4.219972E+04 -3.561482E+02 -8.791097E+04 -4.538321E-09 -2.330588E-09
       130  16 -1.625923E+05 -4.000694E+04  4.144424E+02 -8.625116E+04  3.289347E-08  1.688359E-08
       130  17 -1.905167E+05 -4.676228E+04 -4.302017E+03 -9.043075E+04 -4.128472E-09 -4.844434E-10
       130  18 -2.134842E+05 -5.851221E+04 -9.187201E+03 -1.003318E+05 -3.574012E-08 -1.384133E-08
       130  19 -1.748619E+05 -4.437446E+04 -1.873457E+03 -8.957730E+04 -2.051769E+03 -1.357382E+03
       130  20 -1.518949E+05 -3.263326E+04  3.386607E+03 -7.967280E+04 -3.007212E+03  4.902114E+02
       130  21 -1.239711E+05 -2.588706E+04  8.474848E+03 -7.548937E+04 -3.963254E+03  2.339294E+03
       130  22 -1.687272E+05 -4.219071E+04 -7.295183E+02 -8.791425E+04  6.843332E+02 -3.311076E+02
       130  23 -1.712060E+05 -3.969777E+04 -4.576884E+02 -8.505184E+04 -2.689156E+02  1.517344E+03
       130  24 -1.687287E+05 -4.219971E+04 -3.561240E+02 -8.791097E+04 -1.222749E+03  3.367284E+03
       130  25 -1.625923E+05 -4.000694E+04  4.144653E+02 -8.625116E+04  3.420487E+03  6.951857E+02
       130  26 -1.905167E+05 -4.676227E+04 -4.301993E+03 -9.043075E+04  2.469302E+03  2.544447E+03
       130  27 -2.134842E+05 -5.851219E+04 -9.187160E+03 -1.003318E+05  1.517544E+03  4.395195E+03
       131   1 -1.066575E+05 -1.955263E+04  1.206993E+04 -7.070215E+04  4.445329E+03 -3.443994E+03
       131   2 -8.369810E+04 -7.807082E+03  1.696314E+04 -6.080060E+04  5.389099E+03 -5.296780E+03
       131   3 -5.578104E+04 -1.054222E+03  2.169375E+04 -5.661793E+04  6.331936E+03 -7.146645E+03
       131   4 -1.687293E+05 -4.219991E+04 -3.539993E+02 -8.791050E+04  1.704861E+03 -4.472013E+03
       131   5 -1.712078E+05 -3.970152E+04 -4.459351E+02 -8.505182E+04  2.652634E+03 -6.323418E+03
       131   6 -1.687300E+05 -4.219662E+04 -7.036335E+02 -8.791224E+04  3.599469E+03 -8.171911E+03
       131   7 -2.307967E+05 -6.484667E+04 -1.277794E+04 -1.051171E+05 -1.035290E+03 -5.499913E+03
       131   8 -2.587096E+05 -7.159530E+04 -1.785535E+04 -1.092999E+05 -8.341622E+01 -7.349901E+03
       131   9 -2.816667E+05 -8.333826E+04 -2.310184E+04 -1.192015E+05  8.675142E+02 -9.196986E+03
       131  10 -1.066575E+05 -1.955265E+04  1.206987E+04 -7.070214E+04 -1.215511E-09  1.957901E-10
       131  11 -8.369814E+04 -7.807120E+03  1.696304E+04 -6.080057E+04  1.645776E-09  1.139689E-09
       131  12 -5.578110E+04 -1.054288E+03  2.169358E+04 -5.661789E+04  2.676338E-09  4.815841E-10
       131  13 -1.687293E+05 -4.219994E+04 -3.540424E+02 -8.791050E+04 -2.080562E-09 -1.496172E-10
       131  14 -1.712078E+05 -3.970157E+04 -4.460235E+02 -8.505181E+04 -4.674771E-09  9.582252E-10
       131  15 -1.687300E+05 -4.219670E+04 -7.037834E+02 -8.791222E+04 -1.579201E-09  6.417309E-10
       131  16 -2.307967E+05 -6.484670E+04 -1.277800E+04 -1.051171E+05 -8.911045E-10 -5.005762E-10
       131  17 -2.587096E+05 -7.159536E+04 -1.785545E+04 -1.092999E+05 -4.008817E-09  8.515666E-10
       131  18 -2.816667E+05 -8.333835E+04 -2.310200E+04 -1.192015E+05 -4.050882E-09  1.232743E-09
       131  19 -1.066575E+05 -1.955263E+04  1.206993E+04 -7.070215E+04 -4.445329E+03  3.443994E+03
       131  20 -8.369810E+04 -7.807082E+03  1.696314E+04 -6.080060E+04 -5.389099E+03  5.296780E+03
       131  21 -5.578104E+04 -1.054222E+03  2.169375E+04 -5.661793E+04 -6.331936E+03  7.146645E+03
       131  22 -1.687293E+05 -4.219991E+04 -3.539993E+02 -8.791050E+04 -1.704861E+03  4.472013E+03
       131  23 -1.712078E+05 -3.970152E+04 -4.459351E+02 -8.505182E+04 -2.652634E+03  6.323418E+03
       131  24 -1.687300E+05 -4.219662E+04 -7.036335E+02 -8.791224E+04 -3.599469E+03  8.171911E+03
       131  25 -2.307967E+05 -6.484667E+04 -1.277794E+04 -1.051171E+05  1.035290E+03  5.499913E+03
       131  26 -2.587096E+05 -7.159530E+04 -1.785535E+04 -1.092999E+05  8.341622E+01  7.349901E+03
       131  27 -2.816667E+05 -8.333826E+04 -2.310184E+04 -1.192015E+05 -8.675142E+02  9.196986E+03
       132   1 -3.848485E+04  5.271558E+03  2.507730E+04 -5.185167E+04  6.895963E+03 -8.219958E+03
       132   2 -1.548803E+04  1.701767E+04  2.937806E+04 -4.195666E+04  8.361408E+03 -9.854980E+03
       132   3  1.237104E+04  2.370199E+04  3.310645E+04 -3.778206E+04  9.812183E+03 -1.145008E+04
       132   4 -1.687517E+05 -4.219386E+04 -9.116297E+02 -8.792076E+04  4.156367E+03 -9.248005E+03
       132   5 -1.711820E+05 -3.968153E+04 -1.610112E+03 -8.505199E+04  5.678021E+03 -1.086215E+04
       132   6 -1.687617E+05 -4.224229E+04 -2.925564E+03 -8.790402E+04  7.184966E+03 -1.243638E+04
       132   7 -2.990009E+05 -8.965780E+04 -2.690133E+04 -1.239828E+05  1.417389E+03 -1.027582E+04
       132   8 -3.268503E+05 -9.637838E+04 -3.259921E+04 -1.281372E+05  2.995368E+03 -1.186906E+04
       132   9 -3.498591E+05 -1.081832E+05 -3.895868E+04 -1.380120E+05  4.558593E+03 -1.342237E+04
       132  10 -3.848492E+04  5.271473E+03  2.507708E+04 -5.185163E+04  4.230885E-09 -1.647830E-10
       132  11 -1.548814E+04  1.701755E+04  2.937774E+04 -4.195660E+04 -1.443002E-10 -1.752558E-09
       132  12  1.237090E+04  2.370183E+04  3.310602E+04 -3.778197E+04 -4.150725E-09  1.104159E-09
       132  13 -1.687517E+05 -4.219396E+04 -9.118229E+02 -8.792073E+04  8.679727E-11 -4.425046E-10
       132  14 -1.711821E+05 -3.968167E+04 -1.610395E+03 -8.505194E+04 -7.897912E-09 -1.301030E-09
       132  15 -1.687618E+05 -4.224247E+04 -2.925951E+03 -8.790394E+04 -2.298239E-09  5.767461E-10
       132  16 -2.990010E+05 -8.965791E+04 -2.690153E+04 -1.239828E+05 -6.167434E-09 -6.240859E-10
       132  17 -3.268503E+05 -9.637853E+04 -3.259950E+04 -1.281371E+05 -3.974046E-09 -1.774586E-09
       132  18 -3.498591E+05 -1.081834E+05 -3.895906E+04 -1.380120E+05  1.343165E-09  6.487818E-11
       132  19 -3.848485E+04  5.271558E+03  2.507730E+04 -5.185167E+04 -6.895963E+03  8.219958E+03
       132  20 -1.548803E+04  1.701767E+04  2.937806E+04 -4.195666E+04 -8.361408E+03  9.854980E+03
       132  21  1.237104E+04  2.370199E+04  3.310645E+04 -3.778206E+04 -9.812183E+03  1.145008E+04
       132  22 -1.687517E+05 -4.219386E+04 -9.116297E+02 -8.792076E+04 -4.156367E+03  9.248005E+03
       132  23 -1.711820E+05 -3.968153E+04 -1.610112E+03 -8.505199E+04 -5.678021E+03  1.086215E+04
       132  24 -1.687617E+05 -4.224229E+04 -2.925564E+03 -8.790402E+04 -7.184966E+03  1.243638E+04
       132  25 -2.990009E+05 -8.965780E+04 -2.690133E+04 -1.239828E+05 -1.417389E+03  1.027582E+04
       132  26 -3.268503E+05 -9.637838E+04 -3.259921E+04 -1.281372E+05 -2.995368E+03  1.186906E+04
       132  27 -3.498591E+05 -1.081832E+05 -3.895868E+04 -1.380120E+05 -4.558593E+03  1.342237E+04
       133   1  2.973406E+04  2.991852E+04  3.573984E+04 -3.332613E+04  1.089448E+04 -1.232873E+04
       133   2  5.254426E+04  4.190300E+04  3.780748E+04 -2.272256E+04  1.424718E+04 -1.294537E+04
       133   3  7.935243E+04  4.728641E+04  3.740439E+04 -1.747863E+04  1.738108E+04 -1.297772E+04
       133   4 -1.689229E+05 -4.215358E+04 -3.885700E+03 -8.799864E+04  8.153622E+03 -1.335783E+04
       133   5 -1.709977E+05 -3.987769E+04 -7.077385E+03 -8.490402E+04  1.233212E+04 -1.366483E+04
       133   6 -1.692395E+05 -4.436749E+04 -1.339502E+04 -8.716977E+04  1.629165E+04 -1.338746E+04
       133   7 -3.675408E+05 -1.142230E+05 -4.351357E+04 -1.426555E+05  5.413682E+03 -1.438660E+04
       133   8 -3.944891E+05 -1.216544E+05 -5.196494E+04 -1.470651E+05  1.041779E+04 -1.438402E+04
       133   9 -4.177680E+05 -1.360159E+05 -6.419759E+04 -1.568351E+05  1.520270E+04 -1.379702E+04
       133  10  2.973390E+04  2.991832E+04  3.573934E+04 -3.332602E+04  2.679151E-10  4.198558E-09
       133  11  5.254400E+04  4.190277E+04  3.780678E+04 -2.272241E+04 -4.393792E-09  3.036026E-09
       133  12  7.935206E+04  4.728614E+04  3.740350E+04 -1.747845E+04 -1.044629E-09  3.871495E-09
       133  13 -1.689230E+05 -4.215379E+04 -3.886160E+03 -8.799856E+04  3.583252E-09  1.952761E-09
       133  14 -1.709979E+05 -3.987793E+04 -7.078022E+03 -8.490389E+04  2.742307E-09  2.159693E-09
       133  15 -1.692399E+05 -4.436776E+04 -1.339585E+04 -8.716960E+04  1.358376E-09  2.731346E-09
       133  16 -3.675409E+05 -1.142232E+05 -4.351401E+04 -1.426554E+05  3.088378E-09 -9.092490E-12
       133  17 -3.944893E+05 -1.216546E+05 -5.196553E+04 -1.470649E+05  7.033392E-09  1.569027E-09
       133  18 -4.177683E+05 -1.360162E+05 -6.419838E+04 -1.568349E+05 -5.812544E-10  1.368406E-09
       133  19  2.973406E+04  2.991852E+04  3.573984E+04 -3.332613E+04 -1.089448E+04  1.232873E+04
       133  20  5.254426E+04  4.190300E+04  3.780748E+04 -2.272256E+04 -1.424718E+04  1.294537E+04
       133  21  7.935243E+04  4.728641E+04  3.740439E+04 -1.747863E+04 -1.738108E+04  1.297772E+04
       133  22 -1.689229E+05 -4.215358E+04 -3.885700E+03 -8.799864E+04 -8.153622E+03  1.335783E+04
       133  23 -1.709977E+05 -3.987769E+04 -7.077385E+03 -8.490402E+04 -1.233212E+04  1.366483E+04
       133  24 -1.692395E+05 -4.436749E+04 -1.339502E+04 -8.716977E+04 -1.629165E+04  1.338746E+04
       133  25 -3.675408E+05 -1.142230E+05 -4.351357E+04 -1.426555E+05 -5.413682E+03  1.438660E+04
       133  26 -3.944891E+05 -1.216544E+05 -5.196494E+04 -1.470651E+05 -1.041779E+04  1.438402E+04
       133  27 -4.177680E+05 -1.360159E+05 -6.419759E+04 -1.568351E+05 -1.520270E+04  1.379702E+04
       134   1  9.925644E+04  5.134112E+04  3.694144E+04 -1.940646E+04  2.153411E+04 -1.271718E+04
       134   2  1.118886E+05  6.967011E+04  3.089400E+04  1.144803E+04  2.560606E+04 -8.488025E+03
       134   3  1.141661E+05  4.552226E+04  1.074434E+04  4.713774E+04  2.642315E+04  4.407081E+03
       134   4 -1.714482E+05 -4.230145E+04 -1.752905E+04 -8.886444E+04  1.874462E+04 -1.376519E+04
       134   5 -1.690083E+05 -4.785478E+04 -3.277681E+04 -8.076583E+04  3.508081E+04 -4.931244E+03
       134   6 -1.793607E+05 -9.832755E+04 -7.184951E+04 -6.783135E+04  4.816091E+04  1.256998E+04
       134   7 -4.420772E+05 -1.359396E+05 -7.200299E+04 -1.582952E+05  1.595645E+04 -1.481276E+04
       134   8 -4.498207E+05 -1.653651E+05 -9.645123E+04 -1.729379E+05  4.455083E+04 -1.376788E+03
       134   9 -4.727924E+05 -2.421486E+05 -1.544471E+05 -1.827423E+05  6.988695E+04  2.072550E+04
       134  10  9.925590E+04  5.134083E+04  3.694027E+04 -1.940624E+04 -2.836838E-09  3.592614E-09
       134  11  1.118878E+05  6.966986E+04  3.089263E+04  1.144821E+04  9.482844E-09  1.214932E-09
       134  12  1.141653E+05  4.552205E+04  1.074299E+04  4.713765E+04  5.418277E-09  1.454994E-09
       134  13 -1.714486E+05 -4.230175E+04 -1.753006E+04 -8.886424E+04  1.508535E-09  2.759539E-09
       134  14 -1.690097E+05 -4.785513E+04 -3.277916E+04 -8.076569E+04  5.688718E-09  2.301356E-09
       134  15 -1.793632E+05 -9.832834E+04 -7.185416E+04 -6.783184E+04  2.771229E-09  2.300041E-09
       134  16 -4.420775E+05 -1.359399E+05 -7.200388E+04 -1.582950E+05  3.184729E-09  1.726075E-09
       134  17 -4.498229E+05 -1.653657E+05 -9.645497E+04 -1.729378E+05  4.976611E-09  3.390406E-09
       134  18 -4.727978E+05 -2.421503E+05 -1.544571E+05 -1.827434E+05 -7.672305E-10  1.827072E-10
       134  19  9.925644E+04  5.134112E+04  3.694144E+04 -1.940646E+04 -2.153411E+04  1.271718E+04
       134  20  1.118886E+05  6.967011E+04  3.089400E+04  1.144803E+04 -2.560606E+04  8.488025E+03
       134  21  1.141661E+05  4.552226E+04  1.074434E+04  4.713774E+04 -2.642315E+04 -4.407081E+03
       134  22 -1.714482E+05 -4.230145E+04 -1.752905E+04 -8.886444E+04 -1.874462E+04  1.376519E+04
       134  23 -1.690083E+05 -4.785478E+04 -3.277681E+04 -8.076583E+04 -3.508081E+04  4.931244E+03
       134  24 -1.793607E+05 -9.832755E+04 -7.184951E+04 -6.783135E+04 -4.816091E+04 -1.256998E+04
       134  25 -4.420772E+05 -1.359396E+05 -7.200299E+04 -1.582952E+05 -1.595645E+04  1.481276E+04
       134  26 -4.498207E+05 -1.653651E+05 -9.645123E+04 -1.729379E+05 -4.455083E+04  1.376788E+03
       134  27 -4.727924E+05 -2.421486E+05 -1.544471E+05 -1.827423E+05 -6.988695E+04 -2.072550E+04
       135   1  8.361692E+05  1.324048E+05  1.178705E+05  1.443043E+04  3.463595E+04 -9.943211E+03
       135   2  8.010818E+05  1.471060E+05  9.855139E+04  2.701124E+04  1.423906E+04 -3.437031E+04
       135   3  7.649033E+05  1.467285E+05  8.874864E+04  4.468403E+04 -6.166263E+03 -4.353829E+04
       135   4  1.113587E+05 -4.583315E+04 -4.920050E+04  4.454676E+04 -3.461851E+04 -1.000101E+04
       135   5  1.147756E+05 -1.467223E+04 -2.457480E+04  4.197986E+04 -2.202338E+04 -3.440747E+04
       135   6  1.113715E+05 -4.325287E+03 -1.333348E+04  4.450469E+04 -9.438199E+03 -4.354607E+04
       135   7 -6.129542E+05 -2.241018E+05 -2.162878E+05  7.462758E+04 -1.037928E+05 -1.006556E+04
       135   8 -5.710686E+05 -1.764751E+05 -1.477141E+05  5.693136E+04 -5.824689E+04 -3.444640E+04
       135   9 -5.417347E+05 -1.554000E+05 -1.154257E+05  4.432543E+04 -1.270682E+04 -4.355385E+04
       135  10  8.361679E+05  1.324044E+05  1.178680E+05  1.443071E+04 -2.220107E-08  1.297402E-10
       135  11  8.010812E+05  1.471047E+05  9.854878E+04  2.701164E+04  9.080292E-09  6.019188E-10
       135  12  7.649028E+05  1.467265E+05  8.874500E+04  4.468381E+04  4.121533E-08  3.670932E-09
       135  13  1.113574E+05 -4.583357E+04 -4.920293E+04  4.454648E+04 -2.096110E-09 -9.925314E-10
       135  14  1.147747E+05 -1.467363E+04 -2.457794E+04  4.197924E+04 -2.046769E-09 -7.795370E-09
       135  15  1.113709E+05 -4.327348E+03 -1.333721E+04  4.450436E+04  1.099357E-09 -1.164338E-08
       135  16 -6.129658E+05 -2.241048E+05 -2.163083E+05  7.462674E+04  2.253534E-08  1.165658E-09
       135  17 -5.710726E+05 -1.764773E+05 -1.477227E+05  5.692974E+04 -7.043541E-09  9.929079E-10
       135  18 -5.417353E+05 -1.554021E+05 -1.154296E+05  4.432499E+04 -4.442858E-08  3.448344E-09
       135  19  8.361692E+05  1.324048E+05  1.178705E+05  1.443043E+04 -3.463595E+04  9.943211E+03
       135  20  8.010818E+05  1.471060E+05  9.855139E+04  2.701124E+04 -1.423906E+04  3.437031E+04
       135  21  7.649033E+05  1.467285E+05  8.874864E+04  4.468403E+04  6.166263E+03  4.353829E+04
       135  22  1.113587E+05 -4.583315E+04 -4.920050E+04  4.454676E+04  3.461851E+04  1.000101E+04
       135  23  1.147756E+05 -1.467223E+04 -2.457480E+04  4.197986E+04  2.202338E+04  3.440747E+04
       135  24  1.113715E+05 -4.325287E+03 -1.333348E+04  4.450469E+04  9.438199E+03  4.354607E+04
       135  25 -6.129542E+05 -2.241018E+05 -2.162878E+05  7.462758E+04  1.037928E+05  1.006556E+04
       135  26 -5.710686E+05 -1.764751E+05 -1.477141E+05  5.693136E+04  5.824689E+04  3.444640E+04
       135  27 -5.417347E+05 -1.554000E+05 -1.154257E+05  4.432543E+04  1.270682E+04  4.355385E+04
       136   1  7.430990E+05  1.418366E+05  8.590454E+04  4.345502E+04 -4.675368E+03 -4.381944E+04
       136   2  7.076571E+05  1.352017E+05  8.084458E+04  4.138015E+04 -5.959175E+03 -4.430064E+04
       136   3  6.721379E+05  1.275610E+05  7.637195E+04  4.549364E+04 -7.245444E+03 -4.292896E+04
       136   4  1.127207E+05 -3.350296E+03 -9.995876E+03  4.475096E+04 -7.709808E+03 -4.382708E+04
       136   5  1.131141E+05 -9.017018E+02 -5.430877E+03  4.165458E+04 -4.989475E+03 -4.430371E+04
       136   6  1.127344E+05 -1.543376E+02 -3.058356E+03  4.474695E+04 -2.271604E+03 -4.292652E+04
       136   7 -5.172599E+05 -1.485562E+05 -1.059046E+05  4.604541E+04 -1.074129E+04 -4.383474E+04
       136   8 -4.810727E+05 -1.370214E+05 -9.171212E+04  4.192861E+04 -4.020663E+03 -4.430678E+04
       136   9 -4.463527E+05 -1.278838E+05 -8.249302E+04  4.400086E+04  2.697953E+03 -4.292410E+04
       136  10  7.430985E+05  1.418345E+05  8.590089E+04  4.345486E+04 -4.553485E-08  3.972066E-09
       136  11  7.076565E+05  1.351996E+05  8.084083E+04  4.137994E+04 -7.156116E-09  5.532502E-09
       136  12  6.721374E+05  1.275590E+05  7.636839E+04  4.549339E+04  2.763398E-08  2.346021E-09
       136  13  1.127201E+05 -3.352374E+03 -9.999597E+03  4.475068E+04 -2.158392E-09 -1.212169E-08
       136  14  1.131135E+05 -9.038163E+02 -5.434612E+03  4.165440E+04  1.216508E-09 -4.950076E-09
       136  15  1.127339E+05 -1.563178E+02 -3.061828E+03  4.474687E+04 -1.721834E-09 -3.233900E-09
       136  16 -5.172606E+05 -1.485583E+05 -1.059085E+05  4.604503E+04  4.509432E-08  6.970840E-09
       136  17 -4.810732E+05 -1.370235E+05 -9.171584E+04  4.192847E+04  4.241042E-09  5.618667E-09
       136  18 -4.463532E+05 -1.278858E+05 -8.249650E+04  4.400095E+04 -2.843972E-08  2.787759E-11
       136  19  7.430990E+05  1.418366E+05  8.590454E+04  4.345502E+04  4.675368E+03  4.381944E+04
       136  20  7.076571E+05  1.352017E+05  8.084458E+04  4.138015E+04  5.959175E+03  4.430064E+04
       136  21  6.721379E+05  1.275610E+05  7.637195E+04  4.549364E+04  7.245444E+03  4.292896E+04
       136  22  1.127207E+05 -3.350296E+03 -9.995876E+03  4.475096E+04  7.709808E+03  4.382708E+04
       136  23  1.131141E+05 -9.017018E+02 -5.430877E+03  4.165458E+04  4.989475E+03  4.430371E+04
       136  24  1.127344E+05 -1.543376E+02 -3.058356E+03  4.474695E+04  2.271604E+03  4.292652E+04
       136  25 -5.172599E+05 -1.485562E+05 -1.059046E+05  4.604541E+04  1.074129E+04  4.383474E+04
       136  26 -4.810727E+05 -1.370214E+05 -9.171212E+04  4.192861E+04  4.020663E+03  4.430678E+04
       136  27 -4.463527E+05 -1.278838E+05 -8.249302E+04  4.400086E+04 -2.697953E+03  4.292410E+04
       137   1  6.500162E+05  1.224513E+05  7.354104E+04  4.534943E+04 -6.817083E+03 -4.151715E+04
       137   2  6.145865E+05  1.144268E+05  6.909482E+04  4.220082E+04 -6.658622E+03 -3.909162E+04
       137   3  5.791258E+05  1.063729E+05  6.453733E+04  4.536828E+04 -6.501221E+03 -3.644147E+04
       137   4  1.128849E+05 -9.692263E+01 -2.310432E+03  4.477562E+04 -1.815468E+03 -4.151419E+04
       137   5  1.129491E+05  6.296568E+01 -1.301047E+03  4.161729E+04 -1.172052E+03 -3.908721E+04
       137   6  1.128969E+05  1.092797E+02 -7.398653E+02  4.477533E+04 -5.296861E+02 -3.643553E+04
       137   7 -4.239545E+05 -1.226581E+05 -7.816576E+04  4.420223E+04  3.182012E+03 -4.151123E+04
       137   8 -3.884334E+05 -1.143121E+05 -7.170009E+04  4.103416E+04  4.310284E+03 -3.908281E+04
       137   9 -3.531117E+05 -1.061640E+05 -6.601972E+04  4.418276E+04  5.437565E+03 -3.642959E+04
       137  10  6.500157E+05  1.224494E+05  7.353771E+04  4.534921E+04 -6.839332E-08  8.506741E-10
       137  11  6.145860E+05  1.144251E+05  6.909187E+04  4.220061E+04  3.680841E-10  3.883707E-10
       137  12  5.791254E+05  1.063715E+05  6.453475E+04  4.536809E+04  6.717785E-08  3.296787E-10
       137  13  1.128844E+05 -9.877427E+01 -2.313677E+03  4.477556E+04 -2.237738E-09 -3.169232E-09
       137  14  1.129487E+05  6.132463E+01 -1.303921E+03  4.161726E+04  1.220393E-09  3.948904E-10
       137  15  1.128966E+05  1.078540E+02 -7.423607E+02  4.477531E+04  2.397078E-09  3.582479E-09
       137  16 -4.239550E+05 -1.226599E+05 -7.816901E+04  4.420233E+04  6.557814E-08 -7.082208E-10
       137  17 -3.884338E+05 -1.143137E+05 -7.170300E+04  4.103430E+04 -3.965155E-09  1.137403E-09
       137  18 -3.531121E+05 -1.061654E+05 -6.602226E+04  4.418292E+04 -6.523076E-08  5.042997E-10
       137  19  6.500162E+05  1.224513E+05  7.354104E+04  4.534943E+04  6.817083E+03  4.151715E+04
       137  20  6.145865E+05  1.144268E+05  6.909482E+04  4.220082E+04  6.658622E+03  3.909162E+04
       137  21  5.791258E+05  1.063729E+05  6.453733E+04  4.536828E+04  6.501221E+03  3.644147E+04
       137  22  1.128849E+05 -9.692263E+01 -2.310432E+03  4.477562E+04  1.815468E+03  4.151419E+04
       137  23  1.129491E+05  6.296568E+01 -1.301047E+03  4.161729E+04  1.172052E+03  3.908721E+04
       137  24  1.128969E+05  1.092797E+02 -7.398653E+02  4.477533E+04  5.296861E+02  3.643553E+04
       137  25 -4.239545E+05 -1.226581E+05 -7.816576E+04  4.420223E+04 -3.182012E+03  4.151123E+04
       137  26 -3.884334E+05 -1.143121E+05 -7.170009E+04  4.103416E+04 -4.310284E+03  3.908281E+04
       137  27 -3.531117E+05 -1.061640E+05 -6.601972E+04  4.418276E+04 -5.437565E+03  3.642959E+04
       138   1  5.569952E+05  1.012950E+05  6.145746E+04  4.533352E+04 -6.389568E+03 -3.482495E+04
       138   2  5.215782E+05  9.322338E+04  5.675559E+04  4.213202E+04 -6.296156E+03 -3.204771E+04
       138   3  4.861440E+05  8.517491E+04  5.199516E+04  4.525842E+04 -6.203444E+03 -2.924356E+04
       138   4  1.129201E+05  1.114687E+02 -5.583471E+02  4.477798E+04 -4.154107E+02 -3.481853E+04
       138   5  1.129396E+05  1.121009E+02 -3.125629E+02  4.161391E+04 -2.641439E+02 -3.204048E+04
       138   6  1.129300E+05  1.257243E+02 -1.658111E+02  4.477797E+04 -1.135732E+02 -2.923551E+04
       138   7 -3.309550E+05 -1.010808E+05 -6.257650E+04  4.422278E+04  5.554665E+03 -3.481211E+04
       138   8 -2.955297E+05 -9.300658E+04 -5.738268E+04  4.109608E+04  5.764075E+03 -3.203325E+04
       138   9 -2.601428E+05 -8.492963E+04 -5.232841E+04  4.429776E+04  5.972800E+03 -2.922747E+04
       138  10  5.569948E+05  1.012937E+05  6.145510E+04  4.533334E+04  3.373546E-09  1.883451E-09
       138  11  5.215778E+05  9.322227E+04  5.675358E+04  4.213186E+04  6.631326E-10  6.351508E-09
       138  12  4.861437E+05  8.517398E+04  5.199348E+04  4.525827E+04 -6.846809E-10  4.359239E-09
       138  13  1.129198E+05  1.101668E+02 -5.606258E+02  4.477797E+04 -3.192826E-12  2.094620E-09
       138  14  1.129393E+05  1.109985E+02 -3.144923E+02  4.161390E+04 -8.007103E-10  5.824974E-09
       138  15  1.129297E+05  1.248064E+02 -1.674173E+02  4.477797E+04 -4.642118E-09  2.140598E-09
       138  16 -3.309554E+05 -1.010821E+05 -6.257884E+04  4.422294E+04  1.098680E-10  8.797988E-10
       138  17 -2.955300E+05 -9.300769E+04 -5.738467E+04  4.109623E+04 -2.557584E-09  1.352689E-09
       138  18 -2.601431E+05 -8.493056E+04 -5.233008E+04  4.429790E+04  1.848312E-09  1.105665E-09
       138  19  5.569952E+05  1.012950E+05  6.145746E+04  4.533352E+04  6.389568E+03  3.482495E+04
       138  20  5.215782E+05  9.322338E+04  5.675559E+04  4.213202E+04  6.296156E+03  3.204771E+04
       138  21  4.861440E+05  8.517491E+04  5.199516E+04  4.525842E+04  6.203444E+03  2.924356E+04
       138  22  1.129201E+05  1.114687E+02 -5.583471E+02  4.477798E+04  4.154107E+02  3.481853E+04
       138  23  1.129396E+05  1.121009E+02 -3.125629E+02  4.161391E+04  2.641439E+02  3.204048E+04
       138  24  1.129300E+05  1.257243E+02 -1.658111E+02  4.477797E+04  1.135732E+02  2.923551E+04
       138  25 -3.309550E+05 -1.010808E+05 -6.257650E+04  4.422278E+04 -5.554665E+03  3.481211E+04
       138  26 -2.955297E+05 -9.300658E+04 -5.738268E+04  4.109608E+04 -5.764075E+03  3.203325E+04
       138  27 -2.601428E+05 -8.492963E+04 -5.232841E+04  4.429776E+04 -5.972800E+03  2.922747E+04
       139   1  4.640189E+05  8.010893E+04  4.882379E+04  4.523533E+04 -6.179845E+03 -2.760275E+04
       139   2  4.286153E+05  7.204611E+04  4.401745E+04  4.203263E+04 -6.171318E+03 -2.478389E+04
       139   3  3.931980E+05  6.400735E+04  3.920562E+04  4.516043E+04 -6.163305E+03 -2.196240E+04
       139   4  1.129361E+05  1.278759E+02 -1.151255E+02  4.477854E+04 -9.027997E+01 -2.759432E+04
       139   5  1.129475E+05  1.212689E+02 -3.675939E+01  4.161319E+04 -7.619305E+01 -2.477488E+04
       139   6  1.129437E+05  1.379256E+02  3.231988E+01  4.477854E+04 -6.261894E+01 -2.195282E+04
       139   7 -2.380218E+05 -7.985862E+04 -4.905543E+04  4.432197E+04  5.995996E+03 -2.758589E+04
       139   8 -2.026192E+05 -7.180797E+04 -4.409207E+04  4.119394E+04  6.015972E+03 -2.476588E+04
       139   9 -1.672310E+05 -6.373497E+04 -3.914183E+04  4.439679E+04  6.035436E+03 -2.194324E+04
       139  10  4.640187E+05  8.010810E+04  4.882229E+04  4.523520E+04  1.261334E-08  1.407691E-09
       139  11  4.286151E+05  7.204544E+04  4.401622E+04  4.203250E+04 -3.061410E-08  1.389716E-10
       139  12  3.931979E+05  6.400682E+04  3.920464E+04  4.516032E+04 -6.960295E-08  1.865712E-09
       139  13  1.129359E+05  1.270582E+02 -1.165565E+02  4.477854E+04  2.232329E-09  2.743210E-09
       139  14  1.129474E+05  1.206098E+02 -3.791290E+01  4.161319E+04  2.489318E-10 -9.742296E-09
       139  15  1.129435E+05  1.374081E+02  3.141419E+01  4.477854E+04  1.480286E-10 -1.550234E-08
       139  16 -2.380220E+05 -7.985945E+04 -4.905693E+04  4.432210E+04 -1.349229E-08  1.751022E-09
       139  17 -2.026194E+05 -7.180864E+04 -4.409329E+04  4.119406E+04  3.173257E-08 -1.903004E-09
       139  18 -1.672312E+05 -6.373549E+04 -3.914281E+04  4.439689E+04  6.769698E-08  1.532613E-09
       139  19  4.640189E+05  8.010893E+04  4.882379E+04  4.523533E+04  6.179845E+03  2.760275E+04
       139  20  4.286153E+05  7.204611E+04  4.401745E+04  4.203263E+04  6.171318E+03  2.478389E+04
       139  21  3.931980E+05  6.400735E+04  3.920562E+04  4.516043E+04  6.163305E+03  2.196240E+04
       139  22  1.129361E+05  1.278759E+02 -1.151255E+02  4.477854E+04  9.027997E+01  2.759432E+04
       139  23  1.129475E+05  1.212689E+02 -3.675939E+01  4.161319E+04  7.619305E+01  2.477488E+04
       139  24  1.129437E+05  1.379256E+02  3.231988E+01  4.477854E+04  6.261894E+01  2.195282E+04
       139  25 -2.380218E+05 -7.985862E+04 -4.905543E+04  4.432197E+04 -5.995996E+03  2.758589E+04
       139  26 -2.026192E+05 -7.180797E+04 -4.409207E+04  4.119394E+04 -6.015972E+03  2.476588E+04
       139  27 -1.672310E+05 -6.373497E+04 -3.914183E+04  4.439679E+04 -6.035436E+03  2.194324E+04
       140   1  3.710828E+05  5.894428E+04  3.602504E+04  4.513722E+04 -6.174223E+03 -2.031936E+04
       140   2  3.356849E+05  5.088794E+04  3.123863E+04  4.192687E+04 -6.252683E+03 -1.749807E+04
       140   3  3.002844E+05  4.287202E+04  2.650601E+04  4.504428E+04 -6.331494E+03 -1.467952E+04
       140   4  1.129487E+05  1.402693E+02  6.854228E+01  4.477792E+04 -7.408364E+01 -2.030949E+04
       140   5  1.129528E+05  1.372019E+02  1.610548E+02  4.161395E+04 -1.586044E+02 -1.748781E+04
       140   6  1.129541E+05  1.756392E+02  3.114712E+02  4.477786E+04 -2.434797E+02 -1.466888E+04
       140   7 -1.451178E+05 -5.866668E+04 -3.588863E+04  4.441874E+04  6.023632E+03 -2.029963E+04
       140   8 -1.097289E+05 -5.061572E+04 -3.091700E+04  4.130112E+04  5.933385E+03 -1.747756E+04
       140   9 -7.434061E+04 -4.252228E+04 -2.588338E+04  4.451151E+04  5.842779E+03 -1.465824E+04
       140  10  3.710827E+05  5.894383E+04  3.602419E+04  4.513711E+04  4.738059E-08  5.997022E-09
       140  11  3.356848E+05  5.088760E+04  3.123798E+04  4.192678E+04  1.154702E-07  5.301470E-09
       140  12  3.002843E+05  4.287177E+04  2.650553E+04  4.504420E+04  1.735866E-07  2.978784E-09
       140  13  1.129486E+05  1.398263E+02  6.776711E+01  4.477792E+04  2.084589E-09 -1.076595E-08
       140  14  1.129527E+05  1.368735E+02  1.604800E+02  4.161395E+04  5.609830E-09  3.033955E-09
       140  15  1.129540E+05  1.754081E+02  3.110667E+02  4.477786E+04  4.081373E-09  1.897080E-08
       140  16 -1.451179E+05 -5.866713E+04 -3.588948E+04  4.441884E+04 -4.338192E-08  5.458522E-09
       140  17 -1.097291E+05 -5.061605E+04 -3.091764E+04  4.130121E+04 -1.159090E-07 -3.691724E-09
       140  18 -7.434071E+04 -4.252252E+04 -2.588384E+04  4.451158E+04 -1.702046E-07  7.970006E-10
       140  19  3.710828E+05  5.894428E+04  3.602504E+04  4.513722E+04  6.174223E+03  2.031936E+04
       140  20  3.356849E+05  5.088794E+04  3.123863E+04  4.192687E+04  6.252683E+03  1.749807E+04
       140  21  3.002844E+05  4.287202E+04  2.650601E+04  4.504428E+04  6.331494E+03  1.467952E+04
       140  22  1.129487E+05  1.402693E+02  6.854228E+01  4.477792E+04  7.408364E+01  2.030949E+04
       140  23  1.129528E+05  1.372019E+02  1.610548E+02  4.161395E+04  1.586044E+02  1.748781E+04
       140  24  1.129541E+05  1.756392E+02  3.114712E+02  4.477786E+04  2.434797E+02  1.466888E+04
       140  25 -1.451178E+05 -5.866668E+04 -3.588863E+04  4.441874E+04 -6.023632E+03  2.029963E+04
       140  26 -1.097289E+05 -5.061572E+04 -3.091700E+04  4.130112E+04 -5.933385E+03  1.747756E+04
       140  27 -7.434061E+04 -4.252228E+04 -2.588338E+04  4.451151E+04 -5.842779E+03  1.465824E+04
       141   1  2.781917E+05  3.781595E+04  2.339367E+04  4.503802E+04 -6.395668E+03 -1.303913E+04
       141   2  2.427606E+05  2.985275E+04  1.882879E+04  4.168553E+04 -6.725570E+03 -1.023461E+04
       141   3  2.074107E+05  2.214439E+04  1.453410E+04  4.465726E+04 -7.055616E+03 -7.454157E+03
       141   4  1.129758E+05  1.848147E+02  4.187430E+02  4.477714E+04 -3.084002E+02 -1.302830E+04
       141   5  1.129332E+05  2.777529E+02  7.535324E+02  4.161460E+04 -6.904594E+02 -1.022365E+04
       141   6  1.129789E+05  6.344991E+02  1.394471E+03  4.477633E+04 -1.072680E+03 -7.443065E+03
       141   7 -5.221235E+04 -3.744751E+04 -2.255637E+04  4.451631E+04  5.777320E+03 -1.301748E+04
       141   8 -1.687712E+04 -2.929797E+04 -1.732180E+04  4.154367E+04  5.343445E+03 -1.021269E+04
       141   9  1.855614E+04 -2.087577E+04 -1.174513E+04  4.489538E+04  4.909387E+03 -7.431970E+03
       141  10  2.781916E+05  3.781576E+04  2.339327E+04  4.503795E+04 -1.885892E-07  3.274126E-09
       141  11  2.427606E+05  2.985262E+04  1.882851E+04  4.168548E+04 -9.121291E-08  3.101649E-09
       141  12  2.074106E+05  2.214432E+04  1.453390E+04  4.465721E+04  1.174092E-08  8.371740E-09
       141  13  1.129757E+05  1.846324E+02  4.184238E+02  4.477713E+04  2.246535E-09  1.919059E-08
       141  14  1.129331E+05  2.776406E+02  7.533350E+02  4.161459E+04  1.309368E-09  8.711614E-09
       141  15  1.129789E+05  6.344393E+02  1.394365E+03  4.477632E+04 -3.064239E-09 -9.002442E-09
       141  16 -5.221243E+04 -3.744770E+04 -2.255675E+04  4.451637E+04  1.847709E-07  5.660136E-09
       141  17 -1.687718E+04 -2.929809E+04 -1.732205E+04  4.154371E+04  8.954368E-08  6.899769E-09
       141  18  1.855610E+04 -2.087584E+04 -1.174528E+04  4.489541E+04 -1.236911E-08  2.945880E-09
       141  19  2.781917E+05  3.781595E+04  2.339367E+04  4.503802E+04  6.395668E+03  1.303913E+04
       141  20  2.427606E+05  2.985275E+04  1.882879E+04  4.168553E+04  6.725570E+03  1.023461E+04
       141  21  2.074107E+05  2.214439E+04  1.453410E+04  4.465726E+04  7.055616E+03  7.454157E+03
       141  22  1.129758E+05  1.848147E+02  4.187430E+02  4.477714E+04  3.084002E+02  1.302830E+04
       141  23  1.129332E+05  2.777529E+02  7.535324E+02  4.161460E+04  6.904594E+02  1.022365E+04
       141  24  1.129789E+05  6.344991E+02  1.394471E+03  4.477633E+04  1.072680E+03  7.443065E+03
       141  25 -5.221235E+04 -3.744751E+04 -2.255637E+04  4.451631E+04 -5.777320E+03  1.301748E+04
       141  26 -1.687712E+04 -2.929797E+04 -1.732180E+04  4.154367E+04 -5.343445E+03  1.021269E+04
       141  27  1.855614E+04 -2.087577E+04 -1.174513E+04  4.489538E+04 -4.909387E+03  7.431970E+03
       142   1  1.854774E+05  1.720759E+04  1.174842E+04  4.483020E+04 -7.296351E+03 -5.836104E+03
       142   2  1.496670E+05  1.054884E+04  8.237173E+03  3.950556E+04 -8.629953E+03 -3.169671E+03
       142   3  1.147184E+05  6.754910E+03  6.301405E+03  4.048781E+04 -9.963220E+03 -7.008308E+02
       142   4  1.131678E+05  7.708667E+02  1.861803E+03  4.477329E+04 -1.316775E+03 -5.824929E+03
       142   5  1.127005E+05  2.205516E+03  3.433339E+03  4.161454E+04 -3.077339E+03 -3.159263E+03
       142   6  1.131683E+05  6.579316E+03  6.876858E+03  4.476259E+04 -4.837637E+03 -6.912064E+02
       142   7  4.086351E+04 -1.566607E+04 -8.024734E+03  4.471639E+04  4.662136E+03 -5.813754E+03
       142   8  7.573548E+04 -6.137829E+03 -1.370384E+03  4.372338E+04  2.474961E+03 -3.148817E+03
       142   9  1.116184E+05  6.403806E+03  7.452421E+03  4.903736E+04  2.879363E+02 -6.815113E+02
       142  10  1.854773E+05  1.720754E+04  1.174825E+04  4.483016E+04  9.729827E-09  7.401767E-09
       142  11  1.496669E+05  1.054881E+04  8.237014E+03  3.950554E+04  1.191769E-08 -1.240717E-11
       142  12  1.147183E+05  6.754882E+03  6.301218E+03  4.048780E+04  1.179123E-08 -1.104655E-09
       142  13  1.131677E+05  7.708298E+02  1.861736E+03  4.477329E+04  2.208367E-09 -7.858290E-09
       142  14  1.127005E+05  2.205502E+03  3.433303E+03  4.161453E+04 -1.998641E-09 -1.379183E-08
       142  15  1.131683E+05  6.579309E+03  6.876813E+03  4.476259E+04  1.057580E-09  1.570762E-10
       142  16  4.086348E+04 -1.566611E+04 -8.024838E+03  4.471642E+04 -1.209851E-08  4.932921E-09
       142  17  7.573547E+04 -6.137841E+03 -1.370414E+03  4.372339E+04 -1.674698E-08  5.849232E-10
       142  18  1.116184E+05  6.403805E+03  7.452420E+03  4.903736E+04 -9.436778E-09 -6.421411E-10
       142  19  1.854774E+05  1.720759E+04  1.174842E+04  4.483020E+04  7.296351E+03  5.836104E+03
       142  20  1.496670E+05  1.054884E+04  8.237173E+03  3.950556E+04  8.629953E+03  3.169671E+03
       142  21  1.147184E+05  6.754910E+03  6.301405E+03  4.048781E+04  9.963220E+03  7.008308E+02
       142  22  1.131678E+05  7.708667E+02  1.861803E+03  4.477329E+04  1.316775E+03  5.824929E+03
       142  23  1.127005E+05  2.205516E+03  3.433339E+03  4.161454E+04  3.077339E+03  3.159263E+03
       142  24  1.131683E+05  6.579316E+03  6.876858E+03  4.476259E+04  4.837637E+03  6.912064E+02
       142  25  4.086351E+04 -1.566607E+04 -8.024734E+03  4.471639E+04 -4.662136E+03  5.813754E+03
       142  26  7.573548E+04 -6.137829E+03 -1.370384E+03  4.372338E+04 -2.474961E+03  3.148817E+03
       142  27  1.116184E+05  6.403806E+03  7.452421E+03  4.903736E+04 -2.879363E+02  6.815113E+02
       143   1  1.119422E+04  3.981582E+05  1.234215E+04 -3.272954E+04 -2.167762E+02  2.678343E+03
       143   2 -1.670396E+03  3.666466E+05  2.847501E+03 -2.664219E+04 -1.377536E+03 -6.880307E+02
       143   3 -1.003800E+04  3.366833E+05 -3.335863E+03 -2.827218E+04 -3.198081E+03 -4.054752E+03
       143   4  6.564285E+03  3.798314E+05  7.549651E+03 -2.867872E+04 -2.177594E+02  3.939236E+03
       143   5  1.177833E+03  3.791443E+05  4.613364E+03 -2.482255E+04 -1.379315E+03  1.570883E+03
       143   6  1.153456E+02  3.798321E+05  4.295799E+03 -2.868364E+04 -3.200626E+03 -7.979591E+02
       143   7  1.934383E+03  3.615049E+05  2.757137E+03 -2.462801E+04 -2.187262E+02  5.200091E+03
       143   8  4.026070E+03  3.916422E+05  6.379246E+03 -2.300287E+04 -1.381080E+03  3.829840E+03
       143   9  1.026860E+04  4.229827E+05  1.192743E+04 -2.909512E+04 -3.203175E+03  2.459053E+03
       143  10  1.119422E+04  3.981582E+05  1.234214E+04 -3.272954E+04  3.306555E-09  5.911952E-09
       143  11 -1.670398E+03  3.666466E+05  2.847497E+03 -2.664219E+04  1.317198E-09 -2.665111E-10
       143  12 -1.003802E+04  3.366833E+05 -3.335913E+03 -2.827219E+04  3.973632E-09 -2.181358E-09
       143  13  6.564281E+03  3.798313E+05  7.549622E+03 -2.867872E+04  5.706334E-09 -8.447487E-10
       143  14  1.177830E+03  3.791443E+05  4.613356E+03 -2.482254E+04  4.227389E-09 -7.472064E-10
       143  15  1.153344E+02  3.798321E+05  4.295778E+03 -2.868364E+04  1.865699E-09 -6.884438E-11
       143  16  1.934376E+03  3.615048E+05  2.757086E+03 -2.462801E+04  3.315128E-09 -5.189240E-09
       143  17  4.026064E+03  3.916422E+05  6.379215E+03 -2.300286E+04  9.816147E-11 -2.368405E-09
       143  18  1.026859E+04  4.229827E+05  1.192740E+04 -2.909512E+04  2.281781E-09  2.655362E-09
       143  19  1.119422E+04  3.981582E+05  1.234215E+04 -3.272954E+04  2.167762E+02 -2.678343E+03
       143  20 -1.670396E+03  3.666466E+05  2.847501E+03 -2.664219E+04  1.377536E+03  6.880307E+02
       143  21 -1.003800E+04  3.366833E+05 -3.335863E+03 -2.827218E+04  3.198081E+03  4.054752E+03
       143  22  6.564285E+03  3.798314E+05  7.549651E+03 -2.867872E+04  2.177594E+02 -3.939236E+03
       143  23  1.177833E+03  3.791443E+05  4.613364E+03 -2.482255E+04  1.379315E+03 -1.570883E+03
       143  24  1.153456E+02  3.798321E+05  4.295799E+03 -2.868364E+04  3.200626E+03  7.979591E+02
       143  25  1.934383E+03  3.615049E+05  2.757137E+03 -2.462801E+04  2.187262E+02 -5.200091E+03
       143  26  4.026070E+03  3.916422E+05  6.379246E+03 -2.300287E+04  1.381080E+03 -3.829840E+03
       143  27  1.026860E+04  4.229827E+05  1.192743E+04 -2.909512E+04  3.203175E+03 -2.459053E+03
       144   1 -1.480058E+04  3.159697E+05 -6.813602E+03 -2.911637E+04 -4.484593E+03 -4.752736E+03
       144   2 -2.207876E+04  2.848569E+05 -1.065711E+04 -2.465072E+04 -6.431418E+03 -7.523068E+03
       144   3 -2.784391E+04  2.544712E+05 -1.232272E+04 -2.792500E+04 -8.029745E+03 -1.029289E+04
       144   4  2.431842E+02  3.797077E+05  4.696235E+03 -2.868809E+04 -4.487067E+03 -1.541442E+03
       144   5  2.555728E+02  3.792976E+05  6.607621E+03 -2.481754E+04 -6.433371E+03 -4.839399E+03
       144   6  1.872422E+03  3.797050E+05  1.106283E+04 -2.868683E+04 -8.031199E+03 -8.136978E+03
       144   7  1.528673E+04  4.434497E+05  1.620595E+04 -2.825977E+04 -4.489537E+03  1.670173E+03
       144   8  2.258941E+04  4.737470E+05  2.387201E+04 -2.498439E+04 -6.435325E+03 -2.155334E+03
       144   9  3.158785E+04  5.049540E+05  3.444774E+04 -2.944880E+04 -8.032659E+03 -5.980644E+03
       144  10 -1.480061E+04  3.159696E+05 -6.813683E+03 -2.911638E+04  2.689357E-10  1.083351E-08
       144  11 -2.207882E+04  2.848568E+05 -1.065729E+04 -2.465076E+04  5.225676E-11 -6.634341E-09
       144  12 -2.784400E+04  2.544711E+05 -1.232304E+04 -2.792507E+04  3.147467E-09 -1.927697E-08
       144  13  2.431619E+02  3.797077E+05  4.696192E+03 -2.868810E+04 -6.653077E-10 -7.837629E-10
       144  14  2.555220E+02  3.792976E+05  6.607499E+03 -2.481757E+04 -2.190424E-09 -7.158852E-10
       144  15  1.872335E+03  3.797049E+05  1.106259E+04 -2.868688E+04 -4.243549E-09 -6.148439E-11
       144  16  1.528670E+04  4.434497E+05  1.620591E+04 -2.825976E+04  2.098012E-09 -9.993802E-09
       144  17  2.258936E+04  4.737470E+05  2.387193E+04 -2.498440E+04  4.829071E-10  4.424069E-09
       144  18  3.158777E+04  5.049540E+05  3.444755E+04 -2.944884E+04  5.501123E-10  1.984843E-08
       144  19 -1.480058E+04  3.159697E+05 -6.813602E+03 -2.911637E+04  4.484593E+03  4.752736E+03
       144  20 -2.207876E+04  2.848569E+05 -1.065711E+04 -2.465072E+04  6.431418E+03  7.523068E+03
       144  21 -2.784391E+04  2.544712E+05 -1.232272E+04 -2.792500E+04  8.029745E+03  1.029289E+04
       144  22  2.431842E+02  3.797077E+05  4.696235E+03 -2.868809E+04  4.487067E+03  1.541442E+03
       144  23  2.555728E+02  3.792976E+05  6.607621E+03 -2.481754E+04  6.433371E+03  4.839399E+03
       144  24  1.872422E+03  3.797050E+05  1.106283E+04 -2.868683E+04  8.031199E+03  8.136978E+03
       144  25  1.528673E+04  4.434497E+05  1.620595E+04 -2.825977E+04  4.489537E+03 -1.670173E+03
       144  26  2.258941E+04  4.737470E+05  2.387201E+04 -2.498439E+04  6.435325E+03  2.155334E+03
       144  27  3.158785E+04  5.049540E+05  3.444774E+04 -2.944880E+04  8.032659E+03  5.980644E+03
       145   1 -3.423932E+04  2.355496E+05 -1.321384E+04 -3.229846E+04 -9.223334E+03 -1.300442E+04
       145   2 -3.405037E+04  2.008123E+05 -1.039621E+04 -1.272274E+04 -8.572342E+03 -1.813489E+04
       145   3 -5.026051E+03  1.739462E+05  2.968984E+03 -5.667338E+02 -2.683084E+03 -2.326171E+04
       145   4  4.305259E+02  3.815768E+05  1.419012E+04 -2.862065E+04 -9.225397E+03 -1.002473E+04
       145   5  8.300272E+03  3.769500E+05  2.517758E+04 -2.489546E+04 -8.568390E+03 -2.308050E+04
       145   6  4.637515E+04  3.815649E+05  5.221170E+04 -2.858914E+04 -2.673532E+03 -3.613294E+04
       145   7  3.509920E+04  5.276247E+05  4.159320E+04 -2.494195E+04 -9.227425E+03 -7.044362E+03
       145   8  5.064956E+04  5.531176E+05  6.074994E+04 -3.707170E+04 -8.564245E+03 -2.802749E+04
       145   9  9.777628E+04  5.892252E+05  1.014525E+05 -5.662097E+04 -2.662821E+03 -4.900845E+04
       145  10 -3.423946E+04  2.355494E+05 -1.321432E+04 -3.229856E+04  5.378914E-09  1.720045E-08
       145  11 -3.405054E+04  2.008120E+05 -1.039697E+04 -1.272286E+04  4.446768E-09  1.428889E-09
       145  12 -5.026204E+03  1.739456E+05  2.967954E+03 -5.667840E+02  1.215345E-09 -1.054090E-08
       145  13  4.304076E+02  3.815767E+05  1.418977E+04 -2.862073E+04 -4.362159E-09 -6.282099E-10
       145  14  8.300051E+03  3.769494E+05  2.517644E+04 -2.489562E+04 -6.025381E-09 -5.895858E-10
       145  15  4.637479E+04  3.815635E+05  5.220923E+04 -2.858922E+04 -9.729199E-10 -1.055270E-10
       145  16  3.509909E+04  5.276246E+05  4.159295E+04 -2.494200E+04 -1.083229E-09 -1.646585E-08
       145  17  5.064927E+04  5.531167E+05  6.074833E+04 -3.707189E+04 -6.621497E-10 -3.418456E-09
       145  18  9.777562E+04  5.892226E+05  1.014479E+05 -5.662107E+04  8.988416E-12  1.111643E-08
       145  19 -3.423932E+04  2.355496E+05 -1.321384E+04 -3.229846E+04  9.223334E+03  1.300442E+04
       145  20 -3.405037E+04  2.008123E+05 -1.039621E+04 -1.272274E+04  8.572342E+03  1.813489E+04
       145  21 -5.026051E+03  1.739462E+05  2.968984E+03 -5.667338E+02  2.683084E+03  2.326171E+04
       145  22  4.305259E+02  3.815768E+05  1.419012E+04 -2.862065E+04  9.225397E+03  1.002473E+04
       145  23  8.300272E+03  3.769500E+05  2.517758E+04 -2.489546E+04  8.568390E+03  2.308050E+04
       145  24  4.637515E+04  3.815649E+05  5.221170E+04 -2.858914E+04  2.673532E+03  3.613294E+04
       145  25  3.509920E+04  5.276247E+05  4.159320E+04 -2.494195E+04  9.227425E+03  7.044362E+03
       145  26  5.064956E+04  5.531176E+05  6.074994E+04 -3.707170E+04  8.564245E+03  2.802749E+04
       145  27  9.777628E+04  5.892252E+05  1.014525E+05 -5.662097E+04  2.662821E+03  4.900845E+04
       146   1  9.121217E+05  3.275736E+05  1.653115E+05  3.385502E+05  6.448151E+04  1.342602E+04
       146   2  8.629912E+05  3.008392E+05  1.178622E+05  3.237723E+05  4.178742E+04 -2.090072E+04
       146   3  8.141450E+05  2.853450E+05  9.493573E+04  3.156558E+05  1.329265E+04 -3.977763E+04
       146   4  2.527789E+05  8.179456E+04 -1.777650E+03  1.588403E+05  2.395513E+03 -9.919924E+03
       146   5  2.558744E+05  7.996527E+04 -8.489080E+02  1.552668E+05  1.134012E+04 -3.235587E+04
       146   6  2.529930E+05  8.311776E+04 -4.379936E+02  1.583543E+05  1.447694E+04 -3.933636E+04
       146   7 -4.061026E+05 -1.639429E+05 -1.688772E+05 -2.068754E+04 -5.961570E+04 -3.323799E+04
       146   8 -3.508446E+05 -1.408701E+05 -1.195687E+05 -1.308215E+04 -1.907457E+04 -4.379881E+04
       146   9 -3.078230E+05 -1.190776E+05 -9.581984E+04  1.186007E+03  1.566009E+04 -3.889552E+04
       146  10  9.121172E+05  3.275723E+05  1.653034E+05  3.385495E+05  8.027665E-09  1.784775E-09
       146  11  8.629892E+05  3.008382E+05  1.178581E+05  3.237730E+05 -3.201845E-09 -5.576850E-09
       146  12  8.141444E+05  2.853433E+05  9.493242E+04  3.156562E+05 -1.485585E-08 -5.488353E-09
       146  13  2.527789E+05  8.179445E+04 -1.777846E+03  1.588403E+05 -1.209126E-09 -3.441814E-10
       146  14  2.558739E+05  7.996411E+04 -8.511174E+02  1.552670E+05 -4.136283E-09 -6.566098E-09
       146  15  2.529924E+05  8.311604E+04 -4.412958E+02  1.583548E+05 -2.011105E-09 -1.823460E-09
       146  16 -4.061067E+05 -1.639451E+05 -1.688859E+05 -2.068913E+04 -1.223281E-08 -5.706133E-09
       146  17 -3.508455E+05 -1.408722E+05 -1.195730E+05 -1.308282E+04 -9.241470E-09 -6.371857E-09
       146  18 -3.078237E+05 -1.190793E+05 -9.582314E+04  1.186497E+03  1.018479E-08  1.534949E-09
       146  19  9.121217E+05  3.275736E+05  1.653115E+05  3.385502E+05 -6.448151E+04 -1.342602E+04
       146  20  8.629912E+05  3.008392E+05  1.178622E+05  3.237723E+05 -4.178742E+04  2.090072E+04
       146  21  8.141450E+05  2.853450E+05  9.493573E+04  3.156558E+05 -1.329265E+04  3.977763E+04
       146  22  2.527789E+05  8.179456E+04 -1.777650E+03  1.588403E+05 -2.395513E+03  9.919924E+03
       146  23  2.558744E+05  7.996527E+04 -8.489080E+02  1.552668E+05 -1.134012E+04  3.235587E+04
       146  24  2.529930E+05  8.311776E+04 -4.379936E+02  1.583543E+05 -1.447694E+04  3.933636E+04
       146  25 -4.061026E+05 -1.639429E+05 -1.688772E+05 -2.068754E+04  5.961570E+04  3.323799E+04
       146  26 -3.508446E+05 -1.408701E+05 -1.195687E+05 -1.308215E+04  1.907457E+04  4.379881E+04
       146  27 -3.078230E+05 -1.190776E+05 -9.581984E+04  1.186007E+03 -1.566009E+04  3.889552E+04
       147   1  7.828635E+05  2.739518E+05  8.770793E+04  3.072409E+05  1.368576E+04 -3.868617E+04
       147   2  7.378466E+05  2.528768E+05  7.622603E+04  2.902866E+05  9.950873E+03 -3.884635E+04
       147   3  6.870085E+05  2.389171E+05  6.737285E+04  2.807457E+05  5.588279E+03 -3.734017E+04
       147   4  2.528700E+05  8.333142E+04 -3.258252E+02  1.585666E+05  1.421479E+04 -3.849113E+04
       147   5  2.561349E+05  8.017357E+04 -1.704461E+02  1.548397E+05  1.389196E+04 -3.736664E+04
       147   6  2.529020E+05  8.345628E+04 -8.737442E+01  1.585259E+05  1.294094E+04 -3.457510E+04
       147   7 -2.768307E+05 -1.072631E+05 -8.836821E+04  1.000924E+04  1.474335E+04 -3.829626E+04
       147   8 -2.253307E+05 -9.250661E+04 -7.657204E+04  1.949062E+04  1.782983E+04 -3.588813E+04
       147   9 -1.810015E+05 -7.198467E+04 -6.755046E+04  3.638638E+04  2.028818E+04 -3.181208E+04
       147  10  7.828629E+05  2.739501E+05  8.770476E+04  3.072413E+05 -1.320307E-09  1.199042E-09
       147  11  7.378461E+05  2.528751E+05  7.622301E+04  2.902869E+05  2.270553E-09  7.822201E-10
       147  12  6.870081E+05  2.389156E+05  6.737017E+04  2.807458E+05  4.977653E-09 -1.554861E-09
       147  13  2.528694E+05  8.332977E+04 -3.289895E+02  1.585670E+05 -1.584616E-11 -1.320370E-09
       147  14  2.561343E+05  8.017202E+04 -1.734331E+02  1.548401E+05 -2.991187E-09  5.332955E-09
       147  15  2.529015E+05  8.345495E+04 -8.993598E+01  1.585262E+05 -2.323968E-11 -4.335443E-09
       147  16 -2.768313E+05 -1.072647E+05 -8.837138E+04  1.000970E+04  1.149985E-09 -1.574811E-09
       147  17 -2.253314E+05 -9.250808E+04 -7.657505E+04  1.949113E+04  1.968059E-10  2.601190E-10
       147  18 -1.810022E+05 -7.198587E+04 -6.755314E+04  3.638690E+04 -3.460001E-10 -5.199561E-09
       147  19  7.828635E+05  2.739518E+05  8.770793E+04  3.072409E+05 -1.368576E+04  3.868617E+04
       147  20  7.378466E+05  2.528768E+05  7.622603E+04  2.902866E+05 -9.950873E+03  3.884635E+04
       147  21  6.870085E+05  2.389171E+05  6.737285E+04  2.807457E+05 -5.588279E+03  3.734017E+04
       147  22  2.528700E+05  8.333142E+04 -3.258252E+02  1.585666E+05 -1.421479E+04  3.849113E+04
       147  23  2.561349E+05  8.017357E+04 -1.704461E+02  1.548397E+05 -1.389196E+04  3.736664E+04
       147  24  2.529020E+05  8.345628E+04 -8.737442E+01  1.585259E+05 -1.294094E+04  3.457510E+04
       147  25 -2.768307E+05 -1.072631E+05 -8.836821E+04  1.000924E+04 -1.474335E+04  3.829626E+04
       147  26 -2.253307E+05 -9.250661E+04 -7.657204E+04  1.949062E+04 -1.782983E+04  3.588813E+04
       147  27 -1.810015E+05 -7.198467E+04 -6.755046E+04  3.638638E+04 -2.028818E+04  3.181208E+04
       148   1  6.567892E+05  2.280685E+05  6.231192E+04  2.722948E+05  4.866609E+03 -3.516548E+04
       148   2  6.122612E+05  2.076545E+05  5.468202E+04  2.551165E+05  3.142805E+03 -3.165256E+04
       148   3  5.612471E+05  1.938802E+05  4.733409E+04  2.454283E+05  1.350859E+03 -2.796113E+04
       148   4  2.528914E+05  8.348302E+04 -6.337400E+01  1.585451E+05  1.214616E+04 -3.242722E+04
       148   5  2.561819E+05  8.021594E+04 -2.696306E+01  1.547972E+05  1.078777E+04 -2.877566E+04
       148   6  2.529105E+05  8.351623E+04  1.488221E+00  1.585389E+05  9.361177E+03 -2.494552E+04
       148   7 -1.508254E+05 -6.108324E+04 -6.243962E+04  4.486637E+04  1.942063E+04 -2.969088E+04
       148   8 -9.976036E+04 -4.720907E+04 -5.473757E+04  5.453208E+04  1.842810E+04 -2.590050E+04
       148   9 -5.532704E+04 -2.683897E+04 -4.733326E+04  7.168918E+04  1.736739E+04 -2.193146E+04
       148  10  6.567888E+05  2.280671E+05  6.230955E+04  2.722949E+05  3.056131E-09 -2.610379E-09
       148  11  6.122610E+05  2.076534E+05  5.468012E+04  2.551166E+05  1.597286E-09  1.087640E-09
       148  12  5.612469E+05  1.938794E+05  4.733262E+04  2.454283E+05 -2.946505E-09 -9.695557E-10
       148  13  2.528910E+05  8.348185E+04 -6.562761E+01  1.585454E+05 -7.516448E-10 -4.293026E-09
       148  14  2.561816E+05  8.021502E+04 -2.873808E+01  1.547975E+05 -4.528532E-09 -6.234317E-09
       148  15  2.529102E+05  8.351554E+04  1.539500E-01  1.585391E+05 -1.811403E-09  2.553450E-09
       148  16 -1.508261E+05 -6.108429E+04 -6.244198E+04  4.486684E+04 -1.257645E-09 -3.682645E-09
       148  17 -9.976091E+04 -4.720988E+04 -5.473947E+04  5.453247E+04 -3.068881E-10  6.331002E-10
       148  18 -5.532750E+04 -2.683957E+04 -4.733473E+04  7.168949E+04  3.841462E-09  3.677484E-09
       148  19  6.567892E+05  2.280685E+05  6.231192E+04  2.722948E+05 -4.866609E+03  3.516548E+04
       148  20  6.122612E+05  2.076545E+05  5.468202E+04  2.551165E+05 -3.142805E+03  3.165256E+04
       148  21  5.612471E+05  1.938802E+05  4.733409E+04  2.454283E+05 -1.350859E+03  2.796113E+04
       148  22  2.528914E+05  8.348302E+04 -6.337400E+01  1.585451E+05 -1.214616E+04  3.242722E+04
       148  23  2.561819E+05  8.021594E+04 -2.696306E+01  1.547972E+05 -1.078777E+04  2.877566E+04
       148  24  2.529105E+05  8.351623E+04  1.488221E+00  1.585389E+05 -9.361177E+03  2.494552E+04
       148  25 -1.508254E+05 -6.108324E+04 -6.243962E+04  4.486637E+04 -1.942063E+04  2.969088E+04
       148  26 -9.976036E+04 -4.720907E+04 -5.473757E+04  5.453208E+04 -1.842810E+04  2.590050E+04
       148  27 -5.532704E+04 -2.683897E+04 -4.733326E+04  7.168918E+04 -1.736739E+04  2.193146E+04
       149   1  5.311732E+05  1.830910E+05  4.250740E+04  2.369748E+05  4.993566E+02 -2.567484E+04
       149   2  4.867371E+05  1.627542E+05  3.530412E+04  2.197808E+05 -1.033367E+03 -2.177834E+04
       149   3  4.357425E+05  1.489993E+05  2.814629E+04  2.100794E+05 -2.573272E+03 -1.786437E+04
       149   4  2.529120E+05  8.352222E+04  1.324068E+01  1.585387E+05  8.500155E+03 -2.266227E+04
       149   5  2.562009E+05  8.024250E+04  4.349367E+01  1.547917E+05  7.002986E+03 -1.875165E+04
       149   6  2.529216E+05  8.353727E+04  9.058414E+01  1.585363E+05  5.498635E+03 -1.482358E+04
       149   7 -2.526524E+04 -1.603817E+04 -4.248170E+04  8.013584E+04  1.649716E+04 -1.965112E+04
       149   8  2.572382E+04 -2.262881E+03 -3.521720E+04  8.982580E+04  1.503614E+04 -1.572616E+04
       149   9  7.013922E+04  1.807976E+04 -2.796470E+04  1.070082E+05  1.356793E+04 -1.178377E+04
       149  10  5.311730E+05  1.830903E+05  4.250616E+04  2.369748E+05  5.998195E-08  2.838004E-08
       149  11  4.867370E+05  1.627537E+05  3.530323E+04  2.197807E+05  6.281589E-09  6.505397E-09
       149  12  4.357424E+05  1.489989E+05  2.814568E+04  2.100793E+05 -5.382172E-08 -1.899842E-08
       149  13  2.529118E+05  8.352165E+04  1.213962E+01  1.585389E+05  5.002837E-10  5.234680E-09
       149  14  2.562008E+05  8.024211E+04  4.274063E+01  1.547918E+05  3.032990E-09  7.884078E-09
       149  15  2.529215E+05  8.353703E+04  9.011432E+01  1.585364E+05 -3.555532E-10  3.947077E-09
       149  16 -2.526563E+04 -1.603866E+04 -4.248294E+04  8.013610E+04 -6.139635E-08 -1.779661E-08
       149  17  2.572351E+04 -2.263207E+03 -3.521809E+04  8.982599E+04  2.278061E-09  3.661498E-09
       149  18  7.013898E+04  1.807956E+04 -2.796531E+04  1.070083E+05  5.682119E-08  2.294939E-08
       149  19  5.311732E+05  1.830910E+05  4.250740E+04  2.369748E+05 -4.993566E+02  2.567484E+04
       149  20  4.867371E+05  1.627542E+05  3.530412E+04  2.197808E+05  1.033367E+03  2.177834E+04
       149  21  4.357425E+05  1.489993E+05  2.814629E+04  2.100794E+05  2.573272E+03  1.786437E+04
       149  22  2.529120E+05  8.352222E+04  1.324068E+01  1.585387E+05 -8.500155E+03  2.266227E+04
       149  23  2.562009E+05  8.024250E+04  4.349367E+01  1.547917E+05 -7.002986E+03  1.875165E+04
       149  24  2.529216E+05  8.353727E+04  9.058414E+01  1.585363E+05 -5.498635E+03  1.482358E+04
       149  25 -2.526524E+04 -1.603817E+04 -4.248170E+04  8.013584E+04 -1.649716E+04  1.965112E+04
       149  26  2.572382E+04 -2.262881E+03 -3.521720E+04  8.982580E+04 -1.503614E+04  1.572616E+04
       149  27  7.013922E+04  1.807976E+04 -2.796470E+04  1.070082E+05 -1.356793E+04  1.178377E+04
       150   1  4.057008E+05  1.382152E+05  2.336675E+04  2.016299E+05 -3.454739E+03 -1.557394E+04
       150   2  3.612870E+05  1.178842E+05  1.627733E+04  1.844448E+05 -5.035862E+03 -1.167036E+04
       150   3  3.103156E+05  1.041310E+05  9.260576E+03  1.747517E+05 -6.614220E+03 -7.774855E+03
       150   4  2.529276E+05  8.353945E+04  1.236894E+02  1.585374E+05  4.615417E+03 -1.253349E+04
       150   5  2.562070E+05  8.024961E+04  2.278841E+02  1.547920E+05  3.017604E+03 -8.635846E+03
       150   6  2.529307E+05  8.354102E+04  4.180568E+02  1.585381E+05  1.422556E+03 -4.746292E+03
       150   7  1.001779E+05  2.886550E+04 -2.311994E+04  1.154544E+05  1.268357E+04 -9.493796E+03
       150   8  1.511384E+05  4.261596E+04 -1.582162E+04  1.251438E+05  1.106968E+04 -5.601856E+03
       150   9  1.955495E+05  6.295145E+04 -8.424242E+03  1.423258E+05  9.458550E+03 -1.718024E+03
       150  10  4.057007E+05  1.382150E+05  2.336628E+04  2.016299E+05 -2.532704E-09 -2.745750E-09
       150  11  3.612869E+05  1.178841E+05  1.627702E+04  1.844448E+05 -2.904034E-09 -1.715287E-09
       150  12  3.103156E+05  1.041309E+05  9.260381E+03  1.747517E+05  1.300098E-09 -3.049052E-09
       150  13  2.529275E+05  8.353928E+04  1.233541E+02  1.585374E+05 -4.983119E-09  1.051099E-09
       150  14  2.562070E+05  8.024952E+04  2.277268E+02  1.547920E+05 -5.086459E-09  6.602246E-10
       150  15  2.529307E+05  8.354100E+04  4.180106E+02  1.585381E+05 -4.000762E-09 -8.074188E-10
       150  16  1.001777E+05  2.886536E+04 -2.312041E+04  1.154545E+05 -1.528278E-09  4.673021E-09
       150  17  1.511383E+05  4.261589E+04 -1.582191E+04  1.251438E+05 -1.406118E-09  6.231993E-09
       150  18  1.955494E+05  6.295142E+04 -8.424416E+03  1.423258E+05 -2.002774E-09 -3.289711E-09
       150  19  4.057008E+05  1.382152E+05  2.336675E+04  2.016299E+05  3.454739E+03  1.557394E+04
       150  20  3.612870E+05  1.178842E+05  1.627733E+04  1.844448E+05  5.035862E+03  1.167036E+04
       150  21  3.103156E+05  1.041310E+05  9.260576E+03  1.747517E+05  6.614220E+03  7.774855E+03
       150  22  2.529276E+05  8.353945E+04  1.236894E+02  1.585374E+05 -4.615417E+03  1.253349E+04
       150  23  2.562070E+05  8.024961E+04  2.278841E+02  1.547920E+05 -3.017604E+03  8.635846E+03
       150  24  2.529307E+05  8.354102E+04  4.180568E+02  1.585381E+05 -1.422556E+03  4.746292E+03
       150  25  1.001779E+05  2.886550E+04 -2.311994E+04  1.154544E+05 -1.268357E+04  9.493796E+03
       150  26  1.511384E+05  4.261596E+04 -1.582162E+04  1.251438E+05 -1.106968E+04  5.601856E+03
       150  27  1.955495E+05  6.295145E+04 -8.424242E+03  1.423258E+05 -9.458550E+03  1.718024E+03
       151   1  2.802871E+05  9.335419E+04  4.580496E+03  1.663233E+05 -7.560495E+03 -5.516151E+03
       151   2  2.358702E+05  7.300933E+04 -2.233425E+03  1.491183E+05 -9.349221E+03 -1.753164E+03
       151   3  1.849563E+05  5.930653E+04 -8.787119E+03  1.393927E+05 -1.110410E+04  1.920339E+03
       151   4  2.529485E+05  8.353883E+04  5.586092E+02  1.585443E+05  4.795560E+02 -2.486283E+03
       151   5  2.561879E+05  8.025749E+04  1.017111E+03  1.547833E+05 -1.492623E+03  1.207498E+03
       151   6  2.529639E+05  8.365407E+04  1.880821E+03  1.585005E+05 -3.430989E+03  4.811804E+03
       151   7  2.256111E+05  7.372373E+04 -3.462917E+03  1.507658E+05  8.519141E+03  5.434070E+02
       151   8  2.765062E+05  8.750575E+04  4.267904E+03  1.604485E+05  6.364247E+03  4.168260E+03
       151   9  3.209774E+05  1.080025E+05  1.254916E+04  1.776105E+05  4.243096E+03  7.703637E+03
       151  10  2.802870E+05  9.335414E+04  4.580331E+03  1.663232E+05  3.632302E-09 -2.230094E-09
       151  11  2.358701E+05  7.300930E+04 -2.233595E+03  1.491183E+05 -1.693595E-09 -1.178695E-09
       151  12  1.849562E+05  5.930650E+04 -8.787358E+03  1.393927E+05 -5.435021E-09  2.083207E-09
       151  13  2.529485E+05  8.353882E+04  5.585971E+02  1.585443E+05 -1.512598E-09  5.384958E-10
       151  14  2.561879E+05  8.025749E+04  1.017104E+03  1.547833E+05  6.324011E-10 -1.580635E-09
       151  15  2.529639E+05  8.365405E+04  1.880756E+03  1.585005E+05  1.458764E-09 -3.125283E-09
       151  16  2.256110E+05  7.372371E+04 -3.463054E+03  1.507658E+05 -1.876488E-10 -3.121432E-09
       151  17  2.765062E+05  8.750572E+04  4.267795E+03  1.604484E+05  4.851990E-09 -3.522082E-10
       151  18  3.209774E+05  1.080024E+05  1.254901E+04  1.776105E+05  5.286175E-09 -1.053774E-09
       151  19  2.802871E+05  9.335419E+04  4.580496E+03  1.663233E+05  7.560495E+03  5.516151E+03
       151  20  2.358702E+05  7.300933E+04 -2.233425E+03  1.491183E+05  9.349221E+03  1.753164E+03
       151  21  1.849563E+05  5.930653E+04 -8.787119E+03  1.393927E+05  1.110410E+04 -1.920339E+03
       151  22  2.529485E+05  8.353883E+04  5.586092E+02  1.585443E+05 -4.795560E+02  2.486283E+03
       151  23  2.561879E+05  8.025749E+04  1.017111E+03  1.547833E+05  1.492623E+03 -1.207498E+03
       151  24  2.529639E+05  8.365407E+04  1.880821E+03  1.585005E+05  3.430989E+03 -4.811804E+03
       151  25  2.256111E+05  7.372373E+04 -3.462917E+03  1.507658E+05 -8.519141E+03 -5.434070E+02
       151  26  2.765062E+05  8.750575E+04  4.267904E+03  1.604485E+05 -6.364247E+03 -4.168260E+03
       151  27  3.209774E+05  1.080025E+05  1.254916E+04  1.776105E+05 -4.243096E+03 -7.703637E+03
       152   1  1.548949E+05  4.862223E+04 -1.309350E+04  1.311034E+05 -1.231526E+04  3.998708E+03
       152   2  1.109214E+05  2.810022E+04 -1.900932E+04  1.130593E+05 -1.422399E+04  7.109021E+03
       152   3  6.094983E+04  1.527300E+04 -2.412586E+04  1.021669E+05 -1.581941E+04  9.388703E+03
       152   4  2.531012E+05  8.367707E+04  2.516156E+03  1.585318E+05 -4.606869E+03  6.903332E+03
       152   5  2.561047E+05  8.088603E+04  4.648337E+03  1.544942E+05 -8.215471E+03  9.372696E+03
       152   6  2.534440E+05  8.612576E+04  8.926141E+03  1.576070E+05 -1.151083E+04  1.101152E+04
       152   7  3.513179E+05  1.187329E+05  1.812588E+04  1.859643E+05  3.102806E+03  9.808436E+03
       152   8  4.013097E+05  1.336738E+05  2.830543E+04  1.959379E+05 -2.205496E+03  1.163693E+04
       152   9  4.459752E+05  1.569817E+05  4.197652E+04  2.130628E+05 -7.200881E+03  1.263488E+04
       152  10  1.548947E+05  4.862217E+04 -1.309382E+04  1.311034E+05 -5.213526E-09  1.618113E-09
       152  11  1.109212E+05  2.810011E+04 -1.900979E+04  1.130594E+05  1.016949E-08  4.084458E-09
       152  12  6.094954E+04  1.527284E+04 -2.412649E+04  1.021670E+05  1.360355E-08  1.537057E-09
       152  13  2.531011E+05  8.367701E+04  2.516027E+03  1.585318E+05  1.637918E-09  4.681004E-09
       152  14  2.561046E+05  8.088592E+04  4.648046E+03  1.544942E+05  5.133395E-09  3.250823E-09
       152  15  2.534438E+05  8.612559E+04  8.925664E+03  1.576071E+05  5.861970E-09  1.548842E-09
       152  16  3.513179E+05  1.187328E+05  1.812568E+04  1.859643E+05  1.327113E-08  1.273236E-09
       152  17  4.013096E+05  1.336737E+05  2.830517E+04  1.959380E+05  4.119636E-09  6.138365E-09
       152  18  4.459751E+05  1.569815E+05  4.197612E+04  2.130628E+05 -5.680503E-09  6.676086E-10
       152  19  1.548949E+05  4.862223E+04 -1.309350E+04  1.311034E+05  1.231526E+04 -3.998708E+03
       152  20  1.109214E+05  2.810022E+04 -1.900932E+04  1.130593E+05  1.422399E+04 -7.109021E+03
       152  21  6.094983E+04  1.527300E+04 -2.412586E+04  1.021669E+05  1.581941E+04 -9.388703E+03
       152  22  2.531012E+05  8.367707E+04  2.516156E+03  1.585318E+05  4.606869E+03 -6.903332E+03
       152  23  2.561047E+05  8.088603E+04  4.648337E+03  1.544942E+05  8.215471E+03 -9.372696E+03
       152  24  2.534440E+05  8.612576E+04  8.926141E+03  1.576070E+05  1.151083E+04 -1.101152E+04
       152  25  3.513179E+05  1.187329E+05  1.812588E+04  1.859643E+05 -3.102806E+03 -9.808436E+03
       152  26  4.013097E+05  1.336738E+05  2.830543E+04  1.959379E+05  2.205496E+03 -1.163693E+04
       152  27  4.459752E+05  1.569817E+05  4.197652E+04  2.130628E+05  7.200881E+03 -1.263488E+04
       153   1  3.056976E+04  5.969674E+03 -2.711390E+04  9.526535E+04 -1.808359E+04  1.032097E+04
       153   2 -4.991472E+03 -1.683299E+04 -3.128110E+04  6.353324E+04 -1.366486E+04  1.018036E+04
       153   3 -4.070924E+04 -1.651686E+04 -3.358328E+04  3.394120E+04 -6.348330E+03  2.342762E+03
       153   4  2.548689E+05  8.673573E+04  1.200067E+04  1.577853E+05 -1.345051E+04  1.206585E+04
       153   5  2.559700E+05  9.184246E+04  2.305464E+04  1.498484E+05 -2.477381E+04  5.994790E+03
       153   6  2.600283E+05  1.231807E+05  4.844509E+04  1.440520E+05 -3.320035E+04 -7.771387E+03
       153   7  4.792252E+05  1.675081E+05  5.111489E+04  2.203273E+05 -8.815561E+03  1.381142E+04
       153   8  5.170020E+05  2.005296E+05  7.738720E+04  2.361989E+05 -3.588773E+04  1.806746E+03
       153   9  5.608508E+05  2.628964E+05  1.304665E+05  2.542138E+05 -6.006594E+04 -1.789357E+04
       153  10  3.056938E+04  5.969472E+03 -2.711471E+04  9.526550E+04 -2.322499E-09 -1.736037E-09
       153  11 -4.991701E+03 -1.683315E+04 -3.128164E+04  6.353335E+04 -3.334629E-09 -1.758262E-09
       153  12 -4.070928E+04 -1.651688E+04 -3.358337E+04  3.394121E+04  2.684327E-09  6.701651E-10
       153  13  2.548686E+05  8.673553E+04  1.200005E+04  1.577854E+05  4.440385E-09 -8.781856E-10
       153  14  2.559693E+05  9.184225E+04  2.305342E+04  1.498485E+05 -1.912534E-09  1.822249E-09
       153  15  2.600271E+05  1.231803E+05  4.844290E+04  1.440518E+05 -2.573257E-10  1.201422E-09
       153  16  4.792251E+05  1.675079E+05  5.111439E+04  2.203274E+05  3.393987E-09  2.342429E-09
       153  17  5.170006E+05  2.005292E+05  7.738477E+04  2.361990E+05  2.039912E-09  2.075731E-09
       153  18  5.608469E+05  2.628951E+05  1.304591E+05  2.542129E+05 -3.405946E-09 -2.581406E-09
       153  19  3.056976E+04  5.969674E+03 -2.711390E+04  9.526535E+04  1.808359E+04 -1.032097E+04
       153  20 -4.991472E+03 -1.683299E+04 -3.128110E+04  6.353324E+04  1.366486E+04 -1.018036E+04
       153  21 -4.070924E+04 -1.651686E+04 -3.358328E+04  3.394120E+04  6.348330E+03 -2.342762E+03
       153  22  2.548689E+05  8.673573E+04  1.200067E+04  1.577853E+05  1.345051E+04 -1.206585E+04
       153  23  2.559700E+05  9.184246E+04  2.305464E+04  1.498484E+05  2.477381E+04 -5.994790E+03
       153  24  2.600283E+05  1.231807E+05  4.844509E+04  1.440520E+05  3.320035E+04  7.771387E+03
       153  25  4.792252E+05  1.675081E+05  5.111489E+04  2.203273E+05  8.815561E+03 -1.381142E+04
       153  26  5.170020E+05  2.005296E+05  7.738720E+04  2.361989E+05  3.588773E+04 -1.806746E+03
       153  27  5.608508E+05  2.628964E+05  1.304665E+05  2.542138E+05  6.006594E+04  1.789357E+04
       154   1 -2.319693E+05 -1.123865E+06 -2.664007E+05  7.281199E+04 -3.401647E+03 -1.093694E+05
       154   2 -6.712926E+04 -1.028674E+06 -1.593885E+05  1.576066E+04 -9.861213E+03 -6.645695E+04
       154   3 -6.715961E+04 -9.798584E+05 -1.214845E+05  2.466697E+04 -7.133815E+03 -2.352556E+04
       154   4 -1.244457E+05 -6.940258E+05 -1.597464E+05  3.918345E+04 -3.403016E+03 -1.049386E+05
       154   5  2.184065E+04 -6.711512E+05 -7.255678E+04  6.307957E+03 -9.860879E+03 -6.574571E+04
       154   6  3.954035E+03 -6.939803E+05 -5.185665E+04  3.939182E+04 -7.130759E+03 -2.653910E+04
       154   7 -1.693170E+04 -2.640166E+05 -5.310535E+04  5.531638E+03 -3.404868E+03 -1.005048E+05
       154   8  1.108015E+05 -3.135115E+05  1.426576E+04 -3.150173E+03 -9.860568E+03 -6.503405E+04
       154   9  7.506249E+04 -4.080269E+05  1.776541E+04  5.412350E+04 -7.127847E+03 -2.955402E+04
       154  10 -2.319725E+05 -1.123877E+06 -2.664232E+05  7.281170E+04  2.309595E-10  3.314980E-09
       154  11 -6.713055E+04 -1.028679E+06 -1.593970E+05  1.576013E+04  2.048681E-09  1.873536E-09
       154  12 -6.715982E+04 -9.798590E+05 -1.214856E+05  2.466683E+04 -1.284822E-09 -3.007116E-10
       154  13 -1.244486E+05 -6.940377E+05 -1.597672E+05  3.918317E+04 -3.072394E-10  4.361218E-09
       154  14  2.183938E+04 -6.711558E+05 -7.256509E+04  6.307434E+03  5.320558E-09  7.395806E-09
       154  15  3.953791E+03 -6.939810E+05 -5.185807E+04  3.939167E+04  1.970694E-09  3.511648E-10
       154  16 -1.693442E+04 -2.640275E+05 -5.312436E+04  5.531362E+03  4.154023E-09 -1.628571E-09
       154  17  1.108002E+05 -3.135160E+05  1.425763E+04 -3.150689E+03  8.736751E-09 -1.913030E-09
       154  18  7.506220E+04 -4.080279E+05  1.776367E+04  5.412333E+04  1.717037E-09  6.847195E-10
       154  19 -2.319693E+05 -1.123865E+06 -2.664007E+05  7.281199E+04  3.401647E+03  1.093694E+05
       154  20 -6.712926E+04 -1.028674E+06 -1.593885E+05  1.576066E+04  9.861213E+03  6.645695E+04
       154  21 -6.715961E+04 -9.798584E+05 -1.214845E+05  2.466697E+04  7.133815E+03  2.352556E+04
       154  22 -1.244457E+05 -6.940258E+05 -1.597464E+05  3.918345E+04  3.403016E+03  1.049386E+05
       154  23  2.184065E+04 -6.711512E+05 -7.255678E+04  6.307957E+03  9.860879E+03  6.574571E+04
       154  24  3.954035E+03 -6.939803E+05 -5.185665E+04  3.939182E+04  7.130759E+03  2.653910E+04
       154  25 -1.693170E+04 -2.640166E+05 -5.310535E+04  5.531638E+03  3.404868E+03  1.005048E+05
       154  26  1.108015E+05 -3.135115E+05  1.426576E+04 -3.150173E+03  9.860568E+03  6.503405E+04
       154  27  7.506249E+04 -4.080269E+05  1.776541E+04  5.412350E+04  7.127847E+03  2.955402E+04
       155   1 -5.380724E+04 -8.453380E+05 -8.510625E+04  4.522982E+04 -4.115263E+03 -1.723595E+04
       155   2 -1.606553E+04 -7.663856E+05 -5.681150E+04  6.056684E+03 -2.247068E+03  1.428528E+03
       155   3 -1.802696E+04 -6.996042E+05 -5.056707E+04  3.400887E+04 -7.423590E+01  2.009499E+04
       155   4 -1.427269E+04 -6.865172E+05 -4.646087E+04  3.958215E+04 -4.114306E+03 -1.794587E+04
       155   5  5.318881E+03 -6.804401E+05 -3.590393E+04  6.019893E+03 -2.246218E+03  5.975876E+02
       155   6 -1.476825E+04 -6.865161E+05 -4.731006E+04  3.958304E+04 -7.318949E+01  1.914086E+04
       155   7  2.526012E+04 -5.276732E+05 -7.817299E+03  3.393304E+04 -4.113337E+03 -1.865597E+04
       155   8  2.670275E+04 -5.944878E+05 -1.499688E+04  5.983099E+03 -2.245368E+03 -2.334680E+02
       155   9 -1.150942E+04 -6.734277E+05 -4.405305E+04  4.515733E+04 -7.216024E+01  1.818671E+04
       155  10 -5.380734E+04 -8.453384E+05 -8.510684E+04  4.522976E+04 -1.140329E-09  4.307092E-09
       155  11 -1.606554E+04 -7.663857E+05 -5.681152E+04  6.056686E+03  3.233338E-09  3.630325E-09
       155  12 -1.802707E+04 -6.996046E+05 -5.056783E+04  3.400887E+04 -5.611291E-10  7.444304E-11
       155  13 -1.427279E+04 -6.865176E+05 -4.646151E+04  3.958209E+04  1.701450E-09  2.392958E-09
       155  14  5.318876E+03 -6.804401E+05 -3.590394E+04  6.019894E+03 -8.898753E-10  4.907131E-09
       155  15 -1.476834E+04 -6.865165E+05 -4.731075E+04  3.958304E+04 -5.044614E-09 -1.547465E-09
       155  16  2.526001E+04 -5.276736E+05 -7.817986E+03  3.393297E+04 -6.322482E-10 -3.129170E-09
       155  17  2.670274E+04 -5.944878E+05 -1.499689E+04  5.983099E+03  1.419612E-09 -3.455851E-09
       155  18 -1.150951E+04 -6.734281E+05 -4.405367E+04  4.515733E+04  3.503298E-10 -1.077797E-09
       155  19 -5.380724E+04 -8.453380E+05 -8.510625E+04  4.522982E+04  4.115263E+03  1.723595E+04
       155  20 -1.606553E+04 -7.663856E+05 -5.681150E+04  6.056684E+03  2.247068E+03 -1.428528E+03
       155  21 -1.802696E+04 -6.996042E+05 -5.056707E+04  3.400887E+04  7.423590E+01 -2.009499E+04
       155  22 -1.427269E+04 -6.865172E+05 -4.646087E+04  3.958215E+04  4.114306E+03  1.794587E+04
       155  23  5.318881E+03 -6.804401E+05 -3.590393E+04  6.019893E+03  2.246218E+03 -5.975876E+02
       155  24 -1.476825E+04 -6.865161E+05 -4.731006E+04  3.958304E+04  7.318949E+01 -1.914086E+04
       155  25  2.526012E+04 -5.276732E+05 -7.817299E+03  3.393304E+04  4.113337E+03  1.865597E+04
       155  26  2.670275E+04 -5.944878E+05 -1.499688E+04  5.983099E+03  2.245368E+03  2.334680E+02
       155  27 -1.150942E+04 -6.734277E+05 -4.405305E+04  4.515733E+04  7.216024E+01 -1.818671E+04
       156   1  3.271374E+04 -5.797702E+05 -2.508667E+04  5.491628E+04  2.530197E+03  3.024948E+04
       156   2  6.911520E+04 -4.836265E+05 -2.934459E+04 -3.422042E+03  5.221511E+03  6.821477E+04
       156   3 -6.355121E+04 -4.344430E+05 -1.005409E+05  4.945420E+03  1.928847E+03  1.061781E+05
       156   4  4.221949E+03 -6.943442E+05 -5.306416E+04  3.954467E+04  2.531646E+03  2.791210E+04
       156   5  2.258231E+04 -6.706629E+05 -7.473290E+04  6.110384E+03  5.222547E+03  6.830532E+04
       156   6 -1.285777E+05 -6.943883E+05 -1.650444E+05  3.938472E+04  1.931721E+03  1.086920E+05
       156   7 -2.426992E+04 -8.089058E+05 -8.104245E+04  2.417591E+04  2.533211E+03  2.557516E+04
       156   8 -2.395281E+04 -8.576671E+05 -1.201237E+05  1.563994E+04  5.223586E+03  6.839584E+04
       156   9 -1.936048E+05 -9.542697E+05 -2.295522E+05  7.380960E+04  1.934876E+03  1.112048E+05
       156  10  3.271349E+04 -5.797712E+05 -2.508840E+04  5.491622E+04 -1.720782E-09  8.601722E-10
       156  11  6.911392E+04 -4.836315E+05 -2.935339E+04 -3.422329E+03  1.721702E-09  1.477553E-10
       156  12 -6.355424E+04 -4.344551E+05 -1.005621E+05  4.945255E+03 -2.486633E-10  6.529195E-10
       156  13  4.221732E+03 -6.943451E+05 -5.306563E+04  3.954462E+04 -2.827445E-09  2.773321E-09
       156  14  2.258103E+04 -6.706679E+05 -7.474173E+04  6.110097E+03  3.576502E-09  4.572174E-09
       156  15 -1.285809E+05 -6.944010E+05 -1.650666E+05  3.938455E+04 -2.033937E-09  8.531457E-10
       156  16 -2.427010E+04 -8.089065E+05 -8.104369E+04  2.417586E+04 -4.314659E-10 -7.175215E-10
       156  17 -2.395410E+04 -8.576721E+05 -1.201325E+05  1.563965E+04 -1.058602E-09 -2.309081E-10
       156  18 -1.936081E+05 -9.542830E+05 -2.295755E+05  7.380942E+04  9.921369E-10 -3.888325E-10
       156  19  3.271374E+04 -5.797702E+05 -2.508667E+04  5.491628E+04 -2.530197E+03 -3.024948E+04
       156  20  6.911520E+04 -4.836265E+05 -2.934459E+04 -3.422042E+03 -5.221511E+03 -6.821477E+04
       156  21 -6.355121E+04 -4.344430E+05 -1.005409E+05  4.945420E+03 -1.928847E+03 -1.061781E+05
       156  22  4.221949E+03 -6.943442E+05 -5.306416E+04  3.954467E+04 -2.531646E+03 -2.791210E+04
       156  23  2.258231E+04 -6.706629E+05 -7.473290E+04  6.110384E+03 -5.222547E+03 -6.830532E+04
       156  24 -1.285777E+05 -6.943883E+05 -1.650444E+05  3.938472E+04 -1.931721E+03 -1.086920E+05
       156  25 -2.426992E+04 -8.089058E+05 -8.104245E+04  2.417591E+04 -2.533211E+03 -2.557516E+04
       156  26 -2.395281E+04 -8.576671E+05 -1.201237E+05  1.563994E+04 -5.223586E+03 -6.839584E+04
       156  27 -1.936048E+05 -9.542697E+05 -2.295522E+05  7.380960E+04 -1.934876E+03 -1.112048E+05
       157   1  4.274649E+05  1.451262E+05  8.870241E+04  1.578898E+05  4.442982E+04  1.569025E+04
       157   2  4.122993E+05  7.596740E+04  4.630855E+04  1.589292E+05  2.856002E+04  7.637488E+03
       157   3  4.160435E+05  6.979516E+04  3.209677E+04  1.508035E+05  1.187444E+04  1.748956E+03
       157   4  3.585326E+05  1.019028E+05  6.666983E+04  1.214419E+05  4.273603E+04  1.504997E+04
       157   5  3.456862E+05  4.577850E+04  2.809965E+04  1.353628E+05  2.813267E+04  7.476001E+03
       157   6  3.515012E+05  5.239309E+04  1.671066E+04  1.401178E+05  1.271328E+04  2.065495E+03
       157   7  2.896064E+05  5.868330E+04  4.463710E+04  8.499892E+04  4.104246E+04  1.440989E+04
       157   8  2.790776E+05  1.559060E+04  9.890407E+03  1.117989E+05  2.770537E+04  7.314544E+03
       157   9  2.869626E+05  3.499082E+04  1.324213E+03  1.294328E+05  1.355203E+04  2.382023E+03
       157  10  4.274627E+05  1.451254E+05  8.869824E+04  1.578893E+05 -1.005019E-09 -3.084748E-10
       157  11  4.122984E+05  7.596712E+04  4.630691E+04  1.589291E+05  1.859436E-09 -4.345133E-09
       157  12  4.160433E+05  6.979512E+04  3.209650E+04  1.508035E+05 -2.973600E-09  3.035066E-09
       157  13  3.585306E+05  1.019020E+05  6.666597E+04  1.214414E+05  2.300659E-09 -3.829914E-09
       157  14  3.456853E+05  4.577823E+04  2.809806E+04  1.353626E+05  2.985851E-09 -8.767147E-09
       157  15  3.515010E+05  5.239304E+04  1.671035E+04  1.401177E+05  4.816331E-10 -3.785137E-09
       157  16  2.896045E+05  5.868262E+04  4.463354E+04  8.499844E+04  4.285223E-09  4.764189E-09
       157  17  2.790768E+05  1.559033E+04  9.888865E+03  1.117987E+05  1.673355E-09  3.066068E-09
       157  18  2.869624E+05  3.499077E+04  1.323857E+03  1.294328E+05 -1.794300E-09  7.239126E-10
       157  19  4.274649E+05  1.451262E+05  8.870241E+04  1.578898E+05 -4.442982E+04 -1.569025E+04
       157  20  4.122993E+05  7.596740E+04  4.630855E+04  1.589292E+05 -2.856002E+04 -7.637488E+03
       157  21  4.160435E+05  6.979516E+04  3.209677E+04  1.508035E+05 -1.187444E+04 -1.748956E+03
       157  22  3.585326E+05  1.019028E+05  6.666983E+04  1.214419E+05 -4.273603E+04 -1.504997E+04
       157  23  3.456862E+05  4.577850E+04  2.809965E+04  1.353628E+05 -2.813267E+04 -7.476001E+03
       157  24  3.515012E+05  5.239309E+04  1.671066E+04  1.401178E+05 -1.271328E+04 -2.065495E+03
       157  25  2.896064E+05  5.868330E+04  4.463710E+04  8.499892E+04 -4.104246E+04 -1.440989E+04
       157  26  2.790776E+05  1.559060E+04  9.890407E+03  1.117989E+05 -2.770537E+04 -7.314544E+03
       157  27  2.869626E+05  3.499082E+04  1.324213E+03  1.294328E+05 -1.355203E+04 -2.382023E+03
       158   1  3.953744E+05  7.757579E+04  2.570299E+04  1.504239E+05  1.000532E+04  1.721387E+03
       158   2  3.862872E+05  6.516588E+04  1.600050E+04  1.452248E+05  6.367319E+03  7.754244E+02
       158   3  3.746304E+05  6.331524E+04  1.038956E+04  1.444886E+05  2.678525E+03 -3.568371E+01
       158   4  3.493463E+05  5.885140E+04  1.350665E+04  1.363353E+05  1.018365E+04  1.788615E+03
       158   5  3.503119E+05  5.127590E+04  6.624791E+03  1.349732E+05  6.624700E+03  8.725067E+02
       158   6  3.486923E+05  5.424418E+04  3.772097E+03  1.380739E+05  3.014907E+03  9.122042E+01
       158   7  3.033204E+05  4.012725E+04  1.310131E+03  1.222476E+05  1.036196E+04  1.855837E+03
       158   8  3.143380E+05  3.738605E+04 -2.751007E+03  1.247222E+05  6.882065E+03  9.695824E+02
       158   9  3.227549E+05  4.517317E+04 -2.845394E+03  1.316595E+05  3.351273E+03  2.181192E+02
       158  10  3.953743E+05  7.757576E+04  2.570279E+04  1.504238E+05  2.883186E-09  4.163228E-09
       158  11  3.862871E+05  6.516587E+04  1.600042E+04  1.452248E+05  2.214446E-09  1.194815E-09
       158  12  3.746304E+05  6.331524E+04  1.038955E+04  1.444886E+05  1.579147E-09  2.825713E-09
       158  13  3.493462E+05  5.885137E+04  1.350645E+04  1.363352E+05 -5.006702E-09 -7.791118E-09
       158  14  3.503119E+05  5.127589E+04  6.624707E+03  1.349732E+05 -8.248849E-09 -1.044634E-08
       158  15  3.486923E+05  5.424418E+04  3.772080E+03  1.380739E+05 -1.793091E-09  7.386393E-09
       158  16  3.033203E+05  4.012721E+04  1.309923E+03  1.222476E+05 -9.482188E-09 -2.476126E-09
       158  17  3.143379E+05  3.738603E+04 -2.751098E+03  1.247222E+05 -6.802609E-09  6.078349E-09
       158  18  3.227549E+05  4.517317E+04 -2.845415E+03  1.316595E+05 -1.088542E-09 -5.438240E-10
       158  19  3.953744E+05  7.757579E+04  2.570299E+04  1.504239E+05 -1.000532E+04 -1.721387E+03
       158  20  3.862872E+05  6.516588E+04  1.600050E+04  1.452248E+05 -6.367319E+03 -7.754244E+02
       158  21  3.746304E+05  6.331524E+04  1.038956E+04  1.444886E+05 -2.678525E+03  3.568371E+01
       158  22  3.493463E+05  5.885140E+04  1.350665E+04  1.363353E+05 -1.018365E+04 -1.788615E+03
       158  23  3.503119E+05  5.127590E+04  6.624791E+03  1.349732E+05 -6.624700E+03 -8.725067E+02
       158  24  3.486923E+05  5.424418E+04  3.772097E+03  1.380739E+05 -3.014907E+03 -9.122042E+01
       158  25  3.033204E+05  4.012725E+04  1.310131E+03  1.222476E+05 -1.036196E+04 -1.855837E+03
       158  26  3.143380E+05  3.738605E+04 -2.751007E+03  1.247222E+05 -6.882065E+03 -9.695824E+02
       158  27  3.227549E+05  4.517317E+04 -2.845394E+03  1.316595E+05 -3.351273E+03 -2.181192E+02
       159   1  3.613906E+05  5.977589E+04  6.251620E+03  1.413520E+05  2.061611E+03  9.671616E+01
       159   2  3.530253E+05  5.266727E+04  2.129426E+03  1.355720E+05  1.080928E+03  3.077867E+02
       159   3  3.398865E+05  5.114785E+04 -1.267187E+03  1.354529E+05  9.707674E+01  5.272649E+02
       159   4  3.484455E+05  5.482712E+04  2.922674E+03  1.377048E+05  2.356470E+03  2.079561E+02
       159   5  3.508029E+05  5.182353E+04  1.552921E+03  1.349534E+05  1.380720E+03  4.208889E+02
       159   6  3.483861E+05  5.440825E+04  9.049297E+02  1.378629E+05  4.017871E+02  6.422242E+02
       159   7  3.355004E+05  4.987835E+04 -4.062986E+02  1.340577E+05  2.651324E+03  3.191939E+02
       159   8  3.485805E+05  5.097979E+04  9.764141E+02  1.343349E+05  1.680511E+03  5.339909E+02
       159   9  3.568857E+05  5.766867E+04  3.077041E+03  1.402730E+05  7.065020E+02  7.571853E+02
       159  10  3.613906E+05  5.977589E+04  6.251612E+03  1.413520E+05  9.956182E-10  5.110681E-09
       159  11  3.530253E+05  5.266727E+04  2.129424E+03  1.355720E+05  6.380926E-10  3.552568E-09
       159  12  3.398865E+05  5.114785E+04 -1.267188E+03  1.354529E+05 -6.215128E-11  8.153075E-09
       159  13  3.484455E+05  5.482712E+04  2.922663E+03  1.377048E+05 -4.202653E-09  2.448976E-09
       159  14  3.508029E+05  5.182353E+04  1.552917E+03  1.349534E+05 -7.355703E-10  4.473620E-09
       159  15  3.483861E+05  5.440825E+04  9.049286E+02  1.378629E+05 -2.504054E-09  3.665712E-10
       159  16  3.355004E+05  4.987835E+04 -4.063120E+02  1.340577E+05 -2.942706E-09  3.564814E-09
       159  17  3.485805E+05  5.097979E+04  9.764082E+02  1.343348E+05 -6.771270E-09  1.110224E-09
       159  18  3.568857E+05  5.766866E+04  3.077039E+03  1.402730E+05 -3.247034E-10  1.262437E-09
       159  19  3.613906E+05  5.977589E+04  6.251620E+03  1.413520E+05 -2.061611E+03 -9.671616E+01
       159  20  3.530253E+05  5.266727E+04  2.129426E+03  1.355720E+05 -1.080928E+03 -3.077867E+02
       159  21  3.398865E+05  5.114785E+04 -1.267187E+03  1.354529E+05 -9.707674E+01 -5.272649E+02
       159  22  3.484455E+05  5.482712E+04  2.922674E+03  1.377048E+05 -2.356470E+03 -2.079561E+02
       159  23  3.508029E+05  5.182353E+04  1.552921E+03  1.349534E+05 -1.380720E+03 -4.208889E+02
       159  24  3.483861E+05  5.440825E+04  9.049297E+02  1.378629E+05 -4.017871E+02 -6.422242E+02
       159  25  3.355004E+05  4.987835E+04 -4.062986E+02  1.340577E+05 -2.651324E+03 -3.191939E+02
       159  26  3.485805E+05  5.097979E+04  9.764141E+02  1.343349E+05 -1.680511E+03 -5.339909E+02
       159  27  3.568857E+05  5.766867E+04  3.077041E+03  1.402730E+05 -7.065020E+02 -7.571853E+02
       160   1  3.273788E+05  4.656919E+04 -4.747142E+03  1.320752E+05 -1.480272E+02  7.803320E+02
       160   2  3.190879E+05  3.992966E+04 -7.737271E+03  1.262267E+05 -5.854569E+02  1.206805E+03
       160   3  3.057727E+05  3.842645E+04 -1.053241E+04  1.261485E+05 -1.023310E+03  1.634539E+03
       160   4  3.483521E+05  5.446014E+04  7.185739E+02  1.378297E+05  1.542930E+02  8.943859E+02
       160   5  3.508619E+05  5.187579E+04  4.828110E+02  1.349507E+05 -2.824159E+02  1.321119E+03
       160   6  3.483472E+05  5.442758E+04  4.414758E+02  1.378419E+05 -7.195546E+02  1.749113E+03
       160   7  3.693257E+05  6.235109E+04  6.184234E+03  1.435844E+05  4.566233E+02  1.008444E+03
       160   8  3.826369E+05  6.382199E+04  8.702810E+03  1.436751E+05  2.064207E+01  1.435440E+03
       160   9  3.909237E+05  7.042889E+04  1.141526E+04  1.495362E+05 -4.157748E+02  1.863697E+03
       160  10  3.273788E+05  4.656919E+04 -4.747143E+03  1.320752E+05  5.282323E-09  4.545064E-09
       160  11  3.190879E+05  3.992966E+04 -7.737275E+03  1.262267E+05  4.629802E-09  8.563210E-09
       160  12  3.057727E+05  3.842644E+04 -1.053242E+04  1.261485E+05 -3.710950E-09  6.671052E-09
       160  13  3.483521E+05  5.446014E+04  7.185724E+02  1.378297E+05  1.717841E-09  1.477568E-09
       160  14  3.508619E+05  5.187579E+04  4.828076E+02  1.349507E+05  8.501231E-09  3.653163E-09
       160  15  3.483472E+05  5.442758E+04  4.414691E+02  1.378419E+05  2.918898E-09 -1.329169E-09
       160  16  3.693257E+05  6.235109E+04  6.184231E+03  1.435844E+05 -4.074488E-09  6.482361E-09
       160  17  3.826369E+05  6.382199E+04  8.702806E+03  1.436751E+05  5.718945E-09 -1.086367E-09
       160  18  3.909237E+05  7.042888E+04  1.141525E+04  1.495362E+05  7.440953E-09  6.422627E-09
       160  19  3.273788E+05  4.656919E+04 -4.747142E+03  1.320752E+05  1.480272E+02 -7.803320E+02
       160  20  3.190879E+05  3.992966E+04 -7.737271E+03  1.262267E+05  5.854569E+02 -1.206805E+03
       160  21  3.057727E+05  3.842645E+04 -1.053241E+04  1.261485E+05  1.023310E+03 -1.634539E+03
       160  22  3.483521E+05  5.446014E+04  7.185739E+02  1.378297E+05 -1.542930E+02 -8.943859E+02
       160  23  3.508619E+05  5.187579E+04  4.828110E+02  1.349507E+05  2.824159E+02 -1.321119E+03
       160  24  3.483472E+05  5.442758E+04  4.414758E+02  1.378419E+05  7.195546E+02 -1.749113E+03
       160  25  3.693257E+05  6.235109E+04  6.184234E+03  1.435844E+05 -4.566233E+02 -1.008444E+03
       160  26  3.826369E+05  6.382199E+04  8.702810E+03  1.436751E+05 -2.064207E+01 -1.435440E+03
       160  27  3.909237E+05  7.042889E+04  1.141526E+04  1.495362E+05  4.157748E+02 -1.863697E+03
       161   1  2.932869E+05  3.374245E+04 -1.380456E+04  1.227565E+05 -1.214214E+03  1.908397E+03
       161   2  2.849389E+05  2.709088E+04 -1.637381E+04  1.168560E+05 -1.750378E+03  2.301315E+03
       161   3  2.715653E+05  2.563959E+04 -1.866590E+04  1.167594E+05 -2.286658E+03  2.694814E+03
       161   4  3.483453E+05  5.443244E+04  4.766107E+02  1.378528E+05 -9.098356E+02  2.023196E+03
       161   5  3.508621E+05  5.186089E+04  6.782777E+02  1.349400E+05 -1.445710E+03  2.416200E+03
       161   6  3.483531E+05  5.448951E+04  1.156850E+03  1.378311E+05 -1.981708E+03  2.809784E+03
       161   7  4.034067E+05  7.512262E+04  1.475752E+04  1.529503E+05 -6.054274E+02  2.138006E+03
       161   8  4.167895E+05  7.663114E+04  1.772997E+04  1.530257E+05 -1.141008E+03  2.531099E+03
       161   9  4.251464E+05  8.333969E+04  2.097904E+04  1.589052E+05 -1.676717E+03  2.924769E+03
       161  10  2.932869E+05  3.374245E+04 -1.380457E+04  1.227565E+05 -4.602843E-09  4.050674E-09
       161  11  2.849389E+05  2.709088E+04 -1.637383E+04  1.168560E+05 -1.850815E-09  1.521194E-09
       161  12  2.715653E+05  2.563958E+04 -1.866592E+04  1.167594E+05 -1.711295E-09 -1.026383E-09
       161  13  3.483453E+05  5.443243E+04  4.766014E+02  1.378528E+05 -4.627598E-09  5.796486E-09
       161  14  3.508621E+05  5.186089E+04  6.782628E+02  1.349400E+05 -6.632647E-09 -3.453672E-09
       161  15  3.483531E+05  5.448950E+04  1.156828E+03  1.378312E+05 -1.074228E-09  3.818093E-09
       161  16  4.034067E+05  7.512261E+04  1.475752E+04  1.529503E+05  2.561196E-09 -8.406790E-10
       161  17  4.167894E+05  7.663113E+04  1.772996E+04  1.530257E+05 -4.428040E-09 -1.016827E-09
       161  18  4.251464E+05  8.333968E+04  2.097902E+04  1.589052E+05 -9.953898E-10 -4.770126E-11
       161  19  2.932869E+05  3.374245E+04 -1.380456E+04  1.227565E+05  1.214214E+03 -1.908397E+03
       161  20  2.849389E+05  2.709088E+04 -1.637381E+04  1.168560E+05  1.750378E+03 -2.301315E+03
       161  21  2.715653E+05  2.563959E+04 -1.866590E+04  1.167594E+05  2.286658E+03 -2.694814E+03
       161  22  3.483453E+05  5.443244E+04  4.766107E+02  1.378528E+05  9.098356E+02 -2.023196E+03
       161  23  3.508621E+05  5.186089E+04  6.782777E+02  1.349400E+05  1.445710E+03 -2.416200E+03
       161  24  3.483531E+05  5.448951E+04  1.156850E+03  1.378311E+05  1.981708E+03 -2.809784E+03
       161  25  4.034067E+05  7.512262E+04  1.475752E+04  1.529503E+05  6.054274E+02 -2.138006E+03
       161  26  4.167895E+05  7.663114E+04  1.772997E+04  1.530257E+05  1.141008E+03 -2.531099E+03
       161  27  4.251464E+05  8.333969E+04  2.097904E+04  1.589052E+05  1.676717E+03 -2.924769E+03
       162   1  2.589434E+05  2.091583E+04 -2.165571E+04  1.134932E+05 -2.627374E+03  2.917679E+03
       162   2  2.504327E+05  1.402894E+04 -2.330692E+04  1.073811E+05 -4.154419E+03  2.941435E+03
       162   3  2.372784E+05  1.320059E+04 -2.372721E+04  1.069674E+05 -5.675388E+03  2.949409E+03
       162   4  3.484001E+05  5.441584E+04  1.501696E+03  1.379072E+05 -2.316045E+03  3.035036E+03
       162   5  3.507718E+05  5.174648E+04  2.650948E+03  1.349218E+05 -3.852540E+03  3.055195E+03
       162   6  3.485018E+05  5.513749E+04  5.038508E+03  1.376348E+05 -5.382983E+03  3.059565E+03
       162   7  4.378649E+05  8.791645E+04  2.465852E+04  1.623245E+05 -2.004667E+03  3.152411E+03
       162   8  4.511209E+05  8.946473E+04  2.860802E+04  1.624666E+05 -3.550607E+03  3.168976E+03
       162   9  4.597372E+05  9.707522E+04  3.380321E+04  1.683072E+05 -5.090520E+03  3.169742E+03
       162  10  2.589433E+05  2.091582E+04 -2.165574E+04  1.134932E+05 -1.539072E-08 -2.863587E-09
       162  11  2.504327E+05  1.402892E+04 -2.330696E+04  1.073811E+05 -7.353202E-09  7.625694E-09
       162  12  2.372784E+05  1.320057E+04 -2.372729E+04  1.069674E+05  8.792942E-09  4.468398E-09
       162  13  3.484001E+05  5.441583E+04  1.501669E+03  1.379072E+05 -9.959449E-10 -2.678233E-09
       162  14  3.507718E+05  5.174646E+04  2.650903E+03  1.349218E+05 -1.178193E-08 -4.196628E-09
       162  15  3.485018E+05  5.513748E+04  5.038436E+03  1.376348E+05 -4.840472E-10 -2.567711E-09
       162  16  4.378649E+05  8.791644E+04  2.465850E+04  1.623245E+05  9.996094E-09  2.667085E-09
       162  17  4.511209E+05  8.946472E+04  2.860798E+04  1.624666E+05 -3.847574E-09  5.313472E-09
       162  18  4.597372E+05  9.707520E+04  3.380314E+04  1.683072E+05 -1.205878E-08  1.271204E-11
       162  19  2.589434E+05  2.091583E+04 -2.165571E+04  1.134932E+05  2.627374E+03 -2.917679E+03
       162  20  2.504327E+05  1.402894E+04 -2.330692E+04  1.073811E+05  4.154419E+03 -2.941435E+03
       162  21  2.372784E+05  1.320059E+04 -2.372721E+04  1.069674E+05  5.675388E+03 -2.949409E+03
       162  22  3.484001E+05  5.441584E+04  1.501696E+03  1.379072E+05  2.316045E+03 -3.035036E+03
       162  23  3.507718E+05  5.174648E+04  2.650948E+03  1.349218E+05  3.852540E+03 -3.055195E+03
       162  24  3.485018E+05  5.513749E+04  5.038508E+03  1.376348E+05  5.382983E+03 -3.059565E+03
       162  25  4.378649E+05  8.791645E+04  2.465852E+04  1.623245E+05  2.004667E+03 -3.152411E+03
       162  26  4.511209E+05  8.946473E+04  2.860802E+04  1.624666E+05  3.550607E+03 -3.168976E+03
       162  27  4.597372E+05  9.707522E+04  3.380321E+04  1.683072E+05  5.090520E+03 -3.169742E+03
       163   1  2.239871E+05  8.383390E+03 -2.561166E+04  1.052415E+05 -6.824987E+03  2.913749E+03
       163   2  2.151854E+05 -4.706880E+02 -2.351861E+04  9.733853E+04 -1.275946E+04  1.261355E+03
       163   3  2.054536E+05  5.337649E+03 -1.458406E+04  9.312949E+04 -1.858510E+04 -6.792754E+02
       163   4  3.489196E+05  5.414133E+04  6.514160E+03  1.382875E+05 -6.442417E+03  3.057875E+03
       163   5  3.499325E+05  5.078056E+04  1.145518E+04  1.349379E+05 -1.254664E+04  1.341436E+03
       163   6  3.500482E+05  6.211425E+04  2.337102E+04  1.352821E+05 -1.854217E+04 -6.632939E+02
       163   7  4.738667E+05  9.989990E+04  3.863858E+04  1.713394E+05 -6.059764E+03  3.202032E+03
       163   8  4.846973E+05  1.020331E+05  4.642746E+04  1.725447E+05 -1.233378E+04  1.421537E+03
       163   9  4.946636E+05  1.188929E+05  6.132446E+04  1.774439E+05 -1.849922E+04 -6.473076E+02
       163  10  2.239871E+05  8.383369E+03 -2.561176E+04  1.052415E+05  4.106585E-09  3.949110E-09
       163  11  2.151852E+05 -4.707334E+02 -2.351892E+04  9.733854E+04  1.223086E-09 -2.383808E-09
       163  12  2.054533E+05  5.337555E+03 -1.458471E+04  9.312948E+04  3.250486E-09 -8.802207E-09
       163  13  3.489195E+05  5.414130E+04  6.514065E+03  1.382876E+05 -1.253646E-09 -3.194838E-09
       163  14  3.499323E+05  5.078051E+04  1.145488E+04  1.349379E+05  4.685778E-09  2.201224E-09
       163  15  3.500478E+05  6.211416E+04  2.337038E+04  1.352821E+05 -9.811314E-10 -1.405781E-09
       163  16  4.738667E+05  9.989988E+04  3.863849E+04  1.713394E+05  2.093155E-10  6.526172E-09
       163  17  4.846971E+05  1.020330E+05  4.642717E+04  1.725447E+05  1.839090E-09  9.257484E-10
       163  18  4.946632E+05  1.188928E+05  6.132381E+04  1.774439E+05 -1.161855E-09  3.917202E-09
       163  19  2.239871E+05  8.383390E+03 -2.561166E+04  1.052415E+05  6.824987E+03 -2.913749E+03
       163  20  2.151854E+05 -4.706880E+02 -2.351861E+04  9.733853E+04  1.275946E+04 -1.261355E+03
       163  21  2.054536E+05  5.337649E+03 -1.458406E+04  9.312949E+04  1.858510E+04  6.792754E+02
       163  22  3.489196E+05  5.414133E+04  6.514160E+03  1.382875E+05  6.442417E+03 -3.057875E+03
       163  23  3.499325E+05  5.078056E+04  1.145518E+04  1.349379E+05  1.254664E+04 -1.341436E+03
       163  24  3.500482E+05  6.211425E+04  2.337102E+04  1.352821E+05  1.854217E+04  6.632939E+02
       163  25  4.738667E+05  9.989990E+04  3.863858E+04  1.713394E+05  6.059764E+03 -3.202032E+03
       163  26  4.846973E+05  1.020331E+05  4.642746E+04  1.725447E+05  1.233378E+04 -1.421537E+03
       163  27  4.946636E+05  1.188929E+05  6.132446E+04  1.774439E+05  1.849922E+04  6.473076E+02
       164   1  1.858083E+05 -2.878087E+02 -1.221014E+04  1.079438E+05 -2.435228E+04 -1.779923E+03
       164   2  1.778618E+05 -2.925118E+04  4.499154E+03  8.150012E+04 -4.815066E+04 -1.053010E+04
       164   3  2.052236E+05  4.633865E+04  6.610501E+04  3.521625E+04 -7.019639E+04 -2.393353E+04
       164   4  3.537807E+05  5.093678E+04  2.891789E+04  1.418265E+05 -2.288737E+04 -1.227733E+03
       164   5  3.419299E+05  4.125833E+04  4.862737E+04  1.356053E+05 -4.941284E+04 -1.100637E+04
       164   6  3.659155E+05  1.366543E+05  1.153845E+05  1.095473E+05 -7.418570E+04 -2.543952E+04
       164   7  5.217809E+05  1.021612E+05  7.004399E+04  1.757166E+05 -2.142201E+04 -6.754473E+02
       164   8  5.060236E+05  1.117716E+05  9.275296E+04  1.897239E+05 -5.067537E+04 -1.148282E+04
       164   9  5.266326E+05  2.269815E+05  1.646609E+05  1.838978E+05 -7.817608E+04 -2.694639E+04
       164  10  1.858077E+05 -2.879712E+02 -1.221126E+04  1.079437E+05 -6.807851E-09 -6.710631E-09
       164  11  1.778593E+05 -2.925192E+04  4.494590E+03  8.149971E+04 -4.748617E-09 -1.293946E-09
       164  12  2.052182E+05  4.633671E+04  6.609468E+04  3.521490E+04  2.645344E-09 -5.741127E-10
       164  13  3.537801E+05  5.093664E+04  2.891690E+04  1.418265E+05 -4.505617E-09 -4.566323E-09
       164  14  3.419273E+05  4.125754E+04  4.862256E+04  1.356048E+05 -5.275340E-09 -2.771087E-09
       164  15  3.659094E+05  1.366521E+05  1.153729E+05  1.095457E+05  5.788603E-10 -5.262599E-09
       164  16  5.217804E+05  1.021611E+05  7.004313E+04  1.757166E+05  3.944001E-09 -9.252783E-10
       164  17  5.060208E+05  1.117708E+05  9.274789E+04  1.897234E+05 -2.123457E-09 -3.948366E-09
       164  18  5.266259E+05  2.269791E+05  1.646481E+05  1.838961E+05 -6.782408E-09 -2.497682E-09
       164  19  1.858083E+05 -2.878087E+02 -1.221014E+04  1.079438E+05  2.435228E+04  1.779923E+03
       164  20  1.778618E+05 -2.925118E+04  4.499154E+03  8.150012E+04  4.815066E+04  1.053010E+04
       164  21  2.052236E+05  4.633865E+04  6.610501E+04  3.521625E+04  7.019639E+04  2.393353E+04
       164  22  3.537807E+05  5.093678E+04  2.891789E+04  1.418265E+05  2.288737E+04  1.227733E+03
       164  23  3.419299E+05  4.125833E+04  4.862737E+04  1.356053E+05  4.941284E+04  1.100637E+04
       164  24  3.659155E+05  1.366543E+05  1.153845E+05  1.095473E+05  7.418570E+04  2.543952E+04
       164  25  5.217809E+05  1.021612E+05  7.004399E+04  1.757166E+05  2.142201E+04  6.754473E+02
       164  26  5.060236E+05  1.117716E+05  9.275296E+04  1.897239E+05  5.067537E+04  1.148282E+04
       164  27  5.266326E+05  2.269815E+05  1.646609E+05  1.838978E+05  7.817608E+04  2.694639E+04
       165   1 -2.741527E+02 -5.105894E+05 -2.420019E+03 -1.609133E+02 -4.859766E+01  1.774637E+02
       165   2 -5.818467E+02 -5.120991E+05 -3.305733E+03  3.081158E+02 -9.486766E+01  1.492024E+03
       165   3 -1.640860E+03 -5.139716E+05 -5.236400E+03 -3.759364E+02 -1.652903E+02  2.806568E+03
       165   4 -1.927799E+01 -5.095578E+05 -2.179292E+03 -2.560520E+02 -4.862049E+01  1.954060E+02
       165   5  9.272975E+01 -5.093754E+05 -2.657851E+03  3.201520E+02 -9.490729E+01  1.523295E+03
       165   6 -5.488880E+02 -5.095582E+05 -4.190615E+03 -2.567235E+02 -1.653463E+02  2.851171E+03
       165   7  2.355967E+02 -5.085262E+05 -1.938565E+03 -3.511908E+02 -4.864333E+01  2.133482E+02
       165   8  7.673057E+02 -5.066518E+05 -2.009970E+03  3.321883E+02 -9.494693E+01  1.554566E+03
       165   9  5.430826E+02 -5.051447E+05 -3.144832E+03 -1.375098E+02 -1.654022E+02  2.895775E+03
       165  10 -2.741527E+02 -5.105894E+05 -2.420020E+03 -1.609133E+02 -5.482560E-09 -7.847012E-09
       165  11 -5.818473E+02 -5.120991E+05 -3.305737E+03  3.081159E+02 -2.843747E-09 -4.575650E-09
       165  12 -1.640862E+03 -5.139716E+05 -5.236415E+03 -3.759360E+02 -6.313406E-10 -5.871355E-09
       165  13 -1.927800E+01 -5.095578E+05 -2.179292E+03 -2.560519E+02 -2.775105E-10 -2.133322E-09
       165  14  9.272912E+01 -5.093754E+05 -2.657856E+03  3.201521E+02  1.384545E-09 -3.545598E-09
       165  15 -5.488903E+02 -5.095582E+05 -4.190630E+03 -2.567231E+02  4.307552E-09 -1.755073E-10
       165  16  2.355967E+02 -5.085262E+05 -1.938565E+03 -3.511908E+02 -1.138096E-09  7.847557E-09
       165  17  7.673050E+02 -5.066518E+05 -2.009975E+03  3.321885E+02  2.779709E-09  8.971727E-09
       165  18  5.430803E+02 -5.051447E+05 -3.144848E+03 -1.375094E+02 -1.121886E-09  7.402275E-09
       165  19 -2.741527E+02 -5.105894E+05 -2.420019E+03 -1.609133E+02  4.859766E+01 -1.774637E+02
       165  20 -5.818467E+02 -5.120991E+05 -3.305733E+03  3.081158E+02  9.486766E+01 -1.492024E+03
       165  21 -1.640860E+03 -5.139716E+05 -5.236400E+03 -3.759364E+02  1.652903E+02 -2.806568E+03
       165  22 -1.927799E+01 -5.095578E+05 -2.179292E+03 -2.560520E+02  4.862049E+01 -1.954060E+02
       165  23  9.272975E+01 -5.093754E+05 -2.657851E+03  3.201520E+02  9.490729E+01 -1.523295E+03
       165  24 -5.488880E+02 -5.095582E+05 -4.190615E+03 -2.567235E+02  1.653463E+02 -2.851171E+03
       165  25  2.355967E+02 -5.085262E+05 -1.938565E+03 -3.511908E+02  4.864333E+01 -2.133482E+02
       165  26  7.673057E+02 -5.066518E+05 -2.009970E+03  3.321883E+02  9.494693E+01 -1.554566E+03
       165  27  5.430826E+02 -5.051447E+05 -3.144832E+03 -1.375098E+02  1.654022E+02 -2.895775E+03
       166   1 -1.302614E+03 -5.164640E+05 -6.759160E+03  6.077229E+02 -2.150066E+02  3.637998E+03
       166   2 -1.246008E+03 -5.169847E+05 -1.049766E+04 -1.123705E+02 -2.889980E+02  8.020737E+03
       166   3 -8.201175E+03 -5.198335E+05 -1.884491E+04 -1.984012E+03 -3.405901E+02  1.240348E+04
       166   4  3.034976E+02 -5.099936E+05 -5.215708E+03 -2.535547E+02 -2.150672E+02  3.681963E+03
       166   5  7.719574E+02 -5.088319E+05 -8.558762E+03  3.183976E+02 -2.890321E+02  8.052387E+03
       166   6 -5.769168E+03 -5.099959E+05 -1.650196E+04 -2.611990E+02 -3.405795E+02  1.242282E+04
       166   7  1.909609E+03 -5.035232E+05 -3.672258E+03 -1.114841E+03 -2.151278E+02  3.725928E+03
       166   8  2.789919E+03 -5.006789E+05 -6.619871E+03  7.491715E+02 -2.890660E+02  8.084037E+03
       166   9 -3.337156E+03 -5.001583E+05 -1.415902E+04  1.461641E+03 -3.405688E+02  1.244217E+04
       166  10 -1.302618E+03 -5.164640E+05 -6.759185E+03  6.077235E+02 -3.921165E-09 -3.196820E-09
       166  11 -1.246025E+03 -5.169848E+05 -1.049778E+04 -1.123687E+02 -5.731630E-10  3.235033E-10
       166  12 -8.201217E+03 -5.198336E+05 -1.884520E+04 -1.984009E+03 -3.604254E-09  1.054657E-09
       166  13  3.034940E+02 -5.099936E+05 -5.215733E+03 -2.535541E+02  3.983525E-09 -1.099431E-09
       166  14  7.719399E+02 -5.088319E+05 -8.558884E+03  3.183995E+02  2.895992E-09 -9.830014E-10
       166  15 -5.769209E+03 -5.099961E+05 -1.650225E+04 -2.611956E+02 -3.934797E-09 -1.676151E-09
       166  16  1.909605E+03 -5.035232E+05 -3.672284E+03 -1.114841E+03 -4.217908E-09  3.129074E-09
       166  17  2.789901E+03 -5.006790E+05 -6.619994E+03  7.491734E+02  2.361049E-10  1.779544E-09
       166  18 -3.337198E+03 -5.001585E+05 -1.415931E+04  1.461645E+03 -4.362575E-09 -7.602672E-10
       166  19 -1.302614E+03 -5.164640E+05 -6.759160E+03  6.077229E+02  2.150066E+02 -3.637998E+03
       166  20 -1.246008E+03 -5.169847E+05 -1.049766E+04 -1.123705E+02  2.889980E+02 -8.020737E+03
       166  21 -8.201175E+03 -5.198335E+05 -1.884491E+04 -1.984012E+03  3.405901E+02 -1.240348E+04
       166  22  3.034976E+02 -5.099936E+05 -5.215708E+03 -2.535547E+02  2.150672E+02 -3.681963E+03
       166  23  7.719574E+02 -5.088319E+05 -8.558762E+03  3.183976E+02  2.890321E+02 -8.052387E+03
       166  24 -5.769168E+03 -5.099959E+05 -1.650196E+04 -2.611990E+02  3.405795E+02 -1.242282E+04
       166  25  1.909609E+03 -5.035232E+05 -3.672258E+03 -1.114841E+03  2.151278E+02 -3.725928E+03
       166  26  2.789919E+03 -5.006789E+05 -6.619871E+03  7.491715E+02  2.890660E+02 -8.084037E+03
       166  27 -3.337156E+03 -5.001583E+05 -1.415902E+04  1.461641E+03  3.405688E+02 -1.244217E+04
       167   1  1.676244E+02 -5.257750E+05 -2.306805E+04  7.892699E+03 -4.346641E+02  1.540814E+04
       167   2  4.167167E+03 -5.174667E+05 -3.578631E+04 -5.569558E+03 -5.062993E+02  3.314606E+04
       167   3 -6.267111E+04 -5.291863E+05 -7.776918E+04 -2.021629E+04 -2.213853E+02  5.088419E+04
       167   4  3.128939E+03 -5.139187E+05 -2.024644E+04 -2.398631E+02 -4.350230E+02  1.553390E+04
       167   5  7.501603E+03 -5.039294E+05 -3.257067E+04  3.140850E+02 -5.058950E+02  3.307502E+04
       167   6 -5.892927E+04 -5.139338E+05 -7.402243E+04 -3.169235E+02 -2.194197E+02  5.061641E+04
       167   7  6.090492E+03 -5.020620E+05 -1.742481E+04 -8.372581E+03 -4.353852E+02  1.565966E+04
       167   8  1.083616E+04 -4.903919E+05 -2.935503E+04  6.197857E+03 -5.054921E+02  3.300398E+04
       167   9 -5.518596E+04 -4.986803E+05 -7.027548E+04  1.958293E+04 -2.174714E+02  5.034863E+04
       167  10  1.675604E+02 -5.257753E+05 -2.306850E+04  7.892704E+03 -3.482924E-10  3.357464E-09
       167  11  4.166871E+03 -5.174679E+05 -3.578838E+04 -5.569544E+03  5.417497E-09 -1.159731E-09
       167  12 -6.267181E+04 -5.291891E+05 -7.777405E+04 -2.021628E+04  3.668650E-09 -1.208460E-09
       167  13  3.128874E+03 -5.139189E+05 -2.024690E+04 -2.398576E+02  4.227091E-11  1.117450E-09
       167  14  7.501309E+03 -5.039306E+05 -3.257273E+04  3.140985E+02 -2.255258E-09 -1.520417E-09
       167  15 -5.892996E+04 -5.139366E+05 -7.402725E+04 -3.169146E+02  6.081162E-10 -4.425530E-10
       167  16  6.090426E+03 -5.020623E+05 -1.742528E+04 -8.372575E+03 -2.365705E-10 -4.421185E-09
       167  17  1.083586E+04 -4.903931E+05 -2.935708E+04  6.197870E+03  2.773272E-09  5.300358E-09
       167  18 -5.518664E+04 -4.986830E+05 -7.028024E+04  1.958294E+04  1.459384E-09  3.739966E-09
       167  19  1.676244E+02 -5.257750E+05 -2.306805E+04  7.892699E+03  4.346641E+02 -1.540814E+04
       167  20  4.167167E+03 -5.174667E+05 -3.578631E+04 -5.569558E+03  5.062993E+02 -3.314606E+04
       167  21 -6.267111E+04 -5.291863E+05 -7.776918E+04 -2.021629E+04  2.213853E+02 -5.088419E+04
       167  22  3.128939E+03 -5.139187E+05 -2.024644E+04 -2.398631E+02  4.350230E+02 -1.553390E+04
       167  23  7.501603E+03 -5.039294E+05 -3.257067E+04  3.140850E+02  5.058950E+02 -3.307502E+04
       167  24 -5.892927E+04 -5.139338E+05 -7.402243E+04 -3.169235E+02  2.194197E+02 -5.061641E+04
       167  25  6.090492E+03 -5.020620E+05 -1.742481E+04 -8.372581E+03  4.353852E+02 -1.565966E+04
       167  26  1.083616E+04 -4.903919E+05 -2.935503E+04  6.197857E+03  5.054921E+02 -3.300398E+04
       167  27 -5.518596E+04 -4.986803E+05 -7.027548E+04  1.958293E+04  2.174714E+02 -5.034863E+04
       168   1  3.704565E-01  9.950812E-02  1.679458E+01  9.254025E-03 -1.521638E+00 -1.078812E-02
       168   2 -4.631818E-01 -2.205756E-01  2.072143E+01  9.724132E-03 -1.178237E+01 -8.353463E-02
       168   3  3.703730E-01  7.838370E-01  3.165974E+01  1.262656E-02 -2.204296E+01 -1.562801E-01
       168   4  3.705552E-01  9.940560E-02  1.679458E+01  1.923110E-03 -1.521638E+00 -1.078813E-02
       168   5 -4.630243E-01 -2.207353E-01  2.072143E+01 -1.717503E-03 -1.178237E+01 -8.353462E-02
       168   6  3.705892E-01  7.836199E-01  3.165974E+01 -2.928695E-03 -2.204296E+01 -1.562801E-01
       168   7  3.706541E-01  9.930281E-02  1.679458E+01 -5.409528E-03 -1.521638E+00 -1.078813E-02
       168   8 -4.628656E-01 -2.208901E-01  2.072143E+01 -1.316053E-02 -1.178237E+01 -8.353461E-02
       168   9  3.708066E-01  7.834079E-01  3.165974E+01 -1.848468E-02 -2.204296E+01 -1.562800E-01
       168  10  3.704571E-01  9.951138E-02  1.679458E+01  9.253000E-03  2.472913E-09 -5.604726E-09
       168  11 -4.631810E-01 -2.205716E-01  2.072143E+01  9.725900E-03 -1.905918E-09 -2.855669E-09
       168  12  3.703730E-01  7.838384E-01  3.165974E+01  1.262689E-02 -9.310844E-10  3.432562E-09
       168  13  3.705554E-01  9.940600E-02  1.679458E+01  1.922429E-03 -1.554521E-09 -3.087453E-09
       168  14 -4.630256E-01 -2.207397E-01  2.072143E+01 -1.717666E-03 -2.117508E-09 -4.241766E-09
       168  15  3.705889E-01  7.836206E-01  3.165974E+01 -2.929096E-03 -1.206270E-09  7.210768E-11
       168  16  3.706521E-01  9.929472E-02  1.679457E+01 -5.408640E-03  2.158952E-10  6.135478E-10
       168  17 -4.628685E-01 -2.209012E-01  2.072143E+01 -1.316131E-02 -9.435293E-10 -1.960868E-08
       168  18  3.708014E-01  7.833897E-01  3.165974E+01 -1.848307E-02 -2.149123E-09 -1.975798E-09
       168  19  3.704571E-01  9.951171E-02  1.679458E+01  9.254389E-03  1.521638E+00  1.078812E-02
       168  20 -4.631804E-01 -2.205701E-01  2.072143E+01  9.724083E-03  1.178237E+01  8.353463E-02
       168  21  3.703753E-01  7.838453E-01  3.165974E+01  1.262652E-02  2.204296E+01  1.562801E-01
       168  22  3.705554E-01  9.940600E-02  1.679458E+01  1.922571E-03  1.521638E+00  1.078811E-02
       168  23 -4.630258E-01 -2.207412E-01  2.072143E+01 -1.717489E-03  1.178237E+01  8.353461E-02
       168  24  3.705890E-01  7.836188E-01  3.165974E+01 -2.928894E-03  2.204296E+01  1.562801E-01
       168  25  3.706550E-01  9.930579E-02  1.679458E+01 -5.409483E-03  1.521638E+00  1.078814E-02
       168  26 -4.628697E-01 -2.209067E-01  2.072143E+01 -1.316114E-02  1.178237E+01  8.353463E-02
       168  27  3.708053E-01  7.834034E-01  3.165974E+01 -1.848467E-02  2.204296E+01  1.562800E-01
       169   1  1.452960E+00 -3.346345E-02  4.029882E+01  8.563828E-02 -2.856399E+01 -2.025128E-01
       169   2 -1.818097E+00 -1.442232E+00  6.772342E+01  4.702710E-02 -6.218747E+01 -4.408965E-01
       169   3  1.453978E+00  5.808977E+00  1.192037E+02 -6.590466E-03 -9.581146E+01 -6.792836E-01
       169   4  1.454008E+00 -3.453063E-02  4.029881E+01  1.055459E-02 -2.856399E+01 -2.025128E-01
       169   5 -1.817411E+00 -1.442945E+00  6.772342E+01 -2.654586E-03 -6.218747E+01 -4.408964E-01
       169   6  1.454306E+00  5.808629E+00  1.192037E+02 -3.087288E-02 -9.581146E+01 -6.792836E-01
       169   7  1.455059E+00 -3.558524E-02  4.029881E+01 -6.453099E-02 -2.856399E+01 -2.025128E-01
       169   8 -1.816723E+00 -1.443653E+00  6.772341E+01 -5.233735E-02 -6.218747E+01 -4.408964E-01
       169   9  1.454635E+00  5.808287E+00  1.192037E+02 -5.515615E-02 -9.581146E+01 -6.792836E-01
       169  10  1.452961E+00 -3.345488E-02  4.029882E+01  8.563684E-02  2.482318E-09 -4.127594E-09
       169  11 -1.818100E+00 -1.442230E+00  6.772342E+01  4.702906E-02 -1.528165E-09 -3.095991E-09
       169  12  1.453968E+00  5.808975E+00  1.192037E+02 -6.589870E-03  1.159812E-10 -4.124458E-09
       169  13  1.454008E+00 -3.452826E-02  4.029881E+01  1.055400E-02 -5.262234E-10 -1.488331E-09
       169  14 -1.817415E+00 -1.442947E+00  6.772341E+01 -2.655000E-03 -1.900004E-09  6.872732E-09
       169  15  1.454296E+00  5.808626E+00  1.192037E+02 -3.087307E-02 -3.239593E-11  4.466715E-10
       169  16  1.455056E+00 -3.559722E-02  4.029881E+01 -6.452945E-02  1.455413E-09  3.411752E-09
       169  17 -1.816729E+00 -1.443661E+00  6.772340E+01 -5.233777E-02 -7.211973E-10 -4.651409E-09
       169  18  1.454622E+00  5.808275E+00  1.192037E+02 -5.515457E-02 -3.374289E-09 -1.404145E-09
       169  19  1.452960E+00 -3.346243E-02  4.029882E+01  8.563904E-02  2.856399E+01  2.025128E-01
       169  20 -1.818096E+00 -1.442230E+00  6.772342E+01  4.702724E-02  6.218747E+01  4.408964E-01
       169  21  1.453978E+00  5.808977E+00  1.192037E+02 -6.590004E-03  9.581146E+01  6.792836E-01
       169  22  1.454009E+00 -3.452840E-02  4.029881E+01  1.055411E-02  2.856399E+01  2.025128E-01
       169  23 -1.817410E+00 -1.442944E+00  6.772342E+01 -2.654644E-03  6.218747E+01  4.408964E-01
       169  24  1.454305E+00  5.808627E+00  1.192037E+02 -3.087307E-02  9.581146E+01  6.792836E-01
       169  25  1.455056E+00 -3.559734E-02  4.029881E+01 -6.453036E-02  2.856399E+01  2.025128E-01
       169  26 -1.816722E+00 -1.443652E+00  6.772341E+01 -5.233823E-02  6.218747E+01  4.408964E-01
       169  27  1.454633E+00  5.808280E+00  1.192037E+02 -5.515638E-02  9.581146E+01  6.792836E-01
       170   1  7.154508E+00 -6.999555E-01  1.557827E+02  5.023257E-01 -1.207350E+02 -8.559864E-01
       170   2 -8.953037E+00 -9.885349E+00  2.679162E+02  1.277218E-01 -2.542690E+02 -1.802715E+00
       170   3  7.165859E+00  4.027715E+01  4.818259E+02 -4.391730E-01 -3.878029E+02 -2.749443E+00
       170   4  7.160813E+00 -7.062938E-01  1.557827E+02  5.577950E-02 -1.207350E+02 -8.559863E-01
       170   5 -8.951347E+00 -9.887073E+00  2.679162E+02  6.634737E-03 -2.542690E+02 -1.802715E+00
       170   6  7.162937E+00  4.028005E+01  4.818259E+02 -2.348054E-01 -3.878029E+02 -2.749443E+00
       170   7  7.167119E+00 -7.126291E-01  1.557827E+02 -3.907682E-01 -1.207350E+02 -8.559862E-01
       170   8 -8.949657E+00 -9.888798E+00  2.679162E+02 -1.144535E-01 -2.542690E+02 -1.802715E+00
       170   9  7.160013E+00  4.028295E+01  4.818259E+02 -3.043770E-02 -3.878029E+02 -2.749443E+00
       170  10  7.154493E+00 -6.999584E-01  1.557826E+02  5.023232E-01  8.228427E-10  3.624750E-09
       170  11 -8.953104E+00 -9.885360E+00  2.679161E+02  1.277235E-01 -2.025374E-09  7.367500E-10
       170  12  7.165701E+00  4.027712E+01  4.818256E+02 -4.391743E-01  3.948319E-10 -1.521827E-09
       170  13  7.160798E+00 -7.062973E-01  1.557826E+02  5.577891E-02 -1.596185E-09  3.745232E-09
       170  14 -8.951416E+00 -9.887091E+00  2.679161E+02  6.634133E-03 -4.043886E-09  2.006929E-09
       170  15  7.162775E+00  4.028001E+01  4.818256E+02 -2.348066E-01 -3.189633E-09 -3.272513E-10
       170  16  7.167103E+00 -7.126349E-01  1.557826E+02 -3.907670E-01  1.536944E-09 -4.863012E-09
       170  17 -8.949728E+00 -9.888822E+00  2.679161E+02 -1.144545E-01 -1.097907E-09  5.043490E-09
       170  18  7.159848E+00  4.028289E+01  4.818256E+02 -3.043727E-02 -3.625507E-09  2.775652E-09
       170  19  7.154508E+00 -6.999560E-01  1.557827E+02  5.023251E-01  1.207350E+02  8.559864E-01
       170  20 -8.953035E+00 -9.885345E+00  2.679162E+02  1.277220E-01  2.542690E+02  1.802715E+00
       170  21  7.165863E+00  4.027717E+01  4.818259E+02 -4.391738E-01  3.878029E+02  2.749443E+00
       170  22  7.160813E+00 -7.062938E-01  1.557827E+02  5.577922E-02  1.207350E+02  8.559863E-01
       170  23 -8.951346E+00 -9.887070E+00  2.679162E+02  6.634869E-03  2.542690E+02  1.802715E+00
       170  24  7.162937E+00  4.028005E+01  4.818259E+02 -2.348059E-01  3.878029E+02  2.749443E+00
       170  25  7.167118E+00 -7.126342E-01  1.557827E+02 -3.907667E-01  1.207350E+02  8.559862E-01
       170  26 -8.949659E+00 -9.888806E+00  2.679162E+02 -1.144534E-01  2.542690E+02  1.802715E+00
       170  27  7.160012E+00  4.028294E+01  4.818259E+02 -3.043761E-02  3.878029E+02  2.749443E+00
       171   1  3.738779E+01 -6.244248E+00  6.272311E+02  2.975521E+00 -4.883536E+02 -3.462329E+00
       171   2 -4.678423E+01 -6.559670E+01  1.071686E+03  9.473032E-02 -1.025719E+03 -7.272140E+00
       171   3  3.747935E+01  2.688377E+02  1.964450E+03 -4.383790E+00 -1.563078E+03 -1.108189E+01
       171   4  3.742555E+01 -6.282049E+00  6.272311E+02  3.098942E-01 -4.883536E+02 -3.462327E+00
       171   5 -4.678481E+01 -6.559617E+01  1.071686E+03  1.333754E-01 -1.025719E+03 -7.272140E+00
       171   6  3.744042E+01  2.688766E+02  1.964450E+03 -1.640918E+00 -1.563078E+03 -1.108190E+01
       171   7  3.746332E+01 -6.319847E+00  6.272311E+02 -2.355734E+00 -4.883536E+02 -3.462325E+00
       171   8 -4.678540E+01 -6.559563E+01  1.071686E+03  1.720196E-01 -1.025719E+03 -7.272140E+00
       171   9  3.740149E+01  2.689155E+02  1.964450E+03  1.101954E+00 -1.563078E+03 -1.108191E+01
       171  10  3.738753E+01 -6.244299E+00  6.272307E+02  2.975517E+00  1.529786E-09 -5.827203E-09
       171  11 -4.678536E+01 -6.559698E+01  1.071684E+03  9.472626E-02 -1.370537E-09 -3.698865E-09
       171  12  3.747673E+01  2.688371E+02  1.964446E+03 -4.383804E+00 -7.383808E-10  2.305304E-10
       171  13  3.742530E+01 -6.282112E+00  6.272306E+02  3.098923E-01 -4.282312E-09  6.904771E-09
       171  14 -4.678594E+01 -6.559645E+01  1.071684E+03  1.333691E-01 -4.826009E-09 -2.802071E-09
       171  15  3.743779E+01  2.688759E+02  1.964446E+03 -1.640932E+00 -1.816750E-09  7.048610E-09
       171  16  3.746306E+01 -6.319922E+00  6.272306E+02 -2.355734E+00  6.183750E-10 -4.199807E-09
       171  17 -4.678653E+01 -6.559592E+01  1.071684E+03  1.720127E-01 -4.629677E-10 -1.837628E-09
       171  18  3.739886E+01  2.689148E+02  1.964446E+03  1.101942E+00 -3.730866E-09  9.392334E-09
       171  19  3.738779E+01 -6.244238E+00  6.272311E+02  2.975520E+00  4.883536E+02  3.462329E+00
       171  20 -4.678423E+01 -6.559670E+01  1.071686E+03  9.473039E-02  1.025719E+03  7.272140E+00
       171  21  3.747935E+01  2.688377E+02  1.964450E+03 -4.383789E+00  1.563078E+03  1.108189E+01
       171  22  3.742555E+01 -6.282048E+00  6.272311E+02  3.098938E-01  4.883536E+02  3.462327E+00
       171  23 -4.678481E+01 -6.559616E+01  1.071686E+03  1.333755E-01  1.025719E+03  7.272140E+00
       171  24  3.744042E+01  2.688766E+02  1.964450E+03 -1.640918E+00  1.563078E+03  1.108190E+01
       171  25  3.746331E+01 -6.319865E+00  6.272311E+02 -2.355733E+00  4.883536E+02  3.462325E+00
       171  26 -4.678540E+01 -6.559563E+01  1.071686E+03  1.720192E-01  1.025719E+03  7.272140E+00
       171  27  3.740149E+01  2.689155E+02  1.964450E+03  1.101954E+00  1.563078E+03  1.108191E+01
       172   1  2.047570E+02 -4.680090E+01  2.534549E+03  1.798439E+01 -1.971200E+03 -1.397546E+01
       172   2 -2.561975E+02 -4.269440E+02  4.274569E+03 -2.276795E+00 -4.134920E+03 -2.931571E+01
       172   3  2.054226E+02  1.755850E+03  8.064065E+03 -3.416866E+01 -6.298677E+03 -4.465609E+01
       172   4  2.049866E+02 -4.703060E+01  2.534549E+03  1.786841E+00 -1.971200E+03 -1.397541E+01
       172   5 -2.562470E+02 -4.268946E+02  4.274569E+03  1.209918E+00 -4.134920E+03 -2.931573E+01
       172   6  2.050940E+02  1.756178E+03  8.064065E+03 -1.099742E+01 -6.298677E+03 -4.465632E+01
       172   7  2.052163E+02 -4.726029E+01  2.534549E+03 -1.441072E+01 -1.971200E+03 -1.397535E+01
       172   8 -2.562965E+02 -4.268451E+02  4.274569E+03  4.696629E+00 -4.134920E+03 -2.931575E+01
       172   9  2.047653E+02  1.756507E+03  8.064065E+03  1.217382E+01 -6.298677E+03 -4.465656E+01
       172  10  2.047528E+02 -4.680194E+01  2.534542E+03  1.798437E+01  1.030691E-09 -7.324313E-09
       172  11 -2.562158E+02 -4.269486E+02  4.274537E+03 -2.276891E+00 -9.173516E-10 -1.788476E-08
       172  12  2.053800E+02  1.755839E+03  8.063990E+03 -3.416889E+01 -9.995178E-10  5.791764E-09
       172  13  2.049825E+02 -4.703164E+01  2.534542E+03  1.786818E+00 -3.197012E-09 -5.872603E-10
       172  14 -2.562653E+02 -4.268991E+02  4.274537E+03  1.209820E+00 -5.089763E-09  2.225215E-09
       172  15  2.050514E+02  1.756168E+03  8.063990E+03 -1.099765E+01 -4.508814E-09  6.690313E-09
       172  16  2.052121E+02 -4.726133E+01  2.534542E+03 -1.441074E+01  3.014850E-10 -2.495670E-09
       172  17 -2.563148E+02 -4.268497E+02  4.274537E+03  4.696530E+00 -2.721642E-09 -6.380384E-09
       172  18  2.047227E+02  1.756496E+03  8.063990E+03  1.217359E+01 -3.290152E-09 -2.843757E-10
       172  19  2.047570E+02 -4.680090E+01  2.534549E+03  1.798440E+01  1.971200E+03  1.397546E+01
       172  20 -2.561975E+02 -4.269440E+02  4.274569E+03 -2.276795E+00  4.134920E+03  2.931571E+01
       172  21  2.054226E+02  1.755850E+03  8.064065E+03 -3.416867E+01  6.298677E+03  4.465609E+01
       172  22  2.049866E+02 -4.703059E+01  2.534549E+03  1.786841E+00  1.971200E+03  1.397541E+01
       172  23 -2.562470E+02 -4.268946E+02  4.274569E+03  1.209917E+00  4.134920E+03  2.931573E+01
       172  24  2.050940E+02  1.756178E+03  8.064065E+03 -1.099742E+01  6.298677E+03  4.465632E+01
       172  25  2.052163E+02 -4.726029E+01  2.534549E+03 -1.441071E+01  1.971200E+03  1.397535E+01
       172  26 -2.562965E+02 -4.268451E+02  4.274569E+03  4.696628E+00  4.134920E+03  2.931575E+01
       172  27  2.047653E+02  1.756507E+03  8.064065E+03  1.217382E+01  6.298677E+03  4.465656E+01
       173   1  1.166700E+03 -3.251617E+02  1.026064E+04  1.103071E+02 -7.962137E+03 -5.645120E+01
       173   2 -1.459630E+03 -2.746937E+03  1.694982E+04 -2.595677E+01 -1.667192E+04 -1.181995E+02
       173   3  1.171374E+03  1.132071E+04  3.343254E+04 -2.418575E+02 -2.538177E+04 -1.799446E+02
       173   4  1.168113E+03 -3.265756E+02  1.026064E+04  1.059757E+01 -7.962137E+03 -5.644992E+01
       173   5 -1.460128E+03 -2.746440E+03  1.694982E+04  9.120150E+00 -1.667192E+04 -1.182005E+02
       173   6  1.168965E+03  1.132312E+04  3.343254E+04 -7.199451E+01 -2.538177E+04 -1.799515E+02
       173   7  1.169527E+03 -3.279895E+02  1.026064E+04 -8.911197E+01 -7.962137E+03 -5.644864E+01
       173   8 -1.460625E+03 -2.745943E+03  1.694982E+04  4.419707E+01 -1.667192E+04 -1.182014E+02
       173   9  1.166557E+03  1.132553E+04  3.343254E+04  9.786847E+01 -2.538177E+04 -1.799584E+02
       173  10  1.166631E+03 -3.251787E+02  1.026053E+04  1.103067E+02  3.909390E-10  6.533046E-09
       173  11 -1.459929E+03 -2.747012E+03  1.694930E+04 -2.595835E+01 -1.620816E-09 -6.385230E-09
       173  12  1.170682E+03  1.132054E+04  3.343133E+04 -2.418612E+02 -1.570927E-09 -4.665795E-09
       173  13  1.168045E+03 -3.265926E+02  1.026053E+04  1.059721E+01 -3.761324E-09  6.930883E-10
       173  14 -1.460426E+03 -2.746515E+03  1.694930E+04  9.118562E+00 -7.539177E-09  1.971536E-09
       173  15  1.168273E+03  1.132295E+04  3.343133E+04 -7.199819E+01 -4.760353E-09  3.825160E-09
       173  16  1.169459E+03 -3.280065E+02  1.026053E+04 -8.911233E+01 -5.240056E-10 -9.683232E-10
       173  17 -1.460923E+03 -2.746017E+03  1.694930E+04  4.419548E+01 -2.065675E-09 -1.128652E-08
       173  18  1.165865E+03  1.132536E+04  3.343133E+04  9.786480E+01 -3.842839E-09 -1.810314E-09
       173  19  1.166700E+03 -3.251616E+02  1.026064E+04  1.103071E+02  7.962137E+03  5.645120E+01
       173  20 -1.459630E+03 -2.746937E+03  1.694982E+04 -2.595677E+01  1.667192E+04  1.181995E+02
       173  21  1.171374E+03  1.132071E+04  3.343254E+04 -2.418575E+02  2.538177E+04  1.799446E+02
       173  22  1.168113E+03 -3.265756E+02  1.026064E+04  1.059757E+01  7.962137E+03  5.644992E+01
       173  23 -1.460128E+03 -2.746440E+03  1.694982E+04  9.120150E+00  1.667192E+04  1.182005E+02
       173  24  1.168965E+03  1.132312E+04  3.343254E+04 -7.199451E+01  2.538177E+04  1.799515E+02
       173  25  1.169527E+03 -3.279895E+02  1.026064E+04 -8.911197E+01  7.962137E+03  5.644864E+01
       173  26 -1.460625E+03 -2.745943E+03  1.694982E+04  4.419707E+01  1.667192E+04  1.182014E+02
       173  27  1.166557E+03  1.132553E+04  3.343254E+04  9.786848E+01  2.538177E+04  1.799584E+02
       174   1  6.858091E+03 -2.172456E+03  4.164915E+04  6.833490E+02 -3.220548E+04 -2.283624E+02
       174   2 -8.577904E+03 -1.754876E+04  6.657276E+04 -2.105202E+02 -6.724488E+04 -4.767227E+02
       174   3  6.891352E+03  7.241670E+04  1.406521E+05 -1.632146E+03 -1.022843E+05 -7.249820E+02
       174   4  6.866871E+03 -2.181237E+03  4.164915E+04  6.415245E+01 -3.220548E+04 -2.283302E+02
       174   5 -8.581791E+03 -1.754487E+04  6.657276E+04  6.354959E+01 -6.724488E+04 -4.767524E+02
       174   6  6.874798E+03  7.243325E+04  1.406521E+05 -4.648193E+02 -1.022843E+05 -7.251743E+02
       174   7  6.875651E+03 -2.190016E+03  4.164915E+04 -5.550441E+02 -3.220548E+04 -2.282981E+02
       174   8 -8.585677E+03 -1.754098E+04  6.657276E+04  3.376193E+02 -6.724488E+04 -4.767821E+02
       174   9  6.858246E+03  7.244981E+04  1.406521E+05  7.025076E+02 -1.022842E+05 -7.253667E+02
       174  10  6.856977E+03 -2.172734E+03  4.164720E+04  6.833430E+02 -9.698954E-11 -5.151975E-09
       174  11 -8.582760E+03 -1.754997E+04  6.656426E+04 -2.105460E+02 -3.027393E-09  6.251488E-09
       174  12  6.880119E+03  7.241389E+04  1.406324E+05 -1.632206E+03 -8.219030E-10  9.087308E-11
       174  13  6.865757E+03 -2.181515E+03  4.164720E+04  6.414652E+01 -4.796615E-09 -9.568467E-10
       174  14 -8.586646E+03 -1.754609E+04  6.656426E+04  6.352378E+01 -4.803986E-09 -8.727198E-09
       174  15  6.863565E+03  7.243044E+04  1.406324E+05 -4.648791E+02 -3.569697E-09  3.528737E-09
       174  16  6.874538E+03 -2.190295E+03  4.164720E+04 -5.550500E+02 -4.840169E-10 -1.600712E-09
       174  17 -8.590533E+03 -1.754220E+04  6.656426E+04  3.375935E+02 -3.025811E-09 -4.443434E-09
       174  18  6.847013E+03  7.244700E+04  1.406324E+05  7.024479E+02 -3.989377E-09 -1.037644E-10
       174  19  6.858091E+03 -2.172456E+03  4.164915E+04  6.833490E+02  3.220548E+04  2.283624E+02
       174  20 -8.577904E+03 -1.754876E+04  6.657276E+04 -2.105202E+02  6.724488E+04  4.767227E+02
       174  21  6.891352E+03  7.241670E+04  1.406521E+05 -1.632146E+03  1.022843E+05  7.249820E+02
       174  22  6.866871E+03 -2.181237E+03  4.164915E+04  6.415245E+01  3.220548E+04  2.283302E+02
       174  23 -8.581791E+03 -1.754487E+04  6.657276E+04  6.354959E+01  6.724488E+04  4.767524E+02
       174  24  6.874798E+03  7.243325E+04  1.406521E+05 -4.648193E+02  1.022843E+05  7.251743E+02
       174  25  6.875651E+03 -2.190016E+03  4.164915E+04 -5.550441E+02  3.220548E+04  2.282981E+02
       174  26 -8.585677E+03 -1.754098E+04  6.657276E+04  3.376193E+02  6.724488E+04  4.767821E+02
       174  27  6.858246E+03  7.244981E+04  1.406521E+05  7.025076E+02  1.022842E+05  7.253667E+02
       175   1  4.125334E+04 -1.419386E+04  1.697672E+05  4.261239E+03 -1.305556E+05 -9.264254E+02
       175   2 -5.156837E+04 -1.116113E+05  2.574440E+05 -1.516421E+03 -2.713785E+05 -1.923169E+03
       175   3  4.150484E+04  4.609746E+05  6.043906E+05 -1.072728E+04 -4.121970E+05 -2.917244E+03
       175   4  4.130816E+04 -1.424873E+04  1.697672E+05  3.939068E+02 -1.305556E+05 -9.256121E+02
       175   5 -5.159591E+04 -1.115838E+05  2.574440E+05  4.253233E+02 -2.713785E+05 -1.924018E+03
       175   6  4.139486E+04  4.610844E+05  6.043906E+05 -2.975662E+03 -4.121969E+05 -2.922391E+03
       175   7  4.136302E+04 -1.430354E+04  1.697672E+05 -3.473426E+03 -1.305556E+05 -9.247988E+02
       175   8 -5.162344E+04 -1.115563E+05  2.574440E+05  2.367067E+03 -2.713785E+05 -1.924867E+03
       175   9  4.128500E+04  4.611944E+05  6.043906E+05  4.775953E+03 -4.121969E+05 -2.927539E+03
       175  10  4.123504E+04 -1.419844E+04  1.697352E+05  4.261142E+03  1.705952E-09  3.366157E-10
       175  11 -5.164743E+04 -1.116311E+05  2.573056E+05 -1.516841E+03 -1.556701E-09 -6.145072E-09
       175  12  4.132249E+04  4.609290E+05  6.040713E+05 -1.072825E+04 -4.972653E-10  4.161812E-09
       175  13  4.128986E+04 -1.425331E+04  1.697352E+05  3.938095E+02 -2.816420E-09  7.411075E-09
       175  14 -5.167497E+04 -1.116036E+05  2.573056E+05  4.249029E+02 -3.573780E-09  5.647799E-09
       175  15  4.121250E+04  4.610388E+05  6.040713E+05 -2.976632E+03  2.140255E-11 -3.227890E-09
       175  16  4.134472E+04 -1.430812E+04  1.697352E+05 -3.473523E+03 -1.026319E-09  1.702369E-09
       175  17 -5.170250E+04 -1.115760E+05  2.573056E+05  2.366647E+03 -1.353898E-09 -3.392289E-09
       175  18  4.110265E+04  4.611488E+05  6.040713E+05  4.774983E+03 -1.181964E-09 -2.447783E-09
       175  19  4.125334E+04 -1.419386E+04  1.697672E+05  4.261239E+03  1.305556E+05  9.264254E+02
       175  20 -5.156837E+04 -1.116113E+05  2.574440E+05 -1.516421E+03  2.713785E+05  1.923169E+03
       175  21  4.150484E+04  4.609746E+05  6.043906E+05 -1.072728E+04  4.121970E+05  2.917244E+03
       175  22  4.130816E+04 -1.424873E+04  1.697672E+05  3.939068E+02  1.305556E+05  9.256121E+02
       175  23 -5.159591E+04 -1.115838E+05  2.574440E+05  4.253233E+02  2.713785E+05  1.924018E+03
       175  24  4.139486E+04  4.610844E+05  6.043906E+05 -2.975662E+03  4.121969E+05  2.922391E+03
       175  25  4.136302E+04 -1.430354E+04  1.697672E+05 -3.473426E+03  1.305556E+05  9.247988E+02
       175  26 -5.162344E+04 -1.115563E+05  2.574440E+05  2.367067E+03  2.713785E+05  1.924867E+03
       175  27  4.128500E+04  4.611944E+05  6.043906E+05  4.775953E+03  4.121969E+05  2.927539E+03
       176   1  4.611874E+05  4.129155E+04  6.044263E+05 -4.776419E+03 -2.925978E+03  4.119771E+05
       176   2 -1.115664E+05 -5.163182E+04  2.576423E+05 -2.367249E+03 -1.922614E+03  2.710609E+05
       176   3 -1.426299E+04  4.136960E+04  1.702097E+05  3.473871E+03 -9.218262E+02  1.301359E+05
       176   4  4.610774E+05  4.140141E+04  6.044263E+05  2.975566E+03 -2.920833E+03  4.119771E+05
       176   5 -1.115940E+05 -5.160429E+04  2.576423E+05 -4.253361E+02 -1.921766E+03  2.710609E+05
       176   6 -1.420818E+04  4.131474E+04  1.702097E+05 -3.936659E+02 -9.226370E+02  1.301359E+05
       176   7  4.609676E+05  4.151140E+04  6.044263E+05  1.072755E+04 -2.915688E+03  4.119772E+05
       176   8 -1.116215E+05 -5.157674E+04  2.576423E+05  1.516577E+03 -1.920918E+03  2.710609E+05
       176   9 -1.415331E+04  4.125992E+04  1.702097E+05 -4.261203E+03 -9.234477E+02  1.301359E+05
       176  10  4.611419E+05  4.110938E+04  6.041074E+05 -4.775450E+03  1.071135E-09  9.365242E-10
       176  11 -1.115862E+05 -5.171069E+04  2.575042E+05 -2.366830E+03  1.042121E-09 -1.316364E-08
       176  12 -1.426754E+04  4.135142E+04  1.701779E+05  3.473968E+03  2.145372E-09 -3.272775E-09
       176  13  4.610318E+05  4.121924E+04  6.041074E+05  2.976535E+03  4.205444E-09  7.803506E-09
       176  14 -1.116137E+05 -5.168316E+04  2.575042E+05 -4.249166E+02 -5.127574E-09 -7.683438E-09
       176  15 -1.421272E+04  4.129656E+04  1.701779E+05 -3.935692E+02  2.513060E-09  5.315838E-09
       176  16  4.609220E+05  4.132923E+04  6.041074E+05  1.072852E+04  4.344759E-09  4.944358E-09
       176  17 -1.116412E+05 -5.165562E+04  2.575042E+05  1.516996E+03 -4.952077E-10  3.292793E-09
       176  18 -1.415785E+04  4.124174E+04  1.701779E+05 -4.261106E+03  1.515442E-09 -4.739989E-10
       176  19  4.611874E+05  4.129155E+04  6.044263E+05 -4.776419E+03  2.925978E+03 -4.119771E+05
       176  20 -1.115664E+05 -5.163182E+04  2.576423E+05 -2.367249E+03  1.922614E+03 -2.710609E+05
       176  21 -1.426299E+04  4.136960E+04  1.702097E+05  3.473871E+03  9.218262E+02 -1.301359E+05
       176  22  4.610774E+05  4.140141E+04  6.044263E+05  2.975566E+03  2.920833E+03 -4.119771E+05
       176  23 -1.115940E+05 -5.160429E+04  2.576423E+05 -4.253361E+02  1.921766E+03 -2.710609E+05
       176  24 -1.420818E+04  4.131474E+04  1.702097E+05 -3.936659E+02  9.226370E+02 -1.301359E+05
       176  25  4.609676E+05  4.151140E+04  6.044263E+05  1.072755E+04  2.915688E+03 -4.119772E+05
       176  26 -1.116215E+05 -5.157674E+04  2.576423E+05  1.516577E+03  1.920918E+03 -2.710609E+05
       176  27 -1.415331E+04  4.125992E+04  1.702097E+05 -4.261203E+03  9.234477E+02 -1.301359E+05
       177   1  7.244331E+04  6.895250E+03  1.412498E+05 -7.055121E+02 -7.217363E+02  1.017723E+05
       177   2 -1.760641E+04 -8.632113E+03  6.762740E+04 -3.377317E+02 -4.693986E+02  6.620353E+04
       177   3 -1.921139E+03  6.912747E+03  4.360333E+04  5.594144E+02 -2.171671E+02  3.063527E+04
       177   4  7.242672E+04  6.911840E+03  1.412498E+05  4.645104E+02 -7.215445E+02  1.017723E+05
       177   5 -1.761030E+04 -8.628227E+03  6.762740E+04 -6.368423E+01 -4.693694E+02  6.620353E+04
       177   6 -1.912321E+03  6.903928E+03  4.360333E+04 -6.250853E+01 -2.171978E+02  3.063527E+04
       177   7  7.241013E+04  6.928433E+03  1.412498E+05  1.634533E+03 -7.213527E+02  1.017723E+05
       177   8 -1.761418E+04 -8.624340E+03  6.762740E+04  2.103632E+02 -4.693402E+02  6.620353E+04
       177   9 -1.903501E+03  6.895109E+03  4.360333E+04 -6.844314E+02 -2.172285E+02  3.063527E+04
       177  10  7.244053E+04  6.884129E+03  1.412303E+05 -7.054530E+02 -3.370758E-10  1.309888E-09
       177  11 -1.760759E+04 -8.636819E+03  6.761917E+04 -3.377067E+02  2.302708E-09 -1.308644E-08
       177  12 -1.921391E+03  6.911740E+03  4.360156E+04  5.594197E+02 -2.869554E-09 -2.909448E-09
       177  13  7.242394E+04  6.900719E+03  1.412303E+05  4.645695E+02  1.289577E-09  7.653750E-09
       177  14 -1.761147E+04 -8.632933E+03  6.761917E+04 -6.365920E+01  4.736616E-09 -7.483008E-09
       177  15 -1.912573E+03  6.902920E+03  4.360156E+04 -6.250317E+01  6.115176E-09  5.392989E-09
       177  16  7.240735E+04  6.917312E+03  1.412303E+05  1.634592E+03  1.693481E-09  4.433624E-09
       177  17 -1.761536E+04 -8.629047E+03  6.761917E+04  2.103883E+02 -4.445143E-09  3.567015E-09
       177  18 -1.903753E+03  6.894101E+03  4.360156E+04 -6.844261E+02 -1.864142E-10 -6.641597E-10
       177  19  7.244331E+04  6.895250E+03  1.412498E+05 -7.055121E+02  7.217363E+02 -1.017723E+05
       177  20 -1.760641E+04 -8.632113E+03  6.762740E+04 -3.377317E+02  4.693986E+02 -6.620353E+04
       177  21 -1.921139E+03  6.912747E+03  4.360333E+04  5.594144E+02  2.171671E+02 -3.063527E+04
       177  22  7.242672E+04  6.911840E+03  1.412498E+05  4.645104E+02  7.215445E+02 -1.017723E+05
       177  23 -1.761030E+04 -8.628227E+03  6.762740E+04 -6.368423E+01  4.693694E+02 -6.620353E+04
       177  24 -1.912321E+03  6.903928E+03  4.360333E+04 -6.250853E+01  2.171978E+02 -3.063527E+04
       177  25  7.241013E+04  6.928433E+03  1.412498E+05  1.634533E+03  7.213527E+02 -1.017723E+05
       177  26 -1.761418E+04 -8.624340E+03  6.762740E+04  2.103633E+02  4.693402E+02 -6.620353E+04
       177  27 -1.903501E+03  6.895109E+03  4.360333E+04 -6.844314E+02  2.172285E+02 -3.063527E+04
       178   1  1.127877E+04  1.371185E+03  3.595899E+04 -1.158624E+02 -1.659440E+02  2.340505E+04
       178   2 -3.172888E+03 -1.716789E+03  2.121904E+04 -4.192494E+01 -8.886416E+01  1.253401E+04
       178   3  1.427808E+03  1.374821E+03  1.832043E+04  1.232804E+02 -1.179129E+01  1.663183E+03
       178   4  1.127613E+04  1.373824E+03  3.595899E+04  7.020885E+01 -1.659370E+02  2.340505E+04
       178   5 -3.173336E+03 -1.716341E+03  2.121904E+04 -1.033031E+01 -8.886353E+01  1.253401E+04
       178   6  1.429550E+03  1.373079E+03  1.832043E+04  4.003947E-01 -1.179162E+01  1.663183E+03
       178   7  1.127349E+04  1.376462E+03  3.595899E+04  2.562801E+02 -1.659300E+02  2.340505E+04
       178   8 -3.173784E+03 -1.715893E+03  2.121904E+04  2.126431E+01 -8.886289E+01  1.253401E+04
       178   9  1.431293E+03  1.371336E+03  1.832043E+04 -1.224796E+02 -1.179195E+01  1.663183E+03
       178  10  1.127862E+04  1.370597E+03  3.595796E+04 -1.158593E+02 -3.344055E-10  1.358457E-09
       178  11 -3.172930E+03 -1.716958E+03  2.121874E+04 -4.192405E+01  1.926763E-09 -1.353560E-08
       178  12  1.427807E+03  1.374818E+03  1.832043E+04  1.232804E+02 -3.069644E-09 -2.157839E-09
       178  13  1.127598E+04  1.373235E+03  3.595796E+04  7.021197E+01 -4.615045E-09  7.481897E-09
       178  14 -3.173379E+03 -1.716510E+03  2.121874E+04 -1.032942E+01  2.390874E-09 -7.901484E-09
       178  15  1.429550E+03  1.373076E+03  1.832043E+04  4.004105E-01 -5.363347E-09  5.001185E-09
       178  16  1.127334E+04  1.375874E+03  3.595796E+04  2.562832E+02  2.284616E-09  4.375321E-09
       178  17 -3.173827E+03 -1.716062E+03  2.121874E+04  2.126521E+01 -1.284376E-09  3.613026E-09
       178  18  1.431292E+03  1.371333E+03  1.832043E+04 -1.224796E+02 -7.378865E-09 -1.779758E-09
       178  19  1.127877E+04  1.371185E+03  3.595899E+04 -1.158624E+02  1.659440E+02 -2.340505E+04
       178  20 -3.172888E+03 -1.716789E+03  2.121904E+04 -4.192494E+01  8.886416E+01 -1.253401E+04
       178  21  1.427808E+03  1.374821E+03  1.832043E+04  1.232804E+02  1.179129E+01 -1.663183E+03
       178  22  1.127613E+04  1.373824E+03  3.595899E+04  7.020884E+01  1.659370E+02 -2.340505E+04
       178  23 -3.173336E+03 -1.716341E+03  2.121904E+04 -1.033032E+01  8.886353E+01 -1.253401E+04
       178  24  1.429550E+03  1.373079E+03  1.832043E+04  4.003949E-01  1.179162E+01 -1.663183E+03
       178  25  1.127349E+04  1.376462E+03  3.595899E+04  2.562801E+02  1.659300E+02 -2.340505E+04
       178  26 -3.173784E+03 -1.715893E+03  2.121904E+04  2.126431E+01  8.886289E+01 -1.253401E+04
       178  27  1.431293E+03  1.371336E+03  1.832043E+04 -1.224796E+02  1.179195E+01 -1.663183E+03
       179   1 -7.050193E+06 -2.313115E+06 -1.208285E+06 -2.515623E+06 -4.213864E+05 -9.095965E+04
       179   2 -6.851646E+06 -2.016809E+06 -8.924464E+05 -2.443073E+06 -2.809006E+05  1.257509E+05
       179   3 -6.691790E+06 -1.892859E+06 -7.591778E+05 -2.382695E+06 -9.967383E+04  2.365364E+05
       179   4 -3.241014E+06 -7.703315E+05 -1.940359E+05 -1.367832E+06 -1.482133E+05  1.340695E+04
       179   5 -3.225421E+06 -6.242537E+05 -8.882157E+04 -1.390108E+06 -1.558252E+05  1.733205E+05
       179   6 -3.218511E+06 -6.204384E+05 -4.727084E+04 -1.424651E+06 -1.229087E+05  2.275513E+05
       179   7  5.825370E+05  7.739990E+05  8.192396E+05 -2.133663E+05  1.268165E+05  1.185850E+05
       179   8  4.143128E+05  7.696301E+05  7.140534E+05 -3.313273E+05 -2.995032E+04  2.212151E+05
       179   9  2.673388E+05  6.530105E+05  6.640315E+05 -4.616035E+05 -1.462854E+05  2.185142E+05
       179  10 -7.050388E+06 -2.313173E+06 -1.208639E+06 -2.515654E+06  8.610708E-10  1.453139E-09
       179  11 -6.851736E+06 -2.016847E+06 -8.926253E+05 -2.443045E+06 -2.033773E-09  2.144352E-09
       179  12 -6.691816E+06 -1.892922E+06 -7.593014E+05 -2.382676E+06 -2.070987E-10  8.442431E-10
       179  13 -3.241037E+06 -7.703376E+05 -1.940777E+05 -1.367831E+06  2.490878E-09  2.787486E-09
       179  14 -3.225455E+06 -6.242924E+05 -8.892355E+04 -1.390086E+06 -5.230448E-10 -6.722411E-09
       179  15 -3.218541E+06 -6.204980E+05 -4.739631E+04 -1.424628E+06 -2.243647E-09  2.297781E-10
       179  16  5.825160E+05  7.739796E+05  8.191830E+05 -2.133784E+05  7.307841E-10 -2.407915E-09
       179  17  4.142988E+05  7.695773E+05  7.139599E+05 -3.313220E+05  4.318579E-10 -1.022378E-08
       179  18  2.673030E+05  6.529536E+05  6.639018E+05 -4.615778E+05  1.561191E-10 -7.809715E-09
       179  19 -7.050193E+06 -2.313115E+06 -1.208285E+06 -2.515623E+06  4.213864E+05  9.095965E+04
       179  20 -6.851646E+06 -2.016809E+06 -8.924464E+05 -2.443073E+06  2.809006E+05 -1.257509E+05
       179  21 -6.691790E+06 -1.892859E+06 -7.591778E+05 -2.382695E+06  9.967383E+04 -2.365364E+05
       179  22 -3.241014E+06 -7.703315E+05 -1.940359E+05 -1.367832E+06  1.482133E+05 -1.340695E+04
       179  23 -3.225421E+06 -6.242537E+05 -8.882157E+04 -1.390108E+06  1.558252E+05 -1.733205E+05
       179  24 -3.218511E+06 -6.204384E+05 -4.727084E+04 -1.424651E+06  1.229087E+05 -2.275513E+05
       179  25  5.825370E+05  7.739990E+05  8.192396E+05 -2.133663E+05 -1.268165E+05 -1.185850E+05
       179  26  4.143128E+05  7.696301E+05  7.140534E+05 -3.313273E+05  2.995032E+04 -2.212151E+05
       179  27  2.673388E+05  6.530105E+05  6.640315E+05 -4.616035E+05  1.462854E+05 -2.185142E+05
       180   1 -6.526884E+06 -1.856014E+06 -7.172199E+05 -2.351147E+06 -1.110007E+05  2.212928E+05
       180   2 -6.334833E+06 -1.745966E+06 -6.466621E+05 -2.267457E+06 -8.887282E+04  2.232287E+05
       180   3 -6.104038E+06 -1.684342E+06 -5.923161E+05 -2.229942E+06 -6.399358E+04  2.178271E+05
       180   4 -3.211380E+06 -6.269001E+05 -3.616603E+04 -1.421505E+06 -1.138484E+05  2.200762E+05
       180   5 -3.231007E+06 -6.001834E+05 -1.931076E+04 -1.399651E+06 -1.019433E+05  2.181503E+05
       180   6 -3.209877E+06 -6.198087E+05 -1.045529E+04 -1.423973E+06 -8.730199E+04  2.089040E+05
       180   7  1.155458E+05  6.032088E+05  6.443218E+05 -4.872102E+05 -1.167127E+05  2.188537E+05
       180   8 -1.171577E+05  5.464658E+05  6.075625E+05 -5.277836E+05 -1.150850E+05  2.130454E+05
       180   9 -3.070097E+05  4.454627E+05  5.709937E+05 -6.144933E+05 -1.107284E+05  1.999367E+05
       180  10 -6.526910E+06 -1.856070E+06 -7.173349E+05 -2.351127E+06  1.711110E-09  1.977963E-09
       180  11 -6.334855E+06 -1.746022E+06 -6.467704E+05 -2.267441E+06  7.213627E-09  4.954198E-09
       180  12 -6.104055E+06 -1.684393E+06 -5.924128E+05 -2.229931E+06  9.666765E-09  2.081914E-09
       180  13 -3.211406E+06 -6.269554E+05 -3.628119E+04 -1.421484E+06  4.241912E-09 -4.652458E-09
       180  14 -3.231031E+06 -6.002372E+05 -1.941953E+04 -1.399633E+06  9.745526E-09 -4.408939E-09
       180  15 -3.209897E+06 -6.198575E+05 -1.055145E+04 -1.423958E+06  2.531209E-09 -1.173657E-09
       180  16  1.155184E+05  6.031538E+05  6.442064E+05 -4.871897E+05  5.845131E-09 -5.741880E-10
       180  17 -1.171841E+05  5.464136E+05  6.074525E+05 -5.277639E+05  5.928909E-09 -1.284819E-09
       180  18 -3.070336E+05  4.454166E+05  5.708957E+05 -6.144755E+05 -4.815115E-09 -1.597089E-09
       180  19 -6.526884E+06 -1.856014E+06 -7.172199E+05 -2.351147E+06  1.110007E+05 -2.212928E+05
       180  20 -6.334833E+06 -1.745966E+06 -6.466621E+05 -2.267457E+06  8.887282E+04 -2.232287E+05
       180  21 -6.104038E+06 -1.684342E+06 -5.923161E+05 -2.229942E+06  6.399358E+04 -2.178271E+05
       180  22 -3.211380E+06 -6.269001E+05 -3.616603E+04 -1.421505E+06  1.138484E+05 -2.200762E+05
       180  23 -3.231007E+06 -6.001834E+05 -1.931076E+04 -1.399651E+06  1.019433E+05 -2.181503E+05
       180  24 -3.209877E+06 -6.198087E+05 -1.045529E+04 -1.423973E+06  8.730199E+04 -2.089040E+05
       180  25  1.155458E+05  6.032088E+05  6.443218E+05 -4.872102E+05  1.167127E+05 -2.188537E+05
       180  26 -1.171577E+05  5.464658E+05  6.075625E+05 -5.277836E+05  1.150850E+05 -2.130454E+05
       180  27 -3.070097E+05  4.454627E+05  5.709937E+05 -6.144933E+05  1.107284E+05 -1.999367E+05
       181   1 -5.954918E+06 -1.629941E+06 -5.586927E+05 -2.188997E+06 -5.997015E+04  2.082413E+05
       181   2 -5.756978E+06 -1.525540E+06 -5.107759E+05 -2.102146E+06 -5.068422E+04  1.933145E+05
       181   3 -5.514680E+06 -1.464931E+06 -4.649636E+05 -2.064687E+06 -4.118951E+04  1.777177E+05
       181   4 -3.209034E+06 -6.202298E+05 -7.910239E+03 -1.424226E+06 -8.213849E+04  1.997697E+05
       181   5 -3.230992E+06 -5.978465E+05 -4.480983E+03 -1.399659E+06 -7.377690E+04  1.845245E+05
       181   6 -3.208473E+06 -6.190636E+05 -2.421910E+03 -1.424491E+06 -6.520833E+04  1.686104E+05
       181   7 -4.552652E+05  3.901659E+05  5.425165E+05 -6.562818E+05 -1.044136E+05  1.912581E+05
       181   8 -6.983454E+05  3.304197E+05  5.015116E+05 -6.944942E+05 -9.697169E+04  1.756962E+05
       181   9 -8.967263E+05  2.272741E+05  4.598653E+05 -7.820708E+05 -8.932395E+04  1.594669E+05
       181  10 -5.954934E+06 -1.629989E+06 -5.587808E+05 -2.188987E+06  1.940164E-08  2.094327E-09
       181  11 -5.756991E+06 -1.525581E+06 -5.108509E+05 -2.102138E+06  1.167769E-08  3.501301E-09
       181  12 -5.514690E+06 -1.464966E+06 -4.650260E+05 -2.064681E+06  1.414499E-08  1.067015E-09
       181  13 -3.209052E+06 -6.202743E+05 -7.997753E+03 -1.424213E+06 -4.619376E-10 -4.301610E-11
       181  14 -3.231007E+06 -5.978844E+05 -4.555063E+03 -1.399648E+06  1.288257E-09  8.234627E-09
       181  15 -3.208485E+06 -6.190953E+05 -2.483215E+03 -1.424482E+06  1.033816E-09  1.709819E-08
       181  16 -4.552867E+05  3.901238E+05  5.424274E+05 -6.562657E+05 -1.404830E-08 -9.226963E-09
       181  17 -6.983637E+05  3.303841E+05  5.014361E+05 -6.944805E+05 -1.169460E-08 -8.174281E-09
       181  18 -8.967416E+05  2.272447E+05  4.598026E+05 -7.820593E+05  3.546739E-09 -3.698021E-09
       181  19 -5.954918E+06 -1.629941E+06 -5.586927E+05 -2.188997E+06  5.997015E+04 -2.082413E+05
       181  20 -5.756978E+06 -1.525540E+06 -5.107759E+05 -2.102146E+06  5.068422E+04 -1.933145E+05
       181  21 -5.514680E+06 -1.464931E+06 -4.649636E+05 -2.064687E+06  4.118951E+04 -1.777177E+05
       181  22 -3.209034E+06 -6.202298E+05 -7.910239E+03 -1.424226E+06  8.213849E+04 -1.997697E+05
       181  23 -3.230992E+06 -5.978465E+05 -4.480983E+03 -1.399659E+06  7.377690E+04 -1.845245E+05
       181  24 -3.208473E+06 -6.190636E+05 -2.421910E+03 -1.424491E+06  6.520833E+04 -1.686104E+05
       181  25 -4.552652E+05  3.901659E+05  5.425165E+05 -6.562818E+05  1.044136E+05 -1.912581E+05
       181  26 -6.983454E+05  3.304197E+05  5.015116E+05 -6.944942E+05  9.697169E+04 -1.756962E+05
       181  27 -8.967263E+05  2.272741E+05  4.598653E+05 -7.820708E+05  8.932395E+04 -1.594669E+05
       182   1 -5.361931E+06 -1.408466E+06 -4.324789E+05 -2.022397E+06 -3.694631E+04  1.678943E+05
       182   2 -5.158031E+06 -1.302249E+06 -3.869173E+05 -1.933569E+06 -2.957000E+04  1.509559E+05
       182   3 -4.908777E+06 -1.240643E+06 -3.417998E+05 -1.895698E+06 -2.216224E+04  1.338382E+05
       182   4 -3.208116E+06 -6.191656E+05 -1.884770E+03 -1.424816E+06 -6.107308E+04  1.587635E+05
       182   5 -3.230584E+06 -5.964805E+05 -1.235398E+03 -1.399419E+06 -5.394281E+04  1.417573E+05
       182   6 -3.207709E+06 -6.183573E+05 -8.401998E+02 -1.424991E+06 -4.678153E+04  1.245721E+05
       182   7 -1.049486E+06  1.705385E+05  4.284847E+05 -8.253020E+05 -8.529040E+04  1.495987E+05
       182   8 -1.299267E+06  1.096141E+05  3.842706E+05 -8.637190E+05 -7.839759E+04  1.325281E+05
       182   9 -1.503615E+06  4.186679E+03  3.399861E+05 -9.530757E+05 -7.147403E+04  1.152786E+05
       182  10 -5.361940E+06 -1.408497E+06 -4.325344E+05 -2.022392E+06  2.481826E-08  6.166980E-09
       182  11 -5.158038E+06 -1.302273E+06 -3.869617E+05 -1.933566E+06 -4.817261E-09 -4.354338E-09
       182  12 -4.908783E+06 -1.240663E+06 -3.418344E+05 -1.895696E+06 -3.033494E-08 -1.662812E-08
       182  13 -3.208127E+06 -6.191936E+05 -1.939048E+03 -1.424809E+06  4.616423E-09  1.870494E-08
       182  14 -3.230592E+06 -5.965028E+05 -1.278551E+03 -1.399413E+06  2.342679E-09  1.068666E-08
       182  15 -3.207715E+06 -6.183745E+05 -8.734143E+02 -1.424987E+06  1.467275E-09 -2.895530E-10
       182  16 -1.049499E+06  1.705126E+05  4.284291E+05 -8.252917E+05 -5.383594E-09 -3.908884E-09
       182  17 -1.299278E+06  1.095936E+05  3.842261E+05 -8.637106E+05  1.710597E-08  7.464332E-09
       182  18 -1.503624E+06  4.171070E+03  3.399516E+05 -9.530690E+05  3.621781E-08  1.186632E-08
       182  19 -5.361931E+06 -1.408466E+06 -4.324789E+05 -2.022397E+06  3.694631E+04 -1.678943E+05
       182  20 -5.158031E+06 -1.302249E+06 -3.869173E+05 -1.933569E+06  2.957000E+04 -1.509559E+05
       182  21 -4.908777E+06 -1.240643E+06 -3.417998E+05 -1.895698E+06  2.216224E+04 -1.338382E+05
       182  22 -3.208116E+06 -6.191656E+05 -1.884770E+03 -1.424816E+06  6.107308E+04 -1.587635E+05
       182  23 -3.230584E+06 -5.964805E+05 -1.235398E+03 -1.399419E+06  5.394281E+04 -1.417573E+05
       182  24 -3.207709E+06 -6.183573E+05 -8.401998E+02 -1.424991E+06  4.678153E+04 -1.245721E+05
       182  25 -1.049486E+06  1.705385E+05  4.284847E+05 -8.253020E+05  8.529040E+04 -1.495987E+05
       182  26 -1.299267E+06  1.096141E+05  3.842706E+05 -8.637190E+05  7.839759E+04 -1.325281E+05
       182  27 -1.503615E+06  4.186679E+03  3.399861E+05 -9.530757E+05  7.147403E+04 -1.152786E+05
       183   1 -4.752377E+06 -1.183106E+06 -3.091329E+05 -1.852622E+06 -1.803984E+04  1.237158E+05
       183   2 -4.543939E+06 -1.075420E+06 -2.636576E+05 -1.762413E+06 -1.076161E+04  1.063021E+05
       183   3 -4.289719E+06 -1.013165E+06 -2.185726E+05 -1.724306E+06 -3.472380E+03  8.879210E+04
       183   4 -3.207490E+06 -6.184194E+05 -8.365061E+02 -1.425244E+06 -4.280179E+04  1.144088E+05
       183   5 -3.230216E+06 -5.954221E+05 -1.038218E+03 -1.399251E+06 -3.565673E+04  9.696240E+04
       183   6 -3.207197E+06 -6.178286E+05 -1.529225E+03 -1.425373E+06 -2.850102E+04  7.941984E+04
       183   7 -1.660117E+06 -5.352369E+04  3.073485E+05 -9.968726E+05 -6.763038E+04  1.050769E+05
       183   8 -1.914702E+06 -1.152759E+05  2.614995E+05 -1.035373E+06 -6.060869E+04  8.760144E+04
       183   9 -2.123465E+06 -2.223940E+05  2.154576E+05 -1.125957E+06 -5.357660E+04  7.003002E+04
       183  10 -4.752382E+06 -1.183123E+06 -3.091623E+05 -1.852620E+06 -4.960030E-08 -2.363524E-08
       183  11 -4.543942E+06 -1.075432E+06 -2.636791E+05 -1.762412E+06  1.126056E-08  1.842740E-10
       183  12 -4.289721E+06 -1.013173E+06 -2.185874E+05 -1.724306E+06  7.345089E-08  2.453698E-08
       183  13 -3.207495E+06 -6.184339E+05 -8.644958E+02 -1.425240E+06 -2.625608E-10 -4.607286E-09
       183  14 -3.230220E+06 -5.954326E+05 -1.058239E+03 -1.399248E+06  2.064857E-10 -1.815628E-09
       183  15 -3.207199E+06 -6.178356E+05 -1.542580E+03 -1.425372E+06  6.192624E-09  5.981685E-09
       183  16 -1.660125E+06 -5.353675E+04  3.073192E+05 -9.968669E+05  5.035044E-08  1.379019E-08
       183  17 -1.914708E+06 -1.152851E+05  2.614782E+05 -1.035368E+06 -1.143889E-08 -1.366146E-08
       183  18 -2.123469E+06 -2.224000E+05  2.154430E+05 -1.125954E+06 -6.215192E-08 -2.988126E-08
       183  19 -4.752377E+06 -1.183106E+06 -3.091329E+05 -1.852622E+06  1.803984E+04 -1.237158E+05
       183  20 -4.543939E+06 -1.075420E+06 -2.636576E+05 -1.762413E+06  1.076161E+04 -1.063021E+05
       183  21 -4.289719E+06 -1.013165E+06 -2.185726E+05 -1.724306E+06  3.472380E+03 -8.879210E+04
       183  22 -3.207490E+06 -6.184194E+05 -8.365061E+02 -1.425244E+06  4.280179E+04 -1.144088E+05
       183  23 -3.230216E+06 -5.954221E+05 -1.038218E+03 -1.399251E+06  3.565673E+04 -9.696240E+04
       183  24 -3.207197E+06 -6.178286E+05 -1.529225E+03 -1.425373E+06  2.850102E+04 -7.941984E+04
       183  25 -1.660117E+06 -5.352369E+04  3.073485E+05 -9.968726E+05  6.763038E+04 -1.050769E+05
       183  26 -1.914702E+06 -1.152759E+05  2.614995E+05 -1.035373E+06  6.060869E+04 -8.760144E+04
       183  27 -2.123465E+06 -2.223940E+05  2.154576E+05 -1.125957E+06  5.357660E+04 -7.003002E+04
       184   1 -4.130743E+06 -9.549182E+05 -1.858769E+05 -1.680697E+06  8.147836E+02  7.855905E+04
       184   2 -3.919327E+06 -8.463656E+05 -1.411950E+05 -1.589608E+06  9.169085E+03  6.135156E+04
       184   3 -3.662080E+06 -7.839170E+05 -9.778065E+04 -1.551352E+06  1.749091E+04  4.419714E+04
       184   4 -3.207115E+06 -6.178624E+05 -1.995836E+03 -1.425557E+06 -2.432666E+04  6.915255E+04
       184   5 -3.229920E+06 -5.946934E+05 -3.524898E+03 -1.399146E+06 -1.589811E+04  5.198179E+04
       184   6 -3.206975E+06 -6.176479E+05 -6.385575E+03 -1.425590E+06 -7.502745E+03  3.486396E+04
       184   7 -2.282591E+06 -2.807290E+05  1.818497E+05 -1.170061E+06 -4.950870E+04  5.973087E+04
       184   8 -2.540014E+06 -3.429782E+05  1.341260E+05 -1.208487E+06 -4.099546E+04  4.260073E+04
       184   9 -2.751655E+06 -4.513604E+05  8.500216E+04 -1.299742E+06 -3.251618E+04  2.552335E+04
       184  10 -4.130744E+06 -9.549248E+05 -1.858885E+05 -1.680697E+06 -1.451252E-08 -6.983458E-09
       184  11 -3.919328E+06 -8.463697E+05 -1.412022E+05 -1.589608E+06  3.713518E-09  2.148885E-09
       184  12 -3.662081E+06 -7.839192E+05 -9.778491E+04 -1.551353E+06  2.866132E-08  9.576634E-09
       184  13 -3.207117E+06 -6.178677E+05 -2.005917E+03 -1.425556E+06  4.952053E-09  7.504311E-09
       184  14 -3.229921E+06 -5.946963E+05 -3.530441E+03 -1.399146E+06  7.123257E-10  6.556199E-09
       184  15 -3.206976E+06 -6.176493E+05 -6.387961E+03 -1.425590E+06  5.582569E-09  1.128814E-08
       184  16 -2.282595E+06 -2.807335E+05  1.818384E+05 -1.170058E+06  2.782894E-08  6.918004E-09
       184  17 -2.540016E+06 -3.429806E+05  1.341195E+05 -1.208485E+06  1.458631E-09 -3.249497E-10
       184  18 -2.751656E+06 -4.513614E+05  8.499895E+04 -1.299741E+06 -1.682958E-08 -7.432349E-09
       184  19 -4.130743E+06 -9.549182E+05 -1.858769E+05 -1.680697E+06 -8.147836E+02 -7.855905E+04
       184  20 -3.919327E+06 -8.463656E+05 -1.411950E+05 -1.589608E+06 -9.169085E+03 -6.135156E+04
       184  21 -3.662080E+06 -7.839170E+05 -9.778065E+04 -1.551352E+06 -1.749091E+04 -4.419714E+04
       184  22 -3.207115E+06 -6.178624E+05 -1.995836E+03 -1.425557E+06  2.432666E+04 -6.915255E+04
       184  23 -3.229920E+06 -5.946934E+05 -3.524898E+03 -1.399146E+06  1.589811E+04 -5.198179E+04
       184  24 -3.206975E+06 -6.176479E+05 -6.385575E+03 -1.425590E+06  7.502745E+03 -3.486396E+04
       184  25 -2.282591E+06 -2.807290E+05  1.818497E+05 -1.170061E+06  4.950870E+04 -5.973087E+04
       184  26 -2.540014E+06 -3.429782E+05  1.341260E+05 -1.208487E+06  4.099546E+04 -4.260073E+04
       184  27 -2.751655E+06 -4.513604E+05  8.500216E+04 -1.299742E+06  3.251618E+04 -2.552335E+04
       185   1 -3.501576E+06 -7.255135E+05 -6.646970E+04 -1.508056E+06  2.293402E+04  3.430431E+04
       185   2 -3.289387E+06 -6.161816E+05 -2.637725E+04 -1.415039E+06  3.493069E+04  1.918694E+04
       185   3 -3.033113E+06 -5.564498E+05  8.609457E+03 -1.374338E+06  4.633676E+04  5.651798E+03
       185   4 -3.207284E+06 -6.174630E+05 -8.497059E+03 -1.425860E+06 -2.408864E+03  2.484382E+04
       185   5 -3.229417E+06 -5.948499E+05 -1.550403E+04 -1.398792E+06  1.181226E+04  1.055745E+04
       185   6 -3.207970E+06 -6.222859E+05 -2.938924E+04 -1.424065E+06  2.544063E+04 -2.147545E+03
       185   7 -2.912902E+06 -5.094049E+05  4.947370E+04 -1.343627E+06 -2.776448E+04  1.537847E+04
       185   8 -3.169443E+06 -5.735174E+05 -4.628633E+03 -1.382544E+06 -1.130857E+04  1.927101E+03
       185   9 -3.382795E+06 -6.881193E+05 -6.738826E+04 -1.473780E+06  4.550705E+03 -9.944426E+03
       185  10 -3.501577E+06 -7.255149E+05 -6.647292E+04 -1.508057E+06 -1.730034E-08 -8.705818E-09
       185  11 -3.289388E+06 -6.161823E+05 -2.638025E+04 -1.415039E+06 -1.205862E-08 -8.155677E-09
       185  12 -3.033115E+06 -5.564504E+05  8.605341E+03 -1.374338E+06  2.802323E-09 -1.709510E-09
       185  13 -3.207284E+06 -6.174637E+05 -8.498229E+03 -1.425860E+06  5.550053E-09  9.177768E-09
       185  14 -3.229418E+06 -5.948500E+05 -1.550450E+04 -1.398792E+06  1.935052E-09  3.553936E-09
       185  15 -3.207970E+06 -6.222861E+05 -2.939047E+04 -1.424065E+06  9.730387E-10 -2.450835E-09
       185  16 -2.912903E+06 -5.094054E+05  4.947181E+04 -1.343627E+06  3.005118E-08  1.153766E-08
       185  17 -3.169443E+06 -5.735174E+05 -4.628881E+03 -1.382544E+06  1.468453E-08  4.447124E-09
       185  18 -3.382795E+06 -6.881194E+05 -6.738848E+04 -1.473780E+06 -1.736120E-10 -4.343269E-09
       185  19 -3.501576E+06 -7.255135E+05 -6.646970E+04 -1.508056E+06 -2.293402E+04 -3.430431E+04
       185  20 -3.289387E+06 -6.161816E+05 -2.637725E+04 -1.415039E+06 -3.493069E+04 -1.918694E+04
       185  21 -3.033113E+06 -5.564498E+05  8.609457E+03 -1.374338E+06 -4.633676E+04 -5.651798E+03
       185  22 -3.207284E+06 -6.174630E+05 -8.497059E+03 -1.425860E+06  2.408864E+03 -2.484382E+04
       185  23 -3.229417E+06 -5.948499E+05 -1.550403E+04 -1.398792E+06 -1.181226E+04 -1.055745E+04
       185  24 -3.207970E+06 -6.222859E+05 -2.938924E+04 -1.424065E+06 -2.544063E+04  2.147545E+03
       185  25 -2.912902E+06 -5.094049E+05  4.947370E+04 -1.343627E+06  2.776448E+04 -1.537847E+04
       185  26 -3.169443E+06 -5.735174E+05 -4.628633E+03 -1.382544E+06  1.130857E+04 -1.927101E+03
       185  27 -3.382795E+06 -6.881193E+05 -6.738826E+04 -1.473780E+06 -4.550705E+03  9.944426E+03
       186   1 -2.866728E+06 -5.025306E+05  3.318311E+04 -1.344829E+06  5.932365E+04 -1.485061E+03
       186   2 -2.677600E+06 -3.797340E+05  5.731626E+04 -1.207868E+06  6.609329E+04 -6.064776E+03
       186   3 -2.474998E+06 -3.840076E+05  5.554862E+04 -1.100460E+06  6.400285E+04  1.305789E+04
       186   4 -3.212902E+06 -6.176488E+05 -3.846856E+04 -1.427694E+06  3.379021E+04 -1.101576E+04
       186   5 -3.225058E+06 -6.125504E+05 -7.201724E+04 -1.389883E+06  7.396216E+04 -3.132143E+03
       186   6 -3.230478E+06 -7.412445E+05 -1.580559E+05 -1.381665E+06  1.052664E+05  2.846243E+04
       186   7 -3.558954E+06 -7.327625E+05 -1.101242E+05 -1.510518E+06  8.272089E+03 -2.054198E+04
       186   8 -3.772200E+06 -8.453118E+05 -2.013689E+05 -1.571738E+06  8.182336E+04 -2.033728E+02
       186   9 -3.985356E+06 -1.098328E+06 -3.716988E+05 -1.662515E+06  1.464735E+05  4.383339E+04
       186  10 -2.866732E+06 -5.025316E+05  3.317647E+04 -1.344829E+06 -9.373502E-10 -3.371814E-09
       186  11 -2.677605E+06 -3.797352E+05  5.730795E+04 -1.207867E+06  7.796508E-09  8.707784E-10
       186  12 -2.475003E+06 -3.840089E+05  5.554056E+04 -1.100461E+06  4.041083E-09 -2.187160E-10
       186  13 -3.212903E+06 -6.176492E+05 -3.847094E+04 -1.427693E+06  5.302700E-09 -1.232316E-09
       186  14 -3.225063E+06 -6.125519E+05 -7.202759E+04 -1.389883E+06  9.247198E-09  2.535131E-09
       186  15 -3.230490E+06 -7.412484E+05 -1.580784E+05 -1.381668E+06  3.483002E-09  5.360229E-10
       186  16 -3.558954E+06 -7.327630E+05 -1.101251E+05 -1.510518E+06  9.466560E-09 -3.864896E-09
       186  17 -3.772207E+06 -8.453136E+05 -2.013815E+05 -1.571738E+06  9.404476E-09  6.080617E-10
       186  18 -3.985380E+06 -1.098336E+06 -3.717431E+05 -1.662521E+06  1.300307E-09 -5.124692E-10
       186  19 -2.866728E+06 -5.025306E+05  3.318311E+04 -1.344829E+06 -5.932365E+04  1.485061E+03
       186  20 -2.677600E+06 -3.797340E+05  5.731626E+04 -1.207868E+06 -6.609329E+04  6.064776E+03
       186  21 -2.474998E+06 -3.840076E+05  5.554862E+04 -1.100460E+06 -6.400285E+04 -1.305789E+04
       186  22 -3.212902E+06 -6.176488E+05 -3.846856E+04 -1.427694E+06 -3.379021E+04  1.101576E+04
       186  23 -3.225058E+06 -6.125504E+05 -7.201724E+04 -1.389883E+06 -7.396216E+04  3.132143E+03
       186  24 -3.230478E+06 -7.412445E+05 -1.580559E+05 -1.381665E+06 -1.052664E+05 -2.846243E+04
       186  25 -3.558954E+06 -7.327625E+05 -1.101242E+05 -1.510518E+06 -8.272089E+03  2.054198E+04
       186  26 -3.772200E+06 -8.453118E+05 -2.013689E+05 -1.571738E+06 -8.182336E+04  2.033728E+02
       186  27 -3.985356E+06 -1.098328E+06 -3.716988E+05 -1.662515E+06 -1.464735E+05 -4.383339E+04
       187   1  2.349284E+05  4.802125E+04  6.705839E+04  1.420422E+04  5.859880E+04  7.078375E+02
       187   2  2.297889E+05 -3.000569E+04  1.999532E+04  4.516664E+03  3.878551E+04  2.025481E+03
       187   3  2.493369E+05 -1.964881E+04  7.928818E+03 -1.176793E+04  1.897195E+04  1.728344E+03
       187   4  3.154509E+05  6.809560E+04  8.699661E+04 -3.770331E+03  5.947414E+04  7.063765E+02
       187   5  3.030566E+05 -1.180399E+04  3.777044E+04 -4.624809E+02  3.899911E+04  2.025202E+03
       187   6  3.154610E+05 -3.211250E+03  2.399692E+04 -3.751530E+03  1.852406E+04  1.728501E+03
       187   7  3.959800E+05  8.817068E+04  1.069345E+05 -2.174721E+04  6.034959E+04  7.048650E+02
       187   8  3.763293E+05  6.397399E+03  5.554519E+04 -5.442215E+03  3.921274E+04  2.024919E+03
       187   9  3.815893E+05  1.322623E+04  4.006474E+04  4.265727E+03  1.807613E+04  1.728647E+03
       187  10  2.349248E+05  4.802033E+04  6.705194E+04  1.420419E+04 -2.138546E-09 -2.077043E-10
       187  11  2.297873E+05 -3.000610E+04  1.999249E+04  4.516601E+03 -2.129166E-09  3.514724E-10
       187  12  2.493365E+05 -1.964891E+04  7.928137E+03 -1.176796E+04 -1.635323E-09  1.138771E-10
       187  13  3.154471E+05  6.809465E+04  8.698997E+04 -3.770365E+03 -2.041412E-09  2.123618E-10
       187  14  3.030550E+05 -1.180441E+04  3.776758E+04 -4.625445E+02 -2.108676E-09  1.288777E-10
       187  15  3.154607E+05 -3.211345E+03  2.399627E+04 -3.751555E+03  1.471926E-09  1.271624E-10
       187  16  3.959761E+05  8.816970E+04  1.069277E+05 -2.174725E+04  2.108130E-09  1.523470E-10
       187  17  3.763276E+05  6.396983E+03  5.554230E+04 -5.442279E+03  1.798738E-09  6.509570E-11
       187  18  3.815890E+05  1.322614E+04  4.006412E+04  4.265701E+03  1.368299E-09  7.332437E-10
       187  19  2.349284E+05  4.802125E+04  6.705839E+04  1.420422E+04 -5.859880E+04 -7.078375E+02
       187  20  2.297889E+05 -3.000569E+04  1.999532E+04  4.516664E+03 -3.878551E+04 -2.025481E+03
       187  21  2.493369E+05 -1.964881E+04  7.928818E+03 -1.176793E+04 -1.897195E+04 -1.728344E+03
       187  22  3.154509E+05  6.809560E+04  8.699661E+04 -3.770331E+03 -5.947414E+04 -7.063765E+02
       187  23  3.030566E+05 -1.180399E+04  3.777044E+04 -4.624809E+02 -3.899911E+04 -2.025202E+03
       187  24  3.154610E+05 -3.211250E+03  2.399692E+04 -3.751530E+03 -1.852406E+04 -1.728501E+03
       187  25  3.959800E+05  8.817068E+04  1.069345E+05 -2.174721E+04 -6.034959E+04 -7.048650E+02
       187  26  3.763293E+05  6.397399E+03  5.554519E+04 -5.442215E+03 -3.921274E+04 -2.024919E+03
       187  27  3.815893E+05  1.322623E+04  4.006474E+04  4.265727E+03 -1.807613E+04 -1.728647E+03
       188   1  2.569966E+05 -5.203166E+03  6.612915E+03 -1.760707E+03  1.473340E+04  1.333533E+03
       188   2  2.624109E+05 -1.302018E+04 -1.510258E+03  3.685411E+00  9.727467E+03  1.216465E+03
       188   3  2.711384E+05 -1.021245E+04 -3.717836E+03 -4.742289E+03  4.721483E+03  9.492552E+02
       188   4  3.106866E+05  8.143645E+03  1.967731E+04 -3.738738E+03  1.471740E+04  1.333477E+03
       188   5  3.090257E+05 -1.434829E+03  9.816872E+03 -4.830059E+02  9.649781E+03  1.216443E+03
       188   6  3.106884E+05 -3.783247E+02  5.914467E+03 -3.737593E+03  4.582168E+03  9.492487E+02
       188   7  3.643792E+05  2.149026E+04  3.274150E+04 -5.716941E+03  1.470140E+04  1.333420E+03
       188   8  3.556426E+05  1.015036E+04  2.114384E+04 -9.697338E+02  9.572089E+03  1.216421E+03
       188   9  3.502399E+05  9.455686E+03  1.554666E+04 -2.732831E+03  4.442845E+03  9.492417E+02
       188  10  2.569964E+05 -5.203226E+03  6.612504E+03 -1.760723E+03  2.269501E-10 -6.858680E-10
       188  11  2.624108E+05 -1.302020E+04 -1.510438E+03  3.675882E+00 -1.027818E-10 -1.299166E-09
       188  12  2.711383E+05 -1.021245E+04 -3.717879E+03 -4.742293E+03 -4.429272E-09  1.037293E-09
       188  13  3.106864E+05  8.143585E+03  1.967690E+04 -3.738754E+03 -2.045261E-09  4.727899E-12
       188  14  3.090256E+05 -1.434856E+03  9.816694E+03 -4.830153E+02 -2.018664E-09 -7.937207E-10
       188  15  3.106884E+05 -3.783313E+02  5.914426E+03 -3.737596E+03  2.023775E-09  7.212105E-10
       188  16  3.643790E+05  2.149020E+04  3.274109E+04 -5.716957E+03 -1.949161E-09  2.925233E-10
       188  17  3.556425E+05  1.015033E+04  2.114367E+04 -9.697432E+02 -8.384840E-10 -4.416259E-10
       188  18  3.502399E+05  9.455679E+03  1.554662E+04 -2.732835E+03  2.701587E-09  5.203729E-10
       188  19  2.569966E+05 -5.203166E+03  6.612915E+03 -1.760707E+03 -1.473340E+04 -1.333533E+03
       188  20  2.624109E+05 -1.302018E+04 -1.510258E+03  3.685411E+00 -9.727467E+03 -1.216465E+03
       188  21  2.711384E+05 -1.021245E+04 -3.717836E+03 -4.742289E+03 -4.721483E+03 -9.492552E+02
       188  22  3.106866E+05  8.143645E+03  1.967731E+04 -3.738738E+03 -1.471740E+04 -1.333477E+03
       188  23  3.090257E+05 -1.434829E+03  9.816872E+03 -4.830059E+02 -9.649781E+03 -1.216443E+03
       188  24  3.106884E+05 -3.783247E+02  5.914467E+03 -3.737593E+03 -4.582168E+03 -9.492487E+02
       188  25  3.643792E+05  2.149026E+04  3.274150E+04 -5.716941E+03 -1.470140E+04 -1.333420E+03
       188  26  3.556426E+05  1.015036E+04  2.114384E+04 -9.697338E+02 -9.572089E+03 -1.216421E+03
       188  27  3.502399E+05  9.455686E+03  1.554666E+04 -2.732831E+03 -4.442845E+03 -9.492417E+02
       189   1  2.827964E+05 -5.809359E+03 -1.945647E+03 -3.534640E+03  3.740365E+03  7.733907E+02
       189   2  2.895635E+05 -5.209041E+03 -2.416559E+03 -4.669438E+02  2.482215E+03  5.241659E+02
       189   3  2.968132E+05 -3.339018E+03 -1.750932E+03 -3.855611E+03  1.224058E+03  2.614004E+02
       189   4  3.100573E+05  9.625226E+02  4.661947E+03 -3.725981E+03  3.641537E+03  7.733815E+02
       189   5  3.098157E+05 -1.755170E+02  2.505600E+03 -4.977772E+02  2.377808E+03  5.241598E+02
       189   6  3.100577E+05 -4.288438E+01  1.489651E+03 -3.725925E+03  1.114088E+03  2.613971E+02
       189   7  3.373189E+05  7.734350E+03  1.126949E+04 -3.917329E+03  3.542705E+03  7.733724E+02
       189   8  3.300683E+05  4.857977E+03  7.427731E+03 -5.286117E+02  2.273399E+03  5.241537E+02
       189   9  3.233023E+05  3.253236E+03  4.730222E+03 -3.596236E+03  1.004115E+03  2.613938E+02
       189  10  2.827964E+05 -5.809364E+03 -1.945674E+03 -3.534643E+03  8.235271E-10  1.436331E-09
       189  11  2.895635E+05 -5.209043E+03 -2.416571E+03 -4.669448E+02  1.767303E-09 -6.006265E-10
       189  12  2.968132E+05 -3.339018E+03 -1.750935E+03 -3.855611E+03  3.346316E-09 -1.020493E-09
       189  13  3.100573E+05  9.625184E+02  4.661921E+03 -3.725983E+03 -1.160691E-10  1.031055E-09
       189  14  3.098157E+05 -1.755188E+02  2.505589E+03 -4.977782E+02  1.063239E-09 -5.167107E-10
       189  15  3.100577E+05 -4.288478E+01  1.489649E+03 -3.725925E+03  1.096866E-09 -6.844191E-10
       189  16  3.373189E+05  7.734346E+03  1.126946E+04 -3.917332E+03 -2.143962E-09  5.501331E-10
       189  17  3.300683E+05  4.857975E+03  7.427720E+03 -5.286127E+02 -3.214404E-09 -6.272033E-10
       189  18  3.233023E+05  3.253236E+03  4.730220E+03 -3.596236E+03 -3.572407E-09 -3.025515E-10
       189  19  2.827964E+05 -5.809359E+03 -1.945647E+03 -3.534640E+03 -3.740365E+03 -7.733907E+02
       189  20  2.895635E+05 -5.209041E+03 -2.416559E+03 -4.669438E+02 -2.482215E+03 -5.241659E+02
       189  21  2.968132E+05 -3.339018E+03 -1.750932E+03 -3.855611E+03 -1.224058E+03 -2.614004E+02
       189  22  3.100573E+05  9.625226E+02  4.661947E+03 -3.725981E+03 -3.641537E+03 -7.733815E+02
       189  23  3.098157E+05 -1.755170E+02  2.505600E+03 -4.977772E+02 -2.377808E+03 -5.241598E+02
       189  24  3.100577E+05 -4.288438E+01  1.489651E+03 -3.725925E+03 -1.114088E+03 -2.613971E+02
       189  25  3.373189E+05  7.734350E+03  1.126949E+04 -3.917329E+03 -3.542705E+03 -7.733724E+02
       189  26  3.300683E+05  4.857977E+03  7.427731E+03 -5.286117E+02 -2.273399E+03 -5.241537E+02
       189  27  3.233023E+05  3.253236E+03  4.730222E+03 -3.596236E+03 -1.004115E+03 -2.613938E+02
       190   1  3.089504E+05 -1.381603E+02  9.390229E+02 -3.710837E+03  9.817523E+02  1.067260E+02
       190   2  3.159034E+05  1.462629E+03  2.143312E+03 -5.030472E+02  6.379679E+02 -1.542178E+02
       190   3  3.229410E+05  3.219773E+03  3.610574E+03 -3.740180E+03  2.941786E+02 -4.165294E+02
       190   4  3.099690E+05  1.107342E+02  1.165244E+03 -3.723405E+03  8.755285E+02  1.067232E+02
       190   5  3.099268E+05 -2.281541E+01  6.906436E+02 -5.009408E+02  5.311835E+02 -1.542214E+02
       190   6  3.099691E+05  6.462402E-02  4.793799E+02 -3.723402E+03  1.868376E+02 -4.165337E+02
       190   7  3.109877E+05  3.596285E+02  1.391464E+03 -3.735973E+03  7.693044E+02  1.067205E+02
       190   8  3.039502E+05 -1.508262E+03 -7.620271E+02 -4.988344E+02  4.244002E+02 -1.542250E+02
       190   9  2.969973E+05 -3.219656E+03 -2.651827E+03 -3.706625E+03  7.949883E+01 -4.165380E+02
       190  10  3.089504E+05 -1.381605E+02  9.390211E+02 -3.710837E+03 -9.652653E-10 -1.279893E-10
       190  11  3.159034E+05  1.462628E+03  2.143311E+03 -5.030472E+02  1.570458E-09  1.020534E-09
       190  12  3.229410E+05  3.219773E+03  3.610574E+03 -3.740180E+03  1.972591E-09 -1.309638E-11
       190  13  3.099690E+05  1.107340E+02  1.165242E+03 -3.723405E+03  1.683360E-11 -3.263447E-11
       190  14  3.099268E+05 -2.281551E+01  6.906430E+02 -5.009407E+02 -4.374644E-09  4.092293E-10
       190  15  3.099691E+05  6.442833E-02  4.793795E+02 -3.723402E+03 -3.115283E-09 -2.664946E-10
       190  16  3.109877E+05  3.596284E+02  1.391463E+03 -3.735973E+03  2.094365E-09  3.012206E-11
       190  17  3.039502E+05 -1.508262E+03 -7.620275E+02 -4.988343E+02 -4.922383E-09 -1.491949E-10
       190  18  2.969973E+05 -3.219656E+03 -2.651827E+03 -3.706625E+03 -1.179316E-09 -5.204696E-10
       190  19  3.089504E+05 -1.381603E+02  9.390229E+02 -3.710837E+03 -9.817523E+02 -1.067260E+02
       190  20  3.159034E+05  1.462629E+03  2.143312E+03 -5.030472E+02 -6.379679E+02  1.542178E+02
       190  21  3.229410E+05  3.219773E+03  3.610574E+03 -3.740180E+03 -2.941786E+02  4.165294E+02
       190  22  3.099690E+05  1.107342E+02  1.165244E+03 -3.723405E+03 -8.755285E+02 -1.067232E+02
       190  23  3.099268E+05 -2.281541E+01  6.906436E+02 -5.009408E+02 -5.311835E+02  1.542214E+02
       190  24  3.099691E+05  6.462403E-02  4.793799E+02 -3.723402E+03 -1.868376E+02  4.165337E+02
       190  25  3.109877E+05  3.596285E+02  1.391464E+03 -3.735973E+03 -7.693044E+02 -1.067205E+02
       190  26  3.039502E+05 -1.508262E+03 -7.620271E+02 -4.988344E+02 -4.244002E+02  1.542250E+02
       190  27  2.969973E+05 -3.219656E+03 -2.651827E+03 -3.706625E+03 -7.949883E+01  4.165380E+02
       191   1  3.351782E+05  6.281570E+03  6.580952E+03 -3.723701E+03  2.121979E+02 -5.697828E+02
       191   2  3.421828E+05  8.002303E+03  8.258543E+03 -4.910853E+02  2.270835E+00 -8.327940E+02
       191   3  3.492378E+05  9.802806E+03  1.009329E+04 -3.735225E+03 -2.076374E+02 -1.095088E+03
       191   4  3.099613E+05  9.893598E+00  4.303585E+02 -3.730480E+03  1.046999E+02 -5.697889E+02
       191   5  3.099362E+05 -1.218557E+01  4.210246E+02 -4.920942E+02 -1.049261E+02 -8.328042E+02
       191   6  3.099613E+05  4.545931E+01  5.686465E+02 -3.730484E+03 -3.145308E+02 -1.095102E+03
       191   7  2.847451E+05 -6.261830E+03 -5.720282E+03 -3.737260E+03 -2.793756E+00 -5.697950E+02
       191   8  2.776905E+05 -8.026751E+03 -7.416569E+03 -4.931032E+02 -2.121174E+02 -8.328145E+02
       191   9  2.706861E+05 -9.712001E+03 -8.956108E+03 -3.725743E+03 -4.214175E+02 -1.095116E+03
       191  10  3.351782E+05  6.281570E+03  6.580952E+03 -3.723700E+03 -2.690947E-09 -5.265445E-10
       191  11  3.421828E+05  8.002302E+03  8.258542E+03 -4.910853E+02  4.449699E-10  1.594168E-10
       191  12  3.492378E+05  9.802805E+03  1.009329E+04 -3.735225E+03  2.983668E-10  4.450609E-10
       191  13  3.099613E+05  9.893246E+00  4.303579E+02 -3.730480E+03 -1.934466E-09 -2.226075E-10
       191  14  3.099362E+05 -1.218632E+01  4.210233E+02 -4.920943E+02 -1.950364E-09  4.260255E-10
       191  15  3.099613E+05  4.545799E+01  5.686440E+02 -3.730484E+03 -2.945959E-09  2.297813E-10
       191  16  2.847451E+05 -6.261830E+03 -5.720282E+03 -3.737260E+03 -2.169883E-09 -2.994141E-10
       191  17  2.776905E+05 -8.026751E+03 -7.416570E+03 -4.931033E+02 -3.635333E-09  3.010529E-10
       191  18  2.706861E+05 -9.712002E+03 -8.956111E+03 -3.725743E+03 -3.444247E-09 -7.088224E-11
       191  19  3.351782E+05  6.281570E+03  6.580952E+03 -3.723701E+03 -2.121979E+02  5.697828E+02
       191  20  3.421828E+05  8.002303E+03  8.258543E+03 -4.910853E+02 -2.270835E+00  8.327940E+02
       191  21  3.492378E+05  9.802806E+03  1.009329E+04 -3.735225E+03  2.076374E+02  1.095088E+03
       191  22  3.099613E+05  9.893598E+00  4.303585E+02 -3.730480E+03 -1.046999E+02  5.697889E+02
       191  23  3.099362E+05 -1.218557E+01  4.210246E+02 -4.920942E+02  1.049261E+02  8.328042E+02
       191  24  3.099613E+05  4.545931E+01  5.686465E+02 -3.730484E+03  3.145308E+02  1.095102E+03
       191  25  2.847451E+05 -6.261830E+03 -5.720282E+03 -3.737260E+03  2.793756E+00  5.697950E+02
       191  26  2.776905E+05 -8.026751E+03 -7.416569E+03 -4.931032E+02  2.121174E+02  8.328145E+02
       191  27  2.706861E+05 -9.712001E+03 -8.956108E+03 -3.725743E+03  4.214175E+02  1.095116E+03
       192   1  3.616215E+05  1.281653E+04  1.325763E+04 -3.688980E+03 -3.152377E+02 -1.252236E+03
       192   2  3.686249E+05  1.452184E+04  1.537087E+04 -4.779225E+02 -8.754868E+02 -1.518339E+03
       192   3  3.758449E+05  1.676818E+04  1.798568E+04 -3.819583E+03 -1.435699E+03 -1.765611E+03
       192   4  3.099976E+05 -1.808761E+01  6.891179E+02 -3.747342E+03 -4.276474E+02 -1.252255E+03
       192   5  3.098898E+05 -7.569476E+01  1.095958E+03 -4.710032E+02 -9.801635E+02 -1.518365E+03
       192   6  3.099974E+05  4.064566E+02  1.999066E+03 -3.747421E+03 -1.532636E+03 -1.765642E+03
       192   7  2.583762E+05 -1.285290E+04 -1.187958E+04 -3.805699E+03 -5.400477E+02 -1.252274E+03
       192   8  2.511580E+05 -1.467348E+04 -1.317920E+04 -4.640846E+02 -1.084830E+03 -1.518390E+03
       192   9  2.441539E+05 -1.595559E+04 -1.398786E+04 -3.675266E+03 -1.629564E+03 -1.765674E+03
       192  10  3.616215E+05  1.281653E+04  1.325762E+04 -3.688980E+03  2.658429E-09  4.926531E-10
       192  11  3.686249E+05  1.452183E+04  1.537086E+04 -4.779236E+02  2.381847E-09 -4.289551E-10
       192  12  3.758449E+05  1.676818E+04  1.798567E+04 -3.819585E+03  1.770439E-09  6.629187E-10
       192  13  3.099976E+05 -1.808934E+01  6.891146E+02 -3.747342E+03 -4.228926E-12  1.754949E-10
       192  14  3.098898E+05 -7.569750E+01  1.095951E+03 -4.710044E+02  3.080081E-09  1.016237E-11
       192  15  3.099974E+05  4.064527E+02  1.999056E+03 -3.747423E+03  7.284643E-10 -5.372812E-11
       192  16  2.583762E+05 -1.285290E+04 -1.187959E+04 -3.805700E+03 -4.870603E-09 -1.587870E-10
       192  17  2.511580E+05 -1.467348E+04 -1.317921E+04 -4.640859E+02 -4.403997E-09  4.247003E-10
       192  18  2.441539E+05 -1.595559E+04 -1.398787E+04 -3.675269E+03 -7.020255E-10 -3.992375E-10
       192  19  3.616215E+05  1.281653E+04  1.325763E+04 -3.688980E+03  3.152377E+02  1.252236E+03
       192  20  3.686249E+05  1.452184E+04  1.537087E+04 -4.779225E+02  8.754868E+02  1.518339E+03
       192  21  3.758449E+05  1.676818E+04  1.798568E+04 -3.819583E+03  1.435699E+03  1.765611E+03
       192  22  3.099976E+05 -1.808761E+01  6.891179E+02 -3.747342E+03  4.276474E+02  1.252255E+03
       192  23  3.098898E+05 -7.569476E+01  1.095958E+03 -4.710032E+02  9.801635E+02  1.518365E+03
       192  24  3.099974E+05  4.064566E+02  1.999066E+03 -3.747421E+03  1.532636E+03  1.765642E+03
       192  25  2.583762E+05 -1.285290E+04 -1.187958E+04 -3.805699E+03  5.400477E+02  1.252274E+03
       192  26  2.511580E+05 -1.467348E+04 -1.317920E+04 -4.640846E+02  1.084830E+03  1.518390E+03
       192  27  2.441539E+05 -1.595559E+04 -1.398786E+04 -3.675266E+03  1.629564E+03  1.765674E+03
       193   1  3.886462E+05  1.932113E+04  2.159540E+04 -3.333505E+03 -1.779035E+03 -1.954897E+03
       193   2  3.951701E+05  2.066616E+04  2.498211E+04 -6.289238E+02 -4.025509E+03 -2.229000E+03
       193   3  4.031365E+05  2.654278E+04  3.096718E+04 -4.591583E+03 -6.272067E+03 -2.283704E+03
       193   4  3.102663E+05 -1.626144E+02  2.527210E+03 -3.772444E+03 -1.935311E+03 -1.954947E+03
       193   5  3.095523E+05 -6.113355E+02  4.177950E+03 -4.394156E+02 -4.091963E+03 -2.229040E+03
       193   6  3.102654E+05  3.456265E+03  8.364936E+03 -3.773669E+03 -6.248673E+03 -2.283727E+03
       193   7  2.318919E+05 -1.964681E+04 -1.654143E+04 -4.211328E+03 -2.091567E+03 -1.954997E+03
       193   8  2.239411E+05 -2.188937E+04 -1.662674E+04 -2.499340E+02 -4.158409E+03 -2.229081E+03
       193   9  2.174021E+05 -1.963088E+04 -1.423793E+04 -2.955878E+03 -6.225283E+03 -2.283749E+03
       193  10  3.886462E+05  1.932112E+04  2.159539E+04 -3.333508E+03  1.708145E-09  1.823630E-10
       193  11  3.951700E+05  2.066615E+04  2.498207E+04 -6.289310E+02  3.355708E-09 -1.045641E-09
       193  12  4.031364E+05  2.654276E+04  3.096709E+04 -4.591595E+03  2.352170E-09  4.181494E-11
       193  13  3.102663E+05 -1.626195E+02  2.527196E+03 -3.772447E+03  2.150048E-09 -1.443338E-10
       193  14  3.095522E+05 -6.113453E+02  4.177909E+03 -4.394229E+02 -1.157744E-09 -2.025219E-10
       193  15  3.102653E+05  3.456248E+03  8.364853E+03 -3.773680E+03 -1.621295E-09 -2.039171E-10
       193  16  2.318919E+05 -1.964681E+04 -1.654144E+04 -4.211331E+03 -1.327674E-10 -3.829411E-10
       193  17  2.239411E+05 -2.188938E+04 -1.662678E+04 -2.499415E+02 -4.780374E-09  1.256378E-09
       193  18  2.174020E+05 -1.963090E+04 -1.423801E+04 -2.955889E+03 -5.846338E-10 -1.887021E-10
       193  19  3.886462E+05  1.932113E+04  2.159540E+04 -3.333505E+03  1.779035E+03  1.954897E+03
       193  20  3.951701E+05  2.066616E+04  2.498211E+04 -6.289238E+02  4.025509E+03  2.229000E+03
       193  21  4.031365E+05  2.654278E+04  3.096718E+04 -4.591583E+03  6.272067E+03  2.283704E+03
       193  22  3.102663E+05 -1.626144E+02  2.527210E+03 -3.772444E+03  1.935311E+03  1.954947E+03
       193  23  3.095523E+05 -6.113355E+02  4.177950E+03 -4.394156E+02  4.091963E+03  2.229040E+03
       193  24  3.102654E+05  3.456265E+03  8.364936E+03 -3.773669E+03  6.248673E+03  2.283727E+03
       193  25  2.318919E+05 -1.964681E+04 -1.654143E+04 -4.211328E+03  2.091567E+03  1.954997E+03
       193  26  2.239411E+05 -2.188937E+04 -1.662674E+04 -2.499340E+02  4.158409E+03  2.229081E+03
       193  27  2.174021E+05 -1.963088E+04 -1.423793E+04 -2.955878E+03  6.225283E+03  2.283749E+03
       194   1  4.179693E+05  2.489486E+04  3.586629E+04 -3.633822E+02 -7.257436E+03 -2.793852E+03
       194   2  4.200562E+05  2.306366E+04  4.347191E+04 -2.485113E+03 -1.692450E+04 -3.109388E+03
       194   3  4.328699E+05  5.899488E+04  6.681489E+04 -1.140859E+04 -2.659295E+04 -1.058314E+03
       194   4  3.122954E+05 -1.367940E+03  1.019944E+04 -3.797667E+03 -7.866731E+03 -2.794085E+03
       194   5  3.070126E+05 -5.018436E+03  1.604704E+04 -4.050428E+02 -1.656637E+04 -3.109309E+03
       194   6  3.122907E+05  2.892918E+04  3.696242E+04 -3.814132E+03 -2.526726E+04 -1.057904E+03
       194   7  2.066318E+05 -2.763152E+04 -1.546820E+04 -7.231366E+03 -8.475922E+03 -2.794312E+03
       194   8  1.939808E+05 -3.310145E+04 -1.137875E+04  1.674646E+03 -1.620831E+04 -3.109228E+03
       194   9  1.917248E+05 -1.137381E+03  7.108915E+03  3.778850E+03 -2.394183E+04 -1.057462E+03
       194  10  4.179692E+05  2.489484E+04  3.586617E+04 -3.633985E+02  9.994311E-10 -3.446767E-10
       194  11  4.200559E+05  2.306357E+04  4.347135E+04 -2.485155E+03 -1.348092E-09 -2.709901E-09
       194  12  4.328692E+05  5.899469E+04  6.681356E+04 -1.140861E+04  1.211673E-09 -1.074252E-09
       194  13  3.122953E+05 -1.367965E+03  1.019931E+04 -3.797684E+03  1.828693E-09 -2.070947E-09
       194  14  3.070123E+05 -5.018520E+03  1.604651E+04 -4.050843E+02  3.430181E-09  2.163214E-10
       194  15  3.122900E+05  2.892901E+04  3.696122E+04 -3.814153E+03 -3.990134E-11 -3.102634E-10
       194  16  2.066317E+05 -2.763154E+04 -1.546835E+04 -7.231385E+03 -3.853332E-11 -9.605234E-10
       194  17  1.939805E+05 -3.310153E+04 -1.137926E+04  1.674606E+03 -3.076827E-09  5.068169E-10
       194  18  1.917242E+05 -1.137536E+03  7.107836E+03  3.778830E+03 -1.006779E-09 -4.119765E-10
       194  19  4.179693E+05  2.489486E+04  3.586629E+04 -3.633822E+02  7.257436E+03  2.793852E+03
       194  20  4.200562E+05  2.306366E+04  4.347191E+04 -2.485113E+03  1.692450E+04  3.109388E+03
       194  21  4.328699E+05  5.899488E+04  6.681489E+04 -1.140859E+04  2.659295E+04  1.058314E+03
       194  22  3.122954E+05 -1.367940E+03  1.019944E+04 -3.797667E+03  7.866731E+03  2.794085E+03
       194  23  3.070126E+05 -5.018436E+03  1.604704E+04 -4.050428E+02  1.656637E+04  3.109309E+03
       194  24  3.122907E+05  2.892918E+04  3.696242E+04 -3.814132E+03  2.526726E+04  1.057904E+03
       194  25  2.066318E+05 -2.763152E+04 -1.546820E+04 -7.231366E+03  8.475922E+03  2.794312E+03
       194  26  1.939808E+05 -3.310145E+04 -1.137875E+04  1.674646E+03  1.620831E+04  3.109228E+03
       194  27  1.917248E+05 -1.137381E+03  7.108915E+03  3.778850E+03  2.394183E+04  1.057462E+03
       195   1  2.797829E+06  1.134441E+07  2.803247E+06 -1.317033E+06  8.849984E+04  1.538318E+05
       195   2  2.107975E+06  8.897617E+06  2.125946E+06 -2.441868E+05  2.402646E+05  3.106632E+04
       195   3  1.603864E+06  6.595565E+06  1.589236E+06 -1.334593E+06  1.528785E+05 -9.360953E+04
       195   4  6.445981E+04  3.167867E+05  8.919910E+04 -1.259216E+06  8.913767E+04  4.150098E+04
       195   5 -2.828363E+04  2.578744E+05  4.158018E+04 -1.764574E+05  2.406126E+05  1.822267E+04
       195   6  4.834339E+04  3.212102E+05  6.707301E+04 -1.258885E+06  1.514685E+05 -7.450124E+03
       195   7 -2.677907E+06 -1.060151E+07 -2.633770E+06 -1.202180E+06  8.976246E+04 -6.886960E+04
       195   8 -2.169968E+06 -8.314260E+06 -2.048126E+06 -1.094822E+05  2.409610E+05  5.554095E+03
       195   9 -1.510048E+06 -5.917435E+06 -1.457902E+06 -1.183749E+06  1.500717E+05  7.784824E+04
       195  10  2.797814E+06  1.134438E+07  2.803189E+06 -1.317044E+06  1.613475E-09  1.356185E-09
       195  11  2.107912E+06  8.897601E+06  2.125836E+06 -2.441928E+05 -2.414140E-09 -2.373493E-09
       195  12  1.603837E+06  6.595549E+06  1.589176E+06 -1.334582E+06  8.113480E-10  3.709442E-09
       195  13  6.445081E+04  3.167827E+05  8.918090E+04 -1.259219E+06 -4.472380E-10 -6.616623E-11
       195  14 -2.834589E+04  2.578585E+05  4.147074E+04 -1.764610E+05  4.860165E-11  5.328259E-09
       195  15  4.831874E+04  3.212040E+05  6.702980E+04 -1.258884E+06 -8.577736E-10 -2.131838E-09
       195  16 -2.677917E+06 -1.060152E+07 -2.633794E+06 -1.202175E+06 -4.952791E-10 -5.803718E-09
       195  17 -2.170031E+06 -8.314276E+06 -2.048235E+06 -1.094833E+05  3.010296E-09  9.036933E-09
       195  18 -1.510074E+06 -5.917448E+06 -1.457956E+06 -1.183759E+06 -2.177968E-09  9.527897E-09
       195  19  2.797829E+06  1.134441E+07  2.803247E+06 -1.317033E+06 -8.849984E+04 -1.538318E+05
       195  20  2.107975E+06  8.897617E+06  2.125946E+06 -2.441868E+05 -2.402646E+05 -3.106632E+04
       195  21  1.603864E+06  6.595565E+06  1.589236E+06 -1.334593E+06 -1.528785E+05  9.360953E+04
       195  22  6.445981E+04  3.167867E+05  8.919910E+04 -1.259216E+06 -8.913767E+04 -4.150098E+04
       195  23 -2.828363E+04  2.578744E+05  4.158018E+04 -1.764574E+05 -2.406126E+05 -1.822267E+04
       195  24  4.834339E+04  3.212102E+05  6.707301E+04 -1.258885E+06 -1.514685E+05  7.450124E+03
       195  25 -2.677907E+06 -1.060151E+07 -2.633770E+06 -1.202180E+06 -8.976246E+04  6.886960E+04
       195  26 -2.169968E+06 -8.314260E+06 -2.048126E+06 -1.094822E+05 -2.409610E+05 -5.554095E+03
       195  27 -1.510048E+06 -5.917435E+06 -1.457902E+06 -1.183749E+06 -1.500717E+05 -7.784824E+04
       196   1  5.759621E+05  2.446409E+06  5.867979E+05 -1.294150E+06  6.167778E+04 -4.926678E+04
       196   2 -5.154250E+04  1.228382E+05  4.362381E+04 -1.717623E+05 -3.343105E+03 -9.646332E+04
       196   3 -5.338602E+05 -2.246343E+06 -4.530174E+05 -1.209033E+06 -6.751682E+04 -1.434380E+05
       196   4  4.076638E+04  2.930569E+05  6.530677E+04 -1.258031E+06  6.116706E+04 -2.216219E+04
       196   5 -2.728567E+03  3.183767E+05  9.117257E+04 -1.777557E+05 -3.831681E+03 -6.976095E+04
       196   6  9.936486E+04  2.929682E+05  1.641101E+05 -1.256965E+06 -6.799323E+04 -1.173108E+05
       196   7 -4.947662E+05 -1.856068E+06 -4.565152E+05 -1.222012E+06  6.065852E+04  4.849061E+03
       196   8  4.608303E+04  5.139516E+05  1.387212E+05 -1.837510E+05 -4.320694E+03 -4.305019E+04
       196   9  7.321200E+05  2.838181E+06  7.807737E+05 -1.305060E+06 -6.847266E+04 -9.107598E+04
       196  10  5.759573E+05  2.446405E+06  5.867862E+05 -1.294148E+06 -2.758565E-09 -1.233831E-08
       196  11 -5.154501E+04  1.228282E+05  4.360631E+04 -1.717625E+05  8.711483E-09 -6.822779E-09
       196  12 -5.338706E+05 -2.246366E+06 -4.530649E+05 -1.209041E+06 -1.279764E-08  7.394167E-10
       196  13  4.076223E+04  2.930553E+05  6.529883E+04 -1.258030E+06 -3.951715E-10 -6.852402E-11
       196  14 -2.729888E+03  3.183715E+05  9.116340E+04 -1.777560E+05  1.431575E-08  9.674064E-09
       196  15  9.935617E+04  2.929522E+05  1.640754E+05 -1.256971E+06  9.559274E-09 -2.441368E-09
       196  16 -4.947702E+05 -1.856069E+06 -4.565222E+05 -1.222012E+06  9.152057E-10 -1.541600E-08
       196  17  4.608251E+04  5.139496E+05  1.387177E+05 -1.837511E+05 -8.327452E-09  1.644062E-08
       196  18  7.321127E+05  2.838171E+06  7.807493E+05 -1.305065E+06 -5.611817E-09  1.465447E-08
       196  19  5.759621E+05  2.446409E+06  5.867979E+05 -1.294150E+06 -6.167778E+04  4.926678E+04
       196  20 -5.154250E+04  1.228382E+05  4.362381E+04 -1.717623E+05  3.343105E+03  9.646332E+04
       196  21 -5.338602E+05 -2.246343E+06 -4.530174E+05 -1.209033E+06  6.751682E+04  1.434380E+05
       196  22  4.076638E+04  2.930569E+05  6.530677E+04 -1.258031E+06 -6.116706E+04  2.216219E+04
       196  23 -2.728567E+03  3.183767E+05  9.117257E+04 -1.777557E+05  3.831681E+03  6.976095E+04
       196  24  9.936486E+04  2.929682E+05  1.641101E+05 -1.256965E+06  6.799323E+04  1.173108E+05
       196  25 -4.947662E+05 -1.856068E+06 -4.565152E+05 -1.222012E+06 -6.065852E+04 -4.849061E+03
       196  26  4.608303E+04  5.139516E+05  1.387212E+05 -1.837510E+05  4.320694E+03  4.305019E+04
       196  27  7.321200E+05  2.838181E+06  7.807737E+05 -1.305060E+06  6.847266E+04  9.107598E+04
       197   1 -1.635592E+06 -6.265212E+06 -1.412409E+06 -1.237530E+06 -1.577186E+05 -2.386986E+05
       197   2 -2.353349E+06 -8.756567E+06 -1.889913E+06 -7.605634E+04 -2.486693E+05 -3.002667E+05
       197   3 -2.294530E+06 -1.094710E+07 -2.114542E+06 -1.082808E+06 -9.164463E+04 -3.593515E+05
       197   4  1.779907E+04  3.621373E+05  2.070712E+05 -1.260184E+06 -1.590971E+05 -1.527835E+05
       197   5 -1.130807E+05  2.042494E+05  2.952324E+05 -1.761444E+05 -2.482591E+05 -3.164931E+05
       197   6  5.457228E+05  3.575074E+05  7.047833E+05 -1.258175E+06 -9.101246E+04 -4.779871E+05
       197   7  1.667946E+06  7.029804E+06  1.823378E+06 -1.282871E+06 -1.604741E+05 -6.593922E+04
       197   8  2.121266E+06  9.238986E+06  2.474541E+06 -2.775116E+05 -2.478479E+05 -3.329291E+05
       197   9  3.376420E+06  1.177944E+07  3.514560E+06 -1.436560E+06 -9.032133E+04 -5.987460E+05
       197  10 -1.635635E+06 -6.265280E+06 -1.412564E+06 -1.237560E+06 -6.874725E-09 -1.136745E-08
       197  11 -2.353440E+06 -8.756681E+06 -1.890201E+06 -7.611683E+04  6.590183E-09  1.570453E-09
       197  12 -2.294575E+06 -1.094724E+07 -2.114805E+06 -1.082835E+06  2.714758E-09  1.801263E-09
       197  13  1.776556E+04  3.621053E+05  2.069796E+05 -1.260203E+06 -1.446912E-08 -1.155859E-10
       197  14 -1.131738E+05  2.041253E+05  2.949283E+05 -1.762077E+05  7.130939E-09  4.953928E-09
       197  15  5.456525E+05  3.572599E+05  7.043382E+05 -1.258210E+06  1.275923E-09 -1.728098E-10
       197  16  1.667917E+06  7.029792E+06  1.823322E+06 -1.282880E+06  3.639734E-09 -1.289329E-08
       197  17  2.121171E+06  9.238852E+06  2.474220E+06 -2.775776E+05  3.024090E-09  2.823609E-09
       197  18  3.376317E+06  1.177906E+07  3.513883E+06 -1.436604E+06 -5.521633E-10 -3.262893E-10
       197  19 -1.635592E+06 -6.265212E+06 -1.412409E+06 -1.237530E+06  1.577186E+05  2.386986E+05
       197  20 -2.353349E+06 -8.756567E+06 -1.889913E+06 -7.605634E+04  2.486693E+05  3.002667E+05
       197  21 -2.294530E+06 -1.094710E+07 -2.114542E+06 -1.082808E+06  9.164463E+04  3.593515E+05
       197  22  1.779907E+04  3.621373E+05  2.070712E+05 -1.260184E+06  1.590971E+05  1.527835E+05
       197  23 -1.130807E+05  2.042494E+05  2.952324E+05 -1.761444E+05  2.482591E+05  3.164931E+05
       197  24  5.457228E+05  3.575074E+05  7.047833E+05 -1.258175E+06  9.101246E+04  4.779871E+05
       197  25  1.667946E+06  7.029804E+06  1.823378E+06 -1.282871E+06  1.604741E+05  6.593922E+04
       197  26  2.121266E+06  9.238986E+06  2.474541E+06 -2.775116E+05  2.478479E+05  3.329291E+05
       197  27  3.376420E+06  1.177944E+07  3.514560E+06 -1.436560E+06  9.032133E+04  5.987460E+05
       198   1 -4.558396E+05 -2.008592E+05 -9.895253E+04 -2.034642E+05 -4.963924E+04 -1.585768E+04
       198   2 -4.303720E+05 -1.463549E+05 -5.595124E+04 -1.915886E+05 -2.992573E+04 -2.297306E+03
       198   3 -4.124849E+05 -1.184270E+05 -3.529036E+04 -1.789364E+05 -8.504556E+03  6.718426E+03
       198   4 -2.874949E+05 -1.098592E+05 -5.059936E+04 -1.286089E+05 -3.395683E+04 -9.975442E+03
       198   5 -2.819381E+05 -7.843327E+04 -2.407627E+04 -1.361465E+05 -2.353062E+04  1.013842E+02
       198   6 -2.821192E+05 -7.174090E+04 -1.252986E+04 -1.429091E+05 -1.139786E+04  5.632638E+03
       198   7 -1.191234E+05 -1.884849E+04 -2.248684E+03 -5.373346E+04 -1.827014E+04 -4.089803E+03
       198   8 -1.334818E+05 -1.050617E+04  7.797463E+03 -8.069119E+04 -1.713393E+04  2.501031E+03
       198   9 -1.517344E+05 -2.505282E+04  1.023045E+04 -1.068745E+05 -1.429183E+04  4.546604E+03
       198  10 -4.558423E+05 -2.008602E+05 -9.895763E+04 -2.034649E+05 -4.421742E-11 -8.310239E-10
       198  11 -4.303730E+05 -1.463552E+05 -5.595293E+04 -1.915887E+05 -1.804320E-09 -2.022681E-09
       198  12 -4.124850E+05 -1.184271E+05 -3.529058E+04 -1.789364E+05 -3.764098E-09 -1.744223E-09
       198  13 -2.874962E+05 -1.098596E+05 -5.060171E+04 -1.286091E+05  6.579682E-11  2.906775E-10
       198  14 -2.819387E+05 -7.843342E+04 -2.407731E+04 -1.361465E+05 -4.232028E-09 -5.807575E-10
       198  15 -2.821193E+05 -7.174097E+04 -1.253016E+04 -1.429091E+05 -1.306048E-08 -2.631617E-09
       198  16 -1.191238E+05 -1.884860E+04 -2.249342E+03 -5.373352E+04 -8.263835E-11  1.208342E-09
       198  17 -1.334821E+05 -1.050625E+04  7.796899E+03 -8.069116E+04 -4.270960E-09  8.811977E-10
       198  18 -1.517346E+05 -2.505290E+04  1.023002E+04 -1.068744E+05 -7.276848E-09 -2.837112E-09
       198  19 -4.558396E+05 -2.008592E+05 -9.895253E+04 -2.034642E+05  4.963924E+04  1.585768E+04
       198  20 -4.303720E+05 -1.463549E+05 -5.595124E+04 -1.915886E+05  2.992573E+04  2.297306E+03
       198  21 -4.124849E+05 -1.184270E+05 -3.529036E+04 -1.789364E+05  8.504556E+03 -6.718426E+03
       198  22 -2.874949E+05 -1.098592E+05 -5.059936E+04 -1.286089E+05  3.395683E+04  9.975442E+03
       198  23 -2.819381E+05 -7.843327E+04 -2.407627E+04 -1.361465E+05  2.353062E+04 -1.013842E+02
       198  24 -2.821192E+05 -7.174090E+04 -1.252986E+04 -1.429091E+05  1.139786E+04 -5.632638E+03
       198  25 -1.191234E+05 -1.884849E+04 -2.248684E+03 -5.373346E+04  1.827014E+04  4.089803E+03
       198  26 -1.334818E+05 -1.050617E+04  7.797463E+03 -8.069119E+04  1.713393E+04 -2.501031E+03
       198  27 -1.517344E+05 -2.505282E+04  1.023045E+04 -1.068745E+05  1.429183E+04 -4.546604E+03
       199   1 -3.911164E+05 -1.122675E+05 -2.841011E+04 -1.750354E+05 -6.924954E+03  6.206959E+03
       199   2 -3.638830E+05 -9.698065E+04 -1.826058E+04 -1.645982E+05 -2.884761E+03  5.935787E+03
       199   3 -3.337752E+05 -8.742864E+04 -1.114597E+04 -1.584062E+05  1.339627E+03  5.173848E+03
       199   4 -2.806652E+05 -7.106024E+04 -9.319500E+03 -1.426786E+05 -9.625700E+03  5.193490E+03
       199   5 -2.820194E+05 -6.700484E+04 -4.853504E+03 -1.410384E+05 -6.588261E+03  4.546229E+03
       199   6 -2.803008E+05 -6.848547E+04 -2.627306E+03 -1.436437E+05 -3.366766E+03  3.408167E+03
       199   7 -1.702023E+05 -2.985202E+04  9.770429E+03 -1.103166E+05 -1.232693E+04  4.179826E+03
       199   8 -2.001485E+05 -3.702825E+04  8.553488E+03 -1.174756E+05 -1.029228E+04  3.156467E+03
       199   9 -2.268227E+05 -4.954176E+04  5.891573E+03 -1.288798E+05 -8.073643E+03  1.642308E+03
       199  10 -3.911165E+05 -1.122676E+05 -2.841027E+04 -1.750354E+05 -1.003009E-08 -3.235188E-09
       199  11 -3.638830E+05 -9.698069E+04 -1.826067E+04 -1.645982E+05 -1.619649E-09  6.607311E-10
       199  12 -3.337752E+05 -8.742867E+04 -1.114602E+04 -1.584062E+05  3.315503E-09 -1.038420E-10
       199  13 -2.806653E+05 -7.106029E+04 -9.319724E+03 -1.426785E+05 -1.037833E-08 -1.953873E-09
       199  14 -2.820194E+05 -6.700487E+04 -4.853624E+03 -1.410383E+05 -2.077708E-09  4.851646E-10
       199  15 -2.803009E+05 -6.848548E+04 -2.627350E+03 -1.436437E+05  1.164637E-09  1.326384E-09
       199  16 -1.702024E+05 -2.985208E+04  9.770111E+03 -1.103166E+05  4.598664E-09 -6.284714E-10
       199  17 -2.001486E+05 -3.702829E+04  8.553270E+03 -1.174755E+05  5.017873E-09  1.138798E-09
       199  18 -2.268228E+05 -4.954178E+04  5.891445E+03 -1.288798E+05  5.740329E-09  2.724543E-09
       199  19 -3.911164E+05 -1.122675E+05 -2.841011E+04 -1.750354E+05  6.924954E+03 -6.206959E+03
       199  20 -3.638830E+05 -9.698065E+04 -1.826058E+04 -1.645982E+05  2.884761E+03 -5.935787E+03
       199  21 -3.337752E+05 -8.742864E+04 -1.114597E+04 -1.584062E+05 -1.339627E+03 -5.173848E+03
       199  22 -2.806652E+05 -7.106024E+04 -9.319500E+03 -1.426786E+05  9.625700E+03 -5.193490E+03
       199  23 -2.820194E+05 -6.700484E+04 -4.853504E+03 -1.410384E+05  6.588261E+03 -4.546229E+03
       199  24 -2.803008E+05 -6.848547E+04 -2.627306E+03 -1.436437E+05  3.366766E+03 -3.408167E+03
       199  25 -1.702023E+05 -2.985202E+04  9.770429E+03 -1.103166E+05  1.232693E+04 -4.179826E+03
       199  26 -2.001485E+05 -3.702825E+04  8.553488E+03 -1.174756E+05  1.029228E+04 -3.156467E+03
       199  27 -2.268227E+05 -4.954176E+04  5.891573E+03 -1.288798E+05  8.073643E+03 -1.642308E+03
       200   1 -3.151681E+05 -8.093754E+04 -7.472669E+03 -1.533764E+05  2.182245E+03  3.943474E+03
       200   2 -2.880207E+05 -6.842086E+04 -2.055141E+03 -1.429496E+05  3.693134E+03  1.865057E+03
       200   3 -2.570099E+05 -6.003173E+04  2.852276E+03 -1.370911E+05  5.223824E+03 -2.661885E+02
       200   4 -2.801605E+05 -6.845553E+04 -1.965034E+03 -1.436072E+05 -2.503640E+03  2.185530E+03
       200   5 -2.820938E+05 -6.634100E+04 -1.066182E+03 -1.413460E+05 -1.100788E+03  6.659762E+01
       200   6 -2.801432E+05 -6.833265E+04 -5.918362E+02 -1.436533E+05  3.218281E+02 -2.105169E+03
       200   7 -2.451515E+05 -5.597339E+04  3.542670E+03 -1.338376E+05 -7.189801E+03  4.274833E+02
       200   8 -2.761668E+05 -6.426113E+04 -7.713571E+01 -1.397423E+05 -5.894729E+03 -1.731868E+03
       200   9 -3.032755E+05 -7.663338E+04 -4.035771E+03 -1.502151E+05 -4.579916E+03 -3.944054E+03
       200  10 -3.151681E+05 -8.093756E+04 -7.472708E+03 -1.533764E+05 -1.381704E-08 -8.314620E-09
       200  11 -2.880207E+05 -6.842087E+04 -2.055173E+03 -1.429496E+05  3.694213E-09  2.774664E-09
       200  12 -2.570099E+05 -6.003174E+04  2.852224E+03 -1.370911E+05  3.266814E-08  1.827042E-08
       200  13 -2.801605E+05 -6.845554E+04 -1.965055E+03 -1.436072E+05 -3.565520E-09 -1.537906E-09
       200  14 -2.820938E+05 -6.634100E+04 -1.066184E+03 -1.413460E+05 -5.050790E-09 -9.085361E-09
       200  15 -2.801432E+05 -6.833266E+04 -5.918447E+02 -1.436533E+05 -2.159635E-09 -1.437447E-08
       200  16 -2.451516E+05 -5.597340E+04  3.542572E+03 -1.338376E+05  2.089000E-08  9.606240E-09
       200  17 -2.761668E+05 -6.426115E+04 -7.720668E+01 -1.397424E+05 -1.526377E-08 -1.485982E-09
       200  18 -3.032755E+05 -7.663341E+04 -4.035840E+03 -1.502152E+05 -3.837677E-08 -1.208551E-08
       200  19 -3.151681E+05 -8.093754E+04 -7.472669E+03 -1.533764E+05 -2.182245E+03 -3.943474E+03
       200  20 -2.880207E+05 -6.842086E+04 -2.055141E+03 -1.429496E+05 -3.693134E+03 -1.865057E+03
       200  21 -2.570099E+05 -6.003173E+04  2.852276E+03 -1.370911E+05 -5.223824E+03  2.661885E+02
       200  22 -2.801605E+05 -6.845553E+04 -1.965034E+03 -1.436072E+05  2.503640E+03 -2.185530E+03
       200  23 -2.820938E+05 -6.634100E+04 -1.066182E+03 -1.413460E+05  1.100788E+03 -6.659762E+01
       200  24 -2.801432E+05 -6.833265E+04 -5.918362E+02 -1.436533E+05 -3.218281E+02  2.105169E+03
       200  25 -2.451515E+05 -5.597339E+04  3.542670E+03 -1.338376E+05  7.189801E+03 -4.274833E+02
       200  26 -2.761668E+05 -6.426113E+04 -7.713571E+01 -1.397423E+05  5.894729E+03  1.731868E+03
       200  27 -3.032755E+05 -7.663338E+04 -4.035771E+03 -1.502151E+05  4.579916E+03  3.944054E+03
       201   1 -2.386607E+05 -5.348590E+04  5.936023E+03 -1.319686E+05  5.831018E+03 -1.632417E+03
       201   2 -2.115693E+05 -4.112783E+04  1.051629E+04 -1.215237E+05  6.869887E+03 -3.979179E+03
       201   3 -1.805021E+05 -3.277273E+04  1.499198E+04 -1.156559E+05  7.910415E+03 -6.330046E+03
       201   4 -2.801264E+05 -6.833531E+04 -4.484977E+02 -1.436457E+05  9.313961E+02 -3.470543E+03
       201   5 -2.821157E+05 -6.633906E+04 -2.614296E+02 -1.413553E+05  1.961669E+03 -5.820679E+03
       201   6 -2.801291E+05 -6.834454E+04 -1.724050E+02 -1.436428E+05  2.993591E+03 -8.174916E+03
       201   7 -3.215906E+05 -8.318471E+04 -6.833083E+03 -1.553221E+05 -3.967939E+03 -5.308562E+03
       201   8 -3.526571E+05 -9.154991E+04 -1.103924E+04 -1.611850E+05 -2.945991E+03 -7.661968E+03
       201   9 -3.797454E+05 -1.039153E+05 -1.533684E+04 -1.716255E+05 -1.922403E+03 -1.001947E+04
       201  10 -2.386608E+05 -5.348591E+04  5.935954E+03 -1.319686E+05 -4.464013E-08 -7.611075E-09
       201  11 -2.115693E+05 -4.112786E+04  1.051617E+04 -1.215236E+05 -1.733567E-08  3.002316E-09
       201  12 -1.805022E+05 -3.277279E+04  1.499179E+04 -1.156559E+05  2.281606E-08  1.295498E-08
       201  13 -2.801264E+05 -6.833532E+04 -4.485220E+02 -1.436457E+05 -2.051639E-09 -1.431841E-08
       201  14 -2.821157E+05 -6.633910E+04 -2.615005E+02 -1.413553E+05  3.371170E-09 -8.110508E-09
       201  15 -2.801292E+05 -6.834461E+04 -1.725474E+02 -1.436428E+05  1.470024E-08  6.044420E-10
       201  16 -3.215907E+05 -8.318475E+04 -6.833166E+03 -1.553221E+05  3.953416E-08  1.437934E-08
       201  17 -3.526571E+05 -9.154997E+04 -1.103936E+04 -1.611850E+05  1.401008E-08  1.055771E-09
       201  18 -3.797455E+05 -1.039154E+05 -1.533703E+04 -1.716255E+05 -8.034403E-09 -7.278383E-09
       201  19 -2.386607E+05 -5.348590E+04  5.936023E+03 -1.319686E+05 -5.831018E+03  1.632417E+03
       201  20 -2.115693E+05 -4.112783E+04  1.051629E+04 -1.215237E+05 -6.869887E+03  3.979179E+03
       201  21 -1.805021E+05 -3.277273E+04  1.499198E+04 -1.156559E+05 -7.910415E+03  6.330046E+03
       201  22 -2.801264E+05 -6.833531E+04 -4.484977E+02 -1.436457E+05 -9.313961E+02  3.470543E+03
       201  23 -2.821157E+05 -6.633906E+04 -2.614296E+02 -1.413553E+05 -1.961669E+03  5.820679E+03
       201  24 -2.801291E+05 -6.834454E+04 -1.724050E+02 -1.436428E+05 -2.993591E+03  8.174916E+03
       201  25 -3.215906E+05 -8.318471E+04 -6.833083E+03 -1.553221E+05  3.967939E+03  5.308562E+03
       201  26 -3.526571E+05 -9.154991E+04 -1.103924E+04 -1.611850E+05  2.945991E+03  7.661968E+03
       201  27 -3.797454E+05 -1.039153E+05 -1.533684E+04 -1.716255E+05  1.922403E+03  1.001947E+04
       202   1 -1.621889E+05 -2.621728E+04  1.794497E+04 -1.105264E+05  8.462786E+03 -7.720255E+03
       202   2 -1.351210E+05 -1.386159E+04  2.233407E+04 -1.000804E+05  9.414639E+03 -1.009968E+04
       202   3 -1.040642E+05 -5.497059E+03  2.668579E+04 -9.420739E+04  1.036222E+04 -1.246709E+04
       202   4 -2.801292E+05 -6.834633E+04 -1.529217E+02 -1.436412E+05  3.546235E+03 -9.565141E+03
       202   5 -2.821226E+05 -6.635277E+04 -1.524278E+02 -1.413534E+05  4.522411E+03 -1.193571E+04
       202   6 -2.801326E+05 -6.835514E+04 -2.085429E+02 -1.436389E+05  5.494320E+03 -1.429429E+04
       202   7 -3.980530E+05 -1.104733E+05 -1.825052E+04 -1.767497E+05 -1.369272E+03 -1.140964E+04
       202   8 -4.291007E+05 -1.188416E+05 -2.263913E+04 -1.826172E+05 -3.685930E+02 -1.377128E+04
       202   9 -4.561695E+05 -1.312107E+05 -2.710380E+04 -1.930577E+05  6.278204E+02 -1.612096E+04
       202  10 -1.621890E+05 -2.621736E+04  1.794472E+04 -1.105264E+05  4.550651E-09  4.696252E-09
       202  11 -1.351211E+05 -1.386173E+04  2.233371E+04 -1.000803E+05  1.088240E-08  7.000620E-09
       202  12 -1.040643E+05 -5.497255E+03  2.668530E+04 -9.420729E+04  1.471187E-08  3.848682E-09
       202  13 -2.801293E+05 -6.834643E+04 -1.531173E+02 -1.436412E+05  1.350222E-08  5.340580E-09
       202  14 -2.821226E+05 -6.635292E+04 -1.527339E+02 -1.413534E+05  1.045804E-08  7.046292E-09
       202  15 -2.801327E+05 -6.835537E+04 -2.089835E+02 -1.436388E+05  3.565216E-09  2.810269E-09
       202  16 -3.980531E+05 -1.104735E+05 -1.825077E+04 -1.767497E+05  1.857480E-08  5.868896E-09
       202  17 -4.291007E+05 -1.188418E+05 -2.263949E+04 -1.826172E+05  1.508644E-09  7.604972E-09
       202  18 -4.561696E+05 -1.312110E+05 -2.710429E+04 -1.930577E+05 -1.085397E-08  1.807906E-09
       202  19 -1.621889E+05 -2.621728E+04  1.794497E+04 -1.105264E+05 -8.462786E+03  7.720255E+03
       202  20 -1.351210E+05 -1.386159E+04  2.233407E+04 -1.000804E+05 -9.414639E+03  1.009968E+04
       202  21 -1.040642E+05 -5.497059E+03  2.668579E+04 -9.420739E+04 -1.036222E+04  1.246709E+04
       202  22 -2.801292E+05 -6.834633E+04 -1.529217E+02 -1.436412E+05 -3.546235E+03  9.565141E+03
       202  23 -2.821226E+05 -6.635277E+04 -1.524278E+02 -1.413534E+05 -4.522411E+03  1.193571E+04
       202  24 -2.801326E+05 -6.835514E+04 -2.085429E+02 -1.436389E+05 -5.494320E+03  1.429429E+04
       202  25 -3.980530E+05 -1.104733E+05 -1.825052E+04 -1.767497E+05  1.369272E+03  1.140964E+04
       202  26 -4.291007E+05 -1.188416E+05 -2.263913E+04 -1.826172E+05  3.685930E+02  1.377128E+04
       202  27 -4.561695E+05 -1.312107E+05 -2.710380E+04 -1.930577E+05 -6.278204E+02  1.612096E+04
       203   1 -8.576206E+04  1.059907E+03  2.958067E+04 -8.908308E+04  1.092647E+04 -1.384153E+04
       203   2 -5.872440E+04  1.342281E+04  3.388220E+04 -7.863837E+04  1.179429E+04 -1.617010E+04
       203   3 -2.769820E+04  2.180004E+04  3.818826E+04 -7.275194E+04  1.262040E+04 -1.838662E+04
       203   4 -2.801424E+05 -6.835520E+04 -2.608392E+02 -1.436394E+05  6.054895E+03 -1.567032E+04
       203   5 -2.821208E+05 -6.637089E+04 -4.467203E+02 -1.413494E+05  7.151573E+03 -1.791341E+04
       203   6 -2.801568E+05 -6.841782E+04 -8.093790E+02 -1.436183E+05  8.206523E+03 -2.004443E+04
       203   7 -4.744817E+05 -1.377663E+05 -3.010278E+04 -1.981795E+05  1.184936E+03 -1.749850E+04
       203   8 -5.054618E+05 -1.461588E+05 -3.477588E+04 -2.040388E+05  2.510648E+03 -1.965605E+04
       203   9 -5.325433E+05 -1.586278E+05 -3.980705E+04 -2.144567E+05  3.794595E+03 -2.170151E+04
       203  10 -8.576224E+04  1.059669E+03  2.958009E+04 -8.908296E+04 -3.273632E-10 -2.457002E-09
       203  11 -5.872462E+04  1.342249E+04  3.388144E+04 -7.863821E+04 -6.711790E-09 -2.945670E-09
       203  12 -2.769847E+04  2.179963E+04  3.818733E+04 -7.275175E+04 -3.506287E-09 -1.853958E-09
       203  13 -2.801425E+05 -6.835547E+04 -2.613695E+02 -1.436393E+05 -2.509321E-09  4.122641E-10
       203  14 -2.821210E+05 -6.637125E+04 -4.474193E+02 -1.413493E+05 -6.371536E-09 -7.980093E-10
       203  15 -2.801569E+05 -6.841827E+04 -8.102605E+02 -1.436182E+05 -5.151874E-09 -8.343225E-10
       203  16 -4.744818E+05 -1.377666E+05 -3.010336E+04 -1.981795E+05 -6.155107E-09  2.609011E-09
       203  17 -5.054619E+05 -1.461592E+05 -3.477662E+04 -2.040388E+05 -1.204124E-08  9.590078E-10
       203  18 -5.325435E+05 -1.586283E+05 -3.980797E+04 -2.144566E+05 -2.291081E-09  1.453175E-09
       203  19 -8.576206E+04  1.059907E+03  2.958067E+04 -8.908308E+04 -1.092647E+04  1.384153E+04
       203  20 -5.872440E+04  1.342281E+04  3.388220E+04 -7.863837E+04 -1.179429E+04  1.617010E+04
       203  21 -2.769820E+04  2.180004E+04  3.818826E+04 -7.275194E+04 -1.262040E+04  1.838662E+04
       203  22 -2.801424E+05 -6.835520E+04 -2.608392E+02 -1.436394E+05 -6.054895E+03  1.567032E+04
       203  23 -2.821208E+05 -6.637089E+04 -4.467203E+02 -1.413494E+05 -7.151573E+03  1.791341E+04
       203  24 -2.801568E+05 -6.841782E+04 -8.093790E+02 -1.436183E+05 -8.206523E+03  2.004443E+04
       203  25 -4.744817E+05 -1.377663E+05 -3.010278E+04 -1.981795E+05 -1.184936E+03  1.749850E+04
       203  26 -5.054618E+05 -1.461588E+05 -3.477588E+04 -2.040388E+05 -2.510648E+03  1.965605E+04
       203  27 -5.325433E+05 -1.586278E+05 -3.980705E+04 -2.144567E+05 -3.794595E+03  2.170151E+04
       204   1 -9.368442E+03  2.835092E+04  4.101308E+04 -6.767260E+04  1.329725E+04 -1.961710E+04
       204   2  1.736939E+04  4.083370E+04  4.554565E+04 -5.696679E+04  1.281545E+04 -2.169562E+04
       204   3  4.809446E+04  4.917071E+04  5.083575E+04 -5.062938E+04  1.194649E+04 -2.274243E+04
       204   4 -2.802240E+05 -6.842171E+04 -1.077813E+03 -1.436193E+05  8.841130E+03 -2.129104E+04
       204   5 -2.820866E+05 -6.667146E+04 -1.986537E+03 -1.412365E+05  1.046876E+04 -2.257809E+04
       204   6 -2.803811E+05 -6.948562E+04 -3.809466E+03 -1.432230E+05  1.170920E+04 -2.283309E+04
       204   7 -5.510038E+05 -1.651879E+05 -4.317073E+04 -2.195358E+05  4.387015E+03 -2.296423E+04
       204   8 -5.814480E+05 -1.741679E+05 -4.952091E+04 -2.254686E+05  8.123246E+03 -2.346011E+04
       204   9 -6.087417E+05 -1.881308E+05 -5.845735E+04 -2.357707E+05  1.147204E+04 -2.292370E+04
       204  10 -9.368735E+03  2.835046E+04  4.101202E+04 -6.767239E+04 -2.437543E-08 -8.591460E-09
       204  11  1.736908E+04  4.083315E+04  4.554446E+04 -5.696656E+04  1.111018E-09  3.584137E-09
       204  12  4.809417E+04  4.917012E+04  5.083451E+04 -5.062916E+04  3.120377E-08  2.143269E-08
       204  13 -2.802242E+05 -6.842221E+04 -1.078811E+03 -1.436192E+05  9.930976E-10 -2.418084E-09
       204  14 -2.820868E+05 -6.667203E+04 -1.987701E+03 -1.412363E+05 -3.245250E-09 -6.593210E-09
       204  15 -2.803814E+05 -6.948621E+04 -3.810703E+03 -1.432228E+05  6.283497E-09 -7.755008E-09
       204  16 -5.510040E+05 -1.651885E+05 -4.317176E+04 -2.195357E+05  2.017233E-08  1.005023E-08
       204  17 -5.814482E+05 -1.741685E+05 -4.952207E+04 -2.254684E+05 -6.478992E-09  3.499004E-09
       204  18 -6.087420E+05 -1.881314E+05 -5.845859E+04 -2.357705E+05 -2.501712E-08 -8.287188E-10
       204  19 -9.368442E+03  2.835092E+04  4.101308E+04 -6.767260E+04 -1.329725E+04  1.961710E+04
       204  20  1.736939E+04  4.083370E+04  4.554565E+04 -5.696679E+04 -1.281545E+04  2.169562E+04
       204  21  4.809446E+04  4.917071E+04  5.083575E+04 -5.062938E+04 -1.194649E+04  2.274243E+04
       204  22 -2.802240E+05 -6.842171E+04 -1.077813E+03 -1.436193E+05 -8.841130E+03  2.129104E+04
       204  23 -2.820866E+05 -6.667146E+04 -1.986537E+03 -1.412365E+05 -1.046876E+04  2.257809E+04
       204  24 -2.803811E+05 -6.948562E+04 -3.809466E+03 -1.432230E+05 -1.170920E+04  2.283309E+04
       204  25 -5.510038E+05 -1.651879E+05 -4.317073E+04 -2.195358E+05 -4.387015E+03  2.296423E+04
       204  26 -5.814480E+05 -1.741679E+05 -4.952091E+04 -2.254686E+05 -8.123246E+03  2.346011E+04
       204  27 -6.087417E+05 -1.881308E+05 -5.845735E+04 -2.357707E+05 -1.147204E+04  2.292370E+04
       205   1  6.684365E+04  5.547132E+04  5.400196E+04 -4.602571E+04  1.310851E+04 -2.285998E+04
       205   2  8.928447E+04  6.943705E+04  6.360513E+04 -3.034810E+04 -3.005239E+03 -2.382023E+04
       205   3  1.151633E+05  7.528173E+04  8.256684E+04 -1.652301E+04 -2.270866E+04 -1.523214E+04
       205   4 -2.810667E+05 -6.967633E+04 -5.120359E+03 -1.432135E+05  1.246734E+04 -2.310242E+04
       205   5 -2.819545E+05 -7.146276E+04 -9.839572E+03 -1.393670E+05  1.588330E+04 -1.672673E+04
       205   6 -2.832755E+05 -8.524192E+04 -2.067607E+04 -1.373736E+05  1.570958E+04 -7.992499E+02
       205   7 -6.288476E+05 -1.948118E+05 -6.424574E+04 -2.403502E+05  1.182655E+04 -2.334472E+04
       205   8 -6.530430E+05 -2.123443E+05 -8.328730E+04 -2.483222E+05  3.475942E+04 -9.638322E+03
       205   9 -6.815425E+05 -2.457418E+05 -1.239223E+05 -2.581466E+05  5.409965E+04  1.362127E+04
       205  10  6.684332E+04  5.547071E+04  5.400065E+04 -4.602547E+04 -2.636492E-08 -1.147939E-09
       205  11  8.928431E+04  6.943644E+04  6.360404E+04 -3.034816E+04 -3.967635E-09  7.408037E-10
       205  12  1.151627E+05  7.528134E+04  8.256543E+04 -1.652329E+04  1.861984E-08  7.501170E-09
       205  13 -2.810670E+05 -6.967695E+04 -5.121654E+03 -1.432133E+05  9.702448E-09 -8.251895E-09
       205  14 -2.819549E+05 -7.146313E+04 -9.840572E+03 -1.393668E+05  4.131094E-09 -7.040081E-09
       205  15 -2.832758E+05 -8.524199E+04 -2.067653E+04 -1.373736E+05  1.767850E-09 -1.271525E-09
       205  16 -6.288479E+05 -1.948124E+05 -6.424702E+04 -2.403500E+05  3.399253E-08  2.029266E-08
       205  17 -6.530444E+05 -2.123447E+05 -8.328974E+04 -2.483219E+05  4.051275E-09  5.667852E-09
       205  18 -6.815457E+05 -2.457428E+05 -1.239281E+05 -2.581472E+05 -1.820082E-08 -7.161857E-09
       205  19  6.684365E+04  5.547132E+04  5.400196E+04 -4.602571E+04 -1.310851E+04  2.285998E+04
       205  20  8.928447E+04  6.943705E+04  6.360513E+04 -3.034810E+04  3.005239E+03  2.382023E+04
       205  21  1.151633E+05  7.528173E+04  8.256684E+04 -1.652301E+04  2.270866E+04  1.523214E+04
       205  22 -2.810667E+05 -6.967633E+04 -5.120359E+03 -1.432135E+05 -1.246734E+04  2.310242E+04
       205  23 -2.819545E+05 -7.146276E+04 -9.839572E+03 -1.393670E+05 -1.588330E+04  1.672673E+04
       205  24 -2.832755E+05 -8.524192E+04 -2.067607E+04 -1.373736E+05 -1.570958E+04  7.992499E+02
       205  25 -6.288476E+05 -1.948118E+05 -6.424574E+04 -2.403502E+05 -1.182655E+04  2.334472E+04
       205  26 -6.530430E+05 -2.123443E+05 -8.328730E+04 -2.483222E+05 -3.475942E+04  9.638322E+03
       205  27 -6.815425E+05 -2.457418E+05 -1.239223E+05 -2.581466E+05 -5.409965E+04 -1.362127E+04
       206   1 -2.070162E+05 -3.730076E+04 -6.142914E+04 -1.761410E+04 -7.276774E+04 -1.736779E+03
       206   2 -2.014023E+05  6.071803E+04 -2.799035E+03 -5.751156E+03 -4.851355E+04 -5.097281E+03
       206   3 -2.267069E+05  4.753015E+04  1.224950E+04  1.509573E+04 -2.426299E+04 -4.656848E+03
       206   4 -4.014751E+05 -8.580744E+04 -1.096047E+05  4.950031E+03 -7.490314E+04 -1.740854E+03
       206   5 -3.858686E+05  1.486803E+04 -4.758464E+04  4.271062E+02 -4.910620E+04 -5.098334E+03
       206   6 -4.014586E+05  4.050079E+03 -3.022766E+04  4.888395E+03 -2.331245E+04 -4.655661E+03
       206   7 -5.958986E+05 -1.343150E+05 -1.577828E+05  2.750708E+04 -7.703786E+04 -1.745086E+03
       206   8 -5.703037E+05 -3.098433E+04 -9.237269E+04  6.603521E+03 -4.969868E+04 -5.099399E+03
       206   9 -5.761822E+05 -3.943185E+04 -7.270697E+04 -5.316067E+03 -2.236218E+04 -4.654506E+03
       206  10 -2.070219E+05 -3.730218E+04 -6.143910E+04 -1.761420E+04 -4.302651E-09  3.386240E-10
       206  11 -2.014048E+05  6.071737E+04 -2.803509E+03 -5.751355E+03  1.127831E-10 -4.023973E-10
       206  12 -2.267075E+05  4.752997E+04  1.224835E+04  1.509564E+04 -1.792909E-09 -2.532927E-09
       206  13 -4.014811E+05 -8.580895E+04 -1.096152E+05  4.949926E+03 -2.280665E-09  1.141042E-09
       206  14 -3.858712E+05  1.486735E+04 -4.758923E+04  4.269045E+02 -2.108112E-10  1.938588E-10
       206  15 -4.014592E+05  4.049910E+03 -3.022872E+04  4.888308E+03  7.332475E-10 -9.886898E-10
       206  16 -5.959049E+05 -1.343166E+05 -1.577939E+05  2.750697E+04  7.165625E-10  7.955151E-10
       206  17 -5.703063E+05 -3.098502E+04 -9.237738E+04  6.603317E+03 -2.556896E-09 -1.367396E-09
       206  18 -5.761828E+05 -3.943201E+04 -7.270795E+04 -5.316151E+03 -2.436413E-10 -3.777107E-09
       206  19 -2.070162E+05 -3.730076E+04 -6.142914E+04 -1.761410E+04  7.276774E+04  1.736779E+03
       206  20 -2.014023E+05  6.071803E+04 -2.799035E+03 -5.751156E+03  4.851355E+04  5.097281E+03
       206  21 -2.267069E+05  4.753015E+04  1.224950E+04  1.509573E+04  2.426299E+04  4.656848E+03
       206  22 -4.014751E+05 -8.580744E+04 -1.096047E+05  4.950031E+03  7.490314E+04  1.740854E+03
       206  23 -3.858686E+05  1.486803E+04 -4.758464E+04  4.271062E+02  4.910620E+04  5.098334E+03
       206  24 -4.014586E+05  4.050079E+03 -3.022766E+04  4.888395E+03  2.331245E+04  4.655661E+03
       206  25 -5.958986E+05 -1.343150E+05 -1.577828E+05  2.750708E+04  7.703786E+04  1.745086E+03
       206  26 -5.703037E+05 -3.098433E+04 -9.237269E+04  6.603521E+03  4.969868E+04  5.099399E+03
       206  27 -5.761822E+05 -3.943185E+04 -7.270697E+04 -5.316067E+03  2.236218E+04  4.654506E+03
       207   1 -2.381745E+05  2.886187E+04  1.351914E+04  2.621130E+03 -1.846156E+04 -3.875598E+03
       207   2 -2.462792E+05  3.838478E+04  2.339609E+04 -1.868709E+02 -1.222328E+04 -3.842610E+03
       207   3 -2.585240E+05  3.455244E+04  2.587440E+04  6.381087E+03 -5.985476E+03 -3.446789E+03
       207   4 -3.954544E+05 -1.026083E+04 -2.478897E+04  5.003871E+03 -1.852145E+04 -3.875795E+03
       207   5 -3.933695E+05  1.804377E+03 -1.237207E+04  3.103156E+02 -1.213663E+04 -3.842585E+03
       207   6 -3.954513E+05  4.871305E+02 -7.456908E+03  4.992862E+03 -5.752192E+03 -3.446543E+03
       207   7 -5.527118E+05 -4.938534E+04 -6.309887E+04  7.386000E+03 -1.858131E+04 -3.875993E+03
       207   8 -5.404401E+05 -3.477762E+04 -4.814179E+04  8.073786E+02 -1.205000E+04 -3.842561E+03
       207   9 -5.323614E+05 -3.357955E+04 -4.078958E+04  3.604940E+03 -5.518959E+03 -3.446298E+03
       207  10 -2.381749E+05  2.886176E+04  1.351847E+04  2.621073E+03  2.646279E-09 -2.980704E-09
       207  11 -2.462793E+05  3.838472E+04  2.339578E+04 -1.869087E+02  1.766723E-09  2.440219E-09
       207  12 -2.585240E+05  3.455241E+04  2.587431E+04  6.381070E+03 -1.848630E-09  1.593206E-09
       207  13 -3.954548E+05 -1.026094E+04 -2.478964E+04  5.003813E+03 -2.132622E-09 -2.312267E-09
       207  14 -3.933697E+05  1.804321E+03 -1.237237E+04  3.102781E+02 -2.904420E-10  7.590636E-10
       207  15 -3.954513E+05  4.871088E+02 -7.456992E+03  4.992846E+03  5.901965E-10 -4.720160E-10
       207  16 -5.527122E+05 -4.938544E+04 -6.309955E+04  7.385942E+03 -1.568729E-09 -1.656254E-09
       207  17 -5.404403E+05 -3.477767E+04 -4.814209E+04  8.073413E+02 -2.145381E-09  5.493981E-10
       207  18 -5.323615E+05 -3.357957E+04 -4.078966E+04  3.604924E+03 -8.258093E-11  7.471639E-10
       207  19 -2.381745E+05  2.886187E+04  1.351914E+04  2.621130E+03  1.846156E+04  3.875598E+03
       207  20 -2.462792E+05  3.838478E+04  2.339609E+04 -1.868709E+02  1.222328E+04  3.842610E+03
       207  21 -2.585240E+05  3.455244E+04  2.587440E+04  6.381087E+03  5.985476E+03  3.446789E+03
       207  22 -3.954544E+05 -1.026083E+04 -2.478897E+04  5.003871E+03  1.852145E+04  3.875795E+03
       207  23 -3.933695E+05  1.804377E+03 -1.237207E+04  3.103156E+02  1.213663E+04  3.842585E+03
       207  24 -3.954513E+05  4.871305E+02 -7.456908E+03  4.992862E+03  5.752192E+03  3.446543E+03
       207  25 -5.527118E+05 -4.938534E+04 -6.309887E+04  7.386000E+03  1.858131E+04  3.875993E+03
       207  26 -5.404401E+05 -3.477762E+04 -4.814179E+04  8.073786E+02  1.205000E+04  3.842561E+03
       207  27 -5.323614E+05 -3.357955E+04 -4.078958E+04  3.604940E+03  5.518959E+03  3.446298E+03
       208   1 -2.757988E+05  2.835311E+04  2.300201E+04  4.926478E+03 -4.705325E+03 -3.167400E+03
       208   2 -2.859556E+05  2.718076E+04  2.318335E+04  3.030324E+02 -3.117386E+03 -2.808481E+03
       208   3 -2.967252E+05  2.443363E+04  2.193426E+04  5.323688E+03 -1.529626E+03 -2.411336E+03
       208   4 -3.946612E+05 -1.204863E+03 -5.884697E+03  5.057199E+03 -4.566971E+03 -3.167266E+03
       208   5 -3.943530E+05  2.202563E+02 -3.181244E+03  2.342730E+02 -2.963718E+03 -2.808307E+03
       208   6 -3.946604E+05  6.776994E+01 -1.919062E+03  5.055557E+03 -1.360616E+03 -2.411119E+03
       208   7 -5.135107E+05 -3.076387E+04 -3.477242E+04  5.187891E+03 -4.428643E+03 -3.167131E+03
       208   8 -5.027396E+05 -2.674111E+04 -2.954669E+04  1.655220E+02 -2.810076E+03 -2.808132E+03
       208   9 -4.925869E+05 -2.429880E+04 -2.577308E+04  4.787464E+03 -1.191633E+03 -2.410902E+03
       208  10 -2.757988E+05  2.835309E+04  2.300195E+04  4.926466E+03 -2.916919E-09  2.464698E-09
       208  11 -2.859557E+05  2.718075E+04  2.318332E+04  3.030254E+02  1.966876E-09  2.927408E-09
       208  12 -2.967252E+05  2.443363E+04  2.193425E+04  5.323685E+03  3.904896E-09 -5.494136E-10
       208  13 -3.946612E+05 -1.204879E+03 -5.884755E+03  5.057187E+03 -4.037138E-09 -1.276263E-09
       208  14 -3.943530E+05  2.202454E+02 -3.181275E+03  2.342663E+02 -1.441242E-09  2.866236E-09
       208  15 -3.946604E+05  6.776320E+01 -1.919076E+03  5.055554E+03  1.823126E-09  3.705849E-09
       208  16 -5.135108E+05 -3.076389E+04 -3.477248E+04  5.187880E+03  3.421766E-09  1.515599E-09
       208  17 -5.027397E+05 -2.674112E+04 -2.954672E+04  1.655156E+02  2.025897E-09  2.348659E-09
       208  18 -4.925869E+05 -2.429881E+04 -2.577310E+04  4.787462E+03 -1.356270E-09  2.552512E-09
       208  19 -2.757988E+05  2.835311E+04  2.300201E+04  4.926478E+03  4.705325E+03  3.167400E+03
       208  20 -2.859556E+05  2.718076E+04  2.318335E+04  3.030324E+02  3.117386E+03  2.808481E+03
       208  21 -2.967252E+05  2.443363E+04  2.193426E+04  5.323688E+03  1.529626E+03  2.411336E+03
       208  22 -3.946612E+05 -1.204863E+03 -5.884697E+03  5.057199E+03  4.566971E+03  3.167266E+03
       208  23 -3.943530E+05  2.202563E+02 -3.181244E+03  2.342730E+02  2.963718E+03  2.808307E+03
       208  24 -3.946604E+05  6.776994E+01 -1.919062E+03  5.055557E+03  1.360616E+03  2.411119E+03
       208  25 -5.135107E+05 -3.076387E+04 -3.477242E+04  5.187891E+03  4.428643E+03  3.167131E+03
       208  26 -5.027396E+05 -2.674111E+04 -2.954669E+04  1.655220E+02  2.810076E+03  2.808132E+03
       208  27 -4.925869E+05 -2.429880E+04 -2.577308E+04  4.787464E+03  1.191633E+03  2.410902E+03
       209   1 -3.151174E+05  1.962511E+04  1.776360E+04  5.166911E+03 -1.211799E+03 -2.174877E+03
       209   2 -3.257154E+05  1.713591E+04  1.575437E+04  2.617209E+02 -7.302810E+02 -1.778825E+03
       209   3 -3.364500E+05  1.446690E+04  1.338048E+04  5.186834E+03 -2.488561E+02 -1.376771E+03
       209   4 -3.945532E+05 -1.262313E+02 -1.525902E+03  5.097605E+03 -1.051694E+03 -2.174660E+03
       209   5 -3.944844E+05  3.112999E+01 -9.725372E+02  1.823200E+02 -5.677851E+02 -1.778592E+03
       209   6 -3.945529E+05  8.216089E+00 -7.855601E+02  5.097407E+03 -8.396070E+01 -1.376520E+03
       209   7 -4.739832E+05 -1.987804E+04 -2.081586E+04  5.028306E+03 -8.916103E+02 -2.174444E+03
       209   8 -4.632491E+05 -1.707400E+04 -1.769978E+04  1.029262E+02 -4.053072E+02 -1.778358E+03
       209   9 -4.526528E+05 -1.445072E+04 -1.495184E+04  5.007986E+03  8.091930E+01 -1.376270E+03
       209  10 -3.151174E+05  1.962511E+04  1.776359E+04  5.166909E+03  5.898221E-10 -6.225947E-10
       209  11 -3.257154E+05  1.713591E+04  1.575436E+04  2.617199E+02  2.989491E-10  4.075537E-09
       209  12 -3.364500E+05  1.446690E+04  1.338047E+04  5.186834E+03  9.055771E-10  2.518319E-09
       209  13 -3.945532E+05 -1.262367E+02 -1.525913E+03  5.097603E+03 -2.620324E-11  9.370744E-10
       209  14 -3.944844E+05  3.112651E+01 -9.725438E+02  1.823192E+02  3.798850E-10  3.149181E-09
       209  15 -3.945529E+05  8.214053E+00 -7.855637E+02  5.097407E+03  2.256560E-09  4.243791E-10
       209  16 -4.739832E+05 -1.987805E+04 -2.081587E+04  5.028304E+03  2.082062E-09  1.540363E-09
       209  17 -4.632491E+05 -1.707400E+04 -1.769979E+04  1.029257E+02  4.999965E-09 -1.127128E-09
       209  18 -4.526528E+05 -1.445072E+04 -1.495185E+04  5.007986E+03  1.490838E-09 -1.135464E-09
       209  19 -3.151174E+05  1.962511E+04  1.776360E+04  5.166911E+03  1.211799E+03  2.174877E+03
       209  20 -3.257154E+05  1.713591E+04  1.575437E+04  2.617209E+02  7.302810E+02  1.778825E+03
       209  21 -3.364500E+05  1.446690E+04  1.338048E+04  5.186834E+03  2.488561E+02  1.376771E+03
       209  22 -3.945532E+05 -1.262313E+02 -1.525902E+03  5.097605E+03  1.051694E+03  2.174660E+03
       209  23 -3.944844E+05  3.112999E+01 -9.725372E+02  1.823200E+02  5.677851E+02  1.778592E+03
       209  24 -3.945529E+05  8.216089E+00 -7.855601E+02  5.097407E+03  8.396070E+01  1.376520E+03
       209  25 -4.739832E+05 -1.987804E+04 -2.081586E+04  5.028306E+03  8.916103E+02  2.174444E+03
       209  26 -4.632491E+05 -1.707400E+04 -1.769978E+04  1.029262E+02  4.053072E+02  1.778358E+03
       209  27 -4.526528E+05 -1.445072E+04 -1.495184E+04  5.007986E+03 -8.091930E+01  1.376270E+03
       210   1 -3.552262E+05  9.781743E+03  8.752021E+03  5.147929E+03 -1.075476E+02 -1.141268E+03
       210   2 -3.659322E+05  7.132291E+03  6.001562E+03  1.865397E+02  3.617057E+02 -7.372674E+02
       210   3 -3.767805E+05  4.312440E+03  2.894722E+03  5.159972E+03  8.309290E+02 -3.334266E+02
       210   4 -3.945535E+05  6.450405E+00 -7.807806E+02  5.120626E+03  5.693993E+01 -1.141012E+03
       210   5 -3.944824E+05  3.087427E+01 -9.430134E+02  1.533001E+02  5.261077E+02 -7.370053E+02
       210   6 -3.945535E+05 -1.150412E+02 -1.461527E+03  5.120824E+03  9.952536E+02 -3.331589E+02
       210   7 -4.338794E+05 -9.768956E+03 -1.031369E+04  5.093324E+03  2.214170E+02 -1.140755E+03
       210   8 -4.230318E+05 -7.070602E+03 -7.887647E+03  1.200619E+02  6.905021E+02 -7.367432E+02
       210   9 -4.123262E+05 -4.542546E+03 -5.817800E+03  5.081677E+03  1.159573E+03 -3.328912E+02
       210  10 -3.552262E+05  9.781742E+03  8.752018E+03  5.147928E+03  3.004224E-09  7.795018E-10
       210  11 -3.659322E+05  7.132290E+03  6.001560E+03  1.865399E+02  7.290505E-09  7.382800E-10
       210  12 -3.767805E+05  4.312440E+03  2.894721E+03  5.159972E+03  4.645492E-09 -3.309625E-09
       210  13 -3.945535E+05  6.449007E+00 -7.807831E+02  5.120626E+03  1.863616E-09  4.585980E-09
       210  14 -3.944824E+05  3.087361E+01 -9.430149E+02  1.533005E+02  3.733056E-09  7.861562E-10
       210  15 -3.945535E+05 -1.150416E+02 -1.461529E+03  5.120824E+03 -6.985612E-10 -4.239995E-09
       210  16 -4.338794E+05 -9.768958E+03 -1.031370E+04  5.093324E+03 -1.042079E-09  1.965758E-09
       210  17 -4.230318E+05 -7.070603E+03 -7.887649E+03  1.200623E+02 -9.303945E-09 -1.580254E-09
       210  18 -4.123262E+05 -4.542546E+03 -5.817802E+03  5.081678E+03 -4.201328E-09 -4.399450E-09
       210  19 -3.552262E+05  9.781743E+03  8.752021E+03  5.147929E+03  1.075476E+02  1.141268E+03
       210  20 -3.659322E+05  7.132291E+03  6.001562E+03  1.865397E+02 -3.617057E+02  7.372674E+02
       210  21 -3.767805E+05  4.312440E+03  2.894722E+03  5.159972E+03 -8.309290E+02  3.334266E+02
       210  22 -3.945535E+05  6.450405E+00 -7.807806E+02  5.120626E+03 -5.693993E+01  1.141012E+03
       210  23 -3.944824E+05  3.087427E+01 -9.430134E+02  1.533001E+02 -5.261077E+02  7.370053E+02
       210  24 -3.945535E+05 -1.150412E+02 -1.461527E+03  5.120824E+03 -9.952536E+02  3.331589E+02
       210  25 -4.338794E+05 -9.768956E+03 -1.031369E+04  5.093324E+03 -2.214170E+02  1.140755E+03
       210  26 -4.230318E+05 -7.070602E+03 -7.887647E+03  1.200619E+02 -6.905021E+02  7.367432E+02
       210  27 -4.123262E+05 -4.542546E+03 -5.817800E+03  5.081677E+03 -1.159573E+03  3.328912E+02
       211   1 -3.957742E+05 -2.170873E+02 -2.138528E+03  4.968292E+03  1.121652E+03 -9.419096E+01
       211   2 -4.062644E+05 -2.750752E+03 -5.925160E+03  1.724332E+02  2.655242E+03  3.136451E+02
       211   3 -4.173684E+05 -6.779714E+03 -1.109301E+04  5.329730E+03  4.188846E+03  7.026040E+02
       211   4 -3.946579E+05  6.785411E+01 -1.833688E+03  5.124117E+03  1.290807E+03 -9.391383E+01
       211   5 -3.943519E+05  2.121477E+02 -3.027887E+03  1.485193E+02  2.816727E+03  3.139067E+02
       211   6 -3.946584E+05 -1.137491E+03 -5.597926E+03  5.126069E+03  4.342685E+03  7.028498E+02
       211   7 -3.935415E+05  3.527955E+02 -1.528848E+03  5.279942E+03  1.459964E+03 -9.363662E+01
       211   8 -3.824392E+05  3.175037E+03 -1.306245E+02  1.246049E+02  2.978214E+03  3.141684E+02
       211   9 -3.719480E+05  4.504695E+03 -1.028847E+02  4.922399E+03  4.496530E+03  7.030955E+02
       211  10 -3.957742E+05 -2.170876E+02 -2.138531E+03  4.968292E+03 -6.335312E-09  8.884596E-11
       211  11 -4.062644E+05 -2.750754E+03 -5.925174E+03  1.724326E+02 -1.940579E-09  3.185601E-09
       211  12 -4.173684E+05 -6.779719E+03 -1.109304E+04  5.329728E+03  3.437637E-09  7.805298E-10
       211  13 -3.946579E+05  6.785365E+01 -1.833692E+03  5.124117E+03  1.030656E-11 -1.600062E-09
       211  14 -3.943519E+05  2.121454E+02 -3.027902E+03  1.485186E+02  1.712059E-09  5.480281E-10
       211  15 -3.946584E+05 -1.137496E+03 -5.597963E+03  5.126066E+03  1.124722E-09 -1.408027E-09
       211  16 -3.935415E+05  3.527949E+02 -1.528852E+03  5.279942E+03  6.552470E-09  4.178740E-11
       211  17 -3.824393E+05  3.175034E+03 -1.306413E+02  1.246041E+02 -1.201756E-09 -1.821894E-09
       211  18 -3.719480E+05  4.504689E+03 -1.029236E+02  4.922397E+03 -3.550168E-09 -1.348873E-10
       211  19 -3.957742E+05 -2.170873E+02 -2.138528E+03  4.968292E+03 -1.121652E+03  9.419096E+01
       211  20 -4.062644E+05 -2.750752E+03 -5.925160E+03  1.724332E+02 -2.655242E+03 -3.136451E+02
       211  21 -4.173684E+05 -6.779714E+03 -1.109301E+04  5.329730E+03 -4.188846E+03 -7.026040E+02
       211  22 -3.946579E+05  6.785411E+01 -1.833688E+03  5.124117E+03 -1.290807E+03  9.391383E+01
       211  23 -3.943519E+05  2.121477E+02 -3.027887E+03  1.485193E+02 -2.816727E+03 -3.139067E+02
       211  24 -3.946584E+05 -1.137491E+03 -5.597926E+03  5.126069E+03 -4.342685E+03 -7.028498E+02
       211  25 -3.935415E+05  3.527955E+02 -1.528848E+03  5.279942E+03 -1.459964E+03  9.363662E+01
       211  26 -3.824392E+05  3.175037E+03 -1.306245E+02  1.246049E+02 -2.978214E+03 -3.141684E+02
       211  27 -3.719480E+05  4.504695E+03 -1.028847E+02  4.922399E+03 -4.496530E+03 -7.030955E+02
       212   1 -4.369598E+05 -9.875673E+03 -1.723066E+04  3.855999E+03  5.264024E+03  9.685915E+02
       212   2 -4.456813E+05 -1.127885E+04 -2.447194E+04  6.940106E+02  1.141423E+04  1.384069E+03
       212   3 -4.584209E+05 -2.541178E+04 -3.890891E+04  7.425669E+03  1.756456E+04  1.600904E+03
       212   4 -3.954120E+05  4.699808E+02 -7.092931E+03  5.106449E+03  5.470229E+03  9.689285E+02
       212   5 -3.934115E+05  1.719957E+03 -1.176163E+04  1.674633E+02  1.153987E+04  1.384247E+03
       212   6 -3.954149E+05 -9.745238E+03 -2.356960E+04  5.122127E+03  1.760976E+04  1.600896E+03
       212   7 -3.538627E+05  1.081551E+04  3.044671E+03  6.356983E+03  5.676448E+03  9.692663E+02
       212   8 -3.411391E+05  1.471857E+04  9.484830E+02 -3.591296E+02  1.166553E+04  1.384425E+03
       212   9 -3.324052E+05  5.921029E+03 -8.230570E+03  2.818350E+03  1.765496E+04  1.600887E+03
       212  10 -4.369598E+05 -9.875682E+03 -1.723071E+04  3.855995E+03 -4.585110E-09  3.583128E-09
       212  11 -4.456814E+05 -1.127889E+04 -2.447219E+04  6.939979E+02 -3.871125E-09  4.065078E-09
       212  12 -4.584213E+05 -2.541186E+04 -3.890950E+04  7.425646E+03  6.527972E-10  2.958634E-09
       212  13 -3.954121E+05  4.699718E+02 -7.092990E+03  5.106445E+03  2.161636E-09 -8.486129E-10
       212  14 -3.934116E+05  1.719920E+03 -1.176188E+04  1.674504E+02  6.484813E-10  2.297390E-09
       212  15 -3.954152E+05 -9.745325E+03 -2.357019E+04  5.122105E+03  1.733892E-09 -1.877138E-09
       212  16 -3.538628E+05  1.081550E+04  3.044609E+03  6.356979E+03  7.089825E-09  6.703754E-10
       212  17 -3.411393E+05  1.471853E+04  9.482235E+02 -3.591426E+02  2.746629E-09  1.395426E-09
       212  18 -3.324055E+05  5.920943E+03 -8.231161E+03  2.818327E+03 -7.842974E-10 -1.756037E-09
       212  19 -4.369598E+05 -9.875673E+03 -1.723066E+04  3.855999E+03 -5.264024E+03 -9.685915E+02
       212  20 -4.456813E+05 -1.127885E+04 -2.447194E+04  6.940106E+02 -1.141423E+04 -1.384069E+03
       212  21 -4.584209E+05 -2.541178E+04 -3.890891E+04  7.425669E+03 -1.756456E+04 -1.600904E+03
       212  22 -3.954120E+05  4.699808E+02 -7.092931E+03  5.106449E+03 -5.470229E+03 -9.689285E+02
       212  23 -3.934115E+05  1.719957E+03 -1.176163E+04  1.674633E+02 -1.153987E+04 -1.384247E+03
       212  24 -3.954149E+05 -9.745238E+03 -2.356960E+04  5.122127E+03 -1.760976E+04 -1.600896E+03
       212  25 -3.538627E+05  1.081551E+04  3.044671E+03  6.356983E+03 -5.676448E+03 -9.692663E+02
       212  26 -3.411391E+05  1.471857E+04  9.484830E+02 -3.591296E+02 -1.166553E+04 -1.384425E+03
       212  27 -3.324052E+05  5.921029E+03 -8.230570E+03  2.818350E+03 -1.765496E+04 -1.600887E+03
       213   1 -4.827366E+05 -1.647562E+04 -4.859939E+04 -4.629547E+03  2.156253E+04  2.146976E+03
       213   2 -4.784309E+05 -8.751226E+03 -6.760897E+04  6.092531E+03  4.693621E+04  2.610417E+03
       213   3 -5.039952E+05 -1.071809E+05 -1.296887E+05  2.659976E+04  7.231290E+04  9.785383E+02
       213   4 -4.011258E+05  3.860638E+03 -2.874093E+04  5.049225E+03  2.216538E+04  2.148193E+03
       213   5 -3.862748E+05  1.414259E+04 -4.523808E+04  2.152243E+02  4.668741E+04  2.609586E+03
       213   6 -4.011415E+05 -8.157389E+04 -1.042091E+05  5.166676E+03  7.121290E+04  9.745233E+02
       213   7 -3.195087E+05  2.419675E+04 -8.882909E+03  1.472927E+04  2.276831E+04  2.149429E+03
       213   8 -2.941108E+05  3.703592E+04 -2.286779E+04 -5.662961E+03  4.643857E+04  2.608760E+03
       213   9 -2.982772E+05 -5.596594E+04 -7.873001E+04 -1.626997E+04  7.011272E+04  9.705847E+02
       213  10 -4.827372E+05 -1.647574E+04 -4.860027E+04 -4.629584E+03 -8.202187E-11  1.779210E-09
       213  11 -4.784333E+05 -8.751825E+03 -6.761312E+04  6.092433E+03 -1.907737E-09 -7.516106E-10
       213  12 -5.040009E+05 -1.071823E+05 -1.296985E+05  2.659971E+04 -1.853232E-09 -7.333352E-10
       213  13 -4.011263E+05  3.860501E+03 -2.874187E+04  5.049187E+03  4.028449E-09  6.093764E-10
       213  14 -3.862771E+05  1.414200E+04 -4.524219E+04  2.151262E+02  9.705656E-10 -4.410960E-09
       213  15 -4.011470E+05 -8.157525E+04 -1.042186E+05  5.166620E+03  9.913646E-10  1.406785E-09
       213  16 -3.195093E+05  2.419661E+04 -8.883892E+03  1.472923E+04 -8.146666E-10  2.036596E-09
       213  17 -2.941131E+05  3.703533E+04 -2.287186E+04 -5.663058E+03 -5.065198E-10  1.839554E-09
       213  18 -2.982825E+05 -5.596727E+04 -7.873925E+04 -1.627003E+04 -2.884792E-10  2.567959E-10
       213  19 -4.827366E+05 -1.647562E+04 -4.859939E+04 -4.629547E+03 -2.156253E+04 -2.146976E+03
       213  20 -4.784309E+05 -8.751226E+03 -6.760897E+04  6.092531E+03 -4.693621E+04 -2.610417E+03
       213  21 -5.039952E+05 -1.071809E+05 -1.296887E+05  2.659976E+04 -7.231290E+04 -9.785383E+02
       213  22 -4.011258E+05  3.860638E+03 -2.874093E+04  5.049225E+03 -2.216538E+04 -2.148193E+03
       213  23 -3.862748E+05  1.414259E+04 -4.523808E+04  2.152243E+02 -4.668741E+04 -2.609586E+03
       213  24 -4.011415E+05 -8.157389E+04 -1.042091E+05  5.166676E+03 -7.121290E+04 -9.745233E+02
       213  25 -3.195087E+05  2.419675E+04 -8.882909E+03  1.472927E+04 -2.276831E+04 -2.149429E+03
       213  26 -2.941108E+05  3.703592E+04 -2.286779E+04 -5.662961E+03 -4.643857E+04 -2.608760E+03
       213  27 -2.982772E+05 -5.596594E+04 -7.873001E+04 -1.626997E+04 -7.011272E+04 -9.705847E+02
       214   1  1.645582E+05  9.126639E+05  1.768552E+05 -8.960989E+04  4.443919E+03  6.195268E+04
       214   2  7.266884E+04  8.056863E+05  1.077411E+05 -4.861813E+04  1.276786E+04  3.208508E+04
       214   3  4.790874E+04  7.193323E+05  7.482751E+04 -5.057123E+04  1.004221E+04  2.213778E+03
       214   4  6.483695E+04  5.116975E+05  7.914315E+04 -5.979688E+04  4.455639E+03  5.030876E+04
       214   5 -1.766447E+03  5.022057E+05  3.892196E+04 -3.835148E+04  1.277077E+04  2.974409E+04
       214   6 -2.835461E+03  5.117296E+05  2.846088E+04 -5.984907E+04  1.003576E+04  9.170955E+03
       214   7 -3.489277E+04  1.108798E+05 -1.857961E+04 -3.000310E+04  4.466248E+03  3.867232E+04
       214   8 -7.620769E+04  1.988108E+05 -2.990309E+04 -2.808988E+04  1.277359E+04  2.740423E+04
       214   9 -5.358223E+04  3.041673E+05 -1.790824E+04 -6.912376E+04  1.002910E+04  1.612583E+04
       214  10  1.645572E+05  9.126597E+05  1.768480E+05 -8.961012E+04  7.132508E-10  1.440039E-09
       214  11  7.266839E+04  8.056851E+05  1.077389E+05 -4.861846E+04  3.441716E-09  4.674841E-09
       214  12  4.790863E+04  7.193323E+05  7.482732E+04 -5.057125E+04  1.478221E-10  8.361892E-09
       214  13  6.483625E+04  5.116948E+05  7.913836E+04 -5.979706E+04 -1.545413E-09 -7.572000E-10
       214  14 -1.766859E+03  5.022047E+05  3.891999E+04 -3.835179E+04  2.970855E-09  9.000355E-10
       214  15 -2.835591E+03  5.117295E+05  2.846053E+04 -5.984914E+04 -5.147620E-09 -2.677686E-11
       214  16 -3.489319E+04  1.108782E+05 -1.858245E+04 -3.000324E+04  1.780997E-09 -1.820458E-09
       214  17 -7.620806E+04  1.988100E+05 -2.990481E+04 -2.809016E+04  3.891775E-09 -7.153906E-09
       214  18 -5.358241E+04  3.041670E+05 -1.790892E+04 -6.912389E+04  3.056746E-09 -9.807518E-09
       214  19  1.645582E+05  9.126639E+05  1.768552E+05 -8.960989E+04 -4.443919E+03 -6.195268E+04
       214  20  7.266884E+04  8.056863E+05  1.077411E+05 -4.861813E+04 -1.276786E+04 -3.208508E+04
       214  21  4.790874E+04  7.193323E+05  7.482751E+04 -5.057123E+04 -1.004221E+04 -2.213778E+03
       214  22  6.483695E+04  5.116975E+05  7.914315E+04 -5.979688E+04 -4.455639E+03 -5.030876E+04
       214  23 -1.766447E+03  5.022057E+05  3.892196E+04 -3.835148E+04 -1.277077E+04 -2.974409E+04
       214  24 -2.835461E+03  5.117296E+05  2.846088E+04 -5.984907E+04 -1.003576E+04 -9.170955E+03
       214  25 -3.489277E+04  1.108798E+05 -1.857961E+04 -3.000310E+04 -4.466248E+03 -3.867232E+04
       214  26 -7.620769E+04  1.988108E+05 -2.990309E+04 -2.808988E+04 -1.277359E+04 -2.740423E+04
       214  27 -5.358223E+04  3.041673E+05 -1.790824E+04 -6.912376E+04 -1.002910E+04 -1.612583E+04
       215   1  3.410440E+04  6.331190E+05  5.471464E+04 -6.287861E+04  5.866990E+03  8.439918E+02
       215   2  6.354387E+03  5.342741E+05  3.312440E+04 -3.794420E+04  1.372737E+03 -1.273166E+04
       215   3 -8.809683E+03  4.402541E+05  2.349099E+04 -5.633495E+04 -3.183939E+03 -2.630559E+04
       215   4  3.623322E+03  5.085756E+05  2.680691E+04 -5.991983E+04  5.863347E+03  4.606256E+03
       215   5 -5.174756E+02  5.061720E+05  2.684696E+04 -3.825533E+04  1.368992E+03 -8.916195E+03
       215   6  7.919198E+03  5.085751E+05  3.880757E+04 -5.991560E+04 -3.187677E+03 -2.243896E+04
       215   7 -2.685878E+04  3.840467E+05 -1.101740E+03 -5.696164E+04  5.859739E+03  8.367773E+03
       215   8 -7.389384E+03  4.780708E+05  2.056952E+04 -3.856645E+04  1.365244E+03 -5.100897E+03
       215   9  2.464782E+04  5.769006E+05  5.412393E+04 -6.349664E+04 -3.191460E+03 -1.857191E+04
       215  10  3.410437E+04  6.331190E+05  5.471457E+04 -6.287862E+04 -3.740866E-09 -1.947167E-10
       215  11  6.354341E+03  5.342739E+05  3.312409E+04 -3.794418E+04  8.900121E-10 -8.586321E-09
       215  12 -8.809879E+03  4.402533E+05  2.348967E+04 -5.633502E+04  1.099104E-09 -1.210266E-08
       215  13  3.623280E+03  5.085756E+05  2.680681E+04 -5.991985E+04 -5.211677E-09 -8.868934E-10
       215  14 -5.174990E+02  5.061719E+05  2.684680E+04 -3.825532E+04 -5.468747E-09  7.364960E-10
       215  15  7.919052E+03  5.085746E+05  3.880661E+04 -5.991565E+04 -1.232715E-09 -3.980528E-10
       215  16 -2.685883E+04  3.840466E+05 -1.101936E+03 -5.696168E+04  2.796002E-09 -1.732273E-10
       215  17 -7.389393E+03  4.780707E+05  2.056947E+04 -3.856644E+04  8.117846E-10  5.694850E-09
       215  18  2.464771E+04  5.769002E+05  5.412326E+04 -6.349669E+04  2.055813E-09  1.036072E-08
       215  19  3.410440E+04  6.331190E+05  5.471464E+04 -6.287861E+04 -5.866990E+03 -8.439918E+02
       215  20  6.354387E+03  5.342741E+05  3.312440E+04 -3.794420E+04 -1.372737E+03  1.273166E+04
       215  21 -8.809683E+03  4.402541E+05  2.349099E+04 -5.633495E+04  3.183939E+03  2.630559E+04
       215  22  3.623322E+03  5.085756E+05  2.680691E+04 -5.991983E+04 -5.863347E+03 -4.606256E+03
       215  23 -5.174756E+02  5.061720E+05  2.684696E+04 -3.825533E+04 -1.368992E+03  8.916195E+03
       215  24  7.919198E+03  5.085751E+05  3.880757E+04 -5.991560E+04  3.187677E+03  2.243896E+04
       215  25 -2.685878E+04  3.840467E+05 -1.101740E+03 -5.696164E+04 -5.859739E+03 -8.367773E+03
       215  26 -7.389384E+03  4.780708E+05  2.056952E+04 -3.856645E+04 -1.365244E+03  5.100897E+03
       215  27  2.464782E+04  5.769006E+05  5.412393E+04 -6.349664E+04  3.191460E+03  1.857191E+04
       216   1 -4.347643E+04  3.646011E+05  1.228710E+04 -7.891570E+04 -7.215287E+03 -3.592268E+04
       216   2 -6.420140E+04  2.497972E+05  1.727482E+04 -1.805399E+04 -1.025149E+04 -6.677544E+04
       216   3  4.521148E+04  1.715028E+05  7.487137E+04 -1.409252E+02 -3.656665E+03 -9.761455E+04
       216   4 -6.503250E+03  5.159271E+05  4.612427E+04 -5.986476E+04 -7.222809E+03 -2.930796E+04
       216   5 -3.518860E+03  4.969638E+05  7.341055E+04 -3.833652E+04 -1.024772E+04 -6.827032E+04
       216   6  1.309749E+05  5.158822E+05  1.589159E+05 -5.975082E+04 -3.639411E+03 -1.072241E+05
       216   7  3.046977E+04  6.672754E+05  7.996035E+04 -4.080913E+04 -7.229925E+03 -2.269163E+04
       216   8  5.716100E+04  7.441880E+05  1.295425E+05 -5.862719E+04 -1.024385E+04 -6.976579E+04
       216   9  2.167430E+05  8.603775E+05  2.429541E+05 -1.193938E+05 -3.620319E+03 -1.168390E+05
       216  10 -4.347684E+04  3.645997E+05  1.228458E+04 -7.891590E+04  1.235822E-09 -4.485344E-09
       216  11 -6.420271E+04  2.497924E+05  1.726625E+04 -1.805454E+04  1.748438E-09 -3.060158E-09
       216  12  4.520891E+04  1.714926E+05  7.485345E+04 -1.412127E+02 -2.516166E-10 -1.237876E-09
       216  13 -6.503536E+03  5.159262E+05  4.612255E+04 -5.986493E+04 -1.040267E-09 -9.284987E-10
       216  14 -3.520223E+03  4.969588E+05  7.340160E+04 -3.833709E+04  4.759370E-09  8.344098E-10
       216  15  1.309719E+05  5.158699E+05  1.588943E+05 -5.975114E+04 -1.499253E-09 -2.804411E-11
       216  16  3.046958E+04  6.672748E+05  7.995929E+04 -4.080926E+04  2.843846E-09  3.922410E-09
       216  17  5.715958E+04  7.441828E+05  1.295332E+05 -5.862777E+04 -1.817561E-10  5.820848E-10
       216  18  2.167394E+05  8.603629E+05  2.429285E+05 -1.193942E+05 -9.760419E-10 -1.485428E-10
       216  19 -4.347643E+04  3.646011E+05  1.228710E+04 -7.891570E+04  7.215287E+03  3.592268E+04
       216  20 -6.420140E+04  2.497972E+05  1.727482E+04 -1.805399E+04  1.025149E+04  6.677544E+04
       216  21  4.521148E+04  1.715028E+05  7.487137E+04 -1.409252E+02  3.656665E+03  9.761455E+04
       216  22 -6.503250E+03  5.159271E+05  4.612427E+04 -5.986476E+04  7.222809E+03  2.930796E+04
       216  23 -3.518860E+03  4.969638E+05  7.341055E+04 -3.833652E+04  1.024772E+04  6.827032E+04
       216  24  1.309749E+05  5.158822E+05  1.589159E+05 -5.975082E+04  3.639411E+03  1.072241E+05
       216  25  3.046977E+04  6.672754E+05  7.996035E+04 -4.080913E+04  7.229925E+03  2.269163E+04
       216  26  5.716100E+04  7.441880E+05  1.295425E+05 -5.862719E+04  1.024385E+04  6.976579E+04
       216  27  2.167430E+05  8.603775E+05  2.429541E+05 -1.193938E+05  3.620319E+03  1.168390E+05
       217   1  1.097946E+05  1.604463E+04 -6.258222E+02  4.126134E+04 -2.998367E+03 -1.138413E+03
       217   2  1.110854E+05  1.988090E+04  2.159581E+03  3.977932E+04 -1.923990E+03 -7.558193E+02
       217   3  1.101273E+05  1.936077E+04  2.862887E+03  4.007694E+04 -8.598185E+02 -3.461068E+02
       217   4  9.487120E+04  1.045805E+04 -4.727227E+03  3.725208E+04 -2.999034E+03 -1.138663E+03
       217   5  9.622742E+04  1.427774E+04 -1.931765E+03  3.574537E+04 -1.924071E+03 -7.558499E+02
       217   6  9.533451E+04  1.374087E+04 -1.218903E+03  3.601834E+04 -8.593146E+02 -3.459171E+02
       217   7  7.994805E+04  4.871476E+03 -8.828651E+03  3.324290E+04 -2.999700E+03 -1.138914E+03
       217   8  8.136966E+04  8.674596E+03 -6.023130E+03  3.171151E+04 -1.924153E+03 -7.558805E+02
       217   9  8.054196E+04  8.120988E+03 -5.300713E+03  3.195983E+04 -8.588107E+02 -3.457275E+02
       217  10  1.097946E+05  1.604463E+04 -6.258416E+02  4.126134E+04 -1.008866E-07  7.061666E-08
       217  11  1.110854E+05  1.988090E+04  2.159573E+03  3.977932E+04 -9.621984E-08  6.154032E-08
       217  12  1.101273E+05  1.936077E+04  2.862885E+03  4.007694E+04  4.908445E-07 -3.450745E-07
       217  13  9.487119E+04  1.045804E+04 -4.727247E+03  3.725208E+04 -5.090157E-10  3.487681E-09
       217  14  9.622741E+04  1.427774E+04 -1.931773E+03  3.574537E+04 -1.455379E-09 -1.900733E-09
       217  15  9.533451E+04  1.374087E+04 -1.218905E+03  3.601834E+04  1.028610E-08 -2.198979E-08
       217  16  7.994804E+04  4.871472E+03 -8.828670E+03  3.324290E+04  1.033590E-07 -6.586340E-08
       217  17  8.136965E+04  8.674594E+03 -6.023138E+03  3.171151E+04  9.709739E-08 -6.613441E-08
       217  18  8.054196E+04  8.120988E+03 -5.300715E+03  3.195983E+04 -4.731636E-07  2.995549E-07
       217  19  1.097946E+05  1.604463E+04 -6.258222E+02  4.126134E+04  2.998367E+03  1.138413E+03
       217  20  1.110854E+05  1.988090E+04  2.159581E+03  3.977932E+04  1.923990E+03  7.558193E+02
       217  21  1.101273E+05  1.936077E+04  2.862887E+03  4.007694E+04  8.598185E+02  3.461068E+02
       217  22  9.487120E+04  1.045805E+04 -4.727227E+03  3.725208E+04  2.999034E+03  1.138663E+03
       217  23  9.622742E+04  1.427774E+04 -1.931765E+03  3.574537E+04  1.924071E+03  7.558499E+02
       217  24  9.533451E+04  1.374087E+04 -1.218903E+03  3.601834E+04  8.593146E+02  3.459171E+02
       217  25  7.994805E+04  4.871476E+03 -8.828651E+03  3.324290E+04  2.999700E+03  1.138914E+03
       217  26  8.136966E+04  8.674596E+03 -6.023130E+03  3.171151E+04  1.924153E+03  7.558805E+02
       217  27  8.054196E+04  8.120989E+03 -5.300713E+03  3.195983E+04  8.588107E+02  3.457275E+02
       218   1  1.014479E+05  1.534288E+04  6.197934E+02  3.787046E+04 -6.757789E+02 -2.676211E+02
       218   2  1.017005E+05  1.589536E+04  1.180537E+03  3.757617E+04 -4.373189E+02 -1.754764E+02
       218   3  1.014843E+05  1.586155E+04  1.359655E+03  3.767787E+04 -1.988186E+02 -8.342700E+01
       218   4  9.552262E+04  1.310978E+04 -1.011536E+03  3.626320E+04 -6.757257E+02 -2.676011E+02
       218   5  9.579378E+04  1.366284E+04 -4.469964E+02  3.596738E+04 -4.372703E+02 -1.754580E+02
       218   6  9.559621E+04  1.362959E+04 -2.640810E+02  3.606754E+04 -1.987744E+02 -8.341030E+01
       218   7  8.959736E+04  1.087668E+04 -2.642869E+03  3.465595E+04 -6.756724E+02 -2.675810E+02
       218   8  8.988710E+04  1.143031E+04 -2.074533E+03  3.435860E+04 -4.372213E+02 -1.754396E+02
       218   9  8.970811E+04  1.139763E+04 -1.887820E+03  3.445723E+04 -1.987297E+02 -8.339354E+01
       218  10  1.014479E+05  1.534288E+04  6.197946E+02  3.787045E+04 -2.009144E-05 -1.411701E-05
       218  11  1.017005E+05  1.589536E+04  1.180546E+03  3.757612E+04 -9.619421E-05 -6.085852E-05
       218  12  1.014844E+05  1.586155E+04  1.359672E+03  3.767778E+04 -1.747014E-04 -1.060444E-04
       218  13  9.552262E+04  1.310978E+04 -1.011538E+03  3.626320E+04 -6.223343E-05 -1.725092E-05
       218  14  9.579378E+04  1.366284E+04 -4.469971E+02  3.596738E+04 -2.761471E-04 -7.642476E-05
       218  15  9.559620E+04  1.362959E+04 -2.640815E+02  3.606754E+04 -4.900386E-04 -1.356096E-04
       218  16  8.959735E+04  1.087668E+04 -2.642872E+03  3.465596E+04 -2.478215E-05 -1.275462E-05
       218  17  8.988705E+04  1.143031E+04 -2.074543E+03  3.435865E+04 -1.029306E-04 -5.814848E-05
       218  18  8.970802E+04  1.139763E+04 -1.887837E+03  3.445732E+04 -1.786632E-04 -1.051184E-04
       218  19  1.014479E+05  1.534288E+04  6.197977E+02  3.787044E+04  6.757788E+02  2.676210E+02
       218  20  1.017006E+05  1.589536E+04  1.180556E+03  3.757607E+04  4.373187E+02  1.754762E+02
       218  21  1.014845E+05  1.586155E+04  1.359690E+03  3.767769E+04  1.988182E+02  8.342679E+01
       218  22  9.552262E+04  1.310978E+04 -1.011537E+03  3.626320E+04  6.757256E+02  2.676010E+02
       218  23  9.579378E+04  1.366284E+04 -4.469969E+02  3.596738E+04  4.372697E+02  1.754579E+02
       218  24  9.559620E+04  1.362959E+04 -2.640818E+02  3.606754E+04  1.987735E+02  8.341003E+01
       218  25  8.959734E+04  1.087668E+04 -2.642874E+03  3.465597E+04  6.756724E+02  2.675810E+02
       218  26  8.988700E+04  1.143031E+04 -2.074552E+03  3.435870E+04  4.372211E+02  1.754395E+02
       218  27  8.970793E+04  1.139763E+04 -1.887855E+03  3.445741E+04  1.987293E+02  8.339333E+01
       219   1  9.795713E+04  1.439147E+04  4.298955E+02  3.672265E+04 -1.600065E+02 -6.697259E+01
       219   2  9.801516E+04  1.445430E+04  5.542634E+02  3.665065E+04 -1.174777E+02 -4.814936E+01
       219   3  9.795647E+04  1.447540E+04  6.159531E+02  3.668831E+04 -7.425965E+01 -3.115579E+01
       219   4  9.564126E+04  1.351636E+04 -2.081447E+02  3.609210E+04 -1.599305E+02 -6.694390E+01
       219   5  9.570577E+04  1.358069E+04 -8.221848E+01  3.602090E+04 -1.174429E+02 -4.813621E+01
       219   6  9.565358E+04  1.360330E+04 -1.893795E+01  3.605936E+04 -7.426610E+01 -3.115819E+01
       219   7  9.332539E+04  1.264125E+04 -8.461853E+02  3.546156E+04 -1.598539E+02 -6.691515E+01
       219   8  9.339639E+04  1.270708E+04 -7.187010E+02  3.539115E+04 -1.174077E+02 -4.812300E+01
       219   9  9.335069E+04  1.273120E+04 -6.538297E+02  3.543041E+04 -7.427222E+01 -3.116053E+01
       219  10  9.795722E+04  1.439147E+04  4.299139E+02  3.672255E+04 -1.872462E-04 -1.110317E-04
       219  11  9.801523E+04  1.445429E+04  5.542768E+02  3.665058E+04 -1.445040E-04 -8.283775E-05
       219  12  9.795652E+04  1.447539E+04  6.159617E+02  3.668826E+04 -1.000955E-04 -5.560841E-05
       219  13  9.564126E+04  1.351636E+04 -2.081444E+02  3.609210E+04 -5.163715E-04 -1.433118E-04
       219  14  9.570577E+04  1.358069E+04 -8.221836E+01  3.602090E+04 -3.929757E-04 -1.105614E-04
       219  15  9.565358E+04  1.360330E+04 -1.893777E+01  3.605936E+04 -2.695962E-04 -7.778616E-05
       219  16  9.332530E+04  1.264125E+04 -8.462037E+02  3.546166E+04 -1.854086E-04 -1.109944E-04
       219  17  9.339632E+04  1.270708E+04 -7.187145E+02  3.539123E+04 -1.402365E-04 -8.431178E-05
       219  18  9.335065E+04  1.273121E+04 -6.538382E+02  3.543046E+04 -9.675125E-05 -5.660478E-05
       219  19  9.795732E+04  1.439147E+04  4.299324E+02  3.672246E+04  1.600061E+02  6.697237E+01
       219  20  9.801530E+04  1.445429E+04  5.542903E+02  3.665050E+04  1.174774E+02  4.814919E+01
       219  21  9.795656E+04  1.447539E+04  6.159702E+02  3.668821E+04  7.425945E+01  3.115568E+01
       219  22  9.564126E+04  1.351636E+04 -2.081441E+02  3.609211E+04  1.599295E+02  6.694362E+01
       219  23  9.570577E+04  1.358069E+04 -8.221818E+01  3.602090E+04  1.174422E+02  4.813599E+01
       219  24  9.565358E+04  1.360330E+04 -1.893757E+01  3.605936E+04  7.426556E+01  3.115803E+01
       219  25  9.332520E+04  1.264125E+04 -8.462219E+02  3.546175E+04  1.598536E+02  6.691493E+01
       219  26  9.339625E+04  1.270708E+04 -7.187279E+02  3.539130E+04  1.174074E+02  4.812284E+01
       219  27  9.335060E+04  1.273121E+04 -6.538468E+02  3.543051E+04  7.427203E+01  3.116042E+01
       220   1  9.646647E+04  1.387719E+04  2.269682E+02  3.627855E+04 -7.344485E+01 -3.042247E+01
       220   2  9.647472E+04  1.386761E+04  2.930992E+02  3.625438E+04 -1.114111E+02 -4.326726E+01
       220   3  9.646823E+04  1.392187E+04  3.957840E+02  3.625911E+04 -1.490483E+02 -5.698452E+01
       220   4  9.566893E+04  1.357524E+04  7.131867E+00  3.606081E+04 -7.340643E+01 -3.040796E+01
       220   5  9.567963E+04  1.356679E+04  7.395710E+01  3.603752E+04 -1.113922E+02 -4.326012E+01
       220   6  9.567559E+04  1.362218E+04  1.773516E+02  3.604313E+04 -1.490490E+02 -5.698475E+01
       220   7  9.487139E+04  1.327330E+04 -2.127046E+02  3.584308E+04 -7.336774E+01 -3.039342E+01
       220   8  9.488454E+04  1.326598E+04 -1.451851E+02  3.582066E+04 -1.113731E+02 -4.325296E+01
       220   9  9.488295E+04  1.332250E+04 -4.108079E+01  3.582715E+04 -1.490495E+02 -5.698496E+01
       220  10  9.646651E+04  1.387718E+04  2.269747E+02  3.627851E+04 -7.947954E-05 -4.367087E-05
       220  11  9.647475E+04  1.386761E+04  2.931035E+02  3.625435E+04 -5.512454E-05 -2.966403E-05
       220  12  9.646824E+04  1.392186E+04  3.957861E+02  3.625910E+04 -3.070992E-05 -1.571738E-05
       220  13  9.566893E+04  1.357524E+04  7.131950E+00  3.606082E+04 -2.142701E-04 -6.268150E-05
       220  14  9.567963E+04  1.356679E+04  7.395717E+01  3.603752E+04 -1.475186E-04 -4.355292E-05
       220  15  9.567559E+04  1.362218E+04  1.773517E+02  3.604313E+04 -8.076333E-05 -2.444757E-05
       220  16  9.487136E+04  1.327331E+04 -2.127111E+02  3.584312E+04 -7.764747E-05 -4.439896E-05
       220  17  9.488451E+04  1.326598E+04 -1.451895E+02  3.582069E+04 -5.338305E-05 -3.041907E-05
       220  18  9.488293E+04  1.332250E+04 -4.108298E+01  3.582716E+04 -2.916469E-05 -1.640896E-05
       220  19  9.646655E+04  1.387718E+04  2.269812E+02  3.627847E+04  7.344469E+01  3.042238E+01
       220  20  9.647477E+04  1.386760E+04  2.931079E+02  3.625433E+04  1.114110E+02  4.326720E+01
       220  21  9.646826E+04  1.392186E+04  3.957883E+02  3.625908E+04  1.490483E+02  5.698449E+01
       220  22  9.566894E+04  1.357524E+04  7.132056E+00  3.606082E+04  7.340600E+01  3.040784E+01
       220  23  9.567963E+04  1.356679E+04  7.395730E+01  3.603752E+04  1.113919E+02  4.326003E+01
       220  24  9.567559E+04  1.362218E+04  1.773519E+02  3.604313E+04  1.490488E+02  5.698470E+01
       220  25  9.487132E+04  1.327331E+04 -2.127176E+02  3.584316E+04  7.336758E+01  3.039334E+01
       220  26  9.488449E+04  1.326599E+04 -1.451938E+02  3.582072E+04  1.113730E+02  4.325289E+01
       220  27  9.488292E+04  1.332250E+04 -4.108508E+01  3.582718E+04  1.490494E+02  5.698493E+01
       221   1  9.567216E+04  1.357551E+04  2.310279E+02  3.606054E+04 -1.836537E+02 -6.985403E+01
       221   2  9.562345E+04  1.351029E+04  4.170188E+02  3.604219E+04 -4.015901E+02 -1.512395E+02
       221   3  9.570390E+04  1.379524E+04  8.541363E+02  3.597096E+04 -6.195103E+02 -2.326798E+02
       221   4  9.569276E+04  1.358146E+04  2.363470E+02  3.606427E+04 -1.836390E+02 -6.984850E+01
       221   5  9.564411E+04  1.351867E+04  4.228243E+02  3.604840E+04 -4.015766E+02 -1.512344E+02
       221   6  9.572461E+04  1.380605E+04  8.604293E+02  3.597965E+04 -6.194980E+02 -2.326752E+02
       221   7  9.571336E+04  1.358741E+04  2.416661E+02  3.606800E+04 -1.836243E+02 -6.984296E+01
       221   8  9.566476E+04  1.352705E+04  4.286298E+02  3.605461E+04 -4.015631E+02 -1.512293E+02
       221   9  9.574532E+04  1.381685E+04  8.667222E+02  3.598835E+04 -6.194857E+02 -2.326706E+02
       221  10  9.567216E+04  1.357550E+04  2.310290E+02  3.606054E+04 -1.824351E-05 -9.030226E-06
       221  11  9.562345E+04  1.351029E+04  4.170186E+02  3.604219E+04 -3.418735E-07 -6.406409E-08
       221  12  9.570389E+04  1.379524E+04  8.541347E+02  3.597097E+04  1.745474E-05  8.988799E-06
       221  13  9.569276E+04  1.358146E+04  2.363470E+02  3.606427E+04 -4.756530E-05 -1.453637E-05
       221  14  9.564411E+04  1.351867E+04  4.228240E+02  3.604840E+04 -2.381243E-07  4.157313E-07
       221  15  9.572461E+04  1.380605E+04  8.604285E+02  3.597965E+04  4.708667E-05  1.536508E-05
       221  16  9.571335E+04  1.358741E+04  2.416648E+02  3.606801E+04 -1.712196E-05 -9.722291E-06
       221  17  9.566476E+04  1.352705E+04  4.286293E+02  3.605461E+04  5.547891E-07 -6.704506E-07
       221  18  9.574533E+04  1.381685E+04  8.667222E+02  3.598834E+04  1.833775E-05  8.287116E-06
       221  19  9.567217E+04  1.357550E+04  2.310303E+02  3.606053E+04  1.836537E+02  6.985401E+01
       221  20  9.562345E+04  1.351030E+04  4.170191E+02  3.604219E+04  4.015901E+02  1.512395E+02
       221  21  9.570388E+04  1.379525E+04  8.541346E+02  3.597098E+04  6.195103E+02  2.326798E+02
       221  22  9.569276E+04  1.358146E+04  2.363472E+02  3.606427E+04  1.836389E+02  6.984847E+01
       221  23  9.564411E+04  1.351867E+04  4.228245E+02  3.604840E+04  4.015766E+02  1.512344E+02
       221  24  9.572461E+04  1.380605E+04  8.604294E+02  3.597965E+04  6.194981E+02  2.326752E+02
       221  25  9.571334E+04  1.358741E+04  2.416637E+02  3.606802E+04  1.836243E+02  6.984294E+01
       221  26  9.566476E+04  1.352705E+04  4.286295E+02  3.605461E+04  4.015631E+02  1.512293E+02
       221  27  9.574534E+04  1.381685E+04  8.667239E+02  3.598833E+04  6.194857E+02  2.326706E+02
       222   1  9.495987E+04  1.326043E+04  8.665580E+02  3.590582E+04 -7.832418E+02 -2.941479E+02
       222   2  9.462580E+04  1.288832E+04  1.631107E+03  3.586490E+04 -1.757535E+03 -6.606332E+02
       222   3  9.518159E+04  1.467048E+04  3.699231E+03  3.533652E+04 -2.732055E+03 -1.026533E+03
       222   4  9.580297E+04  1.356778E+04  1.096612E+03  3.612387E+04 -7.832384E+02 -2.941466E+02
       222   5  9.545985E+04  1.320853E+04  1.861915E+03  3.609716E+04 -1.757520E+03 -6.606274E+02
       222   6  9.600659E+04  1.500353E+04  3.930783E+03  3.558298E+04 -2.732027E+03 -1.026523E+03
       222   7  9.664607E+04  1.387512E+04  1.326666E+03  3.634191E+04 -7.832351E+02 -2.941453E+02
       222   8  9.629390E+04  1.352873E+04  2.092724E+03  3.632941E+04 -1.757504E+03 -6.606216E+02
       222   9  9.683159E+04  1.533659E+04  4.162335E+03  3.582944E+04 -2.732000E+03 -1.026513E+03
       222  10  9.495986E+04  1.326043E+04  8.665554E+02  3.590584E+04  2.919535E-05  1.456687E-05
       222  11  9.462578E+04  1.288833E+04  1.631098E+03  3.586493E+04  5.168972E-05  2.447626E-05
       222  12  9.518155E+04  1.467049E+04  3.699212E+03  3.533655E+04  7.423096E-05  3.428422E-05
       222  13  9.580297E+04  1.356778E+04  1.096611E+03  3.612387E+04  7.770830E-05  2.555434E-05
       222  14  9.545985E+04  1.320853E+04  1.861909E+03  3.609715E+04  1.356174E-04  4.562235E-05
       222  15  9.600658E+04  1.500353E+04  3.930767E+03  3.558298E+04  1.935227E-04  6.568778E-05
       222  16  9.664608E+04  1.387512E+04  1.326666E+03  3.634190E+04  3.002686E-05  1.369499E-05
       222  17  9.629392E+04  1.352872E+04  2.092719E+03  3.632938E+04  5.247367E-05  2.350312E-05
       222  18  9.683161E+04  1.533657E+04  4.162322E+03  3.582940E+04  7.488134E-05  3.341577E-05
       222  19  9.495985E+04  1.326044E+04  8.665553E+02  3.590585E+04  7.832418E+02  2.941479E+02
       222  20  9.462576E+04  1.288834E+04  1.631103E+03  3.586495E+04  1.757535E+03  6.606332E+02
       222  21  9.518153E+04  1.467051E+04  3.699226E+03  3.533659E+04  2.732055E+03  1.026533E+03
       222  22  9.580297E+04  1.356778E+04  1.096612E+03  3.612387E+04  7.832385E+02  2.941467E+02
       222  23  9.545985E+04  1.320853E+04  1.861915E+03  3.609716E+04  1.757520E+03  6.606275E+02
       222  24  9.600659E+04  1.500353E+04  3.930783E+03  3.558298E+04  2.732028E+03  1.026523E+03
       222  25  9.664609E+04  1.387511E+04  1.326669E+03  3.634189E+04  7.832351E+02  2.941454E+02
       222  26  9.629394E+04  1.352871E+04  2.092728E+03  3.632936E+04  1.757504E+03  6.606217E+02
       222  27  9.683165E+04  1.533656E+04  4.162341E+03  3.582937E+04  2.732000E+03  1.026513E+03
       223   1  9.401353E+04  1.259409E+04  4.236984E+03  3.589109E+04 -3.472599E+03 -1.304658E+03
       223   2  9.194676E+04  1.031285E+04  7.379412E+03  3.575518E+04 -7.780531E+03 -2.925968E+03
       223   3  9.546042E+04  2.162963E+04  1.742973E+04  3.224783E+04 -1.208854E+04 -4.546982E+03
       223   4  9.646785E+04  1.344926E+04  4.898770E+03  3.648532E+04 -3.472585E+03 -1.304652E+03
       223   5  9.432944E+04  1.124791E+04  8.042831E+03  3.643948E+04 -7.780526E+03 -2.925967E+03
       223   6  9.777142E+04  2.264455E+04  1.809477E+04  3.302220E+04 -1.208855E+04 -4.546988E+03
       223   7  9.892219E+04  1.430443E+04  5.560556E+03  3.707956E+04 -3.472572E+03 -1.304646E+03
       223   8  9.671212E+04  1.218297E+04  8.706249E+03  3.712377E+04 -7.780522E+03 -2.925966E+03
       223   9  1.000824E+05  2.365947E+04  1.875981E+04  3.379656E+04 -1.208855E+04 -4.546993E+03
       223  10  9.401348E+04  1.259411E+04  4.236955E+03  3.589112E+04  8.894004E-05  4.045165E-05
       223  11  9.194665E+04  1.031285E+04  7.379279E+03  3.575521E+04  1.169208E-04  5.132889E-05
       223  12  9.546020E+04  2.162961E+04  1.742942E+04  3.224785E+04  1.452147E-04  6.141803E-05
       223  13  9.646784E+04  1.344926E+04  4.898744E+03  3.648532E+04  2.308010E-04  7.915786E-05
       223  14  9.432937E+04  1.124788E+04  8.042701E+03  3.643946E+04  3.010069E-04  1.053786E-04
       223  15  9.777126E+04  2.264449E+04  1.809446E+04  3.302215E+04  3.712237E-04  1.315955E-04
       223  16  9.892221E+04  1.430440E+04  5.560533E+03  3.707952E+04  8.954688E-05  3.922305E-05
       223  17  9.671209E+04  1.218291E+04  8.706122E+03  3.712371E+04  1.175665E-04  4.977210E-05
       223  18  1.000823E+05  2.365937E+04  1.875950E+04  3.379646E+04  1.452749E-04  6.109130E-05
       223  19  9.401346E+04  1.259413E+04  4.236978E+03  3.589116E+04  3.472599E+03  1.304658E+03
       223  20  9.194668E+04  1.031291E+04  7.379406E+03  3.575528E+04  7.780531E+03  2.925968E+03
       223  21  9.546031E+04  2.162971E+04  1.742973E+04  3.224795E+04  1.208854E+04  4.546983E+03
       223  22  9.646785E+04  1.344926E+04  4.898770E+03  3.648532E+04  3.472586E+03  1.304652E+03
       223  23  9.432944E+04  1.124791E+04  8.042831E+03  3.643948E+04  7.780527E+03  2.925967E+03
       223  24  9.777142E+04  2.264455E+04  1.809477E+04  3.302220E+04  1.208855E+04  4.546988E+03
       223  25  9.892226E+04  1.430439E+04  5.560561E+03  3.707948E+04  3.472572E+03  1.304646E+03
       223  26  9.671220E+04  1.218291E+04  8.706255E+03  3.712368E+04  7.780523E+03  2.925966E+03
       223  27  1.000825E+05  2.365939E+04  1.875982E+04  3.379644E+04  1.208855E+04  4.546993E+03
       224   1  9.407091E+04  1.062077E+04  2.022108E+04  3.740081E+04 -1.545619E+04 -5.810740E+03
       224   2  8.135907E+04 -3.648564E+03  3.263318E+04  3.688273E+04 -3.448690E+04 -1.296911E+04
       224   3  1.033511E+05  6.824665E+04  8.279098E+04  1.417311E+04 -5.351509E+04 -2.013493E+04
       224   4  1.005363E+05  1.260418E+04  2.191053E+04  3.869016E+04 -1.545608E+04 -5.810682E+03
       224   5  8.733647E+04 -1.155783E+03  3.432686E+04  3.875011E+04 -3.448713E+04 -1.296921E+04
       224   6  1.088403E+05  7.124837E+04  8.448887E+04  1.661866E+04 -5.351564E+04 -2.013524E+04
       224   7  1.070017E+05  1.458760E+04  2.359997E+04  3.997951E+04 -1.545596E+04 -5.810625E+03
       224   8  9.331391E+04  1.337002E+03  3.602053E+04  4.061751E+04 -3.448735E+04 -1.296931E+04
       224   9  1.143295E+05  7.425010E+04  8.618676E+04  1.906422E+04 -5.351618E+04 -2.013554E+04
       224  10  9.407059E+04  1.062070E+04  2.022057E+04  3.740080E+04  1.366844E-04  5.638810E-05
       224  11  8.135772E+04 -3.649042E+03  3.263063E+04  3.688240E+04  7.773779E-05  3.057289E-05
       224  12  1.033479E+05  6.824545E+04  8.278484E+04  1.417225E+04  1.776995E-05  6.649591E-06
       224  13  1.005360E+05  1.260408E+04  2.191001E+04  3.869009E+04  3.475180E-04  1.235216E-04
       224  14  8.733515E+04 -1.156283E+03  3.432431E+04  3.874975E+04  1.958372E-04  6.959875E-05
       224  15  1.088371E+05  7.124716E+04  8.448273E+04  1.661779E+04  4.414513E-05  1.568646E-05
       224  16  1.070015E+05  1.458747E+04  2.359946E+04  3.997939E+04  1.355357E-04  5.782539E-05
       224  17  9.331261E+04  1.336482E+03  3.601798E+04  4.061712E+04  7.566689E-05  3.376486E-05
       224  18  1.143263E+05  7.424889E+04  8.618062E+04  1.906335E+04  1.681242E-05  7.845762E-06
       224  19  9.407081E+04  1.062084E+04  2.022107E+04  3.740092E+04  1.545619E+04  5.810740E+03
       224  20  8.135901E+04 -3.648521E+03  3.263318E+04  3.688279E+04  3.448690E+04  1.296911E+04
       224  21  1.033511E+05  6.824666E+04  8.279098E+04  1.417313E+04  5.351509E+04  2.013493E+04
       224  22  1.005363E+05  1.260418E+04  2.191053E+04  3.869016E+04  1.545608E+04  5.810683E+03
       224  23  8.733647E+04 -1.155783E+03  3.432686E+04  3.875011E+04  3.448713E+04  1.296921E+04
       224  24  1.088403E+05  7.124837E+04  8.448887E+04  1.661866E+04  5.351564E+04  2.013524E+04
       224  25  1.070018E+05  1.458753E+04  2.359998E+04  3.997940E+04  1.545596E+04  5.810625E+03
       224  26  9.331396E+04  1.336961E+03  3.602053E+04  4.061745E+04  3.448735E+04  1.296931E+04
       224  27  1.143295E+05  7.425009E+04  8.618676E+04  1.906421E+04  5.351618E+04  2.013554E+04
       225   1  5.228647E+04  2.100956E+04  2.986437E+03 -8.485500E+03 -5.052957E+04 -4.079921E+03
       225   2  3.190232E+04  8.791348E+04  3.923925E+04 -1.688616E+02 -3.569228E+04 -1.223352E+04
       225   3 -9.816664E+03  7.714750E+04  4.642865E+04  2.660407E+04 -2.086848E+04 -1.167936E+04
       225   4 -3.068582E+05 -6.837714E+04 -8.516572E+04  1.649581E+04 -5.832394E+04 -4.093094E+03
       225   5 -2.957056E+05  7.019820E+03 -3.772135E+04  7.213788E+03 -3.806327E+04 -1.223810E+04
       225   6 -3.068434E+05  3.781648E+03 -2.311960E+04  1.638913E+04 -1.781512E+04 -1.167415E+04
       225   7 -6.658840E+05 -1.577710E+05 -1.733268E+05  4.146261E+04 -6.611381E+04 -4.106899E+03
       225   8 -6.232146E+05 -7.388127E+04 -1.146892E+05  1.459248E+04 -4.043301E+04 -1.224274E+04
       225   9 -6.037885E+05 -6.959009E+04 -9.267378E+04  6.179079E+03 -1.476322E+04 -1.166903E+04
       225  10  5.228373E+04  2.100886E+04  2.981608E+03 -8.485667E+03  2.947153E-10  1.289440E-09
       225  11  3.190091E+04  8.791298E+04  3.923657E+04 -1.692132E+02 -2.015085E-10  4.831606E-09
       225  12 -9.817168E+03  7.714723E+04  4.642757E+04  2.660388E+04  2.132557E-09  1.921748E-09
       225  13 -3.068619E+05 -6.837807E+04 -8.517215E+04  1.649562E+04 -1.946745E-09 -1.460313E-09
       225  14 -2.957072E+05  7.019271E+03 -3.772435E+04  7.213413E+03 -9.668174E-10 -2.402995E-09
       225  15 -3.068437E+05  3.781417E+03 -2.312045E+04  1.638897E+04  1.177863E-09  1.834060E-09
       225  16 -6.658887E+05 -1.577722E+05 -1.733350E+05  4.146239E+04  3.106920E-09  2.681455E-10
       225  17 -6.232164E+05 -7.388187E+04 -1.146926E+05  1.459208E+04  1.193327E-09  4.871415E-09
       225  18 -6.037888E+05 -6.959029E+04 -9.267445E+04  6.178940E+03 -2.257822E-09  1.158100E-09
       225  19  5.228647E+04  2.100956E+04  2.986437E+03 -8.485500E+03  5.052957E+04  4.079921E+03
       225  20  3.190232E+04  8.791348E+04  3.923925E+04 -1.688616E+02  3.569228E+04  1.223352E+04
       225  21 -9.816664E+03  7.714750E+04  4.642865E+04  2.660407E+04  2.086848E+04  1.167936E+04
       225  22 -3.068582E+05 -6.837714E+04 -8.516572E+04  1.649581E+04  5.832394E+04  4.093094E+03
       225  23 -2.957056E+05  7.019820E+03 -3.772135E+04  7.213788E+03  3.806327E+04  1.223810E+04
       225  24 -3.068434E+05  3.781648E+03 -2.311960E+04  1.638913E+04  1.781512E+04  1.167415E+04
       225  25 -6.658840E+05 -1.577710E+05 -1.733268E+05  4.146261E+04  6.611381E+04  4.106899E+03
       225  26 -6.232146E+05 -7.388127E+04 -1.146892E+05  1.459248E+04  4.043301E+04  1.224274E+04
       225  27 -6.037885E+05 -6.959009E+04 -9.267378E+04  6.179079E+03  1.476322E+04  1.166903E+04
       226   1 -3.906539E+04  5.911407E+04  4.318106E+04  1.494457E+04 -1.471311E+04 -9.722246E+03
       226   2 -6.905628E+04  5.801596E+04  4.471976E+04  6.945206E+03 -1.007325E+04 -8.850605E+03
       226   3 -1.014143E+05  5.005626E+04  4.151236E+04  1.775543E+04 -5.435126E+03 -7.473320E+03
       226   4 -3.024261E+05 -5.942345E+03 -1.873093E+04  1.650783E+04 -1.432816E+04 -9.721876E+03
       226   5 -3.012116E+05  6.848903E+02 -9.742636E+03  7.096881E+03 -9.374722E+03 -8.849503E+03
       226   6 -3.024211E+05  3.944464E+02 -5.719883E+03  1.649606E+04 -4.422799E+03 -7.471421E+03
       226   7 -5.657230E+05 -7.100370E+04 -8.064767E+04  1.807038E+04 -1.394337E+04 -9.721503E+03
       226   8 -5.333172E+05 -5.665001E+04 -6.420871E+04  7.248476E+03 -8.676455E+03 -8.848401E+03
       226   9 -5.033908E+05 -4.927024E+04 -5.295489E+04  1.523708E+04 -3.410798E+03 -7.469525E+03
       226  10 -3.906565E+04  5.911391E+04  4.318047E+04  1.494446E+04 -2.478512E-09 -1.219439E-09
       226  11 -6.905641E+04  5.801585E+04  4.471942E+04  6.945134E+03 -1.024850E-09  3.424924E-09
       226  12 -1.014143E+05  5.005619E+04  4.151220E+04  1.775540E+04  3.964143E-10  5.572196E-09
       226  13 -3.024264E+05 -5.942502E+03 -1.873149E+04  1.650771E+04  1.938167E-09  7.261710E-09
       226  14 -3.012117E+05  6.847826E+02 -9.742948E+03  7.096814E+03  1.458356E-10 -1.155620E-08
       226  15 -3.024212E+05  3.943812E+02 -5.720025E+03  1.649603E+04 -2.667894E-09  6.558173E-09
       226  16 -5.657232E+05 -7.100385E+04 -8.064822E+04  1.807027E+04  2.707158E-09 -3.572554E-09
       226  17 -5.333173E+05 -5.665012E+04 -6.420900E+04  7.248414E+03 -2.244067E-10 -3.881252E-09
       226  18 -5.033908E+05 -4.927030E+04 -5.295502E+04  1.523706E+04 -2.941658E-09  5.792897E-10
       226  19 -3.906539E+04  5.911407E+04  4.318106E+04  1.494457E+04  1.471311E+04  9.722246E+03
       226  20 -6.905628E+04  5.801596E+04  4.471976E+04  6.945206E+03  1.007325E+04  8.850605E+03
       226  21 -1.014143E+05  5.005626E+04  4.151236E+04  1.775543E+04  5.435126E+03  7.473320E+03
       226  22 -3.024261E+05 -5.942345E+03 -1.873093E+04  1.650783E+04  1.432816E+04  9.721876E+03
       226  23 -3.012116E+05  6.848903E+02 -9.742636E+03  7.096881E+03  9.374722E+03  8.849503E+03
       226  24 -3.024211E+05  3.944464E+02 -5.719883E+03  1.649606E+04  4.422799E+03  7.471421E+03
       226  25 -5.657230E+05 -7.100370E+04 -8.064767E+04  1.807038E+04  1.394337E+04  9.721503E+03
       226  26 -5.333172E+05 -5.665001E+04 -6.420871E+04  7.248476E+03  8.676455E+03  8.848401E+03
       226  27 -5.033908E+05 -4.927024E+04 -5.295489E+04  1.523708E+04  3.410798E+03  7.469525E+03
       227   1 -1.347867E+05  4.082521E+04  3.469240E+04  1.669925E+04 -4.389502E+03 -6.578831E+03
       227   2 -1.659276E+05  3.364785E+04  2.940184E+04  7.288845E+03 -3.181453E+03 -5.184045E+03
       227   3 -1.974463E+05  2.593476E+04  2.317156E+04  1.680225E+04 -1.973854E+03 -3.758239E+03
       227   4 -3.019642E+05 -4.454316E+02 -4.443009E+03  1.652571E+04 -3.529948E+03 -6.577163E+03
       227   5 -3.017722E+05  9.810071E+01 -2.464862E+03  7.063095E+03 -2.302864E+03 -5.182241E+03
       227   6 -3.019619E+05  1.026748E+02 -1.439698E+03  1.652455E+04 -1.076168E+03 -3.756294E+03
       227   7 -4.691159E+05 -4.171806E+04 -4.358032E+04  1.635220E+04 -2.670624E+03 -6.575495E+03
       227   8 -4.375998E+05 -3.345296E+04 -3.433282E+04  6.837385E+03 -1.424466E+03 -5.180438E+03
       227   9 -4.064674E+05 -2.573019E+04 -2.605170E+04  1.624689E+04 -1.786335E+02 -3.754349E+03
       227  10 -1.347867E+05  4.082516E+04  3.469228E+04  1.669922E+04  3.433261E-09 -1.250178E-09
       227  11 -1.659276E+05  3.364782E+04  2.940177E+04  7.288832E+03 -4.139949E-10  5.978211E-10
       227  12 -1.974463E+05  2.593474E+04  2.317152E+04  1.680224E+04 -1.751802E-09  5.226803E-10
       227  13 -3.019642E+05 -4.454814E+02 -4.443114E+03  1.652569E+04  2.150131E-09 -3.225522E-10
       227  14 -3.017722E+05  9.807045E+01 -2.464923E+03  7.063086E+03  6.229246E-10 -2.865980E-09
       227  15 -3.019619E+05  1.026594E+02 -1.439727E+03  1.652454E+04 -2.022798E-09  4.479810E-10
       227  16 -4.691159E+05 -4.171811E+04 -4.358042E+04  1.635218E+04 -2.915017E-09 -4.516512E-09
       227  17 -4.375998E+05 -3.345299E+04 -3.433287E+04  6.837380E+03  9.191572E-10  4.058133E-09
       227  18 -4.064674E+05 -2.573020E+04 -2.605173E+04  1.624689E+04  4.788597E-09  1.023157E-08
       227  19 -1.347867E+05  4.082521E+04  3.469240E+04  1.669925E+04  4.389502E+03  6.578831E+03
       227  20 -1.659276E+05  3.364785E+04  2.940184E+04  7.288845E+03  3.181453E+03  5.184045E+03
       227  21 -1.974463E+05  2.593476E+04  2.317156E+04  1.680225E+04  1.973854E+03  3.758239E+03
       227  22 -3.019642E+05 -4.454316E+02 -4.443009E+03  1.652571E+04  3.529948E+03  6.577163E+03
       227  23 -3.017722E+05  9.810071E+01 -2.464862E+03  7.063095E+03  2.302864E+03  5.182241E+03
       227  24 -3.019619E+05  1.026748E+02 -1.439698E+03  1.652455E+04  1.076168E+03  3.756294E+03
       227  25 -4.691159E+05 -4.171806E+04 -4.358032E+04  1.635220E+04  2.670624E+03  6.575495E+03
       227  26 -4.375998E+05 -3.345296E+04 -3.433282E+04  6.837385E+03  1.424466E+03  5.180438E+03
       227  27 -4.064674E+05 -2.573019E+04 -2.605170E+04  1.624689E+04  1.786335E+02  3.754349E+03
       228   1 -2.313501E+05  1.744162E+04  1.534524E+04  1.666581E+04 -1.738363E+03 -2.922986E+03
       228   2 -2.626880E+05  9.711556E+03  8.518093E+03  7.127686E+03 -1.412825E+03 -1.495488E+03
       228   3 -2.941656E+05  2.008693E+03  1.462660E+03  1.656081E+04 -1.087408E+03 -6.584584E+01
       228   4 -3.019068E+05  3.403537E+01 -1.113340E+03  1.653547E+04 -8.489398E+02 -2.921017E+03
       228   5 -3.018361E+05  4.247747E+01 -6.657905E+02  7.049758E+03 -5.221197E+02 -1.493490E+03
       228   6 -3.019062E+05  7.795375E+01 -4.474000E+02  1.653537E+04 -1.954041E+02 -6.381465E+01
       228   7 -3.724589E+05 -1.737390E+04 -1.757225E+04  1.640513E+04  4.038296E+01 -2.919049E+03
       228   8 -3.409827E+05 -9.626710E+03 -9.849776E+03  6.971834E+03  3.685299E+02 -1.491492E+03
       228   9 -3.096467E+05 -1.852789E+03 -2.357462E+03  1.650993E+04  6.965888E+02 -6.178351E+01
       228  10 -2.313501E+05  1.744161E+04  1.534522E+04  1.666581E+04  2.049263E-10 -2.852605E-09
       228  11 -2.626880E+05  9.711553E+03  8.518085E+03  7.127685E+03  6.715203E-10  4.660941E-09
       228  12 -2.941656E+05  2.008692E+03  1.462658E+03  1.656081E+04 -6.214333E-10  1.807898E-09
       228  13 -3.019068E+05  3.402602E+01 -1.113357E+03  1.653546E+04 -2.156758E-09  3.059113E-09
       228  14 -3.018361E+05  4.247500E+01 -6.657952E+02  7.049757E+03 -3.865741E-10 -6.665133E-09
       228  15 -3.019062E+05  7.795373E+01 -4.474001E+02  1.653537E+04  1.411706E-10 -6.144215E-09
       228  16 -3.724589E+05 -1.737391E+04 -1.757227E+04  1.640513E+04 -1.324729E-09  6.553719E-09
       228  17 -3.409827E+05 -9.626712E+03 -9.849781E+03  6.971834E+03  8.514319E-11  8.511426E-09
       228  18 -3.096467E+05 -1.852789E+03 -2.357463E+03  1.650993E+04 -3.425017E-09  3.561687E-09
       228  19 -2.313501E+05  1.744162E+04  1.534524E+04  1.666581E+04  1.738363E+03  2.922986E+03
       228  20 -2.626880E+05  9.711556E+03  8.518093E+03  7.127686E+03  1.412825E+03  1.495488E+03
       228  21 -2.941656E+05  2.008693E+03  1.462660E+03  1.656081E+04  1.087408E+03  6.584584E+01
       228  22 -3.019068E+05  3.403537E+01 -1.113340E+03  1.653547E+04  8.489398E+02  2.921017E+03
       228  23 -3.018361E+05  4.247747E+01 -6.657905E+02  7.049758E+03  5.221197E+02  1.493490E+03
       228  24 -3.019062E+05  7.795375E+01 -4.474000E+02  1.653537E+04  1.954041E+02  6.381465E+01
       228  25 -3.724589E+05 -1.737390E+04 -1.757225E+04  1.640513E+04 -4.038296E+01  2.919049E+03
       228  26 -3.409827E+05 -9.626710E+03 -9.849776E+03  6.971834E+03 -3.685299E+02  1.491492E+03
       228  27 -3.096467E+05 -1.852789E+03 -2.357462E+03  1.650993E+04 -6.965888E+02  6.178351E+01
       229   1 -3.281537E+05 -6.428149E+03 -6.646546E+03  1.649031E+04 -1.013355E+03  7.667570E+02
       229   2 -3.594952E+05 -1.420260E+04 -1.389767E+04  6.953975E+03 -8.305965E+02  2.195899E+03
       229   3 -3.909476E+05 -2.191886E+04 -2.127596E+04  1.638444E+04 -6.476970E+02  3.622513E+03
       229   4 -3.018999E+05  7.524296E+01 -3.931976E+02  1.653436E+04 -1.214142E+02  7.687836E+02
       229   5 -3.018443E+05  3.716177E+01 -3.723965E+02  7.051035E+03  5.975230E+01  2.197879E+03
       229   6 -3.019008E+05  5.749135E+01 -4.777200E+02  1.653440E+04  2.410687E+02  3.624449E+03
       229   7 -2.756455E+05  6.578585E+03  5.860105E+03  1.657841E+04  7.705646E+02  7.708103E+02
       229   8 -2.441905E+05  1.427668E+04  1.315265E+04  7.148102E+03  9.501833E+02  2.199858E+03
       229   9 -2.128467E+05  2.203328E+04  2.031998E+04  1.668437E+04  1.129961E+03  3.626386E+03
       229  10 -3.281537E+05 -6.428149E+03 -6.646549E+03  1.649031E+04 -2.009689E-09  4.435822E-10
       229  11 -3.594952E+05 -1.420260E+04 -1.389768E+04  6.953977E+03 -2.023964E-10 -1.167981E-09
       229  12 -3.909476E+05 -2.191887E+04 -2.127598E+04  1.638444E+04 -3.205721E-09 -1.600103E-09
       229  13 -3.018999E+05  7.524233E+01 -3.931987E+02  1.653436E+04 -2.372702E-09  2.838230E-09
       229  14 -3.018443E+05  3.715658E+01 -3.724056E+02  7.051035E+03 -5.917854E-10 -6.192089E-09
       229  15 -3.019008E+05  5.747723E+01 -4.777448E+02  1.653440E+04 -7.554329E-10 -5.690651E-09
       229  16 -2.756455E+05  6.578584E+03  5.860103E+03  1.657841E+04  6.290169E-10  2.868178E-09
       229  17 -2.441905E+05  1.427668E+04  1.315264E+04  7.148100E+03  8.490941E-10 -1.115200E-08
       229  18 -2.128468E+05  2.203326E+04  2.031995E+04  1.668437E+04  1.050958E-09 -7.751366E-09
       229  19 -3.281537E+05 -6.428149E+03 -6.646546E+03  1.649031E+04  1.013355E+03 -7.667570E+02
       229  20 -3.594952E+05 -1.420260E+04 -1.389767E+04  6.953975E+03  8.305965E+02 -2.195899E+03
       229  21 -3.909476E+05 -2.191886E+04 -2.127596E+04  1.638444E+04  6.476970E+02 -3.622513E+03
       229  22 -3.018999E+05  7.524296E+01 -3.931976E+02  1.653436E+04  1.214142E+02 -7.687836E+02
       229  23 -3.018443E+05  3.716177E+01 -3.723965E+02  7.051035E+03 -5.975230E+01 -2.197879E+03
       229  24 -3.019008E+05  5.749135E+01 -4.777200E+02  1.653440E+04 -2.410687E+02 -3.624449E+03
       229  25 -2.756455E+05  6.578585E+03  5.860105E+03  1.657841E+04 -7.705646E+02 -7.708103E+02
       229  26 -2.441905E+05  1.427668E+04  1.315265E+04  7.148102E+03 -9.501833E+02 -2.199858E+03
       229  27 -2.128467E+05  2.203328E+04  2.031998E+04  1.668437E+04 -1.129961E+03 -3.626386E+03
       230   1 -4.248986E+05 -3.031356E+04 -2.952324E+04  1.628196E+04 -5.634105E+02  4.457268E+03
       230   2 -4.561076E+05 -3.805706E+04 -3.712067E+04  6.823368E+03 -8.569242E+01  5.880614E+03
       230   3 -4.874968E+05 -4.594896E+04 -4.508462E+04  1.627008E+04  3.924663E+02  7.271298E+03
       230   4 -3.019171E+05  8.291958E+01 -5.763636E+02  1.652054E+04  3.338570E+02  4.459171E+03
       230   5 -3.018298E+05  5.179163E+01 -9.235758E+02  7.068248E+03  7.912937E+02  5.882362E+03
       230   6 -3.019195E+05 -1.239929E+02 -1.622974E+03  1.652096E+04  1.249195E+03  7.272896E+03
       230   7 -1.789218E+05  3.047832E+04  2.836948E+04  1.675916E+04  1.231301E+03  4.461076E+03
       230   8 -1.475300E+05  3.815895E+04  3.527189E+04  7.313177E+03  1.668496E+03  5.884110E+03
       230   9 -1.163105E+05  4.569853E+04  4.183633E+04  1.677191E+04  2.106177E+03  7.274495E+03
       230  10 -4.248986E+05 -3.031358E+04 -2.952328E+04  1.628196E+04 -3.479709E-09 -1.808441E-09
       230  11 -4.561076E+05 -3.805710E+04 -3.712074E+04  6.823368E+03  2.906316E-10 -5.981654E-09
       230  12 -4.874969E+05 -4.594902E+04 -4.508472E+04  1.627007E+04  2.544192E-09 -4.856377E-10
       230  13 -3.019171E+05  8.289820E+01 -5.764012E+02  1.652054E+04  1.537828E-11 -1.285821E-09
       230  14 -3.018298E+05  5.175431E+01 -9.236420E+02  7.068244E+03  5.140691E-10  3.425143E-09
       230  15 -3.019196E+05 -1.240501E+02 -1.623077E+03  1.652096E+04  1.051844E-09  4.969191E-09
       230  16 -1.789218E+05  3.047830E+04  2.836944E+04  1.675915E+04  3.649827E-09  4.324807E-09
       230  17 -1.475300E+05  3.815891E+04  3.527182E+04  7.313169E+03  2.211764E-09 -3.268710E-09
       230  18 -1.163105E+05  4.569847E+04  4.183622E+04  1.677190E+04 -5.250745E-09  5.704261E-09
       230  19 -4.248986E+05 -3.031356E+04 -2.952324E+04  1.628196E+04  5.634105E+02 -4.457268E+03
       230  20 -4.561076E+05 -3.805706E+04 -3.712067E+04  6.823368E+03  8.569242E+01 -5.880614E+03
       230  21 -4.874968E+05 -4.594896E+04 -4.508462E+04  1.627008E+04 -3.924663E+02 -7.271298E+03
       230  22 -3.019171E+05  8.291958E+01 -5.763636E+02  1.652054E+04 -3.338570E+02 -4.459171E+03
       230  23 -3.018298E+05  5.179163E+01 -9.235758E+02  7.068248E+03 -7.912937E+02 -5.882362E+03
       230  24 -3.019195E+05 -1.239929E+02 -1.622974E+03  1.652096E+04 -1.249195E+03 -7.272896E+03
       230  25 -1.789218E+05  3.047832E+04  2.836948E+04  1.675916E+04 -1.231301E+03 -4.461076E+03
       230  26 -1.475300E+05  3.815895E+04  3.527189E+04  7.313177E+03 -1.668496E+03 -5.884110E+03
       230  27 -1.163105E+05  4.569853E+04  4.183633E+04  1.677191E+04 -2.106177E+03 -7.274495E+03
       231   1 -5.214403E+05 -5.402441E+04 -5.362707E+04  1.582120E+04  5.566402E+02  8.166469E+03
       231   2 -5.520876E+05 -6.161287E+04 -6.229961E+04  6.931334E+03  2.677715E+03  9.535227E+03
       231   3 -5.836778E+05 -7.170990E+04 -7.299037E+04  1.682326E+04  4.800201E+03  1.037430E+04
       231   4 -3.020806E+05  1.803146E+02 -2.078035E+03  1.649196E+04  1.573133E+03  8.168287E+03
       231   5 -3.016397E+05  2.552730E+02 -3.528675E+03  7.103351E+03  3.364558E+03  9.536237E+03
       231   6 -3.020849E+05 -2.120393E+03 -6.767872E+03  1.649609E+04  5.157500E+03  1.037460E+04
       231   7 -8.267653E+04  5.438161E+04  4.946771E+04  1.716294E+04  2.589982E+03  8.170107E+03
       231   8 -5.113395E+04  6.211895E+04  5.523797E+04  7.275410E+03  4.051677E+03  9.537246E+03
       231   9 -2.041898E+04  6.746345E+04  5.944918E+04  1.616874E+04  5.514959E+03  1.037489E+04
       231  10 -5.214404E+05 -5.402449E+04 -5.362720E+04  1.582120E+04  1.082464E-08  2.004054E-09
       231  11 -5.520876E+05 -6.161297E+04 -6.229980E+04  6.931313E+03  3.857466E-11  7.199137E-09
       231  12 -5.836778E+05 -7.171002E+04 -7.299062E+04  1.682322E+04 -6.007859E-09 -2.590388E-09
       231  13 -3.020806E+05  1.802423E+02 -2.078165E+03  1.649195E+04  2.172616E-10 -1.965166E-09
       231  14 -3.016397E+05  2.551723E+02 -3.528867E+03  7.103325E+03  2.695639E-10  4.662006E-09
       231  15 -3.020850E+05 -2.120515E+03 -6.768124E+03  1.649604E+04  1.351653E-09 -2.355009E-09
       231  16 -8.267655E+04  5.438154E+04  4.946757E+04  1.716292E+04 -9.969460E-09  4.631107E-12
       231  17 -5.113399E+04  6.211885E+04  5.523777E+04  7.275379E+03  6.087114E-10 -8.700739E-09
       231  18 -2.041904E+04  6.746333E+04  5.944892E+04  1.616869E+04  8.660672E-09  5.591596E-10
       231  19 -5.214403E+05 -5.402441E+04 -5.362707E+04  1.582120E+04 -5.566402E+02 -8.166469E+03
       231  20 -5.520876E+05 -6.161287E+04 -6.229961E+04  6.931334E+03 -2.677715E+03 -9.535227E+03
       231  21 -5.836778E+05 -7.170990E+04 -7.299037E+04  1.682326E+04 -4.800201E+03 -1.037430E+04
       231  22 -3.020806E+05  1.803146E+02 -2.078035E+03  1.649196E+04 -1.573133E+03 -8.168287E+03
       231  23 -3.016397E+05  2.552730E+02 -3.528675E+03  7.103351E+03 -3.364558E+03 -9.536237E+03
       231  24 -3.020849E+05 -2.120393E+03 -6.767872E+03  1.649609E+04 -5.157500E+03 -1.037460E+04
       231  25 -8.267653E+04  5.438161E+04  4.946771E+04  1.716294E+04 -2.589982E+03 -8.170107E+03
       231  26 -5.113395E+04  6.211895E+04  5.523797E+04  7.275410E+03 -4.051677E+03 -9.537246E+03
       231  27 -2.041898E+04  6.746345E+04  5.944918E+04  1.616874E+04 -5.514959E+03 -1.037489E+04
       232   1 -6.188890E+05 -7.646614E+04 -8.217494E+04  1.245048E+04  3.262853E+03  1.237132E+04
       232   2 -6.453367E+05 -8.287957E+04 -9.486866E+04  9.645319E+03  1.626357E+04  1.288055E+04
       232   3 -6.807927E+05 -1.186260E+05 -1.233615E+05  2.520169E+04  2.927554E+04  4.263950E+03
       232   4 -3.036738E+05  1.389954E+03 -8.349727E+03  1.638894E+04  6.414557E+03  1.237612E+04
       232   5 -2.996699E+05  2.529724E+03 -1.362947E+04  7.226402E+03  1.372912E+04  1.287624E+04
       232   6 -3.036828E+05 -2.466712E+04 -3.075246E+04  1.642526E+04  2.105578E+04  4.252533E+03
       232   7  1.163299E+04  7.923904E+04  6.546875E+04  2.032939E+04  9.567851E+03  1.238096E+04
       232   8  4.610704E+04  8.793053E+04  6.760156E+04  4.806088E+03  1.119328E+04  1.287196E+04
       232   9  7.355704E+04  6.928153E+04  6.184644E+04  7.643429E+03  1.283103E+04  4.241352E+03
       232  10 -6.188891E+05 -7.646631E+04 -8.217525E+04  1.245044E+04 -2.870611E-10 -4.793401E-09
       232  11 -6.453370E+05 -8.287982E+04 -9.486947E+04  9.645150E+03  2.884147E-09  4.282700E-10
       232  12 -6.807936E+05 -1.186262E+05 -1.233632E+05  2.520159E+04  5.428563E-10  3.021596E-09
       232  13 -3.036739E+05  1.389778E+03 -8.350092E+03  1.638888E+04 -9.370728E-12 -4.909780E-10
       232  14 -2.996701E+05  2.529495E+03 -1.363013E+04  7.226259E+03 -3.916821E-10 -1.163550E-09
       232  15 -3.036833E+05 -2.466726E+04 -3.075333E+04  1.642518E+04  4.066289E-10 -4.531032E-10
       232  16  1.163285E+04  7.923885E+04  6.546829E+04  2.032929E+04 -5.673142E-10  3.287186E-09
       232  17  4.610686E+04  8.793032E+04  6.760101E+04  4.805972E+03 -2.222391E-09  4.186196E-09
       232  18  7.355686E+04  6.928146E+04  6.184610E+04  7.643385E+03 -1.318769E-09 -1.799148E-09
       232  19 -6.188890E+05 -7.646614E+04 -8.217494E+04  1.245048E+04 -3.262853E+03 -1.237132E+04
       232  20 -6.453367E+05 -8.287957E+04 -9.486866E+04  9.645319E+03 -1.626357E+04 -1.288055E+04
       232  21 -6.807927E+05 -1.186260E+05 -1.233615E+05  2.520169E+04 -2.927554E+04 -4.263950E+03
       232  22 -3.036738E+05  1.389954E+03 -8.349727E+03  1.638894E+04 -6.414557E+03 -1.237612E+04
       232  23 -2.996699E+05  2.529724E+03 -1.362947E+04  7.226402E+03 -1.372912E+04 -1.287624E+04
       232  24 -3.036828E+05 -2.466712E+04 -3.075246E+04  1.642526E+04 -2.105578E+04 -4.252533E+03
       232  25  1.163299E+04  7.923904E+04  6.546875E+04  2.032939E+04 -9.567851E+03 -1.238096E+04
       232  26  4.610704E+04  8.793053E+04  6.760156E+04  4.806088E+03 -1.119328E+04 -1.287196E+04
       232  27  7.355704E+04  6.928153E+04  6.184644E+04  7.643429E+03 -1.283103E+04 -4.241352E+03
       233   1 -2.334485E+05 -8.711070E+05 -2.286390E+05  1.986345E+05 -9.483014E+03 -6.907770E+04
       233   2 -1.572008E+05 -6.719934E+05 -1.428421E+05  1.653737E+05 -2.863405E+04 -2.910385E+04
       233   3 -1.048735E+05 -4.838498E+05 -8.905690E+04  1.788405E+05 -2.654259E+04  1.091145E+04
       233   4 -2.891058E+04 -4.595918E+04 -3.178100E+04  1.809083E+05 -9.525292E+03 -2.346854E+04
       233   5 -5.661987E+03 -4.325224E+04 -1.424433E+04  1.575576E+05 -2.864290E+04 -1.607500E+04
       233   6 -6.577086E+02 -4.588033E+04 -6.065161E+03  1.809350E+05 -2.652656E+04 -8.653783E+03
       233   7  1.755804E+05  7.798187E+05  1.650372E+05  1.631585E+05 -9.570155E+03  2.220104E+04
       233   8  1.458524E+05  5.858653E+05  1.143332E+05  1.497334E+05 -2.865208E+04 -3.033180E+03
       233   9  1.035471E+05  3.922752E+05  7.691949E+04  1.830311E+05 -2.651067E+04 -2.823250E+04
       233  10 -2.334499E+05 -8.711121E+05 -2.286482E+05  1.986340E+05  1.379764E-10  3.375026E-10
       233  11 -1.572019E+05 -6.719945E+05 -1.428453E+05  1.653731E+05 -3.448931E-09 -2.137213E-09
       233  12 -1.048743E+05 -4.838502E+05 -8.905845E+04  1.788407E+05 -2.383355E-09 -2.632595E-09
       233  13 -2.891082E+04 -4.595980E+04 -3.178220E+04  1.809082E+05  6.820524E-10  6.671580E-12
       233  14 -5.662937E+03 -4.325273E+04 -1.424636E+04  1.575572E+05 -2.974973E-09 -7.153835E-10
       233  15 -6.584842E+02 -4.588060E+04 -6.066624E+03  1.809349E+05 -2.010167E-09  6.513968E-10
       233  16  1.755801E+05  7.798182E+05  1.650361E+05  1.631587E+05  6.827800E-10 -1.455824E-09
       233  17  1.458515E+05  5.858651E+05  1.143316E+05  1.497333E+05 -1.450000E-10  4.542427E-10
       233  18  1.035462E+05  3.922742E+05  7.691667E+04  1.830305E+05  4.723185E-10  2.250275E-09
       233  19 -2.334485E+05 -8.711070E+05 -2.286390E+05  1.986345E+05  9.483014E+03  6.907770E+04
       233  20 -1.572008E+05 -6.719934E+05 -1.428421E+05  1.653737E+05  2.863405E+04  2.910385E+04
       233  21 -1.048735E+05 -4.838498E+05 -8.905690E+04  1.788405E+05  2.654259E+04 -1.091145E+04
       233  22 -2.891058E+04 -4.595918E+04 -3.178100E+04  1.809083E+05  9.525292E+03  2.346854E+04
       233  23 -5.661987E+03 -4.325224E+04 -1.424433E+04  1.575576E+05  2.864290E+04  1.607500E+04
       233  24 -6.577086E+02 -4.588033E+04 -6.065161E+03  1.809350E+05  2.652656E+04  8.653783E+03
       233  25  1.755804E+05  7.798187E+05  1.650372E+05  1.631585E+05  9.570155E+03 -2.220104E+04
       233  26  1.458524E+05  5.858653E+05  1.143332E+05  1.497334E+05  2.865208E+04  3.033180E+03
       233  27  1.035471E+05  3.922752E+05  7.691949E+04  1.830311E+05  2.651067E+04  2.823250E+04
       234   1 -7.482420E+04 -3.527406E+05 -6.142207E+04  1.814205E+05 -1.882389E+04  8.463153E+03
       234   2 -2.725120E+04 -1.593542E+05 -1.834536E+04  1.575248E+05 -7.860144E+03  7.915197E+03
       234   3  2.070537E+04  3.436250E+04  2.521186E+04  1.816164E+05  3.533959E+03  7.366430E+03
       234   4 -1.530306E+03 -4.458482E+04 -3.182738E+03  1.812093E+05 -1.881167E+04 -8.041908E+03
       234   5 -1.752744E+02 -4.478261E+04  2.446417E+03  1.572171E+05 -7.848184E+03 -9.252538E+03
       234   6  1.680663E+03 -4.457014E+04  9.017741E+03  1.812115E+05  3.545530E+03 -1.046382E+04
       234   7  7.175819E+04  2.636632E+05  5.505342E+04  1.809980E+05 -1.879944E+04 -2.455497E+04
       234   8  2.690007E+04  6.980239E+04  2.323878E+04  1.569093E+05 -7.836208E+03 -2.642336E+04
       234   9 -1.734426E+04 -1.234962E+05 -7.175511E+03  1.808067E+05  3.557124E+03 -2.829184E+04
       234  10 -7.482460E+04 -3.527407E+05 -6.142287E+04  1.814206E+05 -4.194429E-10  1.297206E-09
       234  11 -2.725128E+04 -1.593543E+05 -1.834559E+04  1.575249E+05  2.495856E-09  7.094980E-09
       234  12  2.070534E+04  3.436244E+04  2.521173E+04  1.816164E+05 -5.916288E-10  1.268458E-08
       234  13 -1.530704E+03 -4.458499E+04 -3.183524E+03  1.812092E+05 -3.078015E-10  1.073712E-09
       234  14 -1.753635E+02 -4.478271E+04  2.446141E+03  1.572170E+05  1.275386E-09  4.213713E-11
       234  15  1.680620E+03 -4.457026E+04  9.017512E+03  1.812116E+05 -1.919047E-09  1.184206E-09
       234  16  7.175765E+04  2.636625E+05  5.505163E+04  1.809977E+05  1.847142E-09 -1.571725E-09
       234  17  2.689982E+04  6.980162E+04  2.323735E+04  1.569091E+05  1.430942E-09 -9.367187E-09
       234  18 -1.734449E+04 -1.234970E+05 -7.177039E+03  1.808068E+05  9.890126E-10 -1.342310E-08
       234  19 -7.482420E+04 -3.527406E+05 -6.142207E+04  1.814205E+05  1.882389E+04 -8.463153E+03
       234  20 -2.725120E+04 -1.593542E+05 -1.834536E+04  1.575248E+05  7.860144E+03 -7.915197E+03
       234  21  2.070537E+04  3.436250E+04  2.521186E+04  1.816164E+05 -3.533959E+03 -7.366430E+03
       234  22 -1.530306E+03 -4.458482E+04 -3.182738E+03  1.812093E+05  1.881167E+04  8.041908E+03
       234  23 -1.752744E+02 -4.478261E+04  2.446417E+03  1.572171E+05  7.848184E+03  9.252538E+03
       234  24  1.680663E+03 -4.457014E+04  9.017741E+03  1.812115E+05 -3.545530E+03  1.046382E+04
       234  25  7.175819E+04  2.636632E+05  5.505342E+04  1.809980E+05  1.879944E+04  2.455497E+04
       234  26  2.690007E+04  6.980239E+04  2.323878E+04  1.569093E+05  7.836208E+03  2.642336E+04
       234  27 -1.734426E+04 -1.234962E+05 -7.175511E+03  1.808067E+05 -3.557124E+03  2.829184E+04
       235   1  5.010533E+04  1.660213E+05  5.366957E+04  1.770408E+05  1.138062E+04  7.944709E+03
       235   2  1.052880E+05  3.528923E+05  1.087443E+05  1.697955E+05  1.657071E+04 -2.927629E+04
       235   3  1.953876E+05  5.535144E+05  1.968008E+05  2.096910E+05  6.066032E+03 -6.652655E+04
       235   4  2.372043E+02 -4.254780E+04  1.291592E+04  1.810151E+05  1.139426E+04 -1.204292E+04
       235   5  8.582957E+03 -4.734391E+04  2.526016E+04  1.574664E+05  1.656896E+04 -2.514181E+04
       235   6  4.767419E+04 -4.259650E+04  5.384839E+04  1.810557E+05  6.046239E+03 -3.825823E+04
       235   7 -4.963327E+04 -2.510743E+05 -2.783829E+04  1.849880E+05  1.140764E+04 -3.202399E+04
       235   8 -8.813174E+04 -4.474283E+05 -5.823265E+04  1.451455E+05  1.656706E+04 -2.100995E+04
       235   9 -1.000614E+05 -6.383786E+05 -8.912572E+04  1.524480E+05  6.023834E+03 -1.001690E+04
       235  10  5.010518E+04  1.660212E+05  5.366920E+04  1.770408E+05  1.443759E-09 -1.821840E-08
       235  11  1.052875E+05  3.528913E+05  1.087422E+05  1.697959E+05 -6.473403E-10 -1.090229E-08
       235  12  1.953863E+05  5.535096E+05  1.967924E+05  2.096914E+05  5.897921E-10  1.309865E-09
       235  13  2.370259E+02 -4.254799E+04  1.291541E+04  1.810152E+05 -1.984457E-09  1.661121E-12
       235  14  8.582492E+03 -4.734467E+04  2.525846E+04  1.574668E+05 -2.721283E-09 -3.101027E-10
       235  15  4.767376E+04 -4.259808E+04  5.384557E+04  1.810559E+05 -2.934110E-10  1.145653E-09
       235  16 -4.963368E+04 -2.510755E+05 -2.784046E+04  1.849883E+05 -3.436095E-09  1.638892E-08
       235  17 -8.813215E+04 -4.474288E+05 -5.823400E+04  1.451458E+05 -2.027337E-09  9.301690E-09
       235  18 -1.000615E+05 -6.383787E+05 -8.912598E+04  1.524480E+05  8.386813E-10 -2.231610E-10
       235  19  5.010533E+04  1.660213E+05  5.366957E+04  1.770408E+05 -1.138062E+04 -7.944709E+03
       235  20  1.052880E+05  3.528923E+05  1.087443E+05  1.697955E+05 -1.657071E+04  2.927629E+04
       235  21  1.953876E+05  5.535144E+05  1.968008E+05  2.096910E+05 -6.066032E+03  6.652655E+04
       235  22  2.372043E+02 -4.254780E+04  1.291592E+04  1.810151E+05 -1.139426E+04  1.204292E+04
       235  23  8.582957E+03 -4.734391E+04  2.526016E+04  1.574664E+05 -1.656896E+04  2.514181E+04
       235  24  4.767419E+04 -4.259650E+04  5.384839E+04  1.810557E+05 -6.046239E+03  3.825823E+04
       235  25 -4.963327E+04 -2.510743E+05 -2.783829E+04  1.849880E+05 -1.140764E+04  3.202399E+04
       235  26 -8.813174E+04 -4.474283E+05 -5.823265E+04  1.451455E+05 -1.656706E+04  2.100995E+04
       235  27 -1.000614E+05 -6.383786E+05 -8.912572E+04  1.524480E+05 -6.023834E+03  1.001690E+04
       236   1  7.010479E+05  2.559108E+05  1.560267E+05  2.549373E+05  6.526821E+04  2.043838E+04
       236   2  6.787142E+05  1.642521E+05  9.690555E+04  2.508949E+05  4.229447E+04  2.992819E+03
       236   3  6.784271E+05  1.467061E+05  7.545657E+04  2.374622E+05  1.654137E+04 -7.067845E+03
       236   4  4.584976E+05  1.360834E+05  8.568993E+04  1.594464E+05  5.602850E+04  1.695508E+04
       236   5  4.434297E+05  6.688926E+04  3.695507E+04  1.764727E+05  3.904126E+04  1.766257E+03
       236   6  4.492329E+05  7.063681E+04  2.116160E+04  1.841062E+05  1.927330E+04 -6.038585E+03
       236   7  2.160102E+05  1.627498E+04  1.534901E+04  6.399487E+04  4.679288E+04  1.347438E+04
       236   8  2.082009E+05 -3.046587E+04 -2.299957E+04  1.020777E+05  3.578940E+04  5.403299E+02
       236   9  2.200888E+05 -5.431895E+03 -3.313741E+04  1.307666E+05  2.200416E+04 -5.009627E+03
       236  10  7.010432E+05  2.559092E+05  1.560179E+05  2.549362E+05 -3.727927E-09 -2.471805E-09
       236  11  6.787123E+05  1.642516E+05  9.690217E+04  2.508947E+05 -3.622869E-09 -8.585517E-11
       236  12  6.784268E+05  1.467059E+05  7.545596E+04  2.374623E+05 -2.920779E-09  2.330604E-09
       236  13  4.584942E+05  1.360822E+05  8.568350E+04  1.594457E+05  1.546645E-10 -3.496378E-09
       236  14  4.434280E+05  6.688885E+04  3.695220E+04  1.764727E+05 -2.668843E-09 -4.734311E-09
       236  15  4.492325E+05  7.063667E+04  2.116083E+04  1.841063E+05 -2.423654E-09 -3.651736E-09
       236  16  2.160078E+05  1.627420E+04  1.534456E+04  6.399437E+04  2.308081E-09  5.464242E-09
       236  17  2.081995E+05 -3.046621E+04 -2.300198E+04  1.020777E+05  8.514160E-10  4.216552E-09
       236  18  2.200883E+05 -5.432052E+03 -3.313837E+04  1.307667E+05 -6.221517E-10  2.868303E-09
       236  19  7.010479E+05  2.559108E+05  1.560267E+05  2.549373E+05 -6.526821E+04 -2.043838E+04
       236  20  6.787142E+05  1.642521E+05  9.690555E+04  2.508949E+05 -4.229447E+04 -2.992819E+03
       236  21  6.784271E+05  1.467061E+05  7.545657E+04  2.374622E+05 -1.654137E+04  7.067845E+03
       236  22  4.584976E+05  1.360834E+05  8.568993E+04  1.594464E+05 -5.602850E+04 -1.695508E+04
       236  23  4.434297E+05  6.688926E+04  3.695507E+04  1.764727E+05 -3.904126E+04 -1.766257E+03
       236  24  4.492329E+05  7.063681E+04  2.116160E+04  1.841062E+05 -1.927330E+04  6.038585E+03
       236  25  2.160102E+05  1.627498E+04  1.534901E+04  6.399487E+04 -4.679288E+04 -1.347438E+04
       236  26  2.082009E+05 -3.046587E+04 -2.299957E+04  1.020777E+05 -3.578940E+04 -5.403299E+02
       236  27  2.200888E+05 -5.431895E+03 -3.313741E+04  1.307666E+05 -2.200416E+04  5.009627E+03
       237   1  6.498465E+05  1.548596E+05  6.707445E+04  2.374452E+05  1.551530E+04 -5.796986E+03
       237   2  6.325309E+05  1.387817E+05  5.373394E+04  2.284359E+05  1.059036E+04 -6.797153E+03
       237   3  6.106951E+05  1.340483E+05  4.506743E+04  2.262049E+05  5.539387E+03 -7.463134E+03
       237   4  4.464877E+05  7.745036E+04  1.683754E+04  1.799714E+05  1.598403E+04 -5.620674E+03
       237   5  4.484763E+05  6.969055E+04  8.585295E+03  1.773801E+05  1.133109E+04 -6.518197E+03
       237   6  4.458910E+05  7.322228E+04  4.792790E+03  1.815669E+05  6.551945E+03 -7.081560E+03
       237   7  2.431698E+05  4.441542E+01 -3.340254E+04  1.225149E+05  1.645260E+04 -5.444428E+03
       237   8  2.644555E+05  6.019944E+02 -3.656580E+04  1.263382E+05  1.207158E+04 -6.239333E+03
       237   9  2.811144E+05  1.239823E+04 -3.548367E+04  1.369397E+05  7.564205E+03 -6.700095E+03
       237  10  6.498462E+05  1.548595E+05  6.707394E+04  2.374453E+05 -4.623846E-09  3.082015E-09
       237  11  6.325308E+05  1.387816E+05  5.373365E+04  2.284360E+05  6.688596E-09  1.001532E-08
       237  12  6.106951E+05  1.340483E+05  4.506727E+04  2.262049E+05  1.478343E-08  8.841838E-09
       237  13  4.464875E+05  7.745026E+04  1.683700E+04  1.799715E+05 -1.760594E-09 -2.818917E-09
       237  14  4.484762E+05  6.969047E+04  8.584974E+03  1.773802E+05 -2.514650E-09 -6.083997E-09
       237  15  4.458909E+05  7.322221E+04  4.792615E+03  1.815669E+05 -1.991800E-09  3.607071E-09
       237  16  2.431695E+05  4.431092E+01 -3.340310E+04  1.225150E+05 -4.384937E-10  2.262048E-10
       237  17  2.644553E+05  6.019134E+02 -3.656614E+04  1.263383E+05 -4.983159E-09  4.330440E-09
       237  18  2.811143E+05  1.239817E+04 -3.548387E+04  1.369398E+05 -9.574055E-09 -3.556146E-09
       237  19  6.498465E+05  1.548596E+05  6.707445E+04  2.374452E+05 -1.551530E+04  5.796986E+03
       237  20  6.325309E+05  1.387817E+05  5.373394E+04  2.284359E+05 -1.059036E+04  6.797153E+03
       237  21  6.106951E+05  1.340483E+05  4.506743E+04  2.262049E+05 -5.539387E+03  7.463134E+03
       237  22  4.464877E+05  7.745036E+04  1.683754E+04  1.799714E+05 -1.598403E+04  5.620674E+03
       237  23  4.484763E+05  6.969055E+04  8.585295E+03  1.773801E+05 -1.133109E+04  6.518197E+03
       237  24  4.458910E+05  7.322228E+04  4.792790E+03  1.815669E+05 -6.551945E+03  7.081560E+03
       237  25  2.431698E+05  4.441542E+01 -3.340254E+04  1.225149E+05 -1.645260E+04  5.444428E+03
       237  26  2.644555E+05  6.019944E+02 -3.656580E+04  1.263382E+05 -1.207158E+04  6.239333E+03
       237  27  2.811144E+05  1.239823E+04 -3.548367E+04  1.369397E+05 -7.564205E+03  6.700095E+03
       238   1  5.923330E+05  1.284037E+05  3.950730E+04  2.216665E+05  4.703051E+03 -6.974588E+03
       238   2  5.757016E+05  1.172904E+05  3.302663E+04  2.123633E+05  3.271534E+03 -6.227150E+03
       238   3  5.525415E+05  1.132702E+05  2.737642E+04  2.107397E+05  1.834955E+03 -5.466901E+03
       238   4  4.456490E+05  7.363507E+04  3.658930E+03  1.812605E+05  5.609898E+03 -6.632800E+03
       238   5  4.488975E+05  6.996504E+04  1.989106E+03  1.774679E+05  4.189011E+03 -5.881256E+03
       238   6  4.456152E+05  7.338620E+04  1.141612E+03  1.813550E+05  2.763029E+03 -5.116913E+03
       238   7  2.989855E+05  1.886764E+04 -3.219126E+04  1.408628E+05  6.516514E+03 -6.291098E+03
       238   8  3.221089E+05  2.264062E+04 -2.904971E+04  1.425789E+05  5.106285E+03 -5.535439E+03
       238   9  3.387002E+05  3.350296E+04 -2.509406E+04  1.519750E+05  3.690929E+03 -4.766990E+03
       238  10  5.923330E+05  1.284037E+05  3.950717E+04  2.216666E+05 -1.041442E-08 -4.505093E-09
       238  11  5.757016E+05  1.172904E+05  3.302653E+04  2.123633E+05 -5.147313E-09  3.962415E-09
       238  12  5.525415E+05  1.132702E+05  2.737636E+04  2.107397E+05 -9.872947E-10  4.707949E-09
       238  13  4.456490E+05  7.363501E+04  3.658788E+03  1.812605E+05 -3.709911E-09 -5.078128E-10
       238  14  4.488975E+05  6.996500E+04  1.989008E+03  1.774680E+05 -3.025534E-09  5.032264E-09
       238  15  4.456152E+05  7.338617E+04  1.141549E+03  1.813550E+05 -4.656438E-09  8.719125E-10
       238  16  2.989855E+05  1.886758E+04 -3.219141E+04  1.408629E+05  8.003533E-09  3.331305E-09
       238  17  3.221089E+05  2.264058E+04 -2.904982E+04  1.425790E+05  2.939928E-09  2.505355E-09
       238  18  3.387002E+05  3.350293E+04 -2.509413E+04  1.519750E+05 -1.539386E-09 -1.563315E-09
       238  19  5.923330E+05  1.284037E+05  3.950730E+04  2.216665E+05 -4.703051E+03  6.974588E+03
       238  20  5.757016E+05  1.172904E+05  3.302663E+04  2.123633E+05 -3.271534E+03  6.227150E+03
       238  21  5.525415E+05  1.132702E+05  2.737642E+04  2.107397E+05 -1.834955E+03  5.466901E+03
       238  22  4.456490E+05  7.363507E+04  3.658930E+03  1.812605E+05 -5.609898E+03  6.632800E+03
       238  23  4.488975E+05  6.996504E+04  1.989106E+03  1.774679E+05 -4.189011E+03  5.881256E+03
       238  24  4.456152E+05  7.338620E+04  1.141612E+03  1.813550E+05 -2.763029E+03  5.116913E+03
       238  25  2.989855E+05  1.886764E+04 -3.219126E+04  1.408628E+05 -6.516514E+03  6.291098E+03
       238  26  3.221089E+05  2.264062E+04 -2.904971E+04  1.425789E+05 -5.106285E+03  5.535439E+03
       238  27  3.387002E+05  3.350296E+04 -2.509406E+04  1.519750E+05 -3.690929E+03  4.766990E+03
       239   1  5.350167E+05  1.067736E+05  2.271242E+04  2.059467E+05  1.422200E+03 -4.862353E+03
       239   2  5.185564E+05  9.600591E+04  1.763134E+04  1.966574E+05  6.998523E+02 -3.834397E+03
       239   3  4.953980E+05  9.201120E+04  1.277397E+04  1.950464E+05 -2.233326E+01 -2.807174E+03
       239   4  4.455908E+05  7.340057E+04  8.930233E+02  1.813230E+05  2.344115E+03 -4.514642E+03
       239   5  4.489400E+05  7.000972E+04  5.891428E+02  1.774857E+05  1.621215E+03 -3.486844E+03
       239   6  4.455906E+05  7.339206E+04  5.094327E+02  1.813266E+05  8.984655E+02 -2.459779E+03
       239   7  3.561732E+05  4.002824E+04 -2.092686E+04  1.567026E+05  3.265880E+03 -4.166988E+03
       239   8  3.793283E+05  4.401388E+04 -1.645342E+04  1.583160E+05  2.542466E+03 -3.139333E+03
       239   9  3.957854E+05  5.477301E+04 -1.175535E+04  1.676078E+05  1.819188E+03 -2.112412E+03
       239  10  5.350167E+05  1.067736E+05  2.271237E+04  2.059467E+05 -9.600347E-11 -4.088689E-09
       239  11  5.185564E+05  9.600589E+04  1.763132E+04  1.966574E+05  3.228438E-09 -3.981347E-09
       239  12  4.953980E+05  9.201119E+04  1.277395E+04  1.950464E+05 -3.732942E-09 -5.676469E-09
       239  13  4.455908E+05  7.340055E+04  8.929746E+02  1.813230E+05 -8.652575E-11 -1.937645E-09
       239  14  4.489400E+05  7.000971E+04  5.891150E+02  1.774857E+05 -2.684818E-09 -1.448725E-09
       239  15  4.455906E+05  7.339206E+04  5.094198E+02  1.813266E+05 -2.831588E-09 -4.738300E-09
       239  16  3.561732E+05  4.002822E+04 -2.092691E+04  1.567026E+05 -1.965249E-09 -1.215743E-09
       239  17  3.793283E+05  4.401386E+04 -1.645345E+04  1.583160E+05  1.652553E-09  1.749823E-09
       239  18  3.957854E+05  5.477301E+04 -1.175537E+04  1.676078E+05 -7.274632E-10  3.179205E-09
       239  19  5.350167E+05  1.067736E+05  2.271242E+04  2.059467E+05 -1.422200E+03  4.862353E+03
       239  20  5.185564E+05  9.600591E+04  1.763134E+04  1.966574E+05 -6.998523E+02  3.834397E+03
       239  21  4.953980E+05  9.201120E+04  1.277397E+04  1.950464E+05  2.233326E+01  2.807174E+03
       239  22  4.455908E+05  7.340057E+04  8.930233E+02  1.813230E+05 -2.344115E+03  4.514642E+03
       239  23  4.489400E+05  7.000972E+04  5.891428E+02  1.774857E+05 -1.621215E+03  3.486844E+03
       239  24  4.455906E+05  7.339206E+04  5.094327E+02  1.813266E+05 -8.984655E+02  2.459779E+03
       239  25  3.561732E+05  4.002824E+04 -2.092686E+04  1.567026E+05 -3.265880E+03  4.166988E+03
       239  26  3.793283E+05  4.401388E+04 -1.645342E+04  1.583160E+05 -2.542466E+03  3.139333E+03
       239  27  3.957854E+05  5.477301E+04 -1.175535E+04  1.676078E+05 -1.819188E+03  2.112412E+03
       240   1  4.779973E+05  8.548929E+04  8.400268E+03  1.902650E+05 -3.582050E+02 -2.178009E+03
       240   2  4.615700E+05  7.475239E+04  3.837967E+03  1.809908E+05 -1.155479E+03 -1.180889E+03
       240   3  4.384701E+05  7.078348E+04 -4.426235E+02  1.793785E+05 -1.952488E+03 -1.844344E+02
       240   4  4.455962E+05  7.338892E+04  5.364092E+02  1.813238E+05  5.618471E+02 -1.830875E+03
       240   5  4.489340E+05  7.001321E+04  7.409260E+02  1.774899E+05 -2.359837E+02 -8.339567E+02
       240   6  4.455987E+05  7.340552E+04  1.227575E+03  1.813176E+05 -1.033561E+03  1.622912E+02
       240   7  4.131962E+05  6.128862E+04 -7.327523E+03  1.723831E+05  1.481847E+03 -1.483761E+03
       240   8  4.362982E+05  6.527406E+04 -2.356114E+03  1.739890E+05  6.834892E+02 -4.870334E+02
       240   9  4.527274E+05  7.602755E+04  2.897763E+03  1.832567E+05 -1.146268E+02  5.090194E+02
       240  10  4.779973E+05  8.548928E+04  8.400259E+03  1.902650E+05  8.317751E-10  3.309345E-09
       240  11  4.615700E+05  7.475239E+04  3.837961E+03  1.809908E+05 -4.806902E-09 -5.532142E-09
       240  12  4.384701E+05  7.078348E+04 -4.426307E+02  1.793785E+05 -2.357736E-09 -1.428357E-09
       240  13  4.455962E+05  7.338891E+04  5.364023E+02  1.813238E+05 -3.022313E-09  7.280052E-09
       240  14  4.489340E+05  7.001321E+04  7.409246E+02  1.774899E+05  2.130774E-10 -5.871407E-10
       240  15  4.455987E+05  7.340552E+04  1.227573E+03  1.813176E+05  2.895644E-09 -9.897275E-10
       240  16  4.131962E+05  6.128862E+04 -7.327531E+03  1.723831E+05 -4.642510E-09 -1.938744E-09
       240  17  4.362982E+05  6.527406E+04 -2.356116E+03  1.739890E+05  4.253767E-09 -1.133959E-08
       240  18  4.527274E+05  7.602755E+04  2.897763E+03  1.832567E+05  8.754712E-09 -9.416607E-10
       240  19  4.779973E+05  8.548929E+04  8.400268E+03  1.902650E+05  3.582050E+02  2.178009E+03
       240  20  4.615700E+05  7.475239E+04  3.837967E+03  1.809908E+05  1.155479E+03  1.180889E+03
       240  21  4.384701E+05  7.078348E+04 -4.426235E+02  1.793785E+05  1.952488E+03  1.844344E+02
       240  22  4.455962E+05  7.338892E+04  5.364092E+02  1.813238E+05 -5.618471E+02  1.830875E+03
       240  23  4.489340E+05  7.001321E+04  7.409260E+02  1.774899E+05  2.359837E+02  8.339567E+02
       240  24  4.455987E+05  7.340552E+04  1.227575E+03  1.813176E+05  1.033561E+03 -1.622912E+02
       240  25  4.131962E+05  6.128862E+04 -7.327523E+03  1.723831E+05 -1.481847E+03  1.483761E+03
       240  26  4.362982E+05  6.527406E+04 -2.356114E+03  1.739890E+05 -6.834892E+02  4.870334E+02
       240  27  4.527274E+05  7.602755E+04  2.897763E+03  1.832567E+05  1.146268E+02 -5.090194E+02
       241   1  4.210726E+05  6.428204E+04 -4.468221E+03  1.746879E+05 -2.439099E+03  3.885912E+02
       241   2  4.045584E+05  5.346057E+04 -7.997299E+03  1.653184E+05 -4.282843E+03  9.891241E+02
       241   3  3.816524E+05  4.982248E+04 -1.035877E+04  1.635614E+05 -6.122756E+03  1.579821E+03
       241   4  4.456439E+05  7.337559E+04  1.600395E+03  1.813528E+05 -1.516701E+03  7.366191E+02
       241   5  4.488645E+05  6.996549E+04  2.843357E+03  1.774776E+05 -3.368537E+03  1.334067E+03
       241   6  4.456949E+05  7.374046E+04  5.260383E+03  1.812147E+05 -5.216588E+03  1.921662E+03
       241   7  4.702159E+05  8.246922E+04  7.669000E+03  1.880180E+05 -5.942597E+02  1.084663E+03
       241   8  4.931726E+05  8.647059E+04  1.368390E+04  1.896376E+05 -2.454158E+03  1.679037E+03
       241   9  5.097414E+05  9.765873E+04  2.087924E+04  1.988697E+05 -4.310317E+03  2.263542E+03
       241  10  4.210726E+05  6.428204E+04 -4.468232E+03  1.746879E+05 -1.079947E-08 -8.863911E-09
       241  11  4.045584E+05  5.346056E+04 -7.997335E+03  1.653184E+05 -6.805675E-09 -6.786630E-09
       241  12  3.816524E+05  4.982246E+04 -1.035885E+04  1.635614E+05  5.049533E-09  6.525501E-09
       241  13  4.456439E+05  7.337559E+04  1.600389E+03  1.813528E+05  5.077448E-09  4.391812E-10
       241  14  4.488645E+05  6.996549E+04  2.843332E+03  1.774776E+05  9.870928E-10  9.750472E-09
       241  15  4.456948E+05  7.374045E+04  5.260325E+03  1.812147E+05  3.136764E-09 -1.221897E-09
       241  16  4.702159E+05  8.246922E+04  7.668997E+03  1.880180E+05  1.326173E-08  9.126739E-09
       241  17  4.931726E+05  8.647059E+04  1.368388E+04  1.896376E+05 -1.700994E-09  8.775428E-10
       241  18  5.097414E+05  9.765872E+04  2.087919E+04  1.988697E+05 -2.928559E-09 -6.908423E-09
       241  19  4.210726E+05  6.428204E+04 -4.468221E+03  1.746879E+05  2.439099E+03 -3.885912E+02
       241  20  4.045584E+05  5.346057E+04 -7.997299E+03  1.653184E+05  4.282843E+03 -9.891241E+02
       241  21  3.816524E+05  4.982248E+04 -1.035877E+04  1.635614E+05  6.122756E+03 -1.579821E+03
       241  22  4.456439E+05  7.337559E+04  1.600395E+03  1.813528E+05  1.516701E+03 -7.366191E+02
       241  23  4.488645E+05  6.996549E+04  2.843357E+03  1.774776E+05  3.368537E+03 -1.334067E+03
       241  24  4.456949E+05  7.374046E+04  5.260383E+03  1.812147E+05  5.216588E+03 -1.921662E+03
       241  25  4.702159E+05  8.246922E+04  7.669000E+03  1.880180E+05  5.942597E+02 -1.084663E+03
       241  26  4.931726E+05  8.647059E+04  1.368390E+04  1.896376E+05  2.454158E+03 -1.679037E+03
       241  27  5.097414E+05  9.765873E+04  2.087924E+04  1.988697E+05  4.310317E+03 -2.263542E+03
       242   1  3.638181E+05  4.344727E+04 -1.311577E+04  1.600653E+05 -7.427728E+03  1.872579E+03
       242   2  3.473305E+05  3.134961E+04 -1.245663E+04  1.490128E+05 -1.394914E+04  6.622809E+02
       242   3  3.272739E+05  3.241480E+04 -5.522432E+03  1.442230E+05 -2.038300E+04 -7.791179E+02
       242   4  4.460536E+05  7.313694E+04  6.897840E+03  1.816464E+05 -6.449122E+03  2.241724E+03
       242   5  4.482517E+05  6.958737E+04  1.237047E+04  1.773638E+05 -1.315870E+04  9.603426E+02
       242   6  4.469173E+05  7.923691E+04  2.426635E+04  1.793437E+05 -1.978097E+04 -5.522411E+02
       242   7  5.282954E+05  1.028268E+05  2.691084E+04  2.032298E+05 -5.470379E+03  2.610917E+03
       242   8  5.491830E+05  1.078259E+05  3.719680E+04  2.057190E+05 -1.236812E+04  1.258459E+03
       242   9  5.665753E+05  1.260606E+05  5.405418E+04  2.144708E+05 -1.917880E+04 -3.253102E+02
       242  10  3.638181E+05  4.344725E+04 -1.311588E+04  1.600654E+05 -1.690100E-09  5.344992E-09
       242  11  3.473303E+05  3.134955E+04 -1.245700E+04  1.490128E+05  3.964515E-09  7.039108E-09
       242  12  3.272735E+05  3.241469E+04 -5.523213E+03  1.442230E+05  9.427634E-09  2.096776E-09
       242  13  4.460536E+05  7.313692E+04  6.897752E+03  1.816464E+05  5.211998E-09 -2.462276E-10
       242  14  4.482515E+05  6.958732E+04  1.237015E+04  1.773638E+05 -3.150750E-10  7.472681E-09
       242  15  4.469168E+05  7.923680E+04  2.426562E+04  1.793437E+05 -8.367461E-10 -1.202596E-09
       242  16  5.282953E+05  1.028268E+05  2.691078E+04  2.032298E+05  9.261149E-09  1.138256E-09
       242  17  5.491828E+05  1.078259E+05  3.719651E+04  2.057190E+05 -3.368481E-10  2.253193E-09
       242  18  5.665749E+05  1.260605E+05  5.405349E+04  2.144708E+05 -1.049615E-08  1.230018E-09
       242  19  3.638181E+05  4.344727E+04 -1.311577E+04  1.600653E+05  7.427728E+03 -1.872579E+03
       242  20  3.473305E+05  3.134961E+04 -1.245663E+04  1.490128E+05  1.394914E+04 -6.622809E+02
       242  21  3.272739E+05  3.241480E+04 -5.522432E+03  1.442230E+05  2.038300E+04  7.791179E+02
       242  22  4.460536E+05  7.313694E+04  6.897840E+03  1.816464E+05  6.449122E+03 -2.241724E+03
       242  23  4.482517E+05  6.958737E+04  1.237047E+04  1.773638E+05  1.315870E+04 -9.603426E+02
       242  24  4.469173E+05  7.923691E+04  2.426635E+04  1.793437E+05  1.978097E+04  5.522411E+02
       242  25  5.282954E+05  1.028268E+05  2.691084E+04  2.032298E+05  5.470379E+03 -2.610917E+03
       242  26  5.491830E+05  1.078259E+05  3.719680E+04  2.057190E+05  1.236812E+04 -1.258459E+03
       242  27  5.665753E+05  1.260606E+05  5.405418E+04  2.144708E+05  1.917880E+04  3.253102E+02
       243   1  3.021292E+05  2.754196E+04 -3.424729E+03  1.583889E+05 -2.634932E+04 -1.656611E+03
       243   2  2.924619E+05 -3.652279E+03  1.399608E+04  1.211337E+05 -5.092843E+04 -1.077536E+04
       243   3  3.150323E+05  6.648702E+04  7.562682E+04  6.692410E+04 -7.358656E+04 -2.498662E+04
       243   4  4.508469E+05  6.944350E+04  3.049925E+04  1.853304E+05 -2.418648E+04 -8.404472E+02
       243   5  4.410155E+05  6.552985E+04  5.326899E+04  1.760242E+05 -5.289558E+04 -1.151855E+04
       243   6  4.642273E+05  1.637487E+05  1.235119E+05  1.497668E+05 -7.968391E+04 -2.729117E+04
       243   7  5.995869E+05  1.113448E+05  6.442203E+04  2.122767E+05 -2.202305E+04 -2.418721E+01
       243   8  5.895904E+05  1.347168E+05  9.253976E+04  2.309275E+05 -5.486322E+04 -1.226204E+04
       243   9  6.134458E+05  2.610272E+05  1.713946E+05  2.326303E+05 -8.578274E+04 -2.959728E+04
       243  10  3.021285E+05  2.754177E+04 -3.426038E+03  1.583889E+05  5.851608E-09  1.213261E-09
       243  11  2.924590E+05 -3.653099E+03  1.399099E+04  1.211332E+05  2.085632E-09 -3.883991E-09
       243  12  3.150263E+05  6.648489E+04  7.561548E+04  6.692262E+04 -1.667505E-09 -6.513869E-10
       243  13  4.508463E+05  6.944335E+04  3.049815E+04  1.853304E+05 -4.900619E-10  2.827328E-09
       243  14  4.410125E+05  6.552895E+04  5.326349E+04  1.760237E+05 -6.039971E-09 -4.391187E-09
       243  15  4.642203E+05  1.637462E+05  1.234986E+05  1.497650E+05  3.082530E-10  1.187042E-09
       243  16  5.995864E+05  1.113447E+05  6.442112E+04  2.122767E+05 -7.992021E-09  6.134895E-10
       243  17  5.895871E+05  1.347158E+05  9.253382E+04  2.309270E+05 -1.268155E-09 -4.203183E-09
       243  18  6.134377E+05  2.610243E+05  1.713791E+05  2.326283E+05  2.812812E-09  8.083548E-10
       243  19  3.021292E+05  2.754196E+04 -3.424729E+03  1.583889E+05  2.634932E+04  1.656611E+03
       243  20  2.924619E+05 -3.652279E+03  1.399608E+04  1.211337E+05  5.092843E+04  1.077536E+04
       243  21  3.150323E+05  6.648702E+04  7.562682E+04  6.692410E+04  7.358656E+04  2.498662E+04
       243  22  4.508469E+05  6.944350E+04  3.049925E+04  1.853304E+05  2.418648E+04  8.404472E+02
       243  23  4.410155E+05  6.552985E+04  5.326899E+04  1.760242E+05  5.289558E+04  1.151855E+04
       243  24  4.642273E+05  1.637487E+05  1.235119E+05  1.497668E+05  7.968391E+04  2.729117E+04
       243  25  5.995869E+05  1.113448E+05  6.442203E+04  2.122767E+05  2.202305E+04  2.418721E+01
       243  26  5.895904E+05  1.347168E+05  9.253976E+04  2.309275E+05  5.486322E+04  1.226204E+04
       243  27  6.134458E+05  2.610272E+05  1.713946E+05  2.326303E+05  8.578274E+04  2.959728E+04
       244   1 -1.081676E+05 -6.172878E+05 -1.101924E+05  8.286084E+04 -3.643736E+03 -2.036562E+04
       244   2 -5.838687E+04 -4.839119E+05 -6.479033E+04  4.551322E+04 -9.450781E+03 -7.642104E+03
       244   3 -2.668353E+04 -3.564872E+05 -3.216205E+04  7.387161E+04 -4.717328E+03  5.095552E+03
       244   4 -1.557011E+04 -2.457371E+05 -1.902969E+04  7.605862E+04 -3.652155E+03 -1.214400E+04
       244   5  8.490531E+02 -2.434255E+05 -9.223639E+03  4.321451E+04 -9.450888E+03 -7.253951E+03
       244   6  5.565368E+02 -2.457184E+05 -6.744243E+03  7.607585E+04 -4.710765E+03 -2.352589E+03
       244   7  7.701731E+04  1.259396E+05  7.212320E+04  6.925235E+04 -3.660752E+03 -3.917465E+03
       244   8  6.008093E+04 -2.885692E+03  4.633920E+04  4.091492E+04 -9.450997E+03 -6.865648E+03
       244   9  2.779580E+04 -1.349381E+05  1.867297E+04  7.828049E+04 -4.704255E+03 -9.802049E+03
       244  10 -1.081677E+05 -6.172882E+05 -1.101932E+05  8.286078E+04  1.238465E-09  2.246593E-09
       244  11 -5.838698E+04 -4.839120E+05 -6.479061E+04  4.551316E+04  7.436834E-09  7.165510E-09
       244  12 -2.668357E+04 -3.564873E+05 -3.216214E+04  7.387163E+04  1.849352E-09  8.437423E-09
       244  13 -1.557017E+04 -2.457372E+05 -1.902999E+04  7.605859E+04  3.413240E-09 -1.040232E-09
       244  14  8.489431E+02 -2.434256E+05 -9.223906E+03  4.321446E+04 -4.813079E-10  1.529295E-09
       244  15  5.565115E+02 -2.457184E+05 -6.744295E+03  7.607585E+04 -3.092392E-09 -5.173797E-10
       244  16  7.701729E+04  1.259396E+05  7.212315E+04  6.925234E+04  1.876590E-10 -1.707547E-09
       244  17  6.008082E+04 -2.885766E+03  4.633894E+04  4.091487E+04  3.214031E-09 -7.607002E-09
       244  18  2.779575E+04 -1.349382E+05  1.867275E+04  7.828046E+04 -1.843685E-09 -8.924905E-09
       244  19 -1.081676E+05 -6.172878E+05 -1.101924E+05  8.286084E+04  3.643736E+03  2.036562E+04
       244  20 -5.838687E+04 -4.839119E+05 -6.479033E+04  4.551322E+04  9.450781E+03  7.642104E+03
       244  21 -2.668353E+04 -3.564872E+05 -3.216205E+04  7.387161E+04  4.717328E+03 -5.095552E+03
       244  22 -1.557011E+04 -2.457371E+05 -1.902969E+04  7.605862E+04  3.652155E+03  1.214400E+04
       244  23  8.490531E+02 -2.434255E+05 -9.223639E+03  4.321451E+04  9.450888E+03  7.253951E+03
       244  24  5.565368E+02 -2.457184E+05 -6.744243E+03  7.607585E+04  4.710765E+03  2.352589E+03
       244  25  7.701731E+04  1.259396E+05  7.212320E+04  6.925235E+04  3.660752E+03  3.917465E+03
       244  26  6.008093E+04 -2.885692E+03  4.633920E+04  4.091492E+04  9.450997E+03  6.865648E+03
       244  27  2.779580E+04 -1.349381E+05  1.867297E+04  7.828049E+04  4.704255E+03  9.802049E+03
       245   1  1.635115E+03 -2.337229E+05 -3.708508E+03  7.689303E+04  4.030281E+02  3.196653E+03
       245   2  3.494853E+04 -1.028183E+05  2.625283E+04  4.292496E+04  6.226538E+03  6.051537E+03
       245   3  6.467692E+04  2.701979E+04  5.349698E+04  7.503951E+04  1.171573E+04  8.907950E+03
       245   4 -1.129653E+03 -2.449428E+05 -6.317335E+03  7.615502E+04  4.068533E+02 -1.261301E+03
       245   5  1.536700E+02 -2.443850E+05 -6.126938E+03  4.311261E+04  6.230610E+03  1.841432E+03
       245   6 -2.190460E+03 -2.449529E+05 -8.825519E+03  7.615396E+04  1.171996E+04  4.945112E+03
       245   7 -3.894417E+03 -2.561625E+05 -8.926094E+03  7.541702E+04  4.106892E+02 -5.719176E+03
       245   8 -3.464258E+04 -3.859330E+05 -3.850796E+04  4.330023E+04  6.234680E+03 -2.367720E+03
       245   9 -6.906298E+04 -5.168571E+05 -7.115283E+04  7.726793E+04  1.172418E+04  9.839953E+02
       245  10  1.635112E+03 -2.337229E+05 -3.708528E+03  7.689303E+04 -3.185971E-09 -3.939795E-09
       245  11  3.494848E+04 -1.028184E+05  2.625269E+04  4.292493E+04  6.907909E-10 -2.359698E-09
       245  12  6.467675E+04  2.701967E+04  5.349657E+04  7.503942E+04  1.205905E-09 -2.301955E-09
       245  13 -1.129653E+03 -2.449428E+05 -6.317338E+03  7.615502E+04 -5.184400E-09 -1.063279E-09
       245  14  1.536274E+02 -2.443850E+05 -6.127017E+03  4.311261E+04  1.737247E-09  6.953402E-11
       245  15 -2.190615E+03 -2.449530E+05 -8.825823E+03  7.615391E+04  4.023492E-09  1.932692E-10
       245  16 -3.894426E+03 -2.561625E+05 -8.926156E+03  7.541702E+04 -4.096879E-09  3.419165E-09
       245  17 -3.464262E+04 -3.859330E+05 -3.850804E+04  4.330024E+04  9.428988E-10  1.889209E-09
       245  18 -6.906313E+04 -5.168571E+05 -7.115309E+04  7.726792E+04  4.971371E-09  1.274875E-09
       245  19  1.635115E+03 -2.337229E+05 -3.708508E+03  7.689303E+04 -4.030281E+02 -3.196653E+03
       245  20  3.494853E+04 -1.028183E+05  2.625283E+04  4.292496E+04 -6.226538E+03 -6.051537E+03
       245  21  6.467692E+04  2.701979E+04  5.349698E+04  7.503951E+04 -1.171573E+04 -8.907950E+03
       245  22 -1.129653E+03 -2.449428E+05 -6.317335E+03  7.615502E+04 -4.068533E+02  1.261301E+03
       245  23  1.536700E+02 -2.443850E+05 -6.126938E+03  4.311261E+04 -6.230610E+03 -1.841432E+03
       245  24 -2.190460E+03 -2.449529E+05 -8.825519E+03  7.615396E+04 -1.171996E+04 -4.945112E+03
       245  25 -3.894417E+03 -2.561625E+05 -8.926094E+03  7.541702E+04 -4.106892E+02  5.719176E+03
       245  26 -3.464258E+04 -3.859330E+05 -3.850796E+04  4.330023E+04 -6.234680E+03  2.367720E+03
       245  27 -6.906298E+04 -5.168571E+05 -7.115283E+04  7.726793E+04 -1.172418E+04 -9.839953E+02
       246   1  9.811407E+04  1.474402E+05  7.960526E+04  7.994112E+04  1.757352E+04  1.570891E+04
       246   2  1.303625E+05  2.809139E+05  1.042954E+05  3.886016E+04  2.117624E+04  1.138225E+04
       246   3  1.339273E+05  4.081699E+05  1.247084E+05  6.311764E+04  7.308041E+03  7.029596E+03
       246   4  1.313007E+03 -2.466098E+05 -1.038919E+04  7.600226E+04  1.758387E+04  6.526445E+03
       246   5  1.583852E+03 -2.423817E+05 -1.626181E+04  4.330934E+04  2.117261E+04  1.519739E+04
       246   6 -2.909773E+04 -2.466499E+05 -3.544312E+04  7.595969E+04  7.283772E+03  2.384292E+04
       246   7 -9.549873E+04 -6.405156E+05 -1.003935E+05  7.206595E+04  1.759434E+04 -2.650246E+03
       246   8 -1.272139E+05 -7.654239E+05 -1.368372E+05  4.775481E+04  2.116904E+04  1.900935E+04
       246   9 -1.921538E+05 -9.010780E+05 -1.956249E+05  8.878829E+04  7.260187E+03  4.063855E+04
       246  10  9.811367E+04  1.474398E+05  7.960422E+04  7.994090E+04  3.820997E-09 -2.153602E-09
       246  11  1.303620E+05  2.809136E+05  1.042943E+05  3.885997E+04  1.428603E-09  2.238663E-09
       246  12  1.339273E+05  4.081698E+05  1.247082E+05  6.311760E+04  2.812966E-10 -8.117212E-10
       246  13  1.312664E+03 -2.466099E+05 -1.038985E+04  7.600217E+04 -1.549980E-09  1.034543E-09
       246  14  1.583309E+03 -2.423821E+05 -1.626308E+04  4.330908E+04  4.107230E-09  1.120351E-09
       246  15 -2.909794E+04 -2.466505E+05 -3.544429E+04  7.595955E+04  1.467832E-09 -9.819811E-10
       246  16 -9.549906E+04 -6.405157E+05 -1.003941E+05  7.206599E+04  1.687872E-09  5.892674E-10
       246  17 -1.272145E+05 -7.654244E+05 -1.368387E+05  4.775448E+04 -9.905773E-11 -2.787126E-09
       246  18 -1.921543E+05 -9.010798E+05 -1.956281E+05  8.878805E+04 -1.088935E-09 -7.066409E-10
       246  19  9.811407E+04  1.474402E+05  7.960526E+04  7.994112E+04 -1.757352E+04 -1.570891E+04
       246  20  1.303625E+05  2.809139E+05  1.042954E+05  3.886016E+04 -2.117624E+04 -1.138225E+04
       246  21  1.339273E+05  4.081699E+05  1.247084E+05  6.311764E+04 -7.308041E+03 -7.029596E+03
       246  22  1.313007E+03 -2.466098E+05 -1.038919E+04  7.600226E+04 -1.758387E+04 -6.526445E+03
       246  23  1.583852E+03 -2.423817E+05 -1.626181E+04  4.330934E+04 -2.117261E+04 -1.519739E+04
       246  24 -2.909773E+04 -2.466499E+05 -3.544312E+04  7.595969E+04 -7.283772E+03 -2.384292E+04
       246  25 -9.549873E+04 -6.405156E+05 -1.003935E+05  7.206595E+04 -1.759434E+04  2.650246E+03
       246  26 -1.272139E+05 -7.654239E+05 -1.368372E+05  4.775481E+04 -2.116904E+04 -1.900935E+04
       246  27 -1.921538E+05 -9.010780E+05 -1.956249E+05  8.878829E+04 -7.260187E+03 -4.063855E+04
       247   1  2.276122E+05  1.286949E+05  1.167583E+05  3.054530E+04  2.274248E+04 -9.238350E+03
       247   2  1.764486E+05  1.374162E+05  9.932857E+04  3.700356E+04  5.913449E+03 -3.087395E+04
       247   3  1.235525E+05  1.303485E+05  8.892170E+04  5.418082E+04 -1.092387E+04 -3.673664E+04
       247   4 -4.338677E+05 -3.462548E+04 -3.849662E+04  5.176003E+04 -2.682907E+04 -9.277679E+03
       247   5 -4.306830E+05 -7.609193E+03 -1.869538E+04  4.638442E+04 -1.715383E+04 -3.089715E+04
       247   6 -4.338407E+05 -9.933189E+02 -1.028190E+04  5.172857E+04 -7.488547E+03 -3.673601E+04
       247   7 -1.094938E+06 -1.979739E+05 -1.937720E+05  7.295193E+04 -7.634812E+04 -9.320419E+03
       247   8 -1.037459E+06 -1.526560E+05 -1.367347E+05  5.575581E+04 -4.019905E+04 -3.092106E+04
       247   9 -9.909304E+05 -1.323523E+05 -1.094971E+05  4.927851E+04 -4.056220E+03 -3.673540E+04
       247  10  2.276116E+05  1.286946E+05  1.167572E+05  3.054546E+04 -1.486378E-10 -2.672626E-10
       247  11  1.764483E+05  1.374151E+05  9.932671E+04  3.700370E+04  2.235088E-09 -1.777110E-09
       247  12  1.235521E+05  1.303470E+05  8.891894E+04  5.418049E+04  1.686452E-09 -1.335752E-09
       247  13 -4.338685E+05 -3.462577E+04 -3.849814E+04  5.175983E+04  2.381466E-09  1.809645E-10
       247  14 -4.306835E+05 -7.610297E+03 -1.869773E+04  4.638399E+04 -2.589665E-09 -2.004219E-09
       247  15 -4.338411E+05 -9.947828E+02 -1.028454E+04  5.172835E+04 -5.866545E-10 -4.999224E-10
       247  16 -1.094945E+06 -1.979756E+05 -1.937832E+05  7.295136E+04 -3.952932E-09 -3.696563E-10
       247  17 -1.037461E+06 -1.526574E+05 -1.367396E+05  5.575481E+04 -3.753272E-10 -4.054016E-09
       247  18 -9.909308E+05 -1.323537E+05 -1.094997E+05  4.927839E+04  8.997475E-10 -3.811334E-09
       247  19  2.276122E+05  1.286949E+05  1.167583E+05  3.054530E+04 -2.274248E+04  9.238350E+03
       247  20  1.764486E+05  1.374162E+05  9.932857E+04  3.700356E+04 -5.913449E+03  3.087395E+04
       247  21  1.235525E+05  1.303485E+05  8.892170E+04  5.418082E+04  1.092387E+04  3.673664E+04
       247  22 -4.338677E+05 -3.462548E+04 -3.849662E+04  5.176003E+04  2.682907E+04  9.277679E+03
       247  23 -4.306830E+05 -7.609193E+03 -1.869538E+04  4.638442E+04  1.715383E+04  3.089715E+04
       247  24 -4.338407E+05 -9.933189E+02 -1.028190E+04  5.172857E+04  7.488547E+03  3.673601E+04
       247  25 -1.094938E+06 -1.979739E+05 -1.937720E+05  7.295193E+04  7.634812E+04  9.320419E+03
       247  26 -1.037459E+06 -1.526560E+05 -1.367347E+05  5.575581E+04  4.019905E+04  3.092106E+04
       247  27 -9.909304E+05 -1.323523E+05 -1.094971E+05  4.927851E+04  4.056220E+03  3.673540E+04
       248   1  9.018495E+04  1.214871E+05  8.433218E+04  5.175805E+04 -7.789141E+03 -3.524781E+04
       248   2  3.825438E+04  1.101382E+05  7.663203E+04  4.630453E+04 -7.997424E+03 -3.357297E+04
       248   3 -1.381334E+04  9.815474E+04  6.890782E+04  5.261497E+04 -8.208193E+03 -3.049289E+04
       248   4 -4.325468E+05 -1.508934E+03 -7.831056E+03  5.196478E+04 -6.151460E+03 -3.524867E+04
       248   5 -4.322637E+05 -1.735853E+02 -4.312085E+03  4.608153E+04 -4.000104E+03 -3.357064E+04
       248   6 -4.325299E+05  1.173147E+02 -2.456614E+03  5.196282E+04 -1.851212E+03 -3.048680E+04
       248   7 -9.550112E+05 -1.245200E+05 -1.000043E+05  5.217124E+04 -4.515115E+03 -3.524954E+04
       248   8 -9.025643E+05 -1.104972E+05 -8.526365E+04  4.585864E+04 -5.717856E+00 -3.356830E+04
       248   9 -8.510738E+05 -9.792940E+04 -7.382667E+04  5.131107E+04  4.501619E+03 -3.048073E+04
       248  10  9.018455E+04  1.214858E+05  8.432974E+04  5.175783E+04 -3.977343E-09 -1.662490E-09
       248  11  3.825401E+04  1.101370E+05  7.662979E+04  4.630432E+04  2.540855E-09  1.723845E-09
       248  12 -1.381366E+04  9.815372E+04  6.890594E+04  5.261477E+04  1.242726E-09  1.742863E-09
       248  13 -4.325471E+05 -1.510278E+03 -7.833462E+03  5.196460E+04  5.498090E-10 -1.814195E-09
       248  14 -4.322640E+05 -1.747996E+02 -4.314232E+03  4.608142E+04  4.979602E-10  9.554722E-11
       248  15 -4.325301E+05  1.163159E+02 -2.458366E+03  5.196278E+04  7.336987E-10 -1.731296E-09
       248  16 -9.550116E+05 -1.245213E+05 -1.000067E+05  5.217111E+04  3.414678E-09 -5.181474E-10
       248  17 -9.025646E+05 -1.104985E+05 -8.526577E+04  4.585864E+04  2.874407E-09  8.500331E-10
       248  18 -8.510741E+05 -9.793040E+04 -7.382845E+04  5.131118E+04 -3.087978E-09 -5.626138E-10
       248  19  9.018495E+04  1.214871E+05  8.433218E+04  5.175805E+04  7.789141E+03  3.524781E+04
       248  20  3.825438E+04  1.101382E+05  7.663203E+04  4.630453E+04  7.997424E+03  3.357297E+04
       248  21 -1.381334E+04  9.815474E+04  6.890782E+04  5.261497E+04  8.208193E+03  3.049289E+04
       248  22 -4.325468E+05 -1.508934E+03 -7.831056E+03  5.196478E+04  6.151460E+03  3.524867E+04
       248  23 -4.322637E+05 -1.735853E+02 -4.312085E+03  4.608153E+04  4.000104E+03  3.357064E+04
       248  24 -4.325299E+05  1.173147E+02 -2.456614E+03  5.196282E+04  1.851212E+03  3.048680E+04
       248  25 -9.550112E+05 -1.245200E+05 -1.000043E+05  5.217124E+04  4.515115E+03  3.524954E+04
       248  26 -9.025643E+05 -1.104972E+05 -8.526365E+04  4.585864E+04  5.717856E+00  3.356830E+04
       248  27 -8.510738E+05 -9.792940E+04 -7.382667E+04  5.131107E+04 -4.501619E+03  3.048073E+04
       249   1 -4.771735E+04  9.010795E+04  6.343254E+04  5.245295E+04 -7.675514E+03 -2.826347E+04
       249   2 -9.975623E+04  7.794849E+04  5.531186E+04  4.645782E+04 -7.362407E+03 -2.450977E+04
       249   3 -1.518554E+05  6.580301E+04  4.698381E+04  5.233452E+04 -7.050416E+03 -2.062949E+04
       249   4 -4.324247E+05  8.575608E+01 -1.867433E+03  5.198704E+04 -1.475871E+03 -2.825705E+04
       249   5 -4.323690E+05  1.296771E+02 -1.069215E+03  4.605089E+04 -9.506392E+02 -2.450232E+04
       249   6 -4.324131E+05  1.507869E+02 -6.259684E+02  5.198695E+04 -4.264973E+02 -2.062097E+04
       249   7 -8.169863E+05 -8.994425E+04 -6.717207E+04  5.152138E+04  4.720054E+03 -2.825064E+04
       249   8 -7.648726E+05 -7.769497E+04 -5.745371E+04  4.564415E+04  5.457804E+03 -2.449488E+04
       249   9 -7.128932E+05 -6.550558E+04 -4.823814E+04  5.163951E+04  6.194523E+03 -2.061245E+04
       249  10 -4.771762E+04  9.010707E+04  6.343093E+04  5.245278E+04 -1.059938E-09  1.914720E-09
       249  11 -9.975644E+04  7.794783E+04  5.531063E+04  4.645767E+04  1.617903E-09  5.726653E-10
       249  12 -1.518555E+05  6.580254E+04  4.698292E+04  5.233441E+04 -2.273141E-09 -3.873310E-10
       249  13 -4.324249E+05  8.489827E+01 -1.868937E+03  5.198701E+04  9.574233E-10 -2.580501E-09
       249  14 -4.323691E+05  1.290323E+02 -1.070344E+03  4.605087E+04  1.471194E-09  1.173991E-09
       249  15 -4.324132E+05  1.503303E+02 -6.267677E+02  5.198694E+04  1.719946E-09  3.281699E-09
       249  16 -8.169865E+05 -8.994511E+04 -6.717361E+04  5.152148E+04  3.360460E-09  6.163485E-11
       249  17 -7.648728E+05 -7.769562E+04 -5.745490E+04  4.564426E+04 -5.692730E-10  2.272122E-09
       249  18 -7.128934E+05 -6.550604E+04 -4.823901E+04  5.163961E+04 -2.034725E-09  1.269028E-09
       249  19 -4.771735E+04  9.010795E+04  6.343254E+04  5.245295E+04  7.675514E+03  2.826347E+04
       249  20 -9.975623E+04  7.794849E+04  5.531186E+04  4.645782E+04  7.362407E+03  2.450977E+04
       249  21 -1.518554E+05  6.580301E+04  4.698381E+04  5.233452E+04  7.050416E+03  2.062949E+04
       249  22 -4.324247E+05  8.575608E+01 -1.867433E+03  5.198704E+04  1.475871E+03  2.825705E+04
       249  23 -4.323690E+05  1.296771E+02 -1.069215E+03  4.605089E+04  9.506392E+02  2.450232E+04
       249  24 -4.324131E+05  1.507869E+02 -6.259684E+02  5.198695E+04  4.264973E+02  2.062097E+04
       249  25 -8.169863E+05 -8.994425E+04 -6.717207E+04  5.152138E+04 -4.720054E+03  2.825064E+04
       249  26 -7.648726E+05 -7.769497E+04 -5.745371E+04  4.564415E+04 -5.457804E+03  2.449488E+04
       249  27 -7.128932E+05 -6.550558E+04 -4.823814E+04  5.163951E+04 -6.194523E+03  2.061245E+04
       250   1 -1.858277E+05  5.780738E+04  4.113845E+04  5.229185E+04 -6.940641E+03 -1.833161E+04
       250   2 -2.379263E+05  4.562387E+04  3.259214E+04  4.627905E+04 -6.811838E+03 -1.438935E+04
       250   3 -2.900668E+05  3.347512E+04  2.396032E+04  5.215806E+04 -6.683620E+03 -1.043548E+04
       250   4 -4.323983E+05  1.508343E+02 -4.863934E+02  5.199137E+04 -3.289968E+02 -1.832274E+04
       250   5 -4.323705E+05  1.396184E+02 -3.099749E+02  4.604536E+04 -1.810602E+02 -1.437999E+04
       250   6 -4.323915E+05  1.597151E+02 -2.327344E+02  5.199137E+04 -3.369897E+01 -1.042564E+04
       250   7 -6.789088E+05 -5.750889E+04 -4.211301E+04  5.169100E+04  6.280107E+03 -1.831387E+04
       250   8 -6.267773E+05 -4.534661E+04 -3.321314E+04  4.581173E+04  6.447707E+03 -1.437064E+04
       250   9 -5.746961E+05 -3.315674E+04 -2.442628E+04  5.182471E+04  6.614746E+03 -1.041579E+04
       250  10 -1.858278E+05  5.780701E+04  4.113773E+04  5.229175E+04  2.973509E-09 -3.515005E-11
       250  11 -2.379264E+05  4.562364E+04  3.259167E+04  4.627897E+04 -3.650130E-09  3.503024E-09
       250  12 -2.900669E+05  3.347499E+04  2.396003E+04  5.215800E+04 -6.111695E-09  3.515343E-09
       250  13 -4.323984E+05  1.504738E+02 -4.870244E+02  5.199137E+04  7.366531E-10  8.471458E-10
       250  14 -4.323705E+05  1.393964E+02 -3.103635E+02  4.604535E+04  1.090775E-09  3.135450E-09
       250  15 -4.323915E+05  1.595984E+02 -2.329386E+02  5.199137E+04 -2.107208E-09  7.656557E-10
       250  16 -6.789090E+05 -5.750926E+04 -4.211372E+04  5.169109E+04 -3.821920E-09  5.692962E-10
       250  17 -6.267774E+05 -4.534684E+04 -3.321361E+04  4.581180E+04 -1.145659E-09 -1.341617E-11
       250  18 -5.746962E+05 -3.315686E+04 -2.442657E+04  5.182476E+04  5.483657E-09  1.724137E-09
       250  19 -1.858277E+05  5.780738E+04  4.113845E+04  5.229185E+04  6.940641E+03  1.833161E+04
       250  20 -2.379263E+05  4.562387E+04  3.259214E+04  4.627905E+04  6.811838E+03  1.438935E+04
       250  21 -2.900668E+05  3.347512E+04  2.396032E+04  5.215806E+04  6.683620E+03  1.043548E+04
       250  22 -4.323983E+05  1.508343E+02 -4.863934E+02  5.199137E+04  3.289968E+02  1.832274E+04
       250  23 -4.323705E+05  1.396184E+02 -3.099749E+02  4.604536E+04  1.810602E+02  1.437999E+04
       250  24 -4.323915E+05  1.597151E+02 -2.327344E+02  5.199137E+04  3.369897E+01  1.042564E+04
       250  25 -6.789088E+05 -5.750889E+04 -4.211301E+04  5.169100E+04 -6.280107E+03  1.831387E+04
       250  26 -6.267773E+05 -4.534661E+04 -3.321314E+04  4.581173E+04 -6.447707E+03  1.437064E+04
       250  27 -5.746961E+05 -3.315674E+04 -2.442628E+04  5.182471E+04 -6.614746E+03  1.041579E+04
       251   1 -3.240710E+05  2.547704E+04  1.798746E+04  5.211748E+04 -6.645961E+03 -8.130138E+03
       251   2 -3.761874E+05  1.328964E+04  9.243056E+03  4.609593E+04 -6.516135E+03 -4.172675E+03
       251   3 -4.283540E+05  1.132867E+03  4.093624E+02  5.197397E+04 -6.386472E+03 -2.209280E+02
       251   4 -4.323902E+05  1.616791E+02 -2.228168E+02  5.199306E+04  4.298480E+00 -8.120113E+03
       251   5 -4.323640E+05  1.495464E+02 -2.547007E+02  4.604323E+04  1.242986E+02 -4.162534E+03
       251   6 -4.323883E+05  1.700500E+02 -3.689225E+02  5.199305E+04  2.441472E+02 -2.106673E+02
       251   7 -5.406977E+05 -2.515427E+04 -1.843330E+04  5.186866E+04  6.653435E+03 -8.110090E+03
       251   8 -4.885375E+05 -1.299069E+04 -9.752393E+03  4.599054E+04  6.764151E+03 -4.152393E+03
       251   9 -4.364225E+05 -7.927441E+02 -1.147043E+03  5.201214E+04  6.874724E+03 -2.004063E+02
       251  10 -3.240711E+05  2.547696E+04  1.798725E+04  5.211743E+04  6.916834E-09  1.484425E-09
       251  11 -3.761874E+05  1.328961E+04  9.242943E+03  4.609591E+04  2.309378E-09  7.236683E-10
       251  12 -4.283540E+05  1.132856E+03  4.092856E+02  5.197397E+04 -3.008725E-09 -5.707581E-10
       251  13 -4.323902E+05  1.616083E+02 -2.229406E+02  5.199306E+04  2.581190E-09  6.147442E-09
       251  14 -4.323640E+05  1.495278E+02 -2.547333E+02  4.604323E+04 -3.090261E-09  1.123274E-09
       251  15 -4.323883E+05  1.700500E+02 -3.689227E+02  5.199305E+04 -1.839285E-09 -1.983829E-09
       251  16 -5.406978E+05 -2.515436E+04 -1.843350E+04  5.186871E+04 -5.836260E-09  4.401453E-09
       251  17 -4.885375E+05 -1.299072E+04 -9.752511E+03  4.599056E+04 -1.802279E-09 -5.940502E-12
       251  18 -4.364225E+05 -7.927568E+02 -1.147132E+03  5.201214E+04  4.038484E-09 -1.862034E-09
       251  19 -3.240710E+05  2.547704E+04  1.798746E+04  5.211748E+04  6.645961E+03  8.130138E+03
       251  20 -3.761874E+05  1.328964E+04  9.243056E+03  4.609593E+04  6.516135E+03  4.172675E+03
       251  21 -4.283540E+05  1.132867E+03  4.093624E+02  5.197397E+04  6.386472E+03  2.209280E+02
       251  22 -4.323902E+05  1.616791E+02 -2.228168E+02  5.199306E+04 -4.298480E+00  8.120113E+03
       251  23 -4.323640E+05  1.495464E+02 -2.547007E+02  4.604323E+04 -1.242986E+02  4.162534E+03
       251  24 -4.323883E+05  1.700500E+02 -3.689225E+02  5.199305E+04 -2.441472E+02  2.106673E+02
       251  25 -5.406977E+05 -2.515427E+04 -1.843330E+04  5.186866E+04 -6.653435E+03  8.110090E+03
       251  26 -4.885375E+05 -1.299069E+04 -9.752393E+03  4.599054E+04 -6.764151E+03  4.152393E+03
       251  27 -4.364225E+05 -7.927441E+02 -1.147043E+03  5.201214E+04 -6.874724E+03  2.004063E+02
       252   1 -4.623744E+05 -6.867502E+03 -5.675825E+03  5.192117E+04 -6.323178E+03  2.081999E+03
       252   2 -5.144525E+05 -1.906383E+04 -1.474596E+04  4.589892E+04 -5.810309E+03  5.997484E+03
       252   3 -5.666443E+05 -3.128902E+04 -2.416958E+04  5.177059E+04 -5.297138E+03  9.833812E+03
       252   4 -4.323980E+05  1.730575E+02 -4.657922E+02  5.199174E+04  3.160328E+02  2.092254E+03
       252   5 -4.323528E+05  1.587160E+02 -7.793174E+02  4.604486E+04  6.957885E+02  6.007342E+03
       252   6 -4.324009E+05  1.387457E+02 -1.353877E+03  5.199180E+04  1.075887E+03  9.843279E+03
       252   7 -4.024206E+05  7.213592E+03  4.744375E+03  5.206231E+04  6.955555E+03  2.102511E+03
       252   8 -3.502464E+05  1.938092E+04  1.318727E+04  4.619082E+04  7.202719E+03  6.017201E+03
       252   9 -2.981397E+05  3.156557E+04  2.146139E+04  5.221305E+04  7.450247E+03  9.852750E+03
       252  10 -4.623744E+05 -6.867518E+03 -5.675909E+03  5.192118E+04 -3.552905E-09  1.887074E-09
       252  11 -5.144525E+05 -1.906387E+04 -1.474609E+04  4.589895E+04 -8.971559E-09  2.365214E-09
       252  12 -5.666443E+05 -3.128913E+04 -2.416981E+04  5.177063E+04 -8.053754E-09  3.115352E-09
       252  13 -4.323980E+05  1.730528E+02 -4.658006E+02  5.199174E+04  2.938791E-09 -4.046853E-10
       252  14 -4.323528E+05  1.586772E+02 -7.793861E+02  4.604486E+04  1.374620E-09  1.438974E-09
       252  15 -4.324009E+05  1.386413E+02 -1.354061E+03  5.199179E+04  2.437686E-09  3.463690E-09
       252  16 -4.024206E+05  7.213575E+03  4.744276E+03  5.206230E+04  7.256321E-09  6.696775E-10
       252  17 -3.502465E+05  1.938087E+04  1.318710E+04  4.619079E+04  8.112556E-09 -2.685675E-09
       252  18 -2.981398E+05  3.156545E+04  2.146110E+04  5.221299E+04  4.550939E-09  1.375841E-09
       252  19 -4.623744E+05 -6.867502E+03 -5.675825E+03  5.192117E+04  6.323178E+03 -2.081999E+03
       252  20 -5.144525E+05 -1.906383E+04 -1.474596E+04  4.589892E+04  5.810309E+03 -5.997484E+03
       252  21 -5.666443E+05 -3.128902E+04 -2.416958E+04  5.177059E+04  5.297138E+03 -9.833812E+03
       252  22 -4.323980E+05  1.730575E+02 -4.657922E+02  5.199174E+04 -3.160328E+02 -2.092254E+03
       252  23 -4.323528E+05  1.587160E+02 -7.793174E+02  4.604486E+04 -6.957885E+02 -6.007342E+03
       252  24 -4.324009E+05  1.387457E+02 -1.353877E+03  5.199180E+04 -1.075887E+03 -9.843279E+03
       252  25 -4.024206E+05  7.213592E+03  4.744375E+03  5.206231E+04 -6.955555E+03 -2.102511E+03
       252  26 -3.502464E+05  1.938092E+04  1.318727E+04  4.619082E+04 -7.202719E+03 -6.017201E+03
       252  27 -2.981397E+05  3.156557E+04  2.146139E+04  5.221305E+04 -7.450247E+03 -9.852750E+03
       253   1 -6.007544E+05 -3.928414E+04 -3.063666E+04  5.159903E+04 -5.126636E+03  1.209487E+04
       253   2 -6.525207E+05 -5.175113E+04 -4.124644E+04  4.595489E+04 -2.086661E+03  1.551145E+04
       253   3 -7.049664E+05 -6.522132E+04 -5.409757E+04  5.214159E+04  9.547380E+02  1.804074E+04
       253   4 -4.324763E+05  1.640116E+02 -1.779095E+03  5.197748E+04  1.346169E+03  1.210428E+04
       253   5 -4.322686E+05 -4.745284E+01 -3.117799E+03  4.606304E+04  2.897011E+03  1.551820E+04
       253   6 -4.324845E+05 -1.003263E+03 -5.662892E+03  5.197920E+04  4.449543E+03  1.804500E+04
       253   7 -2.641704E+05  3.961067E+04  2.707768E+04  5.235603E+04  7.820674E+03  1.211370E+04
       253   8 -2.119687E+05  5.165362E+04  3.500925E+04  4.617121E+04  7.882397E+03  1.552496E+04
       253   9 -1.599300E+05  6.321070E+04  4.276905E+04  5.181670E+04  7.945839E+03  1.804926E+04
       253  10 -6.007544E+05 -3.928430E+04 -3.063699E+04  5.159908E+04  2.160712E-08  6.312791E-09
       253  11 -6.525208E+05 -5.175139E+04 -4.124690E+04  4.595492E+04 -3.293320E-08  4.292913E-09
       253  12 -7.049665E+05 -6.522167E+04 -5.409818E+04  5.214157E+04 -8.832400E-08  5.269958E-09
       253  13 -4.324764E+05  1.638538E+02 -1.779374E+03  5.197747E+04  2.934283E-09  2.787909E-09
       253  14 -4.322687E+05 -4.771363E+01 -3.118268E+03  4.606300E+04  1.423837E-09 -3.552280E-09
       253  15 -4.324846E+05 -1.003618E+03 -5.663541E+03  5.197913E+04  3.031629E-09 -1.378420E-08
       253  16 -2.641705E+05  3.961050E+04  2.707729E+04  5.235595E+04 -2.263724E-08  4.248088E-09
       253  17 -2.119689E+05  5.165335E+04  3.500868E+04  4.617111E+04  3.286696E-08  5.073832E-09
       253  18 -1.599302E+05  6.321034E+04  4.276832E+04  5.181659E+04  8.751968E-08  3.696699E-09
       253  19 -6.007544E+05 -3.928414E+04 -3.063666E+04  5.159903E+04  5.126636E+03 -1.209487E+04
       253  20 -6.525207E+05 -5.175113E+04 -4.124644E+04  4.595489E+04  2.086661E+03 -1.551145E+04
       253  21 -7.049664E+05 -6.522132E+04 -5.409757E+04  5.214159E+04 -9.547380E+02 -1.804074E+04
       253  22 -4.324763E+05  1.640116E+02 -1.779095E+03  5.197748E+04 -1.346169E+03 -1.210428E+04
       253  23 -4.322686E+05 -4.745284E+01 -3.117799E+03  4.606304E+04 -2.897011E+03 -1.551820E+04
       253  24 -4.324845E+05 -1.003263E+03 -5.662892E+03  5.197920E+04 -4.449543E+03 -1.804500E+04
       253  25 -2.641704E+05  3.961067E+04  2.707768E+04  5.235603E+04 -7.820674E+03 -1.211370E+04
       253  26 -2.119687E+05  5.165362E+04  3.500925E+04  4.617121E+04 -7.882397E+03 -1.552496E+04
       253  27 -1.599300E+05  6.321070E+04  4.276905E+04  5.181670E+04 -7.945839E+03 -1.804926E+04
       254   1 -7.403501E+05 -7.308046E+04 -6.253028E+04  5.004313E+04  7.857607E+02  1.983273E+04
       254   2 -7.887316E+05 -9.101149E+04 -8.372085E+04  5.298183E+04  2.449296E+04  1.763924E+04
       254   3 -8.446398E+05 -1.266056E+05 -1.247764E+05  6.709966E+04  4.820940E+04  5.479964E+03
       254   4 -4.334202E+05 -6.284687E+02 -7.435143E+03  5.183015E+04  5.414887E+03  1.983830E+04
       254   5 -4.311193E+05 -5.419366E+03 -1.351662E+04  4.625642E+04  1.239939E+04  1.762220E+04
       254   6 -4.334373E+05 -2.496227E+04 -2.783779E+04  5.186227E+04  1.939529E+04  5.442285E+03
       254   7 -1.263982E+05  7.181830E+04  4.765645E+04  5.361803E+04  1.004624E+04  1.984389E+04
       254   8 -7.338388E+04  8.016528E+04  5.668199E+04  3.952701E+04  2.990042E+02  1.760542E+04
       254   9 -2.207682E+04  7.667030E+04  6.909243E+04  3.661467E+04 -9.437814E+03  5.406035E+03
       254  10 -7.403502E+05 -7.308089E+04 -6.253102E+04  5.004312E+04  2.506610E-08  4.158973E-09
       254  11 -7.887324E+05 -9.101198E+04 -8.372256E+04  5.298148E+04  3.044332E-08  4.877067E-10
       254  12 -8.446423E+05 -1.266063E+05 -1.247808E+05  6.709945E+04  2.962760E-08 -1.771122E-10
       254  13 -4.334203E+05 -6.288991E+02 -7.435937E+03  5.183006E+04  2.515477E-09 -1.095204E-08
       254  14 -4.311196E+05 -5.419741E+03 -1.351750E+04  4.625624E+04 -4.690908E-09 -1.156051E-08
       254  15 -4.334377E+05 -2.496240E+04 -2.783855E+04  5.186219E+04 -2.394211E-09 -1.162572E-09
       254  16 -1.263984E+05  7.181785E+04  4.765552E+04  5.361787E+04 -2.529708E-08  5.126925E-09
       254  17 -7.338396E+04  8.016495E+04  5.668141E+04  3.952700E+04 -3.279828E-08  1.550419E-09
       254  18 -2.207692E+04  7.667025E+04  6.909221E+04  3.661471E+04 -2.751125E-08 -6.906579E-10
       254  19 -7.403501E+05 -7.308046E+04 -6.253028E+04  5.004313E+04 -7.857607E+02 -1.983273E+04
       254  20 -7.887316E+05 -9.101149E+04 -8.372085E+04  5.298183E+04 -2.449296E+04 -1.763924E+04
       254  21 -8.446398E+05 -1.266056E+05 -1.247764E+05  6.709966E+04 -4.820940E+04 -5.479964E+03
       254  22 -4.334202E+05 -6.284687E+02 -7.435143E+03  5.183015E+04 -5.414887E+03 -1.983830E+04
       254  23 -4.311193E+05 -5.419366E+03 -1.351662E+04  4.625642E+04 -1.239939E+04 -1.762220E+04
       254  24 -4.334373E+05 -2.496227E+04 -2.783779E+04  5.186227E+04 -1.939529E+04 -5.442285E+03
       254  25 -1.263982E+05  7.181830E+04  4.765645E+04  5.361803E+04 -1.004624E+04 -1.984389E+04
       254  26 -7.338388E+04  8.016528E+04  5.668199E+04  3.952701E+04 -2.990042E+02 -1.760542E+04
       254  27 -2.207682E+04  7.667030E+04  6.909243E+04  3.661467E+04  9.437814E+03 -5.406035E+03
       255   1 -8.366507E+04  7.218090E+04  6.110502E+04  2.352303E+03 -1.764809E+04 -5.913518E+03
       255   2 -1.131398E+05  1.032735E+05  7.195564E+04  7.385584E+03 -1.600499E+04 -1.855920E+04
       255   3 -1.523446E+05  9.620625E+04  7.221291E+04  2.690395E+04 -1.437632E+04 -1.942304E+04
       255   4 -5.372066E+05 -4.052402E+04 -4.899237E+04  2.060659E+04 -3.364688E+04 -5.934033E+03
       255   5 -5.314441E+05  7.682819E+02 -2.222549E+04  1.333512E+04 -2.183178E+04 -1.856825E+04
       255   6 -5.371875E+05  2.119412E+03 -1.312565E+04  2.054968E+04 -1.003079E+04 -1.941714E+04
       255   7 -9.905590E+05 -1.532426E+05 -1.591035E+05  3.884745E+04 -4.963401E+04 -5.955498E+03
       255   8 -9.495855E+05 -1.017488E+05 -1.164176E+05  1.928055E+04 -2.765468E+04 -1.857743E+04
       255   9 -9.218919E+05 -9.197728E+04 -9.847331E+04  1.419934E+04 -5.687925E+03 -1.941133E+04
       255  10 -8.366541E+04  7.218078E+04  6.110436E+04  2.352219E+03 -4.737767E-09  5.418260E-10
       255  11 -1.131401E+05  1.032731E+05  7.195451E+04  7.385345E+03 -4.711892E-10  3.438459E-09
       255  12 -1.523449E+05  9.620579E+04  7.221181E+04  2.690373E+04  1.780423E-09  1.039894E-09
       255  13 -5.372079E+05 -4.052436E+04 -4.899456E+04  2.060643E+04  3.640821E-10 -1.720471E-09
       255  14 -5.314447E+05  7.677837E+02 -2.222703E+04  1.333479E+04 -1.563105E-09 -3.488416E-09
       255  15 -5.371877E+05  2.118980E+03 -1.312655E+04  2.054952E+04 -7.681723E-10 -9.345597E-10
       255  16 -9.905617E+05 -1.532433E+05 -1.591082E+05  3.884721E+04  3.180503E-09  6.961832E-10
       255  17 -9.495864E+05 -1.017494E+05 -1.164197E+05  1.928013E+04 -1.489519E-09  5.576979E-09
       255  18 -9.218920E+05 -9.197769E+04 -9.847408E+04  1.419925E+04 -3.290302E-09 -1.403442E-10
       255  19 -8.366507E+04  7.218090E+04  6.110502E+04  2.352303E+03  1.764809E+04  5.913518E+03
       255  20 -1.131398E+05  1.032735E+05  7.195564E+04  7.385584E+03  1.600499E+04  1.855920E+04
       255  21 -1.523446E+05  9.620625E+04  7.221291E+04  2.690395E+04  1.437632E+04  1.942304E+04
       255  22 -5.372066E+05 -4.052402E+04 -4.899237E+04  2.060659E+04  3.364688E+04  5.934033E+03
       255  23 -5.314441E+05  7.682819E+02 -2.222549E+04  1.333512E+04  2.183178E+04  1.856825E+04
       255  24 -5.371875E+05  2.119412E+03 -1.312565E+04  2.054968E+04  1.003079E+04  1.941714E+04
       255  25 -9.905590E+05 -1.532426E+05 -1.591035E+05  3.884745E+04  4.963401E+04  5.955498E+03
       255  26 -9.495855E+05 -1.017488E+05 -1.164176E+05  1.928055E+04  2.765468E+04  1.857743E+04
       255  27 -9.218919E+05 -9.197728E+04 -9.847331E+04  1.419934E+04  5.687925E+03  1.941133E+04
       256   1 -1.792482E+05  8.464617E+04  6.880280E+04  2.029130E+04 -9.005406E+03 -1.719063E+04
       256   2 -2.133281E+05  7.862444E+04  6.568465E+04  1.336826E+04 -6.628494E+03 -1.594050E+04
       256   3 -2.483212E+05  7.027504E+04  6.043217E+04  2.153385E+04 -4.253353E+03 -1.415788E+04
       256   4 -5.348488E+05 -2.353331E+03 -1.046982E+04  2.070154E+04 -8.155630E+03 -1.718998E+04
       256   5 -5.343473E+05  1.292169E+02 -5.642704E+03  1.315480E+04 -5.320221E+03 -1.593886E+04
       256   6 -5.348410E+05  2.035857E+02 -3.269561E+03  2.069722E+04 -2.486459E+03 -1.415512E+04
       256   7 -8.903315E+05 -8.936142E+04 -8.975035E+04  2.111150E+04 -7.306335E+03 -1.718934E+04
       256   8 -8.552704E+05 -7.837299E+04 -7.697647E+04  1.294142E+04 -4.012616E+03 -1.593723E+04
       256   9 -8.212843E+05 -6.987342E+04 -6.697640E+04  1.986095E+04 -7.203715E+02 -1.415236E+04
       256  10 -1.792483E+05  8.464583E+04  6.880209E+04  2.029117E+04 -3.673388E-09 -9.125193E-10
       256  11 -2.133282E+05  7.862416E+04  6.568409E+04  1.336818E+04 -1.861774E-10  3.334781E-09
       256  12 -2.483213E+05  7.027482E+04  6.043176E+04  2.153380E+04 -2.637400E-10  4.658495E-09
       256  13 -5.348489E+05 -2.353666E+03 -1.047050E+04  2.070143E+04 -2.519394E-09  4.294144E-09
       256  14 -5.343474E+05  1.289365E+02 -5.643234E+03  1.315474E+04 -5.749916E-09 -8.277344E-09
       256  15 -5.348411E+05  2.033689E+02 -3.269949E+03  2.069720E+04 -3.017186E-10  5.082371E-09
       256  16 -8.903316E+05 -8.936175E+04 -8.975101E+04  2.111139E+04  1.899696E-09 -3.656809E-09
       256  17 -8.552705E+05 -7.837326E+04 -7.697698E+04  1.294137E+04 -6.250192E-09 -1.260598E-09
       256  18 -8.212843E+05 -6.987364E+04 -6.697678E+04  1.986094E+04 -1.665913E-10  1.940524E-09
       256  19 -1.792482E+05  8.464617E+04  6.880280E+04  2.029130E+04  9.005406E+03  1.719063E+04
       256  20 -2.133281E+05  7.862444E+04  6.568465E+04  1.336826E+04  6.628494E+03  1.594050E+04
       256  21 -2.483212E+05  7.027504E+04  6.043217E+04  2.153385E+04  4.253353E+03  1.415788E+04
       256  22 -5.348488E+05 -2.353331E+03 -1.046982E+04  2.070154E+04  8.155630E+03  1.718998E+04
       256  23 -5.343473E+05  1.292169E+02 -5.642704E+03  1.315480E+04  5.320221E+03  1.593886E+04
       256  24 -5.348410E+05  2.035857E+02 -3.269561E+03  2.069722E+04  2.486459E+03  1.415512E+04
       256  25 -8.903315E+05 -8.936142E+04 -8.975035E+04  2.111150E+04  7.306335E+03  1.718934E+04
       256  26 -8.552704E+05 -7.837299E+04 -7.697647E+04  1.294142E+04  4.012616E+03  1.593723E+04
       256  27 -8.212843E+05 -6.987342E+04 -6.697640E+04  1.986095E+04  7.203715E+02  1.415236E+04
       257   1 -2.774008E+05  6.282285E+04  5.451614E+04  2.111610E+04 -3.593146E+03 -1.299675E+04
       257   2 -3.120940E+05  5.445922E+04  4.794703E+04  1.347707E+04 -2.901217E+03 -1.111371E+04
       257   3 -3.469534E+05  4.600637E+04  4.089230E+04  2.106070E+04 -2.209937E+03 -9.203258E+03
       257   4 -5.346543E+05 -5.860116E+01 -2.519158E+03  2.072831E+04 -1.979170E+03 -1.299410E+04
       257   5 -5.345665E+05  6.400520E+01 -1.448869E+03  1.311666E+04 -1.263861E+03 -1.111079E+04
       257   6 -5.346496E+05  9.346066E+01 -8.804463E+02  2.072801E+04 -5.491627E+02 -9.200068E+03
       257   7 -7.918459E+05 -6.294452E+04 -5.955855E+04  2.034064E+04 -3.658555E+02 -1.299145E+04
       257   8 -7.569927E+05 -5.433456E+04 -5.084784E+04  1.275636E+04  3.729143E+02 -1.110788E+04
       257   9 -7.223129E+05 -4.582183E+04 -4.265538E+04  2.039541E+04  1.111115E+03 -9.196879E+03
       257  10 -2.774009E+05  6.282266E+04  5.451580E+04  2.111607E+04 -1.955802E-09 -2.464547E-09
       257  11 -3.120940E+05  5.445909E+04  4.794679E+04  1.347704E+04  1.000794E-09 -2.587532E-09
       257  12 -3.469534E+05  4.600627E+04  4.089213E+04  2.106068E+04 -3.923326E-09 -1.854192E-09
       257  13 -5.346543E+05 -5.878347E+01 -2.519483E+03  2.072829E+04 -8.697265E-12  1.566472E-10
       257  14 -5.345665E+05  6.387224E+01 -1.449104E+03  1.311665E+04 -1.401215E-09 -3.402960E-09
       257  15 -5.346496E+05  9.336971E+01 -8.806059E+02  2.072801E+04  4.138245E-09 -5.029360E-09
       257  16 -7.918460E+05 -6.294470E+04 -5.955887E+04  2.034064E+04 -4.138056E-10 -3.037558E-09
       257  17 -7.569927E+05 -5.433469E+04 -5.084807E+04  1.275636E+04 -9.300660E-10  2.741295E-09
       257  18 -7.223129E+05 -4.582192E+04 -4.265554E+04  2.039542E+04  4.172329E-09  8.005975E-09
       257  19 -2.774008E+05  6.282285E+04  5.451614E+04  2.111610E+04  3.593146E+03  1.299675E+04
       257  20 -3.120940E+05  5.445922E+04  4.794703E+04  1.347707E+04  2.901217E+03  1.111371E+04
       257  21 -3.469534E+05  4.600637E+04  4.089230E+04  2.106070E+04  2.209937E+03  9.203258E+03
       257  22 -5.346543E+05 -5.860116E+01 -2.519158E+03  2.072831E+04  1.979170E+03  1.299410E+04
       257  23 -5.345665E+05  6.400520E+01 -1.448869E+03  1.311666E+04  1.263861E+03  1.111079E+04
       257  24 -5.346496E+05  9.346066E+01 -8.804463E+02  2.072801E+04  5.491627E+02  9.200068E+03
       257  25 -7.918459E+05 -6.294452E+04 -5.955855E+04  2.034064E+04  3.658555E+02  1.299145E+04
       257  26 -7.569927E+05 -5.433456E+04 -5.084784E+04  1.275636E+04 -3.729143E+02  1.110788E+04
       257  27 -7.223129E+05 -4.582183E+04 -4.265538E+04  2.039541E+04 -1.111115E+03  9.196879E+03
       258   1 -3.763607E+05  3.875938E+04  3.433146E+04  2.100704E+04 -2.064183E+03 -8.084397E+03
       258   2 -4.112479E+05  3.021850E+04  2.686445E+04  1.329957E+04 -1.813685E+03 -6.164641E+03
       258   3 -4.462276E+05  2.173024E+04  1.923020E+04  2.088359E+04 -1.563525E+03 -4.241749E+03
       258   4 -5.346301E+05  8.040520E+01 -7.109108E+02  2.074337E+04 -4.080197E+02 -8.081107E+03
       258   5 -5.345819E+05  6.140826E+01 -5.198627E+02  1.309752E+04 -1.549091E+02 -6.161222E+03
       258   6 -5.346276E+05  9.463997E+01 -4.978530E+02  2.074334E+04  9.787636E+01 -4.238196E+03
       258   7 -6.928762E+05 -3.860026E+04 -3.575483E+04  2.047975E+04  1.247726E+03 -8.077817E+03
       258   8 -6.579016E+05 -3.009671E+04 -2.790511E+04  1.289550E+04  1.503540E+03 -6.157804E+03
       258   9 -6.230204E+05 -2.154149E+04 -2.022639E+04  2.060311E+04  1.759044E+03 -4.234645E+03
       258  10 -3.763607E+05  3.875931E+04  3.433133E+04  2.100703E+04  1.140495E-08 -4.692829E-09
       258  11 -4.112479E+05  3.021846E+04  2.686437E+04  1.329956E+04  5.119537E-10  8.579362E-10
       258  12 -4.462276E+05  2.173022E+04  1.923016E+04  2.088358E+04 -1.272539E-08  1.984404E-09
       258  13 -5.346302E+05  8.033505E+01 -7.110338E+02  2.074336E+04  2.140605E-09 -1.051209E-09
       258  14 -5.345819E+05  6.136751E+01 -5.199340E+02  1.309752E+04  6.300093E-09 -2.841313E-09
       258  15 -5.346276E+05  9.462068E+01 -4.978867E+02  2.074334E+04  9.174284E-10 -2.195586E-09
       258  16 -6.928762E+05 -3.860033E+04 -3.575495E+04  2.047976E+04 -1.158981E-08  3.934527E-09
       258  17 -6.579016E+05 -3.009675E+04 -2.790519E+04  1.289551E+04 -3.770054E-09  7.353320E-09
       258  18 -6.230204E+05 -2.154151E+04 -2.022643E+04  2.060311E+04  1.266594E-08  4.566126E-09
       258  19 -3.763607E+05  3.875938E+04  3.433146E+04  2.100704E+04  2.064183E+03  8.084397E+03
       258  20 -4.112479E+05  3.021850E+04  2.686445E+04  1.329957E+04  1.813685E+03  6.164641E+03
       258  21 -4.462276E+05  2.173024E+04  1.923020E+04  2.088359E+04  1.563525E+03  4.241749E+03
       258  22 -5.346301E+05  8.040520E+01 -7.109108E+02  2.074337E+04  4.080197E+02  8.081107E+03
       258  23 -5.345819E+05  6.140826E+01 -5.198627E+02  1.309752E+04  1.549091E+02  6.161222E+03
       258  24 -5.346276E+05  9.463997E+01 -4.978530E+02  2.074334E+04 -9.787636E+01  4.238196E+03
       258  25 -6.928762E+05 -3.860026E+04 -3.575483E+04  2.047975E+04 -1.247726E+03  8.077817E+03
       258  26 -6.579016E+05 -3.009671E+04 -2.790511E+04  1.289550E+04 -1.503540E+03  6.157804E+03
       258  27 -6.230204E+05 -2.154149E+04 -2.022639E+04  2.060311E+04 -1.759044E+03  4.234645E+03
       259   1 -4.757514E+05  1.447296E+04  1.242966E+04  2.083658E+04 -1.472437E+03 -3.121363E+03
       259   2 -5.106908E+05  5.909315E+03  4.530899E+03  1.310432E+04 -1.094776E+03 -1.195558E+03
       259   3 -5.457491E+05 -2.609753E+03 -3.621889E+03  2.069298E+04 -7.172035E+02  7.299972E+02
       259   4 -5.346325E+05  9.496275E+01 -5.450091E+02  2.074985E+04  1.898779E+02 -3.117762E+03
       259   5 -5.345721E+05  6.976882E+01 -7.717464E+02  1.308938E+04  5.672559E+02 -1.191936E+03
       259   6 -5.346322E+05  8.914059E+01 -1.252409E+03  2.074986E+04  9.445669E+02  7.336457E+02
       259   7 -5.935104E+05 -1.428326E+04 -1.351988E+04  2.066312E+04  1.852037E+03 -3.114161E+03
       259   8 -5.584528E+05 -5.769814E+03 -6.074417E+03  1.307443E+04  2.229225E+03 -1.188313E+03
       259   9 -5.235150E+05  2.788027E+03  1.117074E+03  2.080674E+04  2.606367E+03  7.372945E+02
       259  10 -4.757514E+05  1.447294E+04  1.242964E+04  2.083657E+04  2.839035E-09  1.257446E-09
       259  11 -5.106908E+05  5.909313E+03  4.530894E+03  1.310432E+04 -4.102115E-09 -6.687825E-09
       259  12 -5.457491E+05 -2.609753E+03 -3.621891E+03  2.069298E+04 -1.215723E-08 -1.863496E-09
       259  13 -5.346325E+05  9.495231E+01 -5.450274E+02  2.074985E+04  1.752941E-09  6.161209E-09
       259  14 -5.345721E+05  6.976721E+01 -7.717497E+02  1.308938E+04  1.019586E-08 -4.343295E-10
       259  15 -5.346322E+05  8.913977E+01 -1.252412E+03  2.074986E+04  4.291798E-09 -2.551447E-09
       259  16 -5.935104E+05 -1.428327E+04 -1.351990E+04  2.066312E+04 -8.778315E-10  3.009783E-09
       259  17 -5.584528E+05 -5.769817E+03 -6.074429E+03  1.307444E+04  1.200998E-09 -9.323562E-09
       259  18 -5.235151E+05  2.788025E+03  1.117060E+03  2.080674E+04  1.380306E-08 -5.065848E-09
       259  19 -4.757514E+05  1.447296E+04  1.242966E+04  2.083658E+04  1.472437E+03  3.121363E+03
       259  20 -5.106908E+05  5.909315E+03  4.530899E+03  1.310432E+04  1.094776E+03  1.195558E+03
       259  21 -5.457491E+05 -2.609753E+03 -3.621889E+03  2.069298E+04  7.172035E+02 -7.299972E+02
       259  22 -5.346325E+05  9.496275E+01 -5.450091E+02  2.074985E+04 -1.898779E+02  3.117762E+03
       259  23 -5.345721E+05  6.976882E+01 -7.717464E+02  1.308938E+04 -5.672559E+02  1.191936E+03
       259  24 -5.346322E+05  8.914059E+01 -1.252409E+03  2.074986E+04 -9.445669E+02 -7.336457E+02
       259  25 -5.935104E+05 -1.428326E+04 -1.351988E+04  2.066312E+04 -1.852037E+03  3.114161E+03
       259  26 -5.584528E+05 -5.769814E+03 -6.074417E+03  1.307443E+04 -2.229225E+03  1.188313E+03
       259  27 -5.235150E+05  2.788027E+03  1.117074E+03  2.080674E+04 -2.606367E+03 -7.372945E+02
       260   1 -5.753288E+05 -9.846317E+03 -1.074789E+04  2.058926E+04 -4.652397E+02  1.852899E+03
       260   2 -6.101423E+05 -1.839608E+04 -1.957199E+04  1.290010E+04  9.230801E+02  3.776939E+03
       260   3 -6.452758E+05 -2.718597E+04 -2.937940E+04  2.052064E+04  2.311573E+03  5.683390E+03
       260   4 -5.346764E+05  1.152402E+02 -1.621125E+03  2.074714E+04  1.200976E+03  1.856540E+03
       260   5 -5.345184E+05  9.810001E+01 -2.777060E+03  1.309265E+04  2.574237E+03  3.780469E+03
       260   6 -5.346784E+05 -1.562976E+02 -4.905537E+03  2.074774E+04  3.947748E+03  5.686814E+03
       260   7 -4.940224E+05  1.007669E+04  7.505542E+03  2.090504E+04  2.867301E+03  1.860183E+03
       260   8 -4.588892E+05  1.859189E+04  1.401752E+04  1.328522E+04  4.225594E+03  3.783999E+03
       260   9 -4.240695E+05  2.687255E+04  1.956758E+04  2.097487E+04  5.584211E+03  5.690239E+03
       260  10 -5.753288E+05 -9.846320E+03 -1.074789E+04  2.058926E+04  4.471669E-09  4.657057E-10
       260  11 -6.101423E+05 -1.839609E+04 -1.957201E+04  1.290010E+04  2.626617E-09 -6.487435E-09
       260  12 -6.452758E+05 -2.718601E+04 -2.937948E+04  2.052063E+04 -1.960258E-11 -2.564112E-09
       260  13 -5.346764E+05  1.152361E+02 -1.621135E+03  2.074714E+04 -3.443124E-11 -3.901372E-11
       260  14 -5.345185E+05  9.808289E+01 -2.777099E+03  1.309264E+04  2.657428E-09  9.313317E-10
       260  15 -5.346784E+05 -1.563365E+02 -4.905627E+03  2.074772E+04  9.146330E-10  5.001323E-10
       260  16 -4.940224E+05  1.007668E+04  7.505520E+03  2.090503E+04 -2.669721E-09  2.460284E-09
       260  17 -4.588892E+05  1.859187E+04  1.401746E+04  1.328521E+04 -3.349682E-09 -3.426359E-09
       260  18 -4.240696E+05  2.687251E+04  1.956746E+04  2.097485E+04 -1.689535E-10  3.400220E-09
       260  19 -5.753288E+05 -9.846317E+03 -1.074789E+04  2.058926E+04  4.652397E+02 -1.852899E+03
       260  20 -6.101423E+05 -1.839608E+04 -1.957199E+04  1.290010E+04 -9.230801E+02 -3.776939E+03
       260  21 -6.452758E+05 -2.718597E+04 -2.937940E+04  2.052064E+04 -2.311573E+03 -5.683390E+03
       260  22 -5.346764E+05  1.152402E+02 -1.621125E+03  2.074714E+04 -1.200976E+03 -1.856540E+03
       260  23 -5.345184E+05  9.810001E+01 -2.777060E+03  1.309265E+04 -2.574237E+03 -3.780469E+03
       260  24 -5.346784E+05 -1.562976E+02 -4.905537E+03  2.074774E+04 -3.947748E+03 -5.686814E+03
       260  25 -4.940224E+05  1.007669E+04  7.505542E+03  2.090504E+04 -2.867301E+03 -1.860183E+03
       260  26 -4.588892E+05  1.859189E+04  1.401752E+04  1.328522E+04 -4.225594E+03 -3.783999E+03
       260  27 -4.240695E+05  2.687255E+04  1.956758E+04  2.097487E+04 -5.584211E+03 -5.690239E+03
       261   1 -6.751249E+05 -3.391991E+04 -3.758903E+04  1.964112E+04  3.196130E+03  6.838582E+03
       261   2 -7.089726E+05 -4.252876E+04 -4.992872E+04  1.322953E+04  9.061594E+03  8.684914E+03
       261   3 -7.448569E+05 -5.596710E+04 -6.731302E+04  2.206853E+04  1.492785E+04  1.016372E+04
       261   4 -5.350498E+05  3.593725E+02 -6.388065E+03  2.073147E+04  4.938862E+03  6.842155E+03
       261   5 -5.340618E+05  2.534314E+02 -1.104507E+04  1.311135E+04  1.048844E+04  8.687648E+03
       261   6 -5.350559E+05 -4.626136E+03 -2.052597E+04  2.074160E+04  1.603913E+04  1.016564E+04
       261   7 -3.949563E+05  3.463733E+04  2.481168E+04  2.182207E+04  6.681984E+03  6.845734E+03
       261   8 -3.591225E+05  4.303355E+04  2.783668E+04  1.299312E+04  1.191568E+04  8.690381E+03
       261   9 -3.252139E+05  4.671184E+04  2.625832E+04  1.941420E+04  1.715079E+04  1.016756E+04
       261  10 -6.751249E+05 -3.391996E+04 -3.758914E+04  1.964110E+04  5.658239E-09 -2.424613E-09
       261  11 -7.089727E+05 -4.252887E+04 -4.992902E+04  1.322947E+04  2.099176E-09  3.184520E-10
       261  12 -7.448572E+05 -5.596727E+04 -6.731363E+04  2.206841E+04 -6.781057E-09 -3.928184E-09
       261  13 -5.350498E+05  3.593157E+02 -6.388199E+03  2.073145E+04 -6.862121E-10 -5.199933E-09
       261  14 -5.340620E+05  2.533208E+02 -1.104542E+04  1.311128E+04 -4.025081E-11  6.583957E-09
       261  15 -5.350563E+05 -4.626316E+03 -2.052665E+04  2.074147E+04 -6.722703E-10 -3.070273E-09
       261  16 -3.949564E+05  3.463726E+04  2.481151E+04  2.182204E+04 -4.400185E-09 -2.981610E-09
       261  17 -3.591227E+05  4.303344E+04  2.783627E+04  1.299303E+04 -1.832737E-09 -9.759269E-09
       261  18 -3.252142E+05  4.671165E+04  2.625757E+04  1.941406E+04  3.910657E-09  8.921897E-10
       261  19 -6.751249E+05 -3.391991E+04 -3.758903E+04  1.964112E+04 -3.196130E+03 -6.838582E+03
       261  20 -7.089726E+05 -4.252876E+04 -4.992872E+04  1.322953E+04 -9.061594E+03 -8.684914E+03
       261  21 -7.448569E+05 -5.596710E+04 -6.731302E+04  2.206853E+04 -1.492785E+04 -1.016372E+04
       261  22 -5.350498E+05  3.593725E+02 -6.388065E+03  2.073147E+04 -4.938862E+03 -6.842155E+03
       261  23 -5.340618E+05  2.534314E+02 -1.104507E+04  1.311135E+04 -1.048844E+04 -8.687648E+03
       261  24 -5.350559E+05 -4.626136E+03 -2.052597E+04  2.074160E+04 -1.603913E+04 -1.016564E+04
       261  25 -3.949563E+05  3.463733E+04  2.481168E+04  2.182207E+04 -6.681984E+03 -6.845734E+03
       261  26 -3.591225E+05  4.303355E+04  2.783668E+04  1.299312E+04 -1.191568E+04 -8.690381E+03
       261  27 -3.252139E+05  4.671184E+04  2.625832E+04  1.941420E+04 -1.715079E+04 -1.016756E+04
       262   1 -7.789128E+05 -5.441059E+04 -7.884759E+04  8.675404E+03  1.619101E+04  1.205636E+04
       262   2 -8.017978E+05 -6.546754E+04 -1.052116E+05  2.537352E+04  4.635152E+04  1.212084E+04
       262   3 -8.485743E+05 -1.561835E+05 -1.711509E+05  5.698357E+04  7.652376E+04  4.035982E+03
       262   4 -5.396505E+05  4.153580E+03 -2.573916E+04  2.062048E+04  1.971928E+04  1.206318E+04
       262   5 -5.283329E+05  1.539640E+03 -4.357340E+04  1.323926E+04  4.285294E+04  1.211309E+04
       262   6 -5.396773E+05 -7.949539E+04 -9.608902E+04  2.077186E+04  6.600048E+04  4.012926E+03
       262   7 -3.003344E+05  6.271441E+04  2.736583E+04  3.257019E+04  2.324890E+04  1.207013E+04
       262   8 -2.547980E+05  6.854226E+04  1.806016E+04  1.099560E+03  3.935284E+04  1.210548E+04
       262   9 -2.306900E+05 -2.809284E+03 -2.103292E+04 -1.545798E+04  5.547198E+04  3.991106E+03
       262  10 -7.789132E+05 -5.441082E+04 -7.884836E+04  8.675246E+03 -9.775297E-10 -3.468141E-09
       262  11 -8.018002E+05 -6.546827E+04 -1.052159E+05  2.537307E+04  4.205317E-09 -2.153469E-09
       262  12 -8.485806E+05 -1.561851E+05 -1.711619E+05  5.698332E+04 -9.407850E-10  3.518193E-09
       262  13 -5.396510E+05  4.153319E+03 -2.574016E+04  2.062029E+04  4.460827E-13  1.937260E-09
       262  14 -5.283349E+05  1.538989E+03 -4.357713E+04  1.323884E+04 -4.878509E-10  8.070104E-10
       262  15 -5.396820E+05 -7.949658E+04 -9.609725E+04  2.077165E+04 -1.190872E-09  4.468460E-09
       262  16 -3.003351E+05  6.271411E+04  2.736454E+04  3.256996E+04 -5.279696E-10  1.501833E-11
       262  17 -2.547997E+05  6.854169E+04  1.805697E+04  1.099176E+03 -8.028412E-09  5.561891E-09
       262  18 -2.306933E+05 -2.810128E+03 -2.103874E+04 -1.545816E+04 -2.038755E-09  5.858171E-10
       262  19 -7.789128E+05 -5.441059E+04 -7.884759E+04  8.675404E+03 -1.619101E+04 -1.205636E+04
       262  20 -8.017978E+05 -6.546754E+04 -1.052116E+05  2.537352E+04 -4.635152E+04 -1.212084E+04
       262  21 -8.485743E+05 -1.561835E+05 -1.711509E+05  5.698357E+04 -7.652376E+04 -4.035982E+03
       262  22 -5.396505E+05  4.153580E+03 -2.573916E+04  2.062048E+04 -1.971928E+04 -1.206318E+04
       262  23 -5.283329E+05  1.539640E+03 -4.357340E+04  1.323926E+04 -4.285294E+04 -1.211309E+04
       262  24 -5.396773E+05 -7.949539E+04 -9.608902E+04  2.077186E+04 -6.600048E+04 -4.012926E+03
       262  25 -3.003344E+05  6.271441E+04  2.736583E+04  3.257019E+04 -2.324890E+04 -1.207013E+04
       262  26 -2.547980E+05  6.854226E+04  1.806016E+04  1.099560E+03 -3.935284E+04 -1.210548E+04
       262  27 -2.306900E+05 -2.809284E+03 -2.103292E+04 -1.545798E+04 -5.547198E+04 -3.991106E+03

 stresses (elem, integ.pnt.,sxx,syy,szz,sxy,sxz,syz) for set ELALL and time  0.1000000E+01

         1   1  5.038359E+04  1.976153E+05  2.589345E+05  3.322651E+03  1.766629E+05  9.454411E-01
         1   2  1.055263E+04 -4.782553E+04  1.102960E+05  8.324352E+02  1.163018E+05  1.559396E-01
         1   3  5.037546E+04 -6.108391E+03  7.275947E+04 -1.657687E+03  5.593857E+04 -1.493507E-01
         1   4  5.038358E+04  1.976153E+05  2.589345E+05  7.124472E-08  1.766629E+05 -2.245319E-10
         1   5  1.055263E+04 -4.782553E+04  1.102960E+05 -4.363568E-07  1.163018E+05  3.618373E-10
         1   6  5.037546E+04 -6.108396E+03  7.275947E+04 -4.791496E-08  5.593857E+04 -5.838498E-10
         1   7  5.038359E+04  1.976153E+05  2.589345E+05 -3.322651E+03  1.766629E+05 -9.454411E-01
         1   8  1.055263E+04 -4.782553E+04  1.102960E+05 -8.324352E+02  1.163018E+05 -1.559396E-01
         1   9  5.037546E+04 -6.108391E+03  7.275947E+04  1.657687E+03  5.593857E+04  1.493507E-01
         1  10  5.035009E+04  1.976069E+05  2.588759E+05  3.322651E+03 -4.320011E-09  7.252520E-11
         1  11  1.053810E+04 -4.782916E+04  1.102706E+05  8.324352E+02  3.228252E-09  1.334067E-09
         1  12  5.037210E+04 -6.109230E+03  7.275359E+04 -1.657687E+03  1.301188E-09  6.107964E-10
         1  13  5.035007E+04  1.976069E+05  2.588759E+05 -2.044822E-07  4.325368E-09  3.697629E-11
         1  14  1.053810E+04 -4.782916E+04  1.102706E+05  3.906942E-07 -1.077096E-08 -1.050913E-10
         1  15  5.037210E+04 -6.109236E+03  7.275359E+04 -9.439439E-07  1.925194E-14  2.915647E-10
         1  16  5.035009E+04  1.976069E+05  2.588759E+05 -3.322651E+03  2.157319E-09  1.392397E-12
         1  17  1.053810E+04 -4.782916E+04  1.102706E+05 -8.324352E+02  1.292818E-08  1.148156E-09
         1  18  5.037210E+04 -6.109230E+03  7.275359E+04  1.657687E+03  5.910073E-09  7.800509E-10
         1  19  5.038359E+04  1.976153E+05  2.589345E+05  3.322651E+03 -1.766629E+05 -9.454411E-01
         1  20  1.055263E+04 -4.782553E+04  1.102960E+05  8.324352E+02 -1.163018E+05 -1.559396E-01
         1  21  5.037546E+04 -6.108391E+03  7.275947E+04 -1.657687E+03 -5.593857E+04  1.493507E-01
         1  22  5.038358E+04  1.976153E+05  2.589345E+05  6.226953E-07 -1.766629E+05  3.775794E-10
         1  23  1.055263E+04 -4.782553E+04  1.102960E+05  1.217746E-06 -1.163018E+05 -1.058737E-09
         1  24  5.037546E+04 -6.108396E+03  7.275947E+04  8.136542E-07 -5.593857E+04  7.285733E-10
         1  25  5.038359E+04  1.976153E+05  2.589345E+05 -3.322651E+03 -1.766629E+05  9.454411E-01
         1  26  1.055263E+04 -4.782553E+04  1.102960E+05 -8.324352E+02 -1.163018E+05  1.559396E-01
         1  27  5.037546E+04 -6.108391E+03  7.275947E+04  1.657687E+03 -5.593857E+04 -1.493507E-01
         2   1  3.561689E+04  3.104394E+04  6.029178E+04  5.003932E+02  4.382382E+04  3.532038E-02
         2   2  2.899399E+04 -7.520150E+03  2.856085E+04  1.175010E+02  2.879015E+04  5.448681E-03
         2   3  3.561677E+04 -9.322233E+02  1.790625E+04 -2.653905E+02  1.375656E+04 -5.880263E-03
         2   4  3.561689E+04  3.104394E+04  6.029178E+04  1.696427E-07  4.382382E+04  5.592331E-11
         2   5  2.899399E+04 -7.520150E+03  2.856085E+04 -1.025847E-06  2.879015E+04  4.907400E-10
         2   6  3.561677E+04 -9.322234E+02  1.790625E+04  1.566011E-07  1.375656E+04  4.112819E-11
         2   7  3.561689E+04  3.104394E+04  6.029178E+04 -5.003932E+02  4.382382E+04 -3.532038E-02
         2   8  2.899399E+04 -7.520150E+03  2.856085E+04 -1.175010E+02  2.879015E+04 -5.448683E-03
         2   9  3.561677E+04 -9.322233E+02  1.790625E+04  2.653905E+02  1.375656E+04  5.880264E-03
         2  10  3.561483E+04  3.104343E+04  6.028817E+04  5.003932E+02  2.156536E-09 -3.170601E-10
         2  11  2.899310E+04 -7.520372E+03  2.855929E+04  1.175010E+02 -4.304526E-09 -3.252401E-11
         2  12  3.561657E+04 -9.322741E+02  1.790589E+04 -2.653905E+02  8.071129E-10  5.780444E-11
         2  13  3.561483E+04  3.104343E+04  6.028817E+04 -1.208905E-06 -4.308674E-09  2.681190E-10
         2  14  2.899310E+04 -7.520373E+03  2.855929E+04 -1.301551E-06 -2.155429E-09 -8.114785E-11
         2  15  3.561657E+04 -9.322742E+02  1.790589E+04  1.910647E-07  5.919848E-09 -1.304503E-10
         2  16  3.561483E+04  3.104343E+04  6.028817E+04 -5.003932E+02  2.140008E-09 -2.137121E-10
         2  17  2.899310E+04 -7.520372E+03  2.855929E+04 -1.175010E+02  5.379651E-09 -7.245186E-11
         2  18  3.561657E+04 -9.322741E+02  1.790589E+04  2.653905E+02  7.263626E-09 -3.426774E-10
         2  19  3.561689E+04  3.104394E+04  6.029178E+04  5.003932E+02 -4.382382E+04 -3.532038E-02
         2  20  2.899399E+04 -7.520150E+03  2.856085E+04  1.175010E+02 -2.879015E+04 -5.448681E-03
         2  21  3.561677E+04 -9.322233E+02  1.790625E+04 -2.653905E+02 -1.375656E+04  5.880264E-03
         2  22  3.561689E+04  3.104394E+04  6.029178E+04  7.210613E-07 -4.382382E+04  8.813859E-10
         2  23  2.899399E+04 -7.520150E+03  2.856085E+04 -8.879951E-07 -2.879015E+04 -5.124030E-10
         2  24  3.561677E+04 -9.322234E+02  1.790625E+04  7.080157E-07 -1.375656E+04 -3.853293E-10
         2  25  3.561689E+04  3.104394E+04  6.029178E+04 -5.003932E+02 -4.382382E+04  3.532038E-02
         2  26  2.899399E+04 -7.520150E+03  2.856085E+04 -1.175010E+02 -2.879015E+04  5.448681E-03
         2  27  3.561677E+04 -9.322233E+02  1.790625E+04  2.653905E+02 -1.375656E+04 -5.880265E-03
         3   1  3.317723E+04  4.852620E+03  1.440287E+04  7.302512E+01  1.082013E+04  1.272647E-03
         3   2  3.204311E+04 -1.181836E+03  7.393323E+03  1.509375E+01  7.022776E+03  1.707296E-04
         3   3  3.317731E+04 -1.205741E+02  4.629864E+03 -4.283683E+01  3.225489E+03 -2.225441E-04
         3   4  3.317723E+04  4.852620E+03  1.440287E+04  6.897505E-08  1.082013E+04 -1.385670E-10
         3   5  3.204311E+04 -1.181836E+03  7.393323E+03  5.954482E-07  7.022776E+03  1.647171E-13
         3   6  3.317731E+04 -1.205741E+02  4.629864E+03 -5.323240E-07  3.225489E+03 -1.905620E-10
         3   7  3.317723E+04  4.852620E+03  1.440287E+04 -7.302512E+01  1.082013E+04 -1.272647E-03
         3   8  3.204311E+04 -1.181836E+03  7.393323E+03 -1.509374E+01  7.022776E+03 -1.707299E-04
         3   9  3.317731E+04 -1.205741E+02  4.629864E+03  4.283682E+01  3.225489E+03  2.225440E-04
         3  10  3.317710E+04  4.852589E+03  1.440265E+04  7.302511E+01 -8.626287E-09  6.424289E-11
         3  11  3.204305E+04 -1.181849E+03  7.393230E+03  1.509374E+01  7.539964E-09  4.746704E-11
         3  12  3.317730E+04 -1.205768E+02  4.629844E+03 -4.283683E+01 -4.835387E-09 -5.014016E-11
         3  13  3.317710E+04  4.852589E+03  1.440265E+04  3.446837E-07 -6.957220E-13 -3.208923E-11
         3  14  3.204305E+04 -1.181849E+03  7.393230E+03 -9.382140E-08  2.154516E-09  1.536530E-10
         3  15  3.317730E+04 -1.205768E+02  4.629844E+03  8.802012E-08 -3.230452E-09 -6.936781E-11
         3  16  3.317710E+04  4.852589E+03  1.440265E+04 -7.302512E+01  4.317162E-09 -1.352490E-10
         3  17  3.204305E+04 -1.181849E+03  7.393230E+03 -1.509374E+01 -2.153857E-09  2.456332E-10
         3  18  3.317730E+04 -1.205768E+02  4.629844E+03  4.283683E+01  1.875055E-09 -5.835029E-11
         3  19  3.317723E+04  4.852620E+03  1.440287E+04  7.302511E+01 -1.082013E+04 -1.272647E-03
         3  20  3.204311E+04 -1.181836E+03  7.393323E+03  1.509374E+01 -7.022776E+03 -1.707297E-04
         3  21  3.317731E+04 -1.205741E+02  4.629864E+03 -4.283683E+01 -3.225489E+03  2.225440E-04
         3  22  3.317723E+04  4.852620E+03  1.440287E+04 -7.581505E-07 -1.082013E+04  6.776524E-11
         3  23  3.204311E+04 -1.181836E+03  7.393323E+03 -2.316753E-07 -7.022776E+03  3.123897E-10
         3  24  3.317731E+04 -1.205741E+02  4.629864E+03  1.909292E-08 -3.225489E+03  4.728410E-11
         3  25  3.317723E+04  4.852620E+03  1.440287E+04 -7.302512E+01 -1.082013E+04  1.272647E-03
         3  26  3.204311E+04 -1.181836E+03  7.393323E+03 -1.509374E+01 -7.022776E+03  1.707301E-04
         3  27  3.317731E+04 -1.205741E+02  4.629864E+03  4.283683E+01 -3.225489E+03 -2.225443E-04
         4   1  3.277913E+04  7.496375E+02  3.758624E+03  1.121763E+01  2.463984E+03  4.451855E-05
         4   2  3.254084E+04 -2.146027E+02  2.348969E+03  1.475813E+00  1.277385E+03  3.036556E-06
         4   3  3.277915E+04  1.095491E+02  2.033926E+03 -8.266153E+00  9.076910E+01 -1.208680E-06
         4   4  3.277913E+04  7.496375E+02  3.758624E+03 -5.583895E-07  2.463984E+03 -7.388593E-11
         4   5  3.254084E+04 -2.146027E+02  2.348969E+03 -4.902122E-08  1.277385E+03  1.856580E-10
         4   6  3.277915E+04  1.095491E+02  2.033926E+03  1.231177E-08  9.076910E+01  3.796640E-11
         4   7  3.277913E+04  7.496375E+02  3.758624E+03 -1.121763E+01  2.463984E+03 -4.451843E-05
         4   8  3.254084E+04 -2.146027E+02  2.348969E+03 -1.475812E+00  1.277385E+03 -3.035957E-06
         4   9  3.277915E+04  1.095491E+02  2.033926E+03  8.266153E+00  9.076910E+01  1.208545E-06
         4  10  3.277912E+04  7.496359E+02  3.758613E+03  1.121763E+01 -6.467428E-09 -1.305672E-10
         4  11  3.254084E+04 -2.146031E+02  2.348966E+03  1.475807E+00 -7.539084E-09  8.358913E-12
         4  12  3.277915E+04  1.095491E+02  2.033926E+03 -8.266154E+00  4.579863E-09  1.433528E-10
         4  13  3.277912E+04  7.496359E+02  3.758613E+03 -2.826807E-07 -4.307961E-09 -1.343792E-10
         4  14  3.254084E+04 -2.146031E+02  2.348966E+03 -3.247299E-07 -1.450744E-12  3.704765E-11
         4  15  3.277915E+04  1.095491E+02  2.033926E+03 -1.124987E-06 -4.848350E-09  4.683608E-11
         4  16  3.277912E+04  7.496359E+02  3.758613E+03 -1.121763E+01 -2.147643E-09 -1.634321E-10
         4  17  3.254084E+04 -2.146031E+02  2.348966E+03 -1.475812E+00  4.311740E-09  4.049279E-11
         4  18  3.277915E+04  1.095491E+02  2.033926E+03  8.266151E+00  4.307248E-09  1.275737E-11
         4  19  3.277913E+04  7.496375E+02  3.758624E+03  1.121763E+01 -2.463984E+03 -4.451897E-05
         4  20  3.254084E+04 -2.146027E+02  2.348969E+03  1.475810E+00 -1.277385E+03 -3.036569E-06
         4  21  3.277915E+04  1.095491E+02  2.033926E+03 -8.266149E+00 -9.076910E+01  1.208643E-06
         4  22  3.277913E+04  7.496375E+02  3.758624E+03  1.095863E-06 -2.463984E+03 -1.987410E-10
         4  23  3.254084E+04 -2.146027E+02  2.348969E+03 -1.868755E-07 -1.277385E+03 -9.545047E-11
         4  24  3.277915E+04  1.095491E+02  2.033926E+03  2.880206E-07 -9.076910E+01  7.232459E-11
         4  25  3.277913E+04  7.496375E+02  3.758624E+03 -1.121763E+01 -2.463984E+03  4.451845E-05
         4  26  3.254084E+04 -2.146027E+02  2.348969E+03 -1.475812E+00 -1.277385E+03  3.036361E-06
         4  27  3.277915E+04  1.095491E+02  2.033926E+03  8.266152E+00 -9.076910E+01 -1.208463E-06
         5   1  3.278817E+04  9.254487E+01  2.064612E+03  8.990335E+00 -2.810202E+02 -4.069440E-06
         5   2  3.252956E+04 -2.340483E+02  2.521372E+03 -1.665546E+00 -1.555179E+03  4.171527E-06
         5   3  3.278815E+04  8.445028E+02  4.158927E+03 -1.232142E+01 -2.829340E+03  5.614981E-05
         5   4  3.278817E+04  9.254487E+01  2.064612E+03  1.259197E-06 -2.810202E+02 -2.435734E-10
         5   5  3.252956E+04 -2.340483E+02  2.521372E+03 -7.379300E-07 -1.555179E+03 -3.183703E-10
         5   6  3.278815E+04  8.445028E+02  4.158927E+03  1.607355E-06 -2.829340E+03  1.965452E-10
         5   7  3.278817E+04  9.254487E+01  2.064612E+03 -8.990336E+00 -2.810202E+02  4.069009E-06
         5   8  3.252956E+04 -2.340483E+02  2.521372E+03  1.665544E+00 -1.555179E+03 -4.172099E-06
         5   9  3.278815E+04  8.445028E+02  4.158927E+03  1.232142E+01 -2.829340E+03 -5.614959E-05
         5  10  3.278817E+04  9.254485E+01  2.064612E+03  8.990337E+00 -4.304685E-09 -1.765060E-11
         5  11  3.252956E+04 -2.340490E+02  2.521368E+03 -1.665550E+00  1.076191E-09 -1.584676E-10
         5  12  3.278814E+04  8.445006E+02  4.158912E+03 -1.232142E+01  8.071095E-09  2.693215E-11
         5  13  3.278817E+04  9.254485E+01  2.064612E+03  1.563620E-07  4.304537E-09 -2.604613E-11
         5  14  3.252956E+04 -2.340490E+02  2.521368E+03 -4.622213E-07 -4.309674E-09 -8.654531E-11
         5  15  3.278814E+04  8.445006E+02  4.158912E+03  7.113017E-07  2.688974E-09  2.627713E-11
         5  16  3.278817E+04  9.254485E+01  2.064612E+03 -8.990335E+00  2.151955E-09 -5.968426E-11
         5  17  3.252956E+04 -2.340490E+02  2.521368E+03  1.665545E+00  3.231278E-09 -1.462409E-11
         5  18  3.278814E+04  8.445006E+02  4.158912E+03  1.232142E+01 -3.493092E-09  3.236351E-11
         5  19  3.278817E+04  9.254487E+01  2.064612E+03  8.990339E+00  2.810202E+02  4.069506E-06
         5  20  3.252956E+04 -2.340483E+02  2.521372E+03 -1.665545E+00  1.555179E+03 -4.171932E-06
         5  21  3.278815E+04  8.445028E+02  4.158927E+03 -1.232142E+01  2.829340E+03 -5.614997E-05
         5  22  3.278817E+04  9.254487E+01  2.064612E+03  1.810615E-06  2.810202E+02  1.869391E-10
         5  23  3.252956E+04 -2.340483E+02  2.521372E+03 -1.151493E-06  1.555179E+03  1.705152E-10
         5  24  3.278815E+04  8.445028E+02  4.158927E+03  1.366110E-06  2.829340E+03 -1.353749E-10
         5  25  3.278817E+04  9.254487E+01  2.064612E+03 -8.990338E+00  2.810202E+02 -4.068944E-06
         5  26  3.252956E+04 -2.340483E+02  2.521372E+03  1.665540E+00  1.555179E+03  4.172377E-06
         5  27  3.278815E+04  8.445028E+02  4.158927E+03  1.232142E+01  2.829340E+03  5.614980E-05
         6   1  3.323981E+04 -1.403194E+02  5.156212E+03  4.819386E+01 -3.674918E+03 -2.852605E-04
         6   2  3.196498E+04 -1.329141E+03  8.291197E+03 -1.697521E+01 -7.933902E+03  2.169237E-04
         6   3  3.323972E+04  5.462097E+03  1.619399E+04 -8.214321E+01 -1.219284E+04  1.613169E-03
         6   4  3.323981E+04 -1.403194E+02  5.156212E+03  4.444015E-07 -3.674918E+03  3.383365E-10
         6   5  3.196498E+04 -1.329141E+03  8.291197E+03 -1.911527E-06 -7.933902E+03 -1.353088E-10
         6   6  3.323972E+04  5.462097E+03  1.619399E+04  1.246689E-06 -1.219284E+04 -6.482912E-10
         6   7  3.323981E+04 -1.403194E+02  5.156212E+03 -4.819385E+01 -3.674918E+03  2.852611E-04
         6   8  3.196498E+04 -1.329141E+03  8.291197E+03  1.697520E+01 -7.933902E+03 -2.169236E-04
         6   9  3.323972E+04  5.462097E+03  1.619399E+04  8.214321E+01 -1.219284E+04 -1.613169E-03
         6  10  3.323979E+04 -1.403230E+02  5.156187E+03  4.819386E+01 -4.308648E-09  1.702516E-10
         6  11  3.196491E+04 -1.329158E+03  8.291079E+03 -1.697521E+01 -9.685618E-09 -1.582570E-12
         6  12  3.323956E+04  5.462057E+03  1.619371E+04 -8.214321E+01  2.167794E-09 -3.950717E-10
         6  13  3.323979E+04 -1.403230E+02  5.156187E+03 -1.070154E-07 -4.303764E-09  1.156418E-10
         6  14  3.196491E+04 -1.329158E+03  8.291079E+03 -8.086958E-07 -8.614519E-09  1.995741E-11
         6  15  3.323956E+04  5.462057E+03  1.619371E+04  8.331261E-07  2.694178E-09 -4.333246E-10
         6  16  3.323979E+04 -1.403230E+02  5.156187E+03 -4.819385E+01 -4.305981E-09  7.364971E-11
         6  17  3.196491E+04 -1.329158E+03  8.291079E+03  1.697521E+01 -4.450152E-12 -1.739482E-11
         6  18  3.323956E+04  5.462057E+03  1.619371E+04  8.214322E+01 -1.091830E-09 -5.473088E-10
         6  19  3.323981E+04 -1.403194E+02  5.156212E+03  4.819386E+01  3.674918E+03  2.852608E-04
         6  20  3.196498E+04 -1.329141E+03  8.291197E+03 -1.697521E+01  7.933902E+03 -2.169223E-04
         6  21  3.323972E+04  5.462097E+03  1.619399E+04 -8.214321E+01  1.219284E+04 -1.613169E-03
         6  22  3.323981E+04 -1.403194E+02  5.156212E+03  4.444016E-07  3.674918E+03 -8.145073E-11
         6  23  3.196498E+04 -1.329141E+03  8.291197E+03  1.562811E-07  7.933902E+03  1.553154E-10
         6  24  3.323972E+04  5.462097E+03  1.619399E+04  1.487934E-06  1.219284E+04 -2.194803E-10
         6  25  3.323981E+04 -1.403194E+02  5.156212E+03 -4.819386E+01  3.674918E+03 -2.852609E-04
         6  26  3.196498E+04 -1.329141E+03  8.291197E+03  1.697521E+01  7.933902E+03  2.169232E-04
         6  27  3.323972E+04  5.462097E+03  1.619399E+04  8.214322E+01  1.219284E+04  1.613167E-03
         7   1  3.598627E+04 -1.050025E+03  2.014165E+04  2.987226E+02 -1.549544E+04 -7.455441E-03
         7   2  2.853222E+04 -8.464383E+03  3.214054E+04 -1.322537E+02 -3.241307E+04  6.904540E-03
         7   3  3.598651E+04  3.494292E+04  6.785988E+04 -5.632375E+02 -4.933106E+04  4.475236E-02
         7   4  3.598627E+04 -1.050025E+03  2.014165E+04  1.347413E-06 -1.549544E+04  1.151956E-10
         7   5  2.853222E+04 -8.464383E+03  3.214054E+04  4.319738E-07 -3.241307E+04  1.263387E-09
         7   6  3.598651E+04  3.494292E+04  6.785988E+04  1.101857E-06 -4.933106E+04  1.826259E-09
         7   7  3.598627E+04 -1.050025E+03  2.014165E+04 -2.987226E+02 -1.549544E+04  7.455442E-03
         7   8  2.853222E+04 -8.464383E+03  3.214054E+04  1.322537E+02 -3.241307E+04 -6.904542E-03
         7   9  3.598651E+04  3.494292E+04  6.785988E+04  5.632375E+02 -4.933106E+04 -4.475236E-02
         7  10  3.598601E+04 -1.050090E+03  2.014120E+04  2.987226E+02 -2.554929E-11 -1.533506E-10
         7  11  2.853109E+04 -8.464665E+03  3.213857E+04 -1.322537E+02  3.229777E-09  5.683701E-10
         7  12  3.598389E+04  3.494227E+04  6.785531E+04 -5.632375E+02  1.367412E-09  2.720007E-10
         7  13  3.598601E+04 -1.050090E+03  2.014120E+04 -3.112060E-08 -4.314914E-09 -2.136118E-10
         7  14  2.853109E+04 -8.464665E+03  3.213857E+04  9.833801E-07 -8.616121E-09  5.447926E-10
         7  15  3.598389E+04  3.494227E+04  6.785531E+04  4.125829E-07  8.077459E-09  5.776220E-11
         7  16  3.598601E+04 -1.050090E+03  2.014120E+04 -2.987226E+02 -4.264075E-09 -3.411922E-10
         7  17  2.853109E+04 -8.464665E+03  3.213857E+04  1.322537E+02  7.535875E-09  3.714002E-10
         7  18  3.598389E+04  3.494227E+04  6.785531E+04  5.632375E+02 -2.837146E-11  3.436545E-10
         7  19  3.598627E+04 -1.050025E+03  2.014165E+04  2.987226E+02  1.549544E+04  7.455444E-03
         7  20  2.853222E+04 -8.464383E+03  3.214054E+04 -1.322537E+02  3.241307E+04 -6.904538E-03
         7  21  3.598651E+04  3.494292E+04  6.785988E+04 -5.632375E+02  4.933106E+04 -4.475235E-02
         7  22  3.598627E+04 -1.050025E+03  2.014165E+04  1.347414E-06  1.549544E+04 -6.176842E-10
         7  23  2.853222E+04 -8.464383E+03  3.214054E+04  1.534786E-06  3.241307E+04 -1.895787E-10
         7  24  3.598651E+04  3.494292E+04  6.785988E+04  1.101856E-06  4.933106E+04 -1.784059E-09
         7  25  3.598627E+04 -1.050025E+03  2.014165E+04 -2.987226E+02  1.549544E+04 -7.455442E-03
         7  26  2.853222E+04 -8.464383E+03  3.214054E+04  1.322537E+02  3.241307E+04  6.904538E-03
         7  27  3.598651E+04  3.494292E+04  6.785988E+04  5.632375E+02  4.933106E+04  4.475235E-02
         8   1  5.259873E+04 -6.875255E+03  8.189501E+04  1.865852E+03 -6.296714E+04 -1.892269E-01
         8   2  7.775622E+03 -5.383126E+04  1.241511E+05 -9.369563E+02 -1.309098E+05  1.975665E-01
         8   3  5.260952E+04  2.224335E+05  2.914629E+05 -3.739929E+03 -1.988509E+05  1.197831E+00
         8   4  5.259873E+04 -6.875262E+03  8.189501E+04  4.981632E-07 -6.296714E+04 -7.614686E-10
         8   5  7.775621E+03 -5.383126E+04  1.241511E+05  3.761633E-07 -1.309098E+05 -6.543860E-09
         8   6  5.260950E+04  2.224335E+05  2.914629E+05 -4.348434E-07 -1.988509E+05 -1.003428E-09
         8   7  5.259873E+04 -6.875255E+03  8.189501E+04 -1.865852E+03 -6.296714E+04  1.892269E-01
         8   8  7.775622E+03 -5.383126E+04  1.241511E+05  9.369563E+02 -1.309098E+05 -1.975665E-01
         8   9  5.260952E+04  2.224335E+05  2.914629E+05  3.739929E+03 -1.988509E+05 -1.197831E+00
         8  10  5.259448E+04 -6.876320E+03  8.188756E+04  1.865852E+03  4.365948E-09 -8.322363E-10
         8  11  7.757223E+03 -5.383586E+04  1.241189E+05 -9.369563E+02 -7.540283E-09 -2.067016E-09
         8  12  5.256707E+04  2.224229E+05  2.913886E+05 -3.739929E+03 -6.509690E-09  4.943541E-10
         8  13  5.259447E+04 -6.876326E+03  8.188756E+04  2.224624E-07  4.304077E-09 -8.979275E-10
         8  14  7.757222E+03 -5.383586E+04  1.241189E+05  1.341044E-06  4.312926E-09 -1.880569E-09
         8  15  5.256705E+04  2.224228E+05  2.913886E+05 -7.795038E-07 -7.535936E-09 -7.016466E-10
         8  16  5.259448E+04 -6.876320E+03  8.188756E+04 -1.865852E+03  2.110634E-09 -8.280687E-10
         8  17  7.757223E+03 -5.383586E+04  1.241189E+05  9.369563E+02  6.466527E-09 -4.184509E-09
         8  18  5.256707E+04  2.224229E+05  2.913886E+05  3.739929E+03 -1.032173E-09 -1.644933E-09
         8  19  5.259873E+04 -6.875255E+03  8.189501E+04  1.865852E+03  6.296714E+04  1.892269E-01
         8  20  7.775622E+03 -5.383126E+04  1.241511E+05 -9.369563E+02  1.309098E+05 -1.975665E-01
         8  21  5.260952E+04  2.224335E+05  2.914629E+05 -3.739929E+03  1.988509E+05 -1.197831E+00
         8  22  5.259873E+04 -6.875262E+03  8.189501E+04  4.981626E-07  6.296714E+04 -1.591729E-09
         8  23  7.775621E+03 -5.383126E+04  1.241511E+05  9.275240E-07  1.309098E+05  2.667102E-09
         8  24  5.260950E+04  2.224335E+05  2.914629E+05 -3.659112E-07  1.988509E+05 -9.001609E-10
         8  25  5.259873E+04 -6.875255E+03  8.189501E+04 -1.865852E+03  6.296714E+04 -1.892269E-01
         8  26  7.775622E+03 -5.383126E+04  1.241511E+05  9.369563E+02  1.309098E+05  1.975665E-01
         8  27  5.260952E+04  2.224335E+05  2.914629E+05  3.739929E+03  1.988509E+05  1.197831E+00
         9   1  2.866927E+06  1.056595E+07  2.715771E+06 -2.006645E+06  1.320246E+05  1.031679E+06
         9   2  2.324653E+06  9.010769E+06  1.834104E+06 -1.852778E+06  4.453807E+05  4.698397E+05
         9   3  1.928638E+06  7.571248E+06  1.352159E+06 -1.939645E+06  5.206307E+05 -9.018717E+04
         9   4  1.031587E+05 -7.104306E+05  1.070689E+05 -1.905263E+06  1.356970E+05  6.898833E+04
         9   5  3.318151E+04 -7.169872E+05  5.754445E+04 -1.785130E+06  4.480457E+05  4.186613E+04
         9   6  1.859215E+04 -7.010440E+05  4.032134E+04 -1.905713E+06  5.206261E+05  1.502366E+04
         9   7 -2.668993E+06 -1.186857E+07 -2.506710E+06 -1.805450E+06  1.391130E+05 -8.765747E+05
         9   8 -2.263518E+06 -1.035324E+07 -1.722181E+06 -1.718339E+06  4.506495E+05 -3.796565E+05
         9   9 -1.894845E+06 -8.905718E+06 -1.273227E+06 -1.872054E+06  5.206325E+05  1.188955E+05
         9  10  2.866627E+06  1.056482E+07  2.713769E+06 -2.006755E+06 -7.878656E-10  8.297643E-08
         9  11  2.324381E+06  9.010480E+06  1.833320E+06 -1.852946E+06  8.200805E-09 -2.813757E-09
         9  12  1.928345E+06  7.571166E+06  1.351635E+06 -1.939607E+06  4.394394E-09 -8.792757E-08
         9  13  1.031377E+05 -7.104406E+05  1.070252E+05 -1.905271E+06 -4.345246E-10 -1.043831E-11
         9  14  3.296548E+04 -7.170430E+05  5.716380E+04 -1.785145E+06  6.947391E-09 -1.240158E-10
         9  15  1.830110E+04 -7.011169E+05  3.981163E+04 -1.905720E+06 -3.185135E-09 -2.399842E-10
         9  16 -2.669224E+06 -1.186941E+07 -2.508215E+06 -1.805352E+06  6.280140E-09 -8.147149E-08
         9  17 -2.263774E+06 -1.035345E+07 -1.722836E+06 -1.718201E+06  1.572033E-09  2.736803E-09
         9  18 -1.895140E+06 -8.905806E+06 -1.273764E+06 -1.872104E+06  8.061070E-10  8.660185E-08
         9  19  2.866927E+06  1.056595E+07  2.715771E+06 -2.006645E+06 -1.320246E+05 -1.031679E+06
         9  20  2.324653E+06  9.010769E+06  1.834104E+06 -1.852778E+06 -4.453807E+05 -4.698397E+05
         9  21  1.928638E+06  7.571248E+06  1.352159E+06 -1.939645E+06 -5.206307E+05  9.018717E+04
         9  22  1.031587E+05 -7.104306E+05  1.070689E+05 -1.905263E+06 -1.356970E+05 -6.898833E+04
         9  23  3.318151E+04 -7.169872E+05  5.754445E+04 -1.785130E+06 -4.480457E+05 -4.186613E+04
         9  24  1.859215E+04 -7.010440E+05  4.032134E+04 -1.905713E+06 -5.206261E+05 -1.502366E+04
         9  25 -2.668993E+06 -1.186857E+07 -2.506710E+06 -1.805450E+06 -1.391130E+05  8.765747E+05
         9  26 -2.263518E+06 -1.035324E+07 -1.722181E+06 -1.718339E+06 -4.506495E+05  3.796565E+05
         9  27 -1.894845E+06 -8.905718E+06 -1.273227E+06 -1.872054E+06 -5.206325E+05 -1.188955E+05
        10   1  1.705592E+06  6.619775E+06  1.166556E+06 -1.947038E+06  4.834789E+05 -1.035046E+05
        10   2  1.353032E+06  5.114676E+06  8.887137E+05 -1.806152E+06  4.189913E+05 -1.885496E+05
        10   3  1.028091E+06  3.629385E+06  6.726943E+05 -1.923430E+06  3.250553E+05 -2.737984E+05
        10   4  2.033296E+04 -7.019647E+05  3.667636E+04 -1.909617E+06  4.832520E+05  8.602115E+03
        10   5  2.268864E+04 -7.021974E+05  3.861987E+04 -1.780427E+06  4.180313E+05 -1.081567E+04
        10   6  4.150543E+04 -6.961110E+05  5.711690E+04 -1.909540E+06  3.232188E+05 -3.062897E+04
        10   7 -1.667516E+06 -7.970448E+06 -1.094377E+06 -1.872491E+06  4.830364E+05  1.194472E+05
        10   8 -1.309201E+06 -6.485080E+06 -8.119385E+05 -1.754848E+06  4.170795E+05  1.653324E+05
        10   9 -9.458934E+05 -5.002621E+06 -5.585112E+05 -1.895687E+06  3.213840E+05  2.109268E+05
        10  10  1.705338E+06  6.619701E+06  1.166098E+06 -1.946999E+06 -2.154159E-09  8.216572E-08
        10  11  1.352834E+06  5.114592E+06  8.883186E+05 -1.806089E+06  3.671718E-09 -2.538944E-09
        10  12  1.027958E+06  3.629277E+06  6.723570E+05 -1.923358E+06 -1.384240E-09 -8.785613E-08
        10  13  2.008225E+04 -7.020275E+05  3.623747E+04 -1.909621E+06  2.054985E-09 -3.847561E-10
        10  14  2.250105E+04 -7.022444E+05  3.829144E+04 -1.780424E+06  1.730332E-09  8.244176E-11
        10  15  4.139309E+04 -6.961399E+05  5.691904E+04 -1.909532E+06 -2.245388E-09 -1.565524E-10
        10  16 -1.667771E+06 -7.970526E+06 -1.094843E+06 -1.872538E+06  8.421066E-11 -8.137319E-08
        10  17 -1.309395E+06 -6.485156E+06 -8.123181E+05 -1.754904E+06 -2.976986E-09  3.157883E-09
        10  18 -9.460166E+05 -5.002697E+06 -5.587904E+05 -1.895742E+06  2.677972E-09  8.690884E-08
        10  19  1.705592E+06  6.619775E+06  1.166556E+06 -1.947038E+06 -4.834789E+05  1.035046E+05
        10  20  1.353032E+06  5.114676E+06  8.887137E+05 -1.806152E+06 -4.189913E+05  1.885496E+05
        10  21  1.028091E+06  3.629385E+06  6.726943E+05 -1.923430E+06 -3.250553E+05  2.737984E+05
        10  22  2.033296E+04 -7.019647E+05  3.667636E+04 -1.909617E+06 -4.832520E+05 -8.602115E+03
        10  23  2.268864E+04 -7.021974E+05  3.861987E+04 -1.780427E+06 -4.180313E+05  1.081567E+04
        10  24  4.150543E+04 -6.961110E+05  5.711690E+04 -1.909540E+06 -3.232188E+05  3.062897E+04
        10  25 -1.667516E+06 -7.970448E+06 -1.094377E+06 -1.872491E+06 -4.830364E+05 -1.194472E+05
        10  26 -1.309201E+06 -6.485080E+06 -8.119385E+05 -1.754848E+06 -4.170795E+05 -1.653324E+05
        10  27 -9.458934E+05 -5.002621E+06 -5.585112E+05 -1.895687E+06 -3.213840E+05 -2.109268E+05
        11   1  8.218887E+05  2.702482E+06  5.488107E+05 -1.926166E+06  2.601363E+05 -2.846899E+05
        11   2  5.327216E+05  1.193909E+06  3.900836E+05 -1.710493E+06  1.496632E+05 -3.542277E+05
        11   3  3.511018E+05 -2.794128E+05  3.026228E+05 -1.755036E+06  3.719449E+04 -4.237541E+05
        11   4  4.907496E+04 -6.890437E+05  7.222279E+04 -1.910034E+06  2.581304E+05 -4.084936E+04
        11   5  1.021023E+05 -7.040771E+05  1.264485E+05 -1.779247E+06  1.475268E+05 -1.061631E+05
        11   6  2.620778E+05 -6.870360E+05  2.488312E+05 -1.908518E+06  3.494414E+04 -1.716069E+05
        11   7 -7.242207E+05 -4.068816E+06 -4.042949E+05 -1.893954E+06  2.561294E+05  2.017220E+05
        11   8 -3.286222E+05 -2.598265E+06 -1.369959E+05 -1.847769E+06  1.453310E+05  1.411780E+05
        11   9  1.731712E+05 -1.094300E+06  1.952906E+05 -2.061896E+06  3.256798E+04  8.038253E+04
        11  10  8.217948E+05  2.702377E+06  5.485330E+05 -1.926106E+06 -2.390146E-09  6.495000E-08
        11  11  5.326642E+05  1.193769E+06  3.898069E+05 -1.710451E+06  2.339061E-09  2.721973E-09
        11  12  3.510521E+05 -2.796060E+05  3.022828E+05 -1.755023E+06  4.618444E-09 -6.030481E-08
        11  13  4.900305E+04 -6.890633E+05  7.209465E+04 -1.910025E+06 -2.032881E-09 -1.288623E-10
        11  14  1.020760E+05 -7.040950E+05  1.263866E+05 -1.779234E+06 -8.106070E-09  1.463133E-10
        11  15  2.620686E+05 -6.870679E+05  2.487736E+05 -1.908513E+06  5.544969E-10  6.503430E-11
        11  16 -7.243023E+05 -4.068878E+06 -4.044958E+05 -1.893996E+06 -2.759634E-09 -6.504431E-08
        11  17 -3.286503E+05 -2.598292E+06 -1.370735E+05 -1.847785E+06  1.380885E-09 -2.062791E-09
        11  18  1.731683E+05 -1.094308E+06  1.952765E+05 -2.061898E+06 -1.024240E-10  6.067681E-08
        11  19  8.218887E+05  2.702482E+06  5.488107E+05 -1.926166E+06 -2.601363E+05  2.846899E+05
        11  20  5.327216E+05  1.193909E+06  3.900836E+05 -1.710493E+06 -1.496632E+05  3.542277E+05
        11  21  3.511018E+05 -2.794128E+05  3.026228E+05 -1.755036E+06 -3.719449E+04  4.237541E+05
        11  22  4.907496E+04 -6.890437E+05  7.222279E+04 -1.910034E+06 -2.581304E+05  4.084936E+04
        11  23  1.021023E+05 -7.040771E+05  1.264485E+05 -1.779247E+06 -1.475268E+05  1.061631E+05
        11  24  2.620778E+05 -6.870360E+05  2.488312E+05 -1.908518E+06 -3.494414E+04  1.716069E+05
        11  25 -7.242207E+05 -4.068816E+06 -4.042949E+05 -1.893954E+06 -2.561294E+05 -2.017220E+05
        11  26 -3.286222E+05 -2.598265E+06 -1.369959E+05 -1.847769E+06 -1.453310E+05 -1.411780E+05
        11  27  1.731712E+05 -1.094300E+06  1.952906E+05 -2.061896E+06 -3.256798E+04 -8.038253E+04
        12   1 -1.709076E+07 -5.986772E+06 -4.194211E+06 -5.307634E+06 -1.017959E+06 -3.063271E+05
        12   2 -1.694167E+07 -4.169251E+06 -3.216744E+06 -5.131046E+06 -6.796573E+05 -4.606970E+04
        12   3 -1.629829E+07 -4.247845E+06 -2.793181E+06 -5.090054E+06 -2.815512E+05  4.816403E+04
        12   4 -7.453475E+06 -2.189883E+06 -1.481180E+06 -2.573949E+06 -9.847729E+05 -2.944698E+05
        12   5 -7.637463E+06 -7.134171E+05 -6.589798E+05 -2.703436E+06 -6.773883E+05 -4.552857E+04
        12   6 -7.308101E+06 -1.108979E+06 -3.572772E+05 -2.969706E+06 -3.108649E+05  3.814791E+04
        12   7  2.274510E+06  1.614132E+06  1.222962E+06  1.996732E+05 -9.508898E+05 -2.823267E+05
        12   8  1.751110E+06  2.746563E+06  1.890834E+06 -2.423517E+05 -6.750138E+05 -4.494637E+04
        12   9  1.760373E+06  2.031510E+06  2.071436E+06 -8.218631E+05 -3.406228E+05  2.799229E+04
        12  10 -1.709193E+07 -5.987164E+06 -4.196401E+06 -5.307891E+06  1.048022E-09 -1.750993E-09
        12  11 -1.694218E+07 -4.169382E+06 -3.217640E+06 -5.131073E+06 -1.245040E-09 -4.331554E-09
        12  12 -1.629838E+07 -4.247870E+06 -2.793337E+06 -5.090043E+06 -1.622166E-09 -2.054870E-09
        12  13 -7.454552E+06 -2.190242E+06 -1.483192E+06 -2.574185E+06  5.403882E-09 -2.283571E-09
        12  14 -7.637961E+06 -7.135445E+05 -6.598572E+05 -2.703462E+06 -1.951955E-09 -5.609214E-09
        12  15 -7.308206E+06 -1.109007E+06 -3.574633E+05 -2.969697E+06  3.898643E-10 -2.275060E-09
        12  16  2.273521E+06  1.613805E+06  1.221120E+06  1.994577E+05  1.011855E-09 -2.516221E-09
        12  17  1.750621E+06  2.746439E+06  1.889975E+06 -2.423761E+05  5.766665E-09 -4.435401E-09
        12  18  1.760248E+06  2.031478E+06  2.071217E+06 -8.218555E+05  2.138824E-09 -1.713162E-09
        12  19 -1.709076E+07 -5.986772E+06 -4.194211E+06 -5.307634E+06  1.017959E+06  3.063271E+05
        12  20 -1.694167E+07 -4.169251E+06 -3.216744E+06 -5.131046E+06  6.796573E+05  4.606970E+04
        12  21 -1.629829E+07 -4.247845E+06 -2.793181E+06 -5.090054E+06  2.815512E+05 -4.816403E+04
        12  22 -7.453475E+06 -2.189883E+06 -1.481180E+06 -2.573949E+06  9.847729E+05  2.944698E+05
        12  23 -7.637463E+06 -7.134171E+05 -6.589798E+05 -2.703436E+06  6.773883E+05  4.552857E+04
        12  24 -7.308101E+06 -1.108979E+06 -3.572772E+05 -2.969706E+06  3.108649E+05 -3.814791E+04
        12  25  2.274510E+06  1.614132E+06  1.222962E+06  1.996732E+05  9.508898E+05  2.823267E+05
        12  26  1.751110E+06  2.746563E+06  1.890834E+06 -2.423517E+05  6.750138E+05  4.494637E+04
        12  27  1.760373E+06  2.031510E+06  2.071436E+06 -8.218631E+05  3.406228E+05 -2.799229E+04
        13   1 -1.224743E+07 -3.301535E+06 -1.692612E+06 -4.361382E+06 -2.435299E+05  1.529486E+04
        13   2 -1.172658E+07 -2.041783E+06 -1.209585E+06 -3.293013E+06 -1.524396E+05  2.496609E+04
        13   3 -9.988784E+06 -2.254789E+06 -8.386318E+05 -3.818274E+06 -5.162035E+04  3.302191E+03
        13   4 -7.195080E+06 -1.497245E+06 -3.205963E+05 -3.118212E+06 -2.453393E+05  1.462909E+04
        13   5 -7.794627E+06 -6.635106E+05 -1.477815E+05 -2.354664E+06 -1.605137E+05  2.230554E+04
        13   6 -7.176546E+06 -1.299441E+06 -8.107295E+04 -3.184614E+06 -6.615840E+04 -1.322564E+03
        13   7 -2.118101E+06  3.078803E+05  1.049130E+06 -1.865852E+06 -2.471581E+05  1.396045E+04
        13   8 -3.847794E+06  7.151351E+05  9.126495E+05 -1.410975E+06 -1.686412E+05  1.962757E+04
        13   9 -4.356743E+06 -3.440101E+05  6.757891E+05 -2.548415E+06 -8.076765E+04 -5.969003E+03
        13  10 -1.224750E+07 -3.301551E+06 -1.692725E+06 -4.361379E+06  1.429885E-09  4.117244E-09
        13  11 -1.172660E+07 -2.041790E+06 -1.209631E+06 -3.293010E+06 -6.866068E-09  8.660460E-09
        13  12 -9.988787E+06 -2.254790E+06 -8.386369E+05 -3.818274E+06 -5.973690E-09  4.223262E-09
        13  13 -7.195145E+06 -1.497261E+06 -3.207110E+05 -3.118209E+06  1.353083E-08  3.614591E-09
        13  14 -7.794655E+06 -6.635181E+05 -1.478314E+05 -2.354661E+06 -4.676207E-10  6.845307E-09
        13  15 -7.176550E+06 -1.299442E+06 -8.108127E+04 -3.184614E+06  2.841132E-09  3.607122E-09
        13  16 -2.118166E+06  3.078637E+05  1.049014E+06 -1.865850E+06 -1.996847E-09 -1.917226E-09
        13  17 -3.847824E+06  7.151270E+05  9.125951E+05 -1.410973E+06 -2.218261E-09 -2.127690E-10
        13  18 -4.356750E+06 -3.440119E+05  6.757767E+05 -2.548415E+06 -2.041988E-09 -1.014492E-08
        13  19 -1.224743E+07 -3.301535E+06 -1.692612E+06 -4.361382E+06  2.435299E+05 -1.529486E+04
        13  20 -1.172658E+07 -2.041783E+06 -1.209585E+06 -3.293013E+06  1.524396E+05 -2.496609E+04
        13  21 -9.988784E+06 -2.254789E+06 -8.386318E+05 -3.818274E+06  5.162035E+04 -3.302191E+03
        13  22 -7.195080E+06 -1.497245E+06 -3.205963E+05 -3.118212E+06  2.453393E+05 -1.462909E+04
        13  23 -7.794627E+06 -6.635106E+05 -1.477815E+05 -2.354664E+06  1.605137E+05 -2.230554E+04
        13  24 -7.176546E+06 -1.299441E+06 -8.107295E+04 -3.184614E+06  6.615840E+04  1.322564E+03
        13  25 -2.118101E+06  3.078803E+05  1.049130E+06 -1.865852E+06  2.471581E+05 -1.396045E+04
        13  26 -3.847794E+06  7.151351E+05  9.126495E+05 -1.410975E+06  1.686412E+05 -1.962757E+04
        13  27 -4.356743E+06 -3.440101E+05  6.757891E+05 -2.548415E+06  8.076765E+04  5.969003E+03
        14   1 -4.440682E+06 -3.957772E+05  6.695859E+05 -2.550990E+06 -3.338897E+04 -2.993908E+04
        14   2 -3.943453E+06  6.549882E+05  1.002601E+06 -1.429500E+06 -2.679299E+03 -7.077395E+04
        14   3 -2.154865E+06  4.139874E+05  1.323719E+06 -1.949950E+06  2.525439E+04 -1.007389E+05
        14   4 -7.167549E+06 -1.326225E+06 -6.361857E+04 -3.174135E+06 -4.464673E+04 -3.352265E+04
        14   5 -7.811753E+06 -6.910457E+05 -3.613047E+04 -2.347976E+06 -1.160339E+04 -7.370463E+04
        14   6 -7.166261E+06 -1.349233E+06 -2.237854E+04 -3.164953E+06  1.862087E+04 -1.029922E+05
        14   7 -9.887342E+06 -2.256573E+06 -7.974778E+05 -3.794863E+06 -5.585053E+04 -3.708945E+04
        14   8 -1.166576E+07 -2.036750E+06 -1.076179E+06 -3.261369E+06 -2.046654E+04 -7.661561E+04
        14   9 -1.215366E+07 -3.111760E+06 -1.370691E+06 -4.371204E+06  1.204611E+04 -1.052263E+05
        14  10 -4.440683E+06 -3.957785E+05  6.695821E+05 -2.550991E+06  5.564877E-11  5.226257E-09
        14  11 -3.943454E+06  6.549828E+05  1.002591E+06 -1.429500E+06 -4.044507E-09  6.310379E-09
        14  12 -2.154869E+06  4.139763E+05  1.323699E+06 -1.949948E+06 -9.432291E-09  1.325676E-08
        14  13 -7.167552E+06 -1.326226E+06 -6.362450E+04 -3.174136E+06 -3.141338E-09 -4.535648E-09
        14  14 -7.811754E+06 -6.910516E+05 -3.614093E+04 -2.347976E+06 -3.786109E-09  8.740536E-10
        14  15 -7.166264E+06 -1.349244E+06 -2.239906E+04 -3.164952E+06 -1.023491E-09  4.019529E-09
        14  16 -9.887346E+06 -2.256575E+06 -7.974863E+05 -3.794865E+06  2.427702E-09 -1.707523E-10
        14  17 -1.166577E+07 -2.036757E+06 -1.076191E+06 -3.261370E+06  1.109029E-08 -7.217070E-09
        14  18 -1.215367E+07 -3.111772E+06 -1.370712E+06 -4.371203E+06  8.075834E-10 -8.418333E-09
        14  19 -4.440682E+06 -3.957772E+05  6.695859E+05 -2.550990E+06  3.338897E+04  2.993908E+04
        14  20 -3.943453E+06  6.549882E+05  1.002601E+06 -1.429500E+06  2.679299E+03  7.077395E+04
        14  21 -2.154865E+06  4.139874E+05  1.323719E+06 -1.949950E+06 -2.525439E+04  1.007389E+05
        14  22 -7.167549E+06 -1.326225E+06 -6.361857E+04 -3.174135E+06  4.464673E+04  3.352265E+04
        14  23 -7.811753E+06 -6.910457E+05 -3.613047E+04 -2.347976E+06  1.160339E+04  7.370463E+04
        14  24 -7.166261E+06 -1.349233E+06 -2.237854E+04 -3.164953E+06 -1.862087E+04  1.029922E+05
        14  25 -9.887342E+06 -2.256573E+06 -7.974778E+05 -3.794863E+06  5.585053E+04  3.708945E+04
        14  26 -1.166576E+07 -2.036750E+06 -1.076179E+06 -3.261369E+06  2.046654E+04  7.661561E+04
        14  27 -1.215366E+07 -3.111760E+06 -1.370691E+06 -4.371204E+06 -1.204611E+04  1.052263E+05
        15   1  1.737128E+06  2.024867E+06  2.427372E+06 -7.347616E+05  3.361974E+04 -1.243280E+05
        15   2  1.603457E+06  2.476525E+06  2.494587E+06 -2.420224E+05  5.177103E+04 -1.551697E+05
        15   3  2.588105E+06  2.486282E+06  2.693164E+06 -2.815097E+05  5.973475E+04 -1.549874E+05
        15   4 -7.221115E+06 -1.142659E+06  1.481817E+04 -2.931307E+06  2.291375E+04 -1.280789E+05
        15   5 -7.777776E+06 -9.410673E+05 -4.780324E+04 -2.656194E+06  4.791112E+04 -1.567192E+05
        15   6 -7.222234E+06 -1.187414E+06  1.522402E+04 -2.914681E+06  6.263659E+04 -1.541140E+05
        15   7 -1.610291E+07 -4.307850E+06 -2.404832E+06 -5.099729E+06  1.237786E+04 -1.317743E+05
        15   8 -1.707481E+07 -4.355047E+06 -2.598088E+06 -5.037741E+06  4.411716E+04 -1.582478E+05
        15   9 -1.694029E+07 -4.856027E+06 -2.671478E+06 -5.510377E+06  6.548953E+04 -1.532613E+05
        15  10  1.737123E+06  2.024850E+06  2.427341E+06 -7.347583E+05 -4.127065E-09  9.290684E-09
        15  11  1.603448E+06  2.476499E+06  2.494537E+06 -2.420159E+05 -4.145858E-09  7.199296E-09
        15  12  2.588094E+06  2.486256E+06  2.693112E+06 -2.815023E+05 -6.001733E-09  1.731442E-09
        15  13 -7.221120E+06 -1.142677E+06  1.478646E+04 -2.931305E+06 -5.717420E-09 -4.672005E-10
        15  14 -7.777785E+06 -9.410942E+05 -4.785351E+04 -2.656188E+06  9.567827E-09  1.349053E-09
        15  15 -7.222244E+06 -1.187440E+06  1.517222E+04 -2.914673E+06 -6.653654E-09  4.569931E-09
        15  16 -1.610292E+07 -4.307869E+06 -2.404865E+06 -5.099727E+06  6.425914E-09 -1.631165E-09
        15  17 -1.707482E+07 -4.355074E+06 -2.598139E+06 -5.037736E+06  1.401538E-08 -6.993952E-09
        15  18 -1.694030E+07 -4.856053E+06 -2.671530E+06 -5.510369E+06  1.066016E-09 -4.276723E-09
        15  19  1.737128E+06  2.024867E+06  2.427372E+06 -7.347616E+05 -3.361974E+04  1.243280E+05
        15  20  1.603457E+06  2.476525E+06  2.494587E+06 -2.420224E+05 -5.177103E+04  1.551697E+05
        15  21  2.588105E+06  2.486282E+06  2.693164E+06 -2.815097E+05 -5.973475E+04  1.549874E+05
        15  22 -7.221115E+06 -1.142659E+06  1.481817E+04 -2.931307E+06 -2.291375E+04  1.280789E+05
        15  23 -7.777776E+06 -9.410673E+05 -4.780324E+04 -2.656194E+06 -4.791112E+04  1.567192E+05
        15  24 -7.222234E+06 -1.187414E+06  1.522402E+04 -2.914681E+06 -6.263659E+04  1.541140E+05
        15  25 -1.610291E+07 -4.307850E+06 -2.404832E+06 -5.099729E+06 -1.237786E+04  1.317743E+05
        15  26 -1.707481E+07 -4.355047E+06 -2.598088E+06 -5.037741E+06 -4.411716E+04  1.582478E+05
        15  27 -1.694029E+07 -4.856027E+06 -2.671478E+06 -5.510377E+06 -6.548953E+04  1.532613E+05
        16   1  2.451118E+06  2.835532E+06  2.735541E+06  9.364846E+04  5.687699E+04 -1.570565E+05
        16   2  1.932890E+06  2.424886E+06  2.550240E+06 -3.345737E+05  6.404454E+04 -1.545070E+05
        16   3  1.435545E+06  2.705168E+06  2.503374E+06  7.079967E+03  5.830856E+04 -1.211640E+05
        16   4 -7.467792E+06 -9.334421E+05  1.711244E+04 -2.625245E+06  5.347070E+04 -1.585528E+05
        16   5 -7.472776E+06 -1.257550E+06 -4.934410E+04 -3.018906E+06  6.748384E+04 -1.533406E+05
        16   6 -7.464560E+06 -8.957726E+05  1.678741E+04 -2.642622E+06  6.850696E+04 -1.171027E+05
        16   7 -1.729212E+07 -4.696655E+06 -2.710339E+06 -5.304929E+06  5.012717E+04 -1.600280E+05
        16   8 -1.679301E+07 -4.933617E+06 -2.657185E+06 -5.666156E+06  7.086653E+04 -1.521991E+05
        16   9 -1.628788E+07 -4.489827E+06 -2.477348E+06 -5.257382E+06  7.854112E+04 -1.131113E+05
        16  10  2.451108E+06  2.835505E+06  2.735489E+06  9.365562E+04 -3.013291E-09  8.216758E-09
        16  11  1.932879E+06  2.424859E+06  2.550188E+06 -3.345658E+05 -2.618983E-08  1.167300E-09
        16  12  1.435538E+06  2.705151E+06  2.503340E+06  7.085633E+03  1.685908E-09 -9.648992E-09
        16  13 -7.467801E+06 -9.334697E+05  1.706003E+04 -2.625238E+06 -1.976288E-09  5.081900E-10
        16  14 -7.472788E+06 -1.257576E+06 -4.939663E+04 -3.018898E+06  5.314564E-09 -7.238160E-10
        16  15 -7.464568E+06 -8.957885E+05  1.675294E+04 -2.642616E+06 -7.544581E-09 -1.665928E-08
        16  16 -1.729213E+07 -4.696683E+06 -2.710392E+06 -5.304922E+06 -1.336987E-09  4.512675E-09
        16  17 -1.679302E+07 -4.933643E+06 -2.657238E+06 -5.666147E+06 -1.757094E-09  3.132571E-10
        16  18 -1.628789E+07 -4.489842E+06 -2.477383E+06 -5.257375E+06 -6.420019E-09  4.922029E-10
        16  19  2.451118E+06  2.835532E+06  2.735541E+06  9.364846E+04 -5.687699E+04  1.570565E+05
        16  20  1.932890E+06  2.424886E+06  2.550240E+06 -3.345737E+05 -6.404454E+04  1.545070E+05
        16  21  1.435545E+06  2.705168E+06  2.503374E+06  7.079967E+03 -5.830856E+04  1.211640E+05
        16  22 -7.467792E+06 -9.334421E+05  1.711244E+04 -2.625245E+06 -5.347070E+04  1.585528E+05
        16  23 -7.472776E+06 -1.257550E+06 -4.934410E+04 -3.018906E+06 -6.748384E+04  1.533406E+05
        16  24 -7.464560E+06 -8.957726E+05  1.678741E+04 -2.642622E+06 -6.850696E+04  1.171027E+05
        16  25 -1.729212E+07 -4.696655E+06 -2.710339E+06 -5.304929E+06 -5.012717E+04  1.600280E+05
        16  26 -1.679301E+07 -4.933617E+06 -2.657185E+06 -5.666156E+06 -7.086653E+04  1.521991E+05
        16  27 -1.628788E+07 -4.489827E+06 -2.477348E+06 -5.257382E+06 -7.854112E+04  1.131113E+05
        17   1 -2.481158E+06  1.409867E+06  1.458495E+06 -8.831350E+05  4.924460E+04 -9.929220E+04
        17   2 -2.884027E+06  2.847595E+05  1.142426E+06 -1.935331E+06  5.020291E+04 -6.059369E+04
        17   3 -4.679049E+06  5.908749E+05  8.233083E+05 -1.514689E+06  4.532399E+04 -1.025347E+04
        17   4 -7.764290E+06 -7.475351E+05 -1.999440E+04 -2.470978E+06  5.514878E+04 -9.688079E+04
        17   5 -7.066215E+06 -1.449061E+06 -3.576472E+04 -3.214277E+06  5.864095E+04 -5.702511E+04
        17   6 -7.763402E+06 -7.199630E+05 -5.675631E+04 -2.484541E+06  5.630515E+04 -5.472939E+03
        17   7 -1.302018E+07 -2.902401E+06 -1.501152E+06 -4.046319E+06  6.099607E+04 -9.449364E+04
        17   8 -1.123130E+07 -3.181154E+06 -1.215647E+06 -4.485193E+06  6.701385E+04 -5.348457E+04
        17   9 -1.083843E+07 -2.029748E+06 -9.377608E+05 -3.449865E+06  6.722331E+04 -7.203112E+02
        17  10 -2.481163E+06  1.409855E+06  1.458472E+06 -8.831310E+05  7.331313E-10 -1.678250E-08
        17  11 -2.884031E+06  2.847549E+05  1.142414E+06 -1.935329E+06  5.487562E-09  6.126544E-09
        17  12 -4.679051E+06  5.908742E+05  8.233042E+05 -1.514689E+06  6.091796E-09 -4.247324E-09
        17  13 -7.764296E+06 -7.475459E+05 -2.001767E+04 -2.470973E+06  3.814807E-09 -2.031373E-08
        17  14 -7.066220E+06 -1.449066E+06 -3.577727E+04 -3.214275E+06  1.059995E-08  3.349202E-08
        17  15 -7.763405E+06 -7.199639E+05 -5.676239E+04 -2.484541E+06 -3.822237E-10  5.273502E-09
        17  16 -1.302019E+07 -2.902411E+06 -1.501176E+06 -4.046315E+06 -5.306866E-09 -6.760177E-10
        17  17 -1.123131E+07 -3.181158E+06 -1.215661E+06 -4.485190E+06  8.744776E-09 -1.893010E-08
        17  18 -1.083843E+07 -2.029749E+06 -9.377695E+05 -3.449865E+06 -7.507521E-09 -3.797373E-09
        17  19 -2.481158E+06  1.409867E+06  1.458495E+06 -8.831350E+05 -4.924460E+04  9.929220E+04
        17  20 -2.884027E+06  2.847595E+05  1.142426E+06 -1.935331E+06 -5.020291E+04  6.059369E+04
        17  21 -4.679049E+06  5.908749E+05  8.233083E+05 -1.514689E+06 -4.532399E+04  1.025347E+04
        17  22 -7.764290E+06 -7.475351E+05 -1.999440E+04 -2.470978E+06 -5.514878E+04  9.688079E+04
        17  23 -7.066215E+06 -1.449061E+06 -3.576472E+04 -3.214277E+06 -5.864095E+04  5.702511E+04
        17  24 -7.763402E+06 -7.199630E+05 -5.675631E+04 -2.484541E+06 -5.630515E+04  5.472939E+03
        17  25 -1.302018E+07 -2.902401E+06 -1.501152E+06 -4.046319E+06 -6.099607E+04  9.449364E+04
        17  26 -1.123130E+07 -3.181154E+06 -1.215647E+06 -4.485193E+06 -6.701385E+04  5.348457E+04
        17  27 -1.083843E+07 -2.029748E+06 -9.377608E+05 -3.449865E+06 -6.722331E+04  7.203112E+02
        18   1 -9.903461E+06 -1.602134E+06 -6.848016E+05 -3.161730E+06  3.659857E+04  2.648349E+04
        18   2 -1.026526E+07 -2.784372E+06 -1.054426E+06 -4.221027E+06  9.183929E+04  1.066403E+05
        18   3 -1.220922E+07 -2.650113E+06 -1.533623E+06 -3.722096E+06  1.595614E+05  1.587188E+05
        18   4 -7.792868E+06 -6.906969E+05 -7.651547E+04 -2.488226E+06  5.035527E+04  3.249314E+04
        18   5 -7.016648E+06 -1.434658E+06 -1.352875E+05 -3.230050E+06  9.976045E+04  1.100182E+05
        18   6 -7.821146E+06 -8.604795E+05 -2.980548E+05 -2.414787E+06  1.617732E+05  1.596006E+05
        18   7 -5.677883E+06  2.212747E+05  5.313239E+05 -1.812541E+06  6.416559E+04  3.852712E+04
        18   8 -3.757639E+06 -8.390029E+04  7.828235E+05 -2.234199E+06  1.077274E+05  1.134157E+05
        18   9 -3.414099E+06  9.308484E+05  9.356565E+05 -1.098864E+06  1.639975E+05  1.604879E+05
        18  10 -9.903463E+06 -1.602135E+06 -6.848055E+05 -3.161731E+06 -3.043136E-09 -5.607461E-09
        18  11 -1.026527E+07 -2.784386E+06 -1.054463E+06 -4.221035E+06 -4.817153E-09 -3.946524E-08
        18  12 -1.220925E+07 -2.650148E+06 -1.533719E+06 -3.722117E+06 -1.962473E-08 -1.200889E-09
        18  13 -7.792871E+06 -6.906987E+05 -7.652230E+04 -2.488227E+06  2.403151E-09 -1.211408E-08
        18  14 -7.016662E+06 -1.434674E+06 -1.353294E+05 -3.230059E+06 -1.046633E-08 -5.133341E-09
        18  15 -7.821181E+06 -8.605140E+05 -2.981528E+05 -2.414808E+06 -2.391241E-09 -1.075715E-08
        18  16 -5.677888E+06  2.212720E+05  5.313133E+05 -1.812543E+06 -7.982896E-10  3.297070E-08
        18  17 -3.757655E+06 -8.391728E+04  7.827772E+05 -2.234209E+06  1.549722E-09  2.302460E-09
        18  18 -3.414135E+06  9.308135E+05  9.355573E+05 -1.098886E+06  1.231688E-08 -1.347177E-08
        18  19 -9.903461E+06 -1.602134E+06 -6.848016E+05 -3.161730E+06 -3.659857E+04 -2.648349E+04
        18  20 -1.026526E+07 -2.784372E+06 -1.054426E+06 -4.221027E+06 -9.183929E+04 -1.066403E+05
        18  21 -1.220922E+07 -2.650113E+06 -1.533623E+06 -3.722096E+06 -1.595614E+05 -1.587188E+05
        18  22 -7.792868E+06 -6.906969E+05 -7.651547E+04 -2.488226E+06 -5.035527E+04 -3.249314E+04
        18  23 -7.016648E+06 -1.434658E+06 -1.352875E+05 -3.230050E+06 -9.976045E+04 -1.100182E+05
        18  24 -7.821146E+06 -8.604795E+05 -2.980548E+05 -2.414787E+06 -1.617732E+05 -1.596006E+05
        18  25 -5.677883E+06  2.212747E+05  5.313239E+05 -1.812541E+06 -6.416559E+04 -3.852712E+04
        18  26 -3.757639E+06 -8.390029E+04  7.828235E+05 -2.234199E+06 -1.077274E+05 -1.134157E+05
        18  27 -3.414099E+06  9.308484E+05  9.356565E+05 -1.098864E+06 -1.639975E+05 -1.604879E+05
        19   1 -1.583554E+07 -4.306886E+06 -2.684646E+06 -5.206322E+06  1.624643E+05  2.084050E+05
        19   2 -1.621863E+07 -4.589923E+06 -3.105196E+06 -5.623460E+06  4.974426E+05  3.927023E+05
        19   3 -1.734516E+07 -5.411381E+06 -4.037371E+06 -4.793437E+06  8.964789E+05  4.149758E+05
        19   4 -7.576956E+06 -8.396989E+05 -3.299117E+05 -2.663862E+06  1.911364E+05  2.202753E+05
        19   5 -7.289669E+06 -1.076996E+06 -6.116310E+05 -3.093314E+06  4.953942E+05  3.916314E+05
        19   6 -7.726847E+06 -1.831247E+06 -1.372288E+06 -2.277837E+06  8.637234E+05  4.019750E+05
        19   7  7.490294E+05  2.634736E+06  2.018100E+06 -8.918783E+04  2.202235E+05  2.323290E+05
        19   8  1.717722E+06  2.441624E+06  1.874374E+06 -5.293564E+05  4.932490E+05  3.905251E+05
        19   9  1.981859E+06  1.752879E+06  1.284213E+06  2.730458E+05  8.302799E+05  3.887346E+05
        19  10 -1.583558E+07 -4.306941E+06 -2.684780E+06 -5.206349E+06 -3.459375E-09 -3.245451E-09
        19  11 -1.621894E+07 -4.590160E+06 -3.105971E+06 -5.623620E+06 -3.788933E-10 -1.282843E-09
        19  12 -1.734609E+07 -5.411794E+06 -4.039261E+06 -4.793742E+06  1.113155E-09  1.536381E-09
        19  13 -7.577008E+06 -8.397611E+05 -3.300730E+05 -2.663896E+06 -6.309201E-09 -2.763879E-09
        19  14 -7.289977E+06 -1.077229E+06 -6.123900E+05 -3.093471E+06 -1.163876E-08  2.630543E-08
        19  15 -7.727701E+06 -1.831626E+06 -1.374016E+06 -2.278119E+06 -1.984373E-09 -8.693345E-10
        19  16  7.489630E+05  2.634665E+06  2.017908E+06 -8.922890E+04  1.168385E-08 -6.790922E-09
        19  17  1.717421E+06  2.441395E+06  1.873631E+06 -5.295111E+05  5.221100E-09  1.963250E-08
        19  18  1.981081E+06  1.752533E+06  1.282639E+06  2.727867E+05 -6.874972E-10  3.745138E-09
        19  19 -1.583554E+07 -4.306886E+06 -2.684646E+06 -5.206322E+06 -1.624643E+05 -2.084050E+05
        19  20 -1.621863E+07 -4.589923E+06 -3.105196E+06 -5.623460E+06 -4.974426E+05 -3.927023E+05
        19  21 -1.734516E+07 -5.411381E+06 -4.037371E+06 -4.793437E+06 -8.964789E+05 -4.149758E+05
        19  22 -7.576956E+06 -8.396989E+05 -3.299117E+05 -2.663862E+06 -1.911364E+05 -2.202753E+05
        19  23 -7.289669E+06 -1.076996E+06 -6.116310E+05 -3.093314E+06 -4.953942E+05 -3.916314E+05
        19  24 -7.726847E+06 -1.831247E+06 -1.372288E+06 -2.277837E+06 -8.637234E+05 -4.019750E+05
        19  25  7.490294E+05  2.634736E+06  2.018100E+06 -8.918783E+04 -2.202235E+05 -2.323290E+05
        19  26  1.717722E+06  2.441624E+06  1.874374E+06 -5.293564E+05 -4.932490E+05 -3.905251E+05
        19  27  1.981859E+06  1.752879E+06  1.284213E+06  2.730458E+05 -8.302799E+05 -3.887346E+05
        20   1 -9.811676E+04 -2.325937E+06 -1.725249E+05  5.680509E+04  6.919285E+02 -2.003773E+05
        20   2  1.748952E+05 -2.334513E+06 -1.714661E+04  4.617800E+03  1.934277E+03 -1.270386E+05
        20   3  1.300838E+05 -2.313172E+06  3.480628E+04  4.668785E+04  1.257418E+03 -5.372184E+04
        20   4 -2.187606E+05 -2.807175E+06 -2.931802E+05  5.347650E+04  6.931305E+02 -2.003251E+05
        20   5  5.274054E+04 -2.821728E+06 -1.392908E+05  6.582955E+03  1.934130E+03 -1.269903E+05
        20   6  6.246556E+03 -2.806481E+06 -8.889836E+04  5.395124E+04  1.256650E+03 -5.367818E+04
        20   7 -3.394220E+05 -3.288202E+06 -4.138530E+05  5.015058E+04  6.943328E+02 -2.002729E+05
        20   8 -6.943212E+04 -3.308727E+06 -2.614531E+05  8.546987E+03  1.933984E+03 -1.269420E+05
        20   9 -1.176090E+05 -3.299568E+06 -2.126215E+05  6.120961E+04  1.255882E+03 -5.363455E+04
        20  10 -9.812759E+04 -2.325980E+06 -1.726007E+05  5.680520E+04 -7.460954E-09 -2.969119E-10
        20  11  1.748908E+05 -2.334530E+06 -1.717706E+04  4.617998E+03 -7.368686E-09  5.405723E-09
        20  12  1.300830E+05 -2.313175E+06  3.480084E+04  4.668791E+04  5.168560E-09 -2.207373E-09
        20  13 -2.187715E+05 -2.807218E+06 -2.932559E+05  5.347661E+04 -2.070871E-09 -4.008704E-10
        20  14  5.273618E+04 -2.821745E+06 -1.393213E+05  6.583153E+03 -1.355995E-09 -2.110142E-09
        20  15  6.245777E+03 -2.806484E+06 -8.890380E+04  5.395130E+04  5.783535E-09 -4.645109E-09
        20  16 -3.394329E+05 -3.288246E+06 -4.139288E+05  5.015069E+04 -1.047844E-09  9.575556E-11
        20  17 -6.943647E+04 -3.308744E+06 -2.614835E+05  8.547185E+03 -2.377568E-09  5.133272E-09
        20  18 -1.176098E+05 -3.299571E+06 -2.126269E+05  6.120966E+04  3.208379E-09  4.302394E-10
        20  19 -9.811676E+04 -2.325937E+06 -1.725249E+05  5.680509E+04 -6.919285E+02  2.003773E+05
        20  20  1.748952E+05 -2.334513E+06 -1.714661E+04  4.617800E+03 -1.934277E+03  1.270386E+05
        20  21  1.300838E+05 -2.313172E+06  3.480628E+04  4.668785E+04 -1.257418E+03  5.372184E+04
        20  22 -2.187606E+05 -2.807175E+06 -2.931802E+05  5.347650E+04 -6.931305E+02  2.003251E+05
        20  23  5.274054E+04 -2.821728E+06 -1.392908E+05  6.582955E+03 -1.934130E+03  1.269903E+05
        20  24  6.246556E+03 -2.806481E+06 -8.889836E+04  5.395124E+04 -1.256650E+03  5.367818E+04
        20  25 -3.394220E+05 -3.288202E+06 -4.138530E+05  5.015058E+04 -6.943328E+02  2.002729E+05
        20  26 -6.943212E+04 -3.308727E+06 -2.614531E+05  8.546987E+03 -1.933984E+03  1.269420E+05
        20  27 -1.176090E+05 -3.299568E+06 -2.126215E+05  6.120961E+04 -1.255882E+03  5.363455E+04
        21   1 -6.177631E+04 -2.913388E+06 -1.082476E+05  1.909141E+04  6.681558E+02 -3.869835E+04
        21   2 -9.747048E+03 -2.905187E+06 -8.127181E+04  5.268608E+04 -6.976135E+01 -8.946036E+03
        21   3 -5.164052E+04 -2.921999E+06 -9.673620E+04  1.760319E+04 -4.768100E+02  2.081116E+04
        21   4 -3.801565E+04 -2.818872E+06 -8.453011E+04  1.711482E+04  6.681103E+02 -3.869196E+04
        21   5  1.506630E+04 -2.806328E+06 -5.647669E+04  5.158011E+04 -6.979467E+01 -8.943517E+03
        21   6 -2.576531E+04 -2.818792E+06 -7.085602E+04  1.736858E+04 -4.767667E+02  2.081001E+04
        21   7 -1.425567E+04 -2.724347E+06 -6.081326E+04  1.513796E+04  6.680647E+02 -3.868556E+04
        21   8  3.987891E+04 -2.707460E+06 -3.168231E+04  5.047400E+04 -6.982800E+01 -8.940998E+03
        21   9  1.090814E+02 -2.715574E+06 -4.497664E+04  1.713396E+04 -4.767234E+02  2.080886E+04
        21  10 -6.177672E+04 -2.913390E+06 -1.082505E+05  1.909143E+04  8.863277E-09 -2.313989E-09
        21  11 -9.747070E+03 -2.905188E+06 -8.127196E+04  5.268608E+04  5.741843E-11  1.092332E-08
        21  12 -5.164064E+04 -2.922000E+06 -9.673702E+04  1.760320E+04  1.882862E-09 -1.956974E-09
        21  13 -3.801606E+04 -2.818873E+06 -8.453294E+04  1.711484E+04  6.274474E-09 -3.750338E-09
        21  14  1.506628E+04 -2.806328E+06 -5.647684E+04  5.158011E+04 -2.898681E-09 -3.669306E-09
        21  15 -2.576543E+04 -2.818792E+06 -7.085683E+04  1.736859E+04  5.081263E-10 -4.421381E-09
        21  16 -1.425607E+04 -2.724348E+06 -6.081609E+04  1.513798E+04  5.610876E-09  2.347646E-10
        21  17  3.987889E+04 -2.707460E+06 -3.168246E+04  5.047400E+04 -3.558545E-09  8.499752E-09
        21  18  1.089643E+02 -2.715575E+06 -4.497746E+04  1.713397E+04 -1.923229E-09  6.576019E-11
        21  19 -6.177631E+04 -2.913388E+06 -1.082476E+05  1.909141E+04 -6.681558E+02  3.869835E+04
        21  20 -9.747048E+03 -2.905187E+06 -8.127181E+04  5.268608E+04  6.976135E+01  8.946036E+03
        21  21 -5.164052E+04 -2.921999E+06 -9.673620E+04  1.760319E+04  4.768100E+02 -2.081116E+04
        21  22 -3.801565E+04 -2.818872E+06 -8.453011E+04  1.711482E+04 -6.681103E+02  3.869196E+04
        21  23  1.506630E+04 -2.806328E+06 -5.647669E+04  5.158011E+04  6.979467E+01  8.943517E+03
        21  24 -2.576531E+04 -2.818792E+06 -7.085602E+04  1.736858E+04  4.767667E+02 -2.081001E+04
        21  25 -1.425567E+04 -2.724347E+06 -6.081326E+04  1.513796E+04 -6.680647E+02  3.868556E+04
        21  26  3.987891E+04 -2.707460E+06 -3.168231E+04  5.047400E+04  6.982800E+01  8.940998E+03
        21  27  1.090814E+02 -2.715574E+06 -4.497664E+04  1.713396E+04  4.767234E+02 -2.080886E+04
        22   1 -6.284573E+04 -3.069049E+06 -1.378079E+05  5.305557E+04 -6.884753E+02  3.389770E+04
        22   2 -1.961138E+04 -3.045080E+06 -1.628385E+05  1.303058E+04 -1.225900E+03  8.884784E+04
        22   3 -2.252330E+05 -3.059957E+06 -2.798356E+05  4.654945E+04 -9.691995E+02  1.438064E+05
        22   4 -7.499538E+02 -2.821781E+06 -7.577495E+04  4.936457E+04 -6.887402E+02  3.391380E+04
        22   5  4.121538E+04 -2.802565E+06 -1.020158E+05  1.213301E+04 -1.225929E+03  8.886380E+04
        22   6 -1.656189E+05 -2.822162E+06 -2.201958E+05  4.844360E+04 -9.686102E+02  1.438218E+05
        22   7  6.134120E+04 -2.574457E+06 -1.374661E+04  4.567225E+04 -6.890051E+02  3.392991E+04
        22   8  1.020377E+05 -2.559995E+06 -4.119761E+04  1.123522E+04 -1.225959E+03  8.887976E+04
        22   9 -1.060092E+05 -2.584315E+06 -1.605602E+05  5.033856E+04 -9.680208E+02  1.438372E+05
        22  10 -6.284604E+04 -3.069050E+06 -1.378101E+05  5.305559E+04  1.232705E-09 -1.988961E-09
        22  11 -1.961352E+04 -3.045089E+06 -1.628534E+05  1.303066E+04  6.590374E-09  6.762392E-09
        22  12 -2.252386E+05 -3.059979E+06 -2.798747E+05  4.654956E+04  3.125171E-11 -2.545239E-10
        22  13 -7.502648E+02 -2.821782E+06 -7.577712E+04  4.936459E+04  8.362787E-09 -2.997586E-09
        22  14  4.121324E+04 -2.802573E+06 -1.020307E+05  1.213310E+04  1.086995E-09 -2.024161E-09
        22  15 -1.656245E+05 -2.822184E+06 -2.202348E+05  4.844372E+04  1.316668E-09 -1.913244E-09
        22  16  6.134089E+04 -2.574458E+06 -1.374879E+04  4.567227E+04  1.465288E-08  6.203282E-10
        22  17  1.020355E+05 -2.560004E+06 -4.121252E+04  1.123530E+04  7.785423E-09  4.955176E-09
        22  18 -1.060148E+05 -2.584338E+06 -1.605992E+05  5.033867E+04  2.785976E-09 -5.563205E-10
        22  19 -6.284573E+04 -3.069049E+06 -1.378079E+05  5.305557E+04  6.884753E+02 -3.389770E+04
        22  20 -1.961138E+04 -3.045080E+06 -1.628385E+05  1.303058E+04  1.225900E+03 -8.884784E+04
        22  21 -2.252330E+05 -3.059957E+06 -2.798356E+05  4.654945E+04  9.691995E+02 -1.438064E+05
        22  22 -7.499538E+02 -2.821781E+06 -7.577495E+04  4.936457E+04  6.887402E+02 -3.391380E+04
        22  23  4.121538E+04 -2.802565E+06 -1.020158E+05  1.213301E+04  1.225929E+03 -8.886380E+04
        22  24 -1.656189E+05 -2.822162E+06 -2.201958E+05  4.844360E+04  9.686102E+02 -1.438218E+05
        22  25  6.134120E+04 -2.574457E+06 -1.374661E+04  4.567225E+04  6.890051E+02 -3.392991E+04
        22  26  1.020377E+05 -2.559995E+06 -4.119761E+04  1.123522E+04  1.225959E+03 -8.887976E+04
        22  27 -1.060092E+05 -2.584315E+06 -1.605602E+05  5.033856E+04  9.680208E+02 -1.438372E+05
        23   1  1.619333E+05 -7.661244E+05  1.563497E+05 -3.358088E+02  2.234960E+04 -6.220994E+01
        23   2  1.614448E+05 -7.681158E+05  1.560592E+05  1.078522E+02  2.230543E+04 -5.831291E+02
        23   3  1.612868E+05 -7.695587E+05  1.562755E+05 -6.323125E+02  2.214144E+04 -1.104228E+03
        23   4 -6.450198E+01 -1.419766E+06  7.774634E+02 -2.631266E+02  2.235118E+04 -7.079986E+01
        23   5 -1.251868E+02 -1.420034E+06  9.021572E+02  3.289067E+02  2.230697E+04 -5.252042E+02
        23   6  1.330916E+02 -1.419765E+06  1.487614E+03 -2.629571E+02  2.214289E+04 -9.797884E+02
        23   7 -1.620932E+05 -2.073014E+06 -1.548247E+05 -1.905111E+02  2.235276E+04 -7.938073E+01
        23   8 -1.617259E+05 -2.071561E+06 -1.542847E+05  5.497726E+02  2.230851E+04 -4.673397E+02
        23   9 -1.610511E+05 -2.069582E+06 -1.533299E+05  1.060885E+02  2.214434E+04 -8.554785E+02
        23  10  1.619327E+05 -7.661246E+05  1.563487E+05 -3.358077E+02  1.909992E-09  2.306540E-09
        23  11  1.614442E+05 -7.681159E+05  1.560583E+05  1.078627E+02  1.792963E-10  3.257386E-09
        23  12  1.612862E+05 -7.695588E+05  1.562746E+05 -6.322928E+02 -1.307387E-09  3.259318E-09
        23  13 -6.503808E+01 -1.419766E+06  7.765253E+02 -2.631254E+02  8.509581E-10 -1.301871E-10
        23  14 -1.257208E+02 -1.420034E+06  9.012222E+02  3.289162E+02  6.577338E-09 -2.474858E-10
        23  15  1.325652E+02 -1.419765E+06  1.486691E+03 -2.629397E+02  7.630328E-09 -1.044120E-10
        23  16 -1.620937E+05 -2.073014E+06 -1.548256E+05 -1.905097E+02  2.000941E-09 -2.358616E-09
        23  17 -1.617264E+05 -2.071561E+06 -1.542856E+05  5.497810E+02 -8.758485E-09 -4.014511E-09
        23  18 -1.610517E+05 -2.069582E+06 -1.533309E+05  1.061038E+02  1.173275E-09 -3.822449E-09
        23  19  1.619333E+05 -7.661244E+05  1.563497E+05 -3.358088E+02 -2.234960E+04  6.220994E+01
        23  20  1.614448E+05 -7.681158E+05  1.560592E+05  1.078522E+02 -2.230543E+04  5.831291E+02
        23  21  1.612868E+05 -7.695587E+05  1.562755E+05 -6.323125E+02 -2.214144E+04  1.104228E+03
        23  22 -6.450198E+01 -1.419766E+06  7.774634E+02 -2.631266E+02 -2.235118E+04  7.079986E+01
        23  23 -1.251868E+02 -1.420034E+06  9.021572E+02  3.289067E+02 -2.230697E+04  5.252042E+02
        23  24  1.330916E+02 -1.419765E+06  1.487614E+03 -2.629571E+02 -2.214289E+04  9.797884E+02
        23  25 -1.620932E+05 -2.073014E+06 -1.548247E+05 -1.905111E+02 -2.235276E+04  7.938073E+01
        23  26 -1.617259E+05 -2.071561E+06 -1.542847E+05  5.497726E+02 -2.230851E+04  4.673397E+02
        23  27 -1.610511E+05 -2.069582E+06 -1.533299E+05  1.060885E+02 -2.214434E+04  8.554785E+02
        24   1  1.599232E+05 -7.735989E+05  1.555717E+05 -1.584132E+03  2.217784E+04 -1.150753E+03
        24   2  1.584562E+05 -7.793787E+05  1.554991E+05  4.781584E+02  2.193602E+04 -3.200208E+03
        24   3  1.596935E+05 -7.838414E+05  1.575176E+05 -9.856781E+02  2.074853E+04 -5.251585E+03
        24   4 -1.793946E+02 -1.419610E+06  1.846104E+03 -7.846112E+02  2.217951E+04 -1.276059E+03
        24   5 -3.702384E+02 -1.420222E+06  2.978680E+03  9.803269E+02  2.193699E+04 -2.802492E+03
        24   6  2.053710E+03 -1.419606E+06  5.839916E+03 -7.810854E+02  2.074836E+04 -4.330863E+03
        24   7 -1.603122E+05 -2.065238E+06 -1.519087E+05  1.417092E+01  2.218119E+04 -1.401235E+03
        24   8 -1.592263E+05 -2.060687E+06 -1.495705E+05  1.482103E+03  2.193796E+04 -2.405185E+03
        24   9 -1.556154E+05 -2.055000E+06 -1.458662E+05 -5.765431E+02  2.074818E+04 -3.411079E+03
        24  10  1.599227E+05 -7.735990E+05  1.555708E+05 -1.584111E+03 -2.857174E-09  2.553575E-09
        24  11  1.584557E+05 -7.793788E+05  1.554982E+05  4.782150E+02  1.081995E-08  1.248224E-09
        24  12  1.596930E+05 -7.838415E+05  1.575168E+05 -9.855903E+02  9.710112E-09 -1.037860E-10
        24  13 -1.799230E+02 -1.419610E+06  1.845177E+03 -7.845884E+02  2.502738E-09  5.441570E-12
        24  14 -3.707570E+02 -1.420222E+06  2.977762E+03  9.803765E+02  7.041784E-09 -6.665685E-10
        24  15  2.053243E+03 -1.419607E+06  5.839072E+03 -7.810130E+02  7.717408E-09 -2.408433E-10
        24  16 -1.603127E+05 -2.065238E+06 -1.519097E+05  1.419598E+01  4.782281E-09 -3.383198E-09
        24  17 -1.592269E+05 -2.060687E+06 -1.495714E+05  1.482146E+03  1.373474E-10 -3.411022E-09
        24  18 -1.556158E+05 -2.055000E+06 -1.458671E+05 -5.764860E+02  5.530409E-09 -1.245727E-09
        24  19  1.599232E+05 -7.735989E+05  1.555717E+05 -1.584132E+03 -2.217784E+04  1.150753E+03
        24  20  1.584562E+05 -7.793787E+05  1.554991E+05  4.781584E+02 -2.193602E+04  3.200208E+03
        24  21  1.596935E+05 -7.838414E+05  1.575176E+05 -9.856781E+02 -2.074853E+04  5.251585E+03
        24  22 -1.793946E+02 -1.419610E+06  1.846104E+03 -7.846112E+02 -2.217951E+04  1.276059E+03
        24  23 -3.702384E+02 -1.420222E+06  2.978680E+03  9.803269E+02 -2.193699E+04  2.802492E+03
        24  24  2.053710E+03 -1.419606E+06  5.839916E+03 -7.810854E+02 -2.074836E+04  4.330863E+03
        24  25 -1.603122E+05 -2.065238E+06 -1.519087E+05  1.417092E+01 -2.218119E+04  1.401235E+03
        24  26 -1.592263E+05 -2.060687E+06 -1.495705E+05  1.482103E+03 -2.193796E+04  2.405185E+03
        24  27 -1.556154E+05 -2.055000E+06 -1.458662E+05 -5.765431E+02 -2.074818E+04  3.411079E+03
        25   1  1.542775E+05 -7.906480E+05  1.561707E+05 -5.240100E+03  2.239800E+04 -2.373775E+03
        25   2  1.504767E+05 -8.033844E+05  1.586127E+05  2.816473E+03  2.128627E+04 -1.591876E+04
        25   3  1.739035E+05 -8.072217E+05  1.767567E+05  4.768480E+03  6.812538E+03 -2.949936E+04
        25   4 -1.202431E+03 -1.418186E+06  7.142768E+03 -1.372879E+03  2.240544E+04 -5.426772E+03
        25   5 -2.824841E+03 -1.421988E+06  1.141387E+04  1.707511E+03  2.127789E+04 -1.159635E+04
        25   6  2.151209E+04 -1.418167E+06  2.626615E+04 -1.317056E+03  6.782626E+03 -1.780171E+04
        25   7 -1.567107E+05 -2.045361E+06 -1.419127E+05  2.490582E+03  2.241285E+04 -8.476692E+03
        25   8 -1.561540E+05 -2.040240E+06 -1.358117E+05  5.998592E+02  2.126949E+04 -7.278230E+03
        25   9 -1.309069E+05 -2.028772E+06 -1.242514E+05 -7.396365E+03  6.752469E+03 -6.115569E+03
        25  10  1.542769E+05 -7.906481E+05  1.561698E+05 -5.240057E+03  9.102525E-09 -2.259479E-09
        25  11  1.504762E+05 -8.033848E+05  1.586114E+05  2.816746E+03  4.815456E-09 -6.891368E-09
        25  12  1.739032E+05 -8.072226E+05  1.767549E+05  4.768642E+03  1.079345E-09 -7.640062E-09
        25  13 -1.202978E+03 -1.418186E+06  7.141769E+03 -1.372781E+03  1.587957E-09  1.190691E-10
        25  14 -2.825363E+03 -1.421988E+06  1.141277E+04  1.707710E+03  4.869807E-09 -1.342022E-09
        25  15  2.151195E+04 -1.418168E+06  2.626547E+04 -1.316959E+03 -4.703640E-09 -2.657873E-10
        25  16 -1.567113E+05 -2.045361E+06 -1.419137E+05  2.490735E+03  5.809159E-09  7.799324E-10
        25  17 -1.561545E+05 -2.040240E+06 -1.358127E+05  5.999840E+02  1.446923E-09  3.228148E-09
        25  18 -1.309070E+05 -2.028772E+06 -1.242516E+05 -7.396332E+03 -4.335636E-09  5.307070E-09
        25  19  1.542775E+05 -7.906480E+05  1.561707E+05 -5.240100E+03 -2.239800E+04  2.373775E+03
        25  20  1.504767E+05 -8.033844E+05  1.586127E+05  2.816473E+03 -2.128627E+04  1.591876E+04
        25  21  1.739035E+05 -8.072217E+05  1.767567E+05  4.768480E+03 -6.812538E+03  2.949936E+04
        25  22 -1.202431E+03 -1.418186E+06  7.142768E+03 -1.372879E+03 -2.240544E+04  5.426772E+03
        25  23 -2.824841E+03 -1.421988E+06  1.141387E+04  1.707511E+03 -2.127789E+04  1.159635E+04
        25  24  2.151209E+04 -1.418167E+06  2.626615E+04 -1.317056E+03 -6.782626E+03  1.780171E+04
        25  25 -1.567107E+05 -2.045361E+06 -1.419127E+05  2.490582E+03 -2.241285E+04  8.476692E+03
        25  26 -1.561540E+05 -2.040240E+06 -1.358117E+05  5.998592E+02 -2.126949E+04  7.278230E+03
        25  27 -1.309069E+05 -2.028772E+06 -1.242514E+05 -7.396365E+03 -6.752469E+03  6.115569E+03
        26   1  8.971510E+04  9.613768E+05  5.060735E+04 -6.533864E+00  3.132389E+04 -1.119623E+01
        26   2  8.974007E+04  9.613666E+05  5.074151E+04 -1.797085E+01  3.123947E+04 -4.065439E+02
        26   3  8.983686E+04  9.614343E+05  5.115342E+04 -3.706634E+01  3.099446E+04 -8.019257E+02
        26   4 -3.023228E+01  5.628844E+05  1.657643E+01 -1.701794E+00  3.132601E+04 -1.247457E+00
        26   5 -3.049317E+01  5.628789E+05  1.994447E+01  2.127979E+00  3.124155E+04 -1.068177E+01
        26   6 -2.585273E+01  5.628844E+05  3.337263E+01 -1.700595E+00  3.099646E+04 -2.014440E+01
        26   7 -8.978205E+04  1.645547E+05 -5.057477E+04  3.127603E+00  3.132813E+04  8.695249E+00
        26   8 -8.980756E+04  1.645539E+05 -5.070223E+04  2.221586E+01  3.124363E+04  3.849390E+02
        26   9 -8.989511E+04  1.644971E+05 -5.108740E+04  3.364592E+01  3.099845E+04  7.611601E+02
        26  10  8.971405E+04  9.613766E+05  5.060551E+04 -6.533581E+00  8.515732E-10 -5.624869E-08
        26  11  8.973902E+04  9.613664E+05  5.073968E+04 -1.796063E+01  1.606629E-09  1.112998E-08
        26  12  8.983583E+04  9.614341E+05  5.115161E+04 -3.704633E+01 -1.071546E-08  8.017576E-08
        26  13 -3.128632E+01  5.628841E+05  1.473186E+01 -1.701762E+00 -1.214811E-08  1.564148E-11
        26  14 -3.154153E+01  5.628786E+05  1.810983E+01  2.128248E+00  5.912431E-09 -1.607129E-10
        26  15 -2.688471E+01  5.628841E+05  3.156666E+01 -1.700092E+00  1.350754E-08  1.505706E-10
        26  16 -8.978311E+04  1.645545E+05 -5.057662E+04  3.127383E+00 -2.466391E-10  5.618025E-08
        26  17 -8.980861E+04  1.645536E+05 -5.070407E+04  2.220617E+01 -1.487953E-10 -1.119027E-08
        26  18 -8.989614E+04  1.644968E+05 -5.108920E+04  3.362692E+01 -2.693403E-09 -8.011371E-08
        26  19  8.971510E+04  9.613768E+05  5.060735E+04 -6.533864E+00 -3.132389E+04  1.119623E+01
        26  20  8.974007E+04  9.613666E+05  5.074151E+04 -1.797085E+01 -3.123947E+04  4.065439E+02
        26  21  8.983686E+04  9.614343E+05  5.115342E+04 -3.706634E+01 -3.099446E+04  8.019257E+02
        26  22 -3.023228E+01  5.628844E+05  1.657643E+01 -1.701794E+00 -3.132601E+04  1.247457E+00
        26  23 -3.049317E+01  5.628789E+05  1.994447E+01  2.127979E+00 -3.124155E+04  1.068177E+01
        26  24 -2.585273E+01  5.628844E+05  3.337263E+01 -1.700595E+00 -3.099646E+04  2.014440E+01
        26  25 -8.978205E+04  1.645547E+05 -5.057477E+04  3.127603E+00 -3.132813E+04 -8.695249E+00
        26  26 -8.980756E+04  1.645539E+05 -5.070223E+04  2.221586E+01 -3.124363E+04 -3.849390E+02
        26  27 -8.989511E+04  1.644971E+05 -5.108740E+04  3.364592E+01 -3.099845E+04 -7.611601E+02
        27   1  8.991642E+04  9.615452E+05  5.144285E+04 -6.350135E+01  3.083306E+04 -8.910033E+02
        27   2  9.017523E+04  9.614049E+05  5.283105E+04 -2.149032E+01  2.994480E+04 -3.469451E+03
        27   3  9.090451E+04  9.617259E+05  5.601620E+04 -5.755058E+01  2.799905E+04 -6.048268E+03
        27   4 -2.391483E+01  5.628866E+05  4.337583E+01 -1.735140E+01  3.083500E+04 -2.620533E+01
        27   5 -1.049737E+01  5.628762E+05  7.516993E+01  2.169432E+01  2.994611E+04 -6.329635E+01
        27   6  3.272945E+01  5.628866E+05  1.410256E+02 -1.734278E+01  2.799937E+04 -1.007498E+02
        27   7 -8.997083E+04  1.643905E+05 -5.135689E+04  2.877324E+01  3.083694E+04  8.380649E+02
        27   8 -9.020295E+04  1.645095E+05 -5.268186E+04  6.485768E+01  2.994742E+04  3.340777E+03
        27   9 -9.084612E+04  1.642085E+05 -5.573607E+04  2.284776E+01  2.799968E+04  5.843120E+03
        27  10  8.991540E+04  9.615450E+05  5.144106E+04 -6.347923E+01 -5.913232E-09 -1.810555E-07
        27  11  9.017426E+04  9.614047E+05  5.282935E+04 -2.140669E+01  9.437231E-12 -9.498893E-09
        27  12  9.090366E+04  9.617256E+05  5.601465E+04 -5.741426E+01  1.116071E-09  1.622882E-07
        27  13 -2.493609E+01  5.628863E+05  4.158862E+01 -1.735074E+01  1.336266E-08  1.115564E-10
        27  14 -1.146060E+01  5.628760E+05  7.348427E+01  2.169585E+01  5.935503E-09 -4.698266E-10
        27  15  3.188738E+01  5.628864E+05  1.395520E+02 -1.734051E+01  5.177143E-09  3.514607E-10
        27  16 -8.997185E+04  1.643902E+05 -5.135868E+04  2.875242E+01 -3.849665E-09  1.806703E-07
        27  17 -9.020391E+04  1.645093E+05 -5.268357E+04  6.477710E+01 -1.219099E-10  9.284724E-09
        27  18 -9.084697E+04  1.642082E+05 -5.573761E+04  2.271599E+01  1.928255E-09 -1.620485E-07
        27  19  8.991642E+04  9.615452E+05  5.144285E+04 -6.350135E+01 -3.083306E+04  8.910033E+02
        27  20  9.017523E+04  9.614049E+05  5.283105E+04 -2.149032E+01 -2.994480E+04  3.469451E+03
        27  21  9.090451E+04  9.617259E+05  5.601620E+04 -5.755059E+01 -2.799905E+04  6.048268E+03
        27  22 -2.391483E+01  5.628866E+05  4.337583E+01 -1.735139E+01 -3.083500E+04  2.620533E+01
        27  23 -1.049737E+01  5.628762E+05  7.516993E+01  2.169432E+01 -2.994611E+04  6.329635E+01
        27  24  3.272945E+01  5.628866E+05  1.410256E+02 -1.734279E+01 -2.799937E+04  1.007498E+02
        27  25 -8.997083E+04  1.643905E+05 -5.135689E+04  2.877324E+01 -3.083694E+04 -8.380649E+02
        27  26 -9.020295E+04  1.645095E+05 -5.268186E+04  6.485768E+01 -2.994742E+04 -3.340777E+03
        27  27 -9.084612E+04  1.642085E+05 -5.573607E+04  2.284776E+01 -2.799968E+04 -5.843120E+03
        28   1  9.146999E+04  9.623733E+05  5.814366E+04 -2.048242E+02  2.676948E+04 -6.694259E+03
        28   2  9.334540E+04  9.608867E+05  6.832138E+04  3.267520E+02  2.013567E+04 -2.564201E+04
        28   3  9.875184E+04  9.627541E+05  9.170656E+04  2.040828E+02  5.690672E+03 -4.459356E+04
        28   4  5.640843E+01  5.629042E+05  1.892935E+02 -1.455046E+02  2.676934E+04 -1.254511E+02
        28   5  2.150321E+02  5.628546E+05  3.486364E+02  1.819469E+02  2.012841E+04 -3.022419E+02
        28   6  6.497183E+02  5.629045E+05  6.928863E+02 -1.453447E+02  5.674015E+03 -4.827334E+02
        28   7 -9.136448E+04  1.635958E+05 -5.776752E+04 -8.621398E+01  2.676919E+04  6.439312E+03
        28   8 -9.292341E+04  1.649794E+05 -6.762696E+04  3.724970E+01  2.012113E+04  2.502182E+04
        28   9 -9.746241E+04  1.632071E+05 -9.032388E+04 -4.945324E+02  5.657304E+03  4.359998E+04
        28  10  9.146920E+04  9.623731E+05  5.814222E+04 -2.046799E+02  3.417247E-09  8.186911E-09
        28  11  9.334479E+04  9.608859E+05  6.831939E+04  3.271677E+02  3.576400E-10  3.826272E-09
        28  12  9.875128E+04  9.627519E+05  9.170277E+04  2.042871E+02  1.707507E-09  1.274243E-09
        28  13  5.563872E+01  5.629040E+05  1.879465E+02 -1.455019E+02 -9.392433E-10  3.916981E-10
        28  14  2.145969E+02  5.628545E+05  3.478747E+02  1.819518E+02  9.072089E-10 -7.343353E-10
        28  15  6.496837E+02  5.629045E+05  6.928253E+02 -1.453425E+02 -1.656764E-09  4.823104E-10
        28  16 -9.136526E+04  1.635956E+05 -5.776895E+04 -8.635281E+01 -9.029957E-10 -8.593358E-09
        28  17 -9.292401E+04  1.649786E+05 -6.762890E+04  3.684420E+01 -2.985751E-09 -4.061096E-09
        28  18 -9.746296E+04  1.632051E+05 -9.032751E+04 -4.947311E+02 -1.052041E-09 -1.091713E-09
        28  19  9.146999E+04  9.623733E+05  5.814366E+04 -2.048242E+02 -2.676948E+04  6.694259E+03
        28  20  9.334540E+04  9.608867E+05  6.832138E+04  3.267520E+02 -2.013567E+04  2.564201E+04
        28  21  9.875184E+04  9.627541E+05  9.170656E+04  2.040828E+02 -5.690672E+03  4.459356E+04
        28  22  5.640843E+01  5.629042E+05  1.892935E+02 -1.455046E+02 -2.676934E+04  1.254511E+02
        28  23  2.150321E+02  5.628546E+05  3.486364E+02  1.819469E+02 -2.012841E+04  3.022419E+02
        28  24  6.497183E+02  5.629045E+05  6.928863E+02 -1.453447E+02 -5.674015E+03  4.827334E+02
        28  25 -9.136448E+04  1.635958E+05 -5.776752E+04 -8.621398E+01 -2.676919E+04 -6.439312E+03
        28  26 -9.292341E+04  1.649794E+05 -6.762696E+04  3.724970E+01 -2.012113E+04 -2.502182E+04
        28  27 -9.746241E+04  1.632071E+05 -9.032388E+04 -4.945324E+02 -5.657304E+03 -4.359998E+04
        29   1 -5.445454E+06 -5.902758E+05 -7.529108E+05  1.923527E+04 -4.655089E+05 -2.255763E+03
        29   2 -5.367471E+06  5.193957E+04 -3.667207E+05 -2.837267E+04 -3.059489E+05  8.229863E+01
        29   3 -5.457224E+06 -5.751040E+04 -2.645553E+05  3.130143E+04 -1.463998E+05  6.020159E+02
        29   4 -5.161004E+06 -5.186036E+05 -6.813357E+05  2.912481E+04 -4.656008E+05 -2.262877E+03
        29   5 -5.076388E+06  1.251391E+05 -2.935231E+05 -2.585625E+04 -3.060202E+05  8.108857E+01
        29   6 -5.159410E+06  1.740827E+04 -1.896535E+05  2.644067E+04 -1.464489E+05  6.031548E+02
        29   7 -4.876480E+06 -4.469373E+05 -6.097668E+05  3.901882E+04 -4.656928E+05 -2.269990E+03
        29   8 -4.785228E+06  1.983322E+05 -2.203319E+05 -2.333867E+04 -3.060916E+05  7.987845E+01
        29   9 -4.861515E+06  9.232023E+04 -1.147584E+05  2.157761E+04 -1.464979E+05  6.042939E+02
        29  10 -5.445688E+06 -5.903346E+05 -7.533216E+05  1.923442E+04 -1.560768E-09  5.792895E-09
        29  11 -5.367572E+06  5.191417E+04 -3.668982E+05 -2.837265E+04 -7.864476E-10  5.859756E-09
        29  12 -5.457247E+06 -5.751622E+04 -2.645960E+05  3.130150E+04 -1.341002E-09 -9.265297E-09
        29  13 -5.161239E+06 -5.186624E+05 -6.817465E+05  2.912396E+04  9.704161E-11  7.077962E-10
        29  14 -5.076489E+06  1.251137E+05 -2.937005E+05 -2.585623E+04 -4.240832E-09  7.718988E-11
        29  15 -5.159433E+06  1.740245E+04 -1.896941E+05  2.644075E+04  3.691996E-09  5.923510E-10
        29  16 -4.876715E+06 -4.469961E+05 -6.101776E+05  3.901797E+04 -2.490001E-09  7.802925E-10
        29  17 -4.785329E+06  1.983068E+05 -2.205094E+05 -2.333865E+04  1.811395E-10 -3.516532E-09
        29  18 -4.861538E+06  9.231441E+04 -1.147991E+05  2.157768E+04  1.750734E-09  7.481989E-09
        29  19 -5.445454E+06 -5.902758E+05 -7.529108E+05  1.923527E+04  4.655089E+05  2.255763E+03
        29  20 -5.367471E+06  5.193957E+04 -3.667207E+05 -2.837267E+04  3.059489E+05 -8.229863E+01
        29  21 -5.457224E+06 -5.751040E+04 -2.645553E+05  3.130143E+04  1.463998E+05 -6.020159E+02
        29  22 -5.161004E+06 -5.186036E+05 -6.813357E+05  2.912481E+04  4.656008E+05  2.262877E+03
        29  23 -5.076388E+06  1.251391E+05 -2.935231E+05 -2.585625E+04  3.060202E+05 -8.108857E+01
        29  24 -5.159410E+06  1.740827E+04 -1.896535E+05  2.644067E+04  1.464489E+05 -6.031548E+02
        29  25 -4.876480E+06 -4.469373E+05 -6.097668E+05  3.901882E+04  4.656928E+05  2.269990E+03
        29  26 -4.785228E+06  1.983322E+05 -2.203319E+05 -2.333867E+04  3.060916E+05 -7.987845E+01
        29  27 -4.861515E+06  9.232023E+04 -1.147584E+05  2.157761E+04  1.464979E+05 -6.042939E+02
        30   1 -5.021964E+06 -5.587944E+04 -1.319757E+05 -6.946903E+03 -1.151573E+05  3.129527E+02
        30   2 -5.004659E+06  4.755705E+04 -4.791589E+04  1.336658E+04 -7.557852E+04 -1.154845E+02
        30   3 -5.016829E+06  3.086473E+04 -1.863592E+04 -4.431232E+03 -3.599838E+04 -1.108533E+02
        30   4 -5.129170E+06 -8.284383E+04 -1.589323E+05 -5.373790E+03 -1.151561E+05  3.126980E+02
        30   5 -5.114278E+06  1.999729E+04 -7.547281E+04  1.379981E+04 -7.557294E+04 -1.155337E+02
        30   6 -5.128869E+06  2.696982E+03 -4.680292E+04 -5.138323E+03 -3.598862E+04 -1.108137E+02
        30   7 -5.236365E+06 -1.098091E+05 -1.858898E+05 -3.800943E+03 -1.151549E+05  3.124433E+02
        30   8 -5.223886E+06 -7.563387E+03 -1.030307E+05  1.423296E+04 -7.556735E+04 -1.155829E+02
        30   9 -5.240897E+06 -2.547172E+04 -7.497088E+04 -5.845285E+03 -3.597886E+04 -1.107740E+02
        30  10 -5.021978E+06 -5.588304E+04 -1.320008E+05 -6.946874E+03 -3.085979E-09  1.900585E-08
        30  11 -5.004665E+06  4.755551E+04 -4.792671E+04  1.336657E+04  2.108608E-09  4.844725E-09
        30  12 -5.016830E+06  3.086438E+04 -1.863837E+04 -4.431235E+03  4.105126E-09 -3.671943E-08
        30  13 -5.129184E+06 -8.284742E+04 -1.589575E+05 -5.373761E+03  2.598527E-10  3.926198E-09
        30  14 -5.114284E+06  1.999574E+04 -7.548363E+04  1.379980E+04  4.501074E-09  7.592039E-09
        30  15 -5.128870E+06  2.696631E+03 -4.680537E+04 -5.138326E+03 -5.549500E-09  3.529737E-09
        30  16 -5.236380E+06 -1.098127E+05 -1.859150E+05 -3.800914E+03  2.489940E-09 -1.749733E-09
        30  17 -5.223893E+06 -7.564936E+03 -1.030415E+05  1.423295E+04  2.151144E-09  4.429377E-09
        30  18 -5.240898E+06 -2.547208E+04 -7.497333E+04 -5.845288E+03 -3.514865E-09  2.612724E-08
        30  19 -5.021964E+06 -5.587944E+04 -1.319757E+05 -6.946903E+03  1.151573E+05 -3.129527E+02
        30  20 -5.004659E+06  4.755705E+04 -4.791589E+04  1.336658E+04  7.557852E+04  1.154845E+02
        30  21 -5.016829E+06  3.086473E+04 -1.863592E+04 -4.431232E+03  3.599838E+04  1.108533E+02
        30  22 -5.129170E+06 -8.284383E+04 -1.589323E+05 -5.373790E+03  1.151561E+05 -3.126980E+02
        30  23 -5.114278E+06  1.999729E+04 -7.547281E+04  1.379981E+04  7.557294E+04  1.155337E+02
        30  24 -5.128869E+06  2.696982E+03 -4.680292E+04 -5.138323E+03  3.598862E+04  1.108137E+02
        30  25 -5.236365E+06 -1.098091E+05 -1.858898E+05 -3.800943E+03  1.151549E+05 -3.124433E+02
        30  26 -5.223886E+06 -7.563387E+03 -1.030307E+05  1.423296E+04  7.556735E+04  1.155829E+02
        30  27 -5.240897E+06 -2.547172E+04 -7.497088E+04 -5.845285E+03  3.597886E+04  1.107740E+02
        31   1 -5.165296E+06 -2.365345E+04 -4.841009E+04  6.096098E+03 -2.836678E+04  1.302531E+01
        31   2 -5.163534E+06 -7.521138E+03 -3.013130E+04 -5.568887E+02 -1.841396E+04  9.133405E+01
        31   3 -5.166976E+06 -1.058230E+04 -2.298728E+04  6.445254E+03 -8.461260E+03  5.003048E+01
        31   4 -5.123541E+06 -1.315467E+04 -3.791152E+04  6.302367E+03 -2.836486E+04  1.301643E+01
        31   5 -5.120910E+06  3.195685E+03 -1.941542E+04 -5.263339E+02 -1.841431E+04  9.133256E+01
        31   6 -5.123482E+06  3.537011E+02 -1.205198E+04  6.300040E+03 -8.463866E+03  5.003419E+01
        31   7 -5.081784E+06 -2.656021E+03 -2.741309E+04  6.508650E+03 -2.836295E+04  1.300756E+01
        31   8 -5.078284E+06  1.391237E+04 -8.699674E+03 -4.957769E+02 -1.841467E+04  9.133107E+01
        31   9 -5.079987E+06  1.128956E+04 -1.116829E+03  6.154815E+03 -8.466472E+03  5.003789E+01
        31  10 -5.165296E+06 -2.365367E+04 -4.841161E+04  6.096098E+03 -2.069685E-09  1.029622E-08
        31  11 -5.163534E+06 -7.521230E+03 -3.013194E+04 -5.568874E+02 -1.678896E-09  4.937888E-08
        31  12 -5.166976E+06 -1.058232E+04 -2.298741E+04  6.445254E+03  1.383888E-08 -2.073684E-07
        31  13 -5.123541E+06 -1.315489E+04 -3.791305E+04  6.302367E+03 -4.317558E-09  1.853672E-09
        31  14 -5.120910E+06  3.195593E+03 -1.941606E+04 -5.263326E+02  8.575721E-09  3.431916E-09
        31  15 -5.123482E+06  3.536817E+02 -1.205212E+04  6.300040E+03 -1.756357E-09  5.313755E-09
        31  16 -5.081785E+06 -2.656239E+03 -2.741461E+04  6.508650E+03  2.577663E-09 -9.109390E-09
        31  17 -5.078285E+06  1.391228E+04 -8.700317E+03 -4.957755E+02  3.707195E-09 -4.863356E-08
        31  18 -5.079987E+06  1.128954E+04 -1.116965E+03  6.154815E+03 -1.737732E-08  2.221085E-07
        31  19 -5.165296E+06 -2.365345E+04 -4.841009E+04  6.096098E+03  2.836678E+04 -1.302531E+01
        31  20 -5.163534E+06 -7.521138E+03 -3.013130E+04 -5.568887E+02  1.841396E+04 -9.133405E+01
        31  21 -5.166976E+06 -1.058230E+04 -2.298728E+04  6.445254E+03  8.461260E+03 -5.003048E+01
        31  22 -5.123541E+06 -1.315467E+04 -3.791152E+04  6.302367E+03  2.836486E+04 -1.301643E+01
        31  23 -5.120910E+06  3.195685E+03 -1.941542E+04 -5.263339E+02  1.841431E+04 -9.133256E+01
        31  24 -5.123482E+06  3.537013E+02 -1.205198E+04  6.300040E+03  8.463866E+03 -5.003419E+01
        31  25 -5.081784E+06 -2.656021E+03 -2.741309E+04  6.508650E+03  2.836295E+04 -1.300756E+01
        31  26 -5.078284E+06  1.391237E+04 -8.699674E+03 -4.957769E+02  1.841467E+04 -9.133107E+01
        31  27 -5.079987E+06  1.128956E+04 -1.116829E+03  6.154815E+03  8.466472E+03 -5.003789E+01
        32   1 -5.102937E+06  2.876445E+03 -4.861226E+03  2.377222E+03 -6.494294E+03 -2.899361E+00
        32   2 -5.102150E+06  5.574926E+03 -1.037816E+03  4.301795E+03 -3.451947E+03 -3.767231E+01
        32   3 -5.102444E+06  4.795267E+03 -3.892759E+01  2.440121E+03 -4.095057E+02 -1.728081E+01
        32   4 -5.122576E+06 -2.061254E+03 -9.798751E+03  2.422707E+03 -6.495568E+03 -2.898466E+00
        32   5 -5.122030E+06  5.766540E+02 -6.035585E+03  4.316770E+03 -3.451990E+03 -3.767238E+01
        32   6 -5.122566E+06 -2.638593E+02 -5.097863E+03  2.424579E+03 -4.083186E+02 -1.728138E+01
        32   7 -5.142214E+06 -6.998984E+03 -1.473631E+04  2.468191E+03 -6.496841E+03 -2.897571E+00
        32   8 -5.141910E+06 -4.421648E+03 -1.103338E+04  4.331746E+03 -3.452032E+03 -3.767246E+01
        32   9 -5.142688E+06 -5.323017E+03 -1.015683E+04  2.409037E+03 -4.071315E+02 -1.728196E+01
        32  10 -5.102937E+06  2.876434E+03 -4.861306E+03  2.377220E+03 -4.741172E-06 -3.315573E-07
        32  11 -5.102150E+06  5.574924E+03 -1.037838E+03  4.301785E+03 -2.112426E-05 -6.739303E-07
        32  12 -5.102444E+06  4.795269E+03 -3.892753E+01  2.440103E+03 -3.744793E-05 -1.563087E-06
        32  13 -5.122576E+06 -2.061266E+03 -9.798831E+03  2.422707E+03 -1.193023E-05  1.194941E-07
        32  14 -5.122030E+06  5.766508E+02 -6.035608E+03  4.316770E+03 -5.291214E-05  5.084011E-07
        32  15 -5.122566E+06 -2.638590E+02 -5.097863E+03  2.424579E+03 -9.388704E-05  8.749260E-07
        32  16 -5.142214E+06 -6.998995E+03 -1.473639E+04  2.468193E+03 -4.798864E-06  1.907393E-07
        32  17 -5.141910E+06 -4.421652E+03 -1.103341E+04  4.331756E+03 -2.119177E-05 -2.477604E-08
        32  18 -5.142688E+06 -5.323018E+03 -1.015683E+04  2.409055E+03 -3.766619E-05  2.731611E-07
        32  19 -5.102937E+06  2.876446E+03 -4.861226E+03  2.377218E+03  6.494294E+03  2.899360E+00
        32  20 -5.102150E+06  5.574928E+03 -1.037815E+03  4.301775E+03  3.451947E+03  3.767231E+01
        32  21 -5.102444E+06  4.795270E+03 -3.892684E+01  2.440085E+03  4.095056E+02  1.728081E+01
        32  22 -5.122576E+06 -2.061254E+03 -9.798751E+03  2.422707E+03  6.495567E+03  2.898466E+00
        32  23 -5.122030E+06  5.766541E+02 -6.035585E+03  4.316770E+03  3.451990E+03  3.767238E+01
        32  24 -5.122566E+06 -2.638587E+02 -5.097863E+03  2.424579E+03  4.083185E+02  1.728139E+01
        32  25 -5.142214E+06 -6.998984E+03 -1.473631E+04  2.468196E+03  6.496841E+03  2.897572E+00
        32  26 -5.141910E+06 -4.421649E+03 -1.103339E+04  4.331766E+03  3.452032E+03  3.767246E+01
        32  27 -5.142688E+06 -5.323019E+03 -1.015683E+04  2.409073E+03  4.071315E+02  1.728196E+01
        33   1 -5.140463E+06 -4.760726E+03 -9.614632E+03  2.770871E+03  5.111287E+02  1.416478E+01
        33   2 -5.139764E+06 -3.879746E+03 -1.059146E+04  3.876300E+03  3.603525E+03  3.336264E+01
        33   3 -5.140198E+06 -6.511306E+03 -1.444159E+04  2.828912E+03  6.695881E+03  3.427372E+00
        33   4 -5.122578E+06 -2.638619E+02 -5.117920E+03  2.787536E+03  5.122162E+02  1.416428E+01
        33   5 -5.122016E+06  5.825652E+02 -6.129594E+03  3.863060E+03  3.603519E+03  3.336257E+01
        33   6 -5.122587E+06 -2.083297E+03 -1.001375E+04  2.785771E+03  6.694780E+03  3.428040E+00
        33   7 -5.104692E+06  4.232978E+03 -6.212327E+02  2.804202E+03  5.133041E+02  1.416377E+01
        33   8 -5.104267E+06  5.044852E+03 -1.667752E+03  3.849820E+03  3.603513E+03  3.336248E+01
        33   9 -5.104976E+06  2.344688E+03 -5.585936E+03  2.742629E+03  6.693680E+03  3.428670E+00
        33  10 -5.140463E+06 -4.760722E+03 -9.614631E+03  2.770833E+03 -7.815159E-05 -4.047608E-06
        33  11 -5.139764E+06 -3.879738E+03 -1.059148E+04  3.876202E+03 -2.026396E-04 -8.661371E-06
        33  12 -5.140198E+06 -6.511301E+03 -1.444167E+04  2.828754E+03 -3.275465E-04 -9.308829E-06
        33  13 -5.122578E+06 -2.638618E+02 -5.117921E+03  2.787536E+03 -1.964817E-04  2.240758E-06
        33  14 -5.122016E+06  5.825625E+02 -6.129619E+03  3.863060E+03 -5.080814E-04  6.639009E-06
        33  15 -5.122587E+06 -2.083309E+03 -1.001384E+04  2.785771E+03 -8.196769E-04  1.113803E-05
        33  16 -5.104692E+06  4.232975E+03 -6.212341E+02  2.804240E+03 -7.904095E-05  6.676987E-07
        33  17 -5.104267E+06  5.044840E+03 -1.667779E+03  3.849918E+03 -2.038285E-04 -1.124103E-06
        33  18 -5.104976E+06  2.344660E+03 -5.586025E+03  2.742787E+03 -3.282165E-04 -6.696598E-06
        33  19 -5.140463E+06 -4.760718E+03 -9.614630E+03  2.770795E+03 -5.111288E+02 -1.416479E+01
        33  20 -5.139764E+06 -3.879723E+03 -1.059145E+04  3.876105E+03 -3.603526E+03 -3.336266E+01
        33  21 -5.140198E+06 -6.511273E+03 -1.444158E+04  2.828597E+03 -6.695882E+03 -3.427389E+00
        33  22 -5.122578E+06 -2.638615E+02 -5.117921E+03  2.787536E+03 -5.122166E+02 -1.416427E+01
        33  23 -5.122016E+06  5.825669E+02 -6.129595E+03  3.863060E+03 -3.603520E+03 -3.336256E+01
        33  24 -5.122587E+06 -2.083297E+03 -1.001375E+04  2.785771E+03 -6.694782E+03 -3.428018E+00
        33  25 -5.104692E+06  4.232972E+03 -6.212345E+02  2.804278E+03 -5.133042E+02 -1.416377E+01
        33  26 -5.104267E+06  5.044835E+03 -1.667757E+03  3.850015E+03 -3.603513E+03 -3.336248E+01
        33  27 -5.104976E+06  2.344656E+03 -5.585944E+03  2.742944E+03 -6.693681E+03 -3.428685E+00
        34   1 -5.088903E+06  9.068294E+03 -3.639035E+03  5.420446E+03  8.714341E+03 -4.076719E+01
        34   2 -5.086768E+06  1.180290E+04 -1.134747E+04  4.296916E+02  1.891404E+04 -7.571319E+01
        34   3 -5.090278E+06 -4.980539E+03 -3.049897E+04  5.762836E+03  2.911353E+04 -1.487769E+01
        34   4 -5.123581E+06  3.491954E+02 -1.235754E+04  5.560416E+03  8.712238E+03 -4.076385E+01
        34   5 -5.120787E+06  3.249980E+03 -1.989964E+04  3.984310E+02  1.891373E+04 -7.571458E+01
        34   6 -5.123639E+06 -1.336819E+04 -3.888650E+04  5.560382E+03  2.911503E+04 -1.488724E+01
        34   7 -5.158258E+06 -8.369996E+03 -2.107614E+04  5.700379E+03  8.710136E+03 -4.076054E+01
        34   8 -5.154805E+06 -5.303025E+03 -2.845191E+04  3.671722E+02  1.891342E+04 -7.571598E+01
        34   9 -5.156998E+06 -2.175593E+04 -4.727412E+04  5.357939E+03  2.911652E+04 -1.489680E+01
        34  10 -5.088903E+06  9.068289E+03 -3.639175E+03  5.420291E+03 -3.234940E-04 -6.262761E-06
        34  11 -5.086769E+06  1.180281E+04 -1.134814E+04  4.296054E+02 -1.827215E-04 -3.690350E-07
        34  12 -5.090279E+06 -4.980768E+03 -3.050058E+04  5.762816E+03 -4.151830E-05  1.457170E-06
        34  13 -5.123581E+06  3.491750E+02 -1.235768E+04  5.560416E+03 -8.077519E-04  1.098881E-05
        34  14 -5.120788E+06  3.249883E+03 -1.990032E+04  3.984322E+02 -4.551614E-04  6.057226E-06
        34  15 -5.123640E+06 -1.336842E+04 -3.888811E+04  5.560382E+03 -1.025884E-04  1.325953E-06
        34  16 -5.158258E+06 -8.370033E+03 -2.107629E+04  5.700534E+03 -3.227224E-04 -9.643486E-06
        34  17 -5.154806E+06 -5.303132E+03 -2.845259E+04  3.672608E+02 -1.814098E-04 -8.869947E-06
        34  18 -5.156999E+06 -2.175616E+04 -4.727573E+04  5.357960E+03 -4.055219E-05 -3.596494E-06
        34  19 -5.088903E+06  9.068326E+03 -3.639027E+03  5.420136E+03 -8.714341E+03  4.076718E+01
        34  20 -5.086768E+06  1.180291E+04 -1.134746E+04  4.295169E+02 -1.891404E+04  7.571319E+01
        34  21 -5.090278E+06 -4.980537E+03 -3.049897E+04  5.762796E+03 -2.911353E+04  1.487769E+01
        34  22 -5.123581E+06  3.491958E+02 -1.235754E+04  5.560416E+03 -8.712240E+03  4.076387E+01
        34  23 -5.120787E+06  3.249979E+03 -1.989964E+04  3.984310E+02 -1.891373E+04  7.571459E+01
        34  24 -5.123639E+06 -1.336819E+04 -3.888650E+04  5.560382E+03 -2.911503E+04  1.488725E+01
        34  25 -5.158258E+06 -8.370029E+03 -2.107615E+04  5.700689E+03 -8.710137E+03  4.076052E+01
        34  26 -5.154805E+06 -5.303046E+03 -2.845191E+04  3.673471E+02 -1.891342E+04  7.571596E+01
        34  27 -5.156998E+06 -2.175593E+04 -4.727412E+04  5.357979E+03 -2.911652E+04  1.489680E+01
        35   1 -5.217045E+06 -1.932337E+04 -7.015151E+04 -3.960060E+03  3.695865E+04  8.124184E+01
        35   2 -5.199013E+06 -1.045682E+03 -9.886677E+04  1.183478E+04  7.756533E+04  7.754095E+01
        35   3 -5.213595E+06 -1.057880E+05 -1.842213E+05 -1.931372E+03  1.181717E+05 -2.663687E+02
        35   4 -5.129568E+06  2.671502E+03 -4.815701E+04 -3.247239E+03  3.696634E+04  8.128312E+01
        35   5 -5.113410E+06  2.047854E+04 -7.734481E+04  1.143323E+04  7.756983E+04  7.749335E+01
        35   6 -5.129862E+06 -8.472457E+04 -1.631642E+05 -3.447046E+03  1.181729E+05 -2.666338E+02
        35   7 -5.042084E+06  2.466579E+04 -2.616310E+04 -2.534316E+03  3.697404E+04  8.132440E+01
        35   8 -5.027801E+06  4.200221E+04 -5.582340E+04  1.103163E+04  7.757434E+04  7.744576E+01
        35   9 -5.046122E+06 -6.366162E+04 -1.421076E+05 -4.962922E+03  1.181741E+05 -2.668989E+02
        35  10 -5.217046E+06 -1.932374E+04 -7.015410E+04 -3.960063E+03 -7.880733E-08  7.501437E-07
        35  11 -5.199019E+06 -1.047314E+03 -9.887817E+04  1.183477E+04  2.085959E-08 -1.811670E-07
        35  12 -5.213610E+06 -1.057918E+05 -1.842478E+05 -1.931347E+03  7.325709E-09 -4.544346E-08
        35  13 -5.129569E+06  2.671131E+03 -4.815960E+04 -3.247242E+03  2.743873E-09 -7.253903E-09
        35  14 -5.113417E+06  2.047691E+04 -7.735621E+04  1.143323E+04 -2.462846E-09  1.117821E-09
        35  15 -5.129877E+06 -8.472835E+04 -1.631906E+05 -3.447021E+03  2.535852E-09  1.456670E-09
        35  16 -5.042086E+06  2.466542E+04 -2.616569E+04 -2.534319E+03  7.866628E-08 -7.687195E-07
        35  17 -5.027808E+06  4.200058E+04 -5.583480E+04  1.103163E+04 -1.913816E-08  1.710094E-07
        35  18 -5.046137E+06 -6.366540E+04 -1.421341E+05 -4.962896E+03 -6.414064E-10  3.927070E-08
        35  19 -5.217045E+06 -1.932337E+04 -7.015151E+04 -3.960060E+03 -3.695865E+04 -8.124184E+01
        35  20 -5.199013E+06 -1.045682E+03 -9.886677E+04  1.183478E+04 -7.756533E+04 -7.754095E+01
        35  21 -5.213595E+06 -1.057880E+05 -1.842213E+05 -1.931372E+03 -1.181717E+05  2.663687E+02
        35  22 -5.129568E+06  2.671502E+03 -4.815702E+04 -3.247239E+03 -3.696634E+04 -8.128312E+01
        35  23 -5.113410E+06  2.047855E+04 -7.734481E+04  1.143323E+04 -7.756983E+04 -7.749335E+01
        35  24 -5.129862E+06 -8.472457E+04 -1.631642E+05 -3.447046E+03 -1.181729E+05  2.666338E+02
        35  25 -5.042084E+06  2.466579E+04 -2.616310E+04 -2.534316E+03 -3.697404E+04 -8.132440E+01
        35  26 -5.027801E+06  4.200221E+04 -5.582340E+04  1.103163E+04 -7.757434E+04 -7.744576E+01
        35  27 -5.046122E+06 -6.366162E+04 -1.421076E+05 -4.962922E+03 -1.181741E+05  2.668989E+02
        36   1 -4.932488E+06  7.567748E+04 -1.372889E+05  1.651733E+04  1.505450E+05 -4.988555E+02
        36   2 -4.843324E+06  1.860451E+05 -2.432207E+05 -1.698481E+04  3.141952E+05 -9.667481E+01
        36   3 -4.944414E+06 -4.782663E+05 -6.448064E+05  3.304331E+04  4.778549E+05  1.752268E+03
        36   4 -5.164479E+06  1.733398E+04 -1.956180E+05  2.132158E+04  1.505061E+05 -4.976931E+02
        36   5 -5.070078E+06  1.290420E+05 -3.002232E+05 -1.940717E+04  3.141381E+05 -9.788877E+01
        36   6 -5.166005E+06 -5.340802E+05 -7.005473E+05  2.339725E+04  4.777811E+05  1.745005E+03
        36   7 -5.396422E+06 -4.101356E+04 -2.539512E+05  2.612403E+04  1.504671E+05 -4.965308E+02
        36   8 -5.296784E+06  7.203506E+04 -3.572297E+05 -2.182865E+04  3.140811E+05 -9.910268E+01
        36   9 -5.387550E+06 -5.898976E+05 -7.562920E+05  1.375460E+04  4.777073E+05  1.737741E+03
        36  10 -4.932512E+06  7.567133E+04 -1.373318E+05  1.651739E+04 -1.404835E-08  1.305271E-07
        36  11 -4.843431E+06  1.860183E+05 -2.434077E+05 -1.698478E+04 -9.880229E-10 -1.295487E-08
        36  12 -4.944661E+06 -4.783282E+05 -6.452390E+05  3.304264E+04  5.354358E-09 -2.477493E-08
        36  13 -5.164504E+06  1.732783E+04 -1.956609E+05  2.132164E+04  3.752607E-12  1.671150E-09
        36  14 -5.070184E+06  1.290153E+05 -3.004102E+05 -1.940714E+04 -2.934457E-09  7.974439E-09
        36  15 -5.166251E+06 -5.341422E+05 -7.009799E+05  2.339658E+04 -4.227601E-09  1.670136E-09
        36  16 -5.396446E+06 -4.101970E+04 -2.539941E+05  2.612410E+04  1.618446E-08 -1.401165E-07
        36  17 -5.296891E+06  7.200829E+04 -3.574167E+05 -2.182862E+04  1.213486E-10  3.404735E-08
        36  18 -5.387797E+06 -5.899595E+05 -7.567245E+05  1.375394E+04 -2.192017E-09  2.819792E-08
        36  19 -4.932488E+06  7.567748E+04 -1.372889E+05  1.651733E+04 -1.505450E+05  4.988555E+02
        36  20 -4.843324E+06  1.860451E+05 -2.432207E+05 -1.698481E+04 -3.141952E+05  9.667481E+01
        36  21 -4.944414E+06 -4.782663E+05 -6.448064E+05  3.304331E+04 -4.778549E+05 -1.752268E+03
        36  22 -5.164479E+06  1.733398E+04 -1.956180E+05  2.132158E+04 -1.505061E+05  4.976931E+02
        36  23 -5.070078E+06  1.290420E+05 -3.002232E+05 -1.940717E+04 -3.141381E+05  9.788877E+01
        36  24 -5.166005E+06 -5.340802E+05 -7.005473E+05  2.339725E+04 -4.777811E+05 -1.745005E+03
        36  25 -5.396422E+06 -4.101356E+04 -2.539512E+05  2.612403E+04 -1.504671E+05  4.965308E+02
        36  26 -5.296784E+06  7.203506E+04 -3.572297E+05 -2.182865E+04 -3.140811E+05  9.910268E+01
        36  27 -5.387550E+06 -5.898976E+05 -7.562920E+05  1.375460E+04 -4.777073E+05 -1.737741E+03
        37   1  2.914365E+05  2.608147E+04  3.818745E+05 -3.233505E+03 -1.636822E+03  2.603509E+05
        37   2 -7.050738E+04 -3.263297E+04  1.627734E+05 -1.465346E+03 -1.075913E+03  1.712945E+05
        37   3 -9.010762E+03  2.613675E+04  1.075511E+05  2.223789E+03 -5.160321E+02  8.223415E+04
        37   4  2.913750E+05  2.614297E+04  3.818745E+05  1.665482E+03 -1.634768E+03  2.603509E+05
        37   5 -7.052280E+04 -3.261756E+04  1.627734E+05 -2.380199E+02 -1.075574E+03  1.712945E+05
        37   6 -8.980079E+03  2.610605E+04  1.075511E+05 -2.203177E+02 -5.163558E+02  8.223415E+04
        37   7  2.913135E+05  2.620452E+04  3.818745E+05  6.564469E+03 -1.632713E+03  2.603509E+05
        37   8 -7.053821E+04 -3.260214E+04  1.627734E+05  9.893061E+02 -1.075235E+03  1.712945E+05
        37   9 -8.949373E+03  2.607536E+04  1.075511E+05 -2.664424E+03 -5.166796E+02  8.223415E+04
        37  10  2.914183E+05  2.600871E+04  3.817472E+05 -3.233162E+03 -2.799277E-09 -1.367003E-10
        37  11 -7.051526E+04 -3.266447E+04  1.627183E+05 -1.465197E+03 -7.100727E-09 -1.123904E-10
        37  12 -9.012578E+03  2.612949E+04  1.075384E+05  2.223823E+03 -4.162926E-09 -2.780711E-11
        37  13  2.913568E+05  2.607021E+04  3.817472E+05  1.665824E+03 -1.606622E-09  2.392029E-11
        37  14 -7.053068E+04 -3.264906E+04  1.627183E+05 -2.378715E+02 -5.526004E-09  8.839322E-12
        37  15 -8.981894E+03  2.609879E+04  1.075384E+05 -2.202836E+02 -1.695738E-09 -4.048799E-11
        37  16  2.912953E+05  2.613176E+04  3.817472E+05  6.564811E+03 -3.877875E-09  8.339719E-11
        37  17 -7.054609E+04 -3.263365E+04  1.627183E+05  9.894544E+02  1.938616E-09  3.407757E-11
        37  18 -8.951188E+03  2.606810E+04  1.075384E+05 -2.664390E+03 -5.087890E-10 -2.693047E-11
        37  19  2.914365E+05  2.608147E+04  3.818745E+05 -3.233505E+03  1.636822E+03 -2.603509E+05
        37  20 -7.050738E+04 -3.263297E+04  1.627734E+05 -1.465346E+03  1.075913E+03 -1.712945E+05
        37  21 -9.010762E+03  2.613675E+04  1.075511E+05  2.223789E+03  5.160321E+02 -8.223415E+04
        37  22  2.913750E+05  2.614297E+04  3.818745E+05  1.665482E+03  1.634768E+03 -2.603509E+05
        37  23 -7.052280E+04 -3.261756E+04  1.627734E+05 -2.380199E+02  1.075574E+03 -1.712945E+05
        37  24 -8.980079E+03  2.610605E+04  1.075511E+05 -2.203177E+02  5.163558E+02 -8.223415E+04
        37  25  2.913135E+05  2.620452E+04  3.818745E+05  6.564469E+03  1.632713E+03 -2.603509E+05
        37  26 -7.053821E+04 -3.260214E+04  1.627734E+05  9.893061E+02  1.075235E+03 -1.712945E+05
        37  27 -8.949373E+03  2.607536E+04  1.075511E+05 -2.664424E+03  5.166796E+02 -8.223415E+04
        38   1  4.577855E+04  4.356950E+03  8.925522E+04 -4.794133E+02 -4.039101E+02  6.431398E+04
        38   2 -1.112655E+04 -5.454995E+03  4.273378E+04 -2.088272E+02 -2.627076E+02  4.183661E+04
        38   3 -1.213498E+03  4.367652E+03  2.755387E+04  3.580387E+02 -1.215474E+02  1.935944E+04
        38   4  4.576927E+04  4.366236E+03  8.925522E+04  2.599837E+02 -4.038335E+02  6.431398E+04
        38   5 -1.112872E+04 -5.452820E+03  4.273378E+04 -3.564093E+01 -2.626960E+02  4.183661E+04
        38   6 -1.208562E+03  4.362716E+03  2.755387E+04 -3.498395E+01 -1.215597E+02  1.935944E+04
        38   7  4.575998E+04  4.375522E+03  8.925522E+04  9.993807E+02 -4.037569E+02  6.431399E+04
        38   8 -1.113090E+04 -5.450645E+03  4.273378E+04  1.375453E+02 -2.626843E+02  4.183661E+04
        38   9 -1.203626E+03  4.357780E+03  2.755387E+04 -4.280066E+02 -1.215719E+02  1.935944E+04
        38  10  4.577744E+04  4.352509E+03  8.924745E+04 -4.793923E+02 -2.643123E-10  1.064973E-10
        38  11 -1.112702E+04 -5.456874E+03  4.273049E+04 -2.088183E+02  1.939017E-09  1.072970E-10
        38  12 -1.213598E+03  4.367250E+03  2.755316E+04  3.580406E+02  6.920221E-09 -1.042609E-10
        38  13  4.576815E+04  4.361794E+03  8.924745E+04  2.600046E+02 -3.554681E-09  3.835134E-11
        38  14 -1.112919E+04 -5.454699E+03  4.273049E+04 -3.563208E+01  6.015363E-09 -2.505832E-11
        38  15 -1.208663E+03  4.362314E+03  2.755316E+04 -3.498205E+01  5.078169E-10  4.635208E-11
        38  16  4.575887E+04  4.371081E+03  8.924745E+04  9.994016E+02 -2.840297E-09 -1.455153E-10
        38  17 -1.113137E+04 -5.452524E+03  4.273049E+04  1.375542E+02 -5.657891E-09 -1.735064E-10
        38  18 -1.203726E+03  4.357378E+03  2.755316E+04 -4.280047E+02 -5.973132E-09  9.128061E-11
        38  19  4.577855E+04  4.356950E+03  8.925522E+04 -4.794133E+02  4.039101E+02 -6.431398E+04
        38  20 -1.112655E+04 -5.454995E+03  4.273378E+04 -2.088272E+02  2.627076E+02 -4.183661E+04
        38  21 -1.213498E+03  4.367652E+03  2.755387E+04  3.580387E+02  1.215474E+02 -1.935944E+04
        38  22  4.576927E+04  4.366236E+03  8.925522E+04  2.599837E+02  4.038335E+02 -6.431398E+04
        38  23 -1.112872E+04 -5.452820E+03  4.273378E+04 -3.564093E+01  2.626960E+02 -4.183661E+04
        38  24 -1.208562E+03  4.362716E+03  2.755387E+04 -3.498395E+01  1.215597E+02 -1.935944E+04
        38  25  4.575998E+04  4.375522E+03  8.925522E+04  9.993807E+02  4.037569E+02 -6.431399E+04
        38  26 -1.113090E+04 -5.450645E+03  4.273378E+04  1.375453E+02  2.626843E+02 -4.183661E+04
        38  27 -1.203626E+03  4.357780E+03  2.755387E+04 -4.280066E+02  1.215719E+02 -1.935944E+04
        39   1  7.127291E+03  8.665556E+02  2.272342E+04 -7.829237E+01 -9.287408E+01  1.479056E+04
        39   2 -2.005098E+03 -1.084864E+03  1.340895E+04 -2.574772E+01 -4.973523E+01  7.920727E+03
        39   3  9.024044E+02  8.686624E+02  1.157729E+04  7.787768E+01 -6.599330E+00  1.051022E+03
        39   4  7.125814E+03  8.680324E+02  2.272342E+04  3.929474E+01 -9.287128E+01  1.479056E+04
        39   5 -2.005349E+03 -1.084613E+03  1.340895E+04 -5.781615E+00 -4.973498E+01  7.920727E+03
        39   6  9.033796E+02  8.676872E+02  1.157729E+04  2.241250E-01 -6.599462E+00  1.051022E+03
        39   7  7.124337E+03  8.695091E+02  2.272342E+04  1.568818E+02 -9.286848E+01  1.479056E+04
        39   8 -2.005600E+03 -1.084362E+03  1.340895E+04  1.418449E+01 -4.973472E+01  7.920727E+03
        39   9  9.043549E+02  8.667120E+02  1.157729E+04 -7.742943E+01 -6.599593E+00  1.051022E+03
        39  10  7.127232E+03  8.663207E+02  2.272301E+04 -7.829126E+01 -1.579150E-09 -5.443213E-11
        39  11 -2.005115E+03 -1.084931E+03  1.340883E+04 -2.574740E+01 -8.732242E-09  3.399545E-10
        39  12  9.024041E+02  8.686613E+02  1.157729E+04  7.787768E+01  7.607272E-09  1.806597E-12
        39  13  7.125755E+03  8.677975E+02  2.272301E+04  3.929584E+01 -2.730142E-09 -2.776766E-11
        39  14 -2.005366E+03 -1.084680E+03  1.340883E+04 -5.781298E+00 -7.172621E-09 -5.009929E-11
        39  15  9.033793E+02  8.676860E+02  1.157729E+04  2.241306E-01  4.389921E-09 -7.855493E-11
        39  16  7.124278E+03  8.692742E+02  2.272301E+04  1.568830E+02 -9.119812E-09  1.293413E-10
        39  17 -2.005617E+03 -1.084430E+03  1.340883E+04  1.418480E+01 -6.614863E-09 -4.115894E-10
        39  18  9.043546E+02  8.667108E+02  1.157729E+04 -7.742942E+01  2.495238E-09 -2.071090E-11
        39  19  7.127291E+03  8.665556E+02  2.272342E+04 -7.829237E+01  9.287408E+01 -1.479056E+04
        39  20 -2.005098E+03 -1.084864E+03  1.340895E+04 -2.574771E+01  4.973523E+01 -7.920727E+03
        39  21  9.024044E+02  8.686624E+02  1.157729E+04  7.787768E+01  6.599330E+00 -1.051022E+03
        39  22  7.125814E+03  8.680324E+02  2.272342E+04  3.929474E+01  9.287128E+01 -1.479056E+04
        39  23 -2.005349E+03 -1.084613E+03  1.340895E+04 -5.781615E+00  4.973498E+01 -7.920727E+03
        39  24  9.033796E+02  8.676872E+02  1.157729E+04  2.241249E-01  6.599462E+00 -1.051022E+03
        39  25  7.124337E+03  8.695091E+02  2.272342E+04  1.568818E+02  9.286848E+01 -1.479056E+04
        39  26 -2.005600E+03 -1.084362E+03  1.340895E+04  1.418449E+01  4.973472E+01 -7.920727E+03
        39  27  9.043549E+02  8.667120E+02  1.157729E+04 -7.742943E+01  6.599593E+00 -1.051022E+03
        40   1 -9.433804E+06 -2.968868E+06 -1.905091E+06 -3.310737E+06 -9.981342E+05 -3.653970E+05
        40   2 -9.221518E+06 -1.536719E+06 -9.911130E+05 -3.543773E+06 -6.463377E+05 -1.992071E+05
        40   3 -9.613462E+06 -1.535308E+06 -7.455726E+05 -3.386838E+06 -2.837449E+05 -6.133557E+04
        40   4 -8.372658E+06 -2.255420E+06 -1.550808E+06 -2.710307E+06 -9.815707E+05 -3.596921E+05
        40   5 -7.988028E+06 -9.804015E+05 -6.422880E+05 -3.118249E+06 -6.412681E+05 -1.973940E+05
        40   6 -8.204338E+06 -1.132266E+06 -3.921037E+05 -3.136580E+06 -2.900728E+05 -6.367059E+04
        40   7 -7.310165E+06 -1.540963E+06 -1.196618E+06 -2.108696E+06 -9.649748E+05 -3.539531E+05
        40   8 -6.753020E+06 -4.238015E+05 -2.936088E+05 -2.691883E+06 -6.361861E+05 -1.955743E+05
        40   9 -6.793242E+06 -7.292689E+05 -3.877638E+04 -2.885894E+06 -2.964160E+05 -6.600813E+04
        40  10 -9.434926E+06 -2.969286E+06 -1.907251E+06 -3.311034E+06 -2.055163E-09 -4.642797E-10
        40  11 -9.221984E+06 -1.536877E+06 -9.919876E+05 -3.543878E+06  8.267567E-10 -1.638216E-09
        40  12 -9.613550E+06 -1.535334E+06 -7.457337E+05 -3.386852E+06  4.067430E-09 -9.813756E-10
        40  13 -8.373740E+06 -2.255824E+06 -1.552893E+06 -2.710594E+06 -9.423072E-10 -5.402409E-10
        40  14 -7.988485E+06 -9.805564E+05 -6.431468E+05 -3.118352E+06 -1.294651E-08 -8.822191E-10
        40  15 -8.204430E+06 -1.132294E+06 -3.922720E+05 -3.136595E+06 -1.767925E-09 -5.777610E-10
        40  16 -7.311209E+06 -1.541353E+06 -1.198629E+06 -2.108974E+06 -5.638925E-09 -2.391667E-10
        40  17 -6.753469E+06 -4.239534E+05 -2.944520E+05 -2.691984E+06 -2.004560E-09 -9.099980E-11
        40  18 -6.793338E+06 -7.292976E+05 -3.895187E+04 -2.885910E+06 -5.665997E-09  2.705121E-10
        40  19 -9.433804E+06 -2.968868E+06 -1.905091E+06 -3.310737E+06  9.981342E+05  3.653970E+05
        40  20 -9.221518E+06 -1.536719E+06 -9.911130E+05 -3.543773E+06  6.463377E+05  1.992071E+05
        40  21 -9.613462E+06 -1.535308E+06 -7.455726E+05 -3.386838E+06  2.837449E+05  6.133557E+04
        40  22 -8.372658E+06 -2.255420E+06 -1.550808E+06 -2.710307E+06  9.815707E+05  3.596921E+05
        40  23 -7.988028E+06 -9.804015E+05 -6.422880E+05 -3.118249E+06  6.412681E+05  1.973940E+05
        40  24 -8.204338E+06 -1.132266E+06 -3.921037E+05 -3.136580E+06  2.900728E+05  6.367059E+04
        40  25 -7.310165E+06 -1.540963E+06 -1.196618E+06 -2.108696E+06  9.649748E+05  3.539531E+05
        40  26 -6.753020E+06 -4.238015E+05 -2.936088E+05 -2.691883E+06  6.361861E+05  1.955743E+05
        40  27 -6.793242E+06 -7.292689E+05 -3.877638E+04 -2.885894E+06  2.964160E+05  6.600813E+04
        41   1 -9.401469E+06 -1.819397E+06 -6.656026E+05 -3.429478E+06 -2.334949E+05 -4.703431E+04
        41   2 -9.339263E+06 -1.614077E+06 -4.822697E+05 -3.421999E+06 -1.536840E+05 -1.569876E+04
        41   3 -9.316095E+06 -1.611532E+06 -4.051687E+05 -3.409058E+06 -7.243288E+04  1.184617E+04
        41   4 -8.145407E+06 -1.307882E+06 -3.198672E+05 -3.052070E+06 -2.326185E+05 -4.672354E+04
        41   5 -8.116265E+06 -1.140869E+06 -1.512314E+05 -3.079537E+06 -1.542508E+05 -1.592143E+04
        41   6 -8.125728E+06 -1.176124E+06 -8.750169E+04 -3.101570E+06 -7.444875E+04  1.108363E+04
        41   7 -6.887797E+06 -7.962067E+05  2.572093E+04 -2.673937E+06 -2.317397E+05 -4.641170E+04
        41   8 -6.891800E+06 -6.675544E+05  1.796718E+05 -2.736448E+06 -1.548185E+05 -1.614447E+04
        41   9 -6.933972E+06 -7.406537E+05  2.300420E+05 -2.793551E+06 -7.646883E+04  1.031965E+04
        41  10 -9.401529E+06 -1.819414E+06 -6.657110E+05 -3.429487E+06  7.066609E-11  4.518369E-10
        41  11 -9.339289E+06 -1.614084E+06 -4.823152E+05 -3.422001E+06 -3.206228E-09 -4.560560E-10
        41  12 -9.316101E+06 -1.611534E+06 -4.051789E+05 -3.409058E+06  5.637539E-10  1.309424E-09
        41  13 -8.145467E+06 -1.307899E+06 -3.199745E+05 -3.052079E+06 -3.759096E-09  3.889549E-10
        41  14 -8.116290E+06 -1.140876E+06 -1.512772E+05 -3.079539E+06  5.111691E-10 -3.124941E-10
        41  15 -8.125734E+06 -1.176125E+06 -8.751245E+04 -3.101570E+06 -1.259579E-09  4.936811E-10
        41  16 -6.887856E+06 -7.962237E+05  2.561465E+04 -2.673945E+06  4.775640E-09 -1.256872E-10
        41  17 -6.891826E+06 -6.675612E+05  1.796258E+05 -2.736450E+06  8.051767E-09 -3.132041E-10
        41  18 -6.933979E+06 -7.406554E+05  2.300307E+05 -2.793550E+06 -5.212283E-11 -1.049675E-09
        41  19 -9.401469E+06 -1.819397E+06 -6.656026E+05 -3.429478E+06  2.334949E+05  4.703431E+04
        41  20 -9.339263E+06 -1.614077E+06 -4.822697E+05 -3.421999E+06  1.536840E+05  1.569876E+04
        41  21 -9.316095E+06 -1.611532E+06 -4.051687E+05 -3.409058E+06  7.243288E+04 -1.184617E+04
        41  22 -8.145407E+06 -1.307882E+06 -3.198672E+05 -3.052070E+06  2.326185E+05  4.672354E+04
        41  23 -8.116265E+06 -1.140869E+06 -1.512314E+05 -3.079537E+06  1.542508E+05  1.592143E+04
        41  24 -8.125728E+06 -1.176124E+06 -8.750169E+04 -3.101570E+06  7.444875E+04 -1.108363E+04
        41  25 -6.887797E+06 -7.962067E+05  2.572093E+04 -2.673937E+06  2.317397E+05  4.641170E+04
        41  26 -6.891800E+06 -6.675544E+05  1.796718E+05 -2.736448E+06  1.548185E+05  1.614447E+04
        41  27 -6.933972E+06 -7.406537E+05  2.300420E+05 -2.793551E+06  7.646883E+04 -1.031965E+04
        42   1 -9.151824E+06 -1.601004E+06 -3.491965E+05 -3.385814E+06 -5.961990E+04  1.397331E+04
        42   2 -9.075738E+06 -1.505671E+06 -2.868840E+05 -3.319703E+06 -3.985254E+04  1.707655E+04
        42   3 -8.938766E+06 -1.499392E+06 -2.434287E+05 -3.327889E+06 -1.964110E+04  1.897340E+04
        42   4 -8.111114E+06 -1.203401E+06 -6.866023E+04 -3.099492E+06 -6.102356E+04  1.344080E+04
        42   5 -8.140418E+06 -1.151118E+06 -3.516080E+04 -3.065246E+06 -4.173437E+04  1.636706E+04
        42   6 -8.108738E+06 -1.187762E+06 -2.010819E+04 -3.105293E+06 -2.200492E+04  1.808633E+04
        42   7 -7.069342E+06 -8.057273E+05  2.117790E+05 -2.812728E+06 -6.242979E+04  1.290732E+04
        42   8 -7.204242E+06 -7.965118E+05  2.164840E+05 -2.810436E+06 -4.361933E+04  1.565639E+04
        42   9 -7.278040E+06 -8.760956E+05  2.031504E+05 -2.882425E+06 -2.437225E+04  1.719798E+04
        42  10 -9.151828E+06 -1.601005E+06 -3.492036E+05 -3.385813E+06 -7.295952E-10  3.540859E-10
        42  11 -9.075740E+06 -1.505672E+06 -2.868875E+05 -3.319703E+06  8.634623E-10 -5.589280E-10
        42  12 -8.938766E+06 -1.499392E+06 -2.434301E+05 -3.327889E+06 -1.395431E-09 -1.824813E-09
        42  13 -8.111118E+06 -1.203402E+06 -6.866764E+04 -3.099492E+06 -2.538965E-09  2.769734E-10
        42  14 -8.140419E+06 -1.151118E+06 -3.516460E+04 -3.065245E+06 -2.271118E-09 -1.902317E-10
        42  15 -8.108739E+06 -1.187763E+06 -2.010972E+04 -3.105292E+06 -3.920094E-10 -8.022785E-10
        42  16 -7.069346E+06 -8.057285E+05  2.117713E+05 -2.812727E+06 -3.878394E-09  4.404777E-10
        42  17 -7.204244E+06 -7.965126E+05  2.164799E+05 -2.810436E+06  1.339310E-09 -2.426606E-10
        42  18 -7.278040E+06 -8.760961E+05  2.031487E+05 -2.882425E+06 -1.190881E-09  2.151959E-09
        42  19 -9.151824E+06 -1.601004E+06 -3.491965E+05 -3.385814E+06  5.961990E+04 -1.397331E+04
        42  20 -9.075738E+06 -1.505671E+06 -2.868840E+05 -3.319703E+06  3.985254E+04 -1.707655E+04
        42  21 -8.938766E+06 -1.499392E+06 -2.434287E+05 -3.327889E+06  1.964110E+04 -1.897340E+04
        42  22 -8.111114E+06 -1.203401E+06 -6.866023E+04 -3.099492E+06  6.102356E+04 -1.344080E+04
        42  23 -8.140418E+06 -1.151118E+06 -3.516080E+04 -3.065246E+06  4.173437E+04 -1.636706E+04
        42  24 -8.108738E+06 -1.187762E+06 -2.010819E+04 -3.105293E+06  2.200492E+04 -1.808633E+04
        42  25 -7.069342E+06 -8.057273E+05  2.117790E+05 -2.812728E+06  6.242979E+04 -1.290732E+04
        42  26 -7.204242E+06 -7.965118E+05  2.164840E+05 -2.810436E+06  4.361933E+04 -1.565639E+04
        42  27 -7.278040E+06 -8.760956E+05  2.031504E+05 -2.882425E+06  2.437225E+04 -1.719798E+04
        43   1 -8.715849E+06 -1.426860E+06 -1.801925E+05 -3.276156E+06 -1.553537E+04  1.679541E+04
        43   2 -8.617301E+06 -1.323736E+06 -1.354206E+05 -3.184179E+06 -8.457327E+03  1.285990E+04
        43   3 -8.427541E+06 -1.315685E+06 -9.497166E+04 -3.198073E+06 -1.196854E+03  8.416982E+03
        43   4 -8.102795E+06 -1.195218E+06 -1.581539E+04 -3.109987E+06 -1.787129E+04  1.592060E+04
        43   5 -8.148257E+06 -1.146775E+06 -9.381534E+03 -3.057389E+06 -1.100255E+04  1.190854E+04
        43   6 -8.102492E+06 -1.193357E+06 -7.099094E+03 -3.110664E+06 -3.952779E+03  7.388871E+03
        43   7 -7.489370E+06 -9.635521E+05  1.485291E+05 -2.943667E+06 -2.020978E+04  1.504483E+04
        43   8 -7.678999E+06 -9.698003E+05  1.166378E+05 -2.930511E+06 -1.354990E+04  1.095639E+04
        43   9 -7.777343E+06 -1.071024E+06  8.076339E+04 -3.023214E+06 -6.710290E+03  6.360171E+03
        43  10 -8.715849E+06 -1.426861E+06 -1.801935E+05 -3.276156E+06  2.029146E-09 -1.738016E-09
        43  11 -8.617301E+06 -1.323736E+06 -1.354210E+05 -3.184179E+06  3.677687E-09 -1.424583E-09
        43  12 -8.427541E+06 -1.315685E+06 -9.497180E+04 -3.198073E+06 -6.357638E-09  9.085688E-10
        43  13 -8.102795E+06 -1.195218E+06 -1.581647E+04 -3.109987E+06  6.942840E-10 -7.696044E-11
        43  14 -8.148257E+06 -1.146775E+06 -9.382027E+03 -3.057389E+06 -2.150749E-09 -1.304555E-09
        43  15 -8.102492E+06 -1.193357E+06 -7.099225E+03 -3.110664E+06 -6.200233E-09 -1.225666E-09
        43  16 -7.489371E+06 -9.635525E+05  1.485279E+05 -2.943667E+06 -2.128293E-09  7.781138E-10
        43  17 -7.678999E+06 -9.698005E+05  1.166372E+05 -2.930511E+06 -3.820433E-09  4.113153E-10
        43  18 -7.777343E+06 -1.071024E+06  8.076323E+04 -3.023214E+06 -3.136789E-09 -2.026505E-09
        43  19 -8.715849E+06 -1.426860E+06 -1.801925E+05 -3.276156E+06  1.553537E+04 -1.679541E+04
        43  20 -8.617301E+06 -1.323736E+06 -1.354206E+05 -3.184179E+06  8.457327E+03 -1.285990E+04
        43  21 -8.427541E+06 -1.315685E+06 -9.497166E+04 -3.198073E+06  1.196854E+03 -8.416982E+03
        43  22 -8.102795E+06 -1.195218E+06 -1.581539E+04 -3.109987E+06  1.787129E+04 -1.592060E+04
        43  23 -8.148257E+06 -1.146775E+06 -9.381534E+03 -3.057389E+06  1.100255E+04 -1.190854E+04
        43  24 -8.102492E+06 -1.193357E+06 -7.099094E+03 -3.110664E+06  3.952779E+03 -7.388871E+03
        43  25 -7.489370E+06 -9.635521E+05  1.485291E+05 -2.943667E+06  2.020978E+04 -1.504483E+04
        43  26 -7.678999E+06 -9.698003E+05  1.166378E+05 -2.930511E+06  1.354990E+04 -1.095639E+04
        43  27 -7.777343E+06 -1.071024E+06  8.076339E+04 -3.023214E+06  6.710290E+03 -6.360171E+03
        44   1 -8.170251E+06 -1.221043E+06 -2.496525E+04 -3.131235E+06  1.389833E+03  5.014411E+03
        44   2 -8.064780E+06 -1.112864E+06  1.458091E+04 -3.032296E+06  7.928911E+03  5.044499E+01
        44   3 -7.861911E+06 -1.105778E+06  5.041304E+04 -3.046873E+06  1.442906E+04 -4.801112E+03
        44   4 -8.101120E+06 -1.194862E+06 -6.942588E+03 -3.112294E+06 -1.377357E+03  3.982710E+03
        44   5 -8.149903E+06 -1.144957E+06 -8.281273E+03 -3.055294E+06  5.208188E+03 -9.643424E+02
        44   6 -8.101319E+06 -1.196157E+06 -1.336963E+04 -3.111819E+06  1.175365E+04 -5.799314E+03
        44   7 -8.031985E+06 -1.168680E+06  1.107976E+04 -3.093351E+06 -4.144898E+03  2.950875E+03
        44   8 -8.235020E+06 -1.177049E+06 -3.114420E+04 -3.078288E+06  2.487864E+03 -1.978981E+03
        44   9 -8.340674E+06 -1.286532E+06 -7.715783E+04 -3.176743E+06  9.079363E+03 -6.797094E+03
        44  10 -8.170251E+06 -1.221043E+06 -2.496530E+04 -3.131235E+06 -6.623711E-09  4.310903E-10
        44  11 -8.064780E+06 -1.112864E+06  1.458079E+04 -3.032296E+06  8.834188E-10  7.733224E-10
        44  12 -7.861911E+06 -1.105778E+06  5.041260E+04 -3.046873E+06  2.284152E-09  1.257995E-09
        44  13 -8.101120E+06 -1.194862E+06 -6.942621E+03 -3.112294E+06 -4.712043E-09 -1.150062E-10
        44  14 -8.149903E+06 -1.144957E+06 -8.281326E+03 -3.055294E+06  2.317127E-09  1.228185E-10
        44  15 -8.101320E+06 -1.196157E+06 -1.336995E+04 -3.111819E+06 -1.013200E-09  3.818442E-11
        44  16 -8.031985E+06 -1.168680E+06  1.107971E+04 -3.093351E+06  3.042691E-09 -2.139468E-09
        44  17 -8.235020E+06 -1.177049E+06 -3.114422E+04 -3.078288E+06  5.048598E-10  1.331067E-09
        44  18 -8.340674E+06 -1.286533E+06 -7.715807E+04 -3.176743E+06  1.651175E-10  3.047208E-10
        44  19 -8.170251E+06 -1.221043E+06 -2.496525E+04 -3.131235E+06 -1.389833E+03 -5.014411E+03
        44  20 -8.064780E+06 -1.112864E+06  1.458091E+04 -3.032296E+06 -7.928911E+03 -5.044499E+01
        44  21 -7.861911E+06 -1.105778E+06  5.041304E+04 -3.046873E+06 -1.442906E+04  4.801112E+03
        44  22 -8.101120E+06 -1.194862E+06 -6.942588E+03 -3.112294E+06  1.377357E+03 -3.982710E+03
        44  23 -8.149903E+06 -1.144957E+06 -8.281273E+03 -3.055294E+06 -5.208188E+03  9.643424E+02
        44  24 -8.101319E+06 -1.196157E+06 -1.336963E+04 -3.111819E+06 -1.175365E+04  5.799314E+03
        44  25 -8.031985E+06 -1.168680E+06  1.107976E+04 -3.093351E+06  4.144898E+03 -2.950875E+03
        44  26 -8.235020E+06 -1.177049E+06 -3.114420E+04 -3.078288E+06 -2.487864E+03  1.978981E+03
        44  27 -8.340674E+06 -1.286532E+06 -7.715783E+04 -3.176743E+06 -9.079363E+03  6.797094E+03
        45   1 -7.615900E+06 -1.009077E+06  1.146384E+05 -2.979604E+06  1.833147E+04 -7.610597E+03
        45   2 -7.522466E+06 -9.108183E+05  1.382951E+05 -2.890241E+06  3.501684E+04 -8.205261E+03
        45   3 -7.349330E+06 -9.160623E+05  1.467927E+05 -2.897133E+06  5.138780E+04 -7.921451E+03
        45   4 -8.104614E+06 -1.191718E+06 -1.686228E+04 -3.109870E+06  1.560920E+04 -8.627315E+03
        45   5 -8.145393E+06 -1.146384E+06 -2.909910E+04 -3.059349E+06  3.264956E+04 -9.091797E+03
        45   6 -8.106562E+06 -1.204642E+06 -5.679084E+04 -3.105095E+06  4.937193E+04 -8.678727E+03
        45   7 -8.593092E+06 -1.374346E+06 -1.483833E+05 -3.240041E+06  1.288933E+04 -9.643156E+03
        45   8 -8.767938E+06 -1.381925E+06 -1.965271E+05 -3.228300E+06  3.028492E+04 -9.977343E+03
        45   9 -8.863234E+06 -1.493184E+06 -2.604253E+05 -3.312824E+06  4.735877E+04 -9.434971E+03
        45  10 -7.615900E+06 -1.009077E+06  1.146377E+05 -2.979604E+06 -2.131064E-09 -2.454213E-09
        45  11 -7.522467E+06 -9.108187E+05  1.382927E+05 -2.890241E+06  1.567888E-09  2.678141E-10
        45  12 -7.349332E+06 -9.160631E+05  1.467876E+05 -2.897133E+06 -8.262655E-10  3.981118E-10
        45  13 -8.104614E+06 -1.191719E+06 -1.686288E+04 -3.109870E+06  5.057366E-10 -2.005905E-10
        45  14 -8.145394E+06 -1.146384E+06 -2.910128E+04 -3.059348E+06  1.712462E-09 -2.745815E-10
        45  15 -8.106565E+06 -1.204643E+06 -5.679561E+04 -3.105095E+06  1.958586E-10 -1.618745E-10
        45  16 -8.593092E+06 -1.374346E+06 -1.483837E+05 -3.240041E+06  1.841682E-09  3.667409E-10
        45  17 -8.767939E+06 -1.381925E+06 -1.965290E+05 -3.228300E+06  3.796462E-09  1.937367E-10
        45  18 -8.863236E+06 -1.493185E+06 -2.604297E+05 -3.312823E+06  1.039607E-09  8.205665E-10
        45  19 -7.615900E+06 -1.009077E+06  1.146384E+05 -2.979604E+06 -1.833147E+04  7.610597E+03
        45  20 -7.522466E+06 -9.108183E+05  1.382951E+05 -2.890241E+06 -3.501684E+04  8.205261E+03
        45  21 -7.349330E+06 -9.160623E+05  1.467927E+05 -2.897133E+06 -5.138780E+04  7.921451E+03
        45  22 -8.104614E+06 -1.191718E+06 -1.686228E+04 -3.109870E+06 -1.560920E+04  8.627315E+03
        45  23 -8.145393E+06 -1.146384E+06 -2.909910E+04 -3.059349E+06 -3.264956E+04  9.091797E+03
        45  24 -8.106562E+06 -1.204642E+06 -5.679084E+04 -3.105095E+06 -4.937193E+04  8.678727E+03
        45  25 -8.593092E+06 -1.374346E+06 -1.483833E+05 -3.240041E+06 -1.288933E+04  9.643156E+03
        45  26 -8.767938E+06 -1.381925E+06 -1.965271E+05 -3.228300E+06 -3.028492E+04  9.977343E+03
        45  27 -8.863234E+06 -1.493184E+06 -2.604253E+05 -3.312824E+06 -4.735877E+04  9.434971E+03
        46   1 -7.153969E+06 -8.314418E+05  1.845623E+05 -2.859478E+06  6.364333E+04 -7.065443E+03
        46   2 -7.084835E+06 -7.363673E+05  1.562597E+05 -2.780305E+06  1.289250E+05  1.247343E+04
        46   3 -7.015332E+06 -8.401471E+05  4.250705E+04 -2.733721E+06  1.928404E+05  3.570009E+04
        46   4 -8.118127E+06 -1.182515E+06 -7.230765E+04 -3.107248E+06  6.097396E+04 -8.067949E+03
        46   5 -8.126186E+06 -1.137421E+06 -1.248865E+05 -3.070569E+06  1.277033E+05  1.200820E+04
        46   6 -8.134278E+06 -1.291640E+06 -2.641926E+05 -3.066473E+06  1.930565E+05  3.576644E+04
        46   7 -9.081380E+06 -1.533552E+06 -3.292594E+05 -3.354674E+06  5.830914E+04 -9.068900E+03
        46   8 -9.166479E+06 -1.538400E+06 -4.061306E+05 -3.360382E+06  1.264838E+05  1.154380E+04
        46   9 -9.251997E+06 -1.743010E+06 -5.710078E+05 -3.398657E+06  1.932719E+05  3.583247E+04
        46  10 -7.153974E+06 -8.314429E+05  1.845545E+05 -2.859477E+06 -7.057940E-09 -2.311286E-09
        46  11 -7.084853E+06 -7.363720E+05  1.562278E+05 -2.780307E+06 -7.665038E-09  1.944300E-10
        46  12 -7.015373E+06 -8.401586E+05  4.243386E+04 -2.733727E+06  4.440393E-09  1.815693E-09
        46  13 -8.118131E+06 -1.182516E+06 -7.231484E+04 -3.107248E+06 -2.543452E-09 -6.448358E-10
        46  14 -8.126204E+06 -1.137426E+06 -1.249179E+05 -3.070570E+06 -5.572348E-09  2.726457E-09
        46  15 -8.134319E+06 -1.291651E+06 -2.642661E+05 -3.066478E+06 -1.971709E-09  2.233876E-09
        46  16 -9.081384E+06 -1.533553E+06 -3.292660E+05 -3.354673E+06  5.837738E-09 -1.709201E-09
        46  17 -9.166497E+06 -1.538405E+06 -4.061614E+05 -3.360383E+06  8.928924E-10  2.900381E-10
        46  18 -9.252038E+06 -1.743022E+06 -5.710816E+05 -3.398663E+06 -3.384396E-09 -1.040285E-09
        46  19 -7.153969E+06 -8.314418E+05  1.845623E+05 -2.859478E+06 -6.364333E+04  7.065443E+03
        46  20 -7.084835E+06 -7.363673E+05  1.562597E+05 -2.780305E+06 -1.289250E+05 -1.247343E+04
        46  21 -7.015332E+06 -8.401471E+05  4.250705E+04 -2.733721E+06 -1.928404E+05 -3.570009E+04
        46  22 -8.118127E+06 -1.182515E+06 -7.230765E+04 -3.107248E+06 -6.097396E+04  8.067949E+03
        46  23 -8.126186E+06 -1.137421E+06 -1.248865E+05 -3.070569E+06 -1.277033E+05 -1.200820E+04
        46  24 -8.134278E+06 -1.291640E+06 -2.641926E+05 -3.066473E+06 -1.930565E+05 -3.576644E+04
        46  25 -9.081380E+06 -1.533552E+06 -3.292594E+05 -3.354674E+06 -5.830914E+04  9.068900E+03
        46  26 -9.166479E+06 -1.538400E+06 -4.061306E+05 -3.360382E+06 -1.264838E+05 -1.154380E+04
        46  27 -9.251997E+06 -1.743010E+06 -5.710078E+05 -3.398657E+06 -1.932719E+05 -3.583247E+04
        47   1 -6.858348E+06 -7.528137E+05  1.096384E+04 -2.885835E+06  2.486824E+05  5.032830E+04
        47   2 -6.795197E+06 -4.704513E+05 -1.880678E+05 -2.697087E+06  5.276179E+05  1.538164E+05
        47   3 -7.194901E+06 -1.391717E+06 -9.202291E+05 -2.220211E+06  7.952651E+05  2.871753E+05
        47   4 -8.183931E+06 -1.145432E+06 -3.238049E+05 -3.134875E+06  2.413267E+05  4.759894E+04
        47   5 -8.019668E+06 -1.006082E+06 -5.305783E+05 -3.103811E+06  5.322808E+05  1.555012E+05
        47   6 -8.321698E+06 -2.074376E+06 -1.280943E+06 -2.784309E+06  8.119793E+05  2.931147E+05
        47   7 -9.507780E+06 -1.538081E+06 -6.587028E+05 -3.383502E+06  2.339880E+05  4.487278E+04
        47   8 -9.242651E+06 -1.541474E+06 -8.732303E+05 -3.509748E+06  5.369325E+05  1.571804E+05
        47   9 -9.447085E+06 -2.756233E+06 -1.641774E+06 -3.347274E+06  8.286588E+05  2.990230E+05
        47  10 -6.858415E+06 -7.528334E+05  1.084134E+04 -2.885845E+06  5.186258E-09  1.107256E-09
        47  11 -6.795506E+06 -4.705530E+05 -1.886427E+05 -2.697153E+06  2.231610E-09  2.658443E-09
        47  12 -7.195609E+06 -1.391979E+06 -9.215899E+05 -2.220397E+06  7.495908E-10 -5.502565E-10
        47  13 -8.183995E+06 -1.145450E+06 -3.239203E+05 -3.134884E+06  1.409325E-09  2.975313E-09
        47  14 -8.019982E+06 -1.006186E+06 -5.311649E+05 -3.103878E+06 -1.704442E-09  4.071384E-09
        47  15 -8.322438E+06 -2.074650E+06 -1.282365E+06 -2.784503E+06  6.793596E-09  1.302923E-10
        47  16 -9.507840E+06 -1.538099E+06 -6.588113E+05 -3.383510E+06 -2.532535E-09 -9.417722E-10
        47  17 -9.242972E+06 -1.541580E+06 -8.738287E+05 -3.509817E+06  5.123192E-09  4.852830E-10
        47  18 -9.447857E+06 -2.756518E+06 -1.643258E+06 -3.347476E+06 -9.936425E-10  7.808305E-10
        47  19 -6.858348E+06 -7.528137E+05  1.096384E+04 -2.885835E+06 -2.486824E+05 -5.032830E+04
        47  20 -6.795197E+06 -4.704513E+05 -1.880678E+05 -2.697087E+06 -5.276179E+05 -1.538164E+05
        47  21 -7.194901E+06 -1.391717E+06 -9.202291E+05 -2.220211E+06 -7.952651E+05 -2.871753E+05
        47  22 -8.183931E+06 -1.145432E+06 -3.238049E+05 -3.134875E+06 -2.413267E+05 -4.759894E+04
        47  23 -8.019668E+06 -1.006082E+06 -5.305783E+05 -3.103811E+06 -5.322808E+05 -1.555012E+05
        47  24 -8.321698E+06 -2.074376E+06 -1.280943E+06 -2.784309E+06 -8.119793E+05 -2.931147E+05
        47  25 -9.507780E+06 -1.538081E+06 -6.587028E+05 -3.383502E+06 -2.339880E+05 -4.487278E+04
        47  26 -9.242651E+06 -1.541474E+06 -8.732303E+05 -3.509748E+06 -5.369325E+05 -1.571804E+05
        47  27 -9.447085E+06 -2.756233E+06 -1.641774E+06 -3.347274E+06 -8.286588E+05 -2.990230E+05
        48   1  2.975977E+05 -1.226857E+05  3.412397E+05 -2.143286E+05 -3.459067E+03  2.300121E+05
        48   2  2.383996E+04 -1.738188E+05  1.617874E+05 -1.012583E+05 -8.898502E+03  1.360228E+05
        48   3 -3.666922E+04 -1.594276E+05  9.684952E+04  7.401436E+03 -1.141126E+04  4.204660E+04
        48   4  3.272561E+05  7.447167E+03  3.710569E+05 -1.648388E+04 -3.439232E+03  2.412687E+05
        48   5  5.821855E+04 -2.569306E+04  1.905127E+05 -1.504866E+04 -8.911373E+03  1.427867E+05
        48   6  3.136954E+03  7.435499E+03  1.275855E+05 -1.801015E+04 -1.142337E+04  4.431640E+04
        48   7  3.570609E+05  1.376804E+05  4.008946E+05  1.814023E+05 -3.412228E+03  2.525277E+05
        48   8  9.262395E+04  1.224700E+05  2.192411E+05  7.118202E+04 -8.922365E+03  1.495522E+05
        48   9  4.294392E+04  1.743270E+05  1.583206E+05 -4.342872E+04 -1.143567E+04  4.658680E+04
        48  10  2.975835E+05 -1.227425E+05  3.411402E+05 -2.143280E+05  7.622964E-10  6.349450E-09
        48  11  2.383491E+04 -1.738387E+05  1.617524E+05 -1.012574E+05  1.057017E-09  1.448987E-08
        48  12 -3.666983E+04 -1.594295E+05  9.684595E+04  7.401822E+03 -7.995823E-10  1.532273E-08
        48  13  3.272405E+05  7.384673E+03  3.709475E+05 -1.648321E+04  2.657222E-09  1.125305E-09
        48  14  5.821299E+04 -2.571497E+04  1.904742E+05 -1.504764E+04 -2.204386E-09  1.550420E-10
        48  15  3.136287E+03  7.433355E+03  1.275815E+05 -1.800974E+04 -1.089893E-08  4.273142E-10
        48  16  3.570438E+05  1.376120E+05  4.007747E+05  1.814030E+05  4.077566E-09 -7.125851E-09
        48  17  9.261786E+04  1.224460E+05  2.191990E+05  7.118310E+04  1.007661E-08 -1.098008E-08
        48  18  4.294320E+04  1.743246E+05  1.583163E+05 -4.342829E+04  4.283020E-09 -1.537963E-08
        48  19  2.975977E+05 -1.226857E+05  3.412397E+05 -2.143286E+05  3.459067E+03 -2.300121E+05
        48  20  2.383996E+04 -1.738188E+05  1.617874E+05 -1.012583E+05  8.898502E+03 -1.360228E+05
        48  21 -3.666922E+04 -1.594276E+05  9.684952E+04  7.401436E+03  1.141126E+04 -4.204660E+04
        48  22  3.272561E+05  7.447167E+03  3.710569E+05 -1.648388E+04  3.439232E+03 -2.412687E+05
        48  23  5.821855E+04 -2.569306E+04  1.905127E+05 -1.504866E+04  8.911373E+03 -1.427867E+05
        48  24  3.136954E+03  7.435499E+03  1.275855E+05 -1.801015E+04  1.142337E+04 -4.431640E+04
        48  25  3.570609E+05  1.376804E+05  4.008946E+05  1.814023E+05  3.412228E+03 -2.525277E+05
        48  26  9.262395E+04  1.224700E+05  2.192411E+05  7.118202E+04  8.922365E+03 -1.495522E+05
        48  27  4.294392E+04  1.743270E+05  1.583206E+05 -4.342872E+04  1.143567E+04 -4.658680E+04
        49   1 -3.011371E+04 -1.841702E+05  8.245365E+04 -2.650062E+04 -1.220267E+04  2.249808E+04
        49   2 -4.320765E+04 -2.105422E+05  7.794613E+04 -1.397872E+04 -1.342987E+04 -3.344598E+04
        49   3 -2.886077E+04 -2.228112E+05  1.167302E+05 -6.285530E+03 -1.392621E+04 -8.938607E+04
        49   4  1.241799E+04 -4.117386E+03  1.155406E+05 -1.786674E+04 -1.221522E+04  2.530911E+04
        49   5  3.956958E+03 -1.126318E+04  1.143986E+05 -1.542733E+04 -1.343729E+04 -3.175836E+04
        49   6  2.312585E+04 -4.116178E+03  1.573195E+05 -1.781609E+04 -1.392682E+04 -8.882356E+04
        49   7  5.494815E+04  1.759671E+05  1.486262E+05 -9.230265E+03 -1.222768E+04  2.812093E+04
        49   8  5.111932E+04  1.880544E+05  1.508494E+05 -1.687637E+04 -1.344473E+04 -3.007022E+04
        49   9  7.511020E+04  2.146254E+05  1.979068E+05 -2.935076E+04 -1.392746E+04 -8.826084E+04
        49  10 -3.011400E+04 -1.841707E+05  8.245242E+04 -2.650040E+04 -2.570291E-09 -2.335415E-08
        49  11 -4.320814E+04 -2.105434E+05  7.794369E+04 -1.397908E+04 -1.734240E-09 -1.532048E-08
        49  12 -2.886313E+04 -2.228198E+05  1.167148E+05 -6.286532E+03 -4.967575E-09 -7.688454E-09
        49  13  1.241766E+04 -4.118114E+03  1.155391E+05 -1.786650E+04 -1.004535E-08  1.496927E-09
        49  14  3.956493E+03 -1.126431E+04  1.143963E+05 -1.542767E+04  2.599785E-09  8.097565E-11
        49  15  2.312352E+04 -4.124701E+03  1.573043E+05 -1.781708E+04  4.342558E-10  3.285511E-10
        49  16  5.494778E+04  1.759662E+05  1.486245E+05 -9.229988E+03  1.579053E-10  2.332169E-08
        49  17  5.111888E+04  1.880534E+05  1.508473E+05 -1.687669E+04  2.677271E-09  1.905170E-08
        49  18  7.510790E+04  2.146170E+05  1.978918E+05 -2.935175E+04  4.319475E-09  7.470743E-09
        49  19 -3.011371E+04 -1.841702E+05  8.245365E+04 -2.650062E+04  1.220267E+04 -2.249808E+04
        49  20 -4.320765E+04 -2.105422E+05  7.794613E+04 -1.397872E+04  1.342987E+04  3.344598E+04
        49  21 -2.886077E+04 -2.228112E+05  1.167302E+05 -6.285530E+03  1.392621E+04  8.938607E+04
        49  22  1.241799E+04 -4.117386E+03  1.155406E+05 -1.786674E+04  1.221522E+04 -2.530911E+04
        49  23  3.956958E+03 -1.126318E+04  1.143986E+05 -1.542733E+04  1.343729E+04  3.175836E+04
        49  24  2.312585E+04 -4.116178E+03  1.573195E+05 -1.781609E+04  1.392682E+04  8.882356E+04
        49  25  5.494815E+04  1.759671E+05  1.486262E+05 -9.230265E+03  1.222768E+04 -2.812093E+04
        49  26  5.111932E+04  1.880544E+05  1.508494E+05 -1.687637E+04  1.344473E+04  3.007022E+04
        49  27  7.511020E+04  2.146254E+05  1.979068E+05 -2.935076E+04  1.392746E+04  8.826084E+04
        50   1 -4.939593E+04 -2.135580E+05  1.492925E+05 -6.401694E+04 -1.447545E+04 -1.169865E+05
        50   2  4.346912E+04 -2.892385E+05  2.754538E+05  1.398727E+05 -1.160279E+04 -2.753837E+05
        50   3  5.185911E+05 -2.486554E+05  6.004250E+05  3.404948E+05 -2.160692E+03 -4.337398E+05
        50   4  5.235878E+03  1.891183E+04  1.925182E+05 -1.791314E+04 -1.449135E+04 -1.153417E+05
        50   5  1.049749E+05 -4.002339E+04  3.255333E+05 -1.494161E+04 -1.149560E+04 -2.838779E+05
        50   6  5.884952E+05  1.893289E+04  6.643359E+05 -1.526438E+04 -1.829035E+03 -4.523812E+05
        50   7  5.987270E+04  2.514387E+05  2.357428E+05  2.820841E+04 -1.450700E+04 -1.136964E+05
        50   8  1.665666E+05  2.093022E+05  3.756227E+05 -1.698195E+05 -1.138420E+04 -2.923755E+05
        50   9  6.588690E+05  2.868585E+05  7.283108E+05 -3.711788E+05 -1.476117E+03 -4.710306E+05
        50  10 -4.939983E+04 -2.135728E+05  1.492664E+05 -6.401830E+04 -2.637690E-09 -1.641630E-09
        50  11  4.344861E+04 -2.893200E+05  2.753109E+05  1.398701E+05  1.025270E-09  1.921086E-10
        50  12  5.185406E+05 -2.488574E+05  6.000713E+05  3.404941E+05 -1.563535E-09 -2.823564E-09
        50  13  5.232082E+03  1.889749E+04  1.924928E+05 -1.791449E+04 -1.396027E-09  1.404352E-09
        50  14  1.049531E+05 -4.010994E+04  3.253816E+05 -1.494424E+04 -3.692222E-09 -2.751349E-11
        50  15  5.884402E+05  1.871324E+04  6.639513E+05 -1.526504E+04  1.081739E-09  1.055227E-10
        50  16  5.986901E+04  2.514248E+05  2.357181E+05  2.820708E+04  6.005027E-10  9.402179E-10
        50  17  1.665435E+05  2.092105E+05  3.754619E+05 -1.698221E+05  1.386031E-09  2.975920E-09
        50  18  6.588095E+05  2.866205E+05  7.278940E+05 -3.711793E+05  1.577294E-09  2.468778E-09
        50  19 -4.939593E+04 -2.135580E+05  1.492925E+05 -6.401694E+04  1.447545E+04  1.169865E+05
        50  20  4.346912E+04 -2.892385E+05  2.754538E+05  1.398727E+05  1.160279E+04  2.753837E+05
        50  21  5.185911E+05 -2.486554E+05  6.004250E+05  3.404948E+05  2.160692E+03  4.337398E+05
        50  22  5.235878E+03  1.891183E+04  1.925182E+05 -1.791314E+04  1.449135E+04  1.153417E+05
        50  23  1.049749E+05 -4.002339E+04  3.255333E+05 -1.494161E+04  1.149560E+04  2.838779E+05
        50  24  5.884952E+05  1.893289E+04  6.643359E+05 -1.526438E+04  1.829035E+03  4.523812E+05
        50  25  5.987270E+04  2.514387E+05  2.357428E+05  2.820841E+04  1.450700E+04  1.136964E+05
        50  26  1.665666E+05  2.093022E+05  3.756227E+05 -1.698195E+05  1.138420E+04  2.923755E+05
        50  27  6.588690E+05  2.868585E+05  7.283108E+05 -3.711788E+05  1.476117E+03  4.710306E+05
        51   1 -5.691552E+06 -1.748398E+06 -1.051915E+06 -1.985596E+06 -4.150610E+05 -1.394627E+05
        51   2 -5.548865E+06 -1.116087E+06 -6.585183E+05 -2.019899E+06 -2.725964E+05 -4.901850E+04
        51   3 -5.586523E+06 -1.109127E+06 -5.372863E+05 -1.964209E+06 -1.164742E+05  5.507482E+03
        51   4 -4.188417E+06 -1.053706E+06 -6.148668E+05 -1.450042E+06 -3.946789E+05 -1.318226E+05
        51   5 -4.067395E+06 -5.201643E+05 -2.553570E+05 -1.579283E+06 -2.671112E+05 -4.696898E+04
        51   6 -4.123212E+06 -6.081772E+05 -1.556158E+05 -1.618679E+06 -1.259112E+05  1.950429E+03
        51   7 -2.683059E+06 -3.585543E+05 -1.780440E+05 -9.132030E+05 -3.742411E+05 -1.241512E+05
        51   8 -2.583788E+06  7.596760E+04  1.476030E+05 -1.137682E+06 -2.616109E+05 -4.491290E+04
        51   9 -2.657820E+06 -1.071899E+05  2.258775E+05 -1.272450E+06 -1.353726E+05 -1.613791E+03
        51  10 -5.691744E+06 -1.748466E+06 -1.052279E+06 -1.985643E+06  3.069998E-09 -5.151916E-10
        51  11 -5.548946E+06 -1.116110E+06 -6.586639E+05 -2.019910E+06 -1.191864E-09 -1.145741E-09
        51  12 -5.586538E+06 -1.109131E+06 -5.373121E+05 -1.964209E+06 -2.505523E-09  2.037738E-09
        51  13 -4.188590E+06 -1.053767E+06 -6.151947E+05 -1.450084E+06  1.584660E-09 -1.334294E-09
        51  14 -4.067472E+06 -5.201860E+05 -2.554962E+05 -1.579293E+06  3.868015E-09 -2.077154E-09
        51  15 -4.123229E+06 -6.081815E+05 -1.556458E+05 -1.618679E+06 -3.622308E-09  1.804559E-09
        51  16 -2.683214E+06 -3.586087E+05 -1.783376E+05 -9.132405E+05 -1.816594E-09 -2.761725E-10
        51  17 -2.583862E+06  7.594693E+04  1.474700E+05 -1.137691E+06  7.220540E-10 -8.725001E-10
        51  18 -2.657839E+06 -1.071948E+05  2.258429E+05 -1.272451E+06  5.410828E-09  2.167830E-09
        51  19 -5.691552E+06 -1.748398E+06 -1.051915E+06 -1.985596E+06  4.150610E+05  1.394627E+05
        51  20 -5.548865E+06 -1.116087E+06 -6.585183E+05 -2.019899E+06  2.725964E+05  4.901850E+04
        51  21 -5.586523E+06 -1.109127E+06 -5.372863E+05 -1.964209E+06  1.164742E+05 -5.507482E+03
        51  22 -4.188417E+06 -1.053706E+06 -6.148668E+05 -1.450042E+06  3.946789E+05  1.318226E+05
        51  23 -4.067395E+06 -5.201643E+05 -2.553570E+05 -1.579283E+06  2.671112E+05  4.696898E+04
        51  24 -4.123212E+06 -6.081772E+05 -1.556158E+05 -1.618679E+06  1.259112E+05 -1.950429E+03
        51  25 -2.683059E+06 -3.585543E+05 -1.780440E+05 -9.132030E+05  3.742411E+05  1.241512E+05
        51  26 -2.583788E+06  7.596760E+04  1.476030E+05 -1.137682E+06  2.616109E+05  4.491290E+04
        51  27 -2.657820E+06 -1.071899E+05  2.258775E+05 -1.272450E+06  1.353726E+05  1.613791E+03
        52   1 -5.344621E+06 -1.163635E+06 -4.639800E+05 -1.940131E+06 -1.008153E+05  2.760782E+03
        52   2 -5.254455E+06 -1.013553E+06 -3.648536E+05 -1.874464E+06 -6.728435E+04  1.367981E+04
        52   3 -5.115928E+06 -1.006408E+06 -3.082996E+05 -1.878094E+06 -3.233857E+04  2.081958E+04
        52   4 -4.098635E+06 -6.792583E+05 -1.270527E+05 -1.586889E+06 -1.007739E+05  2.767992E+03
        52   5 -4.119162E+06 -5.816597E+05 -6.028439E+04 -1.562097E+06 -6.878154E+04  1.311202E+04
        52   6 -4.090984E+06 -6.266018E+05 -3.479258E+04 -1.606609E+06 -3.538215E+04  1.967633E+04
        52   7 -2.851136E+06 -1.947636E+05  2.097360E+05 -1.232991E+06 -1.007323E+05  2.775316E+03
        52   8 -2.982615E+06 -1.496837E+05  2.441711E+05 -1.249208E+06 -7.028168E+04  1.254310E+04
        52   9 -3.065021E+06 -2.467423E+05  2.386226E+05 -1.334721E+06 -3.843128E+04  1.853110E+04
        52  10 -5.344632E+06 -1.163637E+06 -4.639993E+05 -1.940131E+06  4.934214E-09  1.842956E-09
        52  11 -5.254460E+06 -1.013554E+06 -3.648625E+05 -1.874463E+06  1.669428E-09 -6.022085E-10
        52  12 -5.115929E+06 -1.006409E+06 -3.083024E+05 -1.878094E+06 -4.309835E-09 -4.461393E-10
        52  13 -4.098646E+06 -6.792611E+05 -1.270720E+05 -1.586889E+06 -3.928400E-09  7.454176E-10
        52  14 -4.119167E+06 -5.816612E+05 -6.029365E+04 -1.562096E+06 -3.053641E-09 -1.264829E-09
        52  15 -4.090986E+06 -6.266025E+05 -3.479566E+04 -1.606609E+06 -6.453476E-09  2.718410E-10
        52  16 -2.851147E+06 -1.947663E+05  2.097168E+05 -1.232991E+06 -2.675932E-09  1.431655E-10
        52  17 -2.982620E+06 -1.496852E+05  2.441615E+05 -1.249207E+06  1.109245E-09 -2.103188E-09
        52  18 -3.065023E+06 -2.467431E+05  2.386192E+05 -1.334720E+06 -9.616432E-10  6.707351E-10
        52  19 -5.344621E+06 -1.163635E+06 -4.639800E+05 -1.940131E+06  1.008153E+05 -2.760782E+03
        52  20 -5.254455E+06 -1.013553E+06 -3.648536E+05 -1.874464E+06  6.728435E+04 -1.367981E+04
        52  21 -5.115928E+06 -1.006408E+06 -3.082996E+05 -1.878094E+06  3.233857E+04 -2.081958E+04
        52  22 -4.098635E+06 -6.792583E+05 -1.270527E+05 -1.586889E+06  1.007739E+05 -2.767992E+03
        52  23 -4.119162E+06 -5.816597E+05 -6.028439E+04 -1.562097E+06  6.878154E+04 -1.311202E+04
        52  24 -4.090984E+06 -6.266018E+05 -3.479258E+04 -1.606609E+06  3.538215E+04 -1.967633E+04
        52  25 -2.851136E+06 -1.947636E+05  2.097360E+05 -1.232991E+06  1.007323E+05 -2.775316E+03
        52  26 -2.982615E+06 -1.496837E+05  2.441711E+05 -1.249208E+06  7.028168E+04 -1.254310E+04
        52  27 -3.065021E+06 -2.467423E+05  2.386226E+05 -1.334721E+06  3.843128E+04 -1.853110E+04
        53   1 -4.886584E+06 -9.405945E+05 -2.416078E+05 -1.824666E+06 -2.678425E+04  1.867934E+04
        53   2 -4.788970E+06 -8.339385E+05 -1.907672E+05 -1.735218E+06 -1.730313E+04  1.598570E+04
        53   3 -4.604009E+06 -8.257431E+05 -1.474816E+05 -1.748007E+06 -7.594650E+03  1.265752E+04
        53   4 -4.085241E+06 -6.376921E+05 -2.738794E+04 -1.606039E+06 -2.898854E+04  1.785232E+04
        53   5 -4.128454E+06 -5.852764E+05 -1.409135E+04 -1.556110E+06 -1.976682E+04  1.506401E+04
        53   6 -4.084289E+06 -6.312583E+05 -8.133637E+03 -1.608420E+06 -1.031972E+04  1.164084E+04
        53   7 -3.283275E+06 -3.347513E+05  1.867749E+05 -1.387155E+06 -3.119595E+04  1.702412E+04
        53   8 -3.467515E+06 -3.365888E+05  1.625461E+05 -1.376829E+06 -2.223340E+04  1.414125E+04
        53   9 -3.564305E+06 -4.367581E+05  1.311908E+05 -1.468727E+06 -1.304733E+04  1.062322E+04
        53  10 -4.886585E+06 -9.405951E+05 -2.416098E+05 -1.824666E+06 -4.653590E-09  6.496312E-10
        53  11 -4.788970E+06 -8.339388E+05 -1.907682E+05 -1.735218E+06  1.643482E-09  7.335365E-10
        53  12 -4.604009E+06 -8.257433E+05 -1.474820E+05 -1.748007E+06 -4.175267E-09 -1.643441E-09
        53  13 -4.085242E+06 -6.376927E+05 -2.739012E+04 -1.606038E+06 -1.530011E-09  7.543527E-10
        53  14 -4.128455E+06 -5.852768E+05 -1.409251E+04 -1.556110E+06  2.398148E-10  3.866285E-10
        53  15 -4.084289E+06 -6.312584E+05 -8.134091E+03 -1.608420E+06 -8.769319E-09 -4.565938E-09
        53  16 -3.283276E+06 -3.347518E+05  1.867725E+05 -1.387154E+06  5.939652E-10  2.482141E-09
        53  17 -3.467515E+06 -3.365891E+05  1.625448E+05 -1.376829E+06 -3.295996E-09  3.062009E-09
        53  18 -3.564305E+06 -4.367582E+05  1.311903E+05 -1.468727E+06 -1.970002E-09 -1.674772E-09
        53  19 -4.886584E+06 -9.405945E+05 -2.416078E+05 -1.824666E+06  2.678425E+04 -1.867934E+04
        53  20 -4.788970E+06 -8.339385E+05 -1.907672E+05 -1.735218E+06  1.730313E+04 -1.598570E+04
        53  21 -4.604009E+06 -8.257431E+05 -1.474816E+05 -1.748007E+06  7.594650E+03 -1.265752E+04
        53  22 -4.085241E+06 -6.376921E+05 -2.738794E+04 -1.606039E+06  2.898854E+04 -1.785232E+04
        53  23 -4.128454E+06 -5.852764E+05 -1.409135E+04 -1.556110E+06  1.976682E+04 -1.506401E+04
        53  24 -4.084289E+06 -6.312583E+05 -8.133637E+03 -1.608420E+06  1.031972E+04 -1.164084E+04
        53  25 -3.283275E+06 -3.347513E+05  1.867749E+05 -1.387155E+06  3.119595E+04 -1.702412E+04
        53  26 -3.467515E+06 -3.365888E+05  1.625461E+05 -1.376829E+06  2.223340E+04 -1.414125E+04
        53  27 -3.564305E+06 -4.367581E+05  1.311908E+05 -1.468727E+06  1.304733E+04 -1.062322E+04
        54   1 -4.355058E+06 -7.359526E+05 -7.876166E+04 -1.683374E+06 -5.090762E+03  9.364579E+03
        54   2 -4.251123E+06 -6.295012E+05 -3.623234E+04 -1.586419E+06 -6.705591E+02  3.836803E+03
        54   3 -4.051011E+06 -6.211015E+05  4.426525E+03 -1.601147E+06  3.780675E+03 -1.779156E+03
        54   4 -4.082621E+06 -6.336245E+05 -6.488082E+03 -1.609583E+06 -7.746948E+03  8.374706E+03
        54   5 -4.130650E+06 -5.842673E+05 -4.040318E+03 -1.553861E+06 -3.363527E+03  2.833648E+03
        54   6 -4.082519E+06 -6.329534E+05 -3.431193E+03 -1.609829E+06  1.050315E+03 -2.795687E+03
        54   7 -3.810110E+06 -5.312919E+05  6.577918E+04 -1.535762E+06 -1.040442E+04  7.384351E+03
        54   8 -4.010163E+06 -5.390327E+05  2.815032E+04 -1.521297E+06 -6.057061E+03  1.830282E+03
        54   9 -4.114026E+06 -6.448051E+05 -1.128887E+04 -1.618511E+06 -1.679867E+03 -3.812151E+03
        54  10 -4.355058E+06 -7.359527E+05 -7.876187E+04 -1.683374E+06 -4.633207E-09 -1.584871E-09
        54  11 -4.251123E+06 -6.295012E+05 -3.623237E+04 -1.586419E+06 -1.628331E-09  4.285408E-09
        54  12 -4.051011E+06 -6.211015E+05  4.426492E+03 -1.601147E+06  2.811041E-09  1.824972E-09
        54  13 -4.082621E+06 -6.336246E+05 -6.488326E+03 -1.609583E+06 -1.861172E-09 -5.926997E-09
        54  14 -4.130650E+06 -5.842673E+05 -4.040354E+03 -1.553861E+06 -2.157960E-09 -2.319718E-09
        54  15 -4.082519E+06 -6.329534E+05 -3.431210E+03 -1.609829E+06 -3.769211E-09  3.826839E-09
        54  16 -3.810110E+06 -5.312920E+05  6.577888E+04 -1.535761E+06 -2.841346E-09 -1.705740E-09
        54  17 -4.010163E+06 -5.390327E+05  2.815025E+04 -1.521297E+06 -2.850906E-09 -1.283927E-09
        54  18 -4.114026E+06 -6.448052E+05 -1.128890E+04 -1.618511E+06 -2.087022E-11 -6.687563E-11
        54  19 -4.355058E+06 -7.359526E+05 -7.876166E+04 -1.683374E+06  5.090762E+03 -9.364579E+03
        54  20 -4.251123E+06 -6.295012E+05 -3.623234E+04 -1.586419E+06  6.705591E+02 -3.836803E+03
        54  21 -4.051011E+06 -6.211015E+05  4.426525E+03 -1.601147E+06 -3.780675E+03  1.779156E+03
        54  22 -4.082621E+06 -6.336245E+05 -6.488082E+03 -1.609583E+06  7.746948E+03 -8.374706E+03
        54  23 -4.130650E+06 -5.842673E+05 -4.040318E+03 -1.553861E+06  3.363527E+03 -2.833648E+03
        54  24 -4.082519E+06 -6.329534E+05 -3.431193E+03 -1.609829E+06 -1.050315E+03  2.795687E+03
        54  25 -3.810110E+06 -5.312919E+05  6.577918E+04 -1.535762E+06  1.040442E+04 -7.384351E+03
        54  26 -4.010163E+06 -5.390327E+05  2.815032E+04 -1.521297E+06  6.057061E+03 -1.830282E+03
        54  27 -4.114026E+06 -6.448051E+05 -1.128887E+04 -1.618511E+06  1.679867E+03  3.812151E+03
        55   1 -3.799215E+06 -5.258659E+05  7.286016E+04 -1.532710E+06  5.744741E+03 -5.323712E+03
        55   2 -3.698363E+06 -4.228904E+05  1.106104E+05 -1.437955E+06  1.035575E+04 -1.077639E+04
        55   3 -3.503637E+06 -4.155493E+05  1.463792E+05 -1.451687E+06  1.488000E+04 -1.597246E+04
        55   4 -4.083044E+06 -6.323163E+05 -3.519805E+03 -1.609171E+06  3.016138E+03 -6.340049E+03
        55   5 -4.130048E+06 -5.850246E+05 -4.718333E+03 -1.554724E+06  7.733621E+03 -1.175479E+04
        55   6 -4.083217E+06 -6.333966E+05 -7.982792E+03 -1.608778E+06  1.236368E+04 -1.691298E+04
        55   7 -4.366798E+06 -7.387630E+05 -7.990753E+04 -1.685602E+06  2.888903E+02 -7.355882E+03
        55   8 -4.561554E+06 -7.471491E+05 -1.200643E+05 -1.671419E+06  5.113486E+03 -1.273245E+04
        55   9 -4.662473E+06 -8.512255E+05 -1.623750E+05 -1.765737E+06  9.849943E+03 -1.785253E+04
        55  10 -3.799215E+06 -5.258660E+05  7.286004E+04 -1.532710E+06  2.121283E-09  3.552916E-09
        55  11 -3.698364E+06 -4.228906E+05  1.106100E+05 -1.437955E+06  2.056605E-09  4.683050E-09
        55  12 -3.503638E+06 -4.155496E+05  1.463783E+05 -1.451687E+06 -5.938643E-10  2.010277E-09
        55  13 -4.083044E+06 -6.323163E+05 -3.519897E+03 -1.609171E+06  6.762751E-11  2.317584E-09
        55  14 -4.130048E+06 -5.850248E+05 -4.718704E+03 -1.554723E+06  8.986416E-09  3.795155E-09
        55  15 -4.083217E+06 -6.333969E+05 -7.983616E+03 -1.608778E+06  5.133127E-09 -6.540843E-11
        55  16 -4.366798E+06 -7.387631E+05 -7.990763E+04 -1.685602E+06 -8.778567E-10  1.964818E-09
        55  17 -4.561555E+06 -7.471493E+05 -1.200646E+05 -1.671419E+06 -3.785054E-09 -1.571837E-11
        55  18 -4.662473E+06 -8.512258E+05 -1.623758E+05 -1.765737E+06  3.607103E-09  3.096385E-09
        55  19 -3.799215E+06 -5.258659E+05  7.286016E+04 -1.532710E+06 -5.744741E+03  5.323712E+03
        55  20 -3.698363E+06 -4.228904E+05  1.106104E+05 -1.437955E+06 -1.035575E+04  1.077639E+04
        55  21 -3.503637E+06 -4.155493E+05  1.463792E+05 -1.451687E+06 -1.488000E+04  1.597246E+04
        55  22 -4.083044E+06 -6.323163E+05 -3.519805E+03 -1.609171E+06 -3.016138E+03  6.340049E+03
        55  23 -4.130048E+06 -5.850246E+05 -4.718333E+03 -1.554724E+06 -7.733621E+03  1.175479E+04
        55  24 -4.083217E+06 -6.333966E+05 -7.982792E+03 -1.608778E+06 -1.236368E+04  1.691298E+04
        55  25 -4.366798E+06 -7.387630E+05 -7.990753E+04 -1.685602E+06 -2.888903E+02  7.355882E+03
        55  26 -4.561554E+06 -7.471491E+05 -1.200643E+05 -1.671419E+06 -5.113486E+03  1.273245E+04
        55  27 -4.662473E+06 -8.512255E+05 -1.623750E+05 -1.765737E+06 -9.849943E+03  1.785253E+04
        56   1 -3.272290E+06 -3.247026E+05  2.076563E+05 -1.387149E+06  1.772992E+04 -1.890745E+04
        56   2 -3.184042E+06 -2.320758E+05  2.341380E+05 -1.302338E+06  2.857606E+04 -2.131447E+04
        56   3 -3.015968E+06 -2.323207E+05  2.517716E+05 -1.310213E+06  3.913818E+04 -2.291657E+04
        56   4 -4.086006E+06 -6.296462E+05 -1.010672E+04 -1.606488E+06  1.514405E+04 -1.987583E+04
        56   5 -4.126484E+06 -5.872510E+05 -1.780628E+04 -1.558622E+06  2.631730E+04 -2.216383E+04
        56   6 -4.087221E+06 -6.378121E+05 -3.462422E+04 -1.603456E+06  3.720437E+04 -2.364707E+04
        56   7 -4.899074E+06 -9.345498E+05 -2.279259E+05 -1.825565E+06  1.256193E+04 -2.084281E+04
        56   8 -5.068063E+06 -9.423724E+05 -2.698279E+05 -1.814553E+06  2.406231E+04 -2.301178E+04
        56   9 -5.157365E+06 -1.043234E+06 -3.211222E+05 -1.896239E+06  3.527421E+04 -2.437619E+04
        56  10 -3.272290E+06 -3.247031E+05  2.076550E+05 -1.387149E+06 -2.214483E-09  1.035594E-09
        56  11 -3.184043E+06 -2.320765E+05  2.341356E+05 -1.302338E+06  2.961559E-09  1.594195E-09
        56  12 -3.015970E+06 -2.323217E+05  2.517677E+05 -1.310212E+06  1.433674E-09  7.673947E-10
        56  13 -4.086007E+06 -6.296467E+05 -1.010789E+04 -1.606488E+06  1.164563E-09  7.828261E-10
        56  14 -4.126485E+06 -5.872517E+05 -1.780851E+04 -1.558622E+06 -2.470675E-10 -2.551527E-09
        56  15 -4.087223E+06 -6.378131E+05 -3.462788E+04 -1.603455E+06  1.592712E-09 -3.642131E-10
        56  16 -4.899074E+06 -9.345503E+05 -2.279270E+05 -1.825565E+06  7.592970E-10  7.053189E-10
        56  17 -5.068064E+06 -9.423732E+05 -2.698300E+05 -1.814552E+06 -1.757469E-09  5.597612E-10
        56  18 -5.157367E+06 -1.043235E+06 -3.211256E+05 -1.896239E+06 -1.076689E-09 -3.529347E-10
        56  19 -3.272290E+06 -3.247026E+05  2.076563E+05 -1.387149E+06 -1.772992E+04  1.890745E+04
        56  20 -3.184042E+06 -2.320758E+05  2.341380E+05 -1.302338E+06 -2.857606E+04  2.131447E+04
        56  21 -3.015968E+06 -2.323207E+05  2.517716E+05 -1.310213E+06 -3.913818E+04  2.291657E+04
        56  22 -4.086006E+06 -6.296462E+05 -1.010672E+04 -1.606488E+06 -1.514405E+04  1.987583E+04
        56  23 -4.126484E+06 -5.872510E+05 -1.780628E+04 -1.558622E+06 -2.631730E+04  2.216383E+04
        56  24 -4.087221E+06 -6.378121E+05 -3.462422E+04 -1.603456E+06 -3.720437E+04  2.364707E+04
        56  25 -4.899074E+06 -9.345498E+05 -2.279259E+05 -1.825565E+06 -1.256193E+04  2.084281E+04
        56  26 -5.068063E+06 -9.423724E+05 -2.698279E+05 -1.814553E+06 -2.406231E+04  2.301178E+04
        56  27 -5.157365E+06 -1.043234E+06 -3.211222E+05 -1.896239E+06 -3.527421E+04  2.437619E+04
        57   1 -2.823361E+06 -1.521468E+05  2.947164E+05 -1.266175E+06  4.762010E+04 -2.354538E+04
        57   2 -2.753361E+06 -6.368650E+04  2.885424E+05 -1.189761E+06  8.745408E+04 -1.367581E+04
        57   3 -2.652820E+06 -1.233080E+05  2.315945E+05 -1.164153E+06  1.257517E+05  3.183017E+02
        57   4 -4.094595E+06 -6.237405E+05 -4.403470E+04 -1.604158E+06  4.479260E+04 -2.461376E+04
        57   5 -4.114526E+06 -5.827021E+05 -7.637290E+04 -1.566245E+06  8.629364E+04 -1.412159E+04
        57   6 -4.104333E+06 -6.902136E+05 -1.609029E+05 -1.579140E+06  1.262505E+05  4.951356E+02
        57   7 -5.364264E+06 -1.095252E+06 -3.829269E+05 -1.941519E+06  4.197144E+04 -2.567986E+04
        57   8 -5.473892E+06 -1.101596E+06 -4.414516E+05 -1.941977E+06  8.513586E+04 -1.456636E+04
        57   9 -5.553796E+06 -1.256953E+06 -5.535886E+05 -1.993232E+06  1.267477E+05  6.713164E+02
        57  10 -2.823364E+06 -1.521480E+05  2.947111E+05 -1.266174E+06 -3.218460E-09 -5.350625E-10
        57  11 -2.753369E+06 -6.368876E+04  2.885276E+05 -1.189760E+06 -1.830906E-09  4.809645E-10
        57  12 -2.652837E+06 -1.233122E+05  2.315647E+05 -1.164153E+06 -1.148246E-11 -5.412687E-10
        57  13 -4.094597E+06 -6.237417E+05 -4.403961E+04 -1.604157E+06  3.877102E-09  4.323406E-11
        57  14 -4.114534E+06 -5.827043E+05 -7.638735E+04 -1.566244E+06  2.960000E-09 -6.249097E-10
        57  15 -4.104350E+06 -6.902179E+05 -1.609330E+05 -1.579140E+06  9.723808E-10 -1.973355E-09
        57  16 -5.364266E+06 -1.095253E+06 -3.829315E+05 -1.941518E+06  1.676768E-09  9.047371E-10
        57  17 -5.473900E+06 -1.101598E+06 -4.414657E+05 -1.941976E+06  6.980664E-09 -1.747637E-10
        57  18 -5.553813E+06 -1.256957E+06 -5.536191E+05 -1.993232E+06 -6.651530E-10 -1.341886E-09
        57  19 -2.823361E+06 -1.521468E+05  2.947164E+05 -1.266175E+06 -4.762010E+04  2.354538E+04
        57  20 -2.753361E+06 -6.368650E+04  2.885424E+05 -1.189761E+06 -8.745408E+04  1.367581E+04
        57  21 -2.652820E+06 -1.233080E+05  2.315945E+05 -1.164153E+06 -1.257517E+05 -3.183017E+02
        57  22 -4.094595E+06 -6.237405E+05 -4.403470E+04 -1.604158E+06 -4.479260E+04  2.461376E+04
        57  23 -4.114526E+06 -5.827021E+05 -7.637290E+04 -1.566245E+06 -8.629364E+04  1.412159E+04
        57  24 -4.104333E+06 -6.902136E+05 -1.609029E+05 -1.579140E+06 -1.262505E+05 -4.951356E+02
        57  25 -5.364264E+06 -1.095252E+06 -3.829269E+05 -1.941519E+06 -4.197144E+04  2.567986E+04
        57  26 -5.473892E+06 -1.101596E+06 -4.414516E+05 -1.941977E+06 -8.513586E+04  1.456636E+04
        57  27 -5.553796E+06 -1.256953E+06 -5.535886E+05 -1.993232E+06 -1.267477E+05 -6.713164E+02
        58   1 -2.487419E+06 -4.364169E+04  2.304979E+05 -1.236639E+06  1.668644E+05  7.455511E+03
        58   2 -2.424654E+06  1.571340E+05  1.194933E+05 -1.095294E+06  3.289635E+05  6.579185E+04
        58   3 -2.612251E+06 -3.952653E+05 -3.073260E+05 -8.062704E+05  4.764457E+05  1.625121E+05
        58   4 -4.134825E+06 -6.010264E+05 -1.971336E+05 -1.620363E+06  1.572417E+05  3.816802E+03
        58   5 -4.049358E+06 -5.039150E+05 -3.233765E+05 -1.587071E+06  3.352157E+05  6.813351E+04
        58   6 -4.218180E+06 -1.164379E+06 -7.787452E+05 -1.405901E+06  4.985533E+05  1.708108E+05
        58   7 -5.779606E+06 -1.158375E+06 -6.249885E+05 -2.003223E+06  1.476469E+05  1.860035E+02
        58   8 -5.671487E+06 -1.164689E+06 -7.664863E+05 -2.077638E+06  3.414487E+05  7.046672E+04
        58   9 -5.821535E+06 -1.932861E+06 -1.250415E+06 -2.003969E+06  5.205960E+05  1.790705E+05
        58  10 -2.487449E+06 -4.364926E+04  2.304452E+05 -1.236640E+06  3.603676E-09  1.811471E-09
        58  11 -2.424772E+06  1.571001E+05  1.192808E+05 -1.095312E+06 -1.115358E-09  8.330718E-09
        58  12 -2.612503E+06 -3.953551E+05 -3.078045E+05 -8.063329E+05  2.753754E-09  2.973970E-09
        58  13 -4.134852E+06 -6.010331E+05 -1.971804E+05 -1.620364E+06  1.381571E-09  2.869086E-09
        58  14 -4.049481E+06 -5.039505E+05 -3.235980E+05 -1.587089E+06  2.223284E-09 -2.002870E-09
        58  15 -4.218456E+06 -1.164478E+06 -7.792711E+05 -1.405970E+06  3.523581E-10  2.131633E-09
        58  16 -5.779629E+06 -1.158381E+06 -6.250298E+05 -2.003223E+06  6.409887E-10 -1.794474E-09
        58  17 -5.671615E+06 -1.164726E+06 -7.667171E+05 -2.077657E+06 -2.944003E-10  5.683002E-09
        58  18 -5.821837E+06 -1.932970E+06 -1.250991E+06 -2.004045E+06 -1.764492E-09  5.500619E-10
        58  19 -2.487419E+06 -4.364169E+04  2.304979E+05 -1.236639E+06 -1.668644E+05 -7.455511E+03
        58  20 -2.424654E+06  1.571340E+05  1.194933E+05 -1.095294E+06 -3.289635E+05 -6.579185E+04
        58  21 -2.612251E+06 -3.952653E+05 -3.073260E+05 -8.062704E+05 -4.764457E+05 -1.625121E+05
        58  22 -4.134825E+06 -6.010264E+05 -1.971336E+05 -1.620363E+06 -1.572417E+05 -3.816802E+03
        58  23 -4.049358E+06 -5.039150E+05 -3.233765E+05 -1.587071E+06 -3.352157E+05 -6.813351E+04
        58  24 -4.218180E+06 -1.164379E+06 -7.787452E+05 -1.405901E+06 -4.985533E+05 -1.708108E+05
        58  25 -5.779606E+06 -1.158375E+06 -6.249885E+05 -2.003223E+06 -1.476469E+05 -1.860035E+02
        58  26 -5.671487E+06 -1.164689E+06 -7.664863E+05 -2.077638E+06 -3.414487E+05 -7.046672E+04
        58  27 -5.821535E+06 -1.932861E+06 -1.250415E+06 -2.003969E+06 -5.205960E+05 -1.790705E+05
        59   1  1.910617E+05 -8.455156E+05  1.799828E+05  3.213465E+03  8.403362E+03 -9.173621E+03
        59   2  2.175538E+05 -8.588516E+05  1.876972E+05  3.840632E+03  2.563999E+04 -6.978226E+03
        59   3  2.087617E+05 -8.803990E+05  1.853810E+05 -9.409496E+03  2.498176E+04 -4.835773E+03
        59   4 -2.755753E+04 -1.720974E+06 -3.668935E+04 -3.141549E+03  8.438713E+03 -2.108358E+04
        59   5  4.464455E+03 -1.716140E+06 -1.931829E+04  3.839320E+03  2.565538E+04 -1.074720E+04
        59   6 -2.403382E+02 -1.720948E+06 -1.765313E+04 -3.058185E+03  2.496630E+04 -4.635211E+02
        59   7 -2.462340E+05 -2.595734E+06 -2.534181E+05 -9.487076E+03  8.474335E+03 -3.297672E+04
        59   8 -2.086788E+05 -2.572755E+06 -2.263865E+05  3.838587E+03  2.567079E+04 -1.451098E+04
        59   9 -2.092940E+05 -2.560849E+06 -2.207379E+05  3.285134E+03  2.495092E+04  3.902824E+03
        59  10  1.910616E+05 -8.455157E+05  1.799826E+05  3.213527E+03 -4.408491E-09  9.614406E-10
        59  11  2.175531E+05 -8.588519E+05  1.876959E+05  3.840776E+03  1.229762E-09 -6.675745E-09
        59  12  2.087610E+05 -8.803992E+05  1.853798E+05 -9.409399E+03 -2.309033E-09 -4.977776E-09
        59  13 -2.755773E+04 -1.720975E+06 -3.669032E+04 -3.141406E+03 -8.899008E-09  1.011195E-10
        59  14  4.463718E+03 -1.716141E+06 -1.931975E+04  3.839542E+03  3.108737E-09 -3.395432E-09
        59  15 -2.410071E+02 -1.720948E+06 -1.765430E+04 -3.058176E+03 -2.073793E-09 -4.407510E-09
        59  16 -2.462344E+05 -2.595735E+06 -2.534203E+05 -9.486850E+03 -4.313009E-09 -2.410633E-10
        59  17 -2.086795E+05 -2.572756E+06 -2.263881E+05  3.838887E+03 -3.748883E-09 -2.995996E-11
        59  18 -2.092947E+05 -2.560850E+06 -2.207391E+05  3.285056E+03 -8.210011E-09  2.853041E-09
        59  19  1.910617E+05 -8.455156E+05  1.799828E+05  3.213465E+03 -8.403362E+03  9.173621E+03
        59  20  2.175538E+05 -8.588516E+05  1.876972E+05  3.840632E+03 -2.563999E+04  6.978226E+03
        59  21  2.087617E+05 -8.803990E+05  1.853810E+05 -9.409496E+03 -2.498176E+04  4.835773E+03
        59  22 -2.755753E+04 -1.720974E+06 -3.668935E+04 -3.141549E+03 -8.438713E+03  2.108358E+04
        59  23  4.464455E+03 -1.716140E+06 -1.931829E+04  3.839320E+03 -2.565538E+04  1.074720E+04
        59  24 -2.403382E+02 -1.720948E+06 -1.765313E+04 -3.058185E+03 -2.496630E+04  4.635211E+02
        59  25 -2.462340E+05 -2.595734E+06 -2.534181E+05 -9.487076E+03 -8.474335E+03  3.297672E+04
        59  26 -2.086788E+05 -2.572755E+06 -2.263865E+05  3.838587E+03 -2.567079E+04  1.451098E+04
        59  27 -2.092940E+05 -2.560849E+06 -2.207379E+05  3.285134E+03 -2.495092E+04 -3.902824E+03
        60   1  1.987113E+05 -9.113218E+05  1.776613E+05 -4.395347E+03  2.206728E+04  3.531366E+03
        60   2  1.976996E+05 -9.326217E+05  1.679297E+05  1.984972E+03  2.261228E+04  1.350167E+04
        60   3  1.753563E+05 -9.599534E+05  1.464968E+05 -1.173676E+04  2.049360E+04  2.345714E+04
        60   4 -2.465987E+03 -1.720183E+06 -1.828489E+04 -4.453797E+03  2.207298E+04  2.654610E+03
        60   5  2.628417E+03 -1.717062E+06 -2.173666E+04  5.567498E+03  2.261260E+04  1.382591E+04
        60   6 -1.383289E+04 -1.720191E+06 -3.773544E+04 -4.515006E+03  2.048716E+04  2.498272E+04
        60   7 -2.036913E+05 -2.528444E+06 -2.142782E+05 -4.511520E+03  2.207868E+04  1.778993E+03
        60   8 -1.924878E+05 -2.500938E+06 -2.114472E+05  9.146156E+03  2.261292E+04  1.414972E+04
        60   9 -2.030644E+05 -2.479899E+06 -2.220094E+05  2.698575E+03  2.048076E+04  2.650643E+04
        60  10  1.987108E+05 -9.113219E+05  1.776603E+05 -4.395410E+03 -6.115511E-10  3.569144E-09
        60  11  1.976990E+05 -9.326220E+05  1.679283E+05  1.984726E+03  6.255311E-09 -8.018355E-09
        60  12  1.753557E+05 -9.599541E+05  1.464950E+05 -1.173715E+04  1.800798E-10 -5.497850E-09
        60  13 -2.466512E+03 -1.720183E+06 -1.828581E+04 -4.453845E+03  1.619768E-09  3.181648E-10
        60  14  2.627817E+03 -1.717062E+06 -2.173798E+04  5.567246E+03  6.280687E-09 -5.069233E-09
        60  15 -1.383351E+04 -1.720192E+06 -3.773741E+04 -4.515419E+03  7.046175E-09 -6.197455E-09
        60  16 -2.036919E+05 -2.528444E+06 -2.142791E+05 -4.511552E+03 -3.248978E-09 -2.645766E-09
        60  17 -1.924885E+05 -2.500938E+06 -2.114485E+05  9.145898E+03  3.703013E-09 -1.247996E-09
        60  18 -2.030650E+05 -2.479900E+06 -2.220115E+05  2.698137E+03  1.186326E-09  2.895639E-09
        60  19  1.987113E+05 -9.113218E+05  1.776613E+05 -4.395347E+03 -2.206728E+04 -3.531366E+03
        60  20  1.976996E+05 -9.326217E+05  1.679297E+05  1.984972E+03 -2.261228E+04 -1.350167E+04
        60  21  1.753563E+05 -9.599534E+05  1.464968E+05 -1.173676E+04 -2.049360E+04 -2.345714E+04
        60  22 -2.465987E+03 -1.720183E+06 -1.828489E+04 -4.453797E+03 -2.207298E+04 -2.654610E+03
        60  23  2.628417E+03 -1.717062E+06 -2.173666E+04  5.567498E+03 -2.261260E+04 -1.382591E+04
        60  24 -1.383289E+04 -1.720191E+06 -3.773544E+04 -4.515006E+03 -2.048716E+04 -2.498272E+04
        60  25 -2.036913E+05 -2.528444E+06 -2.142782E+05 -4.511520E+03 -2.207868E+04 -1.778993E+03
        60  26 -1.924878E+05 -2.500938E+06 -2.114472E+05  9.146156E+03 -2.261292E+04 -1.414972E+04
        60  27 -2.030644E+05 -2.479899E+06 -2.220094E+05  2.698575E+03 -2.048076E+04 -2.650643E+04
        61   1  1.842913E+05 -1.009864E+06  1.283479E+05  7.072469E+03  2.140942E+04  3.455832E+04
        61   2  1.907782E+05 -1.019127E+06  9.627191E+04 -6.235528E+03  2.005696E+04  6.643263E+04
        61   3  4.032804E+04 -1.071539E+06  4.243929E+03 -4.584558E+04  5.826030E+03  9.821939E+04
        61   4  5.829193E+03 -1.728582E+06 -4.514851E+04 -5.588083E+03  2.142400E+04  3.213388E+04
        61   5  1.970759E+04 -1.706531E+06 -6.979894E+04  7.146716E+03  2.003863E+04  6.983721E+04
        61   6 -1.244593E+05 -1.728689E+06 -1.585015E+05 -6.425353E+03  5.771139E+03  1.074539E+05
        61   7 -1.726700E+05 -2.446825E+06 -2.186818E+05 -1.823323E+04  2.143869E+04  2.971223E+04
        61   8 -1.513971E+05 -2.393501E+06 -2.359036E+05  2.051472E+04  2.002044E+04  7.323799E+04
        61   9 -2.892735E+05 -2.385442E+06 -3.212782E+05  3.295366E+04  5.717396E+03  1.166785E+05
        61  10  1.842904E+05 -1.009866E+06  1.283448E+05  7.071873E+03 -1.246703E-09  1.835429E-09
        61  11  1.907766E+05 -1.019132E+06  9.626285E+04 -6.236601E+03  1.233339E-09 -1.000669E-08
        61  12  4.032541E+04 -1.071550E+06  4.225705E+03 -4.584604E+04  2.624536E-12 -7.068375E-09
        61  13  5.828423E+03 -1.728583E+06 -4.515132E+04 -5.588638E+03 -3.467347E-09 -8.464015E-11
        61  14  1.970584E+04 -1.706536E+06 -6.980888E+04  7.145588E+03  9.175672E-11 -6.882024E-09
        61  15 -1.244624E+05 -1.728702E+06 -1.585233E+05 -6.425853E+03 -3.925206E-09 -7.555469E-09
        61  16 -1.726707E+05 -2.446826E+06 -2.186844E+05 -1.823375E+04  2.205526E-09 -9.924781E-11
        61  17 -1.513990E+05 -2.393506E+06 -2.359145E+05  2.051354E+04 -4.900054E-09 -1.344952E-09
        61  18 -2.892772E+05 -2.385457E+06 -3.213039E+05  3.295312E+04  8.723627E-10  3.631294E-09
        61  19  1.842913E+05 -1.009864E+06  1.283479E+05  7.072469E+03 -2.140942E+04 -3.455832E+04
        61  20  1.907782E+05 -1.019127E+06  9.627191E+04 -6.235528E+03 -2.005696E+04 -6.643263E+04
        61  21  4.032804E+04 -1.071539E+06  4.243929E+03 -4.584558E+04 -5.826030E+03 -9.821939E+04
        61  22  5.829193E+03 -1.728582E+06 -4.514851E+04 -5.588083E+03 -2.142400E+04 -3.213388E+04
        61  23  1.970759E+04 -1.706531E+06 -6.979894E+04  7.146716E+03 -2.003863E+04 -6.983721E+04
        61  24 -1.244593E+05 -1.728689E+06 -1.585015E+05 -6.425353E+03 -5.771139E+03 -1.074539E+05
        61  25 -1.726700E+05 -2.446825E+06 -2.186818E+05 -1.823323E+04 -2.143869E+04 -2.971223E+04
        61  26 -1.513971E+05 -2.393501E+06 -2.359036E+05  2.051472E+04 -2.002044E+04 -7.323799E+04
        61  27 -2.892735E+05 -2.385442E+06 -3.212782E+05  3.295366E+04 -5.717396E+03 -1.166785E+05
        62   1  5.588384E+02  1.386124E+02  1.376888E+02  5.131708E+00  1.289182E+00 -3.767493E-01
        62   2  5.582293E+02  1.401891E+02  1.365728E+02 -2.226292E+00  2.902192E+00 -1.036223E+00
        62   3  5.569733E+02  1.394850E+02  1.338633E+02  5.171404E+00  4.514682E+00 -7.092371E-01
        62   4 -1.342287E+00 -1.431735E+00 -2.350433E+00  4.930742E+00  1.261493E+00 -3.767641E-01
        62   5 -1.016811E+00  3.805608E-01 -3.222537E+00 -2.447472E+00  2.898167E+00 -1.036224E+00
        62   6 -1.342354E+00 -9.220746E-02 -5.704551E+00  4.930010E+00  4.534321E+00 -7.092245E-01
        62   7 -5.615226E+02 -1.414759E+02 -1.423897E+02  4.729774E+00  1.233809E+00 -3.767794E-01
        62   8 -5.602626E+02 -1.394280E+02 -1.430179E+02 -2.668654E+00  2.894166E+00 -1.036227E+00
        62   9 -5.596577E+02 -1.396694E+02 -1.452724E+02  4.688613E+00  4.554003E+00 -7.092149E-01
        62  10  5.588384E+02  1.386126E+02  1.376889E+02  5.130830E+00 -1.790593E-06 -1.666291E-07
        62  11  5.582295E+02  1.401899E+02  1.365730E+02 -2.230183E+00 -8.036246E-06 -5.785213E-07
        62  12  5.569736E+02  1.394863E+02  1.338636E+02  5.164510E+00 -1.433001E-05 -7.481676E-07
        62  13 -1.342439E+00 -1.431741E+00 -2.350464E+00  4.930743E+00 -4.557638E-06  1.038364E-07
        62  14 -1.016950E+00  3.806046E-01 -3.222556E+00 -2.447474E+00 -2.023578E-05  4.596094E-07
        62  15 -1.342507E+00 -9.221661E-02 -5.704583E+00  4.930011E+00 -3.590726E-05  8.166198E-07
        62  16 -5.615227E+02 -1.414760E+02 -1.423898E+02  4.730651E+00 -1.856959E-06 -6.361167E-09
        62  17 -5.602628E+02 -1.394287E+02 -1.430181E+02 -2.664771E+00 -8.151821E-06 -1.852723E-07
        62  18 -5.596581E+02 -1.396706E+02 -1.452727E+02  4.695507E+00 -1.439575E-05 -6.029382E-07
        62  19  5.588384E+02  1.386127E+02  1.376889E+02  5.129954E+00 -1.289186E+00  3.767489E-01
        62  20  5.582296E+02  1.401907E+02  1.365732E+02 -2.234072E+00 -2.902208E+00  1.036222E+00
        62  21  5.569739E+02  1.394875E+02  1.338639E+02  5.157615E+00 -4.514710E+00  7.092356E-01
        62  22 -1.342591E+00 -1.431747E+00 -2.350496E+00  4.930745E+00 -1.261502E+00  3.767644E-01
        62  23 -1.017090E+00  3.806486E-01 -3.222575E+00 -2.447476E+00 -2.898207E+00  1.036225E+00
        62  24 -1.342660E+00 -9.222608E-02 -5.704615E+00  4.930014E+00 -4.534393E+00  7.092261E-01
        62  25 -5.615228E+02 -1.414761E+02 -1.423898E+02  4.731529E+00 -1.233813E+00  3.767794E-01
        62  26 -5.602631E+02 -1.394293E+02 -1.430182E+02 -2.660892E+00 -2.894182E+00  1.036227E+00
        62  27 -5.596585E+02 -1.396719E+02 -1.452731E+02  4.702402E+00 -4.554032E+00  7.092137E-01
        63   1  2.388194E+02  5.985715E+01  5.256972E+01  5.010318E+00  5.731054E+00 -4.462569E-01
        63   2  2.385348E+02  6.017089E+01  4.700165E+01 -2.357489E+00  1.210584E+01 -3.951812E-01
        63   3  2.369320E+02  5.850276E+01  3.678928E+01  5.028671E+00  1.848053E+01 -1.753273E-01
        63   4 -1.490840E+00 -2.194114E-01 -7.500896E+00  4.929725E+00  5.730144E+00 -4.462559E-01
        63   5 -8.313625E-01  3.303186E-01 -1.283367E+01 -2.447009E+00  1.210899E+01 -3.951785E-01
        63   6 -1.490860E+00 -1.102528E+00 -2.281355E+01  4.930229E+00  1.848773E+01 -1.753229E-01
        63   7 -2.418011E+02 -6.029598E+01 -6.757153E+01  4.849130E+00  5.729279E+00 -4.462580E-01
        63   8 -2.401976E+02 -5.951027E+01 -7.266900E+01 -2.536525E+00  1.211216E+01 -3.951779E-01
        63   9 -2.399137E+02 -6.070783E+01 -8.241640E+01  4.831786E+00  1.849495E+01 -1.753194E-01
        63  10  2.388198E+02  5.985844E+01  5.257006E+01  5.003241E+00 -1.477341E-05 -6.405139E-07
        63  11  2.385351E+02  6.017169E+01  4.700186E+01 -2.362194E+00 -9.845660E-06 -3.105352E-07
        63  12  2.369321E+02  5.850310E+01  3.678937E+01  5.026340E+00 -4.902892E-06 -6.166587E-08
        63  13 -1.490718E+00 -2.194009E-01 -7.500870E+00  4.929723E+00 -3.687463E-05  8.357300E-07
        63  14 -8.312508E-01  3.302915E-01 -1.283365E+01 -2.447008E+00 -2.451342E-05  5.388714E-07
        63  15 -1.490748E+00 -1.102557E+00 -2.281354E+01  4.930229E+00 -1.216063E-05  2.437222E-07
        63  16 -2.418014E+02 -6.029730E+01 -6.757185E+01  4.856210E+00 -1.472198E-05 -7.413607E-07
        63  17 -2.401977E+02 -5.951116E+01 -7.266922E+01 -2.531816E+00 -9.760515E-06 -5.854861E-07
        63  18 -2.399138E+02 -6.070826E+01 -8.241650E+01  4.834124E+00 -4.823795E-06 -3.451907E-07
        63  19  2.388202E+02  5.985974E+01  5.257039E+01  4.996161E+00 -5.731083E+00  4.462556E-01
        63  20  2.385353E+02  6.017248E+01  4.700207E+01 -2.366896E+00 -1.210586E+01  3.951806E-01
        63  21  2.369322E+02  5.850344E+01  3.678947E+01  5.024009E+00 -1.848054E+01  1.753272E-01
        63  22 -1.490597E+00 -2.193912E-01 -7.500844E+00  4.929722E+00 -5.730218E+00  4.462576E-01
        63  23 -8.311387E-01  3.302647E-01 -1.283364E+01 -2.447006E+00 -1.210904E+01  3.951796E-01
        63  24 -1.490637E+00 -1.102586E+00 -2.281352E+01  4.930230E+00 -1.848776E+01  1.753234E-01
        63  25 -2.418017E+02 -6.029861E+01 -6.757217E+01  4.863292E+00 -5.729309E+00  4.462565E-01
        63  26 -2.401979E+02 -5.951205E+01 -7.266943E+01 -2.527105E+00 -1.211218E+01  3.951767E-01
        63  27 -2.399138E+02 -6.070870E+01 -8.241660E+01  4.836458E+00 -1.849496E+01  1.753187E-01
        64   1 -8.215398E+01 -1.979033E+01 -4.976791E+01  4.808087E+00  2.325924E+01 -3.428120E-02
        64   2 -7.998603E+01 -1.822104E+01 -7.157042E+01 -2.504321E+00  4.890087E+01  1.489011E-01
        64   3 -8.403755E+01 -2.810280E+01 -1.129332E+02  4.940086E+00  7.454211E+01  3.605519E-01
        64   4 -2.579897E+00  1.034496E-01 -2.987362E+01  4.928976E+00  2.326294E+01 -3.427908E-02
        64   5  5.299093E-01  1.907702E+00 -5.144330E+01 -2.447202E+00  4.890527E+01  1.489031E-01
        64   6 -2.579884E+00 -7.739225E+00 -9.257372E+01  4.933435E+00  7.454721E+01  3.605538E-01
        64   7  7.699413E+01  1.999722E+01 -9.979352E+00  5.049865E+00  2.326665E+01 -3.427726E-02
        64   8  8.104579E+01  2.203643E+01 -3.131619E+01 -2.390080E+00  4.890966E+01  1.489057E-01
        64   9  7.887773E+01  1.262434E+01 -7.221426E+01  4.926786E+00  7.455227E+01  3.605573E-01
        64  10 -8.215389E+01 -1.979025E+01 -4.976788E+01  4.807403E+00 -1.463469E-06  7.544621E-08
        64  11 -7.998605E+01 -1.822138E+01 -7.157050E+01 -2.501711E+00  5.395394E-06  3.260034E-07
        64  12 -8.403768E+01 -2.810355E+01 -1.129334E+02  4.945987E+00  1.225985E-05  5.415662E-07
        64  13 -2.579737E+00  1.034321E-01 -2.987360E+01  4.928976E+00 -3.568995E-06  8.308960E-08
        64  14  5.300633E-01  1.907669E+00 -5.144328E+01 -2.447200E+00  1.357940E-05 -1.746852E-07
        64  15 -2.579733E+00 -7.739256E+00 -9.257370E+01  4.933435E+00  3.072341E-05 -4.346645E-07
        64  16  7.699415E+01  1.999704E+01 -9.979383E+00  5.050554E+00 -1.393626E-06 -2.128687E-07
        64  17  8.104592E+01  2.203665E+01 -3.131613E+01 -2.392683E+00  5.467589E-06 -2.906151E-08
        64  18  7.887795E+01  1.262496E+01 -7.221409E+01  4.920889E+00  1.231901E-05  1.929117E-07
        64  19 -8.215380E+01 -1.979016E+01 -4.976784E+01  4.806721E+00 -2.325924E+01  3.428136E-02
        64  20 -7.998607E+01 -1.822171E+01 -7.157056E+01 -2.499101E+00 -4.890086E+01 -1.489004E-01
        64  21 -8.403781E+01 -2.810429E+01 -1.129335E+02  4.951885E+00 -7.454209E+01 -3.605508E-01
        64  22 -2.579576E+00  1.034144E-01 -2.987357E+01  4.928977E+00 -2.326295E+01  3.427925E-02
        64  23  5.302225E-01  1.907638E+00 -5.144325E+01 -2.447199E+00 -4.890525E+01 -1.489034E-01
        64  24 -2.579570E+00 -7.739285E+00 -9.257367E+01  4.933435E+00 -7.454715E+01 -3.605547E-01
        64  25  7.699417E+01  1.999687E+01 -9.979413E+00  5.051241E+00 -2.326665E+01  3.427683E-02
        64  26  8.104604E+01  2.203687E+01 -3.131606E+01 -2.395289E+00 -4.890965E+01 -1.489058E-01
        64  27  7.887819E+01  1.262560E+01 -7.221391E+01  4.914991E+00 -7.455224E+01 -3.605569E-01
        65   1 -4.078272E+02 -9.865135E+01 -2.203753E+02  4.244548E+00  9.386370E+01  4.887242E-01
        65   2 -3.926262E+02 -8.749273E+01 -3.060392E+02 -2.606604E+00  1.971302E+02  7.358350E-01
        65   3 -4.097329E+02 -1.520149E+02 -4.778419E+02  5.318457E+00  3.003983E+02  9.847383E-01
        65   4 -8.377290E+00  1.210880E+00 -1.205193E+02  4.924718E+00  9.386827E+01  4.887257E-01
        65   5  7.776589E+00  1.260644E+01 -2.059481E+02 -2.448656E+00  1.971349E+02  7.358361E-01
        65   6 -8.377219E+00 -5.167875E+01 -3.775157E+02  4.954175E+00  3.004031E+02  9.847391E-01
        65   7  3.910727E+02  1.010731E+02 -2.066345E+01  5.604887E+00  9.387279E+01  4.887292E-01
        65   8  4.081795E+02  1.127056E+02 -1.058571E+02 -2.290706E+00  1.971395E+02  7.358398E-01
        65   9  3.929786E+02  4.865735E+01 -2.771896E+02  4.589894E+00  3.004078E+02  9.847427E-01
        65  10 -4.078274E+02 -9.865227E+01 -2.203755E+02  4.252407E+00  1.635114E-05  6.348499E-07
        65  11 -3.926265E+02 -8.749386E+01 -3.060395E+02 -2.595307E+00  2.351498E-05  7.532779E-07
        65  12 -4.097333E+02 -1.520162E+02 -4.778424E+02  5.333190E+00  3.068104E-05  8.555596E-07
        65  13 -8.377135E+00  1.210850E+00 -1.205193E+02  4.924718E+00  4.092222E-05 -5.440300E-07
        65  14  7.776711E+00  1.260639E+01 -2.059482E+02 -2.448655E+00  5.882680E-05 -6.661193E-07
        65  15 -8.377151E+00 -5.167880E+01 -3.775159E+02  4.954174E+00  7.673401E-05 -7.882609E-07
        65  16  3.910730E+02  1.010739E+02 -2.066325E+01  5.597035E+00  1.638966E-05  2.908633E-07
        65  17  4.081798E+02  1.127066E+02 -1.058569E+02 -2.302000E+00  2.355472E-05  3.898579E-07
        65  18  3.929789E+02  4.865853E+01 -2.771895E+02  4.575161E+00  3.070688E-05  5.048575E-07
        65  19 -4.078276E+02 -9.865318E+01 -2.203757E+02  4.260266E+00 -9.386367E+01 -4.887230E-01
        65  20 -3.926267E+02 -8.749497E+01 -3.060397E+02 -2.584010E+00 -1.971302E+02 -7.358335E-01
        65  21 -4.097335E+02 -1.520175E+02 -4.778425E+02  5.347925E+00 -3.003982E+02 -9.847366E-01
        65  22 -8.376960E+00  1.210824E+00 -1.205193E+02  4.924719E+00 -9.386819E+01 -4.887268E-01
        65  23  7.776917E+00  1.260637E+01 -2.059481E+02 -2.448655E+00 -1.971348E+02 -7.358375E-01
        65  24 -8.376889E+00 -5.167880E+01 -3.775157E+02  4.954174E+00 -3.004029E+02 -9.847406E-01
        65  25  3.910733E+02  1.010747E+02 -2.066302E+01  5.589177E+00 -9.387276E+01 -4.887286E-01
        65  26  4.081802E+02  1.127076E+02 -1.058566E+02 -2.313294E+00 -1.971395E+02 -7.358390E-01
        65  27  3.929794E+02  4.865976E+01 -2.771890E+02  4.560426E+00 -3.004077E+02 -9.847417E-01
        66   1 -7.598899E+02 -1.707859E+02 -6.668870E+02  1.495324E+00  3.788223E+02  1.142119E+00
        66   2 -6.723134E+02 -9.802949E+01 -1.001534E+03 -2.081093E+00  7.946590E+02  1.559189E+00
        66   3 -7.617840E+02 -5.178196E+02 -1.729998E+03  9.259544E+00  1.210495E+03  1.957213E+00
        66   4 -4.054158E+01  9.053179E+00 -4.870634E+02  4.902295E+00  3.788274E+02  1.142122E+00
        66   5  4.798218E+01  8.204058E+01 -8.214778E+02 -2.463530E+00  7.946640E+02  1.559189E+00
        66   6 -4.054097E+01 -3.375183E+02 -1.549709E+03  5.087692E+00  1.210500E+03  1.957205E+00
        66   7  6.788071E+02  1.888922E+02 -3.072399E+02  8.309267E+00  3.788323E+02  1.142128E+00
        66   8  7.682781E+02  2.621106E+02 -6.414215E+02 -2.845970E+00  7.946690E+02  1.559192E+00
        66   9  6.807024E+02 -1.572170E+02 -1.369419E+03  9.158339E-01  1.210505E+03  1.957201E+00
        66  10 -7.598903E+02 -1.707873E+02 -6.668876E+02  1.512049E+00  3.483859E-05  8.870784E-07
        66  11 -6.723143E+02 -9.803101E+01 -1.001536E+03 -2.060973E+00  4.192078E-05  8.866443E-07
        66  12 -7.617859E+02 -5.178213E+02 -1.730001E+03  9.283059E+00  4.899872E-05  8.562135E-07
        66  13 -4.054157E+01  9.053110E+00 -4.870637E+02  4.902295E+00  8.710037E-05 -8.163790E-07
        66  14  4.798166E+01  8.204037E+01 -8.214789E+02 -2.463532E+00  1.047919E-04 -7.923359E-07
        66  15 -4.054238E+01 -3.375187E+02 -1.549711E+03  5.087689E+00  1.224873E-04 -7.720132E-07
        66  16  6.788074E+02  1.888934E+02 -3.072398E+02  8.292545E+00  3.484071E-05  5.341537E-07
        66  17  7.682779E+02  2.621116E+02 -6.414224E+02 -2.866091E+00  4.191217E-05  5.234195E-07
        66  18  6.807013E+02 -1.572162E+02 -1.369422E+03  8.923151E-01  4.898677E-05  5.363270E-07
        66  19 -7.598905E+02 -1.707887E+02 -6.668877E+02  1.528773E+00 -3.788222E+02 -1.142117E+00
        66  20 -6.723140E+02 -9.803218E+01 -1.001535E+03 -2.040851E+00 -7.946589E+02 -1.559187E+00
        66  21 -7.617846E+02 -5.178223E+02 -1.729999E+03  9.306576E+00 -1.210495E+03 -1.957211E+00
        66  22 -4.054125E+01  9.053118E+00 -4.870634E+02  4.902296E+00 -3.788272E+02 -1.142124E+00
        66  23  4.798250E+01  8.204051E+01 -8.214777E+02 -2.463531E+00 -7.946638E+02 -1.559190E+00
        66  24 -4.054065E+01 -3.375183E+02 -1.549709E+03  5.087690E+00 -1.210500E+03 -1.957207E+00
        66  25  6.788079E+02  1.888947E+02 -3.072392E+02  8.275822E+00 -3.788323E+02 -1.142127E+00
        66  26  7.682789E+02  2.621130E+02 -6.414209E+02 -2.886213E+00 -7.946689E+02 -1.559191E+00
        66  27  6.807033E+02 -1.572146E+02 -1.369419E+03  8.687977E-01 -1.210505E+03 -1.957199E+00
        67   1 -1.264912E+03 -1.970581E+02 -2.231625E+03 -1.479746E+01  1.530162E+03  2.242037E+00
        67   2 -7.610041E+02  2.677659E+02 -3.517300E+03  3.785471E+00  3.204052E+03  3.287258E+00
        67   3 -1.266793E+03 -2.436403E+03 -6.684886E+03  3.816285E+01  4.877914E+03  4.216047E+00
        67   4 -2.255739E+02  6.279820E+01 -1.971808E+03  4.771882E+00  1.530169E+03  2.242087E+00
        67   5  2.792785E+02  5.278232E+02 -3.257257E+03 -2.562904E+00  3.204058E+03  3.287225E+00
        67   6 -2.255645E+02 -2.176141E+03 -6.424614E+03  5.897124E+00  4.877920E+03  4.215792E+00
        67   7  8.137655E+02  3.226544E+02 -1.711990E+03  2.434126E+01  1.530176E+03  2.242139E+00
        67   8  1.319562E+03  7.878805E+02 -2.997213E+03 -8.911289E+00  3.204065E+03  3.287195E+00
        67   9  8.156647E+02 -1.915880E+03 -6.164342E+03 -2.636866E+01  4.877927E+03  4.215539E+00
        67  10 -1.264915E+03 -1.970599E+02 -2.231630E+03 -1.477209E+01  5.289093E-05  8.263627E-07
        67  11 -7.610153E+02  2.677621E+02 -3.517320E+03  3.813842E+00  5.915791E-05  7.137900E-07
        67  12 -1.266818E+03 -2.436410E+03 -6.684931E+03  3.819422E+01  6.541248E-05  5.199633E-07
        67  13 -2.255763E+02  6.279754E+01 -1.971812E+03  4.771879E+00  1.321911E-04 -7.209337E-07
        67  14  2.792676E+02  5.278205E+02 -3.257276E+03 -2.562913E+00  1.478320E-04 -5.654102E-07
        67  15 -2.255899E+02 -2.176148E+03 -6.424658E+03  5.897107E+00  1.634840E-04 -4.108806E-07
        67  16  8.137634E+02  3.226549E+02 -1.711994E+03  2.431587E+01  5.285955E-05  4.938678E-07
        67  17  1.319551E+03  7.878787E+02 -2.997232E+03 -8.939683E+00  5.911479E-05  3.742569E-07
        67  18  8.156394E+02 -1.915886E+03 -6.164386E+03 -2.640006E+01  6.537098E-05  3.357191E-07
        67  19 -1.264913E+03 -1.970605E+02 -2.231626E+03 -1.474670E+01 -1.530162E+03 -2.242036E+00
        67  20 -7.610045E+02  2.677638E+02 -3.517301E+03  3.842236E+00 -3.204052E+03 -3.287257E+00
        67  21 -1.266793E+03 -2.436404E+03 -6.684886E+03  3.822562E+01 -4.877914E+03 -4.216046E+00
        67  22 -2.255736E+02  6.279814E+01 -1.971807E+03  4.771882E+00 -1.530169E+03 -2.242088E+00
        67  23  2.792788E+02  5.278232E+02 -3.257257E+03 -2.562905E+00 -3.204058E+03 -3.287226E+00
        67  24 -2.255642E+02 -2.176141E+03 -6.424614E+03  5.897123E+00 -4.877920E+03 -4.215793E+00
        67  25  8.137663E+02  3.226566E+02 -1.711989E+03  2.429049E+01 -1.530176E+03 -2.242137E+00
        67  26  1.319563E+03  7.878823E+02 -2.997212E+03 -8.968061E+00 -3.204065E+03 -3.287194E+00
        67  27  8.156652E+02 -1.915879E+03 -6.164341E+03 -2.643143E+01 -4.877926E+03 -4.215538E+00
        68   1 -2.680444E+03  7.923468E+01 -8.343362E+03 -1.154886E+02  6.189202E+03  4.996469E+00
        68   2  2.870745E+02  3.031729E+03 -1.313176E+04  4.903858E+01  1.292330E+04  8.349252E+00
        68   3 -2.682525E+03 -1.426102E+04 -2.736519E+04  2.345159E+02  1.965747E+04  1.104572E+01
        68   4 -1.320542E+03  4.193521E+02 -8.003385E+03  4.012911E+00  6.189220E+03  4.997664E+00
        68   5  1.648087E+03  3.371912E+03 -1.279155E+04 -3.164120E+00  1.292331E+04  8.348162E+00
        68   6 -1.320390E+03 -1.392075E+04 -2.702474E+04  1.060656E+01  1.965749E+04  1.103862E+01
        68   7  3.936238E+01  7.594694E+02 -7.663409E+03  1.235147E+02  6.189238E+03  4.998859E+00
        68   8  3.009100E+03  3.712095E+03 -1.245135E+04 -5.536693E+01  1.292333E+04  8.347073E+00
        68   9  4.174597E+01 -1.358047E+04 -2.668428E+04 -2.133033E+02  1.965750E+04  1.103152E+01
        68  10 -2.680486E+03  7.922382E+01 -8.343434E+03 -1.154562E+02  6.764548E-05  4.177522E-07
        68  11  2.868951E+02  3.031684E+03 -1.313208E+04  4.907161E+01  6.904052E-05  2.098831E-07
        68  12 -2.682940E+03 -1.426112E+04 -2.736592E+04  2.345495E+02  7.041620E-05 -1.624106E-07
        68  13 -1.320583E+03  4.193418E+02 -8.003457E+03  4.012886E+00  1.690511E-04 -2.988180E-07
        68  14  1.647907E+03  3.371867E+03 -1.279187E+04 -3.164207E+00  1.725153E-04 -6.573225E-08
        68  15 -1.320805E+03 -1.392085E+04 -2.702547E+04  1.060639E+01  1.759801E-04  1.705087E-07
        68  16  3.932143E+01  7.594596E+02 -7.663481E+03  1.234822E+02  6.758947E-05  2.572903E-07
        68  17  3.008921E+03  3.712051E+03 -1.245166E+04 -5.540015E+01  6.897297E-05  8.641973E-08
        68  18  4.133104E+01 -1.358058E+04 -2.668501E+04 -2.133372E+02  7.036850E-05  8.427106E-08
        68  19 -2.680445E+03  7.923352E+01 -8.343362E+03 -1.154237E+02 -6.189202E+03 -4.996469E+00
        68  20  2.870744E+02  3.031729E+03 -1.313176E+04  4.910482E+01 -1.292330E+04 -8.349253E+00
        68  21 -2.682525E+03 -1.426102E+04 -2.736519E+04  2.345835E+02 -1.965747E+04 -1.104572E+01
        68  22 -1.320542E+03  4.193520E+02 -8.003385E+03  4.012911E+00 -6.189220E+03 -4.997664E+00
        68  23  1.648087E+03  3.371912E+03 -1.279155E+04 -3.164122E+00 -1.292331E+04 -8.348163E+00
        68  24 -1.320390E+03 -1.392075E+04 -2.702474E+04  1.060656E+01 -1.965749E+04 -1.103862E+01
        68  25  3.936275E+01  7.594705E+02 -7.663409E+03  1.234498E+02 -6.189238E+03 -4.998858E+00
        68  26  3.009101E+03  3.712096E+03 -1.245135E+04 -5.543319E+01 -1.292333E+04 -8.347072E+00
        68  27  4.174602E+01 -1.358047E+04 -2.668428E+04 -2.133709E+02 -1.965750E+04 -1.103152E+01
        69   1 -9.623037E+03  2.317543E+03 -3.303655E+04 -7.441988E+02  2.508644E+04  1.371984E+01
        69   2  8.233702E+03  2.102555E+04 -4.985731E+04  3.662349E+02  5.215491E+04  2.532784E+01
        69   3 -9.624163E+03 -8.903614E+04 -1.164901E+05  1.526251E+03  7.922362E+04  3.334749E+01
        69   4 -7.937514E+03  2.739750E+03 -3.261503E+04 -3.219678E-01  2.508651E+04  1.374991E+01
        69   5  9.920894E+03  2.144693E+04 -4.943564E+04 -6.559774E+00  5.215496E+04  2.529650E+01
        69   6 -7.935207E+03 -8.861540E+04 -1.160681E+05  3.681095E+01  7.922365E+04  3.315737E+01
        69   7 -6.251987E+03  3.161960E+03 -3.219352E+04  7.435569E+02  2.508659E+04  1.377998E+01
        69   8  1.160809E+04  2.186832E+04 -4.901396E+04 -3.793555E+02  5.215501E+04  2.526516E+01
        69   9 -6.246243E+03 -8.819465E+04 -1.156462E+05 -1.452633E+03  7.922368E+04  3.296725E+01
        69  10 -9.623713E+03  2.317374E+03 -3.303773E+04 -7.441690E+02  6.281629E-05 -5.598120E-07
        69  11  8.230780E+03  2.102482E+04 -4.986242E+04  3.662508E+02  3.539182E-05 -8.823766E-07
        69  12 -9.630904E+03 -8.903782E+04 -1.165019E+05  1.526253E+03  7.970789E-06 -3.261545E-07
        69  13 -7.938191E+03  2.739581E+03 -3.261622E+04 -3.222475E-01  1.570440E-04  2.091115E-07
        69  14  9.917972E+03  2.144620E+04 -4.944075E+04 -6.560837E+00  8.849870E-05  1.164504E-07
        69  15 -7.941948E+03 -8.861708E+04 -1.160799E+05  3.680883E+01  1.994490E-05  2.521339E-08
        69  16 -6.252663E+03  3.161791E+03 -3.219470E+04  7.435265E+02  6.281662E-05  3.909398E-07
        69  17  1.160517E+04  2.186759E+04 -4.901907E+04 -3.793735E+02  3.540759E-05  7.807074E-07
        69  18 -6.252984E+03 -8.819633E+04 -1.156580E+05 -1.452639E+03  7.984417E-06  3.008080E-07
        69  19 -9.623037E+03  2.317543E+03 -3.303655E+04 -7.441385E+02 -2.508644E+04 -1.371984E+01
        69  20  8.233701E+03  2.102555E+04 -4.985731E+04  3.662689E+02 -5.215491E+04 -2.532784E+01
        69  21 -9.624164E+03 -8.903614E+04 -1.164901E+05  1.526259E+03 -7.922362E+04 -3.334749E+01
        69  22 -7.937515E+03  2.739750E+03 -3.261503E+04 -3.219706E-01 -2.508651E+04 -1.374991E+01
        69  23  9.920893E+03  2.144693E+04 -4.943564E+04 -6.559774E+00 -5.215496E+04 -2.529650E+01
        69  24 -7.935209E+03 -8.861540E+04 -1.160681E+05  3.681095E+01 -7.922365E+04 -3.315737E+01
        69  25 -6.251988E+03  3.161960E+03 -3.219352E+04  7.434966E+02 -2.508659E+04 -1.377998E+01
        69  26  1.160809E+04  2.186832E+04 -4.901396E+04 -3.793894E+02 -5.215501E+04 -2.526516E+01
        69  27 -6.246244E+03 -8.819465E+04 -1.156462E+05 -1.452641E+03 -7.922368E+04 -3.296725E+01
        70   1 -4.647753E+02 -1.819951E+02 -1.308843E+02 -1.314974E+02 -3.971478E-01  2.377174E-01
        70   2 -4.693398E+02 -1.745283E+02 -1.303869E+02 -1.250553E+02  1.614884E-01  1.096879E+00
        70   3 -4.627739E+02 -1.802726E+02 -1.308563E+02 -1.313255E+02  1.067029E+00  1.032518E+00
        70   4  4.147405E+00 -4.833860E+00 -1.672961E+00 -3.875694E+00 -3.739820E-01  2.464181E-01
        70   5 -1.350635E+00  2.262567E+00 -1.445393E+00  2.295681E+00  1.639080E-01  1.097783E+00
        70   6  4.286287E+00 -3.848582E+00 -2.168277E+00 -4.245840E+00  1.048702E+00  1.025628E+00
        70   7  4.730702E+02  1.723273E+02  1.275384E+02  1.237461E+02 -3.508200E-01  2.551191E-01
        70   8  4.666387E+02  1.790534E+02  1.274960E+02  1.296467E+02  1.663111E-01  1.098690E+00
        70   9  4.713467E+02  1.725755E+02  1.265197E+02  1.228339E+02  1.030345E+00  1.018740E+00
        70  10 -4.647758E+02 -1.819954E+02 -1.308845E+02 -1.314968E+02  8.054979E-07  7.261246E-07
        70  11 -4.693424E+02 -1.745294E+02 -1.303876E+02 -1.250527E+02  3.936590E-06  3.245118E-06
        70  12 -4.627785E+02 -1.802745E+02 -1.308576E+02 -1.313210E+02  7.316264E-06  5.675419E-06
        70  13  4.147487E+00 -4.833852E+00 -1.672943E+00 -3.875670E+00  2.801339E-06  5.936167E-07
        70  14 -1.350572E+00  2.262558E+00 -1.445382E+00  2.295721E+00  1.245907E-05  2.628093E-06
        70  15  4.286379E+00 -3.848565E+00 -2.168256E+00 -4.245825E+00  2.211381E-05  4.659753E-06
        70  16  4.730708E+02  1.723276E+02  1.275385E+02  1.237455E+02  1.078346E-06  7.212810E-07
        70  17  4.666413E+02  1.790544E+02  1.274968E+02  1.296442E+02  4.412700E-06  3.172892E-06
        70  18  4.713513E+02  1.725774E+02  1.265210E+02  1.228294E+02  7.496455E-06  5.703852E-06
        70  19 -4.647764E+02 -1.819956E+02 -1.308847E+02 -1.314962E+02  3.971493E-01 -2.377160E-01
        70  20 -4.693450E+02 -1.745305E+02 -1.303884E+02 -1.250501E+02 -1.614806E-01 -1.096872E+00
        70  21 -4.627831E+02 -1.802765E+02 -1.308589E+02 -1.313165E+02 -1.067014E+00 -1.032507E+00
        70  22  4.147568E+00 -4.833844E+00 -1.672925E+00 -3.875647E+00  3.739876E-01 -2.464169E-01
        70  23 -1.350508E+00  2.262549E+00 -1.445372E+00  2.295762E+00 -1.638831E-01 -1.097778E+00
        70  24  4.286468E+00 -3.848548E+00 -2.168235E+00 -4.245809E+00 -1.048657E+00 -1.025619E+00
        70  25  4.730714E+02  1.723278E+02  1.275387E+02  1.237449E+02  3.508222E-01 -2.551176E-01
        70  26  4.666439E+02  1.790555E+02  1.274975E+02  1.296417E+02 -1.663023E-01 -1.098683E+00
        70  27  4.713560E+02  1.725793E+02  1.265223E+02  1.228249E+02 -1.030330E+00 -1.018728E+00
        71   1 -9.575192E+01 -4.175209E+01 -3.031066E+01 -3.142941E+01  1.561605E+00  9.054084E-01
        71   2 -1.002568E+02 -3.518155E+01 -3.192129E+01 -2.458499E+01  3.940122E+00  1.691980E+00
        71   3 -9.392056E+01 -4.150411E+01 -3.561321E+01 -3.071730E+01  6.377963E+00  2.320630E+00
        71   4  4.191696E+00 -3.988884E+00 -2.773767E+00 -4.225391E+00  1.561289E+00  9.052841E-01
        71   5 -1.263423E+00  2.215481E+00 -4.646181E+00  2.353870E+00  3.936247E+00  1.690524E+00
        71   6  4.123412E+00 -4.472635E+00 -8.597065E+00 -4.043693E+00  6.370531E+00  2.317841E+00
        71   7  1.041354E+02  3.377433E+01  2.476313E+01  2.297864E+01  1.560947E+00  9.051617E-01
        71   8  9.773004E+01  3.961253E+01  2.262894E+01  2.929274E+01  3.932367E+00  1.689068E+00
        71   9  1.021675E+02  3.255886E+01  1.841909E+01  2.262993E+01  6.363112E+00  2.315052E+00
        71  10 -9.575622E+01 -4.175387E+01 -3.031187E+01 -3.142527E+01  7.056798E-06  5.252417E-06
        71  11 -1.002579E+02 -3.518200E+01 -3.192159E+01 -2.458403E+01  1.962832E-06  1.239771E-06
        71  12 -9.391839E+01 -4.150325E+01 -3.561260E+01 -3.071950E+01 -3.251358E-06 -2.740715E-06
        71  13  4.191565E+00 -3.988898E+00 -2.773796E+00 -4.225429E+00  2.040337E-05  4.292028E-06
        71  14 -1.263533E+00  2.215487E+00 -4.646202E+00  2.353812E+00  4.887143E-06  9.952804E-07
        71  15  4.123303E+00 -4.472627E+00 -8.597086E+00 -4.043751E+00 -1.062109E-05 -2.304301E-06
        71  16  1.041396E+02  3.377613E+01  2.476433E+01  2.297444E+01  6.610331E-06  5.259180E-06
        71  17  9.773106E+01  3.961303E+01  2.262925E+01  2.929168E+01  1.286860E-06  1.328089E-06
        71  18  1.021653E+02  3.255805E+01  1.841849E+01  2.263203E+01 -3.917600E-06 -2.646568E-06
        71  19 -9.576052E+01 -4.175565E+01 -3.031309E+01 -3.142112E+01 -1.561590E+00 -9.053979E-01
        71  20 -1.002589E+02 -3.518245E+01 -3.192189E+01 -2.458306E+01 -3.940118E+00 -1.691978E+00
        71  21 -9.391621E+01 -4.150238E+01 -3.561199E+01 -3.072170E+01 -6.377970E+00 -2.320636E+00
        71  22  4.191434E+00 -3.988913E+00 -2.773825E+00 -4.225467E+00 -1.561249E+00 -9.052755E-01
        71  23 -1.263642E+00  2.215494E+00 -4.646222E+00  2.353754E+00 -3.936238E+00 -1.690522E+00
        71  24  4.123194E+00 -4.472619E+00 -8.597106E+00 -4.043809E+00 -6.370552E+00 -2.317846E+00
        71  25  1.041438E+02  3.377792E+01  2.476554E+01  2.297023E+01 -1.560934E+00 -9.051512E-01
        71  26  9.773208E+01  3.961353E+01  2.262955E+01  2.929062E+01 -3.932364E+00 -1.689065E+00
        71  27  1.021630E+02  3.255724E+01  1.841789E+01  2.263414E+01 -6.363120E+00 -2.315057E+00
        72   1  2.727328E+02  9.776335E+01  6.282577E+01  6.864470E+01  8.093478E+00  2.784516E+00
        72   2  2.695904E+02  1.052226E+02  5.436854E+01  7.574867E+01  1.829612E+01  6.380380E+00
        72   3  2.739273E+02  9.395177E+01  3.644176E+01  7.095794E+01  2.850858E+01  9.949843E+00
        72   4  3.648492E+00 -3.839911E+00 -1.130814E+01 -4.528158E+00  8.089104E+00  2.782880E+00
        72   5 -4.152596E-01  3.228629E+00 -2.002448E+01  2.281844E+00  1.829114E+01  6.378521E+00
        72   6  3.000517E+00 -8.432969E+00 -3.820989E+01 -2.802971E+00  2.850299E+01  9.947759E+00
        72   7 -2.654356E+02 -1.054432E+02 -8.544204E+01 -7.770098E+01  8.084759E+00  2.781242E+00
        72   8 -2.704208E+02 -9.876535E+01 -9.441749E+01 -7.118494E+01  1.828621E+01  6.376658E+00
        72   9 -2.679261E+02 -1.108177E+02 -1.128615E+02 -7.656383E+01  2.849748E+01  9.945672E+00
        72  10  2.727370E+02  9.776501E+01  6.282696E+01  6.864042E+01 -6.691532E-06 -5.331655E-06
        72  11  2.695987E+02  1.052257E+02  5.437082E+01  7.574041E+01 -1.334878E-05 -1.029167E-05
        72  12  2.739397E+02  9.395630E+01  3.644513E+01  7.094571E+01 -2.006140E-05 -1.523549E-05
        72  13  3.648342E+00 -3.839913E+00 -1.130817E+01 -4.528221E+00 -2.088501E-05 -4.539322E-06
        72  14 -4.154029E-01  3.228634E+00 -2.002451E+01  2.281773E+00 -4.062025E-05 -8.916225E-06
        72  15  3.000372E+00 -8.432963E+00 -3.820992E+01 -2.803041E+00 -6.035694E-05 -1.329513E-05
        72  16 -2.654400E+02 -1.054448E+02 -8.544323E+01 -7.769680E+01 -7.401319E-06 -5.249403E-06
        72  17 -2.704291E+02 -9.876839E+01 -9.441976E+01 -7.117680E+01 -1.413703E-05 -1.017648E-05
        72  18 -2.679385E+02 -1.108221E+02 -1.128649E+02 -7.655172E+01 -2.082559E-05 -1.511757E-05
        72  19  2.727413E+02  9.776667E+01  6.282814E+01  6.863614E+01 -8.093491E+00 -2.784527E+00
        72  20  2.696070E+02  1.052288E+02  5.437310E+01  7.573216E+01 -1.829615E+01 -6.380401E+00
        72  21  2.739520E+02  9.396083E+01  3.644850E+01  7.093349E+01 -2.850862E+01 -9.949873E+00
        72  22  3.648190E+00 -3.839916E+00 -1.130820E+01 -4.528286E+00 -8.089146E+00 -2.782889E+00
        72  23 -4.155456E-01  3.228640E+00 -2.002454E+01  2.281702E+00 -1.829122E+01 -6.378538E+00
        72  24  3.000228E+00 -8.432957E+00 -3.820995E+01 -2.803110E+00 -2.850311E+01 -9.947786E+00
        72  25 -2.654443E+02 -1.054464E+02 -8.544442E+01 -7.769262E+01 -8.084773E+00 -2.781252E+00
        72  26 -2.704375E+02 -9.877142E+01 -9.442204E+01 -7.116865E+01 -1.828624E+01 -6.376678E+00
        72  27 -2.679509E+02 -1.108266E+02 -1.128683E+02 -7.653960E+01 -2.849752E+01 -9.945702E+00
        73   1  6.389532E+02  2.372433E+02  1.258982E+02  1.674711E+02  3.590924E+01  1.257151E+01
        73   2  6.432115E+02  2.513737E+02  8.823937E+01  1.752943E+02  8.072447E+01  2.914676E+01
        73   3  6.361023E+02  2.077172E+02  4.855684E+00  1.800672E+02  1.255409E+02  4.572130E+01
        73   4  7.210963E-01 -3.584942E+00 -4.990094E+01 -5.919111E+00  3.590409E+01  1.256959E+01
        73   5  4.236879E+00  9.948003E+00 -8.782414E+01  1.376797E+00  8.071924E+01  2.914482E+01
        73   6 -3.613725E+00 -3.430727E+01 -1.714722E+02  5.621047E+00  1.255356E+02  4.571934E+01
        73   7 -6.375107E+02 -2.444132E+02 -2.257001E+02 -1.793092E+02  3.589904E+01  1.256767E+01
        73   8 -6.347372E+02 -2.314777E+02 -2.638877E+02 -1.725406E+02  8.071415E+01  2.914288E+01
        73   9 -6.433290E+02 -2.763316E+02 -3.478000E+02 -1.688249E+02  1.255304E+02  4.571737E+01
        73  10  6.389679E+02  2.372486E+02  1.259022E+02  1.674566E+02 -2.404642E-05 -1.811898E-05
        73  11  6.432302E+02  2.513802E+02  8.824440E+01  1.752758E+02 -3.100710E-05 -2.308258E-05
        73  12  6.361251E+02  2.077248E+02  4.861747E+00  1.800446E+02 -3.798529E-05 -2.803958E-05
        73  13  7.209446E-01 -3.584939E+00 -4.990097E+01 -5.919183E+00 -7.201471E-05 -1.593857E-05
        73  14  4.236723E+00  9.948006E+00 -8.782419E+01  1.376723E+00 -9.232637E-05 -2.064451E-05
        73  15 -3.613892E+00 -3.430727E+01 -1.714723E+02  5.620971E+00 -1.126335E-04 -2.534757E-05
        73  16 -6.375254E+02 -2.444184E+02 -2.257041E+02 -1.792948E+02 -2.479271E-05 -1.799562E-05
        73  17 -6.347560E+02 -2.314841E+02 -2.638927E+02 -1.725221E+02 -3.176568E-05 -2.294887E-05
        73  18 -6.433519E+02 -2.763392E+02 -3.478062E+02 -1.688024E+02 -3.872007E-05 -2.790848E-05
        73  19  6.389826E+02  2.372538E+02  1.259062E+02  1.674420E+02 -3.590929E+01 -1.257154E+01
        73  20  6.432490E+02  2.513867E+02  8.824946E+01  1.752572E+02 -8.072453E+01 -2.914680E+01
        73  21  6.361479E+02  2.077326E+02  4.867878E+00  1.800220E+02 -1.255410E+02 -4.572136E+01
        73  22  7.207959E-01 -3.584935E+00 -4.990100E+01 -5.919253E+00 -3.590424E+01 -1.256962E+01
        73  23  4.236582E+00  9.948015E+00 -8.782420E+01  1.376652E+00 -8.071943E+01 -2.914486E+01
        73  24 -3.614026E+00 -3.430726E+01 -1.714723E+02  5.620907E+00 -1.255358E+02 -4.571939E+01
        73  25 -6.375402E+02 -2.444236E+02 -2.257081E+02 -1.792803E+02 -3.589909E+01 -1.256771E+01
        73  26 -6.347748E+02 -2.314905E+02 -2.638978E+02 -1.725036E+02 -8.071421E+01 -2.914293E+01
        73  27 -6.433747E+02 -2.763468E+02 -3.478122E+02 -1.687799E+02 -1.255305E+02 -4.571743E+01
        74   1  9.921638E+02  3.778378E+02  5.600624E+01  2.584024E+02  1.583937E+02  5.790520E+01
        74   2  1.039391E+03  4.341386E+02 -1.063702E+02  2.693193E+02  3.562653E+02  1.319753E+02
        74   3  9.626604E+02  1.818130E+02 -4.962935E+02  3.376631E+02  5.541247E+02  2.060747E+02
        74   4 -1.612178E+01 -1.384497E+00 -2.214729E+02 -1.424705E+01  1.583880E+02  5.790310E+01
        74   5  3.174936E+01  5.296692E+01 -3.841066E+02 -5.407117E+00  3.562599E+02  1.319733E+02
        74   6 -4.433794E+01 -2.013077E+02 -7.742878E+02  6.086070E+01  5.541196E+02  2.060728E+02
        74   7 -1.024407E+03 -3.806068E+02 -4.989521E+02 -2.868961E+02  1.583825E+02  5.790100E+01
        74   8 -9.758913E+02 -3.282048E+02 -6.618432E+02 -2.801332E+02  3.562547E+02  1.319713E+02
        74   9 -1.051336E+03 -5.844285E+02 -1.052282E+03 -2.159414E+02  5.541148E+02  2.060709E+02
        74  10  9.921889E+02  3.778461E+02  5.601287E+01  2.583775E+02 -4.203356E-05 -3.085278E-05
        74  11  1.039420E+03  4.341478E+02 -1.063628E+02  2.692905E+02 -4.891521E-05 -3.554710E-05
        74  12  9.626929E+02  1.818230E+02 -4.962856E+02  3.376304E+02 -5.583008E-05 -4.022710E-05
        74  13 -1.612196E+01 -1.384502E+00 -2.214729E+02 -1.424713E+01 -1.243029E-04 -2.811509E-05
        74  14  3.174908E+01  5.296688E+01 -3.841069E+02 -5.407226E+00 -1.440993E-04 -3.292402E-05
        74  15 -4.433843E+01 -2.013078E+02 -7.742884E+02  6.086054E+01 -1.639005E-04 -3.773400E-05
        74  16 -1.024432E+03 -3.806151E+02 -4.989588E+02 -2.868713E+02 -4.273943E-05 -3.070919E-05
        74  17 -9.759205E+02 -3.282140E+02 -6.618511E+02 -2.801046E+02 -4.961138E-05 -3.539496E-05
        74  18 -1.051369E+03 -5.844386E+02 -1.052291E+03 -2.159090E+02 -5.645049E-05 -4.009887E-05
        74  19  9.922140E+02  3.778544E+02  5.601960E+01  2.583526E+02 -1.583938E+02 -5.790526E+01
        74  20  1.039449E+03  4.341570E+02 -1.063550E+02  2.692618E+02 -3.562654E+02 -1.319754E+02
        74  21  9.627260E+02  1.818332E+02 -4.962764E+02  3.375979E+02 -5.541248E+02 -2.060747E+02
        74  22 -1.612207E+01 -1.384487E+00 -2.214729E+02 -1.424719E+01 -1.583883E+02 -5.790316E+01
        74  23  3.174907E+01  5.296694E+01 -3.841067E+02 -5.407259E+00 -3.562602E+02 -1.319734E+02
        74  24 -4.433824E+01 -2.013077E+02 -7.742878E+02  6.086057E+01 -5.541200E+02 -2.060729E+02
        74  25 -1.024457E+03 -3.806233E+02 -4.989654E+02 -2.868465E+02 -1.583826E+02 -5.790107E+01
        74  26 -9.759493E+02 -3.282230E+02 -6.618584E+02 -2.800759E+02 -3.562548E+02 -1.319714E+02
        74  27 -1.051401E+03 -5.844485E+02 -1.052299E+03 -2.158764E+02 -5.541149E+02 -2.060710E+02
        75   1  1.266602E+03  5.270258E+02 -6.062455E+02  3.003379E+02  7.013654E+02  2.612264E+02
        75   2  1.573628E+03  8.512119E+02 -1.291289E+03  3.258670E+02  1.575764E+03  5.894753E+02
        75   3  1.065375E+03 -7.396630E+02 -3.145828E+03  8.092285E+02  2.450100E+03  9.178657E+02
        75   4 -1.170737E+02  1.475464E+01 -9.854029E+02 -6.546287E+01  7.013574E+02  2.612234E+02
        75   5  1.996117E+02  3.279921E+02 -1.670700E+03 -5.229898E+01  1.575757E+03  5.894729E+02
        75   6 -2.989848E+02 -1.273833E+03 -3.525496E+03  4.186993E+02  2.450095E+03  9.178638E+02
        75   7 -1.500747E+03 -4.975162E+02 -1.364560E+03 -4.312628E+02  7.013497E+02  2.612205E+02
        75   8 -1.174402E+03 -1.952275E+02 -2.050112E+03 -4.304642E+02  1.575751E+03  5.894705E+02
        75   9 -1.663343E+03 -1.808002E+03 -3.905165E+03  2.817085E+01  2.450091E+03  9.178619E+02
        75  10  1.266636E+03  5.270360E+02 -6.062375E+02  3.003031E+02 -5.960868E-05 -4.273359E-05
        75  11  1.573663E+03  8.512217E+02 -1.291285E+03  3.258284E+02 -6.564040E-05 -4.660783E-05
        75  12  1.065409E+03 -7.396544E+02 -3.145831E+03  8.091856E+02 -7.178395E-05 -5.042606E-05
        75  13 -1.170744E+02  1.475444E+01 -9.854040E+02 -6.546308E+01 -1.746242E-04 -4.041363E-05
        75  14  1.996088E+02  3.279910E+02 -1.670706E+03 -5.229980E+01 -1.916760E-04 -4.481730E-05
        75  15 -2.989916E+02 -1.273835E+03 -3.525509E+03  4.186974E+02 -2.087320E-04 -4.922444E-05
        75  16 -1.500783E+03 -4.975268E+02 -1.364570E+03 -4.312284E+02 -6.018412E-05 -4.257542E-05
        75  17 -1.174443E+03 -1.952393E+02 -2.050127E+03 -4.304271E+02 -6.621766E-05 -4.644235E-05
        75  18 -1.663391E+03 -1.808016E+03 -3.905188E+03  2.821011E+01 -7.212542E-05 -5.036186E-05
        75  19  1.266672E+03  5.270467E+02 -6.062274E+02  3.002686E+02 -7.013655E+02 -2.612265E+02
        75  20  1.573704E+03  8.512336E+02 -1.291269E+03  3.257912E+02 -1.575764E+03 -5.894754E+02
        75  21  1.065457E+03 -7.396406E+02 -3.145807E+03  8.091463E+02 -2.450101E+03 -9.178658E+02
        75  22 -1.170740E+02  1.475465E+01 -9.854030E+02 -6.546300E+01 -7.013578E+02 -2.612235E+02
        75  23  1.996115E+02  3.279921E+02 -1.670700E+03 -5.229911E+01 -1.575758E+03 -5.894730E+02
        75  24 -2.989851E+02 -1.273833E+03 -3.525496E+03  4.186992E+02 -2.450096E+03 -9.178639E+02
        75  25 -1.500817E+03 -4.975370E+02 -1.364578E+03 -4.311937E+02 -7.013499E+02 -2.612206E+02
        75  26 -1.174479E+03 -1.952490E+02 -2.050131E+03 -4.303885E+02 -1.575751E+03 -5.894706E+02
        75  27 -1.663425E+03 -1.808024E+03 -3.905186E+03  2.825300E+01 -2.450091E+03 -9.178620E+02
        76   1  1.073093E+03  7.418439E+02 -3.911912E+03  4.071606E+01  3.114202E+03  1.167187E+03
        76   2  2.946238E+03  2.758468E+03 -6.731426E+03  1.297454E+02  6.978196E+03  2.618933E+03
        76   3 -2.294903E+02 -7.370227E+03 -1.574492E+04  3.301436E+03  1.084196E+04  4.071483E+03
        76   4 -7.205155E+02  1.300123E+02 -4.392959E+03 -3.798467E+02  3.114183E+03  1.167181E+03
        76   5  1.221232E+03  2.076698E+03 -7.212735E+03 -3.705892E+02  6.978185E+03  2.618928E+03
        76   6 -1.885909E+03 -8.121961E+03 -1.622651E+04  2.721331E+03  1.084196E+04  4.071479E+03
        76   7 -2.514121E+03 -4.818194E+02 -4.874006E+03 -8.004084E+02  3.114165E+03  1.167174E+03
        76   8 -5.037725E+02  1.394928E+03 -7.694045E+03 -8.709225E+02  6.978174E+03  2.618924E+03
        76   9 -3.542325E+03 -8.873695E+03 -1.670810E+04  2.141228E+03  1.084195E+04  4.071475E+03
        76  10  1.073124E+03  7.418510E+02 -3.911922E+03  4.067097E+01 -7.396184E-05 -5.166268E-05
        76  11  2.946227E+03  2.758458E+03 -6.731520E+03  1.296881E+02 -7.508678E-05 -5.192644E-05
        76  12 -2.295782E+02 -7.370267E+03 -1.574516E+04  3.301358E+03 -7.644242E-05 -5.204730E-05
        76  13 -7.205263E+02  1.300082E+02 -4.392980E+03 -3.798496E+02 -2.144345E-04 -5.084128E-05
        76  14  1.221177E+03  2.076678E+03 -7.212840E+03 -3.706039E+02 -2.169817E-04 -5.197947E-05
        76  15 -1.886040E+03 -8.122011E+03 -1.622676E+04  2.721296E+03 -2.195385E-04 -5.310229E-05
        76  16 -2.514174E+03 -4.818346E+02 -4.874038E+03 -8.003692E+02 -7.408832E-05 -5.154136E-05
        76  17 -5.038692E+02  1.394897E+03 -7.694160E+03 -8.708948E+02 -7.513962E-05 -5.182144E-05
        76  18 -3.542498E+03 -8.873754E+03 -1.670836E+04  2.141235E+03 -7.597870E-05 -5.220747E-05
        76  19  1.073177E+03  7.418663E+02 -3.911890E+03  4.063173E+01 -3.114202E+03 -1.167188E+03
        76  20  2.946324E+03  2.758490E+03 -6.731405E+03  1.296604E+02 -6.978196E+03 -2.618933E+03
        76  21 -2.294048E+02 -7.370208E+03 -1.574489E+04  3.301351E+03 -1.084196E+04 -4.071483E+03
        76  22 -7.205155E+02  1.300123E+02 -4.392959E+03 -3.798467E+02 -3.114184E+03 -1.167181E+03
        76  23  1.221232E+03  2.076698E+03 -7.212735E+03 -3.705892E+02 -6.978185E+03 -2.618928E+03
        76  24 -1.885909E+03 -8.121961E+03 -1.622651E+04  2.721331E+03 -1.084196E+04 -4.071479E+03
        76  25 -2.514205E+03 -4.818416E+02 -4.874028E+03 -8.003241E+02 -3.114165E+03 -1.167175E+03
        76  26 -5.038576E+02  1.394907E+03 -7.694066E+03 -8.708376E+02 -6.978174E+03 -2.618924E+03
        76  27 -3.542411E+03 -8.873715E+03 -1.670812E+04  2.141314E+03 -1.084195E+04 -4.071475E+03
        77   1 -1.967732E+03  1.414381E+03 -1.906205E+04 -2.094109E+03  1.386026E+04  5.205326E+03
        77   2  9.484722E+03  1.412603E+04 -3.019610E+04 -1.724690E+03  3.092958E+04  1.162075E+04
        77   3 -1.030102E+04 -5.029245E+04 -7.517441E+04  1.871316E+04  4.799750E+04  1.804035E+04
        77   4 -4.389148E+03  9.135643E+02 -1.964645E+04 -2.328040E+03  1.386018E+04  5.205307E+03
        77   5  7.513723E+03  1.317371E+04 -3.078070E+04 -2.474323E+03  3.092954E+04  1.162072E+04
        77   6 -1.182171E+04 -5.169642E+04 -7.575934E+04  1.744785E+04  4.799752E+04  1.804028E+04
        77   7 -6.810558E+03  4.127472E+02 -2.023085E+04 -2.561970E+03  1.386010E+04  5.205287E+03
        77   8  5.542729E+03  1.222140E+04 -3.136530E+04 -3.223954E+03  3.092951E+04  1.162070E+04
        77   9 -1.334239E+04 -5.310037E+04 -7.634426E+04  1.618255E+04  4.799754E+04  1.804021E+04
        77  10 -1.967907E+03  1.414309E+03 -1.906245E+04 -2.094205E+03 -6.907934E-05 -4.615795E-05
        77  11  9.483680E+03  1.412563E+04 -3.019814E+04 -1.725000E+03 -3.995120E-05 -2.570440E-05
        77  12 -1.030358E+04 -5.029342E+04 -7.517935E+04  1.871246E+04 -9.537912E-06 -5.839816E-06
        77  13 -4.389360E+03  9.134836E+02 -1.964686E+04 -2.328098E+03 -1.954538E-04 -4.741524E-05
        77  14  7.512660E+03  1.317331E+04 -3.078275E+04 -2.474612E+03 -1.101265E-04 -2.673366E-05
        77  15 -1.182427E+04 -5.169738E+04 -7.576428E+04  1.744716E+04 -2.482148E-05 -6.030296E-06
        77  16 -6.810809E+03  4.126577E+02 -2.023127E+04 -2.561990E+03 -6.671835E-05 -4.649129E-05
        77  17  5.541644E+03  1.222099E+04 -3.136736E+04 -3.224221E+03 -3.655454E-05 -2.653919E-05
        77  18 -1.334495E+04 -5.310134E+04 -7.634920E+04  1.618185E+04 -7.706522E-06 -5.945915E-06
        77  19 -1.967655E+03  1.414398E+03 -1.906203E+04 -2.094185E+03 -1.386026E+04 -5.205326E+03
        77  20  9.484765E+03  1.412604E+04 -3.019608E+04 -1.724732E+03 -3.092958E+04 -1.162075E+04
        77  21 -1.030101E+04 -5.029245E+04 -7.517441E+04  1.871315E+04 -4.799750E+04 -1.804035E+04
        77  22 -4.389146E+03  9.135644E+02 -1.964645E+04 -2.328039E+03 -1.386018E+04 -5.205307E+03
        77  23  7.513725E+03  1.317371E+04 -3.078070E+04 -2.474322E+03 -3.092954E+04 -1.162072E+04
        77  24 -1.182170E+04 -5.169642E+04 -7.575933E+04  1.744785E+04 -4.799752E+04 -1.804028E+04
        77  25 -6.810634E+03  4.127296E+02 -2.023087E+04 -2.561893E+03 -1.386010E+04 -5.205287E+03
        77  26  5.542686E+03  1.222139E+04 -3.136531E+04 -3.223910E+03 -3.092951E+04 -1.162070E+04
        77  27 -1.334239E+04 -5.310038E+04 -7.634426E+04  1.618256E+04 -4.799754E+04 -1.804021E+04
        78   1  9.878800E+04  9.628855E+05  9.190677E+04 -5.323290E+02  5.640652E+03  4.357778E+04
        78   2  9.355829E+04  9.612817E+05  6.946537E+04 -6.137256E+02  1.997021E+04  2.393697E+04
        78   3  9.205102E+04  9.631721E+05  6.073532E+04 -1.154064E+00  2.636507E+04  4.293610E+03
        78   4  6.522952E+02  5.629242E+05  8.418857E+02  1.546612E+02  5.659099E+03 -3.667039E+02
        78   5  2.769367E+02  5.628297E+05  1.160028E+03 -1.926793E+02  1.998293E+04 -9.393731E+02
        78   6  3.175791E+02  5.629236E+05  1.960934E+03  1.544449E+02  2.636973E+04 -1.514661E+03
        78   7 -9.749344E+04  1.631152E+05 -9.022615E+04  8.412191E+02  5.677454E+03 -4.428317E+04
        78   8 -9.301255E+04  1.645349E+05 -6.714833E+04  2.281053E+02  1.999562E+04 -2.580027E+04
        78   9 -9.142328E+04  1.628362E+05 -5.681614E+04  3.099591E+02  2.637440E+04 -7.319347E+03
        78  10  9.878746E+04  9.628835E+05  9.190314E+04 -5.325269E+02  2.023942E-09 -2.358671E-09
        78  11  9.355771E+04  9.612809E+05  6.946354E+04 -6.141104E+02  3.951798E-09 -6.410945E-09
        78  12  9.205027E+04  9.631719E+05  6.073398E+04 -1.245194E+00 -2.424341E-09 -8.514264E-09
        78  13  6.522607E+02  5.629242E+05  8.418253E+02  1.546628E+02  1.920683E-09  4.459046E-10
        78  14  2.765075E+02  5.628296E+05  1.159276E+03 -1.926642E+02 -7.337155E-10 -1.111770E-09
        78  15  3.168316E+02  5.629234E+05  1.959623E+03  1.544770E+02 -3.933092E-09  4.822553E-10
        78  16 -9.749400E+04  1.631131E+05 -9.022989E+04  8.414216E+02 -3.372609E-09  1.676290E-09
        78  17 -9.301316E+04  1.645341E+05 -6.715033E+04  2.285208E+02 -3.684094E-09  6.006593E-09
        78  18 -9.142404E+04  1.628359E+05 -5.681755E+04  3.101146E+02 -2.465019E-09  8.575736E-09
        78  19  9.878800E+04  9.628855E+05  9.190677E+04 -5.323290E+02 -5.640652E+03 -4.357778E+04
        78  20  9.355829E+04  9.612817E+05  6.946537E+04 -6.137256E+02 -1.997021E+04 -2.393697E+04
        78  21  9.205102E+04  9.631721E+05  6.073532E+04 -1.154064E+00 -2.636507E+04 -4.293610E+03
        78  22  6.522952E+02  5.629242E+05  8.418857E+02  1.546612E+02 -5.659099E+03  3.667039E+02
        78  23  2.769367E+02  5.628297E+05  1.160028E+03 -1.926793E+02 -1.998293E+04  9.393731E+02
        78  24  3.175791E+02  5.629236E+05  1.960934E+03  1.544449E+02 -2.636973E+04  1.514661E+03
        78  25 -9.749344E+04  1.631152E+05 -9.022615E+04  8.412191E+02 -5.677454E+03  4.428317E+04
        78  26 -9.301255E+04  1.645349E+05 -6.714833E+04  2.281053E+02 -1.999562E+04  2.580027E+04
        78  27 -9.142328E+04  1.628362E+05 -5.681614E+04  3.099591E+02 -2.637440E+04  7.319347E+03
        79   1  9.171110E+04  9.629412E+05  5.958714E+04 -2.638576E+02  2.744071E+04  3.213932E+03
        79   2  9.210515E+04  9.623935E+05  5.985881E+04  8.118108E+02  2.851362E+04 -4.149702E+03
        79   3  9.501153E+04  9.634397E+05  6.555028E+04  1.927877E+03  2.747538E+04 -1.151462E+04
        79   4  4.004729E+02  5.630404E+05  2.579723E+03  8.953022E+00  2.744526E+04 -1.889992E+03
        79   5  1.177563E+03  5.626824E+05  4.569072E+03 -1.041011E+01  2.851551E+04 -4.178882E+03
        79   6  3.587609E+03  5.630390E+05  8.458669E+03  1.062656E+01  2.747392E+04 -6.469037E+03
        79   7 -9.091737E+04  1.633012E+05 -5.442994E+04  2.816014E+02  2.744981E+04 -6.990773E+03
        79   8 -8.975706E+04  1.631333E+05 -5.072253E+04 -8.320559E+02  2.851739E+04 -4.208043E+03
        79   9 -8.784353E+04  1.628002E+05 -4.863519E+04 -1.905311E+03  2.747242E+04 -1.426566E+03
        79  10  9.171029E+04  9.629410E+05  5.958571E+04 -2.639286E+02 -3.677803E-10 -9.951481E-08
        79  11  9.210427E+04  9.623933E+05  5.985725E+04  8.119061E+02  1.168636E-09  5.885563E-09
        79  12  9.501068E+04  9.634394E+05  6.554861E+04  1.928131E+03 -1.094407E-08  1.150856E-07
        79  13  3.996628E+02  5.630402E+05  2.578301E+03  8.994790E+00 -4.160930E-10  4.364758E-10
        79  14  1.176685E+03  5.626822E+05  4.567510E+03 -1.031416E+01  8.259906E-09 -1.316147E-09
        79  15  3.586787E+03  5.630388E+05  8.457172E+03  1.076967E+01  1.150214E-08  7.773030E-10
        79  16 -9.091819E+04  1.633009E+05 -5.443145E+04  2.817559E+02 -3.840444E-09  9.845515E-08
        79  17 -8.975794E+04  1.631331E+05 -5.072409E+04 -8.319593E+02 -3.778878E-09 -6.409222E-09
        79  18 -8.784434E+04  1.628000E+05 -4.863661E+04 -1.905279E+03 -1.083458E-08 -1.145509E-07
        79  19  9.171110E+04  9.629412E+05  5.958714E+04 -2.638576E+02 -2.744071E+04 -3.213932E+03
        79  20  9.210515E+04  9.623935E+05  5.985881E+04  8.118108E+02 -2.851362E+04  4.149702E+03
        79  21  9.501153E+04  9.634397E+05  6.555028E+04  1.927877E+03 -2.747538E+04  1.151462E+04
        79  22  4.004729E+02  5.630404E+05  2.579723E+03  8.953022E+00 -2.744526E+04  1.889992E+03
        79  23  1.177563E+03  5.626824E+05  4.569072E+03 -1.041011E+01 -2.851551E+04  4.178882E+03
        79  24  3.587609E+03  5.630390E+05  8.458669E+03  1.062656E+01 -2.747392E+04  6.469037E+03
        79  25 -9.091737E+04  1.633012E+05 -5.442994E+04  2.816014E+02 -2.744981E+04  6.990773E+03
        79  26 -8.975706E+04  1.631333E+05 -5.072253E+04 -8.320559E+02 -2.851739E+04  4.208043E+03
        79  27 -8.784353E+04  1.628002E+05 -4.863519E+04 -1.905311E+03 -2.747242E+04  1.426566E+03
        80   1  9.686006E+04  9.651290E+05  7.025093E+04  1.171669E+03  2.641801E+04 -1.369860E+04
        80   2  1.077167E+05  9.611542E+05  8.950850E+04  1.409786E+04  2.005952E+04 -4.353543E+04
        80   3  1.377591E+05  9.658613E+05  1.329692E+05  2.641604E+04  5.729109E+03 -7.337970E+04
        80   4  4.940416E+03  5.640720E+05  1.134037E+04 -1.351412E+02  2.641582E+04 -7.945205E+03
        80   5  1.414738E+04  5.613862E+05  2.095277E+04  1.804155E+02  2.004347E+04 -1.862271E+04
        80   6  3.922271E+04  5.640626E+05  4.147876E+04 -1.123225E+02  5.698064E+03 -2.930700E+04
        80   7 -8.698667E+04  1.631768E+05 -4.757290E+04 -1.441048E+03  2.641360E+04 -2.195370E+03
        80   8 -7.942935E+04  1.617769E+05 -4.760590E+04 -1.372777E+04  2.002630E+04  6.274492E+03
        80   9 -5.932110E+04  1.624191E+05 -5.001451E+04 -2.662336E+04  5.663247E+03  1.473748E+04
        80  10  9.685926E+04  9.651286E+05  7.024927E+04  1.171961E+03 -7.971628E-09 -4.312311E-08
        80  11  1.077157E+05  9.611520E+05  8.950419E+04  1.409856E+04 -5.062333E-10 -8.343006E-09
        80  12  1.377576E+05  9.658555E+05  1.329590E+05  2.641638E+04 -4.535962E-10  2.880526E-08
        80  13  4.939649E+03  5.640718E+05  1.133894E+04 -1.349722E+02  8.999381E-09  7.587069E-10
        80  14  1.414686E+04  5.613858E+05  2.095136E+04  1.807161E+02  4.724726E-09 -1.463257E-09
        80  15  3.922245E+04  5.640617E+05  4.147708E+04 -1.121881E+02  6.768502E-10  1.074923E-09
        80  16 -8.698742E+04  1.631766E+05 -4.757422E+04 -1.441001E+03 -1.129232E-08  4.215749E-08
        80  17 -7.942979E+04  1.617767E+05 -4.760673E+04 -1.372787E+04 -6.659129E-09  8.057333E-09
        80  18 -5.932120E+04  1.624189E+05 -5.001498E+04 -2.662343E+04  1.754719E-10 -2.850012E-08
        80  19  9.686006E+04  9.651290E+05  7.025093E+04  1.171669E+03 -2.641801E+04  1.369860E+04
        80  20  1.077167E+05  9.611542E+05  8.950850E+04  1.409786E+04 -2.005952E+04  4.353543E+04
        80  21  1.377591E+05  9.658613E+05  1.329692E+05  2.641604E+04 -5.729109E+03  7.337970E+04
        80  22  4.940416E+03  5.640720E+05  1.134037E+04 -1.351412E+02 -2.641582E+04  7.945205E+03
        80  23  1.414738E+04  5.613862E+05  2.095277E+04  1.804155E+02 -2.004347E+04  1.862271E+04
        80  24  3.922271E+04  5.640626E+05  4.147876E+04 -1.123225E+02 -5.698064E+03  2.930700E+04
        80  25 -8.698667E+04  1.631768E+05 -4.757290E+04 -1.441048E+03 -2.641360E+04  2.195370E+03
        80  26 -7.942935E+04  1.617769E+05 -4.760590E+04 -1.372777E+04 -2.002630E+04 -6.274492E+03
        80  27 -5.932110E+04  1.624191E+05 -5.001451E+04 -2.662336E+04 -5.663247E+03 -1.473748E+04
        81   1 -2.578038E+05  4.322714E+05  5.820256E+05  5.479631E+03  4.318040E+05  1.720400E+03
        81   2 -3.666361E+05 -1.705271E+05  2.155939E+05  2.293048E+03  2.844312E+05  6.683704E+02
        81   3 -2.576434E+05 -6.747219E+04  1.261271E+05 -4.055554E+03  1.370567E+05  7.628078E+01
        81   4 -4.575232E+04  4.852113E+05  6.350180E+05 -2.047397E+03  4.318877E+05  1.715061E+03
        81   5 -1.546583E+05 -1.175203E+05  2.685915E+05  4.085736E+02  2.844818E+05  6.674762E+02
        81   6 -4.579310E+04 -1.451715E+04  1.790873E+05 -2.982974E+02  1.370743E+05  7.713344E+01
        81   7  1.663401E+05  5.381481E+05  6.880070E+05 -9.577033E+03  4.319715E+05  1.709721E+03
        81   8  5.736026E+04 -6.451694E+04  3.215857E+05 -1.476555E+03  2.845325E+05  6.665821E+02
        81   9  1.660979E+05  3.843455E+04  2.320440E+05  3.460259E+03  1.370918E+05  7.798607E+01
        81  10 -2.580040E+05  4.322213E+05  5.816751E+05  5.479033E+03 -2.721055E-09  5.015200E-10
        81  11 -3.667230E+05 -1.705488E+05  2.154418E+05  2.292895E+03 -7.050480E-10 -2.198486E-09
        81  12 -2.576635E+05 -6.747723E+04  1.260918E+05 -4.055563E+03  1.229996E-09  1.128558E-09
        81  13 -4.595252E+04  4.851612E+05  6.346674E+05 -2.047993E+03  1.756258E-11 -1.405152E-09
        81  14 -1.547452E+05 -1.175420E+05  2.684394E+05  4.084207E+02  6.265549E-13 -7.678100E-10
        81  15 -4.581327E+04 -1.452219E+04  1.790519E+05 -2.983059E+02 -1.898696E-09  6.572772E-10
        81  16  1.661399E+05  5.380980E+05  6.876565E+05 -9.577628E+03 -4.875014E-10 -2.869406E-09
        81  17  5.727337E+04 -6.453866E+04  3.214336E+05 -1.476708E+03  4.321013E-09 -6.904707E-09
        81  18  1.660777E+05  3.842951E+04  2.320087E+05  3.460250E+03  1.706592E-09  1.944266E-09
        81  19 -2.578038E+05  4.322714E+05  5.820256E+05  5.479631E+03 -4.318040E+05 -1.720400E+03
        81  20 -3.666361E+05 -1.705271E+05  2.155939E+05  2.293048E+03 -2.844312E+05 -6.683704E+02
        81  21 -2.576434E+05 -6.747219E+04  1.261271E+05 -4.055554E+03 -1.370567E+05 -7.628078E+01
        81  22 -4.575232E+04  4.852113E+05  6.350180E+05 -2.047397E+03 -4.318877E+05 -1.715061E+03
        81  23 -1.546583E+05 -1.175203E+05  2.685915E+05  4.085736E+02 -2.844818E+05 -6.674762E+02
        81  24 -4.579310E+04 -1.451715E+04  1.790873E+05 -2.982974E+02 -1.370743E+05 -7.713344E+01
        81  25  1.663401E+05  5.381481E+05  6.880070E+05 -9.577033E+03 -4.319715E+05 -1.709721E+03
        81  26  5.736026E+04 -6.451694E+04  3.215857E+05 -1.476555E+03 -2.845325E+05 -6.665821E+02
        81  27  1.660979E+05  3.843455E+04  2.320440E+05  3.460259E+03 -1.370918E+05 -7.798607E+01
        82   1 -2.552755E+05  3.304654E+04  1.052116E+05  6.660028E+02  1.070376E+05 -7.282781E+01
        82   2 -2.784404E+05 -6.127134E+04  2.622101E+04  2.256606E+03  7.044900E+04 -7.922267E+01
        82   3 -2.546654E+05 -4.435275E+04  1.748214E+03 -8.464671E+02  3.386091E+04 -6.148482E+01
        82   4 -8.372010E+04  7.595243E+04  1.481044E+05 -9.236919E+02  1.070548E+05 -7.309097E+01
        82   5 -1.071818E+05 -1.843961E+04  6.904110E+04  1.299678E+03  7.045790E+04 -7.930657E+01
        82   6 -8.370845E+04 -1.608482E+03  4.449155E+04 -1.170597E+03  3.386155E+04 -6.145878E+01
        82   7  8.786202E+04  1.188561E+05  1.909951E+05 -2.513805E+03  1.070720E+05 -7.335416E+01
        82   8  6.410351E+04  2.438990E+04  1.118590E+05  3.425208E+02  7.046681E+04 -7.939047E+01
        82   9  8.727496E+04  4.113358E+04  8.723268E+04 -1.494768E+03  3.386219E+04 -6.143273E+01
        82  10 -2.552879E+05  3.304346E+04  1.051900E+05  6.660091E+02  4.786056E-10  1.095040E-09
        82  11 -2.784458E+05 -6.127267E+04  2.621168E+04  2.256610E+03  1.414148E-09 -1.009369E-09
        82  12 -2.546666E+05 -4.435306E+04  1.746059E+03 -8.464654E+02 -1.237649E-10  4.572068E-09
        82  13 -8.373241E+04  7.594935E+04  1.480829E+05 -9.236856E+02 -2.142569E-09  1.523353E-09
        82  14 -1.071871E+05 -1.844095E+04  6.903177E+04  1.299682E+03 -3.282675E-09 -6.063865E-09
        82  15 -8.370968E+04 -1.608789E+03  4.448939E+04 -1.170596E+03 -1.868762E-09  2.521543E-09
        82  16  8.784972E+04  1.188530E+05  1.909735E+05 -2.513799E+03 -1.837567E-09 -1.126071E-09
        82  17  6.409818E+04  2.438856E+04  1.118496E+05  3.425253E+02  1.101488E-09 -2.540609E-09
        82  18  8.727373E+04  4.113328E+04  8.723052E+04 -1.494766E+03 -3.149878E-10  1.140645E-09
        82  19 -2.552755E+05  3.304654E+04  1.052116E+05  6.660028E+02 -1.070376E+05  7.282781E+01
        82  20 -2.784404E+05 -6.127134E+04  2.622101E+04  2.256606E+03 -7.044900E+04  7.922267E+01
        82  21 -2.546654E+05 -4.435275E+04  1.748214E+03 -8.464671E+02 -3.386091E+04  6.148482E+01
        82  22 -8.372010E+04  7.595243E+04  1.481044E+05 -9.236919E+02 -1.070548E+05  7.309097E+01
        82  23 -1.071818E+05 -1.843961E+04  6.904110E+04  1.299678E+03 -7.045790E+04  7.930657E+01
        82  24 -8.370845E+04 -1.608482E+03  4.449155E+04 -1.170597E+03 -3.386155E+04  6.145878E+01
        82  25  8.786202E+04  1.188561E+05  1.909951E+05 -2.513805E+03 -1.070720E+05  7.335416E+01
        82  26  6.410351E+04  2.438990E+04  1.118590E+05  3.425208E+02 -7.046681E+04  7.939047E+01
        82  27  8.727496E+04  4.113358E+04  8.723268E+04 -1.494768E+03 -3.386219E+04  6.143273E+01
        83   1 -1.282143E+05  2.557731E+03  2.616094E+04 -1.215543E+03  2.655283E+04 -9.512219E+01
        83   2 -1.305908E+05 -1.132554E+04  9.171892E+03  2.295203E+03  1.739672E+04 -9.056666E+01
        83   3 -1.273403E+05 -9.225845E+03  2.228542E+03 -1.550251E+03  8.240449E+03 -1.044354E+02
        83   4 -9.288784E+04  1.139554E+04  3.499273E+04 -1.594430E+03  2.655240E+04 -9.512610E+01
        83   5 -9.573790E+04 -2.608204E+03  1.788588E+04  2.034822E+03  1.739539E+04 -9.055647E+01
        83   6 -9.296112E+04 -6.293070E+02  1.082496E+04 -1.692100E+03  8.238229E+03 -1.044140E+02
        83   7 -5.756026E+04  2.023325E+04  4.382442E+04 -1.973337E+03  2.655198E+04 -9.513001E+01
        83   8 -6.088391E+04  6.109040E+03  2.659977E+04  1.774429E+03  1.739406E+04 -9.054628E+01
        83   9 -5.858083E+04  7.967142E+03  1.942128E+04 -1.833955E+03  8.236008E+03 -1.043926E+02
        83  10 -1.282150E+05  2.557541E+03  2.615961E+04 -1.215541E+03  2.372229E-09  5.979475E-10
        83  11 -1.305911E+05 -1.132562E+04  9.171324E+03  2.295204E+03 -1.826175E-09  6.049804E-10
        83  12 -1.273404E+05 -9.225863E+03  2.228414E+03 -1.550250E+03  7.353730E-09 -3.410146E-09
        83  13 -9.288860E+04  1.139535E+04  3.499140E+04 -1.594428E+03 -2.155404E-09  1.119762E-09
        83  14 -9.573823E+04 -2.608285E+03  1.788531E+04  2.034823E+03 -2.128844E-09  3.266960E-09
        83  15 -9.296119E+04 -6.293252E+02  1.082483E+04 -1.692099E+03 -2.407519E-10  8.603616E-09
        83  16 -5.756102E+04  2.023307E+04  4.382310E+04 -1.973335E+03 -1.238735E-09 -1.273629E-10
        83  17 -6.088424E+04  6.108959E+03  2.659920E+04  1.774431E+03 -1.670000E-09 -8.491877E-09
        83  18 -5.858090E+04  7.967124E+03  1.942115E+04 -1.833954E+03 -2.646943E-09 -1.609272E-09
        83  19 -1.282143E+05  2.557731E+03  2.616094E+04 -1.215543E+03 -2.655283E+04  9.512219E+01
        83  20 -1.305908E+05 -1.132554E+04  9.171892E+03  2.295203E+03 -1.739672E+04  9.056666E+01
        83  21 -1.273403E+05 -9.225845E+03  2.228542E+03 -1.550251E+03 -8.240449E+03  1.044354E+02
        83  22 -9.288784E+04  1.139554E+04  3.499273E+04 -1.594430E+03 -2.655240E+04  9.512610E+01
        83  23 -9.573790E+04 -2.608204E+03  1.788588E+04  2.034822E+03 -1.739539E+04  9.055647E+01
        83  24 -9.296112E+04 -6.293070E+02  1.082496E+04 -1.692100E+03 -8.238229E+03  1.044140E+02
        83  25 -5.756026E+04  2.023325E+04  4.382442E+04 -1.973337E+03 -2.655198E+04  9.513001E+01
        83  26 -6.088391E+04  6.109040E+03  2.659977E+04  1.774429E+03 -1.739406E+04  9.054628E+01
        83  27 -5.858083E+04  7.967142E+03  1.942128E+04 -1.833955E+03 -8.236008E+03  1.043926E+02
        84   1  2.812312E+04  3.225138E+04  3.913541E+04 -2.185334E+03  6.396829E+03 -1.574824E+02
        84   2  2.453420E+04  2.986075E+04  3.467653E+04  1.080533E+03  4.042047E+03 -2.290091E+02
        84   3  2.891639E+04  2.979362E+04  3.374796E+04 -1.932756E+03  1.687941E+03 -2.420914E+02
        84   4 -9.246089E+04  2.096393E+03  8.988528E+03 -1.403881E+03  6.393064E+03 -1.574509E+02
        84   5 -9.644794E+04 -3.909095E+02  4.432007E+03  1.725146E+03  4.040084E+03 -2.289975E+02
        84   6 -9.246481E+04 -5.553777E+02  3.404747E+03 -1.425051E+03  1.687781E+03 -2.420934E+02
        84   7 -2.130317E+05 -2.805969E+04 -2.115945E+04 -6.225516E+02  6.389299E+03 -1.574194E+02
        84   8 -2.174168E+05 -3.064367E+04 -2.581362E+04  2.369658E+03  4.038121E+03 -2.289858E+02
        84   9 -2.138327E+05 -3.090549E+04 -2.693958E+04 -9.174263E+02  1.687622E+03 -2.420954E+02
        84  10  2.812308E+04  3.225137E+04  3.913533E+04 -2.185333E+03  1.787766E-09  2.984584E-09
        84  11  2.453418E+04  2.986074E+04  3.467650E+04  1.080533E+03 -3.448797E-09  3.680561E-09
        84  12  2.891638E+04  2.979362E+04  3.374796E+04 -1.932756E+03 -8.376817E-10 -2.318882E-09
        84  13 -9.246093E+04  2.096382E+03  8.988452E+03 -1.403881E+03  2.134655E-09 -4.265051E-09
        84  14 -9.644795E+04 -3.909140E+02  4.431976E+03  1.725147E+03  1.804159E-11  1.999922E-09
        84  15 -9.246482E+04 -5.553785E+02  3.404741E+03 -1.425051E+03  1.385765E-09 -5.920117E-09
        84  16 -2.130318E+05 -2.805970E+04 -2.115953E+04 -6.225508E+02  5.984568E-10  4.062706E-09
        84  17 -2.174168E+05 -3.064368E+04 -2.581365E+04  2.369659E+03  5.891400E-09 -3.814257E-09
        84  18 -2.138327E+05 -3.090549E+04 -2.693959E+04 -9.174260E+02  3.371702E-09 -7.627162E-09
        84  19  2.812312E+04  3.225138E+04  3.913541E+04 -2.185334E+03 -6.396829E+03  1.574824E+02
        84  20  2.453420E+04  2.986075E+04  3.467653E+04  1.080533E+03 -4.042047E+03  2.290091E+02
        84  21  2.891639E+04  2.979362E+04  3.374796E+04 -1.932756E+03 -1.687941E+03  2.420914E+02
        84  22 -9.246089E+04  2.096393E+03  8.988528E+03 -1.403881E+03 -6.393064E+03  1.574509E+02
        84  23 -9.644794E+04 -3.909095E+02  4.432007E+03  1.725146E+03 -4.040084E+03  2.289975E+02
        84  24 -9.246481E+04 -5.553777E+02  3.404747E+03 -1.425051E+03 -1.687781E+03  2.420934E+02
        84  25 -2.130317E+05 -2.805969E+04 -2.115945E+04 -6.225516E+02 -6.389299E+03  1.574194E+02
        84  26 -2.174168E+05 -3.064367E+04 -2.581362E+04  2.369658E+03 -4.038121E+03  2.289858E+02
        84  27 -2.138327E+05 -3.090549E+04 -2.693958E+04 -9.174263E+02 -1.687622E+03  2.420954E+02
        85   1  1.218759E+05  5.372084E+04  5.669808E+04 -1.138648E+03  8.460136E+02 -2.771134E+02
        85   2  1.106635E+05  5.238055E+04  5.396914E+04  1.779466E+02 -1.478740E+02 -3.488296E+02
        85   3  1.221565E+05  5.367799E+04  5.692967E+04 -2.407022E+02 -1.141484E+03 -3.106340E+02
        85   4 -8.918951E+04  9.526274E+02  3.936745E+03 -4.044716E+02  8.426696E+02 -2.771043E+02
        85   5 -1.005147E+05 -4.127024E+02  1.180790E+03  4.608205E+02 -1.482845E+02 -3.488363E+02
        85   6 -8.913901E+04  8.564143E+02  4.112200E+03 -4.091815E+02 -1.138961E+03 -3.106383E+02
        85   7 -3.002146E+05 -5.181895E+04 -4.882795E+04  3.295006E+02  8.393268E+02 -2.770952E+02
        85   8 -3.116526E+05 -5.320932E+04 -5.161093E+04  7.436162E+02 -1.486949E+02 -3.488429E+02
        85   9 -3.003941E+05 -5.196854E+04 -4.870864E+04 -5.776123E+02 -1.136439E+03 -3.106427E+02
        85  10  1.218759E+05  5.372084E+04  5.669808E+04 -1.138648E+03 -2.294742E-09  1.001172E-09
        85  11  1.106635E+05  5.238055E+04  5.396914E+04  1.779466E+02 -3.899778E-09  4.336910E-09
        85  12  1.221565E+05  5.367799E+04  5.692966E+04 -2.407025E+02  2.291060E-09  9.792506E-10
        85  13 -8.918951E+04  9.526271E+02  3.936744E+03 -4.044714E+02 -1.507327E-11 -2.207068E-09
        85  14 -1.005147E+05 -4.127025E+02  1.180790E+03  4.608205E+02  2.129776E-09  2.140184E-09
        85  15 -8.913902E+04  8.564139E+02  4.112197E+03 -4.091818E+02 -7.707780E-10  8.518749E-10
        85  16 -3.002146E+05 -5.181895E+04 -4.882795E+04  3.295007E+02  2.627964E-10 -1.693090E-09
        85  17 -3.116526E+05 -5.320932E+04 -5.161093E+04  7.436162E+02  2.683673E-09  2.385893E-09
        85  18 -3.003941E+05 -5.196854E+04 -4.870864E+04 -5.776126E+02  8.079064E-10  2.537193E-09
        85  19  1.218759E+05  5.372084E+04  5.669808E+04 -1.138648E+03 -8.460136E+02  2.771134E+02
        85  20  1.106635E+05  5.238055E+04  5.396914E+04  1.779466E+02  1.478740E+02  3.488296E+02
        85  21  1.221565E+05  5.367799E+04  5.692967E+04 -2.407022E+02  1.141484E+03  3.106340E+02
        85  22 -8.918951E+04  9.526274E+02  3.936745E+03 -4.044716E+02 -8.426696E+02  2.771043E+02
        85  23 -1.005147E+05 -4.127024E+02  1.180790E+03  4.608205E+02  1.482845E+02  3.488363E+02
        85  24 -8.913901E+04  8.564143E+02  4.112200E+03 -4.091815E+02  1.138961E+03  3.106383E+02
        85  25 -3.002146E+05 -5.181895E+04 -4.882795E+04  3.295006E+02 -8.393268E+02  2.770952E+02
        85  26 -3.116526E+05 -5.320932E+04 -5.161093E+04  7.436162E+02  1.486949E+02  3.488429E+02
        85  27 -3.003941E+05 -5.196854E+04 -4.870864E+04 -5.776123E+02  1.136439E+03  3.106427E+02
        86   1  9.813521E+04  4.691500E+04  5.132915E+04  1.152437E+03 -2.140603E+03 -3.032971E+02
        86   2  8.834285E+04  4.604575E+04  5.133514E+04 -4.357447E+02 -4.699312E+03 -3.318328E+02
        86   3  9.764336E+04  5.102137E+04  5.792784E+04  1.774457E+03 -7.258654E+03 -2.743060E+02
        86   4 -8.992707E+04 -9.989818E+01  4.318801E+03  8.311163E+02 -2.141732E+03 -3.033054E+02
        86   5 -9.947519E+04 -9.113652E+02  4.384965E+03 -1.082588E+03 -4.697698E+03 -3.318312E+02
        86   6 -8.993334E+04  4.120216E+03  1.103633E+04  8.021587E+02 -7.254298E+03 -2.742797E+02
        86   7 -2.779573E+05 -4.711747E+04 -4.269422E+04  5.098740E+02 -2.142860E+03 -3.033137E+02
        86   8 -2.872613E+05 -4.787114E+04 -4.256787E+04 -1.729272E+03 -4.696084E+03 -3.318295E+02
        86   9 -2.774782E+05 -4.278359E+04 -3.585785E+04 -1.699021E+02 -7.249944E+03 -2.742534E+02
        86  10  9.813521E+04  4.691500E+04  5.132915E+04  1.152437E+03  2.402309E-09  6.730844E-10
        86  11  8.834283E+04  4.604575E+04  5.133510E+04 -4.357459E+02  4.306506E-09 -2.301853E-09
        86  12  9.764330E+04  5.102135E+04  5.792774E+04  1.774455E+03 -3.573337E-10 -1.310335E-09
        86  13 -8.992708E+04 -9.989951E+01  4.318793E+03  8.311157E+02 -2.126554E-09 -1.959836E-09
        86  14 -9.947521E+04 -9.113712E+02  4.384923E+03 -1.082589E+03  4.290711E-09 -4.147757E-11
        86  15 -8.993340E+04  4.120202E+03  1.103623E+04  8.021571E+02  2.903257E-09  2.925593E-09
        86  16 -2.779573E+05 -4.711747E+04 -4.269423E+04  5.098735E+02 -3.506308E-09 -1.959619E-09
        86  17 -2.872613E+05 -4.787115E+04 -4.256792E+04 -1.729273E+03 -2.587559E-09 -8.557748E-09
        86  18 -2.774782E+05 -4.278361E+04 -3.585795E+04 -1.699037E+02  1.343075E-10 -8.752606E-10
        86  19  9.813521E+04  4.691500E+04  5.132915E+04  1.152437E+03  2.140603E+03  3.032971E+02
        86  20  8.834285E+04  4.604575E+04  5.133514E+04 -4.357447E+02  4.699312E+03  3.318328E+02
        86  21  9.764336E+04  5.102137E+04  5.792784E+04  1.774457E+03  7.258654E+03  2.743060E+02
        86  22 -8.992707E+04 -9.989818E+01  4.318801E+03  8.311163E+02  2.141732E+03  3.033054E+02
        86  23 -9.947519E+04 -9.113652E+02  4.384965E+03 -1.082588E+03  4.697698E+03  3.318312E+02
        86  24 -8.993334E+04  4.120216E+03  1.103633E+04  8.021587E+02  7.254298E+03  2.742797E+02
        86  25 -2.779573E+05 -4.711747E+04 -4.269422E+04  5.098740E+02  2.142860E+03  3.033137E+02
        86  26 -2.872613E+05 -4.787114E+04 -4.256787E+04 -1.729272E+03  4.696084E+03  3.318295E+02
        86  27 -2.774782E+05 -4.278359E+04 -3.585785E+04 -1.699021E+02  7.249944E+03  2.742534E+02
        87   1 -2.809217E+04  1.468914E+04  2.835692E+04  2.150198E+03 -9.503563E+03 -2.377622E+02
        87   2 -3.394914E+04  1.078671E+04  3.560392E+04 -1.662709E+03 -1.992626E+04 -2.742651E+02
        87   3 -2.904628E+04  3.724904E+04  5.759079E+04  1.500712E+03 -3.034884E+04 -3.237361E+02
        87   4 -9.178451E+04 -1.241580E+03  1.243401E+04  1.602247E+03 -9.501620E+03 -2.377451E+02
        87   5 -9.718570E+04 -5.025956E+03  1.979481E+04 -1.994278E+03 -1.992370E+04 -2.742460E+02
        87   6 -9.182644E+04  2.155588E+04  4.189606E+04  1.385562E+03 -3.034567E+04 -3.237224E+02
        87   7 -1.554732E+05 -1.717261E+04 -3.489197E+03  1.054345E+03 -9.499678E+03 -2.377281E+02
        87   8 -1.604186E+05 -2.083893E+04  3.985410E+03 -2.325820E+03 -1.992114E+04 -2.742269E+02
        87   9 -1.546030E+05  5.862421E+03  2.620103E+04  1.270416E+03 -3.034250E+04 -3.237087E+02
        87  10 -2.809227E+04  1.468912E+04  2.835675E+04  2.150196E+03 -2.717391E-09 -4.069857E-09
        87  11 -3.394956E+04  1.078661E+04  3.560317E+04 -1.662713E+03  7.030641E-10  1.112907E-08
        87  12 -2.904727E+04  3.724880E+04  5.758906E+04  1.500704E+03 -5.373024E-09  2.559927E-09
        87  13 -9.178461E+04 -1.241604E+03  1.243384E+04  1.602245E+03 -2.139413E-09 -3.419955E-09
        87  14 -9.718613E+04 -5.026062E+03  1.979407E+04 -1.994282E+03 -3.153110E-09 -9.457683E-09
        87  15 -9.182743E+04  2.155563E+04  4.189433E+04  1.385555E+03  8.448354E-10 -4.609577E-11
        87  16 -1.554733E+05 -1.717263E+04 -3.489367E+03  1.054343E+03  1.128189E-09 -1.766918E-09
        87  17 -1.604191E+05 -2.083903E+04  3.984663E+03 -2.325825E+03  4.887599E-09 -2.998698E-09
        87  18 -1.546040E+05  5.862173E+03  2.619930E+04  1.270408E+03  6.086121E-09  1.879905E-09
        87  19 -2.809217E+04  1.468914E+04  2.835692E+04  2.150198E+03  9.503563E+03  2.377622E+02
        87  20 -3.394914E+04  1.078671E+04  3.560392E+04 -1.662709E+03  1.992626E+04  2.742651E+02
        87  21 -2.904628E+04  3.724904E+04  5.759079E+04  1.500712E+03  3.034884E+04  3.237361E+02
        87  22 -9.178451E+04 -1.241580E+03  1.243401E+04  1.602247E+03  9.501620E+03  2.377451E+02
        87  23 -9.718570E+04 -5.025956E+03  1.979481E+04 -1.994278E+03  1.992370E+04  2.742460E+02
        87  24 -9.182644E+04  2.155588E+04  4.189606E+04  1.385562E+03  3.034567E+04  3.237224E+02
        87  25 -1.554732E+05 -1.717261E+04 -3.489197E+03  1.054345E+03  9.499678E+03  2.377281E+02
        87  26 -1.604186E+05 -2.083893E+04  3.985410E+03 -2.325820E+03  1.992114E+04  2.742269E+02
        87  27 -1.546030E+05  5.862421E+03  2.620103E+04  1.270416E+03  3.034250E+04  3.237087E+02
        88   1 -1.755597E+05 -2.783030E+04  2.702173E+04  2.155385E+03 -3.881495E+04 -3.013817E+02
        88   2 -2.058299E+05 -5.705448E+04  5.246348E+04 -2.997842E+03 -8.062009E+04 -4.785192E+02
        88   3 -1.763938E+05  1.135209E+05  1.559473E+05 -2.131204E+03 -1.224243E+05 -7.883426E+02
        88   4 -8.096602E+04 -4.197632E+03  5.066830E+04  1.684673E+03 -3.881221E+04 -3.012850E+02
        88   5 -1.108099E+05 -3.327744E+04  7.622271E+04 -1.830519E+03 -8.062613E+04 -4.786462E+02
        88   6 -8.095371E+04  1.374279E+05  1.798169E+05  6.742413E+02 -1.224392E+05 -7.889020E+02
        88   7  1.363579E+04  1.943436E+04  7.431420E+04  1.213870E+03 -3.880946E+04 -3.011882E+02
        88   8 -1.578173E+04 -9.501088E+03  9.998126E+04 -6.630347E+02 -8.063218E+04 -4.787731E+02
        88   9  1.449461E+04  1.613343E+05  2.036859E+05  3.480104E+03 -1.224540E+05 -7.894615E+02
        88  10 -1.755613E+05 -2.783071E+04  2.701890E+04  2.155376E+03  9.094943E-10  3.992820E-09
        88  11 -2.058369E+05 -5.705622E+04  5.245126E+04 -2.997873E+03  2.303350E-09 -5.355109E-10
        88  12 -1.764098E+05  1.135169E+05  1.559191E+05 -2.131282E+03 -5.241972E-10 -8.577614E-10
        88  13 -8.096764E+04 -4.198036E+03  5.066547E+04  1.684664E+03 -2.225745E-09  1.133973E-08
        88  14 -1.108169E+05 -3.327919E+04  7.621049E+04 -1.830550E+03  5.274278E-09  1.170126E-08
        88  15 -8.096980E+04  1.374239E+05  1.797888E+05  6.741635E+02  1.049855E-09 -1.729032E-09
        88  16  1.363417E+04  1.943396E+04  7.431137E+04  1.213860E+03  2.419427E-10  5.407798E-09
        88  17 -1.578871E+04 -9.502833E+03  9.996904E+04 -6.630658E+02 -1.656067E-09  7.161969E-10
        88  18  1.447851E+04  1.613303E+05  2.036577E+05  3.480026E+03 -4.167795E-10 -4.938714E-09
        88  19 -1.755597E+05 -2.783030E+04  2.702173E+04  2.155385E+03  3.881495E+04  3.013817E+02
        88  20 -2.058299E+05 -5.705448E+04  5.246348E+04 -2.997842E+03  8.062009E+04  4.785192E+02
        88  21 -1.763938E+05  1.135209E+05  1.559473E+05 -2.131204E+03  1.224243E+05  7.883426E+02
        88  22 -8.096602E+04 -4.197632E+03  5.066830E+04  1.684673E+03  3.881221E+04  3.012850E+02
        88  23 -1.108099E+05 -3.327744E+04  7.622271E+04 -1.830519E+03  8.062613E+04  4.786462E+02
        88  24 -8.095371E+04  1.374279E+05  1.798169E+05  6.742413E+02  1.224392E+05  7.889020E+02
        88  25  1.363579E+04  1.943436E+04  7.431420E+04  1.213870E+03  3.880946E+04  3.011882E+02
        88  26 -1.578173E+04 -9.501088E+03  9.998126E+04 -6.630347E+02  8.063218E+04  4.787731E+02
        88  27  1.449461E+04  1.613343E+05  2.036859E+05  3.480104E+03  1.224540E+05  7.894615E+02
        89   1 -9.608390E+06 -2.822885E+06 -1.685848E+06 -3.402483E+06 -8.378387E+05 -3.011523E+05
        89   2 -9.392603E+06 -1.586780E+06 -9.057176E+05 -3.557281E+06 -5.431339E+05 -1.557134E+05
        89   3 -9.641184E+06 -1.582410E+06 -6.854216E+05 -3.430978E+06 -2.361195E+05 -4.266765E+04
        89   4 -8.367394E+06 -2.094558E+06 -1.292596E+06 -2.805629E+06 -8.197656E+05 -2.947245E+05
        89   5 -8.067496E+06 -1.011991E+06 -5.354575E+05 -3.122884E+06 -5.382313E+05 -1.539425E+05
        89   6 -8.228374E+06 -1.157067E+06 -3.267188E+05 -3.159343E+06 -2.443605E+05 -4.573260E+04
        89   7 -7.124712E+06 -1.365361E+06 -8.994898E+05 -2.207463E+06 -8.016508E+05 -2.882613E+05
        89   8 -6.740648E+06 -4.369365E+05 -1.653636E+05 -2.687579E+06 -5.333158E+05 -1.521651E+05
        89   9 -6.813599E+06 -7.317578E+05  3.183294E+04 -2.887222E+06 -2.526219E+05 -4.880156E+04
        89  10 -9.609179E+06 -2.823177E+06 -1.687364E+06 -3.402689E+06 -2.324183E-09  1.734398E-10
        89  11 -9.392930E+06 -1.586887E+06 -9.063281E+05 -3.557350E+06 -1.918822E-11 -6.088354E-10
        89  12 -9.641245E+06 -1.582427E+06 -6.855317E+05 -3.430986E+06 -6.895235E-10  7.769028E-10
        89  13 -8.368147E+06 -2.094837E+06 -1.294044E+06 -2.805826E+06  1.896634E-09 -5.323233E-10
        89  14 -8.067817E+06 -1.012096E+06 -5.360554E+05 -3.122952E+06  1.378791E-09 -3.323374E-10
        89  15 -8.228439E+06 -1.157086E+06 -3.268367E+05 -3.159353E+06  9.167456E-10  5.696100E-10
        89  16 -7.125432E+06 -1.365626E+06 -9.008710E+05 -2.207650E+06  1.273086E-10  6.976094E-10
        89  17 -6.740963E+06 -4.370393E+05 -1.659489E+05 -2.687645E+06  2.650946E-09  5.343615E-10
        89  18 -6.813668E+06 -7.317778E+05  3.170698E+04 -2.887232E+06 -4.410343E-09  1.392583E-09
        89  19 -9.608390E+06 -2.822885E+06 -1.685848E+06 -3.402483E+06  8.378387E+05  3.011523E+05
        89  20 -9.392603E+06 -1.586780E+06 -9.057176E+05 -3.557281E+06  5.431339E+05  1.557134E+05
        89  21 -9.641184E+06 -1.582410E+06 -6.854216E+05 -3.430978E+06  2.361195E+05  4.266765E+04
        89  22 -8.367394E+06 -2.094558E+06 -1.292596E+06 -2.805629E+06  8.197656E+05  2.947245E+05
        89  23 -8.067496E+06 -1.011991E+06 -5.354575E+05 -3.122884E+06  5.382313E+05  1.539425E+05
        89  24 -8.228374E+06 -1.157067E+06 -3.267188E+05 -3.159343E+06  2.443605E+05  4.573260E+04
        89  25 -7.124712E+06 -1.365361E+06 -8.994898E+05 -2.207463E+06  8.016508E+05  2.882613E+05
        89  26 -6.740648E+06 -4.369365E+05 -1.653636E+05 -2.687579E+06  5.333158E+05  1.521651E+05
        89  27 -6.813599E+06 -7.317578E+05  3.183294E+04 -2.887222E+06  2.526219E+05  4.880156E+04
        90   1 -9.354935E+06 -1.779175E+06 -5.894483E+05 -3.439396E+06 -1.954126E+05 -3.457479E+04
        90   2 -9.256607E+06 -1.560092E+06 -4.182416E+05 -3.389288E+06 -1.277238E+05 -1.055735E+04
        90   3 -9.147021E+06 -1.554125E+06 -3.358909E+05 -3.385242E+06 -5.853756E+04  9.493608E+03
        90   4 -8.177790E+06 -1.305205E+06 -2.665875E+05 -3.090995E+06 -1.953680E+05 -3.457382E+04
        90   5 -8.175473E+06 -1.143770E+06 -1.260156E+05 -3.088532E+06 -1.292292E+05 -1.112913E+04
        90   6 -8.161488E+06 -1.194971E+06 -7.292027E+04 -3.132150E+06 -6.160595E+04  8.342340E+03
        90   7 -6.999282E+06 -8.311003E+05  5.614635E+04 -2.741968E+06 -1.953229E+05 -3.457267E+04
        90   8 -7.093192E+06 -7.273660E+05  1.661057E+05 -2.787291E+06 -1.307373E+05 -1.170197E+04
        90   9 -7.175005E+06 -8.357777E+05  1.899654E+05 -2.878696E+06 -6.467972E+04  7.189234E+03
        90  10 -9.354977E+06 -1.779187E+06 -5.895236E+05 -3.439402E+06 -2.369678E-09  4.001158E-10
        90  11 -9.256625E+06 -1.560097E+06 -4.182730E+05 -3.389289E+06 -5.791821E-10 -1.837288E-09
        90  12 -9.147024E+06 -1.554126E+06 -3.358976E+05 -3.385241E+06 -8.767307E-10 -1.536800E-09
        90  13 -8.177832E+06 -1.305216E+06 -2.666625E+05 -3.091001E+06 -4.656580E-10  1.374269E-10
        90  14 -8.175491E+06 -1.143774E+06 -1.260476E+05 -3.088533E+06 -1.818553E-09 -1.246237E-09
        90  15 -8.161492E+06 -1.194972E+06 -7.292761E+04 -3.132149E+06 -3.002048E-09 -9.840262E-10
        90  16 -6.999323E+06 -8.311120E+05  5.607148E+04 -2.741974E+06 -1.627448E-09 -2.589384E-10
        90  17 -7.093211E+06 -7.273708E+05  1.660729E+05 -2.787292E+06 -6.016013E-10 -1.299893E-09
        90  18 -7.175010E+06 -8.357789E+05  1.899574E+05 -2.878696E+06 -1.941578E-09 -1.121242E-09
        90  19 -9.354935E+06 -1.779175E+06 -5.894483E+05 -3.439396E+06  1.954126E+05  3.457479E+04
        90  20 -9.256607E+06 -1.560092E+06 -4.182416E+05 -3.389288E+06  1.277238E+05  1.055735E+04
        90  21 -9.147021E+06 -1.554125E+06 -3.358909E+05 -3.385242E+06  5.853756E+04 -9.493608E+03
        90  22 -8.177790E+06 -1.305205E+06 -2.665875E+05 -3.090995E+06  1.953680E+05  3.457382E+04
        90  23 -8.175473E+06 -1.143770E+06 -1.260156E+05 -3.088532E+06  1.292292E+05  1.112913E+04
        90  24 -8.161488E+06 -1.194971E+06 -7.292027E+04 -3.132150E+06  6.160595E+04 -8.342340E+03
        90  25 -6.999282E+06 -8.311003E+05  5.614635E+04 -2.741968E+06  1.953229E+05  3.457267E+04
        90  26 -7.093192E+06 -7.273660E+05  1.661057E+05 -2.787291E+06  1.307373E+05  1.170197E+04
        90  27 -7.175005E+06 -8.357777E+05  1.899654E+05 -2.878696E+06  6.467972E+04 -7.189234E+03
        91   1 -8.896170E+06 -1.501840E+06 -2.580381E+05 -3.334808E+06 -4.737270E+04  9.340497E+03
        91   2 -8.787608E+06 -1.376955E+06 -1.887087E+05 -3.237940E+06 -2.990393E+04  9.112134E+03
        91   3 -8.587237E+06 -1.368288E+06 -1.352617E+05 -3.251638E+06 -1.211536E+04  8.010164E+03
        91   4 -8.149833E+06 -1.217347E+06 -5.726888E+04 -3.130022E+06 -4.972392E+04  8.458577E+03
        91   5 -8.194779E+06 -1.152743E+06 -2.928473E+04 -3.077150E+06 -3.260542E+04  8.101678E+03
        91   6 -8.147863E+06 -1.204270E+06 -1.688378E+04 -3.134848E+06 -1.517144E+04  6.869976E+03
        91   7 -7.402952E+06 -9.328195E+05  1.434502E+05 -2.925009E+06 -5.207824E+04  7.575468E+03
        91   8 -7.601607E+06 -9.285102E+05  1.301079E+05 -2.916220E+06 -3.530977E+04  7.090149E+03
        91   9 -7.708299E+06 -1.040241E+06  1.014773E+05 -3.017983E+06 -1.822993E+04  5.728909E+03
        91  10 -8.896172E+06 -1.501841E+06 -2.580425E+05 -3.334808E+06 -2.203211E-09 -1.266711E-09
        91  11 -8.787609E+06 -1.376955E+06 -1.887105E+05 -3.237940E+06  3.205444E-09  1.051848E-10
        91  12 -8.587237E+06 -1.368288E+06 -1.352621E+05 -3.251638E+06  2.071243E-09  1.292895E-09
        91  13 -8.149836E+06 -1.217348E+06 -5.727371E+04 -3.130021E+06 -2.464639E-09 -1.866082E-09
        91  14 -8.194781E+06 -1.152743E+06 -2.928687E+04 -3.077150E+06  6.893162E-09 -4.775013E-10
        91  15 -8.147863E+06 -1.204270E+06 -1.688430E+04 -3.134848E+06  2.714240E-09 -1.018477E-09
        91  16 -7.402955E+06 -9.328203E+05  1.434449E+05 -2.925009E+06  2.113680E-09 -1.630683E-09
        91  17 -7.601608E+06 -9.285106E+05  1.301055E+05 -2.916219E+06  5.593987E-09 -1.419993E-09
        91  18 -7.708300E+06 -1.040241E+06  1.014766E+05 -3.017983E+06  7.798284E-10 -1.878208E-09
        91  19 -8.896170E+06 -1.501840E+06 -2.580381E+05 -3.334808E+06  4.737270E+04 -9.340497E+03
        91  20 -8.787608E+06 -1.376955E+06 -1.887087E+05 -3.237940E+06  2.990393E+04 -9.112134E+03
        91  21 -8.587237E+06 -1.368288E+06 -1.352617E+05 -3.251638E+06  1.211536E+04 -8.010164E+03
        91  22 -8.149833E+06 -1.217347E+06 -5.726888E+04 -3.130022E+06  4.972392E+04 -8.458577E+03
        91  23 -8.194779E+06 -1.152743E+06 -2.928473E+04 -3.077150E+06  3.260542E+04 -8.101678E+03
        91  24 -8.147863E+06 -1.204270E+06 -1.688378E+04 -3.134848E+06  1.517144E+04 -6.869976E+03
        91  25 -7.402952E+06 -9.328195E+05  1.434502E+05 -2.925009E+06  5.207824E+04 -7.575468E+03
        91  26 -7.601607E+06 -9.285102E+05  1.301079E+05 -2.916220E+06  3.530977E+04 -7.090149E+03
        91  27 -7.708299E+06 -1.040241E+06  1.014773E+05 -3.017983E+06  1.822993E+04 -5.728909E+03
        92   1 -8.304544E+06 -1.268510E+06 -5.558045E+04 -3.179602E+06 -8.146851E+03  4.696258E+03
        92   2 -8.187889E+06 -1.147846E+06 -5.129235E+03 -3.070838E+06 -1.446705E+03 -9.078948E+02
        92   3 -7.963567E+06 -1.138573E+06  4.164685E+04 -3.087513E+06  5.258181E+03 -6.520795E+03
        92   4 -8.145020E+06 -1.208261E+06 -1.331613E+04 -3.136253E+06 -1.114822E+04  3.577432E+03
        92   5 -8.198744E+06 -1.151930E+06 -8.043634E+03 -3.073762E+06 -4.451341E+03 -2.028045E+03
        92   6 -8.144826E+06 -1.206989E+06 -6.439811E+03 -3.136720E+06  2.249002E+03 -7.642616E+03
        92   7 -7.985471E+06 -1.148012E+06  2.894600E+04 -3.092894E+06 -1.415044E+04  2.458285E+03
        92   8 -8.209598E+06 -1.156014E+06 -1.095800E+04 -3.076685E+06 -7.455914E+03 -3.148172E+03
        92   9 -8.326053E+06 -1.275403E+06 -5.452917E+04 -3.185913E+06 -7.591939E+02 -8.764068E+03
        92  10 -8.304544E+06 -1.268510E+06 -5.558062E+04 -3.179602E+06  2.279710E-09  1.574742E-09
        92  11 -8.187889E+06 -1.147846E+06 -5.129241E+03 -3.070838E+06  2.627728E-10  4.190976E-09
        92  12 -7.963567E+06 -1.138573E+06  4.164671E+04 -3.087513E+06 -4.379054E-09 -2.552984E-09
        92  13 -8.145020E+06 -1.208261E+06 -1.331639E+04 -3.136253E+06 -2.518812E-09 -1.929789E-09
        92  14 -8.198744E+06 -1.151930E+06 -8.043679E+03 -3.073762E+06  5.573284E-09  2.306381E-09
        92  15 -8.144826E+06 -1.206989E+06 -6.439930E+03 -3.136720E+06  2.301694E-10  2.875283E-09
        92  16 -7.985471E+06 -1.148012E+06  2.894561E+04 -3.092894E+06  2.150834E-09 -2.649201E-09
        92  17 -8.209598E+06 -1.156014E+06 -1.095812E+04 -3.076685E+06  3.004308E-09 -2.197528E-09
        92  18 -8.326053E+06 -1.275403E+06 -5.452931E+04 -3.185913E+06 -5.416798E-10 -2.296960E-09
        92  19 -8.304544E+06 -1.268510E+06 -5.558045E+04 -3.179602E+06  8.146851E+03 -4.696258E+03
        92  20 -8.187889E+06 -1.147846E+06 -5.129235E+03 -3.070838E+06  1.446705E+03  9.078948E+02
        92  21 -7.963567E+06 -1.138573E+06  4.164685E+04 -3.087513E+06 -5.258181E+03  6.520795E+03
        92  22 -8.145020E+06 -1.208261E+06 -1.331613E+04 -3.136253E+06  1.114822E+04 -3.577432E+03
        92  23 -8.198744E+06 -1.151930E+06 -8.043634E+03 -3.073762E+06  4.451341E+03  2.028045E+03
        92  24 -8.144826E+06 -1.206989E+06 -6.439811E+03 -3.136720E+06 -2.249002E+03  7.642616E+03
        92  25 -7.985471E+06 -1.148012E+06  2.894600E+04 -3.092894E+06  1.415044E+04 -2.458285E+03
        92  26 -8.209598E+06 -1.156014E+06 -1.095800E+04 -3.076685E+06  7.455914E+03  3.148172E+03
        92  27 -8.326053E+06 -1.275403E+06 -5.452917E+04 -3.185913E+06  7.591939E+02  8.764068E+03
        93   1 -7.687619E+06 -1.031640E+06  1.175765E+05 -3.010295E+06  7.842317E+03 -1.030129E+04
        93   2 -7.582862E+06 -9.236505E+05  1.565699E+05 -2.911302E+06  1.416650E+04 -1.564193E+04
        93   3 -7.380031E+06 -9.164915E+05  1.922698E+05 -2.925352E+06  2.025623E+04 -2.031960E+04
        93   4 -8.147013E+06 -1.204590E+06 -6.393145E+03 -3.134015E+06  4.847476E+03 -1.141882E+04
        93   5 -8.196153E+06 -1.154990E+06 -8.133551E+03 -3.077177E+06  1.144669E+04 -1.665944E+04
        93   6 -8.147295E+06 -1.206288E+06 -1.338885E+04 -3.133401E+06  1.781024E+04 -2.123706E+04
        93   7 -8.606202E+06 -1.377529E+06 -1.303820E+05 -3.257652E+06  1.855091E+03 -1.253545E+04
        93   8 -8.809077E+06 -1.386308E+06 -1.728706E+05 -3.242902E+06  8.729850E+03 -1.767583E+04
        93   9 -8.913984E+06 -1.496049E+06 -2.190997E+05 -3.341214E+06  1.536760E+04 -2.215326E+04
        93  10 -7.687619E+06 -1.031641E+06  1.175762E+05 -3.010295E+06 -2.036267E-09 -1.601236E-09
        93  11 -7.582862E+06 -9.236508E+05  1.565690E+05 -2.911302E+06 -5.431255E-09 -4.802627E-09
        93  12 -7.380032E+06 -9.164921E+05  1.922683E+05 -2.925352E+06 -2.138959E-09 -4.332861E-10
        93  13 -8.147013E+06 -1.204591E+06 -6.393433E+03 -3.134015E+06 -6.836358E-09 -4.502425E-10
        93  14 -8.196153E+06 -1.154990E+06 -8.134316E+03 -3.077177E+06 -2.488189E-09  3.361865E-09
        93  15 -8.147296E+06 -1.206288E+06 -1.339029E+04 -3.133400E+06  1.970834E-09  6.413627E-10
        93  16 -8.606202E+06 -1.377529E+06 -1.303823E+05 -3.257652E+06 -2.832635E-09 -1.355978E-09
        93  17 -8.809077E+06 -1.386308E+06 -1.728713E+05 -3.242902E+06 -6.723825E-09 -2.594998E-09
        93  18 -8.913984E+06 -1.496049E+06 -2.191011E+05 -3.341213E+06 -1.868648E-10 -1.450956E-09
        93  19 -7.687619E+06 -1.031640E+06  1.175765E+05 -3.010295E+06 -7.842317E+03  1.030129E+04
        93  20 -7.582862E+06 -9.236505E+05  1.565699E+05 -2.911302E+06 -1.416650E+04  1.564193E+04
        93  21 -7.380031E+06 -9.164915E+05  1.922698E+05 -2.925352E+06 -2.025623E+04  2.031960E+04
        93  22 -8.147013E+06 -1.204590E+06 -6.393145E+03 -3.134015E+06 -4.847476E+03  1.141882E+04
        93  23 -8.196153E+06 -1.154990E+06 -8.133551E+03 -3.077177E+06 -1.144669E+04  1.665944E+04
        93  24 -8.147295E+06 -1.206288E+06 -1.338885E+04 -3.133401E+06 -1.781024E+04  2.123706E+04
        93  25 -8.606202E+06 -1.377529E+06 -1.303820E+05 -3.257652E+06 -1.855091E+03  1.253545E+04
        93  26 -8.809077E+06 -1.386308E+06 -1.728706E+05 -3.242902E+06 -8.729850E+03  1.767583E+04
        93  27 -8.913984E+06 -1.496049E+06 -2.190997E+05 -3.341214E+06 -1.536760E+04  2.215326E+04
        94   1 -7.160358E+06 -8.241838E+05  2.502840E+05 -2.859526E+06  2.400923E+04 -2.279271E+04
        94   2 -7.086289E+06 -7.441124E+05  2.663825E+05 -2.786881E+06  4.038328E+04 -2.249411E+04
        94   3 -6.947929E+06 -7.505049E+05  2.676619E+05 -2.790155E+06  5.625008E+04 -2.079709E+04
        94   4 -8.154200E+06 -1.197964E+06 -1.691350E+04 -3.127131E+06  2.153818E+04 -2.372188E+04
        94   5 -8.187290E+06 -1.161284E+06 -2.958184E+04 -3.086706E+06  3.847577E+04 -2.321551E+04
        94   6 -8.156225E+06 -1.211213E+06 -5.754144E+04 -3.122213E+06  5.490293E+04 -2.131065E+04
        94   7 -9.147075E+06 -1.571687E+06 -2.841982E+05 -3.394344E+06  1.907152E+04 -2.464942E+04
        94   8 -9.287107E+06 -1.578382E+06 -3.256541E+05 -3.386044E+06  3.657199E+04 -2.393551E+04
        94   9 -9.363098E+06 -1.671829E+06 -3.828760E+05 -3.453677E+06  5.355862E+04 -2.182314E+04
        94  10 -7.160359E+06 -8.241845E+05  2.502820E+05 -2.859526E+06  3.842283E-09  1.548302E-09
        94  11 -7.086291E+06 -7.441133E+05  2.663784E+05 -2.786881E+06  2.407022E-09  1.835519E-09
        94  12 -6.947932E+06 -7.505062E+05  2.676551E+05 -2.790154E+06 -3.225402E-09 -1.934079E-09
        94  13 -8.154200E+06 -1.197964E+06 -1.691542E+04 -3.127131E+06  3.229646E-09  1.483770E-09
        94  14 -8.187292E+06 -1.161285E+06 -2.958564E+04 -3.086706E+06 -4.329238E-10 -1.489569E-10
        94  15 -8.156229E+06 -1.211214E+06 -5.754800E+04 -3.122212E+06 -1.222635E-09 -3.135213E-10
        94  16 -9.147075E+06 -1.571687E+06 -2.842001E+05 -3.394344E+06 -4.394513E-09 -1.371778E-09
        94  17 -9.287109E+06 -1.578383E+06 -3.256577E+05 -3.386043E+06  2.585590E-09  1.161446E-09
        94  18 -9.363101E+06 -1.671830E+06 -3.828823E+05 -3.453676E+06  2.205499E-09  2.055019E-09
        94  19 -7.160358E+06 -8.241838E+05  2.502840E+05 -2.859526E+06 -2.400923E+04  2.279271E+04
        94  20 -7.086289E+06 -7.441124E+05  2.663825E+05 -2.786881E+06 -4.038328E+04  2.249411E+04
        94  21 -6.947929E+06 -7.505049E+05  2.676619E+05 -2.790155E+06 -5.625008E+04  2.079709E+04
        94  22 -8.154200E+06 -1.197964E+06 -1.691350E+04 -3.127131E+06 -2.153818E+04  2.372188E+04
        94  23 -8.187290E+06 -1.161284E+06 -2.958184E+04 -3.086706E+06 -3.847577E+04  2.321551E+04
        94  24 -8.156225E+06 -1.211213E+06 -5.754144E+04 -3.122213E+06 -5.490293E+04  2.131065E+04
        94  25 -9.147075E+06 -1.571687E+06 -2.841982E+05 -3.394344E+06 -1.907152E+04  2.464942E+04
        94  26 -9.287107E+06 -1.578382E+06 -3.256541E+05 -3.386044E+06 -3.657199E+04  2.393551E+04
        94  27 -9.363098E+06 -1.671829E+06 -3.828760E+05 -3.453677E+06 -5.355862E+04  2.182314E+04
        95   1 -6.819906E+06 -6.866884E+05  2.876814E+05 -2.766262E+06  6.826289E+04 -1.890942E+04
        95   2 -6.784758E+06 -6.244861E+05  2.455736E+05 -2.717566E+06  1.336326E+05  2.950459E+03
        95   3 -6.779743E+06 -7.316166E+05  1.172536E+05 -2.664692E+06  1.974486E+05  2.893208E+04
        95   4 -8.170978E+06 -1.185761E+06 -7.329835E+04 -3.121038E+06  6.626865E+04 -1.966738E+04
        95   5 -8.163969E+06 -1.156000E+06 -1.268215E+05 -3.102360E+06  1.332357E+05  2.790639E+03
        95   6 -8.187550E+06 -1.296106E+06 -2.679881E+05 -3.079483E+06  1.986438E+05  2.936786E+04
        95   7 -9.520268E+06 -1.684746E+06 -4.344386E+05 -3.475116E+06  6.427912E+04 -2.042369E+04
        95   8 -9.541319E+06 -1.687382E+06 -4.993870E+05 -3.486364E+06  1.328394E+05  2.631078E+03
        95   9 -9.593410E+06 -1.860410E+06 -6.534112E+05 -3.493388E+06  1.998356E+05  2.980214E+04
        95  10 -6.819911E+06 -6.866901E+05  2.876720E+05 -2.766261E+06 -5.062074E-09 -2.558022E-09
        95  11 -6.784777E+06 -6.244910E+05  2.455397E+05 -2.717566E+06 -3.049417E-09  2.056173E-09
        95  12 -6.779786E+06 -7.316282E+05  1.171779E+05 -2.664697E+06  2.712701E-09  3.256181E-09
        95  13 -8.170983E+06 -1.185762E+06 -7.330740E+04 -3.121037E+06 -1.368460E-09 -8.681583E-10
        95  14 -8.163988E+06 -1.156005E+06 -1.268553E+05 -3.102360E+06  4.279275E-10 -7.860583E-10
        95  15 -8.187593E+06 -1.296117E+06 -2.680650E+05 -3.079488E+06 -1.212330E-09  3.196811E-09
        95  16 -9.520273E+06 -1.684748E+06 -4.344472E+05 -3.475115E+06  6.322770E-09  1.169262E-09
        95  17 -9.541338E+06 -1.687387E+06 -4.994207E+05 -3.486365E+06 -1.700139E-09 -9.519123E-10
        95  18 -9.593454E+06 -1.860422E+06 -6.534892E+05 -3.493393E+06 -4.966808E-09  7.148087E-10
        95  19 -6.819906E+06 -6.866884E+05  2.876814E+05 -2.766262E+06 -6.826289E+04  1.890942E+04
        95  20 -6.784758E+06 -6.244861E+05  2.455736E+05 -2.717566E+06 -1.336326E+05 -2.950459E+03
        95  21 -6.779743E+06 -7.316166E+05  1.172536E+05 -2.664692E+06 -1.974486E+05 -2.893208E+04
        95  22 -8.170978E+06 -1.185761E+06 -7.329835E+04 -3.121038E+06 -6.626865E+04  1.966738E+04
        95  23 -8.163969E+06 -1.156000E+06 -1.268215E+05 -3.102360E+06 -1.332357E+05 -2.790639E+03
        95  24 -8.187550E+06 -1.296106E+06 -2.679881E+05 -3.079483E+06 -1.986438E+05 -2.936786E+04
        95  25 -9.520268E+06 -1.684746E+06 -4.344386E+05 -3.475116E+06 -6.427912E+04  2.042369E+04
        95  26 -9.541319E+06 -1.687382E+06 -4.993870E+05 -3.486364E+06 -1.328394E+05 -2.631078E+03
        95  27 -9.593410E+06 -1.860410E+06 -6.534112E+05 -3.493388E+06 -1.998356E+05 -2.980214E+04
        96   1 -6.716319E+06 -6.782536E+05  5.926158E+04 -2.842747E+06  2.535135E+05  4.535510E+04
        96   2 -6.695243E+06 -4.339922E+05 -1.591095E+05 -2.691319E+06  5.352093E+05  1.536774E+05
        96   3 -7.185017E+06 -1.368743E+06 -9.181439E+05 -2.200249E+06  8.052143E+05  2.925629E+05
        96   4 -8.239445E+06 -1.146493E+06 -3.285386E+05 -3.147488E+06  2.470285E+05  4.293257E+04
        96   5 -8.053152E+06 -1.024913E+06 -5.383892E+05 -3.138537E+06  5.409748E+05  1.557952E+05
        96   6 -8.381285E+06 -2.086559E+06 -1.299635E+06 -2.789571E+06  8.232917E+05  2.990704E+05
        96   7 -9.760295E+06 -1.614761E+06 -7.165173E+05 -3.451633E+06  2.405605E+05  4.051366E+04
        96   8 -9.409234E+06 -1.615551E+06 -9.178428E+05 -3.584799E+06  5.467250E+05  1.579052E+05
        96   9 -9.575970E+06 -2.803507E+06 -1.681258E+06 -3.377636E+06  8.413290E+05  3.055429E+05
        96  10 -6.716390E+06 -6.782733E+05  5.913542E+04 -2.842756E+06 -4.664017E-09  2.062073E-09
        96  11 -6.695560E+06 -4.340960E+05 -1.596995E+05 -2.691386E+06 -4.275855E-09  5.625820E-09
        96  12 -7.185744E+06 -1.369013E+06 -9.195409E+05 -2.200440E+06 -1.885747E-09  4.848027E-10
        96  13 -8.239511E+06 -1.146512E+06 -3.286585E+05 -3.147497E+06 -1.997850E-10  7.047828E-09
        96  14 -8.053477E+06 -1.025020E+06 -5.389938E+05 -3.138606E+06  1.213993E-08 -4.804413E-09
        96  15 -8.382046E+06 -2.086842E+06 -1.301099E+06 -2.789771E+06 -3.614637E-10  8.805052E-10
        96  16 -9.760358E+06 -1.614779E+06 -7.166311E+05 -3.451641E+06  9.139513E-10  4.755889E-10
        96  17 -9.409566E+06 -1.615661E+06 -9.184621E+05 -3.584870E+06 -3.141244E-09  5.384545E-09
        96  18 -9.576767E+06 -2.803803E+06 -1.682790E+06 -3.377845E+06 -1.055841E-09 -4.713187E-11
        96  19 -6.716319E+06 -6.782536E+05  5.926158E+04 -2.842747E+06 -2.535135E+05 -4.535510E+04
        96  20 -6.695243E+06 -4.339922E+05 -1.591095E+05 -2.691319E+06 -5.352093E+05 -1.536774E+05
        96  21 -7.185017E+06 -1.368743E+06 -9.181439E+05 -2.200249E+06 -8.052143E+05 -2.925629E+05
        96  22 -8.239445E+06 -1.146493E+06 -3.285386E+05 -3.147488E+06 -2.470285E+05 -4.293257E+04
        96  23 -8.053152E+06 -1.024913E+06 -5.383892E+05 -3.138537E+06 -5.409748E+05 -1.557952E+05
        96  24 -8.381285E+06 -2.086559E+06 -1.299635E+06 -2.789571E+06 -8.232917E+05 -2.990704E+05
        96  25 -9.760295E+06 -1.614761E+06 -7.165173E+05 -3.451633E+06 -2.405605E+05 -4.051366E+04
        96  26 -9.409234E+06 -1.615551E+06 -9.178428E+05 -3.584799E+06 -5.467250E+05 -1.579052E+05
        96  27 -9.575970E+06 -2.803507E+06 -1.681258E+06 -3.377636E+06 -8.413290E+05 -3.055429E+05
        97   1 -1.581111E+06 -2.403192E+05 -1.946888E+05 -1.162214E+04  1.159951E+05  1.443920E+04
        97   2 -1.527850E+06 -3.982297E+05 -2.778260E+05 -8.431460E+02  8.250490E+04  4.136062E+04
        97   3 -1.416066E+06 -3.589128E+05 -2.889067E+05 -6.589711E+04  4.919240E+04  3.761324E+04
        97   4 -5.693027E+03  1.525794E+05  1.957632E+05 -4.459174E+04  1.335200E+05  1.453980E+04
        97   5 -3.597353E+04 -2.718780E+04  8.458891E+04 -6.200722E+03  8.744097E+04  4.137849E+04
        97   6 -5.679477E+03 -7.793987E+03  5.408767E+04 -4.362886E+04  4.154510E+04  3.757791E+04
        97   7  1.571986E+06  5.452971E+05  5.860323E+05 -7.764873E+04  1.510890E+05  1.463841E+04
        97   8  1.457938E+06  3.436907E+05  4.468430E+05 -1.157388E+04  9.238868E+04  4.139625E+04
        97   9  1.406527E+06  3.431800E+05  3.969383E+05 -2.131157E+04  3.388036E+04  3.754208E+04
        97  10 -1.581125E+06 -2.403230E+05 -1.947145E+05 -1.162349E+04 -1.034194E-10  1.678751E-09
        97  11 -1.527857E+06 -3.982334E+05 -2.778420E+05 -8.458969E+02 -1.789280E-09 -2.856048E-09
        97  12 -1.416069E+06 -3.589150E+05 -2.889139E+05 -6.589861E+04 -1.090838E-09 -4.492041E-10
        97  13 -5.712225E+03  1.525744E+05  1.957293E+05 -4.459331E+04 -2.156392E-09  3.500769E-10
        97  14 -3.598220E+04 -2.719169E+04  8.457132E+04 -6.203636E+03 -3.553280E-09 -7.613430E-09
        97  15 -5.681709E+03 -7.795967E+03  5.408177E+04 -4.363012E+04  9.633979E-10  2.238928E-10
        97  16  1.571962E+06  5.452908E+05  5.859891E+05 -7.765051E+04  3.768501E-09 -1.081522E-09
        97  17  1.457929E+06  3.436866E+05  4.468238E+05 -1.157695E+04 -3.730163E-11 -1.770524E-09
        97  18  1.406525E+06  3.431782E+05  3.969335E+05 -2.131260E+04 -2.266240E-09 -1.395848E-09
        97  19 -1.581111E+06 -2.403192E+05 -1.946888E+05 -1.162214E+04 -1.159951E+05 -1.443920E+04
        97  20 -1.527850E+06 -3.982297E+05 -2.778260E+05 -8.431460E+02 -8.250490E+04 -4.136062E+04
        97  21 -1.416066E+06 -3.589128E+05 -2.889067E+05 -6.589711E+04 -4.919240E+04 -3.761324E+04
        97  22 -5.693027E+03  1.525794E+05  1.957632E+05 -4.459174E+04 -1.335200E+05 -1.453980E+04
        97  23 -3.597353E+04 -2.718780E+04  8.458891E+04 -6.200722E+03 -8.744097E+04 -4.137849E+04
        97  24 -5.679477E+03 -7.793987E+03  5.408767E+04 -4.362886E+04 -4.154510E+04 -3.757791E+04
        97  25  1.571986E+06  5.452971E+05  5.860323E+05 -7.764873E+04 -1.510890E+05 -1.463841E+04
        97  26  1.457938E+06  3.436907E+05  4.468430E+05 -1.157388E+04 -9.238868E+04 -4.139625E+04
        97  27  1.406527E+06  3.431800E+05  3.969383E+05 -2.131157E+04 -3.388036E+04 -3.754208E+04
        98   1 -1.284102E+06 -2.977443E+05 -2.645392E+05 -4.288637E+04  3.243557E+04  3.120612E+04
        98   2 -1.207077E+06 -2.984511E+05 -2.664393E+05 -7.364829E+03  2.230198E+04  3.091854E+04
        98   3 -1.119926E+06 -2.756357E+05 -2.552490E+05 -4.750454E+04  1.216845E+04  2.775828E+04
        98   4 -1.673188E+04  1.766923E+04  4.428284E+04 -4.392604E+04  3.296354E+04  3.120362E+04
        98   5 -2.187926E+04 -3.570193E+03  2.188011E+04 -6.069129E+03  2.163926E+04  3.091291E+04
        98   6 -1.671156E+04 -1.103512E+03  1.337716E+04 -4.386418E+04  1.031640E+04  2.775189E+04
        98   7  1.252106E+06  3.329644E+05  3.529882E+05 -4.496907E+04  3.349254E+04  3.120113E+04
        98   8  1.164602E+06  2.912072E+05  3.100977E+05 -4.771790E+03  2.097525E+04  3.090728E+04
        98   9  1.087615E+06  2.733390E+05  2.819150E+05 -4.021778E+04  8.461048E+03  2.774549E+04
        98  10 -1.284104E+06 -2.977457E+05 -2.645430E+05 -4.288719E+04  1.213069E-10 -2.120794E-09
        98  11 -1.207078E+06 -2.984522E+05 -2.664420E+05 -7.365385E+03 -5.442350E-09  1.648181E-09
        98  12 -1.119926E+06 -2.756366E+05 -2.552507E+05 -4.750481E+04  3.844629E-09 -7.193754E-10
        98  13 -1.673330E+04  1.766789E+04  4.427897E+04 -4.392687E+04 -2.160070E-09 -7.143851E-10
        98  14 -2.188002E+04 -3.571345E+03  2.187744E+04 -6.069668E+03  2.521188E-09 -5.048327E-10
        98  15 -1.671188E+04 -1.104368E+03  1.337551E+04 -4.386442E+04  6.584077E-11 -1.163690E-09
        98  16  1.252104E+06  3.329630E+05  3.529842E+05 -4.496991E+04 -5.313594E-10  1.475421E-09
        98  17  1.164602E+06  2.912061E+05  3.100951E+05 -4.772311E+03 -2.436826E-10 -3.702387E-09
        98  18  1.087614E+06  2.733382E+05  2.819134E+05 -4.021797E+04 -2.069895E-09 -8.052469E-11
        98  19 -1.284102E+06 -2.977443E+05 -2.645392E+05 -4.288637E+04 -3.243557E+04 -3.120612E+04
        98  20 -1.207077E+06 -2.984511E+05 -2.664393E+05 -7.364829E+03 -2.230198E+04 -3.091854E+04
        98  21 -1.119926E+06 -2.756357E+05 -2.552490E+05 -4.750454E+04 -1.216845E+04 -2.775828E+04
        98  22 -1.673188E+04  1.766923E+04  4.428284E+04 -4.392604E+04 -3.296354E+04 -3.120362E+04
        98  23 -2.187926E+04 -3.570193E+03  2.188011E+04 -6.069129E+03 -2.163926E+04 -3.091291E+04
        98  24 -1.671156E+04 -1.103512E+03  1.337716E+04 -4.386418E+04 -1.031640E+04 -2.775189E+04
        98  25  1.252106E+06  3.329644E+05  3.529882E+05 -4.496907E+04 -3.349254E+04 -3.120113E+04
        98  26  1.164602E+06  2.912072E+05  3.100977E+05 -4.771790E+03 -2.097525E+04 -3.090728E+04
        98  27  1.087615E+06  2.733390E+05  2.819150E+05 -4.021778E+04 -8.461048E+03 -2.774549E+04
        99   1 -9.780460E+05 -2.369176E+05 -2.228140E+05 -4.447942E+04  9.266904E+03  2.552957E+04
        99   2 -8.971326E+05 -2.188621E+05 -2.079805E+05 -6.426206E+03  6.599890E+03  2.270630E+04
        99   3 -8.137165E+05 -1.980329E+05 -1.904127E+05 -4.416594E+04  3.926088E+03  1.961312E+04
        99   4 -1.835653E+04  1.793426E+03  1.047342E+04 -4.391400E+04  8.181250E+03  2.552558E+04
        99   5 -1.960587E+04 -5.649510E+02  5.491687E+03 -6.019640E+03  5.400308E+03  2.270340E+04
        99   6 -1.834092E+04 -1.313067E+02  3.320798E+03 -4.391160E+04  2.612928E+03  1.961150E+04
        99   7  9.421745E+05  2.404367E+05  2.436941E+05 -4.334795E+04  7.093913E+03  2.552160E+04
        99   8  8.586243E+05  2.176755E+05  2.189081E+05 -5.612613E+03  4.199029E+03  2.270050E+04
        99   9  7.776122E+05  1.977237E+05  1.970084E+05 -4.365692E+04  1.298087E+03  1.960987E+04
        99  10 -9.780463E+05 -2.369183E+05 -2.228154E+05 -4.447961E+04  2.621056E-09  4.346051E-10
        99  11 -8.971328E+05 -2.188627E+05 -2.079816E+05 -6.426327E+03  2.573654E-09 -2.575695E-12
        99  12 -8.137166E+05 -1.980333E+05 -1.904135E+05 -4.416600E+04 -3.470931E-09  3.840413E-10
        99  13 -1.835678E+04  1.792708E+03  1.047207E+04 -4.391417E+04  4.713065E-12 -5.428812E-10
        99  14 -1.960604E+04 -5.655123E+02  5.490664E+03 -6.019739E+03 -4.209792E-09 -6.357467E-10
        99  15 -1.834103E+04 -1.317215E+02  3.320062E+03 -4.391165E+04  8.109418E-10  9.261765E-10
        99  16  9.421743E+05  2.404360E+05  2.436928E+05 -4.334810E+04 -5.434406E-09 -4.708401E-10
        99  17  8.586241E+05  2.176750E+05  2.189071E+05 -5.612689E+03 -2.399823E-09 -1.231173E-09
        99  18  7.776121E+05  1.977233E+05  1.970077E+05 -4.365694E+04  1.567600E-09  1.268428E-09
        99  19 -9.780460E+05 -2.369176E+05 -2.228140E+05 -4.447942E+04 -9.266904E+03 -2.552957E+04
        99  20 -8.971326E+05 -2.188621E+05 -2.079805E+05 -6.426206E+03 -6.599890E+03 -2.270630E+04
        99  21 -8.137165E+05 -1.980329E+05 -1.904127E+05 -4.416594E+04 -3.926088E+03 -1.961312E+04
        99  22 -1.835653E+04  1.793426E+03  1.047342E+04 -4.391400E+04 -8.181250E+03 -2.552558E+04
        99  23 -1.960587E+04 -5.649510E+02  5.491687E+03 -6.019640E+03 -5.400308E+03 -2.270340E+04
        99  24 -1.834092E+04 -1.313067E+02  3.320798E+03 -4.391160E+04 -2.612928E+03 -1.961150E+04
        99  25  9.421745E+05  2.404367E+05  2.436941E+05 -4.334795E+04 -7.093913E+03 -2.552160E+04
        99  26  8.586243E+05  2.176755E+05  2.189081E+05 -5.612613E+03 -4.199029E+03 -2.270050E+04
        99  27  7.776122E+05  1.977237E+05  1.970084E+05 -4.365692E+04 -1.298087E+03 -1.960987E+04
       100   1 -6.703213E+05 -1.619027E+05 -1.557472E+05 -4.378249E+04  3.322293E+03  1.777576E+04
       100   2 -5.883638E+05 -1.417133E+05 -1.371760E+05 -5.726094E+03  2.675230E+03  1.471354E+04
       100   3 -5.057844E+05 -1.211094E+05 -1.179913E+05 -4.352473E+04  2.023673E+03  1.162633E+04
       100   4 -1.870028E+04  1.257162E+02  2.503462E+03 -4.392653E+04  2.080347E+03  1.777494E+04
       100   5 -1.900399E+04 -1.028533E+02  1.307150E+03 -6.001151E+03  1.422391E+03  1.471354E+04
       100   6 -1.869010E+04  8.530501E+01  7.317976E+02 -4.392649E+04  7.600272E+02  1.162720E+04
       100   7  6.333087E+05  1.621230E+05  1.607234E+05 -4.407069E+04  8.370990E+02  1.777411E+04
       100   8  5.506518E+05  1.414837E+05  1.397668E+05 -6.276408E+03  1.684055E+02  1.471355E+04
       100   9  4.686207E+05  1.212625E+05  1.194377E+05 -4.432850E+04 -5.046084E+02  1.162807E+04
       100  10 -6.703214E+05 -1.619031E+05 -1.557478E+05 -4.378253E+04 -9.782237E-10  6.441128E-10
       100  11 -5.883639E+05 -1.417135E+05 -1.371764E+05 -5.726126E+03 -3.993533E-09  3.835876E-10
       100  12 -5.057844E+05 -1.211095E+05 -1.179916E+05 -4.352475E+04 -7.862564E-10  3.417596E-11
       100  13 -1.870037E+04  1.253758E+02  2.502860E+03 -4.392656E+04  5.771661E-12  1.209254E-09
       100  14 -1.900405E+04 -1.030863E+02  1.306740E+03 -6.001168E+03  2.063260E-09 -1.584391E-09
       100  15 -1.869014E+04  8.515968E+01  7.315425E+02 -4.392650E+04 -2.195297E-09 -1.649940E-09
       100  16  6.333086E+05  1.621226E+05  1.607228E+05 -4.407070E+04 -2.117931E-09  2.373092E-10
       100  17  5.506518E+05  1.414835E+05  1.397664E+05 -6.276410E+03  2.298910E-09 -2.169323E-09
       100  18  4.686207E+05  1.212624E+05  1.194374E+05 -4.432850E+04  2.065674E-09 -2.463660E-09
       100  19 -6.703213E+05 -1.619027E+05 -1.557472E+05 -4.378249E+04 -3.322293E+03 -1.777576E+04
       100  20 -5.883638E+05 -1.417133E+05 -1.371760E+05 -5.726094E+03 -2.675230E+03 -1.471354E+04
       100  21 -5.057844E+05 -1.211094E+05 -1.179913E+05 -4.352473E+04 -2.023673E+03 -1.162633E+04
       100  22 -1.870028E+04  1.257162E+02  2.503462E+03 -4.392653E+04 -2.080347E+03 -1.777494E+04
       100  23 -1.900399E+04 -1.028533E+02  1.307150E+03 -6.001151E+03 -1.422391E+03 -1.471354E+04
       100  24 -1.869010E+04  8.530501E+01  7.317976E+02 -4.392649E+04 -7.600272E+02 -1.162720E+04
       100  25  6.333087E+05  1.621230E+05  1.607234E+05 -4.407069E+04 -8.370990E+02 -1.777411E+04
       100  26  5.506518E+05  1.414837E+05  1.397668E+05 -6.276408E+03 -1.684055E+02 -1.471355E+04
       100  27  4.686207E+05  1.212625E+05  1.194377E+05 -4.432850E+04  5.046084E+02 -1.162807E+04
       101   1 -3.620161E+05 -8.522050E+04 -8.273950E+04 -4.361754E+04  1.905968E+03  9.823136E+03
       101   2 -2.796247E+05 -6.485767E+04 -6.335067E+04 -5.711364E+03  1.855393E+03  6.736730E+03
       101   3 -1.973448E+05 -4.434049E+04 -4.392567E+04 -4.369526E+04  1.802811E+03  3.659968E+03
       101   4 -1.881770E+04  7.716584E+01  4.697943E+02 -4.393480E+04  6.454453E+02  9.824468E+03
       101   5 -1.875683E+04  1.340822E+01  8.785673E+01 -5.990755E+03  5.986949E+02  6.738433E+03
       101   6 -1.881303E+04  1.041335E+02 -2.598756E+02 -4.393479E+04  5.499429E+02  3.662061E+03
       101   7  3.244883E+05  8.536618E+04  8.367060E+04 -4.425221E+04 -6.157721E+02  9.825802E+03
       101   8  2.421732E+05  6.487948E+04  6.352146E+04 -6.270240E+03 -6.585302E+02  6.740136E+03
       101   9  1.597478E+05  4.454640E+04  4.340360E+04 -4.417437E+04 -7.032846E+02  3.664155E+03
       101  10 -3.620161E+05 -8.522060E+04 -8.273969E+04 -4.361755E+04 -1.463925E-09 -6.618978E-10
       101  11 -2.796248E+05 -6.485772E+04 -6.335076E+04 -5.711374E+03 -2.104754E-09  1.284737E-10
       101  12 -1.973448E+05 -4.434051E+04 -4.392570E+04 -4.369526E+04  5.949752E-10  4.194820E-10
       101  13 -1.881772E+04  7.706208E+01  4.696121E+02 -4.393481E+04  4.317491E-09  1.219299E-09
       101  14 -1.875684E+04  1.335937E+01  8.777073E+01 -5.990758E+03 -3.415964E-09  2.041575E-09
       101  15 -1.881303E+04  1.041190E+02 -2.599014E+02 -4.393479E+04  1.012434E-09 -1.039649E-09
       101  16  3.244883E+05  8.536608E+04  8.367042E+04 -4.425221E+04  4.644143E-10 -1.198692E-10
       101  17  2.421732E+05  6.487943E+04  6.352137E+04 -6.270236E+03  8.400102E-10  1.775606E-09
       101  18  1.597478E+05  4.454639E+04  4.340357E+04 -4.417437E+04  1.308307E-09  1.262625E-09
       101  19 -3.620161E+05 -8.522050E+04 -8.273950E+04 -4.361754E+04 -1.905968E+03 -9.823136E+03
       101  20 -2.796247E+05 -6.485767E+04 -6.335067E+04 -5.711364E+03 -1.855393E+03 -6.736730E+03
       101  21 -1.973448E+05 -4.434049E+04 -4.392567E+04 -4.369526E+04 -1.802811E+03 -3.659968E+03
       101  22 -1.881770E+04  7.716584E+01  4.697943E+02 -4.393480E+04 -6.454453E+02 -9.824468E+03
       101  23 -1.875683E+04  1.340822E+01  8.785673E+01 -5.990755E+03 -5.986949E+02 -6.738433E+03
       101  24 -1.881303E+04  1.041335E+02 -2.598756E+02 -4.393479E+04 -5.499429E+02 -3.662061E+03
       101  25  3.244883E+05  8.536618E+04  8.367060E+04 -4.425221E+04  6.157721E+02 -9.825802E+03
       101  26  2.421732E+05  6.487948E+04  6.352146E+04 -6.270240E+03  6.585302E+02 -6.740136E+03
       101  27  1.597478E+05  4.454640E+04  4.340360E+04 -4.417437E+04  7.032846E+02 -3.664155E+03
       102   1 -5.342299E+04 -8.379436E+03 -8.603704E+03 -4.395652E+04  1.897856E+03  1.841660E+03
       102   2  2.916446E+04  1.198772E+04  1.067016E+04 -6.035940E+03  2.320286E+03 -1.249573E+03
       102   3  1.113122E+05  3.203865E+04  2.952287E+04 -4.401443E+04  2.743363E+03 -4.206366E+03
       102   4 -1.887936E+04  1.586288E+02 -4.575584E+02 -4.393705E+04  6.095320E+02  1.843935E+03
       102   5 -1.865141E+04  9.994301E+01 -9.528743E+02 -5.987708E+03  1.086683E+03 -1.247476E+03
       102   6 -1.888022E+04 -2.843359E+02 -1.907311E+03 -4.393780E+04  1.564427E+03 -4.204420E+03
       102   7  1.566537E+04  8.696609E+03  7.688511E+03 -4.391758E+04 -6.788633E+02  1.846209E+03
       102   8 -6.646520E+04 -1.178800E+04 -1.257607E+04 -5.939479E+03 -1.468244E+02 -1.245379E+03
       102   9 -1.490571E+05 -3.260856E+04 -3.333870E+04 -4.386118E+04  3.857376E+02 -4.202474E+03
       102  10 -5.342299E+04 -8.379441E+03 -8.603718E+03 -4.395652E+04  3.657728E-10  1.984291E-09
       102  11  2.916446E+04  1.198771E+04  1.067014E+04 -6.035938E+03 -6.642358E-09 -9.001930E-10
       102  12  1.113122E+05  3.203863E+04  2.952282E+04 -4.401442E+04 -4.506528E-09  6.376065E-10
       102  13 -1.887936E+04  1.586250E+02 -4.575655E+02 -4.393705E+04  2.146852E-09 -7.479531E-10
       102  14 -1.865141E+04  9.994102E+01 -9.528795E+02 -5.987707E+03  8.425031E-10 -3.369690E-09
       102  15 -1.888023E+04 -2.843555E+02 -1.907349E+03 -4.393779E+04  2.373615E-09  1.177262E-09
       102  16  1.566537E+04  8.696606E+03  7.688504E+03 -4.391758E+04  4.216087E-11  1.799765E-09
       102  17 -6.646520E+04 -1.178800E+04 -1.257607E+04 -5.939479E+03  2.623109E-09 -3.956048E-09
       102  18 -1.490572E+05 -3.260858E+04 -3.333873E+04 -4.386118E+04 -2.508283E-10  1.008932E-10
       102  19 -5.342299E+04 -8.379436E+03 -8.603704E+03 -4.395652E+04 -1.897856E+03 -1.841660E+03
       102  20  2.916446E+04  1.198772E+04  1.067016E+04 -6.035940E+03 -2.320286E+03  1.249573E+03
       102  21  1.113122E+05  3.203865E+04  2.952287E+04 -4.401443E+04 -2.743363E+03  4.206366E+03
       102  22 -1.887936E+04  1.586288E+02 -4.575584E+02 -4.393705E+04 -6.095320E+02 -1.843935E+03
       102  23 -1.865141E+04  9.994301E+01 -9.528743E+02 -5.987708E+03 -1.086683E+03  1.247476E+03
       102  24 -1.888022E+04 -2.843359E+02 -1.907311E+03 -4.393780E+04 -1.564427E+03  4.204420E+03
       102  25  1.566537E+04  8.696609E+03  7.688511E+03 -4.391758E+04  6.788633E+02 -1.846209E+03
       102  26 -6.646520E+04 -1.178800E+04 -1.257607E+04 -5.939479E+03  1.468244E+02  1.245379E+03
       102  27 -1.490571E+05 -3.260856E+04 -3.333870E+04 -4.386118E+04 -3.857376E+02  4.202474E+03
       103   1  2.551121E+05  6.851900E+04  6.446245E+04 -4.469006E+04  3.506953E+03 -6.216603E+03
       103   2  3.381272E+05  8.921934E+04  8.252291E+04 -6.137485E+03  5.041620E+03 -9.326472E+03
       103   3  4.198749E+05  1.057263E+05  9.852804E+04 -4.343679E+04  6.580675E+03 -1.100007E+04
       103   4 -1.910192E+04  3.029677E+02 -2.431917E+03 -4.392592E+04  1.944832E+03 -6.214259E+03
       103   5 -1.841699E+04  5.959267E+02 -4.120337E+03 -6.000686E+03  4.064595E+03 -9.325533E+03
       103   6 -1.910834E+04 -3.407100E+03 -8.271056E+03 -4.393014E+04  6.188542E+03 -1.100016E+04
       103   7 -2.932474E+05 -6.791861E+04 -6.933175E+04 -4.316209E+04  3.834001E+02 -6.211918E+03
       103   8 -3.748452E+05 -8.803683E+04 -9.077278E+04 -5.863928E+03  3.088128E+03 -9.324595E+03
       103   9 -4.579158E+05 -1.125547E+05 -1.150841E+05 -4.442308E+04  5.796685E+03 -1.100024E+04
       103  10  2.551121E+05  6.851895E+04  6.446235E+04 -4.469004E+04 -3.892697E-09 -1.177232E-09
       103  11  3.381272E+05  8.921924E+04  8.252270E+04 -6.137447E+03 -5.749513E-09  5.615201E-10
       103  12  4.198749E+05  1.057262E+05  9.852773E+04 -4.343674E+04 -2.042555E-09 -3.219448E-10
       103  13 -1.910193E+04  3.029252E+02 -2.431996E+03 -4.392591E+04  2.547191E-12  1.447416E-09
       103  14 -1.841703E+04  5.958288E+02 -4.120531E+03 -6.000655E+03  9.055032E-10  2.582147E-10
       103  15 -1.910842E+04 -3.407241E+03 -8.271356E+03 -4.393008E+04 -3.007364E-10 -2.817260E-11
       103  16 -2.932474E+05 -6.791865E+04 -6.933182E+04 -4.316208E+04  1.660545E-09  2.355451E-09
       103  17 -3.748452E+05 -8.803693E+04 -9.077296E+04 -5.863904E+03 -9.956816E-10  1.286823E-09
       103  18 -4.579159E+05 -1.125548E+05 -1.150844E+05 -4.442303E+04 -5.531674E-10 -6.225673E-10
       103  19  2.551121E+05  6.851900E+04  6.446245E+04 -4.469006E+04 -3.506953E+03  6.216603E+03
       103  20  3.381272E+05  8.921934E+04  8.252291E+04 -6.137485E+03 -5.041620E+03  9.326472E+03
       103  21  4.198749E+05  1.057263E+05  9.852804E+04 -4.343679E+04 -6.580675E+03  1.100007E+04
       103  22 -1.910192E+04  3.029677E+02 -2.431917E+03 -4.392592E+04 -1.944832E+03  6.214259E+03
       103  23 -1.841699E+04  5.959267E+02 -4.120337E+03 -6.000686E+03 -4.064595E+03  9.325533E+03
       103  24 -1.910834E+04 -3.407100E+03 -8.271056E+03 -4.393014E+04 -6.188542E+03  1.100016E+04
       103  25 -2.932474E+05 -6.791861E+04 -6.933175E+04 -4.316209E+04 -3.834001E+02  6.211918E+03
       103  26 -3.748452E+05 -8.803683E+04 -9.077278E+04 -5.863928E+03 -3.088128E+03  9.324595E+03
       103  27 -4.579158E+05 -1.125547E+05 -1.150841E+05 -4.442308E+04 -5.796685E+03  1.100024E+04
       104   1  5.620270E+05  1.463277E+05  1.316576E+05 -4.760288E+04  1.225067E+04 -1.505600E+04
       104   2  6.488048E+05  1.700584E+05  1.453407E+05 -4.157532E+03  1.464946E+04 -1.835650E+04
       104   3  7.270033E+05  1.578838E+05  1.486305E+05 -3.620446E+04  1.705065E+04 -6.359464E+03
       104   4 -2.099711E+04  1.411412E+03 -1.005632E+04 -4.384676E+04  7.775282E+03 -1.505299E+04
       104   5 -1.616369E+04  4.857026E+03 -1.596372E+04 -6.097687E+03  1.641312E+04 -1.835843E+04
       104   6 -2.100910E+04 -2.870608E+04 -3.660561E+04 -4.384650E+04  2.505285E+04 -6.359173E+03
       104   7 -6.037111E+05 -1.435299E+05 -1.517947E+05 -4.009410E+04  3.304082E+03 -1.505003E+04
       104   8 -6.807286E+05 -1.603768E+05 -1.773001E+05 -8.035724E+03  1.817489E+04 -1.836037E+04
       104   9 -7.685134E+05 -2.153376E+05 -2.218831E+05 -5.147933E+04  3.304543E+04 -6.359080E+03
       104  10  5.620268E+05  1.463275E+05  1.316568E+05 -4.760273E+04 -2.265895E-09 -4.344974E-10
       104  11  6.488044E+05  1.700580E+05  1.453397E+05 -4.157316E+03 -3.483792E-09  4.608732E-10
       104  12  7.270030E+05  1.578837E+05  1.486299E+05 -3.620438E+04  1.145561E-09  3.619585E-10
       104  13 -2.099723E+04  1.411153E+03 -1.005686E+04 -4.384667E+04 -4.299784E-09  1.083375E-09
       104  14 -1.616407E+04  4.856592E+03 -1.596486E+04 -6.097445E+03  2.116582E-09  4.329772E-11
       104  15 -2.100978E+04 -2.870630E+04 -3.660686E+04 -4.384637E+04  2.432474E-09  3.554036E-11
       104  16 -6.037111E+05 -1.435301E+05 -1.517952E+05 -4.009406E+04 -3.006966E-09 -4.925155E-10
       104  17 -6.807290E+05 -1.603773E+05 -1.773013E+05 -8.035456E+03  6.193317E-09 -7.744773E-11
       104  18 -7.685146E+05 -2.153379E+05 -2.218852E+05 -5.147916E+04 -5.521919E-10  5.625578E-11
       104  19  5.620270E+05  1.463277E+05  1.316576E+05 -4.760288E+04 -1.225067E+04  1.505600E+04
       104  20  6.488048E+05  1.700584E+05  1.453407E+05 -4.157532E+03 -1.464946E+04  1.835650E+04
       104  21  7.270033E+05  1.578838E+05  1.486305E+05 -3.620446E+04 -1.705065E+04  6.359464E+03
       104  22 -2.099711E+04  1.411412E+03 -1.005632E+04 -4.384676E+04 -7.775282E+03  1.505299E+04
       104  23 -1.616369E+04  4.857026E+03 -1.596372E+04 -6.097687E+03 -1.641312E+04  1.835843E+04
       104  24 -2.100910E+04 -2.870608E+04 -3.660561E+04 -4.384650E+04 -2.505285E+04  6.359173E+03
       104  25 -6.037111E+05 -1.435299E+05 -1.517947E+05 -4.009410E+04 -3.304082E+03  1.505003E+04
       104  26 -6.807286E+05 -1.603768E+05 -1.773001E+05 -8.035724E+03 -1.817489E+04  1.836037E+04
       104  27 -7.685134E+05 -2.153376E+05 -2.218831E+05 -5.147933E+04 -3.304543E+04  6.359080E+03
       105   1  1.360010E+06  4.533029E+06  1.304778E+06 -1.250250E+06  5.597139E+04  3.141621E+05
       105   2  9.589752E+05  3.222883E+06  8.387757E+05 -1.064498E+06  1.734240E+05  8.901376E+04
       105   3  6.414643E+05  1.960451E+06  5.391140E+05 -1.193887E+06  1.571031E+05 -1.365870E+05
       105   4  7.920286E+04 -6.443779E+05  7.110515E+04 -1.177633E+06  5.849711E+04  3.697400E+04
       105   5  2.633844E+04 -6.483880E+05  4.395675E+04 -1.020305E+06  1.742148E+05  1.555482E+04
       105   6  2.212027E+04 -6.412120E+05  4.244769E+04 -1.178176E+06  1.557965E+05 -6.796806E+03
       105   7 -1.203484E+06 -5.797129E+06 -1.164162E+06 -1.105547E+06  6.097071E+04 -2.379266E+05
       105   8 -9.072341E+05 -4.505458E+06 -7.516432E+05 -9.763479E+05  1.749983E+05 -5.745613E+04
       105   9 -5.976129E+05 -3.236327E+06 -4.544624E+05 -1.162511E+06  1.544931E+05  1.224636E+05
       105  10  1.359980E+06  4.532923E+06  1.304588E+06 -1.250264E+06 -1.168284E-09 -1.164364E-08
       105  11  9.589408E+05  3.222866E+06  8.387042E+05 -1.064510E+06 -7.334300E-09  8.924093E-10
       105  12  6.414329E+05  1.960424E+06  5.390329E+05 -1.193870E+06 -6.634946E-09  1.879024E-08
       105  13  7.919881E+04 -6.443803E+05  7.109613E+04 -1.177635E+06  3.785655E-09  3.392817E-09
       105  14  2.630579E+04 -6.483964E+05  4.389926E+04 -1.020307E+06  3.151880E-09 -4.580324E-09
       105  15  2.209420E+04 -6.412185E+05  4.240201E+04 -1.178175E+06  5.210677E-09  1.636054E-09
       105  16 -1.203504E+06 -5.797191E+06 -1.164276E+06 -1.105536E+06 -1.413467E-09  7.951682E-09
       105  17 -9.072678E+05 -4.505469E+06 -7.517069E+05 -9.763398E+05  4.975150E-09 -3.642701E-09
       105  18 -5.976426E+05 -3.236349E+06 -4.545357E+05 -1.162526E+06 -7.925799E-09 -1.818240E-08
       105  19  1.360010E+06  4.533029E+06  1.304778E+06 -1.250250E+06 -5.597139E+04 -3.141621E+05
       105  20  9.589752E+05  3.222883E+06  8.387757E+05 -1.064498E+06 -1.734240E+05 -8.901376E+04
       105  21  6.414643E+05  1.960451E+06  5.391140E+05 -1.193887E+06 -1.571031E+05  1.365870E+05
       105  22  7.920286E+04 -6.443779E+05  7.110515E+04 -1.177633E+06 -5.849711E+04 -3.697400E+04
       105  23  2.633844E+04 -6.483880E+05  4.395675E+04 -1.020305E+06 -1.742148E+05 -1.555482E+04
       105  24  2.212027E+04 -6.412120E+05  4.244769E+04 -1.178176E+06 -1.557965E+05  6.796806E+03
       105  25 -1.203484E+06 -5.797129E+06 -1.164162E+06 -1.105547E+06 -6.097071E+04  2.379266E+05
       105  26 -9.072341E+05 -4.505458E+06 -7.516432E+05 -9.763479E+05 -1.749983E+05  5.745613E+04
       105  27 -5.976129E+05 -3.236327E+06 -4.544624E+05 -1.162511E+06 -1.544931E+05 -1.224636E+05
       106   1  4.378915E+05  1.093333E+06  3.780721E+05 -1.197566E+06  1.053886E+05 -1.245209E+05
       106   2  1.288645E+05 -1.928914E+05  1.487343E+05 -1.020446E+06  3.247121E+04 -1.606362E+05
       106   3 -1.580590E+05 -1.474106E+06 -5.344425E+04 -1.166534E+06 -4.207731E+04 -1.967253E+05
       106   4  2.433724E+04 -6.423074E+05  4.666368E+04 -1.179894E+06  1.042326E+05 -1.483111E+04
       106   5  2.218390E+04 -6.435856E+05  6.624323E+04 -1.018206E+06  3.127266E+04 -4.856606E+04
       106   6  4.179181E+04 -6.419117E+05  1.113047E+05 -1.179712E+06 -4.332166E+04 -8.234483E+04
       106   7 -3.893875E+05 -2.375021E+06 -2.848362E+05 -1.162262E+06  1.030809E+05  9.455971E+04
       106   8 -8.450143E+04 -1.094055E+06 -1.620891E+04 -1.015967E+06  3.007438E+04  6.342489E+04
       106   9  2.416079E+05  1.909754E+05  2.760688E+05 -1.192907E+06 -4.456986E+04  3.218613E+04
       106  10  4.378755E+05  1.093313E+06  3.780223E+05 -1.197555E+06 -5.194627E-09 -1.340446E-08
       106  11  1.288564E+05 -1.929194E+05  1.486839E+05 -1.020442E+06 -1.313225E-09 -5.718441E-09
       106  12 -1.580714E+05 -1.474149E+06 -5.352054E+04 -1.166540E+06 -1.775388E-09  8.423360E-09
       106  13  2.432552E+04 -6.423106E+05  4.664287E+04 -1.179893E+06  4.093695E-09  4.599624E-09
       106  14  2.218222E+04 -6.435884E+05  6.623696E+04 -1.018204E+06 -9.454538E-09 -4.976391E-09
       106  15  4.178796E+04 -6.419195E+05  1.112884E+05 -1.179715E+06 -3.662010E-09  1.789781E-09
       106  16 -3.894013E+05 -2.375033E+06 -2.848731E+05 -1.162270E+06 -5.969339E-09  8.521023E-09
       106  17 -8.450348E+04 -1.094060E+06 -1.621820E+04 -1.015968E+06 -7.781588E-09  1.549756E-09
       106  18  2.416055E+05  1.909737E+05  2.760632E+05 -1.192906E+06  7.931165E-10 -7.856363E-09
       106  19  4.378915E+05  1.093333E+06  3.780721E+05 -1.197566E+06 -1.053886E+05  1.245209E+05
       106  20  1.288645E+05 -1.928914E+05  1.487343E+05 -1.020446E+06 -3.247121E+04  1.606362E+05
       106  21 -1.580590E+05 -1.474106E+06 -5.344425E+04 -1.166534E+06  4.207731E+04  1.967253E+05
       106  22  2.433724E+04 -6.423074E+05  4.666368E+04 -1.179894E+06 -1.042326E+05  1.483111E+04
       106  23  2.218390E+04 -6.435856E+05  6.624323E+04 -1.018206E+06 -3.127266E+04  4.856606E+04
       106  24  4.179181E+04 -6.419117E+05  1.113047E+05 -1.179712E+06  4.332166E+04  8.234483E+04
       106  25 -3.893875E+05 -2.375021E+06 -2.848362E+05 -1.162262E+06 -1.030809E+05 -9.455971E+04
       106  26 -8.450143E+04 -1.094055E+06 -1.620891E+04 -1.015967E+06 -3.007438E+04 -6.342489E+04
       106  27  2.416079E+05  1.909754E+05  2.760688E+05 -1.192907E+06  4.456986E+04 -3.218613E+04
       107   1 -3.780712E+05 -2.318225E+06 -1.866454E+05 -1.203380E+06 -9.378378E+04 -2.324125E+05
       107   2 -6.191739E+05 -3.627690E+06 -3.643963E+05 -8.763813E+05 -1.248547E+05 -1.937823E+05
       107   3 -5.782285E+05 -4.874730E+06 -4.980623E+05 -8.651722E+05 -4.352302E+04 -1.543521E+05
       107   4  2.666267E+04 -6.230684E+05  1.428322E+05 -1.178667E+06 -9.518354E+04 -1.019882E+05
       107   5  1.005568E+05 -6.690608E+05  2.528515E+05 -1.018795E+06 -1.243757E+05 -2.330435E+05
       107   6  4.851981E+05 -6.253265E+05  5.246214E+05 -1.174301E+06 -4.143112E+04 -3.632416E+05
       107   7  4.312372E+05  1.074895E+06  4.722391E+05 -1.153875E+06 -9.657056E+04  2.878563E+04
       107   8  8.197939E+05  2.297927E+06  8.696303E+05 -1.161876E+06 -1.238802E+05 -2.724876E+05
       107   9  1.547658E+06  3.640973E+06  1.546224E+06 -1.485515E+06 -3.913872E+04 -5.735575E+05
       107  10 -3.780953E+05 -2.318285E+06 -1.867640E+05 -1.203398E+06  1.214136E-09 -2.211820E-08
       107  11 -6.192009E+05 -3.627735E+06 -3.644968E+05 -8.764009E+05  6.601549E-09 -1.466779E-10
       107  12 -5.782370E+05 -4.874756E+06 -4.981110E+05 -8.651776E+05  2.374834E-09  2.605581E-08
       107  13  2.665012E+04 -6.230820E+05  1.427956E+05 -1.178675E+06  3.007458E-09  4.198875E-09
       107  14  1.005255E+05 -6.691234E+05  2.527201E+05 -1.018819E+06 -8.242010E-09 -5.591595E-09
       107  15  4.851607E+05 -6.254687E+05  5.243698E+05 -1.174313E+06  1.240233E-09  1.481426E-09
       107  16  4.312270E+05  1.074892E+06  4.722201E+05 -1.153873E+06 -3.481648E-09  1.763022E-08
       107  17  8.197575E+05  2.297843E+06  8.694622E+05 -1.161903E+06  5.896227E-09 -3.412604E-09
       107  18  1.547568E+06  3.640621E+06  1.545606E+06 -1.485533E+06  2.826583E-09 -2.639151E-08
       107  19 -3.780712E+05 -2.318225E+06 -1.866454E+05 -1.203380E+06  9.378378E+04  2.324125E+05
       107  20 -6.191739E+05 -3.627690E+06 -3.643963E+05 -8.763813E+05  1.248547E+05  1.937823E+05
       107  21 -5.782285E+05 -4.874730E+06 -4.980623E+05 -8.651722E+05  4.352302E+04  1.543521E+05
       107  22  2.666267E+04 -6.230684E+05  1.428322E+05 -1.178667E+06  9.518354E+04  1.019882E+05
       107  23  1.005568E+05 -6.690608E+05  2.528515E+05 -1.018795E+06  1.243757E+05  2.330435E+05
       107  24  4.851981E+05 -6.253265E+05  5.246214E+05 -1.174301E+06  4.143112E+04  3.632416E+05
       107  25  4.312372E+05  1.074895E+06  4.722391E+05 -1.153875E+06  9.657056E+04 -2.878563E+04
       107  26  8.197939E+05  2.297927E+06  8.696303E+05 -1.161876E+06  1.238802E+05  2.724876E+05
       107  27  1.547658E+06  3.640973E+06  1.546224E+06 -1.485515E+06  3.913872E+04  5.735575E+05
       108   1 -4.743552E+06 -1.860458E+06 -1.078144E+06 -1.610103E+06 -2.651427E+05 -1.947603E+04
       108   2 -4.432628E+06 -1.784766E+06 -8.823979E+05 -1.495471E+06 -1.804353E+05  2.008547E+05
       108   3 -4.064125E+06 -1.726761E+06 -7.844641E+05 -1.463346E+06 -4.730780E+04  2.950355E+05
       108   4 -7.846125E+04 -1.504133E+05  1.280933E+05 -3.804497E+05  5.481023E+04  1.026473E+05
       108   5 -1.316995E+05 -2.093150E+05  5.788286E+04 -3.199376E+05 -3.781158E+04  2.549746E+05
       108   6 -9.215604E+04 -2.507542E+05  3.125669E+04 -3.419111E+05 -8.227987E+04  2.815786E+05
       108   7  4.607963E+06  1.560757E+06  1.332941E+06  8.574862E+05  3.774152E+05  2.257033E+05
       108   8  4.188073E+06  1.367534E+06  9.971326E+05  8.630713E+05  1.058869E+05  3.094898E+05
       108   9  3.896168E+06  1.226733E+06  8.461841E+05  7.862337E+05 -1.174960E+05  2.680286E+05
       108  10 -4.743628E+06 -1.860478E+06 -1.078278E+06 -1.610107E+06 -3.050958E-08 -1.103425E-08
       108  11 -4.432674E+06 -1.784818E+06 -8.825349E+05 -1.495442E+06 -3.221138E-09  1.175723E-09
       108  12 -4.064151E+06 -1.726855E+06 -7.846319E+05 -1.463335E+06  3.718090E-08  1.625021E-08
       108  13 -7.846731E+04 -1.504254E+05  1.280678E+05 -3.804543E+05  1.492368E-09  1.007553E-09
       108  14 -1.317185E+05 -2.093852E+05  5.775800E+04 -3.199299E+05 -9.417599E-09 -1.232446E-08
       108  15 -9.218458E+04 -2.508411E+05  3.109499E+04 -3.418924E+05  1.791267E-09 -5.596007E-09
       108  16  4.607798E+06  1.560664E+06  1.332580E+06  8.574179E+05  2.511733E-08  8.667130E-09
       108  17  4.188035E+06  1.367429E+06  9.969320E+05  8.630450E+05 -8.329431E-09 -1.072345E-08
       108  18  3.896134E+06  1.226652E+06  8.460231E+05  7.862590E+05 -4.115635E-08 -1.665252E-08
       108  19 -4.743552E+06 -1.860458E+06 -1.078144E+06 -1.610103E+06  2.651427E+05  1.947603E+04
       108  20 -4.432628E+06 -1.784766E+06 -8.823979E+05 -1.495471E+06  1.804353E+05 -2.008547E+05
       108  21 -4.064125E+06 -1.726761E+06 -7.844641E+05 -1.463346E+06  4.730780E+04 -2.950355E+05
       108  22 -7.846125E+04 -1.504133E+05  1.280933E+05 -3.804497E+05 -5.481023E+04 -1.026473E+05
       108  23 -1.316995E+05 -2.093150E+05  5.788286E+04 -3.199376E+05  3.781158E+04 -2.549746E+05
       108  24 -9.215604E+04 -2.507542E+05  3.125669E+04 -3.419111E+05  8.227987E+04 -2.815786E+05
       108  25  4.607963E+06  1.560757E+06  1.332941E+06  8.574862E+05 -3.774152E+05 -2.257033E+05
       108  26  4.188073E+06  1.367534E+06  9.971326E+05  8.630713E+05 -1.058869E+05 -3.094898E+05
       108  27  3.896168E+06  1.226733E+06  8.461841E+05  7.862337E+05  1.174960E+05 -2.680286E+05
       109   1 -3.853531E+06 -1.632347E+06 -7.452796E+05 -1.395660E+06 -6.999306E+04  2.699285E+05
       109   2 -3.566662E+06 -1.482878E+06 -6.800514E+05 -1.269888E+06 -5.959847E+04  2.603969E+05
       109   3 -3.214934E+06 -1.394788E+06 -6.182562E+05 -1.215386E+06 -4.603976E+04  2.423238E+05
       109   4 -9.462162E+04 -2.479737E+05  2.380654E+04 -3.467825E+05 -8.043116E+04  2.658046E+05
       109   5 -1.279498E+05 -2.194855E+05  1.231130E+04 -3.105982E+05 -8.207320E+04  2.517544E+05
       109   6 -9.415459E+04 -2.499722E+05  6.938057E+03 -3.456959E+05 -8.056398E+04  2.291874E+05
       109   7  3.678880E+06  1.137643E+06  7.921717E+05  7.079952E+05 -9.093862E+04  2.616553E+05
       109   8  3.322994E+06  1.044954E+06  7.040937E+05  6.536285E+05 -1.046830E+05  2.430614E+05
       109   9  3.036690E+06  8.957009E+05  6.316602E+05  5.280525E+05 -1.152757E+05  2.159806E+05
       109  10 -3.853555E+06 -1.632426E+06 -7.454258E+05 -1.395645E+06 -1.067910E-09  2.002311E-09
       109  11 -3.566684E+06 -1.482952E+06 -6.801855E+05 -1.269876E+06  1.753915E-09  2.613088E-09
       109  12 -3.214952E+06 -1.394852E+06 -6.183705E+05 -1.215377E+06  5.555646E-09  4.835569E-09
       109  13 -9.464752E+04 -2.480513E+05  2.366162E+04 -3.467653E+05  2.972337E-09 -1.043385E-08
       109  14 -1.279740E+05 -2.195554E+05  1.217955E+04 -3.105816E+05 -2.175528E-09 -1.031736E-08
       109  15 -9.417565E+04 -2.500304E+05  6.827166E+03 -3.456811E+05 -9.249845E-10 -2.673402E-09
       109  16  3.678852E+06  1.137567E+06  7.920275E+05  7.080143E+05  7.012493E-09  4.488208E-09
       109  17  3.322966E+06  1.044888E+06  7.039621E+05  6.536490E+05 -2.352633E-09 -2.878572E-09
       109  18  3.036663E+06  8.956473E+05  6.315476E+05  5.280725E+05 -6.221955E-09 -3.800940E-09
       109  19 -3.853531E+06 -1.632347E+06 -7.452796E+05 -1.395660E+06  6.999306E+04 -2.699285E+05
       109  20 -3.566662E+06 -1.482878E+06 -6.800514E+05 -1.269888E+06  5.959847E+04 -2.603969E+05
       109  21 -3.214934E+06 -1.394788E+06 -6.182562E+05 -1.215386E+06  4.603976E+04 -2.423238E+05
       109  22 -9.462162E+04 -2.479737E+05  2.380654E+04 -3.467825E+05  8.043116E+04 -2.658046E+05
       109  23 -1.279498E+05 -2.194855E+05  1.231130E+04 -3.105982E+05  8.207320E+04 -2.517544E+05
       109  24 -9.415459E+04 -2.499722E+05  6.938057E+03 -3.456959E+05  8.056398E+04 -2.291874E+05
       109  25  3.678880E+06  1.137643E+06  7.921717E+05  7.079952E+05  9.093862E+04 -2.616553E+05
       109  26  3.322994E+06  1.044954E+06  7.040937E+05  6.536285E+05  1.046830E+05 -2.430614E+05
       109  27  3.036690E+06  8.957009E+05  6.316602E+05  5.280525E+05  1.152757E+05 -2.159806E+05
       110   1 -2.997602E+06 -1.312994E+06 -5.744637E+05 -1.154058E+06 -4.321677E+04  2.270707E+05
       110   2 -2.709564E+06 -1.162426E+06 -5.128601E+05 -1.028122E+06 -3.473239E+04  2.032263E+05
       110   3 -2.356893E+06 -1.074755E+06 -4.505297E+05 -9.739466E+05 -2.608611E+04  1.787715E+05
       110   4 -9.426773E+04 -2.496238E+05  5.153699E+03 -3.461378E+05 -7.612637E+04  2.145745E+05
       110   5 -1.262101E+05 -2.175181E+05  2.673474E+03 -3.103993E+05 -6.850112E+04  1.904521E+05
       110   6 -9.348468E+04 -2.481376E+05  1.582227E+03 -3.464451E+05 -6.071428E+04  1.657210E+05
       110   7  2.817829E+06  8.145040E+05  5.843796E+05  4.653009E+05 -1.092026E+05  2.020159E+05
       110   8  2.464069E+06  7.279820E+05  5.178963E+05  4.101011E+05 -1.024217E+05  1.776210E+05
       110   9  2.175228E+06  5.789272E+05  4.534539E+05  2.831799E+05 -9.547859E+04  1.526196E+05
       110  10 -2.997618E+06 -1.313050E+06 -5.745641E+05 -1.154050E+06  7.794699E-09  3.572810E-09
       110  11 -2.709576E+06 -1.162470E+06 -5.129400E+05 -1.028117E+06  6.163673E-09  6.703250E-10
       110  12 -2.356902E+06 -1.074789E+06 -4.505910E+05 -9.739428E+05  2.806196E-09 -2.003650E-10
       110  13 -9.428630E+04 -2.496748E+05  5.056299E+03 -3.461247E+05 -1.762252E-09  2.253624E-10
       110  14 -1.262249E+05 -2.175583E+05  2.596505E+03 -3.103888E+05  4.851738E-09  8.714427E-10
       110  15 -9.349600E+04 -2.481680E+05  1.523699E+03 -3.464370E+05  2.085400E-10  9.602201E-10
       110  16  2.817805E+06  8.144569E+05  5.842806E+05  4.653187E+05 -2.533746E-09 -2.746430E-09
       110  17  2.464050E+06  7.279453E+05  5.178173E+05  4.101158E+05 -1.526736E-09  5.494752E-10
       110  18  2.175212E+06  5.788998E+05  4.533931E+05  2.831916E+05 -2.790174E-09  1.988061E-09
       110  19 -2.997602E+06 -1.312994E+06 -5.744637E+05 -1.154058E+06  4.321677E+04 -2.270707E+05
       110  20 -2.709564E+06 -1.162426E+06 -5.128601E+05 -1.028122E+06  3.473239E+04 -2.032263E+05
       110  21 -2.356893E+06 -1.074755E+06 -4.505297E+05 -9.739466E+05  2.608611E+04 -1.787715E+05
       110  22 -9.426773E+04 -2.496238E+05  5.153699E+03 -3.461378E+05  7.612637E+04 -2.145745E+05
       110  23 -1.262101E+05 -2.175181E+05  2.673474E+03 -3.103993E+05  6.850112E+04 -1.904521E+05
       110  24 -9.348468E+04 -2.481376E+05  1.582227E+03 -3.464451E+05  6.071428E+04 -1.657210E+05
       110  25  2.817829E+06  8.145040E+05  5.843796E+05  4.653009E+05  1.092026E+05 -2.020159E+05
       110  26  2.464069E+06  7.279820E+05  5.178963E+05  4.101011E+05  1.024217E+05 -1.776210E+05
       110  27  2.175228E+06  5.789272E+05  4.534539E+05  2.831799E+05  9.547859E+04 -1.526196E+05
       111   1 -2.138301E+06 -9.939571E+05 -4.054088E+05 -9.132132E+05 -2.102016E+04  1.643569E+05
       111   2 -1.848450E+06 -8.441938E+05 -3.426935E+05 -7.875802E+05 -1.199231E+04  1.397754E+05
       111   3 -1.494733E+06 -7.574528E+05 -2.796741E+05 -7.342023E+05 -2.986730E+03  1.151306E+05
       111   4 -9.344512E+04 -2.479303E+05  1.141446E+03 -3.465695E+05 -5.556839E+04  1.513597E+05
       111   5 -1.250670E+05 -2.158933E+05  5.434450E+02 -3.105451E+05 -4.662910E+04  1.267760E+05
       111   6 -9.292447E+04 -2.468634E+05  3.084633E+02 -3.468072E+05 -3.771202E+04  1.021294E+05
       111   7  1.955726E+06  4.984560E+05  4.074944E+05  2.218018E+05 -9.023894E+04  1.383168E+05
       111   8  1.601392E+06  4.126656E+05  3.436443E+05  1.677182E+05 -8.136938E+04  1.137380E+05
       111   9  1.310929E+06  2.639002E+05  2.802051E+05  4.140170E+04 -7.252194E+04  8.909652E+04
       111  10 -2.138309E+06 -9.939862E+05 -4.054605E+05 -9.132105E+05  1.985902E-09  2.290248E-09
       111  11 -1.848456E+06 -8.442148E+05 -3.427305E+05 -7.875788E+05 -1.381010E-09  1.236714E-09
       111  12 -1.494737E+06 -7.574670E+05 -2.796991E+05 -7.342020E+05  3.622450E-09 -1.548684E-09
       111  13 -9.345459E+04 -2.479557E+05  1.092599E+03 -3.465628E+05 -4.718849E-09  1.408676E-09
       111  14 -1.250736E+05 -2.159112E+05  5.091616E+02 -3.105404E+05 -3.323143E-09  9.440036E-11
       111  15 -9.292879E+04 -2.468749E+05  2.861933E+02 -3.468041E+05 -3.466308E-09 -1.981881E-09
       111  16  1.955712E+06  4.984333E+05  4.074432E+05  2.218119E+05 -4.479918E-09  8.732657E-10
       111  17  1.601381E+06  4.126499E+05  3.436076E+05  1.677256E+05 -4.026056E-09 -5.401146E-10
       111  18  1.310921E+06  2.638903E+05  2.801804E+05  4.140690E+04  7.295422E-10 -8.060637E-10
       111  19 -2.138301E+06 -9.939571E+05 -4.054088E+05 -9.132132E+05  2.102016E+04 -1.643569E+05
       111  20 -1.848450E+06 -8.441938E+05 -3.426935E+05 -7.875802E+05  1.199231E+04 -1.397754E+05
       111  21 -1.494733E+06 -7.574528E+05 -2.796741E+05 -7.342023E+05  2.986730E+03 -1.151306E+05
       111  22 -9.344512E+04 -2.479303E+05  1.141446E+03 -3.465695E+05  5.556839E+04 -1.513597E+05
       111  23 -1.250670E+05 -2.158933E+05  5.434450E+02 -3.105451E+05  4.662910E+04 -1.267760E+05
       111  24 -9.292447E+04 -2.468634E+05  3.084633E+02 -3.468072E+05  3.771202E+04 -1.021294E+05
       111  25  1.955726E+06  4.984560E+05  4.074944E+05  2.218018E+05  9.023894E+04 -1.383168E+05
       111  26  1.601392E+06  4.126656E+05  3.436443E+05  1.677182E+05  8.136938E+04 -1.137380E+05
       111  27  1.310929E+06  2.639002E+05  2.802051E+05  4.140170E+04  7.252194E+04 -8.909652E+04
       112   1 -1.275338E+06 -6.769948E+05 -2.342174E+05 -6.736774E+05  2.340474E+03  1.008041E+05
       112   2 -9.843290E+05 -5.278108E+05 -1.711493E+05 -5.481807E+05  1.157300E+04  7.623365E+04
       112   3 -6.299309E+05 -4.417060E+05 -1.080647E+05 -4.952261E+05  2.078173E+04  5.166484E+04
       112   4 -9.289032E+04 -2.467394E+05  1.618505E+02 -3.468710E+05 -3.240210E+04  8.781032E+04
       112   5 -1.243953E+05 -2.149300E+05 -7.409300E+01 -3.106410E+05 -2.317087E+04  6.325484E+04
       112   6 -9.262631E+04 -2.462046E+05 -2.989752E+02 -3.469885E+05 -1.396355E+04  3.870125E+04
       112   7  1.091006E+06  1.836376E+05  2.344805E+05 -1.948728E+04 -6.721576E+04  7.479000E+04
       112   8  7.363015E+05  9.801396E+04  1.709702E+05 -7.279705E+04 -5.796629E+04  5.025678E+04
       112   9  4.449741E+05 -5.067940E+04  1.074566E+05 -1.986329E+05 -4.874084E+04  2.572569E+04
       112  10 -1.275340E+06 -6.770057E+05 -2.342365E+05 -6.736776E+05  5.958773E-09 -1.705664E-09
       112  11 -9.843307E+05 -5.278171E+05 -1.711605E+05 -5.481814E+05 -1.795789E-09 -9.916399E-10
       112  12 -6.299321E+05 -4.417090E+05 -1.080705E+05 -4.952269E+05  1.471990E-09 -2.514578E-09
       112  13 -9.289352E+04 -2.467480E+05  1.453902E+02 -3.468687E+05 -3.602760E-09 -1.562306E-09
       112  14 -1.243969E+05 -2.149344E+05 -8.261961E+01 -3.106398E+05 -8.865043E-09 -1.616745E-09
       112  15 -9.262692E+04 -2.462063E+05 -3.021558E+02 -3.469881E+05 -1.065340E-08 -4.206635E-09
       112  16  1.090999E+06  1.836304E+05  2.344615E+05 -1.948324E+04  4.804059E-10 -2.960466E-10
       112  17  7.362972E+05  9.801035E+04  1.709591E+05 -7.279471E+04 -7.697439E-09 -3.240733E-09
       112  18  4.449714E+05 -5.068075E+04  1.074509E+05 -1.986319E+05 -1.188182E-08 -6.551434E-09
       112  19 -1.275338E+06 -6.769948E+05 -2.342174E+05 -6.736774E+05 -2.340474E+03 -1.008041E+05
       112  20 -9.843290E+05 -5.278108E+05 -1.711493E+05 -5.481807E+05 -1.157300E+04 -7.623365E+04
       112  21 -6.299309E+05 -4.417060E+05 -1.080647E+05 -4.952261E+05 -2.078173E+04 -5.166484E+04
       112  22 -9.289032E+04 -2.467394E+05  1.618505E+02 -3.468710E+05  3.240210E+04 -8.781032E+04
       112  23 -1.243953E+05 -2.149300E+05 -7.409300E+01 -3.106410E+05  2.317087E+04 -6.325484E+04
       112  24 -9.262631E+04 -2.462046E+05 -2.989752E+02 -3.469885E+05  1.396355E+04 -3.870125E+04
       112  25  1.091006E+06  1.836376E+05  2.344805E+05 -1.948728E+04  6.721576E+04 -7.479000E+04
       112  26  7.363015E+05  9.801396E+04  1.709702E+05 -7.279705E+04  5.796629E+04 -5.025678E+04
       112  27  4.449741E+05 -5.067940E+04  1.074566E+05 -1.986329E+05  4.874084E+04 -2.572569E+04
       113   1 -4.100429E+05 -3.614306E+05 -6.261104E+04 -4.347460E+05  2.624651E+04  3.738830E+04
       113   2 -1.185238E+05 -2.125869E+05  3.061338E+02 -3.092030E+05  3.550877E+04  1.296636E+04
       113   3  2.362142E+05 -1.268162E+05  6.313253E+04 -2.562860E+05  4.467347E+04 -1.119470E+04
       113   4 -9.263444E+04 -2.461612E+05 -4.739563E+02 -3.470155E+05 -8.560595E+03  2.440627E+04
       113   5 -1.241515E+05 -2.145954E+05 -9.779849E+02 -3.106748E+05  1.061312E+03  1.181566E+02
       113   6 -9.263787E+04 -2.461880E+05 -1.862942E+03 -3.470054E+05  1.058551E+04 -2.390882E+04
       113   7  2.248838E+05 -1.308809E+05  6.166449E+04 -2.592420E+05 -4.338707E+04  1.141699E+04
       113   8 -1.297765E+05 -2.166029E+05 -2.257029E+03 -3.121458E+05 -3.338595E+04 -1.272999E+04
       113   9 -4.213757E+05 -3.655497E+05 -6.685851E+04 -4.376798E+05 -2.348311E+04 -3.661573E+04
       113  10 -4.100440E+05 -3.614323E+05 -6.261496E+04 -4.347467E+05  1.458881E-08  4.669732E-09
       113  11 -1.185252E+05 -2.125874E+05  3.034470E+02 -3.092034E+05 -7.424909E-09  2.234704E-09
       113  12  2.362120E+05 -1.268169E+05  6.312855E+04 -2.562856E+05 -2.862917E-08 -6.586249E-09
       113  13 -9.263468E+04 -2.461618E+05 -4.752132E+02 -3.470153E+05 -1.142332E-08 -5.358649E-09
       113  14 -1.241515E+05 -2.145954E+05 -9.779870E+02 -3.106748E+05 -9.055096E-09 -3.426261E-09
       113  15 -9.263814E+04 -2.461887E+05 -1.864227E+03 -3.470052E+05 -2.415907E-09  1.292312E-09
       113  16  2.248817E+05 -1.308816E+05  6.166071E+04 -2.592416E+05 -2.733966E-08 -1.181161E-08
       113  17 -1.297778E+05 -2.166034E+05 -2.259430E+03 -3.121462E+05  4.254781E-10 -1.075011E-09
       113  18 -4.213767E+05 -3.655513E+05 -6.686207E+04 -4.376805E+05  2.395627E-08  8.647318E-09
       113  19 -4.100429E+05 -3.614306E+05 -6.261104E+04 -4.347460E+05 -2.624651E+04 -3.738830E+04
       113  20 -1.185238E+05 -2.125869E+05  3.061338E+02 -3.092030E+05 -3.550877E+04 -1.296636E+04
       113  21  2.362142E+05 -1.268162E+05  6.313253E+04 -2.562860E+05 -4.467347E+04  1.119470E+04
       113  22 -9.263444E+04 -2.461612E+05 -4.739563E+02 -3.470155E+05  8.560595E+03 -2.440627E+04
       113  23 -1.241515E+05 -2.145954E+05 -9.779849E+02 -3.106748E+05 -1.061312E+03 -1.181566E+02
       113  24 -9.263787E+04 -2.461880E+05 -1.862942E+03 -3.470054E+05 -1.058551E+04  2.390882E+04
       113  25  2.248838E+05 -1.308809E+05  6.166449E+04 -2.592420E+05  4.338707E+04 -1.141699E+04
       113  26 -1.297765E+05 -2.166029E+05 -2.257029E+03 -3.121458E+05  3.338595E+04  1.272999E+04
       113  27 -4.213757E+05 -3.655497E+05 -6.685851E+04 -4.376798E+05  2.348311E+04  3.661573E+04
       114   1  4.564239E+05 -4.659562E+04  1.081518E+05 -1.958153E+05  5.112742E+04 -2.509976E+04
       114   2  7.474235E+05  1.023469E+05  1.711542E+05 -6.984606E+04  5.643214E+04 -4.893229E+04
       114   3  1.101964E+06  1.883035E+05  2.364879E+05 -1.600688E+04  6.029928E+04 -6.887289E+04
       114   4 -9.279620E+04 -2.461395E+05 -2.496831E+03 -3.470101E+05  1.627494E+04 -3.810368E+04
       114   5 -1.242009E+05 -2.150708E+05 -4.648368E+03 -3.105969E+05  2.708084E+04 -5.989811E+04
       114   6 -9.325597E+04 -2.480922E+05 -8.821831E+03 -3.463627E+05  3.644971E+04 -7.779682E+04
       114   7 -6.416988E+05 -4.456555E+05 -1.131539E+05 -4.980796E+05 -1.854420E+04 -5.109518E+04
       114   8 -9.950422E+05 -5.324234E+05 -1.804847E+05 -5.510354E+05 -2.226272E+03 -7.084740E+04
       114   9 -1.287021E+06 -6.843714E+05 -2.542057E+05 -6.761349E+05  1.264925E+04 -8.670236E+04
       114  10  4.564209E+05 -4.659700E+04  1.081457E+05 -1.958142E+05  2.876611E-10  1.587065E-09
       114  11  7.474195E+05  1.023434E+05  1.711437E+05 -6.984384E+04  9.073406E-10  6.035276E-10
       114  12  1.101959E+06  1.882975E+05  2.364722E+05 -1.600354E+04  5.219071E-09  1.878764E-09
       114  13 -9.279688E+04 -2.461411E+05 -2.500057E+03 -3.470096E+05 -6.045134E-12  8.933818E-10
       114  14 -1.242027E+05 -2.150748E+05 -4.656486E+03 -3.105956E+05  2.715072E-09  7.076132E-10
       114  15 -9.325902E+04 -2.480990E+05 -8.835698E+03 -3.463604E+05  9.187423E-09  1.164670E-09
       114  16 -6.416999E+05 -4.456584E+05 -1.131594E+05 -4.980804E+05  3.515080E-10  1.287657E-09
       114  17 -9.950436E+05 -5.324288E+05 -1.804942E+05 -5.510355E+05  9.380782E-10 -8.199832E-11
       114  18 -1.287023E+06 -6.843796E+05 -2.542201E+05 -6.761340E+05  5.134741E-09  7.837552E-10
       114  19  4.564239E+05 -4.659562E+04  1.081518E+05 -1.958153E+05 -5.112742E+04  2.509976E+04
       114  20  7.474235E+05  1.023469E+05  1.711542E+05 -6.984606E+04 -5.643214E+04  4.893229E+04
       114  21  1.101964E+06  1.883035E+05  2.364879E+05 -1.600688E+04 -6.029928E+04  6.887289E+04
       114  22 -9.279620E+04 -2.461395E+05 -2.496831E+03 -3.470101E+05 -1.627494E+04  3.810368E+04
       114  23 -1.242009E+05 -2.150708E+05 -4.648368E+03 -3.105969E+05 -2.708084E+04  5.989811E+04
       114  24 -9.325597E+04 -2.480922E+05 -8.821831E+03 -3.463627E+05 -3.644971E+04  7.779682E+04
       114  25 -6.416988E+05 -4.456555E+05 -1.131539E+05 -4.980796E+05  1.854420E+04  5.109518E+04
       114  26 -9.950422E+05 -5.324234E+05 -1.804847E+05 -5.510354E+05  2.226272E+03  7.084740E+04
       114  27 -1.287021E+06 -6.843714E+05 -2.542057E+05 -6.761349E+05 -1.264925E+04  8.670236E+04
       115   1  1.325302E+06  2.684343E+05  2.799389E+05  4.171037E+04  7.833189E+04 -7.853583E+04
       115   2  1.604988E+06  4.226782E+05  3.610999E+05  1.767485E+05  6.523719E+03 -1.007809E+05
       115   3  1.950623E+06  5.066159E+05  4.913966E+05  2.491346E+05 -8.695139E+04 -6.541993E+04
       115   4 -9.525033E+04 -2.463709E+05 -1.153125E+04 -3.468212E+05  4.315113E+04 -9.170541E+04
       115   5 -1.229046E+05 -2.217957E+05 -2.172731E+04 -3.085605E+05  5.312548E+04 -8.336715E+04
       115   6 -1.008849E+05 -2.837532E+05 -4.749264E+04 -3.330042E+05  4.144389E+04 -1.732335E+04
       115   7 -1.513742E+06 -7.610171E+05 -3.031023E+05 -7.345385E+05  8.056630E+03 -1.048432E+05
       115   8 -1.847757E+06 -8.660050E+05 -4.047237E+05 -7.926172E+05  9.958668E+04 -6.600783E+04
       115   9 -2.148218E+06 -1.073761E+06 -5.866529E+05 -9.133585E+05  1.693711E+05  3.058622E+04
       115  10  1.325294E+06  2.684261E+05  2.799158E+05  4.171532E+04  6.651673E-09  1.692643E-09
       115  11  1.604985E+06  4.226673E+05  3.610807E+05  1.767491E+05  2.786388E-09 -2.327286E-09
       115  12  1.950614E+06  5.066093E+05  4.913744E+05  2.491301E+05  3.345734E-10 -1.684156E-09
       115  13 -9.525459E+04 -2.463804E+05 -1.155055E+04 -3.468180E+05  3.950114E-09  1.607568E-09
       115  14 -1.229095E+05 -2.218039E+05 -2.174567E+04 -3.085570E+05  2.546460E-09  5.151424E-11
       115  15 -1.008868E+05 -2.837540E+05 -4.749643E+04 -3.330036E+05  3.636443E-09 -3.751176E-10
       115  16 -1.513745E+06 -7.610290E+05 -3.031231E+05 -7.345378E+05  1.360542E-09 -1.094362E-09
       115  17 -1.847769E+06 -8.660123E+05 -4.047505E+05 -7.926119E+05  9.706668E-10  1.466598E-09
       115  18 -2.148249E+06 -1.073770E+06 -5.867088E+05 -9.133627E+05  2.358927E-09  9.737668E-10
       115  19  1.325302E+06  2.684343E+05  2.799389E+05  4.171037E+04 -7.833189E+04  7.853583E+04
       115  20  1.604988E+06  4.226782E+05  3.610999E+05  1.767485E+05 -6.523719E+03  1.007809E+05
       115  21  1.950623E+06  5.066159E+05  4.913966E+05  2.491346E+05  8.695139E+04  6.541993E+04
       115  22 -9.525033E+04 -2.463709E+05 -1.153125E+04 -3.468212E+05 -4.315113E+04  9.170541E+04
       115  23 -1.229046E+05 -2.217957E+05 -2.172731E+04 -3.085605E+05 -5.312548E+04  8.336715E+04
       115  24 -1.008849E+05 -2.837532E+05 -4.749264E+04 -3.330042E+05 -4.144389E+04  1.732335E+04
       115  25 -1.513742E+06 -7.610171E+05 -3.031023E+05 -7.345385E+05 -8.056630E+03  1.048432E+05
       115  26 -1.847757E+06 -8.660050E+05 -4.047237E+05 -7.926172E+05 -9.958668E+04  6.600783E+04
       115  27 -2.148218E+06 -1.073761E+06 -5.866529E+05 -9.133585E+05 -1.693711E+05 -3.058622E+04
       116   1 -1.906747E+05 -9.617624E+04 -8.513194E+04 -6.868332E+04 -1.802690E+04  6.770552E+03
       116   2 -1.191219E+05 -1.012558E+05 -6.544974E+04 -7.761375E+04 -2.413327E+03  2.252309E+04
       116   3 -4.622482E+04 -9.293843E+04 -5.258363E+04 -9.730618E+04  1.320709E+04  2.660516E+04
       116   4  3.802265E+05  4.442235E+04  4.709627E+04 -9.886127E+04  3.326379E+04  6.780045E+03
       116   5  3.771685E+05  1.582601E+04  2.376339E+04 -9.347886E+04  2.115278E+04  2.252433E+04
       116   6  3.802574E+05  5.432153E+03  1.286309E+04 -9.885684E+04  9.046608E+03  2.660316E+04
       116   7  9.514364E+05  1.850029E+05  1.793130E+05 -1.290672E+05  8.460128E+04  6.784549E+03
       116   8  8.737006E+05  1.328954E+05  1.129692E+05 -1.093570E+05  4.473720E+04  2.252436E+04
       116   9  8.069216E+05  1.037940E+05  7.830589E+04 -1.004086E+05  4.883372E+03  2.660119E+04
       116  10 -1.906751E+05 -9.617638E+04 -8.513264E+04 -6.868322E+04  2.785299E-10 -2.757830E-10
       116  11 -1.191220E+05 -1.012564E+05 -6.545071E+04 -7.761371E+04  1.877730E-10 -3.669266E-10
       116  12 -4.622520E+04 -9.293924E+04 -5.258529E+04 -9.730646E+04  7.832724E-10  8.661139E-10
       116  13  3.802253E+05  4.442200E+04  4.709411E+04 -9.886145E+04  1.502398E-10  1.865065E-10
       116  14  3.771679E+05  1.582535E+04  2.376159E+04 -9.347924E+04  9.219259E-11  3.955757E-10
       116  15  3.802572E+05  5.431371E+03  1.286161E+04 -9.885703E+04  2.545334E-09  1.313419E-09
       116  16  9.514287E+05  1.850009E+05  1.792995E+05 -1.290676E+05  4.679905E-10  4.796339E-10
       116  17  8.736983E+05  1.328943E+05  1.129645E+05 -1.093578E+05  2.033846E-09  1.264736E-09
       116  18  8.069214E+05  1.037932E+05  7.830451E+04 -1.004087E+05  2.783319E-09  2.195294E-09
       116  19 -1.906747E+05 -9.617624E+04 -8.513194E+04 -6.868332E+04  1.802690E+04 -6.770552E+03
       116  20 -1.191219E+05 -1.012558E+05 -6.544974E+04 -7.761375E+04  2.413327E+03 -2.252309E+04
       116  21 -4.622482E+04 -9.293843E+04 -5.258363E+04 -9.730618E+04 -1.320709E+04 -2.660516E+04
       116  22  3.802265E+05  4.442235E+04  4.709627E+04 -9.886127E+04 -3.326379E+04 -6.780045E+03
       116  23  3.771685E+05  1.582601E+04  2.376339E+04 -9.347886E+04 -2.115278E+04 -2.252433E+04
       116  24  3.802574E+05  5.432153E+03  1.286309E+04 -9.885684E+04 -9.046608E+03 -2.660316E+04
       116  25  9.514364E+05  1.850029E+05  1.793130E+05 -1.290672E+05 -8.460128E+04 -6.784549E+03
       116  26  8.737006E+05  1.328954E+05  1.129692E+05 -1.093570E+05 -4.473720E+04 -2.252436E+04
       116  27  8.069216E+05  1.037940E+05  7.830589E+04 -1.004086E+05 -4.883372E+03 -2.660119E+04
       117   1 -2.060366E+03 -8.355367E+04 -4.691515E+04 -9.673563E+04  1.238975E+04  2.505223E+04
       117   2  6.997580E+04 -6.903989E+04 -3.770157E+04 -9.212011E+04  1.350884E+04  2.215836E+04
       117   3  1.421723E+05 -5.336624E+04 -2.892352E+04 -9.912573E+04  1.462767E+04  1.770232E+04
       117   4  3.790755E+05  3.960123E+03  9.596149E+03 -9.904887E+04  7.373193E+03  2.505060E+04
       117   5  3.786840E+05  1.262670E+03  5.179046E+03 -9.323861E+04  4.778909E+03  2.215739E+04
       117   6  3.790916E+05  3.692982E+02  2.903692E+03 -9.904894E+04  2.184257E+03  1.770242E+04
       117   7  7.603574E+05  9.146714E+04  6.610485E+04 -1.013636E+05  2.353679E+03  2.504900E+04
       117   8  6.874890E+05  7.156106E+04  4.805880E+04 -9.435768E+04 -3.955168E+03  2.215644E+04
       117   9  6.160684E+05  5.410250E+04  3.473099E+04 -9.897211E+04 -1.026369E+04  1.770252E+04
       117  10 -2.060700E+03 -8.355439E+04 -4.691661E+04 -9.673588E+04 -2.118041E-09  2.048468E-09
       117  11  6.997547E+04 -6.904047E+04 -3.770283E+04 -9.212035E+04 -3.935165E-09  2.440384E-09
       117  12  1.421720E+05 -5.336663E+04 -2.892451E+04 -9.912594E+04 -2.565295E-09  9.895533E-10
       117  13  3.790752E+05  3.959434E+03  9.594867E+03 -9.904902E+04 -2.026791E-09  2.247737E-09
       117  14  3.786838E+05  1.262137E+03  5.178080E+03 -9.323869E+04  1.854891E-10  1.955250E-09
       117  15  3.790915E+05  3.689603E+02  2.903094E+03 -9.904897E+04 -1.748823E-09  4.563085E-10
       117  16  7.603572E+05  9.146647E+04  6.610366E+04 -1.013636E+05  3.128318E-09  2.194332E-09
       117  17  6.874888E+05  7.156053E+04  4.805784E+04 -9.435761E+04  2.917136E-09  1.378677E-09
       117  18  6.160682E+05  5.410214E+04  3.473020E+04 -9.897197E+04  1.252394E-09 -3.360136E-11
       117  19 -2.060366E+03 -8.355367E+04 -4.691515E+04 -9.673563E+04 -1.238975E+04 -2.505223E+04
       117  20  6.997580E+04 -6.903989E+04 -3.770157E+04 -9.212011E+04 -1.350884E+04 -2.215836E+04
       117  21  1.421723E+05 -5.336624E+04 -2.892352E+04 -9.912573E+04 -1.462767E+04 -1.770232E+04
       117  22  3.790755E+05  3.960123E+03  9.596149E+03 -9.904887E+04 -7.373193E+03 -2.505060E+04
       117  23  3.786840E+05  1.262670E+03  5.179046E+03 -9.323861E+04 -4.778909E+03 -2.215739E+04
       117  24  3.790916E+05  3.692982E+02  2.903692E+03 -9.904894E+04 -2.184257E+03 -1.770242E+04
       117  25  7.603574E+05  9.146714E+04  6.610485E+04 -1.013636E+05 -2.353679E+03 -2.504900E+04
       117  26  6.874890E+05  7.156106E+04  4.805880E+04 -9.435768E+04  3.955168E+03 -2.215644E+04
       117  27  6.160684E+05  5.410250E+04  3.473099E+04 -9.897211E+04  1.026369E+04 -1.770252E+04
       118   1  1.866448E+05 -4.328719E+04 -2.331106E+04 -9.902719E+04  1.431409E+04  1.458344E+04
       118   2  2.587175E+05 -2.714072E+04 -1.458040E+04 -9.321683E+04  1.420170E+04  9.195215E+03
       118   3  3.308339E+05 -1.091226E+04 -5.754944E+03 -9.914001E+04  1.408898E+04  3.598713E+03
       118   4  3.789454E+05  2.604965E+02  2.187728E+03 -9.907405E+04  1.756394E+03  1.458398E+04
       118   5  3.788858E+05  4.525407E+01  1.224517E+03 -9.320737E+04  1.148198E+03  9.196221E+03
       118   6  3.789516E+05 -1.620066E+00  7.000285E+02 -9.907409E+04  5.396946E+02  3.600200E+03
       118   7  5.712842E+05  4.380670E+04  2.768683E+04 -9.912092E+04 -1.080501E+04  1.458452E+04
       118   8  4.990693E+05  2.723071E+04  1.702997E+04 -9.319791E+04 -1.190771E+04  9.197228E+03
       118   9  4.270719E+05  1.090902E+04  7.155671E+03 -9.900816E+04 -1.301059E+04  3.601683E+03
       118  10  1.866445E+05 -4.328748E+04 -2.331185E+04 -9.902736E+04 -3.183372E-08  8.481832E-10
       118  11  2.587173E+05 -2.714086E+04 -1.458094E+04 -9.321694E+04  2.571087E-09  2.944973E-09
       118  12  3.308337E+05 -1.091233E+04 -5.755342E+03 -9.914005E+04  4.310165E-08  4.957333E-09
       118  13  3.789454E+05  2.602672E+02  2.187322E+03 -9.907407E+04  2.008892E-09 -1.665102E-09
       118  14  3.788858E+05  4.516288E+01  1.224355E+03 -9.320738E+04 -3.240257E-09 -7.160762E-09
       118  15  3.789515E+05 -1.634065E+00  7.000036E+02 -9.907409E+04 -2.664638E-10 -1.293677E-08
       118  16  5.712840E+05  4.380644E+04  2.768621E+04 -9.912079E+04  2.889031E-08  2.536929E-10
       118  17  4.990691E+05  2.723058E+04  1.702955E+04 -9.319782E+04 -4.668676E-09  2.506222E-09
       118  18  4.270717E+05  1.090896E+04  7.155329E+03 -9.900812E+04 -4.368126E-08  4.019279E-09
       118  19  1.866448E+05 -4.328719E+04 -2.331106E+04 -9.902719E+04 -1.431409E+04 -1.458344E+04
       118  20  2.587175E+05 -2.714072E+04 -1.458040E+04 -9.321683E+04 -1.420170E+04 -9.195215E+03
       118  21  3.308339E+05 -1.091226E+04 -5.754944E+03 -9.914001E+04 -1.408898E+04 -3.598713E+03
       118  22  3.789454E+05  2.604965E+02  2.187728E+03 -9.907405E+04 -1.756394E+03 -1.458398E+04
       118  23  3.788858E+05  4.525407E+01  1.224517E+03 -9.320737E+04 -1.148198E+03 -9.196221E+03
       118  24  3.789516E+05 -1.620066E+00  7.000285E+02 -9.907409E+04 -5.396946E+02 -3.600200E+03
       118  25  5.712842E+05  4.380670E+04  2.768683E+04 -9.912092E+04  1.080501E+04 -1.458452E+04
       118  26  4.990693E+05  2.723071E+04  1.702997E+04 -9.319791E+04  1.190771E+04 -9.197228E+03
       118  27  4.270719E+05  1.090902E+04  7.155671E+03 -9.900816E+04  1.301059E+04 -3.601683E+03
       119   1  3.753381E+05 -8.163274E+02  5.623047E+01 -9.912185E+04  1.399501E+04  2.715270E+02
       119   2  4.474265E+05  1.541990E+04  9.002563E+03 -9.323729E+04  1.389813E+04 -5.445836E+03
       119   3  5.195382E+05  3.165939E+04  1.801404E+04 -9.910106E+04  1.380146E+04 -1.118557E+04
       119   4  3.789299E+05 -3.257144E+00  5.310106E+02 -9.907743E+04  4.304129E+02  2.730700E+02
       119   5  3.789152E+05 -1.533187E+01  3.045258E+02 -9.320323E+04  2.794851E+02 -5.444537E+03
       119   6  3.789266E+05 -1.497649E+01  1.798416E+02 -9.907743E+04  1.287642E+02 -1.118453E+04
       119   7  3.825222E+05  8.099113E+02  1.006482E+03 -9.903300E+04 -1.313425E+04  2.746111E+02
       119   8  3.104092E+05 -1.545065E+04 -8.392831E+03 -9.316917E+04 -1.333774E+04 -5.443240E+03
       119   9  2.383356E+05 -3.169005E+04 -1.765372E+04 -9.905381E+04 -1.354099E+04 -1.118348E+04
       119  10  3.753378E+05 -8.163800E+02  5.586249E+01 -9.912185E+04 -1.112474E-07  4.608448E-09
       119  11  4.474263E+05  1.541981E+04  9.002144E+03 -9.323723E+04 -1.425732E-08  2.149357E-09
       119  12  5.195380E+05  3.165921E+04  1.801345E+04 -9.910094E+04  9.444554E-08  8.506664E-10
       119  13  3.789299E+05 -3.257273E+00  5.310101E+02 -9.907743E+04 -1.595188E-11 -1.358766E-08
       119  14  3.789152E+05 -1.536373E+01  3.044700E+02 -9.320323E+04  1.000049E-09 -8.566946E-09
       119  15  3.789265E+05 -1.511085E+01  1.796064E+02 -9.907743E+04  3.370219E-09 -2.181484E-09
       119  16  3.825220E+05  8.098649E+02  1.006158E+03 -9.903300E+04  1.107606E-07  3.184988E-09
       119  17  3.104090E+05 -1.545073E+04 -8.393221E+03 -9.316923E+04  7.602815E-09  4.329579E-10
       119  18  2.383354E+05 -3.169023E+04 -1.765430E+04 -9.905393E+04 -9.678777E-08 -7.430446E-10
       119  19  3.753381E+05 -8.163274E+02  5.623047E+01 -9.912185E+04 -1.399501E+04 -2.715270E+02
       119  20  4.474265E+05  1.541990E+04  9.002563E+03 -9.323729E+04 -1.389813E+04  5.445836E+03
       119  21  5.195382E+05  3.165939E+04  1.801404E+04 -9.910106E+04 -1.380146E+04  1.118557E+04
       119  22  3.789299E+05 -3.257144E+00  5.310106E+02 -9.907743E+04 -4.304129E+02 -2.730700E+02
       119  23  3.789152E+05 -1.533187E+01  3.045258E+02 -9.320323E+04 -2.794851E+02  5.444537E+03
       119  24  3.789266E+05 -1.497649E+01  1.798416E+02 -9.907743E+04 -1.287642E+02  1.118453E+04
       119  25  3.825222E+05  8.099113E+02  1.006482E+03 -9.903300E+04  1.313425E+04 -2.746111E+02
       119  26  3.104092E+05 -1.545065E+04 -8.392831E+03 -9.316917E+04  1.333774E+04  5.443240E+03
       119  27  2.383356E+05 -3.169005E+04 -1.765372E+04 -9.905381E+04  1.354099E+04  1.118348E+04
       120   1  5.640595E+05  4.174524E+04  2.391790E+04 -9.909605E+04  1.377250E+04 -1.453491E+04
       120   2  6.361672E+05  5.797860E+04  3.301924E+04 -9.320673E+04  1.363620E+04 -2.026557E+04
       120   3  7.083102E+05  7.422744E+04  4.221554E+04 -9.906728E+04  1.350066E+04 -2.595721E+04
       120   4  3.789212E+05 -1.744849E+01  1.403860E+02 -9.907782E+04  9.967599E+01 -1.453423E+04
       120   5  3.789078E+05 -2.849400E+01  8.961479E+01 -9.320275E+04  5.537252E+01 -2.026584E+04
       120   6  3.789084E+05 -3.992446E+01  6.946687E+01 -9.907783E+04  1.183086E+01 -2.595845E+04
       120   7  1.938184E+05 -4.178145E+04 -2.363659E+04 -9.905960E+04 -1.356927E+04 -1.453355E+04
       120   8  1.217167E+05 -5.803821E+04 -3.283961E+04 -9.319876E+04 -1.352011E+04 -2.026611E+04
       120   9  4.961819E+04 -7.431166E+04 -4.207639E+04 -9.908835E+04 -1.347020E+04 -2.595968E+04
       120  10  5.640592E+05  4.174497E+04  2.391715E+04 -9.909589E+04  5.339116E-09  6.109172E-10
       120  11  6.361669E+05  5.797810E+04  3.301812E+04 -9.320651E+04 -2.140809E-10  5.360502E-10
       120  12  7.083098E+05  7.422667E+04  4.221393E+04 -9.906700E+04 -2.901076E-10  7.081571E-10
       120  13  3.789211E+05 -1.767537E+01  1.399890E+02 -9.907782E+04  2.432268E-09  3.193995E-10
       120  14  3.789077E+05 -2.893510E+01  8.884285E+01 -9.320275E+04 -4.050138E-09  1.199891E-09
       120  15  3.789082E+05 -4.064818E+01  6.820037E+01 -9.907783E+04 -2.935532E-09  1.270360E-09
       120  16  1.938181E+05 -4.178173E+04 -2.363733E+04 -9.905976E+04 -3.347028E-09  2.990482E-11
       120  17  1.217164E+05 -5.803870E+04 -3.284072E+04 -9.319898E+04  2.079421E-10  1.730995E-09
       120  18  4.961781E+04 -7.431243E+04 -4.207800E+04 -9.908863E+04 -9.623471E-10  1.740437E-09
       120  19  5.640595E+05  4.174524E+04  2.391790E+04 -9.909605E+04 -1.377250E+04  1.453491E+04
       120  20  6.361672E+05  5.797860E+04  3.301924E+04 -9.320673E+04 -1.363620E+04  2.026557E+04
       120  21  7.083102E+05  7.422744E+04  4.221554E+04 -9.906728E+04 -1.350066E+04  2.595721E+04
       120  22  3.789212E+05 -1.744849E+01  1.403860E+02 -9.907782E+04 -9.967599E+01  1.453423E+04
       120  23  3.789078E+05 -2.849400E+01  8.961479E+01 -9.320275E+04 -5.537252E+01  2.026584E+04
       120  24  3.789084E+05 -3.992446E+01  6.946687E+01 -9.907783E+04 -1.183086E+01  2.595845E+04
       120  25  1.938184E+05 -4.178145E+04 -2.363659E+04 -9.905960E+04  1.356927E+04  1.453355E+04
       120  26  1.217167E+05 -5.803821E+04 -3.283961E+04 -9.319876E+04  1.352011E+04  2.026611E+04
       120  27  4.961819E+04 -7.431166E+04 -4.207639E+04 -9.908835E+04  1.347020E+04  2.595968E+04
       121   1  7.528758E+05  8.432702E+04  4.822533E+04 -9.905268E+04  1.346741E+04 -2.926747E+04
       121   2  8.249641E+05  1.006167E+05  5.773576E+04 -9.315927E+04  1.266273E+04 -3.476834E+04
       121   3  8.972152E+05  1.170452E+05  6.780955E+04 -9.899850E+04  1.185916E+04 -3.994647E+04
       121   4  3.789051E+05 -4.869930E+01  6.773739E+01 -9.907404E+04 -9.163866E-02 -2.926946E+04
       121   5  3.788814E+05 -6.803984E+01  7.737218E+01 -9.320748E+04 -3.762855E+01 -3.477190E+04
       121   6  3.788830E+05 -8.123197E+01  1.180325E+02 -9.907404E+04 -7.398250E+01 -3.995147E+04
       121   7  5.077996E+03 -8.443011E+04 -4.808986E+04 -9.909538E+04 -1.345988E+04 -2.927146E+04
       121   8 -6.699747E+04 -1.007610E+05 -5.758145E+04 -9.325564E+04 -1.272931E+04 -3.477545E+04
       121   9 -1.391743E+05 -1.172189E+05 -6.757462E+04 -9.914950E+04 -1.199765E+04 -3.995646E+04
       121  10  7.528754E+05  8.432605E+04  4.822338E+04 -9.905236E+04  1.861780E-09 -6.557103E-11
       121  11  8.249636E+05  1.006154E+05  5.773319E+04 -9.315892E+04  1.163844E-09 -2.090571E-09
       121  12  8.972146E+05  1.170435E+05  6.780629E+04 -9.899811E+04 -2.199856E-09 -4.316413E-10
       121  13  3.789049E+05 -4.961941E+01  6.612719E+01 -9.907404E+04  2.166819E-09  4.087661E-10
       121  14  3.788810E+05 -6.933842E+01  7.509966E+01 -9.320748E+04 -6.626569E-09 -9.750900E-10
       121  15  3.788826E+05 -8.294624E+01  1.150325E+02 -9.907404E+04 -3.576198E-09 -6.062966E-11
       121  16  5.077571E+03 -8.443108E+04 -4.809181E+04 -9.909570E+04 -4.996693E-09  8.131679E-10
       121  17 -6.699797E+04 -1.007623E+05 -5.758403E+04 -9.325600E+04 -6.877410E-09 -1.011664E-10
       121  18 -1.391749E+05 -1.172206E+05 -6.757789E+04 -9.914989E+04 -1.178044E-09  6.442282E-10
       121  19  7.528758E+05  8.432702E+04  4.822533E+04 -9.905268E+04 -1.346741E+04  2.926747E+04
       121  20  8.249641E+05  1.006167E+05  5.773576E+04 -9.315927E+04 -1.266273E+04  3.476834E+04
       121  21  8.972152E+05  1.170452E+05  6.780955E+04 -9.899850E+04 -1.185916E+04  3.994647E+04
       121  22  3.789051E+05 -4.869930E+01  6.773739E+01 -9.907404E+04  9.163864E-02  2.926946E+04
       121  23  3.788814E+05 -6.803984E+01  7.737218E+01 -9.320748E+04  3.762855E+01  3.477190E+04
       121  24  3.788830E+05 -8.123197E+01  1.180325E+02 -9.907404E+04  7.398250E+01  3.995147E+04
       121  25  5.077996E+03 -8.443011E+04 -4.808986E+04 -9.909538E+04  1.345988E+04  2.927146E+04
       121  26 -6.699747E+04 -1.007610E+05 -5.758145E+04 -9.325564E+04  1.272931E+04  3.477545E+04
       121  27 -1.391743E+05 -1.172189E+05 -6.757462E+04 -9.914950E+04  1.199765E+04  3.995646E+04
       122   1  9.419713E+05  1.272888E+05  7.439823E+04 -9.892957E+04  1.166262E+04 -4.293337E+04
       122   2  1.013676E+06  1.440680E+05  8.664810E+04 -9.315598E+04  5.776916E+03 -4.666628E+04
       122   3  1.086460E+06  1.619358E+05  1.030073E+05 -9.893797E+04 -1.094372E+02 -4.797825E+04
       122   4  3.788849E+05 -8.983649E+01  1.513822E+02 -9.903474E+04 -9.559792E+01 -4.293940E+04
       122   5  3.788323E+05 -7.443587E+01  2.563282E+02 -9.325660E+04 -2.211878E+02 -4.667270E+04
       122   6  3.788539E+05  3.075313E+01  4.745458E+02 -9.903477E+04 -3.466827E+02 -4.798374E+04
       122   7 -1.838777E+05 -1.274817E+05 -7.409720E+04 -9.913981E+04 -1.184367E+04 -4.294542E+04
       122   8 -2.556020E+05 -1.442344E+05 -8.613939E+04 -9.335710E+04 -6.213446E+03 -4.667912E+04
       122   9 -3.282479E+05 -1.618973E+05 -1.020663E+05 -9.913147E+04 -5.836693E+02 -4.798925E+04
       122  10  9.419706E+05  1.272867E+05  7.439451E+04 -9.892916E+04  5.010250E-09  3.952678E-10
       122  11  1.013676E+06  1.440657E+05  8.664395E+04 -9.315576E+04  4.488074E-10 -4.675418E-13
       122  12  1.086459E+06  1.619334E+05  1.030029E+05 -9.893798E+04  1.014091E-09 -3.881689E-10
       122  13  3.788844E+05 -9.181675E+01  1.479168E+02 -9.903475E+04 -6.479798E-09  4.092495E-10
       122  14  3.788317E+05 -7.677546E+01  2.522339E+02 -9.325660E+04  5.329982E-09 -4.535095E-10
       122  15  3.788532E+05  2.828024E+01  4.702181E+02 -9.903479E+04 -1.769897E-09 -9.626623E-10
       122  16 -1.838784E+05 -1.274838E+05 -7.410093E+04 -9.914022E+04 -3.834808E-09  5.697703E-10
       122  17 -2.556027E+05 -1.442367E+05 -8.614356E+04 -9.335734E+04 -4.366674E-09 -4.498698E-11
       122  18 -3.282485E+05 -1.618998E+05 -1.020706E+05 -9.913149E+04 -1.285736E-09 -1.206299E-09
       122  19  9.419713E+05  1.272888E+05  7.439823E+04 -9.892957E+04 -1.166262E+04  4.293337E+04
       122  20  1.013676E+06  1.440680E+05  8.664810E+04 -9.315598E+04 -5.776916E+03  4.666628E+04
       122  21  1.086460E+06  1.619358E+05  1.030073E+05 -9.893797E+04  1.094372E+02  4.797825E+04
       122  22  3.788849E+05 -8.983649E+01  1.513822E+02 -9.903474E+04  9.559792E+01  4.293940E+04
       122  23  3.788323E+05 -7.443587E+01  2.563282E+02 -9.325660E+04  2.211878E+02  4.667270E+04
       122  24  3.788539E+05  3.075313E+01  4.745458E+02 -9.903477E+04  3.466827E+02  4.798374E+04
       122  25 -1.838777E+05 -1.274817E+05 -7.409720E+04 -9.913981E+04  1.184367E+04  4.294542E+04
       122  26 -2.556020E+05 -1.442344E+05 -8.613939E+04 -9.335710E+04  6.213446E+03  4.667912E+04
       122  27 -3.282479E+05 -1.618973E+05 -1.020663E+05 -9.913147E+04  5.836693E+02  4.798925E+04
       123   1  1.132425E+06  1.732841E+05  1.137673E+05 -9.855798E+04 -1.518295E+03 -4.853809E+04
       123   2  1.200935E+06  1.938798E+05  1.461571E+05 -9.410366E+04 -4.515098E+04 -3.905477E+04
       123   3  1.277273E+06  2.228731E+05  2.090299E+05 -9.986615E+04 -8.880690E+04 -1.148451E+04
       123   4  3.789062E+05  8.868695E+01  6.364799E+02 -9.873680E+04 -4.297504E+02 -4.854340E+04
       123   5  3.787055E+05  5.896446E+02  1.164991E+03 -9.362929E+04 -1.014099E+03 -3.903724E+04
       123   6  3.788678E+05  2.027112E+03  2.315574E+03 -9.873768E+04 -1.615090E+03 -1.143321E+04
       123   7 -3.740439E+05 -1.731336E+05 -1.125056E+05 -9.891540E+04  6.575275E+02 -4.854871E+04
       123   8 -4.428599E+05 -1.927364E+05 -1.438446E+05 -9.315560E+04  4.306614E+04 -3.901962E+04
       123   9 -5.187756E+05 -2.188712E+05 -2.044237E+05 -9.761091E+04  8.545175E+04 -1.138156E+04
       123  10  1.132425E+06  1.732815E+05  1.137629E+05 -9.855804E+04 -6.730603E-10 -1.111152E-10
       123  11  1.200932E+06  1.938776E+05  1.461504E+05 -9.410508E+04 -1.448997E-09  9.258902E-11
       123  12  1.277265E+06  2.228708E+05  2.090149E+05 -9.986697E+04  1.420293E-09  2.941307E-10
       123  13  3.789055E+05  8.615602E+01  6.320505E+02 -9.873682E+04  1.741071E-09 -2.310228E-09
       123  14  3.787051E+05  5.880076E+02  1.162125E+03 -9.362932E+04 -2.906857E-09  2.197392E-09
       123  15  3.788677E+05  2.026971E+03  2.315323E+03 -9.873770E+04 -3.958260E-09  4.816762E-10
       123  16 -3.740446E+05 -1.731361E+05 -1.125100E+05 -9.891538E+04  2.654848E-09 -1.194298E-09
       123  17 -4.428623E+05 -1.927385E+05 -1.438510E+05 -9.315424E+04 -3.044011E-09  9.729797E-10
       123  18 -5.187835E+05 -2.188733E+05 -2.044377E+05 -9.761013E+04 -5.042333E-09 -4.389640E-10
       123  19  1.132425E+06  1.732841E+05  1.137673E+05 -9.855798E+04  1.518295E+03  4.853809E+04
       123  20  1.200935E+06  1.938798E+05  1.461571E+05 -9.410366E+04  4.515098E+04  3.905477E+04
       123  21  1.277273E+06  2.228731E+05  2.090299E+05 -9.986615E+04  8.880690E+04  1.148451E+04
       123  22  3.789062E+05  8.868695E+01  6.364799E+02 -9.873680E+04  4.297504E+02  4.854340E+04
       123  23  3.787055E+05  5.896446E+02  1.164991E+03 -9.362929E+04  1.014099E+03  3.903724E+04
       123  24  3.788678E+05  2.027112E+03  2.315574E+03 -9.873768E+04  1.615090E+03  1.143321E+04
       123  25 -3.740439E+05 -1.731336E+05 -1.125056E+05 -9.891540E+04 -6.575275E+02  4.854871E+04
       123  26 -4.428599E+05 -1.927364E+05 -1.438446E+05 -9.315560E+04 -4.306614E+04  3.901962E+04
       123  27 -5.187756E+05 -2.188712E+05 -2.044237E+05 -9.761091E+04 -8.545175E+04  1.138156E+04
       124   1  2.016456E+05  9.745213E+05  1.932560E+05 -2.904243E+05  7.500238E+03  5.138498E+04
       124   2  1.375941E+05  7.419671E+05  1.144002E+05 -2.695982E+05  2.192246E+04  1.133991E+04
       124   3  8.183239E+04  5.167248E+05  6.365479E+04 -2.881385E+05  1.847681E+04 -2.869547E+04
       124   4  3.296057E+03  1.721107E+05  3.393588E+03 -2.878118E+05  7.544161E+03  9.548211E+02
       124   5  1.312761E+03  1.718701E+05  2.795484E+03 -2.681284E+05  2.193495E+04 -4.434801E+02
       124   6  9.232656E+02  1.721969E+05  3.498399E+03 -2.878136E+05  1.845043E+04 -1.846611E+03
       124   7 -1.950982E+05 -6.297036E+05 -1.865039E+05 -2.852024E+05  7.587700E+03 -4.941059E+04
       124   8 -1.349881E+05 -3.979152E+05 -1.088244E+05 -2.666599E+05  2.194740E+04 -1.221630E+04
       124   9 -7.999191E+04 -1.722133E+05 -5.665950E+04 -2.874888E+05  1.842407E+04  2.498780E+04
       124  10  2.016448E+05  9.745185E+05  1.932509E+05 -2.904246E+05 -7.236421E-10  2.491151E-09
       124  11  1.375936E+05  7.419668E+05  1.143991E+05 -2.695984E+05  6.517105E-10  2.013996E-09
       124  12  8.183180E+04  5.167238E+05  6.365260E+04 -2.881381E+05  1.550596E-09  1.167024E-09
       124  13  3.295996E+03  1.721106E+05  3.393479E+03 -2.878118E+05  5.458697E-10 -3.013068E-11
       124  14  1.312245E+03  1.718700E+05  2.794580E+03 -2.681284E+05  1.988490E-09 -5.019928E-10
       124  15  9.228991E+02  1.721968E+05  3.497753E+03 -2.878136E+05 -1.017024E-09 -9.719766E-10
       124  16 -1.950990E+05 -6.297062E+05 -1.865086E+05 -2.852021E+05  1.972826E-09 -2.506947E-09
       124  17 -1.349887E+05 -3.979155E+05 -1.088255E+05 -2.666597E+05  4.804147E-09 -1.919605E-09
       124  18 -7.999244E+04 -1.722141E+05 -5.666132E+04 -2.874892E+05  3.443041E-09 -1.118743E-09
       124  19  2.016456E+05  9.745213E+05  1.932560E+05 -2.904243E+05 -7.500238E+03 -5.138498E+04
       124  20  1.375941E+05  7.419671E+05  1.144002E+05 -2.695982E+05 -2.192246E+04 -1.133991E+04
       124  21  8.183239E+04  5.167248E+05  6.365479E+04 -2.881385E+05 -1.847681E+04  2.869547E+04
       124  22  3.296057E+03  1.721107E+05  3.393588E+03 -2.878118E+05 -7.544161E+03 -9.548211E+02
       124  23  1.312761E+03  1.718701E+05  2.795484E+03 -2.681284E+05 -2.193495E+04  4.434801E+02
       124  24  9.232656E+02  1.721969E+05  3.498399E+03 -2.878136E+05 -1.845043E+04  1.846611E+03
       124  25 -1.950982E+05 -6.297036E+05 -1.865039E+05 -2.852024E+05 -7.587700E+03  4.941059E+04
       124  26 -1.349881E+05 -3.979152E+05 -1.088244E+05 -2.666599E+05 -2.194740E+04  1.221630E+04
       124  27 -7.999191E+04 -1.722133E+05 -5.665950E+04 -2.874888E+05 -1.842407E+04 -2.498780E+04
       125   1  4.807211E+04  3.726118E+05  3.966726E+04 -2.885960E+05  1.045211E+04 -2.959378E+04
       125   2 -4.883890E+03  1.434215E+05  2.740303E+03 -2.668684E+05 -2.012234E+03 -3.277118E+04
       125   3 -5.560004E+04 -8.478724E+04 -3.157411E+04 -2.856487E+05 -1.433291E+04 -3.594723E+04
       125   4  9.409302E+02  1.723037E+05  4.259701E+03 -2.880668E+05  1.042423E+04 -2.499458E+03
       125   5  1.638739E+03  1.718097E+05  6.958058E+03 -2.678115E+05 -2.039463E+03 -5.992302E+03
       125   6  4.632706E+03  1.722988E+05  1.248545E+04 -2.880635E+05 -1.435954E+04 -9.484876E+03
       125   7 -4.619206E+04 -2.796365E+04 -3.114658E+04 -2.875377E+05  1.039639E+04  2.458639E+04
       125   8  8.161719E+03  2.002003E+05  1.117849E+04 -2.687547E+05 -2.066771E+03  2.078775E+04
       125   9  6.486232E+04  4.294513E+05  5.654544E+04 -2.904794E+05 -1.438636E+04  1.698809E+04
       125  10  4.807176E+04  3.726108E+05  3.966541E+04 -2.885958E+05  3.988220E-09  1.183543E-08
       125  11 -4.884183E+03  1.434203E+05  2.738278E+03 -2.668684E+05  2.417986E-09  6.520674E-09
       125  12 -5.560061E+04 -8.478868E+04 -3.157692E+04 -2.856491E+05  5.191600E-09  1.190349E-09
       125  13  9.408118E+02  1.723036E+05  4.259485E+03 -2.880668E+05  1.737449E-09  1.321916E-11
       125  14  1.638725E+03  1.718097E+05  6.957983E+03 -2.678115E+05  4.001333E-09 -6.626838E-10
       125  15  4.632461E+03  1.722986E+05  1.248490E+04 -2.880636E+05  1.047507E-09 -9.535903E-10
       125  16 -4.619234E+04 -2.796433E+04 -3.114792E+04 -2.875379E+05  2.934760E-09 -1.181241E-08
       125  17  8.161598E+03  2.001998E+05  1.117767E+04 -2.687547E+05  3.406791E-09 -6.618440E-09
       125  18  6.486202E+04  4.294509E+05  5.654451E+04 -2.904792E+05  2.745307E-09 -1.079341E-09
       125  19  4.807211E+04  3.726118E+05  3.966726E+04 -2.885960E+05 -1.045211E+04  2.959378E+04
       125  20 -4.883890E+03  1.434215E+05  2.740303E+03 -2.668684E+05  2.012234E+03  3.277118E+04
       125  21 -5.560004E+04 -8.478724E+04 -3.157411E+04 -2.856487E+05  1.433291E+04  3.594723E+04
       125  22  9.409302E+02  1.723037E+05  4.259701E+03 -2.880668E+05 -1.042423E+04  2.499458E+03
       125  23  1.638739E+03  1.718097E+05  6.958058E+03 -2.678115E+05  2.039463E+03  5.992302E+03
       125  24  4.632706E+03  1.722988E+05  1.248545E+04 -2.880635E+05  1.435954E+04  9.484876E+03
       125  25 -4.619206E+04 -2.796365E+04 -3.114658E+04 -2.875377E+05 -1.039639E+04 -2.458639E+04
       125  26  8.161719E+03  2.002003E+05  1.117849E+04 -2.687547E+05  2.066771E+03 -2.078775E+04
       125  27  6.486232E+04  4.294513E+05  5.654544E+04 -2.904794E+05  1.438636E+04 -1.698809E+04
       126   1 -8.826716E+04 -2.273419E+05 -5.244092E+04 -2.871242E+05 -2.222797E+04 -3.783695E+04
       126   2 -1.312305E+05 -4.567567E+05 -9.130515E+04 -2.486747E+05 -2.484787E+04 -1.216360E+04
       126   3 -1.554779E+05 -6.847842E+05 -1.422147E+05 -2.495049E+05 -8.388848E+03  1.350483E+04
       126   4  5.798345E+03  1.739469E+05  1.657145E+04 -2.877905E+05 -2.225293E+04 -1.165038E+04
       126   5  1.844893E+04  1.696588E+05  3.037423E+04 -2.681356E+05 -2.483196E+04 -2.717062E+04
       126   6  5.695612E+04  1.738478E+05  6.073535E+04 -2.877510E+05 -8.342498E+03 -4.268614E+04
       126   7  9.985560E+04  5.753954E+05  8.558094E+04 -2.884572E+05 -2.227794E+04  1.455260E+04
       126   8  1.681064E+05  7.964524E+05  1.520361E+05 -2.876164E+05 -2.481511E+04 -4.219243E+04
       126   9  2.693445E+05  1.033168E+06  2.636470E+05 -3.260502E+05 -8.289267E+03 -9.895443E+04
       126  10 -8.826808E+04 -2.273436E+05 -5.244454E+04 -2.871249E+05  3.828833E-09  1.385188E-07
       126  11 -1.312312E+05 -4.567570E+05 -9.130659E+04 -2.486750E+05  3.869576E-09  2.264784E-09
       126  12 -1.554780E+05 -6.847844E+05 -1.422152E+05 -2.495048E+05  5.279186E-10 -1.336735E-07
       126  13  5.797777E+03  1.739466E+05  1.657027E+04 -2.877907E+05  2.803739E-09  3.153311E-11
       126  14  1.844807E+04  1.696578E+05  3.037168E+04 -2.681361E+05  1.497137E-09 -4.842253E-10
       126  15  5.695556E+04  1.738459E+05  6.073179E+04 -2.877513E+05 -1.028036E-09 -6.274377E-10
       126  16  9.985501E+04  5.753950E+05  8.557961E+04 -2.884569E+05  3.005922E-09 -1.384579E-07
       126  17  1.681053E+05  7.964504E+05  1.520316E+05 -2.876172E+05  9.320114E-10 -2.080948E-09
       126  18  2.693418E+05  1.033157E+06  2.636285E+05 -3.260508E+05  1.602078E-09  1.340110E-07
       126  19 -8.826716E+04 -2.273419E+05 -5.244092E+04 -2.871242E+05  2.222797E+04  3.783695E+04
       126  20 -1.312305E+05 -4.567567E+05 -9.130515E+04 -2.486747E+05  2.484787E+04  1.216360E+04
       126  21 -1.554779E+05 -6.847842E+05 -1.422147E+05 -2.495049E+05  8.388848E+03 -1.350483E+04
       126  22  5.798345E+03  1.739469E+05  1.657145E+04 -2.877905E+05  2.225293E+04  1.165038E+04
       126  23  1.844893E+04  1.696588E+05  3.037423E+04 -2.681356E+05  2.483196E+04  2.717062E+04
       126  24  5.695612E+04  1.738478E+05  6.073535E+04 -2.877510E+05  8.342498E+03  4.268614E+04
       126  25  9.985560E+04  5.753954E+05  8.558094E+04 -2.884572E+05  2.227794E+04 -1.455260E+04
       126  26  1.681064E+05  7.964524E+05  1.520361E+05 -2.876164E+05  2.481511E+04  4.219243E+04
       126  27  2.693445E+05  1.033168E+06  2.636470E+05 -3.260502E+05  8.289267E+03  9.895443E+04
       127   1 -3.889739E+05 -2.190426E+05 -1.384925E+05 -1.639347E+05 -6.741082E+04 -2.156934E+04
       127   2 -3.651226E+05 -1.351714E+05 -7.970905E+04 -1.531440E+05 -4.217464E+04 -3.857596E+03
       127   3 -3.573219E+05 -1.029839E+05 -5.440659E+04 -1.369035E+05 -1.460606E+04  7.647412E+03
       127   4 -1.915156E+05 -1.074505E+05 -7.996102E+04 -7.135711E+04 -5.280582E+04 -1.609255E+04
       127   5 -1.799664E+05 -5.129906E+04 -3.647584E+04 -8.578146E+04 -3.634956E+04 -1.673048E+03
       127   6 -1.827226E+05 -4.508530E+04 -1.950781E+04 -9.475882E+04 -1.756213E+04  6.537977E+03
       127   7  5.982196E+03  4.160171E+03 -2.143292E+04  2.125084E+04 -3.819597E+04 -1.061171E+04
       127   8  5.224643E+03  3.258110E+04  6.755048E+03 -1.839893E+04 -3.052263E+04  5.125665E+02
       127   9 -8.091081E+03  1.281490E+04  1.538981E+04 -5.260351E+04 -2.051912E+04  5.428271E+03
       127  10 -3.889789E+05 -2.190443E+05 -1.385019E+05 -1.639358E+05  2.666370E-09 -1.414287E-11
       127  11 -3.651245E+05 -1.351719E+05 -7.971242E+04 -1.531442E+05  8.899785E-10 -6.320209E-10
       127  12 -3.573221E+05 -1.029840E+05 -5.440710E+04 -1.369035E+05 -4.655615E-09  2.485353E-10
       127  13 -1.915186E+05 -1.074516E+05 -7.996675E+04 -7.135779E+04 -2.003079E-09  4.429858E-11
       127  14 -1.799678E+05 -5.129942E+04 -3.647833E+04 -8.578151E+04  3.376708E-09 -4.888839E-10
       127  15 -1.827229E+05 -4.508543E+04 -1.950847E+04 -9.475873E+04  3.098440E-09  8.354036E-10
       127  16  5.980599E+03  4.159658E+03 -2.143588E+04  2.125051E+04 -1.361246E-09 -7.627192E-10
       127  17  5.223642E+03  3.258085E+04  6.753296E+03 -1.839892E+04  5.116341E-13  3.416506E-10
       127  18 -8.091541E+03  1.281476E+04  1.538896E+04 -5.260342E+04  3.322985E-09  1.793561E-09
       127  19 -3.889739E+05 -2.190426E+05 -1.384925E+05 -1.639347E+05  6.741082E+04  2.156934E+04
       127  20 -3.651226E+05 -1.351714E+05 -7.970905E+04 -1.531440E+05  4.217464E+04  3.857596E+03
       127  21 -3.573219E+05 -1.029839E+05 -5.440659E+04 -1.369035E+05  1.460606E+04 -7.647412E+03
       127  22 -1.915156E+05 -1.074505E+05 -7.996102E+04 -7.135711E+04  5.280582E+04  1.609255E+04
       127  23 -1.799664E+05 -5.129906E+04 -3.647584E+04 -8.578146E+04  3.634956E+04  1.673048E+03
       127  24 -1.827226E+05 -4.508530E+04 -1.950781E+04 -9.475882E+04  1.756213E+04 -6.537977E+03
       127  25  5.982196E+03  4.160171E+03 -2.143292E+04  2.125084E+04  3.819597E+04  1.061171E+04
       127  26  5.224643E+03  3.258110E+04  6.755048E+03 -1.839893E+04  3.052263E+04 -5.125665E+02
       127  27 -8.091081E+03  1.281490E+04  1.538981E+04 -5.260351E+04  2.051912E+04 -5.428271E+03
       128   1 -3.312344E+05 -1.033857E+05 -4.591885E+04 -1.355081E+05 -1.311520E+04  6.826942E+03
       128   2 -3.064175E+05 -8.802333E+04 -3.290663E+04 -1.250748E+05 -8.022062E+03  7.098949E+03
       128   3 -2.776755E+05 -8.009111E+04 -2.384360E+04 -1.203607E+05 -2.771967E+03  6.952637E+03
       128   4 -1.802981E+05 -4.735240E+04 -1.490675E+04 -9.283383E+04 -1.485402E+04  6.174234E+03
       128   5 -1.821448E+05 -4.246644E+04 -7.875140E+03 -9.043480E+04 -1.035196E+04  6.224631E+03
       128   6 -1.799495E+05 -4.489322E+04 -4.323555E+03 -9.375538E+04 -5.693126E+03  5.856671E+03
       128   7 -2.933956E+04  8.682551E+03  1.610383E+04 -5.015024E+04 -1.659328E+04  5.521356E+03
       128   8 -5.785621E+04  3.091824E+03  1.715561E+04 -5.578841E+04 -1.268235E+04  5.350123E+03
       128   9 -8.221293E+04 -9.694264E+03  1.519629E+04 -6.714597E+04 -8.614802E+03  4.760516E+03
       128  10 -3.312346E+05 -1.033858E+05 -4.591926E+04 -1.355080E+05 -2.496755E-09  2.031492E-09
       128  11 -3.064176E+05 -8.802340E+04 -3.290684E+04 -1.250747E+05 -4.791452E-10  1.640979E-09
       128  12 -2.776755E+05 -8.009117E+04 -2.384370E+04 -1.203607E+05 -3.378563E-10 -9.848996E-10
       128  13 -1.802983E+05 -4.735250E+04 -1.490724E+04 -9.283376E+04 -6.393363E-10  2.045579E-09
       128  14 -1.821449E+05 -4.246651E+04 -7.875414E+03 -9.043475E+04  4.113345E-09  7.767937E-10
       128  15 -1.799496E+05 -4.489327E+04 -4.323680E+03 -9.375535E+04  9.757894E-10 -1.129607E-09
       128  16 -2.933987E+04  8.682445E+03  1.610326E+04 -5.015016E+04  3.522521E-09  1.431102E-09
       128  17 -5.785639E+04  3.091750E+03  1.715526E+04 -5.578835E+04  5.942287E-10  1.314564E-09
       128  18 -8.221301E+04 -9.694308E+03  1.519610E+04 -6.714594E+04 -1.204636E-09 -1.091657E-09
       128  19 -3.312344E+05 -1.033857E+05 -4.591885E+04 -1.355081E+05  1.311520E+04 -6.826942E+03
       128  20 -3.064175E+05 -8.802333E+04 -3.290663E+04 -1.250748E+05  8.022062E+03 -7.098949E+03
       128  21 -2.776755E+05 -8.009111E+04 -2.384360E+04 -1.203607E+05  2.771967E+03 -6.952637E+03
       128  22 -1.802981E+05 -4.735240E+04 -1.490675E+04 -9.283383E+04  1.485402E+04 -6.174234E+03
       128  23 -1.821448E+05 -4.246644E+04 -7.875140E+03 -9.043480E+04  1.035196E+04 -6.224631E+03
       128  24 -1.799495E+05 -4.489322E+04 -4.323555E+03 -9.375538E+04  5.693126E+03 -5.856671E+03
       128  25 -2.933956E+04  8.682551E+03  1.610383E+04 -5.015024E+04  1.659328E+04 -5.521356E+03
       128  26 -5.785621E+04  3.091824E+03  1.715561E+04 -5.578841E+04  1.268235E+04 -5.350123E+03
       128  27 -8.221293E+04 -9.694264E+03  1.519629E+04 -6.714597E+04  8.614802E+03 -4.760516E+03
       129   1 -2.588103E+05 -7.366945E+04 -1.894375E+04 -1.154178E+05 -1.795821E+03  5.948846E+03
       129   2 -2.342707E+05 -6.109360E+04 -1.212377E+04 -1.048929E+05 -1.053397E+02  4.278104E+03
       129   3 -2.045751E+05 -5.393768E+04 -6.021706E+03 -1.004692E+05  1.595668E+03  2.579013E+03
       129   4 -1.797724E+05 -4.498939E+04 -3.254300E+03 -9.364525E+04 -4.635474E+03  4.883531E+03
       129   5 -1.823502E+05 -4.225930E+04 -1.789674E+03 -9.060331E+04 -2.985020E+03  3.197853E+03
       129   6 -1.797646E+05 -4.494113E+04 -1.011144E+03 -9.366288E+04 -1.324088E+03  1.483816E+03
       129   7 -1.007281E+05 -1.630881E+04  1.243488E+04 -7.187009E+04 -7.475514E+03  3.818073E+03
       129   8 -1.304270E+05 -2.342485E+04  8.544265E+03 -7.631272E+04 -5.864946E+03  2.117511E+03
       129   9 -1.549536E+05 -3.594461E+04  3.999365E+03 -8.685636E+04 -4.243944E+03  3.885813E+02
       129  10 -2.588103E+05 -7.366949E+04 -1.894382E+04 -1.154178E+05 -3.219621E-08 -1.260630E-08
       129  11 -2.342708E+05 -6.109362E+04 -1.212380E+04 -1.048929E+05 -6.218579E-09 -3.921459E-09
       129  12 -2.045751E+05 -5.393769E+04 -6.021723E+03 -1.004692E+05  1.968108E-08  8.668189E-09
       129  13 -1.797724E+05 -4.498943E+04 -3.254385E+03 -9.364523E+04 -1.189018E-09 -2.694826E-09
       129  14 -1.823502E+05 -4.225931E+04 -1.789710E+03 -9.060330E+04 -1.209397E-09 -2.811694E-09
       129  15 -1.797646E+05 -4.494113E+04 -1.011152E+03 -9.366288E+04 -3.374058E-09 -5.511046E-10
       129  16 -1.007281E+05 -1.630884E+04  1.243475E+04 -7.187007E+04  1.895045E-08  7.372204E-09
       129  17 -1.304270E+05 -2.342486E+04  8.544192E+03 -7.631271E+04 -4.434158E-09 -1.718565E-09
       129  18 -1.549536E+05 -3.594461E+04  3.999331E+03 -8.685636E+04 -2.006889E-08 -9.722085E-09
       129  19 -2.588103E+05 -7.366945E+04 -1.894375E+04 -1.154178E+05  1.795821E+03 -5.948846E+03
       129  20 -2.342707E+05 -6.109360E+04 -1.212377E+04 -1.048929E+05  1.053397E+02 -4.278104E+03
       129  21 -2.045751E+05 -5.393768E+04 -6.021706E+03 -1.004692E+05 -1.595668E+03 -2.579013E+03
       129  22 -1.797724E+05 -4.498939E+04 -3.254300E+03 -9.364525E+04  4.635474E+03 -4.883531E+03
       129  23 -1.823502E+05 -4.225930E+04 -1.789674E+03 -9.060331E+04  2.985020E+03 -3.197853E+03
       129  24 -1.797646E+05 -4.494113E+04 -1.011144E+03 -9.366288E+04  1.324088E+03 -1.483816E+03
       129  25 -1.007281E+05 -1.630881E+04  1.243488E+04 -7.187009E+04  7.475514E+03 -3.818073E+03
       129  26 -1.304270E+05 -2.342485E+04  8.544265E+03 -7.631272E+04  5.864946E+03 -2.117511E+03
       129  27 -1.549536E+05 -3.594461E+04  3.999365E+03 -8.685636E+04  4.243944E+03 -3.885813E+02
       130   1 -1.860949E+05 -4.720435E+04 -1.960932E+03 -9.537331E+04  2.189333E+03  1.432110E+03
       130   2 -1.616316E+05 -3.469788E+04  3.642576E+03 -8.482337E+04  3.207503E+03 -5.357222E+02
       130   3 -1.318883E+05 -2.751205E+04  9.062730E+03 -8.036722E+04  4.226311E+03 -2.505131E+03
       130   4 -1.797421E+05 -4.494459E+04 -7.785961E+02 -9.365234E+04 -7.250400E+02  3.389464E+02
       130   5 -1.823825E+05 -4.228917E+04 -4.884218E+02 -9.060342E+04  2.908005E+02 -1.629800E+03
       130   6 -1.797438E+05 -4.495427E+04 -3.799491E+02 -9.364882E+04  1.307264E+03 -3.600121E+03
       130   7 -1.733892E+05 -4.268480E+04  4.037898E+02 -9.193133E+04 -3.639469E+03 -7.542382E+02
       130   8 -2.031330E+05 -4.988045E+04 -4.619429E+03 -9.638332E+04 -2.625810E+03 -2.723843E+03
       130   9 -2.275968E+05 -6.239629E+04 -9.822702E+03 -1.069295E+05 -1.611542E+03 -4.695021E+03
       130  10 -1.860950E+05 -4.720435E+04 -1.960945E+03 -9.537331E+04 -3.235220E-09  3.079138E-09
       130  11 -1.616316E+05 -3.469788E+04  3.642556E+03 -8.482337E+04 -5.660883E-09  3.084623E-09
       130  12 -1.318884E+05 -2.751206E+04  9.062685E+03 -8.036721E+04  2.849624E-09  2.385621E-09
       130  13 -1.797421E+05 -4.494459E+04 -7.785973E+02 -9.365234E+04 -2.373592E-09  7.698309E-10
       130  14 -1.823825E+05 -4.228917E+04 -4.884269E+02 -9.060342E+04 -1.677954E-09  1.902196E-09
       130  15 -1.797438E+05 -4.495428E+04 -3.799766E+02 -9.364882E+04  4.953573E-10  3.719789E-09
       130  16 -1.733892E+05 -4.268481E+04  4.037638E+02 -9.193133E+04  1.664602E-09 -1.482595E-09
       130  17 -2.031330E+05 -4.988046E+04 -4.619456E+03 -9.638333E+04  5.014391E-09  6.842515E-10
       130  18 -2.275969E+05 -6.239631E+04 -9.822749E+03 -1.069295E+05  7.655258E-09  4.715485E-09
       130  19 -1.860949E+05 -4.720435E+04 -1.960932E+03 -9.537331E+04 -2.189333E+03 -1.432110E+03
       130  20 -1.616316E+05 -3.469788E+04  3.642576E+03 -8.482337E+04 -3.207503E+03  5.357222E+02
       130  21 -1.318883E+05 -2.751205E+04  9.062730E+03 -8.036722E+04 -4.226311E+03  2.505131E+03
       130  22 -1.797421E+05 -4.494459E+04 -7.785961E+02 -9.365234E+04  7.250400E+02 -3.389464E+02
       130  23 -1.823825E+05 -4.228917E+04 -4.884218E+02 -9.060342E+04 -2.908005E+02  1.629800E+03
       130  24 -1.797438E+05 -4.495427E+04 -3.799491E+02 -9.364882E+04 -1.307264E+03  3.600121E+03
       130  25 -1.733892E+05 -4.268480E+04  4.037898E+02 -9.193133E+04  3.639469E+03  7.542382E+02
       130  26 -2.031330E+05 -4.988045E+04 -4.619429E+03 -9.638332E+04  2.625810E+03  2.723843E+03
       130  27 -2.275968E+05 -6.239629E+04 -9.822702E+03 -1.069295E+05  1.611542E+03  4.695021E+03
       131   1 -1.134467E+05 -2.076474E+04  1.289218E+04 -7.526795E+04  4.739891E+03 -3.681782E+03
       131   2 -8.899213E+04 -8.253886E+03  1.810411E+04 -6.472120E+04  5.745450E+03 -5.655161E+03
       131   3 -5.925667E+04 -1.061080E+03  2.314265E+04 -6.026573E+04  6.750019E+03 -7.625400E+03
       131   4 -1.797445E+05 -4.495449E+04 -3.776266E+02 -9.364828E+04  1.820899E+03 -4.776800E+03
       131   5 -1.823846E+05 -4.229343E+04 -4.756196E+02 -9.060341E+04  2.830755E+03 -6.748705E+03
       131   6 -1.797454E+05 -4.495128E+04 -7.503839E+02 -9.365007E+04  3.839614E+03 -8.717479E+03
       131   7 -2.460371E+05 -6.914365E+04 -1.364746E+04 -1.120266E+05 -1.097734E+03 -5.871683E+03
       131   8 -2.757680E+05 -7.633221E+04 -1.905573E+04 -1.164820E+05 -8.346902E+01 -7.842073E+03
       131   9 -3.002200E+05 -8.884059E+04 -2.464434E+04 -1.270287E+05  9.297923E+02 -9.809341E+03
       131  10 -1.134467E+05 -2.076476E+04  1.289211E+04 -7.526794E+04  6.183750E-09  3.578148E-09
       131  11 -8.899218E+04 -8.253929E+03  1.810399E+04 -6.472118E+04  4.045369E-09  8.617266E-10
       131  12 -5.925674E+04 -1.061154E+03  2.314246E+04 -6.026569E+04  2.956755E-09 -1.316696E-09
       131  13 -1.797445E+05 -4.495452E+04 -3.776757E+02 -9.364827E+04  5.314211E-09  3.564200E-09
       131  14 -1.823846E+05 -4.229348E+04 -4.757203E+02 -9.060340E+04  4.995028E-09  1.013400E-09
       131  15 -1.797454E+05 -4.495137E+04 -7.505544E+02 -9.365004E+04  2.051479E-09 -1.416222E-09
       131  16 -2.460372E+05 -6.914369E+04 -1.364752E+04 -1.120266E+05  1.708868E-09  3.443623E-09
       131  17 -2.757680E+05 -7.633227E+04 -1.905584E+04 -1.164820E+05 -4.298940E-09  1.151198E-09
       131  18 -3.002200E+05 -8.884070E+04 -2.464452E+04 -1.270287E+05 -1.660873E-09 -1.028462E-09
       131  19 -1.134467E+05 -2.076474E+04  1.289218E+04 -7.526795E+04 -4.739891E+03  3.681782E+03
       131  20 -8.899213E+04 -8.253886E+03  1.810411E+04 -6.472120E+04 -5.745450E+03  5.655161E+03
       131  21 -5.925667E+04 -1.061080E+03  2.314265E+04 -6.026573E+04 -6.750019E+03  7.625400E+03
       131  22 -1.797445E+05 -4.495449E+04 -3.776266E+02 -9.364828E+04 -1.820899E+03  4.776800E+03
       131  23 -1.823846E+05 -4.229343E+04 -4.756196E+02 -9.060341E+04 -2.830755E+03  6.748705E+03
       131  24 -1.797454E+05 -4.495128E+04 -7.503839E+02 -9.365007E+04 -3.839614E+03  8.717479E+03
       131  25 -2.460371E+05 -6.914365E+04 -1.364746E+04 -1.120266E+05  1.097734E+03  5.871683E+03
       131  26 -2.757680E+05 -7.633221E+04 -1.905573E+04 -1.164820E+05  8.346902E+01  7.842073E+03
       131  27 -3.002200E+05 -8.884059E+04 -2.464434E+04 -1.270287E+05 -9.297923E+02  9.809341E+03
       132   1 -4.083427E+04  5.676871E+03  2.674636E+04 -5.518879E+04  7.350934E+03 -8.768550E+03
       132   2 -1.634119E+04  1.818789E+04  3.132614E+04 -4.464921E+04  8.912796E+03 -1.050961E+04
       132   3  1.333104E+04  2.530741E+04  3.529563E+04 -4.020215E+04  1.045903E+04 -1.220808E+04
       132   4 -1.797685E+05 -4.494835E+04 -9.721650E+02 -9.365907E+04  4.432970E+03 -9.863586E+03
       132   5 -1.823574E+05 -4.227265E+04 -1.717062E+03 -9.060361E+04  6.054776E+03 -1.158241E+04
       132   6 -1.797795E+05 -4.500052E+04 -3.119826E+03 -9.364110E+04  7.660908E+03 -1.325863E+04
       132   7 -3.186828E+05 -9.557190E+04 -2.869156E+04 -1.321214E+05  1.515709E+03 -1.095836E+04
       132   8 -3.483443E+05 -1.027305E+05 -3.476134E+04 -1.365465E+05  3.197588E+03 -1.265489E+04
       132   9 -3.728499E+05 -1.153046E+05 -4.153656E+04 -1.470643E+05  4.863744E+03 -1.430883E+04
       132  10 -4.083435E+04  5.676774E+03  2.674611E+04 -5.518874E+04  3.555657E-10 -3.089993E-09
       132  11 -1.634131E+04  1.818775E+04  3.132578E+04 -4.464914E+04  4.795469E-09  6.739915E-10
       132  12  1.333089E+04  2.530722E+04  3.529514E+04 -4.020204E+04  3.966707E-09  1.585649E-09
       132  13 -1.797686E+05 -4.494846E+04 -9.723848E+02 -9.365903E+04  4.507572E-09 -8.397120E-10
       132  14 -1.823574E+05 -4.227281E+04 -1.717383E+03 -9.060356E+04  8.501066E-09  1.301092E-09
       132  15 -1.797796E+05 -4.500072E+04 -3.120267E+03 -9.364102E+04  3.410563E-09  4.320793E-10
       132  16 -3.186828E+05 -9.557202E+04 -2.869179E+04 -1.321214E+05  7.116321E-09  1.438827E-09
       132  17 -3.483444E+05 -1.027307E+05 -3.476166E+04 -1.365464E+05  7.171174E-09  1.015509E-09
       132  18 -3.728500E+05 -1.153048E+05 -4.153699E+04 -1.470642E+05  2.431755E-09 -7.746302E-10
       132  19 -4.083427E+04  5.676871E+03  2.674636E+04 -5.518879E+04 -7.350934E+03  8.768550E+03
       132  20 -1.634119E+04  1.818789E+04  3.132614E+04 -4.464921E+04 -8.912796E+03  1.050961E+04
       132  21  1.333104E+04  2.530741E+04  3.529563E+04 -4.020215E+04 -1.045903E+04  1.220808E+04
       132  22 -1.797685E+05 -4.494835E+04 -9.721650E+02 -9.365907E+04 -4.432970E+03  9.863586E+03
       132  23 -1.823574E+05 -4.227265E+04 -1.717062E+03 -9.060361E+04 -6.054776E+03  1.158241E+04
       132  24 -1.797795E+05 -4.500052E+04 -3.119826E+03 -9.364110E+04 -7.660908E+03  1.325863E+04
       132  25 -3.186828E+05 -9.557190E+04 -2.869156E+04 -1.321214E+05 -1.515709E+03  1.095836E+04
       132  26 -3.483443E+05 -1.027305E+05 -3.476134E+04 -1.365465E+05 -3.197588E+03  1.265489E+04
       132  27 -3.728499E+05 -1.153046E+05 -4.153656E+04 -1.470643E+05 -4.863744E+03  1.430883E+04
       133   1  3.182354E+04  3.192860E+04  3.809914E+04 -3.545617E+04  1.161251E+04 -1.314360E+04
       133   2  5.611540E+04  4.469321E+04  4.029684E+04 -2.416131E+04  1.518761E+04 -1.379843E+04
       133   3  8.466467E+04  5.042511E+04  3.985944E+04 -1.857366E+04  1.852954E+04 -1.383056E+04
       133   4 -1.799515E+05 -4.490594E+04 -4.143693E+03 -9.374189E+04  8.693337E+03 -1.423975E+04
       133   5 -1.821613E+05 -4.248266E+04 -7.547413E+03 -9.044585E+04  1.314843E+04 -1.456462E+04
       133   6 -1.802896E+05 -4.726754E+04 -1.428453E+04 -9.285781E+04  1.737018E+04 -1.426669E+04
       133   7 -3.916820E+05 -1.217374E+05 -4.638913E+04 -1.520098E+05  5.775212E+03 -1.533552E+04
       133   8 -4.203804E+05 -1.296540E+05 -5.539470E+04 -1.567071E+05  1.111009E+04 -1.533049E+04
       133   9 -4.451717E+05 -1.449540E+05 -6.843209E+04 -1.671126E+05  1.621135E+04 -1.470262E+04
       133  10  3.182334E+04  3.192838E+04  3.809856E+04 -3.545605E+04  3.566602E-09 -1.053125E-11
       133  11  5.611510E+04  4.469295E+04  4.029605E+04 -2.416115E+04  2.898689E-09  1.504810E-09
       133  12  8.466425E+04  5.042482E+04  3.985844E+04 -1.857346E+04  1.112868E-09  1.437237E-09
       133  13 -1.799516E+05 -4.490618E+04 -4.144216E+03 -9.374179E+04  1.963566E-09  3.204917E-10
       133  14 -1.821615E+05 -4.248294E+04 -7.548137E+03 -9.044570E+04  6.377609E-09  1.049406E-09
       133  15 -1.802899E+05 -4.726784E+04 -1.428548E+04 -9.285761E+04 -8.356894E-10  2.177527E-10
       133  16 -3.916821E+05 -1.217377E+05 -4.638963E+04 -1.520097E+05  1.931873E-09  9.228231E-10
       133  17 -4.203806E+05 -1.296543E+05 -5.539538E+04 -1.567070E+05  4.272931E-09  7.009321E-10
       133  18 -4.451721E+05 -1.449543E+05 -6.843299E+04 -1.671124E+05 -7.230560E-10 -9.916097E-10
       133  19  3.182354E+04  3.192860E+04  3.809914E+04 -3.545617E+04 -1.161251E+04  1.314360E+04
       133  20  5.611540E+04  4.469321E+04  4.029684E+04 -2.416131E+04 -1.518761E+04  1.379843E+04
       133  21  8.466467E+04  5.042511E+04  3.985944E+04 -1.857366E+04 -1.852954E+04  1.383056E+04
       133  22 -1.799515E+05 -4.490594E+04 -4.143693E+03 -9.374189E+04 -8.693337E+03  1.423975E+04
       133  23 -1.821613E+05 -4.248266E+04 -7.547413E+03 -9.044585E+04 -1.314843E+04  1.456462E+04
       133  24 -1.802896E+05 -4.726754E+04 -1.428453E+04 -9.285781E+04 -1.737018E+04  1.426669E+04
       133  25 -3.916820E+05 -1.217374E+05 -4.638913E+04 -1.520098E+05 -5.775212E+03  1.533552E+04
       133  26 -4.203804E+05 -1.296540E+05 -5.539470E+04 -1.567071E+05 -1.111009E+04  1.533049E+04
       133  27 -4.451717E+05 -1.449540E+05 -6.843209E+04 -1.671126E+05 -1.621135E+04  1.470262E+04
       134   1  1.058655E+05  5.474015E+04  3.936063E+04 -2.063540E+04  2.295645E+04 -1.355149E+04
       134   2  1.192995E+05  7.427096E+04  3.290057E+04  1.225434E+04  2.730859E+04 -9.038118E+03
       134   3  1.216834E+05  4.851145E+04  1.139480E+04  5.030996E+04  2.819183E+04  4.710043E+03
       134   4 -1.826448E+05 -4.506445E+04 -1.869304E+04 -9.466501E+04  1.998541E+04 -1.466786E+04
       134   5 -1.800408E+05 -5.099011E+04 -3.495352E+04 -8.603271E+04  3.740650E+04 -5.247121E+03
       134   6 -1.910850E+05 -1.048099E+05 -7.662098E+04 -7.223372E+04  5.135728E+04  1.340991E+04
       134   7 -4.710694E+05 -1.448640E+05 -7.675065E+04 -1.686637E+05  1.701585E+04 -1.578373E+04
       134   8 -4.792854E+05 -1.762348E+05 -1.028118E+05 -1.842723E+05  4.749904E+04 -1.458763E+03
       134   9 -5.037460E+05 -2.580989E+05 -1.646411E+05 -1.947115E+05  7.450947E+04  2.210141E+04
       134  10  1.058649E+05  5.473981E+04  3.935929E+04 -2.063515E+04 -3.854701E-09  3.697179E-11
       134  11  1.192987E+05  7.427067E+04  3.289902E+04  1.225454E+04 -5.073284E-10  6.829563E-11
       134  12  1.216826E+05  4.851122E+04  1.139327E+04  5.030985E+04  2.298735E-09  8.155659E-10
       134  13 -1.826453E+05 -4.506479E+04 -1.869420E+04 -9.466478E+04 -4.004796E-09 -7.755728E-11
       134  14 -1.800423E+05 -5.099051E+04 -3.495620E+04 -8.603255E+04 -1.233887E-09  5.153062E-10
       134  15 -1.910879E+05 -1.048108E+05 -7.662627E+04 -7.223427E+04  3.198652E-09  1.859749E-09
       134  16 -4.710697E+05 -1.448644E+05 -7.675166E+04 -1.686635E+05  1.310562E-10 -4.977154E-10
       134  17 -4.792878E+05 -1.762354E+05 -1.028160E+05 -1.842723E+05  3.844315E-11  4.714138E-10
       134  18 -5.037521E+05 -2.581009E+05 -1.646525E+05 -1.947128E+05  1.200877E-09 -3.504029E-10
       134  19  1.058655E+05  5.474015E+04  3.936063E+04 -2.063540E+04 -2.295645E+04  1.355149E+04
       134  20  1.192995E+05  7.427096E+04  3.290057E+04  1.225434E+04 -2.730859E+04  9.038118E+03
       134  21  1.216834E+05  4.851145E+04  1.139480E+04  5.030996E+04 -2.819183E+04 -4.710043E+03
       134  22 -1.826448E+05 -4.506445E+04 -1.869304E+04 -9.466501E+04 -1.998541E+04  1.466786E+04
       134  23 -1.800408E+05 -5.099011E+04 -3.495352E+04 -8.603271E+04 -3.740650E+04  5.247121E+03
       134  24 -1.910850E+05 -1.048099E+05 -7.662098E+04 -7.223372E+04 -5.135728E+04 -1.340991E+04
       134  25 -4.710694E+05 -1.448640E+05 -7.675065E+04 -1.686637E+05 -1.701585E+04  1.578373E+04
       134  26 -4.792854E+05 -1.762348E+05 -1.028118E+05 -1.842723E+05 -4.749904E+04  1.458763E+03
       134  27 -5.037460E+05 -2.580989E+05 -1.646411E+05 -1.947115E+05 -7.450947E+04 -2.210141E+04
       135   1  8.918678E+05  1.412100E+05  1.257077E+05  1.543720E+04  3.693718E+04 -1.060287E+04
       135   2  8.544368E+05  1.568919E+05  1.051055E+05  2.885648E+04  1.518559E+04 -3.665648E+04
       135   3  8.158436E+05  1.564927E+05  9.465189E+04  4.770806E+04 -6.575631E+03 -4.643576E+04
       135   4  1.187862E+05 -4.888697E+04 -5.248280E+04  4.752774E+04 -3.692852E+04 -1.066872E+04
       135   5  1.224304E+05 -1.565019E+04 -2.621467E+04  4.478777E+04 -2.349083E+04 -3.669880E+04
       135   6  1.188008E+05 -4.612387E+03 -1.422309E+04  4.747983E+04 -1.006448E+04 -4.644461E+04
       135   7 -6.537292E+05 -2.390189E+05 -2.306919E+05  7.957792E+04 -1.107030E+05 -1.074224E+04
       135   8 -6.090503E+05 -1.882203E+05 -1.575497E+05  6.069963E+04 -6.212298E+04 -3.674313E+04
       135   9 -5.777578E+05 -1.657413E+05 -1.231096E+05  4.725171E+04 -1.354955E+04 -4.645347E+04
       135  10  8.918663E+05  1.412095E+05  1.257049E+05  1.543752E+04  9.247777E-08 -1.521602E-09
       135  11  8.544362E+05  1.568904E+05  1.051025E+05  2.885692E+04 -1.952748E-09 -6.746905E-09
       135  12  8.158429E+05  1.564904E+05  9.464776E+04  4.770782E+04 -1.035820E-07 -8.700696E-09
       135  13  1.187847E+05 -4.888746E+04 -5.248558E+04  4.752742E+04 -2.091011E-09  1.674050E-09
       135  14  1.224295E+05 -1.565178E+04 -2.621824E+04  4.478708E+04 -2.000569E-09  3.964337E-09
       135  15  1.188001E+05 -4.614731E+03 -1.422733E+04  4.747945E+04 -5.007081E-10  1.033758E-08
       135  16 -6.537424E+05 -2.390223E+05 -2.307152E+05  7.957696E+04 -9.576620E-08 -9.645912E-10
       135  17 -6.090549E+05 -1.882228E+05 -1.575595E+05  6.069779E+04  1.348335E-09 -7.649276E-09
       135  18 -5.777585E+05 -1.657437E+05 -1.231140E+05  4.725121E+04  1.081193E-07 -1.036014E-08
       135  19  8.918678E+05  1.412100E+05  1.257077E+05  1.543720E+04 -3.693718E+04  1.060287E+04
       135  20  8.544368E+05  1.568919E+05  1.051055E+05  2.885648E+04 -1.518559E+04  3.665648E+04
       135  21  8.158436E+05  1.564927E+05  9.465189E+04  4.770806E+04  6.575631E+03  4.643576E+04
       135  22  1.187862E+05 -4.888697E+04 -5.248280E+04  4.752774E+04  3.692852E+04  1.066872E+04
       135  23  1.224304E+05 -1.565019E+04 -2.621467E+04  4.478777E+04  2.349083E+04  3.669880E+04
       135  24  1.188008E+05 -4.612387E+03 -1.422309E+04  4.747983E+04  1.006448E+04  4.644461E+04
       135  25 -6.537292E+05 -2.390189E+05 -2.306919E+05  7.957792E+04  1.107030E+05  1.074224E+04
       135  26 -6.090503E+05 -1.882203E+05 -1.575497E+05  6.069963E+04  6.212298E+04  3.674313E+04
       135  27 -5.777578E+05 -1.657413E+05 -1.231096E+05  4.725171E+04  1.354955E+04  4.645347E+04
       136   1  7.925852E+05  1.512752E+05  9.161868E+04  4.639757E+04 -4.984989E+03 -4.673536E+04
       136   2  7.547800E+05  1.441990E+05  8.622220E+04  4.418485E+04 -6.353434E+03 -4.724852E+04
       136   3  7.168932E+05  1.360512E+05  8.145217E+04  4.857286E+04 -7.724681E+03 -4.578552E+04
       136   4  1.202401E+05 -3.571841E+03 -1.066289E+04  4.774247E+04 -8.220711E+03 -4.674406E+04
       136   5  1.206598E+05 -9.597466E+02 -5.793538E+03  4.443959E+04 -5.318528E+03 -4.725201E+04
       136   6  1.202557E+05 -1.607957E+02 -3.262505E+03  4.773791E+04 -2.419150E+03 -4.578275E+04
       136   7 -5.516527E+05 -1.584405E+05 -1.129540E+05  4.908571E+04 -1.145307E+04 -4.675278E+04
       136   8 -5.130552E+05 -1.461369E+05 -9.781586E+04  4.469394E+04 -4.284631E+03 -4.725549E+04
       136   9 -4.760220E+05 -1.363889E+05 -8.798213E+04  4.690367E+04  2.881507E+03 -4.577999E+04
       136  10  7.925846E+05  1.512728E+05  9.161453E+04  4.639738E+04  9.231424E-08 -7.125571E-09
       136  11  7.547794E+05  1.441966E+05  8.621793E+04  4.418461E+04  7.760099E-09  7.979255E-10
       136  12  7.168926E+05  1.360490E+05  8.144812E+04  4.857257E+04 -9.099286E-08  2.755157E-09
       136  13  1.202394E+05 -3.574206E+03 -1.066712E+04  4.774216E+04  4.124015E-12  1.010929E-08
       136  14  1.206592E+05 -9.621519E+02 -5.797787E+03  4.443939E+04  4.502418E-09  8.590052E-09
       136  15  1.202551E+05 -1.630482E+02 -3.266455E+03  4.773782E+04 -7.727743E-11  9.384717E-10
       136  16 -5.516534E+05 -1.584429E+05 -1.129583E+05  4.908528E+04 -9.373976E-08 -6.786285E-09
       136  17 -5.130558E+05 -1.461393E+05 -9.782009E+04  4.469377E+04 -7.355272E-09 -1.570588E-09
       136  18 -4.760226E+05 -1.363911E+05 -8.798609E+04  4.690377E+04  9.189680E-08 -4.998466E-10
       136  19  7.925852E+05  1.512752E+05  9.161868E+04  4.639757E+04  4.984989E+03  4.673536E+04
       136  20  7.547800E+05  1.441990E+05  8.622220E+04  4.418485E+04  6.353434E+03  4.724852E+04
       136  21  7.168932E+05  1.360512E+05  8.145217E+04  4.857286E+04  7.724681E+03  4.578552E+04
       136  22  1.202401E+05 -3.571841E+03 -1.066289E+04  4.774247E+04  8.220711E+03  4.674406E+04
       136  23  1.206598E+05 -9.597466E+02 -5.793538E+03  4.443959E+04  5.318528E+03  4.725201E+04
       136  24  1.202557E+05 -1.607957E+02 -3.262505E+03  4.773791E+04  2.419150E+03  4.578275E+04
       136  25 -5.516527E+05 -1.584405E+05 -1.129540E+05  4.908571E+04  1.145307E+04  4.675278E+04
       136  26 -5.130552E+05 -1.461369E+05 -9.781586E+04  4.469394E+04  4.284631E+03  4.725549E+04
       136  27 -4.760220E+05 -1.363889E+05 -8.798213E+04  4.690367E+04 -2.881507E+03  4.577999E+04
       137   1  6.932972E+05  1.306017E+05  7.843279E+04  4.841873E+04 -7.267686E+03 -4.427967E+04
       137   2  6.555070E+05  1.220432E+05  7.369059E+04  4.505979E+04 -7.098487E+03 -4.169262E+04
       137   3  6.176840E+05  1.134548E+05  6.882987E+04  4.843749E+04 -6.930493E+03 -3.886606E+04
       137   4  1.204164E+05 -9.903948E+01 -2.464714E+03  4.776844E+04 -1.932627E+03 -4.427629E+04
       137   5  1.204853E+05  7.173001E+01 -1.388112E+03  4.439978E+04 -1.246292E+03 -4.168760E+04
       137   6  1.204300E+05  1.228338E+02 -7.893126E+02  4.776810E+04 -5.611517E+02 -3.885929E+04
       137   7 -4.521324E+05 -1.308145E+05 -8.336660E+04  4.711866E+04  3.397728E+03 -4.427292E+04
       137   8 -4.142466E+05 -1.219125E+05 -7.647043E+04  4.374026E+04  4.601086E+03 -4.168259E+04
       137   9 -3.765733E+05 -1.132201E+05 -7.041152E+04  4.709917E+04  5.803316E+03 -3.885253E+04
       137  10  6.932966E+05  1.305996E+05  7.842901E+04  4.841847E+04 -9.971439E-09  2.660929E-09
       137  11  6.555065E+05  1.220413E+05  7.368723E+04  4.505955E+04 -3.034836E-10  7.047858E-10
       137  12  6.176835E+05  1.134531E+05  6.882694E+04  4.843727E+04 -1.545907E-09 -1.425603E-09
       137  13  1.204158E+05 -1.011457E+02 -2.468405E+03  4.776837E+04 -2.234215E-09 -1.885610E-09
       137  14  1.204848E+05  6.986333E+01 -1.391381E+03  4.439974E+04  6.649632E-09  1.432733E-09
       137  15  1.204296E+05  1.212121E+02 -7.921510E+02  4.776808E+04  5.916357E-09  2.039302E-09
       137  16 -4.521330E+05 -1.308166E+05 -8.337031E+04  4.711878E+04  6.649532E-09  4.826890E-10
       137  17 -4.142471E+05 -1.219143E+05 -7.647373E+04  4.374041E+04  1.598611E-09  2.166640E-09
       137  18 -3.765738E+05 -1.132217E+05 -7.041442E+04  4.709935E+04  4.277921E-10 -2.644179E-10
       137  19  6.932972E+05  1.306017E+05  7.843279E+04  4.841873E+04  7.267686E+03  4.427967E+04
       137  20  6.555070E+05  1.220432E+05  7.369059E+04  4.505979E+04  7.098487E+03  4.169262E+04
       137  21  6.176840E+05  1.134548E+05  6.882987E+04  4.843749E+04  6.930493E+03  3.886606E+04
       137  22  1.204164E+05 -9.903948E+01 -2.464714E+03  4.776844E+04  1.932627E+03  4.427629E+04
       137  23  1.204853E+05  7.173001E+01 -1.388112E+03  4.439978E+04  1.246292E+03  4.168760E+04
       137  24  1.204300E+05  1.228338E+02 -7.893126E+02  4.776810E+04  5.611517E+02  3.885929E+04
       137  25 -4.521324E+05 -1.308145E+05 -8.336660E+04  4.711866E+04 -3.397728E+03  4.427292E+04
       137  26 -4.142466E+05 -1.219125E+05 -7.647043E+04  4.374026E+04 -4.601086E+03  4.168259E+04
       137  27 -3.765733E+05 -1.132201E+05 -7.041152E+04  4.709917E+04 -5.803316E+03  3.885253E+04
       138   1  5.940793E+05  1.080393E+05  6.554500E+04  4.839948E+04 -6.811429E+03 -3.714194E+04
       138   2  5.563042E+05  9.943051E+04  6.053019E+04  4.498324E+04 -6.711845E+03 -3.417988E+04
       138   3  5.185104E+05  9.084795E+04  5.545307E+04  4.831606E+04 -6.613057E+03 -3.118915E+04
       138   4  1.204549E+05  1.255966E+02 -5.957020E+02  4.777089E+04 -4.393577E+02 -3.713463E+04
       138   5  1.204763E+05  1.262988E+02 -3.335928E+02  4.439622E+04 -2.781471E+02 -3.417164E+04
       138   6  1.204661E+05  1.423895E+02 -1.769201E+02  4.777087E+04 -1.177281E+02 -3.117998E+04
       138   7 -3.529421E+05 -1.077980E+05 -6.673907E+04  4.714271E+04  5.928071E+03 -3.712732E+04
       138   8 -3.151590E+05 -9.918633E+04 -6.119961E+04  4.380954E+04  6.151237E+03 -3.416342E+04
       138   9 -2.774175E+05 -9.057019E+04 -5.580876E+04  4.722598E+04  6.373623E+03 -3.117082E+04
       138  10  5.940789E+05  1.080378E+05  6.554232E+04  4.839928E+04 -1.312950E-09 -6.764299E-10
       138  11  5.563039E+05  9.942924E+04  6.052791E+04  4.498306E+04 -4.470164E-09  4.132978E-09
       138  12  5.185101E+05  9.084689E+04  5.545116E+04  4.831590E+04 -4.964937E-09  2.628941E-09
       138  13  1.204546E+05  1.241157E+02 -5.982939E+02  4.777088E+04  6.468462E-09 -2.733218E-10
       138  14  1.204760E+05  1.250448E+02 -3.357874E+02  4.439621E+04  2.448609E-09  3.826431E-09
       138  15  1.204659E+05  1.413455E+02 -1.787472E+02  4.777087E+04 -2.768117E-09 -3.871448E-10
       138  16 -3.529425E+05 -1.077995E+05 -6.674173E+04  4.714288E+04  2.103005E-09 -4.695312E-10
       138  17 -3.151594E+05 -9.918759E+04 -6.120188E+04  4.380971E+04  9.416501E-10 -7.581917E-10
       138  18 -2.774178E+05 -9.057124E+04 -5.581067E+04  4.722614E+04  3.260103E-09 -1.389558E-10
       138  19  5.940793E+05  1.080393E+05  6.554500E+04  4.839948E+04  6.811429E+03  3.714194E+04
       138  20  5.563042E+05  9.943051E+04  6.053019E+04  4.498324E+04  6.711845E+03  3.417988E+04
       138  21  5.185104E+05  9.084795E+04  5.545307E+04  4.831606E+04  6.613057E+03  3.118915E+04
       138  22  1.204549E+05  1.255966E+02 -5.957020E+02  4.777089E+04  4.393577E+02  3.713463E+04
       138  23  1.204763E+05  1.262988E+02 -3.335928E+02  4.439622E+04  2.781471E+02  3.417164E+04
       138  24  1.204661E+05  1.423895E+02 -1.769201E+02  4.777087E+04  1.177281E+02  3.117998E+04
       138  25 -3.529421E+05 -1.077980E+05 -6.673907E+04  4.714271E+04 -5.928071E+03  3.712732E+04
       138  26 -3.151590E+05 -9.918633E+04 -6.119961E+04  4.380954E+04 -6.151237E+03  3.416342E+04
       138  27 -2.774175E+05 -9.057019E+04 -5.580876E+04  4.722598E+04 -6.373623E+03  3.117082E+04
       139   1  4.949124E+05  8.544522E+04  5.207069E+04  4.829000E+04 -6.587984E+03 -2.943918E+04
       139   2  4.571529E+05  7.684583E+04  4.694458E+04  4.487176E+04 -6.579068E+03 -2.643279E+04
       139   3  4.193780E+05  6.827366E+04  4.181270E+04  4.820521E+04 -6.570737E+03 -2.342362E+04
       139   4  1.204727E+05  1.450251E+02 -1.228649E+02  4.777145E+04 -9.303117E+01 -2.942957E+04
       139   5  1.204857E+05  1.378020E+02 -3.930762E+01  4.439549E+04 -7.824708E+01 -2.642254E+04
       139   6  1.204814E+05  1.569720E+02  3.446891E+01  4.777144E+04 -6.404626E+01 -2.341272E+04
       139   7 -2.538248E+05 -8.516137E+04 -5.231800E+04  4.725316E+04  6.398180E+03 -2.941998E+04
       139   8 -2.160665E+05 -7.657524E+04 -4.702445E+04  4.391945E+04  6.419206E+03 -2.641229E+04
       139   9 -1.783245E+05 -6.796367E+04 -4.174474E+04  4.733785E+04  6.439651E+03 -2.340181E+04
       139  10  4.949122E+05  8.544428E+04  5.206898E+04  4.828985E+04 -2.399278E-08  2.299769E-11
       139  11  4.571526E+05  7.684507E+04  4.694318E+04  4.487162E+04  5.993200E-09  1.721336E-09
       139  12  4.193778E+05  6.827306E+04  4.181159E+04  4.820509E+04  3.190911E-08  3.665722E-09
       139  13  1.204725E+05  1.440950E+02 -1.244926E+02  4.777145E+04 -2.066037E-09  1.977586E-09
       139  14  1.204855E+05  1.370523E+02 -4.061966E+01  4.439549E+04 -4.044774E-09 -7.364481E-09
       139  15  1.204813E+05  1.563833E+02  3.343875E+01  4.777144E+04 -3.292021E-09 -1.290658E-08
       139  16 -2.538250E+05 -8.516231E+04 -5.231970E+04  4.725331E+04  2.034075E-08  2.262587E-09
       139  17 -2.160667E+05 -7.657600E+04 -4.702584E+04  4.391958E+04 -9.202755E-09  1.631170E-09
       139  18 -1.783247E+05 -6.796427E+04 -4.174585E+04  4.733797E+04 -3.548368E-08  5.143379E-09
       139  19  4.949124E+05  8.544522E+04  5.207069E+04  4.829000E+04  6.587984E+03  2.943918E+04
       139  20  4.571529E+05  7.684583E+04  4.694458E+04  4.487176E+04  6.579068E+03  2.643279E+04
       139  21  4.193780E+05  6.827366E+04  4.181270E+04  4.820521E+04  6.570737E+03  2.342362E+04
       139  22  1.204727E+05  1.450251E+02 -1.228649E+02  4.777145E+04  9.303117E+01  2.942957E+04
       139  23  1.204857E+05  1.378020E+02 -3.930762E+01  4.439549E+04  7.824708E+01  2.642254E+04
       139  24  1.204814E+05  1.569720E+02  3.446891E+01  4.777144E+04  6.404626E+01  2.341272E+04
       139  25 -2.538248E+05 -8.516137E+04 -5.231800E+04  4.725316E+04 -6.398180E+03  2.941998E+04
       139  26 -2.160665E+05 -7.657524E+04 -4.702445E+04  4.391945E+04 -6.419206E+03  2.641229E+04
       139  27 -1.783245E+05 -6.796367E+04 -4.174474E+04  4.733785E+04 -6.439651E+03  2.340181E+04
       140   1  3.957911E+05  6.287407E+04  3.842056E+04  4.817862E+04 -6.582530E+03 -2.167131E+04
       140   2  3.580386E+05  5.428152E+04  3.331583E+04  4.475170E+04 -6.666496E+03 -1.866239E+04
       140   3  3.202822E+05  4.573369E+04  2.826852E+04  4.807341E+04 -6.750862E+03 -1.565641E+04
       140   4  1.204868E+05  1.597246E+02  7.310131E+01  4.777076E+04 -7.646122E+01 -2.166007E+04
       140   5  1.204920E+05  1.560798E+02  1.717760E+02  4.439633E+04 -1.669378E+02 -1.865072E+04
       140   6  1.204929E+05  1.983222E+02  3.322899E+02  4.777069E+04 -2.578175E+02 -1.564430E+04
       140   7 -1.547405E+05 -6.255796E+04 -3.827514E+04  4.736304E+04  6.426851E+03 -2.164885E+04
       140   8 -1.169973E+05 -5.397184E+04 -3.297282E+04  4.404108E+04  6.330245E+03 -1.863905E+04
       140   9 -7.925579E+04 -4.533880E+04 -2.760429E+04  4.746806E+04  6.233231E+03 -1.563219E+04
       140  10  3.957909E+05  6.287355E+04  3.841960E+04  4.817851E+04 -1.031129E-07  5.885289E-09
       140  11  3.580385E+05  5.428113E+04  3.331509E+04  4.475160E+04 -2.360540E-09  2.598247E-09
       140  12  3.202821E+05  4.573341E+04  2.826797E+04  4.807332E+04  8.877259E-08  1.324649E-09
       140  13  1.204867E+05  1.592207E+02  7.221961E+01  4.777075E+04 -4.478246E-12 -1.202949E-08
       140  14  1.204919E+05  1.557062E+02  1.711222E+02  4.439633E+04 -3.041968E-09 -8.733504E-09
       140  15  1.204929E+05  1.980593E+02  3.318298E+02  4.777069E+04 -1.710314E-09 -1.046784E-09
       140  16 -1.547407E+05 -6.255847E+04 -3.827610E+04  4.736315E+04  1.049952E-07  7.679226E-09
       140  17 -1.169974E+05 -5.397223E+04 -3.297355E+04  4.404118E+04  7.128990E-09 -5.046725E-09
       140  18 -7.925590E+04 -4.533907E+04 -2.760482E+04  4.746814E+04 -8.769107E-08 -1.908708E-09
       140  19  3.957911E+05  6.287407E+04  3.842056E+04  4.817862E+04  6.582530E+03  2.167131E+04
       140  20  3.580386E+05  5.428152E+04  3.331583E+04  4.475170E+04  6.666496E+03  1.866239E+04
       140  21  3.202822E+05  4.573369E+04  2.826852E+04  4.807341E+04  6.750862E+03  1.565641E+04
       140  22  1.204868E+05  1.597246E+02  7.310131E+01  4.777076E+04  7.646122E+01  2.166007E+04
       140  23  1.204920E+05  1.560798E+02  1.717760E+02  4.439633E+04  1.669378E+02  1.865072E+04
       140  24  1.204929E+05  1.983222E+02  3.322899E+02  4.777069E+04  2.578175E+02  1.564430E+04
       140  25 -1.547405E+05 -6.255796E+04 -3.827514E+04  4.736304E+04 -6.426851E+03  2.164885E+04
       140  26 -1.169973E+05 -5.397184E+04 -3.297282E+04  4.404108E+04 -6.330245E+03  1.863905E+04
       140  27 -7.925579E+04 -4.533880E+04 -2.760429E+04  4.746806E+04 -6.233231E+03  1.563219E+04
       141   1  2.967198E+05  4.034155E+04  2.494922E+04  4.806465E+04 -6.819504E+03 -1.390695E+04
       141   2  2.589328E+05  3.184822E+04  2.008089E+04  4.448571E+04 -7.171775E+03 -1.091598E+04
       141   3  2.212308E+05  2.362839E+04  1.550080E+04  4.765155E+04 -7.524212E+03 -7.950691E+03
       141   4  1.205162E+05  2.082760E+02  4.467217E+02  4.776990E+04 -3.272825E+02 -1.389463E+04
       141   5  1.204716E+05  3.068599E+02  8.038696E+02  4.439702E+04 -7.352176E+02 -1.090350E+04
       141   6  1.205197E+05  6.885073E+02  1.487647E+03  4.776898E+04 -1.143336E+03 -7.938066E+03
       141   7 -5.565590E+04 -3.992636E+04 -2.405600E+04  4.747523E+04  6.163179E+03 -1.388231E+04
       141   8 -1.797009E+04 -3.123533E+04 -1.847323E+04  4.430834E+04  5.699969E+03 -1.089102E+04
       141   9  1.981889E+04 -2.225180E+04 -1.252548E+04  4.788639E+04  5.236551E+03 -7.925438E+03
       141  10  2.967197E+05  4.034133E+04  2.494877E+04  4.806457E+04 -6.323434E-09  4.243495E-09
       141  11  2.589327E+05  3.184808E+04  2.008057E+04  4.448565E+04  7.015972E-09  1.456937E-09
       141  12  2.212308E+05  2.362830E+04  1.550058E+04  4.765150E+04  1.077244E-08  4.503724E-09
       141  13  1.205161E+05  2.080686E+02  4.463586E+02  4.776990E+04  2.148040E-09  3.218622E-09
       141  14  1.204716E+05  3.067321E+02  8.036451E+02  4.439701E+04 -4.059761E-09  4.890297E-09
       141  15  1.205197E+05  6.884393E+02  1.487526E+03  4.776898E+04 -1.168598E-09  3.900122E-11
       141  16 -5.565600E+04 -3.992657E+04 -2.405643E+04  4.747530E+04  7.178463E-09  1.217239E-09
       141  17 -1.797016E+04 -3.123547E+04 -1.847351E+04  4.430839E+04 -8.164298E-09  3.057045E-09
       141  18  1.981885E+04 -2.225187E+04 -1.252565E+04  4.788643E+04 -9.910108E-09 -2.431867E-09
       141  19  2.967198E+05  4.034155E+04  2.494922E+04  4.806465E+04  6.819504E+03  1.390695E+04
       141  20  2.589328E+05  3.184822E+04  2.008089E+04  4.448571E+04  7.171775E+03  1.091598E+04
       141  21  2.212308E+05  2.362839E+04  1.550080E+04  4.765155E+04  7.524212E+03  7.950691E+03
       141  22  1.205162E+05  2.082760E+02  4.467217E+02  4.776990E+04  3.272825E+02  1.389463E+04
       141  23  1.204716E+05  3.068599E+02  8.038696E+02  4.439702E+04  7.352176E+02  1.090350E+04
       141  24  1.205197E+05  6.885073E+02  1.487647E+03  4.776898E+04  1.143336E+03  7.938066E+03
       141  25 -5.565590E+04 -3.992636E+04 -2.405600E+04  4.747523E+04 -6.163179E+03  1.388231E+04
       141  26 -1.797009E+04 -3.123533E+04 -1.847323E+04  4.430834E+04 -5.699969E+03  1.089102E+04
       141  27  1.981889E+04 -2.225180E+04 -1.252548E+04  4.788639E+04 -5.236551E+03  7.925438E+03
       142   1  1.978387E+05  1.836349E+04  1.253003E+04  4.783381E+04 -7.781230E+03 -6.225083E+03
       142   2  1.596479E+05  1.126107E+04  8.785757E+03  4.215057E+04 -9.204332E+03 -3.381543E+03
       142   3  1.223749E+05  7.216487E+03  6.722256E+03  4.319336E+04 -1.062705E+04 -7.487639E+02
       142   4  1.207212E+05  8.340649E+02  1.986192E+03  4.776574E+04 -1.403957E+03 -6.212363E+03
       142   5  1.202236E+05  2.363808E+03  3.662700E+03  4.439668E+04 -3.282486E+03 -3.369697E+03
       142   6  1.207219E+05  7.030673E+03  7.336240E+03  4.775356E+04 -5.160712E+03 -7.378099E+02
       142   7  4.360981E+04 -1.669559E+04 -8.557553E+03  4.769769E+04  4.972560E+03 -6.199645E+03
       142   8  8.080091E+04 -6.533476E+03 -1.460231E+03  4.664264E+04  2.639001E+03 -3.357808E+03
       142   9  1.190689E+05  6.844954E+03  7.950349E+03  5.231374E+04  3.056158E+02 -7.267756E+02
       142  10  1.978387E+05  1.836343E+04  1.252984E+04  4.783377E+04 -3.997318E-09  2.933672E-09
       142  11  1.596478E+05  1.126103E+04  8.785576E+03  4.215055E+04 -7.254105E-10 -7.298111E-10
       142  12  1.223748E+05  7.216456E+03  6.722043E+03  4.319336E+04 -1.280564E-10 -1.039655E-09
       142  13  1.207212E+05  8.340230E+02  1.986116E+03  4.776574E+04  2.238257E-09  3.718264E-09
       142  14  1.202235E+05  2.363793E+03  3.662658E+03  4.439667E+04 -8.989098E-10 -5.266242E-09
       142  15  1.207219E+05  7.030665E+03  7.336189E+03  4.775356E+04  1.871698E-09  2.282866E-09
       142  16  4.360978E+04 -1.669564E+04 -8.557672E+03  4.769771E+04  3.823608E-09  7.882169E-10
       142  17  8.080090E+04 -6.533490E+03 -1.460265E+03  4.664265E+04 -1.424390E-09  1.528786E-09
       142  18  1.190689E+05  6.844953E+03  7.950348E+03  5.231374E+04  6.615307E-11 -5.706783E-10
       142  19  1.978387E+05  1.836349E+04  1.253003E+04  4.783381E+04  7.781230E+03  6.225083E+03
       142  20  1.596479E+05  1.126107E+04  8.785757E+03  4.215057E+04  9.204332E+03  3.381543E+03
       142  21  1.223749E+05  7.216487E+03  6.722256E+03  4.319336E+04  1.062705E+04  7.487639E+02
       142  22  1.207212E+05  8.340649E+02  1.986192E+03  4.776574E+04  1.403957E+03  6.212363E+03
       142  23  1.202236E+05  2.363808E+03  3.662700E+03  4.439668E+04  3.282486E+03  3.369697E+03
       142  24  1.207219E+05  7.030673E+03  7.336240E+03  4.775356E+04  5.160712E+03  7.378099E+02
       142  25  4.360981E+04 -1.669559E+04 -8.557553E+03  4.769769E+04 -4.972560E+03  6.199645E+03
       142  26  8.080091E+04 -6.533476E+03 -1.460231E+03  4.664264E+04 -2.639001E+03  3.357808E+03
       142  27  1.190689E+05  6.844954E+03  7.950349E+03  5.231374E+04 -3.056158E+02  7.267756E+02
       143   1  1.199158E+04  4.249545E+05  1.321481E+04 -3.492992E+04 -2.298885E+02  2.887303E+03
       143   2 -1.750294E+03  3.913620E+05  3.071767E+03 -2.842868E+04 -1.463658E+03 -7.142022E+02
       143   3 -1.067523E+04  3.594265E+05 -3.527557E+03 -3.015324E+04 -3.402840E+03 -4.316102E+03
       143   4  7.034130E+03  4.053311E+05  8.085652E+03 -3.059063E+04 -2.310020E+02  4.224746E+03
       143   5  1.264310E+03  4.045959E+05  4.936551E+03 -2.648060E+04 -1.465680E+03  1.690310E+03
       143   6  1.264178E+02  4.053320E+05  4.590710E+03 -3.059626E+04 -3.405737E+03 -8.446831E+02
       143   7  2.076722E+03  3.857082E+05  2.956484E+03 -2.625147E+04 -2.320969E+02  5.562146E+03
       143   8  4.278924E+03  4.178299E+05  6.801356E+03 -2.453247E+04 -1.467687E+03  4.094871E+03
       143   9  1.092796E+04  4.512395E+05  1.270894E+04 -3.103931E+04 -3.408640E+03  2.626985E+03
       143  10  1.199158E+04  4.249545E+05  1.321479E+04 -3.492992E+04 -1.031101E-10  4.708952E-09
       143  11 -1.750296E+03  3.913620E+05  3.071762E+03 -2.842868E+04 -2.567914E-09 -2.342045E-09
       143  12 -1.067525E+04  3.594265E+05 -3.527613E+03 -3.015325E+04 -1.090560E-09 -3.816577E-09
       143  13  7.034125E+03  4.053311E+05  8.085618E+03 -3.059063E+04  5.548844E-09 -8.808697E-10
       143  14  1.264307E+03  4.045959E+05  4.936541E+03 -2.648060E+04 -5.009917E-09 -9.018204E-10
       143  15  1.264052E+02  4.053320E+05  4.590686E+03 -3.059626E+04 -1.642099E-09 -1.448562E-10
       143  16  2.076713E+03  3.857081E+05  2.956426E+03 -2.625147E+04  9.898204E-10 -3.828401E-09
       143  17  4.278917E+03  4.178299E+05  6.801320E+03 -2.453247E+04  4.360934E-09 -4.710894E-10
       143  18  1.092794E+04  4.512395E+05  1.270891E+04 -3.103930E+04  2.996055E-09  4.438422E-09
       143  19  1.199158E+04  4.249545E+05  1.321481E+04 -3.492992E+04  2.298885E+02 -2.887303E+03
       143  20 -1.750294E+03  3.913620E+05  3.071767E+03 -2.842868E+04  1.463658E+03  7.142022E+02
       143  21 -1.067523E+04  3.594265E+05 -3.527557E+03 -3.015324E+04  3.402840E+03  4.316102E+03
       143  22  7.034130E+03  4.053311E+05  8.085652E+03 -3.059063E+04  2.310020E+02 -4.224746E+03
       143  23  1.264310E+03  4.045959E+05  4.936551E+03 -2.648060E+04  1.465680E+03 -1.690310E+03
       143  24  1.264178E+02  4.053320E+05  4.590710E+03 -3.059626E+04  3.405737E+03  8.446831E+02
       143  25  2.076722E+03  3.857082E+05  2.956484E+03 -2.625147E+04  2.320969E+02 -5.562146E+03
       143  26  4.278924E+03  4.178299E+05  6.801356E+03 -2.453247E+04  1.467687E+03 -4.094871E+03
       143  27  1.092796E+04  4.512395E+05  1.270894E+04 -3.103931E+04  3.408640E+03 -2.626985E+03
       144   1 -1.575066E+04  3.373456E+05 -7.236372E+03 -3.105563E+04 -4.774072E+03 -5.061511E+03
       144   2 -2.351049E+04  3.041803E+05 -1.133541E+04 -2.629359E+04 -6.848933E+03 -8.019087E+03
       144   3 -2.965470E+04  2.717905E+05 -1.310957E+04 -2.978189E+04 -8.552668E+03 -1.097608E+04
       144   4  2.636536E+02  4.051981E+05  5.015731E+03 -3.060106E+04 -4.776889E+03 -1.638928E+03
       144   5  2.752476E+02  4.047607E+05  7.051245E+03 -2.647523E+04 -6.851157E+03 -5.158437E+03
       144   6  1.999810E+03  4.051951E+05  1.180134E+04 -3.059962E+04 -8.554325E+03 -8.677516E+03
       144   7  1.627772E+04  4.730551E+05  1.726770E+04 -3.014644E+04 -4.779701E+03  1.784020E+03
       144   8  2.406041E+04  5.053510E+05  2.543752E+04 -2.665690E+04 -6.853383E+03 -2.297336E+03
       144   9  3.365330E+04  5.386168E+05  3.671151E+04 -3.141754E+04 -8.555988E+03 -6.378469E+03
       144  10 -1.575069E+04  3.373456E+05 -7.236463E+03 -3.105565E+04 -2.069103E-10  2.223522E-09
       144  11 -2.351055E+04  3.041802E+05 -1.133562E+04 -2.629364E+04 -3.803286E-09 -2.899556E-09
       144  12 -2.965482E+04  2.717904E+05 -1.310994E+04 -2.978196E+04 -6.190370E-09 -3.213412E-09
       144  13  2.636283E+02  4.051981E+05  5.015683E+03 -3.060107E+04 -1.128940E-09 -9.027755E-10
       144  14  2.751900E+02  4.047607E+05  7.051106E+03 -2.647526E+04 -6.594974E-10 -8.061200E-10
       144  15  1.999711E+03  4.051950E+05  1.180106E+04 -3.059968E+04 -3.958941E-09 -2.793122E-12
       144  16  1.627769E+04  4.730551E+05  1.726765E+04 -3.014643E+04  1.632477E-09 -1.276415E-09
       144  17  2.406036E+04  5.053509E+05  2.543743E+04 -2.665692E+04  9.093011E-10  4.797614E-10
       144  18  3.365321E+04  5.386167E+05  3.671130E+04 -3.141758E+04  1.242493E-09  3.867277E-09
       144  19 -1.575066E+04  3.373456E+05 -7.236372E+03 -3.105563E+04  4.774072E+03  5.061511E+03
       144  20 -2.351049E+04  3.041803E+05 -1.133541E+04 -2.629359E+04  6.848933E+03  8.019087E+03
       144  21 -2.965470E+04  2.717905E+05 -1.310957E+04 -2.978189E+04  8.552668E+03  1.097608E+04
       144  22  2.636536E+02  4.051981E+05  5.015731E+03 -3.060106E+04  4.776889E+03  1.638928E+03
       144  23  2.752476E+02  4.047607E+05  7.051245E+03 -2.647523E+04  6.851157E+03  5.158437E+03
       144  24  1.999810E+03  4.051951E+05  1.180134E+04 -3.059962E+04  8.554325E+03  8.677516E+03
       144  25  1.627772E+04  4.730551E+05  1.726770E+04 -3.014644E+04  4.779701E+03 -1.784020E+03
       144  26  2.406041E+04  5.053510E+05  2.543752E+04 -2.665690E+04  6.853383E+03  2.297336E+03
       144  27  3.365330E+04  5.386168E+05  3.671151E+04 -3.141754E+04  8.555988E+03  6.378469E+03
       145   1 -3.647229E+04  2.516211E+05 -1.405805E+04 -3.444622E+04 -9.824871E+03 -1.386768E+04
       145   2 -3.626856E+04  2.145889E+05 -1.104815E+04 -1.356776E+04 -9.131949E+03 -1.934790E+04
       145   3 -5.307810E+03  1.859528E+05  3.217219E+03 -5.981752E+02 -2.857563E+03 -2.482397E+04
       145   4  4.619650E+02  4.071913E+05  1.513626E+04 -3.052943E+04 -9.827221E+03 -1.069138E+04
       145   5  8.854958E+03  4.022564E+05  2.685417E+04 -2.655751E+04 -9.127452E+03 -2.461651E+04
       145   6  4.946411E+04  4.071778E+05  5.568686E+04 -3.049352E+04 -2.846688E+03 -3.853786E+04
       145   7  3.739488E+04  5.627850E+05  4.432956E+04 -2.661163E+04 -9.829531E+03 -7.514295E+03
       145   8  5.397694E+04  5.899579E+05  6.475486E+04 -3.955126E+04 -9.122734E+03 -2.988667E+04
       145   9  1.042360E+05  6.284500E+05  1.081543E+05 -6.039956E+04 -2.834494E+03 -5.225660E+04
       145  10 -3.647244E+04  2.516209E+05 -1.405859E+04 -3.444632E+04 -2.919596E-09  2.871639E-09
       145  11 -3.626875E+04  2.145885E+05 -1.104901E+04 -1.356790E+04  3.514189E-09 -2.015959E-09
       145  12 -5.307984E+03  1.859521E+05  3.216046E+03 -5.982323E+02  8.738077E-10 -2.220553E-09
       145  13  4.618306E+02  4.071912E+05  1.513586E+04 -3.052951E+04  2.626245E-10 -6.075688E-10
       145  14  8.854706E+03  4.022558E+05  2.685287E+04 -2.655769E+04  2.992973E-11 -7.070560E-10
       145  15  4.946370E+04  4.071762E+05  5.568406E+04 -3.049361E+04 -1.842617E-09 -1.891824E-10
       145  16  3.739476E+04  5.627849E+05  4.432927E+04 -2.661169E+04  8.146752E-10 -1.957186E-09
       145  17  5.397661E+04  5.899569E+05  6.475303E+04 -3.955148E+04 -1.628770E-09 -1.966000E-10
       145  18  1.042352E+05  6.284470E+05  1.081491E+05 -6.039968E+04 -8.066334E-10  2.696538E-09
       145  19 -3.647229E+04  2.516211E+05 -1.405805E+04 -3.444622E+04  9.824871E+03  1.386768E+04
       145  20 -3.626856E+04  2.145889E+05 -1.104815E+04 -1.356776E+04  9.131949E+03  1.934790E+04
       145  21 -5.307810E+03  1.859528E+05  3.217219E+03 -5.981752E+02  2.857563E+03  2.482397E+04
       145  22  4.619650E+02  4.071913E+05  1.513626E+04 -3.052943E+04  9.827221E+03  1.069138E+04
       145  23  8.854958E+03  4.022564E+05  2.685417E+04 -2.655751E+04  9.127452E+03  2.461651E+04
       145  24  4.946411E+04  4.071778E+05  5.568686E+04 -3.049352E+04  2.846688E+03  3.853786E+04
       145  25  3.739488E+04  5.627850E+05  4.432956E+04 -2.661163E+04  9.829531E+03  7.514295E+03
       145  26  5.397694E+04  5.899579E+05  6.475486E+04 -3.955126E+04  9.122734E+03  2.988667E+04
       145  27  1.042360E+05  6.284500E+05  1.081543E+05 -6.039956E+04  2.834494E+03  5.225660E+04
       146   1  9.728036E+05  3.494110E+05  1.762983E+05  3.611396E+05  6.876492E+04  1.432136E+04
       146   2  9.203928E+05  3.209017E+05  1.256972E+05  3.453749E+05  4.456441E+04 -2.228938E+04
       146   3  8.682836E+05  3.043801E+05  1.012472E+05  3.367171E+05  1.417697E+04 -4.242307E+04
       146   4  2.695717E+05  8.725401E+04 -1.909407E+03  1.694363E+05  2.546074E+03 -1.058321E+04
       146   5  2.728753E+05  8.530776E+04 -9.121328E+02  1.656225E+05  1.209101E+04 -3.450949E+04
       146   6  2.698028E+05  8.867430E+04 -4.704125E+02  1.689150E+05  1.544099E+04 -4.195229E+04
       146   7 -4.331375E+05 -1.748565E+05 -1.801295E+05 -2.206034E+04 -6.358790E+04 -3.545615E+04
       146   8 -3.741907E+05 -1.502427E+05 -1.275317E+05 -1.395196E+04 -2.034535E+04 -4.671575E+04
       146   9 -3.282960E+05 -1.269952E+05 -1.021973E+05  1.264506E+03  1.670372E+04 -4.148199E+04
       146  10  9.727985E+05  3.494095E+05  1.762891E+05  3.611388E+05  2.207296E-09  1.302739E-09
       146  11  9.203905E+05  3.209007E+05  1.256925E+05  3.453757E+05 -8.806478E-09 -3.138917E-09
       146  12  8.682829E+05  3.043781E+05  1.012434E+05  3.367176E+05 -1.369447E-08 -2.325168E-09
       146  13  2.695717E+05  8.725389E+04 -1.909630E+03  1.694363E+05 -1.404906E-09  4.178959E-10
       146  14  2.728748E+05  8.530645E+04 -9.146459E+02  1.656229E+05 -8.995119E-09 -4.520358E-09
       146  15  2.698021E+05  8.867235E+04 -4.741686E+02  1.689156E+05 -2.993085E-09  1.518771E-11
       146  16 -4.331422E+05 -1.748590E+05 -1.801395E+05 -2.206216E+04 -8.987991E-09 -3.836777E-09
       146  17 -3.741917E+05 -1.502452E+05 -1.275366E+05 -1.395273E+04 -8.611695E-09 -4.726616E-09
       146  18 -3.282967E+05 -1.269971E+05 -1.022011E+05  1.265064E+03  1.099624E-08  1.706133E-09
       146  19  9.728036E+05  3.494110E+05  1.762983E+05  3.611396E+05 -6.876492E+04 -1.432136E+04
       146  20  9.203928E+05  3.209017E+05  1.256972E+05  3.453749E+05 -4.456441E+04  2.228938E+04
       146  21  8.682836E+05  3.043801E+05  1.012472E+05  3.367171E+05 -1.417697E+04  4.242307E+04
       146  22  2.695717E+05  8.725401E+04 -1.909407E+03  1.694363E+05 -2.546074E+03  1.058321E+04
       146  23  2.728753E+05  8.530776E+04 -9.121328E+02  1.656225E+05 -1.209101E+04  3.450949E+04
       146  24  2.698028E+05  8.867430E+04 -4.704125E+02  1.689150E+05 -1.544099E+04  4.195229E+04
       146  25 -4.331375E+05 -1.748565E+05 -1.801295E+05 -2.206034E+04  6.358790E+04  3.545615E+04
       146  26 -3.741907E+05 -1.502427E+05 -1.275317E+05 -1.395196E+04  2.034535E+04  4.671575E+04
       146  27 -3.282960E+05 -1.269952E+05 -1.021973E+05  1.264506E+03 -1.670372E+04  4.148199E+04
       147   1  8.349162E+05  2.922275E+05  9.353863E+04  3.277396E+05  1.459656E+04 -4.125858E+04
       147   2  7.868987E+05  2.697485E+05  8.129325E+04  3.096539E+05  1.061392E+04 -4.142915E+04
       147   3  7.326723E+05  2.548603E+05  7.185113E+04  2.994749E+05  5.961686E+03 -3.982266E+04
       147   4  2.696723E+05  8.890293E+04 -3.500284E+02  1.691412E+05  1.516161E+04 -4.105048E+04
       147   5  2.731555E+05  8.553554E+04 -1.833041E+02  1.651659E+05  1.481797E+04 -3.985056E+04
       147   6  2.697080E+05  8.903930E+04 -9.389068E+01  1.690970E+05  1.380420E+04 -3.687281E+04
       147   7 -2.952381E+05 -1.143920E+05 -9.424838E+04  1.067587E+04  1.572613E+04 -4.084259E+04
       147   8 -2.403076E+05 -9.865111E+04 -8.166561E+04  2.078924E+04  1.901838E+04 -3.827335E+04
       147   9 -1.930254E+05 -7.675903E+04 -7.204217E+04  3.881050E+04  2.164054E+04 -3.392529E+04
       147  10  8.349155E+05  2.922256E+05  9.353503E+04  3.277401E+05 -7.652348E-10  3.690625E-09
       147  11  7.868982E+05  2.697466E+05  8.128981E+04  3.096542E+05  1.708114E-10  1.197062E-09
       147  12  7.326719E+05  2.548586E+05  7.184809E+04  2.994751E+05 -1.428529E-09 -1.891041E-09
       147  13  2.696716E+05  8.890106E+04 -3.536277E+02  1.691417E+05  4.088023E-09 -4.329058E-10
       147  14  2.731548E+05  8.553377E+04 -1.867015E+02  1.651664E+05  4.481841E-09  6.287253E-09
       147  15  2.697075E+05  8.903779E+04 -9.680423E+01  1.690975E+05  1.595873E-09 -2.404716E-09
       147  16 -2.952388E+05 -1.143939E+05 -9.425198E+04  1.067639E+04  7.357594E-10 -2.537722E-09
       147  17 -2.403084E+05 -9.865278E+04 -8.166904E+04  2.078983E+04 -3.159184E-09  8.273282E-10
       147  18 -1.930262E+05 -7.676039E+04 -7.204522E+04  3.881109E+04  1.587564E-09 -5.595609E-10
       147  19  8.349162E+05  2.922275E+05  9.353863E+04  3.277396E+05 -1.459656E+04  4.125858E+04
       147  20  7.868987E+05  2.697485E+05  8.129325E+04  3.096539E+05 -1.061392E+04  4.142915E+04
       147  21  7.326723E+05  2.548603E+05  7.185113E+04  2.994749E+05 -5.961686E+03  3.982266E+04
       147  22  2.696723E+05  8.890293E+04 -3.500284E+02  1.691412E+05 -1.516161E+04  4.105048E+04
       147  23  2.731555E+05  8.553554E+04 -1.833041E+02  1.651659E+05 -1.481797E+04  3.985056E+04
       147  24  2.697080E+05  8.903930E+04 -9.389068E+01  1.690970E+05 -1.380420E+04  3.687281E+04
       147  25 -2.952381E+05 -1.143920E+05 -9.424838E+04  1.067587E+04 -1.572613E+04  4.084259E+04
       147  26 -2.403076E+05 -9.865111E+04 -8.166561E+04  2.078924E+04 -1.901838E+04  3.827335E+04
       147  27 -1.930254E+05 -7.675903E+04 -7.204217E+04  3.881050E+04 -2.164054E+04  3.392529E+04
       148   1  7.004407E+05  2.432887E+05  6.645344E+04  2.904594E+05  5.192081E+03 -3.750318E+04
       148   2  6.529496E+05  2.215144E+05  5.831604E+04  2.721352E+05  3.353672E+03 -3.375650E+04
       148   3  5.985401E+05  2.068234E+05  5.047936E+04  2.617986E+05  1.442537E+03 -2.981955E+04
       148   4  2.696971E+05  8.906831E+04 -6.816088E+01  1.691173E+05  1.295643E+04 -3.458195E+04
       148   5  2.732076E+05  8.558402E+04 -2.916931E+01  1.651203E+05  1.150755E+04 -3.068737E+04
       148   6  2.697186E+05  8.910587E+04  1.447517E+00  1.691103E+05  9.985876E+03 -2.660243E+04
       148   7 -1.608411E+05 -6.513038E+04 -6.659094E+04  4.785580E+04  2.071501E+04 -3.166290E+04
       148   8 -1.063787E+05 -5.033094E+04 -5.837623E+04  5.816690E+04  1.965616E+04 -2.762022E+04
       148   9 -5.898986E+04 -2.860150E+04 -5.047883E+04  7.646708E+04  1.852454E+04 -2.338708E+04
       148  10  7.004403E+05  2.432872E+05  6.645075E+04  2.904596E+05  3.173774E-09 -9.125925E-10
       148  11  6.529493E+05  2.215132E+05  5.831388E+04  2.721353E+05  1.496203E-09  7.158320E-10
       148  12  5.985398E+05  2.068224E+05  5.047769E+04  2.617986E+05 -4.471187E-09 -3.240641E-09
       148  13  2.696966E+05  8.906698E+04 -7.072412E+01  1.691177E+05  6.224505E-10 -7.602309E-10
       148  14  2.732072E+05  8.558298E+04 -3.118816E+01  1.651205E+05 -1.861616E-09 -4.306407E-09
       148  15  2.697183E+05  8.910508E+04 -7.001340E-02  1.691105E+05 -2.707234E-09  2.742827E-09
       148  16 -1.608418E+05 -6.513157E+04 -6.659363E+04  4.785633E+04 -3.990525E-09  4.438307E-10
       148  17 -1.063793E+05 -5.033187E+04 -5.837839E+04  5.816734E+04 -3.336570E-09  5.018424E-09
       148  18 -5.899037E+04 -2.860218E+04 -5.048050E+04  7.646743E+04  5.600538E-09  5.919416E-09
       148  19  7.004407E+05  2.432887E+05  6.645344E+04  2.904594E+05 -5.192081E+03  3.750318E+04
       148  20  6.529496E+05  2.215144E+05  5.831604E+04  2.721352E+05 -3.353672E+03  3.375650E+04
       148  21  5.985401E+05  2.068234E+05  5.047936E+04  2.617986E+05 -1.442537E+03  2.981955E+04
       148  22  2.696971E+05  8.906831E+04 -6.816088E+01  1.691173E+05 -1.295643E+04  3.458195E+04
       148  23  2.732076E+05  8.558402E+04 -2.916931E+01  1.651203E+05 -1.150755E+04  3.068737E+04
       148  24  2.697186E+05  8.910587E+04  1.447517E+00  1.691103E+05 -9.985876E+03  2.660243E+04
       148  25 -1.608411E+05 -6.513038E+04 -6.659094E+04  4.785580E+04 -2.071501E+04  3.166290E+04
       148  26 -1.063787E+05 -5.033094E+04 -5.837623E+04  5.816690E+04 -1.965616E+04  2.762022E+04
       148  27 -5.898986E+04 -2.860150E+04 -5.047883E+04  7.646708E+04 -1.852454E+04  2.338708E+04
       149   1  5.664661E+05  1.953152E+05  4.533168E+04  2.527804E+05  5.343371E+02 -2.738124E+04
       149   2  5.190763E+05  1.736231E+05  3.764949E+04  2.344398E+05 -1.100504E+03 -2.322571E+04
       149   3  4.646909E+05  1.589523E+05  3.001578E+04  2.240890E+05 -2.743029E+03 -1.905163E+04
       149   4  2.697205E+05  8.911260E+04  1.399782E+01  1.691099E+05  9.067382E+03 -2.416737E+04
       149   5  2.732292E+05  8.561461E+04  4.629010E+01  1.651141E+05  7.470310E+03 -1.999679E+04
       149   6  2.697315E+05  8.913003E+04  9.662387E+01  1.691070E+05  5.865554E+03 -1.580767E+04
       149   7 -2.692956E+04 -1.708046E+04 -4.530457E+04  8.547707E+04  1.759612E+04 -2.095513E+04
       149   8  2.744902E+04 -2.386755E+03 -3.755702E+04  9.581478E+04  1.603749E+04 -1.676924E+04
       149   9  7.481574E+04  1.931278E+04 -2.982210E+04  1.141421E+05  1.447118E+04 -1.256482E+04
       149  10  5.664659E+05  1.953144E+05  4.533027E+04  2.527804E+05  3.679945E-09  4.495569E-09
       149  11  5.190762E+05  1.736225E+05  3.764848E+04  2.344398E+05  1.914872E-09  4.383329E-09
       149  12  4.646908E+05  1.589519E+05  3.001508E+04  2.240889E+05  5.833598E-09 -5.600388E-10
       149  13  2.697203E+05  8.911195E+04  1.274554E+01  1.691101E+05 -4.852183E-09  3.046731E-09
       149  14  2.732290E+05  8.561417E+04  4.543365E+01  1.651143E+05 -3.977219E-09  3.563684E-09
       149  15  2.697314E+05  8.912975E+04  9.608955E+01  1.691071E+05  1.242539E-09 -4.195850E-10
       149  16 -2.693001E+04 -1.708102E+04 -4.530598E+04  8.547737E+04  2.926285E-09  2.833713E-09
       149  17  2.744867E+04 -2.387126E+03 -3.755803E+04  9.581500E+04 -5.229871E-09 -3.074931E-09
       149  18  7.481548E+04  1.931255E+04 -2.982279E+04  1.141422E+05 -5.867944E-09 -4.963655E-09
       149  19  5.664661E+05  1.953152E+05  4.533168E+04  2.527804E+05 -5.343371E+02  2.738124E+04
       149  20  5.190763E+05  1.736231E+05  3.764949E+04  2.344398E+05  1.100504E+03  2.322571E+04
       149  21  4.646909E+05  1.589523E+05  3.001578E+04  2.240890E+05  2.743029E+03  1.905163E+04
       149  22  2.697205E+05  8.911260E+04  1.399782E+01  1.691099E+05 -9.067382E+03  2.416737E+04
       149  23  2.732292E+05  8.561461E+04  4.629010E+01  1.651141E+05 -7.470310E+03  1.999679E+04
       149  24  2.697315E+05  8.913003E+04  9.662387E+01  1.691070E+05 -5.865554E+03  1.580767E+04
       149  25 -2.692956E+04 -1.708046E+04 -4.530457E+04  8.547707E+04 -1.759612E+04  2.095513E+04
       149  26  2.744902E+04 -2.386755E+03 -3.755702E+04  9.581478E+04 -1.603749E+04  1.676924E+04
       149  27  7.481574E+04  1.931278E+04 -2.982210E+04  1.141421E+05 -1.447118E+04  1.256482E+04
       150   1  4.326529E+05  1.474497E+05  2.491855E+04  2.150752E+05 -3.683263E+03 -1.660901E+04
       150   2  3.852891E+05  1.257636E+05  1.735796E+04  1.967444E+05 -5.369848E+03 -1.244610E+04
       150   3  3.309304E+05  1.110943E+05  9.874869E+03  1.864024E+05 -7.053490E+03 -8.291843E+03
       150   4  2.697380E+05  8.913255E+04  1.319302E+02  1.691081E+05  4.923364E+03 -1.336542E+04
       150   5  2.732364E+05  8.562349E+04  2.430668E+02  1.651143E+05  3.218898E+03 -9.208860E+03
       150   6  2.697417E+05  8.913485E+04  4.459398E+02  1.691087E+05  1.517371E+03 -5.060956E+03
       150   7  1.068500E+05  3.081756E+04 -2.465529E+04  1.231518E+05  1.352771E+04 -1.012270E+04
       150   8  1.611967E+05  4.548449E+04 -1.687188E+04  1.334894E+05  1.180606E+04 -5.972214E+03
       150   9  2.085572E+05  6.717590E+04 -8.982739E+03  1.518165E+05  1.008734E+04 -1.830406E+03
       150  10  4.326528E+05  1.474494E+05  2.491801E+04  2.150752E+05 -6.024754E-08 -2.917803E-08
       150  11  3.852890E+05  1.257635E+05  1.735761E+04  1.967444E+05 -6.277119E-09 -4.983012E-09
       150  12  3.309303E+05  1.110942E+05  9.874647E+03  1.864024E+05  6.216534E-08  1.866749E-08
       150  13  2.697380E+05  8.913235E+04  1.315489E+02  1.691081E+05 -3.226936E-09 -3.273946E-09
       150  14  2.732363E+05  8.562339E+04  2.428880E+02  1.651144E+05 -8.052584E-09 -3.561522E-09
       150  15  2.697417E+05  8.913482E+04  4.458873E+02  1.691087E+05 -3.978919E-09 -2.212101E-09
       150  16  1.068498E+05  3.081740E+04 -2.465583E+04  1.231519E+05  5.873561E-08  2.283350E-08
       150  17  1.611965E+05  4.548441E+04 -1.687221E+04  1.334895E+05 -3.875457E-09  2.883285E-09
       150  18  2.085571E+05  6.717587E+04 -8.982936E+03  1.518166E+05 -6.254388E-08 -2.688589E-08
       150  19  4.326529E+05  1.474497E+05  2.491855E+04  2.150752E+05  3.683263E+03  1.660901E+04
       150  20  3.852891E+05  1.257636E+05  1.735796E+04  1.967444E+05  5.369848E+03  1.244610E+04
       150  21  3.309304E+05  1.110943E+05  9.874869E+03  1.864024E+05  7.053490E+03  8.291843E+03
       150  22  2.697380E+05  8.913255E+04  1.319302E+02  1.691081E+05 -4.923364E+03  1.336542E+04
       150  23  2.732364E+05  8.562349E+04  2.430668E+02  1.651143E+05 -3.218898E+03  9.208860E+03
       150  24  2.697417E+05  8.913485E+04  4.459398E+02  1.691087E+05 -1.517371E+03  5.060956E+03
       150  25  1.068500E+05  3.081756E+04 -2.465529E+04  1.231518E+05 -1.352771E+04  1.012270E+04
       150  26  1.611967E+05  4.548449E+04 -1.687188E+04  1.334894E+05 -1.180606E+04  5.972214E+03
       150  27  2.085572E+05  6.717590E+04 -8.982739E+03  1.518165E+05 -1.008734E+04  1.830406E+03
       151   1  2.989073E+05  9.959925E+04  4.883803E+03  1.774113E+05 -8.062905E+03 -5.883125E+03
       151   2  2.515409E+05  7.789811E+04 -2.382941E+03  1.590596E+05 -9.970981E+03 -1.870249E+03
       151   3  1.972442E+05  6.328221E+04 -9.372110E+03  1.486830E+05 -1.184294E+04  2.047196E+03
       151   4  2.697607E+05  8.913256E+04  5.958489E+02  1.691153E+05  5.114157E+02 -2.650853E+03
       151   5  2.732162E+05  8.563222E+04  1.084861E+03  1.651050E+05 -1.592336E+03  1.288177E+03
       151   6  2.697771E+05  8.925535E+04  2.006074E+03  1.690686E+05 -3.660012E+03  5.131786E+03
       151   7  2.406155E+05  7.866616E+04 -3.691701E+03  1.608199E+05  9.085212E+03  5.812193E+02
       151   8  2.948923E+05  9.336645E+04  4.552956E+03  1.711506E+05  6.786618E+03  4.446718E+03
       151   9  3.423166E+05  1.152294E+05  1.338469E+04  1.894566E+05  4.524021E+03  8.216791E+03
       151  10  2.989072E+05  9.959919E+04  4.883615E+03  1.774112E+05  4.727816E-09 -5.579380E-10
       151  11  2.515408E+05  7.789807E+04 -2.383135E+03  1.590595E+05  1.260564E-09  2.884128E-09
       151  12  1.972440E+05  6.328217E+04 -9.372381E+03  1.486831E+05  3.516861E-09  4.303699E-09
       151  13  2.697607E+05  8.913255E+04  5.958352E+02  1.691153E+05  1.792194E-10  1.481153E-09
       151  14  2.732162E+05  8.563222E+04  1.084854E+03  1.651050E+05  5.892289E-10  1.439956E-09
       151  15  2.697771E+05  8.925532E+04  2.006000E+03  1.690686E+05  6.359237E-09 -1.505465E-09
       151  16  2.406154E+05  7.866614E+04 -3.691856E+03  1.608199E+05  2.117633E-09 -1.983786E-09
       151  17  2.948922E+05  9.336641E+04  4.552833E+03  1.711506E+05  4.576489E-09  2.530454E-09
       151  18  3.423166E+05  1.152294E+05  1.338453E+04  1.894566E+05 -6.622111E-10  1.514338E-09
       151  19  2.989073E+05  9.959925E+04  4.883803E+03  1.774113E+05  8.062905E+03  5.883125E+03
       151  20  2.515409E+05  7.789811E+04 -2.382941E+03  1.590596E+05  9.970981E+03  1.870249E+03
       151  21  1.972442E+05  6.328221E+04 -9.372110E+03  1.486830E+05  1.184294E+04 -2.047196E+03
       151  22  2.697607E+05  8.913256E+04  5.958489E+02  1.691153E+05 -5.114157E+02  2.650853E+03
       151  23  2.732162E+05  8.563222E+04  1.084861E+03  1.651050E+05  1.592336E+03 -1.288177E+03
       151  24  2.697771E+05  8.925535E+04  2.006074E+03  1.690686E+05  3.660012E+03 -5.131786E+03
       151  25  2.406155E+05  7.866616E+04 -3.691701E+03  1.608199E+05 -9.085212E+03 -5.812193E+02
       151  26  2.948923E+05  9.336645E+04  4.552956E+03  1.711506E+05 -6.786618E+03 -4.446718E+03
       151  27  3.423166E+05  1.152294E+05  1.338469E+04  1.894566E+05 -4.524021E+03 -8.216791E+03
       152   1  1.651860E+05  5.188578E+04 -1.396462E+04  1.398405E+05 -1.313490E+04  4.263550E+03
       152   2  1.182921E+05  2.999508E+04 -2.027365E+04  1.205940E+05 -1.517098E+04  7.580351E+03
       152   3  6.500011E+04  1.631252E+04 -2.573008E+04  1.089734E+05 -1.687279E+04  1.001134E+04
       152   4  2.699234E+05  8.927979E+04  2.683707E+03  1.691020E+05 -4.914339E+03  7.362170E+03
       152   5  2.731271E+05  8.630193E+04  4.957754E+03  1.647966E+05 -8.763302E+03  9.995157E+03
       152   6  2.702887E+05  9.189047E+04  9.520256E+03  1.681156E+05 -1.227809E+04  1.174243E+04
       152   7  3.746727E+05  1.266750E+05  1.933211E+04  1.983682E+05  3.307685E+03  1.046134E+04
       152   8  4.279869E+05  1.426110E+05  3.018854E+04  2.090093E+05 -2.353974E+03  1.241060E+04
       152   9  4.756197E+05  1.674721E+05  4.476880E+04  2.272756E+05 -7.681833E+03  1.347415E+04
       152  10  1.651858E+05  5.188571E+04 -1.396498E+04  1.398405E+05  8.053539E-10  2.245123E-09
       152  11  1.182918E+05  2.999496E+04 -2.027419E+04  1.205941E+05 -2.490249E-09 -5.426901E-10
       152  12  6.499978E+04  1.631234E+04 -2.573080E+04  1.089735E+05  6.191618E-10 -9.523576E-10
       152  13  2.699234E+05  8.927973E+04  2.683560E+03  1.691021E+05  5.890042E-09  5.070640E-09
       152  14  2.731270E+05  8.630180E+04  4.957422E+03  1.647967E+05  4.805798E-09 -1.004946E-10
       152  15  2.702885E+05  9.189028E+04  9.519714E+03  1.681157E+05 -1.998161E-10  3.156789E-10
       152  16  3.746726E+05  1.266748E+05  1.933188E+04  1.983682E+05  2.840735E-09  1.280730E-09
       152  17  4.279869E+05  1.426109E+05  3.018824E+04  2.090093E+05 -1.758865E-09  5.529693E-09
       152  18  4.756196E+05  1.674719E+05  4.476834E+04  2.272756E+05 -1.332421E-09  1.587183E-09
       152  19  1.651860E+05  5.188578E+04 -1.396462E+04  1.398405E+05  1.313490E+04 -4.263550E+03
       152  20  1.182921E+05  2.999508E+04 -2.027365E+04  1.205940E+05  1.517098E+04 -7.580351E+03
       152  21  6.500011E+04  1.631252E+04 -2.573008E+04  1.089734E+05  1.687279E+04 -1.001134E+04
       152  22  2.699234E+05  8.927979E+04  2.683707E+03  1.691020E+05  4.914339E+03 -7.362170E+03
       152  23  2.731271E+05  8.630193E+04  4.957754E+03  1.647966E+05  8.763302E+03 -9.995157E+03
       152  24  2.702887E+05  9.189047E+04  9.520256E+03  1.681156E+05  1.227809E+04 -1.174243E+04
       152  25  3.746727E+05  1.266750E+05  1.933211E+04  1.983682E+05 -3.307685E+03 -1.046134E+04
       152  26  4.279869E+05  1.426110E+05  3.018854E+04  2.090093E+05  2.353974E+03 -1.241060E+04
       152  27  4.756197E+05  1.674721E+05  4.476880E+04  2.272756E+05  7.681833E+03 -1.347415E+04
       153   1  3.260113E+04  6.389185E+03 -2.891662E+04  1.016110E+05 -1.928770E+04  1.100527E+04
       153   2 -5.319797E+03 -1.793741E+04 -3.336090E+04  6.776639E+04 -1.457535E+04  1.085568E+04
       153   3 -4.340701E+04 -1.760537E+04 -3.581536E+04  3.620196E+04 -6.771803E+03  2.497518E+03
       153   4  2.718082E+05  9.254092E+04  1.279942E+04  1.683059E+05 -1.434699E+04  1.286654E+04
       153   5  2.729834E+05  9.798522E+04  2.458887E+04  1.598403E+05 -2.642311E+04  6.390324E+03
       153   6  2.773127E+05  1.314074E+05  5.166873E+04  1.536552E+05 -3.540916E+04 -8.292315E+03
       153   7  5.110802E+05  1.786998E+05  5.451500E+04  2.350259E+05 -9.404180E+03  1.472859E+04
       153   8  5.513670E+05  2.139211E+05  8.253504E+04  2.519545E+05 -3.827651E+04  1.922163E+03
       153   9  5.981297E+05  2.804410E+05  1.391451E+05  2.711667E+05 -6.406199E+04 -1.909130E+04
       153  10  3.260070E+04  6.388955E+03 -2.891754E+04  1.016112E+05 -3.246070E-09 -1.731777E-09
       153  11 -5.320057E+03 -1.793759E+04 -3.336152E+04  6.776652E+04 -1.758811E-09 -2.233058E-09
       153  12 -4.340706E+04 -1.760538E+04 -3.581546E+04  3.620198E+04  1.476780E-10  7.583124E-10
       153  13  2.718080E+05  9.254068E+04  1.279873E+04  1.683061E+05  2.455114E-10 -1.729053E-09
       153  14  2.729827E+05  9.798499E+04  2.458748E+04  1.598404E+05 -7.252267E-10  7.129947E-10
       153  15  2.773113E+05  1.314070E+05  5.166624E+04  1.536550E+05  6.087269E-10  5.456381E-10
       153  16  5.110800E+05  1.786995E+05  5.451443E+04  2.350260E+05  5.059304E-09  2.141388E-09
       153  17  5.513654E+05  2.139207E+05  8.253228E+04  2.519546E+05  2.398388E-09  1.691035E-10
       153  18  5.981252E+05  2.804395E+05  1.391367E+05  2.711657E+05 -2.037485E-09 -2.552181E-09
       153  19  3.260113E+04  6.389185E+03 -2.891662E+04  1.016110E+05  1.928770E+04 -1.100527E+04
       153  20 -5.319797E+03 -1.793741E+04 -3.336090E+04  6.776639E+04  1.457535E+04 -1.085568E+04
       153  21 -4.340701E+04 -1.760537E+04 -3.581536E+04  3.620196E+04  6.771803E+03 -2.497518E+03
       153  22  2.718082E+05  9.254092E+04  1.279942E+04  1.683059E+05  1.434699E+04 -1.286654E+04
       153  23  2.729834E+05  9.798522E+04  2.458887E+04  1.598403E+05  2.642311E+04 -6.390324E+03
       153  24  2.773127E+05  1.314074E+05  5.166873E+04  1.536552E+05  3.540916E+04  8.292315E+03
       153  25  5.110802E+05  1.786998E+05  5.451500E+04  2.350259E+05  9.404180E+03 -1.472859E+04
       153  26  5.513670E+05  2.139211E+05  8.253504E+04  2.519545E+05  3.827651E+04 -1.922163E+03
       153  27  5.981297E+05  2.804410E+05  1.391451E+05  2.711667E+05  6.406199E+04  1.909130E+04
       154   1 -2.474396E+05 -1.198681E+06 -2.841506E+05  7.772934E+04 -3.615098E+03 -1.166666E+05
       154   2 -7.159310E+04 -1.097224E+06 -1.700092E+05  1.690639E+04 -1.051047E+04 -7.089247E+04
       154   3 -7.164185E+04 -1.045213E+06 -1.295887E+05  2.636653E+04 -7.607417E+03 -2.509679E+04
       154   4 -1.327676E+05 -7.403387E+05 -1.704137E+05  4.181923E+04 -3.616653E+03 -1.119442E+05
       154   5  2.329605E+04 -7.159491E+05 -7.740211E+04  6.795346E+03 -1.051009E+04 -7.013508E+04
       154   6  4.211687E+03 -7.402869E+05 -5.531744E+04  4.205648E+04 -7.603937E+03 -2.831042E+04
       154   7 -1.810660E+04 -2.818028E+05 -5.669180E+04  5.882625E+03 -3.618758E+03 -1.072182E+05
       154   8  1.181749E+05 -3.345411E+05  1.519447E+04 -3.321884E+03 -1.050973E+04 -6.937722E+04
       154   9  8.005931E+04 -4.352756E+05  1.894723E+04  5.775419E+04 -7.600621E+03 -3.152562E+04
       154  10 -2.474433E+05 -1.198695E+06 -2.841762E+05  7.772900E+04  2.886697E-09  3.288463E-09
       154  11 -7.159457E+04 -1.097229E+06 -1.700188E+05  1.690579E+04  9.954636E-10  6.234881E-10
       154  12 -7.164208E+04 -1.045213E+06 -1.295900E+05  2.636637E+04 -5.286574E-09 -1.557262E-09
       154  13 -1.327710E+05 -7.403522E+05 -1.704373E+05  4.181891E+04  3.965344E-09  4.630210E-09
       154  14  2.329461E+04 -7.159544E+05 -7.741157E+04  6.794752E+03  2.697850E-09  7.650272E-09
       154  15  4.211410E+03 -7.402877E+05 -5.531905E+04  4.205631E+04  2.156584E-10  7.399176E-10
       154  16 -1.810971E+04 -2.818152E+05 -5.671344E+04  5.882312E+03  2.484004E-09 -1.717921E-09
       154  17  1.181735E+05 -3.345463E+05  1.518521E+04 -3.322471E+03  6.784284E-09 -1.935511E-09
       154  18  8.005898E+04 -4.352767E+05  1.894525E+04  5.775400E+04  8.842128E-10  1.678233E-09
       154  19 -2.474396E+05 -1.198681E+06 -2.841506E+05  7.772934E+04  3.615098E+03  1.166666E+05
       154  20 -7.159310E+04 -1.097224E+06 -1.700092E+05  1.690639E+04  1.051047E+04  7.089247E+04
       154  21 -7.164185E+04 -1.045213E+06 -1.295887E+05  2.636653E+04  7.607417E+03  2.509679E+04
       154  22 -1.327676E+05 -7.403387E+05 -1.704137E+05  4.181923E+04  3.616653E+03  1.119442E+05
       154  23  2.329605E+04 -7.159491E+05 -7.740211E+04  6.795346E+03  1.051009E+04  7.013508E+04
       154  24  4.211687E+03 -7.402869E+05 -5.531744E+04  4.205648E+04  7.603937E+03  2.831042E+04
       154  25 -1.810660E+04 -2.818028E+05 -5.669180E+04  5.882625E+03  3.618758E+03  1.072182E+05
       154  26  1.181749E+05 -3.345411E+05  1.519447E+04 -3.321884E+03  1.050973E+04  6.937722E+04
       154  27  8.005931E+04 -4.352756E+05  1.894723E+04  5.775419E+04  7.600621E+03  3.152562E+04
       155   1 -5.741140E+04 -9.017545E+05 -9.079065E+04  4.830425E+04 -4.389115E+03 -1.838656E+04
       155   2 -1.714248E+04 -8.175450E+05 -6.060683E+04  6.514946E+03 -2.397618E+03  1.523163E+03
       155   3 -1.924014E+04 -7.463087E+05 -5.394615E+04  3.632564E+04 -8.084268E+01  2.143514E+04
       155   4 -1.523358E+04 -7.323290E+05 -4.956224E+04  4.227039E+04 -4.388025E+03 -1.914393E+04
       155   5  5.673425E+03 -7.258512E+05 -3.829966E+04  6.470849E+03 -2.396651E+03  6.367895E+02
       155   6 -1.575984E+04 -7.323277E+05 -5.046701E+04  4.227140E+04 -7.965087E+01  2.041731E+04
       155   7  2.694227E+04 -5.628771E+05 -8.335895E+03  3.623488E+04 -4.386921E+03 -1.990152E+04
       155   8  2.848871E+04 -6.341496E+05 -1.599310E+04  6.426746E+03 -2.395683E+03 -2.497147E+02
       155   9 -1.227942E+04 -7.183464E+05 -4.698786E+04  4.821730E+04 -7.847860E+01  1.939945E+04
       155  10 -5.741151E+04 -9.017549E+05 -9.079132E+04  4.830418E+04 -2.560099E-09  3.704865E-09
       155  11 -1.714249E+04 -8.175450E+05 -6.060685E+04  6.514949E+03  2.667143E-09  8.083203E-10
       155  12 -1.924027E+04 -7.463092E+05 -5.394702E+04  3.632564E+04 -7.794176E-10 -9.694887E-10
       155  13 -1.523370E+04 -7.323294E+05 -4.956297E+04  4.227032E+04 -1.778363E-09  2.562138E-09
       155  14  5.673419E+03 -7.258512E+05 -3.829967E+04  6.470850E+03  2.723038E-09  5.816894E-09
       155  15 -1.575995E+04 -7.323281E+05 -5.046779E+04  4.227140E+04 -2.092763E-09 -4.095324E-10
       155  16  2.694214E+04 -5.628776E+05 -8.336677E+03  3.623481E+04 -2.488938E-09 -2.732813E-09
       155  17  2.848871E+04 -6.341496E+05 -1.599311E+04  6.426746E+03 -1.961459E-09 -2.967954E-09
       155  18 -1.227952E+04 -7.183468E+05 -4.698857E+04  4.821730E+04  1.776547E-10  1.450902E-10
       155  19 -5.741140E+04 -9.017545E+05 -9.079065E+04  4.830425E+04  4.389115E+03  1.838656E+04
       155  20 -1.714248E+04 -8.175450E+05 -6.060683E+04  6.514946E+03  2.397618E+03 -1.523163E+03
       155  21 -1.924014E+04 -7.463087E+05 -5.394615E+04  3.632564E+04  8.084268E+01 -2.143514E+04
       155  22 -1.523358E+04 -7.323290E+05 -4.956224E+04  4.227039E+04  4.388025E+03  1.914393E+04
       155  23  5.673425E+03 -7.258512E+05 -3.829966E+04  6.470849E+03  2.396651E+03 -6.367895E+02
       155  24 -1.575984E+04 -7.323277E+05 -5.046701E+04  4.227140E+04  7.965087E+01 -2.041731E+04
       155  25  2.694227E+04 -5.628771E+05 -8.335895E+03  3.623488E+04  4.386921E+03  1.990152E+04
       155  26  2.848871E+04 -6.341496E+05 -1.599310E+04  6.426746E+03  2.395683E+03  2.497147E+02
       155  27 -1.227942E+04 -7.183464E+05 -4.698786E+04  4.821730E+04  7.847860E+01 -1.939945E+04
       156   1  3.488716E+04 -6.184690E+05 -2.676226E+04  5.862087E+04  2.696667E+03  3.226675E+04
       156   2  7.372190E+04 -5.159413E+05 -3.130914E+04 -3.607767E+03  5.563908E+03  7.276657E+04
       156   3 -6.780639E+04 -4.634928E+05 -1.072620E+05  5.293267E+03  2.047675E+03  1.132642E+05
       156   4  4.498107E+03 -7.406771E+05 -5.660487E+04  4.222937E+04  2.698318E+03  2.977352E+04
       156   5  2.408865E+04 -7.154235E+05 -7.972018E+04  6.571828E+03  5.565087E+03  7.286240E+04
       156   6 -1.371686E+05 -7.407273E+05 -1.760602E+05  4.204722E+04  2.050946E+03  1.159438E+05
       156   7 -2.589103E+04 -8.628710E+05 -8.644840E+04  2.584111E+04  2.700100E+03  2.728078E+04
       156   8 -2.554715E+04 -9.148691E+05 -1.281340E+05  1.674815E+04  5.566271E+03  7.295819E+04
       156   9 -2.065315E+05 -1.017889E+06 -2.448634E+05  7.878475E+04  2.054536E+03  1.186223E+05
       156  10  3.488687E+04 -6.184701E+05 -2.676424E+04  5.862080E+04 -7.001895E-10  4.707715E-09
       156  11  7.372044E+04 -5.159470E+05 -3.131915E+04 -3.608093E+03 -1.385347E-09  2.599716E-09
       156  12 -6.780984E+04 -4.635066E+05 -1.072861E+05  5.293080E+03  2.464391E-10  7.471408E-10
       156  13  4.497861E+03 -7.406781E+05 -5.660655E+04  4.222931E+04 -1.232145E-09  2.913342E-09
       156  14  2.408718E+04 -7.154292E+05 -7.973022E+04  6.571501E+03 -7.085863E-09  4.995524E-09
       156  15 -1.371722E+05 -7.407417E+05 -1.760855E+05  4.204703E+04  7.447287E-10  9.830746E-10
       156  16 -2.589124E+04 -8.628718E+05 -8.644982E+04  2.584105E+04 -2.590268E-09 -3.971329E-09
       156  17 -2.554861E+04 -9.148748E+05 -1.281441E+05  1.674782E+04 -1.492659E-09 -5.269151E-09
       156  18 -2.065353E+05 -1.017904E+06 -2.448899E+05  7.878456E+04  8.061167E-10  5.678910E-11
       156  19  3.488716E+04 -6.184690E+05 -2.676226E+04  5.862087E+04 -2.696667E+03 -3.226675E+04
       156  20  7.372190E+04 -5.159413E+05 -3.130914E+04 -3.607767E+03 -5.563908E+03 -7.276657E+04
       156  21 -6.780639E+04 -4.634928E+05 -1.072620E+05  5.293267E+03 -2.047675E+03 -1.132642E+05
       156  22  4.498107E+03 -7.406771E+05 -5.660487E+04  4.222937E+04 -2.698318E+03 -2.977352E+04
       156  23  2.408865E+04 -7.154235E+05 -7.972018E+04  6.571828E+03 -5.565087E+03 -7.286240E+04
       156  24 -1.371686E+05 -7.407273E+05 -1.760602E+05  4.204722E+04 -2.050946E+03 -1.159438E+05
       156  25 -2.589103E+04 -8.628710E+05 -8.644840E+04  2.584111E+04 -2.700100E+03 -2.728078E+04
       156  26 -2.554715E+04 -9.148691E+05 -1.281340E+05  1.674815E+04 -5.566271E+03 -7.295819E+04
       156  27 -2.065315E+05 -1.017889E+06 -2.448634E+05  7.878475E+04 -2.054536E+03 -1.186223E+05
       157   1  4.558803E+05  1.548185E+05  9.459786E+04  1.684424E+05  4.739116E+04  1.674387E+04
       157   2  4.397106E+05  8.105189E+04  4.937919E+04  1.695633E+05  3.046382E+04  8.154045E+03
       157   3  4.437189E+05  7.446678E+04  3.422161E+04  1.608967E+05  1.266691E+04  1.870391E+03
       157   4  3.824414E+05  1.087330E+05  7.111837E+04  1.295811E+05  4.558602E+04  1.606113E+04
       157   5  3.687322E+05  4.887017E+04  2.997481E+04  1.444391E+05  3.000832E+04  7.981831E+03
       157   6  3.749365E+05  5.592515E+04  1.782587E+04  1.495089E+05  1.356076E+04  2.207831E+03
       157   7  3.090093E+05  6.265188E+04  4.763868E+04  9.072526E+04  4.378113E+04  1.537861E+04
       157   8  2.977590E+05  1.668956E+04  1.057004E+04  1.193178E+05  2.955287E+04  7.809649E+03
       157   9  3.061585E+05  3.738332E+04  1.429757E+03  1.381219E+05  1.445451E+04  2.545257E+03
       157  10  4.558778E+05  1.548176E+05  9.459312E+04  1.684418E+05 -4.766375E-10  4.618345E-10
       157  11  4.397096E+05  8.105157E+04  4.937732E+04  1.695631E+05 -4.581289E-10 -2.448675E-09
       157  12  4.437187E+05  7.446673E+04  3.422130E+04  1.608966E+05 -4.846452E-09  3.554144E-09
       157  13  3.824391E+05  1.087322E+05  7.111398E+04  1.295805E+05  4.340006E-10 -4.251140E-09
       157  14  3.687312E+05  4.886986E+04  2.997300E+04  1.444389E+05  8.130824E-10 -5.666398E-09
       157  15  3.749363E+05  5.592510E+04  1.782552E+04  1.495089E+05 -3.652174E-09 -6.643692E-10
       157  16  3.090072E+05  6.265111E+04  4.763464E+04  9.072471E+04  5.070900E-10  3.782238E-09
       157  17  2.977581E+05  1.668927E+04  1.056829E+04  1.193176E+05  3.380185E-09  1.751143E-09
       157  18  3.061582E+05  3.738326E+04  1.429353E+03  1.381219E+05  1.493434E-09 -9.304960E-10
       157  19  4.558803E+05  1.548185E+05  9.459786E+04  1.684424E+05 -4.739116E+04 -1.674387E+04
       157  20  4.397106E+05  8.105189E+04  4.937919E+04  1.695633E+05 -3.046382E+04 -8.154045E+03
       157  21  4.437189E+05  7.446678E+04  3.422161E+04  1.608967E+05 -1.266691E+04 -1.870391E+03
       157  22  3.824414E+05  1.087330E+05  7.111837E+04  1.295811E+05 -4.558602E+04 -1.606113E+04
       157  23  3.687322E+05  4.887017E+04  2.997481E+04  1.444391E+05 -3.000832E+04 -7.981831E+03
       157  24  3.749365E+05  5.592515E+04  1.782587E+04  1.495089E+05 -1.356076E+04 -2.207831E+03
       157  25  3.090093E+05  6.265188E+04  4.763868E+04  9.072526E+04 -4.378113E+04 -1.537861E+04
       157  26  2.977590E+05  1.668956E+04  1.057004E+04  1.193178E+05 -2.955287E+04 -7.809649E+03
       157  27  3.061585E+05  3.738332E+04  1.429757E+03  1.381219E+05 -1.445451E+04 -2.545257E+03
       158   1  4.216859E+05  8.277169E+04  2.740511E+04  1.604914E+05  1.067258E+04  1.839801E+03
       158   2  4.120050E+05  6.954150E+04  1.705912E+04  1.549538E+05  6.792167E+03  8.296849E+02
       158   3  3.995887E+05  6.756929E+04  1.107756E+04  1.541671E+05  2.857634E+03 -3.679151E+01
       158   4  3.726394E+05  6.281272E+04  1.440803E+04  1.454721E+05  1.086252E+04  1.911434E+03
       158   5  3.736663E+05  5.473497E+04  7.066969E+03  1.440243E+05  7.066333E+03  9.331387E+02
       158   6  3.719413E+05  5.789873E+04  4.023900E+03  1.473273E+05  3.215963E+03  9.844688E+01
       158   7  3.235952E+05  4.285401E+04  1.410747E+03  1.304540E+05  1.105244E+04  1.983059E+03
       158   8  3.353291E+05  3.992859E+04 -2.925283E+03  1.330955E+05  7.340480E+03  1.036585E+03
       158   9  3.442947E+05  4.822822E+04 -3.029799E+03  1.404878E+05  3.574273E+03  2.336793E+02
       158  10  4.216857E+05  8.277166E+04  2.740489E+04  1.604914E+05 -8.424916E-10  3.473221E-09
       158  11  4.120049E+05  6.954149E+04  1.705903E+04  1.549538E+05  3.816248E-09 -1.294677E-09
       158  12  3.995887E+05  6.756929E+04  1.107755E+04  1.541671E+05 -9.947758E-11  2.189826E-09
       158  13  3.726392E+05  6.281268E+04  1.440780E+04  1.454721E+05 -5.845343E-09 -4.729849E-09
       158  14  3.736662E+05  5.473496E+04  7.066873E+03  1.440243E+05 -2.224482E-09 -1.044338E-08
       158  15  3.719413E+05  5.789872E+04  4.023881E+03  1.473273E+05 -4.645337E-09  9.978191E-09
       158  16  3.235951E+05  4.285397E+04  1.410510E+03  1.304540E+05 -3.000952E-09 -2.873890E-09
       158  17  3.353291E+05  3.992857E+04 -2.925386E+03  1.330955E+05 -4.296771E-09  7.896625E-09
       158  18  3.442947E+05  4.822821E+04 -3.029823E+03  1.404878E+05  1.433542E-10 -8.519625E-10
       158  19  4.216859E+05  8.277169E+04  2.740511E+04  1.604914E+05 -1.067258E+04 -1.839801E+03
       158  20  4.120050E+05  6.954150E+04  1.705912E+04  1.549538E+05 -6.792167E+03 -8.296849E+02
       158  21  3.995887E+05  6.756929E+04  1.107756E+04  1.541671E+05 -2.857634E+03  3.679151E+01
       158  22  3.726394E+05  6.281272E+04  1.440803E+04  1.454721E+05 -1.086252E+04 -1.911434E+03
       158  23  3.736663E+05  5.473497E+04  7.066969E+03  1.440243E+05 -7.066333E+03 -9.331387E+02
       158  24  3.719413E+05  5.789873E+04  4.023900E+03  1.473273E+05 -3.215963E+03 -9.844688E+01
       158  25  3.235952E+05  4.285401E+04  1.410747E+03  1.304540E+05 -1.105244E+04 -1.983059E+03
       158  26  3.353291E+05  3.992859E+04 -2.925283E+03  1.330955E+05 -7.340480E+03 -1.036585E+03
       158  27  3.442947E+05  4.822822E+04 -3.029799E+03  1.404878E+05 -3.574273E+03 -2.336793E+02
       159   1  3.854854E+05  6.379986E+04  6.668584E+03  1.508248E+05  2.199655E+03  1.038534E+02
       159   2  3.765761E+05  5.622549E+04  2.275611E+03  1.446679E+05  1.153772E+03  3.280647E+02
       159   3  3.625811E+05  5.460698E+04 -1.343377E+03  1.445392E+05  1.045136E+02  5.612323E+02
       159   4  3.716783E+05  5.852024E+04  3.117772E+03  1.469333E+05  2.513723E+03  2.223879E+02
       159   5  3.741899E+05  5.531941E+04  1.656603E+03  1.440035E+05  1.473096E+03  4.485843E+02
       159   6  3.716149E+05  5.807349E+04  9.653544E+02  1.471020E+05  4.290767E+02  6.837311E+02
       159   7  3.578714E+05  5.324062E+04 -4.330685E+02  1.430419E+05  2.827785E+03  3.409199E+02
       159   8  3.718038E+05  5.441332E+04  1.037595E+03  1.433392E+05  1.792418E+03  5.691036E+02
       159   9  3.806488E+05  6.154000E+04  3.274080E+03  1.496648E+05  7.536450E+02  8.062319E+02
       159  10  3.854854E+05  6.379986E+04  6.668575E+03  1.508248E+05  1.053242E-08  7.215950E-09
       159  11  3.765761E+05  5.622549E+04  2.275608E+03  1.446679E+05  6.701544E-09  5.032328E-09
       159  12  3.625811E+05  5.460698E+04 -1.343377E+03  1.445392E+05  4.245987E-09  8.131962E-09
       159  13  3.716783E+05  5.852024E+04  3.117760E+03  1.469333E+05 -5.588343E-10  3.095044E-09
       159  14  3.741899E+05  5.531941E+04  1.656599E+03  1.440035E+05  7.189573E-09  9.568080E-09
       159  15  3.716149E+05  5.807349E+04  9.653532E+02  1.471020E+05  1.933216E-09  5.751864E-09
       159  16  3.578714E+05  5.324062E+04 -4.330838E+02  1.430419E+05 -9.136329E-09  3.466589E-10
       159  17  3.718037E+05  5.441332E+04  1.037588E+03  1.433392E+05 -7.899141E-09 -2.194005E-09
       159  18  3.806488E+05  6.154000E+04  3.274077E+03  1.496648E+05  7.339484E-09  4.328579E-09
       159  19  3.854854E+05  6.379986E+04  6.668584E+03  1.508248E+05 -2.199655E+03 -1.038534E+02
       159  20  3.765761E+05  5.622549E+04  2.275611E+03  1.446679E+05 -1.153772E+03 -3.280647E+02
       159  21  3.625811E+05  5.460698E+04 -1.343377E+03  1.445392E+05 -1.045136E+02 -5.612323E+02
       159  22  3.716783E+05  5.852024E+04  3.117772E+03  1.469333E+05 -2.513723E+03 -2.223879E+02
       159  23  3.741899E+05  5.531941E+04  1.656603E+03  1.440035E+05 -1.473096E+03 -4.485843E+02
       159  24  3.716149E+05  5.807349E+04  9.653544E+02  1.471020E+05 -4.290767E+02 -6.837311E+02
       159  25  3.578714E+05  5.324062E+04 -4.330685E+02  1.430419E+05 -2.827785E+03 -3.409199E+02
       159  26  3.718038E+05  5.441332E+04  1.037595E+03  1.433392E+05 -1.792418E+03 -5.691036E+02
       159  27  3.806488E+05  6.154000E+04  3.274080E+03  1.496648E+05 -7.536450E+02 -8.062319E+02
       160   1  3.492587E+05  4.972929E+04 -5.050367E+03  1.409404E+05 -1.568285E+02  8.306735E+02
       160   2  3.404277E+05  4.265443E+04 -8.236107E+03  1.347096E+05 -6.232639E+02  1.284762E+03
       160   3  3.262427E+05  4.105303E+04 -1.121381E+04  1.346247E+05 -1.090169E+03  1.740249E+03
       160   4  3.715785E+05  5.812898E+04  7.665620E+02  1.470668E+05  1.651974E+02  9.522105E+02
       160   5  3.742530E+05  5.537495E+04  5.150506E+02  1.440004E+05 -3.004383E+02  1.406588E+03
       160   6  3.715733E+05  5.809418E+04  4.709532E+02  1.470798E+05 -7.665506E+02  1.862364E+03
       160   7  3.938987E+05  6.652867E+04  6.583429E+03  1.531933E+05  4.872350E+02  1.073752E+03
       160   8  4.080795E+05  6.809554E+04  9.266113E+03  1.532916E+05  2.240654E+01  1.528421E+03
       160   9  4.169061E+05  7.513551E+04  1.215559E+04  1.595358E+05 -4.429051E+02  1.984488E+03
       160  10  3.492587E+05  4.972929E+04 -5.050369E+03  1.409404E+05 -4.209072E-09 -1.285857E-09
       160  11  3.404277E+05  4.265443E+04 -8.236110E+03  1.347096E+05 -6.633408E-09  4.388520E-09
       160  12  3.262427E+05  4.105303E+04 -1.121382E+04  1.346247E+05  1.382937E-09  6.844330E-09
       160  13  3.715785E+05  5.812898E+04  7.665602E+02  1.470668E+05  1.349923E-09  7.614119E-09
       160  14  3.742530E+05  5.537495E+04  5.150467E+02  1.440004E+05  2.826316E-10  6.965640E-09
       160  15  3.715733E+05  5.809417E+04  4.709456E+02  1.470798E+05 -1.912438E-09 -1.705477E-09
       160  16  3.938987E+05  6.652866E+04  6.583427E+03  1.531933E+05  1.055821E-08  1.297327E-08
       160  17  4.080795E+05  6.809554E+04  9.266109E+03  1.532916E+05  9.575018E-09 -1.599613E-09
       160  18  4.169061E+05  7.513551E+04  1.215558E+04  1.595358E+05 -1.142475E-09  3.474772E-09
       160  19  3.492587E+05  4.972929E+04 -5.050367E+03  1.409404E+05  1.568285E+02 -8.306735E+02
       160  20  3.404277E+05  4.265443E+04 -8.236107E+03  1.347096E+05  6.232639E+02 -1.284762E+03
       160  21  3.262427E+05  4.105303E+04 -1.121381E+04  1.346247E+05  1.090169E+03 -1.740249E+03
       160  22  3.715785E+05  5.812898E+04  7.665620E+02  1.470668E+05 -1.651974E+02 -9.522105E+02
       160  23  3.742530E+05  5.537495E+04  5.150506E+02  1.440004E+05  3.004383E+02 -1.406588E+03
       160  24  3.715733E+05  5.809418E+04  4.709532E+02  1.470798E+05  7.665506E+02 -1.862364E+03
       160  25  3.938987E+05  6.652867E+04  6.583429E+03  1.531933E+05 -4.872350E+02 -1.073752E+03
       160  26  4.080795E+05  6.809554E+04  9.266113E+03  1.532916E+05 -2.240654E+01 -1.528421E+03
       160  27  4.169061E+05  7.513551E+04  1.215559E+04  1.595358E+05  4.429051E+02 -1.984488E+03
       161   1  3.129400E+05  3.606206E+04 -1.470002E+04  1.310101E+05 -1.293746E+03  2.031956E+03
       161   2  3.040443E+05  2.897160E+04 -1.743801E+04  1.247214E+05 -1.865593E+03  2.450423E+03
       161   3  2.897915E+05  2.742500E+04 -1.988023E+04  1.246170E+05 -2.437602E+03  2.869625E+03
       161   4  3.715708E+05  5.809986E+04  5.084492E+02  1.470919E+05 -9.694304E+02  2.154322E+03
       161   5  3.742537E+05  5.535836E+04  7.235334E+02  1.439883E+05 -1.540905E+03  2.572903E+03
       161   6  3.715791E+05  5.816057E+04  1.234056E+03  1.470689E+05 -2.112549E+03  2.992218E+03
       161   7  4.302050E+05  8.013788E+04  1.571663E+04  1.631751E+05 -6.450811E+02  2.276700E+03
       161   8  4.444677E+05  8.174539E+04  1.888463E+04  1.632571E+05 -1.216178E+03  2.695399E+03
       161   9  4.533729E+05  8.889646E+04  2.234772E+04  1.695233E+05 -1.787451E+03  3.114828E+03
       161  10  3.129400E+05  3.606206E+04 -1.470003E+04  1.310101E+05 -5.183511E-09  1.947375E-09
       161  11  3.040443E+05  2.897160E+04 -1.743803E+04  1.247214E+05 -1.696712E-09  4.346625E-09
       161  12  2.897915E+05  2.742499E+04 -1.988026E+04  1.246170E+05  5.345086E-09  1.746632E-09
       161  13  3.715708E+05  5.809986E+04  5.084387E+02  1.470920E+05 -4.738948E-11  6.462045E-09
       161  14  3.742537E+05  5.535835E+04  7.235165E+02  1.439883E+05 -3.576211E-09 -2.391870E-10
       161  15  3.715791E+05  5.816056E+04  1.234031E+03  1.470689E+05  9.926032E-10  3.122689E-09
       161  16  4.302050E+05  8.013788E+04  1.571662E+04  1.631751E+05  3.700917E-09 -1.235019E-09
       161  17  4.444677E+05  8.174538E+04  1.888462E+04  1.632571E+05 -2.155208E-09 -2.768909E-09
       161  18  4.533729E+05  8.889645E+04  2.234769E+04  1.695233E+05 -1.705644E-09 -4.210263E-09
       161  19  3.129400E+05  3.606206E+04 -1.470002E+04  1.310101E+05  1.293746E+03 -2.031956E+03
       161  20  3.040443E+05  2.897160E+04 -1.743801E+04  1.247214E+05  1.865593E+03 -2.450423E+03
       161  21  2.897915E+05  2.742500E+04 -1.988023E+04  1.246170E+05  2.437602E+03 -2.869625E+03
       161  22  3.715708E+05  5.809986E+04  5.084492E+02  1.470919E+05  9.694304E+02 -2.154322E+03
       161  23  3.742537E+05  5.535836E+04  7.235334E+02  1.439883E+05  1.540905E+03 -2.572903E+03
       161  24  3.715791E+05  5.816057E+04  1.234056E+03  1.470689E+05  2.112549E+03 -2.992218E+03
       161  25  4.302050E+05  8.013788E+04  1.571663E+04  1.631751E+05  6.450811E+02 -2.276700E+03
       161  26  4.444677E+05  8.174539E+04  1.888463E+04  1.632571E+05  1.216178E+03 -2.695399E+03
       161  27  4.533729E+05  8.889646E+04  2.234772E+04  1.695233E+05  1.787451E+03 -3.114828E+03
       162   1  2.763360E+05  2.238940E+04 -2.306716E+04  1.211351E+05 -2.801072E+03  3.107083E+03
       162   2  2.672605E+05  1.504320E+04 -2.482793E+04  1.146166E+05 -4.430017E+03  3.131980E+03
       162   3  2.532319E+05  1.416002E+04 -2.527546E+04  1.141742E+05 -6.052539E+03  3.140229E+03
       162   4  3.716285E+05  5.808287E+04  1.601943E+03  1.471510E+05 -2.469162E+03  3.232242E+03
       162   5  3.741582E+05  5.523512E+04  2.827783E+03  1.439677E+05 -4.108095E+03  3.253334E+03
       162   6  3.717369E+05  5.885232E+04  5.374664E+03  1.468604E+05 -5.740631E+03  3.257768E+03
       162   7  4.669300E+05  9.377703E+04  2.627038E+04  1.731705E+05 -2.137195E+03  3.357422E+03
       162   8  4.810672E+05  9.542786E+04  3.048259E+04  1.733233E+05 -3.786111E+03  3.374710E+03
       162   9  4.902556E+05  1.035456E+05  3.602363E+04  1.795523E+05 -5.428658E+03  3.375332E+03
       162  10  2.763360E+05  2.238938E+04 -2.306719E+04  1.211351E+05 -7.709678E-09  3.408496E-11
       162  11  2.672604E+05  1.504318E+04 -2.482798E+04  1.146167E+05 -2.608121E-09  8.062443E-09
       162  12  2.532319E+05  1.416000E+04 -2.527555E+04  1.141742E+05  3.810697E-09 -6.251779E-11
       162  13  3.716284E+05  5.808286E+04  1.601912E+03  1.471510E+05 -2.759304E-09 -2.681135E-09
       162  14  3.741582E+05  5.523511E+04  2.827731E+03  1.439677E+05 -1.006253E-08 -5.868006E-09
       162  15  3.717369E+05  5.885230E+04  5.374582E+03  1.468604E+05 -4.408242E-09 -2.429256E-09
       162  16  4.669300E+05  9.377702E+04  2.627035E+04  1.731706E+05  6.926560E-09 -1.671026E-09
       162  17  4.810672E+05  9.542784E+04  3.048255E+04  1.733234E+05 -1.158342E-09  2.675936E-09
       162  18  4.902555E+05  1.035455E+05  3.602355E+04  1.795523E+05 -8.826946E-09  1.923322E-09
       162  19  2.763360E+05  2.238940E+04 -2.306716E+04  1.211351E+05  2.801072E+03 -3.107083E+03
       162  20  2.672605E+05  1.504320E+04 -2.482793E+04  1.146166E+05  4.430017E+03 -3.131980E+03
       162  21  2.532319E+05  1.416002E+04 -2.527546E+04  1.141742E+05  6.052539E+03 -3.140229E+03
       162  22  3.716285E+05  5.808287E+04  1.601943E+03  1.471510E+05  2.469162E+03 -3.232242E+03
       162  23  3.741582E+05  5.523512E+04  2.827783E+03  1.439677E+05  4.108095E+03 -3.253334E+03
       162  24  3.717369E+05  5.885232E+04  5.374664E+03  1.468604E+05  5.740631E+03 -3.257768E+03
       162  25  4.669300E+05  9.377703E+04  2.627038E+04  1.731705E+05  2.137195E+03 -3.357422E+03
       162  26  4.810672E+05  9.542786E+04  3.048259E+04  1.733233E+05  3.786111E+03 -3.374710E+03
       162  27  4.902556E+05  1.035456E+05  3.602363E+04  1.795523E+05  5.428658E+03 -3.375332E+03
       163   1  2.390507E+05  9.021515E+03 -2.728617E+04  1.123329E+05 -7.278946E+03  3.102076E+03
       163   2  2.296558E+05 -4.301151E+02 -2.505591E+04  1.038983E+05 -1.360935E+04  1.339049E+03
       163   3  2.192651E+05  5.763737E+03 -1.552748E+04  9.940745E+04 -1.982374E+04 -7.310834E+02
       163   4  3.721813E+05  5.779112E+04  6.948805E+03  1.475582E+05 -6.870808E+03  3.255883E+03
       163   5  3.732640E+05  5.420311E+04  1.221926E+04  1.439831E+05 -1.338217E+04  1.424554E+03
       163   6  3.733856E+05  6.629464E+04  2.492989E+04  1.443516E+05 -1.977767E+04 -7.139429E+02
       163   7  5.053287E+05  1.065615E+05  4.118221E+04  1.827901E+05 -6.462575E+03  3.409724E+03
       163   8  5.168922E+05  1.088378E+05  4.949269E+04  1.840764E+05 -1.315494E+04  1.510081E+03
       163   9  5.275297E+05  1.268278E+05  6.538538E+04  1.893062E+05 -1.973159E+04 -6.967968E+02
       163  10  2.390506E+05  9.021491E+03 -2.728629E+04  1.123329E+05  6.281767E-09  2.539962E-09
       163  11  2.296556E+05 -4.301668E+02 -2.505626E+04  1.038983E+05  1.647605E-09 -5.800457E-09
       163  12  2.192647E+05  5.763631E+03 -1.552822E+04  9.940744E+04 -8.044735E-10 -1.015070E-08
       163  13  3.721813E+05  5.779110E+04  6.948696E+03  1.475582E+05 -6.494070E-09 -1.109453E-09
       163  14  3.732638E+05  5.420306E+04  1.221892E+04  1.439832E+05 -3.479167E-09  1.852807E-09
       163  15  3.733852E+05  6.629453E+04  2.492916E+04  1.443516E+05  6.776284E-10 -5.019728E-09
       163  16  5.053287E+05  1.065614E+05  4.118211E+04  1.827901E+05 -5.883706E-09  6.103366E-09
       163  17  5.168920E+05  1.088377E+05  4.949236E+04  1.840764E+05  2.155598E-09  6.244509E-09
       163  18  5.275293E+05  1.268277E+05  6.538465E+04  1.893062E+05  1.657054E-09  3.218504E-09
       163  19  2.390507E+05  9.021515E+03 -2.728617E+04  1.123329E+05  7.278946E+03 -3.102076E+03
       163  20  2.296558E+05 -4.301151E+02 -2.505591E+04  1.038983E+05  1.360935E+04 -1.339049E+03
       163  21  2.192651E+05  5.763737E+03 -1.552748E+04  9.940745E+04  1.982374E+04  7.310834E+02
       163  22  3.721813E+05  5.779112E+04  6.948805E+03  1.475582E+05  6.870808E+03 -3.255883E+03
       163  23  3.732640E+05  5.420311E+04  1.221926E+04  1.439831E+05  1.338217E+04 -1.424554E+03
       163  24  3.733856E+05  6.629464E+04  2.492989E+04  1.443516E+05  1.977767E+04  7.139429E+02
       163  25  5.053287E+05  1.065615E+05  4.118221E+04  1.827901E+05  6.462575E+03 -3.409724E+03
       163  26  5.168922E+05  1.088378E+05  4.949269E+04  1.840764E+05  1.315494E+04 -1.510081E+03
       163  27  5.275297E+05  1.268278E+05  6.538538E+04  1.893062E+05  1.973159E+04  6.967968E+02
       164   1  1.982876E+05 -2.380908E+02 -1.299967E+04  1.152057E+05 -2.597556E+04 -1.905437E+03
       164   2  1.897963E+05 -3.115289E+04  4.817718E+03  8.698773E+04 -5.136109E+04 -1.124045E+04
       164   3  2.189629E+05  4.946689E+04  7.052679E+04  3.761312E+04 -7.487715E+04 -2.553735E+04
       164   4  3.773644E+05  5.437488E+04  3.084679E+04  1.513359E+05 -2.441293E+04 -1.316206E+03
       164   5  3.647289E+05  4.404385E+04  5.187063E+04  1.446927E+05 -5.270700E+04 -1.174853E+04
       164   6  3.903133E+05  1.458020E+05  1.230797E+05  1.168967E+05 -7.913167E+04 -2.714418E+04
       164   7  5.564728E+05  1.089877E+05  7.469106E+04  1.874745E+05 -2.284980E+04 -7.268681E+02
       164   8  5.396905E+05  1.192449E+05  9.892058E+04  2.024130E+05 -5.405332E+04 -1.225681E+04
       164   9  5.616927E+05  2.421504E+05  1.756292E+05  1.962025E+05 -8.338741E+04 -2.875201E+04
       164  10  1.982869E+05 -2.382758E+02 -1.300095E+04  1.152056E+05  8.931655E-09 -1.952333E-09
       164  11  1.897935E+05 -3.115374E+04  4.812526E+03  8.698727E+04  1.533423E-09 -1.723947E-09
       164  12  2.189567E+05  4.946469E+04  7.051504E+04  3.761158E+04 -6.706713E-09 -3.333383E-09
       164  13  3.773637E+05  5.437471E+04  3.084566E+04  1.513359E+05  2.164439E-09 -6.647445E-09
       164  14  3.647258E+05  4.404296E+04  5.186516E+04  1.446922E+05  2.623766E-09 -3.788149E-09
       164  15  3.903064E+05  1.457996E+05  1.230666E+05  1.168950E+05  4.647963E-10 -4.649371E-09
       164  16  5.564722E+05  1.089876E+05  7.469008E+04  1.874745E+05 -7.179493E-09 -4.918585E-09
       164  17  5.396873E+05  1.192440E+05  9.891481E+04  2.024125E+05 -9.172160E-10 -9.331220E-10
       164  18  5.616850E+05  2.421477E+05  1.756146E+05  1.962006E+05  6.905296E-09  1.765419E-10
       164  19  1.982876E+05 -2.380908E+02 -1.299967E+04  1.152057E+05  2.597556E+04  1.905437E+03
       164  20  1.897963E+05 -3.115289E+04  4.817718E+03  8.698773E+04  5.136109E+04  1.124045E+04
       164  21  2.189629E+05  4.946689E+04  7.052679E+04  3.761312E+04  7.487715E+04  2.553735E+04
       164  22  3.773644E+05  5.437488E+04  3.084679E+04  1.513359E+05  2.441293E+04  1.316206E+03
       164  23  3.647289E+05  4.404385E+04  5.187063E+04  1.446927E+05  5.270700E+04  1.174853E+04
       164  24  3.903133E+05  1.458020E+05  1.230797E+05  1.168967E+05  7.913167E+04  2.714418E+04
       164  25  5.564728E+05  1.089877E+05  7.469106E+04  1.874745E+05  2.284980E+04  7.268681E+02
       164  26  5.396905E+05  1.192449E+05  9.892058E+04  2.024130E+05  5.405332E+04  1.225681E+04
       164  27  5.616927E+05  2.421504E+05  1.756292E+05  1.962025E+05  8.338741E+04  2.875201E+04
       165   1 -3.112397E+02 -5.447034E+05 -2.599396E+03 -1.905705E+02 -5.546317E+01  1.879464E+02
       165   2 -6.709561E+02 -5.464396E+05 -3.574543E+03  3.529236E+02 -1.082671E+02  1.589172E+03
       165   3 -1.831545E+03 -5.485631E+05 -5.663698E+03 -4.195024E+02 -1.886313E+02  2.990376E+03
       165   4 -2.033935E+01 -5.435261E+05 -2.324642E+03 -2.922116E+02 -5.549105E+01  2.084230E+02
       165   5  9.892365E+01 -5.433313E+05 -2.835131E+03  3.653643E+02 -1.083155E+02  1.624858E+03
       165   6 -5.853170E+02 -5.435264E+05 -4.470182E+03 -2.929780E+02 -1.886996E+02  3.041275E+03
       165   7  2.705609E+02 -5.423487E+05 -2.049889E+03 -3.938529E+02 -5.551893E+01  2.288996E+02
       165   8  8.688027E+02 -5.402229E+05 -2.095718E+03  3.778050E+02 -1.083639E+02  1.660543E+03
       165   9  6.609089E+02 -5.384898E+05 -3.276668E+03 -1.664527E+02 -1.887679E+02  3.092174E+03
       165  10 -3.112397E+02 -5.447034E+05 -2.599396E+03 -1.905705E+02 -6.559787E-09 -1.627117E-08
       165  11 -6.709568E+02 -5.464396E+05 -3.574548E+03  3.529237E+02  5.789563E-09 -6.407311E-09
       165  12 -1.831547E+03 -5.485631E+05 -5.663715E+03 -4.195019E+02  5.112139E-09  7.616798E-09
       165  13 -2.033937E+01 -5.435261E+05 -2.324642E+03 -2.922116E+02 -3.988902E-09  4.364589E-09
       165  14  9.892292E+01 -5.433313E+05 -2.835136E+03  3.653644E+02 -6.498591E-10  6.684495E-10
       165  15 -5.853195E+02 -5.435265E+05 -4.470199E+03 -2.929776E+02  1.060376E-09 -2.903596E-09
       165  16  2.705609E+02 -5.423487E+05 -2.049889E+03 -3.938529E+02 -3.237502E-09  2.060113E-08
       165  17  8.688019E+02 -5.402229E+05 -2.095724E+03  3.778052E+02  3.483912E-09  8.025600E-09
       165  18  6.609063E+02 -5.384898E+05 -3.276686E+03 -1.664522E+02  8.339737E-10 -4.693868E-09
       165  19 -3.112397E+02 -5.447034E+05 -2.599396E+03 -1.905705E+02  5.546317E+01 -1.879464E+02
       165  20 -6.709561E+02 -5.464396E+05 -3.574543E+03  3.529236E+02  1.082671E+02 -1.589172E+03
       165  21 -1.831545E+03 -5.485631E+05 -5.663698E+03 -4.195024E+02  1.886313E+02 -2.990376E+03
       165  22 -2.033935E+01 -5.435261E+05 -2.324642E+03 -2.922116E+02  5.549105E+01 -2.084230E+02
       165  23  9.892365E+01 -5.433313E+05 -2.835131E+03  3.653643E+02  1.083155E+02 -1.624858E+03
       165  24 -5.853170E+02 -5.435264E+05 -4.470182E+03 -2.929780E+02  1.886996E+02 -3.041275E+03
       165  25  2.705609E+02 -5.423487E+05 -2.049889E+03 -3.938529E+02  5.551893E+01 -2.288996E+02
       165  26  8.688027E+02 -5.402229E+05 -2.095718E+03  3.778050E+02  1.083639E+02 -1.660543E+03
       165  27  6.609089E+02 -5.384898E+05 -3.276668E+03 -1.664527E+02  1.887679E+02 -3.092174E+03
       166   1 -1.508939E+03 -5.513747E+05 -7.325084E+03  6.304516E+02 -2.453612E+02  3.877294E+03
       166   2 -1.479239E+03 -5.520545E+05 -1.134234E+04 -9.511343E+01 -3.297767E+02  8.553315E+03
       166   3 -8.929210E+03 -5.552184E+05 -2.027666E+04 -2.134311E+03 -3.886226E+02  1.322934E+04
       166   4  3.239813E+02 -5.439909E+05 -5.563672E+03 -2.892433E+02 -2.454347E+02  3.927455E+03
       166   5  8.235101E+02 -5.427515E+05 -9.129817E+03  3.632138E+02 -3.298187E+02  8.589423E+03
       166   6 -6.154130E+03 -5.439936E+05 -1.760320E+04 -2.979631E+02 -3.886124E+02  1.325141E+04
       166   7  2.156901E+03 -5.366071E+05 -3.802263E+03 -1.208949E+03 -2.455083E+02  3.977617E+03
       166   8  3.126254E+03 -5.334483E+05 -6.917302E+03  8.215479E+02 -3.298606E+02  8.625532E+03
       166   9 -3.379046E+03 -5.327686E+05 -1.492976E+04  1.538418E+03 -3.886021E+02  1.327348E+04
       166  10 -1.508943E+03 -5.513748E+05 -7.325113E+03  6.304523E+02  8.515856E-10 -8.816770E-09
       166  11 -1.479259E+03 -5.520546E+05 -1.134247E+04 -9.511116E+01 -1.521786E-09 -6.534754E-09
       166  12 -8.929257E+03 -5.552186E+05 -2.027699E+04 -2.134307E+03 -2.556494E-09  9.636514E-11
       166  13  3.239771E+02 -5.439910E+05 -5.563701E+03 -2.892426E+02 -4.316537E-10 -2.145307E-09
       166  14  8.234902E+02 -5.427516E+05 -9.129955E+03  3.632161E+02 -1.387630E-09  5.299596E-10
       166  15 -6.154177E+03 -5.439938E+05 -1.760354E+04 -2.979590E+02  1.501177E-09 -1.858414E-09
       166  16  2.156896E+03 -5.366071E+05 -3.802293E+03 -1.208948E+03 -2.747026E-09  6.123232E-09
       166  17  3.126234E+03 -5.334484E+05 -6.917442E+03  8.215502E+02 -2.716624E-10  1.016924E-08
       166  18 -3.379093E+03 -5.327688E+05 -1.493009E+04  1.538422E+03 -1.657144E-09  3.210914E-09
       166  19 -1.508939E+03 -5.513747E+05 -7.325084E+03  6.304516E+02  2.453612E+02 -3.877294E+03
       166  20 -1.479239E+03 -5.520545E+05 -1.134234E+04 -9.511343E+01  3.297767E+02 -8.553315E+03
       166  21 -8.929210E+03 -5.552184E+05 -2.027666E+04 -2.134311E+03  3.886226E+02 -1.322934E+04
       166  22  3.239813E+02 -5.439909E+05 -5.563672E+03 -2.892433E+02  2.454347E+02 -3.927455E+03
       166  23  8.235101E+02 -5.427515E+05 -9.129817E+03  3.632138E+02  3.298187E+02 -8.589423E+03
       166  24 -6.154130E+03 -5.439936E+05 -1.760320E+04 -2.979631E+02  3.886124E+02 -1.325141E+04
       166  25  2.156901E+03 -5.366071E+05 -3.802263E+03 -1.208949E+03  2.455083E+02 -3.977617E+03
       166  26  3.126254E+03 -5.334483E+05 -6.917302E+03  8.215479E+02  3.298606E+02 -8.625532E+03
       166  27 -3.379046E+03 -5.327686E+05 -1.492976E+04  1.538418E+03  3.886021E+02 -1.327348E+04
       167   1 -4.071545E+01 -5.617051E+05 -2.481692E+04  8.403461E+03 -4.959031E+02  1.642654E+04
       167   2  4.198541E+03 -5.529650E+05 -3.841281E+04 -5.916216E+03 -5.775664E+02  3.536268E+04
       167   3 -6.713123E+04 -5.655931E+05 -8.323725E+04 -2.158594E+04 -2.524907E+02  5.429911E+04
       167   4  3.337999E+03 -5.481780E+05 -2.159759E+04 -2.733912E+02 -4.963241E+02  1.656998E+04
       167   5  8.002527E+03 -5.375221E+05 -3.474437E+04  3.579928E+02 -5.770990E+02  3.528166E+04
       167   6 -6.286280E+04 -5.481953E+05 -7.896329E+04 -3.612117E+02 -2.502266E+02  5.399369E+04
       167   7  6.716982E+03 -5.346506E+05 -1.837824E+04 -8.950433E+03 -4.967492E+02  1.671341E+04
       167   8  1.180664E+04 -5.220789E+05 -3.107592E+04  6.632358E+03 -5.766333E+02  3.520063E+04
       167   9 -5.859270E+04 -5.307961E+05 -7.468911E+04  2.086411E+04 -2.479834E+02  5.368827E+04
       167  10 -4.078823E+01 -5.617053E+05 -2.481743E+04  8.403467E+03  5.675562E-09 -1.015903E-09
       167  11  4.198205E+03 -5.529664E+05 -3.841516E+04 -5.916199E+03  5.345020E-09  6.194285E-10
       167  12 -6.713202E+04 -5.655963E+05 -8.324280E+04 -2.158593E+04  3.004678E-09  3.015054E-09
       167  13  3.337925E+03 -5.481783E+05 -2.159811E+04 -2.733845E+02 -1.510441E-09 -1.040623E-09
       167  14  8.002192E+03 -5.375234E+05 -3.474671E+04  3.580092E+02  7.752934E-10 -1.084456E-09
       167  15 -6.286358E+04 -5.481984E+05 -7.896877E+04 -3.612008E+02  3.028638E-09 -5.995658E-10
       167  16  6.716907E+03 -5.346509E+05 -1.837877E+04 -8.950426E+03 -2.085930E-10  1.031059E-09
       167  17  1.180631E+04 -5.220802E+05 -3.107825E+04  6.632375E+03  1.086474E-09  3.168098E-09
       167  18 -5.859347E+04 -5.307992E+05 -7.469453E+04  2.086412E+04  6.036964E-10  3.803101E-09
       167  19 -4.071545E+01 -5.617051E+05 -2.481692E+04  8.403461E+03  4.959031E+02 -1.642654E+04
       167  20  4.198541E+03 -5.529650E+05 -3.841281E+04 -5.916216E+03  5.775664E+02 -3.536268E+04
       167  21 -6.713123E+04 -5.655931E+05 -8.323725E+04 -2.158594E+04  2.524907E+02 -5.429911E+04
       167  22  3.337999E+03 -5.481780E+05 -2.159759E+04 -2.733912E+02  4.963241E+02 -1.656998E+04
       167  23  8.002527E+03 -5.375221E+05 -3.474437E+04  3.579928E+02  5.770990E+02 -3.528166E+04
       167  24 -6.286280E+04 -5.481953E+05 -7.896329E+04 -3.612117E+02  2.502266E+02 -5.399369E+04
       167  25  6.716982E+03 -5.346506E+05 -1.837824E+04 -8.950433E+03  4.967492E+02 -1.671341E+04
       167  26  1.180664E+04 -5.220789E+05 -3.107592E+04  6.632358E+03  5.766333E+02 -3.520063E+04
       167  27 -5.859270E+04 -5.307961E+05 -7.468911E+04  2.086411E+04  2.479834E+02 -5.368827E+04
       168   1  3.958856E-01  1.062938E-01  1.795109E+01  9.987174E-03 -1.626420E+00 -1.206501E-02
       168   2 -4.951597E-01 -2.358279E-01  2.214836E+01  1.030837E-02 -1.259372E+01 -9.342215E-02
       168   3  3.957947E-01  8.377539E-01  3.383993E+01  1.335161E-02 -2.356087E+01 -1.747781E-01
       168   4  3.960011E-01  1.061787E-01  1.795109E+01  2.150891E-03 -1.626420E+00 -1.206501E-02
       168   5 -4.949792E-01 -2.360099E-01  2.214836E+01 -1.921170E-03 -1.259372E+01 -9.342214E-02
       168   6  3.960417E-01  8.375112E-01  3.383993E+01 -3.274981E-03 -2.356087E+01 -1.747781E-01
       168   7  3.961167E-01  1.060630E-01  1.795109E+01 -5.687212E-03 -1.626420E+00 -1.206502E-02
       168   8 -4.947977E-01 -2.361883E-01  2.214836E+01 -1.415168E-02 -1.259372E+01 -9.342215E-02
       168   9  3.962907E-01  8.372763E-01  3.383993E+01 -1.990141E-02 -2.356087E+01 -1.747781E-01
       168  10  3.958839E-01  1.062878E-01  1.795109E+01  9.984997E-03  2.373792E-09  2.880168E-09
       168  11 -4.951597E-01 -2.358272E-01  2.214836E+01  1.031104E-02 -1.187445E-09 -3.876824E-09
       168  12  3.957958E-01  8.377601E-01  3.383993E+01  1.335226E-02 -7.927019E-10  3.405811E-10
       168  13  3.960019E-01  1.061817E-01  1.795109E+01  2.150138E-03 -5.689574E-10 -1.198938E-09
       168  14 -4.949796E-01 -2.360111E-01  2.214836E+01 -1.921196E-03 -4.398227E-09 -9.461867E-09
       168  15  3.960414E-01  8.375120E-01  3.383993E+01 -3.275321E-03 -8.397757E-10 -2.666548E-09
       168  16  3.961183E-01  1.060696E-01  1.795109E+01 -5.686651E-03  8.007227E-10  8.106871E-09
       168  17 -4.947975E-01 -2.361869E-01  2.214836E+01 -1.415228E-02  5.974934E-10 -7.686270E-09
       168  18  3.962848E-01  8.372559E-01  3.383992E+01 -1.990008E-02 -6.172801E-10  7.657609E-10
       168  19  3.958839E-01  1.062885E-01  1.795109E+01  9.987624E-03  1.626420E+00  1.206503E-02
       168  20 -4.951599E-01 -2.358286E-01  2.214836E+01  1.030902E-02  1.259372E+01  9.342218E-02
       168  21  3.957972E-01  8.377631E-01  3.383993E+01  1.335162E-02  2.356087E+01  1.747781E-01
       168  22  3.960015E-01  1.061802E-01  1.795109E+01  2.150508E-03  1.626420E+00  1.206501E-02
       168  23 -4.949800E-01 -2.360132E-01  2.214836E+01 -1.920758E-03  1.259372E+01  9.342216E-02
       168  24  3.960422E-01  8.375130E-01  3.383993E+01 -3.274924E-03  2.356087E+01  1.747781E-01
       168  25  3.961186E-01  1.060700E-01  1.795109E+01 -5.686494E-03  1.626420E+00  1.206504E-02
       168  26 -4.947978E-01 -2.361887E-01  2.214836E+01 -1.415226E-02  1.259372E+01  9.342215E-02
       168  27  3.962884E-01  8.372674E-01  3.383993E+01 -1.990218E-02  2.356087E+01  1.747781E-01
       169   1  1.552869E+00 -3.578604E-02  4.307392E+01  9.205705E-02 -3.053094E+01 -2.264831E-01
       169   2 -1.943419E+00 -1.541594E+00  7.238709E+01  5.013263E-02 -6.646979E+01 -4.930830E-01
       169   3  1.554022E+00  6.208928E+00  1.274125E+02 -8.573104E-03 -1.024092E+02 -7.596868E-01
       169   4  1.554060E+00 -3.697249E-02  4.307392E+01  1.180359E-02 -3.053094E+01 -2.264832E-01
       169   5 -1.942633E+00 -1.542387E+00  7.238709E+01 -2.969124E-03 -6.646979E+01 -4.930830E-01
       169   6  1.554409E+00  6.208551E+00  1.274125E+02 -3.452692E-02 -1.024092E+02 -7.596868E-01
       169   7  1.555253E+00 -3.815116E-02  4.307392E+01 -6.845225E-02 -3.053094E+01 -2.264832E-01
       169   8 -1.941844E+00 -1.543168E+00  7.238709E+01 -5.607190E-02 -6.646979E+01 -4.930829E-01
       169   9  1.554796E+00  6.208173E+00  1.274125E+02 -6.048159E-02 -1.024092E+02 -7.596867E-01
       169  10  1.552869E+00 -3.578081E-02  4.307392E+01  9.205549E-02  7.880369E-10 -1.967891E-09
       169  11 -1.943425E+00 -1.541600E+00  7.238708E+01  5.013523E-02 -1.484615E-09 -4.574479E-09
       169  12  1.554013E+00  6.208933E+00  1.274125E+02 -8.572871E-03  9.312358E-10 -1.990966E-09
       169  13  1.554060E+00 -3.696868E-02  4.307392E+01  1.180323E-02 -5.489097E-10  1.572360E-09
       169  14 -1.942638E+00 -1.542388E+00  7.238708E+01 -2.969361E-03 -3.106762E-09  1.160554E-08
       169  15  1.554398E+00  6.208548E+00  1.274125E+02 -3.452731E-02 -2.235179E-09 -5.399153E-09
       169  16  1.555251E+00 -3.815803E-02  4.307392E+01 -6.845023E-02  2.157149E-09  8.804046E-09
       169  17 -1.941852E+00 -1.543186E+00  7.238708E+01 -5.607303E-02  6.838854E-10  8.388011E-09
       169  18  1.554782E+00  6.208161E+00  1.274125E+02 -6.048041E-02 -3.955941E-09  2.977380E-09
       169  19  1.552869E+00 -3.578207E-02  4.307392E+01  9.205841E-02  3.053094E+01  2.264831E-01
       169  20 -1.943418E+00 -1.541591E+00  7.238709E+01  5.013371E-02  6.646979E+01  4.930830E-01
       169  21  1.554023E+00  6.208932E+00  1.274125E+02 -8.572434E-03  1.024092E+02  7.596868E-01
       169  22  1.554061E+00 -3.696734E-02  4.307392E+01  1.180352E-02  3.053094E+01  2.264832E-01
       169  23 -1.942632E+00 -1.542383E+00  7.238709E+01 -2.969098E-03  6.646979E+01  4.930830E-01
       169  24  1.554409E+00  6.208550E+00  1.274125E+02 -3.452742E-02  1.024092E+02  7.596868E-01
       169  25  1.555252E+00 -3.815738E-02  4.307392E+01 -6.845088E-02  3.053094E+01  2.264831E-01
       169  26 -1.941844E+00 -1.543168E+00  7.238709E+01 -5.607383E-02  6.646979E+01  4.930829E-01
       169  27  1.554796E+00  6.208176E+00  1.274125E+02 -6.048229E-02  1.024092E+02  7.596868E-01
       170   1  7.646748E+00 -7.478880E-01  1.665104E+02  5.396748E-01 -1.290490E+02 -9.573049E-01
       170   2 -9.569767E+00 -1.056609E+01  2.863660E+02  1.368440E-01 -2.717783E+02 -2.016092E+00
       170   3  7.659553E+00  4.305045E+01  5.150063E+02 -4.810383E-01 -4.145076E+02 -3.074880E+00
       170   4  7.653831E+00 -7.549625E-01  1.665104E+02  6.238189E-02 -1.290490E+02 -9.573048E-01
       170   5 -9.567848E+00 -1.056801E+01  2.863660E+02  7.419726E-03 -2.717783E+02 -2.016092E+00
       170   6  7.656315E+00  4.305371E+01  5.150063E+02 -2.625978E-01 -4.145076E+02 -3.074880E+00
       170   7  7.660913E+00 -7.620406E-01  1.665104E+02 -4.149124E-01 -1.290490E+02 -9.573048E-01
       170   8 -9.565928E+00 -1.056993E+01  2.863660E+02 -1.220056E-01 -2.717783E+02 -2.016092E+00
       170   9  7.653076E+00  4.305696E+01  5.150063E+02 -4.415751E-02 -4.145076E+02 -3.074880E+00
       170  10  7.646731E+00 -7.478877E-01  1.665104E+02  5.396725E-01  1.381105E-09  4.259643E-09
       170  11 -9.569845E+00 -1.056610E+01  2.863658E+02  1.368459E-01 -2.369003E-09 -5.709759E-10
       170  12  7.659371E+00  4.305042E+01  5.150060E+02 -4.810384E-01  9.145714E-10  3.437136E-09
       170  13  7.653813E+00 -7.549666E-01  1.665104E+02  6.238115E-02 -1.077183E-09  2.179897E-09
       170  14 -9.567928E+00 -1.056803E+01  2.863658E+02  7.419202E-03 -3.883419E-09  3.665841E-09
       170  15  7.656130E+00  4.305366E+01  5.150060E+02 -2.625990E-01 -1.550791E-09 -7.201192E-09
       170  16  7.660894E+00 -7.620469E-01  1.665104E+02 -4.149115E-01  5.336818E-10 -2.119988E-09
       170  17 -9.566009E+00 -1.056996E+01  2.863658E+02 -1.220062E-01 -8.873359E-10  7.506864E-09
       170  18  7.652889E+00  4.305690E+01  5.150060E+02 -4.415701E-02 -3.200090E-09  2.731598E-10
       170  19  7.646748E+00 -7.478884E-01  1.665104E+02  5.396743E-01  1.290490E+02  9.573049E-01
       170  20 -9.569769E+00 -1.056610E+01  2.863660E+02  1.368444E-01  2.717783E+02  2.016092E+00
       170  21  7.659555E+00  4.305046E+01  5.150063E+02 -4.810376E-01  4.145076E+02  3.074880E+00
       170  22  7.653830E+00 -7.549639E-01  1.665104E+02  6.238139E-02  1.290490E+02  9.573048E-01
       170  23 -9.567848E+00 -1.056801E+01  2.863660E+02  7.419892E-03  2.717783E+02  2.016092E+00
       170  24  7.656315E+00  4.305371E+01  5.150063E+02 -2.625982E-01  4.145076E+02  3.074880E+00
       170  25  7.660912E+00 -7.620431E-01  1.665104E+02 -4.149114E-01  1.290490E+02  9.573047E-01
       170  26 -9.565928E+00 -1.056993E+01  2.863660E+02 -1.220064E-01  2.717783E+02  2.016092E+00
       170  27  7.653074E+00  4.305695E+01  5.150063E+02 -4.415806E-02  4.145076E+02  3.074880E+00
       171   1  3.996030E+01 -6.672239E+00  6.704247E+02  3.195742E+00 -5.219823E+02 -3.872146E+00
       171   2 -5.000615E+01 -7.011403E+01  1.145486E+03  1.078544E-01 -1.096352E+03 -8.132905E+00
       171   3  4.006344E+01  2.873481E+02  2.099731E+03 -4.766875E+00 -1.670713E+03 -1.239360E+01
       171   4  4.000257E+01 -6.714507E+00  6.704247E+02  3.465743E-01 -5.219823E+02 -3.872144E+00
       171   5 -5.000676E+01 -7.011341E+01  1.145486E+03  1.491625E-01 -1.096352E+03 -8.132905E+00
       171   6  4.001994E+01  2.873916E+02  2.099731E+03 -1.835141E+00 -1.670713E+03 -1.239361E+01
       171   7  4.004485E+01 -6.756770E+00  6.704247E+02 -2.502595E+00 -5.219823E+02 -3.872141E+00
       171   8 -5.000738E+01 -7.011280E+01  1.145486E+03  1.904691E-01 -1.096352E+03 -8.132905E+00
       171   9  3.997644E+01  2.874351E+02  2.099731E+03  1.096593E+00 -1.670713E+03 -1.239361E+01
       171  10  3.996001E+01 -6.672308E+00  6.704242E+02  3.195739E+00  1.679538E-09  1.040911E-09
       171  11 -5.000744E+01 -7.011435E+01  1.145484E+03  1.078496E-01  3.061556E-10 -5.916905E-10
       171  12  4.006044E+01  2.873473E+02  2.099725E+03 -4.766892E+00  7.334648E-13  2.138792E-09
       171  13  4.000228E+01 -6.714579E+00  6.704242E+02  3.465722E-01 -1.090183E-09  1.644038E-09
       171  14 -5.000805E+01 -7.011374E+01  1.145484E+03  1.491552E-01 -2.005299E-09 -4.142195E-09
       171  15  4.001694E+01  2.873908E+02  2.099725E+03 -1.835158E+00 -1.122940E-09  6.644238E-09
       171  16  4.004455E+01 -6.756855E+00  6.704242E+02 -2.502595E+00  5.267055E-10 -3.269680E-09
       171  17 -5.000867E+01 -7.011313E+01  1.145484E+03  1.904607E-01 -2.065298E-09  3.320041E-09
       171  18  3.997344E+01  2.874343E+02  2.099725E+03  1.096578E+00 -3.188676E-09  9.555496E-09
       171  19  3.996030E+01 -6.672234E+00  6.704247E+02  3.195741E+00  5.219823E+02  3.872146E+00
       171  20 -5.000615E+01 -7.011403E+01  1.145486E+03  1.078554E-01  1.096352E+03  8.132905E+00
       171  21  4.006344E+01  2.873481E+02  2.099731E+03 -4.766875E+00  1.670713E+03  1.239360E+01
       171  22  4.000257E+01 -6.714508E+00  6.704247E+02  3.465738E-01  5.219823E+02  3.872144E+00
       171  23 -5.000676E+01 -7.011341E+01  1.145486E+03  1.491626E-01  1.096352E+03  8.132905E+00
       171  24  4.001994E+01  2.873916E+02  2.099731E+03 -1.835141E+00  1.670713E+03  1.239361E+01
       171  25  4.004485E+01 -6.756778E+00  6.704247E+02 -2.502594E+00  5.219823E+02  3.872141E+00
       171  26 -5.000738E+01 -7.011280E+01  1.145486E+03  1.904682E-01  1.096352E+03  8.132905E+00
       171  27  3.997644E+01  2.874351E+02  2.099731E+03  1.096592E+00  1.670713E+03  1.239361E+01
       172   1  2.188450E+02 -5.001124E+01  2.709089E+03  1.931117E+01 -2.106940E+03 -1.562966E+01
       172   2 -2.738385E+02 -4.563470E+02  4.568935E+03 -2.373665E+00 -4.419656E+03 -3.278565E+01
       172   3  2.195944E+02  1.876743E+03  8.619395E+03 -3.706581E+01 -6.732413E+03 -4.994179E+01
       172   4  2.191019E+02 -5.026811E+01  2.709089E+03  1.998338E+00 -2.106940E+03 -1.562960E+01
       172   5 -2.738938E+02 -4.562917E+02  4.568935E+03  1.353131E+00 -4.419656E+03 -3.278568E+01
       172   6  2.192270E+02  1.877110E+03  8.619395E+03 -1.229910E+01 -6.732413E+03 -4.994206E+01
       172   7  2.193587E+02 -5.052498E+01  2.709089E+03 -1.531450E+01 -2.106940E+03 -1.562954E+01
       172   8 -2.739491E+02 -4.562364E+02  4.568935E+03  5.079925E+00 -4.419656E+03 -3.278571E+01
       172   9  2.188595E+02  1.877478E+03  8.619395E+03  1.246760E+01 -6.732413E+03 -4.994233E+01
       172  10  2.188402E+02 -5.001243E+01  2.709081E+03  1.931114E+01  2.906897E-09 -4.912961E-09
       172  11 -2.738595E+02 -4.563523E+02  4.568898E+03 -2.373779E+00  5.895022E-10 -1.359935E-08
       172  12  2.195458E+02  1.876730E+03  8.619310E+03 -3.706608E+01  3.096770E-10  8.039026E-09
       172  13  2.190971E+02 -5.026930E+01  2.709081E+03  1.998311E+00  2.392550E-11 -1.301707E-09
       172  14 -2.739148E+02 -4.562970E+02  4.568898E+03  1.353013E+00 -1.970176E-09 -6.470528E-10
       172  15  2.191783E+02  1.877098E+03  8.619310E+03 -1.229938E+01 -2.684594E-09  4.604165E-09
       172  16  2.193540E+02 -5.052616E+01  2.709081E+03 -1.531452E+01  6.953929E-10 -3.247153E-09
       172  17 -2.739700E+02 -4.562417E+02  4.568898E+03  5.079807E+00 -2.069526E-09 -2.312674E-09
       172  18  2.188108E+02  1.877465E+03  8.619310E+03  1.246733E+01 -1.799537E-09  4.418134E-09
       172  19  2.188450E+02 -5.001125E+01  2.709089E+03  1.931117E+01  2.106940E+03  1.562966E+01
       172  20 -2.738385E+02 -4.563470E+02  4.568935E+03 -2.373664E+00  4.419656E+03  3.278565E+01
       172  21  2.195944E+02  1.876743E+03  8.619395E+03 -3.706581E+01  6.732413E+03  4.994179E+01
       172  22  2.191019E+02 -5.026811E+01  2.709089E+03  1.998338E+00  2.106940E+03  1.562960E+01
       172  23 -2.738938E+02 -4.562917E+02  4.568935E+03  1.353130E+00  4.419656E+03  3.278568E+01
       172  24  2.192270E+02  1.877110E+03  8.619395E+03 -1.229911E+01  6.732413E+03  4.994206E+01
       172  25  2.193587E+02 -5.052498E+01  2.709089E+03 -1.531450E+01  2.106940E+03  1.562954E+01
       172  26 -2.739491E+02 -4.562364E+02  4.568935E+03  5.079924E+00  4.419656E+03  3.278571E+01
       172  27  2.188595E+02  1.877478E+03  8.619395E+03  1.246760E+01  6.732413E+03  4.994233E+01
       173   1  1.246970E+03 -3.474756E+02  1.096725E+04  1.184270E+02 -8.510424E+03 -6.313308E+01
       173   2 -1.560121E+03 -2.936121E+03  1.811710E+04 -2.729246E+01 -1.781997E+04 -1.321902E+02
       173   3  1.252234E+03  1.210015E+04  3.573495E+04 -2.620747E+02 -2.712959E+04 -2.012435E+02
       173   4  1.248551E+03 -3.490569E+02  1.096725E+04  1.185195E+01 -8.510424E+03 -6.313162E+01
       173   5 -1.560677E+03 -2.935564E+03  1.811710E+04  1.019968E+01 -1.781997E+04 -1.321912E+02
       173   6  1.249541E+03  1.210284E+04  3.573495E+04 -8.051585E+01 -2.712959E+04 -2.012514E+02
       173   7  1.250132E+03 -3.506382E+02  1.096725E+04 -9.472305E+01 -8.510424E+03 -6.313015E+01
       173   8 -1.561233E+03 -2.935008E+03  1.811710E+04  4.769182E+01 -1.781997E+04 -1.321923E+02
       173   9  1.246847E+03  1.210553E+04  3.573495E+04  1.010430E+02 -2.712959E+04 -2.012593E+02
       173  10  1.246892E+03 -3.474951E+02  1.096711E+04  1.184265E+02  2.656958E-09  9.707823E-09
       173  11 -1.560462E+03 -2.936206E+03  1.811650E+04 -2.729435E+01 -1.273813E-09 -3.519408E-09
       173  12  1.251444E+03  1.209995E+04  3.573356E+04 -2.620791E+02  3.776213E-10 -1.014254E-09
       173  13  1.248473E+03 -3.490764E+02  1.096711E+04  1.185152E+01 -4.111280E-11  6.522276E-10
       173  14 -1.561018E+03 -2.935650E+03  1.811650E+04  1.019779E+01 -1.988679E-09 -1.971986E-09
       173  15  1.248750E+03  1.210264E+04  3.573356E+04 -8.052025E+01  3.334055E-11  2.183988E-09
       173  16  1.250055E+03 -3.506576E+02  1.096711E+04 -9.472349E+01 -3.288921E-11  2.053374E-09
       173  17 -1.561574E+03 -2.935093E+03  1.811650E+04  4.768992E+01 -1.181169E-09 -1.256498E-08
       173  18  1.246056E+03  1.210534E+04  3.573356E+04  1.010386E+02 -3.351842E-09  4.176276E-10
       173  19  1.246970E+03 -3.474756E+02  1.096725E+04  1.184270E+02  8.510424E+03  6.313308E+01
       173  20 -1.560121E+03 -2.936121E+03  1.811710E+04 -2.729245E+01  1.781997E+04  1.321902E+02
       173  21  1.252234E+03  1.210015E+04  3.573495E+04 -2.620747E+02  2.712959E+04  2.012435E+02
       173  22  1.248551E+03 -3.490569E+02  1.096725E+04  1.185195E+01  8.510424E+03  6.313162E+01
       173  23 -1.560677E+03 -2.935564E+03  1.811710E+04  1.019968E+01  1.781997E+04  1.321912E+02
       173  24  1.249541E+03  1.210284E+04  3.573495E+04 -8.051585E+01  2.712959E+04  2.012514E+02
       173  25  1.250132E+03 -3.506382E+02  1.096725E+04 -9.472305E+01  8.510424E+03  6.313015E+01
       173  26 -1.561233E+03 -2.935008E+03  1.811710E+04  4.769182E+01  1.781997E+04  1.321923E+02
       173  27  1.246847E+03  1.210553E+04  3.573495E+04  1.010430E+02  2.712959E+04  2.012593E+02
       174   1  7.329945E+03 -2.321566E+03  4.451748E+04  7.335769E+02 -3.442325E+04 -2.553936E+02
       174   2 -9.168334E+03 -1.875735E+04  7.115799E+04 -2.218676E+02 -7.187544E+04 -5.331490E+02
       174   3  7.367439E+03  7.740251E+04  1.503397E+05 -1.767535E+03 -1.093276E+05 -8.107893E+02
       174   4  7.339764E+03 -2.331386E+03  4.451748E+04  7.174601E+01 -3.442325E+04 -2.553569E+02
       174   5 -9.172681E+03 -1.875300E+04  7.115799E+04  7.107221E+01 -7.187544E+04 -5.331830E+02
       174   6  7.348925E+03  7.742102E+04  1.503397E+05 -5.198340E+02 -1.093276E+05 -8.110091E+02
       174   7  7.349585E+03 -2.341205E+03  4.451748E+04 -5.900848E+02 -3.442325E+04 -2.553202E+02
       174   8 -9.177027E+03 -1.874866E+04  7.115799E+04  3.640120E+02 -7.187544E+04 -5.332169E+02
       174   9  7.330414E+03  7.743953E+04  1.503397E+05  7.278671E+02 -1.093276E+05 -8.112288E+02
       174  10  7.328673E+03 -2.321884E+03  4.451525E+04  7.335698E+02  2.147642E-09 -3.167291E-09
       174  11 -9.173881E+03 -1.875874E+04  7.114828E+04 -2.218985E+02 -2.534460E-09  9.810298E-09
       174  12  7.354606E+03  7.739930E+04  1.503172E+05 -1.767607E+03  6.195686E-10  2.249949E-09
       174  13  7.338492E+03 -2.331705E+03  4.451525E+04  7.173893E+01  2.535056E-11 -2.452118E-09
       174  14 -9.178228E+03 -1.875439E+04  7.114828E+04  7.104135E+01 -1.138736E-09 -8.480134E-09
       174  15  7.336092E+03  7.741781E+04  1.503172E+05 -5.199054E+02 -6.372777E-10  2.587680E-09
       174  16  7.348312E+03 -2.341523E+03  4.451525E+04 -5.900919E+02  5.791499E-10  8.292186E-10
       174  17 -9.182574E+03 -1.875005E+04  7.114828E+04  3.639811E+02  9.728810E-11 -2.856268E-09
       174  18  7.317581E+03  7.743633E+04  1.503172E+05  7.277957E+02 -2.598094E-09  2.986207E-09
       174  19  7.329945E+03 -2.321566E+03  4.451748E+04  7.335769E+02  3.442325E+04  2.553936E+02
       174  20 -9.168334E+03 -1.875735E+04  7.115799E+04 -2.218676E+02  7.187544E+04  5.331490E+02
       174  21  7.367439E+03  7.740251E+04  1.503397E+05 -1.767535E+03  1.093276E+05  8.107893E+02
       174  22  7.339764E+03 -2.331386E+03  4.451748E+04  7.174601E+01  3.442325E+04  2.553569E+02
       174  23 -9.172681E+03 -1.875300E+04  7.115799E+04  7.107221E+01  7.187544E+04  5.331830E+02
       174  24  7.348925E+03  7.742102E+04  1.503397E+05 -5.198340E+02  1.093276E+05  8.110091E+02
       174  25  7.349585E+03 -2.341205E+03  4.451748E+04 -5.900848E+02  3.442325E+04  2.553202E+02
       174  26 -9.177027E+03 -1.874866E+04  7.115799E+04  3.640120E+02  7.187544E+04  5.332169E+02
       174  27  7.330414E+03  7.743953E+04  1.503397E+05  7.278671E+02  1.093276E+05  8.112288E+02
       175   1  4.409203E+04 -1.516798E+04  1.814614E+05  4.574141E+03 -1.395470E+05 -1.036110E+03
       175   2 -5.511617E+04 -1.192977E+05  2.751853E+05 -1.599720E+03 -2.900658E+05 -2.150782E+03
       175   3  4.437605E+04  4.927112E+05  6.460379E+05 -1.161313E+04 -4.405793E+05 -3.262404E+03
       175   4  4.415334E+04 -1.522934E+04  1.814614E+05  4.405340E+02 -1.395470E+05 -1.035181E+03
       175   5 -5.514696E+04 -1.192669E+05  2.751853E+05  4.756776E+02 -2.900658E+05 -2.151752E+03
       175   6  4.425305E+04  4.928340E+05  6.460378E+05 -3.327825E+03 -4.405793E+05 -3.268284E+03
       175   7  4.421469E+04 -1.529064E+04  1.814614E+05 -3.693073E+03 -1.395470E+05 -1.034252E+03
       175   8 -5.517775E+04 -1.192361E+05  2.751853E+05  2.551075E+03 -2.900658E+05 -2.152722E+03
       175   9  4.413019E+04  4.929571E+05  6.460379E+05  4.957478E+03 -4.405792E+05 -3.274164E+03
       175  10  4.407112E+04 -1.517321E+04  1.814248E+05  4.574024E+03  2.352739E-09  2.111900E-11
       175  11 -5.520649E+04 -1.193203E+05  2.750272E+05 -1.600222E+03 -2.375011E-09 -9.823911E-09
       175  12  4.416772E+04  4.926591E+05  6.456731E+05 -1.161429E+04 -1.060691E-09  8.508583E-10
       175  13  4.413244E+04 -1.523457E+04  1.814248E+05  4.404177E+02 -7.943550E-11  6.552948E-09
       175  14 -5.523729E+04 -1.192895E+05  2.750272E+05  4.751751E+02 -2.051695E-09  6.082140E-09
       175  15  4.404472E+04  4.927819E+05  6.456731E+05 -3.328984E+03 -1.345519E-09 -3.183894E-09
       175  16  4.419378E+04 -1.529587E+04  1.814248E+05 -3.693189E+03  9.274289E-10  4.436488E-09
       175  17 -5.526808E+04 -1.192587E+05  2.750272E+05  2.550573E+03  3.624350E-10 -8.061995E-09
       175  18  4.392186E+04  4.929050E+05  6.456731E+05  4.956318E+03 -1.026278E-09 -8.249719E-09
       175  19  4.409203E+04 -1.516798E+04  1.814614E+05  4.574141E+03  1.395470E+05  1.036110E+03
       175  20 -5.511617E+04 -1.192977E+05  2.751853E+05 -1.599720E+03  2.900658E+05  2.150782E+03
       175  21  4.437605E+04  4.927112E+05  6.460379E+05 -1.161313E+04  4.405793E+05  3.262404E+03
       175  22  4.415334E+04 -1.522934E+04  1.814614E+05  4.405340E+02  1.395470E+05  1.035181E+03
       175  23 -5.514696E+04 -1.192669E+05  2.751853E+05  4.756776E+02  2.900658E+05  2.151752E+03
       175  24  4.425305E+04  4.928340E+05  6.460378E+05 -3.327825E+03  4.405793E+05  3.268284E+03
       175  25  4.421469E+04 -1.529064E+04  1.814614E+05 -3.693073E+03  1.395470E+05  1.034252E+03
       175  26 -5.517775E+04 -1.192361E+05  2.751853E+05  2.551075E+03  2.900658E+05  2.152722E+03
       175  27  4.413019E+04  4.929571E+05  6.460379E+05  4.957478E+03  4.405792E+05  3.274164E+03
       176   1  4.929496E+05  4.413718E+04  6.460761E+05 -4.957981E+03 -3.272419E+03  4.403443E+05
       176   2 -1.192470E+05 -5.518672E+04  2.753971E+05 -2.551270E+03 -2.150202E+03  2.897263E+05
       176   3 -1.524730E+04  4.422172E+04  1.819343E+05  3.693561E+03 -1.030927E+03  1.390985E+05
       176   4  4.928266E+05  4.426004E+04  6.460760E+05  3.327718E+03 -3.266541E+03  4.403444E+05
       176   5 -1.192778E+05 -5.515592E+04  2.753971E+05 -4.756919E+02 -2.149234E+03  2.897263E+05
       176   6 -1.518600E+04  4.416037E+04  1.819343E+05 -4.402646E+02 -1.031854E+03  1.390985E+05
       176   7  4.927038E+05  4.438305E+04  6.460761E+05  1.161342E+04 -3.260664E+03  4.403444E+05
       176   8 -1.193086E+05 -5.512512E+04  2.753971E+05  1.599886E+03 -2.148265E+03  2.897263E+05
       176   9 -1.512463E+04  4.409906E+04  1.819343E+05 -4.574090E+03 -1.032780E+03  1.390985E+05
       176  10  4.928976E+05  4.392907E+04  6.457117E+05 -4.956822E+03  5.041567E-09  1.016737E-09
       176  11 -1.192695E+05 -5.527683E+04  2.752394E+05 -2.550768E+03  2.793073E-09 -1.313848E-08
       176  12 -1.525249E+04  4.420095E+04  1.818980E+05  3.693676E+03  2.693931E-09 -3.104924E-09
       176  13  4.927745E+05  4.405193E+04  6.457117E+05  3.328875E+03  5.127119E-09  8.034699E-09
       176  14 -1.193003E+05 -5.524604E+04  2.752394E+05 -4.751906E+02 -2.584606E-09 -7.754586E-09
       176  15 -1.519119E+04  4.413960E+04  1.818980E+05 -4.401490E+02  2.638893E-09  5.819103E-09
       176  16  4.926517E+05  4.417494E+04  6.457117E+05  1.161457E+04 -8.415679E-10  4.793490E-09
       176  17 -1.193311E+05 -5.521524E+04  2.752394E+05  1.600387E+03  1.286552E-09  2.885183E-09
       176  18 -1.512982E+04  4.407829E+04  1.818980E+05 -4.573974E+03  9.221600E-10 -3.402172E-10
       176  19  4.929496E+05  4.413718E+04  6.460761E+05 -4.957981E+03  3.272419E+03 -4.403443E+05
       176  20 -1.192470E+05 -5.518672E+04  2.753971E+05 -2.551270E+03  2.150202E+03 -2.897263E+05
       176  21 -1.524730E+04  4.422172E+04  1.819343E+05  3.693561E+03  1.030927E+03 -1.390985E+05
       176  22  4.928266E+05  4.426004E+04  6.460760E+05  3.327718E+03  3.266541E+03 -4.403444E+05
       176  23 -1.192778E+05 -5.515592E+04  2.753971E+05 -4.756919E+02  2.149234E+03 -2.897263E+05
       176  24 -1.518600E+04  4.416037E+04  1.819343E+05 -4.402646E+02  1.031854E+03 -1.390985E+05
       176  25  4.927038E+05  4.438305E+04  6.460761E+05  1.161342E+04  3.260664E+03 -4.403444E+05
       176  26 -1.193086E+05 -5.512512E+04  2.753971E+05  1.599886E+03  2.148265E+03 -2.897263E+05
       176  27 -1.512463E+04  4.409906E+04  1.819343E+05 -4.574090E+03  1.032780E+03 -1.390985E+05
       177   1  7.743259E+04  7.369961E+03  1.509786E+05 -7.310937E+02 -8.071688E+02  1.087804E+05
       177   2 -1.881859E+04 -9.226666E+03  7.228524E+04 -3.641387E+02 -5.249595E+02  7.076238E+04
       177   3 -2.053816E+03  7.389235E+03  4.660622E+04  5.948374E+02 -2.428717E+02  3.274492E+04
       177   4  7.741404E+04  7.388514E+03  1.509786E+05  5.194885E+02 -8.069496E+02  1.087804E+05
       177   5 -1.882294E+04 -9.222320E+03  7.228524E+04 -7.122274E+01 -5.249261E+02  7.076238E+04
       177   6 -2.043954E+03  7.379372E+03  4.660622E+04 -6.990750E+01 -2.429068E+02  3.274492E+04
       177   7  7.739548E+04  7.407071E+03  1.509786E+05  1.770071E+03 -8.067305E+02  1.087804E+05
       177   8 -1.882728E+04 -9.217974E+03  7.228524E+04  2.216932E+02 -5.248927E+02  7.076238E+04
       177   9 -2.034090E+03  7.369509E+03  4.660622E+04 -7.346524E+02 -2.429418E+02  3.274492E+04
       177  10  7.742942E+04  7.357256E+03  1.509563E+05 -7.310230E+02 -5.952422E-11  1.690674E-09
       177  11 -1.881993E+04 -9.232042E+03  7.227583E+04 -3.641088E+02  3.225226E-09 -1.343102E-08
       177  12 -2.054104E+03  7.388084E+03  4.660420E+04  5.948438E+02 -2.717599E-09 -3.271421E-09
       177  13  7.741086E+04  7.375809E+03  1.509563E+05  5.195592E+02  3.319067E-10  8.536896E-09
       177  14 -1.882428E+04 -9.227696E+03  7.227583E+04 -7.119283E+01  6.122012E-09 -7.697224E-09
       177  15 -2.044241E+03  7.378220E+03  4.660420E+04 -6.990110E+01  6.394111E-09  5.521074E-09
       177  16  7.739231E+04  7.394366E+03  1.509563E+05  1.770141E+03  9.383409E-10  4.506613E-09
       177  17 -1.882863E+04 -9.223350E+03  7.227583E+04  2.217232E+02 -3.457468E-09  3.342751E-09
       177  18 -2.034378E+03  7.368358E+03  4.660420E+04 -7.346460E+02 -1.927621E-10 -3.707586E-10
       177  19  7.743259E+04  7.369961E+03  1.509786E+05 -7.310937E+02  8.071688E+02 -1.087804E+05
       177  20 -1.881859E+04 -9.226666E+03  7.228524E+04 -3.641387E+02  5.249595E+02 -7.076238E+04
       177  21 -2.053816E+03  7.389235E+03  4.660622E+04  5.948374E+02  2.428717E+02 -3.274492E+04
       177  22  7.741404E+04  7.388514E+03  1.509786E+05  5.194885E+02  8.069496E+02 -1.087804E+05
       177  23 -1.882294E+04 -9.222320E+03  7.228524E+04 -7.122274E+01  5.249261E+02 -7.076238E+04
       177  24 -2.043954E+03  7.379372E+03  4.660622E+04 -6.990750E+01  2.429068E+02 -3.274492E+04
       177  25  7.739548E+04  7.407071E+03  1.509786E+05  1.770071E+03  8.067305E+02 -1.087804E+05
       177  26 -1.882728E+04 -9.217974E+03  7.228524E+04  2.216932E+02  5.248927E+02 -7.076238E+04
       177  27 -2.034090E+03  7.369509E+03  4.660622E+04 -7.346524E+02  2.429418E+02 -3.274492E+04
       178   1  1.205556E+04  1.465551E+03  3.843537E+04 -1.203643E+02 -1.855861E+02  2.501676E+04
       178   2 -3.391358E+03 -1.835042E+03  2.268030E+04 -4.532312E+01 -9.938255E+01  1.339711E+04
       178   3  1.526047E+03  1.469586E+03  1.958206E+04  1.317886E+02 -1.318698E+01  1.777714E+03
       178   4  1.205261E+04  1.468502E+03  3.843537E+04  7.851884E+01 -1.855781E+02  2.501676E+04
       178   5 -3.391859E+03 -1.834541E+03  2.268030E+04 -1.155306E+01 -9.938182E+01  1.339711E+04
       178   6  1.527996E+03  1.467637E+03  1.958206E+04  4.477742E-01 -1.318735E+01  1.777714E+03
       178   7  1.204966E+04  1.471453E+03  3.843537E+04  2.774020E+02 -1.855701E+02  2.501676E+04
       178   8 -3.392360E+03 -1.834040E+03  2.268030E+04  2.221700E+01 -9.938110E+01  1.339711E+04
       178   9  1.529945E+03  1.465689E+03  1.958206E+04 -1.308930E+02 -1.318773E+01  1.777714E+03
       178  10  1.205539E+04  1.464879E+03  3.843419E+04 -1.203605E+02 -1.176866E-09  1.037927E-09
       178  11 -3.391406E+03 -1.835235E+03  2.267996E+04 -4.532205E+01  1.995561E-09 -1.361997E-08
       178  12  1.526046E+03  1.469583E+03  1.958206E+04  1.317886E+02 -3.279711E-09 -2.402899E-09
       178  13  1.205244E+04  1.467830E+03  3.843419E+04  7.852258E+01 -5.051394E-09  7.969039E-09
       178  14 -3.391907E+03 -1.834734E+03  2.267996E+04 -1.155198E+01  1.514353E-09 -7.851870E-09
       178  15  1.527995E+03  1.467634E+03  1.958206E+04  4.477930E-01 -6.370516E-09  5.303793E-09
       178  16  1.204949E+04  1.470781E+03  3.843419E+04  2.774057E+02  1.963293E-09  4.675561E-09
       178  17 -3.392408E+03 -1.834232E+03  2.267996E+04  2.221808E+01 -2.384539E-09  3.555603E-09
       178  18  1.529944E+03  1.465685E+03  1.958206E+04 -1.308930E+02 -8.260240E-09 -1.535471E-09
       178  19  1.205556E+04  1.465551E+03  3.843537E+04 -1.203643E+02  1.855861E+02 -2.501676E+04
       178  20 -3.391358E+03 -1.835042E+03  2.268030E+04 -4.532312E+01  9.938255E+01 -1.339711E+04
       178  21  1.526047E+03  1.469586E+03  1.958206E+04  1.317886E+02  1.318698E+01 -1.777714E+03
       178  22  1.205261E+04  1.468502E+03  3.843537E+04  7.851884E+01  1.855781E+02 -2.501676E+04
       178  23 -3.391859E+03 -1.834541E+03  2.268030E+04 -1.155306E+01  9.938182E+01 -1.339711E+04
       178  24  1.527996E+03  1.467637E+03  1.958206E+04  4.477743E-01  1.318735E+01 -1.777714E+03
       178  25  1.204966E+04  1.471453E+03  3.843537E+04  2.774020E+02  1.855701E+02 -2.501676E+04
       178  26 -3.392360E+03 -1.834040E+03  2.268030E+04  2.221701E+01  9.938110E+01 -1.339711E+04
       178  27  1.529945E+03  1.465689E+03  1.958206E+04 -1.308930E+02  1.318773E+01 -1.777714E+03
       179   1 -7.431820E+06 -2.429324E+06 -1.264147E+06 -2.655074E+06 -4.418889E+05 -9.588330E+04
       179   2 -7.226027E+06 -2.117532E+06 -9.329016E+05 -2.579853E+06 -2.946120E+05  1.306300E+05
       179   3 -7.061644E+06 -1.987317E+06 -7.933349E+05 -2.516470E+06 -1.047824E+05  2.466360E+05
       179   4 -3.461663E+06 -8.182052E+05 -2.061338E+05 -1.456245E+06 -1.570005E+05  1.305211E+04
       179   5 -3.444639E+06 -6.635348E+05 -9.436296E+04 -1.480460E+06 -1.641231E+05  1.802915E+05
       179   6 -3.437700E+06 -6.590221E+05 -5.021288E+04 -1.516618E+06 -1.289244E+05  2.372864E+05
       179   7  5.241222E+05  7.946130E+05  8.508218E+05 -2.501376E+05  1.299080E+05  1.228732E+05
       179   8  3.514494E+05  7.919158E+05  7.433596E+05 -3.747282E+05 -3.276364E+04  2.303077E+05
       179   9  1.999361E+05  6.703940E+05  6.922498E+05 -5.113150E+05 -1.532203E+05  2.278803E+05
       179  10 -7.432035E+06 -2.429387E+06 -1.264537E+06 -2.655109E+06  1.337493E-09  1.132529E-09
       179  11 -7.226126E+06 -2.117573E+06 -9.330978E+05 -2.579822E+06 -2.318636E-09  2.281955E-09
       179  12 -7.061672E+06 -1.987386E+06 -7.934696E+05 -2.516449E+06 -1.228202E-10  6.292436E-10
       179  13 -3.461689E+06 -8.182120E+05 -2.061807E+05 -1.456244E+06  2.987525E-09  3.261549E-09
       179  14 -3.444677E+06 -6.635768E+05 -9.447455E+04 -1.480436E+06 -2.151183E-09 -6.702662E-09
       179  15 -3.437733E+06 -6.590869E+05 -5.034966E+04 -1.516593E+06 -9.125794E-10  8.622555E-10
       179  16  5.241000E+05  7.945923E+05  8.507617E+05 -2.501504E+05  6.253054E-10 -1.882949E-09
       179  17  3.514341E+05  7.918586E+05  7.432581E+05 -3.747221E+05 -4.241946E-10 -9.749573E-09
       179  18  1.998970E+05  6.703321E+05  6.921084E+05 -5.112869E+05  2.040130E-10 -6.565638E-09
       179  19 -7.431820E+06 -2.429324E+06 -1.264147E+06 -2.655074E+06  4.418889E+05  9.588330E+04
       179  20 -7.226027E+06 -2.117532E+06 -9.329016E+05 -2.579853E+06  2.946120E+05 -1.306300E+05
       179  21 -7.061644E+06 -1.987317E+06 -7.933349E+05 -2.516470E+06  1.047824E+05 -2.466360E+05
       179  22 -3.461663E+06 -8.182052E+05 -2.061338E+05 -1.456245E+06  1.570005E+05 -1.305211E+04
       179  23 -3.444639E+06 -6.635348E+05 -9.436296E+04 -1.480460E+06  1.641231E+05 -1.802915E+05
       179  24 -3.437700E+06 -6.590221E+05 -5.021288E+04 -1.516618E+06  1.289244E+05 -2.372864E+05
       179  25  5.241222E+05  7.946130E+05  8.508218E+05 -2.501376E+05 -1.299080E+05 -1.228732E+05
       179  26  3.514494E+05  7.919158E+05  7.433596E+05 -3.747282E+05  3.276364E+04 -2.303077E+05
       179  27  1.999361E+05  6.703940E+05  6.922498E+05 -5.113150E+05  1.532203E+05 -2.278803E+05
       180   1 -6.889946E+06 -1.949391E+06 -7.494755E+05 -2.483865E+06 -1.164844E+05  2.308125E+05
       180   2 -6.690294E+06 -1.834634E+06 -6.756567E+05 -2.396754E+06 -9.321754E+04  2.329599E+05
       180   3 -6.450306E+06 -1.770363E+06 -6.189070E+05 -2.357627E+06 -6.707443E+04  2.274380E+05
       180   4 -3.430126E+06 -6.658812E+05 -3.841805E+04 -1.513276E+06 -1.193823E+05  2.295639E+05
       180   5 -3.450539E+06 -6.379461E+05 -2.051826E+04 -1.490598E+06 -1.067907E+05  2.276769E+05
       180   6 -3.428512E+06 -6.583206E+05 -1.110520E+04 -1.515905E+06 -9.133940E+04  2.181393E+05
       180   7  4.213942E+04  6.187153E+05  6.720224E+05 -5.376151E+05 -1.222978E+05  2.283091E+05
       180   8 -1.998559E+05  5.596881E+05  6.340990E+05 -5.800122E+05 -1.204410E+05  2.223652E+05
       180   9 -3.972202E+05  4.545286E+05  5.962476E+05 -6.703515E+05 -1.157327E+05  2.087927E+05
       180  10 -6.889975E+06 -1.949452E+06 -7.496008E+05 -2.483843E+06  1.432053E-09  2.459634E-09
       180  11 -6.690318E+06 -1.834695E+06 -6.757747E+05 -2.396736E+06 -3.077178E-09  3.382282E-09
       180  12 -6.450324E+06 -1.770419E+06 -6.190125E+05 -2.357614E+06 -1.627961E-09  7.401605E-10
       180  13 -3.430155E+06 -6.659415E+05 -3.854363E+04 -1.513254E+06  1.610942E-09 -4.904101E-09
       180  14 -3.450565E+06 -6.380047E+05 -2.063688E+04 -1.490579E+06  2.282032E-09 -5.442749E-09
       180  15 -3.428533E+06 -6.583738E+05 -1.121010E+04 -1.515889E+06 -8.817390E-10 -9.854298E-10
       180  16  4.210944E+04  6.186555E+05  6.718966E+05 -5.375926E+05  7.147166E-10 -9.217421E-10
       180  17 -1.998847E+05  5.596312E+05  6.339790E+05 -5.799906E+05  4.348954E-10 -1.469020E-09
       180  18 -3.972462E+05  4.544783E+05  5.961407E+05 -6.703321E+05  1.320294E-10  8.275749E-10
       180  19 -6.889946E+06 -1.949391E+06 -7.494755E+05 -2.483865E+06  1.164844E+05 -2.308125E+05
       180  20 -6.690294E+06 -1.834634E+06 -6.756567E+05 -2.396754E+06  9.321754E+04 -2.329599E+05
       180  21 -6.450306E+06 -1.770363E+06 -6.189070E+05 -2.357627E+06  6.707443E+04 -2.274380E+05
       180  22 -3.430126E+06 -6.658812E+05 -3.841805E+04 -1.513276E+06  1.193823E+05 -2.295639E+05
       180  23 -3.450539E+06 -6.379461E+05 -2.051826E+04 -1.490598E+06  1.067907E+05 -2.276769E+05
       180  24 -3.428512E+06 -6.583206E+05 -1.110520E+04 -1.515905E+06  9.133940E+04 -2.181393E+05
       180  25  4.213942E+04  6.187153E+05  6.720224E+05 -5.376151E+05  1.222978E+05 -2.283091E+05
       180  26 -1.998559E+05  5.596881E+05  6.340990E+05 -5.800122E+05  1.204410E+05 -2.223652E+05
       180  27 -3.972202E+05  4.545286E+05  5.962476E+05 -6.703515E+05  1.157327E+05 -2.087927E+05
       181   1 -6.294976E+06 -1.713675E+06 -5.838182E+05 -2.314978E+06 -6.283350E+04  2.174679E+05
       181   2 -6.088668E+06 -1.604709E+06 -5.337664E+05 -2.224380E+06 -5.308370E+04  2.019290E+05
       181   3 -5.836039E+06 -1.541419E+06 -4.859418E+05 -2.185272E+06 -4.311298E+04  1.856779E+05
       181   4 -3.427598E+06 -6.587784E+05 -8.403004E+03 -1.516193E+06 -8.592717E+04  2.086345E+05
       181   5 -3.450517E+06 -6.354086E+05 -4.764296E+03 -1.490588E+06 -7.715896E+04  1.927583E+05
       181   6 -3.426988E+06 -6.575106E+05 -2.572781E+03 -1.516480E+06 -6.817183E+04  1.761710E+05
       181   7 -5.516201E+05  3.968649E+05  5.666237E+05 -7.139443E+05 -1.091370E+05  1.997576E+05
       181   8 -8.050958E+05  3.345168E+05  5.239075E+05 -7.538724E+05 -1.013455E+05  1.835458E+05
       181   9 -1.011888E+06  2.269111E+05  4.805183E+05 -8.452599E+05 -9.333625E+04  1.666245E+05
       181  10 -6.294993E+06 -1.713727E+06 -5.839143E+05 -2.314967E+06  4.293241E-09 -6.975144E-10
       181  11 -6.088682E+06 -1.604754E+06 -5.338481E+05 -2.224371E+06 -1.206354E-09 -1.133228E-09
       181  12 -5.836050E+06 -1.541456E+06 -4.860099E+05 -2.185265E+06  1.670498E-09 -3.240096E-09
       181  13 -3.427618E+06 -6.588270E+05 -8.498492E+03 -1.516178E+06  1.270207E-10 -3.602878E-10
       181  14 -3.450533E+06 -6.354500E+05 -4.845151E+03 -1.490576E+06  1.686524E-09 -3.004853E-10
       181  15 -3.427001E+06 -6.575451E+05 -2.639708E+03 -1.516471E+06 -1.978232E-09 -3.230514E-10
       181  16 -5.516436E+05  3.968190E+05  5.665265E+05 -7.139267E+05  1.024714E-09 -2.415795E-09
       181  17 -8.051159E+05  3.344780E+05  5.238251E+05 -7.538574E+05 -1.107764E-09 -4.232222E-11
       181  18 -1.011905E+06  2.268790E+05  4.804499E+05 -8.452474E+05  2.394971E-09  1.077103E-10
       181  19 -6.294976E+06 -1.713675E+06 -5.838182E+05 -2.314978E+06  6.283350E+04 -2.174679E+05
       181  20 -6.088668E+06 -1.604709E+06 -5.337664E+05 -2.224380E+06  5.308370E+04 -2.019290E+05
       181  21 -5.836039E+06 -1.541419E+06 -4.859418E+05 -2.185272E+06  4.311298E+04 -1.856779E+05
       181  22 -3.427598E+06 -6.587784E+05 -8.403004E+03 -1.516193E+06  8.592717E+04 -2.086345E+05
       181  23 -3.450517E+06 -6.354086E+05 -4.764296E+03 -1.490588E+06  7.715896E+04 -1.927583E+05
       181  24 -3.426988E+06 -6.575106E+05 -2.572781E+03 -1.516480E+06  6.817183E+04 -1.761710E+05
       181  25 -5.516201E+05  3.968649E+05  5.666237E+05 -7.139443E+05  1.091370E+05 -1.997576E+05
       181  26 -8.050958E+05  3.345168E+05  5.239075E+05 -7.538724E+05  1.013455E+05 -1.835458E+05
       181  27 -1.011888E+06  2.269111E+05  4.805183E+05 -8.452599E+05  9.333625E+04 -1.666245E+05
       182   1 -5.676600E+06 -1.482454E+06 -4.520104E+05 -2.141135E+06 -3.866036E+04  1.754292E+05
       182   2 -5.463654E+06 -1.371427E+06 -4.043846E+05 -2.048329E+06 -3.092572E+04  1.577445E+05
       182   3 -5.203286E+06 -1.307012E+06 -3.572337E+05 -2.008751E+06 -2.315608E+04  1.398623E+05
       182   4 -3.426594E+06 -6.576277E+05 -2.003464E+03 -1.516843E+06 -6.384612E+04  1.658931E+05
       182   5 -3.450076E+06 -6.339082E+05 -1.316473E+03 -1.490317E+06 -5.638231E+04  1.481336E+05
       182   6 -3.426149E+06 -6.567443E+05 -8.951428E+02 -1.517034E+06 -4.888399E+04  1.301769E+05
       182   7 -1.171329E+06  1.676397E+05  4.477583E+05 -8.904395E+05 -8.913068E+04  1.563200E+05
       182   8 -1.432274E+06  1.039678E+05  4.015595E+05 -9.306136E+05 -8.192838E+04  1.384892E+05
       182   9 -1.645708E+06 -6.194922E+03  3.552976E+05 -1.023998E+06 -7.469187E+04  1.204615E+05
       182  10 -5.676609E+06 -1.482488E+06 -4.520709E+05 -2.141130E+06 -2.225333E-08 -1.128760E-08
       182  11 -5.463662E+06 -1.371454E+06 -4.044331E+05 -2.048325E+06 -5.482195E-09 -3.374757E-09
       182  12 -5.203292E+06 -1.307034E+06 -3.572714E+05 -2.008749E+06  2.051207E-08  6.179808E-09
       182  13 -3.426606E+06 -6.576583E+05 -2.062726E+03 -1.516835E+06 -2.080512E-09 -2.597575E-09
       182  14 -3.450085E+06 -6.339325E+05 -1.363592E+03 -1.490311E+06 -7.442206E-09 -2.809430E-09
       182  15 -3.426156E+06 -6.567631E+05 -9.314085E+02 -1.517029E+06 -2.226710E-09 -2.514494E-09
       182  16 -1.171344E+06  1.676114E+05  4.476975E+05 -8.904283E+05  2.024942E-08  7.668409E-09
       182  17 -1.432286E+06  1.039454E+05  4.015109E+05 -9.306045E+05 -4.574440E-09 -2.871099E-09
       182  18 -1.645718E+06 -6.211964E+03  3.552599E+05 -1.023991E+06 -2.373044E-08 -1.131561E-08
       182  19 -5.676600E+06 -1.482454E+06 -4.520104E+05 -2.141135E+06  3.866036E+04 -1.754292E+05
       182  20 -5.463654E+06 -1.371427E+06 -4.043846E+05 -2.048329E+06  3.092572E+04 -1.577445E+05
       182  21 -5.203286E+06 -1.307012E+06 -3.572337E+05 -2.008751E+06  2.315608E+04 -1.398623E+05
       182  22 -3.426594E+06 -6.576277E+05 -2.003464E+03 -1.516843E+06  6.384612E+04 -1.658931E+05
       182  23 -3.450076E+06 -6.339082E+05 -1.316473E+03 -1.490317E+06  5.638231E+04 -1.481336E+05
       182  24 -3.426149E+06 -6.567443E+05 -8.951428E+02 -1.517034E+06  4.888399E+04 -1.301769E+05
       182  25 -1.171329E+06  1.676397E+05  4.477583E+05 -8.904395E+05  8.913068E+04 -1.563200E+05
       182  26 -1.432274E+06  1.039678E+05  4.015595E+05 -9.306136E+05  8.192838E+04 -1.384892E+05
       182  27 -1.645708E+06 -6.194922E+03  3.552976E+05 -1.023998E+06  7.469187E+04 -1.204615E+05
       183   1 -5.039776E+06 -1.246846E+06 -3.230705E+05 -1.963731E+06 -1.883186E+04  1.292821E+05
       183   2 -4.821784E+06 -1.134169E+06 -2.754935E+05 -1.869378E+06 -1.119567E+04  1.110746E+05
       183   3 -4.555884E+06 -1.069018E+06 -2.283375E+05 -1.829528E+06 -3.546580E+03  9.275955E+04
       183   4 -3.425905E+06 -6.568165E+05 -8.930582E+02 -1.517315E+06 -4.471907E+04  1.195508E+05
       183   5 -3.449679E+06 -6.327460E+05 -1.111715E+03 -1.490127E+06 -3.723154E+04  1.013063E+05
       183   6 -3.425585E+06 -6.561710E+05 -1.638466E+03 -1.517457E+06 -2.973150E+04  8.295454E+04
       183   7 -1.809321E+06 -6.655893E+04  3.211628E+05 -1.069815E+06 -7.067910E+04  1.097922E+05
       183   8 -2.075620E+06 -1.311609E+05  2.731809E+05 -1.110095E+06 -6.332954E+04  9.151485E+04
       183   9 -2.293966E+06 -2.432165E+05  2.249990E+05 -1.204858E+06 -5.596774E+04  7.313035E+04
       183  10 -5.039781E+06 -1.246864E+06 -3.231026E+05 -1.963729E+06  1.052497E-10  1.533769E-10
       183  11 -4.821788E+06 -1.134182E+06 -2.755169E+05 -1.869377E+06  6.206759E-10  2.942302E-09
       183  12 -4.555886E+06 -1.069027E+06 -2.283536E+05 -1.829527E+06  1.937869E-09  3.596004E-09
       183  13 -3.425911E+06 -6.568324E+05 -9.236156E+02 -1.517311E+06 -9.391781E-11 -8.041510E-10
       183  14 -3.449684E+06 -6.327573E+05 -1.133565E+03 -1.490124E+06  5.019236E-10  9.996216E-10
       183  15 -3.425588E+06 -6.561786E+05 -1.653031E+03 -1.517455E+06 -1.880313E-11  9.331992E-10
       183  16 -1.809329E+06 -6.657318E+04  3.211308E+05 -1.069809E+06  1.405304E-09 -1.054665E-09
       183  17 -2.075626E+06 -1.311709E+05  2.731577E+05 -1.110090E+06 -1.180186E-09 -1.133823E-09
       183  18 -2.293971E+06 -2.432231E+05  2.249831E+05 -1.204855E+06 -2.528693E-09 -1.037692E-09
       183  19 -5.039776E+06 -1.246846E+06 -3.230705E+05 -1.963731E+06  1.883186E+04 -1.292821E+05
       183  20 -4.821784E+06 -1.134169E+06 -2.754935E+05 -1.869378E+06  1.119567E+04 -1.110746E+05
       183  21 -4.555884E+06 -1.069018E+06 -2.283375E+05 -1.829528E+06  3.546580E+03 -9.275955E+04
       183  22 -3.425905E+06 -6.568165E+05 -8.930582E+02 -1.517315E+06  4.471907E+04 -1.195508E+05
       183  23 -3.449679E+06 -6.327460E+05 -1.111715E+03 -1.490127E+06  3.723154E+04 -1.013063E+05
       183  24 -3.425585E+06 -6.561710E+05 -1.638466E+03 -1.517457E+06  2.973150E+04 -8.295454E+04
       183  25 -1.809321E+06 -6.655893E+04  3.211628E+05 -1.069815E+06  7.067910E+04 -1.097922E+05
       183  26 -2.075620E+06 -1.311609E+05  2.731809E+05 -1.110095E+06  6.332954E+04 -9.151485E+04
       183  27 -2.293966E+06 -2.432165E+05  2.249990E+05 -1.204858E+06  5.596774E+04 -7.313035E+04
       184   1 -4.389509E+06 -1.008055E+06 -1.941213E+05 -1.783909E+06  9.540511E+02  8.205314E+04
       184   2 -4.168213E+06 -8.944059E+05 -1.473740E+05 -1.688571E+06  9.749059E+03  6.405660E+04
       184   3 -3.898941E+06 -8.290260E+05 -1.019912E+05 -1.648548E+06  1.851070E+04  4.611251E+04
       184   4 -3.425492E+06 -6.562104E+05 -2.139549E+03 -1.517660E+06 -2.535517E+04  7.221035E+04
       184   5 -3.449360E+06 -6.319477E+05 -3.780417E+03 -1.490010E+06 -1.648687E+04  5.425101E+04
       184   6 -3.425340E+06 -6.559745E+05 -6.849452E+03 -1.517697E+06 -7.652719E+03  3.634395E+04
       184   7 -2.460499E+06 -3.042810E+05  1.898033E+05 -1.251023E+06 -5.170874E+04  6.235097E+04
       184   8 -2.729965E+06 -3.694429E+05  1.397923E+05 -1.291233E+06 -4.275571E+04  4.443310E+04
       184   9 -2.951504E+06 -4.829029E+05  8.828436E+04 -1.386752E+06 -3.383770E+04  2.656731E+04
       184  10 -4.389510E+06 -1.008063E+06 -1.941339E+05 -1.783909E+06  2.169902E-08  1.113937E-08
       184  11 -4.168215E+06 -8.944103E+05 -1.473819E+05 -1.688572E+06  5.554839E-09  5.699956E-09
       184  12 -3.898942E+06 -8.290284E+05 -1.019958E+05 -1.648549E+06 -1.776905E-08 -5.985897E-09
       184  13 -3.425494E+06 -6.562161E+05 -2.150535E+03 -1.517659E+06  3.013243E-10  7.715674E-10
       184  14 -3.449361E+06 -6.319509E+05 -3.786448E+03 -1.490009E+06  2.915778E-09  1.065715E-09
       184  15 -3.425340E+06 -6.559759E+05 -6.852040E+03 -1.517697E+06  1.751296E-09  1.886213E-09
       184  16 -2.460503E+06 -3.042859E+05  1.897910E+05 -1.251020E+06 -1.768287E-08 -6.201850E-09
       184  17 -2.729968E+06 -3.694455E+05  1.397851E+05 -1.291231E+06  4.358306E-09  4.073481E-09
       184  18 -2.951505E+06 -4.829040E+05  8.828088E+04 -1.386751E+06  2.173783E-08  8.913492E-09
       184  19 -4.389509E+06 -1.008055E+06 -1.941213E+05 -1.783909E+06 -9.540511E+02 -8.205314E+04
       184  20 -4.168213E+06 -8.944059E+05 -1.473740E+05 -1.688571E+06 -9.749059E+03 -6.405660E+04
       184  21 -3.898941E+06 -8.290260E+05 -1.019912E+05 -1.648548E+06 -1.851070E+04 -4.611251E+04
       184  22 -3.425492E+06 -6.562104E+05 -2.139549E+03 -1.517660E+06  2.535517E+04 -7.221035E+04
       184  23 -3.449360E+06 -6.319477E+05 -3.780417E+03 -1.490010E+06  1.648687E+04 -5.425101E+04
       184  24 -3.425340E+06 -6.559745E+05 -6.849452E+03 -1.517697E+06  7.652719E+03 -3.634395E+04
       184  25 -2.460499E+06 -3.042810E+05  1.898033E+05 -1.251023E+06  5.170874E+04 -6.235097E+04
       184  26 -2.729965E+06 -3.694429E+05  1.397923E+05 -1.291233E+06  4.275571E+04 -4.443310E+04
       184  27 -2.951504E+06 -4.829029E+05  8.828436E+04 -1.386752E+06  3.383770E+04 -2.656731E+04
       185   1 -3.730877E+06 -7.678769E+05 -6.925015E+04 -1.603250E+06  2.424343E+04  3.576438E+04
       185   2 -3.508713E+06 -6.533804E+05 -2.743775E+04 -1.505826E+06  3.699881E+04  2.000649E+04
       185   3 -3.240447E+06 -5.909230E+05  8.855026E+03 -1.463172E+06  4.913420E+04  5.910245E+03
       185   4 -3.425669E+06 -6.557774E+05 -9.114934E+03 -1.517989E+06 -2.288949E+03  2.586145E+04
       185   5 -3.448822E+06 -6.321101E+05 -1.663328E+04 -1.489628E+06  1.280148E+04  1.097573E+04
       185   6 -3.426406E+06 -6.609537E+05 -3.153262E+04 -1.516064E+06  2.726946E+04 -2.249319E+03
       185   7 -3.120364E+06 -5.436698E+05  5.101834E+04 -1.432689E+06 -2.883517E+04  1.595324E+04
       185   8 -3.388927E+06 -6.108390E+05 -5.826409E+03 -1.473428E+06 -1.139836E+04  1.944071E+03
       185   9 -3.612330E+06 -7.309813E+05 -7.192068E+04 -1.568941E+06  5.411648E+03 -1.040614E+04
       185  10 -3.730878E+06 -7.678784E+05 -6.925367E+04 -1.603250E+06 -1.529322E-09 -1.356631E-09
       185  11 -3.508714E+06 -6.533812E+05 -2.744110E+04 -1.505826E+06  1.155736E-09 -1.505400E-09
       185  12 -3.240450E+06 -5.909237E+05  8.850398E+03 -1.463172E+06  2.306051E-09 -6.812850E-10
       185  13 -3.425669E+06 -6.557782E+05 -9.116199E+03 -1.517989E+06  4.223324E-10 -2.150894E-10
       185  14 -3.448823E+06 -6.321103E+05 -1.663382E+04 -1.489628E+06  4.560375E-10 -8.482897E-10
       185  15 -3.426407E+06 -6.609539E+05 -3.153404E+04 -1.516064E+06 -4.397000E-09 -4.166826E-09
       185  16 -3.120365E+06 -5.436703E+05  5.101629E+04 -1.432688E+06  3.531381E-09  2.929292E-09
       185  17 -3.388927E+06 -6.108390E+05 -5.826661E+03 -1.473428E+06 -1.243836E-09 -1.132889E-09
       185  18 -3.612330E+06 -7.309815E+05 -7.192094E+04 -1.568941E+06 -1.010139E-08 -6.551299E-09
       185  19 -3.730877E+06 -7.678769E+05 -6.925015E+04 -1.603250E+06 -2.424343E+04 -3.576438E+04
       185  20 -3.508713E+06 -6.533804E+05 -2.743775E+04 -1.505826E+06 -3.699881E+04 -2.000649E+04
       185  21 -3.240447E+06 -5.909230E+05  8.855026E+03 -1.463172E+06 -4.913420E+04 -5.910245E+03
       185  22 -3.425669E+06 -6.557774E+05 -9.114934E+03 -1.517989E+06  2.288949E+03 -2.586145E+04
       185  23 -3.448822E+06 -6.321101E+05 -1.663328E+04 -1.489628E+06 -1.280148E+04 -1.097573E+04
       185  24 -3.426406E+06 -6.609537E+05 -3.153262E+04 -1.516064E+06 -2.726946E+04  2.249319E+03
       185  25 -3.120364E+06 -5.436698E+05  5.101834E+04 -1.432689E+06  2.883517E+04 -1.595324E+04
       185  26 -3.388927E+06 -6.108390E+05 -5.826409E+03 -1.473428E+06  1.139836E+04 -1.944071E+03
       185  27 -3.612330E+06 -7.309813E+05 -7.192068E+04 -1.568941E+06 -5.411648E+03  1.040614E+04
       186   1 -3.066091E+06 -5.345925E+05  3.436121E+04 -1.432675E+06  6.286110E+04 -1.518361E+03
       186   2 -2.868663E+06 -4.056864E+05  5.879291E+04 -1.288069E+06  7.080761E+04 -5.949950E+03
       186   3 -2.658104E+06 -4.121112E+05  5.482806E+04 -1.173823E+06  6.944666E+04  1.452109E+04
       186   4 -3.431696E+06 -6.559795E+05 -4.127452E+04 -1.519961E+06  3.612539E+04 -1.149622E+04
       186   5 -3.444156E+06 -6.511010E+05 -7.727513E+04 -1.480068E+06  7.915365E+04 -2.840342E+03
       186   6 -3.450572E+06 -7.886220E+05 -1.696087E+05 -1.470577E+06  1.128657E+05  3.072736E+04
       186   7 -3.797164E+06 -7.773616E+05 -1.169147E+05 -1.607202E+06  9.406626E+03 -2.146913E+04
       186   8 -4.019301E+06 -8.964541E+05 -2.133634E+05 -1.671889E+06  8.749115E+04  2.649389E+02
       186   9 -4.242379E+06 -1.164961E+06 -3.940879E+05 -1.766938E+06  1.562224E+05  4.689626E+04
       186  10 -3.066095E+06 -5.345936E+05  3.435374E+04 -1.432675E+06 -6.166955E-09 -3.618933E-09
       186  11 -2.868668E+06 -4.056878E+05  5.878339E+04 -1.288068E+06  1.621231E-10  1.823782E-10
       186  12 -2.658109E+06 -4.121127E+05  5.481855E+04 -1.173824E+06 -4.887619E-10 -1.161933E-09
       186  13 -3.431697E+06 -6.559800E+05 -4.127723E+04 -1.519961E+06 -3.215926E-09 -2.555597E-09
       186  14 -3.444163E+06 -6.511027E+05 -7.728698E+04 -1.480068E+06  1.827236E-09  1.021055E-09
       186  15 -3.450586E+06 -7.886265E+05 -1.696346E+05 -1.470580E+06  1.025130E-09  3.166204E-12
       186  16 -3.797164E+06 -7.773621E+05 -1.169157E+05 -1.607202E+06 -2.337779E-09 -6.382421E-09
       186  17 -4.019309E+06 -8.964562E+05 -2.133778E+05 -1.671889E+06  1.753896E-09 -1.725753E-09
       186  18 -4.242406E+06 -1.164970E+06 -3.941383E+05 -1.766944E+06  9.611846E-10 -1.003536E-09
       186  19 -3.066091E+06 -5.345925E+05  3.436121E+04 -1.432675E+06 -6.286110E+04  1.518361E+03
       186  20 -2.868663E+06 -4.056864E+05  5.879291E+04 -1.288069E+06 -7.080761E+04  5.949950E+03
       186  21 -2.658104E+06 -4.121112E+05  5.482806E+04 -1.173823E+06 -6.944666E+04 -1.452109E+04
       186  22 -3.431696E+06 -6.559795E+05 -4.127452E+04 -1.519961E+06 -3.612539E+04  1.149622E+04
       186  23 -3.444156E+06 -6.511010E+05 -7.727513E+04 -1.480068E+06 -7.915365E+04  2.840342E+03
       186  24 -3.450572E+06 -7.886220E+05 -1.696087E+05 -1.470577E+06 -1.128657E+05 -3.072736E+04
       186  25 -3.797164E+06 -7.773616E+05 -1.169147E+05 -1.607202E+06 -9.406626E+03  2.146913E+04
       186  26 -4.019301E+06 -8.964541E+05 -2.133634E+05 -1.671889E+06 -8.749115E+04 -2.649389E+02
       186  27 -4.242379E+06 -1.164961E+06 -3.940879E+05 -1.766938E+06 -1.562224E+05 -4.689626E+04
       187   1  2.487567E+05  5.059082E+04  7.078696E+04  1.501818E+04  6.214436E+04  7.644545E+02
       187   2  2.434053E+05 -3.215108E+04  2.089557E+04  4.789178E+03  4.113846E+04  2.184980E+03
       187   3  2.642406E+05 -2.114115E+04  8.119442E+03 -1.252980E+04  2.013230E+04  1.865267E+03
       187   4  3.355715E+05  7.223248E+04  9.228260E+04 -4.046917E+03  6.308846E+04  7.628218E+02
       187   5  3.224240E+05 -1.252123E+04  4.006555E+04 -4.911812E+02  4.136923E+04  2.184667E+03
       187   6  3.355829E+05 -3.406533E+03  2.545517E+04 -4.025271E+03  1.965003E+04  1.865440E+03
       187   7  4.223940E+05  9.387495E+04  1.137779E+05 -2.311468E+04  6.403269E+04  7.611313E+02
       187   8  4.014485E+05  7.108276E+03  5.923509E+04 -5.772215E+03  4.160003E+04  2.184351E+03
       187   9  4.069301E+05  1.432799E+04  4.279057E+04  4.480234E+03  1.916769E+04  1.865600E+03
       187  10  2.487526E+05  5.058979E+04  7.077971E+04  1.501814E+04 -4.011232E-10 -3.430007E-10
       187  11  2.434034E+05 -3.215154E+04  2.089238E+04  4.789106E+03 -6.341229E-09 -1.343833E-10
       187  12  2.642402E+05 -2.114127E+04  8.118674E+03 -1.252983E+04 -2.306786E-09 -6.711301E-10
       187  13  3.355672E+05  7.223142E+04  9.227513E+04 -4.046956E+03 -4.207799E-09  1.516817E-10
       187  14  3.224222E+05 -1.252169E+04  4.006232E+04 -4.912540E+02 -4.263496E-09 -1.976916E-10
       187  15  3.355825E+05 -3.406640E+03  2.545444E+04 -4.025301E+03  2.537236E-09 -4.444462E-10
       187  16  4.223896E+05  9.387385E+04  1.137702E+05 -2.311472E+04  1.989249E-09  1.362965E-10
       187  17  4.014467E+05  7.107807E+03  5.923183E+04 -5.772288E+03 -1.514710E-09 -1.163961E-10
       187  18  4.069297E+05  1.432788E+04  4.278988E+04  4.480205E+03  1.993961E-09  4.282676E-10
       187  19  2.487567E+05  5.059082E+04  7.078696E+04  1.501818E+04 -6.214436E+04 -7.644545E+02
       187  20  2.434053E+05 -3.215108E+04  2.089557E+04  4.789178E+03 -4.113846E+04 -2.184980E+03
       187  21  2.642406E+05 -2.114115E+04  8.119442E+03 -1.252980E+04 -2.013230E+04 -1.865267E+03
       187  22  3.355715E+05  7.223248E+04  9.228260E+04 -4.046917E+03 -6.308846E+04 -7.628218E+02
       187  23  3.224240E+05 -1.252123E+04  4.006555E+04 -4.911812E+02 -4.136923E+04 -2.184667E+03
       187  24  3.355829E+05 -3.406533E+03  2.545517E+04 -4.025271E+03 -1.965003E+04 -1.865440E+03
       187  25  4.223940E+05  9.387495E+04  1.137779E+05 -2.311468E+04 -6.403269E+04 -7.611313E+02
       187  26  4.014485E+05  7.108276E+03  5.923509E+04 -5.772215E+03 -4.160003E+04 -2.184351E+03
       187  27  4.069301E+05  1.432799E+04  4.279057E+04  4.480234E+03 -1.916769E+04 -1.865600E+03
       188   1  2.725282E+05 -5.777247E+03  6.762566E+03 -1.912577E+03  1.562873E+04  1.440266E+03
       188   2  2.783608E+05 -1.404676E+04 -1.832112E+03  4.238003E-01  1.031958E+04  1.315136E+03
       188   3  2.877082E+05 -1.104637E+04 -4.152409E+03 -5.074819E+03  5.010373E+03  1.028301E+03
       188   4  3.305182E+05  8.638173E+03  2.087304E+04 -4.010117E+03  1.561197E+04  1.440202E+03
       188   5  3.287562E+05 -1.522049E+03  1.041345E+04 -5.153597E+02  1.023635E+04  1.315110E+03
       188   6  3.305203E+05 -4.013789E+02  6.273949E+03 -4.008790E+03  4.860745E+03  1.028293E+03
       188   7  3.885112E+05  2.305336E+04  3.498327E+04 -6.107853E+03  1.559520E+04  1.440138E+03
       188   8  3.791540E+05  1.100247E+04  2.265884E+04 -1.031185E+03  1.015312E+04  1.315084E+03
       188   9  3.733341E+05  1.024348E+04  1.670017E+04 -2.942688E+03  4.711108E+03  1.028285E+03
       188  10  2.725280E+05 -5.777314E+03  6.762103E+03 -1.912595E+03 -1.435722E-09 -2.298109E-10
       188  11  2.783606E+05 -1.404679E+04 -1.832315E+03  4.128710E-01 -2.106879E-09  9.362867E-10
       188  12  2.877081E+05 -1.104638E+04 -4.152458E+03 -5.074823E+03 -1.676526E-09  7.071233E-10
       188  13  3.305179E+05  8.638105E+03  2.087258E+04 -4.010135E+03 -4.215653E-09  3.391027E-10
       188  14  3.287561E+05 -1.522079E+03  1.041325E+04 -5.153705E+02 -3.088245E-09  8.013398E-10
       188  15  3.305202E+05 -4.013863E+02  6.273903E+03 -4.008794E+03 -1.493409E-09  3.165096E-10
       188  16  3.885110E+05  2.305329E+04  3.498281E+04 -6.107871E+03  3.481493E-09  5.313842E-10
       188  17  3.791539E+05  1.100244E+04  2.265864E+04 -1.031196E+03 -4.210468E-09  4.819664E-10
       188  18  3.733340E+05  1.024347E+04  1.670013E+04 -2.942692E+03 -1.997317E-09  1.626255E-10
       188  19  2.725282E+05 -5.777247E+03  6.762566E+03 -1.912577E+03 -1.562873E+04 -1.440266E+03
       188  20  2.783608E+05 -1.404676E+04 -1.832112E+03  4.238002E-01 -1.031958E+04 -1.315136E+03
       188  21  2.877082E+05 -1.104637E+04 -4.152409E+03 -5.074819E+03 -5.010373E+03 -1.028301E+03
       188  22  3.305182E+05  8.638173E+03  2.087304E+04 -4.010117E+03 -1.561197E+04 -1.440202E+03
       188  23  3.287562E+05 -1.522049E+03  1.041345E+04 -5.153597E+02 -1.023635E+04 -1.315110E+03
       188  24  3.305203E+05 -4.013789E+02  6.273949E+03 -4.008790E+03 -4.860745E+03 -1.028293E+03
       188  25  3.885112E+05  2.305336E+04  3.498327E+04 -6.107853E+03 -1.559520E+04 -1.440138E+03
       188  26  3.791540E+05  1.100247E+04  2.265884E+04 -1.031185E+03 -1.015312E+04 -1.315084E+03
       188  27  3.733341E+05  1.024348E+04  1.670017E+04 -2.942688E+03 -4.711108E+03 -1.028285E+03
       189   1  3.002245E+05 -6.338459E+03 -2.235741E+03 -3.792567E+03  3.968916E+03  8.394888E+02
       189   2  3.074865E+05 -5.680817E+03 -2.715166E+03 -4.998595E+02  2.634361E+03  5.721731E+02
       189   3  3.152605E+05 -3.676457E+03 -1.989034E+03 -4.132898E+03  1.299797E+03  2.903211E+02
       189   4  3.298507E+05  1.020891E+03  4.945285E+03 -3.995353E+03  3.862926E+03  8.394780E+02
       189   5  3.295944E+05 -1.861915E+02  2.657897E+03 -5.324546E+02  2.522378E+03  5.721659E+02
       189   6  3.298511E+05 -4.551869E+01  1.580208E+03 -3.995288E+03  1.181838E+03  2.903172E+02
       189   7  3.594777E+05  8.380176E+03  1.212625E+04 -4.198149E+03  3.756930E+03  8.394673E+02
       189   8  3.517027E+05  5.308398E+03  8.030925E+03 -5.650509E+02  2.410391E+03  5.721587E+02
       189   9  3.444419E+05  3.585404E+03  5.149435E+03 -3.857673E+03  1.063875E+03  2.903132E+02
       189  10  3.002245E+05 -6.338464E+03 -2.235772E+03 -3.792570E+03  7.137668E-10 -8.603784E-10
       189  11  3.074865E+05 -5.680819E+03 -2.715180E+03 -4.998607E+02  1.068063E-09 -2.481428E-09
       189  12  3.152605E+05 -3.676457E+03 -1.989037E+03 -4.132899E+03 -1.207407E-10  4.275828E-10
       189  13  3.298507E+05  1.020886E+03  4.945256E+03 -3.995355E+03 -1.356951E-10 -9.527207E-10
       189  14  3.295944E+05 -1.861936E+02  2.657884E+03 -5.324558E+02  3.216128E-09 -2.040911E-09
       189  15  3.298511E+05 -4.551915E+01  1.580206E+03 -3.995288E+03 -3.743984E-09  7.512294E-10
       189  16  3.594777E+05  8.380172E+03  1.212622E+04 -4.198151E+03 -4.158820E-09 -9.671033E-10
       189  17  3.517027E+05  5.308396E+03  8.030914E+03 -5.650520E+02 -4.156913E-09 -1.799992E-09
       189  18  3.444419E+05  3.585403E+03  5.149433E+03 -3.857674E+03 -3.011538E-09  1.185109E-09
       189  19  3.002245E+05 -6.338459E+03 -2.235741E+03 -3.792567E+03 -3.968916E+03 -8.394888E+02
       189  20  3.074865E+05 -5.680817E+03 -2.715166E+03 -4.998595E+02 -2.634361E+03 -5.721731E+02
       189  21  3.152605E+05 -3.676457E+03 -1.989034E+03 -4.132898E+03 -1.299797E+03 -2.903211E+02
       189  22  3.298507E+05  1.020891E+03  4.945285E+03 -3.995353E+03 -3.862926E+03 -8.394780E+02
       189  23  3.295944E+05 -1.861915E+02  2.657897E+03 -5.324546E+02 -2.522378E+03 -5.721659E+02
       189  24  3.298511E+05 -4.551869E+01  1.580208E+03 -3.995288E+03 -1.181838E+03 -2.903172E+02
       189  25  3.594777E+05  8.380176E+03  1.212625E+04 -4.198149E+03 -3.756930E+03 -8.394673E+02
       189  26  3.517027E+05  5.308398E+03  8.030925E+03 -5.650509E+02 -2.410391E+03 -5.721587E+02
       189  27  3.444419E+05  3.585404E+03  5.149435E+03 -3.857673E+03 -1.063875E+03 -2.903132E+02
       190   1  3.282789E+05 -2.453840E+02  8.997024E+02 -3.978943E+03  1.042694E+03  1.244248E+02
       190   2  3.357363E+05  1.473005E+03  2.196798E+03 -5.384871E+02  6.780207E+02 -1.554281E+02
       190   3  3.432836E+05  3.357158E+03  3.772829E+03 -4.010019E+03  3.133424E+02 -4.367558E+02
       190   4  3.297571E+05  1.174206E+02  1.236073E+03 -3.992257E+03  9.287719E+02  1.244215E+02
       190   5  3.297123E+05 -2.419987E+01  7.326264E+02 -5.362594E+02  5.634944E+02 -1.554323E+02
       190   6  3.297572E+05  2.327826E-02  5.085073E+02 -3.992254E+03  1.982158E+02 -4.367608E+02
       190   7  3.312353E+05  4.802250E+02  1.572444E+03 -4.005571E+03  8.148500E+02  1.244182E+02
       190   8  3.236882E+05 -1.521407E+03 -7.315473E+02 -5.340316E+02  4.489692E+02 -1.554366E+02
       190   9  3.162309E+05 -3.357124E+03 -2.755828E+03 -3.974488E+03  8.309171E+01 -4.367657E+02
       190  10  3.282789E+05 -2.453843E+02  8.997003E+02 -3.978943E+03 -9.941091E-10  1.884637E-09
       190  11  3.357363E+05  1.473005E+03  2.196797E+03 -5.384870E+02  1.732197E-09  6.155007E-10
       190  12  3.432836E+05  3.357157E+03  3.772829E+03 -4.010019E+03 -3.319599E-10 -1.817741E-09
       190  13  3.297571E+05  1.174203E+02  1.236072E+03 -3.992257E+03 -4.295926E-09  2.055866E-09
       190  14  3.297123E+05 -2.419998E+01  7.326258E+02 -5.362593E+02  5.314836E-09  2.424648E-10
       190  15  3.297572E+05  2.306288E-02  5.085069E+02 -3.992254E+03 -4.197436E-09 -1.633635E-09
       190  16  3.312353E+05  4.802248E+02  1.572443E+03 -4.005571E+03 -3.815808E-09  2.120003E-09
       190  17  3.236882E+05 -1.521408E+03 -7.315478E+02 -5.340316E+02 -1.320019E-09 -5.766368E-12
       190  18  3.162309E+05 -3.357125E+03 -2.755828E+03 -3.974488E+03  2.589578E-09 -1.536536E-09
       190  19  3.282789E+05 -2.453840E+02  8.997024E+02 -3.978943E+03 -1.042694E+03 -1.244248E+02
       190  20  3.357363E+05  1.473005E+03  2.196798E+03 -5.384871E+02 -6.780207E+02  1.554281E+02
       190  21  3.432836E+05  3.357158E+03  3.772829E+03 -4.010019E+03 -3.133424E+02  4.367558E+02
       190  22  3.297571E+05  1.174206E+02  1.236073E+03 -3.992257E+03 -9.287719E+02 -1.244215E+02
       190  23  3.297123E+05 -2.419987E+01  7.326264E+02 -5.362594E+02 -5.634944E+02  1.554323E+02
       190  24  3.297572E+05  2.327831E-02  5.085073E+02 -3.992254E+03 -1.982158E+02  4.367608E+02
       190  25  3.312353E+05  4.802250E+02  1.572444E+03 -4.005571E+03 -8.148500E+02 -1.244182E+02
       190  26  3.236882E+05 -1.521407E+03 -7.315473E+02 -5.340316E+02 -4.489692E+02  1.554366E+02
       190  27  3.162309E+05 -3.357124E+03 -2.755828E+03 -3.974488E+03 -8.309171E+01  4.367657E+02
       191   1  3.564082E+05  6.640802E+03  6.959104E+03 -3.992924E+03  2.263774E+02 -6.011163E+02
       191   2  3.639224E+05  8.486897E+03  8.758726E+03 -5.251494E+02  3.732334E+00 -8.832226E+02
       191   3  3.714902E+05  1.041748E+04  1.072504E+04 -4.004987E+03 -2.188913E+02 -1.164625E+03
       191   4  3.297489E+05  1.046466E+01  4.565085E+02 -4.000175E+03  1.110853E+02 -6.011233E+02
       191   5  3.297222E+05 -1.294016E+01  4.465748E+02 -5.263590E+02 -1.112632E+02 -8.832343E+02
       191   6  3.297489E+05  4.809797E+01  6.031344E+02 -4.000179E+03 -3.335876E+02 -1.164641E+03
       191   7  3.030903E+05 -6.619925E+03 -6.046139E+03 -4.007426E+03 -4.201776E+00 -6.011303E+02
       191   8  2.955230E+05 -8.512863E+03 -7.865660E+03 -5.275685E+02 -2.262524E+02 -8.832461E+02
       191   9  2.880091E+05 -1.032141E+04 -9.518893E+03 -3.995371E+03 -4.482762E+02 -1.164657E+03
       191  10  3.564082E+05  6.640801E+03  6.959104E+03 -3.992923E+03 -1.976836E-09 -8.796514E-10
       191  11  3.639224E+05  8.486896E+03  8.758724E+03 -5.251494E+02 -2.312684E-09  2.221077E-09
       191  12  3.714902E+05  1.041748E+04  1.072503E+04 -4.004987E+03 -1.379490E-09 -6.034774E-10
       191  13  3.297489E+05  1.046426E+01  4.565078E+02 -4.000175E+03  2.256564E-10 -6.806797E-10
       191  14  3.297222E+05 -1.294101E+01  4.465734E+02 -5.263591E+02 -8.605685E-10  1.779922E-09
       191  15  3.297489E+05  4.809648E+01  6.031316E+02 -4.000179E+03 -2.393049E-09  1.027326E-10
       191  16  3.030903E+05 -6.619925E+03 -6.046140E+03 -4.007426E+03  4.677104E-09 -7.311376E-10
       191  17  2.955230E+05 -8.512864E+03 -7.865662E+03 -5.275686E+02 -3.031867E-09  1.168033E-09
       191  18  2.880091E+05 -1.032141E+04 -9.518896E+03 -3.995371E+03  4.758932E-10  7.256005E-10
       191  19  3.564082E+05  6.640802E+03  6.959104E+03 -3.992924E+03 -2.263774E+02  6.011163E+02
       191  20  3.639224E+05  8.486897E+03  8.758726E+03 -5.251494E+02 -3.732334E+00  8.832226E+02
       191  21  3.714902E+05  1.041748E+04  1.072504E+04 -4.004987E+03  2.188913E+02  1.164625E+03
       191  22  3.297489E+05  1.046466E+01  4.565085E+02 -4.000175E+03 -1.110853E+02  6.011233E+02
       191  23  3.297222E+05 -1.294016E+01  4.465748E+02 -5.263590E+02  1.112632E+02  8.832343E+02
       191  24  3.297489E+05  4.809797E+01  6.031344E+02 -4.000179E+03  3.335876E+02  1.164641E+03
       191  25  3.030903E+05 -6.619925E+03 -6.046139E+03 -4.007426E+03  4.201776E+00  6.011303E+02
       191  26  2.955230E+05 -8.512863E+03 -7.865660E+03 -5.275685E+02  2.262524E+02  8.832461E+02
       191  27  2.880091E+05 -1.032141E+04 -9.518893E+03 -3.995371E+03  4.482762E+02  1.164657E+03
       192   1  3.847772E+05  1.365187E+04  1.411874E+04 -3.957035E+03 -3.329677E+02 -1.333229E+03
       192   2  3.922957E+05  1.548306E+04  1.638180E+04 -5.092703E+02 -9.272018E+02 -1.618808E+03
       192   3  4.000446E+05  1.788787E+04  1.917693E+04 -4.095084E+03 -1.521394E+03 -1.884352E+03
       192   4  3.297875E+05 -1.925832E+01  7.309297E+02 -4.019257E+03 -4.535699E+02 -1.333251E+03
       192   5  3.296729E+05 -8.034551E+01  1.162368E+03 -5.024900E+02 -1.039573E+03 -1.618838E+03
       192   6  3.297872E+05  4.308374E+02  2.120232E+03 -4.019346E+03 -1.625527E+03 -1.884388E+03
       192   7  2.748006E+05 -1.369061E+04 -1.265710E+04 -4.081474E+03 -5.741615E+02 -1.333273E+03
       192   8  2.670536E+05 -1.564403E+04 -1.405735E+04 -4.957106E+02 -1.151932E+03 -1.618867E+03
       192   9  2.595344E+05 -1.702656E+04 -1.493682E+04 -3.943617E+03 -1.729648E+03 -1.884424E+03
       192  10  3.847772E+05  1.365187E+04  1.411874E+04 -3.957036E+03 -1.165066E-09 -9.399008E-10
       192  11  3.922957E+05  1.548305E+04  1.638179E+04 -5.092715E+02 -3.031776E-09  5.711159E-10
       192  12  4.000446E+05  1.788786E+04  1.917692E+04 -4.095087E+03  6.183894E-11 -6.838226E-10
       192  13  3.297875E+05 -1.926029E+01  7.309260E+02 -4.019258E+03 -2.097098E-11 -5.096871E-10
       192  14  3.296729E+05 -8.034861E+01  1.162361E+03 -5.024914E+02 -2.319835E-09  7.454111E-11
       192  15  3.297872E+05  4.308329E+02  2.120220E+03 -4.019349E+03  1.240683E-09 -7.161294E-10
       192  16  2.748006E+05 -1.369061E+04 -1.265710E+04 -4.081474E+03  2.072140E-11 -2.122939E-10
       192  17  2.670536E+05 -1.564404E+04 -1.405736E+04 -4.957121E+02 -9.401487E-11 -5.333238E-10
       192  18  2.595344E+05 -1.702656E+04 -1.493683E+04 -3.943620E+03  1.222767E-09 -5.526802E-10
       192  19  3.847772E+05  1.365187E+04  1.411874E+04 -3.957035E+03  3.329677E+02  1.333229E+03
       192  20  3.922957E+05  1.548306E+04  1.638180E+04 -5.092703E+02  9.272018E+02  1.618808E+03
       192  21  4.000446E+05  1.788787E+04  1.917693E+04 -4.095084E+03  1.521394E+03  1.884352E+03
       192  22  3.297875E+05 -1.925832E+01  7.309297E+02 -4.019257E+03  4.535699E+02  1.333251E+03
       192  23  3.296729E+05 -8.034551E+01  1.162368E+03 -5.024900E+02  1.039573E+03  1.618838E+03
       192  24  3.297872E+05  4.308374E+02  2.120232E+03 -4.019346E+03  1.625527E+03  1.884388E+03
       192  25  2.748006E+05 -1.369061E+04 -1.265710E+04 -4.081474E+03  5.741615E+02  1.333273E+03
       192  26  2.670536E+05 -1.564403E+04 -1.405735E+04 -4.957106E+02  1.151932E+03  1.618867E+03
       192  27  2.595344E+05 -1.702656E+04 -1.493682E+04 -3.943617E+03  1.729648E+03  1.884424E+03
       193   1  4.137883E+05  2.063699E+04  2.304630E+04 -3.581267E+03 -1.884947E+03 -2.087523E+03
       193   2  4.208076E+05  2.208848E+04  2.666227E+04 -6.659408E+02 -4.268406E+03 -2.381995E+03
       193   3  4.293584E+05  2.834593E+04  3.303480E+04 -4.914679E+03 -6.651958E+03 -2.441722E+03
       193   4  3.300725E+05 -1.726458E+02  2.680424E+03 -4.047861E+03 -2.052622E+03 -2.087581E+03
       193   5  3.293145E+05 -6.485204E+02  4.431071E+03 -4.664981E+02 -4.339958E+03 -2.382041E+03
       193   6  3.300715E+05  3.665241E+03  8.871827E+03 -4.049248E+03 -6.627355E+03 -2.441747E+03
       193   7  2.463631E+05 -2.098279E+04 -1.768596E+04 -4.514392E+03 -2.220275E+03 -2.087639E+03
       193   8  2.378291E+05 -2.338614E+04 -1.780073E+04 -2.670854E+02 -4.411499E+03 -2.382088E+03
       193   9  2.307936E+05 -2.101617E+04 -1.529186E+04 -3.183956E+03 -6.602757E+03 -2.441773E+03
       193  10  4.137883E+05  2.063698E+04  2.304629E+04 -3.581270E+03 -1.511116E-09 -1.289551E-09
       193  11  4.208075E+05  2.208847E+04  2.666222E+04 -6.659490E+02  1.607833E-09 -2.317327E-10
       193  12  4.293583E+05  2.834591E+04  3.303470E+04 -4.914693E+03  1.795437E-09 -3.240211E-10
       193  13  3.300725E+05 -1.726516E+02  2.680408E+03 -4.047864E+03 -2.154013E-09 -8.234847E-10
       193  14  3.293145E+05 -6.485316E+02  4.431025E+03 -4.665064E+02  4.222323E-09 -2.126922E-10
       193  15  3.300714E+05  3.665223E+03  8.871733E+03 -4.049261E+03  1.987670E-11 -1.313116E-10
       193  16  2.463631E+05 -2.098280E+04 -1.768598E+04 -4.514395E+03  1.475305E-09 -4.354470E-10
       193  17  2.378291E+05 -2.338615E+04 -1.780078E+04 -2.670939E+02 -3.282771E-10  6.365322E-10
       193  18  2.307935E+05 -2.101619E+04 -1.529195E+04 -3.183969E+03 -3.242630E-09  4.722676E-11
       193  19  4.137883E+05  2.063699E+04  2.304630E+04 -3.581267E+03  1.884947E+03  2.087523E+03
       193  20  4.208076E+05  2.208848E+04  2.666227E+04 -6.659408E+02  4.268406E+03  2.381995E+03
       193  21  4.293584E+05  2.834593E+04  3.303480E+04 -4.914679E+03  6.651958E+03  2.441722E+03
       193  22  3.300725E+05 -1.726458E+02  2.680424E+03 -4.047861E+03  2.052622E+03  2.087581E+03
       193  23  3.293145E+05 -6.485204E+02  4.431071E+03 -4.664981E+02  4.339958E+03  2.382041E+03
       193  24  3.300715E+05  3.665241E+03  8.871827E+03 -4.049248E+03  6.627355E+03  2.441747E+03
       193  25  2.463631E+05 -2.098279E+04 -1.768596E+04 -4.514392E+03  2.220275E+03  2.087639E+03
       193  26  2.378291E+05 -2.338614E+04 -1.780073E+04 -2.670854E+02  4.411499E+03  2.382088E+03
       193  27  2.307936E+05 -2.101617E+04 -1.529186E+04 -3.183956E+03  6.602757E+03  2.441773E+03
       194   1  4.452769E+05  2.664481E+04  3.827586E+04 -4.322112E+02 -7.690551E+03 -2.988755E+03
       194   2  4.476036E+05  2.473069E+04  4.636938E+04 -2.629279E+03 -1.795328E+04 -3.328290E+03
       194   3  4.613110E+05  6.286804E+04  7.116081E+04 -1.214643E+04 -2.821759E+04 -1.133780E+03
       194   4  3.322248E+05 -1.451181E+03  1.081754E+04 -4.077240E+03 -8.343496E+03 -2.989024E+03
       194   5  3.266206E+05 -5.322759E+03  1.701920E+04 -4.265500E+02 -1.757023E+04 -3.328199E+03
       194   6  3.322194E+05  3.068142E+04  3.920190E+04 -4.095905E+03 -2.679840E+04 -1.133305E+03
       194   7  2.191843E+05 -2.954807E+04 -1.664169E+04 -7.721604E+03 -8.996322E+03 -2.989284E+03
       194   8  2.056509E+05 -3.537726E+04 -1.233203E+04  1.775747E+03 -1.718726E+04 -3.328105E+03
       194   9  2.031432E+05 -1.506208E+03  7.241786E+03  3.952942E+03 -2.537951E+04 -1.132793E+03
       194  10  4.452769E+05  2.664479E+04  3.827573E+04 -4.322297E+02  3.774486E-10 -5.855436E-10
       194  11  4.476033E+05  2.473059E+04  4.636875E+04 -2.629327E+03 -1.408737E-09 -1.082506E-09
       194  12  4.613101E+05  6.286782E+04  7.115932E+04 -1.214645E+04  2.077812E-09 -2.869120E-10
       194  13  3.322247E+05 -1.451209E+03  1.081740E+04 -4.077260E+03  1.803377E-09 -1.867964E-09
       194  14  3.266202E+05 -5.322853E+03  1.701860E+04 -4.265971E+02  4.518840E-09  1.485436E-09
       194  15  3.322187E+05  3.068122E+04  3.920055E+04 -4.095929E+03 -2.996554E-09  1.359586E-10
       194  16  2.191842E+05 -2.954810E+04 -1.664186E+04 -7.721626E+03 -2.135265E-09 -2.576369E-10
       194  17  2.056506E+05 -3.537735E+04 -1.233261E+04  1.775701E+03  1.282227E-09  1.048411E-09
       194  18  2.031425E+05 -1.506382E+03  7.240574E+03  3.952919E+03  2.918830E-09 -4.757917E-10
       194  19  4.452769E+05  2.664481E+04  3.827586E+04 -4.322112E+02  7.690551E+03  2.988755E+03
       194  20  4.476036E+05  2.473069E+04  4.636938E+04 -2.629279E+03  1.795328E+04  3.328290E+03
       194  21  4.613110E+05  6.286804E+04  7.116081E+04 -1.214643E+04  2.821759E+04  1.133780E+03
       194  22  3.322248E+05 -1.451181E+03  1.081754E+04 -4.077240E+03  8.343496E+03  2.989024E+03
       194  23  3.266206E+05 -5.322759E+03  1.701920E+04 -4.265500E+02  1.757023E+04  3.328199E+03
       194  24  3.322194E+05  3.068142E+04  3.920190E+04 -4.095905E+03  2.679840E+04  1.133305E+03
       194  25  2.191843E+05 -2.954807E+04 -1.664169E+04 -7.721604E+03  8.996322E+03  2.989284E+03
       194  26  2.056509E+05 -3.537726E+04 -1.233203E+04  1.775747E+03  1.718726E+04  3.328105E+03
       194  27  2.031432E+05 -1.506208E+03  7.241786E+03  3.952942E+03  2.537951E+04  1.132793E+03
       195   1  2.943261E+06  1.194895E+07  2.950378E+06 -1.387456E+06  9.289202E+04  1.653669E+05
       195   2  2.212519E+06  9.374146E+06  2.235315E+06 -2.607340E+05  2.523149E+05  3.500244E+04
       195   3  1.687008E+06  6.958414E+06  1.672091E+06 -1.406417E+06  1.606605E+05 -9.746485E+04
       195   4  7.230200E+04  3.619631E+05  9.975580E+04 -1.323277E+06  9.359790E+04  4.726734E+04
       195   5 -3.135122E+04  2.968350E+05  4.603593E+04 -1.858210E+05  2.526993E+05  2.148222E+04
       195   6  5.308425E+04  3.668457E+05  7.333966E+04 -1.322905E+06  1.591036E+05 -6.946736E+03
       195   7 -2.808584E+06 -1.110440E+07 -2.760709E+06 -1.260010E+06  9.428854E+04 -6.866917E+04
       195   8 -2.281208E+06 -8.705880E+06 -2.149134E+06 -1.117841E+05  2.530841E+05  8.155277E+03
       195   9 -1.584005E+06 -6.185325E+06 -1.528515E+06 -1.240056E+06  1.575621E+05  8.262145E+04
       195  10  2.943244E+06  1.194892E+07  2.950311E+06 -1.387468E+06 -4.532782E-10 -1.445033E-10
       195  11  2.212451E+06  9.374128E+06  2.235193E+06 -2.607411E+05 -4.655265E-09 -2.973936E-09
       195  12  1.686978E+06  6.958397E+06  1.672025E+06 -1.406404E+06  6.914610E-10  5.208061E-09
       195  13  7.229198E+04  3.619584E+05  9.973510E+04 -1.323281E+06 -1.184947E-09 -1.307535E-10
       195  14 -3.141992E+04  2.968174E+05  4.591503E+04 -1.858253E+05 -2.039634E-09  5.504484E-09
       195  15  5.305706E+04  3.668389E+05  7.329201E+04 -1.322904E+06 -3.709449E-09 -2.267308E-09
       195  16 -2.808595E+06 -1.110441E+07 -2.760735E+06 -1.260005E+06 -4.467005E-10 -4.530844E-09
       195  17 -2.281277E+06 -8.705897E+06 -2.149255E+06 -1.117858E+05  1.135797E-09  1.012893E-08
       195  18 -1.584034E+06 -6.185339E+06 -1.528575E+06 -1.240067E+06 -2.806969E-09  8.746823E-09
       195  19  2.943261E+06  1.194895E+07  2.950378E+06 -1.387456E+06 -9.289202E+04 -1.653669E+05
       195  20  2.212519E+06  9.374146E+06  2.235315E+06 -2.607340E+05 -2.523149E+05 -3.500244E+04
       195  21  1.687008E+06  6.958414E+06  1.672091E+06 -1.406417E+06 -1.606605E+05  9.746485E+04
       195  22  7.230200E+04  3.619631E+05  9.975580E+04 -1.323277E+06 -9.359790E+04 -4.726734E+04
       195  23 -3.135122E+04  2.968350E+05  4.603593E+04 -1.858210E+05 -2.526993E+05 -2.148222E+04
       195  24  5.308425E+04  3.668457E+05  7.333966E+04 -1.322905E+06 -1.591036E+05  6.946736E+03
       195  25 -2.808584E+06 -1.110440E+07 -2.760709E+06 -1.260010E+06 -9.428854E+04  6.866917E+04
       195  26 -2.281208E+06 -8.705880E+06 -2.149134E+06 -1.117841E+05 -2.530841E+05 -8.155277E+03
       195  27 -1.584005E+06 -6.185325E+06 -1.528515E+06 -1.240056E+06 -1.575621E+05 -8.262145E+04
       196   1  6.078339E+05  2.599063E+06  6.191134E+05 -1.361415E+06  6.485955E+04 -5.148406E+04
       196   2 -5.332548E+04  1.610030E+05  4.904046E+04 -1.810822E+05 -3.330150E+03 -1.024292E+05
       196   3 -5.567064E+05 -2.328161E+06 -4.710329E+05 -1.268151E+06 -7.062815E+04 -1.531250E+05
       196   4  4.522793E+04  3.355508E+05  7.098806E+04 -1.321733E+06  6.429601E+04 -2.302477E+04
       196   5 -2.663291E+03  3.638784E+05  9.837393E+04 -1.875343E+05 -3.869271E+03 -7.439527E+04
       196   6  1.076623E+05  3.354545E+05  1.763399E+05 -1.320540E+06 -7.115353E+04 -1.257124E+05
       196   7 -5.177500E+05 -1.923292E+06 -4.775028E+05 -1.282168E+06  6.373498E+04  5.331519E+03
       196   8  4.799640E+04  5.667930E+05  1.477074E+05 -1.939884E+05 -4.408886E+03 -4.635220E+04
       196   9  7.715143E+05  3.005564E+06  8.232024E+05 -1.373115E+06 -7.168236E+04 -9.818118E+04
       196  10  6.078286E+05  2.599059E+06  6.191005E+05 -1.361413E+06 -8.044996E-10 -1.330417E-08
       196  11 -5.332831E+04  1.609917E+05  4.902073E+04 -1.810824E+05  1.164650E-08 -7.504649E-09
       196  12 -5.567181E+05 -2.328188E+06 -4.710866E+05 -1.268160E+06 -1.204996E-08  5.578991E-10
       196  13  4.522335E+04  3.355491E+05  7.097931E+04 -1.321732E+06 -4.676190E-10  9.776132E-12
       196  14 -2.664792E+03  3.638724E+05  9.836351E+04 -1.875346E+05  1.662645E-08  1.016328E-08
       196  15  1.076526E+05  3.354361E+05  1.763006E+05 -1.320547E+06  1.213870E-08 -2.548878E-09
       196  16 -5.177544E+05 -1.923293E+06 -4.775105E+05 -1.282168E+06 -2.096925E-10 -1.557435E-08
       196  17  4.799580E+04  5.667907E+05  1.477033E+05 -1.939886E+05 -8.362333E-09  1.786722E-08
       196  18  7.715062E+05  3.005552E+06  8.231746E+05 -1.373121E+06 -6.122939E-09  1.605062E-08
       196  19  6.078339E+05  2.599063E+06  6.191134E+05 -1.361415E+06 -6.485955E+04  5.148406E+04
       196  20 -5.332548E+04  1.610030E+05  4.904046E+04 -1.810822E+05  3.330150E+03  1.024292E+05
       196  21 -5.567064E+05 -2.328161E+06 -4.710329E+05 -1.268151E+06  7.062815E+04  1.531250E+05
       196  22  4.522793E+04  3.355508E+05  7.098806E+04 -1.321733E+06 -6.429601E+04  2.302477E+04
       196  23 -2.663291E+03  3.638784E+05  9.837393E+04 -1.875343E+05  3.869271E+03  7.439527E+04
       196  24  1.076623E+05  3.354545E+05  1.763399E+05 -1.320540E+06  7.115353E+04  1.257124E+05
       196  25 -5.177500E+05 -1.923292E+06 -4.775028E+05 -1.282168E+06 -6.373498E+04 -5.331519E+03
       196  26  4.799640E+04  5.667930E+05  1.477074E+05 -1.939884E+05  4.408886E+03  4.635220E+04
       196  27  7.715143E+05  3.005564E+06  8.232024E+05 -1.373115E+06  7.168236E+04  9.818118E+04
       197   1 -1.714974E+06 -6.544828E+06 -1.477225E+06 -1.297401E+06 -1.652584E+05 -2.540652E+05
       197   2 -2.474088E+06 -9.166454E+06 -1.977745E+06 -7.617015E+04 -2.608357E+05 -3.223490E+05
       197   3 -2.397090E+06 -1.146158E+07 -2.204212E+06 -1.132894E+06 -9.610905E+04 -3.878751E+05
       197   4  2.049810E+04  4.105451E+05  2.226417E+05 -1.324373E+06 -1.667799E+05 -1.639331E+05
       197   5 -1.218205E+05  2.395219E+05  3.165019E+05 -1.854552E+05 -2.603808E+05 -3.395424E+05
       197   6  5.853994E+05  4.054315E+05  7.562016E+05 -1.322116E+06 -9.540333E+04 -5.127050E+05
       197   7  1.752396E+06  7.410336E+06  1.919013E+06 -1.351407E+06 -1.683003E+05 -7.277711E+04
       197   8  2.223922E+06  9.726974E+06  2.604316E+06 -2.962045E+05 -2.599246E+05 -3.569671E+05
       197   9  3.557360E+06  1.240180E+07  3.706090E+06 -1.514754E+06 -9.463097E+04 -6.398767E+05
       197  10 -1.715021E+06 -6.544905E+06 -1.477399E+06 -1.297435E+06 -5.799280E-09 -1.215370E-08
       197  11 -2.474190E+06 -9.166585E+06 -1.978071E+06 -7.623829E+04  7.204343E-09  1.670361E-09
       197  12 -2.397141E+06 -1.146174E+07 -2.204518E+06 -1.132924E+06  3.611168E-09  1.884100E-09
       197  13  2.046093E+04  4.105087E+05  2.225387E+05 -1.324395E+06 -1.417871E-08 -2.641898E-10
       197  14 -1.219242E+05  2.393799E+05  3.161578E+05 -1.855264E+05  8.245746E-09  5.332122E-09
       197  15  5.853190E+05  4.051470E+05  7.556904E+05 -1.322156E+06  1.243820E-09 -2.302402E-10
       197  16  1.752364E+06  7.410322E+06  1.918950E+06 -1.351417E+06  3.763337E-09 -1.376018E-08
       197  17  2.223816E+06  9.726821E+06  2.603953E+06 -2.962787E+05  3.367796E-09  2.798346E-09
       197  18  3.557243E+06  1.240136E+07  3.705318E+06 -1.514802E+06 -6.190921E-10 -2.653236E-10
       197  19 -1.714974E+06 -6.544828E+06 -1.477225E+06 -1.297401E+06  1.652584E+05  2.540652E+05
       197  20 -2.474088E+06 -9.166454E+06 -1.977745E+06 -7.617015E+04  2.608357E+05  3.223490E+05
       197  21 -2.397090E+06 -1.146158E+07 -2.204212E+06 -1.132894E+06  9.610905E+04  3.878751E+05
       197  22  2.049810E+04  4.105451E+05  2.226417E+05 -1.324373E+06  1.667799E+05  1.639331E+05
       197  23 -1.218205E+05  2.395219E+05  3.165019E+05 -1.854552E+05  2.603808E+05  3.395424E+05
       197  24  5.853994E+05  4.054315E+05  7.562016E+05 -1.322116E+06  9.540333E+04  5.127050E+05
       197  25  1.752396E+06  7.410336E+06  1.919013E+06 -1.351407E+06  1.683003E+05  7.277711E+04
       197  26  2.223922E+06  9.726974E+06  2.604316E+06 -2.962045E+05  2.599246E+05  3.569671E+05
       197  27  3.557360E+06  1.240180E+07  3.706090E+06 -1.514754E+06  9.463097E+04  6.398767E+05
       198   1 -4.892132E+05 -2.160262E+05 -1.067037E+05 -2.181447E+05 -5.350102E+04 -1.706962E+04
       198   2 -4.618917E+05 -1.575028E+05 -6.042890E+04 -2.054151E+05 -3.227892E+04 -2.402436E+03
       198   3 -4.427332E+05 -1.275220E+05 -3.820813E+04 -1.918429E+05 -9.207217E+03  7.343062E+03
       198   4 -3.066257E+05 -1.176312E+05 -5.432378E+04 -1.372722E+05 -3.646682E+04 -1.068015E+04
       198   5 -3.006557E+05 -8.389582E+04 -2.584828E+04 -1.453693E+05 -2.530200E+04  2.145565E+02
       198   6 -3.008529E+05 -7.670720E+04 -1.345196E+04 -1.526255E+05 -1.228887E+04  6.186510E+03
       198   7 -1.240063E+05 -1.922351E+04 -1.946714E+03 -5.637603E+04 -1.942754E+04 -4.286690E+03
       198   8 -1.393929E+05 -1.028242E+04  8.730910E+03 -8.530790E+04 -1.832319E+04  2.832679E+03
       198   9 -1.589502E+05 -2.589007E+04  1.130396E+04 -1.133995E+05 -1.537130E+04  5.029673E+03
       198  10 -4.892164E+05 -2.160273E+05 -1.067096E+05 -2.181455E+05 -1.584939E-09 -2.479135E-10
       198  11 -4.618928E+05 -1.575031E+05 -6.043087E+04 -2.054152E+05  4.692218E-09  3.899460E-09
       198  12 -4.427333E+05 -1.275221E+05 -3.820839E+04 -1.918428E+05 -2.526303E-10  2.462574E-09
       198  13 -3.066272E+05 -1.176317E+05 -5.432649E+04 -1.372725E+05  8.393593E-09  1.357407E-09
       198  14 -3.006563E+05 -8.389599E+04 -2.584948E+04 -1.453693E+05  9.971061E-09  2.500504E-09
       198  15 -3.008531E+05 -7.670728E+04 -1.345231E+04 -1.526254E+05  4.492850E-09  1.663150E-11
       198  16 -1.240067E+05 -1.922363E+04 -1.947458E+03 -5.637610E+04  6.803189E-09  2.739398E-09
       198  17 -1.393933E+05 -1.028252E+04  8.730264E+03 -8.530786E+04  4.211258E-10  1.107083E-09
       198  18 -1.589504E+05 -2.589016E+04  1.130347E+04 -1.133994E+05 -1.148871E-08 -1.725017E-09
       198  19 -4.892132E+05 -2.160262E+05 -1.067037E+05 -2.181447E+05  5.350102E+04  1.706962E+04
       198  20 -4.618917E+05 -1.575028E+05 -6.042890E+04 -2.054151E+05  3.227892E+04  2.402436E+03
       198  21 -4.427332E+05 -1.275220E+05 -3.820813E+04 -1.918429E+05  9.207217E+03 -7.343062E+03
       198  22 -3.066257E+05 -1.176312E+05 -5.432378E+04 -1.372722E+05  3.646682E+04  1.068015E+04
       198  23 -3.006557E+05 -8.389582E+04 -2.584828E+04 -1.453693E+05  2.530200E+04 -2.145565E+02
       198  24 -3.008529E+05 -7.670720E+04 -1.345196E+04 -1.526255E+05  1.228887E+04 -6.186510E+03
       198  25 -1.240063E+05 -1.922351E+04 -1.946714E+03 -5.637603E+04  1.942754E+04  4.286690E+03
       198  26 -1.393929E+05 -1.028242E+04  8.730910E+03 -8.530790E+04  1.832319E+04 -2.832679E+03
       198  27 -1.589502E+05 -2.589007E+04  1.130396E+04 -1.133995E+05  1.537130E+04 -5.029673E+03
       199   1 -4.198103E+05 -1.209149E+05 -3.081795E+04 -1.876608E+05 -7.515371E+03  6.798902E+03
       199   2 -3.906031E+05 -1.045142E+05 -1.991412E+04 -1.764682E+05 -3.172487E+03  6.521921E+03
       199   3 -3.583163E+05 -9.426752E+04 -1.227602E+04 -1.698274E+05  1.369896E+03  5.713441E+03
       199   4 -2.992913E+05 -7.597690E+04 -1.000534E+04 -1.523786E+05 -1.038846E+04  5.720691E+03
       199   5 -3.007428E+05 -7.162520E+04 -5.210652E+03 -1.506206E+05 -7.131479E+03  5.036427E+03
       199   6 -2.988999E+05 -7.321228E+04 -2.820592E+03 -1.534149E+05 -3.675163E+03  3.820627E+03
       199   7 -1.787583E+05 -3.103771E+04  1.080650E+04 -1.170903E+05 -1.326211E+04  4.642251E+03
       199   8 -2.108737E+05 -3.873530E+04  9.492701E+03 -1.247694E+05 -1.109108E+04  3.550695E+03
       199   9 -2.394789E+05 -5.215640E+04  6.635070E+03 -1.370006E+05 -8.720793E+03  1.927605E+03
       199  10 -4.198104E+05 -1.209150E+05 -3.081814E+04 -1.876608E+05 -1.202219E-08 -1.739058E-09
       199  11 -3.906031E+05 -1.045142E+05 -1.991421E+04 -1.764681E+05 -7.232950E-09 -2.138530E-09
       199  12 -3.583163E+05 -9.426756E+04 -1.227608E+04 -1.698274E+05 -1.985352E-09 -5.434330E-10
       199  13 -2.992915E+05 -7.597697E+04 -1.000560E+04 -1.523785E+05  4.484189E-09 -1.203013E-09
       199  14 -3.007428E+05 -7.162524E+04 -5.210795E+03 -1.506205E+05 -5.439511E-10 -1.050083E-09
       199  15 -2.988999E+05 -7.321230E+04 -2.820645E+03 -1.534149E+05  7.923496E-09  1.157560E-09
       199  16 -1.787585E+05 -3.103778E+04  1.080613E+04 -1.170902E+05 -8.377538E-09 -6.665429E-10
       199  17 -2.108738E+05 -3.873535E+04  9.492446E+03 -1.247694E+05 -2.780402E-09  9.643996E-10
       199  18 -2.394790E+05 -5.215643E+04  6.634920E+03 -1.370006E+05  6.513081E-09  2.856298E-09
       199  19 -4.198103E+05 -1.209149E+05 -3.081795E+04 -1.876608E+05  7.515371E+03 -6.798902E+03
       199  20 -3.906031E+05 -1.045142E+05 -1.991412E+04 -1.764682E+05  3.172487E+03 -6.521921E+03
       199  21 -3.583163E+05 -9.426752E+04 -1.227602E+04 -1.698274E+05 -1.369896E+03 -5.713441E+03
       199  22 -2.992913E+05 -7.597690E+04 -1.000534E+04 -1.523786E+05  1.038846E+04 -5.720691E+03
       199  23 -3.007428E+05 -7.162520E+04 -5.210652E+03 -1.506206E+05  7.131479E+03 -5.036427E+03
       199  24 -2.988999E+05 -7.321228E+04 -2.820592E+03 -1.534149E+05  3.675163E+03 -3.820627E+03
       199  25 -1.787583E+05 -3.103771E+04  1.080650E+04 -1.170903E+05  1.326211E+04 -4.642251E+03
       199  26 -2.108737E+05 -3.873530E+04  9.492701E+03 -1.247694E+05  1.109108E+04 -3.550695E+03
       199  27 -2.394789E+05 -5.215640E+04  6.635070E+03 -1.370006E+05  8.720793E+03 -1.927605E+03
       200   1 -3.383604E+05 -8.730565E+04 -8.334862E+03 -1.644332E+05  2.273607E+03  4.394444E+03
       200   2 -3.092459E+05 -7.388096E+04 -2.522116E+03 -1.532508E+05  3.895396E+03  2.166964E+03
       200   3 -2.759881E+05 -6.488343E+04  2.742189E+03 -1.469677E+05  5.538630E+03 -1.177331E+02
       200   4 -2.987491E+05 -7.318015E+04 -2.109584E+03 -1.533758E+05 -2.749268E+03  2.510007E+03
       200   5 -3.008224E+05 -7.091210E+04 -1.144581E+03 -1.509508E+05 -1.244496E+03  2.386479E+02
       200   6 -2.987304E+05 -7.304809E+04 -6.352976E+02 -1.534252E+05  2.816799E+02 -2.089937E+03
       200   7 -2.591360E+05 -5.905446E+04  4.115770E+03 -1.423177E+05 -7.772479E+03  6.254439E+02
       200   8 -2.923989E+05 -6.794324E+04  2.330506E+02 -1.486507E+05 -6.384430E+03 -1.689683E+03
       200   9 -3.214717E+05 -8.121256E+04 -4.012593E+03 -1.598825E+05 -4.975004E+03 -4.062039E+03
       200  10 -3.383604E+05 -8.730568E+04 -8.334908E+03 -1.644332E+05  6.811604E-09  2.111171E-09
       200  11 -3.092459E+05 -7.388097E+04 -2.522154E+03 -1.532509E+05  1.320830E-08  5.278381E-09
       200  12 -2.759882E+05 -6.488344E+04  2.742131E+03 -1.469677E+05  1.019685E-08  4.139466E-09
       200  13 -2.987491E+05 -7.318015E+04 -2.109610E+03 -1.533758E+05  1.209586E-08  2.938175E-09
       200  14 -3.008224E+05 -7.091210E+04 -1.144584E+03 -1.509508E+05  1.220323E-08  3.540592E-09
       200  15 -2.987304E+05 -7.304810E+04 -6.353060E+02 -1.534252E+05  4.753059E-09  8.967642E-11
       200  16 -2.591361E+05 -5.905448E+04  4.115655E+03 -1.423177E+05  1.491410E-08  3.696552E-09
       200  17 -2.923990E+05 -6.794325E+04  2.329686E+02 -1.486507E+05  7.543929E-09  1.524119E-09
       200  18 -3.214717E+05 -8.121259E+04 -4.012670E+03 -1.598825E+05 -8.200318E-09 -4.028221E-09
       200  19 -3.383604E+05 -8.730565E+04 -8.334862E+03 -1.644332E+05 -2.273607E+03 -4.394444E+03
       200  20 -3.092459E+05 -7.388096E+04 -2.522116E+03 -1.532508E+05 -3.895396E+03 -2.166964E+03
       200  21 -2.759881E+05 -6.488343E+04  2.742189E+03 -1.469677E+05 -5.538630E+03  1.177331E+02
       200  22 -2.987491E+05 -7.318015E+04 -2.109584E+03 -1.533758E+05  2.749268E+03 -2.510007E+03
       200  23 -3.008224E+05 -7.091210E+04 -1.144581E+03 -1.509508E+05  1.244496E+03 -2.386479E+02
       200  24 -2.987304E+05 -7.304809E+04 -6.352976E+02 -1.534252E+05 -2.816799E+02  2.089937E+03
       200  25 -2.591360E+05 -5.905446E+04  4.115770E+03 -1.423177E+05  7.772479E+03 -6.254439E+02
       200  26 -2.923989E+05 -6.794324E+04  2.330506E+02 -1.486507E+05  6.384430E+03  1.689683E+03
       200  27 -3.214717E+05 -8.121256E+04 -4.012593E+03 -1.598825E+05  4.975004E+03  4.062039E+03
       201   1 -2.563091E+05 -5.786296E+04  6.049793E+03 -1.414738E+05  6.189894E+03 -1.582926E+03
       201   2 -2.272548E+05 -4.460888E+04  1.096250E+04 -1.302718E+05  7.304257E+03 -4.099622E+03
       201   3 -1.939364E+05 -3.564810E+04  1.576292E+04 -1.239785E+05  8.420426E+03 -6.620773E+03
       201   4 -2.987124E+05 -7.305096E+04 -4.814000E+02 -1.534171E+05  9.355097E+02 -3.554206E+03
       201   5 -3.008460E+05 -7.091003E+04 -2.805216E+02 -1.509608E+05  2.040532E+03 -6.074572E+03
       201   6 -2.987154E+05 -7.306104E+04 -1.848417E+02 -1.534140E+05  3.147349E+03 -8.599389E+03
       201   7 -3.411141E+05 -8.823895E+04 -7.012647E+03 -1.653597E+05 -4.318558E+03 -5.525367E+03
       201   8 -3.744317E+05 -9.721075E+04 -1.152363E+04 -1.716476E+05 -3.222566E+03 -8.049286E+03
       201   9 -4.034826E+05 -1.104728E+05 -1.613265E+04 -1.828448E+05 -2.124790E+03 -1.057765E+04
       201  10 -2.563092E+05 -5.786297E+04  6.049716E+03 -1.414738E+05  1.897206E-08  5.285669E-09
       201  11 -2.272549E+05 -4.460892E+04  1.096237E+04 -1.302718E+05 -9.523166E-11 -5.140874E-09
       201  12 -1.939365E+05 -3.564817E+04  1.576270E+04 -1.239785E+05 -3.076777E-08 -2.130626E-08
       201  13 -2.987124E+05 -7.305098E+04 -4.814254E+02 -1.534171E+05  1.632623E-09  1.045643E-09
       201  14 -3.008460E+05 -7.091007E+04 -2.805988E+02 -1.509608E+05 -1.311552E-09  7.147654E-09
       201  15 -2.987155E+05 -7.306112E+04 -1.849992E+02 -1.534140E+05 -1.204972E-08  7.400224E-09
       201  16 -3.411141E+05 -8.823899E+04 -7.012739E+03 -1.653597E+05 -2.048639E-08 -7.230640E-09
       201  17 -3.744318E+05 -9.721082E+04 -1.152377E+04 -1.716476E+05  5.120538E-09  3.192091E-10
       201  18 -4.034826E+05 -1.104729E+05 -1.613287E+04 -1.828448E+05  1.621515E-08  1.150950E-09
       201  19 -2.563091E+05 -5.786296E+04  6.049793E+03 -1.414738E+05 -6.189894E+03  1.582926E+03
       201  20 -2.272548E+05 -4.460888E+04  1.096250E+04 -1.302718E+05 -7.304257E+03  4.099622E+03
       201  21 -1.939364E+05 -3.564810E+04  1.576292E+04 -1.239785E+05 -8.420426E+03  6.620773E+03
       201  22 -2.987124E+05 -7.305096E+04 -4.814000E+02 -1.534171E+05 -9.355097E+02  3.554206E+03
       201  23 -3.008460E+05 -7.091003E+04 -2.805216E+02 -1.509608E+05 -2.040532E+03  6.074572E+03
       201  24 -2.987154E+05 -7.306104E+04 -1.848417E+02 -1.534140E+05 -3.147349E+03  8.599389E+03
       201  25 -3.411141E+05 -8.823895E+04 -7.012647E+03 -1.653597E+05  4.318558E+03  5.525367E+03
       201  26 -3.744317E+05 -9.721075E+04 -1.152363E+04 -1.716476E+05  3.222566E+03  8.049286E+03
       201  27 -4.034826E+05 -1.104728E+05 -1.613265E+04 -1.828448E+05  2.124790E+03  1.057765E+04
       202   1 -1.742963E+05 -2.861739E+04  1.893009E+04 -1.184771E+05  9.012803E+03 -8.111753E+03
       202   2 -1.452679E+05 -1.536618E+04  2.363743E+04 -1.072739E+05  1.003358E+04 -1.066366E+04
       202   3 -1.119613E+05 -6.395465E+03  2.830481E+04 -1.009748E+05  1.104981E+04 -1.320272E+04
       202   4 -2.987155E+05 -7.306302E+04 -1.638432E+02 -1.534122E+05  3.740052E+03 -1.009038E+04
       202   5 -3.008536E+05 -7.092518E+04 -1.630955E+02 -1.509587E+05  4.786834E+03 -1.263284E+04
       202   6 -2.987194E+05 -7.307296E+04 -2.228786E+02 -1.534096E+05  5.829069E+03 -1.516248E+04
       202   7 -4.231165E+05 -1.175064E+05 -1.925747E+04 -1.883403E+05 -1.531520E+03 -1.206857E+04
       202   8 -4.564131E+05 -1.264816E+05 -2.396385E+04 -1.946332E+05 -4.585247E+02 -1.460150E+04
       202   9 -4.854421E+05 -1.397476E+05 -2.875156E+04 -2.058301E+05  6.099249E+02 -1.712163E+04
       202  10 -1.742964E+05 -2.861748E+04  1.892981E+04 -1.184771E+05  1.815682E-08 -1.230939E-09
       202  11 -1.452681E+05 -1.536633E+04  2.363703E+04 -1.072738E+05  9.968220E-09  8.974342E-10
       202  12 -1.119614E+05 -6.395685E+03  2.830425E+04 -1.009747E+05 -2.032076E-08 -6.611572E-09
       202  13 -2.987156E+05 -7.306313E+04 -1.640608E+02 -1.534122E+05 -1.549175E-08  7.814758E-09
       202  14 -3.008537E+05 -7.092536E+04 -1.634384E+02 -1.509586E+05  4.088450E-09  8.134020E-09
       202  15 -2.987195E+05 -7.307322E+04 -2.233744E+02 -1.534095E+05  1.002753E-09  2.291727E-09
       202  16 -4.231166E+05 -1.175066E+05 -1.925775E+04 -1.883403E+05 -3.313506E-08 -1.833096E-08
       202  17 -4.564131E+05 -1.264818E+05 -2.396425E+04 -1.946332E+05 -4.444526E-10 -3.894131E-09
       202  18 -4.854421E+05 -1.397479E+05 -2.875211E+04 -2.058301E+05  2.482178E-08  6.732825E-09
       202  19 -1.742963E+05 -2.861739E+04  1.893009E+04 -1.184771E+05 -9.012803E+03  8.111753E+03
       202  20 -1.452679E+05 -1.536618E+04  2.363743E+04 -1.072739E+05 -1.003358E+04  1.066366E+04
       202  21 -1.119613E+05 -6.395465E+03  2.830481E+04 -1.009748E+05 -1.104981E+04  1.320272E+04
       202  22 -2.987155E+05 -7.306302E+04 -1.638432E+02 -1.534122E+05 -3.740052E+03  1.009038E+04
       202  23 -3.008536E+05 -7.092518E+04 -1.630955E+02 -1.509587E+05 -4.786834E+03  1.263284E+04
       202  24 -2.987194E+05 -7.307296E+04 -2.228786E+02 -1.534096E+05 -5.829069E+03  1.516248E+04
       202  25 -4.231165E+05 -1.175064E+05 -1.925747E+04 -1.883403E+05  1.531520E+03  1.206857E+04
       202  26 -4.564131E+05 -1.264816E+05 -2.396385E+04 -1.946332E+05  4.585247E+02  1.460150E+04
       202  27 -4.854421E+05 -1.397476E+05 -2.875156E+04 -2.058301E+05 -6.099249E+02  1.712163E+04
       203   1 -9.233369E+04  6.367105E+02  3.140965E+04 -9.547884E+04  1.165475E+04 -1.467685E+04
       203   2 -6.333928E+04  1.389516E+04  3.602292E+04 -8.427712E+04  1.258575E+04 -1.717439E+04
       203   3 -3.006690E+04  2.287917E+04  4.064109E+04 -7.796350E+04  1.347223E+04 -1.955228E+04
       203   4 -2.987300E+05 -7.307314E+04 -2.786760E+02 -1.534100E+05  6.430156E+03 -1.663829E+04
       203   5 -3.008523E+05 -7.094544E+04 -4.771868E+02 -1.509544E+05  7.605525E+03 -1.904460E+04
       203   6 -2.987458E+05 -7.314084E+04 -8.644320E+02 -1.533874E+05  8.736357E+03 -2.133121E+04
       203   7 -5.050801E+05 -1.467784E+05 -3.196748E+04 -2.113230E+05  1.207398E+03 -1.859905E+04
       203   8 -5.383027E+05 -1.557795E+05 -3.697760E+04 -2.176071E+05  2.627342E+03 -2.091403E+04
       203   9 -5.673434E+05 -1.691520E+05 -4.237005E+04 -2.287796E+05  4.002707E+03 -2.310931E+04
       203  10 -9.233390E+04  6.364428E+02  3.140899E+04 -9.547871E+04  1.228294E-09 -1.405859E-09
       203  11 -6.333953E+04  1.389480E+04  3.602207E+04 -8.427695E+04  1.691209E-09 -3.197501E-09
       203  12 -3.006720E+04  2.287871E+04  4.064003E+04 -7.796329E+04  3.809697E-09 -3.374034E-09
       203  13 -2.987301E+05 -7.307345E+04 -2.792739E+02 -1.534099E+05 -5.771547E-11 -6.698833E-10
       203  14 -3.008524E+05 -7.094585E+04 -4.779770E+02 -1.509542E+05 -2.608324E-09 -2.587006E-09
       203  15 -2.987460E+05 -7.314135E+04 -8.654303E+02 -1.533872E+05 -2.048387E-09 -4.144147E-09
       203  16 -5.050802E+05 -1.467788E+05 -3.196813E+04 -2.113230E+05  3.151743E-09 -7.744573E-10
       203  17 -5.383028E+05 -1.557800E+05 -3.697844E+04 -2.176071E+05 -1.580877E-09 -2.479085E-09
       203  18 -5.673435E+05 -1.691525E+05 -4.237108E+04 -2.287795E+05 -3.963924E-09 -3.630071E-09
       203  19 -9.233369E+04  6.367105E+02  3.140965E+04 -9.547884E+04 -1.165475E+04  1.467685E+04
       203  20 -6.333928E+04  1.389516E+04  3.602292E+04 -8.427712E+04 -1.258575E+04  1.717439E+04
       203  21 -3.006690E+04  2.287917E+04  4.064109E+04 -7.796350E+04 -1.347223E+04  1.955228E+04
       203  22 -2.987300E+05 -7.307314E+04 -2.786760E+02 -1.534100E+05 -6.430156E+03  1.663829E+04
       203  23 -3.008523E+05 -7.094544E+04 -4.771868E+02 -1.509544E+05 -7.605525E+03  1.904460E+04
       203  24 -2.987458E+05 -7.314084E+04 -8.644320E+02 -1.533874E+05 -8.736357E+03  2.133121E+04
       203  25 -5.050801E+05 -1.467784E+05 -3.196748E+04 -2.113230E+05 -1.207398E+03  1.859905E+04
       203  26 -5.383027E+05 -1.557795E+05 -3.697760E+04 -2.176071E+05 -2.627342E+03  2.091403E+04
       203  27 -5.673434E+05 -1.691520E+05 -4.237005E+04 -2.287796E+05 -4.002707E+03  2.310931E+04
       204   1 -1.041109E+04  2.990459E+04  4.367081E+04 -7.251559E+04  1.419736E+04 -2.087265E+04
       204   2  1.826076E+04  4.329040E+04  4.852986E+04 -6.103525E+04  1.368816E+04 -2.310300E+04
       204   3  5.120908E+04  5.223093E+04  5.419722E+04 -5.423982E+04  1.276566E+04 -2.423205E+04
       204   4 -2.988178E+05 -7.314517E+04 -1.151084E+03 -1.533883E+05  9.416490E+03 -2.266878E+04
       204   5 -3.008164E+05 -7.126768E+04 -2.121647E+03 -1.508337E+05  1.115898E+04 -2.405425E+04
       204   6 -2.989862E+05 -7.428238E+04 -4.068419E+03 -1.529649E+05  1.248814E+04 -2.433804E+04
       204   7 -5.871383E+05 -1.761876E+05 -4.597521E+04 -2.342267E+05  4.637910E+03 -2.446406E+04
       204   8 -6.197862E+05 -1.858158E+05 -5.277559E+04 -2.405893E+05  8.631154E+03 -2.500499E+04
       204   9 -6.490508E+05 -2.007831E+05 -6.233709E+04 -2.516378E+05  1.221079E+04 -2.444396E+04
       204  10 -1.041143E+04  2.990407E+04  4.366961E+04 -7.251536E+04 -3.581408E-08 -1.967269E-08
       204  11  1.826042E+04  4.328977E+04  4.852851E+04 -6.103500E+04  3.953318E-09 -8.634336E-09
       204  12  5.120874E+04  5.223025E+04  5.419581E+04 -5.423957E+04  2.692663E-08  1.438646E-09
       204  13 -2.988180E+05 -7.314574E+04 -1.152216E+03 -1.533882E+05  8.534382E-10 -1.951329E-09
       204  14 -3.008167E+05 -7.126834E+04 -2.122968E+03 -1.508335E+05 -7.533127E-09  4.948637E-09
       204  15 -2.989866E+05 -7.428306E+04 -4.069825E+03 -1.529647E+05 -1.371351E-08  7.962606E-09
       204  16 -5.871385E+05 -1.761882E+05 -4.597638E+04 -2.342266E+05  4.260130E-08  1.333801E-08
       204  17 -6.197864E+05 -1.858165E+05 -5.277691E+04 -2.405891E+05  8.512953E-09 -1.185242E-09
       204  18 -6.490511E+05 -2.007837E+05 -6.233849E+04 -2.516376E+05 -3.592437E-08 -1.922731E-08
       204  19 -1.041109E+04  2.990459E+04  4.367081E+04 -7.251559E+04 -1.419736E+04  2.087265E+04
       204  20  1.826076E+04  4.329040E+04  4.852986E+04 -6.103525E+04 -1.368816E+04  2.310300E+04
       204  21  5.120908E+04  5.223093E+04  5.419722E+04 -5.423982E+04 -1.276566E+04  2.423205E+04
       204  22 -2.988178E+05 -7.314517E+04 -1.151084E+03 -1.533883E+05 -9.416490E+03  2.266878E+04
       204  23 -3.008164E+05 -7.126768E+04 -2.121647E+03 -1.508337E+05 -1.115898E+04  2.405425E+04
       204  24 -2.989862E+05 -7.428238E+04 -4.068419E+03 -1.529649E+05 -1.248814E+04  2.433804E+04
       204  25 -5.871383E+05 -1.761876E+05 -4.597521E+04 -2.342267E+05 -4.637910E+03  2.446406E+04
       204  26 -6.197862E+05 -1.858158E+05 -5.277559E+04 -2.405893E+05 -8.631154E+03  2.500499E+04
       204  27 -6.490508E+05 -2.007831E+05 -6.233709E+04 -2.516378E+05 -1.221079E+04  2.444396E+04
       205   1  7.131087E+04  5.898850E+04  5.759047E+04 -4.929998E+04  1.400891E+04 -2.436426E+04
       205   2  9.539095E+04  7.395711E+04  6.785916E+04 -3.251045E+04 -3.183774E+03 -2.540048E+04
       205   3  1.231594E+05  8.023424E+04  8.811439E+04 -1.771867E+04 -2.420870E+04 -1.624485E+04
       205   4 -2.997185E+05 -7.448628E+04 -5.468377E+03 -1.529547E+05  1.330029E+04 -2.463228E+04
       205   5 -3.006766E+05 -7.638563E+04 -1.050856E+04 -1.488370E+05  1.695382E+04 -1.783717E+04
       205   6 -3.020786E+05 -9.110943E+04 -2.208172E+04 -1.467176E+05  1.677508E+04 -8.462757E+02
       205   7 -6.706007E+05 -2.079472E+05 -6.853072E+04 -2.565513E+05  1.259212E+04 -2.490013E+04
       205   8 -6.965732E+05 -2.267077E+05 -8.887987E+04 -2.650911E+05  3.707731E+04 -1.027965E+04
       205   9 -7.271218E+05 -2.624264E+05 -1.322819E+05 -2.756286E+05  5.772685E+04  1.453824E+04
       205  10  7.131050E+04  5.898781E+04  5.758898E+04 -4.929970E+04  2.852339E-08  3.620127E-09
       205  11  9.539076E+04  7.395642E+04  6.785793E+04 -3.251052E+04 -1.920382E-09 -1.833154E-09
       205  12  1.231587E+05  8.023379E+04  8.811279E+04 -1.771898E+04 -2.685254E-08 -9.769109E-09
       205  13 -2.997189E+05 -7.448698E+04 -5.469849E+03 -1.529544E+05 -1.675794E-08  7.235167E-09
       205  14 -3.006769E+05 -7.638605E+04 -1.050970E+04 -1.488367E+05 -1.025530E-08  4.440013E-09
       205  15 -3.020790E+05 -9.110950E+04 -2.208225E+04 -1.467176E+05 -1.083437E-09  2.165009E-09
       205  16 -6.706011E+05 -2.079479E+05 -6.853218E+04 -2.565510E+05 -4.582063E-08 -2.351247E-08
       205  17 -6.965747E+05 -2.267082E+05 -8.888265E+04 -2.650908E+05 -6.328329E-09 -7.913657E-09
       205  18 -7.271255E+05 -2.624275E+05 -1.322886E+05 -2.756292E+05  2.490714E-08  7.451118E-09
       205  19  7.131087E+04  5.898850E+04  5.759047E+04 -4.929998E+04 -1.400891E+04  2.436426E+04
       205  20  9.539095E+04  7.395711E+04  6.785916E+04 -3.251045E+04  3.183774E+03  2.540048E+04
       205  21  1.231594E+05  8.023424E+04  8.811439E+04 -1.771867E+04  2.420870E+04  1.624485E+04
       205  22 -2.997185E+05 -7.448628E+04 -5.468377E+03 -1.529547E+05 -1.330029E+04  2.463228E+04
       205  23 -3.006766E+05 -7.638563E+04 -1.050856E+04 -1.488370E+05 -1.695382E+04  1.783717E+04
       205  24 -3.020786E+05 -9.110943E+04 -2.208172E+04 -1.467176E+05 -1.677508E+04  8.462757E+02
       205  25 -6.706007E+05 -2.079472E+05 -6.853072E+04 -2.565513E+05 -1.259212E+04  2.490013E+04
       205  26 -6.965732E+05 -2.267077E+05 -8.887987E+04 -2.650911E+05 -3.707731E+04  1.027965E+04
       205  27 -7.271218E+05 -2.624264E+05 -1.322819E+05 -2.756286E+05 -5.772685E+04 -1.453824E+04
       206   1 -2.209336E+05 -3.986704E+04 -6.560203E+04 -1.883370E+04 -7.762490E+04 -1.853468E+03
       206   2 -2.148855E+05  6.470745E+04 -3.044324E+03 -6.154102E+03 -5.174966E+04 -5.433378E+03
       206   3 -2.418156E+05  5.065813E+04  1.302356E+04  1.605517E+04 -2.587852E+04 -4.964618E+03
       206   4 -4.280594E+05 -9.153195E+04 -1.169163E+05  5.228619E+03 -7.989887E+04 -1.858105E+03
       206   5 -4.114125E+05  1.585957E+04 -5.075899E+04  4.285114E+02 -5.238090E+04 -5.434575E+03
       206   6 -4.280406E+05  4.320622E+03 -3.224377E+04  5.158367E+03 -2.486653E+04 -4.963268E+03
       206   7 -6.351449E+05 -1.431979E+05 -1.682335E+05  2.928290E+04 -8.217207E+04 -1.862920E+03
       206   8 -6.079041E+05 -3.299097E+04 -9.847643E+04  7.009027E+03 -5.301194E+04 -5.435787E+03
       206   9 -6.142338E+05 -4.201900E+04 -7.751356E+04 -5.735167E+03 -2.385484E+04 -4.961955E+03
       206  10 -2.209401E+05 -3.986866E+04 -6.561336E+04 -1.883382E+04  5.905651E-10  2.927939E-10
       206  11 -2.148884E+05  6.470670E+04 -3.049413E+03 -6.154329E+03  1.989755E-09 -3.985954E-10
       206  12 -2.418163E+05  5.065792E+04  1.302226E+04  1.605507E+04 -1.128313E-09 -1.735234E-09
       206  13 -4.280663E+05 -9.153367E+04 -1.169283E+05  5.228499E+03 -1.572977E-10  1.192600E-09
       206  14 -4.114154E+05  1.585881E+04 -5.076421E+04  4.282821E+02 -1.299851E-09  4.283355E-10
       206  15 -4.280413E+05  4.320429E+03 -3.224498E+04  5.158268E+03  4.356173E-10  5.227501E-10
       206  16 -6.351522E+05 -1.431997E+05 -1.682462E+05  2.928277E+04 -2.044455E-09  7.784445E-10
       206  17 -6.079071E+05 -3.299176E+04 -9.848177E+04  7.008795E+03 -2.802255E-09 -1.093201E-09
       206  18 -6.142344E+05 -4.201918E+04 -7.751467E+04 -5.735263E+03 -8.367832E-10 -2.153632E-09
       206  19 -2.209336E+05 -3.986704E+04 -6.560203E+04 -1.883370E+04  7.762490E+04  1.853468E+03
       206  20 -2.148855E+05  6.470745E+04 -3.044324E+03 -6.154102E+03  5.174966E+04  5.433378E+03
       206  21 -2.418156E+05  5.065813E+04  1.302356E+04  1.605517E+04  2.587852E+04  4.964618E+03
       206  22 -4.280594E+05 -9.153195E+04 -1.169163E+05  5.228619E+03  7.989887E+04  1.858105E+03
       206  23 -4.114125E+05  1.585957E+04 -5.075899E+04  4.285114E+02  5.238090E+04  5.434575E+03
       206  24 -4.280406E+05  4.320622E+03 -3.224377E+04  5.158367E+03  2.486653E+04  4.963268E+03
       206  25 -6.351449E+05 -1.431979E+05 -1.682335E+05  2.928290E+04  8.217207E+04  1.862920E+03
       206  26 -6.079041E+05 -3.299097E+04 -9.847643E+04  7.009027E+03  5.301194E+04  5.435787E+03
       206  27 -6.142338E+05 -4.201900E+04 -7.751356E+04 -5.735167E+03  2.385484E+04  4.961955E+03
       207   1 -2.539641E+05  3.076316E+04  1.439787E+04  2.755012E+03 -1.969215E+04 -4.132966E+03
       207   2 -2.625745E+05  4.092995E+04  2.494208E+04 -2.243165E+02 -1.303765E+04 -4.098341E+03
       207   3 -2.756002E+05  3.685208E+04  2.759456E+04  6.765660E+03 -6.383700E+03 -3.676793E+03
       207   4 -4.216365E+05 -1.094516E+04 -2.644239E+04  5.288382E+03 -1.975619E+04 -4.133191E+03
       207   5 -4.194129E+05  1.924487E+03 -1.319738E+04  2.973791E+02 -1.294554E+04 -4.098314E+03
       207   6 -4.216328E+05  5.203438E+02 -7.954084E+03  5.275845E+03 -6.135315E+03 -3.676514E+03
       207   7 -5.892831E+05 -5.265552E+04 -6.728470E+04  7.821059E+03 -1.982021E+04 -4.133416E+03
       207   8 -5.762288E+05 -3.708279E+04 -5.133863E+04  8.189359E+02 -1.285345E+04 -4.098286E+03
       207   9 -5.676461E+05 -3.581296E+04 -4.350427E+04  3.786376E+03 -5.886987E+03 -3.676235E+03
       207  10 -2.539645E+05  3.076304E+04  1.439711E+04  2.754946E+03 -4.608020E-09 -2.717417E-09
       207  11 -2.625747E+05  4.092989E+04  2.494173E+04 -2.243596E+02 -6.736817E-10  7.501510E-10
       207  12 -2.756002E+05  3.685206E+04  2.759445E+04  6.765641E+03  5.974093E-10  3.090723E-10
       207  13 -4.216369E+05 -1.094528E+04 -2.644316E+04  5.288316E+03  2.170821E-09 -1.919575E-09
       207  14 -4.194131E+05  1.924424E+03 -1.319773E+04  2.973364E+02 -4.624661E-09 -9.908706E-10
       207  15 -4.216329E+05  5.203192E+02 -7.954180E+03  5.275827E+03 -7.598294E-10 -1.427263E-09
       207  16 -5.892836E+05 -5.265565E+04 -6.728547E+04  7.820993E+03  5.107378E-09 -5.104447E-10
       207  17 -5.762290E+05 -3.708285E+04 -5.133897E+04  8.188935E+02 -4.052668E-09 -6.898299E-10
       207  18 -5.676461E+05 -3.581298E+04 -4.350436E+04  3.786359E+03 -4.064125E-09  2.670597E-10
       207  19 -2.539641E+05  3.076316E+04  1.439787E+04  2.755012E+03  1.969215E+04  4.132966E+03
       207  20 -2.625745E+05  4.092995E+04  2.494208E+04 -2.243165E+02  1.303765E+04  4.098341E+03
       207  21 -2.756002E+05  3.685208E+04  2.759456E+04  6.765660E+03  6.383700E+03  3.676793E+03
       207  22 -4.216365E+05 -1.094516E+04 -2.644239E+04  5.288382E+03  1.975619E+04  4.133191E+03
       207  23 -4.194129E+05  1.924487E+03 -1.319738E+04  2.973791E+02  1.294554E+04  4.098314E+03
       207  24 -4.216328E+05  5.203438E+02 -7.954084E+03  5.275845E+03  6.135315E+03  3.676514E+03
       207  25 -5.892831E+05 -5.265552E+04 -6.728470E+04  7.821059E+03  1.982021E+04  4.133416E+03
       207  26 -5.762288E+05 -3.708279E+04 -5.133863E+04  8.189359E+02  1.285345E+04  4.098286E+03
       207  27 -5.676461E+05 -3.581296E+04 -4.350427E+04  3.786376E+03  5.886987E+03  3.676235E+03
       208   1 -2.939852E+05  3.024922E+04  2.454072E+04  5.217576E+03 -5.018421E+03 -3.379284E+03
       208   2 -3.048045E+05  2.900162E+04  2.473752E+04  2.922079E+02 -3.324721E+03 -2.996965E+03
       208   3 -3.162777E+05  2.607606E+04  2.340883E+04  5.640719E+03 -1.631224E+03 -2.573582E+03
       208   4 -4.207904E+05 -1.284650E+03 -6.277101E+03  5.348937E+03 -4.871138E+03 -3.379132E+03
       208   5 -4.204614E+05  2.348145E+02 -3.393443E+03  2.110005E+02 -3.161005E+03 -2.996767E+03
       208   6 -4.207894E+05  7.327269E+01 -2.046905E+03  5.347066E+03 -1.451044E+03 -2.573335E+03
       208   7 -5.475808E+05 -3.281971E+04 -3.709608E+04  5.480266E+03 -4.723885E+03 -3.378979E+03
       208   8 -5.361060E+05 -2.853298E+04 -3.152537E+04  1.298038E+02 -2.997318E+03 -2.996568E+03
       208   9 -5.252912E+05 -2.593032E+04 -2.750344E+04  5.053460E+03 -1.270894E+03 -2.573088E+03
       208  10 -2.939852E+05  3.024920E+04  2.454065E+04  5.217562E+03  1.648465E-09  2.160623E-09
       208  11 -3.048045E+05  2.900161E+04  2.473748E+04  2.921998E+02  5.604480E-09  2.809895E-09
       208  12 -3.162778E+05  2.607605E+04  2.340882E+04  5.640715E+03  2.698394E-09  6.674307E-10
       208  13 -4.207904E+05 -1.284668E+03 -6.277167E+03  5.348923E+03 -4.024611E-09 -1.372124E-09
       208  14 -4.204614E+05  2.348022E+02 -3.393479E+03  2.109928E+02 -2.541760E-09  3.556808E-09
       208  15 -4.207895E+05  7.326501E+01 -2.046922E+03  5.347063E+03 -1.432853E-09  4.519323E-09
       208  16 -5.475809E+05 -3.281972E+04 -3.709615E+04  5.480253E+03 -6.302147E-10  1.865241E-09
       208  17 -5.361060E+05 -2.853299E+04 -3.152540E+04  1.297966E+02 -1.621856E-09  3.048805E-09
       208  18 -5.252912E+05 -2.593033E+04 -2.750345E+04  5.053457E+03 -2.862905E-09  2.743492E-09
       208  19 -2.939852E+05  3.024922E+04  2.454072E+04  5.217576E+03  5.018421E+03  3.379284E+03
       208  20 -3.048045E+05  2.900162E+04  2.473752E+04  2.922079E+02  3.324721E+03  2.996965E+03
       208  21 -3.162777E+05  2.607606E+04  2.340883E+04  5.640719E+03  1.631224E+03  2.573582E+03
       208  22 -4.207904E+05 -1.284650E+03 -6.277101E+03  5.348937E+03  4.871138E+03  3.379132E+03
       208  23 -4.204614E+05  2.348145E+02 -3.393443E+03  2.110005E+02  3.161005E+03  2.996767E+03
       208  24 -4.207894E+05  7.327269E+01 -2.046905E+03  5.347066E+03  1.451044E+03  2.573335E+03
       208  25 -5.475808E+05 -3.281971E+04 -3.709608E+04  5.480266E+03  4.723885E+03  3.378979E+03
       208  26 -5.361060E+05 -2.853298E+04 -3.152537E+04  1.298038E+02  2.997318E+03  2.996568E+03
       208  27 -5.252912E+05 -2.593032E+04 -2.750344E+04  5.053460E+03  1.270894E+03  2.573088E+03
       209   1 -3.358856E+05  2.094937E+04  1.896258E+04  5.475164E+03 -1.292274E+03 -2.321459E+03
       209   2 -3.471894E+05  1.829323E+04  1.681931E+04  2.422371E+02 -7.788124E+02 -1.899062E+03
       209   3 -3.586403E+05  1.544743E+04  1.428726E+04  5.495097E+03 -2.654563E+02 -1.470051E+03
       209   4 -4.206752E+05 -1.337567E+02 -1.627584E+03  5.394920E+03 -1.121582E+03 -2.321213E+03
       209   5 -4.206011E+05  3.317426E+01 -1.037325E+03  1.518751E+02 -6.054868E+02 -1.898796E+03
       209   6 -4.206749E+05  9.919784E+00 -8.377512E+02  5.394694E+03 -8.948841E+01 -1.469766E+03
       209   7 -5.054583E+05 -2.121741E+04 -2.221827E+04  5.314685E+03 -9.509122E+02 -2.320966E+03
       209   8 -4.940080E+05 -1.822728E+04 -1.889435E+04  6.152190E+01 -4.321817E+02 -1.898531E+03
       209   9 -4.827061E+05 -1.542787E+04 -1.596305E+04  5.294300E+03  8.646191E+01 -1.469480E+03
       209  10 -3.358856E+05  2.094936E+04  1.896257E+04  5.475161E+03  1.845667E-09  1.224455E-10
       209  11 -3.471894E+05  1.829323E+04  1.681931E+04  2.422359E+02  1.795557E-09  3.770984E-09
       209  12 -3.586403E+05  1.544742E+04  1.428726E+04  5.495096E+03  9.232344E-10  2.236086E-09
       209  13 -4.206752E+05 -1.337628E+02 -1.627597E+03  5.394918E+03 -2.184546E-09  1.794470E-09
       209  14 -4.206011E+05  3.317029E+01 -1.037332E+03  1.518742E+02 -7.373999E-10  4.272987E-09
       209  15 -4.206749E+05  9.917463E+00 -8.377553E+02  5.394694E+03  8.975552E-10  1.532591E-09
       209  16 -5.054583E+05 -2.121742E+04 -2.221828E+04  5.314683E+03 -2.463693E-09  1.597501E-09
       209  17 -4.940080E+05 -1.822729E+04 -1.889436E+04  6.152124E+01 -3.529241E-09 -7.704210E-10
       209  18 -4.827061E+05 -1.542787E+04 -1.596305E+04  5.294300E+03 -1.893008E-09 -1.426284E-09
       209  19 -3.358856E+05  2.094937E+04  1.896258E+04  5.475164E+03  1.292274E+03  2.321459E+03
       209  20 -3.471894E+05  1.829323E+04  1.681931E+04  2.422371E+02  7.788124E+02  1.899062E+03
       209  21 -3.586403E+05  1.544743E+04  1.428726E+04  5.495097E+03  2.654563E+02  1.470051E+03
       209  22 -4.206752E+05 -1.337567E+02 -1.627584E+03  5.394920E+03  1.121582E+03  2.321213E+03
       209  23 -4.206011E+05  3.317426E+01 -1.037325E+03  1.518751E+02  6.054868E+02  1.898796E+03
       209  24 -4.206749E+05  9.919784E+00 -8.377512E+02  5.394694E+03  8.948841E+01  1.469766E+03
       209  25 -5.054583E+05 -2.121741E+04 -2.221827E+04  5.314685E+03  9.509122E+02  2.320966E+03
       209  26 -4.940080E+05 -1.822728E+04 -1.889435E+04  6.152190E+01  4.321817E+02  1.898531E+03
       209  27 -4.827061E+05 -1.542787E+04 -1.596305E+04  5.294300E+03 -8.646191E+01  1.469480E+03
       210   1 -3.786775E+05  1.044745E+04  9.347874E+03  5.453656E+03 -1.147942E+02 -1.218708E+03
       210   2 -3.901041E+05  7.618232E+03  6.412175E+03  1.568431E+02  3.855005E+02 -7.874681E+02
       210   3 -4.016847E+05  4.609577E+03  3.096477E+03  5.464705E+03  8.857604E+02 -3.563082E+02
       210   4 -4.206757E+05  7.981289E+00 -8.326487E+02  5.421106E+03  6.073831E+01 -1.218415E+03
       210   5 -4.205987E+05  3.295259E+01 -1.005568E+03  1.188649E+02  5.609774E+02 -7.871695E+02
       210   6 -4.206757E+05 -1.214529E+02 -1.558404E+03  5.421331E+03  1.061191E+03 -3.560032E+02
       210   7 -4.626722E+05 -1.043162E+04 -1.101330E+04  5.388557E+03  2.362589E+02 -1.218123E+03
       210   8 -4.510925E+05 -7.552395E+03 -8.423377E+03  8.088815E+01  7.364456E+02 -7.868709E+02
       210   9 -4.396663E+05 -4.852510E+03 -6.213311E+03  5.377959E+03  1.236616E+03 -3.556982E+02
       210  10 -3.786775E+05  1.044745E+04  9.347872E+03  5.453656E+03  2.065420E-09  4.816849E-10
       210  11 -3.901041E+05  7.618231E+03  6.412174E+03  1.568434E+02  1.259827E-09  5.420181E-10
       210  12 -4.016847E+05  4.609577E+03  3.096476E+03  5.464705E+03 -2.317077E-09 -2.999285E-09
       210  13 -4.206757E+05  7.979694E+00 -8.326515E+02  5.421106E+03  1.823238E-09  6.324345E-09
       210  14 -4.205987E+05  3.295184E+01 -1.005569E+03  1.188652E+02  1.544250E-09  1.465937E-09
       210  15 -4.206757E+05 -1.214533E+02 -1.558406E+03  5.421332E+03 -4.497183E-09 -3.563016E-09
       210  16 -4.626722E+05 -1.043162E+04 -1.101330E+04  5.388557E+03 -6.861879E-10  1.066482E-09
       210  17 -4.510925E+05 -7.552396E+03 -8.423379E+03  8.088862E+01 -1.142273E-09 -2.774759E-09
       210  18 -4.396663E+05 -4.852510E+03 -6.213314E+03  5.377959E+03  1.461759E-09 -3.705111E-09
       210  19 -3.786775E+05  1.044745E+04  9.347874E+03  5.453656E+03  1.147942E+02  1.218708E+03
       210  20 -3.901041E+05  7.618232E+03  6.412175E+03  1.568431E+02 -3.855005E+02  7.874681E+02
       210  21 -4.016847E+05  4.609577E+03  3.096477E+03  5.464705E+03 -8.857604E+02  3.563082E+02
       210  22 -4.206757E+05  7.981289E+00 -8.326487E+02  5.421106E+03 -6.073831E+01  1.218415E+03
       210  23 -4.205987E+05  3.295259E+01 -1.005568E+03  1.188649E+02 -5.609774E+02  7.871695E+02
       210  24 -4.206757E+05 -1.214529E+02 -1.558404E+03  5.421331E+03 -1.061191E+03  3.560032E+02
       210  25 -4.626722E+05 -1.043162E+04 -1.101330E+04  5.388557E+03 -2.362589E+02  1.218123E+03
       210  26 -4.510925E+05 -7.552395E+03 -8.423377E+03  8.088815E+01 -7.364456E+02  7.868709E+02
       210  27 -4.396663E+05 -4.852510E+03 -6.213311E+03  5.377959E+03 -1.236616E+03  3.556982E+02
       211   1 -4.219619E+05 -2.265058E+02 -2.276592E+03  5.258858E+03  1.195713E+03 -1.008599E+02
       211   2 -4.331599E+05 -2.932664E+03 -6.317514E+03  1.378625E+02  2.830894E+03  3.347094E+02
       211   3 -4.450146E+05 -7.230996E+03 -1.183126E+04  5.642499E+03  4.466091E+03  7.501079E+02
       211   4 -4.207870E+05  7.356233E+01 -1.955224E+03  5.425099E+03  1.376297E+03 -1.005441E+02
       211   5 -4.204596E+05  2.262581E+02 -3.228555E+03  1.133988E+02  3.003283E+03  3.350076E+02
       211   6 -4.207876E+05 -1.211759E+03 -5.968963E+03  5.427320E+03  4.630315E+03  7.503880E+02
       211   7 -4.196120E+05  3.736305E+02 -1.633857E+03  5.591340E+03  1.556882E+03 -1.002282E+02
       211   8 -4.077591E+05  3.385168E+03 -1.396084E+02  8.893451E+01  3.175676E+03  3.353057E+02
       211   9 -3.965601E+05  4.807435E+03 -1.067135E+02  5.212133E+03  4.794545E+03  7.506680E+02
       211  10 -4.219619E+05 -2.265062E+02 -2.276595E+03  5.258858E+03 -6.948996E-09  6.019717E-10
       211  11 -4.331599E+05 -2.932666E+03 -6.317529E+03  1.378617E+02 -4.158737E-09  5.229500E-10
       211  12 -4.450146E+05 -7.231002E+03 -1.183129E+04  5.642496E+03  4.882524E-09 -8.208454E-10
       211  13 -4.207870E+05  7.356181E+01 -1.955228E+03  5.425099E+03 -2.632065E-11 -1.261815E-09
       211  14 -4.204596E+05  2.262555E+02 -3.228573E+03  1.133980E+02 -1.547128E-09  8.176117E-10
       211  15 -4.207876E+05 -1.211766E+03 -5.969005E+03  5.427317E+03  3.074396E-10 -5.921499E-11
       211  16 -4.196120E+05  3.736298E+02 -1.633862E+03  5.591341E+03  8.144912E-09  1.013648E-09
       211  17 -4.077591E+05  3.385165E+03 -1.396276E+02  8.893365E+01  1.011431E-09 -4.275468E-09
       211  18 -3.965601E+05  4.807428E+03 -1.067578E+02  5.212130E+03 -2.791503E-09 -5.917681E-10
       211  19 -4.219619E+05 -2.265058E+02 -2.276592E+03  5.258858E+03 -1.195713E+03  1.008599E+02
       211  20 -4.331599E+05 -2.932664E+03 -6.317514E+03  1.378625E+02 -2.830894E+03 -3.347094E+02
       211  21 -4.450146E+05 -7.230996E+03 -1.183126E+04  5.642499E+03 -4.466091E+03 -7.501079E+02
       211  22 -4.207870E+05  7.356233E+01 -1.955224E+03  5.425099E+03 -1.376297E+03  1.005441E+02
       211  23 -4.204596E+05  2.262581E+02 -3.228555E+03  1.133988E+02 -3.003283E+03 -3.350076E+02
       211  24 -4.207876E+05 -1.211759E+03 -5.968963E+03  5.427320E+03 -4.630315E+03 -7.503880E+02
       211  25 -4.196120E+05  3.736305E+02 -1.633857E+03  5.591340E+03 -1.556882E+03  1.002282E+02
       211  26 -4.077591E+05  3.385168E+03 -1.396084E+02  8.893451E+01 -3.175676E+03 -3.353057E+02
       211  27 -3.965601E+05  4.807435E+03 -1.067135E+02  5.212133E+03 -4.794545E+03 -7.506680E+02
       212   1 -4.659253E+05 -1.053787E+04 -1.838109E+04  4.068069E+03  5.612444E+03  1.034134E+03
       212   2 -4.752326E+05 -1.203691E+04 -2.610445E+04  6.918913E+02  1.217029E+04  1.478218E+03
       212   3 -4.888264E+05 -2.710771E+04 -4.150069E+04  7.873883E+03  1.872830E+04  1.710236E+03
       212   4 -4.215911E+05  5.023380E+02 -7.563036E+03  5.405050E+03  5.832530E+03  1.034518E+03
       212   5 -4.194570E+05  1.834025E+03 -1.254126E+04  1.348860E+02  1.230441E+04  1.478421E+03
       212   6 -4.215943E+05 -1.039046E+04 -2.513210E+04  5.422894E+03  1.877657E+04  1.710227E+03
       212   7 -3.772551E+05  1.154240E+04  3.254876E+03  6.742126E+03  6.052631E+03  1.034903E+03
       212   8 -3.636786E+05  1.570473E+04  1.021712E+03 -4.221706E+02  1.243855E+04  1.478624E+03
       212   9 -3.543581E+05  6.326492E+03 -8.763846E+03  2.971637E+03  1.882486E+04  1.710217E+03
       212  10 -4.659253E+05 -1.053788E+04 -1.838115E+04  4.068064E+03 -5.894760E-10  2.383835E-09
       212  11 -4.752327E+05 -1.203695E+04 -2.610473E+04  6.918768E+02  1.820666E-09  3.967119E-09
       212  12 -4.888268E+05 -2.710781E+04 -4.150135E+04  7.873857E+03  1.002103E-09  4.113181E-09
       212  13 -4.215911E+05  5.023278E+02 -7.563102E+03  5.405045E+03 -1.495852E-11  2.991010E-10
       212  14 -4.194571E+05  1.833982E+03 -1.254155E+04  1.348714E+02 -4.760708E-09  3.379401E-09
       212  15 -4.215947E+05 -1.039055E+04 -2.513277E+04  5.422868E+03 -2.073285E-09 -7.903998E-10
       212  16 -3.772551E+05  1.154239E+04  3.254805E+03  6.742121E+03  1.970866E-09  5.534819E-10
       212  17 -3.636787E+05  1.570469E+04  1.021417E+03 -4.221855E+02 -2.403313E-09 -3.206557E-10
       212  18 -3.543585E+05  6.326394E+03 -8.764518E+03  2.971611E+03 -5.195396E-10 -1.003943E-09
       212  19 -4.659253E+05 -1.053787E+04 -1.838109E+04  4.068069E+03 -5.612444E+03 -1.034134E+03
       212  20 -4.752326E+05 -1.203691E+04 -2.610445E+04  6.918913E+02 -1.217029E+04 -1.478218E+03
       212  21 -4.888264E+05 -2.710771E+04 -4.150069E+04  7.873883E+03 -1.872830E+04 -1.710236E+03
       212  22 -4.215911E+05  5.023380E+02 -7.563036E+03  5.405050E+03 -5.832530E+03 -1.034518E+03
       212  23 -4.194570E+05  1.834025E+03 -1.254126E+04  1.348860E+02 -1.230441E+04 -1.478421E+03
       212  24 -4.215943E+05 -1.039046E+04 -2.513210E+04  5.422894E+03 -1.877657E+04 -1.710227E+03
       212  25 -3.772551E+05  1.154240E+04  3.254876E+03  6.742126E+03 -6.052631E+03 -1.034903E+03
       212  26 -3.636786E+05  1.570473E+04  1.021712E+03 -4.221706E+02 -1.243855E+04 -1.478624E+03
       212  27 -3.543581E+05  6.326492E+03 -8.763846E+03  2.971637E+03 -1.882486E+04 -1.710217E+03
       213   1 -5.147575E+05 -1.758318E+04 -5.183524E+04 -4.986267E+03  2.299089E+04  2.293079E+03
       213   2 -5.101652E+05 -9.343337E+03 -7.210420E+04  6.448040E+03  5.004692E+04  2.789812E+03
       213   3 -5.374252E+05 -1.142951E+05 -1.382997E+05  2.832020E+04  7.710634E+04  1.051139E+03
       213   4 -4.276836E+05  4.117667E+03 -3.064622E+04  5.340625E+03  2.363401E+04  2.294465E+03
       213   5 -4.118477E+05  1.508039E+04 -4.823715E+04  1.883628E+02  4.978167E+04  2.788867E+03
       213   6 -4.277015E+05 -8.698202E+04 -1.111183E+05  5.474308E+03  7.593325E+04  1.046572E+03
       213   7 -3.406025E+05  2.581835E+04 -9.457700E+03  1.566897E+04  2.427721E+04  2.295871E+03
       213   8 -3.135213E+05  3.950355E+04 -2.437078E+04 -6.072312E+03  4.951639E+04  2.787927E+03
       213   9 -3.179657E+05 -5.966783E+04 -8.393744E+04 -1.737563E+04  7.475996E+04  1.042092E+03
       213  10 -5.147581E+05 -1.758333E+04 -5.183624E+04 -4.986310E+03 -1.801566E-09  1.902245E-09
       213  11 -5.101678E+05 -9.344018E+03 -7.210892E+04  6.447927E+03  3.472376E-10  6.337819E-10
       213  12 -5.374316E+05 -1.142967E+05 -1.383109E+05  2.832013E+04  9.989706E-10  8.609998E-10
       213  13 -4.276842E+05  4.117512E+03 -3.064728E+04  5.340581E+03 -2.988103E-10  2.742658E-09
       213  14 -4.118504E+05  1.507971E+04 -4.824182E+04  1.882510E+02 -1.186239E-09 -1.812314E-09
       213  15 -4.277077E+05 -8.698357E+04 -1.111291E+05  5.474244E+03 -1.177906E-09  3.169330E-09
       213  16 -3.406031E+05  2.581819E+04 -9.458818E+03  1.566892E+04  2.471745E-09  3.542635E-09
       213  17 -3.135239E+05  3.950288E+04 -2.437540E+04 -6.072423E+03 -2.244227E-09  5.188653E-10
       213  18 -3.179717E+05 -5.966933E+04 -8.394795E+04 -1.737569E+04  6.342703E-10 -8.026558E-10
       213  19 -5.147575E+05 -1.758318E+04 -5.183524E+04 -4.986267E+03 -2.299089E+04 -2.293079E+03
       213  20 -5.101652E+05 -9.343337E+03 -7.210420E+04  6.448040E+03 -5.004692E+04 -2.789812E+03
       213  21 -5.374252E+05 -1.142951E+05 -1.382997E+05  2.832020E+04 -7.710634E+04 -1.051139E+03
       213  22 -4.276836E+05  4.117667E+03 -3.064622E+04  5.340625E+03 -2.363401E+04 -2.294465E+03
       213  23 -4.118477E+05  1.508039E+04 -4.823715E+04  1.883628E+02 -4.978167E+04 -2.788867E+03
       213  24 -4.277015E+05 -8.698202E+04 -1.111183E+05  5.474308E+03 -7.593325E+04 -1.046572E+03
       213  25 -3.406025E+05  2.581835E+04 -9.457700E+03  1.566897E+04 -2.427721E+04 -2.295871E+03
       213  26 -3.135213E+05  3.950355E+04 -2.437078E+04 -6.072312E+03 -4.951639E+04 -2.787927E+03
       213  27 -3.179657E+05 -5.966783E+04 -8.393744E+04 -1.737563E+04 -7.475996E+04 -1.042092E+03
       214   1  1.755301E+05  9.738190E+05  1.886540E+05 -9.567731E+04  4.732424E+03  6.612464E+04
       214   2  7.744085E+04  8.596692E+05  1.148912E+05 -5.192557E+04  1.360303E+04  3.425131E+04
       214   3  5.102291E+04  7.675330E+05  7.976645E+04 -5.399446E+04  1.069470E+04  2.373774E+03
       214   4  6.922719E+04  5.463819E+05  8.449570E+04 -6.383044E+04  4.745774E+03  5.371374E+04
       214   5 -1.882485E+03  5.362503E+05  4.155362E+04 -4.095097E+04  1.360633E+04  3.175891E+04
       214   6 -3.019884E+03  5.464184E+05  3.038445E+04 -6.388997E+04  1.068735E+04  9.794453E+03
       214   7 -3.708528E+04  1.191136E+05 -1.967475E+04 -3.200548E+04  4.757859E+03  4.131135E+04
       214   8 -8.121258E+04  2.129287E+05 -3.179065E+04 -2.998212E+04  1.360955E+04  2.926779E+04
       214   9 -5.706560E+04  3.253497E+05 -1.900035E+04 -7.378191E+04  1.067977E+04  1.721252E+04
       214  10  1.755289E+05  9.738143E+05  1.886457E+05 -9.567756E+04  4.302341E-11  6.784997E-09
       214  11  7.744034E+04  8.596679E+05  1.148887E+05 -5.192594E+04  1.822642E-11 -1.274361E-09
       214  12  5.102279E+04  7.675329E+05  7.976622E+04 -5.399448E+04  1.035538E-09 -8.027178E-09
       214  13  6.922639E+04  5.463788E+05  8.449024E+04 -6.383064E+04  1.055321E-09 -8.104370E-10
       214  14 -1.882954E+03  5.362492E+05  4.155137E+04 -4.095132E+04 -4.154312E-10  8.593204E-10
       214  15 -3.020032E+03  5.464183E+05  3.038406E+04 -6.389006E+04  1.741903E-09 -1.243196E-10
       214  16 -3.708577E+04  1.191117E+05 -1.967800E+04 -3.200564E+04 -5.039544E-10 -7.075541E-09
       214  17 -8.121301E+04  2.129277E+05 -3.179261E+04 -2.998244E+04  1.557014E-09 -1.277230E-09
       214  18 -5.706580E+04  3.253493E+05 -1.900112E+04 -7.378206E+04  4.923677E-09  6.258042E-09
       214  19  1.755301E+05  9.738190E+05  1.886540E+05 -9.567731E+04 -4.732424E+03 -6.612464E+04
       214  20  7.744085E+04  8.596692E+05  1.148912E+05 -5.192557E+04 -1.360303E+04 -3.425131E+04
       214  21  5.102291E+04  7.675330E+05  7.976645E+04 -5.399446E+04 -1.069470E+04 -2.373774E+03
       214  22  6.922719E+04  5.463819E+05  8.449570E+04 -6.383044E+04 -4.745774E+03 -5.371374E+04
       214  23 -1.882485E+03  5.362503E+05  4.155362E+04 -4.095097E+04 -1.360633E+04 -3.175891E+04
       214  24 -3.019884E+03  5.464184E+05  3.038445E+04 -6.388997E+04 -1.068735E+04 -9.794453E+03
       214  25 -3.708528E+04  1.191136E+05 -1.967475E+04 -3.200548E+04 -4.757859E+03 -4.131135E+04
       214  26 -8.121258E+04  2.129287E+05 -3.179065E+04 -2.998212E+04 -1.360955E+04 -2.926779E+04
       214  27 -5.706560E+04  3.253497E+05 -1.900035E+04 -7.378191E+04 -1.067977E+04 -1.721252E+04
       215   1  3.630257E+04  6.755455E+05  5.830616E+04 -6.712817E+04  6.241184E+03  9.060814E+02
       215   2  6.690839E+03  5.700879E+05  3.527028E+04 -4.051926E+04  1.446946E+03 -1.358523E+04
       215   3 -9.481361E+03  4.697754E+05  2.499686E+04 -6.013307E+04 -3.412967E+03 -2.807457E+04
       215   4  3.876183E+03  5.430503E+05  2.861777E+04 -6.396364E+04  6.237032E+03  4.920827E+03
       215   5 -5.470785E+02  5.404875E+05  2.865839E+04 -4.085010E+04  1.442681E+03 -9.514452E+03
       215   6  8.460321E+03  5.430497E+05  4.142335E+04 -6.395882E+04 -3.417223E+03 -2.395009E+04
       215   7 -2.855135E+04  4.105714E+05 -1.071676E+03 -6.079979E+04  6.232921E+03  8.934725E+03
       215   8 -7.785046E+03  5.108879E+05  2.204651E+04 -4.118093E+04  1.438411E+03 -5.443863E+03
       215   9  2.640170E+04  6.163292E+05  5.784957E+04 -6.778503E+04 -3.421531E+03 -1.982512E+04
       215  10  3.630252E+04  6.755455E+05  5.830609E+04 -6.712817E+04  9.911974E-11 -4.220322E-10
       215  11  6.690787E+03  5.700877E+05  3.526993E+04 -4.051925E+04  6.222693E-10 -1.821505E-09
       215  12 -9.481585E+03  4.697745E+05  2.499535E+04 -6.013314E+04  2.276869E-10 -2.760303E-09
       215  13  3.876135E+03  5.430502E+05  2.861765E+04 -6.396366E+04  1.865977E-09 -1.095567E-09
       215  14 -5.471050E+02  5.404874E+05  2.865822E+04 -4.085009E+04 -7.293167E-09  9.586675E-10
       215  15  8.460155E+03  5.430491E+05  4.142225E+04 -6.395888E+04 -1.711298E-09 -3.001756E-10
       215  16 -2.855141E+04  4.105713E+05 -1.071899E+03 -6.079983E+04  2.186683E-10 -2.407007E-11
       215  17 -7.785056E+03  5.108879E+05  2.204645E+04 -4.118092E+04 -2.665660E-09 -1.206941E-09
       215  18  2.640158E+04  6.163287E+05  5.784881E+04 -6.778508E+04  8.620394E-10  8.469183E-10
       215  19  3.630257E+04  6.755455E+05  5.830616E+04 -6.712817E+04 -6.241184E+03 -9.060814E+02
       215  20  6.690839E+03  5.700879E+05  3.527028E+04 -4.051926E+04 -1.446946E+03  1.358523E+04
       215  21 -9.481361E+03  4.697754E+05  2.499686E+04 -6.013307E+04  3.412967E+03  2.807457E+04
       215  22  3.876183E+03  5.430503E+05  2.861777E+04 -6.396364E+04 -6.237032E+03 -4.920827E+03
       215  23 -5.470785E+02  5.404875E+05  2.865839E+04 -4.085010E+04 -1.442681E+03  9.514452E+03
       215  24  8.460321E+03  5.430497E+05  4.142335E+04 -6.395882E+04  3.417223E+03  2.395009E+04
       215  25 -2.855135E+04  4.105714E+05 -1.071676E+03 -6.079979E+04 -6.232921E+03 -8.934725E+03
       215  26 -7.785046E+03  5.108879E+05  2.204651E+04 -4.118093E+04 -1.438411E+03  5.443863E+03
       215  27  2.640170E+04  6.163292E+05  5.784957E+04 -6.778503E+04  3.421531E+03  1.982512E+04
       216   1 -4.646929E+04  3.890628E+05  1.304788E+04 -8.423273E+04 -7.714081E+03 -3.834204E+04
       216   2 -6.859009E+04  2.665675E+05  1.837823E+04 -1.927470E+04 -1.094986E+04 -7.126817E+04
       216   3  4.819739E+04  1.830385E+05  7.985818E+04 -1.368635E+02 -3.901430E+03 -1.041788E+05
       216   4 -6.933203E+03  5.508973E+05  4.923260E+04 -6.390679E+04 -7.722649E+03 -3.128266E+04
       216   5 -3.751513E+03  5.306572E+05  7.835584E+04 -4.093525E+04 -1.094556E+04 -7.286981E+04
       216   6  1.398007E+05  5.508462E+05  1.696189E+05 -6.377699E+04 -3.881765E+03 -1.144472E+05
       216   7  3.260269E+04  7.127573E+05  8.541608E+04 -4.357549E+04 -7.730754E+03 -2.422147E+04
       216   8  6.108400E+04  7.948125E+05  1.383292E+05 -6.260508E+04 -1.094115E+04 -7.447212E+04
       216   9  2.314092E+05  9.187861E+05  2.593724E+05 -1.274549E+05 -3.860005E+03 -1.247217E+05
       216  10 -4.646975E+04  3.890612E+05  1.304500E+04 -8.423297E+04  5.456800E-10 -3.374993E-09
       216  11 -6.859158E+04  2.665621E+05  1.836846E+04 -1.927533E+04  2.307647E-09 -4.255799E-09
       216  12  4.819446E+04  1.830268E+05  7.983776E+04 -1.371908E+02  7.421138E-10 -2.190088E-09
       216  13 -6.933530E+03  5.508963E+05  4.923065E+04 -6.390698E+04 -1.993888E-10 -1.061578E-09
       216  14 -3.753066E+03  5.306514E+05  7.834564E+04 -4.093589E+04  1.027468E-09  7.562374E-10
       216  15  1.397972E+05  5.508321E+05  1.695943E+05 -6.377735E+04  5.098109E-10  3.935807E-11
       216  16  3.260247E+04  7.127566E+05  8.541486E+04 -4.357564E+04  2.119200E-09  2.811724E-09
       216  17  6.108238E+04  7.948065E+05  1.383186E+05 -6.260573E+04  2.006982E-09  1.308835E-09
       216  18  2.314050E+05  9.187694E+05  2.593431E+05 -1.274553E+05 -1.056794E-09  6.777496E-10
       216  19 -4.646929E+04  3.890628E+05  1.304788E+04 -8.423273E+04  7.714081E+03  3.834204E+04
       216  20 -6.859009E+04  2.665675E+05  1.837823E+04 -1.927470E+04  1.094986E+04  7.126817E+04
       216  21  4.819739E+04  1.830385E+05  7.985818E+04 -1.368635E+02  3.901430E+03  1.041788E+05
       216  22 -6.933203E+03  5.508973E+05  4.923260E+04 -6.390679E+04  7.722649E+03  3.128266E+04
       216  23 -3.751513E+03  5.306572E+05  7.835584E+04 -4.093525E+04  1.094556E+04  7.286981E+04
       216  24  1.398007E+05  5.508462E+05  1.696189E+05 -6.377699E+04  3.881765E+03  1.144472E+05
       216  25  3.260269E+04  7.127573E+05  8.541608E+04 -4.357549E+04  7.730754E+03  2.422147E+04
       216  26  6.108400E+04  7.948125E+05  1.383292E+05 -6.260508E+04  1.094115E+04  7.447212E+04
       216  27  2.314092E+05  9.187861E+05  2.593724E+05 -1.274549E+05  3.860005E+03  1.247217E+05
       217   1  1.173682E+05  1.719585E+04 -6.370143E+02  4.411275E+04 -3.214325E+03 -1.220695E+03
       217   2  1.187535E+05  2.129583E+04  2.346785E+03  4.251063E+04 -2.062400E+03 -8.106251E+02
       217   3  1.177214E+05  2.074934E+04  3.101906E+03  4.284259E+04 -9.215543E+02 -3.711184E+02
       217   4  1.012508E+05  1.116132E+04 -5.066748E+03  3.978167E+04 -3.215043E+03 -1.220965E+03
       217   5  1.027079E+05  1.524397E+04 -2.071719E+03  3.815333E+04 -2.062484E+03 -8.106569E+02
       217   6  1.017475E+05  1.467996E+04 -1.305916E+03  3.845911E+04 -9.210054E+02 -3.709118E+02
       217   7  8.513355E+04  5.126809E+03 -9.496503E+03  3.545070E+04 -3.215760E+03 -1.221235E+03
       217   8  8.666256E+04  9.192122E+03 -6.490246E+03  3.379614E+04 -2.062569E+03 -8.106888E+02
       217   9  8.577383E+04  8.610595E+03 -5.713762E+03  3.407573E+04 -9.204564E+02 -3.707052E+02
       217  10  1.173682E+05  1.719584E+04 -6.370365E+02  4.411274E+04 -5.591730E-09  4.406683E-09
       217  11  1.187535E+05  2.129583E+04  2.346776E+03  4.251063E+04 -6.196158E-09  4.815342E-09
       217  12  1.177214E+05  2.074934E+04  3.101904E+03  4.284259E+04  2.986619E-08 -2.383464E-08
       217  13  1.012508E+05  1.116132E+04 -5.066770E+03  3.978167E+04  3.585939E-10  1.282717E-09
       217  14  1.027079E+05  1.524397E+04 -2.071728E+03  3.815333E+04  4.877895E-11 -3.179242E-10
       217  15  1.017475E+05  1.467996E+04 -1.305918E+03  3.845911E+04 -2.179530E-09  1.908185E-09
       217  16  8.513354E+04  5.126804E+03 -9.496526E+03  3.545069E+04  7.192494E-09 -4.242031E-09
       217  17  8.666256E+04  9.192120E+03 -6.490255E+03  3.379614E+04  7.425086E-09 -6.088858E-09
       217  18  8.577383E+04  8.610595E+03 -5.713764E+03  3.407573E+04 -3.295787E-08  2.609655E-08
       217  19  1.173682E+05  1.719585E+04 -6.370143E+02  4.411275E+04  3.214325E+03  1.220695E+03
       217  20  1.187535E+05  2.129583E+04  2.346785E+03  4.251063E+04  2.062400E+03  8.106251E+02
       217  21  1.177214E+05  2.074934E+04  3.101906E+03  4.284259E+04  9.215543E+02  3.711184E+02
       217  22  1.012508E+05  1.116132E+04 -5.066748E+03  3.978167E+04  3.215043E+03  1.220965E+03
       217  23  1.027079E+05  1.524397E+04 -2.071719E+03  3.815333E+04  2.062484E+03  8.106569E+02
       217  24  1.017475E+05  1.467996E+04 -1.305916E+03  3.845911E+04  9.210054E+02  3.709118E+02
       217  25  8.513355E+04  5.126809E+03 -9.496503E+03  3.545070E+04  3.215760E+03  1.221235E+03
       217  26  8.666256E+04  9.192122E+03 -6.490246E+03  3.379614E+04  2.062569E+03  8.106888E+02
       217  27  8.577383E+04  8.610595E+03 -5.713762E+03  3.407573E+04  9.204564E+02  3.707052E+02
       218   1  1.081464E+05  1.633365E+04  6.214797E+02  4.039739E+04 -7.244864E+02 -2.868299E+02
       218   2  1.084178E+05  1.692547E+04  1.222624E+03  4.008075E+04 -4.688910E+02 -1.878692E+02
       218   3  1.081853E+05  1.688995E+04  1.414615E+03  4.019070E+04 -2.131802E+02 -8.920203E+01
       218   4  1.019502E+05  1.399824E+04 -1.084477E+03  3.871641E+04 -7.244236E+02 -2.868063E+02
       218   5  1.022416E+05  1.459072E+04 -4.792262E+02  3.839814E+04 -4.688374E+02 -1.878490E+02
       218   6  1.020291E+05  1.455585E+04 -2.831256E+02  3.850647E+04 -2.131357E+02 -8.918526E+01
       218   7  9.575394E+04  1.166284E+04 -2.790437E+03  3.703546E+04 -7.243609E+02 -2.867827E+02
       218   8  9.606540E+04  1.225597E+04 -2.181080E+03  3.671556E+04 -4.687837E+02 -1.878288E+02
       218   9  9.587306E+04  1.222175E+04 -1.980869E+03  3.682225E+04 -2.130912E+02 -8.916850E+01
       218  10  1.081464E+05  1.633365E+04  6.214786E+02  4.039739E+04 -1.262733E-08  9.972813E-09
       218  11  1.084178E+05  1.692547E+04  1.222624E+03  4.008075E+04 -4.014403E-08  3.466982E-08
       218  12  1.081853E+05  1.688995E+04  1.414614E+03  4.019070E+04  1.940282E-07 -1.588252E-07
       218  13  1.019502E+05  1.399824E+04 -1.084478E+03  3.871641E+04 -4.940099E-09  7.918236E-11
       218  14  1.022416E+05  1.459072E+04 -4.792267E+02  3.839814E+04 -5.303276E-10 -2.080103E-09
       218  15  1.020291E+05  1.455585E+04 -2.831257E+02  3.850647E+04  3.765155E-09 -1.124406E-08
       218  16  9.575394E+04  1.166284E+04 -2.790438E+03  3.703546E+04  9.585246E-09 -7.113218E-09
       218  17  9.606540E+04  1.225597E+04 -2.181081E+03  3.671556E+04  4.706406E-08 -3.719885E-08
       218  18  9.587306E+04  1.222175E+04 -1.980869E+03  3.682225E+04 -1.867415E-07  1.409957E-07
       218  19  1.081464E+05  1.633365E+04  6.214797E+02  4.039739E+04  7.244864E+02  2.868299E+02
       218  20  1.084178E+05  1.692547E+04  1.222624E+03  4.008075E+04  4.688910E+02  1.878692E+02
       218  21  1.081853E+05  1.688995E+04  1.414615E+03  4.019070E+04  2.131802E+02  8.920203E+01
       218  22  1.019502E+05  1.399824E+04 -1.084477E+03  3.871641E+04  7.244236E+02  2.868063E+02
       218  23  1.022416E+05  1.459072E+04 -4.792262E+02  3.839814E+04  4.688374E+02  1.878490E+02
       218  24  1.020291E+05  1.455585E+04 -2.831256E+02  3.850647E+04  2.131357E+02  8.918526E+01
       218  25  9.575394E+04  1.166284E+04 -2.790437E+03  3.703546E+04  7.243609E+02  2.867827E+02
       218  26  9.606540E+04  1.225597E+04 -2.181080E+03  3.671556E+04  4.687837E+02  1.878288E+02
       218  27  9.587306E+04  1.222175E+04 -1.980869E+03  3.682225E+04  2.130912E+02  8.916850E+01
       219   1  1.044268E+05  1.532117E+04  4.238622E+02  3.917155E+04 -1.715600E+02 -7.158853E+01
       219   2  1.044882E+05  1.538966E+04  5.572202E+02  3.909549E+04 -1.259180E+02 -5.136427E+01
       219   3  1.044264E+05  1.541131E+04  6.232804E+02  3.913477E+04 -7.951102E+01 -3.317005E+01
       219   4  1.020781E+05  1.443356E+04 -2.232272E+02  3.853194E+04 -1.714771E+02 -7.155728E+01
       219   5  1.021464E+05  1.450360E+04 -8.824553E+01  3.845670E+04 -1.258809E+02 -5.135028E+01
       219   6  1.020913E+05  1.452681E+04 -2.052568E+01  3.849680E+04 -7.951979E+01 -3.317333E+01
       219   7  9.972944E+04  1.354595E+04 -8.703169E+02  3.789233E+04 -1.713941E+02 -7.152603E+01
       219   8  9.980449E+04  1.361754E+04 -7.337117E+02  3.781791E+04 -1.258437E+02 -5.133627E+01
       219   9  9.975623E+04  1.364231E+04 -6.643322E+02  3.785884E+04 -7.952829E+01 -3.317656E+01
       219  10  1.044268E+05  1.532117E+04  4.238630E+02  3.917155E+04 -9.426888E-06 -6.188561E-06
       219  11  1.044883E+05  1.538966E+04  5.572240E+02  3.909547E+04 -4.467814E-05 -2.646476E-05
       219  12  1.044264E+05  1.541131E+04  6.232870E+02  3.913473E+04 -8.095818E-05 -4.592156E-05
       219  13  1.020781E+05  1.443356E+04 -2.232274E+02  3.853194E+04 -2.828643E-05 -8.299896E-06
       219  14  1.021464E+05  1.450360E+04 -8.824569E+01  3.845670E+04 -1.255035E-04 -3.676052E-05
       219  15  1.020913E+05  1.452681E+04 -2.052589E+01  3.849680E+04 -2.227325E-04 -6.521950E-05
       219  16  9.972943E+04  1.354595E+04 -8.703178E+02  3.789233E+04 -1.131762E-05 -5.447318E-06
       219  17  9.980446E+04  1.361755E+04 -7.337155E+02  3.781793E+04 -4.739625E-05 -2.506505E-05
       219  18  9.975619E+04  1.364232E+04 -6.643390E+02  3.785888E+04 -8.244090E-05 -4.549275E-05
       219  19  1.044268E+05  1.532117E+04  4.238639E+02  3.917154E+04  1.715600E+02  7.158851E+01
       219  20  1.044883E+05  1.538966E+04  5.572279E+02  3.909544E+04  1.259179E+02  5.136422E+01
       219  21  1.044265E+05  1.541130E+04  6.232937E+02  3.913469E+04  7.951085E+01  3.316996E+01
       219  22  1.020781E+05  1.443356E+04 -2.232275E+02  3.853194E+04  1.714770E+02  7.155726E+01
       219  23  1.021464E+05  1.450360E+04 -8.824578E+01  3.845670E+04  1.258807E+02  5.135021E+01
       219  24  1.020913E+05  1.452681E+04 -2.052607E+01  3.849680E+04  7.951935E+01  3.317320E+01
       219  25  9.972943E+04  1.354595E+04 -8.703187E+02  3.789234E+04  1.713941E+02  7.152602E+01
       219  26  9.980444E+04  1.361755E+04 -7.337192E+02  3.781796E+04  1.258436E+02  5.133622E+01
       219  27  9.975615E+04  1.364232E+04 -6.643458E+02  3.785892E+04  7.952812E+01  3.317647E+01
       220   1  1.028954E+05  1.479498E+04  2.244672E+02  3.871343E+04 -7.858230E+01 -3.240382E+01
       220   2  1.029035E+05  1.478586E+04  2.951942E+02  3.868874E+04 -1.190142E+02 -4.611356E+01
       220   3  1.028976E+05  1.484284E+04  4.048443E+02  3.869274E+04 -1.590913E+02 -6.076414E+01
       220   4  1.021078E+05  1.449673E+04  7.358108E+00  3.849834E+04 -7.854177E+01 -3.238851E+01
       220   5  1.021183E+05  1.448876E+04  7.878259E+01  3.847454E+04 -1.189948E+02 -4.610620E+01
       220   6  1.021149E+05  1.454688E+04  1.891470E+02  3.847943E+04 -1.590928E+02 -6.076473E+01
       220   7  1.013202E+05  1.419848E+04 -2.097511E+02  3.828325E+04 -7.850095E+01 -3.237317E+01
       220   8  1.013331E+05  1.419165E+04 -1.376291E+02  3.826035E+04 -1.189751E+02 -4.609881E+01
       220   9  1.013322E+05  1.425092E+04 -2.655046E+01  3.826613E+04 -1.590943E+02 -6.076530E+01
       220  10  1.028955E+05  1.479497E+04  2.244742E+02  3.871338E+04 -8.490295E-05 -4.704208E-05
       220  11  1.029035E+05  1.478586E+04  2.951987E+02  3.868872E+04 -5.906586E-05 -3.153009E-05
       220  12  1.028976E+05  1.484283E+04  4.048465E+02  3.869273E+04 -3.248469E-05 -1.652394E-05
       220  13  1.021078E+05  1.449673E+04  7.358248E+00  3.849834E+04 -2.299689E-04 -6.746156E-05
       220  14  1.021183E+05  1.448876E+04  7.878265E+01  3.847454E+04 -1.576163E-04 -4.667731E-05
       220  15  1.021149E+05  1.454688E+04  1.891470E+02  3.847944E+04 -8.526537E-05 -2.589748E-05
       220  16  1.013202E+05  1.419849E+04 -2.097580E+02  3.828329E+04 -8.389681E-05 -4.719439E-05
       220  17  1.013331E+05  1.419166E+04 -1.376337E+02  3.826037E+04 -5.696858E-05 -3.250864E-05
       220  18  1.013322E+05  1.425092E+04 -2.655275E+01  3.826614E+04 -3.078442E-05 -1.730627E-05
       220  19  1.028955E+05  1.479496E+04  2.244811E+02  3.871334E+04  7.858213E+01  3.240372E+01
       220  20  1.029035E+05  1.478585E+04  2.952033E+02  3.868869E+04  1.190141E+02  4.611349E+01
       220  21  1.028977E+05  1.484283E+04  4.048488E+02  3.869271E+04  1.590912E+02  6.076411E+01
       220  22  1.021078E+05  1.449673E+04  7.358414E+00  3.849834E+04  7.854131E+01  3.238838E+01
       220  23  1.021183E+05  1.448876E+04  7.878278E+01  3.847454E+04  1.189944E+02  4.610610E+01
       220  24  1.021149E+05  1.454688E+04  1.891472E+02  3.847944E+04  1.590927E+02  6.076468E+01
       220  25  1.013201E+05  1.419849E+04 -2.097648E+02  3.828333E+04  7.850079E+01  3.237307E+01
       220  26  1.013331E+05  1.419166E+04 -1.376383E+02  3.826040E+04  1.189750E+02  4.609875E+01
       220  27  1.013322E+05  1.425093E+04 -2.655494E+01  3.826616E+04  1.590943E+02  6.076526E+01
       221   1  1.021051E+05  1.449479E+04  2.447347E+02  3.849640E+04 -1.959913E+02 -7.451877E+01
       221   2  1.020524E+05  1.442613E+04  4.432342E+02  3.847781E+04 -4.284735E+02 -1.614023E+02
       221   3  1.021392E+05  1.472932E+04  9.096448E+02  3.840088E+04 -6.609420E+02 -2.483351E+02
       221   4  1.021332E+05  1.450347E+04  2.521050E+02  3.850206E+04 -1.959766E+02 -7.451321E+01
       221   5  1.020804E+05  1.443734E+04  4.510857E+02  3.848608E+04 -4.284598E+02 -1.613972E+02
       221   6  1.021672E+05  1.474308E+04  9.179785E+02  3.841176E+04 -6.609293E+02 -2.483303E+02
       221   7  1.021613E+05  1.451215E+04  2.594752E+02  3.850772E+04 -1.959617E+02 -7.450764E+01
       221   8  1.021085E+05  1.444856E+04  4.589372E+02  3.849435E+04 -4.284461E+02 -1.613920E+02
       221   9  1.021952E+05  1.475683E+04  9.263122E+02  3.842264E+04 -6.609167E+02 -2.483256E+02
       221  10  1.021051E+05  1.449479E+04  2.447359E+02  3.849639E+04 -1.893440E-05 -9.409900E-06
       221  11  1.020524E+05  1.442613E+04  4.432340E+02  3.847781E+04  1.145368E-07  1.927516E-07
       221  12  1.021392E+05  1.472933E+04  9.096430E+02  3.840089E+04  1.916768E-05  9.815185E-06
       221  13  1.021332E+05  1.450347E+04  2.521050E+02  3.850206E+04 -4.950058E-05 -1.517609E-05
       221  14  1.020804E+05  1.443734E+04  4.510854E+02  3.848608E+04  1.052168E-06  8.691548E-07
       221  15  1.021672E+05  1.474308E+04  9.179777E+02  3.841176E+04  5.160951E-05  1.690692E-05
       221  16  1.021613E+05  1.451215E+04  2.594738E+02  3.850773E+04 -1.790689E-05 -1.004842E-05
       221  17  1.021085E+05  1.444856E+04  4.589367E+02  3.849435E+04  1.099694E-06 -4.854781E-07
       221  18  1.021952E+05  1.475683E+04  9.263121E+02  3.842263E+04  2.010782E-05  9.044356E-06
       221  19  1.021051E+05  1.449479E+04  2.447372E+02  3.849638E+04  1.959913E+02  7.451875E+01
       221  20  1.020524E+05  1.442613E+04  4.432345E+02  3.847781E+04  4.284735E+02  1.614023E+02
       221  21  1.021392E+05  1.472933E+04  9.096430E+02  3.840090E+04  6.609420E+02  2.483351E+02
       221  22  1.021332E+05  1.450347E+04  2.521051E+02  3.850206E+04  1.959765E+02  7.451318E+01
       221  23  1.020805E+05  1.443734E+04  4.510859E+02  3.848608E+04  4.284598E+02  1.613972E+02
       221  24  1.021672E+05  1.474308E+04  9.179787E+02  3.841176E+04  6.609294E+02  2.483303E+02
       221  25  1.021613E+05  1.451215E+04  2.594727E+02  3.850774E+04  1.959617E+02  7.450762E+01
       221  26  1.021085E+05  1.444856E+04  4.589369E+02  3.849435E+04  4.284461E+02  1.613920E+02
       221  27  1.021952E+05  1.475683E+04  9.263140E+02  3.842262E+04  6.609167E+02  2.483256E+02
       222   1  1.013950E+05  1.417755E+04  9.365748E+02  3.834496E+04 -8.356105E+02 -3.139539E+02
       222   2  1.010380E+05  1.378131E+04  1.752315E+03  3.830216E+04 -1.875034E+03 -7.050945E+02
       222   3  1.016319E+05  1.568188E+04  3.958816E+03  3.773752E+04 -2.914712E+03 -1.095579E+03
       222   4  1.022507E+05  1.448895E+04  1.169964E+03  3.856571E+04 -8.356080E+02 -3.139529E+02
       222   5  1.018839E+05  1.410639E+04  1.986478E+03  3.853803E+04 -1.875018E+03 -7.050885E+02
       222   6  1.024680E+05  1.602063E+04  4.193740E+03  3.798852E+04 -2.914682E+03 -1.095568E+03
       222   7  1.031064E+05  1.480036E+04  1.403353E+03  3.878647E+04 -8.356057E+02 -3.139520E+02
       222   8  1.027299E+05  1.443147E+04  2.220640E+03  3.877391E+04 -1.875002E+03 -7.050826E+02
       222   9  1.033042E+05  1.635938E+04  4.428663E+03  3.823952E+04 -2.914653E+03 -1.095557E+03
       222  10  1.013950E+05  1.417756E+04  9.365719E+02  3.834498E+04  3.190956E-05  1.580808E-05
       222  11  1.010380E+05  1.378132E+04  1.752306E+03  3.830218E+04  5.651974E-05  2.659740E-05
       222  12  1.016318E+05  1.568190E+04  3.958795E+03  3.773755E+04  8.120413E-05  3.726526E-05
       222  13  1.022507E+05  1.448895E+04  1.169962E+03  3.856571E+04  8.474640E-05  2.798857E-05
       222  14  1.018839E+05  1.410639E+04  1.986470E+03  3.853803E+04  1.480604E-04  5.003592E-05
       222  15  1.024680E+05  1.602063E+04  4.193722E+03  3.798852E+04  2.113728E-04  7.208119E-05
       222  16  1.031064E+05  1.480035E+04  1.403353E+03  3.878645E+04  3.276307E-05  1.487133E-05
       222  17  1.027299E+05  1.443145E+04  2.220635E+03  3.877388E+04  5.737258E-05  2.552174E-05
       222  18  1.033042E+05  1.635936E+04  4.428648E+03  3.823948E+04  8.190648E-05  3.629556E-05
       222  19  1.013949E+05  1.417756E+04  9.365719E+02  3.834499E+04  8.356106E+02  3.139539E+02
       222  20  1.010379E+05  1.378133E+04  1.752311E+03  3.830221E+04  1.875034E+03  7.050946E+02
       222  21  1.016318E+05  1.568192E+04  3.958811E+03  3.773759E+04  2.914712E+03  1.095579E+03
       222  22  1.022507E+05  1.448895E+04  1.169964E+03  3.856571E+04  8.356082E+02  3.139530E+02
       222  23  1.018839E+05  1.410639E+04  1.986478E+03  3.853803E+04  1.875018E+03  7.050886E+02
       222  24  1.024680E+05  1.602063E+04  4.193740E+03  3.798852E+04  2.914683E+03  1.095568E+03
       222  25  1.031065E+05  1.480034E+04  1.403356E+03  3.878644E+04  8.356057E+02  3.139520E+02
       222  26  1.027299E+05  1.443144E+04  2.220644E+03  3.877386E+04  1.875002E+03  7.050826E+02
       222  27  1.033043E+05  1.635934E+04  4.428669E+03  3.823945E+04  2.914653E+03  1.095557E+03
       223   1  1.004147E+05  1.347817E+04  4.540662E+03  3.833764E+04 -3.704764E+03 -1.392406E+03
       223   2  9.820967E+04  1.104436E+04  7.893322E+03  3.819271E+04 -8.300718E+03 -3.122647E+03
       223   3  1.019590E+05  2.311730E+04  1.861592E+04  3.444993E+04 -1.289679E+04 -4.852476E+03
       223   4  1.029597E+05  1.436289E+04  5.226487E+03  3.895176E+04 -3.704751E+03 -1.392400E+03
       223   5  1.006782E+05  1.201433E+04  8.580888E+03  3.890290E+04 -8.300714E+03 -3.122646E+03
       223   6  1.043511E+05  2.417249E+04  1.930522E+04  3.525620E+04 -1.289680E+04 -4.852482E+03
       223   7  1.055047E+05  1.524761E+04  5.912311E+03  3.956589E+04 -3.704738E+03 -1.392395E+03
       223   8  1.031468E+05  1.298430E+04  9.268453E+03  3.961310E+04 -8.300710E+03 -3.122645E+03
       223   9  1.067431E+05  2.522768E+04  1.999451E+04  3.606247E+04 -1.289680E+04 -4.852487E+03
       223  10  1.004146E+05  1.347819E+04  4.540630E+03  3.833768E+04  9.763714E-05  4.410780E-05
       223  11  9.820954E+04  1.104436E+04  7.893171E+03  3.819274E+04  1.293790E-04  5.637845E-05
       223  12  1.019588E+05  2.311728E+04  1.861557E+04  3.444995E+04  1.614794E-04  6.775315E-05
       223  13  1.029597E+05  1.436288E+04  5.226458E+03  3.895176E+04  2.529547E-04  8.717703E-05
       223  14  1.006781E+05  1.201430E+04  8.580740E+03  3.890288E+04  3.325189E-04  1.170040E-04
       223  15  1.043509E+05  2.417242E+04  1.930486E+04  3.525615E+04  4.120929E-04  1.468307E-04
       223  16  1.055047E+05  1.524758E+04  5.912284E+03  3.956585E+04  9.828805E-05  4.272311E-05
       223  17  1.031467E+05  1.298424E+04  9.268308E+03  3.961302E+04  1.300885E-04  5.460336E-05
       223  18  1.067430E+05  2.522757E+04  1.999415E+04  3.606236E+04  1.615454E-04  6.736284E-05
       223  19  1.004146E+05  1.347822E+04  4.540657E+03  3.833772E+04  3.704764E+03  1.392406E+03
       223  20  9.820957E+04  1.104442E+04  7.893316E+03  3.819282E+04  8.300718E+03  3.122647E+03
       223  21  1.019589E+05  2.311739E+04  1.861592E+04  3.445007E+04  1.289679E+04  4.852476E+03
       223  22  1.029597E+05  1.436289E+04  5.226487E+03  3.895176E+04  3.704751E+03  1.392400E+03
       223  23  1.006782E+05  1.201433E+04  8.580888E+03  3.890290E+04  8.300714E+03  3.122646E+03
       223  24  1.043511E+05  2.417249E+04  1.930522E+04  3.525620E+04  1.289680E+04  4.852482E+03
       223  25  1.055048E+05  1.524756E+04  5.912317E+03  3.956581E+04  3.704738E+03  1.392395E+03
       223  26  1.031468E+05  1.298423E+04  9.268459E+03  3.961299E+04  8.300710E+03  3.122645E+03
       223  27  1.067433E+05  2.522759E+04  1.999451E+04  3.606234E+04  1.289680E+04  4.852487E+03
       224   1  1.003965E+05  1.134533E+04  2.157266E+04  3.992917E+04 -1.648969E+04 -6.201045E+03
       224   2  8.683645E+04 -3.882532E+03  3.481480E+04  3.937213E+04 -3.679280E+04 -1.383984E+04
       224   3  1.103001E+05  7.282145E+04  8.832793E+04  1.514331E+04 -5.709330E+04 -2.148640E+04
       224   4  1.072987E+05  1.346339E+04  2.337636E+04  4.130645E+04 -1.648957E+04 -6.200984E+03
       224   5  9.321851E+04 -1.220720E+03  3.662317E+04  4.136616E+04 -3.679305E+04 -1.383996E+04
       224   6  1.161617E+05  7.602652E+04  9.014095E+04  1.775422E+04 -5.709390E+04 -2.148674E+04
       224   7  1.142009E+05  1.558145E+04  2.518006E+04  4.268375E+04 -1.648945E+04 -6.200924E+03
       224   8  9.960061E+04  1.441096E+03  3.843155E+04  4.336021E+04 -3.679330E+04 -1.384007E+04
       224   9  1.220234E+05  7.923161E+04  9.195397E+04  2.036515E+04 -5.709450E+04 -2.148708E+04
       224  10  1.003962E+05  1.134526E+04  2.157208E+04  3.992915E+04  1.521354E-04  6.224698E-05
       224  11  8.683491E+04 -3.883076E+03  3.481189E+04  3.937176E+04  8.650629E-05  3.372718E-05
       224  12  1.102965E+05  7.282008E+04  8.832094E+04  1.514233E+04  1.976136E-05  7.329227E-06
       224  13  1.072984E+05  1.346328E+04  2.337578E+04  4.130637E+04  3.861970E-04  1.379689E-04
       224  14  9.321700E+04 -1.221289E+03  3.662027E+04  4.136575E+04  2.176365E-04  7.773895E-05
       224  15  1.161581E+05  7.602515E+04  9.013396E+04  1.775323E+04  4.905837E-05  1.751995E-05
       224  16  1.142007E+05  1.558130E+04  2.517948E+04  4.268360E+04  1.509032E-04  6.385446E-05
       224  17  9.959914E+04  1.440504E+03  3.842864E+04  4.335976E+04  8.426876E-05  3.730663E-05
       224  18  1.220198E+05  7.923024E+04  9.194698E+04  2.036416E+04  1.873639E-05  8.676420E-06
       224  19  1.003964E+05  1.134542E+04  2.157266E+04  3.992929E+04  1.648969E+04  6.201045E+03
       224  20  8.683639E+04 -3.882483E+03  3.481479E+04  3.937220E+04  3.679280E+04  1.383984E+04
       224  21  1.103001E+05  7.282146E+04  8.832793E+04  1.514332E+04  5.709330E+04  2.148640E+04
       224  22  1.072987E+05  1.346339E+04  2.337636E+04  4.130645E+04  1.648957E+04  6.200985E+03
       224  23  9.321851E+04 -1.220720E+03  3.662317E+04  4.136616E+04  3.679305E+04  1.383996E+04
       224  24  1.161617E+05  7.602652E+04  9.014095E+04  1.775422E+04  5.709390E+04  2.148674E+04
       224  25  1.142010E+05  1.558137E+04  2.518006E+04  4.268362E+04  1.648945E+04  6.200924E+03
       224  26  9.960067E+04  1.441050E+03  3.843155E+04  4.336014E+04  3.679330E+04  1.384007E+04
       224  27  1.220234E+05  7.923160E+04  9.195397E+04  2.036514E+04  5.709450E+04  2.148708E+04
       225   1  5.570255E+04  2.238784E+04  3.167868E+03 -9.068121E+03 -5.389411E+04 -4.355873E+03
       225   2  3.398967E+04  9.375357E+04  4.184133E+04 -1.944172E+02 -3.806664E+04 -1.305046E+04
       225   3 -1.047567E+04  8.228661E+04  4.951792E+04  2.834960E+04 -2.225451E+04 -1.245910E+04
       225   4 -3.272775E+05 -7.292589E+04 -9.083426E+04  1.754863E+04 -6.220506E+04 -4.370864E+03
       225   5 -3.153829E+05  7.487072E+03 -4.023248E+04  7.652143E+03 -4.059482E+04 -1.305567E+04
       225   6 -3.272606E+05  4.036472E+03 -2.465813E+04  1.742719E+04 -1.899884E+04 -1.245317E+04
       225   7 -7.101223E+05 -1.682478E+05 -1.848465E+05  4.414889E+04 -7.051088E+04 -4.386573E+03
       225   8 -6.646429E+05 -7.878788E+04 -1.223146E+05  1.549421E+04 -4.312158E+04 -1.306094E+04
       225   9 -6.439527E+05 -7.422036E+04 -9.884093E+04  6.510348E+03 -1.574482E+04 -1.244734E+04
       225  10  5.569942E+04  2.238704E+04  3.162374E+03 -9.068310E+03  4.457046E-10  1.244654E-09
       225  11  3.398806E+04  9.375300E+04  4.183828E+04 -1.948173E+02  6.463098E-09  5.944554E-09
       225  12 -1.047624E+04  8.228631E+04  4.951670E+04  2.834938E+04  7.822031E-09  3.466676E-09
       225  13 -3.272817E+05 -7.292695E+04 -9.084157E+04  1.754842E+04  2.240574E-10 -1.614814E-09
       225  14 -3.153847E+05  7.486446E+03 -4.023590E+04  7.651716E+03  2.275041E-09 -2.817810E-09
       225  15 -3.272610E+05  4.036208E+03 -2.465910E+04  1.742700E+04  1.733206E-09  6.172840E-09
       225  16 -7.101276E+05 -1.682491E+05 -1.848559E+05  4.414864E+04  2.978431E-09 -7.332058E-10
       225  17 -6.646449E+05 -7.878856E+04 -1.223184E+05  1.549376E+04 -7.156166E-09  3.083879E-09
       225  18 -6.439530E+05 -7.422059E+04 -9.884169E+04  6.510190E+03 -4.822294E-09  1.398579E-09
       225  19  5.570255E+04  2.238784E+04  3.167868E+03 -9.068121E+03  5.389411E+04  4.355873E+03
       225  20  3.398967E+04  9.375357E+04  4.184133E+04 -1.944172E+02  3.806664E+04  1.305046E+04
       225  21 -1.047567E+04  8.228661E+04  4.951792E+04  2.834960E+04  2.225451E+04  1.245910E+04
       225  22 -3.272775E+05 -7.292589E+04 -9.083426E+04  1.754863E+04  6.220506E+04  4.370864E+03
       225  23 -3.153829E+05  7.487072E+03 -4.023248E+04  7.652143E+03  4.059482E+04  1.305567E+04
       225  24 -3.272606E+05  4.036472E+03 -2.465813E+04  1.742719E+04  1.899884E+04  1.245317E+04
       225  25 -7.101223E+05 -1.682478E+05 -1.848465E+05  4.414889E+04  7.051088E+04  4.386573E+03
       225  26 -6.646429E+05 -7.878788E+04 -1.223146E+05  1.549421E+04  4.312158E+04  1.306094E+04
       225  27 -6.439527E+05 -7.422036E+04 -9.884093E+04  6.510348E+03  1.574482E+04  1.244734E+04
       226   1 -4.164544E+04  6.305573E+04  4.605947E+04  1.591615E+04 -1.569054E+04 -1.037185E+04
       226   2 -7.361702E+04  6.188647E+04  4.770370E+04  7.386435E+03 -1.074191E+04 -9.442317E+03
       226   3 -1.081153E+05  5.340430E+04  4.428660E+04  1.890991E+04 -5.795263E+03 -7.973298E+03
       226   4 -3.225500E+05 -6.334768E+03 -1.997754E+04  1.755802E+04 -1.528019E+04 -1.037143E+04
       226   5 -3.212533E+05  7.315988E+02 -1.039122E+04  7.524420E+03 -9.997135E+03 -9.441064E+03
       226   6 -3.225443E+05  4.251281E+02 -6.100361E+03  1.754462E+04 -4.715806E+03 -7.971136E+03
       226   7 -6.033819E+05 -7.573088E+04 -8.601996E+04  1.919910E+04 -1.487002E+04 -1.037101E+04
       226   8 -5.688332E+05 -6.042764E+04 -6.849032E+04  7.662321E+03 -9.252654E+03 -9.439810E+03
       226   9 -5.369310E+05 -5.255732E+04 -5.649047E+04  1.617979E+04 -3.636720E+03 -7.968979E+03
       226  10 -4.164574E+04  6.305555E+04  4.605880E+04  1.591602E+04 -2.701810E-09 -5.151761E-10
       226  11 -7.361716E+04  6.188634E+04  4.770331E+04  7.386353E+03 -5.228511E-09  2.799932E-09
       226  12 -1.081154E+05  5.340423E+04  4.428642E+04  1.890988E+04 -9.882788E-10  6.701640E-09
       226  13 -3.225503E+05 -6.334946E+03 -1.997818E+04  1.755789E+04  1.929094E-09  1.174854E-08
       226  14 -3.212535E+05  7.314762E+02 -1.039157E+04  7.524344E+03  1.683731E-10 -1.221178E-08
       226  15 -3.225444E+05  4.250539E+02 -6.100523E+03  1.754459E+04 -4.303564E-09  6.085076E-09
       226  16 -6.033821E+05 -7.573105E+04 -8.602058E+04  1.919897E+04  3.008460E-09 -2.936150E-09
       226  17 -5.688333E+05 -6.042776E+04 -6.849065E+04  7.662251E+03  1.805840E-10 -6.233887E-09
       226  18 -5.369310E+05 -5.255739E+04 -5.649062E+04  1.617976E+04 -9.114322E-10 -4.509903E-10
       226  19 -4.164544E+04  6.305573E+04  4.605947E+04  1.591615E+04  1.569054E+04  1.037185E+04
       226  20 -7.361702E+04  6.188647E+04  4.770370E+04  7.386435E+03  1.074191E+04  9.442317E+03
       226  21 -1.081153E+05  5.340430E+04  4.428660E+04  1.890991E+04  5.795263E+03  7.973298E+03
       226  22 -3.225500E+05 -6.334768E+03 -1.997754E+04  1.755802E+04  1.528019E+04  1.037143E+04
       226  23 -3.212533E+05  7.315988E+02 -1.039122E+04  7.524420E+03  9.997135E+03  9.441064E+03
       226  24 -3.225443E+05  4.251281E+02 -6.100361E+03  1.754462E+04  4.715806E+03  7.971136E+03
       226  25 -6.033819E+05 -7.573088E+04 -8.601996E+04  1.919910E+04  1.487002E+04  1.037101E+04
       226  26 -5.688332E+05 -6.042764E+04 -6.849032E+04  7.662321E+03  9.252654E+03  9.439810E+03
       226  27 -5.369310E+05 -5.255732E+04 -5.649047E+04  1.617979E+04  3.636720E+03  7.968979E+03
       227   1 -1.437012E+05  4.356030E+04  3.701435E+04  1.778184E+04 -4.680348E+03 -7.019346E+03
       227   2 -1.769096E+05  3.590339E+04  3.137213E+04  7.742804E+03 -3.392178E+03 -5.531741E+03
       227   3 -2.105255E+05  2.768084E+04  2.472789E+04  1.788550E+04 -2.104520E+03 -4.010907E+03
       227   4 -3.220573E+05 -4.707498E+02 -4.738649E+03  1.757804E+04 -3.763718E+03 -7.017447E+03
       227   5 -3.218501E+05  1.065134E+02 -2.628909E+03  7.486368E+03 -2.455178E+03 -5.529688E+03
       227   6 -3.220547E+05  1.146621E+02 -1.535391E+03  1.757672E+04 -1.147083E+03 -4.008693E+03
       227   7 -5.003841E+05 -4.450406E+04 -4.649382E+04  1.737429E+04 -2.847349E+03 -7.015549E+03
       227   8 -4.667713E+05 -3.569186E+04 -3.663138E+04  7.229982E+03 -1.518396E+03 -5.527636E+03
       227   9 -4.335724E+05 -2.745240E+04 -2.779953E+04  1.726799E+04 -1.898160E+02 -4.006480E+03
       227  10 -1.437013E+05  4.356024E+04  3.701422E+04  1.778182E+04  3.824327E-09 -2.526114E-09
       227  11 -1.769096E+05  3.590335E+04  3.137205E+04  7.742789E+03  1.030442E-09 -2.516036E-09
       227  12 -2.105255E+05  2.768082E+04  2.472786E+04  1.788549E+04 -3.034210E-09 -2.774764E-09
       227  13 -3.220574E+05 -4.708065E+02 -4.738769E+03  1.757802E+04 -2.161915E-09 -7.253069E-11
       227  14 -3.218501E+05  1.064789E+02 -2.628977E+03  7.486357E+03 -2.639605E-09 -4.807621E-09
       227  15 -3.220547E+05  1.146445E+02 -1.535423E+03  1.757672E+04 -7.130744E-09 -1.795906E-09
       227  16 -5.003841E+05 -4.450411E+04 -4.649393E+04  1.737427E+04 -3.854658E-09 -2.784142E-09
       227  17 -4.667713E+05 -3.569189E+04 -3.663144E+04  7.229975E+03 -1.666266E-09  4.104061E-09
       227  18 -4.335724E+05 -2.745242E+04 -2.779956E+04  1.726799E+04 -1.912779E-10  7.341215E-09
       227  19 -1.437012E+05  4.356030E+04  3.701435E+04  1.778184E+04  4.680348E+03  7.019346E+03
       227  20 -1.769096E+05  3.590339E+04  3.137213E+04  7.742804E+03  3.392178E+03  5.531741E+03
       227  21 -2.105255E+05  2.768084E+04  2.472789E+04  1.788550E+04  2.104520E+03  4.010907E+03
       227  22 -3.220573E+05 -4.707498E+02 -4.738649E+03  1.757804E+04  3.763718E+03  7.017447E+03
       227  23 -3.218501E+05  1.065134E+02 -2.628909E+03  7.486368E+03  2.455178E+03  5.529688E+03
       227  24 -3.220547E+05  1.146621E+02 -1.535391E+03  1.757672E+04  1.147083E+03  4.008693E+03
       227  25 -5.003841E+05 -4.450406E+04 -4.649382E+04  1.737429E+04  2.847349E+03  7.015549E+03
       227  26 -4.667713E+05 -3.569186E+04 -3.663138E+04  7.229982E+03  1.518396E+03  5.527636E+03
       227  27 -4.335724E+05 -2.745240E+04 -2.779953E+04  1.726799E+04  1.898160E+02  4.006480E+03
       228   1 -2.466876E+05  1.862177E+04  1.638006E+04  1.773672E+04 -1.853561E+03 -3.119987E+03
       228   2 -2.801110E+05  1.037352E+04  9.097744E+03  7.559107E+03 -1.506636E+03 -1.597304E+03
       228   3 -3.136893E+05  2.160225E+03  1.571949E+03  1.761725E+04 -1.159848E+03 -7.229380E+01
       228   4 -3.219961E+05  4.140391E+01 -1.187384E+03  1.758916E+04 -9.048923E+02 -3.117746E+03
       228   5 -3.219177E+05  4.755736E+01 -7.100390E+02  7.471179E+03 -5.565773E+02 -1.595030E+03
       228   6 -3.219954E+05  8.848822E+01 -4.771104E+02  1.758904E+04 -2.083814E+02 -6.998174E+01
       228   7 -3.972994E+05 -1.853937E+04 -1.875521E+04  1.744161E+04  4.366243E+01 -3.115506E+03
       228   8 -3.637227E+05 -1.027853E+04 -1.051794E+04  7.383256E+03  3.934179E+02 -1.592756E+03
       228   9 -3.303014E+05 -1.983253E+03 -2.526171E+03  1.756084E+04  7.430729E+02 -6.766975E+01
       228  10 -2.466876E+05  1.862176E+04  1.638004E+04  1.773672E+04 -2.579872E-09 -4.007442E-09
       228  11 -2.801110E+05  1.037352E+04  9.097735E+03  7.559105E+03 -6.910317E-09  4.598366E-09
       228  12 -3.136893E+05  2.160224E+03  1.571946E+03  1.761725E+04 -8.999451E-09  3.568390E-10
       228  13 -3.219961E+05  4.139325E+01 -1.187404E+03  1.758916E+04 -4.305091E-09  1.546883E-09
       228  14 -3.219177E+05  4.755455E+01 -7.100443E+02  7.471178E+03 -3.643077E-09 -6.596367E-09
       228  15 -3.219954E+05  8.848820E+01 -4.771105E+02  1.758904E+04  1.194519E-09 -8.043704E-09
       228  16 -3.972994E+05 -1.853938E+04 -1.875523E+04  1.744161E+04  9.524879E-10  3.825097E-09
       228  17 -3.637227E+05 -1.027853E+04 -1.051794E+04  7.383256E+03  3.255568E-09  9.973700E-09
       228  18 -3.303014E+05 -1.983253E+03 -2.526172E+03  1.756084E+04  7.869734E-09  1.385713E-09
       228  19 -2.466876E+05  1.862177E+04  1.638006E+04  1.773672E+04  1.853561E+03  3.119987E+03
       228  20 -2.801110E+05  1.037352E+04  9.097744E+03  7.559107E+03  1.506636E+03  1.597304E+03
       228  21 -3.136893E+05  2.160225E+03  1.571949E+03  1.761725E+04  1.159848E+03  7.229380E+01
       228  22 -3.219961E+05  4.140391E+01 -1.187384E+03  1.758916E+04  9.048923E+02  3.117746E+03
       228  23 -3.219177E+05  4.755736E+01 -7.100390E+02  7.471179E+03  5.565773E+02  1.595030E+03
       228  24 -3.219954E+05  8.848822E+01 -4.771104E+02  1.758904E+04  2.083814E+02  6.998174E+01
       228  25 -3.972994E+05 -1.853937E+04 -1.875521E+04  1.744161E+04 -4.366243E+01  3.115506E+03
       228  26 -3.637227E+05 -1.027853E+04 -1.051794E+04  7.383256E+03 -3.934179E+02  1.592756E+03
       228  27 -3.303014E+05 -1.983253E+03 -2.526171E+03  1.756084E+04 -7.430729E+02  6.766975E+01
       229   1 -3.499438E+05 -6.839432E+03 -7.078206E+03  1.753775E+04 -1.081017E+03  8.158482E+02
       229   2 -3.833703E+05 -1.513518E+04 -1.481262E+04  7.362277E+03 -8.863128E+02  2.340293E+03
       229   3 -4.169210E+05 -2.336295E+04 -2.268268E+04  1.741751E+04 -6.914486E+02  3.861980E+03
       229   4 -3.219887E+05  8.560170E+01 -4.192954E+02  1.758790E+04 -1.296231E+02  8.181550E+02
       229   5 -3.219265E+05  4.185194E+01 -3.971327E+02  7.472633E+03  6.334405E+01  2.342546E+03
       229   6 -3.219897E+05  6.632377E+01 -5.094759E+02  1.758794E+04  2.564820E+02  3.864184E+03
       229   7 -2.940330E+05  7.010579E+03  6.239564E+03  1.763805E+04  8.218132E+02  8.204619E+02
       229   8 -2.604793E+05  1.521861E+04  1.401810E+04  7.582998E+03  1.013094E+03  2.344799E+03
       229   9 -2.270502E+05  2.349496E+04  2.166312E+04  1.775840E+04  1.204557E+03  3.866388E+03
       229  10 -3.499438E+05 -6.839433E+03 -7.078210E+03  1.753775E+04  4.679680E-09  1.565866E-09
       229  11 -3.833703E+05 -1.513518E+04 -1.481263E+04  7.362279E+03  6.034481E-09 -1.750374E-10
       229  12 -4.169210E+05 -2.336297E+04 -2.268271E+04  1.741751E+04  3.044232E-09 -1.536002E-09
       229  13 -3.219887E+05  8.560097E+01 -4.192967E+02  1.758790E+04 -2.663530E-10  2.198332E-10
       229  14 -3.219265E+05  4.184605E+01 -3.971430E+02  7.472633E+03  1.516516E-09 -5.439147E-09
       229  15 -3.219897E+05  6.630772E+01 -5.095041E+02  1.758794E+04  8.740983E-10 -4.976680E-09
       229  16 -2.940330E+05  7.010578E+03  6.239561E+03  1.763805E+04 -2.892939E-09  8.714781E-10
       229  17 -2.604793E+05  1.521861E+04  1.401809E+04  7.582996E+03 -4.099848E-09 -9.045105E-09
       229  18 -2.270502E+05  2.349494E+04  2.166309E+04  1.775839E+04 -2.624097E-09 -4.649084E-09
       229  19 -3.499438E+05 -6.839432E+03 -7.078206E+03  1.753775E+04  1.081017E+03 -8.158482E+02
       229  20 -3.833703E+05 -1.513518E+04 -1.481262E+04  7.362277E+03  8.863128E+02 -2.340293E+03
       229  21 -4.169210E+05 -2.336295E+04 -2.268268E+04  1.741751E+04  6.914486E+02 -3.861980E+03
       229  22 -3.219887E+05  8.560170E+01 -4.192954E+02  1.758790E+04  1.296231E+02 -8.181550E+02
       229  23 -3.219265E+05  4.185194E+01 -3.971327E+02  7.472633E+03 -6.334405E+01 -2.342546E+03
       229  24 -3.219897E+05  6.632377E+01 -5.094759E+02  1.758794E+04 -2.564820E+02 -3.864184E+03
       229  25 -2.940330E+05  7.010579E+03  6.239564E+03  1.763805E+04 -8.218132E+02 -8.204619E+02
       229  26 -2.604793E+05  1.521861E+04  1.401810E+04  7.582998E+03 -1.013094E+03 -2.344799E+03
       229  27 -2.270502E+05  2.349496E+04  2.166312E+04  1.775840E+04 -1.204557E+03 -3.866388E+03
       230   1 -4.531315E+05 -3.231664E+04 -3.147908E+04  1.730331E+04 -6.016487E+02  4.752321E+03
       230   2 -4.864105E+05 -4.057783E+04 -3.958139E+04  7.213626E+03 -9.226172E+01  6.270372E+03
       230   3 -5.198861E+05 -4.899167E+04 -4.807445E+04  1.728495E+04  4.176262E+02  7.753435E+03
       230   4 -3.220069E+05  9.350252E+01 -6.146034E+02  1.757223E+04  3.552895E+02  4.754488E+03
       230   5 -3.219117E+05  5.701424E+01 -9.850888E+02  7.492140E+03  8.429575E+02  6.272361E+03
       230   6 -3.220097E+05 -1.280967E+02 -1.730954E+03  1.757272E+04  1.331153E+03  7.755254E+03
       230   7 -1.908666E+05  3.250242E+04  3.024869E+04  1.784121E+04  1.312429E+03  4.756655E+03
       230   8 -1.573879E+05  4.068993E+04  3.760937E+04  7.770714E+03  1.778423E+03  6.274350E+03
       230   9 -1.240972E+05  4.873269E+04  4.460987E+04  1.786057E+04  2.244970E+03  7.757073E+03
       230  10 -4.531315E+05 -3.231666E+04 -3.147912E+04  1.730331E+04  3.617682E-09 -4.783367E-10
       230  11 -4.864105E+05 -4.057787E+04 -3.958147E+04  7.213626E+03  3.273623E-10 -3.991748E-09
       230  12 -5.198861E+05 -4.899173E+04 -4.807456E+04  1.728495E+04 -7.559021E-09 -1.597287E-09
       230  13 -3.220069E+05  9.347821E+01 -6.146461E+02  1.757223E+04  2.177823E-09  5.138948E-11
       230  14 -3.219117E+05  5.697180E+01 -9.851640E+02  7.492136E+03 -5.794321E-10  1.747449E-09
       230  15 -3.220097E+05 -1.281617E+02 -1.731070E+03  1.757271E+04  3.499797E-09  3.210718E-09
       230  16 -1.908666E+05  3.250239E+04  3.024865E+04  1.784121E+04 -3.960851E-09  5.909846E-09
       230  17 -1.573879E+05  4.068989E+04  3.760929E+04  7.770705E+03  2.447743E-09 -1.211439E-09
       230  18 -1.240972E+05  4.873262E+04  4.460975E+04  1.786055E+04  4.622884E-09  4.666248E-09
       230  19 -4.531315E+05 -3.231664E+04 -3.147908E+04  1.730331E+04  6.016487E+02 -4.752321E+03
       230  20 -4.864105E+05 -4.057783E+04 -3.958139E+04  7.213626E+03  9.226172E+01 -6.270372E+03
       230  21 -5.198861E+05 -4.899167E+04 -4.807445E+04  1.728495E+04 -4.176262E+02 -7.753435E+03
       230  22 -3.220069E+05  9.350252E+01 -6.146034E+02  1.757223E+04 -3.552895E+02 -4.754488E+03
       230  23 -3.219117E+05  5.701424E+01 -9.850888E+02  7.492140E+03 -8.429575E+02 -6.272361E+03
       230  24 -3.220097E+05 -1.280967E+02 -1.730954E+03  1.757272E+04 -1.331153E+03 -7.755254E+03
       230  25 -1.908666E+05  3.250242E+04  3.024869E+04  1.784121E+04 -1.312429E+03 -4.756655E+03
       230  26 -1.573879E+05  4.068993E+04  3.760937E+04  7.770714E+03 -1.778423E+03 -6.274350E+03
       230  27 -1.240972E+05  4.873269E+04  4.460987E+04  1.786057E+04 -2.244970E+03 -7.757073E+03
       231   1 -5.560773E+05 -5.760225E+04 -5.718303E+04  1.680116E+04  5.927475E+02  8.707925E+03
       231   2 -5.887455E+05 -6.569474E+04 -6.642921E+04  7.323526E+03  2.854825E+03  1.016744E+04
       231   3 -6.224210E+05 -7.645753E+04 -7.782726E+04  1.786747E+04  5.118507E+03  1.106201E+04
       231   4 -3.221811E+05  1.965608E+02 -2.216150E+03  1.753996E+04  1.676481E+03  8.709994E+03
       231   5 -3.217101E+05  2.731953E+02 -3.763764E+03  7.531776E+03  3.587022E+03  1.016859E+04
       231   6 -3.221860E+05 -2.258627E+03 -7.218274E+03  1.754466E+04  5.499288E+03  1.106235E+04
       231   7 -8.823443E+04  5.799147E+04  5.274698E+04  1.827902E+04  2.760621E+03  8.712065E+03
       231   8 -5.460909E+04  6.623605E+04  5.889681E+04  7.740084E+03  4.319532E+03  1.016974E+04
       231   9 -2.186792E+04  7.193384E+04  6.338452E+04  1.722166E+04  5.880251E+03  1.106269E+04
       231  10 -5.560773E+05 -5.760233E+04 -5.718317E+04  1.680116E+04  8.087801E-09  3.426164E-11
       231  11 -5.887455E+05 -6.569486E+04 -6.642942E+04  7.323502E+03  4.289197E-09  1.844439E-09
       231  12 -6.224210E+05 -7.645767E+04 -7.782754E+04  1.786742E+04 -2.930132E-09 -9.099399E-10
       231  13 -3.221811E+05  1.964786E+02 -2.216298E+03  1.753995E+04  2.392827E-09 -3.672880E-09
       231  14 -3.217102E+05  2.730809E+02 -3.763983E+03  7.531747E+03 -1.948093E-09  4.507926E-09
       231  15 -3.221860E+05 -2.258766E+03 -7.218561E+03  1.754461E+04  2.769812E-10  6.236047E-10
       231  16 -8.823446E+04  5.799139E+04  5.274682E+04  1.827900E+04 -6.721867E-09 -5.096231E-10
       231  17 -5.460913E+04  6.623594E+04  5.889658E+04  7.740048E+03  8.323367E-10 -9.355269E-09
       231  18 -2.186799E+04  7.193370E+04  6.338423E+04  1.722161E+04  2.349912E-09  2.787128E-09
       231  19 -5.560773E+05 -5.760225E+04 -5.718303E+04  1.680116E+04 -5.927475E+02 -8.707925E+03
       231  20 -5.887455E+05 -6.569474E+04 -6.642921E+04  7.323526E+03 -2.854825E+03 -1.016744E+04
       231  21 -6.224210E+05 -7.645753E+04 -7.782726E+04  1.786747E+04 -5.118507E+03 -1.106201E+04
       231  22 -3.221811E+05  1.965608E+02 -2.216150E+03  1.753996E+04 -1.676481E+03 -8.709994E+03
       231  23 -3.217101E+05  2.731953E+02 -3.763764E+03  7.531776E+03 -3.587022E+03 -1.016859E+04
       231  24 -3.221860E+05 -2.258627E+03 -7.218274E+03  1.754466E+04 -5.499288E+03 -1.106235E+04
       231  25 -8.823443E+04  5.799147E+04  5.274698E+04  1.827902E+04 -2.760621E+03 -8.712065E+03
       231  26 -5.460909E+04  6.623605E+04  5.889681E+04  7.740084E+03 -4.319532E+03 -1.016974E+04
       231  27 -2.186792E+04  7.193384E+04  6.338452E+04  1.722166E+04 -5.880251E+03 -1.106269E+04
       232   1 -6.599454E+05 -8.152478E+04 -8.761675E+04  1.319878E+04  3.480248E+03  1.319044E+04
       232   2 -6.881188E+05 -8.835781E+04 -1.011475E+05  1.021852E+04  1.734318E+04  1.373397E+04
       232   3 -7.258970E+05 -1.264702E+05 -1.315256E+05  2.680176E+04  3.121894E+04  4.548616E+03
       232   4 -3.238800E+05  1.485297E+03 -8.905231E+03  1.742721E+04  6.839673E+03  1.319590E+04
       232   5 -3.196113E+05  2.697734E+03 -1.453726E+04  7.666211E+03  1.464129E+04  1.372907E+04
       232   6 -3.238901E+05 -2.630641E+04 -3.279924E+04  1.746856E+04  2.245668E+04  4.535621E+03
       232   7  1.228968E+04  8.448741E+04  6.979863E+04  2.165789E+04  1.020091E+04  1.320140E+04
       232   8  4.902146E+04  9.374362E+04  7.206371E+04  5.112327E+03  1.193781E+04  1.372420E+04
       232   9  7.826436E+04  7.384575E+04  6.591563E+04  8.129241E+03  1.368875E+04  4.522894E+03
       232  10 -6.599455E+05 -8.152497E+04 -8.761710E+04  1.319874E+04  2.390932E-09 -7.463180E-10
       232  11 -6.881192E+05 -8.835809E+04 -1.011484E+05  1.021833E+04  1.353965E-09 -7.863300E-10
       232  12 -7.258981E+05 -1.264705E+05 -1.315275E+05  2.680165E+04  2.547223E-09  1.916681E-09
       232  13 -3.238801E+05  1.485097E+03 -8.905646E+03  1.742713E+04  4.088020E-12  3.409686E-10
       232  14 -3.196115E+05  2.697474E+03 -1.453802E+04  7.666049E+03 -4.725607E-09  5.440594E-10
       232  15 -3.238907E+05 -2.630657E+04 -3.280022E+04  1.746848E+04  3.935415E-10  1.573397E-10
       232  16  1.228952E+04  8.448719E+04  6.979811E+04  2.165778E+04 -4.873062E-09  4.023908E-09
       232  17  4.902126E+04  9.374338E+04  7.206309E+04  5.112195E+03 -3.162934E-09  5.976452E-09
       232  18  7.826415E+04  7.384568E+04  6.591523E+04  8.129191E+03 -3.338309E-09  6.390082E-10
       232  19 -6.599454E+05 -8.152478E+04 -8.761675E+04  1.319878E+04 -3.480248E+03 -1.319044E+04
       232  20 -6.881188E+05 -8.835781E+04 -1.011475E+05  1.021852E+04 -1.734318E+04 -1.373397E+04
       232  21 -7.258970E+05 -1.264702E+05 -1.315256E+05  2.680176E+04 -3.121894E+04 -4.548616E+03
       232  22 -3.238800E+05  1.485297E+03 -8.905231E+03  1.742721E+04 -6.839673E+03 -1.319590E+04
       232  23 -3.196113E+05  2.697734E+03 -1.453726E+04  7.666211E+03 -1.464129E+04 -1.372907E+04
       232  24 -3.238901E+05 -2.630641E+04 -3.279924E+04  1.746856E+04 -2.245668E+04 -4.535621E+03
       232  25  1.228968E+04  8.448741E+04  6.979863E+04  2.165789E+04 -1.020091E+04 -1.320140E+04
       232  26  4.902146E+04  9.374362E+04  7.206371E+04  5.112327E+03 -1.193781E+04 -1.372420E+04
       232  27  7.826436E+04  7.384575E+04  6.591563E+04  8.129241E+03 -1.368875E+04 -4.522894E+03
       233   1 -2.490405E+05 -9.291070E+05 -2.438781E+05  2.119255E+05 -1.010952E+04 -7.368219E+04
       233   2 -1.676963E+05 -7.167345E+05 -1.523582E+05  1.764345E+05 -3.053807E+04 -3.104647E+04
       233   3 -1.118759E+05 -5.160501E+05 -9.498484E+04  1.907846E+05 -2.830875E+04  1.163638E+04
       233   4 -3.087833E+04 -4.904260E+04 -3.390998E+04  1.929683E+05 -1.015767E+04 -2.504047E+04
       233   5 -6.068306E+03 -4.615805E+04 -1.519920E+04  1.680626E+05 -3.054816E+04 -1.715248E+04
       233   6 -7.269919E+02 -4.895289E+04 -6.471558E+03  1.929987E+05 -2.829049E+04 -9.232982E+03
       233   7  1.872304E+05  8.317386E+05  1.760127E+05  1.739841E+05 -1.020876E+04  2.366997E+04
       233   8  1.555318E+05  6.248466E+05  1.219367E+05  1.596815E+05 -3.055861E+04 -3.243733E+03
       233   9  1.104094E+05  4.183559E+05  8.203366E+04  1.952146E+05 -2.827239E+04 -3.011768E+04
       233  10 -2.490421E+05 -9.291128E+05 -2.438885E+05  2.119249E+05 -1.704969E-09 -7.129985E-10
       233  11 -1.676975E+05 -7.167358E+05 -1.523618E+05  1.764337E+05 -2.474507E-09 -1.736499E-08
       233  12 -1.118768E+05 -5.160504E+05 -9.498660E+04  1.907848E+05 -3.329225E-09 -3.039665E-08
       233  13 -3.087861E+04 -4.904330E+04 -3.391135E+04  1.929681E+05  1.035044E-09  1.081483E-09
       233  14 -6.069386E+03 -4.615861E+04 -1.520151E+04  1.680622E+05  4.228249E-10 -5.376862E-10
       233  15 -7.278741E+02 -4.895319E+04 -6.473221E+03  1.929985E+05  6.394351E-09  1.457537E-09
       233  16  1.872302E+05  8.317380E+05  1.760115E+05  1.739843E+05 -6.146778E-10 -2.305889E-10
       233  17  1.555308E+05  6.248463E+05  1.219350E+05  1.596815E+05 -7.651389E-10  1.792673E-08
       233  18  1.104083E+05  4.183547E+05  8.203046E+04  1.952139E+05 -2.343280E-09  3.162140E-08
       233  19 -2.490405E+05 -9.291070E+05 -2.438781E+05  2.119255E+05  1.010952E+04  7.368219E+04
       233  20 -1.676963E+05 -7.167345E+05 -1.523582E+05  1.764345E+05  3.053807E+04  3.104647E+04
       233  21 -1.118759E+05 -5.160501E+05 -9.498484E+04  1.907846E+05  2.830875E+04 -1.163638E+04
       233  22 -3.087833E+04 -4.904260E+04 -3.390998E+04  1.929683E+05  1.015767E+04  2.504047E+04
       233  23 -6.068306E+03 -4.615805E+04 -1.519920E+04  1.680626E+05  3.054816E+04  1.715248E+04
       233  24 -7.269919E+02 -4.895289E+04 -6.471558E+03  1.929987E+05  2.829049E+04  9.232982E+03
       233  25  1.872304E+05  8.317386E+05  1.760127E+05  1.739841E+05  1.020876E+04 -2.366997E+04
       233  26  1.555318E+05  6.248466E+05  1.219367E+05  1.596815E+05  3.055861E+04  3.243733E+03
       233  27  1.104094E+05  4.183559E+05  8.203366E+04  1.952146E+05  2.827239E+04  3.011768E+04
       234   1 -7.982193E+04 -3.762039E+05 -6.550736E+04  1.935306E+05 -2.007523E+04  9.025668E+03
       234   2 -2.907279E+04 -1.699327E+05 -1.955850E+04  1.680331E+05 -8.380413E+03  8.442157E+03
       234   3  2.207848E+04  3.670070E+04  2.690252E+04  1.937218E+05  3.773169E+03  7.857724E+03
       234   4 -1.656189E+03 -4.757057E+04 -3.396620E+03  1.932912E+05 -2.006130E+04 -8.579838E+03
       234   5 -2.061126E+02 -4.778468E+04  2.608361E+03  1.676997E+05 -8.366786E+03 -9.869895E+03
       234   6  1.771358E+03 -4.755387E+04  9.617844E+03  1.932937E+05  3.786355E+03 -1.116069E+04
       234   7  7.650342E+04  2.811677E+05  5.871051E+04  1.930516E+05 -2.004737E+04 -2.619444E+04
       234   8  2.865990E+04  7.437856E+04  2.477589E+04  1.673662E+05 -8.353139E+03 -2.818545E+04
       234   9 -1.853601E+04 -1.318009E+05 -7.665853E+03  1.928657E+05  3.799568E+03 -3.017657E+04
       234  10 -7.982239E+04 -3.762041E+05 -6.550827E+04  1.935307E+05 -2.677579E-09  1.972281E-08
       234  11 -2.907288E+04 -1.699328E+05 -1.955877E+04  1.680332E+05  4.841847E-10  1.954614E-08
       234  12  2.207845E+04  3.670063E+04  2.690238E+04  1.937217E+05 -1.459101E-09  1.463489E-08
       234  13 -1.656640E+03 -4.757076E+04 -3.397514E+03  1.932910E+05  6.607261E-09  1.054063E-09
       234  14 -2.062139E+02 -4.778480E+04  2.608047E+03  1.676997E+05  7.123745E-09 -5.758294E-10
       234  15  1.771309E+03 -4.755401E+04  9.617583E+03  1.932937E+05  6.909173E-09  1.718414E-09
       234  16  7.650280E+04  2.811668E+05  5.870847E+04  1.930512E+05 -1.458238E-09 -1.957776E-08
       234  17  2.865962E+04  7.437769E+04  2.477427E+04  1.673660E+05 -4.333825E-09 -1.864497E-08
       234  18 -1.853627E+04 -1.318019E+05 -7.667592E+03  1.928658E+05 -1.052269E-09 -1.439287E-08
       234  19 -7.982193E+04 -3.762039E+05 -6.550736E+04  1.935306E+05  2.007523E+04 -9.025668E+03
       234  20 -2.907279E+04 -1.699327E+05 -1.955850E+04  1.680331E+05  8.380413E+03 -8.442157E+03
       234  21  2.207848E+04  3.670070E+04  2.690252E+04  1.937218E+05 -3.773169E+03 -7.857724E+03
       234  22 -1.656189E+03 -4.757057E+04 -3.396620E+03  1.932912E+05  2.006130E+04  8.579838E+03
       234  23 -2.061126E+02 -4.778468E+04  2.608361E+03  1.676997E+05  8.366786E+03  9.869895E+03
       234  24  1.771358E+03 -4.755387E+04  9.617844E+03  1.932937E+05 -3.786355E+03  1.116069E+04
       234  25  7.650342E+04  2.811677E+05  5.871051E+04  1.930516E+05  2.004737E+04  2.619444E+04
       234  26  2.865990E+04  7.437856E+04  2.477589E+04  1.673662E+05  8.353139E+03  2.818545E+04
       234  27 -1.853601E+04 -1.318009E+05 -7.665853E+03  1.928657E+05 -3.799568E+03  3.017657E+04
       235   1  5.343808E+04  1.771362E+05  5.725710E+04  1.888362E+05  1.214277E+04  8.475150E+03
       235   2  1.122962E+05  3.764631E+05  1.160018E+05  1.810974E+05  1.767996E+04 -3.122751E+04
       235   3  2.083906E+05  5.904685E+05  2.099266E+05  2.236439E+05  6.475052E+03 -7.096351E+04
       235   4  2.310786E+02 -4.539693E+04  1.377571E+04  1.930840E+05  1.215831E+04 -1.284468E+04
       235   5  9.132081E+03 -5.051886E+04  2.694104E+04  1.679662E+05  1.767797E+04 -2.681446E+04
       235   6  5.082052E+04 -4.545234E+04  5.743197E+04  1.931302E+05  6.452491E+03 -4.080423E+04
       235   7 -5.297859E+04 -2.678816E+05 -2.970633E+04  1.973301E+05  1.217357E+04 -3.415703E+04
       235   8 -9.404303E+04 -4.773280E+05 -6.212961E+04  1.548441E+05  1.767579E+04 -2.240440E+04
       235   9 -1.067749E+05 -6.809991E+05 -9.508742E+04  1.626479E+05  6.426960E+03 -1.067567E+04
       235  10  5.343790E+04  1.771361E+05  5.725668E+04  1.888361E+05 -1.276693E-09 -1.570168E-08
       235  11  1.122956E+05  3.764620E+05  1.159994E+05  1.810979E+05 -8.444331E-09 -1.665288E-09
       235  12  2.083892E+05  5.904631E+05  2.099171E+05  2.236443E+05 -3.310109E-09  1.279692E-08
       235  13  2.308755E+02 -4.539715E+04  1.377512E+04  1.930841E+05  4.404587E-09  5.227252E-10
       235  14  9.131552E+03 -5.051971E+04  2.693910E+04  1.679666E+05  1.888703E-09 -1.735091E-09
       235  15  5.082002E+04 -4.545414E+04  5.742876E+04  1.931304E+05 -5.972950E-10  1.759174E-09
       235  16 -5.297906E+04 -2.678829E+05 -2.970881E+04  1.973305E+05 -6.153610E-09  1.567935E-08
       235  17 -9.404350E+04 -4.773286E+05 -6.213114E+04  1.548444E+05 -2.535742E-09  8.237327E-10
       235  18 -1.067750E+05 -6.809992E+05 -9.508771E+04  1.626480E+05  1.289023E-09 -1.224934E-08
       235  19  5.343808E+04  1.771362E+05  5.725710E+04  1.888362E+05 -1.214277E+04 -8.475150E+03
       235  20  1.122962E+05  3.764631E+05  1.160018E+05  1.810974E+05 -1.767996E+04  3.122751E+04
       235  21  2.083906E+05  5.904685E+05  2.099266E+05  2.236439E+05 -6.475052E+03  7.096351E+04
       235  22  2.310786E+02 -4.539693E+04  1.377571E+04  1.930840E+05 -1.215831E+04  1.284468E+04
       235  23  9.132081E+03 -5.051886E+04  2.694104E+04  1.679662E+05 -1.767797E+04  2.681446E+04
       235  24  5.082052E+04 -4.545234E+04  5.743197E+04  1.931302E+05 -6.452491E+03  4.080423E+04
       235  25 -5.297859E+04 -2.678816E+05 -2.970633E+04  1.973301E+05 -1.217357E+04  3.415703E+04
       235  26 -9.404303E+04 -4.773280E+05 -6.212961E+04  1.548441E+05 -1.767579E+04  2.240440E+04
       235  27 -1.067749E+05 -6.809991E+05 -9.508742E+04  1.626479E+05 -6.426960E+03  1.067567E+04
       236   1  7.478439E+05  2.730834E+05  1.664584E+05  2.720339E+05  6.962308E+04  2.180835E+04
       236   2  7.239943E+05  1.752968E+05  1.033864E+05  2.677135E+05  4.511707E+04  3.193983E+03
       236   3  7.236531E+05  1.565722E+05  8.049951E+04  2.533853E+05  1.764464E+04 -7.540410E+03
       236   4  4.890147E+05  1.452023E+05  9.140160E+04  1.701271E+05  5.976315E+04  1.808990E+04
       236   5  4.729444E+05  7.139398E+04  3.941844E+04  1.882874E+05  4.164582E+04  1.884739E+03
       236   6  4.791287E+05  7.539906E+04  2.257247E+04  1.964368E+05  2.056056E+04 -6.441489E+03
       236   7  2.302568E+05  1.734267E+04  1.634004E+04  6.826495E+04  4.990785E+04  1.437442E+04
       236   8  2.219579E+05 -3.250007E+04 -2.455430E+04  1.088921E+05  3.817611E+04  5.762174E+02
       236   9  2.346616E+05 -5.773383E+03 -3.535913E+04  1.395070E+05  2.347524E+04 -5.342914E+03
       236  10  7.478386E+05  2.730816E+05  1.664484E+05  2.720327E+05  7.129789E-10 -1.230240E-09
       236  11  7.239921E+05  1.752963E+05  1.033826E+05  2.677134E+05 -1.700153E-09  3.547419E-09
       236  12  7.236527E+05  1.565720E+05  8.049882E+04  2.533854E+05  1.393235E-09  1.698142E-09
       236  13  4.890108E+05  1.452009E+05  9.139428E+04  1.701262E+05  2.556088E-09 -2.686010E-09
       236  14  4.729425E+05  7.139351E+04  3.941517E+04  1.882873E+05  1.439722E-09 -2.760624E-09
       236  15  4.791283E+05  7.539890E+04  2.257160E+04  1.964369E+05  1.151447E-09 -2.071419E-10
       236  16  2.302541E+05  1.734178E+04  1.633498E+04  6.826437E+04  1.482750E-09  3.734517E-09
       236  17  2.219564E+05 -3.250046E+04 -2.455704E+04  1.088921E+05 -2.799970E-09  2.611727E-10
       236  18  2.346610E+05 -5.773561E+03 -3.536022E+04  1.395071E+05 -1.068022E-09  1.561763E-09
       236  19  7.478439E+05  2.730834E+05  1.664584E+05  2.720339E+05 -6.962308E+04 -2.180835E+04
       236  20  7.239943E+05  1.752968E+05  1.033864E+05  2.677135E+05 -4.511707E+04 -3.193983E+03
       236  21  7.236531E+05  1.565722E+05  8.049951E+04  2.533853E+05 -1.764464E+04  7.540410E+03
       236  22  4.890147E+05  1.452023E+05  9.140160E+04  1.701271E+05 -5.976315E+04 -1.808990E+04
       236  23  4.729444E+05  7.139398E+04  3.941844E+04  1.882874E+05 -4.164582E+04 -1.884739E+03
       236  24  4.791287E+05  7.539906E+04  2.257247E+04  1.964368E+05 -2.056056E+04  6.441489E+03
       236  25  2.302568E+05  1.734267E+04  1.634004E+04  6.826495E+04 -4.990785E+04 -1.437442E+04
       236  26  2.219579E+05 -3.250007E+04 -2.455430E+04  1.088921E+05 -3.817611E+04 -5.762174E+02
       236  27  2.346616E+05 -5.773383E+03 -3.535913E+04  1.395070E+05 -2.347524E+04  5.342914E+03
       237   1  6.931459E+05  1.652608E+05  7.155362E+04  2.533563E+05  1.655075E+04 -6.183307E+03
       237   2  6.746622E+05  1.481003E+05  5.731961E+04  2.437381E+05  1.129720E+04 -7.249818E+03
       237   3  6.513503E+05  1.430483E+05  4.807130E+04  2.413553E+05  5.909211E+03 -7.960015E+03
       237   4  4.762024E+05  8.266460E+04  1.796008E+04  1.920239E+05  1.705136E+04 -5.994969E+03
       237   5  4.783268E+05  7.438417E+04  9.157651E+03  1.892574E+05  1.208793E+04 -6.951947E+03
       237   6  4.755659E+05  7.815578E+04  5.112468E+03  1.937260E+05  6.989875E+03 -7.552641E+03
       237   7  2.593054E+05  7.214372E+01 -3.563706E+04  1.307112E+05  1.755177E+04 -5.806707E+03
       237   8  2.820299E+05  6.709809E+02 -3.900710E+04  1.347925E+05  1.287838E+04 -6.654182E+03
       237   9  2.998128E+05  1.326552E+04 -3.784846E+04  1.461090E+05  8.070200E+03 -7.145391E+03
       237  10  6.931456E+05  1.652607E+05  7.155303E+04  2.533564E+05  1.717481E-09  4.185269E-09
       237  11  6.746620E+05  1.481002E+05  5.731927E+04  2.437382E+05  2.059925E-10  9.506418E-09
       237  12  6.513503E+05  1.430482E+05  4.807112E+04  2.413554E+05  1.226543E-09  5.917376E-09
       237  13  4.762021E+05  8.266448E+04  1.795947E+04  1.920240E+05  5.996395E-10  3.502907E-09
       237  14  4.783266E+05  7.438408E+04  9.157286E+03  1.892575E+05 -7.529204E-11 -3.586661E-09
       237  15  4.755659E+05  7.815571E+04  5.112269E+03  1.937260E+05  1.708632E-09 -1.412868E-10
       237  16  2.593050E+05  7.202481E+01 -3.563770E+04  1.307113E+05 -7.138264E-09 -1.434248E-09
       237  17  2.820297E+05  6.708888E+02 -3.900749E+04  1.347926E+05 -2.116881E-09  8.727066E-09
       237  18  2.998127E+05  1.326544E+04 -3.784868E+04  1.461091E+05  3.380793E-09  4.467813E-09
       237  19  6.931459E+05  1.652608E+05  7.155362E+04  2.533563E+05 -1.655075E+04  6.183307E+03
       237  20  6.746622E+05  1.481003E+05  5.731961E+04  2.437381E+05 -1.129720E+04  7.249818E+03
       237  21  6.513503E+05  1.430483E+05  4.807130E+04  2.413553E+05 -5.909211E+03  7.960015E+03
       237  22  4.762024E+05  8.266460E+04  1.796008E+04  1.920239E+05 -1.705136E+04  5.994969E+03
       237  23  4.783268E+05  7.438417E+04  9.157651E+03  1.892574E+05 -1.208793E+04  6.951947E+03
       237  24  4.755659E+05  7.815578E+04  5.112468E+03  1.937260E+05 -6.989875E+03  7.552641E+03
       237  25  2.593054E+05  7.214372E+01 -3.563706E+04  1.307112E+05 -1.755177E+04  5.806707E+03
       237  26  2.820299E+05  6.709809E+02 -3.900710E+04  1.347925E+05 -1.287838E+04  6.654182E+03
       237  27  2.998128E+05  1.326552E+04 -3.784846E+04  1.461090E+05 -8.070200E+03  7.145391E+03
       238   1  6.317559E+05  1.370220E+05  4.213819E+04  2.365092E+05  5.017077E+03 -7.438566E+03
       238   2  6.140119E+05  1.251625E+05  3.522404E+04  2.265819E+05  3.489972E+03 -6.641021E+03
       238   3  5.893004E+05  1.208730E+05  2.919575E+04  2.248470E+05  1.957518E+03 -5.829990E+03
       238   4  4.753086E+05  7.859515E+04  3.902949E+03  1.933981E+05  5.984773E+03 -7.073719E+03
       238   5  4.787756E+05  7.467855E+04  2.121738E+03  1.893523E+05  4.468882E+03 -6.271834E+03
       238   6  4.752728E+05  7.833016E+04  1.217811E+03  1.934989E+05  2.947603E+03 -5.456476E+03
       238   7  3.188847E+05  2.016967E+04 -3.433434E+04  1.502967E+05  6.952209E+03 -6.708971E+03
       238   8  3.435569E+05  2.419577E+04 -3.098204E+04  1.521299E+05  5.447561E+03 -5.902735E+03
       238   9  3.612579E+05  3.578816E+04 -2.676112E+04  1.621559E+05  3.937489E+03 -5.083036E+03
       238  10  6.317558E+05  1.370220E+05  4.213804E+04  2.365092E+05 -1.035056E-08 -4.691436E-09
       238  11  6.140119E+05  1.251624E+05  3.522394E+04  2.265820E+05 -5.799705E-10  5.186898E-09
       238  12  5.893004E+05  1.208730E+05  2.919568E+04  2.248470E+05  9.926917E-09  7.628406E-09
       238  13  4.753086E+05  7.859509E+04  3.902788E+03  1.933981E+05  2.775123E-09 -2.733134E-09
       238  14  4.787756E+05  7.467850E+04  2.121626E+03  1.893523E+05 -4.612446E-09 -1.159069E-09
       238  15  4.752727E+05  7.833012E+04  1.217739E+03  1.934989E+05 -2.154618E-09  1.534741E-09
       238  16  3.188847E+05  2.016961E+04 -3.433452E+04  1.502967E+05  1.120376E-08  6.702600E-09
       238  17  3.435569E+05  2.419572E+04 -3.098216E+04  1.521300E+05 -5.816873E-09  4.473347E-09
       238  18  3.612579E+05  3.578813E+04 -2.676120E+04  1.621559E+05 -1.068415E-08  7.032360E-10
       238  19  6.317559E+05  1.370220E+05  4.213819E+04  2.365092E+05 -5.017077E+03  7.438566E+03
       238  20  6.140119E+05  1.251625E+05  3.522404E+04  2.265819E+05 -3.489972E+03  6.641021E+03
       238  21  5.893004E+05  1.208730E+05  2.919575E+04  2.248470E+05 -1.957518E+03  5.829990E+03
       238  22  4.753086E+05  7.859515E+04  3.902949E+03  1.933981E+05 -5.984773E+03  7.073719E+03
       238  23  4.787756E+05  7.467855E+04  2.121738E+03  1.893523E+05 -4.468882E+03  6.271834E+03
       238  24  4.752728E+05  7.833016E+04  1.217811E+03  1.934989E+05 -2.947603E+03  5.456476E+03
       238  25  3.188847E+05  2.016967E+04 -3.433434E+04  1.502967E+05 -6.952209E+03  6.708971E+03
       238  26  3.435569E+05  2.419577E+04 -3.098204E+04  1.521299E+05 -5.447561E+03  5.902735E+03
       238  27  3.612579E+05  3.578816E+04 -2.676112E+04  1.621559E+05 -3.937489E+03  5.083036E+03
       239   1  5.706071E+05  1.139410E+05  2.422053E+04  2.197318E+05  1.517227E+03 -5.185104E+03
       239   2  5.530520E+05  1.024535E+05  1.880100E+04  2.098226E+05  7.466410E+02 -4.088703E+03
       239   3  5.283505E+05  9.819232E+04  1.362006E+04  2.081013E+05 -2.374324E+01 -2.993183E+03
       239   4  4.752472E+05  7.834495E+04  9.526097E+02  1.934641E+05  2.500634E+03 -4.814058E+03
       239   5  4.788206E+05  7.472720E+04  6.284531E+02  1.893720E+05  1.729382E+03 -3.717850E+03
       239   6  4.752471E+05  7.833611E+04  5.434551E+02  1.934679E+05  9.583169E+02 -2.622525E+03
       239   7  3.798967E+05  4.274968E+04 -2.231587E+04  1.672001E+05  3.483871E+03 -4.443075E+03
       239   8  4.045945E+05  4.700133E+04 -1.754450E+04  1.689237E+05  2.711994E+03 -3.347046E+03
       239   9  4.221462E+05  5.848000E+04 -1.253343E+04  1.788355E+05  1.940290E+03 -2.251900E+03
       239  10  5.706071E+05  1.139410E+05  2.422048E+04  2.197318E+05 -1.012426E-08 -5.910321E-09
       239  11  5.530520E+05  1.024534E+05  1.880097E+04  2.098226E+05 -5.548695E-09 -5.299219E-09
       239  12  5.283505E+05  9.819231E+04  1.362004E+04  2.081013E+05  7.412177E-09 -1.858627E-09
       239  13  4.752472E+05  7.834492E+04  9.525544E+02  1.934641E+05 -2.532000E-09 -1.295452E-09
       239  14  4.788206E+05  7.472718E+04  6.284215E+02  1.893720E+05 -5.464962E-09 -2.164854E-09
       239  15  4.752471E+05  7.833610E+04  5.434404E+02  1.934679E+05 -2.210650E-09 -7.009874E-09
       239  16  3.798966E+05  4.274965E+04 -2.231593E+04  1.672001E+05  7.540538E-09  3.762151E-09
       239  17  4.045945E+05  4.700132E+04 -1.754454E+04  1.689237E+05 -1.568553E-09 -1.998931E-09
       239  18  4.221462E+05  5.847999E+04 -1.253344E+04  1.788355E+05 -1.041925E-08 -2.436483E-09
       239  19  5.706071E+05  1.139410E+05  2.422053E+04  2.197318E+05 -1.517227E+03  5.185104E+03
       239  20  5.530520E+05  1.024535E+05  1.880100E+04  2.098226E+05 -7.466410E+02  4.088703E+03
       239  21  5.283505E+05  9.819232E+04  1.362006E+04  2.081013E+05  2.374324E+01  2.993183E+03
       239  22  4.752472E+05  7.834495E+04  9.526097E+02  1.934641E+05 -2.500634E+03  4.814058E+03
       239  23  4.788206E+05  7.472720E+04  6.284531E+02  1.893720E+05 -1.729382E+03  3.717850E+03
       239  24  4.752471E+05  7.833611E+04  5.434551E+02  1.934679E+05 -9.583169E+02  2.622525E+03
       239  25  3.798967E+05  4.274968E+04 -2.231587E+04  1.672001E+05 -3.483871E+03  4.443075E+03
       239  26  4.045945E+05  4.700133E+04 -1.754450E+04  1.689237E+05 -2.711994E+03  3.347046E+03
       239  27  4.221462E+05  5.848000E+04 -1.253343E+04  1.788355E+05 -1.940290E+03  2.251900E+03
       240   1  5.097939E+05  9.123514E+04  8.955605E+03  2.030000E+05 -3.820269E+02 -2.322217E+03
       240   2  4.922766E+05  7.978181E+04  4.090132E+03  1.931082E+05 -1.232534E+03 -1.258955E+03
       240   3  4.676410E+05  7.554859E+04 -4.748577E+02  1.913858E+05 -2.082752E+03 -1.964216E+02
       240   4  4.752533E+05  7.833253E+04  5.722182E+02  1.934647E+05  5.991918E+02 -1.951854E+03
       240   5  4.788141E+05  7.473133E+04  7.903799E+02  1.893768E+05 -2.519245E+02 -8.888121E+02
       240   6  4.752559E+05  7.835027E+04  1.309486E+03  1.934580E+05 -1.102765E+03  1.734956E+02
       240   7  4.407139E+05  6.543000E+04 -7.811252E+03  1.839298E+05  1.580351E+03 -1.581512E+03
       240   8  4.653517E+05  6.968088E+04 -2.509373E+03  1.856454E+05  7.286595E+02 -5.186790E+02
       240   9  4.828709E+05  8.115195E+04  3.093820E+03  1.955303E+05 -1.227697E+02  5.434159E+02
       240  10  5.097939E+05  9.123513E+04  8.955595E+03  2.030000E+05  6.434641E-09  5.387581E-09
       240  11  4.922766E+05  7.978180E+04  4.090126E+03  1.931082E+05 -2.820538E-10 -3.018753E-09
       240  12  4.676409E+05  7.554859E+04 -4.748659E+02  1.913858E+05 -2.844783E-09 -1.878142E-09
       240  13  4.752533E+05  7.833252E+04  5.722104E+02  1.934647E+05  5.482868E-09  9.275777E-09
       240  14  4.788141E+05  7.473133E+04  7.903783E+02  1.893768E+05  1.191686E-09 -2.217178E-09
       240  15  4.752559E+05  7.835027E+04  1.309484E+03  1.934580E+05  8.421761E-10  5.375688E-10
       240  16  4.407139E+05  6.543000E+04 -7.811261E+03  1.839299E+05 -3.469998E-09 -1.393415E-09
       240  17  4.653517E+05  6.968088E+04 -2.509374E+03  1.856454E+05  3.390119E-09 -1.040160E-08
       240  18  4.828709E+05  8.115195E+04  3.093820E+03  1.955303E+05  3.169505E-09 -8.142550E-10
       240  19  5.097939E+05  9.123514E+04  8.955605E+03  2.030000E+05  3.820269E+02  2.322217E+03
       240  20  4.922766E+05  7.978181E+04  4.090132E+03  1.931082E+05  1.232534E+03  1.258955E+03
       240  21  4.676410E+05  7.554859E+04 -4.748577E+02  1.913858E+05  2.082752E+03  1.964216E+02
       240  22  4.752533E+05  7.833253E+04  5.722182E+02  1.934647E+05 -5.991918E+02  1.951854E+03
       240  23  4.788141E+05  7.473133E+04  7.903799E+02  1.893768E+05  2.519245E+02  8.888121E+02
       240  24  4.752559E+05  7.835027E+04  1.309486E+03  1.934580E+05  1.102765E+03 -1.734956E+02
       240  25  4.407139E+05  6.543000E+04 -7.811252E+03  1.839298E+05 -1.580351E+03  1.581512E+03
       240  26  4.653517E+05  6.968088E+04 -2.509373E+03  1.856454E+05 -7.286595E+02  5.186790E+02
       240  27  4.828709E+05  8.115195E+04  3.093820E+03  1.955303E+05  1.227697E+02 -5.434159E+02
       241   1  4.490884E+05  6.861385E+04 -4.767780E+03  1.863818E+05 -2.601877E+03  4.145860E+02
       241   2  4.314774E+05  5.706962E+04 -8.531450E+03  1.763879E+05 -4.568664E+03  1.054666E+03
       241   3  4.070474E+05  5.318894E+04 -1.104963E+04  1.745111E+05 -6.531378E+03  1.684317E+03
       241   4  4.753041E+05  7.831845E+04  1.707178E+03  1.934957E+05 -1.618172E+03  7.858983E+02
       241   5  4.787400E+05  7.468027E+04  3.033019E+03  1.893635E+05 -3.593550E+03  1.422699E+03
       241   6  4.753584E+05  7.870743E+04  5.611202E+03  1.933484E+05 -5.564907E+03  2.049052E+03
       241   7  5.015206E+05  8.802313E+04  8.182123E+03  2.006099E+05 -6.344173E+02  1.157229E+03
       241   8  5.260048E+05  9.229111E+04  1.459735E+04  2.023401E+05 -2.618353E+03  1.790763E+03
       241   9  5.436740E+05  1.042262E+05  2.227169E+04  2.121875E+05 -4.598319E+03  2.413831E+03
       241  10  4.490884E+05  6.861384E+04 -4.767793E+03  1.863818E+05 -1.291115E-08 -1.084164E-08
       241  11  4.314774E+05  5.706961E+04 -8.531491E+03  1.763879E+05 -9.646318E-09 -6.343902E-09
       241  12  4.070473E+05  5.318892E+04 -1.104971E+04  1.745111E+05 -7.121262E-11  4.509327E-09
       241  13  4.753041E+05  7.831844E+04  1.707172E+03  1.934957E+05 -1.367921E-09 -1.736828E-09
       241  14  4.787400E+05  7.468026E+04  3.032991E+03  1.893635E+05 -6.092607E-09  5.268619E-09
       241  15  4.753583E+05  7.870741E+04  5.611136E+03  1.933484E+05 -9.340570E-09 -8.943510E-09
       241  16  5.015206E+05  8.802313E+04  8.182119E+03  2.006099E+05  9.471733E-09  7.811631E-09
       241  17  5.260048E+05  9.229111E+04  1.459734E+04  2.023401E+05 -2.890508E-09  3.155026E-10
       241  18  5.436740E+05  1.042262E+05  2.227164E+04  2.121875E+05 -1.225397E-08 -9.969837E-09
       241  19  4.490884E+05  6.861385E+04 -4.767780E+03  1.863818E+05  2.601877E+03 -4.145860E+02
       241  20  4.314774E+05  5.706962E+04 -8.531450E+03  1.763879E+05  4.568664E+03 -1.054666E+03
       241  21  4.070474E+05  5.318894E+04 -1.104963E+04  1.745111E+05  6.531378E+03 -1.684317E+03
       241  22  4.753041E+05  7.831845E+04  1.707178E+03  1.934957E+05  1.618172E+03 -7.858983E+02
       241  23  4.787400E+05  7.468027E+04  3.033019E+03  1.893635E+05  3.593550E+03 -1.422699E+03
       241  24  4.753584E+05  7.870743E+04  5.611202E+03  1.933484E+05  5.564907E+03 -2.049052E+03
       241  25  5.015206E+05  8.802313E+04  8.182123E+03  2.006099E+05  6.344173E+02 -1.157229E+03
       241  26  5.260048E+05  9.229111E+04  1.459735E+04  2.023401E+05  2.618353E+03 -1.790763E+03
       241  27  5.436740E+05  1.042262E+05  2.227169E+04  2.121875E+05  4.598319E+03 -2.413831E+03
       242   1  3.880254E+05  4.638855E+04 -1.399005E+04  1.707809E+05 -7.923531E+03  1.996332E+03
       242   2  3.704385E+05  3.347987E+04 -1.328763E+04  1.589897E+05 -1.487972E+04  7.044664E+02
       242   3  3.490425E+05  3.461408E+04 -5.891790E+03  1.538777E+05 -2.174251E+04 -8.337684E+02
       242   4  4.757405E+05  7.806422E+04  7.357872E+03  1.938094E+05 -6.879712E+03  2.390231E+03
       242   5  4.780865E+05  7.427619E+04  1.319532E+04  1.892415E+05 -1.403659E+04  1.022516E+03
       242   6  4.766620E+05  8.456964E+04  2.588416E+04  1.913525E+05 -2.110033E+04 -5.916836E+02
       242   7  5.634629E+05  1.097401E+05  2.870511E+04  2.168406E+05 -5.835737E+03  2.784185E+03
       242   8  5.857460E+05  1.150734E+05  3.967738E+04  2.194981E+05 -1.319330E+04  1.340628E+03
       242   9  6.042982E+05  1.345270E+05  5.765900E+04  2.288347E+05 -2.045800E+04 -3.495374E+02
       242  10  3.880253E+05  4.638853E+04 -1.399017E+04  1.707810E+05 -7.296799E-10  7.693047E-09
       242  11  3.704383E+05  3.347981E+04 -1.328804E+04  1.589897E+05 -1.648248E-09  6.481703E-09
       242  12  3.490420E+05  3.461395E+04 -5.892679E+03  1.538777E+05  8.658554E-10  1.040019E-10
       242  13  4.757405E+05  7.806420E+04  7.357773E+03  1.938094E+05 -7.063805E-09 -9.680536E-09
       242  14  4.780863E+05  7.427613E+04  1.319494E+04  1.892415E+05 -5.757952E-09  6.414201E-10
       242  15  4.766616E+05  8.456952E+04  2.588332E+04  1.913525E+05 -2.571199E-09 -8.668011E-11
       242  16  5.634628E+05  1.097401E+05  2.870503E+04  2.168406E+05 -2.211273E-09 -5.365307E-09
       242  17  5.857458E+05  1.150733E+05  3.967705E+04  2.194982E+05 -3.355617E-09  1.486721E-09
       242  18  6.042978E+05  1.345269E+05  5.765821E+04  2.288347E+05 -4.796435E-09  2.286584E-09
       242  19  3.880254E+05  4.638855E+04 -1.399005E+04  1.707809E+05  7.923531E+03 -1.996332E+03
       242  20  3.704385E+05  3.347987E+04 -1.328763E+04  1.589897E+05  1.487972E+04 -7.044664E+02
       242  21  3.490425E+05  3.461408E+04 -5.891790E+03  1.538777E+05  2.174251E+04  8.337684E+02
       242  22  4.757405E+05  7.806422E+04  7.357872E+03  1.938094E+05  6.879712E+03 -2.390231E+03
       242  23  4.780865E+05  7.427619E+04  1.319532E+04  1.892415E+05  1.403659E+04 -1.022516E+03
       242  24  4.766620E+05  8.456964E+04  2.588416E+04  1.913525E+05  2.110033E+04  5.916836E+02
       242  25  5.634629E+05  1.097401E+05  2.870511E+04  2.168406E+05  5.835737E+03 -2.784185E+03
       242  26  5.857460E+05  1.150734E+05  3.967738E+04  2.194981E+05  1.319330E+04 -1.340628E+03
       242  27  6.042982E+05  1.345270E+05  5.765900E+04  2.288347E+05  2.045800E+04  3.495374E+02
       243   1  3.222117E+05  2.941944E+04 -3.655350E+03  1.689847E+05 -2.810717E+04 -1.770503E+03
       243   2  3.118982E+05 -3.870640E+03  1.492352E+04  1.292426E+05 -5.432279E+04 -1.149937E+04
       243   3  3.359718E+05  7.092750E+04  8.065848E+04  7.141271E+04 -7.848847E+04 -2.666042E+04
       243   4  4.808516E+05  7.412598E+04  3.253263E+04  1.977410E+05 -2.579982E+04 -8.994438E+02
       243   5  4.703685E+05  6.994683E+04  5.682017E+04  1.878109E+05 -5.642161E+04 -1.229270E+04
       243   6  4.951310E+05  1.747070E+05  1.317447E+05  1.597962E+05 -8.499373E+04 -2.912043E+04
       243   7  6.395169E+05  1.188323E+05  6.871923E+04  2.265028E+05 -2.349181E+04 -2.827468E+01
       243   8  6.288630E+05  1.437698E+05  9.871441E+04  2.463937E+05 -5.852100E+04 -1.308638E+04
       243   9  6.543170E+05  2.785058E+05  1.828282E+05  2.482037E+05 -9.150068E+04 -3.158223E+04
       243  10  3.222109E+05  2.941922E+04 -3.656839E+03  1.689846E+05  2.762054E-09 -1.305099E-09
       243  11  3.118950E+05 -3.871573E+03  1.491773E+04  1.292421E+05  7.084352E-09 -3.067866E-09
       243  12  3.359650E+05  7.092508E+04  8.064558E+04  7.141102E+04  2.534485E-09  2.132024E-11
       243  13  4.808508E+05  7.412580E+04  3.253138E+04  1.977410E+05  2.183144E-09  6.997895E-10
       243  14  4.703650E+05  6.994581E+04  5.681391E+04  1.878103E+05  3.259593E-09 -5.963720E-09
       243  15  4.951230E+05  1.747041E+05  1.317296E+05  1.597943E+05  4.178861E-10  5.029039E-09
       243  16  6.395163E+05  1.188321E+05  6.871819E+04  2.265028E+05 -3.573710E-09 -4.149617E-11
       243  17  6.288593E+05  1.437687E+05  9.870766E+04  2.463931E+05  4.475002E-09 -2.787326E-09
       243  18  6.543078E+05  2.785025E+05  1.828106E+05  2.482014E+05  1.904117E-09  1.405213E-09
       243  19  3.222117E+05  2.941944E+04 -3.655350E+03  1.689847E+05  2.810717E+04  1.770503E+03
       243  20  3.118982E+05 -3.870640E+03  1.492352E+04  1.292426E+05  5.432279E+04  1.149937E+04
       243  21  3.359718E+05  7.092750E+04  8.065848E+04  7.141271E+04  7.848847E+04  2.666042E+04
       243  22  4.808516E+05  7.412598E+04  3.253263E+04  1.977410E+05  2.579982E+04  8.994438E+02
       243  23  4.703685E+05  6.994683E+04  5.682017E+04  1.878109E+05  5.642161E+04  1.229270E+04
       243  24  4.951310E+05  1.747070E+05  1.317447E+05  1.597962E+05  8.499373E+04  2.912043E+04
       243  25  6.395169E+05  1.188323E+05  6.871923E+04  2.265028E+05  2.349181E+04  2.827468E+01
       243  26  6.288630E+05  1.437698E+05  9.871441E+04  2.463937E+05  5.852100E+04  1.308638E+04
       243  27  6.543170E+05  2.785058E+05  1.828282E+05  2.482037E+05  9.150068E+04  3.158223E+04
       244   1 -1.155049E+05 -6.588447E+05 -1.176494E+05  8.846391E+04 -3.890117E+03 -2.173733E+04
       244   2 -6.237681E+04 -5.165197E+05 -6.919585E+04  4.860168E+04 -1.009522E+04 -8.156971E+03
       244   3 -2.854577E+04 -3.805311E+05 -3.437488E+04  7.885826E+04 -5.045473E+03  5.439497E+03
       244   4 -1.662483E+04 -2.621032E+05 -2.030267E+04  8.118478E+04 -3.899721E+03 -1.295659E+04
       244   5  8.984683E+02 -2.596430E+05 -9.840518E+03  4.613551E+04 -1.009535E+04 -7.739974E+03
       244   6  5.833013E+02 -2.620819E+05 -7.194437E+03  8.120442E+04 -5.037991E+03 -2.510465E+03
       244   7  8.224379E+04  1.347819E+05  7.703278E+04  7.390102E+04 -3.909528E+03 -4.170242E+03
       244   8  6.416914E+04 -2.705226E+03  4.951041E+04  4.366834E+04 -1.009548E+04 -7.322806E+03
       244   9  2.971145E+04 -1.436196E+05  1.998532E+04  8.355103E+04 -5.030569E+03 -1.046193E+04
       244  10 -1.155050E+05 -6.588452E+05 -1.176503E+05  8.846384E+04  2.882883E-09  4.635521E-09
       244  11 -6.237694E+04 -5.165198E+05 -6.919616E+04  4.860161E+04  2.534245E-09  8.380495E-09
       244  12 -2.854580E+04 -3.805312E+05 -3.437498E+04  7.885828E+04  3.473217E-09  5.030620E-09
       244  13 -1.662489E+04 -2.621034E+05 -2.030302E+04  8.118474E+04  2.963302E-09  1.131205E-09
       244  14  8.983428E+02 -2.596431E+05 -9.840822E+03  4.613545E+04 -3.827487E-09 -8.601694E-11
       244  15  5.832723E+02 -2.620820E+05 -7.194497E+03  8.120441E+04 -5.832561E-10 -2.779946E-10
       244  16  8.224377E+04  1.347819E+05  7.703271E+04  7.390101E+04  2.927097E-09 -6.787473E-09
       244  17  6.416901E+04 -2.705311E+03  4.951012E+04  4.366828E+04  7.488899E-09 -5.236092E-09
       244  18  2.971139E+04 -1.436197E+05  1.998507E+04  8.355099E+04  1.314133E-09 -7.086619E-09
       244  19 -1.155049E+05 -6.588447E+05 -1.176494E+05  8.846391E+04  3.890117E+03  2.173733E+04
       244  20 -6.237681E+04 -5.165197E+05 -6.919585E+04  4.860168E+04  1.009522E+04  8.156971E+03
       244  21 -2.854577E+04 -3.805311E+05 -3.437488E+04  7.885826E+04  5.045473E+03 -5.439497E+03
       244  22 -1.662483E+04 -2.621032E+05 -2.030267E+04  8.118478E+04  3.899721E+03  1.295659E+04
       244  23  8.984683E+02 -2.596430E+05 -9.840518E+03  4.613551E+04  1.009535E+04  7.739974E+03
       244  24  5.833013E+02 -2.620819E+05 -7.194437E+03  8.120442E+04  5.037991E+03  2.510465E+03
       244  25  8.224379E+04  1.347819E+05  7.703278E+04  7.390102E+04  3.909528E+03  4.170242E+03
       244  26  6.416914E+04 -2.705226E+03  4.951041E+04  4.366834E+04  1.009548E+04  7.322806E+03
       244  27  2.971145E+04 -1.436196E+05  1.998532E+04  8.355103E+04  5.030569E+03  1.046193E+04
       245   1  1.676988E+03 -2.495167E+05 -4.008786E+03  8.207632E+04  4.197755E+02  3.410935E+03
       245   2  3.723275E+04 -1.098232E+05  2.796627E+04  4.581866E+04  6.634179E+03  6.456880E+03
       245   3  6.895341E+04  2.874460E+04  5.704248E+04  8.008374E+04  1.249229E+04  9.504565E+03
       245   4 -1.215514E+03 -2.612547E+05 -6.738889E+03  8.128902E+04  4.241348E+02 -1.346144E+03
       245   5  1.575869E+02 -2.606654E+05 -6.535510E+03  4.602641E+04  6.638818E+03  1.963878E+03
       245   6 -2.349570E+03 -2.612663E+05 -9.413985E+03  8.128781E+04  1.249711E+04  5.274976E+03
       245   7 -4.108012E+03 -2.729926E+05 -9.468916E+03  8.050173E+04  4.285063E+02 -6.103134E+03
       245   8 -3.691915E+04 -4.114866E+05 -4.103871E+04  4.623411E+04  6.643455E+03 -2.528041E+03
       245   9 -7.365839E+04 -5.511992E+05 -7.587592E+04  8.249134E+04  1.250192E+04  1.047346E+03
       245  10  1.676985E+03 -2.495168E+05 -4.008808E+03  8.207632E+04  1.577432E-09  1.682642E-08
       245  11  3.723269E+04 -1.098232E+05  2.796611E+04  4.581863E+04  4.192820E-09  5.924770E-09
       245  12  6.895322E+04  2.874446E+04  5.704202E+04  8.008364E+04  2.596626E-09 -7.104098E-09
       245  13 -1.215515E+03 -2.612548E+05 -6.738893E+03  8.128902E+04 -5.793950E-09  1.090408E-09
       245  14  1.575386E+02 -2.606655E+05 -6.535600E+03  4.602640E+04 -3.884256E-10 -2.604076E-09
       245  15 -2.349745E+03 -2.612664E+05 -9.414331E+03  8.128776E+04 -6.555993E-09 -2.103434E-09
       245  16 -4.108022E+03 -2.729926E+05 -9.468987E+03  8.050173E+04 -2.538072E-09 -1.735713E-08
       245  17 -3.691920E+04 -4.114866E+05 -4.103880E+04  4.623412E+04  3.090364E-09 -8.981145E-09
       245  18 -7.365856E+04 -5.511993E+05 -7.587621E+04  8.249133E+04  6.962359E-09  6.739006E-09
       245  19  1.676988E+03 -2.495167E+05 -4.008786E+03  8.207632E+04 -4.197755E+02 -3.410935E+03
       245  20  3.723275E+04 -1.098232E+05  2.796627E+04  4.581866E+04 -6.634179E+03 -6.456880E+03
       245  21  6.895341E+04  2.874460E+04  5.704248E+04  8.008374E+04 -1.249229E+04 -9.504565E+03
       245  22 -1.215514E+03 -2.612547E+05 -6.738889E+03  8.128902E+04 -4.241348E+02  1.346144E+03
       245  23  1.575869E+02 -2.606654E+05 -6.535510E+03  4.602641E+04 -6.638818E+03 -1.963878E+03
       245  24 -2.349570E+03 -2.612663E+05 -9.413985E+03  8.128781E+04 -1.249711E+04 -5.274976E+03
       245  25 -4.108012E+03 -2.729926E+05 -9.468916E+03  8.050173E+04 -4.285063E+02  6.103134E+03
       245  26 -3.691915E+04 -4.114866E+05 -4.103871E+04  4.623411E+04 -6.643455E+03  2.528041E+03
       245  27 -7.365839E+04 -5.511992E+05 -7.587592E+04  8.249134E+04 -1.250192E+04 -1.047346E+03
       246   1  1.046339E+05  1.572592E+05  8.490646E+04  8.530312E+04  1.874234E+04  1.675982E+04
       246   2  1.390482E+05  2.996736E+05  1.112532E+05  4.145461E+04  2.258794E+04  1.214378E+04
       246   3  1.428600E+05  4.354824E+05  1.330421E+05  6.732565E+04  7.795128E+03  7.498150E+03
       246   4  1.387006E+03 -2.630319E+05 -1.108130E+04  8.112490E+04  1.875413E+04  6.961948E+03
       246   5  1.676935E+03 -2.585356E+05 -1.734739E+04  4.623813E+04  2.258382E+04  1.621204E+04
       246   6 -3.105692E+04 -2.630775E+05 -3.780671E+04  8.107643E+04  7.767496E+03  2.543319E+04
       246   7 -1.018720E+05 -6.831589E+05 -1.070802E+05  7.694957E+04  1.876606E+04 -2.829347E+03
       246   8 -1.357160E+05 -8.164566E+05 -1.459686E+05  5.101741E+04  2.257975E+04  2.027667E+04
       246   9 -2.050091E+05 -9.611917E+05 -2.086899E+05  9.481186E+04  7.740644E+03  4.334810E+04
       246  10  1.046334E+05  1.572588E+05  8.490527E+04  8.530287E+04  2.572970E-09 -1.626590E-09
       246  11  1.390476E+05  2.996733E+05  1.112519E+05  4.145439E+04  4.864824E-09  5.620918E-10
       246  12  1.428599E+05  4.354823E+05  1.330419E+05  6.732560E+04 -1.623845E-09 -8.051740E-09
       246  13  1.386615E+03 -2.630320E+05 -1.108206E+04  8.112480E+04 -5.552301E-09 -4.949317E-11
       246  14  1.676317E+03 -2.585361E+05 -1.734884E+04  4.623783E+04 -4.533149E-09  5.939714E-10
       246  15 -3.105715E+04 -2.630782E+05 -3.780804E+04  8.107627E+04 -3.953187E-11 -3.528604E-10
       246  16 -1.018724E+05 -6.831590E+05 -1.070809E+05  7.694961E+04  5.299768E-09  1.139828E-09
       246  17 -1.357167E+05 -8.164571E+05 -1.459703E+05  5.101704E+04  4.420703E-09  4.937081E-09
       246  18 -2.050097E+05 -9.611937E+05 -2.086935E+05  9.481158E+04  1.270617E-11  5.531805E-09
       246  19  1.046339E+05  1.572592E+05  8.490646E+04  8.530312E+04 -1.874234E+04 -1.675982E+04
       246  20  1.390482E+05  2.996736E+05  1.112532E+05  4.145461E+04 -2.258794E+04 -1.214378E+04
       246  21  1.428600E+05  4.354824E+05  1.330421E+05  6.732565E+04 -7.795128E+03 -7.498150E+03
       246  22  1.387006E+03 -2.630319E+05 -1.108130E+04  8.112490E+04 -1.875413E+04 -6.961948E+03
       246  23  1.676935E+03 -2.585356E+05 -1.734739E+04  4.623813E+04 -2.258382E+04 -1.621204E+04
       246  24 -3.105692E+04 -2.630775E+05 -3.780671E+04  8.107643E+04 -7.767496E+03 -2.543319E+04
       246  25 -1.018720E+05 -6.831589E+05 -1.070802E+05  7.694957E+04 -1.876606E+04  2.829347E+03
       246  26 -1.357160E+05 -8.164566E+05 -1.459686E+05  5.101741E+04 -2.257975E+04 -2.027667E+04
       246  27 -2.050091E+05 -9.611917E+05 -2.086899E+05  9.481186E+04 -7.740644E+03 -4.334810E+04
       247   1  2.432197E+05  1.373754E+05  1.246337E+05  3.258995E+04  2.428540E+04 -9.859830E+03
       247   2  1.886304E+05  1.466799E+05  1.060277E+05  3.948096E+04  6.321416E+03 -3.295516E+04
       247   3  1.321965E+05  1.391432E+05  9.492233E+04  5.780797E+04 -1.165202E+04 -3.921535E+04
       247   4 -4.628114E+05 -3.694275E+04 -4.107776E+04  5.519689E+04 -2.862721E+04 -9.904629E+03
       247   5 -4.594132E+05 -8.117605E+03 -1.994918E+04  4.946055E+04 -1.830159E+04 -3.298158E+04
       247   6 -4.627806E+05 -1.056460E+03 -1.097111E+04  5.516108E+04 -7.987298E+03 -3.921463E+04
       247   7 -1.168376E+06 -2.112930E+05 -2.068126E+05  7.777787E+04 -8.148002E+04 -9.953310E+03
       247   8 -1.107052E+06 -1.629396E+05 -1.459436E+05  5.942939E+04 -4.289947E+04 -3.300882E+04
       247   9 -1.057412E+06 -1.412757E+05 -1.168778E+05  5.251668E+04 -4.325981E+03 -3.921394E+04
       247  10  2.432191E+05  1.373752E+05  1.246324E+05  3.259014E+04  1.170434E-09  2.944579E-10
       247  11  1.886300E+05  1.466788E+05  1.060256E+05  3.948113E+04  1.406356E-09  3.177179E-11
       247  12  1.321959E+05  1.391415E+05  9.491919E+04  5.780760E+04  6.159734E-11  2.824757E-10
       247  13 -4.628123E+05 -3.694308E+04 -4.107948E+04  5.519666E+04 -1.914819E-09  8.779035E-10
       247  14 -4.594139E+05 -8.118863E+03 -1.995185E+04  4.946007E+04 -3.705805E-09  4.297623E-10
       247  15 -4.627811E+05 -1.058128E+03 -1.097412E+04  5.516082E+04  4.678445E-10  1.636336E-09
       247  16 -1.168384E+06 -2.112949E+05 -2.068252E+05  7.777721E+04 -1.039426E-09  5.268175E-10
       247  17 -1.107054E+06 -1.629412E+05 -1.459491E+05  5.942825E+04 -2.261243E-09 -1.851462E-09
       247  18 -1.057412E+06 -1.412773E+05 -1.168807E+05  5.251655E+04 -1.503949E-09 -1.616514E-09
       247  19  2.432197E+05  1.373754E+05  1.246337E+05  3.258995E+04 -2.428540E+04  9.859830E+03
       247  20  1.886304E+05  1.466799E+05  1.060277E+05  3.948096E+04 -6.321416E+03  3.295516E+04
       247  21  1.321965E+05  1.391432E+05  9.492233E+04  5.780797E+04  1.165202E+04  3.921535E+04
       247  22 -4.628114E+05 -3.694275E+04 -4.107776E+04  5.519689E+04  2.862721E+04  9.904629E+03
       247  23 -4.594132E+05 -8.117605E+03 -1.994918E+04  4.946055E+04  1.830159E+04  3.298158E+04
       247  24 -4.627806E+05 -1.056460E+03 -1.097111E+04  5.516108E+04  7.987298E+03  3.921463E+04
       247  25 -1.168376E+06 -2.112930E+05 -2.068126E+05  7.777787E+04  8.148002E+04  9.953310E+03
       247  26 -1.107052E+06 -1.629396E+05 -1.459436E+05  5.942939E+04  4.289947E+04  3.300882E+04
       247  27 -1.057412E+06 -1.412757E+05 -1.168778E+05  5.251668E+04  4.325981E+03  3.921394E+04
       248   1  9.659350E+04  1.296884E+05  9.002510E+04  5.522329E+04 -8.306782E+03 -3.762680E+04
       248   2  4.118109E+04  1.175786E+05  8.180766E+04  4.940313E+04 -8.529848E+03 -3.584044E+04
       248   3 -1.437727E+04  1.047942E+05  7.356567E+04  5.613558E+04 -8.755747E+03 -3.255404E+04
       248   4 -4.614000E+05 -1.605932E+03 -8.356049E+03  5.541376E+04 -6.560739E+03 -3.762779E+04
       248   5 -4.610974E+05 -1.809498E+02 -4.601333E+03  4.913601E+04 -4.265101E+03 -3.583778E+04
       248   6 -4.613807E+05  1.318955E+02 -2.621210E+03  5.541153E+04 -1.972272E+03 -3.254712E+04
       248   7 -1.019089E+06 -1.329174E+05 -1.067486E+05  5.560395E+04 -4.816218E+03 -3.762878E+04
       248   8 -9.631279E+05 -1.179540E+05 -9.101883E+04  4.886903E+04 -3.695497E+00 -3.583512E+04
       248   9 -9.081875E+05 -1.045410E+05 -7.881450E+04  5.468794E+04  4.806475E+03 -3.254021E+04
       248  10  9.659305E+04  1.296869E+05  9.002231E+04  5.522304E+04  1.107903E-09 -8.344537E-10
       248  11  4.118066E+04  1.175772E+05  8.180511E+04  4.940288E+04  3.170930E-09  1.193763E-09
       248  12 -1.437764E+04  1.047930E+05  7.356353E+04  5.613535E+04  9.399628E-10  1.558493E-09
       248  13 -4.614004E+05 -1.607464E+03 -8.358790E+03  5.541356E+04 -1.585284E-09 -8.206071E-10
       248  14 -4.610977E+05 -1.823335E+02 -4.603780E+03  4.913588E+04  1.536501E-09 -2.720732E-10
       248  15 -4.613810E+05  1.307572E+02 -2.623208E+03  5.541148E+04 -8.540116E-10 -1.941497E-09
       248  16 -1.019089E+06 -1.329189E+05 -1.067513E+05  5.560381E+04  9.402118E-10  2.721775E-10
       248  17 -9.631283E+05 -1.179554E+05 -9.102124E+04  4.886903E+04 -2.955710E-09  4.752292E-11
       248  18 -9.081878E+05 -1.045421E+05 -7.881653E+04  5.468807E+04 -1.330230E-09 -7.039730E-10
       248  19  9.659350E+04  1.296884E+05  9.002510E+04  5.522329E+04  8.306782E+03  3.762680E+04
       248  20  4.118109E+04  1.175786E+05  8.180766E+04  4.940313E+04  8.529848E+03  3.584044E+04
       248  21 -1.437727E+04  1.047942E+05  7.356567E+04  5.613558E+04  8.755747E+03  3.255404E+04
       248  22 -4.614000E+05 -1.605932E+03 -8.356049E+03  5.541376E+04  6.560739E+03  3.762779E+04
       248  23 -4.610974E+05 -1.809498E+02 -4.601333E+03  4.913601E+04  4.265101E+03  3.583778E+04
       248  24 -4.613807E+05  1.318955E+02 -2.621210E+03  5.541153E+04  1.972272E+03  3.254712E+04
       248  25 -1.019089E+06 -1.329174E+05 -1.067486E+05  5.560395E+04  4.816218E+03  3.762878E+04
       248  26 -9.631279E+05 -1.179540E+05 -9.101883E+04  4.886903E+04  3.695497E+00  3.583512E+04
       248  27 -9.081875E+05 -1.045410E+05 -7.881450E+04  5.468794E+04 -4.806475E+03  3.254021E+04
       249   1 -5.055692E+04  9.620773E+04  6.772272E+04  5.596159E+04 -8.187684E+03 -3.017499E+04
       249   2 -1.060900E+05  8.323131E+04  5.905625E+04  4.956123E+04 -7.854089E+03 -2.616928E+04
       249   3 -1.616883E+05  7.027221E+04  5.016895E+04  5.583002E+04 -7.521764E+03 -2.202833E+04
       249   4 -4.612684E+05  9.874036E+01 -1.992591E+03  5.543770E+04 -1.571955E+03 -3.016768E+04
       249   5 -4.612079E+05  1.454233E+02 -1.140946E+03  4.910287E+04 -1.011771E+03 -2.616080E+04
       249   6 -4.612552E+05  1.701242E+02 -6.678373E+02  5.543760E+04 -4.528284E+02 -2.201862E+04
       249   7 -8.718138E+05 -9.601915E+04 -7.171322E+04  5.491411E+04  5.039538E+03 -3.016038E+04
       249   8 -8.162015E+05 -8.294711E+04 -6.134205E+04  4.864473E+04  5.826759E+03 -2.615232E+04
       249   9 -7.607336E+05 -6.993668E+04 -5.150735E+04  5.504534E+04  6.612804E+03 -2.200893E+04
       249  10 -5.055724E+04  9.620673E+04  6.772088E+04  5.596139E+04 -2.601828E-10  2.106688E-09
       249  11 -1.060902E+05  8.323056E+04  5.905485E+04  4.956107E+04 -6.624014E-10  1.019845E-09
       249  12 -1.616885E+05  7.027167E+04  5.016793E+04  5.582988E+04  4.963013E-09 -6.378769E-10
       249  13 -4.612687E+05  9.776263E+01 -1.994305E+03  5.543766E+04 -3.281244E-09 -2.143378E-09
       249  14 -4.612081E+05  1.446883E+02 -1.142234E+03  4.910285E+04 -1.809722E-09  1.223649E-09
       249  15 -4.612553E+05  1.696036E+02 -6.687485E+02  5.543759E+04  3.688848E-10  2.978591E-09
       249  16 -8.718140E+05 -9.602014E+04 -7.171497E+04  5.491423E+04  2.021383E-09  7.619808E-10
       249  17 -8.162017E+05 -8.294785E+04 -6.134340E+04  4.864485E+04 -1.882027E-09  2.242153E-09
       249  18 -7.607338E+05 -6.993721E+04 -5.150834E+04  5.504546E+04 -5.032476E-09  7.816530E-10
       249  19 -5.055692E+04  9.620773E+04  6.772272E+04  5.596159E+04  8.187684E+03  3.017499E+04
       249  20 -1.060900E+05  8.323131E+04  5.905625E+04  4.956123E+04  7.854089E+03  2.616928E+04
       249  21 -1.616883E+05  7.027221E+04  5.016895E+04  5.583002E+04  7.521764E+03  2.202833E+04
       249  22 -4.612684E+05  9.874036E+01 -1.992591E+03  5.543770E+04  1.571955E+03  3.016768E+04
       249  23 -4.612079E+05  1.454233E+02 -1.140946E+03  4.910287E+04  1.011771E+03  2.616080E+04
       249  24 -4.612552E+05  1.701242E+02 -6.678373E+02  5.543760E+04  4.528284E+02  2.201862E+04
       249  25 -8.718138E+05 -9.601915E+04 -7.171322E+04  5.491411E+04 -5.039538E+03  3.016038E+04
       249  26 -8.162015E+05 -8.294711E+04 -6.134205E+04  4.864473E+04 -5.826759E+03  2.615232E+04
       249  27 -7.607336E+05 -6.993668E+04 -5.150735E+04  5.504534E+04 -6.612804E+03  2.200893E+04
       250   1 -1.979439E+05  6.173941E+04  4.393055E+04  5.578241E+04 -7.404995E+03 -1.957601E+04
       250   2 -2.535439E+05  4.873592E+04  3.480938E+04  4.936162E+04 -7.268070E+03 -1.536871E+04
       250   3 -3.091906E+05  3.577198E+04  2.559716E+04  5.563221E+04 -7.131812E+03 -1.114894E+04
       250   4 -4.612393E+05  1.705147E+02 -5.189385E+02  5.544252E+04 -3.490265E+02 -1.956590E+04
       250   5 -4.612084E+05  1.579140E+02 -3.307120E+02  4.909670E+04 -1.915685E+02 -1.535805E+04
       250   6 -4.612316E+05  1.811728E+02 -2.482116E+02  5.544252E+04 -3.476632E+01 -1.113772E+04
       250   7 -7.244663E+05 -6.140201E+04 -4.497045E+04  5.510276E+04  6.704046E+03 -1.955580E+04
       250   8 -6.688302E+05 -4.842234E+04 -3.547201E+04  4.883187E+04  6.882641E+03 -1.534740E+04
       250   9 -6.132497E+05 -3.541083E+04 -2.609415E+04  5.525286E+04  7.060596E+03 -1.112651E+04
       250  10 -1.979440E+05  6.173899E+04  4.392973E+04  5.578230E+04  1.342496E-08  5.089638E-10
       250  11 -2.535440E+05  4.873565E+04  3.480884E+04  4.936153E+04 -5.496532E-09  4.255932E-09
       250  12 -3.091907E+05  3.577183E+04  2.559683E+04  5.563215E+04 -1.938758E-08  1.454657E-09
       250  13 -4.612394E+05  1.701037E+02 -5.196579E+02  5.544252E+04  7.757871E-10  1.695379E-09
       250  14 -4.612084E+05  1.576608E+02 -3.311553E+02  4.909670E+04  1.024196E-09  7.800748E-09
       250  15 -4.612316E+05  1.810396E+02 -2.484447E+02  5.544252E+04 -2.352076E-09  6.866583E-09
       250  16 -7.244664E+05 -6.140243E+04 -4.497125E+04  5.510286E+04 -1.161731E-08  2.162149E-10
       250  17 -6.688303E+05 -4.842261E+04 -3.547254E+04  4.883195E+04  3.006536E-09 -1.295715E-09
       250  18 -6.132498E+05 -3.541097E+04 -2.609447E+04  5.525293E+04  1.772828E-08 -3.349212E-09
       250  19 -1.979439E+05  6.173941E+04  4.393055E+04  5.578241E+04  7.404995E+03  1.957601E+04
       250  20 -2.535439E+05  4.873592E+04  3.480938E+04  4.936162E+04  7.268070E+03  1.536871E+04
       250  21 -3.091906E+05  3.577198E+04  2.559716E+04  5.563221E+04  7.131812E+03  1.114894E+04
       250  22 -4.612393E+05  1.705147E+02 -5.189385E+02  5.544252E+04  3.490265E+02  1.956590E+04
       250  23 -4.612084E+05  1.579140E+02 -3.307120E+02  4.909670E+04  1.915685E+02  1.535805E+04
       250  24 -4.612316E+05  1.811728E+02 -2.482116E+02  5.544252E+04  3.476632E+01  1.113772E+04
       250  25 -7.244663E+05 -6.140201E+04 -4.497045E+04  5.510276E+04 -6.704046E+03  1.955580E+04
       250  26 -6.688302E+05 -4.842234E+04 -3.547201E+04  4.883187E+04 -6.882641E+03  1.534740E+04
       250  27 -6.132497E+05 -3.541083E+04 -2.609415E+04  5.525286E+04 -7.060596E+03  1.112651E+04
       251   1 -3.454818E+05  2.723591E+04  1.922239E+04  5.558625E+04 -7.091958E+03 -8.688516E+03
       251   2 -4.011023E+05  1.422735E+04  9.889586E+03  4.915536E+04 -6.953946E+03 -4.464788E+03
       251   3 -4.567785E+05  1.253967E+03  4.615867E+02  5.542460E+04 -6.816119E+03 -2.471326E+02
       251   4 -4.612302E+05  1.834314E+02 -2.376342E+02  5.544442E+04  5.505913E+00 -8.677097E+03
       251   5 -4.612009E+05  1.694123E+02 -2.716287E+02  4.909431E+04  1.330578E+02 -4.453235E+03
       251   6 -4.612279E+05  1.927125E+02 -3.934286E+02  5.544441E+04  2.604365E+02 -2.354435E+02
       251   7 -5.769652E+05 -2.686972E+04 -1.969789E+04  5.530261E+04  7.101690E+03 -8.665679E+03
       251   8 -5.212960E+05 -1.388869E+04 -1.043277E+04  4.903327E+04  7.219398E+03 -4.441683E+03
       251   9 -4.656773E+05 -8.685165E+02 -1.248257E+03  5.546422E+04  7.336943E+03 -2.237540E+02
       251  10 -3.454819E+05  2.723581E+04  1.922215E+04  5.558620E+04  2.559200E-08 -2.003282E-09
       251  11 -4.011023E+05  1.422732E+04  9.889458E+03  4.915533E+04  5.771929E-09 -3.087428E-09
       251  12 -4.567785E+05  1.253955E+03  4.614992E+02  5.542460E+04 -1.801171E-08 -1.113521E-09
       251  13 -4.612302E+05  1.833506E+02 -2.377756E+02  5.544442E+04  4.877836E-10  9.777745E-09
       251  14 -4.612010E+05  1.693910E+02 -2.716660E+02  4.909431E+04 -2.067539E-09  3.148868E-09
       251  15 -4.612279E+05  1.927124E+02 -3.934289E+02  5.544441E+04 -1.270924E-09 -1.728655E-09
       251  16 -5.769653E+05 -2.686982E+04 -1.969812E+04  5.530266E+04 -2.234098E-08 -1.652257E-09
       251  17 -5.212960E+05 -1.388873E+04 -1.043291E+04  4.903330E+04 -6.973081E-09 -3.687718E-09
       251  18 -4.656773E+05 -8.685310E+02 -1.248358E+03  5.546422E+04  1.533811E-08 -2.468049E-09
       251  19 -3.454818E+05  2.723591E+04  1.922239E+04  5.558625E+04  7.091958E+03  8.688516E+03
       251  20 -4.011023E+05  1.422735E+04  9.889586E+03  4.915536E+04  6.953946E+03  4.464788E+03
       251  21 -4.567785E+05  1.253967E+03  4.615867E+02  5.542460E+04  6.816119E+03  2.471326E+02
       251  22 -4.612302E+05  1.834314E+02 -2.376342E+02  5.544442E+04 -5.505913E+00  8.677097E+03
       251  23 -4.612009E+05  1.694123E+02 -2.716287E+02  4.909431E+04 -1.330578E+02  4.453235E+03
       251  24 -4.612279E+05  1.927125E+02 -3.934286E+02  5.544441E+04 -2.604365E+02  2.354435E+02
       251  25 -5.769652E+05 -2.686972E+04 -1.969789E+04  5.530261E+04 -7.101690E+03  8.665679E+03
       251  26 -5.212960E+05 -1.388869E+04 -1.043277E+04  4.903327E+04 -7.219398E+03  4.441683E+03
       251  27 -4.656773E+05 -8.685165E+02 -1.248257E+03  5.546422E+04 -7.336943E+03  2.237540E+02
       252   1 -4.930873E+05 -7.284881E+03 -6.033107E+03  5.536536E+04 -6.748868E+03  2.210768E+03
       252   2 -5.486664E+05 -2.030335E+04 -1.571334E+04  4.893379E+04 -6.202195E+03  6.389797E+03
       252   3 -6.043690E+05 -3.335013E+04 -2.577064E+04  5.519627E+04 -5.655180E+03  1.048434E+04
       252   4 -4.612383E+05  1.959059E+02 -4.967468E+02  5.544300E+04  3.368361E+02  2.222452E+03
       252   5 -4.611890E+05  1.791163E+02 -8.311824E+02  4.909606E+04  7.414325E+02  6.401027E+03
       252   6 -4.612416E+05  1.588293E+02 -1.444018E+03  5.544307E+04  1.146419E+03  1.049513E+04
       252   7 -4.293882E+05  7.676665E+03  5.039767E+03  5.552064E+04  7.422893E+03  2.234137E+03
       252   8 -3.737040E+05  2.066121E+04  1.405091E+04  4.925836E+04  7.686008E+03  6.412260E+03
       252   9 -3.180940E+05  3.366673E+04  2.288211E+04  5.568991E+04  7.949537E+03  1.050592E+04
       252  10 -4.930874E+05 -7.284898E+03 -6.033202E+03  5.536538E+04 -8.004050E-10  2.533488E-09
       252  11 -5.486665E+05 -2.030341E+04 -1.571349E+04  4.893382E+04 -3.876085E-09  1.881727E-10
       252  12 -6.043691E+05 -3.335026E+04 -2.577091E+04  5.519632E+04 -4.229589E-09 -1.957468E-09
       252  13 -4.612383E+05  1.959006E+02 -4.967563E+02  5.544300E+04  8.627690E-10  8.424277E-10
       252  14 -4.611890E+05  1.790722E+02 -8.312604E+02  4.909606E+04  1.324173E-09 -7.939587E-10
       252  15 -4.612417E+05  1.587107E+02 -1.444227E+03  5.544306E+04 -1.314844E-09 -8.661527E-10
       252  16 -4.293882E+05  7.676645E+03  5.039654E+03  5.552063E+04  5.552382E-09  9.487379E-10
       252  17 -3.737041E+05  2.066115E+04  1.405072E+04  4.925832E+04 -5.528219E-10 -5.303294E-09
       252  18 -3.180941E+05  3.366660E+04  2.288179E+04  5.568985E+04 -2.358343E-09 -2.903181E-09
       252  19 -4.930873E+05 -7.284881E+03 -6.033107E+03  5.536536E+04  6.748868E+03 -2.210768E+03
       252  20 -5.486664E+05 -2.030335E+04 -1.571334E+04  4.893379E+04  6.202195E+03 -6.389797E+03
       252  21 -6.043690E+05 -3.335013E+04 -2.577064E+04  5.519627E+04  5.655180E+03 -1.048434E+04
       252  22 -4.612383E+05  1.959059E+02 -4.967468E+02  5.544300E+04 -3.368361E+02 -2.222452E+03
       252  23 -4.611890E+05  1.791163E+02 -8.311824E+02  4.909606E+04 -7.414325E+02 -6.401027E+03
       252  24 -4.612416E+05  1.588293E+02 -1.444018E+03  5.544307E+04 -1.146419E+03 -1.049513E+04
       252  25 -4.293882E+05  7.676665E+03  5.039767E+03  5.552064E+04 -7.422893E+03 -2.234137E+03
       252  26 -3.737040E+05  2.066121E+04  1.405091E+04  4.925836E+04 -7.686008E+03 -6.412260E+03
       252  27 -3.180940E+05  3.366673E+04  2.288211E+04  5.568991E+04 -7.949537E+03 -1.050592E+04
       253   1 -6.407724E+05 -4.188342E+04 -3.267255E+04  5.501045E+04 -5.473523E+03  1.289755E+04
       253   2 -6.960167E+05 -5.519038E+04 -4.399481E+04  4.898309E+04 -2.230917E+03  1.654446E+04
       253   3 -7.519874E+05 -6.956503E+04 -5.770807E+04  5.558202E+04  1.013312E+03  1.924463E+04
       253   4 -4.613221E+05  1.855845E+02 -1.897551E+03  5.542767E+04  1.434443E+03  1.290827E+04
       253   5 -4.610999E+05 -4.182317E+01 -3.325550E+03  4.911564E+04  3.088261E+03  1.655215E+04
       253   6 -4.613314E+05 -1.060693E+03 -6.040242E+03  5.542962E+04  4.744007E+03  1.924949E+04
       253   7 -2.818401E+05  4.225290E+04  2.887655E+04  5.584500E+04  8.344345E+03  1.291900E+04
       253   8 -2.261288E+05  5.510378E+04  3.734191E+04  4.924821E+04  8.409393E+03  1.655985E+04
       253   9 -1.705929E+05  6.743898E+04  4.562447E+04  5.527711E+04  8.476399E+03  1.925434E+04
       253  10 -6.407725E+05 -4.188361E+04 -3.267292E+04  5.501051E+04 -2.850199E-08  2.375587E-10
       253  11 -6.960168E+05 -5.519068E+04 -4.399533E+04  4.898312E+04  1.819903E-08 -2.341136E-09
       253  12 -7.519875E+05 -6.956543E+04 -5.770877E+04  5.558201E+04  5.566572E-08 -5.758156E-10
       253  13 -4.613222E+05  1.854051E+02 -1.897868E+03  5.542766E+04 -1.341254E-09 -4.217209E-10
       253  14 -4.610999E+05 -4.211986E+01 -3.326083E+03  4.911559E+04 -5.108744E-09  3.602067E-09
       253  15 -4.613315E+05 -1.061097E+03 -6.040980E+03  5.542955E+04  4.963273E-09  5.857701E-09
       253  16 -2.818402E+05  4.225270E+04  2.887610E+04  5.584491E+04  2.635730E-08 -3.355614E-10
       253  17 -2.261289E+05  5.510346E+04  3.734126E+04  4.924810E+04 -1.758925E-08 -3.685179E-09
       253  18 -1.705930E+05  6.743857E+04  4.562364E+04  5.527698E+04 -5.650771E-08 -5.376399E-09
       253  19 -6.407724E+05 -4.188342E+04 -3.267255E+04  5.501045E+04  5.473523E+03 -1.289755E+04
       253  20 -6.960167E+05 -5.519038E+04 -4.399481E+04  4.898309E+04  2.230917E+03 -1.654446E+04
       253  21 -7.519874E+05 -6.956503E+04 -5.770807E+04  5.558202E+04 -1.013312E+03 -1.924463E+04
       253  22 -4.613221E+05  1.855845E+02 -1.897551E+03  5.542767E+04 -1.434443E+03 -1.290827E+04
       253  23 -4.610999E+05 -4.182317E+01 -3.325550E+03  4.911564E+04 -3.088261E+03 -1.655215E+04
       253  24 -4.613314E+05 -1.060693E+03 -6.040242E+03  5.542962E+04 -4.744007E+03 -1.924949E+04
       253  25 -2.818401E+05  4.225290E+04  2.887655E+04  5.584500E+04 -8.344345E+03 -1.291900E+04
       253  26 -2.261288E+05  5.510378E+04  3.734191E+04  4.924821E+04 -8.409393E+03 -1.655985E+04
       253  27 -1.705929E+05  6.743898E+04  4.562447E+04  5.527711E+04 -8.476399E+03 -1.925434E+04
       254   1 -7.897466E+05 -7.795337E+04 -6.670634E+04  5.334125E+04  8.326126E+02  2.115726E+04
       254   2 -8.413778E+05 -9.708610E+04 -8.931538E+04  5.647051E+04  2.612373E+04  1.882047E+04
       254   3 -9.010390E+05 -1.350573E+05 -1.331165E+05  7.153049E+04  5.142535E+04  5.850781E+03
       254   4 -4.623295E+05 -6.612928E+02 -7.930567E+03  5.527024E+04  5.773443E+03  2.116361E+04
       254   5 -4.598754E+05 -5.773260E+03 -1.441761E+04  4.932291E+04  1.322386E+04  1.880106E+04
       254   6 -4.623490E+05 -2.661749E+04 -2.969336E+04  5.530682E+04  2.068724E+04  5.807869E+03
       254   7 -1.348077E+05  7.662483E+04  5.084117E+04  5.720023E+04  1.071681E+04  2.116998E+04
       254   8 -7.823299E+04  8.553107E+04  6.047377E+04  4.217077E+04  3.162214E+02  1.878196E+04
       254   9 -2.347912E+04  8.181011E+04  7.372025E+04  3.907154E+04 -1.007249E+04  5.766583E+03
       254  10 -7.897467E+05 -7.795385E+04 -6.670718E+04  5.334124E+04 -5.537439E-08 -1.235130E-09
       254  11 -8.413786E+05 -9.708666E+04 -8.931733E+04  5.647011E+04 -1.357996E-08 -3.462841E-09
       254  12 -9.010418E+05 -1.350581E+05 -1.331216E+05  7.153025E+04  2.598156E-08 -1.008693E-09
       254  13 -4.623296E+05 -6.617826E+02 -7.931471E+03  5.527014E+04 -1.729556E-09  1.025828E-08
       254  14 -4.598757E+05 -5.773687E+03 -1.441860E+04  4.932271E+04 -2.539522E-09 -2.539837E-10
       254  15 -4.623495E+05 -2.661764E+04 -2.969423E+04  5.530672E+04  2.200199E-09  2.314928E-09
       254  16 -1.348079E+05  7.662432E+04  5.084011E+04  5.720005E+04  5.260069E-08 -1.902957E-09
       254  17 -7.823308E+04  8.553069E+04  6.047311E+04  4.217077E+04  1.415736E-08 -2.070433E-09
       254  18 -2.347924E+04  8.181005E+04  7.371999E+04  3.907159E+04 -2.450408E-08 -1.537899E-09
       254  19 -7.897466E+05 -7.795337E+04 -6.670634E+04  5.334125E+04 -8.326126E+02 -2.115726E+04
       254  20 -8.413778E+05 -9.708610E+04 -8.931538E+04  5.647051E+04 -2.612373E+04 -1.882047E+04
       254  21 -9.010390E+05 -1.350573E+05 -1.331165E+05  7.153049E+04 -5.142535E+04 -5.850781E+03
       254  22 -4.623295E+05 -6.612928E+02 -7.930567E+03  5.527024E+04 -5.773443E+03 -2.116361E+04
       254  23 -4.598754E+05 -5.773260E+03 -1.441761E+04  4.932291E+04 -1.322386E+04 -1.880106E+04
       254  24 -4.623490E+05 -2.661749E+04 -2.969336E+04  5.530682E+04 -2.068724E+04 -5.807869E+03
       254  25 -1.348077E+05  7.662483E+04  5.084117E+04  5.720023E+04 -1.071681E+04 -2.116998E+04
       254  26 -7.823299E+04  8.553107E+04  6.047377E+04  4.217077E+04 -3.162214E+02 -1.878196E+04
       254  27 -2.347912E+04  8.181011E+04  7.372025E+04  3.907154E+04  1.007249E+04 -5.766583E+03
       255   1 -8.938065E+04  7.696277E+04  6.514908E+04  2.462240E+03 -1.882847E+04 -6.308255E+03
       255   2 -1.207784E+05  1.101404E+05  7.673554E+04  7.838368E+03 -1.707106E+04 -1.979541E+04
       255   3 -1.625530E+05  1.026181E+05  7.702149E+04  2.864811E+04 -1.533008E+04 -2.071814E+04
       255   4 -5.730377E+05 -4.322451E+04 -5.226042E+04  2.190331E+04 -3.589007E+04 -6.331610E+03
       255   5 -5.668912E+05  8.197103E+02 -2.370849E+04  1.415356E+04 -2.328553E+04 -1.980572E+04
       255   6 -5.730158E+05  2.263443E+03 -1.400094E+04  2.183851E+04 -1.069706E+04 -2.071143E+04
       255   7 -1.056479E+06 -1.634274E+05 -1.696855E+05  4.132912E+04 -5.293841E+04 -6.356045E+03
       255   8 -1.012819E+06 -1.085144E+05 -1.241650E+05  2.046410E+04 -2.949557E+04 -1.981616E+04
       255   9 -9.833212E+05 -9.810242E+04 -1.050337E+05  1.503339E+04 -6.067059E+03 -2.070481E+04
       255  10 -8.938104E+04  7.696263E+04  6.514834E+04  2.462145E+03 -1.370700E-09  5.745207E-10
       255  11 -1.207789E+05  1.101399E+05  7.673426E+04  7.838096E+03  1.920781E-09  1.985580E-09
       255  12 -1.625534E+05  1.026176E+05  7.702024E+04  2.864785E+04  1.148082E-09  1.179729E-09
       255  13 -5.730391E+05 -4.322489E+04 -5.226292E+04  2.190313E+04 -1.754488E-09 -1.517178E-09
       255  14 -5.668919E+05  8.191434E+02 -2.371024E+04  1.415319E+04  6.405046E-10 -5.594586E-09
       255  15 -5.730161E+05  2.262951E+03 -1.400196E+04  2.183833E+04 -1.572400E-09  1.116051E-09
       255  16 -1.056483E+06 -1.634282E+05 -1.696909E+05  4.132885E+04  1.433126E-09 -2.696212E-10
       255  17 -1.012820E+06 -1.085151E+05 -1.241674E+05  2.046363E+04 -7.953588E-09  3.337552E-09
       255  18 -9.833213E+05 -9.810289E+04 -1.050346E+05  1.503329E+04 -3.416081E-09  3.873565E-10
       255  19 -8.938065E+04  7.696277E+04  6.514908E+04  2.462240E+03  1.882847E+04  6.308255E+03
       255  20 -1.207784E+05  1.101404E+05  7.673554E+04  7.838368E+03  1.707106E+04  1.979541E+04
       255  21 -1.625530E+05  1.026181E+05  7.702149E+04  2.864811E+04  1.533008E+04  2.071814E+04
       255  22 -5.730377E+05 -4.322451E+04 -5.226042E+04  2.190331E+04  3.589007E+04  6.331610E+03
       255  23 -5.668912E+05  8.197103E+02 -2.370849E+04  1.415356E+04  2.328553E+04  1.980572E+04
       255  24 -5.730158E+05  2.263443E+03 -1.400094E+04  2.183851E+04  1.069706E+04  2.071143E+04
       255  25 -1.056479E+06 -1.634274E+05 -1.696855E+05  4.132912E+04  5.293841E+04  6.356045E+03
       255  26 -1.012819E+06 -1.085144E+05 -1.241650E+05  2.046410E+04  2.949557E+04  1.981616E+04
       255  27 -9.833212E+05 -9.810242E+04 -1.050337E+05  1.503339E+04  6.067059E+03  2.070481E+04
       256   1 -1.912230E+05  9.029221E+04  7.338966E+04  2.159656E+04 -9.602703E+03 -1.833763E+04
       256   2 -2.275537E+05  8.387296E+04  7.006797E+04  1.421520E+04 -7.067413E+03 -1.700505E+04
       256   3 -2.648591E+05  7.497487E+04  6.447035E+04  2.291947E+04 -4.534137E+03 -1.510422E+04
       256   4 -5.705216E+05 -2.507386E+03 -1.116808E+04  2.200360E+04 -8.697187E+03 -1.833690E+04
       256   5 -5.699861E+05  1.395033E+02 -6.019249E+03  1.395802E+04 -5.672716E+03 -1.700319E+04
       256   6 -5.705128E+05  2.216203E+02 -3.487444E+03  2.199868E+04 -2.650118E+03 -1.510108E+04
       256   7 -9.496860E+05 -9.531676E+04 -9.573484E+04  2.241033E+04 -7.792216E+03 -1.833617E+04
       256   8 -9.123090E+05 -8.360189E+04 -8.211377E+04  1.370094E+04 -4.278779E+03 -1.700133E+04
       256   9 -8.760793E+05 -7.453795E+04 -7.145106E+04  2.107832E+04 -7.670155E+02 -1.509794E+04
       256  10 -1.912232E+05  9.029183E+04  7.338886E+04  2.159642E+04  8.504959E-09 -3.600596E-10
       256  11 -2.275539E+05  8.387263E+04  7.006733E+04  1.421510E+04  3.154538E-09  4.625518E-09
       256  12 -2.648592E+05  7.497462E+04  6.446989E+04  2.291941E+04 -3.714721E-09  7.477923E-09
       256  13 -5.705218E+05 -2.507767E+03 -1.116886E+04  2.200347E+04  1.749028E-09  8.263448E-09
       256  14 -5.699862E+05  1.391843E+02 -6.019852E+03  1.395795E+04 -3.047843E-10 -9.601168E-09
       256  15 -5.705129E+05  2.213736E+02 -3.487886E+03  2.199865E+04 -6.266116E-10  5.001509E-09
       256  16 -9.496862E+05 -9.531713E+04 -9.573558E+04  2.241021E+04 -6.952741E-09 -2.703095E-09
       256  17 -9.123091E+05 -8.360221E+04 -8.211435E+04  1.370089E+04 -3.892785E-09 -3.080362E-09
       256  18 -8.760794E+05 -7.453820E+04 -7.145149E+04  2.107831E+04  3.966311E-09 -1.226510E-09
       256  19 -1.912230E+05  9.029221E+04  7.338966E+04  2.159656E+04  9.602703E+03  1.833763E+04
       256  20 -2.275537E+05  8.387296E+04  7.006797E+04  1.421520E+04  7.067413E+03  1.700505E+04
       256  21 -2.648591E+05  7.497487E+04  6.447035E+04  2.291947E+04  4.534137E+03  1.510422E+04
       256  22 -5.705216E+05 -2.507386E+03 -1.116808E+04  2.200360E+04  8.697187E+03  1.833690E+04
       256  23 -5.699861E+05  1.395033E+02 -6.019249E+03  1.395802E+04  5.672716E+03  1.700319E+04
       256  24 -5.705128E+05  2.216203E+02 -3.487444E+03  2.199868E+04  2.650118E+03  1.510108E+04
       256  25 -9.496860E+05 -9.531676E+04 -9.573484E+04  2.241033E+04  7.792216E+03  1.833617E+04
       256  26 -9.123090E+05 -8.360189E+04 -8.211377E+04  1.370094E+04  4.278779E+03  1.700133E+04
       256  27 -8.760793E+05 -7.453795E+04 -7.145106E+04  2.107832E+04  7.670155E+02  1.509794E+04
       257   1 -2.958690E+05  6.702776E+04  5.816162E+04  2.247337E+04 -3.830398E+03 -1.386595E+04
       257   2 -3.328703E+05  5.810552E+04  5.115492E+04  1.432302E+04 -3.092747E+03 -1.185757E+04
       257   3 -3.700516E+05  4.909248E+04  4.363067E+04  2.240894E+04 -2.355835E+03 -9.819678E+03
       257   4 -5.703138E+05 -5.798229E+01 -2.687106E+03  2.203363E+04 -2.109186E+03 -1.386293E+04
       257   5 -5.702186E+05  7.118995E+01 -1.545556E+03  1.391514E+04 -1.346386E+03 -1.185425E+04
       257   6 -5.703085E+05  1.053569E+02 -9.390359E+02  2.203330E+04 -5.842825E+02 -9.816047E+03
       257   7 -8.446883E+05 -6.714881E+04 -6.354050E+04  2.159406E+04 -3.887262E+02 -1.385992E+04
       257   8 -8.075142E+05 -5.796695E+04 -5.424953E+04  1.350739E+04  3.993139E+02 -1.185093E+04
       257   9 -7.705279E+05 -4.888449E+04 -4.551124E+04  2.165775E+04  1.186705E+03 -9.812417E+03
       257  10 -2.958690E+05  6.702755E+04  5.816123E+04  2.247333E+04  8.787919E-09 -3.412284E-09
       257  11 -3.328704E+05  5.810536E+04  5.115464E+04  1.432299E+04  1.502581E-09 -4.942687E-09
       257  12 -3.700516E+05  4.909238E+04  4.363048E+04  2.240892E+04 -7.796613E-09 -1.715604E-09
       257  13 -5.703139E+05 -5.818980E+01 -2.687475E+03  2.203361E+04  8.723489E-12 -2.286909E-09
       257  14 -5.702186E+05  7.103861E+01 -1.545824E+03  1.391513E+04 -3.229112E-10 -5.168367E-09
       257  15 -5.703085E+05  1.052534E+02 -9.392175E+02  2.203329E+04  3.094839E-09 -1.098623E-09
       257  16 -8.446884E+05 -6.714902E+04 -6.354086E+04  2.159405E+04 -1.103111E-08 -6.694899E-09
       257  17 -8.075143E+05 -5.796710E+04 -5.424980E+04  1.350740E+04 -5.971391E-09  1.419527E-09
       257  18 -7.705279E+05 -4.888459E+04 -4.551142E+04  2.165776E+04  7.744610E-09  5.957552E-09
       257  19 -2.958690E+05  6.702776E+04  5.816162E+04  2.247337E+04  3.830398E+03  1.386595E+04
       257  20 -3.328703E+05  5.810552E+04  5.115492E+04  1.432302E+04  3.092747E+03  1.185757E+04
       257  21 -3.700516E+05  4.909248E+04  4.363067E+04  2.240894E+04  2.355835E+03  9.819678E+03
       257  22 -5.703138E+05 -5.798229E+01 -2.687106E+03  2.203363E+04  2.109186E+03  1.386293E+04
       257  23 -5.702186E+05  7.118995E+01 -1.545556E+03  1.391514E+04  1.346386E+03  1.185425E+04
       257  24 -5.703085E+05  1.053569E+02 -9.390359E+02  2.203330E+04  5.842825E+02  9.816047E+03
       257  25 -8.446883E+05 -6.714881E+04 -6.354050E+04  2.159406E+04  3.887262E+02  1.385992E+04
       257  26 -8.075142E+05 -5.796695E+04 -5.424953E+04  1.350739E+04 -3.993139E+02  1.185093E+04
       257  27 -7.705279E+05 -4.888449E+04 -4.551124E+04  2.165775E+04 -1.186705E+03  9.812417E+03
       258   1 -4.014231E+05  4.136128E+04  3.663134E+04  2.234977E+04 -2.200722E+03 -8.626074E+03
       258   2 -4.386420E+05  3.224680E+04  2.866448E+04  1.412293E+04 -1.933934E+03 -6.577896E+03
       258   3 -4.759635E+05  2.319306E+04  2.051940E+04  2.221074E+04 -1.667534E+03 -4.526220E+03
       258   4 -5.702879E+05  9.147417E+01 -7.582659E+02  2.205078E+04 -4.339149E+02 -8.622328E+03
       258   5 -5.702342E+05  6.923186E+01 -5.545022E+02  1.389334E+04 -1.642180E+02 -6.574003E+03
       258   6 -5.702850E+05  1.072953E+02 -5.309558E+02  2.205075E+04  1.051086E+02 -4.522175E+03
       258   7 -7.391259E+05 -4.118026E+04 -3.814963E+04  2.175187E+04  1.332416E+03 -8.618583E+03
       258   8 -7.018102E+05 -3.210951E+04 -2.977455E+04  1.366379E+04  1.605127E+03 -6.570111E+03
       258   9 -6.645982E+05 -2.297907E+04 -2.158186E+04  2.189078E+04  1.877484E+03 -4.518131E+03
       258  10 -4.014232E+05  4.136120E+04  3.663119E+04  2.234975E+04 -2.048501E-09 -5.467383E-09
       258  11 -4.386420E+05  3.224676E+04  2.866439E+04  1.412292E+04  1.965881E-09 -3.841131E-09
       258  12 -4.759635E+05  2.319304E+04  2.051936E+04  2.221074E+04 -2.381441E-10 -1.894285E-09
       258  13 -5.702879E+05  9.139430E+01 -7.584059E+02  2.205078E+04 -2.152885E-09  1.275308E-09
       258  14 -5.702342E+05  6.918546E+01 -5.545834E+02  1.389334E+04 -2.323640E-09 -5.134825E-09
       258  15 -5.702850E+05  1.072733E+02 -5.309943E+02  2.205075E+04  9.806299E-10 -2.498087E-10
       258  16 -7.391259E+05 -4.118034E+04 -3.814977E+04  2.175188E+04  1.425692E-09  1.273264E-09
       258  17 -7.018102E+05 -3.210956E+04 -2.977463E+04  1.366380E+04 -6.873383E-09  3.004524E-09
       258  18 -6.645982E+05 -2.297909E+04 -2.158190E+04  2.189079E+04 -6.076813E-10  4.440271E-10
       258  19 -4.014231E+05  4.136128E+04  3.663134E+04  2.234977E+04  2.200722E+03  8.626074E+03
       258  20 -4.386420E+05  3.224680E+04  2.866448E+04  1.412293E+04  1.933934E+03  6.577896E+03
       258  21 -4.759635E+05  2.319306E+04  2.051940E+04  2.221074E+04  1.667534E+03  4.526220E+03
       258  22 -5.702879E+05  9.147417E+01 -7.582659E+02  2.205078E+04  4.339149E+02  8.622328E+03
       258  23 -5.702342E+05  6.923186E+01 -5.545022E+02  1.389334E+04  1.642180E+02  6.574003E+03
       258  24 -5.702850E+05  1.072953E+02 -5.309558E+02  2.205075E+04 -1.051086E+02  4.522175E+03
       258  25 -7.391259E+05 -4.118026E+04 -3.814963E+04  2.175187E+04 -1.332416E+03  8.618583E+03
       258  26 -7.018102E+05 -3.210951E+04 -2.977455E+04  1.366379E+04 -1.605127E+03  6.570111E+03
       258  27 -6.645982E+05 -2.297907E+04 -2.158186E+04  2.189078E+04 -1.877484E+03  4.518131E+03
       259   1 -5.074659E+05  1.544916E+04  1.326284E+04  2.215759E+04 -1.570641E+03 -3.330731E+03
       259   2 -5.447447E+05  6.308895E+03  4.834428E+03  1.390281E+04 -1.168159E+03 -1.275744E+03
       259   3 -5.821551E+05 -2.779131E+03 -3.864940E+03  2.199621E+04 -7.657767E+02  7.790069E+02
       259   4 -5.702903E+05  1.076585E+02 -5.812843E+02  2.205816E+04  2.030477E+02 -3.326630E+03
       259   5 -5.702234E+05  7.849824E+01 -8.231309E+02  1.388407E+04  6.052500E+02 -1.271619E+03
       259   6 -5.702899E+05  1.015704E+02 -1.335837E+03  2.205818E+04  1.007376E+03  7.831616E+02
       259   7 -6.331110E+05 -1.523411E+04 -1.442564E+04  2.195874E+04  1.976558E+03 -3.322530E+03
       259   8 -5.957014E+05 -6.151941E+03 -6.480718E+03  1.386532E+04  2.378587E+03 -1.267494E+03
       259   9 -5.584244E+05  2.982265E+03  1.193270E+03  2.212015E+04  2.780562E+03  7.873166E+02
       259  10 -5.074659E+05  1.544915E+04  1.326281E+04  2.215759E+04 -1.038231E-08 -1.349682E-09
       259  11 -5.447447E+05  6.308893E+03  4.834422E+03  1.390281E+04 -7.360042E-09 -6.123951E-09
       259  12 -5.821551E+05 -2.779132E+03 -3.864943E+03  2.199621E+04 -8.439064E-09 -5.125279E-09
       259  13 -5.702903E+05  1.076466E+02 -5.813052E+02  2.205816E+04 -3.703563E-10  7.170484E-09
       259  14 -5.702234E+05  7.849641E+01 -8.231347E+02  1.388407E+04 -6.024975E-10 -2.070782E-09
       259  15 -5.702899E+05  1.015695E+02 -1.335840E+03  2.205818E+04  2.783090E-10 -5.597520E-09
       259  16 -6.331110E+05 -1.523412E+04 -1.442567E+04  2.195875E+04  9.146560E-09 -1.661724E-10
       259  17 -5.957014E+05 -6.151944E+03 -6.480732E+03  1.386532E+04  3.976080E-09 -1.147825E-08
       259  18 -5.584244E+05  2.982262E+03  1.193255E+03  2.212015E+04  5.745886E-09 -9.424855E-09
       259  19 -5.074659E+05  1.544916E+04  1.326284E+04  2.215759E+04  1.570641E+03  3.330731E+03
       259  20 -5.447447E+05  6.308895E+03  4.834428E+03  1.390281E+04  1.168159E+03  1.275744E+03
       259  21 -5.821551E+05 -2.779131E+03 -3.864940E+03  2.199621E+04  7.657767E+02 -7.790069E+02
       259  22 -5.702903E+05  1.076585E+02 -5.812843E+02  2.205816E+04 -2.030477E+02  3.326630E+03
       259  23 -5.702234E+05  7.849824E+01 -8.231309E+02  1.388407E+04 -6.052500E+02  1.271619E+03
       259  24 -5.702899E+05  1.015704E+02 -1.335837E+03  2.205818E+04 -1.007376E+03 -7.831616E+02
       259  25 -6.331110E+05 -1.523411E+04 -1.442564E+04  2.195874E+04 -1.976558E+03  3.322530E+03
       259  26 -5.957014E+05 -6.151941E+03 -6.480718E+03  1.386532E+04 -2.378587E+03  1.267494E+03
       259  27 -5.584244E+05  2.982265E+03  1.193270E+03  2.212015E+04 -2.780562E+03 -7.873166E+02
       260   1 -6.137182E+05 -1.050131E+04 -1.146893E+04  2.188184E+04 -4.971920E+02  1.977260E+03
       260   2 -6.508610E+05 -1.962658E+04 -2.088403E+04  1.367358E+04  9.834200E+02  4.030493E+03
       260   3 -6.883496E+05 -2.900339E+04 -3.134807E+04  2.180079E+04  2.464228E+03  6.064871E+03
       260   4 -5.703370E+05  1.294055E+02 -1.729125E+03  2.205510E+04  1.280676E+03  1.981407E+03
       260   5 -5.701663E+05  1.085973E+02 -2.962166E+03  1.388777E+04  2.745152E+03  4.034513E+03
       260   6 -5.703393E+05 -1.606484E+02 -5.232591E+03  2.205578E+04  4.209912E+03  6.068770E+03
       260   7 -5.269541E+05  1.075999E+04  8.010573E+03  2.222839E+04  3.058667E+03  1.985555E+03
       260   8 -4.894656E+05  1.984334E+04  1.495930E+04  1.410199E+04  4.507111E+03  4.038534E+03
       260   9 -4.523160E+05  2.868115E+04  2.088203E+04  2.231081E+04  5.955924E+03  6.072670E+03
       260  10 -6.137182E+05 -1.050131E+04 -1.146894E+04  2.188184E+04 -1.687062E-08 -3.612910E-09
       260  11 -6.508610E+05 -1.962660E+04 -2.088406E+04  1.367357E+04  1.312814E-09 -7.283237E-09
       260  12 -6.883496E+05 -2.900343E+04 -3.134815E+04  2.180078E+04  1.092332E-08 -9.694986E-10
       260  13 -5.703370E+05  1.294009E+02 -1.729135E+03  2.205510E+04  2.187911E-09 -3.616374E-09
       260  14 -5.701664E+05  1.085778E+02 -2.962211E+03  1.388776E+04  4.516414E-10  5.240039E-10
       260  15 -5.703393E+05 -1.606927E+02 -5.232694E+03  2.205576E+04  1.448519E-10 -1.177806E-09
       260  16 -5.269541E+05  1.075998E+04  8.010548E+03  2.222838E+04  1.220175E-08  2.467493E-09
       260  17 -4.894656E+05  1.984332E+04  1.495923E+04  1.410198E+04 -4.697161E-09 -5.180788E-09
       260  18 -4.523160E+05  2.868110E+04  2.088190E+04  2.231078E+04 -1.462260E-08 -5.370891E-10
       260  19 -6.137182E+05 -1.050131E+04 -1.146893E+04  2.188184E+04  4.971920E+02 -1.977260E+03
       260  20 -6.508610E+05 -1.962658E+04 -2.088403E+04  1.367358E+04 -9.834200E+02 -4.030493E+03
       260  21 -6.883496E+05 -2.900339E+04 -3.134807E+04  2.180079E+04 -2.464228E+03 -6.064871E+03
       260  22 -5.703370E+05  1.294055E+02 -1.729125E+03  2.205510E+04 -1.280676E+03 -1.981407E+03
       260  23 -5.701663E+05  1.085973E+02 -2.962166E+03  1.388777E+04 -2.745152E+03 -4.034513E+03
       260  24 -5.703393E+05 -1.606484E+02 -5.232591E+03  2.205578E+04 -4.209912E+03 -6.068770E+03
       260  25 -5.269541E+05  1.075999E+04  8.010573E+03  2.222839E+04 -3.058667E+03 -1.985555E+03
       260  26 -4.894656E+05  1.984334E+04  1.495930E+04  1.410199E+04 -4.507111E+03 -4.038534E+03
       260  27 -4.523160E+05  2.868115E+04  2.088203E+04  2.231081E+04 -5.955924E+03 -6.072670E+03
       261   1 -7.201953E+05 -3.618863E+04 -4.010697E+04  2.085838E+04  3.407650E+03  7.297507E+03
       261   2 -7.563004E+05 -4.537471E+04 -5.327043E+04  1.401557E+04  9.664064E+03  9.268097E+03
       261   3 -7.945816E+05 -5.970815E+04 -7.181505E+04  2.344197E+04  1.592138E+04  1.084637E+04
       261   4 -5.707354E+05  3.894015E+02 -6.813934E+03  2.203750E+04  5.266888E+03  7.301576E+03
       261   5 -5.696799E+05  2.737228E+02 -1.178167E+04  1.390877E+04  1.118623E+04  9.271210E+03
       261   6 -5.707424E+05 -4.929651E+03 -2.189498E+04  2.204903E+04  1.710684E+04  1.084856E+04
       261   7 -4.212546E+05  3.696592E+04  2.647772E+04  2.321688E+04  7.126569E+03  7.305651E+03
       261   8 -3.830269E+05  4.591980E+04  2.970492E+04  1.380192E+04  1.270885E+04  9.274321E+03
       261   9 -3.468564E+05  4.984546E+04  2.802196E+04  2.065555E+04  1.829273E+04  1.085075E+04
       261  10 -7.201954E+05 -3.618869E+04 -4.010709E+04  2.085836E+04  6.189514E-09 -6.850549E-10
       261  11 -7.563005E+05 -4.537483E+04 -5.327076E+04  1.401550E+04  2.327255E-09  2.718945E-09
       261  12 -7.945819E+05 -5.970835E+04 -7.181575E+04  2.344183E+04 -4.448394E-10 -5.460403E-09
       261  13 -5.707354E+05  3.893369E+02 -6.814087E+03  2.203747E+04 -1.735707E-09 -6.965622E-09
       261  14 -5.696801E+05  2.735969E+02 -1.178207E+04  1.390869E+04 -4.433434E-09  5.548368E-09
       261  15 -5.707427E+05 -4.929856E+03 -2.189575E+04  2.204888E+04 -2.546894E-09 -1.009414E-09
       261  16 -4.212546E+05  3.696585E+04  2.647752E+04  2.321684E+04 -6.070438E-09 -4.070352E-09
       261  17 -3.830271E+05  4.591966E+04  2.970445E+04  1.380183E+04 -5.318926E-09 -1.027192E-08
       261  18 -3.468568E+05  4.984524E+04  2.802111E+04  2.065539E+04 -1.477155E-09  1.659796E-09
       261  19 -7.201953E+05 -3.618863E+04 -4.010697E+04  2.085838E+04 -3.407650E+03 -7.297507E+03
       261  20 -7.563004E+05 -4.537471E+04 -5.327043E+04  1.401557E+04 -9.664064E+03 -9.268097E+03
       261  21 -7.945816E+05 -5.970815E+04 -7.181505E+04  2.344197E+04 -1.592138E+04 -1.084637E+04
       261  22 -5.707354E+05  3.894015E+02 -6.813934E+03  2.203750E+04 -5.266888E+03 -7.301576E+03
       261  23 -5.696799E+05  2.737228E+02 -1.178167E+04  1.390877E+04 -1.118623E+04 -9.271210E+03
       261  24 -5.707424E+05 -4.929651E+03 -2.189498E+04  2.204903E+04 -1.710684E+04 -1.084856E+04
       261  25 -4.212546E+05  3.696592E+04  2.647772E+04  2.321688E+04 -7.126569E+03 -7.305651E+03
       261  26 -3.830269E+05  4.591980E+04  2.970492E+04  1.380192E+04 -1.270885E+04 -9.274321E+03
       261  27 -3.468564E+05  4.984546E+04  2.802196E+04  2.065555E+04 -1.829273E+04 -1.085075E+04
       262   1 -8.309014E+05 -5.805099E+04 -8.411850E+04  9.149934E+03  1.726837E+04  1.286536E+04
       262   2 -8.553049E+05 -6.983830E+04 -1.122386E+05  2.696357E+04  4.944066E+04  1.293758E+04
       262   3 -9.051965E+05 -1.665960E+05 -1.825750E+05  6.068498E+04  8.162633E+04  4.315696E+03
       262   4 -5.756431E+05  4.435750E+03 -2.745581E+04  2.191648E+04  2.103201E+04  1.287313E+04
       262   5 -5.635703E+05  1.645071E+03 -4.647998E+04  1.404771E+04  4.570875E+04  1.292875E+04
       262   6 -5.756736E+05 -8.479424E+04 -1.024991E+05  2.208882E+04  7.040131E+04  4.289451E+03
       262   7 -3.203235E+05  6.691869E+04  2.920296E+04  3.468831E+04  2.479718E+04  1.288104E+04
       262   8 -2.717561E+05  7.312325E+04  1.927337E+04  1.125663E+03  4.197510E+04  1.292009E+04
       262   9 -2.460480E+05 -2.994737E+03 -2.242975E+04 -1.652795E+04  5.917034E+04  4.264611E+03
       262  10 -8.309018E+05 -5.805125E+04 -8.411937E+04  9.149755E+03 -3.633197E-09 -5.203077E-09
       262  11 -8.553075E+05 -6.983914E+04 -1.122435E+05  2.696306E+04  4.664941E-09 -1.462249E-09
       262  12 -9.052037E+05 -1.665978E+05 -1.825876E+05  6.068470E+04  2.232013E-09  5.170044E-09
       262  13 -5.756436E+05  4.435453E+03 -2.745695E+04  2.191626E+04 -2.149559E-09  1.268112E-09
       262  14 -5.635726E+05  1.644330E+03 -4.648422E+04  1.404723E+04 -3.756762E-09  3.397885E-09
       262  15 -5.756790E+05 -8.479560E+04 -1.025085E+05  2.208858E+04 -1.739964E-09  3.025652E-09
       262  16 -3.203242E+05  6.691834E+04  2.920150E+04  3.468806E+04  1.028088E-09  2.964387E-09
       262  17 -2.717581E+05  7.312260E+04  1.926974E+04  1.125226E+03 -6.080920E-09  8.484553E-09
       262  18 -2.460517E+05 -2.995697E+03 -2.243637E+04 -1.652816E+04 -6.114439E-09  1.916145E-09
       262  19 -8.309014E+05 -5.805099E+04 -8.411850E+04  9.149934E+03 -1.726837E+04 -1.286536E+04
       262  20 -8.553049E+05 -6.983830E+04 -1.122386E+05  2.696357E+04 -4.944066E+04 -1.293758E+04
       262  21 -9.051965E+05 -1.665960E+05 -1.825750E+05  6.068498E+04 -8.162633E+04 -4.315696E+03
       262  22 -5.756431E+05  4.435750E+03 -2.745581E+04  2.191648E+04 -2.103201E+04 -1.287313E+04
       262  23 -5.635703E+05  1.645071E+03 -4.647998E+04  1.404771E+04 -4.570875E+04 -1.292875E+04
       262  24 -5.756736E+05 -8.479424E+04 -1.024991E+05  2.208882E+04 -7.040131E+04 -4.289451E+03
       262  25 -3.203235E+05  6.691869E+04  2.920296E+04  3.468831E+04 -2.479718E+04 -1.288104E+04
       262  26 -2.717561E+05  7.312325E+04  1.927337E+04  1.125663E+03 -4.197510E+04 -1.292009E+04
       262  27 -2.460480E+05 -2.994737E+03 -2.242975E+04 -1.652795E+04 -5.917034E+04 -4.264611E+03
