
 stresses (elem, integ.pnt.,sxx,syy,szz,sxy,sxz,syz) for set ELALL and time  0.1000000E+01

         1   1  2.747577E+06  1.005189E+07  2.601589E+06 -1.958375E+06  1.249946E+05  1.004956E+06
         1   2  2.222338E+06  8.566812E+06  1.747895E+06 -1.810431E+06  4.221953E+05  4.608396E+05
         1   3  1.840644E+06  7.193683E+06  1.281868E+06 -1.887217E+06  4.947208E+05 -8.159124E+04
         1   4  1.094722E+05 -7.103788E+05  1.135378E+05 -1.855106E+06  1.284410E+05  7.385578E+04
         1   5  3.658073E+04 -7.172256E+05  6.085257E+04 -1.742981E+06  4.246700E+05  4.487684E+04
         1   6  1.963004E+04 -7.018205E+05  4.170084E+04 -1.855558E+06  4.947336E+05  1.616148E+04
         1   7 -2.536249E+06 -1.136482E+07 -2.379041E+06 -1.753387E+06  1.316298E+05 -8.414259E+05
         1   8 -2.153913E+06 -9.917784E+06 -1.629002E+06 -1.676363E+06  4.270828E+05 -3.651013E+05
         1   9 -1.804447E+06 -8.535609E+06 -1.199964E+06 -1.824145E+06  4.947561E+05  1.127269E+05
         1  10  2.747294E+06  1.005082E+07  2.599690E+06 -1.958476E+06  1.580881E-09  1.082392E-08
         1  11  2.222090E+06  8.566537E+06  1.747164E+06 -1.810587E+06  4.222666E-09  1.056069E-09
         1  12  1.840380E+06  7.193610E+06  1.281396E+06 -1.887185E+06  7.052605E-09 -8.297094E-09
         1  13  1.094530E+05 -7.103891E+05  1.134964E+05 -1.855114E+06 -2.701871E-09 -4.573102E-11
         1  14  3.638653E+04 -7.172762E+05  6.050975E+04 -1.742996E+06  8.385104E-09 -2.545179E-11
         1  15  1.936721E+04 -7.018865E+05  4.124044E+04 -1.855565E+06  2.023971E-09 -1.413380E-10
         1  16 -2.536462E+06 -1.136559E+07 -2.380427E+06 -1.753298E+06  1.610517E-09 -1.095365E-08
         1  17 -2.154144E+06 -9.917977E+06 -1.629597E+06 -1.676237E+06  8.389331E-10 -1.103768E-09
         1  18 -1.804714E+06 -8.535689E+06 -1.200449E+06 -1.824190E+06  9.079095E-09  8.400298E-09
         1  19  2.747577E+06  1.005189E+07  2.601589E+06 -1.958375E+06 -1.249946E+05 -1.004956E+06
         1  20  2.222338E+06  8.566812E+06  1.747895E+06 -1.810431E+06 -4.221953E+05 -4.608396E+05
         1  21  1.840644E+06  7.193683E+06  1.281868E+06 -1.887217E+06 -4.947208E+05  8.159124E+04
         1  22  1.094722E+05 -7.103788E+05  1.135378E+05 -1.855106E+06 -1.284410E+05 -7.385578E+04
         1  23  3.658073E+04 -7.172256E+05  6.085257E+04 -1.742981E+06 -4.246700E+05 -4.487684E+04
         1  24  1.963004E+04 -7.018205E+05  4.170084E+04 -1.855558E+06 -4.947336E+05 -1.616148E+04
         1  25 -2.536249E+06 -1.136482E+07 -2.379041E+06 -1.753387E+06 -1.316298E+05  8.414259E+05
         1  26 -2.153913E+06 -9.917784E+06 -1.629002E+06 -1.676363E+06 -4.270828E+05  3.651013E+05
         1  27 -1.804447E+06 -8.535609E+06 -1.199964E+06 -1.824145E+06 -4.947561E+05 -1.127269E+05
         2   1  1.627496E+06  6.287701E+06  1.104103E+06 -1.894087E+06  4.602817E+05 -9.754059E+04
         2   2  1.290352E+06  4.850808E+06  8.386875E+05 -1.761609E+06  3.994868E+05 -1.815666E+05
         2   3  9.804777E+05  3.433375E+06  6.343843E+05 -1.870417E+06  3.102664E+05 -2.657630E+05
         2   4  2.061381E+04 -7.029350E+05  3.747963E+04 -1.859270E+06  4.600778E+05  9.633612E+03
         2   5  2.220945E+04 -7.034240E+05  3.844130E+04 -1.738533E+06  3.986038E+05 -9.691003E+03
         2   6  4.006263E+04 -6.975903E+05  5.587077E+04 -1.859206E+06  3.085720E+05 -2.936658E+04
         2   7 -1.588606E+06 -7.644922E+06 -1.030157E+06 -1.824718E+06  4.598839E+05  1.156566E+05
         2   8 -1.247325E+06 -6.226592E+06 -7.621819E+05 -1.715581E+06  3.977277E+05  1.607210E+05
         2   9 -9.010823E+05 -4.811193E+06 -5.226546E+05 -1.848017E+06  3.068780E+05  2.055327E+05
         2  10  1.627266E+06  6.287634E+06  1.103688E+06 -1.894051E+06  3.347599E-09  1.794487E-08
         2  11  1.290172E+06  4.850730E+06  8.383272E+05 -1.761551E+06  8.853564E-09  1.599583E-08
         2  12  9.803559E+05  3.433274E+06  6.340726E+05 -1.870351E+06  8.655231E-09  1.182563E-08
         2  13  2.038655E+04 -7.029919E+05  3.708177E+04 -1.859274E+06 -1.494657E-09  6.131310E-11
         2  14  2.203890E+04 -7.034667E+05  3.814271E+04 -1.738530E+06  5.376820E-10 -5.720623E-11
         2  15  3.996024E+04 -6.976167E+05  5.569042E+04 -1.859199E+06 -6.565752E-09 -4.581572E-10
         2  16 -1.588837E+06 -7.644993E+06 -1.030580E+06 -1.824761E+06  3.592626E-09 -1.775239E-08
         2  17 -1.247502E+06 -6.226662E+06 -7.625288E+05 -1.715633E+06  4.620446E-09 -1.570452E-08
         2  18 -9.011951E+05 -4.811265E+06 -5.229123E+05 -1.848068E+06  3.735015E-09 -1.184785E-08
         2  19  1.627496E+06  6.287701E+06  1.104103E+06 -1.894087E+06 -4.602817E+05  9.754059E+04
         2  20  1.290352E+06  4.850808E+06  8.386875E+05 -1.761609E+06 -3.994868E+05  1.815666E+05
         2  21  9.804777E+05  3.433375E+06  6.343843E+05 -1.870417E+06 -3.102664E+05  2.657630E+05
         2  22  2.061381E+04 -7.029350E+05  3.747963E+04 -1.859270E+06 -4.600778E+05 -9.633612E+03
         2  23  2.220945E+04 -7.034240E+05  3.844130E+04 -1.738533E+06 -3.986038E+05  9.691003E+03
         2  24  4.006263E+04 -6.975903E+05  5.587077E+04 -1.859206E+06 -3.085720E+05  2.936658E+04
         2  25 -1.588606E+06 -7.644922E+06 -1.030157E+06 -1.824718E+06 -4.598839E+05 -1.156566E+05
         2  26 -1.247325E+06 -6.226592E+06 -7.621819E+05 -1.715581E+06 -3.977277E+05 -1.607210E+05
         2  27 -9.010823E+05 -4.811193E+06 -5.226546E+05 -1.848017E+06 -3.068780E+05 -2.055327E+05
         3   1  7.851280E+05  2.550953E+06  5.185804E+05 -1.872626E+06  2.484288E+05 -2.767257E+05
         3   2  5.110434E+05  1.110719E+06  3.709599E+05 -1.668851E+06  1.430125E+05 -3.447419E+05
         3   3  3.388882E+05 -2.956545E+05  2.923360E+05 -1.708376E+06  3.546829E+04 -4.127431E+05
         3   4  4.787676E+04 -6.909258E+05  7.043765E+04 -1.859682E+06  2.465769E+05 -3.932241E+04
         3   5  9.978844E+04 -7.054160E+05  1.229164E+05 -1.737417E+06  1.410375E+05 -1.027087E+05
         3   6  2.529446E+05 -6.890852E+05  2.410091E+05 -1.858308E+06  3.338564E+04 -1.662121E+05
         3   7 -6.898071E+05 -3.922035E+06 -3.776164E+05 -1.846774E+06  2.447281E+05  1.969007E+05
         3   8 -3.115581E+05 -2.518060E+06 -1.249384E+05 -1.805763E+06  1.390049E+05  1.386496E+05
         3   9  1.671132E+05 -1.082177E+06  1.899223E+05 -2.008141E+06  3.118290E+04  8.017009E+04
         3  10  7.850416E+05  2.550854E+06  5.183221E+05 -1.872571E+06  4.076784E-09 -4.805859E-09
         3  11  5.109898E+05  1.110586E+06  3.706991E+05 -1.668811E+06  9.404079E-09 -1.287045E-08
         3  12  3.388411E+05 -2.958377E+05  2.920135E+05 -1.708364E+06  3.998634E-09 -1.870352E-08
         3  13  4.781113E+04 -6.909437E+05  7.032068E+04 -1.859674E+06 -1.231817E-08 -3.308953E-10
         3  14  9.976432E+04 -7.054326E+05  1.228594E+05 -1.737405E+06 -3.807301E-09 -2.454407E-10
         3  15  2.529360E+05 -6.891152E+05  2.409551E+05 -1.858303E+06 -7.721500E-10  2.954170E-12
         3  16 -6.898821E+05 -3.922093E+06 -3.778028E+05 -1.846813E+06  1.410232E-09  4.375301E-09
         3  17 -3.115841E+05 -2.518086E+06 -1.250112E+05 -1.805779E+06  2.867869E-09  1.301924E-08
         3  18  1.671104E+05 -1.082184E+06  1.899083E+05 -2.008143E+06 -1.361473E-09  1.854402E-08
         3  19  7.851280E+05  2.550953E+06  5.185804E+05 -1.872626E+06 -2.484288E+05  2.767257E+05
         3  20  5.110434E+05  1.110719E+06  3.709599E+05 -1.668851E+06 -1.430125E+05  3.447419E+05
         3  21  3.388882E+05 -2.956545E+05  2.923360E+05 -1.708376E+06 -3.546829E+04  4.127431E+05
         3  22  4.787676E+04 -6.909258E+05  7.043765E+04 -1.859682E+06 -2.465769E+05  3.932241E+04
         3  23  9.978844E+04 -7.054160E+05  1.229164E+05 -1.737417E+06 -1.410375E+05  1.027087E+05
         3  24  2.529446E+05 -6.890852E+05  2.410091E+05 -1.858308E+06 -3.338564E+04  1.662121E+05
         3  25 -6.898071E+05 -3.922035E+06 -3.776164E+05 -1.846774E+06 -2.447281E+05 -1.969007E+05
         3  26 -3.115581E+05 -2.518060E+06 -1.249384E+05 -1.805763E+06 -1.390049E+05 -1.386496E+05
         3  27  1.671132E+05 -1.082177E+06  1.899223E+05 -2.008141E+06 -3.118290E+04 -8.017009E+04
         4   1 -1.067629E+07 -3.116698E+06 -2.206820E+06 -3.585065E+06 -1.434047E+06 -5.389122E+05
         4   2 -1.018292E+07 -1.051031E+06 -8.471957E+05 -4.052294E+06 -9.206139E+05 -3.501920E+05
         4   3 -1.059030E+07 -1.315498E+06 -5.023155E+05 -3.960187E+06 -4.086563E+05 -1.576159E+05
         4   4 -1.106799E+07 -3.094484E+06 -2.281429E+06 -3.515247E+06 -1.434141E+06 -5.394543E+05
         4   5 -1.050004E+07 -1.128049E+06 -9.264805E+05 -4.093511E+06 -9.204989E+05 -3.502319E+05
         4   6 -1.083326E+07 -1.492569E+06 -5.869052E+05 -4.112363E+06 -4.082594E+05 -1.573954E+05
         4   7 -1.145948E+07 -3.072196E+06 -2.356024E+06 -3.445488E+06 -1.434235E+06 -5.399965E+05
         4   8 -1.081705E+07 -1.205070E+06 -1.005772E+06 -4.134714E+06 -9.203839E+05 -3.502718E+05
         4   9 -1.107615E+07 -1.669571E+06 -6.714989E+05 -4.264468E+06 -4.078626E+05 -1.571750E+05
         4  10 -1.067861E+07 -3.117580E+06 -2.211317E+06 -3.585695E+06 -4.528795E-09 -6.090265E-10
         4  11 -1.018387E+07 -1.051398E+06 -8.490547E+05 -4.052557E+06 -9.094755E-09  2.267604E-09
         4  12 -1.059048E+07 -1.315571E+06 -5.026832E+05 -3.960239E+06  1.046755E-09  6.517716E-10
         4  13 -1.107031E+07 -3.095367E+06 -2.285930E+06 -3.515878E+06  4.202848E-09  1.998867E-10
         4  14 -1.050099E+07 -1.128416E+06 -9.283400E+05 -4.093773E+06  3.812673E-09  1.108751E-09
         4  15 -1.083345E+07 -1.492642E+06 -5.872723E+05 -4.112415E+06  3.908736E-09  3.177055E-10
         4  16 -1.146180E+07 -3.073081E+06 -2.360529E+06 -3.446120E+06  5.954017E-09  6.227804E-10
         4  17 -1.081801E+07 -1.205437E+06 -1.007632E+06 -4.134977E+06 -1.790460E-09  3.196706E-09
         4  18 -1.107634E+07 -1.669643E+06 -6.718655E+05 -4.264520E+06  1.094060E-09 -1.732569E-09
         4  19 -1.067629E+07 -3.116698E+06 -2.206820E+06 -3.585065E+06  1.434047E+06  5.389122E+05
         4  20 -1.018292E+07 -1.051031E+06 -8.471957E+05 -4.052294E+06  9.206139E+05  3.501920E+05
         4  21 -1.059030E+07 -1.315498E+06 -5.023155E+05 -3.960187E+06  4.086563E+05  1.576159E+05
         4  22 -1.106799E+07 -3.094484E+06 -2.281429E+06 -3.515247E+06  1.434141E+06  5.394543E+05
         4  23 -1.050004E+07 -1.128049E+06 -9.264805E+05 -4.093511E+06  9.204989E+05  3.502319E+05
         4  24 -1.083326E+07 -1.492569E+06 -5.869052E+05 -4.112363E+06  4.082594E+05  1.573954E+05
         4  25 -1.145948E+07 -3.072196E+06 -2.356024E+06 -3.445488E+06  1.434235E+06  5.399965E+05
         4  26 -1.081705E+07 -1.205070E+06 -1.005772E+06 -4.134714E+06  9.203839E+05  3.502718E+05
         4  27 -1.107615E+07 -1.669571E+06 -6.714989E+05 -4.264468E+06  4.078626E+05  1.571750E+05
         5   1 -1.050943E+07 -1.665989E+06 -4.141664E+05 -3.894010E+06 -3.202097E+05 -1.239161E+05
         5   2 -1.043601E+07 -1.393930E+06 -1.546262E+05 -4.003046E+06 -2.053435E+05 -8.070925E+04
         5   3 -1.055706E+07 -1.419202E+06 -7.638096E+04 -3.967967E+06 -9.114409E+04 -3.573638E+04
         5   4 -1.077800E+07 -1.743553E+06 -4.838458E+05 -3.941572E+06 -3.202572E+05 -1.239506E+05
         5   5 -1.066276E+07 -1.474507E+06 -2.164518E+05 -4.058629E+06 -2.051697E+05 -8.064625E+04
         5   6 -1.074209E+07 -1.502918E+06 -1.305945E+05 -4.031557E+06 -9.074037E+04 -3.558132E+04
         5   7 -1.104651E+07 -1.821119E+06 -5.535306E+05 -3.989118E+06 -3.203046E+05 -1.239850E+05
         5   8 -1.088946E+07 -1.555083E+06 -2.782820E+05 -4.114193E+06 -2.049959E+05 -8.058327E+04
         5   9 -1.092708E+07 -1.586628E+06 -1.848115E+05 -4.095129E+06 -9.033678E+04 -3.542633E+04
         5  10 -1.050954E+07 -1.666033E+06 -4.143923E+05 -3.894043E+06  4.992499E-10 -1.019142E-10
         5  11 -1.043606E+07 -1.393949E+06 -1.547195E+05 -4.003060E+06  2.301962E-09  1.912007E-09
         5  12 -1.055707E+07 -1.419206E+06 -7.639932E+04 -3.967969E+06  3.970554E-09  4.884951E-10
         5  13 -1.077812E+07 -1.743598E+06 -4.840718E+05 -3.941604E+06 -6.283341E-10  3.254222E-10
         5  14 -1.066281E+07 -1.474526E+06 -2.165450E+05 -4.058642E+06  1.894146E-09 -2.675329E-10
         5  15 -1.074210E+07 -1.502922E+06 -1.306127E+05 -4.031560E+06  1.946231E-09 -1.730139E-09
         5  16 -1.104662E+07 -1.821164E+06 -5.537568E+05 -3.989151E+06  7.321079E-10 -5.737757E-10
         5  17 -1.088951E+07 -1.555101E+06 -2.783750E+05 -4.114207E+06  2.411984E-09 -3.740981E-09
         5  18 -1.092709E+07 -1.586632E+06 -1.848295E+05 -4.095132E+06 -2.402697E-09 -1.443166E-09
         5  19 -1.050943E+07 -1.665989E+06 -4.141664E+05 -3.894010E+06  3.202097E+05  1.239161E+05
         5  20 -1.043601E+07 -1.393930E+06 -1.546262E+05 -4.003046E+06  2.053435E+05  8.070925E+04
         5  21 -1.055706E+07 -1.419202E+06 -7.638096E+04 -3.967967E+06  9.114409E+04  3.573638E+04
         5  22 -1.077800E+07 -1.743553E+06 -4.838458E+05 -3.941572E+06  3.202572E+05  1.239506E+05
         5  23 -1.066276E+07 -1.474507E+06 -2.164518E+05 -4.058629E+06  2.051697E+05  8.064625E+04
         5  24 -1.074209E+07 -1.502918E+06 -1.305945E+05 -4.031557E+06  9.074037E+04  3.558132E+04
         5  25 -1.104651E+07 -1.821119E+06 -5.535306E+05 -3.989118E+06  3.203046E+05  1.239850E+05
         5  26 -1.088946E+07 -1.555083E+06 -2.782820E+05 -4.114193E+06  2.049959E+05  8.058327E+04
         5  27 -1.092708E+07 -1.586628E+06 -1.848115E+05 -4.095129E+06  9.033678E+04  3.542633E+04
         6   1 -1.085434E+07 -1.590705E+06 -1.392432E+05 -4.042872E+06 -7.228009E+04 -2.693075E+04
         6   2 -1.084632E+07 -1.587307E+06 -9.437410E+04 -4.096760E+06 -4.663426E+04 -1.537309E+04
         6   3 -1.092075E+07 -1.576735E+06 -8.356089E+04 -4.070125E+06 -2.058507E+04 -4.884669E+03
         6   4 -1.073253E+07 -1.540562E+06 -1.045086E+05 -4.006082E+06 -7.195753E+04 -2.680929E+04
         6   5 -1.068860E+07 -1.526271E+06 -5.035541E+04 -4.053034E+06 -4.647262E+04 -1.531214E+04
         6   6 -1.072707E+07 -1.504768E+06 -3.012467E+04 -4.019469E+06 -2.058272E+04 -4.883767E+03
         6   7 -1.061069E+07 -1.490416E+06 -6.977534E+04 -3.969284E+06 -7.163489E+04 -2.668780E+04
         6   8 -1.053084E+07 -1.465233E+06 -6.339012E+03 -4.009299E+06 -4.631093E+04 -1.525118E+04
         6   9 -1.053336E+07 -1.432800E+06  2.330813E+04 -3.968798E+06 -2.058037E+04 -4.882865E+03
         6  10 -1.085435E+07 -1.590708E+06 -1.392547E+05 -4.042874E+06  2.944872E-09 -4.749820E-09
         6  11 -1.084633E+07 -1.587308E+06 -9.437872E+04 -4.096760E+06 -8.448599E-10 -5.745417E-09
         6  12 -1.092075E+07 -1.576735E+06 -8.356175E+04 -4.070125E+06  2.381569E-09 -1.628283E-09
         6  13 -1.073253E+07 -1.540564E+06 -1.045199E+05 -4.006083E+06 -3.296002E-09 -2.444081E-09
         6  14 -1.068860E+07 -1.526272E+06 -5.036000E+04 -4.053035E+06  8.113562E-10  2.622714E-09
         6  15 -1.072708E+07 -1.504768E+06 -3.012553E+04 -4.019469E+06 -3.565846E-09  1.973347E-10
         6  16 -1.061070E+07 -1.490418E+06 -6.978654E+04 -3.969286E+06 -5.376339E-09 -4.501666E-09
         6  17 -1.053084E+07 -1.465234E+06 -6.343567E+03 -4.009299E+06 -2.955582E-10 -5.660176E-11
         6  18 -1.053336E+07 -1.432800E+06  2.330728E+04 -3.968798E+06 -1.178165E-09  4.139109E-10
         6  19 -1.085434E+07 -1.590705E+06 -1.392432E+05 -4.042872E+06  7.228009E+04  2.693075E+04
         6  20 -1.084632E+07 -1.587307E+06 -9.437410E+04 -4.096760E+06  4.663426E+04  1.537309E+04
         6  21 -1.092075E+07 -1.576735E+06 -8.356089E+04 -4.070125E+06  2.058507E+04  4.884669E+03
         6  22 -1.073253E+07 -1.540562E+06 -1.045086E+05 -4.006082E+06  7.195753E+04  2.680929E+04
         6  23 -1.068860E+07 -1.526271E+06 -5.035541E+04 -4.053034E+06  4.647262E+04  1.531214E+04
         6  24 -1.072707E+07 -1.504768E+06 -3.012467E+04 -4.019469E+06  2.058272E+04  4.883767E+03
         6  25 -1.061069E+07 -1.490416E+06 -6.977534E+04 -3.969284E+06  7.163489E+04  2.668780E+04
         6  26 -1.053084E+07 -1.465233E+06 -6.339012E+03 -4.009299E+06  4.631093E+04  1.525118E+04
         6  27 -1.053336E+07 -1.432800E+06  2.330813E+04 -3.968798E+06  2.058037E+04  4.882865E+03
         7   1 -1.102997E+07 -1.650428E+06 -1.137166E+05 -4.122921E+06 -1.664220E+04 -2.714217E+03
         7   2 -1.102743E+07 -1.632222E+06 -1.010302E+05 -4.113251E+06 -9.527501E+03  8.598744E+02
         7   3 -1.101242E+07 -1.638180E+06 -9.604029E+04 -4.118827E+06 -1.609164E+03  2.297095E+03
         7   4 -1.070824E+07 -1.527106E+06 -2.405998E+04 -4.034968E+06 -1.636171E+04 -2.608629E+03
         7   5 -1.071415E+07 -1.512751E+06 -1.395038E+04 -4.028205E+06 -9.574305E+03  8.421036E+02
         7   6 -1.070754E+07 -1.522490E+06 -1.127074E+04 -4.036689E+06 -1.983567E+03  2.156437E+03
         7   7 -1.038641E+07 -1.403779E+06  6.558670E+04 -3.946972E+06 -1.608107E+04 -2.502979E+03
         7   8 -1.040079E+07 -1.393274E+06  7.312021E+04 -3.943120E+06 -9.621134E+03  8.243233E+02
         7   9 -1.040256E+07 -1.406794E+06  7.349012E+04 -3.954514E+06 -2.358176E+03  2.015703E+03
         7  10 -1.102997E+07 -1.650428E+06 -1.137171E+05 -4.122922E+06 -3.005070E-09  2.020764E-09
         7  11 -1.102743E+07 -1.632222E+06 -1.010304E+05 -4.113251E+06  1.383827E-09  9.650434E-10
         7  12 -1.101242E+07 -1.638180E+06 -9.604030E+04 -4.118827E+06 -9.488818E-11  1.358012E-09
         7  13 -1.070824E+07 -1.527106E+06 -2.406050E+04 -4.034968E+06  2.547290E-09 -1.096050E-10
         7  14 -1.071415E+07 -1.512751E+06 -1.395055E+04 -4.028205E+06  5.173977E-09 -2.097357E-10
         7  15 -1.070754E+07 -1.522490E+06 -1.127076E+04 -4.036689E+06 -1.778679E-09  1.926726E-11
         7  16 -1.038641E+07 -1.403779E+06  6.558619E+04 -3.946972E+06  2.323131E-09 -1.965284E-09
         7  17 -1.040079E+07 -1.393274E+06  7.312003E+04 -3.943120E+06  2.948246E-09  5.463395E-09
         7  18 -1.040256E+07 -1.406794E+06  7.349011E+04 -3.954514E+06 -3.382667E-09  1.878755E-09
         7  19 -1.102997E+07 -1.650428E+06 -1.137166E+05 -4.122921E+06  1.664220E+04  2.714217E+03
         7  20 -1.102743E+07 -1.632222E+06 -1.010302E+05 -4.113251E+06  9.527501E+03 -8.598744E+02
         7  21 -1.101242E+07 -1.638180E+06 -9.604029E+04 -4.118827E+06  1.609164E+03 -2.297095E+03
         7  22 -1.070824E+07 -1.527106E+06 -2.405998E+04 -4.034968E+06  1.636171E+04  2.608629E+03
         7  23 -1.071415E+07 -1.512751E+06 -1.395038E+04 -4.028205E+06  9.574305E+03 -8.421036E+02
         7  24 -1.070754E+07 -1.522490E+06 -1.127074E+04 -4.036689E+06  1.983567E+03 -2.156437E+03
         7  25 -1.038641E+07 -1.403779E+06  6.558670E+04 -3.946972E+06  1.608107E+04  2.502979E+03
         7  26 -1.040079E+07 -1.393274E+06  7.312021E+04 -3.943120E+06  9.621134E+03 -8.243233E+02
         7  27 -1.040256E+07 -1.406794E+06  7.349012E+04 -3.954514E+06  2.358176E+03 -2.015703E+03
         8   1 -1.075345E+07 -1.556490E+06 -2.723111E+04 -4.066025E+06  4.588825E+02  1.800251E+03
         8   2 -1.074698E+07 -1.505024E+06 -1.875764E+04 -4.016291E+06  7.871000E+03  3.216563E+03
         8   3 -1.067664E+07 -1.530584E+06 -1.795253E+04 -4.042527E+06  1.533408E+04  4.498040E+03
         8   4 -1.069612E+07 -1.534334E+06 -1.131744E+04 -4.050139E+06  2.839842E+02  1.734634E+03
         8   5 -1.072839E+07 -1.498027E+06 -1.360919E+04 -4.011339E+06  7.675448E+03  3.143207E+03
         8   6 -1.069679E+07 -1.538742E+06 -2.355259E+04 -4.048509E+06  1.511739E+04  4.416759E+03
         8   7 -1.063878E+07 -1.512179E+06  4.595913E+03 -4.034252E+06  1.090679E+02  1.669010E+03
         8   8 -1.070979E+07 -1.491031E+06 -8.460770E+03 -4.006386E+06  7.479889E+03  3.069849E+03
         8   9 -1.071693E+07 -1.546900E+06 -2.915269E+04 -4.054490E+06  1.490071E+04  4.335481E+03
         8  10 -1.075345E+07 -1.556490E+06 -2.723111E+04 -4.066025E+06  3.363730E-09 -2.226293E-10
         8  11 -1.074698E+07 -1.505024E+06 -1.875778E+04 -4.016291E+06  3.322671E-09  2.577456E-09
         8  12 -1.067664E+07 -1.530584E+06 -1.795302E+04 -4.042527E+06  2.151662E-09 -4.155862E-09
         8  13 -1.069612E+07 -1.534334E+06 -1.131744E+04 -4.050139E+06 -4.361771E-09  1.538588E-09
         8  14 -1.072839E+07 -1.498027E+06 -1.360932E+04 -4.011339E+06 -9.589424E-09  1.300316E-09
         8  15 -1.069679E+07 -1.538742E+06 -2.355306E+04 -4.048509E+06  3.689700E-09 -5.726295E-10
         8  16 -1.063878E+07 -1.512179E+06  4.595908E+03 -4.034252E+06 -2.004436E-09  2.078443E-09
         8  17 -1.070979E+07 -1.491031E+06 -8.460896E+03 -4.006386E+06  1.626902E-09 -1.330768E-10
         8  18 -1.071693E+07 -1.546900E+06 -2.915315E+04 -4.054490E+06 -5.515316E-09 -2.669296E-10
         8  19 -1.075345E+07 -1.556490E+06 -2.723111E+04 -4.066025E+06 -4.588825E+02 -1.800251E+03
         8  20 -1.074698E+07 -1.505024E+06 -1.875764E+04 -4.016291E+06 -7.871000E+03 -3.216563E+03
         8  21 -1.067664E+07 -1.530584E+06 -1.795253E+04 -4.042527E+06 -1.533408E+04 -4.498040E+03
         8  22 -1.069612E+07 -1.534334E+06 -1.131744E+04 -4.050139E+06 -2.839842E+02 -1.734634E+03
         8  23 -1.072839E+07 -1.498027E+06 -1.360919E+04 -4.011339E+06 -7.675448E+03 -3.143207E+03
         8  24 -1.069679E+07 -1.538742E+06 -2.355259E+04 -4.048509E+06 -1.511739E+04 -4.416759E+03
         8  25 -1.063878E+07 -1.512179E+06  4.595913E+03 -4.034252E+06 -1.090679E+02 -1.669010E+03
         8  26 -1.070979E+07 -1.491031E+06 -8.460770E+03 -4.006386E+06 -7.479889E+03 -3.069849E+03
         8  27 -1.071693E+07 -1.546900E+06 -2.915269E+04 -4.054490E+06 -1.490071E+04 -4.335481E+03
         9   1 -1.041714E+07 -1.414085E+06  5.136938E+04 -3.963390E+06  2.029517E+04  4.983320E+03
         9   2 -1.040952E+07 -1.387729E+06  3.509805E+04 -3.944231E+06  4.595637E+04  1.299550E+04
         9   3 -1.040014E+07 -1.434895E+06 -1.367649E+04 -3.938534E+06  7.085263E+04  2.304365E+04
         9   4 -1.070846E+07 -1.523001E+06 -2.928890E+04 -4.040242E+06  1.991032E+04  4.838881E+03
         9   5 -1.071194E+07 -1.503670E+06 -4.906126E+04 -4.026997E+06  4.587507E+04  1.296471E+04
         9   6 -1.071372E+07 -1.557939E+06 -1.015935E+05 -4.027213E+06  7.107419E+04  2.312651E+04
         9   7 -1.099970E+07 -1.631913E+06 -1.099551E+05 -4.117061E+06  1.952566E+04  4.694514E+03
         9   8 -1.101427E+07 -1.619605E+06 -1.332292E+05 -4.109726E+06  4.579382E+04  1.293394E+04
         9   9 -1.102722E+07 -1.680975E+06 -1.895198E+05 -4.115850E+06  7.129562E+04  2.320931E+04
         9  10 -1.041714E+07 -1.414085E+06  5.136854E+04 -3.963390E+06  5.635282E-09 -9.002412E-10
         9  11 -1.040952E+07 -1.387730E+06  3.509369E+04 -3.944232E+06 -2.612535E-09  2.217527E-10
         9  12 -1.040014E+07 -1.434897E+06 -1.368713E+04 -3.938536E+06  6.208397E-10  8.358181E-09
         9  13 -1.070846E+07 -1.523001E+06 -2.928970E+04 -4.040242E+06  3.508567E-10 -8.681642E-10
         9  14 -1.071194E+07 -1.503671E+06 -4.906562E+04 -4.026997E+06 -3.008704E-09 -1.182462E-09
         9  15 -1.071373E+07 -1.557941E+06 -1.016042E+05 -4.027214E+06 -3.620846E-09  2.165282E-09
         9  16 -1.099970E+07 -1.631913E+06 -1.099558E+05 -4.117061E+06 -4.509352E-09  1.445754E-09
         9  17 -1.101427E+07 -1.619606E+06 -1.332335E+05 -4.109726E+06  1.145958E-09  5.475238E-09
         9  18 -1.102722E+07 -1.680977E+06 -1.895305E+05 -4.115851E+06 -4.441075E-10  1.651495E-09
         9  19 -1.041714E+07 -1.414085E+06  5.136938E+04 -3.963390E+06 -2.029517E+04 -4.983320E+03
         9  20 -1.040952E+07 -1.387729E+06  3.509805E+04 -3.944231E+06 -4.595637E+04 -1.299550E+04
         9  21 -1.040014E+07 -1.434895E+06 -1.367649E+04 -3.938534E+06 -7.085263E+04 -2.304365E+04
         9  22 -1.070846E+07 -1.523001E+06 -2.928890E+04 -4.040242E+06 -1.991032E+04 -4.838881E+03
         9  23 -1.071194E+07 -1.503670E+06 -4.906126E+04 -4.026997E+06 -4.587507E+04 -1.296471E+04
         9  24 -1.071372E+07 -1.557939E+06 -1.015935E+05 -4.027213E+06 -7.107419E+04 -2.312651E+04
         9  25 -1.099970E+07 -1.631913E+06 -1.099551E+05 -4.117061E+06 -1.952566E+04 -4.694514E+03
         9  26 -1.101427E+07 -1.619605E+06 -1.332292E+05 -4.109726E+06 -4.579382E+04 -1.293394E+04
         9  27 -1.102722E+07 -1.680975E+06 -1.895198E+05 -4.115850E+06 -7.129562E+04 -2.320931E+04
        10   1 -1.051205E+07 -1.426156E+06 -6.536310E+04 -3.979656E+06  8.971992E+04  3.073365E+04
        10   2 -1.047599E+07 -1.400972E+06 -1.576002E+05 -4.003749E+06  2.012820E+05  7.337777E+04
        10   3 -1.063706E+07 -1.657177E+06 -4.262645E+05 -3.878876E+06  3.124281E+05  1.170894E+05
        10   4 -1.074295E+07 -1.501726E+06 -1.270236E+05 -4.029634E+06  8.969055E+04  3.072478E+04
        10   5 -1.066190E+07 -1.477836E+06 -2.104723E+05 -4.060316E+06  2.013859E+05  7.341455E+04
        10   6 -1.077805E+07 -1.735421E+06 -4.704907E+05 -3.942017E+06  3.126743E+05  1.171669E+05
        10   7 -1.097380E+07 -1.577298E+06 -1.886886E+05 -4.079596E+06  8.966118E+04  3.071591E+04
        10   8 -1.084778E+07 -1.554696E+06 -2.633478E+05 -4.116867E+06  2.014898E+05  7.345131E+04
        10   9 -1.091902E+07 -1.813656E+06 -5.147189E+05 -4.005143E+06  3.129205E+05  1.172444E+05
        10  10 -1.051206E+07 -1.426159E+06 -6.538034E+04 -3.979658E+06  2.236977E-09  7.597293E-09
        10  11 -1.047604E+07 -1.400989E+06 -1.576881E+05 -4.003761E+06  2.641629E-09 -2.148875E-09
        10  12 -1.063717E+07 -1.657219E+06 -4.264778E+05 -3.878906E+06 -6.472131E-09  3.069913E-10
        10  13 -1.074296E+07 -1.501730E+06 -1.270408E+05 -4.029636E+06 -7.209592E-11  8.867117E-10
        10  14 -1.066195E+07 -1.477853E+06 -2.105604E+05 -4.060328E+06  2.385727E-09 -4.331312E-10
        10  15 -1.077816E+07 -1.735463E+06 -4.707044E+05 -3.942047E+06 -3.227864E-09  2.218071E-10
        10  16 -1.097381E+07 -1.577301E+06 -1.887059E+05 -4.079599E+06 -1.965380E-09 -1.985052E-09
        10  17 -1.084783E+07 -1.554713E+06 -2.634360E+05 -4.116879E+06  2.008891E-09  2.444781E-09
        10  18 -1.091913E+07 -1.813697E+06 -5.149330E+05 -4.005173E+06  4.790889E-09  1.954420E-09
        10  19 -1.051205E+07 -1.426156E+06 -6.536310E+04 -3.979656E+06 -8.971992E+04 -3.073365E+04
        10  20 -1.047599E+07 -1.400972E+06 -1.576002E+05 -4.003749E+06 -2.012820E+05 -7.337777E+04
        10  21 -1.063706E+07 -1.657177E+06 -4.262645E+05 -3.878876E+06 -3.124281E+05 -1.170894E+05
        10  22 -1.074295E+07 -1.501726E+06 -1.270236E+05 -4.029634E+06 -8.969055E+04 -3.072478E+04
        10  23 -1.066190E+07 -1.477836E+06 -2.104723E+05 -4.060316E+06 -2.013859E+05 -7.341455E+04
        10  24 -1.077805E+07 -1.735421E+06 -4.704907E+05 -3.942017E+06 -3.126743E+05 -1.171669E+05
        10  25 -1.097380E+07 -1.577298E+06 -1.886886E+05 -4.079596E+06 -8.966118E+04 -3.071591E+04
        10  26 -1.084778E+07 -1.554696E+06 -2.633478E+05 -4.116867E+06 -2.014898E+05 -7.345131E+04
        10  27 -1.091902E+07 -1.813656E+06 -5.147189E+05 -4.005143E+06 -3.129205E+05 -1.172444E+05
        11   1 -1.095397E+07 -1.597204E+06 -6.167431E+05 -4.201379E+06  3.970191E+05  1.510569E+05
        11   2 -1.070809E+07 -1.206369E+06 -9.552124E+05 -4.137077E+06  8.946426E+05  3.411154E+05
        11   3 -1.142649E+07 -2.995700E+06 -2.281805E+06 -3.429785E+06  1.393688E+06  5.274743E+05
        11   4 -1.084870E+07 -1.474559E+06 -5.707326E+05 -4.088936E+06  3.976291E+05  1.513547E+05
        11   5 -1.048184E+07 -1.162641E+06 -9.009142E+05 -4.118945E+06  8.948483E+05  3.411145E+05
        11   6 -1.107896E+07 -3.030369E+06 -2.218595E+06 -3.505971E+06  1.393601E+06  5.269618E+05
        11   7 -1.074340E+07 -1.351866E+06 -5.247202E+05 -3.976467E+06  3.982392E+05  1.516528E+05
        11   8 -1.025553E+07 -1.118914E+06 -8.466185E+05 -4.100811E+06  8.950540E+05  3.411136E+05
        11   9 -1.073124E+07 -3.064963E+06 -2.155371E+06 -3.582210E+06  1.393514E+06  5.264495E+05
        11  10 -1.095414E+07 -1.597272E+06 -6.170892E+05 -4.201428E+06 -9.242952E-10  1.174848E-10
        11  11 -1.070900E+07 -1.206717E+06 -9.569704E+05 -4.137326E+06 -1.460939E-09  4.156236E-10
        11  12 -1.142869E+07 -2.996538E+06 -2.286063E+06 -3.430385E+06  3.696507E-10 -1.035007E-09
        11  13 -1.084888E+07 -1.474628E+06 -5.710797E+05 -4.088985E+06  1.601086E-09  2.059214E-09
        11  14 -1.048274E+07 -1.162989E+06 -9.026724E+05 -4.119193E+06  1.515706E-09  3.145189E-10
        11  15 -1.108115E+07 -3.031206E+06 -2.222850E+06 -3.506570E+06 -1.276779E-09 -3.453545E-10
        11  16 -1.074358E+07 -1.351935E+06 -5.250684E+05 -3.976516E+06 -2.983434E-10  2.408711E-09
        11  17 -1.025644E+07 -1.119261E+06 -8.483768E+05 -4.101059E+06 -1.235017E-09 -1.665464E-10
        11  18 -1.073343E+07 -3.065799E+06 -2.159623E+06 -3.582809E+06  4.768901E-10  8.100592E-11
        11  19 -1.095397E+07 -1.597204E+06 -6.167431E+05 -4.201379E+06 -3.970191E+05 -1.510569E+05
        11  20 -1.070809E+07 -1.206369E+06 -9.552124E+05 -4.137077E+06 -8.946426E+05 -3.411154E+05
        11  21 -1.142649E+07 -2.995700E+06 -2.281805E+06 -3.429785E+06 -1.393688E+06 -5.274743E+05
        11  22 -1.084870E+07 -1.474559E+06 -5.707326E+05 -4.088936E+06 -3.976291E+05 -1.513547E+05
        11  23 -1.048184E+07 -1.162641E+06 -9.009142E+05 -4.118945E+06 -8.948483E+05 -3.411145E+05
        11  24 -1.107896E+07 -3.030369E+06 -2.218595E+06 -3.505971E+06 -1.393601E+06 -5.269618E+05
        11  25 -1.074340E+07 -1.351866E+06 -5.247202E+05 -3.976467E+06 -3.982392E+05 -1.516528E+05
        11  26 -1.025553E+07 -1.118914E+06 -8.466185E+05 -4.100811E+06 -8.950540E+05 -3.411136E+05
        11  27 -1.073124E+07 -3.064963E+06 -2.155371E+06 -3.582210E+06 -1.393514E+06 -5.264495E+05
        12   1  1.672149E+04 -1.196299E+05  2.465824E+04 -2.915036E+02  2.990371E+02 -7.799021E+02
        12   2  1.459135E+04 -1.212725E+05  2.598553E+04  1.765497E+02  3.075040E+02 -5.880669E+03
        12   3  2.123317E+04 -1.198331E+05  3.287220E+04  1.083198E+02  2.892811E+02 -1.098154E+04
        12   4  6.502447E+02 -1.839154E+05  8.598279E+03 -1.200706E+02  2.990389E+02 -7.813880E+02
        12   5 -1.454309E+03 -1.854560E+05  9.951378E+03  1.496510E+02  3.075061E+02 -5.879773E+03
        12   6  5.213186E+03 -1.839147E+05  1.686259E+04 -1.169165E+02  2.892854E+02 -1.097826E+04
        12   7 -1.542132E+04 -2.481971E+05 -7.461993E+03  5.134466E+01  2.990407E+02 -7.828737E+02
        12   8 -1.750028E+04 -2.496357E+05 -6.083085E+03  1.227554E+02  3.075081E+02 -5.878876E+03
        12   9 -1.080711E+04 -2.479925E+05  8.526684E+02 -3.421290E+02  2.892897E+02 -1.097498E+04
        12  10  1.672149E+04 -1.196299E+05  2.465824E+04 -2.915034E+02 -2.805107E-09  5.127202E-10
        12  11  1.459134E+04 -1.212725E+05  2.598546E+04  1.765512E+02 -7.366906E-10 -1.938834E-10
        12  12  2.123314E+04 -1.198332E+05  3.287198E+04  1.083223E+02 -3.260671E-09  6.507350E-10
        12  13  6.502445E+02 -1.839154E+05  8.598278E+03 -1.200704E+02 -1.578943E-09 -2.122053E-11
        12  14 -1.454318E+03 -1.854560E+05  9.951313E+03  1.496524E+02 -1.219386E-09 -3.583650E-12
        12  15  5.213154E+03 -1.839148E+05  1.686236E+04 -1.169140E+02  5.102130E-09  1.168604E-10
        12  16 -1.542132E+04 -2.481971E+05 -7.461994E+03  5.134485E+01  1.770554E-09 -5.135060E-10
        12  17 -1.750029E+04 -2.496357E+05 -6.083150E+03  1.227568E+02  4.671153E-10  1.417533E-10
        12  18 -1.080714E+04 -2.479927E+05  8.524418E+02 -3.421265E+02  6.654049E-09 -6.431794E-10
        12  19  1.672149E+04 -1.196299E+05  2.465824E+04 -2.915036E+02 -2.990371E+02  7.799021E+02
        12  20  1.459135E+04 -1.212725E+05  2.598553E+04  1.765497E+02 -3.075040E+02  5.880669E+03
        12  21  2.123317E+04 -1.198331E+05  3.287220E+04  1.083198E+02 -2.892811E+02  1.098154E+04
        12  22  6.502447E+02 -1.839154E+05  8.598279E+03 -1.200706E+02 -2.990389E+02  7.813880E+02
        12  23 -1.454309E+03 -1.854560E+05  9.951378E+03  1.496510E+02 -3.075061E+02  5.879773E+03
        12  24  5.213186E+03 -1.839147E+05  1.686259E+04 -1.169165E+02 -2.892854E+02  1.097826E+04
        12  25 -1.542132E+04 -2.481971E+05 -7.461993E+03  5.134466E+01 -2.990407E+02  7.828737E+02
        12  26 -1.750028E+04 -2.496357E+05 -6.083085E+03  1.227554E+02 -3.075081E+02  5.878876E+03
        12  27 -1.080711E+04 -2.479925E+05  8.526684E+02 -3.421290E+02 -2.892897E+02  1.097498E+04
        13   1  1.317138E+04 -1.249989E+05  3.453114E+04 -1.242295E+03  2.873658E+02 -1.436784E+04
        13   2  5.879878E+03 -1.325989E+05  4.575372E+04  7.650042E+02  3.005985E+02 -3.106246E+04
        13   3  4.768663E+04 -1.255812E+05  8.015646E+04  1.272459E+03  2.788834E+02 -4.775723E+04
        13   4 -9.181947E+02 -1.813515E+05  2.045339E+04 -3.467016E+02  2.873477E+02 -1.436824E+04
        13   5 -8.134022E+03 -1.886582E+05  3.174943E+04  4.243802E+02  3.006157E+02 -3.105902E+04
        13   6  3.375011E+04 -1.813467E+05  6.622441E+04 -3.043922E+02  2.790010E+02 -4.774998E+04
        13   7 -1.500801E+04 -2.377011E+05  6.375406E+03  5.488112E+02  2.873296E+02 -1.436864E+04
        13   8 -2.214816E+04 -2.447147E+05  1.774491E+04  8.378769E+01  3.006330E+02 -3.105559E+04
        13   9  1.981337E+04 -2.371094E+05  5.229213E+04 -1.881101E+03  2.791185E+02 -4.774272E+04
        13  10  1.317133E+04 -1.249992E+05  3.453075E+04 -1.242292E+03 -2.716831E-09 -2.791529E-10
        13  11  5.879619E+03 -1.325999E+05  4.575191E+04  7.650118E+02 -1.639935E-09 -6.269066E-10
        13  12  4.768602E+04 -1.255836E+05  8.015217E+04  1.272470E+03 -8.833489E-10  6.007534E-10
        13  13 -9.182502E+02 -1.813517E+05  2.045300E+04 -3.466983E+02 -3.968013E-10 -2.020297E-10
        13  14 -8.134281E+03 -1.886593E+05  3.174762E+04  4.243877E+02 -1.154738E-09 -4.015199E-12
        13  15  3.374950E+04 -1.813492E+05  6.622013E+04 -3.043815E+02  3.008555E-09  2.245665E-10
        13  16 -1.500807E+04 -2.377013E+05  6.375017E+03  5.488146E+02  4.014076E-09  3.175138E-10
        13  17 -2.214842E+04 -2.447157E+05  1.774310E+04  8.379521E+01 -2.258431E-09  5.037420E-10
        13  18  1.981275E+04 -2.371119E+05  5.228785E+04 -1.881091E+03 -3.130087E-10 -6.377854E-10
        13  19  1.317138E+04 -1.249989E+05  3.453114E+04 -1.242295E+03 -2.873658E+02  1.436784E+04
        13  20  5.879878E+03 -1.325989E+05  4.575372E+04  7.650042E+02 -3.005985E+02  3.106246E+04
        13  21  4.768663E+04 -1.255812E+05  8.015646E+04  1.272459E+03 -2.788834E+02  4.775723E+04
        13  22 -9.181947E+02 -1.813515E+05  2.045339E+04 -3.467016E+02 -2.873477E+02  1.436824E+04
        13  23 -8.134022E+03 -1.886582E+05  3.174943E+04  4.243802E+02 -3.006157E+02  3.105902E+04
        13  24  3.375011E+04 -1.813467E+05  6.622441E+04 -3.043922E+02 -2.790010E+02  4.774998E+04
        13  25 -1.500801E+04 -2.377011E+05  6.375406E+03  5.488112E+02 -2.873296E+02  1.436864E+04
        13  26 -2.214816E+04 -2.447147E+05  1.774491E+04  8.378769E+01 -3.006330E+02  3.105559E+04
        13  27  1.981337E+04 -2.371094E+05  5.229213E+04 -1.881101E+03 -2.791185E+02  4.774272E+04
        14   1  3.510001E+03 -1.239937E+05  9.012149E+04 -6.012519E+03  3.044267E+02 -6.102583E+04
        14   2 -4.175486E+04 -1.679592E+05  1.311287E+05  3.293641E+03  4.070654E+02 -1.271922E+05
        14   3  2.266397E+05 -1.247985E+05  2.936692E+05  1.066683E+04  3.929637E+02 -1.933564E+05
        14   4 -6.819070E+03 -1.652379E+05  7.981585E+04 -5.535478E+02  3.038983E+02 -6.102822E+04
        14   5 -5.195126E+04 -2.087849E+05  1.209328E+05  6.012080E+02  4.076128E+02 -1.271825E+05
        14   6  2.165845E+05 -1.652026E+05  2.835802E+05 -1.773535E+02  3.963213E+02 -1.933346E+05
        14   7 -1.714816E+04 -2.064804E+05  6.951010E+04  4.905061E+03  3.033698E+02 -6.103062E+04
        14   8 -6.214775E+04 -2.496090E+05  1.107367E+05 -2.091048E+03  4.081602E+02 -1.271728E+05
        14   9  2.065296E+05 -2.056050E+05  2.734910E+05 -1.102083E+04  3.996784E+02 -1.933129E+05
        14  10  3.509001E+03 -1.239977E+05  9.011449E+04 -6.012504E+03 -2.586662E-11 -1.173699E-10
        14  11 -4.175920E+04 -1.679765E+05  1.310983E+05  3.293683E+03  2.857198E-10 -8.314072E-10
        14  12  2.266296E+05 -1.248387E+05  2.935990E+05  1.066689E+04  2.105467E-09  3.324377E-10
        14  13 -6.820070E+03 -1.652419E+05  7.980885E+04 -5.535329E+02  3.158659E-09 -3.409795E-10
        14  14 -5.195560E+04 -2.088022E+05  1.209024E+05  6.012497E+02  2.401423E-10  8.780489E-12
        14  15  2.165744E+05 -1.652428E+05  2.835099E+05 -1.772918E+02  2.193939E-09  3.349920E-10
        14  16 -1.714916E+04 -2.064844E+05  6.950310E+04  4.905076E+03 -1.744103E-09  5.628478E-11
        14  17 -6.215210E+04 -2.496264E+05  1.107063E+05 -2.091006E+03 -2.743100E-09  6.288167E-10
        14  18  2.065196E+05 -2.056452E+05  2.734208E+05 -1.102077E+04  8.604101E-10 -3.743666E-10
        14  19  3.510001E+03 -1.239937E+05  9.012149E+04 -6.012519E+03 -3.044267E+02  6.102583E+04
        14  20 -4.175486E+04 -1.679592E+05  1.311287E+05  3.293641E+03 -4.070654E+02  1.271922E+05
        14  21  2.266397E+05 -1.247985E+05  2.936692E+05  1.066683E+04 -3.929637E+02  1.933564E+05
        14  22 -6.819070E+03 -1.652379E+05  7.981585E+04 -5.535478E+02 -3.038983E+02  6.102822E+04
        14  23 -5.195126E+04 -2.087849E+05  1.209328E+05  6.012080E+02 -4.076128E+02  1.271825E+05
        14  24  2.165845E+05 -1.652026E+05  2.835802E+05 -1.773535E+02 -3.963213E+02  1.933346E+05
        14  25 -1.714816E+04 -2.064804E+05  6.951010E+04  4.905061E+03 -3.033698E+02  6.103062E+04
        14  26 -6.214775E+04 -2.496090E+05  1.107367E+05 -2.091048E+03 -4.081602E+02  1.271728E+05
        14  27  2.065296E+05 -2.056050E+05  2.734910E+05 -1.102083E+04 -3.996784E+02  1.933129E+05
        15   1  1.418332E+05 -8.359058E+05  1.371229E+05 -3.184513E+02  1.799179E+04 -3.645928E+00
        15   2  1.413903E+05 -8.378090E+05  1.366544E+05  1.701648E+02  1.795056E+04  1.003213E+01
        15   3  1.409862E+05 -8.393403E+05  1.362634E+05 -6.336881E+02  1.785156E+04  2.359943E+01
        15   4 -5.466412E+01 -1.407482E+06 -4.218792E+01 -2.872343E+02  1.799289E+04  2.573799E+00
        15   5 -7.007790E+01 -1.407665E+06 -9.390257E+01  3.590479E+02  1.795163E+04  4.530836E+01
        15   6 -5.179123E+01 -1.407482E+06 -8.831615E+01 -2.872075E+02  1.785260E+04  8.793263E+01
        15   7 -1.419664E+05 -1.978759E+06 -1.372305E+05 -2.560386E+02  1.799399E+04  8.787816E+00
        15   8 -1.415541E+05 -1.977224E+06 -1.368652E+05  5.477894E+02  1.795271E+04  8.055230E+01
        15   9 -1.411133E+05 -1.975327E+06 -1.364629E+05  5.901225E+01  1.785363E+04  1.522071E+02
        15  10  1.418329E+05 -8.359059E+05  1.371223E+05 -3.184513E+02 -3.049179E-09 -7.082339E-10
        15  11  1.413899E+05 -8.378091E+05  1.366538E+05  1.701647E+02  3.926355E-09 -2.569907E-09
        15  12  1.409859E+05 -8.393403E+05  1.362628E+05 -6.336885E+02 -7.016633E-09 -1.880451E-11
        15  13 -5.501153E+01 -1.407482E+06 -4.279589E+01 -2.872343E+02 -5.123178E-09  7.395790E-12
        15  14 -7.042373E+01 -1.407665E+06 -9.450776E+01  3.590472E+02 -1.928179E-09 -4.263370E-10
        15  15 -5.213325E+01 -1.407482E+06 -8.891470E+01 -2.872088E+02  3.804038E-09  2.096180E-10
        15  16 -1.419667E+05 -1.978759E+06 -1.372311E+05 -2.560387E+02  1.393281E-09  5.676649E-10
        15  17 -1.415544E+05 -1.977224E+06 -1.368658E+05  5.477882E+02 -5.721279E-09  2.042060E-09
        15  18 -1.411136E+05 -1.975327E+06 -1.364635E+05  5.901006E+01 -2.783167E-11 -3.211874E-11
        15  19  1.418332E+05 -8.359058E+05  1.371229E+05 -3.184513E+02 -1.799179E+04  3.645928E+00
        15  20  1.413903E+05 -8.378090E+05  1.366544E+05  1.701648E+02 -1.795056E+04 -1.003213E+01
        15  21  1.409862E+05 -8.393403E+05  1.362634E+05 -6.336881E+02 -1.785156E+04 -2.359943E+01
        15  22 -5.466412E+01 -1.407482E+06 -4.218792E+01 -2.872343E+02 -1.799289E+04 -2.573799E+00
        15  23 -7.007790E+01 -1.407665E+06 -9.390257E+01  3.590479E+02 -1.795163E+04 -4.530836E+01
        15  24 -5.179123E+01 -1.407482E+06 -8.831615E+01 -2.872075E+02 -1.785260E+04 -8.793263E+01
        15  25 -1.419664E+05 -1.978759E+06 -1.372305E+05 -2.560386E+02 -1.799399E+04 -8.787816E+00
        15  26 -1.415541E+05 -1.977224E+06 -1.368652E+05  5.477894E+02 -1.795271E+04 -8.055230E+01
        15  27 -1.411133E+05 -1.975327E+06 -1.364629E+05  5.901225E+01 -1.785363E+04 -1.522071E+02
        16   1  1.398325E+05 -8.439814E+05  1.351020E+05 -1.254263E+03  1.776995E+04  2.725262E+01
        16   2  1.385473E+05 -8.492748E+05  1.337537E+05  5.138742E+02  1.758901E+04  1.144701E+02
        16   3  1.372963E+05 -8.542328E+05  1.324285E+05 -1.547556E+03  1.735129E+04  2.013632E+02
        16   4 -5.134810E+01 -1.407489E+06 -1.168450E+02 -8.510454E+02  1.777094E+04  1.039682E+02
        16   5 -6.551018E+01 -1.407653E+06 -2.412379E+02  1.063857E+03  1.758992E+04  2.196899E+02
        16   6 -5.057938E+01 -1.407488E+06 -3.624852E+02 -8.510236E+02  1.735209E+04  3.350880E+02
        16   7 -1.399583E+05 -1.970704E+06 -1.353583E+05 -4.481243E+02  1.777194E+04  1.806142E+02
        16   8 -1.387010E+05 -1.965745E+06 -1.342583E+05  1.613436E+03  1.759083E+04  3.248153E+02
        16   9 -1.374198E+05 -1.960461E+06 -1.331752E+05 -1.549993E+02  1.735290E+04  4.686938E+02
        16  10  1.398322E+05 -8.439814E+05  1.351014E+05 -1.254263E+03 -3.980008E-09  2.123314E-09
        16  11  1.385470E+05 -8.492749E+05  1.337531E+05  5.138725E+02  3.964200E-09 -4.636030E-09
        16  12  1.372960E+05 -8.542329E+05  1.324279E+05 -1.547559E+03  1.347904E-09 -6.544220E-09
        16  13 -5.168700E+01 -1.407489E+06 -1.174381E+02 -8.510469E+02  3.759087E-10  5.947720E-10
        16  14 -6.584222E+01 -1.407653E+06 -2.418191E+02  1.063854E+03  1.878649E-09 -1.320918E-09
        16  15 -5.090252E+01 -1.407488E+06 -3.630508E+02 -8.510283E+02  6.125509E-10  5.683316E-10
        16  16 -1.399587E+05 -1.970704E+06 -1.353588E+05 -4.481269E+02  1.277666E-09 -2.154396E-09
        16  17 -1.387014E+05 -1.965745E+06 -1.342589E+05  1.613431E+03  5.895435E-10  3.129242E-09
        16  18 -1.374201E+05 -1.960461E+06 -1.331757E+05 -1.550059E+02  3.219940E-10  6.048984E-09
        16  19  1.398325E+05 -8.439814E+05  1.351020E+05 -1.254263E+03 -1.776995E+04 -2.725262E+01
        16  20  1.385473E+05 -8.492748E+05  1.337537E+05  5.138742E+02 -1.758901E+04 -1.144701E+02
        16  21  1.372963E+05 -8.542328E+05  1.324285E+05 -1.547556E+03 -1.735129E+04 -2.013632E+02
        16  22 -5.134810E+01 -1.407489E+06 -1.168450E+02 -8.510454E+02 -1.777094E+04 -1.039682E+02
        16  23 -6.551018E+01 -1.407653E+06 -2.412379E+02  1.063857E+03 -1.758992E+04 -2.196899E+02
        16  24 -5.057938E+01 -1.407488E+06 -3.624852E+02 -8.510236E+02 -1.735209E+04 -3.350880E+02
        16  25 -1.399583E+05 -1.970704E+06 -1.353583E+05 -4.481243E+02 -1.777194E+04 -1.806142E+02
        16  26 -1.387010E+05 -1.965745E+06 -1.342583E+05  1.613436E+03 -1.759083E+04 -3.248153E+02
        16  27 -1.374198E+05 -1.960461E+06 -1.331752E+05 -1.549993E+02 -1.735290E+04 -4.686938E+02
        17   1  1.350261E+05 -8.634228E+05  1.300694E+05 -2.123116E+03  1.719001E+04  2.637185E+02
        17   2  1.329308E+05 -8.719629E+05  1.276718E+05  8.836021E+02  1.687230E+04  6.643829E+02
        17   3  1.307639E+05 -8.802843E+05  1.250560E+05 -2.399768E+03  1.649676E+04  1.064517E+03
        17   4 -3.778943E+01 -1.407511E+06 -4.807053E+02 -1.397766E+03  1.719074E+04  4.085334E+02
        17   5 -4.407753E+01 -1.407617E+06 -8.719793E+02  1.747352E+03  1.687288E+04  8.379897E+02
        17   6 -1.273292E+02 -1.407509E+06 -1.501671E+03 -1.397963E+03  1.649719E+04  1.266921E+03
        17   7 -1.351232E+05 -1.951327E+06 -1.310518E+05 -6.729297E+02  1.719147E+04  5.532216E+02
        17   8 -1.330399E+05 -1.943007E+06 -1.294361E+05  2.610494E+03  1.687347E+04  1.011447E+03
        17   9 -1.310388E+05 -1.934479E+06 -1.280791E+05 -3.968551E+02  1.649761E+04  1.469152E+03
        17  10  1.350257E+05 -8.634229E+05  1.300688E+05 -2.123120E+03 -6.622164E-11 -1.015163E-09
        17  11  1.329305E+05 -8.719630E+05  1.276712E+05  8.835931E+02  2.506324E-09  7.149970E-09
        17  12  1.307636E+05 -8.802844E+05  1.250555E+05 -2.399782E+03 -7.624289E-10  1.456927E-08
        17  13 -3.810661E+01 -1.407511E+06 -4.812606E+02 -1.397772E+03  4.328509E-09  8.621664E-10
        17  14 -4.438323E+01 -1.407617E+06 -8.725153E+02  1.747340E+03  5.164159E-09 -2.139867E-09
        17  15 -1.276217E+02 -1.407510E+06 -1.502185E+03 -1.397980E+03 -3.922445E-09  9.776408E-10
        17  16 -1.351235E+05 -1.951327E+06 -1.310524E+05 -6.729374E+02  3.015314E-09  1.084240E-09
        17  17 -1.330402E+05 -1.943007E+06 -1.294367E+05  2.610480E+03  4.384194E-09 -9.812541E-09
        17  18 -1.310391E+05 -1.934480E+06 -1.280796E+05 -3.968746E+02 -8.677309E-12 -1.497842E-08
        17  19  1.350261E+05 -8.634228E+05  1.300694E+05 -2.123116E+03 -1.719001E+04 -2.637185E+02
        17  20  1.329308E+05 -8.719629E+05  1.276718E+05  8.836021E+02 -1.687230E+04 -6.643829E+02
        17  21  1.307639E+05 -8.802843E+05  1.250560E+05 -2.399768E+03 -1.649676E+04 -1.064517E+03
        17  22 -3.778943E+01 -1.407511E+06 -4.807053E+02 -1.397766E+03 -1.719074E+04 -4.085334E+02
        17  23 -4.407753E+01 -1.407617E+06 -8.719793E+02  1.747352E+03 -1.687288E+04 -8.379897E+02
        17  24 -1.273292E+02 -1.407509E+06 -1.501671E+03 -1.397963E+03 -1.649719E+04 -1.266921E+03
        17  25 -1.351232E+05 -1.951327E+06 -1.310518E+05 -6.729297E+02 -1.719147E+04 -5.532216E+02
        17  26 -1.330399E+05 -1.943007E+06 -1.294361E+05  2.610494E+03 -1.687347E+04 -1.011447E+03
        17  27 -1.310388E+05 -1.934479E+06 -1.280791E+05 -3.968551E+02 -1.649761E+04 -1.469152E+03
        18   1  9.228538E+04  9.855954E+05  5.184255E+04 -4.331366E+00  3.239495E+04  2.286403E-01
        18   2  9.229073E+04  9.856198E+05  5.185112E+04 -2.505879E+01  3.239622E+04 -5.950117E+00
        18   3  9.229738E+04  9.856543E+05  5.186691E+04 -4.254583E+01  3.239879E+04 -1.212851E+01
        18   4 -3.397946E+01  5.754487E+05  1.654929E+01  7.204104E-01  3.239721E+04 -1.286637E+00
        18   5 -3.564326E+01  5.754434E+05  1.969687E+01 -8.994577E-01  3.239848E+04 -1.055332E+01
        18   6 -3.548092E+01  5.754487E+05  3.221472E+01  7.218505E-01  3.240105E+04 -1.981968E+01
        18   7 -9.236018E+04  1.654745E+05 -5.180998E+04  5.769318E+00  3.239947E+04 -2.800964E+00
        18   8 -9.236886E+04  1.654395E+05 -5.181226E+04  2.324594E+01  3.240075E+04 -1.515363E+01
        18   9 -9.237519E+04  1.654157E+05 -5.180302E+04  4.396452E+01  3.240331E+04 -2.750602E+01
        18  10  9.228425E+04  9.855952E+05  5.184058E+04 -4.331372E+00 -2.977623E-09 -6.036731E-08
        18  11  9.228961E+04  9.856195E+05  5.184915E+04 -2.505864E+01  1.560942E-10 -2.342482E-09
        18  12  9.229625E+04  9.856540E+05  5.186494E+04 -4.254551E+01  1.062483E-09  5.620805E-08
        18  13 -3.510683E+01  5.754484E+05  1.457639E+01  7.204441E-01 -5.215136E-09 -1.662439E-11
        18  14 -3.677072E+01  5.754431E+05  1.772382E+01 -8.991824E-01 -1.073120E-10 -1.545787E-10
        18  15 -3.660856E+01  5.754484E+05  3.024135E+01  7.223675E-01  1.185780E-09  1.583632E-10
        18  16 -9.236131E+04  1.654743E+05 -5.181196E+04  5.769391E+00 -2.462275E-09  6.034464E-08
        18  17 -9.236999E+04  1.654392E+05 -5.181423E+04  2.324634E+01  2.834464E-10  2.264489E-09
        18  18 -9.237631E+04  1.654155E+05 -5.180499E+04  4.396524E+01 -2.197535E-10 -5.619093E-08
        18  19  9.228538E+04  9.855954E+05  5.184255E+04 -4.331366E+00 -3.239495E+04 -2.286404E-01
        18  20  9.229073E+04  9.856198E+05  5.185112E+04 -2.505879E+01 -3.239622E+04  5.950117E+00
        18  21  9.229738E+04  9.856543E+05  5.186691E+04 -4.254583E+01 -3.239879E+04  1.212851E+01
        18  22 -3.397946E+01  5.754487E+05  1.654929E+01  7.204106E-01 -3.239721E+04  1.286637E+00
        18  23 -3.564326E+01  5.754434E+05  1.969687E+01 -8.994578E-01 -3.239848E+04  1.055332E+01
        18  24 -3.548092E+01  5.754487E+05  3.221471E+01  7.218503E-01 -3.240105E+04  1.981968E+01
        18  25 -9.236018E+04  1.654745E+05 -5.180998E+04  5.769318E+00 -3.239947E+04  2.800964E+00
        18  26 -9.236886E+04  1.654395E+05 -5.181226E+04  2.324594E+01 -3.240075E+04  1.515363E+01
        18  27 -9.237519E+04  1.654157E+05 -5.180302E+04  4.396452E+01 -3.240331E+04  2.750602E+01
        19   1  9.230495E+04  9.856912E+05  5.188166E+04 -5.098026E+01  3.240110E+04 -1.555249E+01
        19   2  9.232172E+04  9.857718E+05  5.192586E+04 -8.034946E+01  3.240499E+04 -5.207227E+01
        19   3  9.234142E+04  9.858670E+05  5.199744E+04 -9.577589E+01  3.240788E+04 -8.859118E+01
        19   4 -3.623064E+01  5.754495E+05  4.152460E+01  3.100303E+00  3.240336E+04 -2.609340E+01
        19   5 -4.015269E+01  5.754424E+05  6.990675E+01 -3.871031E+00  3.240725E+04 -6.017525E+01
        19   6 -4.157107E+01  5.754494E+05  1.239765E+02  3.100933E+00  3.241014E+04 -9.425623E+01
        19   7 -9.238426E+04  1.653803E+05 -5.179914E+04  5.714963E+01  3.240562E+04 -3.662769E+01
        19   8 -9.240888E+04  1.652856E+05 -5.178659E+04  7.256281E+01  3.240952E+04 -6.827315E+01
        19   9 -9.243142E+04  1.652046E+05 -5.175002E+04  1.019198E+02  3.241241E+04 -9.991772E+01
        19  10  9.230382E+04  9.856909E+05  5.187968E+04 -5.097986E+01  3.772253E-09  1.508111E-08
        19  11  9.232060E+04  9.857716E+05  5.192389E+04 -8.034810E+01  1.037229E-09 -2.315214E-08
        19  12  9.234030E+04  9.858667E+05  5.199546E+04 -9.577358E+01  2.574424E-09 -5.837362E-08
        19  13 -3.735843E+01  5.754492E+05  3.955095E+01  3.100984E+00  2.075067E-09  1.774522E-10
        19  14 -4.128076E+01  5.754421E+05  6.793263E+01 -3.869461E+00 -2.367780E-11 -5.020854E-10
        19  15 -4.269935E+01  5.754492E+05  1.220020E+02  3.103393E+00  1.400695E-09  3.163418E-10
        19  16 -9.238539E+04  1.653800E+05 -5.180111E+04  5.715058E+01 -4.335993E-09 -1.528008E-08
        19  17 -9.241001E+04  1.652854E+05 -5.178856E+04  7.256459E+01  1.451548E-09  2.288677E-08
        19  18 -9.243255E+04  1.652044E+05 -5.175200E+04  1.019224E+02  3.117512E-10  5.843964E-08
        19  19  9.230495E+04  9.856912E+05  5.188166E+04 -5.098026E+01 -3.240110E+04  1.555249E+01
        19  20  9.232172E+04  9.857718E+05  5.192586E+04 -8.034946E+01 -3.240499E+04  5.207227E+01
        19  21  9.234142E+04  9.858670E+05  5.199744E+04 -9.577589E+01 -3.240788E+04  8.859118E+01
        19  22 -3.623064E+01  5.754495E+05  4.152460E+01  3.100303E+00 -3.240336E+04  2.609340E+01
        19  23 -4.015269E+01  5.754424E+05  6.990675E+01 -3.871031E+00 -3.240725E+04  6.017525E+01
        19  24 -4.157107E+01  5.754494E+05  1.239765E+02  3.100933E+00 -3.241014E+04  9.425623E+01
        19  25 -9.238426E+04  1.653803E+05 -5.179914E+04  5.714963E+01 -3.240562E+04  3.662769E+01
        19  26 -9.240888E+04  1.652856E+05 -5.178659E+04  7.256281E+01 -3.240952E+04  6.827315E+01
        19  27 -9.243142E+04  1.652046E+05 -5.175002E+04  1.019198E+02 -3.241241E+04  9.991772E+01
        20   1  9.235713E+04  9.859446E+05  5.205199E+04 -1.083728E+02  3.241018E+04 -1.126873E+02
        20   2  9.238951E+04  9.860716E+05  5.221818E+04 -1.472799E+02  3.240408E+04 -2.971176E+02
        20   3  9.244513E+04  9.862375E+05  5.251302E+04 -1.628315E+02  3.237970E+04 -4.815520E+02
        20   4 -4.359125E+01  5.754532E+05  1.636703E+02  5.191426E+00  3.241244E+04 -1.198146E+02
        20   5 -4.880818E+01  5.754376E+05  2.846022E+02 -6.485077E+00  3.240633E+04 -2.602179E+02
        20   6 -3.839509E+01  5.754531E+05  5.036780E+02  5.194040E+00  3.238193E+04 -4.006259E+02
        20   7 -9.245117E+04  1.651347E+05 -5.172518E+04  1.186887E+02  3.241471E+04 -1.269374E+02
        20   8 -9.249399E+04  1.649764E+05 -5.164953E+04  1.342261E+02  3.240858E+04 -2.233414E+02
        20   9 -9.252880E+04  1.648418E+05 -5.150623E+04  1.731193E+02  3.238416E+04 -3.197506E+02
        20  10  9.235601E+04  9.859443E+05  5.205001E+04 -1.083698E+02 -7.928841E-10  1.289852E-07
        20  11  9.238838E+04  9.860713E+05  5.221621E+04 -1.472722E+02 -1.049221E-09  2.283560E-08
        20  12  9.244401E+04  9.862372E+05  5.251105E+04 -1.628190E+02 -4.400407E-11 -8.295208E-08
        20  13 -4.471969E+01  5.754529E+05  1.616955E+02  5.194553E+00  1.892657E-09  3.318212E-10
        20  14 -4.993620E+01  5.754373E+05  2.826281E+02 -6.478287E+00  3.814197E-09 -7.664286E-10
        20  15 -3.952144E+01  5.754529E+05  5.017066E+02  5.204486E+00 -2.089054E-09  4.775037E-10
        20  16 -9.245230E+04  1.651344E+05 -5.172716E+04  1.186920E+02 -1.255136E-09 -1.292834E-07
        20  17 -9.249511E+04  1.649761E+05 -5.165150E+04  1.342320E+02 -3.049574E-09 -2.303925E-08
        20  18 -9.252992E+04  1.648415E+05 -5.150820E+04  1.731276E+02 -6.555968E-10  8.312136E-08
        20  19  9.235713E+04  9.859446E+05  5.205199E+04 -1.083728E+02 -3.241018E+04  1.126873E+02
        20  20  9.238951E+04  9.860716E+05  5.221818E+04 -1.472799E+02 -3.240408E+04  2.971176E+02
        20  21  9.244513E+04  9.862375E+05  5.251302E+04 -1.628315E+02 -3.237970E+04  4.815520E+02
        20  22 -4.359125E+01  5.754532E+05  1.636703E+02  5.191426E+00 -3.241244E+04  1.198146E+02
        20  23 -4.880818E+01  5.754376E+05  2.846022E+02 -6.485078E+00 -3.240633E+04  2.602179E+02
        20  24 -3.839509E+01  5.754531E+05  5.036780E+02  5.194040E+00 -3.238193E+04  4.006259E+02
        20  25 -9.245117E+04  1.651347E+05 -5.172518E+04  1.186887E+02 -3.241471E+04  1.269374E+02
        20  26 -9.249399E+04  1.649764E+05 -5.164953E+04  1.342261E+02 -3.240858E+04  2.233414E+02
        20  27 -9.252880E+04  1.648418E+05 -5.150623E+04  1.731193E+02 -3.238416E+04  3.197506E+02
        21   1  2.861449E+05  2.561013E+04  3.749417E+05 -3.281128E+03 -1.502780E+03  2.556269E+05
        21   2 -6.922863E+04 -3.203932E+04  1.598184E+05 -1.423578E+03 -9.877571E+02  1.681863E+05
        21   3 -8.844147E+03  2.566178E+04  1.055994E+05  2.197523E+03 -4.737275E+02  8.074186E+04
        21   4  2.860884E+05  2.566665E+04  3.749418E+05  1.529003E+03 -1.500799E+03  2.556270E+05
        21   5 -6.924276E+04 -3.202511E+04  1.598184E+05 -2.185147E+02 -9.874306E+02  1.681863E+05
        21   6 -8.815952E+03  2.563366E+04  1.055995E+05 -2.022618E+02 -4.740396E+02  8.074185E+04
        21   7  2.860320E+05  2.572322E+04  3.749418E+05  6.339134E+03 -1.498818E+03  2.556270E+05
        21   8 -6.925688E+04 -3.201089E+04  1.598184E+05  9.865488E+02 -9.871041E+02  1.681863E+05
        21   9 -8.787734E+03  2.560555E+04  1.055995E+05 -2.602046E+03 -4.743517E+02  8.074185E+04
        21  10  2.861274E+05  2.553998E+04  3.748189E+05 -3.280819E+03 -2.578920E-06 -1.057988E-06
        21  11 -6.923624E+04 -3.206969E+04  1.597652E+05 -1.423444E+03 -1.142033E-05 -2.047294E-06
        21  12 -8.845936E+03  2.565477E+04  1.055872E+05  2.197554E+03 -2.024806E-05 -1.768879E-06
        21  13  2.860709E+05  2.559650E+04  3.748190E+05  1.529312E+03  3.211477E-06 -1.804365E-07
        21  14 -6.925035E+04 -3.205548E+04  1.597653E+05 -2.183810E+02  1.428289E-05 -8.002988E-07
        21  15 -8.817702E+03  2.562666E+04  1.055872E+05 -2.022310E+02  2.538714E-05 -1.419851E-06
        21  16  2.860145E+05  2.565308E+04  3.748190E+05  6.339443E+03 -2.592704E-06  8.682134E-07
        21  17 -6.926445E+04 -3.204125E+04  1.597653E+05  9.866823E+02 -1.144718E-05  1.205729E-06
        21  18 -8.789445E+03  2.559856E+04  1.055872E+05 -2.602016E+03 -2.026829E-05  2.758722E-07
        21  19  2.861449E+05  2.561013E+04  3.749417E+05 -3.281128E+03  1.502780E+03 -2.556269E+05
        21  20 -6.922867E+04 -3.203933E+04  1.598184E+05 -1.423578E+03  9.877571E+02 -1.681863E+05
        21  21 -8.844225E+03  2.566176E+04  1.055994E+05  2.197523E+03  4.737275E+02 -8.074186E+04
        21  22  2.860884E+05  2.566665E+04  3.749418E+05  1.529003E+03  1.500799E+03 -2.556270E+05
        21  23 -6.924276E+04 -3.202511E+04  1.598184E+05 -2.185147E+02  9.874306E+02 -1.681863E+05
        21  24 -8.815952E+03  2.563366E+04  1.055995E+05 -2.022617E+02  4.740396E+02 -8.074185E+04
        21  25  2.860320E+05  2.572322E+04  3.749418E+05  6.339134E+03  1.498818E+03 -2.556270E+05
        21  26 -6.925684E+04 -3.201088E+04  1.598185E+05  9.865484E+02  9.871041E+02 -1.681863E+05
        21  27 -8.787656E+03  2.560557E+04  1.055995E+05 -2.602047E+03  4.743517E+02 -8.074185E+04
        22   1  4.494925E+04  4.280078E+03  8.763601E+04 -4.873031E+02 -3.708131E+02  6.314698E+04
        22   2 -1.092238E+04 -5.353431E+03  4.195914E+04 -2.027612E+02 -2.411792E+02  4.107747E+04
        22   3 -1.188155E+03  4.291101E+03  2.705501E+04  3.537822E+02 -1.115860E+02  1.900814E+04
        22   4  4.494074E+04  4.288638E+03  8.763602E+04  2.386790E+02 -3.707392E+02  6.314698E+04
        22   5 -1.092436E+04 -5.351398E+03  4.195915E+04 -3.272049E+01 -2.411679E+02  4.107747E+04
        22   6 -1.183609E+03  4.286604E+03  2.705502E+04 -3.211673E+01 -1.115978E+02  1.900814E+04
        22   7  4.493224E+04  4.297200E+03  8.763603E+04  9.646612E+02 -3.706654E+02  6.314699E+04
        22   8 -1.092634E+04 -5.349366E+03  4.195916E+04  1.373202E+02 -2.411567E+02  4.107747E+04
        22   9 -1.179062E+03  4.282108E+03  2.705503E+04 -4.180157E+02 -1.116097E+02  1.900814E+04
        22  10  4.494814E+04  4.275786E+03  8.762850E+04 -4.872841E+02 -2.146713E-05 -3.796326E-07
        22  11 -1.092286E+04 -5.355251E+03  4.195596E+04 -2.027530E+02 -1.680701E-05  1.964838E-07
        22  12 -1.188275E+03  4.290707E+03  2.705433E+04  3.537841E+02 -1.212994E-05  2.850519E-07
        22  13  4.493967E+04  4.284357E+03  8.762853E+04  2.386979E+02  2.690991E-05 -1.513639E-06
        22  14 -1.092481E+04 -5.353210E+03  4.195598E+04 -3.271250E+01  2.101026E-05 -1.216830E-06
        22  15 -1.183706E+03  4.286216E+03  2.705434E+04 -3.211502E+01  1.512476E-05 -9.199083E-07
        22  16  4.493121E+04  4.292929E+03  8.762855E+04  9.646799E+02 -2.146530E-05 -1.209587E-06
        22  17 -1.092676E+04 -5.351170E+03  4.195600E+04  1.373282E+02 -1.678063E-05 -1.465869E-06
        22  18 -1.179136E+03  4.281726E+03  2.705436E+04 -4.180140E+02 -1.212141E-05 -1.234366E-06
        22  19  4.494917E+04  4.280057E+03  8.763599E+04 -4.873028E+02  3.708130E+02 -6.314698E+04
        22  20 -1.092244E+04 -5.353447E+03  4.195913E+04 -2.027608E+02  2.411792E+02 -4.107747E+04
        22  21 -1.188201E+03  4.291089E+03  2.705500E+04  3.537825E+02  1.115860E+02 -1.900814E+04
        22  22  4.494074E+04  4.288638E+03  8.763602E+04  2.386790E+02  3.707392E+02 -6.314698E+04
        22  23 -1.092436E+04 -5.351398E+03  4.195915E+04 -3.272045E+01  2.411680E+02 -4.107747E+04
        22  24 -1.183609E+03  4.286604E+03  2.705502E+04 -3.211672E+01  1.115978E+02 -1.900814E+04
        22  25  4.493232E+04  4.297221E+03  8.763605E+04  9.646609E+02  3.706653E+02 -6.314699E+04
        22  26 -1.092627E+04 -5.349350E+03  4.195918E+04  1.373201E+02  2.411567E+02 -4.107747E+04
        22  27 -1.179015E+03  4.282120E+03  2.705505E+04 -4.180157E+02  1.116096E+02 -1.900814E+04
        23   1  7.001168E+03  8.541715E+02  2.231234E+04 -7.937813E+01 -8.526318E+01  1.452218E+04
        23   2 -1.965276E+03 -1.061704E+03  1.316698E+04 -2.491074E+01 -4.565945E+01  7.777002E+03
        23   3  8.897212E+02  8.564612E+02  1.136864E+04  7.645245E+01 -6.058548E+00  1.031950E+03
        23   4  6.999820E+03  8.555386E+02  2.231235E+04  3.607495E+01 -8.526046E+01  1.452218E+04
        23   5 -1.965499E+03 -1.061462E+03  1.316698E+04 -5.308085E+00 -4.565919E+01  7.777002E+03
        23   6  8.906224E+02  8.555765E+02  1.136864E+04  2.060243E-01 -6.058661E+00  1.031950E+03
        23   7  6.998473E+03  8.569057E+02  2.231235E+04  1.515280E+02 -8.525778E+01  1.452218E+04
        23   8 -1.965722E+03 -1.061221E+03  1.316699E+04  1.429458E+01 -4.565896E+01  7.777002E+03
        23   9  8.915235E+02  8.546919E+02  1.136865E+04 -7.604039E+01 -6.058801E+00  1.031950E+03
        23  10  7.001092E+03  8.539402E+02  2.231194E+04 -7.937703E+01 -1.014641E-05 -6.978938E-08
        23  11 -1.965308E+03 -1.061772E+03  1.316686E+04 -2.491038E+01 -8.049351E-06 -1.083638E-07
        23  12  8.897095E+02  8.564572E+02  1.136864E+04  7.645260E+01 -6.024986E-06  5.094269E-07
        23  13  6.999764E+03  8.553121E+02  2.231195E+04  3.607595E+01  1.266480E-05 -7.921148E-07
        23  14 -1.965515E+03 -1.061527E+03  1.316687E+04 -5.307813E+00  1.010052E-05 -6.502159E-07
        23  15  8.906221E+02  8.555754E+02  1.136864E+04  2.061025E-01  7.459260E-06 -5.089228E-07
        23  16  6.998436E+03  8.566841E+02  2.231196E+04  1.515290E+02 -1.014304E-05 -7.424408E-07
        23  17 -1.965723E+03 -1.061282E+03  1.316688E+04  1.429480E+01 -8.046260E-06 -5.537737E-07
        23  18  8.915347E+02  8.546936E+02  1.136865E+04 -7.604035E+01 -6.007411E-06 -1.022210E-06
        23  19  7.001129E+03  8.541618E+02  2.231233E+04 -7.937792E+01  8.526316E+01 -1.452218E+04
        23  20 -1.965307E+03 -1.061711E+03  1.316697E+04 -2.491060E+01  4.565943E+01 -7.777002E+03
        23  21  8.896982E+02  8.564555E+02  1.136863E+04  7.645275E+01  6.058536E+00 -1.031950E+03
        23  22  6.999820E+03  8.555386E+02  2.231235E+04  3.607495E+01  8.526048E+01 -1.452218E+04
        23  23 -1.965499E+03 -1.061462E+03  1.316698E+04 -5.308113E+00  4.565921E+01 -7.777002E+03
        23  24  8.906224E+02  8.555765E+02  1.136864E+04  2.061704E-01  6.058676E+00 -1.031950E+03
        23  25  6.998512E+03  8.569154E+02  2.231236E+04  1.515279E+02  8.525776E+01 -1.452218E+04
        23  26 -1.965691E+03 -1.061214E+03  1.316699E+04  1.429445E+01  4.565894E+01 -7.777002E+03
        23  27  8.915465E+02  8.546976E+02  1.136865E+04 -7.604032E+01  6.058789E+00 -1.031950E+03
        24   1 -8.499181E+06 -2.666556E+06 -1.680602E+06 -3.025182E+06 -9.143188E+05 -3.362806E+05
        24   2 -8.326675E+06 -1.355517E+06 -8.480687E+05 -3.226980E+06 -5.907169E+05 -1.873364E+05
        24   3 -8.703004E+06 -1.327589E+06 -6.212399E+05 -3.074722E+06 -2.588920E+05 -5.998934E+04
        24   4 -7.777535E+06 -2.083646E+06 -1.420935E+06 -2.517607E+06 -8.995343E+05 -3.312079E+05
        24   5 -7.427008E+06 -9.253083E+05 -5.908706E+05 -2.891136E+06 -5.857875E+05 -1.855666E+05
        24   6 -7.622734E+06 -1.047164E+06 -3.580767E+05 -2.910856E+06 -2.637211E+05 -6.176270E+04
        24   7 -7.055141E+06 -1.499907E+06 -1.161290E+06 -2.009311E+06 -8.847305E+05 -3.261088E+05
        24   8 -6.526522E+06 -4.948980E+05 -3.337498E+05 -2.554796E+06 -5.808495E+05 -1.837916E+05
        24   9 -6.541291E+06 -7.667716E+05 -9.498730E+04 -2.746797E+06 -2.685592E+05 -6.353701E+04
        24  10 -8.500121E+06 -2.666908E+06 -1.682413E+06 -3.025433E+06 -6.465248E-11  2.793359E-10
        24  11 -8.327064E+06 -1.355651E+06 -8.488017E+05 -3.227070E+06 -2.443300E-09  5.161283E-10
        24  12 -8.703078E+06 -1.327611E+06 -6.213747E+05 -3.074734E+06 -2.929360E-09  4.878839E-12
        24  13 -7.778444E+06 -2.083986E+06 -1.422686E+06 -2.517850E+06 -7.482766E-09  9.888430E-11
        24  14 -7.427390E+06 -9.254394E+05 -5.915901E+05 -2.891224E+06  2.001815E-09  2.302570E-10
        24  15 -7.622810E+06 -1.047187E+06 -3.582165E+05 -2.910869E+06  2.696684E-09  5.632611E-10
        24  16 -7.056019E+06 -1.500235E+06 -1.162981E+06 -2.009545E+06  7.547802E-10  3.535955E-11
        24  17 -6.526897E+06 -4.950266E+05 -3.344559E+05 -2.554883E+06  1.836124E-09 -1.813132E-10
        24  18 -6.541370E+06 -7.667956E+05 -9.513217E+04 -2.746811E+06  2.689543E-09  5.905807E-11
        24  19 -8.499181E+06 -2.666556E+06 -1.680602E+06 -3.025182E+06  9.143188E+05  3.362806E+05
        24  20 -8.326675E+06 -1.355517E+06 -8.480687E+05 -3.226980E+06  5.907169E+05  1.873364E+05
        24  21 -8.703004E+06 -1.327589E+06 -6.212399E+05 -3.074722E+06  2.588920E+05  5.998934E+04
        24  22 -7.777535E+06 -2.083646E+06 -1.420935E+06 -2.517607E+06  8.995343E+05  3.312079E+05
        24  23 -7.427008E+06 -9.253083E+05 -5.908706E+05 -2.891136E+06  5.857875E+05  1.855666E+05
        24  24 -7.622734E+06 -1.047164E+06 -3.580767E+05 -2.910856E+06  2.637211E+05  6.176270E+04
        24  25 -7.055141E+06 -1.499907E+06 -1.161290E+06 -2.009311E+06  8.847305E+05  3.261088E+05
        24  26 -6.526522E+06 -4.948980E+05 -3.337498E+05 -2.554796E+06  5.808495E+05  1.837916E+05
        24  27 -6.541291E+06 -7.667716E+05 -9.498730E+04 -2.746797E+06  2.685592E+05  6.353701E+04
        25   1 -8.536307E+06 -1.598815E+06 -5.557659E+05 -3.126990E+06 -2.131651E+05 -4.582419E+04
        25   2 -8.499735E+06 -1.439649E+06 -3.976287E+05 -3.135737E+06 -1.404393E+05 -1.673251E+04
        25   3 -8.514784E+06 -1.435819E+06 -3.336955E+05 -3.121131E+06 -6.675366E+04  9.843232E+03
        25   4 -7.572237E+06 -1.200794E+06 -2.913714E+05 -2.831096E+06 -2.122011E+05 -4.547526E+04
        25   5 -7.538033E+06 -1.066151E+06 -1.390925E+05 -2.864283E+06 -1.405415E+05 -1.677752E+04
        25   6 -7.555142E+06 -1.086489E+06 -8.005090E+04 -2.874138E+06 -6.792296E+04  9.399131E+03
        25   7 -6.607253E+06 -8.026679E+05 -2.706319E+04 -2.534763E+06 -2.112351E+05 -4.512546E+04
        25   8 -6.575423E+06 -6.925845E+05  1.193612E+05 -2.592438E+06 -1.406437E+05 -1.682253E+04
        25   9 -6.594595E+06 -7.371190E+05  1.735151E+05 -2.626801E+06 -6.909421E+04  8.954367E+03
        25  10 -8.536357E+06 -1.598829E+06 -5.558566E+05 -3.126998E+06 -2.396408E-09 -3.110993E-10
        25  11 -8.499757E+06 -1.439655E+06 -3.976668E+05 -3.135739E+06 -6.739480E-09 -1.216158E-09
        25  12 -8.514789E+06 -1.435820E+06 -3.337042E+05 -3.121130E+06 -9.588301E-09 -2.380288E-09
        25  13 -7.572286E+06 -1.200808E+06 -2.914611E+05 -2.831104E+06 -8.639201E-09  6.563626E-10
        25  14 -7.538055E+06 -1.066157E+06 -1.391306E+05 -2.864285E+06 -6.271442E-09 -1.206108E-09
        25  15 -7.555147E+06 -1.086490E+06 -8.005983E+04 -2.874137E+06 -8.343358E-09 -5.529053E-09
        25  16 -6.607302E+06 -8.026823E+05 -2.715192E+04 -2.534771E+06  1.528437E-09  2.335643E-09
        25  17 -6.575445E+06 -6.925902E+05  1.193231E+05 -2.592440E+06 -1.457513E-09  3.720210E-09
        25  18 -6.594600E+06 -7.371204E+05  1.735059E+05 -2.626801E+06 -2.594094E-09  1.526442E-09
        25  19 -8.536307E+06 -1.598815E+06 -5.557659E+05 -3.126990E+06  2.131651E+05  4.582419E+04
        25  20 -8.499735E+06 -1.439649E+06 -3.976287E+05 -3.135737E+06  1.404393E+05  1.673251E+04
        25  21 -8.514784E+06 -1.435819E+06 -3.336955E+05 -3.121131E+06  6.675366E+04 -9.843232E+03
        25  22 -7.572237E+06 -1.200794E+06 -2.913714E+05 -2.831096E+06  2.122011E+05  4.547526E+04
        25  23 -7.538033E+06 -1.066151E+06 -1.390925E+05 -2.864283E+06  1.405415E+05  1.677752E+04
        25  24 -7.555142E+06 -1.086489E+06 -8.005090E+04 -2.874138E+06  6.792296E+04 -9.399131E+03
        25  25 -6.607253E+06 -8.026679E+05 -2.706319E+04 -2.534763E+06  2.112351E+05  4.512546E+04
        25  26 -6.575423E+06 -6.925845E+05  1.193612E+05 -2.592438E+06  1.406437E+05  1.682253E+04
        25  27 -6.594595E+06 -7.371190E+05  1.735151E+05 -2.626801E+06  6.909421E+04 -8.954367E+03
        26   1 -8.434450E+06 -1.447825E+06 -3.007437E+05 -3.115933E+06 -5.525864E+04  1.279147E+04
        26   2 -8.391677E+06 -1.393631E+06 -2.554067E+05 -3.083661E+06 -3.779001E+04  1.710333E+04
        26   3 -8.322949E+06 -1.388452E+06 -2.267268E+05 -3.085296E+06 -2.002000E+04  2.060553E+04
        26   4 -7.544399E+06 -1.107418E+06 -6.252727E+04 -2.870042E+06 -5.604808E+04  1.248968E+04
        26   5 -7.556454E+06 -1.076659E+06 -3.230596E+04 -2.855435E+06 -3.893354E+04  1.666938E+04
        26   6 -7.542476E+06 -1.094826E+06 -1.843873E+04 -2.874732E+06 -2.151946E+04  2.003916E+04
        26   7 -6.653570E+06 -7.669586E+05  1.756190E+05 -2.623826E+06 -5.683875E+04  1.218744E+04
        26   8 -6.720548E+06 -7.596452E+05  1.907329E+05 -2.626926E+06 -4.007875E+04  1.623479E+04
        26   9 -6.761409E+06 -8.011654E+05  1.897951E+05 -2.663927E+06 -2.302100E+04  1.947202E+04
        26  10 -8.434454E+06 -1.447826E+06 -3.007498E+05 -3.115932E+06  1.737831E-09  4.190405E-10
        26  11 -8.391678E+06 -1.393631E+06 -2.554099E+05 -3.083661E+06  3.502239E-09  1.577297E-09
        26  12 -8.322949E+06 -1.388452E+06 -2.267283E+05 -3.085295E+06  3.985514E-10  3.299763E-09
        26  13 -7.544402E+06 -1.107419E+06 -6.253352E+04 -2.870041E+06 -7.150889E-09 -5.800905E-09
        26  14 -7.556455E+06 -1.076660E+06 -3.230935E+04 -2.855434E+06 -6.951278E-09 -1.335897E-09
        26  15 -7.542476E+06 -1.094826E+06 -1.844035E+04 -2.874732E+06 -4.837417E-09  1.627583E-09
        26  16 -6.653574E+06 -7.669596E+05  1.756126E+05 -2.623825E+06 -9.292751E-09 -3.317919E-09
        26  17 -6.720550E+06 -7.596459E+05  1.907294E+05 -2.626926E+06 -3.636261E-09 -7.772306E-10
        26  18 -6.761409E+06 -8.011659E+05  1.897934E+05 -2.663927E+06 -2.774036E-09  9.463877E-10
        26  19 -8.434450E+06 -1.447825E+06 -3.007437E+05 -3.115933E+06  5.525864E+04 -1.279147E+04
        26  20 -8.391677E+06 -1.393631E+06 -2.554067E+05 -3.083661E+06  3.779001E+04 -1.710333E+04
        26  21 -8.322949E+06 -1.388452E+06 -2.267268E+05 -3.085296E+06  2.002000E+04 -2.060553E+04
        26  22 -7.544399E+06 -1.107418E+06 -6.252727E+04 -2.870042E+06  5.604808E+04 -1.248968E+04
        26  23 -7.556454E+06 -1.076659E+06 -3.230596E+04 -2.855435E+06  3.893354E+04 -1.666938E+04
        26  24 -7.542476E+06 -1.094826E+06 -1.843873E+04 -2.874732E+06  2.151946E+04 -2.003916E+04
        26  25 -6.653570E+06 -7.669586E+05  1.756190E+05 -2.623826E+06  5.683875E+04 -1.218744E+04
        26  26 -6.720548E+06 -7.596452E+05  1.907329E+05 -2.626926E+06  4.007875E+04 -1.623479E+04
        26  27 -6.761409E+06 -8.011654E+05  1.897951E+05 -2.663927E+06  2.302100E+04 -1.947202E+04
        27   1 -8.209740E+06 -1.354608E+06 -1.934889E+05 -3.060965E+06 -1.659669E+04  1.972490E+04
        27   2 -8.148282E+06 -1.294951E+06 -1.648976E+05 -3.008863E+06 -1.073123E+04  1.790562E+04
        27   3 -8.037354E+06 -1.287463E+06 -1.401160E+05 -3.013864E+06 -4.692796E+03  1.561115E+04
        27   4 -7.537911E+06 -1.100374E+06 -1.442155E+04 -2.878049E+06 -1.813777E+04  1.914392E+04
        27   5 -7.562543E+06 -1.073613E+06 -8.643420E+03 -2.849753E+06 -1.248911E+04  1.724456E+04
        27   6 -7.537675E+06 -1.098973E+06 -6.498220E+03 -2.878558E+06 -6.668298E+03  1.486999E+04
        27   7 -6.865635E+06 -8.461099E+05  1.646070E+05 -2.694951E+06 -1.968071E+04  1.856225E+04
        27   8 -6.976469E+06 -8.522548E+05  1.475804E+05 -2.690505E+06 -1.424883E+04  1.658281E+04
        27   9 -7.037755E+06 -9.104705E+05  1.270965E+05 -2.743154E+06 -8.645552E+03  1.412817E+04
        27  10 -8.209741E+06 -1.354609E+06 -1.934902E+05 -3.060965E+06 -1.599047E-10  1.834329E-09
        27  11 -8.148282E+06 -1.294951E+06 -1.648985E+05 -3.008862E+06  4.923481E-10 -4.468373E-10
        27  12 -8.037355E+06 -1.287463E+06 -1.401165E+05 -3.013864E+06 -4.460650E-09  1.006005E-10
        27  13 -7.537911E+06 -1.100374E+06 -1.442286E+04 -2.878049E+06 -7.184604E-10  1.143483E-09
        27  14 -7.562544E+06 -1.073613E+06 -8.644269E+03 -2.849752E+06  2.551763E-09  5.119375E-11
        27  15 -7.537675E+06 -1.098974E+06 -6.498717E+03 -2.878558E+06  2.759146E-09  1.209263E-09
        27  16 -6.865636E+06 -8.461104E+05  1.646056E+05 -2.694951E+06 -2.362468E-09  4.882304E-10
        27  17 -6.976470E+06 -8.522551E+05  1.475795E+05 -2.690505E+06  1.468635E-09  1.809918E-10
        27  18 -7.037755E+06 -9.104708E+05  1.270959E+05 -2.743154E+06  3.605811E-09  8.903003E-10
        27  19 -8.209740E+06 -1.354608E+06 -1.934889E+05 -3.060965E+06  1.659669E+04 -1.972490E+04
        27  20 -8.148282E+06 -1.294951E+06 -1.648976E+05 -3.008863E+06  1.073123E+04 -1.790562E+04
        27  21 -8.037354E+06 -1.287463E+06 -1.401160E+05 -3.013864E+06  4.692796E+03 -1.561115E+04
        27  22 -7.537911E+06 -1.100374E+06 -1.442155E+04 -2.878049E+06  1.813777E+04 -1.914392E+04
        27  23 -7.562543E+06 -1.073613E+06 -8.643420E+03 -2.849753E+06  1.248911E+04 -1.724456E+04
        27  24 -7.537675E+06 -1.098973E+06 -6.498220E+03 -2.878558E+06  6.668298E+03 -1.486999E+04
        27  25 -6.865635E+06 -8.461099E+05  1.646070E+05 -2.694951E+06  1.968071E+04 -1.856225E+04
        27  26 -6.976469E+06 -8.522548E+05  1.475804E+05 -2.690505E+06  1.424883E+04 -1.658281E+04
        27  27 -7.037755E+06 -9.104705E+05  1.270965E+05 -2.743154E+06  8.645552E+03 -1.412817E+04
        28   1 -7.892088E+06 -1.235996E+06 -1.011215E+05 -2.978054E+06 -2.653402E+03  1.351642E+04
        28   2 -7.818012E+06 -1.166101E+06 -7.501982E+04 -2.915019E+06  2.908292E+03  1.054535E+04
        28   3 -7.684633E+06 -1.158260E+06 -5.228188E+04 -2.921006E+06  8.537386E+03  7.387819E+03
        28   4 -7.535479E+06 -1.101305E+06 -6.358176E+03 -2.881144E+06 -4.678769E+03  1.275743E+04
        28   5 -7.565195E+06 -1.070712E+06 -7.617290E+03 -2.846473E+06  7.975046E+02  9.755041E+03
        28   6 -7.535601E+06 -1.102155E+06 -1.217010E+04 -2.880828E+06  6.340442E+03  6.566011E+03
        28   7 -7.178744E+06 -9.666048E+05  8.839438E+04 -2.784184E+06 -6.705436E+03  1.199795E+04
        28   8 -7.312314E+06 -9.753184E+05  5.978007E+04 -2.777902E+06 -1.314252E+03  8.964375E+03
        28   9 -7.386547E+06 -1.046048E+06  2.794008E+04 -2.840641E+06  4.142892E+03  5.743978E+03
        28  10 -7.892088E+06 -1.235996E+06 -1.011218E+05 -2.978054E+06 -3.701038E-10 -1.503230E-10
        28  11 -7.818012E+06 -1.166101E+06 -7.502004E+04 -2.915019E+06  2.421496E-09 -2.488996E-09
        28  12 -7.684633E+06 -1.158260E+06 -5.228212E+04 -2.921006E+06 -1.210543E-09 -1.744643E-09
        28  13 -7.535479E+06 -1.101305E+06 -6.358521E+03 -2.881144E+06 -5.343083E-10  5.630823E-10
        28  14 -7.565195E+06 -1.070712E+06 -7.617470E+03 -2.846473E+06 -1.082906E-09 -2.108546E-09
        28  15 -7.535601E+06 -1.102155E+06 -1.217026E+04 -2.880828E+06 -7.831946E-09 -1.066777E-09
        28  16 -7.178744E+06 -9.666050E+05  8.839403E+04 -2.784183E+06  1.921252E-10 -9.112928E-10
        28  17 -7.312314E+06 -9.753184E+05  5.977992E+04 -2.777902E+06 -1.969305E-09 -1.578256E-09
        28  18 -7.386547E+06 -1.046048E+06  2.793999E+04 -2.840641E+06  3.493825E-09 -2.637497E-10
        28  19 -7.892088E+06 -1.235996E+06 -1.011215E+05 -2.978054E+06  2.653402E+03 -1.351642E+04
        28  20 -7.818012E+06 -1.166101E+06 -7.501982E+04 -2.915019E+06 -2.908292E+03 -1.054535E+04
        28  21 -7.684633E+06 -1.158260E+06 -5.228188E+04 -2.921006E+06 -8.537386E+03 -7.387819E+03
        28  22 -7.535479E+06 -1.101305E+06 -6.358176E+03 -2.881144E+06  4.678769E+03 -1.275743E+04
        28  23 -7.565195E+06 -1.070712E+06 -7.617290E+03 -2.846473E+06 -7.975046E+02 -9.755041E+03
        28  24 -7.535601E+06 -1.102155E+06 -1.217010E+04 -2.880828E+06 -6.340442E+03 -6.566011E+03
        28  25 -7.178744E+06 -9.666048E+05  8.839438E+04 -2.784184E+06  6.705436E+03 -1.199795E+04
        28  26 -7.312314E+06 -9.753184E+05  5.978007E+04 -2.777902E+06  1.314252E+03 -8.964375E+03
        28  27 -7.386547E+06 -1.046048E+06  2.794008E+04 -2.840641E+06 -4.142892E+03 -5.743978E+03
        29   1 -7.526086E+06 -1.098842E+06 -1.269542E+04 -2.881005E+06  1.187203E+04  5.461542E+03
        29   2 -7.449048E+06 -1.024809E+06  4.132539E+03 -2.814419E+06  2.706207E+04  5.795608E+03
        29   3 -7.316710E+06 -1.026020E+06  7.297904E+03 -2.816161E+06  4.217553E+04  6.344629E+03
        29   4 -7.535936E+06 -1.101166E+06 -1.544992E+04 -2.882138E+06  9.630137E+03  4.623112E+03
        29   5 -7.564339E+06 -1.068678E+06 -2.666838E+04 -2.846068E+06  2.491727E+04  4.993091E+03
        29   6 -7.537476E+06 -1.111457E+06 -5.162958E+04 -2.878331E+06  4.012534E+04  5.577055E+03
        29   7 -7.545785E+06 -1.103489E+06 -1.820438E+04 -2.883272E+06  7.388299E+03  3.784691E+03
        29   8 -7.679617E+06 -1.112546E+06 -5.747031E+04 -2.877712E+06  2.277292E+04  4.190746E+03
        29   9 -7.758194E+06 -1.196891E+06 -1.105613E+05 -2.940481E+06  3.807595E+04  4.809803E+03
        29  10 -7.526087E+06 -1.098842E+06 -1.269575E+04 -2.881005E+06 -2.074640E-09  9.682627E-11
        29  11 -7.449048E+06 -1.024809E+06  4.131081E+03 -2.814419E+06  2.210697E-10  2.901808E-09
        29  12 -7.316712E+06 -1.026020E+06  7.294442E+03 -2.816161E+06  3.030060E-09  2.730309E-10
        29  13 -7.535936E+06 -1.101166E+06 -1.545014E+04 -2.882138E+06  1.746183E-09  5.728912E-10
        29  14 -7.564340E+06 -1.068678E+06 -2.666961E+04 -2.846068E+06 -1.157692E-09  1.148936E-09
        29  15 -7.537478E+06 -1.111457E+06 -5.163270E+04 -2.878331E+06 -6.767901E-10 -1.938728E-11
        29  16 -7.545785E+06 -1.103489E+06 -1.820451E+04 -2.883272E+06  4.798182E-09  5.651576E-10
        29  17 -7.679618E+06 -1.112546E+06 -5.747134E+04 -2.877712E+06  2.020357E-09  1.143030E-09
        29  18 -7.758196E+06 -1.196891E+06 -1.105641E+05 -2.940481E+06 -3.197010E-09  4.385582E-10
        29  19 -7.526086E+06 -1.098842E+06 -1.269542E+04 -2.881005E+06 -1.187203E+04 -5.461542E+03
        29  20 -7.449048E+06 -1.024809E+06  4.132539E+03 -2.814419E+06 -2.706207E+04 -5.795608E+03
        29  21 -7.316710E+06 -1.026020E+06  7.297904E+03 -2.816161E+06 -4.217553E+04 -6.344629E+03
        29  22 -7.535936E+06 -1.101166E+06 -1.544992E+04 -2.882138E+06 -9.630137E+03 -4.623112E+03
        29  23 -7.564339E+06 -1.068678E+06 -2.666838E+04 -2.846068E+06 -2.491727E+04 -4.993091E+03
        29  24 -7.537476E+06 -1.111457E+06 -5.162958E+04 -2.878331E+06 -4.012534E+04 -5.577055E+03
        29  25 -7.545785E+06 -1.103489E+06 -1.820438E+04 -2.883272E+06 -7.388299E+03 -3.784691E+03
        29  26 -7.679617E+06 -1.112546E+06 -5.747031E+04 -2.877712E+06 -2.277292E+04 -4.190746E+03
        29  27 -7.758194E+06 -1.196891E+06 -1.105613E+05 -2.940481E+06 -3.807595E+04 -4.809803E+03
        30   1 -7.161489E+06 -9.646034E+05  3.386002E+04 -2.793435E+06  5.310700E+04  7.164725E+03
        30   2 -7.088925E+06 -8.756446E+05  1.008978E+04 -2.717513E+06  1.133930E+05  2.489620E+04
        30   3 -7.013356E+06 -9.603731E+05 -9.001537E+04 -2.675406E+06  1.729519E+05  4.460490E+04
        30   4 -7.543920E+06 -1.096611E+06 -6.605945E+04 -2.884418E+06  5.063808E+04  6.241211E+03
        30   5 -7.552241E+06 -1.056943E+06 -1.146175E+05 -2.849894E+06  1.118002E+05  2.429685E+04
        30   6 -7.557787E+06 -1.191207E+06 -2.402622E+05 -2.849190E+06  1.722264E+05  4.432279E+04
        30   7 -7.926208E+06 -1.228617E+06 -1.659914E+05 -2.975352E+06  4.817084E+04  5.318200E+03
        30   8 -8.015348E+06 -1.238224E+06 -2.393442E+05 -2.982184E+06  1.102086E+05  2.369803E+04
        30   9 -8.101925E+06 -1.422000E+06 -3.905365E+05 -3.022827E+06  1.715015E+05  4.404098E+04
        30  10 -7.161493E+06 -9.646042E+05  3.385455E+04 -2.793435E+06  3.554154E-09 -1.749249E-09
        30  11 -7.088939E+06 -8.756488E+05  1.006412E+04 -2.717515E+06 -2.790027E-10 -6.504421E-11
        30  12 -7.013389E+06 -9.603834E+05 -9.007609E+04 -2.675412E+06  4.138169E-09  2.003540E-09
        30  13 -7.543922E+06 -1.096612E+06 -6.606440E+04 -2.884418E+06 -1.235595E-09 -3.666313E-10
        30  14 -7.552255E+06 -1.056947E+06 -1.146424E+05 -2.849897E+06  3.951886E-09  5.013381E-10
        30  15 -7.557820E+06 -1.191217E+06 -2.403225E+05 -2.849197E+06  3.979462E-09  2.091620E-09
        30  16 -7.926211E+06 -1.228617E+06 -1.659959E+05 -2.975352E+06 -1.268540E-10 -4.947590E-10
        30  17 -8.015361E+06 -1.238228E+06 -2.393684E+05 -2.982186E+06  2.748554E-09 -9.564106E-10
        30  18 -8.101958E+06 -1.422010E+06 -3.905963E+05 -3.022833E+06 -4.661478E-09  1.667254E-09
        30  19 -7.161489E+06 -9.646034E+05  3.386002E+04 -2.793435E+06 -5.310700E+04 -7.164725E+03
        30  20 -7.088925E+06 -8.756446E+05  1.008978E+04 -2.717513E+06 -1.133930E+05 -2.489620E+04
        30  21 -7.013356E+06 -9.603731E+05 -9.001537E+04 -2.675406E+06 -1.729519E+05 -4.460490E+04
        30  22 -7.543920E+06 -1.096611E+06 -6.605945E+04 -2.884418E+06 -5.063808E+04 -6.241211E+03
        30  23 -7.552241E+06 -1.056943E+06 -1.146175E+05 -2.849894E+06 -1.118002E+05 -2.429685E+04
        30  24 -7.557787E+06 -1.191207E+06 -2.402622E+05 -2.849190E+06 -1.722264E+05 -4.432279E+04
        30  25 -7.926208E+06 -1.228617E+06 -1.659914E+05 -2.975352E+06 -4.817084E+04 -5.318200E+03
        30  26 -8.015348E+06 -1.238224E+06 -2.393442E+05 -2.982184E+06 -1.102086E+05 -2.369803E+04
        30  27 -8.101925E+06 -1.422000E+06 -3.905365E+05 -3.022827E+06 -1.715015E+05 -4.404098E+04
        31   1 -6.835272E+06 -8.835657E+05 -1.124407E+05 -2.817864E+06  2.219508E+05  5.734036E+04
        31   2 -6.760163E+06 -6.029610E+05 -2.865377E+05 -2.606388E+06  4.800424E+05  1.512289E+05
        31   3 -7.080380E+06 -1.427914E+06 -9.453297E+05 -2.163630E+06  7.304880E+05  2.655809E+05
        31   4 -7.598806E+06 -1.065018E+06 -2.952238E+05 -2.915433E+06  2.157263E+05  5.504833E+04
        31   5 -7.462430E+06 -9.395533E+05 -4.872070E+05 -2.870540E+06  4.830226E+05  1.522785E+05
        31   6 -7.723845E+06 -1.922416E+06 -1.171709E+06 -2.594200E+06  7.426935E+05  2.698056E+05
        31   7 -8.361749E+06 -1.246488E+06 -4.780400E+05 -3.012932E+06  2.095102E+05  5.275678E+04
        31   8 -8.164197E+06 -1.276019E+06 -6.879227E+05 -3.134387E+06  4.859988E+05  1.533256E+05
        31   9 -8.366742E+06 -2.416340E+06 -1.398110E+06 -3.024234E+06  7.548848E+05  2.740122E+05
        31  10 -6.835326E+06 -8.835827E+05 -1.125407E+05 -2.817874E+06  1.517813E-09  2.351022E-09
        31  11 -6.760419E+06 -6.030487E+05 -2.870198E+05 -2.606447E+06 -3.447347E-09 -6.314252E-10
        31  12 -7.080978E+06 -1.428136E+06 -9.464794E+05 -2.163787E+06  3.742581E-10 -1.286711E-09
        31  13 -7.598858E+06 -1.065034E+06 -2.953183E+05 -2.915443E+06  8.555908E-11  1.617094E-09
        31  14 -7.462690E+06 -9.396422E+05 -4.876958E+05 -2.870600E+06 -1.058841E-09 -8.158323E-10
        31  15 -7.724464E+06 -1.922646E+06 -1.172899E+06 -2.594363E+06  6.197461E-10 -7.215185E-11
        31  16 -8.361798E+06 -1.246503E+06 -4.781290E+05 -3.012941E+06 -5.269050E-09  7.810121E-10
        31  17 -8.164460E+06 -1.276109E+06 -6.884183E+05 -3.134447E+06 -1.683387E-09 -1.401991E-10
        31  18 -8.367382E+06 -2.416577E+06 -1.399341E+06 -3.024402E+06  2.076310E-09  2.791313E-10
        31  19 -6.835272E+06 -8.835657E+05 -1.124407E+05 -2.817864E+06 -2.219508E+05 -5.734036E+04
        31  20 -6.760163E+06 -6.029610E+05 -2.865377E+05 -2.606388E+06 -4.800424E+05 -1.512289E+05
        31  21 -7.080380E+06 -1.427914E+06 -9.453297E+05 -2.163630E+06 -7.304880E+05 -2.655809E+05
        31  22 -7.598806E+06 -1.065018E+06 -2.952238E+05 -2.915433E+06 -2.157263E+05 -5.504833E+04
        31  23 -7.462430E+06 -9.395533E+05 -4.872070E+05 -2.870540E+06 -4.830226E+05 -1.522785E+05
        31  24 -7.723845E+06 -1.922416E+06 -1.171709E+06 -2.594200E+06 -7.426935E+05 -2.698056E+05
        31  25 -8.361749E+06 -1.246488E+06 -4.780400E+05 -3.012932E+06 -2.095102E+05 -5.275678E+04
        31  26 -8.164197E+06 -1.276019E+06 -6.879227E+05 -3.134387E+06 -4.859988E+05 -1.533256E+05
        31  27 -8.366742E+06 -2.416340E+06 -1.398110E+06 -3.024234E+06 -7.548848E+05 -2.740122E+05
        32   1  3.156493E+05  9.537062E+04  3.506310E+05 -2.165664E+05  3.857715E+02  2.164147E+05
        32   2  7.310237E+04  2.959110E+04  1.823424E+05 -1.131750E+05  1.860016E+03  1.246522E+05
        32   3  1.126562E+04  2.091548E+04  1.189870E+05 -1.834336E+04  7.905397E+02  3.288899E+04
        32   4  2.912496E+05  5.062849E+02  3.276381E+05 -3.595905E+04  4.560464E+02  2.123457E+05
        32   5  5.884575E+04 -2.768881E+04  1.701532E+05 -3.194155E+04  1.876348E+03  1.246388E+05
        32   6  6.423015E+03  5.052161E+02  1.147909E+05 -3.647024E+04  7.821900E+02  3.692535E+04
        32   7  2.669716E+05 -9.427985E+04  3.046621E+05  1.446205E+05  5.239630E+02  2.082774E+05
        32   8  4.461370E+04 -8.495147E+04  1.579674E+05  4.928429E+04  1.892679E+03  1.246253E+05
        32   9  1.581634E+03 -1.990391E+04  1.105951E+05 -5.459651E+04  7.736044E+02  4.096159E+04
        32  10  3.156368E+05  9.532035E+04  3.505430E+05 -2.165665E+05  4.511736E-09  6.807568E-09
        32  11  7.309819E+04  2.957442E+04  1.823132E+05 -1.131752E+05  5.154886E-09 -3.604443E-11
        32  12  1.126532E+04  2.091432E+04  1.189849E+05 -1.834338E+04 -1.379919E-09 -5.453720E-09
        32  13  2.912375E+05  4.578767E+02  3.275534E+05 -3.595913E+04  1.141067E-09  5.116118E-10
        32  14  5.884158E+04 -2.770549E+04  1.701240E+05 -3.194174E+04  1.447004E-09 -5.441265E-10
        32  15  6.422648E+03  5.037520E+02  1.147884E+05 -3.647026E+04 -1.121924E-09  3.560727E-10
        32  16  2.669600E+05 -9.432642E+04  3.045806E+05  1.446204E+05  1.300147E-09 -6.498916E-09
        32  17  4.460953E+04 -8.496815E+04  1.579382E+05  4.928410E+04 -1.182396E-09  7.753931E-10
        32  18  1.581183E+03 -1.990571E+04  1.105919E+05 -5.459654E+04 -1.446766E-09  5.108266E-09
        32  19  3.156493E+05  9.537062E+04  3.506310E+05 -2.165664E+05 -3.857715E+02 -2.164147E+05
        32  20  7.310237E+04  2.959110E+04  1.823424E+05 -1.131750E+05 -1.860016E+03 -1.246522E+05
        32  21  1.126562E+04  2.091548E+04  1.189870E+05 -1.834336E+04 -7.905397E+02 -3.288899E+04
        32  22  2.912496E+05  5.062849E+02  3.276381E+05 -3.595905E+04 -4.560464E+02 -2.123457E+05
        32  23  5.884575E+04 -2.768881E+04  1.701532E+05 -3.194155E+04 -1.876348E+03 -1.246388E+05
        32  24  6.423015E+03  5.052161E+02  1.147909E+05 -3.647024E+04 -7.821900E+02 -3.692535E+04
        32  25  2.669716E+05 -9.427985E+04  3.046621E+05  1.446205E+05 -5.239630E+02 -2.082774E+05
        32  26  4.461370E+04 -8.495147E+04  1.579674E+05  4.928429E+04 -1.892679E+03 -1.246253E+05
        32  27  1.581634E+03 -1.990391E+04  1.105951E+05 -5.459651E+04 -7.736044E+02 -4.096159E+04
        33   1  1.105613E+04 -1.359569E+04  1.041777E+05 -4.562532E+04 -7.023403E+02  1.603928E+04
        33   2 -4.997097E+03 -5.778545E+04  9.854972E+04 -3.087909E+04 -2.854083E+03 -3.658057E+04
        33   3  5.111733E+03 -8.861401E+04  1.337253E+05 -2.500888E+04 -4.841410E+03 -8.919827E+04
        33   4  1.201018E+04 -9.048967E+03  1.046022E+05 -3.647279E+04 -7.089700E+02  1.978798E+04
        33   5  4.905740E+03 -1.575016E+04  1.060014E+05 -3.202417E+04 -2.860334E+03 -3.310151E+04
        33   6  2.400859E+04 -9.046514E+03  1.483896E+05 -3.645078E+04 -4.845549E+03 -8.599187E+04
        33   7  1.296456E+04 -4.502015E+03  1.050267E+05 -2.732019E+04 -7.154892E+02  2.353671E+04
        33   8  1.480849E+04  2.628689E+04  1.134531E+05 -3.316933E+04 -2.866598E+03 -2.962222E+04
        33   9  4.290558E+04  7.052742E+04  1.630537E+05 -4.789418E+04 -4.849806E+03 -8.278507E+04
        33  10  1.105606E+04 -1.359596E+04  1.041772E+05 -4.562531E+04 -3.963823E-10  8.230963E-09
        33  11 -4.997465E+03 -5.778689E+04  9.854719E+04 -3.087917E+04 -9.076191E-11  1.592869E-08
        33  12  5.109572E+03 -8.862256E+04  1.337103E+05 -2.500923E+04  2.504801E-09  2.019105E-08
        33  13  1.201008E+04 -9.049387E+03  1.046014E+05 -3.647278E+04 -3.117974E-09  5.492713E-10
        33  14  4.905437E+03 -1.575133E+04  1.059993E+05 -3.202425E+04  1.661980E-10 -5.371102E-10
        33  15  2.400658E+04 -9.054460E+03  1.483756E+05 -3.645112E+04 -4.616758E-09  1.946978E-10
        33  16  1.296441E+04 -4.502610E+03  1.050257E+05 -2.732018E+04  5.827780E-11 -7.889252E-09
        33  17  1.480825E+04  2.628595E+04  1.134514E+05 -3.316940E+04  1.558190E-11 -1.499944E-08
        33  18  4.290371E+04  7.052006E+04  1.630408E+05 -4.789450E+04  1.503477E-09 -2.078636E-08
        33  19  1.105613E+04 -1.359569E+04  1.041777E+05 -4.562532E+04  7.023403E+02 -1.603928E+04
        33  20 -4.997097E+03 -5.778545E+04  9.854972E+04 -3.087909E+04  2.854083E+03  3.658057E+04
        33  21  5.111733E+03 -8.861401E+04  1.337253E+05 -2.500888E+04  4.841410E+03  8.919827E+04
        33  22  1.201018E+04 -9.048967E+03  1.046022E+05 -3.647279E+04  7.089700E+02 -1.978798E+04
        33  23  4.905740E+03 -1.575016E+04  1.060014E+05 -3.202417E+04  2.860334E+03  3.310151E+04
        33  24  2.400859E+04 -9.046514E+03  1.483896E+05 -3.645078E+04  4.845549E+03  8.599187E+04
        33  25  1.296456E+04 -4.502015E+03  1.050267E+05 -2.732019E+04  7.154892E+02 -2.353671E+04
        33  26  1.480849E+04  2.628689E+04  1.134531E+05 -3.316933E+04  2.866598E+03  2.962222E+04
        33  27  4.290558E+04  7.052742E+04  1.630537E+05 -4.789418E+04  4.849806E+03  8.278507E+04
        34   1 -1.264044E+04 -9.259090E+04  1.637948E+05 -7.429399E+04 -6.237617E+03 -1.147737E+05
        34   2  8.054050E+04 -1.830703E+05  2.844309E+05  1.241984E+05 -6.139698E+03 -2.691364E+05
        34   3  5.223669E+05 -1.662216E+05  5.928271E+05  3.144857E+05 -1.631007E+03 -4.234780E+05
        34   4  1.200742E+04  1.208813E+04  1.831743E+05 -3.645114E+04 -6.251362E+03 -1.109991E+05
        34   5  1.150524E+05 -4.214669E+04  3.129419E+05 -3.184982E+04 -6.065781E+03 -2.726380E+05
        34   6  5.678182E+05  1.209511E+04  6.354763E+05 -3.547108E+04 -1.373443E+03 -4.342666E+05
        34   7  3.666007E+04  1.167809E+05  2.025541E+05  1.398252E+03 -6.264645E+03 -1.072239E+05
        34   8  1.496545E+05  9.884807E+04  3.414649E+05 -1.879343E+05 -5.990117E+03 -2.761403E+05
        34   9  6.137275E+05  1.907041E+05  6.781893E+05 -3.855293E+05 -1.103776E+03 -4.450584E+05
        34  10 -1.264402E+04 -9.260505E+04  1.637700E+05 -7.429457E+04  4.580236E-09 -5.283751E-08
        34  11  8.052101E+04 -1.831481E+05  2.842947E+05  1.241971E+05  4.308325E-09 -1.688753E-08
        34  12  5.223187E+05 -1.664142E+05  5.924900E+05  3.144852E+05  1.981320E-09  2.323498E-08
        34  13  1.200408E+04  1.207489E+04  1.831511E+05 -3.645170E+04 -9.303297E-09  4.344048E-10
        34  14  1.150324E+05 -4.222650E+04  3.128021E+05 -3.185115E+04 -2.028207E-09 -6.162959E-10
        34  15  5.677676E+05  1.189270E+04  6.351219E+05 -3.547157E+04  2.048153E-09  2.115585E-10
        34  16  3.665694E+04  1.167685E+05  2.025325E+05  1.397711E+03  1.719395E-09  5.293053E-08
        34  17  1.496340E+05  9.876621E+04  3.413215E+05 -1.879356E+05  2.915466E-09  1.757464E-08
        34  18  6.136744E+05  1.904915E+05  6.778172E+05 -3.855297E+05  2.401981E-09 -2.364943E-08
        34  19 -1.264044E+04 -9.259090E+04  1.637948E+05 -7.429399E+04  6.237617E+03  1.147737E+05
        34  20  8.054050E+04 -1.830703E+05  2.844309E+05  1.241984E+05  6.139698E+03  2.691364E+05
        34  21  5.223669E+05 -1.662216E+05  5.928271E+05  3.144857E+05  1.631007E+03  4.234780E+05
        34  22  1.200742E+04  1.208813E+04  1.831743E+05 -3.645114E+04  6.251362E+03  1.109991E+05
        34  23  1.150524E+05 -4.214669E+04  3.129419E+05 -3.184982E+04  6.065781E+03  2.726380E+05
        34  24  5.678182E+05  1.209511E+04  6.354763E+05 -3.547108E+04  1.373443E+03  4.342666E+05
        34  25  3.666007E+04  1.167809E+05  2.025541E+05  1.398252E+03  6.264645E+03  1.072239E+05
        34  26  1.496545E+05  9.884807E+04  3.414649E+05 -1.879343E+05  5.990117E+03  2.761403E+05
        34  27  6.137275E+05  1.907041E+05  6.781893E+05 -3.855293E+05  1.103776E+03  4.450584E+05
        35   1 -4.431018E+06 -1.324387E+06 -7.704447E+05 -1.576840E+06 -3.370013E+05 -1.151320E+05
        35   2 -4.311401E+06 -8.029283E+05 -4.483773E+05 -1.595858E+06 -2.193106E+05 -4.756344E+04
        35   3 -4.336734E+06 -7.855110E+05 -3.459651E+05 -1.545904E+06 -9.276129E+04 -3.478431E+03
        35   4 -3.530336E+06 -8.755096E+05 -5.028514E+05 -1.221320E+06 -3.222626E+05 -1.096544E+05
        35   5 -3.432662E+06 -4.409377E+05 -2.094982E+05 -1.324814E+06 -2.154387E+05 -4.612444E+04
        35   6 -3.477516E+06 -5.078599E+05 -1.269010E+05 -1.359411E+06 -9.976896E+04 -6.103075E+03
        35   7 -2.628843E+06 -4.263942E+05 -2.353397E+05 -8.652742E+05 -3.075002E+05 -1.041612E+05
        35   8 -2.553171E+06 -7.885961E+04  2.930970E+04 -1.053407E+06 -2.115607E+05 -4.468259E+04
        35   9 -2.617579E+06 -2.302081E+05  9.210527E+04 -1.172704E+06 -1.067873E+05 -8.730404E+03
        35  10 -4.431144E+06 -1.324432E+06 -7.706849E+05 -1.576871E+06 -5.656104E-10 -2.293088E-10
        35  11 -4.311454E+06 -8.029438E+05 -4.484727E+05 -1.595867E+06 -3.036688E-09 -7.000179E-10
        35  12 -4.336744E+06 -7.855133E+05 -3.459814E+05 -1.545904E+06 -8.117257E-09 -7.376027E-11
        35  13 -3.530451E+06 -8.755507E+05 -5.030706E+05 -1.221348E+06 -1.730330E-11 -4.534446E-10
        35  14 -3.432713E+06 -4.409526E+05 -2.095900E+05 -1.324822E+06 -3.110566E-09 -3.354618E-10
        35  15 -3.477526E+06 -5.078626E+05 -1.269199E+05 -1.359411E+06 -5.565359E-09  4.072010E-10
        35  16 -2.628948E+06 -4.264314E+05 -2.355387E+05 -8.653001E+05  1.819990E-09  5.648862E-11
        35  17 -2.553220E+06 -7.887385E+04  2.922143E+04 -1.053415E+06  2.951024E-09  2.451984E-11
        35  18 -2.617591E+06 -2.302113E+05  9.208360E+04 -1.172705E+06  1.018141E-09  1.065023E-09
        35  19 -4.431018E+06 -1.324387E+06 -7.704447E+05 -1.576840E+06  3.370013E+05  1.151320E+05
        35  20 -4.311401E+06 -8.029283E+05 -4.483773E+05 -1.595858E+06  2.193106E+05  4.756344E+04
        35  21 -4.336734E+06 -7.855110E+05 -3.459651E+05 -1.545904E+06  9.276129E+04  3.478431E+03
        35  22 -3.530336E+06 -8.755096E+05 -5.028514E+05 -1.221320E+06  3.222626E+05  1.096544E+05
        35  23 -3.432662E+06 -4.409377E+05 -2.094982E+05 -1.324814E+06  2.154387E+05  4.612444E+04
        35  24 -3.477516E+06 -5.078599E+05 -1.269010E+05 -1.359411E+06  9.976896E+04  6.103075E+03
        35  25 -2.628843E+06 -4.263942E+05 -2.353397E+05 -8.652742E+05  3.075002E+05  1.041612E+05
        35  26 -2.553171E+06 -7.885961E+04  2.930970E+04 -1.053407E+06  2.115607E+05  4.468259E+04
        35  27 -2.617579E+06 -2.302081E+05  9.210527E+04 -1.172704E+06  1.067873E+05  8.730404E+03
        36   1 -4.153842E+06 -8.348236E+05 -2.900438E+05 -1.531556E+06 -7.926128E+04 -4.620131E+03
        36   2 -4.081337E+06 -7.225178E+05 -2.116498E+05 -1.483753E+06 -5.187672E+04  3.439746E+03
        36   3 -3.978399E+06 -7.138402E+05 -1.669977E+05 -1.483634E+06 -2.370580E+04  9.400223E+03
        36   4 -3.459368E+06 -5.624808E+05 -1.033108E+05 -1.331573E+06 -7.973251E+04 -4.800428E+03
        36   5 -3.471769E+06 -4.904545E+05 -4.940996E+04 -1.315316E+06 -5.330471E+04  2.903224E+03
        36   6 -3.453532E+06 -5.218303E+05 -2.845850E+04 -1.346748E+06 -2.609499E+04  8.506100E+03
        36   7 -2.764422E+06 -2.900973E+05  8.337990E+04 -1.131382E+06 -8.020427E+04 -4.980945E+03
        36   8 -2.861838E+06 -2.583663E+05  1.127977E+05 -1.146728E+06 -5.473423E+04  2.366113E+03
        36   9 -2.928397E+06 -3.298079E+05  1.100571E+05 -1.209759E+06 -2.848641E+04  7.611198E+03
        36  10 -4.153849E+06 -8.348254E+05 -2.900558E+05 -1.531556E+06 -3.584171E-09  2.705127E-11
        36  11 -4.081340E+06 -7.225185E+05 -2.116549E+05 -1.483753E+06 -2.351921E-09 -1.263462E-09
        36  12 -3.978399E+06 -7.138405E+05 -1.669989E+05 -1.483634E+06 -2.557910E-09 -7.932019E-10
        36  13 -3.459374E+06 -5.624826E+05 -1.033228E+05 -1.331573E+06 -3.586071E-09  4.690397E-10
        36  14 -3.471772E+06 -4.904552E+05 -4.941534E+04 -1.315316E+06  1.571764E-09 -1.112282E-09
        36  15 -3.453532E+06 -5.218306E+05 -2.845992E+04 -1.346748E+06 -2.266053E-09 -1.010318E-09
        36  16 -2.764429E+06 -2.900991E+05  8.336771E+04 -1.131383E+06  6.086588E-10  5.170623E-10
        36  17 -2.861841E+06 -2.583671E+05  1.127920E+05 -1.146728E+06  1.054660E-09 -1.359009E-09
        36  18 -2.928398E+06 -3.298082E+05  1.100555E+05 -1.209758E+06  3.458690E-09 -2.068364E-09
        36  19 -4.153842E+06 -8.348236E+05 -2.900438E+05 -1.531556E+06  7.926128E+04  4.620131E+03
        36  20 -4.081337E+06 -7.225178E+05 -2.116498E+05 -1.483753E+06  5.187672E+04 -3.439746E+03
        36  21 -3.978399E+06 -7.138402E+05 -1.669977E+05 -1.483634E+06  2.370580E+04 -9.400223E+03
        36  22 -3.459368E+06 -5.624808E+05 -1.033108E+05 -1.331573E+06  7.973251E+04  4.800428E+03
        36  23 -3.471769E+06 -4.904545E+05 -4.940996E+04 -1.315316E+06  5.330471E+04 -2.903224E+03
        36  24 -3.453532E+06 -5.218303E+05 -2.845850E+04 -1.346748E+06  2.609499E+04 -8.506100E+03
        36  25 -2.764422E+06 -2.900973E+05  8.337990E+04 -1.131382E+06  8.020427E+04  4.980945E+03
        36  26 -2.861838E+06 -2.583663E+05  1.127977E+05 -1.146728E+06  5.473423E+04 -2.366113E+03
        36  27 -2.928397E+06 -3.298079E+05  1.100571E+05 -1.209759E+06  2.848641E+04 -7.611198E+03
        37   1 -3.830537E+06 -6.723609E+05 -1.229572E+05 -1.448732E+06 -1.911703E+04  8.024527E+03
        37   2 -3.758789E+06 -6.007172E+05 -8.618392E+04 -1.389512E+06 -1.160237E+04  6.140713E+03
        37   3 -3.632448E+06 -5.921562E+05 -5.539165E+04 -1.395104E+06 -3.995384E+03  4.003795E+03
        37   4 -3.450395E+06 -5.286453E+05 -2.226579E+04 -1.344636E+06 -2.099667E+04  7.321523E+03
        37   5 -3.477371E+06 -4.948698E+05 -1.153387E+04 -1.313063E+06 -1.359722E+04  5.395410E+03
        37   6 -3.449740E+06 -5.241510E+05 -6.687364E+03 -1.346303E+06 -6.106490E+03  3.215881E+03
        37   7 -3.070114E+06 -3.849210E+05  7.841285E+04 -1.240484E+06 -2.287758E+04  6.618041E+03
        37   8 -3.195877E+06 -3.890176E+05  6.310932E+04 -1.236582E+06 -1.559307E+04  4.649734E+03
        37   9 -3.266999E+06 -4.561439E+05  4.201416E+04 -1.297489E+06 -8.218286E+03  2.427714E+03
        37  10 -3.830538E+06 -6.723611E+05 -1.229580E+05 -1.448732E+06 -1.834010E-09 -1.858314E-09
        37  11 -3.758790E+06 -6.007173E+05 -8.618424E+04 -1.389512E+06 -1.013704E-09 -3.238368E-09
        37  12 -3.632448E+06 -5.921563E+05 -5.539171E+04 -1.395104E+06  8.929066E-10 -1.619198E-09
        37  13 -3.450396E+06 -5.286455E+05 -2.226672E+04 -1.344636E+06 -2.135133E-09 -2.452523E-09
        37  14 -3.477372E+06 -4.948699E+05 -1.153427E+04 -1.313063E+06 -4.539099E-09 -1.556274E-09
        37  15 -3.449740E+06 -5.241511E+05 -6.687453E+03 -1.346303E+06  5.806133E-10 -5.905836E-10
        37  16 -3.070115E+06 -3.849212E+05  7.841178E+04 -1.240483E+06 -1.319528E-09 -1.601298E-09
        37  17 -3.195877E+06 -3.890177E+05  6.310882E+04 -1.236582E+06 -2.528911E-09  6.693242E-11
        37  18 -3.266999E+06 -4.561439E+05  4.201402E+04 -1.297489E+06 -3.092718E-10 -6.034028E-10
        37  19 -3.830537E+06 -6.723609E+05 -1.229572E+05 -1.448732E+06  1.911703E+04 -8.024527E+03
        37  20 -3.758789E+06 -6.007172E+05 -8.618392E+04 -1.389512E+06  1.160237E+04 -6.140713E+03
        37  21 -3.632448E+06 -5.921562E+05 -5.539165E+04 -1.395104E+06  3.995384E+03 -4.003795E+03
        37  22 -3.450395E+06 -5.286453E+05 -2.226579E+04 -1.344636E+06  2.099667E+04 -7.321523E+03
        37  23 -3.477371E+06 -4.948698E+05 -1.153387E+04 -1.313063E+06  1.359722E+04 -5.395410E+03
        37  24 -3.449740E+06 -5.241510E+05 -6.687364E+03 -1.346303E+06  6.106490E+03 -3.215881E+03
        37  25 -3.070114E+06 -3.849210E+05  7.841285E+04 -1.240484E+06  2.287758E+04 -6.618041E+03
        37  26 -3.195877E+06 -3.890176E+05  6.310932E+04 -1.236582E+06  1.559307E+04 -4.649734E+03
        37  27 -3.266999E+06 -4.561439E+05  4.201416E+04 -1.297489E+06  8.218286E+03 -2.427714E+03
        38   1 -3.483385E+06 -5.378408E+05 -1.397820E+04 -1.355585E+06 -2.082818E+03  1.751287E+03
        38   2 -3.411043E+06 -4.699758E+05  1.446269E+04 -1.294434E+06  1.233227E+03 -2.034124E+03
        38   3 -3.280674E+06 -4.613813E+05  4.145413E+04 -1.300613E+06  4.545791E+03 -5.807302E+03
        38   4 -3.449211E+06 -5.250067E+05 -5.288974E+03 -1.346225E+06 -4.156230E+03  9.776464E+02
        38   5 -3.478193E+06 -4.951822E+05 -3.337516E+03 -1.312629E+06 -8.346216E+02 -2.805892E+03
        38   6 -3.449159E+06 -5.246300E+05 -2.838905E+03 -1.346366E+06  2.483176E+03 -6.577258E+03
        38   7 -3.415035E+06 -5.121726E+05  3.400187E+03 -1.336866E+06 -6.229771E+03  2.039572E+02
        38   8 -3.545338E+06 -5.203882E+05 -2.113801E+04 -1.330822E+06 -2.902214E+03 -3.577564E+03
        38   9 -3.617614E+06 -5.878764E+05 -4.713385E+04 -1.392108E+06  4.211999E+02 -7.346974E+03
        38  10 -3.483385E+06 -5.378408E+05 -1.397821E+04 -1.355585E+06  2.487105E-09 -4.686687E-10
        38  11 -3.411043E+06 -4.699758E+05  1.446268E+04 -1.294434E+06  4.848178E-10 -7.470916E-10
        38  12 -3.280674E+06 -4.613813E+05  4.145403E+04 -1.300613E+06  4.065856E-09  6.081825E-11
        38  13 -3.449211E+06 -5.250067E+05 -5.289009E+03 -1.346225E+06 -2.747171E-09 -1.006117E-09
        38  14 -3.478193E+06 -4.951822E+05 -3.337532E+03 -1.312629E+06 -4.004889E-09 -3.113990E-09
        38  15 -3.449159E+06 -5.246301E+05 -2.838997E+03 -1.346366E+06 -3.048873E-10 -6.993898E-11
        38  16 -3.415036E+06 -5.121726E+05  3.400113E+03 -1.336866E+06  5.259709E-11 -1.785453E-09
        38  17 -3.545338E+06 -5.203882E+05 -2.113805E+04 -1.330823E+06 -3.317482E-09 -3.102295E-10
        38  18 -3.617614E+06 -5.878765E+05 -4.713395E+04 -1.392108E+06 -2.452542E-09 -1.416179E-09
        38  19 -3.483385E+06 -5.378408E+05 -1.397820E+04 -1.355585E+06  2.082818E+03 -1.751287E+03
        38  20 -3.411043E+06 -4.699758E+05  1.446269E+04 -1.294434E+06 -1.233227E+03  2.034124E+03
        38  21 -3.280674E+06 -4.613813E+05  4.145413E+04 -1.300613E+06 -4.545791E+03  5.807302E+03
        38  22 -3.449211E+06 -5.250067E+05 -5.288974E+03 -1.346225E+06  4.156230E+03 -9.776464E+02
        38  23 -3.478193E+06 -4.951822E+05 -3.337516E+03 -1.312629E+06  8.346216E+02  2.805892E+03
        38  24 -3.449159E+06 -5.246300E+05 -2.838905E+03 -1.346366E+06 -2.483176E+03  6.577258E+03
        38  25 -3.415035E+06 -5.121726E+05  3.400187E+03 -1.336866E+06  6.229771E+03 -2.039572E+02
        38  26 -3.545338E+06 -5.203882E+05 -2.113801E+04 -1.330822E+06  2.902214E+03  3.577564E+03
        38  27 -3.617614E+06 -5.878764E+05 -4.713385E+04 -1.392108E+06 -4.211999E+02  7.346974E+03
        39   1 -3.134736E+06 -4.058229E+05  8.092782E+04 -1.260487E+06  5.961129E+03 -8.189780E+03
        39   2 -3.065891E+06 -3.413357E+05  1.051786E+05 -1.201823E+06  9.461566E+03 -1.176387E+04
        39   3 -2.941414E+06 -3.336332E+05  1.278368E+05 -1.207303E+06  1.290507E+04 -1.517133E+04
        39   4 -3.449703E+06 -5.240015E+05 -2.920954E+03 -1.345698E+06  3.909321E+03 -8.956173E+03
        39   5 -3.477565E+06 -4.959554E+05 -3.943689E+03 -1.313493E+06  7.486214E+03 -1.250284E+04
        39   6 -3.449819E+06 -5.247140E+05 -6.620089E+03 -1.345439E+06  1.100581E+04 -1.588290E+04
        39   7 -3.764576E+06 -6.421754E+05 -8.677915E+04 -1.430871E+06  1.858644E+03 -9.722145E+03
        39   8 -3.889078E+06 -6.505663E+05 -1.130815E+05 -1.425096E+06  5.512290E+03 -1.324128E+04
        39   9 -3.957977E+06 -7.157805E+05 -1.411001E+05 -1.483474E+06  9.108254E+03 -1.659384E+04
        39  10 -3.134736E+06 -4.058230E+05  8.092763E+04 -1.260487E+06  4.834784E-09  1.336303E-09
        39  11 -3.065891E+06 -3.413358E+05  1.051782E+05 -1.201822E+06 -1.718621E-09  2.701553E-09
        39  12 -2.941415E+06 -3.336335E+05  1.278360E+05 -1.207303E+06 -3.675913E-09  9.901124E-10
        39  13 -3.449703E+06 -5.240016E+05 -2.921133E+03 -1.345698E+06 -2.477001E-09  8.934553E-10
        39  14 -3.477565E+06 -4.959556E+05 -3.944087E+03 -1.313492E+06 -9.786501E-10 -9.967900E-10
        39  15 -3.449820E+06 -5.247143E+05 -6.620790E+03 -1.345439E+06  1.613839E-10  1.329827E-09
        39  16 -3.764576E+06 -6.421755E+05 -8.677934E+04 -1.430871E+06 -1.852652E-09 -1.486270E-09
        39  17 -3.889078E+06 -6.505665E+05 -1.130819E+05 -1.425096E+06  1.002581E-09 -9.111490E-10
        39  18 -3.957977E+06 -7.157809E+05 -1.411008E+05 -1.483474E+06 -4.833833E-10  1.047589E-09
        39  19 -3.134736E+06 -4.058229E+05  8.092782E+04 -1.260487E+06 -5.961129E+03  8.189780E+03
        39  20 -3.065891E+06 -3.413357E+05  1.051786E+05 -1.201823E+06 -9.461566E+03  1.176387E+04
        39  21 -2.941414E+06 -3.336332E+05  1.278368E+05 -1.207303E+06 -1.290507E+04  1.517133E+04
        39  22 -3.449703E+06 -5.240015E+05 -2.920954E+03 -1.345698E+06 -3.909321E+03  8.956173E+03
        39  23 -3.477565E+06 -4.959554E+05 -3.943689E+03 -1.313493E+06 -7.486214E+03  1.250284E+04
        39  24 -3.449819E+06 -5.247140E+05 -6.620089E+03 -1.345439E+06 -1.100581E+04  1.588290E+04
        39  25 -3.764576E+06 -6.421754E+05 -8.677915E+04 -1.430871E+06 -1.858644E+03  9.722145E+03
        39  26 -3.889078E+06 -6.505663E+05 -1.130815E+05 -1.425096E+06 -5.512290E+03  1.324128E+04
        39  27 -3.957977E+06 -7.157805E+05 -1.411001E+05 -1.483474E+06 -9.108254E+03  1.659384E+04
        40   1 -2.807706E+06 -2.812651E+05  1.624243E+05 -1.170322E+06  1.504792E+04 -1.707750E+04
        40   2 -2.746519E+06 -2.224555E+05  1.784410E+05 -1.117050E+06  2.383110E+04 -1.818924E+04
        40   3 -2.638431E+06 -2.205944E+05  1.872034E+05 -1.119034E+06  3.245202E+04 -1.884506E+04
        40   4 -3.451497E+06 -5.225102E+05 -8.452229E+03 -1.344326E+06  1.312305E+04 -1.779969E+04
        40   5 -3.475360E+06 -4.969647E+05 -1.486516E+04 -1.315597E+06  2.211100E+04 -1.883649E+04
        40   6 -3.452373E+06 -5.284180E+05 -2.870156E+04 -1.342129E+06  3.093554E+04 -1.941753E+04
        40   7 -4.094880E+06 -7.637289E+05 -1.793629E+05 -1.518166E+06  1.120041E+04 -1.852105E+04
        40   8 -4.203683E+06 -7.714410E+05 -2.082168E+05 -1.513932E+06  2.039313E+04 -1.948291E+04
        40   9 -4.265675E+06 -8.362013E+05 -2.446651E+05 -1.564958E+06  2.942123E+04 -1.998917E+04
        40  10 -2.807706E+06 -2.812655E+05  1.624233E+05 -1.170322E+06 -3.902814E-09  1.374194E-09
        40  11 -2.746519E+06 -2.224560E+05  1.784393E+05 -1.117050E+06 -2.883700E-09 -8.078563E-10
        40  12 -2.638433E+06 -2.205951E+05  1.872008E+05 -1.119034E+06 -2.468270E-09  4.390271E-10
        40  13 -3.451498E+06 -5.225106E+05 -8.453147E+03 -1.344326E+06 -2.591851E-09  1.089125E-09
        40  14 -3.475360E+06 -4.969652E+05 -1.486675E+04 -1.315597E+06 -2.779150E-09 -5.242661E-10
        40  15 -3.452374E+06 -5.284186E+05 -2.870407E+04 -1.342128E+06  3.410330E-09 -2.433473E-10
        40  16 -4.094880E+06 -7.637293E+05 -1.793638E+05 -1.518165E+06 -1.533309E-09  7.266204E-10
        40  17 -4.203683E+06 -7.714416E+05 -2.082183E+05 -1.513932E+06 -1.233258E-09  2.848987E-10
        40  18 -4.265676E+06 -8.362020E+05 -2.446675E+05 -1.564958E+06  8.377420E-10  5.349976E-10
        40  19 -2.807706E+06 -2.812651E+05  1.624243E+05 -1.170322E+06 -1.504792E+04  1.707750E+04
        40  20 -2.746519E+06 -2.224555E+05  1.784410E+05 -1.117050E+06 -2.383110E+04  1.818924E+04
        40  21 -2.638431E+06 -2.205944E+05  1.872034E+05 -1.119034E+06 -3.245202E+04  1.884506E+04
        40  22 -3.451497E+06 -5.225102E+05 -8.452229E+03 -1.344326E+06 -1.312305E+04  1.779969E+04
        40  23 -3.475360E+06 -4.969647E+05 -1.486516E+04 -1.315597E+06 -2.211100E+04  1.883649E+04
        40  24 -3.452373E+06 -5.284180E+05 -2.870156E+04 -1.342129E+06 -3.093554E+04  1.941753E+04
        40  25 -4.094880E+06 -7.637289E+05 -1.793629E+05 -1.518166E+06 -1.120041E+04  1.852105E+04
        40  26 -4.203683E+06 -7.714410E+05 -2.082168E+05 -1.513932E+06 -2.039313E+04  1.948291E+04
        40  27 -4.265675E+06 -8.362013E+05 -2.446651E+05 -1.564958E+06 -2.942123E+04  1.998917E+04
        41   1 -2.522584E+06 -1.735118E+05  2.101295E+05 -1.096283E+06  3.920714E+04 -1.896167E+04
        41   2 -2.471292E+06 -1.126287E+05  2.010795E+05 -1.043585E+06  7.235761E+04 -1.006428E+04
        41   3 -2.406944E+06 -1.572800E+05  1.506794E+05 -1.020302E+06  1.044929E+05  1.553513E+03
        41   4 -3.457097E+06 -5.189095E+05 -3.670370E+04 -1.344074E+06  3.706918E+04 -1.976865E+04
        41   5 -3.467290E+06 -4.921839E+05 -6.386618E+04 -1.319518E+06  7.144563E+04 -1.041272E+04
        41   6 -3.464719E+06 -5.713121E+05 -1.334075E+05 -1.324378E+06  1.048025E+05  1.662983E+03
        41   7 -4.390762E+06 -8.642630E+05 -2.836120E+05 -1.591530E+06  3.493475E+04 -2.057436E+04
        41   8 -4.462323E+06 -8.716727E+05 -3.288981E+05 -1.595048E+06  7.053521E+04 -1.076058E+04
        41   9 -4.521403E+06 -9.852523E+05 -4.175930E+05 -1.627974E+06  1.051115E+05  1.772157E+03
        41  10 -2.522586E+06 -1.735126E+05  2.101260E+05 -1.096283E+06 -1.982815E-09  6.706890E-10
        41  11 -2.471298E+06 -1.126302E+05  2.010694E+05 -1.043584E+06  4.915046E-10  2.309516E-09
        41  12 -2.406956E+06 -1.572830E+05  1.506588E+05 -1.020302E+06 -5.120182E-10  1.299036E-09
        41  13 -3.457098E+06 -5.189103E+05 -3.670702E+04 -1.344073E+06 -1.241545E-09  1.486890E-09
        41  14 -3.467296E+06 -4.921854E+05 -6.387602E+04 -1.319518E+06 -1.654572E-09  1.305553E-09
        41  15 -3.464731E+06 -5.713151E+05 -1.334282E+05 -1.324378E+06  1.956579E-09 -1.610117E-09
        41  16 -4.390764E+06 -8.642638E+05 -2.836151E+05 -1.591529E+06  1.737316E-10  2.846803E-09
        41  17 -4.462329E+06 -8.716742E+05 -3.289077E+05 -1.595047E+06  3.303298E-10  3.021558E-09
        41  18 -4.521415E+06 -9.852552E+05 -4.176139E+05 -1.627974E+06 -1.922373E-09 -2.504275E-09
        41  19 -2.522584E+06 -1.735118E+05  2.101295E+05 -1.096283E+06 -3.920714E+04  1.896167E+04
        41  20 -2.471292E+06 -1.126287E+05  2.010795E+05 -1.043585E+06 -7.235761E+04  1.006428E+04
        41  21 -2.406944E+06 -1.572800E+05  1.506794E+05 -1.020302E+06 -1.044929E+05 -1.553513E+03
        41  22 -3.457097E+06 -5.189095E+05 -3.670370E+04 -1.344074E+06 -3.706918E+04  1.976865E+04
        41  23 -3.467290E+06 -4.921839E+05 -6.386618E+04 -1.319518E+06 -7.144563E+04  1.041272E+04
        41  24 -3.464719E+06 -5.713121E+05 -1.334075E+05 -1.324378E+06 -1.048025E+05 -1.662983E+03
        41  25 -4.390762E+06 -8.642630E+05 -2.836120E+05 -1.591530E+06 -3.493475E+04  2.057436E+04
        41  26 -4.462323E+06 -8.716727E+05 -3.288981E+05 -1.595048E+06 -7.053521E+04  1.076058E+04
        41  27 -4.521403E+06 -9.852523E+05 -4.175930E+05 -1.627974E+06 -1.051115E+05 -1.772157E+03
        42   1 -2.289401E+06 -1.071016E+05  1.425017E+05 -1.092652E+06  1.379714E+05  7.779984E+03
        42   2 -2.242818E+06  5.579703E+04  4.824643E+04 -9.690422E+05  2.728990E+05  5.696896E+04
        42   3 -2.406437E+06 -3.956273E+05 -3.069018E+05 -7.220487E+05  3.966910E+05  1.355447E+05
        42   4 -3.488324E+06 -5.006626E+05 -1.638936E+05 -1.360216E+06  1.301305E+05  4.824504E+03
        42   5 -3.416242E+06 -4.286278E+05 -2.706137E+05 -1.332241E+06  2.786003E+05  5.910271E+04
        42   6 -3.557519E+06 -9.743555E+05 -6.493999E+05 -1.180763E+06  4.159250E+05  1.427412E+05
        42   7 -4.685854E+06 -8.942164E+05 -4.704035E+05 -1.627350E+06  1.223061E+05  1.873370E+03
        42   8 -4.588318E+06 -9.128919E+05 -5.895980E+05 -1.694790E+06  2.842891E+05  6.123082E+04
        42   9 -4.707255E+06 -1.552674E+06 -9.920248E+05 -1.638603E+06  4.351188E+05  1.499113E+05
        42  10 -2.289422E+06 -1.071068E+05  1.424656E+05 -1.092653E+06 -3.550386E-09 -3.028201E-09
        42  11 -2.242899E+06  5.577343E+04  4.809976E+04 -9.690547E+05 -1.587643E-09 -1.230079E-09
        42  12 -2.406611E+06 -3.956896E+05 -3.072335E+05 -7.220921E+05  1.253683E-10 -2.025006E-09
        42  13 -3.488342E+06 -5.006672E+05 -1.639257E+05 -1.360217E+06 -1.360503E-09 -1.143004E-09
        42  14 -3.416326E+06 -4.286526E+05 -2.707670E+05 -1.332255E+06 -2.197672E-09  2.982737E-09
        42  15 -3.557711E+06 -9.744244E+05 -6.497656E+05 -1.180812E+06  3.876996E-09 -8.954966E-10
        42  16 -4.685870E+06 -8.942205E+05 -4.704319E+05 -1.627351E+06  1.156520E-09 -3.607582E-09
        42  17 -4.588406E+06 -9.129179E+05 -5.897582E+05 -1.694804E+06  3.899209E-09  2.797863E-09
        42  18 -4.707466E+06 -1.552750E+06 -9.924262E+05 -1.638656E+06  3.761949E-09 -2.199165E-09
        42  19 -2.289401E+06 -1.071016E+05  1.425017E+05 -1.092652E+06 -1.379714E+05 -7.779984E+03
        42  20 -2.242818E+06  5.579703E+04  4.824643E+04 -9.690422E+05 -2.728990E+05 -5.696896E+04
        42  21 -2.406437E+06 -3.956273E+05 -3.069018E+05 -7.220487E+05 -3.966910E+05 -1.355447E+05
        42  22 -3.488324E+06 -5.006626E+05 -1.638936E+05 -1.360216E+06 -1.301305E+05 -4.824504E+03
        42  23 -3.416242E+06 -4.286278E+05 -2.706137E+05 -1.332241E+06 -2.786003E+05 -5.910271E+04
        42  24 -3.557519E+06 -9.743555E+05 -6.493999E+05 -1.180763E+06 -4.159250E+05 -1.427412E+05
        42  25 -4.685854E+06 -8.942164E+05 -4.704035E+05 -1.627350E+06 -1.223061E+05 -1.873370E+03
        42  26 -4.588318E+06 -9.128919E+05 -5.895980E+05 -1.694790E+06 -2.842891E+05 -6.123082E+04
        42  27 -4.707255E+06 -1.552674E+06 -9.920248E+05 -1.638603E+06 -4.351188E+05 -1.499113E+05
        43   1  1.275449E+05 -8.939172E+05  1.212877E+05 -2.781781E+03  1.626366E+04  1.373961E+03
        43   2  1.247656E+05 -9.053274E+05  1.170980E+05  1.255042E+03  1.581081E+04  3.030554E+03
        43   3  1.207837E+05 -9.170351E+05  1.115740E+05 -3.355446E+03  1.526185E+04  4.686334E+03
        43   4  2.285261E+01 -1.407621E+06 -1.962428E+03 -1.920637E+03  1.626401E+04  1.574671E+03
        43   5  1.057970E+02 -1.407468E+06 -3.405861E+03  2.401588E+03  1.581092E+04  3.278448E+03
        43   6 -1.022740E+03 -1.407621E+06 -6.217051E+03 -1.923930E+03  1.526168E+04  4.981442E+03
        43   7 -1.275184E+05 -1.921082E+06 -1.252313E+05 -1.060048E+03  1.626437E+04  1.775215E+03
        43   8 -1.245724E+05 -1.909377E+06 -1.239276E+05  3.547373E+03  1.581103E+04  3.526141E+03
        43   9 -1.228468E+05 -1.897985E+06 -1.240252E+05 -4.933718E+02  1.526151E+04  5.276317E+03
        43  10  1.275446E+05 -8.939173E+05  1.212872E+05 -2.781799E+03  2.184808E-09 -6.296696E-09
        43  11  1.247654E+05 -9.053275E+05  1.170975E+05  1.255004E+03  3.581650E-09 -1.248778E-08
        43  12  1.207835E+05 -9.170352E+05  1.115735E+05 -3.355503E+03  2.012668E-09 -3.907787E-09
        43  13  2.256808E+01 -1.407621E+06 -1.962929E+03 -1.920657E+03 -2.208944E-09  1.499461E-09
        43  14  1.055259E+02 -1.407468E+06 -3.406350E+03  2.401547E+03  5.049253E-09 -2.952385E-09
        43  15 -1.022996E+03 -1.407621E+06 -6.217535E+03 -1.923992E+03  1.798952E-09  1.151796E-09
        43  16 -1.275187E+05 -1.921082E+06 -1.252318E+05 -1.060071E+03 -2.061782E-12  6.418463E-09
        43  17 -1.245727E+05 -1.909377E+06 -1.239281E+05  3.547328E+03  4.365886E-09  8.730202E-09
        43  18 -1.228470E+05 -1.897986E+06 -1.240257E+05 -4.934367E+02  5.479209E-09  3.318101E-09
        43  19  1.275449E+05 -8.939172E+05  1.212877E+05 -2.781781E+03 -1.626366E+04 -1.373961E+03
        43  20  1.247656E+05 -9.053274E+05  1.170980E+05  1.255042E+03 -1.581081E+04 -3.030554E+03
        43  21  1.207837E+05 -9.170351E+05  1.115740E+05 -3.355446E+03 -1.526185E+04 -4.686334E+03
        43  22  2.285261E+01 -1.407621E+06 -1.962428E+03 -1.920637E+03 -1.626401E+04 -1.574671E+03
        43  23  1.057970E+02 -1.407468E+06 -3.405861E+03  2.401588E+03 -1.581092E+04 -3.278448E+03
        43  24 -1.022740E+03 -1.407621E+06 -6.217051E+03 -1.923930E+03 -1.526168E+04 -4.981442E+03
        43  25 -1.275184E+05 -1.921082E+06 -1.252313E+05 -1.060048E+03 -1.626437E+04 -1.775215E+03
        43  26 -1.245724E+05 -1.909377E+06 -1.239276E+05  3.547373E+03 -1.581103E+04 -3.526141E+03
        43  27 -1.228468E+05 -1.897985E+06 -1.240252E+05 -4.933718E+02 -1.526151E+04 -5.276317E+03
        44   1  1.178985E+05 -9.353931E+05  1.055061E+05 -2.234436E+03  1.502965E+04  6.098145E+03
        44   2  1.152420E+05 -9.479985E+05  9.661993E+04  1.026774E+03  1.441645E+04  1.264580E+04
        44   3  1.005183E+05 -9.643399E+05  8.047782E+04 -6.565364E+03  1.316046E+04  1.919013E+04
        44   4  4.921963E+02 -1.408390E+06 -7.955262E+03 -2.399662E+03  1.502994E+04  6.230502E+03
        44   5  1.406533E+03 -1.406497E+06 -1.340964E+04  3.007274E+03  1.441549E+04  1.309730E+04
        44   6 -9.806851E+03 -1.408398E+06 -2.634551E+04 -2.439691E+03  1.315808E+04  1.996092E+04
        44   7 -1.169304E+05 -1.881181E+06 -1.214325E+05 -2.564584E+03  1.503023E+04  6.362757E+03
        44   8 -1.124443E+05 -1.864802E+06 -1.234541E+05  4.986482E+03  1.441453E+04  1.354846E+04
        44   9 -1.201463E+05 -1.852275E+06 -1.331829E+05  1.683197E+03  1.315571E+04  2.073115E+04
        44  10  1.178982E+05 -9.353932E+05  1.055056E+05 -2.234510E+03 -4.943409E-10  1.712895E-10
        44  11  1.152418E+05 -9.479988E+05  9.661924E+04  1.026627E+03  3.598068E-09 -4.313077E-09
        44  12  1.005180E+05 -9.643403E+05  8.047680E+04 -6.565568E+03  9.162307E-10 -2.413437E-10
        44  13  4.919434E+02 -1.408390E+06 -7.955759E+03 -2.399737E+03  3.619346E-09  2.017956E-09
        44  14  1.406264E+03 -1.406497E+06 -1.341035E+04  3.007122E+03  3.552009E-09 -3.752155E-09
        44  15 -9.807144E+03 -1.408399E+06 -2.634658E+04 -2.439902E+03  9.705288E-10  1.366689E-09
        44  16 -1.169306E+05 -1.881181E+06 -1.214330E+05 -2.564661E+03  1.681831E-09 -4.112752E-10
        44  17 -1.124445E+05 -1.864802E+06 -1.234549E+05  4.986325E+03  3.920412E-09 -8.938891E-11
        44  18 -1.201466E+05 -1.852276E+06 -1.331840E+05  1.682977E+03  3.349108E-09 -2.527988E-10
        44  19  1.178985E+05 -9.353931E+05  1.055061E+05 -2.234436E+03 -1.502965E+04 -6.098145E+03
        44  20  1.152420E+05 -9.479985E+05  9.661993E+04  1.026774E+03 -1.441645E+04 -1.264580E+04
        44  21  1.005183E+05 -9.643399E+05  8.047782E+04 -6.565364E+03 -1.316046E+04 -1.919013E+04
        44  22  4.921963E+02 -1.408390E+06 -7.955262E+03 -2.399662E+03 -1.502994E+04 -6.230502E+03
        44  23  1.406533E+03 -1.406497E+06 -1.340964E+04  3.007274E+03 -1.441549E+04 -1.309730E+04
        44  24 -9.806851E+03 -1.408398E+06 -2.634551E+04 -2.439691E+03 -1.315808E+04 -1.996092E+04
        44  25 -1.169304E+05 -1.881181E+06 -1.214325E+05 -2.564584E+03 -1.503023E+04 -6.362757E+03
        44  26 -1.124443E+05 -1.864802E+06 -1.234541E+05  4.986482E+03 -1.441453E+04 -1.354846E+04
        44  27 -1.201463E+05 -1.852275E+06 -1.331829E+05  1.683197E+03 -1.315571E+04 -2.073115E+04
        45   1  1.096500E+05 -9.918147E+05  6.896028E+04  8.213070E+03  1.387277E+04  2.650803E+04
        45   2  1.140744E+05 -9.931648E+05  4.555764E+04 -6.219226E+03  1.280748E+04  5.037804E+04
        45   3  3.991312E+03 -1.026223E+06 -2.201995E+04 -3.400057E+04  3.748679E+03  7.420980E+04
        45   4  4.818705E+03 -1.414739E+06 -3.229971E+04 -2.830868E+03  1.387928E+04  2.497070E+04
        45   5  1.334719E+04 -1.398560E+06 -5.167085E+04  3.621778E+03  1.279786E+04  5.284848E+04
        45   6 -9.336981E+04 -1.414806E+06 -1.180237E+05 -3.276763E+03  3.722204E+03  8.068829E+04
        45   7 -1.000250E+05 -1.837499E+06 -1.335723E+05 -1.386707E+04  1.388585E+04  2.343441E+04
        45   8 -8.739169E+04 -1.803804E+06 -1.489109E+05  1.345648E+04  1.278831E+04  5.531729E+04
        45   9 -1.907388E+05 -1.803250E+06 -2.140381E+05  2.742791E+04  3.696363E+03  8.716272E+04
        45  10  1.096496E+05 -9.918155E+05  6.895860E+04  8.212774E+03 -1.153706E-09  2.147253E-10
        45  11  1.140736E+05 -9.931676E+05  4.555255E+04 -6.219746E+03  3.171098E-09 -6.481352E-09
        45  12  3.989815E+03 -1.026229E+06 -2.203034E+04 -3.400079E+04  2.296558E-09 -1.685491E-09
        45  13  4.818330E+03 -1.414740E+06 -3.230125E+04 -2.831148E+03  7.981607E-10  2.095374E-09
        45  14  1.334626E+04 -1.398563E+06 -5.167642E+04  3.621233E+03  1.938981E-10 -5.046393E-09
        45  15 -9.337158E+04 -1.414813E+06 -1.180360E+05 -3.277005E+03  3.240874E-10  1.400146E-09
        45  16 -1.000254E+05 -1.837500E+06 -1.335737E+05 -1.386733E+04  2.761013E-09 -1.534374E-10
        45  17 -8.739269E+04 -1.803808E+06 -1.489170E+05  1.345591E+04 -4.243833E-10  1.544569E-09
        45  18 -1.907409E+05 -1.803258E+06 -2.140525E+05  2.742765E+04  1.721972E-09  8.415470E-10
        45  19  1.096500E+05 -9.918147E+05  6.896028E+04  8.213070E+03 -1.387277E+04 -2.650803E+04
        45  20  1.140744E+05 -9.931648E+05  4.555764E+04 -6.219226E+03 -1.280748E+04 -5.037804E+04
        45  21  3.991312E+03 -1.026223E+06 -2.201995E+04 -3.400057E+04 -3.748679E+03 -7.420980E+04
        45  22  4.818705E+03 -1.414739E+06 -3.229971E+04 -2.830868E+03 -1.387928E+04 -2.497070E+04
        45  23  1.334719E+04 -1.398560E+06 -5.167085E+04  3.621778E+03 -1.279786E+04 -5.284848E+04
        45  24 -9.336981E+04 -1.414806E+06 -1.180237E+05 -3.276763E+03 -3.722204E+03 -8.068829E+04
        45  25 -1.000250E+05 -1.837499E+06 -1.335723E+05 -1.386707E+04 -1.388585E+04 -2.343441E+04
        45  26 -8.739169E+04 -1.803804E+06 -1.489109E+05  1.345648E+04 -1.278831E+04 -5.531729E+04
        45  27 -1.907388E+05 -1.803250E+06 -2.140381E+05  2.742791E+04 -3.696363E+03 -8.716272E+04
        46   1  9.248271E+04  9.863778E+05  5.272894E+04 -1.961215E+02  3.236455E+04 -5.933423E+02
        46   2  9.261476E+04  9.864900E+05  5.344830E+04 -1.630313E+02  3.225468E+04 -1.525273E+03
        46   3  9.297702E+04  9.867899E+05  5.483410E+04 -1.111059E+02  3.199873E+04 -2.457308E+03
        46   4 -3.533024E+01  5.754744E+05  6.661107E+02  4.173772E+00  3.236677E+04 -5.036360E+02
        46   5  1.834802E+01  5.754108E+05  1.169170E+03 -5.186959E+00  3.225672E+04 -1.084152E+03
        46   6  2.413925E+02  5.754741E+05  2.095094E+03  4.287715E+00  3.200053E+04 -1.664765E+03
        46   7 -9.256026E+04  1.647441E+05 -5.139730E+04  2.043476E+02  3.236899E+04 -4.139861E+02
        46   8 -9.258497E+04  1.645047E+05 -5.111060E+04  1.525675E+02  3.225875E+04 -6.433075E+02
        46   9 -9.250121E+04  1.643314E+05 -5.064467E+04  1.196231E+02  3.200233E+04 -8.727213E+02
        46  10  9.248159E+04  9.863775E+05  5.272697E+04 -1.961061E+02  1.753567E-09  7.577963E-09
        46  11  9.261364E+04  9.864897E+05  5.344634E+04 -1.629917E+02  3.583520E-09  1.950745E-09
        46  12  9.297592E+04  9.867897E+05  5.483216E+04 -1.110426E+02 -3.841858E-10 -1.223829E-09
        46  13 -3.645556E+01  5.754741E+05  6.641410E+02  4.186898E+00  2.177706E-09  4.537946E-10
        46  14  1.723010E+01  5.754105E+05  1.167212E+03 -5.158800E+00  1.052552E-09 -1.062880E-09
        46  15  2.402918E+02  5.754738E+05  2.093164E+03  4.330612E+00  4.004862E-10  5.736193E-10
        46  16 -9.256138E+04  1.647438E+05 -5.139927E+04  2.043584E+02 -1.482513E-09 -8.211807E-09
        46  17 -9.258609E+04  1.645044E+05 -5.111256E+04  1.525842E+02 -5.644859E-10 -2.280250E-09
        46  18 -9.250231E+04  1.643311E+05 -5.064660E+04  1.196456E+02  1.524622E-09  1.416942E-09
        46  19  9.248271E+04  9.863778E+05  5.272894E+04 -1.961215E+02 -3.236455E+04  5.933423E+02
        46  20  9.261476E+04  9.864900E+05  5.344830E+04 -1.630313E+02 -3.225468E+04  1.525273E+03
        46  21  9.297702E+04  9.867899E+05  5.483410E+04 -1.111059E+02 -3.199873E+04  2.457308E+03
        46  22 -3.533024E+01  5.754744E+05  6.661107E+02  4.173772E+00 -3.236677E+04  5.036360E+02
        46  23  1.834802E+01  5.754108E+05  1.169170E+03 -5.186959E+00 -3.225672E+04  1.084152E+03
        46  24  2.413925E+02  5.754741E+05  2.095094E+03  4.287715E+00 -3.200053E+04  1.664765E+03
        46  25 -9.256026E+04  1.647441E+05 -5.139730E+04  2.043476E+02 -3.236899E+04  4.139861E+02
        46  26 -9.258497E+04  1.645047E+05 -5.111060E+04  1.525675E+02 -3.225875E+04  6.433075E+02
        46  27 -9.250121E+04  1.643314E+05 -5.064467E+04  1.196231E+02 -3.200233E+04  8.727213E+02
        47   1  9.320145E+04  9.871557E+05  5.583042E+04 -2.485998E+02  3.183706E+04 -2.950686E+03
        47   2  9.439112E+04  9.868145E+05  5.945043E+04  9.467267E+02  3.092988E+04 -8.064408E+03
        47   3  9.778539E+04  9.876980E+05  6.694954E+04  2.090433E+03  2.893169E+04 -1.317900E+04
        47   4  3.593724E+02  5.756170E+05  2.782620E+03 -1.154180E+01  3.183877E+04 -2.073651E+03
        47   5  1.255012E+03  5.752311E+05  4.969113E+03  1.524296E+01  3.092985E+04 -4.563935E+03
        47   6  3.901031E+03  5.756156E+05  9.215787E+03 -9.601248E+00  2.892956E+04 -7.055061E+03
        47   7 -9.248971E+04  1.642516E+05 -5.026602E+04  2.253748E+02  3.184049E+04 -1.197168E+03
        47   8 -9.188826E+04  1.638204E+05 -4.951343E+04 -9.155699E+02  3.092981E+04 -1.065671E+03
        47   9 -8.999085E+04  1.637051E+05 -4.852002E+04 -2.108155E+03  2.892738E+04 -9.350052E+02
        47  10  9.320036E+04  9.871554E+05  5.582849E+04 -2.485242E+02  2.031854E-09  7.236232E-09
        47  11  9.439007E+04  9.868142E+05  5.944851E+04  9.469275E+02  7.404218E-09  3.809950E-08
        47  12  9.778444E+04  9.876976E+05  6.694764E+04  2.090740E+03  5.121513E-09  6.741343E-08
        47  13  3.582824E+02  5.756168E+05  2.780706E+03 -1.148864E+01  4.720669E-09  5.414293E-10
        47  14  1.253978E+03  5.752308E+05  4.967275E+03  1.535663E+01 -1.654016E-09 -1.305301E-09
        47  15  3.900118E+03  5.756153E+05  9.214120E+03 -9.436906E+00 -1.189844E-08  6.722311E-10
        47  16 -9.249080E+04  1.642513E+05 -5.026793E+04  2.254055E+02 -8.022836E-10 -8.280727E-09
        47  17 -9.188929E+04  1.638202E+05 -4.951523E+04 -9.155433E+02  4.778397E-11 -3.850445E-08
        47  18 -8.999175E+04  1.637048E+05 -4.852160E+04 -2.108133E+03  5.773405E-09 -6.716003E-08
        47  19  9.320145E+04  9.871557E+05  5.583042E+04 -2.485998E+02 -3.183706E+04  2.950686E+03
        47  20  9.439112E+04  9.868145E+05  5.945043E+04  9.467267E+02 -3.092988E+04  8.064408E+03
        47  21  9.778539E+04  9.876980E+05  6.694954E+04  2.090433E+03 -2.893169E+04  1.317900E+04
        47  22  3.593724E+02  5.756170E+05  2.782620E+03 -1.154180E+01 -3.183877E+04  2.073651E+03
        47  23  1.255012E+03  5.752311E+05  4.969113E+03  1.524296E+01 -3.092985E+04  4.563935E+03
        47  24  3.901031E+03  5.756156E+05  9.215787E+03 -9.601248E+00 -2.892956E+04  7.055061E+03
        47  25 -9.248971E+04  1.642516E+05 -5.026602E+04  2.253748E+02 -3.184049E+04  1.197168E+03
        47  26 -9.188826E+04  1.638204E+05 -4.951343E+04 -9.155699E+02 -3.092981E+04  1.065671E+03
        47  27 -8.999085E+04  1.637051E+05 -4.852002E+04 -2.108155E+03 -2.892738E+04  9.350052E+02
        48   1  9.984898E+04  9.895857E+05  7.225878E+04  1.293700E+03  2.766892E+04 -1.543178E+04
        48   2  1.116866E+05  9.853691E+05  9.312851E+04  1.537135E+04  2.083631E+04 -4.649043E+04
        48   3  1.441817E+05  9.903614E+05  1.393635E+05  2.881093E+04  5.924081E+03 -7.755699E+04
        48   4  5.378683E+03  5.767434E+05  1.235898E+04 -1.418073E+02  2.766602E+04 -8.664172E+03
        48   5  1.542081E+04  5.738159E+05  2.284045E+04  1.902622E+02  2.081891E+04 -2.030383E+04
        48   6  4.275867E+04  5.767329E+05  4.521812E+04 -1.160329E+02  5.891091E+03 -3.195063E+04
        48   7 -8.909941E+04  1.640728E+05 -4.754344E+04 -1.576293E+03  2.766309E+04 -1.900874E+03
        48   8 -8.085271E+04  1.624310E+05 -4.745054E+04 -1.498043E+04  2.080021E+04  5.865991E+03
        48   9 -5.867189E+04  1.632690E+05 -4.893012E+04 -2.902355E+04  5.853846E+03  1.362566E+04
        48  10  9.984810E+04  9.895852E+05  7.225690E+04  1.294044E+03  5.795503E-09 -6.633003E-08
        48  11  1.116855E+05  9.853667E+05  9.312364E+04  1.537213E+04  3.385107E-09 -3.803195E-08
        48  12  1.441800E+05  9.903550E+05  1.393521E+05  2.881130E+04  7.393080E-11 -2.322264E-09
        48  13  5.377841E+03  5.767431E+05  1.235740E+04 -1.416143E+02 -1.117238E-08  7.867767E-10
        48  14  1.542023E+04  5.738154E+05  2.283886E+04  1.906026E+02 -7.018965E-09 -1.506406E-09
        48  15  4.275835E+04  5.767318E+05  4.521614E+04 -1.158813E+02  2.674687E-11  1.073761E-09
        48  16 -8.910023E+04  1.640726E+05 -4.754488E+04 -1.576250E+03  5.690352E-09  6.532086E-08
        48  17 -8.085318E+04  1.624308E+05 -4.745142E+04 -1.498052E+04  1.235122E-09  3.750120E-08
        48  18 -5.867198E+04  1.632688E+05 -4.893053E+04 -2.902361E+04  7.911114E-10  2.627794E-09
        48  19  9.984898E+04  9.895857E+05  7.225878E+04  1.293700E+03 -2.766892E+04  1.543178E+04
        48  20  1.116866E+05  9.853691E+05  9.312851E+04  1.537135E+04 -2.083631E+04  4.649043E+04
        48  21  1.441817E+05  9.903614E+05  1.393635E+05  2.881093E+04 -5.924081E+03  7.755699E+04
        48  22  5.378683E+03  5.767434E+05  1.235898E+04 -1.418073E+02 -2.766602E+04  8.664172E+03
        48  23  1.542081E+04  5.738159E+05  2.284045E+04  1.902622E+02 -2.081891E+04  2.030383E+04
        48  24  4.275867E+04  5.767329E+05  4.521812E+04 -1.160329E+02 -5.891091E+03  3.195063E+04
        48  25 -8.909941E+04  1.640728E+05 -4.754344E+04 -1.576293E+03 -2.766309E+04  1.900874E+03
        48  26 -8.085271E+04  1.624310E+05 -4.745054E+04 -1.498043E+04 -2.080021E+04 -5.865991E+03
        48  27 -5.867189E+04  1.632690E+05 -4.893012E+04 -2.902355E+04 -5.853846E+03 -1.362566E+04
        49   1 -8.515821E+06 -2.465549E+06 -1.434553E+06 -3.069677E+06 -7.710869E+05 -2.795025E+05
        49   2 -8.314947E+06 -1.307098E+06 -7.116492E+05 -3.187140E+06 -4.967415E+05 -1.553713E+05
        49   3 -8.527258E+06 -1.277674E+06 -4.996004E+05 -3.062608E+06 -2.144430E+05 -5.229530E+04
        49   4 -7.832403E+06 -1.951059E+06 -1.195974E+06 -2.623386E+06 -7.581600E+05 -2.750354E+05
        49   5 -7.563191E+06 -9.502620E+05 -4.972952E+05 -2.908225E+06 -4.934454E+05 -1.542073E+05
        49   6 -7.704739E+06 -1.075883E+06 -3.013187E+05 -2.951241E+06 -2.207514E+05 -5.461948E+04
        49   7 -7.148356E+06 -1.435953E+06 -9.574201E+05 -2.176506E+06 -7.452171E+05 -2.705483E+05
        49   8 -6.810864E+06 -5.932878E+05 -2.829948E+05 -2.628966E+06 -4.901446E+05 -1.530405E+05
        49   9 -6.881540E+06 -8.741119E+05 -1.030780E+05 -2.839782E+06 -2.270690E+05 -5.694431E+04
        49  10 -8.516488E+06 -2.465796E+06 -1.435837E+06 -3.069853E+06  7.048663E-10 -4.955056E-10
        49  11 -8.315222E+06 -1.307192E+06 -7.121662E+05 -3.187203E+06 -1.764976E-10 -1.395913E-09
        49  12 -8.527309E+06 -1.277690E+06 -4.996934E+05 -3.062617E+06  3.639533E-09 -2.152151E-11
        49  13 -7.833048E+06 -1.951298E+06 -1.197213E+06 -2.623556E+06 -8.434433E-10 -3.107445E-10
        49  14 -7.563462E+06 -9.503543E+05 -4.978046E+05 -2.908286E+06  1.171476E-09 -8.479565E-10
        49  15 -7.704793E+06 -1.075899E+06 -3.014172E+05 -2.951250E+06  1.975212E-09 -4.817543E-10
        49  16 -7.148978E+06 -1.436184E+06 -9.586163E+05 -2.176670E+06  2.150945E-09  1.818464E-10
        49  17 -6.811131E+06 -5.933788E+05 -2.834966E+05 -2.629027E+06 -4.530754E-10 -6.872745E-10
        49  18 -6.881597E+06 -8.741294E+05 -1.031823E+05 -2.839792E+06 -1.862440E-09 -1.275975E-09
        49  19 -8.515821E+06 -2.465549E+06 -1.434553E+06 -3.069677E+06  7.710869E+05  2.795025E+05
        49  20 -8.314947E+06 -1.307098E+06 -7.116492E+05 -3.187140E+06  4.967415E+05  1.553713E+05
        49  21 -8.527258E+06 -1.277674E+06 -4.996004E+05 -3.062608E+06  2.144430E+05  5.229530E+04
        49  22 -7.832403E+06 -1.951059E+06 -1.195974E+06 -2.623386E+06  7.581600E+05  2.750354E+05
        49  23 -7.563191E+06 -9.502620E+05 -4.972952E+05 -2.908225E+06  4.934454E+05  1.542073E+05
        49  24 -7.704739E+06 -1.075883E+06 -3.013187E+05 -2.951241E+06  2.207514E+05  5.461948E+04
        49  25 -7.148356E+06 -1.435953E+06 -9.574201E+05 -2.176506E+06  7.452171E+05  2.705483E+05
        49  26 -6.810864E+06 -5.932878E+05 -2.829948E+05 -2.628966E+06  4.901446E+05  1.530405E+05
        49  27 -6.881540E+06 -8.741119E+05 -1.030780E+05 -2.839782E+06  2.270690E+05  5.694431E+04
        50   1 -8.272207E+06 -1.461065E+06 -4.131378E+05 -3.075911E+06 -1.758224E+05 -4.332865E+04
        50   2 -8.188084E+06 -1.277390E+06 -2.603409E+05 -3.037965E+06 -1.133530E+05 -2.223707E+04
        50   3 -8.104669E+06 -1.268059E+06 -1.870023E+05 -3.030607E+06 -5.008703E+04 -3.242379E+03
        50   4 -7.662557E+06 -1.205022E+06 -2.452198E+05 -2.884012E+06 -1.764031E+05 -4.355702E+04
        50   5 -7.655239E+06 -1.069687E+06 -1.169783E+05 -2.886686E+06 -1.148557E+05 -2.280270E+04
        50   6 -7.648400E+06 -1.108440E+06 -6.739144E+04 -2.919960E+06 -5.252052E+04 -4.152411E+03
        50   7 -7.052537E+06 -9.489309E+05 -7.733571E+04 -2.691929E+06 -1.769844E+05 -4.378565E+04
        50   8 -7.122114E+06 -8.619610E+05  2.635923E+04 -2.735287E+06 -1.163598E+05 -2.336889E+04
        50   9 -7.191927E+06 -9.488158E+05  5.220188E+04 -2.809242E+06 -5.495599E+04 -5.063058E+03
        50  10 -8.272242E+06 -1.461075E+06 -4.132003E+05 -3.075918E+06  1.111513E-09 -9.675926E-10
        50  11 -8.188098E+06 -1.277394E+06 -2.603664E+05 -3.037967E+06 -4.729267E-10 -1.666437E-09
        50  12 -8.104671E+06 -1.268060E+06 -1.870071E+05 -3.030607E+06 -2.705758E-09  4.054451E-10
        50  13 -7.662591E+06 -1.205033E+06 -2.452827E+05 -2.884018E+06  1.176957E-09  1.108703E-10
        50  14 -7.655253E+06 -1.069691E+06 -1.170044E+05 -2.886688E+06 -1.012075E-09 -4.181991E-10
        50  15 -7.648403E+06 -1.108441E+06 -6.739673E+04 -2.919960E+06 -3.785046E-10 -2.322832E-10
        50  16 -7.052571E+06 -9.489416E+05 -7.739898E+04 -2.691935E+06 -1.285543E-09 -3.672891E-10
        50  17 -7.122128E+06 -8.619653E+05  2.633242E+04 -2.735289E+06  2.468763E-09  4.591319E-12
        50  18 -7.191930E+06 -9.488166E+05  5.219608E+04 -2.809242E+06 -1.007353E-09 -1.899488E-09
        50  19 -8.272207E+06 -1.461065E+06 -4.131378E+05 -3.075911E+06  1.758224E+05  4.332865E+04
        50  20 -8.188084E+06 -1.277390E+06 -2.603409E+05 -3.037965E+06  1.133530E+05  2.223707E+04
        50  21 -8.104669E+06 -1.268059E+06 -1.870023E+05 -3.030607E+06  5.008703E+04  3.242379E+03
        50  22 -7.662557E+06 -1.205022E+06 -2.452198E+05 -2.884012E+06  1.764031E+05  4.355702E+04
        50  23 -7.655239E+06 -1.069687E+06 -1.169783E+05 -2.886686E+06  1.148557E+05  2.280270E+04
        50  24 -7.648400E+06 -1.108440E+06 -6.739144E+04 -2.919960E+06  5.252052E+04  4.152411E+03
        50  25 -7.052537E+06 -9.489309E+05 -7.733571E+04 -2.691929E+06  1.769844E+05  4.378565E+04
        50  26 -7.122114E+06 -8.619610E+05  2.635923E+04 -2.735287E+06  1.163598E+05  2.336889E+04
        50  27 -7.191927E+06 -9.488158E+05  5.220188E+04 -2.809242E+06  5.495599E+04  5.063058E+03
        51   1 -7.939387E+06 -1.238570E+06 -1.322093E+05 -2.997274E+06 -3.983522E+04 -2.619023E+03
        51   2 -7.861185E+06 -1.154366E+06 -7.871929E+04 -2.934911E+06 -2.427513E+04 -1.832246E+03
        51   3 -7.728214E+06 -1.145329E+06 -3.933159E+04 -2.940442E+06 -8.607131E+03 -1.332178E+03
        51   4 -7.641439E+06 -1.123998E+06 -5.266108E+04 -2.914207E+06 -4.184008E+04 -3.369276E+03
        51   5 -7.668043E+06 -1.081159E+06 -2.716010E+04 -2.882206E+06 -2.640741E+04 -2.629463E+03
        51   6 -7.639861E+06 -1.113456E+06 -1.565177E+04 -2.918102E+06 -1.086940E+04 -2.177337E+03
        51   7 -7.343405E+06 -1.009421E+06  2.687913E+04 -2.831103E+06 -4.384599E+04 -4.119944E+03
        51   8 -7.474865E+06 -1.007949E+06  2.439582E+04 -2.829486E+06 -2.854042E+04 -3.426958E+03
        51   9 -7.551500E+06 -1.081583E+06  8.027453E+03 -2.895760E+06 -1.313203E+04 -3.022618E+03
        51  10 -7.939389E+06 -1.238570E+06 -1.322124E+05 -2.997274E+06 -1.611179E-09 -1.405174E-09
        51  11 -7.861186E+06 -1.154366E+06 -7.872041E+04 -2.934911E+06 -9.659547E-10 -1.756156E-09
        51  12 -7.728214E+06 -1.145329E+06 -3.933173E+04 -2.940442E+06 -1.501489E-09  1.161895E-09
        51  13 -7.641441E+06 -1.123999E+06 -5.266443E+04 -2.914207E+06 -3.013774E-10 -1.993908E-09
        51  14 -7.668044E+06 -1.081159E+06 -2.716144E+04 -2.882206E+06 -1.156194E-09  4.710893E-10
        51  15 -7.639861E+06 -1.113456E+06 -1.565200E+04 -2.918102E+06  1.815513E-09  2.254726E-09
        51  16 -7.343407E+06 -1.009421E+06  2.687544E+04 -2.831103E+06 -1.152865E-10 -1.167834E-09
        51  17 -7.474866E+06 -1.007949E+06  2.439425E+04 -2.829486E+06  7.345331E-10  1.787364E-09
        51  18 -7.551500E+06 -1.081583E+06  8.027107E+03 -2.895760E+06  1.263210E-09  2.154101E-09
        51  19 -7.939387E+06 -1.238570E+06 -1.322093E+05 -2.997274E+06  3.983522E+04  2.619023E+03
        51  20 -7.861185E+06 -1.154366E+06 -7.871929E+04 -2.934911E+06  2.427513E+04  1.832246E+03
        51  21 -7.728214E+06 -1.145329E+06 -3.933159E+04 -2.940442E+06  8.607131E+03  1.332178E+03
        51  22 -7.641439E+06 -1.123998E+06 -5.266108E+04 -2.914207E+06  4.184008E+04  3.369276E+03
        51  23 -7.668043E+06 -1.081159E+06 -2.716010E+04 -2.882206E+06  2.640741E+04  2.629463E+03
        51  24 -7.639861E+06 -1.113456E+06 -1.565177E+04 -2.918102E+06  1.086940E+04  2.177337E+03
        51  25 -7.343405E+06 -1.009421E+06  2.687913E+04 -2.831103E+06  4.384599E+04  4.119944E+03
        51  26 -7.474865E+06 -1.007949E+06  2.439582E+04 -2.829486E+06  2.854042E+04  3.426958E+03
        51  27 -7.551500E+06 -1.081583E+06  8.027453E+03 -2.895760E+06  1.313203E+04  3.022618E+03
        52   1 -7.566838E+06 -1.087739E+06  7.377477E+03 -2.897867E+06 -5.320565E+03 -3.310737E+03
        52   2 -7.490752E+06 -1.015364E+06  4.010864E+04 -2.833644E+06  1.329315E+02 -6.628955E+03
        52   3 -7.353984E+06 -1.006417E+06  6.962355E+04 -2.840173E+06  5.539584E+03 -9.813766E+03
        52   4 -7.639125E+06 -1.114887E+06 -1.227462E+04 -2.917235E+06 -7.545056E+03 -4.141797E+03
        52   5 -7.669387E+06 -1.082706E+06 -7.499167E+03 -2.882026E+06 -2.030159E+03 -7.437617E+03
        52   6 -7.638989E+06 -1.113967E+06 -5.987838E+03 -2.917575E+06  3.437166E+03 -1.060023E+04
        52   7 -7.711407E+06 -1.142035E+06 -3.192717E+04 -2.936600E+06 -9.769258E+03 -4.972750E+03
        52   8 -7.847991E+06 -1.150046E+06 -5.510968E+04 -2.930395E+06 -4.192555E+03 -8.246019E+03
        52   9 -7.923913E+06 -1.221511E+06 -8.160607E+04 -2.994944E+06  1.335825E+03 -1.138629E+04
        52  10 -7.566838E+06 -1.087739E+06  7.377402E+03 -2.897867E+06  5.757289E-09  4.278253E-09
        52  11 -7.490752E+06 -1.015364E+06  4.010856E+04 -2.833644E+06 -5.037061E-10  2.062766E-10
        52  12 -7.353984E+06 -1.006417E+06  6.962331E+04 -2.840173E+06 -5.868861E-09 -3.714964E-09
        52  13 -7.639125E+06 -1.114887E+06 -1.227476E+04 -2.917235E+06  2.127797E-09  1.437094E-09
        52  14 -7.669387E+06 -1.082706E+06 -7.499279E+03 -2.882026E+06 -3.289982E-09 -1.965147E-09
        52  15 -7.638989E+06 -1.113967E+06 -5.988070E+03 -2.917575E+06 -5.887806E-10  4.523368E-10
        52  16 -7.711407E+06 -1.142035E+06 -3.192740E+04 -2.936600E+06 -3.972089E-09 -1.203764E-09
        52  17 -7.847991E+06 -1.150046E+06 -5.510985E+04 -2.930395E+06  3.756076E-09  3.738346E-09
        52  18 -7.923913E+06 -1.221511E+06 -8.160631E+04 -2.994944E+06  6.745704E-09  3.273168E-09
        52  19 -7.566838E+06 -1.087739E+06  7.377477E+03 -2.897867E+06  5.320565E+03  3.310737E+03
        52  20 -7.490752E+06 -1.015364E+06  4.010864E+04 -2.833644E+06 -1.329315E+02  6.628955E+03
        52  21 -7.353984E+06 -1.006417E+06  6.962355E+04 -2.840173E+06 -5.539584E+03  9.813766E+03
        52  22 -7.639125E+06 -1.114887E+06 -1.227462E+04 -2.917235E+06  7.545056E+03  4.141797E+03
        52  23 -7.669387E+06 -1.082706E+06 -7.499167E+03 -2.882026E+06  2.030159E+03  7.437617E+03
        52  24 -7.638989E+06 -1.113967E+06 -5.987838E+03 -2.917575E+06 -3.437166E+03  1.060023E+04
        52  25 -7.711407E+06 -1.142035E+06 -3.192717E+04 -2.936600E+06  9.769258E+03  4.972750E+03
        52  26 -7.847991E+06 -1.150046E+06 -5.510968E+04 -2.930395E+06  4.192555E+03  8.246019E+03
        52  27 -7.923913E+06 -1.221511E+06 -8.160607E+04 -2.994944E+06 -1.335825E+03  1.138629E+04
        53   1 -7.206938E+06 -9.485357E+05  1.100299E+05 -2.798017E+06  7.452094E+03 -1.206957E+04
        53   2 -7.141895E+06 -8.870029E+05  1.323814E+05 -2.742319E+06  1.263532E+04 -1.491487E+04
        53   3 -7.024348E+06 -8.802402E+05  1.516805E+05 -2.747266E+06  1.766305E+04 -1.732736E+04
        53   4 -7.640837E+06 -1.112009E+06 -5.974503E+03 -2.915359E+06  5.390400E+03 -1.284154E+04
        53   5 -7.667166E+06 -1.085201E+06 -7.616193E+03 -2.884815E+06  1.077211E+04 -1.561394E+04
        53   6 -7.641039E+06 -1.113209E+06 -1.247095E+04 -2.914923E+06  1.599764E+04 -1.795356E+04
        53   7 -8.074554E+06 -1.275471E+06 -1.219958E+05 -3.032625E+06  3.330301E+03 -1.361291E+04
        53   8 -8.192168E+06 -1.283383E+06 -1.476382E+05 -3.027199E+06  8.910640E+03 -1.631237E+04
        53   9 -8.257357E+06 -1.346156E+06 -1.766557E+05 -3.082427E+06  1.433407E+04 -1.857906E+04
        53  10 -7.206938E+06 -9.485358E+05  1.100295E+05 -2.798017E+06 -5.694143E-10 -1.527128E-09
        53  11 -7.141895E+06 -8.870032E+05  1.323807E+05 -2.742319E+06 -2.887689E-10 -5.626433E-10
        53  12 -7.024348E+06 -8.802406E+05  1.516793E+05 -2.747266E+06 -9.632843E-10 -3.369193E-09
        53  13 -7.640837E+06 -1.112009E+06 -5.974866E+03 -2.915359E+06  9.631261E-11  2.675540E-10
        53  14 -7.667166E+06 -1.085202E+06 -7.616867E+03 -2.884814E+06 -5.094673E-09 -2.959809E-09
        53  15 -7.641039E+06 -1.113210E+06 -1.247204E+04 -2.914923E+06 -1.929729E-09 -2.069694E-09
        53  16 -8.074554E+06 -1.275472E+06 -1.219962E+05 -3.032625E+06 -1.375248E-09 -2.385140E-10
        53  17 -8.192168E+06 -1.283384E+06 -1.476389E+05 -3.027199E+06 -2.558820E-09 -1.702604E-09
        53  18 -8.257357E+06 -1.346156E+06 -1.766567E+05 -3.082427E+06 -4.572554E-09 -2.937776E-09
        53  19 -7.206938E+06 -9.485357E+05  1.100299E+05 -2.798017E+06 -7.452094E+03  1.206957E+04
        53  20 -7.141895E+06 -8.870029E+05  1.323814E+05 -2.742319E+06 -1.263532E+04  1.491487E+04
        53  21 -7.024348E+06 -8.802402E+05  1.516805E+05 -2.747266E+06 -1.766305E+04  1.732736E+04
        53  22 -7.640837E+06 -1.112009E+06 -5.974503E+03 -2.915359E+06 -5.390400E+03  1.284154E+04
        53  23 -7.667166E+06 -1.085201E+06 -7.616193E+03 -2.884815E+06 -1.077211E+04  1.561394E+04
        53  24 -7.641039E+06 -1.113209E+06 -1.247095E+04 -2.914923E+06 -1.599764E+04  1.795356E+04
        53  25 -8.074554E+06 -1.275471E+06 -1.219958E+05 -3.032625E+06 -3.330301E+03  1.361291E+04
        53  26 -8.192168E+06 -1.283383E+06 -1.476382E+05 -3.027199E+06 -8.910640E+03  1.631237E+04
        53  27 -8.257357E+06 -1.346156E+06 -1.766557E+05 -3.082427E+06 -1.433407E+04  1.857906E+04
        54   1 -6.910984E+06 -8.322283E+05  1.799160E+05 -2.713750E+06  2.070134E+04 -1.853388E+04
        54   2 -6.865304E+06 -7.866467E+05  1.847076E+05 -2.672930E+06  3.554657E+04 -1.646975E+04
        54   3 -6.788510E+06 -7.916180E+05  1.757702E+05 -2.671202E+06  5.010368E+04 -1.361897E+04
        54   4 -7.645254E+06 -1.108135E+06 -1.587507E+04 -2.911709E+06  1.907188E+04 -1.914764E+04
        54   5 -7.661594E+06 -1.088229E+06 -2.770822E+04 -2.890149E+06  3.426633E+04 -1.695393E+04
        54   6 -7.646903E+06 -1.118961E+06 -5.356382E+04 -2.907686E+06  4.917100E+04 -1.397375E+04
        54   7 -8.378994E+06 -1.384011E+06 -2.117130E+05 -3.109453E+06  1.744455E+04 -1.976060E+04
        54   8 -8.457264E+06 -1.389772E+06 -2.401798E+05 -3.107113E+06  3.298789E+04 -1.743744E+04
        54   9 -8.504577E+06 -1.446257E+06 -2.829635E+05 -3.143870E+06  4.823971E+04 -1.432801E+04
        54  10 -6.910985E+06 -8.322288E+05  1.799146E+05 -2.713750E+06 -2.264086E-09 -1.751924E-09
        54  11 -6.865305E+06 -7.866473E+05  1.847047E+05 -2.672929E+06 -2.956110E-09  9.534096E-10
        54  12 -6.788513E+06 -7.916189E+05  1.757651E+05 -2.671201E+06  3.105181E-09  1.366675E-09
        54  13 -7.645254E+06 -1.108136E+06 -1.587645E+04 -2.911708E+06 -1.307919E-09 -8.176973E-10
        54  14 -7.661595E+06 -1.088229E+06 -2.771098E+04 -2.890149E+06  7.469824E-10 -4.771592E-10
        54  15 -7.646906E+06 -1.118962E+06 -5.356876E+04 -2.907685E+06 -5.549447E-10  2.271958E-10
        54  16 -8.378994E+06 -1.384011E+06 -2.117143E+05 -3.109453E+06 -5.451735E-10 -1.530929E-09
        54  17 -8.457265E+06 -1.389772E+06 -2.401825E+05 -3.107112E+06  3.535775E-09  7.377689E-10
        54  18 -8.504580E+06 -1.446258E+06 -2.829683E+05 -3.143869E+06 -1.271004E-09 -1.011261E-09
        54  19 -6.910984E+06 -8.322283E+05  1.799160E+05 -2.713750E+06 -2.070134E+04  1.853388E+04
        54  20 -6.865304E+06 -7.866467E+05  1.847076E+05 -2.672930E+06 -3.554657E+04  1.646975E+04
        54  21 -6.788510E+06 -7.916180E+05  1.757702E+05 -2.671202E+06 -5.010368E+04  1.361897E+04
        54  22 -7.645254E+06 -1.108135E+06 -1.587507E+04 -2.911709E+06 -1.907188E+04  1.914764E+04
        54  23 -7.661594E+06 -1.088229E+06 -2.770822E+04 -2.890149E+06 -3.426633E+04  1.695393E+04
        54  24 -7.646903E+06 -1.118961E+06 -5.356382E+04 -2.907686E+06 -4.917100E+04  1.397375E+04
        54  25 -8.378994E+06 -1.384011E+06 -2.117130E+05 -3.109453E+06 -1.744455E+04  1.976060E+04
        54  26 -8.457264E+06 -1.389772E+06 -2.401798E+05 -3.107113E+06 -3.298789E+04  1.743744E+04
        54  27 -8.504577E+06 -1.446257E+06 -2.829635E+05 -3.143870E+06 -4.823971E+04  1.432801E+04
        55   1 -6.719665E+06 -7.582054E+05  1.791324E+05 -2.667854E+06  6.080741E+04 -1.120566E+04
        55   2 -6.696084E+06 -7.132512E+05  1.354258E+05 -2.632193E+06  1.220933E+05  1.025834E+04
        55   3 -6.710034E+06 -8.066328E+05  1.287307E+04 -2.583387E+06  1.824173E+05  3.427128E+04
        55   4 -7.656715E+06 -1.100398E+06 -6.855313E+04 -2.910455E+06  5.948345E+04 -1.170733E+04
        55   5 -7.645102E+06 -1.080036E+06 -1.191132E+05 -2.898635E+06  1.218665E+05  1.016701E+04
        55   6 -7.671320E+06 -1.198357E+06 -2.494919E+05 -2.873654E+06  1.832854E+05  3.458668E+04
        55   7 -8.592907E+06 -1.442552E+06 -3.163144E+05 -3.152726E+06  5.816166E+04 -1.220825E+04
        55   8 -8.593236E+06 -1.446756E+06 -3.737319E+05 -3.164698E+06  1.216400E+05  1.007578E+04
        55   9 -8.631695E+06 -1.589983E+06 -5.119406E+05 -3.163494E+06  1.841519E+05  3.490133E+04
        55  10 -6.719669E+06 -7.582065E+05  1.791252E+05 -2.667853E+06  1.314979E-09  1.277208E-09
        55  11 -6.696100E+06 -7.132553E+05  1.353973E+05 -2.632194E+06 -1.158747E-09  1.350256E-09
        55  12 -6.710070E+06 -8.066431E+05  1.280756E+04 -2.583392E+06 -3.405818E-09 -7.213885E-10
        55  13 -7.656719E+06 -1.100399E+06 -6.856010E+04 -2.910454E+06  6.377762E-10  9.061323E-10
        55  14 -7.645118E+06 -1.080041E+06 -1.191417E+05 -2.898636E+06  3.614967E-09  1.940871E-09
        55  15 -7.671357E+06 -1.198367E+06 -2.495581E+05 -2.873659E+06 -2.770028E-09  2.574964E-09
        55  16 -8.592911E+06 -1.442553E+06 -3.163211E+05 -3.152726E+06 -1.716887E-09 -1.242583E-11
        55  17 -8.593252E+06 -1.446760E+06 -3.737603E+05 -3.164699E+06  3.767272E-09  1.956996E-09
        55  18 -8.631732E+06 -1.589994E+06 -5.120076E+05 -3.163499E+06 -2.132586E-09 -1.384760E-09
        55  19 -6.719665E+06 -7.582054E+05  1.791324E+05 -2.667854E+06 -6.080741E+04  1.120566E+04
        55  20 -6.696084E+06 -7.132512E+05  1.354258E+05 -2.632193E+06 -1.220933E+05 -1.025834E+04
        55  21 -6.710034E+06 -8.066328E+05  1.287307E+04 -2.583387E+06 -1.824173E+05 -3.427128E+04
        55  22 -7.656715E+06 -1.100398E+06 -6.855313E+04 -2.910455E+06 -5.948345E+04  1.170733E+04
        55  23 -7.645102E+06 -1.080036E+06 -1.191132E+05 -2.898635E+06 -1.218665E+05 -1.016701E+04
        55  24 -7.671320E+06 -1.198357E+06 -2.494919E+05 -2.873654E+06 -1.832854E+05 -3.458668E+04
        55  25 -8.592907E+06 -1.442552E+06 -3.163144E+05 -3.152726E+06 -5.816166E+04  1.220825E+04
        55  26 -8.593236E+06 -1.446756E+06 -3.737319E+05 -3.164698E+06 -1.216400E+05 -1.007578E+04
        55  27 -8.631695E+06 -1.589983E+06 -5.119406E+05 -3.163494E+06 -1.841519E+05 -3.490133E+04
        56   1 -6.643892E+06 -7.706878E+05 -4.253250E+04 -2.760990E+06  2.327403E+05  4.969147E+04
        56   2 -6.628409E+06 -5.355253E+05 -2.460637E+05 -2.594095E+06  4.985884E+05  1.516266E+05
        56   3 -7.075022E+06 -1.395971E+06 -9.523979E+05 -2.127449E+06  7.559107E+05  2.760150E+05
        56   4 -7.715458E+06 -1.065885E+06 -3.066129E+05 -2.940871E+06  2.276757E+05  4.781720E+04
        56   5 -7.549105E+06 -9.604761E+05 -5.060539E+05 -2.922804E+06  5.035615E+05  1.534378E+05
        56   6 -7.847614E+06 -1.953847E+06 -1.216915E+06 -2.604731E+06  7.709801E+05  2.813506E+05
        56   7 -8.785888E+06 -1.361112E+06 -5.707724E+05 -3.120528E+06  2.226205E+05  4.594427E+04
        56   8 -8.468949E+06 -1.385247E+06 -7.661238E+05 -3.251023E+06  5.085258E+05  1.552440E+05
        56   9 -8.619438E+06 -2.511043E+06 -1.481471E+06 -3.081311E+06  7.860282E+05  2.866616E+05
        56  10 -6.643951E+06 -7.707053E+05 -4.264024E+04 -2.760999E+06  6.803635E-10 -9.934679E-10
        56  11 -6.628685E+06 -5.356180E+05 -2.465805E+05 -2.594156E+06 -8.368606E-10 -1.335289E-09
        56  12 -7.075662E+06 -1.396209E+06 -9.536301E+05 -2.127618E+06 -1.719493E-10 -2.296105E-09
        56  13 -7.715515E+06 -1.065901E+06 -3.067160E+05 -2.940880E+06  7.299712E-10  2.836962E-09
        56  14 -7.549387E+06 -9.605710E+05 -5.065821E+05 -2.922866E+06 -3.177281E-09  5.816807E-09
        56  15 -7.848281E+06 -1.954096E+06 -1.218199E+06 -2.604907E+06  1.452544E-09 -2.722847E-10
        56  16 -8.785942E+06 -1.361128E+06 -5.708710E+05 -3.120536E+06 -4.176527E-09 -4.582135E-09
        56  17 -8.469237E+06 -1.385344E+06 -7.666635E+05 -3.251087E+06 -3.877825E-09  2.469480E-09
        56  18 -8.620133E+06 -2.511301E+06 -1.482808E+06 -3.081494E+06  3.037032E-09  1.201173E-10
        56  19 -6.643892E+06 -7.706878E+05 -4.253250E+04 -2.760990E+06 -2.327403E+05 -4.969147E+04
        56  20 -6.628409E+06 -5.355253E+05 -2.460637E+05 -2.594095E+06 -4.985884E+05 -1.516266E+05
        56  21 -7.075022E+06 -1.395971E+06 -9.523979E+05 -2.127449E+06 -7.559107E+05 -2.760150E+05
        56  22 -7.715458E+06 -1.065885E+06 -3.066129E+05 -2.940871E+06 -2.276757E+05 -4.781720E+04
        56  23 -7.549105E+06 -9.604761E+05 -5.060539E+05 -2.922804E+06 -5.035615E+05 -1.534378E+05
        56  24 -7.847614E+06 -1.953847E+06 -1.216915E+06 -2.604731E+06 -7.709801E+05 -2.813506E+05
        56  25 -8.785888E+06 -1.361112E+06 -5.707724E+05 -3.120528E+06 -2.226205E+05 -4.594427E+04
        56  26 -8.468949E+06 -1.385247E+06 -7.661238E+05 -3.251023E+06 -5.085258E+05 -1.552440E+05
        56  27 -8.619438E+06 -2.511043E+06 -1.481471E+06 -3.081311E+06 -7.860282E+05 -2.866616E+05
        57   1 -1.340209E+06 -1.995478E+05 -1.587011E+05 -2.769591E+03  1.001539E+05  1.411323E+04
        57   2 -1.284235E+06 -3.389139E+05 -2.296465E+05 -3.264477E+03  7.310755E+04  4.160052E+04
        57   3 -1.179349E+06 -3.064792E+05 -2.395653E+05 -6.324556E+04  4.618297E+04  3.925481E+04
        57   4  2.463337E+04  1.405515E+05  1.781871E+05 -4.261999E+04  1.217345E+05  1.419907E+04
        57   5 -1.065135E+03 -2.068318E+04  7.780343E+04 -1.257635E+04  7.959822E+04  4.161703E+04
        57   6  2.466559E+04 -7.688739E+03  4.883308E+04 -4.200888E+04  3.758844E+04  3.922663E+04
        57   7  1.391177E+06  4.805187E+05  5.149401E+05 -8.256006E+04  1.433622E+05  1.428205E+04
        57   8  1.283616E+06  2.974285E+05  3.851371E+05 -2.190893E+04  8.610213E+04  4.163334E+04
        57   9  1.230011E+06  2.909981E+05  3.371294E+05 -2.073168E+04  2.897723E+04  3.919789E+04
        57  10 -1.340220E+06 -1.995507E+05 -1.587203E+05 -2.770730E+03  4.745412E-10  1.354840E-09
        57  11 -1.284242E+06 -3.389172E+05 -2.296598E+05 -3.266928E+03  1.953995E-09 -1.793446E-09
        57  12 -1.179352E+06 -3.064815E+05 -2.395722E+05 -6.324703E+04  5.282275E-10 -1.045867E-10
        57  13  2.461741E+04  1.405473E+05  1.781589E+05 -4.262138E+04  1.222081E-09  2.478827E-10
        57  14 -1.072403E+03 -2.068674E+04  7.778827E+04 -1.257901E+04  6.002928E-10 -5.021534E-09
        57  15  2.466366E+04 -7.690771E+03  4.882753E+04 -4.201007E+04 -1.320635E-10  1.642994E-10
        57  16  1.391155E+06  4.805130E+05  5.149012E+05 -8.256171E+04  3.947163E-11 -3.904804E-10
        57  17  1.283608E+06  2.974246E+05  3.851199E+05 -2.191182E+04 -4.013733E-09 -7.289425E-10
        57  18  1.230010E+06  2.909962E+05  3.371249E+05 -2.073259E+04  2.613450E-10 -9.801754E-10
        57  19 -1.340209E+06 -1.995478E+05 -1.587011E+05 -2.769591E+03 -1.001539E+05 -1.411323E+04
        57  20 -1.284235E+06 -3.389139E+05 -2.296465E+05 -3.264477E+03 -7.310755E+04 -4.160052E+04
        57  21 -1.179349E+06 -3.064792E+05 -2.395653E+05 -6.324556E+04 -4.618297E+04 -3.925481E+04
        57  22  2.463337E+04  1.405515E+05  1.781871E+05 -4.261999E+04 -1.217345E+05 -1.419907E+04
        57  23 -1.065135E+03 -2.068318E+04  7.780343E+04 -1.257635E+04 -7.959822E+04 -4.161703E+04
        57  24  2.466559E+04 -7.688739E+03  4.883308E+04 -4.200888E+04 -3.758844E+04 -3.922663E+04
        57  25  1.391177E+06  4.805187E+05  5.149401E+05 -8.256006E+04 -1.433622E+05 -1.428205E+04
        57  26  1.283616E+06  2.974285E+05  3.851371E+05 -2.190893E+04 -8.610213E+04 -4.163334E+04
        57  27  1.230011E+06  2.909981E+05  3.371294E+05 -2.073168E+04 -2.897723E+04 -3.919789E+04
        58   1 -1.081550E+06 -2.577444E+05 -2.236525E+05 -4.011715E+04  2.989755E+04  3.308747E+04
        58   2 -1.005281E+06 -2.546508E+05 -2.236345E+05 -1.282078E+04  2.070150E+04  3.210395E+04
        58   3 -9.218172E+05 -2.333973E+05 -2.127774E+05 -4.514164E+04  1.150323E+04  2.890066E+04
        58   4  1.494573E+04  1.436924E+04  3.980733E+04 -4.224270E+04  3.000836E+04  3.308369E+04
        58   5  1.127208E+04 -2.465048E+03  2.013270E+04 -1.242007E+04  1.967877E+04  3.209853E+04
        58   6  1.497589E+04 -9.581156E+02  1.207156E+04 -4.220832E+04  9.348145E+03  2.889517E+04
        58   7  1.112543E+06  2.863954E+05  3.031817E+05 -4.437267E+04  3.011933E+04  3.307991E+04
        58   8  1.028773E+06  2.496457E+05  2.638267E+05 -1.201914E+04  1.865434E+04  3.209312E+04
        58   9  9.525734E+05  2.314173E+05  2.368583E+05 -3.927076E+04  7.189811E+03  2.888966E+04
        58  10 -1.081551E+06 -2.577458E+05 -2.236563E+05 -4.011795E+04 -6.373486E-10 -9.991292E-10
        58  11 -1.005282E+06 -2.546521E+05 -2.236373E+05 -1.282131E+04  1.991765E-09  2.005876E-09
        58  12 -9.218176E+05 -2.333983E+05 -2.127792E+05 -4.514191E+04  8.466803E-10 -9.054123E-10
        58  13  1.494447E+04  1.436782E+04  3.980358E+04 -4.224350E+04 -3.929179E-10 -4.186019E-10
        58  14  1.127139E+04 -2.466259E+03  2.013004E+04 -1.242058E+04 -3.489954E-09 -2.509399E-10
        58  15  1.497558E+04 -9.590356E+02  1.206983E+04 -4.220853E+04  9.730743E-10 -1.157666E-09
        58  16  1.112542E+06  2.863939E+05  3.031780E+05 -4.437347E+04  3.483104E-10  7.862449E-10
        58  17  1.028772E+06  2.496445E+05  2.638241E+05 -1.201962E+04  8.081466E-10 -2.993703E-09
        58  18  9.525732E+05  2.314164E+05  2.368566E+05 -3.927093E+04  1.416606E-09  3.505159E-10
        58  19 -1.081550E+06 -2.577444E+05 -2.236525E+05 -4.011715E+04 -2.989755E+04 -3.308747E+04
        58  20 -1.005281E+06 -2.546508E+05 -2.236345E+05 -1.282078E+04 -2.070150E+04 -3.210395E+04
        58  21 -9.218172E+05 -2.333973E+05 -2.127774E+05 -4.514164E+04 -1.150323E+04 -2.890066E+04
        58  22  1.494573E+04  1.436924E+04  3.980733E+04 -4.224270E+04 -3.000836E+04 -3.308369E+04
        58  23  1.127208E+04 -2.465048E+03  2.013270E+04 -1.242007E+04 -1.967877E+04 -3.209853E+04
        58  24  1.497589E+04 -9.581156E+02  1.207156E+04 -4.220832E+04 -9.348145E+03 -2.889517E+04
        58  25  1.112543E+06  2.863954E+05  3.031817E+05 -4.437267E+04 -3.011933E+04 -3.307991E+04
        58  26  1.028773E+06  2.496457E+05  2.638267E+05 -1.201914E+04 -1.865434E+04 -3.209312E+04
        58  27  9.525734E+05  2.314173E+05  2.368583E+05 -3.927076E+04 -7.189811E+03 -2.888966E+04
        59   1 -8.155749E+05 -2.043939E+05 -1.892623E+05 -4.251669E+04  8.949671E+03  2.668460E+04
        59   2 -7.365411E+05 -1.862894E+05 -1.746623E+05 -1.267782E+04  6.495916E+03  2.359594E+04
        59   3 -6.559924E+05 -1.662851E+05 -1.578373E+05 -4.246384E+04  4.036799E+03  2.034318E+04
        59   4  1.372767E+04  1.281822E+03  9.410110E+03 -4.222123E+04  7.443617E+03  2.668085E+04
        59   5  1.297805E+04 -3.755466E+02  5.057896E+03 -1.241043E+04  4.904083E+03  2.359326E+04
        59   6  1.375010E+04 -1.192582E+02  2.988291E+03 -4.222009E+04  2.359497E+03  2.034170E+04
        59   7  8.436609E+05  2.069076E+05  2.080338E+05 -4.192550E+04  5.935552E+03  2.667709E+04
        59   8  7.630121E+05  1.854975E+05  1.847383E+05 -1.214279E+04  3.310331E+03  2.359059E+04
        59   9  6.839036E+05  1.660140E+05  1.637820E+05 -4.197606E+04  6.803907E+02  2.034021E+04
        59  10 -8.155752E+05 -2.043947E+05 -1.892638E+05 -4.251689E+04 -8.018591E-10 -1.572169E-10
        59  11 -7.365413E+05 -1.862900E+05 -1.746634E+05 -1.267794E+04  2.268345E-09 -1.595022E-10
        59  12 -6.559926E+05 -1.662856E+05 -1.578381E+05 -4.246391E+04 -2.265657E-09  2.439505E-10
        59  13  1.372742E+04  1.281043E+03  9.408668E+03 -4.222139E+04  3.501333E-09 -8.345748E-10
        59  14  1.297788E+04 -3.761508E+02  5.056805E+03 -1.241053E+04 -7.225811E-11 -6.982251E-10
        59  15  1.374999E+04 -1.197040E+02  2.987502E+03 -4.222013E+04  2.897769E-09  6.180291E-10
        59  16  8.436607E+05  2.069069E+05  2.080324E+05 -4.192563E+04  6.784992E-10 -3.606414E-10
        59  17  7.630120E+05  1.854969E+05  1.847372E+05 -1.214285E+04 -2.050033E-09 -1.342364E-09
        59  18  6.839035E+05  1.660135E+05  1.637812E+05 -4.197607E+04  2.434270E-09  1.752470E-10
        59  19 -8.155749E+05 -2.043939E+05 -1.892623E+05 -4.251669E+04 -8.949671E+03 -2.668460E+04
        59  20 -7.365411E+05 -1.862894E+05 -1.746623E+05 -1.267782E+04 -6.495916E+03 -2.359594E+04
        59  21 -6.559924E+05 -1.662851E+05 -1.578373E+05 -4.246384E+04 -4.036799E+03 -2.034318E+04
        59  22  1.372767E+04  1.281822E+03  9.410110E+03 -4.222123E+04 -7.443617E+03 -2.668085E+04
        59  23  1.297805E+04 -3.755466E+02  5.057896E+03 -1.241043E+04 -4.904083E+03 -2.359326E+04
        59  24  1.375010E+04 -1.192582E+02  2.988291E+03 -4.222009E+04 -2.359497E+03 -2.034170E+04
        59  25  8.436609E+05  2.069076E+05  2.080338E+05 -4.192550E+04 -5.935552E+03 -2.667709E+04
        59  26  7.630121E+05  1.854975E+05  1.847383E+05 -1.214279E+04 -3.310331E+03 -2.359059E+04
        59  27  6.839036E+05  1.660140E+05  1.637820E+05 -4.197606E+04 -6.803907E+02 -2.034021E+04
        60   1 -5.487573E+05 -1.393346E+05 -1.323095E+05 -4.215219E+04  3.513867E+03  1.842428E+04
        60   2 -4.691558E+05 -1.197305E+05 -1.144653E+05 -1.228309E+04  2.914000E+03  1.518178E+04
        60   3 -3.892089E+05 -9.988051E+04 -9.612716E+04 -4.200472E+04  2.310712E+03  1.192805E+04
        60   4  1.352464E+04  7.245408E+01  2.260833E+03 -4.221315E+04  1.884609E+03  1.842349E+04
        60   5  1.336157E+04 -6.406702E+01  1.215383E+03 -1.241921E+04  1.278484E+03  1.518176E+04
        60   6  1.353907E+04  4.676346E+01  6.683438E+02 -4.221314E+04  6.690156E+02  1.192881E+04
        60   7  5.760965E+05  1.394565E+05  1.368088E+05 -4.227413E+04  2.538801E+02  1.842270E+04
        60   8  4.960923E+05  1.195854E+05  1.168796E+05 -1.255540E+04 -3.582981E+02  1.518173E+04
        60   9  4.164356E+05  9.996223E+04  9.745233E+04 -4.242167E+04 -9.737421E+02  1.192957E+04
        60  10 -5.487574E+05 -1.393349E+05 -1.323101E+05 -4.215224E+04 -1.729890E-09  5.161650E-10
        60  11 -4.691559E+05 -1.197307E+05 -1.144658E+05 -1.228312E+04 -2.259210E-10  2.007505E-10
        60  12 -3.892090E+05 -9.988066E+04 -9.612744E+04 -4.200475E+04  2.155304E-09 -9.196226E-11
        60  13  1.352454E+04  7.208864E+01  2.260188E+03 -4.221317E+04  1.042789E-09  5.438315E-10
        60  14  1.336151E+04 -6.431496E+01  1.214947E+03 -1.241922E+04 -1.021004E-09 -6.923813E-10
        60  15  1.353903E+04  4.661054E+01  6.680756E+02 -4.221315E+04 -4.477897E-09 -1.193294E-09
        60  16  5.760964E+05  1.394562E+05  1.368082E+05 -4.227414E+04  8.550156E-10  5.812521E-10
        60  17  4.960923E+05  1.195852E+05  1.168792E+05 -1.255540E+04  1.379534E-09 -2.085098E-10
        60  18  4.164356E+05  9.996207E+04  9.745206E+04 -4.242166E+04  2.716086E-10 -1.381711E-09
        60  19 -5.487573E+05 -1.393346E+05 -1.323095E+05 -4.215219E+04 -3.513867E+03 -1.842428E+04
        60  20 -4.691558E+05 -1.197305E+05 -1.144653E+05 -1.228309E+04 -2.914000E+03 -1.518178E+04
        60  21 -3.892089E+05 -9.988051E+04 -9.612716E+04 -4.200472E+04 -2.310712E+03 -1.192805E+04
        60  22  1.352464E+04  7.245408E+01  2.260833E+03 -4.221315E+04 -1.884609E+03 -1.842349E+04
        60  23  1.336157E+04 -6.406702E+01  1.215383E+03 -1.241921E+04 -1.278484E+03 -1.518176E+04
        60  24  1.353907E+04  4.676346E+01  6.683438E+02 -4.221314E+04 -6.690156E+02 -1.192881E+04
        60  25  5.760965E+05  1.394565E+05  1.368088E+05 -4.227413E+04 -2.538801E+02 -1.842270E+04
        60  26  4.960923E+05  1.195854E+05  1.168796E+05 -1.255540E+04  3.582981E+02 -1.518173E+04
        60  27  4.164356E+05  9.996223E+04  9.745233E+04 -4.242167E+04  9.737421E+02 -1.192957E+04
        61   1 -2.818335E+05 -7.313042E+04 -7.009769E+04 -4.203415E+04  2.204964E+03  1.003145E+04
        61   2 -2.020348E+05 -5.342768E+04 -5.154612E+04 -1.227718E+04  2.140873E+03  6.778802E+03
        61   3 -1.222927E+05 -3.364164E+04 -3.295246E+04 -4.209110E+04  2.075288E+03  3.531678E+03
        61   4  1.347063E+04  4.939478E+01  4.481951E+02 -4.220908E+04  5.648775E+02  1.003260E+04
        61   5  1.350472E+04  1.857714E+01  1.199934E+02 -1.242427E+04  5.034460E+02  6.780287E+03
        61   6  1.347707E+04  7.132654E+01 -1.673280E+02 -4.220907E+04  4.405281E+02  3.533517E+03
        61   7  3.088547E+05  7.322290E+04  7.098795E+04 -4.238408E+04 -1.075986E+03  1.003376E+04
        61   8  2.290868E+05  5.346146E+04  5.178283E+04 -1.257141E+04 -1.134548E+03  6.781773E+03
        61   9  1.492637E+05  3.378295E+04  3.261649E+04 -4.232707E+04 -1.194588E+03  3.535356E+03
        61  10 -2.818335E+05 -7.313053E+04 -7.009789E+04 -4.203417E+04  7.220470E-09 -1.477999E-10
        61  11 -2.020348E+05 -5.342773E+04 -5.154622E+04 -1.227719E+04  1.294234E-09  4.176440E-10
        61  12 -1.222927E+05 -3.364166E+04 -3.295249E+04 -4.209110E+04 -6.549876E-09  7.405526E-10
        61  13  1.347060E+04  4.928661E+01  4.480054E+02 -4.220908E+04  1.927763E-09  7.241407E-10
        61  14  1.350471E+04  1.852770E+01  1.199066E+02 -1.242428E+04  1.153498E-10  2.024699E-09
        61  15  1.347707E+04  7.131308E+01 -1.673519E+02 -4.220907E+04  9.338457E-10 -9.366670E-10
        61  16  3.088547E+05  7.322280E+04  7.098776E+04 -4.238407E+04 -6.653542E-09  1.329544E-10
        61  17  2.290868E+05  5.346141E+04  5.178274E+04 -1.257141E+04 -1.658662E-09  2.264514E-09
        61  18  1.492637E+05  3.378293E+04  3.261647E+04 -4.232707E+04  7.957356E-09  6.311753E-10
        61  19 -2.818335E+05 -7.313042E+04 -7.009769E+04 -4.203415E+04 -2.204964E+03 -1.003145E+04
        61  20 -2.020348E+05 -5.342768E+04 -5.154612E+04 -1.227718E+04 -2.140873E+03 -6.778802E+03
        61  21 -1.222927E+05 -3.364164E+04 -3.295246E+04 -4.209110E+04 -2.075288E+03 -3.531678E+03
        61  22  1.347063E+04  4.939478E+01  4.481951E+02 -4.220908E+04 -5.648775E+02 -1.003260E+04
        61  23  1.350472E+04  1.857714E+01  1.199934E+02 -1.242427E+04 -5.034460E+02 -6.780287E+03
        61  24  1.347707E+04  7.132654E+01 -1.673280E+02 -4.220907E+04 -4.405281E+02 -3.533517E+03
        61  25  3.088547E+05  7.322290E+04  7.098795E+04 -4.238408E+04  1.075986E+03 -1.003376E+04
        61  26  2.290868E+05  5.346146E+04  5.178283E+04 -1.257141E+04  1.134548E+03 -6.781773E+03
        61  27  1.492637E+05  3.378295E+04  3.261649E+04 -4.232707E+04  1.194588E+03 -3.535356E+03
        62   1 -1.487508E+04 -6.868384E+03 -6.868199E+03 -4.223044E+04  2.140557E+03  1.626151E+03
        62   2  6.502618E+04  1.282626E+04  1.161475E+04 -1.246420E+04  2.455708E+03 -1.624232E+03
        62   3  1.446874E+05  3.233234E+04  2.981038E+04 -4.226385E+04  2.771347E+03 -4.790424E+03
        62   4  1.343917E+04  1.032084E+02 -3.240594E+02 -4.220822E+04  4.812889E+02  1.628111E+03
        62   5  1.356563E+04  6.807628E+01 -7.177760E+02 -1.242527E+04  8.387316E+02 -1.622415E+03
        62   6  1.343764E+04 -1.628565E+02 -1.428170E+03 -4.220852E+04  1.196622E+03 -4.788724E+03
        62   7  4.175417E+04  7.074747E+03  6.220037E+03 -4.218599E+04 -1.178055E+03  1.630071E+03
        62   8 -3.789248E+04 -1.269030E+04 -1.305048E+04 -1.238634E+04 -7.781115E+02 -1.620598E+03
        62   9 -1.177964E+05 -3.265929E+04 -3.266792E+04 -4.215319E+04 -3.777713E+02 -4.787024E+03
        62  10 -1.487509E+04 -6.868389E+03 -6.868213E+03 -4.223045E+04 -2.104259E-10  8.887729E-10
        62  11  6.502617E+04  1.282625E+04  1.161473E+04 -1.246420E+04  1.640357E-10 -1.850262E-09
        62  12  1.446874E+05  3.233231E+04  2.981032E+04 -4.226384E+04 -1.656143E-09  1.143272E-09
        62  13  1.343917E+04  1.032055E+02 -3.240648E+02 -4.220822E+04 -4.598049E-09 -1.454297E-09
        62  14  1.356563E+04  6.807327E+01 -7.177823E+02 -1.242527E+04 -3.081990E-09 -3.191484E-09
        62  15  1.343763E+04 -1.628815E+02 -1.428216E+03 -4.220851E+04  2.431944E-09  1.482235E-09
        62  16  4.175417E+04  7.074743E+03  6.220030E+03 -4.218598E+04  3.970857E-09  2.213038E-10
        62  17 -3.789248E+04 -1.269030E+04 -1.305048E+04 -1.238634E+04  1.390091E-09 -2.975018E-09
        62  18 -1.177964E+05 -3.265931E+04 -3.266796E+04 -4.215319E+04  4.156444E-09  4.915366E-10
        62  19 -1.487508E+04 -6.868384E+03 -6.868199E+03 -4.223044E+04 -2.140557E+03 -1.626151E+03
        62  20  6.502618E+04  1.282626E+04  1.161475E+04 -1.246420E+04 -2.455708E+03  1.624232E+03
        62  21  1.446874E+05  3.233234E+04  2.981038E+04 -4.226385E+04 -2.771347E+03  4.790424E+03
        62  22  1.343917E+04  1.032084E+02 -3.240594E+02 -4.220822E+04 -4.812889E+02 -1.628111E+03
        62  23  1.356563E+04  6.807628E+01 -7.177760E+02 -1.242527E+04 -8.387316E+02  1.622415E+03
        62  24  1.343764E+04 -1.628565E+02 -1.428170E+03 -4.220852E+04 -1.196622E+03  4.788724E+03
        62  25  4.175417E+04  7.074747E+03  6.220037E+03 -4.218599E+04  1.178055E+03 -1.630071E+03
        62  26 -3.789248E+04 -1.269030E+04 -1.305048E+04 -1.238634E+04  7.781115E+02  1.620598E+03
        62  27 -1.177964E+05 -3.265929E+04 -3.266792E+04 -4.215319E+04  3.777713E+02  4.787024E+03
        63   1  2.520207E+05  5.943324E+04  5.558945E+04 -4.272721E+04  3.387589E+03 -6.843749E+03
        63   2  3.322452E+05  7.929618E+04  7.315395E+04 -1.245963E+04  4.433581E+03 -1.005755E+04
        63   3  4.116598E+05  9.645934E+04  8.935958E+04 -4.173828E+04  5.482547E+03 -1.214083E+04
        63   4  1.327968E+04  2.052532E+02 -1.842159E+03 -4.220372E+04  1.482315E+03 -6.841905E+03
        63   5  1.373259E+04  3.444965E+02 -3.158874E+03 -1.243054E+04  3.097497E+03 -1.005676E+04
        63   6  1.327019E+04 -2.315294E+03 -6.229998E+03 -4.220556E+04  4.715519E+03 -1.214084E+04
        63   7 -2.254091E+05 -5.902688E+04 -5.927781E+04 -4.168042E+04 -4.222294E+02 -6.840064E+03
        63   8 -3.046871E+05 -7.861455E+04 -7.947887E+04 -1.240144E+04  1.762094E+03 -1.005598E+04
        63   9 -3.849742E+05 -1.011015E+05 -1.018308E+05 -4.267251E+04  3.948980E+03 -1.214084E+04
        63  10  2.520206E+05  5.943319E+04  5.558934E+04 -4.272720E+04  4.982969E-10  4.542944E-10
        63  11  3.322452E+05  7.929607E+04  7.315372E+04 -1.245959E+04  1.836697E-09 -2.579480E-10
        63  12  4.116598E+05  9.645917E+04  8.935925E+04 -4.173822E+04  1.602658E-10 -8.294146E-10
        63  13  1.327967E+04  2.052023E+02 -1.842251E+03 -4.220371E+04  8.163876E-10  1.780328E-09
        63  14  1.373255E+04  3.443853E+02 -3.159082E+03 -1.243051E+04  3.338282E-09 -3.022266E-10
        63  15  1.327013E+04 -2.315458E+03 -6.230317E+03 -4.220551E+04  1.503416E-09 -3.973010E-10
        63  16 -2.254092E+05 -5.902693E+04 -5.927790E+04 -4.168042E+04  5.867942E-10  1.904522E-09
        63  17 -3.046872E+05 -7.861466E+04 -7.947906E+04 -1.240143E+04 -2.320548E-09  5.623534E-10
        63  18 -3.849742E+05 -1.011016E+05 -1.018311E+05 -4.267247E+04  7.480813E-10 -5.282435E-10
        63  19  2.520207E+05  5.943324E+04  5.558945E+04 -4.272721E+04 -3.387589E+03  6.843749E+03
        63  20  3.322452E+05  7.929618E+04  7.315395E+04 -1.245963E+04 -4.433581E+03  1.005755E+04
        63  21  4.116598E+05  9.645934E+04  8.935958E+04 -4.173828E+04 -5.482547E+03  1.214083E+04
        63  22  1.327968E+04  2.052532E+02 -1.842159E+03 -4.220372E+04 -1.482315E+03  6.841905E+03
        63  23  1.373259E+04  3.444965E+02 -3.158874E+03 -1.243054E+04 -3.097497E+03  1.005676E+04
        63  24  1.327019E+04 -2.315294E+03 -6.229998E+03 -4.220556E+04 -4.715519E+03  1.214084E+04
        63  25 -2.254091E+05 -5.902688E+04 -5.927781E+04 -4.168042E+04  4.222294E+02  6.840064E+03
        63  26 -3.046871E+05 -7.861455E+04 -7.947887E+04 -1.240144E+04 -1.762094E+03  1.005598E+04
        63  27 -3.849742E+05 -1.011015E+05 -1.018308E+05 -4.267251E+04 -3.948980E+03  1.214084E+04
        64   1  5.178578E+05  1.265674E+05  1.135393E+05 -4.525031E+04  1.108953E+04 -1.617492E+04
        64   2  6.008372E+05  1.481347E+05  1.278277E+05 -1.056872E+04  1.006674E+04 -1.889270E+04
        64   3  6.778724E+05  1.438775E+05  1.364022E+05 -3.507317E+04  9.043281E+03 -6.460614E+03
        64   4  1.182834E+04  1.157711E+03 -7.623533E+03 -4.212466E+04  5.894420E+03 -1.617306E+04
        64   5  1.546049E+04  3.085331E+03 -1.226414E+04 -1.252876E+04  1.250825E+04 -1.889426E+04
        64   6  1.181113E+04 -2.214961E+04 -2.792583E+04 -4.212284E+04  1.912134E+04 -6.459278E+03
        64   7 -4.939666E+05 -1.242705E+05 -1.288043E+05 -3.900152E+04  7.035207E+02 -1.617124E+04
        64   8 -5.696024E+05 -1.419888E+05 -1.523802E+05 -1.448693E+04  1.494746E+04 -1.889583E+04
        64   9 -6.538468E+05 -1.882096E+05 -1.922863E+05 -4.916494E+04  2.918861E+04 -6.458170E+03
        64  10  5.178576E+05  1.265671E+05  1.135386E+05 -4.525017E+04  5.964379E-10 -5.316749E-10
        64  11  6.008370E+05  1.481343E+05  1.278268E+05 -1.056857E+04  1.683603E-09  1.570944E-10
        64  12  6.778723E+05  1.438775E+05  1.364020E+05 -3.507313E+04 -1.214267E-10  2.488660E-10
        64  13  1.182823E+04  1.157421E+03 -7.624090E+03 -4.212458E+04 -2.278053E-09  5.380665E-10
        64  14  1.546022E+04  3.084906E+03 -1.226511E+04 -1.252857E+04  2.165440E-09 -4.942449E-12
        64  15  1.181073E+04 -2.214975E+04 -2.792659E+04 -4.212274E+04  3.267182E-09 -4.015002E-11
        64  16 -4.939667E+05 -1.242708E+05 -1.288048E+05 -3.900151E+04  1.451077E-09 -2.570019E-10
        64  17 -5.696028E+05 -1.419893E+05 -1.523813E+05 -1.448670E+04 -2.162835E-09 -2.065864E-11
        64  18 -6.538477E+05 -1.882099E+05 -1.922880E+05 -4.916479E+04 -2.118255E-09  1.281914E-10
        64  19  5.178578E+05  1.265674E+05  1.135393E+05 -4.525031E+04 -1.108953E+04  1.617492E+04
        64  20  6.008372E+05  1.481347E+05  1.278277E+05 -1.056872E+04 -1.006674E+04  1.889270E+04
        64  21  6.778724E+05  1.438775E+05  1.364022E+05 -3.507317E+04 -9.043281E+03  6.460614E+03
        64  22  1.182834E+04  1.157711E+03 -7.623533E+03 -4.212466E+04 -5.894420E+03  1.617306E+04
        64  23  1.546049E+04  3.085331E+03 -1.226414E+04 -1.252876E+04 -1.250825E+04  1.889426E+04
        64  24  1.181113E+04 -2.214961E+04 -2.792583E+04 -4.212284E+04 -1.912134E+04  6.459278E+03
        64  25 -4.939666E+05 -1.242705E+05 -1.288043E+05 -3.900152E+04 -7.035207E+02  1.617124E+04
        64  26 -5.696024E+05 -1.419888E+05 -1.523802E+05 -1.448693E+04 -1.494746E+04  1.889583E+04
        64  27 -6.538468E+05 -1.882096E+05 -1.922863E+05 -4.916494E+04 -2.918861E+04  6.458170E+03
        65   1  1.028992E+06  3.344583E+06  9.909612E+05 -9.942899E+05  4.166985E+04  2.525509E+05
        65   2  7.162343E+05  2.353311E+06  6.297902E+05 -8.581034E+05  1.281215E+05  7.253518E+04
        65   3  4.722221E+05  1.401534E+06  4.023859E+05 -9.457672E+05  1.163386E+05 -1.076629E+05
        65   4  6.979108E+04 -5.324737E+05  6.854353E+04 -9.378359E+05  4.310096E+04  3.553256E+04
        65   5  2.095856E+04 -5.372140E+05  4.257436E+04 -8.260860E+05  1.285722E+05  1.434049E+04
        65   6  1.359873E+04 -5.306785E+05  4.053463E+04 -9.382103E+05  1.156128E+05 -7.323284E+03
        65   7 -8.904596E+05 -4.395673E+06 -8.547498E+05 -8.817035E+05  4.449809E+04 -1.801429E+05
        65   8 -6.748334E+05 -3.419797E+06 -5.450653E+05 -7.942019E+05  1.290183E+05 -4.358917E+04
        65   9 -4.452351E+05 -2.459262E+06 -3.214402E+05 -9.306684E+05  1.148880E+05  9.271246E+04
        65  10  1.028973E+06  3.344515E+06  9.908386E+05 -9.942983E+05  7.260637E-10 -1.774979E-09
        65  11  7.162152E+05  2.353301E+06  6.297494E+05 -8.581109E+05  1.037508E-09  8.815476E-09
        65  12  4.722045E+05  1.401518E+06  4.023388E+05 -9.457572E+05  3.272383E-09  2.558288E-08
        65  13  6.978874E+04 -5.324756E+05  6.853766E+04 -9.378371E+05  2.437040E-09  2.216413E-09
        65  14  2.094075E+04 -5.372187E+05  4.254290E+04 -8.260875E+05 -3.438087E-09  2.172437E-09
        65  15  1.358437E+04 -5.306821E+05  4.050943E+04 -9.382096E+05 -2.247074E-09  1.644875E-09
        65  16 -8.904705E+05 -4.395709E+06 -8.548149E+05 -8.816971E+05 -1.412212E-09 -2.489226E-11
        65  17 -6.748518E+05 -3.419804E+06 -5.451002E+05 -7.941973E+05  3.874224E-09 -1.097761E-08
        65  18 -4.452516E+05 -2.459275E+06 -3.214813E+05 -9.306770E+05  5.641399E-10 -2.494081E-08
        65  19  1.028992E+06  3.344583E+06  9.909612E+05 -9.942899E+05 -4.166985E+04 -2.525509E+05
        65  20  7.162343E+05  2.353311E+06  6.297902E+05 -8.581034E+05 -1.281215E+05 -7.253518E+04
        65  21  4.722221E+05  1.401534E+06  4.023859E+05 -9.457672E+05 -1.163386E+05  1.076629E+05
        65  22  6.979108E+04 -5.324737E+05  6.854353E+04 -9.378359E+05 -4.310096E+04 -3.553256E+04
        65  23  2.095856E+04 -5.372140E+05  4.257436E+04 -8.260860E+05 -1.285722E+05 -1.434049E+04
        65  24  1.359873E+04 -5.306785E+05  4.053463E+04 -9.382103E+05 -1.156128E+05  7.323284E+03
        65  25 -8.904596E+05 -4.395673E+06 -8.547498E+05 -8.817035E+05 -4.449809E+04  1.801429E+05
        65  26 -6.748334E+05 -3.419797E+06 -5.450653E+05 -7.942019E+05 -1.290183E+05  4.358917E+04
        65  27 -4.452351E+05 -2.459262E+06 -3.214402E+05 -9.306684E+05 -1.148880E+05 -9.271246E+04
        66   1  3.206493E+05  7.559751E+05  2.853991E+05 -9.509709E+05  7.815865E+04 -1.027221E+05
        66   2  8.895249E+04 -2.173048E+05  1.195103E+05 -8.246758E+05  2.308616E+04 -1.366058E+05
        66   3 -1.238984E+05 -1.183905E+06 -2.054324E+04 -9.282339E+05 -3.321751E+04 -1.704626E+05
        66   4  1.487444E+04 -5.315840E+05  4.452427E+04 -9.395042E+05  7.749162E+04 -1.468863E+04
        66   5  1.433075E+04 -5.341737E+05  6.330746E+04 -8.245167E+05  2.239552E+04 -4.664454E+04
        66   6  3.233562E+04 -5.313673E+05  1.065640E+05 -9.393737E+05 -3.393315E+04 -7.862325E+04
        66   7 -2.909919E+05 -1.817523E+06 -1.963929E+05 -9.280579E+05  7.682698E+04  7.316705E+04
        66   8 -6.029217E+04 -8.509272E+05  7.131311E+03 -8.243576E+05  2.170470E+04  4.327213E+04
        66   9  1.885489E+05  1.215979E+05  2.336828E+05 -9.505246E+05 -3.465163E+04  1.331065E+04
        66  10  3.206399E+05  7.559622E+05  2.853679E+05 -9.509645E+05  4.280004E-09 -4.644170E-08
        66  11  8.894691E+04 -2.173249E+05  1.194742E+05 -8.246733E+05  1.239168E-09 -2.416794E-08
        66  12 -1.239074E+05 -1.183936E+06 -2.060006E+04 -9.282384E+05 -1.294137E-09  1.520470E-08
        66  13  1.486794E+04 -5.315858E+05  4.451259E+04 -9.395033E+05 -7.721667E-09  3.104337E-09
        66  14  1.432963E+04 -5.341762E+05  6.330243E+04 -8.245159E+05 -7.133214E-09  3.548720E-09
        66  15  3.233271E+04 -5.313742E+05  1.065502E+05 -9.393759E+05  6.464051E-09  2.825501E-09
        66  16 -2.909997E+05 -1.817531E+06 -1.964141E+05 -9.280624E+05  1.786269E-10  4.480981E-08
        66  17 -6.029318E+04 -8.509293E+05  7.126897E+03 -8.243584E+05 -5.384322E-09  2.060538E-08
        66  18  1.885476E+05  1.215974E+05  2.336803E+05 -9.505243E+05 -1.286540E-09 -1.375632E-08
        66  19  3.206493E+05  7.559751E+05  2.853991E+05 -9.509709E+05 -7.815865E+04  1.027221E+05
        66  20  8.895249E+04 -2.173048E+05  1.195103E+05 -8.246758E+05 -2.308616E+04  1.366058E+05
        66  21 -1.238984E+05 -1.183905E+06 -2.054324E+04 -9.282339E+05  3.321751E+04  1.704626E+05
        66  22  1.487444E+04 -5.315840E+05  4.452427E+04 -9.395042E+05 -7.749162E+04  1.468863E+04
        66  23  1.433075E+04 -5.341737E+05  6.330746E+04 -8.245167E+05 -2.239552E+04  4.664454E+04
        66  24  3.233562E+04 -5.313673E+05  1.065640E+05 -9.393737E+05  3.393315E+04  7.862325E+04
        66  25 -2.909919E+05 -1.817523E+06 -1.963929E+05 -9.280579E+05 -7.682698E+04 -7.316705E+04
        66  26 -6.029217E+04 -8.509272E+05  7.131311E+03 -8.243576E+05 -2.170470E+04 -4.327213E+04
        66  27  1.885489E+05  1.215979E+05  2.336828E+05 -9.505246E+05  3.465163E+04 -1.331065E+04
        67   1 -2.862433E+05 -1.809374E+06 -1.100450E+05 -9.621851E+05 -7.170627E+04 -1.988942E+05
        67   2 -4.444109E+05 -2.807206E+06 -2.196242E+05 -6.901022E+05 -9.374041E+04 -1.914560E+05
        67   3 -3.435827E+05 -3.742482E+06 -2.698578E+05 -6.424014E+05 -3.239199E+04 -1.835744E+05
        67   4  2.218041E+04 -5.140437E+05  1.373820E+05 -9.385187E+05 -7.249088E+04 -9.713008E+04
        67   5  1.015696E+05 -5.569163E+05  2.448639E+05 -8.249733E+05 -9.344320E+04 -2.236825E+05
        67   6  4.626360E+05 -5.153209E+05  5.045753E+05 -9.355331E+05 -3.115538E+04 -3.497972E+05
        67   7  3.305136E+05  7.829316E+05  3.847725E+05 -9.147977E+05 -7.326671E+04  4.842008E+03
        67   8  6.472927E+05  1.698230E+06  7.090907E+05 -9.603327E+05 -9.313265E+04 -2.560231E+05
        67   9  1.268419E+06  2.721652E+06  1.278414E+06 -1.230181E+06 -2.976514E+04 -5.168809E+05
        67  10 -2.862595E+05 -1.809418E+06 -1.101293E+05 -9.621966E+05  2.013375E-09 -2.168872E-08
        67  11 -4.444303E+05 -2.807248E+06 -2.197100E+05 -6.901166E+05  3.588198E-09 -1.124344E-08
        67  12 -3.435930E+05 -3.742518E+06 -2.699235E+05 -6.424062E+05  8.910825E-10  8.442198E-09
        67  13  2.217222E+04 -5.140553E+05  1.373543E+05 -9.385244E+05  1.159963E-08  3.725177E-09
        67  14  1.015467E+05 -5.569725E+05  2.447532E+05 -8.249902E+05 -3.706017E-10  2.855489E-09
        67  15  4.626021E+05 -5.154526E+05  5.043433E+05 -9.355419E+05  1.812116E-09  1.652080E-09
        67  16  3.305078E+05  7.829301E+05  3.847624E+05 -9.147974E+05 -3.475377E-09  2.086703E-08
        67  17  6.472658E+05  1.698157E+06  7.089514E+05 -9.603519E+05 -1.738002E-10  8.698041E-09
        67  18  1.268346E+06  2.721366E+06  1.277913E+06 -1.230193E+06  1.465489E-09 -7.675406E-09
        67  19 -2.862433E+05 -1.809374E+06 -1.100450E+05 -9.621851E+05  7.170627E+04  1.988942E+05
        67  20 -4.444109E+05 -2.807206E+06 -2.196242E+05 -6.901022E+05  9.374041E+04  1.914560E+05
        67  21 -3.435827E+05 -3.742482E+06 -2.698578E+05 -6.424014E+05  3.239199E+04  1.835744E+05
        67  22  2.218041E+04 -5.140437E+05  1.373820E+05 -9.385187E+05  7.249088E+04  9.713008E+04
        67  23  1.015696E+05 -5.569163E+05  2.448639E+05 -8.249733E+05  9.344320E+04  2.236825E+05
        67  24  4.626360E+05 -5.153209E+05  5.045753E+05 -9.355331E+05  3.115538E+04  3.497972E+05
        67  25  3.305136E+05  7.829316E+05  3.847725E+05 -9.147977E+05  7.326671E+04 -4.842008E+03
        67  26  6.472927E+05  1.698230E+06  7.090907E+05 -9.603327E+05  9.313265E+04  2.560231E+05
        67  27  1.268419E+06  2.721652E+06  1.278414E+06 -1.230181E+06  2.976514E+04  5.168809E+05
        68   1 -3.618585E+06 -1.396500E+06 -7.934699E+05 -1.243204E+06 -2.100284E+05 -1.963081E+04
        68   2 -3.380174E+06 -1.337237E+06 -6.385697E+05 -1.159920E+06 -1.413801E+05  1.455380E+05
        68   3 -3.104389E+06 -1.293201E+06 -5.615326E+05 -1.134977E+06 -3.777869E+04  2.190488E+05
        68   4 -1.639414E+05 -1.369864E+05  9.482669E+04 -3.381829E+05  4.101445E+04  7.567752E+04
        68   5 -2.013329E+05 -1.799875E+05  4.329251E+04 -2.949006E+05 -2.759256E+04  1.885607E+05
        68   6 -1.741082E+05 -2.110033E+05  2.316137E+04 -3.099534E+05 -6.139458E+04  2.100150E+05
        68   7  3.302381E+06  1.123120E+06  9.823918E+05  5.713377E+05  2.935921E+05  1.715210E+05
        68   8  2.987822E+06  9.780204E+05  7.246230E+05  5.741786E+05  8.682658E+04  2.318140E+05
        68   9  2.765122E+06  8.720095E+05  6.074590E+05  5.187145E+05 -8.513154E+04  2.009352E+05
        68  10 -3.618633E+06 -1.396512E+06 -7.935540E+05 -1.243207E+06  1.559739E-08  6.124337E-09
        68  11 -3.380201E+06 -1.337265E+06 -6.386471E+05 -1.159903E+06  7.971629E-09 -1.024002E-09
        68  12 -3.104403E+06 -1.293253E+06 -5.616255E+05 -1.134971E+06  1.546487E-09 -2.121012E-09
        68  13 -1.639447E+05 -1.369930E+05  9.481275E+04 -3.381854E+05 -2.859382E-09 -2.824670E-10
        68  14 -2.013433E+05 -1.800259E+05  4.322427E+04 -2.948965E+05 -1.098047E-08  4.051467E-09
        68  15 -1.741241E+05 -2.110517E+05  2.307142E+04 -3.099430E+05 -1.193254E-08  1.010175E-08
        68  16  3.302281E+06  1.123066E+06  9.821756E+05  5.712972E+05 -2.230416E-08 -1.168489E-08
        68  17  2.987800E+06  9.779608E+05  7.245081E+05  5.741625E+05 -2.676602E-08 -1.675902E-08
        68  18  2.765103E+06  8.719642E+05  6.073695E+05  5.187282E+05 -5.124073E-09 -1.120179E-08
        68  19 -3.618585E+06 -1.396500E+06 -7.934699E+05 -1.243204E+06  2.100284E+05  1.963081E+04
        68  20 -3.380174E+06 -1.337237E+06 -6.385697E+05 -1.159920E+06  1.413801E+05 -1.455380E+05
        68  21 -3.104389E+06 -1.293201E+06 -5.615326E+05 -1.134977E+06  3.777869E+04 -2.190488E+05
        68  22 -1.639414E+05 -1.369864E+05  9.482669E+04 -3.381829E+05 -4.101445E+04 -7.567752E+04
        68  23 -2.013329E+05 -1.799875E+05  4.329251E+04 -2.949006E+05  2.759256E+04 -1.885607E+05
        68  24 -1.741082E+05 -2.110033E+05  2.316137E+04 -3.099534E+05  6.139458E+04 -2.100150E+05
        68  25  3.302381E+06  1.123120E+06  9.823918E+05  5.713377E+05 -2.935921E+05 -1.715210E+05
        68  26  2.987822E+06  9.780204E+05  7.246230E+05  5.741786E+05 -8.682658E+04 -2.318140E+05
        68  27  2.765122E+06  8.720095E+05  6.074590E+05  5.187145E+05  8.513154E+04 -2.009352E+05
        69   1 -2.946746E+06 -1.224732E+06 -5.320751E+05 -1.085372E+06 -5.267380E+04  2.023240E+05
        69   2 -2.727863E+06 -1.114057E+06 -4.828543E+05 -9.923875E+05 -4.386924E+04  1.958607E+05
        69   3 -2.463778E+06 -1.047237E+06 -4.372892E+05 -9.502147E+05 -3.255279E+04  1.826495E+05
        69   4 -1.758836E+05 -2.097120E+05  1.757230E+04 -3.132169E+05 -6.038476E+04  1.993162E+05
        69   5 -1.993818E+05 -1.897769E+05  9.145714E+03 -2.873433E+05 -6.170235E+04  1.890530E+05
        69   6 -1.757416E+05 -2.116819E+05  5.097306E+03 -3.122895E+05 -6.051600E+04  1.720564E+05
        69   7  2.602946E+06  8.059938E+05  5.668593E+05  4.621420E+05 -6.813321E+04  1.962946E+05
        69   8  2.335746E+06  7.350789E+05  5.008599E+05  4.203706E+05 -7.961385E+04  1.822161E+05
        69   9  2.117732E+06  6.243430E+05  4.472534E+05  3.278196E+05 -8.858996E+04  1.614217E+05
        69  10 -2.946760E+06 -1.224777E+06 -5.321573E+05 -1.085364E+06 -1.203892E-08 -5.987414E-09
        69  11 -2.727875E+06 -1.114098E+06 -4.829300E+05 -9.923806E+05 -1.839505E-08 -3.705987E-09
        69  12 -2.463788E+06 -1.047273E+06 -4.373539E+05 -9.502099E+05 -8.443904E-09 -2.330030E-09
        69  13 -1.758982E+05 -2.097557E+05  1.749080E+04 -3.132072E+05 -1.191166E-08  1.250232E-08
        69  14 -1.993955E+05 -1.898163E+05  9.071406E+03 -2.873339E+05 -2.543070E-09  7.643609E-09
        69  15 -1.757535E+05 -2.117147E+05  5.034804E+03 -3.122811E+05  5.965278E-09  2.543978E-09
        69  16  2.602931E+06  8.059512E+05  5.667782E+05  4.621528E+05  1.205025E-08 -3.608882E-09
        69  17  2.335730E+06  7.350416E+05  5.007856E+05  4.203823E+05  1.928332E-08  1.048693E-10
        69  18  2.117716E+06  6.243129E+05  4.471897E+05  3.278311E+05  2.572614E-08  4.937823E-09
        69  19 -2.946746E+06 -1.224732E+06 -5.320751E+05 -1.085372E+06  5.267380E+04 -2.023240E+05
        69  20 -2.727863E+06 -1.114057E+06 -4.828543E+05 -9.923875E+05  4.386924E+04 -1.958607E+05
        69  21 -2.463778E+06 -1.047237E+06 -4.372892E+05 -9.502147E+05  3.255279E+04 -1.826495E+05
        69  22 -1.758836E+05 -2.097120E+05  1.757230E+04 -3.132169E+05  6.038476E+04 -1.993162E+05
        69  23 -1.993818E+05 -1.897769E+05  9.145714E+03 -2.873433E+05  6.170235E+04 -1.890530E+05
        69  24 -1.757416E+05 -2.116819E+05  5.097306E+03 -3.122895E+05  6.051600E+04 -1.720564E+05
        69  25  2.602946E+06  8.059938E+05  5.668593E+05  4.621420E+05  6.813321E+04 -1.962946E+05
        69  26  2.335746E+06  7.350789E+05  5.008599E+05  4.203706E+05  7.961385E+04 -1.822161E+05
        69  27  2.117732E+06  6.243430E+05  4.472534E+05  3.278196E+05  8.858996E+04 -1.614217E+05
        70   1 -2.302213E+06 -9.869906E+05 -4.058288E+05 -9.047846E+05 -3.028817E+04  1.710530E+05
        70   2 -2.083042E+06 -8.754494E+05 -3.608107E+05 -8.114076E+05 -2.366269E+04  1.528288E+05
        70   3 -1.818303E+06 -8.086666E+05 -3.154519E+05 -7.691143E+05 -1.687893E+04  1.340884E+05
        70   4 -1.758221E+05 -2.114987E+05  3.795436E+03 -3.125915E+05 -5.711144E+04  1.609068E+05
        70   5 -1.984278E+05 -1.888010E+05  1.997447E+03 -2.871203E+05 -5.126045E+04  1.424172E+05
        70   6 -1.753907E+05 -2.107088E+05  1.142615E+03 -3.127483E+05 -4.525146E+04  1.234123E+05
        70   7  1.955304E+06  5.644124E+05  4.132332E+05  2.814953E+05 -8.403384E+04  1.507234E+05
        70   8  1.689899E+06  4.981730E+05  3.646585E+05  2.386506E+05 -7.894843E+04  1.319717E+05
        70   9  1.470336E+06  3.874927E+05  3.176242E+05  1.447412E+05 -7.370468E+04  1.127060E+05
        70  10 -2.302222E+06 -9.870222E+05 -4.058855E+05 -9.047804E+05  3.528151E-08  1.180670E-08
        70  11 -2.083049E+06 -8.754747E+05 -3.608557E+05 -8.114047E+05  2.291825E-10 -1.235045E-09
        70  12 -1.818309E+06 -8.086860E+05 -3.154862E+05 -7.691125E+05 -3.364695E-08 -1.086122E-08
        70  13 -1.758325E+05 -2.115274E+05  3.740661E+03 -3.125842E+05  1.022130E-08  1.612998E-09
        70  14 -1.984361E+05 -1.888235E+05  1.954401E+03 -2.871144E+05  8.152630E-09 -5.365733E-11
        70  15 -1.753970E+05 -2.107257E+05  1.110152E+03 -3.127438E+05  5.178603E-09  8.473267E-10
        70  16  1.955290E+06  5.643861E+05  4.131773E+05  2.815054E+05 -1.886309E-08 -8.947852E-09
        70  17  1.689888E+06  4.981527E+05  3.646141E+05  2.386589E+05  1.328380E-09  1.439877E-09
        70  18  1.470326E+06  3.874776E+05  3.175901E+05  1.447478E+05  3.489334E-08  1.282025E-08
        70  19 -2.302213E+06 -9.869906E+05 -4.058288E+05 -9.047846E+05  3.028817E+04 -1.710530E+05
        70  20 -2.083042E+06 -8.754494E+05 -3.608107E+05 -8.114076E+05  2.366269E+04 -1.528288E+05
        70  21 -1.818303E+06 -8.086666E+05 -3.154519E+05 -7.691143E+05  1.687893E+04 -1.340884E+05
        70  22 -1.758221E+05 -2.114987E+05  3.795436E+03 -3.125915E+05  5.711144E+04 -1.609068E+05
        70  23 -1.984278E+05 -1.888010E+05  1.997447E+03 -2.871203E+05  5.126045E+04 -1.424172E+05
        70  24 -1.753907E+05 -2.107088E+05  1.142615E+03 -3.127483E+05  4.525146E+04 -1.234123E+05
        70  25  1.955304E+06  5.644124E+05  4.132332E+05  2.814953E+05  8.403384E+04 -1.507234E+05
        70  26  1.689899E+06  4.981730E+05  3.646585E+05  2.386506E+05  7.894843E+04 -1.319717E+05
        70  27  1.470336E+06  3.874927E+05  3.176242E+05  1.447412E+05  7.370468E+04 -1.127060E+05
        71   1 -1.656017E+06 -7.490311E+05 -2.831342E+05 -7.240114E+05 -1.297277E+04  1.229946E+05
        71   2 -1.435824E+06 -6.379066E+05 -2.374921E+05 -6.307372E+05 -6.001852E+03  1.040766E+05
        71   3 -1.170396E+06 -5.716070E+05 -1.916830E+05 -5.888227E+05  9.639870E+02  8.510790E+04
        71   4 -1.753617E+05 -2.105911E+05  8.260578E+02 -3.128244E+05 -4.128146E+04  1.123556E+05
        71   5 -1.978115E+05 -1.878961E+05  3.869913E+02 -2.871994E+05 -3.438692E+04  9.342644E+04
        71   6 -1.750792E+05 -2.100132E+05  1.685330E+02 -3.129531E+05 -2.749743E+04  7.444664E+04
        71   7  1.307567E+06  3.280422E+05  2.846929E+05  9.927135E+04 -6.966239E+04  1.016896E+05
        71   8  1.041799E+06  2.622526E+05  2.382039E+05  5.697533E+04 -6.283273E+04  8.275354E+04
        71   9  8.212788E+05  1.516727E+05  1.919831E+05 -3.667002E+04 -5.600803E+04  6.376697E+04
        71  10 -1.656021E+06 -7.490474E+05 -2.831630E+05 -7.240101E+05 -7.871839E-09 -1.173768E-09
        71  11 -1.435827E+06 -6.379182E+05 -2.375125E+05 -6.307367E+05 -5.211906E-10 -1.490491E-10
        71  12 -1.170398E+06 -5.716148E+05 -1.916967E+05 -5.888228E+05  1.980508E-09  6.964389E-10
        71  13 -1.753669E+05 -2.106051E+05  7.991374E+02 -3.128206E+05  5.454972E-09  1.567948E-09
        71  14 -1.978152E+05 -1.879058E+05  3.683699E+02 -2.871968E+05  1.266611E-08 -1.046687E-10
        71  15 -1.750815E+05 -2.100194E+05  1.566991E+02 -3.129515E+05  4.728183E-09 -5.308676E-09
        71  16  1.307559E+06  3.280298E+05  2.846643E+05  9.927705E+04  1.855422E-08  6.881899E-09
        71  17  1.041793E+06  2.622442E+05  2.381836E+05  5.697952E+04  1.748218E-08  8.806577E-09
        71  18  8.212744E+05  1.516675E+05  1.919696E+05 -3.666714E+04  9.717016E-09  6.513839E-09
        71  19 -1.656017E+06 -7.490311E+05 -2.831342E+05 -7.240114E+05  1.297277E+04 -1.229946E+05
        71  20 -1.435824E+06 -6.379066E+05 -2.374921E+05 -6.307372E+05  6.001852E+03 -1.040766E+05
        71  21 -1.170396E+06 -5.716070E+05 -1.916830E+05 -5.888227E+05 -9.639870E+02 -8.510790E+04
        71  22 -1.753617E+05 -2.105911E+05  8.260578E+02 -3.128244E+05  4.128146E+04 -1.123556E+05
        71  23 -1.978115E+05 -1.878961E+05  3.869913E+02 -2.871994E+05  3.438692E+04 -9.342644E+04
        71  24 -1.750792E+05 -2.100132E+05  1.685330E+02 -3.129531E+05  2.749743E+04 -7.444664E+04
        71  25  1.307567E+06  3.280422E+05  2.846929E+05  9.927135E+04  6.966239E+04 -1.016896E+05
        71  26  1.041799E+06  2.622526E+05  2.382039E+05  5.697533E+04  6.283273E+04 -8.275354E+04
        71  27  8.212788E+05  1.516727E+05  1.919831E+05 -3.667002E+04  5.600803E+04 -6.376697E+04
        72   1 -1.007639E+06 -5.121405E+05 -1.591434E+05 -5.438078E+05  5.081605E+03  7.407697E+04
        72   2 -7.867907E+05 -4.013041E+05 -1.133045E+05 -4.505778E+05  1.224690E+04  5.517081E+04
        72   3 -5.209329E+05 -3.353287E+05 -6.750111E+04 -4.088620E+05  1.939798E+04  3.627144E+04
        72   4 -1.750562E+05 -2.099440E+05  5.193606E+01 -3.129899E+05 -2.339083E+04  6.341926E+04
        72   5 -1.974583E+05 -1.873706E+05 -1.703003E+02 -2.872535E+05 -1.621798E+04  4.452422E+04
        72   6 -1.749182E+05 -2.096631E+05 -4.382900E+02 -3.130521E+05 -9.059418E+03  2.563608E+04
        72   7  6.582504E+05  9.231508E+04  1.592214E+05 -8.188407E+04 -5.190417E+04  5.274623E+04
        72   8  3.922346E+05  2.659353E+04  1.129517E+05 -1.237856E+05 -4.471167E+04  3.386683E+04
        72   9  1.712195E+05 -8.398739E+04  6.662187E+04 -2.171930E+05 -3.753356E+04  1.499445E+04
        72  10 -1.007641E+06 -5.121464E+05 -1.591538E+05 -5.438081E+05  5.266440E-09  4.074895E-09
        72  11 -7.867917E+05 -4.013074E+05 -1.133105E+05 -4.505784E+05  4.140832E-09  7.570743E-09
        72  12 -5.209336E+05 -3.353302E+05 -6.750429E+04 -4.088626E+05  5.563862E-09  6.136587E-09
        72  13 -1.750579E+05 -2.099485E+05  4.335128E+01 -3.129887E+05  5.972914E-09 -5.175291E-09
        72  14 -1.974591E+05 -1.873728E+05 -1.745192E+02 -2.872530E+05  9.693517E-09 -2.895305E-09
        72  15 -1.749184E+05 -2.096638E+05 -4.396791E+02 -3.130519E+05  1.082211E-08  7.919940E-10
        72  16  6.582468E+05  9.231137E+04  1.592111E+05 -8.188186E+04  1.185924E-09  1.968466E-09
        72  17  3.922322E+05  2.659176E+04  1.129458E+05 -1.237844E+05  2.175720E-09  2.709502E-10
        72  18  1.712179E+05 -8.398801E+04  6.661880E+04 -2.171925E+05  3.920095E-09  1.036962E-09
        72  19 -1.007639E+06 -5.121405E+05 -1.591434E+05 -5.438078E+05 -5.081605E+03 -7.407697E+04
        72  20 -7.867907E+05 -4.013041E+05 -1.133045E+05 -4.505778E+05 -1.224690E+04 -5.517081E+04
        72  21 -5.209329E+05 -3.353287E+05 -6.750111E+04 -4.088620E+05 -1.939798E+04 -3.627144E+04
        72  22 -1.750562E+05 -2.099440E+05  5.193606E+01 -3.129899E+05  2.339083E+04 -6.341926E+04
        72  23 -1.974583E+05 -1.873706E+05 -1.703003E+02 -2.872535E+05  1.621798E+04 -4.452422E+04
        72  24 -1.749182E+05 -2.096631E+05 -4.382900E+02 -3.130521E+05  9.059418E+03 -2.563608E+04
        72  25  6.582504E+05  9.231508E+04  1.592214E+05 -8.188407E+04  5.190417E+04 -5.274623E+04
        72  26  3.922346E+05  2.659353E+04  1.129517E+05 -1.237856E+05  4.471167E+04 -3.386683E+04
        72  27  1.712195E+05 -8.398739E+04  6.662187E+04 -2.171930E+05  3.753356E+04 -1.499445E+04
        73   1 -3.578967E+05 -2.759490E+05 -3.501790E+04 -3.638597E+05  2.365402E+04  2.529329E+04
        73   2 -1.367632E+05 -1.652794E+05  1.056688E+04 -2.705959E+05  3.095584E+04  6.568132E+03
        73   3  1.292842E+05 -9.947407E+04  5.595838E+04 -2.288828E+05  3.817009E+04 -1.192018E+04
        73   4 -1.749327E+05 -2.096394E+05 -6.336310E+02 -3.130696E+05 -4.850900E+03  1.464239E+04
        73   5 -1.973295E+05 -1.871976E+05 -1.230220E+03 -2.872718E+05  2.801063E+03 -3.952893E+03
        73   6 -1.749500E+05 -2.096986E+05 -2.301474E+03 -3.130515E+05  1.036530E+04 -2.231123E+04
        73   7  8.069781E+03 -1.433253E+05  3.375324E+04 -2.622646E+05 -3.336506E+04  3.988040E+03
        73   8 -2.578906E+05 -2.091148E+05 -1.302417E+04 -3.039458E+05 -2.535091E+04 -1.447288E+04
        73   9 -4.790864E+05 -3.199142E+05 -6.056198E+04 -3.971815E+05 -1.742493E+04 -3.269683E+04
        73  10 -3.578975E+05 -2.759499E+05 -3.502016E+04 -3.638602E+05  7.747056E-09  2.112051E-09
        73  11 -1.367642E+05 -1.652797E+05  1.056500E+04 -2.705961E+05  3.460500E-09 -4.041469E-09
        73  12  1.292826E+05 -9.947461E+04  5.595538E+04 -2.288825E+05 -1.319419E-08 -9.127496E-09
        73  13 -1.749328E+05 -2.096396E+05 -6.340781E+02 -3.130695E+05  2.062386E-08  2.455477E-09
        73  14 -1.973295E+05 -1.871976E+05 -1.230264E+03 -2.872718E+05  1.723189E-08  2.197746E-09
        73  15 -1.749503E+05 -2.096991E+05 -2.302611E+03 -3.130513E+05 -1.791421E-09 -8.325692E-09
        73  16  8.068582E+03 -1.433256E+05  3.375112E+04 -2.622645E+05  1.103469E-08  6.691003E-09
        73  17 -2.578913E+05 -2.091152E+05 -1.302577E+04 -3.039461E+05  1.812282E-08  1.114335E-08
        73  18 -4.790870E+05 -3.199155E+05 -6.056456E+04 -3.971820E+05  1.145409E-08  9.357589E-09
        73  19 -3.578967E+05 -2.759490E+05 -3.501790E+04 -3.638597E+05 -2.365402E+04 -2.529329E+04
        73  20 -1.367632E+05 -1.652794E+05  1.056688E+04 -2.705959E+05 -3.095584E+04 -6.568132E+03
        73  21  1.292842E+05 -9.947407E+04  5.595838E+04 -2.288828E+05 -3.817009E+04  1.192018E+04
        73  22 -1.749327E+05 -2.096394E+05 -6.336310E+02 -3.130696E+05  4.850900E+03 -1.464239E+04
        73  23 -1.973295E+05 -1.871976E+05 -1.230220E+03 -2.872718E+05 -2.801063E+03  3.952893E+03
        73  24 -1.749500E+05 -2.096986E+05 -2.301474E+03 -3.130515E+05 -1.036530E+04  2.231123E+04
        73  25  8.069781E+03 -1.433253E+05  3.375324E+04 -2.622646E+05  3.336506E+04 -3.988040E+03
        73  26 -2.578906E+05 -2.091148E+05 -1.302417E+04 -3.039458E+05  2.535091E+04  1.447288E+04
        73  27 -4.790864E+05 -3.199142E+05 -6.056198E+04 -3.971815E+05  1.742493E+04  3.269683E+04
        74   1  2.925406E+05 -4.014410E+04  8.793758E+04 -1.839866E+05  4.326857E+04 -2.253087E+04
        74   2  5.131741E+05  7.071384E+04  1.331723E+05 -9.022802E+04  4.770595E+04 -4.049622E+04
        74   3  7.787390E+05  1.363856E+05  1.797691E+05 -4.753844E+04  5.094284E+04 -5.522754E+04
        74   4 -1.751246E+05 -2.096407E+05 -3.076024E+03 -3.130796E+05  1.489898E+04 -3.313614E+04
        74   5 -1.972878E+05 -1.876365E+05 -5.673371E+03 -2.871545E+05  2.419895E+04 -4.929289E+04
        74   6 -1.755410E+05 -2.117904E+05 -1.075948E+04 -3.123263E+05  3.229846E+04 -6.221322E+04
        74   7 -6.425573E+05 -3.791162E+05 -9.409482E+04 -4.420811E+05 -1.344748E+04 -4.373279E+04
        74   8 -9.072258E+05 -4.459419E+05 -1.445395E+05 -4.838721E+05  7.207515E+02 -5.807877E+04
        74   9 -1.128890E+06 -5.598902E+05 -2.013325E+05 -5.767400E+05  1.368465E+04 -6.918741E+04
        74  10  2.925385E+05 -4.014514E+04  8.793311E+04 -1.839858E+05  2.041317E-08  6.020533E-09
        74  11  5.131712E+05  7.071147E+04  1.331650E+05 -9.022646E+04  1.940500E-08  8.569182E-09
        74  12  7.787354E+05  1.363816E+05  1.797585E+05 -4.753617E+04  9.039967E-09  6.207664E-09
        74  13 -1.751251E+05 -2.096420E+05 -3.078504E+03 -3.130792E+05  4.025848E-10 -9.114168E-09
        74  14 -1.972891E+05 -1.876392E+05 -5.679036E+03 -2.871535E+05  6.414591E-09 -1.285176E-09
        74  15 -1.755432E+05 -2.117949E+05 -1.076872E+04 -3.123247E+05  2.079330E-09  2.681088E-09
        74  16 -6.425580E+05 -3.791183E+05 -9.409876E+04 -4.420816E+05 -2.520060E-08 -7.206819E-09
        74  17 -9.072267E+05 -4.459456E+05 -1.445458E+05 -4.838721E+05 -9.429212E-09 -3.382885E-09
        74  18 -1.128891E+06 -5.598953E+05 -2.013419E+05 -5.767393E+05 -1.781191E-09  1.086747E-09
        74  19  2.925406E+05 -4.014410E+04  8.793758E+04 -1.839866E+05 -4.326857E+04  2.253087E+04
        74  20  5.131741E+05  7.071384E+04  1.331723E+05 -9.022802E+04 -4.770595E+04  4.049622E+04
        74  21  7.787390E+05  1.363856E+05  1.797691E+05 -4.753844E+04 -5.094284E+04  5.522754E+04
        74  22 -1.751246E+05 -2.096407E+05 -3.076024E+03 -3.130796E+05 -1.489898E+04  3.313614E+04
        74  23 -1.972878E+05 -1.876365E+05 -5.673371E+03 -2.871545E+05 -2.419895E+04  4.929289E+04
        74  24 -1.755410E+05 -2.117904E+05 -1.075948E+04 -3.123263E+05 -3.229846E+04  6.221322E+04
        74  25 -6.425573E+05 -3.791162E+05 -9.409482E+04 -4.420811E+05  1.344748E+04  4.373279E+04
        74  26 -9.072258E+05 -4.459419E+05 -1.445395E+05 -4.838721E+05 -7.207515E+02  5.807877E+04
        74  27 -1.128890E+06 -5.598902E+05 -2.013325E+05 -5.767400E+05 -1.368465E+04  6.918741E+04
        75   1  9.448933E+05  1.950140E+05  2.102548E+05 -6.267149E+03  6.416128E+04 -6.215215E+04
        75   2  1.153542E+06  3.115924E+05  2.683679E+05  1.006883E+05  1.011506E+04 -7.719975E+04
        75   3  1.405022E+06  3.678030E+05  3.602344E+05  1.664217E+05 -6.047996E+04 -4.824649E+04
        75   4 -1.777089E+05 -2.102365E+05 -1.414290E+04 -3.130328E+05  3.781088E+04 -7.202835E+04
        75   5 -1.958292E+05 -1.961347E+05 -2.669549E+04 -2.839661E+05  5.014038E+04 -6.222066E+04
        75   6 -1.843202E+05 -2.555826E+05 -5.804444E+04 -2.961515E+05  4.592545E+04 -8.352431E+03
        75   7 -1.299018E+06 -6.153868E+05 -2.386000E+05 -6.192900E+05  1.151144E+04 -8.188588E+04
        75   8 -1.543331E+06 -7.036850E+05 -3.218559E+05 -6.678383E+05  9.007131E+04 -4.727895E+04
        75   9 -1.771131E+06 -8.787158E+05 -4.764763E+05 -7.576104E+05  1.520292E+05  3.141638E+04
        75  10  9.448879E+05  1.950087E+05  2.102398E+05 -6.263939E+03  3.728230E-09  3.758231E-09
        75  11  1.153540E+06  3.115860E+05  2.683565E+05  1.006889E+05 -1.950354E-09  2.740199E-09
        75  12  1.405017E+06  3.677995E+05  3.602231E+05  1.664193E+05  1.962312E-09  1.282407E-09
        75  13 -1.777118E+05 -2.102424E+05 -1.415533E+04 -3.130306E+05 -2.955363E-09  3.531016E-09
        75  14 -1.958330E+05 -1.961396E+05 -2.670749E+04 -2.839636E+05  4.584480E-10  2.427961E-09
        75  15 -1.843225E+05 -2.555832E+05 -5.804854E+04 -2.961512E+05  2.098064E-09  6.878551E-10
        75  16 -1.299020E+06 -6.153940E+05 -2.386128E+05 -6.192892E+05 -4.667593E-09  2.353790E-09
        75  17 -1.543341E+06 -7.036896E+05 -3.218754E+05 -6.678349E+05 -3.869397E-09  1.737648E-09
        75  18 -1.771157E+06 -8.787231E+05 -4.765218E+05 -7.576142E+05 -3.852130E-09 -2.093490E-10
        75  19  9.448933E+05  1.950140E+05  2.102548E+05 -6.267149E+03 -6.416128E+04  6.215215E+04
        75  20  1.153542E+06  3.115924E+05  2.683679E+05  1.006883E+05 -1.011506E+04  7.719975E+04
        75  21  1.405022E+06  3.678030E+05  3.602344E+05  1.664217E+05  6.047996E+04  4.824649E+04
        75  22 -1.777089E+05 -2.102365E+05 -1.414290E+04 -3.130328E+05 -3.781088E+04  7.202835E+04
        75  23 -1.958292E+05 -1.961347E+05 -2.669549E+04 -2.839661E+05 -5.014038E+04  6.222066E+04
        75  24 -1.843202E+05 -2.555826E+05 -5.804444E+04 -2.961515E+05 -4.592545E+04  8.352431E+03
        75  25 -1.299018E+06 -6.153868E+05 -2.386000E+05 -6.192900E+05 -1.151144E+04  8.188588E+04
        75  26 -1.543331E+06 -7.036850E+05 -3.218559E+05 -6.678383E+05 -9.007131E+04  4.727895E+04
        75  27 -1.771131E+06 -8.787158E+05 -4.764763E+05 -7.576104E+05 -1.520292E+05 -3.141638E+04
        76   1 -1.913777E+05 -9.397930E+04 -8.304570E+04 -6.916042E+04 -1.725255E+04  6.641733E+03
        76   2 -1.199148E+05 -9.923956E+04 -6.379712E+04 -7.824920E+04 -1.973652E+03  2.208653E+04
        76   3 -4.706159E+04 -9.109173E+04 -5.114414E+04 -9.798887E+04  1.331213E+04  2.606939E+04
        76   4  3.724327E+05  4.486508E+04  4.750565E+04 -9.969339E+04  3.356699E+04  6.651858E+03
        76   5  3.693706E+05  1.615710E+04  2.399563E+04 -9.436618E+04  2.134158E+04  2.208815E+04
        76   6  3.724632E+05  5.624550E+03  1.298582E+04 -9.968825E+04  9.121089E+03  2.606738E+04
        76   7  9.365444E+05  1.836920E+05  1.780459E+05 -1.302543E+05  8.443233E+04  6.656983E+03
        76   8  8.588910E+05  1.315417E+05  1.117814E+05 -1.104962E+05  4.467466E+04  2.208856E+04
        76   9  7.921642E+05  1.023324E+05  7.711204E+04 -1.013888E+05  4.927323E+03  2.606540E+04
        76  10 -1.913780E+05 -9.397943E+04 -8.304634E+04 -6.916033E+04  1.841777E-09  3.068349E-11
        76  11 -1.199149E+05 -9.924009E+04 -6.379805E+04 -7.824917E+04  2.262433E-11 -3.258597E-10
        76  12 -4.706196E+04 -9.109250E+04 -5.114575E+04 -9.798915E+04 -2.517164E-09 -1.558121E-09
        76  13  3.724315E+05  4.486473E+04  4.750345E+04 -9.969357E+04  1.515224E-10  3.877909E-10
        76  14  3.693700E+05  1.615646E+04  2.399386E+04 -9.436656E+04  1.246936E-09  1.468406E-10
        76  15  3.724630E+05  5.623797E+03  1.298438E+04 -9.968844E+04 -1.085619E-09 -1.116555E-09
        76  16  9.365367E+05  1.836901E+05  1.780325E+05 -1.302547E+05 -8.960873E-10  5.696604E-10
        76  17  8.588887E+05  1.315407E+05  1.117767E+05 -1.104970E+05 -1.901221E-09  7.865430E-10
        76  18  7.921640E+05  1.023316E+05  7.711072E+04 -1.013889E+05  2.866630E-09 -1.451175E-10
        76  19 -1.913777E+05 -9.397930E+04 -8.304570E+04 -6.916042E+04  1.725255E+04 -6.641733E+03
        76  20 -1.199148E+05 -9.923956E+04 -6.379712E+04 -7.824920E+04  1.973652E+03 -2.208653E+04
        76  21 -4.706159E+04 -9.109173E+04 -5.114414E+04 -9.798887E+04 -1.331213E+04 -2.606939E+04
        76  22  3.724327E+05  4.486508E+04  4.750565E+04 -9.969339E+04 -3.356699E+04 -6.651858E+03
        76  23  3.693706E+05  1.615710E+04  2.399563E+04 -9.436618E+04 -2.134158E+04 -2.208815E+04
        76  24  3.724632E+05  5.624550E+03  1.298582E+04 -9.968825E+04 -9.121089E+03 -2.606738E+04
        76  25  9.365444E+05  1.836920E+05  1.780459E+05 -1.302543E+05 -8.443233E+04 -6.656983E+03
        76  26  8.588910E+05  1.315417E+05  1.117814E+05 -1.104962E+05 -4.467466E+04 -2.208856E+04
        76  27  7.921642E+05  1.023324E+05  7.711204E+04 -1.013888E+05 -4.927323E+03 -2.606540E+04
        77   1 -2.992696E+03 -8.180406E+04 -4.555146E+04 -9.747797E+04  1.253528E+04  2.452163E+04
        77   2  6.897510E+04 -6.738289E+04 -3.645625E+04 -9.296096E+04  1.363833E+04  2.161886E+04
        77   3  1.411132E+05 -5.177159E+04 -2.777850E+04 -9.994154E+04  1.474117E+04  1.716698E+04
        77   4  3.712818E+05  4.082670E+03  9.683265E+03 -9.987755E+04  7.430880E+03  2.451995E+04
        77   5  3.708847E+05  1.320182E+03  5.222653E+03 -9.412901E+04  4.814431E+03  2.161776E+04
        77   6  3.712976E+05  3.930796E+02  2.926113E+03 -9.987753E+04  2.197669E+03  1.716686E+04
        77   7  7.456973E+05  8.996290E+04  6.491557E+04 -1.022786E+05  2.323524E+03  2.451831E+04
        77   8  6.728870E+05  7.001929E+04  4.690081E+04 -9.529765E+04 -4.013561E+03  2.161669E+04
        77   9  6.015365E+05  5.255558E+04  3.363088E+04 -9.981350E+04 -1.035026E+04  1.716674E+04
        77  10 -2.993027E+03 -8.180475E+04 -4.555289E+04 -9.747822E+04 -1.393844E-07 -2.263455E-09
        77  11  6.897478E+04 -6.738344E+04 -3.645748E+04 -9.296120E+04  1.708732E-09 -2.796585E-09
        77  12  1.411128E+05 -5.177197E+04 -2.777946E+04 -9.994175E+04  1.378735E-07 -2.532084E-09
        77  13  3.712816E+05  4.082009E+03  9.682031E+03 -9.987770E+04 -3.059183E-09 -1.400930E-09
        77  14  3.708846E+05  1.319674E+03  5.221731E+03 -9.412909E+04 -6.252067E-09 -1.638197E-09
        77  15  3.712975E+05  3.927618E+02  2.925550E+03 -9.987757E+04  6.679554E-10 -1.326162E-09
        77  16  7.456972E+05  8.996225E+04  6.491443E+04 -1.022787E+05  1.368133E-07 -8.207359E-10
        77  17  6.728869E+05  7.001878E+04  4.689990E+04 -9.529758E+04 -2.512474E-09 -6.502130E-10
        77  18  6.015363E+05  5.255523E+04  3.363013E+04 -9.981335E+04 -1.394891E-07 -5.747471E-11
        77  19 -2.992696E+03 -8.180406E+04 -4.555146E+04 -9.747797E+04 -1.253528E+04 -2.452163E+04
        77  20  6.897510E+04 -6.738289E+04 -3.645625E+04 -9.296096E+04 -1.363833E+04 -2.161886E+04
        77  21  1.411132E+05 -5.177159E+04 -2.777850E+04 -9.994154E+04 -1.474117E+04 -1.716698E+04
        77  22  3.712818E+05  4.082670E+03  9.683265E+03 -9.987755E+04 -7.430880E+03 -2.451995E+04
        77  23  3.708847E+05  1.320182E+03  5.222653E+03 -9.412901E+04 -4.814431E+03 -2.161776E+04
        77  24  3.712976E+05  3.930796E+02  2.926113E+03 -9.987753E+04 -2.197669E+03 -1.716686E+04
        77  25  7.456973E+05  8.996290E+04  6.491557E+04 -1.022786E+05 -2.323524E+03 -2.451831E+04
        77  26  6.728870E+05  7.001929E+04  4.690081E+04 -9.529765E+04  4.013561E+03 -2.161669E+04
        77  27  6.015365E+05  5.255558E+04  3.363088E+04 -9.981350E+04  1.035026E+04 -1.716674E+04
        78   1  1.854954E+05 -4.173195E+04 -2.223402E+04 -9.984675E+04  1.443397E+04  1.405392E+04
        78   2  2.575055E+05 -2.562644E+04 -1.359963E+04 -9.410291E+04  1.432323E+04  8.673022E+03
        78   3  3.295608E+05 -9.434083E+03 -4.870122E+03 -9.996873E+04  1.421220E+04  3.083604E+03
        78   4  3.711495E+05  2.748374E+02  2.203826E+03 -9.990258E+04  1.767287E+03  1.405423E+04
        78   5  3.710885E+05  4.848244E+01  1.232401E+03 -9.409783E+04  1.155173E+03  8.673763E+03
        78   6  3.711553E+05 -3.671347E+00  7.038933E+02 -9.990261E+04  5.427805E+02  3.084790E+03
        78   7  5.568391E+05  4.228025E+04  2.664204E+04 -9.995842E+04 -1.090300E+04  1.405454E+04
        78   8  4.846850E+05  2.572296E+04  1.606500E+04 -9.409275E+04 -1.201518E+04  8.674504E+03
        78   9  4.127519E+05  9.426766E+03  6.278596E+03 -9.983649E+04 -1.312751E+04  3.085974E+03
        78  10  1.854951E+05 -4.173222E+04 -2.223479E+04 -9.984692E+04  9.644248E-09 -1.002170E-09
        78  11  2.575052E+05 -2.562657E+04 -1.360016E+04 -9.410301E+04 -2.145281E-08  1.469778E-09
        78  12  3.295605E+05 -9.434147E+03 -4.870520E+03 -9.996876E+04 -5.533203E-08  1.214150E-09
        78  13  3.711494E+05  2.746244E+02  2.203448E+03 -9.990260E+04  2.020507E-09 -1.770002E-10
        78  14  3.710884E+05  4.840128E+01  1.232257E+03 -9.409784E+04  1.200238E-11  1.357534E-09
        78  15  3.711553E+05 -3.681647E+00  7.038749E+02 -9.990261E+04 -2.698686E-09  6.320025E-10
        78  16  5.568389E+05  4.228001E+04  2.664144E+04 -9.995830E+04 -1.087788E-08  6.781146E-10
        78  17  4.846848E+05  2.572284E+04  1.606459E+04 -9.409267E+04  1.961278E-08  1.175730E-09
        78  18  4.127518E+05  9.426710E+03  6.278255E+03 -9.983646E+04  5.567599E-08  1.455709E-11
        78  19  1.854954E+05 -4.173195E+04 -2.223402E+04 -9.984675E+04 -1.443397E+04 -1.405392E+04
        78  20  2.575055E+05 -2.562644E+04 -1.359963E+04 -9.410291E+04 -1.432323E+04 -8.673022E+03
        78  21  3.295608E+05 -9.434083E+03 -4.870122E+03 -9.996873E+04 -1.421220E+04 -3.083604E+03
        78  22  3.711495E+05  2.748374E+02  2.203826E+03 -9.990258E+04 -1.767287E+03 -1.405423E+04
        78  23  3.710885E+05  4.848244E+01  1.232401E+03 -9.409783E+04 -1.155173E+03 -8.673763E+03
        78  24  3.711553E+05 -3.671347E+00  7.038933E+02 -9.990261E+04 -5.427805E+02 -3.084790E+03
        78  25  5.568391E+05  4.228025E+04  2.664204E+04 -9.995842E+04  1.090300E+04 -1.405454E+04
        78  26  4.846850E+05  2.572296E+04  1.606500E+04 -9.409275E+04  1.201518E+04 -8.674504E+03
        78  27  4.127519E+05  9.426766E+03  6.278596E+03 -9.983649E+04  1.312751E+04 -3.085974E+03
        79   1  3.739769E+05  6.297057E+02  8.720282E+02 -9.994982E+04  1.411920E+04 -2.396793E+02
        79   2  4.460037E+05  1.683356E+04  9.721916E+03 -9.412623E+04  1.402287E+04 -5.950612E+03
        79   3  5.180546E+05  3.304082E+04  1.863691E+04 -9.992722E+04  1.392674E+04 -1.168400E+04
        79   4  3.711332E+05 -6.412442E+00  5.336126E+02 -9.990598E+04  4.331450E+02 -2.384510E+02
        79   5  3.711179E+05 -1.978167E+01  3.052058E+02 -9.409365E+04  2.820025E+02 -5.949653E+03
        79   6  3.711295E+05 -2.044282E+01  1.790667E+02 -9.990598E+04  1.310842E+02 -1.168332E+04
        79   7  3.682899E+05 -6.424304E+02  1.959006E+02 -9.986214E+04 -1.325285E+04 -2.372246E+02
        79   8  2.962382E+05 -1.687324E+04 -9.110811E+03 -9.406108E+04 -1.345729E+04 -5.948695E+03
        79   9  2.242270E+05 -3.308248E+04 -1.827811E+04 -9.988475E+04 -1.366148E+04 -1.168265E+04
        79  10  3.739766E+05  6.296522E+02  8.716537E+02 -9.994981E+04  2.843806E-08  1.435092E-09
        79  11  4.460035E+05  1.683346E+04  9.721481E+03 -9.412616E+04  2.913371E-08  4.160987E-09
        79  12  5.180543E+05  3.304062E+04  1.863628E+04 -9.992709E+04  2.899496E-08  6.670709E-09
        79  13  3.711332E+05 -6.412553E+00  5.336122E+02 -9.990598E+04 -2.151373E-09 -1.395317E-09
        79  14  3.711179E+05 -1.981971E+01  3.051392E+02 -9.409365E+04  1.021300E-09 -6.074242E-09
        79  15  3.711295E+05 -2.058942E+01  1.788101E+02 -9.990598E+04 -9.133921E-10 -1.074434E-08
        79  16  3.682897E+05 -6.424776E+02  1.955707E+02 -9.986214E+04 -2.839431E-08  2.303182E-10
        79  17  2.962380E+05 -1.687333E+04 -9.111217E+03 -9.406114E+04 -3.042368E-08  3.391126E-09
        79  18  2.242267E+05 -3.308268E+04 -1.827872E+04 -9.988488E+04 -3.040080E-08  6.807152E-09
        79  19  3.739769E+05  6.297057E+02  8.720282E+02 -9.994982E+04 -1.411920E+04  2.396793E+02
        79  20  4.460037E+05  1.683356E+04  9.721916E+03 -9.412623E+04 -1.402287E+04  5.950612E+03
        79  21  5.180546E+05  3.304082E+04  1.863691E+04 -9.992722E+04 -1.392674E+04  1.168400E+04
        79  22  3.711332E+05 -6.412442E+00  5.336126E+02 -9.990598E+04 -4.331450E+02  2.384510E+02
        79  23  3.711179E+05 -1.978167E+01  3.052058E+02 -9.409365E+04 -2.820025E+02  5.949653E+03
        79  24  3.711295E+05 -2.044282E+01  1.790667E+02 -9.990598E+04 -1.310842E+02  1.168332E+04
        79  25  3.682899E+05 -6.424304E+02  1.959006E+02 -9.986214E+04  1.325285E+04  2.372246E+02
        79  26  2.962382E+05 -1.687324E+04 -9.110811E+03 -9.406108E+04  1.345729E+04  5.948695E+03
        79  27  2.242270E+05 -3.308248E+04 -1.827811E+04 -9.988475E+04  1.366148E+04  1.168265E+04
        80   1  5.624883E+05  4.309534E+04  2.447153E+04 -9.992114E+04  1.389794E+04 -1.502971E+04
        80   2  6.345341E+05  5.929762E+04  3.347694E+04 -9.409213E+04  1.375969E+04 -2.075339E+04
        80   3  7.066165E+05  7.551541E+04  4.257888E+04 -9.988915E+04  1.362220E+04 -2.643686E+04
        80   4  3.711239E+05 -2.310084E+01  1.388552E+02 -9.990635E+04  1.023167E+02 -1.502941E+04
        80   5  3.711102E+05 -3.416106E+01  8.614269E+01 -9.409319E+04  5.988127E+01 -2.075406E+04
        80   6  3.711108E+05 -4.624890E+01  6.297065E+01 -9.990636E+04  1.821624E+01 -2.643852E+04
        80   7  1.797975E+05 -4.314293E+04 -2.419324E+04 -9.989157E+04 -1.368926E+04 -1.502910E+04
        80   8  1.077578E+05 -5.936867E+04 -3.330418E+04 -9.409426E+04 -1.363441E+04 -2.075474E+04
        80   9  3.572106E+04 -7.561240E+04 -4.245263E+04 -9.992354E+04 -1.357879E+04 -2.644017E+04
        80  10  5.624880E+05  4.309504E+04  2.447074E+04 -9.992097E+04 -4.173019E-08  6.399089E-09
        80  11  6.345338E+05  5.929710E+04  3.347577E+04 -9.409190E+04 -6.985101E-09  3.437373E-09
        80  12  7.066161E+05  7.551461E+04  4.257722E+04 -9.988886E+04  2.914238E-08  7.455709E-10
        80  13  3.711238E+05 -2.334344E+01  1.384307E+02 -9.990635E+04  1.359120E-09 -1.072434E-08
        80  14  3.711101E+05 -3.462367E+01  8.533312E+01 -9.409319E+04  2.866183E-10 -6.060298E-09
        80  15  3.711107E+05 -4.699963E+01  6.165687E+01 -9.990636E+04 -3.444986E-09 -1.646601E-09
        80  16  1.797972E+05 -4.314323E+04 -2.419402E+04 -9.989174E+04  4.317360E-08  7.072627E-09
        80  17  1.077575E+05 -5.936918E+04 -3.330534E+04 -9.409448E+04  8.007852E-09  3.912017E-09
        80  18  3.572067E+04 -7.561320E+04 -4.245429E+04 -9.992383E+04 -2.908490E-08  2.714989E-10
        80  19  5.624883E+05  4.309534E+04  2.447153E+04 -9.992114E+04 -1.389794E+04  1.502971E+04
        80  20  6.345341E+05  5.929762E+04  3.347694E+04 -9.409213E+04 -1.375969E+04  2.075339E+04
        80  21  7.066165E+05  7.551541E+04  4.257888E+04 -9.988915E+04 -1.362220E+04  2.643686E+04
        80  22  3.711239E+05 -2.310084E+01  1.388552E+02 -9.990635E+04 -1.023167E+02  1.502941E+04
        80  23  3.711102E+05 -3.416106E+01  8.614269E+01 -9.409319E+04 -5.988127E+01  2.075406E+04
        80  24  3.711108E+05 -4.624890E+01  6.297065E+01 -9.990636E+04 -1.821624E+01  2.643852E+04
        80  25  1.797975E+05 -4.314293E+04 -2.419324E+04 -9.989157E+04  1.368926E+04  1.502910E+04
        80  26  1.077578E+05 -5.936867E+04 -3.330418E+04 -9.409426E+04  1.363441E+04  2.075474E+04
        80  27  3.572106E+04 -7.561240E+04 -4.245263E+04 -9.992354E+04  1.357879E+04  2.644017E+04
        81   1  7.510946E+05  8.558435E+04  4.852108E+04 -9.987353E+04  1.358785E+04 -2.974194E+04
        81   2  8.231193E+05  1.018445E+05  5.794307E+04 -9.403998E+04  1.276809E+04 -3.522994E+04
        81   3  8.953099E+05  1.182449E+05  6.793890E+04 -9.981452E+04  1.194942E+04 -4.038890E+04
        81   4  3.711072E+05 -5.518015E+01  5.904903E+01 -9.990241E+04  7.741743E+00 -2.974437E+04
        81   5  3.710837E+05 -7.499259E+01  6.199110E+01 -9.409812E+04 -2.200824E+01 -3.523393E+04
        81   6  3.710848E+05 -9.114852E+01  9.055767E+01 -9.990241E+04 -5.058495E+01 -4.039433E+04
        81   7 -8.731830E+03 -8.570054E+04 -4.840287E+04 -9.993127E+04 -1.356447E+04 -2.974680E+04
        81   8 -8.074231E+04 -1.020028E+05 -5.781937E+04 -9.415621E+04 -1.280326E+04 -3.523792E+04
        81   9 -1.528589E+05 -1.184386E+05 -6.775872E+04 -9.999021E+04 -1.204096E+04 -4.039975E+04
        81  10  7.510942E+05  8.558335E+04  4.851907E+04 -9.987320E+04 -1.196525E-09  6.385721E-10
        81  11  8.231188E+05  1.018431E+05  5.794043E+04 -9.403962E+04 -1.702246E-09  1.560049E-09
        81  12  8.953093E+05  1.182431E+05  6.793556E+04 -9.981413E+04 -1.306088E-09  3.260119E-09
        81  13  3.711070E+05 -5.613036E+01  5.738616E+01 -9.990241E+04  2.137353E-09  3.759688E-10
        81  14  3.710833E+05 -7.632590E+01  5.965780E+01 -9.409812E+04 -1.180810E-09  1.835188E-09
        81  15  3.710844E+05 -9.290099E+01  8.749085E+01 -9.990241E+04 -3.002218E-09  2.030660E-09
        81  16 -8.732266E+03 -8.570154E+04 -4.840488E+04 -9.993159E+04  1.508555E-09  5.194239E-11
        81  17 -8.074282E+04 -1.020042E+05 -5.782201E+04 -9.415657E+04 -1.371937E-09  1.869453E-09
        81  18 -1.528595E+05 -1.184404E+05 -6.776206E+04 -9.999060E+04  1.259507E-09  1.144703E-09
        81  19  7.510946E+05  8.558435E+04  4.852108E+04 -9.987353E+04 -1.358785E+04  2.974194E+04
        81  20  8.231193E+05  1.018445E+05  5.794307E+04 -9.403998E+04 -1.276809E+04  3.522994E+04
        81  21  8.953099E+05  1.182449E+05  6.793890E+04 -9.981452E+04 -1.194942E+04  4.038890E+04
        81  22  3.711072E+05 -5.518015E+01  5.904903E+01 -9.990241E+04 -7.741743E+00  2.974437E+04
        81  23  3.710837E+05 -7.499259E+01  6.199110E+01 -9.409812E+04  2.200824E+01  3.523393E+04
        81  24  3.710848E+05 -9.114852E+01  9.055767E+01 -9.990241E+04  5.058495E+01  4.039433E+04
        81  25 -8.731830E+03 -8.570054E+04 -4.840287E+04 -9.993127E+04  1.356447E+04  2.974680E+04
        81  26 -8.074231E+04 -1.020028E+05 -5.781937E+04 -9.415621E+04  1.280326E+04  3.523792E+04
        81  27 -1.528589E+05 -1.184386E+05 -6.775872E+04 -9.999021E+04  1.204096E+04  4.039975E+04
        82   1  9.399789E+05  1.284610E+05  7.447279E+04 -9.974555E+04  1.174112E+04 -4.336165E+04
        82   2  1.011615E+06  1.452127E+05  8.668081E+04 -9.401972E+04  5.773848E+03 -4.705430E+04
        82   3  1.084341E+06  1.630503E+05  1.030507E+05 -9.972224E+04 -1.941732E+02 -4.830270E+04
        82   4  3.710847E+05 -1.010263E+02  1.149330E+02 -9.986252E+04 -6.672149E+01 -4.336811E+04
        82   5  3.710366E+05 -9.593119E+01  1.914246E+02 -9.414799E+04 -1.596885E+02 -4.706097E+04
        82   6  3.710534E+05 -2.347719E+01  3.545572E+02 -9.986254E+04 -2.526549E+02 -4.830824E+04
        82   7 -1.974786E+05 -1.286766E+05 -7.424443E+04 -9.997937E+04 -1.186427E+04 -4.337457E+04
        82   8 -2.691244E+05 -1.454222E+05 -8.630167E+04 -9.427611E+04 -6.087392E+03 -4.706764E+04
        82   9 -3.417207E+05 -1.631205E+05 -1.023496E+05 -1.000027E+05 -3.110722E+02 -4.831378E+04
        82  10  9.399783E+05  1.284590E+05  7.446899E+04 -9.974514E+04 -2.877403E-09  3.660764E-09
        82  11  1.011614E+06  1.452103E+05  8.667658E+04 -9.401950E+04 -3.167950E-10  2.324757E-09
        82  12  1.084340E+06  1.630478E+05  1.030463E+05 -9.972224E+04  4.093280E-09 -9.277139E-10
        82  13  3.710842E+05 -1.030463E+02  1.113980E+02 -9.986252E+04 -1.069371E-09  1.927843E-09
        82  14  3.710360E+05 -9.830985E+01  1.872619E+02 -9.414799E+04 -4.249279E-09  1.230392E-09
        82  15  3.710528E+05 -2.598362E+01  3.501709E+02 -9.986255E+04  6.278515E-10 -6.111301E-10
        82  16 -1.974793E+05 -1.286786E+05 -7.424824E+04 -9.997978E+04  5.361145E-10  3.660221E-10
        82  17 -2.691250E+05 -1.454246E+05 -8.630591E+04 -9.427634E+04  3.039957E-09  1.033341E-09
        82  18 -3.417214E+05 -1.631230E+05 -1.023539E+05 -1.000027E+05 -4.543588E-10 -9.065599E-11
        82  19  9.399789E+05  1.284610E+05  7.447279E+04 -9.974555E+04 -1.174112E+04  4.336165E+04
        82  20  1.011615E+06  1.452127E+05  8.668081E+04 -9.401972E+04 -5.773848E+03  4.705430E+04
        82  21  1.084341E+06  1.630503E+05  1.030507E+05 -9.972224E+04  1.941732E+02  4.830270E+04
        82  22  3.710847E+05 -1.010263E+02  1.149330E+02 -9.986252E+04  6.672149E+01  4.336811E+04
        82  23  3.710366E+05 -9.593119E+01  1.914246E+02 -9.414799E+04  1.596885E+02  4.706097E+04
        82  24  3.710534E+05 -2.347719E+01  3.545572E+02 -9.986254E+04  2.526549E+02  4.830824E+04
        82  25 -1.974786E+05 -1.286766E+05 -7.424443E+04 -9.997937E+04  1.186427E+04  4.337457E+04
        82  26 -2.691244E+05 -1.454222E+05 -8.630167E+04 -9.427611E+04  6.087392E+03  4.706764E+04
        82  27 -3.417207E+05 -1.631205E+05 -1.023496E+05 -1.000027E+05  3.110722E+02  4.831378E+04
        83   1  1.130214E+06  1.743791E+05  1.138316E+05 -9.935211E+04 -1.696782E+03 -4.880546E+04
        83   2  1.198658E+06  1.948872E+05  1.463911E+05 -9.478245E+04 -4.561099E+04 -3.920633E+04
        83   3  1.274928E+06  2.236335E+05  2.095769E+05 -1.002973E+05 -8.954904E+04 -1.152111E+04
        83   4  3.710904E+05  1.804530E+01  4.758807E+02 -9.956346E+04 -3.148834E+02 -4.881070E+04
        83   5  3.709287E+05  3.909540E+02  8.684592E+02 -9.452203E+04 -7.480568E+02 -3.918727E+04
        83   6  3.710519E+05  1.465552E+03  1.725863E+03 -9.956416E+04 -1.198413E+03 -1.146672E+04
        83   7 -3.874549E+05 -1.743701E+05 -1.128909E+05 -9.977455E+04  1.065396E+03 -4.881595E+04
        83   8 -4.561272E+05 -1.941416E+05 -1.446716E+05 -9.426201E+04  4.405693E+04 -3.916817E+04
        83   9 -5.320526E+05 -2.207552E+05 -2.061499E+05 -9.883220E+04  8.702482E+04 -1.141209E+04
        83  10  1.130213E+06  1.743765E+05  1.138271E+05 -9.935218E+04 -6.552268E-08 -2.813081E-09
        83  11  1.198655E+06  1.948850E+05  1.463844E+05 -9.478389E+04 -1.641689E-09 -3.836310E-09
        83  12  1.274919E+06  2.236312E+05  2.095616E+05 -1.002981E+05  6.314365E-08 -1.145768E-09
        83  13  3.710897E+05  1.548646E+01  4.714025E+02 -9.956347E+04  1.744705E-09 -3.769819E-09
        83  14  3.709283E+05  3.893045E+02  8.655718E+02 -9.452205E+04  1.551869E-09 -6.665614E-10
        83  15  3.710518E+05  1.465410E+03  1.725614E+03 -9.956417E+04  1.168111E-09 -5.565988E-10
        83  16 -3.874555E+05 -1.743727E+05 -1.128954E+05 -9.977451E+04  6.771947E-08 -1.260813E-09
        83  17 -4.561296E+05 -1.941438E+05 -1.446781E+05 -9.426062E+04  1.036398E-09 -8.531818E-10
        83  18 -5.320608E+05 -2.207574E+05 -2.061644E+05 -9.883140E+04 -6.319857E-08 -1.343909E-09
        83  19  1.130214E+06  1.743791E+05  1.138316E+05 -9.935211E+04  1.696782E+03  4.880546E+04
        83  20  1.198658E+06  1.948872E+05  1.463911E+05 -9.478245E+04  4.561099E+04  3.920633E+04
        83  21  1.274928E+06  2.236335E+05  2.095769E+05 -1.002973E+05  8.954904E+04  1.152111E+04
        83  22  3.710904E+05  1.804530E+01  4.758807E+02 -9.956346E+04  3.148834E+02  4.881070E+04
        83  23  3.709287E+05  3.909540E+02  8.684592E+02 -9.452203E+04  7.480568E+02  3.918727E+04
        83  24  3.710519E+05  1.465552E+03  1.725863E+03 -9.956416E+04  1.198413E+03  1.146672E+04
        83  25 -3.874549E+05 -1.743701E+05 -1.128909E+05 -9.977455E+04 -1.065396E+03  4.881595E+04
        83  26 -4.561272E+05 -1.941416E+05 -1.446716E+05 -9.426201E+04 -4.405693E+04  3.916817E+04
        83  27 -5.320526E+05 -2.207552E+05 -2.061499E+05 -9.883220E+04 -8.702482E+04  1.141209E+04
        84   1  1.953783E+05  9.423989E+05  1.867088E+05 -2.540398E+05  7.552123E+03  5.599048E+04
        84   2  1.390284E+05  7.475105E+05  1.138469E+05 -2.366056E+05  2.297482E+04  1.656617E+04
        84   3  9.157900E+04  5.599951E+05  6.884860E+04 -2.504785E+05  2.180012E+04 -2.285082E+04
        84   4  5.254117E+03  1.724948E+05  5.512721E+03 -2.500976E+05  7.596203E+03  2.489030E+03
        84   5  2.005659E+03  1.721099E+05  3.839551E+03 -2.344450E+05  2.299059E+04  5.590187E+02
        84   6  1.160830E+03  1.725677E+05  4.019403E+03 -2.501008E+05  2.178068E+04 -1.375731E+03
        84   7 -1.849108E+05 -5.968583E+05 -1.757134E+05 -2.461601E+05  7.639642E+03 -5.094654E+04
        84   8 -1.350365E+05 -4.029715E+05 -1.061819E+05 -2.322864E+05  2.300626E+04 -1.543365E+04
        84   9 -8.926493E+04 -2.147106E+05 -6.081272E+04 -2.497233E+05  2.176127E+04  2.008641E+04
        84  10  1.953774E+05  9.423955E+05  1.867028E+05 -2.540402E+05 -3.678869E-10  2.568343E-08
        84  11  1.390278E+05  7.475100E+05  1.138454E+05 -2.366059E+05  8.317621E-09 -8.590906E-09
        84  12  9.157835E+04  5.599944E+05  6.884673E+04 -2.504780E+05  8.884627E-09 -4.286420E-08
        84  13  5.254053E+03  1.724948E+05  5.512600E+03 -2.500976E+05 -1.549901E-10 -4.520802E-10
        84  14  2.005091E+03  1.721098E+05  3.838557E+03 -2.344451E+05 -5.189817E-09 -2.339870E-10
        84  15  1.160320E+03  1.725676E+05  4.018508E+03 -2.501007E+05 -1.039645E-08 -1.606896E-09
        84  16 -1.849116E+05 -5.968611E+05 -1.757184E+05 -2.461598E+05  2.904584E-09 -2.612244E-08
        84  17 -1.350371E+05 -4.029719E+05 -1.061833E+05 -2.322861E+05  5.649645E-09  8.803059E-09
        84  18 -8.926554E+04 -2.147112E+05 -6.081437E+04 -2.497236E+05  4.703005E-09  4.355468E-08
        84  19  1.953783E+05  9.423989E+05  1.867088E+05 -2.540398E+05 -7.552123E+03 -5.599048E+04
        84  20  1.390284E+05  7.475105E+05  1.138469E+05 -2.366056E+05 -2.297482E+04 -1.656617E+04
        84  21  9.157900E+04  5.599951E+05  6.884860E+04 -2.504785E+05 -2.180012E+04  2.285082E+04
        84  22  5.254117E+03  1.724948E+05  5.512721E+03 -2.500976E+05 -7.596203E+03 -2.489030E+03
        84  23  2.005659E+03  1.721099E+05  3.839551E+03 -2.344450E+05 -2.299059E+04 -5.590187E+02
        84  24  1.160830E+03  1.725677E+05  4.019403E+03 -2.501008E+05 -2.178068E+04  1.375731E+03
        84  25 -1.849108E+05 -5.968583E+05 -1.757134E+05 -2.461601E+05 -7.639642E+03  5.094654E+04
        84  26 -1.350365E+05 -4.029715E+05 -1.061819E+05 -2.322864E+05 -2.300626E+04  1.543365E+04
        84  27 -8.926493E+04 -2.147106E+05 -6.081272E+04 -2.497233E+05 -2.176127E+04 -2.008641E+04
        85   1  6.344367E+04  4.401042E+05  4.873436E+04 -2.509553E+05  1.549873E+04 -2.418405E+04
        85   2  1.930726E+04  2.484583E+05  1.809310E+04 -2.331345E+05  5.516070E+03 -2.861743E+04
        85   3 -2.225303E+04  5.803150E+04 -9.031417E+03 -2.477257E+05 -4.859726E+03 -3.305023E+04
        85   4  1.142074E+03  1.726234E+05  4.615816E+03 -2.503461E+05  1.547748E+04 -2.086472E+03
        85   5  1.840223E+03  1.721138E+05  7.071092E+03 -2.341386E+05  5.493513E+03 -5.635639E+03
        85   6  4.962273E+03  1.726327E+05  1.242769E+04 -2.503429E+05 -4.883622E+03 -9.185474E+03
        85   7 -6.116295E+04 -9.478577E+04 -3.950300E+04 -2.497371E+05  1.545625E+04  2.000191E+04
        85   8 -1.562679E+04  9.577632E+04 -3.949021E+03 -2.351425E+05  5.470880E+03  1.734345E+04
        85   9  3.217715E+04  2.872479E+05  3.388837E+04 -2.529605E+05 -4.907716E+03  1.468357E+04
        85  10  6.344325E+04  4.401035E+05  4.873281E+04 -2.509550E+05  6.654754E-09  4.007770E-08
        85  11  1.930701E+04  2.484574E+05  1.809150E+04 -2.331344E+05  7.895421E-09  3.827996E-09
        85  12 -2.225335E+04  5.803032E+04 -9.033514E+03 -2.477259E+05  3.653705E-10 -3.043115E-08
        85  13  1.141816E+03  1.726233E+05  4.615358E+03 -2.503461E+05 -8.804100E-09 -6.432031E-10
        85  14  1.840182E+03  1.721138E+05  7.070976E+03 -2.341386E+05  1.114011E-09 -3.199507E-10
        85  15  4.962225E+03  1.726326E+05  1.242749E+04 -2.503429E+05 -1.440060E-09 -1.666996E-09
        85  16 -6.116331E+04 -9.478626E+04 -3.950420E+04 -2.497373E+05  5.660783E-09 -4.070736E-08
        85  17 -1.562691E+04  9.577599E+04 -3.949643E+03 -2.351426E+05 -2.912474E-11 -3.771719E-09
        85  18  3.217707E+04  2.872476E+05  3.388792E+04 -2.529604E+05  1.156057E-09  3.128516E-08
        85  19  6.344367E+04  4.401042E+05  4.873436E+04 -2.509553E+05 -1.549873E+04  2.418405E+04
        85  20  1.930726E+04  2.484583E+05  1.809310E+04 -2.331345E+05 -5.516070E+03  2.861743E+04
        85  21 -2.225303E+04  5.803150E+04 -9.031417E+03 -2.477257E+05  4.859726E+03  3.305023E+04
        85  22  1.142074E+03  1.726234E+05  4.615816E+03 -2.503461E+05 -1.547748E+04  2.086472E+03
        85  23  1.840223E+03  1.721138E+05  7.071092E+03 -2.341386E+05 -5.493513E+03  5.635639E+03
        85  24  4.962273E+03  1.726327E+05  1.242769E+04 -2.503429E+05  4.883622E+03  9.185474E+03
        85  25 -6.116295E+04 -9.478577E+04 -3.950300E+04 -2.497371E+05 -1.545625E+04 -2.000191E+04
        85  26 -1.562679E+04  9.577632E+04 -3.949021E+03 -2.351425E+05 -5.470880E+03 -1.734345E+04
        85  27  3.217715E+04  2.872479E+05  3.388837E+04 -2.529605E+05  4.907716E+03 -1.468357E+04
        86   1 -4.873099E+04 -6.011374E+04 -2.511706E+04 -2.488821E+05 -1.153913E+04 -3.472214E+04
        86   2 -8.201864E+04 -2.525706E+05 -5.326025E+04 -2.146570E+05 -1.519201E+04 -1.971031E+04
        86   3 -9.618523E+04 -4.421822E+05 -8.640460E+04 -2.119968E+05 -5.382929E+03 -4.698044E+03
        86   4  6.444619E+03  1.741904E+05  1.645499E+04 -2.501549E+05 -1.156197E+04 -1.134207E+04
        86   5  1.923470E+04  1.701257E+05  3.008593E+04 -2.343562E+05 -1.518409E+04 -2.669716E+04
        86   6  5.640888E+04  1.741325E+05  5.979807E+04 -2.501150E+05 -5.349374E+03 -4.204714E+04
        86   7  6.161750E+04  4.085493E+05  5.802705E+04 -2.514282E+05 -1.158490E+04  1.204656E+04
        86   8  1.204787E+05  5.929941E+05  1.134238E+05 -2.540690E+05 -1.517573E+04 -3.368865E+04
        86   9  2.089818E+05  7.908022E+05  2.059803E+05 -2.882712E+05 -5.311254E+03 -7.943312E+04
        86  10 -4.873146E+04 -6.011507E+04 -2.511958E+04 -2.488824E+05 -1.034858E-09  1.420525E-09
        86  11 -8.201899E+04 -2.525711E+05 -5.326141E+04 -2.146573E+05  3.610390E-09 -3.033991E-10
        86  12 -9.618526E+04 -4.421822E+05 -8.640470E+04 -2.119968E+05  7.491404E-10 -1.567668E-09
        86  13  6.444441E+03  1.741902E+05  1.645450E+04 -2.501550E+05  1.573630E-09 -6.598187E-10
        86  14  1.923426E+04  1.701249E+05  3.008416E+04 -2.343565E+05  4.067336E-10 -3.059772E-10
        86  15  5.640837E+04  1.741306E+05  5.979469E+04 -2.501152E+05  2.387155E-09 -1.358608E-09
        86  16  6.161732E+04  4.085491E+05  5.802652E+04 -2.514281E+05  5.329336E-10 -1.990266E-09
        86  17  1.204781E+05  5.929928E+05  1.134212E+05 -2.540694E+05 -4.696983E-10  5.054822E-10
        86  18  2.089801E+05  7.907954E+05  2.059684E+05 -2.882716E+05 -2.648307E-10  2.272580E-09
        86  19 -4.873099E+04 -6.011374E+04 -2.511706E+04 -2.488821E+05  1.153913E+04  3.472214E+04
        86  20 -8.201864E+04 -2.525706E+05 -5.326025E+04 -2.146570E+05  1.519201E+04  1.971031E+04
        86  21 -9.618523E+04 -4.421822E+05 -8.640460E+04 -2.119968E+05  5.382929E+03  4.698044E+03
        86  22  6.444619E+03  1.741904E+05  1.645499E+04 -2.501549E+05  1.156197E+04  1.134207E+04
        86  23  1.923470E+04  1.701257E+05  3.008593E+04 -2.343562E+05  1.518409E+04  2.669716E+04
        86  24  5.640888E+04  1.741325E+05  5.979807E+04 -2.501150E+05  5.349374E+03  4.204714E+04
        86  25  6.161750E+04  4.085493E+05  5.802705E+04 -2.514282E+05  1.158490E+04 -1.204656E+04
        86  26  1.204787E+05  5.929941E+05  1.134238E+05 -2.540690E+05  1.517573E+04  3.368865E+04
        86  27  2.089818E+05  7.908022E+05  2.059803E+05 -2.882712E+05  5.311254E+03  7.943312E+04
        87   1 -3.915996E+05 -2.209879E+05 -1.373471E+05 -1.676077E+05 -6.793727E+04 -2.183298E+04
        87   2 -3.680546E+05 -1.383589E+05 -7.858880E+04 -1.564918E+05 -4.237081E+04 -4.093404E+03
        87   3 -3.600955E+05 -1.049845E+05 -5.294590E+04 -1.401760E+05 -1.453690E+04  7.612924E+03
        87   4 -1.972904E+05 -1.095731E+05 -7.962900E+04 -7.481059E+04 -5.266183E+04 -1.610448E+04
        87   5 -1.860317E+05 -5.487382E+04 -3.658000E+04 -8.903228E+04 -3.617225E+04 -1.768646E+03
        87   6 -1.885551E+05 -4.762495E+04 -1.944747E+04 -9.805686E+04 -1.741646E+04  6.532117E+03
        87   7 -2.942734E+03  1.860689E+03 -2.191406E+04  1.801654E+04 -3.738143E+04 -1.037173E+04
        87   8 -3.974864E+03  2.861928E+04  5.426644E+03 -2.155303E+04 -2.997177E+04  5.572545E+02
        87   9 -1.698336E+04  9.736374E+03  1.404994E+04 -5.592724E+04 -2.029688E+04  5.451045E+03
        87  10 -3.916047E+05 -2.209896E+05 -1.373567E+05 -1.676089E+05 -1.075551E-09 -2.678645E-10
        87  11 -3.680566E+05 -1.383594E+05 -7.859221E+04 -1.564919E+05 -2.397008E-08 -8.304155E-09
        87  12 -3.600958E+05 -1.049847E+05 -5.294641E+04 -1.401759E+05 -3.875161E-08 -1.240600E-08
        87  13 -1.972935E+05 -1.095741E+05 -7.963470E+04 -7.481127E+04 -2.758163E-09 -1.387133E-09
        87  14 -1.860331E+05 -5.487418E+04 -3.658247E+04 -8.903233E+04 -1.225412E-08 -7.492912E-09
        87  15 -1.885554E+05 -4.762507E+04 -1.944812E+04 -9.805677E+04 -8.520510E-09 -1.205538E-08
        87  16 -2.944263E+03  1.860198E+03 -2.191689E+04  1.801623E+04 -3.369418E-09 -1.338819E-09
        87  17 -3.975829E+03  2.861904E+04  5.424955E+03 -2.155301E+04  4.332139E-09  3.651047E-09
        87  18 -1.698381E+04  9.736232E+03  1.404911E+04 -5.592715E+04  1.346614E-08  6.200878E-09
        87  19 -3.915996E+05 -2.209879E+05 -1.373471E+05 -1.676077E+05  6.793727E+04  2.183298E+04
        87  20 -3.680546E+05 -1.383589E+05 -7.858880E+04 -1.564918E+05  4.237081E+04  4.093404E+03
        87  21 -3.600955E+05 -1.049845E+05 -5.294590E+04 -1.401760E+05  1.453690E+04 -7.612924E+03
        87  22 -1.972904E+05 -1.095731E+05 -7.962900E+04 -7.481059E+04  5.266183E+04  1.610448E+04
        87  23 -1.860317E+05 -5.487382E+04 -3.658000E+04 -8.903228E+04  3.617225E+04  1.768646E+03
        87  24 -1.885551E+05 -4.762495E+04 -1.944747E+04 -9.805686E+04  1.741646E+04 -6.532117E+03
        87  25 -2.942734E+03  1.860689E+03 -2.191406E+04  1.801654E+04  3.738143E+04  1.037173E+04
        87  26 -3.974864E+03  2.861928E+04  5.426644E+03 -2.155303E+04  2.997177E+04 -5.572545E+02
        87  27 -1.698336E+04  9.736374E+03  1.404994E+04 -5.592724E+04  2.029688E+04 -5.451045E+03
        88   1 -3.347678E+05 -1.044492E+05 -4.447948E+04 -1.385695E+05 -1.293308E+04  6.907879E+03
        88   2 -3.097638E+05 -8.916507E+04 -3.159308E+04 -1.282676E+05 -7.800307E+03  7.199062E+03
        88   3 -2.811403E+05 -8.101254E+04 -2.268656E+04 -1.233432E+05 -2.501421E+03  7.047603E+03
        88   4 -1.861643E+05 -4.932900E+04 -1.478851E+04 -9.639277E+04 -1.475828E+04  6.222712E+03
        88   5 -1.878597E+05 -4.455754E+04 -7.809035E+03 -9.418043E+04 -1.029080E+04  6.264421E+03
        88   6 -1.858039E+05 -4.678556E+04 -4.281479E+03 -9.734601E+04 -5.657392E+03  5.863452E+03
        88   7 -3.753927E+04  5.792797E+03  1.490105E+04 -5.420694E+04 -1.658394E+04  5.537367E+03
        88   8 -6.594012E+04  5.134603E+01  1.597437E+04 -6.008706E+04 -1.278181E+04  5.329581E+03
        88   9 -9.045727E+04 -1.255751E+04  1.412348E+04 -7.134491E+04 -8.813909E+03  4.679102E+03
        88  10 -3.347680E+05 -1.044493E+05 -4.447988E+04 -1.385695E+05  7.274954E-09  7.290210E-09
        88  11 -3.097639E+05 -8.916514E+04 -3.159329E+04 -1.282675E+05  8.181559E-09  9.746253E-09
        88  12 -2.811403E+05 -8.101259E+04 -2.268667E+04 -1.233432E+05  8.388756E-09  4.906682E-09
        88  13 -1.861646E+05 -4.932910E+04 -1.478900E+04 -9.639269E+04 -5.001770E-09 -1.042968E-08
        88  14 -1.878598E+05 -4.455761E+04 -7.809308E+03 -9.418037E+04  2.672961E-09 -3.093904E-09
        88  15 -1.858040E+05 -4.678560E+04 -4.281604E+03 -9.734598E+04  1.485345E-08  3.129089E-09
        88  16 -3.753957E+04  5.792690E+03  1.490048E+04 -5.420686E+04 -2.789653E-08 -1.087156E-08
        88  17 -6.594030E+04  5.127168E+01  1.597401E+04 -6.008701E+04 -4.087471E-09 -5.316842E-09
        88  18 -9.045736E+04 -1.255755E+04  1.412329E+04 -7.134488E+04  9.447561E-09  3.717301E-09
        88  19 -3.347678E+05 -1.044492E+05 -4.447948E+04 -1.385695E+05  1.293308E+04 -6.907879E+03
        88  20 -3.097638E+05 -8.916507E+04 -3.159308E+04 -1.282676E+05  7.800307E+03 -7.199062E+03
        88  21 -2.811403E+05 -8.101254E+04 -2.268656E+04 -1.233432E+05  2.501421E+03 -7.047603E+03
        88  22 -1.861643E+05 -4.932900E+04 -1.478851E+04 -9.639277E+04  1.475828E+04 -6.222712E+03
        88  23 -1.878597E+05 -4.455754E+04 -7.809035E+03 -9.418043E+04  1.029080E+04 -6.264421E+03
        88  24 -1.858039E+05 -4.678556E+04 -4.281479E+03 -9.734601E+04  5.657392E+03 -5.863452E+03
        88  25 -3.753927E+04  5.792797E+03  1.490105E+04 -5.420694E+04  1.658394E+04 -5.537367E+03
        88  26 -6.594012E+04  5.134603E+01  1.597437E+04 -6.008706E+04  1.278181E+04 -5.329581E+03
        88  27 -9.045727E+04 -1.255751E+04  1.412348E+04 -7.134491E+04  8.813909E+03 -4.679102E+03
        89   1 -2.625492E+05 -7.468493E+04 -1.797245E+04 -1.184630E+05 -1.520210E+03  6.020789E+03
        89   2 -2.378069E+05 -6.226621E+04 -1.133243E+04 -1.080824E+05  1.853809E+02  4.308416E+03
        89   3 -2.082080E+05 -5.497245E+04 -5.410879E+03 -1.034599E+05  1.903102E+03  2.563444E+03
        89   4 -1.856256E+05 -4.686574E+04 -3.220451E+03 -9.724293E+04 -4.599331E+03  4.865546E+03
        89   5 -1.880543E+05 -4.428292E+04 -1.770595E+03 -9.437297E+04 -2.942721E+03  3.134876E+03
        89   6 -1.856174E+05 -4.681530E+04 -1.000303E+03 -9.726139E+04 -1.274030E+03  1.371597E+03
        89   7 -1.086958E+05 -1.904604E+04  1.153133E+04 -7.602040E+04 -7.678859E+03  3.710151E+03
        89   8 -1.382993E+05 -2.629950E+04  7.791108E+03 -8.066260E+04 -6.071077E+03  1.961242E+03
        89   9 -1.630265E+05 -3.865818E+04  3.410236E+03 -9.106269E+04 -4.451257E+03  1.797147E+02
        89  10 -2.625492E+05 -7.468497E+04 -1.797252E+04 -1.184630E+05  1.798720E-08  4.796751E-09
        89  11 -2.378069E+05 -6.226623E+04 -1.133246E+04 -1.080824E+05  8.054202E-09  7.145446E-11
        89  12 -2.082080E+05 -5.497246E+04 -5.410899E+03 -1.034599E+05  1.321510E-09 -1.368603E-09
        89  13 -1.856256E+05 -4.686577E+04 -3.220535E+03 -9.724291E+04  1.069111E-08  3.602497E-09
        89  14 -1.880543E+05 -4.428294E+04 -1.770630E+03 -9.437297E+04  4.000230E-09  1.075735E-09
        89  15 -1.856175E+05 -4.681531E+04 -1.000310E+03 -9.726139E+04  6.338103E-10  1.318477E-09
        89  16 -1.086958E+05 -1.904607E+04  1.153119E+04 -7.602037E+04 -2.133434E-10  2.128916E-09
        89  17 -1.382994E+05 -2.629952E+04  7.791032E+03 -8.066259E+04 -6.465382E-09  2.283765E-09
        89  18 -1.630265E+05 -3.865819E+04  3.410199E+03 -9.106269E+04 -2.020657E-09  4.076473E-09
        89  19 -2.625492E+05 -7.468493E+04 -1.797245E+04 -1.184630E+05  1.520210E+03 -6.020789E+03
        89  20 -2.378069E+05 -6.226621E+04 -1.133243E+04 -1.080824E+05 -1.853809E+02 -4.308416E+03
        89  21 -2.082080E+05 -5.497245E+04 -5.410879E+03 -1.034599E+05 -1.903102E+03 -2.563444E+03
        89  22 -1.856256E+05 -4.686574E+04 -3.220451E+03 -9.724293E+04  4.599331E+03 -4.865546E+03
        89  23 -1.880543E+05 -4.428292E+04 -1.770595E+03 -9.437297E+04  2.942721E+03 -3.134876E+03
        89  24 -1.856174E+05 -4.681530E+04 -1.000303E+03 -9.726139E+04  1.274030E+03 -1.371597E+03
        89  25 -1.086958E+05 -1.904604E+04  1.153133E+04 -7.602040E+04  7.678859E+03 -3.710151E+03
        89  26 -1.382993E+05 -2.629950E+04  7.791108E+03 -8.066260E+04  6.071077E+03 -1.961242E+03
        89  27 -1.630265E+05 -3.865818E+04  3.410236E+03 -9.106269E+04  4.451257E+03 -1.797147E+02
        90   1 -1.899977E+05 -4.836070E+04 -1.537805E+03 -9.842992E+04  2.505543E+03  1.387830E+03
        90   2 -1.653330E+05 -3.601643E+04  3.886928E+03 -8.802333E+04  3.540008E+03 -6.288609E+02
        90   3 -1.356862E+05 -2.869447E+04  9.129742E+03 -8.336830E+04  4.575264E+03 -2.647533E+03
        90   4 -1.855951E+05 -4.681928E+04 -7.702511E+02 -9.725072E+04 -6.660541E+02  1.980721E+02
        90   5 -1.880868E+05 -4.431362E+04 -4.831862E+02 -9.437273E+04  3.653192E+02 -1.819823E+03
        90   6 -1.855970E+05 -4.683001E+04 -3.757959E+02 -9.724683E+04  1.397470E+03 -3.839698E+03
        90   7 -1.811925E+05 -4.527784E+04 -2.643336E+00 -9.607149E+04 -3.837704E+03 -9.917051E+02
        90   8 -2.108401E+05 -5.261079E+04 -4.853308E+03 -1.007219E+05 -2.809259E+03 -3.010744E+03
        90   9 -2.355051E+05 -6.496533E+04 -9.881399E+03 -1.111243E+05 -1.780052E+03 -5.031762E+03
        90  10 -1.899977E+05 -4.836071E+04 -1.537821E+03 -9.842992E+04 -2.318210E-09 -2.702011E-09
        90  11 -1.653331E+05 -3.601643E+04  3.886903E+03 -8.802333E+04  1.988766E-10 -5.441307E-10
        90  12 -1.356862E+05 -2.869448E+04  9.129690E+03 -8.336829E+04  1.089198E-08  6.598959E-09
        90  13 -1.855951E+05 -4.681929E+04 -7.702520E+02 -9.725072E+04 -2.993089E-09 -3.857773E-10
        90  14 -1.880868E+05 -4.431362E+04 -4.831926E+02 -9.437273E+04 -3.048453E-09 -5.380060E-09
        90  15 -1.855970E+05 -4.683003E+04 -3.758272E+02 -9.724682E+04 -8.051347E-10 -5.040325E-09
        90  16 -1.811925E+05 -4.527785E+04 -2.672872E+00 -9.607149E+04 -5.531123E-10  4.036726E-09
        90  17 -2.108401E+05 -5.261081E+04 -4.853340E+03 -1.007219E+05 -5.521941E-09  2.865588E-10
        90  18 -2.355051E+05 -6.496536E+04 -9.881453E+03 -1.111243E+05 -1.163581E-08  5.332603E-10
        90  19 -1.899977E+05 -4.836070E+04 -1.537805E+03 -9.842992E+04 -2.505543E+03 -1.387830E+03
        90  20 -1.653330E+05 -3.601643E+04  3.886928E+03 -8.802333E+04 -3.540008E+03  6.288609E+02
        90  21 -1.356862E+05 -2.869447E+04  9.129742E+03 -8.336830E+04 -4.575264E+03  2.647533E+03
        90  22 -1.855951E+05 -4.681928E+04 -7.702511E+02 -9.725072E+04  6.660541E+02 -1.980721E+02
        90  23 -1.880868E+05 -4.431362E+04 -4.831862E+02 -9.437273E+04 -3.653192E+02  1.819823E+03
        90  24 -1.855970E+05 -4.683001E+04 -3.757959E+02 -9.724683E+04 -1.397470E+03  3.839698E+03
        90  25 -1.811925E+05 -4.527784E+04 -2.643336E+00 -9.607149E+04  3.837704E+03  9.917051E+02
        90  26 -2.108401E+05 -5.261079E+04 -4.853308E+03 -1.007219E+05  2.809259E+03  3.010744E+03
        90  27 -2.355051E+05 -6.496533E+04 -9.881399E+03 -1.111243E+05  1.780052E+03  5.031762E+03
        91   1 -1.175149E+05 -2.206801E+04  1.277357E+04 -7.833457E+04  5.098920E+03 -3.852863E+03
        91   2 -9.285868E+04 -9.718309E+03  1.781093E+04 -6.793133E+04  6.118602E+03 -5.876228E+03
        91   3 -6.321887E+04 -2.388094E+03  2.267811E+04 -6.327737E+04  7.137023E+03 -7.895745E+03
        91   4 -1.855977E+05 -4.683034E+04 -3.734233E+02 -9.724632E+04  1.921152E+03 -5.045071E+03
        91   5 -1.880889E+05 -4.431801E+04 -4.700240E+02 -9.437260E+04  2.946470E+03 -7.066466E+03
        91   6 -1.855985E+05 -4.682630E+04 -7.412582E+02 -9.724843E+04  3.970522E+03 -9.084024E+03
        91   7 -2.536750E+05 -7.159203E+04 -1.352041E+04 -1.161560E+05 -1.256214E+03 -6.237128E+03
        91   8 -2.833098E+05 -7.891690E+04 -1.875133E+04 -1.208101E+05 -2.251398E+02 -8.256509E+03
        91   9 -3.079635E+05 -9.126356E+04 -2.416151E+04 -1.312136E+05  8.046623E+02 -1.027206E+04
        91  10 -1.175149E+05 -2.206803E+04  1.277349E+04 -7.833456E+04 -1.214538E-08 -2.807436E-10
        91  11 -9.285873E+04 -9.718356E+03  1.781080E+04 -6.793130E+04 -8.596323E-09  2.732507E-10
        91  12 -6.321894E+04 -2.388175E+03  2.267790E+04 -6.327732E+04  5.501800E-09  3.401064E-09
        91  13 -1.855977E+05 -4.683037E+04 -3.734781E+02 -9.724631E+04 -3.966598E-09 -4.735740E-09
        91  14 -1.880890E+05 -4.431807E+04 -4.701341E+02 -9.437259E+04 -4.156579E-09 -5.476409E-09
        91  15 -1.855985E+05 -4.682639E+04 -7.414429E+02 -9.724840E+04 -3.439175E-09 -3.383277E-09
        91  16 -2.536750E+05 -7.159207E+04 -1.352049E+04 -1.161560E+05  4.536087E-09  7.958059E-09
        91  17 -2.833098E+05 -7.891697E+04 -1.875145E+04 -1.208101E+05 -8.314355E-09 -7.095061E-10
        91  18 -3.079635E+05 -9.126367E+04 -2.416171E+04 -1.312136E+05 -1.220726E-08 -7.885052E-09
        91  19 -1.175149E+05 -2.206801E+04  1.277357E+04 -7.833457E+04 -5.098920E+03  3.852863E+03
        91  20 -9.285868E+04 -9.718309E+03  1.781093E+04 -6.793133E+04 -6.118602E+03  5.876228E+03
        91  21 -6.321887E+04 -2.388094E+03  2.267811E+04 -6.327737E+04 -7.137023E+03  7.895745E+03
        91  22 -1.855977E+05 -4.683034E+04 -3.734233E+02 -9.724632E+04 -1.921152E+03  5.045071E+03
        91  23 -1.880889E+05 -4.431801E+04 -4.700240E+02 -9.437260E+04 -2.946470E+03  7.066466E+03
        91  24 -1.855985E+05 -4.682630E+04 -7.412582E+02 -9.724843E+04 -3.970522E+03  9.084024E+03
        91  25 -2.536750E+05 -7.159203E+04 -1.352041E+04 -1.161560E+05  1.256214E+03  6.237128E+03
        91  26 -2.833098E+05 -7.891690E+04 -1.875133E+04 -1.208101E+05  2.251398E+02  8.256509E+03
        91  27 -3.079635E+05 -9.126356E+04 -2.416151E+04 -1.312136E+05 -8.046623E+02  1.027206E+04
        92   1 -4.506506E+04  4.229584E+03  2.609998E+04 -5.826634E+04  7.746973E+03 -9.067248E+03
        92   2 -2.037043E+04  1.658032E+04  3.051969E+04 -4.787004E+04  9.300429E+03 -1.086140E+04
        92   3  9.208734E+03  2.383910E+04  3.434784E+04 -4.322367E+04  1.083560E+04 -1.260590E+04
        92   4 -1.856215E+05 -4.682301E+04 -9.602653E+02 -9.725757E+04  4.572570E+03 -1.025862E+04
        92   5 -1.880618E+05 -4.429673E+04 -1.695967E+03 -9.437302E+04  6.200396E+03 -1.202512E+04
        92   6 -1.856329E+05 -4.687734E+04 -3.082246E+03 -9.723884E+04  7.809895E+03 -1.374198E+04
        92   7 -3.261574E+05 -9.787383E+04 -2.802131E+04 -1.362406E+05  1.398937E+03 -1.144970E+04
        92   8 -3.557232E+05 -1.051710E+05 -3.391258E+04 -1.408641E+05  3.101275E+03 -1.318850E+04
        92   9 -3.804333E+05 -1.175897E+05 -4.051343E+04 -1.512378E+05  4.785233E+03 -1.487766E+04
        92  10 -4.506515E+04  4.229480E+03  2.609971E+04 -5.826629E+04  4.989662E-09 -3.942220E-11
        92  11 -2.037055E+04  1.658018E+04  3.051931E+04 -4.786996E+04  5.160641E-09 -2.501867E-10
        92  12  9.208566E+03  2.383890E+04  3.434732E+04 -4.322356E+04  1.107611E-09  1.350567E-09
        92  13 -1.856216E+05 -4.682313E+04 -9.605023E+02 -9.725753E+04  6.888731E-09 -1.765333E-09
        92  14 -1.880619E+05 -4.429689E+04 -1.696311E+03 -9.437296E+04  4.586833E-09 -1.156755E-09
        92  15 -1.856330E+05 -4.687756E+04 -3.082716E+03 -9.723875E+04  2.360932E-09 -7.946402E-10
        92  16 -3.261574E+05 -9.787397E+04 -2.802156E+04 -1.362406E+05  3.733327E-10 -3.394363E-09
        92  17 -3.557232E+05 -1.051712E+05 -3.391292E+04 -1.408641E+05  9.232556E-10 -2.029220E-09
        92  18 -3.804334E+05 -1.175900E+05 -4.051389E+04 -1.512378E+05 -6.340001E-09 -2.650260E-09
        92  19 -4.506506E+04  4.229584E+03  2.609998E+04 -5.826634E+04 -7.746973E+03  9.067248E+03
        92  20 -2.037043E+04  1.658032E+04  3.051969E+04 -4.787004E+04 -9.300429E+03  1.086140E+04
        92  21  9.208734E+03  2.383910E+04  3.434784E+04 -4.322367E+04 -1.083560E+04  1.260590E+04
        92  22 -1.856215E+05 -4.682301E+04 -9.602653E+02 -9.725757E+04 -4.572570E+03  1.025862E+04
        92  23 -1.880618E+05 -4.429673E+04 -1.695967E+03 -9.437302E+04 -6.200396E+03  1.202512E+04
        92  24 -1.856329E+05 -4.687734E+04 -3.082246E+03 -9.723884E+04 -7.809895E+03  1.374198E+04
        92  25 -3.261574E+05 -9.787383E+04 -2.802131E+04 -1.362406E+05 -1.398937E+03  1.144970E+04
        92  26 -3.557232E+05 -1.051710E+05 -3.391258E+04 -1.408641E+05 -3.101275E+03  1.318850E+04
        92  27 -3.804333E+05 -1.175897E+05 -4.051343E+04 -1.512378E+05 -4.785233E+03  1.487766E+04
        93   1  2.742795E+04  3.033673E+04  3.698817E+04 -3.852569E+04  1.198237E+04 -1.356501E+04
        93   2  5.188121E+04  4.292818E+04  3.910978E+04 -2.733683E+04  1.539475E+04 -1.428273E+04
        93   3  8.032632E+04  4.882819E+04  3.872786E+04 -2.151370E+04  1.855667E+04 -1.433176E+04
        93   4 -1.858060E+05 -4.679807E+04 -4.096509E+03 -9.733245E+04  8.840840E+03 -1.474474E+04
        93   5 -1.878761E+05 -4.457141E+04 -7.471461E+03 -9.419274E+04  1.325843E+04 -1.508547E+04
        93   6 -1.861550E+05 -4.923644E+04 -1.414743E+04 -9.641955E+04  1.742537E+04 -1.475742E+04
        93   7 -3.989946E+05 -1.239297E+05 -4.518365E+04 -1.561211E+05  5.700443E+03 -1.592405E+04
        93   8 -4.275748E+05 -1.320662E+05 -5.405554E+04 -1.610250E+05  1.112298E+04 -1.588789E+04
        93   9 -4.525630E+05 -1.472945E+05 -6.702608E+04 -1.712956E+05  1.629459E+04 -1.518289E+04
        93  10  2.742775E+04  3.033650E+04  3.698755E+04 -3.852556E+04  1.920788E-08  9.897181E-09
        93  11  5.188090E+04  4.292790E+04  3.910895E+04 -2.733665E+04  6.895329E-09  4.426148E-09
        93  12  8.032589E+04  4.882788E+04  3.872683E+04 -2.151348E+04 -1.364014E-08 -6.003264E-09
        93  13 -1.858061E+05 -4.679832E+04 -4.097065E+03 -9.733235E+04  3.703431E-09  1.045875E-09
        93  14 -1.878763E+05 -4.457170E+04 -7.472219E+03 -9.419258E+04  1.402321E-08  3.902540E-09
        93  15 -1.861554E+05 -4.923675E+04 -1.414841E+04 -9.641935E+04  6.801059E-09  1.339142E-09
        93  16 -3.989947E+05 -1.239299E+05 -4.518419E+04 -1.561210E+05 -2.330267E-08 -7.780893E-09
        93  17 -4.275750E+05 -1.320665E+05 -5.405625E+04 -1.610249E+05  3.913164E-09  3.180198E-09
        93  18 -4.525634E+05 -1.472949E+05 -6.702701E+04 -1.712954E+05  1.846278E-08  9.571710E-09
        93  19  2.742795E+04  3.033673E+04  3.698817E+04 -3.852569E+04 -1.198237E+04  1.356501E+04
        93  20  5.188121E+04  4.292818E+04  3.910978E+04 -2.733683E+04 -1.539475E+04  1.428273E+04
        93  21  8.032632E+04  4.882819E+04  3.872786E+04 -2.151370E+04 -1.855667E+04  1.433176E+04
        93  22 -1.858060E+05 -4.679807E+04 -4.096509E+03 -9.733245E+04 -8.840840E+03  1.474474E+04
        93  23 -1.878761E+05 -4.457141E+04 -7.471461E+03 -9.419274E+04 -1.325843E+04  1.508547E+04
        93  24 -1.861550E+05 -4.923644E+04 -1.414743E+04 -9.641955E+04 -1.742537E+04  1.475742E+04
        93  25 -3.989946E+05 -1.239297E+05 -4.518365E+04 -1.561211E+05 -5.700443E+03  1.592405E+04
        93  26 -4.275748E+05 -1.320662E+05 -5.405554E+04 -1.610250E+05 -1.112298E+04  1.588789E+04
        93  27 -4.525630E+05 -1.472945E+05 -6.702608E+04 -1.712956E+05 -1.629459E+04  1.518289E+04
        94   1  1.008631E+05  5.297910E+04  3.815811E+04 -2.286317E+04  2.269446E+04 -1.403457E+04
        94   2  1.140111E+05  7.167903E+04  3.199162E+04  1.011373E+04  2.628873E+04 -9.546584E+03
        94   3  1.167472E+05  4.768662E+04  1.190596E+04  4.802163E+04  2.646058E+04  4.052046E+03
        94   4 -1.884758E+05 -4.757388E+04 -1.860391E+04 -9.797221E+04  1.997051E+04 -1.505827E+04
        94   5 -1.860926E+05 -5.448568E+04 -3.499437E+04 -8.931594E+04  3.727709E+04 -5.421046E+03
        94   6 -1.968464E+05 -1.068205E+05 -7.617478E+04 -7.572796E+04  5.115985E+04  1.332836E+04
        94   7 -4.777280E+05 -1.481214E+05 -7.536961E+04 -1.730496E+05  1.724792E+04 -1.608150E+04
        94   8 -4.860993E+05 -1.806331E+05 -1.019842E+05 -1.886972E+05  4.825959E+04 -1.298422E+03
        94   9 -5.103313E+05 -2.612940E+05 -1.642594E+05 -1.994105E+05  7.584491E+04  2.259564E+04
        94  10  1.008625E+05  5.297875E+04  3.815677E+04 -2.286291E+04  2.709447E-08  9.280010E-09
        94  11  1.140104E+05  7.167875E+04  3.199015E+04  1.011393E+04  5.851157E-09  2.711752E-09
        94  12  1.167465E+05  4.768642E+04  1.190462E+04  4.802154E+04 -1.820405E-08 -6.405389E-09
        94  13 -1.884763E+05 -4.757423E+04 -1.860509E+04 -9.797197E+04  3.329542E-09  9.590409E-10
        94  14 -1.860941E+05 -5.448608E+04 -3.499704E+04 -8.931577E+04  4.463759E-09  1.671568E-09
        94  15 -1.968493E+05 -1.068214E+05 -7.618004E+04 -7.572851E+04  3.214967E-09  2.080396E-09
        94  16 -4.777284E+05 -1.481217E+05 -7.537065E+04 -1.730494E+05 -2.172407E-08 -6.126220E-09
        94  17 -4.861018E+05 -1.806338E+05 -1.019886E+05 -1.886972E+05  1.150245E-09  4.089033E-09
        94  18 -5.103376E+05 -2.612961E+05 -1.642712E+05 -1.994118E+05  2.260371E-08  8.422909E-09
        94  19  1.008631E+05  5.297910E+04  3.815811E+04 -2.286317E+04 -2.269446E+04  1.403457E+04
        94  20  1.140111E+05  7.167903E+04  3.199162E+04  1.011373E+04 -2.628873E+04  9.546584E+03
        94  21  1.167472E+05  4.768662E+04  1.190596E+04  4.802163E+04 -2.646058E+04 -4.052046E+03
        94  22 -1.884758E+05 -4.757388E+04 -1.860391E+04 -9.797221E+04 -1.997051E+04  1.505827E+04
        94  23 -1.860926E+05 -5.448568E+04 -3.499437E+04 -8.931594E+04 -3.727709E+04  5.421046E+03
        94  24 -1.968464E+05 -1.068205E+05 -7.617478E+04 -7.572796E+04 -5.115985E+04 -1.332836E+04
        94  25 -4.777280E+05 -1.481214E+05 -7.536961E+04 -1.730496E+05 -1.724792E+04  1.608150E+04
        94  26 -4.860993E+05 -1.806331E+05 -1.019842E+05 -1.886972E+05 -4.825959E+04  1.298422E+03
        94  27 -5.103313E+05 -2.612940E+05 -1.642594E+05 -1.994105E+05 -7.584491E+04 -2.259564E+04
        95   1  8.650809E+05  1.346796E+05  1.199130E+05  1.689962E+04  3.775254E+04 -9.937716E+03
        95   2  8.290181E+05  1.481875E+05  9.856528E+04  2.946545E+04  1.623615E+04 -3.445999E+04
        95   3  7.922794E+05  1.477037E+05  8.773409E+04  4.697744E+04 -5.289546E+03 -4.386662E+04
        95   4  1.298522E+05 -4.602483E+04 -4.913182E+04  4.738575E+04 -3.463048E+04 -1.000396E+04
        95   5  1.331606E+05 -1.551138E+04 -2.465682E+04  4.489031E+04 -2.201073E+04 -3.450209E+04
        95   6  1.298652E+05 -4.922813E+03 -1.335899E+04  4.734074E+04 -9.401980E+03 -4.387575E+04
        95   7 -6.048635E+05 -2.267606E+05 -2.181922E+05  7.783541E+04 -1.069285E+05 -1.007735E+04
        95   8 -5.622206E+05 -1.792352E+05 -1.478912E+05  6.029727E+04 -6.021603E+04 -3.454611E+04
        95   9 -5.321102E+05 -1.575704E+05 -1.144614E+05  4.770350E+04 -1.351020E+04 -4.388489E+04
        95  10  8.650794E+05  1.346791E+05  1.199102E+05  1.689992E+04  3.889999E-09 -8.204829E-10
        95  11  8.290175E+05  1.481861E+05  9.856255E+04  2.946590E+04  2.709167E-09 -3.061088E-09
        95  12  7.922788E+05  1.477016E+05  8.773042E+04  4.697725E+04  1.150069E-09 -2.021489E-09
        95  13  1.298509E+05 -4.602526E+04 -4.913426E+04  4.738547E+04 -2.929434E-09  1.771046E-10
        95  14  1.331598E+05 -1.551279E+04 -2.465996E+04  4.488970E+04  9.551275E-10 -2.321503E-09
        95  15  1.298645E+05 -4.924904E+03 -1.336277E+04  4.734041E+04  5.582296E-09  4.456735E-10
        95  16 -6.048758E+05 -2.267638E+05 -2.182139E+05  7.783454E+04 -5.049041E-09 -1.509124E-10
        95  17 -5.622248E+05 -1.792374E+05 -1.479003E+05  6.029559E+04 -1.946218E-09 -3.739653E-09
        95  18 -5.321109E+05 -1.575725E+05 -1.144654E+05  4.770303E+04  7.980466E-10 -2.505534E-09
        95  19  8.650809E+05  1.346796E+05  1.199130E+05  1.689962E+04 -3.775254E+04  9.937716E+03
        95  20  8.290181E+05  1.481875E+05  9.856528E+04  2.946545E+04 -1.623615E+04  3.445999E+04
        95  21  7.922794E+05  1.477037E+05  8.773409E+04  4.697744E+04  5.289546E+03  4.386662E+04
        95  22  1.298522E+05 -4.602483E+04 -4.913182E+04  4.738575E+04  3.463048E+04  1.000396E+04
        95  23  1.331606E+05 -1.551138E+04 -2.465682E+04  4.489031E+04  2.201073E+04  3.450209E+04
        95  24  1.298652E+05 -4.922813E+03 -1.335899E+04  4.734074E+04  9.401980E+03  4.387575E+04
        95  25 -6.048635E+05 -2.267606E+05 -2.181922E+05  7.783541E+04  1.069285E+05  1.007735E+04
        95  26 -5.622206E+05 -1.792352E+05 -1.478912E+05  6.029727E+04  6.021603E+04  3.454611E+04
        95  27 -5.321102E+05 -1.575704E+05 -1.144614E+05  4.770350E+04  1.351020E+04  4.388489E+04
        96   1  7.700348E+05  1.429376E+05  8.459968E+04  4.607187E+04 -4.179294E+03 -4.428773E+04
        96   2  7.338050E+05  1.362342E+05  7.916744E+04  4.416893E+04 -5.803630E+03 -4.487632E+04
        96   3  6.975374E+05  1.285124E+05  7.454053E+04  4.831514E+04 -7.430594E+03 -4.354317E+04
        96   4  1.311621E+05 -3.681237E+03 -9.992291E+03  4.758820E+04 -7.667973E+03 -4.429630E+04
        96   5  1.315650E+05 -1.065372E+03 -5.413789E+03  4.456113E+04 -4.954481E+03 -4.487965E+04
        96   6  1.311763E+05 -2.210906E+02 -3.041214E+03  4.758362E+04 -2.243634E+03 -4.354028E+04
        96   7 -5.073005E+05 -1.503191E+05 -1.045917E+05  4.910279E+04 -1.115321E+04 -4.430490E+04
        96   8 -4.703078E+05 -1.383811E+05 -8.999979E+04  4.495282E+04 -4.106118E+03 -4.488298E+04
        96   9 -4.348589E+05 -1.289686E+05 -8.062630E+04  4.685267E+04  2.938814E+03 -4.353739E+04
        96  10  7.700343E+05  1.429355E+05  8.459596E+04  4.607172E+04 -2.107854E-09 -2.014142E-09
        96  11  7.338045E+05  1.362320E+05  7.916359E+04  4.416872E+04  8.511220E-10  1.685618E-09
        96  12  6.975368E+05  1.285104E+05  7.453687E+04  4.831488E+04  2.871488E-09  1.820382E-09
        96  13  1.311615E+05 -3.683360E+03 -9.996089E+03  4.758793E+04  3.056146E-10 -6.182108E-10
        96  14  1.315645E+05 -1.067542E+03 -5.417621E+03  4.456095E+04 -1.240226E-09  8.099441E-10
        96  15  1.311758E+05 -2.231278E+02 -3.044786E+03  4.758354E+04  3.168714E-10 -1.854288E-09
        96  16 -5.073011E+05 -1.503213E+05 -1.045956E+05  4.910239E+04  2.901163E-09  1.228451E-09
        96  17 -4.703084E+05 -1.383833E+05 -9.000360E+04  4.495267E+04  2.156435E-09  1.280381E-09
        96  18 -4.348594E+05 -1.289706E+05 -8.062988E+04  4.685278E+04 -6.315102E-10 -1.036039E-09
        96  19  7.700348E+05  1.429376E+05  8.459968E+04  4.607187E+04  4.179294E+03  4.428773E+04
        96  20  7.338050E+05  1.362342E+05  7.916744E+04  4.416893E+04  5.803630E+03  4.487632E+04
        96  21  6.975374E+05  1.285124E+05  7.454053E+04  4.831514E+04  7.430594E+03  4.354317E+04
        96  22  1.311621E+05 -3.681237E+03 -9.992291E+03  4.758820E+04  7.667973E+03  4.429630E+04
        96  23  1.315650E+05 -1.065372E+03 -5.413789E+03  4.456113E+04  4.954481E+03  4.487965E+04
        96  24  1.311763E+05 -2.210906E+02 -3.041214E+03  4.758362E+04  2.243634E+03  4.354028E+04
        96  25 -5.073005E+05 -1.503191E+05 -1.045917E+05  4.910279E+04  1.115321E+04  4.430490E+04
        96  26 -4.703078E+05 -1.383811E+05 -8.999979E+04  4.495282E+04  4.106118E+03  4.488298E+04
        96  27 -4.348589E+05 -1.289686E+05 -8.062630E+04  4.685267E+04 -2.938814E+03  4.353739E+04
        97   1  6.750566E+05  1.233611E+05  7.171545E+04  4.818777E+04 -7.058241E+03 -4.212506E+04
        97   2  6.388576E+05  1.152136E+05  6.726581E+04  4.511870E+04 -6.970939E+03 -3.967178E+04
        97   3  6.026340E+05  1.070304E+05  6.274918E+04  4.823358E+04 -6.884723E+03 -3.697460E+04
        97   4  1.313299E+05 -1.344883E+02 -2.294726E+03  4.761385E+04 -1.793134E+03 -4.212155E+04
        97   5  1.313969E+05  5.638124E+01 -1.288679E+03  4.452154E+04 -1.155718E+03 -3.966667E+04
        97   6  1.313424E+05  1.161567E+02 -7.317542E+02  4.761348E+04 -5.193833E+02 -3.696779E+04
        97   7 -4.120962E+05 -1.236429E+05 -7.630779E+04  4.704035E+04  3.467577E+03 -4.211805E+04
        97   8 -3.758017E+05 -1.151119E+05 -6.984546E+04  4.392479E+04  4.654973E+03 -3.966158E+04
        97   9 -3.397230E+05 -1.068076E+05 -6.421456E+04  4.699378E+04  5.841351E+03 -3.696099E+04
        97  10  6.750561E+05  1.233592E+05  7.171202E+04  4.818754E+04 -6.742772E-08  1.603580E-09
        97  11  6.388571E+05  1.152118E+05  6.726276E+04  4.511848E+04  2.769660E-09  1.460147E-10
        97  12  6.026336E+05  1.070289E+05  6.274652E+04  4.823338E+04  6.848868E-08 -1.648358E-10
        97  13  1.313294E+05 -1.363945E+02 -2.298067E+03  4.761379E+04 -8.319030E-10 -2.585817E-09
        97  14  1.313965E+05  5.469118E+01 -1.291638E+03  4.452151E+04 -4.529914E-09  1.614983E-09
        97  15  1.313420E+05  1.146890E+02 -7.343230E+02  4.761346E+04  1.794593E-09  3.138682E-09
        97  16 -4.120967E+05 -1.236448E+05 -7.631115E+04  4.704046E+04  6.689635E-08 -7.330137E-10
        97  17 -3.758021E+05 -1.151136E+05 -6.984846E+04  4.392494E+04 -2.500331E-09  1.856955E-09
        97  18 -3.397234E+05 -1.068091E+05 -6.421719E+04  4.699395E+04 -7.119238E-08  8.033651E-10
        97  19  6.750566E+05  1.233611E+05  7.171545E+04  4.818777E+04  7.058241E+03  4.212506E+04
        97  20  6.388576E+05  1.152136E+05  6.726581E+04  4.511870E+04  6.970939E+03  3.967178E+04
        97  21  6.026340E+05  1.070304E+05  6.274918E+04  4.823358E+04  6.884723E+03  3.697460E+04
        97  22  1.313299E+05 -1.344883E+02 -2.294726E+03  4.761385E+04  1.793134E+03  4.212155E+04
        97  23  1.313969E+05  5.638124E+01 -1.288679E+03  4.452154E+04  1.155718E+03  3.966667E+04
        97  24  1.313424E+05  1.161567E+02 -7.317542E+02  4.761348E+04  5.193833E+02  3.696779E+04
        97  25 -4.120962E+05 -1.236429E+05 -7.630779E+04  4.704035E+04 -3.467577E+03  4.211805E+04
        97  26 -3.758017E+05 -1.151119E+05 -6.984546E+04  4.392479E+04 -4.654973E+03  3.966158E+04
        97  27 -3.397230E+05 -1.068076E+05 -6.421456E+04  4.699378E+04 -5.841351E+03  3.696099E+04
        98   1  5.801511E+05  1.018973E+05  5.973138E+04  4.819737E+04 -6.781474E+03 -3.532355E+04
        98   2  5.439691E+05  9.369061E+04  5.510022E+04  4.505955E+04 -6.701389E+03 -3.248487E+04
        98   3  5.077706E+05  8.550708E+04  5.041878E+04  4.811912E+04 -6.622004E+03 -2.961561E+04
        98   4  1.313665E+05  1.208254E+02 -5.518572E+02  4.761649E+04 -4.070304E+02 -3.531623E+04
        98   5  1.313868E+05  1.247538E+02 -3.081449E+02  4.451767E+04 -2.582134E+02 -3.247669E+04
        98   6  1.313767E+05  1.397360E+02 -1.627550E+02  4.761647E+04 -1.100938E+02 -2.960656E+04
        98   7 -3.172129E+05 -1.016642E+05 -6.083672E+04  4.703597E+04  5.963022E+03 -3.530893E+04
        98   8 -2.810221E+05 -9.344839E+04 -5.571786E+04  4.397609E+04  6.180881E+03 -3.246852E+04
        98   9 -2.448728E+05 -8.523368E+04 -5.074539E+04  4.711408E+04  6.398054E+03 -2.959752E+04
        98  10  5.801507E+05  1.018959E+05  5.972895E+04  4.819718E+04  3.482538E-09  4.326985E-10
        98  11  5.439688E+05  9.368946E+04  5.509815E+04  4.505937E+04  1.695747E-10  4.327397E-09
        98  12  5.077704E+05  8.550613E+04  5.041705E+04  4.811896E+04 -2.024651E-09  4.643510E-09
        98  13  1.313662E+05  1.194860E+02 -5.542014E+02  4.761648E+04 -6.881330E-10  1.354604E-09
        98  14  1.313865E+05  1.236211E+02 -3.101272E+02  4.451766E+04 -1.146327E-10  5.677985E-09
        98  15  1.313765E+05  1.387947E+02 -1.644023E+02  4.761647E+04  2.838977E-09  2.702528E-09
        98  16 -3.172132E+05 -1.016656E+05 -6.083913E+04  4.703614E+04 -2.519967E-09  2.031466E-09
        98  17 -2.810224E+05 -9.344953E+04 -5.571991E+04  4.397625E+04 -7.609233E-10  3.848579E-09
        98  18 -2.448731E+05 -8.523463E+04 -5.074711E+04  4.711424E+04  6.447064E-10  1.395626E-09
        98  19  5.801511E+05  1.018973E+05  5.973138E+04  4.819737E+04  6.781474E+03  3.532355E+04
        98  20  5.439691E+05  9.369061E+04  5.510022E+04  4.505955E+04  6.701389E+03  3.248487E+04
        98  21  5.077706E+05  8.550708E+04  5.041878E+04  4.811912E+04  6.622004E+03  2.961561E+04
        98  22  1.313665E+05  1.208254E+02 -5.518572E+02  4.761649E+04  4.070304E+02  3.531623E+04
        98  23  1.313868E+05  1.247538E+02 -3.081449E+02  4.451767E+04  2.582134E+02  3.247669E+04
        98  24  1.313767E+05  1.397360E+02 -1.627550E+02  4.761647E+04  1.100938E+02  2.960656E+04
        98  25 -3.172129E+05 -1.016642E+05 -6.083672E+04  4.703597E+04 -5.963022E+03  3.530893E+04
        98  26 -2.810221E+05 -9.344839E+04 -5.571786E+04  4.397609E+04 -6.180881E+03  3.246852E+04
        98  27 -2.448728E+05 -8.523368E+04 -5.074539E+04  4.711408E+04 -6.398054E+03  2.959752E+04
        99   1  4.852950E+05  8.038576E+04  4.731977E+04  4.809421E+04 -6.599902E+03 -2.793558E+04
        99   2  4.491279E+05  7.218766E+04  4.259823E+04  4.495363E+04 -6.594170E+03 -2.504921E+04
        99   3  4.129470E+05  6.401421E+04  3.787286E+04  4.801320E+04 -6.588947E+03 -2.215983E+04
        99   4  1.313830E+05  1.420342E+02 -1.123673E+02  4.761708E+04 -8.753854E+01 -2.792613E+04
        99   5  1.313948E+05  1.357015E+02 -3.393156E+01  4.451691E+04 -7.515746E+01 -2.503916E+04
        99   6  1.313909E+05  1.530326E+02  3.609566E+01  4.761707E+04 -6.328437E+01 -2.214918E+04
        99   7 -2.224012E+05 -8.010704E+04 -4.754543E+04  4.714017E+04  6.421287E+03 -2.791669E+04
        99   8 -1.862353E+05 -7.192057E+04 -4.266682E+04  4.408038E+04  6.440676E+03 -2.502912E+04
        99   9 -1.500844E+05 -6.371153E+04 -3.780121E+04  4.722109E+04  6.459557E+03 -2.213854E+04
        99  10  4.852948E+05  8.038491E+04  4.731822E+04  4.809406E+04  7.678104E-09  2.294995E-09
        99  11  4.491277E+05  7.218698E+04  4.259697E+04  4.495350E+04  3.339361E-09  7.412030E-10
        99  12  4.129469E+05  6.401367E+04  3.787185E+04  4.801308E+04 -5.553522E-09  1.563390E-09
        99  13  1.313828E+05  1.411967E+02 -1.138329E+02  4.761707E+04  2.689915E-09  6.078460E-09
        99  14  1.313947E+05  1.350282E+02 -3.510982E+01  4.451691E+04  3.053048E-09  6.924236E-10
        99  15  1.313908E+05  1.525058E+02  3.517369E+01  4.761707E+04  9.646618E-10 -9.144331E-10
        99  16 -2.224015E+05 -8.010789E+04 -4.754697E+04  4.714032E+04 -6.200909E-09  2.604338E-09
        99  17 -1.862355E+05 -7.192125E+04 -4.266808E+04  4.408051E+04 -1.344340E-09 -1.094119E-09
        99  18 -1.500846E+05 -6.371206E+04 -3.780221E+04  4.722121E+04  4.615126E-09 -2.039657E-09
        99  19  4.852950E+05  8.038576E+04  4.731977E+04  4.809421E+04  6.599902E+03  2.793558E+04
        99  20  4.491279E+05  7.218766E+04  4.259823E+04  4.495363E+04  6.594170E+03  2.504921E+04
        99  21  4.129470E+05  6.401421E+04  3.787286E+04  4.801320E+04  6.588947E+03  2.215983E+04
        99  22  1.313830E+05  1.420342E+02 -1.123673E+02  4.761708E+04  8.753854E+01  2.792613E+04
        99  23  1.313948E+05  1.357015E+02 -3.393156E+01  4.451691E+04  7.515746E+01  2.503916E+04
        99  24  1.313909E+05  1.530326E+02  3.609566E+01  4.761707E+04  6.328437E+01  2.214918E+04
        99  25 -2.224012E+05 -8.010704E+04 -4.754543E+04  4.714017E+04 -6.421287E+03  2.791669E+04
        99  26 -1.862353E+05 -7.192057E+04 -4.266682E+04  4.408038E+04 -6.440676E+03  2.502912E+04
        99  27 -1.500844E+05 -6.371153E+04 -3.780121E+04  4.722109E+04 -6.459557E+03  2.213854E+04
       100   1  3.904821E+05  5.889636E+04  3.476689E+04  4.798853E+04 -6.600635E+03 -2.047709E+04
       100   2  3.543212E+05  5.070673E+04  3.006859E+04  4.483799E+04 -6.679541E+03 -1.758855E+04
       100   3  3.181582E+05  4.256060E+04  2.542488E+04  4.788475E+04 -6.758789E+03 -1.470435E+04
       100   4  1.313963E+05  1.557385E+02  7.326618E+01  4.761643E+04 -7.561300E+01 -2.046615E+04
       100   5  1.313999E+05  1.547252E+02  1.690944E+02  4.451769E+04 -1.644662E+02 -1.757721E+04
       100   6  1.314018E+05  1.989639E+02  3.263135E+02  4.761636E+04 -2.536650E+02 -1.469262E+04
       100   7 -1.276211E+05 -5.858774E+04 -3.462077E+04  4.724447E+04  6.446813E+03 -2.045521E+04
       100   8 -9.147065E+04 -5.039939E+04 -2.973067E+04  4.419748E+04  6.348379E+03 -1.756588E+04
       100   9 -5.531899E+04 -4.216415E+04 -2.477240E+04  4.734804E+04  6.249594E+03 -1.468089E+04
       100  10  3.904820E+05  5.889590E+04  3.476602E+04  4.798842E+04 -2.358672E-08  3.549460E-09
       100  11  3.543211E+05  5.070639E+04  3.006792E+04  4.483790E+04  9.307695E-09  3.360761E-09
       100  12  3.181581E+05  4.256036E+04  2.542439E+04  4.788467E+04  3.603416E-08  6.264656E-09
       100  13  1.313962E+05  1.552887E+02  7.247900E+01  4.761643E+04  4.554886E-10 -1.007070E-09
       100  14  1.313998E+05  1.543934E+02  1.685137E+02  4.451769E+04 -1.329461E-09 -5.557691E-09
       100  15  1.314017E+05  1.987321E+02  3.259077E+02  4.761636E+04 -2.234163E-09 -1.056928E-08
       100  16 -1.276212E+05 -5.858820E+04 -3.462163E+04  4.724457E+04  2.520657E-08  1.370327E-09
       100  17 -9.147078E+04 -5.039973E+04 -2.973133E+04  4.419757E+04 -8.102809E-09 -3.407109E-09
       100  18 -5.531909E+04 -4.216439E+04 -2.477288E+04  4.734812E+04 -3.685537E-08  3.580401E-09
       100  19  3.904821E+05  5.889636E+04  3.476689E+04  4.798853E+04  6.600635E+03  2.047709E+04
       100  20  3.543212E+05  5.070673E+04  3.006859E+04  4.483799E+04  6.679541E+03  1.758855E+04
       100  21  3.181582E+05  4.256060E+04  2.542488E+04  4.788475E+04  6.758789E+03  1.470435E+04
       100  22  1.313963E+05  1.557385E+02  7.326618E+01  4.761643E+04  7.561300E+01  2.046615E+04
       100  23  1.313999E+05  1.547252E+02  1.690944E+02  4.451769E+04  1.644662E+02  1.757721E+04
       100  24  1.314018E+05  1.989639E+02  3.263135E+02  4.761636E+04  2.536650E+02  1.469262E+04
       100  25 -1.276211E+05 -5.858774E+04 -3.462077E+04  4.724447E+04 -6.446813E+03  2.045521E+04
       100  26 -9.147065E+04 -5.039939E+04 -2.973067E+04  4.419748E+04 -6.348379E+03  1.756588E+04
       100  27 -5.531899E+04 -4.216415E+04 -2.477240E+04  4.734804E+04 -6.249594E+03  1.468089E+04
       101   1  2.957167E+05  3.745343E+04  2.238878E+04  4.787552E+04 -6.824555E+03 -1.302591E+04
       101   2  2.595219E+05  2.937209E+04  1.791263E+04  4.456295E+04 -7.144027E+03 -1.016308E+04
       101   3  2.234113E+05  2.156366E+04  1.370419E+04  4.744319E+04 -7.463615E+03 -7.336462E+03
       101   4  1.314251E+05  2.128079E+02  4.388640E+02  4.761543E+04 -3.213218E+02 -1.301399E+04
       101   5  1.313785E+05  3.252300E+02  7.911178E+02  4.451852E+04 -7.226785E+02 -1.015108E+04
       101   6  1.314282E+05  7.246926E+02  1.467678E+03  4.761448E+04 -1.124167E+03 -7.324388E+03
       101   7 -3.283888E+04 -3.702895E+04 -2.151112E+04  4.735539E+04  6.180271E+03 -1.300208E+04
       101   8  3.251835E+03 -2.872231E+04 -1.633037E+04  4.447409E+04  5.697407E+03 -1.013908E+04
       101   9  3.945386E+04 -2.011462E+04 -1.076875E+04  4.778575E+04  5.214387E+03 -7.312310E+03
       101  10  2.957166E+05  3.745324E+04  2.238838E+04  4.787545E+04 -4.517335E-08  8.700731E-09
       101  11  2.595218E+05  2.937196E+04  1.791234E+04  4.456289E+04 -2.474348E-09  3.457922E-09
       101  12  2.234112E+05  2.156359E+04  1.370398E+04  4.744314E+04  3.519852E-08  4.144522E-09
       101  13  1.314250E+05  2.126259E+02  4.385456E+02  4.761543E+04  4.915110E-10 -1.011927E-08
       101  14  1.313784E+05  3.251192E+02  7.909231E+02  4.451851E+04 -2.625773E-10 -3.396135E-09
       101  15  1.314282E+05  7.246347E+02  1.467575E+03  4.761448E+04  2.038553E-09 -9.978634E-10
       101  16 -3.283897E+04 -3.702914E+04 -2.151151E+04  4.735546E+04  4.467253E-08  7.189453E-09
       101  17  3.251772E+03 -2.872242E+04 -1.633063E+04  4.447414E+04  6.049753E-09  5.114519E-09
       101  18  3.945382E+04 -2.011468E+04 -1.076890E+04  4.778578E+04 -3.638708E-08 -2.814195E-09
       101  19  2.957167E+05  3.745343E+04  2.238878E+04  4.787552E+04  6.824555E+03  1.302591E+04
       101  20  2.595219E+05  2.937209E+04  1.791263E+04  4.456295E+04  7.144027E+03  1.016308E+04
       101  21  2.234113E+05  2.156366E+04  1.370419E+04  4.744319E+04  7.463615E+03  7.336462E+03
       101  22  1.314251E+05  2.128079E+02  4.388640E+02  4.761543E+04  3.213218E+02  1.301399E+04
       101  23  1.313785E+05  3.252300E+02  7.911178E+02  4.451852E+04  7.226785E+02  1.015108E+04
       101  24  1.314282E+05  7.246926E+02  1.467678E+03  4.761448E+04  1.124167E+03  7.324388E+03
       101  25 -3.283888E+04 -3.702895E+04 -2.151112E+04  4.735539E+04 -6.180271E+03  1.300208E+04
       101  26  3.251835E+03 -2.872231E+04 -1.633037E+04  4.447409E+04 -5.697407E+03  1.013908E+04
       101  27  3.945386E+04 -2.011462E+04 -1.076875E+04  4.778575E+04 -5.214387E+03  7.312310E+03
       102   1  2.011246E+05  1.661200E+04  1.099706E+04  4.757636E+04 -7.709343E+03 -5.693038E+03
       102   2  1.645615E+05  9.909887E+03  7.547708E+03  4.221860E+04 -8.924480E+03 -3.033446E+03
       102   3  1.288414E+05  6.058383E+03  5.593079E+03  4.302963E+04 -1.013911E+04 -6.581022E+02
       102   4  1.316193E+05  9.074355E+02  1.963916E+03  4.760989E+04 -1.381942E+03 -5.680899E+03
       102   5  1.311429E+05  2.453833E+03  3.626652E+03  4.451982E+04 -3.238574E+03 -3.022515E+03
       102   6  1.316198E+05  6.962385E+03  7.229545E+03  4.759846E+04 -5.094770E+03 -6.483982E+02
       102   7  6.211911E+04 -1.479730E+04 -7.069102E+03  4.764342E+04  4.944786E+03 -5.668758E+03
       102   8  9.772550E+04 -5.002225E+03 -2.942766E+02  4.682091E+04  2.447043E+03 -3.011542E+03
       102   9  1.343983E+05  7.866478E+03  8.866118E+03  5.216730E+04 -5.040059E+01 -6.386199E+02
       102  10  2.011245E+05  1.661194E+04  1.099688E+04  4.757633E+04  6.817886E-08  3.685750E-09
       102  11  1.645615E+05  9.909855E+03  7.547541E+03  4.221858E+04  3.496672E-09  2.407218E-09
       102  12  1.288412E+05  6.058355E+03  5.592885E+03  4.302962E+04 -6.295260E-08 -1.361839E-11
       102  13  1.316193E+05  9.074003E+02  1.963852E+03  4.760989E+04  2.760602E-09  6.424890E-09
       102  14  1.311429E+05  2.453821E+03  3.626615E+03  4.451981E+04 -4.605296E-09 -1.866530E-09
       102  15  1.316197E+05  6.962378E+03  7.229496E+03  4.759845E+04 -2.159682E-09  4.457351E-09
       102  16  6.211907E+04 -1.479735E+04 -7.069208E+03  4.764344E+04 -6.696453E-08  2.109691E-09
       102  17  9.772549E+04 -5.002236E+03 -2.943049E+02  4.682092E+04 -2.493416E-10  3.920988E-09
       102  18  1.343983E+05  7.866478E+03  8.866117E+03  5.216730E+04  6.149546E-08 -2.190049E-11
       102  19  2.011246E+05  1.661200E+04  1.099706E+04  4.757636E+04  7.709343E+03  5.693038E+03
       102  20  1.645615E+05  9.909887E+03  7.547708E+03  4.221860E+04  8.924480E+03  3.033446E+03
       102  21  1.288414E+05  6.058383E+03  5.593079E+03  4.302963E+04  1.013911E+04  6.581022E+02
       102  22  1.316193E+05  9.074355E+02  1.963916E+03  4.760989E+04  1.381942E+03  5.680899E+03
       102  23  1.311429E+05  2.453833E+03  3.626652E+03  4.451982E+04  3.238574E+03  3.022515E+03
       102  24  1.316198E+05  6.962385E+03  7.229545E+03  4.759846E+04  5.094770E+03  6.483982E+02
       102  25  6.211911E+04 -1.479730E+04 -7.069102E+03  4.764342E+04 -4.944786E+03  5.668758E+03
       102  26  9.772550E+04 -5.002225E+03 -2.942766E+02  4.682091E+04 -2.447043E+03  3.011542E+03
       102  27  1.343983E+05  7.866478E+03  8.866118E+03  5.216730E+04  5.040059E+01  6.386199E+02
       103   1  1.112779E+04  4.159373E+05  1.241512E+04 -4.098671E+04 -3.789877E+02  1.958624E+03
       103   2 -3.468297E+03  3.779087E+05  1.776457E+03 -3.417972E+04 -2.074743E+03 -1.585665E+03
       103   3 -1.348939E+04  3.414677E+05 -5.416810E+03 -3.618337E+04 -4.394127E+03 -5.130261E+03
       103   4  7.069329E+03  4.000512E+05  8.048638E+03 -3.653434E+04 -3.809476E+02  4.190126E+03
       103   5  1.449251E+03  3.993450E+05  4.958835E+03 -3.213197E+04 -2.077577E+03  1.649026E+03
       103   6  2.302466E+02  4.000517E+05  4.618303E+03 -3.654011E+04 -4.397800E+03 -8.925629E+02
       103   7  3.010924E+03  3.841653E+05  3.682166E+03 -3.208208E+04 -3.828756E+02  6.421570E+03
       103   8  6.366800E+03  4.207819E+05  8.141246E+03 -3.008415E+04 -2.080390E+03  4.883824E+03
       103   9  1.394971E+04  4.586392E+05  1.465337E+04 -3.689689E+04 -4.401477E+03  3.345522E+03
       103  10  1.112779E+04  4.159373E+05  1.241511E+04 -4.098671E+04  5.117019E-10 -2.375361E-08
       103  11 -3.468302E+03  3.779087E+05  1.776444E+03 -3.417973E+04 -4.561474E-10 -2.370152E-09
       103  12 -1.348941E+04  3.414677E+05 -5.416896E+03 -3.618339E+04 -2.980726E-09  2.296907E-08
       103  13  7.069324E+03  4.000512E+05  8.048605E+03 -3.653434E+04  1.795430E-09 -1.471740E-11
       103  14  1.449246E+03  3.993450E+05  4.958822E+03 -3.213197E+04  1.393723E-09 -9.761793E-10
       103  15  2.302256E+02  4.000517E+05  4.618265E+03 -3.654011E+04  1.591084E-09 -1.365369E-09
       103  16  3.010913E+03  3.841653E+05  3.682088E+03 -3.208208E+04  4.478473E-10  2.412958E-08
       103  17  6.366789E+03  4.207818E+05  8.141193E+03 -3.008414E+04  6.489681E-09 -4.216679E-10
       103  18  1.394968E+04  4.586392E+05  1.465331E+04 -3.689687E+04  1.964038E-09 -2.281506E-08
       103  19  1.112779E+04  4.159373E+05  1.241512E+04 -4.098671E+04  3.789877E+02 -1.958624E+03
       103  20 -3.468297E+03  3.779087E+05  1.776457E+03 -3.417972E+04  2.074743E+03  1.585665E+03
       103  21 -1.348939E+04  3.414677E+05 -5.416810E+03 -3.618337E+04  4.394127E+03  5.130261E+03
       103  22  7.069329E+03  4.000512E+05  8.048638E+03 -3.653434E+04  3.809476E+02 -4.190126E+03
       103  23  1.449251E+03  3.993450E+05  4.958835E+03 -3.213197E+04  2.077577E+03 -1.649026E+03
       103  24  2.302466E+02  4.000517E+05  4.618303E+03 -3.654011E+04  4.397800E+03  8.925629E+02
       103  25  3.010924E+03  3.841653E+05  3.682166E+03 -3.208208E+04  3.828756E+02 -6.421570E+03
       103  26  6.366800E+03  4.207819E+05  8.141246E+03 -3.008415E+04  2.080390E+03 -4.883824E+03
       103  27  1.394971E+04  4.586392E+05  1.465337E+04 -3.689689E+04  4.401477E+03 -3.345522E+03
       104   1 -1.921558E+04  3.167783E+05 -9.472713E+03 -3.700686E+04 -5.969990E+03 -5.910180E+03
       104   2 -2.795126E+04  2.791470E+05 -1.417969E+04 -3.188191E+04 -8.353296E+03 -8.709756E+03
       104   3 -3.504197E+04  2.422773E+05 -1.665763E+04 -3.558181E+04 -1.026087E+04 -1.150861E+04
       104   4  3.131869E+02  3.999354E+05  5.052615E+03 -3.654270E+04 -5.973588E+03 -1.690217E+03
       104   5  3.722216E+02  3.994871E+05  7.141190E+03 -3.212953E+04 -8.356058E+03 -5.255745E+03
       104   6  2.208957E+03  3.999315E+05  1.199006E+04 -3.654106E+04 -1.026284E+04 -8.820708E+03
       104   7  1.984159E+04  4.830992E+05  1.957776E+04 -3.607846E+04 -5.977179E+03  2.530294E+03
       104   8  2.869491E+04  5.198413E+05  2.846158E+04 -3.237720E+04 -8.358823E+03 -1.801084E+03
       104   9  3.945849E+04  5.576099E+05  4.063679E+04 -3.750056E+04 -1.026482E+04 -6.132146E+03
       104  10 -1.921562E+04  3.167783E+05 -9.472846E+03 -3.700689E+04 -1.188198E-09  1.962285E-09
       104  11 -2.795135E+04  2.791469E+05 -1.417997E+04 -3.188197E+04  5.650192E-09 -6.125862E-10
       104  12 -3.504212E+04  2.422771E+05 -1.665808E+04 -3.558190E+04 -2.146433E-09  5.201634E-10
       104  13  3.131478E+02  3.999354E+05  5.052543E+03 -3.654270E+04 -1.068487E-09 -7.236447E-11
       104  14  3.721392E+02  3.994870E+05  7.141007E+03 -3.212957E+04  7.081678E-10 -8.927927E-10
       104  15  2.208823E+03  3.999314E+05  1.198972E+04 -3.654113E+04 -1.766645E-09 -1.287334E-09
       104  16  1.984155E+04  4.830992E+05  1.957769E+04 -3.607845E+04 -4.430809E-10 -1.589739E-09
       104  17  2.869483E+04  5.198412E+05  2.846144E+04 -3.237721E+04 -9.824698E-10 -1.789202E-09
       104  18  3.945837E+04  5.576099E+05  4.063652E+04 -3.750061E+04  1.977359E-09 -3.956625E-10
       104  19 -1.921558E+04  3.167783E+05 -9.472713E+03 -3.700686E+04  5.969990E+03  5.910180E+03
       104  20 -2.795126E+04  2.791470E+05 -1.417969E+04 -3.188191E+04  8.353296E+03  8.709756E+03
       104  21 -3.504197E+04  2.422773E+05 -1.665763E+04 -3.558181E+04  1.026087E+04  1.150861E+04
       104  22  3.131869E+02  3.999354E+05  5.052615E+03 -3.654270E+04  5.973588E+03  1.690217E+03
       104  23  3.722216E+02  3.994871E+05  7.141190E+03 -3.212953E+04  8.356058E+03  5.255745E+03
       104  24  2.208957E+03  3.999315E+05  1.199006E+04 -3.654106E+04  1.026284E+04  8.820708E+03
       104  25  1.984159E+04  4.830992E+05  1.957776E+04 -3.607846E+04  5.977179E+03 -2.530294E+03
       104  26  2.869491E+04  5.198413E+05  2.846158E+04 -3.237720E+04  8.358823E+03  1.801084E+03
       104  27  3.945849E+04  5.576099E+05  4.063679E+04 -3.750056E+04  1.026482E+04  6.132146E+03
       105   1 -4.205669E+04  2.193867E+05 -1.796391E+04 -3.981095E+04 -1.163246E+04 -1.439261E+04
       105   2 -4.215825E+04  1.781246E+05 -1.598393E+04 -1.819246E+04 -1.064866E+04 -1.843135E+04
       105   3 -1.273143E+04  1.447645E+05 -3.993612E+03 -4.997471E+03 -3.312678E+03 -2.246548E+04
       105   4  1.106427E+03  4.018811E+05  1.545219E+04 -3.645716E+04 -1.163508E+04 -1.086485E+04
       105   5  1.034632E+04  3.970390E+05  2.757007E+04 -3.222715E+04 -1.064287E+04 -2.512400E+04
       105   6  5.088118E+04  4.018662E+05  5.678999E+04 -3.641954E+04 -3.299280E+03 -3.937887E+04
       105   7  4.426771E+04  5.844079E+05  4.886700E+04 -3.310235E+04 -1.163766E+04 -7.336076E+03
       105   8  6.284873E+04  6.159996E+05  7.112196E+04 -4.626688E+04 -1.063678E+04 -3.181896E+04
       105   9  1.144929E+05  6.590313E+05  1.175706E+05 -6.785468E+04 -3.284173E+03 -5.629922E+04
       105  10 -4.205690E+04  2.193864E+05 -1.796456E+04 -3.981108E+04 -6.482204E-10 -1.644174E-10
       105  11 -4.215846E+04  1.781242E+05 -1.598478E+04 -1.819262E+04  2.884657E-09 -2.117603E-09
       105  12 -1.273158E+04  1.447639E+05 -3.994580E+03 -4.997531E+03  8.482324E-10 -4.348701E-10
       105  13  1.106250E+03  4.018809E+05  1.545172E+04 -3.645726E+04 -1.824186E-09 -1.611943E-10
       105  14  1.034603E+04  3.970383E+05  2.756867E+04 -3.222736E+04  1.259796E-09 -8.559340E-10
       105  15  5.088076E+04  4.018645E+05  5.678706E+04 -3.641965E+04 -7.713958E-10 -1.065505E-09
       105  16  4.426755E+04  5.844078E+05  4.886664E+04 -3.310242E+04  2.498969E-09  5.976439E-10
       105  17  6.284834E+04  6.159985E+05  7.111984E+04 -4.626715E+04 -2.850461E-09  7.986700E-12
       105  18  1.144921E+05  6.590279E+05  1.175646E+05 -6.785483E+04 -2.109446E-09  8.451716E-10
       105  19 -4.205669E+04  2.193867E+05 -1.796391E+04 -3.981095E+04  1.163246E+04  1.439261E+04
       105  20 -4.215825E+04  1.781246E+05 -1.598393E+04 -1.819246E+04  1.064866E+04  1.843135E+04
       105  21 -1.273143E+04  1.447645E+05 -3.993612E+03 -4.997471E+03  3.312678E+03  2.246548E+04
       105  22  1.106427E+03  4.018811E+05  1.545219E+04 -3.645716E+04  1.163508E+04  1.086485E+04
       105  23  1.034632E+04  3.970390E+05  2.757007E+04 -3.222715E+04  1.064287E+04  2.512400E+04
       105  24  5.088118E+04  4.018662E+05  5.678999E+04 -3.641954E+04  3.299280E+03  3.937887E+04
       105  25  4.426771E+04  5.844079E+05  4.886700E+04 -3.310235E+04  1.163766E+04  7.336076E+03
       105  26  6.284873E+04  6.159996E+05  7.112196E+04 -4.626688E+04  1.063678E+04  3.181896E+04
       105  27  1.144929E+05  6.590313E+05  1.175706E+05 -6.785468E+04  3.284173E+03  5.629922E+04
       106   1  9.181101E+05  3.276075E+05  1.630642E+05  3.419992E+05  6.382586E+04  1.312699E+04
       106   2  8.673483E+05  3.038323E+05  1.163122E+05  3.272061E+05  4.133945E+04 -2.132857E+04
       106   3  8.162794E+05  2.895627E+05  9.351918E+04  3.194537E+05  1.305375E+04 -4.034139E+04
       106   4  2.458780E+05  7.967530E+04 -6.499107E+03  1.614304E+05 -6.747654E+02 -1.113275E+04
       106   5  2.496215E+05  8.057915E+04 -3.106908E+03  1.570036E+05  9.505110E+03 -3.330841E+04
       106   6  2.465923E+05  8.452556E+04 -1.610981E+03  1.596174E+05  1.387845E+04 -4.003549E+04
       106   7 -4.258738E+05 -1.682159E+05 -1.760722E+05 -1.895260E+04 -6.509614E+04 -3.536363E+04
       106   8 -3.676924E+05 -1.426349E+05 -1.225342E+05 -1.303813E+04 -2.229455E+04 -4.527545E+04
       106   9 -3.227476E+05 -1.204782E+05 -9.674879E+04 -8.135927E+01  1.470234E+04 -3.972989E+04
       106  10  9.181056E+05  3.276063E+05  1.630563E+05  3.419986E+05  1.209057E-08  4.217543E-09
       106  11  8.673463E+05  3.038314E+05  1.163081E+05  3.272068E+05  1.459543E-08  4.006738E-09
       106  12  8.162787E+05  2.895609E+05  9.351580E+04  3.194541E+05  1.402229E-08  3.056644E-09
       106  13  2.458780E+05  7.967517E+04 -6.499341E+03  1.614304E+05 -1.333425E-09  2.684643E-09
       106  14  2.496211E+05  8.057793E+04 -3.109163E+03  1.570039E+05  2.129602E-09  7.665418E-09
       106  15  2.465916E+05  8.452378E+04 -1.614356E+03  1.596178E+05  8.282580E-09  1.364559E-08
       106  16 -4.258787E+05 -1.682184E+05 -1.760825E+05 -1.895445E+04 -9.937612E-09 -6.114487E-09
       106  17 -3.676935E+05 -1.426372E+05 -1.225389E+05 -1.303895E+04 -5.974032E-09 -9.714193E-09
       106  18 -3.227482E+05 -1.204800E+05 -9.675216E+04 -8.088872E+01  3.465687E-09 -8.177085E-09
       106  19  9.181101E+05  3.276075E+05  1.630642E+05  3.419992E+05 -6.382586E+04 -1.312699E+04
       106  20  8.673483E+05  3.038323E+05  1.163122E+05  3.272061E+05 -4.133945E+04  2.132857E+04
       106  21  8.162794E+05  2.895627E+05  9.351918E+04  3.194537E+05 -1.305375E+04  4.034139E+04
       106  22  2.458780E+05  7.967530E+04 -6.499107E+03  1.614304E+05  6.747654E+02  1.113275E+04
       106  23  2.496215E+05  8.057915E+04 -3.106908E+03  1.570036E+05 -9.505110E+03  3.330841E+04
       106  24  2.465923E+05  8.452556E+04 -1.610981E+03  1.596174E+05 -1.387845E+04  4.003549E+04
       106  25 -4.258738E+05 -1.682159E+05 -1.760722E+05 -1.895260E+04  6.509614E+04  3.536363E+04
       106  26 -3.676924E+05 -1.426349E+05 -1.225342E+05 -1.303813E+04  2.229455E+04  4.527545E+04
       106  27 -3.227476E+05 -1.204782E+05 -9.674879E+04 -8.135927E+01 -1.470234E+04  3.972989E+04
       107   1  7.845846E+05  2.779061E+05  8.634222E+04  3.107717E+05  1.335204E+04 -3.937068E+04
       107   2  7.383269E+05  2.566642E+05  7.495333E+04  2.935185E+05  9.618783E+03 -3.956306E+04
       107   3  6.862573E+05  2.423833E+05  6.617056E+04  2.836503E+05  5.235508E+03 -3.803010E+04
       107   4  2.465967E+05  8.483359E+04 -1.195857E+03  1.598489E+05  1.377632E+04 -3.921518E+04
       107   5  2.498993E+05  8.190713E+04 -6.220355E+02  1.560871E+05  1.369214E+04 -3.803335E+04
       107   6  2.466663E+05  8.521988E+04 -3.309719E+02  1.597100E+05  1.295745E+04 -3.512546E+04
       107   7 -2.910885E+05 -1.082120E+05 -8.874213E+04  9.046763E+03  1.420021E+04 -3.905981E+04
       107   8 -2.382744E+05 -9.282591E+04 -7.620196E+04  1.875651E+04  1.776214E+04 -3.650489E+04
       107   9 -1.927157E+05 -7.192279E+04 -6.683481E+04  3.585227E+04  2.067363E+04 -3.222298E+04
       107  10  7.845840E+05  2.779044E+05  8.633897E+04  3.107721E+05 -3.526414E-08 -1.775353E-08
       107  11  7.383264E+05  2.566625E+05  7.495022E+04  2.935188E+05 -6.520728E-09 -4.390661E-09
       107  12  6.862569E+05  2.423817E+05  6.616779E+04  2.836505E+05  3.569338E-08  8.935049E-09
       107  13  2.465961E+05  8.483189E+04 -1.199104E+03  1.598494E+05  8.989445E-09  1.327656E-08
       107  14  2.498987E+05  8.190552E+04 -6.251066E+02  1.560876E+05  1.101099E-08  2.073653E-09
       107  15  2.466658E+05  8.521851E+04 -3.336064E+02  1.597104E+05  1.063719E-08 -1.091698E-08
       107  16 -2.910891E+05 -1.082137E+05 -8.874538E+04  9.047210E+03  5.287258E-08  1.353682E-08
       107  17 -2.382751E+05 -9.282743E+04 -7.620506E+04  1.875703E+04  1.977912E-08  1.037179E-08
       107  18 -1.927164E+05 -7.192402E+04 -6.683756E+04  3.585281E+04 -1.937434E-08 -8.287054E-10
       107  19  7.845846E+05  2.779061E+05  8.634222E+04  3.107717E+05 -1.335204E+04  3.937068E+04
       107  20  7.383269E+05  2.566642E+05  7.495333E+04  2.935185E+05 -9.618783E+03  3.956306E+04
       107  21  6.862573E+05  2.423833E+05  6.617056E+04  2.836503E+05 -5.235508E+03  3.803010E+04
       107  22  2.465967E+05  8.483359E+04 -1.195857E+03  1.598489E+05 -1.377632E+04  3.921518E+04
       107  23  2.498993E+05  8.190713E+04 -6.220355E+02  1.560871E+05 -1.369214E+04  3.803335E+04
       107  24  2.466663E+05  8.521988E+04 -3.309719E+02  1.597100E+05 -1.295745E+04  3.512546E+04
       107  25 -2.910885E+05 -1.082120E+05 -8.874213E+04  9.046763E+03 -1.420021E+04  3.905981E+04
       107  26 -2.382744E+05 -9.282591E+04 -7.620196E+04  1.875651E+04 -1.776214E+04  3.650489E+04
       107  27 -1.927157E+05 -7.192279E+04 -6.683481E+04  3.585227E+04 -2.067363E+04  3.222298E+04
       108   1  6.554495E+05  2.313261E+05  6.117299E+04  2.750107E+05  4.504860E+03 -3.581220E+04
       108   2  6.097118E+05  2.105459E+05  5.360421E+04  2.575059E+05  2.759701E+03 -3.221595E+04
       108   3  5.575288E+05  1.963575E+05  4.630956E+04  2.474398E+05  9.414610E+02 -2.842812E+04
       108   4  2.466679E+05  8.525338E+04 -2.450916E+02  1.597338E+05  1.217971E+04 -3.292454E+04
       108   5  2.499434E+05  8.202179E+04 -1.244520E+02  1.560089E+05  1.083961E+04 -2.917465E+04
       108   6  2.466897E+05  8.530173E+04 -5.109728E+01  1.597221E+05  9.426364E+03 -2.523309E+04
       108   7 -1.619275E+05 -6.079935E+04 -6.166355E+04  4.452983E+04  1.984913E+04 -3.003893E+04
       108   8 -1.096846E+05 -4.648828E+04 -5.385432E+04  5.456731E+04  1.891458E+04 -2.613520E+04
       108   9 -6.404835E+04 -2.574494E+04 -4.641360E+04  7.204479E+04  1.790689E+04 -2.203971E+04
       108  10  6.554491E+05  2.313247E+05  6.117054E+04  2.750108E+05 -4.966657E-08 -2.357952E-08
       108  11  6.097115E+05  2.105448E+05  5.360225E+04  2.575060E+05 -3.285576E-08 -1.204295E-08
       108  12  5.575286E+05  1.963566E+05  4.630804E+04  2.474399E+05 -4.774289E-09  9.569789E-09
       108  13  2.466675E+05  8.525218E+04 -2.474078E+02  1.597341E+05  7.613947E-09 -1.845372E-08
       108  14  2.499430E+05  8.202084E+04 -1.262726E+02  1.560091E+05  9.254698E-09 -3.044472E-08
       108  15  2.466894E+05  8.530102E+04 -5.246097E+01  1.597223E+05  5.028092E-09 -3.184067E-08
       108  16 -1.619281E+05 -6.080043E+04 -6.166599E+04  4.453031E+04  6.338658E-08  3.101751E-08
       108  17 -1.096852E+05 -4.648911E+04 -5.385627E+04  5.456770E+04  2.481181E-08  1.515744E-08
       108  18 -6.404883E+04 -2.574555E+04 -4.641512E+04  7.204510E+04 -1.458979E-08  5.625518E-11
       108  19  6.554495E+05  2.313261E+05  6.117299E+04  2.750107E+05 -4.504860E+03  3.581220E+04
       108  20  6.097118E+05  2.105459E+05  5.360421E+04  2.575059E+05 -2.759701E+03  3.221595E+04
       108  21  5.575288E+05  1.963575E+05  4.630956E+04  2.474398E+05 -9.414610E+02  2.842812E+04
       108  22  2.466679E+05  8.525338E+04 -2.450916E+02  1.597338E+05 -1.217971E+04  3.292454E+04
       108  23  2.499434E+05  8.202179E+04 -1.244520E+02  1.560089E+05 -1.083961E+04  2.917465E+04
       108  24  2.466897E+05  8.530173E+04 -5.109728E+01  1.597221E+05 -9.426364E+03  2.523309E+04
       108  25 -1.619275E+05 -6.079935E+04 -6.166355E+04  4.452983E+04 -1.984913E+04  3.003893E+04
       108  26 -1.096846E+05 -4.648828E+04 -5.385432E+04  5.456731E+04 -1.891458E+04  2.613520E+04
       108  27 -6.404835E+04 -2.574494E+04 -4.641360E+04  7.204479E+04 -1.790689E+04  2.203971E+04
       109   1  5.268520E+05  1.853706E+05  4.153499E+04  2.388036E+05  7.236989E+01 -2.608121E+04
       109   2  4.812053E+05  1.646606E+05  3.437682E+04  2.212808E+05 -1.495106E+03 -2.208121E+04
       109   3  4.290424E+05  1.504902E+05  2.726123E+04  2.111998E+05 -3.070525E+03 -1.806171E+04
       109   4  2.466927E+05  8.530810E+04 -2.536510E+01  1.597230E+05  8.550414E+03 -2.288819E+04
       109   5  2.499613E+05  8.204989E+04  2.454429E+01  1.560015E+05  7.023916E+03 -1.887200E+04
       109   6  2.467025E+05  8.532279E+04  8.408837E+01  1.597208E+05  5.489476E+03 -1.483633E+04
       109   7 -3.338104E+04 -1.474576E+04 -4.158621E+04  8.067604E+04  1.702442E+04 -1.969670E+04
       109   8  1.877692E+04 -5.543353E+02 -3.432757E+04  9.074559E+04  1.553954E+04 -1.566407E+04
       109   9  6.440122E+04  2.015997E+04 -2.709246E+04  1.082568E+05  1.404672E+04 -1.161198E+04
       109  10  5.268518E+05  1.853699E+05  4.153371E+04  2.388036E+05  9.905298E-08  5.560175E-08
       109  11  4.812052E+05  1.646601E+05  3.437590E+04  2.212808E+05  6.890110E-08  3.863235E-08
       109  12  4.290423E+05  1.504898E+05  2.726060E+04  2.111997E+05  2.280393E-08  8.581121E-09
       109  13  2.466925E+05  8.530752E+04 -2.648712E+01  1.597231E+05  9.995613E-09 -2.234563E-08
       109  14  2.499611E+05  8.204950E+04  2.378218E+01  1.560016E+05  1.800077E-08  4.811600E-09
       109  15  2.467024E+05  8.532254E+04  8.361803E+01  1.597209E+05  1.305268E-08  2.954004E-08
       109  16 -3.338146E+04 -1.474625E+04 -4.158748E+04  8.067631E+04 -1.083105E-07 -3.878916E-08
       109  17  1.877659E+04 -5.546637E+02 -3.432848E+04  9.074578E+04 -4.691565E-08 -1.910755E-08
       109  18  6.440098E+04  2.015977E+04 -2.709309E+04  1.082569E+05  6.907686E-09 -6.422376E-09
       109  19  5.268520E+05  1.853706E+05  4.153499E+04  2.388036E+05 -7.236989E+01  2.608121E+04
       109  20  4.812053E+05  1.646606E+05  3.437682E+04  2.212808E+05  1.495106E+03  2.208121E+04
       109  21  4.290424E+05  1.504902E+05  2.726123E+04  2.111998E+05  3.070525E+03  1.806171E+04
       109  22  2.466927E+05  8.530810E+04 -2.536510E+01  1.597230E+05 -8.550414E+03  2.288819E+04
       109  23  2.499613E+05  8.204989E+04  2.454429E+01  1.560015E+05 -7.023916E+03  1.887200E+04
       109  24  2.467025E+05  8.532279E+04  8.408837E+01  1.597208E+05 -5.489476E+03  1.483633E+04
       109  25 -3.338104E+04 -1.474576E+04 -4.158621E+04  8.067604E+04 -1.702442E+04  1.969670E+04
       109  26  1.877692E+04 -5.543353E+02 -3.432757E+04  9.074559E+04 -1.553954E+04  1.566407E+04
       109  27  6.440122E+04  2.015997E+04 -2.709246E+04  1.082568E+05 -1.404672E+04  1.161198E+04
       110   1  3.983952E+05  1.395102E+05  2.252924E+04  2.025683E+05 -3.974748E+03 -1.570979E+04
       110   2  3.527688E+05  1.188064E+05  1.548068E+04  1.850540E+05 -5.597465E+03 -1.170223E+04
       110   3  3.006278E+05  1.046392E+05  8.506442E+03  1.749815E+05 -7.217047E+03 -7.703688E+03
       110   4  2.467090E+05  8.532489E+04  1.221762E+02  1.597223E+05  4.583656E+03 -1.248469E+04
       110   5  2.499668E+05  8.205585E+04  2.366970E+02  1.560019E+05  2.941669E+03 -8.484025E+03
       110   6  2.467122E+05  8.532726E+04  4.408691E+02  1.597226E+05  1.302816E+03 -4.492405E+03
       110   7  9.504601E+04  3.114145E+04 -2.228534E+04  1.168856E+05  1.313996E+04 -9.260372E+03
       110   8  1.471757E+05  4.530621E+04 -1.500727E+04  1.269542E+05  1.147937E+04 -5.266363E+03
       110   9  1.927999E+05  6.601572E+04 -7.624433E+03  1.444651E+05  9.821903E+03 -1.281416E+03
       110  10  3.983951E+05  1.395099E+05  2.252874E+04  2.025683E+05  6.800048E-08  2.025044E-08
       110  11  3.527687E+05  1.188063E+05  1.548036E+04  1.850540E+05  1.714223E-08 -2.705487E-10
       110  12  3.006277E+05  1.046391E+05  8.506233E+03  1.749814E+05 -5.311428E-08 -2.576731E-08
       110  13  2.467089E+05  8.532471E+04  1.218438E+02  1.597223E+05  1.252426E-08  3.716605E-08
       110  14  2.499667E+05  8.205577E+04  2.365455E+02  1.560019E+05  2.051048E-08  3.609779E-08
       110  15  2.467122E+05  8.532724E+04  4.408280E+02  1.597227E+05  3.497319E-09  2.443985E-08
       110  16  9.504581E+04  3.114132E+04 -2.228583E+04  1.168857E+05 -3.006695E-08 -1.974334E-08
       110  17  1.471755E+05  4.530615E+04 -1.500757E+04  1.269542E+05  3.018984E-08  1.144294E-08
       110  18  1.927998E+05  6.601570E+04 -7.624617E+03  1.444651E+05  6.424728E-08  2.511580E-08
       110  19  3.983952E+05  1.395102E+05  2.252924E+04  2.025683E+05  3.974748E+03  1.570979E+04
       110  20  3.527688E+05  1.188064E+05  1.548068E+04  1.850540E+05  5.597465E+03  1.170223E+04
       110  21  3.006278E+05  1.046392E+05  8.506442E+03  1.749815E+05  7.217047E+03  7.703688E+03
       110  22  2.467090E+05  8.532489E+04  1.221762E+02  1.597223E+05 -4.583656E+03  1.248469E+04
       110  23  2.499668E+05  8.205585E+04  2.366970E+02  1.560019E+05 -2.941669E+03  8.484025E+03
       110  24  2.467122E+05  8.532726E+04  4.408691E+02  1.597226E+05 -1.302816E+03  4.492405E+03
       110  25  9.504601E+04  3.114145E+04 -2.228534E+04  1.168856E+05 -1.313996E+04  9.260372E+03
       110  26  1.471757E+05  4.530621E+04 -1.500727E+04  1.269542E+05 -1.147937E+04  5.266363E+03
       110  27  1.927999E+05  6.601572E+04 -7.624433E+03  1.444651E+05 -9.821903E+03  1.281416E+03
       111   1  2.699928E+05  9.366759E+04  3.876019E+03  1.663723E+05 -8.189199E+03 -5.385884E+03
       111   2  2.243682E+05  7.294840E+04 -2.889569E+03  1.488276E+05 -1.002270E+04 -1.527297E+03
       111   3  1.722955E+05  5.884201E+04 -9.385703E+03  1.387087E+05 -1.181914E+04  2.233327E+03
       111   4  2.467318E+05  8.532571E+04  5.908501E+02  1.597293E+05  3.327225E+02 -2.173760E+03
       111   5  2.499466E+05  8.207210E+04  1.079451E+03  1.559892E+05 -1.708227E+03  1.606545E+03
       111   6  2.467514E+05  8.547184E+04  2.001462E+03  1.596737E+05 -3.712146E+03  5.288896E+03
       111   7  2.234719E+05  7.698406E+04 -2.693930E+03  1.530866E+05  8.854206E+03  1.038197E+03
       111   8  2.755258E+05  9.119592E+04  5.048758E+03  1.631511E+05  6.606612E+03  4.740521E+03
       111   9  3.212143E+05  1.121027E+05  1.338909E+04  1.806413E+05  4.395969E+03  8.344888E+03
       111  10  2.699927E+05  9.366754E+04  3.875839E+03  1.663722E+05 -1.662064E-08 -1.163496E-08
       111  11  2.243681E+05  7.294837E+04 -2.889762E+03  1.488276E+05 -9.420904E-09 -1.051700E-08
       111  12  1.722954E+05  5.884196E+04 -9.385975E+03  1.387087E+05 -9.133396E-09 -9.028997E-09
       111  13  2.467318E+05  8.532571E+04  5.908410E+02  1.597293E+05  8.147367E-10  1.885685E-08
       111  14  2.499466E+05  8.207209E+04  1.079441E+03  1.559892E+05  3.417596E-09  9.035934E-09
       111  15  2.467514E+05  8.547180E+04  2.001384E+03  1.596737E+05  2.417304E-09 -5.464970E-09
       111  16  2.234718E+05  7.698404E+04 -2.694079E+03  1.530866E+05  1.959087E-08  8.454376E-09
       111  17  2.755258E+05  9.119588E+04  5.048633E+03  1.631510E+05  2.005611E-08  5.487992E-09
       111  18  3.212142E+05  1.121026E+05  1.338892E+04  1.806412E+05  8.124154E-09  2.471598E-09
       111  19  2.699928E+05  9.366759E+04  3.876019E+03  1.663723E+05  8.189199E+03  5.385884E+03
       111  20  2.243682E+05  7.294840E+04 -2.889569E+03  1.488276E+05  1.002270E+04  1.527297E+03
       111  21  1.722955E+05  5.884201E+04 -9.385703E+03  1.387087E+05  1.181914E+04 -2.233327E+03
       111  22  2.467318E+05  8.532571E+04  5.908501E+02  1.597293E+05 -3.327225E+02  2.173760E+03
       111  23  2.499466E+05  8.207210E+04  1.079451E+03  1.559892E+05  1.708227E+03 -1.606545E+03
       111  24  2.467514E+05  8.547184E+04  2.001462E+03  1.596737E+05  3.712146E+03 -5.288896E+03
       111  25  2.234719E+05  7.698406E+04 -2.693930E+03  1.530866E+05 -8.854206E+03 -1.038197E+03
       111  26  2.755258E+05  9.119592E+04  5.048758E+03  1.631511E+05 -6.606612E+03 -4.740521E+03
       111  27  3.212143E+05  1.121027E+05  1.338909E+04  1.806413E+05 -4.395969E+03 -8.344888E+03
       112   1  1.416341E+05  4.797574E+04 -1.362987E+04  1.302363E+05 -1.305665E+04  4.358506E+03
       112   2  9.653197E+04  2.707002E+04 -1.946919E+04  1.117270E+05 -1.498903E+04  7.523282E+03
       112   3  4.552497E+04  1.393719E+04 -2.447313E+04  1.002818E+05 -1.659009E+04  9.809816E+03
       112   4  2.469026E+05  8.551267E+04  2.680177E+03  1.597019E+05 -4.926850E+03  7.422519E+03
       112   5  2.498677E+05  8.283510E+04  4.961555E+03  1.556446E+05 -8.715754E+03  9.887140E+03
       112   6  2.472928E+05  8.829737E+04  9.548788E+03  1.586501E+05 -1.217342E+04  1.147363E+04
       112   7  3.521831E+05  1.230508E+05  1.899032E+04  1.891722E+05  3.204403E+03  1.048707E+04
       112   8  4.032278E+05  1.386025E+05  2.939174E+04  1.995721E+05 -2.440878E+03  1.225162E+04
       112   9  4.491016E+05  1.626612E+05  4.356903E+04  2.170357E+05 -7.755275E+03  1.313802E+04
       112  10  1.416339E+05  4.797567E+04 -1.363023E+04  1.302364E+05 -1.471330E-08 -1.051524E-08
       112  11  9.653171E+04  2.706990E+04 -1.946972E+04  1.117271E+05  5.025313E-09 -3.778227E-09
       112  12  4.552465E+04  1.393701E+04 -2.447382E+04  1.002820E+05  9.326617E-09  4.774265E-09
       112  13  2.469025E+05  8.551260E+04  2.680028E+03  1.597019E+05  5.186430E-09 -2.201153E-09
       112  14  2.498676E+05  8.283497E+04  4.961229E+03  1.556447E+05  9.693322E-09  1.615441E-09
       112  15  2.472926E+05  8.829719E+04  9.548262E+03  1.586502E+05  3.412304E-09 -5.308881E-09
       112  16  3.521830E+05  1.230507E+05  1.899009E+04  1.891721E+05  1.480883E-08  4.755659E-09
       112  17  4.032277E+05  1.386023E+05  2.939145E+04  1.995722E+05  9.275712E-09  3.221902E-09
       112  18  4.491015E+05  1.626610E+05  4.356859E+04  2.170358E+05 -2.641774E-09 -1.496324E-10
       112  19  1.416341E+05  4.797574E+04 -1.362987E+04  1.302363E+05  1.305665E+04 -4.358506E+03
       112  20  9.653197E+04  2.707002E+04 -1.946919E+04  1.117270E+05  1.498903E+04 -7.523282E+03
       112  21  4.552497E+04  1.393719E+04 -2.447313E+04  1.002818E+05  1.659009E+04 -9.809816E+03
       112  22  2.469026E+05  8.551267E+04  2.680177E+03  1.597019E+05  4.926850E+03 -7.422519E+03
       112  23  2.498677E+05  8.283510E+04  4.961555E+03  1.556446E+05  8.715754E+03 -9.887140E+03
       112  24  2.472928E+05  8.829737E+04  9.548788E+03  1.586501E+05  1.217342E+04 -1.147363E+04
       112  25  3.521831E+05  1.230508E+05  1.899032E+04  1.891722E+05 -3.204403E+03 -1.048707E+04
       112  26  4.032278E+05  1.386025E+05  2.939174E+04  1.995721E+05  2.440878E+03 -1.225162E+04
       112  27  4.491016E+05  1.626612E+05  4.356903E+04  2.170357E+05  7.755275E+03 -1.313802E+04
       113   1  1.467907E+04  4.545465E+03 -2.735503E+04  9.303629E+04 -1.882060E+04  1.072850E+04
       113   2 -2.140630E+04 -1.860490E+04 -3.133209E+04  5.993542E+04 -1.434374E+04  1.042852E+04
       113   3 -5.736251E+04 -1.810168E+04 -3.327889E+04  2.874246E+04 -6.908418E+03  2.271769E+03
       113   4  2.488049E+05  8.913879E+04  1.286345E+04  1.587589E+05 -1.420225E+04  1.246810E+04
       113   5  2.498436E+05  9.505247E+04  2.474678E+04  1.505000E+05 -2.632370E+04  5.913872E+03
       113   6  2.542946E+05  1.279017E+05  5.181060E+04  1.441494E+05 -3.548782E+04 -8.495135E+03
       113   7  4.829932E+05  1.737392E+05  5.308165E+04  2.245059E+05 -9.581958E+03  1.420842E+04
       113   8  5.211700E+05  2.087229E+05  8.082235E+04  2.411033E+05 -3.830922E+04  1.396420E+03
       113   9  5.660434E+05  2.739255E+05  1.368928E+05  2.596120E+05 -6.408218E+04 -1.927104E+04
       113  10  1.467866E+04  4.545246E+03 -2.735591E+04  9.303646E+04 -9.733800E-10 -3.378288E-09
       113  11 -2.140655E+04 -1.860507E+04 -3.133268E+04  5.993554E+04 -9.756367E-10 -7.138549E-10
       113  12 -5.736257E+04 -1.810170E+04 -3.327899E+04  2.874247E+04 -7.799098E-11 -8.969477E-10
       113  13  2.488046E+05  8.913857E+04  1.286278E+04  1.587591E+05  1.039575E-09 -2.642624E-09
       113  14  2.498428E+05  9.505225E+04  2.474541E+04  1.505001E+05  2.430675E-09  3.528207E-09
       113  15  2.542932E+05  1.279012E+05  5.180810E+04  1.441491E+05 -4.903563E-10  1.008919E-09
       113  16  4.829930E+05  1.737390E+05  5.308110E+04  2.245060E+05  3.649870E-12  9.589787E-10
       113  17  5.211685E+05  2.087225E+05  8.081959E+04  2.411033E+05  3.687892E-09  3.211156E-09
       113  18  5.660389E+05  2.739240E+05  1.368844E+05  2.596110E+05 -1.280504E-10  2.436795E-09
       113  19  1.467907E+04  4.545465E+03 -2.735503E+04  9.303629E+04  1.882060E+04 -1.072850E+04
       113  20 -2.140630E+04 -1.860490E+04 -3.133209E+04  5.993542E+04  1.434374E+04 -1.042852E+04
       113  21 -5.736251E+04 -1.810168E+04 -3.327889E+04  2.874246E+04  6.908418E+03 -2.271769E+03
       113  22  2.488049E+05  8.913879E+04  1.286345E+04  1.587589E+05  1.420225E+04 -1.246810E+04
       113  23  2.498436E+05  9.505247E+04  2.474678E+04  1.505000E+05  2.632370E+04 -5.913872E+03
       113  24  2.542946E+05  1.279017E+05  5.181060E+04  1.441494E+05  3.548782E+04  8.495135E+03
       113  25  4.829932E+05  1.737392E+05  5.308165E+04  2.245059E+05  9.581958E+03 -1.420842E+04
       113  26  5.211700E+05  2.087229E+05  8.082235E+04  2.411033E+05  3.830922E+04 -1.396420E+03
       113  27  5.660434E+05  2.739255E+05  1.368928E+05  2.596120E+05  6.408218E+04  1.927104E+04
       114   1 -2.369272E+05 -1.099137E+06 -2.667853E+05  8.411933E+04 -4.370872E+03 -1.041391E+05
       114   2 -8.128583E+04 -9.912034E+05 -1.620375E+05  2.557661E+04 -1.271284E+04 -6.218005E+04
       114   3 -7.187159E+04 -9.248911E+05 -1.211249E+05  3.159763E+04 -9.657417E+03 -2.019673E+04
       114   4 -1.162903E+05 -6.165184E+05 -1.474654E+05  4.673956E+04 -4.376357E+03 -9.715226E+04
       114   5  1.675522E+04 -5.961925E+05 -6.738623E+04  1.455613E+04 -1.271314E+04 -6.090533E+04
       114   6  4.616410E+03 -6.164721E+05 -4.713817E+04  4.693896E+04 -9.652160E+03 -2.464041E+04
       114   7  4.334367E+03 -1.336848E+05 -2.816183E+04  9.330724E+03 -4.382685E+03 -9.015996E+04
       114   8  1.147854E+05 -2.010382E+05  2.725410E+04  3.528654E+03 -1.271348E+04 -5.962979E+04
       114   9  8.109841E+04 -3.079653E+05  2.684202E+04  6.228797E+04 -9.647123E+03 -2.908629E+04
       114  10 -2.369301E+05 -1.099149E+06 -2.668058E+05  8.411897E+04  2.019265E-09  2.623823E-09
       114  11 -8.128705E+04 -9.912076E+05 -1.620451E+05  2.557597E+04  2.714253E-09  3.555379E-09
       114  12 -7.187180E+04 -9.248915E+05 -1.211259E+05  3.159748E+04  3.583163E-10 -4.920060E-09
       114  13 -1.162929E+05 -6.165286E+05 -1.474832E+05  4.673921E+04  2.560326E-09  3.366694E-09
       114  14  1.675405E+04 -5.961966E+05 -6.739351E+04  1.455551E+04  7.402763E-10 -2.565941E-09
       114  15  4.616147E+03 -6.164728E+05 -4.713949E+04  4.693877E+04 -3.140082E-09  1.559213E-09
       114  16  4.332164E+03 -1.336935E+05 -2.817714E+04  9.330405E+03  5.510305E-10 -6.674323E-09
       114  17  1.147843E+05 -2.010421E+05  2.724711E+04  3.528043E+03  1.617867E-09 -3.707506E-09
       114  18  8.109808E+04 -3.079663E+05  2.684025E+04  6.228774E+04 -4.255019E-09  1.030977E-09
       114  19 -2.369272E+05 -1.099137E+06 -2.667853E+05  8.411933E+04  4.370872E+03  1.041391E+05
       114  20 -8.128583E+04 -9.912034E+05 -1.620375E+05  2.557661E+04  1.271284E+04  6.218005E+04
       114  21 -7.187159E+04 -9.248911E+05 -1.211249E+05  3.159763E+04  9.657417E+03  2.019673E+04
       114  22 -1.162903E+05 -6.165184E+05 -1.474654E+05  4.673956E+04  4.376357E+03  9.715226E+04
       114  23  1.675522E+04 -5.961925E+05 -6.738623E+04  1.455613E+04  1.271314E+04  6.090533E+04
       114  24  4.616410E+03 -6.164721E+05 -4.713817E+04  4.693896E+04  9.652160E+03  2.464041E+04
       114  25  4.334367E+03 -1.336848E+05 -2.816183E+04  9.330724E+03  4.382685E+03  9.015996E+04
       114  26  1.147854E+05 -2.010382E+05  2.725410E+04  3.528654E+03  1.271348E+04  5.962979E+04
       114  27  8.109841E+04 -3.079653E+05  2.684202E+04  6.228797E+04  9.647123E+03  2.908629E+04
       115   1 -5.897365E+04 -7.998829E+05 -8.765181E+04  5.240910E+04 -5.899755E+03 -1.570839E+04
       115   2 -2.189566E+04 -7.073562E+05 -5.716761E+04  1.443928E+04 -3.241053E+03  1.157671E+03
       115   3 -1.517642E+04 -6.244116E+05 -4.522175E+04  4.195178E+04 -2.564728E+02  1.802578E+04
       115   4 -1.172929E+04 -6.095643E+05 -4.197200E+04  4.707773E+04 -5.898059E+03 -1.697776E+04
       115   5  3.554050E+03 -6.047828E+05 -3.256807E+04  1.433712E+04 -3.239441E+03 -2.723922E+02
       115   6 -1.149005E+04 -6.095608E+05 -4.158744E+04  4.707890E+04 -2.547065E+02  1.643267E+04
       115   7  3.551255E+04 -4.192125E+05  3.705263E+03  4.174473E+04 -5.896342E+03 -1.824751E+04
       115   8  2.900299E+04 -5.021998E+05 -7.969264E+03  1.423495E+04 -3.237828E+03 -1.702691E+03
       115   9 -7.803595E+03 -5.947098E+05 -3.795312E+04  5.220614E+04 -2.529665E+02  1.483952E+04
       115  10 -5.897375E+04 -7.998832E+05 -8.765234E+04  5.240902E+04 -1.972436E-09  3.347774E-09
       115  11 -2.189567E+04 -7.073562E+05 -5.716763E+04  1.443928E+04  3.740585E-09  3.918305E-09
       115  12 -1.517651E+04 -6.244119E+05 -4.522236E+04  4.195178E+04  1.762346E-09 -1.662419E-09
       115  13 -1.172940E+04 -6.095646E+05 -4.197260E+04  4.707765E+04 -3.836175E-09  1.578119E-09
       115  14  3.554039E+03 -6.047828E+05 -3.256809E+04  1.433712E+04 -8.723258E-10 -3.242835E-09
       115  15 -1.149012E+04 -6.095611E+05 -4.158795E+04  4.707890E+04 -3.447757E-09  3.531718E-10
       115  16  3.551242E+04 -4.192128E+05  3.704572E+03  4.174464E+04 -3.578750E-09 -7.374979E-09
       115  17  2.900298E+04 -5.021998E+05 -7.969289E+03  1.423494E+04  1.507898E-09 -3.787691E-09
       115  18 -7.803654E+03 -5.947101E+05 -3.795354E+04  5.220615E+04 -1.019096E-09 -1.524895E-09
       115  19 -5.897365E+04 -7.998829E+05 -8.765181E+04  5.240910E+04  5.899755E+03  1.570839E+04
       115  20 -2.189566E+04 -7.073562E+05 -5.716761E+04  1.443928E+04  3.241053E+03 -1.157671E+03
       115  21 -1.517642E+04 -6.244116E+05 -4.522175E+04  4.195178E+04  2.564728E+02 -1.802578E+04
       115  22 -1.172929E+04 -6.095643E+05 -4.197200E+04  4.707773E+04  5.898059E+03  1.697776E+04
       115  23  3.554050E+03 -6.047828E+05 -3.256807E+04  1.433712E+04  3.239441E+03  2.723922E+02
       115  24 -1.149005E+04 -6.095608E+05 -4.158744E+04  4.707890E+04  2.547065E+02 -1.643267E+04
       115  25  3.551255E+04 -4.192125E+05  3.705263E+03  4.174473E+04  5.896342E+03  1.824751E+04
       115  26  2.900299E+04 -5.021998E+05 -7.969264E+03  1.423495E+04  3.237828E+03  1.702691E+03
       115  27 -7.803595E+03 -5.947098E+05 -3.795312E+04  5.220614E+04  2.529665E+02 -1.483952E+04
       116   1  3.019765E+04 -5.127540E+05 -2.167081E+04  6.235384E+04  2.945909E+03  2.744280E+04
       116   2  6.390404E+04 -4.053717E+05 -2.064898E+04  3.837275E+03  6.166428E+03  5.960580E+04
       116   3 -4.460491E+04 -3.374836E+05 -7.607382E+04  1.044464E+04  2.312788E+03  9.176505E+04
       116   4  4.517138E+03 -6.163512E+05 -4.660288E+04  4.704977E+04  2.948791E+03  2.401710E+04
       116   5  1.652384E+04 -5.963023E+05 -6.636886E+04  1.441123E+04  6.167407E+03  5.973253E+04
       116   6 -1.143289E+05 -6.163902E+05 -1.450650E+05  4.690024E+04  2.313579E+03  9.543951E+04
       116   7 -2.116327E+04 -7.199380E+05 -7.153555E+04  3.174827E+04  2.951843E+03  2.059197E+04
       116   8 -3.085859E+04 -7.871993E+05 -1.120913E+05  2.498193E+04  6.168390E+03  5.985923E+04
       116   9 -1.840536E+05 -8.952232E+05 -2.140612E+05  8.333945E+04  2.314803E+03  9.911230E+04
       116  10  3.019744E+04 -5.127548E+05 -2.167224E+04  6.235378E+04  2.359509E-09  7.083039E-10
       116  11  6.390304E+04 -4.053755E+05 -2.065573E+04  3.836979E+03  4.638784E-09  2.667159E-09
       116  12 -4.460718E+04 -3.374926E+05 -7.608966E+04  1.044447E+04  7.112289E-10 -2.106236E-09
       116  13  4.516973E+03 -6.163518E+05 -4.660398E+04  4.704972E+04 -2.019841E-09  2.475805E-09
       116  14  1.652284E+04 -5.963061E+05 -6.637564E+04  1.441094E+04  4.556997E-09 -3.952184E-09
       116  15 -1.143313E+05 -6.164000E+05 -1.450821E+05  4.690006E+04 -5.887256E-11  2.265970E-09
       116  16 -2.116339E+04 -7.199385E+05 -7.153636E+04  3.174822E+04 -2.869406E-09 -3.708743E-09
       116  17 -3.085959E+04 -7.872031E+05 -1.120981E+05  2.498164E+04 -2.330277E-11 -2.293647E-09
       116  18 -1.840563E+05 -8.952338E+05 -2.140797E+05  8.333927E+04  2.578282E-09 -1.328193E-09
       116  19  3.019765E+04 -5.127540E+05 -2.167081E+04  6.235384E+04 -2.945909E+03 -2.744280E+04
       116  20  6.390404E+04 -4.053717E+05 -2.064898E+04  3.837275E+03 -6.166428E+03 -5.960580E+04
       116  21 -4.460491E+04 -3.374836E+05 -7.607382E+04  1.044464E+04 -2.312788E+03 -9.176505E+04
       116  22  4.517138E+03 -6.163512E+05 -4.660288E+04  4.704977E+04 -2.948791E+03 -2.401710E+04
       116  23  1.652384E+04 -5.963023E+05 -6.636886E+04  1.441123E+04 -6.167407E+03 -5.973253E+04
       116  24 -1.143289E+05 -6.163902E+05 -1.450650E+05  4.690024E+04 -2.313579E+03 -9.543951E+04
       116  25 -2.116327E+04 -7.199380E+05 -7.153555E+04  3.174827E+04 -2.951843E+03 -2.059197E+04
       116  26 -3.085859E+04 -7.871993E+05 -1.120913E+05  2.498193E+04 -6.168390E+03 -5.985923E+04
       116  27 -1.840536E+05 -8.952232E+05 -2.140612E+05  8.333945E+04 -2.314803E+03 -9.911230E+04
       117   1  4.865600E+05  1.676155E+05  1.009733E+05  1.800234E+05  4.764490E+04  1.633950E+04
       117   2  4.695553E+05  9.434176E+04  5.576949E+04  1.792763E+05  3.065883E+04  6.672438E+03
       117   3  4.712736E+05  8.534106E+04  4.004364E+04  1.699751E+05  1.247198E+04  1.905886E+02
       117   4  3.839523E+05  1.093016E+05  6.946840E+04  1.319136E+05  4.474063E+04  1.524222E+04
       117   5  3.710964E+05  5.133141E+04  2.947980E+04  1.460147E+05  2.983369E+04  6.360765E+03
       117   6  3.765553E+05  5.722743E+04  1.732573E+04  1.515608E+05  1.372555E+04  6.636555E+02
       117   7  2.813570E+05  5.099370E+04  3.796293E+04  8.381285E+04  4.183691E+04  1.414539E+04
       117   8  2.726473E+05  8.322842E+03  3.189370E+03  1.127584E+05  2.900870E+04  6.049168E+03
       117   9  2.818452E+05  2.911353E+04 -5.392923E+03  1.331486E+05  1.497893E+04  1.136683E+03
       117  10  4.865575E+05  1.676146E+05  1.009686E+05  1.800228E+05  1.603525E-09  2.080696E-09
       117  11  4.695543E+05  9.434146E+04  5.576764E+04  1.792761E+05  9.426367E-10  3.455512E-09
       117  12  4.712735E+05  8.534102E+04  4.004335E+04  1.699751E+05 -2.046309E-10  3.011058E-09
       117  13  3.839501E+05  1.093008E+05  6.946420E+04  1.319131E+05  3.962728E-10 -4.581616E-09
       117  14  3.710954E+05  5.133112E+04  2.947806E+04  1.460146E+05  2.756879E-09  6.018060E-09
       117  15  3.765551E+05  5.722738E+04  1.732537E+04  1.515608E+05  2.402512E-09  3.528892E-11
       117  16  2.813551E+05  5.099301E+04  3.795926E+04  8.381237E+04 -1.314370E-09 -5.641986E-10
       117  17  2.726464E+05  8.322577E+03  3.187720E+03  1.127582E+05  4.525881E-10 -3.689388E-09
       117  18  2.818450E+05  2.911347E+04 -5.393347E+03  1.331486E+05  3.543822E-09 -4.987441E-09
       117  19  4.865600E+05  1.676155E+05  1.009733E+05  1.800234E+05 -4.764490E+04 -1.633950E+04
       117  20  4.695553E+05  9.434176E+04  5.576949E+04  1.792763E+05 -3.065883E+04 -6.672438E+03
       117  21  4.712736E+05  8.534106E+04  4.004364E+04  1.699751E+05 -1.247198E+04 -1.905886E+02
       117  22  3.839523E+05  1.093016E+05  6.946840E+04  1.319136E+05 -4.474063E+04 -1.524222E+04
       117  23  3.710964E+05  5.133141E+04  2.947980E+04  1.460147E+05 -2.983369E+04 -6.360765E+03
       117  24  3.765553E+05  5.722743E+04  1.732573E+04  1.515608E+05 -1.372555E+04 -6.636555E+02
       117  25  2.813570E+05  5.099370E+04  3.796293E+04  8.381285E+04 -4.183691E+04 -1.414539E+04
       117  26  2.726473E+05  8.322842E+03  3.189370E+03  1.127584E+05 -2.900870E+04 -6.049168E+03
       117  27  2.818452E+05  2.911353E+04 -5.392923E+03  1.331486E+05 -1.497893E+04 -1.136683E+03
       118   1  4.483979E+05  9.283862E+04  3.312984E+04  1.695905E+05  1.081005E+04  4.851532E+02
       118   2  4.369549E+05  7.943635E+04  2.260993E+04  1.631450E+05  6.950604E+03 -4.040702E+02
       118   3  4.221359E+05  7.676527E+04  1.617936E+04  1.620373E+05  3.025482E+03 -1.119061E+03
       118   4  3.743180E+05  6.361407E+04  1.394049E+04  1.477820E+05  1.107610E+04  5.854764E+02
       118   5  3.757082E+05  5.608240E+04  6.928856E+03  1.459352E+05  7.330659E+03 -2.606866E+02
       118   6  3.736999E+05  5.925963E+04  3.916615E+03  1.494259E+05  3.519462E+03 -9.326532E+02
       118   7  3.002435E+05  3.439003E+04 -5.249306E+03  1.259759E+05  1.134212E+04  6.857849E+02
       118   8  3.144653E+05  3.272877E+04 -8.752496E+03  1.287269E+05  7.710672E+03 -1.173194E+02
       118   9  3.252664E+05  4.175417E+04 -8.346260E+03  1.368155E+05  4.013398E+03 -7.462604E+02
       118  10  4.483978E+05  9.283859E+04  3.312962E+04  1.695905E+05  4.741293E-10  1.884044E-09
       118  11  4.369548E+05  7.943634E+04  2.260984E+04  1.631450E+05  2.370653E-09  4.087230E-09
       118  12  4.221359E+05  7.676526E+04  1.617934E+04  1.620373E+05 -2.293970E-09  7.066851E-09
       118  13  3.743179E+05  6.361403E+04  1.394026E+04  1.477820E+05 -7.579619E-10 -8.593036E-10
       118  14  3.757081E+05  5.608238E+04  6.928754E+03  1.459352E+05 -7.681026E-10 -7.690342E-09
       118  15  3.736999E+05  5.925962E+04  3.916591E+03  1.494259E+05 -4.280217E-10 -2.438580E-09
       118  16  3.002433E+05  3.438999E+04 -5.249548E+03  1.259759E+05  1.621345E-09 -3.304365E-09
       118  17  3.144652E+05  3.272875E+04 -8.752608E+03  1.287269E+05  4.316544E-09 -6.965028E-09
       118  18  3.252664E+05  4.175416E+04 -8.346291E+03  1.368155E+05  5.654925E-12  3.999981E-09
       118  19  4.483979E+05  9.283862E+04  3.312984E+04  1.695905E+05 -1.081005E+04 -4.851532E+02
       118  20  4.369549E+05  7.943635E+04  2.260993E+04  1.631450E+05 -6.950604E+03  4.040702E+02
       118  21  4.221359E+05  7.676527E+04  1.617936E+04  1.620373E+05 -3.025482E+03  1.119061E+03
       118  22  3.743180E+05  6.361407E+04  1.394049E+04  1.477820E+05 -1.107610E+04 -5.854764E+02
       118  23  3.757082E+05  5.608240E+04  6.928856E+03  1.459352E+05 -7.330659E+03  2.606866E+02
       118  24  3.736999E+05  5.925963E+04  3.916615E+03  1.494259E+05 -3.519462E+03  9.326532E+02
       118  25  3.002435E+05  3.439003E+04 -5.249306E+03  1.259759E+05 -1.134212E+04 -6.857849E+02
       118  26  3.144653E+05  3.272877E+04 -8.752496E+03  1.287269E+05 -7.710672E+03  1.173194E+02
       118  27  3.252664E+05  4.175417E+04 -8.346260E+03  1.368155E+05 -4.013398E+03  7.462604E+02
       119   1  4.072545E+05  7.251413E+04  1.159898E+04  1.584464E+05  2.364520E+03 -8.846389E+02
       119   2  3.964706E+05  6.414900E+04  6.795928E+03  1.515292E+05  1.287556E+03 -5.162645E+02
       119   3  3.802417E+05  6.192535E+04  2.717547E+03  1.510255E+05  2.071120E+02 -1.387176E+02
       119   4  3.734628E+05  5.977348E+04  3.019503E+03  1.490881E+05  2.803685E+03 -7.189084E+02
       119   5  3.761609E+05  5.652719E+04  1.619734E+03  1.459479E+05  1.732749E+03 -3.482495E+02
       119   6  3.734130E+05  5.942133E+04  9.399926E+02  1.492212E+05  6.583138E+02  3.157532E+01
       119   7  3.396721E+05  4.703286E+04 -5.560105E+03  1.397303E+05  3.242826E+03 -5.531872E+02
       119   8  3.558516E+05  4.890540E+04 -3.556503E+03  1.403667E+05  2.177926E+03 -1.802402E+02
       119   9  3.665843E+05  5.691731E+04 -8.375648E+02  1.474169E+05  1.109510E+03  2.018663E+02
       119  10  4.072545E+05  7.251413E+04  1.159897E+04  1.584464E+05 -4.750815E-10  2.185578E-09
       119  11  3.964706E+05  6.414899E+04  6.795925E+03  1.515292E+05  4.132102E-10  2.999223E-10
       119  12  3.802417E+05  6.192535E+04  2.717547E+03  1.510255E+05 -1.610639E-09 -3.768660E-09
       119  13  3.734628E+05  5.977348E+04  3.019487E+03  1.490881E+05  3.850478E-09  1.273503E-09
       119  14  3.761609E+05  5.652719E+04  1.619729E+03  1.459479E+05  4.900599E-09  3.685896E-09
       119  15  3.734130E+05  5.942133E+04  9.399918E+02  1.492212E+05  1.441400E-09 -8.106561E-09
       119  16  3.396721E+05  4.703285E+04 -5.560125E+03  1.397303E+05 -2.832943E-10 -7.685072E-10
       119  17  3.558516E+05  4.890540E+04 -3.556512E+03  1.403667E+05  2.593475E-09  8.780328E-10
       119  18  3.665843E+05  5.691731E+04 -8.375672E+02  1.474169E+05 -1.553159E-10  2.253962E-09
       119  19  4.072545E+05  7.251413E+04  1.159898E+04  1.584464E+05 -2.364520E+03  8.846389E+02
       119  20  3.964706E+05  6.414900E+04  6.795928E+03  1.515292E+05 -1.287556E+03  5.162645E+02
       119  21  3.802417E+05  6.192535E+04  2.717547E+03  1.510255E+05 -2.071120E+02  1.387176E+02
       119  22  3.734628E+05  5.977348E+04  3.019503E+03  1.490881E+05 -2.803685E+03  7.189084E+02
       119  23  3.761609E+05  5.652719E+04  1.619734E+03  1.459479E+05 -1.732749E+03  3.482495E+02
       119  24  3.734130E+05  5.942133E+04  9.399926E+02  1.492212E+05 -6.583138E+02 -3.157532E+01
       119  25  3.396721E+05  4.703286E+04 -5.560105E+03  1.397303E+05 -3.242826E+03  5.531872E+02
       119  26  3.558516E+05  4.890540E+04 -3.556503E+03  1.403667E+05 -2.177926E+03  1.802402E+02
       119  27  3.665843E+05  5.691731E+04 -8.375648E+02  1.474169E+05 -1.109510E+03 -2.018663E+02
       120   1  3.660970E+05  5.671161E+04 -1.163536E+03  1.471866E+05 -8.004916E+01  2.119067E+02
       120   2  3.553944E+05  4.875269E+04 -4.804896E+03  1.402245E+05 -5.906790E+02  8.051582E+02
       120   3  3.390298E+05  4.654821E+04 -8.248868E+03  1.397524E+05 -1.101624E+03  1.399372E+03
       120   4  3.733827E+05  5.945994E+04  7.439633E+02  1.491912E+05  3.682148E+02  3.810902E+02
       120   5  3.762120E+05  5.657054E+04  5.016222E+02  1.459508E+05 -1.418013E+02  9.745630E+02
       120   6  3.733791E+05  5.943540E+04  4.562012E+02  1.492004E+05 -6.521403E+02  1.568998E+03
       120   7  3.806684E+05  6.220827E+04  2.651451E+03  1.511958E+05  8.164828E+02  5.502753E+02
       120   8  3.970300E+05  6.438841E+04  5.808106E+03  1.516774E+05  3.070929E+02  1.143974E+03
       120   9  4.077295E+05  7.232272E+04  9.161212E+03  1.586489E+05 -2.026276E+02  1.738634E+03
       120  10  3.660970E+05  5.671161E+04 -1.163536E+03  1.471866E+05 -2.359315E-10 -2.642596E-09
       120  11  3.553944E+05  4.875269E+04 -4.804898E+03  1.402245E+05  3.283502E-09  5.740617E-10
       120  12  3.390298E+05  4.654821E+04 -8.248874E+03  1.397524E+05  9.111986E-10 -3.209264E-10
       120  13  3.733827E+05  5.945994E+04  7.439627E+02  1.491912E+05 -1.221293E-10 -2.868108E-09
       120  14  3.762120E+05  5.657054E+04  5.016203E+02  1.459508E+05  1.550804E-09  2.118911E-09
       120  15  3.733790E+05  5.943540E+04  4.561958E+02  1.492004E+05  1.674770E-09 -3.205166E-09
       120  16  3.806684E+05  6.220827E+04  2.651449E+03  1.511958E+05  1.716065E-09  1.774985E-09
       120  17  3.970300E+05  6.438841E+04  5.808103E+03  1.516774E+05 -1.609566E-09 -4.911418E-09
       120  18  4.077295E+05  7.232272E+04  9.161206E+03  1.586489E+05 -2.608612E-09 -2.558216E-09
       120  19  3.660970E+05  5.671161E+04 -1.163536E+03  1.471866E+05  8.004916E+01 -2.119067E+02
       120  20  3.553944E+05  4.875269E+04 -4.804896E+03  1.402245E+05  5.906790E+02 -8.051582E+02
       120  21  3.390298E+05  4.654821E+04 -8.248868E+03  1.397524E+05  1.101624E+03 -1.399372E+03
       120  22  3.733827E+05  5.945994E+04  7.439633E+02  1.491912E+05 -3.682148E+02 -3.810902E+02
       120  23  3.762120E+05  5.657054E+04  5.016222E+02  1.459508E+05  1.418013E+02 -9.745630E+02
       120  24  3.733791E+05  5.943540E+04  4.562012E+02  1.492004E+05  6.521403E+02 -1.568998E+03
       120  25  3.806684E+05  6.220827E+04  2.651451E+03  1.511958E+05 -8.164828E+02 -5.502753E+02
       120  26  3.970300E+05  6.438841E+04  5.808106E+03  1.516774E+05 -3.070929E+02 -1.143974E+03
       120  27  4.077295E+05  7.232272E+04  9.161212E+03  1.586489E+05  2.026276E+02 -1.738634E+03
       121   1  3.249249E+05  4.125403E+04 -1.190556E+04  1.359040E+05 -1.332342E+03  1.770977E+03
       121   2  3.141752E+05  3.328705E+04 -1.510821E+04  1.289049E+05 -1.943224E+03  2.329340E+03
       121   3  2.977686E+05  3.112036E+04 -1.803239E+04  1.284201E+05 -2.554208E+03  2.888291E+03
       121   4  3.733790E+05  5.943904E+04  4.920400E+02  1.492082E+05 -8.823021E+02  1.940801E+03
       121   5  3.762102E+05  5.655925E+04  7.007447E+02  1.459433E+05 -1.492857E+03  2.499259E+03
       121   6  3.733843E+05  5.947960E+04  1.187638E+03  1.491927E+05 -2.103523E+03  3.058302E+03
       121   7  4.218352E+05  7.762420E+04  1.288944E+04  1.625132E+05 -4.322236E+02  2.110640E+03
       121   8  4.382489E+05  7.983165E+04  1.650936E+04  1.629832E+05 -1.042442E+03  2.669195E+03
       121   9  4.490053E+05  8.783911E+04  2.040713E+04  1.699675E+05 -1.652780E+03  3.228334E+03
       121  10  3.249249E+05  4.125403E+04 -1.190557E+04  1.359040E+05 -9.694233E-10 -1.408844E-09
       121  11  3.141752E+05  3.328704E+04 -1.510823E+04  1.289049E+05 -6.237259E-09  6.504280E-09
       121  12  2.977686E+05  3.112035E+04 -1.803242E+04  1.284201E+05  2.828675E-09  4.947932E-10
       121  13  3.733790E+05  5.943904E+04  4.920314E+02  1.492082E+05 -1.298757E-09 -5.080900E-10
       121  14  3.762102E+05  5.655924E+04  7.007288E+02  1.459433E+05  4.307267E-09 -2.281475E-09
       121  15  3.733843E+05  5.947959E+04  1.187613E+03  1.491927E+05  6.812076E-09 -2.396619E-09
       121  16  4.218352E+05  7.762420E+04  1.288944E+04  1.625132E+05  3.148459E-09  4.276940E-09
       121  17  4.382489E+05  7.983164E+04  1.650934E+04  1.629832E+05  4.083213E-09  5.106683E-11
       121  18  4.490053E+05  8.783910E+04  2.040710E+04  1.699675E+05  6.965467E-09  5.838422E-09
       121  19  3.249249E+05  4.125403E+04 -1.190556E+04  1.359040E+05  1.332342E+03 -1.770977E+03
       121  20  3.141752E+05  3.328705E+04 -1.510821E+04  1.289049E+05  1.943224E+03 -2.329340E+03
       121  21  2.977686E+05  3.112036E+04 -1.803239E+04  1.284201E+05  2.554208E+03 -2.888291E+03
       121  22  3.733790E+05  5.943904E+04  4.920400E+02  1.492082E+05  8.823021E+02 -1.940801E+03
       121  23  3.762102E+05  5.655925E+04  7.007447E+02  1.459433E+05  1.492857E+03 -2.499259E+03
       121  24  3.733843E+05  5.947960E+04  1.187638E+03  1.491927E+05  2.103523E+03 -3.058302E+03
       121  25  4.218352E+05  7.762420E+04  1.288944E+04  1.625132E+05  4.322236E+02 -2.110640E+03
       121  26  4.382489E+05  7.983165E+04  1.650936E+04  1.629832E+05  1.042442E+03 -2.669195E+03
       121  27  4.490053E+05  8.783911E+04  2.040713E+04  1.699675E+05  1.652780E+03 -3.228334E+03
       122   1  2.835588E+05  2.580487E+04 -2.138709E+04  1.246831E+05 -2.937984E+03  3.206957E+03
       122   2  2.726559E+05  1.764488E+04 -2.363128E+04  1.174986E+05 -4.569166E+03  3.383984E+03
       122   3  2.564395E+05  1.599336E+04 -2.465976E+04  1.167504E+05 -6.194912E+03  3.547035E+03
       122   4  3.734299E+05  5.942359E+04  1.546131E+03  1.492557E+05 -2.481282E+03  3.379213E+03
       122   5  3.761279E+05  5.646882E+04  2.739629E+03  1.459239E+05 -4.121824E+03  3.552664E+03
       122   6  3.735142E+05  6.002435E+04  5.156175E+03  1.490286E+05 -5.756960E+03  3.712127E+03
       122   7  4.633092E+05  9.304296E+04  2.447879E+04  1.738315E+05 -2.024506E+03  3.551497E+03
       122   8  4.796106E+05  9.529354E+04  2.910972E+04  1.743536E+05 -3.674399E+03  3.721375E+03
       122   9  4.906024E+05  1.040563E+05  3.497101E+04  1.813123E+05 -5.318917E+03  3.877254E+03
       122  10  2.835587E+05  2.580486E+04 -2.138712E+04  1.246831E+05 -2.856886E-10 -1.040089E-09
       122  11  2.726559E+05  1.764486E+04 -2.363134E+04  1.174986E+05 -2.654563E-10  3.016032E-09
       122  12  2.564395E+05  1.599334E+04 -2.465986E+04  1.167504E+05  4.838138E-10 -2.851928E-09
       122  13  3.734299E+05  5.942358E+04  1.546098E+03  1.492557E+05  3.626053E-09  1.814229E-09
       122  14  3.761279E+05  5.646880E+04  2.739574E+03  1.459239E+05 -1.339786E-10  6.491769E-10
       122  15  3.735142E+05  6.002433E+04  5.156087E+03  1.490286E+05  3.030380E-10  8.395595E-09
       122  16  4.633092E+05  9.304294E+04  2.447876E+04  1.738315E+05  6.805739E-09  5.699486E-09
       122  17  4.796105E+05  9.529352E+04  2.910967E+04  1.743537E+05  1.246203E-09  1.072574E-08
       122  18  4.906023E+05  1.040562E+05  3.497093E+04  1.813123E+05 -3.369066E-09  3.931846E-09
       122  19  2.835588E+05  2.580487E+04 -2.138709E+04  1.246831E+05  2.937984E+03 -3.206957E+03
       122  20  2.726559E+05  1.764488E+04 -2.363128E+04  1.174986E+05  4.569166E+03 -3.383984E+03
       122  21  2.564395E+05  1.599336E+04 -2.465976E+04  1.167504E+05  6.194912E+03 -3.547035E+03
       122  22  3.734299E+05  5.942359E+04  1.546131E+03  1.492557E+05  2.481282E+03 -3.379213E+03
       122  23  3.761279E+05  5.646882E+04  2.739629E+03  1.459239E+05  4.121824E+03 -3.552664E+03
       122  24  3.735142E+05  6.002435E+04  5.156175E+03  1.490286E+05  5.756960E+03 -3.712127E+03
       122  25  4.633092E+05  9.304296E+04  2.447879E+04  1.738315E+05  2.024506E+03 -3.551497E+03
       122  26  4.796106E+05  9.529354E+04  2.910972E+04  1.743536E+05  3.674399E+03 -3.721375E+03
       122  27  4.906024E+05  1.040563E+05  3.497101E+04  1.813123E+05  5.318917E+03 -3.877254E+03
       123   1  2.416019E+05  1.066833E+04 -2.684678E+04  1.144724E+05 -7.406185E+03  3.598476E+03
       123   2  2.305204E+05  7.338398E+02 -2.516694E+04  1.054724E+05 -1.356146E+04  2.042103E+03
       123   3  2.175791E+05  5.137464E+03 -1.678132E+04  1.011040E+05 -1.960606E+04  1.930042E+02
       123   4  3.739164E+05  5.915067E+04  6.699549E+03  1.496156E+05 -6.875017E+03  3.798698E+03
       123   5  3.753563E+05  5.569540E+04  1.186762E+04  1.458921E+05 -1.322257E+04  2.169730E+03
       123   6  3.749735E+05  6.661474E+04  2.389257E+04  1.468000E+05 -1.945962E+04  2.479738E+02
       123   7  5.062475E+05  1.076338E+05  4.024434E+04  1.847654E+05 -6.343727E+03  3.998963E+03
       123   8  5.202127E+05  1.106585E+05  4.890048E+04  1.863204E+05 -1.288359E+04  2.297392E+03
       123   9  5.323926E+05  1.280944E+05  6.456456E+04  1.925069E+05 -1.931313E+04  3.029607E+02
       123  10  2.416018E+05  1.066830E+04 -2.684691E+04  1.144724E+05 -9.542315E-10 -6.986415E-09
       123  11  2.305202E+05  7.337860E+02 -2.516730E+04  1.054724E+05  5.369904E-09  1.442723E-09
       123  12  2.175787E+05  5.137361E+03 -1.678205E+04  1.011040E+05  1.157959E-09 -2.538029E-09
       123  13  3.739164E+05  5.915064E+04  6.699434E+03  1.496156E+05 -1.508784E-09 -4.360846E-09
       123  14  3.753561E+05  5.569535E+04  1.186729E+04  1.458921E+05 -3.639994E-10 -6.048815E-09
       123  15  3.749731E+05  6.661464E+04  2.389186E+04  1.468000E+05  3.953186E-12  1.851176E-09
       123  16  5.062475E+05  1.076337E+05  4.024423E+04  1.847654E+05 -8.420774E-10  6.803733E-09
       123  17  5.202125E+05  1.106584E+05  4.890015E+04  1.863204E+05 -2.951518E-09 -1.198370E-11
       123  18  5.323922E+05  1.280943E+05  6.456386E+04  1.925069E+05 -1.151945E-09 -2.184143E-09
       123  19  2.416019E+05  1.066833E+04 -2.684678E+04  1.144724E+05  7.406185E+03 -3.598476E+03
       123  20  2.305204E+05  7.338398E+02 -2.516694E+04  1.054724E+05  1.356146E+04 -2.042103E+03
       123  21  2.175791E+05  5.137464E+03 -1.678132E+04  1.011040E+05  1.960606E+04 -1.930042E+02
       123  22  3.739164E+05  5.915067E+04  6.699549E+03  1.496156E+05  6.875017E+03 -3.798698E+03
       123  23  3.753563E+05  5.569540E+04  1.186762E+04  1.458921E+05  1.322257E+04 -2.169730E+03
       123  24  3.749735E+05  6.661474E+04  2.389257E+04  1.468000E+05  1.945962E+04 -2.479738E+02
       123  25  5.062475E+05  1.076338E+05  4.024434E+04  1.847654E+05  6.343727E+03 -3.998963E+03
       123  26  5.202127E+05  1.106585E+05  4.890048E+04  1.863204E+05  1.288359E+04 -2.297392E+03
       123  27  5.323926E+05  1.280944E+05  6.456456E+04  1.925069E+05  1.931313E+04 -3.029607E+02
       124   1  1.958587E+05 -2.208257E+02 -1.446084E+04  1.160999E+05 -2.570603E+04 -8.576746E+02
       124   2  1.874763E+05 -3.032531E+04  2.617739E+03  8.598895E+04 -4.963139E+04 -9.756518E+03
       124   3  2.137804E+05  4.443019E+04  6.464398E+04  3.673358E+04 -7.153178E+04 -2.402862E+04
       124   4  3.788107E+05  5.566675E+04  2.969724E+04  1.532763E+05 -2.389224E+04 -1.736733E+02
       124   5  3.674535E+05  4.754566E+04  5.053188E+04  1.460238E+05 -5.132896E+04 -1.039731E+04
       124   6  3.914646E+05  1.449589E+05  1.190857E+05  1.196307E+05 -7.674088E+04 -2.599553E+04
       124   7  5.617959E+05  1.115542E+05  7.385310E+04  1.904614E+05 -2.207785E+04  5.104573E+02
       124   8  5.474616E+05  1.254214E+05  9.844291E+04  2.060751E+05 -5.302705E+04 -1.103836E+04
       124   9  5.691799E+05  2.455022E+05  1.735239E+05  2.025520E+05 -8.195153E+04 -2.796373E+04
       124  10  1.958580E+05 -2.210038E+02 -1.446208E+04  1.160999E+05 -8.955436E-10  3.418268E-09
       124  11  1.874736E+05 -3.032607E+04  2.612932E+03  8.598856E+04  5.414192E-10 -2.982595E-09
       124  12  2.137748E+05  4.442819E+04  6.463329E+04  3.673220E+04  1.055726E-09 -3.097974E-10
       124  13  3.788101E+05  5.566660E+04  2.969617E+04  1.532763E+05  2.166984E-09 -4.234585E-09
       124  14  3.674506E+05  4.754484E+04  5.052672E+04  1.460234E+05 -2.913269E-09  2.111284E-09
       124  15  3.914581E+05  1.449566E+05  1.190734E+05  1.196291E+05 -6.322971E-10 -1.308056E-09
       124  16  5.617954E+05  1.115541E+05  7.385219E+04  1.904614E+05  1.345547E-09  1.003576E-09
       124  17  5.474586E+05  1.254205E+05  9.843740E+04  2.060747E+05 -4.403117E-09  1.695319E-09
       124  18  5.691725E+05  2.454996E+05  1.735098E+05  2.025502E+05 -5.494919E-09 -2.144216E-09
       124  19  1.958587E+05 -2.208257E+02 -1.446084E+04  1.160999E+05  2.570603E+04  8.576746E+02
       124  20  1.874763E+05 -3.032531E+04  2.617739E+03  8.598895E+04  4.963139E+04  9.756518E+03
       124  21  2.137804E+05  4.443019E+04  6.464398E+04  3.673358E+04  7.153178E+04  2.402862E+04
       124  22  3.788107E+05  5.566675E+04  2.969724E+04  1.532763E+05  2.389224E+04  1.736733E+02
       124  23  3.674535E+05  4.754566E+04  5.053188E+04  1.460238E+05  5.132896E+04  1.039731E+04
       124  24  3.914646E+05  1.449589E+05  1.190857E+05  1.196307E+05  7.674088E+04  2.599553E+04
       124  25  5.617959E+05  1.115542E+05  7.385310E+04  1.904614E+05  2.207785E+04 -5.104573E+02
       124  26  5.474616E+05  1.254214E+05  9.844291E+04  2.060751E+05  5.302705E+04  1.103836E+04
       124  27  5.691799E+05  2.455022E+05  1.735239E+05  2.025520E+05  8.195153E+04  2.796373E+04
       125   1 -2.591388E+02 -5.010520E+05 -2.425964E+03 -1.650402E+02 -5.429565E+01  1.746632E+02
       125   2 -6.180783E+02 -5.026832E+05 -3.347250E+03  3.086365E+02 -1.062333E+02  1.497972E+03
       125   3 -1.615240E+03 -5.046506E+05 -5.291003E+03 -3.469009E+02 -1.842997E+02  2.821257E+03
       125   4 -1.054521E+01 -5.000425E+05 -2.194506E+03 -2.507450E+02 -5.432785E+01  1.968214E+02
       125   5  7.665133E+01 -4.998733E+05 -2.685020E+03  3.135232E+02 -1.062881E+02  1.535802E+03
       125   6 -4.770872E+02 -5.000428E+05 -4.208879E+03 -2.514212E+02 -1.843768E+02  2.874764E+03
       125   7  2.380484E+02 -4.990330E+05 -1.963047E+03 -3.364499E+02 -5.436007E+01  2.189795E+02
       125   8  7.713804E+02 -4.970633E+05 -2.022790E+03  3.184100E+02 -1.063429E+02  1.573633E+03
       125   9  6.610638E+02 -4.954351E+05 -3.126757E+03 -1.559408E+02 -1.844538E+02  2.928271E+03
       125  10 -2.591389E+02 -5.010520E+05 -2.425964E+03 -1.650402E+02  6.967284E-10  7.475729E-10
       125  11 -6.180789E+02 -5.026832E+05 -3.347255E+03  3.086366E+02 -3.884476E-10  3.254949E-10
       125  12 -1.615242E+03 -5.046506E+05 -5.291018E+03 -3.469005E+02 -1.999527E-09  1.298902E-09
       125  13 -1.054522E+01 -5.000425E+05 -2.194506E+03 -2.507450E+02  4.300460E-09  2.176827E-09
       125  14  7.665069E+01 -4.998733E+05 -2.685024E+03  3.135234E+02  2.550404E-09 -3.730664E-09
       125  15 -4.770895E+02 -5.000429E+05 -4.208895E+03 -2.514208E+02  5.081267E-09 -1.087187E-10
       125  16  2.380484E+02 -4.990330E+05 -1.963048E+03 -3.364499E+02  5.512668E-09  8.128790E-10
       125  17  7.713797E+02 -4.970633E+05 -2.022794E+03  3.184101E+02  3.926741E-09 -3.908801E-09
       125  18  6.610615E+02 -4.954351E+05 -3.126773E+03 -1.559403E+02 -2.537002E-10 -1.816869E-09
       125  19 -2.591388E+02 -5.010520E+05 -2.425964E+03 -1.650402E+02  5.429565E+01 -1.746632E+02
       125  20 -6.180783E+02 -5.026832E+05 -3.347250E+03  3.086365E+02  1.062333E+02 -1.497972E+03
       125  21 -1.615240E+03 -5.046506E+05 -5.291003E+03 -3.469009E+02  1.842997E+02 -2.821257E+03
       125  22 -1.054521E+01 -5.000425E+05 -2.194506E+03 -2.507450E+02  5.432785E+01 -1.968214E+02
       125  23  7.665133E+01 -4.998733E+05 -2.685020E+03  3.135232E+02  1.062881E+02 -1.535802E+03
       125  24 -4.770872E+02 -5.000428E+05 -4.208879E+03 -2.514212E+02  1.843768E+02 -2.874764E+03
       125  25  2.380484E+02 -4.990330E+05 -1.963047E+03 -3.364499E+02  5.436007E+01 -2.189795E+02
       125  26  7.713804E+02 -4.970633E+05 -2.022790E+03  3.184100E+02  1.063429E+02 -1.573633E+03
       125  27  6.610638E+02 -4.954351E+05 -3.126757E+03 -1.559408E+02  1.844538E+02 -2.928271E+03
       126   1 -1.344617E+03 -5.070755E+05 -6.819113E+03  6.011697E+02 -2.387436E+02  3.657260E+03
       126   2 -1.430501E+03 -5.077743E+05 -1.064642E+04 -1.130478E+02 -3.211137E+02  8.080341E+03
       126   3 -7.959173E+03 -5.106646E+05 -1.896657E+04 -1.956615E+03 -3.818414E+02  1.250342E+04
       126   4  2.965538E+02 -5.004538E+05 -5.253340E+03 -2.484759E+02 -2.388238E+02  3.709332E+03
       126   5  6.484440E+02 -4.993603E+05 -8.662922E+03  3.120671E+02 -3.211643E+02  8.119478E+03
       126   6 -5.440160E+03 -5.004560E+05 -1.655632E+04 -2.567411E+02 -3.818442E+02  1.252964E+04
       126   7  1.937724E+03 -4.938321E+05 -3.687571E+03 -1.098131E+03 -2.389042E+02  3.761404E+03
       126   8  2.727384E+03 -4.909463E+05 -6.679433E+03  7.371879E+02 -3.212147E+02  8.158617E+03
       126   9 -2.921144E+03 -4.902474E+05 -1.414608E+04  1.443161E+03 -3.818469E+02  1.255586E+04
       126  10 -1.344620E+03 -5.070755E+05 -6.819138E+03  6.011704E+02 -2.032492E-09 -3.242962E-09
       126  11 -1.430518E+03 -5.077744E+05 -1.064654E+04 -1.130457E+02 -2.601825E-09  4.268427E-10
       126  12 -7.959215E+03 -5.106647E+05 -1.896687E+04 -1.956612E+03 -1.762187E-09  2.246432E-09
       126  13  2.965500E+02 -5.004538E+05 -5.253366E+03 -2.484752E+02  4.214427E-09  2.820937E-11
       126  14  6.484262E+02 -4.993604E+05 -8.663046E+03  3.120692E+02 -1.336072E-09 -2.242588E-09
       126  15 -5.440203E+03 -5.004562E+05 -1.655662E+04 -2.567372E+02 -2.474559E-09 -2.329056E-09
       126  16  1.937720E+03 -4.938321E+05 -3.687597E+03 -1.098130E+03 -3.082196E-10  2.692340E-09
       126  17  2.727366E+03 -4.909464E+05 -6.679558E+03  7.371900E+02 -6.911013E-10 -5.185138E-09
       126  18 -2.921187E+03 -4.902476E+05 -1.414637E+04  1.443165E+03 -7.423486E-10 -3.718881E-09
       126  19 -1.344617E+03 -5.070755E+05 -6.819113E+03  6.011697E+02  2.387436E+02 -3.657260E+03
       126  20 -1.430501E+03 -5.077743E+05 -1.064642E+04 -1.130478E+02  3.211137E+02 -8.080341E+03
       126  21 -7.959173E+03 -5.106646E+05 -1.896657E+04 -1.956615E+03  3.818414E+02 -1.250342E+04
       126  22  2.965538E+02 -5.004538E+05 -5.253340E+03 -2.484759E+02  2.388238E+02 -3.709332E+03
       126  23  6.484440E+02 -4.993603E+05 -8.662922E+03  3.120671E+02  3.211643E+02 -8.119478E+03
       126  24 -5.440160E+03 -5.004560E+05 -1.655632E+04 -2.567411E+02  3.818442E+02 -1.252964E+04
       126  25  1.937724E+03 -4.938321E+05 -3.687571E+03 -1.098131E+03  2.389042E+02 -3.761404E+03
       126  26  2.727384E+03 -4.909463E+05 -6.679433E+03  7.371879E+02  3.212147E+02 -8.158617E+03
       126  27 -2.921144E+03 -4.902474E+05 -1.414608E+04  1.443161E+03  3.818469E+02 -1.255586E+04
       127   1  2.049880E+02 -5.165485E+05 -2.324557E+04  8.276632E+03 -4.827007E+02  1.548321E+04
       127   2  3.204958E+03 -5.084588E+05 -3.633018E+04 -6.201844E+03 -5.545317E+02  3.346375E+04
       127   3 -6.371604E+04 -5.201997E+05 -7.860821E+04 -2.185158E+04 -2.447003E+02  5.144460E+04
       127   4  3.247220E+03 -5.043641E+05 -2.037157E+04 -2.336160E+02 -4.831164E+02  1.562538E+04
       127   5  6.639620E+03 -4.944763E+05 -3.303502E+04  3.073347E+02 -5.540549E+02  3.337691E+04
       127   6 -5.984916E+04 -5.043793E+05 -7.473240E+04 -3.235082E+02 -2.424641E+02  5.112879E+04
       127   7  6.289714E+03 -4.921795E+05 -1.749754E+04 -8.744032E+03 -4.835360E+02  1.576756E+04
       127   8  1.007443E+04 -4.804936E+05 -2.973984E+04  6.816661E+03 -5.535799E+02  3.329006E+04
       127   9 -5.598056E+04 -4.885576E+05 -7.085636E+04  2.120512E+04 -2.402499E+02  5.081297E+04
       127  10  2.049233E+02 -5.165487E+05 -2.324602E+04  8.276638E+03 -1.017527E-09  1.090336E-09
       127  11  3.204657E+03 -5.084600E+05 -3.633229E+04 -6.201829E+03 -5.529483E-10  8.055267E-10
       127  12 -6.371676E+04 -5.202026E+05 -7.861319E+04 -2.185157E+04  2.591081E-10  3.470686E-10
       127  13  3.247154E+03 -5.043644E+05 -2.037203E+04 -2.336100E+02 -1.001788E-10  1.116314E-09
       127  14  6.639320E+03 -4.944775E+05 -3.303711E+04  3.073496E+02  1.715867E-09 -3.868280E-09
       127  15 -5.984987E+04 -5.043821E+05 -7.473732E+04 -3.234982E+02  5.489611E-10  1.081848E-09
       127  16  6.289647E+03 -4.921798E+05 -1.749801E+04 -8.744026E+03 -1.614599E-09 -1.077872E-09
       127  17  1.007413E+04 -4.804948E+05 -2.974192E+04  6.816676E+03 -1.452406E-10 -4.547498E-09
       127  18 -5.598125E+04 -4.885604E+05 -7.086121E+04  2.120513E+04  5.693956E-10  2.914387E-09
       127  19  2.049880E+02 -5.165485E+05 -2.324557E+04  8.276632E+03  4.827007E+02 -1.548321E+04
       127  20  3.204958E+03 -5.084588E+05 -3.633018E+04 -6.201844E+03  5.545317E+02 -3.346375E+04
       127  21 -6.371604E+04 -5.201997E+05 -7.860821E+04 -2.185158E+04  2.447003E+02 -5.144460E+04
       127  22  3.247220E+03 -5.043641E+05 -2.037157E+04 -2.336160E+02  4.831164E+02 -1.562538E+04
       127  23  6.639620E+03 -4.944763E+05 -3.303502E+04  3.073347E+02  5.540549E+02 -3.337691E+04
       127  24 -5.984916E+04 -5.043793E+05 -7.473240E+04 -3.235082E+02  2.424641E+02 -5.112879E+04
       127  25  6.289714E+03 -4.921795E+05 -1.749754E+04 -8.744032E+03  4.835360E+02 -1.576756E+04
       127  26  1.007443E+04 -4.804936E+05 -2.973984E+04  6.816661E+03  5.535799E+02 -3.329006E+04
       127  27 -5.598056E+04 -4.885576E+05 -7.085636E+04  2.120512E+04  2.402499E+02 -5.081297E+04
       128   1 -6.189756E+06 -1.964741E+06 -9.773782E+05 -2.252613E+06 -3.617310E+05 -8.284873E+04
       128   2 -6.012628E+06 -1.698441E+06 -7.010464E+05 -2.187305E+06 -2.380013E+05  9.157936E+04
       128   3 -5.870643E+06 -1.582721E+06 -5.812989E+05 -2.131632E+06 -8.284049E+04  1.837949E+05
       128   4 -3.194074E+06 -7.406318E+05 -1.806549E+05 -1.337255E+06 -1.345621E+05  3.473358E+03
       128   5 -3.178523E+06 -6.078576E+05 -8.311894E+04 -1.358790E+06 -1.332904E+05  1.312389E+05
       128   6 -3.173391E+06 -6.008819E+05 -4.404671E+04 -1.390028E+06 -1.007284E+05  1.769274E+05
       128   7 -1.895047E+05  4.844978E+05  6.154859E+05 -4.176945E+05  9.381606E+04  9.033648E+04
       128   8 -3.361452E+05  4.835717E+05  5.343737E+05 -5.266889E+05 -2.805842E+04  1.711127E+05
       128   9 -4.685174E+05  3.815854E+05  4.928710E+05 -6.454150E+05 -1.187009E+05  1.700290E+05
       128  10 -6.189900E+06 -1.964784E+06 -9.776399E+05 -2.252637E+06  2.741929E-08  1.156168E-08
       128  11 -6.012691E+06 -1.698466E+06 -7.011692E+05 -2.187287E+06  5.122198E-09  1.760960E-09
       128  12 -5.870659E+06 -1.582759E+06 -5.813751E+05 -2.131620E+06 -2.280836E-08 -8.110489E-09
       128  13 -3.194093E+06 -7.406367E+05 -1.806891E+05 -1.337254E+06  2.581756E-09  5.503190E-11
       128  14 -3.178547E+06 -6.078808E+05 -8.318465E+04 -1.358776E+06  1.055381E-08  2.163720E-09
       128  15 -3.173410E+06 -6.009181E+05 -4.412447E+04 -1.390014E+06  3.270594E-09 -1.279871E-09
       128  16 -1.895164E+05  4.844867E+05  6.154540E+05 -4.177013E+05 -2.087340E-08 -1.188311E-08
       128  17 -3.361539E+05  4.835401E+05  5.343172E+05 -5.266851E+05  7.244973E-09 -4.252165E-09
       128  18 -4.685402E+05  3.815507E+05  4.927903E+05 -6.453988E+05  2.807406E-08  7.533419E-09
       128  19 -6.189756E+06 -1.964741E+06 -9.773782E+05 -2.252613E+06  3.617310E+05  8.284873E+04
       128  20 -6.012628E+06 -1.698441E+06 -7.010464E+05 -2.187305E+06  2.380013E+05 -9.157936E+04
       128  21 -5.870643E+06 -1.582721E+06 -5.812989E+05 -2.131632E+06  8.284049E+04 -1.837949E+05
       128  22 -3.194074E+06 -7.406318E+05 -1.806549E+05 -1.337255E+06  1.345621E+05 -3.473358E+03
       128  23 -3.178523E+06 -6.078576E+05 -8.311894E+04 -1.358790E+06  1.332904E+05 -1.312389E+05
       128  24 -3.173391E+06 -6.008819E+05 -4.404671E+04 -1.390028E+06  1.007284E+05 -1.769274E+05
       128  25 -1.895047E+05  4.844978E+05  6.154859E+05 -4.176945E+05 -9.381606E+04 -9.033648E+04
       128  26 -3.361452E+05  4.835717E+05  5.343737E+05 -5.266889E+05  2.805842E+04 -1.711127E+05
       128  27 -4.685174E+05  3.815854E+05  4.928710E+05 -6.454150E+05  1.187009E+05 -1.700290E+05
       129   1 -5.726086E+06 -1.549381E+06 -5.432881E+05 -2.104208E+06 -8.913985E+04  1.729280E+05
       129   2 -5.553737E+06 -1.453200E+06 -4.809125E+05 -2.031544E+06 -6.890325E+04  1.742217E+05
       129   3 -5.350060E+06 -1.398128E+06 -4.334698E+05 -1.997580E+06 -4.635661E+04  1.693549E+05
       129   4 -3.167029E+06 -6.054898E+05 -3.352010E+04 -1.387364E+06 -9.290323E+04  1.714203E+05
       129   5 -3.182960E+06 -5.826038E+05 -1.780027E+04 -1.369168E+06 -8.181929E+04  1.692656E+05
       129   6 -3.165760E+06 -5.989740E+05 -9.677104E+03 -1.389674E+06 -6.843624E+04  1.609609E+05
       129   7 -6.011352E+05  3.390037E+05  4.759376E+05 -6.677493E+05 -9.668344E+04  1.699065E+05
       129   8 -8.063062E+05  2.885070E+05  4.450580E+05 -7.044228E+05 -9.478871E+04  1.642894E+05
       129   9 -9.764786E+05  2.006074E+05  4.139027E+05 -7.797693E+05 -9.059975E+04  1.525355E+05
       129  10 -5.726102E+06 -1.549415E+06 -5.433591E+05 -2.104196E+06 -3.292172E-09 -7.914096E-10
       129  11 -5.553750E+06 -1.453234E+06 -4.809784E+05 -2.031535E+06 -4.917164E-09  1.362073E-09
       129  12 -5.350070E+06 -1.398159E+06 -4.335276E+05 -1.997573E+06  9.145604E-10 -1.075510E-10
       129  13 -3.167046E+06 -6.055236E+05 -3.359141E+04 -1.387351E+06  3.077145E-10 -8.385057E-10
       129  14 -3.182975E+06 -5.826363E+05 -1.786658E+04 -1.369157E+06 -3.533505E-09 -7.504590E-10
       129  15 -3.165772E+06 -5.990030E+05 -9.734489E+03 -1.389665E+06  2.029896E-09 -2.130669E-09
       129  16 -6.011530E+05  3.389703E+05  4.758659E+05 -6.677360E+05  3.185206E-09 -5.586140E-10
       129  17 -8.063231E+05  2.884757E+05  4.449905E+05 -7.044102E+05  3.647323E-09 -1.550604E-09
       129  18 -9.764936E+05  2.005802E+05  4.138437E+05 -7.797581E+05  7.356889E-10 -2.100678E-09
       129  19 -5.726086E+06 -1.549381E+06 -5.432881E+05 -2.104208E+06  8.913985E+04 -1.729280E+05
       129  20 -5.553737E+06 -1.453200E+06 -4.809125E+05 -2.031544E+06  6.890325E+04 -1.742217E+05
       129  21 -5.350060E+06 -1.398128E+06 -4.334698E+05 -1.997580E+06  4.635661E+04 -1.693549E+05
       129  22 -3.167029E+06 -6.054898E+05 -3.352010E+04 -1.387364E+06  9.290323E+04 -1.714203E+05
       129  23 -3.182960E+06 -5.826038E+05 -1.780027E+04 -1.369168E+06  8.181929E+04 -1.692656E+05
       129  24 -3.165760E+06 -5.989740E+05 -9.677104E+03 -1.389674E+06  6.843624E+04 -1.609609E+05
       129  25 -6.011352E+05  3.390037E+05  4.759376E+05 -6.677493E+05  9.668344E+04 -1.699065E+05
       129  26 -8.063062E+05  2.885070E+05  4.450580E+05 -7.044228E+05  9.478871E+04 -1.642894E+05
       129  27 -9.764786E+05  2.006074E+05  4.139027E+05 -7.797693E+05  9.059975E+04 -1.525355E+05
       130   1 -5.220328E+06 -1.351239E+06 -4.049511E+05 -1.962130E+06 -4.259535E+04  1.608702E+05
       130   2 -5.044523E+06 -1.261250E+06 -3.639062E+05 -1.887245E+06 -3.425320E+04  1.474834E+05
       130   3 -4.832475E+06 -1.207632E+06 -3.249213E+05 -1.853397E+06 -2.572530E+04  1.335312E+05
       130   4 -3.165078E+06 -5.992707E+05 -7.303119E+03 -1.389781E+06 -6.380259E+04  1.528192E+05
       130   5 -3.183072E+06 -5.807774E+05 -4.079073E+03 -1.369347E+06 -5.629531E+04  1.391382E+05
       130   6 -3.164707E+06 -5.984875E+05 -2.252192E+03 -1.389961E+06 -4.860362E+04  1.248926E+05
       130   7 -1.105380E+06  1.530919E+05  3.901681E+05 -8.156493E+05 -8.508596E+04  1.447397E+05
       130   8 -1.317979E+06  1.000146E+05  3.556022E+05 -8.499921E+05 -7.840896E+04  1.307663E+05
       130   9 -1.494023E+06  1.091020E+04  3.202982E+05 -9.253572E+05 -7.154834E+04  1.162291E+05
       130  10 -5.220337E+06 -1.351267E+06 -4.050030E+05 -1.962125E+06 -4.108491E-10 -1.128349E-09
       130  11 -5.044530E+06 -1.261273E+06 -3.639493E+05 -1.887241E+06  2.168709E-09 -1.572723E-09
       130  12 -4.832480E+06 -1.207651E+06 -3.249560E+05 -1.853395E+06 -4.762618E-10 -1.941851E-09
       130  13 -3.165089E+06 -5.992968E+05 -7.354563E+03 -1.389773E+06  1.800099E-09 -1.300910E-09
       130  14 -3.183081E+06 -5.807990E+05 -4.121333E+03 -1.369341E+06  3.608784E-10 -1.530551E-09
       130  15 -3.164714E+06 -5.985049E+05 -2.285884E+03 -1.389956E+06 -4.786942E-09 -3.628299E-09
       130  16 -1.105393E+06  1.530675E+05  3.901152E+05 -8.156393E+05  1.297744E-09 -5.474359E-10
       130  17 -1.317990E+06  9.999458E+04  3.555585E+05 -8.499839E+05 -2.545029E-09 -7.408808E-10
       130  18 -1.494032E+06  1.089435E+04  3.202632E+05 -9.253506E+05 -7.719877E-09 -5.492294E-09
       130  19 -5.220328E+06 -1.351239E+06 -4.049511E+05 -1.962130E+06  4.259535E+04 -1.608702E+05
       130  20 -5.044523E+06 -1.261250E+06 -3.639062E+05 -1.887245E+06  3.425320E+04 -1.474834E+05
       130  21 -4.832475E+06 -1.207632E+06 -3.249213E+05 -1.853397E+06  2.572530E+04 -1.335312E+05
       130  22 -3.165078E+06 -5.992707E+05 -7.303119E+03 -1.389781E+06  6.380259E+04 -1.528192E+05
       130  23 -3.183072E+06 -5.807774E+05 -4.079073E+03 -1.369347E+06  5.629531E+04 -1.391382E+05
       130  24 -3.164707E+06 -5.984875E+05 -2.252192E+03 -1.389961E+06  4.860362E+04 -1.248926E+05
       130  25 -1.105380E+06  1.530919E+05  3.901681E+05 -8.156493E+05  8.508596E+04 -1.447397E+05
       130  26 -1.317979E+06  1.000146E+05  3.556022E+05 -8.499921E+05  7.840896E+04 -1.307663E+05
       130  27 -1.494023E+06  1.091020E+04  3.202982E+05 -9.253572E+05  7.154834E+04 -1.162291E+05
       131   1 -4.700805E+06 -1.159294E+06 -2.978589E+05 -1.816969E+06 -2.196763E+04  1.247412E+05
       131   2 -4.521346E+06 -1.068286E+06 -2.594449E+05 -1.740808E+06 -1.542611E+04  1.096227E+05
       131   3 -4.304887E+06 -1.014011E+06 -2.215014E+05 -1.706605E+06 -8.859444E+03  9.438142E+04
       131   4 -3.164467E+06 -5.985407E+05 -1.749031E+03 -1.390147E+06 -4.490545E+04  1.160913E+05
       131   5 -3.182840E+06 -5.799548E+05 -1.130761E+03 -1.369212E+06 -3.854495E+04  1.009203E+05
       131   6 -3.164221E+06 -5.980658E+05 -8.431849E+02 -1.390247E+06 -3.215958E+04  8.562661E+04
       131   7 -1.625666E+06 -3.757734E+04  2.942577E+05 -9.623379E+05 -6.790435E+04  1.074185E+05
       131   8 -1.842455E+06 -9.146082E+04  2.571082E+05 -9.968656E+05 -6.171756E+04  9.219780E+04
       131   9 -2.022183E+06 -1.819997E+05  2.197634E+05 -1.073342E+06 -5.550610E+04  7.685442E+04
       131  10 -4.700810E+06 -1.159311E+06 -2.978890E+05 -1.816967E+06 -7.513556E-09 -3.752064E-09
       131  11 -4.521350E+06 -1.068299E+06 -2.594679E+05 -1.740807E+06 -1.823102E-09  1.448032E-10
       131  12 -4.304889E+06 -1.014020E+06 -2.215182E+05 -1.706604E+06  9.934479E-10  1.516468E-09
       131  13 -3.164473E+06 -5.985557E+05 -1.778095E+03 -1.390142E+06 -3.322524E-09 -3.232129E-09
       131  14 -3.182844E+06 -5.799661E+05 -1.152654E+03 -1.369209E+06  1.597748E-09 -3.135089E-10
       131  15 -3.164224E+06 -5.980739E+05 -8.588787E+02 -1.390244E+06  1.246525E-09  1.032254E-09
       131  16 -1.625674E+06 -3.759095E+04  2.942274E+05 -9.623321E+05 -3.512833E-10 -1.642520E-09
       131  17 -1.842461E+06 -9.147095E+04  2.570851E+05 -9.968610E+05  1.237404E-09  3.170307E-10
       131  18 -2.022188E+06 -1.820069E+05  2.197465E+05 -1.073338E+06 -8.728811E-10  4.999644E-10
       131  19 -4.700805E+06 -1.159294E+06 -2.978589E+05 -1.816969E+06  2.196763E+04 -1.247412E+05
       131  20 -4.521346E+06 -1.068286E+06 -2.594449E+05 -1.740808E+06  1.542611E+04 -1.096227E+05
       131  21 -4.304887E+06 -1.014011E+06 -2.215014E+05 -1.706605E+06  8.859444E+03 -9.438142E+04
       131  22 -3.164467E+06 -5.985407E+05 -1.749031E+03 -1.390147E+06  4.490545E+04 -1.160913E+05
       131  23 -3.182840E+06 -5.799548E+05 -1.130761E+03 -1.369212E+06  3.854495E+04 -1.009203E+05
       131  24 -3.164221E+06 -5.980658E+05 -8.431849E+02 -1.390247E+06  3.215958E+04 -8.562661E+04
       131  25 -1.625666E+06 -3.757734E+04  2.942577E+05 -9.623379E+05  6.790435E+04 -1.074185E+05
       131  26 -1.842455E+06 -9.146082E+04  2.571082E+05 -9.968656E+05  6.171756E+04 -9.219780E+04
       131  27 -2.022183E+06 -1.819997E+05  2.197634E+05 -1.073342E+06  5.550610E+04 -7.685442E+04
       132   1 -4.171078E+06 -9.650155E+05 -1.945471E+05 -1.669676E+06 -5.221942E+03  8.538322E+04
       132   2 -3.988996E+06 -8.731788E+05 -1.565935E+05 -1.592711E+06  1.263485E+03  6.996380E+04
       132   3 -3.769661E+06 -8.185119E+05 -1.190648E+05 -1.558321E+06  7.753613E+03  5.449736E+04
       132   4 -3.164096E+06 -5.980917E+05 -8.519872E+02 -1.390385E+06 -2.861045E+04  7.660278E+04
       132   5 -3.182627E+06 -5.793517E+05 -1.091384E+03 -1.369127E+06 -2.219533E+04  6.116647E+04
       132   6 -3.163938E+06 -5.977685E+05 -1.703250E+03 -1.390457E+06 -1.577576E+04  4.568320E+04
       132   7 -2.156051E+06 -2.310760E+05  1.928020E+05 -1.110669E+06 -5.203983E+04  6.780701E+04
       132   8 -2.375581E+06 -2.854669E+05  1.543840E+05 -1.145272E+06 -4.568686E+04  5.235688E+04
       132   9 -2.557837E+06 -3.769938E+05  1.156431E+05 -1.222441E+06 -3.932965E+04  3.685985E+04
       132  10 -4.171080E+06 -9.650233E+05 -1.945608E+05 -1.669676E+06 -4.841998E-10  9.088843E-10
       132  11 -3.988997E+06 -8.731840E+05 -1.566027E+05 -1.592711E+06  7.707506E-10  1.075264E-09
       132  12 -3.769661E+06 -8.185151E+05 -1.190705E+05 -1.558322E+06  1.462175E-09 -8.743085E-12
       132  13 -3.164099E+06 -5.980982E+05 -8.645303E+02 -1.390383E+06  1.029263E-09  1.210050E-09
       132  14 -3.182629E+06 -5.793558E+05 -1.099327E+03 -1.369126E+06 -7.790806E-10 -6.898124E-10
       132  15 -3.163939E+06 -5.977708E+05 -1.707631E+03 -1.390457E+06 -1.498929E-09 -2.303127E-09
       132  16 -2.156055E+06 -2.310816E+05  1.927883E+05 -1.110667E+06  7.057073E-11  8.991675E-10
       132  17 -2.375584E+06 -2.854704E+05  1.543749E+05 -1.145270E+06 -3.861377E-10 -1.122897E-11
       132  18 -2.557839E+06 -3.769957E+05  1.156377E+05 -1.222440E+06 -1.251159E-09 -1.406510E-09
       132  19 -4.171078E+06 -9.650155E+05 -1.945471E+05 -1.669676E+06  5.221942E+03 -8.538322E+04
       132  20 -3.988996E+06 -8.731788E+05 -1.565935E+05 -1.592711E+06 -1.263485E+03 -6.996380E+04
       132  21 -3.769661E+06 -8.185119E+05 -1.190648E+05 -1.558321E+06 -7.753613E+03 -5.449736E+04
       132  22 -3.164096E+06 -5.980917E+05 -8.519872E+02 -1.390385E+06  2.861045E+04 -7.660278E+04
       132  23 -3.182627E+06 -5.793517E+05 -1.091384E+03 -1.369127E+06  2.219533E+04 -6.116647E+04
       132  24 -3.163938E+06 -5.977685E+05 -1.703250E+03 -1.390457E+06  1.577576E+04 -4.568320E+04
       132  25 -2.156051E+06 -2.310760E+05  1.928020E+05 -1.110669E+06  5.203983E+04 -6.780701E+04
       132  26 -2.375581E+06 -2.854669E+05  1.543840E+05 -1.145272E+06  4.568686E+04 -5.235688E+04
       132  27 -2.557837E+06 -3.769938E+05  1.156431E+05 -1.222441E+06  3.932965E+04 -3.685985E+04
       133   1 -3.634493E+06 -7.691406E+05 -9.236149E+04 -1.521105E+06  1.158306E+04  4.547935E+04
       133   2 -3.450923E+06 -6.769230E+05 -5.560323E+04 -1.443713E+06  1.922798E+04  3.045072E+04
       133   3 -3.230198E+06 -6.222649E+05 -2.020080E+04 -1.409221E+06  2.681963E+04  1.555430E+04
       133   4 -3.163932E+06 -5.977738E+05 -2.221892E+03 -1.390554E+06 -1.201970E+04  3.664152E+04
       133   5 -3.182447E+06 -5.789750E+05 -3.941434E+03 -1.369086E+06 -4.179359E+03  2.168912E+04
       133   6 -3.163897E+06 -5.977801E+05 -7.176226E+03 -1.390536E+06  3.607085E+03  6.868756E+03
       133   7 -2.693133E+06 -4.263848E+05  8.791192E+04 -1.259908E+06 -3.564192E+04  2.779639E+04
       133   8 -2.913894E+06 -4.810194E+05  4.771998E+04 -1.294429E+06 -2.759770E+04  1.292337E+04
       133   9 -3.097591E+06 -5.732944E+05  5.850477E+03 -1.371850E+06 -1.960814E+04 -1.817820E+03
       133  10 -3.634494E+06 -7.691428E+05 -9.236563E+04 -1.521105E+06 -6.788196E-10 -1.029495E-09
       133  11 -3.450923E+06 -6.769241E+05 -5.560567E+04 -1.443713E+06 -1.190298E-09 -9.650948E-10
       133  12 -3.230199E+06 -6.222654E+05 -2.020262E+04 -1.409221E+06 -3.077221E-09 -6.586900E-10
       133  13 -3.163932E+06 -5.977753E+05 -2.224682E+03 -1.390553E+06 -6.851943E-10 -1.841424E-09
       133  14 -3.182448E+06 -5.789755E+05 -3.942350E+03 -1.369086E+06  2.719158E-09  2.458773E-09
       133  15 -3.163898E+06 -5.977802E+05 -7.176339E+03 -1.390536E+06  1.009190E-10  1.229590E-09
       133  16 -2.693134E+06 -4.263860E+05  8.790808E+04 -1.259907E+06  4.420568E-10 -9.772015E-10
       133  17 -2.913895E+06 -4.810198E+05  4.771823E+04 -1.294429E+06 -4.482766E-10 -1.348795E-09
       133  18 -3.097592E+06 -5.732945E+05  5.849745E+03 -1.371850E+06  2.569197E-09  2.726967E-09
       133  19 -3.634493E+06 -7.691406E+05 -9.236149E+04 -1.521105E+06 -1.158306E+04 -4.547935E+04
       133  20 -3.450923E+06 -6.769230E+05 -5.560323E+04 -1.443713E+06 -1.922798E+04 -3.045072E+04
       133  21 -3.230198E+06 -6.222649E+05 -2.020080E+04 -1.409221E+06 -2.681963E+04 -1.555430E+04
       133  22 -3.163932E+06 -5.977738E+05 -2.221892E+03 -1.390554E+06  1.201970E+04 -3.664152E+04
       133  23 -3.182447E+06 -5.789750E+05 -3.941434E+03 -1.369086E+06  4.179359E+03 -2.168912E+04
       133  24 -3.163897E+06 -5.977801E+05 -7.176226E+03 -1.390536E+06 -3.607085E+03 -6.868756E+03
       133  25 -2.693133E+06 -4.263848E+05  8.791192E+04 -1.259908E+06  3.564192E+04 -2.779639E+04
       133  26 -2.913894E+06 -4.810194E+05  4.771998E+04 -1.294429E+06  2.759770E+04 -1.292337E+04
       133  27 -3.097591E+06 -5.732944E+05  5.850477E+03 -1.371850E+06  1.960814E+04  1.817820E+03
       134   1 -3.094380E+06 -5.730183E+05  4.775597E+03 -1.372552E+06  3.194640E+04  7.021881E+03
       134   2 -2.911266E+06 -4.802991E+05  3.640219E+04 -1.293279E+06  4.310103E+04 -5.545235E+03
       134   3 -2.692977E+06 -4.287351E+05  6.277529E+04 -1.256007E+06  5.347985E+04 -1.602711E+04
       134   4 -3.164309E+06 -5.975884E+05 -9.548645E+03 -1.390757E+06  8.367965E+03 -1.800496E+03
       134   5 -3.182000E+06 -5.795892E+05 -1.744877E+04 -1.368678E+06  2.263980E+04 -1.320415E+04
       134   6 -3.165181E+06 -6.033729E+05 -3.308641E+04 -1.388619E+06  3.613376E+04 -2.252279E+04
       134   7 -3.234231E+06 -6.221576E+05 -2.387058E+04 -1.408959E+06 -1.520740E+04 -1.062182E+04
       134   8 -3.452657E+06 -6.788724E+05 -7.130140E+04 -1.444046E+06  2.188191E+03 -2.085943E+04
       134   9 -3.637158E+06 -7.779914E+05 -1.289591E+05 -1.521138E+06  1.880176E+04 -2.901305E+04
       134  10 -3.094381E+06 -5.730186E+05  4.773575E+03 -1.372553E+06 -2.254807E-10  2.996615E-10
       134  11 -2.911268E+06 -4.802996E+05  3.639863E+04 -1.293279E+06 -1.538816E-09 -1.586159E-09
       134  12 -2.692980E+06 -4.287362E+05  6.276941E+04 -1.256006E+06  6.409592E-10 -5.661226E-10
       134  13 -3.164309E+06 -5.975885E+05 -9.548783E+03 -1.390757E+06 -5.227987E-10  8.455516E-10
       134  14 -3.182001E+06 -5.795896E+05 -1.745007E+04 -1.368678E+06  2.182355E-10  3.922073E-10
       134  15 -3.165183E+06 -6.033738E+05 -3.308982E+04 -1.388618E+06  7.697962E-10 -1.744854E-11
       134  16 -3.234231E+06 -6.221578E+05 -2.387123E+04 -1.408959E+06 -1.168208E-09  7.363392E-10
       134  17 -3.452657E+06 -6.788729E+05 -7.130223E+04 -1.444046E+06  1.878638E-09  2.127050E-09
       134  18 -3.637158E+06 -7.779924E+05 -1.289613E+05 -1.521137E+06  2.544597E-10  6.745770E-11
       134  19 -3.094380E+06 -5.730183E+05  4.775597E+03 -1.372552E+06 -3.194640E+04 -7.021881E+03
       134  20 -2.911266E+06 -4.802991E+05  3.640219E+04 -1.293279E+06 -4.310103E+04  5.545235E+03
       134  21 -2.692977E+06 -4.287351E+05  6.277529E+04 -1.256007E+06 -5.347985E+04  1.602711E+04
       134  22 -3.164309E+06 -5.975884E+05 -9.548645E+03 -1.390757E+06 -8.367965E+03  1.800496E+03
       134  23 -3.182000E+06 -5.795892E+05 -1.744877E+04 -1.368678E+06 -2.263980E+04  1.320415E+04
       134  24 -3.165181E+06 -6.033729E+05 -3.308641E+04 -1.388619E+06 -3.613376E+04  2.252279E+04
       134  25 -3.234231E+06 -6.221576E+05 -2.387058E+04 -1.408959E+06  1.520740E+04  1.062182E+04
       134  26 -3.452657E+06 -6.788724E+05 -7.130140E+04 -1.444046E+06 -2.188191E+03  2.085943E+04
       134  27 -3.637158E+06 -7.779914E+05 -1.289591E+05 -1.521138E+06 -1.880176E+04  2.901305E+04
       135   1 -2.551881E+06 -3.848237E+05  8.032963E+04 -1.233343E+06  6.666085E+04 -2.111801E+04
       135   2 -2.396815E+06 -2.782693E+05  9.582954E+04 -1.104103E+06  6.733842E+04 -2.160183E+04
       135   3 -2.238858E+06 -2.948106E+05  8.697618E+04 -9.920964E+05  5.738428E+04  6.258154E+03
       135   4 -3.170742E+06 -5.993572E+05 -4.351376E+04 -1.392110E+06  4.438692E+04 -2.946041E+04
       135   5 -3.177869E+06 -6.031123E+05 -8.194436E+04 -1.357491E+06  8.755914E+04 -1.403595E+04
       135   6 -3.190653E+06 -7.385179E+05 -1.785615E+05 -1.340132E+06  1.200895E+05  2.974925E+04
       135   7 -3.789209E+06 -8.138686E+05 -1.673744E+05 -1.550735E+06  2.213684E+04 -3.779495E+04
       135   8 -3.958282E+06 -9.278531E+05 -2.597522E+05 -1.610563E+06  1.077520E+05 -6.483611E+03
       135   9 -4.141499E+06 -1.181997E+06 -4.441553E+05 -1.687618E+06  1.826870E+05  5.317787E+04
       135  10 -2.551886E+06 -3.848254E+05  8.032042E+04 -1.233341E+06 -5.773708E-10 -7.651201E-10
       135  11 -2.396820E+06 -2.782711E+05  9.582012E+04 -1.104102E+06 -1.479064E-09 -8.357056E-10
       135  12 -2.238861E+06 -2.948115E+05  8.696989E+04 -9.920967E+05  3.280289E-10  1.673725E-10
       135  13 -3.170744E+06 -5.993587E+05 -4.351910E+04 -1.392109E+06  1.213488E-09  7.191095E-10
       135  14 -3.177877E+06 -6.031146E+05 -8.195919E+04 -1.357490E+06  2.324990E-09  1.551393E-09
       135  15 -3.190669E+06 -7.385227E+05 -1.785905E+05 -1.340135E+06  2.743450E-10  1.823320E-10
       135  16 -3.789210E+06 -8.138703E+05 -1.673780E+05 -1.550734E+06  1.366061E-09  1.426342E-09
       135  17 -3.958294E+06 -9.278562E+05 -2.597742E+05 -1.610563E+06 -9.154717E-11  5.494495E-10
       135  18 -4.141536E+06 -1.182009E+06 -4.442239E+05 -1.687626E+06 -1.034381E-09  3.289521E-11
       135  19 -2.551881E+06 -3.848237E+05  8.032963E+04 -1.233343E+06 -6.666085E+04  2.111801E+04
       135  20 -2.396815E+06 -2.782693E+05  9.582954E+04 -1.104103E+06 -6.733842E+04  2.160183E+04
       135  21 -2.238858E+06 -2.948106E+05  8.697618E+04 -9.920964E+05 -5.738428E+04 -6.258154E+03
       135  22 -3.170742E+06 -5.993572E+05 -4.351376E+04 -1.392110E+06 -4.438692E+04  2.946041E+04
       135  23 -3.177869E+06 -6.031123E+05 -8.194436E+04 -1.357491E+06 -8.755914E+04  1.403595E+04
       135  24 -3.190653E+06 -7.385179E+05 -1.785615E+05 -1.340132E+06 -1.200895E+05 -2.974925E+04
       135  25 -3.789209E+06 -8.138686E+05 -1.673744E+05 -1.550735E+06 -2.213684E+04  3.779495E+04
       135  26 -3.958282E+06 -9.278531E+05 -2.597522E+05 -1.610563E+06 -1.077520E+05  6.483611E+03
       135  27 -4.141499E+06 -1.181997E+06 -4.441553E+05 -1.687618E+06 -1.826870E+05 -5.317787E+04
       136   1  1.724512E+05  3.389190E+04  5.220427E+04  1.507055E+04  5.681133E+04  1.381828E+03
       136   2  1.729629E+05 -4.080090E+04  7.740420E+03  4.370961E+03  3.799900E+04  4.049302E+03
       136   3  1.969339E+05 -3.155777E+04 -3.487078E+03 -1.537888E+04  1.918705E+04  3.652872E+03
       136   4  3.100630E+05  6.817266E+04  8.614790E+04 -6.350386E+03  5.894194E+04  1.380737E+03
       136   5  2.982071E+05 -9.768029E+03  3.771769E+04 -1.811317E+03  3.858060E+04  4.049070E+03
       136   6  3.100735E+05 -3.514072E+03  2.359391E+04 -6.322170E+03  1.822006E+04  3.652848E+03
       136   7  4.476930E+05  1.024537E+05  1.200904E+05 -2.777608E+04  6.107302E+04  1.379500E+03
       136   8  4.234658E+05  2.126385E+04  6.769388E+04 -7.994849E+03  3.916232E+04  4.048826E+03
       136   9  4.232250E+05  2.452901E+04  5.067403E+04  2.736198E+03  1.725289E+04  3.652796E+03
       136  10  1.724478E+05  3.389103E+04  5.219820E+04  1.507049E+04  1.539170E-09 -4.104982E-10
       136  11  1.729614E+05 -4.080131E+04  7.737676E+03  4.370838E+03  1.101178E-09  8.369339E-11
       136  12  1.969335E+05 -3.155789E+04 -3.487794E+03 -1.537894E+04 -4.071419E-10 -3.453937E-10
       136  13  3.100593E+05  6.817173E+04  8.614137E+04 -6.350452E+03  1.424779E-09  2.139822E-10
       136  14  2.982055E+05 -9.768446E+03  3.771487E+04 -1.811443E+03 -1.066123E-09 -2.288823E-10
       136  15  3.100731E+05 -3.514176E+03  2.359326E+04 -6.322224E+03  3.257556E-11 -3.823864E-10
       136  16  4.476890E+05  1.024527E+05  1.200834E+05 -2.777615E+04 -1.481604E-09  1.147490E-10
       136  17  4.234641E+05  2.126342E+04  6.769097E+04 -7.994977E+03 -9.264223E-10 -3.155072E-10
       136  18  4.232246E+05  2.452891E+04  5.067345E+04  2.736148E+03  6.193256E-10  5.314649E-10
       136  19  1.724512E+05  3.389190E+04  5.220427E+04  1.507055E+04 -5.681133E+04 -1.381828E+03
       136  20  1.729629E+05 -4.080090E+04  7.740420E+03  4.370961E+03 -3.799900E+04 -4.049302E+03
       136  21  1.969339E+05 -3.155777E+04 -3.487078E+03 -1.537888E+04 -1.918705E+04 -3.652872E+03
       136  22  3.100630E+05  6.817266E+04  8.614790E+04 -6.350386E+03 -5.894194E+04 -1.380737E+03
       136  23  2.982071E+05 -9.768029E+03  3.771769E+04 -1.811317E+03 -3.858060E+04 -4.049070E+03
       136  24  3.100735E+05 -3.514072E+03  2.359391E+04 -6.322170E+03 -1.822006E+04 -3.652848E+03
       136  25  4.476930E+05  1.024537E+05  1.200904E+05 -2.777608E+04 -6.107302E+04 -1.379500E+03
       136  26  4.234658E+05  2.126385E+04  6.769388E+04 -7.994849E+03 -3.916232E+04 -4.048826E+03
       136  27  4.232250E+05  2.452901E+04  5.067403E+04  2.736198E+03 -1.725289E+04 -3.652796E+03
       137   1  2.086326E+05 -1.684260E+04 -3.985173E+03 -4.306378E+03  1.462552E+04  2.930880E+03
       137   2  2.192559E+05 -2.206659E+04 -1.051330E+04 -1.323538E+03  9.722063E+03  2.673935E+03
       137   3  2.327545E+05 -1.839203E+04 -1.162244E+04 -7.337995E+03  4.818503E+03  2.190142E+03
       137   4  3.054437E+05  7.160002E+03  1.924978E+04 -6.319883E+03  1.455525E+04  2.930786E+03
       137   5  3.039973E+05 -1.062889E+03  9.789043E+03 -1.820481E+03  9.536710E+03  2.673869E+03
       137   6  3.054457E+05 -3.679574E+02  5.826564E+03 -6.318268E+03  4.518159E+03  2.190094E+03
       137   7  4.022633E+05  3.116193E+04  4.248407E+04 -8.333704E+03  1.448497E+04  2.930692E+03
       137   8  3.887453E+05  1.994030E+04  3.009088E+04 -2.317492E+03  9.351331E+03  2.673803E+03
       137   9  3.781417E+05  1.765573E+04  2.327519E+04 -5.298421E+03  4.217781E+03  2.190045E+03
       137  10  2.086324E+05 -1.684266E+04 -3.985591E+03 -4.306412E+03  1.238084E-09 -3.502991E-10
       137  11  2.192558E+05 -2.206663E+04 -1.051350E+04 -1.323559E+03  3.715575E-09  9.285951E-11
       137  12  2.327545E+05 -1.839204E+04 -1.162249E+04 -7.338004E+03 -4.538425E-10  8.276193E-10
       137  13  3.054434E+05  7.159936E+03  1.924937E+04 -6.319918E+03  2.533370E-10  4.009471E-10
       137  14  3.039972E+05 -1.062921E+03  9.788859E+03 -1.820501E+03  1.188834E-09  4.325532E-10
       137  15  3.054456E+05 -3.679681E+02  5.826517E+03 -6.318276E+03 -2.385596E-10  4.872143E-10
       137  16  4.022631E+05  3.116187E+04  4.248366E+04 -8.333739E+03  8.402711E-10  5.492328E-10
       137  17  3.887452E+05  1.994026E+04  3.009071E+04 -2.317512E+03  1.671865E-10  4.809445E-10
       137  18  3.781416E+05  1.765572E+04  2.327515E+04 -5.298428E+03 -4.990528E-10  4.237749E-10
       137  19  2.086326E+05 -1.684260E+04 -3.985173E+03 -4.306378E+03 -1.462552E+04 -2.930880E+03
       137  20  2.192559E+05 -2.206659E+04 -1.051330E+04 -1.323538E+03 -9.722063E+03 -2.673935E+03
       137  21  2.327545E+05 -1.839203E+04 -1.162244E+04 -7.337995E+03 -4.818503E+03 -2.190142E+03
       137  22  3.054437E+05  7.160002E+03  1.924978E+04 -6.319883E+03 -1.455525E+04 -2.930786E+03
       137  23  3.039973E+05 -1.062889E+03  9.789043E+03 -1.820481E+03 -9.536710E+03 -2.673869E+03
       137  24  3.054457E+05 -3.679574E+02  5.826564E+03 -6.318268E+03 -4.518159E+03 -2.190094E+03
       137  25  4.022633E+05  3.116193E+04  4.248407E+04 -8.333704E+03 -1.448497E+04 -2.930692E+03
       137  26  3.887453E+05  1.994030E+04  3.009088E+04 -2.317492E+03 -9.351331E+03 -2.673803E+03
       137  27  3.781417E+05  1.765573E+04  2.327519E+04 -5.298421E+03 -4.217781E+03 -2.190045E+03
       138   1  2.483710E+05 -1.326535E+04 -8.950744E+03 -6.157077E+03  3.832551E+03  1.872780E+03
       138   2  2.601450E+05 -1.116027E+04 -8.182545E+03 -1.822952E+03  2.591223E+03  1.401615E+03
       138   3  2.723189E+05 -8.118455E+03 -6.371392E+03 -6.426807E+03  1.349848E+03  9.143666E+02
       138   4  3.048920E+05  7.376605E+02  4.560774E+03 -6.305631E+03  3.599336E+03  1.872743E+03
       138   5  3.046915E+05 -1.190728E+02  2.490768E+03 -1.836624E+03  2.349794E+03  1.401588E+03
       138   6  3.048925E+05 -3.764973E+01  1.469391E+03 -6.305556E+03  1.100229E+03  9.143503E+02
       138   7  3.614158E+05  1.474044E+04  1.807207E+04 -6.454198E+03  3.366100E+03  1.872706E+03
       138   8  3.492399E+05  1.092198E+04  1.316394E+04 -1.850296E+03  2.108348E+03  1.401561E+03
       138   9  3.374670E+05  8.043078E+03  9.310100E+03 -6.184298E+03  8.505969E+02  9.143339E+02
       138  10  2.483710E+05 -1.326536E+04 -8.950778E+03 -6.157082E+03  6.045030E-10  7.642420E-10
       138  11  2.601450E+05 -1.116027E+04 -8.182562E+03 -1.822955E+03 -1.608537E-09 -3.086212E-10
       138  12  2.723189E+05 -8.118456E+03 -6.371397E+03 -6.426808E+03 -2.466851E-09 -1.485732E-10
       138  13  3.048919E+05  7.376533E+02  4.560743E+03 -6.305636E+03 -4.124312E-11  3.681539E-10
       138  14  3.046915E+05 -1.190764E+02  2.490754E+03 -1.836626E+03  2.129179E-09 -3.472700E-10
       138  15  3.048925E+05 -3.765096E+01  1.469388E+03 -6.305556E+03  5.966568E-10 -3.826839E-10
       138  16  3.614158E+05  1.474043E+04  1.807204E+04 -6.454203E+03 -2.733471E-10  3.965201E-11
       138  17  3.492399E+05  1.092197E+04  1.316393E+04 -1.850299E+03  1.234102E-09 -7.286185E-10
       138  18  3.374670E+05  8.043077E+03  9.310097E+03 -6.184299E+03  8.320958E-10 -3.343843E-10
       138  19  2.483710E+05 -1.326535E+04 -8.950744E+03 -6.157077E+03 -3.832551E+03 -1.872780E+03
       138  20  2.601450E+05 -1.116027E+04 -8.182545E+03 -1.822952E+03 -2.591223E+03 -1.401615E+03
       138  21  2.723189E+05 -8.118455E+03 -6.371392E+03 -6.426807E+03 -1.349848E+03 -9.143666E+02
       138  22  3.048920E+05  7.376605E+02  4.560774E+03 -6.305631E+03 -3.599336E+03 -1.872743E+03
       138  23  3.046915E+05 -1.190728E+02  2.490768E+03 -1.836624E+03 -2.349794E+03 -1.401588E+03
       138  24  3.048925E+05 -3.764973E+01  1.469391E+03 -6.305556E+03 -1.100229E+03 -9.143503E+02
       138  25  3.614158E+05  1.474044E+04  1.807207E+04 -6.454198E+03 -3.366100E+03 -1.872706E+03
       138  26  3.492399E+05  1.092198E+04  1.316394E+04 -1.850296E+03 -2.108348E+03 -1.401561E+03
       138  27  3.374670E+05  8.043078E+03  9.310100E+03 -6.184298E+03 -8.505969E+02 -9.143339E+02
       139   1  2.883378E+05 -4.005535E+03 -2.769451E+03 -6.299475E+03  1.110226E+03  6.284576E+02
       139   2  3.002442E+05 -1.139974E+03 -4.034464E+02 -1.849484E+03  7.707616E+02  1.428275E+02
       139   3  3.122214E+05  1.825809E+03  2.208816E+03 -6.314567E+03  4.312815E+02 -3.438694E+02
       139   4  3.048191E+05  7.220290E+01  1.143328E+03 -6.300499E+03  8.656704E+02  6.284454E+02
       139   5  3.047839E+05 -1.480419E+01  6.842387E+02 -1.842963E+03  5.256560E+02  1.428161E+02
       139   6  3.048192E+05 -1.532809E+00  4.717433E+02 -6.300496E+03  1.856320E+02 -3.438794E+02
       139   7  3.213007E+05  4.149922E+03  5.056088E+03 -6.301523E+03  6.211086E+02  6.284332E+02
       139   8  3.093236E+05  1.110364E+03  1.771923E+03 -1.836441E+03  2.805486E+02  1.428048E+02
       139   9  2.974171E+05 -1.828878E+03 -1.265333E+03 -6.286426E+03 -6.001454E+01 -3.438895E+02
       139  10  2.883378E+05 -4.005536E+03 -2.769454E+03 -6.299475E+03 -1.259980E-09  1.153925E-11
       139  11  3.002442E+05 -1.139974E+03 -4.034476E+02 -1.849484E+03 -2.187434E-09 -4.003076E-11
       139  12  3.122214E+05  1.825809E+03  2.208815E+03 -6.314567E+03 -1.393414E-09  2.100773E-10
       139  13  3.048191E+05  7.220227E+01  1.143326E+03 -6.300499E+03  3.529944E-11  8.857203E-11
       139  14  3.047839E+05 -1.480428E+01  6.842381E+02 -1.842963E+03 -1.146981E-09  2.788186E-10
       139  15  3.048192E+05 -1.532945E+00  4.717430E+02 -6.300496E+03 -1.357850E-09 -9.503284E-11
       139  16  3.213007E+05  4.149921E+03  5.056086E+03 -6.301523E+03  7.589230E-10  2.420831E-10
       139  17  3.093236E+05  1.110364E+03  1.771922E+03 -1.836441E+03 -6.258162E-10  5.478355E-10
       139  18  2.974171E+05 -1.828879E+03 -1.265333E+03 -6.286426E+03  8.929318E-10 -4.176627E-10
       139  19  2.883378E+05 -4.005535E+03 -2.769451E+03 -6.299475E+03 -1.110226E+03 -6.284576E+02
       139  20  3.002442E+05 -1.139974E+03 -4.034464E+02 -1.849484E+03 -7.707616E+02 -1.428275E+02
       139  21  3.122214E+05  1.825809E+03  2.208816E+03 -6.314567E+03 -4.312815E+02  3.438694E+02
       139  22  3.048191E+05  7.220290E+01  1.143328E+03 -6.300499E+03 -8.656704E+02 -6.284454E+02
       139  23  3.047839E+05 -1.480419E+01  6.842387E+02 -1.842963E+03 -5.256560E+02 -1.428161E+02
       139  24  3.048192E+05 -1.532809E+00  4.717433E+02 -6.300496E+03 -1.856320E+02  3.438794E+02
       139  25  3.213007E+05  4.149922E+03  5.056088E+03 -6.301523E+03 -6.211086E+02 -6.284332E+02
       139  26  3.093236E+05  1.110364E+03  1.771923E+03 -1.836441E+03 -2.805486E+02 -1.428048E+02
       139  27  2.974171E+05 -1.828878E+03 -1.265333E+03 -6.286426E+03  6.001454E+01  3.438895E+02
       140   1  3.282996E+05  5.832809E+03  6.086090E+03 -6.300226E+03  3.506804E+02 -6.275831E+02
       140   2  3.402408E+05  8.777805E+03  8.907754E+03 -1.836698E+03  1.445989E+02 -1.114760E+03
       140   3  3.522242E+05  1.177188E+04  1.187643E+04 -6.303229E+03 -6.144992E+01 -1.601262E+03
       140   4  3.048128E+05  4.352245E+00  4.223785E+02 -6.303835E+03  1.048767E+02 -6.275958E+02
       140   5  3.047916E+05 -8.132200E+00  4.144453E+02 -1.838790E+03 -1.008582E+02 -1.114781E+03
       140   6  3.048126E+05  2.841338E+01  5.532938E+02 -6.303837E+03 -3.065563E+02 -1.601292E+03
       140   7  2.813264E+05 -5.824145E+03 -5.241372E+03 -6.307444E+03 -1.409177E+02 -6.276084E+02
       140   8  2.693436E+05 -8.794160E+03 -8.078952E+03 -1.840882E+03 -3.463012E+02 -1.114802E+03
       140   9  2.574031E+05 -1.171521E+04 -1.077000E+04 -6.304445E+03 -5.516441E+02 -1.601321E+03
       140  10  3.282996E+05  5.832809E+03  6.086089E+03 -6.300226E+03 -1.529621E-10  1.767815E-10
       140  11  3.402408E+05  8.777804E+03  8.907751E+03 -1.836697E+03 -3.877962E-10 -8.418125E-11
       140  12  3.522242E+05  1.177188E+04  1.187642E+04 -6.303230E+03 -9.723325E-10  1.590119E-10
       140  13  3.048128E+05  4.351819E+00  4.223778E+02 -6.303835E+03  1.324209E-09 -1.629926E-10
       140  14  3.047916E+05 -8.133538E+00  4.144430E+02 -1.838790E+03 -4.105258E-09  6.322953E-11
       140  15  3.048126E+05  2.841060E+01  5.532888E+02 -6.303838E+03 -2.792017E-09  3.256324E-10
       140  16  2.813264E+05 -5.824146E+03 -5.241373E+03 -6.307444E+03 -3.839980E-10 -6.876952E-10
       140  17  2.693436E+05 -8.794162E+03 -8.078954E+03 -1.840883E+03 -9.173578E-10 -7.292023E-11
       140  18  2.574031E+05 -1.171522E+04 -1.077000E+04 -6.304446E+03 -1.646915E-09  2.755063E-10
       140  19  3.282996E+05  5.832809E+03  6.086090E+03 -6.300226E+03 -3.506804E+02  6.275831E+02
       140  20  3.402408E+05  8.777805E+03  8.907754E+03 -1.836698E+03 -1.445989E+02  1.114760E+03
       140  21  3.522242E+05  1.177188E+04  1.187643E+04 -6.303229E+03  6.144992E+01  1.601262E+03
       140  22  3.048128E+05  4.352245E+00  4.223785E+02 -6.303835E+03 -1.048767E+02  6.275958E+02
       140  23  3.047916E+05 -8.132200E+00  4.144453E+02 -1.838790E+03  1.008582E+02  1.114781E+03
       140  24  3.048126E+05  2.841338E+01  5.532938E+02 -6.303837E+03  3.065563E+02  1.601292E+03
       140  25  2.813264E+05 -5.824145E+03 -5.241372E+03 -6.307444E+03  1.409177E+02  6.276084E+02
       140  26  2.693436E+05 -8.794160E+03 -8.078952E+03 -1.840882E+03  3.463012E+02  1.114802E+03
       140  27  2.574031E+05 -1.171521E+04 -1.077000E+04 -6.304445E+03  5.516441E+02  1.601321E+03
       141   1  3.684019E+05  1.574313E+04  1.593711E+04 -6.261676E+03 -1.653205E+02 -1.888635E+03
       141   2  3.803465E+05  1.868339E+04  1.918837E+04 -1.822249E+03 -7.153626E+02 -2.377809E+03
       141   3  3.924713E+05  2.201802E+04  2.289821E+04 -6.367248E+03 -1.265333E+03 -2.847826E+03
       141   4  3.048424E+05 -1.683237E+01  6.729274E+02 -6.315907E+03 -4.167445E+02 -1.888675E+03
       141   5  3.047529E+05 -5.170730E+01  1.077427E+03 -1.823690E+03 -9.570691E+02 -2.377866E+03
       141   6  3.048420E+05  3.061803E+02  1.933852E+03 -6.315965E+03 -1.497311E+03 -2.847899E+03
       141   7  2.412866E+05 -1.577709E+04 -1.459154E+04 -6.370133E+03 -6.681428E+02 -1.888715E+03
       141   8  2.291645E+05 -1.878722E+04 -1.703392E+04 -1.825130E+03 -1.198746E+03 -2.377923E+03
       141   9  2.172197E+05 -2.140622E+04 -1.903105E+04 -6.264690E+03 -1.729257E+03 -2.847971E+03
       141  10  3.684019E+05  1.574312E+04  1.593710E+04 -6.261676E+03 -8.597286E-10  5.075176E-10
       141  11  3.803465E+05  1.868339E+04  1.918836E+04 -1.822251E+03  1.901151E-09 -1.458354E-10
       141  12  3.924713E+05  2.201801E+04  2.289819E+04 -6.367251E+03 -6.192514E-10  3.243999E-11
       141  13  3.048424E+05 -1.683625E+01  6.729204E+02 -6.315908E+03  1.145728E-09  3.461451E-10
       141  14  3.047529E+05 -5.171362E+01  1.077415E+03 -1.823691E+03  9.183770E-10  4.161434E-11
       141  15  3.048420E+05  3.061710E+02  1.933832E+03 -6.315969E+03  7.880233E-10  1.285783E-11
       141  16  2.412866E+05 -1.577709E+04 -1.459155E+04 -6.370134E+03 -7.943929E-10  1.971117E-10
       141  17  2.291645E+05 -1.878723E+04 -1.703394E+04 -1.825132E+03  1.186662E-09 -9.391586E-11
       141  18  2.172197E+05 -2.140623E+04 -1.903107E+04 -6.264694E+03  1.180291E-09  1.575155E-10
       141  19  3.684019E+05  1.574313E+04  1.593711E+04 -6.261676E+03  1.653205E+02  1.888635E+03
       141  20  3.803465E+05  1.868339E+04  1.918837E+04 -1.822249E+03  7.153626E+02  2.377809E+03
       141  21  3.924713E+05  2.201802E+04  2.289821E+04 -6.367248E+03  1.265333E+03  2.847826E+03
       141  22  3.048424E+05 -1.683237E+01  6.729274E+02 -6.315907E+03  4.167445E+02  1.888675E+03
       141  23  3.047529E+05 -5.170730E+01  1.077427E+03 -1.823690E+03  9.570691E+02  2.377866E+03
       141  24  3.048420E+05  3.061803E+02  1.933852E+03 -6.315965E+03  1.497311E+03  2.847899E+03
       141  25  2.412866E+05 -1.577709E+04 -1.459154E+04 -6.370133E+03  6.681428E+02  1.888715E+03
       141  26  2.291645E+05 -1.878722E+04 -1.703392E+04 -1.825130E+03  1.198746E+03  2.377923E+03
       141  27  2.172197E+05 -2.140622E+04 -1.903105E+04 -6.264690E+03  1.729257E+03  2.847971E+03
       142   1  4.089869E+05  2.560170E+04  2.738766E+04 -5.891509E+03 -1.572209E+03 -3.174096E+03
       142   2  4.205220E+05  2.831419E+04  3.192210E+04 -1.987385E+03 -3.823408E+03 -3.659534E+03
       142   3  4.333140E+05  3.479352E+04  3.886777E+04 -7.152359E+03 -6.074674E+03 -3.868393E+03
       142   4  3.050754E+05 -1.577149E+02  2.461587E+03 -6.334420E+03 -1.886226E+03 -3.174203E+03
       142   5  3.044585E+05 -4.496054E+02  4.118566E+03 -1.800375E+03 -3.997607E+03 -3.659634E+03
       142   6  3.050742E+05  3.001433E+03  8.090008E+03 -6.335513E+03 -6.109008E+03 -3.868467E+03
       142   7  2.011738E+05 -2.591791E+04 -2.246525E+04 -6.777257E+03 -2.200191E+03 -3.174309E+03
       142   8  1.884073E+05 -2.921438E+04 -2.368592E+04 -1.613402E+03 -4.171773E+03 -3.659734E+03
       142   9  1.768494E+05 -2.879184E+04 -2.268892E+04 -5.518838E+03 -6.143336E+03 -3.868541E+03
       142  10  4.089869E+05  2.560168E+04  2.738764E+04 -5.891513E+03 -6.504505E-11 -2.238168E-10
       142  11  4.205220E+05  2.831417E+04  3.192205E+04 -1.987396E+03  1.025447E-09 -7.677512E-10
       142  12  4.333140E+05  3.479349E+04  3.886768E+04 -7.152378E+03  1.842948E-09 -1.306448E-09
       142  13  3.050754E+05 -1.577267E+02  2.461562E+03 -6.334425E+03  1.355866E-10  1.909244E-10
       142  14  3.044585E+05 -4.496240E+02  4.118511E+03 -1.800387E+03  9.926588E-10 -5.157239E-11
       142  15  3.050741E+05  3.001407E+03  8.089910E+03 -6.335532E+03 -3.184784E-10 -1.267549E-09
       142  16  2.011738E+05 -2.591792E+04 -2.246528E+04 -6.777263E+03 -4.347349E-10  6.410181E-10
       142  17  1.884073E+05 -2.921440E+04 -2.368598E+04 -1.613414E+03 -5.829321E-10  1.504136E-09
       142  18  1.768494E+05 -2.879187E+04 -2.268902E+04 -5.518857E+03 -7.316859E-10 -1.050257E-09
       142  19  4.089869E+05  2.560170E+04  2.738766E+04 -5.891509E+03  1.572209E+03  3.174096E+03
       142  20  4.205220E+05  2.831419E+04  3.192210E+04 -1.987385E+03  3.823408E+03  3.659534E+03
       142  21  4.333140E+05  3.479352E+04  3.886777E+04 -7.152359E+03  6.074674E+03  3.868393E+03
       142  22  3.050754E+05 -1.577149E+02  2.461587E+03 -6.334420E+03  1.886226E+03  3.174203E+03
       142  23  3.044585E+05 -4.496054E+02  4.118566E+03 -1.800375E+03  3.997607E+03  3.659634E+03
       142  24  3.050742E+05  3.001433E+03  8.090008E+03 -6.335513E+03  6.109008E+03  3.868467E+03
       142  25  2.011738E+05 -2.591791E+04 -2.246525E+04 -6.777257E+03  2.200191E+03  3.174309E+03
       142  26  1.884073E+05 -2.921438E+04 -2.368592E+04 -1.613402E+03  4.171773E+03  3.659734E+03
       142  27  1.768494E+05 -2.879184E+04 -2.268892E+04 -5.518838E+03  6.143336E+03  3.868541E+03
       143   1  4.517634E+05  3.438481E+04  4.454764E+04 -2.501347E+03 -6.520493E+03 -4.687459E+03
       143   2  4.589871E+05  3.478074E+04  5.340677E+04 -4.338301E+03 -1.695987E+04 -5.062935E+03
       143   3  4.765287E+05  7.086428E+04  7.798877E+04 -1.530082E+04 -2.740165E+04 -1.699739E+03
       143   4  3.070207E+05 -1.481986E+03  9.913999E+03 -6.342151E+03 -7.648979E+03 -4.687964E+03
       143   5  3.020217E+05 -4.108784E+03  1.584164E+04 -1.788031E+03 -1.620114E+04 -5.062700E+03
       143   6  3.070155E+05  2.862924E+04  3.618478E+04 -6.359435E+03 -2.475547E+04 -1.698560E+03
       143   7  1.622972E+05 -3.735024E+04 -2.472111E+04 -1.018206E+04 -8.777204E+03 -4.688454E+03
       143   8  1.450788E+05 -4.300007E+04 -2.172523E+04  7.615879E+02 -1.544261E+04 -5.062457E+03
       143   9  1.375286E+05 -1.360765E+04 -5.621258E+03  2.579502E+03 -2.211001E+04 -1.697305E+03
       143  10  4.517633E+05  3.438477E+04  4.454752E+04 -2.501372E+03  1.186254E-09 -1.539118E-09
       143  11  4.589868E+05  3.478064E+04  5.340619E+04 -4.338370E+03  4.365814E-10 -1.651891E-09
       143  12  4.765279E+05  7.086408E+04  7.798735E+04 -1.530086E+04  1.156554E-09 -4.884507E-10
       143  13  3.070206E+05 -1.482026E+03  9.913848E+03 -6.342180E+03 -8.727965E-11 -3.210969E-09
       143  14  3.020214E+05 -4.108881E+03  1.584110E+04 -1.788098E+03 -3.047984E-09  9.055039E-10
       143  15  3.070149E+05  2.862907E+04  3.618363E+04 -6.359468E+03 -2.883943E-09  2.524352E-11
       143  16  1.622971E+05 -3.735029E+04 -2.472129E+04 -1.018209E+04 -1.747435E-09 -1.843258E-09
       143  17  1.450786E+05 -4.300016E+04 -2.172573E+04  7.615250E+02 -1.420610E-09  5.454001E-10
       143  18  1.375281E+05 -1.360778E+04 -5.622182E+03  2.579472E+03 -7.458115E-10 -4.588191E-10
       143  19  4.517634E+05  3.438481E+04  4.454764E+04 -2.501347E+03  6.520493E+03  4.687459E+03
       143  20  4.589871E+05  3.478074E+04  5.340677E+04 -4.338301E+03  1.695987E+04  5.062935E+03
       143  21  4.765287E+05  7.086428E+04  7.798877E+04 -1.530082E+04  2.740165E+04  1.699739E+03
       143  22  3.070207E+05 -1.481986E+03  9.913999E+03 -6.342151E+03  7.648979E+03  4.687964E+03
       143  23  3.020217E+05 -4.108784E+03  1.584164E+04 -1.788031E+03  1.620114E+04  5.062700E+03
       143  24  3.070155E+05  2.862924E+04  3.618478E+04 -6.359435E+03  2.475547E+04  1.698560E+03
       143  25  1.622972E+05 -3.735024E+04 -2.472111E+04 -1.018206E+04  8.777204E+03  4.688454E+03
       143  26  1.450788E+05 -4.300007E+04 -2.172523E+04  7.615879E+02  1.544261E+04  5.062457E+03
       143  27  1.375286E+05 -1.360765E+04 -5.621258E+03  2.579502E+03  2.211001E+04  1.697305E+03
       144   1  2.668102E+06  1.083694E+07  2.667791E+06 -1.334089E+06  9.397517E+04  2.015678E+05
       144   2  1.954118E+06  8.360080E+06  1.960043E+06 -4.337898E+05  2.583264E+05  4.523162E+04
       144   3  1.418051E+06  5.993160E+06  1.405036E+06 -1.320974E+06  1.728452E+05 -1.123964E+05
       144   4  7.914467E+04  3.878334E+05  1.040841E+05 -1.273459E+06  9.472946E+04  5.381041E+04
       144   5 -2.165362E+04  3.500256E+05  5.274157E+04 -3.790269E+05  2.587108E+05  2.569607E+04
       144   6  3.448917E+04  3.950305E+05  6.694942E+04 -1.273506E+06  1.714403E+05 -4.330308E+03
       144   7 -2.517861E+06 -9.962974E+06 -2.467555E+06 -1.213636E+06  9.546392E+04 -9.150262E+04
       144   8 -2.002034E+06 -7.601696E+06 -1.859055E+06 -3.248278E+05  2.590951E+05  6.407372E+03
       144   9 -1.351327E+06 -5.174538E+06 -1.273303E+06 -1.226339E+06  1.700448E+05  1.027727E+05
       144  10  2.668082E+06  1.083689E+07  2.667699E+06 -1.334104E+06  7.033995E-11  5.778799E-09
       144  11  1.954045E+06  8.360060E+06  1.959913E+06 -4.337992E+05 -4.983067E-09  3.101118E-09
       144  12  1.418015E+06  5.993139E+06  1.404957E+06 -1.320958E+06  2.707359E-09 -2.690071E-09
       144  13  7.913424E+04  3.878278E+05  1.040618E+05 -1.273463E+06  1.241020E-09 -4.541085E-11
       144  14 -2.172568E+04  3.500069E+05  5.261451E+04 -3.790323E+05 -5.680608E-09  8.601656E-09
       144  15  3.445760E+04  3.950226E+05  6.689416E+04 -1.273506E+06 -4.043023E-10 -1.529191E-09
       144  16 -2.517873E+06 -9.962986E+06 -2.467588E+06 -1.213629E+06  6.395796E-10 -8.086343E-09
       144  17 -2.002106E+06 -7.601714E+06 -1.859181E+06 -3.248292E+05  5.580769E-09  6.910320E-09
       144  18 -1.351361E+06 -5.174557E+06 -1.273378E+06 -1.226353E+06 -4.916328E-09  3.214732E-09
       144  19  2.668102E+06  1.083694E+07  2.667791E+06 -1.334089E+06 -9.397517E+04 -2.015678E+05
       144  20  1.954118E+06  8.360080E+06  1.960043E+06 -4.337898E+05 -2.583264E+05 -4.523162E+04
       144  21  1.418051E+06  5.993160E+06  1.405036E+06 -1.320974E+06 -1.728452E+05  1.123964E+05
       144  22  7.914467E+04  3.878334E+05  1.040841E+05 -1.273459E+06 -9.472946E+04 -5.381041E+04
       144  23 -2.165362E+04  3.500256E+05  5.274157E+04 -3.790269E+05 -2.587108E+05 -2.569607E+04
       144  24  3.448917E+04  3.950305E+05  6.694942E+04 -1.273506E+06 -1.714403E+05  4.330308E+03
       144  25 -2.517861E+06 -9.962974E+06 -2.467555E+06 -1.213636E+06 -9.546392E+04  9.150262E+04
       144  26 -2.002034E+06 -7.601696E+06 -1.859055E+06 -3.248278E+05 -2.590951E+05 -6.407372E+03
       144  27 -1.351327E+06 -5.174538E+06 -1.273303E+06 -1.226339E+06 -1.700448E+05 -1.027727E+05
       145   1  6.186612E+05  2.731710E+06  6.304512E+05 -1.307121E+06  7.691712E+04 -5.770855E+04
       145   2 -8.905614E+03  3.429971E+05  7.962008E+04 -3.751081E+05  2.967041E+01 -1.048750E+05
       145   3 -5.206993E+05 -2.064459E+06 -4.251281E+05 -1.231402E+06 -7.656667E+04 -1.518544E+05
       145   4  3.567008E+04  3.784150E+05  6.804231E+04 -1.273480E+06  7.633314E+04 -1.845302E+04
       145   5  2.988131E+03  3.904561E+05  9.100194E+04 -3.790243E+05 -5.397419E+02 -6.583114E+04
       145   6  8.647069E+04  3.783727E+05  1.604577E+05 -1.272746E+06 -7.713414E+04 -1.131986E+05
       145   7 -5.477187E+05 -1.969815E+06 -4.947510E+05 -1.239942E+06  7.575218E+04  2.065495E+04
       145   8  1.488258E+04  4.379205E+05  1.023894E+05 -3.829409E+05 -1.109624E+03 -2.678431E+04
       145   9  6.932114E+05  2.826686E+06  7.456268E+05 -1.314227E+06 -7.770556E+04 -7.439015E+04
       145  10  6.186540E+05  2.731704E+06  6.304339E+05 -1.307118E+06 -6.291481E-11 -3.655246E-09
       145  11 -8.908564E+03  3.429853E+05  7.959942E+04 -3.751081E+05  5.225758E-09  1.467613E-09
       145  12 -5.207119E+05 -2.064486E+06 -4.251827E+05 -1.231411E+06 -1.038880E-09  2.368724E-09
       145  13  3.566374E+04  3.784131E+05  6.803074E+04 -1.273478E+06 -3.602902E-09  1.017888E-11
       145  14  2.986968E+03  3.904515E+05  9.099380E+04 -3.790244E+05  7.514776E-09  1.494418E-08
       145  15  8.646084E+04  3.783574E+05  1.604223E+05 -1.272753E+06  1.546573E-08 -1.797061E-09
       145  16 -5.477250E+05 -1.969817E+06 -4.947627E+05 -1.239943E+06 -6.244115E-09 -1.048138E-08
       145  17  1.488239E+04  4.379197E+05  1.023880E+05 -3.829410E+05 -9.946277E-09  1.344212E-08
       145  18  6.932034E+05  2.826678E+06  7.456050E+05 -1.314232E+06  1.330251E-09 -7.639150E-10
       145  19  6.186612E+05  2.731710E+06  6.304512E+05 -1.307121E+06 -7.691712E+04  5.770855E+04
       145  20 -8.905614E+03  3.429971E+05  7.962008E+04 -3.751081E+05 -2.967041E+01  1.048750E+05
       145  21 -5.206993E+05 -2.064459E+06 -4.251281E+05 -1.231402E+06  7.656667E+04  1.518544E+05
       145  22  3.567008E+04  3.784150E+05  6.804231E+04 -1.273480E+06 -7.633314E+04  1.845302E+04
       145  23  2.988131E+03  3.904561E+05  9.100194E+04 -3.790243E+05  5.397419E+02  6.583114E+04
       145  24  8.647069E+04  3.783727E+05  1.604577E+05 -1.272746E+06  7.713414E+04  1.131986E+05
       145  25 -5.477187E+05 -1.969815E+06 -4.947510E+05 -1.239942E+06 -7.575218E+04 -2.065495E+04
       145  26  1.488258E+04  4.379205E+05  1.023894E+05 -3.829409E+05  1.109624E+03  2.678431E+04
       145  27  6.932114E+05  2.826686E+06  7.456268E+05 -1.314227E+06  7.770556E+04  7.439015E+04
       146   1 -1.401941E+06 -5.233436E+06 -1.164148E+06 -1.286755E+06 -1.709167E+05 -2.530785E+05
       146   2 -2.092606E+06 -7.740589E+06 -1.638579E+06 -2.830088E+05 -2.596314E+05 -2.863951E+05
       146   3 -2.078521E+06 -1.001845E+07 -1.906893E+06 -1.069600E+06 -9.477953E+04 -3.176763E+05
       146   4  5.380536E+03  4.306102E+05  1.983487E+05 -1.274365E+06 -1.723224E+05 -1.462978E+05
       146   5 -8.771639E+04  3.050396E+05  2.960403E+05 -3.788325E+05 -2.592046E+05 -3.080222E+05
       146   6  5.421365E+05  4.233054E+05  6.870822E+05 -1.271847E+06 -9.396320E+04 -4.678750E+05
       146   7  1.410376E+06  6.124206E+06  1.558609E+06 -1.261729E+06 -1.737167E+05 -3.853544E+04
       146   8  1.912468E+06  8.410407E+06  2.226059E+06 -4.757748E+05 -2.587750E+05 -3.299104E+05
       146   9  3.154729E+06  1.096521E+07  3.273005E+06 -1.477342E+06 -9.305817E+04 -6.205749E+05
       146  10 -1.401990E+06 -5.233513E+06 -1.164325E+06 -1.286790E+06  3.959728E-09 -4.265773E-09
       146  11 -2.092701E+06 -7.740696E+06 -1.638862E+06 -2.830690E+05  2.161475E-09  2.803643E-09
       146  12 -2.078558E+06 -1.001856E+07 -1.907103E+06 -1.069625E+06 -3.563428E-10  2.431825E-09
       146  13  5.342827E+03  4.305792E+05  1.982524E+05 -1.274385E+06 -3.620993E-09  2.055211E-11
       146  14 -8.781406E+04  3.049197E+05  2.957356E+05 -3.788968E+05  2.370819E-09  8.254822E-09
       146  15  5.420681E+05  4.230680E+05  6.866541E+05 -1.271883E+06 -1.744650E-09 -1.830729E-10
       146  16  1.410343E+06  6.124196E+06  1.558549E+06 -1.261734E+06  9.150307E-09 -8.499122E-09
       146  17  1.912367E+06  8.410273E+06  2.225731E+06 -4.758432E+05 -9.022177E-10  4.970351E-09
       146  18  3.154619E+06  1.096480E+07  3.272276E+06 -1.477388E+06 -2.913958E-09 -2.173945E-09
       146  19 -1.401941E+06 -5.233436E+06 -1.164148E+06 -1.286755E+06  1.709167E+05  2.530785E+05
       146  20 -2.092606E+06 -7.740589E+06 -1.638579E+06 -2.830088E+05  2.596314E+05  2.863951E+05
       146  21 -2.078521E+06 -1.001845E+07 -1.906893E+06 -1.069600E+06  9.477953E+04  3.176763E+05
       146  22  5.380536E+03  4.306102E+05  1.983487E+05 -1.274365E+06  1.723224E+05  1.462978E+05
       146  23 -8.771639E+04  3.050396E+05  2.960403E+05 -3.788325E+05  2.592046E+05  3.080222E+05
       146  24  5.421365E+05  4.233054E+05  6.870822E+05 -1.271847E+06  9.396320E+04  4.678750E+05
       146  25  1.410376E+06  6.124206E+06  1.558609E+06 -1.261729E+06  1.737167E+05  3.853544E+04
       146  26  1.912468E+06  8.410407E+06  2.226059E+06 -4.757748E+05  2.587750E+05  3.299104E+05
       146  27  3.154729E+06  1.096521E+07  3.273005E+06 -1.477342E+06  9.305817E+04  6.205749E+05
       147   1 -5.470904E+05 -2.431348E+05 -1.233091E+05 -2.369155E+05 -6.025519E+04 -1.832661E+04
       147   2 -5.162460E+05 -1.851647E+05 -7.306595E+04 -2.234801E+05 -3.686576E+04  3.274692E+02
       147   3 -4.933811E+05 -1.548296E+05 -4.895130E+04 -2.098610E+05 -1.098913E+04  1.236584E+04
       147   4 -2.858296E+05 -1.165989E+05 -5.137954E+04 -1.358257E+05 -3.501055E+04 -8.852832E+03
       147   5 -2.805083E+05 -8.492102E+04 -2.453766E+04 -1.431389E+05 -2.558352E+04  4.561050E+03
       147   6 -2.803955E+05 -7.810676E+04 -1.275192E+04 -1.502704E+05 -1.367134E+04  1.135853E+04
       147   7 -2.450383E+04  9.953956E+03  2.054506E+04 -3.469461E+04 -9.754886E+03  6.280406E+02
       147   8 -4.471338E+04  1.533291E+04  2.398799E+04 -6.276786E+04 -1.429678E+04  8.796982E+03
       147   9 -6.735978E+04 -1.378744E+03  2.344673E+04 -9.066027E+04 -1.635454E+04  1.035085E+04
       147  10 -5.470944E+05 -2.431362E+05 -1.233166E+05 -2.369164E+05  1.091773E-09 -1.067542E-09
       147  11 -5.162475E+05 -1.851650E+05 -7.306850E+04 -2.234801E+05 -2.932597E-08 -1.281471E-08
       147  12 -4.933813E+05 -1.548298E+05 -4.895181E+04 -2.098608E+05 -6.283303E-08 -2.135747E-08
       147  13 -2.858309E+05 -1.165993E+05 -5.138200E+04 -1.358260E+05  1.501991E-09 -1.336480E-09
       147  14 -2.805090E+05 -8.492122E+04 -2.453893E+04 -1.431388E+05 -5.339365E-09 -9.293648E-09
       147  15 -2.803957E+05 -7.810695E+04 -1.275252E+04 -1.502703E+05 -1.506227E-08 -1.910866E-08
       147  16 -2.450393E+04  9.953930E+03  2.054488E+04 -3.469461E+04 -1.593579E-09  2.083590E-09
       147  17 -4.471362E+04  1.533277E+04  2.398747E+04 -6.276776E+04  1.626983E-08  1.364720E-08
       147  18 -6.736010E+04 -1.378931E+03  2.344603E+04 -9.066014E+04  3.569066E-08  1.906743E-08
       147  19 -5.470904E+05 -2.431348E+05 -1.233091E+05 -2.369155E+05  6.025519E+04  1.832661E+04
       147  20 -5.162460E+05 -1.851647E+05 -7.306595E+04 -2.234801E+05  3.686576E+04 -3.274692E+02
       147  21 -4.933811E+05 -1.548296E+05 -4.895130E+04 -2.098610E+05  1.098913E+04 -1.236584E+04
       147  22 -2.858296E+05 -1.165989E+05 -5.137954E+04 -1.358257E+05  3.501055E+04  8.852832E+03
       147  23 -2.805083E+05 -8.492102E+04 -2.453766E+04 -1.431389E+05  2.558352E+04 -4.561050E+03
       147  24 -2.803955E+05 -7.810676E+04 -1.275192E+04 -1.502704E+05  1.367134E+04 -1.135853E+04
       147  25 -2.450383E+04  9.953956E+03  2.054506E+04 -3.469461E+04  9.754886E+03 -6.280406E+02
       147  26 -4.471338E+04  1.533291E+04  2.398799E+04 -6.276786E+04  1.429678E+04 -8.796982E+03
       147  27 -6.735978E+04 -1.378744E+03  2.344673E+04 -9.066027E+04  1.635454E+04 -1.035085E+04
       148   1 -4.688124E+05 -1.471015E+05 -4.112389E+04 -2.049911E+05 -9.364153E+03  1.187565E+04
       148   2 -4.366400E+05 -1.293644E+05 -2.951279E+04 -1.927861E+05 -4.733284E+03  1.183511E+04
       148   3 -4.011816E+05 -1.180988E+05 -2.142516E+04 -1.854377E+05  1.753831E+02  1.105446E+04
       148   4 -2.789024E+05 -7.725393E+04 -9.465777E+03 -1.501487E+05 -1.187497E+04  1.093280E+04
       148   5 -2.805021E+05 -7.278122E+04 -4.919186E+03 -1.482417E+05 -8.805827E+03  1.030640E+04
       148   6 -2.785068E+05 -7.447027E+04 -2.657540E+03 -1.511918E+05 -5.459114E+03  8.939891E+03
       148   7 -8.895620E+04 -7.403144E+03  2.219084E+04 -9.529112E+04 -1.438657E+04  9.989643E+03
       148   8 -1.243379E+05 -1.619532E+04  1.967406E+04 -1.036867E+05 -1.287945E+04  8.777271E+03
       148   9 -1.558142E+05 -3.083960E+04  1.611042E+04 -1.169391E+05 -1.109486E+04  6.824860E+03
       148  10 -4.688125E+05 -1.471017E+05 -4.112432E+04 -2.049910E+05  4.671246E-08  2.378747E-08
       148  11 -4.366400E+05 -1.293645E+05 -2.951309E+04 -1.927860E+05  5.936155E-08  2.978372E-08
       148  12 -4.011816E+05 -1.180989E+05 -2.142539E+04 -1.854377E+05  7.181815E-08  2.807529E-08
       148  13 -2.789026E+05 -7.725410E+04 -9.466267E+03 -1.501486E+05 -1.308685E-08 -1.636133E-08
       148  14 -2.805022E+05 -7.278135E+04 -4.919531E+03 -1.482416E+05 -9.885378E-10  9.632362E-10
       148  15 -2.785069E+05 -7.447037E+04 -2.657746E+03 -1.511918E+05  8.887311E-09  1.898887E-08
       148  16 -8.895644E+04 -7.403307E+03  2.219026E+04 -9.529100E+04 -7.397737E-08 -2.683283E-08
       148  17 -1.243381E+05 -1.619544E+04  1.967361E+04 -1.036866E+05 -6.419393E-08 -2.800951E-08
       148  18 -1.558143E+05 -3.083969E+04  1.611010E+04 -1.169391E+05 -4.250513E-08 -2.056853E-08
       148  19 -4.688124E+05 -1.471015E+05 -4.112389E+04 -2.049911E+05  9.364153E+03 -1.187565E+04
       148  20 -4.366400E+05 -1.293644E+05 -2.951279E+04 -1.927861E+05  4.733284E+03 -1.183511E+04
       148  21 -4.011816E+05 -1.180988E+05 -2.142516E+04 -1.854377E+05 -1.753831E+02 -1.105446E+04
       148  22 -2.789024E+05 -7.725393E+04 -9.465777E+03 -1.501487E+05  1.187497E+04 -1.093280E+04
       148  23 -2.805021E+05 -7.278122E+04 -4.919186E+03 -1.482417E+05  8.805827E+03 -1.030640E+04
       148  24 -2.785068E+05 -7.447027E+04 -2.657540E+03 -1.511918E+05  5.459114E+03 -8.939891E+03
       148  25 -8.895620E+04 -7.403144E+03  2.219084E+04 -9.529112E+04  1.438657E+04 -9.989643E+03
       148  26 -1.243379E+05 -1.619532E+04  1.967406E+04 -1.036867E+05  1.287945E+04 -8.777271E+03
       148  27 -1.558142E+05 -3.083960E+04  1.611042E+04 -1.169391E+05  1.109486E+04 -6.824860E+03
       149   1 -3.793900E+05 -1.104554E+05 -1.728022E+04 -1.795153E+05  1.105661E+03  9.602715E+03
       149   2 -3.473373E+05 -9.578474E+04 -1.113066E+04 -1.672995E+05  2.831922E+03  7.168683E+03
       149   3 -3.108717E+05 -8.583305E+04 -5.550678E+03 -1.602956E+05  4.589108E+03  4.651871E+03
       149   4 -2.783561E+05 -7.442560E+04 -1.985936E+03 -1.511636E+05 -4.510321E+03  7.495232E+03
       149   5 -2.805677E+05 -7.200756E+04 -1.075460E+03 -1.485855E+05 -2.958828E+03  4.995774E+03
       149   6 -2.783330E+05 -7.427392E+04 -5.960956E+02 -1.512197E+05 -1.376458E+03  2.413532E+03
       149   7 -1.773111E+05 -3.839468E+04  1.330834E+04 -1.228076E+05 -1.012727E+04  5.387388E+03
       149   8 -2.137936E+05 -4.823006E+04  8.979702E+03 -1.298698E+05 -8.750198E+03  2.822633E+03
       149   9 -2.457935E+05 -6.271481E+04  4.358510E+03 -1.421435E+05 -7.342280E+03  1.750976E+02
       149  10 -3.793900E+05 -1.104555E+05 -1.728040E+04 -1.795153E+05 -3.307161E-08 -1.567087E-08
       149  11 -3.473373E+05 -9.578479E+04 -1.113077E+04 -1.672995E+05 -2.616640E-08 -1.357181E-08
       149  12 -3.108717E+05 -8.583308E+04 -5.550758E+03 -1.602956E+05 -6.332542E-09 -2.645193E-09
       149  13 -2.783561E+05 -7.442566E+04 -1.986080E+03 -1.511636E+05  8.845132E-09  2.030233E-08
       149  14 -2.805677E+05 -7.200759E+04 -1.075523E+03 -1.485855E+05 -1.726655E-09  9.821369E-09
       149  15 -2.783330E+05 -7.427393E+04 -5.961101E+02 -1.512197E+05 -1.498819E-09  2.227047E-09
       149  16 -1.773113E+05 -3.839474E+04  1.330809E+04 -1.228075E+05  6.291578E-08  2.145371E-08
       149  17 -2.137937E+05 -4.823009E+04  8.979543E+03 -1.298698E+05  2.999648E-08  1.264041E-08
       149  18 -2.457936E+05 -6.271482E+04  4.358408E+03 -1.421435E+05  6.438556E-09  2.499719E-09
       149  19 -3.793900E+05 -1.104554E+05 -1.728022E+04 -1.795153E+05 -1.105661E+03 -9.602715E+03
       149  20 -3.473373E+05 -9.578474E+04 -1.113066E+04 -1.672995E+05 -2.831922E+03 -7.168683E+03
       149  21 -3.108717E+05 -8.583305E+04 -5.550678E+03 -1.602956E+05 -4.589108E+03 -4.651871E+03
       149  22 -2.783561E+05 -7.442560E+04 -1.985936E+03 -1.511636E+05  4.510321E+03 -7.495232E+03
       149  23 -2.805677E+05 -7.200756E+04 -1.075460E+03 -1.485855E+05  2.958828E+03 -4.995774E+03
       149  24 -2.783330E+05 -7.427392E+04 -5.960956E+02 -1.512197E+05  1.376458E+03 -2.413532E+03
       149  25 -1.773111E+05 -3.839468E+04  1.330834E+04 -1.228076E+05  1.012727E+04 -5.387388E+03
       149  26 -2.137936E+05 -4.823006E+04  8.979702E+03 -1.298698E+05  8.750198E+03 -2.822633E+03
       149  27 -2.457935E+05 -6.271481E+04  4.358510E+03 -1.421435E+05  7.342280E+03 -1.750976E+02
       150   1 -2.893519E+05 -7.816601E+04 -2.050821E+03 -1.542794E+05  5.290885E+03  3.035996E+03
       150   2 -2.573530E+05 -6.369116E+04  3.174372E+03 -1.420408E+05  6.499359E+03  2.630539E+02
       150   3 -2.208110E+05 -5.379100E+04  8.288109E+03 -1.350293E+05  7.710724E+03 -2.517495E+03
       150   4 -2.783150E+05 -7.427568E+04 -4.516490E+02 -1.512132E+05 -6.727216E+02  7.984211E+02
       150   5 -2.805876E+05 -7.199234E+04 -2.627888E+02 -1.485983E+05  5.194573E+02 -1.980702E+03
       150   6 -2.783161E+05 -7.428101E+04 -1.728611E+02 -1.512113E+05  1.714516E+03 -4.767430E+03
       150   7 -2.672776E+05 -7.038525E+04  1.147714E+03 -1.481468E+05 -6.636515E+03 -1.439223E+03
       150   8 -3.038218E+05 -8.029349E+04 -3.699845E+03 -1.551556E+05 -5.460247E+03 -4.224384E+03
       150   9 -3.358176E+05 -9.477063E+04 -8.633717E+03 -1.673920E+05 -4.281110E+03 -7.017146E+03
       150  10 -2.893520E+05 -7.816603E+04 -2.050891E+03 -1.542794E+05 -8.731543E-09 -1.012239E-09
       150  11 -2.573531E+05 -6.369117E+04  3.174293E+03 -1.420408E+05  3.908468E-09  2.446475E-09
       150  12 -2.208111E+05 -5.379103E+04  8.287986E+03 -1.350292E+05  6.163775E-09 -1.970278E-10
       150  13 -2.783150E+05 -7.427568E+04 -4.516511E+02 -1.512132E+05  4.528539E-10  2.321338E-09
       150  14 -2.805876E+05 -7.199235E+04 -2.627966E+02 -1.485983E+05  6.472864E-09  4.179505E-09
       150  15 -2.783161E+05 -7.428103E+04 -1.729094E+02 -1.512113E+05  3.491415E-10  2.015053E-09
       150  16 -2.672777E+05 -7.038527E+04  1.147627E+03 -1.481468E+05  1.397515E-08  5.424207E-09
       150  17 -3.038218E+05 -8.029352E+04 -3.699934E+03 -1.551556E+05  9.672133E-09  6.105080E-09
       150  18 -3.358176E+05 -9.477069E+04 -8.633844E+03 -1.673920E+05 -1.866471E-09  3.882588E-09
       150  19 -2.893519E+05 -7.816601E+04 -2.050821E+03 -1.542794E+05 -5.290885E+03 -3.035996E+03
       150  20 -2.573530E+05 -6.369116E+04  3.174372E+03 -1.420408E+05 -6.499359E+03 -2.630539E+02
       150  21 -2.208110E+05 -5.379100E+04  8.288109E+03 -1.350293E+05 -7.710724E+03  2.517495E+03
       150  22 -2.783150E+05 -7.427568E+04 -4.516490E+02 -1.512132E+05  6.727216E+02 -7.984211E+02
       150  23 -2.805876E+05 -7.199234E+04 -2.627888E+02 -1.485983E+05 -5.194573E+02  1.980702E+03
       150  24 -2.783161E+05 -7.428101E+04 -1.728611E+02 -1.512113E+05 -1.714516E+03  4.767430E+03
       150  25 -2.672776E+05 -7.038525E+04  1.147714E+03 -1.481468E+05  6.636515E+03  1.439223E+03
       150  26 -3.038218E+05 -8.029349E+04 -3.699845E+03 -1.551556E+05  5.460247E+03  4.224384E+03
       150  27 -3.358176E+05 -9.477063E+04 -8.633717E+03 -1.673920E+05  4.281110E+03  7.017146E+03
       151   1 -1.993264E+05 -4.611584E+04  1.165147E+04 -1.290047E+05  8.358228E+03 -4.160759E+03
       151   2 -1.673458E+05 -3.164572E+04  1.667807E+04 -1.167627E+05  9.469993E+03 -6.975381E+03
       151   3 -1.308064E+05 -2.173637E+04  2.166939E+04 -1.097448E+05  1.057708E+04 -9.777012E+03
       151   4 -2.783157E+05 -7.428267E+04 -1.530931E+02 -1.512099E+05  2.362163E+03 -6.410726E+03
       151   5 -2.805935E+05 -7.200406E+04 -1.520639E+02 -1.485964E+05  3.501104E+03 -9.215400E+03
       151   6 -2.783190E+05 -7.429161E+04 -2.078231E+02 -1.512074E+05  4.635370E+03 -1.200710E+04
       151   7 -3.572972E+05 -1.024484E+05 -1.195731E+04 -1.734122E+05 -3.633026E+03 -8.660364E+03
       151   8 -3.938272E+05 -1.123610E+05 -1.698218E+04 -1.804247E+05 -2.466637E+03 -1.145499E+04
       151   9 -4.258098E+05 -1.268452E+05 -2.208562E+04 -1.926613E+05 -1.304921E+03 -1.423666E+04
       151  10 -1.993265E+05 -4.611588E+04  1.165131E+04 -1.290047E+05 -7.178824E-08 -3.064678E-08
       151  11 -1.673459E+05 -3.164580E+04  1.667781E+04 -1.167626E+05 -1.919360E-08 -9.844454E-09
       151  12 -1.308065E+05 -2.173650E+04  2.166900E+04 -1.097447E+05  3.915610E-08  1.799769E-08
       151  13 -2.783157E+05 -7.428272E+04 -1.531808E+02 -1.512099E+05 -2.911135E-09 -2.802933E-09
       151  14 -2.805936E+05 -7.200415E+04 -1.522465E+02 -1.485964E+05 -7.840028E-09 -1.114442E-08
       151  15 -2.783191E+05 -7.429177E+04 -2.081344E+02 -1.512074E+05 -5.716323E-09 -1.718233E-08
       151  16 -3.572972E+05 -1.024485E+05 -1.195747E+04 -1.734122E+05  6.676127E-08  2.940131E-08
       151  17 -3.938273E+05 -1.123611E+05 -1.698244E+04 -1.804247E+05  8.108875E-09  5.821060E-09
       151  18 -4.258098E+05 -1.268454E+05 -2.208600E+04 -1.926613E+05 -5.137650E-08 -1.690366E-08
       151  19 -1.993264E+05 -4.611584E+04  1.165147E+04 -1.290047E+05 -8.358228E+03  4.160759E+03
       151  20 -1.673458E+05 -3.164572E+04  1.667807E+04 -1.167627E+05 -9.469993E+03  6.975381E+03
       151  21 -1.308064E+05 -2.173637E+04  2.166939E+04 -1.097448E+05 -1.057708E+04  9.777012E+03
       151  22 -2.783157E+05 -7.428267E+04 -1.530931E+02 -1.512099E+05 -2.362163E+03  6.410726E+03
       151  23 -2.805935E+05 -7.200406E+04 -1.520639E+02 -1.485964E+05 -3.501104E+03  9.215400E+03
       151  24 -2.783190E+05 -7.429161E+04 -2.078231E+02 -1.512074E+05 -4.635370E+03  1.200710E+04
       151  25 -3.572972E+05 -1.024484E+05 -1.195731E+04 -1.734122E+05  3.633026E+03  8.660364E+03
       151  26 -3.938272E+05 -1.123610E+05 -1.698218E+04 -1.804247E+05  2.466637E+03  1.145499E+04
       151  27 -4.258098E+05 -1.268452E+05 -2.208562E+04 -1.926613E+05  1.304921E+03  1.423666E+04
       152   1 -1.093291E+05 -1.405861E+04  2.497793E+04 -1.037242E+05  1.123422E+04 -1.140397E+04
       152   2 -7.737832E+04  4.212684E+02  2.993212E+04 -9.147955E+04  1.223334E+04 -1.417027E+04
       152   3 -4.086564E+04  1.034707E+04  3.491238E+04 -8.444327E+04  1.318704E+04 -1.681467E+04
       152   4 -2.783290E+05 -7.429210E+04 -2.598696E+02 -1.512078E+05  5.290204E+03 -1.363514E+04
       152   5 -2.805921E+05 -7.202598E+04 -4.453111E+02 -1.485909E+05  6.546497E+03 -1.630537E+04
       152   6 -2.783452E+05 -7.436514E+04 -8.084861E+02 -1.511830E+05  7.757365E+03 -1.885367E+04
       152   7 -4.472978E+05 -1.345225E+05 -2.549782E+04 -1.986792E+05 -6.521043E+02 -1.586568E+04
       152   8 -4.837596E+05 -1.444683E+05 -3.082271E+04 -2.056842E+05  8.616540E+02 -1.843973E+04
       152   9 -5.157606E+05 -1.590701E+05 -3.652907E+04 -2.178979E+05  2.329945E+03 -2.089183E+04
       152  10 -1.093293E+05 -1.405878E+04  2.497744E+04 -1.037241E+05  3.635122E-09  8.292961E-09
       152  11 -7.737853E+04  4.210127E+02  2.993146E+04 -9.147941E+04  4.613277E-09  9.671982E-09
       152  12 -4.086590E+04  1.034672E+04  3.491152E+04 -8.444309E+04  9.423288E-09  9.018794E-09
       152  13 -2.783291E+05 -7.429231E+04 -2.602715E+02 -1.512078E+05 -2.741527E-09 -1.624657E-08
       152  14 -2.805922E+05 -7.202628E+04 -4.458911E+02 -1.485908E+05  1.151602E-09 -8.644284E-09
       152  15 -2.783454E+05 -7.436554E+04 -8.092671E+02 -1.511829E+05  9.599891E-09  9.437518E-10
       152  16 -4.472978E+05 -1.345227E+05 -2.549829E+04 -1.986792E+05 -1.749530E-08 -5.932540E-09
       152  17 -4.837597E+05 -1.444686E+05 -3.082335E+04 -2.056842E+05 -1.042060E-08 -7.564470E-09
       152  18 -5.157607E+05 -1.590706E+05 -3.652990E+04 -2.178978E+05  2.742023E-09 -1.967860E-09
       152  19 -1.093291E+05 -1.405861E+04  2.497793E+04 -1.037242E+05 -1.123422E+04  1.140397E+04
       152  20 -7.737832E+04  4.212684E+02  2.993212E+04 -9.147955E+04 -1.223334E+04  1.417027E+04
       152  21 -4.086564E+04  1.034707E+04  3.491238E+04 -8.444327E+04 -1.318704E+04  1.681467E+04
       152  22 -2.783290E+05 -7.429210E+04 -2.598696E+02 -1.512078E+05 -5.290204E+03  1.363514E+04
       152  23 -2.805921E+05 -7.202598E+04 -4.453111E+02 -1.485909E+05 -6.546497E+03  1.630537E+04
       152  24 -2.783452E+05 -7.436514E+04 -8.084861E+02 -1.511830E+05 -7.757365E+03  1.885367E+04
       152  25 -4.472978E+05 -1.345225E+05 -2.549782E+04 -1.986792E+05  6.521043E+02  1.586568E+04
       152  26 -4.837596E+05 -1.444683E+05 -3.082271E+04 -2.056842E+05 -8.616540E+02  1.843973E+04
       152  27 -5.157606E+05 -1.590701E+05 -3.652907E+04 -2.178979E+05 -2.329945E+03  2.089183E+04
       153   1 -1.935736E+04  1.802254E+04  3.817612E+04 -7.846130E+04  1.393737E+04 -1.829065E+04
       153   2  1.226831E+04  3.263303E+04  4.346547E+04 -6.593665E+04  1.341609E+04 -2.081425E+04
       153   3  4.847533E+04  4.254479E+04  4.964956E+04 -5.842233E+04  1.248742E+04 -2.225230E+04
       153   4 -2.784154E+05 -7.437542E+04 -1.077562E+03 -1.511812E+05  8.480911E+03 -2.034001E+04
       153   5 -2.805622E+05 -7.236674E+04 -1.989955E+03 -1.484640E+05  1.025233E+04 -2.200343E+04
       153   6 -2.785837E+05 -7.551185E+04 -3.824606E+03 -1.507581E+05  1.161637E+04 -2.258092E+04
       153   7 -5.374040E+05 -1.667675E+05 -4.033292E+04 -2.238734E+05  3.026791E+03 -2.238850E+04
       153   8 -5.733021E+05 -1.773581E+05 -4.744724E+04 -2.309551E+05  7.090136E+03 -2.319201E+04
       153   9 -6.055283E+05 -1.935573E+05 -5.730119E+04 -2.430482E+05  1.074581E+04 -2.290936E+04
       153  10 -1.935766E+04  1.802213E+04  3.817513E+04 -7.846110E+04  1.187531E-08  7.097246E-09
       153  11  1.226800E+04  3.263251E+04  4.346431E+04 -6.593642E+04  8.404143E-09  2.409409E-09
       153  12  4.847503E+04  4.254421E+04  4.964834E+04 -5.842210E+04  3.563580E-09 -1.578912E-10
       153  13 -2.784156E+05 -7.437588E+04 -1.078474E+03 -1.511811E+05  1.335087E-08  4.011391E-09
       153  14 -2.805624E+05 -7.236729E+04 -1.991063E+03 -1.484638E+05  1.149629E-09  2.400492E-09
       153  15 -2.785840E+05 -7.551243E+04 -3.825818E+03 -1.507579E+05  6.164537E-10  2.921218E-10
       153  16 -5.374042E+05 -1.667680E+05 -4.033388E+04 -2.238733E+05  1.054752E-09  1.283529E-09
       153  17 -5.733023E+05 -1.773587E+05 -4.744834E+04 -2.309550E+05 -6.076769E-09  3.872518E-09
       153  18 -6.055286E+05 -1.935579E+05 -5.730239E+04 -2.430480E+05 -6.212731E-09 -1.260397E-10
       153  19 -1.935736E+04  1.802254E+04  3.817612E+04 -7.846130E+04 -1.393737E+04  1.829065E+04
       153  20  1.226831E+04  3.263303E+04  4.346547E+04 -6.593665E+04 -1.341609E+04  2.081425E+04
       153  21  4.847533E+04  4.254479E+04  4.964956E+04 -5.842233E+04 -1.248742E+04  2.225230E+04
       153  22 -2.784154E+05 -7.437542E+04 -1.077562E+03 -1.511812E+05 -8.480911E+03  2.034001E+04
       153  23 -2.805622E+05 -7.236674E+04 -1.989955E+03 -1.484640E+05 -1.025233E+04  2.200343E+04
       153  24 -2.785837E+05 -7.551185E+04 -3.824606E+03 -1.507581E+05 -1.161637E+04  2.258092E+04
       153  25 -5.374040E+05 -1.667675E+05 -4.033292E+04 -2.238734E+05 -3.026791E+03  2.238850E+04
       153  26 -5.733021E+05 -1.773581E+05 -4.744724E+04 -2.309551E+05 -7.090136E+03  2.319201E+04
       153  27 -6.055283E+05 -1.935573E+05 -5.730119E+04 -2.430482E+05 -1.074581E+04  2.290936E+04
       154   1  7.037086E+04  5.000860E+04  5.342243E+04 -5.281176E+04  1.355757E+04 -2.257971E+04
       154   2  9.762950E+04  6.610224E+04  6.440179E+04 -3.538442E+04 -3.437981E+03 -2.403215E+04
       154   3  1.291505E+05  7.393511E+04  8.554302E+04 -2.050337E+04 -2.408080E+04 -1.578390E+04
       154   4 -2.792713E+05 -7.577575E+04 -5.150954E+03 -1.507113E+05  1.243584E+04 -2.300262E+04
       154   5 -2.804747E+05 -7.738431E+04 -9.912403E+03 -1.465228E+05  1.593625E+04 -1.675639E+04
       154   6 -2.814785E+05 -9.131677E+04 -2.075337E+04 -1.448814E+05  1.578957E+04 -8.058162E+02
       154   7 -6.287824E+05 -2.015475E+05 -6.372720E+04 -2.485590E+05  1.131479E+04 -2.342529E+04
       154   8 -6.584224E+05 -2.208517E+05 -8.422956E+04 -2.575950E+05  3.529751E+04 -9.485964E+03
       154   9 -6.919249E+05 -2.565435E+05 -1.270532E+05 -2.691773E+05  5.562980E+04  1.415906E+04
       154  10  7.037052E+04  5.000800E+04  5.342113E+04 -5.281152E+04  1.327535E-09 -1.539702E-09
       154  11  9.762934E+04  6.610162E+04  6.440069E+04 -3.538448E+04  2.401892E-09 -1.889224E-09
       154  12  1.291499E+05  7.393468E+04  8.554146E+04 -2.050368E+04 -6.543492E-11 -1.103257E-09
       154  13 -2.792717E+05 -7.577636E+04 -5.152239E+03 -1.507111E+05  3.274505E-10 -1.448180E-09
       154  14 -2.804750E+05 -7.738468E+04 -9.913408E+03 -1.465226E+05 -3.989770E-10 -4.858056E-10
       154  15 -2.814788E+05 -9.131683E+04 -2.075384E+04 -1.448814E+05  9.239067E-11  7.434427E-10
       154  16 -6.287827E+05 -2.015482E+05 -6.372847E+04 -2.485587E+05 -1.120359E-11 -2.170897E-10
       154  17 -6.584237E+05 -2.208522E+05 -8.423207E+04 -2.575947E+05  4.952171E-10 -9.861157E-10
       154  18 -6.919283E+05 -2.565445E+05 -1.270594E+05 -2.691779E+05 -3.324428E-10  7.692337E-10
       154  19  7.037086E+04  5.000860E+04  5.342243E+04 -5.281176E+04 -1.355757E+04  2.257971E+04
       154  20  9.762950E+04  6.610224E+04  6.440179E+04 -3.538442E+04  3.437981E+03  2.403215E+04
       154  21  1.291505E+05  7.393511E+04  8.554302E+04 -2.050337E+04  2.408080E+04  1.578390E+04
       154  22 -2.792713E+05 -7.577575E+04 -5.150954E+03 -1.507113E+05 -1.243584E+04  2.300262E+04
       154  23 -2.804747E+05 -7.738431E+04 -9.912403E+03 -1.465228E+05 -1.593625E+04  1.675639E+04
       154  24 -2.814785E+05 -9.131677E+04 -2.075337E+04 -1.448814E+05 -1.578957E+04  8.058162E+02
       154  25 -6.287824E+05 -2.015475E+05 -6.372720E+04 -2.485590E+05 -1.131479E+04  2.342529E+04
       154  26 -6.584224E+05 -2.208517E+05 -8.422956E+04 -2.575950E+05 -3.529751E+04  9.485964E+03
       154  27 -6.919249E+05 -2.565435E+05 -1.270532E+05 -2.691773E+05 -5.562980E+04 -1.415906E+04
       155   1 -1.513228E+05 -2.452718E+04 -4.789397E+04 -1.980595E+04 -7.074277E+04 -2.532239E+03
       155   2 -1.509275E+05  7.025060E+04  8.150202E+03 -5.793037E+03 -4.768035E+04 -7.561671E+03
       155   3 -1.800299E+05  5.888223E+04  2.265589E+04  1.877781E+04 -2.462310E+04 -7.151582E+03
       155   4 -3.994510E+05 -8.637016E+04 -1.091211E+05  7.243525E+03 -7.463414E+04 -2.538135E+03
       155   5 -3.844500E+05  1.236344E+04 -4.777671E+04  1.930083E+03 -4.884046E+04 -7.563437E+03
       155   6 -3.994336E+05  4.453557E+03 -2.988004E+04  7.175053E+03 -2.305131E+04 -7.149749E+03
       155   7 -6.475217E+05 -1.482150E+05 -1.703523E+05  3.428217E+04 -7.852396E+04 -2.544373E+03
       155   8 -6.179223E+05 -4.552744E+04 -1.037074E+05  9.650274E+03 -5.000014E+04 -7.565231E+03
       155   9 -6.187928E+05 -4.997811E+04 -8.241930E+04 -4.423594E+03 -2.148007E+04 -7.147974E+03
       155  10 -1.513281E+05 -2.452853E+04 -4.790339E+04 -1.980610E+04  1.521100E-09 -2.587002E-11
       155  11 -1.509300E+05  7.024993E+04  8.145821E+03 -5.793327E+03 -4.958964E-10 -1.319082E-09
       155  12 -1.800306E+05  5.888201E+04  2.265466E+04  1.877767E+04 -6.368722E-10 -1.077504E-09
       155  13 -3.994570E+05 -8.637166E+04 -1.091316E+05  7.243372E+03  2.271954E-10  9.121180E-10
       155  14 -3.844525E+05  1.236274E+04 -4.778130E+04  1.929785E+03 -2.231166E-10  4.970790E-11
       155  15 -3.994341E+05  4.453360E+03 -2.988114E+04  7.174920E+03 -1.232768E-09  5.463628E-10
       155  16 -6.475283E+05 -1.482166E+05 -1.703639E+05  3.428200E+04 -1.140865E-10  9.215666E-10
       155  17 -6.179250E+05 -4.552818E+04 -1.037123E+05  9.649969E+03 -6.320436E-11 -6.726345E-10
       155  18 -6.187933E+05 -4.997829E+04 -8.242026E+04 -4.423718E+03  7.233242E-10 -1.927988E-09
       155  19 -1.513228E+05 -2.452718E+04 -4.789397E+04 -1.980595E+04  7.074277E+04  2.532239E+03
       155  20 -1.509275E+05  7.025060E+04  8.150202E+03 -5.793037E+03  4.768035E+04  7.561671E+03
       155  21 -1.800299E+05  5.888223E+04  2.265589E+04  1.877781E+04  2.462310E+04  7.151582E+03
       155  22 -3.994510E+05 -8.637016E+04 -1.091211E+05  7.243525E+03  7.463414E+04  2.538135E+03
       155  23 -3.844500E+05  1.236344E+04 -4.777671E+04  1.930083E+03  4.884046E+04  7.563437E+03
       155  24 -3.994336E+05  4.453557E+03 -2.988004E+04  7.175053E+03  2.305131E+04  7.149749E+03
       155  25 -6.475217E+05 -1.482150E+05 -1.703523E+05  3.428217E+04  7.852396E+04  2.544373E+03
       155  26 -6.179223E+05 -4.552744E+04 -1.037074E+05  9.650274E+03  5.000014E+04  7.565231E+03
       155  27 -6.187928E+05 -4.997811E+04 -8.241930E+04 -4.423594E+03  2.148007E+04  7.147974E+03
       156   1 -1.936791E+05  4.051829E+04  2.363471E+04  4.869765E+03 -1.840209E+04 -6.036986E+03
       156   2 -2.065062E+05  4.728488E+04  3.200686E+04  1.336267E+03 -1.225017E+04 -5.857079E+03
       156   3 -2.229371E+05  4.281334E+04  3.356527E+04  8.721745E+03 -6.098930E+03 -5.265842E+03
       156   4 -3.935811E+05 -9.071736E+03 -2.438129E+04  7.284704E+03 -1.841433E+04 -6.037203E+03
       156   5 -3.917589E+05  1.341822E+03 -1.240406E+04  1.819858E+03 -1.205700E+04 -5.856982E+03
       156   6 -3.935774E+05  4.796933E+02 -7.384805E+03  7.274210E+03 -5.700202E+03 -5.265414E+03
       156   7 -5.934464E+05 -5.866465E+04 -7.240013E+04  9.698851E+03 -1.842655E+04 -6.037420E+03
       156   8 -5.769802E+05 -4.460373E+04 -5.681742E+04  2.303294E+03 -1.186388E+04 -5.856885E+03
       156   9 -5.641910E+05 -4.185607E+04 -4.833695E+04  5.827066E+03 -5.301583E+03 -5.264988E+03
       156  10 -1.936795E+05  4.051816E+04  2.363401E+04  4.869676E+03 -1.821930E-09 -2.064217E-09
       156  11 -2.065064E+05  4.728481E+04  3.200651E+04  1.336210E+03 -5.070881E-09  3.882415E-10
       156  12 -2.229371E+05  4.281331E+04  3.356515E+04  8.721719E+03 -3.298419E-10  1.239183E-09
       156  13 -3.935815E+05 -9.071866E+03 -2.438199E+04  7.284614E+03  1.652207E-09 -1.604364E-09
       156  14 -3.917591E+05  1.341746E+03 -1.240440E+04  1.819801E+03 -1.385965E-09 -1.260016E-09
       156  15 -3.935774E+05  4.796548E+02 -7.384918E+03  7.274186E+03 -2.807768E-09 -1.142734E-09
       156  16 -5.934468E+05 -5.866478E+04 -7.240084E+04  9.698761E+03 -2.810499E-09 -8.435700E-10
       156  17 -5.769803E+05 -4.460381E+04 -5.681775E+04  2.303238E+03  2.255334E-09 -1.057093E-09
       156  18 -5.641911E+05 -4.185611E+04 -4.833705E+04  5.827044E+03  1.688032E-09  4.431758E-10
       156  19 -1.936791E+05  4.051829E+04  2.363471E+04  4.869765E+03  1.840209E+04  6.036986E+03
       156  20 -2.065062E+05  4.728488E+04  3.200686E+04  1.336267E+03  1.225017E+04  5.857079E+03
       156  21 -2.229371E+05  4.281334E+04  3.356527E+04  8.721745E+03  6.098930E+03  5.265842E+03
       156  22 -3.935811E+05 -9.071736E+03 -2.438129E+04  7.284704E+03  1.841433E+04  6.037203E+03
       156  23 -3.917589E+05  1.341822E+03 -1.240406E+04  1.819858E+03  1.205700E+04  5.856982E+03
       156  24 -3.935774E+05  4.796933E+02 -7.384805E+03  7.274210E+03  5.700202E+03  5.265414E+03
       156  25 -5.934464E+05 -5.866465E+04 -7.240013E+04  9.698851E+03  1.842655E+04  6.037420E+03
       156  26 -5.769802E+05 -4.460373E+04 -5.681742E+04  2.303294E+03  1.186388E+04  5.856885E+03
       156  27 -5.641910E+05 -4.185607E+04 -4.833695E+04  5.827066E+03  5.301583E+03  5.264988E+03
       157   1 -2.421452E+05  3.645489E+04  3.031834E+04  7.279014E+03 -4.817794E+03 -4.856573E+03
       157   2 -2.567810E+05  3.384423E+04  2.939150E+04  1.883888E+03 -3.241726E+03 -4.280536E+03
       157   3 -2.719294E+05  3.007697E+04  2.714519E+04  7.610209E+03 -1.665913E+03 -3.670274E+03
       157   4 -3.928816E+05 -9.235667E+02 -5.787365E+03  7.323465E+03 -4.536510E+03 -4.856276E+03
       157   5 -3.926230E+05  1.521249E+02 -3.178079E+03  1.761986E+03 -2.943549E+03 -4.280177E+03
       157   6 -3.928803E+05  6.812759E+01 -1.900232E+03  7.322108E+03 -1.350806E+03 -3.669848E+03
       157   7 -5.435972E+05 -3.830367E+04 -4.189468E+04  7.367899E+03 -4.255295E+03 -4.855980E+03
       157   8 -5.284481E+05 -3.354132E+04 -3.574896E+04  1.640104E+03 -2.645437E+03 -4.279817E+03
       157   9 -5.138178E+05 -2.994178E+04 -3.094669E+04  7.034059E+03 -1.035759E+03 -3.669423E+03
       157  10 -2.421452E+05  3.645486E+04  3.031825E+04  7.278995E+03 -2.930187E-12  3.034347E-09
       157  11 -2.567810E+05  3.384421E+04  2.939145E+04  1.883877E+03  4.518395E-10  3.084741E-09
       157  12 -2.719295E+05  3.007695E+04  2.714516E+04  7.610204E+03  6.516288E-10 -1.245859E-09
       157  13 -3.928816E+05 -9.235976E+02 -5.787448E+03  7.323448E+03  2.087482E-09 -7.937124E-10
       157  14 -3.926230E+05  1.521029E+02 -3.178129E+03  1.761976E+03 -1.458131E-09  2.411923E-09
       157  15 -3.928803E+05  6.811264E+01 -1.900261E+03  7.322104E+03  2.912777E-09  3.180338E-09
       157  16 -5.435972E+05 -3.830370E+04 -4.189476E+04  7.367882E+03  1.391589E-09  2.226235E-09
       157  17 -5.284481E+05 -3.354134E+04 -3.574901E+04  1.640095E+03 -2.287136E-10  3.075798E-09
       157  18 -5.138178E+05 -2.994179E+04 -3.094672E+04  7.034056E+03 -1.063057E-09  1.005929E-09
       157  19 -2.421452E+05  3.645489E+04  3.031834E+04  7.279014E+03  4.817794E+03  4.856573E+03
       157  20 -2.567810E+05  3.384423E+04  2.939150E+04  1.883888E+03  3.241726E+03  4.280536E+03
       157  21 -2.719294E+05  3.007697E+04  2.714519E+04  7.610209E+03  1.665913E+03  3.670274E+03
       157  22 -3.928816E+05 -9.235667E+02 -5.787365E+03  7.323465E+03  4.536510E+03  4.856276E+03
       157  23 -3.926230E+05  1.521249E+02 -3.178079E+03  1.761986E+03  2.943549E+03  4.280177E+03
       157  24 -3.928803E+05  6.812759E+01 -1.900232E+03  7.322108E+03  1.350806E+03  3.669848E+03
       157  25 -5.435972E+05 -3.830367E+04 -4.189468E+04  7.367899E+03  4.255295E+03  4.855980E+03
       157  26 -5.284481E+05 -3.354132E+04 -3.574896E+04  1.640104E+03  2.645437E+03  4.279817E+03
       157  27 -5.138178E+05 -2.994178E+04 -3.094669E+04  7.034059E+03  1.035759E+03  3.669423E+03
       158   1 -2.920502E+05  2.490590E+04  2.260764E+04  7.465291E+03 -1.353127E+03 -3.309451E+03
       158   2 -3.070664E+05  2.127215E+04  1.957716E+04  1.831230E+03 -8.783448E+02 -2.697383E+03
       158   3 -3.222051E+05  1.753914E+04  1.620493E+04  7.456385E+03 -4.037006E+02 -2.080696E+03
       158   4 -3.927918E+05 -7.214300E+01 -1.502078E+03  7.353244E+03 -1.046172E+03 -3.309014E+03
       158   5 -3.927299E+05  2.473421E+01 -9.623876E+02  1.723515E+03 -5.691370E+02 -2.696917E+03
       158   6 -3.927913E+05  2.190478E+01 -7.661026E+02  7.353098E+03 -9.222793E+01 -2.080200E+03
       158   7 -4.935242E+05 -2.505092E+04 -2.561251E+04  7.241212E+03 -7.392676E+02 -3.308578E+03
       158   8 -4.783866E+05 -2.122321E+04 -2.150246E+04  1.615812E+03 -2.599717E+02 -2.696451E+03
       158   9 -4.633729E+05 -1.749569E+04 -1.773749E+04  7.249821E+03  2.192095E+02 -2.079704E+03
       158  10 -2.920502E+05  2.490589E+04  2.260761E+04  7.465287E+03 -4.515352E-11 -1.636393E-09
       158  11 -3.070664E+05  2.127214E+04  1.957715E+04  1.831228E+03  2.978254E-09  4.011048E-09
       158  12 -3.222051E+05  1.753913E+04  1.620492E+04  7.456384E+03  7.055896E-09  4.779470E-09
       158  13 -3.927918E+05 -7.215505E+01 -1.502100E+03  7.353241E+03 -1.318178E-09 -2.080108E-10
       158  14 -3.927299E+05  2.472632E+01 -9.624019E+02  1.723513E+03  1.448289E-09  2.935377E-09
       158  15 -3.927913E+05  2.190013E+01 -7.661108E+02  7.353098E+03 -2.250721E-09  1.943355E-09
       158  16 -4.935242E+05 -2.505094E+04 -2.561253E+04  7.241210E+03  9.614052E-10  1.119170E-10
       158  17 -4.783866E+05 -2.122322E+04 -2.150247E+04  1.615811E+03 -6.036375E-09 -1.133980E-09
       158  18 -4.633729E+05 -1.749570E+04 -1.773750E+04  7.249821E+03 -7.319169E-09  8.360639E-10
       158  19 -2.920502E+05  2.490590E+04  2.260764E+04  7.465291E+03  1.353127E+03  3.309451E+03
       158  20 -3.070664E+05  2.127215E+04  1.957716E+04  1.831230E+03  8.783448E+02  2.697383E+03
       158  21 -3.222051E+05  1.753914E+04  1.620493E+04  7.456385E+03  4.037006E+02  2.080696E+03
       158  22 -3.927918E+05 -7.214300E+01 -1.502078E+03  7.353244E+03  1.046172E+03  3.309014E+03
       158  23 -3.927299E+05  2.473421E+01 -9.623876E+02  1.723515E+03  5.691370E+02  2.696917E+03
       158  24 -3.927913E+05  2.190478E+01 -7.661026E+02  7.353098E+03  9.222793E+01  2.080200E+03
       158  25 -4.935242E+05 -2.505092E+04 -2.561251E+04  7.241212E+03  7.392676E+02  3.308578E+03
       158  26 -4.783866E+05 -2.122321E+04 -2.150246E+04  1.615812E+03  2.599717E+02  2.696451E+03
       158  27 -4.633729E+05 -1.749569E+04 -1.773749E+04  7.249821E+03 -2.192095E+02  2.079704E+03
       159   1 -3.426081E+05  1.245832E+04  1.122922E+04  7.418943E+03 -2.668939E+02 -1.720432E+03
       159   2 -3.577223E+05  8.707898E+03  7.482301E+03  1.741190E+03  1.847095E+02 -1.101344E+03
       159   3 -3.729636E+05  4.869013E+03  3.409199E+03  7.399994E+03  6.362625E+02 -4.823180E+02
       159   4 -3.927914E+05  2.019591E+01 -7.573529E+02  7.370277E+03  4.463018E+01 -1.719923E+03
       159   5 -3.927278E+05  2.510742E+01 -9.112519E+02  1.702046E+03  4.961777E+02 -1.100825E+03
       159   6 -3.927913E+05 -5.836974E+01 -1.391235E+03  7.370411E+03  9.476857E+02 -4.817880E+02
       159   7 -4.429724E+05 -1.241811E+04 -1.274410E+04  7.321614E+03  3.561291E+02 -1.719414E+03
       159   8 -4.277322E+05 -8.657772E+03 -9.304891E+03  1.662903E+03  8.076284E+02 -1.100307E+03
       159   9 -4.126186E+05 -4.985781E+03 -6.191697E+03  7.340829E+03  1.259099E+03 -4.812580E+02
       159  10 -3.426081E+05  1.245831E+04  1.122921E+04  7.418942E+03 -7.937123E-09  2.394246E-09
       159  11 -3.577223E+05  8.707897E+03  7.482299E+03  1.741191E+03 -7.285500E-09 -6.233735E-10
       159  12 -3.729636E+05  4.869013E+03  3.409198E+03  7.399994E+03  1.928276E-09 -3.112786E-09
       159  13 -3.927914E+05  2.019273E+01 -7.573585E+02  7.370277E+03 -4.755281E-10  5.690353E-09
       159  14 -3.927278E+05  2.510606E+01 -9.112546E+02  1.702046E+03 -5.917862E-10  1.019367E-09
       159  15 -3.927913E+05 -5.837023E+01 -1.391237E+03  7.370411E+03 -1.068092E-09 -3.210085E-09
       159  16 -4.429724E+05 -1.241811E+04 -1.274411E+04  7.321614E+03  3.868285E-09  3.762054E-09
       159  17 -4.277322E+05 -8.657774E+03 -9.304895E+03  1.662904E+03  4.987889E-09  8.599208E-10
       159  18 -4.126186E+05 -4.985782E+03 -6.191701E+03  7.340829E+03 -6.988779E-10 -3.822818E-09
       159  19 -3.426081E+05  1.245832E+04  1.122922E+04  7.418943E+03  2.668939E+02  1.720432E+03
       159  20 -3.577223E+05  8.707898E+03  7.482301E+03  1.741190E+03 -1.847095E+02  1.101344E+03
       159  21 -3.729636E+05  4.869013E+03  3.409199E+03  7.399994E+03 -6.362625E+02  4.823180E+02
       159  22 -3.927914E+05  2.019591E+01 -7.573529E+02  7.370277E+03 -4.463018E+01  1.719923E+03
       159  23 -3.927278E+05  2.510742E+01 -9.112519E+02  1.702046E+03 -4.961777E+02  1.100825E+03
       159  24 -3.927913E+05 -5.836974E+01 -1.391235E+03  7.370411E+03 -9.476857E+02  4.817880E+02
       159  25 -4.429724E+05 -1.241811E+04 -1.274410E+04  7.321614E+03 -3.561291E+02  1.719414E+03
       159  26 -4.277322E+05 -8.657772E+03 -9.304891E+03  1.662903E+03 -8.076284E+02  1.100307E+03
       159  27 -4.126186E+05 -4.985781E+03 -6.191697E+03  7.340829E+03 -1.259099E+03  4.812580E+02
       160   1 -3.935274E+05 -1.032529E+02 -1.954531E+03  7.233672E+03  9.127851E+02 -1.185172E+02
       160   2 -4.084706E+05 -3.786269E+03 -6.710875E+03  1.698887E+03  2.380352E+03  5.033005E+02
       160   3 -4.239161E+05 -8.523124E+03 -1.269684E+04  7.512948E+03  3.847930E+03  1.108028E+03
       160   4 -3.928742E+05  6.857035E+01 -1.751660E+03  7.372554E+03  1.229088E+03 -1.179766E+02
       160   5 -3.926241E+05  1.443274E+02 -2.911294E+03  1.698900E+03  2.688078E+03  5.038210E+02
       160   6 -3.928748E+05 -8.322217E+02 -5.294537E+03  7.374078E+03  4.147115E+03  1.108529E+03
       160   7 -3.922211E+05  2.403937E+02 -1.548788E+03  7.511436E+03  1.545391E+03 -1.174359E+02
       160   8 -3.767773E+05  4.074906E+03  8.882698E+02  1.698912E+03  2.995812E+03  5.043415E+02
       160   9 -3.618326E+05  6.858612E+03  2.107703E+03  7.235200E+03  4.446314E+03  1.109030E+03
       160  10 -3.935274E+05 -1.032532E+02 -1.954533E+03  7.233672E+03 -1.735561E-09  4.130168E-10
       160  11 -4.084706E+05 -3.786271E+03 -6.710886E+03  1.698886E+03 -5.665911E-10  2.117697E-09
       160  12 -4.239161E+05 -8.523130E+03 -1.269687E+04  7.512945E+03 -1.049437E-09  8.536019E-10
       160  13 -3.928742E+05  6.856993E+01 -1.751663E+03  7.372554E+03  3.042228E-09 -1.569305E-09
       160  14 -3.926241E+05  1.443252E+02 -2.911308E+03  1.698899E+03  1.697312E-09  1.925986E-09
       160  15 -3.928748E+05 -8.322277E+02 -5.294572E+03  7.374074E+03 -2.464499E-09  1.362566E-09
       160  16 -3.922211E+05  2.403931E+02 -1.548793E+03  7.511436E+03 -8.129403E-10 -1.174235E-09
       160  17 -3.767773E+05  4.074903E+03  8.882524E+02  1.698911E+03  2.257589E-09 -2.294924E-09
       160  18 -3.618326E+05  6.858605E+03  2.107664E+03  7.235196E+03  7.463741E-10  1.104571E-09
       160  19 -3.935274E+05 -1.032529E+02 -1.954531E+03  7.233672E+03 -9.127851E+02  1.185172E+02
       160  20 -4.084706E+05 -3.786269E+03 -6.710875E+03  1.698887E+03 -2.380352E+03 -5.033005E+02
       160  21 -4.239161E+05 -8.523124E+03 -1.269684E+04  7.512948E+03 -3.847930E+03 -1.108028E+03
       160  22 -3.928742E+05  6.857035E+01 -1.751660E+03  7.372554E+03 -1.229088E+03  1.179766E+02
       160  23 -3.926241E+05  1.443274E+02 -2.911294E+03  1.698900E+03 -2.688078E+03 -5.038210E+02
       160  24 -3.928748E+05 -8.322217E+02 -5.294537E+03  7.374078E+03 -4.147115E+03 -1.108529E+03
       160  25 -3.922211E+05  2.403937E+02 -1.548788E+03  7.511436E+03 -1.545391E+03  1.174359E+02
       160  26 -3.767773E+05  4.074906E+03  8.882698E+02  1.698912E+03 -2.995812E+03 -5.043415E+02
       160  27 -3.618326E+05  6.858612E+03  2.107703E+03  7.235200E+03 -4.446314E+03 -1.109030E+03
       161   1 -4.449961E+05 -1.233440E+04 -1.914220E+04  6.121444E+03  4.847365E+03  1.501497E+03
       161   2 -4.584327E+05 -1.528409E+04 -2.730547E+04  2.222260E+03  1.077036E+04  2.120987E+03
       161   3 -4.752614E+05 -2.855032E+04 -4.191486E+04  9.625342E+03  1.669353E+04  2.514935E+03
       161   4 -3.935130E+05  4.494206E+02 -6.754378E+03  7.358297E+03  5.211594E+03  1.502108E+03
       161   5 -3.918283E+05  1.234666E+03 -1.133698E+04  1.714174E+03  1.102152E+04  2.121372E+03
       161   6 -3.935159E+05 -8.276394E+03 -2.228661E+04  7.372307E+03  1.683178E+04  2.515071E+03
       161   7 -3.420276E+05  1.323306E+04  5.633259E+03  8.595252E+03  5.575853E+03  1.502721E+03
       161   8 -3.252198E+05  1.775310E+04  4.631207E+03  1.206031E+03  1.127271E+04  2.121756E+03
       161   9 -3.117642E+05  1.199707E+04 -2.658828E+03  5.118973E+03  1.697004E+04  2.515205E+03
       161  10 -4.449961E+05 -1.233441E+04 -1.914225E+04  6.121438E+03 -4.520435E-09  2.338994E-09
       161  11 -4.584328E+05 -1.528412E+04 -2.730570E+04  2.222241E+03 -3.632708E-09  2.044525E-09
       161  12 -4.752617E+05 -2.855041E+04 -4.191539E+04  9.625308E+03 -1.020956E-09  1.755069E-09
       161  13 -3.935131E+05  4.494109E+02 -6.754433E+03  7.358291E+03 -2.348537E-09  1.759997E-09
       161  14 -3.918284E+05  1.234628E+03 -1.133721E+04  1.714155E+03 -3.670318E-09  1.731438E-09
       161  15 -3.935162E+05 -8.276477E+03 -2.228715E+04  7.372273E+03 -2.353741E-10 -6.469535E-10
       161  16 -3.420276E+05  1.323305E+04  5.633196E+03  8.595245E+03  3.149556E-09  1.785197E-09
       161  17 -3.252199E+05  1.775306E+04  4.630960E+03  1.206012E+03  2.505624E-09 -1.151814E-09
       161  18 -3.117646E+05  1.199699E+04 -2.659382E+03  5.118938E+03  6.229158E-10 -3.207611E-09
       161  19 -4.449961E+05 -1.233440E+04 -1.914220E+04  6.121444E+03 -4.847365E+03 -1.501497E+03
       161  20 -4.584327E+05 -1.528409E+04 -2.730547E+04  2.222260E+03 -1.077036E+04 -2.120987E+03
       161  21 -4.752614E+05 -2.855032E+04 -4.191486E+04  9.625342E+03 -1.669353E+04 -2.514935E+03
       161  22 -3.935130E+05  4.494206E+02 -6.754378E+03  7.358297E+03 -5.211594E+03 -1.502108E+03
       161  23 -3.918283E+05  1.234666E+03 -1.133698E+04  1.714174E+03 -1.102152E+04 -2.121372E+03
       161  24 -3.935159E+05 -8.276394E+03 -2.228661E+04  7.372307E+03 -1.683178E+04 -2.515071E+03
       161  25 -3.420276E+05  1.323306E+04  5.633259E+03  8.595252E+03 -5.575853E+03 -1.502721E+03
       161  26 -3.252198E+05  1.775310E+04  4.631207E+03  1.206031E+03 -1.127271E+04 -2.121756E+03
       161  27 -3.117642E+05  1.199707E+04 -2.658828E+03  5.118973E+03 -1.697004E+04 -2.515205E+03
       162   1 -5.008893E+05 -2.125856E+04 -5.176731E+04 -3.272037E+03  2.005852E+04  3.299488E+03
       162   2 -5.020832E+05 -1.766329E+04 -7.167167E+04  8.824306E+03  4.513522E+04  3.843635E+03
       162   3 -5.310110E+05 -1.118081E+05 -1.323512E+05  3.211701E+04  7.021611E+04  1.389614E+03
       162   4 -3.988676E+05  4.086051E+03 -2.731293E+04  7.301638E+03  2.107055E+04  3.301372E+03
       162   5 -3.851419E+05  1.131211E+04 -4.366553E+04  1.763152E+03  4.464037E+04  3.842328E+03
       162   6 -3.988833E+05 -7.893121E+04 -9.974092E+04  7.421454E+03  6.821504E+04  1.383940E+03
       162   7 -2.968361E+05  2.943032E+04 -2.859235E+03  1.787706E+04  2.208275E+04  3.303290E+03
       162   8 -2.681880E+05  4.028671E+04 -1.566033E+04 -5.299343E+03  4.414543E+04  3.841033E+03
       162   9 -2.667385E+05 -4.605334E+04 -6.713156E+04 -1.727937E+04  6.621354E+04  1.378426E+03
       162  10 -5.008897E+05 -2.125868E+04 -5.176808E+04 -3.272090E+03 -1.665174E-09  4.240910E-10
       162  11 -5.020854E+05 -1.766385E+04 -7.167553E+04  8.824167E+03 -1.729783E-10 -1.369769E-09
       162  12 -5.310163E+05 -1.118094E+05 -1.323605E+05  3.211693E+04 -4.060056E-10 -7.517021E-10
       162  13 -3.988681E+05  4.085920E+03 -2.731379E+04  7.301582E+03 -5.232896E-10  2.013519E-09
       162  14 -3.851441E+05  1.131156E+04 -4.366930E+04  1.763014E+03 -2.274630E-09 -2.305108E-09
       162  15 -3.988883E+05 -7.893246E+04 -9.974967E+04  7.421378E+03 -1.684617E-09  2.063769E-09
       162  16 -2.968366E+05  2.943018E+04 -2.860172E+03  1.787700E+04  1.104470E-10  1.216666E-09
       162  17 -2.681901E+05  4.028617E+04 -1.566402E+04 -5.299479E+03 -3.587834E-10  7.363399E-10
       162  18 -2.667432E+05 -4.605452E+04 -6.713981E+04 -1.727944E+04 -1.033850E-10 -6.685912E-10
       162  19 -5.008893E+05 -2.125856E+04 -5.176731E+04 -3.272037E+03 -2.005852E+04 -3.299488E+03
       162  20 -5.020832E+05 -1.766329E+04 -7.167167E+04  8.824306E+03 -4.513522E+04 -3.843635E+03
       162  21 -5.310110E+05 -1.118081E+05 -1.323512E+05  3.211701E+04 -7.021611E+04 -1.389614E+03
       162  22 -3.988676E+05  4.086051E+03 -2.731293E+04  7.301638E+03 -2.107055E+04 -3.301372E+03
       162  23 -3.851419E+05  1.131211E+04 -4.366553E+04  1.763152E+03 -4.464037E+04 -3.842328E+03
       162  24 -3.988833E+05 -7.893121E+04 -9.974092E+04  7.421454E+03 -6.821504E+04 -1.383940E+03
       162  25 -2.968361E+05  2.943032E+04 -2.859235E+03  1.787706E+04 -2.208275E+04 -3.303290E+03
       162  26 -2.681880E+05  4.028671E+04 -1.566033E+04 -5.299343E+03 -4.414543E+04 -3.841033E+03
       162  27 -2.667385E+05 -4.605334E+04 -6.713156E+04 -1.727937E+04 -6.621354E+04 -1.378426E+03
       163   1  1.784459E+05  9.961777E+05  1.945217E+05 -9.500895E+04  4.317479E+03  7.261637E+04
       163   2  7.011952E+04  8.837140E+05  1.155512E+05 -4.831677E+04  1.229569E+04  3.895989E+04
       163   3  4.557399E+04  7.965158E+05  7.940368E+04 -4.869639E+04  9.287389E+03  5.299693E+03
       163   4  7.886818E+04  5.959629E+05  9.680562E+04 -6.008084E+04  4.330143E+03  6.193481E+04
       163   5 -3.475284E+03  5.841020E+05  4.706525E+04 -3.658004E+04  1.229856E+04  3.700324E+04
       163   6 -3.528382E+03  5.960014E+05  3.411236E+04 -6.014845E+04  9.280613E+03  1.206241E+04
       163   7 -2.071675E+04  1.958967E+05 -9.210849E+02 -2.517524E+04  4.341611E+03  5.126010E+04
       163   8 -7.707581E+04  2.845734E+05 -2.142648E+04 -2.484900E+04  1.230136E+04  3.504752E+04
       163   9 -5.263300E+04  3.955247E+05 -1.118128E+04 -7.159676E+04  9.273587E+03  1.882297E+04
       163  10  1.784445E+05  9.961721E+05  1.945118E+05 -9.500920E+04 -2.339675E-09 -2.275239E-09
       163  11  7.011895E+04  8.837124E+05  1.155480E+05 -4.831716E+04 -1.787658E-09 -4.979794E-09
       163  12  4.557389E+04  7.965158E+05  7.940346E+04 -4.869643E+04 -1.310464E-09 -4.305892E-09
       163  13  7.886713E+04  5.959588E+05  9.679838E+04 -6.008106E+04 -3.479798E-09 -9.256519E-10
       163  14 -3.475813E+03  5.841005E+05  4.706239E+04 -3.658041E+04 -5.148195E-09  7.505392E-10
       163  15 -3.528513E+03  5.960012E+05  3.411193E+04 -6.014854E+04  8.255138E-10 -6.759210E-10
       163  16 -2.071748E+04  1.958939E+05 -9.260566E+02 -2.517542E+04 -1.785928E-10  2.533274E-09
       163  17 -7.707630E+04  2.845720E+05 -2.142907E+04 -2.484935E+04 -3.976142E-09  4.329595E-09
       163  18 -5.263318E+04  3.955243E+05 -1.118211E+04 -7.159690E+04 -2.537977E-09  4.311074E-09
       163  19  1.784459E+05  9.961777E+05  1.945217E+05 -9.500895E+04 -4.317479E+03 -7.261637E+04
       163  20  7.011952E+04  8.837140E+05  1.155512E+05 -4.831677E+04 -1.229569E+04 -3.895989E+04
       163  21  4.557399E+04  7.965158E+05  7.940368E+04 -4.869639E+04 -9.287389E+03 -5.299693E+03
       163  22  7.886818E+04  5.959629E+05  9.680562E+04 -6.008084E+04 -4.330143E+03 -6.193481E+04
       163  23 -3.475284E+03  5.841020E+05  4.706525E+04 -3.658004E+04 -1.229856E+04 -3.700324E+04
       163  24 -3.528382E+03  5.960014E+05  3.411236E+04 -6.014845E+04 -9.280613E+03 -1.206241E+04
       163  25 -2.071675E+04  1.958967E+05 -9.210849E+02 -2.517524E+04 -4.341611E+03 -5.126010E+04
       163  26 -7.707581E+04  2.845734E+05 -2.142648E+04 -2.484900E+04 -1.230136E+04 -3.504752E+04
       163  27 -5.263300E+04  3.955247E+05 -1.118128E+04 -7.159676E+04 -9.273587E+03 -1.882297E+04
       164   1  3.210630E+04  7.033951E+05  5.706585E+04 -6.383229E+04  5.037665E+03  3.040362E+03
       164   2  2.036955E+03  6.008655E+05  3.353769E+04 -3.614057E+04  5.577367E+02 -1.256295E+04
       164   3 -1.209353E+04  5.042468E+05  2.411959E+04 -5.586344E+04 -3.948469E+03 -2.816402E+04
       164   4  4.796972E+03  5.920343E+05  3.184387E+04 -6.020596E+04  5.034003E+03  6.593127E+03
       164   5 -8.491960E+02  5.890847E+05  3.087540E+04 -3.649655E+04  5.540310E+02 -8.988761E+03
       164   6  9.440432E+03  5.920326E+05  4.400276E+04 -6.020114E+04 -3.952054E+03 -2.457084E+04
       164   7 -2.251316E+04  4.806851E+05  6.621152E+03 -5.658028E+04  5.030382E+03  1.014526E+04
       164   8 -3.735349E+03  5.773040E+05  2.821314E+04 -3.685253E+04  5.503211E+02 -5.414637E+03
       164   9  3.097394E+04  6.798255E+05  6.388548E+04 -6.453947E+04 -3.955689E+03 -2.097715E+04
       164  10  3.210627E+04  7.033951E+05  5.706579E+04 -6.383231E+04  2.368887E-11  9.923187E-09
       164  11  2.036912E+03  6.008653E+05  3.353740E+04 -3.614056E+04  2.427336E-09  2.871892E-09
       164  12 -1.209376E+04  5.042460E+05  2.411807E+04 -5.586353E+04  4.158023E-10 -3.906948E-09
       164  13  4.796933E+03  5.920343E+05  3.184374E+04 -6.020599E+04  3.982624E-09 -1.176131E-09
       164  14 -8.492180E+02  5.890846E+05  3.087525E+04 -3.649655E+04  7.195381E-09  9.606102E-10
       164  15  9.440253E+03  5.920319E+05  4.400159E+04 -6.020122E+04  2.096518E-09 -8.351516E-10
       164  16 -2.251321E+04  4.806850E+05  6.620911E+03 -5.658032E+04  7.200024E-10 -9.506252E-09
       164  17 -3.735357E+03  5.773040E+05  2.821309E+04 -3.685253E+04  1.064298E-09 -3.594895E-09
       164  18  3.097380E+04  6.798250E+05  6.388463E+04 -6.453953E+04 -1.312463E-10  4.280186E-09
       164  19  3.210630E+04  7.033951E+05  5.706585E+04 -6.383229E+04 -5.037665E+03 -3.040362E+03
       164  20  2.036955E+03  6.008655E+05  3.353769E+04 -3.614057E+04 -5.577367E+02  1.256295E+04
       164  21 -1.209353E+04  5.042468E+05  2.411959E+04 -5.586344E+04  3.948469E+03  2.816402E+04
       164  22  4.796972E+03  5.920343E+05  3.184387E+04 -6.020596E+04 -5.034003E+03 -6.593127E+03
       164  23 -8.491960E+02  5.890847E+05  3.087540E+04 -3.649655E+04 -5.540310E+02  8.988761E+03
       164  24  9.440432E+03  5.920326E+05  4.400276E+04 -6.020114E+04  3.952054E+03  2.457084E+04
       164  25 -2.251316E+04  4.806851E+05  6.621152E+03 -5.658028E+04 -5.030382E+03 -1.014526E+04
       164  26 -3.735349E+03  5.773040E+05  2.821314E+04 -3.685253E+04 -5.503211E+02  5.414637E+03
       164  27  3.097394E+04  6.798255E+05  6.388548E+04 -6.453947E+04  3.955689E+03  2.097715E+04
       165   1 -5.064715E+04  4.234067E+05  1.194029E+04 -8.140569E+04 -8.127943E+03 -3.900841E+04
       165   2 -7.416449E+04  3.027711E+05  1.846938E+04 -1.536683E+04 -1.125395E+04 -7.414352E+04
       165   3  5.126700E+04  2.239048E+05  8.509724E+04  3.622464E+03 -3.986908E+03 -1.092630E+05
       165   4 -7.341867E+03  6.003159E+05  5.191836E+04 -6.015892E+04 -8.135952E+03 -3.239599E+04
       165   5 -6.333764E+03  5.787078E+05  8.159095E+04 -3.657298E+04 -1.124960E+04 -7.578632E+04
       165   6  1.450109E+05  6.002602E+05  1.770686E+05 -6.002986E+04 -3.967455E+03 -1.191670E+05
       165   7  3.596300E+04  7.772552E+05  9.189484E+04 -3.890602E+04 -8.143507E+03 -2.578170E+04
       165   8  6.149335E+04  8.547159E+05  1.447078E+05 -5.778862E+04 -1.124514E+04 -7.742984E+04
       165   9  2.387597E+05  9.767535E+05  2.690321E+05 -1.237208E+05 -3.945981E+03 -1.290770E+05
       165  10 -5.064763E+04  4.234050E+05  1.193731E+04 -8.140595E+04  9.511019E-10  8.687498E-09
       165  11 -7.416610E+04  3.027651E+05  1.845881E+04 -1.536750E+04  8.564856E-10  3.858760E-09
       165  12  5.126378E+04  2.238920E+05  8.507478E+04  3.622114E+03  1.478542E-09 -2.471093E-10
       165  13 -7.342219E+03  6.003147E+05  5.191627E+04 -6.015913E+04  2.988817E-09 -7.688305E-10
       165  14 -6.335440E+03  5.787016E+05  8.157993E+04 -3.657367E+04  1.078961E-10  7.131756E-10
       165  15  1.450071E+05  6.002450E+05  1.770419E+05 -6.003024E+04  1.232488E-09 -1.552918E-10
       165  16  3.596275E+04  7.772545E+05  9.189347E+04 -3.890619E+04  9.905884E-10 -8.271569E-09
       165  17  6.149160E+04  8.547095E+05  1.446963E+05 -5.778933E+04 -5.062056E-10 -4.700382E-09
       165  18  2.387552E+05  9.767356E+05  2.690008E+05 -1.237212E+05 -1.519386E-09  7.260866E-10
       165  19 -5.064715E+04  4.234067E+05  1.194029E+04 -8.140569E+04  8.127943E+03  3.900841E+04
       165  20 -7.416449E+04  3.027711E+05  1.846938E+04 -1.536683E+04  1.125395E+04  7.414352E+04
       165  21  5.126700E+04  2.239048E+05  8.509724E+04  3.622464E+03  3.986908E+03  1.092630E+05
       165  22 -7.341867E+03  6.003159E+05  5.191836E+04 -6.015892E+04  8.135952E+03  3.239599E+04
       165  23 -6.333764E+03  5.787078E+05  8.159095E+04 -3.657298E+04  1.124960E+04  7.578632E+04
       165  24  1.450109E+05  6.002602E+05  1.770686E+05 -6.002986E+04  3.967455E+03  1.191670E+05
       165  25  3.596300E+04  7.772552E+05  9.189484E+04 -3.890602E+04  8.143507E+03  2.578170E+04
       165  26  6.149335E+04  8.547159E+05  1.447078E+05 -5.778862E+04  1.124514E+04  7.742984E+04
       165  27  2.387597E+05  9.767535E+05  2.690321E+05 -1.237208E+05  3.945981E+03  1.290770E+05
       166   1  9.026882E+04  3.494668E+04  1.693395E+04 -7.490598E+03 -4.805269E+04 -5.022796E+03
       166   2  6.433721E+04  9.978947E+04  5.063452E+04  1.893260E+03 -3.486450E+04 -1.525212E+04
       166   3  1.792344E+04  8.950026E+04  5.698312E+04  3.048535E+04 -2.169299E+04 -1.496493E+04
       166   4 -3.297388E+05 -6.952090E+04 -8.581671E+04  1.991096E+04 -5.881868E+04 -5.041019E+03
       166   5 -3.188462E+05  5.393922E+03 -3.828205E+04  1.024892E+04 -3.832245E+04 -1.525891E+04
       166   6 -3.297206E+05  3.881096E+03 -2.318902E+04  1.979646E+04 -1.784184E+04 -1.495820E+04
       166   7 -7.495837E+05 -1.739986E+05 -1.885794E+05  4.729388E+04 -6.957739E+04 -5.060198E+03
       166   8 -7.018938E+05 -8.901169E+04 -1.272084E+05  1.859933E+04 -4.177828E+04 -1.526578E+04
       166   9 -6.772526E+05 -8.174611E+04 -1.033691E+05  9.113555E+03 -1.399283E+04 -1.495159E+04
       166  10  9.026634E+04  3.494603E+04  1.692956E+04 -7.490792E+03 -1.211367E-09  1.117981E-09
       166  11  6.433585E+04  9.978890E+04  5.063180E+04  1.892831E+03 -1.038410E-09  5.320165E-09
       166  12  1.792288E+04  8.949989E+04  5.698182E+04  3.048509E+04  6.914670E-09  1.837017E-09
       166  13 -3.297425E+05 -6.952186E+04 -8.582326E+04  1.991072E+04 -8.462709E-10 -1.982018E-09
       166  14 -3.188478E+05  5.393278E+03 -3.828524E+04  1.024845E+04  9.917779E-10 -5.048524E-09
       166  15 -3.297210E+05  3.880771E+03 -2.319004E+04  1.979625E+04  3.655787E-09 -4.907850E-10
       166  16 -7.495889E+05 -1.739999E+05 -1.885886E+05  4.729360E+04  2.645727E-09 -3.643546E-10
       166  17 -7.018958E+05 -8.901241E+04 -1.272121E+05  1.859881E+04 -2.371604E-09  4.384180E-09
       166  18 -6.772528E+05 -8.174641E+04 -1.033699E+05  9.113387E+03 -1.332448E-09 -1.647815E-09
       166  19  9.026882E+04  3.494668E+04  1.693395E+04 -7.490598E+03  4.805269E+04  5.022796E+03
       166  20  6.433721E+04  9.978947E+04  5.063452E+04  1.893260E+03  3.486450E+04  1.525212E+04
       166  21  1.792344E+04  8.950026E+04  5.698312E+04  3.048535E+04  2.169299E+04  1.496493E+04
       166  22 -3.297388E+05 -6.952090E+04 -8.581671E+04  1.991096E+04  5.881868E+04  5.041019E+03
       166  23 -3.188462E+05  5.393922E+03 -3.828205E+04  1.024892E+04  3.832245E+04  1.525891E+04
       166  24 -3.297206E+05  3.881096E+03 -2.318902E+04  1.979646E+04  1.784184E+04  1.495820E+04
       166  25 -7.495837E+05 -1.739986E+05 -1.885794E+05  4.729388E+04  6.957739E+04  5.060198E+03
       166  26 -7.018938E+05 -8.901169E+04 -1.272084E+05  1.859933E+04  4.177828E+04  1.526578E+04
       166  27 -6.772526E+05 -8.174611E+04 -1.033691E+05  9.113555E+03  1.399283E+04  1.495159E+04
       167   1 -1.342979E+04  7.148583E+04  5.356826E+04  1.855846E+04 -1.501300E+04 -1.266979E+04
       167   2 -4.864624E+04  6.838788E+04  5.386250E+04  1.006525E+04 -1.040294E+04 -1.152080E+04
       167   3 -8.599611E+04  5.935718E+04  4.966164E+04  2.121424E+04 -5.794947E+03 -9.830206E+03
       167   4 -3.253693E+05 -5.359648E+03 -1.870124E+04  1.993375E+04 -1.440302E+04 -1.266912E+04
       167   5 -3.242652E+05  5.131522E+02 -9.844870E+03  1.010671E+04 -9.418312E+03 -1.151919E+04
       167   6 -3.253626E+05  3.864152E+02 -5.745668E+03  1.992251E+04 -4.435415E+03 -9.827561E+03
       167   7 -6.372189E+05 -8.221196E+04 -9.097727E+04  2.130830E+04 -1.379335E+04 -1.266844E+04
       167   8 -5.998139E+05 -6.736691E+04 -7.355730E+04  1.014811E+04 -8.434121E+03 -1.151758E+04
       167   9 -5.646761E+05 -5.858837E+04 -6.115680E+04  1.863124E+04 -3.076404E+03 -9.824922E+03
       167  10 -1.343008E+04  7.148559E+04  5.356754E+04  1.855830E+04  1.266705E-09 -2.115819E-09
       167  11 -4.864639E+04  6.838771E+04  5.386204E+04  1.006515E+04  2.962392E-09  7.158500E-11
       167  12 -8.599617E+04  5.935706E+04  4.966139E+04  2.121420E+04  8.231440E-09  5.466971E-09
       167  13 -3.253696E+05 -5.359876E+03 -1.870194E+04  1.993360E+04  6.222815E-09  6.457240E-09
       167  14 -3.242653E+05  5.129859E+02 -9.845286E+03  1.010662E+04  1.240736E-09 -1.079046E-08
       167  15 -3.253626E+05  3.863062E+02 -5.745887E+03  1.992247E+04 -1.879960E-09  4.479669E-09
       167  16 -6.372192E+05 -8.221218E+04 -9.097793E+04  2.130816E+04  3.570814E-09 -4.821252E-09
       167  17 -5.998140E+05 -6.736707E+04 -7.355769E+04  1.014803E+04  3.519197E-10 -3.410637E-09
       167  18 -5.646761E+05 -5.858847E+04 -6.115700E+04  1.863122E+04 -8.368826E-09  6.950928E-10
       167  19 -1.342979E+04  7.148583E+04  5.356826E+04  1.855846E+04  1.501300E+04  1.266979E+04
       167  20 -4.864624E+04  6.838788E+04  5.386250E+04  1.006525E+04  1.040294E+04  1.152080E+04
       167  21 -8.599611E+04  5.935718E+04  4.966164E+04  2.121424E+04  5.794947E+03  9.830206E+03
       167  22 -3.253693E+05 -5.359648E+03 -1.870124E+04  1.993375E+04  1.440302E+04  1.266912E+04
       167  23 -3.242652E+05  5.131522E+02 -9.844870E+03  1.010671E+04  9.418312E+03  1.151919E+04
       167  24 -3.253626E+05  3.864152E+02 -5.745668E+03  1.992251E+04  4.435415E+03  9.827561E+03
       167  25 -6.372189E+05 -8.221196E+04 -9.097727E+04  2.130830E+04  1.379335E+04  1.266844E+04
       167  26 -5.998139E+05 -6.736691E+04 -7.355730E+04  1.014811E+04  8.434121E+03  1.151758E+04
       167  27 -5.646761E+05 -5.858837E+04 -6.115680E+04  1.863124E+04  3.076404E+03  9.824922E+03
       168   1 -1.213938E+05  4.978662E+04  4.250035E+04  2.023954E+04 -4.736861E+03 -8.738809E+03
       168   2 -1.576696E+05  4.124740E+04  3.612872E+04  1.037903E+04 -3.522767E+03 -7.004546E+03
       168   3 -1.942942E+05  3.231684E+04  2.884773E+04  2.027553E+04 -2.309266E+03 -5.240452E+03
       168   4 -3.249480E+05 -3.237544E+02 -4.445567E+03  1.995188E+04 -3.541489E+03 -8.736393E+03
       168   5 -3.247697E+05  9.460541E+01 -2.487134E+03  1.007272E+04 -2.307030E+03 -7.001938E+03
       168   6 -3.249446E+05  1.181896E+02 -1.452267E+03  1.995090E+04 -1.073093E+03 -5.237644E+03
       168   7 -5.284639E+05 -5.043704E+04 -5.139423E+04  1.966430E+04 -2.346506E+03 -8.733978E+03
       168   8 -4.918440E+05 -4.106015E+04 -4.110485E+04  9.766484E+03 -1.091617E+03 -6.999331E+03
       168   9 -4.555792E+05 -3.208166E+04 -3.175340E+04  1.962632E+04  1.628214E+02 -5.234836E+03
       168  10 -1.213939E+05  4.978654E+04  4.250016E+04  2.023950E+04 -3.654417E-09 -1.818872E-09
       168  11 -1.576696E+05  4.124735E+04  3.612860E+04  1.037901E+04 -7.457471E-09 -2.603913E-09
       168  12 -1.942942E+05  3.231681E+04  2.884767E+04  2.027552E+04 -1.710531E-09 -3.370693E-09
       168  13 -3.249481E+05 -3.238398E+02 -4.445734E+03  1.995186E+04 -1.074414E-09 -1.267073E-09
       168  14 -3.247697E+05  9.455134E+01 -2.487236E+03  1.007271E+04  1.252580E-09 -6.111721E-09
       168  15 -3.249446E+05  1.181599E+02 -1.452321E+03  1.995089E+04 -4.382860E-10 -7.992225E-09
       168  16 -5.284639E+05 -5.043712E+04 -5.139439E+04  1.966429E+04  7.190895E-09 -3.689285E-09
       168  17 -4.918440E+05 -4.106020E+04 -4.110494E+04  9.766478E+03  7.896878E-09  1.850666E-09
       168  18 -4.555792E+05 -3.208169E+04 -3.175345E+04  1.962632E+04  1.220672E-09  6.538407E-09
       168  19 -1.213938E+05  4.978662E+04  4.250035E+04  2.023954E+04  4.736861E+03  8.738809E+03
       168  20 -1.576696E+05  4.124740E+04  3.612872E+04  1.037903E+04  3.522767E+03  7.004546E+03
       168  21 -1.942942E+05  3.231684E+04  2.884773E+04  2.027553E+04  2.309266E+03  5.240452E+03
       168  22 -3.249480E+05 -3.237544E+02 -4.445567E+03  1.995188E+04  3.541489E+03  8.736393E+03
       168  23 -3.247697E+05  9.460541E+01 -2.487134E+03  1.007272E+04  2.307030E+03  7.001938E+03
       168  24 -3.249446E+05  1.181896E+02 -1.452267E+03  1.995090E+04  1.073093E+03  5.237644E+03
       168  25 -5.284639E+05 -5.043704E+04 -5.139423E+04  1.966430E+04  2.346506E+03  8.733978E+03
       168  26 -4.918440E+05 -4.106015E+04 -4.110485E+04  9.766484E+03  1.091617E+03  6.999331E+03
       168  27 -4.555792E+05 -3.208166E+04 -3.175340E+04  1.962632E+04 -1.628214E+02  5.234836E+03
       169   1 -2.301851E+05  2.337232E+04  2.065682E+04  2.014928E+04 -2.072725E+03 -4.208076E+03
       169   2 -2.666529E+05  1.438441E+04  1.276050E+04  1.017751E+04 -1.740148E+03 -2.440584E+03
       169   3 -3.032646E+05  5.448766E+03  4.634971E+03  2.001180E+04 -1.407762E+03 -6.709671E+02
       169   4 -3.248964E+05  6.756745E+01 -1.123815E+03  1.996209E+04 -8.441283E+02 -4.205218E+03
       169   5 -3.248231E+05  5.750640E+01 -6.828892E+02  1.005897E+04 -5.101526E+02 -2.437673E+03
       169   6 -3.248952E+05  9.954168E+01 -4.721180E+02  1.996202E+04 -1.763491E+02 -6.679976E+02
       169   7 -4.195994E+05 -2.323781E+04 -2.290504E+04  1.977492E+04  3.842821E+02 -4.202362E+03
       169   8 -3.829902E+05 -1.426963E+04 -1.412650E+04  9.940432E+03  7.197281E+02 -2.434762E+03
       169   9 -3.465254E+05 -5.249715E+03 -5.579234E+03  1.991223E+04  1.055021E+03 -6.650283E+02
       169  10 -2.301851E+05  2.337230E+04  2.065678E+04  2.014928E+04  2.821488E-09 -5.457653E-09
       169  11 -2.666529E+05  1.438440E+04  1.276048E+04  1.017751E+04 -4.433003E-09 -3.753160E-10
       169  12 -3.032646E+05  5.448765E+03  4.634967E+03  2.001180E+04 -2.969056E-09  4.495264E-09
       169  13 -3.248964E+05  6.754827E+01 -1.123850E+03  1.996209E+04 -2.139334E-09 -3.960027E-09
       169  14 -3.248231E+05  5.749995E+01 -6.829009E+02  1.005897E+04 -1.826991E-09 -6.640431E-09
       169  15 -3.248952E+05  9.954120E+01 -4.721189E+02  1.996201E+04 -8.195365E-11 -1.979407E-09
       169  16 -4.195994E+05 -2.323783E+04 -2.290507E+04  1.977492E+04 -3.061927E-09  2.907114E-09
       169  17 -3.829902E+05 -1.426964E+04 -1.412651E+04  9.940433E+03  3.488051E-09  9.041618E-09
       169  18 -3.465254E+05 -5.249716E+03 -5.579237E+03  1.991223E+04  5.275690E-09  2.365863E-09
       169  19 -2.301851E+05  2.337232E+04  2.065682E+04  2.014928E+04  2.072725E+03  4.208076E+03
       169  20 -2.666529E+05  1.438441E+04  1.276050E+04  1.017751E+04  1.740148E+03  2.440584E+03
       169  21 -3.032646E+05  5.448766E+03  4.634971E+03  2.001180E+04  1.407762E+03  6.709671E+02
       169  22 -3.248964E+05  6.756745E+01 -1.123815E+03  1.996209E+04  8.441283E+02  4.205218E+03
       169  23 -3.248231E+05  5.750640E+01 -6.828892E+02  1.005897E+04  5.101526E+02  2.437673E+03
       169  24 -3.248952E+05  9.954168E+01 -4.721180E+02  1.996202E+04  1.763491E+02  6.679976E+02
       169  25 -4.195994E+05 -2.323781E+04 -2.290504E+04  1.977492E+04 -3.842821E+02  4.202362E+03
       169  26 -3.829902E+05 -1.426963E+04 -1.412650E+04  9.940432E+03 -7.197281E+02  2.434762E+03
       169  27 -3.465254E+05 -5.249715E+03 -5.579234E+03  1.991223E+04 -1.055021E+03  6.650283E+02
       170   1 -3.392418E+05 -3.458156E+03 -3.849617E+03  1.993767E+04 -1.329209E+03  3.594920E+02
       170   2 -3.757201E+05 -1.248070E+04 -1.218845E+04  9.965125E+03 -1.121001E+03  2.129011E+03
       170   3 -4.123215E+05 -2.143169E+04 -2.067084E+04  1.980084E+04 -9.126576E+02  3.896513E+03
       170   4 -3.248905E+05  9.819583E+01 -4.248028E+02  1.996247E+04 -9.780247E+01  3.624636E+02
       170   5 -3.248287E+05  5.424760E+01 -4.264521E+02  1.005841E+04  1.089718E+02  2.131930E+03
       170   6 -3.248915E+05  8.205728E+01 -5.707501E+02  1.996251E+04  3.158941E+02  3.899385E+03
       170   7 -3.105390E+05  3.654534E+03  3.000003E+03  1.998727E+04  1.133632E+03  3.654352E+02
       170   8 -2.739349E+05  1.258902E+04  1.133537E+04  1.015170E+04  1.339045E+03  2.134850E+03
       170   9 -2.374544E+05  2.159528E+04  1.952884E+04  2.012419E+04  1.544618E+03  3.902258E+03
       170  10 -3.392418E+05 -3.458157E+03 -3.849621E+03  1.993767E+04 -2.284463E-09  2.522081E-09
       170  11 -3.757201E+05 -1.248071E+04 -1.218846E+04  9.965127E+03 -1.953677E-09 -1.963980E-09
       170  12 -4.123215E+05 -2.143171E+04 -2.067087E+04  1.980084E+04 -1.578299E-09 -1.586322E-09
       170  13 -3.248905E+05  9.819569E+01 -4.248031E+02  1.996247E+04 -2.609590E-10  5.484677E-09
       170  14 -3.248287E+05  5.424272E+01 -4.264607E+02  1.005841E+04  4.945584E-09 -1.915877E-09
       170  15 -3.248915E+05  8.204093E+01 -5.707789E+02  1.996251E+04  8.089830E-10 -1.517404E-09
       170  16 -3.105390E+05  3.654533E+03  3.000000E+03  1.998727E+04  2.851091E-09  2.312654E-10
       170  17 -2.739349E+05  1.258901E+04  1.133536E+04  1.015170E+04  4.974640E-09 -8.679572E-09
       170  18 -2.374544E+05  2.159526E+04  1.952881E+04  2.012419E+04  3.322021E-09 -6.144002E-09
       170  19 -3.392418E+05 -3.458156E+03 -3.849617E+03  1.993767E+04  1.329209E+03 -3.594920E+02
       170  20 -3.757201E+05 -1.248070E+04 -1.218845E+04  9.965125E+03  1.121001E+03 -2.129011E+03
       170  21 -4.123215E+05 -2.143169E+04 -2.067084E+04  1.980084E+04  9.126576E+02 -3.896513E+03
       170  22 -3.248905E+05  9.819583E+01 -4.248028E+02  1.996247E+04  9.780247E+01 -3.624636E+02
       170  23 -3.248287E+05  5.424760E+01 -4.264521E+02  1.005841E+04 -1.089718E+02 -2.131930E+03
       170  24 -3.248915E+05  8.205728E+01 -5.707501E+02  1.996251E+04 -3.158941E+02 -3.899385E+03
       170  25 -3.105390E+05  3.654534E+03  3.000003E+03  1.998727E+04 -1.133632E+03 -3.654352E+02
       170  26 -2.739349E+05  1.258902E+04  1.133537E+04  1.015170E+04 -1.339045E+03 -2.134850E+03
       170  27 -2.374544E+05  2.159528E+04  1.952884E+04  2.012419E+04 -1.544618E+03 -3.902258E+03
       171   1 -4.482783E+05 -3.030448E+04 -2.932089E+04  1.969294E+04 -8.083631E+02  4.928841E+03
       171   2 -4.846285E+05 -3.930088E+04 -3.807892E+04  9.791627E+03 -2.255339E+02  6.692331E+03
       171   3 -5.211825E+05 -4.842776E+04 -4.727104E+04  1.964915E+04  3.577915E+02  8.426565E+03
       171   4 -3.249103E+05  1.050032E+02 -6.994795E+02  1.995132E+04  4.276064E+02  4.931669E+03
       171   5 -3.248115E+05  6.599061E+01 -1.138824E+03  1.007229E+04  9.901942E+02  6.694964E+03
       171   6 -3.249135E+05 -9.971500E+01 -1.997905E+03  1.995178E+04  1.553312E+03  8.429013E+03
       171   7 -2.015283E+05  3.051342E+04  2.792091E+04  2.020974E+04  1.663820E+03  4.934497E+03
       171   8 -1.649708E+05  3.943107E+04  3.579957E+04  1.035301E+04  2.206233E+03  6.697599E+03
       171   9 -1.286088E+05  4.822563E+04  4.327268E+04  2.025448E+04  2.749207E+03  8.431463E+03
       171  10 -4.482783E+05 -3.030451E+04 -2.932093E+04  1.969294E+04 -3.851350E-09  4.878770E-10
       171  11 -4.846285E+05 -3.930093E+04 -3.807900E+04  9.791628E+03 -5.594892E-09 -6.190627E-09
       171  12 -5.211825E+05 -4.842784E+04 -4.727118E+04  1.964915E+04 -4.981810E-10  1.266207E-09
       171  13 -3.249103E+05  1.049770E+02 -6.995255E+02  1.995132E+04 -2.142677E-09 -3.922588E-11
       171  14 -3.248115E+05  6.594222E+01 -1.138910E+03  1.007228E+04  2.748072E-09  3.947796E-09
       171  15 -3.249135E+05 -9.979193E+01 -1.998043E+03  1.995177E+04 -5.268682E-11  3.344984E-09
       171  16 -2.015283E+05  3.051339E+04  2.792086E+04  2.020974E+04  5.965596E-09  3.206691E-09
       171  17 -1.649709E+05  3.943102E+04  3.579948E+04  1.035300E+04  3.757919E-09 -3.063058E-09
       171  18 -1.286088E+05  4.822555E+04  4.327253E+04  2.025446E+04  1.117826E-09  4.174689E-09
       171  19 -4.482783E+05 -3.030448E+04 -2.932089E+04  1.969294E+04  8.083631E+02 -4.928841E+03
       171  20 -4.846285E+05 -3.930088E+04 -3.807892E+04  9.791627E+03  2.255339E+02 -6.692331E+03
       171  21 -5.211825E+05 -4.842776E+04 -4.727104E+04  1.964915E+04 -3.577915E+02 -8.426565E+03
       171  22 -3.249103E+05  1.050032E+02 -6.994795E+02  1.995132E+04 -4.276064E+02 -4.931669E+03
       171  23 -3.248115E+05  6.599061E+01 -1.138824E+03  1.007229E+04 -9.901942E+02 -6.694964E+03
       171  24 -3.249135E+05 -9.971500E+01 -1.997905E+03  1.995178E+04 -1.553312E+03 -8.429013E+03
       171  25 -2.015283E+05  3.051342E+04  2.792091E+04  2.020974E+04 -1.663820E+03 -4.934497E+03
       171  26 -1.649708E+05  3.943107E+04  3.579957E+04  1.035301E+04 -2.206233E+03 -6.697599E+03
       171  27 -1.286088E+05  4.822563E+04  4.327268E+04  2.025448E+04 -2.749207E+03 -8.431463E+03
       172   1 -5.571746E+05 -5.697282E+04 -5.631026E+04  1.914664E+04  5.961029E+02  9.515815E+03
       172   2 -5.929239E+05 -6.585778E+04 -6.643819E+04  9.899912E+03  3.188016E+03  1.120506E+04
       172   3 -6.297385E+05 -7.743354E+04 -7.894038E+04  2.030401E+04  5.781515E+03  1.236194E+04
       172   4 -3.250952E+05  2.171171E+02 -2.571802E+03  1.992596E+04  1.952801E+03  9.518484E+03
       172   5 -3.245972E+05  2.441768E+02 -4.395557E+03  1.010333E+04  4.175314E+03  1.120673E+04
       172   6 -3.251010E+05 -2.354581E+03 -8.336117E+03  1.993104E+04  6.399562E+03  1.236270E+04
       172   7 -9.296604E+04  5.740327E+04  5.116306E+04  2.070554E+04  3.310003E+03  9.521157E+03
       172   8 -5.620392E+04  6.634108E+04  5.764227E+04  1.030681E+04  5.163035E+03  1.120839E+04
       172   9 -2.037771E+04  7.271785E+04  6.226193E+04  1.955785E+04  7.017910E+03  1.236346E+04
       172  10 -5.571746E+05 -5.697292E+04 -5.631043E+04  1.914664E+04  6.639096E-09  1.572243E-09
       172  11 -5.929239E+05 -6.585792E+04 -6.643844E+04  9.899883E+03 -2.651810E-09  1.315681E-09
       172  12 -6.297386E+05 -7.743371E+04 -7.894073E+04  2.030395E+04 -1.308993E-09 -3.819991E-09
       172  13 -3.250953E+05  2.170188E+02 -2.571980E+03  1.992594E+04 -8.544814E-10 -4.921733E-09
       172  14 -3.245973E+05  2.440373E+02 -4.395826E+03  1.010329E+04 -8.939546E-10  5.637956E-09
       172  15 -3.251011E+05 -2.354756E+03 -8.336482E+03  1.993098E+04 -9.220797E-10 -2.046132E-09
       172  16 -9.296608E+04  5.740317E+04  5.116287E+04  2.070552E+04 -6.063086E-09 -3.321070E-09
       172  17 -5.620399E+04  6.634094E+04  5.764198E+04  1.030676E+04  2.895716E-09 -8.402492E-09
       172  18 -2.037780E+04  7.271767E+04  6.226155E+04  1.955778E+04  1.958352E-09 -7.161755E-10
       172  19 -5.571746E+05 -5.697282E+04 -5.631026E+04  1.914664E+04 -5.961029E+02 -9.515815E+03
       172  20 -5.929239E+05 -6.585778E+04 -6.643819E+04  9.899912E+03 -3.188016E+03 -1.120506E+04
       172  21 -6.297385E+05 -7.743354E+04 -7.894038E+04  2.030401E+04 -5.781515E+03 -1.236194E+04
       172  22 -3.250952E+05  2.171171E+02 -2.571802E+03  1.992596E+04 -1.952801E+03 -9.518484E+03
       172  23 -3.245972E+05  2.441768E+02 -4.395557E+03  1.010333E+04 -4.175314E+03 -1.120673E+04
       172  24 -3.251010E+05 -2.354581E+03 -8.336117E+03  1.993104E+04 -6.399562E+03 -1.236270E+04
       172  25 -9.296604E+04  5.740327E+04  5.116306E+04  2.070554E+04 -3.310003E+03 -9.521157E+03
       172  26 -5.620392E+04  6.634108E+04  5.764227E+04  1.030681E+04 -5.163035E+03 -1.120839E+04
       172  27 -2.037771E+04  7.271785E+04  6.226193E+04  1.955785E+04 -7.017910E+03 -1.236346E+04
       173   1 -6.673921E+05 -8.207422E+04 -8.885364E+04  1.479300E+04  4.126205E+03  1.462202E+04
       173   2 -6.980691E+05 -9.025023E+04 -1.043272E+05  1.370185E+04  2.044233E+04  1.494379E+04
       173   3 -7.396830E+05 -1.336803E+05 -1.392438E+05  3.179962E+04  3.677273E+04  4.921001E+03
       173   4 -3.270348E+05  1.760952E+03 -1.033315E+04  1.980993E+04  7.929522E+03  1.462846E+04
       173   5 -3.221993E+05  2.405727E+03 -1.706311E+04  1.024145E+04  1.705714E+04  1.493742E+04
       173   6 -3.270470E+05 -3.094354E+04 -3.823447E+04  1.986192E+04  2.620025E+04  4.904157E+03
       173   7  1.342971E+04  8.558810E+04  6.817971E+04  2.482960E+04  1.173491E+04  1.463496E+04
       173   8  5.380115E+04  9.505178E+04  7.019157E+04  6.778877E+03  1.366991E+04  1.493109E+04
       173   9  8.574489E+04  7.178122E+04  6.276288E+04  7.916190E+03  1.562074E+04  4.887726E+03
       173  10 -6.673922E+05 -8.207446E+04 -8.885408E+04  1.479295E+04  2.985338E-09 -4.196962E-09
       173  11 -6.980696E+05 -9.025058E+04 -1.043284E+05  1.370160E+04  3.255299E-09 -1.270948E-09
       173  12 -7.396845E+05 -1.336807E+05 -1.392464E+05  3.179948E+04  2.148653E-09  4.067009E-09
       173  13 -3.270350E+05  1.760706E+03 -1.033367E+04  1.980984E+04 -1.076639E-09  3.342930E-09
       173  14 -3.221997E+05  2.405410E+03 -1.706408E+04  1.024124E+04 -1.718086E-09 -7.189099E-10
       173  15 -3.270477E+05 -3.094375E+04 -3.823581E+04  1.986181E+04  2.636097E-09  1.347991E-09
       173  16  1.342951E+04  8.558783E+04  6.817904E+04  2.482946E+04 -4.668307E-09  3.727044E-09
       173  17  5.380089E+04  9.505149E+04  7.019080E+04  6.778712E+03 -6.181094E-09  5.022555E-09
       173  18  8.574463E+04  7.178113E+04  6.276237E+04  7.916129E+03 -2.397692E-09  2.419723E-10
       173  19 -6.673921E+05 -8.207422E+04 -8.885364E+04  1.479300E+04 -4.126205E+03 -1.462202E+04
       173  20 -6.980691E+05 -9.025023E+04 -1.043272E+05  1.370185E+04 -2.044233E+04 -1.494379E+04
       173  21 -7.396830E+05 -1.336803E+05 -1.392438E+05  3.179962E+04 -3.677273E+04 -4.921001E+03
       173  22 -3.270348E+05  1.760952E+03 -1.033315E+04  1.980993E+04 -7.929522E+03 -1.462846E+04
       173  23 -3.221993E+05  2.405727E+03 -1.706311E+04  1.024145E+04 -1.705714E+04 -1.493742E+04
       173  24 -3.270470E+05 -3.094354E+04 -3.823447E+04  1.986192E+04 -2.620025E+04 -4.904157E+03
       173  25  1.342971E+04  8.558810E+04  6.817971E+04  2.482960E+04 -1.173491E+04 -1.463496E+04
       173  26  5.380115E+04  9.505178E+04  7.019157E+04  6.778877E+03 -1.366991E+04 -1.493109E+04
       173  27  8.574489E+04  7.178122E+04  6.276288E+04  7.916190E+03 -1.562074E+04 -4.887726E+03
       174   1 -2.338175E+05 -8.881823E+05 -2.279866E+05  2.045039E+05 -9.585486E+03 -6.945494E+04
       174   2 -1.600207E+05 -6.890059E+05 -1.426397E+05  1.732622E+05 -2.911556E+04 -2.881456E+04
       174   3 -1.078579E+05 -5.003160E+05 -8.916878E+04  1.866786E+05 -2.742034E+04  1.186906E+04
       174   4 -2.605882E+04 -4.971391E+04 -2.835388E+04  1.882478E+05 -9.632894E+03 -2.111576E+04
       174   5 -5.626639E+03 -4.737766E+04 -1.266567E+04  1.659311E+05 -2.912613E+04 -1.455545E+04
       174   6 -8.928811E+02 -4.963297E+04 -5.157514E+03  1.882728E+05 -2.740293E+04 -7.965949E+03
       174   7  1.816513E+05  7.894057E+05  1.712385E+05  1.719697E+05 -9.682812E+03  2.728849E+04
       174   8  1.487421E+05  5.946434E+05  1.172878E+05  1.585922E+05 -2.913703E+04 -2.818622E+02
       174   9  1.060607E+05  4.012476E+05  7.884657E+04  1.898682E+05 -2.738563E+04 -2.781500E+04
       174  10 -2.338189E+05 -8.881875E+05 -2.279958E+05  2.045033E+05 -1.546234E-09 -1.107987E-08
       174  11 -1.600218E+05 -6.890070E+05 -1.426428E+05  1.732615E+05 -2.999641E-09  1.424197E-09
       174  12 -1.078588E+05 -5.003163E+05 -8.917046E+04  1.866788E+05 -3.997799E-09  1.436605E-08
       174  13 -2.605904E+04 -4.971441E+04 -2.835489E+04  1.882476E+05  6.155408E-10  2.906377E-09
       174  14 -5.627607E+03 -4.737811E+04 -1.266766E+04  1.659307E+05  3.139712E-09 -1.597759E-09
       174  15 -8.937044E+02 -4.963324E+04 -5.159044E+03  1.882726E+05  5.152214E-09 -6.804931E-10
       174  16  1.816510E+05  7.894049E+05  1.712369E+05  1.719699E+05  5.854384E-10  9.097583E-09
       174  17  1.487412E+05  5.946432E+05  1.172862E+05  1.585922E+05 -2.891124E-09 -1.822549E-09
       174  18  1.060597E+05  4.012466E+05  7.884371E+04  1.898676E+05 -3.142828E-09 -1.520334E-08
       174  19 -2.338175E+05 -8.881823E+05 -2.279866E+05  2.045039E+05  9.585486E+03  6.945494E+04
       174  20 -1.600207E+05 -6.890059E+05 -1.426397E+05  1.732622E+05  2.911556E+04  2.881456E+04
       174  21 -1.078579E+05 -5.003160E+05 -8.916878E+04  1.866786E+05  2.742034E+04 -1.186906E+04
       174  22 -2.605882E+04 -4.971391E+04 -2.835388E+04  1.882478E+05  9.632894E+03  2.111576E+04
       174  23 -5.626639E+03 -4.737766E+04 -1.266567E+04  1.659311E+05  2.912613E+04  1.455545E+04
       174  24 -8.928811E+02 -4.963297E+04 -5.157514E+03  1.882728E+05  2.740293E+04  7.965949E+03
       174  25  1.816513E+05  7.894057E+05  1.712385E+05  1.719697E+05  9.682812E+03 -2.728849E+04
       174  26  1.487421E+05  5.946434E+05  1.172878E+05  1.585922E+05  2.913703E+04  2.818622E+02
       174  27  1.060607E+05  4.012476E+05  7.884657E+04  1.898682E+05  2.738563E+04  2.781500E+04
       175   1 -7.786270E+04 -3.705038E+05 -6.222123E+04  1.887864E+05 -1.984332E+04  9.688453E+03
       175   2 -3.033608E+04 -1.768257E+05 -1.984519E+04  1.659613E+05 -8.912270E+03  9.086102E+03
       175   3  1.766125E+04  1.721473E+04  2.306983E+04  1.890801E+05  2.525182E+03  8.482957E+03
       175   4 -1.491812E+03 -4.848936E+04 -2.463308E+03  1.885535E+05 -1.982962E+04 -7.475949E+03
       175   5 -1.681617E+02 -4.871545E+04  2.863761E+03  1.655831E+05 -8.898783E+03 -8.894418E+03
       175   6  1.770104E+03 -4.847284E+04  9.297836E+03  1.885560E+05  2.538321E+03 -1.031351E+04
       175   7  7.487329E+04  2.736262E+05  5.729135E+04  1.883205E+05 -1.981591E+04 -2.464903E+04
       175   8  2.999903E+04  7.941156E+04  2.557332E+04  1.652049E+05 -8.885276E+03 -2.687854E+04
       175   9 -1.412113E+04 -1.141556E+05 -4.473070E+03  1.880319E+05  2.551492E+03 -2.910802E+04
       175  10 -7.786315E+04 -3.705040E+05 -6.222214E+04  1.887865E+05 -2.848918E-09 -1.212345E-08
       175  11 -3.033619E+04 -1.768258E+05 -1.984550E+04  1.659614E+05 -2.721513E-09 -3.679268E-09
       175  12  1.766123E+04  1.721465E+04  2.306968E+04  1.890801E+05 -9.162986E-10  4.395121E-09
       175  13 -1.492249E+03 -4.848953E+04 -2.464152E+03  1.885534E+05  4.807295E-09  2.296998E-09
       175  14 -1.682679E+02 -4.871555E+04  2.863464E+03  1.655831E+05  5.247065E-09 -3.017308E-10
       175  15  1.770069E+03 -4.847295E+04  9.297624E+03  1.885560E+05  3.205008E-09  1.370221E-09
       175  16  7.487270E+04  2.736254E+05  5.728947E+04  1.883201E+05 -5.931848E-10  1.124209E-08
       175  17  2.999875E+04  7.941076E+04  2.557181E+04  1.652047E+05  2.120881E-09  2.865818E-09
       175  18 -1.412137E+04 -1.141565E+05 -4.474674E+03  1.880320E+05  3.526740E-10 -5.762808E-09
       175  19 -7.786270E+04 -3.705038E+05 -6.222123E+04  1.887864E+05  1.984332E+04 -9.688453E+03
       175  20 -3.033608E+04 -1.768257E+05 -1.984519E+04  1.659613E+05  8.912270E+03 -9.086102E+03
       175  21  1.766125E+04  1.721473E+04  2.306983E+04  1.890801E+05 -2.525182E+03 -8.482957E+03
       175  22 -1.491812E+03 -4.848936E+04 -2.463308E+03  1.885535E+05  1.982962E+04  7.475949E+03
       175  23 -1.681617E+02 -4.871545E+04  2.863761E+03  1.655831E+05  8.898783E+03  8.894418E+03
       175  24  1.770104E+03 -4.847284E+04  9.297836E+03  1.885560E+05 -2.538321E+03  1.031351E+04
       175  25  7.487329E+04  2.736262E+05  5.729135E+04  1.883205E+05  1.981591E+04  2.464903E+04
       175  26  2.999903E+04  7.941156E+04  2.557332E+04  1.652049E+05  8.885276E+03  2.687854E+04
       175  27 -1.412113E+04 -1.141556E+05 -4.473070E+03  1.880319E+05 -2.551492E+03  2.910802E+04
       176   1  4.704047E+04  1.476383E+05  5.093548E+04  1.848213E+05  1.031417E+04  8.657500E+03
       176   2  1.027766E+05  3.348940E+05  1.058689E+05  1.788068E+05  1.559293E+04 -2.893472E+04
       176   3  1.925855E+05  5.357367E+05  1.938153E+05  2.179116E+05  5.762507E+03 -6.655657E+04
       176   4  6.614908E+02 -4.650651E+04  1.320527E+04  1.883644E+05  1.032917E+04 -1.193538E+04
       176   5  9.557422E+03 -5.120320E+04  2.566950E+04  1.658279E+05  1.559131E+04 -2.521810E+04
       176   6  4.832134E+04 -4.655367E+04  5.427799E+04  1.884075E+05  5.741953E+03 -3.851859E+04
       176   7 -4.571947E+04 -2.406142E+05 -2.452512E+04  1.919065E+05  1.034393E+04 -3.252196E+04
       176   8 -8.367062E+04 -4.371589E+05 -5.453794E+04  1.528572E+05  1.558952E+04 -2.150374E+04
       176   9 -9.596369E+04 -6.285300E+05 -8.527989E+04  1.589311E+05  5.718731E+03 -1.050678E+04
       176  10  4.704034E+04  1.476382E+05  5.093514E+04  1.848212E+05 -1.853456E-09  4.445726E-10
       176  11  1.027761E+05  3.348931E+05  1.058669E+05  1.788072E+05  1.175607E-09  5.729308E-10
       176  12  1.925843E+05  5.357320E+05  1.938069E+05  2.179119E+05  5.154820E-10  2.496469E-10
       176  13  6.613379E+02 -4.650669E+04  1.320480E+04  1.883645E+05 -4.744088E-09  1.661114E-09
       176  14  9.556990E+03 -5.120395E+04  2.566785E+04  1.658282E+05  1.548456E-09 -9.818006E-11
       176  15  4.832091E+04 -4.655527E+04  5.427514E+04  1.884076E+05 -3.127681E-11  1.769740E-09
       176  16 -4.571987E+04 -2.406153E+05 -2.452731E+04  1.919067E+05 -2.291462E-10 -9.914171E-10
       176  17 -8.367101E+04 -4.371595E+05 -5.453926E+04  1.528575E+05  9.820145E-11 -1.472636E-09
       176  18 -9.596375E+04 -6.285302E+05 -8.528016E+04  1.589311E+05  1.002768E-09 -1.729145E-09
       176  19  4.704047E+04  1.476383E+05  5.093548E+04  1.848213E+05 -1.031417E+04 -8.657500E+03
       176  20  1.027766E+05  3.348940E+05  1.058689E+05  1.788068E+05 -1.559293E+04  2.893472E+04
       176  21  1.925855E+05  5.357367E+05  1.938153E+05  2.179116E+05 -5.762507E+03  6.655657E+04
       176  22  6.614908E+02 -4.650651E+04  1.320527E+04  1.883644E+05 -1.032917E+04  1.193538E+04
       176  23  9.557422E+03 -5.120320E+04  2.566950E+04  1.658279E+05 -1.559131E+04  2.521810E+04
       176  24  4.832134E+04 -4.655367E+04  5.427799E+04  1.884075E+05 -5.741953E+03  3.851859E+04
       176  25 -4.571947E+04 -2.406142E+05 -2.452512E+04  1.919065E+05 -1.034393E+04  3.252196E+04
       176  26 -8.367062E+04 -4.371589E+05 -5.453794E+04  1.528572E+05 -1.558952E+04  2.150374E+04
       176  27 -9.596369E+04 -6.285300E+05 -8.527989E+04  1.589311E+05 -5.718731E+03  1.050678E+04
       177   1  7.697745E+05  2.855907E+05  1.781411E+05  2.777467E+05  7.277367E+04  2.283809E+04
       177   2  7.423648E+05  1.802167E+05  1.110161E+05  2.730972E+05  4.725123E+04  3.657181E+03
       177   3  7.395472E+05  1.627480E+05  8.682854E+04  2.585519E+05  1.858511E+04 -7.172335E+03
       177   4  4.898538E+05  1.498236E+05  9.717972E+04  1.702031E+05  6.343620E+04  1.931652E+04
       177   5  4.729488E+05  6.963350E+04  4.161926E+04  1.890382E+05  4.412219E+04  2.476856E+03
       177   6  4.794197E+05  7.613904E+04  2.409326E+04  1.979741E+05  2.166275E+04 -6.012394E+03
       177   7  2.100153E+05  1.407954E+04  1.621237E+04  6.270982E+04  5.410346E+04  1.579786E+04
       177   8  2.036053E+05 -4.094024E+04 -2.778328E+04  1.050141E+05  4.099463E+04  1.297215E+03
       177   9  2.193570E+05 -1.046913E+04 -3.864730E+04  1.374173E+05  2.473901E+04 -4.852846E+03
       177  10  7.697687E+05  2.855887E+05  1.781302E+05  2.777454E+05 -3.149452E-09 -7.657467E-10
       177  11  7.423624E+05  1.802160E+05  1.110119E+05  2.730970E+05  3.648814E-09  4.629845E-09
       177  12  7.395468E+05  1.627478E+05  8.682780E+04  2.585520E+05  3.152054E-09 -1.015548E-09
       177  13  4.898494E+05  1.498221E+05  9.717146E+04  1.702021E+05  2.581099E-10  1.222287E-09
       177  14  4.729467E+05  6.963297E+04  4.161559E+04  1.890381E+05 -2.662793E-09 -5.120848E-09
       177  15  4.794192E+05  7.613887E+04  2.409231E+04  1.979742E+05 -1.564750E-10  2.234155E-09
       177  16  2.100121E+05  1.407849E+04  1.620640E+04  6.270913E+04  5.444662E-10  3.919482E-10
       177  17  2.036035E+05 -4.094070E+04 -2.778644E+04  1.050141E+05 -1.814822E-09  1.415722E-09
       177  18  2.193563E+05 -1.046932E+04 -3.864849E+04  1.374174E+05 -4.583508E-09 -3.206849E-10
       177  19  7.697745E+05  2.855907E+05  1.781411E+05  2.777467E+05 -7.277367E+04 -2.283809E+04
       177  20  7.423648E+05  1.802167E+05  1.110161E+05  2.730972E+05 -4.725123E+04 -3.657181E+03
       177  21  7.395472E+05  1.627480E+05  8.682854E+04  2.585519E+05 -1.858511E+04  7.172335E+03
       177  22  4.898538E+05  1.498236E+05  9.717972E+04  1.702031E+05 -6.343620E+04 -1.931652E+04
       177  23  4.729488E+05  6.963350E+04  4.161926E+04  1.890382E+05 -4.412219E+04 -2.476856E+03
       177  24  4.794197E+05  7.613904E+04  2.409326E+04  1.979741E+05 -2.166275E+04  6.012394E+03
       177  25  2.100153E+05  1.407954E+04  1.621237E+04  6.270982E+04 -5.410346E+04 -1.579786E+04
       177  26  2.036053E+05 -4.094024E+04 -2.778328E+04  1.050141E+05 -4.099463E+04 -1.297215E+03
       177  27  2.193570E+05 -1.046913E+04 -3.864730E+04  1.374173E+05 -2.473901E+04  4.852846E+03
       178   1  7.043546E+05  1.715591E+05  7.661853E+04  2.575974E+05  1.734211E+04 -5.656815E+03
       178   2  6.837244E+05  1.514124E+05  6.085269E+04  2.463677E+05  1.175343E+04 -6.782923E+03
       178   3  6.569922E+05  1.461293E+05  5.059189E+04  2.440536E+05  6.013875E+03 -7.509224E+03
       178   4  4.762955E+05  8.439889E+04  1.926278E+04  1.930222E+05  1.782766E+04 -5.474153E+03
       178   5  4.790008E+05  7.434021E+04  9.722479E+03  1.895672E+05  1.253755E+04 -6.487517E+03
       178   6  4.755454E+05  7.908723E+04  5.452309E+03  1.950273E+05  7.096331E+03 -7.101114E+03
       178   7  2.482875E+05 -2.757223E+03 -3.809709E+04  1.284686E+05  1.831302E+04 -5.291568E+03
       178   8  2.743188E+05 -2.728863E+03 -4.141089E+04  1.327837E+05  1.332139E+04 -6.192220E+03
       178   9  2.941316E+05  1.204751E+04 -3.968961E+04  1.460142E+05  8.178436E+03 -6.693132E+03
       178  10  7.043543E+05  1.715590E+05  7.661790E+04  2.575975E+05 -1.610179E-09  2.509854E-09
       178  11  6.837242E+05  1.514123E+05  6.085235E+04  2.463678E+05  1.812445E-09  4.424869E-09
       178  12  6.569921E+05  1.461292E+05  5.059172E+04  2.440536E+05 -1.588630E-10  3.780002E-09
       178  13  4.762952E+05  8.439877E+04  1.926213E+04  1.930223E+05 -6.394669E-11  1.692882E-09
       178  14  4.790006E+05  7.434012E+04  9.722105E+03  1.895672E+05 -2.265218E-09 -1.038882E-08
       178  15  4.755453E+05  7.908716E+04  5.452119E+03  1.950274E+05 -2.096047E-09 -1.725714E-09
       178  16  2.482871E+05 -2.757343E+03 -3.809777E+04  1.284687E+05 -1.186655E-09 -4.478006E-09
       178  17  2.743186E+05 -2.728952E+03 -4.141130E+04  1.327838E+05 -9.257658E-10 -4.181418E-09
       178  18  2.941315E+05  1.204744E+04 -3.968982E+04  1.460142E+05 -1.166461E-09  2.148431E-09
       178  19  7.043546E+05  1.715591E+05  7.661853E+04  2.575974E+05 -1.734211E+04  5.656815E+03
       178  20  6.837244E+05  1.514124E+05  6.085269E+04  2.463677E+05 -1.175343E+04  6.782923E+03
       178  21  6.569922E+05  1.461293E+05  5.059189E+04  2.440536E+05 -6.013875E+03  7.509224E+03
       178  22  4.762955E+05  8.439889E+04  1.926278E+04  1.930222E+05 -1.782766E+04  5.474153E+03
       178  23  4.790008E+05  7.434021E+04  9.722479E+03  1.895672E+05 -1.253755E+04  6.487517E+03
       178  24  4.755454E+05  7.908723E+04  5.452309E+03  1.950273E+05 -7.096331E+03  7.101114E+03
       178  25  2.482875E+05 -2.757223E+03 -3.809709E+04  1.284686E+05 -1.831302E+04  5.291568E+03
       178  26  2.743188E+05 -2.728863E+03 -4.141089E+04  1.327837E+05 -1.332139E+04  6.192220E+03
       178  27  2.941316E+05  1.204751E+04 -3.968961E+04  1.460142E+05 -8.178436E+03  6.693132E+03
       179   1  6.334080E+05  1.388678E+05  4.352930E+04  2.381972E+05  5.063499E+03 -6.936423E+03
       179   2  6.136793E+05  1.249730E+05  3.568990E+04  2.265483E+05  3.431087E+03 -6.073356E+03
       179   3  5.853396E+05  1.204543E+05  2.881904E+04  2.249910E+05  1.792241E+03 -5.194027E+03
       179   4  4.752536E+05  7.964614E+04  4.176726E+03  1.946237E+05  6.017850E+03 -6.576548E+03
       179   5  4.795359E+05  7.478055E+04  2.256074E+03  1.896458E+05  4.397822E+03 -5.708693E+03
       179   6  4.752047E+05  7.928893E+04  1.294521E+03  1.947594E+05  2.771313E+03 -4.824590E+03
       179   7  3.171230E+05  2.042598E+04 -3.517799E+04  1.510601E+05  6.971939E+03 -6.216771E+03
       179   8  3.454099E+05  2.458922E+04 -3.117924E+04  1.527503E+05  5.364330E+03 -5.344115E+03
       179   9  3.650817E+05  3.812435E+04 -2.623095E+04  1.645326E+05  3.750196E+03 -4.455225E+03
       179  10  6.334080E+05  1.388677E+05  4.352916E+04  2.381973E+05 -3.383502E-09  1.345025E-09
       179  11  6.136793E+05  1.249729E+05  3.568981E+04  2.265484E+05 -3.533521E-09 -1.662909E-09
       179  12  5.853396E+05  1.204543E+05  2.881899E+04  2.249910E+05 -9.717138E-10 -5.405870E-09
       179  13  4.752535E+05  7.964609E+04  4.176577E+03  1.946237E+05 -1.675997E-09  2.481553E-09
       179  14  4.795359E+05  7.478051E+04  2.255976E+03  1.896458E+05  1.338282E-09  2.571824E-09
       179  15  4.752047E+05  7.928891E+04  1.294463E+03  1.947594E+05 -2.952464E-09 -6.288230E-09
       179  16  3.171229E+05  2.042593E+04 -3.517815E+04  1.510601E+05 -1.565093E-09  6.268181E-11
       179  17  3.454098E+05  2.458918E+04 -3.117934E+04  1.527503E+05 -1.059824E-09  7.711439E-09
       179  18  3.650817E+05  3.812433E+04 -2.623102E+04  1.645326E+05 -9.346834E-10  6.107520E-10
       179  19  6.334080E+05  1.388678E+05  4.352930E+04  2.381972E+05 -5.063499E+03  6.936423E+03
       179  20  6.136793E+05  1.249730E+05  3.568990E+04  2.265483E+05 -3.431087E+03  6.073356E+03
       179  21  5.853396E+05  1.204543E+05  2.881904E+04  2.249910E+05 -1.792241E+03  5.194027E+03
       179  22  4.752536E+05  7.964614E+04  4.176726E+03  1.946237E+05 -6.017850E+03  6.576548E+03
       179  23  4.795359E+05  7.478055E+04  2.256074E+03  1.896458E+05 -4.397822E+03  5.708693E+03
       179  24  4.752047E+05  7.928893E+04  1.294521E+03  1.947594E+05 -2.771313E+03  4.824590E+03
       179  25  3.171230E+05  2.042598E+04 -3.517799E+04  1.510601E+05 -6.971939E+03  6.216771E+03
       179  26  3.454099E+05  2.458922E+04 -3.117924E+04  1.527503E+05 -5.364330E+03  5.344115E+03
       179  27  3.650817E+05  3.812435E+04 -2.623095E+04  1.645326E+05 -3.750196E+03  4.455225E+03
       180   1  5.628110E+05  1.120943E+05  2.276847E+04  2.188342E+05  1.320899E+03 -4.497329E+03
       180   2  5.432940E+05  9.868596E+04  1.653931E+04  2.071996E+05  4.983296E+02 -3.312601E+03
       180   3  5.149483E+05  9.420307E+04  1.056363E+04  2.056667E+05 -3.241240E+02 -2.128514E+03
       180   4  4.751755E+05  7.931339E+04  1.011954E+03  1.947153E+05  2.292366E+03 -4.130709E+03
       180   5  4.795895E+05  7.484223E+04  6.601676E+02  1.896678E+05  1.469363E+03 -2.946093E+03
       180   6  4.751742E+05  7.929672E+04  5.622490E+02  1.947220E+05  6.464578E+02 -1.762120E+03
       180   7  3.875479E+05  4.653313E+04 -2.074506E+04  1.705996E+05  3.263679E+03 -3.764148E+03
       180   8  4.158889E+05  5.099879E+04 -1.521929E+04  1.721377E+05  2.440287E+03 -2.579627E+03
       180   9  4.354015E+05  6.439041E+04 -9.439295E+03  1.837779E+05  1.616976E+03 -1.395749E+03
       180  10  5.628110E+05  1.120943E+05  2.276843E+04  2.188342E+05  1.010871E-08  1.201335E-09
       180  11  5.432940E+05  9.868594E+04  1.653929E+04  2.071996E+05  5.198907E-09  1.089243E-08
       180  12  5.149483E+05  9.420307E+04  1.056362E+04  2.056667E+05 -3.908887E-09  8.292090E-09
       180  13  4.751755E+05  7.931337E+04  1.011912E+03  1.947153E+05 -2.066422E-09  3.095646E-09
       180  14  4.795895E+05  7.484222E+04  6.601472E+02  1.896678E+05  4.946562E-09  2.915643E-10
       180  15  4.751742E+05  7.929671E+04  5.622424E+02  1.947220E+05  3.472896E-09  2.163846E-09
       180  16  3.875479E+05  4.653311E+04 -2.074510E+04  1.705996E+05 -9.788596E-09 -3.234725E-09
       180  17  4.158889E+05  5.099878E+04 -1.521932E+04  1.721377E+05 -1.737548E-09 -3.393302E-09
       180  18  4.354015E+05  6.439040E+04 -9.439304E+03  1.837779E+05  9.280369E-09  2.188753E-09
       180  19  5.628110E+05  1.120943E+05  2.276847E+04  2.188342E+05 -1.320899E+03  4.497329E+03
       180  20  5.432940E+05  9.868596E+04  1.653931E+04  2.071996E+05 -4.983296E+02  3.312601E+03
       180  21  5.149483E+05  9.420307E+04  1.056363E+04  2.056667E+05  3.241240E+02  2.128514E+03
       180  22  4.751755E+05  7.931339E+04  1.011954E+03  1.947153E+05 -2.292366E+03  4.130709E+03
       180  23  4.795895E+05  7.484223E+04  6.601676E+02  1.896678E+05 -1.469363E+03  2.946093E+03
       180  24  4.751742E+05  7.929672E+04  5.622490E+02  1.947220E+05 -6.464578E+02  1.762120E+03
       180  25  3.875479E+05  4.653313E+04 -2.074506E+04  1.705996E+05 -3.263679E+03  3.764148E+03
       180  26  4.158889E+05  5.099879E+04 -1.521929E+04  1.721377E+05 -2.440287E+03  2.579627E+03
       180  27  4.354015E+05  6.439041E+04 -9.439295E+03  1.837779E+05 -1.616976E+03  1.395749E+03
       181   1  4.925737E+05  8.580090E+04  4.838620E+03  1.995245E+05 -7.062928E+02 -1.403403E+03
       181   2  4.730869E+05  7.242872E+04 -8.163133E+02  1.878993E+05 -1.598285E+03 -2.470192E+02
       181   3  4.447966E+05  6.798001E+04 -6.163219E+03  1.863598E+05 -2.490019E+03  9.088522E+02
       181   4  4.751796E+05  7.929340E+04  5.871636E+02  1.947196E+05  2.637085E+02 -1.037211E+03
       181   5  4.795835E+05  7.484533E+04  8.004370E+02  1.896717E+05 -6.287035E+02  1.190068E+02
       181   6  4.751834E+05  7.932069E+04  1.322049E+03  1.947092E+05 -1.520873E+03  1.274707E+03
       181   7  4.577859E+05  7.278593E+04 -3.664311E+03  1.899148E+05  1.233680E+03 -6.710300E+02
       181   8  4.860803E+05  7.726194E+04  2.417184E+03  1.914441E+05  3.408871E+02  4.850361E+02
       181   9  5.055710E+05  9.066138E+04  8.807214E+03  2.030590E+05 -5.516800E+02  1.640580E+03
       181  10  4.925737E+05  8.580090E+04  4.838615E+03  1.995245E+05  8.029040E-10  2.054006E-09
       181  11  4.730869E+05  7.242872E+04 -8.163182E+02  1.878993E+05 -8.690542E-09 -3.953090E-09
       181  12  4.447966E+05  6.798001E+04 -6.163232E+03  1.863598E+05 -8.140765E-09 -8.743916E-09
       181  13  4.751796E+05  7.929340E+04  5.871614E+02  1.947196E+05 -2.647074E-09  1.365025E-09
       181  14  4.795835E+05  7.484533E+04  8.004362E+02  1.896717E+05 -8.732992E-09  4.166213E-10
       181  15  4.751834E+05  7.932069E+04  1.322042E+03  1.947092E+05 -1.366528E-09 -9.487486E-09
       181  16  4.577859E+05  7.278593E+04 -3.664315E+03  1.899148E+05 -7.834340E-09  3.610185E-09
       181  17  4.860803E+05  7.726194E+04  2.417183E+03  1.914441E+05 -1.159126E-09  8.445233E-10
       181  18  5.055710E+05  9.066137E+04  8.807208E+03  2.030590E+05  5.824946E-10 -6.327408E-09
       181  19  4.925737E+05  8.580090E+04  4.838620E+03  1.995245E+05  7.062928E+02  1.403403E+03
       181  20  4.730869E+05  7.242872E+04 -8.163133E+02  1.878993E+05  1.598285E+03  2.470192E+02
       181  21  4.447966E+05  6.798001E+04 -6.163219E+03  1.863598E+05  2.490019E+03 -9.088522E+02
       181  22  4.751796E+05  7.929340E+04  5.871635E+02  1.947196E+05 -2.637085E+02  1.037211E+03
       181  23  4.795835E+05  7.484533E+04  8.004370E+02  1.896717E+05  6.287035E+02 -1.190068E+02
       181  24  4.751834E+05  7.932069E+04  1.322049E+03  1.947092E+05  1.520873E+03 -1.274707E+03
       181  25  4.577859E+05  7.278593E+04 -3.664311E+03  1.899148E+05 -1.233680E+03  6.710300E+02
       181  26  4.860803E+05  7.726194E+04  2.417184E+03  1.914441E+05 -3.408871E+02 -4.850361E+02
       181  27  5.055710E+05  9.066138E+04  8.807214E+03  2.030590E+05  5.516800E+02 -1.640580E+03
       182   1  4.223974E+05  5.959214E+04 -1.151864E+04  1.803321E+05 -3.034011E+03  1.575150E+03
       182   2  4.027904E+05  4.608485E+04 -1.607523E+04  1.685661E+05 -5.043947E+03  2.309274E+03
       182   3  3.747112E+05  4.206666E+04 -1.934703E+04  1.668193E+05 -7.048319E+03  3.029291E+03
       182   4  4.752330E+05  7.927785E+04  1.718934E+03  1.947580E+05 -2.059307E+03  1.943080E+03
       182   5  4.795023E+05  7.477802E+04  3.044996E+03  1.896554E+05 -4.079945E+03  2.673100E+03
       182   6  4.753014E+05  7.976945E+04  5.664342E+03  1.945718E+05 -6.095081E+03  3.388991E+03
       182   7  5.280715E+05  9.896383E+04  1.495636E+04  2.091851E+05 -1.084508E+03  2.311046E+03
       182   8  5.562201E+05  1.034717E+05  2.216481E+04  2.107471E+05 -3.115811E+03  3.036975E+03
       182   9  5.759016E+05  1.174729E+05  3.067493E+04  2.223284E+05 -5.141673E+03  3.748755E+03
       182  10  4.223974E+05  5.959213E+04 -1.151866E+04  1.803321E+05  3.158312E-09 -2.740235E-09
       182  11  4.027904E+05  4.608484E+04 -1.607528E+04  1.685661E+05  5.564688E-09  9.101748E-10
       182  12  3.747112E+05  4.206664E+04 -1.934714E+04  1.668193E+05  1.885884E-09  1.748414E-09
       182  13  4.752330E+05  7.927785E+04  1.718919E+03  1.947580E+05  1.639084E-09 -7.323200E-09
       182  14  4.795023E+05  7.477801E+04  3.044952E+03  1.896554E+05  1.507995E-09 -1.088475E-09
       182  15  4.753014E+05  7.976942E+04  5.664250E+03  1.945718E+05 -1.906983E-09  2.550578E-10
       182  16  5.280715E+05  9.896383E+04  1.495635E+04  2.091851E+05 -4.194098E-09 -7.069160E-09
       182  17  5.562201E+05  1.034716E+05  2.216477E+04  2.107471E+05  1.141480E-09  4.427297E-09
       182  18  5.759016E+05  1.174729E+05  3.067486E+04  2.223284E+05 -3.761918E-10  7.105983E-10
       182  19  4.223974E+05  5.959214E+04 -1.151864E+04  1.803321E+05  3.034011E+03 -1.575150E+03
       182  20  4.027904E+05  4.608485E+04 -1.607523E+04  1.685661E+05  5.043947E+03 -2.309274E+03
       182  21  3.747112E+05  4.206666E+04 -1.934703E+04  1.668193E+05  7.048319E+03 -3.029291E+03
       182  22  4.752330E+05  7.927785E+04  1.718934E+03  1.947580E+05  2.059307E+03 -1.943080E+03
       182  23  4.795023E+05  7.477802E+04  3.044996E+03  1.896554E+05  4.079945E+03 -2.673100E+03
       182  24  4.753014E+05  7.976945E+04  5.664342E+03  1.945718E+05  6.095081E+03 -3.388991E+03
       182  25  5.280715E+05  9.896383E+04  1.495636E+04  2.091851E+05  1.084508E+03 -2.311046E+03
       182  26  5.562201E+05  1.034717E+05  2.216481E+04  2.107471E+05  3.115811E+03 -3.036975E+03
       182  27  5.759016E+05  1.174729E+05  3.067493E+04  2.223284E+05  5.141673E+03 -3.748755E+03
       183   1  3.517376E+05  3.376568E+04 -2.336660E+04  1.622135E+05 -8.500366E+03  3.397523E+03
       183   2  3.320607E+05  1.864142E+04 -2.349890E+04  1.485364E+05 -1.548136E+04  2.205978E+03
       183   3  3.072410E+05  2.029994E+04 -1.666433E+04  1.432246E+05 -2.233919E+04  6.895906E+02
       183   4  4.757088E+05  7.900016E+04  7.400677E+03  1.951093E+05 -7.443581E+03  3.796253E+03
       183   5  4.787682E+05  7.419799E+04  1.320985E+04  1.895628E+05 -1.466729E+04  2.512963E+03
       183   6  4.767315E+05  8.622498E+04  2.617680E+04  1.923811E+05 -2.176814E+04  9.047169E+02
       183   7  5.996945E+05  1.242353E+05  3.816663E+04  2.280108E+05 -6.386569E+03  4.195063E+03
       183   8  6.254968E+05  1.297561E+05  4.991690E+04  2.305980E+05 -1.385301E+04  2.820028E+03
       183   9  6.462510E+05  1.521529E+05  6.901583E+04  2.415502E+05 -2.119692E+04  1.119914E+03
       183  10  3.517375E+05  3.376565E+04 -2.336676E+04  1.622136E+05  2.832492E-09  2.614194E-09
       183  11  3.320604E+05  1.864135E+04 -2.349936E+04  1.485364E+05  2.210175E-10  1.395320E-08
       183  12  3.072405E+05  2.029981E+04 -1.666527E+04  1.432246E+05 -2.229624E-09  6.168927E-09
       183  13  4.757087E+05  7.900013E+04  7.400546E+03  1.951093E+05 -5.489383E-09 -1.301363E-09
       183  14  4.787680E+05  7.419792E+04  1.320943E+04  1.895628E+05 -6.058197E-09  1.159664E-08
       183  15  4.767310E+05  8.622486E+04  2.617591E+04  1.923811E+05 -6.983550E-09  3.657529E-09
       183  16  5.996944E+05  1.242352E+05  3.816652E+04  2.280109E+05 -2.855945E-09  2.718930E-09
       183  17  6.254966E+05  1.297561E+05  4.991653E+04  2.305981E+05 -6.125868E-09 -2.374724E-09
       183  18  6.462505E+05  1.521527E+05  6.901498E+04  2.415502E+05 -2.615855E-09 -6.572428E-10
       183  19  3.517376E+05  3.376568E+04 -2.336660E+04  1.622135E+05  8.500366E+03 -3.397523E+03
       183  20  3.320607E+05  1.864142E+04 -2.349890E+04  1.485364E+05  1.548136E+04 -2.205978E+03
       183  21  3.072410E+05  2.029994E+04 -1.666433E+04  1.432246E+05  2.233919E+04 -6.895906E+02
       183  22  4.757088E+05  7.900016E+04  7.400677E+03  1.951093E+05  7.443581E+03 -3.796253E+03
       183  23  4.787682E+05  7.419799E+04  1.320985E+04  1.895628E+05  1.466729E+04 -2.512963E+03
       183  24  4.767315E+05  8.622498E+04  2.617680E+04  1.923811E+05  2.176814E+04 -9.047169E+02
       183  25  5.996945E+05  1.242353E+05  3.816663E+04  2.280108E+05  6.386569E+03 -4.195063E+03
       183  26  6.254968E+05  1.297561E+05  4.991690E+04  2.305980E+05  1.385301E+04 -2.820028E+03
       183  27  6.462510E+05  1.521529E+05  6.901583E+04  2.415502E+05  2.119692E+04 -1.119914E+03
       184   1  2.763845E+05  1.296619E+04 -1.551951E+04  1.577307E+05 -2.934781E+04 -1.848330E+02
       184   2  2.622277E+05 -2.348769E+04  1.822337E+03  1.179288E+05 -5.492761E+04 -9.575303E+03
       184   3  2.820775E+05  5.365044E+04  6.686986E+04  6.096296E+04 -7.795208E+04 -2.574020E+04
       184   4  4.809605E+05  7.501639E+04  3.274192E+04  1.991259E+05 -2.667420E+04  8.240947E+02
       184   5  4.705688E+05  6.779453E+04  5.656636E+04  1.888272E+05 -5.729113E+04 -1.046817E+04
       184   6  4.951637E+05  1.751353E+05  1.320741E+05  1.613686E+05 -8.535340E+04 -2.853658E+04
       184   7  6.855782E+05  1.370665E+05  8.100073E+04  2.405321E+05 -2.399962E+04  1.833232E+03
       184   8  6.789516E+05  1.590838E+05  1.113063E+05  2.597483E+05 -5.965549E+04 -1.136149E+04
       184   9  7.082949E+05  2.966418E+05  1.972733E+05  2.618095E+05 -9.275737E+04 -3.133518E+04
       184  10  2.763836E+05  1.296596E+04 -1.552113E+04  1.577307E+05 -3.487826E-09 -9.972047E-10
       184  11  2.622244E+05 -2.348860E+04  1.816498E+03  1.179284E+05 -3.140902E-09 -3.331062E-09
       184  12  2.820708E+05  5.364810E+04  6.685720E+04  6.096134E+04  2.834176E-09  1.801291E-09
       184  13  4.809598E+05  7.501619E+04  3.274059E+04  1.991260E+05 -5.826015E-09  2.732193E-09
       184  14  4.705653E+05  6.779353E+04  5.655999E+04  1.888267E+05 -2.981557E-09 -1.681412E-09
       184  15  4.951556E+05  1.751325E+05  1.320589E+05  1.613666E+05  1.655902E-09  6.511747E-09
       184  16  6.855776E+05  1.370664E+05  8.099964E+04  2.405321E+05 -1.197891E-09 -7.646172E-10
       184  17  6.789478E+05  1.590827E+05  1.112994E+05  2.597478E+05 -5.241960E-09  1.382325E-09
       184  18  7.082854E+05  2.966384E+05  1.972553E+05  2.618072E+05 -6.682527E-09 -1.444885E-09
       184  19  2.763845E+05  1.296619E+04 -1.551951E+04  1.577307E+05  2.934781E+04  1.848330E+02
       184  20  2.622277E+05 -2.348769E+04  1.822337E+03  1.179288E+05  5.492761E+04  9.575303E+03
       184  21  2.820775E+05  5.365044E+04  6.686986E+04  6.096296E+04  7.795208E+04  2.574020E+04
       184  22  4.809605E+05  7.501639E+04  3.274192E+04  1.991259E+05  2.667420E+04 -8.240947E+02
       184  23  4.705688E+05  6.779453E+04  5.656636E+04  1.888272E+05  5.729113E+04  1.046817E+04
       184  24  4.951637E+05  1.751353E+05  1.320741E+05  1.613686E+05  8.535340E+04  2.853658E+04
       184  25  6.855782E+05  1.370665E+05  8.100073E+04  2.405321E+05  2.399962E+04 -1.833232E+03
       184  26  6.789516E+05  1.590838E+05  1.113063E+05  2.597483E+05  5.965549E+04  1.136149E+04
       184  27  7.082949E+05  2.966418E+05  1.972733E+05  2.618095E+05  9.275737E+04  3.133518E+04
       185   1 -1.288476E+05 -6.850231E+05 -1.299024E+05  8.964432E+04 -4.775162E+03 -2.293829E+04
       185   2 -7.805974E+04 -5.438329E+05 -8.174563E+04  5.260743E+04 -1.299153E+04 -8.232641E+03
       185   3 -4.418019E+04 -4.085178E+05 -4.735699E+04  8.093340E+04 -8.333307E+03  6.492480E+03
       185   4 -1.461985E+04 -2.264578E+05 -1.767251E+04  8.289357E+04 -4.788962E+03 -1.136072E+04
       185   5  5.035944E+02 -2.243843E+05 -8.549935E+03  5.022183E+04 -1.299261E+04 -6.839725E+03
       185   6  4.939273E+02 -2.264318E+05 -6.113570E+03  8.291192E+04 -8.324433E+03 -2.302754E+03
       185   7  9.959257E+04  2.322996E+05  9.454255E+04  7.613787E+04 -4.803010E+03  2.253949E+02
       185   8  7.905984E+04  9.515898E+04  6.463906E+04  4.783501E+04 -1.299371E+04 -5.446097E+03
       185   9  4.516582E+04 -4.431479E+04  3.512800E+04  8.489103E+04 -8.315616E+03 -1.110054E+04
       185  10 -1.288478E+05 -6.850236E+05 -1.299035E+05  8.964424E+04  2.445602E-10  1.343784E-09
       185  11 -7.805994E+04 -5.438331E+05 -8.174608E+04  5.260735E+04  8.722264E-10  3.395939E-09
       185  12 -4.418028E+04 -4.085178E+05 -4.735720E+04  8.093345E+04  3.446791E-10  3.363085E-09
       185  13 -1.461991E+04 -2.264580E+05 -1.767280E+04  8.289353E+04  1.410158E-09 -2.114027E-09
       185  14  5.034006E+02 -2.243844E+05 -8.550340E+03  5.022176E+04  1.534777E-11  2.806340E-10
       185  15  4.938515E+02 -2.264318E+05 -6.113710E+03  8.291191E+04  1.309410E-09 -3.175170E-09
       185  16  9.959255E+04  2.322996E+05  9.454250E+04  7.613787E+04  7.693842E-10 -2.291352E-09
       185  17  7.905965E+04  9.515891E+04  6.463869E+04  4.783495E+04  5.067530E-09 -8.499119E-10
       185  18  4.516571E+04 -4.431494E+04  3.512764E+04  8.489096E+04 -5.359976E-10 -2.128853E-09
       185  19 -1.288476E+05 -6.850231E+05 -1.299024E+05  8.964432E+04  4.775162E+03  2.293829E+04
       185  20 -7.805974E+04 -5.438329E+05 -8.174563E+04  5.260743E+04  1.299153E+04  8.232641E+03
       185  21 -4.418019E+04 -4.085178E+05 -4.735699E+04  8.093340E+04  8.333307E+03 -6.492480E+03
       185  22 -1.461985E+04 -2.264578E+05 -1.767251E+04  8.289357E+04  4.788962E+03  1.136072E+04
       185  23  5.035944E+02 -2.243843E+05 -8.549935E+03  5.022183E+04  1.299261E+04  6.839725E+03
       185  24  4.939273E+02 -2.264318E+05 -6.113570E+03  8.291192E+04  8.324433E+03  2.302754E+03
       185  25  9.959257E+04  2.322996E+05  9.454255E+04  7.613787E+04  4.803010E+03 -2.253949E+02
       185  26  7.905984E+04  9.515898E+04  6.463906E+04  4.783501E+04  1.299371E+04  5.446097E+03
       185  27  4.516582E+04 -4.431479E+04  3.512800E+04  8.489103E+04  8.315616E+03  1.110054E+04
       186   1 -1.536813E+04 -2.841125E+05 -1.889716E+04  8.369308E+04 -2.668143E+03  3.781312E+03
       186   2  1.963079E+04 -1.454550E+05  1.267378E+04  4.996406E+04  3.687027E+03  6.356635E+03
       186   3  5.172911E+04 -7.647684E+03  4.188236E+04  8.209922E+04  9.859130E+03  8.933070E+03
       186   4 -1.035910E+03 -2.257078E+05 -5.665298E+03  8.301856E+04 -2.663228E+03 -1.325133E+03
       186   5  5.507228E+01 -2.252642E+05 -5.378296E+03  5.008572E+04  3.692108E+03  1.394524E+03
       186   6 -1.778609E+03 -2.257141E+05 -7.553258E+03  8.301778E+04  9.864305E+03  4.114738E+03
       186   7  1.329609E+04 -1.672998E+05  7.566447E+03  8.234397E+04 -2.658303E+03 -6.432055E+03
       186   8 -1.952107E+04 -3.050675E+05 -2.343069E+04  5.020738E+04  3.697187E+03 -3.566954E+03
       186   9 -5.528959E+04 -4.437363E+05 -5.699186E+04  8.393603E+04  9.869468E+03 -7.019183E+02
       186  10 -1.536814E+04 -2.841126E+05 -1.889721E+04  8.369309E+04  2.409641E-09  2.530224E-09
       186  11  1.963076E+04 -1.454550E+05  1.267368E+04  4.996404E+04  2.204683E-09  4.909853E-09
       186  12  5.172898E+04 -7.647796E+03  4.188203E+04  8.209915E+04  2.482792E-10  5.827534E-09
       186  13 -1.035919E+03 -2.257078E+05 -5.665314E+03  8.301856E+04  9.317045E-10 -1.086307E-09
       186  14  5.505713E+01 -2.252642E+05 -5.378326E+03  5.008572E+04  2.749395E-09  7.509203E-10
       186  15 -1.778718E+03 -2.257141E+05 -7.553473E+03  8.301775E+04  1.754061E-09 -8.061572E-09
       186  16  1.329607E+04 -1.672999E+05  7.566356E+03  8.234396E+04  3.729512E-10 -6.409921E-09
       186  17 -1.952109E+04 -3.050675E+05 -2.343074E+04  5.020739E+04  2.683239E-09 -3.988260E-09
       186  18 -5.528969E+04 -4.437363E+05 -5.699204E+04  8.393603E+04 -6.843787E-11 -5.198245E-09
       186  19 -1.536813E+04 -2.841125E+05 -1.889716E+04  8.369308E+04  2.668143E+03 -3.781312E+03
       186  20  1.963079E+04 -1.454550E+05  1.267378E+04  4.996406E+04 -3.687027E+03 -6.356635E+03
       186  21  5.172911E+04 -7.647684E+03  4.188236E+04  8.209922E+04 -9.859130E+03 -8.933070E+03
       186  22 -1.035910E+03 -2.257078E+05 -5.665298E+03  8.301856E+04  2.663228E+03  1.325133E+03
       186  23  5.507228E+01 -2.252642E+05 -5.378296E+03  5.008572E+04 -3.692108E+03 -1.394524E+03
       186  24 -1.778609E+03 -2.257141E+05 -7.553258E+03  8.301778E+04 -9.864305E+03 -4.114738E+03
       186  25  1.329609E+04 -1.672998E+05  7.566447E+03  8.234397E+04  2.658303E+03  6.432055E+03
       186  26 -1.952107E+04 -3.050675E+05 -2.343069E+04  5.020738E+04 -3.697187E+03  3.566954E+03
       186  27 -5.528959E+04 -4.437363E+05 -5.699186E+04  8.393603E+04 -9.869468E+03  7.019183E+02
       187   1  8.487113E+04  1.147398E+05  6.837343E+04  8.621661E+04  1.591567E+04  1.522707E+04
       187   2  1.186087E+05  2.553749E+05  9.559527E+04  4.621931E+04  1.983356E+04  9.297427E+03
       187   3  1.289913E+05  3.912992E+05  1.209077E+05  7.137227E+04  6.917786E+03  3.342405E+03
       187   4  1.060480E+03 -2.270975E+05 -8.873531E+03  8.287066E+04  1.592679E+04  5.457902E+03
       187   5  9.055331E+02 -2.235934E+05 -1.391245E+04  5.027527E+04  1.983007E+04  1.286067E+04
       187   6 -2.492786E+04 -2.271368E+05 -3.012304E+04  8.283463E+04  6.893766E+03  2.023906E+04
       187   7 -8.275811E+04 -5.688259E+05 -8.612763E+04  7.952659E+04  1.593802E+04 -4.305940E+03
       187   8 -1.168136E+05 -7.023491E+05 -1.234352E+05  5.432814E+04  1.982663E+04  1.642118E+04
       187   9 -1.788746E+05 -8.452234E+05 -1.811805E+05  9.428565E+04  6.870358E+03  3.711893E+04
       187  10  8.487080E+04  1.147394E+05  6.837252E+04  8.621641E+04  8.945113E-10  2.258224E-09
       187  11  1.186083E+05  2.553747E+05  9.559437E+04  4.621916E+04 -3.945349E-09  4.089046E-09
       187  12  1.289912E+05  3.912991E+05  1.209076E+05  7.137225E+04 -1.840008E-09  3.216868E-09
       187  13  1.060199E+03 -2.270976E+05 -8.874064E+03  8.287059E+04  3.564432E-10 -4.339480E-09
       187  14  9.050665E+02 -2.235937E+05 -1.391350E+04  5.027506E+04  3.598355E-10 -5.881005E-10
       187  15 -2.492802E+04 -2.271373E+05 -3.012389E+04  8.283452E+04 -2.555807E-09 -7.774099E-09
       187  16 -8.275838E+04 -5.688260E+05 -8.612814E+04  7.952664E+04 -1.949151E-10 -4.091209E-09
       187  17 -1.168141E+05 -7.023495E+05 -1.234364E+05  5.432787E+04  7.072470E-10 -2.886258E-09
       187  18 -1.788750E+05 -8.452249E+05 -1.811832E+05  9.428545E+04 -1.388514E-09 -3.787043E-09
       187  19  8.487113E+04  1.147398E+05  6.837343E+04  8.621661E+04 -1.591567E+04 -1.522707E+04
       187  20  1.186087E+05  2.553749E+05  9.559527E+04  4.621931E+04 -1.983356E+04 -9.297427E+03
       187  21  1.289913E+05  3.912992E+05  1.209077E+05  7.137227E+04 -6.917786E+03 -3.342405E+03
       187  22  1.060480E+03 -2.270975E+05 -8.873531E+03  8.287066E+04 -1.592679E+04 -5.457902E+03
       187  23  9.055331E+02 -2.235934E+05 -1.391245E+04  5.027527E+04 -1.983007E+04 -1.286067E+04
       187  24 -2.492786E+04 -2.271368E+05 -3.012304E+04  8.283463E+04 -6.893766E+03 -2.023906E+04
       187  25 -8.275811E+04 -5.688259E+05 -8.612763E+04  7.952659E+04 -1.593802E+04  4.305940E+03
       187  26 -1.168136E+05 -7.023491E+05 -1.234352E+05  5.432814E+04 -1.982663E+04 -1.642118E+04
       187  27 -1.788746E+05 -8.452234E+05 -1.811805E+05  9.428565E+04 -6.870358E+03 -3.711893E+04
       188   1  2.805668E+05  1.427837E+05  1.300059E+05  3.539370E+04  2.745209E+04 -1.005277E+04
       188   2  2.245766E+05  1.500960E+05  1.091623E+05  4.168108E+04  8.145985E+03 -3.364204E+04
       188   3  1.672744E+05  1.419921E+05  9.704870E+04  5.945531E+04 -1.116879E+04 -4.012595E+04
       188   4 -4.407086E+05 -3.526968E+04 -3.914185E+04  5.706277E+04 -2.729139E+04 -1.009706E+04
       188   5 -4.375016E+05 -7.951202E+03 -1.904000E+04  5.130248E+04 -1.744109E+04 -3.366858E+04
       188   6 -4.406776E+05 -1.121289E+03 -1.046009E+04  5.702986E+04 -7.601540E+03 -4.012563E+04
       188   7 -1.161497E+06 -2.133566E+05 -2.083136E+05  7.870641E+04 -8.197167E+04 -1.014519E+04
       188   8 -1.099157E+06 -1.660238E+05 -1.472603E+05  6.091329E+04 -4.300149E+04 -3.369593E+04
       188   9 -1.048268E+06 -1.442550E+05 -1.179825E+05  5.460675E+04 -4.037680E+03 -4.012534E+04
       188  10  2.805660E+05  1.427834E+05  1.300043E+05  3.539392E+04  2.509727E-09 -7.471479E-10
       188  11  2.245762E+05  1.500947E+05  1.091600E+05  4.168130E+04  3.861711E-10 -2.987397E-09
       188  12  1.672738E+05  1.419903E+05  9.704544E+04  5.945495E+04  2.302584E-10 -1.555194E-09
       188  13 -4.407095E+05 -3.526999E+04 -3.914344E+04  5.706255E+04 -2.296890E-09 -2.775116E-10
       188  14 -4.375022E+05 -7.952501E+03 -1.904270E+04  5.130201E+04 -2.601811E-09 -2.740790E-09
       188  15 -4.406781E+05 -1.123033E+03 -1.046322E+04  5.702961E+04  3.817245E-09 -2.034208E-10
       188  16 -1.161505E+06 -2.133586E+05 -2.083265E+05  7.870574E+04 -3.235383E-09 -5.711613E-10
       188  17 -1.099159E+06 -1.660255E+05 -1.472659E+05  6.091213E+04 -1.717735E-10 -4.954245E-09
       188  18 -1.048269E+06 -1.442567E+05 -1.179855E+05  5.460662E+04  1.399810E-09 -3.043199E-09
       188  19  2.805668E+05  1.427837E+05  1.300059E+05  3.539370E+04 -2.745209E+04  1.005277E+04
       188  20  2.245766E+05  1.500960E+05  1.091623E+05  4.168108E+04 -8.145985E+03  3.364204E+04
       188  21  1.672744E+05  1.419921E+05  9.704870E+04  5.945531E+04  1.116879E+04  4.012595E+04
       188  22 -4.407086E+05 -3.526968E+04 -3.914185E+04  5.706277E+04  2.729139E+04  1.009706E+04
       188  23 -4.375016E+05 -7.951202E+03 -1.904000E+04  5.130248E+04  1.744109E+04  3.366858E+04
       188  24 -4.406776E+05 -1.121289E+03 -1.046009E+04  5.702986E+04  7.601540E+03  4.012563E+04
       188  25 -1.161497E+06 -2.133566E+05 -2.083136E+05  7.870641E+04  8.197167E+04  1.014519E+04
       188  26 -1.099157E+06 -1.660238E+05 -1.472603E+05  6.091329E+04  4.300149E+04  3.369593E+04
       188  27 -1.048268E+06 -1.442550E+05 -1.179825E+05  5.460675E+04  4.037680E+03  4.012534E+04
       189   1  1.309372E+05  1.324764E+05  9.187253E+04  5.709537E+04 -7.970646E+03 -3.856140E+04
       189   2  7.437211E+04  1.200444E+05  8.322426E+04  5.123008E+04 -8.431246E+03 -3.677354E+04
       189   3  1.770990E+04  1.070032E+05  7.472278E+04  5.799283E+04 -8.894694E+03 -3.343185E+04
       189   4 -4.393757E+05 -1.568765E+03 -7.959109E+03  5.728748E+04 -6.242584E+03 -3.856263E+04
       189   5 -4.390860E+05 -1.874909E+02 -4.380741E+03  5.097207E+04 -4.056613E+03 -3.677103E+04
       189   6 -4.393557E+05  1.248815E+02 -2.494302E+03  5.728537E+04 -1.873487E+03 -3.342496E+04
       189   7 -1.009370E+06 -1.356316E+05 -1.078024E+05  5.747931E+04 -4.516061E+03 -3.856385E+04
       189   8 -9.522847E+05 -1.204334E+05 -9.199439E+04  5.071419E+04  3.145167E+02 -3.676853E+04
       189   9 -8.962153E+05 -1.067644E+05 -7.971789E+04  5.657837E+04  5.142720E+03 -3.341809E+04
       189  10  1.309367E+05  1.324748E+05  9.186962E+04  5.709512E+04  5.334495E-08 -5.583084E-10
       189  11  7.437167E+04  1.200429E+05  8.322159E+04  5.122983E+04 -1.342933E-09  3.270606E-09
       189  12  1.770951E+04  1.070020E+05  7.472053E+04  5.799259E+04 -5.551798E-08  1.837282E-09
       189  13 -4.393761E+05 -1.570372E+03 -7.961977E+03  5.728729E+04  2.382242E-11  1.961324E-10
       189  14 -4.390864E+05 -1.889470E+02 -4.383313E+03  5.097195E+04  1.046391E-09  2.352014E-09
       189  15 -4.393560E+05  1.236811E+02 -2.496408E+03  5.728532E+04  2.383486E-09 -6.503564E-10
       189  16 -1.009370E+06 -1.356332E+05 -1.078052E+05  5.747917E+04 -5.384556E-08  1.479078E-09
       189  17 -9.522850E+05 -1.204349E+05 -9.199693E+04  5.071420E+04  3.217980E-09  2.893952E-09
       189  18 -8.962156E+05 -1.067656E+05 -7.972004E+04  5.657851E+04  5.470351E-08  1.296558E-09
       189  19  1.309372E+05  1.324764E+05  9.187253E+04  5.709537E+04  7.970646E+03  3.856140E+04
       189  20  7.437211E+04  1.200444E+05  8.322426E+04  5.123008E+04  8.431246E+03  3.677354E+04
       189  21  1.770990E+04  1.070032E+05  7.472278E+04  5.799283E+04  8.894694E+03  3.343185E+04
       189  22 -4.393757E+05 -1.568765E+03 -7.959109E+03  5.728748E+04  6.242584E+03  3.856263E+04
       189  23 -4.390860E+05 -1.874909E+02 -4.380741E+03  5.097207E+04  4.056613E+03  3.677103E+04
       189  24 -4.393557E+05  1.248815E+02 -2.494302E+03  5.728537E+04  1.873487E+03  3.342496E+04
       189  25 -1.009370E+06 -1.356316E+05 -1.078024E+05  5.747931E+04  4.516061E+03  3.856385E+04
       189  26 -9.522847E+05 -1.204334E+05 -9.199439E+04  5.071419E+04 -3.145167E+02  3.676853E+04
       189  27 -8.962153E+05 -1.067644E+05 -7.971789E+04  5.657837E+04 -5.142720E+03  3.341809E+04
       190   1 -1.910224E+04  9.828399E+04  6.878684E+04  5.782930E+04 -8.350231E+03 -3.100183E+04
       190   2 -7.576184E+04  8.506011E+04  5.996086E+04  5.139257E+04 -8.059931E+03 -2.690639E+04
       190   3 -1.324789E+05  7.185697E+04  5.094339E+04  5.770317E+04 -7.770938E+03 -2.266832E+04
       190   4 -4.392480E+05  9.678345E+01 -1.895830E+03  5.731213E+04 -1.493049E+03 -3.099451E+04
       190   5 -4.391896E+05  1.441609E+02 -1.085314E+03  5.093819E+04 -9.603020E+02 -2.689785E+04
       190   6 -4.392341E+05  1.702298E+02 -6.349970E+02  5.731202E+04 -4.288368E+02 -2.265849E+04
       190   7 -8.592195E+05 -9.809966E+04 -7.258389E+04  5.679525E+04  5.359644E+03 -3.098721E+04
       190   8 -8.024870E+05 -8.477869E+04 -6.213544E+04  5.048404E+04  6.135307E+03 -2.688931E+04
       190   9 -7.458964E+05 -7.152142E+04 -5.221615E+04  5.692104E+04  6.909755E+03 -2.264867E+04
       190  10 -1.910258E+04  9.828294E+04  6.878490E+04  5.782909E+04 -4.187812E-09  1.690890E-09
       190  11 -7.576210E+04  8.505932E+04  5.995938E+04  5.139239E+04  7.721707E-10  9.197540E-10
       190  12 -1.324791E+05  7.185640E+04  5.094231E+04  5.770303E+04  2.681508E-09 -1.493689E-09
       190  13 -4.392482E+05  9.575149E+01 -1.897639E+03  5.731209E+04  1.403212E-09 -2.187666E-09
       190  14 -4.391898E+05  1.433839E+02 -1.086675E+03  5.093817E+04 -1.750171E-10  1.194149E-09
       190  15 -4.392343E+05  1.696785E+02 -6.359619E+02  5.731201E+04  2.137510E-09  1.797244E-09
       190  16 -8.592198E+05 -9.810070E+04 -7.258575E+04  5.679539E+04  2.089918E-09  9.081039E-10
       190  17 -8.024872E+05 -8.477948E+04 -6.213687E+04  5.048417E+04  3.236060E-09  1.555695E-09
       190  18 -7.458966E+05 -7.152198E+04 -5.221720E+04  5.692117E+04 -3.550944E-09 -6.749589E-10
       190  19 -1.910224E+04  9.828399E+04  6.878684E+04  5.782930E+04  8.350231E+03  3.100183E+04
       190  20 -7.576184E+04  8.506011E+04  5.996086E+04  5.139257E+04  8.059931E+03  2.690639E+04
       190  21 -1.324789E+05  7.185697E+04  5.094339E+04  5.770317E+04  7.770938E+03  2.266832E+04
       190  22 -4.392480E+05  9.678345E+01 -1.895830E+03  5.731213E+04  1.493049E+03  3.099451E+04
       190  23 -4.391896E+05  1.441609E+02 -1.085314E+03  5.093819E+04  9.603020E+02  2.689785E+04
       190  24 -4.392341E+05  1.702298E+02 -6.349970E+02  5.731202E+04  4.288368E+02  2.265849E+04
       190  25 -8.592195E+05 -9.809966E+04 -7.258389E+04  5.679525E+04 -5.359644E+03  3.098721E+04
       190  26 -8.024870E+05 -8.477869E+04 -6.213544E+04  5.048404E+04 -6.135307E+03  2.688931E+04
       190  27 -7.458964E+05 -7.152142E+04 -5.221615E+04  5.692104E+04 -6.909755E+03  2.264867E+04
       191   1 -1.693564E+05  6.319031E+04  4.464648E+04  5.765634E+04 -7.659429E+03 -2.015698E+04
       191   2 -2.260768E+05  4.994380E+04  3.541501E+04  5.119757E+04 -7.532300E+03 -1.584830E+04
       191   3 -2.828414E+05  3.673662E+04  2.609902E+04  5.750798E+04 -7.405861E+03 -1.152635E+04
       191   4 -4.392188E+05  1.710604E+02 -4.933511E+02  5.731686E+04 -3.303360E+02 -2.014673E+04
       191   5 -4.391886E+05  1.592777E+02 -3.141835E+02  5.093214E+04 -1.810352E+02 -1.583746E+04
       191   6 -4.392107E+05  1.828477E+02 -2.353533E+02  5.731685E+04 -3.241424E+01 -1.151493E+04
       191   7 -7.090091E+05 -6.285197E+04 -4.563524E+04  5.697750E+04  6.995676E+03 -2.013648E+04
       191   8 -6.522555E+05 -4.962759E+04 -3.604459E+04  5.066678E+04  7.167788E+03 -1.582663E+04
       191   9 -5.955558E+05 -3.637218E+04 -2.657030E+04  5.712575E+04  7.339235E+03 -1.150351E+04
       191  10 -1.693566E+05  6.318986E+04  4.464561E+04  5.765622E+04  2.768304E-08 -6.981631E-10
       191  11 -2.260769E+05  4.994352E+04  3.541443E+04  5.119747E+04 -3.338108E-09  3.651966E-09
       191  12 -2.828415E+05  3.673646E+04  2.609867E+04  5.750792E+04 -2.979015E-08  3.359423E-09
       191  13 -4.392189E+05  1.706246E+02 -4.941139E+02  5.731685E+04  2.144447E-09 -3.418832E-10
       191  14 -4.391887E+05  1.590084E+02 -3.146548E+02  5.093213E+04  1.076425E-09  4.006369E-09
       191  15 -4.392107E+05  1.827053E+02 -2.356024E+02  5.731685E+04  2.041868E-12  6.223312E-10
       191  16 -7.090092E+05 -6.285241E+04 -4.563609E+04  5.697761E+04 -3.089605E-08 -2.234859E-10
       191  17 -6.522556E+05 -4.962788E+04 -3.604516E+04  5.066687E+04  2.586507E-09  2.338721E-09
       191  18 -5.955559E+05 -3.637234E+04 -2.657065E+04  5.712582E+04  3.083403E-08  1.134665E-09
       191  19 -1.693564E+05  6.319031E+04  4.464648E+04  5.765634E+04  7.659429E+03  2.015698E+04
       191  20 -2.260768E+05  4.994380E+04  3.541501E+04  5.119757E+04  7.532300E+03  1.584830E+04
       191  21 -2.828414E+05  3.673662E+04  2.609902E+04  5.750798E+04  7.405861E+03  1.152635E+04
       191  22 -4.392188E+05  1.710604E+02 -4.933511E+02  5.731686E+04  3.303360E+02  2.014673E+04
       191  23 -4.391886E+05  1.592777E+02 -3.141835E+02  5.093214E+04  1.810352E+02  1.583746E+04
       191  24 -4.392107E+05  1.828477E+02 -2.353533E+02  5.731685E+04  3.241424E+01  1.151493E+04
       191  25 -7.090091E+05 -6.285197E+04 -4.563524E+04  5.697750E+04 -6.995676E+03  2.013648E+04
       191  26 -6.522555E+05 -4.962759E+04 -3.604459E+04  5.066678E+04 -7.167788E+03  1.582663E+04
       191  27 -5.955558E+05 -3.637218E+04 -2.657030E+04  5.712575E+04 -7.339235E+03  1.150351E+04
       192   1 -3.197518E+05  2.806705E+04  1.967408E+04  5.746221E+04 -7.368272E+03 -9.006172E+03
       192   2 -3.764906E+05  1.481560E+04  1.024403E+04  5.099317E+04 -7.236687E+03 -4.680099E+03
       192   3 -4.332835E+05  1.598657E+03  7.229562E+02  5.730170E+04 -7.105296E+03 -3.605433E+02
       192   4 -4.392092E+05  1.852458E+02 -2.250987E+02  5.731867E+04  5.535601E+00 -8.994535E+03
       192   5 -4.391808E+05  1.715116E+02 -2.568000E+02  5.092985E+04  1.257427E+02 -4.668320E+03
       192   6 -4.392069E+05  1.946008E+02 -3.714970E+02  5.731867E+04  2.457671E+02 -3.486175E+02
       192   7 -5.586524E+05 -2.769728E+04 -2.012451E+04  5.717516E+04  7.377971E+03 -8.982901E+03
       192   8 -5.018670E+05 -1.447275E+04 -1.075755E+04  5.086653E+04  7.487453E+03 -4.656541E+03
       192   9 -4.451301E+05 -1.209428E+03 -1.465749E+03  5.733563E+04  7.596762E+03 -3.366914E+02
       192  10 -3.197519E+05  2.806695E+04  1.967383E+04  5.746216E+04  3.990693E-09  6.983586E-10
       192  11 -3.764906E+05  1.481556E+04  1.024389E+04  5.099314E+04 -1.950812E-09 -1.430133E-09
       192  12 -4.332836E+05  1.598643E+03  7.228611E+02  5.730170E+04 -6.167107E-09 -1.380652E-09
       192  13 -4.392093E+05  1.851590E+02 -2.252507E+02  5.731867E+04  7.477187E-10  3.953581E-09
       192  14 -4.391808E+05  1.714882E+02 -2.568409E+02  5.092985E+04  6.417735E-10 -1.750208E-11
       192  15 -4.392069E+05  1.946007E+02 -3.714974E+02  5.731867E+04  9.584409E-10 -3.107049E-10
       192  16 -5.586525E+05 -2.769738E+04 -2.012477E+04  5.717521E+04 -5.295264E-09  2.273428E-09
       192  17 -5.018670E+05 -1.447279E+04 -1.075769E+04  5.086656E+04  3.925565E-10 -1.014887E-09
       192  18 -4.451302E+05 -1.209444E+03 -1.465857E+03  5.733563E+04  5.697162E-09  3.632202E-10
       192  19 -3.197518E+05  2.806705E+04  1.967408E+04  5.746221E+04  7.368272E+03  9.006172E+03
       192  20 -3.764906E+05  1.481560E+04  1.024403E+04  5.099317E+04  7.236687E+03  4.680099E+03
       192  21 -4.332835E+05  1.598657E+03  7.229562E+02  5.730170E+04  7.105296E+03  3.605433E+02
       192  22 -4.392092E+05  1.852458E+02 -2.250987E+02  5.731867E+04 -5.535601E+00  8.994535E+03
       192  23 -4.391808E+05  1.715116E+02 -2.568000E+02  5.092985E+04 -1.257427E+02  4.668320E+03
       192  24 -4.392069E+05  1.946008E+02 -3.714970E+02  5.731867E+04 -2.457671E+02  3.486175E+02
       192  25 -5.586524E+05 -2.769728E+04 -2.012451E+04  5.717516E+04 -7.377971E+03  8.982901E+03
       192  26 -5.018670E+05 -1.447275E+04 -1.075755E+04  5.086653E+04 -7.487453E+03  4.656541E+03
       192  27 -4.451301E+05 -1.209428E+03 -1.465749E+03  5.733563E+04 -7.596762E+03  3.366914E+02
       193   1 -4.702107E+05 -7.074038E+03 -5.816205E+03  5.724290E+04 -7.042500E+03  2.156664E+03
       193   2 -5.269088E+05 -2.033702E+04 -1.558105E+04  5.077414E+04 -6.509631E+03  6.435126E+03
       193   3 -5.837280E+05 -3.362924E+04 -2.571405E+04  5.707668E+04 -5.976413E+03  1.062486E+04
       193   4 -4.392167E+05  1.976628E+02 -4.689300E+02  5.731721E+04  3.176304E+02  2.168585E+03
       193   5 -4.391694E+05  1.802953E+02 -7.845408E+02  5.093165E+04  6.991447E+02  6.446576E+03
       193   6 -4.392201E+05  1.601060E+02 -1.363212E+03  5.731728E+04  1.081056E+03  1.063585E+04
       193   7 -4.082216E+05  7.469341E+03  4.878516E+03  5.739152E+04  7.678117E+03  2.180508E+03
       193   8 -3.514223E+05  2.069723E+04  1.401192E+04  5.108918E+04  7.908907E+03  6.458030E+03
       193   9 -2.946915E+05  3.394838E+04  2.298715E+04  5.755792E+04  8.140115E+03  1.064684E+04
       193  10 -4.702108E+05 -7.074056E+03 -5.816307E+03  5.724292E+04 -2.018276E-09  1.792395E-09
       193  11 -5.269089E+05 -2.033707E+04 -1.558121E+04  5.077418E+04 -3.928900E-09  1.251626E-09
       193  12 -5.837281E+05 -3.362937E+04 -2.571433E+04  5.707673E+04 -5.813837E-09  9.427021E-10
       193  13 -4.392167E+05  1.976578E+02 -4.689390E+02  5.731721E+04  1.163820E-11  1.215879E-09
       193  14 -4.391694E+05  1.802505E+02 -7.846198E+02  5.093165E+04 -2.966542E-09  6.349483E-10
       193  15 -4.392202E+05  1.599842E+02 -1.363427E+03  5.731727E+04  1.157646E-09 -1.458224E-10
       193  16 -4.082217E+05  7.469320E+03  4.878397E+03  5.739151E+04  2.707508E-09  3.186232E-09
       193  17 -3.514224E+05  2.069717E+04  1.401172E+04  5.108914E+04  6.386917E-09 -4.203457E-09
       193  18 -2.946917E+05  3.394824E+04  2.298682E+04  5.755785E+04  5.304729E-09 -2.006668E-09
       193  19 -4.702107E+05 -7.074038E+03 -5.816205E+03  5.724290E+04  7.042500E+03 -2.156664E+03
       193  20 -5.269088E+05 -2.033702E+04 -1.558105E+04  5.077414E+04  6.509631E+03 -6.435126E+03
       193  21 -5.837280E+05 -3.362924E+04 -2.571405E+04  5.707668E+04  5.976413E+03 -1.062486E+04
       193  22 -4.392167E+05  1.976628E+02 -4.689300E+02  5.731721E+04 -3.176304E+02 -2.168585E+03
       193  23 -4.391694E+05  1.802953E+02 -7.845408E+02  5.093165E+04 -6.991447E+02 -6.446576E+03
       193  24 -4.392201E+05  1.601060E+02 -1.363212E+03  5.731728E+04 -1.081056E+03 -1.063585E+04
       193  25 -4.082216E+05  7.469341E+03  4.878516E+03  5.739152E+04 -7.678117E+03 -2.180508E+03
       193  26 -3.514223E+05  2.069723E+04  1.401192E+04  5.108918E+04 -7.908907E+03 -6.458030E+03
       193  27 -2.946915E+05  3.394838E+04  2.298715E+04  5.755792E+04 -8.140115E+03 -1.064684E+04
       194   1 -6.207489E+05 -4.230184E+04 -3.264799E+04  5.689811E+04 -5.808432E+03  1.309253E+04
       194   2 -6.771181E+05 -5.585671E+04 -4.402909E+04  5.082392E+04 -2.585381E+03  1.681532E+04
       194   3 -7.342039E+05 -7.045449E+04 -5.778204E+04  5.745153E+04  6.393127E+02  1.956237E+04
       194   4 -4.392966E+05  1.831778E+02 -1.791629E+03  5.730152E+04  1.352483E+03  1.310343E+04
       194   5 -4.390855E+05 -4.199284E+01 -3.141332E+03  5.095168E+04  2.914573E+03  1.682312E+04
       194   6 -4.393062E+05 -1.021327E+03 -5.708481E+03  5.730337E+04  4.478615E+03  1.956725E+04
       194   7 -2.578118E+05  4.266647E+04  2.906385E+04  5.770504E+04  8.515426E+03  1.311435E+04
       194   8 -2.009972E+05  5.576971E+04  3.774462E+04  5.107947E+04  8.416572E+03  1.683092E+04
       194   9 -1.443233E+05  6.840707E+04  4.636194E+04  5.715510E+04  8.319688E+03  1.957213E+04
       194  10 -6.207490E+05 -4.230203E+04 -3.264838E+04  5.689817E+04 -5.826763E-08  2.491475E-09
       194  11 -6.771182E+05 -5.585702E+04 -4.402963E+04  5.082395E+04  2.695192E-09 -1.781458E-09
       194  12 -7.342040E+05 -7.045490E+04 -5.778276E+04  5.745152E+04  5.914118E-08  1.628348E-09
       194  13 -4.392967E+05  1.829930E+02 -1.791955E+03  5.730150E+04  2.153628E-09  2.831115E-11
       194  14 -4.390856E+05 -4.229896E+01 -3.141880E+03  5.095164E+04  2.708009E-10 -1.399279E-09
       194  15 -4.393063E+05 -1.021744E+03 -5.709238E+03  5.730330E+04  4.490584E-09 -1.333675E-09
       194  16 -2.578119E+05  4.266627E+04  2.906339E+04  5.770495E+04  5.855265E-08 -1.491712E-09
       194  17 -2.009973E+05  5.576938E+04  3.774396E+04  5.107935E+04  5.903962E-10 -2.092386E-09
       194  18 -1.443235E+05  6.840664E+04  4.636109E+04  5.715496E+04 -6.107374E-08 -4.892121E-09
       194  19 -6.207489E+05 -4.230184E+04 -3.264799E+04  5.689811E+04  5.808432E+03 -1.309253E+04
       194  20 -6.771181E+05 -5.585671E+04 -4.402909E+04  5.082392E+04  2.585381E+03 -1.681532E+04
       194  21 -7.342039E+05 -7.045449E+04 -5.778204E+04  5.745153E+04 -6.393127E+02 -1.956237E+04
       194  22 -4.392966E+05  1.831778E+02 -1.791629E+03  5.730152E+04 -1.352483E+03 -1.310343E+04
       194  23 -4.390855E+05 -4.199284E+01 -3.141332E+03  5.095168E+04 -2.914573E+03 -1.682312E+04
       194  24 -4.393062E+05 -1.021327E+03 -5.708481E+03  5.730337E+04 -4.478615E+03 -1.956725E+04
       194  25 -2.578118E+05  4.266647E+04  2.906385E+04  5.770504E+04 -8.515426E+03 -1.311435E+04
       194  26 -2.009972E+05  5.576971E+04  3.774462E+04  5.107947E+04 -8.416572E+03 -1.683092E+04
       194  27 -1.443233E+05  6.840707E+04  4.636194E+04  5.715510E+04 -8.319688E+03 -1.957213E+04
       195   1 -7.725348E+05 -7.906902E+04 -6.680156E+04  5.538130E+04  4.581331E+02  2.148506E+04
       195   2 -8.254051E+05 -9.829216E+04 -8.945888E+04  5.799037E+04  2.580329E+04  1.907908E+04
       195   3 -8.860716E+05 -1.353953E+05 -1.331034E+05  7.259323E+04  5.115867E+04  5.924288E+03
       195   4 -4.402399E+05 -6.981406E+02 -7.502296E+03  5.714173E+04  5.451491E+03  2.149130E+04
       195   5 -4.379419E+05 -5.604749E+03 -1.365327E+04  5.116150E+04  1.250333E+04  1.905948E+04
       195   6 -4.402594E+05 -2.520674E+04 -2.807384E+04  5.717556E+04  1.956790E+04  5.881216E+03
       195   7 -1.078371E+05  7.766664E+04  5.179288E+04  5.890309E+04  1.044745E+04  2.149757E+04
       195   8 -5.033414E+04  8.707390E+04  6.214582E+04  4.432823E+04 -8.047638E+02  1.904018E+04
       195   9  5.738611E+03  8.496907E+04  7.694590E+04  4.174668E+04 -1.204545E+04  5.839733E+03
       195  10 -7.725349E+05 -7.906951E+04 -6.680243E+04  5.538130E+04 -3.788520E-09  3.068851E-09
       195  11 -8.254059E+05 -9.829273E+04 -8.946082E+04  5.798997E+04 -3.542801E-09  1.657795E-09
       195  12 -8.860745E+05 -1.353961E+05 -1.331084E+05  7.259299E+04  3.265468E-09  6.021833E-10
       195  13 -4.402401E+05 -6.986444E+02 -7.503219E+03  5.714164E+04 -3.277227E-10  2.607882E-09
       195  14 -4.379422E+05 -5.605181E+03 -1.365425E+04  5.116131E+04 -9.176289E-10  4.630393E-10
       195  15 -4.402598E+05 -2.520688E+04 -2.807463E+04  5.717547E+04 -1.009562E-09  1.372468E-09
       195  16 -1.078374E+05  7.766612E+04  5.179181E+04  5.890291E+04  5.617857E-09  1.101032E-10
       195  17 -5.033424E+04  8.707351E+04  6.214514E+04  4.432824E+04  6.643216E-10  2.528191E-09
       195  18  5.738446E+03  8.496900E+04  7.694556E+04  4.174674E+04 -2.591012E-09  8.018267E-10
       195  19 -7.725348E+05 -7.906902E+04 -6.680156E+04  5.538130E+04 -4.581331E+02 -2.148506E+04
       195  20 -8.254051E+05 -9.829216E+04 -8.945888E+04  5.799037E+04 -2.580329E+04 -1.907908E+04
       195  21 -8.860716E+05 -1.353953E+05 -1.331034E+05  7.259323E+04 -5.115867E+04 -5.924288E+03
       195  22 -4.402399E+05 -6.981406E+02 -7.502296E+03  5.714173E+04 -5.451491E+03 -2.149130E+04
       195  23 -4.379419E+05 -5.604749E+03 -1.365327E+04  5.116150E+04 -1.250333E+04 -1.905948E+04
       195  24 -4.402594E+05 -2.520674E+04 -2.807384E+04  5.717556E+04 -1.956790E+04 -5.881216E+03
       195  25 -1.078371E+05  7.766664E+04  5.179288E+04  5.890309E+04 -1.044745E+04 -2.149757E+04
       195  26 -5.033414E+04  8.707390E+04  6.214582E+04  4.432823E+04  8.047638E+02 -1.904018E+04
       195  27  5.738611E+03  8.496907E+04  7.694590E+04  4.174668E+04  1.204545E+04 -5.839733E+03
       196   1 -8.983933E+04  7.595557E+04  6.301989E+04  2.059168E+03 -2.420339E+04 -6.256447E+03
       196   2 -1.225583E+05  1.141709E+05  7.806776E+04  6.898762E+03 -2.039469E+04 -1.943164E+04
       196   3 -1.675330E+05  1.051978E+05  7.885940E+04  2.971471E+04 -1.660266E+04 -1.986954E+04
       196   4 -5.858805E+05 -4.739362E+04 -5.781206E+04  2.227180E+04 -3.966241E+04 -6.277507E+03
       196   5 -5.788595E+05  2.078189E+03 -2.604189E+04  1.324801E+04 -2.577558E+04 -1.944071E+04
       196   6 -5.858567E+05  2.591548E+03 -1.553932E+04  2.220186E+04 -1.190491E+04 -1.986260E+04
       196   7 -1.081696E+06 -1.707593E+05 -1.786608E+05  4.246817E+04 -5.510909E+04 -6.299583E+03
       196   8 -1.034967E+06 -1.100288E+05 -1.301650E+05  1.959247E+04 -3.115253E+04 -1.944989E+04
       196   9 -1.004017E+06 -1.000266E+05 -1.099491E+05  1.469407E+04 -7.210294E+03 -1.985577E+04
       196  10 -8.983997E+04  7.595537E+04  6.301872E+04  2.059046E+03 -4.387458E-09  1.344983E-09
       196  11 -1.225589E+05  1.141704E+05  7.806627E+04  6.898442E+03 -1.540577E-11  7.208956E-09
       196  12 -1.675334E+05  1.051974E+05  7.885814E+04  2.971444E+04  3.741719E-09  3.047356E-10
       196  13 -5.858822E+05 -4.739409E+04 -5.781509E+04  2.227160E+04  7.986693E-10 -4.691307E-10
       196  14 -5.788603E+05  2.077604E+03 -2.604385E+04  1.324760E+04  1.035393E-09 -1.417349E-09
       196  15 -5.858569E+05  2.591087E+03 -1.554032E+04  2.220167E+04 -1.930844E-09 -1.167838E-09
       196  16 -1.081699E+06 -1.707601E+05 -1.786665E+05  4.246789E+04  5.964217E-09  4.681320E-10
       196  17 -1.034968E+06 -1.100295E+05 -1.301675E+05  1.959198E+04 -5.191335E-09  6.120959E-09
       196  18 -1.004018E+06 -1.000270E+05 -1.099500E+05  1.469395E+04 -2.830174E-09 -1.340396E-10
       196  19 -8.983933E+04  7.595557E+04  6.301989E+04  2.059168E+03  2.420339E+04  6.256447E+03
       196  20 -1.225583E+05  1.141709E+05  7.806776E+04  6.898762E+03  2.039469E+04  1.943164E+04
       196  21 -1.675330E+05  1.051978E+05  7.885940E+04  2.971471E+04  1.660266E+04  1.986954E+04
       196  22 -5.858805E+05 -4.739362E+04 -5.781206E+04  2.227180E+04  3.966241E+04  6.277507E+03
       196  23 -5.788595E+05  2.078189E+03 -2.604189E+04  1.324801E+04  2.577558E+04  1.944071E+04
       196  24 -5.858567E+05  2.591548E+03 -1.553932E+04  2.220186E+04  1.190491E+04  1.986260E+04
       196  25 -1.081696E+06 -1.707593E+05 -1.786608E+05  4.246817E+04  5.510909E+04  6.299583E+03
       196  26 -1.034967E+06 -1.100288E+05 -1.301650E+05  1.959247E+04  3.115253E+04  1.944989E+04
       196  27 -1.004017E+06 -1.000266E+05 -1.099491E+05  1.469407E+04  7.210294E+03  1.985577E+04
       197   1 -1.996975E+05  9.098384E+04  7.449669E+04  2.177741E+04 -1.048075E+04 -1.731728E+04
       197   2 -2.382518E+05  8.464579E+04  7.118536E+04  1.325738E+04 -7.596341E+03 -1.597254E+04
       197   3 -2.780110E+05  7.510413E+04  6.518881E+04  2.338537E+04 -4.714129E+03 -1.403312E+04
       197   4 -5.830241E+05 -3.100511E+03 -1.245516E+04  2.237441E+04 -9.651320E+03 -1.731662E+04
       197   5 -5.823748E+05  2.228080E+02 -6.655209E+03  1.304700E+04 -6.297936E+03 -1.597076E+04
       197   6 -5.830148E+05  2.598393E+02 -3.867745E+03  2.236830E+04 -2.946575E+03 -1.403008E+04
       197   7 -9.662142E+05 -9.719500E+04 -9.941651E+04  2.297098E+04 -8.822400E+03 -1.731595E+04
       197   8 -9.263877E+05 -8.420833E+04 -8.450339E+04  1.283668E+04 -5.000244E+03 -1.596898E+04
       197   9 -8.879321E+05 -7.459086E+04 -7.293028E+04  2.135170E+04 -1.179880E+03 -1.402704E+04
       197  10 -1.996977E+05  9.098349E+04  7.449592E+04  2.177726E+04 -1.287416E-09 -4.365083E-09
       197  11 -2.382519E+05  8.464550E+04  7.118477E+04  1.325728E+04  1.517923E-09 -9.351459E-12
       197  12 -2.780110E+05  7.510391E+04  6.518840E+04  2.338531E+04  1.993455E-09  6.347510E-09
       197  13 -5.830243E+05 -3.100858E+03 -1.245590E+04  2.237427E+04 -2.642598E-10  3.877023E-09
       197  14 -5.823749E+05  2.225236E+02 -6.655763E+03  1.304691E+04  7.405048E-10 -1.355285E-08
       197  15 -5.830149E+05  2.596256E+02 -3.868131E+03  2.236827E+04 -7.182757E-10  4.667399E-09
       197  16 -9.662143E+05 -9.719534E+04 -9.941722E+04  2.297085E+04  5.248363E-09 -4.528252E-09
       197  17 -9.263877E+05 -8.420861E+04 -8.450392E+04  1.283661E+04 -1.363537E-09 -2.481951E-09
       197  18 -8.879322E+05 -7.459107E+04 -7.293065E+04  2.135168E+04 -1.809710E-09 -6.805981E-10
       197  19 -1.996975E+05  9.098384E+04  7.449669E+04  2.177741E+04  1.048075E+04  1.731728E+04
       197  20 -2.382518E+05  8.464579E+04  7.118536E+04  1.325738E+04  7.596341E+03  1.597254E+04
       197  21 -2.780110E+05  7.510413E+04  6.518881E+04  2.338537E+04  4.714129E+03  1.403312E+04
       197  22 -5.830241E+05 -3.100511E+03 -1.245516E+04  2.237441E+04  9.651320E+03  1.731662E+04
       197  23 -5.823748E+05  2.228080E+02 -6.655209E+03  1.304700E+04  6.297936E+03  1.597076E+04
       197  24 -5.830148E+05  2.598393E+02 -3.867745E+03  2.236830E+04  2.946575E+03  1.403008E+04
       197  25 -9.662142E+05 -9.719500E+04 -9.941651E+04  2.297098E+04  8.822400E+03  1.731595E+04
       197  26 -9.263877E+05 -8.420833E+04 -8.450339E+04  1.283668E+04  5.000244E+03  1.596898E+04
       197  27 -8.879321E+05 -7.459086E+04 -7.293028E+04  2.135170E+04  1.179880E+03  1.402704E+04
       198   1 -3.129204E+05  6.606669E+04  5.792676E+04  2.283170E+04 -3.939373E+03 -1.277321E+04
       198   2 -3.522924E+05  5.658957E+04  5.037618E+04  1.339300E+04 -3.119712E+03 -1.074414E+04
       198   3 -3.918820E+05  4.696625E+04  4.223797E+04  2.278787E+04 -2.300844E+03 -8.683133E+03
       198   4 -5.827731E+05 -1.141121E+02 -2.987697E+03  2.241148E+04 -2.346272E+03 -1.277033E+04
       198   5 -5.826590E+05  7.460501E+01 -1.708748E+03  1.299424E+04 -1.501693E+03 -1.074096E+04
       198   6 -5.827677E+05  1.129570E+02 -1.034729E+03  2.241100E+04 -6.578538E+02 -8.679649E+03
       198   7 -8.525581E+05 -6.629992E+04 -6.390681E+04  2.199141E+04 -7.538570E+02 -1.276745E+04
       198   8 -8.129762E+05 -5.644401E+04 -5.379707E+04  1.259560E+04  1.157321E+02 -1.073779E+04
       198   9 -7.736196E+05 -4.674285E+04 -4.430977E+04  2.203422E+04  9.846356E+02 -8.676166E+03
       198  10 -3.129204E+05  6.606651E+04  5.792642E+04  2.283166E+04  2.814075E-09 -3.098891E-09
       198  11 -3.522925E+05  5.658944E+04  5.037594E+04  1.339297E+04 -1.712463E-09 -2.922336E-09
       198  12 -3.918820E+05  4.696617E+04  4.223782E+04  2.278786E+04 -8.619656E-10 -2.111244E-09
       198  13 -5.827732E+05 -1.142887E+02 -2.988014E+03  2.241145E+04  1.064763E-09 -1.989335E-10
       198  14 -5.826590E+05  7.448055E+01 -1.708969E+03  1.299423E+04  2.170545E-10 -3.737422E-09
       198  15 -5.827677E+05  1.128760E+02 -1.034872E+03  2.241099E+04  1.007958E-09  1.220790E-11
       198  16 -8.525581E+05 -6.630010E+04 -6.390712E+04  2.199140E+04 -2.143913E-10 -5.251805E-09
       198  17 -8.129762E+05 -5.644413E+04 -5.379729E+04  1.259560E+04  9.132974E-10  1.747663E-09
       198  18 -7.736196E+05 -4.674293E+04 -4.430992E+04  2.203423E+04  2.177914E-09  6.962012E-09
       198  19 -3.129204E+05  6.606669E+04  5.792676E+04  2.283170E+04  3.939373E+03  1.277321E+04
       198  20 -3.522924E+05  5.658957E+04  5.037618E+04  1.339300E+04  3.119712E+03  1.074414E+04
       198  21 -3.918820E+05  4.696625E+04  4.223797E+04  2.278787E+04  2.300844E+03  8.683133E+03
       198  22 -5.827731E+05 -1.141121E+02 -2.987697E+03  2.241148E+04  2.346272E+03  1.277033E+04
       198  23 -5.826590E+05  7.460501E+01 -1.708748E+03  1.299424E+04  1.501693E+03  1.074096E+04
       198  24 -5.827677E+05  1.129570E+02 -1.034729E+03  2.241100E+04  6.578538E+02  8.679649E+03
       198  25 -8.525581E+05 -6.629992E+04 -6.390681E+04  2.199141E+04  7.538570E+02  1.276745E+04
       198  26 -8.129762E+05 -5.644401E+04 -5.379707E+04  1.259560E+04 -1.157321E+02  1.073779E+04
       198  27 -7.736196E+05 -4.674285E+04 -4.430977E+04  2.203422E+04 -9.846356E+02  8.676166E+03
       199   1 -4.272368E+05  3.821950E+04  3.421318E+04  2.271403E+04 -2.129856E+03 -7.475811E+03
       199   2 -4.668572E+05  2.848356E+04  2.558870E+04  1.317514E+04 -1.840914E+03 -5.404958E+03
       199   3 -5.065989E+05  1.881527E+04  1.676959E+04  2.256561E+04 -1.552348E+03 -3.330487E+03
       199   4 -5.827427E+05  9.095894E+01 -8.329471E+02  2.243240E+04 -4.924847E+02 -7.472220E+03
       199   5 -5.826797E+05  6.741446E+01 -5.991755E+02  1.296759E+04 -2.007870E+02 -5.401239E+03
       199   6 -5.827401E+05  1.111464E+02 -5.619310E+02  2.243235E+04  9.055367E+01 -3.326633E+03
       199   7 -7.382261E+05 -3.803924E+04 -3.588061E+04  2.215082E+04  1.144481E+03 -7.468630E+03
       199   8 -6.984898E+05 -2.834965E+04 -2.678791E+04  1.276007E+04  1.439037E+03 -5.397521E+03
       199   9 -6.588759E+05 -1.859338E+04 -1.789381E+04  2.229911E+04  1.733255E+03 -3.322779E+03
       199  10 -4.272368E+05  3.821944E+04  3.421307E+04  2.271401E+04  1.580662E-09 -4.150810E-09
       199  11 -4.668572E+05  2.848352E+04  2.558864E+04  1.317513E+04 -3.356562E-09  9.573289E-10
       199  12 -5.065989E+05  1.881526E+04  1.676956E+04  2.256561E+04 -7.685903E-09 -2.078003E-12
       199  13 -5.827427E+05  9.089893E+01 -8.330524E+02  2.243239E+04 -1.185375E-09  1.588665E-09
       199  14 -5.826797E+05  6.738313E+01 -5.992304E+02  1.296758E+04  4.293610E-10 -6.650528E-09
       199  15 -5.827401E+05  1.111346E+02 -5.619518E+02  2.243235E+04 -1.021281E-10 -2.521554E-09
       199  16 -7.382261E+05 -3.803930E+04 -3.588072E+04  2.215083E+04 -2.598708E-09  3.865674E-10
       199  17 -6.984898E+05 -2.834968E+04 -2.678797E+04  1.276007E+04  9.580661E-10  2.558405E-09
       199  18 -6.588759E+05 -1.859339E+04 -1.789384E+04  2.229911E+04  7.159461E-09  8.348080E-10
       199  19 -4.272368E+05  3.821950E+04  3.421318E+04  2.271403E+04  2.129856E+03  7.475811E+03
       199  20 -4.668572E+05  2.848356E+04  2.558870E+04  1.317514E+04  1.840914E+03  5.404958E+03
       199  21 -5.065989E+05  1.881527E+04  1.676959E+04  2.256561E+04  1.552348E+03  3.330487E+03
       199  22 -5.827427E+05  9.095894E+01 -8.329471E+02  2.243240E+04  4.924847E+02  7.472220E+03
       199  23 -5.826797E+05  6.741446E+01 -5.991755E+02  1.296759E+04  2.007870E+02  5.401239E+03
       199  24 -5.827401E+05  1.111464E+02 -5.619310E+02  2.243235E+04 -9.055367E+01  3.326633E+03
       199  25 -7.382261E+05 -3.803924E+04 -3.588061E+04  2.215082E+04 -1.144481E+03  7.468630E+03
       199  26 -6.984898E+05 -2.834965E+04 -2.678791E+04  1.276007E+04 -1.439037E+03  5.397521E+03
       199  27 -6.588759E+05 -1.859338E+04 -1.789381E+04  2.229911E+04 -1.733255E+03  3.322779E+03
       200   1 -5.421005E+05  1.006091E+04  8.466347E+03  2.250160E+04 -1.450075E+03 -2.121743E+03
       200   2 -5.817722E+05  2.951493E+02 -6.477941E+02  1.293767E+04 -1.033517E+03 -4.443930E+01
       200   3 -6.215933E+05 -9.414210E+03 -1.004463E+04  2.233577E+04 -6.169923E+02  2.031989E+03
       200   4 -5.827453E+05  1.116331E+02 -6.090186E+02  2.243956E+04  1.936099E+02 -2.117847E+03
       200   5 -5.826697E+05  7.508710E+01 -8.506392E+02  1.295857E+04  6.094145E+02 -4.054698E+01
       200   6 -5.827454E+05  9.502408E+01 -1.374511E+03  2.243960E+04  1.025212E+03  2.035884E+03
       200   7 -6.233886E+05 -9.837753E+03 -9.684478E+03  2.237752E+04  1.837189E+03 -2.113951E+03
       200   8 -5.835672E+05 -1.449737E+02 -1.053474E+03  1.297947E+04  2.252344E+03 -3.665454E+01
       200   9 -5.438962E+05  9.604157E+03  7.295519E+03  2.254344E+04  2.667518E+03  2.039779E+03
       200  10 -5.421005E+05  1.006090E+04  8.466334E+03  2.250159E+04  3.286811E-09  5.611888E-10
       200  11 -5.817722E+05  2.951490E+02 -6.477961E+02  1.293767E+04  2.983544E-10 -4.807935E-09
       200  12 -6.215933E+05 -9.414214E+03 -1.004464E+04  2.233577E+04 -6.261907E-09 -7.218941E-09
       200  13 -5.827453E+05  1.116283E+02 -6.090271E+02  2.243956E+04 -2.730783E-09  3.510382E-09
       200  14 -5.826697E+05  7.508700E+01 -8.506399E+02  1.295857E+04 -1.600244E-09 -4.191276E-09
       200  15 -5.827454E+05  9.501935E+01 -1.374521E+03  2.243960E+04  2.986349E-10 -3.987280E-09
       200  16 -6.233886E+05 -9.837759E+03 -9.684492E+03  2.237753E+04 -1.045216E-09 -9.993773E-10
       200  17 -5.835672E+05 -1.449751E+02 -1.053484E+03  1.297947E+04 -2.764348E-09 -1.231704E-08
       200  18 -5.438962E+05  9.604151E+03  7.295498E+03  2.254344E+04  6.370377E-09 -9.664435E-09
       200  19 -5.421005E+05  1.006091E+04  8.466347E+03  2.250160E+04  1.450075E+03  2.121743E+03
       200  20 -5.817722E+05  2.951493E+02 -6.477941E+02  1.293767E+04  1.033517E+03  4.443930E+01
       200  21 -6.215933E+05 -9.414210E+03 -1.004463E+04  2.233577E+04  6.169923E+02 -2.031989E+03
       200  22 -5.827453E+05  1.116331E+02 -6.090186E+02  2.243956E+04 -1.936099E+02  2.117847E+03
       200  23 -5.826697E+05  7.508710E+01 -8.506392E+02  1.295857E+04 -6.094145E+02  4.054698E+01
       200  24 -5.827454E+05  9.502408E+01 -1.374511E+03  2.243960E+04 -1.025212E+03 -2.035884E+03
       200  25 -6.233886E+05 -9.837753E+03 -9.684478E+03  2.237752E+04 -1.837189E+03  2.113951E+03
       200  26 -5.835672E+05 -1.449737E+02 -1.053474E+03  1.297947E+04 -2.252344E+03  3.665454E+01
       200  27 -5.438962E+05  9.604157E+03  7.295519E+03  2.254344E+04 -2.667518E+03 -2.039779E+03
       201   1 -6.571398E+05 -1.813030E+04 -1.870067E+04  2.219525E+04 -3.420399E+02  3.243271E+03
       201   2 -6.966259E+05 -2.786828E+04 -2.881899E+04  1.271357E+04  1.178187E+03  5.317113E+03
       201   3 -7.364961E+05 -3.794401E+04 -4.003607E+04  2.216096E+04  2.698733E+03  7.367466E+03
       201   4 -5.827976E+05  1.346409E+02 -1.774695E+03  2.243194E+04  1.305676E+03  3.247139E+03
       201   5 -5.826083E+05  1.094974E+02 -3.034053E+03  1.296796E+04  2.807534E+03  5.320812E+03
       201   6 -5.828007E+05 -2.498752E+02 -5.378999E+03  2.243283E+04  4.309807E+03  7.371004E+03
       201   7 -5.084503E+05  1.839920E+04  1.515093E+04  2.266865E+04  2.953587E+03  3.251009E+03
       201   8 -4.685786E+05  2.808638E+04  2.275005E+04  1.322238E+04  4.437178E+03  5.324513E+03
       201   9 -4.290833E+05  3.744264E+04  2.927657E+04  2.270476E+04  5.921276E+03  7.374543E+03
       201  10 -6.571398E+05 -1.813031E+04 -1.870069E+04  2.219525E+04 -1.937817E-09 -6.219727E-09
       201  11 -6.966259E+05 -2.786831E+04 -2.881904E+04  1.271356E+04  3.537885E-09 -1.190011E-08
       201  12 -7.364962E+05 -3.794407E+04 -4.003618E+04  2.216095E+04  3.472328E-09 -2.992073E-09
       201  13 -5.827976E+05  1.346292E+02 -1.774718E+03  2.243194E+04 -2.303766E-09 -2.938096E-10
       201  14 -5.826083E+05  1.094649E+02 -3.034121E+03  1.296794E+04  1.087289E-09  2.394875E-09
       201  15 -5.828008E+05 -2.499385E+02 -5.379136E+03  2.243281E+04 -2.203069E-09  7.320612E-09
       201  16 -5.084503E+05  1.839919E+04  1.515089E+04  2.266865E+04  2.376269E-09 -2.177553E-10
       201  17 -4.685787E+05  2.808634E+04  2.274996E+04  1.322236E+04 -4.575290E-09 -4.106079E-09
       201  18 -4.290834E+05  3.744257E+04  2.927640E+04  2.270473E+04 -5.328705E-09  3.536490E-09
       201  19 -6.571398E+05 -1.813030E+04 -1.870067E+04  2.219525E+04  3.420399E+02 -3.243271E+03
       201  20 -6.966259E+05 -2.786828E+04 -2.881899E+04  1.271357E+04 -1.178187E+03 -5.317113E+03
       201  21 -7.364961E+05 -3.794401E+04 -4.003607E+04  2.216096E+04 -2.698733E+03 -7.367466E+03
       201  22 -5.827976E+05  1.346409E+02 -1.774695E+03  2.243194E+04 -1.305676E+03 -3.247139E+03
       201  23 -5.826083E+05  1.094974E+02 -3.034053E+03  1.296796E+04 -2.807534E+03 -5.320812E+03
       201  24 -5.828007E+05 -2.498752E+02 -5.378999E+03  2.243283E+04 -4.309807E+03 -7.371004E+03
       201  25 -5.084503E+05  1.839920E+04  1.515093E+04  2.266865E+04 -2.953587E+03 -3.251009E+03
       201  26 -4.685786E+05  2.808638E+04  2.275005E+04  1.322238E+04 -4.437178E+03 -5.324513E+03
       201  27 -4.290833E+05  3.744264E+04  2.927657E+04  2.270476E+04 -5.921276E+03 -7.374543E+03
       202   1 -7.723149E+05 -4.599381E+04 -4.984728E+04  2.107361E+04  3.646347E+03  8.622652E+03
       202   2 -8.105860E+05 -5.567695E+04 -6.374872E+04  1.311550E+04  1.007343E+04  1.061291E+04
       202   3 -8.512887E+05 -7.143475E+04 -8.337480E+04  2.398182E+04  1.650166E+04  1.214082E+04
       202   4 -5.832449E+05  4.280576E+02 -6.983940E+03  2.240539E+04  5.393941E+03  8.626384E+03
       202   5 -5.820647E+05  4.045823E+02 -1.203442E+04  1.299976E+04  1.145718E+04  1.061559E+04
       202   6 -5.832532E+05 -5.628816E+03 -2.255496E+04  2.241822E+04  1.752198E+04  1.214250E+04
       202   7 -3.941418E+05  4.684746E+04  3.587711E+04  2.373757E+04  7.142063E+03  8.630122E+03
       202   8 -3.534949E+05  5.648252E+04  3.967653E+04  1.288396E+04  1.284145E+04  1.061827E+04
       202   9 -3.151509E+05  6.017217E+04  3.826023E+04  2.085391E+04  1.854274E+04  1.214418E+04
       202  10 -7.723149E+05 -4.599389E+04 -4.984745E+04  2.107358E+04 -3.294005E-09 -5.381618E-10
       202  11 -8.105861E+05 -5.567710E+04 -6.374912E+04  1.311541E+04 -6.011883E-09  4.645743E-09
       202  12 -8.512890E+05 -7.143499E+04 -8.337559E+04  2.398166E+04 -2.247013E-09 -7.822198E-10
       202  13 -5.832450E+05  4.279699E+02 -6.984134E+03  2.240536E+04 -7.535025E-10 -1.306806E-09
       202  14 -5.820649E+05  4.044261E+02 -1.203488E+04  1.299967E+04  3.144085E-09  5.260909E-09
       202  15 -5.832536E+05 -5.629057E+03 -2.255582E+04  2.241805E+04 -2.814109E-09  7.508821E-10
       202  16 -3.941418E+05  4.684737E+04  3.587687E+04  2.373752E+04  5.802733E-09 -4.430466E-09
       202  17 -3.534951E+05  5.648235E+04  3.967601E+04  1.288385E+04  4.256256E-09 -1.002974E-08
       202  18 -3.151514E+05  6.017192E+04  3.825931E+04  2.085372E+04  2.459699E-09 -1.125156E-09
       202  19 -7.723149E+05 -4.599381E+04 -4.984728E+04  2.107361E+04 -3.646347E+03 -8.622652E+03
       202  20 -8.105860E+05 -5.567695E+04 -6.374872E+04  1.311550E+04 -1.007343E+04 -1.061291E+04
       202  21 -8.512887E+05 -7.143475E+04 -8.337480E+04  2.398182E+04 -1.650166E+04 -1.214082E+04
       202  22 -5.832449E+05  4.280576E+02 -6.983940E+03  2.240539E+04 -5.393941E+03 -8.626384E+03
       202  23 -5.820647E+05  4.045823E+02 -1.203442E+04  1.299976E+04 -1.145718E+04 -1.061559E+04
       202  24 -5.832532E+05 -5.628816E+03 -2.255496E+04  2.241822E+04 -1.752198E+04 -1.214250E+04
       202  25 -3.941418E+05  4.684746E+04  3.587711E+04  2.373757E+04 -7.142063E+03 -8.630122E+03
       202  26 -3.534949E+05  5.648252E+04  3.967653E+04  1.288396E+04 -1.284145E+04 -1.061827E+04
       202  27 -3.151509E+05  6.017217E+04  3.826023E+04  2.085391E+04 -1.854274E+04 -1.214418E+04
       203   1 -8.916879E+05 -6.978112E+04 -9.664277E+04  9.138421E+03  1.757640E+04  1.439619E+04
       203   2 -9.175956E+05 -8.020610E+04 -1.252311E+05  2.508060E+04  5.052940E+04  1.458696E+04
       203   3 -9.703804E+05 -1.807973E+05 -1.978425E+05  5.940558E+04  8.349663E+04  4.858526E+03
       203   4 -5.883940E+05  4.688970E+03 -2.814660E+04  2.226696E+04  2.160718E+04  1.440410E+04
       203   5 -5.756587E+05  3.799457E+03 -4.715649E+04  1.315664E+04  4.672358E+04  1.457831E+04
       203   6 -5.884266E+05 -8.586988E+04 -1.047279E+05  2.243111E+04  7.185686E+04  4.833084E+03
       203   7 -2.850141E+05  7.915337E+04  4.034382E+04  3.540195E+04  2.563991E+04  1.441219E+04
       203   8 -2.336130E+05  8.779746E+04  3.091062E+04  1.225993E+03  4.291568E+04  1.456981E+04
       203   9 -2.063361E+05  9.052087E+03 -1.162275E+04 -1.456625E+04  6.020993E+04  4.809040E+03
       203  10 -8.916883E+05 -6.978142E+04 -9.664374E+04  9.138217E+03  1.021074E-08 -5.399092E-10
       203  11 -9.175984E+05 -8.020702E+04 -1.252363E+05  2.508001E+04  3.059895E-09  2.119034E-10
       203  12 -9.703879E+05 -1.807992E+05 -1.978556E+05  5.940525E+04 -5.652139E-09  2.094024E-09
       203  13 -5.883946E+05  4.688622E+03 -2.814787E+04  2.226671E+04  4.060711E-11  1.060704E-09
       203  14 -5.756611E+05  3.798642E+03 -4.716099E+04  1.315609E+04  1.521871E-11  2.634263E-09
       203  15 -5.884321E+05 -8.587130E+04 -1.047377E+05  2.243083E+04 -4.161549E-10  3.467835E-10
       203  16 -2.850148E+05  7.915297E+04  4.034219E+04  3.540165E+04 -8.519128E-09  6.447166E-10
       203  17 -2.336151E+05  8.779674E+04  3.090676E+04  1.225489E+03 -4.874446E-09  4.191312E-09
       203  18 -2.063400E+05  9.051089E+03 -1.162961E+04 -1.456648E+04  5.200020E-09  1.340120E-09
       203  19 -8.916879E+05 -6.978112E+04 -9.664277E+04  9.138421E+03 -1.757640E+04 -1.439619E+04
       203  20 -9.175956E+05 -8.020610E+04 -1.252311E+05  2.508060E+04 -5.052940E+04 -1.458696E+04
       203  21 -9.703804E+05 -1.807973E+05 -1.978425E+05  5.940558E+04 -8.349663E+04 -4.858526E+03
       203  22 -5.883940E+05  4.688970E+03 -2.814660E+04  2.226696E+04 -2.160718E+04 -1.440410E+04
       203  23 -5.756587E+05  3.799457E+03 -4.715649E+04  1.315664E+04 -4.672358E+04 -1.457831E+04
       203  24 -5.884266E+05 -8.586988E+04 -1.047279E+05  2.243111E+04 -7.185686E+04 -4.833084E+03
       203  25 -2.850141E+05  7.915337E+04  4.034382E+04  3.540195E+04 -2.563991E+04 -1.441219E+04
       203  26 -2.336130E+05  8.779746E+04  3.091062E+04  1.225993E+03 -4.291568E+04 -1.456981E+04
       203  27 -2.063361E+05  9.052087E+03 -1.162275E+04 -1.456625E+04 -6.020993E+04 -4.809040E+03
