    1C
    1UUSER                                                              
    1UDATE              11.october.2022                                 
    1UTIME              18:03:35                                        
    1UHOST                                                              
    1UPGM               CalculiX                                        
    1UVERSION           Version 2.20                             
    1UCOMPILETIME       Sun Jul 31 18:08:37 CEST 2022                    
    1UDIR                                                               
    1UDBN                                                               
    1UMAT    1MESH_MATERIAL                                             
    2C                           394                                     1
 -1         1 0.00000E+00 0.00000E+00 0.00000E+00
 -1         2 1.66667E-02 0.00000E+00 0.00000E+00
 -1         3 3.33333E-02 0.00000E+00 0.00000E+00
 -1         5 6.66667E-02 0.00000E+00 0.00000E+00
 -1         8 0.00000E+00 6.25000E-03 0.00000E+00
 -1         9 1.66667E-02 6.25000E-03 0.00000E+00
 -1        10 3.33333E-02 6.25000E-03 0.00000E+00
 -1        12 6.66667E-02 6.25000E-03 0.00000E+00
 -1        15 0.00000E+00 1.25000E-02 0.00000E+00
 -1        16 1.66667E-02 1.25000E-02 0.00000E+00
 -1        17 3.33333E-02 1.25000E-02 0.00000E+00
 -1        18 5.00000E-02 1.25000E-02 0.00000E+00
 -1        19 6.66667E-02 1.25000E-02 0.00000E+00
 -1        20 8.33333E-02 1.25000E-02 0.00000E+00
 -1        21 1.00000E-01 1.25000E-02 0.00000E+00
 -1        24 3.33333E-02 1.87500E-02 0.00000E+00
 -1        25 5.00000E-02 1.87500E-02 0.00000E+00
 -1        26 6.66667E-02 1.87500E-02 0.00000E+00
 -1        27 8.33333E-02 1.87500E-02 0.00000E+00
 -1        28 1.00000E-01 1.87500E-02 0.00000E+00
 -1        32 5.00000E-02 2.50000E-02 0.00000E+00
 -1        33 6.66667E-02 2.50000E-02 0.00000E+00
 -1        34 8.33333E-02 2.50000E-02 0.00000E+00
 -1        35 1.00000E-01 2.50000E-02 0.00000E+00
 -1        51 0.00000E+00 1.04167E-03 0.00000E+00
 -1        52 0.00000E+00 2.08333E-03 0.00000E+00
 -1        53 0.00000E+00 3.12500E-03 0.00000E+00
 -1        54 0.00000E+00 4.16667E-03 0.00000E+00
 -1        55 0.00000E+00 5.20833E-03 0.00000E+00
 -1        56 1.04167E-03 3.90630E-04 0.00000E+00
 -1        57 2.08333E-03 7.81250E-04 0.00000E+00
 -1        58 3.12500E-03 1.17188E-03 0.00000E+00
 -1        59 4.16667E-03 1.56250E-03 0.00000E+00
 -1        60 5.20833E-03 1.95312E-03 0.00000E+00
 -1        61 6.25000E-03 2.34375E-03 0.00000E+00
 -1        62 7.29167E-03 2.73438E-03 0.00000E+00
 -1        63 8.33333E-03 3.12500E-03 0.00000E+00
 -1        64 9.37500E-03 3.51563E-03 0.00000E+00
 -1        65 1.04167E-02 3.90625E-03 0.00000E+00
 -1        66 1.14583E-02 4.29688E-03 0.00000E+00
 -1        67 1.25000E-02 4.68750E-03 0.00000E+00
 -1        68 1.35417E-02 5.07813E-03 0.00000E+00
 -1        69 1.45833E-02 5.46875E-03 0.00000E+00
 -1        70 1.56250E-02 5.85938E-03 0.00000E+00
 -1        86 1.66667E-02 1.04167E-03 0.00000E+00
 -1        87 1.66667E-02 2.08333E-03 0.00000E+00
 -1        88 1.66667E-02 3.12500E-03 0.00000E+00
 -1        89 1.66667E-02 4.16667E-03 0.00000E+00
 -1        90 1.66667E-02 5.20833E-03 0.00000E+00
 -1       121 3.33333E-02 1.04167E-03 0.00000E+00
 -1       122 3.33333E-02 2.08333E-03 0.00000E+00
 -1       123 3.33333E-02 3.12500E-03 0.00000E+00
 -1       124 3.33333E-02 4.16667E-03 0.00000E+00
 -1       125 3.33333E-02 5.20833E-03 0.00000E+00
 -1       191 6.66667E-02 1.04167E-03 0.00000E+00
 -1       192 6.66667E-02 2.08333E-03 0.00000E+00
 -1       193 6.66667E-02 3.12500E-03 0.00000E+00
 -1       194 6.66667E-02 4.16667E-03 0.00000E+00
 -1       195 6.66667E-02 5.20833E-03 0.00000E+00
 -1       266 0.00000E+00 7.29167E-03 0.00000E+00
 -1       267 0.00000E+00 8.33333E-03 0.00000E+00
 -1       268 0.00000E+00 9.37500E-03 0.00000E+00
 -1       269 0.00000E+00 1.04167E-02 0.00000E+00
 -1       270 0.00000E+00 1.14583E-02 0.00000E+00
 -1       271 1.04167E-03 6.64063E-03 0.00000E+00
 -1       272 2.08333E-03 7.03125E-03 0.00000E+00
 -1       273 3.12500E-03 7.42188E-03 0.00000E+00
 -1       274 4.16667E-03 7.81250E-03 0.00000E+00
 -1       275 5.20833E-03 8.20313E-03 0.00000E+00
 -1       276 6.25000E-03 8.59375E-03 0.00000E+00
 -1       277 7.29167E-03 8.98438E-03 0.00000E+00
 -1       278 8.33333E-03 9.37500E-03 0.00000E+00
 -1       279 9.37500E-03 9.76562E-03 0.00000E+00
 -1       280 1.04167E-02 1.01562E-02 0.00000E+00
 -1       281 1.14583E-02 1.05469E-02 0.00000E+00
 -1       282 1.25000E-02 1.09375E-02 0.00000E+00
 -1       283 1.35417E-02 1.13281E-02 0.00000E+00
 -1       284 1.45833E-02 1.17188E-02 0.00000E+00
 -1       285 1.56250E-02 1.21094E-02 0.00000E+00
 -1       301 1.66667E-02 7.29167E-03 0.00000E+00
 -1       302 1.66667E-02 8.33333E-03 0.00000E+00
 -1       303 1.66667E-02 9.37500E-03 0.00000E+00
 -1       304 1.66667E-02 1.04167E-02 0.00000E+00
 -1       305 1.66667E-02 1.14583E-02 0.00000E+00
 -1       306 1.77083E-02 6.64063E-03 0.00000E+00
 -1       307 1.87500E-02 7.03125E-03 0.00000E+00
 -1       308 1.97917E-02 7.42188E-03 0.00000E+00
 -1       309 2.08333E-02 7.81250E-03 0.00000E+00
 -1       310 2.18750E-02 8.20313E-03 0.00000E+00
 -1       311 2.29167E-02 8.59375E-03 0.00000E+00
 -1       312 2.39583E-02 8.98438E-03 0.00000E+00
 -1       313 2.50000E-02 9.37500E-03 0.00000E+00
 -1       314 2.60417E-02 9.76562E-03 0.00000E+00
 -1       315 2.70833E-02 1.01562E-02 0.00000E+00
 -1       316 2.81250E-02 1.05469E-02 0.00000E+00
 -1       317 2.91667E-02 1.09375E-02 0.00000E+00
 -1       318 3.02083E-02 1.13281E-02 0.00000E+00
 -1       319 3.12500E-02 1.17188E-02 0.00000E+00
 -1       320 3.22917E-02 1.21094E-02 0.00000E+00
 -1       336 3.33333E-02 7.29167E-03 0.00000E+00
 -1       337 3.33333E-02 8.33333E-03 0.00000E+00
 -1       338 3.33333E-02 9.37500E-03 0.00000E+00
 -1       339 3.33333E-02 1.04167E-02 0.00000E+00
 -1       340 3.33333E-02 1.14583E-02 0.00000E+00
 -1       406 6.66667E-02 7.29167E-03 0.00000E+00
 -1       407 6.66667E-02 8.33333E-03 0.00000E+00
 -1       408 6.66667E-02 9.37500E-03 0.00000E+00
 -1       409 6.66667E-02 1.04167E-02 0.00000E+00
 -1       410 6.66667E-02 1.14583E-02 0.00000E+00
 -1       521 1.77083E-02 1.28906E-02 0.00000E+00
 -1       522 1.87500E-02 1.32813E-02 0.00000E+00
 -1       523 1.97917E-02 1.36719E-02 0.00000E+00
 -1       524 2.08333E-02 1.40625E-02 0.00000E+00
 -1       525 2.18750E-02 1.44531E-02 0.00000E+00
 -1       526 2.29167E-02 1.48437E-02 0.00000E+00
 -1       527 2.39583E-02 1.52344E-02 0.00000E+00
 -1       528 2.50000E-02 1.56250E-02 0.00000E+00
 -1       529 2.60417E-02 1.60156E-02 0.00000E+00
 -1       530 2.70833E-02 1.64062E-02 0.00000E+00
 -1       531 2.81250E-02 1.67969E-02 0.00000E+00
 -1       532 2.91667E-02 1.71875E-02 0.00000E+00
 -1       533 3.02083E-02 1.75781E-02 0.00000E+00
 -1       534 3.12500E-02 1.79687E-02 0.00000E+00
 -1       535 3.22917E-02 1.83594E-02 0.00000E+00
 -1       536 3.43750E-02 1.25000E-02 0.00000E+00
 -1       537 3.54167E-02 1.25000E-02 0.00000E+00
 -1       538 3.64583E-02 1.25000E-02 0.00000E+00
 -1       539 3.75000E-02 1.25000E-02 0.00000E+00
 -1       540 3.85417E-02 1.25000E-02 0.00000E+00
 -1       541 3.95833E-02 1.25000E-02 0.00000E+00
 -1       542 4.06250E-02 1.25000E-02 0.00000E+00
 -1       543 4.16667E-02 1.25000E-02 0.00000E+00
 -1       544 4.27083E-02 1.25000E-02 0.00000E+00
 -1       545 4.37500E-02 1.25000E-02 0.00000E+00
 -1       546 4.47917E-02 1.25000E-02 0.00000E+00
 -1       547 4.58333E-02 1.25000E-02 0.00000E+00
 -1       548 4.68750E-02 1.25000E-02 0.00000E+00
 -1       549 4.79167E-02 1.25000E-02 0.00000E+00
 -1       550 4.89583E-02 1.25000E-02 0.00000E+00
 -1       551 3.33333E-02 1.35417E-02 0.00000E+00
 -1       552 3.33333E-02 1.45833E-02 0.00000E+00
 -1       553 3.33333E-02 1.56250E-02 0.00000E+00
 -1       554 3.33333E-02 1.66667E-02 0.00000E+00
 -1       555 3.33333E-02 1.77083E-02 0.00000E+00
 -1       556 3.43750E-02 1.28906E-02 0.00000E+00
 -1       557 3.54167E-02 1.32813E-02 0.00000E+00
 -1       558 3.64583E-02 1.36719E-02 0.00000E+00
 -1       559 3.75000E-02 1.40625E-02 0.00000E+00
 -1       560 3.85417E-02 1.44531E-02 0.00000E+00
 -1       561 3.95833E-02 1.48437E-02 0.00000E+00
 -1       562 4.06250E-02 1.52344E-02 0.00000E+00
 -1       563 4.16667E-02 1.56250E-02 0.00000E+00
 -1       564 4.27083E-02 1.60156E-02 0.00000E+00
 -1       565 4.37500E-02 1.64062E-02 0.00000E+00
 -1       566 4.47917E-02 1.67969E-02 0.00000E+00
 -1       567 4.58333E-02 1.71875E-02 0.00000E+00
 -1       568 4.68750E-02 1.75781E-02 0.00000E+00
 -1       569 4.79167E-02 1.79687E-02 0.00000E+00
 -1       570 4.89583E-02 1.83594E-02 0.00000E+00
 -1       571 5.10417E-02 1.25000E-02 0.00000E+00
 -1       572 5.20833E-02 1.25000E-02 0.00000E+00
 -1       573 5.31250E-02 1.25000E-02 0.00000E+00
 -1       574 5.41667E-02 1.25000E-02 0.00000E+00
 -1       575 5.52083E-02 1.25000E-02 0.00000E+00
 -1       576 5.62500E-02 1.25000E-02 0.00000E+00
 -1       577 5.72917E-02 1.25000E-02 0.00000E+00
 -1       578 5.83333E-02 1.25000E-02 0.00000E+00
 -1       579 5.93750E-02 1.25000E-02 0.00000E+00
 -1       580 6.04167E-02 1.25000E-02 0.00000E+00
 -1       581 6.14583E-02 1.25000E-02 0.00000E+00
 -1       582 6.25000E-02 1.25000E-02 0.00000E+00
 -1       583 6.35417E-02 1.25000E-02 0.00000E+00
 -1       584 6.45833E-02 1.25000E-02 0.00000E+00
 -1       585 6.56250E-02 1.25000E-02 0.00000E+00
 -1       586 5.00000E-02 1.35417E-02 0.00000E+00
 -1       587 5.00000E-02 1.45833E-02 0.00000E+00
 -1       588 5.00000E-02 1.56250E-02 0.00000E+00
 -1       589 5.00000E-02 1.66667E-02 0.00000E+00
 -1       590 5.00000E-02 1.77083E-02 0.00000E+00
 -1       591 5.10417E-02 1.28906E-02 0.00000E+00
 -1       592 5.20833E-02 1.32813E-02 0.00000E+00
 -1       593 5.31250E-02 1.36719E-02 0.00000E+00
 -1       594 5.41667E-02 1.40625E-02 0.00000E+00
 -1       595 5.52083E-02 1.44531E-02 0.00000E+00
 -1       596 5.62500E-02 1.48437E-02 0.00000E+00
 -1       597 5.72917E-02 1.52344E-02 0.00000E+00
 -1       598 5.83333E-02 1.56250E-02 0.00000E+00
 -1       599 5.93750E-02 1.60156E-02 0.00000E+00
 -1       600 6.04167E-02 1.64062E-02 0.00000E+00
 -1       601 6.14583E-02 1.67969E-02 0.00000E+00
 -1       602 6.25000E-02 1.71875E-02 0.00000E+00
 -1       603 6.35417E-02 1.75781E-02 0.00000E+00
 -1       604 6.45833E-02 1.79687E-02 0.00000E+00
 -1       605 6.56250E-02 1.83594E-02 0.00000E+00
 -1       606 6.77083E-02 1.25000E-02 0.00000E+00
 -1       607 6.87500E-02 1.25000E-02 0.00000E+00
 -1       608 6.97917E-02 1.25000E-02 0.00000E+00
 -1       609 7.08333E-02 1.25000E-02 0.00000E+00
 -1       610 7.18750E-02 1.25000E-02 0.00000E+00
 -1       611 7.29167E-02 1.25000E-02 0.00000E+00
 -1       612 7.39583E-02 1.25000E-02 0.00000E+00
 -1       613 7.50000E-02 1.25000E-02 0.00000E+00
 -1       614 7.60417E-02 1.25000E-02 0.00000E+00
 -1       615 7.70833E-02 1.25000E-02 0.00000E+00
 -1       616 7.81250E-02 1.25000E-02 0.00000E+00
 -1       617 7.91667E-02 1.25000E-02 0.00000E+00
 -1       618 8.02083E-02 1.25000E-02 0.00000E+00
 -1       619 8.12500E-02 1.25000E-02 0.00000E+00
 -1       620 8.22917E-02 1.25000E-02 0.00000E+00
 -1       621 6.66667E-02 1.35417E-02 0.00000E+00
 -1       622 6.66667E-02 1.45833E-02 0.00000E+00
 -1       623 6.66667E-02 1.56250E-02 0.00000E+00
 -1       624 6.66667E-02 1.66667E-02 0.00000E+00
 -1       625 6.66667E-02 1.77083E-02 0.00000E+00
 -1       626 6.77083E-02 1.28906E-02 0.00000E+00
 -1       627 6.87500E-02 1.32813E-02 0.00000E+00
 -1       628 6.97917E-02 1.36719E-02 0.00000E+00
 -1       629 7.08333E-02 1.40625E-02 0.00000E+00
 -1       630 7.18750E-02 1.44531E-02 0.00000E+00
 -1       631 7.29167E-02 1.48437E-02 0.00000E+00
 -1       632 7.39583E-02 1.52344E-02 0.00000E+00
 -1       633 7.50000E-02 1.56250E-02 0.00000E+00
 -1       634 7.60417E-02 1.60156E-02 0.00000E+00
 -1       635 7.70833E-02 1.64062E-02 0.00000E+00
 -1       636 7.81250E-02 1.67969E-02 0.00000E+00
 -1       637 7.91667E-02 1.71875E-02 0.00000E+00
 -1       638 8.02083E-02 1.75781E-02 0.00000E+00
 -1       639 8.12500E-02 1.79687E-02 0.00000E+00
 -1       640 8.22917E-02 1.83594E-02 0.00000E+00
 -1       656 8.33333E-02 1.35417E-02 0.00000E+00
 -1       657 8.33333E-02 1.45833E-02 0.00000E+00
 -1       658 8.33333E-02 1.56250E-02 0.00000E+00
 -1       659 8.33333E-02 1.66667E-02 0.00000E+00
 -1       660 8.33333E-02 1.77083E-02 0.00000E+00
 -1       661 8.43750E-02 1.28906E-02 0.00000E+00
 -1       662 8.54167E-02 1.32813E-02 0.00000E+00
 -1       663 8.64583E-02 1.36719E-02 0.00000E+00
 -1       664 8.75000E-02 1.40625E-02 0.00000E+00
 -1       665 8.85417E-02 1.44531E-02 0.00000E+00
 -1       666 8.95833E-02 1.48437E-02 0.00000E+00
 -1       667 9.06250E-02 1.52344E-02 0.00000E+00
 -1       668 9.16667E-02 1.56250E-02 0.00000E+00
 -1       669 9.27083E-02 1.60156E-02 0.00000E+00
 -1       670 9.37500E-02 1.64062E-02 0.00000E+00
 -1       671 9.47917E-02 1.67969E-02 0.00000E+00
 -1       672 9.58333E-02 1.71875E-02 0.00000E+00
 -1       673 9.68750E-02 1.75781E-02 0.00000E+00
 -1       674 9.79167E-02 1.79687E-02 0.00000E+00
 -1       675 9.89583E-02 1.83594E-02 0.00000E+00
 -1       676 1.00000E-01 1.35417E-02 0.00000E+00
 -1       677 1.00000E-01 1.45833E-02 0.00000E+00
 -1       678 1.00000E-01 1.56250E-02 0.00000E+00
 -1       679 1.00000E-01 1.66667E-02 0.00000E+00
 -1       680 1.00000E-01 1.77083E-02 0.00000E+00
 -1       771 3.43750E-02 1.91406E-02 0.00000E+00
 -1       772 3.54167E-02 1.95312E-02 0.00000E+00
 -1       773 3.64583E-02 1.99219E-02 0.00000E+00
 -1       774 3.75000E-02 2.03125E-02 0.00000E+00
 -1       775 3.85417E-02 2.07031E-02 0.00000E+00
 -1       776 3.95833E-02 2.10938E-02 0.00000E+00
 -1       777 4.06250E-02 2.14844E-02 0.00000E+00
 -1       778 4.16667E-02 2.18750E-02 0.00000E+00
 -1       779 4.27083E-02 2.22656E-02 0.00000E+00
 -1       780 4.37500E-02 2.26563E-02 0.00000E+00
 -1       781 4.47917E-02 2.30469E-02 0.00000E+00
 -1       782 4.58333E-02 2.34375E-02 0.00000E+00
 -1       783 4.68750E-02 2.38281E-02 0.00000E+00
 -1       784 4.79167E-02 2.42187E-02 0.00000E+00
 -1       785 4.89583E-02 2.46094E-02 0.00000E+00
 -1       786 5.10417E-02 1.87500E-02 0.00000E+00
 -1       787 5.20833E-02 1.87500E-02 0.00000E+00
 -1       788 5.31250E-02 1.87500E-02 0.00000E+00
 -1       789 5.41667E-02 1.87500E-02 0.00000E+00
 -1       790 5.52083E-02 1.87500E-02 0.00000E+00
 -1       791 5.62500E-02 1.87500E-02 0.00000E+00
 -1       792 5.72917E-02 1.87500E-02 0.00000E+00
 -1       793 5.83333E-02 1.87500E-02 0.00000E+00
 -1       794 5.93750E-02 1.87500E-02 0.00000E+00
 -1       795 6.04167E-02 1.87500E-02 0.00000E+00
 -1       796 6.14583E-02 1.87500E-02 0.00000E+00
 -1       797 6.25000E-02 1.87500E-02 0.00000E+00
 -1       798 6.35417E-02 1.87500E-02 0.00000E+00
 -1       799 6.45833E-02 1.87500E-02 0.00000E+00
 -1       800 6.56250E-02 1.87500E-02 0.00000E+00
 -1       801 5.00000E-02 1.97917E-02 0.00000E+00
 -1       802 5.00000E-02 2.08333E-02 0.00000E+00
 -1       803 5.00000E-02 2.18750E-02 0.00000E+00
 -1       804 5.00000E-02 2.29167E-02 0.00000E+00
 -1       805 5.00000E-02 2.39583E-02 0.00000E+00
 -1       806 5.10417E-02 1.91406E-02 0.00000E+00
 -1       807 5.20833E-02 1.95312E-02 0.00000E+00
 -1       808 5.31250E-02 1.99219E-02 0.00000E+00
 -1       809 5.41667E-02 2.03125E-02 0.00000E+00
 -1       810 5.52083E-02 2.07031E-02 0.00000E+00
 -1       811 5.62500E-02 2.10938E-02 0.00000E+00
 -1       812 5.72917E-02 2.14844E-02 0.00000E+00
 -1       813 5.83333E-02 2.18750E-02 0.00000E+00
 -1       814 5.93750E-02 2.22656E-02 0.00000E+00
 -1       815 6.04167E-02 2.26563E-02 0.00000E+00
 -1       816 6.14583E-02 2.30469E-02 0.00000E+00
 -1       817 6.25000E-02 2.34375E-02 0.00000E+00
 -1       818 6.35417E-02 2.38281E-02 0.00000E+00
 -1       819 6.45833E-02 2.42187E-02 0.00000E+00
 -1       820 6.56250E-02 2.46094E-02 0.00000E+00
 -1       821 6.77083E-02 1.87500E-02 0.00000E+00
 -1       822 6.87500E-02 1.87500E-02 0.00000E+00
 -1       823 6.97917E-02 1.87500E-02 0.00000E+00
 -1       824 7.08333E-02 1.87500E-02 0.00000E+00
 -1       825 7.18750E-02 1.87500E-02 0.00000E+00
 -1       826 7.29167E-02 1.87500E-02 0.00000E+00
 -1       827 7.39583E-02 1.87500E-02 0.00000E+00
 -1       828 7.50000E-02 1.87500E-02 0.00000E+00
 -1       829 7.60417E-02 1.87500E-02 0.00000E+00
 -1       830 7.70833E-02 1.87500E-02 0.00000E+00
 -1       831 7.81250E-02 1.87500E-02 0.00000E+00
 -1       832 7.91667E-02 1.87500E-02 0.00000E+00
 -1       833 8.02083E-02 1.87500E-02 0.00000E+00
 -1       834 8.12500E-02 1.87500E-02 0.00000E+00
 -1       835 8.22917E-02 1.87500E-02 0.00000E+00
 -1       836 6.66667E-02 1.97917E-02 0.00000E+00
 -1       837 6.66667E-02 2.08333E-02 0.00000E+00
 -1       838 6.66667E-02 2.18750E-02 0.00000E+00
 -1       839 6.66667E-02 2.29167E-02 0.00000E+00
 -1       840 6.66667E-02 2.39583E-02 0.00000E+00
 -1       856 8.43750E-02 1.87500E-02 0.00000E+00
 -1       857 8.54167E-02 1.87500E-02 0.00000E+00
 -1       858 8.64583E-02 1.87500E-02 0.00000E+00
 -1       859 8.75000E-02 1.87500E-02 0.00000E+00
 -1       860 8.85417E-02 1.87500E-02 0.00000E+00
 -1       861 8.95833E-02 1.87500E-02 0.00000E+00
 -1       862 9.06250E-02 1.87500E-02 0.00000E+00
 -1       863 9.16667E-02 1.87500E-02 0.00000E+00
 -1       864 9.27083E-02 1.87500E-02 0.00000E+00
 -1       865 9.37500E-02 1.87500E-02 0.00000E+00
 -1       866 9.47917E-02 1.87500E-02 0.00000E+00
 -1       867 9.58333E-02 1.87500E-02 0.00000E+00
 -1       868 9.68750E-02 1.87500E-02 0.00000E+00
 -1       869 9.79167E-02 1.87500E-02 0.00000E+00
 -1       870 9.89583E-02 1.87500E-02 0.00000E+00
 -1       871 8.33333E-02 1.97917E-02 0.00000E+00
 -1       872 8.33333E-02 2.08333E-02 0.00000E+00
 -1       873 8.33333E-02 2.18750E-02 0.00000E+00
 -1       874 8.33333E-02 2.29167E-02 0.00000E+00
 -1       875 8.33333E-02 2.39583E-02 0.00000E+00
 -1       876 8.43750E-02 1.91406E-02 0.00000E+00
 -1       877 8.54167E-02 1.95312E-02 0.00000E+00
 -1       878 8.64583E-02 1.99219E-02 0.00000E+00
 -1       879 8.75000E-02 2.03125E-02 0.00000E+00
 -1       880 8.85417E-02 2.07031E-02 0.00000E+00
 -1       881 8.95833E-02 2.10938E-02 0.00000E+00
 -1       882 9.06250E-02 2.14844E-02 0.00000E+00
 -1       883 9.16667E-02 2.18750E-02 0.00000E+00
 -1       884 9.27083E-02 2.22656E-02 0.00000E+00
 -1       885 9.37500E-02 2.26563E-02 0.00000E+00
 -1       886 9.47917E-02 2.30469E-02 0.00000E+00
 -1       887 9.58333E-02 2.34375E-02 0.00000E+00
 -1       888 9.68750E-02 2.38281E-02 0.00000E+00
 -1       889 9.79167E-02 2.42187E-02 0.00000E+00
 -1       890 9.89583E-02 2.46094E-02 0.00000E+00
 -1       891 1.00000E-01 1.97917E-02 0.00000E+00
 -1       892 1.00000E-01 2.08333E-02 0.00000E+00
 -1       893 1.00000E-01 2.18750E-02 0.00000E+00
 -1       894 1.00000E-01 2.29167E-02 0.00000E+00
 -1       895 1.00000E-01 2.39583E-02 0.00000E+00
 -1       956 6.77083E-02 2.50000E-02 0.00000E+00
 -1       957 6.87500E-02 2.50000E-02 0.00000E+00
 -1       958 6.97917E-02 2.50000E-02 0.00000E+00
 -1       959 7.08333E-02 2.50000E-02 0.00000E+00
 -1       960 7.18750E-02 2.50000E-02 0.00000E+00
 -1       961 7.29167E-02 2.50000E-02 0.00000E+00
 -1       962 7.39583E-02 2.50000E-02 0.00000E+00
 -1       963 7.50000E-02 2.50000E-02 0.00000E+00
 -1       964 7.60417E-02 2.50000E-02 0.00000E+00
 -1       965 7.70833E-02 2.50000E-02 0.00000E+00
 -1       966 7.81250E-02 2.50000E-02 0.00000E+00
 -1       967 7.91667E-02 2.50000E-02 0.00000E+00
 -1       968 8.02083E-02 2.50000E-02 0.00000E+00
 -1       969 8.12500E-02 2.50000E-02 0.00000E+00
 -1       970 8.22917E-02 2.50000E-02 0.00000E+00
 -1       971 8.43750E-02 2.50000E-02 0.00000E+00
 -1       972 8.54167E-02 2.50000E-02 0.00000E+00
 -1       973 8.64583E-02 2.50000E-02 0.00000E+00
 -1       974 8.75000E-02 2.50000E-02 0.00000E+00
 -1       975 8.85417E-02 2.50000E-02 0.00000E+00
 -1       976 8.95833E-02 2.50000E-02 0.00000E+00
 -1       977 9.06250E-02 2.50000E-02 0.00000E+00
 -1       978 9.16667E-02 2.50000E-02 0.00000E+00
 -1       979 9.27083E-02 2.50000E-02 0.00000E+00
 -1       980 9.37500E-02 2.50000E-02 0.00000E+00
 -1       981 9.47917E-02 2.50000E-02 0.00000E+00
 -1       982 9.58333E-02 2.50000E-02 0.00000E+00
 -1       983 9.68750E-02 2.50000E-02 0.00000E+00
 -1       984 9.79167E-02 2.50000E-02 0.00000E+00
 -1       985 9.89583E-02 2.50000E-02 0.00000E+00
 -3
    3C                           203                                     1
 -1         1   12    0    1
 -2         1        52        51
 -1         2   12    0    1
 -2        52        54        53
 -1         3   12    0    1
 -2        54         8        55
 -1         4   12    0    1
 -2         1        57        56
 -1         5   12    0    1
 -2        57        59        58
 -1         6   12    0    1
 -2        59        61        60
 -1         7   12    0    1
 -2        61        63        62
 -1         8   12    0    1
 -2        63        65        64
 -1         9   12    0    1
 -2        65        67        66
 -1        10   12    0    1
 -2        67        69        68
 -1        11   12    0    1
 -2        69         9        70
 -1        12   12    0    1
 -2         2        87        86
 -1        13   12    0    1
 -2        87        89        88
 -1        14   12    0    1
 -2        89         9        90
 -1        15   12    0    1
 -2         3       122       121
 -1        16   12    0    1
 -2       122       124       123
 -1        17   12    0    1
 -2       124        10       125
 -1        18   12    0    1
 -2         5       192       191
 -1        19   12    0    1
 -2       192       194       193
 -1        20   12    0    1
 -2       194        12       195
 -1        21   12    0    1
 -2         8       267       266
 -1        22   12    0    1
 -2       267       269       268
 -1        23   12    0    1
 -2       269        15       270
 -1        24   12    0    1
 -2         8       272       271
 -1        25   12    0    1
 -2       272       274       273
 -1        26   12    0    1
 -2       274       276       275
 -1        27   12    0    1
 -2       276       278       277
 -1        28   12    0    1
 -2       278       280       279
 -1        29   12    0    1
 -2       280       282       281
 -1        30   12    0    1
 -2       282       284       283
 -1        31   12    0    1
 -2       284        16       285
 -1        32   12    0    1
 -2         9       302       301
 -1        33   12    0    1
 -2       302       304       303
 -1        34   12    0    1
 -2       304        16       305
 -1        35   12    0    1
 -2         9       307       306
 -1        36   12    0    1
 -2       307       309       308
 -1        37   12    0    1
 -2       309       311       310
 -1        38   12    0    1
 -2       311       313       312
 -1        39   12    0    1
 -2       313       315       314
 -1        40   12    0    1
 -2       315       317       316
 -1        41   12    0    1
 -2       317       319       318
 -1        42   12    0    1
 -2       319        17       320
 -1        43   12    0    1
 -2        10       337       336
 -1        44   12    0    1
 -2       337       339       338
 -1        45   12    0    1
 -2       339        17       340
 -1        46   12    0    1
 -2        12       407       406
 -1        47   12    0    1
 -2       407       409       408
 -1        48   12    0    1
 -2       409        19       410
 -1        49   12    0    1
 -2        16       522       521
 -1        50   12    0    1
 -2       522       524       523
 -1        51   12    0    1
 -2       524       526       525
 -1        52   12    0    1
 -2       526       528       527
 -1        53   12    0    1
 -2       528       530       529
 -1        54   12    0    1
 -2       530       532       531
 -1        55   12    0    1
 -2       532       534       533
 -1        56   12    0    1
 -2       534        24       535
 -1        57   12    0    1
 -2        17       537       536
 -1        58   12    0    1
 -2       537       539       538
 -1        59   12    0    1
 -2       539       541       540
 -1        60   12    0    1
 -2       541       543       542
 -1        61   12    0    1
 -2       543       545       544
 -1        62   12    0    1
 -2       545       547       546
 -1        63   12    0    1
 -2       547       549       548
 -1        64   12    0    1
 -2       549        18       550
 -1        65   12    0    1
 -2        17       552       551
 -1        66   12    0    1
 -2       552       554       553
 -1        67   12    0    1
 -2       554        24       555
 -1        68   12    0    1
 -2        17       557       556
 -1        69   12    0    1
 -2       557       559       558
 -1        70   12    0    1
 -2       559       561       560
 -1        71   12    0    1
 -2       561       563       562
 -1        72   12    0    1
 -2       563       565       564
 -1        73   12    0    1
 -2       565       567       566
 -1        74   12    0    1
 -2       567       569       568
 -1        75   12    0    1
 -2       569        25       570
 -1        76   12    0    1
 -2        18       572       571
 -1        77   12    0    1
 -2       572       574       573
 -1        78   12    0    1
 -2       574       576       575
 -1        79   12    0    1
 -2       576       578       577
 -1        80   12    0    1
 -2       578       580       579
 -1        81   12    0    1
 -2       580       582       581
 -1        82   12    0    1
 -2       582       584       583
 -1        83   12    0    1
 -2       584        19       585
 -1        84   12    0    1
 -2        18       587       586
 -1        85   12    0    1
 -2       587       589       588
 -1        86   12    0    1
 -2       589        25       590
 -1        87   12    0    1
 -2        18       592       591
 -1        88   12    0    1
 -2       592       594       593
 -1        89   12    0    1
 -2       594       596       595
 -1        90   12    0    1
 -2       596       598       597
 -1        91   12    0    1
 -2       598       600       599
 -1        92   12    0    1
 -2       600       602       601
 -1        93   12    0    1
 -2       602       604       603
 -1        94   12    0    1
 -2       604        26       605
 -1        95   12    0    1
 -2        19       607       606
 -1        96   12    0    1
 -2       607       609       608
 -1        97   12    0    1
 -2       609       611       610
 -1        98   12    0    1
 -2       611       613       612
 -1        99   12    0    1
 -2       613       615       614
 -1       100   12    0    1
 -2       615       617       616
 -1       101   12    0    1
 -2       617       619       618
 -1       102   12    0    1
 -2       619        20       620
 -1       103   12    0    1
 -2        19       622       621
 -1       104   12    0    1
 -2       622       624       623
 -1       105   12    0    1
 -2       624        26       625
 -1       106   12    0    1
 -2        19       627       626
 -1       107   12    0    1
 -2       627       629       628
 -1       108   12    0    1
 -2       629       631       630
 -1       109   12    0    1
 -2       631       633       632
 -1       110   12    0    1
 -2       633       635       634
 -1       111   12    0    1
 -2       635       637       636
 -1       112   12    0    1
 -2       637       639       638
 -1       113   12    0    1
 -2       639        27       640
 -1       114   12    0    1
 -2        20       657       656
 -1       115   12    0    1
 -2       657       659       658
 -1       116   12    0    1
 -2       659        27       660
 -1       117   12    0    1
 -2        20       662       661
 -1       118   12    0    1
 -2       662       664       663
 -1       119   12    0    1
 -2       664       666       665
 -1       120   12    0    1
 -2       666       668       667
 -1       121   12    0    1
 -2       668       670       669
 -1       122   12    0    1
 -2       670       672       671
 -1       123   12    0    1
 -2       672       674       673
 -1       124   12    0    1
 -2       674        28       675
 -1       125   12    0    1
 -2        21       677       676
 -1       126   12    0    1
 -2       677       679       678
 -1       127   12    0    1
 -2       679        28       680
 -1       128   12    0    1
 -2        24       772       771
 -1       129   12    0    1
 -2       772       774       773
 -1       130   12    0    1
 -2       774       776       775
 -1       131   12    0    1
 -2       776       778       777
 -1       132   12    0    1
 -2       778       780       779
 -1       133   12    0    1
 -2       780       782       781
 -1       134   12    0    1
 -2       782       784       783
 -1       135   12    0    1
 -2       784        32       785
 -1       136   12    0    1
 -2        25       787       786
 -1       137   12    0    1
 -2       787       789       788
 -1       138   12    0    1
 -2       789       791       790
 -1       139   12    0    1
 -2       791       793       792
 -1       140   12    0    1
 -2       793       795       794
 -1       141   12    0    1
 -2       795       797       796
 -1       142   12    0    1
 -2       797       799       798
 -1       143   12    0    1
 -2       799        26       800
 -1       144   12    0    1
 -2        25       802       801
 -1       145   12    0    1
 -2       802       804       803
 -1       146   12    0    1
 -2       804        32       805
 -1       147   12    0    1
 -2        25       807       806
 -1       148   12    0    1
 -2       807       809       808
 -1       149   12    0    1
 -2       809       811       810
 -1       150   12    0    1
 -2       811       813       812
 -1       151   12    0    1
 -2       813       815       814
 -1       152   12    0    1
 -2       815       817       816
 -1       153   12    0    1
 -2       817       819       818
 -1       154   12    0    1
 -2       819        33       820
 -1       155   12    0    1
 -2        26       822       821
 -1       156   12    0    1
 -2       822       824       823
 -1       157   12    0    1
 -2       824       826       825
 -1       158   12    0    1
 -2       826       828       827
 -1       159   12    0    1
 -2       828       830       829
 -1       160   12    0    1
 -2       830       832       831
 -1       161   12    0    1
 -2       832       834       833
 -1       162   12    0    1
 -2       834        27       835
 -1       163   12    0    1
 -2        26       837       836
 -1       164   12    0    1
 -2       837       839       838
 -1       165   12    0    1
 -2       839        33       840
 -1       166   12    0    1
 -2        27       857       856
 -1       167   12    0    1
 -2       857       859       858
 -1       168   12    0    1
 -2       859       861       860
 -1       169   12    0    1
 -2       861       863       862
 -1       170   12    0    1
 -2       863       865       864
 -1       171   12    0    1
 -2       865       867       866
 -1       172   12    0    1
 -2       867       869       868
 -1       173   12    0    1
 -2       869        28       870
 -1       174   12    0    1
 -2        27       872       871
 -1       175   12    0    1
 -2       872       874       873
 -1       176   12    0    1
 -2       874        34       875
 -1       177   12    0    1
 -2        27       877       876
 -1       178   12    0    1
 -2       877       879       878
 -1       179   12    0    1
 -2       879       881       880
 -1       180   12    0    1
 -2       881       883       882
 -1       181   12    0    1
 -2       883       885       884
 -1       182   12    0    1
 -2       885       887       886
 -1       183   12    0    1
 -2       887       889       888
 -1       184   12    0    1
 -2       889        35       890
 -1       185   12    0    1
 -2        28       892       891
 -1       186   12    0    1
 -2       892       894       893
 -1       187   12    0    1
 -2       894        35       895
 -1       188   12    0    1
 -2        33       957       956
 -1       189   12    0    1
 -2       957       959       958
 -1       190   12    0    1
 -2       959       961       960
 -1       191   12    0    1
 -2       961       963       962
 -1       192   12    0    1
 -2       963       965       964
 -1       193   12    0    1
 -2       965       967       966
 -1       194   12    0    1
 -2       967       969       968
 -1       195   12    0    1
 -2       969        34       970
 -1       196   12    0    1
 -2        34       972       971
 -1       197   12    0    1
 -2       972       974       973
 -1       198   12    0    1
 -2       974       976       975
 -1       199   12    0    1
 -2       976       978       977
 -1       200   12    0    1
 -2       978       980       979
 -1       201   12    0    1
 -2       980       982       981
 -1       202   12    0    1
 -2       982       984       983
 -1       203   12    0    1
 -2       984        35       985
 -3
    1PSTEP                         1           1           1          
  100CL  101 1.000000000         394                     0    1           1
 -4  DISP        4    1
 -5  D1          1    2    1    0
 -5  D2          1    2    2    0
 -5  D3          1    2    3    0
 -5  ALL         1    2    0    0    1ALL
 -1         1 1.69129E-04 0.00000E+00 0.00000E+00
 -1         2 9.72132E-05 1.24929E-30 3.30872E-24
 -1         3 9.93627E-05-1.63065E-26 0.00000E+00
 -1         5 7.52745E-05 4.26494E-25 0.00000E+00
 -1         8 1.35586E-04-1.60181E-06 0.00000E+00
 -1         9 9.12289E-05-4.25295E-07 0.00000E+00
 -1        10 9.11590E-05-2.96168E-06 0.00000E+00
 -1        12 7.39851E-05 1.20623E-06 0.00000E+00
 -1        15 9.88927E-05-1.75498E-06 0.00000E+00
 -1        16 8.01167E-05-6.02138E-07 0.00000E+00
 -1        17 6.80149E-05-5.94574E-06 0.00000E+00
 -1        18 6.80490E-05-7.03760E-07 0.00000E+00
 -1        19 7.01146E-05 2.40375E-06 0.00000E+00
 -1        20 7.08361E-05 2.83872E-05 0.00000E+00
 -1        21 7.00920E-05 6.26189E-05 0.00000E+00
 -1        24 2.67590E-05-7.26408E-06 0.00000E+00
 -1        25 6.34268E-05-3.54201E-07 0.00000E+00
 -1        26 6.51152E-05 3.23045E-06 0.00000E+00
 -1        27 6.29265E-05 2.71431E-05 0.00000E+00
 -1        28 6.10892E-05 6.15730E-05 0.00000E+00
 -1        32 0.00000E+00 0.00000E+00 0.00000E+00
 -1        33 5.93940E-05 4.43149E-06 0.00000E+00
 -1        34 5.69322E-05 2.70336E-05 0.00000E+00
 -1        35 5.36581E-05 6.11011E-05 0.00000E+00
 -1        51 1.66661E-04-2.63152E-07 0.00000E+00
 -1        52 1.62497E-04-5.19909E-07 0.00000E+00
 -1        53 1.56965E-04-7.78443E-07 0.00000E+00
 -1        54 1.50406E-04-1.04191E-06 0.00000E+00
 -1        55 1.43164E-04-1.31263E-06-1.15805E-23
 -1        56 1.64864E-04-1.16932E-06 0.00000E+00
 -1        57 1.60129E-04-1.57123E-06-5.29396E-23
 -1        58 1.55105E-04-1.17508E-06 0.00000E+00
 -1        59 1.49810E-04-1.44943E-07 5.29396E-23
 -1        60 1.44476E-04 9.85331E-07 1.05879E-22
 -1        61 1.39310E-04 1.65467E-06 5.29396E-23
 -1        62 1.34421E-04 1.58680E-06 0.00000E+00
 -1        63 1.29874E-04 6.10208E-07 5.29396E-23
 -1        64 1.25522E-04-8.85248E-07 1.05879E-22
 -1        65 1.21190E-04-2.43415E-06 0.00000E+00
 -1        66 1.16692E-04-3.53831E-06 1.05879E-22
 -1        67 1.11869E-04-3.76251E-06 5.29396E-23
 -1        68 1.06755E-04-3.21610E-06 0.00000E+00
 -1        69 1.01461E-04-2.10801E-06-5.29396E-23
 -1        70 9.61607E-05-1.01264E-06 0.00000E+00
 -1        86 9.70319E-05-6.51394E-08 0.00000E+00
 -1        87 9.64884E-05-1.30983E-07 0.00000E+00
 -1        88 9.56052E-05-1.97136E-07 0.00000E+00
 -1        89 9.44056E-05-2.67236E-07 0.00000E+00
 -1        90 9.29324E-05-3.36450E-07 0.00000E+00
 -1       121 9.91314E-05-4.92487E-07 0.00000E+00
 -1       122 9.84388E-05-9.85171E-07 6.61744E-24
 -1       123 9.72883E-05-1.47826E-06 0.00000E+00
 -1       124 9.56857E-05-1.97193E-06 0.00000E+00
 -1       125 9.36392E-05-2.46636E-06 0.00000E+00
 -1       191 7.52387E-05 2.01076E-07 0.00000E+00
 -1       192 7.51313E-05 4.02145E-07 6.61744E-24
 -1       193 7.49522E-05 6.03204E-07 0.00000E+00
 -1       194 7.47015E-05 8.04245E-07 0.00000E+00
 -1       195 7.43791E-05 1.00526E-06 0.00000E+00
 -1       266 1.29470E-04-1.65003E-06 1.32349E-23
 -1       267 1.23355E-04-1.67278E-06-3.30872E-24
 -1       268 1.17239E-04-1.69718E-06 0.00000E+00
 -1       269 1.11124E-04-1.71677E-06-8.27181E-25
 -1       270 1.05008E-04-1.73626E-06 0.00000E+00
 -1       271 1.30533E-04 2.95427E-06 0.00000E+00
 -1       272 1.25733E-04 6.54293E-06 5.29396E-23
 -1       273 1.21295E-04 9.18484E-06-1.05879E-22
 -1       274 1.17196E-04 1.08879E-05 0.00000E+00
 -1       275 1.13429E-04 1.17054E-05 1.05879E-22
 -1       276 1.09963E-04 1.17164E-05 0.00000E+00
 -1       277 1.06759E-04 1.10298E-05 0.00000E+00
 -1       278 1.03766E-04 9.77846E-06-5.29396E-23
 -1       279 1.00928E-04 8.11576E-06-1.05879E-22
 -1       280 9.81807E-05 6.20959E-06 5.29396E-23
 -1       281 9.54591E-05 4.23628E-06 0.00000E+00
 -1       282 9.26981E-05 2.37510E-06 0.00000E+00
 -1       283 8.98311E-05 8.00519E-07 1.05879E-22
 -1       284 8.68079E-05-3.18507E-07-5.29396E-23
 -1       285 8.35569E-05-8.39156E-07 5.29396E-23
 -1       301 8.93712E-05-4.63829E-07 6.61744E-24
 -1       302 8.74987E-05-4.79924E-07 0.00000E+00
 -1       303 8.56241E-05-4.93563E-07 0.00000E+00
 -1       304 8.37605E-05-5.09701E-07 3.30872E-24
 -1       305 8.19204E-05-5.33193E-07-1.32349E-23
 -1       306 8.93787E-05 3.98396E-07 0.00000E+00
 -1       307 8.78169E-05 3.46015E-07-1.32349E-23
 -1       308 8.65302E-05-4.36176E-07-5.29396E-23
 -1       309 8.54572E-05-1.80569E-06 2.64698E-23
 -1       310 8.45449E-05-3.60628E-06-5.29396E-23
 -1       311 8.37321E-05-5.67658E-06 0.00000E+00
 -1       312 8.29579E-05-7.85033E-06 0.00000E+00
 -1       313 8.21595E-05-9.95992E-06 2.64698E-23
 -1       314 8.12748E-05-1.18386E-05 5.29396E-23
 -1       315 8.02433E-05-1.33235E-05 2.64698E-23
 -1       316 7.90060E-05-1.42583E-05 0.00000E+00
 -1       317 7.75086E-05-1.44954E-05-2.64698E-23
 -1       318 7.56987E-05-1.38991E-05 5.29396E-23
 -1       319 7.35359E-05-1.23449E-05-1.32349E-23
 -1       320 7.09703E-05-9.72932E-06 0.00000E+00
 -1       336 8.82576E-05-3.45802E-06 0.00000E+00
 -1       337 8.49497E-05-3.95533E-06 0.00000E+00
 -1       338 8.12518E-05-4.45378E-06-1.32349E-23
 -1       339 7.71828E-05-4.95231E-06 0.00000E+00
 -1       340 7.27630E-05-5.45245E-06-1.32349E-23
 -1       406 7.35193E-05 1.40715E-06-6.61744E-24
 -1       407 7.29817E-05 1.60795E-06-3.30872E-24
 -1       408 7.23723E-05 1.80856E-06 6.61744E-24
 -1       409 7.16912E-05 2.00868E-06 0.00000E+00
 -1       410 7.09385E-05 2.20783E-06 6.61744E-24
 -1       521 7.66447E-05-3.99023E-07 5.29396E-23
 -1       522 7.33787E-05-1.00357E-06 0.00000E+00
 -1       523 7.03628E-05-2.26610E-06 1.05879E-22
 -1       524 6.75281E-05-4.05165E-06 0.00000E+00
 -1       525 6.48264E-05-6.19642E-06 0.00000E+00
 -1       526 6.21921E-05-8.52842E-06 0.00000E+00
 -1       527 5.95601E-05-1.08678E-05 0.00000E+00
 -1       528 5.68634E-05-1.30352E-05 0.00000E+00
 -1       529 5.40376E-05-1.48574E-05 1.05879E-22
 -1       530 5.10226E-05-1.61734E-05 0.00000E+00
 -1       531 4.77647E-05-1.68409E-05 0.00000E+00
 -1       532 4.42205E-05-1.67401E-05-5.29396E-23
 -1       533 4.03539E-05-1.57802E-05 0.00000E+00
 -1       534 3.61533E-05-1.38960E-05 5.29396E-23
 -1       535 3.15910E-05-1.10663E-05 5.29396E-23
 -1       536 6.79953E-05-1.61335E-06 0.00000E+00
 -1       537 6.79921E-05 1.68158E-06 0.00000E+00
 -1       538 6.79912E-05 4.04655E-06 0.00000E+00
 -1       539 6.79938E-05 5.58973E-06 0.00000E+00
 -1       540 6.79975E-05 6.41908E-06 0.00000E+00
 -1       541 6.80020E-05 6.64257E-06 0.00000E+00
 -1       542 6.80065E-05 6.36816E-06 0.00000E+00
 -1       543 6.80109E-05 5.70376E-06 0.00000E+00
 -1       544 6.80152E-05 4.75730E-06-3.23117E-26
 -1       545 6.80194E-05 3.63664E-06 5.16988E-26
 -1       546 6.80234E-05 2.44969E-06-2.06795E-25
 -1       547 6.80276E-05 1.30433E-06 0.00000E+00
 -1       548 6.80320E-05 3.08427E-07 0.00000E+00
 -1       549 6.80369E-05-4.30138E-07 0.00000E+00
 -1       550 6.80420E-05-8.03404E-07 0.00000E+00
 -1       551 6.18913E-05-6.15441E-06-5.79026E-24
 -1       552 5.50289E-05-6.36291E-06 1.65436E-24
 -1       553 4.77535E-05-6.57431E-06 0.00000E+00
 -1       554 4.03964E-05-6.78977E-06 1.98523E-23
 -1       555 3.32892E-05-7.01020E-06-2.64698E-23
 -1       556 6.62858E-05-1.80270E-06 0.00000E+00
 -1       557 6.49275E-05 1.38453E-06 0.00000E+00
 -1       558 6.38984E-05 3.70507E-06 0.00000E+00
 -1       559 6.31605E-05 5.25631E-06 0.00000E+00
 -1       560 6.26760E-05 6.13570E-06 0.00000E+00
 -1       561 6.24073E-05 6.44148E-06 0.00000E+00
 -1       562 6.23171E-05 6.27205E-06 0.00000E+00
 -1       563 6.23681E-05 5.72598E-06 0.00000E+00
 -1       564 6.25233E-05 4.90194E-06 0.00000E+00
 -1       565 6.27456E-05 3.89868E-06 0.00000E+00
 -1       566 6.29981E-05 2.81501E-06 3.30872E-24
 -1       567 6.32438E-05 1.74975E-06 1.65436E-24
 -1       568 6.34457E-05 8.01708E-07 6.20385E-25
 -1       569 6.35673E-05 6.95771E-08 0.00000E+00
 -1       570 6.35718E-05-3.48040E-07 3.30872E-24
 -1       571 6.81736E-05-4.44570E-07 8.27181E-25
 -1       572 6.83015E-05-2.69715E-07 8.27181E-25
 -1       573 6.84304E-05-1.63719E-07 0.00000E+00
 -1       574 6.85598E-05-1.10317E-07 8.27181E-25
 -1       575 6.86893E-05-9.31755E-08-3.30872E-24
 -1       576 6.88189E-05-9.58570E-08 0.00000E+00
 -1       577 6.89486E-05-1.01915E-07 3.30872E-24
 -1       578 6.90783E-05-9.48884E-08 0.00000E+00
 -1       579 6.92080E-05-5.83155E-08-6.61744E-24
 -1       580 6.93376E-05 2.42673E-08 0.00000E+00
 -1       581 6.94673E-05 1.69322E-07 0.00000E+00
 -1       582 6.95969E-05 3.93296E-07 6.61744E-24
 -1       583 6.97265E-05 7.12624E-07 0.00000E+00
 -1       584 6.98560E-05 1.14357E-06 0.00000E+00
 -1       585 6.99855E-05 1.70231E-06 0.00000E+00
 -1       586 6.73899E-05-6.44262E-07 0.00000E+00
 -1       587 6.66257E-05-5.84546E-07 0.00000E+00
 -1       588 6.58013E-05-5.24953E-07 0.00000E+00
 -1       589 6.49628E-05-4.65891E-07 0.00000E+00
 -1       590 6.41562E-05-4.07956E-07 0.00000E+00
 -1       591 6.78504E-05-3.97736E-07 0.00000E+00
 -1       592 6.76679E-05-1.52571E-07 0.00000E+00
 -1       593 6.75025E-05 4.41922E-08 0.00000E+00
 -1       594 6.73504E-05 2.03643E-07 0.00000E+00
 -1       595 6.72079E-05 3.36915E-07 3.30872E-24
 -1       596 6.70710E-05 4.55050E-07 0.00000E+00
 -1       597 6.69356E-05 5.69081E-07 1.65436E-24
 -1       598 6.67976E-05 6.90027E-07 0.00000E+00
 -1       599 6.66528E-05 8.28909E-07 0.00000E+00
 -1       600 6.64972E-05 9.96743E-07 0.00000E+00
 -1       601 6.63267E-05 1.20454E-06-3.30872E-24
 -1       602 6.61371E-05 1.46333E-06 0.00000E+00
 -1       603 6.59245E-05 1.78413E-06-1.65436E-24
 -1       604 6.56850E-05 2.17803E-06-4.13590E-25
 -1       605 6.54150E-05 2.65610E-06 8.27181E-25
 -1       606 7.01653E-05 3.36787E-06-6.61744E-24
 -1       607 7.02124E-05 4.45961E-06-3.30872E-24
 -1       608 7.02584E-05 5.67145E-06 0.00000E+00
 -1       609 7.03038E-05 6.99481E-06-3.30872E-24
 -1       610 7.03489E-05 8.42106E-06 0.00000E+00
 -1       611 7.03939E-05 9.94142E-06 0.00000E+00
 -1       612 7.04386E-05 1.15471E-05 0.00000E+00
 -1       613 7.04833E-05 1.32293E-05 0.00000E+00
 -1       614 7.05278E-05 1.49793E-05 0.00000E+00
 -1       615 7.05722E-05 1.67882E-05 0.00000E+00
 -1       616 7.06165E-05 1.86473E-05 0.00000E+00
 -1       617 7.06607E-05 2.05477E-05 3.30872E-24
 -1       618 7.07049E-05 2.24807E-05 0.00000E+00
 -1       619 7.07489E-05 2.44374E-05 0.00000E+00
 -1       620 7.07928E-05 2.64092E-05 0.00000E+00
 -1       621 6.92252E-05 2.54227E-06 0.00000E+00
 -1       622 6.83414E-05 2.68126E-06 0.00000E+00
 -1       623 6.74757E-05 2.82020E-06-3.30872E-24
 -1       624 6.66411E-05 2.95877E-06 0.00000E+00
 -1       625 6.58501E-05 3.09665E-06-1.65436E-24
 -1       626 6.98617E-05 3.43171E-06 0.00000E+00
 -1       627 6.95581E-05 4.59288E-06 0.00000E+00
 -1       628 6.92090E-05 5.87465E-06 0.00000E+00
 -1       629 6.88197E-05 7.26315E-06 6.61744E-24
 -1       630 6.83954E-05 8.74449E-06 0.00000E+00
 -1       631 6.79415E-05 1.03046E-05 6.61744E-24
 -1       632 6.74632E-05 1.19294E-05 0.00000E+00
 -1       633 6.69658E-05 1.36049E-05 0.00000E+00
 -1       634 6.64546E-05 1.53169E-05-3.30872E-24
 -1       635 6.59349E-05 1.70514E-05 0.00000E+00
 -1       636 6.54120E-05 1.87945E-05 0.00000E+00
 -1       637 6.48911E-05 2.05319E-05 0.00000E+00
 -1       638 6.43775E-05 2.22496E-05-3.30872E-24
 -1       639 6.38761E-05 2.39335E-05-8.27181E-25
 -1       640 6.33917E-05 2.55695E-05 8.27181E-25
 -1       656 6.91133E-05 2.81858E-05-3.30872E-24
 -1       657 6.77101E-05 2.79749E-05 1.65436E-24
 -1       658 6.65085E-05 2.77648E-05 6.61744E-24
 -1       659 6.53899E-05 2.75547E-05 0.00000E+00
 -1       660 6.42354E-05 2.73441E-05-3.30872E-24
 -1       661 7.02352E-05 3.04257E-05-3.30872E-24
 -1       662 6.96125E-05 3.25372E-05 0.00000E+00
 -1       663 6.89684E-05 3.47053E-05-3.30872E-24
 -1       664 6.83090E-05 3.69162E-05 1.65436E-24
 -1       665 6.76390E-05 3.91554E-05 3.30872E-24
 -1       666 6.69638E-05 4.14086E-05-1.65436E-24
 -1       667 6.62887E-05 4.36617E-05 0.00000E+00
 -1       668 6.56191E-05 4.59004E-05 1.65436E-24
 -1       669 6.49602E-05 4.81105E-05 0.00000E+00
 -1       670 6.43175E-05 5.02778E-05 0.00000E+00
 -1       671 6.36962E-05 5.23880E-05 3.30872E-24
 -1       672 6.31017E-05 5.44266E-05 1.65436E-24
 -1       673 6.25394E-05 5.63794E-05 0.00000E+00
 -1       674 6.20138E-05 5.82314E-05-1.65436E-24
 -1       675 6.15314E-05 5.99685E-05-1.65436E-24
 -1       676 6.85804E-05 6.24431E-05 0.00000E+00
 -1       677 6.70707E-05 6.22675E-05 0.00000E+00
 -1       678 6.55649E-05 6.20919E-05 0.00000E+00
 -1       679 6.40648E-05 6.19172E-05 1.65436E-24
 -1       680 6.25723E-05 6.17424E-05-3.30872E-24
 -1       771 2.36533E-05-2.97475E-06 0.00000E+00
 -1       772 2.08653E-05 4.38374E-07 0.00000E+00
 -1       773 1.83793E-05 3.04889E-06 0.00000E+00
 -1       774 1.61663E-05 4.93341E-06-2.64698E-23
 -1       775 1.41976E-05 6.16942E-06 0.00000E+00
 -1       776 1.24433E-05 6.83583E-06 0.00000E+00
 -1       777 1.08733E-05 7.01228E-06 5.29396E-23
 -1       778 9.45704E-06 6.77934E-06 0.00000E+00
 -1       779 8.16404E-06 6.21811E-06-5.29396E-23
 -1       780 6.96353E-06 5.41035E-06-2.64698E-23
 -1       781 5.82477E-06 4.43814E-06 5.29396E-23
 -1       782 4.71702E-06 3.38390E-06-2.64698E-23
 -1       783 3.60954E-06 2.33016E-06 0.00000E+00
 -1       784 2.47243E-06 1.35963E-06-1.32349E-23
 -1       785 1.27554E-06 5.54829E-07 0.00000E+00
 -1       786 6.35259E-05 5.95477E-08 0.00000E+00
 -1       787 6.36312E-05 3.72127E-07 8.27181E-25
 -1       788 6.37363E-05 5.99914E-07 3.30872E-24
 -1       789 6.38424E-05 7.59254E-07 1.65436E-24
 -1       790 6.39486E-05 8.66405E-07-3.30872E-24
 -1       791 6.40550E-05 9.37576E-07 0.00000E+00
 -1       792 6.41615E-05 9.88935E-07 0.00000E+00
 -1       793 6.42680E-05 1.03663E-06 0.00000E+00
 -1       794 6.43745E-05 1.09679E-06 3.30872E-24
 -1       795 6.44810E-05 1.18559E-06 1.65436E-24
 -1       796 6.45874E-05 1.31921E-06 3.30872E-24
 -1       797 6.46938E-05 1.51388E-06 0.00000E+00
 -1       798 6.48001E-05 1.78591E-06 3.30872E-24
 -1       799 6.49060E-05 2.15167E-06-1.65436E-24
 -1       800 6.50119E-05 2.62767E-06 3.30872E-24
 -1       801 5.81634E-05-2.45805E-07 0.00000E+00
 -1       802 4.64539E-05-1.78014E-07 0.00000E+00
 -1       803 3.15402E-05-1.47194E-07 0.00000E+00
 -1       804 1.66651E-05-1.22335E-07-3.30872E-24
 -1       805 5.07057E-06-5.99596E-08-2.64698E-23
 -1       806 6.31570E-05 6.22295E-09 0.00000E+00
 -1       807 6.29035E-05 3.11950E-07 3.30872E-24
 -1       808 6.26656E-05 5.73303E-07 0.00000E+00
 -1       809 6.24402E-05 8.00218E-07 0.00000E+00
 -1       810 6.22238E-05 1.00261E-06 0.00000E+00
 -1       811 6.20128E-05 1.19035E-06 0.00000E+00
 -1       812 6.18035E-05 1.37331E-06 0.00000E+00
 -1       813 6.15924E-05 1.56137E-06 0.00000E+00
 -1       814 6.13756E-05 1.76439E-06-3.30872E-24
 -1       815 6.11495E-05 1.99223E-06 0.00000E+00
 -1       816 6.09104E-05 2.25476E-06 0.00000E+00
 -1       817 6.06546E-05 2.56182E-06 8.27181E-25
 -1       818 6.03785E-05 2.92328E-06-1.65436E-24
 -1       819 6.00784E-05 3.34891E-06-8.27181E-25
 -1       820 5.97510E-05 3.84852E-06-3.30872E-24
 -1       821 6.49868E-05 4.00808E-06 0.00000E+00
 -1       822 6.48506E-05 4.97450E-06 0.00000E+00
 -1       823 6.47144E-05 6.11039E-06 3.30872E-24
 -1       824 6.45768E-05 7.39603E-06-1.65436E-24
 -1       825 6.44389E-05 8.81159E-06 3.30872E-24
 -1       826 6.43006E-05 1.03370E-05 0.00000E+00
 -1       827 6.41621E-05 1.19519E-05 0.00000E+00
 -1       828 6.40235E-05 1.36362E-05 0.00000E+00
 -1       829 6.38848E-05 1.53693E-05-3.30872E-24
 -1       830 6.37460E-05 1.71306E-05 0.00000E+00
 -1       831 6.36074E-05 1.88997E-05 0.00000E+00
 -1       832 6.34689E-05 2.06560E-05 0.00000E+00
 -1       833 6.33306E-05 2.23790E-05 3.30872E-24
 -1       834 6.31935E-05 2.40481E-05 1.65436E-24
 -1       835 6.30564E-05 2.56429E-05 1.65436E-24
 -1       836 6.43005E-05 3.42794E-06 3.30872E-24
 -1       837 6.33314E-05 3.63185E-06-3.30872E-24
 -1       838 6.22819E-05 3.83547E-06-3.30872E-24
 -1       839 6.12264E-05 4.03833E-06 0.00000E+00
 -1       840 6.02391E-05 4.24111E-06-1.65436E-24
 -1       856 6.28192E-05 2.87212E-05-8.27181E-25
 -1       857 6.27054E-05 3.05240E-05 0.00000E+00
 -1       858 6.25912E-05 3.25202E-05 3.30872E-24
 -1       859 6.24758E-05 3.46781E-05 0.00000E+00
 -1       860 6.23600E-05 3.69659E-05 0.00000E+00
 -1       861 6.22439E-05 3.93518E-05 0.00000E+00
 -1       862 6.21275E-05 4.18038E-05 3.30872E-24
 -1       863 6.20110E-05 4.42900E-05-1.65436E-24
 -1       864 6.18945E-05 4.67782E-05 0.00000E+00
 -1       865 6.17781E-05 4.92366E-05-1.65436E-24
 -1       866 6.16619E-05 5.16332E-05 0.00000E+00
 -1       867 6.15459E-05 5.39359E-05 0.00000E+00
 -1       868 6.14302E-05 5.61130E-05 3.30872E-24
 -1       869 6.13153E-05 5.81327E-05 1.65436E-24
 -1       870 6.12007E-05 5.99631E-05 0.00000E+00
 -1       871 6.17355E-05 2.71281E-05 0.00000E+00
 -1       872 6.07087E-05 2.71111E-05 0.00000E+00
 -1       873 5.97811E-05 2.70936E-05 0.00000E+00
 -1       874 5.88865E-05 2.70756E-05 4.13590E-25
 -1       875 5.79587E-05 2.70567E-05-8.27181E-25
 -1       876 6.25313E-05 2.87569E-05-3.30872E-24
 -1       877 6.20799E-05 3.05411E-05 0.00000E+00
 -1       878 6.15736E-05 3.24717E-05-6.61744E-24
 -1       879 6.10211E-05 3.45271E-05 0.00000E+00
 -1       880 6.04300E-05 3.66856E-05-6.61744E-24
 -1       881 5.98083E-05 3.89256E-05 0.00000E+00
 -1       882 5.91640E-05 4.12257E-05 0.00000E+00
 -1       883 5.85051E-05 4.35645E-05-3.30872E-24
 -1       884 5.78396E-05 4.59206E-05 6.61744E-24
 -1       885 5.71756E-05 4.82728E-05 0.00000E+00
 -1       886 5.65210E-05 5.05997E-05 6.61744E-24
 -1       887 5.58839E-05 5.28799E-05 0.00000E+00
 -1       888 5.52721E-05 5.50921E-05-6.61744E-24
 -1       889 5.46929E-05 5.72145E-05-1.65436E-24
 -1       890 5.41553E-05 5.92258E-05 0.00000E+00
 -1       891 5.97819E-05 6.14948E-05-3.30872E-24
 -1       892 5.86394E-05 6.14157E-05 0.00000E+00
 -1       893 5.75590E-05 6.13366E-05 0.00000E+00
 -1       894 5.64373E-05 6.12576E-05 0.00000E+00
 -1       895 5.51713E-05 6.11785E-05 0.00000E+00
 -1       956 5.92441E-05 5.27342E-06-3.30872E-24
 -1       957 5.90911E-05 6.27559E-06 8.27181E-25
 -1       958 5.89375E-05 7.42091E-06-1.65436E-24
 -1       959 5.87834E-05 8.69125E-06 8.27181E-25
 -1       960 5.86291E-05 1.00684E-05 3.30872E-24
 -1       961 5.84746E-05 1.15342E-05 1.65436E-24
 -1       962 5.83200E-05 1.30702E-05 0.00000E+00
 -1       963 5.81653E-05 1.46582E-05-1.65436E-24
 -1       964 5.80105E-05 1.62798E-05 3.30872E-24
 -1       965 5.78557E-05 1.79166E-05 1.65436E-24
 -1       966 5.77010E-05 1.95504E-05 0.00000E+00
 -1       967 5.75463E-05 2.11628E-05 3.30872E-24
 -1       968 5.73918E-05 2.27356E-05 0.00000E+00
 -1       969 5.72375E-05 2.42503E-05-3.30872E-24
 -1       970 5.70838E-05 2.56889E-05 0.00000E+00
 -1       971 5.67327E-05 2.84217E-05 0.00000E+00
 -1       972 5.65286E-05 3.00453E-05 3.30872E-24
 -1       973 5.63241E-05 3.18759E-05 6.61744E-24
 -1       974 5.61187E-05 3.38842E-05 3.30872E-24
 -1       975 5.59129E-05 3.60409E-05 6.61744E-24
 -1       976 5.57068E-05 3.83165E-05 0.00000E+00
 -1       977 5.55004E-05 4.06817E-05 6.61744E-24
 -1       978 5.52939E-05 4.31067E-05 0.00000E+00
 -1       979 5.50873E-05 4.55618E-05 6.61744E-24
 -1       980 5.48808E-05 4.80174E-05 0.00000E+00
 -1       981 5.46744E-05 5.04437E-05 0.00000E+00
 -1       982 5.44683E-05 5.28112E-05-3.30872E-24
 -1       983 5.42626E-05 5.50901E-05 0.00000E+00
 -1       984 5.40581E-05 5.72510E-05 0.00000E+00
 -1       985 5.38542E-05 5.92643E-05-3.30872E-24
 -3
    1PSTEP                         2           1           1          
  100CL  101 1.000000000         394                     0    1           1
 -4  STRESS      6    1
 -5  SXX         1    4    1    1
 -5  SYY         1    4    2    2
 -5  SZZ         1    4    3    3
 -5  SXY         1    4    1    2
 -5  SYZ         1    4    2    3
 -5  SZX         1    4    3    1
 -1         1-5.63301E+06-2.35620E+06-1.36608E+06-2.58634E+06-1.36788E-09-1.01863E-09
 -1         2 2.91003E+03-1.82878E+05 9.24775E+03-2.99311E+02-3.63258E-10 7.38167E-09
 -1         3-6.34735E+01-1.40705E+06-3.53361E+01-7.18070E+02 2.27909E-10 4.06999E-09
 -1         5-3.81012E+01 5.75573E+05 1.82638E+01 1.80090E+00 1.50545E-10-2.73030E-09
 -1         8-2.39879E+06-1.09176E+06-3.39224E+05-1.42605E+06 1.89175E-10-5.82077E-09
 -1         9-3.56746E+06-1.29879E+06-6.66442E+05-1.10589E+06 8.30732E-09-7.67614E-09
 -1        10-2.13690E+02-1.40732E+06-1.78012E+03-4.14925E+03 4.79534E-09 5.69844E-09
 -1        12-3.07606E+01 5.75612E+05 5.93324E+02 1.16025E+01 4.50513E-10-2.70848E-09
 -1        15 3.94212E+03 2.13354E+03 1.22246E+04 1.06194E+01-7.94133E-08-1.35171E-05
 -1        16-5.03144E+06-1.60674E+06-7.29871E+05-1.66735E+06-5.89353E-10-2.94737E-09
 -1        17-7.56036E+05-6.18393E+05-1.08230E+05-5.10719E+05 3.13157E-09-2.95695E-09
 -1        18 4.69927E+04 1.52198E+04-1.71494E+04-1.23826E+05 4.93856E-10 3.60524E-09
 -1        19 1.61457E+05 2.00501E+05-2.24332E+02 1.41003E+04-9.85892E-10 1.27111E-09
 -1        20 1.13593E+05-1.60944E+05-2.90098E+04 8.13534E+04 8.26731E-09-3.55309E-10
 -1        21-1.56303E+02-5.00135E+05-2.24575E+03-6.27048E+02-3.64295E-10 1.86322E-09
 -1        24-3.53102E+06-1.24281E+06-3.77044E+05-1.59843E+06-7.23958E-09-3.41485E-09
 -1        25 1.17773E+04 7.43842E+04 3.38666E+04-5.16105E+05 9.52787E-10-3.74348E-09
 -1        26-2.29057E+04 1.57648E+05 7.11402E+02-3.68881E+04 5.97356E-10 5.31195E-09
 -1        27-3.39271E+04-9.62521E+04-4.32923E+04 1.02459E+05-5.18412E-11-1.79777E-09
 -1        28-9.80374E+03-1.48126E+05-3.25668E+03 5.96434E+04 8.29550E-09 2.64026E-09
 -1        32-1.17030E+06-1.03217E+05 3.15610E+05-1.60424E+06-9.39326E-09 7.95126E-10
 -1        33-1.68890E+05 1.56666E+05 4.83311E+04-5.32204E+04-2.25449E-09-8.11269E-10
 -1        34-3.22254E+05-4.92755E+04-1.30926E+04 9.76318E+04 2.91358E-09-1.28572E-09
 -1        35-4.17206E+04-4.32981E+04-6.42587E+02 9.44250E+04 1.01696E-08 2.42411E-09
 -1        51 3.25498E+04-6.47155E+05 5.87571E+04-1.74378E+06 1.74623E-10 1.26893E-08
 -1        52 2.22965E+04-6.52173E+05 4.06942E+04-1.93521E+06 1.28057E-09 1.37079E-08
 -1        53 2.11146E+04-6.76892E+05 3.82848E+04-1.73873E+06 7.56700E-10 1.70257E-09
 -1        54 4.96729E+04-6.77199E+05 6.59363E+04-1.94026E+06-1.74623E-10 1.66474E-08
 -1        55 9.97217E+04-7.01831E+05 1.23142E+05-1.73739E+06-5.82077E-11 1.45301E-08
 -1        56-1.04996E+07-1.12779E+06-9.24916E+05-4.09347E+06 8.14907E-10 1.03028E-08
 -1        57-1.09734E+07-1.95703E+06-6.37417E+05-3.94642E+06 3.79441E-09 8.65839E-10
 -1        58-1.06632E+07-1.47457E+06-2.16387E+05-4.05880E+06 5.96265E-09-1.87720E-09
 -1        59-1.07808E+07-1.55515E+06-1.33177E+05-3.98678E+06-1.21508E-09-1.41808E-08
 -1        60-1.06891E+07-1.52634E+06-5.03562E+04-4.05323E+06 8.99490E-10 1.00245E-08
 -1        61-1.07285E+07-1.51642E+06-2.95080E+04-4.01700E+06-5.56690E-09 4.93810E-09
 -1        62-1.07146E+07-1.51282E+06-1.39587E+04-4.02837E+06-3.27691E-09-6.04950E-09
 -1        63-1.06885E+07-1.54454E+06-1.19903E+04-4.05868E+06-2.04477E-09-8.57870E-09
 -1        64-1.07289E+07-1.49810E+06-1.36099E+04-4.01154E+06 2.39424E-10 1.62481E-09
 -1        65-1.06909E+07-1.55369E+06-2.87881E+04-4.05994E+06-2.72121E-09 4.58203E-09
 -1        66-1.07124E+07-1.50374E+06-4.90674E+04-4.02717E+06-1.97360E-09 3.37241E-09
 -1        67-1.07583E+07-1.57449E+06-1.29477E+05-4.01108E+06-1.44564E-09-2.43199E-09
 -1        68-1.06624E+07-1.47789E+06-2.10410E+05-4.06049E+06 9.49512E-10-1.74623E-09
 -1        69-1.09923E+07-1.91893E+06-6.19850E+05-3.91936E+06 5.91535E-09 2.88128E-09
 -1        70-1.04815E+07-1.16240E+06-8.99434E+05-4.11893E+06 8.73115E-10-5.23869E-10
 -1        86-1.45454E+03-1.85462E+05 9.95175E+03 1.49655E+02 8.41283E-12-9.55566E-10
 -1        87 9.60222E+03-1.79673E+05 2.07175E+04-5.74049E+02-1.44610E-10-5.83808E-09
 -1        88-8.13391E+03-1.88664E+05 3.17526E+04 4.24408E+02-2.31012E-10-3.07107E-09
 -1        89 6.01948E+04-1.56328E+05 8.56386E+04-1.02560E+03-3.63798E-11-1.15633E-09
 -1        90-5.19470E+04-2.08778E+05 1.20966E+05 6.01339E+02-4.80213E-10 3.41998E-09
 -1       121-8.95584E+01-1.40749E+06-1.12726E+02 3.58936E+02 7.20948E-10-4.20187E-09
 -1       122-6.01826E+01-1.40707E+06-9.65687E+01-1.42307E+03 1.86530E-09-6.98310E-09
 -1       123-8.42141E+01-1.40748E+06-2.59320E+02 1.06354E+03 2.43327E-09 4.10819E-09
 -1       124-6.36747E+01-1.40712E+06-4.21852E+02-2.81149E+03 3.47849E-09 2.33604E-09
 -1       125-6.12910E+01-1.40747E+06-8.88655E+02 1.74688E+03 3.82647E-09 1.40726E-08
 -1       191-4.05967E+01 5.75616E+05 2.05690E+01-9.11269E-01 4.07723E-10 6.39011E-09
 -1       192-3.98057E+01 5.75574E+05 3.87232E+01 4.75170E+00 6.61224E-10 1.00954E-10
 -1       193-4.51108E+01 5.75615E+05 7.07804E+01-3.90930E+00 6.77030E-10 6.92671E-09
 -1       194-4.52827E+01 5.75580E+05 1.46586E+02 1.03093E+01 4.13607E-10 8.01083E-09
 -1       195-5.37798E+01 5.75611E+05 2.85475E+02-6.55936E+00 1.06171E-09 2.20825E-09
 -1       266-6.92356E+04-3.19998E+04 1.59873E+05-2.18621E+02-1.67252E-07-2.85788E-05
 -1       267 8.01890E+04 3.73953E+04 1.13369E+05 2.51253E+02-3.35065E-07-5.71152E-05
 -1       268-1.09239E+04-5.34992E+03 4.19643E+04-3.27262E+01-2.46497E-07-4.20062E-05
 -1       269 1.29013E+04 6.42278E+03 2.74243E+04 3.80375E+01-1.57818E-07-2.68730E-05
 -1       270-1.96546E+03-1.06140E+03 1.31678E+04-5.30819E+00-1.18298E-07-2.01362E-05
 -1       271-7.42633E+06-9.25013E+05-5.90330E+05-2.89079E+06-3.20142E-10-7.88714E-09
 -1       272-7.68589E+06-1.29607E+06-3.77973E+05-2.83326E+06 2.73758E-10 6.40284E-09
 -1       273-7.53764E+06-1.06614E+06-1.39136E+05-2.86410E+06 3.00133E-09 5.88625E-09
 -1       274-7.55187E+06-1.12346E+06-7.74484E+04-2.87625E+06 2.24463E-09 2.15368E-09
 -1       275-7.55626E+06-1.07668E+06-3.23568E+04-2.85534E+06 1.65710E-09-5.16229E-09
 -1       276-7.52674E+06-1.11356E+06-1.71675E+04-2.89157E+06 2.38515E-09-5.90853E-09
 -1       277-7.56264E+06-1.07365E+06-8.66882E+03-2.84978E+06-1.15324E-09-6.32826E-09
 -1       278-7.51797E+06-1.11895E+06-6.59656E+03-2.90076E+06-1.33195E-09-5.98448E-10
 -1       279-7.56552E+06-1.07076E+06-7.62217E+03-2.84659E+06-2.07501E-09 4.28599E-10
 -1       280-7.51627E+06-1.12381E+06-1.44394E+04-2.90452E+06 3.83125E-11-3.85080E-09
 -1       281-7.56470E+06-1.06873E+06-2.66699E+04-2.84620E+06 2.35968E-09 4.06726E-09
 -1       282-7.52975E+06-1.13939E+06-6.39466E+04-2.90055E+06-2.19597E-09 1.18971E-08
 -1       283-7.55243E+06-1.05698E+06-1.14619E+05-2.84996E+06-7.79437E-10-5.15865E-09
 -1       284-7.63538E+06-1.28631E+06-3.11640E+05-2.87001E+06 3.10047E-09-2.51748E-09
 -1       285-7.46214E+06-9.39372E+05-4.86840E+05-2.87037E+06-9.24047E-10-1.65892E-09
 -1       301 5.88874E+04-2.76512E+04 1.70196E+05-3.19515E+04 5.38421E-10 4.41480E-09
 -1       302 2.19778E+04 7.35164E+03 1.14862E+05-3.94106E+04 1.00499E-09-2.22605E-09
 -1       303 4.90699E+03-1.57460E+04 1.06012E+05-3.20260E+04 5.36602E-10 5.70003E-09
 -1       304 4.10714E+04 2.18182E+04 1.74991E+05-3.93602E+04 1.08957E-09 1.89312E-08
 -1       305 1.15202E+05-4.19892E+04 3.13102E+05-3.18851E+04 8.87667E-10 7.59405E-09
 -1       306-3.43216E+06-4.40867E+05-2.09490E+05-1.32457E+06-3.20142E-10 9.51695E-09
 -1       307-3.48303E+06-6.12171E+05-1.33860E+05-1.35069E+06 1.02727E-09-9.31323E-10
 -1       308-3.47164E+06-4.90458E+05-4.94354E+04-1.31525E+06 3.47882E-11 1.22127E-08
 -1       309-3.43708E+06-5.50322E+05-2.75357E+04-1.36531E+06-5.11818E-10 9.65838E-09
 -1       310-3.47748E+06-4.94891E+05-1.15402E+04-1.31310E+06-1.80034E-09 7.62748E-09
 -1       311-3.43052E+06-5.44647E+05-6.25632E+03-1.36834E+06-1.58025E-09 6.23311E-09
 -1       312-3.47836E+06-4.95207E+05-3.33813E+03-1.31269E+06 8.11724E-10 2.18449E-09
 -1       313-3.43030E+06-5.43560E+05-2.95416E+03-1.36790E+06-2.34195E-09-2.55159E-09
 -1       314-3.47760E+06-4.95973E+05-3.95682E+03-1.31350E+06-5.35692E-10 7.08087E-09
 -1       315-3.43312E+06-5.42164E+05-7.86739E+03-1.36476E+06 2.09184E-09-2.57387E-10
 -1       316-3.47510E+06-4.96962E+05-1.49030E+04-1.31549E+06 3.31056E-10-4.59295E-09
 -1       317-3.44355E+06-5.47369E+05-3.54943E+04-1.35819E+06 5.20231E-10-4.69299E-09
 -1       318-3.46665E+06-4.92152E+05-6.39339E+04-1.31925E+06-1.86901E-10-3.92902E-10
 -1       319-3.50429E+06-6.25901E+05-1.72864E+05-1.33783E+06-2.03352E-09-7.81438E-09
 -1       320-3.41521E+06-4.28481E+05-2.70600E+05-1.33175E+06-1.89175E-10-2.32831E-10
 -1       336 9.06662E+01-1.40735E+06-3.42065E+03 2.40102E+03 5.34055E-09 5.69071E-09
 -1       337-1.82916E+03-1.40845E+06-7.54575E+03-5.40944E+03 6.32133E-09-1.16779E-09
 -1       338 1.39391E+03-1.40641E+06-1.34223E+04 3.00635E+03 5.81258E-09-1.96542E-09
 -1       339-1.73396E+04-1.41740E+06-3.35107E+04-6.63613E+03 8.15999E-09 5.55610E-09
 -1       340 1.33382E+04-1.39850E+06-5.16789E+04 3.61695E+03 8.86757E-09 9.04674E-09
 -1       406 1.33274E+01 5.75584E+05 1.16999E+03-5.28059E+00 1.45587E-09 3.13958E-09
 -1       407 3.77724E+02 5.75817E+05 2.48919E+03-9.43270E+00 2.86036E-10-2.76486E-10
 -1       408 1.24975E+03 5.75404E+05 4.96949E+03 1.57294E+01 1.72849E-09 1.28639E-08
 -1       409 5.34617E+03 5.77403E+05 1.11892E+04-1.92592E+02 4.32010E-10 1.69439E-08
 -1       410 1.54157E+04 5.73986E+05 2.28408E+04 1.98760E+02 1.68075E-09 5.02041E-09
 -1       521-7.56284E+06-9.50067E+05-4.96917E+05-2.90802E+06-1.47702E-09-5.82077E-11
 -1       522-7.74319E+06-1.30054E+06-3.18075E+05-2.90346E+06-8.00355E-11 2.34286E-09
 -1       523-7.65537E+06-1.06972E+06-1.16983E+05-2.88673E+06 1.29694E-09 7.80710E-09
 -1       524-7.63453E+06-1.15145E+06-6.52317E+04-2.93568E+06 2.37026E-09 2.74940E-09
 -1       525-7.66839E+06-1.08121E+06-2.71635E+04-2.88234E+06 5.42400E-10 2.29738E-09
 -1       526-7.61984E+06-1.13652E+06-1.46033E+04-2.94092E+06-4.12456E-10-2.58183E-10
 -1       527-7.66974E+06-1.08276E+06-7.50202E+03-2.88216E+06 3.18323E-11 2.11799E-10
 -1       528-7.62063E+06-1.13249E+06-6.13958E+03-2.93827E+06-8.47876E-10 6.50220E-09
 -1       529-7.66732E+06-1.08524E+06-7.63671E+03-2.88487E+06 5.97538E-10 2.50839E-09
 -1       530-7.62844E+06-1.12748E+06-1.48083E+04-2.92993E+06-7.83075E-10-9.38599E-10
 -1       531-7.66146E+06-1.08825E+06-2.77543E+04-2.89008E+06 8.74024E-10 1.83718E-09
 -1       532-7.65103E+06-1.13482E+06-6.63343E+04-2.91540E+06-1.35378E-09-2.84763E-09
 -1       533-7.64473E+06-1.08003E+06-1.19162E+05-2.89846E+06-1.24419E-09 5.60249E-10
 -1       534-7.76745E+06-1.28086E+06-3.23631E+05-2.87650E+06-8.58563E-09-8.05449E-09
 -1       535-7.54850E+06-9.60248E+05-5.05681E+05-2.92249E+06-5.26779E-09-1.68802E-09
 -1       536 2.02129E+02-2.07792E+04 7.77217E+04-1.25953E+04 1.18780E-09 2.14277E-09
 -1       537 3.06157E+04 2.56869E+04 5.06867E+04-6.19070E+04-5.74437E-09 1.00135E-09
 -1       538 1.20647E+04-2.52696E+03 2.00744E+04-1.24209E+04 2.18279E-11 9.84983E-10
 -1       539 1.64286E+04 2.47800E+03 1.14608E+04-6.20805E+04 3.57068E-09 2.82625E-10
 -1       540 1.34099E+04-4.09299E+02 5.02560E+03-1.24114E+04-1.07320E-10-5.52291E-09
 -1       541 1.42355E+04 2.14164E+02 2.71481E+03-6.20832E+04-3.53793E-10-2.06637E-09
 -1       542 1.35421E+04-7.81368E+01 1.20187E+03-1.24205E+04-6.27551E-11 3.32989E-09
 -1       543 1.36422E+04 9.26412E+01 5.70159E+02-6.20695E+04-7.71252E-10-6.11317E-09
 -1       544 1.35428E+04 1.56576E+01 1.17191E+02-1.24255E+04 1.28921E-09-2.34127E-09
 -1       545 1.34084E+04 8.92701E+01-2.56338E+02-6.20633E+04-6.15216E-10 5.88898E-09
 -1       546 1.35703E+04 6.77757E+01-7.18093E+02-1.24265E+04-9.23478E-10 1.04645E-08
 -1       547 1.31877E+04-3.15793E+02-1.74317E+03-6.20572E+04 6.91102E-10 4.65116E-09
 -1       548 1.38127E+04 3.38264E+02-3.16505E+03-1.24317E+04-2.01862E-09-2.41653E-09
 -1       549 1.13372E+04-4.07194E+03-7.90927E+03-6.19553E+04-1.07343E-09-7.20956E-09
 -1       550 1.57246E+04 3.06439E+03-1.22849E+04-1.25283E+04-1.05501E-10 1.44519E-09
 -1       551 2.04991E+04-5.30347E+05 4.22198E+04-8.26252E+05 2.50657E-09 3.29601E-09
 -1       552 1.88055E+04-5.26531E+05 4.40236E+04-1.01448E+06 1.74623E-09 2.40980E-08
 -1       553 1.43157E+04-5.33798E+05 6.33293E+04-8.24565E+05 2.38651E-09 5.94446E-09
 -1       554 4.64971E+04-5.07258E+05 1.29234E+05-1.01466E+06 4.94765E-10-7.35599E-09
 -1       555 1.01376E+05-5.52554E+05 2.44736E+05-8.25500E+05 1.92085E-09-8.54197E-09
 -1       556-1.92734E+05-1.79362E+05 4.28879E+04-2.91529E+05-1.55924E-08-3.45608E-09
 -1       557-1.50067E+05-2.19882E+05 2.17795E+04-3.24923E+05-1.39917E-08 1.43350E-08
 -1       558-1.93825E+05-1.89281E+05 8.95297E+03-2.85131E+05-7.32689E-09 6.74663E-09
 -1       559-1.56120E+05-2.25801E+05 4.48770E+03-3.27656E+05 6.21003E-09 5.41240E-09
 -1       560-1.95317E+05-1.88522E+05 1.90334E+03-2.85894E+05 1.43336E-09 9.11314E-10
 -1       561-1.58135E+05-2.25342E+05 9.67225E+02-3.29027E+05 1.60435E-09 7.07610E-09
 -1       562-1.96467E+05-1.87783E+05 3.47286E+02-2.86677E+05 7.20320E-09 8.31983E-09
 -1       563-1.59328E+05-2.24830E+05 1.09080E+02-3.29839E+05 9.02946E-09 2.59661E-10
 -1       564-1.97146E+05-1.87351E+05-1.77614E+02-2.87141E+05 6.12636E-09-7.75435E-09
 -1       565-1.59923E+05-2.24584E+05-5.35532E+02-3.30228E+05 5.38421E-10 2.76486E-10
 -1       566-1.97313E+05-1.87204E+05-1.22767E+03-2.87277E+05 8.61655E-09 5.42605E-09
 -1       567-1.60117E+05-2.24683E+05-2.74445E+03-3.30179E+05 2.68210E-09-8.18181E-09
 -1       568-1.96840E+05-1.87606E+05-5.68813E+03-2.86988E+05 4.02724E-09 2.73212E-09
 -1       569-1.63012E+05-2.27742E+05-1.33958E+04-3.28885E+05 1.60617E-09 2.70666E-09
 -1       570-1.94264E+05-1.95995E+05-2.67730E+04-2.83320E+05 1.64437E-09-2.10093E-09
 -1       571 3.69587E+05 1.61482E+04 2.39926E+04-9.43823E+04 3.14685E-10-1.94723E-09
 -1       572 3.73150E+05 5.59645E+03 1.17565E+04-1.03469E+05-1.75351E-09-3.47427E-10
 -1       573 3.70982E+05 1.31717E+03 5.22280E+03-9.41343E+04-1.88902E-09 2.32649E-09
 -1       574 3.71400E+05 4.19548E+02 2.61752E+03-1.03737E+05-1.08002E-09-5.85260E-09
 -1       575 3.71120E+05 4.81189E+01 1.23310E+03-9.41026E+04 1.35969E-09-2.74576E-09
 -1       576 3.71154E+05 7.01890E+00 6.26840E+02-1.03773E+05-2.50111E-12-4.72846E-09
 -1       577 3.71143E+05-1.99030E+01 3.05921E+02-9.40985E+04 1.03826E-08-2.93039E-09
 -1       578 3.71142E+05-1.98426E+01 1.61378E+02-1.03777E+05 2.07128E-08-1.25965E-09
 -1       579 3.71190E+05-3.61733E+01 8.71477E+01-9.40980E+04 1.00954E-08-3.69437E-09
 -1       580 3.71209E+05-5.29630E+01 6.35896E+01-1.03773E+05 9.27685E-11 7.00493E-09
 -1       581 3.71279E+05-8.11136E+01 6.33290E+01-9.41029E+04 1.29330E-09-7.00311E-10
 -1       582 3.71338E+05-1.01320E+02 1.07881E+02-1.03718E+05 1.62254E-09 2.01453E-09
 -1       583 3.71405E+05-1.09378E+02 1.90664E+02-9.41527E+04 1.23691E-09 2.60525E-09
 -1       584 3.71570E+05 7.50095E+00 4.28876E+02-1.03294E+05-3.31056E-09-1.97861E-09
 -1       585 3.71510E+05 3.60569E+02 8.56648E+02-9.45272E+04-1.04956E-09 1.58980E-09
 -1       586 1.98834E+03 1.72395E+05 3.82820E+03-2.34459E+05 2.08001E-09 1.55651E-08
 -1       587 1.37757E+03 1.72978E+05 4.43319E+03-2.60834E+05 1.19326E-09 1.38243E-08
 -1       588 1.83982E+03 1.72140E+05 7.07297E+03-2.34151E+05 2.34104E-09 8.50378E-09
 -1       589 6.81375E+03 1.74935E+05 1.50211E+04-2.60902E+05 1.53341E-09-6.07247E-09
 -1       590 1.92275E+04 1.70290E+05 3.00817E+04-2.34381E+05 2.38470E-09 1.46338E-09
 -1       591-1.86011E+05-5.48692E+04-3.65817E+04-8.90198E+04 9.09267E-10-4.74756E-09
 -1       592-1.88392E+05-5.32275E+04-1.83989E+04-9.88660E+04 3.65071E-09-1.05229E-08
 -1       593-1.87856E+05-4.45587E+04-7.80983E+03-9.41800E+04 5.90398E-09 3.03135E-09
 -1       594-1.84239E+05-4.86609E+04-3.83649E+03-9.92122E+04 4.47835E-09 1.11859E-08
 -1       595-1.88061E+05-4.42850E+04-1.77077E+03-9.43768E+04 9.87711E-10 3.36121E-09
 -1       596-1.83957E+05-4.85006E+04-8.95594E+02-9.91723E+04 1.92017E-09-6.36419E-10
 -1       597-1.88095E+05-4.43158E+04-4.83205E+02-9.43772E+04 3.41983E-09-1.21941E-09
 -1       598-1.83926E+05-4.85028E+04-3.78143E+02-9.91581E+04 1.19744E-08 7.00879E-09
 -1       599-1.88090E+05-4.43196E+04-4.70286E+02-9.43742E+04 2.64231E-09-5.96447E-09
 -1       600-1.83946E+05-4.85054E+04-8.61241E+02-9.91617E+04-2.67232E-09 2.76896E-09
 -1       601-1.88046E+05-4.42965E+04-1.69661E+03-9.43678E+04-1.40972E-09-4.12138E-09
 -1       602-1.84208E+05-4.86590E+04-3.67206E+03-9.91856E+04-1.35697E-09-1.41974E-08
 -1       603-1.87836E+05-4.45695E+04-7.47374E+03-9.41778E+04 3.67527E-09-3.72893E-11
 -1       604-1.88215E+05-5.29855E+04-1.76020E+04-9.87926E+04 2.97405E-10-1.53159E-09
 -1       605-1.86020E+05-5.44733E+04-3.49973E+04-8.92796E+04 2.41607E-09 2.19370E-09
 -1       606 1.33565E+05-1.55326E+04-2.46656E+04 4.48777E+04-7.51243E-09 3.31056E-09
 -1       607 1.29630E+05-5.19414E+03-1.21466E+04 4.92936E+04-8.51287E-10-1.96860E-09
 -1       608 1.31878E+05-1.07767E+03-5.41580E+03 4.45631E+04 5.58248E-09 8.68135E-09
 -1       609 1.31357E+05-2.71102E+02-2.71840E+03 4.96361E+04-3.74348E-09 1.48520E-09
 -1       610 1.31623E+05 4.82320E+01-1.28871E+03 4.45242E+04-9.37689E-09 4.45471E-09
 -1       611 1.31503E+05 1.08744E+02-6.47404E+02 4.96771E+04-1.32741E-08 1.02500E-09
 -1       612 1.31539E+05 1.19430E+02-3.07951E+02 4.45202E+04-4.38558E-09 2.92448E-09
 -1       613 1.31480E+05 1.43106E+02-1.37638E+02 4.96814E+04-9.21409E-09 1.88720E-09
 -1       614 1.31488E+05 1.32555E+02-3.37342E+01 4.45194E+04-6.14818E-10-6.83485E-10
 -1       615 1.31447E+05 1.61273E+02 5.60690E+01 4.96813E+04 8.27640E-09-2.11776E-09
 -1       616 1.31449E+05 1.53186E+02 1.69279E+02 4.45201E+04 3.30692E-09-8.89941E-10
 -1       617 1.31450E+05 2.26237E+02 3.90562E+02 4.96792E+04 1.74114E-08 3.48336E-10
 -1       618 1.31400E+05 3.24745E+02 7.91322E+02 4.45208E+04 7.78573E-09-1.91994E-09
 -1       619 1.31699E+05 9.54097E+02 1.78502E+03 4.96713E+04-1.65005E-09-3.58295E-09
 -1       620 1.31151E+05 2.45398E+03 3.62700E+03 4.45220E+04 4.77348E-09 3.84944E-09
 -1       621 1.44936E+03 3.99366E+05 4.95915E+03-3.21337E+04 5.01996E-09-4.79565E-09
 -1       622 6.65808E+02 4.00366E+05 4.99915E+03-3.94797E+04 1.49339E-09-7.68352E-09
 -1       623 3.71629E+02 3.99519E+05 7.14128E+03-3.21312E+04 4.74711E-09 3.43744E-09
 -1       624 3.68482E+03 4.02674E+05 1.45272E+04-3.93736E+04 1.50976E-09 5.56270E-09
 -1       625 1.03458E+04 3.97099E+05 2.75710E+04-3.22333E+04 4.36376E-09 5.03405E-10
 -1       626 2.49979E+05 8.06160E+04-3.11212E+03 1.57146E+05-1.63218E-08 8.10905E-09
 -1       627 2.44682E+05 8.65742E+04-1.47850E+03 1.62116E+05-2.13477E-08 2.58660E-09
 -1       628 2.50124E+05 8.19323E+04-6.24131E+02 1.56179E+05 6.07906E-09 6.83303E-09
 -1       629 2.44648E+05 8.74011E+04-2.93195E+02 1.62241E+05 2.75359E-08 1.04410E-08
 -1       630 2.50074E+05 8.20385E+04-1.24187E+02 1.56063E+05 2.04418E-08-6.92859E-09
 -1       631 2.44582E+05 8.74852E+04-3.86644E+01 1.62225E+05 2.90056E-08-1.84872E-08
 -1       632 2.50024E+05 8.20598E+04 2.51898E+01 1.56029E+05 7.37418E-09 6.63749E-09
 -1       633 2.44547E+05 8.75026E+04 1.04771E+02 1.62205E+05-1.95523E-08 2.03065E-08
 -1       634 2.49989E+05 8.20609E+04 2.36827E+02 1.56014E+05-1.33869E-08 2.24968E-08
 -1       635 2.44558E+05 8.75118E+04 5.23883E+02 1.62201E+05-1.20604E-08-3.53384E-09
 -1       636 2.49961E+05 8.20765E+04 1.07984E+03 1.55998E+05-1.09312E-08 4.88808E-09
 -1       637 2.44805E+05 8.77633E+04 2.40056E+03 1.62171E+05-1.90084E-10-1.20235E-08
 -1       638 2.49901E+05 8.28414E+04 4.96152E+03 1.55661E+05 1.02859E-08 1.04410E-09
 -1       639 2.47356E+05 9.19467E+04 1.17857E+04 1.61196E+05-8.81982E-10 3.61069E-09
 -1       640 2.49921E+05 9.50689E+04 2.47465E+04 1.50540E+05-4.57067E-09 2.47474E-09
 -1       656 1.67471E+04-5.96097E+05-6.73931E+04 1.45506E+04-9.25138E-09 2.51384E-09
 -1       657-2.40325E+04-6.21307E+05-5.03285E+04 6.87008E+04-1.01418E-08-5.02041E-09
 -1       658 3.55320E+03-6.04803E+05-3.25703E+04 1.43383E+04-7.95427E-09 3.19051E-09
 -1       659-2.36865E+04-6.21213E+05-4.97947E+04 6.88445E+04-9.51559E-09-4.34626E-09
 -1       660 1.65229E+04-5.96298E+05-6.63689E+04 1.44088E+04-1.05792E-08 2.62139E-09
 -1       661 3.71124E+05 5.13368E+04 2.94825E+04 1.46027E+05 3.07773E-09-1.75351E-09
 -1       662 3.77420E+05 6.93754E+04 1.78730E+04 1.50441E+05-4.05762E-09 3.19415E-09
 -1       663 3.75730E+05 5.60856E+04 6.92909E+03 1.45944E+05-3.37462E-09 2.75759E-09
 -1       664 3.72052E+05 6.20313E+04 3.67637E+03 1.51320E+05-9.99242E-09-6.19048E-09
 -1       665 3.76180E+05 5.65301E+04 1.61978E+03 1.45955E+05 6.27705E-09-3.31340E-09
 -1       666 3.71528E+05 6.13969E+04 8.64406E+02 1.51360E+05 7.43269E-09 4.78789E-09
 -1       667 3.76231E+05 5.65735E+04 5.01622E+02 1.45958E+05 1.33493E-08 2.35733E-09
 -1       668 3.71478E+05 6.13560E+04 4.81655E+02 1.51368E+05-7.35281E-09 8.86160E-10
 -1       669 3.76232E+05 5.65623E+04 7.00499E+02 1.45952E+05 2.59797E-09-2.58967E-09
 -1       670 3.71564E+05 6.14606E+04 1.40455E+03 1.51394E+05 1.97008E-09 4.54452E-09
 -1       671 3.76156E+05 5.64724E+04 2.73914E+03 1.45935E+05-1.00354E-08-1.42791E-09
 -1       672 3.72453E+05 6.25673E+04 6.28491E+03 1.51354E+05 9.43794E-09-3.57852E-09
 -1       673 3.75392E+05 5.56997E+04 1.18671E+04 1.45907E+05 5.23551E-09 2.13640E-09
 -1       674 3.81649E+05 7.51698E+04 3.06351E+04 1.49864E+05 1.14918E-08-1.09594E-10
 -1       675 3.67501E+05 4.75547E+04 5.05368E+04 1.46045E+05 8.61291E-10 9.85892E-10
 -1       676 7.66490E+01-4.99898E+05-2.68516E+03 3.13528E+02-1.05716E-08-4.80196E-09
 -1       677-8.87070E+02-5.00649E+05-4.97464E+03-6.25827E+02 2.75213E-09 3.20599E-09
 -1       678 6.48426E+02-4.99385E+05-8.66330E+03 3.12076E+02-5.21595E-09 3.26988E-09
 -1       679-9.64344E+03-5.06052E+05-2.09168E+04-6.22865E+02 6.41626E-09-2.06592E-09
 -1       680 6.63991E+03-4.94500E+05-3.30351E+04 3.07470E+02-4.61296E-09-1.10037E-09
 -1       771-3.17178E+06-6.07176E+05-8.34467E+04-1.35587E+06-7.20320E-10 7.37782E-09
 -1       772-3.15881E+06-6.20453E+05-4.17971E+04-1.39801E+06 4.07817E-09-1.45519E-09
 -1       773-3.17820E+06-5.82184E+05-1.79724E+04-1.36726E+06 8.58563E-10 1.76078E-09
 -1       774-3.14973E+06-6.10899E+05-8.74463E+03-1.40156E+06 1.60071E-09-1.09139E-09
 -1       775-3.18018E+06-5.80524E+05-4.17302E+03-1.36820E+06-1.78989E-09-1.46974E-09
 -1       776-3.15001E+06-6.10418E+05-2.05845E+03-1.40296E+06-4.84579E-09-5.30281E-09
 -1       777-3.18142E+06-5.79840E+05-1.17914E+03-1.36865E+06 5.52973E-10 7.49424E-10
 -1       778-3.15066E+06-6.10261E+05-8.65091E+02-1.40396E+06 1.08412E-09-4.59579E-10
 -1       779-3.18221E+06-5.79329E+05-1.10844E+03-1.36897E+06 9.71340E-10-2.91038E-11
 -1       780-3.15119E+06-6.10163E+05-1.98435E+03-1.40462E+06-2.32831E-10 4.58385E-10
 -1       781-3.18253E+06-5.78996E+05-3.94135E+03-1.36912E+06 6.00267E-10-1.85537E-10
 -1       782-3.15200E+06-6.10473E+05-8.54946E+03-1.40491E+06-1.47156E-09-3.14321E-09
 -1       783-3.18208E+06-5.79612E+05-1.74507E+04-1.36872E+06-1.10595E-09-1.18780E-09
 -1       784-3.16140E+06-6.20536E+05-4.11824E+04-1.40374E+06 1.05774E-09 1.55705E-09
 -1       785-3.17748E+06-6.03049E+05-8.19658E+04-1.35729E+06-8.27640E-10-1.18598E-09
 -1       786 2.98236E+05-9.76788E+03 3.77214E+04-1.81260E+03 2.29647E-10 1.50794E-09
 -1       787 3.12191E+05 1.26732E+04 2.44797E+04-9.32579E+03-4.29736E-10 2.40061E-09
 -1       788 3.04018E+05-1.06326E+03 9.78931E+03-1.82071E+03 1.44041E-10-3.09728E-09
 -1       789 3.05709E+05 1.33597E+03 5.53264E+03-9.30076E+03 8.64929E-10-1.21054E-09
 -1       790 3.04708E+05-1.19190E+02 2.49079E+03-1.83680E+03-2.59377E-10 1.12345E-09
 -1       791 3.04923E+05 1.39273E+02 1.34609E+03-9.27833E+03 2.36128E-10 1.21526E-09
 -1       792 3.04799E+05-1.48083E+01 6.84272E+02-1.84314E+03 4.27605E-10 3.62559E-09
 -1       793 3.04823E+05 1.91685E+01 4.54207E+02-9.27617E+03-3.48834E-10 1.34943E-09
 -1       794 3.04808E+05-8.21040E+00 4.14392E+02-1.83897E+03-3.27191E-10 1.73924E-09
 -1       795 3.04854E+05 5.74919E+01 6.30479E+02-9.29544E+03 8.70386E-10 4.49315E-10
 -1       796 3.04773E+05-5.20504E+01 1.07715E+03-1.82387E+03-5.77302E-10-2.07126E-09
 -1       797 3.05189E+05 5.56625E+02 2.34040E+03-9.33383E+03-3.50155E-10-9.14042E-11
 -1       798 3.04484E+05-4.50395E+02 4.11804E+03-1.80058E+03-1.47338E-10-2.55682E-09
 -1       799 3.07921E+05 5.31566E+03 1.02870E+04-9.36940E+03-3.30670E-09-2.05819E-09
 -1       800 3.02056E+05-4.11000E+03 1.58416E+04-1.78877E+03 8.57199E-11 1.80898E-09
 -1       801-2.56600E+04 4.00363E+05 4.88469E+04-3.79529E+05-1.22600E-09 1.60071E-10
 -1       802 7.28983E+04 4.07064E+05 7.60445E+04-1.86983E+06 1.89102E-08-7.25049E-09
 -1       803 2.85741E+03 3.92242E+05 9.08922E+04-3.79100E+05 5.23869E-09 7.91420E-09
 -1       804 1.49618E+05 4.52252E+05 2.06454E+05-1.86951E+06 1.00554E-08-5.00950E-09
 -1       805-9.17617E+04 3.56637E+05 2.92224E+05-3.79910E+05 7.17409E-09 4.64206E-09
 -1       806-2.80474E+05-8.49165E+04-2.45402E+04-1.43121E+05 7.56933E-09 3.82170E-09
 -1       807-2.79504E+05-8.02472E+04-1.16841E+04-1.51944E+05 1.13014E-08-1.05824E-08
 -1       808-2.80494E+05-7.27826E+04-4.91959E+03-1.48240E+05 5.77529E-10-3.01702E-09
 -1       809-2.77041E+05-7.60598E+04-2.37974E+03-1.52917E+05-8.72842E-09 2.86623E-08
 -1       810-2.80577E+05-7.20108E+04-1.07547E+03-1.48591E+05-6.69024E-09-8.23093E-11
 -1       811-2.76813E+05-7.58032E+04-5.31259E+02-1.52955E+05 1.76169E-09-1.93813E-09
 -1       812-2.80601E+05-7.19959E+04-2.62674E+02-1.48605E+05 5.12046E-09 7.09679E-09
 -1       813-2.76784E+05-7.58011E+04-1.64377E+02-1.52945E+05-4.19504E-11 8.03993E-10
 -1       814-2.80596E+05-7.20065E+04-1.51962E+02-1.48599E+05 4.10841E-09-8.94443E-09
 -1       815-2.76780E+05-7.58109E+04-2.37151E+02-1.52934E+05 1.61399E-08-8.02356E-09
 -1       816-2.80567E+05-7.20252E+04-4.44894E+02-1.48583E+05 8.31187E-09-3.44789E-09
 -1       817-2.76864E+05-7.59108E+04-9.66295E+02-1.52887E+05 6.39511E-09 4.42742E-09
 -1       818-2.80500E+05-7.23630E+04-1.99096E+03-1.48441E+05 2.82034E-09-2.58206E-09
 -1       819-2.77945E+05-7.74958E+04-4.72066E+03-1.52342E+05 8.18545E-12 3.28419E-09
 -1       820-2.80358E+05-7.73722E+04-9.91461E+03-1.46475E+05-6.34827E-10 3.07546E-09
 -1       821-3.84425E+05 1.23609E+04-4.77788E+04 1.92779E+03-4.00451E-09 1.08757E-08
 -1       822-4.02061E+05-1.60517E+04-3.10045E+04 1.08074E+04-1.12516E-09-5.47880E-09
 -1       823-3.91752E+05 1.33975E+03-1.24065E+04 1.81995E+03 3.72256E-09-8.69250E-09
 -1       824-3.93887E+05-1.67326E+03-7.01508E+03 1.09717E+04-1.59184E-09-2.04454E-09
 -1       825-3.92628E+05 1.51014E+02-3.17931E+03 1.76221E+03-7.43853E-09-3.07818E-09
 -1       826-3.92918E+05-1.47328E+02-1.75166E+03 1.10676E+04-1.53200E-08-6.80362E-09
 -1       827-3.92744E+05 2.42903E+01-9.62867E+02 1.72372E+03-8.06745E-09-1.51061E-09
 -1       828-3.92815E+05 2.04638E+00-7.73816E+02 1.11274E+04-9.22955E-09-2.79437E-09
 -1       829-3.92746E+05 2.50293E+01-9.11375E+02 1.70225E+03-1.08361E-09-7.32143E-09
 -1       830-3.92922E+05-1.25194E+02-1.61801E+03 1.11521E+04 3.47779E-09-7.19930E-09
 -1       831-3.92643E+05 1.44306E+02-2.91146E+03 1.69910E+03-4.50109E-09-7.11702E-09
 -1       832-3.93822E+05-1.51361E+03-6.41711E+03 1.11403E+04-1.02111E-09-1.81478E-09
 -1       833-3.91844E+05 1.23439E+03-1.13377E+04 1.71432E+03 9.64405E-10-3.30328E-09
 -1       834-4.01309E+05-1.46514E+04-2.83415E+04 1.10799E+04-3.81988E-11 1.33195E-09
 -1       835-3.85149E+05 1.13119E+04-4.36656E+04 1.76214E+03 1.40471E-09 1.38425E-09
 -1       836-3.47867E+03 5.84206E+05 4.70655E+04-3.65882E+04-4.45471E-09 1.64619E-10
 -1       837 1.06716E+04 5.98954E+05 3.60098E+04-7.59248E+04-8.05164E-09-8.72626E-09
 -1       838-8.49216E+02 5.89118E+05 3.08773E+04-3.64990E+04-5.52609E-09-4.76376E-09
 -1       839 1.80139E+04 6.04340E+05 5.30529E+04-7.59248E+04-7.73798E-09 3.92720E-09
 -1       840-6.33226E+03 5.78806E+05 8.16014E+04-3.65852E+04-4.86034E-09-4.59886E-09
 -1       856-3.18747E+05 5.38580E+03-3.82900E+04 1.02450E+04-5.36966E-09-1.89539E-09
 -1       857-3.31442E+05-9.56080E+03-2.35359E+04 2.63361E+04-1.00204E-08-4.16321E-09
 -1       858-3.24222E+05 5.08753E+02-9.84936E+03 1.01074E+04-1.29676E-08 5.49335E-10
 -1       859-3.25531E+05-6.51247E+02-5.31995E+03 2.65028E+04-1.60549E-09-4.26633E-09
 -1       860-3.24764E+05 9.29809E+01-2.48877E+03 1.00735E+04 3.36286E-09-6.14091E-09
 -1       861-3.24981E+05 6.49032E+01-1.31054E+03 2.65497E+04-2.90856E-09-3.94516E-09
 -1       862-3.24836E+05 5.72882E+01-6.83126E+02 1.00597E+04 1.53284E-08-2.28988E-09
 -1       863-3.24925E+05 1.23048E+02-4.52502E+02 2.65640E+04 2.25287E-08 1.30217E-09
 -1       864-3.24843E+05 5.40748E+01-4.26633E+02 1.00591E+04 9.27855E-09 2.86809E-09
 -1       865-3.24934E+05 9.74956E+01-6.45522E+02 2.65507E+04 9.80208E-09-4.91019E-09
 -1       866-3.24808E+05 6.45021E+01-1.14027E+03 1.00730E+04-1.49794E-09 2.05148E-09
 -1       867-3.25157E+05-2.30424E+02-2.38500E+03 2.65062E+04 4.14025E-09-8.84761E-10
 -1       868-3.24558E+05 2.40005E+02-4.39966E+03 1.01041E+04 3.17777E-09 2.00214E-09
 -1       869-3.27756E+05-4.21360E+03-1.04888E+04 2.63414E+04-2.56296E-09 7.98025E-10
 -1       870-3.22106E+05 2.39737E+03-1.70715E+04 1.02403E+04 1.86083E-09 3.10047E-09
 -1       871-5.64930E+03-4.70416E+04-1.26832E+04 1.65933E+05-8.40191E-09-6.16637E-09
 -1       872-2.11755E+03-4.96370E+04-4.15910E+03 2.03510E+05-3.63343E-09-1.39257E-08
 -1       873-1.69341E+02-4.86917E+04 2.86427E+03 1.65592E+05-8.36826E-09-1.09335E-08
 -1       874 3.06641E+03-4.58505E+04 1.19954E+04 2.03624E+05-5.40513E-09-6.38920E-10
 -1       875 9.55020E+03-5.10756E+04 2.56648E+04 1.65845E+05-8.90941E-09 1.29967E-09
 -1       876 4.73035E+05 6.96471E+04 4.16201E+04 1.89077E+05-4.66343E-09-1.20090E-08
 -1       877 4.80051E+05 9.22090E+04 2.45777E+04 1.97217E+05-5.57588E-09-5.87261E-09
 -1       878 4.79060E+05 7.43468E+04 9.72065E+03 1.89591E+05 4.86853E-09-7.03039E-10
 -1       879 4.72890E+05 8.30346E+04 5.05566E+03 1.98131E+05 1.95530E-08 3.82795E-09
 -1       880 4.79574E+05 7.47853E+04 2.25501E+03 1.89661E+05-5.38671E-09 3.21552E-09
 -1       881 4.72268E+05 8.23238E+04 1.17785E+03 1.98108E+05 5.94605E-09 2.47084E-09
 -1       882 4.79617E+05 7.48463E+04 6.59954E+02 1.89679E+05 4.88626E-10 2.79798E-10
 -1       883 4.72219E+05 8.22636E+04 5.82140E+02 1.98079E+05-1.03136E-08-3.61911E-09
 -1       884 4.79608E+05 7.48492E+04 8.00462E+02 1.89681E+05-8.86976E-09-5.50244E-09
 -1       885 4.72307E+05 8.23316E+04 1.55370E+03 1.98090E+05 1.17061E-08 3.19829E-09
 -1       886 4.79531E+05 7.47823E+04 3.04484E+03 1.89667E+05-9.15793E-09-5.07862E-09
 -1       887 4.73165E+05 8.32790E+04 6.86085E+03 1.98086E+05-1.90228E-08-2.62253E-09
 -1       888 4.78810E+05 7.42033E+04 1.32095E+04 1.89580E+05-1.68825E-08-4.21915E-09
 -1       889 4.82880E+05 9.57575E+04 3.34016E+04 1.96837E+05-4.17593E-09 5.13683E-09
 -1       890 4.70631E+05 6.78072E+04 5.65719E+04 1.88856E+05 6.94536E-09 1.60071E-10
 -1       891 4.97048E+02-2.24311E+05-8.55638E+03 5.02237E+04-6.96446E-09 7.34872E-10
 -1       892-2.12703E+03-2.26891E+05-6.43542E+03 1.04835E+05-1.84996E-08-3.36786E-09
 -1       893 5.42924E+01-2.25265E+05-5.37918E+03 5.00888E+04-6.65341E-09 1.66301E-09
 -1       894-3.29301E+03-2.27665E+05-9.07964E+03 1.04782E+05-6.65432E-09-3.64298E-09
 -1       895 8.91611E+02-2.23422E+05-1.39259E+04 5.02754E+04-6.10498E-09 1.23691E-10
 -1       956-4.37170E+05-7.97275E+03-1.90543E+04 5.12962E+04-6.99220E-09-5.64341E-09
 -1       957-4.40883E+05-2.59076E+03-9.73057E+03 6.11763E+04-1.30240E-09-9.34961E-10
 -1       958-4.38891E+05-1.98362E+02-4.38666E+03 5.09749E+04 7.22684E-09-4.35648E-09
 -1       959-4.39237E+05 3.94685E+01-2.23461E+03 6.15262E+04-1.63891E-09-2.00089E-09
 -1       960-4.39102E+05 1.38887E+02-1.08777E+03 5.09411E+04-7.67250E-09 1.33059E-09
 -1       961-4.39167E+05 1.74258E+02-5.69330E+02 6.15652E+04-1.61181E-08-4.86853E-09
 -1       962-4.39172E+05 1.57467E+02-3.14895E+02 5.09349E+04-5.62704E-09 3.19687E-10
 -1       963-4.39196E+05 1.95581E+02-2.31516E+02 6.15734E+04-8.69954E-09 4.25462E-09
 -1       964-4.39198E+05 1.71348E+02-2.56716E+02 5.09325E+04-1.31490E-09-2.25236E-09
 -1       965-4.39221E+05 2.05288E+02-4.23264E+02 6.15739E+04 8.19318E-09-2.89720E-09
 -1       966-4.39184E+05 1.79977E+02-7.84573E+02 5.09343E+04-3.71938E-09 1.50021E-09
 -1       967-4.39308E+05 1.29417E+02-1.60450E+03 6.15526E+04 2.87264E-09 6.73026E-11
 -1       968-4.39060E+05-4.43901E+01-3.14270E+03 5.09544E+04-1.54705E-09 2.83762E-10
 -1       969-4.40517E+05-1.74305E+03-6.97682E+03 6.13351E+04-1.74623E-09-3.97324E-09
 -1       970-4.37842E+05-5.61246E+03-1.36589E+04 5.11603E+04 4.48290E-09 1.27511E-09
 -1       971-5.78726E+05 2.06627E+03-2.60534E+04 1.32447E+04-5.74164E-09-2.11912E-10
 -1       972-5.86843E+05-5.57846E+03-1.56005E+04 2.83904E+04-3.26099E-09 5.66706E-09
 -1       973-5.82312E+05 2.16139E+02-6.66158E+03 1.30479E+04-5.34874E-09-3.83625E-09
 -1       974-5.83059E+05-2.76505E+02-3.55192E+03 2.86362E+04-1.29057E-09 4.55975E-09
 -1       975-5.82646E+05 7.16152E+01-1.71155E+03 1.29952E+04-9.94987E-10-3.05135E-10
 -1       976-5.82767E+05 1.01532E+02-9.46479E+02 2.87149E+04-1.19730E-08-6.24811E-09
 -1       977-5.82698E+05 6.66386E+01-5.99908E+02 1.29685E+04 7.02471E-09 1.21611E-09
 -1       978-5.82763E+05 1.34547E+02-5.89959E+02 2.87504E+04 2.27601E-08-2.57160E-10
 -1       979-5.82698E+05 7.50600E+01-8.50703E+02 1.29594E+04 7.09116E-09-4.27383E-09
 -1       980-5.82835E+05 9.51740E+01-1.59608E+03 2.87501E+04 9.08040E-09 1.81933E-09
 -1       981-5.82627E+05 1.08744E+02-3.03488E+03 1.29688E+04-6.48629E-09 5.26256E-09
 -1       982-5.83435E+05-5.57160E+02-6.40461E+03 2.87099E+04-1.17307E-08 4.91400E-09
 -1       983-5.82053E+05 4.01619E+02-1.20376E+04 1.30006E+04-3.42652E-09-6.38283E-09
 -1       984-5.90381E+05-1.01246E+04-2.82537E+04 2.85366E+04-8.21160E-09-1.96928E-09
 -1       985-5.75594E+05 3.79371E+03-4.71618E+04 1.31516E+04 2.88946E-09-2.36832E-09
 -3
 9999
