
 stresses (elem, integ.pnt.,sxx,syy,szz,sxy,sxz,syz) for set ELALL and time  0.1000000E+01

         1   1  1.760289E+06  1.318291E+05  1.395449E+05  9.008752E+04  9.773344E+04  1.414367E+01
         1   2  1.751319E+06  4.760384E+04  7.124806E+04  4.769752E+04  6.143231E+04  4.707049E+00
         1   3  1.760382E+06  1.667890E+04  3.986534E+04  5.308165E+03  2.513089E+04  2.142893E-01
         1   4  1.760280E+06  1.318139E+05  1.395428E+05 -5.382050E-10  9.773344E+04 -1.997463E-10
         1   5  1.751317E+06  4.759958E+04  7.124745E+04  1.398812E-09  6.143231E+04 -5.810869E-10
         1   6  1.760382E+06  1.667885E+04  3.986533E+04  3.931096E-10  2.513089E+04 -4.274305E-10
         1   7  1.760289E+06  1.318291E+05  1.395449E+05 -9.008752E+04  9.773344E+04 -1.414367E+01
         1   8  1.751319E+06  4.760384E+04  7.124806E+04 -4.769752E+04  6.143231E+04 -4.707049E+00
         1   9  1.760382E+06  1.667890E+04  3.986534E+04 -5.308165E+03  2.513089E+04 -2.142893E-01
         1  10  1.760279E+06  1.318266E+05  1.395270E+05  9.008752E+04  6.153314E-10  1.775915E-11
         1  11  1.751315E+06  4.760283E+04  7.124098E+04  4.769752E+04  4.224838E-10  4.060018E-11
         1  12  1.760382E+06  1.667873E+04  3.986416E+04  5.308165E+03 -4.696061E-11 -1.409697E-10
         1  13  1.760270E+06  1.318114E+05  1.395249E+05  8.762786E-10  1.011097E-10 -5.121545E-11
         1  14  1.751313E+06  4.759857E+04  7.124037E+04  1.558744E-09 -5.122836E-10 -1.970748E-10
         1  15  1.760382E+06  1.667868E+04  3.986415E+04  1.197206E-09  8.081092E-10 -2.535877E-10
         1  16  1.760279E+06  1.318266E+05  1.395270E+05 -9.008752E+04 -8.612122E-10 -1.639263E-10
         1  17  1.751315E+06  4.760283E+04  7.124098E+04 -4.769752E+04  3.773316E-10 -4.205552E-10
         1  18  1.760382E+06  1.667873E+04  3.986416E+04 -5.308165E+03  1.227780E-10 -3.861857E-10
         1  19  1.760289E+06  1.318291E+05  1.395449E+05  9.008752E+04 -9.773344E+04 -1.414367E+01
         1  20  1.751319E+06  4.760384E+04  7.124806E+04  4.769752E+04 -6.143231E+04 -4.707049E+00
         1  21  1.760382E+06  1.667890E+04  3.986534E+04  5.308165E+03 -2.513089E+04 -2.142893E-01
         1  22  1.760280E+06  1.318139E+05  1.395428E+05 -9.889746E-10 -9.773344E+04  9.440860E-11
         1  23  1.751317E+06  4.759958E+04  7.124745E+04  1.167127E-09 -6.143231E+04  1.859090E-10
         1  24  1.760382E+06  1.667885E+04  3.986533E+04 -1.794495E-10 -2.513089E+04 -1.010620E-10
         1  25  1.760289E+06  1.318291E+05  1.395449E+05 -9.008752E+04 -9.773344E+04  1.414367E+01
         1  26  1.751319E+06  4.760384E+04  7.124806E+04 -4.769752E+04 -6.143231E+04  4.707049E+00
         1  27  1.760382E+06  1.667890E+04  3.986534E+04 -5.308165E+03 -2.513089E+04  2.142893E-01
         2   1  1.756992E+06  1.212909E+04  3.082141E+04  7.398278E+03  1.979725E+04  2.352802E-01
         2   2  1.755607E+06  4.179233E+03  1.967568E+04  3.508827E+03  9.950092E+03  5.608406E-02
         2   3  1.757003E+06  2.247926E+03  1.643239E+04 -3.806260E+02  1.029868E+02 -6.296983E-05
         2   4  1.756992E+06  1.212899E+04  3.082139E+04 -1.238393E-09  1.979725E+04 -3.022040E-10
         2   5  1.755607E+06  4.179210E+03  1.967567E+04 -4.387079E-10  9.950092E+03 -2.611876E-10
         2   6  1.757003E+06  2.247926E+03  1.643239E+04 -1.714537E-09  1.029868E+02 -1.719135E-10
         2   7  1.756992E+06  1.212909E+04  3.082141E+04 -7.398278E+03  1.979725E+04 -2.352802E-01
         2   8  1.755607E+06  4.179233E+03  1.967568E+04 -3.508827E+03  9.950092E+03 -5.608406E-02
         2   9  1.757003E+06  2.247926E+03  1.643239E+04  3.806260E+02  1.029868E+02  6.296949E-05
         2  10  1.756992E+06  1.212899E+04  3.082067E+04  7.398278E+03  3.202192E-10 -2.243938E-10
         2  11  1.755607E+06  4.179207E+03  1.967549E+04  3.508827E+03  5.748884E-10 -3.438089E-10
         2  12  1.757003E+06  2.247926E+03  1.643239E+04 -3.806260E+02  4.076989E-10 -5.372981E-10
         2  13  1.756992E+06  1.212888E+04  3.082066E+04 -6.572043E-10 -5.784102E-10 -1.739046E-10
         2  14  1.755607E+06  4.179184E+03  1.967549E+04  8.410510E-10  1.706087E-10 -6.743513E-11
         2  15  1.757003E+06  2.247926E+03  1.643239E+04  1.501412E-10  3.404715E-12 -2.914393E-10
         2  16  1.756992E+06  1.212899E+04  3.082067E+04 -7.398278E+03  3.029168E-10 -1.117161E-10
         2  17  1.755607E+06  4.179207E+03  1.967549E+04 -3.508827E+03 -4.304457E-10  2.423140E-10
         2  18  1.757003E+06  2.247926E+03  1.643239E+04  3.806260E+02 -1.125995E-09 -8.781050E-11
         2  19  1.756992E+06  1.212909E+04  3.082141E+04  7.398278E+03 -1.979725E+04 -2.352802E-01
         2  20  1.755607E+06  4.179233E+03  1.967568E+04  3.508827E+03 -9.950092E+03 -5.608406E-02
         2  21  1.757003E+06  2.247926E+03  1.643239E+04 -3.806260E+02 -1.029868E+02  6.296871E-05
         2  22  1.756992E+06  1.212899E+04  3.082139E+04 -1.406334E-09 -1.979725E+04 -5.249634E-11
         2  23  1.755607E+06  4.179210E+03  1.967567E+04 -2.956600E-10 -9.950092E+03  1.550360E-10
         2  24  1.757003E+06  2.247926E+03  1.643239E+04 -2.624514E-09 -1.029868E+02 -4.100150E-10
         2  25  1.756992E+06  1.212909E+04  3.082141E+04 -7.398278E+03 -1.979725E+04  2.352802E-01
         2  26  1.755607E+06  4.179233E+03  1.967568E+04 -3.508827E+03 -9.950092E+03  5.608406E-02
         2  27  1.757003E+06  2.247926E+03  1.643239E+04  3.806260E+02 -1.029868E+02 -6.296939E-05
         3   1  1.757101E+06  2.328531E+03  1.690410E+04  3.834608E+02 -2.696079E+03 -1.660745E-03
         3   2  1.755483E+06  5.023568E+03  2.228221E+04 -4.274703E+03 -1.385343E+04  9.512919E-02
         3   3  1.757086E+06  1.481649E+04  3.668396E+04 -8.932792E+03 -2.501069E+04  3.588914E-01
         3   4  1.757101E+06  2.328531E+03  1.690410E+04  1.686884E-08 -2.696079E+03  3.134308E-11
         3   5  1.755483E+06  5.023534E+03  2.228220E+04 -3.421423E-08 -1.385343E+04  5.113090E-10
         3   6  1.757086E+06  1.481634E+04  3.668394E+04 -9.171731E-08 -2.501069E+04  1.161959E-09
         3   7  1.757101E+06  2.328531E+03  1.690410E+04 -3.834608E+02 -2.696079E+03  1.660745E-03
         3   8  1.755483E+06  5.023568E+03  2.228221E+04  4.274703E+03 -1.385343E+04 -9.512918E-02
         3   9  1.757086E+06  1.481649E+04  3.668396E+04  8.932792E+03 -2.501069E+04 -3.588914E-01
         3  10  1.757101E+06  2.328529E+03  1.690409E+04  3.834608E+02 -1.256053E-08 -3.359560E-10
         3  11  1.755482E+06  5.023517E+03  2.228185E+04 -4.274703E+03  2.235162E-08  3.822028E-10
         3  12  1.757086E+06  1.481632E+04  3.668279E+04 -8.932792E+03  5.534644E-08  9.069834E-10
         3  13  1.757101E+06  2.328529E+03  1.690409E+04 -9.099768E-10 -9.006831E-11 -2.272503E-10
         3  14  1.755482E+06  5.023483E+03  2.228184E+04  2.183090E-10 -1.685162E-11  3.491976E-10
         3  15  1.757085E+06  1.481617E+04  3.668277E+04 -5.394328E-10  5.050839E-11  7.926609E-10
         3  16  1.757101E+06  2.328529E+03  1.690409E+04 -3.834608E+02  1.339935E-08 -1.138991E-10
         3  17  1.755482E+06  5.023517E+03  2.228185E+04  4.274703E+03 -2.136762E-08  2.984883E-10
         3  18  1.757086E+06  1.481632E+04  3.668279E+04  8.932792E+03 -5.542981E-08  7.162086E-10
         3  19  1.757101E+06  2.328531E+03  1.690410E+04  3.834608E+02  2.696079E+03  1.660744E-03
         3  20  1.755483E+06  5.023568E+03  2.228221E+04 -4.274703E+03  1.385343E+04 -9.512918E-02
         3  21  1.757086E+06  1.481649E+04  3.668396E+04 -8.932792E+03  2.501069E+04 -3.588914E-01
         3  22  1.757101E+06  2.328531E+03  1.690410E+04 -2.084847E-08  2.696079E+03 -4.626489E-10
         3  23  1.755483E+06  5.023534E+03  2.228220E+04  3.540859E-08  1.385343E+04  1.671592E-10
         3  24  1.757086E+06  1.481634E+04  3.668394E+04  8.736725E-08  2.501069E+04  4.633239E-10
         3  25  1.757101E+06  2.328531E+03  1.690410E+04 -3.834608E+02  2.696079E+03 -1.660745E-03
         3  26  1.755483E+06  5.023568E+03  2.228221E+04  4.274703E+03  1.385343E+04  9.512918E-02
         3  27  1.757086E+06  1.481649E+04  3.668396E+04  8.932792E+03  2.501069E+04  3.588914E-01
         4   1  1.761261E+06  2.037824E+04  4.799428E+04 -6.412934E+03 -3.137916E+04  3.232555E-01
         4   2  1.750203E+06  5.816696E+04  8.671054E+04 -5.820115E+04 -7.556090E+04  7.064578E+00
         4   3  1.761149E+06  1.610476E+05  1.704105E+05 -1.099920E+05 -1.197437E+05  2.115775E+01
         4   4  1.761261E+06  2.037817E+04  4.799427E+04  8.791996E-08 -3.137916E+04  1.038615E-09
         4   5  1.750200E+06  5.816061E+04  8.670963E+04  3.257589E-08 -7.556090E+04  3.036219E-10
         4   6  1.761136E+06  1.610250E+05  1.704073E+05 -2.069642E-08 -1.197437E+05  2.280148E-11
         4   7  1.761261E+06  2.037824E+04  4.799428E+04  6.412934E+03 -3.137916E+04 -3.232555E-01
         4   8  1.750203E+06  5.816696E+04  8.671054E+04  5.820115E+04 -7.556090E+04 -7.064578E+00
         4   9  1.761149E+06  1.610476E+05  1.704105E+05  1.099920E+05 -1.197437E+05 -2.115775E+01
         4  10  1.761260E+06  2.037798E+04  4.799243E+04 -6.412934E+03 -5.489577E-08  7.567935E-10
         4  11  1.750197E+06  5.816543E+04  8.669984E+04 -5.820115E+04 -2.302579E-08  1.984383E-10
         4  12  1.761133E+06  1.610438E+05  1.703837E+05 -1.099920E+05  1.118195E-08 -5.280861E-11
         4  13  1.761260E+06  2.037790E+04  4.799242E+04  6.235014E-10  6.334657E-10  7.519295E-10
         4  14  1.750193E+06  5.815908E+04  8.669893E+04  6.234956E-10 -8.860673E-10  3.160955E-10
         4  15  1.761120E+06  1.610211E+05  1.703804E+05  1.728511E-11  9.778868E-11  4.983659E-11
         4  16  1.761260E+06  2.037798E+04  4.799243E+04  6.412934E+03  5.628700E-08  7.291329E-10
         4  17  1.750197E+06  5.816543E+04  8.669984E+04  5.820115E+04  2.322013E-08  4.520389E-10
         4  18  1.761133E+06  1.610438E+05  1.703837E+05  1.099920E+05 -1.236981E-08  1.419717E-10
         4  19  1.761261E+06  2.037824E+04  4.799428E+04 -6.412934E+03  3.137916E+04 -3.232555E-01
         4  20  1.750203E+06  5.816696E+04  8.671054E+04 -5.820115E+04  7.556090E+04 -7.064578E+00
         4  21  1.761149E+06  1.610476E+05  1.704105E+05 -1.099920E+05  1.197437E+05 -2.115775E+01
         4  22  1.761261E+06  2.037817E+04  4.799427E+04 -8.986826E-08  3.137916E+04  4.340392E-10
         4  23  1.750200E+06  5.816061E+04  8.670963E+04 -3.223823E-08  7.556090E+04  2.911206E-10
         4  24  1.761136E+06  1.610250E+05  1.704073E+05  1.939634E-08  1.197437E+05  7.657314E-11
         4  25  1.761261E+06  2.037824E+04  4.799428E+04  6.412934E+03  3.137916E+04  3.232555E-01
         4  26  1.750203E+06  5.816696E+04  8.671054E+04  5.820115E+04  7.556090E+04  7.064578E+00
         4  27  1.761149E+06  1.610476E+05  1.704105E+05  1.099920E+05  1.197437E+05  2.115775E+01
         5   1 -8.608567E+05 -2.516976E+06 -8.297500E+05  8.499811E+05 -3.216757E+04 -3.386979E+05
         5   2 -6.134955E+05 -1.945394E+06 -5.104315E+05  7.660637E+05 -1.015221E+05 -1.572926E+05
         5   3 -4.444105E+05 -1.416561E+06 -3.290406E+05  7.656050E+05 -1.100137E+05  2.431953E+04
         5   4 -1.316561E+05  4.364426E+05 -1.400454E+05  7.628011E+05 -3.178714E+04 -9.948232E+04
         5   5 -4.696405E+04  4.456666E+05 -7.034416E+04  7.209784E+05 -1.013251E+05 -6.348542E+04
         5   6 -1.506888E+04  4.372872E+05 -3.725481E+04  7.626389E+05 -1.100838E+05 -2.746534E+04
         5   7  5.969867E+05  3.398062E+06  5.492877E+05  6.751952E+05 -3.147557E+04  1.408680E+05
         5   8  5.192547E+05  2.842308E+06  3.695419E+05  6.757094E+05 -1.011424E+05  3.067461E+04
         5   9  4.141043E+05  2.294570E+06  2.544568E+05  7.596601E+05 -1.101532E+05 -7.939929E+04
         5  10 -8.608887E+05 -2.517100E+06 -8.299683E+05  8.499724E+05 -2.413463E-10  3.016026E-10
         5  11 -6.135132E+05 -1.945424E+06 -5.104974E+05  7.660509E+05  3.229067E-11 -9.966367E-11
         5  12 -4.444237E+05 -1.416565E+06 -3.290645E+05  7.656071E+05  1.459315E-10 -5.473188E-10
         5  13 -1.316598E+05  4.364317E+05 -1.400658E+05  7.627986E+05  5.788856E-10 -3.331603E-11
         5  14 -4.697615E+04  4.456595E+05 -7.037099E+04  7.209732E+05  1.152399E-09 -3.037240E-11
         5  15 -1.508210E+04  4.372831E+05 -3.727898E+04  7.626364E+05 -3.849140E-11 -8.028870E-11
         5  16  5.969803E+05  3.398041E+06  5.492487E+05  6.751988E+05 -2.036061E-10 -2.908675E-10
         5  17  5.192435E+05  2.842304E+06  3.695209E+05  6.757119E+05  1.681361E-09  1.058076E-10
         5  18  4.140896E+05  2.294560E+06  2.544222E+05  7.596531E+05 -2.489489E-11  3.455089E-10
         5  19 -8.608567E+05 -2.516976E+06 -8.297500E+05  8.499811E+05  3.216757E+04  3.386979E+05
         5  20 -6.134955E+05 -1.945394E+06 -5.104315E+05  7.660637E+05  1.015221E+05  1.572926E+05
         5  21 -4.444105E+05 -1.416561E+06 -3.290406E+05  7.656050E+05  1.100137E+05 -2.431953E+04
         5  22 -1.316561E+05  4.364426E+05 -1.400454E+05  7.628011E+05  3.178714E+04  9.948232E+04
         5  23 -4.696405E+04  4.456666E+05 -7.034416E+04  7.209784E+05  1.013251E+05  6.348542E+04
         5  24 -1.506888E+04  4.372872E+05 -3.725481E+04  7.626389E+05  1.100838E+05  2.746534E+04
         5  25  5.969867E+05  3.398062E+06  5.492877E+05  6.751952E+05  3.147557E+04 -1.408680E+05
         5  26  5.192547E+05  2.842308E+06  3.695419E+05  6.757094E+05  1.011424E+05 -3.067461E+04
         5  27  4.141043E+05  2.294570E+06  2.544568E+05  7.596601E+05  1.101532E+05  7.939929E+04
         6   1 -3.583244E+05 -1.069463E+06 -2.571726E+05  7.688253E+05 -9.450797E+04  3.364057E+04
         6   2 -2.198791E+05 -5.175611E+05 -1.458384E+05  7.223845E+05 -6.842160E+04  5.230069E+04
         6   3 -8.794460E+04  3.048768E+04 -4.833931E+04  7.637701E+05 -3.725698E+04  7.095780E+04
         6   4 -1.014752E+04  4.409584E+05 -2.719084E+04  7.636016E+05 -9.460337E+04 -2.274055E+04
         6   5 -1.367752E+03  4.421489E+05 -1.298442E+04  7.196797E+05 -6.855989E+04 -1.626274E+04
         6   6  3.037211E+03  4.413127E+05 -4.140492E+03  7.635777E+05 -3.744233E+04 -9.803509E+03
         6   7  3.379218E+05  1.953673E+06  2.027547E+05  7.583623E+05 -9.469764E+04 -7.925359E+04
         6   8  2.171055E+05  1.402804E+06  1.198765E+05  7.169696E+05 -6.869741E+04 -8.492748E+04
         6   9  9.401654E+04  8.523282E+05  4.008469E+04  7.633850E+05 -3.762752E+04 -9.061521E+04
         6  10 -3.583343E+05 -1.069466E+06 -2.571916E+05  7.688278E+05  2.214402E-10 -5.224799E-10
         6  11 -2.198848E+05 -5.175653E+05 -1.458524E+05  7.223874E+05 -7.344927E-10  2.728917E-10
         6  12 -8.794745E+04  3.048189E+04 -4.835140E+04  7.637723E+05 -2.735927E-10  1.128601E-09
         6  13 -1.015727E+04  4.409555E+05 -2.720862E+04  7.635998E+05  6.328814E-10 -7.665451E-11
         6  14 -1.372869E+03  4.421474E+05 -1.299374E+04  7.196788E+05 -1.038265E-09 -1.134787E-10
         6  15  3.035680E+03  4.413122E+05 -4.143305E+03  7.635774E+05 -5.272545E-11 -2.279703E-11
         6  16  3.379105E+05  1.953664E+06  2.027261E+05  7.583562E+05 -8.777511E-10  4.454793E-10
         6  17  2.170985E+05  1.402795E+06  1.198541E+05  7.169649E+05  4.001282E-10 -3.653815E-10
         6  18  9.401283E+04  8.523190E+05  4.006664E+04  7.633823E+05 -4.951667E-10 -1.031212E-09
         6  19 -3.583244E+05 -1.069463E+06 -2.571726E+05  7.688253E+05  9.450797E+04 -3.364057E+04
         6  20 -2.198791E+05 -5.175611E+05 -1.458384E+05  7.223845E+05  6.842160E+04 -5.230069E+04
         6  21 -8.794460E+04  3.048768E+04 -4.833931E+04  7.637701E+05  3.725698E+04 -7.095780E+04
         6  22 -1.014752E+04  4.409584E+05 -2.719084E+04  7.636016E+05  9.460337E+04  2.274055E+04
         6  23 -1.367752E+03  4.421489E+05 -1.298442E+04  7.196797E+05  6.855989E+04  1.626274E+04
         6  24  3.037211E+03  4.413127E+05 -4.140492E+03  7.635777E+05  3.744233E+04  9.803509E+03
         6  25  3.379218E+05  1.953673E+06  2.027547E+05  7.583623E+05  9.469764E+04  7.925359E+04
         6  26  2.171055E+05  1.402804E+06  1.198765E+05  7.169696E+05  6.869741E+04  8.492748E+04
         6  27  9.401654E+04  8.523282E+05  4.008469E+04  7.633850E+05  3.762752E+04  9.061521E+04
         7   1 -7.964846E+03  3.729553E+05  8.456017E+03  7.640830E+05 -1.665702E+04  7.016440E+04
         7   2  1.263954E+05  9.175363E+05  1.184004E+05  7.273170E+05  5.080291E+03  1.235913E+04
         7   3  2.774984E+05  1.473955E+06  2.700625E+05  7.772055E+05  4.311844E+03 -4.548374E+04
         7   4  4.096529E+03  4.422808E+05 -5.136157E+02  7.633212E+05 -1.684337E+04 -9.387197E+03
         7   5  8.922511E+03  4.410968E+05  7.274143E+03  7.199772E+05  5.023028E+03 -1.314198E+04
         7   6  2.113917E+04  4.421032E+05  1.927596E+04  7.632907E+05  4.376842E+03 -1.688475E+04
         7   7  1.616145E+04  5.116261E+05 -9.458237E+03  7.625592E+05 -1.702951E+04 -8.894633E+04
         7   8 -1.085659E+05 -3.513214E+04 -1.038650E+05  7.126429E+05  4.966337E+03 -3.862368E+04
         7   9 -2.352972E+05 -5.887768E+05 -2.315845E+05  7.493981E+05  4.440636E+03  1.166694E+04
         7  10 -7.966467E+03  3.729499E+05  8.446243E+03  7.640839E+05  5.115093E-10  2.853375E-10
         7  11  1.263953E+05  9.175361E+05  1.184001E+05  7.273169E+05 -5.649732E-10  6.817464E-10
         7  12  2.774978E+05  1.473953E+06  2.700586E+05  7.772056E+05 -1.317122E-10  9.994729E-10
         7  13  4.096201E+03  4.422806E+05 -5.143135E+02  7.633210E+05 -5.030449E-10 -2.233620E-11
         7  14  8.922437E+03  4.410966E+05  7.273771E+03  7.199773E+05  1.540543E-10  4.717856E-12
         7  15  2.113908E+04  4.421029E+05  1.927539E+04  7.632908E+05  6.843857E-10 -3.669864E-12
         7  16  1.615902E+04  5.116175E+05 -9.473628E+03  7.625580E+05 -4.346291E-10 -2.439864E-10
         7  17 -1.085663E+05 -3.513375E+04 -1.038679E+05  7.126431E+05  7.778735E-11 -6.516249E-10
         7  18 -2.352973E+05 -5.887769E+05 -2.315848E+05  7.493980E+05  3.864948E-10 -1.115267E-09
         7  19 -7.964846E+03  3.729553E+05  8.456017E+03  7.640830E+05  1.665702E+04 -7.016440E+04
         7  20  1.263954E+05  9.175363E+05  1.184004E+05  7.273170E+05 -5.080291E+03 -1.235913E+04
         7  21  2.774984E+05  1.473955E+06  2.700625E+05  7.772055E+05 -4.311844E+03  4.548374E+04
         7  22  4.096529E+03  4.422808E+05 -5.136157E+02  7.633212E+05  1.684337E+04  9.387197E+03
         7  23  8.922511E+03  4.410968E+05  7.274143E+03  7.199772E+05 -5.023028E+03  1.314198E+04
         7  24  2.113917E+04  4.421032E+05  1.927596E+04  7.632907E+05 -4.376842E+03  1.688475E+04
         7  25  1.616145E+04  5.116261E+05 -9.458237E+03  7.625592E+05  1.702951E+04  8.894633E+04
         7  26 -1.085659E+05 -3.513214E+04 -1.038650E+05  7.126429E+05 -4.966337E+03  3.862368E+04
         7  27 -2.352972E+05 -5.887768E+05 -2.315845E+05  7.493981E+05 -4.440636E+03 -1.166694E+04
         8   1  1.264425E+06  6.189081E+04  6.555224E+04  4.231579E+04  4.565226E+04  3.105608E+00
         8   2  1.260198E+06  2.233693E+04  3.364803E+04  2.242379E+04  2.851260E+04  1.027847E+00
         8   3  1.264457E+06  7.825052E+03  1.914712E+04  2.532078E+03  1.137299E+04  4.629462E-02
         8   4  1.264423E+06  6.188746E+04  6.555176E+04 -4.290187E-10  4.565226E+04  7.868889E-11
         8   5  1.260198E+06  2.233599E+04  3.364789E+04 -9.230493E-11  2.851260E+04  2.414893E-10
         8   6  1.264457E+06  7.825040E+03  1.914712E+04 -2.150556E-09  1.137299E+04  1.532791E-10
         8   7  1.264425E+06  6.189081E+04  6.555224E+04 -4.231579E+04  4.565226E+04 -3.105608E+00
         8   8  1.260198E+06  2.233693E+04  3.364803E+04 -2.242379E+04  2.851260E+04 -1.027847E+00
         8   9  1.264457E+06  7.825052E+03  1.914712E+04 -2.532078E+03  1.137299E+04 -4.629462E-02
         8  10  1.264423E+06  6.189026E+04  6.554833E+04  4.231579E+04  1.386430E-10  5.369202E-11
         8  11  1.260198E+06  2.233671E+04  3.364650E+04  2.242379E+04  1.470629E-10  1.325505E-10
         8  12  1.264457E+06  7.825018E+03  1.914688E+04  2.532078E+03 -6.249842E-10  2.456802E-10
         8  13  1.264421E+06  6.188690E+04  6.554785E+04  7.243275E-10 -1.122991E-09  2.532288E-11
         8  14  1.260197E+06  2.233577E+04  3.364637E+04  6.569439E-10 -3.089488E-10  1.035465E-10
         8  15  1.264457E+06  7.825006E+03  1.914688E+04  1.010482E-09  2.141190E-10  1.631394E-10
         8  16  1.264423E+06  6.189026E+04  6.554833E+04 -4.231579E+04  4.536057E-10  3.670363E-11
         8  17  1.260198E+06  2.233671E+04  3.364650E+04 -2.242379E+04 -3.000681E-10  9.574676E-11
         8  18  1.264457E+06  7.825018E+03  1.914688E+04 -2.532078E+03  1.367179E-10  8.234838E-11
         8  19  1.264425E+06  6.189081E+04  6.555224E+04  4.231579E+04 -4.565226E+04 -3.105608E+00
         8  20  1.260198E+06  2.233693E+04  3.364803E+04  2.242379E+04 -2.851260E+04 -1.027847E+00
         8  21  1.264457E+06  7.825052E+03  1.914712E+04  2.532078E+03 -1.137299E+04 -4.629462E-02
         8  22  1.264423E+06  6.188746E+04  6.555176E+04 -2.732061E-10 -4.565226E+04 -2.446243E-11
         8  23  1.260198E+06  2.233599E+04  3.364789E+04 -3.574129E-10 -2.851260E+04 -2.672520E-11
         8  24  1.264457E+06  7.825040E+03  1.914712E+04 -1.792710E-09 -1.137299E+04  1.831915E-10
         8  25  1.264425E+06  6.189081E+04  6.555224E+04 -4.231579E+04 -4.565226E+04  3.105608E+00
         8  26  1.260198E+06  2.233693E+04  3.364803E+04 -2.242379E+04 -2.851260E+04  1.027847E+00
         8  27  1.264457E+06  7.825052E+03  1.914712E+04 -2.532078E+03 -1.137299E+04  4.629462E-02
         9   1  1.262886E+06  5.692475E+03  1.506310E+04  3.535153E+03  8.779766E+03  4.989661E-02
         9   2  1.262180E+06  2.011090E+03  1.031549E+04  1.653122E+03  3.621562E+03  9.624558E-03
         9   3  1.262889E+06  1.311803E+03  9.666577E+03 -2.288818E+02 -1.536557E+03  5.653783E-04
         9   4  1.262886E+06  5.692452E+03  1.506309E+04 -2.066469E-09  8.779766E+03 -9.134416E-11
         9   5  1.262180E+06  2.011085E+03  1.031549E+04 -3.072813E-10  3.621562E+03 -3.387630E-10
         9   6  1.262889E+06  1.311802E+03  9.666577E+03 -6.316107E-10 -1.536557E+03  4.941565E-11
         9   7  1.262886E+06  5.692475E+03  1.506310E+04 -3.535153E+03  8.779766E+03 -4.989661E-02
         9   8  1.262180E+06  2.011090E+03  1.031549E+04 -1.653122E+03  3.621562E+03 -9.624559E-03
         9   9  1.262889E+06  1.311803E+03  9.666577E+03  2.288818E+02 -1.536557E+03 -5.653783E-04
         9  10  1.262886E+06  5.692454E+03  1.506295E+04  3.535153E+03  5.613340E-10  1.062998E-10
         9  11  1.262180E+06  2.011086E+03  1.031547E+04  1.653122E+03  2.242991E-10 -2.152582E-10
         9  12  1.262889E+06  1.311802E+03  9.666572E+03 -2.288818E+02 -3.635436E-10 -1.674697E-10
         9  13  1.262886E+06  5.692431E+03  1.506295E+04 -5.808719E-10  8.009421E-11  4.925822E-11
         9  14  1.262180E+06  2.011081E+03  1.031547E+04 -8.422382E-11 -1.555995E-10 -1.707717E-10
         9  15  1.262889E+06  1.311802E+03  9.666572E+03  8.354008E-12 -2.850812E-10 -1.972567E-11
         9  16  1.262886E+06  5.692454E+03  1.506295E+04 -3.535153E+03 -6.728229E-10 -1.993567E-11
         9  17  1.262180E+06  2.011086E+03  1.031547E+04 -1.653122E+03  1.588659E-10 -1.112035E-10
         9  18  1.262889E+06  1.311802E+03  9.666572E+03  2.288818E+02  7.227528E-10  1.289624E-10
         9  19  1.262886E+06  5.692475E+03  1.506310E+04  3.535153E+03 -8.779766E+03 -4.989661E-02
         9  20  1.262180E+06  2.011090E+03  1.031549E+04  1.653122E+03 -3.621562E+03 -9.624559E-03
         9  21  1.262889E+06  1.311803E+03  9.666577E+03 -2.288818E+02  1.536557E+03 -5.653788E-04
         9  22  1.262886E+06  5.692452E+03  1.506309E+04 -2.576160E-09 -8.779766E+03  2.051397E-10
         9  23  1.262180E+06  2.011085E+03  1.031549E+04 -1.010686E-10 -3.621562E+03  8.030595E-12
         9  24  1.262889E+06  1.311802E+03  9.666577E+03  1.600936E-10  1.536557E+03 -1.032380E-10
         9  25  1.262886E+06  5.692475E+03  1.506310E+04 -3.535153E+03 -8.779766E+03  4.989661E-02
         9  26  1.262180E+06  2.011090E+03  1.031549E+04 -1.653122E+03 -3.621562E+03  9.624559E-03
         9  27  1.262889E+06  1.311803E+03  9.666577E+03  2.288818E+02  1.536557E+03  5.653786E-04
        10   1  1.263069E+06  1.459984E+03  1.053451E+04  2.345022E+02 -3.232085E+03 -1.218454E-03
        10   2  1.261952E+06  3.564296E+03  1.511177E+04 -3.061389E+03 -1.080074E+04  5.315600E-02
        10   3  1.263061E+06  1.063719E+04  2.585146E+04 -6.357324E+03 -1.836955E+04  1.877383E-01
        10   4  1.263069E+06  1.459984E+03  1.053451E+04  8.464495E-10 -3.232085E+03  8.774932E-11
        10   5  1.261952E+06  3.564279E+03  1.511177E+04 -7.586694E-11 -1.080074E+04 -2.982212E-10
        10   6  1.263061E+06  1.063712E+04  2.585145E+04 -1.078124E-09 -1.836955E+04 -4.213758E-10
        10   7  1.263069E+06  1.459984E+03  1.053451E+04 -2.345022E+02 -3.232085E+03  1.218454E-03
        10   8  1.261952E+06  3.564296E+03  1.511177E+04  3.061389E+03 -1.080074E+04 -5.315600E-02
        10   9  1.263061E+06  1.063719E+04  2.585146E+04  6.357324E+03 -1.836955E+04 -1.877383E-01
        10  10  1.263069E+06  1.459982E+03  1.053449E+04  2.345022E+02  5.679781E-10 -1.645569E-10
        10  11  1.261952E+06  3.564265E+03  1.511155E+04 -3.061389E+03  7.642587E-11 -2.874386E-10
        10  12  1.263060E+06  1.063710E+04  2.585083E+04 -6.357324E+03  4.006346E-10 -2.228788E-10
        10  13  1.263069E+06  1.459981E+03  1.053449E+04  1.119904E-09 -1.473368E-10  2.810039E-11
        10  14  1.261952E+06  3.564247E+03  1.511155E+04  3.029325E-10 -7.513254E-10 -6.689032E-11
        10  15  1.263060E+06  1.063703E+04  2.585082E+04 -5.898031E-10  5.687747E-10  1.578947E-11
        10  16  1.263069E+06  1.459982E+03  1.053449E+04 -2.345022E+02 -3.575528E-10  2.234314E-10
        10  17  1.261952E+06  3.564265E+03  1.511155E+04  3.061389E+03 -1.700092E-09  1.362421E-10
        10  18  1.263060E+06  1.063710E+04  2.585083E+04  6.357324E+03 -1.136145E-10  2.468883E-10
        10  19  1.263069E+06  1.459984E+03  1.053451E+04  2.345022E+02  3.232085E+03  1.218454E-03
        10  20  1.261952E+06  3.564296E+03  1.511177E+04 -3.061389E+03  1.080074E+04 -5.315600E-02
        10  21  1.263061E+06  1.063719E+04  2.585146E+04 -6.357324E+03  1.836955E+04 -1.877383E-01
        10  22  1.263069E+06  1.459984E+03  1.053451E+04 -1.050064E-10  3.232085E+03 -3.166090E-11
        10  23  1.261952E+06  3.564279E+03  1.511177E+04 -8.924288E-10  1.080074E+04  1.521031E-10
        10  24  1.263061E+06  1.063712E+04  2.585145E+04 -2.332242E-09  1.836955E+04  4.451378E-10
        10  25  1.263069E+06  1.459984E+03  1.053451E+04 -2.345022E+02  3.232085E+03 -1.218454E-03
        10  26  1.261952E+06  3.564296E+03  1.511177E+04  3.061389E+03  1.080074E+04  5.315600E-02
        10  27  1.263061E+06  1.063719E+04  2.585146E+04  6.357324E+03  1.836955E+04  1.877383E-01
        11   1  1.266077E+06  1.463070E+04  3.410583E+04 -4.560534E+03 -2.286486E+04  1.676342E-01
        11   2  1.258150E+06  4.177347E+04  6.210239E+04 -4.174870E+04 -5.450731E+04  3.658332E+00
        11   3  1.266019E+06  1.156678E+05  1.223601E+05 -7.893783E+04 -8.614997E+04  1.093262E+01
        11   4  1.266077E+06  1.463066E+04  3.410583E+04 -2.692363E-10 -2.286486E+04 -4.471063E-10
        11   5  1.258148E+06  4.177021E+04  6.210192E+04 -1.683786E-09 -5.450731E+04 -3.955285E-10
        11   6  1.266012E+06  1.156561E+05  1.223584E+05 -1.692554E-09 -8.614997E+04 -1.119310E-10
        11   7  1.266077E+06  1.463070E+04  3.410583E+04  4.560534E+03 -2.286486E+04 -1.676342E-01
        11   8  1.258150E+06  4.177347E+04  6.210239E+04  4.174870E+04 -5.450731E+04 -3.658332E+00
        11   9  1.266019E+06  1.156678E+05  1.223601E+05  7.893783E+04 -8.614997E+04 -1.093262E+01
        11  10  1.266077E+06  1.463056E+04  3.410485E+04 -4.560534E+03  7.447253E-10 -2.076299E-10
        11  11  1.258147E+06  4.177268E+04  6.209682E+04 -4.174870E+04  4.365405E-10 -2.274417E-10
        11  12  1.266011E+06  1.156658E+05  1.223461E+05 -7.893783E+04 -5.303063E-10 -6.261989E-11
        11  13  1.266077E+06  1.463052E+04  3.410484E+04  8.422370E-12 -3.369001E-11  4.131348E-12
        11  14  1.258145E+06  4.176941E+04  6.209635E+04 -1.439688E-09 -3.252738E-10 -1.136419E-10
        11  15  1.266005E+06  1.156541E+05  1.223445E+05 -5.980537E-10  1.397155E-11 -5.495495E-11
        11  16  1.266077E+06  1.463056E+04  3.410485E+04  4.560534E+03 -7.129685E-10  2.033086E-10
        11  17  1.258147E+06  4.177268E+04  6.209682E+04  4.174870E+04  5.392900E-10  4.737731E-11
        11  18  1.266011E+06  1.156658E+05  1.223461E+05  7.893783E+04 -1.892432E-10 -1.465862E-11
        11  19  1.266077E+06  1.463070E+04  3.410583E+04 -4.560534E+03  2.286486E+04 -1.676342E-01
        11  20  1.258150E+06  4.177347E+04  6.210239E+04 -4.174870E+04  5.450731E+04 -3.658332E+00
        11  21  1.266019E+06  1.156678E+05  1.223601E+05 -7.893783E+04  8.614997E+04 -1.093262E+01
        11  22  1.266077E+06  1.463066E+04  3.410583E+04 -1.629042E-09  2.286486E+04  4.552455E-10
        11  23  1.258148E+06  4.177021E+04  6.210192E+04 -1.616483E-09  5.450731E+04  1.714597E-10
        11  24  1.266012E+06  1.156561E+05  1.223584E+05 -1.023105E-09  8.614997E+04  1.245703E-12
        11  25  1.266077E+06  1.463070E+04  3.410583E+04  4.560534E+03  2.286486E+04  1.676342E-01
        11  26  1.258150E+06  4.177347E+04  6.210239E+04  4.174870E+04  5.450731E+04  3.658332E+00
        11  27  1.266019E+06  1.156678E+05  1.223601E+05  7.893783E+04  8.614997E+04  1.093262E+01
        12   1 -6.711579E+05 -1.979014E+06 -6.611678E+05  6.575579E+05 -1.927572E+04 -3.082413E+05
        12   2 -4.220083E+05 -1.590493E+06 -3.879216E+05  5.578384E+05 -6.000804E+04 -1.569734E+05
        12   3 -2.791179E+05 -1.248097E+06 -2.398996E+05  5.137575E+05 -6.329843E+04 -5.591490E+03
        12   4 -2.235658E+05 -1.662173E+05 -2.370344E+05  5.061735E+05 -1.906977E+04 -1.656713E+05
        12   5 -8.057167E+04 -1.507474E+05 -1.211000E+05  4.782485E+05 -5.992020E+04 -1.039312E+05
        12   6 -2.812639E+04 -1.658510E+05 -6.799200E+04  5.060013E+05 -6.333376E+04 -4.218079E+04
        12   7  2.238909E+05  1.649708E+06  1.869643E+05  3.543413E+05 -1.893400E+04 -2.268618E+04
        12   8  2.607719E+05  1.291030E+06  1.456486E+05  3.984677E+05 -5.984615E+04 -5.076875E+04
        12   9  2.228077E+05  9.175649E+05  1.038908E+05  4.982303E+05 -6.336812E+04 -7.883160E+04
        12  10 -6.711839E+05 -1.979116E+06 -6.613475E+05  6.575532E+05  6.512794E-11  5.366639E-10
        12  11 -4.220188E+05 -1.590520E+06 -3.879747E+05  5.578308E+05  1.369789E-10  4.642461E-10
        12  12 -2.791222E+05 -1.248098E+06 -2.399072E+05  5.137572E+05  5.715835E-10  3.625465E-10
        12  13 -2.235736E+05 -1.662469E+05 -2.370867E+05  5.061710E+05 -4.547032E-10  3.108572E-11
        12  14 -8.057842E+04 -1.507599E+05 -1.211271E+05  4.782435E+05 -7.815611E-10  4.787844E-11
        12  15 -2.813117E+04 -1.658540E+05 -6.800287E+04  5.059992E+05  4.101354E-10  9.248503E-11
        12  16  2.238904E+05  1.649708E+06  1.869627E+05  3.543409E+05 -4.638500E-10 -5.665912E-10
        12  17  2.607674E+05  1.291027E+06  1.456370E+05  3.984653E+05  7.071291E-10 -4.692953E-10
        12  18  2.228017E+05  9.175572E+05  1.038716E+05  4.982263E+05  1.203004E-10 -4.248990E-10
        12  19 -6.711579E+05 -1.979014E+06 -6.611678E+05  6.575579E+05  1.927572E+04  3.082413E+05
        12  20 -4.220083E+05 -1.590493E+06 -3.879216E+05  5.578384E+05  6.000804E+04  1.569734E+05
        12  21 -2.791179E+05 -1.248097E+06 -2.398996E+05  5.137575E+05  6.329843E+04  5.591490E+03
        12  22 -2.235658E+05 -1.662173E+05 -2.370344E+05  5.061735E+05  1.906977E+04  1.656713E+05
        12  23 -8.057167E+04 -1.507474E+05 -1.211000E+05  4.782485E+05  5.992020E+04  1.039312E+05
        12  24 -2.812639E+04 -1.658510E+05 -6.799200E+04  5.060013E+05  6.333376E+04  4.218079E+04
        12  25  2.238909E+05  1.649708E+06  1.869643E+05  3.543413E+05  1.893400E+04  2.268618E+04
        12  26  2.607719E+05  1.291030E+06  1.456486E+05  3.984677E+05  5.984615E+04  5.076875E+04
        12  27  2.228077E+05  9.175649E+05  1.038908E+05  4.982303E+05  6.336812E+04  7.883160E+04
        13   1 -2.177359E+05 -1.014387E+06 -1.843267E+05  5.181059E+05 -5.259409E+04  6.226363E+03
        13   2 -1.194917E+05 -6.459050E+05 -1.021252E+05  4.808406E+05 -3.485975E+04  2.968453E+04
        13   3 -3.453212E+04 -2.837109E+05 -3.855359E+04  5.019196E+05 -1.453985E+04  5.314958E+04
        13   4 -2.050222E+04 -1.601638E+05 -5.280823E+04  5.065931E+05 -5.263947E+04 -3.313903E+04
        13   5 -8.233099E+03 -1.574348E+05 -3.448102E+04  4.774124E+05 -3.491941E+04 -1.587194E+04
        13   6 -8.159494E+03 -1.600413E+05 -3.046905E+04  5.065778E+05 -1.461432E+04  1.389191E+03
        13   7  1.766974E+05  6.947934E+05  7.869994E+04  4.950634E+05 -5.268334E+04 -7.255656E+04
        13   8  1.030161E+05  3.312823E+05  3.316823E+04  4.739812E+05 -3.497852E+04 -6.146268E+04
        13   9  1.821429E+04 -3.634935E+04 -2.237372E+04  5.112370E+05 -1.468955E+04 -5.038075E+04
        13  10 -2.177389E+05 -1.014388E+06 -1.843320E+05  5.181062E+05  1.690799E-09 -6.724337E-10
        13  11 -1.194933E+05 -6.459063E+05 -1.021292E+05  4.808415E+05  8.504178E-10 -3.684640E-10
        13  12 -3.453311E+04 -2.837140E+05 -3.855930E+04  5.019202E+05  5.415916E-10 -1.397743E-10
        13  13 -2.050549E+04 -1.601657E+05 -5.281549E+04  5.065917E+05  4.145692E-10  1.280771E-10
        13  14 -8.234475E+03 -1.574354E+05 -3.448378E+04  4.774120E+05  1.356622E-10  1.391742E-10
        13  15 -8.159724E+03 -1.600414E+05 -3.046945E+04  5.065778E+05  1.411747E-10  1.424209E-10
        13  16  1.766931E+05  6.947870E+05  7.868486E+04  4.950603E+05 -4.604816E-10  7.483151E-10
        13  17  1.030138E+05  3.312779E+05  3.315884E+04  4.739795E+05  6.000538E-10  3.759795E-10
        13  18  1.821338E+04 -3.635213E+04 -2.237889E+04  5.112364E+05  6.960540E-10  1.124722E-10
        13  19 -2.177359E+05 -1.014387E+06 -1.843267E+05  5.181059E+05  5.259409E+04 -6.226363E+03
        13  20 -1.194917E+05 -6.459050E+05 -1.021252E+05  4.808406E+05  3.485975E+04 -2.968453E+04
        13  21 -3.453212E+04 -2.837109E+05 -3.855359E+04  5.019196E+05  1.453985E+04 -5.314958E+04
        13  22 -2.050222E+04 -1.601638E+05 -5.280823E+04  5.065931E+05  5.263947E+04  3.313903E+04
        13  23 -8.233099E+03 -1.574348E+05 -3.448102E+04  4.774124E+05  3.491941E+04  1.587194E+04
        13  24 -8.159494E+03 -1.600413E+05 -3.046905E+04  5.065778E+05  1.461432E+04 -1.389191E+03
        13  25  1.766974E+05  6.947934E+05  7.869994E+04  4.950634E+05  5.268334E+04  7.255656E+04
        13  26  1.030161E+05  3.312823E+05  3.316823E+04  4.739812E+05  3.497852E+04  6.146268E+04
        13  27  1.821429E+04 -3.634935E+04 -2.237372E+04  5.112370E+05  1.468955E+04  5.038075E+04
        14   1  1.603756E+04 -5.793445E+04 -4.445842E+03  5.036527E+05 -1.239991E+03  5.695452E+04
        14   2  8.549272E+04  3.094609E+05  5.349250E+04  4.501045E+05  1.088229E+04  3.724341E+04
        14   3  1.304931E+05  6.734063E+05  1.181272E+05  4.538735E+05  5.072986E+03  1.752599E+04
        14   4 -1.021441E+04 -1.613124E+05 -3.236435E+04  5.063517E+05 -1.313454E+03  6.257700E+03
        14   5 -2.735257E+04 -1.558408E+05 -4.588884E+04  4.777183E+05  1.087408E+04  2.958189E+04
        14   6 -7.642539E+04 -1.614307E+05 -8.261089E+04  5.064204E+05  5.122205E+03  5.291016E+04
        14   7 -3.646585E+04 -2.646753E+05 -6.027409E+04  5.090502E+05 -1.387367E+03 -4.443061E+04
        14   8 -1.402090E+05 -6.209370E+05 -1.452821E+05  5.053109E+05  1.086518E+04  2.192602E+04
        14   9 -2.833834E+05 -9.956214E+05 -2.833924E+05  5.588959E+05  5.177460E+03  8.824694E+04
        14  10  1.603669E+04 -5.793794E+04 -4.451941E+03  5.036528E+05  9.911773E-10 -5.294369E-10
        14  11  8.549222E+04  3.094594E+05  5.348967E+04  4.501042E+05 -7.972873E-11 -2.943596E-10
        14  12  1.304930E+05  6.734060E+05  1.181266E+05  4.538734E+05  2.691331E-10  8.922314E-11
        14  13 -1.021442E+04 -1.613124E+05 -3.236442E+04  5.063517E+05  7.796320E-11  1.627409E-10
        14  14 -2.735293E+04 -1.558418E+05 -4.589070E+04  4.777180E+05  1.087072E-09  4.563319E-11
        14  15 -7.642616E+04 -1.614337E+05 -8.261620E+04  5.064201E+05 -4.154708E-10  1.325376E-10
        14  16 -3.646638E+04 -2.646774E+05 -6.027780E+04  5.090501E+05  2.455898E-10  6.259083E-10
        14  17 -1.402093E+05 -6.209375E+05 -1.452832E+05  5.053107E+05  9.161188E-10  2.012208E-10
        14  18 -2.833855E+05 -9.956298E+05 -2.834071E+05  5.588956E+05  1.757078E-10 -1.099051E-10
        14  19  1.603756E+04 -5.793445E+04 -4.445842E+03  5.036527E+05  1.239991E+03 -5.695452E+04
        14  20  8.549272E+04  3.094609E+05  5.349250E+04  4.501045E+05 -1.088229E+04 -3.724341E+04
        14  21  1.304931E+05  6.734063E+05  1.181272E+05  4.538735E+05 -5.072986E+03 -1.752599E+04
        14  22 -1.021441E+04 -1.613124E+05 -3.236435E+04  5.063517E+05  1.313454E+03 -6.257700E+03
        14  23 -2.735257E+04 -1.558408E+05 -4.588884E+04  4.777183E+05 -1.087408E+04 -2.958189E+04
        14  24 -7.642539E+04 -1.614307E+05 -8.261089E+04  5.064204E+05 -5.122205E+03 -5.291016E+04
        14  25 -3.646585E+04 -2.646753E+05 -6.027409E+04  5.090502E+05  1.387367E+03  4.443061E+04
        14  26 -1.402090E+05 -6.209370E+05 -1.452821E+05  5.053109E+05 -1.086518E+04 -2.192602E+04
        14  27 -2.833834E+05 -9.956214E+05 -2.833924E+05  5.588959E+05 -5.177460E+03 -8.824694E+04
        15   1  9.413764E+05  5.083387E+04  5.383054E+04  3.473666E+04  3.754632E+04  2.097746E+00
        15   2  9.379029E+05  1.834597E+04  2.757914E+04  1.840075E+04  2.349862E+04  6.954662E-01
        15   3  9.413961E+05  6.425670E+03  1.560545E+04  2.065285E+03  9.451167E+03  3.139499E-02
        15   4  9.413751E+05  5.083161E+04  5.383022E+04 -9.933027E-10  3.754632E+04 -1.801911E-10
        15   5  9.379025E+05  1.834533E+04  2.757905E+04 -2.210369E-10  2.349862E+04 -3.758708E-10
        15   6  9.413961E+05  6.425662E+03  1.560545E+04 -1.532008E-09  9.451167E+03  9.023294E-11
        15   7  9.413764E+05  5.083387E+04  5.383054E+04 -3.473666E+04  3.754632E+04 -2.097746E+00
        15   8  9.379029E+05  1.834597E+04  2.757914E+04 -1.840075E+04  2.349862E+04 -6.954662E-01
        15   9  9.413961E+05  6.425670E+03  1.560545E+04 -2.065285E+03  9.451167E+03 -3.139499E-02
        15  10  9.413749E+05  5.083350E+04  5.382789E+04  3.473666E+04  3.242749E-10  2.585941E-11
        15  11  9.379023E+05  1.834582E+04  2.757811E+04  1.840075E+04  9.729786E-11  4.199544E-11
        15  12  9.413960E+05  6.425646E+03  1.560528E+04  2.065285E+03 -2.767712E-10  8.183338E-11
        15  13  9.413736E+05  5.083123E+04  5.382757E+04 -4.462721E-10 -6.310184E-10 -8.884704E-11
        15  14  9.379019E+05  1.834518E+04  2.757802E+04 -1.389330E-10 -8.080475E-10 -1.759681E-10
        15  15  9.413960E+05  6.425638E+03  1.560528E+04 -9.089769E-10  5.051705E-10  6.827762E-11
        15  16  9.413749E+05  5.083350E+04  5.382789E+04 -3.473666E+04 -3.037855E-10 -1.904828E-10
        15  17  9.379023E+05  1.834582E+04  2.757811E+04 -1.840075E+04  4.546587E-10 -3.863425E-10
        15  18  9.413960E+05  6.425646E+03  1.560528E+04 -2.065285E+03  8.767548E-10  5.412547E-11
        15  19  9.413764E+05  5.083387E+04  5.383054E+04  3.473666E+04 -3.754632E+04 -2.097746E+00
        15  20  9.379029E+05  1.834597E+04  2.757914E+04  1.840075E+04 -2.349862E+04 -6.954662E-01
        15  21  9.413961E+05  6.425670E+03  1.560545E+04  2.065285E+03 -9.451167E+03 -3.139499E-02
        15  22  9.413751E+05  5.083161E+04  5.383022E+04 -1.786807E-09 -3.754632E+04 -7.180374E-13
        15  23  9.379025E+05  1.834533E+04  2.757905E+04 -1.894047E-10 -2.349862E+04  2.471144E-11
        15  24  9.413961E+05  6.425662E+03  1.560545E+04 -1.718953E-09 -9.451167E+03  4.551773E-11
        15  25  9.413764E+05  5.083387E+04  5.383054E+04 -3.473666E+04 -3.754632E+04  2.097746E+00
        15  26  9.379029E+05  1.834597E+04  2.757914E+04 -1.840075E+04 -2.349862E+04  6.954662E-01
        15  27  9.413961E+05  6.425670E+03  1.560545E+04 -2.065285E+03 -9.451167E+03  3.139499E-02
        16   1  9.400994E+05  4.674198E+03  1.220730E+04  2.884335E+03  7.346962E+03  3.408389E-02
        16   2  9.395340E+05  1.637275E+03  8.176046E+03  1.355016E+03  3.258218E+03  7.101016E-03
        16   3  9.401015E+05  1.006766E+03  7.405435E+03 -1.743255E+02 -8.305805E+02  2.328829E-04
        16   4  9.400994E+05  4.674182E+03  1.220729E+04 -4.838559E-10  7.346962E+03  2.692103E-10
        16   5  9.395340E+05  1.637272E+03  8.176046E+03 -1.135709E-10  3.258218E+03  6.792289E-11
        16   6  9.401015E+05  1.006766E+03  7.405435E+03 -4.229627E-10 -8.305805E+02 -4.161529E-11
        16   7  9.400994E+05  4.674198E+03  1.220730E+04 -2.884335E+03  7.346962E+03 -3.408389E-02
        16   8  9.395340E+05  1.637275E+03  8.176046E+03 -1.355016E+03  3.258218E+03 -7.101016E-03
        16   9  9.401015E+05  1.006766E+03  7.405435E+03  1.743255E+02 -8.305805E+02 -2.328830E-04
        16  10  9.400994E+05  4.674183E+03  1.220719E+04  2.884335E+03  2.721020E-10  1.751866E-10
        16  11  9.395340E+05  1.637272E+03  8.176026E+03  1.355016E+03  9.080969E-10  2.046421E-10
        16  12  9.401015E+05  1.006766E+03  7.405433E+03 -1.743255E+02  1.102828E-09 -1.408870E-10
        16  13  9.400994E+05  4.674168E+03  1.220719E+04 -6.732106E-10  9.501089E-10  2.374412E-10
        16  14  9.395340E+05  1.637269E+03  8.176026E+03 -1.035278E-09  1.416155E-09  2.292908E-10
        16  15  9.401015E+05  1.006766E+03  7.405433E+03 -7.576405E-10  1.199308E-09  3.751525E-11
        16  16  9.400994E+05  4.674183E+03  1.220719E+04 -2.884335E+03  1.571799E-10  2.828158E-10
        16  17  9.395340E+05  1.637272E+03  8.176026E+03 -1.355016E+03 -5.328854E-10  2.694572E-10
        16  18  9.401015E+05  1.006766E+03  7.405433E+03  1.743255E+02 -7.346299E-10  2.497348E-10
        16  19  9.400994E+05  4.674198E+03  1.220730E+04  2.884335E+03 -7.346962E+03 -3.408389E-02
        16  20  9.395340E+05  1.637275E+03  8.176046E+03  1.355016E+03 -3.258218E+03 -7.101016E-03
        16  21  9.401015E+05  1.006766E+03  7.405435E+03 -1.743255E+02  8.305805E+02 -2.328833E-04
        16  22  9.400994E+05  4.674182E+03  1.220729E+04 -2.750086E-09 -7.346962E+03  1.970524E-10
        16  23  9.395340E+05  1.637272E+03  8.176046E+03 -1.940146E-09 -3.258218E+03  3.874403E-10
        16  24  9.401015E+05  1.006766E+03  7.405435E+03 -2.325420E-09  8.305805E+02  1.238469E-10
        16  25  9.400994E+05  4.674198E+03  1.220730E+04 -2.884335E+03 -7.346962E+03  3.408389E-02
        16  26  9.395340E+05  1.637275E+03  8.176046E+03 -1.355016E+03 -3.258218E+03  7.101016E-03
        16  27  9.401015E+05  1.006766E+03  7.405435E+03  1.743255E+02  8.305805E+02  2.328835E-04
        17   1  9.402129E+05  1.098377E+03  7.942336E+03  1.779809E+02 -2.118279E+03 -6.063903E-04
        17   2  9.393936E+05  2.597943E+03  1.114319E+04 -2.225815E+03 -7.698181E+03  2.755963E-02
        17   3  9.402085E+05  7.733054E+03  1.888173E+04 -4.629610E+03 -1.327811E+04  9.887271E-02
        17   4  9.402129E+05  1.098377E+03  7.942336E+03 -3.449232E-10 -2.118279E+03  6.495051E-11
        17   5  9.393936E+05  2.597934E+03  1.114319E+04  2.400250E-10 -7.698181E+03  2.217600E-10
        17   6  9.402085E+05  7.733014E+03  1.888173E+04 -5.238530E-10 -1.327811E+04 -5.994525E-11
        17   7  9.402129E+05  1.098377E+03  7.942336E+03 -1.779809E+02 -2.118279E+03  6.063905E-04
        17   8  9.393936E+05  2.597943E+03  1.114319E+04  2.225815E+03 -7.698181E+03 -2.755963E-02
        17   9  9.402085E+05  7.733054E+03  1.888173E+04  4.629610E+03 -1.327811E+04 -9.887271E-02
        17  10  9.402128E+05  1.098376E+03  7.942327E+03  1.779809E+02 -2.172709E-10 -1.881106E-10
        17  11  9.393936E+05  2.597927E+03  1.114308E+04 -2.225815E+03 -3.141304E-10  4.694704E-11
        17  12  9.402083E+05  7.733007E+03  1.888140E+04 -4.629610E+03  4.112881E-10 -1.445688E-10
        17  13  9.402128E+05  1.098376E+03  7.942327E+03  1.601875E-10  5.471143E-10  2.010664E-11
        17  14  9.393936E+05  2.597918E+03  1.114307E+04 -4.543859E-10  2.848699E-10  1.278841E-10
        17  15  9.402083E+05  7.732967E+03  1.888139E+04 -3.787570E-10 -1.508525E-12 -2.332450E-12
        17  16  9.402128E+05  1.098376E+03  7.942327E+03 -1.779809E+02  3.984586E-10  2.414742E-10
        17  17  9.393936E+05  2.597927E+03  1.114308E+04  2.225815E+03 -6.917122E-10  2.183169E-10
        17  18  9.402083E+05  7.733007E+03  1.888140E+04  4.629610E+03 -1.140969E-10  1.448128E-10
        17  19  9.402129E+05  1.098377E+03  7.942336E+03  1.779809E+02  2.118279E+03  6.063899E-04
        17  20  9.393936E+05  2.597943E+03  1.114319E+04 -2.225815E+03  7.698181E+03 -2.755963E-02
        17  21  9.402085E+05  7.733054E+03  1.888173E+04 -4.629610E+03  1.327811E+04 -9.887271E-02
        17  22  9.402129E+05  1.098377E+03  7.942336E+03 -9.718213E-10  2.118279E+03 -2.782857E-11
        17  23  9.393936E+05  2.597934E+03  1.114319E+04  2.147659E-10  7.698181E+03  2.773844E-11
        17  24  9.402085E+05  7.733014E+03  1.888173E+04 -2.631177E-10  1.327811E+04  5.778295E-11
        17  25  9.402129E+05  1.098377E+03  7.942336E+03 -1.779809E+02  2.118279E+03 -6.063899E-04
        17  26  9.393936E+05  2.597943E+03  1.114319E+04  2.225815E+03  7.698181E+03  2.755963E-02
        17  27  9.402085E+05  7.733054E+03  1.888173E+04  4.629610E+03  1.327811E+04  9.887271E-02
        18   1  9.423995E+05  1.063541E+04  2.485994E+04 -3.318630E+03 -1.655843E+04  8.838379E-02
        18   2  9.366377E+05  3.037037E+04  4.518351E+04 -3.035461E+04 -3.957846E+04  1.932339E+00
        18   3  9.423680E+05  8.410804E+04  8.897997E+04 -5.739070E+04 -6.259825E+04  5.778332E+00
        18   4  9.423995E+05  1.063539E+04  2.485994E+04 -2.121280E-09 -1.655843E+04 -2.872411E-10
        18   5  9.366367E+05  3.036864E+04  4.518326E+04 -1.519384E-09 -3.957846E+04 -3.676633E-10
        18   6  9.423645E+05  8.410186E+04  8.897909E+04 -8.586025E-10 -6.259825E+04 -9.767904E-11
        18   7  9.423995E+05  1.063541E+04  2.485994E+04  3.318630E+03 -1.655843E+04 -8.838379E-02
        18   8  9.366377E+05  3.037037E+04  4.518351E+04  3.035461E+04 -3.957846E+04 -1.932339E+00
        18   9  9.423680E+05  8.410804E+04  8.897997E+04  5.739070E+04 -6.259825E+04 -5.778332E+00
        18  10  9.423992E+05  1.063534E+04  2.485943E+04 -3.318630E+03 -5.801435E-10 -2.562343E-10
        18  11  9.366360E+05  3.036995E+04  4.518057E+04 -3.035461E+04 -1.106721E-09 -9.448504E-11
        18  12  9.423638E+05  8.410699E+04  8.897262E+04 -5.739070E+04 -1.042671E-10 -2.150672E-11
        18  13  9.423992E+05  1.063532E+04  2.485942E+04 -5.388926E-10  1.833308E-10 -9.716665E-11
        18  14  9.366350E+05  3.036822E+04  4.518032E+04  8.321910E-12 -1.664900E-10 -8.918687E-11
        18  15  9.423603E+05  8.410081E+04  8.897173E+04 -1.136335E-09  3.149612E-10 -3.035312E-11
        18  16  9.423992E+05  1.063534E+04  2.485943E+04  3.318630E+03  3.631323E-10  5.007927E-11
        18  17  9.366360E+05  3.036995E+04  4.518057E+04  3.035461E+04  6.035403E-10 -1.238229E-10
        18  18  9.423638E+05  8.410699E+04  8.897262E+04  5.739070E+04  2.185300E-10 -4.812903E-11
        18  19  9.423995E+05  1.063541E+04  2.485994E+04 -3.318630E+03  1.655843E+04 -8.838379E-02
        18  20  9.366377E+05  3.037037E+04  4.518351E+04 -3.035461E+04  3.957846E+04 -1.932339E+00
        18  21  9.423680E+05  8.410804E+04  8.897997E+04 -5.739070E+04  6.259825E+04 -5.778332E+00
        18  22  9.423995E+05  1.063539E+04  2.485994E+04 -8.734929E-10  1.655843E+04  1.071787E-10
        18  23  9.366367E+05  3.036864E+04  4.518326E+04  7.027445E-10  3.957846E+04  1.686846E-10
        18  24  9.423645E+05  8.410186E+04  8.897909E+04 -4.018894E-10  6.259825E+04  3.987093E-11
        18  25  9.423995E+05  1.063541E+04  2.485994E+04  3.318630E+03  1.655843E+04  8.838379E-02
        18  26  9.366377E+05  3.037037E+04  4.518351E+04  3.035461E+04  3.957846E+04  1.932339E+00
        18  27  9.423680E+05  8.410804E+04  8.897997E+04  5.739070E+04  6.259825E+04  5.778332E+00
        19   1 -4.649306E+05 -1.356830E+06 -4.592286E+05  4.444536E+05 -1.282942E+04 -2.189764E+05
        19   2 -2.884159E+05 -1.101267E+06 -2.688913E+05  3.724302E+05 -4.021821E+04 -1.130763E+05
        19   3 -1.901792E+05 -8.790069E+05 -1.671527E+05  3.367459E+05 -4.273271E+04 -7.123241E+03
        19   4 -1.672970E+05 -1.510038E+05 -1.773214E+05  3.308015E+05 -1.273207E+04 -1.234479E+05
        19   5 -6.041206E+04 -1.394439E+05 -9.096770E+04  3.125794E+05 -4.017715E+04 -7.709391E+04
        19   6 -2.138784E+04 -1.508398E+05 -5.175455E+04  3.307164E+05 -4.274737E+04 -3.073502E+04
        19   7  1.302873E+05  1.056212E+06  1.045283E+05  2.169264E+05 -1.266991E+04 -2.773464E+04
        19   8  1.675531E+05  8.232876E+05  8.692405E+04  2.526330E+05 -4.014308E+04 -4.105710E+04
        19   9  1.473775E+05  5.778569E+05  6.363234E+04  3.246794E+05 -4.276155E+04 -5.437349E+04
        19  10 -4.649437E+05 -1.356882E+06 -4.593192E+05  4.444513E+05 -2.973014E-10 -3.334774E-10
        19  11 -2.884211E+05 -1.101281E+06 -2.689184E+05  3.724265E+05 -9.661571E-10 -1.953652E-10
        19  12 -1.901811E+05 -8.790075E+05 -1.671562E+05  3.367457E+05 -3.938998E-10 -5.739277E-11
        19  13 -1.673012E+05 -1.510202E+05 -1.773504E+05  3.308003E+05 -1.640653E-11  1.719873E-11
        19  14 -6.041539E+04 -1.394507E+05 -9.098190E+04  3.125769E+05 -1.448622E-10 -1.073074E-10
        19  15 -2.139005E+04 -1.508413E+05 -5.175975E+04  3.307154E+05 -7.508877E-10  1.719279E-10
        19  16  1.302869E+05  1.056211E+06  1.045265E+05  2.169261E+05 -3.676478E-11  3.589987E-10
        19  17  1.675510E+05  8.232854E+05  8.691786E+04  2.526316E+05  1.951694E-10  1.365773E-10
        19  18  1.473748E+05  5.778533E+05  6.362335E+04  3.246775E+05 -4.915896E-11  4.920227E-13
        19  19 -4.649306E+05 -1.356830E+06 -4.592286E+05  4.444536E+05  1.282942E+04  2.189764E+05
        19  20 -2.884159E+05 -1.101267E+06 -2.688913E+05  3.724302E+05  4.021821E+04  1.130763E+05
        19  21 -1.901792E+05 -8.790069E+05 -1.671527E+05  3.367459E+05  4.273271E+04  7.123241E+03
        19  22 -1.672970E+05 -1.510038E+05 -1.773214E+05  3.308015E+05  1.273207E+04  1.234479E+05
        19  23 -6.041206E+04 -1.394439E+05 -9.096770E+04  3.125794E+05  4.017715E+04  7.709391E+04
        19  24 -2.138784E+04 -1.508398E+05 -5.175455E+04  3.307164E+05  4.274737E+04  3.073502E+04
        19  25  1.302873E+05  1.056212E+06  1.045283E+05  2.169264E+05  1.266991E+04  2.773464E+04
        19  26  1.675531E+05  8.232876E+05  8.692405E+04  2.526330E+05  4.014308E+04  4.105710E+04
        19  27  1.473775E+05  5.778569E+05  6.363234E+04  3.246794E+05  4.276155E+04  5.437349E+04
        20   1 -1.494129E+05 -7.257306E+05 -1.296455E+05  3.399550E+05 -3.579610E+04  1.680377E+03
        20   2 -8.445727E+04 -4.844075E+05 -7.514390E+04  3.141968E+05 -2.426593E+04  2.005304E+04
        20   3 -3.022204E+04 -2.481198E+05 -3.530096E+04  3.265716E+05 -1.093652E+04  3.842955E+04
        20   4 -1.577571E+04 -1.466683E+05 -4.073617E+04  3.311102E+05 -3.581518E+04 -2.378575E+04
        20   5 -7.034608E+03 -1.444708E+05 -2.807153E+04  3.120399E+05 -2.429156E+04 -9.722733E+03
        20   6 -8.258782E+03 -1.466124E+05 -2.706479E+04  3.311037E+05 -1.096886E+04  4.337557E+03
        20   7  1.178459E+05  4.327313E+05  4.816828E+04  3.222568E+05 -3.583352E+04 -4.927472E+04
        20   8  7.038345E+04  1.955852E+05  1.900283E+04  3.098816E+05 -2.431697E+04 -3.951410E+04
        20   9  1.370489E+04 -4.509144E+04 -1.882392E+04  3.356366E+05 -1.100168E+04 -2.975964E+04
        20  10 -1.494143E+05 -7.257309E+05 -1.296479E+05  3.399551E+05  8.888251E-11  4.229020E-10
        20  11 -8.445801E+04 -4.844080E+05 -7.514576E+04  3.141972E+05 -1.186805E-10  5.876701E-10
        20  12 -3.022257E+04 -2.481215E+05 -3.530396E+04  3.265719E+05  2.197917E-10  6.929626E-10
        20  13 -1.577723E+04 -1.466692E+05 -4.073964E+04  3.311096E+05  3.099071E-10  1.635807E-10
        20  14 -7.035267E+03 -1.444710E+05 -2.807281E+04  3.120397E+05 -4.142285E-10 -2.079117E-10
        20  15 -8.258916E+03 -1.466125E+05 -2.706506E+04  3.311037E+05 -2.361132E-10  1.982174E-10
        20  16  1.178439E+05  4.327284E+05  4.816131E+04  3.222553E+05 -5.189361E-11 -3.100167E-10
        20  17  7.038239E+04  1.955834E+05  1.899878E+04  3.098808E+05 -9.951636E-11 -7.049709E-10
        20  18  1.370452E+04 -4.509243E+04 -1.882581E+04  3.356363E+05  1.548375E-10 -7.521844E-10
        20  19 -1.494129E+05 -7.257306E+05 -1.296455E+05  3.399550E+05  3.579610E+04 -1.680377E+03
        20  20 -8.445727E+04 -4.844075E+05 -7.514390E+04  3.141968E+05  2.426593E+04 -2.005304E+04
        20  21 -3.022204E+04 -2.481198E+05 -3.530096E+04  3.265716E+05  1.093652E+04 -3.842955E+04
        20  22 -1.577571E+04 -1.466683E+05 -4.073617E+04  3.311102E+05  3.581518E+04  2.378575E+04
        20  23 -7.034608E+03 -1.444708E+05 -2.807153E+04  3.120399E+05  2.429156E+04  9.722733E+03
        20  24 -8.258782E+03 -1.466124E+05 -2.706479E+04  3.311037E+05  1.096886E+04 -4.337557E+03
        20  25  1.178459E+05  4.327313E+05  4.816828E+04  3.222568E+05  3.583352E+04  4.927472E+04
        20  26  7.038345E+04  1.955852E+05  1.900283E+04  3.098816E+05  2.431697E+04  3.951410E+04
        20  27  1.370489E+04 -4.509144E+04 -1.882392E+04  3.356366E+05  1.100168E+04  2.975964E+04
        21   1  1.926650E+03 -1.012251E+05 -1.474597E+04  3.281339E+05 -2.188874E+03  4.216429E+04
        21   2  4.100082E+04  1.408554E+05  1.647904E+04  2.842826E+05  6.078385E+03  3.787883E+04
        21   3  5.282659E+04  3.767239E+05  4.367419E+04  2.779297E+05  3.035377E+03  3.359410E+04
        21   4 -1.048128E+04 -1.480881E+05 -2.994885E+04  3.309635E+05 -2.220940E+03  8.732583E+03
        21   5 -2.792271E+04 -1.426191E+05 -4.493895E+04  3.122322E+05  6.074558E+03  3.158580E+04
        21   6 -7.733269E+04 -1.481381E+05 -8.281260E+04  3.310099E+05  3.057049E+03  5.444064E+04
        21   7 -2.288879E+04 -1.949468E+05 -4.514775E+04  3.337929E+05 -2.253314E+03 -2.469652E+04
        21   8 -9.684857E+04 -4.260165E+05 -1.063611E+05  3.401688E+05  6.070163E+03  2.529559E+04
        21   9 -2.075012E+05 -6.727411E+05 -2.093159E+05  3.840450E+05  3.082299E+03  7.526962E+04
        21  10  1.926168E+03 -1.012270E+05 -1.474932E+04  3.281339E+05  1.278423E-10 -1.549916E-09
        21  11  4.100040E+04  1.408538E+05  1.647627E+04  2.842824E+05  3.197824E-11 -3.239584E-10
        21  12  5.282628E+04  3.767227E+05  4.367205E+04  2.779296E+05 -2.430966E-10  1.021103E-09
        21  13 -1.048131E+04 -1.480881E+05 -2.994900E+04  3.309635E+05  5.516538E-10  2.047024E-10
        21  14 -2.792301E+04 -1.426202E+05 -4.494089E+04  3.122320E+05 -8.796487E-10 -2.189286E-10
        21  15 -7.733349E+04 -1.481413E+05 -8.281819E+04  3.310098E+05  1.571199E-11  1.930745E-10
        21  16 -2.288896E+04 -1.949474E+05 -4.514891E+04  3.337929E+05  3.880453E-11  1.620571E-09
        21  17 -9.684878E+04 -4.260172E+05 -1.063624E+05  3.401687E+05 -2.510193E-10  1.669569E-10
        21  18 -2.075027E+05 -6.727472E+05 -2.093266E+05  3.840448E+05 -2.723464E-10 -1.070853E-09
        21  19  1.926650E+03 -1.012251E+05 -1.474597E+04  3.281339E+05  2.188874E+03 -4.216429E+04
        21  20  4.100082E+04  1.408554E+05  1.647904E+04  2.842826E+05 -6.078385E+03 -3.787883E+04
        21  21  5.282659E+04  3.767239E+05  4.367419E+04  2.779297E+05 -3.035377E+03 -3.359410E+04
        21  22 -1.048128E+04 -1.480881E+05 -2.994885E+04  3.309635E+05  2.220940E+03 -8.732583E+03
        21  23 -2.792271E+04 -1.426191E+05 -4.493895E+04  3.122322E+05 -6.074558E+03 -3.158580E+04
        21  24 -7.733269E+04 -1.481381E+05 -8.281260E+04  3.310099E+05 -3.057049E+03 -5.444064E+04
        21  25 -2.288879E+04 -1.949468E+05 -4.514775E+04  3.337929E+05  2.253314E+03  2.469652E+04
        21  26 -9.684857E+04 -4.260165E+05 -1.063611E+05  3.401688E+05 -6.070163E+03 -2.529559E+04
        21  27 -2.075012E+05 -6.727411E+05 -2.093159E+05  3.840450E+05 -3.082299E+03 -7.526962E+04
        22   1  7.155380E+05  3.879617E+04  4.108145E+04  2.650405E+04  2.866013E+04  1.222189E+00
        22   2  7.128849E+05  1.400033E+04  2.103754E+04  1.403843E+04  1.794509E+04  4.053333E-01
        22   3  7.155494E+05  4.903023E+03  1.188879E+04  1.572726E+03  7.229903E+03  1.829496E-02
        22   4  7.155372E+05  3.879485E+04  4.108126E+04  1.768683E-10  2.866013E+04  9.769563E-11
        22   5  7.128847E+05  1.399996E+04  2.103749E+04  9.826943E-10  1.794508E+04  3.088298E-10
        22   6  7.155494E+05  4.903018E+03  1.188879E+04 -3.849893E-10  7.229903E+03  3.049477E-10
        22   7  7.155380E+05  3.879617E+04  4.108145E+04 -2.650405E+04  2.866013E+04 -1.222189E+00
        22   8  7.128849E+05  1.400033E+04  2.103754E+04 -1.403843E+04  1.794509E+04 -4.053333E-01
        22   9  7.155494E+05  4.903023E+03  1.188879E+04 -1.572726E+03  7.229903E+03 -1.829496E-02
        22  10  7.155371E+05  3.879595E+04  4.107991E+04  2.650405E+04 -2.439280E-10  2.385880E-11
        22  11  7.128846E+05  1.400024E+04  2.103694E+04  1.403843E+04  3.327360E-10  5.691999E-11
        22  12  7.155494E+05  4.903009E+03  1.188869E+04  1.572726E+03 -3.286252E-11  1.155284E-10
        22  13  7.155364E+05  3.879463E+04  4.107972E+04  1.005888E-09 -2.945819E-10  4.846939E-12
        22  14  7.128844E+05  1.399987E+04  2.103689E+04  6.776269E-10  1.828812E-10  6.085821E-11
        22  15  7.155494E+05  4.903004E+03  1.188869E+04 -1.050987E-10  3.747693E-10  1.819823E-10
        22  16  7.155371E+05  3.879595E+04  4.107991E+04 -2.650405E+04 -4.180467E-10 -1.208174E-11
        22  17  7.128846E+05  1.400024E+04  2.103694E+04 -1.403843E+04 -3.929376E-10 -1.743239E-12
        22  18  7.155494E+05  4.903009E+03  1.188869E+04 -1.572726E+03  5.454992E-11  2.599940E-10
        22  19  7.155380E+05  3.879617E+04  4.108145E+04  2.650405E+04 -2.866013E+04 -1.222189E+00
        22  20  7.128849E+05  1.400033E+04  2.103754E+04  1.403843E+04 -1.794509E+04 -4.053333E-01
        22  21  7.155494E+05  4.903023E+03  1.188879E+04  1.572726E+03 -7.229903E+03 -1.829496E-02
        22  22  7.155372E+05  3.879485E+04  4.108126E+04 -5.953275E-10 -2.866013E+04 -8.892231E-11
        22  23  7.128847E+05  1.399996E+04  2.103749E+04  1.011404E-10 -1.794508E+04 -1.923770E-10
        22  24  7.155494E+05  4.903018E+03  1.188879E+04 -4.942996E-10 -7.229903E+03  6.755432E-11
        22  25  7.155380E+05  3.879617E+04  4.108145E+04 -2.650405E+04 -2.866013E+04  1.222189E+00
        22  26  7.128849E+05  1.400033E+04  2.103754E+04 -1.403843E+04 -1.794509E+04  4.053333E-01
        22  27  7.155494E+05  4.903023E+03  1.188879E+04 -1.572726E+03 -7.229903E+03  1.829496E-02
        23   1  7.145586E+05  3.566662E+03  9.288146E+03  2.197508E+03  5.628877E+03  1.990210E-02
        23   2  7.141294E+05  1.246845E+03  6.189499E+03  1.033381E+03  2.533637E+03  4.212612E-03
        23   3  7.145599E+05  7.563088E+02  5.561616E+03 -1.307473E+02 -5.615992E+02  1.181424E-04
        23   4  7.145586E+05  3.566653E+03  9.288145E+03 -4.291210E-10  5.628877E+03  1.218700E-10
        23   5  7.141294E+05  1.246843E+03  6.189499E+03 -3.744384E-10  2.533637E+03 -1.348465E-10
        23   6  7.145599E+05  7.563087E+02  5.561616E+03 -4.186458E-10 -5.615992E+02 -1.177288E-10
        23   7  7.145586E+05  3.566662E+03  9.288146E+03 -2.197508E+03  5.628877E+03 -1.990210E-02
        23   8  7.141294E+05  1.246845E+03  6.189499E+03 -1.033381E+03  2.533637E+03 -4.212612E-03
        23   9  7.145599E+05  7.563088E+02  5.561616E+03  1.307473E+02 -5.615992E+02 -1.181427E-04
        23  10  7.145586E+05  3.566653E+03  9.288087E+03  2.197508E+03  3.874264E-10  9.921935E-11
        23  11  7.141294E+05  1.246843E+03  6.189487E+03  1.033381E+03 -1.804532E-10  9.592179E-11
        23  12  7.145599E+05  7.563087E+02  5.561615E+03 -1.307473E+02 -8.091495E-11  5.022713E-11
        23  13  7.145586E+05  3.566644E+03  9.288085E+03  2.483511E-10 -1.203354E-10  1.944521E-10
        23  14  7.141294E+05  1.246841E+03  6.189487E+03 -1.346216E-10  3.980760E-10  5.190615E-11
        23  15  7.145599E+05  7.563086E+02  5.561615E+03 -1.851530E-10  7.731062E-10 -1.117115E-10
        23  16  7.145586E+05  3.566653E+03  9.288087E+03 -2.197508E+03 -3.579612E-10  2.819741E-10
        23  17  7.141294E+05  1.246843E+03  6.189487E+03 -1.033381E+03 -3.505860E-10  1.387980E-11
        23  18  7.145599E+05  7.563087E+02  5.561615E+03  1.307473E+02  1.974171E-10 -2.827525E-10
        23  19  7.145586E+05  3.566662E+03  9.288146E+03  2.197508E+03 -5.628877E+03 -1.990210E-02
        23  20  7.141294E+05  1.246845E+03  6.189499E+03  1.033381E+03 -2.533637E+03 -4.212612E-03
        23  21  7.145599E+05  7.563088E+02  5.561616E+03 -1.307473E+02  5.615992E+02 -1.181423E-04
        23  22  7.145586E+05  3.566653E+03  9.288145E+03 -1.682978E-10 -5.628877E+03  2.630836E-10
        23  23  7.141294E+05  1.246843E+03  6.189499E+03  3.787242E-10 -2.533637E+03  2.552349E-10
        23  24  7.145599E+05  7.563087E+02  5.561616E+03  1.678896E-11  5.615992E+02 -1.023474E-10
        23  25  7.145586E+05  3.566662E+03  9.288146E+03 -2.197508E+03 -5.628877E+03  1.990210E-02
        23  26  7.141294E+05  1.246845E+03  6.189499E+03 -1.033381E+03 -2.533637E+03  4.212612E-03
        23  27  7.145599E+05  7.563088E+02  5.561616E+03  1.307473E+02  5.615992E+02  1.181421E-04
        24   1  7.146388E+05  8.211725E+02  5.941900E+03  1.334249E+02 -1.526558E+03 -3.277150E-04
        24   2  7.140301E+05  1.927201E+03  8.291172E+03 -1.649991E+03 -5.677920E+03  1.507363E-02
        24   3  7.146363E+05  5.733222E+03  1.401592E+04 -3.433380E+03 -9.829233E+03  5.429855E-02
        24   4  7.146388E+05  8.211725E+02  5.941900E+03 -8.163028E-10 -1.526558E+03 -3.649709E-11
        24   5  7.140301E+05  1.927196E+03  8.291171E+03 -5.638970E-10 -5.677920E+03  2.129420E-11
        24   6  7.146363E+05  5.733200E+03  1.401592E+04 -1.026877E-09 -9.829233E+03  6.087663E-11
        24   7  7.146388E+05  8.211725E+02  5.941900E+03 -1.334249E+02 -1.526558E+03  3.277149E-04
        24   8  7.140301E+05  1.927201E+03  8.291172E+03  1.649991E+03 -5.677920E+03 -1.507363E-02
        24   9  7.146363E+05  5.733222E+03  1.401592E+04  3.433380E+03 -9.829233E+03 -5.429855E-02
        24  10  7.146388E+05  8.211719E+02  5.941896E+03  1.334249E+02 -5.630122E-10 -3.322909E-11
        24  11  7.140301E+05  1.927193E+03  8.291111E+03 -1.649991E+03  7.378753E-10 -8.764869E-11
        24  12  7.146362E+05  5.733196E+03  1.401574E+04 -3.433380E+03  7.358448E-11  1.922843E-10
        24  13  7.146388E+05  8.211718E+02  5.941896E+03 -2.355684E-10 -2.525616E-11 -1.563415E-10
        24  14  7.140301E+05  1.927188E+03  8.291111E+03  3.114138E-10 -4.003513E-10 -1.011843E-10
        24  15  7.146362E+05  5.733174E+03  1.401574E+04  7.153183E-10  4.705674E-10 -1.281733E-11
        24  16  7.146388E+05  8.211719E+02  5.941896E+03 -1.334249E+02  9.164832E-10 -2.735437E-10
        24  17  7.140301E+05  1.927193E+03  8.291111E+03  1.649991E+03  7.033977E-10 -1.283254E-10
        24  18  7.146362E+05  5.733196E+03  1.401574E+04  3.433380E+03  8.640789E-10 -2.253782E-10
        24  19  7.146388E+05  8.211725E+02  5.941900E+03  1.334249E+02  1.526558E+03  3.277148E-04
        24  20  7.140301E+05  1.927201E+03  8.291172E+03 -1.649991E+03  5.677920E+03 -1.507363E-02
        24  21  7.146363E+05  5.733222E+03  1.401592E+04 -3.433380E+03  9.829233E+03 -5.429855E-02
        24  22  7.146388E+05  8.211725E+02  5.941900E+03  8.636857E-11  1.526558E+03 -2.735624E-10
        24  23  7.140301E+05  1.927196E+03  8.291171E+03  1.062587E-09  5.677920E+03 -2.363048E-10
        24  24  7.146363E+05  5.733200E+03  1.401592E+04 -7.196244E-10  9.829233E+03 -8.648557E-11
        24  25  7.146388E+05  8.211725E+02  5.941900E+03 -1.334249E+02  1.526558E+03 -3.277154E-04
        24  26  7.140301E+05  1.927201E+03  8.291172E+03  1.649991E+03  5.677920E+03  1.507363E-02
        24  27  7.146363E+05  5.733222E+03  1.401592E+04  3.433380E+03  9.829233E+03  5.429855E-02
        25   1  7.162606E+05  7.884755E+03  1.844426E+04 -2.460195E+03 -1.226352E+04  4.854344E-02
        25   2  7.119901E+05  2.251813E+04  3.350830E+04 -2.250495E+04 -2.933401E+04  1.062182E+00
        25   3  7.162428E+05  6.236782E+04  6.598147E+04 -4.255027E+04 -4.640481E+04  3.176978E+00
        25   4  7.162606E+05  7.884744E+03  1.844426E+04 -7.448982E-10 -1.226352E+04 -1.152628E-10
        25   5  7.119896E+05  2.251718E+04  3.350816E+04 -5.808766E-10 -2.933401E+04 -4.239759E-10
        25   6  7.162408E+05  6.236442E+04  6.598099E+04 -1.262728E-09 -4.640481E+04 -1.548196E-10
        25   7  7.162606E+05  7.884755E+03  1.844426E+04  2.460195E+03 -1.226352E+04 -4.854344E-02
        25   8  7.119901E+05  2.251813E+04  3.350830E+04  2.250495E+04 -2.933401E+04 -1.062182E+00
        25   9  7.162428E+05  6.236782E+04  6.598147E+04  4.255027E+04 -4.640481E+04 -3.176978E+00
        25  10  7.162604E+05  7.884715E+03  1.844398E+04 -2.460195E+03  3.300377E-10  1.468128E-10
        25  11  7.119892E+05  2.251790E+04  3.350668E+04 -2.250495E+04  2.243630E-10 -2.255495E-10
        25  12  7.162405E+05  6.236724E+04  6.597743E+04 -4.255027E+04 -2.970640E-10 -1.261592E-10
        25  13  7.162604E+05  7.884704E+03  1.844398E+04 -4.377712E-10  2.616448E-10 -5.378648E-11
        25  14  7.119887E+05  2.251695E+04  3.350654E+04 -5.066137E-11  6.575878E-10 -1.772733E-10
        25  15  7.162385E+05  6.236384E+04  6.597695E+04 -6.019725E-10  6.416587E-10 -7.324580E-11
        25  16  7.162604E+05  7.884715E+03  1.844398E+04  2.460195E+03  3.438078E-10 -2.443623E-10
        25  17  7.119892E+05  2.251790E+04  3.350668E+04  2.250495E+04  2.786123E-10 -1.156369E-10
        25  18  7.162405E+05  6.236724E+04  6.597743E+04  4.255027E+04  3.397912E-10 -2.781217E-11
        25  19  7.162606E+05  7.884755E+03  1.844426E+04 -2.460195E+03  1.226352E+04 -4.854344E-02
        25  20  7.119901E+05  2.251813E+04  3.350830E+04 -2.250495E+04  2.933401E+04 -1.062182E+00
        25  21  7.162428E+05  6.236782E+04  6.598147E+04 -4.255027E+04  4.640481E+04 -3.176978E+00
        25  22  7.162606E+05  7.884744E+03  1.844426E+04 -1.205822E-09  1.226352E+04  1.010900E-11
        25  23  7.119896E+05  2.251718E+04  3.350816E+04 -5.956180E-10  2.933401E+04  5.438495E-11
        25  24  7.162408E+05  6.236442E+04  6.598099E+04 -8.018101E-10  4.640481E+04  7.541680E-12
        25  25  7.162606E+05  7.884755E+03  1.844426E+04  2.460195E+03  1.226352E+04  4.854344E-02
        25  26  7.119901E+05  2.251813E+04  3.350830E+04  2.250495E+04  2.933401E+04  1.062182E+00
        25  27  7.162428E+05  6.236782E+04  6.598147E+04  4.255027E+04  4.640481E+04  3.176978E+00
        26   1 -3.376826E+05 -9.649701E+05 -3.336287E+05  3.151895E+05 -9.288232E+03 -1.604893E+05
        26   2 -2.098293E+05 -7.858142E+05 -1.959457E+05  2.627163E+05 -2.933527E+04 -8.335925E+04
        26   3 -1.396115E+05 -6.310821E+05 -1.229290E+05  2.355955E+05 -3.150799E+04 -6.201686E+03
        26   4 -1.235619E+05 -9.725076E+04 -1.309575E+05  2.311164E+05 -9.237335E+03 -9.095634E+04
        26   5 -4.466365E+04 -8.871748E+04 -6.734873E+04  2.184125E+05 -2.931353E+04 -5.664606E+04
        26   6 -1.592539E+04 -9.716809E+04 -3.861513E+04  2.310716E+05 -3.151479E+04 -2.233310E+04
        26   7  9.053471E+04  7.711892E+05  7.168463E+04  1.469246E+05 -9.205350E+03 -2.132663E+04
        26   8  1.204821E+05  6.088568E+05  6.123185E+04  1.740574E+05 -2.929562E+04 -2.990360E+04
        26   9  1.077468E+05  4.370307E+05  4.569259E+04  2.265436E+05 -3.152135E+04 -3.847789E+04
        26  10 -3.376897E+05 -9.649978E+05 -3.336774E+05  3.151883E+05  2.854697E-10  1.126543E-08
        26  11 -2.098321E+05 -7.858219E+05 -1.959604E+05  2.627143E+05  4.164999E-10 -2.307223E-08
        26  12 -1.396126E+05 -6.310824E+05 -1.229309E+05  2.355954E+05 -5.061975E-10 -5.589541E-08
        26  13 -1.235642E+05 -9.725967E+04 -1.309732E+05  2.311157E+05 -1.401475E-10 -8.130702E-12
        26  14 -4.466543E+04 -8.872115E+04 -6.735637E+04  2.184111E+05 -2.667649E-10 -4.978109E-11
        26  15 -1.592659E+04 -9.716889E+04 -3.861793E+04  2.310711E+05  3.177998E-10 -3.702360E-11
        26  16  9.053450E+04  7.711887E+05  7.168362E+04  1.469245E+05  1.616529E-11 -1.129341E-08
        26  17  1.204810E+05  6.088556E+05  6.122856E+04  1.740567E+05 -4.068282E-10  2.308570E-08
        26  18  1.077454E+05  4.370288E+05  4.568795E+04  2.265426E+05  1.127691E-09  5.588523E-08
        26  19 -3.376826E+05 -9.649701E+05 -3.336287E+05  3.151895E+05  9.288232E+03  1.604893E+05
        26  20 -2.098293E+05 -7.858142E+05 -1.959457E+05  2.627163E+05  2.933527E+04  8.335925E+04
        26  21 -1.396115E+05 -6.310821E+05 -1.229290E+05  2.355955E+05  3.150799E+04  6.201686E+03
        26  22 -1.235619E+05 -9.725076E+04 -1.309575E+05  2.311164E+05  9.237335E+03  9.095634E+04
        26  23 -4.466365E+04 -8.871748E+04 -6.734873E+04  2.184125E+05  2.931353E+04  5.664606E+04
        26  24 -1.592539E+04 -9.716809E+04 -3.861513E+04  2.310716E+05  3.151479E+04  2.233310E+04
        26  25  9.053471E+04  7.711892E+05  7.168463E+04  1.469246E+05  9.205350E+03  2.132663E+04
        26  26  1.204821E+05  6.088568E+05  6.123185E+04  1.740574E+05  2.929562E+04  2.990360E+04
        26  27  1.077468E+05  4.370307E+05  4.569259E+04  2.265436E+05  3.152135E+04  3.847789E+04
        27   1 -1.109163E+05 -5.238125E+05 -9.632430E+04  2.379649E+05 -2.673101E+04  3.535839E+02
        27   2 -6.534956E+04 -3.550014E+05 -5.809467E+04  2.194296E+05 -1.874526E+04  1.457536E+04
        27   3 -2.809256E+04 -1.901018E+05 -3.121025E+04  2.275358E+05 -9.369898E+03  2.879920E+04
        27   4 -1.181658E+04 -9.412245E+04 -3.062844E+04  2.313555E+05 -2.674006E+04 -1.711968E+04
        27   5 -5.551636E+03 -9.242819E+04 -2.173775E+04  2.180328E+05 -1.875788E+04 -6.227747E+03
        27   6 -7.014592E+03 -9.409243E+04 -2.187541E+04  2.313523E+05 -9.386172E+03  4.662695E+03
        27   7  8.727459E+04  3.357533E+05  3.506461E+04  2.247413E+05 -2.674874E+04 -3.460457E+04
        27   8  5.424349E+04  1.702160E+05  1.462000E+04  2.166354E+05 -1.877040E+04 -2.703927E+04
        27   9  1.406344E+04  1.927935E+03 -1.253820E+04  2.351695E+05 -9.402740E+03 -1.947732E+04
        27  10 -1.109171E+05 -5.238127E+05 -9.632564E+04  2.379649E+05 -8.838509E-11  6.688345E-08
        27  11 -6.535000E+04 -3.550017E+05 -5.809573E+04  2.194298E+05 -2.935317E-10 -2.661326E-10
        27  12 -2.809287E+04 -1.901027E+05 -3.121198E+04  2.275360E+05  7.210704E-10 -6.708025E-08
        27  13 -1.181743E+04 -9.412295E+04 -3.063034E+04  2.313551E+05  3.762302E-10 -3.028647E-11
        27  14 -5.552024E+03 -9.242833E+04 -2.173848E+04  2.180327E+05  4.933198E-10 -1.089086E-10
        27  15 -7.014692E+03 -9.409248E+04 -2.187562E+04  2.313524E+05  3.399297E-10 -5.695385E-11
        27  16  8.727350E+04  3.357518E+05  3.506101E+04  2.247405E+05  1.172019E-09 -6.684202E-08
        27  17  5.424292E+04  1.702151E+05  1.461796E+04  2.166350E+05  5.901497E-10  1.829368E-10
        27  18  1.406324E+04  1.927504E+03 -1.253908E+04  2.351693E+05  3.525009E-10  6.700105E-08
        27  19 -1.109163E+05 -5.238125E+05 -9.632430E+04  2.379649E+05  2.673101E+04 -3.535839E+02
        27  20 -6.534956E+04 -3.550014E+05 -5.809467E+04  2.194296E+05  1.874526E+04 -1.457536E+04
        27  21 -2.809256E+04 -1.901018E+05 -3.121025E+04  2.275358E+05  9.369898E+03 -2.879920E+04
        27  22 -1.181658E+04 -9.412245E+04 -3.062844E+04  2.313555E+05  2.674006E+04  1.711968E+04
        27  23 -5.551636E+03 -9.242819E+04 -2.173775E+04  2.180328E+05  1.875788E+04  6.227747E+03
        27  24 -7.014592E+03 -9.409243E+04 -2.187541E+04  2.313523E+05  9.386172E+03 -4.662695E+03
        27  25  8.727459E+04  3.357533E+05  3.506461E+04  2.247413E+05  2.674874E+04  3.460457E+04
        27  26  5.424349E+04  1.702160E+05  1.462000E+04  2.166354E+05  1.877040E+04  2.703927E+04
        27  27  1.406344E+04  1.927935E+03 -1.253820E+04  2.351695E+05  9.402740E+03  1.947732E+04
        28   1 -6.052570E+03 -8.779333E+04 -1.772520E+04  2.288167E+05 -3.192045E+03  3.195894E+04
        28   2  1.840840E+04  8.225551E+04  7.375951E+02  1.943020E+05  2.988411E+03  3.346357E+04
        28   3  1.878316E+04  2.461063E+05  1.219576E+04  1.860288E+05  1.766040E+03  3.496976E+04
        28   4 -8.958522E+03 -9.541400E+04 -2.465354E+04  2.312637E+05 -3.208318E+03  8.240581E+03
        28   5 -2.388605E+04 -9.076793E+04 -3.787877E+04  2.181543E+05  2.985835E+03  2.750743E+04
        28   6 -6.598876E+04 -9.543599E+04 -7.044777E+04  2.312924E+05  1.776310E+03  4.677502E+04
        28   7 -1.186417E+04 -1.030334E+05 -3.157976E+04  2.337108E+05 -3.224778E+03 -1.547741E+04
        28   8 -6.618036E+04 -2.637622E+05 -7.649657E+04  2.419999E+05  2.982801E+03  2.155294E+04
        28   9 -1.507614E+05 -4.368670E+05 -1.530981E+05  2.765310E+05  1.788306E+03  5.857381E+04
        28  10 -6.052855E+03 -8.779443E+04 -1.772714E+04  2.288167E+05  5.187585E-10  5.527264E-08
        28  11  1.840809E+04  8.225431E+04  7.354744E+02  1.943019E+05  4.108018E-11  2.280164E-08
        28  12  1.878283E+04  2.461050E+05  1.219346E+04  1.860287E+05 -1.003940E-10 -1.077491E-08
        28  13 -8.958552E+03 -9.541407E+04 -2.465369E+04  2.312638E+05  6.302162E-10 -2.506871E-11
        28  14 -2.388626E+04 -9.076874E+04 -3.788020E+04  2.181542E+05 -7.352320E-10 -9.776542E-11
        28  15 -6.598935E+04 -9.543834E+04 -7.045189E+04  2.312923E+05 -5.103197E-10 -1.092602E-11
        28  16 -1.186424E+04 -1.030337E+05 -3.158023E+04  2.337108E+05  3.371008E-10 -5.510618E-08
        28  17 -6.618050E+04 -2.637627E+05 -7.649746E+04  2.419999E+05 -1.252905E-10 -2.284589E-08
        28  18 -1.507623E+05 -4.368706E+05 -1.531045E+05  2.765309E+05 -2.034107E-10  1.072156E-08
        28  19 -6.052570E+03 -8.779333E+04 -1.772520E+04  2.288167E+05  3.192045E+03 -3.195894E+04
        28  20  1.840840E+04  8.225551E+04  7.375951E+02  1.943020E+05 -2.988411E+03 -3.346357E+04
        28  21  1.878316E+04  2.461063E+05  1.219576E+04  1.860288E+05 -1.766040E+03 -3.496976E+04
        28  22 -8.958522E+03 -9.541400E+04 -2.465354E+04  2.312637E+05  3.208318E+03 -8.240581E+03
        28  23 -2.388605E+04 -9.076793E+04 -3.787877E+04  2.181543E+05 -2.985835E+03 -2.750743E+04
        28  24 -6.598876E+04 -9.543599E+04 -7.044777E+04  2.312924E+05 -1.776310E+03 -4.677502E+04
        28  25 -1.186417E+04 -1.030334E+05 -3.157976E+04  2.337108E+05  3.224778E+03  1.547741E+04
        28  26 -6.618036E+04 -2.637622E+05 -7.649657E+04  2.419999E+05 -2.982801E+03 -2.155294E+04
        28  27 -1.507614E+05 -4.368670E+05 -1.530981E+05  2.765310E+05 -1.788306E+03 -5.857381E+04
        29   1  5.439712E+05  2.794785E+04  2.959623E+04  1.909225E+04  2.063189E+04  6.339546E-01
        29   2  5.420583E+05  1.008435E+04  1.516515E+04  1.011341E+04  1.290825E+04  2.101007E-01
        29   3  5.439774E+05  3.531318E+03  8.587053E+03  1.134637E+03  5.184623E+03  9.467492E-03
        29   4  5.439708E+05  2.794716E+04  2.959613E+04 -2.943752E-09  2.063189E+04  2.125765E-10
        29   5  5.420582E+05  1.008416E+04  1.516512E+04 -2.608909E-09  1.290825E+04  1.650086E-10
        29   6  5.439774E+05  3.531316E+03  8.587053E+03 -5.544632E-09  5.184623E+03 -1.128114E-09
        29   7  5.439712E+05  2.794785E+04  2.959623E+04 -1.909225E+04  2.063189E+04 -6.339546E-01
        29   8  5.420583E+05  1.008435E+04  1.516515E+04 -1.011341E+04  1.290825E+04 -2.101007E-01
        29   9  5.439774E+05  3.531318E+03  8.587053E+03 -1.134637E+03  5.184623E+03 -9.467495E-03
        29  10  5.439707E+05  2.794773E+04  2.959543E+04  1.909225E+04 -1.822270E-09  2.610080E-10
        29  11  5.420581E+05  1.008430E+04  1.516484E+04  1.011341E+04 -1.578335E-09  3.051535E-10
        29  12  5.439774E+05  3.531311E+03  8.587003E+03  1.134637E+03 -5.045804E-10 -9.871293E-10
        29  13  5.439703E+05  2.794705E+04  2.959533E+04 -8.712154E-10 -2.608883E-10  2.518926E-10
        29  14  5.420580E+05  1.008411E+04  1.516481E+04 -9.276569E-11 -4.173143E-10  2.573061E-10
        29  15  5.439774E+05  3.531308E+03  8.587002E+03 -1.085832E-09  6.390989E-10 -1.086859E-09
        29  16  5.439707E+05  2.794773E+04  2.959543E+04 -1.909225E+04  1.841210E-09  2.264249E-10
        29  17  5.420581E+05  1.008430E+04  1.516484E+04 -1.011341E+04  9.560695E-10  1.896249E-10
        29  18  5.439774E+05  3.531311E+03  8.587003E+03 -1.134637E+03  3.391901E-11 -1.175020E-09
        29  19  5.439712E+05  2.794785E+04  2.959623E+04  1.909225E+04 -2.063189E+04 -6.339546E-01
        29  20  5.420583E+05  1.008435E+04  1.516515E+04  1.011341E+04 -1.290825E+04 -2.101007E-01
        29  21  5.439774E+05  3.531318E+03  8.587053E+03  1.134637E+03 -5.184623E+03 -9.467494E-03
        29  22  5.439708E+05  2.794716E+04  2.959613E+04 -1.536250E-10 -2.063189E+04  2.949020E-10
        29  23  5.420582E+05  1.008416E+04  1.516512E+04  2.676896E-09 -1.290825E+04  3.461602E-10
        29  24  5.439774E+05  3.531316E+03  8.587053E+03  2.740740E-09 -5.184623E+03 -1.043593E-09
        29  25  5.439712E+05  2.794785E+04  2.959623E+04 -1.909225E+04 -2.063189E+04  6.339546E-01
        29  26  5.420583E+05  1.008435E+04  1.516515E+04 -1.011341E+04 -1.290825E+04  2.101007E-01
        29  27  5.439774E+05  3.531318E+03  8.587053E+03 -1.134637E+03 -5.184623E+03  9.467492E-03
        30   1  5.432647E+05  2.568969E+03  6.722371E+03  1.586034E+03  4.026696E+03  1.027833E-02
        30   2  5.429524E+05  9.006739E+02  4.516336E+03  7.445799E+02  1.768482E+03  2.119203E-03
        30   3  5.432654E+05  5.584919E+02  4.111056E+03 -9.686190E+01 -4.896962E+02  7.633600E-05
        30   4  5.432647E+05  2.568964E+03  6.722371E+03  2.145262E-07  4.026696E+03 -2.406810E-09
        30   5  5.429524E+05  9.006728E+02  4.516336E+03  9.637139E-10  1.768482E+03 -3.340964E-09
        30   6  5.432654E+05  5.584919E+02  4.111056E+03 -2.140884E-07 -4.896962E+02 -2.094795E-09
        30   7  5.432647E+05  2.568969E+03  6.722371E+03 -1.586034E+03  4.026696E+03 -1.027833E-02
        30   8  5.429524E+05  9.006739E+02  4.516336E+03 -7.445799E+02  1.768482E+03 -2.119210E-03
        30   9  5.432654E+05  5.584919E+02  4.111056E+03  9.686190E+01 -4.896962E+02 -7.634020E-05
        30  10  5.432647E+05  2.568965E+03  6.722341E+03  1.586034E+03 -1.363371E-07 -2.212093E-09
        30  11  5.429524E+05  9.006730E+02  4.516330E+03  7.445799E+02  5.715957E-10 -3.027650E-09
        30  12  5.432654E+05  5.584918E+02  4.111056E+03 -9.686190E+01  1.365091E-07 -1.913329E-09
        30  13  5.432647E+05  2.568960E+03  6.722340E+03  1.768853E-10  2.525267E-11 -2.343731E-09
        30  14  5.429524E+05  9.006720E+02  4.516330E+03 -1.008340E-10 -2.693033E-10 -3.175049E-09
        30  15  5.432654E+05  5.584918E+02  4.111056E+03  4.223474E-11 -7.619742E-10 -2.049939E-09
        30  16  5.432647E+05  2.568965E+03  6.722341E+03 -1.586034E+03  1.364050E-07 -2.450270E-09
        30  17  5.429524E+05  9.006730E+02  4.516330E+03 -7.445799E+02 -8.877463E-10 -3.337461E-09
        30  18  5.432654E+05  5.584918E+02  4.111056E+03  9.686190E+01 -1.371368E-07 -2.177138E-09
        30  19  5.432647E+05  2.568969E+03  6.722371E+03  1.586034E+03 -4.026696E+03 -1.027833E-02
        30  20  5.429524E+05  9.006739E+02  4.516336E+03  7.445799E+02 -1.768482E+03 -2.119209E-03
        30  21  5.432654E+05  5.584919E+02  4.111056E+03 -9.686190E+01  4.896962E+02 -7.633990E-05
        30  22  5.432647E+05  2.568964E+03  6.722371E+03 -2.152370E-07 -4.026696E+03 -2.274270E-09
        30  23  5.429524E+05  9.006728E+02  4.516336E+03 -5.973169E-10 -1.768482E+03 -3.019205E-09
        30  24  5.432654E+05  5.584919E+02  4.111056E+03  2.133692E-07  4.896962E+02 -2.007202E-09
        30  25  5.432647E+05  2.568969E+03  6.722371E+03 -1.586034E+03 -4.026696E+03  1.027833E-02
        30  26  5.429524E+05  9.006739E+02  4.516336E+03 -7.445799E+02 -1.768482E+03  2.119203E-03
        30  27  5.432654E+05  5.584919E+02  4.111056E+03  9.686190E+01  4.896962E+02  7.633587E-05
        31   1  5.433294E+05  6.111360E+02  4.419790E+03  9.908237E+01 -1.205240E+03 -1.921907E-04
        31   2  5.428720E+05  1.452976E+03  6.222613E+03 -1.245052E+03 -4.320779E+03  8.657866E-03
        31   3  5.433280E+05  4.327861E+03  1.056075E+04 -2.589205E+03 -7.436371E+03  3.098767E-02
        31   4  5.433294E+05  6.111360E+02  4.419790E+03  3.704553E-09 -1.205240E+03 -7.253957E-10
        31   5  5.428720E+05  1.452973E+03  6.222613E+03  3.536581E-09 -4.320779E+03  5.922509E-10
        31   6  5.433280E+05  4.327848E+03  1.056075E+04  2.977288E-09 -7.436371E+03  8.101457E-10
        31   7  5.433294E+05  6.111360E+02  4.419790E+03 -9.908237E+01 -1.205240E+03  1.921893E-04
        31   8  5.428720E+05  1.452976E+03  6.222613E+03  1.245052E+03 -4.320779E+03 -8.657865E-03
        31   9  5.433280E+05  4.327861E+03  1.056075E+04  2.589205E+03 -7.436371E+03 -3.098766E-02
        31  10  5.433294E+05  6.111356E+02  4.419787E+03  9.908237E+01  8.170235E-10 -6.615339E-10
        31  11  5.428720E+05  1.452971E+03  6.222578E+03 -1.245052E+03  1.672730E-09  6.669087E-10
        31  12  5.433280E+05  4.327846E+03  1.056065E+04 -2.589205E+03  2.201617E-09  8.412474E-10
        31  13  5.433294E+05  6.111356E+02  4.419787E+03  6.734023E-11 -2.524682E-10 -7.167836E-10
        31  14  5.428720E+05  1.452968E+03  6.222578E+03  1.136952E-10  9.780789E-11  6.933561E-10
        31  15  5.433280E+05  4.327834E+03  1.056065E+04  6.565812E-10 -5.906932E-10  9.305810E-10
        31  16  5.433294E+05  6.111356E+02  4.419787E+03 -9.908237E+01 -1.550275E-09 -7.850504E-10
        31  17  5.428720E+05  1.452971E+03  6.222578E+03  1.245052E+03 -2.162433E-09  7.260227E-10
        31  18  5.433280E+05  4.327846E+03  1.056065E+04  2.589205E+03 -2.710126E-09  1.021806E-09
        31  19  5.433294E+05  6.111360E+02  4.419790E+03  9.908237E+01  1.205240E+03  1.921894E-04
        31  20  5.428720E+05  1.452976E+03  6.222613E+03 -1.245052E+03  4.320779E+03 -8.657865E-03
        31  21  5.433280E+05  4.327861E+03  1.056075E+04 -2.589205E+03  7.436371E+03 -3.098766E-02
        31  22  5.433294E+05  6.111360E+02  4.419790E+03 -6.931940E-09  1.205240E+03 -7.050223E-10
        31  23  5.428720E+05  1.452973E+03  6.222613E+03 -3.574283E-09  4.320779E+03  8.067609E-10
        31  24  5.433280E+05  4.327848E+03  1.056075E+04 -3.206306E-09  7.436371E+03  1.051799E-09
        31  25  5.433294E+05  6.111360E+02  4.419790E+03 -9.908237E+01  1.205240E+03 -1.921908E-04
        31  26  5.428720E+05  1.452976E+03  6.222613E+03  1.245052E+03  4.320779E+03  8.657867E-03
        31  27  5.433280E+05  4.327861E+03  1.056075E+04  2.589205E+03  7.436371E+03  3.098767E-02
        32   1  5.445552E+05  5.951859E+03  1.390927E+04 -1.854551E+03 -9.270492E+03  2.766955E-02
        32   2  5.413324E+05  1.699954E+04  2.528996E+04 -1.698666E+04 -2.215403E+04  6.056535E-01
        32   3  5.445450E+05  4.708647E+04  4.981338E+04 -3.211893E+04 -3.503760E+04  1.811167E+00
        32   4  5.445552E+05  5.951853E+03  1.390927E+04  6.858770E-10 -9.270492E+03  6.917409E-10
        32   5  5.413321E+05  1.699900E+04  2.528989E+04  2.415329E-09 -2.215403E+04  5.579489E-10
        32   6  5.445439E+05  4.708453E+04  4.981310E+04  1.157624E-10 -3.503760E+04  2.041552E-10
        32   7  5.445552E+05  5.951859E+03  1.390927E+04  1.854551E+03 -9.270492E+03 -2.766955E-02
        32   8  5.413324E+05  1.699954E+04  2.528996E+04  1.698666E+04 -2.215403E+04 -6.056535E-01
        32   9  5.445450E+05  4.708647E+04  4.981338E+04  3.211893E+04 -3.503760E+04 -1.811167E+00
        32  10  5.445551E+05  5.951836E+03  1.390911E+04 -1.854551E+03  1.161478E-09  7.340563E-10
        32  11  5.413319E+05  1.699941E+04  2.528904E+04 -1.698666E+04  8.945730E-10  6.929550E-10
        32  12  5.445437E+05  4.708614E+04  4.981107E+04 -3.211893E+04  8.751030E-10  2.298474E-10
        32  13  5.445551E+05  5.951830E+03  1.390911E+04 -1.767680E-10 -1.925603E-10  7.359736E-10
        32  14  5.413316E+05  1.699887E+04  2.528896E+04  6.100982E-10  9.628046E-11  5.039825E-10
        32  15  5.445426E+05  4.708420E+04  4.981080E+04 -2.356911E-10  9.628132E-11  1.351455E-10
        32  16  5.445551E+05  5.951836E+03  1.390911E+04  1.854551E+03 -1.296884E-09  7.374206E-10
        32  17  5.413319E+05  1.699941E+04  2.528904E+04  1.698666E+04 -9.524862E-10  3.062770E-10
        32  18  5.445437E+05  4.708614E+04  4.981107E+04  3.211893E+04 -7.833787E-10  7.462340E-11
        32  19  5.445552E+05  5.951859E+03  1.390927E+04 -1.854551E+03  9.270492E+03 -2.766955E-02
        32  20  5.413324E+05  1.699954E+04  2.528996E+04 -1.698666E+04  2.215403E+04 -6.056535E-01
        32  21  5.445450E+05  4.708647E+04  4.981338E+04 -3.211893E+04  3.503760E+04 -1.811167E+00
        32  22  5.445552E+05  5.951853E+03  1.390927E+04 -3.446298E-09  9.270492E+03  7.852380E-10
        32  23  5.413321E+05  1.699900E+04  2.528989E+04 -9.279361E-10  2.215403E+04  4.490643E-10
        32  24  5.445439E+05  4.708453E+04  4.981310E+04 -1.108925E-09  3.503760E+04  6.729707E-11
        32  25  5.445552E+05  5.951859E+03  1.390927E+04  1.854551E+03  9.270492E+03  2.766955E-02
        32  26  5.413324E+05  1.699954E+04  2.528996E+04  1.698666E+04  2.215403E+04  6.056535E-01
        32  27  5.445450E+05  4.708647E+04  4.981338E+04  3.211893E+04  3.503760E+04  1.811167E+00
        33   1 -2.572947E+05 -7.252764E+05 -2.537566E+05  2.373776E+05 -7.257920E+03 -1.212949E+05
        33   2 -1.619359E+05 -5.893426E+05 -1.499394E+05  1.984923E+05 -2.304813E+04 -6.275070E+04
        33   3 -1.092753E+05 -4.716887E+05 -9.493542E+04  1.788378E+05 -2.495515E+04 -4.190381E+03
        33   4 -9.084361E+04 -5.061692E+04 -9.628770E+04  1.755168E+05 -7.228438E+03 -6.675694E+04
        33   5 -3.285458E+04 -4.434273E+04 -4.961148E+04  1.658857E+05 -2.303521E+04 -4.148603E+04
        33   6 -1.176323E+04 -5.056899E+04 -2.861039E+04  1.754914E+05 -2.495891E+04 -1.621347E+04
        33   7  7.559130E+04  6.244772E+05  6.116357E+04  1.135882E+05 -7.209860E+03 -1.216003E+04
        33   8  9.621403E+04  5.009488E+05  5.070648E+04  1.332497E+05 -2.302454E+04 -2.020316E+04
        33   9  8.574014E+04  3.707279E+05  3.771083E+04  1.721427E+05 -2.496253E+04 -2.824441E+04
        33  10 -2.572987E+05 -7.252922E+05 -2.537844E+05  2.373769E+05  3.591512E-11  1.151981E-08
        33  11 -1.619375E+05 -5.893470E+05 -1.499478E+05  1.984911E+05  4.476409E-10 -2.207777E-08
        33  12 -1.092759E+05 -4.716889E+05 -9.493663E+04  1.788377E+05  9.437204E-10 -5.434577E-08
        33  13 -9.084487E+04 -5.062172E+04 -9.629617E+04  1.755164E+05  3.951755E-10 -2.592220E-11
        33  14 -3.285561E+04 -4.434472E+04 -4.961571E+04  1.658850E+05  4.556163E-10 -5.348004E-11
        33  15 -1.176397E+04 -5.056944E+04 -2.861205E+04  1.754911E+05  8.343271E-10 -9.814817E-11
        33  16  7.559120E+04  6.244771E+05  6.116319E+04  1.135882E+05 -2.438045E-10 -1.150156E-08
        33  17  9.621336E+04  5.009482E+05  5.070472E+04  1.332493E+05  3.164931E-11  2.209823E-08
        33  18  8.573926E+04  3.707269E+05  3.770816E+04  1.721421E+05  7.268234E-10  5.439671E-08
        33  19 -2.572947E+05 -7.252764E+05 -2.537566E+05  2.373776E+05  7.257920E+03  1.212949E+05
        33  20 -1.619359E+05 -5.893426E+05 -1.499394E+05  1.984923E+05  2.304813E+04  6.275070E+04
        33  21 -1.092753E+05 -4.716887E+05 -9.493542E+04  1.788378E+05  2.495515E+04  4.190381E+03
        33  22 -9.084361E+04 -5.061692E+04 -9.628770E+04  1.755168E+05  7.228438E+03  6.675694E+04
        33  23 -3.285458E+04 -4.434273E+04 -4.961148E+04  1.658857E+05  2.303521E+04  4.148603E+04
        33  24 -1.176323E+04 -5.056899E+04 -2.861039E+04  1.754914E+05  2.495891E+04  1.621347E+04
        33  25  7.559130E+04  6.244772E+05  6.116357E+04  1.135882E+05  7.209860E+03  1.216003E+04
        33  26  9.621403E+04  5.009488E+05  5.070648E+04  1.332497E+05  2.302454E+04  2.020316E+04
        33  27  8.574014E+04  3.707279E+05  3.771083E+04  1.721427E+05  2.496253E+04  2.824441E+04
        34   1 -8.758380E+04 -3.902894E+05 -7.493931E+04  1.805993E+05 -2.137035E+04  7.352656E+02
        34   2 -5.321900E+04 -2.620621E+05 -4.631242E+04  1.665042E+05 -1.534917E+04  1.175292E+04
        34   3 -2.521493E+04 -1.368493E+05 -2.645363E+04  1.726410E+05 -8.190258E+03  2.277171E+04
        34   4 -8.759419E+03 -4.834828E+04 -2.282255E+04  1.757124E+05 -2.137546E+04 -1.233568E+04
        34   5 -4.258280E+03 -4.706123E+04 -1.654428E+04  1.655954E+05 -1.535649E+04 -4.045315E+03
        34   6 -5.642161E+03 -4.832970E+04 -1.713753E+04  1.757108E+05 -8.199882E+03  4.244113E+03
        34   7  7.005953E+04  2.937104E+05  2.929238E+04  1.708228E+05 -2.138035E+04 -2.541355E+04
        34   8  4.470053E+04  1.679871E+05  1.322426E+04  1.646863E+05 -1.536377E+04 -1.984877E+04
        34   9  1.393055E+04  4.019887E+04 -7.820046E+03  1.787809E+05 -8.209688E+03 -1.428598E+04
        34  10 -8.758429E+04 -3.902895E+05 -7.494016E+04  1.805993E+05  1.273110E-09  5.454168E-08
        34  11 -5.321929E+04 -2.620623E+05 -4.631312E+04  1.665043E+05  3.154462E-10  2.260106E-08
        34  12 -2.521514E+04 -1.368499E+05 -2.645473E+04  1.726412E+05  3.962931E-10 -1.108254E-08
        34  13 -8.759950E+03 -4.834856E+04 -2.282369E+04  1.757122E+05  1.222812E-09 -2.018681E-10
        34  14 -4.258538E+03 -4.706131E+04 -1.654475E+04  1.655953E+05 -4.168520E-11 -1.300813E-10
        34  15 -5.642238E+03 -4.832974E+04 -1.713769E+04  1.757108E+05  7.281340E-11 -1.618752E-10
        34  16  7.005887E+04  2.937096E+05  2.929030E+04  1.708223E+05  8.160717E-10 -5.459307E-08
        34  17  4.470017E+04  1.679866E+05  1.322307E+04  1.646861E+05  3.785364E-10 -2.262486E-08
        34  18  1.393042E+04  4.019864E+04 -7.820556E+03  1.787808E+05  1.467009E-10  1.112098E-08
        34  19 -8.758380E+04 -3.902894E+05 -7.493931E+04  1.805993E+05  2.137035E+04 -7.352656E+02
        34  20 -5.321900E+04 -2.620621E+05 -4.631242E+04  1.665042E+05  1.534917E+04 -1.175292E+04
        34  21 -2.521493E+04 -1.368493E+05 -2.645363E+04  1.726410E+05  8.190258E+03 -2.277171E+04
        34  22 -8.759419E+03 -4.834828E+04 -2.282255E+04  1.757124E+05  2.137546E+04  1.233568E+04
        34  23 -4.258280E+03 -4.706123E+04 -1.654428E+04  1.655954E+05  1.535649E+04  4.045315E+03
        34  24 -5.642161E+03 -4.832970E+04 -1.713753E+04  1.757108E+05  8.199882E+03 -4.244113E+03
        34  25  7.005953E+04  2.937104E+05  2.929238E+04  1.708228E+05  2.138035E+04  2.541355E+04
        34  26  4.470053E+04  1.679871E+05  1.322426E+04  1.646863E+05  1.536377E+04  1.984877E+04
        34  27  1.393055E+04  4.019887E+04 -7.820046E+03  1.787809E+05  8.209688E+03  1.428598E+04
        35   1 -8.618160E+03 -5.926971E+04 -1.657799E+04  1.736546E+05 -3.457603E+03  2.529654E+04
        35   2  9.112264E+03  7.015348E+04 -3.815754E+03  1.463594E+05  1.485918E+03  2.805362E+04
        35   3  7.089203E+03  1.942896E+05  2.211097E+03  1.390191E+05  1.118375E+03  3.081190E+04
        35   4 -7.240630E+03 -4.943093E+04 -1.954234E+04  1.756493E+05 -3.467288E+03  7.059535E+03
        35   5 -1.936334E+04 -4.567739E+04 -3.047074E+04  1.656791E+05  1.483992E+03  2.256041E+04
        35   6 -5.345499E+04 -4.944189E+04 -5.698669E+04  1.756674E+05  1.123903E+03  3.806167E+04
        35   7 -5.862900E+03 -3.959128E+04 -2.250538E+04  1.776440E+05 -3.477089E+03 -1.117770E+04
        35   8 -4.783846E+04 -1.614950E+05 -5.712629E+04  1.849952E+05  1.481723E+03  1.706822E+04
        35   9 -1.139985E+05 -2.931161E+05 -1.161878E+05  2.123013E+05  1.130287E+03  4.530860E+04
        35  10 -8.618345E+03 -5.927040E+04 -1.657922E+04  1.736547E+05  7.038981E-12 -4.412281E-10
        35  11  9.112051E+03  7.015264E+04 -3.817237E+03  1.463594E+05 -3.698807E-10  5.449563E-10
        35  12  7.088947E+03  1.942885E+05  2.209311E+03  1.390191E+05 -2.331893E-10  1.221753E-09
        35  13 -7.240657E+03 -4.943099E+04 -1.954245E+04  1.756493E+05 -5.177279E-10 -2.877760E-10
        35  14 -1.936348E+04 -4.567793E+04 -3.047170E+04  1.656791E+05 -8.028014E-10 -1.314071E-10
        35  15 -5.345538E+04 -4.944345E+04 -5.698941E+04  1.756674E+05 -1.910503E-10 -1.363739E-10
        35  16 -5.862947E+03 -3.959142E+04 -2.250563E+04  1.776440E+05  3.011388E-10  4.121198E-10
        35  17 -4.783854E+04 -1.614953E+05 -5.712685E+04  1.849952E+05 -5.342285E-11 -5.788164E-10
        35  18 -1.139990E+05 -2.931183E+05 -1.161917E+05  2.123012E+05  1.946096E-11 -1.212011E-09
        35  19 -8.618160E+03 -5.926971E+04 -1.657799E+04  1.736546E+05  3.457603E+03 -2.529654E+04
        35  20  9.112264E+03  7.015348E+04 -3.815754E+03  1.463594E+05 -1.485918E+03 -2.805362E+04
        35  21  7.089203E+03  1.942896E+05  2.211097E+03  1.390191E+05 -1.118375E+03 -3.081190E+04
        35  22 -7.240630E+03 -4.943093E+04 -1.954234E+04  1.756493E+05  3.467288E+03 -7.059535E+03
        35  23 -1.936334E+04 -4.567739E+04 -3.047074E+04  1.656791E+05 -1.483992E+03 -2.256041E+04
        35  24 -5.345499E+04 -4.944189E+04 -5.698669E+04  1.756674E+05 -1.123903E+03 -3.806167E+04
        35  25 -5.862900E+03 -3.959128E+04 -2.250538E+04  1.776440E+05  3.477089E+03  1.117770E+04
        35  26 -4.783846E+04 -1.614950E+05 -5.712629E+04  1.849952E+05 -1.481723E+03 -1.706822E+04
        35  27 -1.139985E+05 -2.931161E+05 -1.161878E+05  2.123013E+05 -1.130287E+03 -4.530860E+04
        36   1  4.016710E+05  1.853571E+04  1.963503E+04  1.266671E+04  1.364870E+04  2.782994E-01
        36   2  4.004005E+05  6.686697E+03  1.008897E+04  6.712835E+03  8.511011E+03  9.196959E-02
        36   3  4.016741E+05  2.341490E+03  5.762104E+03  7.590699E+02  3.373398E+03  4.121976E-03
        36   4  4.016709E+05  1.853541E+04  1.963499E+04 -1.249778E-09  1.364870E+04  9.022443E-11
        36   5  4.004004E+05  6.686613E+03  1.008895E+04  4.125030E-12  8.511011E+03  3.090274E-10
        36   6  4.016741E+05  2.341488E+03  5.762104E+03 -1.136109E-09  3.373398E+03  3.199771E-10
        36   7  4.016710E+05  1.853571E+04  1.963503E+04 -1.266671E+04  1.364870E+04 -2.782994E-01
        36   8  4.004005E+05  6.686697E+03  1.008897E+04 -6.712835E+03  8.511011E+03 -9.196958E-02
        36   9  4.016741E+05  2.341490E+03  5.762104E+03 -7.590699E+02  3.373398E+03 -4.121975E-03
        36  10  4.016708E+05  1.853566E+04  1.963468E+04  1.266671E+04 -2.370373E-10  2.796377E-11
        36  11  4.004004E+05  6.686678E+03  1.008883E+04  6.712835E+03  2.426769E-10  8.964021E-11
        36  12  4.016741E+05  2.341486E+03  5.762082E+03  7.590699E+02 -1.376841E-10  1.052009E-10
        36  13  4.016707E+05  1.853536E+04  1.963464E+04 -5.218279E-10 -6.736439E-10  6.408544E-11
        36  14  4.004004E+05  6.686593E+03  1.008882E+04  3.112847E-10  1.215999E-10  1.752841E-10
        36  15  4.016741E+05  2.341485E+03  5.762082E+03 -7.160579E-11 -1.887136E-10  1.284840E-10
        36  16  4.016708E+05  1.853566E+04  1.963468E+04 -1.266671E+04  5.189509E-10  9.075159E-11
        36  17  4.004004E+05  6.686678E+03  1.008883E+04 -6.712835E+03  2.219252E-11  2.671740E-10
        36  18  4.016741E+05  2.341486E+03  5.762082E+03 -7.590699E+02  8.220171E-11  1.590242E-10
        36  19  4.016710E+05  1.853571E+04  1.963503E+04  1.266671E+04 -1.364870E+04 -2.782994E-01
        36  20  4.004005E+05  6.686697E+03  1.008897E+04  6.712835E+03 -8.511011E+03 -9.196959E-02
        36  21  4.016741E+05  2.341490E+03  5.762104E+03  7.590699E+02 -3.373398E+03 -4.121976E-03
        36  22  4.016709E+05  1.853541E+04  1.963499E+04 -1.259186E-09 -1.364870E+04  3.656226E-11
        36  23  4.004004E+05  6.686613E+03  1.008895E+04 -4.639633E-10 -8.511011E+03  4.824733E-11
        36  24  4.016741E+05  2.341488E+03  5.762104E+03 -3.251359E-10 -3.373398E+03 -5.965031E-11
        36  25  4.016710E+05  1.853571E+04  1.963503E+04 -1.266671E+04 -1.364870E+04  2.782994E-01
        36  26  4.004005E+05  6.686697E+03  1.008897E+04 -6.712835E+03 -8.511011E+03  9.196959E-02
        36  27  4.016741E+05  2.341490E+03  5.762104E+03 -7.590699E+02 -3.373398E+03  4.121976E-03
        37   1  4.012046E+05  1.703649E+03  4.550380E+03  1.061636E+03  2.591459E+03  4.428700E-03
        37   2  4.009890E+05  6.049917E+02  3.162267E+03  4.948359E+02  1.010902E+03  8.052426E-04
        37   3  4.012049E+05  4.100913E+02  3.028625E+03 -7.197250E+01 -5.696768E+02  6.600103E-05
        37   4  4.012046E+05  1.703646E+03  4.550380E+03 -1.321120E-09  2.591459E+03  1.658946E-10
        37   5  4.009890E+05  6.049913E+02  3.162267E+03 -9.940119E-10  1.010902E+03 -1.143538E-10
        37   6  4.012049E+05  4.100913E+02  3.028625E+03 -2.419356E-10 -5.696768E+02 -2.162556E-10
        37   7  4.012046E+05  1.703649E+03  4.550380E+03 -1.061636E+03  2.591459E+03 -4.428699E-03
        37   8  4.009890E+05  6.049917E+02  3.162267E+03 -4.948359E+02  1.010902E+03 -8.052428E-04
        37   9  4.012049E+05  4.100913E+02  3.028625E+03  7.197250E+01 -5.696768E+02 -6.600146E-05
        37  10  4.012046E+05  1.703647E+03  4.550368E+03  1.061636E+03 -3.808033E-10  3.360455E-11
        37  11  4.009890E+05  6.049915E+02  3.162265E+03  4.948359E+02  1.028761E-10 -5.236037E-11
        37  12  4.012049E+05  4.100913E+02  3.028625E+03 -7.197250E+01  7.241497E-11  1.057915E-10
        37  13  4.012046E+05  1.703645E+03  4.550367E+03  1.809562E-10 -1.499063E-10  1.073156E-11
        37  14  4.009890E+05  6.049910E+02  3.162265E+03  1.977894E-10  2.169483E-10 -1.088124E-10
        37  15  4.012049E+05  4.100912E+02  3.028625E+03  2.146225E-10  1.729271E-11 -2.259967E-11
        37  16  4.012046E+05  1.703647E+03  4.550368E+03 -1.061636E+03 -3.301448E-10  3.363454E-12
        37  17  4.009890E+05  6.049915E+02  3.162265E+03 -4.948359E+02  5.541618E-10 -1.579673E-10
        37  18  4.012049E+05  4.100913E+02  3.028625E+03  7.197250E+01  5.955079E-10 -1.607425E-10
        37  19  4.012046E+05  1.703649E+03  4.550380E+03  1.061636E+03 -2.591459E+03 -4.428699E-03
        37  20  4.009890E+05  6.049917E+02  3.162267E+03  4.948359E+02 -1.010902E+03 -8.052428E-04
        37  21  4.012049E+05  4.100913E+02  3.028625E+03 -7.197250E+01  5.696768E+02 -6.600082E-05
        37  22  4.012046E+05  1.703646E+03  4.550380E+03 -1.914550E-10 -2.591459E+03 -1.465913E-10
        37  23  4.009890E+05  6.049913E+02  3.162267E+03  4.631292E-11 -1.010902E+03 -1.074492E-10
        37  24  4.012049E+05  4.100913E+02  3.028625E+03 -5.027406E-10  5.696768E+02  1.705545E-10
        37  25  4.012046E+05  1.703649E+03  4.550380E+03 -1.061636E+03 -2.591459E+03  4.428699E-03
        37  26  4.009890E+05  6.049917E+02  3.162267E+03 -4.948359E+02 -1.010902E+03  8.052425E-04
        37  27  4.012049E+05  4.100913E+02  3.028625E+03  7.197250E+01  5.696768E+02  6.600115E-05
        38   1  4.012681E+05  4.620435E+02  3.333384E+03  7.421119E+01 -1.103195E+03 -1.317887E-04
        38   2  4.009096E+05  1.150150E+03  4.846630E+03 -9.887817E+02 -3.530096E+03  5.618798E-03
        38   3  4.012673E+05  3.439934E+03  8.339580E+03 -2.051774E+03 -5.957002E+03  1.967495E-02
        38   4  4.012681E+05  4.620435E+02  3.333384E+03 -8.930779E-10 -1.103195E+03 -1.813571E-10
        38   5  4.009096E+05  1.150148E+03  4.846629E+03  1.282880E-10 -3.530096E+03 -1.339428E-10
        38   6  4.012673E+05  3.439926E+03  8.339579E+03 -8.405416E-10 -5.957002E+03 -1.231504E-10
        38   7  4.012681E+05  4.620435E+02  3.333384E+03 -7.421119E+01 -1.103195E+03  1.317883E-04
        38   8  4.009096E+05  1.150150E+03  4.846630E+03  9.887817E+02 -3.530096E+03 -5.618798E-03
        38   9  4.012673E+05  3.439934E+03  8.339580E+03  2.051774E+03 -5.957002E+03 -1.967495E-02
        38  10  4.012681E+05  4.620432E+02  3.333381E+03  7.421119E+01  2.889558E-10  1.704556E-10
        38  11  4.009096E+05  1.150147E+03  4.846606E+03 -9.887817E+02  9.402453E-11  7.887856E-11
        38  12  4.012673E+05  3.439924E+03  8.339514E+03 -2.051774E+03 -1.259917E-10  9.489728E-11
        38  13  4.012681E+05  4.620432E+02  3.333381E+03 -5.891599E-11  2.819126E-10  4.899657E-11
        38  14  4.009096E+05  1.150145E+03  4.846606E+03  2.099807E-11 -6.242263E-11  6.849147E-11
        38  15  4.012673E+05  3.439916E+03  8.339512E+03 -4.502861E-10 -6.258270E-11  8.586557E-11
        38  16  4.012681E+05  4.620432E+02  3.333381E+03 -7.421119E+01  1.226703E-10 -6.346767E-11
        38  17  4.009096E+05  1.150147E+03  4.846606E+03  9.887817E+02  1.058372E-10  6.104165E-11
        38  18  4.012673E+05  3.439924E+03  8.339514E+03  2.051774E+03  2.633565E-10  7.512823E-11
        38  19  4.012681E+05  4.620435E+02  3.333384E+03  7.421119E+01  1.103195E+03  1.317890E-04
        38  20  4.009096E+05  1.150150E+03  4.846630E+03 -9.887817E+02  3.530096E+03 -5.618798E-03
        38  21  4.012673E+05  3.439934E+03  8.339580E+03 -2.051774E+03  5.957002E+03 -1.967495E-02
        38  22  4.012681E+05  4.620435E+02  3.333384E+03 -1.102397E-09  1.103195E+03  2.777595E-10
        38  23  4.009096E+05  1.150148E+03  4.846629E+03 -2.325068E-10  3.530096E+03  2.735373E-10
        38  24  4.012673E+05  3.439926E+03  8.339579E+03 -9.520387E-10  5.957002E+03  2.954294E-10
        38  25  4.012681E+05  4.620435E+02  3.333384E+03 -7.421119E+01  1.103195E+03 -1.317884E-04
        38  26  4.009096E+05  1.150150E+03  4.846630E+03  9.887817E+02  3.530096E+03  5.618798E-03
        38  27  4.012673E+05  3.439934E+03  8.339580E+03  2.051774E+03  5.957002E+03  1.967495E-02
        39   1  4.022448E+05  4.730834E+03  1.101611E+04 -1.469332E+03 -7.406278E+03  1.751765E-02
        39   2  3.996845E+05  1.351313E+04  2.008411E+04 -1.349754E+04 -1.763773E+04  3.832262E-01
        39   3  4.022389E+05  3.743002E+04  3.959409E+04 -2.552566E+04 -2.786905E+04  1.145135E+00
        39   4  4.022448E+05  4.730830E+03  1.101611E+04 -8.372100E-10 -7.406278E+03 -1.995208E-10
        39   5  3.996843E+05  1.351279E+04  2.008406E+04 -6.867978E-10 -1.763773E+04 -2.763022E-10
        39   6  4.022382E+05  3.742880E+04  3.959392E+04 -4.701260E-10 -2.786905E+04 -8.912705E-11
        39   7  4.022448E+05  4.730834E+03  1.101611E+04  1.469332E+03 -7.406278E+03 -1.751765E-02
        39   8  3.996845E+05  1.351313E+04  2.008411E+04  1.349754E+04 -1.763773E+04 -3.832262E-01
        39   9  4.022389E+05  3.743002E+04  3.959409E+04  2.552566E+04 -2.786905E+04 -1.145135E+00
        39  10  4.022448E+05  4.730819E+03  1.101601E+04 -1.469332E+03  1.332203E-10  5.335990E-11
        39  11  3.996841E+05  1.351305E+04  2.008352E+04 -1.349754E+04 -3.109928E-10 -9.561872E-11
        39  12  4.022380E+05  3.742981E+04  3.959263E+04 -2.552566E+04 -4.137335E-10 -5.264641E-11
        39  13  4.022448E+05  4.730815E+03  1.101601E+04 -6.436948E-10 -2.101267E-12  2.712409E-11
        39  14  3.996839E+05  1.351270E+04  2.008348E+04 -5.258667E-10  1.346449E-10 -9.159635E-11
        39  15  4.022373E+05  3.742859E+04  3.959246E+04  4.040353E-10 -4.445652E-10 -4.406676E-11
        39  16  4.022448E+05  4.730819E+03  1.101601E+04  1.469332E+03 -2.147449E-10  6.404657E-12
        39  17  3.996841E+05  1.351305E+04  2.008352E+04  1.349754E+04  2.718099E-10 -1.075894E-10
        39  18  4.022380E+05  3.742981E+04  3.959263E+04  2.552566E+04  8.743407E-10 -2.967655E-11
        39  19  4.022448E+05  4.730834E+03  1.101611E+04 -1.469332E+03  7.406278E+03 -1.751765E-02
        39  20  3.996845E+05  1.351313E+04  2.008411E+04 -1.349754E+04  1.763773E+04 -3.832262E-01
        39  21  4.022389E+05  3.743002E+04  3.959409E+04 -2.552566E+04  2.786905E+04 -1.145135E+00
        39  22  4.022448E+05  4.730830E+03  1.101611E+04 -5.911329E-10  7.406278E+03  2.520877E-10
        39  23  3.996843E+05  1.351279E+04  2.008406E+04 -9.038232E-11  1.763773E+04  9.517426E-11
        39  24  4.022382E+05  3.742880E+04  3.959392E+04 -1.460971E-10  2.786905E+04  9.702398E-13
        39  25  4.022448E+05  4.730834E+03  1.101611E+04  1.469332E+03  7.406278E+03  1.751765E-02
        39  26  3.996845E+05  1.351313E+04  2.008411E+04  1.349754E+04  1.763773E+04  3.832262E-01
        39  27  4.022389E+05  3.743002E+04  3.959409E+04  2.552566E+04  2.786905E+04  1.145135E+00
        40   1 -2.066967E+05 -5.918048E+05 -2.030250E+05  1.905502E+05 -6.159025E+03 -9.485032E+04
        40   2 -1.334217E+05 -4.796579E+05 -1.211671E+05  1.612958E+05 -1.963768E+04 -4.833160E+04
        40   3 -9.188165E+04 -3.814884E+05 -7.754389E+04  1.479745E+05 -2.139261E+04 -1.802121E+03
        40   4 -6.604734E+04 -2.166481E+04 -7.001965E+04  1.455587E+05 -6.139861E+03 -4.844724E+04
        40   5 -2.389489E+04 -1.709975E+04 -3.615229E+04  1.375826E+05 -1.962892E+04 -3.003349E+04
        40   6 -8.582467E+03 -2.163192E+04 -2.098186E+04  1.455432E+05 -2.139510E+04 -1.161858E+04
        40   7  7.458775E+04  5.487842E+05  6.297290E+04  1.005255E+05 -6.127442E+03 -2.001781E+03
        40   8  8.562209E+04  4.456681E+05  4.885527E+04  1.138512E+05 -1.962156E+04 -1.172209E+04
        40   9  7.471040E+04  3.383539E+05  3.557737E+04  1.431103E+05 -2.139751E+04 -2.144051E+04
        40  10 -2.066991E+05 -5.918145E+05 -2.030420E+05  1.905497E+05 -1.593485E-10 -1.001269E-10
        40  11 -1.334228E+05 -4.796605E+05 -1.211722E+05  1.612950E+05 -9.234204E-10  1.690983E-10
        40  12 -9.188214E+04 -3.814885E+05 -7.754476E+04  1.479745E+05  2.097777E-10  1.109820E-10
        40  13 -6.604801E+04 -2.166735E+04 -7.002413E+04  1.455584E+05 -2.369682E-11 -2.076929E-12
        40  14 -2.389555E+04 -1.710083E+04 -3.615470E+04  1.375821E+05  2.279691E-10  2.103681E-12
        40  15 -8.582994E+03 -2.163219E+04 -2.098298E+04  1.455430E+05 -1.309484E-10  4.183954E-11
        40  16  7.458771E+04  5.487842E+05  6.297283E+04  1.005255E+05  1.241290E-10  1.174256E-10
        40  17  8.562164E+04  4.456678E+05  4.885429E+04  1.138510E+05  6.338165E-10 -7.791465E-11
        40  18  7.470978E+04  3.383533E+05  3.557564E+04  1.431099E+05  2.240057E-10 -3.025278E-10
        40  19 -2.066967E+05 -5.918048E+05 -2.030250E+05  1.905502E+05  6.159025E+03  9.485032E+04
        40  20 -1.334217E+05 -4.796579E+05 -1.211671E+05  1.612958E+05  1.963768E+04  4.833160E+04
        40  21 -9.188165E+04 -3.814884E+05 -7.754389E+04  1.479745E+05  2.139261E+04  1.802121E+03
        40  22 -6.604734E+04 -2.166481E+04 -7.001965E+04  1.455587E+05  6.139861E+03  4.844724E+04
        40  23 -2.389489E+04 -1.709975E+04 -3.615229E+04  1.375826E+05  1.962892E+04  3.003349E+04
        40  24 -8.582467E+03 -2.163192E+04 -2.098186E+04  1.455432E+05  2.139510E+04  1.161858E+04
        40  25  7.458775E+04  5.487842E+05  6.297290E+04  1.005255E+05  6.127442E+03  2.001781E+03
        40  26  8.562209E+04  4.456681E+05  4.885527E+04  1.138512E+05  1.962156E+04  1.172209E+04
        40  27  7.471040E+04  3.383539E+05  3.557737E+04  1.431103E+05  2.139751E+04  2.144051E+04
        41   1 -7.419962E+04 -3.142060E+05 -6.157367E+04  1.492906E+05 -1.844867E+04  1.941861E+03
        41   2 -4.623240E+04 -2.079442E+05 -3.863872E+04  1.378957E+05 -1.348442E+04  1.059607E+04
        41   3 -2.312521E+04 -1.040172E+05 -2.255621E+04  1.432795E+05 -7.520727E+03  1.925094E+04
        41   4 -6.409631E+03 -2.003124E+04 -1.684201E+04  1.457302E+05 -1.845211E+04 -8.763169E+03
        41   5 -3.220697E+03 -1.906015E+04 -1.248747E+04  1.373402E+05 -1.348948E+04 -2.505501E+03
        41   6 -4.474247E+03 -2.001775E+04 -1.331945E+04  1.457292E+05 -7.527487E+03  3.751473E+03
        41   7  6.137632E+04  2.742305E+05  2.788826E+04  1.421680E+05 -1.845542E+04 -1.947308E+04
        41   8  3.978953E+04  1.698605E+05  1.366401E+04  1.367846E+05 -1.349451E+04 -1.561088E+04
        41   9  1.417662E+04  6.398956E+04 -4.081710E+03  1.481793E+05 -7.534368E+03 -1.174997E+04
        41  10 -7.419998E+04 -3.142061E+05 -6.157432E+04  1.492906E+05 -5.295021E-11 -5.839090E-10
        41  11 -4.623263E+04 -2.079444E+05 -3.863927E+04  1.378958E+05 -4.511248E-10  3.847767E-10
        41  12 -2.312537E+04 -1.040176E+05 -2.255701E+04  1.432796E+05 -1.996758E-11  7.665444E-10
        41  13 -6.410017E+03 -2.003142E+04 -1.684280E+04  1.457300E+05  2.380609E-10  1.288748E-11
        41  14 -3.220894E+03 -1.906020E+04 -1.248782E+04  1.373402E+05  4.778578E-10 -1.226124E-11
        41  15 -4.474311E+03 -2.001778E+04 -1.331958E+04  1.457292E+05 -2.205349E-10  3.347241E-11
        41  16  6.137585E+04  2.742300E+05  2.788691E+04  1.421677E+05 -1.870538E-10  6.348104E-10
        41  17  3.978927E+04  1.698602E+05  1.366321E+04  1.367844E+05 -1.319114E-10 -2.032454E-10
        41  18  1.417652E+04  6.398940E+04 -4.082076E+03  1.481792E+05  3.503711E-10 -1.104828E-09
        41  19 -7.419962E+04 -3.142060E+05 -6.157367E+04  1.492906E+05  1.844867E+04 -1.941861E+03
        41  20 -4.623240E+04 -2.079442E+05 -3.863872E+04  1.378957E+05  1.348442E+04 -1.059607E+04
        41  21 -2.312521E+04 -1.040172E+05 -2.255621E+04  1.432795E+05  7.520727E+03 -1.925094E+04
        41  22 -6.409631E+03 -2.003124E+04 -1.684201E+04  1.457302E+05  1.845211E+04  8.763169E+03
        41  23 -3.220697E+03 -1.906015E+04 -1.248747E+04  1.373402E+05  1.348948E+04  2.505501E+03
        41  24 -4.474247E+03 -2.001775E+04 -1.331945E+04  1.457292E+05  7.527487E+03 -3.751473E+03
        41  25  6.137632E+04  2.742305E+05  2.788826E+04  1.421680E+05  1.845542E+04  1.947308E+04
        41  26  3.978953E+04  1.698605E+05  1.366401E+04  1.367846E+05  1.349451E+04  1.561088E+04
        41  27  1.417662E+04  6.398956E+04 -4.081710E+03  1.481793E+05  7.534368E+03  1.174997E+04
        42   1 -9.348145E+03 -3.968424E+04 -1.446316E+04  1.440745E+05 -3.567980E+03  2.122545E+04
        42   2  5.616782E+03  6.757971E+04 -3.998481E+03  1.219118E+05  7.007513E+02  2.352145E+04
        42   3  4.738172E+03  1.705901E+05  1.008967E+03  1.163159E+05  7.758136E+02  2.581826E+04
        42   4 -5.774277E+03 -2.092403E+04 -1.536325E+04  1.456822E+05 -3.574815E+03  5.948588E+03
        42   5 -1.552707E+04 -1.792079E+04 -2.429197E+04  1.374038E+05  6.990794E+02  1.830775E+04
        42   6 -4.287218E+04 -2.093043E+04 -4.566753E+04  1.456945E+05  7.791411E+02  3.066715E+04
        42   7 -2.200270E+03 -2.162891E+03 -1.626240E+04  1.472899E+05 -3.581729E+03 -9.328678E+03
        42   8 -3.667053E+04 -1.034140E+05 -4.458573E+04  1.528936E+05  6.971471E+02  1.309476E+04
        42   9 -9.048197E+04 -2.124156E+05 -9.234613E+04  1.750640E+05  7.829282E+02  3.551454E+04
        42  10 -9.348280E+03 -3.968473E+04 -1.446403E+04  1.440746E+05  1.541294E-10 -1.355178E-09
        42  11  5.616633E+03  6.757911E+04 -3.999521E+03  1.219118E+05 -1.752965E-10 -9.747172E-11
        42  12  4.737992E+03  1.705894E+05  1.007713E+03  1.163159E+05 -1.250822E-10  7.326709E-10
        42  13 -5.774300E+03 -2.092407E+04 -1.536334E+04  1.456822E+05  2.987479E-10 -1.920610E-11
        42  14 -1.552716E+04 -1.792115E+04 -2.429260E+04  1.374038E+05 -5.322785E-10 -2.353482E-11
        42  15 -4.287243E+04 -2.093144E+04 -4.566929E+04  1.456945E+05  1.807923E-10  4.850306E-11
        42  16 -2.200307E+03 -2.162988E+03 -1.626259E+04  1.472899E+05 -3.637789E-10  1.415968E-09
        42  17 -3.667057E+04 -1.034142E+05 -4.458605E+04  1.528936E+05 -2.469565E-10  2.681875E-10
        42  18 -9.048230E+04 -2.124169E+05 -9.234850E+04  1.750640E+05 -6.200764E-10 -9.942186E-10
        42  19 -9.348145E+03 -3.968424E+04 -1.446316E+04  1.440745E+05  3.567980E+03 -2.122545E+04
        42  20  5.616782E+03  6.757971E+04 -3.998481E+03  1.219118E+05 -7.007513E+02 -2.352145E+04
        42  21  4.738172E+03  1.705901E+05  1.008967E+03  1.163159E+05 -7.758136E+02 -2.581826E+04
        42  22 -5.774277E+03 -2.092403E+04 -1.536325E+04  1.456822E+05  3.574815E+03 -5.948588E+03
        42  23 -1.552707E+04 -1.792079E+04 -2.429197E+04  1.374038E+05 -6.990794E+02 -1.830775E+04
        42  24 -4.287218E+04 -2.093043E+04 -4.566753E+04  1.456945E+05 -7.791411E+02 -3.066715E+04
        42  25 -2.200270E+03 -2.162891E+03 -1.626240E+04  1.472899E+05  3.581729E+03  9.328678E+03
        42  26 -3.667053E+04 -1.034140E+05 -4.458573E+04  1.528936E+05 -6.971471E+02 -1.309476E+04
        42  27 -9.048197E+04 -2.124156E+05 -9.234613E+04  1.750640E+05 -7.829282E+02 -3.551454E+04
        43   1  2.689679E+05  1.079451E+04  1.144104E+04  7.381648E+03  7.912861E+03  9.404424E-02
        43   2  2.682263E+05  3.892610E+03  5.907808E+03  3.915322E+03  4.904967E+03  3.092068E-02
        43   3  2.689691E+05  1.363110E+03  3.425378E+03  4.489543E+02  1.897029E+03  1.371264E-03
        43   4  2.689679E+05  1.079440E+04  1.144103E+04 -8.956739E-10  7.912861E+03  3.113521E-11
        43   5  2.682263E+05  3.892581E+03  5.907803E+03 -1.935817E-10  4.904967E+03  4.968694E-11
        43   6  2.689691E+05  1.363109E+03  3.425378E+03 -9.635534E-10  1.897029E+03 -1.081431E-10
        43   7  2.689679E+05  1.079451E+04  1.144104E+04 -7.381648E+03  7.912861E+03 -9.404424E-02
        43   8  2.682263E+05  3.892610E+03  5.907808E+03 -3.915322E+03  4.904967E+03 -3.092068E-02
        43   9  2.689691E+05  1.363110E+03  3.425378E+03 -4.489543E+02  1.897029E+03 -1.371264E-03
        43  10  2.689679E+05  1.079449E+04  1.144092E+04  7.381648E+03  3.629546E-11 -2.759507E-11
        43  11  2.682263E+05  3.892603E+03  5.907762E+03  3.915322E+03 -1.004934E-10 -6.431094E-11
        43  12  2.689691E+05  1.363109E+03  3.425371E+03  4.489543E+02 -2.418394E-10  3.264906E-11
        43  13  2.689678E+05  1.079439E+04  1.144091E+04 -2.756135E-10  1.004305E-10 -1.663424E-11
        43  14  2.682262E+05  3.892574E+03  5.907758E+03 -1.430951E-10  6.347702E-10 -5.152963E-11
        43  15  2.689691E+05  1.363108E+03  3.425371E+03  8.729741E-10 -2.681320E-10 -4.558399E-11
        43  16  2.689679E+05  1.079449E+04  1.144092E+04 -7.381648E+03 -1.291330E-10 -6.093725E-12
        43  17  2.682263E+05  3.892603E+03  5.907762E+03 -3.915322E+03 -1.301772E-10 -3.862387E-11
        43  18  2.689691E+05  1.363109E+03  3.425371E+03 -4.489543E+02  4.814135E-10 -1.180515E-10
        43  19  2.689679E+05  1.079451E+04  1.144104E+04  7.381648E+03 -7.912861E+03 -9.404424E-02
        43  20  2.682263E+05  3.892610E+03  5.907808E+03  3.915322E+03 -4.904967E+03 -3.092068E-02
        43  21  2.689691E+05  1.363110E+03  3.425378E+03  4.489543E+02 -1.897029E+03 -1.371264E-03
        43  22  2.689679E+05  1.079440E+04  1.144103E+04 -1.274877E-09 -7.912861E+03 -6.616969E-11
        43  23  2.682263E+05  3.892581E+03  5.907803E+03 -2.914064E-10 -4.904967E+03 -1.440698E-10
        43  24  2.689691E+05  1.363109E+03  3.425378E+03 -3.745139E-10 -1.897029E+03  1.874120E-11
        43  25  2.689679E+05  1.079451E+04  1.144104E+04 -7.381648E+03 -7.912861E+03  9.404424E-02
        43  26  2.682263E+05  3.892610E+03  5.907808E+03 -3.915322E+03 -4.904967E+03  3.092068E-02
        43  27  2.689691E+05  1.363110E+03  3.425378E+03 -4.489543E+02 -1.897029E+03  1.371264E-03
        44   1  2.686990E+05  9.920643E+02  2.745695E+03  6.285121E+02  1.427162E+03  1.444215E-03
        44   2  2.685646E+05  3.603306E+02  2.015260E+03  2.892867E+02  4.204376E+02  1.958279E-04
        44   3  2.686991E+05  2.801162E+02  2.077918E+03 -4.993859E+01 -5.862865E+02  4.714002E-05
        44   4  2.686990E+05  9.920636E+02  2.745695E+03 -4.196740E-10  1.427162E+03 -2.047086E-10
        44   5  2.685646E+05  3.603305E+02  2.015260E+03  9.372085E-10  4.204376E+02 -2.274125E-10
        44   6  2.686991E+05  2.801162E+02  2.077918E+03 -1.188441E-10 -5.862865E+02 -1.507574E-10
        44   7  2.686990E+05  9.920643E+02  2.745695E+03 -6.285121E+02  1.427162E+03 -1.444215E-03
        44   8  2.685646E+05  3.603306E+02  2.015260E+03 -2.892867E+02  4.204376E+02 -1.958283E-04
        44   9  2.686991E+05  2.801162E+02  2.077918E+03  4.993859E+01 -5.862865E+02 -4.714032E-05
        44  10  2.686990E+05  9.920638E+02  2.745691E+03  6.285121E+02 -5.687752E-11 -1.328784E-11
        44  11  2.685646E+05  3.603306E+02  2.015259E+03  2.892867E+02  1.336434E-10 -1.788091E-10
        44  12  2.686991E+05  2.801161E+02  2.077917E+03 -4.993859E+01 -3.984501E-10 -4.515061E-11
        44  13  2.686990E+05  9.920631E+02  2.745691E+03  4.922590E-10  3.661550E-10 -8.694468E-11
        44  14  2.685646E+05  3.603304E+02  2.015259E+03  6.837154E-10  4.188036E-10 -1.520618E-10
        44  15  2.686991E+05  2.801161E+02  2.077917E+03  3.303152E-10 -4.250575E-10 -5.076012E-11
        44  16  2.686990E+05  9.920638E+02  2.745691E+03 -6.285121E+02  1.474844E-11 -1.564365E-10
        44  17  2.685646E+05  3.603306E+02  2.015259E+03 -2.892867E+02  2.136341E-10 -1.291215E-10
        44  18  2.686991E+05  2.801161E+02  2.077917E+03  4.993859E+01  4.541714E-10 -5.404163E-11
        44  19  2.686990E+05  9.920643E+02  2.745695E+03  6.285121E+02 -1.427162E+03 -1.444215E-03
        44  20  2.685646E+05  3.603306E+02  2.015260E+03  2.892867E+02 -4.204376E+02 -1.958282E-04
        44  21  2.686991E+05  2.801162E+02  2.077918E+03 -4.993859E+01  5.862865E+02 -4.714013E-05
        44  22  2.686990E+05  9.920636E+02  2.745695E+03 -4.680929E-10 -1.427162E+03  3.167750E-11
        44  23  2.685646E+05  3.603305E+02  2.015260E+03  8.393909E-10 -4.204376E+02 -7.545410E-11
        44  24  2.686991E+05  2.801162E+02  2.077918E+03 -2.965616E-10  5.862865E+02  4.919776E-11
        44  25  2.686990E+05  9.920643E+02  2.745695E+03 -6.285121E+02 -1.427162E+03  1.444215E-03
        44  26  2.685646E+05  3.603306E+02  2.015260E+03 -2.892867E+02 -4.204376E+02  1.958281E-04
        44  27  2.686991E+05  2.801162E+02  2.077918E+03  4.993859E+01  5.862865E+02  4.714022E-05
        45   1  2.687575E+05  3.280825E+02  2.359355E+03  5.204449E+01 -9.583493E+02 -8.030526E-05
        45   2  2.684914E+05  8.637358E+02  3.570755E+03 -7.453587E+02 -2.746624E+03  3.296171E-03
        45   3  2.687571E+05  2.595475E+03  6.245062E+03 -1.542750E+03 -4.534875E+03  1.126434E-02
        45   4  2.687575E+05  3.280825E+02  2.359355E+03 -7.257354E-10 -9.583493E+02 -1.317810E-10
        45   5  2.684914E+05  8.637347E+02  3.570755E+03  4.049828E-10 -2.746624E+03 -1.832106E-10
        45   6  2.687571E+05  2.595470E+03  6.245061E+03  7.048008E-11 -4.534875E+03 -1.801506E-10
        45   7  2.687575E+05  3.280825E+02  2.359355E+03 -5.204449E+01 -9.583493E+02  8.030500E-05
        45   8  2.684914E+05  8.637358E+02  3.570755E+03  7.453587E+02 -2.746624E+03 -3.296171E-03
        45   9  2.687571E+05  2.595475E+03  6.245062E+03  1.542750E+03 -4.534875E+03 -1.126434E-02
        45  10  2.687575E+05  3.280822E+02  2.359353E+03  5.204449E+01  2.884242E-10 -1.626887E-11
        45  11  2.684914E+05  8.637337E+02  3.570741E+03 -7.453587E+02 -1.024801E-11 -1.633437E-10
        45  12  2.687570E+05  2.595469E+03  6.245023E+03 -1.542750E+03  2.646639E-10 -2.446313E-10
        45  13  2.687575E+05  3.280822E+02  2.359353E+03 -3.870628E-10  1.767736E-10 -5.502254E-11
        45  14  2.684914E+05  8.637327E+02  3.570740E+03  1.472742E-10  2.650655E-10 -1.811093E-10
        45  15  2.687570E+05  2.595465E+03  6.245023E+03 -3.197449E-10 -2.228636E-10 -1.613706E-10
        45  16  2.687575E+05  3.280822E+02  2.359353E+03 -5.204449E+01 -3.072643E-10 -9.899186E-11
        45  17  2.684914E+05  8.637337E+02  3.570741E+03  7.453587E+02 -4.386854E-10 -1.959593E-10
        45  18  2.687570E+05  2.595469E+03  6.245023E+03  1.542750E+03 -5.865134E-10 -7.044707E-11
        45  19  2.687575E+05  3.280825E+02  2.359355E+03  5.204449E+01  9.583493E+02  8.030523E-05
        45  20  2.684914E+05  8.637358E+02  3.570755E+03 -7.453587E+02  2.746624E+03 -3.296171E-03
        45  21  2.687571E+05  2.595475E+03  6.245062E+03 -1.542750E+03  4.534875E+03 -1.126434E-02
        45  22  2.687575E+05  3.280825E+02  2.359355E+03 -1.423155E-09  9.583493E+02  1.841418E-11
        45  23  2.684914E+05  8.637347E+02  3.570755E+03  9.152002E-11  2.746624E+03 -1.800081E-10
        45  24  2.687571E+05  2.595470E+03  6.245061E+03 -1.335817E-09  4.534875E+03 -1.408532E-10
        45  25  2.687575E+05  3.280825E+02  2.359355E+03 -5.204449E+01  9.583493E+02 -8.030518E-05
        45  26  2.684914E+05  8.637358E+02  3.570755E+03  7.453587E+02  2.746624E+03  3.296171E-03
        45  27  2.687571E+05  2.595475E+03  6.245062E+03  1.542750E+03  4.534875E+03  1.126434E-02
        46   1  2.694964E+05  3.569612E+03  8.277580E+03 -1.104758E+03 -5.621120E+03  9.998493E-03
        46   2  2.675656E+05  1.019710E+04  1.513883E+04 -1.018067E+04 -1.333311E+04  2.185518E-01
        46   3  2.694934E+05  2.824461E+04  2.987448E+04 -1.925678E+04 -2.104523E+04  6.525043E-01
        46   4  2.694964E+05  3.569609E+03  8.277579E+03 -3.607783E-10 -5.621120E+03 -7.423733E-11
        46   5  2.675655E+05  1.019691E+04  1.513881E+04 -5.253840E-12 -1.333311E+04  9.596108E-11
        46   6  2.694930E+05  2.824391E+04  2.987438E+04 -4.722773E-10 -2.104523E+04  6.513647E-11
        46   7  2.694964E+05  3.569612E+03  8.277580E+03  1.104758E+03 -5.621120E+03 -9.998493E-03
        46   8  2.675656E+05  1.019710E+04  1.513883E+04  1.018067E+04 -1.333311E+04 -2.185518E-01
        46   9  2.694934E+05  2.824461E+04  2.987448E+04  1.925678E+04 -2.104523E+04 -6.525043E-01
        46  10  2.694963E+05  3.569603E+03  8.277520E+03 -1.104758E+03  3.908959E-10 -1.339930E-10
        46  11  2.675654E+05  1.019706E+04  1.513850E+04 -1.018067E+04  4.491614E-10  1.221894E-10
        46  12  2.694929E+05  2.824449E+04  2.987365E+04 -1.925678E+04  6.182275E-11  8.598947E-11
        46  13  2.694963E+05  3.569601E+03  8.277520E+03 -2.376850E-10  5.385483E-10 -4.777636E-11
        46  14  2.675653E+05  1.019686E+04  1.513847E+04  1.136114E-10 -4.743119E-11  9.884017E-11
        46  15  2.694925E+05  2.824380E+04  2.987355E+04 -2.040672E-10  4.391089E-10  5.067828E-11
        46  16  2.694963E+05  3.569603E+03  8.277520E+03  1.104758E+03 -2.666788E-10  3.595693E-11
        46  17  2.675654E+05  1.019706E+04  1.513850E+04  1.018067E+04 -6.113428E-10  7.788965E-11
        46  18  2.694929E+05  2.824449E+04  2.987365E+04  1.925678E+04 -5.563915E-10  3.823645E-11
        46  19  2.694964E+05  3.569612E+03  8.277580E+03 -1.104758E+03  5.621120E+03 -9.998493E-03
        46  20  2.675656E+05  1.019710E+04  1.513883E+04 -1.018067E+04  1.333311E+04 -2.185518E-01
        46  21  2.694934E+05  2.824461E+04  2.987448E+04 -1.925678E+04  2.104523E+04 -6.525043E-01
        46  22  2.694964E+05  3.569609E+03  8.277579E+03 -2.003708E-09  5.621120E+03 -2.395823E-11
        46  23  2.675655E+05  1.019691E+04  1.513881E+04 -1.179103E-09  1.333311E+04  9.831700E-11
        46  24  2.694930E+05  2.824391E+04  2.987438E+04 -1.027686E-09  2.104523E+04  3.432172E-11
        46  25  2.694964E+05  3.569612E+03  8.277580E+03  1.104758E+03  5.621120E+03  9.998493E-03
        46  26  2.675656E+05  1.019710E+04  1.513883E+04  1.018067E+04  1.333311E+04  2.185518E-01
        46  27  2.694934E+05  2.824461E+04  2.987448E+04  1.925678E+04  2.104523E+04  6.525043E-01
        47   1 -1.799206E+05 -5.606237E+05 -1.757232E+05  1.688847E+05 -5.745449E+03 -7.889686E+04
        47   2 -1.198653E+05 -4.569027E+05 -1.060826E+05  1.457795E+05 -1.833689E+04 -3.905604E+04
        47   3 -8.414475E+04 -3.644406E+05 -6.847657E+04  1.375376E+05 -1.998338E+04  7.933742E+02
        47   4 -4.860723E+04 -2.834322E+04 -5.155303E+04  1.357732E+05 -5.730538E+03 -3.555732E+04
        47   5 -1.758964E+04 -2.497699E+04 -2.670321E+04  1.283350E+05 -1.832977E+04 -2.195702E+04
        47   6 -6.339510E+03 -2.831456E+04 -1.564907E+04  1.357625E+05 -1.998555E+04 -8.355776E+03
        47   7  8.269123E+04  5.042051E+05  7.260561E+04  1.026331E+05 -5.720263E+03  7.819163E+03
        47   8  8.467668E+04  4.071312E+05  5.266976E+04  1.108781E+05 -1.832361E+04 -4.846413E+03
        47   9  7.146021E+04  3.079243E+05  3.717599E+04  1.339865E+05 -1.998767E+04 -1.750970E+04
        47  10 -1.799223E+05 -5.606304E+05 -1.757350E+05  1.688843E+05 -2.712402E-10 -1.211509E-11
        47  11 -1.198660E+05 -4.569045E+05 -1.060861E+05  1.457789E+05 -8.661597E-10  1.240498E-12
        47  12 -8.414518E+04 -3.644407E+05 -6.847732E+04  1.375376E+05  4.386802E-10  1.347521E-11
        47  13 -4.860760E+04 -2.834458E+04 -5.155547E+04  1.357730E+05 -6.404485E-13 -6.310301E-12
        47  14 -1.759013E+04 -2.497760E+04 -2.670475E+04  1.283347E+05  4.173713E-10 -8.117874E-11
        47  15 -6.339958E+03 -2.831474E+04 -1.564995E+04  1.357624E+05  2.085333E-10 -1.409924E-11
        47  16  8.269118E+04  5.042051E+05  7.260544E+04  1.026331E+05  1.402717E-10  2.613720E-11
        47  17  8.467631E+04  4.071311E+05  5.266908E+04  1.108780E+05  7.602343E-10 -2.139396E-11
        47  18  7.145970E+04  3.079239E+05  3.717466E+04  1.339862E+05 -7.027033E-13 -1.478872E-10
        47  19 -1.799206E+05 -5.606237E+05 -1.757232E+05  1.688847E+05  5.745449E+03  7.889686E+04
        47  20 -1.198653E+05 -4.569027E+05 -1.060826E+05  1.457795E+05  1.833689E+04  3.905604E+04
        47  21 -8.414475E+04 -3.644406E+05 -6.847657E+04  1.375376E+05  1.998338E+04 -7.933742E+02
        47  22 -4.860723E+04 -2.834322E+04 -5.155303E+04  1.357732E+05  5.730538E+03  3.555732E+04
        47  23 -1.758964E+04 -2.497699E+04 -2.670321E+04  1.283350E+05  1.832977E+04  2.195702E+04
        47  24 -6.339510E+03 -2.831456E+04 -1.564907E+04  1.357625E+05  1.998555E+04  8.355776E+03
        47  25  8.269123E+04  5.042051E+05  7.260561E+04  1.026331E+05  5.720263E+03 -7.819163E+03
        47  26  8.467668E+04  4.071312E+05  5.266976E+04  1.108781E+05  1.832361E+04  4.846413E+03
        47  27  7.146021E+04  3.079243E+05  3.717599E+04  1.339865E+05  1.998767E+04  1.750970E+04
        48   1 -6.808904E+04 -3.020072E+05 -5.447008E+04  1.385559E+05 -1.723877E+04  3.765921E+03
        48   2 -4.272200E+04 -2.030329E+05 -3.417118E+04  1.283940E+05 -1.260989E+04  1.087587E+04
        48   3 -2.120066E+04 -1.059393E+05 -1.946518E+04  1.338837E+05 -7.046373E+03  1.798624E+04
        48   4 -4.751181E+03 -2.715158E+04 -1.268011E+04  1.359371E+05 -1.724177E+04 -6.213520E+03
        48   5 -2.498701E+03 -2.639537E+04 -9.715284E+03  1.281110E+05 -1.261429E+04 -1.345161E+03
        48   6 -3.701614E+03 -2.713980E+04 -1.078553E+04  1.359365E+05 -7.052267E+03  3.522588E+03
        48   7  5.858314E+04  2.477800E+05  2.910865E+04  1.333171E+05 -1.724468E+04 -1.619721E+04
        48   8  3.772331E+04  1.502741E+05  1.474081E+04  1.278279E+05 -1.261868E+04 -1.356951E+04
        48   9  1.379734E+04  5.166669E+04 -2.105032E+03  1.379897E+05 -7.058257E+03 -1.094280E+04
        48  10 -6.808937E+04 -3.020073E+05 -5.447066E+04  1.385559E+05  7.002292E-11 -2.745558E-10
        48  11 -4.272221E+04 -2.030330E+05 -3.417170E+04  1.283941E+05 -5.020064E-10 -2.785169E-10
        48  12 -2.120080E+04 -1.059397E+05 -1.946589E+04  1.338838E+05 -1.350177E-10 -2.715009E-10
        48  13 -4.751510E+03 -2.715170E+04 -1.268074E+04  1.359370E+05  3.182607E-10  8.980439E-12
        48  14 -2.498872E+03 -2.639542E+04 -9.715586E+03  1.281110E+05 -3.115578E-10 -1.838248E-10
        48  15 -3.701670E+03 -2.713982E+04 -1.078565E+04  1.359366E+05 -2.030264E-10 -2.470763E-11
        48  16  5.858275E+04  2.477797E+05  2.910760E+04  1.333168E+05  2.022625E-10  3.504457E-10
        48  17  3.772309E+04  1.502739E+05  1.474016E+04  1.278278E+05  3.126457E-10  2.254898E-10
        48  18  1.379725E+04  5.166655E+04 -2.105351E+03  1.379896E+05  3.701982E-10  7.372589E-11
        48  19 -6.808904E+04 -3.020072E+05 -5.447008E+04  1.385559E+05  1.723877E+04 -3.765921E+03
        48  20 -4.272200E+04 -2.030329E+05 -3.417118E+04  1.283940E+05  1.260989E+04 -1.087587E+04
        48  21 -2.120066E+04 -1.059393E+05 -1.946518E+04  1.338837E+05  7.046373E+03 -1.798624E+04
        48  22 -4.751181E+03 -2.715158E+04 -1.268011E+04  1.359371E+05  1.724177E+04  6.213520E+03
        48  23 -2.498701E+03 -2.639537E+04 -9.715284E+03  1.281110E+05  1.261429E+04  1.345161E+03
        48  24 -3.701614E+03 -2.713980E+04 -1.078553E+04  1.359365E+05  7.052267E+03 -3.522588E+03
        48  25  5.858314E+04  2.477800E+05  2.910865E+04  1.333171E+05  1.724468E+04  1.619721E+04
        48  26  3.772331E+04  1.502741E+05  1.474081E+04  1.278279E+05  1.261868E+04  1.356951E+04
        48  27  1.379734E+04  5.166669E+04 -2.105032E+03  1.379897E+05  7.058257E+03  1.094280E+04
        49   1 -8.251455E+03 -4.587130E+04 -1.185328E+04  1.345325E+05 -3.358191E+03  1.956754E+04
        49   2  6.551429E+03  5.390785E+04 -1.469687E+03  1.151219E+05  6.304164E+02  2.054340E+04
        49   3  8.182875E+03  1.502722E+05  4.984194E+03  1.111659E+05  7.159804E+02  2.151980E+04
        49   4 -4.816065E+03 -2.792766E+04 -1.262757E+04  1.358928E+05 -3.364150E+03  5.310807E+03
        49   5 -1.307030E+04 -2.540489E+04 -2.032395E+04  1.281695E+05  6.288693E+02  1.565268E+04
        49   6 -3.612320E+04 -2.793328E+04 -3.845528E+04  1.359026E+05  7.186522E+02  2.599476E+04
        49   7 -1.380557E+03 -9.983188E+03 -1.340104E+04  1.372533E+05 -3.370172E+03 -8.946295E+03
        49   8 -3.269183E+04 -1.047114E+05 -3.917848E+04  1.412154E+05  6.271166E+02  1.076258E+04
        49   9 -8.042931E+04 -2.061084E+05 -8.189665E+04  1.606321E+05  7.216811E+02  3.046844E+04
        49  10 -8.251570E+03 -4.587172E+04 -1.185402E+04  1.345325E+05 -2.349808E-10  1.615384E-10
        49  11  6.551315E+03  5.390739E+04 -1.470480E+03  1.151219E+05  2.259339E-10  5.747837E-11
        49  12  8.182750E+03  1.502717E+05  4.983323E+03  1.111659E+05 -2.442229E-11 -1.011940E-10
        49  13 -4.816085E+03 -2.792769E+04 -1.262765E+04  1.358929E+05  2.062816E-10  4.399684E-12
        49  14 -1.307037E+04 -2.540515E+04 -2.032441E+04  1.281694E+05  1.393708E-10 -2.322247E-10
        49  15 -3.612339E+04 -2.793401E+04 -3.845655E+04  1.359026E+05 -1.598237E-10 -2.438126E-11
        49  16 -1.380591E+03 -9.983277E+03 -1.340122E+04  1.372532E+05  8.277826E-11 -4.130518E-11
        49  17 -3.269186E+04 -1.047116E+05 -3.917869E+04  1.412154E+05 -1.843591E-10 -1.137515E-10
        49  18 -8.042956E+04 -2.061094E+05 -8.189840E+04  1.606321E+05 -8.016238E-11 -9.140999E-11
        49  19 -8.251455E+03 -4.587130E+04 -1.185328E+04  1.345325E+05  3.358191E+03 -1.956754E+04
        49  20  6.551429E+03  5.390785E+04 -1.469687E+03  1.151219E+05 -6.304164E+02 -2.054340E+04
        49  21  8.182875E+03  1.502722E+05  4.984194E+03  1.111659E+05 -7.159804E+02 -2.151980E+04
        49  22 -4.816065E+03 -2.792766E+04 -1.262757E+04  1.358928E+05  3.364150E+03 -5.310807E+03
        49  23 -1.307030E+04 -2.540489E+04 -2.032395E+04  1.281695E+05 -6.288693E+02 -1.565268E+04
        49  24 -3.612320E+04 -2.793328E+04 -3.845528E+04  1.359026E+05 -7.186522E+02 -2.599476E+04
        49  25 -1.380557E+03 -9.983188E+03 -1.340104E+04  1.372533E+05  3.370172E+03  8.946295E+03
        49  26 -3.269183E+04 -1.047114E+05 -3.917848E+04  1.412154E+05 -6.271166E+02 -1.076258E+04
        49  27 -8.042931E+04 -2.061084E+05 -8.189665E+04  1.606321E+05 -7.216811E+02 -3.046844E+04
        50   1  1.239541E+05 -8.455845E+02 -8.926768E+02 -5.748697E+02 -6.393579E+02  5.919095E-04
        50   2  1.240115E+05 -3.055815E+02 -4.444316E+02 -3.029995E+02 -4.128312E+02  2.014449E-04
        50   3  1.239541E+05 -1.069336E+02 -2.289817E+02 -3.112931E+01 -1.863044E+02  9.339766E-06
        50   4  1.239541E+05 -8.455852E+02 -8.926769E+02 -6.100184E-10 -6.393579E+02 -2.864380E-11
        50   5  1.240115E+05 -3.055817E+02 -4.444317E+02  5.606127E-10 -4.128312E+02 -6.705793E-11
        50   6  1.239541E+05 -1.069336E+02 -2.289817E+02  8.467461E-11 -1.863044E+02  3.944658E-12
        50   7  1.239541E+05 -8.455845E+02 -8.926768E+02  5.748697E+02 -6.393579E+02 -5.919095E-04
        50   8  1.240115E+05 -3.055815E+02 -4.444316E+02  3.029995E+02 -4.128312E+02 -2.014450E-04
        50   9  1.239541E+05 -1.069336E+02 -2.289817E+02  3.112931E+01 -1.863044E+02 -9.339757E-06
        50  10  1.239541E+05 -8.455846E+02 -8.926776E+02 -5.748697E+02  7.370707E-10 -4.359246E-11
        50  11  1.240115E+05 -3.055816E+02 -4.444320E+02 -3.029995E+02  1.610251E-10 -1.258017E-10
        50  12  1.239541E+05 -1.069336E+02 -2.289818E+02 -3.112931E+01  2.807465E-10 -1.228985E-10
        50  13  1.239541E+05 -8.455853E+02 -8.926777E+02  1.430499E-10 -1.858264E-10 -5.772056E-11
        50  14  1.240115E+05 -3.055817E+02 -4.444320E+02 -3.660126E-10  2.243699E-10 -1.697965E-10
        50  15  1.239541E+05 -1.069336E+02 -2.289818E+02  6.794636E-10  6.226546E-10 -1.528005E-10
        50  16  1.239541E+05 -8.455846E+02 -8.926776E+02  5.748697E+02 -3.054909E-10 -7.283895E-11
        50  17  1.240115E+05 -3.055816E+02 -4.444320E+02  3.029995E+02 -3.405324E-10 -2.167776E-10
        50  18  1.239541E+05 -1.069336E+02 -2.289818E+02  3.112931E+01  2.071099E-10 -1.814028E-10
        50  19  1.239541E+05 -8.455845E+02 -8.926768E+02 -5.748697E+02  6.393579E+02 -5.919095E-04
        50  20  1.240115E+05 -3.055815E+02 -4.444316E+02 -3.029995E+02  4.128312E+02 -2.014451E-04
        50  21  1.239541E+05 -1.069336E+02 -2.289817E+02 -3.112931E+01  1.863044E+02 -9.340019E-06
        50  22  1.239541E+05 -8.455852E+02 -8.926769E+02 -1.397299E-09  6.393579E+02 -8.636397E-11
        50  23  1.240115E+05 -3.055817E+02 -4.444317E+02 -8.877005E-10  4.128312E+02 -2.733084E-10
        50  24  1.239541E+05 -1.069336E+02 -2.289817E+02 -3.602216E-10  1.863044E+02 -3.100980E-10
        50  25  1.239541E+05 -8.455845E+02 -8.926768E+02  5.748697E+02  6.393579E+02  5.919094E-04
        50  26  1.240115E+05 -3.055815E+02 -4.444316E+02  3.029995E+02  4.128312E+02  2.014446E-04
        50  27  1.239541E+05 -1.069336E+02 -2.289817E+02  3.112931E+01  1.863044E+02  9.339396E-06
        51   1  1.239771E+05 -7.768770E+01 -1.611581E+02 -4.338134E+01 -1.577298E+02  1.101944E-05
        51   2  1.239827E+05 -2.368286E+01 -6.013818E+01 -2.199018E+01 -1.274307E+02  4.512671E-06
        51   3  1.239771E+05  1.298834E+00  1.390388E+01 -5.993384E-01 -9.713216E+01  9.345338E-08
        51   4  1.239771E+05 -7.768770E+01 -1.611581E+02 -1.351544E-10 -1.577298E+02  2.299283E-11
        51   5  1.239827E+05 -2.368286E+01 -6.013818E+01  4.520886E-11 -1.274307E+02 -9.860271E-11
        51   6  1.239771E+05  1.298834E+00  1.390388E+01  2.113732E-10 -9.713216E+01 -2.767757E-10
        51   7  1.239771E+05 -7.768770E+01 -1.611581E+02  4.338134E+01 -1.577298E+02 -1.101938E-05
        51   8  1.239827E+05 -2.368286E+01 -6.013818E+01  2.199018E+01 -1.274307E+02 -4.512865E-06
        51   9  1.239771E+05  1.298834E+00  1.390388E+01  5.993384E-01 -9.713216E+01 -9.400671E-08
        51  10  1.239771E+05 -7.768771E+01 -1.611582E+02 -4.338134E+01  8.216291E-10 -1.783760E-10
        51  11  1.239827E+05 -2.368287E+01 -6.013821E+01 -2.199018E+01  1.234235E-10 -3.256956E-10
        51  12  1.239771E+05  1.298831E+00  1.390387E+01 -5.993384E-01  6.291646E-10 -3.149277E-10
        51  13  1.239771E+05 -7.768771E+01 -1.611582E+02 -2.093157E-10 -8.414700E-12 -1.835288E-10
        51  14  1.239827E+05 -2.368287E+01 -6.013821E+01  1.146234E-10  3.569696E-10 -3.075862E-10
        51  15  1.239771E+05  1.298831E+00  1.390387E+01 -5.006814E-10  9.147518E-12 -3.000050E-10
        51  16  1.239771E+05 -7.768771E+01 -1.611582E+02  4.338134E+01 -1.708929E-10 -1.874048E-10
        51  17  1.239827E+05 -2.368287E+01 -6.013821E+01  2.199018E+01 -3.924885E-10 -2.851360E-10
        51  18  1.239771E+05  1.298831E+00  1.390387E+01  5.993384E-01 -1.064285E-09 -2.845073E-10
        51  19  1.239771E+05 -7.768770E+01 -1.611581E+02 -4.338134E+01  1.577298E+02 -1.101980E-05
        51  20  1.239827E+05 -2.368286E+01 -6.013818E+01 -2.199018E+01  1.274307E+02 -4.513331E-06
        51  21  1.239771E+05  1.298834E+00  1.390388E+01 -5.993384E-01  9.713216E+01 -9.408613E-08
        51  22  1.239771E+05 -7.768770E+01 -1.611581E+02 -9.566195E-10  1.577298E+02 -3.874415E-10
        51  23  1.239827E+05 -2.368286E+01 -6.013818E+01 -3.518465E-10  1.274307E+02 -5.143013E-10
        51  24  1.239771E+05  1.298834E+00  1.390388E+01 -1.601897E-09  9.713216E+01 -3.235914E-10
        51  25  1.239771E+05 -7.768770E+01 -1.611581E+02  4.338134E+01  1.577298E+02  1.101903E-05
        51  26  1.239827E+05 -2.368286E+01 -6.013818E+01  2.199018E+01  1.274307E+02  4.512297E-06
        51  27  1.239771E+05  1.298834E+00  1.390388E+01  5.993384E-01  9.713216E+01  9.343984E-08
        52   1  1.239847E+05  7.498072E+00  5.028595E+01  8.761685E-01 -1.025142E+02 -1.448627E-07
        52   2  1.239733E+05  4.138918E+01  1.409476E+02 -3.695540E+01 -1.732436E+02  1.031079E-05
        52   3  1.239846E+05  1.295863E+02  2.912261E+02 -7.478752E+01 -2.439742E+02  2.938533E-05
        52   4  1.239847E+05  7.498072E+00  5.028595E+01  1.975608E-08 -1.025142E+02 -2.288680E-10
        52   5  1.239733E+05  4.138918E+01  1.409476E+02 -3.291951E-08 -1.732436E+02  2.958604E-10
        52   6  1.239846E+05  1.295863E+02  2.912261E+02 -8.939729E-08 -2.439742E+02  1.044579E-09
        52   7  1.239847E+05  7.498072E+00  5.028595E+01 -8.761684E-01 -1.025142E+02  1.444130E-07
        52   8  1.239733E+05  4.138918E+01  1.409476E+02  3.695540E+01 -1.732436E+02 -1.031020E-05
        52   9  1.239846E+05  1.295863E+02  2.912261E+02  7.478752E+01 -2.439742E+02 -2.938325E-05
        52  10  1.239847E+05  7.498069E+00  5.028593E+01  8.761685E-01 -1.190797E-08 -1.011589E-10
        52  11  1.239733E+05  4.138917E+01  1.409476E+02 -3.695540E+01  2.248109E-08  5.062745E-10
        52  12  1.239846E+05  1.295863E+02  2.912260E+02 -7.478752E+01  5.559808E-08  1.074363E-09
        52  13  1.239847E+05  7.498069E+00  5.028593E+01  9.254826E-11  2.103675E-12 -1.186056E-10
        52  14  1.239733E+05  4.138917E+01  1.409476E+02 -1.009764E-10  1.346285E-10  4.450179E-10
        52  15  1.239846E+05  1.295863E+02  2.912260E+02  9.171553E-10  6.955375E-10  1.044548E-09
        52  16  1.239847E+05  7.498069E+00  5.028593E+01 -8.761685E-01  1.165901E-08 -1.335292E-10
        52  17  1.239733E+05  4.138917E+01  1.409476E+02  3.695540E+01 -2.257211E-08  3.856702E-10
        52  18  1.239846E+05  1.295863E+02  2.912260E+02  7.478752E+01 -5.519151E-08  1.020880E-09
        52  19  1.239847E+05  7.498072E+00  5.028595E+01  8.761684E-01  1.025142E+02  1.446592E-07
        52  20  1.239733E+05  4.138918E+01  1.409476E+02 -3.695540E+01  1.732436E+02 -1.030979E-05
        52  21  1.239846E+05  1.295863E+02  2.912261E+02 -7.478752E+01  2.439742E+02 -2.938319E-05
        52  22  1.239847E+05  7.498072E+00  5.028595E+01 -2.145788E-08  1.025142E+02 -7.551773E-12
        52  23  1.239733E+05  4.138918E+01  1.409476E+02  3.413063E-08  1.732436E+02  5.941433E-10
        52  24  1.239846E+05  1.295863E+02  2.912261E+02  8.918378E-08  2.439742E+02  1.044613E-09
        52  25  1.239847E+05  7.498072E+00  5.028595E+01 -8.761685E-01  1.025142E+02 -1.446786E-07
        52  26  1.239733E+05  4.138918E+01  1.409476E+02  3.695540E+01  1.732436E+02  1.031097E-05
        52  27  1.239846E+05  1.295863E+02  2.912261E+02  7.478752E+01  2.439742E+02  2.938527E-05
        53   1  1.240223E+05  1.782900E+02  3.982880E+02 -5.359494E+01 -2.950561E+02  2.546770E-05
        53   2  1.239262E+05  5.094175E+02  7.489213E+02 -5.069136E+02 -6.766696E+02  5.523992E-04
        53   3  1.240222E+05  1.410403E+03  1.490429E+03 -9.602325E+02 -1.058283E+03  1.636516E-03
        53   4  1.240223E+05  1.782900E+02  3.982880E+02  9.007415E-08 -2.950561E+02  1.121330E-09
        53   5  1.239262E+05  5.094170E+02  7.489212E+02  3.419795E-08 -6.766696E+02  5.592588E-10
        53   6  1.240222E+05  1.410401E+03  1.490429E+03 -1.991176E-08 -1.058283E+03  1.116850E-10
        53   7  1.240223E+05  1.782900E+02  3.982880E+02  5.359494E+01 -2.950561E+02 -2.546544E-05
        53   8  1.239262E+05  5.094175E+02  7.489213E+02  5.069136E+02 -6.766696E+02 -5.523981E-04
        53   9  1.240222E+05  1.410403E+03  1.490429E+03  9.602325E+02 -1.058283E+03 -1.636516E-03
        53  10  1.240223E+05  1.782900E+02  3.982879E+02 -5.359494E+01 -5.488592E-08  1.024178E-09
        53  11  1.239262E+05  5.094174E+02  7.489204E+02 -5.069136E+02 -2.235107E-08  4.497065E-10
        53  12  1.240222E+05  1.410402E+03  1.490427E+03 -9.602325E+02  1.154648E-08  7.059365E-11
        53  13  1.240223E+05  1.782900E+02  3.982879E+02  4.817416E-10 -1.319807E-10  1.003026E-09
        53  14  1.239262E+05  5.094169E+02  7.489203E+02 -1.872003E-10  4.033414E-10  3.985970E-10
        53  15  1.240222E+05  1.410401E+03  1.490427E+03 -8.202838E-11  2.544642E-10  5.266079E-11
        53  16  1.240223E+05  1.782900E+02  3.982879E+02  5.359494E+01  5.530637E-08  9.833514E-10
        53  17  1.239262E+05  5.094174E+02  7.489204E+02  5.069136E+02  2.219277E-08  3.524690E-10
        53  18  1.240222E+05  1.410402E+03  1.490427E+03  9.602325E+02 -1.192952E-08  3.435474E-11
        53  19  1.240223E+05  1.782900E+02  3.982880E+02 -5.359494E+01  2.950561E+02 -2.546565E-05
        53  20  1.239262E+05  5.094175E+02  7.489213E+02 -5.069136E+02  6.766696E+02 -5.523983E-04
        53  21  1.240222E+05  1.410403E+03  1.490429E+03 -9.602325E+02  1.058283E+03 -1.636516E-03
        53  22  1.240223E+05  1.782900E+02  3.982880E+02 -8.978591E-08  2.950561E+02  8.847552E-10
        53  23  1.239262E+05  5.094170E+02  7.489212E+02 -3.390079E-08  6.766696E+02  2.370506E-10
        53  24  1.240222E+05  1.410401E+03  1.490429E+03  1.949370E-08  1.058283E+03 -6.309562E-12
        53  25  1.240223E+05  1.782900E+02  3.982880E+02  5.359494E+01  2.950561E+02  2.546742E-05
        53  26  1.239262E+05  5.094175E+02  7.489213E+02  5.069136E+02  6.766696E+02  5.523988E-04
        53  27  1.240222E+05  1.410403E+03  1.490429E+03  9.602325E+02  1.058283E+03  1.636516E-03
        54   1 -1.654299E+05 -5.687322E+05 -1.597460E+05  1.671287E+05 -5.939490E+03 -6.500391E+04
        54   2 -1.163065E+05 -4.573179E+05 -9.803379E+04  1.500501E+05 -1.886108E+04 -2.965227E+04
        54   3 -8.325697E+04 -3.545088E+05 -6.336741E+04  1.492431E+05 -2.029130E+04  5.707533E+03
        54   4 -2.772200E+04 -1.065829E+04 -2.943456E+04  1.482757E+05 -5.925495E+03 -2.021595E+04
        54   5 -1.002526E+04 -8.729250E+03 -1.531129E+04  1.401360E+05 -1.885407E+04 -1.241627E+04
        54   6 -3.609803E+03 -1.062638E+04 -9.086091E+03  1.482692E+05 -2.029411E+04 -4.615671E+03
        54   7  1.099662E+05  5.477081E+05  1.008635E+05  1.294055E+05 -5.914233E+03  2.461204E+04
        54   8  9.624506E+04  4.400556E+05  6.740404E+04  1.302146E+05 -1.884763E+04  4.831861E+03
        54   9  7.603156E+04  3.333741E+05  4.519269E+04  1.472948E+05 -2.029689E+04 -1.494438E+04
        54  10 -1.654310E+05 -5.687368E+05 -1.597540E+05  1.671284E+05 -3.563434E-10 -1.057888E-09
        54  11 -1.163072E+05 -4.573190E+05 -9.803611E+04  1.500496E+05 -3.318516E-10 -3.978206E-11
        54  12 -8.325742E+04 -3.545090E+05 -6.336825E+04  1.492432E+05  1.400653E-10  8.555350E-10
        54  13 -2.772214E+04 -1.065874E+04 -2.943540E+04  1.482756E+05  1.233026E-10  2.330178E-11
        54  14 -1.002569E+04 -8.729511E+03 -1.531224E+04  1.401358E+05 -5.177672E-10  9.245180E-11
        54  15 -3.610251E+03 -1.062652E+04 -9.086905E+03  1.482691E+05 -6.113553E-10  2.106730E-10
        54  16  1.099660E+05  5.477074E+05  1.008623E+05  1.294056E+05 -2.237641E-11  1.038548E-09
        54  17  9.624468E+04  4.400554E+05  6.740333E+04  1.302147E+05 -5.911144E-10 -5.235703E-11
        54  18  7.603106E+04  3.333738E+05  4.519150E+04  1.472945E+05 -4.565710E-10 -9.159284E-10
        54  19 -1.654299E+05 -5.687322E+05 -1.597460E+05  1.671287E+05  5.939490E+03  6.500391E+04
        54  20 -1.163065E+05 -4.573179E+05 -9.803379E+04  1.500501E+05  1.886108E+04  2.965227E+04
        54  21 -8.325697E+04 -3.545088E+05 -6.336741E+04  1.492431E+05  2.029130E+04 -5.707533E+03
        54  22 -2.772200E+04 -1.065829E+04 -2.943456E+04  1.482757E+05  5.925495E+03  2.021595E+04
        54  23 -1.002526E+04 -8.729250E+03 -1.531129E+04  1.401360E+05  1.885407E+04  1.241627E+04
        54  24 -3.609803E+03 -1.062638E+04 -9.086091E+03  1.482692E+05  2.029411E+04  4.615671E+03
        54  25  1.099662E+05  5.477081E+05  1.008635E+05  1.294055E+05  5.914233E+03 -2.461204E+04
        54  26  9.624506E+04  4.400556E+05  6.740404E+04  1.302146E+05  1.884763E+04 -4.831861E+03
        54  27  7.603156E+04  3.333741E+05  4.519269E+04  1.472948E+05  2.029689E+04  1.494438E+04
        55   1 -6.658297E+04 -2.869746E+05 -4.978320E+04  1.499211E+05 -1.723280E+04  7.826805E+03
        55   2 -4.015083E+04 -1.792780E+05 -2.944726E+04  1.399577E+05 -1.211790E+04  1.295917E+04
        55   3 -1.620316E+04 -7.286283E+04 -1.307625E+04  1.470862E+05 -6.104750E+03  1.809173E+04
        55   4 -2.707534E+03 -9.972694E+03 -7.451408E+03  1.484511E+05 -1.723653E+04 -3.363256E+03
        55   5 -1.491887E+03 -9.507324E+03 -5.942502E+03  1.399052E+05 -1.212309E+04 -3.860460E+02
        55   6 -2.385638E+03 -9.960341E+03 -6.901278E+03  1.484509E+05 -6.111498E+03  2.590531E+03
        55   7  6.116428E+04  2.671064E+05  3.487921E+04  1.469805E+05 -1.724022E+04 -1.455812E+04
        55   8  3.716588E+04  1.602930E+05  1.756259E+04  1.398526E+05 -1.212827E+04 -1.373475E+04
        55   9  1.143189E+04  5.294685E+04 -7.253263E+02  1.498157E+05 -6.118313E+03 -1.291214E+04
        55  10 -6.658331E+04 -2.869748E+05 -4.978388E+04  1.499212E+05 -7.497565E-11 -5.694952E-10
        55  11 -4.015103E+04 -1.792782E+05 -2.944786E+04  1.399579E+05 -7.112793E-10  2.877444E-10
        55  12 -1.620329E+04 -7.286319E+04 -1.307694E+04  1.470862E+05 -2.472467E-11  8.396450E-10
        55  13 -2.707856E+03 -9.972786E+03 -7.451987E+03  1.484511E+05  1.486651E-10  1.709114E-10
        55  14 -1.492045E+03 -9.507364E+03 -5.942778E+03  1.399052E+05 -1.193930E-10  1.987141E-10
        55  15 -2.385680E+03 -9.960358E+03 -6.901361E+03  1.484509E+05 -1.507856E-10  2.873874E-10
        55  16  6.116391E+04  2.671060E+05  3.487825E+04  1.469803E+05 -4.783939E-10  3.179770E-10
        55  17  3.716567E+04  1.602928E+05  1.756196E+04  1.398524E+05  3.444006E-10 -4.893754E-10
        55  18  1.143181E+04  5.294666E+04 -7.257098E+02  1.498157E+05  1.604031E-10 -9.237572E-10
        55  19 -6.658297E+04 -2.869746E+05 -4.978320E+04  1.499211E+05  1.723280E+04 -7.826805E+03
        55  20 -4.015083E+04 -1.792780E+05 -2.944726E+04  1.399577E+05  1.211790E+04 -1.295917E+04
        55  21 -1.620316E+04 -7.286283E+04 -1.307625E+04  1.470862E+05  6.104750E+03 -1.809173E+04
        55  22 -2.707534E+03 -9.972694E+03 -7.451408E+03  1.484511E+05  1.723653E+04  3.363256E+03
        55  23 -1.491887E+03 -9.507324E+03 -5.942502E+03  1.399052E+05  1.212309E+04  3.860460E+02
        55  24 -2.385638E+03 -9.960341E+03 -6.901278E+03  1.484509E+05  6.111498E+03 -2.590531E+03
        55  25  6.116428E+04  2.671064E+05  3.487921E+04  1.469805E+05  1.724022E+04  1.455812E+04
        55  26  3.716588E+04  1.602930E+05  1.756259E+04  1.398526E+05  1.212827E+04  1.373475E+04
        55  27  1.143189E+04  5.294685E+04 -7.253263E+02  1.498157E+05  6.118313E+03  1.291214E+04
        56   1 -1.575373E+03 -6.918728E+03 -3.957179E+03  1.474882E+05 -2.139517E+03  1.897457E+04
        56   2  1.816458E+04  1.008707E+05  1.109154E+04  1.312957E+05  1.844153E+03  1.449022E+04
        56   3  3.002415E+04  2.072802E+05  2.708735E+04  1.319412E+05  1.105370E+03  1.000564E+04
        56   4 -3.141497E+03 -1.050187E+04 -8.209562E+03  1.483946E+05 -2.146260E+03  3.740191E+03
        56   5 -8.675685E+03 -8.826465E+03 -1.345844E+04  1.399782E+05  1.842726E+03  1.058966E+04
        56   6 -2.405833E+04 -1.050978E+04 -2.563132E+04  1.484014E+05  1.108761E+03  1.743945E+04
        56   7 -4.707497E+03 -1.408451E+04 -1.246107E+04  1.493011E+05 -2.153048E+03 -1.149407E+04
        56   8 -3.551648E+04 -1.185122E+05 -3.800908E+04  1.486593E+05  1.841190E+03  6.689777E+03
        56   9 -7.814323E+04 -2.282557E+05 -7.835304E+04  1.648558E+05  1.112546E+03  2.487066E+04
        56  10 -1.575474E+03 -6.919116E+03 -3.957864E+03  1.474882E+05  2.472797E-10 -7.110829E-10
        56  11  1.816452E+04  1.008705E+05  1.109114E+04  1.312957E+05 -2.329912E-10 -1.384188E-10
        56  12  3.002412E+04  2.072800E+05  2.708716E+04  1.319412E+05 -1.805199E-10  2.987556E-10
        56  13 -3.141505E+03 -1.050188E+04 -8.209597E+03  1.483946E+05  5.681557E-11  2.073361E-10
        56  14 -8.675719E+03 -8.826587E+03 -1.345866E+04  1.399782E+05 -7.184702E-11  1.968820E-10
        56  15 -2.405841E+04 -1.051011E+04 -2.563189E+04  1.484014E+05  6.685468E-11  2.544559E-10
        56  16 -4.707538E+03 -1.408465E+04 -1.246132E+04  1.493010E+05  2.003557E-10  3.599344E-10
        56  17 -3.551650E+04 -1.185123E+05 -3.800918E+04  1.486592E+05  2.032457E-10 -1.287955E-10
        56  18 -7.814340E+04 -2.282563E+05 -7.835421E+04  1.648558E+05  3.087050E-11 -3.829385E-10
        56  19 -1.575373E+03 -6.918728E+03 -3.957179E+03  1.474882E+05  2.139517E+03 -1.897457E+04
        56  20  1.816458E+04  1.008707E+05  1.109154E+04  1.312957E+05 -1.844153E+03 -1.449022E+04
        56  21  3.002415E+04  2.072802E+05  2.708735E+04  1.319412E+05 -1.105370E+03 -1.000564E+04
        56  22 -3.141497E+03 -1.050187E+04 -8.209562E+03  1.483946E+05  2.146260E+03 -3.740191E+03
        56  23 -8.675685E+03 -8.826465E+03 -1.345844E+04  1.399782E+05 -1.842726E+03 -1.058966E+04
        56  24 -2.405833E+04 -1.050978E+04 -2.563132E+04  1.484014E+05 -1.108761E+03 -1.743945E+04
        56  25 -4.707497E+03 -1.408451E+04 -1.246107E+04  1.493011E+05  2.153048E+03  1.149407E+04
        56  26 -3.551648E+04 -1.185122E+05 -3.800908E+04  1.486593E+05 -1.841190E+03 -6.689777E+03
        56  27 -7.814323E+04 -2.282557E+05 -7.835304E+04  1.648558E+05 -1.112546E+03 -2.487066E+04
        57   1 -1.574751E+05 -5.236448E+05 -1.485939E+05  1.281228E+05 -7.262536E+03 -5.616873E+04
        57   2 -1.275925E+05 -4.290302E+05 -9.844362E+04  1.207031E+05 -2.384406E+04 -2.457196E+04
        57   3 -1.038149E+05 -3.400366E+05 -7.039810E+04  1.269730E+05 -2.752259E+04  7.031547E+03
        57   4 -1.702557E+03  1.083443E+05 -1.887825E+03  1.270219E+05 -7.249301E+03 -9.064330E+02
        57   5 -6.352214E+02  1.084874E+05 -1.283147E+03  1.201770E+05 -2.383515E+04 -2.500745E+02
        57   6 -2.965050E+02  1.083766E+05 -1.286407E+03  1.270215E+05 -2.752311E+04  4.072898E+02
        57   7  1.540435E+05  7.407089E+05  1.448028E+05  1.259199E+05 -7.236274E+03  5.441175E+04
        57   8  1.263062E+05  6.462877E+05  9.586820E+04  1.196504E+05 -2.382629E+04  2.409230E+04
        57   9  1.032121E+05  5.569910E+05  6.782094E+04  1.270701E+05 -2.752362E+04 -6.221571E+03
        57  10 -1.574761E+05 -5.236482E+05 -1.485999E+05  1.281224E+05 -5.754097E-12 -2.190851E-11
        57  11 -1.275933E+05 -4.290310E+05 -9.844582E+04  1.207026E+05  7.242840E-11  3.872628E-10
        57  12 -1.038157E+05 -3.400369E+05 -7.039961E+04  1.269731E+05 -1.649118E-10  2.368540E-10
        57  13 -1.702614E+03  1.083443E+05 -1.887925E+03  1.270219E+05  2.506544E-10 -3.418942E-11
        57  14 -6.358316E+02  1.084873E+05 -1.284215E+03  1.201770E+05  4.161016E-10  2.006699E-10
        57  15 -2.973186E+02  1.083764E+05 -1.287831E+03  1.270215E+05 -7.667218E-10 -2.120524E-10
        57  16  1.540427E+05  7.407057E+05  1.447972E+05  1.259202E+05  6.260770E-11  7.432436E-11
        57  17  1.263055E+05  6.462870E+05  9.586604E+04  1.196509E+05  5.283973E-10 -3.123058E-10
        57  18  1.032113E+05  5.569908E+05  6.781944E+04  1.270700E+05 -5.744594E-11 -3.245653E-10
        57  19 -1.574751E+05 -5.236448E+05 -1.485939E+05  1.281228E+05  7.262536E+03  5.616873E+04
        57  20 -1.275925E+05 -4.290302E+05 -9.844362E+04  1.207031E+05  2.384406E+04  2.457196E+04
        57  21 -1.038149E+05 -3.400366E+05 -7.039810E+04  1.269730E+05  2.752259E+04 -7.031547E+03
        57  22 -1.702557E+03  1.083443E+05 -1.887825E+03  1.270219E+05  7.249301E+03  9.064330E+02
        57  23 -6.352214E+02  1.084874E+05 -1.283147E+03  1.201770E+05  2.383515E+04  2.500745E+02
        57  24 -2.965050E+02  1.083766E+05 -1.286407E+03  1.270215E+05  2.752311E+04 -4.072898E+02
        57  25  1.540435E+05  7.407089E+05  1.448028E+05  1.259199E+05  7.236274E+03 -5.441175E+04
        57  26  1.263062E+05  6.462877E+05  9.586820E+04  1.196504E+05  2.382629E+04 -2.409230E+04
        57  27  1.032121E+05  5.569910E+05  6.782094E+04  1.270701E+05  2.752362E+04  6.221571E+03
        58   1 -9.010319E+04 -2.825576E+05 -5.964500E+04  1.272594E+05 -2.531267E+04  8.265607E+03
        58   2 -6.857722E+04 -1.903386E+05 -4.358757E+04  1.194187E+05 -2.133596E+04  1.316622E+04
        58   3 -4.848714E+04 -9.910993E+04 -3.108095E+04  1.262222E+05 -1.577787E+04  1.806642E+04
        58   4 -2.724034E+02  1.083663E+05 -1.459327E+03  1.272336E+05 -2.531415E+04  6.270215E+02
        58   5 -5.207089E+02  1.085455E+05 -2.208792E+03  1.199118E+05 -2.133983E+04  1.733590E+03
        58   6 -1.545514E+03  1.083850E+05 -3.873788E+03  1.272340E+05 -1.578454E+04  2.839081E+03
        58   7  8.955122E+04  4.994439E+05  5.672368E+04  1.272077E+05 -2.531563E+04 -7.016181E+03
        58   8  6.753193E+04  4.075207E+05  3.916943E+04  1.204052E+05 -2.134372E+04 -9.704296E+03
        58   9  4.539443E+04  3.159245E+05  2.333397E+04  1.282461E+05 -1.579125E+04 -1.239311E+04
        58  10 -9.010389E+04 -2.825579E+05 -5.964633E+04  1.272596E+05  2.594608E-10  4.306977E-10
        58  11 -6.857776E+04 -1.903389E+05 -4.358876E+04  1.194189E+05 -9.932124E-11  6.649820E-10
        58  12 -4.848749E+04 -9.911035E+04 -3.108203E+04  1.262224E+05 -2.934801E-10 -2.380201E-10
        58  13 -2.730917E+02  1.083661E+05 -1.460532E+03  1.272336E+05  9.062795E-11 -2.167323E-10
        58  14 -5.211988E+02  1.085454E+05 -2.209654E+03  1.199119E+05 -4.401848E-11  4.805085E-10
        58  15 -1.545784E+03  1.083849E+05 -3.874271E+03  1.272340E+05 -9.202610E-11 -3.494519E-10
        58  16  8.955052E+04  4.994437E+05  5.672238E+04  1.272075E+05  1.249575E-10 -1.415128E-10
        58  17  6.753142E+04  4.075205E+05  3.916840E+04  1.204050E+05  3.590270E-10 -4.930802E-10
        58  18  4.539412E+04  3.159242E+05  2.333321E+04  1.282459E+05  1.767794E-10  1.225433E-10
        58  19 -9.010319E+04 -2.825576E+05 -5.964500E+04  1.272594E+05  2.531267E+04 -8.265607E+03
        58  20 -6.857722E+04 -1.903386E+05 -4.358757E+04  1.194187E+05  2.133596E+04 -1.316622E+04
        58  21 -4.848714E+04 -9.910993E+04 -3.108095E+04  1.262222E+05  1.577787E+04 -1.806642E+04
        58  22 -2.724034E+02  1.083663E+05 -1.459327E+03  1.272336E+05  2.531415E+04 -6.270215E+02
        58  23 -5.207089E+02  1.085455E+05 -2.208792E+03  1.199118E+05  2.133983E+04 -1.733590E+03
        58  24 -1.545514E+03  1.083850E+05 -3.873788E+03  1.272340E+05  1.578454E+04 -2.839081E+03
        58  25  8.955122E+04  4.994439E+05  5.672368E+04  1.272077E+05  2.531563E+04  7.016181E+03
        58  26  6.753193E+04  4.075207E+05  3.916943E+04  1.204052E+05  2.134372E+04  9.704296E+03
        58  27  4.539443E+04  3.159245E+05  2.333397E+04  1.282461E+05  1.579125E+04  1.239311E+04
        59   1 -3.607747E+04 -4.279493E+04 -2.410153E+04  1.265206E+05 -1.197044E+04  1.877945E+04
        59   2 -1.915078E+04  4.993224E+04 -1.466130E+04  1.135622E+05 -6.101626E+03  2.119810E+04
        59   3 -8.909964E+03  1.406727E+05 -8.469612E+03  1.152861E+05 -1.222177E+03  2.361696E+04
        59   4 -2.140438E+03  1.079295E+05 -5.140184E+03  1.272424E+05 -1.197758E+04  3.510131E+03
        59   5 -6.254248E+03  1.091351E+05 -9.411270E+03  1.199037E+05 -6.107671E+03  8.302505E+03
        59   6 -1.746544E+04  1.079341E+05 -1.857960E+04  1.272482E+05 -1.227033E+03  1.309476E+04
        59   7  3.179580E+04  2.586777E+05  1.382198E+04  1.279643E+05 -1.198475E+04 -1.176272E+04
        59   8  6.642419E+03  1.683422E+05 -4.160498E+03  1.262460E+05 -6.113978E+03 -4.594240E+03
        59   9 -2.602042E+04  7.519690E+04 -2.868921E+04  1.392097E+05 -1.232294E+03  2.573127E+03
        59  10 -3.607772E+04 -4.279535E+04 -2.410246E+04  1.265208E+05  7.810293E-11  2.570048E-10
        59  11 -1.915094E+04  4.993174E+04 -1.466222E+04  1.135623E+05  3.135886E-10  6.704928E-10
        59  12 -8.910115E+03  1.406721E+05 -8.470663E+03  1.152861E+05 -4.371749E-11 -2.513889E-10
        59  13 -2.140596E+03  1.079294E+05 -5.140477E+03  1.272424E+05  2.294993E-11 -3.042866E-10
        59  14 -6.254307E+03  1.091351E+05 -9.411470E+03  1.199038E+05 -3.768473E-10  6.201778E-10
        59  15 -1.746549E+04  1.079339E+05 -1.857993E+04  1.272482E+05  4.636306E-11 -3.566999E-10
        59  16  3.179560E+04  2.586775E+05  1.382145E+04  1.279642E+05  1.166146E-10  1.791021E-10
        59  17  6.642373E+03  1.683422E+05 -4.160608E+03  1.262459E+05  2.707578E-10 -4.224056E-10
        59  18 -2.602042E+04  7.519689E+04 -2.868922E+04  1.392097E+05  1.623671E-10  1.596673E-10
        59  19 -3.607747E+04 -4.279493E+04 -2.410153E+04  1.265206E+05  1.197044E+04 -1.877945E+04
        59  20 -1.915078E+04  4.993224E+04 -1.466130E+04  1.135622E+05  6.101626E+03 -2.119810E+04
        59  21 -8.909964E+03  1.406727E+05 -8.469612E+03  1.152861E+05  1.222177E+03 -2.361696E+04
        59  22 -2.140438E+03  1.079295E+05 -5.140184E+03  1.272424E+05  1.197758E+04 -3.510131E+03
        59  23 -6.254248E+03  1.091351E+05 -9.411270E+03  1.199037E+05  6.107671E+03 -8.302505E+03
        59  24 -1.746544E+04  1.079341E+05 -1.857960E+04  1.272482E+05  1.227033E+03 -1.309476E+04
        59  25  3.179580E+04  2.586777E+05  1.382198E+04  1.279643E+05  1.198475E+04  1.176272E+04
        59  26  6.642419E+03  1.683422E+05 -4.160498E+03  1.262460E+05  6.113978E+03  4.594240E+03
        59  27 -2.602042E+04  7.519690E+04 -2.868921E+04  1.392097E+05  1.232294E+03 -2.573127E+03
        60   1  2.126692E+06  4.295504E+05  4.091636E+05  3.764123E+05  1.609832E+05 -1.823265E+04
        60   2  1.859768E+06  3.313510E+05  2.633420E+05  3.474588E+05  7.267812E+04 -5.924167E+04
        60   3  1.611080E+06  2.593427E+05  1.814384E+05  3.571689E+05 -1.554852E+04 -6.704876E+04
        60   4  5.021260E+05  2.974289E+04  3.203551E+04  3.560932E+05  2.228414E+04 -1.819655E+04
        60   5  5.000665E+05  1.041564E+04  1.643400E+04  3.367591E+05  1.392089E+04 -5.924448E+04
        60   6  5.023627E+05  3.462330E+03  9.367907E+03  3.560872E+05  5.595880E+03 -6.705962E+04
        60   7 -1.119968E+06 -3.702385E+05 -3.451977E+05  3.358269E+05 -1.160556E+05 -1.815143E+04
        60   8 -8.578338E+05 -3.106212E+05 -2.305346E+05  3.260830E+05 -4.471149E+04 -5.924531E+04
        60   9 -6.051290E+05 -2.524777E+05 -1.627295E+05  3.550073E+05  2.670402E+04 -6.707056E+04
        60  10  2.126664E+06  4.295431E+05  4.091144E+05  3.764147E+05 -1.104310E-10  1.403327E-11
        60  11  1.859762E+06  3.313458E+05  2.633255E+05  3.474623E+05  3.181774E-10  2.026852E-11
        60  12  1.611079E+06  2.593378E+05  1.814295E+05  3.571680E+05 -2.029222E-10 -8.307762E-11
        60  13  5.021254E+05  2.974240E+04  3.203395E+04  3.560935E+05  6.311253E-10 -3.409577E-11
        60  14  5.000654E+05  1.041182E+04  1.642704E+04  3.367597E+05  1.091045E-09 -1.638178E-10
        60  15  5.023614E+05  3.457491E+03  9.359394E+03  3.560875E+05 -1.136418E-10 -6.000319E-11
        60  16 -1.119982E+06 -3.702425E+05 -3.452236E+05  3.358252E+05 -6.866454E-10 -1.051957E-10
        60  17 -8.578368E+05 -3.106255E+05 -2.305450E+05  3.260808E+05 -7.016200E-10 -2.521726E-10
        60  18 -6.051309E+05 -2.524828E+05 -1.627393E+05  3.550087E+05  2.249914E-10 -4.824494E-11
        60  19  2.126692E+06  4.295504E+05  4.091636E+05  3.764123E+05 -1.609832E+05  1.823265E+04
        60  20  1.859768E+06  3.313510E+05  2.633420E+05  3.474588E+05 -7.267812E+04  5.924167E+04
        60  21  1.611080E+06  2.593427E+05  1.814384E+05  3.571689E+05  1.554852E+04  6.704876E+04
        60  22  5.021260E+05  2.974289E+04  3.203551E+04  3.560932E+05 -2.228414E+04  1.819655E+04
        60  23  5.000665E+05  1.041564E+04  1.643400E+04  3.367591E+05 -1.392089E+04  5.924448E+04
        60  24  5.023627E+05  3.462330E+03  9.367907E+03  3.560872E+05 -5.595880E+03  6.705962E+04
        60  25 -1.119968E+06 -3.702385E+05 -3.451977E+05  3.358269E+05  1.160556E+05  1.815143E+04
        60  26 -8.578338E+05 -3.106212E+05 -2.305346E+05  3.260830E+05  4.471149E+04  5.924531E+04
        60  27 -6.051290E+05 -2.524777E+05 -1.627295E+05  3.550073E+05 -2.670402E+04  6.707056E+04
        61   1  1.449090E+06  2.202290E+05  1.496097E+05  3.582753E+05 -1.944548E+04 -6.038219E+04
        61   2  1.190405E+06  1.577933E+05  1.014674E+05  3.368578E+05 -3.190166E+04 -4.842589E+04
        61   3  9.342794E+05  9.852902E+04  6.223489E+04  3.565386E+05 -4.435595E+04 -3.232891E+04
        61   4  5.016256E+05  2.504486E+03  7.359722E+03  3.566307E+05  4.322697E+03 -6.038864E+04
        61   5  5.013010E+05  8.202322E+02  5.018036E+03  3.360803E+05  1.819738E+03 -4.842533E+04
        61   6  5.017466E+05  5.858762E+02  4.684032E+03  3.566309E+05 -6.861581E+02 -3.231893E+04
        61   7 -4.449384E+05 -2.152622E+05 -1.349059E+05  3.549885E+05  2.805611E+04 -6.039521E+04
        61   8 -1.873197E+05 -1.561733E+05 -9.143312E+04  3.353035E+05  3.550541E+04 -4.842484E+04
        61   9  6.940853E+04 -9.736421E+04 -5.286116E+04  3.567232E+05  4.295467E+04 -3.230894E+04
        61  10  1.449089E+06  2.202250E+05  1.496021E+05  3.582744E+05  5.734484E-10 -1.381537E-10
        61  11  1.190403E+06  1.577905E+05  1.014610E+05  3.368566E+05 -1.205882E-10 -1.712114E-10
        61  12  9.342770E+05  9.852737E+04  6.222923E+04  3.565374E+05 -3.468152E-11 -1.389682E-10
        61  13  5.016246E+05  2.500564E+03  7.352831E+03  3.566309E+05  7.247102E-12 -2.350245E-11
        61  14  5.013004E+05  8.177126E+02  5.013622E+03  3.360804E+05  5.103738E-10  6.094663E-12
        61  15  5.017463E+05  5.847542E+02  4.682068E+03  3.566309E+05  6.378001E-10 -3.885805E-11
        61  16 -4.449403E+05 -2.152664E+05 -1.349142E+05  3.549899E+05  4.931946E-10  1.007452E-10
        61  17 -1.873217E+05 -1.561762E+05 -9.143990E+04  3.353049E+05  1.142804E-09  1.780126E-10
        61  18  6.940627E+04 -9.736583E+04 -5.286659E+04  3.567243E+05 -2.757533E-10  5.264945E-11
        61  19  1.449090E+06  2.202290E+05  1.496097E+05  3.582753E+05  1.944548E+04  6.038219E+04
        61  20  1.190405E+06  1.577933E+05  1.014674E+05  3.368578E+05  3.190166E+04  4.842589E+04
        61  21  9.342794E+05  9.852902E+04  6.223489E+04  3.565386E+05  4.435595E+04  3.232891E+04
        61  22  5.016256E+05  2.504486E+03  7.359722E+03  3.566307E+05 -4.322697E+03  6.038864E+04
        61  23  5.013010E+05  8.202322E+02  5.018036E+03  3.360803E+05 -1.819738E+03  4.842533E+04
        61  24  5.017466E+05  5.858762E+02  4.684032E+03  3.566309E+05  6.861581E+02  3.231893E+04
        61  25 -4.449384E+05 -2.152622E+05 -1.349059E+05  3.549885E+05 -2.805611E+04  6.039521E+04
        61  26 -1.873197E+05 -1.561733E+05 -9.143312E+04  3.353035E+05 -3.550541E+04  4.842484E+04
        61  27  6.940853E+04 -9.736421E+04 -5.286116E+04  3.567232E+05 -4.295467E+04  3.230894E+04
        62   1  7.751842E+05  6.226696E+04  3.984418E+04  3.567813E+05 -4.532021E+04 -2.147307E+04
        62   2  5.177774E+05  4.500652E+03  4.765031E+03  3.345762E+05 -4.408297E+04 -4.245264E+03
        62   3  2.607083E+05 -5.174197E+04 -3.072467E+04  3.536059E+05 -4.284771E+04  1.095846E+04
        62   4  5.018429E+05  6.885967E+02  5.086517E+03  3.566605E+05 -1.508604E+03 -2.146054E+04
        62   5  5.012889E+05  1.704490E+03  7.255449E+03  3.360434E+05 -5.141280E+03 -4.233928E+03
        62   6  5.018445E+05  5.089292E+03  1.238696E+04  3.566601E+05 -8.775382E+03  1.096856E+04
        62   7  2.285822E+05 -6.089179E+04 -2.966422E+04  3.565397E+05  4.228468E+04 -2.144802E+04
        62   8  4.848040E+05 -1.090841E+03  9.751641E+03  3.375105E+05  3.379954E+04 -4.222408E+03
        62   9  7.430399E+05  6.191799E+04  5.550075E+04  3.597156E+05  2.530980E+04  1.097899E+04
        62  10  7.751819E+05  6.226591E+04  3.983946E+04  3.567805E+05 -3.492570E-10 -6.327029E-11
        62  11  5.177753E+05  4.500111E+03  4.761349E+03  3.345760E+05 -1.016286E-09  9.412438E-11
        62  12  2.607063E+05 -5.174259E+04 -3.072835E+04  3.536062E+05 -1.428333E-10  2.150133E-10
        62  13  5.018427E+05  6.881015E+02  5.085647E+03  3.566604E+05  3.036672E-10 -4.758766E-11
        62  14  5.012889E+05  1.704463E+03  7.255366E+03  3.360434E+05  2.693044E-10  1.003454E-11
        62  15  5.018444E+05  5.089142E+03  1.238659E+04  3.566602E+05  3.511611E-10  1.205224E-10
        62  16  2.285802E+05 -6.089277E+04 -2.966844E+04  3.565404E+05  2.126034E-10 -3.359279E-11
        62  17  4.848028E+05 -1.091166E+03  9.749462E+03  3.375107E+05  8.865897E-10 -7.396488E-11
        62  18  7.430392E+05  6.191769E+04  5.549932E+04  3.597153E+05  2.804176E-10  4.001132E-11
        62  19  7.751842E+05  6.226696E+04  3.984418E+04  3.567813E+05  4.532021E+04  2.147307E+04
        62  20  5.177774E+05  4.500652E+03  4.765031E+03  3.345762E+05  4.408297E+04  4.245264E+03
        62  21  2.607083E+05 -5.174197E+04 -3.072467E+04  3.536059E+05  4.284771E+04 -1.095846E+04
        62  22  5.018429E+05  6.885967E+02  5.086517E+03  3.566605E+05  1.508604E+03  2.146054E+04
        62  23  5.012889E+05  1.704490E+03  7.255449E+03  3.360434E+05  5.141280E+03  4.233928E+03
        62  24  5.018445E+05  5.089292E+03  1.238696E+04  3.566601E+05  8.775382E+03 -1.096856E+04
        62  25  2.285822E+05 -6.089179E+04 -2.966422E+04  3.565397E+05 -4.228468E+04  2.144802E+04
        62  26  4.848040E+05 -1.090841E+03  9.751641E+03  3.375105E+05 -3.379954E+04  4.222408E+03
        62  27  7.430399E+05  6.191799E+04  5.550075E+04  3.597156E+05 -2.530980E+04 -1.097899E+04
        63   1  1.021253E+05 -8.710140E+04 -5.300514E+04  3.541427E+05 -4.349540E+04  1.977198E+04
        63   2 -1.549812E+05 -1.363024E+05 -9.689054E+04  3.164630E+05 -1.207760E+04  2.365859E+04
        63   3 -4.124546E+05 -1.711714E+05 -1.576350E+05  3.186240E+05  1.931585E+04  8.154843E+03
        63   4  5.032775E+05  6.971738E+03  1.633268E+04  3.563472E+05 -1.093369E+04  1.978009E+04
        63   5  4.993952E+05  1.987273E+04  2.970180E+04  3.364314E+05 -2.604882E+04  2.365351E+04
        63   6  5.031534E+05  5.517460E+04  5.851384E+04  3.563465E+05 -4.117639E+04  8.147839E+03
        63   7  9.045897E+05  1.010368E+05  8.566894E+04  3.585532E+05  2.164842E+04  1.978843E+04
        63   8  1.154184E+06  1.760239E+05  1.562751E+05  3.564211E+05 -4.003443E+04  2.364754E+04
        63   9  1.419543E+06  2.814679E+05  2.746193E+05  3.941247E+05 -1.017574E+05  8.133507E+03
        63  10  1.021232E+05 -8.710233E+04 -5.300943E+04  3.541434E+05 -1.562916E-10  2.413267E-10
        63  11 -1.549815E+05 -1.363030E+05 -9.689187E+04  3.164632E+05  2.267287E-11  1.758992E-10
        63  12 -4.124551E+05 -1.711716E+05 -1.576358E+05  3.186238E+05  4.885420E-10  4.193347E-11
        63  13  5.032772E+05  6.971285E+03  1.633172E+04  3.563474E+05  8.867719E-10  2.431034E-10
        63  14  4.993943E+05  1.987194E+04  2.969947E+04  3.364319E+05 -2.912259E-10  3.362297E-10
        63  15  5.031516E+05  5.517408E+04  5.851053E+04  3.563467E+05  5.233206E-10  1.298045E-10
        63  16  9.045891E+05  1.010363E+05  8.566733E+04  3.585528E+05  8.437483E-10  2.438332E-10
        63  17  1.154182E+06  1.760229E+05  1.562710E+05  3.564219E+05 -5.995130E-10  4.649467E-10
        63  18  1.419532E+06  2.814651E+05  2.745998E+05  3.941254E+05 -6.284521E-10  1.707031E-10
        63  19  1.021253E+05 -8.710140E+04 -5.300514E+04  3.541427E+05  4.349540E+04 -1.977198E+04
        63  20 -1.549812E+05 -1.363024E+05 -9.689054E+04  3.164630E+05  1.207760E+04 -2.365859E+04
        63  21 -4.124546E+05 -1.711714E+05 -1.576350E+05  3.186240E+05 -1.931585E+04 -8.154843E+03
        63  22  5.032775E+05  6.971738E+03  1.633268E+04  3.563472E+05  1.093369E+04 -1.978009E+04
        63  23  4.993952E+05  1.987273E+04  2.970180E+04  3.364314E+05  2.604882E+04 -2.365351E+04
        63  24  5.031534E+05  5.517460E+04  5.851384E+04  3.563465E+05  4.117639E+04 -8.147839E+03
        63  25  9.045897E+05  1.010368E+05  8.566894E+04  3.585532E+05 -2.164842E+04 -1.978843E+04
        63  26  1.154184E+06  1.760239E+05  1.562751E+05  3.564211E+05  4.003443E+04 -2.364754E+04
        63  27  1.419543E+06  2.814679E+05  2.746193E+05  3.941247E+05  1.017574E+05 -8.133507E+03
        64   1 -1.611580E+05 -3.528871E+05 -1.609555E+05  2.832557E+05 -3.081130E+03 -6.001737E+04
        64   2 -8.180026E+04 -1.679240E+05 -8.199913E+04  2.529236E+05 -7.171768E+03 -2.340802E+04
        64   3 -2.699082E+04  6.103107E+03 -3.303630E+04  2.506833E+05 -1.734328E+03  1.320469E+04
        64   4 -5.064778E+04  9.327152E+04 -5.409532E+04  2.488401E+05 -3.048250E+03 -3.865971E+04
        64   5 -1.791158E+04  9.678256E+04 -2.698130E+04  2.347642E+05 -7.172926E+03 -2.490324E+04
        64   6 -5.746996E+03  9.330106E+04 -1.397861E+04  2.487842E+05 -1.769480E+03 -1.115458E+04
        64   7  5.985275E+04  5.396162E+05  5.275311E+04  2.143995E+05 -3.017754E+03 -1.728676E+04
        64   8  4.597390E+04  3.615562E+05  2.803287E+04  2.165970E+05 -7.173996E+03 -2.639910E+04
        64   9  1.549665E+04  1.805074E+05  5.080846E+03  2.468848E+05 -1.804480E+03 -3.551724E+04
        64  10 -1.611590E+05 -3.528910E+05 -1.609622E+05  2.832555E+05  6.831110E-11 -1.075361E-09
        64  11 -8.180046E+04 -1.679246E+05 -8.200025E+04  2.529235E+05 -9.470563E-11  1.153213E-10
        64  12 -2.699087E+04  6.102919E+03 -3.303664E+04  2.506834E+05  4.421074E-12  1.341088E-09
        64  13 -5.064819E+04  9.326991E+04 -5.409814E+04  2.488400E+05  1.488809E-11 -2.038959E-11
        64  14 -1.791180E+04  9.678188E+04 -2.698257E+04  2.347641E+05 -7.703884E-10  5.439185E-11
        64  15 -5.747033E+03  9.330093E+04 -1.397885E+04  2.487842E+05 -1.370842E-11  3.680635E-11
        64  16  5.985266E+04  5.396158E+05  5.275253E+04  2.143995E+05 -3.346588E-10  1.135641E-09
        64  17  4.597366E+04  3.615555E+05  2.803147E+04  2.165968E+05 -3.810216E-10 -6.426450E-11
        64  18  1.549631E+04  1.805061E+05  5.078470E+03  2.468847E+05  1.960271E-11 -1.265802E-09
        64  19 -1.611580E+05 -3.528871E+05 -1.609555E+05  2.832557E+05  3.081130E+03  6.001737E+04
        64  20 -8.180026E+04 -1.679240E+05 -8.199913E+04  2.529236E+05  7.171768E+03  2.340802E+04
        64  21 -2.699082E+04  6.103107E+03 -3.303630E+04  2.506833E+05  1.734328E+03 -1.320469E+04
        64  22 -5.064778E+04  9.327152E+04 -5.409532E+04  2.488401E+05  3.048250E+03  3.865971E+04
        64  23 -1.791158E+04  9.678256E+04 -2.698130E+04  2.347642E+05  7.172926E+03  2.490324E+04
        64  24 -5.746996E+03  9.330106E+04 -1.397861E+04  2.487842E+05  1.769480E+03  1.115458E+04
        64  25  5.985275E+04  5.396162E+05  5.275311E+04  2.143995E+05  3.017754E+03  1.728676E+04
        64  26  4.597390E+04  3.615562E+05  2.803287E+04  2.165970E+05  7.173996E+03  2.639910E+04
        64  27  1.549665E+04  1.805074E+05  5.080846E+03  2.468848E+05  1.804480E+03  3.551724E+04
        65   1  6.961694E+02  1.190360E+05 -1.112899E+04  2.516629E+05  4.696301E+03  1.554849E+04
        65   2  4.587571E+04  2.985825E+05  2.429234E+04  2.365647E+05  1.455132E+04  1.490054E+04
        65   3  9.018299E+04  4.779629E+05  5.989544E+04  2.501085E+05  2.332962E+04  1.425444E+04
        65   4 -3.932646E+03  9.471271E+04 -9.907965E+03  2.489083E+05  4.660219E+03 -9.403348E+03
        65   5 -4.678229E+02  9.502279E+04 -3.883500E+03  2.345833E+05  1.452030E+04 -7.468996E+03
        65   6  1.677939E+03  9.468747E+04  5.298694E+02  2.489013E+05  2.330344E+04 -5.532595E+03
        65   7 -8.561094E+03  7.039149E+04 -8.684505E+03  2.461539E+05  4.624358E+03 -3.435432E+04
        65   8 -4.681290E+04 -1.084938E+05 -3.205794E+04  2.326027E+05  1.448941E+04 -2.983153E+04
        65   9 -8.683405E+04 -2.884404E+05 -5.883760E+04  2.476947E+05  2.327733E+04 -2.530789E+04
        65  10  6.960808E+02  1.190357E+05 -1.112948E+04  2.516628E+05  5.541687E-10 -3.730464E-11
        65  11  4.587542E+04  2.985822E+05  2.429152E+04  2.365645E+05 -3.222144E-10 -1.607854E-10
        65  12  9.018235E+04  4.779625E+05  5.989404E+04  2.501082E+05 -2.295539E-10 -3.389891E-10
        65  13 -3.932693E+03  9.471261E+04 -9.908172E+03  2.489083E+05  9.387374E-11  2.289453E-11
        65  14 -4.680643E+02  9.502267E+04 -3.884002E+03  2.345834E+05  1.196213E-10  4.188803E-11
        65  15  1.677347E+03  9.468729E+04  5.287911E+02  2.489014E+05 -6.305209E-10 -1.032934E-11
        65  16 -8.561434E+03  7.039022E+04 -8.686763E+03  2.461540E+05  3.688575E-10  2.590008E-12
        65  17 -4.681336E+04 -1.084948E+05 -3.206001E+04  2.326030E+05  3.080392E-10  5.099977E-11
        65  18 -8.683481E+04 -2.884413E+05 -5.883983E+04  2.476952E+05  3.895446E-10  1.719229E-10
        65  19  6.961694E+02  1.190360E+05 -1.112899E+04  2.516629E+05 -4.696301E+03 -1.554849E+04
        65  20  4.587571E+04  2.985825E+05  2.429234E+04  2.365647E+05 -1.455132E+04 -1.490054E+04
        65  21  9.018299E+04  4.779629E+05  5.989544E+04  2.501085E+05 -2.332962E+04 -1.425444E+04
        65  22 -3.932646E+03  9.471271E+04 -9.907965E+03  2.489083E+05 -4.660219E+03  9.403348E+03
        65  23 -4.678229E+02  9.502279E+04 -3.883500E+03  2.345833E+05 -1.452030E+04  7.468996E+03
        65  24  1.677939E+03  9.468747E+04  5.298694E+02  2.489013E+05 -2.330344E+04  5.532595E+03
        65  25 -8.561094E+03  7.039149E+04 -8.684505E+03  2.461539E+05 -4.624358E+03  3.435432E+04
        65  26 -4.681290E+04 -1.084938E+05 -3.205794E+04  2.326027E+05 -1.448941E+04  2.983153E+04
        65  27 -8.683405E+04 -2.884404E+05 -5.883760E+04  2.476947E+05 -2.327733E+04  2.530789E+04
        66   1  1.172225E+05  5.906570E+05  8.170088E+04  2.497957E+05  2.866507E+04  1.274418E+04
        66   2  1.657706E+05  7.654595E+05  1.328964E+05  2.416954E+05  2.748249E+04 -3.376265E+04
        66   3  2.285556E+05  9.498665E+05  2.179001E+05  2.610003E+05  8.673286E+03 -8.027205E+04
        66   4  2.386102E+03  9.531011E+04  2.676250E+03  2.486272E+05  2.864211E+04 -5.731834E+03
        66   5  6.612594E+03  9.415148E+04  8.159709E+03  2.349155E+05  2.751547E+04 -9.887288E+03
        66   6  1.773791E+04  9.522965E+04  1.806365E+04  2.486090E+05  8.754202E+03 -1.403133E+04
        66   7 -1.124623E+05 -3.997923E+05 -7.635348E+04  2.474595E+05  2.861921E+04 -2.419365E+04
        66   8 -1.525708E+05 -5.767191E+05 -1.165939E+05  2.281428E+05  2.754794E+04  1.396295E+04
        66   9 -1.931287E+05 -7.587250E+05 -1.818060E+05  2.362345E+05  8.832548E+03  5.211891E+04
        66  10  1.172215E+05  5.906566E+05  8.169903E+04  2.497954E+05  1.398230E-10 -1.367410E-09
        66  11  1.657695E+05  7.654580E+05  1.328928E+05  2.416961E+05 -3.328767E-10 -2.048319E-10
        66  12  2.285538E+05  9.498596E+05  2.178879E+05  2.610009E+05 -2.507330E-10  9.337784E-10
        66  13  2.385212E+03  9.530986E+04  2.674646E+03  2.486273E+05  2.235863E-10 -2.647004E-11
        66  14  6.611754E+03  9.415117E+04  8.158102E+03  2.349157E+05 -7.191843E-10 -7.690294E-11
        66  15  1.773777E+04  9.522941E+04  1.806313E+04  2.486091E+05  4.012155E-11  1.673685E-11
        66  16 -1.124634E+05 -3.997931E+05 -7.635612E+04  2.474600E+05  1.414059E-10  1.321031E-09
        66  17 -1.525717E+05 -5.767196E+05 -1.165957E+05  2.281425E+05  2.142475E-10  1.815047E-10
        66  18 -1.931295E+05 -7.587280E+05 -1.818112E+05  2.362341E+05 -4.218543E-10 -9.350335E-10
        66  19  1.172225E+05  5.906570E+05  8.170088E+04  2.497957E+05 -2.866507E+04 -1.274418E+04
        66  20  1.657706E+05  7.654595E+05  1.328964E+05  2.416954E+05 -2.748249E+04  3.376265E+04
        66  21  2.285556E+05  9.498665E+05  2.179001E+05  2.610003E+05 -8.673286E+03  8.027205E+04
        66  22  2.386102E+03  9.531011E+04  2.676250E+03  2.486272E+05 -2.864211E+04  5.731834E+03
        66  23  6.612594E+03  9.415148E+04  8.159709E+03  2.349155E+05 -2.751547E+04  9.887288E+03
        66  24  1.773791E+04  9.522965E+04  1.806365E+04  2.486090E+05 -8.754202E+03  1.403133E+04
        66  25 -1.124623E+05 -3.997923E+05 -7.635348E+04  2.474595E+05 -2.861921E+04  2.419365E+04
        66  26 -1.525708E+05 -5.767191E+05 -1.165939E+05  2.281428E+05 -2.754794E+04 -1.396295E+04
        66  27 -1.931287E+05 -7.587250E+05 -1.818060E+05  2.362345E+05 -8.832548E+03 -5.211891E+04
        67   1  1.635468E+06  3.292392E+05  3.199881E+05  3.090833E+05  1.406570E+05 -1.108260E+04
        67   2  1.439773E+06  2.255103E+05  1.947723E+05  2.705796E+05  6.886733E+04 -3.552180E+04
        67   3  1.263391E+06  1.613773E+05  1.261167E+05  2.602380E+05 -2.884625E+03 -3.879703E+04
        67   4  6.066860E+05  7.586041E+04  8.044583E+04  2.571945E+05  5.641083E+04 -1.109269E+04
        67   5  6.015079E+05  2.729740E+04  4.097114E+04  2.431162E+05  3.554662E+04 -3.553098E+04
        67   6  6.068091E+05  9.534662E+03  2.277220E+04  2.571942E+05  1.469547E+04 -3.879773E+04
        67   7 -4.211009E+05 -1.775792E+05 -1.591399E+05  2.053919E+05 -2.769704E+04 -1.108877E+04
        67   8 -2.360727E+05 -1.709519E+05 -1.128542E+05  2.156907E+05  2.269600E+03 -3.553725E+04
        67   9 -4.934332E+04 -1.423291E+05 -8.058175E+04  2.541537E+05  3.225768E+04 -3.879861E+04
        67  10  1.635447E+06  3.292337E+05  3.199508E+05  3.090846E+05  2.652034E-10  5.289917E-11
        67  11  1.439768E+06  2.255076E+05  1.947610E+05  2.705816E+05  4.219969E-10  8.714810E-11
        67  12  1.263390E+06  1.613757E+05  1.261138E+05  2.602379E+05  2.764755E-10  1.258740E-10
        67  13  6.066825E+05  7.585942E+04  8.043962E+04  2.571950E+05 -7.933516E-10  2.583782E-12
        67  14  6.015062E+05  2.729570E+04  4.096639E+04  2.431172E+05 -2.661366E-11 -1.518498E-10
        67  15  6.068084E+05  9.532987E+03  2.276896E+04  2.571947E+05  5.580261E-10 -7.936310E-11
        67  16 -4.211017E+05 -1.775795E+05 -1.591416E+05  2.053917E+05 -4.130501E-10 -1.349241E-10
        67  17 -2.360730E+05 -1.709533E+05 -1.128566E+05  2.156908E+05 -2.274730E-10 -3.681865E-10
        67  18 -4.934484E+04 -1.423310E+05 -8.058654E+04  2.541547E+05 -7.088955E-11 -2.894092E-10
        67  19  1.635468E+06  3.292392E+05  3.199881E+05  3.090833E+05 -1.406570E+05  1.108260E+04
        67  20  1.439773E+06  2.255103E+05  1.947723E+05  2.705796E+05 -6.886733E+04  3.552180E+04
        67  21  1.263391E+06  1.613773E+05  1.261167E+05  2.602380E+05  2.884625E+03  3.879703E+04
        67  22  6.066860E+05  7.586041E+04  8.044583E+04  2.571945E+05 -5.641083E+04  1.109269E+04
        67  23  6.015079E+05  2.729740E+04  4.097114E+04  2.431162E+05 -3.554662E+04  3.553098E+04
        67  24  6.068091E+05  9.534662E+03  2.277220E+04  2.571942E+05 -1.469547E+04  3.879773E+04
        67  25 -4.211009E+05 -1.775792E+05 -1.591399E+05  2.053919E+05  2.769704E+04  1.108877E+04
        67  26 -2.360727E+05 -1.709519E+05 -1.128542E+05  2.156907E+05 -2.269600E+03  3.553725E+04
        67  27 -4.934332E+04 -1.423291E+05 -8.058175E+04  2.541537E+05 -3.225768E+04  3.879861E+04
        68   1  1.145273E+06  1.314335E+05  1.000224E+05  2.617951E+05 -7.585192E+03 -3.354937E+04
        68   2  9.581425E+05  8.323729E+04  6.134139E+04  2.447318E+05 -1.914472E+04 -2.425990E+04
        68   3  7.736923E+05  3.950024E+04  3.129728E+04  2.573662E+05 -3.070206E+04 -1.241092E+04
        68   4  6.048558E+05  6.949473E+03  1.747568E+04  2.575388E+05  1.166490E+04 -3.354779E+04
        68   5  6.040901E+05  2.383504E+03  1.080710E+04  2.426902E+05  6.257406E+03 -2.425463E+04
        68   6  6.049027E+05  1.212095E+03  8.509190E+03  2.575397E+05  8.487725E+02 -1.240127E+04
        68   7  6.473133E+04 -1.175483E+05 -6.507599E+04  2.532862E+05  3.089892E+04 -3.354647E+04
        68   8  2.501657E+05 -7.847560E+04 -3.972661E+04  2.406498E+05  3.164568E+04 -2.424953E+04
        68   9  4.361443E+05 -3.707674E+04 -1.427543E+04  2.577133E+05  3.239143E+04 -1.239160E+04
        68  10  1.145273E+06  1.314323E+05  1.000202E+05  2.617949E+05  5.541528E-11  1.883527E-10
        68  11  9.581419E+05  8.323656E+04  6.133959E+04  2.447315E+05  6.129973E-10  2.974493E-10
        68  12  7.736913E+05  3.949982E+04  3.129522E+04  2.573659E+05  1.620582E-10  2.459977E-10
        68  13  6.048553E+05  6.948228E+03  1.747331E+04  2.575391E+05  3.417672E-10  8.293131E-11
        68  14  6.040899E+05  2.382861E+03  1.080592E+04  2.426903E+05 -2.149144E-10  2.394209E-10
        68  15  6.049027E+05  1.211929E+03  8.508900E+03  2.575398E+05  2.011616E-10  2.366743E-10
        68  16  6.473000E+04 -1.175498E+05 -6.507990E+04  2.532871E+05 -2.892150E-10 -9.477625E-11
        68  17  2.501645E+05 -7.847650E+04 -3.972959E+04  2.406504E+05 -7.129061E-10  1.863355E-10
        68  18  4.361431E+05 -3.707719E+04 -1.427769E+04  2.577136E+05 -6.698685E-10  1.908308E-10
        68  19  1.145273E+06  1.314335E+05  1.000224E+05  2.617951E+05  7.585192E+03  3.354937E+04
        68  20  9.581425E+05  8.323729E+04  6.134139E+04  2.447318E+05  1.914472E+04  2.425990E+04
        68  21  7.736923E+05  3.950024E+04  3.129728E+04  2.573662E+05  3.070206E+04  1.241092E+04
        68  22  6.048558E+05  6.949473E+03  1.747568E+04  2.575388E+05 -1.166490E+04  3.354779E+04
        68  23  6.040901E+05  2.383504E+03  1.080710E+04  2.426902E+05 -6.257406E+03  2.425463E+04
        68  24  6.049027E+05  1.212095E+03  8.509190E+03  2.575397E+05 -8.487725E+02  1.240127E+04
        68  25  6.473133E+04 -1.175483E+05 -6.507599E+04  2.532862E+05 -3.089892E+04  3.354647E+04
        68  26  2.501657E+05 -7.847560E+04 -3.972661E+04  2.406498E+05 -3.164568E+04  2.424953E+04
        68  27  4.361443E+05 -3.707674E+04 -1.427543E+04  2.577133E+05 -3.239143E+04  1.239160E+04
        69   1  6.587782E+05  1.324655E+04  1.479345E+04  2.577468E+05 -3.217179E+04 -4.573401E+03
        69   2  4.726798E+05 -2.811865E+04 -1.035087E+04  2.407265E+05 -3.289919E+04  7.635859E+03
        69   3  2.873505E+05 -6.699114E+04 -3.439492E+04  2.534475E+05 -3.362628E+04  1.795304E+04
        69   4  6.048956E+05  1.211589E+03  8.460682E+03  2.575492E+05 -5.772477E+02 -4.563149E+03
        69   5  6.041239E+05  2.334130E+03  1.054197E+04  2.426786E+05 -5.853271E+03  7.643629E+03
        69   6  6.048769E+05  6.739572E+03  1.687787E+04  2.575483E+05 -1.112923E+04  1.795853E+04
        69   7  5.510181E+05 -1.082294E+04  2.131668E+03  2.573515E+05  3.101470E+04 -4.552917E+03
        69   8  7.355868E+05  3.278645E+04  3.143711E+04  2.446311E+05  2.119817E+04  7.651567E+03
        69   9  9.225043E+05  8.046552E+04  6.814981E+04  2.616512E+05  1.137891E+04  1.796431E+04
        69  10  6.587771E+05  1.324625E+04  1.479147E+04  2.577467E+05  5.825499E-10  1.324998E-10
        69  11  4.726786E+05 -2.811900E+04 -1.035301E+04  2.407267E+05  8.145940E-10  2.963284E-11
        69  12  2.873492E+05 -6.699179E+04 -3.439765E+04  2.534480E+05 -5.714537E-10 -6.292453E-11
        69  13  6.048956E+05  1.211566E+03  8.460642E+03  2.575492E+05 -8.744528E-10  3.700364E-11
        69  14  6.041239E+05  2.334058E+03  1.054179E+04  2.426786E+05  5.573491E-10 -8.988250E-11
        69  15  6.048767E+05  6.739193E+03  1.687703E+04  2.575484E+05  3.557362E-10 -1.034873E-10
        69  16  5.510171E+05 -1.082322E+04  2.129823E+03  2.573516E+05 -3.110476E-10  5.525308E-11
        69  17  7.355863E+05  3.278627E+04  3.143616E+04  2.446310E+05 -6.108676E-11 -2.535188E-10
        69  18  9.225041E+05  8.046514E+04  6.814896E+04  2.616510E+05  5.226429E-10 -7.809257E-11
        69  19  6.587782E+05  1.324655E+04  1.479345E+04  2.577468E+05  3.217179E+04  4.573401E+03
        69  20  4.726798E+05 -2.811865E+04 -1.035087E+04  2.407265E+05  3.289919E+04 -7.635859E+03
        69  21  2.873505E+05 -6.699114E+04 -3.439492E+04  2.534475E+05  3.362628E+04 -1.795304E+04
        69  22  6.048956E+05  1.211589E+03  8.460682E+03  2.575492E+05  5.772477E+02  4.563149E+03
        69  23  6.041239E+05  2.334130E+03  1.054197E+04  2.426786E+05  5.853271E+03 -7.643629E+03
        69  24  6.048769E+05  6.739572E+03  1.687787E+04  2.575483E+05  1.112923E+04 -1.795853E+04
        69  25  5.510181E+05 -1.082294E+04  2.131668E+03  2.573515E+05 -3.101470E+04  4.552917E+03
        69  26  7.355868E+05  3.278645E+04  3.143711E+04  2.446311E+05 -2.119817E+04 -7.651567E+03
        69  27  9.225043E+05  8.046552E+04  6.814981E+04  2.616512E+05 -1.137891E+04 -1.796431E+04
        70   1  1.735021E+05 -9.156758E+04 -4.899505E+04  2.543247E+05 -3.523314E+04  2.387984E+04
        70   2 -1.386080E+04 -1.199342E+05 -7.645377E+04  2.166051E+05 -1.493341E+04  2.430876E+04
        70   3 -1.981364E+05 -1.257141E+05 -1.114717E+05  2.074153E+05  5.353326E+03  7.925586E+03
        70   4  6.067550E+05  9.234922E+03  2.194192E+04  2.572764E+05 -1.405439E+04  2.388371E+04
        70   5  6.016847E+05  2.631161E+04  3.939574E+04  2.430132E+05 -3.410970E+04  2.430278E+04
        70   6  6.066597E+05  7.296348E+04  7.729679E+04  2.572718E+05 -5.417257E+04  7.919017E+03
        70   7  1.040195E+06  1.100281E+05  9.287519E+04  2.602301E+05  7.138623E+03  2.388778E+04
        70   8  1.217598E+06  1.725382E+05  1.552304E+05  2.694480E+05 -5.330451E+04  2.429518E+04
        70   9  1.412065E+06  2.716062E+05  2.660357E+05  3.071932E+05 -1.137751E+05  7.902906E+03
        70  10  1.735006E+05 -9.156853E+04 -4.899846E+04  2.543253E+05  2.681585E-11 -5.036929E-11
        70  11 -1.386120E+04 -1.199349E+05 -7.645530E+04  2.166054E+05  5.104215E-10 -8.728361E-11
        70  12 -1.981364E+05 -1.257142E+05 -1.114719E+05  2.074153E+05  5.435640E-11 -3.412093E-11
        70  13  6.067547E+05  9.234256E+03  2.194048E+04  2.572766E+05  5.515595E-10 -5.067973E-11
        70  14  6.016833E+05  2.631067E+04  3.939244E+04  2.430138E+05 -2.659110E-11 -3.586944E-11
        70  15  6.066565E+05  7.296262E+04  7.729116E+04  2.572722E+05  3.362241E-10 -1.260717E-11
        70  16  1.040194E+06  1.100275E+05  9.287402E+04  2.602300E+05  2.767343E-10 -1.149465E-12
        70  17  1.217595E+06  1.725368E+05  1.552240E+05  2.694490E+05 -1.516042E-10  1.347040E-11
        70  18  1.412051E+06  2.716027E+05  2.660113E+05  3.071940E+05 -2.262941E-10 -1.069394E-13
        70  19  1.735021E+05 -9.156758E+04 -4.899505E+04  2.543247E+05  3.523314E+04 -2.387984E+04
        70  20 -1.386080E+04 -1.199342E+05 -7.645377E+04  2.166051E+05  1.493341E+04 -2.430876E+04
        70  21 -1.981364E+05 -1.257141E+05 -1.114717E+05  2.074153E+05 -5.353326E+03 -7.925586E+03
        70  22  6.067550E+05  9.234922E+03  2.194192E+04  2.572764E+05  1.405439E+04 -2.388371E+04
        70  23  6.016847E+05  2.631161E+04  3.939574E+04  2.430132E+05  3.410970E+04 -2.430278E+04
        70  24  6.066597E+05  7.296348E+04  7.729679E+04  2.572718E+05  5.417257E+04 -7.919017E+03
        70  25  1.040195E+06  1.100281E+05  9.287519E+04  2.602301E+05 -7.138623E+03 -2.388778E+04
        70  26  1.217598E+06  1.725382E+05  1.552304E+05  2.694480E+05  5.330451E+04 -2.429518E+04
        70  27  1.412065E+06  2.716062E+05  2.660357E+05  3.071932E+05  1.137751E+05 -7.902906E+03
        71   1 -3.154161E+05 -1.108197E+06 -3.077512E+05  4.392548E+05 -9.574835E+03 -1.129156E+05
        71   2 -1.992408E+05 -8.105271E+05 -1.756417E+05  3.984488E+05 -2.782847E+04 -4.461294E+04
        71   3 -1.155430E+05 -5.298307E+05 -9.617959E+04  4.023621E+05 -2.424716E+04  2.371733E+04
        71   4 -5.728985E+04 -6.423584E+04 -6.134185E+04  4.006086E+05 -9.484355E+03 -4.282262E+04
        71   5 -2.029496E+04 -6.019145E+04 -3.135866E+04  3.782196E+05 -2.780194E+04 -2.682809E+04
        71   6 -6.659887E+03 -6.408993E+04 -1.764042E+04  4.005552E+05 -2.429274E+04 -1.084040E+04
        71   7  2.007668E+05  9.807425E+05  1.850115E+05  3.618962E+05 -9.402721E+03  2.738775E+04
        71   8  1.586193E+05  6.906880E+05  1.128998E+05  3.579650E+05 -2.777659E+04 -9.022205E+03
        71   9  1.022125E+05  4.018673E+05  6.089634E+04  3.987467E+05 -2.433808E+04 -4.542322E+04
        71  10 -3.154197E+05 -1.108211E+06 -3.077754E+05  4.392540E+05 -1.168661E-10 -3.774255E-10
        71  11 -1.992422E+05 -8.105295E+05 -1.756469E+05  3.984478E+05 -9.399811E-11  5.965385E-11
        71  12 -1.155438E+05 -5.298315E+05 -9.618176E+04  4.023626E+05  8.625767E-10  5.666563E-10
        71  13 -5.729044E+04 -6.423783E+04 -6.134547E+04  4.006082E+05  8.120183E-11  1.637821E-10
        71  14 -2.029598E+04 -6.019243E+04 -3.136147E+04  3.782190E+05  5.816230E-11  1.098450E-10
        71  15 -6.660552E+03 -6.409022E+04 -1.764175E+04  4.005550E+05  9.914252E-10  2.018857E-10
        71  16  2.007665E+05  9.807417E+05  1.850099E+05  3.618964E+05  1.393934E-11  4.346106E-10
        71  17  1.586184E+05  6.906877E+05  1.128982E+05  3.579648E+05  4.400331E-10 -7.541406E-11
        71  18  1.022113E+05  4.018649E+05  6.089135E+04  3.987458E+05  7.238045E-11 -5.620522E-10
        71  19 -3.154161E+05 -1.108197E+06 -3.077512E+05  4.392548E+05  9.574835E+03  1.129156E+05
        71  20 -1.992408E+05 -8.105271E+05 -1.756417E+05  3.984488E+05  2.782847E+04  4.461294E+04
        71  21 -1.155430E+05 -5.298307E+05 -9.617959E+04  4.023621E+05  2.424716E+04 -2.371733E+04
        71  22 -5.728985E+04 -6.423584E+04 -6.134185E+04  4.006086E+05  9.484355E+03  4.282262E+04
        71  23 -2.029496E+04 -6.019145E+04 -3.135866E+04  3.782196E+05  2.780194E+04  2.682809E+04
        71  24 -6.659887E+03 -6.408993E+04 -1.764042E+04  4.005552E+05  2.429274E+04  1.084040E+04
        71  25  2.007668E+05  9.807425E+05  1.850115E+05  3.618962E+05  9.402721E+03 -2.738775E+04
        71  26  1.586193E+05  6.906880E+05  1.128998E+05  3.579650E+05  2.777659E+04  9.022205E+03
        71  27  1.022125E+05  4.018673E+05  6.089634E+04  3.987467E+05  2.433808E+04  4.542322E+04
        72   1 -7.149478E+04 -3.483104E+05 -6.206920E+04  4.037817E+05 -1.474758E+04  2.758262E+04
        72   2 -8.181562E+02 -5.847243E+04 -8.590023E+03  3.787489E+05  2.884977E+02  3.207288E+04
        72   3  6.671325E+04  2.300116E+05  4.115331E+04  3.998773E+05  1.530612E+04  3.656511E+04
        72   4 -4.685248E+03 -6.262106E+04 -1.373455E+04  4.008759E+05 -1.479737E+04 -8.502427E+03
        72   5 -1.601677E+03 -6.189981E+04 -9.067077E+03  3.777932E+05  2.389243E+02 -3.974309E+03
        72   6 -1.666356E+03 -6.262162E+04 -8.162916E+03  4.008724E+05  1.525673E+04  5.538576E+02
        72   7  6.212071E+04  2.231515E+05  3.460238E+04  3.979687E+05 -1.484680E+04 -4.460355E+04
        72   8 -2.384497E+03 -6.532438E+04 -9.539247E+03  3.768374E+05  1.894616E+02 -4.002131E+04
        72   9 -7.004976E+04 -3.551676E+05 -5.747699E+04  4.018671E+05  1.520720E+04 -3.544098E+04
        72  10 -7.149522E+04 -3.483112E+05 -6.207104E+04  4.037820E+05  2.572779E-10 -6.136595E-10
        72  11 -8.184325E+02 -5.847354E+04 -8.591956E+03  3.787489E+05 -5.993612E-12 -2.458854E-10
        72  12  6.671264E+04  2.300101E+05  4.115036E+04  3.998768E+05 -5.741515E-10  9.571910E-12
        72  13 -4.685502E+03 -6.262120E+04 -1.373509E+04  4.008758E+05  1.029000E-10  1.960008E-10
        72  14 -1.601681E+03 -6.189983E+04 -9.067107E+03  3.777932E+05  2.533431E-10  1.282224E-10
        72  15 -1.666606E+03 -6.262168E+04 -8.163354E+03  4.008724E+05 -2.755953E-10  1.943308E-10
        72  16  6.211994E+04  2.231493E+05  3.459823E+04  3.979682E+05  1.957643E-10  7.486755E-10
        72  17 -2.384927E+03 -6.532610E+04 -9.542257E+03  3.768374E+05  1.608013E-10  3.217173E-10
        72  18 -7.005035E+04 -3.551690E+05 -5.747979E+04  4.018675E+05  6.808977E-10 -4.498595E-11
        72  19 -7.149478E+04 -3.483104E+05 -6.206920E+04  4.037817E+05  1.474758E+04 -2.758262E+04
        72  20 -8.181562E+02 -5.847243E+04 -8.590023E+03  3.787489E+05 -2.884977E+02 -3.207288E+04
        72  21  6.671325E+04  2.300116E+05  4.115331E+04  3.998773E+05 -1.530612E+04 -3.656511E+04
        72  22 -4.685248E+03 -6.262106E+04 -1.373455E+04  4.008759E+05  1.479737E+04  8.502427E+03
        72  23 -1.601677E+03 -6.189981E+04 -9.067077E+03  3.777932E+05 -2.389243E+02  3.974309E+03
        72  24 -1.666356E+03 -6.262162E+04 -8.162916E+03  4.008724E+05 -1.525673E+04 -5.538576E+02
        72  25  6.212071E+04  2.231515E+05  3.460238E+04  3.979687E+05  1.484680E+04  4.460355E+04
        72  26 -2.384497E+03 -6.532438E+04 -9.539247E+03  3.768374E+05 -1.894616E+02  4.002131E+04
        72  27 -7.004976E+04 -3.551676E+05 -5.747699E+04  4.018671E+05 -1.520720E+04  3.544098E+04
        73   1  1.081697E+05  4.098267E+05  7.079522E+04  4.001842E+05  2.477728E+04  3.632835E+04
        73   2  1.733958E+05  6.961452E+05  1.328325E+05  3.710906E+05  2.809522E+04 -9.970645E+03
        73   3  2.390594E+05  9.886534E+05  2.250912E+05  3.867003E+05  9.465617E+03 -5.628381E+04
        73   4 -2.282242E+03 -6.300004E+04 -8.751426E+03  4.005496E+05  2.473206E+04  1.850546E+03
        73   5 -7.151735E+03 -6.155635E+04 -1.260002E+04  3.782041E+05  2.812070E+04  8.272008E+03
        73   6 -2.072894E+04 -6.314606E+04 -2.282278E+04  4.005688E+05  9.548351E+03  1.470047E+04
        73   7 -1.127453E+05 -5.356040E+05 -8.830067E+04  4.009146E+05  2.468678E+04 -3.260187E+04
        73   8 -1.877328E+05 -8.187048E+05 -1.580576E+05  3.853085E+05  2.814662E+04  2.649293E+04
        73   9 -2.805929E+05 -1.113918E+06 -2.707940E+05  4.144132E+05  9.634354E+03  8.556531E+04
        73  10  1.081687E+05  4.098252E+05  7.079159E+04  4.001835E+05  3.524047E-10 -1.380302E-10
        73  11  1.733949E+05  6.961449E+05  1.328308E+05  3.710908E+05  6.904428E-10 -1.406143E-10
        73  12  2.390585E+05  9.886500E+05  2.250851E+05  3.867007E+05 -3.393987E-10 -1.526307E-10
        73  13 -2.282899E+03 -6.300020E+04 -8.752582E+03  4.005496E+05  8.140588E-10  2.028033E-10
        73  14 -7.152602E+03 -6.155663E+04 -1.260163E+04  3.782040E+05  4.089775E-10  4.418360E-11
        73  15 -2.072910E+04 -6.314632E+04 -2.282335E+04  4.005687E+05  1.639872E-10  1.330715E-10
        73  16 -1.127462E+05 -5.356053E+05 -8.830382E+04  4.009152E+05  2.202291E-10  2.541069E-10
        73  17 -1.877338E+05 -8.187058E+05 -1.580604E+05  3.853079E+05  8.194541E-10  9.090380E-12
        73  18 -2.805950E+05 -1.113926E+06 -2.708079E+05  4.144125E+05 -1.379823E-10  5.847320E-11
        73  19  1.081697E+05  4.098267E+05  7.079522E+04  4.001842E+05 -2.477728E+04 -3.632835E+04
        73  20  1.733958E+05  6.961452E+05  1.328325E+05  3.710906E+05 -2.809522E+04  9.970645E+03
        73  21  2.390594E+05  9.886534E+05  2.250912E+05  3.867003E+05 -9.465617E+03  5.628381E+04
        73  22 -2.282242E+03 -6.300004E+04 -8.751426E+03  4.005496E+05 -2.473206E+04 -1.850546E+03
        73  23 -7.151735E+03 -6.155635E+04 -1.260002E+04  3.782041E+05 -2.812070E+04 -8.272008E+03
        73  24 -2.072894E+04 -6.314606E+04 -2.282278E+04  4.005688E+05 -9.548351E+03 -1.470047E+04
        73  25 -1.127453E+05 -5.356040E+05 -8.830067E+04  4.009146E+05 -2.468678E+04  3.260187E+04
        73  26 -1.877328E+05 -8.187048E+05 -1.580576E+05  3.853085E+05 -2.814662E+04 -2.649293E+04
        73  27 -2.805929E+05 -1.113918E+06 -2.707940E+05  4.144132E+05 -9.634354E+03 -8.556531E+04
        74   1  1.324670E+06  2.512662E+05  2.452970E+05  2.392789E+05  1.102551E+05 -7.967999E+03
        74   2  1.176931E+06  1.672340E+05  1.474704E+05  2.071161E+05  5.475572E+04 -2.542367E+04
        74   3  1.044844E+06  1.167664E+05  9.411807E+04  1.961765E+05 -7.217200E+02 -2.746096E+04
        74   4  5.767233E+05  6.698494E+04  7.097412E+04  1.934852E+05  4.974805E+04 -7.976815E+03
        74   5  5.721508E+05  2.413836E+04  3.616376E+04  1.828763E+05  3.133049E+04 -2.542955E+04
        74   6  5.767962E+05  8.445849E+03  2.012543E+04  1.934861E+05  1.291992E+04 -2.746080E+04
        74   7 -1.706956E+05 -1.173261E+05 -1.033717E+05  1.477469E+05 -1.068671E+04 -7.976736E+03
        74   8 -3.227315E+04 -1.189756E+05 -7.515558E+04  1.586606E+05  7.927436E+03 -2.543360E+04
        74   9  1.089661E+05 -9.988544E+04 -5.387200E+04  1.907978E+05  2.655167E+04 -2.746074E+04
        74  10  1.324657E+06  2.512629E+05  2.452741E+05  2.392796E+05 -4.161160E-10  9.317822E-11
        74  11  1.176928E+06  1.672325E+05  1.474635E+05  2.071172E+05  4.244518E-12  3.995764E-10
        74  12  1.044844E+06  1.167656E+05  9.411665E+04  1.961765E+05 -7.288218E-10  4.928323E-10
        74  13  5.767206E+05  6.698421E+04  7.096935E+04  1.934855E+05 -2.940930E-10  1.034097E-10
        74  14  5.721496E+05  2.413740E+04  3.616070E+04  1.828769E+05 -2.692328E-10  2.577985E-10
        74  15  5.767958E+05  8.444995E+03  2.012370E+04  1.934864E+05  3.544897E-10  3.041510E-10
        74  16 -1.706958E+05 -1.173262E+05 -1.033721E+05  1.477468E+05  3.069674E-10 -2.273238E-11
        74  17 -3.227339E+04 -1.189763E+05 -7.515691E+04  1.586607E+05  1.073076E-09  1.961527E-10
        74  18  1.089651E+05 -9.988644E+04 -5.387474E+04  1.907984E+05  5.654043E-10  1.107120E-10
        74  19  1.324670E+06  2.512662E+05  2.452970E+05  2.392789E+05 -1.102551E+05  7.967999E+03
        74  20  1.176931E+06  1.672340E+05  1.474704E+05  2.071161E+05 -5.475572E+04  2.542367E+04
        74  21  1.044844E+06  1.167664E+05  9.411807E+04  1.961765E+05  7.217200E+02  2.746096E+04
        74  22  5.767233E+05  6.698494E+04  7.097412E+04  1.934852E+05 -4.974805E+04  7.976815E+03
        74  23  5.721508E+05  2.413836E+04  3.616376E+04  1.828763E+05 -3.133049E+04  2.542955E+04
        74  24  5.767962E+05  8.445849E+03  2.012543E+04  1.934861E+05 -1.291992E+04  2.746080E+04
        74  25 -1.706956E+05 -1.173261E+05 -1.033717E+05  1.477469E+05  1.068671E+04  7.976736E+03
        74  26 -3.227315E+04 -1.189756E+05 -7.515558E+04  1.586606E+05 -7.927436E+03  2.543360E+04
        74  27  1.089661E+05 -9.988544E+04 -5.387200E+04  1.907978E+05 -2.655167E+04  2.746074E+04
        75   1  9.557852E+05  9.392509E+04  7.394635E+04  1.974932E+05 -4.617207E+03 -2.343470E+04
        75   2  8.149509E+05  5.710597E+04  4.421629E+04  1.843598E+05 -1.387774E+04 -1.632744E+04
        75   3  6.762952E+05  2.406333E+04  2.145506E+04  1.935730E+05 -2.313708E+04 -7.371952E+03
        75   4  5.750702E+05  6.153029E+03  1.546858E+04  1.937380E+05  1.023966E+04 -2.343327E+04
        75   5  5.743864E+05  2.114097E+03  9.630772E+03  1.825649E+05  5.420718E+03 -1.632398E+04
        75   6  5.750950E+05  1.083596E+03  7.682218E+03  1.937387E+05  6.010851E+02 -7.366150E+03
        75   7  1.945004E+05 -8.162587E+04 -4.301156E+04  1.899852E+05  2.508779E+04 -2.343201E+04
        75   8  3.338811E+05 -5.288020E+04 -2.495424E+04  1.807707E+05  2.471202E+04 -1.632063E+04
        75   9  4.739063E+05 -2.189628E+04 -6.088612E+03  1.939043E+05  2.433556E+04 -7.360335E+03
        75  10  9.557851E+05  9.392450E+04  7.394528E+04  1.974931E+05 -3.540137E-10  4.572950E-10
        75  11  8.149506E+05  5.710563E+04  4.421542E+04  1.843596E+05 -2.777681E-10  1.222382E-10
        75  12  6.762946E+05  2.406313E+04  2.145395E+04  1.935729E+05 -5.883733E-10 -5.591191E-10
        75  13  5.750699E+05  6.152411E+03  1.546735E+04  1.937382E+05  4.360329E-10  2.877512E-10
        75  14  5.743863E+05  2.113803E+03  9.630216E+03  1.825649E+05  4.844474E-10  1.316265E-10
        75  15  5.750949E+05  1.083538E+03  7.682116E+03  1.937387E+05  5.902250E-10 -4.978419E-10
        75  16  1.944996E+05 -8.162663E+04 -4.301377E+04  1.899856E+05  9.998719E-10  1.496771E-10
        75  17  3.338804E+05 -5.288065E+04 -2.495589E+04  1.807710E+05  8.827005E-10  7.848806E-11
        75  18  4.739056E+05 -2.189650E+04 -6.089826E+03  1.939045E+05  6.229266E-10 -4.181921E-10
        75  19  9.557852E+05  9.392509E+04  7.394635E+04  1.974932E+05  4.617207E+03  2.343470E+04
        75  20  8.149509E+05  5.710597E+04  4.421629E+04  1.843598E+05  1.387774E+04  1.632744E+04
        75  21  6.762952E+05  2.406333E+04  2.145506E+04  1.935730E+05  2.313708E+04  7.371952E+03
        75  22  5.750702E+05  6.153029E+03  1.546858E+04  1.937380E+05 -1.023966E+04  2.343327E+04
        75  23  5.743864E+05  2.114097E+03  9.630772E+03  1.825649E+05 -5.420718E+03  1.632398E+04
        75  24  5.750950E+05  1.083596E+03  7.682218E+03  1.937387E+05 -6.010851E+02  7.366150E+03
        75  25  1.945004E+05 -8.162587E+04 -4.301156E+04  1.899852E+05 -2.508779E+04  2.343201E+04
        75  26  3.338811E+05 -5.288020E+04 -2.495424E+04  1.807707E+05 -2.471202E+04  1.632063E+04
        75  27  4.739063E+05 -2.189628E+04 -6.088612E+03  1.939043E+05 -2.433556E+04  7.360335E+03
        76   1  5.898696E+05  4.320299E+03  9.093547E+03  1.939197E+05 -2.445123E+04 -1.475834E+03
        76   2  4.497653E+05 -2.658231E+04 -9.422781E+03  1.807426E+05 -2.571121E+04  7.667775E+03
        76   3  3.104607E+05 -5.506432E+04 -2.651154E+04  1.899343E+05 -2.697076E+04  1.531074E+04
        76   4  5.750995E+05  1.089481E+03  7.698892E+03  1.937434E+05 -6.904939E+02 -1.469790E+03
        76   5  5.743904E+05  2.158584E+03  9.724088E+03  1.825591E+05 -5.557240E+03  7.672172E+03
        76   6  5.750858E+05  6.274066E+03  1.567796E+04  1.937427E+05 -1.042380E+04  1.531364E+04
        76   7  5.603310E+05 -2.141041E+03  6.306361E+03  1.935671E+05  2.306971E+04 -1.463759E+03
        76   8  6.990318E+05  3.089895E+04  2.887214E+04  1.843759E+05  1.460062E+04  7.676687E+03
        76   9  8.397810E+05  6.760915E+04  5.786668E+04  1.975528E+05  6.129954E+03  1.531674E+04
        76  10  5.898689E+05  4.320136E+03  9.092421E+03  1.939196E+05 -6.791054E-08 -1.036897E-09
        76  11  4.497646E+05 -2.658255E+04 -9.424133E+03  1.807427E+05  2.578327E-10 -1.457443E-09
        76  12  3.104599E+05 -5.506477E+04 -2.651335E+04  1.899346E+05  6.853308E-08 -1.056531E-09
        76  13  5.750995E+05  1.089479E+03  7.698887E+03  1.937434E+05  1.086137E-09 -1.010894E-09
        76  14  5.743903E+05  2.158513E+03  9.723919E+03  1.825591E+05  2.501962E-10 -1.445351E-09
        76  15  5.750856E+05  6.273785E+03  1.567731E+04  1.937428E+05  3.748689E-10 -9.698885E-10
        76  16  5.603304E+05 -2.141186E+03  6.305358E+03  1.935671E+05  6.859312E-08 -9.407722E-10
        76  17  6.990316E+05  3.089883E+04  2.887163E+04  1.843758E+05  2.827439E-10 -1.260782E-09
        76  18  8.397809E+05  6.760889E+04  5.786617E+04  1.975527E+05 -6.809866E-08 -7.200433E-10
        76  19  5.898696E+05  4.320299E+03  9.093547E+03  1.939197E+05  2.445123E+04  1.475834E+03
        76  20  4.497653E+05 -2.658231E+04 -9.422781E+03  1.807426E+05  2.571121E+04 -7.667775E+03
        76  21  3.104607E+05 -5.506432E+04 -2.651154E+04  1.899343E+05  2.697076E+04 -1.531074E+04
        76  22  5.750995E+05  1.089481E+03  7.698892E+03  1.937434E+05  6.904939E+02  1.469790E+03
        76  23  5.743904E+05  2.158584E+03  9.724088E+03  1.825591E+05  5.557240E+03 -7.672172E+03
        76  24  5.750858E+05  6.274066E+03  1.567796E+04  1.937427E+05  1.042380E+04 -1.531364E+04
        76  25  5.603310E+05 -2.141041E+03  6.306361E+03  1.935671E+05 -2.306971E+04  1.463759E+03
        76  26  6.990318E+05  3.089895E+04  2.887214E+04  1.843759E+05 -1.460062E+04 -7.676687E+03
        76  27  8.397810E+05  6.760915E+04  5.786668E+04  1.975528E+05 -6.129954E+03 -1.531674E+04
        77   1  2.251191E+05 -7.312906E+04 -3.669837E+04  1.907942E+05 -2.865573E+04  1.969096E+04
        77   2  8.337085E+04 -9.147887E+04 -5.482473E+04  1.582108E+05 -1.577768E+04  1.958550E+04
        77   3 -5.447703E+04 -8.772769E+04 -7.580237E+04  1.470468E+05 -2.906771E+03  6.328344E+03
        77   4  5.768419E+05  8.608074E+03  2.041514E+04  1.935298E+05 -1.314066E+04  1.969288E+04
        77   5  5.721360E+05  2.455092E+04  3.671635E+04  1.828213E+05 -3.183596E+04  1.958152E+04
        77   6  5.767793E+05  6.806143E+04  7.207675E+04  1.935265E+05 -5.053557E+04  6.324176E+03
        77   7  9.286878E+05  9.033908E+04  7.752611E+04  1.962669E+05  2.382896E+03  1.969494E+04
        77   8  1.061134E+06  1.405693E+05  1.282484E+05  2.074516E+05 -4.790655E+04  1.957628E+04
        77   9  1.208412E+06  2.238316E+05  2.199384E+05  2.400538E+05 -9.821247E+04  6.312887E+03
        77  10  2.251182E+05 -7.312970E+04 -3.670064E+04  1.907947E+05  1.151815E-09 -5.684828E-10
        77  11  8.337048E+04 -9.147935E+04 -5.482592E+04  1.582111E+05  9.318006E-10  2.971664E-11
        77  12 -5.447705E+04 -8.772773E+04 -7.580246E+04  1.470468E+05  8.114565E-10  5.567123E-11
        77  13  5.768416E+05  8.607611E+03  2.041408E+04  1.935300E+05  3.779324E-10 -3.306012E-10
        77  14  5.721348E+05  2.455024E+04  3.671372E+04  1.828218E+05 -4.966487E-10  1.878923E-10
        77  15  5.767766E+05  6.806070E+04  7.207188E+04  1.935268E+05  2.099568E-10  9.998379E-11
        77  16  9.286876E+05  9.033866E+04  7.752537E+04  1.962669E+05 -1.631414E-10 -1.537871E-10
        77  17  1.061131E+06  1.405683E+05  1.282434E+05  2.074523E+05 -1.012330E-09  3.180599E-10
        77  18  1.208402E+06  2.238290E+05  2.199202E+05  2.400543E+05 -1.274974E-09  1.532282E-10
        77  19  2.251191E+05 -7.312906E+04 -3.669837E+04  1.907942E+05  2.865573E+04 -1.969096E+04
        77  20  8.337085E+04 -9.147887E+04 -5.482473E+04  1.582108E+05  1.577768E+04 -1.958550E+04
        77  21 -5.447703E+04 -8.772769E+04 -7.580237E+04  1.470468E+05  2.906771E+03 -6.328344E+03
        77  22  5.768419E+05  8.608074E+03  2.041514E+04  1.935298E+05  1.314066E+04 -1.969288E+04
        77  23  5.721360E+05  2.455092E+04  3.671635E+04  1.828213E+05  3.183596E+04 -1.958152E+04
        77  24  5.767793E+05  6.806143E+04  7.207675E+04  1.935265E+05  5.053557E+04 -6.324176E+03
        77  25  9.286878E+05  9.033908E+04  7.752611E+04  1.962669E+05 -2.382896E+03 -1.969494E+04
        77  26  1.061134E+06  1.405693E+05  1.282484E+05  2.074516E+05  4.790655E+04 -1.957628E+04
        77  27  1.208412E+06  2.238316E+05  2.199384E+05  2.400538E+05  9.821247E+04 -6.312887E+03
        78   1 -3.055350E+05 -1.059554E+06 -2.987161E+05  4.052448E+05 -9.083846E+03 -1.147879E+05
        78   2 -1.920553E+05 -7.899685E+05 -1.711392E+05  3.642287E+05 -2.670647E+04 -4.797365E+04
        78   3 -1.134562E+05 -5.377620E+05 -9.583453E+04  3.635004E+05 -2.399417E+04  1.886774E+04
        78   4 -6.479960E+04 -8.571082E+04 -6.911680E+04  3.613874E+05 -9.010655E+03 -4.804044E+04
        78   5 -2.314615E+04 -8.116891E+04 -3.550104E+04  3.412159E+05 -2.668349E+04 -2.994278E+04
        78   6 -7.880726E+03 -8.558541E+04 -2.027292E+04  3.613384E+05 -2.402765E+04 -1.184873E+04
        78   7  1.758777E+05  8.890198E+05  1.604350E+05  3.174603E+05 -8.946991E+03  1.881134E+04
        78   8  1.457356E+05  6.281169E+05  1.001157E+05  3.181759E+05 -2.666187E+04 -1.189177E+04
        78   9  9.768460E+04  3.667951E+05  5.528594E+04  3.591746E+05 -2.406090E+04 -4.258683E+04
        78  10 -3.055386E+05 -1.059568E+06 -2.987411E+05  4.052440E+05 -3.988075E-10 -3.473571E-10
        78  11 -1.920567E+05 -7.899712E+05 -1.711448E+05  3.642276E+05  3.309655E-10 -2.136940E-10
        78  12 -1.134569E+05 -5.377625E+05 -9.583629E+04  3.635008E+05 -3.636851E-10 -6.738172E-11
        78  13 -6.480031E+04 -8.571332E+04 -6.912128E+04  3.613871E+05  5.974946E-10  2.147965E-10
        78  14 -2.314715E+04 -8.117007E+04 -3.550406E+04  3.412152E+05 -6.744497E-10 -3.055803E-10
        78  15 -7.881384E+03 -8.558572E+04 -2.027427E+04  3.613381E+05 -2.441606E-10  3.678409E-10
        78  16  1.758776E+05  8.890194E+05  1.604342E+05  3.174604E+05  5.379355E-10  4.263863E-10
        78  17  1.457348E+05  6.281165E+05  1.001141E+05  3.181757E+05  2.003578E-10 -1.146046E-11
        78  18  9.768349E+04  3.667930E+05  5.528145E+04  3.591737E+05 -3.862137E-10 -1.296606E-11
        78  19 -3.055350E+05 -1.059554E+06 -2.987161E+05  4.052448E+05  9.083846E+03  1.147879E+05
        78  20 -1.920553E+05 -7.899685E+05 -1.711392E+05  3.642287E+05  2.670647E+04  4.797365E+04
        78  21 -1.134562E+05 -5.377620E+05 -9.583453E+04  3.635004E+05  2.399417E+04 -1.886774E+04
        78  22 -6.479960E+04 -8.571082E+04 -6.911680E+04  3.613874E+05  9.010655E+03  4.804044E+04
        78  23 -2.314615E+04 -8.116891E+04 -3.550104E+04  3.412159E+05  2.668349E+04  2.994278E+04
        78  24 -7.880726E+03 -8.558541E+04 -2.027292E+04  3.613384E+05  2.402765E+04  1.184873E+04
        78  25  1.758777E+05  8.890198E+05  1.604350E+05  3.174603E+05  8.946991E+03 -1.881134E+04
        78  26  1.457356E+05  6.281169E+05  1.001157E+05  3.181759E+05  2.666187E+04  1.189177E+04
        78  27  9.768460E+04  3.667951E+05  5.528594E+04  3.591746E+05  2.406090E+04  4.258683E+04
        79   1 -7.327032E+04 -3.736677E+05 -6.419259E+04  3.649995E+05 -1.550917E+04  2.302047E+04
        79   2 -8.943358E+03 -1.119271E+05 -1.521906E+04  3.416383E+05 -2.026675E+03  2.900586E+04
        79   3  5.137510E+04  1.480548E+05  2.883640E+04  3.599219E+05  1.160818E+04  3.499330E+04
        79   4 -5.688962E+03 -8.396434E+04 -1.602358E+04  3.616397E+05 -1.554619E+04 -9.129133E+03
        79   5 -2.377009E+03 -8.308097E+04 -1.122733E+04  3.408155E+05 -2.064262E+03 -3.513997E+03
        79   6 -3.006224E+03 -8.395908E+04 -1.109257E+04  3.616371E+05  1.157002E+04  2.100865E+03
        79   7  6.188864E+04  2.058242E+05  3.214678E+04  3.582782E+05 -1.558285E+04 -4.129324E+04
        79   8  4.189873E+03 -5.423172E+04 -7.231640E+03  3.399927E+05 -2.101761E+03 -3.603530E+04
        79   9 -5.738984E+04 -3.159178E+05 -5.101930E+04  3.633517E+05  1.153166E+04 -3.077966E+04
        79  10 -7.327072E+04 -3.736683E+05 -6.419404E+04  3.649998E+05  9.958274E-11 -7.083381E-10
        79  11 -8.943589E+03 -1.119280E+05 -1.522065E+04  3.416384E+05 -1.484638E-10 -7.299410E-11
        79  12  5.137463E+04  1.480534E+05  2.883385E+04  3.599216E+05 -5.856812E-10  6.961692E-10
        79  13 -5.689244E+03 -8.396449E+04 -1.602419E+04  3.616396E+05 -2.717623E-10  3.392203E-10
        79  14 -2.377017E+03 -8.308098E+04 -1.122736E+04  3.408155E+05 -1.003522E-09 -2.749305E-10
        79  15 -3.006369E+03 -8.395912E+04 -1.109283E+04  3.616371E+05 -7.331272E-10  3.673632E-10
        79  16  6.188792E+04  2.058223E+05  3.214312E+04  3.582777E+05 -3.756139E-10  9.188704E-10
        79  17  4.189520E+03 -5.423312E+04 -7.234089E+03  3.399926E+05 -1.519803E-09 -8.818201E-11
        79  18 -5.739024E+04 -3.159188E+05 -5.102133E+04  3.633520E+05 -7.699354E-11 -7.646472E-10
        79  19 -7.327032E+04 -3.736677E+05 -6.419259E+04  3.649995E+05  1.550917E+04 -2.302047E+04
        79  20 -8.943358E+03 -1.119271E+05 -1.521906E+04  3.416383E+05  2.026675E+03 -2.900586E+04
        79  21  5.137510E+04  1.480548E+05  2.883640E+04  3.599219E+05 -1.160818E+04 -3.499330E+04
        79  22 -5.688962E+03 -8.396434E+04 -1.602358E+04  3.616397E+05  1.554619E+04  9.129133E+03
        79  23 -2.377009E+03 -8.308097E+04 -1.122733E+04  3.408155E+05  2.064262E+03  3.513997E+03
        79  24 -3.006224E+03 -8.395908E+04 -1.109257E+04  3.616371E+05 -1.157002E+04 -2.100865E+03
        79  25  6.188864E+04  2.058242E+05  3.214678E+04  3.582782E+05  1.558285E+04  4.129324E+04
        79  26  4.189873E+03 -5.423172E+04 -7.231640E+03  3.399927E+05  2.101761E+03  3.603530E+04
        79  27 -5.738984E+04 -3.159178E+05 -5.101930E+04  3.633517E+05 -1.153166E+04  3.077966E+04
        80   1  8.831261E+04  3.099129E+05  5.465270E+04  3.604287E+05  2.023955E+04  3.546481E+04
        80   2  1.439179E+05  5.692751E+05  1.068357E+05  3.297300E+05  2.375771E+04 -9.408608E+02
        80   3  1.940864E+05  8.320684E+05  1.813407E+05  3.394132E+05  8.109371E+03 -3.735705E+04
        80   4 -3.989858E+03 -8.461302E+04 -1.240651E+04  3.613575E+05  2.020444E+04  3.898940E+03
        80   5 -1.149020E+04 -8.235942E+04 -1.889904E+04  3.411753E+05  2.377496E+04  1.352339E+04
        80   6 -3.241722E+04 -8.472713E+04 -3.502672E+04  3.613822E+05  8.168415E+03  2.315197E+04
        80   7 -9.630003E+04 -4.789837E+05 -7.946706E+04  3.622856E+05  2.016922E+04 -2.764752E+04
        80   8 -1.669229E+05 -7.335851E+05 -1.446527E+05  3.526081E+05  2.379276E+04  2.797281E+04
        80   9 -2.589771E+05 -1.000741E+06 -2.514381E+05  3.833181E+05  8.231803E+03  8.357220E+04
        80  10  8.831183E+04  3.099115E+05  5.464957E+04  3.604282E+05 -4.287257E-10  3.874857E-10
        80  11  1.439173E+05  5.692749E+05  1.068347E+05  3.297300E+05 -1.386568E-10  2.708018E-10
        80  12  1.940859E+05  8.320669E+05  1.813379E+05  3.394135E+05 -3.179492E-13  1.449221E-10
        80  13 -3.990300E+03 -8.461315E+04 -1.240731E+04  3.613574E+05 -4.176736E-12  2.620651E-10
        80  14 -1.149086E+04 -8.235977E+04 -1.890044E+04  3.411750E+05 -1.786016E-10 -2.814658E-10
        80  15 -3.241743E+04 -8.472772E+04 -3.502785E+04  3.613820E+05  1.991932E-10  2.588656E-10
        80  16 -9.630067E+04 -4.789846E+05 -7.946927E+04  3.622860E+05 -4.281453E-10 -2.698913E-10
        80  17 -1.669238E+05 -7.335861E+05 -1.446552E+05  3.526076E+05 -2.308512E-10 -5.446816E-10
        80  18 -2.589790E+05 -1.000749E+06 -2.514514E+05  3.833176E+05 -8.787266E-11 -1.822313E-10
        80  19  8.831261E+04  3.099129E+05  5.465270E+04  3.604287E+05 -2.023955E+04 -3.546481E+04
        80  20  1.439179E+05  5.692751E+05  1.068357E+05  3.297300E+05 -2.375771E+04  9.408608E+02
        80  21  1.940864E+05  8.320684E+05  1.813407E+05  3.394132E+05 -8.109371E+03  3.735705E+04
        80  22 -3.989858E+03 -8.461302E+04 -1.240651E+04  3.613575E+05 -2.020444E+04 -3.898940E+03
        80  23 -1.149020E+04 -8.235942E+04 -1.889904E+04  3.411753E+05 -2.377496E+04 -1.352339E+04
        80  24 -3.241722E+04 -8.472713E+04 -3.502672E+04  3.613822E+05 -8.168415E+03 -2.315197E+04
        80  25 -9.630003E+04 -4.789837E+05 -7.946706E+04  3.622856E+05 -2.016922E+04  2.764752E+04
        80  26 -1.669229E+05 -7.335851E+05 -1.446527E+05  3.526081E+05 -2.379276E+04 -2.797281E+04
        80  27 -2.589771E+05 -1.000741E+06 -2.514381E+05  3.833181E+05 -8.231803E+03 -8.357220E+04
        81   1  1.092732E+06  1.984200E+05  1.939008E+05  1.911081E+05  8.731559E+04 -6.192388E+03
        81   2  9.751695E+05  1.310152E+05  1.161316E+05  1.651738E+05  4.336372E+04 -1.970419E+04
        81   3  8.701083E+05  9.065127E+04  7.370498E+04  1.561450E+05 -5.757150E+02 -2.115087E+04
        81   4  5.081635E+05  5.435376E+04  5.757585E+04  1.539616E+05  4.033946E+04 -6.198384E+03
        81   5  5.044514E+05  1.959458E+04  2.934797E+04  1.455105E+05  2.539290E+04 -1.970794E+04
        81   6  5.082103E+05  6.858543E+03  1.635196E+04  1.539624E+05  1.045019E+04 -2.115061E+04
        81   7 -7.608214E+04 -8.973029E+04 -7.876324E+04  1.168503E+05 -6.592817E+03 -6.198774E+03
        81   8  3.394941E+04 -9.183704E+04 -5.744347E+04  1.258624E+05  7.435324E+03 -1.971056E+04
        81   9  1.464427E+05 -7.694061E+04 -4.100393E+04  1.517812E+05  2.146991E+04 -2.115043E+04
        81  10  1.092723E+06  1.984179E+05  1.938864E+05  1.911085E+05  1.599253E-10  3.239092E-11
        81  11  9.751674E+05  1.310143E+05  1.161274E+05  1.651745E+05 -4.075979E-11  5.662002E-11
        81  12  8.701082E+05  9.065079E+04  7.370414E+04  1.561450E+05  3.232054E-10 -2.249701E-11
        81  13  5.081618E+05  5.435328E+04  5.757272E+04  1.539618E+05  2.236401E-11 -2.922753E-11
        81  14  5.044506E+05  1.959399E+04  2.934603E+04  1.455109E+05  3.991224E-10 -1.083295E-10
        81  15  5.082101E+05  6.858033E+03  1.635091E+04  1.539626E+05 -3.883841E-10 -5.511884E-11
        81  16 -7.608220E+04 -8.973034E+04 -7.876339E+04  1.168503E+05 -1.260886E-10 -1.512892E-11
        81  17  3.394925E+04 -9.183747E+04 -5.744431E+04  1.258625E+05 -1.695621E-11 -1.894584E-10
        81  18  1.464421E+05 -7.694122E+04 -4.100563E+04  1.517815E+05  1.345143E-10 -8.297289E-11
        81  19  1.092732E+06  1.984200E+05  1.939008E+05  1.911081E+05 -8.731559E+04  6.192388E+03
        81  20  9.751695E+05  1.310152E+05  1.161316E+05  1.651738E+05 -4.336372E+04  1.970419E+04
        81  21  8.701083E+05  9.065127E+04  7.370498E+04  1.561450E+05  5.757150E+02  2.115087E+04
        81  22  5.081635E+05  5.435376E+04  5.757585E+04  1.539616E+05 -4.033946E+04  6.198384E+03
        81  23  5.044514E+05  1.959458E+04  2.934797E+04  1.455105E+05 -2.539290E+04  1.970794E+04
        81  24  5.082103E+05  6.858543E+03  1.635196E+04  1.539624E+05 -1.045019E+04  2.115061E+04
        81  25 -7.608214E+04 -8.973029E+04 -7.876324E+04  1.168503E+05  6.592817E+03  6.198774E+03
        81  26  3.394941E+04 -9.183704E+04 -5.744347E+04  1.258624E+05 -7.435324E+03  1.971056E+04
        81  27  1.464427E+05 -7.694061E+04 -4.100393E+04  1.517812E+05 -2.146991E+04  2.115043E+04
        82   1  7.992414E+05  7.245029E+04  5.764639E+04  1.572055E+05 -3.704174E+03 -1.791468E+04
        82   2  6.871787E+05  4.310395E+04  3.400687E+04  1.467205E+05 -1.110596E+04 -1.221019E+04
        82   3  5.768609E+05  1.680661E+04  1.594573E+04  1.540191E+05 -1.850687E+04 -5.066302E+03
        82   4  5.068100E+05  4.995277E+03  1.258534E+04  1.541589E+05  8.271103E+03 -1.791364E+04
        82   5  5.062507E+05  1.717894E+03  7.881667E+03  1.452672E+05  4.327547E+03 -1.220790E+04
        82   6  5.068250E+05  8.907151E+02  6.357542E+03  1.541593E+05  3.836296E+02 -5.062583E+03
        82   7  2.144642E+05 -6.246377E+04 -3.247709E+04  1.511137E+05  2.024096E+04 -1.791271E+04
        82   8  3.253562E+05 -3.966952E+04 -1.824317E+04  1.438144E+05  1.975675E+04 -1.220568E+04
        82   9  4.367948E+05 -1.502520E+04 -3.229353E+03  1.542996E+05  1.927210E+04 -5.058855E+03
        82  10  7.992413E+05  7.244994E+04  5.764576E+04  1.572055E+05  5.913990E-11  6.622366E-11
        82  11  6.871785E+05  4.310376E+04  3.400636E+04  1.467204E+05  3.363458E-10  2.795619E-10
        82  12  5.768606E+05  1.680649E+04  1.594503E+04  1.540190E+05  3.627520E-10  3.559794E-10
        82  13  5.068098E+05  4.994914E+03  1.258460E+04  1.541590E+05  7.133520E-10  1.798582E-11
        82  14  5.062506E+05  1.717729E+03  7.881351E+03  1.452673E+05 -3.506711E-11  2.949744E-10
        82  15  5.068250E+05  8.906876E+02  6.357494E+03  1.541593E+05  3.250955E-10  4.477445E-10
        82  16  2.144637E+05 -6.246423E+04 -3.247847E+04  1.511140E+05  1.380036E-10  7.100507E-12
        82  17  3.253557E+05 -3.966979E+04 -1.824418E+04  1.438146E+05 -4.454495E-10  1.823156E-10
        82  18  4.367944E+05 -1.502533E+04 -3.230098E+03  1.542996E+05  7.315270E-11  4.620932E-10
        82  19  7.992414E+05  7.245029E+04  5.764639E+04  1.572055E+05  3.704174E+03  1.791468E+04
        82  20  6.871787E+05  4.310395E+04  3.400687E+04  1.467205E+05  1.110596E+04  1.221019E+04
        82  21  5.768609E+05  1.680661E+04  1.594573E+04  1.540191E+05  1.850687E+04  5.066302E+03
        82  22  5.068100E+05  4.995277E+03  1.258534E+04  1.541589E+05 -8.271103E+03  1.791364E+04
        82  23  5.062507E+05  1.717894E+03  7.881667E+03  1.452672E+05 -4.327547E+03  1.220790E+04
        82  24  5.068250E+05  8.907151E+02  6.357542E+03  1.541593E+05 -3.836296E+02  5.062583E+03
        82  25  2.144642E+05 -6.246377E+04 -3.247709E+04  1.511137E+05 -2.024096E+04  1.791271E+04
        82  26  3.253562E+05 -3.966952E+04 -1.824317E+04  1.438144E+05 -1.975675E+04  1.220568E+04
        82  27  4.367948E+05 -1.502520E+04 -3.229353E+03  1.542996E+05 -1.927210E+04  5.058855E+03
        83   1  5.081010E+05  1.101822E+03  6.151173E+03  1.543082E+05 -1.959282E+04 -3.741793E+02
        83   2  3.965924E+05 -2.342082E+04 -8.442721E+03  1.437227E+05 -2.074671E+04  6.885368E+03
        83   3  2.857720E+05 -4.587634E+04 -2.176688E+04  1.509352E+05 -2.190024E+04  1.291932E+04
        83   4  5.068371E+05  9.017030E+02  6.413248E+03  1.541624E+05 -6.883969E+02 -3.703392E+02
        83   5  5.062402E+05  1.824712E+03  8.190102E+03  1.452634E+05 -4.787427E+03  6.888097E+03
        83   6  5.068274E+05  5.325373E+03  1.327893E+04  1.541619E+05 -8.886245E+03  1.292104E+04
        83   7  5.055741E+05  7.017755E+02  6.676667E+03  1.540165E+05  1.821599E+04 -3.665080E+02
        83   8  6.159005E+05  2.706982E+04  2.482363E+04  1.468045E+05  1.117456E+04  6.890905E+03
        83   9  7.279317E+05  5.652479E+04  4.832414E+04  1.573898E+05  4.132212E+03  1.292290E+04
        83  10  5.081005E+05  1.101719E+03  6.150452E+03  1.543082E+05  7.915920E-10  2.081607E-10
        83  11  3.965920E+05 -2.342099E+04 -8.443618E+03  1.437228E+05  8.352042E-10  1.161090E-10
        83  12  2.857714E+05 -4.587665E+04 -2.176810E+04  1.509354E+05  7.775442E-11  1.030242E-10
        83  13  5.068371E+05  9.017028E+02  6.413247E+03  1.541624E+05 -2.372598E-10  3.212817E-10
        83  14  5.062402E+05  1.824655E+03  8.189969E+03  1.452635E+05 -3.168374E-10  9.905957E-11
        83  15  5.068272E+05  5.325173E+03  1.327847E+04  1.541620E+05  7.692095E-11  1.835091E-10
        83  16  5.055737E+05  7.016864E+02  6.676043E+03  1.540165E+05 -1.188878E-10  4.296227E-10
        83  17  6.159004E+05  2.706973E+04  2.482331E+04  1.468044E+05 -2.754239E-11  2.869864E-10
        83  18  7.279317E+05  5.652461E+04  4.832380E+04  1.573898E+05  3.673175E-10  2.792415E-10
        83  19  5.081010E+05  1.101822E+03  6.151173E+03  1.543082E+05  1.959282E+04  3.741793E+02
        83  20  3.965924E+05 -2.342082E+04 -8.442721E+03  1.437227E+05  2.074671E+04 -6.885368E+03
        83  21  2.857720E+05 -4.587634E+04 -2.176688E+04  1.509352E+05  2.190024E+04 -1.291932E+04
        83  22  5.068371E+05  9.017030E+02  6.413248E+03  1.541624E+05  6.883969E+02  3.703392E+02
        83  23  5.062402E+05  1.824712E+03  8.190102E+03  1.452634E+05  4.787427E+03 -6.888097E+03
        83  24  5.068274E+05  5.325373E+03  1.327893E+04  1.541619E+05  8.886245E+03 -1.292104E+04
        83  25  5.055741E+05  7.017755E+02  6.676667E+03  1.540165E+05 -1.821599E+04  3.665080E+02
        83  26  6.159005E+05  2.706982E+04  2.482363E+04  1.468045E+05 -1.117456E+04 -6.890905E+03
        83  27  7.279317E+05  5.652479E+04  4.832414E+04  1.573898E+05 -4.132212E+03 -1.292290E+04
        84   1  2.179412E+05 -6.013770E+04 -2.966217E+04  1.516726E+05 -2.336424E+04  1.637315E+04
        84   2  1.049443E+05 -7.391758E+04 -4.345355E+04  1.245786E+05 -1.362220E+04  1.611475E+04
        84   3 -4.546029E+03 -6.872017E+04 -5.883865E+04  1.145061E+05 -3.884410E+03  5.185114E+03
        84   4  5.083215E+05  7.310806E+03  1.731349E+04  1.539882E+05 -1.118773E+04  1.637424E+04
        84   5  5.043326E+05  2.086182E+04  3.117812E+04  1.454780E+05 -2.706411E+04  1.611211E+04
        84   6  5.082791E+05  5.782799E+04  6.122923E+04  1.539861E+05 -4.294377E+04  5.182504E+03
        84   7  7.987858E+05  7.475515E+04  6.428740E+04  1.563048E+05  9.942810E+02  1.637542E+04
        84   8  9.038764E+05  1.156338E+05  1.058039E+05  1.663911E+05 -4.051444E+04  1.610856E+04
        84   9  1.021353E+06  1.843641E+05  1.812857E+05  1.934989E+05 -8.203517E+04  5.174932E+03
        84  10  2.179405E+05 -6.013814E+04 -2.966370E+04  1.516729E+05  2.885001E-10  9.987142E-11
        84  11  1.049440E+05 -7.391791E+04 -4.345439E+04  1.245788E+05 -7.188290E-11 -2.883936E-12
        84  12 -4.546052E+03 -6.872020E+04 -5.883873E+04  1.145061E+05 -3.922284E-10  1.373594E-11
        84  13  5.083213E+05  7.310485E+03  1.731275E+04  1.539883E+05  4.566997E-10  1.707555E-10
        84  14  5.043317E+05  2.086135E+04  3.117626E+04  1.454783E+05  1.372585E-10 -5.616345E-11
        84  15  5.082772E+05  5.782746E+04  6.122571E+04  1.539863E+05 -6.022741E-11 -1.928443E-11
        84  16  7.987857E+05  7.475486E+04  6.428689E+04  1.563048E+05 -3.879100E-12  1.966862E-10
        84  17  9.038745E+05  1.156330E+05  1.058003E+05  1.663917E+05  7.104365E-10 -4.936944E-11
        84  18  1.021346E+06  1.843623E+05  1.812731E+05  1.934992E+05  3.261988E-10 -3.262768E-11
        84  19  2.179412E+05 -6.013770E+04 -2.966217E+04  1.516726E+05  2.336424E+04 -1.637315E+04
        84  20  1.049443E+05 -7.391758E+04 -4.345355E+04  1.245786E+05  1.362220E+04 -1.611475E+04
        84  21 -4.546029E+03 -6.872017E+04 -5.883865E+04  1.145061E+05  3.884410E+03 -5.185114E+03
        84  22  5.083215E+05  7.310806E+03  1.731349E+04  1.539882E+05  1.118773E+04 -1.637424E+04
        84  23  5.043326E+05  2.086182E+04  3.117812E+04  1.454780E+05  2.706411E+04 -1.611211E+04
        84  24  5.082791E+05  5.782799E+04  6.122923E+04  1.539861E+05  4.294377E+04 -5.182504E+03
        84  25  7.987858E+05  7.475515E+04  6.428740E+04  1.563048E+05 -9.942810E+02 -1.637542E+04
        84  26  9.038764E+05  1.156338E+05  1.058039E+05  1.663911E+05  4.051444E+04 -1.610856E+04
        84  27  1.021353E+06  1.843641E+05  1.812857E+05  1.934989E+05  8.203517E+04 -5.174932E+03
        85   1 -2.640049E+05 -8.896622E+05 -2.581161E+05  3.405530E+05 -7.858376E+03 -1.009297E+05
        85   2 -1.665879E+05 -6.646467E+05 -1.485612E+05  3.050484E+05 -2.331723E+04 -4.306025E+04
        85   3 -1.000967E+05 -4.548669E+05 -8.445076E+04  3.030763E+05 -2.140839E+04  1.482940E+04
        85   4 -5.815584E+04 -5.675906E+04 -6.193243E+04  3.011208E+05 -7.806017E+03 -4.295442E+04
        85   5 -2.084842E+04 -5.269652E+04 -3.188598E+04  2.843342E+05 -2.330005E+04 -2.670386E+04
        85   6 -7.215516E+03 -5.666918E+04 -1.834302E+04  3.010849E+05 -2.143083E+04 -1.045545E+04
        85   7  1.476514E+05  7.767936E+05  1.342170E+05  2.616350E+05 -7.761082E+03  1.509828E+04
        85   8  1.248708E+05  5.596163E+05  8.477357E+04  2.635989E+05 -2.328398E+04 -1.033171E+04
        85   9  8.565779E+04  3.416867E+05  4.776235E+04  2.990920E+05 -2.145309E+04 -3.575597E+04
        85  10 -2.640077E+05 -8.896732E+05 -2.581354E+05  3.405524E+05  2.815457E-10 -1.397818E-10
        85  11 -1.665890E+05 -6.646488E+05 -1.485657E+05  3.050476E+05  3.160697E-10  2.678829E-10
        85  12 -1.000972E+05 -4.548673E+05 -8.445203E+04  3.030766E+05  3.272741E-10  1.264507E-09
        85  13 -5.815640E+04 -5.676106E+04 -6.193601E+04  3.011205E+05  3.248305E-10  1.499725E-11
        85  14 -2.084919E+04 -5.269743E+04 -3.188834E+04  2.843337E+05 -1.615261E-10 -7.690016E-11
        85  15 -7.216039E+03 -5.666942E+04 -1.834409E+04  3.010847E+05  6.410177E-10 -2.021012E-11
        85  16  1.476513E+05  7.767934E+05  1.342165E+05  2.616351E+05  2.911037E-10  2.999160E-10
        85  17  1.248702E+05  5.596161E+05  8.477235E+04  2.635987E+05  2.763940E-10 -2.986895E-10
        85  18  8.565696E+04  3.416852E+05  4.775908E+04  2.990914E+05  6.741891E-10 -1.361769E-09
        85  19 -2.640049E+05 -8.896622E+05 -2.581161E+05  3.405530E+05  7.858376E+03  1.009297E+05
        85  20 -1.665879E+05 -6.646467E+05 -1.485612E+05  3.050484E+05  2.331723E+04  4.306025E+04
        85  21 -1.000967E+05 -4.548669E+05 -8.445076E+04  3.030763E+05  2.140839E+04 -1.482940E+04
        85  22 -5.815584E+04 -5.675906E+04 -6.193243E+04  3.011208E+05  7.806017E+03  4.295442E+04
        85  23 -2.084842E+04 -5.269652E+04 -3.188598E+04  2.843342E+05  2.330005E+04  2.670386E+04
        85  24 -7.215516E+03 -5.666918E+04 -1.834302E+04  3.010849E+05  2.143083E+04  1.045545E+04
        85  25  1.476514E+05  7.767936E+05  1.342170E+05  2.616350E+05  7.761082E+03 -1.509828E+04
        85  26  1.248708E+05  5.596163E+05  8.477357E+04  2.635989E+05  2.328398E+04  1.033171E+04
        85  27  8.565779E+04  3.416867E+05  4.776235E+04  2.990920E+05  2.145309E+04  3.575597E+04
        86   1 -6.646828E+04 -3.180226E+05 -5.779142E+04  3.043923E+05 -1.439666E+04  1.853626E+04
        86   2 -1.271277E+04 -9.982194E+04 -1.679675E+04  2.846199E+05 -3.219901E+03  2.437526E+04
        86   3  3.723488E+04  1.166832E+05  1.943142E+04  2.995462E+05  8.196957E+03  3.021578E+04
        86   4 -5.267335E+03 -5.523219E+04 -1.460269E+04  3.013438E+05 -1.442166E+04 -7.980288E+03
        86   5 -2.373146E+03 -5.440808E+04 -1.051070E+04  2.839932E+05 -3.245706E+03 -2.720414E+03
        86   6 -3.184056E+03 -5.522541E+04 -1.078323E+04  3.013421E+05  8.170346E+03  2.539096E+03
        86   7  5.593048E+04  2.076281E+05  2.858667E+04  2.982938E+05 -1.444639E+04 -3.450768E+04
        86   8  7.966787E+03 -8.990538E+03 -4.221906E+03  2.833665E+05 -3.271454E+03 -2.981798E+04
        86   9 -4.360418E+04 -2.271035E+05 -4.099606E+04  3.031374E+05  8.143570E+03 -2.513015E+04
        86  10 -6.646860E+04 -3.180230E+05 -5.779245E+04  3.043925E+05  7.369260E-10 -9.567640E-10
        86  11 -1.271294E+04 -9.982258E+04 -1.679789E+04  2.846200E+05 -2.914597E-10 -2.926177E-10
        86  12  3.723456E+04  1.166822E+05  1.942958E+04  2.995460E+05  2.940737E-10  1.070211E-09
        86  13 -5.267576E+03 -5.523231E+04 -1.460320E+04  3.013437E+05  2.381309E-10  3.660275E-13
        86  14 -2.373159E+03 -5.440809E+04 -1.051073E+04  2.839932E+05  3.506129E-10 -1.519265E-10
        86  15 -3.184129E+03 -5.522544E+04 -1.078336E+04  3.013421E+05  5.561461E-10 -2.852881E-11
        86  16  5.592993E+04  2.076268E+05  2.858404E+04  2.982934E+05  8.862684E-10  1.236126E-09
        86  17  7.966537E+03 -8.991496E+03 -4.223596E+03  2.833664E+05  2.199162E-10  1.670327E-10
        86  18 -4.360442E+04 -2.271042E+05 -4.099737E+04  3.031376E+05  4.567164E-10 -1.213084E-09
        86  19 -6.646828E+04 -3.180226E+05 -5.779142E+04  3.043923E+05  1.439666E+04 -1.853626E+04
        86  20 -1.271277E+04 -9.982194E+04 -1.679675E+04  2.846199E+05  3.219901E+03 -2.437526E+04
        86  21  3.723488E+04  1.166832E+05  1.943142E+04  2.995462E+05 -8.196957E+03 -3.021578E+04
        86  22 -5.267335E+03 -5.523219E+04 -1.460269E+04  3.013438E+05  1.442166E+04  7.980288E+03
        86  23 -2.373146E+03 -5.440808E+04 -1.051070E+04  2.839932E+05  3.245706E+03  2.720414E+03
        86  24 -3.184056E+03 -5.522541E+04 -1.078323E+04  3.013421E+05 -8.170346E+03 -2.539096E+03
        86  25  5.593048E+04  2.076281E+05  2.858667E+04  2.982938E+05  1.444639E+04  3.450768E+04
        86  26  7.966787E+03 -8.990538E+03 -4.221906E+03  2.833665E+05  3.271454E+03  2.981798E+04
        86  27 -4.360418E+04 -2.271035E+05 -4.099606E+04  3.031374E+05 -8.143570E+03  2.513015E+04
        87   1  6.779701E+04  2.513689E+05  4.047392E+04  3.000616E+05  1.544615E+04  3.090902E+04
        87   2  1.126781E+05  4.679654E+05  8.207545E+04  2.725126E+05  1.872750E+04  3.268167E+03
        87   3  1.504017E+05  6.864060E+05  1.398691E+05  2.786464E+05  6.463782E+03 -2.437898E+04
        87   4 -4.193703E+03 -5.591230E+04 -1.225010E+04  3.011171E+05  1.542152E+04  4.300441E+03
        87   5 -1.180848E+04 -5.361052E+04 -1.902626E+04  2.842832E+05  1.873822E+04  1.398694E+04
        87   6 -3.306148E+04 -5.598845E+04 -3.552712E+04  3.011378E+05  6.502835E+03  2.367620E+04
        87   7 -7.618907E+04 -3.630993E+05 -6.497463E+04  3.021719E+05  1.539680E+04 -2.229539E+04
        87   8 -1.363107E+05 -5.749247E+05 -1.201402E+05  2.960437E+05  1.874935E+04  2.469692E+04
        87   9 -2.165609E+05 -7.978705E+05 -2.109526E+05  3.236019E+05  6.545402E+03  7.167426E+04
        87  10  6.779649E+04  2.513679E+05  4.047167E+04  3.000612E+05  5.358811E-10 -1.501040E-09
        87  11  1.126777E+05  4.679653E+05  8.207477E+04  2.725125E+05  1.771473E-11 -6.672893E-10
        87  12  1.504015E+05  6.864054E+05  1.398679E+05  2.786465E+05 -2.990278E-10  6.546816E-10
        87  13 -4.193963E+03 -5.591239E+04 -1.225058E+04  3.011170E+05  7.353074E-10 -7.937885E-12
        87  14 -1.180891E+04 -5.361082E+04 -1.902729E+04  2.842830E+05 -1.183197E-10 -1.295132E-10
        87  15 -3.306167E+04 -5.598906E+04 -3.552825E+04  3.011376E+05 -1.462209E-10 -3.845414E-11
        87  16 -7.618946E+04 -3.630999E+05 -6.497602E+04  3.021722E+05  4.057824E-10  1.759669E-09
        87  17 -1.363112E+05 -5.749254E+05 -1.201420E+05  2.960433E+05 -2.245745E-10  5.388207E-10
        87  18 -2.165623E+05 -7.978760E+05 -2.109623E+05  3.236015E+05 -7.894949E-12 -7.468986E-10
        87  19  6.779701E+04  2.513689E+05  4.047392E+04  3.000616E+05 -1.544615E+04 -3.090902E+04
        87  20  1.126781E+05  4.679654E+05  8.207545E+04  2.725126E+05 -1.872750E+04 -3.268167E+03
        87  21  1.504017E+05  6.864060E+05  1.398691E+05  2.786464E+05 -6.463782E+03  2.437898E+04
        87  22 -4.193703E+03 -5.591230E+04 -1.225010E+04  3.011171E+05 -1.542152E+04 -4.300441E+03
        87  23 -1.180848E+04 -5.361052E+04 -1.902626E+04  2.842832E+05 -1.873822E+04 -1.398694E+04
        87  24 -3.306148E+04 -5.598845E+04 -3.552712E+04  3.011378E+05 -6.502835E+03 -2.367620E+04
        87  25 -7.618907E+04 -3.630993E+05 -6.497463E+04  3.021719E+05 -1.539680E+04  2.229539E+04
        87  26 -1.363107E+05 -5.749247E+05 -1.201402E+05  2.960437E+05 -1.874935E+04 -2.469692E+04
        87  27 -2.165609E+05 -7.978705E+05 -2.109526E+05  3.236019E+05 -6.545402E+03 -7.167426E+04
        88   1  9.105558E+05  1.605325E+05  1.567723E+05  1.577817E+05  6.977272E+04 -5.029001E+03
        88   2  8.125930E+05  1.060870E+05  9.381461E+04  1.369858E+05  3.428475E+04 -1.594734E+04
        88   3  7.246156E+05  7.304706E+04  5.929058E+04  1.303259E+05 -1.194453E+03 -1.698609E+04
        88   4  4.325215E+05  4.269149E+04  4.521852E+04  1.286102E+05  3.166663E+04 -5.032950E+03
        88   5  4.296045E+05  1.539257E+04  2.305888E+04  1.215434E+05  1.992298E+04 -1.594981E+04
        88   6  4.325532E+05  5.388411E+03  1.286516E+04  1.286108E+05  8.182052E+03 -1.698581E+04
        88   7 -4.529744E+04 -7.516168E+04 -6.634485E+04  9.946137E+04 -6.410358E+03 -5.033326E+03
        88   8  4.675904E+04 -7.530927E+04 -4.770207E+04  1.061108E+05  5.569823E+03 -1.595156E+04
        88   9  1.405757E+05 -6.227443E+04 -3.356212E+04  1.268966E+05  1.755431E+04 -1.698560E+04
        88  10  9.105506E+05  1.605311E+05  1.567631E+05  1.577820E+05 -1.287517E-10 -2.997126E-11
        88  11  8.125917E+05  1.060865E+05  9.381192E+04  1.369862E+05 -1.757269E-10 -9.547731E-11
        88  12  7.246155E+05  7.304675E+04  5.929004E+04  1.303258E+05  3.033183E-10 -3.035391E-10
        88  13  4.325204E+05  4.269120E+04  4.521659E+04  1.286104E+05  1.642789E-11  2.272120E-11
        88  14  4.296040E+05  1.539219E+04  2.305765E+04  1.215437E+05 -2.328782E-10  8.822310E-11
        88  15  4.325530E+05  5.388083E+03  1.286449E+04  1.286109E+05 -3.479674E-10 -1.110758E-10
        88  16 -4.529749E+04 -7.516172E+04 -6.634497E+04  9.946134E+04 -1.962266E-11  7.405717E-11
        88  17  4.675894E+04 -7.530955E+04 -4.770261E+04  1.061108E+05 -5.830856E-10  1.789976E-10
        88  18  1.405753E+05 -6.227482E+04 -3.356324E+04  1.268968E+05 -4.758944E-10  6.843101E-11
        88  19  9.105558E+05  1.605325E+05  1.567723E+05  1.577817E+05 -6.977272E+04  5.029001E+03
        88  20  8.125930E+05  1.060870E+05  9.381461E+04  1.369858E+05 -3.428475E+04  1.594734E+04
        88  21  7.246156E+05  7.304706E+04  5.929058E+04  1.303259E+05  1.194453E+03  1.698609E+04
        88  22  4.325215E+05  4.269149E+04  4.521852E+04  1.286102E+05 -3.166663E+04  5.032950E+03
        88  23  4.296045E+05  1.539257E+04  2.305888E+04  1.215434E+05 -1.992298E+04  1.594981E+04
        88  24  4.325532E+05  5.388411E+03  1.286516E+04  1.286108E+05 -8.182052E+03  1.698581E+04
        88  25 -4.529744E+04 -7.516168E+04 -6.634485E+04  9.946137E+04  6.410358E+03  5.033326E+03
        88  26  4.675904E+04 -7.530927E+04 -4.770207E+04  1.061108E+05 -5.569823E+03  1.595156E+04
        88  27  1.405757E+05 -6.227443E+04 -3.356212E+04  1.268966E+05 -1.755431E+04  1.698560E+04
        89   1  6.655086E+05  5.794759E+04  4.612537E+04  1.311663E+05 -3.686943E+03 -1.425135E+04
        89   2  5.719361E+05  3.361344E+04  2.671478E+04  1.224836E+05 -9.628480E+03 -9.438543E+03
        89   3  4.797570E+05  1.169999E+04  1.177600E+04  1.286580E+05 -1.556933E+04 -3.453859E+03
        89   4  4.314540E+05  3.924076E+03  9.916292E+03  1.287719E+05  6.466038E+03 -1.425054E+04
        89   5  4.310112E+05  1.351502E+03  6.249603E+03  1.213435E+05  3.339324E+03 -9.436910E+03
        89   6  4.314638E+05  7.116248E+02  5.101358E+03  1.287722E+05  2.124317E+02 -3.451282E+03
        89   7  1.974544E+05 -5.010202E+04 -2.629365E+04  1.263785E+05  1.661534E+04 -1.424981E+04
        89   8  2.901066E+05 -3.091125E+04 -1.421527E+04  1.202036E+05  1.630431E+04 -9.435323E+03
        89   9  3.831736E+05 -1.027671E+04 -1.572374E+03  1.288864E+05  1.599302E+04 -3.448699E+03
        89  10  6.655086E+05  5.794736E+04  4.612496E+04  1.311662E+05 -2.751320E-10 -2.675883E-10
        89  11  5.719360E+05  3.361332E+04  2.671444E+04  1.224835E+05  2.630865E-10  8.784843E-12
        89  12  4.797567E+05  1.169991E+04  1.177552E+04  1.286580E+05 -6.717958E-11  1.619550E-10
        89  13  4.314539E+05  3.923847E+03  9.915832E+03  1.287720E+05  3.213831E-11 -1.141112E-10
        89  14  4.310112E+05  1.351404E+03  6.249415E+03  1.213435E+05 -5.385738E-10  6.768112E-11
        89  15  4.314638E+05  7.116120E+02  5.101336E+03  1.287722E+05 -8.047709E-11  1.095812E-10
        89  16  1.974540E+05 -5.010231E+04 -2.629455E+04  1.263787E+05  1.269991E-10  6.628427E-11
        89  17  2.901063E+05 -3.091142E+04 -1.421594E+04  1.202038E+05 -4.214583E-10  1.019519E-10
        89  18  3.831733E+05 -1.027679E+04 -1.572876E+03  1.288864E+05 -6.486013E-11  1.262480E-10
        89  19  6.655086E+05  5.794759E+04  4.612537E+04  1.311663E+05  3.686943E+03  1.425135E+04
        89  20  5.719361E+05  3.361344E+04  2.671478E+04  1.224836E+05  9.628480E+03  9.438543E+03
        89  21  4.797570E+05  1.169999E+04  1.177600E+04  1.286580E+05  1.556933E+04  3.453859E+03
        89  22  4.314540E+05  3.924076E+03  9.916292E+03  1.287719E+05 -6.466038E+03  1.425054E+04
        89  23  4.310112E+05  1.351502E+03  6.249603E+03  1.213435E+05 -3.339324E+03  9.436910E+03
        89  24  4.314638E+05  7.116248E+02  5.101358E+03  1.287722E+05 -2.124317E+02  3.451282E+03
        89  25  1.974544E+05 -5.010202E+04 -2.629365E+04  1.263785E+05 -1.661534E+04  1.424981E+04
        89  26  2.901066E+05 -3.091125E+04 -1.421527E+04  1.202036E+05 -1.630431E+04  9.435323E+03
        89  27  3.831736E+05 -1.027671E+04 -1.572374E+03  1.288864E+05 -1.599302E+04  3.448699E+03
        90   1  4.223251E+05 -1.415308E+03  3.626489E+03  1.288909E+05 -1.643985E+04  4.661007E+02
        90   2  3.291969E+05 -2.190381E+04 -8.562614E+03  1.200730E+05 -1.725542E+04  6.514668E+03
        90   3  2.366063E+05 -4.071663E+04 -1.980116E+04  1.261202E+05 -1.807077E+04  1.150865E+04
        90   4  4.314807E+05  7.259315E+02  5.181271E+03  1.287739E+05 -6.506246E+02  4.687348E+02
        90   5  4.309923E+05  1.497741E+03  6.691528E+03  1.213414E+05 -3.999618E+03  6.516485E+03
        90   6  4.314732E+05  4.385189E+03  1.091033E+04  1.287736E+05 -7.348532E+03  1.150974E+04
        90   7  4.406369E+05  2.867300E+03  6.736988E+03  1.286568E+05  1.513883E+04  4.713629E+02
        90   8  5.327984E+05  2.489890E+04  2.194613E+04  1.226099E+05  9.258275E+03  6.518356E+03
        90   9  6.263782E+05  4.948522E+04  4.162131E+04  1.314278E+05  3.376947E+03  1.151092E+04
        90  10  4.223248E+05 -1.415381E+03  3.625981E+03  1.288910E+05 -3.775253E-10  3.118113E-10
        90  11  3.291966E+05 -2.190394E+04 -8.563253E+03  1.200731E+05  1.920252E-10  3.239344E-10
        90  12  2.366059E+05 -4.071686E+04 -1.980202E+04  1.261204E+05 -1.031254E-10  2.216809E-10
        90  13  4.314807E+05  7.259311E+02  5.181270E+03  1.287739E+05 -2.632543E-10  2.071293E-10
        90  14  4.309922E+05  1.497691E+03  6.691418E+03  1.213414E+05 -9.953361E-10  3.609749E-10
        90  15  4.314731E+05  4.385032E+03  1.090998E+04  1.287736E+05 -6.747031E-10  3.836574E-10
        90  16  4.406367E+05  2.867239E+03  6.736557E+03  1.286568E+05  1.625671E-10  1.455182E-10
        90  17  5.327983E+05  2.489884E+04  2.194589E+04  1.226099E+05  1.205979E-10  3.621774E-10
        90  18  6.263781E+05  4.948508E+04  4.162104E+04  1.314278E+05  2.007867E-10  4.781726E-10
        90  19  4.223251E+05 -1.415308E+03  3.626489E+03  1.288909E+05  1.643985E+04 -4.661007E+02
        90  20  3.291969E+05 -2.190381E+04 -8.562614E+03  1.200730E+05  1.725542E+04 -6.514668E+03
        90  21  2.366063E+05 -4.071663E+04 -1.980116E+04  1.261202E+05  1.807077E+04 -1.150865E+04
        90  22  4.314807E+05  7.259315E+02  5.181271E+03  1.287739E+05  6.506246E+02 -4.687348E+02
        90  23  4.309923E+05  1.497741E+03  6.691528E+03  1.213414E+05  3.999618E+03 -6.516485E+03
        90  24  4.314732E+05  4.385189E+03  1.091033E+04  1.287736E+05  7.348532E+03 -1.150974E+04
        90  25  4.406369E+05  2.867300E+03  6.736988E+03  1.286568E+05 -1.513883E+04 -4.713629E+02
        90  26  5.327984E+05  2.489890E+04  2.194613E+04  1.226099E+05 -9.258275E+03 -6.518356E+03
        90  27  6.263782E+05  4.948522E+04  4.162131E+04  1.314278E+05 -3.376947E+03 -1.151092E+04
        91   1  1.799157E+05 -5.266512E+04 -2.648567E+04  1.267229E+05 -1.924677E+04  1.436309E+04
        91   2  8.561256E+04 -6.436959E+04 -3.840513E+04  1.043084E+05 -1.044276E+04  1.397769E+04
        91   3 -5.938097E+03 -6.057135E+04 -5.217712E+04  9.609597E+04 -1.642070E+03  4.476943E+03
        91   4  4.327060E+05  6.022019E+03  1.424336E+04  1.286253E+05 -9.239636E+03  1.436372E+04
        91   5  4.294222E+05  1.719134E+04  2.568114E+04  1.215249E+05 -2.231749E+04  1.397587E+04
        91   6  4.326758E+05  4.765515E+04  5.045450E+04  1.286241E+05 -3.539761E+04  4.475445E+03
        91   7  6.855599E+05  6.470601E+04  5.497103E+04  1.305286E+05  7.714229E+02  1.436441E+04
        91   8  7.733472E+05  9.874665E+04  8.976305E+04  1.387512E+05 -3.419863E+04  1.397339E+04
        91   9  8.714716E+05  1.558726E+05  1.530779E+05  1.611754E+05 -6.917683E+04  4.470414E+03
        91  10  1.799153E+05 -5.266545E+04 -2.648675E+04  1.267231E+05 -3.202379E-11  1.094062E-10
        91  11  8.561239E+04 -6.436983E+04 -3.840570E+04  1.043085E+05 -9.174071E-10 -6.556704E-11
        91  12 -5.938106E+03 -6.057137E+04 -5.217717E+04  9.609598E+04 -6.729074E-10 -3.523814E-12
        91  13  4.327059E+05  6.021775E+03  1.424281E+04  1.286254E+05 -4.095413E-10  2.015768E-10
        91  14  4.294216E+05  1.719099E+04  2.567983E+04  1.215252E+05 -5.441795E-11 -8.622133E-11
        91  15  4.326744E+05  4.765479E+04  5.045210E+04  1.286243E+05  1.328673E-10 -1.009817E-10
        91  16  6.855599E+05  6.470578E+04  5.497064E+04  1.305285E+05  1.850982E-10  3.689784E-10
        91  17  7.733459E+05  9.874612E+04  8.976049E+04  1.387516E+05  5.590879E-10 -6.063858E-11
        91  18  8.714664E+05  1.558713E+05  1.530688E+05  1.611757E+05  1.074199E-09 -1.085204E-10
        91  19  1.799157E+05 -5.266512E+04 -2.648567E+04  1.267229E+05  1.924677E+04 -1.436309E+04
        91  20  8.561256E+04 -6.436959E+04 -3.840513E+04  1.043084E+05  1.044276E+04 -1.397769E+04
        91  21 -5.938097E+03 -6.057135E+04 -5.217712E+04  9.609597E+04  1.642070E+03 -4.476943E+03
        91  22  4.327060E+05  6.022019E+03  1.424336E+04  1.286253E+05  9.239636E+03 -1.436372E+04
        91  23  4.294222E+05  1.719134E+04  2.568114E+04  1.215249E+05  2.231749E+04 -1.397587E+04
        91  24  4.326758E+05  4.765515E+04  5.045450E+04  1.286241E+05  3.539761E+04 -4.475445E+03
        91  25  6.855599E+05  6.470601E+04  5.497103E+04  1.305286E+05 -7.714229E+02 -1.436441E+04
        91  26  7.733472E+05  9.874665E+04  8.976305E+04  1.387512E+05  3.419863E+04 -1.397339E+04
        91  27  8.714716E+05  1.558726E+05  1.530779E+05  1.611754E+05  6.917683E+04 -4.470414E+03
        92   1 -2.249617E+05 -7.391467E+05 -2.196825E+05  2.856476E+05 -6.801418E+03 -8.600185E+04
        92   2 -1.432923E+05 -5.502044E+05 -1.271402E+05  2.559816E+05 -2.033058E+04 -3.678221E+04
        92   3 -8.754429E+04 -3.741283E+05 -7.314848E+04  2.544402E+05 -1.897823E+04  1.245210E+04
        92   4 -4.840942E+04 -2.465810E+04 -5.152148E+04  2.527887E+05 -6.763614E+03 -3.565178E+04
        92   5 -1.738765E+04 -2.128016E+04 -2.659085E+04  2.387123E+05 -2.031774E+04 -2.210201E+04
        92   6 -6.076335E+03 -2.459343E+04 -1.541244E+04  2.527637E+05 -1.899375E+04 -8.553667E+03
        92   7  1.281119E+05  6.903084E+05  1.166146E+05  2.198917E+05 -6.731177E+03  1.475597E+04
        92   8  1.085018E+05  5.079152E+05  7.394697E+04  2.214278E+05 -2.030572E+04 -7.409585E+03
        92   9  7.538556E+04  3.250633E+05  4.232165E+04  2.510862E+05 -1.900915E+04 -2.957086E+04
        92  10 -2.249637E+05 -7.391546E+05 -2.196965E+05  2.856471E+05 -1.497163E-10  1.185173E-08
        92  11 -1.432931E+05 -5.502060E+05 -1.271435E+05  2.559810E+05  1.605850E-10 -2.210307E-08
        92  12 -8.754472E+04 -3.741286E+05 -7.314945E+04  2.544404E+05  4.934587E-10 -5.498166E-08
        92  13 -4.840981E+04 -2.465948E+04 -5.152396E+04  2.527885E+05  2.647673E-10 -2.635932E-10
        92  14 -1.738822E+04 -2.128079E+04 -2.659254E+04  2.387120E+05  5.296224E-11 -2.050717E-10
        92  15 -6.076742E+03 -2.459361E+04 -1.541325E+04  2.527636E+05  7.053911E-10 -2.943790E-10
        92  16  1.281118E+05  6.903082E+05  1.166141E+05  2.198917E+05 -1.674369E-10 -1.188139E-08
        92  17  1.085013E+05  5.079150E+05  7.394609E+04  2.214277E+05  9.377033E-10  2.209909E-08
        92  18  7.538494E+04  3.250622E+05  4.231933E+04  2.510858E+05  8.836569E-10  5.501059E-08
        92  19 -2.249617E+05 -7.391467E+05 -2.196825E+05  2.856476E+05  6.801418E+03  8.600185E+04
        92  20 -1.432923E+05 -5.502044E+05 -1.271402E+05  2.559816E+05  2.033058E+04  3.678221E+04
        92  21 -8.754429E+04 -3.741283E+05 -7.314848E+04  2.544402E+05  1.897823E+04 -1.245210E+04
        92  22 -4.840942E+04 -2.465810E+04 -5.152148E+04  2.527887E+05  6.763614E+03  3.565178E+04
        92  23 -1.738765E+04 -2.128016E+04 -2.659085E+04  2.387123E+05  2.031774E+04  2.210201E+04
        92  24 -6.076335E+03 -2.459343E+04 -1.541244E+04  2.527637E+05  1.899375E+04  8.553667E+03
        92  25  1.281119E+05  6.903084E+05  1.166146E+05  2.198917E+05  6.731177E+03 -1.475597E+04
        92  26  1.085018E+05  5.079152E+05  7.394697E+04  2.214278E+05  2.030572E+04  7.409585E+03
        92  27  7.538556E+04  3.250633E+05  4.232165E+04  2.510862E+05  1.900915E+04  2.957086E+04
        93   1 -5.932463E+04 -2.592518E+05 -5.078843E+04  2.555401E+05 -1.313364E+04  1.560395E+04
        93   2 -1.427267E+04 -7.603595E+04 -1.651928E+04  2.388495E+05 -3.792198E+03  2.085604E+04
        93   3  2.743274E+04  1.056712E+05  1.348475E+04  2.512870E+05  5.831347E+03  2.610919E+04
        93   4 -4.467283E+03 -2.341083E+04 -1.235976E+04  2.529865E+05 -1.315104E+04 -6.462810E+03
        93   5 -2.127920E+03 -2.269570E+04 -9.135604E+03  2.384217E+05 -3.810412E+03 -1.889656E+03
        93   6 -3.015634E+03 -2.340420E+04 -9.705199E+03  2.529855E+05  5.812314E+03  2.683136E+03
        93   7  5.038751E+04  2.124864E+05  2.606918E+04  2.504319E+05 -1.316825E+04 -2.853766E+04
        93   8  1.001698E+04  3.064855E+04 -1.750017E+03  2.379939E+05 -3.828593E+03 -2.463721E+04
        93   9 -3.346463E+04 -1.524622E+05 -3.289373E+04  2.546836E+05  5.793150E+03 -2.073818E+04
        93  10 -5.932488E+04 -2.592521E+05 -5.078922E+04  2.555403E+05  1.052336E-09  5.468843E-08
        93  11 -1.427280E+04 -7.603642E+04 -1.652012E+04  2.388496E+05 -5.571696E-11  2.307395E-08
        93  12  2.743252E+04  1.056705E+05  1.348341E+04  2.512869E+05 -2.356617E-10 -1.064027E-08
        93  13 -4.467480E+03 -2.341092E+04 -1.236017E+04  2.529864E+05  5.900555E-10 -4.964839E-10
        93  14 -2.127937E+03 -2.269571E+04 -9.135638E+03  2.384217E+05 -4.895659E-10 -2.576084E-10
        93  15 -3.015672E+03 -2.340422E+04 -9.705276E+03  2.529855E+05  4.817142E-11 -2.750761E-10
        93  16  5.038711E+04  2.124854E+05  2.606732E+04  2.504316E+05  6.838114E-10 -5.475483E-08
        93  17  1.001681E+04  3.064789E+04 -1.751185E+03  2.379938E+05  2.502043E-11 -2.309871E-08
        93  18 -3.346478E+04 -1.524627E+05 -3.289460E+04  2.546837E+05 -3.950426E-10  1.061877E-08
        93  19 -5.932463E+04 -2.592518E+05 -5.078843E+04  2.555401E+05  1.313364E+04 -1.560395E+04
        93  20 -1.427267E+04 -7.603595E+04 -1.651928E+04  2.388495E+05  3.792198E+03 -2.085604E+04
        93  21  2.743274E+04  1.056712E+05  1.348475E+04  2.512870E+05 -5.831347E+03 -2.610919E+04
        93  22 -4.467283E+03 -2.341083E+04 -1.235976E+04  2.529865E+05  1.315104E+04  6.462810E+03
        93  23 -2.127920E+03 -2.269570E+04 -9.135604E+03  2.384217E+05  3.810412E+03  1.889656E+03
        93  24 -3.015634E+03 -2.340420E+04 -9.705199E+03  2.529855E+05 -5.812314E+03 -2.683136E+03
        93  25  5.038751E+04  2.124864E+05  2.606918E+04  2.504319E+05  1.316825E+04  2.853766E+04
        93  26  1.001698E+04  3.064855E+04 -1.750017E+03  2.379939E+05  3.828593E+03  2.463721E+04
        93  27 -3.346463E+04 -1.524622E+05 -3.289373E+04  2.546836E+05 -5.793150E+03  2.073818E+04
        94   1  5.296355E+04  2.186280E+05  3.083944E+04  2.517622E+05  1.195745E+04  2.683366E+04
        94   2  8.984629E+04  4.007270E+05  6.461141E+04  2.275918E+05  1.495980E+04  5.214694E+03
        94   3  1.193056E+05  5.838081E+05  1.105925E+05  2.317228E+05  5.215220E+03 -1.640808E+04
        94   4 -3.970447E+03 -2.406479E+04 -1.117798E+04  2.528023E+05  1.193974E+04  4.277868E+03
        94   5 -1.109668E+04 -2.190961E+04 -1.765311E+04  2.386577E+05  1.496669E+04  1.326454E+04
        94   6 -3.096041E+04 -2.411638E+04 -3.316964E+04  2.528187E+05  5.241986E+03  2.225320E+04
        94   7 -6.090734E+04 -2.666987E+05 -5.319553E+04  2.538420E+05  1.192195E+04 -1.826938E+04
        94   8 -1.120498E+05 -4.443744E+05 -9.992580E+04  2.497159E+05  1.497387E+04  2.130904E+04
        94   9 -1.812504E+05 -6.316972E+05 -1.769515E+05  2.738937E+05  5.271396E+03  6.087685E+04
        94  10  5.296321E+04  2.186272E+05  3.083782E+04  2.517619E+05 -8.147063E-11 -5.851025E-10
        94  11  8.984604E+04  4.007269E+05  6.461094E+04  2.275917E+05 -6.206171E-10  7.118773E-10
        94  12  1.193055E+05  5.838078E+05  1.105919E+05  2.317229E+05 -3.265971E-10  1.409794E-09
        94  13 -3.970605E+03 -2.406484E+04 -1.117828E+04  2.528023E+05 -1.051329E-10 -4.308135E-10
        94  14 -1.109696E+04 -2.190986E+04 -1.765386E+04  2.386576E+05 -1.124502E-09 -1.930978E-10
        94  15 -3.096057E+04 -2.411692E+04 -3.317062E+04  2.528186E+05 -1.718126E-10 -1.829308E-10
        94  16 -6.090758E+04 -2.666991E+05 -5.319642E+04  2.538421E+05 -5.501606E-10  5.381213E-10
        94  17 -1.120502E+05 -4.443750E+05 -9.992707E+04  2.497156E+05 -3.887010E-10 -7.537431E-10
        94  18 -1.812514E+05 -6.317012E+05 -1.769585E+05  2.738934E+05 -4.648295E-10 -1.400071E-09
        94  19  5.296355E+04  2.186280E+05  3.083944E+04  2.517622E+05 -1.195745E+04 -2.683366E+04
        94  20  8.984629E+04  4.007270E+05  6.461141E+04  2.275918E+05 -1.495980E+04 -5.214694E+03
        94  21  1.193056E+05  5.838081E+05  1.105925E+05  2.317228E+05 -5.215220E+03  1.640808E+04
        94  22 -3.970447E+03 -2.406479E+04 -1.117798E+04  2.528023E+05 -1.193974E+04 -4.277868E+03
        94  23 -1.109668E+04 -2.190961E+04 -1.765311E+04  2.386577E+05 -1.496669E+04 -1.326454E+04
        94  24 -3.096041E+04 -2.411638E+04 -3.316964E+04  2.528187E+05 -5.241986E+03 -2.225320E+04
        94  25 -6.090734E+04 -2.666987E+05 -5.319553E+04  2.538420E+05 -1.192195E+04  1.826938E+04
        94  26 -1.120498E+05 -4.443744E+05 -9.992580E+04  2.497159E+05 -1.497387E+04 -2.130904E+04
        94  27 -1.812504E+05 -6.316972E+05 -1.769515E+05  2.738937E+05 -5.271396E+03 -6.087685E+04
        95   1  7.686099E+05  1.337694E+05  1.304541E+05  1.343569E+05  5.704842E+04 -4.246487E+03
        95   2  6.840338E+05  8.885813E+04  7.813539E+04  1.174230E+05  2.759518E+04 -1.342202E+04
        95   3  6.075830E+05  6.106257E+04  4.925536E+04  1.127431E+05 -1.851279E+03 -1.419237E+04
        95   4  3.623996E+05  3.361262E+04  3.560554E+04  1.113895E+05  2.490738E+04 -4.248990E+03
        95   5  3.601013E+05  1.211862E+04  1.817627E+04  1.052632E+05  1.565068E+04 -1.342367E+04
        95   6  3.624222E+05  4.241826E+03  1.017537E+04  1.113897E+05  6.396148E+03 -1.419216E+04
        95   7 -4.365538E+04 -6.655331E+04 -5.925009E+04  8.843713E+04 -7.212801E+03 -4.249120E+03
        95   8  3.627108E+04 -6.462626E+04 -4.178664E+04  9.310992E+04  3.712246E+03 -1.342485E+04
        95   9  1.173212E+05 -5.258188E+04 -2.890592E+04  1.100368E+05  1.464044E+04 -1.419198E+04
        95  10  7.686064E+05  1.337685E+05  1.304480E+05  1.343571E+05  9.118658E-11  3.626901E-12
        95  11  6.840330E+05  8.885773E+04  7.813363E+04  1.174233E+05  4.699104E-11  2.686228E-11
        95  12  6.075829E+05  6.106235E+04  4.925498E+04  1.127431E+05 -5.529394E-10  1.966664E-10
        95  13  3.623989E+05  3.361244E+04  3.560434E+04  1.113895E+05 -9.997860E-11  1.202100E-10
        95  14  3.601010E+05  1.211836E+04  1.817547E+04  1.052634E+05 -6.664785E-10  1.563139E-10
        95  15  3.624221E+05  4.241599E+03  1.017491E+04  1.113898E+05 -4.005925E-11  1.356889E-10
        95  16 -4.365544E+04 -6.655334E+04 -5.925022E+04  8.843710E+04  1.465776E-10  5.462106E-11
        95  17  3.627101E+04 -6.462646E+04 -4.178701E+04  9.310996E+04 -3.173851E-10  2.185400E-10
        95  18  1.173209E+05 -5.258215E+04 -2.890671E+04  1.100370E+05  2.833619E-10  8.002748E-11
        95  19  7.686099E+05  1.337694E+05  1.304541E+05  1.343569E+05 -5.704842E+04  4.246487E+03
        95  20  6.840338E+05  8.885813E+04  7.813539E+04  1.174230E+05 -2.759518E+04  1.342202E+04
        95  21  6.075830E+05  6.106257E+04  4.925536E+04  1.127431E+05  1.851279E+03  1.419237E+04
        95  22  3.623996E+05  3.361262E+04  3.560554E+04  1.113895E+05 -2.490738E+04  4.248990E+03
        95  23  3.601013E+05  1.211862E+04  1.817627E+04  1.052632E+05 -1.565068E+04  1.342367E+04
        95  24  3.624222E+05  4.241826E+03  1.017537E+04  1.113897E+05 -6.396148E+03  1.419216E+04
        95  25 -4.365538E+04 -6.655331E+04 -5.925009E+04  8.843713E+04  7.212801E+03  4.249120E+03
        95  26  3.627108E+04 -6.462626E+04 -4.178664E+04  9.310992E+04 -3.712246E+03  1.342485E+04
        95  27  1.173212E+05 -5.258188E+04 -2.890592E+04  1.100368E+05 -1.464044E+04  1.419198E+04
        96   1  5.564911E+05  4.810882E+04  3.814134E+04  1.134177E+05 -3.872069E+03 -1.179985E+04
        96   2  4.754862E+05  2.725185E+04  2.172735E+04  1.059893E+05 -8.772987E+03 -7.595117E+03
        96   3  3.956161E+05  8.345579E+03  8.990335E+03  1.114315E+05 -1.367353E+04 -2.398709E+03
        96   4  3.615589E+05  3.088723E+03  7.871074E+03  1.115273E+05  5.035416E+03 -1.179925E+04
        96   5  3.612040E+05  1.068103E+03  5.036377E+03  1.050921E+05  2.516173E+03 -7.593938E+03
        96   6  3.615657E+05  5.857492E+02  4.226273E+03  1.115275E+05 -3.253520E+00 -2.396871E+03
        96   7  1.666647E+05 -4.193318E+04 -2.239977E+04  1.096376E+05  1.394021E+04 -1.179870E+04
        96   8  2.469351E+05 -2.511618E+04 -1.165434E+04  1.041950E+05  1.380334E+04 -7.592791E+03
        96   9  3.275169E+05 -7.174032E+03 -5.371030E+02  1.116235E+05  1.366631E+04 -2.395029E+03
        96  10  5.564911E+05  4.810867E+04  3.814105E+04  1.134176E+05 -6.570118E-10  1.902375E-10
        96  11  4.754861E+05  2.725177E+04  2.172710E+04  1.059892E+05  3.264462E-10 -1.532355E-11
        96  12  3.956159E+05  8.345523E+03  8.989973E+03  1.114315E+05  2.866655E-10 -2.452198E-10
        96  13  3.615588E+05  3.088566E+03  7.870765E+03  1.115274E+05  1.530896E-10  1.026150E-10
        96  14  3.612039E+05  1.068039E+03  5.036257E+03  1.050921E+05  4.686109E-10 -3.473247E-11
        96  15  3.615657E+05  5.857430E+02  4.226262E+03  1.115275E+05 -2.173333E-10 -2.948891E-10
        96  16  1.666645E+05 -4.193338E+04 -2.240040E+04  1.096377E+05  2.744647E-10 -3.384764E-11
        96  17  2.469349E+05 -2.511629E+04 -1.165480E+04  1.041951E+05 -6.218839E-11 -9.816183E-11
        96  18  3.275167E+05 -7.174088E+03 -5.374646E+02  1.116235E+05 -5.797407E-11 -2.846176E-10
        96  19  5.564911E+05  4.810882E+04  3.814134E+04  1.134177E+05  3.872069E+03  1.179985E+04
        96  20  4.754862E+05  2.725185E+04  2.172735E+04  1.059893E+05  8.772987E+03  7.595117E+03
        96  21  3.956161E+05  8.345579E+03  8.990335E+03  1.114315E+05  1.367353E+04  2.398709E+03
        96  22  3.615589E+05  3.088723E+03  7.871074E+03  1.115273E+05 -5.035416E+03  1.179925E+04
        96  23  3.612040E+05  1.068103E+03  5.036377E+03  1.050921E+05 -2.516173E+03  7.593938E+03
        96  24  3.615657E+05  5.857492E+02  4.226273E+03  1.115275E+05  3.253520E+00  2.396871E+03
        96  25  1.666647E+05 -4.193318E+04 -2.239977E+04  1.096376E+05 -1.394021E+04  1.179870E+04
        96  26  2.469351E+05 -2.511618E+04 -1.165434E+04  1.041950E+05 -1.380334E+04  7.592791E+03
        96  27  3.275169E+05 -7.174032E+03 -5.371030E+02  1.116235E+05 -1.366631E+04  2.395029E+03
        97   1  3.458888E+05 -3.003807E+03  1.994996E+03  1.116260E+05 -1.439718E+04  9.967213E+02
        97   2  2.652341E+05 -2.072393E+04 -8.479377E+03  1.039797E+05 -1.503434E+04  6.223554E+03
        97   3  1.850359E+05 -3.699291E+04 -1.817525E+04  1.092077E+05 -1.567132E+04  1.051360E+04
        97   4  3.615933E+05  6.086053E+02  4.358735E+03  1.115282E+05 -7.236388E+02  9.985842E+02
        97   5  3.611702E+05  1.306384E+03  5.768595E+03  1.050911E+05 -3.610982E+03  6.224789E+03
        97   6  3.615872E+05  3.845763E+03  9.518256E+03  1.115280E+05 -6.498219E+03  1.051428E+04
        97   7  3.772984E+05  4.221107E+03  6.723171E+03  1.114304E+05  1.295024E+04  1.000443E+03
        97   8  4.571159E+05  2.333634E+04  2.001689E+04  1.062027E+05  7.814073E+03  6.226065E+03
        97   9  5.381698E+05  4.468296E+04  3.721132E+04  1.138489E+05  2.677396E+03  1.051503E+04
        97  10  3.458886E+05 -3.003864E+03  1.994605E+03  1.116260E+05 -9.953412E-11 -2.092703E-10
        97  11  2.652339E+05 -2.072403E+04 -8.479875E+03  1.039798E+05 -4.761035E-10 -1.864943E-10
        97  12  1.850356E+05 -3.699309E+04 -1.817592E+04  1.092079E+05 -1.810115E-10 -1.414841E-10
        97  13  3.615933E+05  6.086041E+02  4.358732E+03  1.115282E+05  2.923779E-10 -2.945617E-10
        97  14  3.611702E+05  1.306339E+03  5.768497E+03  1.050912E+05 -3.347374E-10 -1.649752E-10
        97  15  3.615872E+05  3.845633E+03  9.517969E+03  1.115281E+05 -8.903028E-11 -1.207208E-10
        97  16  3.772982E+05  4.221061E+03  6.722854E+03  1.114304E+05  3.178372E-10 -3.187746E-10
        97  17  4.571158E+05  2.333628E+04  2.001670E+04  1.062027E+05  1.022171E-10 -1.831166E-10
        97  18  5.381698E+05  4.468284E+04  3.721110E+04  1.138489E+05  8.060199E-11 -6.928119E-11
        97  19  3.458888E+05 -3.003807E+03  1.994996E+03  1.116260E+05  1.439718E+04 -9.967213E+02
        97  20  2.652341E+05 -2.072393E+04 -8.479377E+03  1.039797E+05  1.503434E+04 -6.223554E+03
        97  21  1.850359E+05 -3.699291E+04 -1.817525E+04  1.092077E+05  1.567132E+04 -1.051360E+04
        97  22  3.615933E+05  6.086053E+02  4.358735E+03  1.115282E+05  7.236388E+02 -9.985842E+02
        97  23  3.611702E+05  1.306384E+03  5.768595E+03  1.050911E+05  3.610982E+03 -6.224789E+03
        97  24  3.615872E+05  3.845763E+03  9.518256E+03  1.115280E+05  6.498219E+03 -1.051428E+04
        97  25  3.772984E+05  4.221107E+03  6.723171E+03  1.114304E+05 -1.295024E+04 -1.000443E+03
        97  26  4.571159E+05  2.333634E+04  2.001689E+04  1.062027E+05 -7.814073E+03 -6.226065E+03
        97  27  5.381698E+05  4.468296E+04  3.721132E+04  1.138489E+05 -2.677396E+03 -1.051503E+04
        98   1  1.359407E+05 -4.733279E+04 -2.395067E+04  1.097347E+05 -1.669067E+04  1.296249E+04
        98   2  5.425974E+04 -5.737086E+04 -3.431294E+04  9.015000E+04 -8.840852E+03  1.249952E+04
        98   3 -2.502767E+04 -5.382342E+04 -4.638634E+04  8.285340E+04 -9.937933E+02  3.988439E+03
        98   4  3.626716E+05  5.283186E+03  1.245924E+04  1.113970E+05 -8.148933E+03  1.296282E+04
        98   5  3.597923E+05  1.508910E+04  2.252120E+04  1.052537E+05 -1.961810E+04  1.249822E+04
        98   6  3.626487E+05  4.182873E+04  4.428202E+04  1.113965E+05 -3.108894E+04  3.987683E+03
        98   7  5.894538E+05  5.789662E+04  4.886806E+04  1.130599E+05  3.958159E+02  1.296320E+04
        98   8  6.654160E+05  8.754462E+04  7.935194E+04  1.203650E+05 -3.040052E+04  1.249640E+04
        98   9  7.504672E+05  1.374738E+05  1.349440E+05  1.399575E+05 -6.120275E+04  3.984161E+03
        98  10  1.359403E+05 -4.733305E+04 -2.395151E+04  1.097349E+05  1.777293E-10 -1.168698E-10
        98  11  5.425962E+04 -5.737105E+04 -3.431338E+04  9.015009E+04 -7.495325E-11 -5.330394E-11
        98  12 -2.502768E+04 -5.382343E+04 -4.638638E+04  8.285340E+04 -1.397014E-10 -5.346400E-11
        98  13  3.626715E+05  5.282988E+03  1.245880E+04  1.113971E+05 -2.387415E-10 -1.122270E-10
        98  14  3.597919E+05  1.508883E+04  2.252019E+04  1.052539E+05 -2.692983E-10 -7.284860E-11
        98  15  3.626476E+05  4.182846E+04  4.428017E+04  1.113966E+05 -1.685181E-10  7.304318E-12
        98  16  5.894538E+05  5.789644E+04  4.886774E+04  1.130599E+05 -1.130583E-10 -7.375606E-11
        98  17  6.654149E+05  8.754420E+04  7.934991E+04  1.203653E+05 -1.173473E-10 -6.410764E-11
        98  18  7.504632E+05  1.374727E+05  1.349369E+05  1.399577E+05  4.060323E-10 -6.541680E-11
        98  19  1.359407E+05 -4.733279E+04 -2.395067E+04  1.097347E+05  1.669067E+04 -1.296249E+04
        98  20  5.425974E+04 -5.737086E+04 -3.431294E+04  9.015000E+04  8.840852E+03 -1.249952E+04
        98  21 -2.502767E+04 -5.382342E+04 -4.638634E+04  8.285340E+04  9.937933E+02 -3.988439E+03
        98  22  3.626716E+05  5.283186E+03  1.245924E+04  1.113970E+05  8.148933E+03 -1.296282E+04
        98  23  3.597923E+05  1.508910E+04  2.252120E+04  1.052537E+05  1.961810E+04 -1.249822E+04
        98  24  3.626487E+05  4.182873E+04  4.428202E+04  1.113965E+05  3.108894E+04 -3.987683E+03
        98  25  5.894538E+05  5.789662E+04  4.886806E+04  1.130599E+05 -3.958159E+02 -1.296320E+04
        98  26  6.654160E+05  8.754462E+04  7.935194E+04  1.203650E+05  3.040052E+04 -1.249640E+04
        98  27  7.504672E+05  1.374738E+05  1.349440E+05  1.399575E+05  6.120275E+04 -3.984161E+03
        99   1 -1.940554E+05 -6.299224E+05 -1.891661E+05  2.440254E+05 -6.004089E+03 -7.350912E+04
        99   2 -1.251304E+05 -4.676429E+05 -1.101632E+05  2.192317E+05 -1.805618E+04 -3.121270E+04
        99   3 -7.770805E+04 -3.162287E+05 -6.409163E+04  2.185877E+05 -1.708631E+04  1.109457E+04
        99   4 -3.943721E+04 -4.111872E+03 -4.197307E+04  2.172371E+05 -5.975422E+03 -2.894134E+04
        99   5 -1.418162E+04 -1.358030E+03 -2.174281E+04  2.051522E+05 -1.804616E+04 -1.786342E+04
        99   6 -4.995479E+03 -4.063221E+03 -1.274423E+04  2.172193E+05 -1.709772E+04 -6.786618E+03
        99   7  1.151568E+05  6.220652E+05  1.052009E+05  1.904215E+05 -5.950625E+03  1.567114E+04
        99   8  9.675530E+04  4.651376E+05  6.666869E+04  1.910618E+05 -1.803675E+04 -4.504353E+03
        99   9  6.771226E+04  3.081994E+05  3.860153E+04  2.158501E+05 -1.710905E+04 -2.467649E+04
        99  10 -1.940569E+05 -6.299282E+05 -1.891763E+05  2.440250E+05  1.037011E-10 -8.729438E-10
        99  11 -1.251310E+05 -4.676441E+05 -1.101657E+05  2.192312E+05  1.282595E-10  3.565818E-10
        99  12 -7.770840E+04 -3.162289E+05 -6.409241E+04  2.185879E+05  1.578796E-10  8.414097E-10
        99  13 -3.943747E+04 -4.112781E+03 -4.197471E+04  2.172369E+05 -3.394786E-10  2.249564E-13
        99  14 -1.418205E+04 -1.358460E+03 -2.174402E+04  2.051519E+05 -6.319093E-10 -9.741380E-12
        99  15 -4.995805E+03 -4.063349E+03 -1.274487E+04  2.172192E+05 -1.131626E-10  9.435865E-11
        99  16  1.151567E+05  6.220649E+05  1.052004E+05  1.904216E+05 -2.323017E-10  9.363661E-10
        99  17  9.675494E+04  4.651375E+05  6.666805E+04  1.910617E+05 -2.421289E-10 -1.191821E-10
        99  18  6.771178E+04  3.081987E+05  3.859983E+04  2.158498E+05 -2.936128E-10 -1.300288E-09
        99  19 -1.940554E+05 -6.299224E+05 -1.891661E+05  2.440254E+05  6.004089E+03  7.350912E+04
        99  20 -1.251304E+05 -4.676429E+05 -1.101632E+05  2.192317E+05  1.805618E+04  3.121270E+04
        99  21 -7.770805E+04 -3.162287E+05 -6.409163E+04  2.185877E+05  1.708631E+04 -1.109457E+04
        99  22 -3.943721E+04 -4.111872E+03 -4.197307E+04  2.172371E+05  5.975422E+03  2.894134E+04
        99  23 -1.418162E+04 -1.358030E+03 -2.174281E+04  2.051522E+05  1.804616E+04  1.786342E+04
        99  24 -4.995479E+03 -4.063221E+03 -1.274423E+04  2.172193E+05  1.709772E+04  6.786618E+03
        99  25  1.151568E+05  6.220652E+05  1.052009E+05  1.904215E+05  5.950625E+03 -1.567114E+04
        99  26  9.675530E+04  4.651376E+05  6.666869E+04  1.910618E+05  1.803675E+04  4.504353E+03
        99  27  6.771226E+04  3.081994E+05  3.860153E+04  2.158501E+05  1.710905E+04  2.467649E+04
       100   1 -5.352930E+04 -2.175595E+05 -4.503372E+04  2.195044E+05 -1.209573E+04  1.376874E+04
       100   2 -1.499345E+04 -6.009138E+04 -1.590079E+04  2.051331E+05 -4.099774E+03  1.847049E+04
       100   3  2.061035E+04  9.603976E+04  9.431270E+03  2.157929E+05  4.200837E+03  2.317301E+04
       100   4 -3.697309E+03 -3.115035E+03 -1.033056E+04  2.174150E+05 -1.210858E+04 -5.045160E+03
       100   5 -1.879394E+03 -2.494920E+03 -7.927733E+03  2.048990E+05 -4.113402E+03 -1.075930E+03
       100   6 -2.865180E+03 -3.108903E+03 -8.817188E+03  2.174145E+05  4.186431E+03  2.892959E+03
       100   7  4.613256E+04  2.113758E+05  2.437267E+04  2.153249E+05 -1.212131E+04 -2.386533E+04
       100   8  1.123472E+04  5.510572E+04  4.672216E+01  2.046649E+05 -4.127014E+03 -2.062409E+04
       100   9 -2.634104E+04 -1.022471E+05 -2.706450E+04  2.190358E+05  4.171916E+03 -1.738393E+04
       100  10 -5.352951E+04 -2.175597E+05 -4.503436E+04  2.195045E+05  2.025490E-10 -3.393298E-10
       100  11 -1.499356E+04 -6.009175E+04 -1.590146E+04  2.051331E+05  2.151779E-10  3.505595E-10
       100  12  2.061018E+04  9.603918E+04  9.430228E+03  2.157928E+05 -1.132573E-10  4.945617E-11
       100  13 -3.697473E+03 -3.115102E+03 -1.033089E+04  2.174150E+05 -7.488975E-11 -6.278676E-12
       100  14 -1.879413E+03 -2.494926E+03 -7.927767E+03  2.048990E+05 -5.954088E-11 -2.048854E-11
       100  15 -2.865201E+03 -3.108917E+03 -8.817236E+03  2.174145E+05 -2.151413E-10  8.354610E-11
       100  16  4.613225E+04  2.113752E+05  2.437132E+04  2.153246E+05  1.055128E-10  4.219453E-10
       100  17  1.123459E+04  5.510526E+04  4.589103E+01  2.046648E+05  2.632157E-10 -6.755596E-11
       100  18 -2.634114E+04 -1.022475E+05 -2.706511E+04  2.190359E+05  2.536018E-10 -6.261336E-10
       100  19 -5.352930E+04 -2.175595E+05 -4.503372E+04  2.195044E+05  1.209573E+04 -1.376874E+04
       100  20 -1.499345E+04 -6.009138E+04 -1.590079E+04  2.051331E+05  4.099774E+03 -1.847049E+04
       100  21  2.061035E+04  9.603976E+04  9.431270E+03  2.157929E+05 -4.200837E+03 -2.317301E+04
       100  22 -3.697309E+03 -3.115035E+03 -1.033056E+04  2.174150E+05  1.210858E+04  5.045160E+03
       100  23 -1.879394E+03 -2.494920E+03 -7.927733E+03  2.048990E+05  4.113402E+03  1.075930E+03
       100  24 -2.865180E+03 -3.108903E+03 -8.817188E+03  2.174145E+05 -4.186431E+03 -2.892959E+03
       100  25  4.613256E+04  2.113758E+05  2.437267E+04  2.153249E+05  1.212131E+04  2.386533E+04
       100  26  1.123472E+04  5.510572E+04  4.672216E+01  2.046649E+05  4.127014E+03  2.062409E+04
       100  27 -2.634104E+04 -1.022471E+05 -2.706450E+04  2.190358E+05 -4.171916E+03  1.738393E+04
       101   1  4.243438E+04  1.930102E+05  2.404476E+04  2.162378E+05  9.496742E+03  2.390421E+04
       101   2  7.341005E+04  3.497350E+05  5.203279E+04  1.945361E+05  1.226748E+04  6.641333E+03
       101   3  9.675803E+04  5.068164E+05  8.934528E+04  1.971753E+05  4.317973E+03 -1.062385E+04
       101   4 -3.788020E+03 -3.758633E+03 -1.033037E+04  2.172614E+05  9.483268E+03  4.351566E+03
       101   5 -1.058525E+04 -1.709764E+03 -1.664725E+04  2.050963E+05  1.227218E+04  1.282643E+04
       101   6 -2.947932E+04 -3.795333E+03 -3.151065E+04  2.172752E+05  4.337508E+03  2.130286E+04
       101   7 -5.001231E+04 -2.004887E+05 -4.470544E+04  2.182848E+05  9.469727E+03 -1.519507E+04
       101   8 -9.458753E+04 -3.530358E+05 -8.533300E+04  2.156503E+05  1.227710E+04  1.900810E+04
       101   9 -1.557333E+05 -5.141645E+05 -1.523806E+05  2.373583E+05  4.359120E+03  5.320346E+04
       101  10  4.243413E+04  1.930096E+05  2.404352E+04  2.162376E+05  1.203469E-10  1.318308E-10
       101  11  7.340988E+04  3.497349E+05  5.203243E+04  1.945360E+05 -3.423593E-10  1.426919E-10
       101  12  9.675798E+04  5.068163E+05  8.934503E+04  1.971754E+05  5.005699E-11 -5.424254E-10
       101  13 -3.788122E+03 -3.758678E+03 -1.033057E+04  2.172614E+05  4.218483E-10 -1.280695E-11
       101  14 -1.058545E+04 -1.709981E+03 -1.664784E+04  2.050961E+05  5.606348E-10 -5.947813E-12
       101  15 -2.947946E+04 -3.795826E+03 -3.151154E+04  2.172751E+05 -8.267352E-11  7.146604E-11
       101  16 -5.001247E+04 -2.004890E+05 -4.470604E+04  2.182849E+05  1.911593E-10 -6.033856E-11
       101  17 -9.458779E+04 -3.530362E+05 -8.533396E+04  2.156501E+05  6.053623E-11  1.195830E-10
       101  18 -1.557341E+05 -5.141676E+05 -1.523860E+05  2.373582E+05 -5.592109E-11  2.225964E-10
       101  19  4.243438E+04  1.930102E+05  2.404476E+04  2.162378E+05 -9.496742E+03 -2.390421E+04
       101  20  7.341005E+04  3.497350E+05  5.203279E+04  1.945361E+05 -1.226748E+04 -6.641333E+03
       101  21  9.675803E+04  5.068164E+05  8.934528E+04  1.971753E+05 -4.317973E+03  1.062385E+04
       101  22 -3.788020E+03 -3.758633E+03 -1.033037E+04  2.172614E+05 -9.483268E+03 -4.351566E+03
       101  23 -1.058525E+04 -1.709764E+03 -1.664725E+04  2.050963E+05 -1.227218E+04 -1.282643E+04
       101  24 -2.947932E+04 -3.795333E+03 -3.151065E+04  2.172752E+05 -4.337508E+03 -2.130286E+04
       101  25 -5.001231E+04 -2.004887E+05 -4.470544E+04  2.182848E+05 -9.469727E+03  1.519507E+04
       101  26 -9.458753E+04 -3.530358E+05 -8.533300E+04  2.156503E+05 -1.227710E+04 -1.900810E+04
       101  27 -1.557333E+05 -5.141645E+05 -1.523806E+05  2.373583E+05 -4.359120E+03 -5.320346E+04
       102   1  6.927543E+05  1.262259E+05  1.228146E+05  1.289860E+05  5.256711E+04 -4.106698E+03
       102   2  6.101700E+05  8.476530E+04  7.380259E+04  1.136467E+05  2.496229E+04 -1.295926E+04
       102   3  5.349788E+05  5.846256E+04  4.653904E+04  1.103225E+05 -2.637156E+03 -1.365050E+04
       102   4  2.985865E+05  2.902574E+04  3.074840E+04  1.091504E+05  2.149922E+04 -4.109006E+03
       102   5  2.966012E+05  1.046423E+04  1.570340E+04  1.031435E+05  1.350234E+04 -1.296081E+04
       102   6  2.986066E+05  3.663736E+03  8.803436E+03  1.091508E+05  5.507191E+03 -1.365021E+04
       102   7 -9.543539E+04 -6.818347E+04 -6.132450E+04  8.932746E+04 -9.549088E+03 -4.109332E+03
       102   8 -1.687192E+04 -6.384198E+04 -4.239937E+04  9.264560E+04  2.048029E+03 -1.296197E+04
       102   9  6.229004E+04 -5.113784E+04 -2.893337E+04  1.079795E+05  1.364855E+04 -1.364995E+04
       102  10  6.927514E+05  1.262252E+05  1.228094E+05  1.289862E+05  3.335468E-10 -1.879856E-11
       102  11  6.101693E+05  8.476495E+04  7.380110E+04  1.136470E+05  6.920891E-10 -1.180688E-10
       102  12  5.349788E+05  5.846236E+04  4.653867E+04  1.103225E+05  2.196283E-10  1.136915E-10
       102  13  2.985860E+05  2.902559E+04  3.074750E+04  1.091505E+05  3.987886E-10 -1.337558E-10
       102  14  2.966009E+05  1.046400E+04  1.570274E+04  1.031436E+05  1.094750E-10 -1.243939E-10
       102  15  2.986065E+05  3.663528E+03  8.803029E+03  1.091508E+05 -1.807677E-10  1.125832E-10
       102  16 -9.543549E+04 -6.818351E+04 -6.132471E+04  8.932743E+04 -5.453245E-11 -1.518370E-10
       102  17 -1.687197E+04 -6.384216E+04 -4.239970E+04  9.264562E+04 -3.138093E-10 -1.348472E-10
       102  18  6.228979E+04 -5.113809E+04 -2.893407E+04  1.079796E+05  1.134031E-10  1.432586E-10
       102  19  6.927543E+05  1.262259E+05  1.228146E+05  1.289860E+05 -5.256711E+04  4.106698E+03
       102  20  6.101700E+05  8.476530E+04  7.380259E+04  1.136467E+05 -2.496229E+04  1.295926E+04
       102  21  5.349788E+05  5.846256E+04  4.653904E+04  1.103225E+05  2.637156E+03  1.365050E+04
       102  22  2.985865E+05  2.902574E+04  3.074840E+04  1.091504E+05 -2.149922E+04  4.109006E+03
       102  23  2.966012E+05  1.046423E+04  1.570340E+04  1.031435E+05 -1.350234E+04  1.296081E+04
       102  24  2.986066E+05  3.663736E+03  8.803436E+03  1.091508E+05 -5.507191E+03  1.365021E+04
       102  25 -9.543539E+04 -6.818347E+04 -6.132450E+04  8.932746E+04  9.549088E+03  4.109332E+03
       102  26 -1.687192E+04 -6.384198E+04 -4.239937E+04  9.264560E+04 -2.048029E+03  1.296197E+04
       102  27  6.229004E+04 -5.113784E+04 -2.893337E+04  1.079795E+05 -1.364855E+04  1.364995E+04
       103   1  4.850249E+05  4.590908E+04  3.594259E+04  1.109201E+05 -4.455792E+03 -1.129424E+04
       103   2  4.056929E+05  2.571402E+04  2.023454E+04  1.037536E+05 -8.957699E+03 -7.156127E+03
       103   3  3.273902E+05  7.253171E+03  7.890161E+03  1.091995E+05 -1.345921E+04 -2.057735E+03
       103   4  2.978620E+05  2.668633E+03  6.819777E+03  1.092840E+05  4.328776E+03 -1.129358E+04
       103   5  2.975535E+05  9.259678E+02  4.390411E+03  1.029778E+05  2.132776E+03 -7.154910E+03
       103   6  2.978682E+05  5.178057E+02  3.724332E+03  1.092841E+05 -6.336292E+01 -2.055887E+03
       103   7  1.107342E+05 -4.057347E+04 -2.230356E+04  1.076484E+05  1.311080E+04 -1.129296E+04
       103   8  1.894261E+05 -2.386256E+04 -1.145346E+04  1.022022E+05  1.322140E+04 -7.153720E+03
       103   9  2.683474E+05 -6.217502E+03 -4.408339E+02  1.093688E+05  1.333188E+04 -2.054035E+03
       103  10  4.850249E+05  4.590894E+04  3.594231E+04  1.109201E+05  4.913049E-10  1.869856E-10
       103  11  4.056928E+05  2.571395E+04  2.023430E+04  1.037535E+05  2.913463E-10  1.740007E-10
       103  12  3.273900E+05  7.253118E+03  7.889813E+03  1.091995E+05 -1.969351E-10  5.814823E-11
       103  13  2.978619E+05  2.668491E+03  6.819502E+03  1.092840E+05  3.898715E-10  2.261831E-10
       103  14  2.975534E+05  9.259116E+02  4.390306E+03  1.029778E+05  1.607339E-10  2.083113E-10
       103  15  2.978682E+05  5.178011E+02  3.724324E+03  1.092841E+05 -1.247573E-10  9.370064E-11
       103  16  1.107340E+05 -4.057366E+04 -2.230413E+04  1.076485E+05 -4.186872E-10  2.129126E-10
       103  17  1.894259E+05 -2.386266E+04 -1.145389E+04  1.022022E+05  1.549239E-10  1.766410E-10
       103  18  2.683472E+05 -6.217555E+03 -4.411757E+02  1.093688E+05  3.587597E-10  2.310829E-10
       103  19  4.850249E+05  4.590908E+04  3.594259E+04  1.109201E+05  4.455792E+03  1.129424E+04
       103  20  4.056929E+05  2.571402E+04  2.023454E+04  1.037536E+05  8.957699E+03  7.156127E+03
       103  21  3.273902E+05  7.253171E+03  7.890161E+03  1.091995E+05  1.345921E+04  2.057735E+03
       103  22  2.978620E+05  2.668633E+03  6.819777E+03  1.092840E+05 -4.328776E+03  1.129358E+04
       103  23  2.975535E+05  9.259678E+02  4.390411E+03  1.029778E+05 -2.132776E+03  7.154910E+03
       103  24  2.978682E+05  5.178057E+02  3.724332E+03  1.092841E+05  6.336292E+01  2.055887E+03
       103  25  1.107342E+05 -4.057347E+04 -2.230356E+04  1.076484E+05 -1.311080E+04  1.129296E+04
       103  26  1.894261E+05 -2.386256E+04 -1.145346E+04  1.022022E+05 -1.322140E+04  7.153720E+03
       103  27  2.683474E+05 -6.217502E+03 -4.408339E+02  1.093688E+05 -1.333188E+04  2.054035E+03
       104   1  2.786659E+05 -3.867158E+03  1.044413E+03  1.093708E+05 -1.409759E+04  1.269622E+03
       104   2  1.996729E+05 -2.128295E+04 -9.314399E+03  1.019763E+05 -1.444754E+04  6.385535E+03
       104   3  1.210534E+05 -3.743278E+04 -1.912771E+04  1.071969E+05 -1.479732E+04  1.057194E+04
       104   4  2.978971E+05  5.416699E+02  3.863450E+03  1.092846E+05 -7.000868E+02  1.271486E+03
       104   5  2.975177E+05  1.175541E+03  5.159364E+03  1.029771E+05 -3.282601E+03  6.386770E+03
       104   6  2.978913E+05  3.462512E+03  8.549643E+03  1.092844E+05 -5.864961E+03  1.057262E+04
       104   7  3.171291E+05  4.950578E+03  6.683155E+03  1.091984E+05  1.269781E+04  1.273346E+03
       104   8  3.953724E+05  2.363366E+04  1.963342E+04  1.039782E+05  7.884021E+03  6.388041E+03
       104   9  4.747606E+05  4.435632E+04  3.622655E+04  1.113726E+05  3.069847E+03  1.057336E+04
       104  10  2.786657E+05 -3.867214E+03  1.044037E+03  1.093708E+05 -1.051885E-10 -1.101512E-11
       104  11  1.996727E+05 -2.128305E+04 -9.314867E+03  1.019764E+05  3.627786E-11 -6.853538E-11
       104  12  1.210531E+05 -3.743296E+04 -1.912833E+04  1.071970E+05 -3.101341E-11 -4.103891E-11
       104  13  2.978971E+05  5.416681E+02  3.863446E+03  1.092846E+05 -8.060402E-11  9.307019E-11
       104  14  2.975177E+05  1.175494E+03  5.159267E+03  1.029772E+05  1.321650E-14  1.154198E-10
       104  15  2.978912E+05  3.462383E+03  8.549369E+03  1.092845E+05 -2.422605E-10  1.807185E-11
       104  16  3.171289E+05  4.950533E+03  6.682849E+03  1.091984E+05  1.875274E-11  2.294761E-10
       104  17  3.953723E+05  2.363360E+04  1.963323E+04  1.039781E+05 -2.757819E-10  1.588164E-10
       104  18  4.747605E+05  4.435620E+04  3.622632E+04  1.113726E+05 -2.298959E-11  1.760033E-10
       104  19  2.786659E+05 -3.867158E+03  1.044413E+03  1.093708E+05  1.409759E+04 -1.269622E+03
       104  20  1.996729E+05 -2.128295E+04 -9.314399E+03  1.019763E+05  1.444754E+04 -6.385535E+03
       104  21  1.210534E+05 -3.743278E+04 -1.912771E+04  1.071969E+05  1.479732E+04 -1.057194E+04
       104  22  2.978971E+05  5.416699E+02  3.863450E+03  1.092846E+05  7.000868E+02 -1.271486E+03
       104  23  2.975177E+05  1.175541E+03  5.159364E+03  1.029771E+05  3.282601E+03 -6.386770E+03
       104  24  2.978913E+05  3.462512E+03  8.549643E+03  1.092844E+05  5.864961E+03 -1.057262E+04
       104  25  3.171291E+05  4.950578E+03  6.683155E+03  1.091984E+05 -1.269781E+04 -1.273346E+03
       104  26  3.953724E+05  2.363366E+04  1.963342E+04  1.039782E+05 -7.884021E+03 -6.388041E+03
       104  27  4.747606E+05  4.435632E+04  3.622655E+04  1.113726E+05 -3.069847E+03 -1.057336E+04
       105   1  7.285401E+04 -4.768556E+04 -2.503666E+04  1.076581E+05 -1.565570E+04  1.296007E+04
       105   2 -6.933896E+03 -5.832007E+04 -3.608107E+04  8.954361E+04 -6.865380E+03  1.244268E+04
       105   3 -8.486783E+04 -5.702407E+04 -4.986376E+04  8.346039E+04  1.922377E+03  3.963045E+03
       105   4  2.988679E+05  4.756047E+03  1.120207E+04  1.091541E+05 -7.348178E+03  1.296041E+04
       105   5  2.962758E+05  1.358257E+04  2.026680E+04  1.031389E+05 -1.766876E+04  1.244142E+04
       105   6  2.988471E+05  3.765318E+04  3.986077E+04  1.091535E+05 -2.799124E+04  3.962327E+03
       105   7  5.249327E+05  5.719514E+04  4.743969E+04  1.106506E+05  9.622623E+02  1.296079E+04
       105   8  5.995751E+05  8.548069E+04  7.661132E+04  1.167410E+05 -2.847727E+04  1.243969E+04
       105   9  6.827011E+05  1.323229E+05  1.295790E+05  1.348626E+05 -5.792322E+04  3.959135E+03
       105  10  7.285370E+04 -4.768581E+04 -2.503743E+04  1.076583E+05  2.983070E-10  2.020748E-11
       105  11 -6.933988E+03 -5.832025E+04 -3.608145E+04  8.954368E+04  5.036582E-10  1.747915E-10
       105  12 -8.486783E+04 -5.702409E+04 -4.986380E+04  8.346039E+04  1.015383E-10  1.446287E-10
       105  13  2.988678E+05  4.755852E+03  1.120165E+04  1.091542E+05 -2.668681E-10  4.021163E-11
       105  14  2.962754E+05  1.358232E+04  2.026592E+04  1.031391E+05 -4.562232E-10  1.469789E-11
       105  15  2.988463E+05  3.765295E+04  3.985927E+04  1.091536E+05  1.646360E-10 -8.732654E-11
       105  16  5.249326E+05  5.719496E+04  4.743938E+04  1.106506E+05 -5.178000E-11  6.850568E-11
       105  17  5.995742E+05  8.548030E+04  7.660950E+04  1.167412E+05  8.958548E-12 -1.330878E-10
       105  18  6.826975E+05  1.323220E+05  1.295727E+05  1.348628E+05  2.401155E-10 -1.003095E-10
       105  19  7.285401E+04 -4.768556E+04 -2.503666E+04  1.076581E+05  1.565570E+04 -1.296007E+04
       105  20 -6.933896E+03 -5.832007E+04 -3.608107E+04  8.954361E+04  6.865380E+03 -1.244268E+04
       105  21 -8.486783E+04 -5.702407E+04 -4.986376E+04  8.346039E+04 -1.922377E+03 -3.963045E+03
       105  22  2.988679E+05  4.756047E+03  1.120207E+04  1.091541E+05  7.348178E+03 -1.296041E+04
       105  23  2.962758E+05  1.358257E+04  2.026680E+04  1.031389E+05  1.766876E+04 -1.244142E+04
       105  24  2.988471E+05  3.765318E+04  3.986077E+04  1.091535E+05  2.799124E+04 -3.962327E+03
       105  25  5.249327E+05  5.719514E+04  4.743969E+04  1.106506E+05 -9.622623E+02 -1.296079E+04
       105  26  5.995751E+05  8.548069E+04  7.661132E+04  1.167410E+05  2.847727E+04 -1.243969E+04
       105  27  6.827011E+05  1.323229E+05  1.295790E+05  1.348626E+05  5.792322E+04 -3.959135E+03
       106   1 -1.783462E+05 -6.034032E+05 -1.738144E+05  2.253470E+05 -5.529634E+03 -6.704885E+04
       106   2 -1.151307E+05 -4.532191E+05 -1.013542E+05  2.026606E+05 -1.662485E+04 -2.814437E+04
       106   3 -7.147757E+04 -3.129762E+05 -5.912976E+04  2.023359E+05 -1.569996E+04  1.076936E+04
       106   4 -3.563792E+04 -2.581608E+04 -3.795075E+04  2.011138E+05 -5.505202E+03 -2.598293E+04
       106   5 -1.283132E+04 -2.332022E+04 -1.980086E+04  1.899245E+05 -1.661635E+04 -1.589683E+04
       106   6 -4.572592E+03 -2.577421E+04 -1.185646E+04  2.010989E+05 -1.570979E+04 -5.811706E+03
       106   7  1.070497E+05  5.520832E+05  9.789665E+04  1.768578E+05 -5.483994E+03  1.512102E+04
       106   8  8.945792E+04  4.067577E+05  6.174491E+04  1.771794E+05 -1.660835E+04 -3.641014E+03
       106   9  6.232829E+04  2.615100E+05  3.541546E+04  1.998613E+05 -1.571955E+04 -2.240018E+04
       106  10 -1.783474E+05 -6.034081E+05 -1.738229E+05  2.253467E+05  1.364336E-10 -1.221624E-10
       106  11 -1.151312E+05 -4.532200E+05 -1.013562E+05  2.026602E+05  3.022672E-11  2.716519E-10
       106  12 -7.147786E+04 -3.129763E+05 -5.913044E+04  2.023360E+05  4.819824E-10  7.673343E-10
       106  13 -3.563814E+04 -2.581681E+04 -3.795207E+04  2.011137E+05  3.040887E-11  8.711007E-12
       106  14 -1.283168E+04 -2.332056E+04 -1.980186E+04  1.899243E+05 -8.570624E-10 -2.570552E-10
       106  15 -4.572866E+03 -2.577431E+04 -1.185699E+04  2.010988E+05  1.561936E-10 -2.723619E-11
       106  16  1.070496E+05  5.520830E+05  9.789616E+04  1.768579E+05 -1.291638E-10  2.381587E-10
       106  17  8.945762E+04  4.067576E+05  6.174436E+04  1.771793E+05  1.353652E-10 -3.780963E-10
       106  18  6.232789E+04  2.615094E+05  3.541406E+04  1.998610E+05  2.001466E-10 -1.058440E-09
       106  19 -1.783462E+05 -6.034032E+05 -1.738144E+05  2.253470E+05  5.529634E+03  6.704885E+04
       106  20 -1.151307E+05 -4.532191E+05 -1.013542E+05  2.026606E+05  1.662485E+04  2.814437E+04
       106  21 -7.147757E+04 -3.129762E+05 -5.912976E+04  2.023359E+05  1.569996E+04 -1.076936E+04
       106  22 -3.563792E+04 -2.581608E+04 -3.795075E+04  2.011138E+05  5.505202E+03  2.598293E+04
       106  23 -1.283132E+04 -2.332022E+04 -1.980086E+04  1.899245E+05  1.661635E+04  1.589683E+04
       106  24 -4.572592E+03 -2.577421E+04 -1.185646E+04  2.010989E+05  1.570979E+04  5.811706E+03
       106  25  1.070497E+05  5.520832E+05  9.789665E+04  1.768578E+05  5.483994E+03 -1.512102E+04
       106  26  8.945792E+04  4.067577E+05  6.174491E+04  1.771794E+05  1.660835E+04  3.641014E+03
       106  27  6.232829E+04  2.615100E+05  3.541546E+04  1.998613E+05  1.571955E+04  2.240018E+04
       107   1 -4.914420E+04 -2.216733E+05 -4.167596E+04  2.031851E+05 -1.107475E+04  1.327120E+04
       107   2 -1.366671E+04 -7.583278E+04 -1.516192E+04  1.897077E+05 -3.666925E+03  1.794771E+04
       107   3  1.885253E+04  6.866631E+04  7.562091E+03  1.994052E+05  4.013433E+03  2.262494E+04
       107   4 -3.420946E+03 -2.494379E+04 -9.804499E+03  2.012795E+05 -1.108581E+04 -4.170271E+03
       107   5 -1.936571E+03 -2.431696E+04 -8.030402E+03  1.896918E+05 -3.678619E+03 -1.490229E+02
       107   6 -3.295718E+03 -2.493870E+04 -9.591458E+03  2.012794E+05  4.001107E+03  3.871941E+03
       107   7  4.230052E+04  1.718248E+05  2.206704E+04  1.993732E+05 -1.109676E+04 -2.161707E+04
       107   8  9.793622E+03  2.720226E+04 -8.976829E+02  1.896759E+05 -3.690311E+03 -1.824719E+04
       107   9 -2.544425E+04 -1.185344E+05 -2.674404E+04  2.031532E+05  3.988666E+03 -1.487831E+04
       107  10 -4.914438E+04 -2.216735E+05 -4.167652E+04  2.031852E+05  7.900058E-11 -4.423230E-10
       107  11 -1.366681E+04 -7.583313E+04 -1.516255E+04  1.897078E+05 -2.753624E-10  4.976743E-11
       107  12  1.885237E+04  6.866575E+04  7.561099E+03  1.994052E+05  1.369065E-10  3.502804E-10
       107  13 -3.421083E+03 -2.494384E+04 -9.804762E+03  2.012794E+05  1.467487E-10  5.648224E-12
       107  14 -1.936586E+03 -2.431696E+04 -8.030427E+03  1.896918E+05 -7.101013E-11 -3.371912E-10
       107  15 -3.295739E+03 -2.493872E+04 -9.591516E+03  2.012793E+05  2.797526E-10 -2.286726E-11
       107  16  4.230027E+04  1.718242E+05  2.206593E+04  1.993730E+05  5.831074E-10  6.307060E-10
       107  17  9.793518E+03  2.720190E+04 -8.983340E+02  1.896758E+05  1.459046E-10 -1.204993E-10
       107  18 -2.544433E+04 -1.185347E+05 -2.674449E+04  2.031532E+05  3.952361E-10 -6.672838E-10
       107  19 -4.914420E+04 -2.216733E+05 -4.167596E+04  2.031851E+05  1.107475E+04 -1.327120E+04
       107  20 -1.366671E+04 -7.583278E+04 -1.516192E+04  1.897077E+05  3.666925E+03 -1.794771E+04
       107  21  1.885253E+04  6.866631E+04  7.562091E+03  1.994052E+05 -4.013433E+03 -2.262494E+04
       107  22 -3.420946E+03 -2.494379E+04 -9.804499E+03  2.012795E+05  1.108581E+04  4.170271E+03
       107  23 -1.936571E+03 -2.431696E+04 -8.030402E+03  1.896918E+05  3.678619E+03  1.490229E+02
       107  24 -3.295718E+03 -2.493870E+04 -9.591458E+03  2.012794E+05 -4.001107E+03 -3.871941E+03
       107  25  4.230052E+04  1.718248E+05  2.206704E+04  1.993732E+05  1.109676E+04  2.161707E+04
       107  26  9.793622E+03  2.720226E+04 -8.976829E+02  1.896759E+05  3.690311E+03  1.824719E+04
       107  27 -2.544425E+04 -1.185344E+05 -2.674404E+04  2.031532E+05 -3.988666E+03  1.487831E+04
       108   1  3.882032E+04  1.582604E+05  2.057551E+04  1.999169E+05  8.912021E+03  2.355005E+04
       108   2  6.588083E+04  3.038229E+05  4.481375E+04  1.776028E+05  1.145022E+04  9.351686E+03
       108   3  8.310180E+04  4.487885E+05  7.583011E+04  1.778213E+05  4.026676E+03 -4.848183E+03
       108   4 -4.390365E+03 -2.572559E+04 -1.151705E+04  2.011369E+05  8.900498E+03  5.473563E+03
       108   5 -1.230745E+04 -2.335695E+04 -1.908333E+04  1.898764E+05  1.145442E+04  1.519005E+04
       108   6 -3.421784E+04 -2.575758E+04 -3.647793E+04  2.011517E+05  4.043651E+03  2.490784E+04
       108   7 -4.760270E+04 -2.096777E+05 -4.360958E+04  2.023566E+05  8.888902E+03 -1.259773E+04
       108   8 -9.050156E+04 -3.504338E+05 -8.298531E+04  2.021434E+05  1.145885E+04  2.102540E+04
       108   9 -1.515511E+05 -5.000937E+05 -1.487980E+05  2.244642E+05  4.062870E+03  5.464125E+04
       108  10  3.882008E+04  1.582598E+05  2.057432E+04  1.999168E+05  4.979454E-10 -1.201653E-11
       108  11  6.588067E+04  3.038228E+05  4.481334E+04  1.776027E+05  3.237213E-10 -5.361943E-11
       108  12  8.310178E+04  4.487885E+05  7.583003E+04  1.778214E+05  1.523762E-10 -2.766669E-10
       108  13 -4.390458E+03 -2.572564E+04 -1.151725E+04  2.011369E+05  5.890604E-10  4.257397E-12
       108  14 -1.230765E+04 -2.335723E+04 -1.908401E+04  1.898763E+05  6.455944E-10 -2.837599E-10
       108  15 -3.421802E+04 -2.575825E+04 -3.647913E+04  2.011517E+05  3.400789E-10 -2.917022E-11
       108  16 -4.760283E+04 -2.096779E+05 -4.361003E+04  2.023567E+05  5.659421E-10  2.160142E-10
       108  17 -9.050182E+04 -3.504343E+05 -8.298639E+04  2.021432E+05  3.523096E-10 -1.104972E-11
       108  18 -1.515519E+05 -5.000969E+05 -1.488036E+05  2.244640E+05 -3.814007E-11  2.806996E-11
       108  19  3.882032E+04  1.582604E+05  2.057551E+04  1.999169E+05 -8.912021E+03 -2.355005E+04
       108  20  6.588083E+04  3.038229E+05  4.481375E+04  1.776028E+05 -1.145022E+04 -9.351686E+03
       108  21  8.310180E+04  4.487885E+05  7.583011E+04  1.778213E+05 -4.026676E+03  4.848183E+03
       108  22 -4.390365E+03 -2.572559E+04 -1.151705E+04  2.011369E+05 -8.900498E+03 -5.473563E+03
       108  23 -1.230745E+04 -2.335695E+04 -1.908333E+04  1.898764E+05 -1.145442E+04 -1.519005E+04
       108  24 -3.421784E+04 -2.575758E+04 -3.647793E+04  2.011517E+05 -4.043651E+03 -2.490784E+04
       108  25 -4.760270E+04 -2.096777E+05 -4.360958E+04  2.023566E+05 -8.888902E+03  1.259773E+04
       108  26 -9.050156E+04 -3.504338E+05 -8.298531E+04  2.021434E+05 -1.145885E+04 -2.102540E+04
       108  27 -1.515511E+05 -5.000937E+05 -1.487980E+05  2.244642E+05 -4.062870E+03 -5.464125E+04
       109   1  6.933408E+05  1.391942E+05  1.345585E+05  1.763639E+05  4.970980E+04 -4.632636E+03
       109   2  5.723325E+05  9.357253E+04  7.949056E+04  1.608843E+05  1.995686E+04 -1.404910E+04
       109   3  4.583005E+05  6.027244E+04  4.685926E+04  1.634794E+05 -9.787672E+03 -1.335216E+04
       109   4  2.105857E+05  2.001722E+04  2.118041E+04  1.626786E+05  1.495064E+04 -4.637831E+03
       109   5  2.092247E+05  7.226677E+03  1.071200E+04  1.536422E+05  9.495180E+03 -1.405159E+04
       109   6  2.106159E+05  2.547127E+03  5.821912E+03  1.626800E+05  4.042107E+03 -1.334981E+04
       109   7 -2.719520E+05 -9.917497E+04 -9.220903E+04  1.490039E+05 -1.978169E+04 -4.641500E+03
       109   8 -1.537556E+05 -7.912663E+04 -5.807199E+04  1.464044E+05 -9.605381E+02 -1.405383E+04
       109   9 -3.700778E+04 -5.518125E+04 -3.521656E+04  1.618809E+05  1.786656E+04 -1.334751E+04
       109  10  6.933382E+05  1.391935E+05  1.345538E+05  1.763640E+05  2.359836E-08 -1.231514E-10
       109  11  5.723320E+05  9.357222E+04  7.948944E+04  1.608845E+05 -4.523016E-08 -8.281484E-10
       109  12  4.583004E+05  6.027222E+04  4.685875E+04  1.634793E+05 -1.109015E-07 -1.918053E-09
       109  13  2.105855E+05  2.001713E+04  2.117995E+04  1.626786E+05 -9.508929E-11 -1.654332E-10
       109  14  2.092246E+05  7.226441E+03  1.071146E+04  1.536423E+05  1.484609E-10 -7.374738E-10
       109  15  2.106158E+05  2.546931E+03  5.821547E+03  1.626800E+05 -2.008823E-10 -1.841002E-09
       109  16 -2.719524E+05 -9.917510E+04 -9.220981E+04  1.490039E+05 -2.371810E-08 -1.547798E-10
       109  17 -1.537556E+05 -7.912684E+04 -5.807236E+04  1.464044E+05  4.490166E-08 -7.426527E-10
       109  18 -3.700817E+04 -5.518153E+04 -3.521749E+04  1.618811E+05  1.105763E-07 -1.862157E-09
       109  19  6.933408E+05  1.391942E+05  1.345585E+05  1.763639E+05 -4.970980E+04  4.632636E+03
       109  20  5.723325E+05  9.357253E+04  7.949056E+04  1.608843E+05 -1.995686E+04  1.404910E+04
       109  21  4.583005E+05  6.027244E+04  4.685926E+04  1.634794E+05  9.787672E+03  1.335216E+04
       109  22  2.105857E+05  2.001722E+04  2.118041E+04  1.626786E+05 -1.495064E+04  4.637831E+03
       109  23  2.092247E+05  7.226677E+03  1.071200E+04  1.536422E+05 -9.495180E+03  1.405159E+04
       109  24  2.106159E+05  2.547127E+03  5.821912E+03  1.626800E+05 -4.042107E+03  1.334981E+04
       109  25 -2.719520E+05 -9.917497E+04 -9.220903E+04  1.490039E+05  1.978169E+04  4.641500E+03
       109  26 -1.537556E+05 -7.912663E+04 -5.807199E+04  1.464044E+05  9.605381E+02  1.405383E+04
       109  27 -3.700778E+04 -5.518125E+04 -3.521656E+04  1.618809E+05 -1.786656E+04  1.334751E+04
       110   1  3.846026E+05  4.250150E+04  3.309572E+04  1.639469E+05 -1.133685E+04 -9.524065E+03
       110   2  2.667477E+05  1.394009E+04  1.211907E+04  1.539712E+05 -1.522438E+04 -2.877930E+03
       110   3  1.497437E+05 -1.332511E+04 -6.002425E+03  1.628093E+05 -1.911118E+04  4.885843E+03
       110   4  2.100921E+05  1.864009E+03  4.360509E+03  1.628445E+05  3.280553E+03 -9.521077E+03
       110   5  2.099095E+05  6.325037E+02  2.404582E+03  1.534377E+05  2.075169E+03 -2.874140E+03
       110   6  2.100968E+05  2.318273E+02  1.440986E+03  1.628447E+05  8.697973E+02  4.890479E+03
       110   7  3.561215E+04 -3.877493E+04 -2.437480E+04  1.617425E+05  1.789399E+04 -9.518140E+03
       110   8  1.530751E+05 -1.267509E+04 -7.308888E+03  1.529043E+05  1.937318E+04 -2.870380E+03
       110   9  2.704545E+05  1.378884E+04  8.885894E+03  1.628801E+05  2.085262E+04  4.895116E+03
       110  10  3.846024E+05  4.250137E+04  3.309531E+04  1.639468E+05  1.112162E-07 -1.739280E-09
       110  11  2.667474E+05  1.394002E+04  1.211862E+04  1.539712E+05  4.520365E-08 -8.390041E-10
       110  12  1.497433E+05 -1.332524E+04 -6.003156E+03  1.628094E+05 -2.352323E-08  4.075857E-10
       110  13  2.100920E+05  1.863909E+03  4.360318E+03  1.628445E+05  2.426777E-11 -1.877428E-09
       110  14  2.099095E+05  6.324937E+02  2.404558E+03  1.534377E+05 -2.103782E-10 -7.987361E-10
       110  15  2.100968E+05  2.318015E+02  1.440940E+03  1.628447E+05 -3.675176E-10  2.371221E-10
       110  16  3.561178E+04 -3.877512E+04 -2.437557E+04  1.617426E+05 -1.111199E-07 -2.051570E-09
       110  17  1.530747E+05 -1.267520E+04 -7.309609E+03  1.529043E+05 -4.529980E-08 -8.547732E-10
       110  18  2.704540E+05  1.378870E+04  8.885033E+03  1.628801E+05  2.357222E-08  2.345627E-10
       110  19  3.846026E+05  4.250150E+04  3.309572E+04  1.639469E+05  1.133685E+04  9.524065E+03
       110  20  2.667477E+05  1.394009E+04  1.211907E+04  1.539712E+05  1.522438E+04  2.877930E+03
       110  21  1.497437E+05 -1.332511E+04 -6.002425E+03  1.628093E+05  1.911118E+04 -4.885843E+03
       110  22  2.100921E+05  1.864009E+03  4.360509E+03  1.628445E+05 -3.280553E+03  9.521077E+03
       110  23  2.099095E+05  6.325037E+02  2.404582E+03  1.534377E+05 -2.075169E+03  2.874140E+03
       110  24  2.100968E+05  2.318273E+02  1.440986E+03  1.628447E+05 -8.697973E+02 -4.890479E+03
       110  25  3.561215E+04 -3.877493E+04 -2.437480E+04  1.617425E+05 -1.789399E+04  9.518140E+03
       110  26  1.530751E+05 -1.267509E+04 -7.308888E+03  1.529043E+05 -1.937318E+04  2.870380E+03
       110  27  2.704545E+05  1.378884E+04  8.885894E+03  1.628801E+05 -2.085262E+04 -4.895116E+03
       111   1  7.704543E+04 -2.998457E+04 -1.668936E+04  1.628520E+05 -1.928911E+04  9.844743E+03
       111   2 -4.007867E+04 -5.698267E+04 -3.459485E+04  1.533551E+05 -1.564395E+04  1.730422E+04
       111   3 -1.577834E+05 -8.449430E+04 -5.500027E+04  1.626343E+05 -1.199876E+04  2.306476E+04
       111   4  2.100376E+05  1.802546E+02  1.163411E+03  1.628362E+05  6.502680E+02  9.849058E+03
       111   5  2.099700E+05  1.154670E+02  8.688048E+02  1.534485E+05  2.168536E+02  1.730649E+04
       111   6  2.100177E+05  2.461137E+02  9.062603E+02  1.628362E+05 -2.159530E+02  2.306535E+04
       111   7  3.430487E+05  3.034453E+04  1.901752E+04  1.628205E+05  2.059372E+04  9.853372E+03
       111   8  4.600825E+05  5.721092E+04  3.633252E+04  1.535418E+05  1.608377E+04  1.730876E+04
       111   9  5.779546E+05  8.498012E+04  5.681047E+04  1.630382E+05  1.157356E+04  2.306595E+04
       111  10  7.704501E+04 -2.998477E+04 -1.669024E+04  1.628521E+05  1.285897E-09  6.852501E-10
       111  11 -4.007901E+04 -5.698306E+04 -3.459587E+04  1.533553E+05  8.970595E-10  4.992578E-10
       111  12 -1.577837E+05 -8.449491E+04 -5.500154E+04  1.626346E+05  8.278626E-10  2.545802E-10
       111  13  2.100376E+05  1.801503E+02  1.163228E+03  1.628362E+05 -1.270676E-10  4.979929E-10
       111  14  2.099699E+05  1.151453E+02  8.682418E+02  1.534485E+05 -6.731019E-10  3.860674E-10
       111  15  2.100175E+05  2.455424E+02  9.052603E+02  1.628362E+05  5.789930E-10  2.940780E-10
       111  16  3.430482E+05  3.034431E+04  1.901654E+04  1.628203E+05 -1.441305E-09  3.793758E-10
       111  17  4.600821E+05  5.721053E+04  3.633147E+04  1.535416E+05 -1.030306E-09  4.495527E-10
       111  18  5.779543E+05  8.497951E+04  5.680922E+04  1.630380E+05 -1.037958E-09  3.629166E-10
       111  19  7.704543E+04 -2.998457E+04 -1.668936E+04  1.628520E+05  1.928911E+04 -9.844743E+03
       111  20 -4.007867E+04 -5.698267E+04 -3.459485E+04  1.533551E+05  1.564395E+04 -1.730422E+04
       111  21 -1.577834E+05 -8.449430E+04 -5.500027E+04  1.626343E+05  1.199876E+04 -2.306476E+04
       111  22  2.100376E+05  1.802546E+02  1.163411E+03  1.628362E+05 -6.502680E+02 -9.849058E+03
       111  23  2.099700E+05  1.154670E+02  8.688048E+02  1.534485E+05 -2.168536E+02 -1.730649E+04
       111  24  2.100177E+05  2.461137E+02  9.062603E+02  1.628362E+05  2.159530E+02 -2.306535E+04
       111  25  3.430487E+05  3.034453E+04  1.901752E+04  1.628205E+05 -2.059372E+04 -9.853372E+03
       111  26  4.600825E+05  5.721092E+04  3.633252E+04  1.535418E+05 -1.608377E+04 -1.730876E+04
       111  27  5.779546E+05  8.498012E+04  5.681047E+04  1.630382E+05 -1.157356E+04 -2.306595E+04
       112   1 -2.311288E+05 -1.017559E+05 -6.816282E+04  1.624640E+05 -1.105740E+04  2.630756E+04
       112   2 -3.459504E+05 -1.305686E+05 -1.001636E+05  1.527009E+05  2.152261E+04  2.380780E+04
       112   3 -4.661335E+05 -1.640147E+05 -1.545337E+05  1.606861E+05  5.409061E+04  7.389757E+03
       112   4  2.100756E+05  3.267197E+02  1.033048E+03  1.626077E+05 -3.692433E+02  2.630719E+04
       112   5  2.098418E+05  9.536216E+02  1.599204E+03  1.537339E+05 -1.174448E+03  2.380479E+04
       112   6  2.100323E+05  2.746228E+03  2.984485E+03  1.626077E+05 -1.984943E+03  7.389963E+03
       112   7  6.514743E+05  1.023998E+05  7.022463E+04  1.627515E+05  1.032622E+04  2.630682E+04
       112   8  7.659352E+05  1.324586E+05  1.033513E+05  1.547679E+05 -2.389129E+04  2.380171E+04
       112   9  8.866267E+05  1.694765E+05  1.604835E+05  1.645314E+05 -5.812118E+04  7.389828E+03
       112  10 -2.311291E+05 -1.017567E+05 -6.816435E+04  1.624643E+05  6.461156E-10  2.902036E-10
       112  11 -3.459511E+05 -1.305693E+05 -1.001655E+05  1.527005E+05  7.963192E-10  5.452162E-10
       112  12 -4.661367E+05 -1.640156E+05 -1.545393E+05  1.606858E+05  5.252191E-10  1.992224E-10
       112  13  2.100754E+05  3.259764E+02  1.031747E+03  1.626077E+05 -6.020257E-10  2.977974E-10
       112  14  2.098417E+05  9.530127E+02  1.598137E+03  1.537340E+05  9.229595E-11  1.035142E-10
       112  15  2.100322E+05  2.746168E+03  2.984375E+03  1.626077E+05  2.641858E-10  5.038919E-11
       112  16  6.514740E+05  1.023990E+05  7.022313E+04  1.627513E+05 -4.016244E-10  3.348370E-10
       112  17  7.659344E+05  1.324578E+05  1.033492E+05  1.547683E+05 -1.527043E-11  5.954964E-11
       112  18  8.866231E+05  1.694756E+05  1.604771E+05  1.645317E+05 -8.676974E-10  1.596016E-10
       112  19 -2.311288E+05 -1.017559E+05 -6.816282E+04  1.624640E+05  1.105740E+04 -2.630756E+04
       112  20 -3.459504E+05 -1.305686E+05 -1.001636E+05  1.527009E+05 -2.152261E+04 -2.380780E+04
       112  21 -4.661335E+05 -1.640147E+05 -1.545337E+05  1.606861E+05 -5.409061E+04 -7.389757E+03
       112  22  2.100756E+05  3.267197E+02  1.033048E+03  1.626077E+05  3.692433E+02 -2.630719E+04
       112  23  2.098418E+05  9.536216E+02  1.599204E+03  1.537339E+05  1.174448E+03 -2.380479E+04
       112  24  2.100323E+05  2.746228E+03  2.984485E+03  1.626077E+05  1.984943E+03 -7.389963E+03
       112  25  6.514743E+05  1.023998E+05  7.022463E+04  1.627515E+05 -1.032622E+04 -2.630682E+04
       112  26  7.659352E+05  1.324586E+05  1.033513E+05  1.547679E+05  2.389129E+04 -2.380171E+04
       112  27  8.866267E+05  1.694765E+05  1.604835E+05  1.645314E+05  5.812118E+04 -7.389828E+03
       113   1 -1.884923E+05 -6.860396E+05 -1.837933E+05  2.617500E+05 -5.679156E+03 -6.682981E+04
       113   2 -1.192865E+05 -5.088930E+05 -1.055599E+05  2.373028E+05 -1.662635E+04 -2.572090E+04
       113   3 -6.964096E+04 -3.419666E+05 -5.900134E+04  2.394523E+05 -1.455167E+04  1.539970E+04
       113   4 -3.448338E+04 -6.312125E+04 -3.680984E+04  2.382875E+05 -5.652030E+03 -2.491349E+04
       113   5 -1.240403E+04 -6.068551E+04 -1.942417E+04  2.249805E+05 -1.661817E+04 -1.502183E+04
       113   6 -4.452348E+03 -6.306906E+04 -1.201398E+04  2.382722E+05 -1.456531E+04 -5.130972E+03
       113   7  1.195008E+05  5.601592E+05  1.101537E+05  2.148011E+05 -5.628094E+03  1.704469E+04
       113   8  9.446719E+04  3.877160E+05  6.670278E+04  2.126490E+05 -1.661041E+04 -4.315210E+03
       113   9  6.073240E+04  2.159061E+05  3.497249E+04  2.370916E+05 -1.457886E+04 -2.567057E+04
       113  10 -1.884935E+05 -6.860444E+05 -1.838018E+05  2.617497E+05  1.940062E-10 -2.242404E-10
       113  11 -1.192870E+05 -5.088938E+05 -1.055616E+05  2.373024E+05  1.610996E-10  2.281324E-10
       113  12 -6.964125E+04 -3.419669E+05 -5.900219E+04  2.394525E+05  6.044854E-10  4.350589E-10
       113  13 -3.448358E+04 -6.312193E+04 -3.681106E+04  2.382874E+05  2.764423E-11  2.069844E-10
       113  14 -1.240439E+04 -6.068583E+04 -1.942512E+04  2.249803E+05 -3.594540E-10  2.851016E-10
       113  15 -4.452583E+03 -6.306915E+04 -1.201443E+04  2.382722E+05  1.487225E-10  4.563007E-10
       113  16  1.195007E+05  5.601589E+05  1.101531E+05  2.148012E+05 -3.510373E-10 -7.014958E-11
       113  17  9.446689E+04  3.877159E+05  6.670223E+04  2.126490E+05 -1.079755E-10 -5.449811E-10
       113  18  6.073200E+04  2.159053E+05  3.497086E+04  2.370913E+05  7.301223E-11 -5.923727E-10
       113  19 -1.884923E+05 -6.860396E+05 -1.837933E+05  2.617500E+05  5.679156E+03  6.682981E+04
       113  20 -1.192865E+05 -5.088930E+05 -1.055599E+05  2.373028E+05  1.662635E+04  2.572090E+04
       113  21 -6.964096E+04 -3.419666E+05 -5.900134E+04  2.394523E+05  1.455167E+04 -1.539970E+04
       113  22 -3.448338E+04 -6.312125E+04 -3.680984E+04  2.382875E+05  5.652030E+03  2.491349E+04
       113  23 -1.240403E+04 -6.068551E+04 -1.942417E+04  2.249805E+05  1.661817E+04  1.502183E+04
       113  24 -4.452348E+03 -6.306906E+04 -1.201398E+04  2.382722E+05  1.456531E+04  5.130972E+03
       113  25  1.195008E+05  5.601592E+05  1.101537E+05  2.148011E+05  5.628094E+03 -1.704469E+04
       113  26  9.446719E+04  3.877160E+05  6.670278E+04  2.126490E+05  1.661041E+04  4.315210E+03
       113  27  6.073240E+04  2.159061E+05  3.497249E+04  2.370916E+05  1.457886E+04  2.567057E+04
       114   1 -4.352831E+04 -2.340817E+05 -3.923893E+04  2.403330E+05 -8.907760E+03  1.800487E+04
       114   2 -2.134174E+03 -6.138372E+04 -9.093980E+03  2.244634E+05  3.088612E+01  2.257302E+04
       114   3  3.602930E+04  1.099266E+05  1.726262E+04  2.360520E+05  8.968466E+03  2.714234E+04
       114   4 -3.367126E+03 -6.230436E+04 -1.022608E+04  2.384636E+05 -8.922790E+03 -3.437606E+03
       114   5 -2.182013E+03 -6.159569E+04 -9.124081E+03  2.247344E+05  1.593733E+01  1.130681E+03
       114   6 -4.226508E+03 -6.230442E+04 -1.181137E+04  2.384641E+05  8.953606E+03  5.698967E+03
       114   7  3.679276E+04  1.095030E+05  1.878757E+04  2.365936E+05 -8.937687E+03 -2.488582E+04
       114   8 -2.229605E+03 -6.180668E+04 -9.152454E+03  2.250054E+05  9.698164E-01 -2.031165E+04
       114   9 -4.448361E+04 -2.345052E+05 -4.088458E+04  2.408755E+05  8.938576E+03 -1.573865E+04
       114  10 -4.352848E+04 -2.340821E+05 -3.923969E+04  2.403332E+05  5.329211E-10 -1.498862E-09
       114  11 -2.134310E+03 -6.138426E+04 -9.094938E+03  2.244633E+05 -7.232227E-11 -2.614253E-10
       114  12  3.602902E+04  1.099258E+05  1.726108E+04  2.360518E+05  1.136247E-10  6.920709E-10
       114  13 -3.367215E+03 -6.230440E+04 -1.022625E+04  2.384636E+05 -1.491618E-10  3.509539E-10
       114  14 -2.182013E+03 -6.159569E+04 -9.124083E+03  2.247344E+05  1.897906E-10  3.742852E-10
       114  15 -4.226602E+03 -6.230448E+04 -1.181159E+04  2.384640E+05  5.557936E-11  5.022302E-10
       114  16  3.679251E+04  1.095024E+05  1.878625E+04  2.365934E+05  9.986151E-11  9.978132E-10
       114  17 -2.229716E+03 -6.180712E+04 -9.153229E+03  2.250054E+05 -4.274791E-10 -1.286030E-10
       114  18 -4.448376E+04 -2.345055E+05 -4.088520E+04  2.408756E+05 -3.391821E-11 -8.299965E-10
       114  19 -4.352831E+04 -2.340817E+05 -3.923893E+04  2.403330E+05  8.907760E+03 -1.800487E+04
       114  20 -2.134174E+03 -6.138372E+04 -9.093980E+03  2.244634E+05 -3.088612E+01 -2.257302E+04
       114  21  3.602930E+04  1.099266E+05  1.726262E+04  2.360520E+05 -8.968466E+03 -2.714234E+04
       114  22 -3.367126E+03 -6.230436E+04 -1.022608E+04  2.384636E+05  8.922790E+03  3.437606E+03
       114  23 -2.182013E+03 -6.159569E+04 -9.124081E+03  2.247344E+05 -1.593733E+01 -1.130681E+03
       114  24 -4.226508E+03 -6.230442E+04 -1.181137E+04  2.384641E+05 -8.953606E+03 -5.698967E+03
       114  25  3.679276E+04  1.095030E+05  1.878757E+04  2.365936E+05  8.937687E+03  2.488582E+04
       114  26 -2.229605E+03 -6.180668E+04 -9.152454E+03  2.250054E+05 -9.698164E-01  2.031165E+04
       114  27 -4.448361E+04 -2.345052E+05 -4.088458E+04  2.408755E+05 -8.938576E+03  1.573865E+04
       115   1  5.958288E+04  2.160200E+05  3.250558E+04  2.366830E+05  1.460877E+04  2.822314E+04
       115   2  9.082142E+04  3.885294E+05  6.143778E+04  2.089152E+05  1.663494E+04  9.570160E+03
       115   3  1.091957E+05  5.602807E+05  9.929141E+04  2.077408E+05  5.638528E+03 -9.086530E+03
       115   4 -5.698549E+03 -6.337946E+04 -1.454315E+04  2.382725E+05  1.459525E+04  7.688609E+03
       115   5 -1.614458E+04 -6.029781E+04 -2.476158E+04  2.249833E+05  1.664287E+04  2.030147E+04
       115   6 -4.488700E+04 -6.343203E+04 -4.776967E+04  2.382924E+05  5.662682E+03  3.291508E+04
       115   7 -7.098384E+04 -3.427011E+05 -6.159277E+04  2.398613E+05  1.458162E+04 -1.283699E+04
       115   8 -1.231215E+05 -5.089304E+05 -1.109696E+05  2.410395E+05  1.665137E+04  3.102521E+04
       115   9 -1.989931E+05 -6.867813E+05 -1.948504E+05  2.688130E+05  5.690987E+03  7.487476E+04
       115  10  5.958243E+04  2.160191E+05  3.250369E+04  2.366826E+05  3.123462E-10 -7.409463E-10
       115  11  9.082109E+04  3.885292E+05  6.143709E+04  2.089151E+05 -2.001948E-10 -1.387535E-10
       115  12  1.091957E+05  5.602806E+05  9.929119E+04  2.077408E+05  6.586743E-11  2.802916E-10
       115  13 -5.698794E+03 -6.337958E+04 -1.454366E+04  2.382724E+05  3.333670E-10  3.303353E-10
       115  14 -1.614499E+04 -6.029832E+04 -2.476288E+04  2.249831E+05  6.634002E-11  2.703085E-10
       115  15 -4.488733E+04 -6.343320E+04 -4.777176E+04  2.382922E+05 -1.631474E-11  2.780924E-10
       115  16 -7.098411E+04 -3.427013E+05 -6.159348E+04  2.398614E+05  1.150780E-10  2.662054E-10
       115  17 -1.231220E+05 -5.089315E+05 -1.109720E+05  2.410391E+05  4.092719E-10 -1.861484E-10
       115  18 -1.989946E+05 -6.867874E+05 -1.948610E+05  2.688127E+05  1.811456E-12 -3.158885E-10
       115  19  5.958288E+04  2.160200E+05  3.250558E+04  2.366830E+05 -1.460877E+04 -2.822314E+04
       115  20  9.082142E+04  3.885294E+05  6.143778E+04  2.089152E+05 -1.663494E+04 -9.570160E+03
       115  21  1.091957E+05  5.602807E+05  9.929141E+04  2.077408E+05 -5.638528E+03  9.086530E+03
       115  22 -5.698549E+03 -6.337946E+04 -1.454315E+04  2.382725E+05 -1.459525E+04 -7.688609E+03
       115  23 -1.614458E+04 -6.029781E+04 -2.476158E+04  2.249833E+05 -1.664287E+04 -2.030147E+04
       115  24 -4.488700E+04 -6.343203E+04 -4.776967E+04  2.382924E+05 -5.662682E+03 -3.291508E+04
       115  25 -7.098384E+04 -3.427011E+05 -6.159277E+04  2.398613E+05 -1.458162E+04  1.283699E+04
       115  26 -1.231215E+05 -5.089304E+05 -1.109696E+05  2.410395E+05 -1.665137E+04 -3.102521E+04
       115  27 -1.989931E+05 -6.867813E+05 -1.948504E+05  2.688130E+05 -5.690987E+03 -7.487476E+04
       116   1 -1.279675E+05 -3.077759E+05 -1.231466E+05  3.325572E+05 -3.582470E+03 -1.395866E+04
       116   2 -7.338479E+04 -5.907804E+04 -6.185399E+04  3.178988E+05 -7.863665E+03  1.197369E+04
       116   3 -1.816553E+04  1.864509E+05 -1.729756E+04  3.419786E+05  1.984114E+02  3.791485E+04
       116   4  1.473793E+04  2.674090E+05  1.507857E+04  3.425923E+05 -3.560551E+03  1.117963E+04
       116   5  5.546276E+03  2.664818E+05  7.224617E+03  3.232295E+05 -7.867274E+03  7.496314E+03
       116   6  2.134713E+03  2.674641E+05  3.202065E+03  3.426010E+05  1.658889E+02  3.811236E+03
       116   7  1.574200E+05  8.428983E+05  1.532826E+05  3.526366E+05 -3.537833E+03  3.634113E+04
       116   8  8.447058E+04  5.921416E+05  7.629727E+04  3.285630E+05 -7.870958E+03  3.016623E+03
       116   9  2.243508E+04  3.484858E+05  2.370556E+04  3.432234E+05  1.333010E+02 -3.029683E+04
       116  10 -1.279676E+05 -3.077762E+05 -1.231470E+05  3.325572E+05 -2.915434E-10 -1.968926E-09
       116  11 -7.338490E+04 -5.907821E+04 -6.185438E+04  3.178989E+05 -5.236340E-10 -2.289455E-10
       116  12 -1.816591E+04  1.864494E+05 -1.730026E+04  3.419786E+05  7.930612E-10 -4.216188E-10
       116  13  1.473789E+04  2.674088E+05  1.507831E+04  3.425924E+05 -2.116870E-10 -3.261681E-10
       116  14  5.546194E+03  2.664817E+05  7.224395E+03  3.232296E+05 -4.389034E-10  7.724523E-10
       116  15  2.134709E+03  2.674641E+05  3.202038E+03  3.426010E+05  6.709889E-10 -5.707885E-10
       116  16  1.574196E+05  8.428969E+05  1.532801E+05  3.526367E+05 -1.601704E-10  2.494221E-09
       116  17  8.447051E+04  5.921416E+05  7.629713E+04  3.285630E+05 -6.283481E-10  5.222591E-10
       116  18  2.243483E+04  3.484848E+05  2.370383E+04  3.432234E+05  5.718382E-10  1.828594E-10
       116  19 -1.279675E+05 -3.077759E+05 -1.231466E+05  3.325572E+05  3.582470E+03  1.395866E+04
       116  20 -7.338479E+04 -5.907804E+04 -6.185399E+04  3.178988E+05  7.863665E+03 -1.197369E+04
       116  21 -1.816553E+04  1.864509E+05 -1.729756E+04  3.419786E+05 -1.984114E+02 -3.791485E+04
       116  22  1.473793E+04  2.674090E+05  1.507857E+04  3.425923E+05  3.560551E+03 -1.117963E+04
       116  23  5.546276E+03  2.664818E+05  7.224617E+03  3.232295E+05  7.867274E+03 -7.496314E+03
       116  24  2.134713E+03  2.674641E+05  3.202065E+03  3.426010E+05 -1.658889E+02 -3.811236E+03
       116  25  1.574200E+05  8.428983E+05  1.532826E+05  3.526366E+05  3.537833E+03 -3.634113E+04
       116  26  8.447058E+04  5.921416E+05  7.629727E+04  3.285630E+05  7.870958E+03 -3.016623E+03
       116  27  2.243508E+04  3.484858E+05  2.370556E+04  3.432234E+05 -1.333010E+02  3.029683E+04
       117   1  1.685515E+04  3.395315E+05  5.672179E+03  3.420631E+05  9.151101E+03  3.830467E+04
       117   2  7.285189E+04  5.863719E+05  4.343754E+04  3.222834E+05  2.281845E+04  3.462608E+04
       117   3  1.293241E+05  8.338568E+05  8.370705E+04  3.419411E+05  3.479852E+04  3.094878E+04
       117   4  1.582010E+03  2.670133E+05  1.788502E+03  3.427572E+05  9.117999E+03  3.448669E+03
       117   5  1.834580E+02  2.670466E+05 -7.502966E+02  3.230389E+05  2.279204E+04  3.815719E+03
       117   6 -1.439848E+03  2.669603E+05 -3.596266E+03  3.427594E+05  3.477829E+04  4.185422E+03
       117   7 -1.369059E+04  1.945036E+05 -2.090316E+03  3.434513E+05  9.084815E+03 -3.140358E+04
       117   8 -7.248895E+04 -5.217331E+04 -4.493576E+04  3.237939E+05  2.276553E+04 -2.697952E+04
       117   9 -1.322190E+05 -2.996137E+05 -9.090408E+04  3.435767E+05  3.475796E+04 -2.255446E+04
       117  10  1.685467E+04  3.395299E+05  5.669267E+03  3.420628E+05  1.600983E-09 -1.362621E-07
       117  11  7.285101E+04  5.863705E+05  4.343431E+04  3.222828E+05  2.248424E-09  1.181626E-09
       117  12  1.293225E+05  8.338555E+05  8.370297E+04  3.419403E+05  2.030406E-09  1.370242E-07
       117  13  1.581917E+03  2.670133E+05  1.788324E+03  3.427572E+05  1.340189E-09 -4.606624E-10
       117  14  1.828963E+02  2.670464E+05 -7.513000E+02  3.230388E+05  2.198837E-09  7.837355E-10
       117  15 -1.441152E+03  2.669600E+05 -3.598571E+03  3.427593E+05  1.579867E-09 -3.848162E-10
       117  16 -1.369094E+04  1.945025E+05 -2.092325E+03  3.434515E+05  1.918375E-09  1.368692E-07
       117  17 -7.248971E+04 -5.217423E+04 -4.493810E+04  3.237944E+05  2.610296E-09 -8.351675E-10
       117  18 -1.322204E+05 -2.996146E+05 -9.090731E+04  3.435773E+05  1.445781E-09 -1.370665E-07
       117  19  1.685515E+04  3.395315E+05  5.672179E+03  3.420631E+05 -9.151101E+03 -3.830467E+04
       117  20  7.285189E+04  5.863719E+05  4.343754E+04  3.222834E+05 -2.281845E+04 -3.462608E+04
       117  21  1.293241E+05  8.338568E+05  8.370705E+04  3.419411E+05 -3.479852E+04 -3.094878E+04
       117  22  1.582010E+03  2.670133E+05  1.788502E+03  3.427572E+05 -9.117999E+03 -3.448669E+03
       117  23  1.834580E+02  2.670466E+05 -7.502966E+02  3.230389E+05 -2.279204E+04 -3.815719E+03
       117  24 -1.439848E+03  2.669603E+05 -3.596266E+03  3.427594E+05 -3.477829E+04 -4.185422E+03
       117  25 -1.369059E+04  1.945036E+05 -2.090316E+03  3.434513E+05 -9.084815E+03  3.140358E+04
       117  26 -7.248895E+04 -5.217331E+04 -4.493576E+04  3.237939E+05 -2.276553E+04  2.697952E+04
       117  27 -1.322190E+05 -2.996137E+05 -9.090408E+04  3.435767E+05 -3.475796E+04  2.255446E+04
       118   1  1.648094E+05  9.876541E+05  1.091621E+05  3.418938E+05  4.204134E+04  2.972187E+04
       118   2  2.208387E+05  1.231230E+06  1.675148E+05  3.164047E+05  3.983192E+04 -2.488354E+04
       118   3  2.789891E+05  1.482538E+06  2.619123E+05  3.285886E+05  1.258311E+04 -7.951528E+04
       118   4 -2.254250E+03  2.663379E+05 -5.383881E+03  3.423681E+05  4.202549E+04  4.829239E+03
       118   5 -7.382592E+03  2.676395E+05 -1.090753E+04  3.235343E+05  3.986105E+04  1.041792E+04
       118   6 -2.082680E+04  2.661830E+05 -2.214550E+04  3.423787E+05  1.263806E+04  1.600213E+04
       118   7 -1.693435E+05 -4.544599E+05 -1.199408E+05  3.428417E+05  4.200959E+04 -2.003556E+04
       118   8 -2.356561E+05 -6.950499E+05 -1.893641E+05  3.306523E+05  3.989103E+04  4.566609E+04
       118   9 -3.207418E+05 -9.487904E+05 -3.062695E+05  3.561411E+05  1.269734E+04  1.113340E+05
       118  10  1.648073E+05  9.876527E+05  1.091571E+05  3.418928E+05  1.032562E-09  8.015688E-10
       118  11  2.208368E+05  1.231229E+06  1.675107E+05  3.164055E+05 -6.264889E-10  1.617816E-09
       118  12  2.789872E+05  1.482531E+06  2.619002E+05  3.285894E+05 -3.889790E-10  2.053916E-09
       118  13 -2.256153E+03  2.663374E+05 -5.387243E+03  3.423680E+05  9.441987E-10 -2.787400E-10
       118  14 -7.384327E+03  2.676390E+05 -1.091072E+04  3.235340E+05 -8.143394E-10  3.698152E-10
       118  15 -2.082704E+04  2.661827E+05 -2.214628E+04  3.423785E+05 -2.618229E-10 -2.731377E-12
       118  16 -1.693455E+05 -4.544608E+05 -1.199449E+05  3.428423E+05  6.901312E-10 -4.026294E-10
       118  17 -2.356584E+05 -6.950525E+05 -1.893710E+05  3.306508E+05 -5.029551E-10 -1.505537E-09
       118  18 -3.207453E+05 -9.488038E+05 -3.062931E+05  3.561400E+05 -3.472964E-10 -2.108066E-09
       118  19  1.648094E+05  9.876541E+05  1.091621E+05  3.418938E+05 -4.204134E+04 -2.972187E+04
       118  20  2.208387E+05  1.231230E+06  1.675148E+05  3.164047E+05 -3.983192E+04  2.488354E+04
       118  21  2.789891E+05  1.482538E+06  2.619123E+05  3.285886E+05 -1.258311E+04  7.951528E+04
       118  22 -2.254250E+03  2.663379E+05 -5.383881E+03  3.423681E+05 -4.202549E+04 -4.829239E+03
       118  23 -7.382592E+03  2.676395E+05 -1.090753E+04  3.235343E+05 -3.986105E+04 -1.041792E+04
       118  24 -2.082680E+04  2.661830E+05 -2.214550E+04  3.423787E+05 -1.263806E+04 -1.600213E+04
       118  25 -1.693435E+05 -4.544599E+05 -1.199408E+05  3.428417E+05 -4.200959E+04  2.003556E+04
       118  26 -2.356561E+05 -6.950499E+05 -1.893641E+05  3.306523E+05 -3.989103E+04 -4.566609E+04
       118  27 -3.207418E+05 -9.487904E+05 -3.062695E+05  3.561411E+05 -1.269734E+04 -1.113340E+05
       119   1  1.256368E+06  3.028192E+05  2.881181E+05  2.799294E+05  1.102928E+05 -1.284647E+04
       119   2  1.056003E+06  2.331678E+05  1.846276E+05  2.598493E+05  4.834389E+04 -4.149653E+04
       119   3  8.680466E+05  1.804396E+05  1.256512E+05  2.690048E+05 -1.356305E+04 -4.633908E+04
       119   4  9.561004E+04  1.688173E+04  1.817752E+04  2.684423E+05  1.277140E+04 -1.282307E+04
       119   5  9.444149E+04  5.912595E+03  9.227908E+03  2.538230E+05  8.072284E+03 -4.149582E+04
       119   6  9.573358E+04  1.954552E+03  5.089876E+03  2.684390E+05  3.394417E+03 -4.634510E+04
       119   7 -1.063885E+06 -2.691452E+05 -2.518182E+05  2.569767E+05 -8.456926E+04 -1.279608E+04
       119   8 -8.662189E+05 -2.213938E+05 -1.662030E+05  2.478061E+05 -3.213872E+04 -4.149434E+04
       119   9 -6.759843E+05 -1.765596E+05 -1.154845E+05  2.678739E+05  2.033160E+04 -4.635115E+04
       119  10  1.256354E+06  3.028158E+05  2.880950E+05  2.799305E+05  1.700257E-10 -5.420076E-11
       119  11  1.056000E+06  2.331653E+05  1.846200E+05  2.598509E+05  1.856931E-10 -9.318621E-11
       119  12  8.680458E+05  1.804373E+05  1.256468E+05  2.690043E+05 -6.162752E-11  1.729767E-10
       119  13  9.560982E+04  1.688151E+04  1.817691E+04  2.684425E+05 -7.931495E-12 -7.209392E-11
       119  14  9.444095E+04  5.910728E+03  9.224549E+03  2.538232E+05  5.091473E-11 -4.584057E-11
       119  15  9.573299E+04  1.952243E+03  5.085817E+03  2.684392E+05 -1.203175E-10  1.306731E-10
       119  16 -1.063893E+06 -2.691473E+05 -2.518319E+05  2.569759E+05 -3.767712E-10 -3.800199E-11
       119  17 -8.662205E+05 -2.213959E+05 -1.662082E+05  2.478050E+05  1.447955E-10 -5.211895E-11
       119  18 -6.759853E+05 -1.765621E+05 -1.154893E+05  2.678747E+05 -1.391070E-11  4.808527E-11
       119  19  1.256368E+06  3.028192E+05  2.881181E+05  2.799294E+05 -1.102928E+05  1.284647E+04
       119  20  1.056003E+06  2.331678E+05  1.846276E+05  2.598493E+05 -4.834389E+04  4.149653E+04
       119  21  8.680466E+05  1.804396E+05  1.256512E+05  2.690048E+05  1.356305E+04  4.633908E+04
       119  22  9.561004E+04  1.688173E+04  1.817752E+04  2.684423E+05 -1.277140E+04  1.282307E+04
       119  23  9.444149E+04  5.912595E+03  9.227908E+03  2.538230E+05 -8.072284E+03  4.149582E+04
       119  24  9.573358E+04  1.954552E+03  5.089876E+03  2.684390E+05 -3.394417E+03  4.634510E+04
       119  25 -1.063885E+06 -2.691452E+05 -2.518182E+05  2.569767E+05  8.456926E+04  1.279608E+04
       119  26 -8.662189E+05 -2.213938E+05 -1.662030E+05  2.478061E+05  3.213872E+04  4.149434E+04
       119  27 -6.759843E+05 -1.765596E+05 -1.154845E+05  2.678739E+05 -2.033160E+04  4.635115E+04
       120   1  7.462309E+05  1.512058E+05  1.022656E+05  2.697056E+05 -1.611301E+04 -4.111968E+04
       120   2  5.514608E+05  1.045121E+05  6.661039E+04  2.537502E+05 -2.429590E+04 -3.181219E+04
       120   3  3.583302E+05  5.977381E+04  3.677914E+04  2.687888E+05 -3.247758E+04 -1.957069E+04
       120   4  9.530250E+04  1.405928E+03  3.864237E+03  2.688308E+05  2.720202E+03 -4.112341E+04
       120   5  9.514250E+04  4.176202E+02  2.277938E+03  2.533330E+05  1.583220E+03 -3.181275E+04
       120   6  9.536269E+04  1.641457E+02  1.625374E+03  2.688308E+05  4.450445E+02 -1.956692E+04
       120   7 -5.552007E+05 -1.484140E+05 -9.454452E+04  2.679569E+05  2.153447E+04 -4.112721E+04
       120   8 -3.609636E+05 -1.036859E+05 -6.205482E+04  2.529162E+05  2.744416E+04 -3.181333E+04
       120   9 -1.675320E+05 -5.944789E+04 -3.352490E+04  2.688728E+05  3.335438E+04 -1.956315E+04
       120  10  7.462302E+05  1.512039E+05  1.022620E+05  2.697051E+05  3.706579E-11  3.691378E-10
       120  11  5.514598E+05  1.045109E+05  6.660739E+04  2.537495E+05 -1.745389E-10  3.872713E-10
       120  12  3.583290E+05  5.977311E+04  3.677644E+04  2.687883E+05  4.453536E-10  2.652291E-10
       120  13  9.530203E+04  1.404109E+03  3.861045E+03  2.688309E+05  1.066896E-11  2.333312E-10
       120  14  9.514222E+04  4.165327E+02  2.276031E+03  2.533331E+05  3.481352E-10  3.130018E-10
       120  15  9.536259E+04  1.637345E+02  1.624655E+03  2.688308E+05  2.780374E-10  1.813766E-10
       120  16 -5.552017E+05 -1.484159E+05 -9.454857E+04  2.679576E+05 -2.128473E-10  1.216995E-10
       120  17 -3.609647E+05 -1.036872E+05 -6.205814E+04  2.529169E+05  3.700255E-11  1.682716E-10
       120  18 -1.675333E+05 -5.944860E+04 -3.352771E+04  2.688734E+05 -2.141797E-10  1.006806E-10
       120  19  7.462309E+05  1.512058E+05  1.022656E+05  2.697056E+05  1.611301E+04  4.111968E+04
       120  20  5.514608E+05  1.045121E+05  6.661039E+04  2.537502E+05  2.429590E+04  3.181219E+04
       120  21  3.583302E+05  5.977381E+04  3.677914E+04  2.687888E+05  3.247758E+04  1.957069E+04
       120  22  9.530250E+04  1.405928E+03  3.864237E+03  2.688308E+05 -2.720202E+03  4.112341E+04
       120  23  9.514250E+04  4.176202E+02  2.277938E+03  2.533330E+05 -1.583220E+03  3.181275E+04
       120  24  9.536269E+04  1.641457E+02  1.625374E+03  2.688308E+05 -4.450445E+02  1.956692E+04
       120  25 -5.552007E+05 -1.484140E+05 -9.454452E+04  2.679569E+05 -2.153447E+04  4.112721E+04
       120  26 -3.609636E+05 -1.036859E+05 -6.205482E+04  2.529162E+05 -2.744416E+04  3.181333E+04
       120  27 -1.675320E+05 -5.944789E+04 -3.352490E+04  2.688728E+05 -3.335438E+04  1.956315E+04
       121   1  2.383433E+05  3.234646E+04  1.947762E+04  2.688774E+05 -3.282425E+04 -1.138352E+04
       121   2  4.467683E+04 -1.187396E+04 -8.610606E+03  2.530379E+05 -2.952971E+04  1.508626E+03
       121   3 -1.494050E+05 -5.633595E+04 -3.889467E+04  2.682741E+05 -2.623680E+04  1.268553E+04
       121   4  9.534472E+04  1.596326E+02  1.512065E+03  2.688486E+05  1.808350E+02 -1.137865E+04
       121   5  9.521216E+04  2.862306E+02  1.657281E+03  2.533109E+05 -6.465651E+02  1.512559E+03
       121   6  9.533816E+04  8.869582E+02  2.465294E+03  2.688486E+05 -1.474580E+03  1.268859E+04
       121   7 -4.763051E+04 -3.202744E+04 -1.644945E+04  2.688197E+05  3.317870E+04 -1.137378E+04
       121   8  1.457517E+05  1.244672E+04  1.192817E+04  2.535840E+05  2.823889E+04  1.516518E+03
       121   9  3.401417E+05  5.810704E+04  4.382565E+04  2.694233E+05  2.329709E+04  1.269170E+04
       121  10  2.383421E+05  3.234603E+04  1.947536E+04  2.688771E+05  5.745012E-10  1.630507E-10
       121  11  4.467589E+04 -1.187420E+04 -8.612248E+03  2.530379E+05  1.309614E-10 -7.313183E-13
       121  12 -1.494058E+05 -5.633631E+04 -3.889627E+04  2.682744E+05  6.972921E-11 -8.315564E-11
       121  13  9.534468E+04  1.594935E+02  1.511821E+03  2.688486E+05  2.619045E-10  1.157994E-10
       121  14  9.521216E+04  2.862281E+02  1.657276E+03  2.533109E+05  5.023810E-10  3.470836E-11
       121  15  9.533811E+04  8.867847E+02  2.464988E+03  2.688486E+05 -1.110878E-11 -3.976442E-11
       121  16 -4.763172E+04 -3.202787E+04 -1.645177E+04  2.688200E+05 -1.627779E-10  7.615635E-11
       121  17  1.457509E+05  1.244650E+04  1.192667E+04  2.535840E+05  1.761473E-10  6.210030E-11
       121  18  3.401410E+05  5.810673E+04  4.382433E+04  2.694231E+05  1.214269E-10  6.556439E-12
       121  19  2.383433E+05  3.234646E+04  1.947762E+04  2.688774E+05  3.282425E+04  1.138352E+04
       121  20  4.467683E+04 -1.187396E+04 -8.610606E+03  2.530379E+05  2.952971E+04 -1.508626E+03
       121  21 -1.494050E+05 -5.633595E+04 -3.889467E+04  2.682741E+05  2.623680E+04 -1.268553E+04
       121  22  9.534472E+04  1.596326E+02  1.512065E+03  2.688486E+05 -1.808350E+02  1.137865E+04
       121  23  9.521216E+04  2.862306E+02  1.657281E+03  2.533109E+05  6.465651E+02 -1.512559E+03
       121  24  9.533816E+04  8.869582E+02  2.465294E+03  2.688486E+05  1.474580E+03 -1.268859E+04
       121  25 -4.763051E+04 -3.202744E+04 -1.644945E+04  2.688197E+05 -3.317870E+04  1.137378E+04
       121  26  1.457517E+05  1.244672E+04  1.192817E+04  2.535840E+05 -2.823889E+04 -1.516518E+03
       121  27  3.401417E+05  5.810704E+04  4.382565E+04  2.694233E+05 -2.329709E+04 -1.269170E+04
       122   1 -2.698528E+05 -8.416904E+04 -5.830933E+04  2.681848E+05 -2.543008E+04  1.914137E+04
       122   2 -4.612150E+05 -1.289059E+05 -1.006520E+05  2.499697E+05  9.802373E+03  2.102336E+04
       122   3 -6.576944E+05 -1.761004E+05 -1.665473E+05  2.616710E+05  4.501469E+04  7.044217E+03
       122   4  9.559121E+04  1.219675E+03  3.147538E+03  2.685903E+05 -1.902136E+03  1.914314E+04
       122   5  9.482648E+04  3.566057E+03  5.540505E+03  2.536338E+05 -4.712906E+03  2.102132E+04
       122   6  9.551922E+04  1.006426E+04  1.080735E+04  2.685910E+05 -7.533084E+03  7.045314E+03
       122   7  4.611681E+05  8.660168E+04  6.460227E+04  2.689959E+05  2.163921E+04  1.914495E+04
       122   8  6.511664E+05  1.360200E+05  1.117198E+05  2.573011E+05 -1.924088E+04  2.101911E+04
       122   9  8.492612E+05  1.961900E+05  1.881334E+05  2.755194E+05 -6.014429E+04  7.045250E+03
       122  10 -2.698536E+05 -8.416961E+04 -5.831123E+04  2.681852E+05 -3.232272E-10 -1.030568E-10
       122  11 -4.612152E+05 -1.289064E+05 -1.006530E+05  2.499695E+05 -3.345325E-10 -1.328460E-10
       122  12 -6.576966E+05 -1.761010E+05 -1.665512E+05  2.616708E+05 -2.933664E-11 -4.590546E-11
       122  13  9.559111E+04  1.219281E+03  3.146843E+03  2.685903E+05  2.744847E-10 -3.568710E-11
       122  14  9.482634E+04  3.565577E+03  5.539633E+03  2.536338E+05 -5.693217E-11  7.497749E-11
       122  15  9.551914E+04  1.006420E+04  1.080715E+04  2.685911E+05 -1.444372E-10 -1.128463E-11
       122  16  4.611675E+05  8.660116E+04  6.460071E+04  2.689956E+05  2.573653E-10  5.334211E-11
       122  17  6.511659E+05  1.360194E+05  1.117183E+05  2.573015E+05  3.800662E-10  1.445029E-10
       122  18  8.492573E+05  1.961890E+05  1.881265E+05  2.755197E+05  6.827904E-11  7.184740E-11
       122  19 -2.698528E+05 -8.416904E+04 -5.830933E+04  2.681848E+05  2.543008E+04 -1.914137E+04
       122  20 -4.612150E+05 -1.289059E+05 -1.006520E+05  2.499697E+05 -9.802373E+03 -2.102336E+04
       122  21 -6.576944E+05 -1.761004E+05 -1.665473E+05  2.616710E+05 -4.501469E+04 -7.044217E+03
       122  22  9.559121E+04  1.219675E+03  3.147538E+03  2.685903E+05  1.902136E+03 -1.914314E+04
       122  23  9.482648E+04  3.566057E+03  5.540505E+03  2.536338E+05  4.712906E+03 -2.102132E+04
       122  24  9.551922E+04  1.006426E+04  1.080735E+04  2.685910E+05  7.533084E+03 -7.045314E+03
       122  25  4.611681E+05  8.660168E+04  6.460227E+04  2.689959E+05 -2.163921E+04 -1.914495E+04
       122  26  6.511664E+05  1.360200E+05  1.117198E+05  2.573011E+05  1.924088E+04 -2.101911E+04
       122  27  8.492612E+05  1.961900E+05  1.881334E+05  2.755194E+05  6.014429E+04 -7.045250E+03
       123   1 -1.036526E+05 -4.446167E+05 -1.035943E+05  1.750315E+05 -1.938205E+03 -4.018631E+04
       123   2 -5.260048E+04 -3.317933E+05 -5.309020E+04  1.551946E+05 -4.620458E+03 -1.648723E+04
       123   3 -1.826010E+04 -2.262540E+05 -2.220684E+04  1.524387E+05 -1.401898E+03  7.212457E+03
       123   4 -3.513378E+04 -1.680389E+05 -3.739771E+04  1.511420E+05 -1.922907E+03 -2.661997E+04
       123   5 -1.251325E+04 -1.656139E+05 -1.873070E+04  1.425861E+05 -4.620623E+03 -1.707321E+04
       123   6 -4.143198E+03 -1.680241E+05 -9.848917E+03  1.511132E+05 -1.417394E+03 -7.530353E+03
       123   7  3.338175E+04  1.086107E+05  2.879448E+04  1.272418E+05 -1.908658E+03 -1.304760E+04
       123   8  2.757284E+04  5.921266E+02  1.562740E+04  1.299743E+05 -4.620764E+03 -1.765936E+04
       123   9  9.973609E+03 -1.097906E+05  2.509636E+03  1.497875E+05 -1.432826E+03 -2.227453E+04
       123  10 -1.036530E+05 -4.446184E+05 -1.035973E+05  1.750314E+05 -2.808211E-10 -7.216487E-11
       123  11 -5.260057E+04 -3.317936E+05 -5.309075E+04  1.551945E+05 -5.583528E-11  3.295337E-11
       123  12 -1.826012E+04 -2.262541E+05 -2.220695E+04  1.524387E+05  6.035252E-11  2.008765E-10
       123  13 -3.513397E+04 -1.680397E+05 -3.739905E+04  1.511420E+05 -2.561778E-10  2.064050E-11
       123  14 -1.251335E+04 -1.656142E+05 -1.873128E+04  1.425861E+05 -4.323618E-10 -2.279127E-11
       123  15 -4.143216E+03 -1.680242E+05 -9.849027E+03  1.511131E+05  8.338477E-11 -3.487110E-11
       123  16  3.338170E+04  1.086105E+05  2.879416E+04  1.272418E+05  2.573159E-10  6.994521E-11
       123  17  2.757273E+04  5.917860E+02  1.562677E+04  1.299742E+05 -8.741104E-10 -6.939375E-11
       123  18  9.973474E+03 -1.097911E+05  2.508699E+03  1.497874E+05 -7.574690E-11 -3.045733E-10
       123  19 -1.036526E+05 -4.446167E+05 -1.035943E+05  1.750315E+05  1.938205E+03  4.018631E+04
       123  20 -5.260048E+04 -3.317933E+05 -5.309020E+04  1.551946E+05  4.620458E+03  1.648723E+04
       123  21 -1.826010E+04 -2.262540E+05 -2.220684E+04  1.524387E+05  1.401898E+03 -7.212457E+03
       123  22 -3.513378E+04 -1.680389E+05 -3.739771E+04  1.511420E+05  1.922907E+03  2.661997E+04
       123  23 -1.251325E+04 -1.656139E+05 -1.873070E+04  1.425861E+05  4.620623E+03  1.707321E+04
       123  24 -4.143198E+03 -1.680241E+05 -9.848917E+03  1.511132E+05  1.417394E+03  7.530353E+03
       123  25  3.338175E+04  1.086107E+05  2.879448E+04  1.272418E+05  1.908658E+03  1.304760E+04
       123  26  2.757284E+04  5.921266E+02  1.562740E+04  1.299743E+05  4.620764E+03  1.765936E+04
       123  27  9.973609E+03 -1.097906E+05  2.509636E+03  1.497875E+05  1.432826E+03  2.227453E+04
       124   1 -1.270177E+03 -1.574500E+05 -8.589047E+03  1.530904E+05  2.496791E+03  8.831522E+03
       124   2  2.643893E+04 -4.817910E+04  1.326481E+04  1.436867E+05  8.480523E+03  8.904824E+03
       124   3  5.331216E+04  6.085346E+04  3.485163E+04  1.517079E+05  1.383654E+04  8.978965E+03
       124   4 -2.901286E+03 -1.670627E+05 -7.106908E+03  1.511906E+05  2.480865E+03 -6.280299E+03
       124   5 -5.782443E+02 -1.668113E+05 -3.160978E+03  1.424763E+05  8.466655E+03 -4.701620E+03
       124   6  6.480381E+02 -1.670711E+05 -5.276278E+02  1.511873E+05  1.382466E+04 -3.122102E+03
       124   7 -4.532255E+03 -1.766749E+05 -5.623882E+03  1.492908E+05  2.465032E+03 -2.139192E+04
       124   8 -2.759594E+04 -2.854288E+05 -1.958623E+04  1.412662E+05  8.452837E+03 -1.830558E+04
       124   9 -5.201854E+04 -3.949435E+05 -3.590754E+04  1.506668E+05  1.381279E+04 -1.521889E+04
       124  10 -1.270204E+03 -1.574501E+05 -8.589205E+03  1.530903E+05  1.136434E-10 -4.391656E-10
       124  11  2.643883E+04 -4.817920E+04  1.326452E+04  1.436866E+05  2.237610E-10  1.751724E-10
       124  12  5.331193E+04  6.085332E+04  3.485112E+04  1.517078E+05  1.739439E-10  7.838715E-10
       124  13 -2.901303E+03 -1.670628E+05 -7.106994E+03  1.511906E+05 -9.801482E-12 -9.464281E-11
       124  14 -5.783272E+02 -1.668113E+05 -3.161154E+03  1.424763E+05 -4.884160E-10 -1.249426E-10
       124  15  6.478302E+02 -1.670712E+05 -5.280053E+02  1.511873E+05 -6.325517E-11 -1.197118E-10
       124  16 -4.532384E+03 -1.766754E+05 -5.624753E+03  1.492909E+05 -2.242535E-10  2.665503E-10
       124  17 -2.759610E+04 -2.854292E+05 -1.958700E+04  1.412663E+05  4.950365E-11 -3.286785E-10
       124  18 -5.201881E+04 -3.949438E+05 -3.590834E+04  1.506670E+05 -3.600362E-10 -8.762429E-10
       124  19 -1.270177E+03 -1.574500E+05 -8.589047E+03  1.530904E+05 -2.496791E+03 -8.831522E+03
       124  20  2.643893E+04 -4.817910E+04  1.326481E+04  1.436867E+05 -8.480523E+03 -8.904824E+03
       124  21  5.331216E+04  6.085346E+04  3.485163E+04  1.517079E+05 -1.383654E+04 -8.978965E+03
       124  22 -2.901286E+03 -1.670627E+05 -7.106908E+03  1.511906E+05 -2.480865E+03  6.280299E+03
       124  23 -5.782443E+02 -1.668113E+05 -3.160978E+03  1.424763E+05 -8.466655E+03  4.701620E+03
       124  24  6.480381E+02 -1.670711E+05 -5.276278E+02  1.511873E+05 -1.382466E+04  3.122102E+03
       124  25 -4.532255E+03 -1.766749E+05 -5.623882E+03  1.492908E+05 -2.465032E+03  2.139192E+04
       124  26 -2.759594E+04 -2.854288E+05 -1.958623E+04  1.412662E+05 -8.452837E+03  1.830558E+04
       124  27 -5.201854E+04 -3.949435E+05 -3.590754E+04  1.506668E+05 -1.381279E+04  1.521889E+04
       125   1  6.968184E+04  1.293250E+05  4.796530E+04  1.515571E+05  1.709776E+04  8.211903E+03
       125   2  9.859203E+04  2.358344E+05  7.842280E+04  1.457244E+05  1.647159E+04 -1.904302E+04
       125   3  1.349885E+05  3.477541E+05  1.284888E+05  1.565703E+05  5.221031E+03 -4.629668E+04
       125   4  1.002454E+03 -1.667474E+05  6.484710E+02  1.510218E+05  1.708719E+04 -3.101198E+03
       125   5  2.973293E+03 -1.672489E+05  3.420999E+03  1.426793E+05  1.648597E+04 -4.847472E+03
       125   6  8.005682E+03 -1.667759E+05  8.091118E+03  1.510155E+05  5.257400E+03 -6.587672E+03
       125   7 -6.768125E+04 -4.627323E+05 -4.667017E+04  1.504867E+05  1.707663E+04 -1.440910E+04
       125   8 -9.265465E+04 -5.701746E+05 -7.158695E+04  1.396361E+05  1.650023E+04  9.339099E+03
       125   9 -1.189949E+05 -6.810584E+05 -1.123187E+05  1.454652E+05  5.293077E+03  3.308865E+04
       125  10  6.968150E+04  1.293248E+05  4.796462E+04  1.515570E+05  2.745120E-10 -5.919532E-10
       125  11  9.859164E+04  2.358340E+05  7.842161E+04  1.457247E+05 -6.525885E-10 -8.564519E-11
       125  12  1.349879E+05  3.477518E+05  1.284847E+05  1.565705E+05 -1.235894E-10  4.722674E-10
       125  13  1.002138E+03 -1.667475E+05  6.479043E+02  1.510218E+05 -5.914296E-11 -5.203883E-11
       125  14  2.972995E+03 -1.672490E+05  3.420444E+03  1.426793E+05 -4.807005E-10 -5.043227E-11
       125  15  8.005641E+03 -1.667759E+05  8.090985E+03  1.510155E+05 -1.450113E-10 -1.546102E-11
       125  16 -6.768162E+04 -4.627326E+05 -4.667111E+04  1.504869E+05  2.306064E-10  4.100033E-10
       125  17 -9.265497E+04 -5.701747E+05 -7.158762E+04  1.396360E+05 -1.609592E-10  4.697655E-11
       125  18 -1.189953E+05 -6.810596E+05 -1.123208E+05  1.454651E+05 -2.170712E-10 -4.489170E-10
       125  19  6.968184E+04  1.293250E+05  4.796530E+04  1.515571E+05 -1.709776E+04 -8.211903E+03
       125  20  9.859203E+04  2.358344E+05  7.842280E+04  1.457244E+05 -1.647159E+04  1.904302E+04
       125  21  1.349885E+05  3.477541E+05  1.284888E+05  1.565703E+05 -5.221031E+03  4.629668E+04
       125  22  1.002454E+03 -1.667474E+05  6.484710E+02  1.510218E+05 -1.708719E+04  3.101198E+03
       125  23  2.973293E+03 -1.672489E+05  3.420999E+03  1.426793E+05 -1.648597E+04  4.847472E+03
       125  24  8.005682E+03 -1.667759E+05  8.091118E+03  1.510155E+05 -5.257400E+03  6.587672E+03
       125  25 -6.768125E+04 -4.627323E+05 -4.667017E+04  1.504867E+05 -1.707663E+04  1.440910E+04
       125  26 -9.265465E+04 -5.701746E+05 -7.158695E+04  1.396361E+05 -1.650023E+04 -9.339099E+03
       125  27 -1.189949E+05 -6.810584E+05 -1.123187E+05  1.454652E+05 -5.293077E+03 -3.308865E+04
       126   1  1.215529E+06  2.814800E+05  2.697252E+05  2.823722E+05  1.051154E+05 -1.092676E+04
       126   2  1.019622E+06  2.064848E+05  1.683144E+05  2.584170E+05  4.629894E+04 -3.487995E+04
       126   3  8.366853E+05  1.524110E+05  1.103810E+05  2.631741E+05 -1.248482E+04 -3.778071E+04
       126   4  1.941711E+05  2.977554E+04  3.166334E+04  2.619721E+05  2.223192E+04 -1.092950E+04
       126   5  1.921378E+05  1.066436E+04  1.609792E+04  2.476166E+05  1.403790E+04 -3.488701E+04
       126   6  1.942770E+05  3.712872E+03  8.906204E+03  2.619721E+05  5.856725E+03 -3.778093E+04
       126   7 -8.262108E+05 -2.219974E+05 -2.064431E+05  2.416055E+05 -6.051640E+04 -1.092682E+04
       126   8 -6.346803E+05 -1.851940E+05 -1.361428E+05  2.368307E+05 -1.818134E+04 -3.489296E+04
       126   9 -4.477199E+05 -1.450055E+05 -9.257764E+04  2.607712E+05  2.418001E+04 -3.778122E+04
       126  10  1.215518E+06  2.814769E+05  2.697043E+05  2.823731E+05 -3.160725E-10 -9.052299E-11
       126  11  1.019619E+06  2.064829E+05  1.683081E+05  2.584183E+05 -3.881340E-11 -3.581736E-10
       126  12  8.366847E+05  1.524094E+05  1.103780E+05  2.631738E+05  1.939407E-10 -4.145406E-10
       126  13  1.941705E+05  2.977528E+04  3.166218E+04  2.619723E+05 -2.882235E-10  5.560904E-11
       126  14  1.921373E+05  1.066300E+04  1.609526E+04  2.476170E+05  7.523077E-11 -1.053351E-10
       126  15  1.942766E+05  3.711330E+03  8.903456E+03  2.619722E+05 -9.247450E-12 -2.171633E-10
       126  16 -8.262148E+05 -2.219985E+05 -2.064502E+05  2.416050E+05 -3.131078E-10  6.722794E-11
       126  17 -6.346810E+05 -1.851954E+05 -1.361457E+05  2.368302E+05  1.906081E-10  1.403219E-10
       126  18 -4.477209E+05 -1.450072E+05 -9.258143E+04  2.607719E+05 -1.954859E-10 -2.370456E-11
       126  19  1.215529E+06  2.814800E+05  2.697252E+05  2.823722E+05 -1.051154E+05  1.092676E+04
       126  20  1.019622E+06  2.064848E+05  1.683144E+05  2.584170E+05 -4.629894E+04  3.487995E+04
       126  21  8.366853E+05  1.524110E+05  1.103810E+05  2.631741E+05  1.248482E+04  3.778071E+04
       126  22  1.941711E+05  2.977554E+04  3.166334E+04  2.619721E+05 -2.223192E+04  1.092950E+04
       126  23  1.921378E+05  1.066436E+04  1.609792E+04  2.476166E+05 -1.403790E+04  3.488701E+04
       126  24  1.942770E+05  3.712872E+03  8.906204E+03  2.619721E+05 -5.856725E+03  3.778093E+04
       126  25 -8.262108E+05 -2.219974E+05 -2.064431E+05  2.416055E+05  6.051640E+04  1.092682E+04
       126  26 -6.346803E+05 -1.851940E+05 -1.361428E+05  2.368307E+05  1.818134E+04  3.489296E+04
       126  27 -4.477199E+05 -1.450055E+05 -9.257764E+04  2.607712E+05 -2.418001E+04  3.778122E+04
       127   1  7.176541E+05  1.235726E+05  8.721475E+04  2.640002E+05 -1.532219E+04 -3.235244E+04
       127   2  5.275773E+05  7.737631E+04  5.209042E+04  2.480037E+05 -2.344558E+04 -2.276385E+04
       127   3  3.392141E+05  3.354669E+04  2.284879E+04  2.622671E+05 -3.156768E+04 -1.064571E+04
       127   4  1.935129E+05  2.716651E+03  6.795279E+03  2.623172E+05  4.674412E+03 -3.235037E+04
       127   5  1.932237E+05  9.349146E+02  4.095657E+03  2.471870E+05  2.625149E+03 -2.275817E+04
       127   6  1.935561E+05  4.672411E+02  3.062274E+03  2.623176E+05  5.747749E+02 -1.063571E+04
       127   7 -3.303529E+05 -1.181524E+05 -7.362873E+04  2.606356E+05  2.465480E+04 -3.234841E+04
       127   8 -1.410157E+05 -7.551120E+04 -4.389827E+04  2.463707E+05  2.868244E+04 -2.275255E+04
       127   9  4.792198E+04 -3.261257E+04 -1.672057E+04  2.623681E+05  3.271004E+04 -1.062569E+04
       127  10  7.176535E+05  1.235715E+05  8.721235E+04  2.639998E+05 -2.310132E-10 -2.857152E-10
       127  11  5.275766E+05  7.737561E+04  5.208842E+04  2.480033E+05  2.817401E-10 -1.015544E-10
       127  12  3.392130E+05  3.354630E+04  2.284670E+04  2.622668E+05  2.533369E-10 -1.261913E-10
       127  13  1.935126E+05  2.715521E+03  6.793271E+03  2.623174E+05  2.569492E-11 -2.485690E-10
       127  14  1.932235E+05  9.343565E+02  4.094671E+03  2.471870E+05 -2.727519E-10 -1.760248E-10
       127  15  1.935561E+05  4.671195E+02  3.062060E+03  2.623176E+05  9.239109E-12 -1.302648E-10
       127  16 -3.303538E+05 -1.181537E+05 -7.363185E+04  2.606363E+05 -1.885541E-10 -1.284935E-10
       127  17 -1.410167E+05 -7.551198E+04 -4.390079E+04  2.463713E+05 -4.880224E-10 -1.696652E-10
       127  18  4.792080E+04 -3.261298E+04 -1.672279E+04  2.623684E+05 -2.999285E-10 -1.394691E-10
       127  19  7.176541E+05  1.235726E+05  8.721475E+04  2.640002E+05  1.532219E+04  3.235244E+04
       127  20  5.275773E+05  7.737631E+04  5.209042E+04  2.480037E+05  2.344558E+04  2.276385E+04
       127  21  3.392141E+05  3.354669E+04  2.284879E+04  2.622671E+05  3.156768E+04  1.064571E+04
       127  22  1.935129E+05  2.716651E+03  6.795279E+03  2.623172E+05 -4.674412E+03  3.235037E+04
       127  23  1.932237E+05  9.349146E+02  4.095657E+03  2.471870E+05 -2.625149E+03  2.275817E+04
       127  24  1.935561E+05  4.672411E+02  3.062274E+03  2.623176E+05 -5.747749E+02  1.063571E+04
       127  25 -3.303529E+05 -1.181524E+05 -7.362873E+04  2.606356E+05 -2.465480E+04  3.234841E+04
       127  26 -1.410157E+05 -7.551120E+04 -4.389827E+04  2.463707E+05 -2.868244E+04  2.275255E+04
       127  27  4.792198E+04 -3.261257E+04 -1.672057E+04  2.623681E+05 -3.271004E+04  1.062569E+04
       128   1  2.221505E+05  6.778587E+03  5.962955E+03  2.623938E+05 -3.210785E+04 -2.658040E+03
       128   2  3.314660E+04 -3.622221E+04 -2.133159E+04  2.465571E+05 -2.901518E+04  9.744233E+03
       128   3 -1.561541E+05 -7.901460E+04 -5.058358E+04  2.610167E+05 -2.592305E+04  2.013956E+04
       128   4  1.935343E+05  4.535942E+02  2.945824E+03  2.623253E+05  6.837078E+01 -2.647564E+03
       128   5  1.932708E+05  7.564745E+02  3.454394E+03  2.471775E+05 -1.660310E+03  9.751982E+03
       128   6  1.935136E+05  2.106242E+03  5.351537E+03  2.623250E+05 -3.388730E+03  2.014486E+04
       128   7  1.649211E+05 -5.870872E+03 -6.740732E+01  2.622568E+05  3.224319E+04 -2.637095E+03
       128   8  3.534222E+05  3.773431E+04  2.824260E+04  2.477980E+05  2.570134E+04  9.759784E+03
       128   9  5.433038E+05  8.322123E+04  6.128535E+04  2.636341E+05  1.915783E+04  2.015025E+04
       128  10  2.221494E+05  6.778303E+03  5.961006E+03  2.623937E+05  1.628909E-10 -2.149028E-10
       128  11  3.314567E+04 -3.622254E+04 -2.133335E+04  2.465574E+05  1.188177E-10 -1.634375E-10
       128  12 -1.561549E+05 -7.901521E+04 -5.058560E+04  2.610171E+05  1.963496E-10 -1.001276E-10
       128  13  1.935343E+05  4.535866E+02  2.945811E+03  2.623253E+05 -9.018757E-12 -2.040903E-10
       128  14  1.932708E+05  7.563717E+02  3.454210E+03  2.471775E+05  2.610435E-10 -1.454006E-10
       128  15  1.935135E+05  2.105803E+03  5.350752E+03  2.623251E+05  4.911810E-10 -6.825992E-11
       128  16  1.649200E+05 -5.871158E+03 -6.937370E+01  2.622569E+05  2.039086E-10 -8.906243E-11
       128  17  3.534215E+05  3.773403E+04  2.824118E+04  2.477978E+05  2.337871E-10 -1.763690E-10
       128  18  5.433033E+05  8.322069E+04  6.128390E+04  2.636338E+05  2.804483E-11  2.738836E-12
       128  19  2.221505E+05  6.778587E+03  5.962955E+03  2.623938E+05  3.210785E+04  2.658040E+03
       128  20  3.314660E+04 -3.622221E+04 -2.133159E+04  2.465571E+05  2.901518E+04 -9.744233E+03
       128  21 -1.561541E+05 -7.901460E+04 -5.058358E+04  2.610167E+05  2.592305E+04 -2.013956E+04
       128  22  1.935343E+05  4.535942E+02  2.945824E+03  2.623253E+05 -6.837078E+01  2.647564E+03
       128  23  1.932708E+05  7.564745E+02  3.454394E+03  2.471775E+05  1.660310E+03 -9.751982E+03
       128  24  1.935136E+05  2.106242E+03  5.351537E+03  2.623250E+05  3.388730E+03 -2.014486E+04
       128  25  1.649211E+05 -5.870872E+03 -6.740732E+01  2.622568E+05 -3.224319E+04  2.637095E+03
       128  26  3.534222E+05  3.773431E+04  2.824260E+04  2.477980E+05 -2.570134E+04 -9.759784E+03
       128  27  5.433038E+05  8.322123E+04  6.128535E+04  2.636341E+05 -1.915783E+04 -2.015025E+04
       129   1 -2.734858E+05 -1.058783E+05 -6.920280E+04  2.610879E+05 -2.547055E+04  2.610112E+04
       129   2 -4.606384E+05 -1.470119E+05 -1.102265E+05  2.392930E+05  1.062262E+04  2.610382E+04
       129   3 -6.519381E+05 -1.862623E+05 -1.742780E+05  2.465044E+05  4.669607E+04  8.453943E+03
       129   4  1.940881E+05  2.864217E+03  6.903240E+03  2.620373E+05 -4.316737E+03  2.610462E+04
       129   5  1.924611E+05  8.136119E+03  1.229061E+04  2.475355E+05 -1.056331E+04  2.609829E+04
       129   6  1.940043E+05  2.264266E+04  2.405764E+04  2.620362E+05 -1.681832E+04  8.448833E+03
       129   7  6.618797E+05  1.115958E+05  8.300482E+04  2.629875E+05  1.685245E+04  2.610818E+04
       129   8  8.459741E+05  1.632600E+05  1.347909E+05  2.557868E+05 -3.177098E+04  2.609220E+04
       129   9  1.040615E+06  2.314998E+05  2.223597E+05  2.775891E+05 -8.041877E+04  8.440561E+03
       129  10 -2.734867E+05 -1.058792E+05 -6.920530E+04  2.610884E+05  3.470710E-10 -5.687811E-11
       129  11 -4.606387E+05 -1.470127E+05 -1.102280E+05  2.392928E+05  2.908144E-10 -5.881958E-11
       129  12 -6.519405E+05 -1.862630E+05 -1.742822E+05  2.465041E+05  6.969248E-11  1.251599E-11
       129  13  1.940879E+05  2.863480E+03  6.901924E+03  2.620374E+05  2.671636E-10 -3.005222E-12
       129  14  1.924608E+05  8.135358E+03  1.228912E+04  2.475357E+05  2.455624E-11  2.443777E-11
       129  15  1.940040E+05  2.264251E+04  2.405697E+04  2.620363E+05  2.892969E-10  2.864230E-11
       129  16  6.618792E+05  1.115950E+05  8.300301E+04  2.629871E+05  2.035563E-10  1.105097E-10
       129  17  8.459728E+05  1.632590E+05  1.347878E+05  2.557875E+05  3.075712E-10  1.547623E-10
       129  18  1.040608E+06  2.314980E+05  2.223474E+05  2.775896E+05 -2.297573E-10  6.031278E-11
       129  19 -2.734858E+05 -1.058783E+05 -6.920280E+04  2.610879E+05  2.547055E+04 -2.610112E+04
       129  20 -4.606384E+05 -1.470119E+05 -1.102265E+05  2.392930E+05 -1.062262E+04 -2.610382E+04
       129  21 -6.519381E+05 -1.862623E+05 -1.742780E+05  2.465044E+05 -4.669607E+04 -8.453943E+03
       129  22  1.940881E+05  2.864217E+03  6.903240E+03  2.620373E+05  4.316737E+03 -2.610462E+04
       129  23  1.924611E+05  8.136119E+03  1.229061E+04  2.475355E+05  1.056331E+04 -2.609829E+04
       129  24  1.940043E+05  2.264266E+04  2.405764E+04  2.620362E+05  1.681832E+04 -8.448833E+03
       129  25  6.618797E+05  1.115958E+05  8.300482E+04  2.629875E+05 -1.685245E+04 -2.610818E+04
       129  26  8.459741E+05  1.632600E+05  1.347909E+05  2.557868E+05  3.177098E+04 -2.609220E+04
       129  27  1.040615E+06  2.314998E+05  2.223597E+05  2.775891E+05  8.041877E+04 -8.440561E+03
       130   1 -1.891623E+05 -7.415267E+05 -1.836605E+05  3.131359E+05 -5.752247E+03 -5.687087E+04
       130   2 -1.182374E+05 -5.206620E+05 -1.022233E+05  2.899994E+05 -1.597469E+04 -1.682158E+04
       130   3 -6.136976E+04 -3.085120E+05 -5.040225E+04  3.005054E+05 -1.177572E+04  2.323747E+04
       130   4 -1.963658E+04 -5.651586E+04 -2.123061E+04  2.999321E+05 -5.708950E+03 -1.497600E+04
       130   5 -6.811926E+03 -5.510762E+04 -1.072939E+04  2.831029E+05 -1.596591E+04 -9.499756E+03
       130   6 -2.029914E+03 -5.644834E+04 -5.813584E+03  2.999166E+05 -1.180565E+04 -4.028650E+03
       130   7  1.498570E+05  6.289306E+05  1.411733E+05  2.867133E+05 -5.667469E+03  2.696489E+04
       130   8  1.046007E+05  4.106548E+05  8.075419E+04  2.762011E+05 -1.595730E+04 -2.172549E+03
       130   9  5.730684E+04  1.956790E+05  3.877554E+04  2.993276E+05 -1.183552E+04 -3.130552E+04
       130  10 -1.891632E+05 -7.415302E+05 -1.836666E+05  3.131357E+05  1.214255E-10 -6.008269E-10
       130  11 -1.182377E+05 -5.206624E+05 -1.022243E+05  2.899992E+05  6.933184E-11 -8.531018E-11
       130  12 -6.137005E+04 -3.085126E+05 -5.040353E+04  3.005056E+05  1.450107E-10  5.779724E-10
       130  13 -1.963667E+04 -5.651611E+04 -2.123110E+04  2.999320E+05 -5.668707E-10  1.658068E-10
       130  14 -6.812224E+03 -5.510778E+04 -1.073004E+04  2.831028E+05 -4.773756E-10  6.047184E-11
       130  15 -2.030068E+03 -5.644840E+04 -5.813876E+03  2.999166E+05 -6.267398E-10  1.133588E-10
       130  16  1.498568E+05  6.289298E+05  1.411719E+05  2.867134E+05 -2.131172E-10  6.666399E-10
       130  17  1.046004E+05  4.106547E+05  8.075371E+04  2.762011E+05 -6.989813E-10 -5.739567E-11
       130  18  5.730643E+04  1.956779E+05  3.877343E+04  2.993273E+05  1.190570E-10 -6.496096E-10
       130  19 -1.891623E+05 -7.415267E+05 -1.836605E+05  3.131359E+05  5.752247E+03  5.687087E+04
       130  20 -1.182374E+05 -5.206620E+05 -1.022233E+05  2.899994E+05  1.597469E+04  1.682158E+04
       130  21 -6.136976E+04 -3.085120E+05 -5.040225E+04  3.005054E+05  1.177572E+04 -2.323747E+04
       130  22 -1.963658E+04 -5.651586E+04 -2.123061E+04  2.999321E+05  5.708950E+03  1.497600E+04
       130  23 -6.811926E+03 -5.510762E+04 -1.072939E+04  2.831029E+05  1.596591E+04  9.499756E+03
       130  24 -2.029914E+03 -5.644834E+04 -5.813584E+03  2.999166E+05  1.180565E+04  4.028650E+03
       130  25  1.498570E+05  6.289306E+05  1.411733E+05  2.867133E+05  5.667469E+03 -2.696489E+04
       130  26  1.046007E+05  4.106548E+05  8.075419E+04  2.762011E+05  1.595730E+04  2.172549E+03
       130  27  5.730684E+04  1.956790E+05  3.877554E+04  2.993276E+05  1.183552E+04  3.130552E+04
       131   1 -2.928139E+04 -1.732735E+05 -2.675797E+04  3.011194E+05 -4.409170E+03  2.495876E+04
       131   2  2.239653E+04  4.329008E+04  1.131630E+04  2.834092E+05  7.096910E+03  2.489481E+04
       131   3  7.348960E+04  2.597198E+05  4.927004E+04  3.002576E+05  1.807918E+04  2.483172E+04
       131   4 -1.327658E+03 -5.591690E+04 -4.349463E+03  3.001208E+05 -4.440952E+03 -3.282071E+03
       131   5 -1.494815E+02 -5.572518E+04 -2.392701E+03  2.828405E+05  7.067331E+03 -2.093154E+03
       131   6  2.281026E+02 -5.593140E+04 -1.427806E+03  3.001193E+05  1.805173E+04 -9.033506E+02
       131   7  2.662570E+04  6.145470E+04  1.806142E+04  2.991219E+05 -4.472638E+03 -3.152811E+04
       131   8 -2.269553E+04 -1.547289E+05 -1.609908E+04  2.822718E+05  7.037799E+03 -2.907701E+04
       131   9 -7.303805E+04 -3.714823E+05 -5.212582E+04  2.999810E+05  1.802427E+04 -2.662581E+04
       131  10 -2.928158E+04 -1.732742E+05 -2.675918E+04  3.011195E+05  1.192066E-10 -7.132915E-10
       131  11  2.239631E+04  4.328940E+04  1.131504E+04  2.834091E+05 -1.758981E-10 -4.305063E-13
       131  12  7.348908E+04  2.597191E+05  4.926826E+04  3.002573E+05  2.913654E-10  6.161563E-10
       131  13 -1.327682E+03 -5.591691E+04 -4.349521E+03  3.001207E+05  2.010449E-12  1.006169E-10
       131  14 -1.495363E+02 -5.572520E+04 -2.392803E+03  2.828405E+05 -4.871039E-10  1.486059E-10
       131  15  2.277525E+02 -5.593149E+04 -1.428420E+03  3.001193E+05  2.086392E-10  1.322505E-10
       131  16  2.662541E+04  6.145363E+04  1.805951E+04  2.991218E+05  1.199869E-10  7.326961E-10
       131  17 -2.269581E+04 -1.547298E+05 -1.610076E+04  2.822720E+05 -1.084697E-11 -3.431974E-11
       131  18 -7.303859E+04 -3.714831E+05 -5.212776E+04  2.999814E+05 -1.824415E-10 -6.770510E-10
       131  19 -2.928139E+04 -1.732735E+05 -2.675797E+04  3.011194E+05  4.409170E+03 -2.495876E+04
       131  20  2.239653E+04  4.329008E+04  1.131630E+04  2.834092E+05 -7.096910E+03 -2.489481E+04
       131  21  7.348960E+04  2.597198E+05  4.927004E+04  3.002576E+05 -1.807918E+04 -2.483172E+04
       131  22 -1.327658E+03 -5.591690E+04 -4.349463E+03  3.001208E+05  4.440952E+03  3.282071E+03
       131  23 -1.494815E+02 -5.572518E+04 -2.392701E+03  2.828405E+05 -7.067331E+03  2.093154E+03
       131  24  2.281026E+02 -5.593140E+04 -1.427806E+03  3.001193E+05 -1.805173E+04  9.033506E+02
       131  25  2.662570E+04  6.145470E+04  1.806142E+04  2.991219E+05  4.472638E+03  3.152811E+04
       131  26 -2.269553E+04 -1.547289E+05 -1.609908E+04  2.822718E+05 -7.037799E+03  2.907701E+04
       131  27 -7.303805E+04 -3.714823E+05 -5.212582E+04  2.999810E+05 -1.802427E+04  2.662581E+04
       132   1  1.050926E+05  3.947774E+05  7.261138E+04  3.001346E+05  2.491085E+04  2.371184E+04
       132   2  1.577640E+05  6.076752E+05  1.245088E+05  2.832826E+05  2.585464E+04 -1.990809E+04
       132   3  2.177353E+05  8.281055E+05  2.066089E+05  2.997393E+05  8.446100E+03 -6.353845E+04
       132   4  2.243179E+02 -5.589610E+04 -1.151014E+03  2.998420E+05  2.488637E+04 -7.027584E+02
       132   5  2.069626E+01 -5.586646E+04 -8.931840E+02  2.831868E+05  2.587609E+04 -2.394263E+02
       132   6 -5.266757E+02 -5.599136E+04 -1.031186E+03  2.998426E+05  8.504340E+03  2.287083E+02
       132   7 -1.046540E+05 -5.063672E+05 -7.491699E+04  2.995495E+05  2.486190E+04 -2.510026E+04
       132   8 -1.577480E+05 -7.189825E+05 -1.263132E+05  2.830909E+05  2.589754E+04  1.940874E+04
       132   9 -2.188421E+05 -9.393605E+05 -2.087096E+05  2.999454E+05  8.562660E+03  6.390570E+04
       132  10  1.050917E+05  3.947766E+05  7.260916E+04  3.001342E+05  3.903174E-10 -9.146140E-10
       132  11  1.577631E+05  6.076746E+05  1.245068E+05  2.832830E+05 -5.689989E-10 -2.766297E-10
       132  12  2.177341E+05  8.281012E+05  2.066012E+05  2.997397E+05 -7.320239E-11  5.623215E-10
       132  13  2.236527E+02 -5.589627E+04 -1.152178E+03  2.998420E+05 -4.532013E-10  1.625265E-10
       132  14  1.997726E+01 -5.586664E+04 -8.944423E+02  2.831868E+05 -3.867083E-10  1.189610E-11
       132  15 -5.267533E+02 -5.599138E+04 -1.031322E+03  2.998426E+05 -6.937104E-11  1.481613E-10
       132  16 -1.046548E+05 -5.063681E+05 -7.491934E+04  2.995500E+05 -8.492267E-11  9.273383E-10
       132  17 -1.577489E+05 -7.189831E+05 -1.263151E+05  2.830905E+05 -5.245203E-10  2.815793E-10
       132  18 -2.188433E+05 -9.393649E+05 -2.087174E+05  2.999449E+05 -4.098195E-10 -5.204494E-10
       132  19  1.050926E+05  3.947774E+05  7.261138E+04  3.001346E+05 -2.491085E+04 -2.371184E+04
       132  20  1.577640E+05  6.076752E+05  1.245088E+05  2.832826E+05 -2.585464E+04  1.990809E+04
       132  21  2.177353E+05  8.281055E+05  2.066089E+05  2.997393E+05 -8.446100E+03  6.353845E+04
       132  22  2.243179E+02 -5.589610E+04 -1.151014E+03  2.998420E+05 -2.488637E+04  7.027584E+02
       132  23  2.069626E+01 -5.586646E+04 -8.931840E+02  2.831868E+05 -2.587609E+04  2.394263E+02
       132  24 -5.266757E+02 -5.599136E+04 -1.031186E+03  2.998426E+05 -8.504340E+03 -2.287083E+02
       132  25 -1.046540E+05 -5.063672E+05 -7.491699E+04  2.995495E+05 -2.486190E+04  2.510026E+04
       132  26 -1.577480E+05 -7.189825E+05 -1.263132E+05  2.830909E+05 -2.589754E+04 -1.940874E+04
       132  27 -2.188421E+05 -9.393605E+05 -2.087096E+05  2.999454E+05 -8.562660E+03 -6.390570E+04
       133   1  1.081129E+06  2.387798E+05  2.298156E+05  2.437309E+05  9.171225E+04 -8.807606E+03
       133   2  9.155885E+05  1.705673E+05  1.416094E+05  2.208204E+05  4.116496E+04 -2.798775E+04
       133   3  7.618801E+05  1.231373E+05  9.147197E+04  2.221532E+05 -9.359015E+03 -2.997162E+04
       133   4  2.483482E+05  3.350560E+04  3.554663E+04  2.207965E+05  2.495072E+04 -8.813075E+03
       133   5  2.460616E+05  1.204731E+04  1.808055E+04  2.086762E+05  1.574547E+04 -2.799355E+04
       133   6  2.484224E+05  4.214683E+03  1.001230E+04  2.207974E+05  6.548458E+03 -2.997091E+04
       133   7 -5.837830E+05 -1.718133E+05 -1.587523E+05  1.978929E+05 -4.172198E+04 -8.813633E+03
       133   8 -4.230293E+05 -1.464974E+05 -1.054644E+05  1.965453E+05 -9.647369E+03 -2.799835E+04
       133   9 -2.647727E+05 -1.147209E+05 -7.145312E+04  2.194427E+05  2.244327E+04 -2.997027E+04
       133  10  1.081120E+06  2.387775E+05  2.297996E+05  2.437315E+05  3.712933E-10 -6.077114E-11
       133  11  9.155864E+05  1.705661E+05  1.416047E+05  2.208213E+05 -2.930286E-10 -1.362712E-10
       133  12  7.618798E+05  1.231363E+05  9.147012E+04  2.221530E+05 -5.008157E-11 -1.947681E-10
       133  13  2.483475E+05  3.350535E+04  3.554532E+04  2.207967E+05  2.391826E-10  2.390228E-11
       133  14  2.460612E+05  1.204640E+04  1.807861E+04  2.086765E+05  1.010534E-10 -3.179906E-11
       133  15  2.484221E+05  4.213706E+03  1.001053E+04  2.207975E+05  1.537836E-10 -1.563595E-11
       133  16 -5.837849E+05 -1.718139E+05 -1.587557E+05  1.978926E+05  9.850548E-11  4.068077E-11
       133  17 -4.230296E+05 -1.464983E+05 -1.054661E+05  1.965451E+05  5.051934E-10  7.023397E-11
       133  18 -2.647735E+05 -1.147220E+05 -7.145575E+04  2.194432E+05  2.023191E-10  1.479055E-10
       133  19  1.081129E+06  2.387798E+05  2.298156E+05  2.437309E+05 -9.171225E+04  8.807606E+03
       133  20  9.155885E+05  1.705673E+05  1.416094E+05  2.208204E+05 -4.116496E+04  2.798775E+04
       133  21  7.618801E+05  1.231373E+05  9.147197E+04  2.221532E+05  9.359015E+03  2.997162E+04
       133  22  2.483482E+05  3.350560E+04  3.554663E+04  2.207965E+05 -2.495072E+04  8.813075E+03
       133  23  2.460616E+05  1.204731E+04  1.808055E+04  2.086762E+05 -1.574547E+04  2.799355E+04
       133  24  2.484224E+05  4.214683E+03  1.001230E+04  2.207974E+05 -6.548458E+03  2.997091E+04
       133  25 -5.837830E+05 -1.718133E+05 -1.587523E+05  1.978929E+05  4.172198E+04  8.813633E+03
       133  26 -4.230293E+05 -1.464974E+05 -1.054644E+05  1.965453E+05  9.647369E+03  2.799835E+04
       133  27 -2.647727E+05 -1.147209E+05 -7.145312E+04  2.194427E+05 -2.244327E+04  2.997027E+04
       134   1  6.613917E+05  9.857450E+04  7.150756E+04  2.229678E+05 -1.203960E+04 -2.531234E+04
       134   2  5.011487E+05  5.917217E+04  4.137984E+04  2.092358E+05 -1.928185E+04 -1.710350E+04
       134   3  3.424707E+05  2.210318E+04  1.654992E+04  2.210126E+05 -2.652323E+04 -6.846602E+03
       134   4  2.475595E+05  3.080411E+03  7.651262E+03  2.210798E+05  5.219222E+03 -2.531003E+04
       134   5  2.472288E+05  1.062995E+03  4.643951E+03  2.083253E+05  2.895142E+03 -1.709866E+04
       134   6  2.475874E+05  5.276865E+02  3.521885E+03  2.210802E+05  5.702865E+02 -6.838814E+03
       134   7 -1.661011E+05 -9.242181E+04 -5.620779E+04  2.191930E+05  2.246698E+04 -2.530782E+04
       134   8 -6.625067E+03 -5.704887E+04 -3.209113E+04  2.074152E+05  2.506346E+04 -1.709388E+04
       134   9  1.527148E+05 -2.104780E+04 -9.503491E+03  2.211478E+05  2.765985E+04 -6.831019E+03
       134  10  6.613913E+05  9.857377E+04  7.150609E+04  2.229675E+05 -4.726719E-10 -6.976671E-11
       134  11  5.011482E+05  5.917176E+04  4.137859E+04  2.092355E+05 -1.100852E-10  1.662621E-10
       134  12  3.424699E+05  2.210294E+04  1.654851E+04  2.210125E+05  2.425531E-10 -1.728971E-11
       134  13  2.475593E+05  3.079716E+03  7.650007E+03  2.210799E+05  2.332388E-10  2.791092E-11
       134  14  2.472287E+05  1.062678E+03  4.643386E+03  2.083253E+05  4.767413E-10  2.222070E-10
       134  15  2.475874E+05  5.276361E+02  3.521797E+03  2.210802E+05  6.145195E-11 -5.139568E-11
       134  16 -1.661018E+05 -9.242264E+04 -5.620994E+04  2.191935E+05  3.960877E-10  1.891783E-10
       134  17 -6.625820E+03 -5.704935E+04 -3.209286E+04  2.074155E+05 -7.659512E-11  8.854578E-11
       134  18  1.527140E+05 -2.104806E+04 -9.505016E+03  2.211479E+05 -1.134767E-10 -8.963355E-11
       134  19  6.613917E+05  9.857450E+04  7.150756E+04  2.229678E+05  1.203960E+04  2.531234E+04
       134  20  5.011487E+05  5.917217E+04  4.137984E+04  2.092358E+05  1.928185E+04  1.710350E+04
       134  21  3.424707E+05  2.210318E+04  1.654992E+04  2.210126E+05  2.652323E+04  6.846602E+03
       134  22  2.475595E+05  3.080411E+03  7.651262E+03  2.210798E+05 -5.219222E+03  2.531003E+04
       134  23  2.472288E+05  1.062995E+03  4.643951E+03  2.083253E+05 -2.895142E+03  1.709866E+04
       134  24  2.475874E+05  5.276865E+02  3.521885E+03  2.210802E+05 -5.702865E+02  6.838814E+03
       134  25 -1.661011E+05 -9.242181E+04 -5.620779E+04  2.191930E+05 -2.246698E+04  2.530782E+04
       134  26 -6.625067E+03 -5.704887E+04 -3.209113E+04  2.074152E+05 -2.506346E+04  1.709388E+04
       134  27  1.527148E+05 -2.104780E+04 -9.503491E+03  2.211478E+05 -2.765985E+04  6.831019E+03
       135   1  2.438195E+05 -4.569915E+02  2.317823E+03  2.211606E+05 -2.712442E+04 -1.151901E+02
       135   2  8.446622E+04 -3.657821E+04 -2.051249E+04  2.075789E+05 -2.490557E+04  1.029190E+04
       135   3 -7.500884E+04 -7.218950E+04 -4.465677E+04  2.195243E+05 -2.268689E+04  1.892400E+04
       135   4  2.475674E+05  5.131990E+02  3.420856E+03  2.210840E+05 -1.386355E+01 -1.071900E+02
       135   5  2.472625E+05  8.954398E+02  4.086603E+03  2.083206E+05 -2.058898E+03  1.029763E+04
       135   6  2.475495E+05  2.528194E+03  6.396915E+03  2.210837E+05 -4.103573E+03  1.892771E+04
       135   7  2.513170E+05  1.483783E+03  4.526649E+03  2.210073E+05  2.709686E+04 -9.919665E+01
       135   8  4.100864E+05  3.836810E+04  2.868712E+04  2.090625E+05  2.079353E+04  1.030342E+04
       135   9  5.702122E+05  7.724092E+04  5.744928E+04  2.226438E+05  1.448905E+04  1.893152E+04
       135  10  2.438187E+05 -4.571889E+02  2.316441E+03  2.211606E+05 -5.295753E-10 -1.015075E-11
       135  11  8.446553E+04 -3.657849E+04 -2.051386E+04  2.075791E+05  1.179245E-10  3.724737E-11
       135  12 -7.500949E+04 -7.219002E+04 -4.465841E+04  2.195247E+05 -5.732892E-11 -3.909215E-11
       135  13  2.475674E+05  5.131990E+02  3.420856E+03  2.210840E+05 -2.416042E-14 -1.074984E-10
       135  14  2.472625E+05  8.953248E+02  4.086395E+03  2.083206E+05 -3.536124E-11  1.035083E-10
       135  15  2.475494E+05  2.527805E+03  6.396210E+03  2.210837E+05 -7.947557E-11 -1.002433E-10
       135  16  2.513162E+05  1.483586E+03  4.525270E+03  2.210073E+05  6.231986E-10 -1.803581E-10
       135  17  4.100859E+05  3.836788E+04  2.868611E+04  2.090624E+05  4.914035E-10 -1.146990E-10
       135  18  5.702119E+05  7.724047E+04  5.744822E+04  2.226436E+05 -5.991843E-11  2.248956E-11
       135  19  2.438195E+05 -4.569915E+02  2.317823E+03  2.211606E+05  2.712442E+04  1.151901E+02
       135  20  8.446622E+04 -3.657821E+04 -2.051249E+04  2.075789E+05  2.490557E+04 -1.029190E+04
       135  21 -7.500884E+04 -7.218950E+04 -4.465677E+04  2.195243E+05  2.268689E+04 -1.892400E+04
       135  22  2.475674E+05  5.131990E+02  3.420856E+03  2.210840E+05  1.386355E+01  1.071900E+02
       135  23  2.472625E+05  8.954398E+02  4.086603E+03  2.083206E+05  2.058898E+03 -1.029763E+04
       135  24  2.475495E+05  2.528194E+03  6.396915E+03  2.210837E+05  4.103573E+03 -1.892771E+04
       135  25  2.513170E+05  1.483783E+03  4.526649E+03  2.210073E+05 -2.709686E+04  9.919665E+01
       135  26  4.100864E+05  3.836810E+04  2.868712E+04  2.090625E+05 -2.079353E+04 -1.030342E+04
       135  27  5.702122E+05  7.724092E+04  5.744928E+04  2.226438E+05 -1.448905E+04 -1.893152E+04
       136   1 -1.737238E+05 -9.458027E+04 -5.992179E+04  2.197059E+05 -2.258747E+04  2.386301E+04
       136   2 -3.319110E+05 -1.274370E+05 -9.322935E+04  1.987303E+05  6.896182E+03  2.340249E+04
       136   3 -4.927067E+05 -1.556222E+05 -1.445619E+05  2.021558E+05  3.636550E+04  7.519758E+03
       136   4  2.482460E+05  3.450908E+03  8.272520E+03  2.208324E+05 -5.211758E+03  2.386536E+04
       136   5  2.463208E+05  9.819461E+03  1.477207E+04  2.086328E+05 -1.272546E+04  2.339799E+04
       136   6  2.481820E+05  2.728009E+04  2.893890E+04  2.208310E+05 -2.024525E+04  7.515897E+03
       136   7  6.703933E+05  1.014732E+05  7.646310E+04  2.219597E+05  1.217535E+04  2.386777E+04
       136   8  8.248771E+05  1.470572E+05  1.227606E+05  2.185448E+05 -3.236491E+04  2.339287E+04
       136   9  9.895843E+05  2.101464E+05  2.024145E+05  2.395286E+05 -7.692315E+04  7.508640E+03
       136  10 -1.737245E+05 -9.458102E+04 -5.992382E+04  2.197064E+05  2.088323E-10 -9.770901E-11
       136  11 -3.319112E+05 -1.274376E+05 -9.323047E+04  1.987301E+05 -3.724252E-10 -2.496038E-12
       136  12 -4.927082E+05 -1.556226E+05 -1.445645E+05  2.021555E+05 -4.638447E-10 -1.892008E-11
       136  13  2.482459E+05  3.450289E+03  8.271399E+03  2.208325E+05 -4.949454E-10 -1.563427E-11
       136  14  2.463204E+05  9.818830E+03  1.477073E+04  2.086331E+05 -6.999623E-11 -2.565684E-11
       136  15  2.481815E+05  2.727992E+04  2.893802E+04  2.208311E+05 -2.309886E-10 -3.700718E-11
       136  16  6.703929E+05  1.014726E+05  7.646175E+04  2.219595E+05 -3.461464E-11 -5.344217E-12
       136  17  8.248758E+05  1.470564E+05  1.227576E+05  2.185454E+05  4.847209E-10 -9.399441E-11
       136  18  9.895779E+05  2.101448E+05  2.024033E+05  2.395290E+05  3.275779E-10 -6.144005E-11
       136  19 -1.737238E+05 -9.458027E+04 -5.992179E+04  2.197059E+05  2.258747E+04 -2.386301E+04
       136  20 -3.319110E+05 -1.274370E+05 -9.322935E+04  1.987303E+05 -6.896182E+03 -2.340249E+04
       136  21 -4.927067E+05 -1.556222E+05 -1.445619E+05  2.021558E+05 -3.636550E+04 -7.519758E+03
       136  22  2.482460E+05  3.450908E+03  8.272520E+03  2.208324E+05  5.211758E+03 -2.386536E+04
       136  23  2.463208E+05  9.819461E+03  1.477207E+04  2.086328E+05  1.272546E+04 -2.339799E+04
       136  24  2.481820E+05  2.728009E+04  2.893890E+04  2.208310E+05  2.024525E+04 -7.515897E+03
       136  25  6.703933E+05  1.014732E+05  7.646310E+04  2.219597E+05 -1.217535E+04 -2.386777E+04
       136  26  8.248771E+05  1.470572E+05  1.227606E+05  2.185448E+05  3.236491E+04 -2.339287E+04
       136  27  9.895843E+05  2.101464E+05  2.024145E+05  2.395286E+05  7.692315E+04 -7.508640E+03
       137   1 -2.028134E+05 -7.651782E+05 -1.970105E+05  3.224610E+05 -6.181623E+03 -6.354901E+04
       137   2 -1.274304E+05 -5.394652E+05 -1.105031E+05  2.974621E+05 -1.740708E+04 -2.040181E+04
       137   3 -6.834460E+04 -3.234193E+05 -5.618957E+04  3.067470E+05 -1.347890E+04  2.275824E+04
       137   4 -2.441908E+04 -4.416928E+04 -2.624614E+04  3.059959E+05 -6.139273E+03 -1.837718E+04
       137   5 -8.581291E+03 -4.243403E+04 -1.337206E+04  2.888451E+05 -1.739735E+04 -1.155601E+04
       137   6 -2.719744E+03 -4.409581E+04 -7.441123E+03  3.059791E+05 -1.350632E+04 -4.738443E+03
       137   7  1.539400E+05  6.773226E+05  1.444899E+05  2.895113E+05 -6.099357E+03  2.684689E+04
       137   8  1.102533E+05  4.548346E+05  8.374745E+04  2.802210E+05 -1.738787E+04 -2.703280E+03
       137   9  6.290129E+04  2.353058E+05  4.130740E+04  3.052107E+05 -1.353365E+04 -3.224713E+04
       137  10 -2.028145E+05 -7.651825E+05 -1.970181E+05  3.224607E+05 -1.227207E-11  1.385590E-12
       137  11 -1.274309E+05 -5.394658E+05 -1.105044E+05  2.974618E+05  5.328120E-10  2.951134E-11
       137  12 -6.834494E+04 -3.234199E+05 -5.619088E+04  3.067473E+05  1.710201E-10  2.549936E-10
       137  13 -2.441921E+04 -4.416965E+04 -2.624684E+04  3.059958E+05 -4.695561E-10  2.039674E-10
       137  14 -8.581652E+03 -4.243426E+04 -1.337288E+04  2.888450E+05 -4.728037E-11 -2.733406E-10
       137  15 -2.719946E+03 -4.409589E+04 -7.441508E+03  3.059790E+05 -4.410422E-10  3.013204E-10
       137  16  1.539398E+05  6.773219E+05  1.444885E+05  2.895115E+05  5.392697E-11  1.095278E-10
       137  17  1.102530E+05  4.548345E+05  8.374687E+04  2.802210E+05 -5.023098E-10 -3.727983E-10
       137  18  6.290081E+04  2.353046E+05  4.130510E+04  3.052104E+05 -9.104841E-11 -3.067275E-10
       137  19 -2.028134E+05 -7.651782E+05 -1.970105E+05  3.224610E+05  6.181623E+03  6.354901E+04
       137  20 -1.274304E+05 -5.394652E+05 -1.105031E+05  2.974621E+05  1.740708E+04  2.040181E+04
       137  21 -6.834460E+04 -3.234193E+05 -5.618957E+04  3.067470E+05  1.347890E+04 -2.275824E+04
       137  22 -2.441908E+04 -4.416928E+04 -2.624614E+04  3.059959E+05  6.139273E+03  1.837718E+04
       137  23 -8.581291E+03 -4.243403E+04 -1.337206E+04  2.888451E+05  1.739735E+04  1.155601E+04
       137  24 -2.719744E+03 -4.409581E+04 -7.441123E+03  3.059791E+05  1.350632E+04  4.738443E+03
       137  25  1.539400E+05  6.773226E+05  1.444899E+05  2.895113E+05  6.099357E+03 -2.684689E+04
       137  26  1.102533E+05  4.548346E+05  8.374745E+04  2.802210E+05  1.738787E+04  2.703280E+03
       137  27  6.290129E+04  2.353058E+05  4.130740E+04  3.052107E+05  1.353365E+04  3.224713E+04
       138   1 -3.544852E+04 -1.853324E+05 -3.175103E+04  3.074515E+05 -6.022627E+03  2.476814E+04
       138   2  1.744617E+04  3.571215E+04  7.312106E+03  2.890844E+05  5.658183E+03  2.557112E+04
       138   3  6.927138E+04  2.563991E+05  4.557136E+04  3.059734E+05  1.692164E+04  2.637503E+04
       138   4 -1.868529E+03 -4.345916E+04 -5.729514E+03  3.061955E+05 -6.051990E+03 -3.761808E+03
       138   5 -5.167415E+02 -4.317544E+04 -3.610410E+03  2.885665E+05  5.630512E+03 -1.961573E+03
       138   6 -4.057341E+02 -4.347096E+04 -2.989035E+03  3.061943E+05  1.689559E+04 -1.606634E+02
       138   7  3.171076E+04  9.843537E+04  2.029424E+04  3.049392E+05 -6.081232E+03 -3.229810E+04
       138   8 -1.847952E+04 -1.220551E+05 -1.453015E+04  2.880488E+05  5.602885E+03 -2.949092E+04
       138   9 -7.008703E+04 -3.432503E+05 -5.154926E+04  3.064151E+05  1.686952E+04 -2.668399E+04
       138  10 -3.544872E+04 -1.853331E+05 -3.175226E+04  3.074516E+05  4.756385E-10  4.804875E-11
       138  11  1.744596E+04  3.571144E+04  7.310817E+03  2.890843E+05  1.519600E-10  1.995835E-10
       138  12  6.927088E+04  2.563983E+05  4.556952E+04  3.059731E+05  1.236098E-10  2.166286E-10
       138  13 -1.868572E+03 -4.345919E+04 -5.729610E+03  3.061955E+05  1.011980E-10  2.637415E-10
       138  14 -5.167765E+02 -4.317546E+04 -3.610477E+03  2.885666E+05 -3.010092E-11 -3.293410E-10
       138  15 -4.060406E+02 -4.347104E+04 -2.989572E+03  3.061943E+05  3.024311E-11  3.160190E-10
       138  16  3.171044E+04  9.843424E+04  2.029221E+04  3.049391E+05 -1.296841E-10  1.108538E-10
       138  17 -1.847979E+04 -1.220560E+05 -1.453184E+04  2.880489E+05  4.753526E-10 -3.869070E-10
       138  18 -7.008752E+04 -3.432512E+05 -5.155114E+04  3.064154E+05 -1.022930E-10 -3.195212E-10
       138  19 -3.544852E+04 -1.853324E+05 -3.175103E+04  3.074515E+05  6.022627E+03 -2.476814E+04
       138  20  1.744617E+04  3.571215E+04  7.312106E+03  2.890844E+05 -5.658183E+03 -2.557112E+04
       138  21  6.927138E+04  2.563991E+05  4.557136E+04  3.059734E+05 -1.692164E+04 -2.637503E+04
       138  22 -1.868529E+03 -4.345916E+04 -5.729514E+03  3.061955E+05  6.051990E+03  3.761808E+03
       138  23 -5.167415E+02 -4.317544E+04 -3.610410E+03  2.885665E+05 -5.630512E+03  1.961573E+03
       138  24 -4.057341E+02 -4.347096E+04 -2.989035E+03  3.061943E+05 -1.689559E+04  1.606634E+02
       138  25  3.171076E+04  9.843537E+04  2.029424E+04  3.049392E+05  6.081232E+03  3.229810E+04
       138  26 -1.847952E+04 -1.220551E+05 -1.453015E+04  2.880488E+05 -5.602885E+03  2.949092E+04
       138  27 -7.008703E+04 -3.432503E+05 -5.154926E+04  3.064151E+05 -1.686952E+04  2.668399E+04
       139   1  1.012968E+05  3.940146E+05  6.892346E+04  3.059483E+05  2.395078E+04  2.553185E+04
       139   2  1.535831E+05  6.117065E+05  1.199971E+05  2.868234E+05  2.527355E+04 -1.626331E+04
       139   3  2.107284E+05  8.360931E+05  1.994768E+05  3.017161E+05  8.314056E+03 -5.807025E+04
       139   4 -5.999690E+02 -4.357538E+04 -3.067862E+03  3.059196E+05  2.392756E+04  3.037811E+02
       139   5 -2.164751E+03 -4.314032E+04 -4.145788E+03  2.889115E+05  2.529226E+04  2.422710E+03
       139   6 -6.486335E+03 -4.367143E+04 -7.299550E+03  3.059240E+05  8.365464E+03  4.544616E+03
       139   7 -1.025062E+05 -4.809746E+05 -7.506239E+04  3.058909E+05  2.390432E+04 -2.490713E+04
       139   8 -1.579375E+05 -6.975729E+05 -1.283065E+05  2.909972E+05  2.531110E+04  2.108951E+04
       139   9 -2.237540E+05 -9.227156E+05 -2.141142E+05  3.101255E+05  8.417774E+03  6.707137E+04
       139  10  1.012960E+05  3.940137E+05  6.892116E+04  3.059478E+05  2.584060E-10  3.546395E-11
       139  11  1.535823E+05  6.117061E+05  1.199954E+05  2.868237E+05 -1.118869E-10 -1.849113E-10
       139  12  2.107274E+05  8.360894E+05  1.994703E+05  3.017165E+05 -7.693559E-11 -1.385235E-10
       139  13 -6.005838E+02 -4.357553E+04 -3.068938E+03  3.059196E+05 -3.419481E-10  2.384348E-10
       139  14 -2.165440E+03 -4.314050E+04 -4.147001E+03  2.889115E+05  3.885449E-11 -2.349130E-10
       139  15 -6.486416E+03 -4.367147E+04 -7.299720E+03  3.059239E+05 -2.693540E-10  2.393240E-10
       139  16 -1.025070E+05 -4.809754E+05 -7.506463E+04  3.058914E+05  3.688091E-10 -7.665601E-12
       139  17 -1.579383E+05 -6.975736E+05 -1.283085E+05  2.909968E+05 -6.942155E-11 -2.780640E-11
       139  18 -2.237553E+05 -9.227205E+05 -2.141228E+05  3.101251E+05 -3.534615E-10  1.494441E-10
       139  19  1.012968E+05  3.940146E+05  6.892346E+04  3.059483E+05 -2.395078E+04 -2.553185E+04
       139  20  1.535831E+05  6.117065E+05  1.199971E+05  2.868234E+05 -2.527355E+04  1.626331E+04
       139  21  2.107284E+05  8.360931E+05  1.994768E+05  3.017161E+05 -8.314056E+03  5.807025E+04
       139  22 -5.999690E+02 -4.357538E+04 -3.067862E+03  3.059196E+05 -2.392756E+04 -3.037811E+02
       139  23 -2.164751E+03 -4.314032E+04 -4.145788E+03  2.889115E+05 -2.529226E+04 -2.422710E+03
       139  24 -6.486335E+03 -4.367143E+04 -7.299550E+03  3.059240E+05 -8.365464E+03 -4.544616E+03
       139  25 -1.025062E+05 -4.809746E+05 -7.506239E+04  3.058909E+05 -2.390432E+04  2.490713E+04
       139  26 -1.579375E+05 -6.975729E+05 -1.283065E+05  2.909972E+05 -2.531110E+04 -2.108951E+04
       139  27 -2.237540E+05 -9.227156E+05 -2.141142E+05  3.101255E+05 -8.417774E+03 -6.707137E+04
       140   1  9.760607E+05  2.056200E+05  1.982789E+05  2.111200E+05  7.997326E+04 -7.415214E+03
       140   2  8.340161E+05  1.451898E+05  1.215341E+05  1.904261E+05  3.619934E+04 -2.351560E+04
       140   3  7.024686E+05  1.038081E+05  7.802218E+04  1.905289E+05 -7.558744E+03 -2.506049E+04
       140   4  2.717353E+05  3.198885E+04  3.391531E+04  1.892368E+05  2.379572E+04 -7.419961E+03
       140   5  2.695516E+05  1.151420E+04  1.725869E+04  1.788395E+05  1.500805E+04 -2.351996E+04
       140   6  2.717901E+05  4.030868E+03  9.569583E+03  1.892377E+05  6.226005E+03 -2.505979E+04
       140   7 -4.321255E+05 -1.416739E+05 -1.304698E+05  1.673784E+05 -3.231861E+04 -7.420763E+03
       140   8 -2.946031E+05 -1.221788E+05 -8.702828E+04  1.672636E+05 -6.164502E+03 -2.352353E+04
       140   9 -1.587036E+05 -9.575550E+04 -5.888706E+04  1.879473E+05  2.000155E+04 -2.505915E+04
       140  10  9.760538E+05  2.056182E+05  1.982668E+05  2.111205E+05 -3.821495E-11 -2.218091E-11
       140  11  8.340146E+05  1.451888E+05  1.215306E+05  1.904268E+05 -2.412450E-10 -1.590766E-10
       140  12  7.024684E+05  1.038074E+05  7.802089E+04  1.905288E+05  6.440776E-11 -3.097178E-10
       140  13  2.717347E+05  3.198863E+04  3.391414E+04  1.892369E+05  3.146552E-12 -2.974908E-11
       140  14  2.695512E+05  1.151354E+04  1.725722E+04  1.788398E+05 -4.161701E-10 -5.053650E-11
       140  15  2.717899E+05  4.030183E+03  9.568329E+03  1.892378E+05 -3.312389E-10 -2.718078E-10
       140  16 -4.321266E+05 -1.416743E+05 -1.304719E+05  1.673782E+05  6.804857E-11  5.555410E-11
       140  17 -2.946033E+05 -1.221795E+05 -8.702939E+04  1.672635E+05  3.342560E-11  3.846495E-11
       140  18 -1.587042E+05 -9.575628E+04 -5.888899E+04  1.879477E+05 -1.613887E-10 -2.076249E-10
       140  19  9.760607E+05  2.056200E+05  1.982789E+05  2.111200E+05 -7.997326E+04  7.415214E+03
       140  20  8.340161E+05  1.451898E+05  1.215341E+05  1.904261E+05 -3.619934E+04  2.351560E+04
       140  21  7.024686E+05  1.038081E+05  7.802218E+04  1.905289E+05  7.558744E+03  2.506049E+04
       140  22  2.717353E+05  3.198885E+04  3.391531E+04  1.892368E+05 -2.379572E+04  7.419961E+03
       140  23  2.695516E+05  1.151420E+04  1.725869E+04  1.788395E+05 -1.500805E+04  2.351996E+04
       140  24  2.717901E+05  4.030868E+03  9.569583E+03  1.892377E+05 -6.226005E+03  2.505979E+04
       140  25 -4.321255E+05 -1.416739E+05 -1.304698E+05  1.673784E+05  3.231861E+04  7.420763E+03
       140  26 -2.946031E+05 -1.221788E+05 -8.702828E+04  1.672636E+05  6.164502E+03  2.352353E+04
       140  27 -1.587036E+05 -9.575550E+04 -5.888706E+04  1.879473E+05 -2.000155E+04  2.505915E+04
       141   1  6.162826E+05  8.265412E+04  6.073885E+04  1.912739E+05 -9.972808E+03 -2.103881E+04
       141   2  4.789238E+05  4.869988E+04  3.471677E+04  1.794082E+05 -1.636125E+04 -1.396041E+04
       141   3  3.429611E+05  1.688461E+04  1.338812E+04  1.894057E+05 -2.274890E+04 -5.154733E+03
       141   4  2.709656E+05  2.943219E+03  7.324676E+03  1.894755E+05  4.954821E+03 -2.103694E+04
       141   5  2.706464E+05  1.014497E+03  4.477470E+03  1.785439E+05  2.714097E+03 -1.395673E+04
       141   6  2.709854E+05  5.061895E+02  3.445111E+03  1.894759E+05  4.728590E+02 -5.148944E+03
       141   7 -7.423191E+04 -7.677335E+04 -4.609138E+04  1.876782E+05  1.987447E+04 -2.103516E+04
       141   8  6.241338E+04 -4.667268E+04 -2.576117E+04  1.776799E+05  2.178332E+04 -1.395309E+04
       141   9  1.990161E+05 -1.587217E+04 -6.495932E+03  1.895460E+05  2.369205E+04 -5.143149E+03
       141  10  6.162824E+05  8.265362E+04  6.073783E+04  1.912737E+05 -2.597135E-10 -2.445577E-10
       141  11  4.789235E+05  4.869960E+04  3.471590E+04  1.794080E+05 -5.487272E-11 -2.437666E-12
       141  12  3.429605E+05  1.688445E+04  1.338710E+04  1.894056E+05  2.988254E-10 -3.657635E-11
       141  13  2.709655E+05  2.942737E+03  7.323798E+03  1.894756E+05 -3.159457E-10 -3.433486E-10
       141  14  2.706463E+05  1.014286E+03  4.477090E+03  1.785439E+05 -9.754046E-11 -2.196521E-10
       141  15  2.709854E+05  5.061610E+02  3.445060E+03  1.894759E+05  5.525615E-10 -1.339316E-10
       141  16 -7.423245E+04 -7.677393E+04 -4.609295E+04  1.876785E+05  5.661118E-11 -3.970881E-10
       141  17  6.241282E+04 -4.667302E+04 -2.576243E+04  1.776802E+05 -1.298700E-10 -5.622504E-10
       141  18  1.990155E+05 -1.587235E+04 -6.497037E+03  1.895461E+05  5.509985E-11 -3.868793E-10
       141  19  6.162826E+05  8.265412E+04  6.073885E+04  1.912739E+05  9.972808E+03  2.103881E+04
       141  20  4.789238E+05  4.869988E+04  3.471677E+04  1.794082E+05  1.636125E+04  1.396041E+04
       141  21  3.429611E+05  1.688461E+04  1.338812E+04  1.894057E+05  2.274890E+04  5.154733E+03
       141  22  2.709656E+05  2.943219E+03  7.324676E+03  1.894755E+05 -4.954821E+03  2.103694E+04
       141  23  2.706464E+05  1.014497E+03  4.477470E+03  1.785439E+05 -2.714097E+03  1.395673E+04
       141  24  2.709854E+05  5.061895E+02  3.445111E+03  1.894759E+05 -4.728590E+02  5.148944E+03
       141  25 -7.423191E+04 -7.677335E+04 -4.609138E+04  1.876782E+05 -1.987447E+04  2.103516E+04
       141  26  6.241338E+04 -4.667268E+04 -2.576117E+04  1.776799E+05 -2.178332E+04  1.395309E+04
       141  27  1.990161E+05 -1.587217E+04 -6.495932E+03  1.895460E+05 -2.369205E+04  5.143149E+03
       142   1  2.584183E+05 -2.447429E+03  1.209969E+03  1.895537E+05 -2.333348E+04  6.142590E+02
       142   2  1.218080E+05 -3.333028E+04 -1.822180E+04  1.777889E+05 -2.166597E+04  9.518179E+03
       142   3 -1.483326E+04 -6.359336E+04 -3.858134E+04  1.879001E+05 -1.999853E+04  1.687291E+04
       142   4  2.709719E+05  4.961937E+02  3.377503E+03  1.894785E+05 -1.007088E+02  6.201689E+02
       142   5  2.706681E+05  9.009151E+02  4.104383E+03  1.785407E+05 -2.154623E+03  9.522346E+03
       142   6  2.709578E+05  2.571098E+03  6.485078E+03  1.894782E+05 -4.208206E+03  1.687553E+04
       142   7  2.835269E+05  3.440097E+03  5.547060E+03  1.894033E+05  2.313252E+04  6.260730E+02
       142   8  4.195513E+05  3.513127E+04  2.643156E+04  1.792926E+05  1.736121E+04  9.526560E+03
       142   9  5.568306E+05  6.873166E+04  5.155041E+04  1.910570E+05  1.158912E+04  1.687823E+04
       142  10  2.584177E+05 -2.447575E+03  1.208946E+03  1.895537E+05 -3.740178E-10 -5.961996E-11
       142  11  1.218074E+05 -3.333051E+04 -1.822285E+04  1.777891E+05  4.598958E-13  1.694382E-10
       142  12 -1.483376E+04 -6.359378E+04 -3.858263E+04  1.879004E+05 -1.074833E-11  2.955300E-10
       142  13  2.709719E+05  4.961933E+02  3.377503E+03  1.894785E+05  5.427344E-10 -1.064730E-10
       142  14  2.706681E+05  9.008165E+02  4.104204E+03  1.785407E+05  1.616143E-10 -8.745564E-12
       142  15  2.709577E+05  2.570787E+03  6.484510E+03  1.894783E+05  9.968399E-11  1.194372E-10
       142  16  2.835263E+05  3.439953E+03  5.546054E+03  1.894033E+05  3.893033E-10 -1.134380E-10
       142  17  4.195509E+05  3.513109E+04  2.643082E+04  1.792925E+05  1.161641E-10  3.059999E-11
       142  18  5.568304E+05  6.873132E+04  5.154963E+04  1.910569E+05 -2.167358E-11 -4.623886E-11
       142  19  2.584183E+05 -2.447429E+03  1.209969E+03  1.895537E+05  2.333348E+04 -6.142590E+02
       142  20  1.218080E+05 -3.333028E+04 -1.822180E+04  1.777889E+05  2.166597E+04 -9.518179E+03
       142  21 -1.483326E+04 -6.359336E+04 -3.858134E+04  1.879001E+05  1.999853E+04 -1.687291E+04
       142  22  2.709719E+05  4.961937E+02  3.377503E+03  1.894785E+05  1.007088E+02 -6.201689E+02
       142  23  2.706681E+05  9.009151E+02  4.104383E+03  1.785407E+05  2.154623E+03 -9.522346E+03
       142  24  2.709578E+05  2.571098E+03  6.485078E+03  1.894782E+05  4.208206E+03 -1.687553E+04
       142  25  2.835269E+05  3.440097E+03  5.547060E+03  1.894033E+05 -2.313252E+04 -6.260730E+02
       142  26  4.195513E+05  3.513127E+04  2.643156E+04  1.792926E+05 -1.736121E+04 -9.526560E+03
       142  27  5.568306E+05  6.873166E+04  5.155041E+04  1.910570E+05 -1.158912E+04 -1.687823E+04
       143   1 -9.933992E+04 -8.264055E+04 -5.139937E+04  1.881221E+05 -2.007180E+04  2.107717E+04
       143   2 -2.351829E+05 -1.097933E+05 -7.910820E+04  1.687306E+05  4.422752E+03  2.052678E+04
       143   3 -3.727425E+05 -1.312291E+05 -1.213329E+05  1.702324E+05  2.890756E+04  6.576754E+03
       143   4  2.716706E+05  3.516688E+03  8.405174E+03  1.892590E+05 -5.331625E+03  2.107877E+04
       143   5  2.697227E+05  1.001969E+04  1.504435E+04  1.788131E+05 -1.298647E+04  2.052339E+04
       143   6  2.716216E+05  2.781869E+04  2.949257E+04  1.892578E+05 -2.064613E+04  6.574116E+03
       143   7  6.428182E+05  8.966710E+04  6.820681E+04  1.903967E+05  9.417051E+03  2.108043E+04
       143   8  7.748759E+05  1.298185E+05  1.091872E+05  1.889039E+05 -3.040950E+04  2.051943E+04
       143   9  9.163744E+05  1.868397E+05  1.802991E+05  2.083030E+05 -7.025093E+04  6.568448E+03
       143  10 -9.934047E+04 -8.264113E+04 -5.140096E+04  1.881224E+05  2.519727E-10  2.731099E-10
       143  11 -2.351830E+05 -1.097937E+05 -7.910903E+04  1.687305E+05 -1.389909E-11  6.172401E-11
       143  12 -3.727434E+05 -1.312294E+05 -1.213345E+05  1.702323E+05  1.693319E-10  1.999430E-11
       143  13  2.716705E+05  3.516203E+03  8.404286E+03  1.892591E+05  9.566538E-11  1.325558E-10
       143  14  2.697224E+05  1.001920E+04  1.504324E+04  1.788133E+05 -1.596451E-11  3.698594E-12
       143  15  2.716211E+05  2.781853E+04  2.949169E+04  1.892579E+05  3.437387E-11  2.565013E-11
       143  16  6.428180E+05  8.966659E+04  6.820581E+04  1.903965E+05 -1.510321E-10 -4.913095E-11
       143  17  7.748748E+05  1.298178E+05  1.091847E+05  1.889044E+05 -3.616768E-10  1.791562E-11
       143  18  9.163691E+05  1.868383E+05  1.802898E+05  2.083033E+05 -3.494252E-10  4.973965E-11
       143  19 -9.933992E+04 -8.264055E+04 -5.139937E+04  1.881221E+05  2.007180E+04 -2.107717E+04
       143  20 -2.351829E+05 -1.097933E+05 -7.910820E+04  1.687306E+05 -4.422752E+03 -2.052678E+04
       143  21 -3.727425E+05 -1.312291E+05 -1.213329E+05  1.702324E+05 -2.890756E+04 -6.576754E+03
       143  22  2.716706E+05  3.516688E+03  8.405174E+03  1.892590E+05  5.331625E+03 -2.107877E+04
       143  23  2.697227E+05  1.001969E+04  1.504435E+04  1.788131E+05  1.298647E+04 -2.052339E+04
       143  24  2.716216E+05  2.781869E+04  2.949257E+04  1.892578E+05  2.064613E+04 -6.574116E+03
       143  25  6.428182E+05  8.966710E+04  6.820681E+04  1.903967E+05 -9.417051E+03 -2.108043E+04
       143  26  7.748759E+05  1.298185E+05  1.091872E+05  1.889039E+05  3.040950E+04 -2.051943E+04
       143  27  9.163744E+05  1.868397E+05  1.802991E+05  2.083030E+05  7.025093E+04 -6.568448E+03
       144   1 -1.915170E+05 -6.904156E+05 -1.862891E+05  2.953295E+05 -5.772392E+03 -6.233071E+04
       144   2 -1.200784E+05 -4.856071E+05 -1.048572E+05  2.711538E+05 -1.638752E+04 -2.131049E+04
       144   3 -6.544477E+04 -2.903182E+05 -5.435650E+04  2.780062E+05 -1.303167E+04  1.972138E+04
       144   4 -2.689746E+04 -2.494889E+04 -2.879832E+04  2.771361E+05 -5.737170E+03 -2.005209E+04
       144   5 -9.537230E+03 -2.305099E+04 -1.476208E+04  2.616134E+05 -1.637893E+04 -1.252570E+04
       144   6 -3.154279E+03 -2.488708E+04 -8.376413E+03  2.771200E+05 -1.305339E+04 -5.001921E+03
       144   7  1.376925E+05  6.409296E+05  1.286687E+05  2.589230E+05 -5.704455E+03  2.227166E+04
       144   8  1.009915E+05  4.397110E+05  7.532322E+04  2.520657E+05 -1.637062E+04 -3.734496E+03
       144   9  5.913275E+04  2.406145E+05  3.760353E+04  2.762334E+05 -1.307503E+04 -2.973547E+04
       144  10 -1.915181E+05 -6.904197E+05 -1.862965E+05  2.953292E+05 -2.567195E-10 -3.550356E-10
       144  11 -1.200788E+05 -4.856077E+05 -1.048586E+05  2.711535E+05  4.836681E-11 -2.858055E-10
       144  12 -6.544506E+04 -2.903187E+05 -5.435755E+04  2.780064E+05 -4.459445E-10  3.777966E-10
       144  13 -2.689760E+04 -2.494933E+04 -2.879914E+04  2.771360E+05  3.197833E-10 -2.448262E-12
       144  14 -9.537560E+03 -2.305123E+04 -1.476288E+04  2.616133E+05 -1.950797E-10 -8.194841E-11
       144  15 -3.154469E+03 -2.488715E+04 -8.376780E+03  2.771199E+05  1.517970E-10 -1.762377E-11
       144  16  1.376923E+05  6.409291E+05  1.286677E+05  2.589231E+05  2.859270E-10  5.601238E-10
       144  17  1.009912E+05  4.397109E+05  7.532269E+04  2.520657E+05 -6.965100E-10  6.079847E-11
       144  18  5.913233E+04  2.406135E+05  3.760155E+04  2.762330E+05  5.112502E-11 -4.444938E-10
       144  19 -1.915170E+05 -6.904156E+05 -1.862891E+05  2.953295E+05  5.772392E+03  6.233071E+04
       144  20 -1.200784E+05 -4.856071E+05 -1.048572E+05  2.711538E+05  1.638752E+04  2.131049E+04
       144  21 -6.544477E+04 -2.903182E+05 -5.435650E+04  2.780062E+05  1.303167E+04 -1.972138E+04
       144  22 -2.689746E+04 -2.494889E+04 -2.879832E+04  2.771361E+05  5.737170E+03  2.005209E+04
       144  23 -9.537230E+03 -2.305099E+04 -1.476208E+04  2.616134E+05  1.637893E+04  1.252570E+04
       144  24 -3.154279E+03 -2.488708E+04 -8.376413E+03  2.771200E+05  1.305339E+04  5.001921E+03
       144  25  1.376925E+05  6.409296E+05  1.286687E+05  2.589230E+05  5.704455E+03 -2.227166E+04
       144  26  1.009915E+05  4.397110E+05  7.532322E+04  2.520657E+05  1.637062E+04  3.734496E+03
       144  27  5.913275E+04  2.406145E+05  3.760353E+04  2.762334E+05  1.307503E+04  2.973547E+04
       145   1 -3.549208E+04 -1.651386E+05 -3.192145E+04  2.787261E+05 -6.312231E+03  2.179555E+04
       145   2  1.259705E+04  3.515934E+04  3.669505E+03  2.617787E+05  4.234231E+03  2.329849E+04
       145   3  5.924611E+04  2.349149E+05  3.791114E+04  2.767610E+05  1.446847E+04  2.480231E+04
       145   4 -2.236800E+03 -2.420631E+04 -6.579392E+03  2.773206E+05 -6.335598E+03 -3.885152E+03
       145   5 -8.403959E+02 -2.385446E+04 -4.501348E+03  2.613550E+05  4.212011E+03 -1.636443E+03
       145   6 -1.012031E+03 -2.421431E+04 -4.291559E+03  2.773197E+05  1.444735E+04  6.127167E+02
       145   7  3.101773E+04  1.167468E+05  1.876438E+04  2.759147E+05 -6.358844E+03 -2.957152E+04
       145   8 -1.427766E+04 -8.286340E+04 -1.266990E+04  2.609314E+05  4.189823E+03 -2.656911E+04
       145   9 -6.127328E+04 -2.832757E+05 -4.649395E+04  2.778781E+05  1.442619E+04 -2.356713E+04
       145  10 -3.549225E+04 -1.651392E+05 -3.192242E+04  2.787262E+05 -3.365628E-11 -1.300871E-10
       145  11  1.259688E+04  3.515875E+04  3.668452E+03  2.617786E+05 -5.217948E-11 -1.445193E-10
       145  12  5.924572E+04  2.349142E+05  3.790959E+04  2.767607E+05  2.441916E-11  4.869650E-10
       145  13 -2.236847E+03 -2.420633E+04 -6.579496E+03  2.773206E+05  4.611504E-10  1.026178E-11
       145  14 -8.404157E+02 -2.385447E+04 -4.501386E+03  2.613550E+05  1.064594E-09 -1.249841E-10
       145  15 -1.012256E+03 -2.421437E+04 -4.291952E+03  2.773197E+05  2.134474E-10 -2.379626E-11
       145  16  3.101746E+04  1.167459E+05  1.876266E+04  2.759146E+05  1.422505E-11  4.377085E-10
       145  17 -1.427787E+04 -8.286416E+04 -1.267126E+04  2.609315E+05  2.869531E-11  4.718174E-11
       145  18 -6.127365E+04 -2.832764E+05 -4.649539E+04  2.778784E+05 -8.340206E-11 -5.848166E-10
       145  19 -3.549208E+04 -1.651386E+05 -3.192145E+04  2.787261E+05  6.312231E+03 -2.179555E+04
       145  20  1.259705E+04  3.515934E+04  3.669505E+03  2.617787E+05 -4.234231E+03 -2.329849E+04
       145  21  5.924611E+04  2.349149E+05  3.791114E+04  2.767610E+05 -1.446847E+04 -2.480231E+04
       145  22 -2.236800E+03 -2.420631E+04 -6.579392E+03  2.773206E+05  6.335598E+03  3.885152E+03
       145  23 -8.403959E+02 -2.385446E+04 -4.501348E+03  2.613550E+05 -4.212011E+03  1.636443E+03
       145  24 -1.012031E+03 -2.421431E+04 -4.291559E+03  2.773197E+05 -1.444735E+04 -6.127167E+02
       145  25  3.101773E+04  1.167468E+05  1.876438E+04  2.759147E+05  6.358844E+03  2.957152E+04
       145  26 -1.427766E+04 -8.286340E+04 -1.266990E+04  2.609314E+05 -4.189823E+03  2.656911E+04
       145  27 -6.127328E+04 -2.832757E+05 -4.649395E+04  2.778781E+05 -1.442619E+04  2.356713E+04
       146   1  8.804466E+04  3.593855E+05  5.864156E+04  2.768383E+05  2.086809E+04  2.432924E+04
       146   2  1.339700E+05  5.570028E+05  1.032412E+05  2.575578E+05  2.227051E+04 -1.124481E+04
       146   3  1.817387E+05  7.597450E+05  1.714467E+05  2.691060E+05  7.362408E+03 -4.682789E+04
       146   4 -1.379192E+03 -2.445011E+04 -4.725659E+03  2.770755E+05  2.084919E+04  1.301880E+03
       146   5 -4.172715E+03 -2.363504E+04 -7.059668E+03  2.616631E+05  2.228487E+04  4.901964E+03
       146   6 -1.191868E+04 -2.452729E+04 -1.298135E+04  2.770824E+05  7.402488E+03  8.504211E+03
       146   7 -9.081036E+04 -4.081389E+05 -6.809524E+04  2.773125E+05  2.083028E+04 -2.171174E+04
       146   8 -1.423350E+05 -6.039473E+05 -1.173747E+05  2.657644E+05  2.229944E+04  2.103401E+04
       146   9 -2.056180E+05 -8.082271E+05 -1.974401E+05  2.850486E+05  7.444026E+03  6.376689E+04
       146  10  8.804404E+04  3.593847E+05  5.863963E+04  2.768379E+05 -2.049099E-11 -4.575237E-10
       146  11  1.339694E+05  5.570025E+05  1.032401E+05  2.575580E+05 -3.604980E-10 -4.658324E-10
       146  12  1.817381E+05  7.597426E+05  1.714425E+05  2.691063E+05 -1.965595E-10  2.231877E-10
       146  13 -1.379659E+03 -2.445023E+04 -4.726479E+03  2.770755E+05 -2.792131E-10 -6.361790E-12
       146  14 -4.173255E+03 -2.363520E+04 -7.060646E+03  2.616631E+05  1.035877E-10 -1.146678E-10
       146  15 -1.191875E+04 -2.452738E+04 -1.298159E+04  2.770824E+05 -1.573283E-10 -2.674061E-11
       146  16 -9.081096E+04 -4.081396E+05 -6.809694E+04  2.773129E+05 -2.043429E-10  6.751955E-10
       146  17 -1.423356E+05 -6.039479E+05 -1.173764E+05  2.657640E+05 -5.554071E-10  3.775159E-10
       146  18 -2.056192E+05 -8.082315E+05 -1.974479E+05  2.850482E+05  2.372512E-10 -3.963677E-10
       146  19  8.804466E+04  3.593855E+05  5.864156E+04  2.768383E+05 -2.086809E+04 -2.432924E+04
       146  20  1.339700E+05  5.570028E+05  1.032412E+05  2.575578E+05 -2.227051E+04  1.124481E+04
       146  21  1.817387E+05  7.597450E+05  1.714467E+05  2.691060E+05 -7.362408E+03  4.682789E+04
       146  22 -1.379192E+03 -2.445011E+04 -4.725659E+03  2.770755E+05 -2.084919E+04 -1.301880E+03
       146  23 -4.172715E+03 -2.363504E+04 -7.059668E+03  2.616631E+05 -2.228487E+04 -4.901964E+03
       146  24 -1.191868E+04 -2.452729E+04 -1.298135E+04  2.770824E+05 -7.402488E+03 -8.504211E+03
       146  25 -9.081036E+04 -4.081389E+05 -6.809524E+04  2.773125E+05 -2.083028E+04  2.171174E+04
       146  26 -1.423350E+05 -6.039473E+05 -1.173747E+05  2.657644E+05 -2.229944E+04 -2.103401E+04
       146  27 -2.056180E+05 -8.082271E+05 -1.974401E+05  2.850486E+05 -7.444026E+03 -6.376689E+04
       147   1  8.846206E+05  1.787064E+05  1.724855E+05  1.856265E+05  6.964595E+04 -6.362536E+03
       147   2  7.601074E+05  1.253160E+05  1.053398E+05  1.672089E+05  3.150065E+04 -2.012511E+04
       147   3  6.448279E+05  8.888257E+04  6.724535E+04  1.670341E+05 -6.632150E+03 -2.131852E+04
       147   4  2.769809E+05  2.889105E+04  3.062260E+04  1.658696E+05  2.147835E+04 -6.366257E+03
       147   5  2.750081E+05  1.040407E+04  1.558875E+04  1.567491E+05  1.354040E+04 -2.012836E+04
       147   6  2.770228E+05  3.642516E+03  8.652719E+03  1.658703E+05  5.606771E+03 -2.131790E+04
       147   7 -3.303130E+05 -1.209477E+05 -1.112564E+05  1.461322E+05 -2.664248E+04 -6.366922E+03
       147   8 -2.098623E+05 -1.045207E+05 -7.417088E+04  1.462977E+05 -4.406199E+03 -2.013101E+04
       147   9 -9.064748E+04 -8.160421E+04 -4.994285E+04  1.647072E+05  1.783871E+04 -2.131733E+04
       147  10  8.846154E+05  1.787051E+05  1.724763E+05  1.856269E+05 -4.025677E-10 -4.063297E-11
       147  11  7.601062E+05  1.253153E+05  1.053372E+05  1.672094E+05 -6.724111E-10 -1.232592E-10
       147  12  6.448277E+05  8.888207E+04  6.724442E+04  1.670340E+05  3.406389E-12 -3.238233E-10
       147  13  2.769804E+05  2.889089E+04  3.062166E+04  1.658698E+05 -2.671619E-10  3.503425E-11
       147  14  2.750078E+05  1.040359E+04  1.558765E+04  1.567493E+05 -3.679288E-11  1.441608E-10
       147  15  2.770227E+05  3.642020E+03  8.651806E+03  1.658704E+05 -2.505938E-10 -9.873191E-11
       147  16 -3.303138E+05 -1.209480E+05 -1.112579E+05  1.461320E+05  3.141651E-10  1.174623E-10
       147  17 -2.098624E+05 -1.045211E+05 -7.417168E+04  1.462976E+05  4.954395E-10  2.622924E-10
       147  18 -9.064794E+04 -8.160478E+04 -4.994430E+04  1.647075E+05 -2.165072E-10  1.211676E-10
       147  19  8.846206E+05  1.787064E+05  1.724855E+05  1.856265E+05 -6.964595E+04  6.362536E+03
       147  20  7.601074E+05  1.253160E+05  1.053398E+05  1.672089E+05 -3.150065E+04  2.012511E+04
       147  21  6.448279E+05  8.888257E+04  6.724535E+04  1.670341E+05  6.632150E+03  2.131852E+04
       147  22  2.769809E+05  2.889105E+04  3.062260E+04  1.658696E+05 -2.147835E+04  6.366257E+03
       147  23  2.750081E+05  1.040407E+04  1.558875E+04  1.567491E+05 -1.354040E+04  2.012836E+04
       147  24  2.770228E+05  3.642516E+03  8.652719E+03  1.658703E+05 -5.606771E+03  2.131790E+04
       147  25 -3.303130E+05 -1.209477E+05 -1.112564E+05  1.461322E+05  2.664248E+04  6.366922E+03
       147  26 -2.098623E+05 -1.045207E+05 -7.417088E+04  1.462977E+05  4.406199E+03  2.013101E+04
       147  27 -9.064748E+04 -8.160421E+04 -4.994285E+04  1.647072E+05 -1.783871E+04  2.131733E+04
       148   1  5.692811E+05  7.032213E+04  5.209165E+04  1.676975E+05 -8.768714E+03 -1.776400E+04
       148   2  4.488854E+05  4.052404E+04  2.929408E+04  1.572711E+05 -1.437404E+04 -1.151511E+04
       148   3  3.297200E+05  1.263109E+04  1.062197E+04  1.660090E+05 -1.997863E+04 -3.781203E+03
       148   4  2.762780E+05  2.657916E+03  6.631093E+03  1.660758E+05  4.456646E+03 -1.776250E+04
       148   5  2.759873E+05  9.151507E+02  4.075733E+03  1.564936E+05  2.417065E+03 -1.151228E+04
       148   6  2.762925E+05  4.591956E+02  3.170531E+03  1.660760E+05  3.771561E+02 -3.776831E+03
       148   7 -1.663901E+04 -6.501039E+04 -3.883079E+04  1.644548E+05  1.767601E+04 -1.776108E+04
       148   8  1.031199E+05 -3.869496E+04 -2.114206E+04  1.557164E+05  1.920369E+04 -1.150949E+04
       148   9  2.228688E+05 -1.171260E+04 -4.279387E+03  1.661430E+05  2.073127E+04 -3.772455E+03
       148  10  5.692810E+05  7.032177E+04  5.209091E+04  1.676973E+05 -1.874440E-10 -3.254644E-10
       148  11  4.488851E+05  4.052384E+04  2.929344E+04  1.572709E+05  1.909834E-11 -5.345038E-11
       148  12  3.297196E+05  1.263096E+04  1.062119E+04  1.660090E+05 -4.076053E-10  1.615482E-10
       148  13  2.762779E+05  2.657572E+03  6.630463E+03  1.660758E+05 -1.346694E-10 -1.589686E-10
       148  14  2.759873E+05  9.150068E+02  4.075473E+03  1.564936E+05 -1.494106E-10 -3.589355E-11
       148  15  2.762925E+05  4.591802E+02  3.170504E+03  1.660760E+05 -2.659349E-10  5.919877E-11
       148  16 -1.663943E+04 -6.501081E+04 -3.883197E+04  1.644551E+05  3.374081E-10  3.275690E-11
       148  17  1.031195E+05 -3.869520E+04 -2.114300E+04  1.557165E+05  5.316307E-11 -6.834655E-11
       148  18  2.228683E+05 -1.171273E+04 -4.280221E+03  1.661431E+05 -9.221646E-11  4.868941E-11
       148  19  5.692811E+05  7.032213E+04  5.209165E+04  1.676975E+05  8.768714E+03  1.776400E+04
       148  20  4.488854E+05  4.052404E+04  2.929408E+04  1.572711E+05  1.437404E+04  1.151511E+04
       148  21  3.297200E+05  1.263109E+04  1.062197E+04  1.660090E+05  1.997863E+04  3.781203E+03
       148  22  2.762780E+05  2.657916E+03  6.631093E+03  1.660758E+05 -4.456646E+03  1.776250E+04
       148  23  2.759873E+05  9.151507E+02  4.075733E+03  1.564936E+05 -2.417065E+03  1.151228E+04
       148  24  2.762925E+05  4.591956E+02  3.170531E+03  1.660760E+05 -3.771561E+02  3.776831E+03
       148  25 -1.663901E+04 -6.501039E+04 -3.883079E+04  1.644548E+05 -1.767601E+04  1.776108E+04
       148  26  1.031199E+05 -3.869496E+04 -2.114206E+04  1.557164E+05 -1.920369E+04  1.150949E+04
       148  27  2.228688E+05 -1.171260E+04 -4.279387E+03  1.661430E+05 -2.073127E+04  3.772455E+03
       149   1  2.556198E+05 -4.311599E+03 -3.438428E+01  1.661467E+05 -2.051378E+04  1.275428E+03
       149   2  1.358690E+05 -3.134554E+04 -1.700511E+04  1.557820E+05 -1.910920E+04  9.064339E+03
       149   3  1.611009E+04 -5.776524E+04 -3.473517E+04  1.645888E+05 -1.770459E+04  1.546629E+04
       149   4  2.762843E+05  4.529658E+02  3.129653E+03  1.660775E+05 -1.522801E+02  1.279859E+03
       149   5  2.759999E+05  8.455825E+02  3.850079E+03  1.564918E+05 -2.078872E+03  9.067386E+03
       149   6  2.762726E+05  2.431335E+03  6.123317E+03  1.660772E+05 -4.005238E+03  1.546812E+04
       149   7  2.969502E+05  5.217733E+03  6.295238E+03  1.660082E+05  2.020987E+04  1.284286E+03
       149   8  4.161512E+05  3.303594E+04  2.470599E+04  1.572018E+05  1.495514E+04  9.070471E+03
       149   9  5.365029E+05  6.262468E+04  4.698086E+04  1.675663E+05  9.699642E+03  1.547001E+04
       149  10  2.556193E+05 -4.311714E+03 -3.517784E+01  1.661467E+05  1.026809E-10  3.021566E-10
       149  11  1.358686E+05 -3.134573E+04 -1.700595E+04  1.557821E+05  7.635775E-11  1.718296E-10
       149  12  1.610969E+04 -5.776558E+04 -3.473621E+04  1.645890E+05 -3.097745E-10  2.195823E-10
       149  13  2.762843E+05  4.529641E+02  3.129650E+03  1.660775E+05 -2.650460E-10  1.197926E-10
       149  14  2.759999E+05  8.454931E+02  3.849916E+03  1.564918E+05  3.988171E-11  4.548157E-11
       149  15  2.762725E+05  2.431073E+03  6.122837E+03  1.660773E+05  1.984966E-10  6.692788E-12
       149  16  2.969497E+05  5.217622E+03  6.294468E+03  1.660082E+05 -3.751333E-10 -5.135418E-12
       149  17  4.161510E+05  3.303580E+04  2.470541E+04  1.572017E+05  1.805207E-11 -1.615808E-10
       149  18  5.365027E+05  6.262439E+04  4.698024E+04  1.675662E+05  1.306487E-10 -2.960571E-10
       149  19  2.556198E+05 -4.311599E+03 -3.438428E+01  1.661467E+05  2.051378E+04 -1.275428E+03
       149  20  1.358690E+05 -3.134554E+04 -1.700511E+04  1.557820E+05  1.910920E+04 -9.064339E+03
       149  21  1.611009E+04 -5.776524E+04 -3.473517E+04  1.645888E+05  1.770459E+04 -1.546629E+04
       149  22  2.762843E+05  4.529658E+02  3.129653E+03  1.660775E+05  1.522801E+02 -1.279859E+03
       149  23  2.759999E+05  8.455825E+02  3.850079E+03  1.564918E+05  2.078872E+03 -9.067386E+03
       149  24  2.762726E+05  2.431335E+03  6.123317E+03  1.660772E+05  4.005238E+03 -1.546812E+04
       149  25  2.969502E+05  5.217733E+03  6.295238E+03  1.660082E+05 -2.020987E+04 -1.284286E+03
       149  26  4.161512E+05  3.303594E+04  2.470599E+04  1.572018E+05 -1.495514E+04 -9.070471E+03
       149  27  5.365029E+05  6.262468E+04  4.698086E+04  1.675663E+05 -9.699642E+03 -1.547001E+04
       150   1 -5.792190E+04 -7.440249E+04 -4.587652E+04  1.648126E+05 -1.782991E+04  1.912195E+04
       150   2 -1.770911E+05 -9.777412E+04 -6.992259E+04  1.471868E+05  3.553855E+03  1.847883E+04
       150   3 -2.975757E+05 -1.154136E+05 -1.064549E+05  1.478594E+05  2.492968E+04  5.901513E+03
       150   4  2.769497E+05  3.329682E+03  7.948515E+03  1.658825E+05 -5.065929E+03  1.912298E+04
       150   5  2.751101E+05  9.497954E+03  1.424944E+04  1.567339E+05 -1.231771E+04  1.847625E+04
       150   6  2.769107E+05  2.636697E+04  2.794777E+04  1.658817E+05 -1.957329E+04  5.899942E+03
       150   7  6.119331E+05  8.105630E+04  6.177116E+04  1.669530E+05  7.704690E+03  1.912406E+04
       150   8  7.275100E+05  1.167587E+05  9.841377E+04  1.662883E+05 -2.820053E+04  1.847319E+04
       150   9  8.517061E+05  1.681264E+05  1.623356E+05  1.839207E+05 -6.411718E+04  5.895791E+03
       150  10 -5.792234E+04 -7.440297E+04 -4.587781E+04  1.648129E+05  1.554289E-10  2.511095E-10
       150  11 -1.770912E+05 -9.777449E+04 -6.992326E+04  1.471867E+05 -1.729011E-10  1.310675E-10
       150  12 -2.975763E+05 -1.154138E+05 -1.064561E+05  1.478593E+05 -1.862644E-10  6.702574E-11
       150  13  2.769496E+05  3.329282E+03  7.947779E+03  1.658826E+05  4.366516E-10 -3.981494E-11
       150  14  2.751098E+05  9.497547E+03  1.424851E+04  1.567341E+05  4.339241E-10 -5.864582E-11
       150  15  2.769102E+05  2.636683E+04  2.794699E+04  1.658818E+05  4.197961E-10 -6.503495E-11
       150  16  6.119329E+05  8.105589E+04  6.177037E+04  1.669529E+05  4.209784E-10 -2.500296E-10
       150  17  7.275090E+05  1.167582E+05  9.841164E+04  1.662887E+05  3.807145E-10 -1.930201E-10
       150  18  8.517017E+05  1.681253E+05  1.623278E+05  1.839210E+05  2.838041E-10 -1.131646E-10
       150  19 -5.792190E+04 -7.440249E+04 -4.587652E+04  1.648126E+05  1.782991E+04 -1.912195E+04
       150  20 -1.770911E+05 -9.777412E+04 -6.992259E+04  1.471868E+05 -3.553855E+03 -1.847883E+04
       150  21 -2.975757E+05 -1.154136E+05 -1.064549E+05  1.478594E+05 -2.492968E+04 -5.901513E+03
       150  22  2.769497E+05  3.329682E+03  7.948515E+03  1.658825E+05  5.065929E+03 -1.912298E+04
       150  23  2.751101E+05  9.497954E+03  1.424944E+04  1.567339E+05  1.231771E+04 -1.847625E+04
       150  24  2.769107E+05  2.636697E+04  2.794777E+04  1.658817E+05  1.957329E+04 -5.899942E+03
       150  25  6.119331E+05  8.105630E+04  6.177116E+04  1.669530E+05 -7.704690E+03 -1.912406E+04
       150  26  7.275100E+05  1.167587E+05  9.841377E+04  1.662883E+05  2.820053E+04 -1.847319E+04
       150  27  8.517061E+05  1.681264E+05  1.623356E+05  1.839207E+05  6.411718E+04 -5.895791E+03
       151   1 -1.776926E+05 -6.129888E+05 -1.728278E+05  2.652231E+05 -5.402378E+03 -5.925193E+04
       151   2 -1.122253E+05 -4.299486E+05 -9.797825E+04  2.428912E+05 -1.551874E+04 -2.110681E+04
       151   3 -6.287071E+04 -2.558841E+05 -5.201025E+04  2.482221E+05 -1.281119E+04  1.704820E+04
       151   4 -2.638025E+04 -1.160827E+03 -2.819470E+04  2.473524E+05 -5.372914E+03 -1.955425E+04
       151   5 -9.396535E+03  6.951733E+02 -1.451427E+04  2.335134E+05 -1.551096E+04 -1.215604E+04
       151   6 -3.176624E+03 -1.109706E+03 -8.345939E+03  2.473383E+05 -1.282818E+04 -4.759870E+03
       151   7  1.249073E+05  6.110156E+05  1.164186E+05  2.294639E+05 -5.345757E+03  2.018237E+04
       151   8  9.342157E+04  4.315175E+05  6.894135E+04  2.241289E+05 -1.550346E+04 -3.199199E+03
       151   9  5.651426E+04  2.537296E+05  3.531798E+04  2.464541E+05 -1.284510E+04 -2.657662E+04
       151  10 -1.776936E+05 -6.129926E+05 -1.728344E+05  2.652228E+05 -1.983474E-10 -4.330783E-10
       151  11 -1.122257E+05 -4.299491E+05 -9.797954E+04  2.428910E+05 -2.077473E-10  6.247862E-10
       151  12 -6.287097E+04 -2.558845E+05 -5.201110E+04  2.482223E+05  1.749280E-10  1.270571E-09
       151  13 -2.638038E+04 -1.161245E+03 -2.819547E+04  2.473523E+05 -6.226340E-10 -3.248817E-10
       151  14 -9.396833E+03  6.949501E+02 -1.451500E+04  2.335133E+05 -3.669548E-11 -1.999219E-10
       151  15 -3.176807E+03 -1.109774E+03 -8.346291E+03  2.473383E+05 -3.740047E-11 -2.687564E-10
       151  16  1.249072E+05  6.110151E+05  1.164177E+05  2.294640E+05 -6.522000E-11  4.255958E-10
       151  17  9.342131E+04  4.315174E+05  6.894088E+04  2.241288E+05 -5.137479E-10 -8.388277E-10
       151  18  5.651389E+04  2.537287E+05  3.531634E+04  2.464538E+05 -3.446817E-11 -1.243180E-09
       151  19 -1.776926E+05 -6.129888E+05 -1.728278E+05  2.652231E+05  5.402378E+03  5.925193E+04
       151  20 -1.122253E+05 -4.299486E+05 -9.797825E+04  2.428912E+05  1.551874E+04  2.110681E+04
       151  21 -6.287071E+04 -2.558841E+05 -5.201025E+04  2.482221E+05  1.281119E+04 -1.704820E+04
       151  22 -2.638025E+04 -1.160827E+03 -2.819470E+04  2.473524E+05  5.372914E+03  1.955425E+04
       151  23 -9.396535E+03  6.951733E+02 -1.451427E+04  2.335134E+05  1.551096E+04  1.215604E+04
       151  24 -3.176624E+03 -1.109706E+03 -8.345939E+03  2.473383E+05  1.282818E+04  4.759870E+03
       151  25  1.249073E+05  6.110156E+05  1.164186E+05  2.294639E+05  5.345757E+03 -2.018237E+04
       151  26  9.342157E+04  4.315175E+05  6.894135E+04  2.241289E+05  1.550346E+04  3.199199E+03
       151  27  5.651426E+04  2.537296E+05  3.531798E+04  2.464541E+05  1.284510E+04  2.657662E+04
       152   1 -3.604906E+04 -1.440910E+05 -3.180766E+04  2.489104E+05 -6.861950E+03  1.905781E+04
       152   2  6.949247E+03  3.475425E+04  4.526390E+01  2.335904E+05  2.503929E+03  2.100722E+04
       152   3  4.834858E+04  2.129563E+05  3.022064E+04  2.467676E+05  1.168550E+04  2.295739E+04
       152   4 -2.288775E+03 -4.551004E+02 -6.642418E+03  2.475239E+05 -6.880341E+03 -3.636055E+03
       152   5 -9.828514E+02 -8.160027E+01 -4.778157E+03  2.332748E+05  2.486160E+03 -1.247057E+03
       152   6 -1.351014E+03 -4.593302E+02 -4.897499E+03  2.475233E+05  1.166833E+04  1.142180E+03
       152   7  3.147067E+04  1.432021E+05  1.852402E+04  2.461371E+05 -6.898628E+03 -2.633501E+04
       152   8 -8.914737E+03 -3.491516E+04 -9.599730E+03  2.329592E+05  2.468413E+03 -2.350014E+04
       152   9 -5.105269E+04 -2.138289E+05 -4.001518E+04  2.482788E+05  1.165110E+04 -2.066578E+04
       152  10 -3.604921E+04 -1.440914E+05 -3.180843E+04  2.489105E+05  2.152957E-10 -3.504991E-10
       152  11  6.949122E+03  3.475378E+04  4.442297E+01  2.335903E+05 -1.506563E-10  5.910530E-10
       152  12  4.834829E+04  2.129557E+05  3.021940E+04  2.467673E+05  1.762404E-10  8.661637E-10
       152  13 -2.288830E+03 -4.551273E+02 -6.642531E+03  2.475239E+05  4.306623E-10 -4.670278E-10
       152  14 -9.828585E+02 -8.160361E+01 -4.778171E+03  2.332748E+05  2.785930E-10 -2.255554E-10
       152  15 -1.351161E+03 -4.593682E+02 -4.897758E+03  2.475233E+05  2.295428E-10 -2.305604E-10
       152  16  3.147043E+04  1.432014E+05  1.852263E+04  2.461370E+05  1.097504E-10  3.819256E-10
       152  17 -8.914892E+03 -3.491575E+04 -9.600780E+03  2.329593E+05  4.043092E-12 -5.823897E-10
       152  18 -5.105295E+04 -2.138294E+05 -4.001624E+04  2.482790E+05  8.233415E-11 -8.006908E-10
       152  19 -3.604906E+04 -1.440910E+05 -3.180766E+04  2.489104E+05  6.861950E+03 -1.905781E+04
       152  20  6.949247E+03  3.475425E+04  4.526390E+01  2.335904E+05 -2.503929E+03 -2.100722E+04
       152  21  4.834858E+04  2.129563E+05  3.022064E+04  2.467676E+05 -1.168550E+04 -2.295739E+04
       152  22 -2.288775E+03 -4.551004E+02 -6.642418E+03  2.475239E+05  6.880341E+03  3.636055E+03
       152  23 -9.828514E+02 -8.160027E+01 -4.778157E+03  2.332748E+05 -2.486160E+03  1.247057E+03
       152  24 -1.351014E+03 -4.593302E+02 -4.897499E+03  2.475233E+05 -1.166833E+04 -1.142180E+03
       152  25  3.147067E+04  1.432021E+05  1.852402E+04  2.461371E+05  6.898628E+03  2.633501E+04
       152  26 -8.914737E+03 -3.491516E+04 -9.599730E+03  2.329592E+05 -2.468413E+03  2.350014E+04
       152  27 -5.105269E+04 -2.138289E+05 -4.001518E+04  2.482788E+05 -1.165110E+04  2.066578E+04
       153   1  7.389244E+04  3.239162E+05  4.836584E+04  2.469093E+05  1.744510E+04  2.274919E+04
       153   2  1.138223E+05  5.006566E+05  8.674932E+04  2.282969E+05  1.898590E+04 -6.956463E+03
       153   3  1.534995E+05  6.812260E+05  1.443971E+05  2.372291E+05  6.324080E+03 -3.666849E+04
       153   4 -1.817260E+03 -7.738830E+02 -5.561704E+03  2.473120E+05  1.742962E+04  1.939856E+03
       153   5 -5.297140E+03  2.553828E+02 -8.639606E+03  2.335423E+05  1.899656E+04  6.342375E+03
       153   6 -1.494790E+04 -8.331781E+02 -1.613131E+04  2.473198E+05  6.355093E+03  1.074672E+04
       153   7 -7.753220E+04 -3.253589E+05 -5.949081E+04  2.477145E+05  1.741411E+04 -1.885896E+04
       153   8 -1.244311E+05 -4.999042E+05 -1.040392E+05  2.387832E+05  1.900744E+04  1.963075E+04
       153   9 -1.834270E+05 -6.824596E+05 -1.766832E+05  2.573993E+05  6.387671E+03  5.811017E+04
       153  10  7.389198E+04  3.239156E+05  4.836430E+04  2.469090E+05  9.900781E-11 -7.453533E-10
       153  11  1.138219E+05  5.006564E+05  8.674856E+04  2.282970E+05 -2.347906E-10  7.263150E-11
       153  12  1.534991E+05  6.812246E+05  1.443945E+05  2.372293E+05 -1.311992E-10  5.004434E-10
       153  13 -1.817587E+03 -7.739686E+02 -5.562282E+03  2.473120E+05 -3.032042E-10 -3.846915E-10
       153  14 -5.297538E+03  2.552428E+02 -8.640360E+03  2.335422E+05 -2.340022E-10 -1.603705E-10
       153  15 -1.494798E+04 -8.333129E+02 -1.613161E+04  2.473198E+05 -1.153373E-10 -1.532362E-10
       153  16 -7.753262E+04 -3.253594E+05 -5.949205E+04  2.477147E+05  1.700658E-10  7.253216E-10
       153  17 -1.244316E+05 -4.999047E+05 -1.040406E+05  2.387829E+05 -3.762527E-10 -3.945711E-11
       153  18 -1.834279E+05 -6.824632E+05 -1.766896E+05  2.573990E+05  3.851858E-11 -4.954626E-10
       153  19  7.389244E+04  3.239162E+05  4.836584E+04  2.469093E+05 -1.744510E+04 -2.274919E+04
       153  20  1.138223E+05  5.006566E+05  8.674932E+04  2.282969E+05 -1.898590E+04  6.956463E+03
       153  21  1.534995E+05  6.812260E+05  1.443971E+05  2.372291E+05 -6.324080E+03  3.666849E+04
       153  22 -1.817260E+03 -7.738830E+02 -5.561704E+03  2.473120E+05 -1.742962E+04 -1.939856E+03
       153  23 -5.297140E+03  2.553828E+02 -8.639606E+03  2.335423E+05 -1.899656E+04 -6.342375E+03
       153  24 -1.494790E+04 -8.331781E+02 -1.613131E+04  2.473198E+05 -6.355093E+03 -1.074672E+04
       153  25 -7.753220E+04 -3.253589E+05 -5.949081E+04  2.477145E+05 -1.741411E+04  1.885896E+04
       153  26 -1.244311E+05 -4.999042E+05 -1.040392E+05  2.387832E+05 -1.900744E+04 -1.963075E+04
       153  27 -1.834270E+05 -6.824596E+05 -1.766832E+05  2.573993E+05 -6.387671E+03 -5.811017E+04
       154   1  8.004885E+05  1.552389E+05  1.500859E+05  1.603593E+05  6.141812E+04 -5.432150E+03
       154   2  6.939574E+05  1.079383E+05  9.137497E+04  1.437751E+05  2.811540E+04 -1.717756E+04
       154   3  5.956728E+05  7.619269E+04  5.821647E+04  1.427724E+05 -5.177361E+03 -1.819157E+04
       154   4  2.817470E+05  2.733577E+04  2.897071E+04  1.416763E+05  2.030728E+04 -5.434388E+03
       154   5  2.798791E+05  9.846006E+03  1.475727E+04  1.338861E+05  1.279215E+04 -1.717973E+04
       154   6  2.817784E+05  3.443906E+03  8.206850E+03  1.416764E+05  5.280475E+03 -1.819130E+04
       154   7 -2.367423E+05 -1.005842E+05 -9.215618E+04  1.230089E+05 -2.076948E+04 -5.434159E+03
       154   8 -1.340325E+05 -8.825556E+04 -6.186666E+04  1.240039E+05 -2.521156E+03 -1.718141E+04
       154   9 -3.201790E+04 -6.930973E+04 -4.180491E+04  1.405810E+05  1.573322E+04 -1.819107E+04
       154  10  8.004844E+05  1.552378E+05  1.500787E+05  1.603595E+05 -3.030380E-10  2.478635E-11
       154  11  6.939565E+05  1.079377E+05  9.137293E+04  1.437755E+05  1.951523E-10  8.759729E-11
       154  12  5.956727E+05  7.619232E+04  5.821580E+04  1.427723E+05 -1.964137E-10  2.691956E-10
       154  13  2.817465E+05  2.733563E+04  2.896988E+04  1.416764E+05  2.900433E-11  1.608890E-10
       154  14  2.798788E+05  9.845645E+03  1.475641E+04  1.338863E+05  1.460938E-10  2.104280E-10
       154  15  2.817783E+05  3.443543E+03  8.206176E+03  1.416765E+05  7.591580E-10  1.975182E-10
       154  16 -2.367428E+05 -1.005843E+05 -9.215704E+04  1.230088E+05  2.070913E-10  4.281946E-11
       154  17 -1.340326E+05 -8.825587E+04 -6.186723E+04  1.240039E+05  2.686961E-10  2.103705E-10
       154  18 -3.201825E+04 -6.931015E+04 -4.180599E+04  1.405812E+05  3.256235E-10  1.477935E-10
       154  19  8.004885E+05  1.552389E+05  1.500859E+05  1.603593E+05 -6.141812E+04  5.432150E+03
       154  20  6.939574E+05  1.079383E+05  9.137497E+04  1.437751E+05 -2.811540E+04  1.717756E+04
       154  21  5.956728E+05  7.619269E+04  5.821647E+04  1.427724E+05  5.177361E+03  1.819157E+04
       154  22  2.817470E+05  2.733577E+04  2.897071E+04  1.416763E+05 -2.030728E+04  5.434388E+03
       154  23  2.798791E+05  9.846006E+03  1.475727E+04  1.338861E+05 -1.279215E+04  1.717973E+04
       154  24  2.817784E+05  3.443906E+03  8.206850E+03  1.416764E+05 -5.280475E+03  1.819130E+04
       154  25 -2.367423E+05 -1.005842E+05 -9.215618E+04  1.230089E+05  2.076948E+04  5.434159E+03
       154  26 -1.340325E+05 -8.825556E+04 -6.186666E+04  1.240039E+05  2.521156E+03  1.718141E+04
       154  27 -3.201790E+04 -6.930973E+04 -4.180491E+04  1.405810E+05 -1.573322E+04  1.819107E+04
       155   1  5.310760E+05  6.024550E+04  4.509629E+04  1.433830E+05 -7.112026E+03 -1.515449E+04
       155   2  4.282124E+05  3.463383E+04  2.541631E+04  1.343985E+05 -1.211272E+04 -9.815392E+03
       155   3  3.264535E+05  1.077389E+04  9.429178E+03  1.417848E+05 -1.711295E+04 -3.208690E+03
       155   4  2.810739E+05  2.509799E+03  6.302964E+03  1.418524E+05  4.188231E+03 -1.515359E+04
       155   5  2.807952E+05  8.613316E+02  3.910925E+03  1.336670E+05  2.231435E+03 -9.813574E+03
       155   6  2.810845E+05  4.374752E+02  3.099569E+03  1.418525E+05  2.743726E+02 -3.205803E+03
       155   7  3.113449E+04 -5.522888E+04 -3.249133E+04  1.403224E+05  1.548411E+04 -1.515275E+04
       155   8  1.334004E+05 -3.291206E+04 -1.759406E+04  1.329357E+05  1.657232E+04 -9.811788E+03
       155   9  2.357183E+05 -9.898871E+03 -3.228931E+03  1.419203E+05  1.766048E+04 -3.202912E+03
       155  10  5.310758E+05  6.024524E+04  4.509576E+04  1.433829E+05 -9.444052E-11  2.562651E-10
       155  11  4.282122E+05  3.463369E+04  2.541586E+04  1.343984E+05  3.451923E-10  4.944735E-11
       155  12  3.264532E+05  1.077380E+04  9.428609E+03  1.417847E+05  1.943679E-10 -1.646831E-10
       155  13  2.810738E+05  2.509548E+03  6.302499E+03  1.418524E+05  3.746436E-10  2.237674E-10
       155  14  2.807952E+05  8.612268E+02  3.910735E+03  1.336670E+05  2.707765E-10  1.406917E-10
       155  15  2.810845E+05  4.374641E+02  3.099549E+03  1.418525E+05 -4.103903E-10 -1.304130E-10
       155  16  3.113417E+04 -5.522919E+04 -3.249221E+04  1.403226E+05  1.896193E-10  1.289238E-10
       155  17  1.334001E+05 -3.291223E+04 -1.759475E+04  1.329358E+05 -6.860004E-11  1.472016E-10
       155  18  2.357180E+05 -9.898966E+03 -3.229536E+03  1.419204E+05 -3.982221E-10 -2.842899E-11
       155  19  5.310760E+05  6.024550E+04  4.509629E+04  1.433830E+05  7.112026E+03  1.515449E+04
       155  20  4.282124E+05  3.463383E+04  2.541631E+04  1.343985E+05  1.211272E+04  9.815392E+03
       155  21  3.264535E+05  1.077389E+04  9.429178E+03  1.417848E+05  1.711295E+04  3.208690E+03
       155  22  2.810739E+05  2.509799E+03  6.302964E+03  1.418524E+05 -4.188231E+03  1.515359E+04
       155  23  2.807952E+05  8.613316E+02  3.910925E+03  1.336670E+05 -2.231435E+03  9.813574E+03
       155  24  2.810845E+05  4.374752E+02  3.099569E+03  1.418525E+05 -2.743726E+02  3.205803E+03
       155  25  3.113449E+04 -5.522888E+04 -3.249133E+04  1.403224E+05 -1.548411E+04  1.515275E+04
       155  26  1.334004E+05 -3.291206E+04 -1.759406E+04  1.329357E+05 -1.657232E+04  9.811788E+03
       155  27  2.357183E+05 -9.898871E+03 -3.228931E+03  1.419203E+05 -1.766048E+04  3.202912E+03
       156   1  2.631677E+05 -3.692483E+03  3.571333E+02  1.419228E+05 -1.763794E+04  1.110497E+03
       156   2  1.608351E+05 -2.670210E+04 -1.396670E+04  1.329431E+05 -1.673362E+04  7.762911E+03
       156   3  5.858195E+04 -4.899325E+04 -2.869797E+04  1.403396E+05 -1.582927E+04  1.322987E+04
       156   4  2.810837E+05  4.371238E+02  3.094413E+03  1.418536E+05 -2.457411E+02  1.113428E+03
       156   5  2.807980E+05  8.546535E+02  3.882634E+03  1.336657E+05 -2.188624E+03  7.764876E+03
       156   6  2.810749E+05  2.484946E+03  6.239224E+03  1.418535E+05 -4.131340E+03  1.323099E+04
       156   7  2.990006E+05  4.566877E+03  5.832822E+03  1.417844E+05  1.714694E+04  1.116355E+03
       156   8  4.007758E+05  2.841084E+04  2.173249E+04  1.343883E+05  1.235907E+04  7.766874E+03
       156   9  5.036176E+05  5.396078E+04  4.117573E+04  1.433679E+05  7.570629E+03  1.323217E+04
       156  10  2.631674E+05 -3.692568E+03  3.565466E+02  1.419229E+05 -2.995110E-10 -1.289519E-10
       156  11  1.608348E+05 -2.670224E+04 -1.396734E+04  1.329433E+05 -1.478518E-10 -1.374420E-10
       156  12  5.858163E+04 -4.899351E+04 -2.869877E+04  1.403398E+05 -8.045223E-11 -1.249305E-10
       156  13  2.810837E+05  4.371224E+02  3.094411E+03  1.418536E+05 -1.472878E-10 -1.704991E-10
       156  14  2.807980E+05  8.545874E+02  3.882512E+03  1.336657E+05 -4.314252E-10 -1.270528E-10
       156  15  2.810749E+05  2.484753E+03  6.238863E+03  1.418535E+05 -2.978089E-10 -1.583107E-10
       156  16  2.990002E+05  4.566797E+03  5.832268E+03  1.417844E+05  1.011642E-10 -1.446752E-10
       156  17  4.007756E+05  2.841074E+04  2.173209E+04  1.343882E+05  8.400030E-11 -1.794417E-10
       156  18  5.036175E+05  5.396058E+04  4.117529E+04  1.433678E+05 -1.280892E-11 -1.761496E-10
       156  19  2.631677E+05 -3.692483E+03  3.571333E+02  1.419228E+05  1.763794E+04 -1.110497E+03
       156  20  1.608351E+05 -2.670210E+04 -1.396670E+04  1.329431E+05  1.673362E+04 -7.762911E+03
       156  21  5.858195E+04 -4.899325E+04 -2.869797E+04  1.403396E+05  1.582927E+04 -1.322987E+04
       156  22  2.810837E+05  4.371238E+02  3.094413E+03  1.418536E+05  2.457411E+02 -1.113428E+03
       156  23  2.807980E+05  8.546535E+02  3.882634E+03  1.336657E+05  2.188624E+03 -7.764876E+03
       156  24  2.810749E+05  2.484946E+03  6.239224E+03  1.418535E+05  4.131340E+03 -1.323099E+04
       156  25  2.990006E+05  4.566877E+03  5.832822E+03  1.417844E+05 -1.714694E+04 -1.116355E+03
       156  26  4.007758E+05  2.841084E+04  2.173249E+04  1.343883E+05 -1.235907E+04 -7.766874E+03
       156  27  5.036176E+05  5.396078E+04  4.117573E+04  1.433679E+05 -7.570629E+03 -1.323217E+04
       157   1 -4.539318E+03 -6.304783E+04 -3.789575E+04  1.406021E+05 -1.611093E+04  1.635150E+04
       157   2 -1.066397E+05 -8.195204E+04 -5.735279E+04  1.241008E+05  9.358615E+02  1.579700E+04
       157   3 -2.092528E+05 -9.414361E+04 -8.622680E+04  1.232304E+05  1.797667E+04  5.044099E+03
       157   4  2.817713E+05  3.408931E+03  8.118344E+03  1.416872E+05 -5.212246E+03  1.635205E+04
       157   5  2.798954E+05  9.737234E+03  1.458911E+04  1.338725E+05 -1.263885E+04  1.579533E+04
       157   6  2.817417E+05  2.702356E+04  2.863489E+04  1.416869E+05 -2.006830E+04  5.043626E+03
       157   7  5.681635E+05  6.986163E+04  5.413069E+04  1.427729E+05  5.691282E+03  1.635265E+04
       157   8  6.665757E+05  1.014184E+05  8.652540E+04  1.436505E+05 -2.622179E+04  1.579324E+04
       157   9  7.729623E+05  1.481757E+05  1.434858E+05  1.601580E+05 -5.814317E+04  5.040893E+03
       157  10 -4.539669E+03 -6.304819E+04 -3.789674E+04  1.406023E+05  4.011664E-11 -1.481074E-10
       157  11 -1.066398E+05 -8.195231E+04 -5.735326E+04  1.241008E+05 -9.572454E-11 -1.633601E-10
       157  12 -2.092531E+05 -9.414373E+04 -8.622745E+04  1.232304E+05 -2.910714E-10 -1.100716E-10
       157  13  2.817712E+05  3.408637E+03  8.117790E+03  1.416873E+05 -3.250065E-10 -1.858918E-10
       157  14  2.798951E+05  9.736923E+03  1.458834E+04  1.338727E+05 -1.567030E-10 -1.720146E-10
       157  15  2.817413E+05  2.702343E+04  2.863408E+04  1.416870E+05 -2.374357E-12 -2.010804E-11
       157  16  5.681634E+05  6.986134E+04  5.413013E+04  1.427728E+05 -5.313687E-11 -1.967409E-10
       157  17  6.665749E+05  1.014179E+05  8.652364E+04  1.436508E+05  2.560432E-10 -1.716469E-10
       157  18  7.729586E+05  1.481748E+05  1.434794E+05  1.601583E+05  3.394717E-10 -1.167143E-10
       157  19 -4.539318E+03 -6.304783E+04 -3.789575E+04  1.406021E+05  1.611093E+04 -1.635150E+04
       157  20 -1.066397E+05 -8.195204E+04 -5.735279E+04  1.241008E+05 -9.358615E+02 -1.579700E+04
       157  21 -2.092528E+05 -9.414361E+04 -8.622680E+04  1.232304E+05 -1.797667E+04 -5.044099E+03
       157  22  2.817713E+05  3.408931E+03  8.118344E+03  1.416872E+05  5.212246E+03 -1.635205E+04
       157  23  2.798954E+05  9.737234E+03  1.458911E+04  1.338725E+05  1.263885E+04 -1.579533E+04
       157  24  2.817417E+05  2.702356E+04  2.863489E+04  1.416869E+05  2.006830E+04 -5.043626E+03
       157  25  5.681635E+05  6.986163E+04  5.413069E+04  1.427729E+05 -5.691282E+03 -1.635265E+04
       157  26  6.665757E+05  1.014184E+05  8.652540E+04  1.436505E+05  2.622179E+04 -1.579324E+04
       157  27  7.729623E+05  1.481757E+05  1.434858E+05  1.601580E+05  5.814317E+04 -5.040893E+03
       158   1 -1.620578E+05 -5.355207E+05 -1.574455E+05  2.291006E+05 -5.064524E+03 -5.571575E+04
       158   2 -1.041672E+05 -3.781172E+05 -9.039935E+04  2.092805E+05 -1.483347E+04 -2.095504E+04
       158   3 -6.120169E+04 -2.289571E+05 -4.972978E+04  2.131564E+05 -1.299327E+04  1.381337E+04
       158   4 -2.473953E+04  1.995270E+04 -2.639690E+04  2.123322E+05 -5.039914E+03 -1.831627E+04
       158   5 -8.838578E+03  2.168653E+04 -1.358366E+04  2.004778E+05 -1.482615E+04 -1.139273E+04
       158   6 -3.020998E+03  1.999320E+04 -7.801826E+03  2.123204E+05 -1.300582E+04 -4.470946E+03
       158   7  1.125585E+05  5.757136E+05  1.046359E+05  1.955487E+05 -5.017341E+03  1.911652E+04
       158   8  8.648097E+04  4.216445E+05  6.322506E+04  1.916693E+05 -1.481911E+04 -1.824399E+03
       158   9  5.515661E+04  2.690053E+05  3.412543E+04  2.114840E+05 -1.301831E+04 -2.276236E+04
       158  10 -1.620587E+05 -5.355240E+05 -1.574514E+05  2.291004E+05 -1.920283E-10  2.146836E-10
       158  11 -1.041676E+05 -3.781177E+05 -9.040059E+04  2.092802E+05  5.712338E-10  4.281694E-10
       158  12 -6.120192E+04 -2.289574E+05 -4.973046E+04  2.131565E+05  2.880268E-10 -1.386429E-10
       158  13 -2.473965E+04  1.995233E+04 -2.639758E+04  2.123322E+05 -3.890304E-10 -5.046758E-12
       158  14 -8.838849E+03  2.168633E+04 -1.358432E+04  2.004777E+05 -7.220152E-11  1.612848E-11
       158  15 -3.021185E+03  1.999313E+04 -7.802182E+03  2.123203E+05  2.169594E-10  1.130958E-10
       158  16  1.125584E+05  5.757132E+05  1.046351E+05  1.955488E+05 -2.538701E-10 -7.815555E-11
       158  17  8.648074E+04  4.216444E+05  6.322465E+04  1.916692E+05 -6.941093E-10 -2.984661E-10
       158  18  5.515629E+04  2.690047E+05  3.412413E+04  2.114838E+05  1.423640E-13 -3.448035E-10
       158  19 -1.620578E+05 -5.355207E+05 -1.574455E+05  2.291006E+05  5.064524E+03  5.571575E+04
       158  20 -1.041672E+05 -3.781172E+05 -9.039935E+04  2.092805E+05  1.483347E+04  2.095504E+04
       158  21 -6.120169E+04 -2.289571E+05 -4.972978E+04  2.131564E+05  1.299327E+04 -1.381337E+04
       158  22 -2.473953E+04  1.995270E+04 -2.639690E+04  2.123322E+05  5.039914E+03  1.831627E+04
       158  23 -8.838578E+03  2.168653E+04 -1.358366E+04  2.004778E+05  1.482615E+04  1.139273E+04
       158  24 -3.020998E+03  1.999320E+04 -7.801826E+03  2.123204E+05  1.300582E+04  4.470946E+03
       158  25  1.125585E+05  5.757136E+05  1.046359E+05  1.955487E+05  5.017341E+03 -1.911652E+04
       158  26  8.648097E+04  4.216445E+05  6.322506E+04  1.916693E+05  1.481911E+04  1.824399E+03
       158  27  5.515661E+04  2.690053E+05  3.412543E+04  2.114840E+05  1.301831E+04  2.276236E+04
       159   1 -3.807416E+04 -1.329029E+05 -3.211452E+04  2.137864E+05 -7.967164E+03  1.567772E+04
       159   2 -1.016116E+03  2.068025E+04 -4.476423E+03  2.005467E+05 -6.870044E+00  1.790341E+04
       159   3  3.448067E+04  1.735889E+05  2.131542E+04  2.117694E+05  7.954834E+03  2.012960E+04
       159   4 -2.189541E+03  2.060689E+04 -6.201480E+03  2.124908E+05 -7.980894E+03 -3.420051E+03
       159   5 -9.539766E+02  2.095533E+04 -4.439021E+03  2.002591E+05 -2.056890E+01 -1.199639E+03
       159   6 -1.277804E+03  2.060690E+04 -4.519629E+03  2.124902E+05  7.941155E+03  1.020773E+03
       159   7  3.369404E+04  1.741407E+05  1.971218E+04  2.111948E+05 -7.994541E+03 -2.252239E+04
       159   8 -8.916404E+02  2.123120E+04 -4.400247E+03  1.999716E+05 -3.425006E+01 -2.030269E+04
       159   9 -3.703732E+04 -1.323513E+05 -3.035405E+04  2.132109E+05  7.927429E+03 -1.808350E+04
       159  10 -3.807430E+04 -1.329032E+05 -3.211510E+04  2.137865E+05  5.882610E-11 -8.100004E-10
       159  11 -1.016202E+03  2.067991E+04 -4.477025E+03  2.005467E+05 -6.841128E-11  2.353699E-10
       159  12  3.448050E+04  1.735885E+05  2.131454E+04  2.117693E+05  5.973205E-11  2.912517E-10
       159  13 -2.189612E+03  2.060686E+04 -6.201621E+03  2.124908E+05 -2.185383E-10 -2.357567E-12
       159  14 -9.539770E+02  2.095533E+04 -4.439023E+03  2.002591E+05 -5.377070E-10 -1.308279E-11
       159  15 -1.277872E+03  2.060689E+04 -4.519750E+03  2.124902E+05  2.189345E-10  8.901270E-11
       159  16  3.369384E+04  1.741401E+05  1.971111E+04  2.111947E+05  5.831812E-11  9.114473E-10
       159  17 -8.917511E+02  2.123075E+04 -4.401022E+03  1.999716E+05  7.574381E-11  9.448348E-11
       159  18 -3.703747E+04 -1.323516E+05 -3.035479E+04  2.132110E+05 -2.520957E-10 -8.588618E-10
       159  19 -3.807416E+04 -1.329029E+05 -3.211452E+04  2.137864E+05  7.967164E+03 -1.567772E+04
       159  20 -1.016116E+03  2.068025E+04 -4.476423E+03  2.005467E+05  6.870044E+00 -1.790341E+04
       159  21  3.448067E+04  1.735889E+05  2.131542E+04  2.117694E+05 -7.954834E+03 -2.012960E+04
       159  22 -2.189541E+03  2.060689E+04 -6.201480E+03  2.124908E+05  7.980894E+03  3.420051E+03
       159  23 -9.539766E+02  2.095533E+04 -4.439021E+03  2.002591E+05  2.056890E+01  1.199639E+03
       159  24 -1.277804E+03  2.060690E+04 -4.519629E+03  2.124902E+05 -7.941155E+03 -1.020773E+03
       159  25  3.369404E+04  1.741407E+05  1.971218E+04  2.111948E+05  7.994541E+03  2.252239E+04
       159  26 -8.916404E+02  2.123120E+04 -4.400247E+03  1.999716E+05  3.425006E+01  2.030269E+04
       159  27 -3.703732E+04 -1.323513E+05 -3.035405E+04  2.132109E+05 -7.927429E+03  1.808350E+04
       160   1  5.635276E+04  2.687820E+05  3.672756E+04  2.119175E+05  1.297981E+04  2.005570E+04
       160   2  9.032526E+04  4.206791E+05  6.879330E+04  1.956302E+05  1.478774E+04 -3.744241E+03
       160   3  1.234667E+05  5.754815E+05  1.161365E+05  2.030383E+05  5.004246E+03 -2.754792E+04
       160   4 -1.698838E+03  2.032244E+04 -5.118603E+03  2.123201E+05  1.296728E+04  1.757311E+03
       160   5 -4.870230E+03  2.127501E+04 -7.921125E+03  2.004746E+05  1.479470E+04  5.791341E+03
       160   6 -1.370271E+04  2.028192E+04 -1.476962E+04  2.123266E+05  5.026893E+03  9.827177E+03
       160   7 -5.975350E+04 -2.280756E+05 -4.696546E+04  2.127224E+05  1.295473E+04 -1.653400E+04
       160   8 -1.000750E+05 -3.779754E+05 -8.464253E+04  2.053158E+05  1.480181E+04  1.532093E+04
       160   9 -1.508931E+05 -5.346311E+05 -1.456917E+05  2.216065E+05  5.050672E+03  4.716906E+04
       160  10  5.635247E+04  2.687815E+05  3.672648E+04  2.119173E+05 -8.781356E-11 -4.811491E-10
       160  11  9.032502E+04  4.206790E+05  6.879286E+04  1.956303E+05 -4.661297E-10  1.769118E-10
       160  12  1.234665E+05  5.754807E+05  1.161351E+05  2.030384E+05  5.880103E-12  2.431109E-10
       160  13 -1.699020E+03  2.032239E+04 -5.118925E+03  2.123201E+05 -1.580505E-10 -1.950749E-11
       160  14 -4.870474E+03  2.127491E+04 -7.921599E+03  2.004745E+05 -2.049090E-10 -8.138941E-12
       160  15 -1.370277E+04  2.028181E+04 -1.476985E+04  2.123266E+05 -2.063895E-10  8.334468E-11
       160  16 -5.975375E+04 -2.280759E+05 -4.696629E+04  2.127226E+05 -8.998376E-11  5.615221E-10
       160  17 -1.000753E+05 -3.779757E+05 -8.464338E+04  2.053156E+05 -3.015409E-10  1.233834E-10
       160  18 -1.508937E+05 -5.346335E+05 -1.456960E+05  2.216063E+05 -4.574202E-11 -6.491693E-10
       160  19  5.635276E+04  2.687820E+05  3.672756E+04  2.119175E+05 -1.297981E+04 -2.005570E+04
       160  20  9.032526E+04  4.206791E+05  6.879330E+04  1.956302E+05 -1.478774E+04  3.744241E+03
       160  21  1.234667E+05  5.754815E+05  1.161365E+05  2.030383E+05 -5.004246E+03  2.754792E+04
       160  22 -1.698838E+03  2.032244E+04 -5.118603E+03  2.123201E+05 -1.296728E+04 -1.757311E+03
       160  23 -4.870230E+03  2.127501E+04 -7.921125E+03  2.004746E+05 -1.479470E+04 -5.791341E+03
       160  24 -1.370271E+04  2.028192E+04 -1.476962E+04  2.123266E+05 -5.026893E+03 -9.827177E+03
       160  25 -5.975350E+04 -2.280756E+05 -4.696546E+04  2.127224E+05 -1.295473E+04  1.653400E+04
       160  26 -1.000750E+05 -3.779754E+05 -8.464253E+04  2.053158E+05 -1.480181E+04 -1.532093E+04
       160  27 -1.508931E+05 -5.346311E+05 -1.456917E+05  2.216065E+05 -5.050672E+03 -4.716906E+04
       161   1  7.991351E+05  1.523019E+05  1.481839E+05  1.443186E+05  6.542559E+04 -5.033557E+03
       161   2  7.083649E+05  1.033552E+05  8.979072E+04  1.259949E+05  3.212095E+04 -1.609267E+04
       161   3  6.266634E+05  7.328657E+04  5.778212E+04  1.207403E+05 -1.176102E+03 -1.748169E+04
       161   4  3.299567E+05  3.666113E+04  3.883152E+04  1.192804E+05  2.723645E+04 -5.035778E+03
       161   5  3.274514E+05  1.321397E+04  1.976733E+04  1.127463E+05  1.716895E+04 -1.609459E+04
       161   6  3.299837E+05  4.620939E+03  1.096904E+04  1.192802E+05  7.104076E+03 -1.748181E+04
       161   7 -1.390144E+05 -7.899201E+04 -7.052995E+04  9.426125E+04 -1.092407E+04 -5.034924E+03
       161   8 -5.332054E+04 -7.693471E+04 -5.026109E+04  9.950605E+04  2.225866E+03 -1.609587E+04
       161   9  3.339181E+04 -6.404900E+04 -3.584597E+04  1.178208E+05  1.538045E+04 -1.748198E+04
       161  10  7.991305E+05  1.523007E+05  1.481758E+05  1.443189E+05 -1.935487E-10  9.351170E-11
       161  11  7.083638E+05  1.033546E+05  8.978829E+04  1.259953E+05  4.244140E-10  8.308487E-11
       161  12  6.266633E+05  7.328624E+04  5.778154E+04  1.207403E+05  1.286665E-10  2.925078E-10
       161  13  3.299559E+05  3.666091E+04  3.883008E+04  1.192805E+05  1.117226E-10 -9.010501E-11
       161  14  3.274511E+05  1.321361E+04  1.976629E+04  1.127465E+05  3.630844E-10  5.929257E-11
       161  15  3.299836E+05  4.620597E+03  1.096837E+04  1.192803E+05  1.917953E-10  2.031905E-10
       161  16 -1.390145E+05 -7.899207E+04 -7.053022E+04  9.426120E+04 -7.528337E-11 -1.182158E-10
       161  17 -5.332061E+04 -7.693499E+04 -5.026158E+04  9.950607E+04  1.287183E-10 -8.428626E-12
       161  18  3.339147E+04 -6.404939E+04 -3.584699E+04  1.178211E+05  6.736778E-11  7.867063E-11
       161  19  7.991351E+05  1.523019E+05  1.481839E+05  1.443186E+05 -6.542559E+04  5.033557E+03
       161  20  7.083649E+05  1.033552E+05  8.979072E+04  1.259949E+05 -3.212095E+04  1.609267E+04
       161  21  6.266634E+05  7.328657E+04  5.778212E+04  1.207403E+05  1.176102E+03  1.748169E+04
       161  22  3.299567E+05  3.666113E+04  3.883152E+04  1.192804E+05 -2.723645E+04  5.035778E+03
       161  23  3.274514E+05  1.321397E+04  1.976733E+04  1.127463E+05 -1.716895E+04  1.609459E+04
       161  24  3.299837E+05  4.620939E+03  1.096904E+04  1.192802E+05 -7.104076E+03  1.748181E+04
       161  25 -1.390144E+05 -7.899201E+04 -7.052995E+04  9.426125E+04  1.092407E+04  5.034924E+03
       161  26 -5.332054E+04 -7.693471E+04 -5.026109E+04  9.950605E+04 -2.225866E+03  1.609587E+04
       161  27  3.339181E+04 -6.404900E+04 -3.584597E+04  1.178208E+05 -1.538045E+04  1.748198E+04
       162   1  5.718739E+05  5.934710E+04  4.561114E+04  1.214799E+05 -3.393662E+03 -1.502274E+04
       162   2  4.851036E+05  3.690164E+04  2.757835E+04  1.135265E+05 -8.775884E+03 -1.067603E+04
       162   3  3.995753E+05  1.657154E+04  1.357740E+04  1.193504E+05 -1.415765E+04 -5.164935E+03
       162   4  3.290361E+05  3.363698E+03  8.406324E+03  1.194383E+05  5.647304E+03 -1.502238E+04
       162   5  3.286660E+05  1.146500E+03  5.167172E+03  1.125497E+05  3.061701E+03 -1.067492E+04
       162   6  3.290458E+05  5.600565E+02  4.019288E+03  1.194385E+05  4.758618E+02 -5.162937E+03
       162   7  8.625729E+04 -5.262249E+04 -2.879947E+04  1.173975E+05  1.468487E+04 -1.502209E+04
       162   8  1.722534E+05 -3.460967E+04 -1.724385E+04  1.115731E+05  1.489643E+04 -1.067385E+04
       162   9  2.585219E+05 -1.545152E+04 -5.538064E+03  1.195266E+05  1.510779E+04 -5.160935E+03
       162  10  5.718739E+05  5.934686E+04  4.561070E+04  1.214799E+05  5.626168E-10  2.201247E-10
       162  11  4.851035E+05  3.690150E+04  2.757799E+04  1.135264E+05  1.612426E-10  1.380999E-12
       162  12  3.995751E+05  1.657145E+04  1.357697E+04  1.193503E+05  2.853246E-10 -8.397898E-11
       162  13  3.290360E+05  3.363447E+03  8.405840E+03  1.194384E+05  5.138361E-10  1.288023E-10
       162  14  3.286660E+05  1.146375E+03  5.166940E+03  1.125497E+05  2.304145E-10 -3.365730E-12
       162  15  3.290458E+05  5.600278E+02  4.019238E+03  1.194385E+05 -2.421960E-10 -9.753699E-11
       162  16  8.625700E+04 -5.262279E+04 -2.880030E+04  1.173977E+05 -4.822911E-10  4.297996E-11
       162  17  1.722531E+05 -3.460986E+04 -1.724448E+04  1.115732E+05 -2.332280E-10 -7.162206E-11
       162  18  2.585216E+05 -1.545161E+04 -5.538543E+03  1.195266E+05 -5.545416E-11 -2.758419E-11
       162  19  5.718739E+05  5.934710E+04  4.561114E+04  1.214799E+05  3.393662E+03  1.502274E+04
       162  20  4.851036E+05  3.690164E+04  2.757835E+04  1.135265E+05  8.775884E+03  1.067603E+04
       162  21  3.995753E+05  1.657154E+04  1.357740E+04  1.193504E+05  1.415765E+04  5.164935E+03
       162  22  3.290361E+05  3.363698E+03  8.406324E+03  1.194383E+05 -5.647304E+03  1.502238E+04
       162  23  3.286660E+05  1.146500E+03  5.167172E+03  1.125497E+05 -3.061701E+03  1.067492E+04
       162  24  3.290458E+05  5.600565E+02  4.019288E+03  1.194385E+05 -4.758618E+02  5.162937E+03
       162  25  8.625729E+04 -5.262249E+04 -2.879947E+04  1.173975E+05 -1.468487E+04  1.502209E+04
       162  26  1.722534E+05 -3.460967E+04 -1.724385E+04  1.115731E+05 -1.489643E+04  1.067385E+04
       162  27  2.585219E+05 -1.545152E+04 -5.538064E+03  1.195266E+05 -1.510779E+04  5.160935E+03
       163   1  3.462780E+05  4.384666E+03  5.892444E+03  1.195340E+05 -1.484578E+04 -1.528505E+03
       163   2  2.599790E+05 -1.481940E+04 -5.838689E+03  1.116526E+05 -1.512598E+04  4.123456E+03
       163   3  1.740142E+05 -3.288515E+04 -1.710151E+04  1.175658E+05 -1.540609E+04  8.874511E+03
       163   4  3.290358E+05  5.527668E+02  3.968182E+03  1.194423E+05 -1.944493E+02 -1.526396E+03
       163   5  3.286832E+05  1.061924E+03  4.885248E+03  1.125450E+05 -2.638757E+03  4.125011E+03
       163   6  3.290312E+05  3.084687E+03  7.771841E+03  1.194421E+05 -5.082987E+03  8.875562E+03
       163   7  3.117943E+05 -3.279029E+03  2.044730E+03  1.193505E+05  1.445650E+04 -1.524292E+03
       163   8  3.973924E+05  1.694310E+04  1.560966E+04  1.134375E+05  9.849791E+03  4.126601E+03
       163   9  4.840723E+05  3.905338E+04  3.264496E+04  1.213189E+05  5.242603E+03  8.876675E+03
       163  10  3.462777E+05  4.384605E+03  5.892026E+03  1.195340E+05  2.401222E-10 -1.473306E-10
       163  11  2.599787E+05 -1.481948E+04 -5.839151E+03  1.116526E+05 -3.729122E-10 -2.514242E-10
       163  12  1.740139E+05 -3.288529E+04 -1.710211E+04  1.175659E+05 -7.804388E-11 -9.283310E-11
       163  13  3.290358E+05  5.527642E+02  3.968178E+03  1.194423E+05 -2.656210E-10 -1.087021E-10
       163  14  3.286831E+05  1.061904E+03  4.885203E+03  1.125450E+05  5.912750E-11 -7.865634E-11
       163  15  3.290311E+05  3.084595E+03  7.771644E+03  1.194421E+05 -3.358037E-10 -3.449953E-11
       163  16  3.117941E+05 -3.279087E+03  2.044333E+03  1.193506E+05 -5.615678E-10 -3.205977E-11
       163  17  3.973923E+05  1.694306E+04  1.560945E+04  1.134375E+05  7.675766E-11 -6.532158E-11
       163  18  4.840723E+05  3.905329E+04  3.264476E+04  1.213188E+05  9.431256E-11  1.470488E-10
       163  19  3.462780E+05  4.384666E+03  5.892444E+03  1.195340E+05  1.484578E+04  1.528505E+03
       163  20  2.599790E+05 -1.481940E+04 -5.838689E+03  1.116526E+05  1.512598E+04 -4.123456E+03
       163  21  1.740142E+05 -3.288515E+04 -1.710151E+04  1.175658E+05  1.540609E+04 -8.874511E+03
       163  22  3.290358E+05  5.527668E+02  3.968182E+03  1.194423E+05  1.944493E+02  1.526396E+03
       163  23  3.286832E+05  1.061924E+03  4.885248E+03  1.125450E+05  2.638757E+03 -4.125011E+03
       163  24  3.290312E+05  3.084687E+03  7.771841E+03  1.194421E+05  5.082987E+03 -8.875562E+03
       163  25  3.117943E+05 -3.279029E+03  2.044730E+03  1.193505E+05 -1.445650E+04  1.524292E+03
       163  26  3.973924E+05  1.694310E+04  1.560966E+04  1.134375E+05 -9.849791E+03 -4.126601E+03
       163  27  4.840723E+05  3.905338E+04  3.264496E+04  1.213189E+05 -5.242603E+03 -8.876675E+03
       164   1  1.211836E+05 -4.430411E+04 -2.394609E+04  1.179671E+05 -1.612910E+04  1.160069E+04
       164   2  3.435061E+04 -5.755990E+04 -3.696507E+04  1.005915E+05 -6.258048E+03  1.166936E+04
       164   3 -5.118466E+04 -6.055305E+04 -5.384255E+04  9.642938E+04  3.610162E+03  3.787130E+03
       164   4  3.298947E+05  4.235039E+03  1.008907E+04  1.193124E+05 -6.428127E+03  1.160139E+04
       164   5  3.275830E+05  1.208778E+04  1.809408E+04  1.127061E+05 -1.564138E+04  1.166812E+04
       164   6  3.298730E+05  3.351274E+04  3.548934E+04  1.193117E+05 -2.485653E+04  3.786036E+03
       164   7  5.386491E+05  5.277202E+04  4.412334E+04  1.206582E+05  3.275994E+03  1.160212E+04
       164   8  6.208990E+05  8.173108E+04  7.314991E+04  1.248265E+05 -2.502904E+04  1.166651E+04
       164   9  7.110673E+05  1.275706E+05  1.248146E+05  1.422082E+05 -5.334059E+04  3.782845E+03
       164  10  1.211833E+05 -4.430433E+04 -2.394683E+04  1.179672E+05  2.036755E-10  8.951792E-12
       164  11  3.435053E+04 -5.756006E+04 -3.696540E+04  1.005915E+05  1.752058E-10  1.406584E-10
       164  12 -5.118468E+04 -6.055307E+04 -5.384260E+04  9.642937E+04  2.488119E-10  1.233051E-10
       164  13  3.298946E+05  4.234884E+03  1.008874E+04  1.193125E+05  4.222509E-12  9.560213E-11
       164  14  3.275827E+05  1.208757E+04  1.809337E+04  1.127062E+05 -4.782408E-10  1.147459E-10
       164  15  3.298724E+05  3.351256E+04  3.548815E+04  1.193118E+05  2.011273E-10 -4.217932E-11
       164  16  5.386490E+05  5.277188E+04  4.412307E+04  1.206582E+05 -2.590135E-10  1.969518E-10
       164  17  6.208983E+05  8.173076E+04  7.314848E+04  1.248268E+05 -3.811486E-10  6.002517E-11
       164  18  7.110643E+05  1.275698E+05  1.248093E+05  1.422083E+05 -2.022985E-10 -1.122094E-11
       164  19  1.211836E+05 -4.430411E+04 -2.394609E+04  1.179671E+05  1.612910E+04 -1.160069E+04
       164  20  3.435061E+04 -5.755990E+04 -3.696507E+04  1.005915E+05  6.258048E+03 -1.166936E+04
       164  21 -5.118466E+04 -6.055305E+04 -5.384255E+04  9.642938E+04 -3.610162E+03 -3.787130E+03
       164  22  3.298947E+05  4.235039E+03  1.008907E+04  1.193124E+05  6.428127E+03 -1.160139E+04
       164  23  3.275830E+05  1.208778E+04  1.809408E+04  1.127061E+05  1.564138E+04 -1.166812E+04
       164  24  3.298730E+05  3.351274E+04  3.548934E+04  1.193117E+05  2.485653E+04 -3.786036E+03
       164  25  5.386491E+05  5.277202E+04  4.412334E+04  1.206582E+05 -3.275994E+03 -1.160212E+04
       164  26  6.208990E+05  8.173108E+04  7.314991E+04  1.248265E+05  2.502904E+04 -1.166651E+04
       164  27  7.110673E+05  1.275706E+05  1.248146E+05  1.422082E+05  5.334059E+04 -3.782845E+03
       165   1 -1.447518E+05 -4.689048E+05 -1.409309E+05  1.722446E+05 -4.585164E+03 -5.638741E+04
       165   2 -9.472520E+04 -3.551050E+05 -8.271507E+04  1.542014E+05 -1.399595E+04 -2.498938E+04
       165   3 -6.085227E+04 -2.494266E+05 -4.898936E+04  1.530086E+05 -1.375475E+04  6.413592E+03
       165   4 -2.987788E+04 -3.759774E+03 -3.173514E+04  1.519659E+05 -4.566326E+03 -2.220566E+04
       165   5 -1.073522E+04 -1.692220E+03 -1.619191E+04  1.435340E+05 -1.398901E+04 -1.395329E+04
       165   6 -3.720625E+03 -3.733986E+03 -9.054372E+03  1.519537E+05 -1.376129E+04 -5.702374E+03
       165   7  8.498286E+04  4.615879E+05  7.745042E+04  1.316719E+05 -4.549731E+03  1.200157E+04
       165   8  7.324799E+04  3.518418E+05  5.032631E+04  1.328603E+05 -1.398246E+04 -2.911071E+03
       165   9  5.340803E+04  2.420188E+05  3.087948E+04  1.508984E+05 -1.376778E+04 -1.782297E+04
       165  10 -1.447527E+05 -4.689082E+05 -1.409369E+05  1.722444E+05 -1.271696E-10  4.659215E-11
       165  11 -9.472558E+04 -3.551058E+05 -8.271662E+04  1.542011E+05 -2.718354E-10 -1.771325E-10
       165  12 -6.085248E+04 -2.494267E+05 -4.898979E+04  1.530087E+05 -3.141150E-10 -2.852786E-10
       165  13 -2.987803E+04 -3.760310E+03 -3.173611E+04  1.519658E+05 -1.059630E-10 -2.438229E-12
       165  14 -1.073549E+04 -1.692482E+03 -1.619264E+04  1.435338E+05  1.206122E-10 -3.034513E-10
       165  15 -3.720837E+03 -3.734072E+03 -9.054789E+03  1.519537E+05 -1.848543E-10 -3.347230E-11
       165  16  8.498280E+04  4.615878E+05  7.745011E+04  1.316719E+05  1.446782E-10  9.927606E-11
       165  17  7.324778E+04  3.518418E+05  5.032593E+04  1.328603E+05 -2.894129E-10 -5.797212E-11
       165  18  5.340774E+04  2.420184E+05  3.087853E+04  1.508982E+05  1.886911E-10 -6.620754E-11
       165  19 -1.447518E+05 -4.689048E+05 -1.409309E+05  1.722446E+05  4.585164E+03  5.638741E+04
       165  20 -9.472520E+04 -3.551050E+05 -8.271507E+04  1.542014E+05  1.399595E+04  2.498938E+04
       165  21 -6.085227E+04 -2.494266E+05 -4.898936E+04  1.530086E+05  1.375475E+04 -6.413592E+03
       165  22 -2.987788E+04 -3.759774E+03 -3.173514E+04  1.519659E+05  4.566326E+03  2.220566E+04
       165  23 -1.073522E+04 -1.692220E+03 -1.619191E+04  1.435340E+05  1.398901E+04  1.395329E+04
       165  24 -3.720625E+03 -3.733986E+03 -9.054372E+03  1.519537E+05  1.376129E+04  5.702374E+03
       165  25  8.498286E+04  4.615879E+05  7.745042E+04  1.316719E+05  4.549731E+03 -1.200157E+04
       165  26  7.324799E+04  3.518418E+05  5.032631E+04  1.328603E+05  1.398246E+04  2.911071E+03
       165  27  5.340803E+04  2.420188E+05  3.087948E+04  1.508984E+05  1.376778E+04  1.782297E+04
       166   1 -4.379817E+04 -1.802630E+05 -3.516990E+04  1.536623E+05 -1.033655E+04  8.315498E+03
       166   2 -1.642500E+04 -7.014966E+04 -1.383509E+04  1.438599E+05 -4.815210E+03  1.141910E+04
       166   3  9.214201E+03  3.912525E+04  5.040833E+03  1.515691E+05  1.063312E+03  1.452290E+04
       166   4 -2.704244E+03 -2.971401E+03 -7.000950E+03  1.521007E+05 -1.034394E+04 -4.501000E+03
       166   5 -1.049028E+03 -2.618265E+03 -4.486211E+03  1.433444E+05 -4.823346E+03 -2.255066E+03
       166   6 -9.782085E+02 -2.966372E+03 -3.834585E+03  1.520998E+05  1.054408E+03 -9.449245E+00
       166   7  3.838821E+04  1.743518E+05  2.116781E+04  1.505386E+05 -1.035126E+04 -1.732103E+04
       166   8  1.432684E+04  6.491816E+04  4.863320E+03  1.428288E+05 -4.831458E+03 -1.593066E+04
       166   9 -1.117062E+04 -4.505586E+04 -1.270931E+04  1.526304E+05  1.045479E+03 -1.454083E+04
       166  10 -4.379830E+04 -1.802631E+05 -3.517023E+04  1.536624E+05 -9.411341E-11  1.149299E-10
       166  11 -1.642506E+04 -7.014980E+04 -1.383538E+04  1.438600E+05 -1.755493E-10 -4.095910E-11
       166  12  9.214143E+03  3.912502E+04  5.040434E+03  1.515691E+05 -1.236433E-10 -3.143487E-10
       166  13 -2.704364E+03 -2.971452E+03 -7.001189E+03  1.521006E+05 -2.653500E-11  6.075282E-15
       166  14 -1.049055E+03 -2.618277E+03 -4.486264E+03  1.433444E+05 -7.448180E-11 -3.743779E-10
       166  15 -9.782097E+02 -2.966372E+03 -3.834587E+03  1.520998E+05  1.169051E-10 -4.323190E-11
       166  16  3.838802E+04  1.743515E+05  2.116705E+04  1.505384E+05 -2.942029E-11  5.886434E-11
       166  17  1.432675E+04  6.491788E+04  4.862800E+03  1.428288E+05  1.827408E-10 -5.537010E-11
       166  18 -1.117068E+04 -4.505609E+04 -1.270971E+04  1.526304E+05 -9.863293E-12 -1.022561E-10
       166  19 -4.379817E+04 -1.802630E+05 -3.516990E+04  1.536623E+05  1.033655E+04 -8.315498E+03
       166  20 -1.642500E+04 -7.014966E+04 -1.383509E+04  1.438599E+05  4.815210E+03 -1.141910E+04
       166  21  9.214201E+03  3.912525E+04  5.040833E+03  1.515691E+05 -1.063312E+03 -1.452290E+04
       166  22 -2.704244E+03 -2.971401E+03 -7.000950E+03  1.521007E+05  1.034394E+04  4.501000E+03
       166  23 -1.049028E+03 -2.618265E+03 -4.486211E+03  1.433444E+05  4.823346E+03  2.255066E+03
       166  24 -9.782085E+02 -2.966372E+03 -3.834585E+03  1.520998E+05 -1.054408E+03  9.449245E+00
       166  25  3.838821E+04  1.743518E+05  2.116781E+04  1.505386E+05  1.035126E+04  1.732103E+04
       166  26  1.432684E+04  6.491816E+04  4.863320E+03  1.428288E+05  4.831458E+03  1.593066E+04
       166  27 -1.117062E+04 -4.505586E+04 -1.270931E+04  1.526304E+05 -1.045479E+03  1.454083E+04
       167   1  2.485772E+04  1.072402E+05  1.603235E+04  1.517162E+05  4.840852E+03  1.467084E+04
       167   2  4.915357E+04  2.161997E+05  3.785160E+04  1.402140E+05  7.215042E+03  7.795069E+02
       167   3  7.254053E+04  3.267417E+05  6.848215E+04  1.457867E+05  2.631519E+03 -1.311246E+04
       167   4 -1.216993E+03 -3.107313E+03 -4.003220E+03  1.520029E+05  4.832378E+03  6.000742E+02
       167   5 -3.243383E+03 -2.451774E+03 -5.530942E+03  1.434668E+05  7.216759E+03  3.411315E+03
       167   6 -9.077426E+03 -3.123271E+03 -9.844643E+03  1.520067E+05  2.642158E+03  6.224133E+03
       167   7 -2.729229E+04 -1.134425E+05 -2.403853E+04  1.522894E+05  4.823890E+03 -1.346826E+04
       167   8 -5.564321E+04 -2.210576E+05 -4.891583E+04  1.467184E+05  7.218505E+03  6.042215E+03
       167   9 -9.070286E+04 -3.328874E+05 -8.817761E+04  1.582233E+05  2.653189E+03  2.555050E+04
       167  10  2.485764E+04  1.072399E+05  1.603191E+04  1.517162E+05 -2.396478E-10  3.119367E-10
       167  11  4.915352E+04  2.161997E+05  3.785150E+04  1.402140E+05 -7.209582E-10  1.353212E-10
       167  12  7.254048E+04  3.267415E+05  6.848182E+04  1.457868E+05 -1.151271E-11 -9.633135E-11
       167  13 -1.217018E+03 -3.107320E+03 -4.003264E+03  1.520028E+05 -1.891921E-10 -3.600327E-12
       167  14 -3.243442E+03 -2.451800E+03 -5.531062E+03  1.434668E+05 -1.318241E-10 -3.741503E-10
       167  15 -9.077444E+03 -3.123315E+03 -9.844729E+03  1.520067E+05 -1.528615E-10 -3.392268E-11
       167  16 -2.729236E+04 -1.134427E+05 -2.403892E+04  1.522895E+05  2.543780E-10 -1.638323E-10
       167  17 -5.564328E+04 -2.210576E+05 -4.891599E+04  1.467184E+05  1.381454E-11 -2.111940E-10
       167  18 -9.070305E+04 -3.328881E+05 -8.817885E+04  1.582232E+05  1.030081E-10 -2.059730E-10
       167  19  2.485772E+04  1.072402E+05  1.603235E+04  1.517162E+05 -4.840852E+03 -1.467084E+04
       167  20  4.915357E+04  2.161997E+05  3.785160E+04  1.402140E+05 -7.215042E+03 -7.795069E+02
       167  21  7.254053E+04  3.267417E+05  6.848215E+04  1.457867E+05 -2.631519E+03  1.311246E+04
       167  22 -1.216993E+03 -3.107313E+03 -4.003220E+03  1.520029E+05 -4.832378E+03 -6.000742E+02
       167  23 -3.243383E+03 -2.451774E+03 -5.530942E+03  1.434668E+05 -7.216759E+03 -3.411315E+03
       167  24 -9.077426E+03 -3.123271E+03 -9.844643E+03  1.520067E+05 -2.642158E+03 -6.224133E+03
       167  25 -2.729229E+04 -1.134425E+05 -2.403853E+04  1.522894E+05 -4.823890E+03  1.346826E+04
       167  26 -5.564321E+04 -2.210576E+05 -4.891583E+04  1.467184E+05 -7.218505E+03 -6.042215E+03
       167  27 -9.070286E+04 -3.328874E+05 -8.817761E+04  1.582233E+05 -2.653189E+03 -2.555050E+04
       168   1  9.875995E+05  1.904764E+05  1.858619E+05  1.518900E+05  8.874003E+04 -6.240488E+03
       168   2  8.988066E+05  1.296271E+05  1.136480E+05  1.280176E+05  4.673457E+04 -2.046559E+04
       168   3  8.222284E+05  9.571936E+04  7.549029E+04  1.165049E+05  4.738618E+03 -2.345926E+04
       168   4  4.375142E+05  5.502120E+04  5.821312E+04  1.143288E+05  4.106010E+04 -6.247927E+03
       168   5  4.337648E+05  1.985117E+04  2.946354E+04  1.081518E+05  2.605244E+04 -2.047027E+04
       168   6  4.375501E+05  6.951210E+03  1.604846E+04  1.143325E+05  1.104749E+04 -2.345969E+04
       168   7 -1.122843E+05 -8.044881E+04 -6.944669E+04  7.680100E+04 -6.577960E+03 -6.249612E+03
       168   8 -3.106506E+04 -8.993521E+04 -5.472764E+04  8.830135E+04  5.385359E+03 -2.047364E+04
       168   9  5.301960E+04 -8.182409E+04 -4.339658E+04  1.121614E+05  1.735260E+04 -2.346017E+04
       168  10  9.875911E+05  1.904743E+05  1.858470E+05  1.518905E+05 -3.634688E-10  6.134141E-12
       168  11  8.988041E+05  1.296261E+05  1.136431E+05  1.280184E+05  1.515238E-10 -1.478439E-10
       168  12  8.222282E+05  9.571876E+04  7.548921E+04  1.165050E+05 -1.455203E-11 -3.830425E-10
       168  13  4.375124E+05  5.502070E+04  5.820988E+04  1.143290E+05  1.696011E-10 -1.136021E-10
       168  14  4.337640E+05  1.985054E+04  2.946148E+04  1.081523E+05  9.618278E-11 -3.312319E-11
       168  15  4.375498E+05  6.950586E+03  1.604719E+04  1.143327E+05  1.615144E-10 -2.057772E-10
       168  16 -1.122843E+05 -8.044886E+04 -6.944684E+04  7.680097E+04 -2.726272E-11 -9.615650E-11
       168  17 -3.106520E+04 -8.993567E+04 -5.472849E+04  8.830144E+04  1.678732E-10  3.234833E-11
       168  18  5.301913E+04 -8.182476E+04 -4.339818E+04  1.121617E+05 -2.410193E-11 -1.256523E-10
       168  19  9.875995E+05  1.904764E+05  1.858619E+05  1.518900E+05 -8.874003E+04  6.240488E+03
       168  20  8.988066E+05  1.296271E+05  1.136480E+05  1.280176E+05 -4.673457E+04  2.046559E+04
       168  21  8.222284E+05  9.571936E+04  7.549029E+04  1.165049E+05 -4.738618E+03  2.345926E+04
       168  22  4.375142E+05  5.502120E+04  5.821312E+04  1.143288E+05 -4.106010E+04  6.247927E+03
       168  23  4.337648E+05  1.985117E+04  2.946354E+04  1.081518E+05 -2.605244E+04  2.047027E+04
       168  24  4.375501E+05  6.951210E+03  1.604846E+04  1.143325E+05 -1.104749E+04  2.345969E+04
       168  25 -1.122843E+05 -8.044881E+04 -6.944669E+04  7.680100E+04  6.577960E+03  6.249612E+03
       168  26 -3.106506E+04 -8.993521E+04 -5.472764E+04  8.830135E+04 -5.385359E+03  2.047364E+04
       168  27  5.301960E+04 -8.182409E+04 -4.339658E+04  1.121614E+05 -1.735260E+04  2.346017E+04
       169   1  7.690335E+05  8.154521E+04  6.177693E+04  1.175411E+05  1.749015E+03 -2.140721E+04
       169   2  6.856454E+05  5.862522E+04  4.155401E+04  1.094030E+05 -5.033210E+03 -1.770268E+04
       169   3  6.038743E+05  3.859866E+04  2.646699E+04  1.144485E+05 -1.181505E+04 -1.258171E+04
       169   4  4.361087E+05  5.061360E+03  1.205403E+04  1.145166E+05  8.947058E+03 -2.140703E+04
       169   5  4.356067E+05  1.687557E+03  6.744144E+03  1.079252E+05  5.568617E+03 -1.770118E+04
       169   6  4.361242E+05  6.174481E+02  4.209087E+03  1.145174E+05  2.189663E+03 -1.257861E+04
       169   7  1.032953E+05 -7.142766E+04 -3.767080E+04  1.114937E+05  1.614140E+04 -2.140692E+04
       169   8  1.856317E+05 -5.525280E+04 -2.806606E+04  1.064480E+05  1.616637E+04 -1.769972E+04
       169   9  2.684032E+05 -3.736485E+04 -1.804830E+04  1.145864E+05  1.619077E+04 -1.257550E+04
       169  10  7.690334E+05  8.154472E+04  6.177607E+04  1.175411E+05 -3.386489E-10 -2.338460E-10
       169  11  6.856453E+05  5.862487E+04  4.155337E+04  1.094030E+05 -6.722030E-10 -3.894847E-10
       169  12  6.038741E+05  3.859845E+04  2.646643E+04  1.144484E+05  3.208320E-10 -1.106819E-10
       169  13  4.361085E+05  5.060846E+03  1.205302E+04  1.145167E+05  2.943420E-11 -2.635553E-10
       169  14  4.356066E+05  1.687212E+03  6.743497E+03  1.079253E+05 -1.490432E-10 -2.881979E-10
       169  15  4.361241E+05  6.172769E+02  4.208781E+03  1.145174E+05  3.508391E-12 -2.671465E-10
       169  16  1.032949E+05 -7.142822E+04 -3.767216E+04  1.114940E+05  5.262469E-10 -3.237220E-10
       169  17  1.856313E+05 -5.525321E+04 -2.806714E+04  1.064482E+05 -2.500787E-11 -3.522130E-10
       169  18  2.684029E+05 -3.736509E+04 -1.804909E+04  1.145865E+05 -2.729103E-10 -1.730277E-10
       169  19  7.690335E+05  8.154521E+04  6.177693E+04  1.175411E+05 -1.749015E+03  2.140721E+04
       169  20  6.856454E+05  5.862522E+04  4.155401E+04  1.094030E+05  5.033210E+03  1.770268E+04
       169  21  6.038743E+05  3.859866E+04  2.646699E+04  1.144485E+05  1.181505E+04  1.258171E+04
       169  22  4.361087E+05  5.061360E+03  1.205403E+04  1.145166E+05 -8.947058E+03  2.140703E+04
       169  23  4.356067E+05  1.687557E+03  6.744144E+03  1.079252E+05 -5.568617E+03  1.770118E+04
       169  24  4.361242E+05  6.174481E+02  4.209087E+03  1.145174E+05 -2.189663E+03  1.257861E+04
       169  25  1.032953E+05 -7.142766E+04 -3.767080E+04  1.114937E+05 -1.614140E+04  2.140692E+04
       169  26  1.856317E+05 -5.525280E+04 -2.806606E+04  1.064480E+05 -1.616637E+04  1.769972E+04
       169  27  2.684032E+05 -3.736485E+04 -1.804830E+04  1.145864E+05 -1.619077E+04  1.257550E+04
       170   1  5.526575E+05  2.681570E+04  1.847281E+04  1.146316E+05 -1.252404E+04 -9.097236E+03
       170   2  4.700317E+05  7.949873E+03  6.052611E+03  1.075620E+05 -1.266883E+04 -3.522296E+03
       170   3  3.875585E+05 -1.040113E+04 -6.145408E+03  1.137312E+05 -1.281374E+04  1.490128E+03
       170   4  4.359851E+05  5.062029E+02  3.530672E+03  1.145297E+05  1.539697E+03 -9.093793E+03
       170   5  4.357953E+05  4.952309E+02  2.996361E+03  1.079103E+05  4.344328E+01 -3.519064E+03
       170   6  4.359869E+05  1.234110E+03  3.622228E+03  1.145296E+05 -1.452963E+03  1.493130E+03
       170   7  3.193270E+05 -2.580375E+04 -1.141078E+04  1.144277E+05  1.560092E+04 -9.090354E+03
       170   8  4.015606E+05 -6.959360E+03 -5.925196E+01  1.082585E+05  1.275506E+04 -3.515817E+03
       170   9  4.844179E+05  1.286928E+04  1.339023E+04  1.153280E+05  9.908682E+03  1.496160E+03
       170  10  5.526573E+05  2.681557E+04  1.847236E+04  1.146315E+05 -1.069301E-10 -4.736853E-11
       170  11  4.700315E+05  7.949817E+03  6.052286E+03  1.075620E+05  1.642993E-11 -3.787377E-11
       170  12  3.875583E+05 -1.040118E+04 -6.145721E+03  1.137312E+05  3.916133E-10 -1.921829E-10
       170  13  4.359850E+05  5.061135E+02  3.530512E+03  1.145297E+05  1.304308E-10 -1.656441E-10
       170  14  4.357953E+05  4.952176E+02  2.996338E+03  1.079103E+05 -1.246705E-10 -1.057085E-10
       170  15  4.359869E+05  1.234107E+03  3.622219E+03  1.145296E+05  1.191283E-10 -1.125093E-10
       170  16  3.193267E+05 -2.580390E+04 -1.141140E+04  1.144279E+05  3.645814E-10 -1.661530E-10
       170  17  4.015604E+05 -6.959417E+03 -5.958076E+01  1.082585E+05  4.398229E-10  2.647409E-10
       170  18  4.844178E+05  1.286925E+04  1.339004E+04  1.153280E+05  6.520720E-11  6.170065E-11
       170  19  5.526575E+05  2.681570E+04  1.847281E+04  1.146316E+05  1.252404E+04  9.097236E+03
       170  20  4.700317E+05  7.949873E+03  6.052611E+03  1.075620E+05  1.266883E+04  3.522296E+03
       170  21  3.875585E+05 -1.040113E+04 -6.145408E+03  1.137312E+05  1.281374E+04 -1.490128E+03
       170  22  4.359851E+05  5.062029E+02  3.530672E+03  1.145297E+05 -1.539697E+03  9.093793E+03
       170  23  4.357953E+05  4.952309E+02  2.996361E+03  1.079103E+05 -4.344328E+01  3.519064E+03
       170  24  4.359869E+05  1.234110E+03  3.622228E+03  1.145296E+05  1.452963E+03 -1.493130E+03
       170  25  3.193270E+05 -2.580375E+04 -1.141078E+04  1.144277E+05 -1.560092E+04  9.090354E+03
       170  26  4.015606E+05 -6.959360E+03 -5.925196E+01  1.082585E+05 -1.275506E+04  3.515817E+03
       170  27  4.844179E+05  1.286928E+04  1.339023E+04  1.153280E+05 -9.908682E+03 -1.496160E+03
       171   1  3.365512E+05 -2.187061E+04 -1.367965E+04  1.138588E+05 -1.299208E+04  4.406407E+03
       171   2  2.542458E+05 -3.864258E+04 -2.846363E+04  1.032601E+05 -3.095684E+03  6.132802E+03
       171   3  1.713921E+05 -5.248985E+04 -4.895718E+04  1.054913E+05  6.799272E+03  2.206291E+03
       171   4  4.363007E+05  1.678173E+03  4.356296E+03  1.144385E+05 -2.068215E+03  4.409182E+03
       171   5  4.353948E+05  4.712923E+03  7.222792E+03  1.080231E+05 -5.743343E+03  6.132018E+03
       171   6  4.362884E+05  1.302716E+04  1.380001E+04  1.144366E+05 -9.418615E+03  2.202845E+03
       171   7  5.360602E+05  2.522647E+04  2.239230E+04  1.150184E+05  8.857352E+03  4.411978E+03
       171   8  6.165753E+05  4.806653E+04  4.290765E+04  1.127875E+05 -8.391757E+03  6.131193E+03
       171   9  7.012498E+05  7.853956E+04  7.655335E+04  1.233857E+05 -2.564338E+04  2.198933E+03
       171  10  3.365511E+05 -2.187068E+04 -1.368001E+04  1.138588E+05 -2.435160E-10 -2.714157E-10
       171  11  2.542458E+05 -3.864263E+04 -2.846372E+04  1.032602E+05 -5.552038E-10 -4.184950E-10
       171  12  1.713920E+05 -5.248987E+04 -4.895727E+04  1.054912E+05 -3.227476E-10 -1.009952E-10
       171  13  4.363007E+05  1.678151E+03  4.356251E+03  1.144385E+05 -4.820933E-10 -7.888417E-10
       171  14  4.353948E+05  4.712874E+03  7.222659E+03  1.080231E+05  4.088610E-10  2.908328E-10
       171  15  4.362883E+05  1.302713E+04  1.379984E+04  1.144366E+05  8.062133E-11  2.255797E-13
       171  16  5.360601E+05  2.522643E+04  2.239212E+04  1.150184E+05  2.760070E-10 -8.608793E-11
       171  17  6.165752E+05  4.806647E+04  4.290745E+04  1.127875E+05  7.457915E-10  2.075166E-10
       171  18  7.012491E+05  7.853938E+04  7.655211E+04  1.233858E+05  2.457492E-10 -1.387216E-10
       171  19  3.365512E+05 -2.187061E+04 -1.367965E+04  1.138588E+05  1.299208E+04 -4.406407E+03
       171  20  2.542458E+05 -3.864258E+04 -2.846363E+04  1.032601E+05  3.095684E+03 -6.132802E+03
       171  21  1.713921E+05 -5.248985E+04 -4.895718E+04  1.054913E+05 -6.799272E+03 -2.206291E+03
       171  22  4.363007E+05  1.678173E+03  4.356296E+03  1.144385E+05  2.068215E+03 -4.409182E+03
       171  23  4.353948E+05  4.712923E+03  7.222792E+03  1.080231E+05  5.743343E+03 -6.132018E+03
       171  24  4.362884E+05  1.302716E+04  1.380001E+04  1.144366E+05  9.418615E+03 -2.202845E+03
       171  25  5.360602E+05  2.522647E+04  2.239230E+04  1.150184E+05 -8.857352E+03 -4.411978E+03
       171  26  6.165753E+05  4.806653E+04  4.290765E+04  1.127875E+05  8.391757E+03 -6.131193E+03
       171  27  7.012498E+05  7.853956E+04  7.655335E+04  1.233857E+05  2.564338E+04 -2.198933E+03
       172   1 -1.127751E+05 -3.363614E+05 -1.126369E+05  1.585192E+05 -2.238402E+03 -4.907226E+04
       172   2 -5.991621E+04 -2.393217E+05 -6.013137E+04  1.371450E+05 -6.059902E+03 -2.297126E+04
       172   3 -2.732920E+04 -1.507461E+05 -2.969398E+04  1.302140E+05 -4.016181E+03  3.133588E+03
       172   4 -4.401250E+04 -5.849983E+04 -4.662307E+04  1.285580E+05 -2.229682E+03 -3.284689E+04
       172   5 -1.585314E+04 -5.548021E+04 -2.361756E+04  1.213289E+05 -6.058298E+03 -2.081414E+04
       172   6 -5.518779E+03 -5.848729E+04 -1.290381E+04  1.285452E+05 -4.021307E+03 -8.781867E+03
       172   7  2.474803E+04  2.194352E+05  1.938688E+04  9.858326E+04 -2.222532E+03 -1.661428E+04
       172   8  2.820881E+04  1.283941E+05  1.289473E+04  1.055081E+05 -6.056804E+03 -1.865639E+04
       172   9  1.629125E+04  3.378013E+04  3.886545E+03  1.268761E+05 -4.026367E+03 -2.069904E+04
       172  10 -1.127757E+05 -3.363640E+05 -1.126415E+05  1.585191E+05 -4.602265E-11 -8.766271E-11
       172  11 -5.991639E+04 -2.393222E+05 -6.013243E+04  1.371449E+05  1.792671E-10  1.579704E-10
       172  12 -2.732922E+04 -1.507461E+05 -2.969403E+04  1.302140E+05  1.979204E-10  2.679215E-10
       172  13 -4.401279E+04 -5.850099E+04 -4.662511E+04  1.285579E+05 -2.283881E-10  1.915804E-10
       172  14 -1.585330E+04 -5.548068E+04 -2.361844E+04  1.213288E+05  2.125734E-10  2.104309E-10
       172  15 -5.518817E+03 -5.848738E+04 -1.290399E+04  1.285451E+05  3.968574E-11  3.386232E-10
       172  16  2.474796E+04  2.194349E+05  1.938635E+04  9.858323E+04 -2.320728E-10 -1.633018E-10
       172  17  2.820868E+04  1.283937E+05  1.289400E+04  1.055080E+05 -3.749363E-10 -4.524433E-10
       172  18  1.629112E+04  3.377966E+04  3.885709E+03  1.268760E+05 -1.770526E-11 -3.448111E-10
       172  19 -1.127751E+05 -3.363614E+05 -1.126369E+05  1.585192E+05  2.238402E+03  4.907226E+04
       172  20 -5.991621E+04 -2.393217E+05 -6.013137E+04  1.371450E+05  6.059902E+03  2.297126E+04
       172  21 -2.732920E+04 -1.507461E+05 -2.969398E+04  1.302140E+05  4.016181E+03 -3.133588E+03
       172  22 -4.401250E+04 -5.849983E+04 -4.662307E+04  1.285580E+05  2.229682E+03  3.284689E+04
       172  23 -1.585314E+04 -5.548021E+04 -2.361756E+04  1.213289E+05  6.058298E+03  2.081414E+04
       172  24 -5.518779E+03 -5.848729E+04 -1.290381E+04  1.285452E+05  4.021307E+03  8.781867E+03
       172  25  2.474803E+04  2.194352E+05  1.938688E+04  9.858326E+04  2.222532E+03  1.661428E+04
       172  26  2.820881E+04  1.283941E+05  1.289473E+04  1.055081E+05  6.056804E+03  1.865639E+04
       172  27  1.629125E+04  3.378013E+04  3.886545E+03  1.268761E+05  4.026367E+03  2.069904E+04
       173   1 -1.238634E+04 -9.187716E+04 -1.708430E+04  1.309985E+05 -8.170257E+02  5.209817E+03
       173   2  1.185875E+04  1.268194E+03  2.500440E+03  1.222695E+05  4.157020E+03  7.253637E+03
       173   3  3.425982E+04  9.368871E+04  2.029076E+04  1.283516E+05  8.823190E+03  9.297950E+03
       173   4 -4.009253E+03 -5.733817E+04 -9.729216E+03  1.286269E+05 -8.224390E+02 -7.094443E+03
       173   5 -1.388967E+03 -5.690929E+04 -5.554092E+03  1.212207E+05  4.152131E+03 -4.312410E+03
       173   6 -7.404910E+02 -5.734171E+04 -3.685975E+03  1.286258E+05  8.818811E+03 -1.530163E+03
       173   7  4.367857E+03 -2.279771E+04 -2.373633E+03  1.262552E+05 -8.277581E+02 -1.939938E+04
       173   8 -1.463675E+04 -1.150830E+05 -1.360816E+04  1.201719E+05  4.147280E+03 -1.587742E+04
       173   9 -3.574188E+04 -2.083492E+05 -2.766285E+04  1.288999E+05  8.814422E+03 -1.235574E+04
       173  10 -1.238635E+04 -9.187719E+04 -1.708435E+04  1.309985E+05  2.391254E-10 -5.075789E-10
       173  11  1.185871E+04  1.268133E+03  2.500308E+03  1.222695E+05 -2.646079E-10 -5.408954E-13
       173  12  3.425972E+04  9.368859E+04  2.029045E+04  1.283516E+05  5.965159E-11  3.085062E-10
       173  13 -4.009267E+03 -5.733822E+04 -9.729312E+03  1.286269E+05  1.569673E-10  2.484686E-10
       173  14 -1.388991E+03 -5.690931E+04 -5.554159E+03  1.212207E+05 -1.822211E-10  2.166227E-10
       173  15 -7.405751E+02 -5.734174E+04 -3.686125E+03  1.286258E+05  1.109229E-10  3.150547E-10
       173  16  4.367755E+03 -2.279812E+04 -2.374341E+03  1.262552E+05  7.228626E-11  1.043379E-10
       173  17 -1.463684E+04 -1.150833E+05 -1.360867E+04  1.201720E+05 -3.602922E-11 -3.235651E-10
       173  18 -3.574200E+04 -2.083494E+05 -2.766328E+04  1.289000E+05  3.215115E-13 -4.242886E-10
       173  19 -1.238634E+04 -9.187716E+04 -1.708430E+04  1.309985E+05  8.170257E+02 -5.209817E+03
       173  20  1.185875E+04  1.268194E+03  2.500440E+03  1.222695E+05 -4.157020E+03 -7.253637E+03
       173  21  3.425982E+04  9.368871E+04  2.029076E+04  1.283516E+05 -8.823190E+03 -9.297950E+03
       173  22 -4.009253E+03 -5.733817E+04 -9.729216E+03  1.286269E+05  8.224390E+02  7.094443E+03
       173  23 -1.388967E+03 -5.690929E+04 -5.554092E+03  1.212207E+05 -4.152131E+03  4.312410E+03
       173  24 -7.404910E+02 -5.734171E+04 -3.685975E+03  1.286258E+05 -8.818811E+03  1.530163E+03
       173  25  4.367857E+03 -2.279771E+04 -2.373633E+03  1.262552E+05  8.277581E+02  1.939938E+04
       173  26 -1.463675E+04 -1.150830E+05 -1.360816E+04  1.201719E+05 -4.147280E+03  1.587742E+04
       173  27 -3.574188E+04 -2.083492E+05 -2.766285E+04  1.288999E+05 -8.814422E+03  1.235574E+04
       174   1  4.778565E+04  1.515959E+05  3.067044E+04  1.284190E+05  1.170988E+04  9.261710E+03
       174   2  6.967968E+04  2.430764E+05  5.317213E+04  1.198210E+05  1.187508E+04 -8.721475E+03
       174   3  9.305271E+04  3.372751E+05  8.774819E+04  1.254724E+05  3.859161E+03 -2.670673E+04
       174   4 -7.791326E+02 -5.730910E+04 -3.262102E+03  1.285011E+05  1.170606E+04 -9.721830E+02
       174   5 -1.609795E+03 -5.696961E+04 -3.270945E+03  1.213766E+05  1.187898E+04  6.860004E+02
       174   6 -4.369957E+03 -5.732763E+04 -4.842777E+03  1.285022E+05  3.868868E+03  2.344630E+03
       174   7 -4.934608E+04 -2.661706E+05 -3.719546E+04  1.285832E+05  1.170223E+04 -1.120275E+04
       174   8 -7.290444E+04 -3.569284E+05 -5.971762E+04  1.229315E+05  1.188293E+04  1.008904E+04
       174   9 -1.018032E+05 -4.517851E+05 -9.744122E+04  1.315301E+05  3.878864E+03  3.137765E+04
       174  10  4.778548E+04  1.515958E+05  3.067002E+04  1.284189E+05  2.103162E-11 -3.296489E-10
       174  11  6.967951E+04  2.430763E+05  5.317172E+04  1.198210E+05 -1.255403E-11 -7.486351E-11
       174  12  9.305250E+04  3.372743E+05  8.774682E+04  1.254724E+05  5.485621E-11  1.052494E-10
       174  13 -7.792800E+02 -5.730913E+04 -3.262361E+03  1.285011E+05 -4.703864E-11  2.130250E-10
       174  14 -1.609947E+03 -5.696964E+04 -3.271212E+03  1.213766E+05 -2.799390E-11  1.824187E-10
       174  15 -4.369974E+03 -5.732764E+04 -4.842816E+03  1.285022E+05 -8.786978E-11  1.866597E-10
       174  16 -4.934626E+04 -2.661708E+05 -3.719596E+04  1.285833E+05  6.406204E-11 -1.675815E-11
       174  17 -7.290462E+04 -3.569286E+05 -5.971807E+04  1.229314E+05  5.183952E-12 -1.013067E-10
       174  18 -1.018035E+05 -4.517862E+05 -9.744310E+04  1.315300E+05 -5.566901E-11 -1.905385E-10
       174  19  4.778565E+04  1.515959E+05  3.067044E+04  1.284190E+05 -1.170988E+04 -9.261710E+03
       174  20  6.967968E+04  2.430764E+05  5.317213E+04  1.198210E+05 -1.187508E+04  8.721475E+03
       174  21  9.305271E+04  3.372751E+05  8.774819E+04  1.254724E+05 -3.859161E+03  2.670673E+04
       174  22 -7.791326E+02 -5.730910E+04 -3.262102E+03  1.285011E+05 -1.170606E+04  9.721830E+02
       174  23 -1.609795E+03 -5.696961E+04 -3.270945E+03  1.213766E+05 -1.187898E+04 -6.860004E+02
       174  24 -4.369957E+03 -5.732763E+04 -4.842777E+03  1.285022E+05 -3.868868E+03 -2.344630E+03
       174  25 -4.934608E+04 -2.661706E+05 -3.719546E+04  1.285832E+05 -1.170223E+04  1.120275E+04
       174  26 -7.290444E+04 -3.569284E+05 -5.971762E+04  1.229315E+05 -1.188293E+04 -1.008904E+04
       174  27 -1.018032E+05 -4.517851E+05 -9.744122E+04  1.315301E+05 -3.878864E+03 -3.137765E+04
       175   1  1.843518E+06  3.506503E+05  3.356166E+05  2.547672E+05  1.468802E+05 -1.425509E+04
       175   2  1.675764E+06  2.671670E+05  2.166750E+05  2.268844E+05  7.348637E+04 -4.750791E+04
       175   3  1.525286E+06  2.143916E+05  1.531128E+05  2.224896E+05  1.196232E+02 -5.599015E+04
       175   4  6.222691E+05  5.022446E+04  5.309564E+04  2.200604E+05  3.715598E+04 -1.431119E+04
       175   5  6.188595E+05  1.813374E+04  2.709299E+04  2.083303E+05  2.338285E+04 -4.754442E+04
       175   6  6.223926E+05  6.446869E+03  1.515948E+04  2.200844E+05  9.613210E+03 -5.599143E+04
       175   7 -5.975769E+05 -2.502950E+05 -2.294792E+05  1.854219E+05 -7.235459E+04 -1.435514E+04
       175   8 -4.369521E+05 -2.309589E+05 -1.625224E+05  1.898084E+05 -2.663798E+04 -4.757799E+04
       175   9 -2.796861E+05 -2.015370E+05 -1.228111E+05  2.176825E+05  1.909355E+04 -5.599279E+04
       175  10  1.843495E+06  3.506443E+05  3.355758E+05  2.547689E+05  1.004026E-09 -3.189681E-10
       175  11  1.675757E+06  2.671631E+05  2.166606E+05  2.268872E+05 -5.312907E-10 -1.441315E-09
       175  12  1.525285E+06  2.143882E+05  1.531069E+05  2.224896E+05 -2.482864E-10 -1.213388E-09
       175  13  6.222676E+05  5.022387E+04  5.309266E+04  2.200609E+05  1.992929E-10 -2.287867E-11
       175  14  6.188583E+05  1.813117E+04  2.708772E+04  2.083312E+05  9.355308E-11 -9.584277E-10
       175  15  6.223917E+05  6.443477E+03  1.515341E+04  2.200848E+05  3.357064E-10 -3.482351E-10
       175  16 -5.975826E+05 -2.502967E+05 -2.294895E+05  1.854210E+05 -1.113988E-09 -4.077621E-11
       175  17 -4.369535E+05 -2.309616E+05 -1.625280E+05  1.898074E+05 -1.640392E-11 -1.361292E-09
       175  18 -2.796873E+05 -2.015404E+05 -1.228177E+05  2.176834E+05  3.921212E-10 -1.603884E-09
       175  19  1.843518E+06  3.506503E+05  3.356166E+05  2.547672E+05 -1.468802E+05  1.425509E+04
       175  20  1.675764E+06  2.671670E+05  2.166750E+05  2.268844E+05 -7.348637E+04  4.750791E+04
       175  21  1.525286E+06  2.143916E+05  1.531128E+05  2.224896E+05 -1.196232E+02  5.599015E+04
       175  22  6.222691E+05  5.022446E+04  5.309564E+04  2.200604E+05 -3.715598E+04  1.431119E+04
       175  23  6.188595E+05  1.813374E+04  2.709299E+04  2.083303E+05 -2.338285E+04  4.754442E+04
       175  24  6.223926E+05  6.446869E+03  1.515948E+04  2.200844E+05 -9.613210E+03  5.599143E+04
       175  25 -5.975769E+05 -2.502950E+05 -2.294792E+05  1.854219E+05  7.235459E+04  1.435514E+04
       175  26 -4.369521E+05 -2.309589E+05 -1.625224E+05  1.898084E+05  2.663798E+04  4.757799E+04
       175  27 -2.796861E+05 -2.015370E+05 -1.228111E+05  2.176825E+05 -1.909355E+04  5.599279E+04
       176   1  1.424201E+06  1.888770E+05  1.301481E+05  2.236896E+05 -3.879204E+03 -5.254200E+04
       176   2  1.264150E+06  1.480627E+05  9.602763E+04  2.095076E+05 -1.532848E+04 -4.617584E+04
       176   3  1.106522E+06  1.109096E+05  7.026300E+04  2.206435E+05 -2.677936E+04 -3.659995E+04
       176   4  6.211166E+05  4.760670E+03  1.171037E+04  2.204924E+05  7.583366E+03 -5.253999E+04
       176   5  6.206199E+05  1.781484E+03  7.452431E+03  2.078344E+05  3.854178E+03 -4.616478E+04
       176   6  6.211874E+05  1.128716E+03  6.200094E+03  2.204955E+05  1.207417E+02 -3.657813E+04
       176   7 -1.813194E+05 -1.793856E+05 -1.067385E+05  2.172993E+05  1.903174E+04 -5.253810E+04
       176   8 -2.248925E+04 -1.445177E+05 -8.112604E+04  2.061627E+05  2.301787E+04 -4.615382E+04
       176   9  1.360947E+05 -1.086617E+05 -5.786180E+04  2.203475E+05  2.700083E+04 -3.655631E+04
       176  10  1.424200E+06  1.888740E+05  1.301429E+05  2.236894E+05 -2.577307E-09 -1.222009E-09
       176  11  1.264149E+06  1.480604E+05  9.602318E+04  2.095071E+05 -8.096062E-10  5.692458E-10
       176  12  1.106521E+06  1.109080E+05  7.025913E+04  2.206427E+05  3.694499E-10  5.661773E-10
       176  13  6.211158E+05  4.757689E+03  1.170508E+04  2.204927E+05 -1.675524E-11 -8.455113E-10
       176  14  6.206193E+05  1.779190E+03  7.448397E+03  2.078345E+05  1.988974E-10  4.382212E-11
       176  15  6.211870E+05  1.127279E+03  6.197579E+03  2.204955E+05 -1.819487E-10 -8.905436E-10
       176  16 -1.813206E+05 -1.793886E+05 -1.067444E+05  2.173001E+05  2.509752E-09 -1.458130E-10
       176  17 -2.249039E+04 -1.445201E+05 -8.113104E+04  2.061636E+05  5.713669E-10  4.251946E-10
       176  18  1.360936E+05 -1.086634E+05 -5.786568E+04  2.203483E+05 -3.793396E-12 -6.040376E-12
       176  19  1.424201E+06  1.888770E+05  1.301481E+05  2.236896E+05  3.879204E+03  5.254200E+04
       176  20  1.264150E+06  1.480627E+05  9.602763E+04  2.095076E+05  1.532848E+04  4.617584E+04
       176  21  1.106522E+06  1.109096E+05  7.026300E+04  2.206435E+05  2.677936E+04  3.659995E+04
       176  22  6.211166E+05  4.760670E+03  1.171037E+04  2.204924E+05 -7.583366E+03  5.253999E+04
       176  23  6.206199E+05  1.781484E+03  7.452431E+03  2.078344E+05 -3.854178E+03  4.616478E+04
       176  24  6.211874E+05  1.128716E+03  6.200094E+03  2.204955E+05 -1.207417E+02  3.657813E+04
       176  25 -1.813194E+05 -1.793856E+05 -1.067385E+05  2.172993E+05 -1.903174E+04  5.253810E+04
       176  26 -2.248925E+04 -1.445177E+05 -8.112604E+04  2.061627E+05 -2.301787E+04  4.615382E+04
       176  27  1.360947E+05 -1.086617E+05 -5.786180E+04  2.203475E+05 -2.700083E+04  3.655631E+04
       177   1  1.008334E+06  8.852954E+04  5.636164E+04  2.209143E+05 -2.801833E+04 -2.990415E+04
       177   2  8.491326E+05  5.335413E+04  3.588306E+04  2.063384E+05 -3.077748E+04 -1.893365E+04
       177   3  6.908956E+05  2.062168E+04  1.780053E+04  2.172417E+05 -3.353716E+04 -8.556257E+03
       177   4  6.212303E+05  1.182077E+03  6.360262E+03  2.205312E+05 -9.386340E+02 -2.988025E+04
       177   5  6.206489E+05  2.193191E+03  8.347531E+03  2.077897E+05 -5.124807E+03 -1.890950E+04
       177   6  6.212532E+05  5.895698E+03  1.371934E+04  2.205275E+05 -9.312133E+03 -8.531998E+03
       177   7  2.342814E+05 -8.617121E+04 -4.363914E+04  2.201483E+05  2.612502E+04 -2.985637E+04
       177   8  3.922206E+05 -4.896942E+04 -1.918546E+04  2.092405E+05  2.051893E+04 -1.888521E+04
       177   9  5.516174E+05 -8.830035E+03  9.640612E+03  2.238128E+05  1.491039E+04 -8.507480E+03
       177  10  1.008333E+06  8.852837E+04  5.635849E+04  2.209136E+05 -7.300758E-10  9.407374E-10
       177  11  8.491315E+05  5.335349E+04  3.588061E+04  2.063379E+05  1.946456E-10  4.598162E-10
       177  12  6.908944E+05  2.062130E+04  1.779829E+04  2.172414E+05  1.599447E-09 -8.562280E-12
       177  13  6.212301E+05  1.181118E+03  6.358583E+03  2.205311E+05 -2.617949E-11 -1.272239E-09
       177  14  6.206488E+05  2.192800E+03  8.346809E+03  2.077896E+05  3.529616E-10  4.709198E-10
       177  15  6.212531E+05  5.895596E+03  1.371904E+04  2.205274E+05  2.537739E-10  1.539305E-09
       177  16  2.342804E+05 -8.617235E+04 -4.364210E+04  2.201489E+05  1.300041E-09  2.788386E-10
       177  17  3.922200E+05 -4.896992E+04 -1.918693E+04  2.092408E+05 -6.550133E-10  8.023037E-10
       177  18  5.516172E+05 -8.830172E+03  9.640059E+03  2.238129E+05 -1.781695E-09 -3.262545E-10
       177  19  1.008334E+06  8.852954E+04  5.636164E+04  2.209143E+05  2.801833E+04  2.990415E+04
       177  20  8.491326E+05  5.335413E+04  3.588306E+04  2.063384E+05  3.077748E+04  1.893365E+04
       177  21  6.908956E+05  2.062168E+04  1.780053E+04  2.172417E+05  3.353716E+04  8.556257E+03
       177  22  6.212303E+05  1.182077E+03  6.360262E+03  2.205312E+05  9.386340E+02  2.988025E+04
       177  23  6.206489E+05  2.193191E+03  8.347531E+03  2.077897E+05  5.124807E+03  1.890950E+04
       177  24  6.212532E+05  5.895698E+03  1.371934E+04  2.205275E+05  9.312133E+03  8.531998E+03
       177  25  2.342814E+05 -8.617121E+04 -4.363914E+04  2.201483E+05 -2.612502E+04  2.985637E+04
       177  26  3.922206E+05 -4.896942E+04 -1.918546E+04  2.092405E+05 -2.051893E+04  1.888521E+04
       177  27  5.516174E+05 -8.830035E+03  9.640612E+03  2.238128E+05 -1.491039E+04  8.507480E+03
       178   1  5.940172E+05  1.488500E+01  6.959413E+03  2.179968E+05 -3.533758E+04 -2.459573E+03
       178   2  4.328013E+05 -2.331717E+04 -8.453538E+03  1.860729E+05 -3.341937E+04  3.553153E+03
       178   3  2.766320E+05 -2.546118E+04 -1.982490E+04  1.790795E+05 -3.149774E+04  1.895618E+03
       178   4  6.228150E+05  7.972802E+03  1.794046E+04  2.204061E+05 -1.169721E+04 -2.435702E+03
       178   5  6.186927E+05  2.205719E+04  3.239705E+04  2.079217E+05 -2.820317E+04  3.557029E+03
       178   6  6.227789E+05  6.052014E+04  6.367587E+04  2.203620E+05 -4.470516E+04  1.880680E+03
       178   7  6.516147E+05  1.593095E+04  2.892352E+04  2.228155E+05  1.194431E+04 -2.411649E+03
       178   8  8.046175E+05  6.743104E+04  7.324589E+04  2.297771E+05 -2.298542E+04  3.561271E+03
       178   9  9.690393E+05  1.464992E+05  1.471696E+05  2.616675E+05 -5.791990E+04  1.863992E+03
       178  10  5.940158E+05  1.454371E+01  6.957057E+03  2.179967E+05  3.144797E-10  2.358354E-10
       178  11  4.328001E+05 -2.331748E+04 -8.455659E+03  1.860730E+05  7.627325E-10  2.180098E-09
       178  12  2.766309E+05 -2.546145E+04 -1.982677E+04  1.790796E+05  6.458678E-10  5.784829E-10
       178  13  6.228148E+05  7.972759E+03  1.794020E+04  2.204061E+05  1.934698E-10  1.771373E-11
       178  14  6.186919E+05  2.205697E+04  3.239553E+04  2.079218E+05  6.586799E-10  2.138297E-09
       178  15  6.227768E+05  6.051960E+04  6.367211E+04  2.203620E+05 -3.443560E-11 -6.531278E-12
       178  16  6.516145E+05  1.593090E+04  2.892324E+04  2.228155E+05  4.940090E-11 -1.788765E-10
       178  17  8.046170E+05  6.743088E+04  7.324487E+04  2.297771E+05 -6.763838E-10  2.740444E-10
       178  18  9.690357E+05  1.464983E+05  1.471633E+05  2.616675E+05 -6.021054E-10 -4.073693E-10
       178  19  5.940172E+05  1.488500E+01  6.959413E+03  2.179968E+05  3.533758E+04  2.459573E+03
       178  20  4.328013E+05 -2.331717E+04 -8.453538E+03  1.860729E+05  3.341937E+04 -3.553153E+03
       178  21  2.766320E+05 -2.546118E+04 -1.982490E+04  1.790795E+05  3.149774E+04 -1.895618E+03
       178  22  6.228150E+05  7.972802E+03  1.794046E+04  2.204061E+05  1.169721E+04  2.435702E+03
       178  23  6.186927E+05  2.205719E+04  3.239705E+04  2.079217E+05  2.820317E+04 -3.557029E+03
       178  24  6.227789E+05  6.052014E+04  6.367587E+04  2.203620E+05  4.470516E+04 -1.880680E+03
       178  25  6.516147E+05  1.593095E+04  2.892352E+04  2.228155E+05 -1.194431E+04  2.411649E+03
       178  26  8.046175E+05  6.743104E+04  7.324589E+04  2.297771E+05  2.298542E+04 -3.561271E+03
       178  27  9.690393E+05  1.464992E+05  1.471696E+05  2.616675E+05  5.791990E+04 -1.863992E+03
       179   1 -9.975354E+04 -7.140528E+04 -1.004927E+05  1.809436E+05 -1.286792E+03 -4.048985E+04
       179   2 -4.493508E+04  4.259100E+04 -4.867103E+04  1.589529E+05 -2.399054E+03 -1.729418E+04
       179   3 -8.977202E+03  1.488666E+05 -1.666768E+04  1.542591E+05  1.544991E+03  5.906523E+03
       179   4 -4.165702E+04  1.626383E+05 -4.397681E+04  1.526393E+05 -1.282858E+03 -3.174202E+04
       179   5 -1.497875E+04  1.654533E+05 -2.169977E+04  1.439871E+05 -2.399426E+03 -2.067918E+04
       179   6 -5.051897E+03  1.626442E+05 -1.081216E+04  1.526341E+05  1.540849E+03 -9.615644E+03
       179   7  1.643856E+04  3.967337E+05  1.253585E+04  1.243243E+05 -1.279722E+03 -2.299091E+04
       179   8  1.497742E+04  2.883302E+05  5.270732E+03  1.290183E+05 -2.399634E+03 -2.406484E+04
       179   9 -1.126476E+03  1.764225E+05 -4.955761E+03  1.510090E+05  1.536787E+03 -2.513818E+04
       179  10 -9.975398E+04 -7.140704E+04 -1.004957E+05  1.809436E+05  4.702136E-11  1.812376E-10
       179  11 -4.493517E+04  4.259068E+04 -4.867161E+04  1.589529E+05  8.558137E-11  2.249404E-11
       179  12 -8.977213E+03  1.488665E+05 -1.666775E+04  1.542591E+05  1.377794E-10 -2.017026E-10
       179  13 -4.165729E+04  1.626372E+05 -4.397870E+04  1.526393E+05 -1.690375E-10  5.176898E-11
       179  14 -1.497887E+04  1.654529E+05 -2.170059E+04  1.439871E+05  1.138960E-10  6.646456E-11
       179  15 -5.051924E+03  1.626441E+05 -1.081234E+04  1.526341E+05  2.998851E-11 -1.587175E-11
       179  16  1.643841E+04  3.967332E+05  1.253485E+04  1.243243E+05  1.352570E-10 -2.171759E-10
       179  17  1.497726E+04  2.883296E+05  5.269634E+03  1.290183E+05 -2.177267E-10 -1.299270E-10
       179  18 -1.126648E+03  1.764219E+05 -4.956952E+03  1.510091E+05 -2.288964E-10  1.507636E-10
       179  19 -9.975354E+04 -7.140528E+04 -1.004927E+05  1.809436E+05  1.286792E+03  4.048985E+04
       179  20 -4.493508E+04  4.259100E+04 -4.867103E+04  1.589529E+05  2.399054E+03  1.729418E+04
       179  21 -8.977202E+03  1.488666E+05 -1.666768E+04  1.542591E+05 -1.544991E+03 -5.906523E+03
       179  22 -4.165702E+04  1.626383E+05 -4.397681E+04  1.526393E+05  1.282858E+03  3.174202E+04
       179  23 -1.497875E+04  1.654533E+05 -2.169977E+04  1.439871E+05  2.399426E+03  2.067918E+04
       179  24 -5.051897E+03  1.626442E+05 -1.081216E+04  1.526341E+05 -1.540849E+03  9.615644E+03
       179  25  1.643856E+04  3.967337E+05  1.253585E+04  1.243243E+05  1.279722E+03  2.299091E+04
       179  26  1.497742E+04  2.883302E+05  5.270732E+03  1.290183E+05  2.399634E+03  2.406484E+04
       179  27 -1.126476E+03  1.764225E+05 -4.955761E+03  1.510090E+05 -1.536787E+03  2.513818E+04
       180   1  8.361316E+03  2.184529E+05 -2.373089E+03  1.549027E+05  5.595153E+03  7.520484E+03
       180   2  3.703332E+04  3.285281E+05  2.105560E+04  1.457061E+05  1.174771E+04  6.293816E+03
       180   3  6.545645E+04  4.387169E+05  4.522004E+04  1.540858E+05  1.702994E+04  5.067400E+03
       180   4 -3.543258E+03  1.638356E+05 -7.285109E+03  1.526958E+05  5.591003E+03 -8.295230E+03
       180   5 -4.271488E+02  1.639593E+05 -1.721339E+03  1.439070E+05  1.174476E+04 -7.433172E+03
       180   6  2.078215E+03  1.638226E+05  3.128412E+03  1.526950E+05  1.702808E+04 -6.570643E+03
       180   7 -1.544777E+04  1.092221E+05 -1.219611E+04  1.504891E+05  5.586965E+03 -2.410964E+04
       180   8 -3.788870E+04 -5.816830E+02 -2.449788E+04  1.421085E+05  1.174190E+04 -2.115668E+04
       180   9 -6.130359E+04 -1.109958E+05 -3.896435E+04  1.513048E+05  1.702626E+04 -1.820373E+04
       180  10  8.361268E+03  2.184528E+05 -2.373254E+03  1.549027E+05  2.366281E-10 -1.208037E-10
       180  11  3.703317E+04  3.285280E+05  2.105526E+04  1.457060E+05  1.189674E-10  1.850661E-11
       180  12  6.545614E+04  4.387168E+05  4.521945E+04  1.540857E+05 -1.377520E-11  2.787553E-10
       180  13 -3.543310E+03  1.638356E+05 -7.285297E+03  1.526958E+05 -7.408296E-11 -2.538718E-11
       180  14 -4.273118E+02  1.639592E+05 -1.721702E+03  1.439071E+05 -3.757578E-10 -4.736349E-12
       180  15  2.077892E+03  1.638225E+05  3.127785E+03  1.526951E+05 -2.339831E-11  2.838211E-11
       180  16 -1.544796E+04  1.092215E+05 -1.219726E+04  1.504892E+05 -2.747835E-10  1.716034E-10
       180  17 -3.788897E+04 -5.822007E+02 -2.449898E+04  1.421087E+05 -1.875015E-10 -5.521093E-11
       180  18 -6.130399E+04 -1.109963E+05 -3.896552E+04  1.513051E+05 -3.135005E-10 -2.995068E-10
       180  19  8.361316E+03  2.184529E+05 -2.373089E+03  1.549027E+05 -5.595153E+03 -7.520484E+03
       180  20  3.703332E+04  3.285281E+05  2.105560E+04  1.457061E+05 -1.174771E+04 -6.293816E+03
       180  21  6.545645E+04  4.387169E+05  4.522004E+04  1.540858E+05 -1.702994E+04 -5.067400E+03
       180  22 -3.543258E+03  1.638356E+05 -7.285109E+03  1.526958E+05 -5.591003E+03  8.295230E+03
       180  23 -4.271488E+02  1.639593E+05 -1.721339E+03  1.439070E+05 -1.174476E+04  7.433172E+03
       180  24  2.078215E+03  1.638226E+05  3.128412E+03  1.526950E+05 -1.702808E+04  6.570643E+03
       180  25 -1.544777E+04  1.092221E+05 -1.219611E+04  1.504891E+05 -5.586965E+03  2.410964E+04
       180  26 -3.788870E+04 -5.816830E+02 -2.449788E+04  1.421085E+05 -1.174190E+04  2.115668E+04
       180  27 -6.130359E+04 -1.109958E+05 -3.896435E+04  1.513048E+05 -1.702626E+04  1.820373E+04
       181   1  8.268114E+04  5.083770E+05  6.013636E+04  1.536019E+05  2.019920E+04  3.565458E+03
       181   2  1.164748E+05  6.143991E+05  9.669786E+04  1.537219E+05  1.887167E+04 -3.112880E+04
       181   3  1.657403E+05  7.288282E+05  1.597043E+05  1.705992E+05  5.936781E+03 -6.583242E+04
       181   4  3.098943E+03  1.646649E+05  5.802797E+03  1.525125E+05  2.019812E+04 -7.197208E+03
       181   5  9.539935E+03  1.628652E+05  1.336001E+04  1.441332E+05  1.887560E+04 -1.400832E+04
       181   6  2.662157E+04  1.646300E+05  2.801299E+04  1.525104E+05  5.942781E+03 -2.082232E+04
       181   7 -7.648905E+04 -1.789294E+05 -4.853329E+04  1.514237E+05  2.019707E+04 -1.795414E+04
       181   8 -9.740605E+04 -2.884703E+05 -6.998517E+04  1.345517E+05  1.887901E+04  3.100035E+03
       181   9 -1.125174E+05 -3.992699E+05 -1.036921E+05  1.344381E+05  5.946167E+03  2.414719E+04
       181  10  8.268070E+04  5.083769E+05  6.013557E+04  1.536018E+05  6.528561E-11  1.437622E-10
       181  11  1.164741E+05  6.143980E+05  9.669537E+04  1.537224E+05 -1.523398E-10 -1.717371E-10
       181  12  1.657391E+05  7.288236E+05  1.596961E+05  1.705995E+05  1.949668E-11  1.509852E-10
       181  13  3.098491E+03  1.646647E+05  5.801933E+03  1.525126E+05 -2.643596E-10  3.100498E-11
       181  14  9.539500E+03  1.628649E+05  1.335898E+04  1.441334E+05  1.283556E-10 -2.719404E-10
       181  15  2.662141E+04  1.646295E+05  2.801211E+04  1.525105E+05 -8.515839E-12  1.831063E-10
       181  16 -7.648958E+04 -1.789299E+05 -4.853466E+04  1.514240E+05 -1.727252E-10 -2.336061E-10
       181  17 -9.740643E+04 -2.884705E+05 -6.998585E+04  1.345516E+05  3.671649E-11  8.314907E-11
       181  18 -1.125176E+05 -3.992706E+05 -1.036933E+05  1.344380E+05 -7.366400E-12 -1.849796E-10
       181  19  8.268114E+04  5.083770E+05  6.013636E+04  1.536019E+05 -2.019920E+04 -3.565458E+03
       181  20  1.164748E+05  6.143991E+05  9.669786E+04  1.537219E+05 -1.887167E+04  3.112880E+04
       181  21  1.657403E+05  7.288282E+05  1.597043E+05  1.705992E+05 -5.936781E+03  6.583242E+04
       181  22  3.098943E+03  1.646649E+05  5.802797E+03  1.525125E+05 -2.019812E+04  7.197208E+03
       181  23  9.539935E+03  1.628652E+05  1.336001E+04  1.441332E+05 -1.887560E+04  1.400832E+04
       181  24  2.662157E+04  1.646300E+05  2.801299E+04  1.525104E+05 -5.942781E+03  2.082232E+04
       181  25 -7.648905E+04 -1.789294E+05 -4.853329E+04  1.514237E+05 -2.019707E+04  1.795414E+04
       181  26 -9.740605E+04 -2.884703E+05 -6.998517E+04  1.345517E+05 -1.887901E+04 -3.100035E+03
       181  27 -1.125174E+05 -3.992699E+05 -1.036921E+05  1.344381E+05 -5.946167E+03 -2.414719E+04
       182   1  8.132867E+05  1.192647E+05  1.136148E+05  1.187866E+05  4.293017E+04 -4.791823E+03
       182   2  7.296267E+05  8.957959E+04  7.184569E+04  1.097960E+05  1.829316E+04 -1.544365E+04
       182   3  6.510198E+05  6.731811E+04  4.795910E+04  1.130856E+05 -6.345698E+03 -1.687436E+04
       182   4  3.655696E+05  8.908117E+03  9.298400E+03  1.125111E+05  6.311149E+03 -4.821709E+03
       182   5  3.649764E+05  3.299240E+03  4.894312E+03  1.063741E+05  3.830335E+03 -1.545667E+04
       182   6  3.655905E+05  1.273495E+03  3.001127E+03  1.125173E+05  1.344449E+03 -1.686823E+04
       182   7 -8.195974E+04 -1.014617E+05 -9.502654E+04  1.062400E+05 -3.028167E+04 -4.850868E+03
       182   8  4.555434E+02 -8.298850E+04 -6.206173E+04  1.029542E+05 -1.062423E+04 -1.546954E+04
       182   9  8.024246E+04 -6.477512E+04 -4.195863E+04  1.119492E+05  9.031194E+03 -1.686212E+04
       182  10  8.132847E+05  1.192642E+05  1.136113E+05  1.187868E+05  2.367986E-09 -7.445763E-10
       182  11  7.296263E+05  8.957924E+04  7.184462E+04  1.097962E+05 -3.730522E-10 -1.007056E-09
       182  12  6.510197E+05  6.731780E+04  4.795849E+04  1.130855E+05 -2.987497E-09 -7.223883E-10
       182  13  3.655696E+05  8.908081E+03  9.298282E+03  1.125111E+05  1.951326E-10  1.411852E-09
       182  14  3.649764E+05  3.298980E+03  4.893835E+03  1.063741E+05  1.574902E-10 -5.604810E-10
       182  15  3.655904E+05  1.273189E+03  3.000589E+03  1.125173E+05  5.441850E-11 -9.442393E-10
       182  16 -8.196073E+04 -1.014620E+05 -9.502831E+04  1.062399E+05 -2.151198E-09  1.943659E-10
       182  17  4.553580E+02 -8.298879E+04 -6.206240E+04  1.029540E+05 -1.378203E-10 -1.203772E-09
       182  18  8.024229E+04 -6.477545E+04 -4.195932E+04  1.119493E+05  2.884273E-09 -1.088804E-09
       182  19  8.132867E+05  1.192647E+05  1.136148E+05  1.187866E+05 -4.293017E+04  4.791823E+03
       182  20  7.296267E+05  8.957959E+04  7.184569E+04  1.097960E+05 -1.829316E+04  1.544365E+04
       182  21  6.510198E+05  6.731811E+04  4.795910E+04  1.130856E+05  6.345698E+03  1.687436E+04
       182  22  3.655696E+05  8.908117E+03  9.298400E+03  1.125111E+05 -6.311149E+03  4.821709E+03
       182  23  3.649764E+05  3.299240E+03  4.894312E+03  1.063741E+05 -3.830335E+03  1.545667E+04
       182  24  3.655905E+05  1.273495E+03  3.001127E+03  1.125173E+05 -1.344449E+03  1.686823E+04
       182  25 -8.195974E+04 -1.014617E+05 -9.502654E+04  1.062400E+05  3.028167E+04  4.850868E+03
       182  26  4.555434E+02 -8.298850E+04 -6.206173E+04  1.029542E+05  1.062423E+04  1.546954E+04
       182  27  8.024246E+04 -6.477512E+04 -4.195863E+04  1.119492E+05 -9.031194E+03  1.686212E+04
       183   1  6.001481E+05  5.508550E+04  3.841746E+04  1.133632E+05 -7.500834E+03 -1.458089E+04
       183   2  5.187322E+05  3.555445E+04  2.410610E+04  1.065277E+05 -1.126939E+04 -1.052333E+04
       183   3  4.380447E+05  1.703578E+04  1.249346E+04  1.126524E+05 -1.503864E+04 -5.351468E+03
       183   4  3.653842E+05  9.805441E+02  2.531086E+03  1.126682E+05  9.142356E+02 -1.457375E+04
       183   5  3.652597E+05  4.906610E+02  2.183755E+03  1.061882E+05 -1.784043E+02 -1.051331E+04
       183   6  3.653927E+05  5.492086E+02  2.677924E+03  1.126686E+05 -1.272183E+03 -5.338441E+03
       183   7  1.306756E+05 -5.312703E+04 -3.335621E+04  1.119734E+05  9.326249E+03 -1.456662E+04
       183   8  2.118112E+05 -3.457413E+04 -1.973848E+04  1.058488E+05  1.090996E+04 -1.050331E+04
       183   9  2.927465E+05 -1.593749E+04 -7.136949E+03  1.126848E+05  1.249273E+04 -5.325412E+03
       183  10  6.001480E+05  5.508526E+04  3.841695E+04  1.133631E+05 -1.830691E-09  1.046973E-09
       183  11  5.187321E+05  3.555430E+04  2.410565E+04  1.065277E+05 -1.969940E-09  4.656563E-11
       183  12  4.380444E+05  1.703569E+04  1.249298E+04  1.126523E+05 -2.047699E-09  3.948383E-10
       183  13  3.653841E+05  9.803158E+02  2.530685E+03  1.126682E+05 -6.732461E-11 -1.478828E-10
       183  14  3.652597E+05  4.905423E+02  2.183547E+03  1.061882E+05  1.634812E-10  4.299882E-10
       183  15  3.653927E+05  5.491776E+02  2.677867E+03  1.126686E+05  5.505449E-11  2.442224E-10
       183  16  1.306754E+05 -5.312728E+04 -3.335677E+04  1.119735E+05  2.251263E-09  2.303985E-10
       183  17  2.118110E+05 -3.457428E+04 -1.973891E+04  1.058489E+05  1.149230E-09 -2.501587E-09
       183  18  2.927463E+05 -1.593756E+04 -7.137296E+03  1.126848E+05  1.970994E-09 -7.702747E-10
       183  19  6.001481E+05  5.508550E+04  3.841746E+04  1.133632E+05  7.500834E+03  1.458089E+04
       183  20  5.187322E+05  3.555445E+04  2.410610E+04  1.065277E+05  1.126939E+04  1.052333E+04
       183  21  4.380447E+05  1.703578E+04  1.249346E+04  1.126524E+05  1.503864E+04  5.351468E+03
       183  22  3.653842E+05  9.805441E+02  2.531086E+03  1.126682E+05 -9.142356E+02  1.457375E+04
       183  23  3.652597E+05  4.906610E+02  2.183755E+03  1.061882E+05  1.784043E+02  1.051331E+04
       183  24  3.653927E+05  5.492086E+02  2.677924E+03  1.126686E+05  1.272183E+03  5.338441E+03
       183  25  1.306756E+05 -5.312703E+04 -3.335621E+04  1.119734E+05 -9.326249E+03  1.456662E+04
       183  26  2.118112E+05 -3.457413E+04 -1.973848E+04  1.058488E+05 -1.090996E+04  1.050331E+04
       183  27  2.927465E+05 -1.593749E+04 -7.136949E+03  1.126848E+05 -1.249273E+04  5.325412E+03
       184   1  3.880266E+05  5.673889E+03  5.867442E+03  1.127574E+05 -1.555691E+04 -1.930780E+03
       184   2  3.067746E+05 -1.202552E+04 -3.995048E+03  1.050037E+05 -1.620360E+04  3.395897E+03
       184   3  2.259604E+05 -2.824910E+04 -1.307451E+04  1.102284E+05 -1.684950E+04  7.893881E+03
       184   4  3.655085E+05  6.453902E+02  3.233624E+03  1.126727E+05 -1.771172E+03 -1.917625E+03
       184   5  3.651190E+05  1.491655E+03  5.255603E+03  1.061821E+05 -4.408665E+03  3.406947E+03
       184   6  3.655044E+05  4.158891E+03  9.441404E+03  1.126695E+05 -7.045421E+03  7.902864E+03
       184   7  3.429914E+05 -4.383026E+03  6.005219E+02  1.125880E+05  1.201410E+04 -1.904473E+03
       184   8  4.234671E+05  1.500874E+04  1.450669E+04  1.073606E+05  7.387336E+03  3.418042E+03
       184   9  5.050680E+05  3.656597E+04  3.195716E+04  1.151113E+05  2.760783E+03  7.911923E+03
       184  10  3.880263E+05  5.673820E+03  5.866981E+03  1.127573E+05 -6.999436E-08  9.632848E-10
       184  11  3.067743E+05 -1.202560E+04 -3.995563E+03  1.050037E+05  2.615712E-11 -1.076582E-09
       184  12  2.259600E+05 -2.824925E+04 -1.307516E+04  1.102285E+05  7.104882E-08  5.906982E-10
       184  13  3.655085E+05  6.453854E+02  3.233611E+03  1.126727E+05 -1.163613E-11  5.029777E-10
       184  14  3.651190E+05  1.491637E+03  5.255545E+03  1.061821E+05  2.485934E-10 -4.207383E-10
       184  15  3.655043E+05  4.158810E+03  9.441194E+03  1.126696E+05 -8.891534E-11 -5.542445E-10
       184  16  3.429912E+05 -4.383068E+03  6.002440E+02  1.125880E+05  7.047663E-08 -2.982517E-10
       184  17  4.234671E+05  1.500872E+04  1.450657E+04  1.073606E+05 -8.906888E-10 -1.100103E-09
       184  18  5.050680E+05  3.656590E+04  3.195702E+04  1.151113E+05 -7.125351E-08 -3.403102E-09
       184  19  3.880266E+05  5.673889E+03  5.867442E+03  1.127574E+05  1.555691E+04  1.930780E+03
       184  20  3.067746E+05 -1.202552E+04 -3.995048E+03  1.050037E+05  1.620360E+04 -3.395897E+03
       184  21  2.259604E+05 -2.824910E+04 -1.307451E+04  1.102284E+05  1.684950E+04 -7.893881E+03
       184  22  3.655085E+05  6.453902E+02  3.233624E+03  1.126727E+05  1.771172E+03  1.917625E+03
       184  23  3.651190E+05  1.491655E+03  5.255603E+03  1.061821E+05  4.408665E+03 -3.406947E+03
       184  24  3.655044E+05  4.158891E+03  9.441404E+03  1.126695E+05  7.045421E+03 -7.902864E+03
       184  25  3.429914E+05 -4.383026E+03  6.005219E+02  1.125880E+05 -1.201410E+04  1.904473E+03
       184  26  4.234671E+05  1.500874E+04  1.450669E+04  1.073606E+05 -7.387336E+03 -3.418042E+03
       184  27  5.050680E+05  3.656597E+04  3.195716E+04  1.151113E+05 -2.760783E+03 -7.911923E+03
       185   1  1.765846E+05 -3.857818E+04 -1.852042E+04  1.107415E+05 -1.792161E+04  1.047674E+04
       185   2  9.410564E+04 -4.831333E+04 -2.760233E+04  9.057757E+04 -1.204090E+04  1.065047E+04
       185   3  1.445946E+04 -4.361444E+04 -3.690732E+04  8.284692E+04 -6.156149E+03  3.468250E+03
       185   4  3.666380E+05  5.645400E+03  1.258265E+04  1.125494E+05 -8.693119E+03  1.048495E+04
       185   5  3.636828E+05  1.576539E+04  2.312303E+04  1.063177E+05 -2.047104E+04  1.064229E+04
       185   6  3.666165E+05  4.338013E+04  4.569788E+04  1.125176E+05 -3.224463E+04  3.445435E+03
       185   7  5.567273E+05  4.986719E+04  4.368500E+04  1.143579E+05  5.380964E+02  1.049321E+04
       185   8  6.333308E+05  7.984084E+04  7.384561E+04  1.220648E+05 -2.890475E+04  1.063369E+04
       185   9  7.188910E+05  1.303695E+05  1.282976E+05  1.422052E+05 -5.834781E+04  3.420136E+03
       185  10  1.765843E+05 -3.857839E+04 -1.852123E+04  1.107417E+05 -1.098625E-09  5.713919E-10
       185  11  9.410546E+04 -4.831349E+04 -2.760281E+04  9.057767E+04 -1.241098E-10 -4.791830E-10
       185  12  1.445941E+04 -4.361446E+04 -3.690741E+04  8.284694E+04  1.282337E-09 -5.655621E-11
       185  13  3.666379E+05  5.645261E+03  1.258230E+04  1.125495E+05  1.772190E-10  9.064345E-10
       185  14  3.636823E+05  1.576515E+04  2.312203E+04  1.063179E+05 -1.615454E-10 -1.377305E-09
       185  15  3.666154E+05  4.337984E+04  4.569590E+04  1.125177E+05  2.377428E-10  4.726712E-10
       185  16  5.567272E+05  4.986707E+04  4.368479E+04  1.143579E+05  1.736773E-09 -6.049468E-10
       185  17  6.333298E+05  7.984050E+04  7.384383E+04  1.220651E+05 -3.172194E-10  9.087025E-10
       185  18  7.188874E+05  1.303686E+05  1.282912E+05  1.422053E+05 -1.317524E-09  3.459585E-11
       185  19  1.765846E+05 -3.857818E+04 -1.852042E+04  1.107415E+05  1.792161E+04 -1.047674E+04
       185  20  9.410564E+04 -4.831333E+04 -2.760233E+04  9.057757E+04  1.204090E+04 -1.065047E+04
       185  21  1.445946E+04 -4.361444E+04 -3.690732E+04  8.284692E+04  6.156149E+03 -3.468250E+03
       185  22  3.666380E+05  5.645400E+03  1.258265E+04  1.125494E+05  8.693119E+03 -1.048495E+04
       185  23  3.636828E+05  1.576539E+04  2.312303E+04  1.063177E+05  2.047104E+04 -1.064229E+04
       185  24  3.666165E+05  4.338013E+04  4.569788E+04  1.125176E+05  3.224463E+04 -3.445435E+03
       185  25  5.567273E+05  4.986719E+04  4.368500E+04  1.143579E+05 -5.380964E+02 -1.049321E+04
       185  26  6.333308E+05  7.984084E+04  7.384561E+04  1.220648E+05  2.890475E+04 -1.063369E+04
       185  27  7.188910E+05  1.303695E+05  1.282976E+05  1.422052E+05  5.834781E+04 -3.420136E+03
       186   1 -2.689283E+05 -8.311013E+05 -2.626867E+05  3.090819E+05 -7.948585E+03 -1.111287E+05
       186   2 -1.715405E+05 -6.336980E+05 -1.526354E+05  2.724373E+05 -2.446347E+04 -5.219309E+04
       186   3 -1.089569E+05 -4.525875E+05 -8.968455E+04  2.648310E+05 -2.418828E+04  6.775215E+03
       186   4 -6.901190E+04 -2.202137E+04 -7.274161E+04  2.621229E+05 -7.948284E+03 -5.144143E+04
       186   5 -2.502130E+04 -1.732192E+04 -3.670282E+04  2.476066E+05 -2.446090E+04 -3.274164E+04
       186   6 -8.823132E+03 -2.194320E+04 -1.978522E+04  2.621341E+05 -2.418696E+04 -1.402956E+04
       186   7  1.308681E+05  7.876742E+05  1.171732E+05  2.151022E+05 -7.957035E+03  8.323280E+03
       186   8  1.214784E+05  5.994237E+05  7.921491E+04  2.227506E+05 -2.445989E+04 -1.327133E+04
       186   9  9.130152E+04  4.088861E+05  5.011059E+04  2.594353E+05 -2.418545E+04 -3.484827E+04
       186  10 -2.689317E+05 -8.311146E+05 -2.627101E+05  3.090812E+05  1.577418E-11  5.771085E-10
       186  11 -1.715419E+05 -6.337011E+05 -1.526416E+05  2.724363E+05 -1.201305E-10  1.040282E-09
       186  12 -1.089576E+05 -4.525877E+05 -8.968573E+04  2.648311E+05 -1.472445E-10  7.551288E-10
       186  13 -6.901268E+04 -2.202423E+04 -7.274670E+04  2.621226E+05 -9.504299E-11 -1.517330E-09
       186  14 -2.502223E+04 -1.732323E+04 -3.670596E+04  2.476060E+05  6.848449E-11  1.006947E-09
       186  15 -8.823813E+03 -2.194357E+04 -1.978669E+04  2.621338E+05  3.911091E-11  6.283151E-10
       186  16  1.308680E+05  7.876741E+05  1.171730E+05  2.151023E+05 -6.891549E-11  5.485216E-10
       186  17  1.214777E+05  5.994233E+05  7.921345E+04  2.227504E+05  2.691665E-10 -6.446531E-10
       186  18  9.130056E+04  4.088846E+05  5.010721E+04  2.594346E+05  2.641034E-10 -3.488575E-10
       186  19 -2.689283E+05 -8.311013E+05 -2.626867E+05  3.090819E+05  7.948585E+03  1.111287E+05
       186  20 -1.715405E+05 -6.336980E+05 -1.526354E+05  2.724373E+05  2.446347E+04  5.219309E+04
       186  21 -1.089569E+05 -4.525875E+05 -8.968455E+04  2.648310E+05  2.418828E+04 -6.775215E+03
       186  22 -6.901190E+04 -2.202137E+04 -7.274161E+04  2.621229E+05  7.948284E+03  5.144143E+04
       186  23 -2.502130E+04 -1.732192E+04 -3.670282E+04  2.476066E+05  2.446090E+04  3.274164E+04
       186  24 -8.823132E+03 -2.194320E+04 -1.978522E+04  2.621341E+05  2.418696E+04  1.402956E+04
       186  25  1.308681E+05  7.876742E+05  1.171732E+05  2.151022E+05  7.957035E+03 -8.323280E+03
       186  26  1.214784E+05  5.994237E+05  7.921491E+04  2.227506E+05  2.445989E+04  1.327133E+04
       186  27  9.130152E+04  4.088861E+05  5.011059E+04  2.594353E+05  2.418545E+04  3.484827E+04
       187   1 -7.888499E+04 -3.327700E+05 -6.427106E+04  2.661232E+05 -1.831072E+04  1.055807E+04
       187   2 -3.022293E+04 -1.428450E+05 -2.485459E+04  2.491133E+05 -8.806046E+03  1.602588E+04
       187   3  1.537549E+04  4.567510E+04  1.024227E+04  2.623115E+05  1.350696E+03  2.149489E+04
       187   4 -6.426423E+03 -2.011550E+04 -1.470075E+04  2.623910E+05 -1.831075E+04 -1.146558E+04
       187   5 -2.141593E+03 -1.952394E+04 -7.781762E+03  2.472871E+05 -8.806911E+03 -7.563550E+03
       187   6 -6.462872E+02 -2.009960E+04 -4.093786E+03  2.623915E+05  1.348940E+03 -3.661865E+03
       187   7  6.602759E+04  2.926374E+05  3.486891E+04  2.586567E+05 -1.831052E+04 -3.349993E+04
       187   8  2.593938E+04  1.038138E+05  9.292984E+03  2.454604E+05 -8.807637E+03 -3.115746E+04
       187   9 -1.666801E+04 -8.586888E+04 -1.842773E+04  2.624714E+05  1.347177E+03 -2.881599E+04
       187  10 -7.888538E+04 -3.327702E+05 -6.427190E+04  2.661234E+05 -2.773856E-10  5.016580E-12
       187  11 -3.022308E+04 -1.428453E+05 -2.485522E+04  2.491134E+05 -3.920388E-10  8.017491E-10
       187  12  1.537536E+04  4.567460E+04  1.024140E+04  2.623115E+05 -3.067955E-10  1.031225E-09
       187  13 -6.426818E+03 -2.011573E+04 -1.470163E+04  2.623908E+05  8.045395E-11 -8.467214E-10
       187  14 -2.141691E+03 -1.952402E+04 -7.782015E+03  2.472870E+05 -1.813835E-10  6.752663E-10
       187  15 -6.462928E+02 -2.009961E+04 -4.093814E+03  2.623915E+05 -1.462961E-10  4.825943E-10
       187  16  6.602693E+04  2.926361E+05  3.486617E+04  2.586563E+05  2.932168E-10  7.621145E-10
       187  17  2.593904E+04  1.038127E+05  9.291014E+03  2.454602E+05 -6.461096E-11 -5.024398E-10
       187  18 -1.666824E+04 -8.586978E+04 -1.842929E+04  2.624715E+05  1.120261E-10 -6.711333E-10
       187  19 -7.888499E+04 -3.327700E+05 -6.427106E+04  2.661232E+05  1.831072E+04 -1.055807E+04
       187  20 -3.022293E+04 -1.428450E+05 -2.485459E+04  2.491133E+05  8.806046E+03 -1.602588E+04
       187  21  1.537549E+04  4.567510E+04  1.024227E+04  2.623115E+05 -1.350696E+03 -2.149489E+04
       187  22 -6.426423E+03 -2.011550E+04 -1.470075E+04  2.623910E+05  1.831075E+04  1.146558E+04
       187  23 -2.141593E+03 -1.952394E+04 -7.781762E+03  2.472871E+05  8.806911E+03  7.563550E+03
       187  24 -6.462872E+02 -2.009960E+04 -4.093786E+03  2.623915E+05 -1.348940E+03  3.661865E+03
       187  25  6.602759E+04  2.926374E+05  3.486891E+04  2.586567E+05  1.831052E+04  3.349993E+04
       187  26  2.593938E+04  1.038138E+05  9.292984E+03  2.454604E+05  8.807637E+03  3.115746E+04
       187  27 -1.666801E+04 -8.586888E+04 -1.842773E+04  2.624714E+05 -1.347177E+03  2.881599E+04
       188   1  4.297269E+04  1.636746E+05  3.069338E+04  2.623013E+05  7.885378E+03  2.129307E+04
       188   2  8.886958E+04  3.505261E+05  7.267826E+04  2.476954E+05  1.210354E+04 -6.702622E+03
       188   3  1.397882E+05  5.423538E+05  1.341460E+05  2.625562E+05  4.456078E+03 -3.471353E+04
       188   4 -4.393768E+02 -1.984509E+04 -2.864385E+03  2.622268E+05  7.884095E+03 -3.079788E+03
       188   5  7.180891E+01 -1.986932E+04 -9.902432E+02  2.474928E+05  1.210413E+04 -2.585835E+03
       188   6  6.637263E+02 -1.989164E+04  5.882272E+02  2.622269E+05  4.455265E+03 -2.098835E+03
       188   7 -4.385303E+04 -2.033308E+05 -3.642128E+04  2.621524E+05  7.882817E+03 -2.744564E+04
       188   8 -8.873433E+04 -3.901336E+05 -7.466552E+04  2.472904E+05  1.210472E+04  1.528548E+03
       188   9 -1.384829E+05 -5.818447E+05 -1.329876E+05  2.618979E+05  4.454422E+03  3.048648E+04
       188  10  4.297250E+04  1.636741E+05  3.069241E+04  2.623012E+05 -3.703519E-10  2.332720E-11
       188  11  8.886941E+04  3.505260E+05  7.267790E+04  2.476955E+05 -4.013351E-10  1.182085E-09
       188  12  1.397878E+05  5.423525E+05  1.341437E+05  2.625563E+05 -2.119163E-10  9.818759E-10
       188  13 -4.394461E+02 -1.984512E+04 -2.864520E+03  2.622268E+05 -2.666095E-10 -6.625475E-10
       188  14  7.164977E+01 -1.986937E+04 -9.905311E+02  2.474929E+05 -2.988983E-10  6.279402E-10
       188  15  6.637038E+02 -1.989165E+04  5.881816E+02  2.622269E+05 -1.631121E-10  6.693347E-10
       188  16 -4.385330E+04 -2.033316E+05 -3.642282E+04  2.621525E+05  1.491903E-10  2.784108E-10
       188  17 -8.873449E+04 -3.901337E+05 -7.466580E+04  2.472903E+05  3.812635E-11 -2.094765E-10
       188  18 -1.384832E+05 -5.818457E+05 -1.329894E+05  2.618978E+05 -1.722770E-10 -7.073204E-10
       188  19  4.297269E+04  1.636746E+05  3.069338E+04  2.623013E+05 -7.885378E+03 -2.129307E+04
       188  20  8.886958E+04  3.505261E+05  7.267826E+04  2.476954E+05 -1.210354E+04  6.702622E+03
       188  21  1.397882E+05  5.423538E+05  1.341460E+05  2.625562E+05 -4.456078E+03  3.471353E+04
       188  22 -4.393768E+02 -1.984509E+04 -2.864385E+03  2.622268E+05 -7.884095E+03  3.079788E+03
       188  23  7.180891E+01 -1.986932E+04 -9.902432E+02  2.474928E+05 -1.210413E+04  2.585835E+03
       188  24  6.637263E+02 -1.989164E+04  5.882272E+02  2.622269E+05 -4.455265E+03  2.098835E+03
       188  25 -4.385303E+04 -2.033308E+05 -3.642128E+04  2.621524E+05 -7.882817E+03  2.744564E+04
       188  26 -8.873433E+04 -3.901336E+05 -7.466552E+04  2.472904E+05 -1.210472E+04 -1.528548E+03
       188  27 -1.384829E+05 -5.818447E+05 -1.329876E+05  2.618979E+05 -4.454422E+03 -3.048648E+04
       189   1  4.128619E+05  6.380501E+04  6.097662E+04  7.706231E+04  2.131216E+04 -2.384325E+03
       189   2  3.582751E+05  4.576802E+04  3.729405E+04  7.150734E+04  8.025302E+03 -7.421750E+03
       189   3  3.063916E+05  3.166427E+04  2.324071E+04  7.410348E+04 -5.263500E+03 -7.463478E+03
       189   4  1.731012E+05  4.629468E+03  4.807041E+03  7.381564E+04  3.243685E+03 -2.398801E+03
       189   5  1.727948E+05  1.730224E+03  2.544300E+03  6.974163E+04  1.953485E+03 -7.426891E+03
       189   6  1.731080E+05  6.831278E+02  1.583748E+03  7.381874E+04  6.601218E+02 -7.458654E+03
       189   7 -6.660590E+04 -5.454995E+04 -5.136523E+04  7.057021E+04 -1.481786E+04 -2.413092E+03
       189   8 -1.265214E+04 -4.230953E+04 -3.220679E+04  6.797645E+04 -4.116565E+03 -7.431997E+03
       189   9  3.984209E+04 -3.029890E+04 -2.007357E+04  7.353405E+04  6.582517E+03 -7.453835E+03
       189  10  4.128614E+05  6.380489E+04  6.097575E+04  7.706235E+04 -2.027115E-09  4.005614E-10
       189  11  3.582750E+05  4.576795E+04  3.729382E+04  7.150739E+04 -5.733392E-10  1.653855E-09
       189  12  3.063916E+05  3.166421E+04  2.324055E+04  7.410344E+04  7.028898E-10  3.451319E-10
       189  13  1.731011E+05  4.629459E+03  4.807010E+03  7.381564E+04 -9.033591E-11 -1.083599E-09
       189  14  1.727948E+05  1.730164E+03  2.544189E+03  6.974164E+04 -1.493004E-10 -3.214570E-09
       189  15  1.731080E+05  6.830680E+02  1.583643E+03  7.381874E+04 -7.406109E-11  2.493786E-10
       189  16 -6.660614E+04 -5.455001E+04 -5.136565E+04  7.057019E+04  2.172667E-09 -6.592437E-10
       189  17 -1.265218E+04 -4.230960E+04 -3.220693E+04  6.797642E+04 -1.867859E-10  9.864270E-10
       189  18  3.984203E+04 -3.029897E+04 -2.007376E+04  7.353409E+04 -8.702762E-10  1.598305E-11
       189  19  4.128619E+05  6.380501E+04  6.097662E+04  7.706231E+04 -2.131216E+04  2.384325E+03
       189  20  3.582751E+05  4.576802E+04  3.729405E+04  7.150734E+04 -8.025302E+03  7.421750E+03
       189  21  3.063916E+05  3.166427E+04  2.324071E+04  7.410348E+04  5.263500E+03  7.463478E+03
       189  22  1.731012E+05  4.629468E+03  4.807041E+03  7.381564E+04 -3.243685E+03  2.398801E+03
       189  23  1.727948E+05  1.730224E+03  2.544300E+03  6.974163E+04 -1.953485E+03  7.426891E+03
       189  24  1.731080E+05  6.831278E+02  1.583748E+03  7.381874E+04 -6.601218E+02  7.458654E+03
       189  25 -6.660590E+04 -5.454995E+04 -5.136523E+04  7.057021E+04  1.481786E+04  2.413092E+03
       189  26 -1.265214E+04 -4.230953E+04 -3.220679E+04  6.797645E+04  4.116565E+03  7.431997E+03
       189  27  3.984209E+04 -3.029890E+04 -2.007357E+04  7.353405E+04 -6.582517E+03  7.453835E+03
       190   1  2.731101E+05  2.374269E+04  1.732981E+04  7.424733E+04 -5.883076E+03 -5.793370E+03
       190   2  2.197226E+05  1.107436E+04  8.416193E+03  6.979369E+04 -7.856748E+03 -2.880383E+03
       190   3  1.667144E+05 -1.059112E+03  9.166469E+02  7.385893E+04 -9.830697E+03  6.021475E+02
       190   4  1.730025E+05  5.304826E+02  1.353551E+03  7.390034E+04  4.306547E+02 -5.788100E+03
       190   5  1.729342E+05  2.776378E+02  1.211735E+03  6.964097E+04 -1.759720E+02 -2.873868E+03
       190   6  1.730041E+05  3.222866E+02  1.534567E+03  7.390051E+04 -7.830529E+02  6.099291E+02
       190   7  7.290487E+04 -2.268221E+04 -1.462282E+04  7.355341E+04  6.743405E+03 -5.782837E+03
       190   8  1.261480E+05 -1.051916E+04 -5.992550E+03  6.948826E+04  7.504247E+03 -2.867356E+03
       190   9  1.792941E+05  1.703728E+03  2.152796E+03  7.394209E+04  8.264677E+03  6.177118E+02
       190  10  2.731100E+05  2.374265E+04  1.732968E+04  7.424731E+04 -1.785802E-10 -4.067486E-10
       190  11  2.197226E+05  1.107433E+04  8.416061E+03  6.979367E+04  2.966683E-10  1.111254E-09
       190  12  1.667143E+05 -1.059139E+03  9.164646E+02  7.385893E+04  1.110172E-09  2.482555E-09
       190  13  1.730024E+05  5.304465E+02  1.353487E+03  7.390035E+04  1.132902E-10  3.015465E-09
       190  14  1.729342E+05  2.776290E+02  1.211720E+03  6.964097E+04 -2.073423E-10 -4.831808E-09
       190  15  1.730041E+05  3.222860E+02  1.534565E+03  7.390051E+04  2.211827E-10  2.900608E-09
       190  16  7.290482E+04 -2.268225E+04 -1.462296E+04  7.355344E+04  2.656049E-10 -1.776952E-09
       190  17  1.261480E+05 -1.051918E+04 -5.992671E+03  6.948827E+04 -8.279645E-10 -5.003380E-10
       190  18  1.792940E+05  1.703709E+03  2.152667E+03  7.394208E+04 -7.896057E-10  1.346267E-09
       190  19  2.731101E+05  2.374269E+04  1.732981E+04  7.424733E+04  5.883076E+03  5.793370E+03
       190  20  2.197226E+05  1.107436E+04  8.416193E+03  6.979369E+04  7.856748E+03  2.880383E+03
       190  21  1.667144E+05 -1.059112E+03  9.166469E+02  7.385893E+04  9.830697E+03 -6.021475E+02
       190  22  1.730025E+05  5.304826E+02  1.353551E+03  7.390034E+04 -4.306547E+02  5.788100E+03
       190  23  1.729342E+05  2.776378E+02  1.211735E+03  6.964097E+04  1.759720E+02  2.873868E+03
       190  24  1.730041E+05  3.222866E+02  1.534567E+03  7.390051E+04  7.830529E+02 -6.099291E+02
       190  25  7.290487E+04 -2.268221E+04 -1.462282E+04  7.355341E+04 -6.743405E+03  5.782837E+03
       190  26  1.261480E+05 -1.051916E+04 -5.992550E+03  6.948826E+04 -7.504247E+03  2.867356E+03
       190  27  1.792941E+05  1.703728E+03  2.152796E+03  7.394209E+04 -8.264677E+03 -6.177118E+02
       191   1  1.338747E+05 -8.525902E+03 -3.461938E+03  7.391420E+04 -1.010843E+04  2.848382E+03
       191   2  8.059998E+04 -2.022173E+04 -1.018712E+04  6.891624E+04 -9.955948E+03  6.260721E+03
       191   3  2.748683E+04 -3.114222E+04 -1.682237E+04  7.242798E+04 -9.802852E+03  8.966721E+03
       191   4  1.730740E+05  3.792966E+02  1.871808E+03  7.389851E+04 -1.070608E+03  2.856123E+03
       191   5  1.728453E+05  8.786409E+02  3.075499E+03  6.964289E+04 -2.613982E+03  6.266808E+03
       191   6  1.730704E+05  2.447884E+03  5.546526E+03  7.389681E+04 -4.156751E+03  8.971209E+03
       191   7  2.122749E+05  9.284473E+03  7.205845E+03  7.388282E+04  7.967755E+03  2.863863E+03
       191   8  2.650993E+05  2.197866E+04  1.633819E+04  7.036965E+04  4.729028E+03  6.272911E+03
       191   9  3.186752E+05  3.603699E+04  2.791508E+04  7.536600E+04  1.490623E+03  8.975723E+03
       191  10  1.338746E+05 -8.525938E+03 -3.462145E+03  7.391422E+04  3.435659E-09 -1.110426E-09
       191  11  8.059987E+04 -2.022180E+04 -1.018738E+04  6.891629E+04  9.715816E-10 -2.365034E-09
       191  12  2.748670E+04 -3.114233E+04 -1.682270E+04  7.242805E+04 -1.095303E-09 -1.935544E-09
       191  13  1.730740E+05  3.792875E+02  1.871790E+03  7.389851E+04 -3.569791E-11  1.077496E-09
       191  14  1.728453E+05  8.785969E+02  3.075412E+03  6.964290E+04  6.992623E-11 -2.221654E-09
       191  15  1.730703E+05  2.447793E+03  5.546343E+03  7.389684E+04 -1.075575E-10 -1.045675E-09
       191  16  2.122749E+05  9.284447E+03  7.205710E+03  7.388280E+04 -3.250332E-09 -5.811590E-10
       191  17  2.650993E+05  2.197861E+04  1.633808E+04  7.036962E+04 -1.511569E-09  6.555227E-10
       191  18  3.186752E+05  3.603690E+04  2.791492E+04  7.536599E+04  1.202751E-09  7.582854E-10
       191  19  1.338747E+05 -8.525902E+03 -3.461938E+03  7.391420E+04  1.010843E+04 -2.848382E+03
       191  20  8.059998E+04 -2.022173E+04 -1.018712E+04  6.891624E+04  9.955948E+03 -6.260721E+03
       191  21  2.748683E+04 -3.114222E+04 -1.682237E+04  7.242798E+04  9.802852E+03 -8.966721E+03
       191  22  1.730740E+05  3.792966E+02  1.871808E+03  7.389851E+04  1.070608E+03 -2.856123E+03
       191  23  1.728453E+05  8.786409E+02  3.075499E+03  6.964289E+04  2.613982E+03 -6.266808E+03
       191  24  1.730704E+05  2.447884E+03  5.546526E+03  7.389681E+04  4.156751E+03 -8.971209E+03
       191  25  2.122749E+05  9.284473E+03  7.205845E+03  7.388282E+04 -7.967755E+03 -2.863863E+03
       191  26  2.650993E+05  2.197866E+04  1.633819E+04  7.036965E+04 -4.729028E+03 -6.272911E+03
       191  27  3.186752E+05  3.603699E+04  2.791508E+04  7.536600E+04 -1.490623E+03 -8.975723E+03
       192   1 -5.076698E+03 -3.809583E+04 -2.088398E+04  7.270454E+04 -1.030768E+04  1.049902E+04
       192   2 -5.880687E+04 -4.539876E+04 -2.890465E+04  6.046158E+04 -3.100418E+03  9.720371E+03
       192   3 -1.115206E+05 -4.485519E+04 -3.965769E+04  5.629054E+04  4.109819E+03  3.051524E+03
       192   4  1.737379E+05  3.322256E+03  7.397760E+03  7.380013E+04 -5.124470E+03  1.050297E+04
       192   5  1.719997E+05  9.278745E+03  1.360499E+04  6.975599E+04 -1.205334E+04  9.712948E+03
       192   6  1.737279E+05  2.553379E+04  2.689507E+04  7.378303E+04 -1.897869E+04  3.033923E+03
       192   7  3.525845E+05  4.473877E+04  3.567880E+04  7.489603E+04  6.017526E+01  1.050695E+04
       192   8  4.028584E+05  6.395358E+04  5.611277E+04  7.905393E+04 -2.100950E+04  9.705258E+03
       192   9  4.590532E+05  9.591844E+04  9.344448E+04  9.128360E+04 -4.207773E+04  3.015024E+03
       192  10 -5.076842E+03 -3.809598E+04 -2.088439E+04  7.270463E+04  3.240426E-09 -2.722451E-09
       192  11 -5.880690E+04 -4.539886E+04 -2.890485E+04  6.046161E+04 -6.243699E-10 -1.102156E-09
       192  12 -1.115207E+05 -4.485520E+04 -3.965774E+04  5.629053E+04 -4.136235E-09 -1.197598E-09
       192  13  1.737379E+05  3.322130E+03  7.397503E+03  7.380017E+04  3.640672E-11 -1.001100E-09
       192  14  1.719995E+05  9.278605E+03  1.360454E+04  6.975608E+04 -1.237681E-11 -3.380181E-09
       192  15  1.737275E+05  2.553369E+04  2.689438E+04  7.378308E+04 -3.449249E-11 -1.484425E-09
       192  16  3.525844E+05  4.473866E+04  3.567859E+04  7.489603E+04 -3.021581E-09 -1.530464E-09
       192  17  4.028579E+05  6.395336E+04  5.611176E+04  7.905410E+04  2.813619E-10 -7.456156E-10
       192  18  4.590513E+05  9.591795E+04  9.344114E+04  9.128371E+04  4.271663E-09 -6.823754E-10
       192  19 -5.076698E+03 -3.809583E+04 -2.088398E+04  7.270454E+04  1.030768E+04 -1.049902E+04
       192  20 -5.880687E+04 -4.539876E+04 -2.890465E+04  6.046158E+04  3.100418E+03 -9.720371E+03
       192  21 -1.115206E+05 -4.485519E+04 -3.965769E+04  5.629054E+04 -4.109819E+03 -3.051524E+03
       192  22  1.737379E+05  3.322256E+03  7.397760E+03  7.380013E+04  5.124470E+03 -1.050297E+04
       192  23  1.719997E+05  9.278745E+03  1.360499E+04  6.975599E+04  1.205334E+04 -9.712948E+03
       192  24  1.737279E+05  2.553379E+04  2.689507E+04  7.378303E+04  1.897869E+04 -3.033923E+03
       192  25  3.525845E+05  4.473877E+04  3.567880E+04  7.489603E+04 -6.017526E+01 -1.050695E+04
       192  26  4.028584E+05  6.395358E+04  5.611277E+04  7.905393E+04  2.100950E+04 -9.705258E+03
       192  27  4.590532E+05  9.591844E+04  9.344448E+04  9.128360E+04  4.207773E+04 -3.015024E+03
       193   1 -1.937044E+05 -6.779077E+05 -1.891185E+05  2.300059E+05 -5.689572E+03 -7.833298E+04
       193   2 -1.231799E+05 -5.297288E+05 -1.096591E+05  2.036393E+05 -1.742563E+04 -3.586152E+04
       193   3 -7.715490E+04 -3.931474E+05 -6.399256E+04  1.991522E+05 -1.691739E+04  6.630379E+03
       193   4 -4.807074E+04 -8.863345E+04 -5.065053E+04  1.972265E+05 -5.698937E+03 -3.554921E+04
       193   5 -1.747978E+04 -8.535638E+04 -2.576194E+04  1.862927E+05 -1.742729E+04 -2.242967E+04
       193   6 -6.278473E+03 -8.858954E+04 -1.426152E+04  1.972415E+05 -1.691329E+04 -9.300768E+03
       193   7  9.754313E+04  5.009670E+05  8.780106E+04  1.644157E+05 -5.712825E+03  7.274975E+03
       193   8  8.821005E+04  3.592079E+05  5.812732E+04  1.689335E+05 -1.742970E+04 -8.988424E+03
       193   9  6.459336E+04  2.160608E+05  3.546784E+04  1.953298E+05 -1.690909E+04 -2.523946E+04
       193  10 -1.937060E+05 -6.779143E+05 -1.891301E+05  2.300056E+05 -5.683404E-11  3.509005E-10
       193  11 -1.231806E+05 -5.297303E+05 -1.096620E+05  2.036388E+05 -2.046415E-10  3.707499E-10
       193  12 -7.715522E+04 -3.931476E+05 -6.399318E+04  1.991523E+05  9.954152E-11 -5.112037E-10
       193  13 -4.807111E+04 -8.863481E+04 -5.065296E+04  1.972264E+05  1.047151E-10  1.666615E-09
       193  14 -1.748024E+04 -8.535700E+04 -2.576345E+04  1.862924E+05  1.313461E-10 -1.946534E-09
       193  15 -6.278803E+03 -8.858971E+04 -1.426222E+04  1.972414E+05  1.179543E-10  6.065549E-10
       193  16  9.754308E+04  5.009669E+05  8.780090E+04  1.644158E+05  9.220342E-11 -5.473626E-10
       193  17  8.820970E+04  3.592077E+05  5.812660E+04  1.689333E+05  5.139575E-10  1.356202E-10
       193  18  6.459288E+04  2.160601E+05  3.546611E+04  1.953294E+05 -2.699602E-10 -3.238259E-11
       193  19 -1.937044E+05 -6.779077E+05 -1.891185E+05  2.300059E+05  5.689572E+03  7.833298E+04
       193  20 -1.231799E+05 -5.297288E+05 -1.096591E+05  2.036393E+05  1.742563E+04  3.586152E+04
       193  21 -7.715490E+04 -3.931474E+05 -6.399256E+04  1.991522E+05  1.691739E+04 -6.630379E+03
       193  22 -4.807074E+04 -8.863345E+04 -5.065053E+04  1.972265E+05  5.698937E+03  3.554921E+04
       193  23 -1.747978E+04 -8.535638E+04 -2.576194E+04  1.862927E+05  1.742729E+04  2.242967E+04
       193  24 -6.278473E+03 -8.858954E+04 -1.426152E+04  1.972415E+05  1.691329E+04  9.300768E+03
       193  25  9.754313E+04  5.009670E+05  8.780106E+04  1.644157E+05  5.712825E+03 -7.274975E+03
       193  26  8.821005E+04  3.592079E+05  5.812732E+04  1.689335E+05  1.742970E+04  8.988424E+03
       193  27  6.459336E+04  2.160608E+05  3.546784E+04  1.953298E+05  1.690909E+04  2.523946E+04
       194   1 -5.472276E+04 -3.031657E+05 -4.543414E+04  2.000741E+05 -1.244446E+04  9.397183E+03
       194   2 -1.860434E+04 -1.602391E+05 -1.683132E+04  1.870590E+05 -5.243499E+03  1.367529E+04
       194   3  1.495392E+04 -1.845561E+04  8.353165E+03  1.967701E+05  2.345584E+03  1.795423E+04
       194   4 -4.644716E+03 -8.735690E+04 -1.091033E+04  1.974276E+05 -1.244089E+04 -7.417322E+03
       194   5 -1.892282E+03 -8.685288E+04 -6.671005E+03  1.860648E+05 -5.240085E+03 -4.071313E+03
       194   6 -1.536991E+03 -8.734962E+04 -5.202232E+03  1.974285E+05  2.348825E+03 -7.253741E+02
       194   7  4.543117E+04  1.284988E+05  2.361333E+04  1.947801E+05 -1.243718E+04 -2.423746E+04
       194   8  1.481971E+04 -1.346047E+04  3.490437E+03  1.850705E+05 -5.236615E+03 -2.181992E+04
       194   9 -1.802800E+04 -1.562383E+05 -1.875655E+04  1.980868E+05  2.352027E+03 -1.940295E+04
       194  10 -5.472295E+04 -3.031659E+05 -4.543460E+04  2.000742E+05 -1.521211E-11 -2.601413E-10
       194  11 -1.860442E+04 -1.602394E+05 -1.683173E+04  1.870590E+05 -1.583041E-10  6.812378E-11
       194  12  1.495383E+04 -1.845596E+04  8.352549E+03  1.967700E+05  1.167576E-10  3.764822E-10
       194  13 -4.644897E+03 -8.735700E+04 -1.091072E+04  1.974275E+05 -1.576276E-10  8.377133E-10
       194  14 -1.892316E+03 -8.685291E+04 -6.671087E+03  1.860648E+05 -3.443754E-10 -6.811518E-10
       194  15 -1.536997E+03 -8.734962E+04 -5.202243E+03  1.974285E+05 -3.874703E-11  9.448252E-11
       194  16  4.543085E+04  1.284982E+05  2.361194E+04  1.947799E+05 -4.821556E-10  5.130940E-10
       194  17  1.481955E+04 -1.346099E+04  3.489490E+03  1.850704E+05 -6.023029E-10 -4.660542E-10
       194  18 -1.802811E+04 -1.562387E+05 -1.875727E+04  1.980868E+05 -4.279523E-10 -1.101344E-09
       194  19 -5.472276E+04 -3.031657E+05 -4.543414E+04  2.000741E+05  1.244446E+04 -9.397183E+03
       194  20 -1.860434E+04 -1.602391E+05 -1.683132E+04  1.870590E+05  5.243499E+03 -1.367529E+04
       194  21  1.495392E+04 -1.845561E+04  8.353165E+03  1.967701E+05 -2.345584E+03 -1.795423E+04
       194  22 -4.644716E+03 -8.735690E+04 -1.091033E+04  1.974276E+05  1.244089E+04  7.417322E+03
       194  23 -1.892282E+03 -8.685288E+04 -6.671005E+03  1.860648E+05  5.240085E+03  4.071313E+03
       194  24 -1.536991E+03 -8.734962E+04 -5.202232E+03  1.974285E+05 -2.348825E+03  7.253741E+02
       194  25  4.543117E+04  1.284988E+05  2.361333E+04  1.947801E+05  1.243718E+04  2.423746E+04
       194  26  1.481971E+04 -1.346047E+04  3.490437E+03  1.850705E+05  5.236615E+03  2.181992E+04
       194  27 -1.802800E+04 -1.562383E+05 -1.875655E+04  1.980868E+05 -2.352027E+03  1.940295E+04
       195   1  3.534921E+04  7.003462E+04  2.294839E+04  1.968994E+05  7.210276E+03  1.814743E+04
       195   2  6.736351E+04  2.112624E+05  5.220309E+04  1.823721E+05  1.007840E+04 -8.858061E+02
       195   3  9.887085E+04  3.548982E+05  9.372724E+04  1.899784E+05  3.632373E+03 -1.992939E+04
       195   4 -1.771146E+03 -8.746212E+04 -5.155515E+03  1.972972E+05  7.213698E+03  9.163308E+01
       195   5 -3.982115E+03 -8.673102E+04 -6.543170E+03  1.862281E+05  1.007781E+04  3.417764E+03
       195   6 -1.058048E+04 -8.749067E+04 -1.118710E+04  1.972942E+05  3.625484E+03  6.737597E+03
       195   7 -3.889270E+04 -2.449340E+05 -3.325914E+04  1.976949E+05  7.217097E+03 -1.795971E+04
       195   8 -7.533306E+04 -3.846393E+05 -6.529369E+04  1.900823E+05  1.007727E+04  7.719312E+03
       195   9 -1.200453E+05 -5.296982E+05 -1.161124E+05  2.046049E+05  3.619223E+03  3.338569E+04
       195  10  3.534906E+04  7.003425E+04  2.294768E+04  1.968993E+05  1.205028E-10  1.038481E-10
       195  11  6.736340E+04  2.112623E+05  5.220290E+04  1.823721E+05  2.580317E-10  3.477370E-10
       195  12  9.887073E+04  3.548978E+05  9.372646E+04  1.899784E+05  1.055351E-10 -3.712967E-10
       195  13 -1.771202E+03 -8.746214E+04 -5.155613E+03  1.972972E+05  1.522983E-10  1.626935E-09
       195  14 -3.982227E+03 -8.673106E+04 -6.543382E+03  1.862281E+05  1.392917E-10 -1.166923E-09
       195  15 -1.058050E+04 -8.749073E+04 -1.118721E+04  1.972942E+05 -9.354811E-11  9.363737E-10
       195  16 -3.889284E+04 -2.449343E+05 -3.325984E+04  1.976950E+05 -4.477129E-10 -1.459288E-10
       195  17 -7.533318E+04 -3.846394E+05 -6.529399E+04  1.900822E+05 -1.047379E-10 -2.689471E-10
       195  18 -1.200456E+05 -5.296994E+05 -1.161145E+05  2.046048E+05 -5.323962E-11 -7.089390E-10
       195  19  3.534921E+04  7.003462E+04  2.294839E+04  1.968994E+05 -7.210276E+03 -1.814743E+04
       195  20  6.736351E+04  2.112624E+05  5.220309E+04  1.823721E+05 -1.007840E+04  8.858061E+02
       195  21  9.887085E+04  3.548982E+05  9.372724E+04  1.899784E+05 -3.632373E+03  1.992939E+04
       195  22 -1.771146E+03 -8.746212E+04 -5.155515E+03  1.972972E+05 -7.213698E+03 -9.163308E+01
       195  23 -3.982115E+03 -8.673102E+04 -6.543170E+03  1.862281E+05 -1.007781E+04 -3.417764E+03
       195  24 -1.058048E+04 -8.749067E+04 -1.118710E+04  1.972942E+05 -3.625484E+03 -6.737597E+03
       195  25 -3.889270E+04 -2.449340E+05 -3.325914E+04  1.976949E+05 -7.217097E+03  1.795971E+04
       195  26 -7.533306E+04 -3.846393E+05 -6.529369E+04  1.900823E+05 -1.007727E+04 -7.719312E+03
       195  27 -1.200453E+05 -5.296982E+05 -1.161124E+05  2.046049E+05 -3.619223E+03 -3.338569E+04
       196   1  1.331649E+05  2.111566E+04  2.038079E+04  3.710831E+04  5.691613E+03 -6.268462E+02
       196   2  1.067423E+05  1.320626E+04  1.137002E+04  3.457900E+04  1.175091E+03 -1.705977E+03
       196   3  8.123769E+04  6.637698E+03  5.633643E+03  3.609088E+04 -3.342218E+03 -1.093775E+03
       196   4  5.429493E+04  1.595579E+03  1.650685E+03  3.599992E+04  1.078845E+03 -6.300659E+02
       196   5  5.418923E+04  6.015850E+02  8.996718E+02  3.397978E+04  6.222897E+02 -1.706377E+03
       196   6  5.429587E+04  2.436882E+02  6.039933E+02  3.600084E+04  1.646940E+02 -1.091295E+03
       196   7 -2.456928E+04 -1.792493E+04 -1.707977E+04  3.489168E+04 -3.533340E+03 -6.332693E+02
       196   8  1.638821E+03 -1.200325E+04 -9.570817E+03  3.338062E+04  6.953401E+01 -1.706775E+03
       196   9  2.735478E+04 -6.150357E+03 -4.425641E+03  3.591081E+04  3.671458E+03 -1.088817E+03
       196  10  1.331649E+05  2.111565E+04  2.038073E+04  3.710831E+04 -6.159996E-10  3.559165E-10
       196  11  1.067423E+05  1.320625E+04  1.137002E+04  3.457900E+04 -2.148938E-10 -1.872838E-09
       196  12  8.123768E+04  6.637693E+03  5.633619E+03  3.609088E+04  3.438582E-10 -6.805146E-10
       196  13  5.429493E+04  1.595578E+03  1.650682E+03  3.599992E+04  3.272770E-12  2.074246E-09
       196  14  5.418923E+04  6.015818E+02  8.996656E+02  3.397979E+04  1.199792E-10 -5.828033E-10
       196  15  5.429587E+04  2.436869E+02  6.039910E+02  3.600084E+04  1.266142E-11 -5.228888E-10
       196  16 -2.456929E+04 -1.792494E+04 -1.707980E+04  3.489168E+04  8.266376E-10  2.732668E-10
       196  17  1.638820E+03 -1.200326E+04 -9.570822E+03  3.338062E+04 -4.126179E-10 -1.266841E-09
       196  18  2.735477E+04 -6.150361E+03 -4.425668E+03  3.591081E+04 -2.566777E-10 -6.849351E-11
       196  19  1.331649E+05  2.111566E+04  2.038079E+04  3.710831E+04 -5.691613E+03  6.268462E+02
       196  20  1.067423E+05  1.320626E+04  1.137002E+04  3.457900E+04 -1.175091E+03  1.705977E+03
       196  21  8.123769E+04  6.637698E+03  5.633643E+03  3.609088E+04  3.342218E+03  1.093775E+03
       196  22  5.429493E+04  1.595579E+03  1.650685E+03  3.599992E+04 -1.078845E+03  6.300659E+02
       196  23  5.418923E+04  6.015850E+02  8.996718E+02  3.397978E+04 -6.222897E+02  1.706377E+03
       196  24  5.429587E+04  2.436882E+02  6.039933E+02  3.600084E+04 -1.646940E+02  1.091295E+03
       196  25 -2.456928E+04 -1.792493E+04 -1.707977E+04  3.489168E+04  3.533340E+03  6.332693E+02
       196  26  1.638821E+03 -1.200325E+04 -9.570817E+03  3.338062E+04 -6.953401E+01  1.706775E+03
       196  27  2.735478E+04 -6.150357E+03 -4.425641E+03  3.591081E+04 -3.671458E+03  1.088817E+03
       197   1  6.507206E+04  2.843414E+03  2.999617E+03  3.614058E+04 -3.563865E+03 -1.631475E+02
       197   2  3.905431E+04 -3.234651E+03 -9.805075E+02  3.398142E+04 -4.241122E+03  1.433478E+03
       197   3  1.316666E+04 -9.119442E+03 -4.473508E+03  3.598648E+04 -4.918449E+03  3.193721E+03
       197   4  5.426249E+04  1.912060E+02  5.483174E+02  3.602814E+04  7.304968E+01 -1.605665E+02
       197   5  5.423153E+04  1.104849E+02  5.690634E+02  3.394605E+04 -2.115583E+02  1.436318E+03
       197   6  5.426222E+04  1.549924E+02  8.043472E+02  3.602816E+04 -4.962559E+02  3.196819E+03
       197   7  4.345306E+04 -2.461003E+03 -1.902940E+03  3.591570E+04  3.709902E+03 -1.579867E+02
       197   8  6.940903E+04  3.455621E+03  2.118699E+03  3.391067E+04  3.818098E+03  1.439159E+03
       197   9  9.535955E+04  9.429367E+03  6.082268E+03  3.606985E+04  3.926215E+03  3.199917E+03
       197  10  6.507205E+04  2.843411E+03  2.999593E+03  3.614058E+04 -4.045091E-09  6.933573E-10
       197  11  3.905429E+04 -3.234658E+03 -9.805451E+02  3.398143E+04  1.133811E-10 -1.297878E-09
       197  12  1.316663E+04 -9.119459E+03 -4.473573E+03  3.598649E+04  4.709794E-09 -6.679363E-11
       197  13  5.426249E+04  1.912060E+02  5.483173E+02  3.602814E+04 -1.926675E-12  5.605512E-10
       197  14  5.423153E+04  1.104827E+02  5.690594E+02  3.394605E+04  1.027434E-10  2.584030E-10
       197  15  5.426221E+04  1.549813E+02  8.043275E+02  3.602816E+04  2.358899E-11  1.076676E-09
       197  16  4.345305E+04 -2.461007E+03 -1.902966E+03  3.591570E+04  4.318141E-09  2.700446E-09
       197  17  6.940902E+04  3.455615E+03  2.118667E+03  3.391066E+04 -7.149400E-10  4.095569E-10
       197  18  9.535953E+04  9.429352E+03  6.082220E+03  3.606984E+04 -4.567624E-09  3.205248E-10
       197  19  6.507206E+04  2.843414E+03  2.999617E+03  3.614058E+04  3.563865E+03  1.631475E+02
       197  20  3.905431E+04 -3.234651E+03 -9.805075E+02  3.398142E+04  4.241122E+03 -1.433478E+03
       197  21  1.316666E+04 -9.119442E+03 -4.473508E+03  3.598648E+04  4.918449E+03 -3.193721E+03
       197  22  5.426249E+04  1.912060E+02  5.483174E+02  3.602814E+04 -7.304968E+01  1.605665E+02
       197  23  5.423153E+04  1.104849E+02  5.690634E+02  3.394605E+04  2.115583E+02 -1.436318E+03
       197  24  5.426222E+04  1.549924E+02  8.043472E+02  3.602816E+04  4.962559E+02 -3.196819E+03
       197  25  4.345306E+04 -2.461003E+03 -1.902940E+03  3.591570E+04 -3.709902E+03  1.579867E+02
       197  26  6.940903E+04  3.455621E+03  2.118699E+03  3.391067E+04 -3.818098E+03 -1.439159E+03
       197  27  9.535955E+04  9.429367E+03  6.082268E+03  3.606985E+04 -3.926215E+03 -3.199917E+03
       198   1 -2.845907E+03 -1.275577E+04 -6.566739E+03  3.601555E+04 -5.050749E+03  4.289842E+03
       198   2 -2.883231E+04 -1.842963E+04 -9.819023E+03  3.352845E+04 -4.810683E+03  5.894558E+03
       198   3 -5.475290E+04 -2.369346E+04 -1.312694E+04  3.518610E+04 -4.570281E+03  7.040319E+03
       198   4  5.430518E+04  1.899124E+02  1.012163E+03  3.602387E+04 -6.493070E+02  4.292890E+03
       198   5  5.417627E+04  4.798644E+02  1.717515E+03  3.395111E+04 -1.510853E+03  5.896750E+03
       198   6  5.430368E+04  1.371073E+03  3.132137E+03  3.602306E+04 -2.372053E+03  7.041688E+03
       198   7  1.114597E+05  1.313546E+04  8.591113E+03  3.603219E+04  3.752521E+03  4.295939E+03
       198   8  1.371919E+05  1.938906E+04  1.325401E+04  3.437384E+04  1.789399E+03  5.898946E+03
       198   9  1.633722E+05  2.643505E+04  1.939101E+04  3.686018E+04 -1.734547E+02  7.043062E+03
       198  10 -2.845939E+03 -1.275579E+04 -6.566822E+03  3.601557E+04  1.053481E-09 -6.761976E-10
       198  11 -2.883234E+04 -1.842967E+04 -9.819132E+03  3.352847E+04 -1.018306E-10  6.756874E-10
       198  12 -5.475293E+04 -2.369351E+04 -1.312707E+04  3.518612E+04 -9.117673E-10 -6.770168E-10
       198  13  5.430518E+04  1.898925E+02  1.012127E+03  3.602387E+04 -5.788768E-12 -2.642139E-09
       198  14  5.417626E+04  4.798264E+02  1.717446E+03  3.395112E+04  2.274033E-10  7.662288E-10
       198  15  5.430366E+04  1.371019E+03  3.132033E+03  3.602307E+04  1.164189E-11 -8.144737E-11
       198  16  1.114596E+05  1.313544E+04  8.591052E+03  3.603217E+04 -8.116214E-10 -1.389525E-09
       198  17  1.371918E+05  1.938902E+04  1.325394E+04  3.437383E+04 -5.473999E-10 -1.678131E-09
       198  18  1.633722E+05  2.643499E+04  1.939091E+04  3.686018E+04  9.612886E-10  1.021669E-09
       198  19 -2.845907E+03 -1.275577E+04 -6.566739E+03  3.601555E+04  5.050749E+03 -4.289842E+03
       198  20 -2.883231E+04 -1.842963E+04 -9.819023E+03  3.352845E+04  4.810683E+03 -5.894558E+03
       198  21 -5.475290E+04 -2.369346E+04 -1.312694E+04  3.518610E+04  4.570281E+03 -7.040319E+03
       198  22  5.430518E+04  1.899124E+02  1.012163E+03  3.602387E+04  6.493070E+02 -4.292890E+03
       198  23  5.417627E+04  4.798644E+02  1.717515E+03  3.395111E+04  1.510853E+03 -5.896750E+03
       198  24  5.430368E+04  1.371073E+03  3.132137E+03  3.602306E+04  2.372053E+03 -7.041688E+03
       198  25  1.114597E+05  1.313546E+04  8.591113E+03  3.603219E+04 -3.752521E+03 -4.295939E+03
       198  26  1.371919E+05  1.938906E+04  1.325401E+04  3.437384E+04 -1.789399E+03 -5.898946E+03
       198  27  1.633722E+05  2.643505E+04  1.939101E+04  3.686018E+04  1.734547E+02 -7.043062E+03
       199   1 -7.063957E+04 -2.706555E+04 -1.515106E+04  3.534089E+04 -4.830661E+03  7.672526E+03
       199   2 -9.684090E+04 -3.031123E+04 -1.951169E+04  2.875159E+04 -7.084336E+01  6.662405E+03
       199   3 -1.225816E+05 -2.922268E+04 -2.588820E+04  2.603627E+04  4.690704E+03  2.031433E+03
       199   4  5.468332E+04  1.867882E+03  4.186776E+03  3.596321E+04 -2.918423E+03  7.673657E+03
       199   5  5.369797E+04  5.250882E+03  7.715599E+03  3.402227E+04 -6.847835E+03  6.657855E+03
       199   6  5.468040E+04  1.447590E+04  1.526250E+04  3.595505E+04 -1.077521E+04  2.021679E+03
       199   7  1.800219E+05  3.080055E+04  2.352427E+04  3.658567E+04 -1.005813E+03  7.674791E+03
       199   8  2.042591E+05  4.081185E+04  3.494218E+04  3.929426E+04 -1.362643E+04  6.653191E+03
       199   9  2.319722E+05  5.817276E+04  5.641203E+04  4.587669E+04 -2.624552E+04  2.011433E+03
       199  10 -7.063961E+04 -2.706562E+04 -1.515122E+04  3.534092E+04  2.040076E-09  3.660352E-10
       199  11 -9.684091E+04 -3.031128E+04 -1.951177E+04  2.875159E+04  1.411176E-09 -6.746483E-10
       199  12 -1.225816E+05 -2.922269E+04 -2.588825E+04  2.603626E+04  5.575895E-10  1.019707E-09
       199  13  5.468329E+04  1.867817E+03  4.186649E+03  3.596323E+04  1.222287E-12  1.173003E-09
       199  14  5.369791E+04  5.250822E+03  7.715428E+03  3.402231E+04 -4.448207E-12 -5.389850E-10
       199  15  5.468028E+04  1.447586E+04  1.526227E+04  3.595507E+04  5.269057E-11  1.080754E-09
       199  16  1.800219E+05  3.080049E+04  2.352416E+04  3.658567E+04 -1.879749E-09  1.035920E-09
       199  17  2.042589E+05  4.081176E+04  3.494175E+04  3.929434E+04 -1.974988E-09  4.700059E-10
       199  18  2.319714E+05  5.817257E+04  5.641073E+04  4.587673E+04 -6.733747E-10 -4.831948E-10
       199  19 -7.063957E+04 -2.706555E+04 -1.515106E+04  3.534089E+04  4.830661E+03 -7.672526E+03
       199  20 -9.684090E+04 -3.031123E+04 -1.951169E+04  2.875159E+04  7.084336E+01 -6.662405E+03
       199  21 -1.225816E+05 -2.922268E+04 -2.588820E+04  2.603627E+04 -4.690704E+03 -2.031433E+03
       199  22  5.468332E+04  1.867882E+03  4.186776E+03  3.596321E+04  2.918423E+03 -7.673657E+03
       199  23  5.369797E+04  5.250882E+03  7.715599E+03  3.402227E+04  6.847835E+03 -6.657855E+03
       199  24  5.468040E+04  1.447590E+04  1.526250E+04  3.595505E+04  1.077521E+04 -2.021679E+03
       199  25  1.800219E+05  3.080055E+04  2.352427E+04  3.658567E+04  1.005813E+03 -7.674791E+03
       199  26  2.042591E+05  4.081185E+04  3.494218E+04  3.929426E+04  1.362643E+04 -6.653191E+03
       199  27  2.319722E+05  5.817276E+04  5.641203E+04  4.587669E+04  2.624552E+04 -2.011433E+03
       200   1 -1.165555E+05 -4.502812E+05 -1.136367E+05  1.403551E+05 -3.473424E+03 -4.618066E+04
       200   2 -7.462194E+04 -3.589889E+05 -6.608264E+04  1.248471E+05 -1.063596E+04 -2.068686E+04
       200   3 -4.682769E+04 -2.745213E+05 -3.866757E+04  1.228480E+05 -1.028864E+04  4.816386E+03
       200   4 -2.724542E+04 -8.887842E+04 -2.870898E+04  1.217415E+05 -3.482998E+03 -2.002171E+04
       200   5 -9.927113E+03 -8.701904E+04 -1.470042E+04  1.149918E+05 -1.063846E+04 -1.253793E+04
       200   6 -3.616354E+03 -8.886149E+04 -8.315535E+03  1.217521E+05 -1.028487E+04 -5.048886E+03
       200   7  6.205704E+04  2.726469E+05  5.621249E+04  1.031171E+05 -3.494140E+03  6.152387E+03
       200   8  5.476379E+04  1.850226E+05  3.667884E+04  1.051321E+05 -1.064121E+04 -4.385505E+03
       200   9  3.959327E+04  9.683273E+04  2.203588E+04  1.206558E+05 -1.028106E+04 -1.491701E+04
       200  10 -1.165561E+05 -4.502835E+05 -1.136407E+05  1.403550E+05 -2.402480E-10  5.876549E-10
       200  11 -7.462217E+04 -3.589894E+05 -6.608366E+04  1.248469E+05 -1.028122E-09  1.781659E-09
       200  12 -4.682781E+04 -2.745214E+05 -3.866781E+04  1.228481E+05 -7.686582E-10 -2.664769E-10
       200  13 -2.724555E+04 -8.887886E+04 -2.870976E+04  1.217415E+05 -5.818558E-11  5.804298E-12
       200  14 -9.927277E+03 -8.701924E+04 -1.470093E+04  1.149917E+05 -4.462316E-10  5.329221E-10
       200  15 -3.616475E+03 -8.886154E+04 -8.315782E+03  1.217520E+05 -2.455406E-10  8.429029E-10
       200  16  6.205702E+04  2.726468E+05  5.621239E+04  1.031171E+05 -5.559625E-11  8.403232E-11
       200  17  5.476367E+04  1.850226E+05  3.667859E+04  1.051321E+05  3.075891E-10 -3.488227E-11
       200  18  3.959310E+04  9.683246E+04  2.203526E+04  1.206557E+05  2.646363E-10 -1.149844E-09
       200  19 -1.165555E+05 -4.502812E+05 -1.136367E+05  1.403551E+05  3.473424E+03  4.618066E+04
       200  20 -7.462194E+04 -3.589889E+05 -6.608264E+04  1.248471E+05  1.063596E+04  2.068686E+04
       200  21 -4.682769E+04 -2.745213E+05 -3.866757E+04  1.228480E+05  1.028864E+04 -4.816386E+03
       200  22 -2.724542E+04 -8.887842E+04 -2.870898E+04  1.217415E+05  3.482998E+03  2.002171E+04
       200  23 -9.927113E+03 -8.701904E+04 -1.470042E+04  1.149918E+05  1.063846E+04  1.253793E+04
       200  24 -3.616354E+03 -8.886149E+04 -8.315535E+03  1.217521E+05  1.028487E+04  5.048886E+03
       200  25  6.205704E+04  2.726469E+05  5.621249E+04  1.031171E+05  3.494140E+03 -6.152387E+03
       200  26  5.476379E+04  1.850226E+05  3.667884E+04  1.051321E+05  1.064121E+04  4.385505E+03
       200  27  3.959327E+04  9.683273E+04  2.203588E+04  1.206558E+05  1.028106E+04  1.491701E+04
       201   1 -3.308580E+04 -2.190664E+05 -2.748338E+04  1.233867E+05 -7.522386E+03  6.472411E+03
       201   2 -1.104602E+04 -1.308349E+05 -1.033028E+04  1.152836E+05 -3.072677E+03  9.215115E+03
       201   3  9.323793E+03 -4.334931E+04  4.624570E+03  1.212065E+05  1.604395E+03  1.195820E+04
       201   4 -2.707433E+03 -8.818212E+04 -6.506243E+03  1.218660E+05 -7.518690E+03 -3.934291E+03
       201   5 -1.257625E+03 -8.785145E+04 -4.379188E+03  1.148532E+05 -3.068912E+03 -1.737507E+03
       201   6 -1.382558E+03 -8.817947E+04 -4.071138E+03  1.218665E+05  1.608224E+03  4.593021E+02
       201   7  2.767013E+04  4.271940E+04  1.447085E+04  1.203449E+05 -7.514944E+03 -1.434311E+04
       201   8  8.530758E+03 -4.486591E+04  1.572332E+03  1.144228E+05 -3.065132E+03 -1.269085E+04
       201   9 -1.208896E+04 -1.330074E+05 -1.276644E+04  1.225264E+05  1.612030E+03 -1.103879E+04
       201  10 -3.308587E+04 -2.190664E+05 -2.748357E+04  1.233867E+05 -9.847934E-10  5.193474E-10
       201  11 -1.104606E+04 -1.308349E+05 -1.033046E+04  1.152837E+05 -7.810046E-10  1.452352E-09
       201  12  9.323752E+03 -4.334946E+04  4.624297E+03  1.212065E+05 -3.509147E-10  1.731043E-10
       201  13 -2.707498E+03 -8.818216E+04 -6.506379E+03  1.218659E+05 -3.535624E-10  5.383131E-10
       201  14 -1.257636E+03 -8.785145E+04 -4.379211E+03  1.148532E+05 -4.164976E-10  4.806063E-12
       201  15 -1.382560E+03 -8.817947E+04 -4.071143E+03  1.218665E+05  2.260344E-10  1.694271E-11
       201  16  2.767002E+04  4.271916E+04  1.447036E+04  1.203448E+05  1.419687E-10  7.799867E-12
       201  17  8.530704E+03 -4.486608E+04  1.572012E+03  1.144227E+05 -1.347195E-10 -1.817571E-09
       201  18 -1.208899E+04 -1.330076E+05 -1.276668E+04  1.225264E+05  8.448133E-10 -2.662003E-09
       201  19 -3.308580E+04 -2.190664E+05 -2.748338E+04  1.233867E+05  7.522386E+03 -6.472411E+03
       201  20 -1.104602E+04 -1.308349E+05 -1.033028E+04  1.152836E+05  3.072677E+03 -9.215115E+03
       201  21  9.323793E+03 -4.334931E+04  4.624570E+03  1.212065E+05 -1.604395E+03 -1.195820E+04
       201  22 -2.707433E+03 -8.818212E+04 -6.506243E+03  1.218660E+05  7.518690E+03  3.934291E+03
       201  23 -1.257625E+03 -8.785145E+04 -4.379188E+03  1.148532E+05  3.068912E+03  1.737507E+03
       201  24 -1.382558E+03 -8.817947E+04 -4.071138E+03  1.218665E+05 -1.608224E+03 -4.593021E+02
       201  25  2.767013E+04  4.271940E+04  1.447085E+04  1.203449E+05  7.514944E+03  1.434311E+04
       201  26  8.530758E+03 -4.486591E+04  1.572332E+03  1.144228E+05  3.065132E+03  1.269085E+04
       201  27 -1.208896E+04 -1.330074E+05 -1.276644E+04  1.225264E+05 -1.612030E+03  1.103879E+04
       202   1  2.174601E+04  1.113257E+04  1.325424E+04  1.213463E+05  4.600539E+03  1.222859E+04
       202   2  4.040419E+04  9.859899E+04  3.015092E+04  1.108660E+05  6.335144E+03  1.627112E+03
       202   3  5.686995E+04  1.869269E+05  5.340539E+04  1.140413E+05  2.274868E+03 -8.979405E+03
       202   4 -1.694863E+03 -8.838113E+04 -4.430810E+03  1.217846E+05  4.604353E+03  1.118975E+03
       202   5 -4.170895E+03 -8.760688E+04 -6.501525E+03  1.149543E+05  6.334284E+03  4.426603E+03
       202   6 -1.125395E+04 -8.839242E+04 -1.187343E+04  1.217805E+05  2.268405E+03  7.730471E+03
       202   7 -2.513622E+04 -1.878849E+05 -2.211577E+04  1.222228E+05  4.608150E+03 -9.988908E+03
       202   8 -4.874801E+04 -2.737795E+05 -4.315562E+04  1.190413E+05  6.333461E+03  7.225272E+03
       202   9 -7.938293E+04 -3.636414E+05 -7.715645E+04  1.295162E+05  2.262357E+03  2.443298E+04
       202  10  2.174595E+04  1.113240E+04  1.325392E+04  1.213463E+05 -2.500895E-10 -4.447372E-10
       202  11  4.040414E+04  9.859898E+04  3.015084E+04  1.108659E+05 -1.035495E-10  8.536857E-10
       202  12  5.686992E+04  1.869268E+05  5.340523E+04  1.140414E+05 -1.369187E-10 -2.402290E-10
       202  13 -1.694886E+03 -8.838114E+04 -4.430852E+03  1.217846E+05  4.395220E-10 -5.305264E-10
       202  14 -4.170943E+03 -8.760691E+04 -6.501637E+03  1.149542E+05  2.014740E-10 -2.691961E-10
       202  15 -1.125397E+04 -8.839248E+04 -1.187355E+04  1.217805E+05 -1.268668E-11 -5.545748E-10
       202  16 -2.513627E+04 -1.878850E+05 -2.211600E+04  1.222228E+05  6.699635E-10  1.445898E-10
       202  17 -4.874807E+04 -2.737796E+05 -4.315580E+04  1.190413E+05  2.329156E-10 -5.061001E-10
       202  18 -7.938310E+04 -3.636420E+05 -7.715758E+04  1.295161E+05  1.340782E-10 -1.601309E-09
       202  19  2.174601E+04  1.113257E+04  1.325424E+04  1.213463E+05 -4.600539E+03 -1.222859E+04
       202  20  4.040419E+04  9.859899E+04  3.015092E+04  1.108660E+05 -6.335144E+03 -1.627112E+03
       202  21  5.686995E+04  1.869269E+05  5.340539E+04  1.140413E+05 -2.274868E+03  8.979405E+03
       202  22 -1.694863E+03 -8.838113E+04 -4.430810E+03  1.217846E+05 -4.604353E+03 -1.118975E+03
       202  23 -4.170895E+03 -8.760688E+04 -6.501525E+03  1.149543E+05 -6.334284E+03 -4.426603E+03
       202  24 -1.125395E+04 -8.839242E+04 -1.187343E+04  1.217805E+05 -2.268405E+03 -7.730471E+03
       202  25 -2.513622E+04 -1.878849E+05 -2.211577E+04  1.222228E+05 -4.608150E+03  9.988908E+03
       202  26 -4.874801E+04 -2.737795E+05 -4.315562E+04  1.190413E+05 -6.333461E+03 -7.225272E+03
       202  27 -7.938293E+04 -3.636414E+05 -7.715645E+04  1.295162E+05 -2.262357E+03 -2.443298E+04
       203   1 -5.734481E+04 -2.632072E+05 -5.601592E+04  6.564665E+04 -1.694453E+03 -2.348876E+04
       203   2 -3.670286E+04 -2.213127E+05 -3.278149E+04  5.785736E+04 -5.246231E+03 -1.082743E+04
       203   3 -2.348712E+04 -1.829130E+05 -1.964854E+04  5.622622E+04 -5.213084E+03  1.837121E+03
       203   4 -1.463444E+04 -9.031898E+04 -1.544697E+04  5.563286E+04 -1.700091E+03 -1.068174E+04
       203   5 -5.332317E+03 -8.931566E+04 -7.979679E+03  5.255667E+04 -5.247972E+03 -6.620511E+03
       203   6 -1.962089E+03 -9.031489E+04 -4.639310E+03  5.563894E+04 -5.211087E+03 -2.557098E+03
       203   7  2.807427E+04  8.259735E+04  2.512061E+04  4.561626E+04 -1.706143E+03  2.128829E+03
       203   8  2.603733E+04  4.269831E+04  1.682146E+04  4.725482E+04 -5.249783E+03 -2.412722E+03
       203   9  1.956252E+04  2.291729E+03  1.036975E+04  5.505157E+04 -5.209081E+03 -6.951949E+03
       203  10 -5.734496E+04 -2.632078E+05 -5.601696E+04  6.564662E+04  1.774009E-10  2.359422E-10
       203  11 -3.670292E+04 -2.213128E+05 -3.278176E+04  5.785731E+04 -1.532133E-10  9.384192E-10
       203  12 -2.348715E+04 -1.829130E+05 -1.964859E+04  5.622623E+04  2.555685E-10  5.558878E-10
       203  13 -1.463447E+04 -9.031910E+04 -1.544719E+04  5.563284E+04  9.515084E-11 -5.295424E-10
       203  14 -5.332358E+03 -8.931572E+04 -7.979813E+03  5.255664E+04 -4.992402E-11 -1.719604E-09
       203  15 -1.962120E+03 -9.031490E+04 -4.639374E+03  5.563893E+04  1.564684E-11 -3.901801E-10
       203  16  2.807426E+04  8.259734E+04  2.512059E+04  4.561626E+04 -1.435190E-10 -8.734542E-11
       203  17  2.603730E+04  4.269830E+04  1.682139E+04  4.725481E+04  1.570409E-10 -2.317507E-09
       203  18  1.956248E+04  2.291670E+03  1.036961E+04  5.505154E+04 -3.744345E-10 -3.518145E-10
       203  19 -5.734481E+04 -2.632072E+05 -5.601592E+04  6.564665E+04  1.694453E+03  2.348876E+04
       203  20 -3.670286E+04 -2.213127E+05 -3.278149E+04  5.785736E+04  5.246231E+03  1.082743E+04
       203  21 -2.348712E+04 -1.829130E+05 -1.964854E+04  5.622622E+04  5.213084E+03 -1.837121E+03
       203  22 -1.463444E+04 -9.031898E+04 -1.544697E+04  5.563286E+04  1.700091E+03  1.068174E+04
       203  23 -5.332317E+03 -8.931566E+04 -7.979679E+03  5.255667E+04  5.247972E+03  6.620511E+03
       203  24 -1.962089E+03 -9.031489E+04 -4.639310E+03  5.563894E+04  5.211087E+03  2.557098E+03
       203  25  2.807427E+04  8.259735E+04  2.512061E+04  4.561626E+04  1.706143E+03 -2.128829E+03
       203  26  2.603733E+04  4.269831E+04  1.682146E+04  4.725482E+04  5.249783E+03  2.412722E+03
       203  27  1.956252E+04  2.291729E+03  1.036975E+04  5.505157E+04  5.209081E+03  6.951949E+03
       204   1 -1.713917E+04 -1.575281E+05 -1.442202E+04  5.651942E+04 -3.970411E+03  2.731081E+03
       204   2 -7.024343E+03 -1.171532E+05 -6.575694E+03  5.262694E+04 -1.958674E+03  4.474165E+03
       204   3  2.031880E+03 -7.725946E+04 -1.266745E+02  5.514151E+04  1.980208E+02  6.217400E+03
       204   4 -1.484936E+03 -8.996302E+04 -3.730016E+03  5.569383E+04 -3.968361E+03 -1.924226E+03
       204   5 -7.844228E+02 -8.975146E+04 -2.781840E+03  5.249038E+04 -1.956507E+03 -5.290257E+02
       204   6 -1.082012E+03 -8.996224E+04 -2.989325E+03  5.569400E+04  2.003021E+02  8.662222E+02
       204   7  1.416909E+04 -2.239336E+04  6.961958E+03  5.486815E+04 -3.966299E+03 -6.580022E+03
       204   8  5.455477E+03 -6.234892E+04  1.012099E+03  5.235382E+04 -1.954339E+03 -5.532427E+03
       204   9 -4.195899E+03 -1.026648E+05 -5.851877E+03  5.624649E+04  2.025739E+02 -4.484847E+03
       204  10 -1.713919E+04 -1.575281E+05 -1.442207E+04  5.651942E+04 -2.345677E-11  4.118015E-10
       204  11 -7.024352E+03 -1.171532E+05 -6.575739E+03  5.262695E+04 -1.271458E-10  1.169347E-09
       204  12  2.031870E+03 -7.725950E+04 -1.267472E+02  5.514151E+04 -1.594211E-10 -3.345679E-10
       204  13 -1.484954E+03 -8.996302E+04 -3.730053E+03  5.569382E+04 -2.718742E-11 -5.374300E-10
       204  14 -7.844270E+02 -8.975146E+04 -2.781848E+03  5.249038E+04 -4.719259E-10 -1.417898E-09
       204  15 -1.082013E+03 -8.996224E+04 -2.989326E+03  5.569400E+04 -1.446348E-10  3.405409E-12
       204  16  1.416906E+04 -2.239341E+04  6.961847E+03  5.486813E+04 -2.700308E-10 -1.552461E-09
       204  17  5.455465E+03 -6.234896E+04  1.012034E+03  5.235381E+04 -2.236713E-10 -2.574048E-09
       204  18 -4.195905E+03 -1.026648E+05 -5.851915E+03  5.624649E+04 -5.886344E-11 -2.237075E-10
       204  19 -1.713917E+04 -1.575281E+05 -1.442202E+04  5.651942E+04  3.970411E+03 -2.731081E+03
       204  20 -7.024343E+03 -1.171532E+05 -6.575694E+03  5.262694E+04  1.958674E+03 -4.474165E+03
       204  21  2.031880E+03 -7.725946E+04 -1.266745E+02  5.514151E+04 -1.980208E+02 -6.217400E+03
       204  22 -1.484936E+03 -8.996302E+04 -3.730016E+03  5.569383E+04  3.968361E+03  1.924226E+03
       204  23 -7.844228E+02 -8.975146E+04 -2.781840E+03  5.249038E+04  1.956507E+03  5.290257E+02
       204  24 -1.082012E+03 -8.996224E+04 -2.989325E+03  5.569400E+04 -2.003021E+02 -8.662222E+02
       204  25  1.416909E+04 -2.239336E+04  6.961958E+03  5.486815E+04  3.966299E+03  6.580022E+03
       204  26  5.455477E+03 -6.234892E+04  1.012099E+03  5.235382E+04  1.954339E+03  5.532427E+03
       204  27 -4.195899E+03 -1.026648E+05 -5.851877E+03  5.624649E+04 -2.025739E+02  4.484847E+03
       205   1  7.544494E+03 -5.249684E+04  3.476604E+03  5.528349E+04  1.587366E+03  6.547708E+03
       205   2  1.496567E+04 -1.219466E+04  9.926950E+03  4.899672E+04  2.503626E+03  3.357464E+03
       205   3  1.944049E+04  2.779647E+04  1.771964E+04  4.896047E+04  9.272644E+02  1.656667E+02
       205   4 -1.377734E+03 -9.016881E+04 -3.457680E+03  5.565946E+04  1.589594E+03  1.360756E+03
       205   5 -3.581569E+03 -8.949458E+04 -5.485786E+03  5.253212E+04  2.503320E+03  4.152560E+03
       205   6 -9.770443E+03 -9.017124E+04 -1.032601E+04  5.565551E+04  9.242492E+02  6.942915E+03
       205   7 -1.030003E+04 -1.278393E+05 -1.039192E+04  5.603540E+04  1.591815E+03 -3.825890E+03
       205   8 -2.212913E+04 -1.667888E+05 -2.089881E+04  5.606707E+04  2.503024E+03  4.947558E+03
       205   9 -3.898218E+04 -2.081260E+05 -3.837243E+04  6.234927E+04  9.213800E+02  1.371888E+04
       205  10  7.544480E+03 -5.249688E+04  3.476518E+03  5.528348E+04 -3.201278E-10 -1.383984E-10
       205  11  1.496566E+04 -1.219467E+04  9.926917E+03  4.899671E+04  1.766288E-10  3.114229E-10
       205  12  1.944049E+04  2.779647E+04  1.771964E+04  4.896047E+04  3.835728E-11 -4.778403E-11
       205  13 -1.377737E+03 -9.016881E+04 -3.457688E+03  5.565946E+04  4.410820E-11 -1.607482E-09
       205  14 -3.581581E+03 -8.949460E+04 -5.485830E+03  5.253211E+04  1.557309E-11 -2.752228E-09
       205  15 -9.770457E+03 -9.017130E+04 -1.032610E+04  5.565550E+04  1.468384E-10  4.833265E-10
       205  16 -1.030003E+04 -1.278394E+05 -1.039195E+04  5.603541E+04  1.033899E-10 -1.505163E-09
       205  17 -2.212914E+04 -1.667888E+05 -2.089887E+04  5.606706E+04  3.712895E-10 -1.178374E-09
       205  18 -3.898224E+04 -2.081262E+05 -3.837279E+04  6.234926E+04 -1.020811E-10  6.820491E-10
       205  19  7.544494E+03 -5.249684E+04  3.476604E+03  5.528349E+04 -1.587366E+03 -6.547708E+03
       205  20  1.496567E+04 -1.219466E+04  9.926950E+03  4.899672E+04 -2.503626E+03 -3.357464E+03
       205  21  1.944049E+04  2.779647E+04  1.771964E+04  4.896047E+04 -9.272644E+02 -1.656667E+02
       205  22 -1.377734E+03 -9.016881E+04 -3.457680E+03  5.565946E+04 -1.589594E+03 -1.360756E+03
       205  23 -3.581569E+03 -8.949458E+04 -5.485786E+03  5.253212E+04 -2.503320E+03 -4.152560E+03
       205  24 -9.770443E+03 -9.017124E+04 -1.032601E+04  5.565551E+04 -9.242492E+02 -6.942915E+03
       205  25 -1.030003E+04 -1.278393E+05 -1.039192E+04  5.603540E+04 -1.591815E+03  3.825890E+03
       205  26 -2.212913E+04 -1.667888E+05 -2.089881E+04  5.606707E+04 -2.503024E+03 -4.947558E+03
       205  27 -3.898218E+04 -2.081260E+05 -3.837243E+04  6.234927E+04 -9.213800E+02 -1.371888E+04
       206   1  8.967964E+05  2.650712E+05  2.533841E+05  2.366561E+05  1.019759E+05 -1.078657E+04
       206   2  7.327645E+05  1.998843E+05  1.610328E+05  2.161940E+05  4.700612E+04 -3.494946E+04
       206   3  5.807516E+05  1.538400E+05  1.092258E+05  2.194940E+05 -7.933585E+03 -3.927367E+04
       206   4 -7.105151E+04  2.661160E+04  2.835553E+04  2.185497E+05  2.004977E+04 -1.077045E+04
       206   5 -7.287840E+04  9.480634E+03  1.430187E+04  2.066669E+05  1.276453E+04 -3.494883E+04
       206   6 -7.096860E+04  3.234822E+03  7.712966E+03  2.185451E+05  5.494143E+03 -3.927814E+04
       206   7 -1.038020E+06 -2.119092E+05 -1.967108E+05  2.004716E+05 -6.174964E+04 -1.074956E+04
       206   8 -8.778881E+05 -1.809587E+05 -1.324506E+05  1.971524E+05 -2.143387E+04 -3.494715E+04
       206   9 -7.222648E+05 -1.473911E+05 -9.380918E+04  2.175972E+05  1.890831E+04 -3.928265E+04
       206  10  8.967852E+05  2.650682E+05  2.533644E+05  2.366570E+05  7.169647E-11 -1.868703E-11
       206  11  7.327618E+05  1.998824E+05  1.610263E+05  2.161954E+05  4.976946E-11  3.980038E-11
       206  12  5.807512E+05  1.538384E+05  1.092228E+05  2.194938E+05  1.546809E-10  1.259529E-10
       206  13 -7.105198E+04  2.661136E+04  2.835456E+04  2.185499E+05 -1.915292E-10 -9.543152E-12
       206  14 -7.287890E+04  9.479279E+03  1.429927E+04  2.066673E+05 -6.630870E-11  1.613606E-11
       206  15 -7.096905E+04  3.233157E+03  7.710010E+03  2.185453E+05  1.693665E-11  9.496101E-11
       206  16 -1.038025E+06 -2.119104E+05 -1.967182E+05  2.004711E+05  2.232792E-10  1.033560E-11
       206  17 -8.778889E+05 -1.809601E+05 -1.324538E+05  1.971518E+05 -2.300627E-10  1.229541E-11
       206  18 -7.222656E+05 -1.473928E+05 -9.381276E+04  2.175978E+05  3.159346E-10  5.599714E-11
       206  19  8.967964E+05  2.650712E+05  2.533841E+05  2.366561E+05 -1.019759E+05  1.078657E+04
       206  20  7.327645E+05  1.998843E+05  1.610328E+05  2.161940E+05 -4.700612E+04  3.494946E+04
       206  21  5.807516E+05  1.538400E+05  1.092258E+05  2.194940E+05  7.933585E+03  3.927367E+04
       206  22 -7.105151E+04  2.661160E+04  2.835553E+04  2.185497E+05 -2.004977E+04  1.077045E+04
       206  23 -7.287840E+04  9.480634E+03  1.430187E+04  2.066669E+05 -1.276453E+04  3.494883E+04
       206  24 -7.096860E+04  3.234822E+03  7.712966E+03  2.185451E+05 -5.494143E+03  3.927814E+04
       206  25 -1.038020E+06 -2.119092E+05 -1.967108E+05  2.004716E+05  6.174964E+04  1.074956E+04
       206  26 -8.778881E+05 -1.809587E+05 -1.324506E+05  1.971524E+05  2.143387E+04  3.494715E+04
       206  27 -7.222648E+05 -1.473911E+05 -9.380918E+04  2.175972E+05 -1.890831E+04  3.928265E+04
       207   1  4.812247E+05  1.295602E+05  8.907637E+04  2.202602E+05 -1.049944E+04 -3.509353E+04
       207   2  3.225744E+05  9.069046E+04  5.845272E+04  2.069330E+05 -1.790669E+04 -2.762051E+04
       207   3  1.654711E+05  5.391816E+04  3.318168E+04  2.188351E+05 -2.531301E+04 -1.768912E+04
       207   4 -7.166670E+04  2.339515E+03  5.722328E+03  2.188725E+05  4.492443E+03 -3.509647E+04
       207   5 -7.189476E+04  7.199156E+02  3.006259E+03  2.062574E+05  2.987991E+03 -2.762130E+04
       207   6 -7.162451E+04  1.749496E+02  1.545412E+03  2.188725E+05  1.482693E+03 -1.768695E+04
       207   7 -6.242511E+05 -1.248956E+05 -7.763704E+04  2.174860E+05  1.947151E+04 -3.509948E+04
       207   8 -4.662054E+05 -8.925735E+04 -5.244062E+04  2.055822E+05  2.386998E+04 -2.762214E+04
       207   9 -3.086613E+05 -5.357028E+04 -3.008862E+04  2.189099E+05  2.826864E+04 -1.768478E+04
       207  10  4.812242E+05  1.295588E+05  8.907385E+04  2.202599E+05  1.682243E-10  1.374943E-10
       207  11  3.225739E+05  9.068955E+04  5.845069E+04  2.069326E+05  2.228402E-10  7.654489E-11
       207  12  1.654704E+05  5.391766E+04  3.317989E+04  2.188347E+05 -1.514799E-10  4.327336E-11
       207  13 -7.166705E+04  2.338187E+03  5.719975E+03  2.188726E+05  6.640764E-11  1.134339E-10
       207  14 -7.189498E+04  7.190940E+02  3.004808E+03  2.062575E+05 -2.752449E-10  1.060362E-10
       207  15 -7.162460E+04  1.746131E+02  1.544820E+03  2.188725E+05 -2.985423E-10  9.984723E-11
       207  16 -6.242518E+05 -1.248970E+05 -7.764007E+04  2.174866E+05 -1.330849E-10  8.210527E-11
       207  17 -4.662063E+05 -8.925832E+04 -5.244313E+04  2.055827E+05 -3.349232E-10  1.094439E-10
       207  18 -3.086622E+05 -5.357083E+04 -3.009071E+04  2.189103E+05  1.698245E-10  1.534532E-10
       207  19  4.812247E+05  1.295602E+05  8.907637E+04  2.202602E+05  1.049944E+04  3.509353E+04
       207  20  3.225744E+05  9.069046E+04  5.845272E+04  2.069330E+05  1.790669E+04  2.762051E+04
       207  21  1.654711E+05  5.391816E+04  3.318168E+04  2.188351E+05  2.531301E+04  1.768912E+04
       207  22 -7.166670E+04  2.339515E+03  5.722328E+03  2.188725E+05 -4.492443E+03  3.509647E+04
       207  23 -7.189476E+04  7.199156E+02  3.006259E+03  2.062574E+05 -2.987991E+03  2.762130E+04
       207  24 -7.162451E+04  1.749496E+02  1.545412E+03  2.188725E+05 -1.482693E+03  1.768695E+04
       207  25 -6.242511E+05 -1.248956E+05 -7.763704E+04  2.174860E+05 -1.947151E+04  3.509948E+04
       207  26 -4.662054E+05 -8.925735E+04 -5.244062E+04  2.055822E+05 -2.386998E+04  2.762214E+04
       207  27 -3.086613E+05 -5.357028E+04 -3.008862E+04  2.189099E+05 -2.826864E+04  1.768478E+04
       208   1  6.770762E+04  3.151516E+04  1.868594E+04  2.189115E+05 -2.560860E+04 -1.102272E+04
       208   2 -8.986981E+04 -4.807139E+03 -5.048137E+03  2.063397E+05 -2.253934E+04 -4.889581E+02
       208   3 -2.479540E+05 -4.175530E+04 -3.093091E+04  2.190732E+05 -1.947137E+04  8.717585E+03
       208   4 -7.172419E+04  1.009131E+02  1.045151E+03  2.188892E+05  1.264824E+03 -1.101972E+04
       208   5 -7.173462E+04 -1.209178E+02  2.454161E+02  2.062366E+05  1.145741E+03 -4.863747E+02
       208   6 -7.172607E+04 -4.149691E+02 -4.910003E+02  2.188892E+05  1.026140E+03  8.719764E+03
       208   7 -2.111345E+05 -3.131373E+04 -1.659298E+04  2.188669E+05  2.813251E+04 -1.101673E+04
       208   8 -5.359794E+04  4.565576E+03  5.541048E+03  2.061336E+05  2.483152E+04 -4.837994E+02
       208   9  1.045333E+05  4.092392E+04  2.994943E+04  2.187052E+05  2.152929E+04  8.721930E+03
       208  10  6.770688E+04  3.151485E+04  1.868448E+04  2.189113E+05  2.489771E-10  5.157917E-11
       208  11 -8.987035E+04 -4.807276E+03 -5.049092E+03  2.063397E+05  1.377817E-11  3.000977E-11
       208  12 -2.479545E+05 -4.175548E+04 -3.093177E+04  2.190733E+05 -2.871476E-11  9.846030E-11
       208  13 -7.172423E+04  1.007823E+02  1.044920E+03  2.188892E+05  1.019440E-11  1.025960E-10
       208  14 -7.173462E+04 -1.209184E+02  2.454132E+02  2.062366E+05 -1.982421E-10  7.163796E-11
       208  15 -7.172609E+04 -4.150510E+02 -4.911452E+02  2.188892E+05 -2.172205E-10  9.098047E-11
       208  16 -2.111354E+05 -3.131408E+04 -1.659470E+04  2.188672E+05 -1.143936E-10  1.551967E-10
       208  17 -5.359860E+04  4.565411E+03  5.539888E+03  2.061336E+05 -5.018863E-10  1.274121E-10
       208  18  1.045328E+05  4.092371E+04  2.994841E+04  2.187051E+05 -1.163875E-10  9.262163E-11
       208  19  6.770762E+04  3.151516E+04  1.868594E+04  2.189115E+05  2.560860E+04  1.102272E+04
       208  20 -8.986981E+04 -4.807139E+03 -5.048137E+03  2.063397E+05  2.253934E+04  4.889581E+02
       208  21 -2.479540E+05 -4.175530E+04 -3.093091E+04  2.190732E+05  1.947137E+04 -8.717585E+03
       208  22 -7.172419E+04  1.009131E+02  1.045151E+03  2.188892E+05 -1.264824E+03  1.101972E+04
       208  23 -7.173462E+04 -1.209178E+02  2.454161E+02  2.062366E+05 -1.145741E+03  4.863747E+02
       208  24 -7.172607E+04 -4.149691E+02 -4.910003E+02  2.188892E+05 -1.026140E+03 -8.719764E+03
       208  25 -2.111345E+05 -3.131373E+04 -1.659298E+04  2.188669E+05 -2.813251E+04  1.101673E+04
       208  26 -5.359794E+04  4.565576E+03  5.541048E+03  2.061336E+05 -2.483152E+04  4.837994E+02
       208  27  1.045333E+05  4.092392E+04  2.994943E+04  2.187052E+05 -2.152929E+04 -8.721930E+03
       209   1 -3.463190E+05 -6.481501E+04 -4.759018E+04  2.188215E+05 -1.841193E+04  1.404419E+04
       209   2 -5.013375E+05 -1.040624E+05 -8.462068E+04  2.079777E+05  1.254862E+04  1.595783E+04
       209   3 -6.620496E+05 -1.501685E+05 -1.435267E+05  2.215253E+05  4.349558E+04  5.409353E+03
       209   4 -7.185416E+04 -5.711204E+02 -9.043795E+02  2.186861E+05  1.118560E+03  1.404558E+04
       209   5 -7.161615E+04 -1.581845E+03 -2.087046E+03  2.064906E+05  2.190282E+03  1.595652E+04
       209   6 -7.189934E+04 -4.256195E+03 -4.379479E+03  2.186858E+05  3.256146E+03  5.409217E+03
       209   7  2.026857E+05  6.366898E+04  4.578039E+04  2.185505E+05  2.065741E+04  1.404696E+04
       209   8  3.582832E+05  1.008878E+05  8.043850E+04  2.050025E+05 -8.175060E+03  1.595527E+04
       209   9  5.185750E+05  1.416321E+05  1.347499E+05  2.158436E+05 -3.702135E+04  5.409454E+03
       209  10 -3.463194E+05 -6.481532E+04 -4.759119E+04  2.188217E+05  2.870658E-11  1.303439E-10
       209  11 -5.013377E+05 -1.040627E+05 -8.462145E+04  2.079775E+05  1.061916E-10  7.400508E-11
       209  12 -6.620517E+05 -1.501690E+05 -1.435303E+05  2.215251E+05 -1.310149E-10  6.033181E-11
       209  13 -7.185421E+04 -5.713325E+02 -9.047526E+02  2.186861E+05 -4.088284E-10  1.032287E-10
       209  14 -7.161622E+04 -1.582120E+03 -2.087534E+03  2.064906E+05 -1.486465E-10  9.345983E-11
       209  15 -7.189936E+04 -4.256229E+03 -4.379554E+03  2.186858E+05 -2.949124E-10  4.895211E-11
       209  16  2.026852E+05  6.366866E+04  4.577922E+04  2.185503E+05 -1.946738E-11  7.494142E-11
       209  17  3.582831E+05  1.008875E+05  8.043790E+04  2.050026E+05 -1.531595E-10  1.161625E-11
       209  18  5.185735E+05  1.416317E+05  1.347472E+05  2.158438E+05  1.974157E-11  7.340868E-12
       209  19 -3.463190E+05 -6.481501E+04 -4.759018E+04  2.188215E+05  1.841193E+04 -1.404419E+04
       209  20 -5.013375E+05 -1.040624E+05 -8.462068E+04  2.079777E+05 -1.254862E+04 -1.595783E+04
       209  21 -6.620496E+05 -1.501685E+05 -1.435267E+05  2.215253E+05 -4.349558E+04 -5.409353E+03
       209  22 -7.185416E+04 -5.711204E+02 -9.043795E+02  2.186861E+05 -1.118560E+03 -1.404558E+04
       209  23 -7.161615E+04 -1.581845E+03 -2.087046E+03  2.064906E+05 -2.190282E+03 -1.595652E+04
       209  24 -7.189934E+04 -4.256195E+03 -4.379479E+03  2.186858E+05 -3.256146E+03 -5.409217E+03
       209  25  2.026857E+05  6.366898E+04  4.578039E+04  2.185505E+05 -2.065741E+04 -1.404696E+04
       209  26  3.582832E+05  1.008878E+05  8.043850E+04  2.050025E+05  8.175060E+03 -1.595527E+04
       209  27  5.185750E+05  1.416321E+05  1.347499E+05  2.158436E+05  3.702135E+04 -5.409454E+03
       210   1 -1.383065E+05 -7.991754E+05 -1.370294E+05  2.483252E+05 -2.962872E+03 -4.749130E+04
       210   2 -7.345287E+04 -6.325262E+05 -7.060588E+04  2.244740E+05 -7.189552E+03 -1.675961E+04
       210   3 -2.640181E+04 -4.743435E+05 -2.866715E+04  2.260241E+05 -2.505933E+03  1.397600E+04
       210   4 -3.474158E+04 -3.813357E+05 -3.705888E+04  2.247570E+05 -2.939720E+03 -2.660412E+04
       210   5 -1.228879E+04 -3.789308E+05 -1.838013E+04  2.120415E+05 -7.189472E+03 -1.723287E+04
       210   6 -3.921376E+03 -3.813023E+05 -9.335291E+03  2.247293E+05 -2.529506E+03 -7.866246E+03
       210   7  6.881306E+04  3.666629E+04  6.290128E+04  2.011729E+05 -2.918165E+03 -5.702924E+03
       210   8  4.887182E+04 -1.252741E+05  3.384224E+04  1.996037E+05 -7.189373E+03 -1.770632E+04
       210   9  1.855877E+04 -2.882519E+05  9.997886E+03  2.234342E+05 -2.552985E+03 -2.971171E+04
       210  10 -1.383071E+05 -7.991778E+05 -1.370337E+05  2.483251E+05 -3.406462E-11  2.438833E-10
       210  11 -7.345300E+04 -6.325265E+05 -7.060650E+04  2.244739E+05  1.206226E-10 -1.186861E-10
       210  12 -2.640187E+04 -4.743437E+05 -2.866753E+04  2.260241E+05 -6.003147E-10 -3.497031E-10
       210  13 -3.474178E+04 -3.813365E+05 -3.706022E+04  2.247570E+05 -4.324489E-10  1.062035E-11
       210  14 -1.228892E+04 -3.789312E+05 -1.838079E+04  2.120414E+05  8.474991E-10 -1.012492E-10
       210  15 -3.921400E+03 -3.813024E+05 -9.335419E+03  2.247293E+05 -3.125620E-10  4.237868E-12
       210  16  6.881304E+04  3.666625E+04  6.290121E+04  2.011729E+05  1.300119E-12 -2.624145E-10
       210  17  4.887168E+04 -1.252744E+05  3.384156E+04  1.996036E+05  9.904399E-11  5.928533E-11
       210  18  1.855852E+04 -2.882528E+05  9.996214E+03  2.234342E+05  2.173283E-10  4.043895E-10
       210  19 -1.383065E+05 -7.991754E+05 -1.370294E+05  2.483252E+05  2.962872E+03  4.749130E+04
       210  20 -7.345287E+04 -6.325262E+05 -7.060588E+04  2.244740E+05  7.189552E+03  1.675961E+04
       210  21 -2.640181E+04 -4.743435E+05 -2.866715E+04  2.260241E+05  2.505933E+03 -1.397600E+04
       210  22 -3.474158E+04 -3.813357E+05 -3.705888E+04  2.247570E+05  2.939720E+03  2.660412E+04
       210  23 -1.228879E+04 -3.789308E+05 -1.838013E+04  2.120415E+05  7.189472E+03  1.723287E+04
       210  24 -3.921376E+03 -3.813023E+05 -9.335291E+03  2.247293E+05  2.529506E+03  7.866246E+03
       210  25  6.881306E+04  3.666629E+04  6.290128E+04  2.011729E+05  2.918165E+03  5.702924E+03
       210  26  4.887182E+04 -1.252741E+05  3.384224E+04  1.996037E+05  7.189373E+03  1.770632E+04
       210  27  1.855877E+04 -2.882519E+05  9.997886E+03  2.234342E+05  2.552985E+03  2.971171E+04
       211   1 -1.700856E+03 -3.724124E+05 -9.572456E+03  2.267133E+05  3.278469E+03  1.568734E+04
       211   2  3.857053E+04 -2.100462E+05  2.151386E+04  2.133625E+05  1.216495E+04  1.454585E+04
       211   3  7.852846E+04 -4.762163E+04  5.325163E+04  2.259391E+05  2.015114E+04  1.340541E+04
       211   4 -2.663143E+03 -3.803155E+05 -6.454253E+03  2.248471E+05  3.254184E+03 -6.715224E+03
       211   5 -1.771421E+02 -3.801532E+05 -2.044173E+03  2.118811E+05  1.214401E+04 -5.698759E+03
       211   6  1.621804E+03 -3.803330E+05  1.518084E+03  2.248431E+05  2.013337E+04 -4.680947E+03
       211   7 -3.625141E+03 -3.882174E+05 -3.334116E+03  2.229809E+05  3.230033E+03 -2.911757E+04
       211   8 -3.892586E+04 -5.502300E+05 -2.560101E+04  2.104001E+05  1.212315E+04 -2.593806E+04
       211   9 -7.529009E+04 -7.129332E+05 -5.021681E+04  2.237477E+05  2.011567E+04 -2.275798E+04
       211  10 -1.700934E+03 -3.724127E+05 -9.572939E+03  2.267132E+05 -1.352072E-10  5.723998E-10
       211  11  3.857031E+04 -2.100465E+05  2.151319E+04  2.133623E+05 -1.690605E-10  2.854808E-10
       211  12  7.852798E+04 -4.762193E+04  5.325053E+04  2.259389E+05  2.104455E-10  8.907871E-12
       211  13 -2.663167E+03 -3.803155E+05 -6.454357E+03  2.248471E+05 -1.500262E-10  1.685488E-11
       211  14 -1.773092E+02 -3.801533E+05 -2.044512E+03  2.118811E+05 -7.544516E-10  8.612192E-11
       211  15  1.621363E+03 -3.803332E+05  1.517281E+03  2.248432E+05 -6.071211E-10  1.127713E-10
       211  16 -3.625380E+03 -3.882183E+05 -3.335730E+03  2.229810E+05 -5.281804E-11 -5.583408E-10
       211  17 -3.892620E+04 -5.502307E+05 -2.560255E+04  2.104003E+05  2.677636E-10 -3.291741E-10
       211  18 -7.529067E+04 -7.129338E+05 -5.021854E+04  2.237481E+05  3.269649E-10 -5.201635E-11
       211  19 -1.700856E+03 -3.724124E+05 -9.572456E+03  2.267133E+05 -3.278469E+03 -1.568734E+04
       211  20  3.857053E+04 -2.100462E+05  2.151386E+04  2.133625E+05 -1.216495E+04 -1.454585E+04
       211  21  7.852846E+04 -4.762163E+04  5.325163E+04  2.259391E+05 -2.015114E+04 -1.340541E+04
       211  22 -2.663143E+03 -3.803155E+05 -6.454253E+03  2.248471E+05 -3.254184E+03  6.715224E+03
       211  23 -1.771421E+02 -3.801532E+05 -2.044173E+03  2.118811E+05 -1.214401E+04  5.698759E+03
       211  24  1.621804E+03 -3.803330E+05  1.518084E+03  2.248431E+05 -2.013337E+04  4.680947E+03
       211  25 -3.625141E+03 -3.882174E+05 -3.334116E+03  2.229809E+05 -3.230033E+03  2.911757E+04
       211  26 -3.892586E+04 -5.502300E+05 -2.560101E+04  2.104001E+05 -1.212315E+04  2.593806E+04
       211  27 -7.529009E+04 -7.129332E+05 -5.021681E+04  2.237477E+05 -2.011567E+04  2.275798E+04
       212   1  1.030201E+05  5.433691E+04  7.285364E+04  2.255819E+05  2.502088E+04  1.190637E+04
       212   2  1.472325E+05  2.124029E+05  1.189688E+05  2.187293E+05  2.419038E+04 -3.005408E+04
       212   3  2.048787E+05  3.792998E+05  1.957549E+05  2.367021E+05  7.678321E+03 -7.202005E+04
       212   4  2.289468E+03 -3.797652E+05  3.385472E+03  2.245986E+05  2.500543E+04 -5.019101E+03
       212   5  6.442504E+03 -3.809340E+05  8.462356E+03  2.121795E+05  2.421177E+04 -9.327436E+03
       212   6  1.750092E+04 -3.798259E+05  1.806649E+04  2.245857E+05  7.730355E+03 -1.362994E+04
       212   7 -9.845042E+04 -8.136793E+05 -6.608658E+04  2.236160E+05  2.499003E+04 -2.193317E+04
       212   8 -1.343674E+05 -9.739291E+05 -1.020575E+05  2.056360E+05  2.423274E+04  1.137991E+04
       212   9 -1.699154E+05 -1.138413E+06 -1.596484E+05  2.124841E+05  7.780154E+03  4.468926E+04
       212  10  1.030193E+05  5.433659E+04  7.285220E+04  2.255816E+05 -1.497798E-10 -3.320499E-10
       212  11  1.472316E+05  2.124017E+05  1.189660E+05  2.187299E+05 -7.627580E-11 -1.892346E-10
       212  12  2.048772E+05  3.792942E+05  1.957451E+05  2.367025E+05  1.543136E-10  1.349598E-10
       212  13  2.288790E+03 -3.797654E+05  3.384249E+03  2.245987E+05  4.762420E-10 -5.261021E-11
       212  14  6.441851E+03 -3.809343E+05  8.461091E+03  2.121797E+05 -4.635461E-10  8.623683E-11
       212  15  1.750081E+04 -3.798261E+05  1.806603E+04  2.245858E+05  1.055005E-10 -1.708491E-11
       212  16 -9.845122E+04 -8.136800E+05 -6.608865E+04  2.236164E+05 -1.546496E-10  4.479857E-10
       212  17 -1.343680E+05 -9.739294E+05 -1.020588E+05  2.056358E+05 -4.022568E-10  3.238267E-10
       212  18 -1.699160E+05 -1.138415E+06 -1.596522E+05  2.124838E+05  8.512059E-11 -1.694991E-10
       212  19  1.030201E+05  5.433691E+04  7.285364E+04  2.255819E+05 -2.502088E+04 -1.190637E+04
       212  20  1.472325E+05  2.124029E+05  1.189688E+05  2.187293E+05 -2.419038E+04  3.005408E+04
       212  21  2.048787E+05  3.792998E+05  1.957549E+05  2.367021E+05 -7.678321E+03  7.202005E+04
       212  22  2.289468E+03 -3.797652E+05  3.385472E+03  2.245986E+05 -2.500543E+04  5.019101E+03
       212  23  6.442504E+03 -3.809340E+05  8.462356E+03  2.121795E+05 -2.421177E+04  9.327436E+03
       212  24  1.750092E+04 -3.798259E+05  1.806649E+04  2.245857E+05 -7.730355E+03  1.362994E+04
       212  25 -9.845042E+04 -8.136793E+05 -6.608658E+04  2.236160E+05 -2.499003E+04  2.193317E+04
       212  26 -1.343674E+05 -9.739291E+05 -1.020575E+05  2.056360E+05 -2.423274E+04 -1.137991E+04
       212  27 -1.699154E+05 -1.138413E+06 -1.596484E+05  2.124841E+05 -7.780154E+03 -4.468926E+04
       213   1  7.878442E+05  2.057434E+05  1.951304E+05  2.120161E+05  6.960453E+04 -8.763716E+03
       213   2  6.328141E+05  1.583927E+05  1.242080E+05  1.992162E+05  2.794602E+04 -2.798420E+04
       213   3  4.854568E+05  1.198090E+05  8.257924E+04  2.093294E+05 -1.369328E+04 -3.034048E+04
       213   4 -2.994902E+04  4.128474E+03  4.461176E+03  2.091579E+05  3.175156E+03 -8.763671E+03
       213   5 -3.022876E+04  1.438596E+03  2.235008E+03  1.977010E+05  2.039935E+03 -2.798833E+04
       213   6 -2.988294E+04  4.907450E+02  1.183511E+03  2.091579E+05  9.128983E+02 -3.034064E+04
       213   7 -8.471164E+05 -1.975313E+05 -1.862368E+05  2.063035E+05 -6.316739E+04 -8.763026E+03
       213   8 -6.928439E+05 -1.555402E+05 -1.197536E+05  1.961874E+05 -2.383924E+04 -2.799234E+04
       213   9 -5.449578E+05 -1.188405E+05 -8.021804E+04  2.089866E+05  1.550740E+04 -3.034080E+04
       213  10  7.878390E+05  2.057420E+05  1.951212E+05  2.120166E+05 -1.252628E-10 -1.442815E-11
       213  11  6.328131E+05  1.583917E+05  1.242051E+05  1.992168E+05 -8.881798E-11 -6.066186E-11
       213  12  4.854563E+05  1.198079E+05  8.257716E+04  2.093291E+05 -8.698429E-11 -1.019861E-10
       213  13 -2.994905E+04  4.128388E+03  4.461013E+03  2.091580E+05 -1.912260E-10  3.743991E-11
       213  14 -3.022898E+04  1.437753E+03  2.233528E+03  1.977010E+05 -3.882216E-12 -5.759016E-12
       213  15 -2.988319E+04  4.897563E+02  1.181779E+03  2.091580E+05 -6.970802E-11 -6.889430E-11
       213  16 -8.471207E+05 -1.975325E+05 -1.862444E+05  2.063030E+05  1.780470E-10 -1.563381E-11
       213  17 -6.928447E+05 -1.555412E+05 -1.197562E+05  1.961869E+05  3.957438E-11 -1.047339E-11
       213  18 -5.449584E+05 -1.188416E+05 -8.022023E+04  2.089869E+05  5.621729E-12 -9.077631E-11
       213  19  7.878442E+05  2.057434E+05  1.951304E+05  2.120161E+05 -6.960453E+04  8.763716E+03
       213  20  6.328141E+05  1.583927E+05  1.242080E+05  1.992162E+05 -2.794602E+04  2.798420E+04
       213  21  4.854568E+05  1.198090E+05  8.257924E+04  2.093294E+05  1.369328E+04  3.034048E+04
       213  22 -2.994902E+04  4.128474E+03  4.461176E+03  2.091579E+05 -3.175156E+03  8.763671E+03
       213  23 -3.022876E+04  1.438596E+03  2.235008E+03  1.977010E+05 -2.039935E+03  2.798833E+04
       213  24 -2.988294E+04  4.907450E+02  1.183511E+03  2.091579E+05 -9.128983E+02  3.034064E+04
       213  25 -8.471164E+05 -1.975313E+05 -1.862368E+05  2.063035E+05  6.316739E+04  8.763026E+03
       213  26 -6.928439E+05 -1.555402E+05 -1.197536E+05  1.961874E+05  2.383924E+04  2.799234E+04
       213  27 -5.449578E+05 -1.188405E+05 -8.021804E+04  2.089866E+05 -1.550740E+04  3.034080E+04
       214   1  3.909398E+05  9.744813E+04  6.542400E+04  2.096767E+05 -1.517003E+04 -2.601215E+04
       214   2  2.394026E+05  6.173420E+04  3.904087E+04  1.974810E+05 -2.022869E+04 -1.836481E+04
       214   3  8.881649E+04  2.702268E+04  1.620475E+04  2.094474E+05 -2.528687E+04 -8.689701E+03
       214   4 -2.998787E+04  3.674023E+02  8.544209E+02  2.094356E+05  7.598519E+02 -2.601085E+04
       214   5 -3.001469E+04  1.262432E+02  3.828169E+02  1.973542E+05  5.679457E+02 -1.836117E+04
       214   6 -2.996023E+04  4.312144E+01  7.811836E+01  2.094356E+05  3.752979E+02 -8.683255E+03
       214   7 -4.507378E+05 -9.672175E+04 -6.371809E+04  2.091946E+05  1.667936E+04 -2.600956E+04
       214   8 -2.993577E+05 -6.148479E+04 -3.827471E+04  1.972274E+05  2.135594E+04 -1.835753E+04
       214   9 -1.487212E+05 -2.693669E+04 -1.604618E+04  2.094238E+05  2.603278E+04 -8.676810E+03
       214  10  3.909394E+05  9.744734E+04  6.542229E+04  2.096763E+05  1.175003E-10 -1.040284E-10
       214  11  2.394021E+05  6.173373E+04  3.903947E+04  1.974807E+05 -1.394700E-10 -3.912799E-11
       214  12  8.881578E+04  2.702243E+04  1.620341E+04  2.094473E+05 -4.246014E-10  2.006188E-10
       214  13 -2.998805E+04  3.666756E+02  8.531484E+02  2.094356E+05 -2.206144E-10 -9.511139E-11
       214  14 -3.001478E+04  1.258811E+02  3.821828E+02  1.973542E+05  3.012647E-10 -6.061094E-11
       214  15 -2.996025E+04  4.304043E+01  7.797641E+01  2.094356E+05 -2.528702E-10  1.144170E-10
       214  16 -4.507383E+05 -9.672255E+04 -6.371989E+04  2.091950E+05  5.148695E-11 -1.092921E-10
       214  17 -2.993583E+05 -6.148528E+04 -3.827621E+04  1.972277E+05 -1.345774E-10 -8.775840E-11
       214  18 -1.487219E+05 -2.693696E+04 -1.604759E+04  2.094240E+05  4.251348E-10 -5.522382E-12
       214  19  3.909398E+05  9.744813E+04  6.542400E+04  2.096767E+05  1.517003E+04  2.601215E+04
       214  20  2.394026E+05  6.173420E+04  3.904087E+04  1.974810E+05  2.022869E+04  1.836481E+04
       214  21  8.881649E+04  2.702268E+04  1.620475E+04  2.094474E+05  2.528687E+04  8.689701E+03
       214  22 -2.998787E+04  3.674023E+02  8.544209E+02  2.094356E+05 -7.598519E+02  2.601085E+04
       214  23 -3.001469E+04  1.262432E+02  3.828169E+02  1.973542E+05 -5.679457E+02  1.836117E+04
       214  24 -2.996023E+04  4.312144E+01  7.811836E+01  2.094356E+05 -3.752979E+02  8.683255E+03
       214  25 -4.507378E+05 -9.672175E+04 -6.371809E+04  2.091946E+05 -1.667936E+04  2.600956E+04
       214  26 -2.993577E+05 -6.148479E+04 -3.827471E+04  1.972274E+05 -2.135594E+04  1.835753E+04
       214  27 -1.487212E+05 -2.693669E+04 -1.604618E+04  2.094238E+05 -2.603278E+04  8.676810E+03
       215   1 -4.657653E+03  5.636654E+03  2.676531E+03  2.094420E+05 -2.531885E+04 -2.310258E+03
       215   2 -1.553315E+05 -2.906475E+04 -1.982826E+04  1.974443E+05 -2.130550E+04  7.598683E+03
       215   3 -3.066995E+05 -6.458561E+04 -4.514910E+04  2.096390E+05 -1.729282E+04  1.591242E+04
       215   4 -2.998687E+04  2.410156E+01 -5.756818E+01  2.094421E+05  3.718851E+02 -2.303505E+03
       215   5 -2.996835E+04 -9.671160E+01 -3.655947E+02  1.973461E+05  5.549055E+02  7.603729E+03
       215   6 -2.999970E+04 -3.706065E+02 -8.300537E+02  2.094422E+05  7.381066E+02  1.591592E+04
       215   7 -5.531400E+04 -5.588120E+03 -2.789180E+03  2.094422E+05  2.606164E+04 -2.296751E+03
       215   8  9.541153E+04  2.887082E+04  1.909851E+04  1.972479E+05  2.241956E+04  7.608768E+03
       215   9  2.467769E+05  6.384072E+04  4.348819E+04  2.092453E+05  1.877678E+04  1.591941E+04
       215  10 -4.658342E+03  5.636477E+03  2.675316E+03  2.094420E+05 -3.075354E-11  2.177162E-10
       215  11 -1.553320E+05 -2.906493E+04 -1.982923E+04  1.974444E+05 -3.672535E-10  7.601270E-11
       215  12 -3.066999E+05 -6.458596E+04 -4.515014E+04  2.096392E+05 -3.459684E-10  6.122269E-11
       215  13 -2.998687E+04  2.409582E+01 -5.757841E+01  2.094421E+05 -1.705534E-10  8.640643E-11
       215  14 -2.996837E+04 -9.677377E+01 -3.657039E+02  1.973461E+05 -2.971634E-10  1.694430E-11
       215  15 -2.999977E+04 -3.708787E+02 -8.305307E+02  2.094422E+05  2.149856E-10 -4.592566E-11
       215  16 -5.531473E+04 -5.588308E+03 -2.790466E+03  2.094422E+05 -3.640992E-10  4.251764E-11
       215  17  9.541097E+04  2.887062E+04  1.909745E+04  1.972478E+05  3.195265E-11 -8.587206E-11
       215  18  2.467764E+05  6.384035E+04  4.348706E+04  2.092450E+05  5.466974E-10 -1.315620E-10
       215  19 -4.657653E+03  5.636654E+03  2.676531E+03  2.094420E+05  2.531885E+04  2.310258E+03
       215  20 -1.553315E+05 -2.906475E+04 -1.982826E+04  1.974443E+05  2.130550E+04 -7.598683E+03
       215  21 -3.066995E+05 -6.458561E+04 -4.514910E+04  2.096390E+05  1.729282E+04 -1.591242E+04
       215  22 -2.998687E+04  2.410156E+01 -5.756818E+01  2.094421E+05 -3.718851E+02  2.303505E+03
       215  23 -2.996835E+04 -9.671160E+01 -3.655947E+02  1.973461E+05 -5.549055E+02 -7.603729E+03
       215  24 -2.999970E+04 -3.706065E+02 -8.300537E+02  2.094422E+05 -7.381066E+02 -1.591592E+04
       215  25 -5.531400E+04 -5.588120E+03 -2.789180E+03  2.094422E+05 -2.606164E+04  2.296751E+03
       215  26  9.541153E+04  2.887082E+04  1.909851E+04  1.972479E+05 -2.241956E+04 -7.608768E+03
       215  27  2.467769E+05  6.384072E+04  4.348819E+04  2.092453E+05 -1.877678E+04 -1.591941E+04
       216   1 -4.009581E+05 -8.680065E+04 -6.156687E+04  2.093441E+05 -1.605294E+04  2.068126E+04
       216   2 -5.488479E+05 -1.248602E+05 -9.961774E+04  1.991090E+05  1.877043E+04  2.072405E+04
       216   3 -7.031035E+05 -1.704380E+05 -1.622260E+05  2.120322E+05  5.357953E+04  6.718280E+03
       216   4 -3.011806E+04 -5.305093E+02 -1.152887E+03  2.092124E+05  8.816573E+02  2.068361E+04
       216   5 -2.987776E+04 -1.548093E+03 -2.207855E+03  1.976337E+05  2.014947E+03  2.072036E+04
       216   6 -3.017008E+04 -4.228473E+03 -4.413263E+03  2.092125E+05  3.142947E+03  6.713832E+03
       216   7  3.408590E+05  8.573277E+04  5.925830E+04  2.090805E+05  1.782602E+04  2.068595E+04
       216   8  4.893535E+05  1.217485E+05  9.519139E+04  1.961570E+05 -1.475420E+04  2.071675E+04
       216   9  6.431862E+05  1.619502E+05  1.533781E+05  2.063897E+05 -4.734802E+04  6.709851E+03
       216  10 -4.009585E+05 -8.680118E+04 -6.156816E+04  2.093444E+05 -2.464126E-10  3.652184E-11
       216  11 -5.488484E+05 -1.248607E+05 -9.961921E+04  1.991087E+05 -2.262978E-11 -3.089211E-11
       216  12 -7.031066E+05 -1.704388E+05 -1.622315E+05  2.120320E+05  7.966827E-11 -3.621390E-12
       216  13 -3.011818E+04 -5.309689E+02 -1.153692E+03  2.092123E+05  6.242872E-11 -7.340614E-11
       216  14 -2.987788E+04 -1.548555E+03 -2.208669E+03  1.976336E+05 -3.329908E-10 -8.766464E-11
       216  15 -3.017010E+04 -4.228524E+03 -4.413367E+03  2.092125E+05  8.813036E-12 -2.815280E-11
       216  16  3.408585E+05  8.573223E+04  5.925690E+04  2.090802E+05  3.528825E-10 -1.441306E-10
       216  17  4.893531E+05  1.217480E+05  9.519018E+04  1.961573E+05  5.364527E-12 -7.789731E-11
       216  18  6.431838E+05  1.619495E+05  1.533738E+05  2.063899E+05  2.865185E-10 -2.383369E-11
       216  19 -4.009581E+05 -8.680065E+04 -6.156687E+04  2.093441E+05  1.605294E+04 -2.068126E+04
       216  20 -5.488479E+05 -1.248602E+05 -9.961774E+04  1.991090E+05 -1.877043E+04 -2.072405E+04
       216  21 -7.031035E+05 -1.704380E+05 -1.622260E+05  2.120322E+05 -5.357953E+04 -6.718280E+03
       216  22 -3.011806E+04 -5.305093E+02 -1.152887E+03  2.092124E+05 -8.816573E+02 -2.068361E+04
       216  23 -2.987776E+04 -1.548093E+03 -2.207855E+03  1.976337E+05 -2.014947E+03 -2.072036E+04
       216  24 -3.017008E+04 -4.228473E+03 -4.413263E+03  2.092125E+05 -3.142947E+03 -6.713832E+03
       216  25  3.408590E+05  8.573277E+04  5.925830E+04  2.090805E+05 -1.782602E+04 -2.068595E+04
       216  26  4.893535E+05  1.217485E+05  9.519139E+04  1.961570E+05  1.475420E+04 -2.071675E+04
       216  27  6.431862E+05  1.619502E+05  1.533781E+05  2.063897E+05  4.734802E+04 -6.709851E+03
       217   1 -1.214375E+05 -5.417321E+05 -1.170248E+05  2.560367E+05 -3.599791E+03 -2.620702E+04
       217   2 -7.331010E+04 -3.541136E+05 -6.111532E+04  2.420382E+05 -9.080532E+03 -1.740975E+03
       217   3 -2.894655E+04 -1.706075E+05 -2.209086E+04  2.570271E+05 -4.030793E+03  2.272990E+04
       217   4  1.285725E+03 -4.654640E+04  1.222906E+03  2.570981E+05 -3.578498E+03 -3.840719E+02
       217   5  7.384104E+02 -4.664759E+04  1.583510E+03  2.426053E+05 -9.079699E+03 -1.173920E+03
       217   6  8.162291E+02 -4.650846E+04  2.607034E+03  2.570984E+05 -4.052876E+03 -1.966675E+03
       217   7  1.239916E+05  4.488657E+05  1.194558E+05  2.581603E+05 -3.557128E+03  2.545940E+04
       217   8  7.478101E+04  2.609083E+05  6.427736E+04  2.431726E+05 -9.078866E+03 -6.065898E+02
       217   9  3.057839E+04  7.760662E+04  2.730645E+04  2.571697E+05 -4.074961E+03 -2.666808E+04
       217  10 -1.214377E+05 -5.417329E+05 -1.170261E+05  2.560366E+05  4.521194E-11  7.854589E-11
       217  11 -7.331019E+04 -3.541136E+05 -6.111548E+04  2.420382E+05 -2.393876E-13 -1.855228E-10
       217  12 -2.894671E+04 -1.706081E+05 -2.209186E+04  2.570272E+05 -5.775733E-10 -4.475347E-10
       217  13  1.285711E+03 -4.654640E+04  1.222882E+03  2.570981E+05 -3.404264E-10  1.252306E-10
       217  14  7.383215E+02 -4.664761E+04  1.583353E+03  2.426053E+05  8.058384E-10  1.005578E-10
       217  15  8.162104E+02 -4.650847E+04  2.606996E+03  2.570984E+05 -2.161393E-10  1.590270E-10
       217  16  1.239914E+05  4.488650E+05  1.194546E+05  2.581603E+05 -5.785731E-11 -1.654910E-11
       217  17  7.478092E+04  2.609083E+05  6.427721E+04  2.431726E+05  5.850924E-11  2.369574E-10
       217  18  3.057818E+04  7.760585E+04  2.730508E+04  2.571696E+05  1.815770E-10  5.420647E-10
       217  19 -1.214375E+05 -5.417321E+05 -1.170248E+05  2.560367E+05  3.599791E+03  2.620702E+04
       217  20 -7.331010E+04 -3.541136E+05 -6.111532E+04  2.420382E+05  9.080532E+03  1.740975E+03
       217  21 -2.894655E+04 -1.706075E+05 -2.209086E+04  2.570271E+05  4.030793E+03 -2.272990E+04
       217  22  1.285725E+03 -4.654640E+04  1.222906E+03  2.570981E+05  3.578498E+03  3.840719E+02
       217  23  7.384104E+02 -4.664759E+04  1.583510E+03  2.426053E+05  9.079699E+03  1.173920E+03
       217  24  8.162291E+02 -4.650846E+04  2.607034E+03  2.570984E+05  4.052876E+03  1.966675E+03
       217  25  1.239916E+05  4.488657E+05  1.194558E+05  2.581603E+05  3.557128E+03 -2.545940E+04
       217  26  7.478101E+04  2.609083E+05  6.427736E+04  2.431726E+05  9.078866E+03  6.065898E+02
       217  27  3.057839E+04  7.760662E+04  2.730645E+04  2.571697E+05  4.074961E+03  2.666808E+04
       218   1 -2.043565E+03 -5.509706E+04 -2.691274E+03  2.570943E+05  2.525966E+03  2.289880E+04
       218   2  4.211180E+04  1.298007E+05  3.044814E+04  2.438352E+05  1.262479E+04  1.764661E+04
       218   3  8.882657E+04  3.160314E+05  6.763634E+04  2.601954E+05  2.178940E+04  1.239422E+04
       218   4  9.248224E+02 -4.635675E+04  3.407674E+03  2.572393E+05  2.503093E+03 -2.471560E+03
       218   5  1.896018E+03 -4.682316E+04  5.996164E+03  2.424280E+05  1.260506E+04 -5.483806E+03
       218   6  5.039631E+03 -4.637884E+04  1.107781E+04  2.572362E+05  2.177268E+04 -8.494778E+03
       218   7  3.893540E+03 -3.761501E+04  9.509038E+03  2.573843E+05  2.480208E+03 -2.784234E+04
       218   8 -3.832084E+04 -2.234142E+05 -1.845417E+04  2.410213E+05  1.258544E+04 -2.860793E+04
       218   9 -7.875349E+04 -4.086572E+05 -4.548218E+04  2.542787E+05  2.175614E+04 -2.937205E+04
       218  10 -2.043712E+03 -5.509763E+04 -2.692271E+03  2.570943E+05 -4.768018E-10  4.384540E-10
       218  11  4.211154E+04  1.298003E+05  3.044726E+04  2.438350E+05 -3.489565E-10  2.385489E-10
       218  12  8.882602E+04  3.160312E+05  6.763516E+04  2.601952E+05  2.054928E-10  8.031319E-11
       218  13  9.248140E+02 -4.635676E+04  3.407651E+03  2.572393E+05 -1.989105E-10  1.417853E-10
       218  14  1.895840E+03 -4.682324E+04  5.995809E+03  2.424281E+05 -5.898905E-10  1.082574E-10
       218  15  5.039102E+03 -4.637905E+04  1.107679E+04  2.572363E+05 -4.826604E-10  1.520236E-10
       218  16  3.893325E+03 -3.761585E+04  9.507570E+03  2.573843E+05 -1.321255E-10 -3.044932E-10
       218  17 -3.832123E+04 -2.234151E+05 -1.845600E+04  2.410215E+05  2.885137E-10 -1.393584E-10
       218  18 -7.875423E+04 -4.086582E+05 -4.548469E+04  2.542792E+05  2.766476E-10 -3.595743E-11
       218  19 -2.043565E+03 -5.509706E+04 -2.691274E+03  2.570943E+05 -2.525966E+03 -2.289880E+04
       218  20  4.211180E+04  1.298007E+05  3.044814E+04  2.438352E+05 -1.262479E+04 -1.764661E+04
       218  21  8.882657E+04  3.160314E+05  6.763634E+04  2.601954E+05 -2.178940E+04 -1.239422E+04
       218  22  9.248224E+02 -4.635675E+04  3.407674E+03  2.572393E+05 -2.503093E+03  2.471560E+03
       218  23  1.896018E+03 -4.682316E+04  5.996164E+03  2.424280E+05 -1.260506E+04  5.483806E+03
       218  24  5.039631E+03 -4.637884E+04  1.107781E+04  2.572362E+05 -2.177268E+04  8.494778E+03
       218  25  3.893540E+03 -3.761501E+04  9.509038E+03  2.573843E+05 -2.480208E+03  2.784234E+04
       218  26 -3.832084E+04 -2.234142E+05 -1.845417E+04  2.410213E+05 -1.258544E+04  2.860793E+04
       218  27 -7.875349E+04 -4.086572E+05 -4.548218E+04  2.542787E+05 -2.175614E+04  2.937205E+04
       219   1  1.177592E+05  4.332147E+05  9.158379E+04  2.591905E+05  2.739726E+04  9.158308E+03
       219   2  1.754280E+05  6.117235E+05  1.506053E+05  2.615508E+05  2.673473E+04 -4.696645E+04
       219   3  2.612165E+05  8.045963E+05  2.531776E+05  2.923108E+05  8.516246E+03 -1.031072E+05
       219   4  6.780571E+03 -4.503684E+04  1.484615E+04  2.569649E+05  2.738306E+04 -1.043324E+04
       219   5  1.874203E+04 -4.859145E+04  2.740795E+04  2.427524E+05  2.675498E+04 -2.438189E+04
       219   6  5.152256E+04 -4.511701E+04  5.425418E+04  2.569365E+05  8.565270E+03 -3.832866E+04
       219   7 -1.042094E+05 -5.230605E+05 -6.189614E+04  2.547410E+05  2.736900E+04 -3.001023E+04
       219   8 -1.379675E+05 -7.084829E+05 -9.580592E+04  2.239743E+05  2.677387E+04 -1.820708E+03
       219   9 -1.582157E+05 -8.941540E+05 -1.447021E+05  2.216107E+05  8.606969E+03  2.636189E+04
       219  10  1.177584E+05  4.332145E+05  9.158222E+04  2.591903E+05 -1.742117E-10 -2.097540E-10
       219  11  1.754266E+05  6.117210E+05  1.505998E+05  2.615518E+05 -1.042779E-10 -1.917132E-10
       219  12  2.612136E+05  8.045849E+05  2.531575E+05  2.923115E+05  1.637424E-10  8.511103E-11
       219  13  6.779737E+03 -4.503716E+04  1.484453E+04  2.569652E+05  1.565501E-10  9.160812E-11
       219  14  1.874110E+04 -4.859228E+04  2.740548E+04  2.427529E+05 -4.784218E-10  9.949149E-11
       219  15  5.152209E+04 -4.511860E+04  5.425128E+04  2.569368E+05  6.636031E-12  7.971776E-11
       219  16 -1.042104E+05 -5.230616E+05 -6.189924E+04  2.547417E+05 -1.204975E-10  2.116658E-10
       219  17 -1.379682E+05 -7.084831E+05 -9.580727E+04  2.239743E+05 -2.469365E-10  2.049150E-10
       219  18 -1.582160E+05 -8.941547E+05 -1.447035E+05  2.216105E+05 -5.716376E-12 -1.481418E-10
       219  19  1.177592E+05  4.332147E+05  9.158379E+04  2.591905E+05 -2.739726E+04 -9.158308E+03
       219  20  1.754280E+05  6.117235E+05  1.506053E+05  2.615508E+05 -2.673473E+04  4.696645E+04
       219  21  2.612165E+05  8.045963E+05  2.531776E+05  2.923108E+05 -8.516246E+03  1.031072E+05
       219  22  6.780571E+03 -4.503684E+04  1.484615E+04  2.569649E+05 -2.738306E+04  1.043324E+04
       219  23  1.874203E+04 -4.859145E+04  2.740795E+04  2.427524E+05 -2.675498E+04  2.438189E+04
       219  24  5.152256E+04 -4.511701E+04  5.425418E+04  2.569365E+05 -8.565270E+03  3.832866E+04
       219  25 -1.042094E+05 -5.230605E+05 -6.189614E+04  2.547410E+05 -2.736900E+04  3.001023E+04
       219  26 -1.379675E+05 -7.084829E+05 -9.580592E+04  2.239743E+05 -2.677387E+04  1.820708E+03
       219  27 -1.582157E+05 -8.941540E+05 -1.447021E+05  2.216107E+05 -8.606969E+03 -2.636189E+04
       220   1  7.277142E+05  1.788849E+05  1.707036E+05  1.895147E+05  6.300236E+04 -7.141510E+03
       220   2  5.928832E+05  1.329163E+05  1.067288E+05  1.757131E+05  2.611121E+04 -2.265464E+04
       220   3  4.655692E+05  9.764328E+04  6.942888E+04  1.818298E+05 -1.076567E+04 -2.417151E+04
       220   4  5.059754E+04  1.191823E+04  1.266149E+04  1.813431E+05  8.928483E+03 -7.144409E+03
       220   5  4.978653E+04  4.274600E+03  6.408320E+03  1.713842E+05  5.666964E+03 -2.265835E+04
       220   6  5.064481E+04  1.497298E+03  3.494957E+03  1.813435E+05  2.410713E+03 -2.417082E+04
       220   7 -6.260903E+05 -1.550790E+05 -1.454007E+05  1.731805E+05 -4.508687E+04 -7.145894E+03
       220   8 -4.930234E+05 -1.243837E+05 -9.392287E+04  1.670592E+05 -1.475988E+04 -2.266177E+04
       220   9 -3.641080E+05 -9.465717E+04 -6.244271E+04  1.808575E+05  1.557862E+04 -2.417015E+04
       220  10  7.277099E+05  1.788837E+05  1.706961E+05  1.895151E+05 -2.441551E-08  1.999252E-10
       220  11  5.928823E+05  1.329156E+05  1.067265E+05  1.757136E+05  4.466737E-08  8.173426E-10
       220  12  4.655689E+05  9.764262E+04  6.942756E+04  1.818296E+05  1.103872E-07  1.713435E-09
       220  13  5.059744E+04  1.191815E+04  1.266124E+04  1.813432E+05 -2.817898E-10  1.608345E-10
       220  14  4.978635E+04  4.274040E+03  6.407294E+03  1.713843E+05 -1.899170E-10  8.562190E-10
       220  15  5.064465E+04  1.496669E+03  3.493848E+03  1.813436E+05 -3.069113E-10  1.735668E-09
       220  16 -6.260925E+05 -1.550796E+05 -1.454046E+05  1.731802E+05  2.427577E-08  1.864436E-10
       220  17 -4.930238E+05 -1.243843E+05 -9.392424E+04  1.670589E+05 -4.469105E-08  8.753772E-10
       220  18 -3.641084E+05 -9.465786E+04 -6.244427E+04  1.808578E+05 -1.107064E-07  1.824360E-09
       220  19  7.277142E+05  1.788849E+05  1.707036E+05  1.895147E+05 -6.300236E+04  7.141510E+03
       220  20  5.928832E+05  1.329163E+05  1.067288E+05  1.757131E+05 -2.611121E+04  2.265464E+04
       220  21  4.655692E+05  9.764328E+04  6.942888E+04  1.818298E+05  1.076567E+04  2.417151E+04
       220  22  5.059754E+04  1.191823E+04  1.266149E+04  1.813431E+05 -8.928483E+03  7.144409E+03
       220  23  4.978653E+04  4.274600E+03  6.408320E+03  1.713842E+05 -5.666964E+03  2.265835E+04
       220  24  5.064481E+04  1.497298E+03  3.494957E+03  1.813435E+05 -2.410713E+03  2.417082E+04
       220  25 -6.260903E+05 -1.550790E+05 -1.454007E+05  1.731805E+05  4.508687E+04  7.145894E+03
       220  26 -4.930234E+05 -1.243837E+05 -9.392287E+04  1.670592E+05  1.475988E+04  2.266177E+04
       220  27 -3.641080E+05 -9.465717E+04 -6.244271E+04  1.808575E+05 -1.557862E+04  2.417015E+04
       221   1  3.834570E+05  7.800859E+04  5.413284E+04  1.822469E+05 -1.232274E+04 -2.032282E+04
       221   2  2.520286E+05  4.658767E+04  3.074686E+04  1.714276E+05 -1.704811E+04 -1.354731E+04
       221   3  1.215393E+05  1.635993E+04  1.073608E+04  1.815627E+05 -2.177311E+04 -5.109491E+03
       221   4  5.033640E+04  1.100042E+03  2.624758E+03  1.815741E+05  1.951617E+03 -2.032105E+04
       221   5  5.022962E+04  3.793177E+02  1.467735E+03  1.710967E+05  1.216392E+03 -1.354384E+04
       221   6  5.035438E+04  1.605488E+02  9.160393E+02  1.815742E+05  4.806623E+02 -5.104028E+03
       221   7 -2.826729E+05 -7.581379E+04 -4.888509E+04  1.809016E+05  1.621861E+04 -2.031931E+04
       221   8 -1.515276E+05 -4.583073E+04 -2.781080E+04  1.707659E+05  1.947521E+04 -1.354038E+04
       221   9 -2.082431E+04 -1.603879E+04 -8.902201E+03  1.815858E+05  2.273200E+04 -5.098563E+03
       221  10  3.834567E+05  7.800811E+04  5.413178E+04  1.822467E+05 -1.119218E-07  1.704941E-09
       221  11  2.520282E+05  4.658739E+04  3.074597E+04  1.714274E+05 -4.558656E-08  7.126504E-10
       221  12  1.215388E+05  1.635978E+04  1.073514E+04  1.815626E+05  2.349182E-08 -3.073092E-10
       221  13  5.033629E+04  1.099598E+03  2.623975E+03  1.815741E+05 -2.034472E-10  1.706043E-09
       221  14  5.022957E+04  3.791203E+02  1.467387E+03  1.710967E+05 -2.063604E-10  6.570079E-10
       221  15  5.035438E+04  1.605208E+02  9.159899E+02  1.815742E+05  5.832533E-11 -4.599827E-10
       221  16 -2.826733E+05 -7.581431E+04 -4.888636E+04  1.809019E+05  1.114519E-07  1.766445E-09
       221  17 -1.515280E+05 -4.583103E+04 -2.781186E+04  1.707661E+05  4.549135E-08  4.815271E-10
       221  18 -2.082487E+04 -1.603896E+04 -8.903221E+03  1.815859E+05 -2.375359E-08 -6.050531E-10
       221  19  3.834570E+05  7.800859E+04  5.413284E+04  1.822469E+05  1.232274E+04  2.032282E+04
       221  20  2.520286E+05  4.658767E+04  3.074686E+04  1.714276E+05  1.704811E+04  1.354731E+04
       221  21  1.215393E+05  1.635993E+04  1.073608E+04  1.815627E+05  2.177311E+04  5.109491E+03
       221  22  5.033640E+04  1.100042E+03  2.624758E+03  1.815741E+05 -1.951617E+03  2.032105E+04
       221  23  5.022962E+04  3.793177E+02  1.467735E+03  1.710967E+05 -1.216392E+03  1.354384E+04
       221  24  5.035438E+04  1.605488E+02  9.160393E+02  1.815742E+05 -4.806623E+02  5.104028E+03
       221  25 -2.826729E+05 -7.581379E+04 -4.888509E+04  1.809016E+05 -1.621861E+04  2.031931E+04
       221  26 -1.515276E+05 -4.583073E+04 -2.781080E+04  1.707659E+05 -1.947521E+04  1.354038E+04
       221  27 -2.082431E+04 -1.603879E+04 -8.902201E+03  1.815858E+05 -2.273200E+04  5.098563E+03
       222   1  4.050094E+04 -2.185775E+03 -1.021911E+03  1.815930E+05 -2.192714E+04  4.207076E+02
       222   2 -9.017398E+04 -3.219128E+04 -2.046104E+04  1.710072E+05 -1.869966E+04  8.959849E+03
       222   3 -2.213570E+05 -6.265310E+04 -4.211388E+04  1.813883E+05 -1.547253E+04  1.602061E+04
       222   4  5.032401E+04  1.366709E+02  7.670159E+02  1.815768E+05  3.381598E+02  4.262863E+02
       222   5  5.027242E+04  1.200638E+02  6.446316E+02  1.710935E+05  1.584397E+01  8.963841E+03
       222   6  5.031154E+04  2.639469E+02  7.727081E+02  1.815768E+05 -3.061911E+02  1.602319E+04
       222   7  6.014824E+04  2.459378E+03  2.557802E+03  1.815606E+05  2.260381E+04  4.318638E+02
       222   8  1.907394E+05  3.243066E+04  2.175122E+04  1.711799E+05  1.873542E+04  8.967838E+03
       222   9  3.220541E+05  6.317746E+04  4.365832E+04  1.817654E+05  1.486655E+04  1.602578E+04
       222  10  4.050042E+04 -2.185904E+03 -1.022815E+03  1.815930E+05 -1.441865E-09 -5.689317E-10
       222  11 -9.017438E+04 -3.219146E+04 -2.046184E+04  1.710073E+05 -9.266748E-10 -5.605033E-10
       222  12 -2.213574E+05 -6.265344E+04 -4.211481E+04  1.813885E+05 -7.718521E-10 -4.483820E-10
       222  13  5.032401E+04  1.366707E+02  7.670154E+02  1.815768E+05 -3.045862E-11 -7.426813E-10
       222  14  5.027240E+04  1.199775E+02  6.444806E+02  1.710935E+05 -1.665403E-10 -7.570020E-10
       222  15  5.031147E+04  2.636711E+02  7.722255E+02  1.815768E+05 -3.288087E-11 -5.785006E-10
       222  16  6.014769E+04  2.459240E+03  2.556842E+03  1.815606E+05  1.219693E-09 -9.049546E-10
       222  17  1.907390E+05  3.243048E+04  2.175041E+04  1.711798E+05  1.014287E-09 -7.637432E-10
       222  18  3.220538E+05  6.317712E+04  4.365743E+04  1.817652E+05  9.416700E-10 -5.411932E-10
       222  19  4.050094E+04 -2.185775E+03 -1.021911E+03  1.815930E+05  2.192714E+04 -4.207076E+02
       222  20 -9.017398E+04 -3.219128E+04 -2.046104E+04  1.710072E+05  1.869966E+04 -8.959849E+03
       222  21 -2.213570E+05 -6.265310E+04 -4.211388E+04  1.813883E+05  1.547253E+04 -1.602061E+04
       222  22  5.032401E+04  1.366709E+02  7.670159E+02  1.815768E+05 -3.381598E+02 -4.262863E+02
       222  23  5.027242E+04  1.200638E+02  6.446316E+02  1.710935E+05 -1.584397E+01 -8.963841E+03
       222  24  5.031154E+04  2.639469E+02  7.727081E+02  1.815768E+05  3.061911E+02 -1.602319E+04
       222  25  6.014824E+04  2.459378E+03  2.557802E+03  1.815606E+05 -2.260381E+04 -4.318638E+02
       222  26  1.907394E+05  3.243066E+04  2.175122E+04  1.711799E+05 -1.873542E+04 -8.967838E+03
       222  27  3.220541E+05  6.317746E+04  4.365832E+04  1.817654E+05 -1.486655E+04 -1.602578E+04
       223   1 -3.029570E+05 -8.173272E+04 -5.607441E+04  1.812248E+05 -1.460450E+04  2.005784E+04
       223   2 -4.314883E+05 -1.133676E+05 -8.834252E+04  1.703359E+05  1.533315E+04  1.956750E+04
       223   3 -5.649286E+05 -1.492050E+05 -1.411546E+05  1.794726E+05  4.525950E+04  6.275199E+03
       223   4  5.037255E+04  3.446553E+02  9.266432E+02  1.813675E+05 -4.391491E+02  2.005947E+04
       223   5  5.014813E+04  9.557065E+02  1.522913E+03  1.713551E+05 -1.207302E+03  1.956424E+04
       223   6  5.033073E+04  2.698235E+03  2.904637E+03  1.813673E+05 -1.979622E+03  6.271736E+03
       223   7  4.038265E+05  8.241583E+04  5.792506E+04  1.815102E+05  1.373398E+04  2.006110E+04
       223   8  5.320098E+05  1.152658E+05  9.137945E+04  1.723750E+05 -1.776027E+04  1.956093E+04
       223   9  6.659439E+05  1.545758E+05  1.469465E+05  1.832639E+05 -4.926529E+04  6.267991E+03
       223  10 -3.029573E+05 -8.173321E+04 -5.607556E+04  1.812250E+05 -6.490161E-10 -4.157287E-10
       223  11 -4.314887E+05 -1.133681E+05 -8.834368E+04  1.703356E+05 -4.892762E-10 -2.677415E-10
       223  12 -5.649308E+05 -1.492056E+05 -1.411586E+05  1.794724E+05 -6.460747E-10 -9.392365E-11
       223  13  5.037244E+04  3.442231E+02  9.258866E+02  1.813675E+05 -5.192029E-11 -3.990806E-10
       223  14  5.014802E+04  9.552951E+02  1.522191E+03  1.713551E+05  3.515348E-10 -2.499206E-10
       223  15  5.033071E+04  2.698192E+03  2.904555E+03  1.813673E+05 -2.430065E-10 -8.496636E-11
       223  16  4.038262E+05  8.241534E+04  5.792395E+04  1.815100E+05  6.650039E-10 -4.498918E-10
       223  17  5.320093E+05  1.152653E+05  9.137814E+04  1.723753E+05  5.412354E-10 -2.473977E-10
       223  18  6.659413E+05  1.545751E+05  1.469419E+05  1.832641E+05  5.106032E-10 -7.443915E-11
       223  19 -3.029570E+05 -8.173272E+04 -5.607441E+04  1.812248E+05  1.460450E+04 -2.005784E+04
       223  20 -4.314883E+05 -1.133676E+05 -8.834252E+04  1.703359E+05 -1.533315E+04 -1.956750E+04
       223  21 -5.649286E+05 -1.492050E+05 -1.411546E+05  1.794726E+05 -4.525950E+04 -6.275199E+03
       223  22  5.037255E+04  3.446553E+02  9.266432E+02  1.813675E+05  4.391491E+02 -2.005947E+04
       223  23  5.014813E+04  9.557065E+02  1.522913E+03  1.713551E+05  1.207302E+03 -1.956424E+04
       223  24  5.033073E+04  2.698235E+03  2.904637E+03  1.813673E+05  1.979622E+03 -6.271736E+03
       223  25  4.038265E+05  8.241583E+04  5.792506E+04  1.815102E+05 -1.373398E+04 -2.006110E+04
       223  26  5.320098E+05  1.152658E+05  9.137945E+04  1.723750E+05  1.776027E+04 -1.956093E+04
       223  27  6.659439E+05  1.545758E+05  1.469465E+05  1.832639E+05  4.926529E+04 -6.267991E+03
       224   1 -1.100305E+05 -4.557572E+05 -1.061842E+05  2.243233E+05 -3.254064E+03 -2.494202E+04
       224   2 -6.669720E+04 -2.923267E+05 -5.625661E+04  2.114040E+05 -8.339375E+03 -2.434710E+03
       224   3 -2.767112E+04 -1.328897E+05 -2.207030E+04  2.236867E+05 -4.089433E+03  2.007702E+04
       224   4 -1.112879E+03 -1.616027E+04 -1.313324E+03  2.236739E+05 -3.238260E+03 -1.511018E+03
       224   5 -2.289392E+02 -1.608022E+04 -2.099292E+02  2.110729E+05 -8.338361E+03 -1.394970E+03
       224   6  2.386003E+02 -1.613061E+04  7.085426E+02  2.236731E+05 -4.105110E+03 -1.280732E+03
       224   7  1.077911E+05  4.236152E+05  1.035461E+05  2.230239E+05 -3.222513E+03  2.193651E+04
       224   8  6.623457E+04  2.602389E+05  5.583278E+04  2.107417E+05 -8.337348E+03 -3.547751E+02
       224   9  2.814775E+04  1.006426E+05  2.348845E+04  2.236595E+05 -4.120784E+03 -2.264241E+04
       224  10 -1.100307E+05 -4.557579E+05 -1.061854E+05  2.243233E+05 -6.574986E-11 -1.571004E-10
       224  11 -6.669728E+04 -2.923267E+05 -5.625675E+04  2.114040E+05 -1.732421E-10 -3.574942E-11
       224  12 -2.767125E+04 -1.328902E+05 -2.207109E+04  2.236867E+05 -2.588829E-10  1.611099E-11
       224  13 -1.112891E+03 -1.616027E+04 -1.313348E+03  2.236739E+05 -1.782631E-10  1.662075E-10
       224  14 -2.290143E+02 -1.608024E+04 -2.100635E+02  2.110729E+05  6.537775E-10 -2.029528E-10
       224  15  2.385817E+02 -1.613062E+04  7.085079E+02  2.236731E+05 -1.768729E-10  2.385876E-10
       224  16  1.077909E+05  4.236147E+05  1.035451E+05  2.230239E+05 -1.324393E-10  2.451334E-10
       224  17  6.623450E+04  2.602389E+05  5.583265E+04  2.107417E+05  1.958653E-10 -5.432751E-11
       224  18  2.814759E+04  1.006420E+05  2.348746E+04  2.236595E+05 -1.427757E-10 -6.135065E-11
       224  19 -1.100305E+05 -4.557572E+05 -1.061842E+05  2.243233E+05  3.254064E+03  2.494202E+04
       224  20 -6.669720E+04 -2.923267E+05 -5.625661E+04  2.114040E+05  8.339375E+03  2.434710E+03
       224  21 -2.767112E+04 -1.328897E+05 -2.207030E+04  2.236867E+05  4.089433E+03 -2.007702E+04
       224  22 -1.112879E+03 -1.616027E+04 -1.313324E+03  2.236739E+05  3.238260E+03  1.511018E+03
       224  23 -2.289392E+02 -1.608022E+04 -2.099292E+02  2.110729E+05  8.338361E+03  1.394970E+03
       224  24  2.386003E+02 -1.613061E+04  7.085426E+02  2.236731E+05  4.105110E+03  1.280732E+03
       224  25  1.077911E+05  4.236152E+05  1.035461E+05  2.230239E+05  3.222513E+03 -2.193651E+04
       224  26  6.623457E+04  2.602389E+05  5.583278E+04  2.107417E+05  8.337348E+03  3.547751E+02
       224  27  2.814775E+04  1.006426E+05  2.348845E+04  2.236595E+05  4.120784E+03  2.264241E+04
       225   1 -4.238638E+03 -3.240579E+04 -5.345665E+03  2.238220E+05  1.591099E+03  2.050673E+04
       225   2  3.389116E+04  1.286536E+05  2.265831E+04  2.116384E+05  1.035492E+04  1.736027E+04
       225   3  7.329073E+04  2.904500E+05  5.302123E+04  2.252214E+05  1.835255E+04  1.421393E+04
       225   4  3.523311E+02 -1.601202E+04  1.214524E+03  2.237989E+05  1.574805E+03 -1.452568E+03
       225   5  9.071850E+02 -1.621618E+04  2.603010E+03  2.109148E+05  1.034080E+04 -2.762132E+03
       225   6  2.414103E+03 -1.602788E+04  5.074387E+03  2.237976E+05  1.834051E+04 -4.070814E+03
       225   7  4.943527E+03  3.829897E+02  7.776495E+03  2.237758E+05  1.558512E+03 -2.341248E+04
       225   8 -3.207750E+04 -1.610638E+05 -1.745101E+04  2.101914E+05  1.032673E+04 -2.288005E+04
       225   9 -6.846695E+04 -3.224113E+05 -4.287345E+04  2.223745E+05  1.832854E+04 -2.234687E+04
       225  10 -4.238753E+03 -3.240624E+04 -5.346460E+03  2.238220E+05 -2.555788E-11  2.695317E-10
       225  11  3.389096E+04  1.286532E+05  2.265754E+04  2.116383E+05 -1.911046E-10  2.894905E-10
       225  12  7.329031E+04  2.904497E+05  5.302022E+04  2.252212E+05  2.629973E-10  4.548968E-10
       225  13  3.523278E+02 -1.601202E+04  1.214516E+03  2.237989E+05 -1.329867E-10  1.943524E-10
       225  14  9.070681E+02 -1.621622E+04  2.602795E+03  2.109149E+05 -6.271349E-10 -2.469649E-10
       225  15  2.413738E+03 -1.602798E+04  5.073724E+03  2.237977E+05 -4.620226E-10  1.747614E-10
       225  16  4.943377E+03  3.824004E+02  7.775460E+03  2.237758E+05 -1.996107E-10 -1.613707E-10
       225  17 -3.207775E+04 -1.610644E+05 -1.745220E+04  2.101916E+05  2.821262E-11 -4.535982E-10
       225  18 -6.846745E+04 -3.224120E+05 -4.287502E+04  2.223749E+05  2.769494E-10 -4.910542E-10
       225  19 -4.238638E+03 -3.240579E+04 -5.345665E+03  2.238220E+05 -1.591099E+03 -2.050673E+04
       225  20  3.389116E+04  1.286536E+05  2.265831E+04  2.116384E+05 -1.035492E+04 -1.736027E+04
       225  21  7.329073E+04  2.904500E+05  5.302123E+04  2.252214E+05 -1.835255E+04 -1.421393E+04
       225  22  3.523311E+02 -1.601202E+04  1.214524E+03  2.237989E+05 -1.574805E+03  1.452568E+03
       225  23  9.071850E+02 -1.621618E+04  2.603010E+03  2.109148E+05 -1.034080E+04  2.762132E+03
       225  24  2.414103E+03 -1.602788E+04  5.074387E+03  2.237976E+05 -1.834051E+04  4.070814E+03
       225  25  4.943527E+03  3.829897E+02  7.776495E+03  2.237758E+05 -1.558512E+03  2.341248E+04
       225  26 -3.207750E+04 -1.610638E+05 -1.745101E+04  2.101914E+05 -1.032673E+04  2.288005E+04
       225  27 -6.846695E+04 -3.224113E+05 -4.287345E+04  2.223745E+05 -1.832854E+04  2.234687E+04
       226   1  9.774888E+04  3.918401E+05  7.232999E+04  2.246629E+05  2.325565E+04  1.220870E+04
       226   2  1.430507E+05  5.485826E+05  1.184537E+05  2.200651E+05  2.283036E+04 -3.056175E+04
       226   3  2.043875E+05  7.149263E+05  1.964182E+05  2.401866E+05  7.306810E+03 -7.334289E+04
       226   4  3.226527E+03 -1.539653E+04  6.868081E+03  2.235648E+05  2.324543E+04 -4.964111E+03
       226   5  8.811633E+03 -1.707279E+04  1.278527E+04  2.112002E+05  2.284390E+04 -1.146806E+04
       226   6  2.414754E+04 -1.545685E+04  2.537290E+04  2.235541E+05  7.338806E+03 -1.797118E+04
       226   7 -9.130402E+04 -4.224679E+05 -5.859716E+04  2.224675E+05  2.323527E+04 -2.212606E+04
       226   8 -1.254454E+05 -5.824179E+05 -9.289552E+04  2.023434E+05  2.285691E+04  7.608697E+03
       226   9 -1.561276E+05 -7.453417E+05 -1.456971E+05  2.069411E+05  7.367866E+03  3.733587E+04
       226  10  9.774826E+04  3.918398E+05  7.232870E+04  2.246627E+05  8.692444E-11 -1.674368E-10
       226  11  1.430499E+05  5.485815E+05  1.184510E+05  2.200657E+05 -1.568247E-11 -1.865779E-10
       226  12  2.043860E+05  7.149205E+05  1.964080E+05  2.401871E+05  1.417601E-10 -4.466315E-11
       226  13  3.225940E+03 -1.539671E+04  6.867019E+03  2.235649E+05  3.331510E-10  1.175800E-10
       226  14  8.811038E+03 -1.707307E+04  1.278405E+04  2.112004E+05 -1.337637E-10 -1.248935E-10
       226  15  2.414739E+04 -1.545721E+04  2.537220E+04  2.235542E+05  1.633239E-10  1.168705E-10
       226  16 -9.130473E+04 -4.224685E+05 -5.859910E+04  2.224679E+05 -4.190336E-11  2.476213E-10
       226  17 -1.254460E+05 -5.824181E+05 -9.289661E+04  2.023432E+05 -3.074215E-10  1.492676E-10
       226  18 -1.561281E+05 -7.453432E+05 -1.456998E+05  2.069409E+05  4.091387E-11  9.324774E-12
       226  19  9.774888E+04  3.918401E+05  7.232999E+04  2.246629E+05 -2.325565E+04 -1.220870E+04
       226  20  1.430507E+05  5.485826E+05  1.184537E+05  2.200651E+05 -2.283036E+04  3.056175E+04
       226  21  2.043875E+05  7.149263E+05  1.964182E+05  2.401866E+05 -7.306810E+03  7.334289E+04
       226  22  3.226527E+03 -1.539653E+04  6.868081E+03  2.235648E+05 -2.324543E+04  4.964111E+03
       226  23  8.811633E+03 -1.707279E+04  1.278527E+04  2.112002E+05 -2.284390E+04  1.146806E+04
       226  24  2.414754E+04 -1.545685E+04  2.537290E+04  2.235541E+05 -7.338806E+03  1.797118E+04
       226  25 -9.130402E+04 -4.224679E+05 -5.859716E+04  2.224675E+05 -2.323527E+04  2.212606E+04
       226  26 -1.254454E+05 -5.824179E+05 -9.289552E+04  2.023434E+05 -2.285691E+04 -7.608697E+03
       226  27 -1.561276E+05 -7.453417E+05 -1.456971E+05  2.069411E+05 -7.367866E+03 -3.733587E+04
       227   1  7.206631E+05  1.645438E+05  1.578159E+05  1.760002E+05  6.018300E+04 -6.227300E+03
       227   2  5.983383E+05  1.188684E+05  9.739856E+04  1.613366E+05  2.573236E+04 -1.967192E+04
       227   3  4.835916E+05  8.545316E+04  6.245912E+04  1.647179E+05 -8.707585E+03 -2.077613E+04
       227   4  1.244867E+05  1.752228E+04  1.857850E+04  1.640089E+05  1.306713E+04 -6.230675E+03
       227   5  1.232921E+05  6.305349E+03  9.429117E+03  1.549869E+05  8.266540E+03 -1.967507E+04
       227   6  1.245248E+05  2.210809E+03  5.185354E+03  1.640095E+05  3.469858E+03 -2.077530E+04
       227   7 -4.713572E+05 -1.295227E+05 -1.206746E+05  1.520291E+05 -3.400383E+04 -6.232238E+03
       227   8 -3.515349E+05 -1.062703E+05 -7.854862E+04  1.486422E+05 -9.186277E+03 -1.967786E+04
       227   9 -2.344135E+05 -8.103791E+04 -5.209121E+04  1.633016E+05  1.564052E+04 -2.077450E+04
       227  10  7.206592E+05  1.645428E+05  1.578090E+05  1.760005E+05 -6.130966E-11  4.291828E-11
       227  11  5.983375E+05  1.188678E+05  9.739659E+04  1.613370E+05 -3.493116E-10  9.989267E-11
       227  12  4.835914E+05  8.545267E+04  6.245817E+04  1.647177E+05  9.158920E-11  6.056523E-11
       227  13  1.244865E+05  1.752219E+04  1.857811E+04  1.640090E+05 -1.278520E-10 -8.980076E-12
       227  14  1.232919E+05  6.304915E+03  9.428261E+03  1.549870E+05 -8.206494E-11 -4.052335E-11
       227  15  1.245247E+05  2.210342E+03  5.184521E+03  1.640096E+05  1.500606E-10 -3.172775E-11
       227  16 -4.713585E+05 -1.295230E+05 -1.206769E+05  1.520290E+05  1.002131E-10 -5.631860E-12
       227  17 -3.515351E+05 -1.062707E+05 -7.854951E+04  1.486420E+05  2.156927E-10 -2.191943E-11
       227  18 -2.344138E+05 -8.103843E+04 -5.209248E+04  1.633018E+05  5.653552E-11 -9.907929E-11
       227  19  7.206631E+05  1.645438E+05  1.578159E+05  1.760002E+05 -6.018300E+04  6.227300E+03
       227  20  5.983383E+05  1.188684E+05  9.739856E+04  1.613366E+05 -2.573236E+04  1.967192E+04
       227  21  4.835916E+05  8.545316E+04  6.245912E+04  1.647179E+05  8.707585E+03  2.077613E+04
       227  22  1.244867E+05  1.752228E+04  1.857850E+04  1.640089E+05 -1.306713E+04  6.230675E+03
       227  23  1.232921E+05  6.305349E+03  9.429117E+03  1.549869E+05 -8.266540E+03  1.967507E+04
       227  24  1.245248E+05  2.210809E+03  5.185354E+03  1.640095E+05 -3.469858E+03  2.077530E+04
       227  25 -4.713572E+05 -1.295227E+05 -1.206746E+05  1.520291E+05  3.400383E+04  6.232238E+03
       227  26 -3.515349E+05 -1.062703E+05 -7.854862E+04  1.486422E+05  9.186277E+03  1.967786E+04
       227  27 -2.344135E+05 -8.103791E+04 -5.209121E+04  1.633016E+05 -1.564052E+04  2.077450E+04
       228   1  4.091850E+05  6.748481E+04  4.824406E+04  1.651943E+05 -1.035953E+04 -1.724674E+04
       228   2  2.902681E+05  3.868638E+04  2.663389E+04  1.552114E+05 -1.500673E+04 -1.104551E+04
       228   3  1.723188E+05  1.125089E+04  8.390239E+03  1.641810E+05 -1.965346E+04 -3.389468E+03
       228   4  1.240713E+05  1.617583E+03  3.933077E+03  1.642116E+05  2.785201E+03 -1.724506E+04
       228   5  1.239042E+05  5.561573E+02  2.306663E+03  1.547352E+05  1.630256E+03 -1.104249E+04
       228   6  1.240848E+05  2.522950E+02  1.622268E+03  1.642117E+05  4.749537E+02 -3.384916E+03
       228   7 -1.609609E+05 -6.425352E+04 -4.037915E+04  1.632293E+05  1.592413E+04 -1.724342E+04
       228   8 -4.243121E+04 -3.757519E+04 -2.202000E+04  1.542592E+05  1.826297E+04 -1.103949E+04
       228   9  7.585404E+04 -1.074618E+04 -5.144212E+03  1.642425E+05  2.060187E+04 -3.380362E+03
       228  10  4.091848E+05  6.748447E+04  4.824330E+04  1.651942E+05 -2.032800E-11  1.343893E-11
       228  11  2.902678E+05  3.868618E+04  2.663324E+04  1.552113E+05 -1.126195E-11  3.632981E-11
       228  12  1.723184E+05  1.125077E+04  8.389492E+03  1.641809E+05 -5.149156E-11  5.020103E-11
       228  13  1.240712E+05  1.617262E+03  3.932504E+03  1.642116E+05  2.001206E-10 -1.787621E-11
       228  14  1.239042E+05  5.560256E+02  2.306429E+03  1.547353E+05 -6.002810E-11  6.150043E-11
       228  15  1.240848E+05  2.522826E+02  1.622246E+03  1.642117E+05  8.243581E-11  1.534032E-10
       228  16 -1.609613E+05 -6.425391E+04 -4.038019E+04  1.632295E+05  3.047835E-10 -7.236783E-11
       228  17 -4.243160E+04 -3.757541E+04 -2.202085E+04  1.542594E+05  2.931202E-10 -4.815295E-11
       228  18  7.585358E+04 -1.074631E+04 -5.145031E+03  1.642426E+05  1.356520E-10  7.363973E-11
       228  19  4.091850E+05  6.748481E+04  4.824406E+04  1.651943E+05  1.035953E+04  1.724674E+04
       228  20  2.902681E+05  3.868638E+04  2.663389E+04  1.552114E+05  1.500673E+04  1.104551E+04
       228  21  1.723188E+05  1.125089E+04  8.390239E+03  1.641810E+05  1.965346E+04  3.389468E+03
       228  22  1.240713E+05  1.617583E+03  3.933077E+03  1.642116E+05 -2.785201E+03  1.724506E+04
       228  23  1.239042E+05  5.561573E+02  2.306663E+03  1.547352E+05 -1.630256E+03  1.104249E+04
       228  24  1.240848E+05  2.522950E+02  1.622268E+03  1.642117E+05 -4.749537E+02  3.384916E+03
       228  25 -1.609609E+05 -6.425352E+04 -4.037915E+04  1.632293E+05 -1.592413E+04  1.724342E+04
       228  26 -4.243121E+04 -3.757519E+04 -2.202000E+04  1.542592E+05 -1.826297E+04  1.103949E+04
       228  27  7.585404E+04 -1.074618E+04 -5.144212E+03  1.642425E+05 -2.060187E+04  3.380362E+03
       229   1  9.903432E+04 -5.518888E+03 -2.232690E+03  1.642447E+05 -1.991996E+04  1.611408E+03
       229   2 -1.920813E+04 -3.254028E+04 -1.962082E+04  1.544618E+05 -1.740113E+04  9.307302E+03
       229   3 -1.377817E+05 -5.966822E+04 -3.867350E+04  1.636369E+05 -1.488251E+04  1.561784E+04
       229   4  1.240590E+05  2.314856E+02  1.497105E+03  1.642128E+05  2.122646E+02  1.616001E+03
       229   5  1.239381E+05  3.347824E+02  1.615070E+03  1.547339E+05 -5.956137E+02  9.310484E+03
       229   6  1.240474E+05  9.089226E+02  2.377089E+03  1.642127E+05 -1.403196E+03  1.561978E+04
       229   7  1.490852E+05  5.982047E+03  5.228411E+03  1.641810E+05  2.034527E+04  1.620592E+03
       229   8  2.671056E+05  3.320904E+04  2.285164E+04  1.550062E+05  1.621362E+04  9.313680E+03
       229   9  3.859454E+05  6.148279E+04  4.342670E+04  1.647888E+05  1.208159E+04  1.562175E+04
       229  10  9.903389E+04 -5.518997E+03 -2.233440E+03  1.642447E+05  2.549314E-10  1.332109E-11
       229  11 -1.920848E+04 -3.254046E+04 -1.962155E+04  1.544619E+05 -4.752955E-11  1.348078E-11
       229  12 -1.377820E+05 -5.966854E+04 -3.867437E+04  1.636371E+05  1.205431E-10  1.722868E-11
       229  13  1.240590E+05  2.314828E+02  1.497100E+03  1.642128E+05 -2.425850E-11  4.665485E-11
       229  14  1.239381E+05  3.346892E+02  1.614907E+03  1.547339E+05 -6.071368E-11 -7.207279E-11
       229  15  1.240474E+05  9.086601E+02  2.376627E+03  1.642128E+05  5.221971E-11  1.274626E-11
       229  16  1.490847E+05  5.981934E+03  5.227629E+03  1.641809E+05 -1.100175E-10  8.648785E-11
       229  17  2.671053E+05  3.320887E+04  2.285099E+04  1.550061E+05 -1.583375E-10  7.678889E-11
       229  18  3.859452E+05  6.148249E+04  4.342597E+04  1.647886E+05 -4.850516E-11 -8.436968E-12
       229  19  9.903432E+04 -5.518888E+03 -2.232690E+03  1.642447E+05  1.991996E+04 -1.611408E+03
       229  20 -1.920813E+04 -3.254028E+04 -1.962082E+04  1.544618E+05  1.740113E+04 -9.307302E+03
       229  21 -1.377817E+05 -5.966822E+04 -3.867350E+04  1.636369E+05  1.488251E+04 -1.561784E+04
       229  22  1.240590E+05  2.314856E+02  1.497105E+03  1.642128E+05 -2.122646E+02 -1.616001E+03
       229  23  1.239381E+05  3.347824E+02  1.615070E+03  1.547339E+05  5.956137E+02 -9.310484E+03
       229  24  1.240474E+05  9.089226E+02  2.377089E+03  1.642127E+05  1.403196E+03 -1.561978E+04
       229  25  1.490852E+05  5.982047E+03  5.228411E+03  1.641810E+05 -2.034527E+04 -1.620592E+03
       229  26  2.671056E+05  3.320904E+04  2.285164E+04  1.550062E+05 -1.621362E+04 -9.313680E+03
       229  27  3.859454E+05  6.148279E+04  4.342670E+04  1.647888E+05 -1.208159E+04 -1.562175E+04
       230   1 -2.114143E+05 -7.669028E+04 -5.086946E+04  1.635998E+05 -1.436167E+04  1.921943E+04
       230   2 -3.280972E+05 -1.036456E+05 -7.869484E+04  1.514145E+05  1.146271E+04  1.850774E+04
       230   3 -4.483534E+05 -1.315691E+05 -1.235762E+05  1.573101E+05  3.727870E+04  5.903004E+03
       230   4  1.242926E+05  1.234928E+03  3.027759E+03  1.640175E+05 -1.813909E+03  1.922056E+04
       230   5  1.235899E+05  3.508288E+03  5.324662E+03  1.549774E+05 -4.519407E+03  1.850501E+04
       230   6  1.242567E+05  9.768402E+03  1.038163E+04  1.640171E+05 -7.228571E+03  5.900672E+03
       230   7  4.601119E+05  7.915454E+04  5.692257E+04  1.644355E+05  1.074040E+04  1.922171E+04
       230   8  5.754752E+05  1.106506E+05  8.933648E+04  1.585430E+05 -2.051286E+04  1.850210E+04
       230   9  6.971734E+05  1.510838E+05  1.443246E+05  1.707303E+05 -5.177665E+04  5.897384E+03
       230  10 -2.114146E+05 -7.669073E+04 -5.087054E+04  1.636000E+05 -7.076401E-12  1.060965E-10
       230  11 -3.280975E+05 -1.036460E+05 -7.869573E+04  1.514143E+05 -2.047800E-10  1.464553E-10
       230  12 -4.483549E+05 -1.315695E+05 -1.235789E+05  1.573100E+05 -3.881270E-11  7.498785E-11
       230  13  1.242925E+05  1.234530E+03  3.027059E+03  1.640176E+05 -1.551729E-10  7.746665E-11
       230  14  1.235898E+05  3.507915E+03  5.323980E+03  1.549775E+05  8.864437E-11  3.077512E-11
       230  15  1.242566E+05  9.768350E+03  1.038146E+04  1.640172E+05  6.343120E-11  3.557944E-11
       230  16  4.601116E+05  7.915412E+04  5.692166E+04  1.644354E+05  2.744145E-10 -1.453782E-11
       230  17  5.754746E+05  1.106502E+05  8.933504E+04  1.585433E+05  2.382012E-10 -2.116188E-11
       230  18  6.971706E+05  1.510831E+05  1.443195E+05  1.707306E+05 -1.046154E-11  1.843073E-11
       230  19 -2.114143E+05 -7.669028E+04 -5.086946E+04  1.635998E+05  1.436167E+04 -1.921943E+04
       230  20 -3.280972E+05 -1.036456E+05 -7.869484E+04  1.514145E+05 -1.146271E+04 -1.850774E+04
       230  21 -4.483534E+05 -1.315691E+05 -1.235762E+05  1.573101E+05 -3.727870E+04 -5.903004E+03
       230  22  1.242926E+05  1.234928E+03  3.027759E+03  1.640175E+05  1.813909E+03 -1.922056E+04
       230  23  1.235899E+05  3.508288E+03  5.324662E+03  1.549774E+05  4.519407E+03 -1.850501E+04
       230  24  1.242567E+05  9.768402E+03  1.038163E+04  1.640171E+05  7.228571E+03 -5.900672E+03
       230  25  4.601119E+05  7.915454E+04  5.692257E+04  1.644355E+05 -1.074040E+04 -1.922171E+04
       230  26  5.754752E+05  1.106506E+05  8.933648E+04  1.585430E+05  2.051286E+04 -1.850210E+04
       230  27  6.971734E+05  1.510838E+05  1.443246E+05  1.707303E+05  5.177665E+04 -5.897384E+03
       231   1 -1.071191E+05 -4.050845E+05 -1.041302E+05  2.073840E+05 -2.956202E+03 -2.777233E+04
       231   2 -6.325832E+04 -2.572540E+05 -5.549959E+04  1.932662E+05 -7.595122E+03 -5.110489E+03
       231   3 -2.643933E+04 -1.141233E+05 -2.339282E+04  2.018561E+05 -3.790599E+03  1.755569E+04
       231   4 -8.588953E+03 -7.358339E+03 -9.268701E+03  2.015699E+05 -2.943284E+03 -6.485630E+03
       231   5 -2.997792E+03 -6.744901E+03 -4.725175E+03  1.902142E+05 -7.594221E+03 -4.076475E+03
       231   6 -9.286904E+02 -7.334087E+03 -2.634807E+03  2.015661E+05 -3.803093E+03 -1.668658E+03
       231   7  8.993017E+04  3.905140E+05  8.558345E+04  1.957520E+05 -2.930770E+03  1.481465E+04
       231   8  5.725888E+04  2.438240E+05  4.604599E+04  1.871609E+05 -7.593331E+03 -3.042051E+03
       231   9  2.458146E+04  9.946683E+04  1.812405E+04  2.012760E+05 -3.815567E+03 -2.089624E+04
       231  10 -1.071193E+05 -4.050854E+05 -1.041317E+05  2.073839E+05  3.554482E-11 -8.397682E-12
       231  11 -6.325839E+04 -2.572541E+05 -5.549975E+04  1.932662E+05  1.308791E-10 -3.657257E-10
       231  12 -2.643943E+04 -1.141236E+05 -2.339342E+04  2.018562E+05 -1.972663E-10 -3.072729E-10
       231  13 -8.588973E+03 -7.358386E+03 -9.268796E+03  2.015699E+05 -2.447427E-10 -1.174771E-12
       231  14 -2.997858E+03 -6.744934E+03 -4.725315E+03  1.902142E+05  4.645776E-10 -8.400528E-11
       231  15 -9.287066E+02 -7.334094E+03 -2.634839E+03  2.015661E+05 -1.131611E-11 -3.304608E-11
       231  16  8.993010E+04  3.905138E+05  8.558302E+04  1.957520E+05  2.386660E-10  1.467665E-10
       231  17  5.725881E+04  2.438240E+05  4.604586E+04  1.871609E+05 -1.097132E-10  2.660950E-10
       231  18  2.458133E+04  9.946636E+04  1.812321E+04  2.012760E+05  4.683897E-11  2.884972E-10
       231  19 -1.071191E+05 -4.050845E+05 -1.041302E+05  2.073840E+05  2.956202E+03  2.777233E+04
       231  20 -6.325832E+04 -2.572540E+05 -5.549959E+04  1.932662E+05  7.595122E+03  5.110489E+03
       231  21 -2.643933E+04 -1.141233E+05 -2.339282E+04  2.018561E+05  3.790599E+03 -1.755569E+04
       231  22 -8.588953E+03 -7.358339E+03 -9.268701E+03  2.015699E+05  2.943284E+03  6.485630E+03
       231  23 -2.997792E+03 -6.744901E+03 -4.725175E+03  1.902142E+05  7.594221E+03  4.076475E+03
       231  24 -9.286904E+02 -7.334087E+03 -2.634807E+03  2.015661E+05  3.803093E+03  1.668658E+03
       231  25  8.993017E+04  3.905140E+05  8.558345E+04  1.957520E+05  2.930770E+03 -1.481465E+04
       231  26  5.725888E+04  2.438240E+05  4.604599E+04  1.871609E+05  7.593331E+03  3.042051E+03
       231  27  2.458146E+04  9.946683E+04  1.812405E+04  2.012760E+05  3.815567E+03  2.089624E+04
       232   1 -5.126476E+03 -2.345382E+04 -8.168953E+03  2.021498E+05  1.324519E+03  1.844596E+04
       232   2  2.919829E+04  1.219671E+05  1.656086E+04  1.902806E+05  9.219398E+03  1.745567E+04
       232   3  6.336369E+04  2.674861E+05  4.189031E+04  2.016309E+05  1.643216E+04  1.646585E+04
       232   4 -6.312395E+02 -7.110845E+03 -2.033156E+03  2.016801E+05  1.311518E+03 -1.323019E+03
       232   5 -1.672771E+02 -7.013721E+03 -1.294552E+03  1.900700E+05  9.208148E+03 -6.780945E+02
       232   6 -1.458148E+02 -7.123590E+03 -1.092541E+03  2.016798E+05  1.642257E+04 -3.246883E+01
       232   7  3.864178E+03  9.233177E+03  4.104079E+03  2.012103E+05  1.298546E+03 -2.109255E+04
       232   8 -2.953340E+04 -1.359770E+05 -1.914892E+04  1.898595E+05  9.196909E+03 -1.880826E+04
       232   9 -6.365888E+04 -2.816575E+05 -4.407618E+04  2.017287E+05  1.641297E+04 -1.652377E+04
       232  10 -5.126569E+03 -2.345418E+04 -8.169596E+03  2.021497E+05 -3.777070E-10 -1.957409E-10
       232  11  2.919812E+04  1.219668E+05  1.656013E+04  1.902805E+05 -5.129042E-10 -1.589079E-10
       232  12  6.336333E+04  2.674857E+05  4.188929E+04  2.016307E+05 -3.142165E-11  4.139240E-10
       232  13 -6.312418E+02 -7.110847E+03 -2.033163E+03  2.016801E+05 -1.726410E-10  8.180810E-13
       232  14 -1.673683E+02 -7.013744E+03 -1.294712E+03  1.900700E+05 -6.975978E-10 -8.955791E-11
       232  15 -1.461044E+02 -7.123662E+03 -1.093048E+03  2.016798E+05 -4.395800E-10 -1.452541E-11
       232  16  3.864056E+03  9.232698E+03  4.103240E+03  2.012104E+05 -3.768060E-11  3.645397E-10
       232  17 -2.953359E+04 -1.359774E+05 -1.914975E+04  1.898596E+05  5.787928E-11  1.163486E-10
       232  18 -6.365925E+04 -2.816579E+05 -4.407720E+04  2.017289E+05  8.817772E-11 -4.384480E-10
       232  19 -5.126476E+03 -2.345382E+04 -8.168953E+03  2.021498E+05 -1.324519E+03 -1.844596E+04
       232  20  2.919829E+04  1.219671E+05  1.656086E+04  1.902806E+05 -9.219398E+03 -1.745567E+04
       232  21  6.336369E+04  2.674861E+05  4.189031E+04  2.016309E+05 -1.643216E+04 -1.646585E+04
       232  22 -6.312395E+02 -7.110845E+03 -2.033156E+03  2.016801E+05 -1.311518E+03  1.323019E+03
       232  23 -1.672771E+02 -7.013721E+03 -1.294552E+03  1.900700E+05 -9.208148E+03  6.780945E+02
       232  24 -1.458148E+02 -7.123590E+03 -1.092541E+03  2.016798E+05 -1.642257E+04  3.246883E+01
       232  25  3.864178E+03  9.233177E+03  4.104079E+03  2.012103E+05 -1.298546E+03  2.109255E+04
       232  26 -2.953340E+04 -1.359770E+05 -1.914892E+04  1.898595E+05 -9.196909E+03  1.880826E+04
       232  27 -6.365888E+04 -2.816575E+05 -4.407618E+04  2.017287E+05 -1.641297E+04  1.652377E+04
       233   1  8.459046E+04  3.582362E+05  5.762653E+04  2.015135E+05  2.085571E+04  1.563756E+04
       233   2  1.197614E+05  5.011555E+05  9.339521E+04  1.895713E+05  2.050396E+04 -1.616636E+04
       233   3  1.595530E+05  6.493927E+05  1.510152E+05  1.999058E+05  6.576948E+03 -4.797719E+04
       233   4 -2.263272E+02 -7.167296E+03 -1.132960E+03  2.014705E+05  2.084757E+04  1.373404E+02
       233   5 -8.317002E+02 -7.013675E+03 -1.558876E+03  1.903320E+05  2.051433E+04  9.372186E+02
       233   6 -2.471643E+03 -7.216257E+03 -2.765643E+03  2.014715E+05  6.600603E+03  1.737538E+03
       233   7 -8.504971E+04 -3.724377E+05 -5.989513E+04  2.014275E+05  2.083944E+04 -1.535408E+04
       233   8 -1.214395E+05 -5.149325E+05 -9.652295E+04  1.910921E+05  2.052476E+04  1.802715E+04
       233   9 -1.645256E+05 -6.634230E+05 -1.565666E+05  2.030354E+05  6.624527E+03  5.140006E+04
       233  10  8.458992E+04  3.582358E+05  5.762526E+04  2.015132E+05 -2.413657E-10  1.591511E-10
       233  11  1.197609E+05  5.011551E+05  9.339393E+04  1.895715E+05  7.482063E-11 -1.337607E-10
       233  12  1.595523E+05  6.493903E+05  1.510108E+05  1.999061E+05  1.367354E-10 -5.197759E-11
       233  13 -2.267940E+02 -7.167413E+03 -1.133777E+03  2.014705E+05  3.282259E-10  6.794304E-12
       233  14 -8.321523E+02 -7.013789E+03 -1.559669E+03  1.903320E+05 -2.097029E-10 -4.948855E-11
       233  15 -2.471691E+03 -7.216272E+03 -2.765731E+03  2.014715E+05  2.722212E-11 -2.198643E-11
       233  16 -8.505024E+04 -3.724381E+05 -5.989639E+04  2.014278E+05 -3.972443E-11 -4.914086E-12
       233  17 -1.214401E+05 -5.149330E+05 -9.652435E+04  1.910918E+05 -2.557310E-11  1.458286E-10
       233  18 -1.645263E+05 -6.634258E+05 -1.565717E+05  2.030351E+05 -5.858007E-11  3.036429E-11
       233  19  8.459046E+04  3.582362E+05  5.762653E+04  2.015135E+05 -2.085571E+04 -1.563756E+04
       233  20  1.197614E+05  5.011555E+05  9.339521E+04  1.895713E+05 -2.050396E+04  1.616636E+04
       233  21  1.595530E+05  6.493927E+05  1.510152E+05  1.999058E+05 -6.576948E+03  4.797719E+04
       233  22 -2.263272E+02 -7.167296E+03 -1.132960E+03  2.014705E+05 -2.084757E+04 -1.373404E+02
       233  23 -8.317002E+02 -7.013675E+03 -1.558876E+03  1.903320E+05 -2.051433E+04 -9.372186E+02
       233  24 -2.471643E+03 -7.216257E+03 -2.765643E+03  2.014715E+05 -6.600603E+03 -1.737538E+03
       233  25 -8.504971E+04 -3.724377E+05 -5.989513E+04  2.014275E+05 -2.083944E+04  1.535408E+04
       233  26 -1.214395E+05 -5.149325E+05 -9.652295E+04  1.910921E+05 -2.052476E+04 -1.802715E+04
       233  27 -1.645256E+05 -6.634230E+05 -1.565666E+05  2.030354E+05 -6.624527E+03 -5.140006E+04
       234   1  7.226074E+05  1.553128E+05  1.492790E+05  1.710960E+05  5.692808E+04 -5.715020E+03
       234   2  6.044161E+05  1.104601E+05  9.134619E+04  1.564153E+05  2.420678E+04 -1.793843E+04
       234   3  4.935850E+05  7.790380E+04  5.777497E+04  1.592016E+05 -8.504446E+03 -1.865498E+04
       234   4  1.678261E+05  1.847784E+04  1.958890E+04  1.584514E+05  1.374681E+04 -5.718396E+03
       234   5  1.665653E+05  6.653023E+03  9.965881E+03  1.497184E+05  8.672703E+03 -1.794120E+04
       234   6  1.678606E+05  2.333565E+03  5.522000E+03  1.584520E+05  3.602083E+03 -1.865401E+04
       234   7 -3.866675E+05 -1.183773E+05 -1.101151E+05  1.458180E+05 -2.939617E+04 -5.720019E+03
       234   8 -2.710993E+05 -9.716476E+04 -7.142162E+04  1.430263E+05 -6.850708E+03 -1.794363E+04
       234   9 -1.577581E+05 -7.324193E+04 -4.673324E+04  1.577028E+05  1.570249E+04 -1.865306E+04
       234  10  7.226039E+05  1.553119E+05  1.492729E+05  1.710963E+05 -1.783245E-10  2.346217E-12
       234  11  6.044154E+05  1.104596E+05  9.134448E+04  1.564156E+05 -2.791239E-10  8.134814E-11
       234  12  4.935848E+05  7.790341E+04  5.777418E+04  1.592015E+05 -1.995154E-10  1.651464E-10
       234  13  1.678259E+05  1.847776E+04  1.958849E+04  1.584514E+05  1.383557E-11  3.991890E-11
       234  14  1.665652E+05  6.652658E+03  9.965135E+03  1.497185E+05  6.819591E-11  1.693353E-10
       234  15  1.678605E+05  2.333187E+03  5.521322E+03  1.584521E+05 -1.425416E-10  1.839346E-10
       234  16 -3.866684E+05 -1.183776E+05 -1.101168E+05  1.458179E+05  3.772786E-11  5.549598E-11
       234  17 -2.710994E+05 -9.716512E+04 -7.142231E+04  1.430262E+05 -1.207746E-10  1.750356E-10
       234  18 -1.577585E+05 -7.324237E+04 -4.673435E+04  1.577030E+05  1.978409E-10  1.696543E-10
       234  19  7.226074E+05  1.553128E+05  1.492790E+05  1.710960E+05 -5.692808E+04  5.715020E+03
       234  20  6.044161E+05  1.104601E+05  9.134619E+04  1.564153E+05 -2.420678E+04  1.793843E+04
       234  21  4.935850E+05  7.790380E+04  5.777497E+04  1.592016E+05  8.504446E+03  1.865498E+04
       234  22  1.678261E+05  1.847784E+04  1.958890E+04  1.584514E+05 -1.374681E+04  5.718396E+03
       234  23  1.665653E+05  6.653023E+03  9.965881E+03  1.497184E+05 -8.672703E+03  1.794120E+04
       234  24  1.678606E+05  2.333565E+03  5.522000E+03  1.584520E+05 -3.602083E+03  1.865401E+04
       234  25 -3.866675E+05 -1.183773E+05 -1.101151E+05  1.458180E+05  2.939617E+04  5.720019E+03
       234  26 -2.710993E+05 -9.716476E+04 -7.142162E+04  1.430263E+05  6.850708E+03  1.794363E+04
       234  27 -1.577581E+05 -7.324193E+04 -4.673324E+04  1.577028E+05 -1.570249E+04  1.865306E+04
       235   1  4.216966E+05  6.051896E+04  4.406122E+04  1.596809E+05 -1.013886E+04 -1.518136E+04
       235   2  3.068082E+05  3.264258E+04  2.326005E+04  1.499836E+05 -1.464751E+04 -9.093723E+03
       235   3  1.928728E+05  6.143483E+03  5.738983E+03  1.585989E+05 -1.915559E+04 -1.664126E+03
       235   4  1.673844E+05  1.706224E+03  4.223169E+03  1.586402E+05  2.868790E+03 -1.517962E+04
       235   5  1.672002E+05  5.910207E+02  2.572052E+03  1.494840E+05  1.581440E+03 -9.090859E+03
       235   6  1.673954E+05  2.942367E+02  1.964181E+03  1.586404E+05  2.938507E+02 -1.659980E+03
       235   7 -8.686302E+04 -5.710960E+04 -3.561581E+04  1.576000E+05  1.587131E+04 -1.517793E+04
       235   8  2.761242E+04 -3.146131E+04 -1.811532E+04  1.489844E+05  1.780690E+04 -9.088020E+03
       235   9  1.419195E+05 -5.554837E+03 -1.809213E+03  1.586819E+05  1.974252E+04 -1.655833E+03
       235  10  4.216964E+05  6.051869E+04  4.406060E+04  1.596808E+05 -8.615584E-11  1.659748E-10
       235  11  3.068079E+05  3.264244E+04  2.325949E+04  1.499835E+05 -3.328170E-10  1.745766E-10
       235  12  1.928724E+05  6.143381E+03  5.738289E+03  1.585989E+05 -2.439991E-10  1.322416E-10
       235  13  1.673843E+05  1.705974E+03  4.222720E+03  1.586403E+05 -3.411036E-11  1.662737E-10
       235  14  1.672002E+05  5.909312E+02  2.571892E+03  1.494840E+05 -8.477085E-11  1.061845E-10
       235  15  1.673954E+05  2.942337E+02  1.964175E+03  1.586404E+05  1.674991E-10  5.114783E-11
       235  16 -8.686335E+04 -5.710992E+04 -3.561672E+04  1.576002E+05  9.020056E-11  1.598611E-10
       235  17  2.761205E+04 -3.146149E+04 -1.811607E+04  1.489845E+05  1.517260E-10  1.584098E-11
       235  18  1.419190E+05 -5.554944E+03 -1.809950E+03  1.586819E+05  4.237542E-10  5.957255E-11
       235  19  4.216966E+05  6.051896E+04  4.406122E+04  1.596809E+05  1.013886E+04  1.518136E+04
       235  20  3.068082E+05  3.264258E+04  2.326005E+04  1.499836E+05  1.464751E+04  9.093723E+03
       235  21  1.928728E+05  6.143483E+03  5.738983E+03  1.585989E+05  1.915559E+04  1.664126E+03
       235  22  1.673844E+05  1.706224E+03  4.223169E+03  1.586402E+05 -2.868790E+03  1.517962E+04
       235  23  1.672002E+05  5.910207E+02  2.572052E+03  1.494840E+05 -1.581440E+03  9.090859E+03
       235  24  1.673954E+05  2.942367E+02  1.964181E+03  1.586404E+05 -2.938507E+02  1.659980E+03
       235  25 -8.686302E+04 -5.710960E+04 -3.561581E+04  1.576000E+05 -1.587131E+04  1.517793E+04
       235  26  2.761242E+04 -3.146131E+04 -1.811532E+04  1.489844E+05 -1.780690E+04  9.088020E+03
       235  27  1.419195E+05 -5.554837E+03 -1.809213E+03  1.586819E+05 -1.974252E+04  1.655833E+03
       236   1  1.220894E+05 -1.004546E+04 -4.450236E+03  1.586791E+05 -1.947682E+04  3.166885E+03
       236   2  7.817568E+03 -3.603770E+04 -2.101864E+04  1.490620E+05 -1.726586E+04  1.056770E+04
       236   3 -1.066916E+05 -6.190572E+04 -3.899414E+04  1.577540E+05 -1.505493E+04  1.656667E+04
       236   4  1.673853E+05  2.856882E+02  1.916517E+03  1.586395E+05 -3.259258E+01  3.171001E+03
       236   5  1.672114E+05  5.037162E+02  2.308450E+03  1.494851E+05 -1.187711E+03  1.057040E+04
       236   6  1.673728E+05  1.431030E+03  3.630220E+03  1.586394E+05 -2.342526E+03  1.656813E+04
       236   7  2.126842E+05  1.061695E+04  8.284663E+03  1.586000E+05  1.941299E+04  3.175114E+03
       236   8  3.266314E+05  3.704410E+04  2.563608E+04  1.499083E+05  1.489440E+04  1.057311E+04
       236   9  4.415126E+05  6.476419E+04  4.625343E+04  1.595252E+05  1.037528E+04  1.656963E+04
       236  10  1.220890E+05 -1.004558E+04 -4.450967E+03  1.586791E+05  1.489549E-10  1.964103E-10
       236  11  7.817218E+03 -3.603790E+04 -2.101942E+04  1.490621E+05 -1.852809E-11  1.347618E-11
       236  12 -1.066919E+05 -6.190607E+04 -3.899508E+04  1.577542E+05 -1.917360E-10 -7.634443E-11
       236  13  1.673853E+05  2.856774E+02  1.916498E+03  1.586395E+05  2.415402E-10  8.759360E-11
       236  14  1.672114E+05  5.035958E+02  2.308237E+03  1.494851E+05  2.831118E-10  2.447365E-11
       236  15  1.673727E+05  1.430734E+03  3.629694E+03  1.586394E+05  1.675023E-10 -4.188368E-11
       236  16  2.126838E+05  1.061684E+04  8.283936E+03  1.585999E+05  1.545010E-10  7.118734E-12
       236  17  3.266312E+05  3.704392E+04  2.563545E+04  1.499082E+05  2.171951E-10 -1.546098E-11
       236  18  4.415124E+05  6.476387E+04  4.625271E+04  1.595250E+05  2.762931E-10 -9.046085E-11
       236  19  1.220894E+05 -1.004546E+04 -4.450236E+03  1.586791E+05  1.947682E+04 -3.166885E+03
       236  20  7.817568E+03 -3.603770E+04 -2.101864E+04  1.490620E+05  1.726586E+04 -1.056770E+04
       236  21 -1.066916E+05 -6.190572E+04 -3.899414E+04  1.577540E+05  1.505493E+04 -1.656667E+04
       236  22  1.673853E+05  2.856882E+02  1.916517E+03  1.586395E+05  3.259258E+01 -3.171001E+03
       236  23  1.672114E+05  5.037162E+02  2.308450E+03  1.494851E+05  1.187711E+03 -1.057040E+04
       236  24  1.673728E+05  1.431030E+03  3.630220E+03  1.586394E+05  2.342526E+03 -1.656813E+04
       236  25  2.126842E+05  1.061695E+04  8.284663E+03  1.586000E+05 -1.941299E+04 -3.175114E+03
       236  26  3.266314E+05  3.704410E+04  2.563608E+04  1.499083E+05 -1.489440E+04 -1.057311E+04
       236  27  4.415126E+05  6.476419E+04  4.625343E+04  1.595252E+05 -1.037528E+04 -1.656963E+04
       237   1 -1.776930E+05 -7.816684E+04 -5.044179E+04  1.578074E+05 -1.475040E+04  1.998168E+04
       237   2 -2.907554E+05 -1.028682E+05 -7.636649E+04  1.440994E+05  9.533610E+03  1.894359E+04
       237   3 -4.066081E+05 -1.262151E+05 -1.177623E+05  1.478259E+05  3.380920E+04  6.001797E+03
       237   4  1.677693E+05  1.955471E+03  4.699899E+03  1.584446E+05 -2.971409E+03  1.998236E+04
       237   5  1.666737E+05  5.579801E+03  8.401635E+03  1.497279E+05 -7.244511E+03  1.894110E+04
       237   6  1.677335E+05  1.551638E+04  1.646533E+04  1.584442E+05 -1.152140E+04  6.000593E+03
       237   7  5.133505E+05  8.207188E+04  5.983900E+04  1.590821E+05  8.813901E+03  1.998307E+04
       237   8  6.243063E+05  1.140161E+05  9.316204E+04  1.553605E+05 -2.403468E+04  1.893832E+04
       237   9  7.423839E+05  1.572259E+05  1.506783E+05  1.690723E+05 -5.689367E+04  5.997843E+03
       237  10 -1.776934E+05 -7.816732E+04 -5.044295E+04  1.578077E+05 -1.344810E-10 -6.115040E-11
       237  11 -2.907556E+05 -1.028686E+05 -7.636733E+04  1.440993E+05 -1.937526E-10 -6.060915E-11
       237  12 -4.066093E+05 -1.262154E+05 -1.177645E+05  1.478257E+05 -1.984553E-10  2.036417E-11
       237  13  1.677691E+05  1.955040E+03  4.699131E+03  1.584446E+05  1.306657E-11 -1.048408E-10
       237  14  1.666736E+05  5.579402E+03  8.400862E+03  1.497280E+05  1.183183E-10 -1.374014E-10
       237  15  1.677333E+05  1.551631E+04  1.646501E+04  1.584442E+05 -6.924686E-11 -9.457590E-11
       237  16  5.133503E+05  8.207143E+04  5.983810E+04  1.590820E+05  3.866503E-10 -9.788835E-11
       237  17  6.243056E+05  1.140155E+05  9.316028E+04  1.553609E+05 -1.007814E-10 -1.360278E-10
       237  18  7.423804E+05  1.572250E+05  1.506722E+05  1.690726E+05  5.325879E-10 -1.294422E-10
       237  19 -1.776930E+05 -7.816684E+04 -5.044179E+04  1.578074E+05  1.475040E+04 -1.998168E+04
       237  20 -2.907554E+05 -1.028682E+05 -7.636649E+04  1.440994E+05 -9.533610E+03 -1.894359E+04
       237  21 -4.066081E+05 -1.262151E+05 -1.177623E+05  1.478259E+05 -3.380920E+04 -6.001797E+03
       237  22  1.677693E+05  1.955471E+03  4.699899E+03  1.584446E+05  2.971409E+03 -1.998236E+04
       237  23  1.666737E+05  5.579801E+03  8.401635E+03  1.497279E+05  7.244511E+03 -1.894110E+04
       237  24  1.677335E+05  1.551638E+04  1.646533E+04  1.584442E+05  1.152140E+04 -6.000593E+03
       237  25  5.133505E+05  8.207188E+04  5.983900E+04  1.590821E+05 -8.813901E+03 -1.998307E+04
       237  26  6.243063E+05  1.140161E+05  9.316204E+04  1.553605E+05  2.403468E+04 -1.893832E+04
       237  27  7.423839E+05  1.572259E+05  1.506783E+05  1.690723E+05  5.689367E+04 -5.997843E+03
       238   1 -1.171691E+05 -4.123205E+05 -1.142567E+05  2.124503E+05 -3.213825E+03 -3.315631E+04
       238   2 -6.949174E+04 -2.630080E+05 -6.202055E+04  1.965230E+05 -8.476369E+03 -7.869602E+03
       238   3 -3.124901E+04 -1.193343E+05 -2.861588E+04  2.034332E+05 -4.907969E+03  1.742224E+04
       238   4 -1.389482E+04  4.713599E+03 -1.496564E+04  2.029703E+05 -3.199776E+03 -9.906742E+03
       238   5 -4.954173E+03  5.716678E+03 -8.066303E+03  1.915485E+05 -8.474769E+03 -5.801201E+03
       238   6 -1.766305E+03  4.739746E+03 -5.281961E+03  2.029644E+05 -4.920221E+03 -1.696908E+03
       238   7  8.936751E+04  4.219087E+05  8.431534E+04  1.934839E+05 -3.186445E+03  1.335838E+04
       238   8  5.957904E+04  2.745103E+05  4.588430E+04  1.865718E+05 -8.473202E+03 -3.731922E+03
       238   9  2.771571E+04  1.288294E+05  1.805266E+04  2.024956E+05 -4.932442E+03 -2.081979E+04
       238  10 -1.171694E+05 -4.123217E+05 -1.142588E+05  2.124502E+05  3.557656E-11 -2.511263E-10
       238  11 -6.949183E+04 -2.630081E+05 -6.202080E+04  1.965229E+05 -2.853414E-10  2.644927E-10
       238  12 -3.124912E+04 -1.193346E+05 -2.861649E+04  2.034332E+05 -6.338313E-11  3.828525E-10
       238  13 -1.389486E+04  4.713491E+03 -1.496585E+04  2.029703E+05 -2.762483E-10 -2.608835E-10
       238  14 -4.954260E+03  5.716623E+03 -8.066501E+03  1.915484E+05  2.000041E-10 -1.524922E-10
       238  15 -1.766332E+03  4.739736E+03 -5.282012E+03  2.029644E+05  1.400441E-10 -1.777024E-10
       238  16  8.936745E+04  4.219085E+05  8.431499E+04  1.934839E+05  3.794187E-11  2.465805E-10
       238  17  5.957896E+04  2.745103E+05  4.588413E+04  1.865717E+05 -9.098374E-11 -3.259950E-10
       238  18  2.771556E+04  1.288290E+05  1.805180E+04  2.024955E+05  3.360762E-10 -2.768178E-10
       238  19 -1.171691E+05 -4.123205E+05 -1.142567E+05  2.124503E+05  3.213825E+03  3.315631E+04
       238  20 -6.949174E+04 -2.630080E+05 -6.202055E+04  1.965230E+05  8.476369E+03  7.869602E+03
       238  21 -3.124901E+04 -1.193343E+05 -2.861588E+04  2.034332E+05  4.907969E+03 -1.742224E+04
       238  22 -1.389482E+04  4.713599E+03 -1.496564E+04  2.029703E+05  3.199776E+03  9.906742E+03
       238  23 -4.954173E+03  5.716678E+03 -8.066303E+03  1.915485E+05  8.474769E+03  5.801201E+03
       238  24 -1.766305E+03  4.739746E+03 -5.281961E+03  2.029644E+05  4.920221E+03  1.696908E+03
       238  25  8.936751E+04  4.219087E+05  8.431534E+04  1.934839E+05  3.186445E+03 -1.335838E+04
       238  26  5.957904E+04  2.745103E+05  4.588430E+04  1.865718E+05  8.473202E+03  3.731922E+03
       238  27  2.771571E+04  1.288294E+05  1.805266E+04  2.024956E+05  4.932442E+03  2.081979E+04
       239   1 -9.655025E+03 -2.796351E+04 -1.324775E+04  2.038764E+05  1.988569E+02  1.876582E+04
       239   2  2.473241E+04  1.187498E+05  1.095169E+04  1.910909E+05  8.106171E+03  1.970216E+04
       239   3  5.769685E+04  2.649951E+05  3.418090E+04  2.016860E+05  1.541398E+04  2.063931E+04
       239   4 -1.352360E+03  5.018057E+03 -4.711317E+03  2.030853E+05  1.860212E+02 -9.308567E+02
       239   5 -1.077607E+03  5.382006E+03 -4.742167E+03  1.913951E+05  8.094897E+03  1.442088E+03
       239   6 -2.474705E+03  5.006785E+03 -6.741892E+03  2.030859E+05  1.540419E+04  3.815646E+03
       239   7  6.950432E+03  3.800143E+04  3.826489E+03  2.022941E+05  1.732361E+02 -2.062859E+04
       239   8 -2.688801E+04 -1.079720E+05 -2.043492E+04  1.916991E+05  8.083603E+03 -1.681480E+04
       239   9 -6.264944E+04 -2.549136E+05 -4.766528E+04  2.044853E+05  1.539433E+04 -1.300124E+04
       239  10 -9.655120E+03 -2.796389E+04 -1.324841E+04  2.038764E+05  4.408378E-11 -4.361472E-10
       239  11  2.473224E+04  1.187494E+05  1.095084E+04  1.910908E+05 -7.063630E-11  3.417367E-10
       239  12  5.769648E+04  2.649946E+05  3.417965E+04  2.016857E+05  8.243616E-11  7.107945E-10
       239  13 -1.352360E+03  5.018056E+03 -4.711319E+03  2.030853E+05 -5.275931E-11 -3.400897E-10
       239  14 -1.077678E+03  5.381986E+03 -4.742294E+03  1.913951E+05 -5.543087E-10 -1.808770E-10
       239  15 -2.474964E+03  5.006706E+03 -6.742365E+03  2.030859E+05 -3.406448E-10 -1.807956E-10
       239  16  6.950317E+03  3.800098E+04  3.825690E+03  2.022941E+05  1.575637E-11  4.407207E-10
       239  17 -2.688816E+04 -1.079724E+05 -2.043557E+04  1.916993E+05 -8.918203E-11 -3.708383E-10
       239  18 -6.264974E+04 -2.549138E+05 -4.766604E+04  2.044854E+05  1.015698E-10 -6.689934E-10
       239  19 -9.655025E+03 -2.796351E+04 -1.324775E+04  2.038764E+05 -1.988569E+02 -1.876582E+04
       239  20  2.473241E+04  1.187498E+05  1.095169E+04  1.910909E+05 -8.106171E+03 -1.970216E+04
       239  21  5.769685E+04  2.649951E+05  3.418090E+04  2.016860E+05 -1.541398E+04 -2.063931E+04
       239  22 -1.352360E+03  5.018057E+03 -4.711317E+03  2.030853E+05 -1.860212E+02  9.308567E+02
       239  23 -1.077607E+03  5.382006E+03 -4.742167E+03  1.913951E+05 -8.094897E+03 -1.442088E+03
       239  24 -2.474705E+03  5.006785E+03 -6.741892E+03  2.030859E+05 -1.540419E+04 -3.815646E+03
       239  25  6.950432E+03  3.800143E+04  3.826489E+03  2.022941E+05 -1.732361E+02  2.062859E+04
       239  26 -2.688801E+04 -1.079720E+05 -2.043492E+04  1.916991E+05 -8.083603E+03  1.681480E+04
       239  27 -6.264944E+04 -2.549136E+05 -4.766528E+04  2.044853E+05 -1.539433E+04  1.300124E+04
       240   1  7.821318E+04  3.557184E+05  4.821440E+04  2.019666E+05  1.991308E+04  2.081014E+04
       240   2  1.077675E+05  5.013992E+05  7.788126E+04  1.819578E+05  1.982646E+04 -3.631776E+03
       240   3  1.318047E+05  6.489074E+05  1.220738E+05  1.844062E+05  6.398552E+03 -2.807868E+04
       240   4 -3.395262E+03  4.326904E+03 -8.520491E+03  2.028812E+05  1.990470E+04  4.961203E+03
       240   5 -9.792289E+03  6.179419E+03 -1.490353E+04  1.916564E+05  1.983624E+04  1.255820E+04
       240   6 -2.726892E+04  4.278874E+03 -2.900383E+04  2.028918E+05  6.420878E+03  2.015553E+04
       240   7 -8.500981E+04 -3.469415E+05 -6.525780E+04  2.037951E+05  1.989626E+04 -1.087909E+04
       240   8 -1.273657E+05 -4.888026E+05 -1.076979E+05  2.013471E+05  1.984653E+04  2.873559E+04
       240   9 -1.863695E+05 -6.399614E+05 -1.801009E+05  2.213580E+05  6.446092E+03  6.834000E+04
       240  10  7.821264E+04  3.557178E+05  4.821284E+04  2.019663E+05 -2.867496E-11 -3.089067E-10
       240  11  1.077670E+05  5.013991E+05  7.788049E+04  1.819578E+05 -6.625060E-11  6.313742E-11
       240  12  1.318044E+05  6.489065E+05  1.220722E+05  1.844063E+05  8.248677E-11  1.505901E-10
       240  13 -3.395694E+03  4.326772E+03 -8.521282E+03  2.028811E+05  2.662484E-10 -2.906617E-10
       240  14 -9.792754E+03  6.179144E+03 -1.490457E+04  1.916562E+05 -3.085578E-10 -1.347778E-10
       240  15 -2.726907E+04  4.278427E+03 -2.900467E+04  2.028917E+05  4.014816E-11 -9.482152E-11
       240  16 -8.501027E+04 -3.469418E+05 -6.525877E+04  2.037953E+05 -6.942029E-11  2.969771E-10
       240  17 -1.273664E+05 -4.888036E+05 -1.077002E+05  2.013467E+05 -2.332795E-10 -5.080510E-11
       240  18 -1.863708E+05 -6.399664E+05 -1.801098E+05  2.213577E+05  2.053678E-11 -1.283183E-10
       240  19  7.821318E+04  3.557184E+05  4.821440E+04  2.019666E+05 -1.991308E+04 -2.081014E+04
       240  20  1.077675E+05  5.013992E+05  7.788126E+04  1.819578E+05 -1.982646E+04  3.631776E+03
       240  21  1.318047E+05  6.489074E+05  1.220738E+05  1.844062E+05 -6.398552E+03  2.807868E+04
       240  22 -3.395262E+03  4.326904E+03 -8.520491E+03  2.028812E+05 -1.990470E+04 -4.961203E+03
       240  23 -9.792289E+03  6.179419E+03 -1.490353E+04  1.916564E+05 -1.983624E+04 -1.255820E+04
       240  24 -2.726892E+04  4.278874E+03 -2.900383E+04  2.028918E+05 -6.420878E+03 -2.015553E+04
       240  25 -8.500981E+04 -3.469415E+05 -6.525780E+04  2.037951E+05 -1.989626E+04  1.087909E+04
       240  26 -1.273657E+05 -4.888026E+05 -1.076979E+05  2.013471E+05 -1.984653E+04 -2.873559E+04
       240  27 -1.863695E+05 -6.399614E+05 -1.801009E+05  2.213580E+05 -6.446092E+03 -6.834000E+04
       241   1  6.750636E+05  1.417347E+05  1.357345E+05  1.665218E+05  4.852543E+04 -5.354891E+03
       241   2  5.571302E+05  1.018607E+05  8.310137E+04  1.541853E+05  1.898897E+04 -1.664969E+04
       241   3  4.453426E+05  7.107386E+04  5.195642E+04  1.594128E+05 -1.053771E+04 -1.692523E+04
       241   4  1.453123E+05  1.103554E+04  1.172845E+04  1.589512E+05  8.162683E+03 -5.357004E+03
       241   5  1.445573E+05  3.963502E+03  6.018337E+03  1.501693E+05  5.099617E+03 -1.665180E+04
       241   6  1.453444E+05  1.389047E+03  3.426309E+03  1.589513E+05  2.040057E+03 -1.692428E+04
       241   7 -3.841769E+05 -1.196824E+05 -1.122906E+05  1.513870E+05 -3.216587E+04 -5.358138E+03
       241   8 -2.678506E+05 -9.394338E+04 -7.107127E+04  1.461560E+05 -8.780750E+03 -1.665373E+04
       241   9 -1.545643E+05 -6.830024E+04 -4.510568E+04  1.584901E+05  1.461197E+04 -1.692334E+04
       241  10  6.750610E+05  1.417340E+05  1.357300E+05  1.665220E+05 -1.689810E-10 -4.584520E-12
       241  11  5.571297E+05  1.018603E+05  8.310017E+04  1.541856E+05  5.637217E-13 -3.104968E-11
       241  12  4.453424E+05  7.107352E+04  5.195568E+04  1.594127E+05 -1.034656E-10  8.781607E-11
       241  13  1.453122E+05  1.103550E+04  1.172827E+04  1.589512E+05 -3.896164E-11  1.180065E-10
       241  14  1.445572E+05  3.963197E+03  6.017767E+03  1.501694E+05 -3.206434E-11  9.552780E-11
       241  15  1.453443E+05  1.388738E+03  3.425763E+03  1.589514E+05  3.622947E-11  1.086474E-10
       241  16 -3.841781E+05 -1.196827E+05 -1.122926E+05  1.513869E+05  1.633065E-10  1.724826E-11
       241  17 -2.678507E+05 -9.394370E+04 -7.107194E+04  1.461559E+05  2.238157E-10  1.490827E-10
       241  18 -1.545646E+05 -6.830061E+04 -4.510662E+04  1.584903E+05  2.093425E-10  1.017383E-10
       241  19  6.750636E+05  1.417347E+05  1.357345E+05  1.665218E+05 -4.852543E+04  5.354891E+03
       241  20  5.571302E+05  1.018607E+05  8.310137E+04  1.541853E+05 -1.898897E+04  1.664969E+04
       241  21  4.453426E+05  7.107386E+04  5.195642E+04  1.594128E+05  1.053771E+04  1.692523E+04
       241  22  1.453123E+05  1.103554E+04  1.172845E+04  1.589512E+05 -8.162683E+03  5.357004E+03
       241  23  1.445573E+05  3.963502E+03  6.018337E+03  1.501693E+05 -5.099617E+03  1.665180E+04
       241  24  1.453444E+05  1.389047E+03  3.426309E+03  1.589513E+05 -2.040057E+03  1.692428E+04
       241  25 -3.841769E+05 -1.196824E+05 -1.122906E+05  1.513870E+05  3.216587E+04  5.358138E+03
       241  26 -2.678506E+05 -9.394338E+04 -7.107127E+04  1.461560E+05  8.780750E+03  1.665373E+04
       241  27 -1.545643E+05 -6.830024E+04 -4.510568E+04  1.584901E+05 -1.461197E+04  1.692334E+04
       242   1  3.734668E+05  5.392624E+04  3.890571E+04  1.597733E+05 -1.186401E+04 -1.335945E+04
       242   2  2.583011E+05  2.647317E+04  1.903915E+04  1.502449E+05 -1.582293E+04 -7.129623E+03
       242   3  1.439352E+05  7.908907E+01  2.015105E+03  1.590925E+05 -1.978136E+04  3.661028E+02
       242   4  1.450666E+05  1.017682E+03  2.694119E+03  1.591320E+05  1.575213E+03 -1.335781E+04
       242   5  1.449405E+05  3.667946E+02  1.841282E+03  1.499439E+05  6.547278E+02 -7.127057E+03
       242   6  1.450754E+05  2.485505E+02  1.721719E+03  1.591320E+05 -2.659115E+02  3.697115E+02
       242   7 -8.328139E+04 -5.189337E+04 -3.351811E+04  1.584909E+05  1.500968E+04 -1.335619E+04
       242   8  3.159328E+04 -2.574005E+04 -1.535584E+04  1.496430E+05  1.712949E+04 -7.124506E+03
       242   9  1.462165E+05  4.182165E+02  1.429766E+03  1.591716E+05  1.924957E+04  3.733227E+02
       242  10  3.734666E+05  5.392601E+04  3.890511E+04  1.597731E+05 -1.836304E-10  1.165443E-10
       242  11  2.583008E+05  2.647305E+04  1.903859E+04  1.502448E+05 -1.747894E-11  1.609906E-10
       242  12  1.439348E+05  7.898390E+01  2.014369E+03  1.590925E+05 -1.243874E-10  1.647503E-10
       242  13  1.450665E+05  1.017489E+03  2.693779E+03  1.591320E+05  1.300553E-10  1.351040E-10
       242  14  1.449404E+05  3.667400E+02  1.841186E+03  1.499439E+05  1.211906E-10  1.498119E-10
       242  15  1.450754E+05  2.485503E+02  1.721719E+03  1.591320E+05  1.342126E-11  5.586688E-11
       242  16 -8.328168E+04 -5.189362E+04 -3.351887E+04  1.584911E+05  2.398647E-10  4.420960E-11
       242  17  3.159295E+04 -2.574018E+04 -1.535648E+04  1.496431E+05  1.799586E-10  8.010513E-11
       242  18  1.462161E+05  4.181169E+02  1.429069E+03  1.591716E+05  3.082193E-10  3.840771E-13
       242  19  3.734668E+05  5.392624E+04  3.890571E+04  1.597733E+05  1.186401E+04  1.335945E+04
       242  20  2.583011E+05  2.647317E+04  1.903915E+04  1.502449E+05  1.582293E+04  7.129623E+03
       242  21  1.439352E+05  7.908907E+01  2.015105E+03  1.590925E+05  1.978136E+04 -3.661028E+02
       242  22  1.450666E+05  1.017682E+03  2.694119E+03  1.591320E+05 -1.575213E+03  1.335781E+04
       242  23  1.449405E+05  3.667946E+02  1.841282E+03  1.499439E+05 -6.547278E+02  7.127057E+03
       242  24  1.450754E+05  2.485505E+02  1.721719E+03  1.591320E+05  2.659115E+02 -3.697115E+02
       242  25 -8.328139E+04 -5.189337E+04 -3.351811E+04  1.584909E+05 -1.500968E+04  1.335619E+04
       242  26  3.159328E+04 -2.574005E+04 -1.535584E+04  1.496430E+05 -1.712949E+04  7.124506E+03
       242  27  1.462165E+05  4.182165E+02  1.429766E+03  1.591716E+05 -1.924957E+04 -3.733227E+02
       243   1  7.297608E+04 -1.612748E+04 -8.006041E+03  1.591654E+05 -2.006716E+04  5.212393E+03
       243   2 -4.166961E+04 -4.207200E+04 -2.427608E+04  1.493999E+05 -1.783969E+04  1.259414E+04
       243   3 -1.565167E+05 -6.775586E+04 -4.192885E+04  1.579965E+05 -1.561226E+04  1.848936E+04
       243   4  1.451064E+05  2.728404E+02  1.873549E+03  1.591288E+05 -5.682501E+02  5.215886E+03
       243   5  1.448967E+05  6.307433E+02  2.679860E+03  1.499479E+05 -1.910082E+03  1.259615E+04
       243   6  1.450917E+05  1.869167E+03  4.580968E+03  1.591287E+05 -3.251558E+03  1.849013E+04
       243   7  2.172427E+05  1.667314E+04  1.175451E+04  1.590922E+05  1.893282E+04  5.219376E+03
       243   8  3.314987E+05  4.333203E+04  2.963620E+04  1.504961E+05  1.402412E+04  1.259819E+04
       243   9  4.467913E+05  7.148987E+04  5.108931E+04  1.602614E+05  9.114922E+03  1.849094E+04
       243  10  7.297564E+04 -1.612761E+04 -8.006848E+03  1.591655E+05 -6.873630E-11  2.314307E-10
       243  11 -4.167000E+04 -4.207226E+04 -2.427697E+04  1.494000E+05 -2.001470E-10  8.867420E-11
       243  12 -1.565171E+05 -6.775630E+04 -4.192995E+04  1.579967E+05 -1.288301E-10 -8.367396E-11
       243  13  1.451064E+05  2.728111E+02  1.873497E+03  1.591288E+05 -3.410538E-11  8.956848E-11
       243  14  1.448967E+05  6.305719E+02  2.679555E+03  1.499479E+05 -1.700337E-12  5.540616E-11
       243  15  1.450915E+05  1.868797E+03  4.580305E+03  1.591287E+05 -1.546512E-10 -1.027404E-10
       243  16  2.172424E+05  1.667301E+04  1.175379E+04  1.590921E+05  2.431384E-10 -1.073193E-11
       243  17  3.314985E+05  4.333181E+04  2.963553E+04  1.504960E+05  2.596232E-10 -6.415955E-12
       243  18  4.467911E+05  7.148948E+04  5.108852E+04  1.602613E+05  2.650854E-10 -1.259889E-10
       243  19  7.297608E+04 -1.612748E+04 -8.006041E+03  1.591654E+05  2.006716E+04 -5.212393E+03
       243  20 -4.166961E+04 -4.207200E+04 -2.427608E+04  1.493999E+05  1.783969E+04 -1.259414E+04
       243  21 -1.565167E+05 -6.775586E+04 -4.192885E+04  1.579965E+05  1.561226E+04 -1.848936E+04
       243  22  1.451064E+05  2.728404E+02  1.873549E+03  1.591288E+05  5.682501E+02 -5.215886E+03
       243  23  1.448967E+05  6.307433E+02  2.679860E+03  1.499479E+05  1.910082E+03 -1.259615E+04
       243  24  1.450917E+05  1.869167E+03  4.580968E+03  1.591287E+05  3.251558E+03 -1.849013E+04
       243  25  2.172427E+05  1.667314E+04  1.175451E+04  1.590922E+05 -1.893282E+04 -5.219376E+03
       243  26  3.314987E+05  4.333203E+04  2.963620E+04  1.504961E+05 -1.402412E+04 -1.259819E+04
       243  27  4.467913E+05  7.148987E+04  5.108931E+04  1.602614E+05 -9.114922E+03 -1.849094E+04
       244   1 -2.276428E+05 -8.393515E+04 -5.315971E+04  1.581155E+05 -1.543061E+04  2.183405E+04
       244   2 -3.412840E+05 -1.076803E+05 -7.859200E+04  1.428231E+05  8.878651E+03  2.034918E+04
       244   3 -4.572743E+05 -1.283132E+05 -1.190721E+05  1.449770E+05  3.317832E+04  6.398705E+03
       244   4  1.456215E+05  2.562958E+03  6.042856E+03  1.589246E+05 -4.048623E+03  2.183402E+04
       244   5  1.441883E+05  7.344121E+03  1.099535E+04  1.502023E+05 -9.643103E+03  2.034720E+04
       244   6  1.455833E+05  2.042783E+04  2.166824E+04  1.589247E+05 -1.524210E+04  6.399802E+03
       244   7  5.190247E+05  8.905420E+04  6.524238E+04  1.597341E+05  7.339962E+03  2.183402E+04
       244   8  6.298901E+05  1.223555E+05  1.005742E+05  1.575875E+05 -2.817896E+04  2.034478E+04
       244   9  7.487817E+05  1.691451E+05  1.623929E+05  1.728860E+05 -6.370925E+04  6.398725E+03
       244  10 -2.276431E+05 -8.393573E+04 -5.316106E+04  1.581158E+05 -2.310969E-11 -2.304434E-10
       244  11 -3.412842E+05 -1.076807E+05 -7.859293E+04  1.428229E+05 -1.830554E-11 -3.353857E-10
       244  12 -4.572755E+05 -1.283136E+05 -1.190743E+05  1.449768E+05 -4.486606E-10 -1.930280E-10
       244  13  1.456213E+05  2.562442E+03  6.041929E+03  1.589246E+05 -3.182417E-10 -1.693525E-10
       244  14  1.441881E+05  7.343651E+03  1.099440E+04  1.502025E+05 -1.251498E-10 -2.561007E-10
       244  15  1.455831E+05  2.042772E+04  2.166773E+04  1.589248E+05 -2.306003E-10 -3.384715E-11
       244  16  5.190245E+05  8.905368E+04  6.524138E+04  1.597339E+05  1.663035E-10 -1.853176E-10
       244  17  6.298891E+05  1.223548E+05  1.005720E+05  1.575879E+05 -2.033117E-10 -1.077807E-10
       244  18  7.487774E+05  1.691440E+05  1.623852E+05  1.728863E+05  8.517353E-10 -1.531535E-10
       244  19 -2.276428E+05 -8.393515E+04 -5.315971E+04  1.581155E+05  1.543061E+04 -2.183405E+04
       244  20 -3.412840E+05 -1.076803E+05 -7.859200E+04  1.428231E+05 -8.878651E+03 -2.034918E+04
       244  21 -4.572743E+05 -1.283132E+05 -1.190721E+05  1.449770E+05 -3.317832E+04 -6.398705E+03
       244  22  1.456215E+05  2.562958E+03  6.042856E+03  1.589246E+05  4.048623E+03 -2.183402E+04
       244  23  1.441883E+05  7.344121E+03  1.099535E+04  1.502023E+05  9.643103E+03 -2.034720E+04
       244  24  1.455833E+05  2.042783E+04  2.166824E+04  1.589247E+05  1.524210E+04 -6.399802E+03
       244  25  5.190247E+05  8.905420E+04  6.524238E+04  1.597341E+05 -7.339962E+03 -2.183402E+04
       244  26  6.298901E+05  1.223555E+05  1.005742E+05  1.575875E+05  2.817896E+04 -2.034478E+04
       244  27  7.487817E+05  1.691451E+05  1.623929E+05  1.728860E+05  6.370925E+04 -6.398725E+03
       245   1 -1.424682E+05 -5.001860E+05 -1.384113E+05  2.446493E+05 -4.247718E+03 -4.023624E+04
       245   2 -8.827436E+04 -3.271266E+05 -7.736640E+04  2.269372E+05 -1.165767E+04 -9.585584E+03
       245   3 -4.445471E+04 -1.606332E+05 -3.888370E+04  2.356319E+05 -8.103429E+03  2.107244E+04
       245   4 -1.376823E+04  1.979064E+04 -1.497765E+04  2.352263E+05 -4.226880E+03 -9.267306E+03
       245   5 -4.919190E+03  2.082283E+04 -8.568211E+03  2.220196E+05 -1.165389E+04 -4.910739E+03
       245   6 -1.872944E+03  1.982981E+04 -6.450485E+03  2.352198E+05 -8.119109E+03 -5.557573E+02
       245   7  1.149131E+05  5.400179E+05  1.084408E+05  2.257952E+05 -4.206995E+03  2.172745E+04
       245   8  7.842873E+04  3.688883E+05  6.022412E+04  2.170992E+05 -1.165019E+04 -2.333284E+02
       245   9  4.070726E+04  2.003256E+05  2.598323E+04  2.348076E+05 -8.134758E+03 -2.219006E+04
       245  10 -1.424687E+05 -5.001877E+05 -1.384143E+05  2.446491E+05 -1.452058E-10 -4.833910E-10
       245  11 -8.827453E+04 -3.271268E+05 -7.736683E+04  2.269372E+05 -2.005196E-10  3.759964E-10
       245  12 -4.445490E+04 -1.606337E+05 -3.888466E+04  2.356320E+05  1.534223E-10  4.113511E-10
       245  13 -1.376828E+04  1.979054E+04 -1.497785E+04  2.352262E+05 -3.453914E-10  2.574643E-12
       245  14 -4.919342E+03  2.082276E+04 -8.568512E+03  2.220196E+05  3.027403E-10  6.963734E-12
       245  15 -1.873015E+03  1.982979E+04 -6.450610E+03  2.352198E+05 -1.124223E-10  1.034618E-10
       245  16  1.149130E+05  5.400174E+05  1.084398E+05  2.257953E+05 -1.419497E-10  5.624737E-10
       245  17  7.842858E+04  3.688882E+05  6.022386E+04  2.170992E+05 -2.193859E-10 -1.158695E-10
       245  18  4.070706E+04  2.003250E+05  2.598218E+04  2.348074E+05  2.451771E-10 -9.294105E-10
       245  19 -1.424682E+05 -5.001860E+05 -1.384113E+05  2.446493E+05  4.247718E+03  4.023624E+04
       245  20 -8.827436E+04 -3.271266E+05 -7.736640E+04  2.269372E+05  1.165767E+04  9.585584E+03
       245  21 -4.445471E+04 -1.606332E+05 -3.888370E+04  2.356319E+05  8.103429E+03 -2.107244E+04
       245  22 -1.376823E+04  1.979064E+04 -1.497765E+04  2.352263E+05  4.226880E+03  9.267306E+03
       245  23 -4.919190E+03  2.082283E+04 -8.568211E+03  2.220196E+05  1.165389E+04  4.910739E+03
       245  24 -1.872944E+03  1.982981E+04 -6.450485E+03  2.352198E+05  8.119109E+03  5.557573E+02
       245  25  1.149131E+05  5.400179E+05  1.084408E+05  2.257952E+05  4.206995E+03 -2.172745E+04
       245  26  7.842873E+04  3.688883E+05  6.022412E+04  2.170992E+05  1.165019E+04  2.333284E+02
       245  27  4.070726E+04  2.003256E+05  2.598323E+04  2.348076E+05  8.134758E+03  2.219006E+04
       246   1 -1.952366E+04 -5.483558E+04 -2.145604E+04  2.361846E+05 -2.282288E+03  2.280479E+04
       246   2  1.976435E+04  1.154113E+05  5.360441E+03  2.208278E+05  6.786416E+03  2.549083E+04
       246   3  5.651730E+04  2.846880E+05  2.978836E+04  2.325677E+05  1.535396E+04  2.817812E+04
       246   4 -1.530180E+03  2.001627E+04 -6.336203E+03  2.353734E+05 -2.298923E+03  4.423436E+02
       246   5 -1.816125E+03  2.061487E+04 -7.762528E+03  2.218256E+05  6.771322E+03  4.327952E+03
       246   6 -4.844790E+03  2.000541E+04 -1.241217E+04  2.353754E+05  1.534036E+04  8.214144E+03
       246   7  1.646322E+04  9.487453E+04  8.785228E+03  2.345621E+05 -2.315498E+03 -2.192275E+04
       246   8 -2.339675E+04 -7.417144E+04 -2.088392E+04  2.228233E+05  6.756157E+03 -1.683184E+04
       246   9 -6.621014E+04 -2.446066E+05 -5.461302E+04  2.381819E+05  1.532657E+04 -1.174163E+04
       246  10 -1.952381E+04 -5.483614E+04 -2.145703E+04  2.361846E+05  1.661389E-10 -3.984235E-10
       246  11  1.976413E+04  1.154106E+05  5.359133E+03  2.208276E+05 -1.061709E-10  1.745341E-10
       246  12  5.651684E+04  2.846870E+05  2.978643E+04  2.325673E+05 -8.446305E-11 -1.165078E-10
       246  13 -1.530185E+03  2.001627E+04 -6.336213E+03  2.353734E+05 -6.844063E-12 -2.328384E-14
       246  14 -1.816179E+03  2.061484E+04 -7.762649E+03  2.218256E+05  6.046746E-10  6.510571E-12
       246  15 -4.845061E+03  2.000528E+04 -1.241274E+04  2.353753E+05 -5.580176E-10  8.092275E-11
       246  16  1.646309E+04  9.487401E+04  8.784315E+03  2.345620E+05  2.546697E-11  5.019493E-10
       246  17 -2.339688E+04 -7.417176E+04 -2.088454E+04  2.228234E+05 -2.044575E-11  1.178987E-10
       246  18 -6.621043E+04 -2.446068E+05 -5.461372E+04  2.381820E+05  9.099904E-12 -3.268618E-10
       246  19 -1.952366E+04 -5.483558E+04 -2.145604E+04  2.361846E+05  2.282288E+03 -2.280479E+04
       246  20  1.976435E+04  1.154113E+05  5.360441E+03  2.208278E+05 -6.786416E+03 -2.549083E+04
       246  21  5.651730E+04  2.846880E+05  2.978836E+04  2.325677E+05 -1.535396E+04 -2.817812E+04
       246  22 -1.530180E+03  2.001627E+04 -6.336203E+03  2.353734E+05  2.298923E+03 -4.423436E+02
       246  23 -1.816125E+03  2.061487E+04 -7.762528E+03  2.218256E+05 -6.771322E+03 -4.327952E+03
       246  24 -4.844790E+03  2.000541E+04 -1.241217E+04  2.353754E+05 -1.534036E+04 -8.214144E+03
       246  25  1.646322E+04  9.487453E+04  8.785228E+03  2.345621E+05  2.315498E+03  2.192275E+04
       246  26 -2.339675E+04 -7.417144E+04 -2.088392E+04  2.228233E+05 -6.756157E+03  1.683184E+04
       246  27 -6.621014E+04 -2.446066E+05 -5.461302E+04  2.381819E+05 -1.532657E+04  1.174163E+04
       247   1  7.948417E+04  3.891974E+05  4.421876E+04  2.332462E+05  2.066666E+04  2.924832E+04
       247   2  1.083742E+05  5.596995E+05  7.223871E+04  2.029358E+05  2.115246E+04  8.661143E+03
       247   3  1.216458E+05  7.290110E+05  1.097494E+05  1.987113E+05  6.904803E+03 -1.193026E+04
       247   4 -6.680950E+03  1.862567E+04 -1.614305E+04  2.351515E+05  2.065478E+04  1.034787E+04
       247   5 -1.930088E+04  2.227672E+04 -2.902536E+04  2.221180E+05  2.116441E+04  2.514152E+04
       247   6 -5.368786E+04  1.856553E+04 -5.698237E+04  2.351758E+05  6.933536E+03  3.993570E+04
       247   7 -9.285286E+04 -3.518092E+05 -7.650738E+04  2.370555E+05  2.064277E+04 -8.541702E+03
       247   8 -1.469912E+05 -5.148658E+05 -1.303009E+05  2.412830E+05  2.117739E+04  4.160798E+04
       247   9 -2.290509E+05 -6.914069E+05 -2.237379E+05  2.715981E+05  6.968383E+03  9.174269E+04
       247  10  7.948348E+04  3.891964E+05  4.421635E+04  2.332457E+05 -3.316837E-10 -5.037792E-10
       247  11  1.083737E+05  5.596993E+05  7.223773E+04  2.029357E+05 -1.870211E-10 -3.640961E-11
       247  12  1.216457E+05  7.290109E+05  1.097490E+05  1.987114E+05  4.289039E-11  1.614465E-10
       247  13 -6.681437E+03  1.862544E+04 -1.614405E+04  2.351513E+05  2.870463E-10 -3.658175E-12
       247  14 -1.930153E+04  2.227593E+04 -2.902739E+04  2.221175E+05 -6.046989E-11  8.916590E-12
       247  15 -5.368834E+04  1.856381E+04 -5.698546E+04  2.351756E+05  1.288584E-11  4.216262E-11
       247  16 -9.285334E+04 -3.518094E+05 -7.650832E+04  2.370557E+05  3.161927E-13  5.635473E-10
       247  17 -1.469922E+05 -5.148678E+05 -1.303050E+05  2.412823E+05 -3.710759E-10  2.999818E-10
       247  18 -2.290532E+05 -6.914160E+05 -2.237538E+05  2.715976E+05 -4.033071E-11 -3.931132E-10
       247  19  7.948417E+04  3.891974E+05  4.421876E+04  2.332462E+05 -2.066666E+04 -2.924832E+04
       247  20  1.083742E+05  5.596995E+05  7.223871E+04  2.029358E+05 -2.115246E+04 -8.661143E+03
       247  21  1.216458E+05  7.290110E+05  1.097494E+05  1.987113E+05 -6.904803E+03  1.193026E+04
       247  22 -6.680950E+03  1.862567E+04 -1.614305E+04  2.351515E+05 -2.065478E+04 -1.034787E+04
       247  23 -1.930088E+04  2.227672E+04 -2.902536E+04  2.221180E+05 -2.116441E+04 -2.514152E+04
       247  24 -5.368786E+04  1.856553E+04 -5.698237E+04  2.351758E+05 -6.933536E+03 -3.993570E+04
       247  25 -9.285286E+04 -3.518092E+05 -7.650738E+04  2.370555E+05 -2.064277E+04  8.541702E+03
       247  26 -1.469912E+05 -5.148658E+05 -1.303009E+05  2.412830E+05 -2.117739E+04 -4.160798E+04
       247  27 -2.290509E+05 -6.914069E+05 -2.237379E+05  2.715981E+05 -6.968383E+03 -9.174269E+04
       248   1  5.313411E+05  1.228340E+05  1.145331E+05  1.061642E+05  3.871025E+04 -6.178027E+03
       248   2  4.474876E+05  1.044177E+05  7.730026E+04  1.036055E+05  1.502664E+04 -2.021323E+04
       248   3  3.667769E+05  8.615027E+04  5.551623E+04  1.133480E+05 -8.649911E+03 -2.313057E+04
       248   4 -1.261510E+04 -1.118598E+04 -1.177026E+04  1.137841E+05 -8.346524E+03 -6.173639E+03
       248   5 -1.185469E+04 -4.071932E+03 -5.923872E+03  1.076334E+05 -5.327279E+03 -2.021367E+04
       248   6 -1.259021E+04 -1.442787E+03 -3.164315E+03  1.137846E+05 -2.303973E+03 -2.313176E+04
       248   7 -5.562934E+05 -1.452254E+05 -1.380852E+05  1.213972E+05 -5.536238E+04 -6.170406E+03
       248   8 -4.709909E+05 -1.125731E+05 -8.915479E+04  1.116582E+05 -2.566656E+04 -2.021438E+04
       248   9 -3.918135E+05 -8.904283E+04 -6.184800E+04  1.142209E+05  4.038238E+03 -2.313295E+04
       248  10  5.313395E+05  1.228336E+05  1.145302E+05  1.061644E+05 -2.092287E-10  1.247124E-10
       248  11  4.474873E+05  1.044172E+05  7.729907E+04  1.036057E+05  5.760312E-10 -1.462786E-10
       248  12  3.667767E+05  8.614968E+04  5.551509E+04  1.133478E+05  6.076627E-10  5.489526E-11
       248  13 -1.261518E+04 -1.118603E+04 -1.177046E+04  1.137840E+05 -2.866784E-10 -1.541655E-10
       248  14 -1.185483E+04 -4.072379E+03 -5.924693E+03  1.076333E+05 -6.354396E-11 -4.675048E-11
       248  15 -1.259036E+04 -1.443363E+03 -3.165330E+03  1.137845E+05  8.900443E-11  4.201223E-11
       248  16 -5.562967E+05 -1.452263E+05 -1.380910E+05  1.213969E+05  2.682568E-11 -1.395895E-10
       248  17 -4.709917E+05 -1.125737E+05 -8.915680E+04  1.116578E+05 -6.196389E-10 -4.025043E-11
       248  18 -3.918137E+05 -8.904341E+04 -6.184903E+04  1.142209E+05 -7.101420E-10 -1.646040E-10
       248  19  5.313411E+05  1.228340E+05  1.145331E+05  1.061642E+05 -3.871025E+04  6.178027E+03
       248  20  4.474876E+05  1.044177E+05  7.730026E+04  1.036055E+05 -1.502664E+04  2.021323E+04
       248  21  3.667769E+05  8.615027E+04  5.551623E+04  1.133480E+05  8.649911E+03  2.313057E+04
       248  22 -1.261510E+04 -1.118598E+04 -1.177026E+04  1.137841E+05  8.346524E+03  6.173639E+03
       248  23 -1.185469E+04 -4.071932E+03 -5.923872E+03  1.076334E+05  5.327279E+03  2.021367E+04
       248  24 -1.259021E+04 -1.442787E+03 -3.164315E+03  1.137846E+05  2.303973E+03  2.313176E+04
       248  25 -5.562934E+05 -1.452254E+05 -1.380852E+05  1.213972E+05  5.536238E+04  6.170406E+03
       248  26 -4.709909E+05 -1.125731E+05 -8.915479E+04  1.116582E+05  2.566656E+04  2.021438E+04
       248  27 -3.918135E+05 -8.904283E+04 -6.184800E+04  1.142209E+05 -4.038238E+03  2.313295E+04
       249   1  3.155672E+05  7.431422E+04  4.669262E+04  1.133709E+05 -9.119797E+03 -2.107493E+04
       249   2  2.331538E+05  5.555927E+04  3.302742E+04  1.071124E+05 -1.189497E+04 -1.736697E+04
       249   3  1.511535E+05  3.695137E+04  2.120730E+04  1.139833E+05 -1.467019E+04 -1.225867E+04
       249   4 -1.229057E+04 -1.049249E+03 -2.328196E+03  1.139684E+05 -1.897123E+03 -2.107564E+04
       249   5 -1.219514E+04 -3.427336E+02 -1.167458E+03  1.074034E+05 -1.310985E+03 -1.736682E+04
       249   6 -1.227686E+04 -7.242375E+01 -4.957066E+02  1.139683E+05 -7.252290E+02 -1.225737E+04
       249   7 -3.400403E+05 -7.641776E+04 -5.135090E+04  1.145656E+05  5.321893E+03 -2.107633E+04
       249   8 -2.574828E+05 -5.624734E+04 -3.536266E+04  1.076944E+05  9.269006E+03 -1.736666E+04
       249   9 -1.756795E+05 -3.709725E+04 -2.219819E+04  1.139534E+05  1.321623E+04 -1.225607E+04
       249  10  3.155670E+05  7.431372E+04  4.669163E+04  1.133707E+05 -4.752771E-11  8.879825E-11
       249  11  2.331536E+05  5.555890E+04  3.302659E+04  1.071122E+05  5.675793E-11  1.738249E-10
       249  12  1.511532E+05  3.695115E+04  2.120661E+04  1.139832E+05  1.636334E-10  1.846144E-10
       249  13 -1.229069E+04 -1.049727E+03 -2.329038E+03  1.139684E+05 -9.325317E-12 -7.330515E-11
       249  14 -1.219523E+04 -3.430579E+02 -1.168028E+03  1.074034E+05 -1.022745E-10  1.019164E-10
       249  15 -1.227690E+04 -7.258522E+01 -4.959899E+02  1.139683E+05  4.436791E-11  6.112900E-11
       249  16 -3.400405E+05 -7.641825E+04 -5.135179E+04  1.145657E+05  1.306580E-10 -1.255227E-10
       249  17 -2.574830E+05 -5.624769E+04 -3.536339E+04  1.076945E+05 -2.450479E-10  1.744057E-11
       249  18 -1.756798E+05 -3.709746E+04 -2.219880E+04  1.139535E+05 -1.466758E-10 -2.161350E-11
       249  19  3.155672E+05  7.431422E+04  4.669262E+04  1.133709E+05  9.119797E+03  2.107493E+04
       249  20  2.331538E+05  5.555927E+04  3.302742E+04  1.071124E+05  1.189497E+04  1.736697E+04
       249  21  1.511535E+05  3.695137E+04  2.120730E+04  1.139833E+05  1.467019E+04  1.225867E+04
       249  22 -1.229057E+04 -1.049249E+03 -2.328196E+03  1.139684E+05  1.897123E+03  2.107564E+04
       249  23 -1.219514E+04 -3.427336E+02 -1.167458E+03  1.074034E+05  1.310985E+03  1.736682E+04
       249  24 -1.227686E+04 -7.242375E+01 -4.957066E+02  1.139683E+05  7.252290E+02  1.225737E+04
       249  25 -3.400403E+05 -7.641776E+04 -5.135090E+04  1.145656E+05 -5.321893E+03  2.107633E+04
       249  26 -2.574828E+05 -5.624734E+04 -3.536266E+04  1.076944E+05 -9.269006E+03  1.736666E+04
       249  27 -1.756795E+05 -3.709725E+04 -2.219819E+04  1.139534E+05 -1.321623E+04  1.225607E+04
       250   1  1.003531E+05  2.537200E+04  1.417346E+04  1.139766E+05 -1.466628E+04 -8.787285E+03
       250   2  1.824968E+04  6.744437E+03  2.802771E+03  1.072696E+05 -1.341438E+04 -3.238881E+03
       250   3 -6.402840E+04 -1.197666E+04 -9.405024E+03  1.137472E+05 -1.216284E+04  1.738507E+03
       250   4 -1.222261E+04 -2.495715E+01 -2.421069E+02  1.139805E+05 -6.637673E+02 -8.785667E+03
       250   5 -1.224935E+04  1.313653E+02  2.358658E+02  1.073882E+05 -7.833679E+02 -3.237309E+03
       250   6 -1.222086E+04  4.320671E+02  8.282117E+02  1.139805E+05 -9.031597E+02  1.740017E+03
       250   7 -1.247849E+05 -2.542233E+04 -1.465699E+04  1.139844E+05  1.333633E+04 -8.784049E+03
       250   8 -4.274703E+04 -6.481648E+03 -2.330412E+03  1.075067E+05  1.184706E+04 -3.235731E+03
       250   9  3.958952E+04  1.284070E+04  1.106179E+04  1.142138E+05  1.035744E+04  1.741536E+03
       250  10  1.003529E+05  2.537186E+04  1.417291E+04  1.139765E+05 -2.957484E-12  9.022757E-11
       250  11  1.824948E+04  6.744378E+03  2.802413E+03  1.072696E+05  6.450620E-11 -7.274005E-11
       250  12 -6.402856E+04 -1.197670E+04 -9.405308E+03  1.137472E+05  2.113739E-11  2.422173E-12
       250  13 -1.222263E+04 -2.504016E+01 -2.422528E+02  1.139805E+05 -2.711346E-11  2.065238E-12
       250  14 -1.224935E+04  1.313539E+02  2.358450E+02  1.073882E+05 -1.474849E-10  2.683121E-11
       250  15 -1.222086E+04  4.320636E+02  8.282045E+02  1.139805E+05 -1.269258E-10 -5.388200E-11
       250  16 -1.247852E+05 -2.542246E+04 -1.465747E+04  1.139845E+05 -4.415100E-12 -6.060129E-11
       250  17 -4.274719E+04 -6.481697E+03 -2.330696E+03  1.075068E+05  1.375600E-10 -3.313065E-11
       250  18  3.958941E+04  1.284067E+04  1.106158E+04  1.142137E+05 -1.049710E-10  7.464240E-11
       250  19  1.003531E+05  2.537200E+04  1.417346E+04  1.139766E+05  1.466628E+04  8.787285E+03
       250  20  1.824968E+04  6.744437E+03  2.802771E+03  1.072696E+05  1.341438E+04  3.238881E+03
       250  21 -6.402840E+04 -1.197666E+04 -9.405024E+03  1.137472E+05  1.216284E+04 -1.738507E+03
       250  22 -1.222261E+04 -2.495715E+01 -2.421069E+02  1.139805E+05  6.637673E+02  8.785667E+03
       250  23 -1.224935E+04  1.313653E+02  2.358658E+02  1.073882E+05  7.833679E+02  3.237309E+03
       250  24 -1.222086E+04  4.320671E+02  8.282117E+02  1.139805E+05  9.031597E+02 -1.740017E+03
       250  25 -1.247849E+05 -2.542233E+04 -1.465699E+04  1.139844E+05 -1.333633E+04  8.784049E+03
       250  26 -4.274703E+04 -6.481648E+03 -2.330412E+03  1.075067E+05 -1.184706E+04  3.235731E+03
       250  27  3.958952E+04  1.284070E+04  1.106179E+04  1.142138E+05 -1.035744E+04 -1.741536E+03
       251   1 -1.150098E+05 -2.369289E+04 -1.727719E+04  1.137170E+05 -1.187152E+04  4.633200E+03
       251   2 -1.963541E+05 -4.235985E+04 -3.375501E+04  1.058492E+05  5.880371E+02  6.292525E+03
       251   3 -2.794385E+05 -6.154149E+04 -5.847404E+04  1.107512E+05  1.304523E+04  2.249022E+03
       251   4 -1.209441E+04  5.895942E+02  1.211589E+03  1.138882E+05 -1.051959E+03  4.634533E+03
       251   5 -1.241476E+04  1.664601E+03  2.403510E+03  1.075034E+05 -2.275912E+03  6.292086E+03
       251   6 -1.210444E+04  4.601446E+03  4.858121E+03  1.138880E+05 -3.500774E+03  2.247655E+03
       251   7  9.083154E+04  2.487155E+04  1.970040E+04  1.140594E+05  9.769341E+03  4.635871E+03
       251   8  1.715570E+05  4.568702E+04  3.856041E+04  1.091581E+05 -5.140692E+03  6.291632E+03
       251   9  2.552959E+05  7.073944E+04  6.818635E+04  1.170262E+05 -2.005386E+04  2.246121E+03
       251  10 -1.150100E+05 -2.369295E+04 -1.727749E+04  1.137170E+05  2.088079E-10  1.343878E-11
       251  11 -1.963541E+05 -4.235989E+04 -3.375508E+04  1.058492E+05 -6.416395E-11 -5.406098E-12
       251  12 -2.794387E+05 -6.154155E+04 -5.847437E+04  1.107512E+05 -1.236307E-10  1.059742E-11
       251  13 -1.209442E+04  5.895709E+02  1.211547E+03  1.138882E+05 -9.524637E-11  4.036341E-11
       251  14 -1.241478E+04  1.664557E+03  2.403425E+03  1.075034E+05 -1.544911E-10  5.288697E-12
       251  15 -1.210445E+04  4.601437E+03  4.858088E+03  1.138880E+05 -3.352848E-11  1.553699E-12
       251  16  9.083143E+04  2.487150E+04  1.970018E+04  1.140593E+05 -1.274533E-10  1.084101E-10
       251  17  1.715570E+05  4.568697E+04  3.856029E+04  1.091581E+05 -2.029635E-10  7.677887E-12
       251  18  2.552955E+05  7.073932E+04  6.818559E+04  1.170262E+05  1.015178E-10  7.912166E-13
       251  19 -1.150098E+05 -2.369289E+04 -1.727719E+04  1.137170E+05  1.187152E+04 -4.633200E+03
       251  20 -1.963541E+05 -4.235985E+04 -3.375501E+04  1.058492E+05 -5.880371E+02 -6.292525E+03
       251  21 -2.794385E+05 -6.154149E+04 -5.847404E+04  1.107512E+05 -1.304523E+04 -2.249022E+03
       251  22 -1.209441E+04  5.895942E+02  1.211589E+03  1.138882E+05  1.051959E+03 -4.634533E+03
       251  23 -1.241476E+04  1.664601E+03  2.403510E+03  1.075034E+05  2.275912E+03 -6.292086E+03
       251  24 -1.210444E+04  4.601446E+03  4.858121E+03  1.138880E+05  3.500774E+03 -2.247655E+03
       251  25  9.083154E+04  2.487155E+04  1.970040E+04  1.140594E+05 -9.769341E+03 -4.635871E+03
       251  26  1.715570E+05  4.568702E+04  3.856041E+04  1.091581E+05  5.140692E+03 -6.291632E+03
       251  27  2.552959E+05  7.073944E+04  6.818635E+04  1.170262E+05  2.005386E+04 -2.246121E+03
       252   1 -1.914650E+05 -7.329267E+05 -1.832540E+05  3.129814E+05 -6.818264E+03 -5.107755E+04
       252   2 -1.297836E+05 -5.035044E+05 -1.051597E+05  2.955117E+05 -1.960262E+04 -1.236484E+04
       252   3 -7.483541E+04 -2.807671E+05 -5.397659E+04  3.130749E+05 -1.616278E+04  2.636017E+04
       252   4 -1.974946E+01  4.099738E+04 -2.828047E+02  3.132353E+05 -6.776069E+03 -8.900345E+02
       252   5  2.652289E+02  4.102601E+04  3.991128E+02  2.957198E+05 -1.959122E+04 -1.074922E+03
       252   6  5.793356E+02  4.107914E+04  1.201465E+03  3.132349E+05 -1.618877E+04 -1.262561E+03
       252   7  1.913839E+05  8.154778E+05  1.826563E+05  3.134894E+05 -6.733872E+03  4.935976E+04
       252   8  1.302964E+05  5.858417E+05  1.059445E+05  2.959280E+05 -1.957982E+04  1.022468E+04
       252   9  7.598896E+04  3.630289E+05  5.637891E+04  3.133950E+05 -1.621477E+04 -2.889917E+04
       252  10 -1.914657E+05 -7.329295E+05 -1.832590E+05  3.129811E+05  1.363147E-10  7.226951E-10
       252  11 -1.297841E+05 -5.035047E+05 -1.051607E+05  2.955115E+05  3.949742E-10 -3.236777E-10
       252  12 -7.483588E+04 -2.807679E+05 -5.397838E+04  3.130752E+05 -3.901776E-10 -1.187520E-09
       252  13 -1.979897E+01  4.099736E+04 -2.828924E+02  3.132353E+05 -3.790272E-10 -6.937617E-12
       252  14  2.648164E+02  4.102590E+04  3.983894E+02  2.957198E+05  1.054093E-09 -4.393448E-10
       252  15  5.790538E+02  4.107907E+04  1.200970E+03  3.132349E+05  8.460183E-11 -8.254258E-11
       252  16  1.913832E+05  8.154752E+05  1.826517E+05  3.134896E+05  2.718472E-10 -5.509550E-10
       252  17  1.302960E+05  5.858415E+05  1.059436E+05  2.959281E+05  4.321482E-10  1.639553E-10
       252  18  7.598846E+04  3.630279E+05  5.637685E+04  3.133947E+05  2.194746E-10  7.897763E-10
       252  19 -1.914650E+05 -7.329267E+05 -1.832540E+05  3.129814E+05  6.818264E+03  5.107755E+04
       252  20 -1.297836E+05 -5.035044E+05 -1.051597E+05  2.955117E+05  1.960262E+04  1.236484E+04
       252  21 -7.483541E+04 -2.807671E+05 -5.397659E+04  3.130749E+05  1.616278E+04 -2.636017E+04
       252  22 -1.974946E+01  4.099738E+04 -2.828047E+02  3.132353E+05  6.776069E+03  8.900345E+02
       252  23  2.652289E+02  4.102601E+04  3.991128E+02  2.957198E+05  1.959122E+04  1.074922E+03
       252  24  5.793356E+02  4.107914E+04  1.201465E+03  3.132349E+05  1.618877E+04  1.262561E+03
       252  25  1.913839E+05  8.154778E+05  1.826563E+05  3.134894E+05  6.733872E+03 -4.935976E+04
       252  26  1.302964E+05  5.858417E+05  1.059445E+05  2.959280E+05  1.957982E+04 -1.022468E+04
       252  27  7.598896E+04  3.630289E+05  5.637891E+04  3.133950E+05  1.621477E+04  2.889917E+04
       253   1 -4.188979E+04 -1.399234E+05 -3.004229E+04  3.133306E+05 -8.628827E+03  2.722726E+04
       253   2  1.149694E+04  8.582917E+04  9.461016E+03  2.962075E+05  3.228105E+03  2.502573E+04
       253   3  6.618102E+04  3.122131E+05  5.070919E+04  3.151700E+05  1.484752E+04  2.282383E+04
       253   4  6.875894E+02  4.119381E+04  1.714071E+03  3.134694E+05 -8.656982E+03 -1.517769E+03
       253   5  1.277271E+03  4.094897E+04  3.246701E+03  2.954257E+05  3.200852E+03 -3.153912E+03
       253   6  3.068229E+03  4.118685E+04  6.130299E+03  3.134675E+05  1.482112E+04 -4.789682E+03
       253   7  4.326363E+04  2.223449E+05  3.347236E+04  3.136083E+05 -8.685144E+03 -3.027093E+04
       253   8 -8.942054E+03 -3.927470E+03 -2.964653E+03  2.946440E+05  3.173667E+03 -3.133160E+04
       253   9 -6.004792E+04 -2.297651E+05 -3.844787E+04  3.117657E+05  1.479487E+04 -3.239155E+04
       253  10 -4.189007E+04 -1.399242E+05 -3.004382E+04  3.133308E+05 -2.679329E-10 -1.641393E-10
       253  11  1.149676E+04  8.582850E+04  9.459820E+03  2.962075E+05 -3.293550E-10  2.745259E-10
       253  12  6.618064E+04  3.122125E+05  5.070779E+04  3.151698E+05  1.742651E-10  5.932503E-10
       253  13  6.875084E+02  4.119378E+04  1.713926E+03  3.134694E+05 -2.312924E-10 -2.522138E-11
       253  14  1.277258E+03  4.094896E+04  3.246663E+03  2.954258E+05 -8.530533E-10 -5.316054E-10
       253  15  3.067987E+03  4.118676E+04  6.129843E+03  3.134676E+05 -5.012557E-10 -6.360388E-11
       253  16  4.326330E+04  2.223439E+05  3.347049E+04  3.136081E+05 -9.503209E-11  3.992201E-10
       253  17 -8.942328E+03 -3.928527E+03 -2.966517E+03  2.946441E+05  7.589050E-11 -3.990988E-10
       253  18 -6.004844E+04 -2.297663E+05 -3.845025E+04  3.117661E+05  1.689886E-11 -1.000386E-09
       253  19 -4.188979E+04 -1.399234E+05 -3.004229E+04  3.133306E+05  8.628827E+03 -2.722726E+04
       253  20  1.149694E+04  8.582917E+04  9.461016E+03  2.962075E+05 -3.228105E+03 -2.502573E+04
       253  21  6.618102E+04  3.122131E+05  5.070919E+04  3.151700E+05 -1.484752E+04 -2.282383E+04
       253  22  6.875894E+02  4.119381E+04  1.714071E+03  3.134694E+05  8.656982E+03  1.517769E+03
       253  23  1.277271E+03  4.094897E+04  3.246701E+03  2.954257E+05 -3.200852E+03  3.153912E+03
       253  24  3.068229E+03  4.118685E+04  6.130299E+03  3.134675E+05 -1.482112E+04  4.789682E+03
       253  25  4.326363E+04  2.223449E+05  3.347236E+04  3.136083E+05  8.685144E+03  3.027093E+04
       253  26 -8.942054E+03 -3.927470E+03 -2.964653E+03  2.946440E+05 -3.173667E+03  3.133160E+04
       253  27 -6.004792E+04 -2.297651E+05 -3.844787E+04  3.117657E+05 -1.479487E+04  3.239155E+04
       254   1  1.000778E+05  4.538806E+05  7.664764E+04  3.145481E+05  2.213576E+04  2.046582E+04
       254   2  1.616966E+05  6.743852E+05  1.361869E+05  3.064105E+05  2.405698E+04 -3.053526E+04
       254   3  2.424523E+05  9.063509E+05  2.336899E+05  3.331545E+05  7.981268E+03 -8.155298E+04
       254   4  4.030836E+03  4.193424E+04  8.247809E+03  3.132002E+05  2.211206E+04 -5.870395E+03
       254   5  1.065604E+04  3.992417E+04  1.526797E+04  2.957509E+05  2.407397E+04 -1.363656E+04
       254   6  2.892997E+04  4.183853E+04  3.024941E+04  3.131824E+05  8.031933E+03 -2.140039E+04
       254   7 -9.202458E+04 -3.698431E+05 -6.015454E+04  3.118530E+05  2.208847E+04 -3.218973E+04
       254   8 -1.404076E+05 -5.941483E+05 -1.056680E+05  2.851023E+05  2.409039E+04  3.245302E+03
       254   9 -1.846422E+05 -8.219782E+05 -1.732287E+05  2.932379E+05  8.078784E+03  3.866904E+04
       254  10  1.000772E+05  4.538801E+05  7.664593E+04  3.145478E+05 -3.304991E-11 -1.330352E-10
       254  11  1.616957E+05  6.743840E+05  1.361841E+05  3.064111E+05  1.862820E-10 -2.343462E-10
       254  12  2.424504E+05  9.063437E+05  2.336773E+05  3.331550E+05  2.164462E-10 -3.300679E-10
       254  13  4.030302E+03  4.193407E+04  8.246825E+03  3.132003E+05  7.036447E-10  3.011177E-11
       254  14  1.065537E+04  3.992381E+04  1.526653E+04  2.957512E+05 -8.567849E-11 -4.007031E-10
       254  15  2.892978E+04  4.183802E+04  3.024842E+04  3.131825E+05  1.714372E-10 -4.748969E-11
       254  16 -9.202539E+04 -3.698444E+05 -6.015740E+04  3.118536E+05  2.415413E-10  3.398643E-10
       254  17 -1.404082E+05 -5.941485E+05 -1.056691E+05  2.851022E+05 -1.853040E-11  1.420035E-10
       254  18 -1.846427E+05 -8.219798E+05 -1.732316E+05  2.932376E+05  1.520568E-10  5.378336E-11
       254  19  1.000778E+05  4.538806E+05  7.664764E+04  3.145481E+05 -2.213576E+04 -2.046582E+04
       254  20  1.616966E+05  6.743852E+05  1.361869E+05  3.064105E+05 -2.405698E+04  3.053526E+04
       254  21  2.424523E+05  9.063509E+05  2.336899E+05  3.331545E+05 -7.981268E+03  8.155298E+04
       254  22  4.030836E+03  4.193424E+04  8.247809E+03  3.132002E+05 -2.211206E+04  5.870395E+03
       254  23  1.065604E+04  3.992417E+04  1.526797E+04  2.957509E+05 -2.407397E+04  1.363656E+04
       254  24  2.892997E+04  4.183853E+04  3.024941E+04  3.131824E+05 -8.031933E+03  2.140039E+04
       254  25 -9.202458E+04 -3.698431E+05 -6.015454E+04  3.118530E+05 -2.208847E+04  3.218973E+04
       254  26 -1.404076E+05 -5.941483E+05 -1.056680E+05  2.851023E+05 -2.409039E+04 -3.245302E+03
       254  27 -1.846422E+05 -8.219782E+05 -1.732287E+05  2.932379E+05 -8.078784E+03 -3.866904E+04
       255   1  4.616045E+05  1.226928E+05  1.149645E+05  7.827278E+04  4.547004E+04 -6.097927E+03
       255   2  4.020460E+05  1.044517E+05  7.851068E+04  7.466629E+04  2.142876E+04 -2.045083E+04
       255   3  3.465156E+05  8.975149E+04  5.858870E+04  7.944786E+04 -2.608109E+03 -2.457038E+04
       255   4 -4.424542E+04 -1.831259E+03 -1.938636E+03  7.950326E+04 -1.279880E+03 -6.099857E+03
       255   5 -4.411748E+04 -6.730552E+02 -1.049141E+03  7.530916E+04 -7.434778E+02 -2.045408E+04
       255   6 -4.422869E+04 -2.381606E+02 -6.887261E+02  7.950311E+04 -2.052822E+02 -2.457152E+04
       255   7 -5.498543E+05 -1.263721E+05 -1.188507E+05  8.073272E+04 -4.799202E+04 -6.101975E+03
       255   8 -4.900857E+05 -1.058085E+05 -8.061465E+04  7.595154E+04 -2.290025E+04 -2.045738E+04
       255   9 -4.348201E+05 -9.023512E+04 -5.996931E+04  7.955830E+04  2.196092E+03 -2.457265E+04
       255  10  4.616023E+05  1.226922E+05  1.149606E+05  7.827300E+04 -3.288750E-10  5.072785E-11
       255  11  4.020454E+05  1.044511E+05  7.850903E+04  7.466664E+04 -1.638734E-10 -2.090504E-11
       255  12  3.465155E+05  8.975084E+04  5.858755E+04  7.944781E+04  1.384121E-10 -2.231545E-10
       255  13 -4.424544E+04 -1.831299E+03 -1.938709E+03  7.950326E+04 -8.984064E-11 -4.594056E-11
       255  14 -4.411759E+04 -6.735046E+02 -1.049929E+03  7.530915E+04 -1.084368E-10  7.000278E-11
       255  15 -4.422885E+04 -2.388089E+02 -6.898608E+02  7.950310E+04  1.006491E-10 -3.747548E-11
       255  16 -5.498567E+05 -1.263728E+05 -1.188551E+05  8.073248E+04 -5.609798E-11 -2.986456E-11
       255  17 -4.900864E+05 -1.058091E+05 -8.061642E+04  7.595116E+04  1.476265E-10  4.353298E-11
       255  18 -4.348202E+05 -9.023577E+04 -5.997046E+04  7.955835E+04 -1.495235E-10  2.435224E-12
       255  19  4.616045E+05  1.226928E+05  1.149645E+05  7.827278E+04 -4.547004E+04  6.097927E+03
       255  20  4.020460E+05  1.044517E+05  7.851068E+04  7.466629E+04 -2.142876E+04  2.045083E+04
       255  21  3.465156E+05  8.975149E+04  5.858870E+04  7.944786E+04  2.608109E+03  2.457038E+04
       255  22 -4.424542E+04 -1.831259E+03 -1.938636E+03  7.950326E+04  1.279880E+03  6.099857E+03
       255  23 -4.411748E+04 -6.730552E+02 -1.049141E+03  7.530916E+04  7.434778E+02  2.045408E+04
       255  24 -4.422869E+04 -2.381606E+02 -6.887261E+02  7.950311E+04  2.052822E+02  2.457152E+04
       255  25 -5.498543E+05 -1.263721E+05 -1.188507E+05  8.073272E+04  4.799202E+04  6.101975E+03
       255  26 -4.900857E+05 -1.058085E+05 -8.061465E+04  7.595154E+04  2.290025E+04  2.045738E+04
       255  27 -4.348201E+05 -9.023512E+04 -5.996931E+04  7.955830E+04 -2.196092E+03  2.457265E+04
       256   1  3.103711E+05  8.110713E+04  5.126875E+04  7.958702E+04 -3.318252E+03 -2.351377E+04
       256   2  2.526396E+05  6.740171E+04  3.997888E+04  7.508258E+04 -6.263547E+03 -2.149751E+04
       256   3  1.954081E+05  5.413224E+04  3.071602E+04  7.973227E+04 -9.209098E+03 -1.812556E+04
       256   4 -4.418605E+04 -1.695917E+02 -6.167710E+02  7.967340E+04 -1.031996E+02 -2.351452E+04
       256   5 -4.414574E+04 -6.739562E+01 -6.202730E+02  7.509617E+04  2.062260E+02 -2.149718E+04
       256   6 -4.417447E+04 -9.420860E+01 -8.566763E+02  7.967338E+04  5.150893E+02 -1.812380E+04
       256   7 -3.986166E+05 -8.145214E+04 -5.250441E+04  7.975971E+04  3.110093E+03 -2.351527E+04
       256   8 -3.408415E+05 -6.754032E+04 -4.122020E+04  7.510975E+04  6.673047E+03 -2.149684E+04
       256   9 -2.836982E+05 -5.432304E+04 -3.242942E+04  7.961450E+04  1.023570E+04 -1.812205E+04
       256  10  3.103709E+05  8.110654E+04  5.126769E+04  7.958695E+04 -9.913392E-11 -6.572952E-11
       256  11  2.526395E+05  6.740120E+04  3.997793E+04  7.508247E+04 -2.793366E-10 -3.680129E-10
       256  12  1.954080E+05  5.413187E+04  3.071525E+04  7.973214E+04  2.901577E-10 -9.452531E-11
       256  13 -4.418619E+04 -1.701854E+02 -6.178101E+02  7.967339E+04  2.282217E-10 -7.546305E-11
       256  14 -4.414586E+04 -6.789187E+01 -6.211415E+02  7.509618E+04  5.103108E-10 -1.600539E-10
       256  15 -4.417456E+04 -9.456139E+01 -8.572941E+02  7.967339E+04  1.477871E-10 -1.507699E-10
       256  16 -3.986167E+05 -8.145273E+04 -5.250547E+04  7.975977E+04  4.209504E-10 -1.394912E-10
       256  17 -3.408417E+05 -6.754083E+04 -4.122115E+04  7.510987E+04  2.796208E-10 -1.198472E-10
       256  18 -2.836984E+05 -5.432342E+04 -3.243024E+04  7.961465E+04 -2.131258E-10  9.193224E-11
       256  19  3.103711E+05  8.110713E+04  5.126875E+04  7.958702E+04  3.318252E+03  2.351377E+04
       256  20  2.526396E+05  6.740171E+04  3.997888E+04  7.508258E+04  6.263547E+03  2.149751E+04
       256  21  1.954081E+05  5.413224E+04  3.071602E+04  7.973227E+04  9.209098E+03  1.812556E+04
       256  22 -4.418605E+04 -1.695917E+02 -6.167710E+02  7.967340E+04  1.031996E+02  2.351452E+04
       256  23 -4.414574E+04 -6.739562E+01 -6.202730E+02  7.509617E+04 -2.062260E+02  2.149718E+04
       256  24 -4.417447E+04 -9.420860E+01 -8.566763E+02  7.967338E+04 -5.150893E+02  1.812380E+04
       256  25 -3.986166E+05 -8.145214E+04 -5.250441E+04  7.975971E+04 -3.110093E+03  2.351527E+04
       256  26 -3.408415E+05 -6.754032E+04 -4.122020E+04  7.510975E+04 -6.673047E+03  2.149684E+04
       256  27 -2.836982E+05 -5.432304E+04 -3.242942E+04  7.961450E+04 -1.023570E+04  1.812205E+04
       257   1  1.598033E+05  4.597034E+04  2.540464E+04  7.970439E+04 -9.141168E+03 -1.569838E+04
       257   2  1.024735E+05  3.257625E+04  1.667467E+04  7.549659E+04 -8.180385E+03 -1.161957E+04
       257   3  4.486116E+04  1.854932E+04  7.160296E+03  8.053327E+04 -7.219994E+03 -7.563366E+03
       257   4 -4.421743E+04 -1.261235E+02 -1.072221E+03  7.969341E+04  6.762698E+02 -1.569624E+04
       257   5 -4.407678E+04 -4.298034E+02 -1.809813E+03  7.507122E+04  1.582247E+03 -1.161705E+04
       257   6 -4.421168E+04 -1.356566E+03 -3.293809E+03  7.969367E+04  2.487911E+03 -7.560460E+03
       257   7 -2.481954E+05 -4.622427E+04 -2.754895E+04  7.968242E+04  1.049064E+04 -1.569411E+04
       257   8 -1.906048E+05 -3.343667E+04 -2.029401E+04  7.464595E+04  1.134269E+04 -1.161454E+04
       257   9 -1.332761E+05 -2.126270E+04 -1.374753E+04  7.885420E+04  1.219450E+04 -7.557580E+03
       257  10  1.598032E+05  4.597005E+04  2.540402E+04  7.970428E+04  3.507020E-11 -4.169977E-11
       257  11  1.024734E+05  3.257608E+04  1.667430E+04  7.549651E+04  2.271661E-10 -3.961316E-11
       257  12  4.486109E+04  1.854924E+04  7.160091E+03  8.053323E+04  5.102347E-10 -4.514204E-10
       257  13 -4.421750E+04 -1.263882E+02 -1.072685E+03  7.969342E+04  2.791969E-10 -6.789615E-11
       257  14 -4.407682E+04 -4.299489E+02 -1.810072E+03  7.507123E+04  2.462225E-10 -1.212109E-10
       257  15 -4.421171E+04 -1.356629E+03 -3.293928E+03  7.969369E+04  2.105049E-11 -2.221918E-10
       257  16 -2.481956E+05 -4.622456E+04 -2.754962E+04  7.968255E+04  2.135642E-10  2.759377E-12
       257  17 -1.906050E+05 -3.343685E+04 -2.029450E+04  7.464606E+04 -1.655486E-10  4.049091E-10
       257  18 -1.332763E+05 -2.126280E+04 -1.374792E+04  7.885427E+04 -5.868971E-10  1.232262E-10
       257  19  1.598033E+05  4.597034E+04  2.540464E+04  7.970439E+04  9.141168E+03  1.569838E+04
       257  20  1.024735E+05  3.257625E+04  1.667467E+04  7.549659E+04  8.180385E+03  1.161957E+04
       257  21  4.486116E+04  1.854932E+04  7.160296E+03  8.053327E+04  7.219994E+03  7.563366E+03
       257  22 -4.421743E+04 -1.261235E+02 -1.072221E+03  7.969341E+04 -6.762698E+02  1.569624E+04
       257  23 -4.407678E+04 -4.298034E+02 -1.809813E+03  7.507122E+04 -1.582247E+03  1.161705E+04
       257  24 -4.421168E+04 -1.356566E+03 -3.293809E+03  7.969367E+04 -2.487911E+03  7.560460E+03
       257  25 -2.481954E+05 -4.622427E+04 -2.754895E+04  7.968242E+04 -1.049064E+04  1.569411E+04
       257  26 -1.906048E+05 -3.343667E+04 -2.029401E+04  7.464595E+04 -1.134269E+04  1.161454E+04
       257  27 -1.332761E+05 -2.126270E+04 -1.374753E+04  7.885420E+04 -1.219450E+04  7.557580E+03
       258   1  8.895873E+03  9.887692E+03  9.183645E+02  8.026942E+04 -6.538107E+03 -5.158598E+03
       258   2 -4.722787E+04 -6.949481E+03 -1.202369E+04  8.056263E+04  1.257257E+03 -1.919796E+03
       258   3 -1.060588E+05 -3.055254E+04 -3.173385E+04  8.999788E+04  9.052095E+03 -2.076672E+02
       258   4 -4.461034E+04 -1.878134E+03 -4.401522E+03  7.967081E+04  3.061108E+03 -5.155611E+03
       258   5 -4.357364E+04 -5.439792E+03 -8.110219E+03  7.510123E+04  7.192036E+03 -1.917959E+03
       258   6 -4.461075E+04 -1.513092E+04 -1.604213E+04  7.967412E+04  1.132312E+04 -2.071009E+02
       258   7 -9.811333E+04 -1.364400E+04 -9.721013E+03  7.907225E+04  1.265955E+04 -5.152642E+03
       258   8 -3.991926E+04 -3.929976E+03 -4.196600E+03  6.963981E+04  1.312686E+04 -1.916227E+03
       258   9  1.684093E+04  2.908074E+02 -3.506306E+02  6.934934E+04  1.359437E+04 -2.066103E+02
       258  10  8.895820E+03  9.887652E+03  9.182341E+02  8.026940E+04 -7.143778E-11 -6.815998E-10
       258  11 -4.722788E+04 -6.949485E+03 -1.202370E+04  8.056263E+04 -3.158799E-10 -8.028710E-10
       258  12 -1.060589E+05 -3.055256E+04 -3.173401E+04  8.999788E+04 -4.381947E-10 -1.847733E-10
       258  13 -4.461035E+04 -1.878165E+03 -4.401590E+03  7.967082E+04  1.437400E-10 -1.259561E-09
       258  14 -4.357369E+04 -5.439810E+03 -8.110323E+03  7.510124E+04 -2.630095E-10  5.173052E-10
       258  15 -4.461088E+04 -1.513096E+04 -1.604237E+04  7.967412E+04  1.734084E-10 -1.997794E-11
       258  16 -9.811351E+04 -1.364408E+04 -9.721364E+03  7.907231E+04  8.152349E-11 -6.893767E-11
       258  17 -3.991944E+04 -3.930026E+03 -4.196930E+03  6.963983E+04  1.903859E-10  4.135478E-10
       258  18  1.684073E+04  2.907577E+02 -3.509780E+02  6.934935E+04  4.786013E-10 -2.367959E-10
       258  19  8.895873E+03  9.887692E+03  9.183645E+02  8.026942E+04  6.538107E+03  5.158598E+03
       258  20 -4.722787E+04 -6.949481E+03 -1.202369E+04  8.056263E+04 -1.257257E+03  1.919796E+03
       258  21 -1.060588E+05 -3.055254E+04 -3.173385E+04  8.999788E+04 -9.052095E+03  2.076672E+02
       258  22 -4.461034E+04 -1.878134E+03 -4.401522E+03  7.967081E+04 -3.061108E+03  5.155611E+03
       258  23 -4.357364E+04 -5.439792E+03 -8.110219E+03  7.510123E+04 -7.192036E+03  1.917959E+03
       258  24 -4.461075E+04 -1.513092E+04 -1.604213E+04  7.967412E+04 -1.132312E+04  2.071009E+02
       258  25 -9.811333E+04 -1.364400E+04 -9.721013E+03  7.907225E+04 -1.265955E+04  5.152642E+03
       258  26 -3.991926E+04 -3.929976E+03 -4.196600E+03  6.963981E+04 -1.312686E+04  1.916227E+03
       258  27  1.684093E+04  2.908074E+02 -3.506306E+02  6.934934E+04 -1.359437E+04  2.066103E+02
       259   1 -8.599307E+04 -3.806940E+05 -8.192234E+04  1.593381E+05 -2.910166E+03 -2.184623E+04
       259   2 -5.620667E+04 -2.630068E+05 -4.387362E+04  1.512229E+05 -8.017750E+03 -5.487601E+03
       259   3 -2.823552E+04 -1.478911E+05 -1.693482E+04  1.612119E+05 -5.597851E+03  1.087407E+04
       259   4  2.387837E+03 -2.363539E+04  2.829068E+03  1.612533E+05 -2.901928E+03 -5.492561E+02
       259   5  1.075900E+03 -2.390147E+04  3.388641E+03  1.522017E+05 -8.016187E+03 -2.247678E+03
       259   6  1.085376E+03 -2.361687E+04  5.382424E+03  1.612536E+05 -5.604357E+03 -3.946471E+03
       259   7  9.075983E+04  3.335414E+05  8.757330E+04  1.631695E+05 -2.893562E+03  2.075991E+04
       259   8  5.835500E+04  2.152586E+05  5.064813E+04  1.531809E+05 -8.014614E+03  9.934673E+02
       259   9  3.040553E+04  1.006729E+05  2.769990E+04  1.612954E+05 -5.610864E+03 -1.876990E+04
       259  10 -8.599321E+04 -3.806945E+05 -8.192325E+04  1.593381E+05 -3.581000E-11 -2.291680E-10
       259  11 -5.620675E+04 -2.630068E+05 -4.387380E+04  1.512229E+05 -9.832560E-11  3.074663E-11
       259  12 -2.823559E+04 -1.478912E+05 -1.693510E+04  1.612119E+05 -1.760309E-11  1.379591E-10
       259  13  2.387828E+03 -2.363539E+04  2.829052E+03  1.612533E+05 -5.872884E-11  1.436380E-10
       259  14  1.075830E+03 -2.390150E+04  3.388510E+03  1.522017E+05  2.828588E-10  1.404694E-10
       259  15  1.085338E+03 -2.361690E+04  5.382336E+03  1.612536E+05 -1.076896E-10  2.848187E-10
       259  16  9.075971E+04  3.335409E+05  8.757247E+04  1.631696E+05 -1.685120E-10  3.959218E-11
       259  17  5.835494E+04  2.152586E+05  5.064801E+04  1.531809E+05  1.495405E-11 -2.344337E-10
       259  18  3.040540E+04  1.006725E+05  2.769918E+04  1.612953E+05  1.318045E-10 -2.155660E-10
       259  19 -8.599307E+04 -3.806940E+05 -8.192234E+04  1.593381E+05  2.910166E+03  2.184623E+04
       259  20 -5.620667E+04 -2.630068E+05 -4.387362E+04  1.512229E+05  8.017750E+03  5.487601E+03
       259  21 -2.823552E+04 -1.478911E+05 -1.693482E+04  1.612119E+05  5.597851E+03 -1.087407E+04
       259  22  2.387837E+03 -2.363539E+04  2.829068E+03  1.612533E+05  2.901928E+03  5.492561E+02
       259  23  1.075900E+03 -2.390147E+04  3.388641E+03  1.522017E+05  8.016187E+03  2.247678E+03
       259  24  1.085376E+03 -2.361687E+04  5.382424E+03  1.612536E+05  5.604357E+03  3.946471E+03
       259  25  9.075983E+04  3.335414E+05  8.757330E+04  1.631695E+05  2.893562E+03 -2.075991E+04
       259  26  5.835500E+04  2.152586E+05  5.064813E+04  1.531809E+05  8.014614E+03 -9.934673E+02
       259  27  3.040553E+04  1.006729E+05  2.769990E+04  1.612954E+05  5.610864E+03  1.876990E+04
       260   1 -1.117075E+04 -7.518113E+04 -3.456076E+03  1.610417E+05 -1.609559E+03  1.035354E+04
       260   2  1.799571E+04  4.018154E+04  2.115095E+04  1.547467E+05  4.602172E+03  3.404440E+03
       260   3  5.167205E+04  1.575841E+05  5.140647E+04  1.670299E+05  1.047270E+04 -3.545652E+03
       260   4  1.291656E+03 -2.331792E+04  6.988076E+03  1.613591E+05 -1.616475E+03 -4.970796E+03
       260   5  3.319850E+03 -2.426313E+04  1.222856E+04  1.520687E+05  4.595874E+03 -1.110166E+04
       260   6  9.716940E+03 -2.332276E+04  2.255002E+04  1.613561E+05  1.046706E+04 -1.723230E+04
       260   7  1.375402E+04  2.854835E+04  1.743297E+04  1.616767E+05 -1.623406E+03 -2.029639E+04
       260   8 -1.135606E+04 -8.870312E+04  3.306905E+03  1.493911E+05  4.589701E+03 -2.560631E+04
       260   9 -3.223959E+04 -2.041966E+05 -6.306558E+03  1.556841E+05  1.046166E+04 -3.091510E+04
       260  10 -1.117078E+04 -7.518124E+04 -3.456282E+03  1.610417E+05 -3.560220E-11 -6.006715E-10
       260  11  1.799569E+04  4.018152E+04  2.115089E+04  1.547466E+05 -1.383160E-10 -7.730121E-12
       260  12  5.167193E+04  1.575841E+05  5.140624E+04  1.670299E+05  8.313258E-11  4.301610E-10
       260  13  1.291647E+03 -2.331795E+04  6.988024E+03  1.613591E+05  1.908007E-11  2.244526E-10
       260  14  3.319794E+03 -2.426327E+04  1.222828E+04  1.520688E+05  1.952890E-10  2.330729E-10
       260  15  9.716742E+03 -2.332310E+04  2.254926E+04  1.613563E+05 -2.730401E-10  2.950844E-10
       260  16  1.375391E+04  2.854791E+04  1.743219E+04  1.616766E+05 -4.419742E-11  3.007439E-10
       260  17 -1.135626E+04 -8.870383E+04  3.305633E+03  1.493912E+05 -1.061664E-10 -1.769310E-10
       260  18 -3.223996E+04 -2.041977E+05 -6.308560E+03  1.556843E+05 -7.381900E-11 -4.420259E-10
       260  19 -1.117075E+04 -7.518113E+04 -3.456076E+03  1.610417E+05  1.609559E+03 -1.035354E+04
       260  20  1.799571E+04  4.018154E+04  2.115095E+04  1.547467E+05 -4.602172E+03 -3.404440E+03
       260  21  5.167205E+04  1.575841E+05  5.140647E+04  1.670299E+05 -1.047270E+04  3.545652E+03
       260  22  1.291656E+03 -2.331792E+04  6.988076E+03  1.613591E+05  1.616475E+03  4.970796E+03
       260  23  3.319850E+03 -2.426313E+04  1.222856E+04  1.520687E+05 -4.595874E+03  1.110166E+04
       260  24  9.716940E+03 -2.332276E+04  2.255002E+04  1.613561E+05 -1.046706E+04  1.723230E+04
       260  25  1.375402E+04  2.854835E+04  1.743297E+04  1.616767E+05  1.623406E+03  2.029639E+04
       260  26 -1.135606E+04 -8.870312E+04  3.306905E+03  1.493911E+05 -4.589701E+03  2.560631E+04
       260  27 -3.223959E+04 -2.041966E+05 -6.306558E+03  1.556841E+05 -1.046166E+04  3.091510E+04
       261   1  7.226024E+04  2.329182E+05  7.151682E+04  1.652903E+05  1.411375E+04 -8.212741E+03
       261   2  1.252234E+05  3.401225E+05  1.251251E+05  1.899239E+05  1.444355E+04 -6.086049E+04
       261   3  2.246271E+05  4.658011E+05  2.246128E+05  2.324533E+05  4.680200E+03 -1.135190E+05
       261   4  1.330292E+04 -2.057652E+04  3.021078E+04  1.612035E+05  1.410891E+04 -2.116543E+04
       261   5  3.777005E+04 -2.772452E+04  5.578717E+04  1.522449E+05  1.445207E+04 -4.957832E+04
       261   6  1.044849E+05 -2.060427E+04  1.104270E+05  1.611763E+05  4.704994E+03 -7.799117E+04
       261   7 -4.565753E+04 -2.740072E+05 -1.109644E+04  1.571185E+05  1.410424E+04 -3.411302E+04
       261   8 -4.968584E+04 -3.954376E+05 -1.355545E+04  1.145888E+05  1.445922E+04 -3.830266E+04
       261   9 -1.565444E+04 -5.067783E+05 -3.767541E+03  8.995544E+04  4.721649E+03 -4.249098E+04
       261  10  7.226001E+04  2.329181E+05  7.151632E+04  1.652903E+05 -3.425754E-11 -4.614287E-10
       261  11  1.252222E+05  3.401185E+05  1.251177E+05  1.899246E+05 -6.962311E-11 -1.979253E-10
       261  12  2.246236E+05  4.657872E+05  2.245886E+05  2.324537E+05  1.031408E-10  1.361089E-10
       261  13  1.330259E+04 -2.057706E+04  3.020956E+04  1.612037E+05  8.485809E-11  1.644037E-10
       261  14  3.776916E+04 -2.772722E+04  5.578216E+04  1.522455E+05  2.741292E-10  1.242917E-10
       261  15  1.044832E+05 -2.061081E+04  1.104155E+05  1.611766E+05 -2.919699E-11  7.172251E-11
       261  16 -4.565805E+04 -2.740085E+05 -1.109900E+04  1.571188E+05  1.577696E-11  1.642327E-10
       261  17 -4.968645E+04 -3.954392E+05 -1.355860E+04  1.145892E+05 -1.514004E-10  9.242036E-11
       261  18 -1.565495E+04 -5.067802E+05 -3.770978E+03  8.995561E+04  1.667002E-11 -1.755243E-10
       261  19  7.226024E+04  2.329182E+05  7.151682E+04  1.652903E+05 -1.411375E+04  8.212741E+03
       261  20  1.252234E+05  3.401225E+05  1.251251E+05  1.899239E+05 -1.444355E+04  6.086049E+04
       261  21  2.246271E+05  4.658011E+05  2.246128E+05  2.324533E+05 -4.680200E+03  1.135190E+05
       261  22  1.330292E+04 -2.057652E+04  3.021078E+04  1.612035E+05 -1.410891E+04  2.116543E+04
       261  23  3.777005E+04 -2.772452E+04  5.578717E+04  1.522449E+05 -1.445207E+04  4.957832E+04
       261  24  1.044849E+05 -2.060427E+04  1.104270E+05  1.611763E+05 -4.704994E+03  7.799117E+04
       261  25 -4.565753E+04 -2.740072E+05 -1.109644E+04  1.571185E+05 -1.410424E+04  3.411302E+04
       261  26 -4.968584E+04 -3.954376E+05 -1.355545E+04  1.145888E+05 -1.445922E+04  3.830266E+04
       261  27 -1.565444E+04 -5.067783E+05 -3.767541E+03  8.995544E+04 -4.721649E+03  4.249098E+04
       262   1  8.003120E+05  1.937434E+05  1.804056E+05  1.670597E+05  6.097161E+04 -9.733496E+03
       262   2  6.683450E+05  1.650643E+05  1.218475E+05  1.631577E+05  2.373241E+04 -3.196124E+04
       262   3  5.412755E+05  1.364626E+05  8.753895E+04  1.786058E+05 -1.349923E+04 -3.663029E+04
       262   4 -5.915053E+04 -1.796203E+04 -1.911383E+04  1.790492E+05 -1.346208E+04 -9.770797E+03
       262   5 -5.789987E+04 -6.428604E+03 -9.685551E+03  1.693688E+05 -8.511341E+03 -3.198326E+04
       262   6 -5.908831E+04 -2.138750E+03 -5.288031E+03  1.790403E+05 -3.562073E+03 -3.662684E+04
       262   7 -9.179194E+05 -2.297160E+05 -2.186621E+05  1.910219E+05 -8.779355E+04 -9.811009E+03
       262   8 -7.836295E+05 -1.779504E+05 -1.412356E+05  1.755723E+05 -4.071844E+04 -3.200594E+04
       262   9 -6.590919E+05 -1.407576E+05 -9.812284E+04  1.794742E+05  6.365853E+03 -3.662336E+04
       262  10  8.003080E+05  1.937423E+05  1.803985E+05  1.670602E+05  1.428078E-09 -2.773808E-10
       262  11  6.683441E+05  1.650630E+05  1.218446E+05  1.631583E+05 -4.448938E-11 -1.454647E-09
       262  12  5.412749E+05  1.364611E+05  8.753608E+04  1.786055E+05 -4.094485E-10 -1.282011E-09
       262  13 -5.915075E+04 -1.796218E+04 -1.911435E+04  1.790491E+05  1.686979E-10  7.726821E-11
       262  14 -5.790023E+04 -6.429722E+03 -9.687610E+03  1.693686E+05  8.256550E-11 -1.020350E-09
       262  15 -5.908868E+04 -2.140194E+03 -5.290576E+03  1.790402E+05  1.576506E-11 -3.634769E-10
       262  16 -9.179277E+05 -2.297182E+05 -2.186768E+05  1.910212E+05 -1.559590E-09 -8.014429E-11
       262  17 -7.836316E+05 -1.779519E+05 -1.412406E+05  1.755713E+05  1.769411E-10 -1.794419E-09
       262  18 -6.590923E+05 -1.407590E+05 -9.812544E+04  1.794744E+05  4.165335E-10 -1.910443E-09
       262  19  8.003120E+05  1.937434E+05  1.804056E+05  1.670597E+05 -6.097161E+04  9.733496E+03
       262  20  6.683450E+05  1.650643E+05  1.218475E+05  1.631577E+05 -2.373241E+04  3.196124E+04
       262  21  5.412755E+05  1.364626E+05  8.753895E+04  1.786058E+05  1.349923E+04  3.663029E+04
       262  22 -5.915053E+04 -1.796203E+04 -1.911383E+04  1.790492E+05  1.346208E+04  9.770797E+03
       262  23 -5.789987E+04 -6.428604E+03 -9.685551E+03  1.693688E+05  8.511341E+03  3.198326E+04
       262  24 -5.908831E+04 -2.138750E+03 -5.288031E+03  1.790403E+05  3.562073E+03  3.662684E+04
       262  25 -9.179194E+05 -2.297160E+05 -2.186621E+05  1.910219E+05  8.779355E+04  9.811009E+03
       262  26 -7.836295E+05 -1.779504E+05 -1.412356E+05  1.755723E+05  4.071844E+04  3.200594E+04
       262  27 -6.590919E+05 -1.407576E+05 -9.812284E+04  1.794742E+05 -6.365853E+03  3.662336E+04
       263   1  4.606688E+05  1.178565E+05  7.361754E+04  1.785960E+05 -1.419452E+04 -3.340559E+04
       263   2  3.309827E+05  8.834946E+04  5.196989E+04  1.687204E+05 -1.836826E+04 -2.758784E+04
       263   3  2.018878E+05  5.902717E+04  3.308011E+04  1.795092E+05 -2.254365E+04 -1.955663E+04
       263   4 -5.860680E+04 -1.492572E+03 -3.989758E+03  1.793323E+05 -2.872317E+03 -3.340004E+04
       263   5 -5.841663E+04 -3.663284E+02 -2.280429E+03  1.689990E+05 -1.732711E+03 -2.757670E+04
       263   6 -5.857251E+04  2.344053E+01 -1.502210E+03  1.793312E+05 -5.954812E+02 -1.953916E+04
       263   7 -5.776114E+05 -1.208543E+05 -8.160178E+04  1.800678E+05  8.440801E+03 -3.339445E+04
       263   8 -4.476616E+05 -8.908870E+04 -5.653158E+04  1.692774E+05  1.489287E+04 -2.756555E+04
       263   9 -3.189626E+05 -5.898292E+04 -3.608324E+04  1.791532E+05  2.134391E+04 -1.952170E+04
       263  10  4.606682E+05  1.178553E+05  7.361507E+04  1.785956E+05 -2.506497E-09 -1.416764E-09
       263  11  3.309822E+05  8.834855E+04  5.196782E+04  1.687199E+05 -7.427851E-10  2.438403E-10
       263  12  2.018872E+05  5.902662E+04  3.307844E+04  1.795088E+05  3.671078E-10  6.029692E-10
       263  13 -5.860711E+04 -1.493772E+03 -3.991870E+03  1.793322E+05  2.629504E-11 -9.404078E-10
       263  14 -5.841683E+04 -3.671458E+02 -2.281864E+03  1.689989E+05  1.991339E-10 -2.026874E-11
       263  15 -5.857261E+04  2.303048E+01 -1.502928E+03  1.793312E+05  1.756895E-10 -8.993475E-10
       263  16 -5.776118E+05 -1.208556E+05 -8.160401E+04  1.800680E+05  2.035618E-09 -1.095382E-10
       263  17 -4.476621E+05 -8.908957E+04 -5.653342E+04  1.692777E+05  9.821126E-10  4.676189E-10
       263  18 -3.189632E+05 -5.898345E+04 -3.608482E+04  1.791535E+05 -5.213895E-10 -1.954090E-10
       263  19  4.606688E+05  1.178565E+05  7.361754E+04  1.785960E+05  1.419452E+04  3.340559E+04
       263  20  3.309827E+05  8.834946E+04  5.196989E+04  1.687204E+05  1.836826E+04  2.758784E+04
       263  21  2.018878E+05  5.902717E+04  3.308011E+04  1.795092E+05  2.254365E+04  1.955663E+04
       263  22 -5.860680E+04 -1.492572E+03 -3.989758E+03  1.793323E+05  2.872317E+03  3.340004E+04
       263  23 -5.841663E+04 -3.663284E+02 -2.280429E+03  1.689990E+05  1.732711E+03  2.757670E+04
       263  24 -5.857251E+04  2.344053E+01 -1.502210E+03  1.793312E+05  5.954812E+02  1.953916E+04
       263  25 -5.776114E+05 -1.208543E+05 -8.160178E+04  1.800678E+05 -8.440801E+03  3.339445E+04
       263  26 -4.476616E+05 -8.908870E+04 -5.653158E+04  1.692774E+05 -1.489287E+04  2.756555E+04
       263  27 -3.189626E+05 -5.898292E+04 -3.608324E+04  1.791532E+05 -2.134391E+04  1.952170E+04
       264   1  1.218851E+05  4.076886E+04  2.179007E+04  1.794188E+05 -2.240283E+04 -1.409307E+04
       264   2 -7.201349E+03  1.114836E+04  3.188992E+03  1.691864E+05 -1.963243E+04 -5.353028E+03
       264   3 -1.368311E+05 -1.916858E+04 -1.739797E+04  1.797063E+05 -1.686248E+04  2.498023E+03
       264   4 -5.853118E+04  6.482474E+01 -1.322369E+03  1.793505E+05 -3.632261E+02 -1.407474E+04
       264   5 -5.843407E+04  6.923992E+00 -1.282326E+03  1.689745E+05  2.712787E+02 -5.336165E+03
       264   6 -5.852658E+04 -3.761982E+02 -1.746139E+03  1.793508E+05  9.058710E+02  2.513373E+03
       264   7 -2.389131E+05 -4.064029E+04 -2.443313E+04  1.792822E+05  2.167029E+04 -1.405641E+04
       264   8 -1.096631E+05 -1.113437E+04 -5.752084E+03  1.687626E+05  2.017345E+04 -5.319315E+03
       264   9  1.978443E+04  1.841598E+04  1.390657E+04  1.789953E+05  1.867642E+04  2.528701E+03
       264  10  1.218845E+05  4.076851E+04  2.178876E+04  1.794185E+05 -1.142694E-09  1.027659E-09
       264  11 -7.201771E+03  1.114822E+04  3.188214E+03  1.691863E+05  4.123697E-11  1.040139E-09
       264  12 -1.368314E+05 -1.916866E+04 -1.739851E+04  1.797063E+05  1.507093E-09 -2.324277E-10
       264  13 -5.853123E+04  6.461199E+01 -1.322742E+03  1.793505E+05  6.142722E-10 -1.264731E-09
       264  14 -5.843408E+04  6.893395E+00 -1.282380E+03  1.689745E+05  1.504729E-10  6.784380E-10
       264  15 -5.852659E+04 -3.762052E+02 -1.746152E+03  1.793508E+05  6.084582E-11  1.127629E-09
       264  16 -2.389136E+05 -4.064063E+04 -2.443438E+04  1.792825E+05  1.130369E-09 -5.929936E-11
       264  17 -1.096636E+05 -1.113451E+04 -5.752902E+03  1.687626E+05  1.554422E-10  7.616060E-10
       264  18  1.978406E+04  1.841588E+04  1.390590E+04  1.789952E+05 -1.725839E-09 -1.189576E-10
       264  19  1.218851E+05  4.076886E+04  2.179007E+04  1.794188E+05  2.240283E+04  1.409307E+04
       264  20 -7.201349E+03  1.114836E+04  3.188992E+03  1.691864E+05  1.963243E+04  5.353028E+03
       264  21 -1.368311E+05 -1.916858E+04 -1.739797E+04  1.797063E+05  1.686248E+04 -2.498023E+03
       264  22 -5.853118E+04  6.482474E+01 -1.322369E+03  1.793505E+05  3.632261E+02  1.407474E+04
       264  23 -5.843407E+04  6.923992E+00 -1.282326E+03  1.689745E+05 -2.712787E+02  5.336165E+03
       264  24 -5.852658E+04 -3.761982E+02 -1.746139E+03  1.793508E+05 -9.058710E+02 -2.513373E+03
       264  25 -2.389131E+05 -4.064029E+04 -2.443313E+04  1.792822E+05 -2.167029E+04  1.405641E+04
       264  26 -1.096631E+05 -1.113437E+04 -5.752084E+03  1.687626E+05 -2.017345E+04  5.319315E+03
       264  27  1.978443E+04  1.841598E+04  1.390657E+04  1.789953E+05 -1.867642E+04 -2.528701E+03
       265   1 -2.174309E+05 -3.809397E+04 -3.080742E+04  1.794002E+05 -1.588131E+04  7.064885E+03
       265   2 -3.444907E+05 -7.079334E+04 -6.012437E+04  1.714895E+05  7.419233E+03  9.747401E+03
       265   3 -4.762040E+05 -1.099604E+05 -1.062380E+05  1.836844E+05  3.071808E+04  3.516653E+03
       265   4 -5.870046E+04 -6.173982E+02 -2.178907E+03  1.792069E+05  1.199865E+03  7.079350E+03
       265   5 -5.823459E+04 -2.260928E+03 -3.764752E+03  1.691564E+05  3.117893E+03  9.743519E+03
       265   6 -5.872525E+04 -6.656978E+03 -7.294284E+03  1.792112E+05  5.039515E+03  3.496167E+03
       265   7  1.000552E+05  3.685792E+04  2.644972E+04  1.790135E+05  1.828528E+04  7.093801E+03
       265   8  2.281000E+05  6.626656E+04  5.259095E+04  1.668221E+05 -1.185390E+03  9.739669E+03
       265   9  3.589152E+05  9.663431E+04  9.163976E+04  1.747349E+05 -2.065624E+04  3.476060E+03
       265  10 -2.174312E+05 -3.809409E+04 -3.080799E+04  1.794003E+05 -5.383347E-12 -4.299567E-11
       265  11 -3.444907E+05 -7.079346E+04 -6.012465E+04  1.714895E+05 -4.653953E-11  1.308212E-09
       265  12 -4.762050E+05 -1.099606E+05 -1.062398E+05  1.836843E+05  3.372405E-10  6.386964E-10
       265  13 -5.870047E+04 -6.174524E+02 -2.179004E+03  1.792069E+05  1.682321E-10  1.852091E-10
       265  14 -5.823463E+04 -2.261033E+03 -3.764949E+03  1.691563E+05  2.350973E-10  1.781467E-09
       265  15 -5.872528E+04 -6.656998E+03 -7.294355E+03  1.792112E+05  1.037528E-10 -2.153364E-10
       265  16  1.000548E+05  3.685778E+04  2.644899E+04  1.790134E+05 -6.033353E-11 -1.483031E-11
       265  17  2.281000E+05  6.626645E+04  5.259077E+04  1.668221E+05  9.914152E-11  5.138709E-10
       265  18  3.589147E+05  9.663418E+04  9.163894E+04  1.747349E+05 -4.876816E-10 -1.809913E-10
       265  19 -2.174309E+05 -3.809397E+04 -3.080742E+04  1.794002E+05  1.588131E+04 -7.064885E+03
       265  20 -3.444907E+05 -7.079334E+04 -6.012437E+04  1.714895E+05 -7.419233E+03 -9.747401E+03
       265  21 -4.762040E+05 -1.099604E+05 -1.062380E+05  1.836844E+05 -3.071808E+04 -3.516653E+03
       265  22 -5.870046E+04 -6.173982E+02 -2.178907E+03  1.792069E+05 -1.199865E+03 -7.079350E+03
       265  23 -5.823459E+04 -2.260928E+03 -3.764752E+03  1.691564E+05 -3.117893E+03 -9.743519E+03
       265  24 -5.872525E+04 -6.656978E+03 -7.294284E+03  1.792112E+05 -5.039515E+03 -3.496167E+03
       265  25  1.000552E+05  3.685792E+04  2.644972E+04  1.790135E+05 -1.828528E+04 -7.093801E+03
       265  26  2.281000E+05  6.626656E+04  5.259095E+04  1.668221E+05  1.185390E+03 -9.739669E+03
       265  27  3.589152E+05  9.663431E+04  9.163976E+04  1.747349E+05  2.065624E+04 -3.476060E+03
       266   1 -7.779466E+04 -2.758247E+05 -7.373942E+04  1.621180E+05 -2.622620E+03 -1.582386E+04
       266   2 -5.029095E+04 -1.542224E+05 -3.855282E+04  1.551561E+05 -6.942984E+03 -1.322469E+03
       266   3 -2.258468E+04 -3.443007E+04 -1.275898E+04  1.670120E+05 -4.003013E+03  1.318382E+04
       266   4  7.118463E+03  6.705761E+04  7.895838E+03  1.672181E+05 -2.620776E+03  3.255881E+03
       266   5  2.715373E+03  6.646687E+04  5.774231E+03  1.578098E+05 -6.942596E+03  3.381102E+02
       266   6  1.539797E+03  6.707545E+04  6.358776E+03  1.672182E+05 -4.005391E+03 -2.577865E+03
       266   7  9.202339E+04  4.100487E+05  8.952424E+04  1.723211E+05 -2.618621E+03  2.234611E+04
       266   8  5.571872E+04  2.872026E+05  5.009881E+04  1.604645E+05 -6.942193E+03  1.999268E+03
       266   9  2.566381E+04  1.685914E+05  2.547701E+04  1.674244E+05 -4.007778E+03 -1.834207E+04
       266  10 -7.779473E+04 -2.758250E+05 -7.373990E+04  1.621180E+05  5.791762E-11 -2.551937E-10
       266  11 -5.029100E+04 -1.542225E+05 -3.855291E+04  1.551561E+05  4.267063E-10 -1.627190E-10
       266  12 -2.258474E+04 -3.443026E+04 -1.275934E+04  1.670121E+05  3.963430E-11  3.831953E-10
       266  13  7.118453E+03  6.705759E+04  7.895806E+03  1.672181E+05  1.910415E-10  1.463961E-10
       266  14  2.715322E+03  6.646685E+04  5.774140E+03  1.578098E+05  1.672577E-10 -2.279153E-10
       266  15  1.539778E+03  6.707544E+04  6.358733E+03  1.672182E+05 -1.240087E-10  8.265938E-11
       266  16  9.202325E+04  4.100482E+05  8.952329E+04  1.723211E+05 -1.118295E-11 -7.822541E-11
       266  17  5.571866E+04  2.872026E+05  5.009871E+04  1.604645E+05 -1.055947E-10  5.420007E-11
       266  18  2.566370E+04  1.685911E+05  2.547635E+04  1.674243E+05 -2.334044E-10 -2.784185E-10
       266  19 -7.779466E+04 -2.758247E+05 -7.373942E+04  1.621180E+05  2.622620E+03  1.582386E+04
       266  20 -5.029095E+04 -1.542224E+05 -3.855282E+04  1.551561E+05  6.942984E+03  1.322469E+03
       266  21 -2.258468E+04 -3.443007E+04 -1.275898E+04  1.670120E+05  4.003013E+03 -1.318382E+04
       266  22  7.118463E+03  6.705761E+04  7.895838E+03  1.672181E+05  2.620776E+03 -3.255881E+03
       266  23  2.715373E+03  6.646687E+04  5.774231E+03  1.578098E+05  6.942596E+03 -3.381102E+02
       266  24  1.539797E+03  6.707545E+04  6.358776E+03  1.672182E+05  4.005391E+03  2.577865E+03
       266  25  9.202339E+04  4.100487E+05  8.952424E+04  1.723211E+05  2.618621E+03 -2.234611E+04
       266  26  5.571872E+04  2.872026E+05  5.009881E+04  1.604645E+05  6.942193E+03 -1.999268E+03
       266  27  2.566381E+04  1.685914E+05  2.547701E+04  1.674244E+05  4.007778E+03  1.834207E+04
       267   1 -5.122876E+03  4.076069E+04  5.224649E+02  1.667687E+05  2.049403E+02  1.253663E+04
       267   2  2.452378E+04  1.604226E+05  2.475803E+04  1.599843E+05  6.719297E+03  5.463084E+03
       267   3  5.855603E+04  2.821256E+05  5.469571E+04  1.724634E+05  1.273567E+04 -1.611534E+03
       267   4  1.553926E+03  6.721519E+04  7.452537E+03  1.673174E+05  2.023610E+02 -3.699568E+03
       267   5  3.095560E+03  6.630098E+04  1.172885E+04  1.576856E+05  6.717281E+03 -9.578341E+03
       267   6  8.816562E+03  6.720719E+04  2.087835E+04  1.673169E+05  1.273423E+04 -1.545691E+04
       267   7  8.230814E+03  9.367087E+04  1.438354E+04  1.678661E+05  1.997531E+02 -1.993646E+04
       267   8 -1.833291E+04 -2.781112E+04 -1.299581E+03  1.553873E+05  6.715377E+03 -2.461759E+04
       267   9 -4.092499E+04 -1.476648E+05 -1.293942E+04  1.621723E+05  1.273302E+04 -2.929768E+04
       267  10 -5.122918E+03  4.076052E+04  5.221694E+02  1.667687E+05  1.597718E-10 -3.224787E-10
       267  11  2.452372E+04  1.604225E+05  2.475789E+04  1.599843E+05 -6.130808E-12 -3.109449E-10
       267  12  5.855585E+04  2.821256E+05  5.469540E+04  1.724634E+05  3.810916E-11  2.703571E-10
       267  13  1.553922E+03  6.721517E+04  7.452511E+03  1.673174E+05  1.434424E-11  1.245423E-10
       267  14  3.095487E+03  6.630087E+04  1.172860E+04  1.576857E+05  1.169181E-10 -2.930461E-10
       267  15  8.816323E+03  6.720689E+04  2.087759E+04  1.673171E+05 -1.523384E-10  1.232439E-10
       267  16  8.230708E+03  9.367045E+04  1.438280E+04  1.678661E+05 -1.130683E-10  3.216121E-11
       267  17 -1.833312E+04 -2.781179E+04 -1.300805E+03  1.553874E+05 -3.727028E-10  1.401298E-10
       267  18 -4.092539E+04 -1.476657E+05 -1.294133E+04  1.621726E+05 -3.630163E-10 -2.144715E-10
       267  19 -5.122876E+03  4.076069E+04  5.224649E+02  1.667687E+05 -2.049403E+02 -1.253663E+04
       267  20  2.452378E+04  1.604226E+05  2.475803E+04  1.599843E+05 -6.719297E+03 -5.463084E+03
       267  21  5.855603E+04  2.821256E+05  5.469571E+04  1.724634E+05 -1.273567E+04  1.611534E+03
       267  22  1.553926E+03  6.721519E+04  7.452537E+03  1.673174E+05 -2.023610E+02  3.699568E+03
       267  23  3.095560E+03  6.630098E+04  1.172885E+04  1.576856E+05 -6.717281E+03  9.578341E+03
       267  24  8.816562E+03  6.720719E+04  2.087835E+04  1.673169E+05 -1.273423E+04  1.545691E+04
       267  25  8.230814E+03  9.367087E+04  1.438354E+04  1.678661E+05 -1.997531E+02  1.993646E+04
       267  26 -1.833291E+04 -2.781112E+04 -1.299581E+03  1.553873E+05 -6.715377E+03  2.461759E+04
       267  27 -4.092499E+04 -1.476648E+05 -1.293942E+04  1.621723E+05 -1.273302E+04  2.929768E+04
       268   1  7.947073E+04  3.599136E+05  7.462691E+04  1.708197E+05  1.643912E+04 -6.052399E+03
       268   2  1.313911E+05  4.718711E+05  1.275461E+05  1.921834E+05  1.636221E+04 -5.844993E+04
       268   3  2.264213E+05  6.014531E+05  2.253471E+05  2.320652E+05  5.278459E+03 -1.108622E+05
       268   4  1.207123E+04  6.969310E+04  2.777936E+04  1.671490E+05  1.643836E+04 -1.908857E+04
       268   5  3.435898E+04  6.315673E+04  5.097934E+04  1.578929E+05  1.636709E+04 -4.505136E+04
       268   6  9.518375E+04  6.965724E+04  1.007206E+05  1.671497E+05  5.290794E+03 -7.101775E+04
       268   7 -5.533238E+04 -2.204435E+05 -1.906984E+04  1.634800E+05  1.643776E+04 -3.211887E+04
       268   8 -6.267827E+04 -3.453933E+05 -2.559330E+04  1.236254E+05  1.637050E+04 -3.166138E+04
       268   9 -3.605723E+04 -4.618659E+05 -2.391702E+04  1.022900E+05  5.294813E+03 -3.120714E+04
       268  10  7.947043E+04  3.599135E+05  7.462633E+04  1.708198E+05 -2.984820E-11  3.852957E-11
       268  11  1.313899E+05  4.718674E+05  1.275391E+05  1.921842E+05 -1.779788E-10 -1.864748E-10
       268  12  2.264180E+05  6.014399E+05  2.253240E+05  2.320657E+05 -1.690183E-11  5.562879E-10
       268  13  1.207085E+04  6.969264E+04  2.777817E+04  1.671492E+05 -2.801401E-10  2.139811E-10
       268  14  3.435815E+04  6.315448E+04  5.097502E+04  1.578935E+05  2.503611E-11 -3.977794E-10
       268  15  9.518237E+04  6.965182E+04  1.007111E+05  1.671500E+05 -1.649883E-11  3.026748E-10
       268  16 -5.533294E+04 -2.204447E+05 -1.907229E+04  1.634804E+05 -3.842405E-10 -3.286630E-10
       268  17 -6.267883E+04 -3.453945E+05 -2.559569E+04  1.236259E+05 -9.994867E-11  1.298298E-10
       268  18 -3.605753E+04 -4.618669E+05 -2.391890E+04  1.022901E+05 -2.155957E-10 -4.041392E-10
       268  19  7.947073E+04  3.599136E+05  7.462691E+04  1.708197E+05 -1.643912E+04  6.052399E+03
       268  20  1.313911E+05  4.718711E+05  1.275461E+05  1.921834E+05 -1.636221E+04  5.844993E+04
       268  21  2.264213E+05  6.014531E+05  2.253471E+05  2.320652E+05 -5.278459E+03  1.108622E+05
       268  22  1.207123E+04  6.969310E+04  2.777936E+04  1.671490E+05 -1.643836E+04  1.908857E+04
       268  23  3.435898E+04  6.315673E+04  5.097934E+04  1.578929E+05 -1.636709E+04  4.505136E+04
       268  24  9.518375E+04  6.965724E+04  1.007206E+05  1.671497E+05 -5.290794E+03  7.101775E+04
       268  25 -5.533238E+04 -2.204435E+05 -1.906984E+04  1.634800E+05 -1.643776E+04  3.211887E+04
       268  26 -6.267827E+04 -3.453933E+05 -2.559330E+04  1.236254E+05 -1.637050E+04  3.166138E+04
       268  27 -3.605723E+04 -4.618659E+05 -2.391702E+04  1.022900E+05 -5.294813E+03  3.120714E+04
       269   1  6.473353E+05  1.653889E+05  1.562736E+05  1.637617E+05  5.591471E+04 -7.171458E+03
       269   2  5.270318E+05  1.293521E+05  1.004778E+05  1.543343E+05  2.267742E+04 -2.316692E+04
       269   3  4.126513E+05  9.969256E+04  6.790365E+04  1.626425E+05 -1.055892E+04 -2.550252E+04
       269   4 -1.643658E+04  1.761768E+03  1.661138E+03  1.623093E+05  1.153729E+03 -7.213928E+03
       269   5 -1.652583E+04  7.490277E+02  8.571455E+02  1.534418E+05  7.323763E+02 -2.318683E+04
       269   6 -1.639456E+04  4.232584E+02  5.005321E+02  1.623104E+05  3.055925E+02 -2.549438E+04
       269   7 -6.797958E+05 -1.618949E+05 -1.529698E+05  1.608584E+05 -5.354915E+04 -7.256171E+03
       269   8 -5.597957E+05 -1.278705E+05 -9.877381E+04  1.525501E+05 -2.119398E+04 -2.320668E+04
       269   9 -4.452567E+05 -9.885506E+04 -6.690664E+04  1.619785E+05  1.116288E+04 -2.548624E+04
       269  10  6.473319E+05  1.653880E+05  1.562676E+05  1.637620E+05  2.647964E-09 -7.760374E-10
       269  11  5.270311E+05  1.293513E+05  1.004759E+05  1.543348E+05 -2.637860E-10 -1.611126E-09
       269  12  4.126510E+05  9.969183E+04  6.790222E+04  1.626423E+05 -2.797197E-09 -1.407595E-09
       269  13 -1.643660E+04  1.761712E+03  1.661038E+03  1.623093E+05 -1.538751E-11  1.113973E-09
       269  14 -1.652598E+04  7.484503E+02  8.561342E+02  1.534419E+05  1.468167E-10 -5.534236E-10
       269  15 -1.639473E+04  4.225604E+02  4.993105E+02  1.623104E+05  2.206287E-10 -1.147126E-09
       269  16 -6.797989E+05 -1.618957E+05 -1.529753E+05  1.608581E+05 -3.124351E-09  1.958292E-11
       269  17 -5.597963E+05 -1.278712E+05 -9.877566E+04  1.525497E+05  1.866259E-10 -1.068849E-09
       269  18 -4.452570E+05 -9.885579E+04 -6.690809E+04  1.619787E+05  2.577576E-09 -9.688895E-10
       269  19  6.473353E+05  1.653889E+05  1.562736E+05  1.637617E+05 -5.591471E+04  7.171458E+03
       269  20  5.270318E+05  1.293521E+05  1.004778E+05  1.543343E+05 -2.267742E+04  2.316692E+04
       269  21  4.126513E+05  9.969256E+04  6.790365E+04  1.626425E+05  1.055892E+04  2.550252E+04
       269  22 -1.643658E+04  1.761768E+03  1.661138E+03  1.623093E+05 -1.153729E+03  7.213928E+03
       269  23 -1.652583E+04  7.490277E+02  8.571455E+02  1.534418E+05 -7.323763E+02  2.318683E+04
       269  24 -1.639456E+04  4.232584E+02  5.005321E+02  1.623104E+05 -3.055925E+02  2.549438E+04
       269  25 -6.797958E+05 -1.618949E+05 -1.529698E+05  1.608584E+05  5.354915E+04  7.256171E+03
       269  26 -5.597957E+05 -1.278705E+05 -9.877381E+04  1.525501E+05  2.119398E+04  2.320668E+04
       269  27 -4.452567E+05 -9.885506E+04 -6.690664E+04  1.619785E+05 -1.116288E+04  2.548624E+04
       270   1  3.393057E+05  8.235669E+04  5.459555E+04  1.628549E+05 -1.170499E+04 -2.223214E+04
       270   2  2.217003E+05  5.468915E+04  3.416204E+04  1.533597E+05 -1.584112E+04 -1.643335E+04
       270   3  1.048208E+05  2.782353E+04  1.661302E+04  1.626124E+05 -1.997838E+04 -8.973483E+03
       270   4 -1.642866E+04  3.843903E+02  3.997506E+02  1.625354E+05  2.329277E+02 -2.222222E+04
       270   5 -1.642925E+04  2.947156E+02  2.900748E+02  1.531612E+05  8.379309E+01 -1.641874E+04
       270   6 -1.640969E+04  3.154996E+02  2.963928E+02  1.625354E+05 -6.719556E+01 -8.953854E+03
       270   7 -3.720361E+05 -8.159391E+04 -5.379820E+04  1.622160E+05  1.216427E+04 -2.221232E+04
       270   8 -2.545009E+05 -5.410214E+04 -3.358176E+04  1.529628E+05  1.600287E+04 -1.640415E+04
       270   9 -1.376244E+05 -2.719295E+04 -1.601888E+04  1.624585E+05  1.984028E+04 -8.934226E+03
       270  10  3.393055E+05  8.235612E+04  5.459436E+04  1.628547E+05 -9.106416E-10  2.837657E-10
       270  11  2.217000E+05  5.468879E+04  3.416106E+04  1.533594E+05 -8.886491E-10  1.333362E-10
       270  12  1.048204E+05  2.782333E+04  1.661212E+04  1.626122E+05 -4.664672E-10  5.078063E-10
       270  13 -1.642879E+04  3.838600E+02  3.988225E+02  1.625354E+05  3.556962E-10 -4.990325E-10
       270  14 -1.642932E+04  2.944261E+02  2.895682E+02  1.531612E+05  2.528673E-10  4.370775E-10
       270  15 -1.640971E+04  3.154136E+02  2.962421E+02  1.625354E+05  6.462295E-11  7.771528E-10
       270  16 -3.720364E+05 -8.159448E+04 -5.379941E+04  1.622162E+05  6.891382E-10  4.690632E-10
       270  17 -2.545013E+05 -5.410250E+04 -3.358274E+04  1.529630E+05  1.100671E-09 -2.388915E-09
       270  18 -1.376248E+05 -2.719314E+04 -1.601977E+04  1.624586E+05  3.397726E-10 -1.003394E-09
       270  19  3.393057E+05  8.235669E+04  5.459555E+04  1.628549E+05  1.170499E+04  2.223214E+04
       270  20  2.217003E+05  5.468915E+04  3.416204E+04  1.533597E+05  1.584112E+04  1.643335E+04
       270  21  1.048208E+05  2.782353E+04  1.661302E+04  1.626124E+05  1.997838E+04  8.973483E+03
       270  22 -1.642866E+04  3.843903E+02  3.997506E+02  1.625354E+05 -2.329277E+02  2.222222E+04
       270  23 -1.642925E+04  2.947156E+02  2.900748E+02  1.531612E+05 -8.379309E+01  1.641874E+04
       270  24 -1.640969E+04  3.154996E+02  2.963928E+02  1.625354E+05  6.719556E+01  8.953854E+03
       270  25 -3.720361E+05 -8.159391E+04 -5.379820E+04  1.622160E+05 -1.216427E+04  2.221232E+04
       270  26 -2.545009E+05 -5.410214E+04 -3.358176E+04  1.529628E+05 -1.600287E+04  1.640415E+04
       270  27 -1.376244E+05 -2.719295E+04 -1.601888E+04  1.624585E+05 -1.984028E+04  8.934226E+03
       271   1  3.230401E+04  1.125094E+04  6.256752E+03  1.625827E+05 -2.007087E+04 -4.022445E+03
       271   2 -8.470540E+04 -1.552438E+04 -1.073903E+04  1.530020E+05 -1.756363E+04  3.715644E+03
       271   3 -2.021277E+05 -4.258354E+04 -2.944769E+04  1.622039E+05 -1.505594E+04  1.030308E+04
       271   4 -1.640054E+04  3.256223E+02  3.337512E+02  1.625430E+05 -1.249676E+02 -4.002505E+03
       271   5 -1.642874E+04  3.795551E+02  4.979869E+02  1.531517E+05 -3.809219E+02  3.732528E+03
       271   6 -1.640594E+04  6.292887E+02  8.668421E+02  1.625427E+05 -6.359436E+02  1.031697E+04
       271   7 -6.510179E+04 -1.059958E+04 -5.587753E+03  1.625033E+05  1.981946E+04 -3.982568E+03
       271   8  5.185317E+04  1.628341E+04  1.173597E+04  1.533014E+05  1.680362E+04  3.749419E+03
       271   9  1.693504E+05  4.384046E+04  3.118118E+04  1.628816E+05  1.378822E+04  1.033088E+04
       271  10  3.230358E+04  1.125082E+04  6.255964E+03  1.625826E+05 -2.456648E-09  1.687006E-09
       271  11 -8.470573E+04 -1.552448E+04 -1.073963E+04  1.530020E+05 -2.618879E-10  5.958212E-10
       271  12 -2.021280E+05 -4.258371E+04 -2.944832E+04  1.622040E+05  2.647218E-09  1.545388E-09
       271  13 -1.640055E+04  3.256051E+02  3.337210E+02  1.625430E+05  2.624211E-10  8.210178E-10
       271  14 -1.642874E+04  3.795401E+02  4.979604E+02  1.531517E+05  5.299368E-10  1.657352E-09
       271  15 -1.640597E+04  6.291743E+02  8.666413E+02  1.625427E+05  5.192399E-10 -8.101030E-10
       271  16 -6.510222E+04 -1.059970E+04 -5.588521E+03  1.625033E+05  2.214429E-09  3.525118E-10
       271  17  5.185286E+04  1.628332E+04  1.173542E+04  1.533013E+05  2.855244E-10  3.577558E-10
       271  18  1.693502E+05  4.384030E+04  3.118062E+04  1.628815E+05 -2.687837E-09 -2.149328E-09
       271  19  3.230401E+04  1.125094E+04  6.256752E+03  1.625827E+05  2.007087E+04  4.022445E+03
       271  20 -8.470540E+04 -1.552438E+04 -1.073903E+04  1.530020E+05  1.756363E+04 -3.715644E+03
       271  21 -2.021277E+05 -4.258354E+04 -2.944769E+04  1.622039E+05  1.505594E+04 -1.030308E+04
       271  22 -1.640054E+04  3.256223E+02  3.337512E+02  1.625430E+05  1.249676E+02  4.002505E+03
       271  23 -1.642874E+04  3.795551E+02  4.979869E+02  1.531517E+05  3.809219E+02 -3.732528E+03
       271  24 -1.640594E+04  6.292887E+02  8.668421E+02  1.625427E+05  6.359436E+02 -1.031697E+04
       271  25 -6.510179E+04 -1.059958E+04 -5.587753E+03  1.625033E+05 -1.981946E+04  3.982568E+03
       271  26  5.185317E+04  1.628341E+04  1.173597E+04  1.533014E+05 -1.680362E+04 -3.749419E+03
       271  27  1.693504E+05  4.384046E+04  3.118118E+04  1.628816E+05 -1.378822E+04 -1.033088E+04
       272   1 -2.750635E+05 -5.953765E+04 -4.151111E+04  1.620475E+05 -1.440598E+04  1.409266E+04
       272   2 -3.904346E+05 -8.728697E+04 -6.855739E+04  1.517142E+05  9.315693E+03  1.462516E+04
       272   3 -5.095757E+05 -1.177237E+05 -1.117299E+05  1.594027E+05  3.303849E+04  4.826177E+03
       272   4 -1.630687E+04  7.550965E+02  1.147547E+03  1.623736E+05 -7.912290E+02  1.410528E+04
       272   5 -1.658308E+04  1.634353E+03  2.090081E+03  1.533617E+05 -1.851873E+03  1.461426E+04
       272   6 -1.633591E+04  4.131577E+03  4.121756E+03  1.623707E+05 -2.907114E+03  4.794743E+03
       272   7  2.425164E+05  6.104449E+04  4.380493E+04  1.626998E+05  1.282901E+04  1.411790E+04
       272   8  3.574037E+05  9.054760E+04  7.273185E+04  1.550102E+05 -1.302600E+04  1.460330E+04
       272   9  4.771308E+05  1.259702E+05  1.199616E+05  1.653411E+05 -3.888112E+04  4.762980E+03
       272  10 -2.750638E+05 -5.953792E+04 -4.151188E+04  1.620477E+05 -1.243034E-09  1.501094E-09
       272  11 -3.904348E+05 -8.728722E+04 -6.855795E+04  1.517141E+05 -3.592705E-10  1.464222E-10
       272  12 -5.095769E+05 -1.177240E+05 -1.117320E+05  1.594025E+05  4.529109E-10 -4.475528E-11
       272  13 -1.630692E+04  7.548827E+02  1.147172E+03  1.623736E+05  6.352497E-10  1.276407E-09
       272  14 -1.658314E+04  1.634123E+03  2.089674E+03  1.533617E+05  1.211638E-10 -1.466329E-09
       272  15 -1.633593E+04  4.131550E+03  4.121697E+03  1.623707E+05  2.213377E-10  8.211544E-10
       272  16  2.425162E+05  6.104424E+04  4.380425E+04  1.626997E+05  1.141871E-09 -5.114032E-10
       272  17  3.574035E+05  9.054732E+04  7.273113E+04  1.550103E+05  5.298293E-10 -1.583889E-11
       272  18  4.771291E+05  1.259698E+05  1.199588E+05  1.653412E+05 -6.727570E-10 -6.932962E-10
       272  19 -2.750635E+05 -5.953765E+04 -4.151111E+04  1.620475E+05  1.440598E+04 -1.409266E+04
       272  20 -3.904346E+05 -8.728697E+04 -6.855739E+04  1.517142E+05 -9.315693E+03 -1.462516E+04
       272  21 -5.095757E+05 -1.177237E+05 -1.117299E+05  1.594027E+05 -3.303849E+04 -4.826177E+03
       272  22 -1.630687E+04  7.550965E+02  1.147547E+03  1.623736E+05  7.912290E+02 -1.410528E+04
       272  23 -1.658308E+04  1.634353E+03  2.090081E+03  1.533617E+05  1.851873E+03 -1.461426E+04
       272  24 -1.633591E+04  4.131577E+03  4.121756E+03  1.623707E+05  2.907114E+03 -4.794743E+03
       272  25  2.425164E+05  6.104449E+04  4.380493E+04  1.626998E+05 -1.282901E+04 -1.411790E+04
       272  26  3.574037E+05  9.054760E+04  7.273185E+04  1.550102E+05  1.302600E+04 -1.460330E+04
       272  27  4.771308E+05  1.259702E+05  1.199616E+05  1.653411E+05  3.888112E+04 -4.762980E+03
       273   1 -1.167658E+05 -4.911785E+05 -1.111990E+05  2.161731E+05 -3.978636E+03 -2.748468E+04
       273   2 -7.700109E+04 -3.313029E+05 -6.123768E+04  2.052725E+05 -1.102857E+04 -4.564759E+03
       273   3 -3.964487E+04 -1.749533E+05 -2.680586E+04  2.189607E+05 -7.796710E+03  1.836726E+04
       273   4  3.979774E+03 -3.358599E+03  4.568954E+03  2.190546E+05 -3.981657E+03  1.752150E+03
       273   5  1.467247E+03 -3.707501E+03  3.444574E+03  2.067605E+05 -1.102845E+04  1.160441E+01
       273   6  8.306717E+02 -3.324174E+03  3.923679E+03  2.190539E+05 -7.796067E+03 -1.723144E+03
       273   7  1.247088E+05  4.846818E+05  1.203235E+05  2.219383E+05 -3.984409E+03  3.101185E+04
       273   8  7.992909E+04  3.239907E+05  6.812165E+04  2.082493E+05 -1.102831E+04  4.590332E+03
       273   9  4.130479E+04  1.683345E+05  3.465360E+04  2.191471E+05 -7.795429E+03 -2.181894E+04
       273  10 -1.167661E+05 -4.911793E+05 -1.112004E+05  2.161730E+05 -4.428415E-11 -1.647884E-10
       273  11 -7.700123E+04 -3.313030E+05 -6.123795E+04  2.052725E+05 -3.381802E-10  1.242656E-09
       273  12 -3.964502E+04 -1.749537E+05 -2.680661E+04  2.189609E+05  9.088419E-11  1.066604E-09
       273  13  3.979756E+03 -3.358606E+03  4.568918E+03  2.190546E+05  1.833592E-10 -1.136549E-09
       273  14  1.467116E+03 -3.707533E+03  3.444345E+03  2.067605E+05 -3.620890E-10  7.089089E-10
       273  15  8.306056E+02 -3.324194E+03  3.923559E+03  2.190539E+05  1.064210E-10  3.849968E-10
       273  16  1.247085E+05  4.846807E+05  1.203217E+05  2.219384E+05 -7.706909E-11  8.558274E-10
       273  17  7.992895E+04  3.239906E+05  6.812138E+04  2.082494E+05 -4.063609E-10 -3.641258E-10
       273  18  4.130460E+04  1.683340E+05  3.465260E+04  2.191469E+05 -2.429167E-10 -6.851566E-10
       273  19 -1.167658E+05 -4.911785E+05 -1.111990E+05  2.161731E+05  3.978636E+03  2.748468E+04
       273  20 -7.700109E+04 -3.313029E+05 -6.123768E+04  2.052725E+05  1.102857E+04  4.564759E+03
       273  21 -3.964487E+04 -1.749533E+05 -2.680586E+04  2.189607E+05  7.796710E+03 -1.836726E+04
       273  22  3.979774E+03 -3.358599E+03  4.568954E+03  2.190546E+05  3.981657E+03 -1.752150E+03
       273  23  1.467247E+03 -3.707501E+03  3.444574E+03  2.067605E+05  1.102845E+04 -1.160441E+01
       273  24  8.306717E+02 -3.324174E+03  3.923679E+03  2.190539E+05  7.796067E+03  1.723144E+03
       273  25  1.247088E+05  4.846818E+05  1.203235E+05  2.219383E+05  3.984409E+03 -3.101185E+04
       273  26  7.992909E+04  3.239907E+05  6.812165E+04  2.082493E+05  1.102831E+04 -4.590332E+03
       273  27  4.130479E+04  1.683345E+05  3.465360E+04  2.191471E+05  7.795429E+03  2.181894E+04
       274   1 -1.671330E+04 -7.648948E+04 -9.939030E+03  2.188814E+05 -2.386247E+03  1.835924E+04
       274   2  2.115761E+04  8.091823E+04  1.913944E+04  2.080390E+05  6.048357E+03  1.357316E+04
       274   3  6.184075E+04  2.397075E+05  5.204310E+04  2.224335E+05  1.403464E+04  8.786118E+03
       274   4  8.586803E+02 -3.222299E+03  4.649888E+03  2.191982E+05 -2.385942E+03 -2.421195E+03
       274   5  1.866581E+03 -3.812356E+03  7.409147E+03  2.065801E+05  6.049085E+03 -6.133116E+03
       274   6  5.501593E+03 -3.231351E+03  1.324766E+04  2.191988E+05  1.403576E+04 -9.844873E+03
       274   7  1.843056E+04  7.005094E+04  1.924016E+04  2.195149E+05 -2.385658E+03 -2.320403E+04
       274   8 -1.742455E+04 -8.853481E+04 -4.319769E+03  2.051215E+05  6.049905E+03 -2.583682E+04
       274   9 -5.084030E+04 -2.461108E+05 -2.554802E+04  2.159654E+05  1.403708E+04 -2.846884E+04
       274  10 -1.671340E+04 -7.648984E+04 -9.939674E+03  2.188815E+05  1.116105E-10  1.854646E-10
       274  11  2.115752E+04  8.091802E+04  1.913902E+04  2.080390E+05  1.525027E-10  7.202316E-10
       274  12  6.184052E+04  2.397074E+05  5.204259E+04  2.224335E+05 -2.050335E-10  4.471768E-10
       274  13  8.586726E+02 -3.222307E+03  4.649866E+03  2.191982E+05  6.935690E-11 -8.088724E-10
       274  14  1.866532E+03 -3.812407E+03  7.409007E+03  2.065802E+05 -3.527048E-10  8.243103E-10
       274  15  5.501356E+03 -3.231508E+03  1.324710E+04  2.191989E+05  2.702328E-10  5.552497E-10
       274  16  1.843041E+04  7.005036E+04  1.923914E+04  2.195149E+05 -3.670161E-10  4.846754E-10
       274  17 -1.742476E+04 -8.853554E+04 -4.321092E+03  2.051216E+05 -5.041271E-11 -5.373014E-10
       274  18 -5.084073E+04 -2.461117E+05 -2.554992E+04  2.159657E+05  2.326336E-10 -3.099736E-10
       274  19 -1.671330E+04 -7.648948E+04 -9.939030E+03  2.188814E+05  2.386247E+03 -1.835924E+04
       274  20  2.115761E+04  8.091823E+04  1.913944E+04  2.080390E+05 -6.048357E+03 -1.357316E+04
       274  21  6.184075E+04  2.397075E+05  5.204310E+04  2.224335E+05 -1.403464E+04 -8.786118E+03
       274  22  8.586803E+02 -3.222299E+03  4.649888E+03  2.191982E+05  2.385942E+03  2.421195E+03
       274  23  1.866581E+03 -3.812356E+03  7.409147E+03  2.065801E+05 -6.049085E+03  6.133116E+03
       274  24  5.501593E+03 -3.231351E+03  1.324766E+04  2.191988E+05 -1.403576E+04  9.844873E+03
       274  25  1.843056E+04  7.005094E+04  1.924016E+04  2.195149E+05  2.385658E+03  2.320403E+04
       274  26 -1.742455E+04 -8.853481E+04 -4.319769E+03  2.051215E+05 -6.049905E+03  2.583682E+04
       274  27 -5.084030E+04 -2.461108E+05 -2.554802E+04  2.159654E+05 -1.403708E+04  2.846884E+04
       275   1  8.699576E+04  3.398918E+05  7.333526E+04  2.212749E+05  1.899087E+04  5.491028E+03
       275   2  1.398039E+05  4.911019E+05  1.260955E+05  2.285565E+05  1.951867E+04 -4.378784E+04
       275   3  2.227814E+05  6.563308E+05  2.184759E+05  2.601574E+05  6.396298E+03 -9.308871E+04
       275   4  7.562665E+03 -1.653292E+03  1.764154E+04  2.189926E+05  1.899283E+04 -1.215033E+04
       275   5  2.171427E+04 -5.838870E+03  3.239305E+04  2.068406E+05  1.951954E+04 -2.864316E+04
       275   6  6.036004E+04 -1.705430E+03  6.401328E+04  2.190043E+05  6.394084E+03 -4.514472E+04
       275   7 -7.187619E+04 -3.430821E+05 -3.805430E+04  2.167115E+05  1.899492E+04 -2.978232E+04
       275   8 -9.638779E+04 -5.025398E+05 -6.131918E+04  1.851424E+05  1.951934E+04 -1.351030E+04
       275   9 -1.020845E+05 -6.593347E+05 -9.046944E+04  1.778950E+05  6.385526E+03  2.748816E+03
       275  10  8.699536E+04  3.398916E+05  7.333453E+04  2.212748E+05 -1.368912E-10  4.231057E-10
       275  11  1.398029E+05  4.910997E+05  1.260912E+05  2.285572E+05 -3.523134E-10  9.992485E-10
       275  12  2.227790E+05  6.563215E+05  2.184595E+05  2.601579E+05 -2.387587E-10  3.403015E-10
       275  13  7.562238E+03 -1.653548E+03  1.764059E+04  2.189928E+05 -2.142397E-10 -7.606522E-10
       275  14  2.171364E+04 -5.839853E+03  3.239079E+04  2.068410E+05 -1.970946E-10  8.912630E-10
       275  15  6.035945E+04 -1.707630E+03  6.400937E+04  2.190045E+05 -1.194575E-10  9.728989E-10
       275  16 -7.187682E+04 -3.430832E+05 -3.805665E+04  2.167120E+05  4.096646E-10 -2.406849E-10
       275  17 -9.638825E+04 -5.025401E+05 -6.132024E+04  1.851427E+05  3.379536E-10 -2.485983E-10
       275  18 -1.020846E+05 -6.593347E+05 -9.046953E+04  1.778950E+05  1.812432E-10 -4.079681E-11
       275  19  8.699576E+04  3.398918E+05  7.333526E+04  2.212749E+05 -1.899087E+04 -5.491028E+03
       275  20  1.398039E+05  4.911019E+05  1.260955E+05  2.285565E+05 -1.951867E+04  4.378784E+04
       275  21  2.227814E+05  6.563308E+05  2.184759E+05  2.601574E+05 -6.396298E+03  9.308871E+04
       275  22  7.562665E+03 -1.653292E+03  1.764154E+04  2.189926E+05 -1.899283E+04  1.215033E+04
       275  23  2.171427E+04 -5.838870E+03  3.239305E+04  2.068406E+05 -1.951954E+04  2.864316E+04
       275  24  6.036004E+04 -1.705430E+03  6.401328E+04  2.190043E+05 -6.394084E+03  4.514472E+04
       275  25 -7.187619E+04 -3.430821E+05 -3.805430E+04  2.167115E+05 -1.899492E+04  2.978232E+04
       275  26 -9.638779E+04 -5.025398E+05 -6.131918E+04  1.851424E+05 -1.951934E+04  1.351030E+04
       275  27 -1.020845E+05 -6.593347E+05 -9.046944E+04  1.778950E+05 -6.385526E+03 -2.748816E+03
       276   1  3.839435E+05  1.022691E+05  9.742181E+04  1.135866E+05  3.504540E+04 -4.012398E+03
       276   2  3.029369E+05  7.550705E+04  6.055399E+04  1.055735E+05  1.400364E+04 -1.270303E+04
       276   3  2.261258E+05  5.460097E+04  3.884404E+04  1.095852E+05 -7.039594E+03 -1.332551E+04
       276   4 -5.242905E+03  6.249499E+03  6.457040E+03  1.091973E+05  4.531221E+03 -4.036651E+03
       276   5 -5.649051E+03  2.343332E+03  3.286855E+03  1.031869E+05  2.864709E+03 -1.271271E+04
       276   6 -5.226823E+03  9.323183E+02  1.825132E+03  1.092014E+05  1.193822E+03 -1.331889E+04
       276   7 -3.942877E+05 -8.978024E+04 -8.451452E+04  1.048107E+05 -2.596396E+04 -4.060482E+03
       276   8 -3.141426E+05 -7.082576E+04 -5.398383E+04  1.008015E+05 -8.268832E+03 -1.272231E+04
       276   9 -2.365261E+05 -5.273898E+04 -3.519493E+04  1.088178E+05  9.424282E+03 -1.331227E+04
       276  10  3.839422E+05  1.022687E+05  9.741947E+04  1.135867E+05 -1.235579E-09  1.701566E-10
       276  11  3.029367E+05  7.550683E+04  6.055332E+04  1.055736E+05 -5.394209E-10  1.790817E-09
       276  12  2.261257E+05  5.460076E+04  3.884362E+04  1.095852E+05  1.198188E-10  5.117373E-10
       276  13 -5.242931E+03  6.249476E+03  6.456971E+03  1.091973E+05  4.609918E-10 -1.155918E-09
       276  14 -5.649103E+03  2.343157E+03  3.286536E+03  1.031869E+05  4.560058E-10 -2.106863E-09
       276  15 -5.226872E+03  9.321274E+02  1.824796E+03  1.092015E+05  6.621119E-10  3.547499E-10
       276  16 -3.942884E+05 -8.978044E+04 -8.451582E+04  1.048106E+05  9.422222E-10 -1.130295E-10
       276  17 -3.141427E+05 -7.082595E+04 -5.398426E+04  1.008014E+05  3.761953E-10  1.193827E-09
       276  18 -2.365262E+05 -5.273919E+04 -3.519543E+04  1.088179E+05 -8.552170E-11 -3.282731E-10
       276  19  3.839435E+05  1.022691E+05  9.742181E+04  1.135866E+05 -3.504540E+04  4.012398E+03
       276  20  3.029369E+05  7.550705E+04  6.055399E+04  1.055735E+05 -1.400364E+04  1.270303E+04
       276  21  2.261258E+05  5.460097E+04  3.884404E+04  1.095852E+05  7.039594E+03  1.332551E+04
       276  22 -5.242905E+03  6.249499E+03  6.457040E+03  1.091973E+05 -4.531221E+03  4.036651E+03
       276  23 -5.649051E+03  2.343332E+03  3.286855E+03  1.031869E+05 -2.864709E+03  1.271271E+04
       276  24 -5.226823E+03  9.323183E+02  1.825132E+03  1.092014E+05 -1.193822E+03  1.331889E+04
       276  25 -3.942877E+05 -8.978024E+04 -8.451452E+04  1.048107E+05  2.596396E+04  4.060482E+03
       276  26 -3.141426E+05 -7.082576E+04 -5.398383E+04  1.008015E+05  8.268832E+03  1.272231E+04
       276  27 -2.365261E+05 -5.273898E+04 -3.519493E+04  1.088178E+05 -9.424282E+03  1.331227E+04
       277   1  1.767454E+05  4.283535E+04  2.982443E+04  1.097856E+05 -7.915878E+03 -1.095205E+04
       277   2  9.763727E+04  2.400108E+04  1.603360E+04  1.032496E+05 -1.061866E+04 -6.788498E+03
       277   3  1.903893E+04  5.851494E+03  4.167444E+03  1.093351E+05 -1.332193E+04 -1.679202E+03
       277   4 -5.383140E+03  7.275284E+02  1.398564E+03  1.093339E+05  9.491318E+02 -1.094459E+04
       277   5 -5.434545E+03  3.526487E+02  8.592044E+02  1.030233E+05  5.160004E+02 -6.778758E+03
       277   6 -5.377625E+03  2.684177E+02  6.680363E+02  1.093343E+05  8.202254E+01 -1.667107E+03
       277   7 -1.874784E+05 -4.138188E+04 -2.702779E+04  1.088823E+05  9.811639E+03 -1.093713E+04
       277   8 -1.084954E+05 -2.329621E+04 -1.431492E+04  1.027969E+05  1.164889E+04 -6.769025E+03
       277   9 -2.979319E+04 -5.314590E+03 -2.830705E+03  1.093334E+05  1.348547E+04 -1.655011E+03
       277  10  1.767453E+05  4.283521E+04  2.982409E+04  1.097855E+05 -1.257881E-09 -2.994981E-10
       277  11  9.763714E+04  2.400100E+04  1.603331E+04  1.032496E+05  1.393311E-10  1.633304E-09
       277  12  1.903874E+04  5.851444E+03  4.167105E+03  1.093351E+05  2.195612E-09  1.599502E-09
       277  13 -5.383173E+03  7.273996E+02  1.398337E+03  1.093339E+05  6.404921E-10  2.884244E-09
       277  14 -5.434557E+03  3.525993E+02  8.591175E+02  1.030233E+05  3.399607E-10 -4.623980E-09
       277  15 -5.377626E+03  2.684147E+02  6.680311E+02  1.093343E+05  1.927176E-10  2.864200E-09
       277  16 -1.874785E+05 -4.138203E+04 -2.702820E+04  1.088824E+05  1.335601E-09 -1.671329E-09
       277  17 -1.084956E+05 -2.329630E+04 -1.431526E+04  1.027970E+05  9.045091E-11 -4.432253E-10
       277  18 -2.979339E+04 -5.314641E+03 -2.831052E+03  1.093334E+05 -2.305242E-09  7.637461E-10
       277  19  1.767454E+05  4.283535E+04  2.982443E+04  1.097856E+05  7.915878E+03  1.095205E+04
       277  20  9.763727E+04  2.400108E+04  1.603360E+04  1.032496E+05  1.061866E+04  6.788498E+03
       277  21  1.903893E+04  5.851494E+03  4.167444E+03  1.093351E+05  1.332193E+04  1.679202E+03
       277  22 -5.383140E+03  7.275284E+02  1.398564E+03  1.093339E+05 -9.491318E+02  1.094459E+04
       277  23 -5.434545E+03  3.526487E+02  8.592044E+02  1.030233E+05 -5.160004E+02  6.778758E+03
       277  24 -5.377625E+03  2.684177E+02  6.680363E+02  1.093343E+05 -8.202254E+01  1.667107E+03
       277  25 -1.874784E+05 -4.138188E+04 -2.702779E+04  1.088823E+05 -9.811639E+03  1.093713E+04
       277  26 -1.084954E+05 -2.329621E+04 -1.431492E+04  1.027969E+05 -1.164889E+04  6.769025E+03
       277  27 -2.979319E+04 -5.314590E+03 -2.830705E+03  1.093334E+05 -1.348547E+04  1.655011E+03
       278   1 -2.974393E+04 -5.304565E+03 -2.833081E+03  1.093333E+05 -1.343571E+04  1.651159E+03
       278   2 -1.084420E+05 -2.330082E+04 -1.435825E+04  1.028117E+05 -1.157431E+04  6.765275E+03
       278   3 -1.874292E+05 -4.142184E+04 -2.713341E+04  1.089118E+05 -9.712253E+03  1.093364E+04
       278   4 -5.379508E+03  2.668730E+02  6.589645E+02  1.093343E+05 -3.224479E+01  1.663255E+03
       278   5 -5.432189E+03  3.364279E+02  8.090631E+02  1.030233E+05 -4.410324E+02  6.775009E+03
       278   6 -5.385020E+03  6.758518E+02  1.285758E+03  1.093339E+05 -8.489734E+02  1.094110E+04
       278   7  1.898590E+04  5.838381E+03  4.151676E+03  1.093352E+05  1.337172E+04  1.675350E+03
       278   8  9.758853E+04  2.397325E+04  1.597665E+04  1.032349E+05  1.069402E+04  6.784749E+03
       278   9  1.766924E+05  4.277196E+04  2.970443E+04  1.097561E+05  8.016808E+03  1.094856E+04
       278  10 -2.974412E+04 -5.304616E+03 -2.833426E+03  1.093334E+05  2.410808E-09 -2.082210E-09
       278  11 -1.084421E+05 -2.330090E+04 -1.435858E+04  1.028117E+05  5.899204E-10 -2.526369E-09
       278  12 -1.874293E+05 -4.142199E+04 -2.713381E+04  1.089119E+05 -6.609446E-10 -1.184487E-09
       278  13 -5.379509E+03  2.668700E+02  6.589593E+02  1.093343E+05  5.243006E-10 -5.483189E-10
       278  14 -5.432201E+03  3.363785E+02  8.089765E+02  1.030233E+05  3.954371E-10 -1.599680E-09
       278  15 -5.385053E+03  6.757231E+02  1.285532E+03  1.093339E+05  9.349690E-11 -1.600328E-09
       278  16  1.898570E+04  5.838330E+03  4.151335E+03  1.093352E+05 -2.599915E-09 -1.008851E-09
       278  17  9.758839E+04  2.397317E+04  1.597635E+04  1.032348E+05 -4.984940E-10  9.058967E-10
       278  18  1.766923E+05  4.277181E+04  2.970409E+04  1.097560E+05  6.017141E-10  9.883071E-10
       278  19 -2.974393E+04 -5.304565E+03 -2.833081E+03  1.093333E+05  1.343571E+04 -1.651159E+03
       278  20 -1.084420E+05 -2.330082E+04 -1.435825E+04  1.028117E+05  1.157431E+04 -6.765275E+03
       278  21 -1.874292E+05 -4.142184E+04 -2.713341E+04  1.089118E+05  9.712253E+03 -1.093364E+04
       278  22 -5.379508E+03  2.668730E+02  6.589645E+02  1.093343E+05  3.224479E+01 -1.663255E+03
       278  23 -5.432189E+03  3.364279E+02  8.090631E+02  1.030233E+05  4.410324E+02 -6.775009E+03
       278  24 -5.385020E+03  6.758518E+02  1.285758E+03  1.093339E+05  8.489734E+02 -1.094110E+04
       278  25  1.898590E+04  5.838381E+03  4.151676E+03  1.093352E+05 -1.337172E+04 -1.675350E+03
       278  26  9.758853E+04  2.397325E+04  1.597665E+04  1.032349E+05 -1.069402E+04 -6.784749E+03
       278  27  1.766924E+05  4.277196E+04  2.970443E+04  1.097561E+05 -8.016808E+03 -1.094856E+04
       279   1 -2.364919E+05 -5.279832E+04 -3.534390E+04  1.088390E+05 -9.305132E+03  1.330896E+04
       279   2 -3.140706E+05 -7.101672E+04 -5.427269E+04  1.010036E+05  8.537195E+03  1.271996E+04
       279   3 -3.942541E+05 -9.032970E+04 -8.509716E+04  1.051938E+05  2.638152E+04  4.060097E+03
       279   4 -5.243833E+03  8.612078E+02  1.668716E+03  1.092015E+05 -1.073804E+03  1.331557E+04
       279   5 -5.627780E+03  2.140115E+03  2.989273E+03  1.031871E+05 -2.593051E+03  1.271036E+04
       279   6 -5.259913E+03  5.686925E+03  5.862751E+03  1.091977E+05 -4.107923E+03  4.036256E+03
       279   7  2.260576E+05  5.451809E+04  3.868018E+04  1.095642E+05  7.160482E+03  1.332219E+04
       279   8  3.029075E+05  7.529157E+04  6.024768E+04  1.053716E+05 -1.372869E+04  1.270069E+04
       279   9  3.838759E+05  1.016934E+05  9.681587E+04  1.132041E+05 -3.461635E+04  4.012031E+03
       279  10 -2.364921E+05 -5.279854E+04 -3.534439E+04  1.088391E+05  4.135197E-09 -3.147967E-09
       279  11 -3.140707E+05 -7.101691E+04 -5.427313E+04  1.010035E+05 -4.886183E-10 -9.069399E-10
       279  12 -3.942549E+05 -9.032991E+04 -8.509850E+04  1.051937E+05 -4.202308E-09 -1.051740E-09
       279  13 -5.243882E+03  8.610171E+02  1.668381E+03  1.092015E+05  4.985887E-10 -1.420450E-09
       279  14 -5.627830E+03  2.139940E+03  2.988956E+03  1.031871E+05  2.471780E-10 -3.397696E-09
       279  15 -5.259936E+03  5.686903E+03  5.862688E+03  1.091977E+05 -4.189993E-11 -1.102316E-09
       279  16  2.260575E+05  5.451789E+04  3.867975E+04  1.095641E+05 -4.143948E-09 -1.001862E-09
       279  17  3.029073E+05  7.529134E+04  6.024703E+04  1.053718E+05  6.457566E-10 -9.448666E-11
       279  18  3.838746E+05  1.016930E+05  9.681359E+04  1.132042E+05  4.047893E-09 -9.258047E-10
       279  19 -2.364919E+05 -5.279832E+04 -3.534390E+04  1.088390E+05  9.305132E+03 -1.330896E+04
       279  20 -3.140706E+05 -7.101672E+04 -5.427269E+04  1.010036E+05 -8.537195E+03 -1.271996E+04
       279  21 -3.942541E+05 -9.032970E+04 -8.509716E+04  1.051938E+05 -2.638152E+04 -4.060097E+03
       279  22 -5.243833E+03  8.612078E+02  1.668716E+03  1.092015E+05  1.073804E+03 -1.331557E+04
       279  23 -5.627780E+03  2.140115E+03  2.989273E+03  1.031871E+05  2.593051E+03 -1.271036E+04
       279  24 -5.259913E+03  5.686925E+03  5.862751E+03  1.091977E+05  4.107923E+03 -4.036256E+03
       279  25  2.260576E+05  5.451809E+04  3.868018E+04  1.095642E+05 -7.160482E+03 -1.332219E+04
       279  26  3.029075E+05  7.529157E+04  6.024768E+04  1.053716E+05  1.372869E+04 -1.270069E+04
       279  27  3.838759E+05  1.016934E+05  9.681587E+04  1.132041E+05  3.461635E+04 -4.012031E+03
       280   1 -1.029144E+05 -4.505234E+05 -9.839589E+04  1.860642E+05 -3.387733E+03 -2.556502E+04
       280   2 -6.694830E+04 -3.144791E+05 -5.446241E+04  1.756445E+05 -9.412005E+03 -4.891361E+03
       280   3 -3.452142E+04 -1.819585E+05 -2.487671E+04  1.861051E+05 -6.685693E+03  1.579299E+04
       280   4 -1.385499E+02 -3.529713E+04  1.354099E+02  1.860490E+05 -3.394445E+03 -6.323751E+02
       280   5 -8.970979E+01 -3.533658E+04  6.295666E+02  1.756093E+05 -9.412641E+03 -9.473450E+02
       280   6  6.664370E+01 -3.527221E+04  1.357806E+03  1.860490E+05 -6.682078E+03 -1.256491E+03
       280   7  1.026252E+05  3.800888E+05  9.865703E+04  1.860338E+05 -3.401158E+03  2.431687E+04
       280   8  6.676416E+04  2.438806E+05  5.571779E+04  1.755740E+05 -9.413277E+03  2.998408E+03
       280   9  3.465367E+04  1.114357E+05  2.759259E+04  1.859929E+05 -6.678460E+03 -1.830988E+04
       280  10 -1.029145E+05 -4.505241E+05 -9.839714E+04  1.860641E+05 -2.456101E-10 -1.275145E-09
       280  11 -6.694841E+04 -3.144792E+05 -5.446263E+04  1.756445E+05 -6.991600E-10 -9.243365E-11
       280  12 -3.452153E+04 -1.819588E+05 -2.487726E+04  1.861052E+05 -7.110984E-10 -5.409532E-10
       280  13 -1.385623E+02 -3.529714E+04  1.353875E+02  1.860490E+05  7.023718E-11  7.219653E-10
       280  14 -8.980516E+01 -3.533661E+04  6.293984E+02  1.756092E+05 -1.248061E-09 -1.187545E-09
       280  15  6.659533E+01 -3.527222E+04  1.357719E+03  1.860490E+05 -7.360391E-10  5.162363E-10
       280  16  1.026250E+05  3.800882E+05  9.865590E+04  1.860339E+05 -1.429575E-10  1.104953E-09
       280  17  6.676407E+04  2.438806E+05  5.571761E+04  1.755740E+05 -7.579225E-10  3.507729E-10
       280  18  3.465353E+04  1.114353E+05  2.759188E+04  1.859928E+05 -1.053224E-09 -8.472918E-11
       280  19 -1.029144E+05 -4.505234E+05 -9.839589E+04  1.860642E+05  3.387733E+03  2.556502E+04
       280  20 -6.694830E+04 -3.144791E+05 -5.446241E+04  1.756445E+05  9.412005E+03  4.891361E+03
       280  21 -3.452142E+04 -1.819585E+05 -2.487671E+04  1.861051E+05  6.685693E+03 -1.579299E+04
       280  22 -1.385499E+02 -3.529713E+04  1.354099E+02  1.860490E+05  3.394445E+03  6.323751E+02
       280  23 -8.970979E+01 -3.533658E+04  6.295666E+02  1.756093E+05  9.412641E+03  9.473450E+02
       280  24  6.664370E+01 -3.527221E+04  1.357806E+03  1.860490E+05  6.682078E+03  1.256491E+03
       280  25  1.026252E+05  3.800888E+05  9.865703E+04  1.860338E+05  3.401158E+03 -2.431687E+04
       280  26  6.676416E+04  2.438806E+05  5.571779E+04  1.755740E+05  9.413277E+03 -2.998408E+03
       280  27  3.465367E+04  1.114357E+05  2.759259E+04  1.859929E+05  6.678460E+03  1.830988E+04
       281   1 -1.498433E+04 -9.831639E+04 -1.065933E+04  1.861345E+05 -2.093056E+03  1.611174E+04
       281   2  1.694744E+04  3.558525E+04  1.325622E+04  1.762139E+05  5.068659E+03  1.349881E+04
       281   3  5.023636E+04  1.702166E+05  3.921972E+04  1.877262E+05  1.185458E+04  1.088542E+04
       281   4  1.507276E+02 -3.516860E+04  1.862941E+03  1.861720E+05 -2.089582E+03 -1.525145E+03
       281   5  7.741137E+02 -3.544970E+04  3.421727E+03  1.754558E+05  5.072279E+03 -3.237671E+03
       281   6  2.599177E+03 -3.517500E+04  6.402920E+03  1.861727E+05  1.185832E+04 -4.950143E+03
       281   7  1.528571E+04  2.798368E+04  1.438618E+04  1.862094E+05 -2.086110E+03 -1.916379E+04
       281   8 -1.539928E+04 -1.064789E+05 -6.411768E+03  1.746979E+05  5.075940E+03 -1.997233E+04
       281   9 -4.503998E+04 -2.405242E+05 -2.641404E+04  1.846197E+05  1.186214E+04 -2.078065E+04
       281  10 -1.498440E+04 -9.831667E+04 -1.065983E+04  1.861346E+05 -6.721770E-10  2.491026E-08
       281  11  1.694736E+04  3.558505E+04  1.325583E+04  1.762138E+05  5.602931E-10 -4.408121E-08
       281  12  5.023618E+04  1.702165E+05  3.921924E+04  1.877261E+05  1.489275E-09 -1.121933E-07
       281  13  1.507223E+02 -3.516860E+04  1.862928E+03  1.861720E+05 -6.812753E-10  1.620560E-09
       281  14  7.740832E+02 -3.544972E+04  3.421659E+03  1.754558E+05  4.954374E-10 -6.861357E-10
       281  15  2.599020E+03 -3.517507E+04  6.402610E+03  1.861728E+05  1.498553E-09  4.882067E-10
       281  16  1.528561E+04  2.798328E+04  1.438549E+04  1.862094E+05 -6.138139E-10 -2.477125E-08
       281  17 -1.539941E+04 -1.064794E+05 -6.412567E+03  1.746979E+05  2.055074E-10  4.434609E-08
       281  18 -4.504024E+04 -2.405247E+05 -2.641512E+04  1.846199E+05  7.895649E-10  1.115448E-07
       281  19 -1.498433E+04 -9.831639E+04 -1.065933E+04  1.861345E+05  2.093056E+03 -1.611174E+04
       281  20  1.694744E+04  3.558525E+04  1.325622E+04  1.762139E+05 -5.068659E+03 -1.349881E+04
       281  21  5.023636E+04  1.702166E+05  3.921972E+04  1.877262E+05 -1.185458E+04 -1.088542E+04
       281  22  1.507276E+02 -3.516860E+04  1.862941E+03  1.861720E+05  2.089582E+03  1.525145E+03
       281  23  7.741137E+02 -3.544970E+04  3.421727E+03  1.754558E+05 -5.072279E+03  3.237671E+03
       281  24  2.599177E+03 -3.517500E+04  6.402920E+03  1.861727E+05 -1.185832E+04  4.950143E+03
       281  25  1.528571E+04  2.798368E+04  1.438618E+04  1.862094E+05  2.086110E+03  1.916379E+04
       281  26 -1.539928E+04 -1.064789E+05 -6.411768E+03  1.746979E+05 -5.075940E+03  1.997233E+04
       281  27 -4.503998E+04 -2.405242E+05 -2.641404E+04  1.846197E+05 -1.186214E+04  2.078065E+04
       282   1  7.086686E+04  2.547383E+05  5.576594E+04  1.870715E+05  1.606700E+04  8.930189E+03
       282   2  1.106712E+05  3.846279E+05  9.533810E+04  1.862954E+05  1.653587E+04 -2.696921E+04
       282   3  1.673458E+05  5.234639E+05  1.624999E+05  2.061693E+05  5.429543E+03 -6.288502E+04
       282   4  3.616550E+03 -3.439219E+04  8.601538E+03  1.859976E+05  1.607118E+04 -6.067661E+03
       282   5  1.059464E+04 -3.646683E+04  1.591529E+04  1.756779E+05  1.653349E+04 -1.416969E+04
       282   6  2.962598E+04 -3.442924E+04  3.152417E+04  1.860073E+05  5.418082E+03 -2.228017E+04
       282   7 -6.363790E+04 -3.234394E+05 -3.856438E+04  1.849241E+05  1.607540E+04 -2.105877E+04
       282   8 -8.949171E+04 -4.573898E+05 -6.351464E+04  1.650679E+05  1.653068E+04 -1.378643E+03
       282   9 -1.081136E+05 -5.920315E+05 -9.946644E+04  1.658634E+05  5.403985E+03  1.828844E+04
       282  10  7.086656E+04  2.547381E+05  5.576530E+04  1.870714E+05  1.465672E-09  1.113766E-07
       282  11  1.106707E+05  3.846271E+05  9.533622E+04  1.862958E+05  3.896706E-10  4.549685E-08
       282  12  1.673447E+05  5.234596E+05  1.624924E+05  2.061696E+05 -4.938249E-11 -2.413231E-08
       282  13  3.616263E+03 -3.439230E+04  8.600983E+03  1.859976E+05  7.476932E-10  1.401146E-09
       282  14  1.059429E+04 -3.646712E+04  1.591440E+04  1.756781E+05  6.330608E-10 -1.000456E-09
       282  15  2.962581E+04 -3.442978E+04  3.152318E+04  1.860074E+05 -3.441533E-10  1.103559E-09
       282  16 -6.363830E+04 -3.234399E+05 -3.856570E+04  1.849244E+05  7.155966E-10 -1.113895E-07
       282  17 -8.949201E+04 -4.573899E+05 -6.351516E+04  1.650679E+05  3.694624E-10 -4.562672E-08
       282  18 -1.081137E+05 -5.920319E+05 -9.946713E+04  1.658633E+05 -1.877103E-10  2.358479E-08
       282  19  7.086686E+04  2.547383E+05  5.576594E+04  1.870715E+05 -1.606700E+04 -8.930189E+03
       282  20  1.106712E+05  3.846279E+05  9.533810E+04  1.862954E+05 -1.653587E+04  2.696921E+04
       282  21  1.673458E+05  5.234639E+05  1.624999E+05  2.061693E+05 -5.429543E+03  6.288502E+04
       282  22  3.616550E+03 -3.439219E+04  8.601538E+03  1.859976E+05 -1.607118E+04  6.067661E+03
       282  23  1.059464E+04 -3.646683E+04  1.591529E+04  1.756779E+05 -1.653349E+04  1.416969E+04
       282  24  2.962598E+04 -3.442924E+04  3.152417E+04  1.860073E+05 -5.418082E+03  2.228017E+04
       282  25 -6.363790E+04 -3.234394E+05 -3.856438E+04  1.849241E+05 -1.607540E+04  2.105877E+04
       282  26 -8.949171E+04 -4.573898E+05 -6.351464E+04  1.650679E+05 -1.653068E+04  1.378643E+03
       282  27 -1.081136E+05 -5.920315E+05 -9.946644E+04  1.658634E+05 -5.403985E+03 -1.828844E+04
       283   1  1.647391E+05  4.742437E+04  4.573314E+04  6.157851E+04  1.647725E+04 -1.572062E+03
       283   2  1.222558E+05  3.190770E+04  2.699567E+04  5.636795E+04  6.373881E+03 -4.766753E+03
       283   3  8.208095E+04  2.038870E+04  1.583355E+04  5.751984E+04 -3.730601E+03 -4.469708E+03
       283   4 -1.595256E+03  6.332576E+03  6.626351E+03  5.722106E+04  4.633905E+03 -1.580369E+03
       283   5 -2.019296E+03  2.328288E+03  3.383517E+03  5.404172E+04  2.913053E+03 -4.769288E+03
       283   6 -1.591855E+03  8.669917E+02  1.895997E+03  5.722476E+04  1.190244E+03 -4.466213E+03
       283   7 -1.679038E+05 -3.476104E+04 -3.248180E+04  5.286477E+04 -7.206283E+03 -1.588510E+03
       283   8 -1.262795E+05 -2.725201E+04 -2.022928E+04  5.171597E+04 -5.470987E+02 -4.771798E+03
       283   9 -8.525769E+04 -1.865507E+04 -1.204168E+04  5.692973E+04  6.110449E+03 -4.462722E+03
       283  10  1.647388E+05  4.742429E+04  4.573263E+04  6.157853E+04 -3.643080E-11  3.952863E-10
       283  11  1.222558E+05  3.190767E+04  2.699555E+04  5.636797E+04 -5.498132E-10 -3.651377E-10
       283  12  8.208093E+04  2.038867E+04  1.583349E+04  5.751983E+04 -7.519477E-10 -1.722733E-10
       283  13 -1.595279E+03  6.332568E+03  6.626306E+03  5.722106E+04  3.154044E-10  8.721423E-10
       283  14 -2.019311E+03  2.328261E+03  3.383458E+03  5.404173E+04  5.006073E-10 -5.083454E-10
       283  15 -1.591862E+03  8.669699E+02  1.895956E+03  5.722477E+04  3.292187E-10  1.028001E-09
       283  16 -1.679038E+05 -3.476106E+04 -3.248190E+04  5.286476E+04 -2.309569E-10  2.777726E-11
       283  17 -1.262795E+05 -2.725203E+04 -2.022932E+04  5.171597E+04  1.047409E-09 -2.176376E-09
       283  18 -8.525774E+04 -1.865510E+04 -1.204179E+04  5.692975E+04  7.762048E-10 -9.730473E-10
       283  19  1.647391E+05  4.742437E+04  4.573314E+04  6.157851E+04 -1.647725E+04  1.572062E+03
       283  20  1.222558E+05  3.190770E+04  2.699567E+04  5.636795E+04 -6.373881E+03  4.766753E+03
       283  21  8.208095E+04  2.038870E+04  1.583355E+04  5.751984E+04  3.730601E+03  4.469708E+03
       283  22 -1.595256E+03  6.332576E+03  6.626351E+03  5.722106E+04 -4.633905E+03  1.580369E+03
       283  23 -2.019296E+03  2.328288E+03  3.383517E+03  5.404172E+04 -2.913053E+03  4.769288E+03
       283  24 -1.591855E+03  8.669917E+02  1.895997E+03  5.722476E+04 -1.190244E+03  4.466213E+03
       283  25 -1.679038E+05 -3.476104E+04 -3.248180E+04  5.286477E+04  7.206283E+03  1.588510E+03
       283  26 -1.262795E+05 -2.725201E+04 -2.022928E+04  5.171597E+04  5.470987E+02  4.771798E+03
       283  27 -8.525769E+04 -1.865507E+04 -1.204168E+04  5.692973E+04 -6.110449E+03  4.462722E+03
       284   1  5.618635E+04  1.416572E+04  1.109438E+04  5.766341E+04 -4.256748E+03 -3.112335E+03
       284   2  1.473577E+04  4.173895E+03  3.902563E+03  5.414697E+04 -5.649038E+03 -7.584987E+02
       284   3 -2.642888E+04 -5.362763E+03 -2.272242E+03  5.725054E+04 -7.041508E+03  1.978193E+03
       284   4 -1.752555E+03  6.524672E+02  1.468187E+03  5.728185E+04  9.356482E+02 -3.108586E+03
       284   5 -1.815003E+03  2.716822E+02  9.435430E+02  5.397200E+04  4.621418E+02 -7.540619E+02
       284   6 -1.752097E+03  1.867884E+02  7.980158E+02  5.728217E+04 -1.161635E+01  1.983322E+03
       284   7 -5.968809E+04 -1.286095E+04 -8.158008E+03  5.690032E+04  6.127576E+03 -3.104844E+03
       284   8 -1.836543E+04 -3.630526E+03 -2.015347E+03  5.379704E+04  6.573163E+03 -7.496286E+02
       284   9  2.292542E+04  5.736342E+03  3.868458E+03  5.731380E+04  7.018540E+03  1.988452E+03
       284  10  5.618633E+04  1.416571E+04  1.109433E+04  5.766340E+04 -2.257947E-09  3.521492E-10
       284  11  1.473573E+04  4.173886E+03  3.902502E+03  5.414697E+04  1.939958E-10 -8.092581E-10
       284  12 -2.642893E+04 -5.362780E+03 -2.272343E+03  5.725055E+04  2.806181E-09  3.159470E-10
       284  13 -1.752559E+03  6.524566E+02  1.468167E+03  5.728185E+04  3.398274E-10  1.026847E-09
       284  14 -1.815004E+03  2.716815E+02  9.435415E+02  5.397200E+04  3.724063E-10  1.836389E-09
       284  15 -1.752098E+03  1.867841E+02  7.980084E+02  5.728217E+04  1.788900E-10  8.376637E-11
       284  16 -5.968813E+04 -1.286097E+04 -8.158097E+03  5.690034E+04  2.039674E-09  2.094639E-09
       284  17 -1.836547E+04 -3.630538E+03 -2.015429E+03  5.379704E+04 -1.328246E-10 -3.068789E-10
       284  18  2.292536E+04  5.736324E+03  3.868358E+03  5.731379E+04 -3.004239E-09  1.049856E-10
       284  19  5.618635E+04  1.416572E+04  1.109438E+04  5.766341E+04  4.256748E+03  3.112335E+03
       284  20  1.473577E+04  4.173895E+03  3.902563E+03  5.414697E+04  5.649038E+03  7.584987E+02
       284  21 -2.642888E+04 -5.362763E+03 -2.272242E+03  5.725054E+04  7.041508E+03 -1.978193E+03
       284  22 -1.752555E+03  6.524672E+02  1.468187E+03  5.728185E+04 -9.356482E+02  3.108586E+03
       284  23 -1.815003E+03  2.716822E+02  9.435430E+02  5.397200E+04 -4.621418E+02  7.540619E+02
       284  24 -1.752097E+03  1.867884E+02  7.980158E+02  5.728217E+04  1.161635E+01 -1.983322E+03
       284  25 -5.968809E+04 -1.286095E+04 -8.158008E+03  5.690032E+04 -6.127576E+03  3.104844E+03
       284  26 -1.836543E+04 -3.630526E+03 -2.015347E+03  5.379704E+04 -6.573163E+03  7.496286E+02
       284  27  2.292542E+04  5.736342E+03  3.868458E+03  5.731380E+04 -7.018540E+03 -1.988452E+03
       285   1 -5.197739E+04 -1.120204E+04 -5.906287E+03  5.727075E+04 -7.163027E+03  3.722934E+03
       285   2 -9.323395E+04 -2.055093E+04 -1.183590E+04  5.371608E+04 -6.256291E+03  6.342337E+03
       285   3 -1.345895E+05 -2.979197E+04 -1.833190E+04  5.676661E+04 -5.349138E+03  8.353652E+03
       285   4 -1.746388E+03  1.910622E+02  8.265468E+02  5.727886E+04 -1.490739E+02  3.728009E+03
       285   5 -1.823995E+03  3.199123E+02  1.101020E+03  5.397609E+04 -7.018222E+02  6.346204E+03
       285   6 -1.748953E+03  8.100335E+02  1.822578E+03  5.727843E+04 -1.254097E+03  8.356359E+03
       285   7  4.848729E+04  1.158408E+04  7.559543E+03  5.728698E+04  6.865421E+03  3.733084E+03
       285   8  8.959448E+04  2.119040E+04  1.403794E+04  5.423614E+04  4.853429E+03  6.350076E+03
       285   9  1.311093E+05  3.141121E+04  2.197675E+04  5.779036E+04  2.841786E+03  8.359073E+03
       285  10 -5.197745E+04 -1.120207E+04 -5.906409E+03  5.727077E+04  1.379415E-09 -1.277461E-09
       285  11 -9.323400E+04 -2.055098E+04 -1.183605E+04  5.371612E+04 -9.965124E-10 -6.081580E-10
       285  12 -1.345895E+05 -2.979206E+04 -1.833208E+04  5.676665E+04 -2.576850E-09 -1.250255E-09
       285  13 -1.746391E+03  1.910473E+02  8.265206E+02  5.727886E+04  2.095487E-10 -2.452356E-09
       285  14 -1.824006E+03  3.198689E+02  1.100944E+03  5.397610E+04  9.736147E-11  5.609901E-10
       285  15 -1.748973E+03  8.099581E+02  1.822444E+03  5.727844E+04  5.605116E-11  8.258686E-10
       285  16  4.848724E+04  1.158406E+04  7.559429E+03  5.728696E+04 -1.518166E-09 -9.236413E-10
       285  17  8.959444E+04  2.119035E+04  1.403782E+04  5.423612E+04  1.020524E-09 -7.148071E-10
       285  18  1.311093E+05  3.141113E+04  2.197661E+04  5.779034E+04  2.229982E-09  1.252937E-09
       285  19 -5.197739E+04 -1.120204E+04 -5.906287E+03  5.727075E+04  7.163027E+03 -3.722934E+03
       285  20 -9.323395E+04 -2.055093E+04 -1.183590E+04  5.371608E+04  6.256291E+03 -6.342337E+03
       285  21 -1.345895E+05 -2.979197E+04 -1.833190E+04  5.676661E+04  5.349138E+03 -8.353652E+03
       285  22 -1.746388E+03  1.910622E+02  8.265468E+02  5.727886E+04  1.490739E+02 -3.728009E+03
       285  23 -1.823995E+03  3.199123E+02  1.101020E+03  5.397609E+04  7.018222E+02 -6.346204E+03
       285  24 -1.748953E+03  8.100335E+02  1.822578E+03  5.727843E+04  1.254097E+03 -8.356359E+03
       285  25  4.848729E+04  1.158408E+04  7.559543E+03  5.728698E+04 -6.865421E+03 -3.733084E+03
       285  26  8.959448E+04  2.119040E+04  1.403794E+04  5.423614E+04 -4.853429E+03 -6.350076E+03
       285  27  1.311093E+05  3.141121E+04  2.197675E+04  5.779036E+04 -2.841786E+03 -8.359073E+03
       286   1 -1.602127E+05 -3.562291E+04 -2.245980E+04  5.679900E+04 -5.275516E+03  9.484037E+03
       286   2 -2.010582E+05 -4.412081E+04 -3.207089E+04  5.108222E+04  4.436369E+03  8.553018E+03
       286   3 -2.428749E+05 -5.142782E+04 -4.770910E+04  5.160200E+04  1.414997E+04  2.658310E+03
       286   4 -1.541052E+03  1.084585E+03  2.387487E+03  5.719666E+04 -1.570917E+03  9.486372E+03
       286   5 -2.090928E+03  2.959930E+03  4.318256E+03  5.407623E+04 -3.768746E+03  8.547345E+03
       286   6 -1.546467E+03  8.093678E+03  8.493377E+03  5.719209E+04 -5.964004E+03  2.645446E+03
       286   7  1.571557E+05  3.779085E+04  2.723422E+04  5.759443E+04  2.134593E+03  9.488711E+03
       286   8  1.969149E+05  5.003849E+04  4.070606E+04  5.707122E+04 -1.197642E+04  8.541594E+03
       286   9  2.398367E+05  6.761139E+04  6.469345E+04  6.278435E+04 -2.608575E+04  2.632223E+03
       286  10 -1.602127E+05 -3.562302E+04 -2.246002E+04  5.679904E+04  7.943818E-10  3.955608E-10
       286  11 -2.010582E+05 -4.412089E+04 -3.207107E+04  5.108219E+04  1.163124E-09  7.473786E-10
       286  12 -2.428752E+05 -5.142788E+04 -4.770949E+04  5.160197E+04  9.926666E-10  1.750926E-09
       286  13 -1.541079E+03  1.084488E+03  2.387313E+03  5.719668E+04  1.860019E-10  1.740977E-09
       286  14 -2.090963E+03  2.959848E+03  4.318092E+03  5.407626E+04  8.680754E-11 -6.054387E-11
       286  15 -1.546507E+03  8.093661E+03  8.493297E+03  5.719210E+04  1.450570E-10  1.169933E-09
       286  16  1.571557E+05  3.779075E+04  2.723404E+04  5.759441E+04 -1.322814E-09  1.069729E-09
       286  17  1.969148E+05  5.003838E+04  4.070565E+04  5.707130E+04 -1.066550E-09  1.890205E-09
       286  18  2.398359E+05  6.761120E+04  6.469216E+04  6.278441E+04 -1.496411E-09  3.157729E-10
       286  19 -1.602127E+05 -3.562291E+04 -2.245980E+04  5.679900E+04  5.275516E+03 -9.484037E+03
       286  20 -2.010582E+05 -4.412081E+04 -3.207089E+04  5.108222E+04 -4.436369E+03 -8.553018E+03
       286  21 -2.428749E+05 -5.142782E+04 -4.770910E+04  5.160200E+04 -1.414997E+04 -2.658310E+03
       286  22 -1.541052E+03  1.084585E+03  2.387487E+03  5.719666E+04  1.570917E+03 -9.486372E+03
       286  23 -2.090928E+03  2.959930E+03  4.318256E+03  5.407623E+04  3.768746E+03 -8.547345E+03
       286  24 -1.546467E+03  8.093678E+03  8.493377E+03  5.719209E+04  5.964004E+03 -2.645446E+03
       286  25  1.571557E+05  3.779085E+04  2.723422E+04  5.759443E+04 -2.134593E+03 -9.488711E+03
       286  26  1.969149E+05  5.003849E+04  4.070606E+04  5.707122E+04  1.197642E+04 -8.541594E+03
       286  27  2.398367E+05  6.761139E+04  6.469345E+04  6.278435E+04  2.608575E+04 -2.632223E+03
       287   1 -6.631816E+04 -3.010781E+05 -6.352219E+04  1.188093E+05 -2.150209E+03 -1.674949E+04
       287   2 -4.289756E+04 -2.146317E+05 -3.528813E+04  1.118715E+05 -5.980397E+03 -3.267088E+03
       287   3 -2.214260E+04 -1.305784E+05 -1.649878E+04  1.181883E+05 -4.253544E+03  1.022095E+04
       287   4 -1.045426E+03 -3.734715E+04 -9.463358E+02  1.181156E+05 -2.156318E+03 -9.067223E+02
       287   5 -4.267198E+02 -3.729929E+04 -2.946077E+02  1.114886E+05 -5.981194E+03 -7.557099E+02
       287   6 -1.580271E+02 -3.733709E+04  1.730470E+02  1.181159E+05 -4.249753E+03 -6.011459E+02
       287   7  6.422244E+04  2.264482E+05  6.162562E+04  1.174215E+05 -2.162462E+03  1.494274E+04
       287   8  4.204221E+04  1.400632E+05  3.469740E+04  1.111055E+05 -5.981995E+03  1.756371E+03
       287   9  2.182612E+04  5.591297E+04  1.684499E+04  1.180436E+05 -4.245959E+03 -1.142482E+04
       287  10 -6.631824E+04 -3.010784E+05 -6.352273E+04  1.188093E+05 -5.019991E-10 -1.066733E-09
       287  11 -4.289760E+04 -2.146317E+05 -3.528822E+04  1.118715E+05 -1.415406E-09  1.202407E-09
       287  12 -2.214264E+04 -1.305785E+05 -1.649901E+04  1.181884E+05 -4.539732E-10  7.148432E-10
       287  13 -1.045431E+03 -3.734715E+04 -9.463460E+02  1.181156E+05 -1.863188E-10  6.605113E-12
       287  14 -4.267584E+02 -3.729930E+04 -2.946760E+02  1.114886E+05 -1.614646E-09 -2.828476E-10
       287  15 -1.580466E+02 -3.733709E+04  1.730124E+02  1.181159E+05 -3.104253E-10 -1.791129E-10
       287  16  6.422238E+04  2.264480E+05  6.162519E+04  1.174215E+05 -2.687780E-10  1.201441E-09
       287  17  4.204218E+04  1.400632E+05  3.469733E+04  1.111055E+05 -5.987572E-10 -1.414322E-09
       287  18  2.182607E+04  5.591283E+04  1.684471E+04  1.180435E+05  6.469491E-11 -3.015135E-09
       287  19 -6.631816E+04 -3.010781E+05 -6.352219E+04  1.188093E+05  2.150209E+03  1.674949E+04
       287  20 -4.289756E+04 -2.146317E+05 -3.528813E+04  1.118715E+05  5.980397E+03  3.267088E+03
       287  21 -2.214260E+04 -1.305784E+05 -1.649878E+04  1.181883E+05  4.253544E+03 -1.022095E+04
       287  22 -1.045426E+03 -3.734715E+04 -9.463358E+02  1.181156E+05  2.156318E+03  9.067223E+02
       287  23 -4.267198E+02 -3.729929E+04 -2.946077E+02  1.114886E+05  5.981194E+03  7.557099E+02
       287  24 -1.580271E+02 -3.733709E+04  1.730470E+02  1.181159E+05  4.249753E+03  6.011459E+02
       287  25  6.422244E+04  2.264482E+05  6.162562E+04  1.174215E+05  2.162462E+03 -1.494274E+04
       287  26  4.204221E+04  1.400632E+05  3.469740E+04  1.111055E+05  5.981995E+03 -1.756371E+03
       287  27  2.182612E+04  5.591297E+04  1.684499E+04  1.180436E+05  4.245959E+03  1.142482E+04
       288   1 -9.733418E+03 -7.748574E+04 -7.559803E+03  1.182400E+05 -1.338468E+03  1.054188E+04
       288   2  1.040613E+04  7.608159E+03  7.234984E+03  1.116539E+05  3.207766E+03  9.468085E+03
       288   3  3.099072E+04  9.298092E+04  2.284533E+04  1.186737E+05  7.516110E+03  8.394126E+03
       288   4 -9.802755E+01 -3.727840E+04  4.067750E+02  1.181940E+05 -1.334654E+03 -6.531026E+02
       288   5  1.661299E+02 -3.736602E+04  1.008523E+03  1.113912E+05  3.211520E+03 -1.156612E+03
       288   6  7.766328E+02 -3.728098E+04  2.029605E+03  1.181944E+05  7.519788E+03 -1.660151E+03
       288   7  9.537332E+03  2.930751E+03  8.373744E+03  1.181480E+05 -1.330838E+03 -1.184879E+04
       288   8 -1.007389E+04 -8.233791E+04 -5.217538E+03  1.111286E+05  3.215283E+03 -1.178057E+04
       288   9 -2.943825E+04 -1.675258E+05 -1.878618E+04  1.177153E+05  7.523483E+03 -1.171239E+04
       288  10 -9.733450E+03 -7.748586E+04 -7.560015E+03  1.182401E+05 -4.424864E-10 -1.135154E-09
       288  11  1.040609E+04  7.608060E+03  7.234797E+03  1.116538E+05 -8.792087E-10  5.276235E-10
       288  12  3.099064E+04  9.298083E+04  2.284509E+04  1.186736E+05 -3.067257E-10  1.174707E-10
       288  13 -9.802957E+01 -3.727840E+04  4.067709E+02  1.181940E+05 -1.144952E-10 -1.077484E-09
       288  14  1.661185E+02 -3.736603E+04  1.008501E+03  1.113912E+05  1.911418E-11 -5.277158E-10
       288  15  7.765713E+02 -3.728100E+04  2.029494E+03  1.181944E+05  1.116177E-09  3.703869E-10
       288  16  9.537292E+03  2.930600E+03  8.373477E+03  1.181480E+05  5.584693E-10  1.132005E-09
       288  17 -1.007394E+04 -8.233806E+04 -5.217818E+03  1.111286E+05  3.764821E-10  6.595352E-10
       288  18 -2.943835E+04 -1.675260E+05 -1.878654E+04  1.177153E+05  1.215014E-09 -2.225510E-09
       288  19 -9.733418E+03 -7.748574E+04 -7.559803E+03  1.182400E+05  1.338468E+03 -1.054188E+04
       288  20  1.040613E+04  7.608159E+03  7.234984E+03  1.116539E+05 -3.207766E+03 -9.468085E+03
       288  21  3.099072E+04  9.298092E+04  2.284533E+04  1.186737E+05 -7.516110E+03 -8.394126E+03
       288  22 -9.802755E+01 -3.727840E+04  4.067750E+02  1.181940E+05  1.334654E+03  6.531026E+02
       288  23  1.661299E+02 -3.736602E+04  1.008523E+03  1.113912E+05 -3.211520E+03  1.156612E+03
       288  24  7.766328E+02 -3.728098E+04  2.029605E+03  1.181944E+05 -7.519788E+03  1.660151E+03
       288  25  9.537332E+03  2.930751E+03  8.373744E+03  1.181480E+05  1.330838E+03  1.184879E+04
       288  26 -1.007389E+04 -8.233791E+04 -5.217538E+03  1.111286E+05 -3.215283E+03  1.178057E+04
       288  27 -2.943825E+04 -1.675258E+05 -1.878618E+04  1.177153E+05 -7.523483E+03  1.171239E+04
       289   1  4.377518E+04  1.463935E+05  3.268586E+04  1.183978E+05  1.019081E+04  7.507413E+03
       289   2  6.689665E+04  2.294735E+05  5.556877E+04  1.149391E+05  1.049215E+04 -1.276214E+04
       289   3  9.699801E+04  3.169669E+05  9.339481E+04  1.245871E+05  3.446844E+03 -3.303938E+04
       289   4  1.110083E+03 -3.702294E+04  2.762363E+03  1.180831E+05  1.019455E+04 -2.015598E+03
       289   5  3.391239E+03 -3.770415E+04  5.169252E+03  1.115318E+05  1.048933E+04 -4.646899E+03
       289   6  9.592832E+03 -3.703788E+04  1.027353E+04  1.180870E+05  3.436199E+03 -7.283192E+03
       289   7 -4.155668E+04 -2.204058E+05 -2.716175E+04  1.177685E+05  1.019830E+04 -1.153589E+04
       289   8 -6.011825E+04 -3.048127E+05 -4.523315E+04  1.081259E+05  1.048642E+04  3.464933E+03
       289   9 -7.782075E+04 -3.909258E+05 -7.285382E+04  1.115906E+05  3.425012E+03  1.845841E+04
       289  10  4.377506E+04  1.463934E+05  3.268556E+04  1.183977E+05 -9.867069E-11 -7.332334E-10
       289  11  6.689649E+04  2.294733E+05  5.556826E+04  1.149393E+05 -6.196623E-10  4.248939E-10
       289  12  9.699770E+04  3.169657E+05  9.339274E+04  1.245872E+05 -5.047135E-10 -3.277699E-10
       289  13  1.109970E+03 -3.702297E+04  2.762160E+03  1.180831E+05  3.100246E-10 -4.838472E-12
       289  14  3.391115E+03 -3.770420E+04  5.169004E+03  1.115318E+05  1.250543E-10 -2.619776E-10
       289  15  9.592805E+03 -3.703794E+04  1.027341E+04  1.180870E+05 -7.302711E-10  6.029013E-10
       289  16 -4.155683E+04 -2.204060E+05 -2.716219E+04  1.177686E+05  1.449013E-09  1.150403E-09
       289  17 -6.011837E+04 -3.048128E+05 -4.523338E+04  1.081259E+05  5.423079E-10  9.145630E-10
       289  18 -7.782086E+04 -3.909262E+05 -7.285448E+04  1.115905E+05  1.222837E-10 -1.392495E-09
       289  19  4.377518E+04  1.463935E+05  3.268586E+04  1.183978E+05 -1.019081E+04 -7.507413E+03
       289  20  6.689665E+04  2.294735E+05  5.556877E+04  1.149391E+05 -1.049215E+04  1.276214E+04
       289  21  9.699801E+04  3.169669E+05  9.339481E+04  1.245871E+05 -3.446844E+03  3.303938E+04
       289  22  1.110083E+03 -3.702294E+04  2.762363E+03  1.180831E+05 -1.019455E+04  2.015598E+03
       289  23  3.391239E+03 -3.770415E+04  5.169252E+03  1.115318E+05 -1.048933E+04  4.646899E+03
       289  24  9.592832E+03 -3.703788E+04  1.027353E+04  1.180870E+05 -3.436199E+03  7.283192E+03
       289  25 -4.155668E+04 -2.204058E+05 -2.716175E+04  1.177685E+05 -1.019830E+04  1.153589E+04
       289  26 -6.011825E+04 -3.048127E+05 -4.523315E+04  1.081259E+05 -1.048642E+04 -3.464933E+03
       289  27 -7.782075E+04 -3.909258E+05 -7.285382E+04  1.115906E+05 -3.425012E+03 -1.845841E+04
       290   1 -2.621244E+04 -1.457710E+05 -2.498766E+04  5.287811E+04 -8.605977E+02 -5.201237E+03
       290   2 -1.688004E+04 -1.065123E+05 -1.365619E+04  5.032384E+04 -2.302162E+03  4.165037E+01
       290   3 -7.919954E+03 -6.801898E+04 -5.830542E+03  5.382813E+04 -1.379087E+03  5.286277E+03
       290   4  1.459255E+03 -3.401249E+04  1.606228E+03  5.387369E+04 -8.634266E+02  1.089453E+03
       290   5  4.993600E+02 -3.412051E+04  8.460077E+02  5.084415E+04 -2.302414E+03  6.582639E+02
       290   6  1.523227E+02 -3.401065E+04  5.207254E+02  5.387307E+04 -1.376898E+03  2.284009E+02
       290   7  2.913008E+04  7.775757E+04  2.819939E+04  5.486946E+04 -8.662350E+02  7.381270E+03
       290   8  1.787844E+04  3.827629E+04  1.534794E+04  5.136453E+04 -2.302664E+03  1.274948E+03
       290   9  8.224547E+03 -1.138920E+00  6.872039E+03  5.391802E+04 -1.374709E+03 -4.829745E+03
       290  10 -2.621245E+04 -1.457710E+05 -2.498771E+04  5.287810E+04 -7.901511E-11 -5.974569E-10
       290  11 -1.688005E+04 -1.065123E+05 -1.365620E+04  5.032384E+04 -2.286607E-10  8.797369E-10
       290  12 -7.919964E+03 -6.801901E+04 -5.830598E+03  5.382813E+04 -8.278127E-11  1.145273E-10
       290  13  1.459254E+03 -3.401249E+04  1.606225E+03  5.387369E+04  1.820461E-10 -5.311739E-10
       290  14  4.993541E+02 -3.412051E+04  8.459970E+02  5.084416E+04 -3.751644E-10 -1.152922E-09
       290  15  1.523207E+02 -3.401065E+04  5.207217E+02  5.387307E+04 -9.191511E-11 -9.347700E-10
       290  16  2.913006E+04  7.775751E+04  2.819929E+04  5.486946E+04 -1.167222E-10 -2.416252E-11
       290  17  1.787844E+04  3.827629E+04  1.534792E+04  5.136453E+04 -2.952679E-10 -2.175506E-09
       290  18  8.224539E+03 -1.164475E+00  6.871992E+03  5.391801E+04 -7.542174E-10 -4.588637E-11
       290  19 -2.621244E+04 -1.457710E+05 -2.498766E+04  5.287811E+04  8.605977E+02  5.201237E+03
       290  20 -1.688004E+04 -1.065123E+05 -1.365619E+04  5.032384E+04  2.302162E+03 -4.165037E+01
       290  21 -7.919954E+03 -6.801898E+04 -5.830542E+03  5.382813E+04  1.379087E+03 -5.286277E+03
       290  22  1.459255E+03 -3.401249E+04  1.606228E+03  5.387369E+04  8.634266E+02 -1.089453E+03
       290  23  4.993600E+02 -3.412051E+04  8.460077E+02  5.084415E+04  2.302414E+03 -6.582639E+02
       290  24  1.523227E+02 -3.401065E+04  5.207254E+02  5.387307E+04  1.376898E+03 -2.284009E+02
       290  25  2.913008E+04  7.775757E+04  2.819939E+04  5.486946E+04  8.662350E+02 -7.381270E+03
       290  26  1.787844E+04  3.827629E+04  1.534794E+04  5.136453E+04  2.302664E+03 -1.274948E+03
       290  27  8.224547E+03 -1.138920E+00  6.872039E+03  5.391802E+04  1.374709E+03  4.829745E+03
       291   1 -2.345312E+03 -4.387801E+04 -1.978803E+03  5.382430E+04 -2.713066E+01  5.368347E+03
       291   2  6.656422E+03 -5.077899E+03  4.402273E+03  5.080203E+04  2.068509E+03  4.807187E+03
       291   3  1.585395E+04  3.385440E+04  1.119998E+04  5.398410E+04  4.010764E+03  4.245944E+03
       291   4  1.054419E+02 -3.404403E+04  4.409470E+02  5.390553E+04 -2.488932E+01  1.555036E+02
       291   5  5.335669E+01 -3.407781E+04  3.874230E+02  5.080335E+04  2.070631E+03 -3.768381E+01
       291   6  1.332357E+02 -3.404480E+04  4.949318E+02  5.390554E+04  4.012762E+03 -2.309218E+02
       291   7  2.556203E+03 -2.420990E+04  2.860792E+03  5.398675E+04 -2.264936E+01 -5.057422E+03
       291   8 -6.549733E+03 -6.307681E+04 -3.627348E+03  5.080468E+04  2.072754E+03 -4.882338E+03
       291   9 -1.558770E+04 -1.019394E+05 -1.021016E+04  5.382699E+04  4.014763E+03 -4.707316E+03
       291  10 -2.345319E+03 -4.387804E+04 -1.978857E+03  5.382430E+04  2.591916E-11  1.311492E-08
       291  11  6.656411E+03 -5.077925E+03  4.402221E+03  5.080202E+04  1.035270E-09 -2.281716E-08
       291  12  1.585393E+04  3.385438E+04  1.119992E+04  5.398408E+04  8.530630E-10 -5.756802E-08
       291  13  1.054419E+02 -3.404403E+04  4.409470E+02  5.390553E+04 -3.905613E-11 -5.379844E-10
       291  14  5.335209E+01 -3.407781E+04  3.874149E+02  5.080335E+04  7.642744E-10 -1.114361E-09
       291  15  1.332184E+02 -3.404480E+04  4.949014E+02  5.390554E+04  7.919748E-10 -1.928388E-10
       291  16  2.556196E+03 -2.420993E+04  2.860744E+03  5.398675E+04 -3.742950E-10 -1.449997E-08
       291  17 -6.549744E+03 -6.307684E+04 -3.627401E+03  5.080469E+04 -1.398366E-10  2.006481E-08
       291  18 -1.558772E+04 -1.019394E+05 -1.021023E+04  5.382700E+04  2.947174E-10  5.666358E-08
       291  19 -2.345312E+03 -4.387801E+04 -1.978803E+03  5.382430E+04  2.713066E+01 -5.368347E+03
       291  20  6.656422E+03 -5.077899E+03  4.402273E+03  5.080203E+04 -2.068509E+03 -4.807187E+03
       291  21  1.585395E+04  3.385440E+04  1.119998E+04  5.398410E+04 -4.010764E+03 -4.245944E+03
       291  22  1.054419E+02 -3.404403E+04  4.409470E+02  5.390553E+04  2.488932E+01 -1.555036E+02
       291  23  5.335669E+01 -3.407781E+04  3.874230E+02  5.080335E+04 -2.070631E+03  3.768381E+01
       291  24  1.332357E+02 -3.404480E+04  4.949318E+02  5.390554E+04 -4.012762E+03  2.309218E+02
       291  25  2.556203E+03 -2.420990E+04  2.860792E+03  5.398675E+04  2.264936E+01  5.057422E+03
       291  26 -6.549733E+03 -6.307681E+04 -3.627348E+03  5.080468E+04 -2.072754E+03  4.882338E+03
       291  27 -1.558770E+04 -1.019394E+05 -1.021016E+04  5.382699E+04 -4.014763E+03  4.707316E+03
       292   1  2.160071E+04  5.814520E+04  1.550323E+04  5.388884E+04  5.207801E+03  3.905607E+03
       292   2  3.156969E+04  9.616670E+04  2.546498E+04  5.149641E+04  5.210004E+03 -5.065382E+03
       292   3  4.376063E+04  1.359219E+05  4.182393E+04  5.506587E+04  1.692621E+03 -1.403892E+04
       292   4  1.925591E+02 -3.400114E+04  6.069242E+02  5.385162E+04  5.209744E+03 -3.140041E+02
       292   5  6.235020E+02 -3.413601E+04  1.027731E+03  5.087104E+04  5.208145E+03 -8.366917E+02
       292   6  1.810226E+03 -3.400447E+04  1.979466E+03  5.385241E+04  1.686637E+03 -1.361458E+03
       292   7 -2.121601E+04 -1.261390E+05 -1.428955E+04  5.381441E+04  5.211687E+03 -4.533011E+03
       292   8 -3.032366E+04 -1.644223E+05 -2.341018E+04  5.024581E+04  5.206279E+03  3.391133E+03
       292   9 -4.014214E+04 -2.039039E+05 -3.786636E+04  5.263927E+04  1.680602E+03  1.131256E+04
       292  10  2.160068E+04  5.814518E+04  1.550316E+04  5.388882E+04  8.273452E-10  5.659323E-08
       292  11  3.156965E+04  9.616667E+04  2.546488E+04  5.149643E+04  5.381179E-10  2.303215E-08
       292  12  4.376058E+04  1.359216E+05  4.182355E+04  5.506589E+04  1.288749E-10 -1.209040E-08
       292  13  1.925299E+02 -3.400115E+04  6.068730E+02  5.385162E+04  1.756844E-10 -5.526535E-10
       292  14  6.234727E+02 -3.413601E+04  1.027679E+03  5.087105E+04  5.383416E-10 -1.174740E-09
       292  15  1.810222E+03 -3.400447E+04  1.979457E+03  5.385241E+04 -7.268717E-11  1.028130E-09
       292  16 -2.121605E+04 -1.261391E+05 -1.428964E+04  5.381443E+04  6.022189E-10 -5.747021E-08
       292  17 -3.032369E+04 -1.644223E+05 -2.341025E+04  5.024580E+04  6.772388E-10 -2.637137E-08
       292  18 -4.014218E+04 -2.039040E+05 -3.786661E+04  5.263926E+04 -6.118859E-11  1.245135E-08
       292  19  2.160071E+04  5.814520E+04  1.550323E+04  5.388884E+04 -5.207801E+03 -3.905607E+03
       292  20  3.156969E+04  9.616670E+04  2.546498E+04  5.149641E+04 -5.210004E+03  5.065382E+03
       292  21  4.376063E+04  1.359219E+05  4.182393E+04  5.506587E+04 -1.692621E+03  1.403892E+04
       292  22  1.925591E+02 -3.400114E+04  6.069242E+02  5.385162E+04 -5.209744E+03  3.140041E+02
       292  23  6.235020E+02 -3.413601E+04  1.027731E+03  5.087104E+04 -5.208145E+03  8.366917E+02
       292  24  1.810226E+03 -3.400447E+04  1.979466E+03  5.385241E+04 -1.686637E+03  1.361458E+03
       292  25 -2.121601E+04 -1.261390E+05 -1.428955E+04  5.381441E+04 -5.211687E+03  4.533011E+03
       292  26 -3.032366E+04 -1.644223E+05 -2.341018E+04  5.024581E+04 -5.206279E+03 -3.391133E+03
       292  27 -4.014214E+04 -2.039039E+05 -3.786636E+04  5.263927E+04 -1.680602E+03 -1.131256E+04
       293   1  2.170832E+05  1.723518E+05  1.604197E+05  1.501794E+05  5.355901E+04 -8.779204E+03
       293   2  9.749064E+04  1.474837E+05  1.083397E+05  1.472251E+05  2.063821E+04 -2.869337E+04
       293   3 -1.794133E+04  1.219090E+05  7.751476E+04  1.618485E+05 -1.226750E+04 -3.279390E+04
       293   4 -5.559290E+05 -1.819916E+04 -1.917015E+04  1.626426E+05 -1.323293E+04 -8.767183E+03
       293   5 -5.546798E+05 -6.633959E+03 -9.913897E+03  1.538540E+05 -8.185779E+03 -2.869291E+04
       293   6 -5.558743E+05 -2.367893E+03 -5.770545E+03  1.626445E+05 -3.129691E+03 -3.279672E+04
       293   7 -1.328380E+06 -2.087893E+05 -1.987834E+05  1.750900E+05 -7.994230E+04 -8.757843E+03
       293   8 -1.206434E+06 -1.607749E+05 -1.281812E+05  1.604757E+05 -3.698032E+04 -2.869308E+04
       293   9 -1.093518E+06 -1.266589E+05 -8.906216E+04  1.634398E+05  6.000506E+03 -3.279951E+04
       293  10  2.170801E+05  1.723509E+05  1.604142E+05  1.501798E+05 -7.588571E-11  1.184692E-12
       293  11  9.748996E+04  1.474827E+05  1.083373E+05  1.472256E+05 -2.140846E-10 -7.914332E-12
       293  12 -1.794178E+04  1.219078E+05  7.751246E+04  1.618481E+05  7.352107E-11  5.077130E-11
       293  13 -5.559292E+05 -1.819929E+04 -1.917062E+04  1.626425E+05 -3.254352E-11  5.809720E-12
       293  14 -5.546801E+05 -6.634860E+03 -9.915570E+03  1.538538E+05 -6.182240E-11  2.224346E-11
       293  15 -5.558746E+05 -2.369051E+03 -5.772584E+03  1.626444E+05  1.147055E-11 -2.257802E-11
       293  16 -1.328386E+06 -2.087911E+05 -1.987956E+05  1.750895E+05 -1.251944E-10  1.306427E-12
       293  17 -1.206436E+06 -1.607762E+05 -1.281853E+05  1.604749E+05  4.234178E-10  5.501307E-11
       293  18 -1.093518E+06 -1.266601E+05 -8.906425E+04  1.634399E+05 -5.394770E-12 -5.205732E-11
       293  19  2.170832E+05  1.723518E+05  1.604197E+05  1.501794E+05 -5.355901E+04  8.779204E+03
       293  20  9.749064E+04  1.474837E+05  1.083397E+05  1.472251E+05 -2.063821E+04  2.869337E+04
       293  21 -1.794133E+04  1.219090E+05  7.751476E+04  1.618485E+05  1.226750E+04  3.279390E+04
       293  22 -5.559290E+05 -1.819916E+04 -1.917015E+04  1.626426E+05  1.323293E+04  8.767183E+03
       293  23 -5.546798E+05 -6.633959E+03 -9.913897E+03  1.538540E+05  8.185779E+03  2.869291E+04
       293  24 -5.558743E+05 -2.367893E+03 -5.770545E+03  1.626445E+05  3.129691E+03  3.279672E+04
       293  25 -1.328380E+06 -2.087893E+05 -1.987834E+05  1.750900E+05  7.994230E+04  8.757843E+03
       293  26 -1.206434E+06 -1.607749E+05 -1.281812E+05  1.604757E+05  3.698032E+04  2.869308E+04
       293  27 -1.093518E+06 -1.266589E+05 -8.906216E+04  1.634398E+05 -6.000506E+03  3.279951E+04
       294   1 -9.107443E+04  1.050726E+05  6.485108E+04  1.618266E+05 -1.272053E+04 -2.984206E+04
       294   2 -2.087398E+05  7.833624E+04  4.486393E+04  1.530291E+05 -1.575892E+04 -2.452099E+04
       294   3 -3.260039E+05  5.148998E+04  2.683257E+04  1.629991E+05 -1.879744E+04 -1.720990E+04
       294   4 -5.554162E+05 -1.728631E+03 -4.648850E+03  1.629083E+05 -2.337253E+03 -2.984395E+04
       294   5 -5.551812E+05 -6.487160E+02 -3.471964E+03  1.535241E+05 -6.021865E+02 -2.452136E+04
       294   6 -5.553882E+05 -5.074695E+02 -3.656123E+03  1.629083E+05  1.132206E+03 -1.720817E+04
       294   7 -1.019541E+06 -1.085400E+05 -7.415256E+04  1.639892E+05  8.038563E+03 -2.984581E+04
       294   8 -9.015004E+05 -7.963888E+04 -5.180848E+04  1.540188E+05  1.454646E+04 -2.452171E+04
       294   9 -7.847179E+05 -5.250695E+04 -3.414373E+04  1.628175E+05  2.105483E+04 -1.720643E+04
       294  10 -9.107484E+04  1.050716E+05  6.484910E+04  1.618263E+05 -8.563246E-11  3.771575E-11
       294  11 -2.087402E+05  7.833553E+04  4.486233E+04  1.530288E+05 -1.982037E-10  7.230003E-12
       294  12 -3.260043E+05  5.148957E+04  2.683135E+04  1.629989E+05 -6.528964E-11  2.443892E-11
       294  13 -5.554164E+05 -1.729588E+03 -4.650534E+03  1.629083E+05  6.298658E-11 -9.147195E-12
       294  14 -5.551814E+05 -6.493616E+02 -3.473094E+03  1.535241E+05 -2.886000E-11 -1.595821E-11
       294  15 -5.553883E+05 -5.077877E+02 -3.656682E+03  1.629083E+05  8.690855E-12  1.174823E-11
       294  16 -1.019541E+06 -1.085409E+05 -7.415436E+04  1.639894E+05 -7.992759E-11 -9.580240E-11
       294  17 -9.015008E+05 -7.963959E+04 -5.181001E+04  1.540191E+05  3.412006E-10  5.313497E-11
       294  18 -7.847184E+05 -5.250739E+04 -3.414512E+04  1.628178E+05 -3.548834E-11 -5.856744E-12
       294  19 -9.107443E+04  1.050726E+05  6.485108E+04  1.618266E+05  1.272053E+04  2.984206E+04
       294  20 -2.087398E+05  7.833624E+04  4.486393E+04  1.530291E+05  1.575892E+04  2.452099E+04
       294  21 -3.260039E+05  5.148998E+04  2.683257E+04  1.629991E+05  1.879744E+04  1.720990E+04
       294  22 -5.554162E+05 -1.728631E+03 -4.648850E+03  1.629083E+05  2.337253E+03  2.984395E+04
       294  23 -5.551812E+05 -6.487160E+02 -3.471964E+03  1.535241E+05  6.021865E+02  2.452136E+04
       294  24 -5.553882E+05 -5.074695E+02 -3.656123E+03  1.629083E+05 -1.132206E+03  1.720817E+04
       294  25 -1.019541E+06 -1.085400E+05 -7.415256E+04  1.639892E+05 -8.038563E+03  2.984581E+04
       294  26 -9.015004E+05 -7.963888E+04 -5.180848E+04  1.540188E+05 -1.454646E+04  2.452171E+04
       294  27 -7.847179E+05 -5.250695E+04 -3.414373E+04  1.628175E+05 -2.105483E+04  1.720643E+04
       295   1 -3.987939E+05  3.478127E+04  1.587911E+04  1.628352E+05 -1.822201E+04 -1.224580E+04
       295   2 -5.156162E+05  6.950005E+03 -3.295411E+03  1.548463E+05 -1.302278E+04 -4.317295E+03
       295   3 -6.337171E+05 -2.338541E+04 -2.648023E+04  1.657063E+05 -7.824951E+03  2.782552E+03
       295   4 -5.554955E+05 -5.894853E+02 -4.188196E+03  1.629262E+05  1.788888E+03 -1.224343E+04
       295   5 -5.550205E+05 -1.558942E+03 -6.409858E+03  1.535017E+05  4.998408E+03 -4.314914E+03
       295   6 -5.554939E+05 -4.686967E+03 -1.126053E+04  1.629264E+05  8.207453E+03  2.784886E+03
       295   7 -7.121711E+05 -3.596104E+04 -2.425410E+04  1.630173E+05  2.179498E+04 -1.224105E+04
       295   8 -5.944224E+05 -1.006775E+04 -9.523031E+03  1.521572E+05  2.301853E+04 -4.312612E+03
       295   9 -4.772644E+05  1.401128E+04  3.959857E+03  1.601460E+05  2.424183E+04  2.787076E+03
       295  10 -3.987943E+05  3.478102E+04  1.587820E+04  1.628350E+05 -1.139803E-10  2.211665E-11
       295  11 -5.156164E+05  6.949939E+03 -3.295765E+03  1.548463E+05 -1.687629E-10  6.193881E-11
       295  12 -6.337171E+05 -2.338544E+04 -2.648036E+04  1.657063E+05 -3.824090E-12  6.266722E-11
       295  13 -5.554956E+05 -5.896471E+02 -4.188483E+03  1.629263E+05  2.091866E-11  2.123957E-11
       295  14 -5.550205E+05 -1.558969E+03 -6.409940E+03  1.535018E+05 -2.639276E-11  7.523220E-12
       295  15 -5.554940E+05 -4.686993E+03 -1.126067E+04  1.629263E+05 -2.539357E-11  7.082160E-11
       295  16 -7.121716E+05 -3.596133E+04 -2.425527E+04  1.630175E+05  7.485466E-11  9.933569E-12
       295  17 -5.944230E+05 -1.006791E+04 -9.524062E+03  1.521573E+05  1.947255E-10  4.960542E-11
       295  18 -4.772650E+05  1.401112E+04  3.958737E+03  1.601460E+05  4.621181E-11  5.552774E-11
       295  19 -3.987939E+05  3.478127E+04  1.587911E+04  1.628352E+05  1.822201E+04  1.224580E+04
       295  20 -5.156162E+05  6.950005E+03 -3.295411E+03  1.548463E+05  1.302278E+04  4.317295E+03
       295  21 -6.337171E+05 -2.338541E+04 -2.648023E+04  1.657063E+05  7.824951E+03 -2.782552E+03
       295  22 -5.554955E+05 -5.894853E+02 -4.188196E+03  1.629262E+05 -1.788888E+03  1.224343E+04
       295  23 -5.550205E+05 -1.558942E+03 -6.409858E+03  1.535017E+05 -4.998408E+03  4.314914E+03
       295  24 -5.554939E+05 -4.686967E+03 -1.126053E+04  1.629264E+05 -8.207453E+03 -2.784886E+03
       295  25 -7.121711E+05 -3.596104E+04 -2.425410E+04  1.630173E+05 -2.179498E+04  1.224105E+04
       295  26 -5.944224E+05 -1.006775E+04 -9.523031E+03  1.521572E+05 -2.301853E+04  4.312612E+03
       295  27 -4.772644E+05  1.401128E+04  3.959857E+03  1.601460E+05 -2.424183E+04 -2.787076E+03
       296   1 -7.081051E+05 -4.213544E+04 -4.198682E+04  1.647753E+05 -5.235564E+03  6.910524E+03
       296   2 -8.203916E+05 -8.237305E+04 -7.977078E+04  1.720507E+05  2.845356E+04  9.216302E+03
       296   3 -9.430703E+05 -1.466987E+05 -1.455271E+05  1.975662E+05  6.213412E+04  3.282957E+03
       296   4 -5.568337E+05 -6.450315E+03 -1.493989E+04  1.627920E+05  1.016355E+04  6.912494E+03
       296   5 -5.533680E+05 -1.844584E+04 -2.735551E+04  1.536709E+05  2.409930E+04  9.214721E+03
       296   6 -5.568672E+05 -5.109046E+04 -5.400997E+04  1.627925E+05  3.803296E+04  3.277689E+03
       296   7 -4.055395E+05  2.923368E+04  1.210706E+04  1.608082E+05  2.556631E+04  6.914365E+03
       296   8 -2.862752E+05  4.547835E+04  2.505656E+04  1.352831E+05  1.974319E+04  9.213398E+03
       296   9 -1.705230E+05  4.451196E+04  3.749965E+04  1.279969E+05  1.391685E+04  3.275128E+03
       296  10 -7.081051E+05 -4.213550E+04 -4.198696E+04  1.647753E+05  4.578794E-11  8.359967E-11
       296  11 -8.203925E+05 -8.237336E+04 -7.977246E+04  1.720505E+05 -9.335004E-11 -1.489284E-11
       296  12 -9.430744E+05 -1.466998E+05 -1.455344E+05  1.975661E+05  1.241956E-10  3.941879E-12
       296  13 -5.568338E+05 -6.450394E+03 -1.494017E+04  1.627920E+05 -3.298664E-11  5.626722E-11
       296  14 -5.533686E+05 -1.844609E+04 -2.735676E+04  1.536708E+05  1.383703E-11 -8.193463E-12
       296  15 -5.568687E+05 -5.109086E+04 -5.401271E+04  1.627924E+05  7.470390E-11  1.878763E-11
       296  16 -4.055402E+05  2.923346E+04  1.210574E+04  1.608081E+05 -1.471115E-10  2.098165E-11
       296  17 -2.862757E+05  4.547815E+04  2.505567E+04  1.352830E+05  1.362294E-10  5.710990E-11
       296  18 -1.705232E+05  4.451190E+04  3.749927E+04  1.279969E+05 -1.419711E-12  2.991292E-12
       296  19 -7.081051E+05 -4.213544E+04 -4.198682E+04  1.647753E+05  5.235564E+03 -6.910524E+03
       296  20 -8.203916E+05 -8.237305E+04 -7.977078E+04  1.720507E+05 -2.845356E+04 -9.216302E+03
       296  21 -9.430703E+05 -1.466987E+05 -1.455271E+05  1.975662E+05 -6.213412E+04 -3.282957E+03
       296  22 -5.568337E+05 -6.450315E+03 -1.493989E+04  1.627920E+05 -1.016355E+04 -6.912494E+03
       296  23 -5.533680E+05 -1.844584E+04 -2.735551E+04  1.536709E+05 -2.409930E+04 -9.214721E+03
       296  24 -5.568672E+05 -5.109046E+04 -5.400997E+04  1.627925E+05 -3.803296E+04 -3.277689E+03
       296  25 -4.055395E+05  2.923368E+04  1.210706E+04  1.608082E+05 -2.556631E+04 -6.914365E+03
       296  26 -2.862752E+05  4.547835E+04  2.505656E+04  1.352831E+05 -1.974319E+04 -9.213398E+03
       296  27 -1.705230E+05  4.451196E+04  3.749965E+04  1.279969E+05 -1.391685E+04 -3.275128E+03
       297   1  1.538582E+05  1.124492E+05  1.062263E+05  1.146412E+05  3.721425E+04 -4.947340E+03
       297   2  6.875050E+04  8.816801E+04  6.810427E+04  1.085470E+05  1.477075E+04 -1.584214E+04
       297   3 -1.249437E+04  6.757303E+04  4.551461E+04  1.150472E+05 -7.666988E+03 -1.728129E+04
       297   4 -3.047190E+05 -6.564050E+02 -6.976427E+02  1.151040E+05 -2.862195E+02 -4.947326E+03
       297   5 -3.046668E+05 -2.465982E+02 -5.074576E+02  1.088066E+05 -2.894546E+01 -1.584349E+04
       297   6 -3.046984E+05 -9.027984E+01 -5.481681E+02  1.151040E+05  2.308341E+02 -1.728136E+04
       297   7 -7.630992E+05 -1.137761E+05 -1.076306E+05  1.155664E+05 -3.775918E+04 -4.947369E+03
       297   8 -6.779482E+05 -8.866902E+04 -6.912409E+04  1.090661E+05 -1.481997E+04 -1.584486E+04
       297   9 -5.968173E+05 -6.775779E+04 -4.661283E+04  1.151607E+05  8.125076E+03 -1.728142E+04
       297  10  1.538567E+05  1.124488E+05  1.062237E+05  1.146413E+05 -2.389659E-12  4.155148E-11
       297  11  6.875020E+04  8.816768E+04  6.810339E+04  1.085472E+05 -1.893724E-10  5.411120E-11
       297  12 -1.249451E+04  6.757270E+04  4.551394E+04  1.150471E+05 -4.977021E-11  9.026495E-11
       297  13 -3.047190E+05 -6.564313E+02 -6.976889E+02  1.151040E+05  7.571315E-11 -4.377316E-12
       297  14 -3.046668E+05 -2.468677E+02 -5.079293E+02  1.088066E+05 -5.953107E-11 -2.934357E-12
       297  15 -3.046985E+05 -9.060050E+01 -5.487293E+02  1.151040E+05  1.900591E-10  5.489966E-11
       297  16 -7.631007E+05 -1.137765E+05 -1.076333E+05  1.155662E+05 -5.372951E-11 -5.123026E-11
       297  17 -6.779485E+05 -8.866934E+04 -6.912498E+04  1.090659E+05  2.842801E-10 -3.832476E-12
       297  18 -5.968175E+05 -6.775813E+04 -4.661351E+04  1.151608E+05  8.287427E-11  3.383944E-11
       297  19  1.538582E+05  1.124492E+05  1.062263E+05  1.146412E+05 -3.721425E+04  4.947340E+03
       297  20  6.875050E+04  8.816801E+04  6.810427E+04  1.085470E+05 -1.477075E+04  1.584214E+04
       297  21 -1.249437E+04  6.757303E+04  4.551461E+04  1.150472E+05  7.666988E+03  1.728129E+04
       297  22 -3.047190E+05 -6.564050E+02 -6.976427E+02  1.151040E+05  2.862195E+02  4.947326E+03
       297  23 -3.046668E+05 -2.465982E+02 -5.074576E+02  1.088066E+05  2.894546E+01  1.584349E+04
       297  24 -3.046984E+05 -9.027984E+01 -5.481681E+02  1.151040E+05 -2.308341E+02  1.728136E+04
       297  25 -7.630992E+05 -1.137761E+05 -1.076306E+05  1.155664E+05  3.775918E+04  4.947369E+03
       297  26 -6.779482E+05 -8.866902E+04 -6.912409E+04  1.090661E+05  1.481997E+04  1.584486E+04
       297  27 -5.968173E+05 -6.775779E+04 -4.661283E+04  1.151607E+05 -8.125076E+03  1.728142E+04
       298   1 -6.444938E+04  5.534720E+04  3.611705E+04  1.151789E+05 -8.309345E+03 -1.492417E+04
       298   2 -1.477688E+05  3.580959E+04  2.143991E+04  1.085945E+05 -1.055819E+04 -1.075301E+04
       298   3 -2.307028E+05  1.658996E+04  8.307892E+03  1.153082E+05 -1.280698E+04 -5.439436E+03
       298   4 -3.046967E+05 -6.329551E+01 -6.396003E+02  1.152603E+05  3.304635E+02 -1.492378E+04
       298   5 -3.046430E+05 -5.903294E+01 -9.893398E+02  1.086112E+05  8.223950E+02 -1.075187E+04
       298   6 -3.046879E+05 -2.127926E+02 -1.698252E+03  1.152603E+05  1.314066E+03 -5.437379E+03
       298   7 -5.448861E+05 -5.547653E+04 -3.739722E+04  1.153417E+05  8.967058E+03 -1.492339E+04
       298   8 -4.614920E+05 -3.592871E+04 -2.341847E+04  1.086278E+05  1.220023E+04 -1.075072E+04
       298   9 -3.786671E+05 -1.701567E+04 -1.170370E+04  1.152125E+05  1.543350E+04 -5.435323E+03
       298  10 -6.444952E+04  5.534694E+04  3.611650E+04  1.151788E+05  7.488869E-11  7.712757E-11
       298  11 -1.477690E+05  3.580944E+04  2.143948E+04  1.085944E+05 -5.169280E-11  2.164613E-11
       298  12 -2.307029E+05  1.658988E+04  8.307529E+03  1.153081E+05  1.181348E-10  2.025407E-11
       298  13 -3.046968E+05 -6.353467E+01 -6.400190E+02  1.152603E+05  7.766057E-11  6.874791E-11
       298  14 -3.046430E+05 -5.915724E+01 -9.895583E+02  1.086112E+05  1.963995E-11  9.777617E-11
       298  15 -3.046879E+05 -2.128248E+02 -1.698311E+03  1.152604E+05  4.087522E-11 -4.232142E-11
       298  16 -5.448862E+05 -5.547679E+04 -3.739779E+04  1.153418E+05 -5.153541E-11  2.402644E-11
       298  17 -4.614922E+05 -3.592887E+04 -2.341897E+04  1.086279E+05  5.164993E-11  4.500808E-11
       298  18 -3.786674E+05 -1.701577E+04 -1.170420E+04  1.152126E+05 -2.651930E-11 -1.145793E-10
       298  19 -6.444938E+04  5.534720E+04  3.611705E+04  1.151789E+05  8.309345E+03  1.492417E+04
       298  20 -1.477688E+05  3.580959E+04  2.143991E+04  1.085945E+05  1.055819E+04  1.075301E+04
       298  21 -2.307028E+05  1.658996E+04  8.307892E+03  1.153082E+05  1.280698E+04  5.439436E+03
       298  22 -3.046967E+05 -6.329551E+01 -6.396003E+02  1.152603E+05 -3.304635E+02  1.492378E+04
       298  23 -3.046430E+05 -5.903294E+01 -9.893398E+02  1.086112E+05 -8.223950E+02  1.075187E+04
       298  24 -3.046879E+05 -2.127926E+02 -1.698252E+03  1.152603E+05 -1.314066E+03  5.437379E+03
       298  25 -5.448861E+05 -5.547653E+04 -3.739722E+04  1.153417E+05 -8.967058E+03  1.492339E+04
       298  26 -4.614920E+05 -3.592871E+04 -2.341847E+04  1.086278E+05 -1.220023E+04  1.075072E+04
       298  27 -3.786671E+05 -1.701567E+04 -1.170370E+04  1.152125E+05 -1.543350E+04  5.435323E+03
       299   1 -2.822436E+05  4.736140E+03  3.956743E+02  1.152180E+05 -1.249768E+04 -1.927159E+03
       299   2 -3.648841E+05 -1.501020E+04 -1.353415E+04  1.094977E+05 -8.464953E+03  3.541738E+03
       299   3 -4.484783E+05 -3.650536E+04 -3.052751E+04  1.170958E+05 -4.432626E+03  8.158467E+03
       299   4 -3.047993E+05 -3.030547E+02 -2.237249E+03  1.152648E+05  1.643367E+03 -1.924990E+03
       299   5 -3.044994E+05 -1.015598E+03 -3.968045E+03  1.086057E+05  3.631248E+03  3.543421E+03
       299   6 -3.048033E+05 -3.121127E+03 -7.341529E+03  1.152651E+05  5.619197E+03  8.159695E+03
       299   7 -3.273541E+05 -5.342162E+03 -4.869419E+03  1.153116E+05  1.578393E+04 -1.922819E+03
       299   8 -2.441107E+05  1.297890E+04  5.598521E+03  1.077137E+05  1.572858E+04  3.545069E+03
       299   9 -1.611077E+05  3.026213E+04  1.584428E+04  1.134339E+05  1.567326E+04  8.160863E+03
       299  10 -2.822438E+05  4.736094E+03  3.953736E+02  1.152180E+05 -6.827677E-11  2.107183E-11
       299  11 -3.648842E+05 -1.501023E+04 -1.353431E+04  1.094977E+05 -3.997545E-11 -7.877405E-12
       299  12 -4.484783E+05 -3.650543E+04 -3.052768E+04  1.170958E+05 -3.284454E-12 -3.241447E-11
       299  13 -3.047993E+05 -3.030595E+02 -2.237261E+03  1.152648E+05  3.582707E-11 -8.251022E-11
       299  14 -3.044994E+05 -1.015615E+03 -3.968093E+03  1.086057E+05  7.983634E-11 -5.135616E-11
       299  15 -3.048034E+05 -3.121207E+03 -7.341713E+03  1.152650E+05  9.627478E-11 -5.685588E-11
       299  16 -3.273543E+05 -5.342233E+03 -4.869894E+03  1.153116E+05 -3.172788E-11 -1.329607E-10
       299  17 -2.441109E+05  1.297882E+04  5.598032E+03  1.077136E+05  1.156220E-10 -1.064582E-10
       299  18 -1.611080E+05  3.026199E+04  1.584369E+04  1.134338E+05 -6.445458E-12 -7.170620E-11
       299  19 -2.822436E+05  4.736140E+03  3.956743E+02  1.152180E+05  1.249768E+04  1.927159E+03
       299  20 -3.648841E+05 -1.501020E+04 -1.353415E+04  1.094977E+05  8.464953E+03 -3.541738E+03
       299  21 -4.484783E+05 -3.650536E+04 -3.052751E+04  1.170958E+05  4.432626E+03 -8.158467E+03
       299  22 -3.047993E+05 -3.030547E+02 -2.237249E+03  1.152648E+05 -1.643367E+03  1.924990E+03
       299  23 -3.044994E+05 -1.015598E+03 -3.968045E+03  1.086057E+05 -3.631248E+03 -3.543421E+03
       299  24 -3.048033E+05 -3.121127E+03 -7.341529E+03  1.152651E+05 -5.619197E+03 -8.159695E+03
       299  25 -3.273541E+05 -5.342162E+03 -4.869419E+03  1.153116E+05 -1.578393E+04  1.922819E+03
       299  26 -2.441107E+05  1.297890E+04  5.598521E+03  1.077137E+05 -1.572858E+04 -3.545069E+03
       299  27 -1.611077E+05  3.026213E+04  1.584428E+04  1.134339E+05 -1.567326E+04 -8.160863E+03
       300   1 -5.011843E+05 -4.981449E+04 -4.184339E+04  1.164469E+05 -2.565051E+03  1.081016E+04
       300   2 -5.804359E+05 -7.816837E+04 -7.033777E+04  1.210063E+05  2.484097E+04  1.097633E+04
       300   3 -6.674753E+05 -1.234402E+05 -1.209132E+05  1.383230E+05  5.224146E+04  3.578649E+03
       300   4 -3.057033E+05 -4.299877E+03 -9.841331E+03  1.151408E+05  6.898364E+03  1.081104E+04
       300   5 -3.033934E+05 -1.230311E+04 -1.818772E+04  1.087622E+05  1.616583E+04  1.097469E+04
       300   6 -3.057232E+05 -3.406911E+04 -3.600934E+04  1.151420E+05  2.543183E+04  3.575091E+03
       300   7 -1.101842E+05  4.121283E+04  2.215997E+04  1.138344E+05  1.636466E+04  1.081187E+04
       300   8 -2.627620E+04  5.355828E+04  3.395934E+04  9.651253E+04  7.486915E+03  1.097340E+04
       300   9  5.615228E+04  5.529505E+04  4.888859E+04  9.194743E+04 -1.393346E+03  3.573539E+03
       300  10 -5.011843E+05 -4.981462E+04 -4.184362E+04  1.164469E+05 -1.773650E-10 -2.323257E-11
       300  11 -5.804365E+05 -7.816866E+04 -7.033916E+04  1.210061E+05 -1.473850E-10  5.293084E-12
       300  12 -6.674782E+05 -1.234409E+05 -1.209184E+05  1.383228E+05 -1.016144E-11  1.319797E-11
       300  13 -3.057033E+05 -4.300015E+03 -9.841640E+03  1.151408E+05  3.785018E-11 -4.779655E-11
       300  14 -3.033937E+05 -1.230331E+04 -1.818843E+04  1.087621E+05 -8.700872E-11 -9.866140E-12
       300  15 -3.057239E+05 -3.406930E+04 -3.601058E+04  1.151419E+05  4.775241E-11  1.515944E-11
       300  16 -1.101845E+05  4.121264E+04  2.215925E+04  1.138342E+05  9.110361E-11 -8.210825E-11
       300  17 -2.627630E+04  5.355814E+04  3.395901E+04  9.651246E+04  2.123050E-10 -1.551071E-11
       300  18  5.615228E+04  5.529504E+04  4.888856E+04  9.194744E+04  4.699609E-11 -5.897300E-12
       300  19 -5.011843E+05 -4.981449E+04 -4.184339E+04  1.164469E+05  2.565051E+03 -1.081016E+04
       300  20 -5.804359E+05 -7.816837E+04 -7.033777E+04  1.210063E+05 -2.484097E+04 -1.097633E+04
       300  21 -6.674753E+05 -1.234402E+05 -1.209132E+05  1.383230E+05 -5.224146E+04 -3.578649E+03
       300  22 -3.057033E+05 -4.299877E+03 -9.841331E+03  1.151408E+05 -6.898364E+03 -1.081104E+04
       300  23 -3.033934E+05 -1.230311E+04 -1.818772E+04  1.087622E+05 -1.616583E+04 -1.097469E+04
       300  24 -3.057232E+05 -3.406911E+04 -3.600934E+04  1.151420E+05 -2.543183E+04 -3.575091E+03
       300  25 -1.101842E+05  4.121283E+04  2.215997E+04  1.138344E+05 -1.636466E+04 -1.081187E+04
       300  26 -2.627620E+04  5.355828E+04  3.395934E+04  9.651253E+04 -7.486915E+03 -1.097340E+04
       300  27  5.615228E+04  5.529505E+04  4.888859E+04  9.194743E+04  1.393346E+03 -3.573539E+03
       301   1  2.842321E+05  1.012059E+05  9.686705E+04  1.053765E+05  3.708702E+04 -3.917479E+03
       301   2  2.106385E+05  7.405043E+04  6.011307E+04  9.680255E+04  1.606680E+04 -1.243864E+04
       301   3  1.415845E+05  5.405654E+04  3.883119E+04  9.906604E+04 -4.948983E+03 -1.329814E+04
       301   4 -8.633002E+04  9.802180E+03  1.036034E+04  9.869866E+04  7.432240E+03 -3.918875E+03
       301   5 -8.699429E+04  3.535518E+03  5.147915E+03  9.328016E+04  4.809424E+03 -1.243994E+04
       301   6 -8.631638E+04  1.239043E+03  2.635758E+03  9.869894E+04  2.188108E+03 -1.329785E+04
       301   7 -4.567635E+05 -8.161061E+04 -7.615235E+04  9.202479E+04 -2.220496E+04 -3.919635E+03
       301   8 -3.845409E+05 -6.698434E+04 -4.982044E+04  8.975949E+04 -6.442696E+03 -1.244111E+04
       301   9 -3.141655E+05 -5.158101E+04 -3.356080E+04  9.833198E+04  9.322675E+03 -1.329757E+04
       301  10  2.842306E+05  1.012055E+05  9.686443E+04  1.053766E+05 -9.668889E-11 -7.278543E-12
       301  11  2.106382E+05  7.405020E+04  6.011229E+04  9.680271E+04 -1.351067E-10 -1.268096E-11
       301  12  1.415844E+05  5.405634E+04  3.883081E+04  9.906598E+04  5.068925E-11  4.586727E-11
       301  13 -8.633009E+04  9.802149E+03  1.036021E+04  9.869868E+04 -5.928751E-11  2.522067E-11
       301  14 -8.699435E+04  3.535346E+03  5.147580E+03  9.328021E+04 -5.936611E-11  2.736394E-11
       301  15 -8.631643E+04  1.238852E+03  2.635417E+03  9.869897E+04  7.877239E-12  2.727119E-11
       301  16 -4.567641E+05 -8.161076E+04 -7.615331E+04  9.202472E+04  7.666481E-11  1.048852E-11
       301  17 -3.845409E+05 -6.698452E+04 -4.982081E+04  8.975943E+04  2.078427E-10  6.875454E-11
       301  18 -3.141656E+05 -5.158122E+04 -3.356130E+04  9.833208E+04  1.788819E-11  6.335628E-11
       301  19  2.842321E+05  1.012059E+05  9.686705E+04  1.053765E+05 -3.708702E+04  3.917479E+03
       301  20  2.106385E+05  7.405043E+04  6.011307E+04  9.680255E+04 -1.606680E+04  1.243864E+04
       301  21  1.415845E+05  5.405654E+04  3.883119E+04  9.906604E+04  4.948983E+03  1.329814E+04
       301  22 -8.633002E+04  9.802180E+03  1.036034E+04  9.869866E+04 -7.432240E+03  3.918875E+03
       301  23 -8.699429E+04  3.535518E+03  5.147915E+03  9.328016E+04 -4.809424E+03  1.243994E+04
       301  24 -8.631638E+04  1.239043E+03  2.635758E+03  9.869894E+04 -2.188108E+03  1.329785E+04
       301  25 -4.567635E+05 -8.161061E+04 -7.615235E+04  9.202479E+04  2.220496E+04  3.919635E+03
       301  26 -3.845409E+05 -6.698434E+04 -4.982044E+04  8.975949E+04  6.442696E+03  1.244111E+04
       301  27 -3.141655E+05 -5.158101E+04 -3.356080E+04  9.833198E+04 -9.322675E+03  1.329757E+04
       302   1  9.679904E+04  4.324667E+04  3.017119E+04  9.933377E+04 -5.877408E+03 -1.120903E+04
       302   2  2.527015E+04  2.590592E+04  1.685548E+04  9.338301E+04 -8.387045E+03 -7.529724E+03
       302   3 -4.574814E+04  9.273531E+03  5.350850E+03  9.883816E+04 -1.089661E+04 -2.939126E+03
       302   4 -8.658309E+04  9.042070E+02  1.839188E+03  9.882541E+04  1.860595E+03 -1.120842E+04
       302   5 -8.664392E+04  2.791642E+02  6.394529E+02  9.312243E+04  1.537983E+03 -7.528565E+03
       302   6 -8.657774E+04 -1.666688E+01 -2.676626E+02  9.882550E+04  1.215203E+03 -2.937339E+03
       302   7 -2.699315E+05 -4.143986E+04 -2.649335E+04  9.831720E+04  9.596399E+03 -1.120781E+04
       302   8 -1.985451E+05 -2.534812E+04 -1.557640E+04  9.286191E+04  1.146130E+04 -7.527414E+03
       302   9 -1.274053E+05 -9.306859E+03 -5.885643E+03  9.881284E+04  1.332626E+04 -2.935553E+03
       302  10  9.679897E+04  4.324653E+04  3.017089E+04  9.933371E+04  5.589954E-11  3.565248E-11
       302  11  2.527006E+04  2.590584E+04  1.685524E+04  9.338296E+04 -3.673025E-11  4.792478E-11
       302  12 -4.574827E+04  9.273490E+03  5.350611E+03  9.883813E+04  2.464401E-11  1.365173E-11
       302  13 -8.658312E+04  9.040712E+02  1.838946E+03  9.882542E+04  1.464271E-11  2.310718E-11
       302  14 -8.664394E+04  2.791027E+02  6.393419E+02  9.312244E+04  6.319968E-11  8.081255E-11
       302  15 -8.657774E+04 -1.667654E+01 -2.676816E+02  9.882550E+04  7.541555E-11  2.486478E-11
       302  16 -2.699316E+05 -4.144002E+04 -2.649376E+04  9.831728E+04 -9.695203E-11  4.186593E-11
       302  17 -1.985453E+05 -2.534821E+04 -1.557676E+04  9.286198E+04  1.109248E-10  3.375920E-11
       302  18 -1.274055E+05 -9.306916E+03 -5.885993E+03  9.881287E+04 -6.756417E-11  1.119543E-11
       302  19  9.679904E+04  4.324667E+04  3.017119E+04  9.933377E+04  5.877408E+03  1.120903E+04
       302  20  2.527015E+04  2.590592E+04  1.685548E+04  9.338301E+04  8.387045E+03  7.529724E+03
       302  21 -4.574814E+04  9.273531E+03  5.350850E+03  9.883816E+04  1.089661E+04  2.939126E+03
       302  22 -8.658309E+04  9.042070E+02  1.839188E+03  9.882541E+04 -1.860595E+03  1.120842E+04
       302  23 -8.664392E+04  2.791642E+02  6.394529E+02  9.312243E+04 -1.537983E+03  7.528565E+03
       302  24 -8.657774E+04 -1.666688E+01 -2.676626E+02  9.882550E+04 -1.215203E+03  2.937339E+03
       302  25 -2.699315E+05 -4.143986E+04 -2.649335E+04  9.831720E+04 -9.596399E+03  1.120781E+04
       302  26 -1.985451E+05 -2.534812E+04 -1.557640E+04  9.286191E+04 -1.146130E+04  7.527414E+03
       302  27 -1.274053E+05 -9.306859E+03 -5.885643E+03  9.881284E+04 -1.332626E+04  2.935553E+03
       303   1 -8.993484E+04 -8.869611E+02 -1.426890E+03  9.881321E+04 -1.082138E+04  7.147842E+01
       303   2 -1.608855E+05 -1.765418E+04 -1.310332E+04  9.360327E+04 -7.956092E+03  4.723171E+03
       303   3 -2.324654E+05 -3.547444E+04 -2.690847E+04  9.980663E+04 -5.091027E+03  8.576417E+03
       303   4 -8.667265E+04 -9.417556E+01 -7.256779E+02  9.882710E+04  1.298010E+03  7.330255E+01
       303   5 -8.652377E+04 -5.375245E+02 -1.891942E+03  9.312055E+04  2.246928E+03  4.724513E+03
       303   6 -8.667635E+04 -1.700913E+03 -3.856039E+03  9.882726E+04  3.195935E+03  8.577322E+03
       303   7 -8.341014E+04  6.986881E+02 -2.391469E+01  9.884100E+04  1.341746E+04  7.512722E+01
       303   8 -1.215628E+04  1.657893E+04  9.319719E+03  9.263778E+04  1.245112E+04  4.725840E+03
       303   9  5.913399E+04  3.207160E+04  1.919612E+04  9.784764E+04  1.148477E+04  8.578202E+03
       303  10 -8.993496E+04 -8.869925E+02 -1.427110E+03  9.881321E+04  7.216260E-11  8.634366E-12
       303  11 -1.608856E+05 -1.765422E+04 -1.310348E+04  9.360330E+04  1.034404E-11 -3.025516E-11
       303  12 -2.324654E+05 -3.547453E+04 -2.690866E+04  9.980667E+04 -1.520247E-10 -1.051147E-11
       303  13 -8.667265E+04 -9.417602E+01 -7.256811E+02  9.882710E+04  6.415218E-11 -1.682215E-11
       303  14 -8.652378E+04 -5.375498E+02 -1.891994E+03  9.312054E+04  5.740295E-11  7.224811E-11
       303  15 -8.667638E+04 -1.700995E+03 -3.856197E+03  9.882723E+04  6.715008E-11 -4.509221E-11
       303  16 -8.341033E+04  6.986398E+02 -2.425306E+01  9.884100E+04 -1.774960E-10 -1.859126E-11
       303  17 -1.215645E+04  1.657886E+04  9.319386E+03  9.263773E+04  1.857220E-10 -1.445266E-13
       303  18  5.913383E+04  3.207149E+04  1.919573E+04  9.784756E+04  9.282072E-11  1.921534E-11
       303  19 -8.993484E+04 -8.869611E+02 -1.426890E+03  9.881321E+04  1.082138E+04 -7.147842E+01
       303  20 -1.608855E+05 -1.765418E+04 -1.310332E+04  9.360327E+04  7.956092E+03 -4.723171E+03
       303  21 -2.324654E+05 -3.547444E+04 -2.690847E+04  9.980663E+04  5.091027E+03 -8.576417E+03
       303  22 -8.667265E+04 -9.417556E+01 -7.256779E+02  9.882710E+04 -1.298010E+03 -7.330255E+01
       303  23 -8.652377E+04 -5.375245E+02 -1.891942E+03  9.312055E+04 -2.246928E+03 -4.724513E+03
       303  24 -8.667635E+04 -1.700913E+03 -3.856039E+03  9.882726E+04 -3.195935E+03 -8.577322E+03
       303  25 -8.341014E+04  6.986881E+02 -2.391469E+01  9.884100E+04 -1.341746E+04 -7.512722E+01
       303  26 -1.215628E+04  1.657893E+04  9.319719E+03  9.263778E+04 -1.245112E+04 -4.725840E+03
       303  27  5.913399E+04  3.207160E+04  1.919612E+04  9.784764E+04 -1.148477E+04 -8.578202E+03
       304   1 -2.774122E+05 -4.654719E+04 -3.598615E+04  9.941173E+04 -3.875191E+03  1.078050E+04
       304   2 -3.460065E+05 -6.846146E+04 -5.843692E+04  9.993304E+04  1.777573E+04  1.054769E+04
       304   3 -4.200080E+05 -1.007688E+05 -9.758482E+04  1.113556E+05  3.942246E+04  3.387685E+03
       304   4 -8.717322E+04 -2.346376E+03 -5.261307E+03  9.871370E+04  3.871035E+03  1.078111E+04
       304   5 -8.591710E+04 -6.718960E+03 -9.876140E+03  9.326320E+04  8.905132E+03  1.054641E+04
       304   6 -8.718623E+04 -1.859664E+04 -1.964425E+04  9.871444E+04  1.393802E+04  3.385433E+03
       304   7  1.031019E+05  4.185264E+04  2.546278E+04  9.801544E+04  1.161955E+04  1.078171E+04
       304   8  1.742380E+05  5.501984E+04  3.868206E+04  8.659048E+04  3.090908E+01  1.054532E+04
       304   9  2.457394E+05  6.356863E+04  5.829129E+04  8.606648E+04 -1.155999E+04  3.384221E+03
       304  10 -2.774123E+05 -4.654732E+04 -3.598640E+04  9.941176E+04 -1.951260E-11 -3.172331E-11
       304  11 -3.460069E+05 -6.846166E+04 -5.843772E+04  9.993289E+04  9.610498E-11 -4.055451E-11
       304  12 -4.200097E+05 -1.007693E+05 -9.758776E+04  1.113555E+05 -1.052994E-10 -1.199422E-11
       304  13 -8.717327E+04 -2.346505E+03 -5.261554E+03  9.871366E+04  5.133061E-11  2.693318E-11
       304  14 -8.591722E+04 -6.719101E+03 -9.876498E+03  9.326312E+04 -1.077434E-10 -1.676103E-11
       304  15 -8.718644E+04 -1.859671E+04 -1.964464E+04  9.871440E+04 -1.243981E-10 -1.992511E-11
       304  16  1.031017E+05  4.185248E+04  2.546230E+04  9.801534E+04 -2.366037E-11 -2.985180E-12
       304  17  1.742380E+05  5.501972E+04  3.868185E+04  8.659048E+04 -1.065202E-11 -8.863823E-12
       304  18  2.457393E+05  6.356858E+04  5.829102E+04  8.606652E+04  1.358556E-10 -9.931890E-12
       304  19 -2.774122E+05 -4.654719E+04 -3.598615E+04  9.941173E+04  3.875191E+03 -1.078050E+04
       304  20 -3.460065E+05 -6.846146E+04 -5.843692E+04  9.993304E+04 -1.777573E+04 -1.054769E+04
       304  21 -4.200080E+05 -1.007688E+05 -9.758482E+04  1.113556E+05 -3.942246E+04 -3.387685E+03
       304  22 -8.717322E+04 -2.346376E+03 -5.261307E+03  9.871370E+04 -3.871035E+03 -1.078111E+04
       304  23 -8.591710E+04 -6.718960E+03 -9.876140E+03  9.326320E+04 -8.905132E+03 -1.054641E+04
       304  24 -8.718623E+04 -1.859664E+04 -1.964425E+04  9.871444E+04 -1.393802E+04 -3.385433E+03
       304  25  1.031019E+05  4.185264E+04  2.546278E+04  9.801544E+04 -1.161955E+04 -1.078171E+04
       304  26  1.742380E+05  5.501984E+04  3.868206E+04  8.659048E+04 -3.090908E+01 -1.054532E+04
       304  27  2.457394E+05  6.356863E+04  5.829129E+04  8.606648E+04  1.155999E+04 -3.384221E+03
       305   1  4.366209E+05  1.013704E+05  9.834469E+04  1.058050E+05  4.124218E+04 -3.381429E+03
       305   2  3.676400E+05  6.884315E+04  5.912689E+04  9.403318E+04  1.932791E+04 -1.064777E+04
       305   3  3.043400E+05  4.759918E+04  3.699080E+04  9.234303E+04 -2.582992E+03 -1.115481E+04
       305   4  1.105317E+05  2.093167E+04  2.213515E+04  9.153155E+04  1.567853E+04 -3.383520E+03
       305   5  1.091064E+05  7.555067E+03  1.115127E+04  8.649128E+04  9.997891E+03 -1.064902E+04
       305   6  1.105441E+05  2.647691E+03  5.982744E+03  9.153227E+04  4.318255E+03 -1.115440E+04
       305   7 -2.154576E+05 -5.951350E+04 -5.407907E+04  7.726563E+04 -9.871785E+03 -3.384439E+03
       305   8 -1.493622E+05 -5.373659E+04 -3.682680E+04  7.895260E+04  6.716554E+02 -1.065005E+04
       305   9 -8.321447E+04 -4.230566E+04 -2.502612E+04  9.072176E+04  1.121743E+04 -1.115401E+04
       305  10  4.366190E+05  1.013699E+05  9.834148E+04  1.058051E+05 -2.694237E-11 -2.682939E-12
       305  11  3.676395E+05  6.884293E+04  5.912598E+04  9.403335E+04 -2.846833E-10 -1.990683E-11
       305  12  3.043400E+05  4.759905E+04  3.699055E+04  9.234300E+04 -3.441311E-11  4.274147E-12
       305  13  1.105315E+05  2.093159E+04  2.213466E+04  9.153159E+04  6.770789E-12  3.081961E-12
       305  14  1.091062E+05  7.554918E+03  1.115087E+04  8.649137E+04 -1.008621E-10 -1.113445E-11
       305  15  1.105440E+05  2.647552E+03  5.982475E+03  9.153230E+04 -9.045543E-11  4.152523E-12
       305  16 -2.154577E+05 -5.951354E+04 -5.407927E+04  7.726561E+04 -1.159992E-10  1.209908E-11
       305  17 -1.493622E+05 -5.373672E+04 -3.682702E+04  7.895260E+04  1.397538E-10  1.326125E-11
       305  18 -8.321463E+04 -4.230582E+04 -2.502659E+04  9.072186E+04  7.666001E-11  3.972199E-11
       305  19  4.366209E+05  1.013704E+05  9.834469E+04  1.058050E+05 -4.124218E+04  3.381429E+03
       305  20  3.676400E+05  6.884315E+04  5.912689E+04  9.403318E+04 -1.932791E+04  1.064777E+04
       305  21  3.043400E+05  4.759918E+04  3.699080E+04  9.234303E+04  2.582992E+03  1.115481E+04
       305  22  1.105317E+05  2.093167E+04  2.213515E+04  9.153155E+04 -1.567853E+04  3.383520E+03
       305  23  1.091064E+05  7.555067E+03  1.115127E+04  8.649128E+04 -9.997891E+03  1.064902E+04
       305  24  1.105441E+05  2.647691E+03  5.982744E+03  9.153227E+04 -4.318255E+03  1.115440E+04
       305  25 -2.154576E+05 -5.951350E+04 -5.407907E+04  7.726563E+04  9.871785E+03  3.384439E+03
       305  26 -1.493622E+05 -5.373659E+04 -3.682680E+04  7.895260E+04 -6.716554E+02  1.065005E+04
       305  27 -8.321447E+04 -4.230566E+04 -2.502612E+04  9.072176E+04 -1.121743E+04  1.115401E+04
       306   1  2.625304E+05  3.719167E+04  2.822504E+04  9.277085E+04 -3.885920E+03 -9.165034E+03
       306   2  1.960946E+05  2.042384E+04  1.496437E+04  8.690821E+04 -6.922018E+03 -5.673813E+03
       306   3  1.303507E+05  4.817361E+03  3.970379E+03  9.162385E+04 -9.957924E+03 -1.390334E+03
       306   4  1.099899E+05  1.928560E+03  4.417949E+03  9.164286E+04  3.544911E+03 -9.164355E+03
       306   5  1.098131E+05  6.299701E+02  2.261756E+03  8.635377E+04  2.410646E+03 -5.672706E+03
       306   6  1.099939E+05  1.629174E+02  1.051929E+03  9.164302E+04  1.276271E+03 -1.388747E+03
       306   7 -4.252736E+04 -3.333565E+04 -1.938949E+04  9.051515E+04  1.097398E+04 -9.163702E+03
       306   8  2.353927E+04 -1.916419E+04 -1.044066E+04  8.579941E+04  1.174207E+04 -5.671616E+03
       306   9  8.963779E+04 -4.491477E+03 -1.866053E+03  9.166218E+04  1.251011E+04 -1.387159E+03
       306  10  2.625304E+05  3.719157E+04  2.822486E+04  9.277082E+04 -3.587057E-11 -1.035541E-11
       306  11  1.960946E+05  2.042379E+04  1.496422E+04  8.690818E+04 -2.386208E-11  3.346360E-11
       306  12  1.303505E+05  4.817332E+03  3.970189E+03  9.162384E+04  6.146886E-11  3.991550E-12
       306  13  1.099898E+05  1.928467E+03  4.417768E+03  9.164288E+04 -1.447854E-11 -1.103662E-11
       306  14  1.098131E+05  6.299340E+02  2.261685E+03  8.635378E+04  1.438791E-11  2.492442E-11
       306  15  1.099939E+05  1.629149E+02  1.051922E+03  9.164302E+04  1.473070E-10  3.901942E-11
       306  16 -4.252751E+04 -3.333578E+04 -1.938987E+04  9.051523E+04  3.595569E-11  1.806654E-11
       306  17  2.353911E+04 -1.916427E+04 -1.044098E+04  8.579946E+04  1.253874E-10 -2.047424E-13
       306  18  8.963762E+04 -4.491521E+03 -1.866350E+03  9.166220E+04 -1.332164E-10 -2.522034E-11
       306  19  2.625304E+05  3.719167E+04  2.822504E+04  9.277085E+04  3.885920E+03  9.165034E+03
       306  20  1.960946E+05  2.042384E+04  1.496437E+04  8.690821E+04  6.922018E+03  5.673813E+03
       306  21  1.303507E+05  4.817361E+03  3.970379E+03  9.162385E+04  9.957924E+03  1.390334E+03
       306  22  1.099899E+05  1.928560E+03  4.417949E+03  9.164286E+04 -3.544911E+03  9.164355E+03
       306  23  1.098131E+05  6.299701E+02  2.261756E+03  8.635377E+04 -2.410646E+03  5.672706E+03
       306  24  1.099939E+05  1.629174E+02  1.051929E+03  9.164302E+04 -1.276271E+03  1.388747E+03
       306  25 -4.252736E+04 -3.333565E+04 -1.938949E+04  9.051515E+04 -1.097398E+04  9.163702E+03
       306  26  2.353927E+04 -1.916419E+04 -1.044066E+04  8.579941E+04 -1.174207E+04  5.671616E+03
       306  27  8.963779E+04 -4.491477E+03 -1.866053E+03  9.166218E+04 -1.251011E+04  1.387159E+03
       307   1  8.937648E+04 -4.604808E+03 -2.327856E+03  9.165885E+04 -1.009755E+04  1.400591E+03
       307   2  2.348327E+04 -1.998893E+04 -1.289336E+04  8.651175E+04 -8.107728E+03  5.684892E+03
       307   3 -4.278814E+04 -3.587887E+04 -2.488019E+04  9.194324E+04 -6.118019E+03  9.176399E+03
       307   4  1.099026E+05  8.800363E+01  6.122681E+02  9.164305E+04  1.136344E+03  1.402179E+03
       307   5  1.099273E+05 -1.564026E+02 -1.683048E+02  8.635384E+04  1.222873E+03  5.685994E+03
       307   6  1.098988E+05 -5.763128E+02 -1.049042E+03  9.164312E+04  1.309513E+03  9.177074E+03
       307   7  1.304294E+05  4.780864E+03  3.552860E+03  9.162725E+04  1.237060E+04  1.403766E+03
       307   8  1.963790E+05  1.967582E+04  1.255695E+04  8.619591E+04  1.055472E+04  5.687091E+03
       307   9  2.626091E+05  3.472513E+04  2.278176E+04  9.134292E+04  8.738804E+03  9.177741E+03
       307  10  8.937637E+04 -4.604838E+03 -2.328051E+03  9.165886E+04  6.806277E-11  6.591687E-12
       307  11  2.348319E+04 -1.998898E+04 -1.289355E+04  8.651179E+04  3.333014E-11  6.308648E-11
       307  12 -4.278820E+04 -3.587897E+04 -2.488042E+04  9.194328E+04  9.581677E-11 -9.223280E-11
       307  13  1.099026E+05  8.800117E+01  6.122620E+02  9.164305E+04 -6.836658E-11 -1.109464E-11
       307  14  1.099273E+05 -1.564377E+02 -1.683683E+02  8.635384E+04  5.585783E-11 -7.834535E-11
       307  15  1.098988E+05 -5.764037E+02 -1.049203E+03  9.164311E+04  4.453896E-11 -5.043143E-11
       307  16  1.304293E+05  4.780821E+03  3.552568E+03  9.162724E+04  8.542274E-11  1.472018E-11
       307  17  1.963789E+05  1.967576E+04  1.255668E+04  8.619586E+04  6.142847E-11 -3.145520E-11
       307  18  2.626090E+05  3.472502E+04  2.278146E+04  9.134285E+04 -8.317339E-11 -1.089016E-11
       307  19  8.937648E+04 -4.604808E+03 -2.327856E+03  9.165885E+04  1.009755E+04 -1.400591E+03
       307  20  2.348327E+04 -1.998893E+04 -1.289336E+04  8.651175E+04  8.107728E+03 -5.684892E+03
       307  21 -4.278814E+04 -3.587887E+04 -2.488019E+04  9.194324E+04  6.118019E+03 -9.176399E+03
       307  22  1.099026E+05  8.800363E+01  6.122681E+02  9.164305E+04 -1.136344E+03 -1.402179E+03
       307  23  1.099273E+05 -1.564026E+02 -1.683048E+02  8.635384E+04 -1.222873E+03 -5.685994E+03
       307  24  1.098988E+05 -5.763128E+02 -1.049042E+03  9.164312E+04 -1.309513E+03 -9.177074E+03
       307  25  1.304294E+05  4.780864E+03  3.552860E+03  9.162725E+04 -1.237060E+04 -1.403766E+03
       307  26  1.963790E+05  1.967582E+04  1.255695E+04  8.619591E+04 -1.055472E+04 -5.687091E+03
       307  27  2.626091E+05  3.472513E+04  2.278176E+04  9.134292E+04 -8.738804E+03 -9.177741E+03
       308   1 -8.421027E+04 -4.579166E+04 -3.263152E+04  9.174509E+04 -5.398974E+03  1.116636E+04
       308   2 -1.485012E+05 -6.362467E+04 -5.127730E+04  8.873981E+04  1.250304E+04  1.065990E+04
       308   3 -2.164548E+05 -8.682028E+04 -8.291888E+04  9.581244E+04  3.040217E+04  3.388165E+03
       308   4  1.097199E+05 -7.991938E+02 -1.597728E+03  9.153191E+04  1.498803E+03  1.116677E+04
       308   5  1.101377E+05 -2.294016E+03 -3.270298E+03  8.649308E+04  3.168337E+03  1.065884E+04
       308   6  1.097089E+05 -6.331550E+03 -6.664641E+03  9.153213E+04  4.836810E+03  3.386812E+03
       308   7  3.036875E+05  4.419142E+04  2.943526E+04  9.131866E+04  8.398657E+03  1.116717E+04
       308   8  3.688416E+05  5.903287E+04  4.473421E+04  8.424538E+04 -6.170159E+03  1.065784E+04
       308   9  4.359721E+05  7.415005E+04  6.958483E+04  8.724955E+04 -2.074190E+04  3.385812E+03
       308  10 -8.421034E+04 -4.579181E+04 -3.263181E+04  9.174514E+04  2.117841E-11 -1.081109E-10
       308  11 -1.485014E+05 -6.362483E+04 -5.127780E+04  8.873971E+04 -4.232622E-11 -4.615139E-11
       308  12 -2.164558E+05 -8.682054E+04 -8.292064E+04  9.581236E+04  7.957190E-12 -2.113732E-11
       308  13  1.097198E+05 -7.993283E+02 -1.597966E+03  9.153190E+04  4.230116E-11 -1.615766E-11
       308  14  1.101377E+05 -2.294141E+03 -3.270531E+03  8.649305E+04 -1.418230E-10 -4.253707E-12
       308  15  1.097088E+05 -6.331569E+03 -6.664707E+03  9.153212E+04 -4.704178E-11  3.751131E-12
       308  16  3.036874E+05  4.419126E+04  2.943489E+04  9.131858E+04  9.242173E-11  4.219593E-11
       308  17  3.688415E+05  5.903273E+04  4.473392E+04  8.424543E+04  1.676103E-10  2.672103E-11
       308  18  4.359716E+05  7.414993E+04  6.958400E+04  8.724961E+04 -8.206210E-11  2.229960E-11
       308  19 -8.421027E+04 -4.579166E+04 -3.263152E+04  9.174509E+04  5.398974E+03 -1.116636E+04
       308  20 -1.485012E+05 -6.362467E+04 -5.127730E+04  8.873981E+04 -1.250304E+04 -1.065990E+04
       308  21 -2.164548E+05 -8.682028E+04 -8.291888E+04  9.581244E+04 -3.040217E+04 -3.388165E+03
       308  22  1.097199E+05 -7.991938E+02 -1.597728E+03  9.153191E+04 -1.498803E+03 -1.116677E+04
       308  23  1.101377E+05 -2.294016E+03 -3.270298E+03  8.649308E+04 -3.168337E+03 -1.065884E+04
       308  24  1.097089E+05 -6.331550E+03 -6.664641E+03  9.153213E+04 -4.836810E+03 -3.386812E+03
       308  25  3.036875E+05  4.419142E+04  2.943526E+04  9.131866E+04 -8.398657E+03 -1.116717E+04
       308  26  3.688416E+05  5.903287E+04  4.473421E+04  8.424538E+04  6.170159E+03 -1.065784E+04
       308  27  4.359721E+05  7.415005E+04  6.958483E+04  8.724955E+04  2.074190E+04 -3.385812E+03
       309   1  6.302967E+05  1.127808E+05  1.106572E+05  1.197484E+05  4.943456E+04 -3.240194E+03
       309   2  5.565869E+05  7.141674E+04  6.463778E+04  1.036312E+05  2.424815E+04 -1.007310E+04
       309   3  4.902429E+05  4.637402E+04  3.908522E+04  9.822793E+04 -9.339863E+02 -1.021712E+04
       309   4  3.088097E+05  3.346532E+04  3.539740E+04  9.691896E+04  2.499050E+04 -3.243307E+03
       309   5  3.065294E+05  1.208068E+04  1.789772E+04  9.156308E+04  1.587299E+04 -1.007456E+04
       309   6  3.088259E+05  4.233363E+03  9.716345E+03  9.692015E+04  6.756586E+03 -1.021653E+04
       309   7 -1.257969E+04 -4.585519E+04 -3.986688E+04  7.410144E+04  5.589983E+02 -3.244625E+03
       309   8  5.653284E+04 -4.725840E+04 -2.884468E+04  7.949997E+04  7.501124E+03 -1.007568E+04
       309   9  1.274417E+05 -3.790892E+04 -1.965322E+04  9.561277E+04  1.444499E+04 -1.021597E+04
       309  10  6.302941E+05  1.127801E+05  1.106526E+05  1.197485E+05 -1.064056E-10  3.912242E-11
       309  11  5.565862E+05  7.141647E+04  6.463648E+04  1.036314E+05 -1.847438E-10  6.821411E-11
       309  12  4.902429E+05  4.637390E+04  3.908503E+04  9.822793E+04  1.605230E-10 -3.840118E-11
       309  13  3.088091E+05  3.346514E+04  3.539621E+04  9.691903E+04 -2.100284E-12  2.239454E-11
       309  14  3.065291E+05  1.208050E+04  1.789706E+04  9.156321E+04 -3.523405E-10  5.409775E-11
       309  15  3.088258E+05  4.233239E+03  9.716063E+03  9.692021E+04 -7.633229E-11  6.411828E-12
       309  16 -1.257969E+04 -4.585520E+04 -3.986690E+04  7.410144E+04 -6.261872E-12  1.384697E-11
       309  17  5.653276E+04 -4.725852E+04 -2.884498E+04  7.950003E+04  9.055641E-12  1.561176E-11
       309  18  1.274414E+05 -3.790909E+04 -1.965381E+04  9.561289E+04 -3.002762E-10  2.070092E-11
       309  19  6.302967E+05  1.127808E+05  1.106572E+05  1.197484E+05 -4.943456E+04  3.240194E+03
       309  20  5.565869E+05  7.141674E+04  6.463778E+04  1.036312E+05 -2.424815E+04  1.007310E+04
       309  21  4.902429E+05  4.637402E+04  3.908522E+04  9.822793E+04  9.339863E+02  1.021712E+04
       309  22  3.088097E+05  3.346532E+04  3.539740E+04  9.691896E+04 -2.499050E+04  3.243307E+03
       309  23  3.065294E+05  1.208068E+04  1.789772E+04  9.156308E+04 -1.587299E+04  1.007456E+04
       309  24  3.088259E+05  4.233363E+03  9.716345E+03  9.692015E+04 -6.756586E+03  1.021653E+04
       309  25 -1.257969E+04 -4.585519E+04 -3.986688E+04  7.410144E+04 -5.589983E+02  3.244625E+03
       309  26  5.653284E+04 -4.725840E+04 -2.884468E+04  7.949997E+04 -7.501124E+03  1.007568E+04
       309  27  1.274417E+05 -3.790892E+04 -1.965322E+04  9.561277E+04 -1.444499E+04  1.021597E+04
       310   1  4.457182E+05  3.499814E+04  2.913888E+04  9.885055E+04 -2.725657E+03 -8.039082E+03
       310   2  3.752807E+05  1.660057E+04  1.428199E+04  9.231352E+04 -6.570070E+03 -4.234873E+03
       310   3  3.057772E+05 -9.366195E+01  2.353012E+03  9.697899E+04 -1.041409E+04  3.367030E+02
       310   4  3.079465E+05  3.081943E+03  7.271681E+03  9.702913E+04  5.488418E+03 -8.038220E+03
       310   5  3.076441E+05  1.021003E+03  3.995160E+03  9.142801E+04  3.486491E+03 -4.233614E+03
       310   6  3.079503E+05  3.437491E+02  2.367510E+03  9.702937E+04  1.484525E+03  3.383915E+02
       310   7  1.701939E+05 -2.883515E+04 -1.459575E+04  9.520814E+04  1.370074E+04 -8.037405E+03
       310   8  2.400124E+05 -1.455873E+04 -6.291389E+03  9.054260E+04  1.354200E+04 -4.232383E+03
       310   9  3.101238E+05  7.812361E+02  2.382541E+03  9.707974E+04  1.338318E+04  3.400819E+02
       310  10  4.457181E+05  3.499807E+04  2.913875E+04  9.885053E+04 -6.003115E-11 -6.593356E-11
       310  11  3.752806E+05  1.660054E+04  1.428188E+04  9.231350E+04  4.044231E-11  8.376875E-11
       310  12  3.057771E+05 -9.369117E+01  2.352808E+03  9.697900E+04 -2.147764E-10 -2.913348E-12
       310  13  3.079465E+05  3.081866E+03  7.271503E+03  9.702917E+04 -4.207794E-11 -2.190028E-11
       310  14  3.076441E+05  1.020981E+03  3.995104E+03  9.142802E+04  2.246139E-11  1.604968E-11
       310  15  3.079503E+05  3.437484E+02  2.367506E+03  9.702937E+04 -8.492579E-11  1.732373E-11
       310  16  1.701937E+05 -2.883527E+04 -1.459622E+04  9.520823E+04 -1.099638E-11  3.548931E-11
       310  17  2.400122E+05 -1.455879E+04 -6.291767E+03  9.054265E+04 -8.409013E-11 -7.490461E-11
       310  18  3.101236E+05  7.811879E+02  2.382204E+03  9.707974E+04  1.145292E-10  6.489601E-11
       310  19  4.457182E+05  3.499814E+04  2.913888E+04  9.885055E+04  2.725657E+03  8.039082E+03
       310  20  3.752807E+05  1.660057E+04  1.428199E+04  9.231352E+04  6.570070E+03  4.234873E+03
       310  21  3.057772E+05 -9.366195E+01  2.353012E+03  9.697899E+04  1.041409E+04 -3.367030E+02
       310  22  3.079465E+05  3.081943E+03  7.271681E+03  9.702913E+04 -5.488418E+03  8.038220E+03
       310  23  3.076441E+05  1.021003E+03  3.995160E+03  9.142801E+04 -3.486491E+03  4.233614E+03
       310  24  3.079503E+05  3.437491E+02  2.367510E+03  9.702937E+04 -1.484525E+03 -3.383915E+02
       310  25  1.701939E+05 -2.883515E+04 -1.459575E+04  9.520814E+04 -1.370074E+04  8.037405E+03
       310  26  2.400124E+05 -1.455873E+04 -6.291389E+03  9.054260E+04 -1.354200E+04  4.232383E+03
       310  27  3.101238E+05  7.812361E+02  2.382541E+03  9.707974E+04 -1.338318E+04 -3.400819E+02
       311   1  2.623948E+05 -1.006954E+04 -4.324301E+03  9.707142E+04 -1.076139E+04  3.290839E+03
       311   2  1.925350E+05 -2.619883E+04 -1.526432E+04  9.131494E+04 -9.255448E+03  7.787945E+03
       311   3  1.224644E+05 -4.241410E+04 -2.720575E+04  9.675175E+04 -7.749477E+03  1.137455E+04
       311   4  3.078513E+05  2.620089E+02  1.891621E+03  9.702729E+04  1.126934E+03  3.292482E+03
       311   5  3.077662E+05  1.667528E+02  1.364731E+03  9.143073E+04  4.466489E+02  7.788971E+03
       311   6  3.078459E+05  3.653902E+02  1.354260E+03  9.702729E+04 -2.334839E+02  1.137505E+04
       311   7  3.533103E+05  1.059354E+04  8.108053E+03  9.698315E+04  1.301609E+04  3.294123E+03
       311   8  4.230111E+05  2.653178E+04  1.799392E+04  9.154654E+04  1.015047E+04  7.790002E+03
       311   9  4.932618E+05  4.314324E+04  2.991371E+04  9.730291E+04  7.284667E+03  1.137555E+04
       311  10  2.623947E+05 -1.006958E+04 -4.324539E+03  9.707145E+04  2.447984E-11  5.721006E-11
       311  11  1.925349E+05 -2.619892E+04 -1.526459E+04  9.131500E+04  1.045469E-10  3.439737E-11
       311  12  1.224643E+05 -4.241425E+04 -2.720610E+04  9.675182E+04  6.506175E-11 -5.729388E-11
       311  13  3.078513E+05  2.619969E+02  1.891599E+03  9.702728E+04  7.574073E-11  6.102620E-11
       311  14  3.077662E+05  1.666876E+02  1.364617E+03  9.143073E+04  6.324765E-11  3.851845E-11
       311  15  3.078459E+05  3.652512E+02  1.354017E+03  9.702729E+04 -3.626007E-11 -5.636072E-11
       311  16  3.533101E+05  1.059349E+04  8.107715E+03  9.698312E+04 -9.941601E-11  1.042141E-10
       311  17  4.230109E+05  2.653169E+04  1.799362E+04  9.154648E+04  3.106892E-11 -2.988187E-11
       311  18  4.932617E+05  4.314309E+04  2.991337E+04  9.730284E+04 -1.820039E-10 -1.072801E-10
       311  19  2.623948E+05 -1.006954E+04 -4.324301E+03  9.707142E+04  1.076139E+04 -3.290839E+03
       311  20  1.925350E+05 -2.619883E+04 -1.526432E+04  9.131494E+04  9.255448E+03 -7.787945E+03
       311  21  1.224644E+05 -4.241410E+04 -2.720575E+04  9.675175E+04  7.749477E+03 -1.137455E+04
       311  22  3.078513E+05  2.620089E+02  1.891621E+03  9.702729E+04 -1.126934E+03 -3.292482E+03
       311  23  3.077662E+05  1.667528E+02  1.364731E+03  9.143073E+04 -4.466489E+02 -7.788971E+03
       311  24  3.078459E+05  3.653902E+02  1.354260E+03  9.702729E+04  2.334839E+02 -1.137505E+04
       311  25  3.533103E+05  1.059354E+04  8.108053E+03  9.698315E+04 -1.301609E+04 -3.294123E+03
       311  26  4.230111E+05  2.653178E+04  1.799392E+04  9.154654E+04 -1.015047E+04 -7.790002E+03
       311  27  4.932618E+05  4.314324E+04  2.991371E+04  9.730291E+04 -7.284667E+03 -1.137555E+04
       312   1  7.885210E+04 -5.257129E+04 -3.479371E+04  9.670499E+04 -7.376771E+03  1.340878E+04
       312   2  1.013564E+04 -6.905163E+04 -5.257757E+04  9.011942E+04  9.765748E+03  1.247913E+04
       312   3 -6.118859E+04 -8.708749E+04 -8.190823E+04  9.416589E+04  2.690470E+04  3.922603E+03
       312   4  3.079315E+05  4.959398E+02  1.511456E+03  9.690250E+04 -4.594851E+02  1.340897E+04
       312   5  3.076420E+05  1.412903E+03  2.288277E+03  9.158661E+04 -1.620500E+03  1.247804E+04
       312   6  3.079173E+05  3.951968E+03  4.227201E+03  9.690242E+04 -2.783016E+03  3.922012E+03
       312   7  5.370633E+05  5.356059E+04  3.781547E+04  9.710007E+04  6.460259E+03  1.340915E+04
       312   8  6.052344E+05  7.187246E+04  5.715094E+04  9.305452E+04 -1.301206E+04  1.247691E+04
       312   9  6.771507E+05  9.498229E+04  9.035671E+04  9.964057E+04 -3.248827E+04  3.921162E+03
       312  10  7.885199E+04 -5.257150E+04 -3.479415E+04  9.670507E+04 -1.022862E-10 -4.009513E-11
       312  11  1.013549E+04 -6.905182E+04 -5.257804E+04  9.011932E+04  1.465728E-12  1.491969E-11
       312  12 -6.118937E+04 -8.708770E+04 -8.190961E+04  9.416580E+04 -2.521992E-11  2.963484E-11
       312  13  3.079315E+05  4.957467E+02  1.511118E+03  9.690250E+04  8.406693E-12 -7.749488E-11
       312  14  3.076419E+05  1.412735E+03  2.287979E+03  9.158663E+04  2.788432E-11 -5.047282E-11
       312  15  3.079173E+05  3.951950E+03  4.227157E+03  9.690243E+04  1.027648E-10 -4.455964E-11
       312  16  5.370632E+05  5.356038E+04  3.781505E+04  9.710000E+04  1.939936E-10 -8.011970E-11
       312  17  6.052342E+05  7.187225E+04  5.715033E+04  9.305465E+04 -6.760637E-12 -9.273794E-11
       312  18  6.771495E+05  9.498199E+04  9.035470E+04  9.964068E+04  1.836368E-10 -6.982721E-11
       312  19  7.885210E+04 -5.257129E+04 -3.479371E+04  9.670499E+04  7.376771E+03 -1.340878E+04
       312  20  1.013564E+04 -6.905163E+04 -5.257757E+04  9.011942E+04 -9.765748E+03 -1.247913E+04
       312  21 -6.118859E+04 -8.708749E+04 -8.190823E+04  9.416589E+04 -2.690470E+04 -3.922603E+03
       312  22  3.079315E+05  4.959398E+02  1.511456E+03  9.690250E+04  4.594851E+02 -1.340897E+04
       312  23  3.076420E+05  1.412903E+03  2.288277E+03  9.158661E+04  1.620500E+03 -1.247804E+04
       312  24  3.079173E+05  3.951968E+03  4.227201E+03  9.690242E+04  2.783016E+03 -3.922012E+03
       312  25  5.370633E+05  5.356059E+04  3.781547E+04  9.710007E+04 -6.460259E+03 -1.340915E+04
       312  26  6.052344E+05  7.187246E+04  5.715094E+04  9.305452E+04  1.301206E+04 -1.247691E+04
       312  27  6.771507E+05  9.498229E+04  9.035671E+04  9.964057E+04  3.248827E+04 -3.921162E+03
       313   1  8.843378E+05  1.353733E+05  1.342565E+05  1.520869E+05  6.146340E+04 -3.295026E+03
       313   2  7.942597E+05  7.963832E+04  7.651653E+04  1.294490E+05  3.010604E+04 -9.967610E+03
       313   3  7.140971E+05  4.720332E+04  4.499683E+04  1.199111E+05 -1.244652E+03 -9.396281E+03
       313   4  5.386942E+05  5.006253E+04  5.307428E+04  1.178206E+05  3.673049E+04 -3.299806E+03
       313   5  5.352606E+05  1.805164E+04  2.739657E+04  1.112724E+05  2.278155E+04 -9.969417E+03
       313   6  5.387206E+05  6.326735E+03  1.586629E+04  1.178218E+05  8.834287E+03 -9.395336E+03
       313   7  1.931643E+05 -3.525199E+04 -2.811316E+04  8.357350E+04  1.201125E+04 -3.301862E+03
       313   8  2.763271E+05 -4.353769E+04 -2.172601E+04  9.310349E+04  1.546004E+04 -9.970795E+03
       313   9  3.633747E+05 -3.455138E+04 -1.326480E+04  1.157332E+05  1.891048E+04 -9.394459E+03
       313  10  8.843338E+05  1.353723E+05  1.342494E+05  1.520870E+05 -1.677836E-10  2.373093E-12
       313  11  7.942587E+05  7.963797E+04  7.651465E+04  1.294493E+05  1.555880E-10  1.569629E-11
       313  12  7.140971E+05  4.720323E+04  4.499666E+04  1.199111E+05  3.993484E-10  5.388968E-11
       313  13  5.386928E+05  5.006216E+04  5.307173E+04  1.178207E+05 -1.901245E-10  7.423018E-11
       313  14  5.352600E+05  1.805139E+04  2.739541E+04  1.112726E+05 -2.404576E-10  7.798368E-11
       313  15  5.387205E+05  6.326620E+03  1.586598E+04  1.178219E+05  3.071292E-10  6.465329E-11
       313  16  1.931642E+05 -3.525204E+04 -2.811345E+04  8.357353E+04 -3.562489E-11  4.179535E-11
       313  17  2.763268E+05 -4.353786E+04 -2.172665E+04  9.310361E+04 -2.361772E-10  9.211350E-11
       313  18  3.633743E+05 -3.455157E+04 -1.326564E+04  1.157333E+05 -2.853143E-10  1.750759E-11
       313  19  8.843378E+05  1.353733E+05  1.342565E+05  1.520869E+05 -6.146340E+04  3.295026E+03
       313  20  7.942597E+05  7.963832E+04  7.651653E+04  1.294490E+05 -3.010604E+04  9.967610E+03
       313  21  7.140971E+05  4.720332E+04  4.499683E+04  1.199111E+05  1.244652E+03  9.396281E+03
       313  22  5.386942E+05  5.006253E+04  5.307428E+04  1.178206E+05 -3.673049E+04  3.299806E+03
       313  23  5.352606E+05  1.805164E+04  2.739657E+04  1.112724E+05 -2.278155E+04  9.969417E+03
       313  24  5.387206E+05  6.326735E+03  1.586629E+04  1.178218E+05 -8.834287E+03  9.395336E+03
       313  25  1.931643E+05 -3.525199E+04 -2.811316E+04  8.357350E+04 -1.201125E+04  3.301862E+03
       313  26  2.763271E+05 -4.353769E+04 -2.172601E+04  9.310349E+04 -1.546004E+04  9.970795E+03
       313  27  3.633747E+05 -3.455138E+04 -1.326480E+04  1.157332E+05 -1.891048E+04  9.394459E+03
       314   1  6.598516E+05  3.311781E+04  3.294470E+04  1.208577E+05 -3.986144E+03 -6.612818E+03
       314   2  5.740068E+05  1.040333E+04  1.578051E+04  1.124711E+05 -1.053715E+04 -1.783027E+03
       314   3  4.897438E+05 -9.431559E+03  3.598527E+03  1.177096E+05 -1.708739E+04  3.843834E+03
       314   4  5.374678E+05  4.608584E+03  1.270181E+04  1.179393E+05  6.658271E+03 -6.611548E+03
       314   5  5.368473E+05  1.675789E+03  9.280256E+03  1.111270E+05  2.021547E+03 -1.781405E+03
       314   6  5.374708E+05  1.291245E+03  9.512983E+03  1.179395E+05 -2.615211E+03  3.845798E+03
       314   7  4.150990E+05 -2.390132E+04 -7.541108E+03  1.150216E+05  1.730066E+04 -6.610378E+03
       314   8  4.996895E+05 -7.051733E+03  2.780550E+03  1.097829E+05  1.457951E+04 -1.779837E+03
       314   9  5.852006E+05  1.201407E+04  1.542822E+04  1.181694E+05  1.185802E+04  3.847774E+03
       314  10  6.598515E+05  3.311776E+04  3.294459E+04  1.208576E+05 -1.445193E-10  4.853505E-11
       314  11  5.740066E+05  1.040330E+04  1.578029E+04  1.124711E+05  2.021899E-10  1.461005E-10
       314  12  4.897435E+05 -9.431653E+03  3.597951E+03  1.177096E+05  2.202868E-10  1.927483E-10
       314  13  5.374677E+05  4.608525E+03  1.270164E+04  1.179394E+05  2.647476E-10  7.263590E-11
       314  14  5.368473E+05  1.675785E+03  9.280243E+03  1.111270E+05 -4.991264E-10  1.070956E-11
       314  15  5.374708E+05  1.291228E+03  9.512942E+03  1.179395E+05 -5.610304E-11  9.921132E-11
       314  16  4.150987E+05 -2.390145E+04 -7.541752E+03  1.150217E+05 -1.643652E-10 -1.316811E-11
       314  17  4.996892E+05 -7.051794E+03  2.780145E+03  1.097829E+05 -1.565003E-10  2.698135E-11
       314  18  5.852005E+05  1.201402E+04  1.542793E+04  1.181694E+05  5.502363E-11  1.030290E-10
       314  19  6.598516E+05  3.311781E+04  3.294470E+04  1.208577E+05  3.986144E+03  6.612818E+03
       314  20  5.740068E+05  1.040333E+04  1.578051E+04  1.124711E+05  1.053715E+04  1.783027E+03
       314  21  4.897438E+05 -9.431559E+03  3.598527E+03  1.177096E+05  1.708739E+04 -3.843834E+03
       314  22  5.374678E+05  4.608584E+03  1.270181E+04  1.179393E+05 -6.658271E+03  6.611548E+03
       314  23  5.368473E+05  1.675789E+03  9.280256E+03  1.111270E+05 -2.021547E+03  1.781405E+03
       314  24  5.374708E+05  1.291245E+03  9.512983E+03  1.179395E+05  2.615211E+03 -3.845798E+03
       314  25  4.150990E+05 -2.390132E+04 -7.541108E+03  1.150216E+05 -1.730066E+04  6.610378E+03
       314  26  4.996895E+05 -7.051733E+03  2.780550E+03  1.097829E+05 -1.457951E+04  1.779837E+03
       314  27  5.852006E+05  1.201407E+04  1.542822E+04  1.181694E+05 -1.185802E+04 -3.847774E+03
       315   1  4.373945E+05 -2.124232E+04 -2.675076E+03  1.181662E+05 -1.875763E+04  7.433676E+03
       315   2  3.513805E+05 -3.832812E+04 -9.955967E+03  1.077424E+05 -2.391470E+04  1.282659E+04
       315   3  2.672828E+05 -5.049151E+04 -1.264798E+04  1.109168E+05 -2.907087E+04  1.697759E+04
       315   4  5.377319E+05  1.504150E+03  1.077550E+04  1.179333E+05 -4.317309E+03  7.435476E+03
       315   5  5.365119E+05  3.922893E+03  1.625703E+04  1.111343E+05 -1.245945E+04  1.282726E+04
       315   6  5.377173E+05  1.178100E+04  2.839715E+04  1.179326E+05 -2.060136E+04  1.697726E+04
       315   7  6.380800E+05  2.425030E+04  2.422676E+04  1.177004E+05  1.012524E+04  7.437266E+03
       315   8  7.216783E+05  4.617248E+04  4.247004E+04  1.145272E+05 -1.000936E+03  1.282806E+04
       315   9  8.082253E+05  7.405023E+04  6.944105E+04  1.249516E+05 -1.212830E+04  1.697713E+04
       315  10  4.373941E+05 -2.124247E+04 -2.675841E+03  1.181663E+05  3.599268E-10  1.747048E-10
       315  11  3.513798E+05 -3.832845E+04 -9.957351E+03  1.077427E+05  2.153733E-10 -6.667831E-11
       315  12  2.672818E+05 -5.049204E+04 -1.265010E+04  1.109172E+05  2.608834E-10 -3.979298E-10
       315  13  5.377318E+05  1.504086E+03  1.077536E+04  1.179333E+05  1.684083E-11  6.609213E-11
       315  14  5.365117E+05  3.922675E+03  1.625643E+04  1.111344E+05  9.021650E-11 -8.145985E-11
       315  15  5.377168E+05  1.178058E+04  2.839581E+04  1.179329E+05 -9.014171E-11 -2.909093E-10
       315  16  6.380798E+05  2.425021E+04  2.422647E+04  1.177003E+05 -1.560518E-10  2.865114E-11
       315  17  7.216783E+05  4.617230E+04  4.246973E+04  1.145272E+05 -1.079147E-10 -1.415258E-10
       315  18  8.082251E+05  7.404988E+04  6.944023E+04  1.249517E+05 -3.795488E-11 -2.006389E-10
       315  19  4.373945E+05 -2.124232E+04 -2.675076E+03  1.181662E+05  1.875763E+04 -7.433676E+03
       315  20  3.513805E+05 -3.832812E+04 -9.955967E+03  1.077424E+05  2.391470E+04 -1.282659E+04
       315  21  2.672828E+05 -5.049151E+04 -1.264798E+04  1.109168E+05  2.907087E+04 -1.697759E+04
       315  22  5.377319E+05  1.504150E+03  1.077550E+04  1.179333E+05  4.317309E+03 -7.435476E+03
       315  23  5.365119E+05  3.922893E+03  1.625703E+04  1.111343E+05  1.245945E+04 -1.282726E+04
       315  24  5.377173E+05  1.178100E+04  2.839715E+04  1.179326E+05  2.060136E+04 -1.697726E+04
       315  25  6.380800E+05  2.425030E+04  2.422676E+04  1.177004E+05 -1.012524E+04 -7.437266E+03
       315  26  7.216783E+05  4.617248E+04  4.247004E+04  1.145272E+05  1.000936E+03 -1.282806E+04
       315  27  8.082253E+05  7.405023E+04  6.944105E+04  1.249516E+05  1.212830E+04 -1.697713E+04
       316   1  2.174563E+05 -5.863367E+04 -1.305942E+04  1.127446E+05 -3.320808E+04  1.931222E+04
       316   2  1.256317E+05 -4.986911E+04 -5.577672E+03  6.509295E+04 -4.387310E+04  1.743885E+04
       316   3  4.714906E+04  6.584471E+03  2.077398E+04  3.030842E+04 -5.453864E+04  5.417295E+03
       316   4  5.410729E+05  1.620067E+04  3.762970E+04  1.177676E+05 -2.554225E+04  1.931147E+04
       316   5  5.322722E+05  4.629771E+04  6.879860E+04  1.113377E+05 -6.058500E+04  1.743452E+04
       316   6  5.410191E+05  1.282889E+05  1.357484E+05  1.177699E+05 -9.563064E+04  5.411033E+03
       316   7  8.647941E+05  9.102999E+04  8.831652E+04  1.227932E+05 -1.787258E+04  1.931085E+04
       316   8  9.390785E+05  1.424633E+05  1.431704E+05  1.576135E+05 -7.730754E+04  1.742770E+04
       316   9  1.035134E+06  2.500058E+05  2.507168E+05  2.053015E+05 -1.367551E+05  5.393206E+03
       316  10  2.174550E+05 -5.863436E+04 -1.306219E+04  1.127451E+05  1.052639E-10 -5.546852E-10
       316  11  1.256296E+05 -4.986995E+04 -5.581860E+03  6.509357E+04 -1.386484E-10 -5.237252E-10
       316  12  4.714586E+04  6.583641E+03  2.076833E+04  3.030866E+04 -5.834703E-10 -2.688159E-10
       316  13  5.410721E+05  1.620010E+04  3.762777E+04  1.177680E+05  4.128694E-12 -4.203348E-10
       316  14  5.322682E+05  4.629639E+04  6.879114E+04  1.113385E+05 -4.933076E-11 -4.134292E-10
       316  15  5.410093E+05  1.282864E+05  1.357312E+05  1.177704E+05 -5.742913E-11 -8.219997E-11
       316  16  8.647937E+05  9.102950E+04  8.831522E+04  1.227935E+05 -2.006469E-10 -2.345837E-10
       316  17  9.390720E+05  1.424614E+05  1.431586E+05  1.576146E+05  4.646540E-11 -2.664231E-10
       316  18  1.035114E+06  2.500008E+05  2.506816E+05  2.053021E+05  5.496894E-10 -7.085643E-11
       316  19  2.174563E+05 -5.863367E+04 -1.305942E+04  1.127446E+05  3.320808E+04 -1.931222E+04
       316  20  1.256317E+05 -4.986911E+04 -5.577672E+03  6.509295E+04  4.387310E+04 -1.743885E+04
       316  21  4.714906E+04  6.584471E+03  2.077398E+04  3.030842E+04  5.453864E+04 -5.417295E+03
       316  22  5.410729E+05  1.620067E+04  3.762970E+04  1.177676E+05  2.554225E+04 -1.931147E+04
       316  23  5.322722E+05  4.629771E+04  6.879860E+04  1.113377E+05  6.058500E+04 -1.743452E+04
       316  24  5.410191E+05  1.282889E+05  1.357484E+05  1.177699E+05  9.563064E+04 -5.411033E+03
       316  25  8.647941E+05  9.102999E+04  8.831652E+04  1.227932E+05  1.787258E+04 -1.931085E+04
       316  26  9.390785E+05  1.424633E+05  1.431704E+05  1.576135E+05  7.730754E+04 -1.742770E+04
       316  27  1.035134E+06  2.500058E+05  2.507168E+05  2.053015E+05  1.367551E+05 -5.393206E+03
       317   1 -4.893248E+05 -5.911891E+04 -7.412011E+04 -3.832184E+04 -8.100413E+04 -4.702338E+03
       317   2 -5.300197E+05  2.509163E+04 -2.213754E+04  8.576515E+03 -5.745918E+04 -1.573134E+04
       317   3 -5.888292E+05  4.905311E+04 -5.512608E+02  6.278955E+04 -3.391445E+04 -1.865368E+04
       317   4 -8.877362E+05 -1.573830E+05 -1.664200E+05  6.893289E+04 -1.171009E+05 -4.712064E+03
       317   5 -8.769451E+05 -5.681000E+04 -8.434606E+04  6.528051E+04 -7.414138E+04 -1.573598E+04
       317   6 -8.876627E+05 -1.988929E+04 -4.617602E+04  6.894391E+04 -3.117843E+04 -1.865499E+04
       317   7 -1.285973E+06 -2.556144E+05 -2.587194E+05  1.761182E+05 -1.531746E+05 -4.734282E+03
       317   8 -1.223746E+06 -1.387061E+05 -1.465564E+05  1.219519E+05 -9.081451E+04 -1.574367E+04
       317   9 -1.186407E+06 -8.883584E+04 -9.180264E+04  7.509519E+04 -2.844366E+04 -1.865623E+04
       317  10 -4.893319E+05 -5.912069E+04 -7.413250E+04 -3.832215E+04 -2.755496E-10 -4.195879E-11
       317  11 -5.300234E+05  2.509048E+04 -2.214422E+04  8.575787E+03 -1.731307E-10 -1.699381E-10
       317  12 -5.888305E+05  4.905243E+04 -5.540777E+02  6.278904E+04  9.632387E-10 -1.891408E-10
       317  13 -8.877509E+05 -1.573868E+05 -1.664458E+05  6.893244E+04 -3.246383E-10 -1.519375E-10
       317  14 -8.769511E+05 -5.681175E+04 -8.435687E+04  6.527957E+04 -3.512644E-10 -1.466493E-10
       317  15 -8.876639E+05 -1.988992E+04 -4.617850E+04  6.894345E+04  3.340448E-10 -1.537947E-10
       317  16 -1.285998E+06 -2.556207E+05 -2.587636E+05  1.761176E+05 -3.130164E-10 -1.240569E-10
       317  17 -1.223755E+06 -1.387086E+05 -1.465724E+05  1.219507E+05 -4.257443E-10 -1.914991E-10
       317  18 -1.186408E+06 -8.883643E+04 -9.180482E+04  7.509477E+04 -1.414647E-09 -4.192330E-10
       317  19 -4.893248E+05 -5.911891E+04 -7.412011E+04 -3.832184E+04  8.100413E+04  4.702338E+03
       317  20 -5.300197E+05  2.509163E+04 -2.213754E+04  8.576515E+03  5.745918E+04  1.573134E+04
       317  21 -5.888292E+05  4.905311E+04 -5.512608E+02  6.278955E+04  3.391445E+04  1.865368E+04
       317  22 -8.877362E+05 -1.573830E+05 -1.664200E+05  6.893289E+04  1.171009E+05  4.712064E+03
       317  23 -8.769451E+05 -5.681000E+04 -8.434606E+04  6.528051E+04  7.414138E+04  1.573598E+04
       317  24 -8.876627E+05 -1.988929E+04 -4.617602E+04  6.894391E+04  3.117843E+04  1.865499E+04
       317  25 -1.285973E+06 -2.556144E+05 -2.587194E+05  1.761182E+05  1.531746E+05  4.734282E+03
       317  26 -1.223746E+06 -1.387061E+05 -1.465564E+05  1.219519E+05  9.081451E+04  1.574367E+04
       317  27 -1.186407E+06 -8.883584E+04 -9.180264E+04  7.509519E+04  2.844366E+04  1.865623E+04
       318   1 -6.159897E+05  4.697369E+04  4.529005E+03  6.047731E+04 -2.849319E+04 -1.761661E+04
       318   2 -6.645046E+05  4.470314E+04  9.828684E+03  6.095862E+04 -2.096347E+04 -1.568522E+04
       318   3 -7.155558E+05  3.618054E+04  8.661641E+03  6.938202E+04 -1.343442E+04 -1.269646E+04
       318   4 -8.835437E+05 -1.446750E+04 -3.489154E+04  6.908108E+04 -2.512076E+04 -1.761780E+04
       318   5 -8.820459E+05 -4.828867E+03 -2.009808E+04  6.510968E+04 -1.505963E+04 -1.568585E+04
       318   6 -8.835286E+05 -1.883781E+03 -1.353351E+04  6.908093E+04 -4.998612E+03 -1.269645E+04
       318   7 -1.151025E+06 -7.591175E+04 -7.431327E+04  7.768098E+04 -2.174971E+04 -1.761890E+04
       318   8 -1.099539E+06 -5.436287E+04 -5.002522E+04  6.925922E+04 -9.157780E+03 -1.568641E+04
       318   9 -1.051472E+06 -3.994926E+04 -3.572860E+04  6.877993E+04  3.435018E+03 -1.269644E+04
       318  10 -6.159907E+05  4.697314E+04  4.526895E+03  6.047690E+04 -3.802670E-10 -2.585501E-10
       318  11 -6.645051E+05  4.470275E+04  9.827395E+03  6.095836E+04 -3.896393E-10 -1.250573E-10
       318  12 -7.155561E+05  3.618032E+04  8.660999E+03  6.938188E+04  6.699850E-10  2.884375E-11
       318  13 -8.835445E+05 -1.446801E+04 -3.489331E+04  6.908072E+04 -3.254761E-10 -3.350851E-10
       318  14 -8.820462E+05 -4.829192E+03 -2.009896E+04  6.510949E+04 -4.096015E-10 -8.482603E-11
       318  15 -8.835286E+05 -1.883961E+03 -1.353386E+04  6.908088E+04  4.163873E-10 -1.786604E-11
       318  16 -1.151026E+06 -7.591221E+04 -7.431474E+04  7.768067E+04  3.790506E-10 -2.454714E-10
       318  17 -1.099539E+06 -5.436315E+04 -5.002584E+04  6.925911E+04 -2.793476E-11  1.229390E-10
       318  18 -1.051472E+06 -3.994943E+04 -3.572893E+04  6.877997E+04 -5.331680E-10 -1.225255E-10
       318  19 -6.159897E+05  4.697369E+04  4.529005E+03  6.047731E+04  2.849319E+04  1.761661E+04
       318  20 -6.645046E+05  4.470314E+04  9.828684E+03  6.095862E+04  2.096347E+04  1.568522E+04
       318  21 -7.155558E+05  3.618054E+04  8.661641E+03  6.938202E+04  1.343442E+04  1.269646E+04
       318  22 -8.835437E+05 -1.446750E+04 -3.489154E+04  6.908108E+04  2.512076E+04  1.761780E+04
       318  23 -8.820459E+05 -4.828867E+03 -2.009808E+04  6.510968E+04  1.505963E+04  1.568585E+04
       318  24 -8.835286E+05 -1.883781E+03 -1.353351E+04  6.908093E+04  4.998612E+03  1.269645E+04
       318  25 -1.151025E+06 -7.591175E+04 -7.431327E+04  7.768098E+04  2.174971E+04  1.761890E+04
       318  26 -1.099539E+06 -5.436287E+04 -5.002522E+04  6.925922E+04  9.157780E+03  1.568641E+04
       318  27 -1.051472E+06 -3.994926E+04 -3.572860E+04  6.877993E+04 -3.435018E+03  1.269644E+04
       319   1 -7.460729E+05  2.937467E+04  5.673713E+03  6.880695E+04 -1.135201E+04 -1.059067E+04
       319   2 -7.950345E+05  1.738681E+04 -1.431218E+03  6.691877E+04 -4.935006E+03 -7.114734E+03
       319   3 -8.456948E+05  1.930391E+03 -1.358408E+04  7.303914E+04  1.481243E+03 -3.777300E+03
       319   4 -8.832298E+05 -1.637303E+03 -1.210125E+04  6.909553E+04 -2.851467E+03 -1.059045E+04
       319   5 -8.824073E+05 -2.254528E+03 -1.217954E+04  6.509109E+04  3.232038E+03 -7.114314E+03
       319   6 -8.832291E+05 -6.282795E+03 -1.707482E+04  6.909548E+04  9.315263E+03 -3.776730E+03
       319   7 -1.020367E+06 -3.265002E+04 -2.987605E+04  6.938404E+04  5.647284E+03 -1.059023E+04
       319   8 -9.697721E+05 -2.189613E+04 -2.292761E+04  6.326368E+04  1.139799E+04 -7.113943E+03
       319   9 -9.207617E+05 -1.449593E+04 -2.056528E+04  6.515206E+04  1.714884E+04 -3.776260E+03
       319  10 -7.460731E+05  2.937452E+04  5.673260E+03  6.880685E+04  3.507903E-10  1.306548E-11
       319  11 -7.950345E+05  1.738675E+04 -1.431359E+03  6.691874E+04  2.054671E-10 -4.607675E-11
       319  12 -8.456948E+05  1.930375E+03 -1.358411E+04  7.303915E+04  4.347379E-10  9.151523E-12
       319  13 -8.832298E+05 -1.637425E+03 -1.210148E+04  6.909550E+04  3.431536E-10 -7.931037E-11
       319  14 -8.824073E+05 -2.254585E+03 -1.217965E+04  6.509111E+04 -6.326635E-11 -2.433874E-11
       319  15 -8.832292E+05 -6.282834E+03 -1.707501E+04  6.909550E+04  6.129699E-11 -4.384526E-11
       319  16 -1.020367E+06 -3.265015E+04 -2.987632E+04  6.938408E+04  1.847345E-10 -1.819769E-10
       319  17 -9.697723E+05 -2.189622E+04 -2.292795E+04  6.326375E+04 -4.088187E-10  5.455619E-11
       319  18 -9.207620E+05 -1.449603E+04 -2.056586E+04  6.515212E+04 -3.355130E-10 -1.095100E-10
       319  19 -7.460729E+05  2.937467E+04  5.673713E+03  6.880695E+04  1.135201E+04  1.059067E+04
       319  20 -7.950345E+05  1.738681E+04 -1.431218E+03  6.691877E+04  4.935006E+03  7.114734E+03
       319  21 -8.456948E+05  1.930391E+03 -1.358408E+04  7.303914E+04 -1.481243E+03  3.777300E+03
       319  22 -8.832298E+05 -1.637303E+03 -1.210125E+04  6.909553E+04  2.851467E+03  1.059045E+04
       319  23 -8.824073E+05 -2.254528E+03 -1.217954E+04  6.509109E+04 -3.232038E+03  7.114314E+03
       319  24 -8.832291E+05 -6.282795E+03 -1.707482E+04  6.909548E+04 -9.315263E+03  3.776730E+03
       319  25 -1.020367E+06 -3.265002E+04 -2.987605E+04  6.938404E+04 -5.647284E+03  1.059023E+04
       319  26 -9.697721E+05 -2.189613E+04 -2.292761E+04  6.326368E+04 -1.139799E+04  7.113943E+03
       319  27 -9.207617E+05 -1.449593E+04 -2.056528E+04  6.515206E+04 -1.714884E+04  3.776260E+03
       320   1 -8.783091E+05 -7.535259E+03 -2.263916E+04  7.187339E+04  4.561713E+03 -1.810960E+03
       320   2 -9.230009E+05 -3.526162E+04 -4.750927E+04  8.990989E+04  2.861687E+04  3.416238E+02
       320   3 -9.779829E+05 -9.160207E+04 -9.520993E+04  1.158049E+05  5.267020E+04  3.901973E+02
       320   4 -8.849546E+05 -8.632890E+03 -2.147199E+04  6.906251E+04  1.223982E+04 -1.810378E+03
       320   5 -8.802621E+05 -2.467588E+04 -3.734180E+04  6.513307E+04  3.124787E+04  3.406637E+02
       320   6 -8.849825E+05 -6.845564E+04 -7.253225E+04  6.906387E+04  5.025595E+04  3.860570E+02
       320   7 -8.916000E+05 -9.730458E+03 -2.030458E+04  6.625167E+04  1.991787E+04 -1.809866E+03
       320   8 -8.375202E+05 -1.408795E+04 -2.717411E+04  4.035454E+04  3.387905E+04  3.394935E+02
       320   9 -7.919696E+05 -4.530162E+04 -4.985400E+04  2.231582E+04  4.784134E+04  3.822813E+02
       320  10 -8.783091E+05 -7.535268E+03 -2.263920E+04  7.187340E+04  3.594727E-10 -2.045013E-11
       320  11 -9.230018E+05 -3.526184E+04 -4.751081E+04  8.990988E+04  7.435509E-10 -1.667060E-10
       320  12 -9.779859E+05 -9.160282E+04 -9.521515E+04  1.158049E+05  4.425505E-10 -8.229621E-11
       320  13 -8.849548E+05 -8.632934E+03 -2.147228E+04  6.906253E+04  8.412611E-12 -8.786206E-11
       320  14 -8.802631E+05 -2.467614E+04 -3.734364E+04  6.513307E+04  2.470510E-10 -7.418872E-11
       320  15 -8.849853E+05 -6.845632E+04 -7.253700E+04  6.906385E+04 -3.120248E-10  1.997498E-11
       320  16 -8.916004E+05 -9.730568E+03 -2.030533E+04  6.625170E+04 -5.825625E-10 -1.440853E-10
       320  17 -8.375214E+05 -1.408826E+04 -2.717627E+04  4.035453E+04 -9.967585E-10  6.665038E-11
       320  18 -7.919720E+05 -4.530223E+04 -4.985831E+04  2.231581E+04 -2.958651E-10 -1.551296E-11
       320  19 -8.783091E+05 -7.535259E+03 -2.263916E+04  7.187339E+04 -4.561713E+03  1.810960E+03
       320  20 -9.230009E+05 -3.526162E+04 -4.750927E+04  8.990989E+04 -2.861687E+04 -3.416238E+02
       320  21 -9.779829E+05 -9.160207E+04 -9.520993E+04  1.158049E+05 -5.267020E+04 -3.901973E+02
       320  22 -8.849546E+05 -8.632890E+03 -2.147199E+04  6.906251E+04 -1.223982E+04  1.810378E+03
       320  23 -8.802621E+05 -2.467588E+04 -3.734180E+04  6.513307E+04 -3.124787E+04 -3.406637E+02
       320  24 -8.849825E+05 -6.845564E+04 -7.253225E+04  6.906387E+04 -5.025595E+04 -3.860570E+02
       320  25 -8.916000E+05 -9.730458E+03 -2.030458E+04  6.625167E+04 -1.991787E+04  1.809866E+03
       320  26 -8.375202E+05 -1.408795E+04 -2.717411E+04  4.035454E+04 -3.387905E+04 -3.394935E+02
       320  27 -7.919696E+05 -4.530162E+04 -4.985400E+04  2.231582E+04 -4.784134E+04 -3.822813E+02
       321   1 -3.229089E+05  6.261357E+04  5.403074E+04  1.950680E+04  1.232273E+04 -5.131917E+03
       321   2 -3.544363E+05  7.375200E+04  4.514295E+04  2.907448E+04  3.052406E+03 -1.753430E+04
       321   3 -3.876267E+05  7.337415E+04  3.941578E+04  4.315489E+04 -6.216745E+03 -2.183018E+04
       321   4 -7.268383E+05 -3.682309E+04 -3.899120E+04  4.461968E+04 -2.714478E+04 -5.133234E+03
       321   5 -7.243060E+05 -1.328955E+04 -1.998253E+04  4.236142E+04 -1.696899E+04 -1.753688E+04
       321   6 -7.268189E+05 -4.655109E+03 -1.132775E+04  4.461611E+04 -6.792340E+03 -2.183144E+04
       321   7 -1.130612E+06 -1.362680E+05 -1.320178E+05  6.971607E+04 -6.658681E+04 -5.137748E+03
       321   8 -1.094040E+06 -1.003377E+05 -8.511140E+04  5.564020E+04 -3.697880E+04 -1.754032E+04
       321   9 -1.065895E+06 -8.268980E+04 -6.207350E+04  4.607649E+04 -7.367632E+03 -2.183271E+04
       321  10 -3.229090E+05  6.261350E+04  5.403040E+04  1.950685E+04  1.079457E-10  3.772349E-11
       321  11 -3.544364E+05  7.375167E+04  4.514236E+04  2.907453E+04 -3.222001E-10  4.483102E-11
       321  12 -3.876269E+05  7.337363E+04  3.941481E+04  4.315478E+04 -4.270552E-10 -3.341544E-11
       321  13 -7.268391E+05 -3.682332E+04 -3.899264E+04  4.461956E+04 -5.608612E-10 -2.211866E-11
       321  14 -7.243064E+05 -1.328995E+04 -1.998365E+04  4.236118E+04  5.226975E-10 -1.657068E-10
       321  15 -7.268190E+05 -4.655633E+03 -1.132873E+04  4.461599E+04 -1.687315E-10  1.154632E-10
       321  16 -1.130617E+06 -1.362692E+05 -1.320262E+05  6.971580E+04 -7.070644E-10 -6.698994E-11
       321  17 -1.094042E+06 -1.003384E+05 -8.511455E+04  5.563967E+04  1.845875E-10 -1.042113E-10
       321  18 -1.065896E+06 -8.269033E+04 -6.207450E+04  4.607636E+04  5.487066E-10  1.088225E-10
       321  19 -3.229089E+05  6.261357E+04  5.403074E+04  1.950680E+04 -1.232273E+04  5.131917E+03
       321  20 -3.544363E+05  7.375200E+04  4.514295E+04  2.907448E+04 -3.052406E+03  1.753430E+04
       321  21 -3.876267E+05  7.337415E+04  3.941578E+04  4.315489E+04  6.216745E+03  2.183018E+04
       321  22 -7.268383E+05 -3.682309E+04 -3.899120E+04  4.461968E+04  2.714478E+04  5.133234E+03
       321  23 -7.243060E+05 -1.328955E+04 -1.998253E+04  4.236142E+04  1.696899E+04  1.753688E+04
       321  24 -7.268189E+05 -4.655109E+03 -1.132775E+04  4.461611E+04  6.792340E+03  2.183144E+04
       321  25 -1.130612E+06 -1.362680E+05 -1.320178E+05  6.971607E+04  6.658681E+04  5.137748E+03
       321  26 -1.094040E+06 -1.003377E+05 -8.511140E+04  5.564020E+04  3.697880E+04  1.754032E+04
       321  27 -1.065895E+06 -8.268980E+04 -6.207350E+04  4.607649E+04  7.367632E+03  2.183271E+04
       322   1 -4.072115E+05  6.958217E+04  3.709457E+04  4.269837E+04 -5.335370E+03 -2.159623E+04
       322   2 -4.393987E+05  6.381003E+04  3.274055E+04  4.124461E+04 -5.027131E+03 -2.100659E+04
       322   3 -4.719423E+05  5.675486E+04  2.786611E+04  4.492339E+04 -4.719271E+03 -1.929438E+04
       322   4 -7.258791E+05 -3.386527E+03 -8.881031E+03  4.475365E+04 -5.265395E+03 -2.159734E+04
       322   5 -7.254624E+05 -1.188597E+03 -6.001886E+03  4.218697E+04 -2.265486E+03 -2.100706E+04
       322   6 -7.258717E+05 -7.418283E+02 -5.514324E+03  4.475304E+04  7.340226E+02 -1.929393E+04
       322   7 -1.044444E+06 -7.635986E+04 -5.485823E+04  4.680783E+04 -5.195453E+03 -2.159845E+04
       322   8 -1.011443E+06 -6.619077E+04 -4.474507E+04  4.312886E+04  4.949453E+02 -2.100751E+04
       322   9 -9.797350E+05 -5.824123E+04 -3.889507E+04  4.458277E+04  6.185190E+03 -1.929347E+04
       322  10 -4.072116E+05  6.958166E+04  3.709364E+04  4.269828E+04 -1.905094E-10 -5.705407E-11
       322  11 -4.393989E+05  6.380955E+04  3.273967E+04  4.124453E+04  2.377917E-10 -1.395131E-10
       322  12 -4.719424E+05  5.675446E+04  2.786536E+04  4.492332E+04  5.912969E-10 -2.528876E-10
       322  13 -7.258792E+05 -3.387035E+03 -8.881959E+03  4.475356E+04 -2.523014E-11  1.364327E-10
       322  14 -7.254625E+05 -1.189072E+03 -6.002725E+03  4.218693E+04 -2.620519E-10  2.156074E-10
       322  15 -7.258718E+05 -7.422281E+02 -5.515024E+03  4.475306E+04  3.135101E-10 -2.696445E-10
       322  16 -1.044444E+06 -7.636037E+04 -5.485916E+04  4.680774E+04  5.598195E-10  8.988766E-11
       322  17 -1.011443E+06 -6.619124E+04 -4.474590E+04  4.312887E+04  7.512858E-11  1.197440E-10
       322  18 -9.797351E+05 -5.824163E+04 -3.889584E+04  4.458286E+04 -4.260682E-10 -1.717395E-10
       322  19 -4.072115E+05  6.958217E+04  3.709457E+04  4.269837E+04  5.335370E+03  2.159623E+04
       322  20 -4.393987E+05  6.381003E+04  3.274055E+04  4.124461E+04  5.027131E+03  2.100659E+04
       322  21 -4.719423E+05  5.675486E+04  2.786611E+04  4.492339E+04  4.719271E+03  1.929438E+04
       322  22 -7.258791E+05 -3.386527E+03 -8.881031E+03  4.475365E+04  5.265395E+03  2.159734E+04
       322  23 -7.254624E+05 -1.188597E+03 -6.001886E+03  4.218697E+04  2.265486E+03  2.100706E+04
       322  24 -7.258717E+05 -7.418283E+02 -5.514324E+03  4.475304E+04 -7.340226E+02  1.929393E+04
       322  25 -1.044444E+06 -7.635986E+04 -5.485823E+04  4.680783E+04  5.195453E+03  2.159845E+04
       322  26 -1.011443E+06 -6.619077E+04 -4.474507E+04  4.312886E+04 -4.949453E+02  2.100751E+04
       322  27 -9.797350E+05 -5.824123E+04 -3.889507E+04  4.458277E+04 -6.185190E+03  1.929347E+04
       323   1 -4.920718E+05  5.209793E+04  2.455100E+04  4.468267E+04 -3.862618E+03 -1.792545E+04
       323   2 -5.239240E+05  4.360454E+04  1.783333E+04  4.388898E+04 -4.658273E+02 -1.543479E+04
       323   3 -5.568734E+05  3.249238E+04  8.247885E+03  4.833397E+04  2.930521E+03 -1.259868E+04
       323   4 -7.259623E+05 -8.139403E+02 -5.955703E+03  4.477654E+04  1.694792E+03 -1.792475E+04
       323   5 -7.253404E+05 -1.963404E+03 -8.440621E+03  4.215764E+04  5.918845E+03 -1.543355E+04
       323   6 -7.259603E+05 -5.875698E+03 -1.436871E+04  4.477761E+04  1.014262E+04 -1.259684E+04
       323   7 -9.597966E+05 -5.372808E+04 -3.646262E+04  4.487036E+04  7.250207E+03 -1.792405E+04
       323   8 -9.267151E+05 -4.753302E+04 -3.471466E+04  4.042689E+04  1.230154E+04 -1.543233E+04
       323   9 -8.950179E+05 -4.424492E+04 -3.698535E+04  4.122226E+04  1.735284E+04 -1.259509E+04
       323  10 -4.920719E+05  5.209758E+04  2.455037E+04  4.468262E+04 -1.123701E-10 -1.247062E-10
       323  11 -5.239241E+05  4.360428E+04  1.783288E+04  4.388897E+04  2.188873E-10 -8.521699E-11
       323  12 -5.568735E+05  3.249220E+04  8.247571E+03  4.833400E+04  8.015191E-10 -5.808867E-10
       323  13 -7.259623E+05 -8.142860E+02 -5.956312E+03  4.477656E+04  5.890127E-11 -2.071514E-10
       323  14 -7.253405E+05 -1.963669E+03 -8.441134E+03  4.215771E+04  2.167649E-11 -2.055971E-10
       323  15 -7.259605E+05 -5.875896E+03 -1.436921E+04  4.477771E+04  5.138085E-12 -2.266798E-10
       323  16 -9.597967E+05 -5.372844E+04 -3.646332E+04  4.487047E+04  1.414005E-10 -1.824963E-10
       323  17 -9.267154E+05 -4.753331E+04 -3.471539E+04  4.042704E+04 -8.949704E-10  4.271759E-10
       323  18 -8.950183E+05 -4.424517E+04 -3.698621E+04  4.122243E+04 -1.166205E-09  2.499420E-10
       323  19 -4.920718E+05  5.209793E+04  2.455100E+04  4.468267E+04  3.862618E+03  1.792545E+04
       323  20 -5.239240E+05  4.360454E+04  1.783333E+04  4.388898E+04  4.658273E+02  1.543479E+04
       323  21 -5.568734E+05  3.249238E+04  8.247885E+03  4.833397E+04 -2.930521E+03  1.259868E+04
       323  22 -7.259623E+05 -8.139403E+02 -5.955703E+03  4.477654E+04 -1.694792E+03  1.792475E+04
       323  23 -7.253404E+05 -1.963404E+03 -8.440621E+03  4.215764E+04 -5.918845E+03  1.543355E+04
       323  24 -7.259603E+05 -5.875698E+03 -1.436871E+04  4.477761E+04 -1.014262E+04  1.259684E+04
       323  25 -9.597966E+05 -5.372808E+04 -3.646262E+04  4.487036E+04 -7.250207E+03  1.792405E+04
       323  26 -9.267151E+05 -4.753302E+04 -3.471466E+04  4.042689E+04 -1.230154E+04  1.543233E+04
       323  27 -8.950179E+05 -4.424492E+04 -3.698535E+04  4.122226E+04 -1.735284E+04  1.259509E+04
       324   1 -5.784478E+05  2.584226E+04  1.385474E+03  4.735305E+04  5.294806E+03 -1.087970E+04
       324   2 -6.067988E+05  3.799475E+03 -1.638960E+04  6.528664E+04  1.931016E+04 -7.076060E+03
       324   3 -6.433177E+05 -4.359539E+04 -4.963503E+04  8.858626E+04  3.332449E+04 -1.797032E+03
       324   4 -7.276348E+05 -8.083972E+03 -1.893755E+04  4.480524E+04  1.263467E+04 -1.087766E+04
       324   5 -7.232517E+05 -2.314171E+04 -3.446007E+04  4.212918E+04  3.018376E+04 -7.073313E+03
       324   6 -7.276529E+05 -6.416939E+04 -6.790997E+04  4.482072E+04  4.773226E+04 -1.794391E+03
       324   7 -8.767991E+05 -4.201112E+04 -3.926059E+04  4.225808E+04  1.997285E+04 -1.087567E+04
       324   8 -8.396897E+05 -5.008148E+04 -5.253012E+04  1.897622E+04  4.105540E+04 -7.071379E+03
       324   9 -8.119768E+05 -8.473655E+04 -8.618352E+04  1.061201E+03  6.213811E+04 -1.793783E+03
       324  10 -5.784478E+05  2.584213E+04  1.385199E+03  4.735309E+04  2.651706E-10 -8.815322E-10
       324  11 -6.067992E+05  3.799321E+03 -1.639039E+04  6.528675E+04  3.241741E-10 -1.005597E-09
       324  12 -6.433189E+05 -4.359569E+04 -4.963713E+04  8.858631E+04 -3.807645E-10 -2.580349E-10
       324  13 -7.276351E+05 -8.084142E+03 -1.893807E+04  4.480535E+04  9.064957E-10 -1.366650E-09
       324  14 -7.232527E+05 -2.314201E+04 -3.446187E+04  4.212935E+04 -5.003120E-10  6.378608E-10
       324  15 -7.276553E+05 -6.417001E+04 -6.791426E+04  4.482078E+04 -3.077640E-11  5.356194E-11
       324  16 -8.767996E+05 -4.201136E+04 -3.926156E+04  4.225825E+04 -2.356865E-10  1.401366E-10
       324  17 -8.396915E+05 -5.008199E+04 -5.253338E+04  1.897646E+04 -7.556582E-10  7.030794E-10
       324  18 -8.119809E+05 -8.473759E+04 -8.619079E+04  1.061290E+03  4.566273E-10 -2.093625E-10
       324  19 -5.784478E+05  2.584226E+04  1.385474E+03  4.735305E+04 -5.294806E+03  1.087970E+04
       324  20 -6.067988E+05  3.799475E+03 -1.638960E+04  6.528664E+04 -1.931016E+04  7.076060E+03
       324  21 -6.433177E+05 -4.359539E+04 -4.963503E+04  8.858626E+04 -3.332449E+04  1.797032E+03
       324  22 -7.276348E+05 -8.083972E+03 -1.893755E+04  4.480524E+04 -1.263467E+04  1.087766E+04
       324  23 -7.232517E+05 -2.314171E+04 -3.446007E+04  4.212918E+04 -3.018376E+04  7.073313E+03
       324  24 -7.276529E+05 -6.416939E+04 -6.790997E+04  4.482072E+04 -4.773226E+04  1.794391E+03
       324  25 -8.767991E+05 -4.201112E+04 -3.926059E+04  4.225808E+04 -1.997285E+04  1.087567E+04
       324  26 -8.396897E+05 -5.008148E+04 -5.253012E+04  1.897622E+04 -4.105540E+04  7.071379E+03
       324  27 -8.119768E+05 -8.473655E+04 -8.618352E+04  1.061201E+03 -6.213811E+04  1.793783E+03
       325   1  5.438472E+04  1.209703E+05  1.100151E+05  9.190801E+04  3.212251E+04 -7.223629E+03
       325   2 -2.809467E+04  1.146460E+05  7.890268E+04  9.590053E+04  1.060783E+04 -2.398356E+04
       325   3 -1.096158E+05  1.008926E+05  5.994475E+04  1.120224E+05 -1.090616E+04 -2.816333E+04
       325   4 -5.637497E+05 -3.131959E+04 -3.324801E+04  1.131118E+05 -2.316453E+04 -7.249766E+03
       325   5 -5.615837E+05 -1.125772E+04 -1.702725E+04  1.070390E+05 -1.448366E+04 -2.399890E+04
       325   6 -5.637133E+05 -3.873163E+03 -9.627671E+03  1.130969E+05 -5.805455E+03 -2.816218E+04
       325   7 -1.181524E+06 -1.836330E+05 -1.765250E+05  1.342942E+05 -7.839691E+04 -7.279698E+03
       325   8 -1.094794E+06 -1.371765E+05 -1.129658E+05  1.181675E+05 -3.955419E+04 -2.401515E+04
       325   9 -1.017604E+06 -1.086489E+05 -7.920449E+04  1.141705E+05 -7.083327E+02 -2.816100E+04
       325  10  5.438359E+04  1.209699E+05  1.100131E+05  9.190820E+04  1.388485E-09 -2.304824E-10
       325  11 -2.809495E+04  1.146454E+05  7.890139E+04  9.590073E+04  4.239437E-10 -1.300160E-09
       325  12 -1.096161E+05  1.008918E+05  5.994303E+04  1.120221E+05 -2.452004E-10 -1.205032E-09
       325  13 -5.637503E+05 -3.131979E+04 -3.324912E+04  1.131117E+05 -2.010192E-11  5.065083E-11
       325  14 -5.615841E+05 -1.125839E+04 -1.702873E+04  1.070387E+05  3.006940E-10 -1.016464E-09
       325  15 -5.637136E+05 -3.874023E+03 -9.629225E+03  1.130967E+05 -9.477946E-11 -3.733738E-10
       325  16 -1.181530E+06 -1.836347E+05 -1.765367E+05  1.342938E+05 -1.333430E-09 -1.246189E-10
       325  17 -1.094795E+06 -1.371776E+05 -1.129698E+05  1.181668E+05  5.877134E-11 -2.014214E-09
       325  18 -1.017605E+06 -1.086498E+05 -7.920598E+04  1.141705E+05  7.275746E-10 -1.877004E-09
       325  19  5.438472E+04  1.209703E+05  1.100151E+05  9.190801E+04 -3.212251E+04  7.223629E+03
       325  20 -2.809467E+04  1.146460E+05  7.890268E+04  9.590053E+04 -1.060783E+04  2.398356E+04
       325  21 -1.096158E+05  1.008926E+05  5.994475E+04  1.120224E+05  1.090616E+04  2.816333E+04
       325  22 -5.637497E+05 -3.131959E+04 -3.324801E+04  1.131118E+05  2.316453E+04  7.249766E+03
       325  23 -5.615837E+05 -1.125772E+04 -1.702725E+04  1.070390E+05  1.448366E+04  2.399890E+04
       325  24 -5.637133E+05 -3.873163E+03 -9.627671E+03  1.130969E+05  5.805455E+03  2.816218E+04
       325  25 -1.181524E+06 -1.836330E+05 -1.765250E+05  1.342942E+05  7.839691E+04  7.279698E+03
       325  26 -1.094794E+06 -1.371765E+05 -1.129658E+05  1.181675E+05  3.955419E+04  2.401515E+04
       325  27 -1.017604E+06 -1.086489E+05 -7.920449E+04  1.141705E+05  7.083327E+02  2.816100E+04
       326   1 -1.602619E+05  8.968708E+04  5.202267E+04  1.117131E+05 -1.060584E+04 -2.634235E+04
       326   2 -2.422135E+05  7.203615E+04  3.916676E+04  1.060843E+05 -1.198531E+04 -2.299177E+04
       326   3 -3.241871E+05  5.359449E+04  2.700867E+04  1.135366E+05 -1.336615E+04 -1.801599E+04
       326   4 -5.629076E+05 -2.782350E+03 -7.530387E+03  1.133085E+05 -4.511340E+03 -2.634008E+04
       326   5 -5.625458E+05 -8.995912E+02 -5.041297E+03  1.067668E+05 -1.992732E+03 -2.298611E+04
       326   6 -5.628890E+05 -4.844296E+02 -4.562918E+03  1.133069E+05  5.244019E+02 -1.800648E+04
       326   7 -9.653900E+05 -9.525934E+04 -6.708626E+04  1.149027E+05  1.579369E+03 -2.633777E+04
       326   8 -8.827736E+05 -7.383980E+04 -4.925014E+04  1.074490E+05  7.994924E+03 -2.298041E+04
       326   9 -8.015321E+05 -5.456567E+04 -3.613420E+04  1.130773E+05  1.440986E+04 -1.799697E+04
       326  10 -1.602622E+05  8.968631E+04  5.202116E+04  1.117129E+05 -2.143638E-09 -1.238158E-09
       326  11 -2.422138E+05  7.203555E+04  3.916549E+04  1.060841E+05 -5.700577E-10  4.811351E-10
       326  12 -3.241874E+05  5.359410E+04  2.700773E+04  1.135364E+05  4.499287E-10  5.410021E-10
       326  13 -5.629078E+05 -2.783100E+03 -7.531729E+03  1.133084E+05  1.516124E-10 -8.666613E-10
       326  14 -5.625459E+05 -9.001594E+02 -5.042297E+03  1.067668E+05  1.956988E-10  7.345332E-13
       326  15 -5.628890E+05 -4.847778E+02 -4.563528E+03  1.133069E+05  5.281838E-10 -7.921719E-10
       326  16 -9.653902E+05 -9.526009E+04 -6.708757E+04  1.149027E+05  2.413261E-09 -1.876381E-10
       326  17 -8.827738E+05 -7.384038E+04 -4.925126E+04  1.074491E+05  5.443789E-10  6.714622E-10
       326  18 -8.015325E+05 -5.456607E+04 -3.613520E+04  1.130775E+05 -4.474587E-10 -6.862167E-11
       326  19 -1.602619E+05  8.968708E+04  5.202267E+04  1.117131E+05  1.060584E+04  2.634235E+04
       326  20 -2.422135E+05  7.203615E+04  3.916676E+04  1.060843E+05  1.198531E+04  2.299177E+04
       326  21 -3.241871E+05  5.359449E+04  2.700867E+04  1.135366E+05  1.336615E+04  1.801599E+04
       326  22 -5.629076E+05 -2.782350E+03 -7.530387E+03  1.133085E+05  4.511340E+03  2.634008E+04
       326  23 -5.625458E+05 -8.995912E+02 -5.041297E+03  1.067668E+05  1.992732E+03  2.298611E+04
       326  24 -5.628890E+05 -4.844296E+02 -4.562918E+03  1.133069E+05 -5.244019E+02  1.800648E+04
       326  25 -9.653900E+05 -9.525934E+04 -6.708626E+04  1.149027E+05 -1.579369E+03  2.633777E+04
       326  26 -8.827736E+05 -7.383980E+04 -4.925014E+04  1.074490E+05 -7.994924E+03  2.298041E+04
       326  27 -8.015321E+05 -5.456567E+04 -3.613420E+04  1.130773E+05 -1.440986E+04  1.799697E+04
       327   1 -3.749729E+05  4.194216E+04  1.940555E+04  1.133138E+05 -1.266657E+04 -1.455153E+04
       327   2 -4.563700E+05  2.230014E+04  5.783984E+03  1.081679E+05 -8.411747E+03 -8.891055E+03
       327   3 -5.389245E+05  2.891711E+02 -1.120689E+04  1.161925E+05 -4.157614E+03 -3.572235E+03
       327   4 -5.629553E+05 -5.341392E+02 -4.893849E+03  1.133266E+05  1.314268E+03 -1.454147E+04
       327   5 -5.624423E+05 -1.459622E+03 -6.868093E+03  1.067426E+05  4.748089E+03 -8.881183E+03
       327   6 -5.629509E+05 -4.611427E+03 -1.164178E+04  1.133293E+05  8.181730E+03 -3.562606E+03
       327   7 -7.509010E+05 -4.301180E+04 -2.919269E+04  1.133393E+05  1.529108E+04 -1.453141E+04
       327   8 -6.685027E+05 -2.521972E+04 -1.951949E+04  1.053175E+05  1.790579E+04 -8.871371E+03
       327   9 -5.869763E+05 -9.511919E+03 -1.207604E+04  1.104663E+05  2.052064E+04 -3.553091E+03
       327  10 -3.749731E+05  4.194189E+04  1.940485E+04  1.133137E+05 -1.594996E-09  7.578352E-10
       327  11 -4.563701E+05  2.230004E+04  5.783702E+03  1.081679E+05 -7.628315E-11  8.746334E-10
       327  12 -5.389245E+05  2.891527E+02 -1.120695E+04  1.161925E+05  1.495925E-09 -7.236562E-11
       327  13 -5.629553E+05 -5.343667E+02 -4.894250E+03  1.133266E+05  6.914958E-10 -1.255511E-09
       327  14 -5.624424E+05 -1.459712E+03 -6.868284E+03  1.067426E+05  2.230857E-10  7.879412E-10
       327  15 -5.629510E+05 -4.611459E+03 -1.164193E+04  1.133294E+05 -1.588228E-10  1.243046E-09
       327  16 -7.509013E+05 -4.301209E+04 -2.919353E+04  1.133395E+05  1.832276E-09  1.990956E-10
       327  17 -6.685030E+05 -2.521989E+04 -1.952024E+04  1.053176E+05 -2.424561E-10  8.874067E-10
       327  18 -5.869768E+05 -9.512046E+03 -1.207686E+04  1.104664E+05 -1.234767E-09  2.047880E-10
       327  19 -3.749729E+05  4.194216E+04  1.940555E+04  1.133138E+05  1.266657E+04  1.455153E+04
       327  20 -4.563700E+05  2.230014E+04  5.783984E+03  1.081679E+05  8.411747E+03  8.891055E+03
       327  21 -5.389245E+05  2.891711E+02 -1.120689E+04  1.161925E+05  4.157614E+03  3.572235E+03
       327  22 -5.629553E+05 -5.341392E+02 -4.893849E+03  1.133266E+05 -1.314268E+03  1.454147E+04
       327  23 -5.624423E+05 -1.459622E+03 -6.868093E+03  1.067426E+05 -4.748089E+03  8.881183E+03
       327  24 -5.629509E+05 -4.611427E+03 -1.164178E+04  1.133293E+05 -8.181730E+03  3.562606E+03
       327  25 -7.509010E+05 -4.301180E+04 -2.919269E+04  1.133393E+05 -1.529108E+04  1.453141E+04
       327  26 -6.685027E+05 -2.521972E+04 -1.951949E+04  1.053175E+05 -1.790579E+04  8.871371E+03
       327  27 -5.869763E+05 -9.511919E+03 -1.207604E+04  1.104663E+05 -2.052064E+04  3.553091E+03
       328   1 -5.911524E+05 -1.325184E+04 -2.274815E+04  1.152838E+05 -1.823928E+03 -4.510978E+02
       328   2 -6.687390E+05 -4.479876E+04 -5.103689E+04  1.254859E+05  2.245283E+04  2.478434E+03
       328   3 -7.551858E+05 -9.908110E+04 -1.008311E+05  1.485625E+05  4.672805E+04  1.204206E+03
       328   4 -5.643043E+05 -6.398795E+03 -1.532966E+04  1.132626E+05  1.019837E+04 -4.417107E+02
       328   5 -5.607572E+05 -1.858783E+04 -2.787251E+04  1.068398E+05  2.439271E+04  2.479201E+03
       328   6 -5.643232E+05 -5.175879E+04 -5.491258E+04  1.132939E+05  3.858893E+04  1.195389E+03
       328   7 -5.374553E+05  4.542858E+02 -7.910692E+03  1.112414E+05  2.222120E+04 -4.324021E+02
       328   8 -4.527636E+05  7.623639E+03 -4.708618E+03  8.819039E+04  2.633292E+04  2.479852E+03
       328   9 -3.734243E+05 -4.434400E+03 -8.995749E+03  7.801430E+04  3.044732E+04  1.187500E+03
       328  10 -5.911524E+05 -1.325184E+04 -2.274816E+04  1.152838E+05  5.226623E-10 -1.645040E-10
       328  11 -6.687395E+05 -4.479890E+04 -5.103785E+04  1.254859E+05 -1.775495E-10  1.320017E-09
       328  12 -7.551882E+05 -9.908169E+04 -1.008352E+05  1.485625E+05 -2.949238E-10  7.124536E-10
       328  13 -5.643045E+05 -6.398824E+03 -1.532986E+04  1.132626E+05  2.690762E-10  4.583879E-11
       328  14 -5.607578E+05 -1.858800E+04 -2.787364E+04  1.068398E+05 -5.120290E-10  1.246439E-09
       328  15 -5.643248E+05 -5.175919E+04 -5.491538E+04  1.132938E+05 -4.713063E-11 -1.897397E-10
       328  16 -5.374558E+05  4.541529E+02 -7.911621E+03  1.112414E+05  7.192862E-11  1.963006E-10
       328  17 -4.527644E+05  7.623447E+03 -4.709933E+03  8.819034E+04 -7.269781E-10  4.446544E-10
       328  18 -3.734253E+05 -4.434651E+03 -8.997495E+03  7.801427E+04  2.875815E-10 -3.706316E-10
       328  19 -5.911524E+05 -1.325184E+04 -2.274815E+04  1.152838E+05  1.823928E+03  4.510978E+02
       328  20 -6.687390E+05 -4.479876E+04 -5.103689E+04  1.254859E+05 -2.245283E+04 -2.478434E+03
       328  21 -7.551858E+05 -9.908110E+04 -1.008311E+05  1.485625E+05 -4.672805E+04 -1.204206E+03
       328  22 -5.643043E+05 -6.398795E+03 -1.532966E+04  1.132626E+05 -1.019837E+04  4.417107E+02
       328  23 -5.607572E+05 -1.858783E+04 -2.787251E+04  1.068398E+05 -2.439271E+04 -2.479201E+03
       328  24 -5.643232E+05 -5.175879E+04 -5.491258E+04  1.132939E+05 -3.858893E+04 -1.195389E+03
       328  25 -5.374553E+05  4.542858E+02 -7.910692E+03  1.112414E+05 -2.222120E+04  4.324021E+02
       328  26 -4.527636E+05  7.623639E+03 -4.708618E+03  8.819039E+04 -2.633292E+04 -2.479852E+03
       328  27 -3.734243E+05 -4.434400E+03 -8.995749E+03  7.801430E+04 -3.044732E+04 -1.187500E+03
       329   1  1.166052E+05  1.061266E+05  9.904339E+04  1.036536E+05  3.244081E+04 -5.102325E+03
       329   2  3.589079E+04  8.793477E+04  6.539083E+04  1.004975E+05  1.196310E+04 -1.654792E+04
       329   3 -4.206147E+04  7.014251E+04  4.517100E+04  1.093065E+05 -8.516960E+03 -1.841159E+04
       329   4 -3.494849E+05 -8.796070E+03 -9.481796E+03  1.095073E+05 -6.491954E+03 -5.131723E+03
       329   5 -3.488560E+05 -3.087435E+03 -4.939998E+03  1.035214E+05 -3.967858E+03 -1.656150E+04
       329   6 -3.494635E+05 -9.724289E+02 -2.939382E+03  1.095012E+05 -1.448571E+03 -1.840642E+04
       329   7 -8.153713E+05 -1.237332E+05 -1.180159E+05  1.153565E+05 -4.539569E+04 -5.161869E+03
       329   8 -7.334584E+05 -9.411785E+04 -7.527587E+04  1.065434E+05 -1.988921E+04 -1.657524E+04
       329   9 -6.567711E+05 -7.209199E+04 -5.105185E+04  1.096958E+05  5.616449E+03 -1.840124E+04
       329  10  1.166041E+05  1.061263E+05  9.904137E+04  1.036538E+05  1.761743E-09 -5.079565E-10
       329  11  3.589057E+04  8.793444E+04  6.539005E+04  1.004977E+05 -4.329449E-10 -3.588950E-10
       329  12 -4.206163E+04  7.014213E+04  4.517023E+04  1.093064E+05 -3.580036E-09  2.183175E-10
       329  13 -3.494850E+05 -8.796110E+03 -9.481925E+03  1.095073E+05 -1.334155E-10  1.148516E-09
       329  14 -3.488561E+05 -3.087734E+03 -4.940543E+03  1.035214E+05  4.313140E-11  4.324479E-10
       329  15 -3.494636E+05 -9.727932E+02 -2.940023E+03  1.095012E+05  3.560438E-10 -1.950794E-11
       329  16 -8.153735E+05 -1.237338E+05 -1.180199E+05  1.153563E+05 -1.665829E-09  9.156577E-11
       329  17 -7.334589E+05 -9.411825E+04 -7.527713E+04  1.065431E+05  3.398712E-10 -1.275594E-09
       329  18 -6.567712E+05 -7.209237E+04 -5.105254E+04  1.096959E+05  3.752134E-09 -3.463178E-10
       329  19  1.166052E+05  1.061266E+05  9.904339E+04  1.036536E+05 -3.244081E+04  5.102325E+03
       329  20  3.589079E+04  8.793477E+04  6.539083E+04  1.004975E+05 -1.196310E+04  1.654792E+04
       329  21 -4.206147E+04  7.014251E+04  4.517100E+04  1.093065E+05  8.516960E+03  1.841159E+04
       329  22 -3.494849E+05 -8.796070E+03 -9.481796E+03  1.095073E+05  6.491954E+03  5.131723E+03
       329  23 -3.488560E+05 -3.087435E+03 -4.939998E+03  1.035214E+05  3.967858E+03  1.656150E+04
       329  24 -3.494635E+05 -9.724289E+02 -2.939382E+03  1.095012E+05  1.448571E+03  1.840642E+04
       329  25 -8.153713E+05 -1.237332E+05 -1.180159E+05  1.153565E+05  4.539569E+04  5.161869E+03
       329  26 -7.334584E+05 -9.411785E+04 -7.527587E+04  1.065434E+05  1.988921E+04  1.657524E+04
       329  27 -6.567711E+05 -7.209199E+04 -5.105185E+04  1.096958E+05 -5.616449E+03  1.840124E+04
       330   1 -9.143405E+04  5.873228E+04  3.667136E+04  1.092850E+05 -8.861608E+03 -1.625065E+04
       330   2 -1.708355E+05  4.055722E+04  2.328046E+04  1.031924E+05 -1.072100E+04 -1.240530E+04
       330   3 -2.500046E+05  2.239749E+04  1.109844E+04  1.097786E+05 -1.258136E+04 -7.384113E+03
       330   4 -3.492423E+05 -6.586167E+02 -2.417024E+03  1.096599E+05 -1.040373E+03 -1.624446E+04
       330   5 -3.491055E+05 -1.492810E+02 -1.932031E+03  1.033202E+05 -7.893199E+01 -1.239614E+04
       330   6 -3.492326E+05 -1.142985E+02 -2.197883E+03  1.096595E+05  8.813055E+02 -7.371808E+03
       330   7 -6.069838E+05 -6.005266E+04 -4.150656E+04  1.100347E+05  6.777741E+03 -1.623825E+04
       330   8 -5.273431E+05 -4.085715E+04 -2.714454E+04  1.034480E+05  1.056021E+04 -1.238698E+04
       330   9 -4.484502E+05 -2.262641E+04 -1.549361E+04  1.095404E+05  1.434192E+04 -7.359508E+03
       330  10 -9.143420E+04  5.873198E+04  3.667072E+04  1.092849E+05 -1.986372E-09  1.754196E-09
       330  11 -1.708357E+05  4.055702E+04  2.327996E+04  1.031923E+05 -2.085985E-09  1.408117E-09
       330  12 -2.500048E+05  2.239739E+04  1.109804E+04  1.097785E+05 -3.246650E-09  1.742398E-09
       330  13 -3.492424E+05 -6.589003E+02 -2.417521E+03  1.096599E+05  1.426918E-10  1.451983E-09
       330  14 -3.491056E+05 -1.494460E+02 -1.932319E+03  1.033202E+05  5.295514E-10  1.597083E-09
       330  15 -3.492326E+05 -1.143570E+02 -2.197986E+03  1.096595E+05  1.385061E-10  2.119848E-09
       330  16 -6.069839E+05 -6.005296E+04 -4.150714E+04  1.100348E+05  2.062860E-09  1.372917E-09
       330  17 -5.273433E+05 -4.085734E+04 -2.714503E+04  1.034481E+05  2.030753E-09 -6.738324E-10
       330  18 -4.484505E+05 -2.262652E+04 -1.549409E+04  1.095405E+05  2.920831E-09  1.167023E-09
       330  19 -9.143405E+04  5.873228E+04  3.667136E+04  1.092850E+05  8.861608E+03  1.625065E+04
       330  20 -1.708355E+05  4.055722E+04  2.328046E+04  1.031924E+05  1.072100E+04  1.240530E+04
       330  21 -2.500046E+05  2.239749E+04  1.109844E+04  1.097786E+05  1.258136E+04  7.384113E+03
       330  22 -3.492423E+05 -6.586167E+02 -2.417024E+03  1.096599E+05  1.040373E+03  1.624446E+04
       330  23 -3.491055E+05 -1.492810E+02 -1.932031E+03  1.033202E+05  7.893199E+01  1.239614E+04
       330  24 -3.492326E+05 -1.142985E+02 -2.197883E+03  1.096595E+05 -8.813055E+02  7.371808E+03
       330  25 -6.069838E+05 -6.005266E+04 -4.150656E+04  1.100347E+05 -6.777741E+03  1.623825E+04
       330  26 -5.273431E+05 -4.085715E+04 -2.714454E+04  1.034480E+05 -1.056021E+04  1.238698E+04
       330  27 -4.484502E+05 -2.262641E+04 -1.549361E+04  1.095404E+05 -1.434192E+04  7.359508E+03
       331   1 -2.991375E+05  1.111272E+04  3.673926E+03  1.096422E+05 -1.221450E+04 -4.033754E+03
       331   2 -3.779530E+05 -7.692266E+03 -9.403788E+03  1.041689E+05 -8.422729E+03  1.231132E+03
       331   3 -4.576966E+05 -2.817278E+04 -2.537696E+04  1.114056E+05 -4.630922E+03  5.769476E+03
       331   4 -3.493132E+05 -1.788041E+02 -2.589929E+03  1.096663E+05  1.279435E+03 -4.021259E+03
       331   5 -3.489980E+05 -8.396049E+02 -4.098228E+03  1.033124E+05  3.327494E+03  1.241946E+03
       331   6 -3.493154E+05 -2.873125E+03 -7.291131E+03  1.096686E+05  5.376061E+03  5.778615E+03
       331   7 -3.994860E+05 -1.147033E+04 -8.853105E+03  1.096904E+05  1.477234E+04 -4.008763E+03
       331   8 -3.200419E+05  6.013085E+03  1.207818E+03  1.024559E+05  1.507825E+04  1.252728E+03
       331   9 -2.409225E+05  2.242599E+04  1.079471E+04  1.079313E+05  1.538473E+04  5.787697E+03
       331  10 -2.991377E+05  1.111266E+04  3.673615E+03  1.096422E+05 -4.623802E-09  2.982730E-09
       331  11 -3.779530E+05 -7.692286E+03 -9.403924E+03  1.041689E+05 -1.982063E-09  1.781380E-09
       331  12 -4.576966E+05 -2.817283E+04 -2.537706E+04  1.114056E+05 -9.133469E-10  1.487867E-09
       331  13 -3.493132E+05 -1.788219E+02 -2.589963E+03  1.096663E+05  2.807299E-10  2.258405E-09
       331  14 -3.489980E+05 -8.396095E+02 -4.098251E+03  1.033124E+05  5.399372E-10  2.009963E-09
       331  15 -3.493155E+05 -2.873169E+03 -7.291248E+03  1.096686E+05 -3.753106E-11 -8.247395E-12
       331  16 -3.994862E+05 -1.147041E+04 -8.853545E+03  1.096904E+05  4.739691E-09  2.106909E-09
       331  17 -3.200422E+05  6.013022E+03  1.207388E+03  1.024559E+05  1.932114E-09  1.539592E-09
       331  18 -2.409227E+05  2.242589E+04  1.079420E+04  1.079313E+05  9.572308E-10 -1.672620E-09
       331  19 -2.991375E+05  1.111272E+04  3.673926E+03  1.096422E+05  1.221450E+04  4.033754E+03
       331  20 -3.779530E+05 -7.692266E+03 -9.403788E+03  1.041689E+05  8.422729E+03 -1.231132E+03
       331  21 -4.576966E+05 -2.817278E+04 -2.537696E+04  1.114056E+05  4.630922E+03 -5.769476E+03
       331  22 -3.493132E+05 -1.788041E+02 -2.589929E+03  1.096663E+05 -1.279435E+03  4.021259E+03
       331  23 -3.489980E+05 -8.396049E+02 -4.098228E+03  1.033124E+05 -3.327494E+03 -1.241946E+03
       331  24 -3.493154E+05 -2.873125E+03 -7.291131E+03  1.096686E+05 -5.376061E+03 -5.778615E+03
       331  25 -3.994860E+05 -1.147033E+04 -8.853105E+03  1.096904E+05 -1.477234E+04  4.008763E+03
       331  26 -3.200419E+05  6.013085E+03  1.207818E+03  1.024559E+05 -1.507825E+04 -1.252728E+03
       331  27 -2.409225E+05  2.242599E+04  1.079471E+04  1.079313E+05 -1.538473E+04 -5.787697E+03
       332   1 -5.079464E+05 -4.085693E+04 -3.604773E+04  1.107500E+05 -2.849224E+03  8.387259E+03
       332   2 -5.836039E+05 -6.795100E+04 -6.265125E+04  1.152806E+05  2.216867E+04  9.040744E+03
       332   3 -6.665849E+05 -1.112412E+05 -1.096056E+05  1.320345E+05  4.718753E+04  3.042836E+03
       332   4 -3.501892E+05 -4.022587E+03 -9.698253E+03  1.095596E+05  6.641823E+03  8.395716E+03
       332   5 -3.479209E+05 -1.184275E+04 -1.779825E+04  1.034595E+05  1.570894E+04  9.034372E+03
       332   6 -3.502067E+05 -3.308434E+04 -3.516329E+04  1.095837E+05  2.478028E+04  3.021946E+03
       332   7 -1.924071E+05  3.281051E+04  1.665080E+04  1.083690E+05  1.613520E+04  8.404135E+03
       332   8 -1.121839E+05  4.426280E+04  2.705249E+04  9.163386E+04  9.246814E+03  9.028247E+03
       332   9 -3.373424E+04  4.506760E+04  3.927436E+04  8.712131E+04  2.361666E+03  3.002685E+03
       332  10 -5.079465E+05 -4.085701E+04 -3.604788E+04  1.107500E+05 -1.395447E-07  2.764408E-10
       332  11 -5.836044E+05 -6.795122E+04 -6.265233E+04  1.152804E+05 -2.830324E-09 -2.161571E-09
       332  12 -6.665873E+05 -1.112419E+05 -1.096099E+05  1.320344E+05  1.325927E-07 -6.655260E-10
       332  13 -3.501892E+05 -4.022675E+03 -9.698468E+03  1.095596E+05 -2.820793E-10  1.110595E-09
       332  14 -3.479212E+05 -1.184290E+04 -1.779886E+04  1.034594E+05  2.014816E-10 -2.756695E-09
       332  15 -3.502074E+05 -3.308452E+04 -3.516446E+04  1.095836E+05  2.040174E-10  4.307272E-10
       332  16 -1.924074E+05  3.281036E+04  1.665018E+04  1.083689E+05  1.398508E-07 -5.835426E-10
       332  17 -1.121840E+05  4.426269E+04  2.705218E+04  9.163380E+04  2.059926E-09 -1.079018E-09
       332  18 -3.373425E+04  4.506759E+04  3.927433E+04  8.712131E+04 -1.328291E-07 -1.026607E-09
       332  19 -5.079464E+05 -4.085693E+04 -3.604773E+04  1.107500E+05  2.849224E+03 -8.387259E+03
       332  20 -5.836039E+05 -6.795100E+04 -6.265125E+04  1.152806E+05 -2.216867E+04 -9.040744E+03
       332  21 -6.665849E+05 -1.112412E+05 -1.096056E+05  1.320345E+05 -4.718753E+04 -3.042836E+03
       332  22 -3.501892E+05 -4.022587E+03 -9.698253E+03  1.095596E+05 -6.641823E+03 -8.395716E+03
       332  23 -3.479209E+05 -1.184275E+04 -1.779825E+04  1.034595E+05 -1.570894E+04 -9.034372E+03
       332  24 -3.502067E+05 -3.308434E+04 -3.516329E+04  1.095837E+05 -2.478028E+04 -3.021946E+03
       332  25 -1.924071E+05  3.281051E+04  1.665080E+04  1.083690E+05 -1.613520E+04 -8.404135E+03
       332  26 -1.121839E+05  4.426280E+04  2.705249E+04  9.163386E+04 -9.246814E+03 -9.028247E+03
       332  27 -3.373424E+04  4.506760E+04  3.927436E+04  8.712131E+04 -2.361666E+03 -3.002685E+03
       333   1  7.431336E+04  6.309090E+04  6.010471E+04  7.560253E+04  2.086480E+04 -2.421588E+03
       333   2  2.003091E+04  4.589456E+04  3.681405E+04  7.047217E+04  7.927379E+03 -7.556159E+03
       333   3 -3.172003E+04  3.212108E+04  2.280113E+04  7.345587E+04 -5.012041E+03 -7.650044E+03
       333   4 -1.676614E+05  3.352394E+03  3.416758E+03  7.326351E+04  2.515878E+03 -2.436204E+03
       333   5 -1.678726E+05  1.276057E+03  1.650643E+03  6.920757E+04  1.678124E+03 -7.561428E+03
       333   6 -1.676551E+05  5.226525E+02  7.602002E+02  7.326573E+04  8.371917E+02 -7.645302E+03
       333   7 -4.095815E+05 -5.639007E+04 -5.327392E+04  7.092540E+04 -1.582594E+04 -2.450686E+03
       333   8 -3.557419E+05 -4.334447E+04 -3.351414E+04  6.794336E+04 -4.569287E+03 -7.566673E+03
       333   9 -3.035717E+05 -3.107670E+04 -2.128111E+04  7.307564E+04  6.685189E+03 -7.640564E+03
       333  10  7.431289E+04  6.309078E+04  6.010388E+04  7.560257E+04 -2.675236E-09  5.979972E-10
       333  11  2.003082E+04  4.589449E+04  3.681383E+04  7.047222E+04 -6.449827E-10  1.790368E-09
       333  12 -3.172007E+04  3.212102E+04  2.280097E+04  7.345584E+04  6.528443E-10  1.119003E-09
       333  13 -1.676614E+05  3.352386E+03  3.416735E+03  7.326352E+04  3.975280E-10 -1.288529E-09
       333  14 -1.678726E+05  1.275995E+03  1.650530E+03  6.920758E+04  3.546627E-10 -2.060189E-09
       333  15 -1.676551E+05  5.225896E+02  7.600891E+02  7.326574E+04  1.593279E-10  4.672181E-11
       333  16 -4.095818E+05 -5.639015E+04 -5.327441E+04  7.092537E+04  2.822515E-09  6.236649E-11
       333  17 -3.557419E+05 -4.334453E+04 -3.351429E+04  6.794333E+04  2.595455E-10  1.685710E-09
       333  18 -3.035718E+05 -3.107677E+04 -2.128131E+04  7.307568E+04 -3.311426E-10  3.323551E-10
       333  19  7.431336E+04  6.309090E+04  6.010471E+04  7.560253E+04 -2.086480E+04  2.421588E+03
       333  20  2.003091E+04  4.589456E+04  3.681405E+04  7.047217E+04 -7.927379E+03  7.556159E+03
       333  21 -3.172003E+04  3.212108E+04  2.280113E+04  7.345587E+04  5.012041E+03  7.650044E+03
       333  22 -1.676614E+05  3.352394E+03  3.416758E+03  7.326351E+04 -2.515878E+03  2.436204E+03
       333  23 -1.678726E+05  1.276057E+03  1.650643E+03  6.920757E+04 -1.678124E+03  7.561428E+03
       333  24 -1.676551E+05  5.226525E+02  7.602002E+02  7.326573E+04 -8.371917E+02  7.645302E+03
       333  25 -4.095815E+05 -5.639007E+04 -5.327392E+04  7.092540E+04  1.582594E+04  2.450686E+03
       333  26 -3.557419E+05 -4.334447E+04 -3.351414E+04  6.794336E+04  4.569287E+03  7.566673E+03
       333  27 -3.035717E+05 -3.107670E+04 -2.128111E+04  7.307564E+04 -6.685189E+03  7.640564E+03
       334   1 -6.486222E+04  2.426520E+04  1.681989E+04  7.356045E+04 -5.491763E+03 -5.995260E+03
       334   2 -1.179723E+05  1.166315E+04  7.534876E+03  6.921840E+04 -6.847200E+03 -3.106525E+03
       334   3 -1.708369E+05 -6.170327E+02 -7.913538E+02  7.336303E+04 -8.202981E+03  3.593039E+02
       334   4 -1.677486E+05  4.119840E+02  4.551819E+02  7.334843E+04  7.508550E+02 -5.990070E+03
       334   5 -1.677485E+05  1.858728E+02 -6.643152E+01  6.910522E+04  7.799905E+02 -3.100070E+03
       334   6 -1.677468E+05  4.111138E+01 -5.912297E+02  7.334874E+04  8.086526E+02  3.670462E+02
       334   7 -2.706243E+05 -2.344173E+04 -1.590965E+04  7.313645E+04  6.992476E+03 -5.984883E+03
       334   8 -2.175220E+05 -1.129149E+04 -7.667574E+03  6.899205E+04  8.406593E+03 -3.093618E+03
       334   9 -1.646566E+05  6.992989E+02 -3.907999E+02  7.333445E+04  9.820328E+03  3.747879E+02
       334  10 -6.486226E+04  2.426515E+04  1.681976E+04  7.356042E+04  2.558667E-10 -7.042689E-11
       334  11 -1.179724E+05  1.166313E+04  7.534770E+03  6.921838E+04  4.847977E-14  2.278338E-09
       334  12 -1.708369E+05 -6.170509E+02 -7.914805E+02  7.336304E+04 -2.686301E-10  2.051089E-09
       334  13 -1.677486E+05  4.119454E+02  4.551134E+02  7.334844E+04 -2.569875E-10  3.215820E-09
       334  14 -1.677485E+05  1.858623E+02 -6.645072E+01  6.910522E+04  9.635676E-10 -4.324329E-09
       334  15 -1.677468E+05  4.111106E+01 -5.912312E+02  7.334874E+04 -1.492855E-10  2.602715E-09
       334  16 -2.706244E+05 -2.344179E+04 -1.590981E+04  7.313649E+04  6.209206E-10 -1.713596E-09
       334  17 -2.175221E+05 -1.129152E+04 -7.667725E+03  6.899207E+04 -5.533469E-10 -9.843934E-10
       334  18 -1.646567E+05  6.992728E+02 -3.909814E+02  7.333444E+04 -9.765813E-12  1.302306E-09
       334  19 -6.486222E+04  2.426520E+04  1.681989E+04  7.356045E+04  5.491763E+03  5.995260E+03
       334  20 -1.179723E+05  1.166315E+04  7.534876E+03  6.921840E+04  6.847200E+03  3.106525E+03
       334  21 -1.708369E+05 -6.170327E+02 -7.913538E+02  7.336303E+04  8.202981E+03 -3.593039E+02
       334  22 -1.677486E+05  4.119840E+02  4.551819E+02  7.334843E+04 -7.508550E+02  5.990070E+03
       334  23 -1.677485E+05  1.858728E+02 -6.643152E+01  6.910522E+04 -7.799905E+02  3.100070E+03
       334  24 -1.677468E+05  4.111138E+01 -5.912297E+02  7.334874E+04 -8.086526E+02 -3.670462E+02
       334  25 -2.706243E+05 -2.344173E+04 -1.590965E+04  7.313645E+04 -6.992476E+03  5.984883E+03
       334  26 -2.175220E+05 -1.129149E+04 -7.667574E+03  6.899205E+04 -8.406593E+03  3.093618E+03
       334  27 -1.646566E+05  6.992989E+02 -3.907999E+02  7.333445E+04 -9.820328E+03 -3.747879E+02
       335   1 -2.036842E+05 -8.169157E+03 -5.808510E+03  7.330581E+04 -8.070724E+03  2.598016E+03
       335   2 -2.563763E+05 -2.068818E+04 -1.461526E+04  6.948600E+04 -5.493439E+03  6.005477E+03
       335   3 -3.096508E+05 -3.414367E+04 -2.533929E+04  7.414528E+04 -2.915705E+03  8.718656E+03
       335   4 -1.678130E+05 -1.341276E+01 -9.090864E+02  7.334695E+04  9.324874E+02  2.605722E+03
       335   5 -1.676672E+05 -3.844227E+02 -1.823477E+03  6.910800E+04  1.843903E+03  6.011579E+03
       335   6 -1.678164E+05 -1.402213E+03 -3.497767E+03  7.334808E+04  2.755947E+03  8.723203E+03
       335   7 -1.319403E+05  8.142319E+03  3.990629E+03  7.338809E+04  9.936196E+03  2.613429E+03
       335   8 -7.894999E+04  1.991901E+04  1.096838E+04  6.872995E+04  9.182248E+03  6.017672E+03
       335   9 -2.596171E+04  3.133829E+04  1.834343E+04  7.255069E+04  8.428845E+03  8.727734E+03
       335  10 -2.036842E+05 -8.169182E+03 -5.808645E+03  7.330583E+04  1.448915E-08 -9.199100E-10
       335  11 -2.563763E+05 -2.068823E+04 -1.461538E+04  6.948603E+04 -2.175140E-08 -1.035354E-09
       335  12 -3.096508E+05 -3.414375E+04 -2.533945E+04  7.414530E+04 -5.698126E-08 -2.226355E-09
       335  13 -1.678130E+05 -1.342028E+01 -9.091008E+02  7.334695E+04 -1.311195E-10  5.902188E-10
       335  14 -1.676672E+05 -3.844624E+02 -1.823551E+03  6.910800E+04  1.891476E-10 -2.960149E-09
       335  15 -1.678164E+05 -1.402296E+03 -3.497924E+03  7.334806E+04  2.229680E-10 -2.198603E-09
       335  16 -1.319404E+05  8.142285E+03  3.990430E+03  7.338807E+04 -1.377029E-08 -8.123188E-10
       335  17 -7.895009E+04  1.991895E+04  1.096816E+04  6.872990E+04  2.120295E-08 -5.808435E-10
       335  18 -2.596181E+04  3.133819E+04  1.834316E+04  7.255063E+04  5.668995E-08 -1.457468E-10
       335  19 -2.036842E+05 -8.169157E+03 -5.808510E+03  7.330581E+04  8.070724E+03 -2.598016E+03
       335  20 -2.563763E+05 -2.068818E+04 -1.461526E+04  6.948600E+04  5.493439E+03 -6.005477E+03
       335  21 -3.096508E+05 -3.414367E+04 -2.533929E+04  7.414528E+04  2.915705E+03 -8.718656E+03
       335  22 -1.678130E+05 -1.341276E+01 -9.090864E+02  7.334695E+04 -9.324874E+02 -2.605722E+03
       335  23 -1.676672E+05 -3.844227E+02 -1.823477E+03  6.910800E+04 -1.843903E+03 -6.011579E+03
       335  24 -1.678164E+05 -1.402213E+03 -3.497767E+03  7.334808E+04 -2.755947E+03 -8.723203E+03
       335  25 -1.319403E+05  8.142319E+03  3.990629E+03  7.338809E+04 -9.936196E+03 -2.613429E+03
       335  26 -7.894999E+04  1.991901E+04  1.096838E+04  6.872995E+04 -9.182248E+03 -6.017672E+03
       335  27 -2.596171E+04  3.133829E+04  1.834343E+04  7.255069E+04 -8.428845E+03 -8.727734E+03
       336   1 -3.431801E+05 -4.251112E+04 -3.243718E+04  7.377990E+04 -1.851111E+03  1.025661E+04
       336   2 -3.938621E+05 -5.956227E+04 -5.058779E+04  7.502261E+04  1.655288E+04  9.542123E+03
       336   3 -4.492155E+05 -8.567525E+04 -8.299211E+04  8.431575E+04  3.495858E+04  3.020054E+03
       336   4 -1.682534E+05 -1.973167E+03 -4.720882E+03  7.325244E+04  3.365517E+03  1.026063E+04
       336   5 -1.671314E+05 -5.850040E+03 -8.777614E+03  6.923259E+04  7.839299E+03  9.534781E+03
       336   6 -1.682626E+05 -1.636752E+04 -1.740972E+04  7.326351E+04  1.231657E+04  3.002019E+03
       336   7  6.703900E+03  3.856327E+04  2.299475E+04  7.272481E+04  8.583560E+03  1.026464E+04
       336   8  5.964944E+04  4.785943E+04  3.303074E+04  6.344040E+04 -8.773809E+02  9.527602E+03
       336   9  1.127646E+05  5.293536E+04  4.816931E+04  6.220621E+04 -1.033563E+04  2.984794E+03
       336  10 -3.431801E+05 -4.251123E+04 -3.243739E+04  7.377992E+04  5.952144E-08 -3.879431E-09
       336  11 -3.938624E+05 -5.956244E+04 -5.058848E+04  7.502248E+04  2.198591E-08 -2.405320E-09
       336  12 -4.492168E+05 -8.567559E+04 -8.299443E+04  8.431566E+04 -1.693210E-08 -1.149113E-09
       336  13 -1.682534E+05 -1.973283E+03 -4.721101E+03  7.325241E+04  1.219582E-10 -2.458557E-09
       336  14 -1.671315E+05 -5.850154E+03 -8.777900E+03  6.923253E+04  3.687538E-10 -5.398588E-09
       336  15 -1.682627E+05 -1.636757E+04 -1.741002E+04  7.326348E+04 -1.880735E-10 -2.320613E-09
       336  16  6.703793E+03  3.856314E+04  2.299441E+04  7.272474E+04 -5.872585E-08 -2.086807E-09
       336  17  5.964941E+04  4.785933E+04  3.303056E+04  6.344041E+04 -2.249675E-08 -8.893607E-10
       336  18  1.127645E+05  5.293532E+04  4.816909E+04  6.220624E+04  1.680690E-08 -6.378845E-10
       336  19 -3.431801E+05 -4.251112E+04 -3.243718E+04  7.377990E+04  1.851111E+03 -1.025661E+04
       336  20 -3.938621E+05 -5.956227E+04 -5.058779E+04  7.502261E+04 -1.655288E+04 -9.542123E+03
       336  21 -4.492155E+05 -8.567525E+04 -8.299211E+04  8.431575E+04 -3.495858E+04 -3.020054E+03
       336  22 -1.682534E+05 -1.973167E+03 -4.720882E+03  7.325244E+04 -3.365517E+03 -1.026063E+04
       336  23 -1.671314E+05 -5.850040E+03 -8.777614E+03  6.923259E+04 -7.839299E+03 -9.534781E+03
       336  24 -1.682626E+05 -1.636752E+04 -1.740972E+04  7.326351E+04 -1.231657E+04 -3.002019E+03
       336  25  6.703900E+03  3.856327E+04  2.299475E+04  7.272481E+04 -8.583560E+03 -1.026464E+04
       336  26  5.964944E+04  4.785943E+04  3.303074E+04  6.344040E+04  8.773809E+02 -9.527602E+03
       336  27  1.127646E+05  5.293536E+04  4.816931E+04  6.220621E+04  1.033563E+04 -2.984794E+03
       337   1  2.277368E+04  2.534865E+04  2.493939E+04  3.955678E+04  9.324554E+03 -5.844031E+02
       337   2 -3.277865E+03  1.435485E+04  1.348167E+04  3.542612E+04  3.632858E+03 -1.577130E+03
       337   3 -2.774707E+04  6.746498E+03  6.574918E+03  3.522985E+04 -2.059515E+03 -9.555287E+02
       337   4 -5.234762E+04  6.744938E+03  7.080674E+03  3.495611E+04  5.014028E+03 -5.874722E+02
       337   5 -5.280170E+04  2.463001E+03  3.567831E+03  3.299095E+04  3.197002E+03 -1.577459E+03
       337   6 -5.234694E+04  8.939475E+02  1.915327E+03  3.496009E+04  1.379000E+03 -9.530978E+02
       337   7 -1.274636E+05 -1.185909E+04 -1.077835E+04  3.035599E+04  7.040215E+02 -5.904776E+02
       337   8 -1.023232E+05 -9.428973E+03 -6.346125E+03  3.055598E+04  2.761180E+03 -1.577785E+03
       337   9 -7.694621E+04 -4.958632E+03 -2.744245E+03  3.469033E+04  4.817383E+03 -9.506699E+02
       337  10  2.277358E+04  2.534862E+04  2.493922E+04  3.955679E+04  1.296932E-09  2.035855E-10
       337  11 -3.277880E+03  1.435484E+04  1.348164E+04  3.542613E+04  5.750943E-10 -5.310310E-10
       337  12 -2.774707E+04  6.746496E+03  6.574908E+03  3.522985E+04 -7.255398E-10  4.904772E-10
       337  13 -5.234765E+04  6.744931E+03  7.080626E+03  3.495611E+04 -3.933943E-11  7.090652E-10
       337  14 -5.280171E+04  2.462996E+03  3.567808E+03  3.299096E+04  5.101788E-10 -7.190747E-10
       337  15 -5.234695E+04  8.939460E+02  1.915322E+03  3.496009E+04 -3.288278E-11 -1.367396E-09
       337  16 -1.274636E+05 -1.185909E+04 -1.077835E+04  3.035599E+04 -1.054482E-09 -5.592847E-10
       337  17 -1.023232E+05 -9.428977E+03 -6.346144E+03  3.055598E+04 -6.265074E-10 -3.747653E-09
       337  18 -7.694623E+04 -4.958639E+03 -2.744291E+03  3.469034E+04  6.336097E-10 -8.098292E-10
       337  19  2.277368E+04  2.534865E+04  2.493939E+04  3.955678E+04 -9.324554E+03  5.844031E+02
       337  20 -3.277865E+03  1.435485E+04  1.348167E+04  3.542612E+04 -3.632858E+03  1.577130E+03
       337  21 -2.774707E+04  6.746498E+03  6.574918E+03  3.522985E+04  2.059515E+03  9.555287E+02
       337  22 -5.234762E+04  6.744938E+03  7.080674E+03  3.495611E+04 -5.014028E+03  5.874722E+02
       337  23 -5.280170E+04  2.463001E+03  3.567831E+03  3.299095E+04 -3.197002E+03  1.577459E+03
       337  24 -5.234694E+04  8.939475E+02  1.915327E+03  3.496009E+04 -1.379000E+03  9.530978E+02
       337  25 -1.274636E+05 -1.185909E+04 -1.077835E+04  3.035599E+04 -7.040215E+02  5.904776E+02
       337  26 -1.023232E+05 -9.428973E+03 -6.346125E+03  3.055598E+04 -2.761180E+03  1.577785E+03
       337  27 -7.694621E+04 -4.958632E+03 -2.744245E+03  3.469033E+04 -4.817383E+03  9.506699E+02
       338   1 -4.361984E+04  2.876329E+03  3.574334E+03  3.534935E+04 -2.431653E+03 -4.508201E+01
       338   2 -6.895905E+04 -3.376679E+03 -9.945376E+02  3.312733E+04 -3.168327E+03  1.516044E+03
       338   3 -9.412458E+04 -9.293659E+03 -5.001819E+03  3.495777E+04 -3.905063E+03  3.231545E+03
       338   4 -5.252457E+04  6.629505E+02  1.415657E+03  3.498614E+04  1.130786E+03 -4.255517E+01
       338   5 -5.257928E+04  2.437969E+02  7.283148E+02  3.296012E+04  7.645455E+02  1.518813E+03
       338   6 -5.252487E+04  9.647657E+01  3.453919E+02  3.498653E+04  3.982206E+02  3.234555E+03
       338   7 -6.142919E+04 -1.550426E+03 -7.429786E+02  3.462295E+04  4.693174E+03 -4.003247E+01
       338   8 -3.619919E+04  3.864272E+03  2.451229E+03  3.279289E+04  4.697516E+03  1.521581E+03
       338   9 -1.092335E+04  9.486551E+03  5.692665E+03  3.501529E+04  4.701779E+03  3.237564E+03
       338  10 -4.361985E+04  2.876327E+03  3.574323E+03  3.534935E+04  6.531181E-08  1.094159E-09
       338  11 -6.895906E+04 -3.376684E+03 -9.945608E+02  3.312734E+04 -2.975529E-10  3.783034E-10
       338  12 -9.412460E+04 -9.293675E+03 -5.001868E+03  3.495778E+04 -6.678724E-08  8.954683E-10
       338  13 -5.252457E+04  6.629502E+02  1.415654E+03  3.498614E+04  2.738564E-10  1.048264E-09
       338  14 -5.257928E+04  2.437943E+02  7.283093E+02  3.296011E+04  4.583892E-10  2.611096E-09
       338  15 -5.252488E+04  9.646529E+01  3.453719E+02  3.498653E+04  1.794995E-10  1.146804E-09
       338  16 -6.142921E+04 -1.550432E+03 -7.430200E+02  3.462295E+04 -6.510956E-08  2.731927E-09
       338  17 -3.619921E+04  3.864263E+03  2.451183E+03  3.279289E+04  5.036882E-10  2.097830E-09
       338  18 -1.092338E+04  9.486534E+03  5.692603E+03  3.501527E+04  6.682672E-08  3.047583E-09
       338  19 -4.361984E+04  2.876329E+03  3.574334E+03  3.534935E+04  2.431653E+03  4.508201E+01
       338  20 -6.895905E+04 -3.376679E+03 -9.945376E+02  3.312733E+04  3.168327E+03 -1.516044E+03
       338  21 -9.412458E+04 -9.293659E+03 -5.001819E+03  3.495777E+04  3.905063E+03 -3.231545E+03
       338  22 -5.252457E+04  6.629505E+02  1.415657E+03  3.498614E+04 -1.130786E+03  4.255517E+01
       338  23 -5.257928E+04  2.437969E+02  7.283148E+02  3.296012E+04 -7.645455E+02 -1.518813E+03
       338  24 -5.252487E+04  9.647657E+01  3.453919E+02  3.498653E+04 -3.982206E+02 -3.234555E+03
       338  25 -6.142919E+04 -1.550426E+03 -7.429786E+02  3.462295E+04 -4.693174E+03  4.003247E+01
       338  26 -3.619919E+04  3.864272E+03  2.451229E+03  3.279289E+04 -4.697516E+03 -1.521581E+03
       338  27 -1.092335E+04  9.486551E+03  5.692665E+03  3.501529E+04 -4.701779E+03 -3.237564E+03
       339   1 -1.097757E+05 -1.289025E+04 -7.378605E+03  3.495797E+04 -3.931292E+03  4.298302E+03
       339   2 -1.349252E+05 -1.877054E+04 -1.147333E+04  3.297040E+04 -2.832039E+03  5.857939E+03
       339   3 -1.602811E+05 -2.488220E+04 -1.634350E+04  3.501577E+04 -1.732489E+03  6.966092E+03
       339   4 -5.255360E+04  7.257336E+01  2.078533E+02  3.498216E+04  3.511007E+02  4.301263E+03
       339   5 -5.254488E+04 -4.433294E+00 -3.207615E+01  3.296577E+04  3.669304E+02  5.860063E+03
       339   6 -5.255503E+04 -1.246599E+02 -2.949810E+02  3.498229E+04  3.831001E+02  6.967411E+03
       339   7  4.671865E+03  1.303527E+04  7.794356E+03  3.500635E+04  4.633869E+03  4.304223E+03
       339   8  2.984236E+04  1.876138E+04  1.140914E+04  3.296114E+04  3.566306E+03  5.862187E+03
       339   9  5.518272E+04  2.463233E+04  1.575334E+04  3.494881E+04  2.499042E+03  6.968730E+03
       339  10 -1.097757E+05 -1.289027E+04 -7.378669E+03  3.495798E+04  1.745634E-09  9.149278E-10
       339  11 -1.349252E+05 -1.877058E+04 -1.147341E+04  3.297041E+04  2.694722E-11  6.096147E-10
       339  12 -1.602811E+05 -2.488225E+04 -1.634360E+04  3.501578E+04 -2.523351E-09 -1.298729E-09
       339  13 -5.255361E+04  7.255346E+01  2.078183E+02  3.498216E+04  3.052581E-10 -1.589395E-09
       339  14 -5.254489E+04 -4.470204E+00 -3.214094E+01  3.296577E+04  2.481705E-10  2.044131E-09
       339  15 -5.255504E+04 -1.247120E+02 -2.950725E+02  3.498229E+04  4.534630E-11  1.184056E-09
       339  16  4.671837E+03  1.303524E+04  7.794281E+03  3.500633E+04 -1.343793E-09  4.659591E-10
       339  17  2.984234E+04  1.876134E+04  1.140905E+04  3.296113E+04 -3.708346E-10 -9.298459E-10
       339  18  5.518270E+04  2.463228E+04  1.575323E+04  3.494879E+04  2.263383E-09  1.279501E-09
       339  19 -1.097757E+05 -1.289025E+04 -7.378605E+03  3.495797E+04  3.931292E+03 -4.298302E+03
       339  20 -1.349252E+05 -1.877054E+04 -1.147333E+04  3.297040E+04  2.832039E+03 -5.857939E+03
       339  21 -1.602811E+05 -2.488220E+04 -1.634350E+04  3.501577E+04  1.732489E+03 -6.966092E+03
       339  22 -5.255360E+04  7.257336E+01  2.078533E+02  3.498216E+04 -3.511007E+02 -4.301263E+03
       339  23 -5.254488E+04 -4.433294E+00 -3.207615E+01  3.296577E+04 -3.669304E+02 -5.860063E+03
       339  24 -5.255503E+04 -1.246599E+02 -2.949810E+02  3.498229E+04 -3.831001E+02 -6.967411E+03
       339  25  4.671865E+03  1.303527E+04  7.794356E+03  3.500635E+04 -4.633869E+03 -4.304223E+03
       339  26  2.984236E+04  1.876138E+04  1.140914E+04  3.296114E+04 -3.566306E+03 -5.862187E+03
       339  27  5.518272E+04  2.463233E+04  1.575334E+04  3.494881E+04 -2.499042E+03 -6.968730E+03
       340   1 -1.761614E+05 -2.871389E+04 -1.950907E+04  3.492500E+04 -1.398716E+03  7.576816E+03
       340   2 -2.005693E+05 -3.559883E+04 -2.771408E+04  3.362003E+04  7.614814E+03  6.569874E+03
       340   3 -2.267080E+05 -4.469741E+04 -4.234218E+04  3.608345E+04  1.662974E+04  2.007556E+03
       340   4 -5.260710E+04 -1.892234E+02 -4.565585E+02  3.492346E+04  4.362545E+02  7.577902E+03
       340   5 -5.248324E+04 -6.242878E+02 -9.449804E+02  3.303978E+04  9.193360E+02  6.565376E+03
       340   6 -5.260960E+04 -1.791580E+03 -1.931523E+03  3.492450E+04  1.404361E+03  1.997850E+03
       340   7  7.096252E+04  2.833471E+04  1.859562E+04  3.492192E+04  2.271576E+03  7.578988E+03
       340   8  9.562431E+04  3.434905E+04  2.582343E+04  3.245938E+04 -5.777695E+03  6.560892E+03
       340   9  1.215173E+05  4.111224E+04  3.847797E+04  3.376522E+04 -1.382526E+04  1.988202E+03
       340  10 -1.761615E+05 -2.871396E+04 -1.950918E+04  3.492501E+04  1.897917E-10 -1.903228E-10
       340  11 -2.005694E+05 -3.559889E+04 -2.771427E+04  3.361999E+04  1.353537E-09  2.954521E-10
       340  12 -2.267083E+05 -4.469749E+04 -4.234271E+04  3.608342E+04  1.362687E-09  1.302987E-09
       340  13 -5.260712E+04 -1.892851E+02 -4.566668E+02  3.492346E+04  4.024581E-10  1.155918E-09
       340  14 -5.248325E+04 -6.243343E+02 -9.450630E+02  3.303977E+04  2.938179E-10  5.648133E-10
       340  15 -5.260960E+04 -1.791585E+03 -1.931535E+03  3.492450E+04 -6.315654E-11  4.782811E-10
       340  16  7.096250E+04  2.833464E+04  1.859550E+04  3.492191E+04  2.449446E-10  1.022476E-09
       340  17  9.562426E+04  3.434899E+04  2.582329E+04  3.245941E+04 -1.356591E-09  1.576939E-09
       340  18  1.215171E+05  4.111219E+04  3.847760E+04  3.376524E+04 -1.523652E-09  5.852681E-11
       340  19 -1.761614E+05 -2.871389E+04 -1.950907E+04  3.492500E+04  1.398716E+03 -7.576816E+03
       340  20 -2.005693E+05 -3.559883E+04 -2.771408E+04  3.362003E+04 -7.614814E+03 -6.569874E+03
       340  21 -2.267080E+05 -4.469741E+04 -4.234218E+04  3.608345E+04 -1.662974E+04 -2.007556E+03
       340  22 -5.260710E+04 -1.892234E+02 -4.565585E+02  3.492346E+04 -4.362545E+02 -7.577902E+03
       340  23 -5.248324E+04 -6.242878E+02 -9.449804E+02  3.303978E+04 -9.193360E+02 -6.565376E+03
       340  24 -5.260960E+04 -1.791580E+03 -1.931523E+03  3.492450E+04 -1.404361E+03 -1.997850E+03
       340  25  7.096252E+04  2.833471E+04  1.859562E+04  3.492192E+04 -2.271576E+03 -7.578988E+03
       340  26  9.562431E+04  3.434905E+04  2.582343E+04  3.245938E+04  5.777695E+03 -6.560892E+03
       340  27  1.215173E+05  4.111224E+04  3.847797E+04  3.376522E+04  1.382526E+04 -1.988202E+03
