    1C
    1UUSER                                                              
    1UDATE              21.september.2022                               
    1UTIME              09:27:59                                        
    1UHOST                                                              
    1UPGM               CalculiX                                        
    1UVERSION           Version 2.19                             
    1UCOMPILETIME       Fri Dec 17 13:15:26 CET 2021                    
    1UDIR                                                               
    1UDBN                                                               
    1UMAT    1MESH_MATERIAL                                             
    2C                           641                                     1
 -1         1 0.00000E+00 0.00000E+00 0.00000E+00
 -1         2 8.33333E-03 0.00000E+00 0.00000E+00
 -1         3 1.66667E-02 0.00000E+00 0.00000E+00
 -1         4 2.50000E-02 0.00000E+00 0.00000E+00
 -1         5 3.33333E-02 0.00000E+00 0.00000E+00
 -1         6 4.16667E-02 0.00000E+00 0.00000E+00
 -1         7 5.00000E-02 0.00000E+00 0.00000E+00
 -1         8 5.83333E-02 0.00000E+00 0.00000E+00
 -1         9 6.66667E-02 0.00000E+00 0.00000E+00
 -1        14 0.00000E+00 6.25000E-03 0.00000E+00
 -1        15 8.33333E-03 6.25000E-03 0.00000E+00
 -1        16 1.66667E-02 6.25000E-03 0.00000E+00
 -1        17 2.50000E-02 6.25000E-03 0.00000E+00
 -1        18 3.33333E-02 6.25000E-03 0.00000E+00
 -1        19 4.16667E-02 6.25000E-03 0.00000E+00
 -1        20 5.00000E-02 6.25000E-03 0.00000E+00
 -1        21 5.83333E-02 6.25000E-03 0.00000E+00
 -1        22 6.66667E-02 6.25000E-03 0.00000E+00
 -1        27 0.00000E+00 1.25000E-02 0.00000E+00
 -1        28 8.33333E-03 1.25000E-02 0.00000E+00
 -1        29 1.66667E-02 1.25000E-02 0.00000E+00
 -1        30 2.50000E-02 1.25000E-02 0.00000E+00
 -1        31 3.33333E-02 1.25000E-02 0.00000E+00
 -1        32 4.16667E-02 1.25000E-02 0.00000E+00
 -1        33 5.00000E-02 1.25000E-02 0.00000E+00
 -1        34 5.83333E-02 1.25000E-02 0.00000E+00
 -1        35 6.66667E-02 1.25000E-02 0.00000E+00
 -1        36 7.50000E-02 1.25000E-02 0.00000E+00
 -1        37 8.33333E-02 1.25000E-02 0.00000E+00
 -1        38 9.16667E-02 1.25000E-02 0.00000E+00
 -1        39 1.00000E-01 1.25000E-02 0.00000E+00
 -1        40 0.00000E+00 1.87500E-02 0.00000E+00
 -1        41 8.33333E-03 1.87500E-02 0.00000E+00
 -1        42 1.66667E-02 1.87500E-02 0.00000E+00
 -1        43 2.50000E-02 1.87500E-02 0.00000E+00
 -1        44 3.33333E-02 1.87500E-02 0.00000E+00
 -1        45 4.16667E-02 1.87500E-02 0.00000E+00
 -1        46 5.00000E-02 1.87500E-02 0.00000E+00
 -1        47 5.83333E-02 1.87500E-02 0.00000E+00
 -1        48 6.66667E-02 1.87500E-02 0.00000E+00
 -1        49 7.50000E-02 1.87500E-02 0.00000E+00
 -1        50 8.33333E-02 1.87500E-02 0.00000E+00
 -1        51 9.16667E-02 1.87500E-02 0.00000E+00
 -1        52 1.00000E-01 1.87500E-02 0.00000E+00
 -1        53 0.00000E+00 2.50000E-02 0.00000E+00
 -1        54 8.33333E-03 2.50000E-02 0.00000E+00
 -1        55 1.66667E-02 2.50000E-02 0.00000E+00
 -1        56 2.50000E-02 2.50000E-02 0.00000E+00
 -1        57 3.33333E-02 2.50000E-02 0.00000E+00
 -1        58 4.16667E-02 2.50000E-02 0.00000E+00
 -1        59 5.00000E-02 2.50000E-02 0.00000E+00
 -1        60 5.83333E-02 2.50000E-02 0.00000E+00
 -1        61 6.66667E-02 2.50000E-02 0.00000E+00
 -1        62 7.50000E-02 2.50000E-02 0.00000E+00
 -1        63 8.33333E-02 2.50000E-02 0.00000E+00
 -1        64 9.16667E-02 2.50000E-02 0.00000E+00
 -1        65 1.00000E-01 2.50000E-02 0.00000E+00
 -1        66 1.04167E-03 0.00000E+00 0.00000E+00
 -1        67 2.08333E-03 0.00000E+00 0.00000E+00
 -1        68 3.12500E-03 0.00000E+00 0.00000E+00
 -1        69 4.16667E-03 0.00000E+00 0.00000E+00
 -1        70 5.20833E-03 0.00000E+00 0.00000E+00
 -1        71 6.25000E-03 0.00000E+00 0.00000E+00
 -1        72 7.29167E-03 0.00000E+00 0.00000E+00
 -1        73 0.00000E+00 1.04167E-03 0.00000E+00
 -1        74 0.00000E+00 2.08333E-03 0.00000E+00
 -1        75 0.00000E+00 3.12500E-03 0.00000E+00
 -1        76 0.00000E+00 4.16667E-03 0.00000E+00
 -1        77 0.00000E+00 5.20833E-03 0.00000E+00
 -1        78 9.37500E-03 0.00000E+00 0.00000E+00
 -1        79 1.04167E-02 0.00000E+00 0.00000E+00
 -1        80 1.14583E-02 0.00000E+00 0.00000E+00
 -1        81 1.25000E-02 0.00000E+00 0.00000E+00
 -1        82 1.35417E-02 0.00000E+00 0.00000E+00
 -1        83 1.45833E-02 0.00000E+00 0.00000E+00
 -1        84 1.56250E-02 0.00000E+00 0.00000E+00
 -1        85 8.33333E-03 1.04167E-03 0.00000E+00
 -1        86 8.33333E-03 2.08333E-03 0.00000E+00
 -1        87 8.33333E-03 3.12500E-03 0.00000E+00
 -1        88 8.33333E-03 4.16667E-03 0.00000E+00
 -1        89 8.33333E-03 5.20833E-03 0.00000E+00
 -1        90 1.77083E-02 0.00000E+00 0.00000E+00
 -1        91 1.87500E-02 0.00000E+00 0.00000E+00
 -1        92 1.97917E-02 0.00000E+00 0.00000E+00
 -1        93 2.08333E-02 0.00000E+00 0.00000E+00
 -1        94 2.18750E-02 0.00000E+00 0.00000E+00
 -1        95 2.29167E-02 0.00000E+00 0.00000E+00
 -1        96 2.39583E-02 0.00000E+00 0.00000E+00
 -1        97 1.66667E-02 1.04167E-03 0.00000E+00
 -1        98 1.66667E-02 2.08333E-03 0.00000E+00
 -1        99 1.66667E-02 3.12500E-03 0.00000E+00
 -1       100 1.66667E-02 4.16667E-03 0.00000E+00
 -1       101 1.66667E-02 5.20833E-03 0.00000E+00
 -1       102 2.60417E-02 0.00000E+00 0.00000E+00
 -1       103 2.70833E-02 0.00000E+00 0.00000E+00
 -1       104 2.81250E-02 0.00000E+00 0.00000E+00
 -1       105 2.91667E-02 0.00000E+00 0.00000E+00
 -1       106 3.02083E-02 0.00000E+00 0.00000E+00
 -1       107 3.12500E-02 0.00000E+00 0.00000E+00
 -1       108 3.22917E-02 0.00000E+00 0.00000E+00
 -1       109 2.50000E-02 1.04167E-03 0.00000E+00
 -1       110 2.50000E-02 2.08333E-03 0.00000E+00
 -1       111 2.50000E-02 3.12500E-03 0.00000E+00
 -1       112 2.50000E-02 4.16667E-03 0.00000E+00
 -1       113 2.50000E-02 5.20833E-03 0.00000E+00
 -1       114 3.43750E-02 0.00000E+00 0.00000E+00
 -1       115 3.54167E-02 0.00000E+00 0.00000E+00
 -1       116 3.64583E-02 0.00000E+00 0.00000E+00
 -1       117 3.75000E-02 0.00000E+00 0.00000E+00
 -1       118 3.85417E-02 0.00000E+00 0.00000E+00
 -1       119 3.95833E-02 0.00000E+00 0.00000E+00
 -1       120 4.06250E-02 0.00000E+00 0.00000E+00
 -1       121 3.33333E-02 1.04167E-03 0.00000E+00
 -1       122 3.33333E-02 2.08333E-03 0.00000E+00
 -1       123 3.33333E-02 3.12500E-03 0.00000E+00
 -1       124 3.33333E-02 4.16667E-03 0.00000E+00
 -1       125 3.33333E-02 5.20833E-03 0.00000E+00
 -1       126 4.27083E-02 0.00000E+00 0.00000E+00
 -1       127 4.37500E-02 0.00000E+00 0.00000E+00
 -1       128 4.47917E-02 0.00000E+00 0.00000E+00
 -1       129 4.58333E-02 0.00000E+00 0.00000E+00
 -1       130 4.68750E-02 0.00000E+00 0.00000E+00
 -1       131 4.79167E-02 0.00000E+00 0.00000E+00
 -1       132 4.89583E-02 0.00000E+00 0.00000E+00
 -1       133 4.16667E-02 1.04167E-03 0.00000E+00
 -1       134 4.16667E-02 2.08333E-03 0.00000E+00
 -1       135 4.16667E-02 3.12500E-03 0.00000E+00
 -1       136 4.16667E-02 4.16667E-03 0.00000E+00
 -1       137 4.16667E-02 5.20833E-03 0.00000E+00
 -1       138 5.10417E-02 0.00000E+00 0.00000E+00
 -1       139 5.20833E-02 0.00000E+00 0.00000E+00
 -1       140 5.31250E-02 0.00000E+00 0.00000E+00
 -1       141 5.41667E-02 0.00000E+00 0.00000E+00
 -1       142 5.52083E-02 0.00000E+00 0.00000E+00
 -1       143 5.62500E-02 0.00000E+00 0.00000E+00
 -1       144 5.72917E-02 0.00000E+00 0.00000E+00
 -1       145 5.00000E-02 1.04167E-03 0.00000E+00
 -1       146 5.00000E-02 2.08333E-03 0.00000E+00
 -1       147 5.00000E-02 3.12500E-03 0.00000E+00
 -1       148 5.00000E-02 4.16667E-03 0.00000E+00
 -1       149 5.00000E-02 5.20833E-03 0.00000E+00
 -1       150 5.93750E-02 0.00000E+00 0.00000E+00
 -1       151 6.04167E-02 0.00000E+00 0.00000E+00
 -1       152 6.14583E-02 0.00000E+00 0.00000E+00
 -1       153 6.25000E-02 0.00000E+00 0.00000E+00
 -1       154 6.35417E-02 0.00000E+00 0.00000E+00
 -1       155 6.45833E-02 0.00000E+00 0.00000E+00
 -1       156 6.56250E-02 0.00000E+00 0.00000E+00
 -1       157 5.83333E-02 1.04167E-03 0.00000E+00
 -1       158 5.83333E-02 2.08333E-03 0.00000E+00
 -1       159 5.83333E-02 3.12500E-03 0.00000E+00
 -1       160 5.83333E-02 4.16667E-03 0.00000E+00
 -1       161 5.83333E-02 5.20833E-03 0.00000E+00
 -1       169 6.66667E-02 1.04167E-03 0.00000E+00
 -1       170 6.66667E-02 2.08333E-03 0.00000E+00
 -1       171 6.66667E-02 3.12500E-03 0.00000E+00
 -1       172 6.66667E-02 4.16667E-03 0.00000E+00
 -1       173 6.66667E-02 5.20833E-03 0.00000E+00
 -1       215 1.04167E-03 6.25000E-03 0.00000E+00
 -1       216 2.08333E-03 6.25000E-03 0.00000E+00
 -1       217 3.12500E-03 6.25000E-03 0.00000E+00
 -1       218 4.16667E-03 6.25000E-03 0.00000E+00
 -1       219 5.20833E-03 6.25000E-03 0.00000E+00
 -1       220 6.25000E-03 6.25000E-03 0.00000E+00
 -1       221 7.29167E-03 6.25000E-03 0.00000E+00
 -1       222 0.00000E+00 7.29167E-03 0.00000E+00
 -1       223 0.00000E+00 8.33333E-03 0.00000E+00
 -1       224 0.00000E+00 9.37500E-03 0.00000E+00
 -1       225 0.00000E+00 1.04167E-02 0.00000E+00
 -1       226 0.00000E+00 1.14583E-02 0.00000E+00
 -1       227 9.37500E-03 6.25000E-03 0.00000E+00
 -1       228 1.04167E-02 6.25000E-03 0.00000E+00
 -1       229 1.14583E-02 6.25000E-03 0.00000E+00
 -1       230 1.25000E-02 6.25000E-03 0.00000E+00
 -1       231 1.35417E-02 6.25000E-03 0.00000E+00
 -1       232 1.45833E-02 6.25000E-03 0.00000E+00
 -1       233 1.56250E-02 6.25000E-03 0.00000E+00
 -1       234 8.33333E-03 7.29167E-03 0.00000E+00
 -1       235 8.33333E-03 8.33333E-03 0.00000E+00
 -1       236 8.33333E-03 9.37500E-03 0.00000E+00
 -1       237 8.33333E-03 1.04167E-02 0.00000E+00
 -1       238 8.33333E-03 1.14583E-02 0.00000E+00
 -1       239 1.77083E-02 6.25000E-03 0.00000E+00
 -1       240 1.87500E-02 6.25000E-03 0.00000E+00
 -1       241 1.97917E-02 6.25000E-03 0.00000E+00
 -1       242 2.08333E-02 6.25000E-03 0.00000E+00
 -1       243 2.18750E-02 6.25000E-03 0.00000E+00
 -1       244 2.29167E-02 6.25000E-03 0.00000E+00
 -1       245 2.39583E-02 6.25000E-03 0.00000E+00
 -1       246 1.66667E-02 7.29167E-03 0.00000E+00
 -1       247 1.66667E-02 8.33333E-03 0.00000E+00
 -1       248 1.66667E-02 9.37500E-03 0.00000E+00
 -1       249 1.66667E-02 1.04167E-02 0.00000E+00
 -1       250 1.66667E-02 1.14583E-02 0.00000E+00
 -1       251 2.60417E-02 6.25000E-03 0.00000E+00
 -1       252 2.70833E-02 6.25000E-03 0.00000E+00
 -1       253 2.81250E-02 6.25000E-03 0.00000E+00
 -1       254 2.91667E-02 6.25000E-03 0.00000E+00
 -1       255 3.02083E-02 6.25000E-03 0.00000E+00
 -1       256 3.12500E-02 6.25000E-03 0.00000E+00
 -1       257 3.22917E-02 6.25000E-03 0.00000E+00
 -1       258 2.50000E-02 7.29167E-03 0.00000E+00
 -1       259 2.50000E-02 8.33333E-03 0.00000E+00
 -1       260 2.50000E-02 9.37500E-03 0.00000E+00
 -1       261 2.50000E-02 1.04167E-02 0.00000E+00
 -1       262 2.50000E-02 1.14583E-02 0.00000E+00
 -1       263 3.43750E-02 6.25000E-03 0.00000E+00
 -1       264 3.54167E-02 6.25000E-03 0.00000E+00
 -1       265 3.64583E-02 6.25000E-03 0.00000E+00
 -1       266 3.75000E-02 6.25000E-03 0.00000E+00
 -1       267 3.85417E-02 6.25000E-03 0.00000E+00
 -1       268 3.95833E-02 6.25000E-03 0.00000E+00
 -1       269 4.06250E-02 6.25000E-03 0.00000E+00
 -1       270 3.33333E-02 7.29167E-03 0.00000E+00
 -1       271 3.33333E-02 8.33333E-03 0.00000E+00
 -1       272 3.33333E-02 9.37500E-03 0.00000E+00
 -1       273 3.33333E-02 1.04167E-02 0.00000E+00
 -1       274 3.33333E-02 1.14583E-02 0.00000E+00
 -1       275 4.27083E-02 6.25000E-03 0.00000E+00
 -1       276 4.37500E-02 6.25000E-03 0.00000E+00
 -1       277 4.47917E-02 6.25000E-03 0.00000E+00
 -1       278 4.58333E-02 6.25000E-03 0.00000E+00
 -1       279 4.68750E-02 6.25000E-03 0.00000E+00
 -1       280 4.79167E-02 6.25000E-03 0.00000E+00
 -1       281 4.89583E-02 6.25000E-03 0.00000E+00
 -1       282 4.16667E-02 7.29167E-03 0.00000E+00
 -1       283 4.16667E-02 8.33333E-03 0.00000E+00
 -1       284 4.16667E-02 9.37500E-03 0.00000E+00
 -1       285 4.16667E-02 1.04167E-02 0.00000E+00
 -1       286 4.16667E-02 1.14583E-02 0.00000E+00
 -1       287 5.10417E-02 6.25000E-03 0.00000E+00
 -1       288 5.20833E-02 6.25000E-03 0.00000E+00
 -1       289 5.31250E-02 6.25000E-03 0.00000E+00
 -1       290 5.41667E-02 6.25000E-03 0.00000E+00
 -1       291 5.52083E-02 6.25000E-03 0.00000E+00
 -1       292 5.62500E-02 6.25000E-03 0.00000E+00
 -1       293 5.72917E-02 6.25000E-03 0.00000E+00
 -1       294 5.00000E-02 7.29167E-03 0.00000E+00
 -1       295 5.00000E-02 8.33333E-03 0.00000E+00
 -1       296 5.00000E-02 9.37500E-03 0.00000E+00
 -1       297 5.00000E-02 1.04167E-02 0.00000E+00
 -1       298 5.00000E-02 1.14583E-02 0.00000E+00
 -1       299 5.93750E-02 6.25000E-03 0.00000E+00
 -1       300 6.04167E-02 6.25000E-03 0.00000E+00
 -1       301 6.14583E-02 6.25000E-03 0.00000E+00
 -1       302 6.25000E-02 6.25000E-03 0.00000E+00
 -1       303 6.35417E-02 6.25000E-03 0.00000E+00
 -1       304 6.45833E-02 6.25000E-03 0.00000E+00
 -1       305 6.56250E-02 6.25000E-03 0.00000E+00
 -1       306 5.83333E-02 7.29167E-03 0.00000E+00
 -1       307 5.83333E-02 8.33333E-03 0.00000E+00
 -1       308 5.83333E-02 9.37500E-03 0.00000E+00
 -1       309 5.83333E-02 1.04167E-02 0.00000E+00
 -1       310 5.83333E-02 1.14583E-02 0.00000E+00
 -1       318 6.66667E-02 7.29167E-03 0.00000E+00
 -1       319 6.66667E-02 8.33333E-03 0.00000E+00
 -1       320 6.66667E-02 9.37500E-03 0.00000E+00
 -1       321 6.66667E-02 1.04167E-02 0.00000E+00
 -1       322 6.66667E-02 1.14583E-02 0.00000E+00
 -1       364 1.04167E-03 1.25000E-02 0.00000E+00
 -1       365 2.08333E-03 1.25000E-02 0.00000E+00
 -1       366 3.12500E-03 1.25000E-02 0.00000E+00
 -1       367 4.16667E-03 1.25000E-02 0.00000E+00
 -1       368 5.20833E-03 1.25000E-02 0.00000E+00
 -1       369 6.25000E-03 1.25000E-02 0.00000E+00
 -1       370 7.29167E-03 1.25000E-02 0.00000E+00
 -1       371 0.00000E+00 1.35417E-02 0.00000E+00
 -1       372 0.00000E+00 1.45833E-02 0.00000E+00
 -1       373 0.00000E+00 1.56250E-02 0.00000E+00
 -1       374 0.00000E+00 1.66667E-02 0.00000E+00
 -1       375 0.00000E+00 1.77083E-02 0.00000E+00
 -1       376 9.37500E-03 1.25000E-02 0.00000E+00
 -1       377 1.04167E-02 1.25000E-02 0.00000E+00
 -1       378 1.14583E-02 1.25000E-02 0.00000E+00
 -1       379 1.25000E-02 1.25000E-02 0.00000E+00
 -1       380 1.35417E-02 1.25000E-02 0.00000E+00
 -1       381 1.45833E-02 1.25000E-02 0.00000E+00
 -1       382 1.56250E-02 1.25000E-02 0.00000E+00
 -1       383 8.33333E-03 1.35417E-02 0.00000E+00
 -1       384 8.33333E-03 1.45833E-02 0.00000E+00
 -1       385 8.33333E-03 1.56250E-02 0.00000E+00
 -1       386 8.33333E-03 1.66667E-02 0.00000E+00
 -1       387 8.33333E-03 1.77083E-02 0.00000E+00
 -1       388 1.77083E-02 1.25000E-02 0.00000E+00
 -1       389 1.87500E-02 1.25000E-02 0.00000E+00
 -1       390 1.97917E-02 1.25000E-02 0.00000E+00
 -1       391 2.08333E-02 1.25000E-02 0.00000E+00
 -1       392 2.18750E-02 1.25000E-02 0.00000E+00
 -1       393 2.29167E-02 1.25000E-02 0.00000E+00
 -1       394 2.39583E-02 1.25000E-02 0.00000E+00
 -1       395 1.66667E-02 1.35417E-02 0.00000E+00
 -1       396 1.66667E-02 1.45833E-02 0.00000E+00
 -1       397 1.66667E-02 1.56250E-02 0.00000E+00
 -1       398 1.66667E-02 1.66667E-02 0.00000E+00
 -1       399 1.66667E-02 1.77083E-02 0.00000E+00
 -1       400 2.60417E-02 1.25000E-02 0.00000E+00
 -1       401 2.70833E-02 1.25000E-02 0.00000E+00
 -1       402 2.81250E-02 1.25000E-02 0.00000E+00
 -1       403 2.91667E-02 1.25000E-02 0.00000E+00
 -1       404 3.02083E-02 1.25000E-02 0.00000E+00
 -1       405 3.12500E-02 1.25000E-02 0.00000E+00
 -1       406 3.22917E-02 1.25000E-02 0.00000E+00
 -1       407 2.50000E-02 1.35417E-02 0.00000E+00
 -1       408 2.50000E-02 1.45833E-02 0.00000E+00
 -1       409 2.50000E-02 1.56250E-02 0.00000E+00
 -1       410 2.50000E-02 1.66667E-02 0.00000E+00
 -1       411 2.50000E-02 1.77083E-02 0.00000E+00
 -1       412 3.43750E-02 1.25000E-02 0.00000E+00
 -1       413 3.54167E-02 1.25000E-02 0.00000E+00
 -1       414 3.64583E-02 1.25000E-02 0.00000E+00
 -1       415 3.75000E-02 1.25000E-02 0.00000E+00
 -1       416 3.85417E-02 1.25000E-02 0.00000E+00
 -1       417 3.95833E-02 1.25000E-02 0.00000E+00
 -1       418 4.06250E-02 1.25000E-02 0.00000E+00
 -1       419 3.33333E-02 1.35417E-02 0.00000E+00
 -1       420 3.33333E-02 1.45833E-02 0.00000E+00
 -1       421 3.33333E-02 1.56250E-02 0.00000E+00
 -1       422 3.33333E-02 1.66667E-02 0.00000E+00
 -1       423 3.33333E-02 1.77083E-02 0.00000E+00
 -1       424 4.27083E-02 1.25000E-02 0.00000E+00
 -1       425 4.37500E-02 1.25000E-02 0.00000E+00
 -1       426 4.47917E-02 1.25000E-02 0.00000E+00
 -1       427 4.58333E-02 1.25000E-02 0.00000E+00
 -1       428 4.68750E-02 1.25000E-02 0.00000E+00
 -1       429 4.79167E-02 1.25000E-02 0.00000E+00
 -1       430 4.89583E-02 1.25000E-02 0.00000E+00
 -1       431 4.16667E-02 1.35417E-02 0.00000E+00
 -1       432 4.16667E-02 1.45833E-02 0.00000E+00
 -1       433 4.16667E-02 1.56250E-02 0.00000E+00
 -1       434 4.16667E-02 1.66667E-02 0.00000E+00
 -1       435 4.16667E-02 1.77083E-02 0.00000E+00
 -1       436 5.10417E-02 1.25000E-02 0.00000E+00
 -1       437 5.20833E-02 1.25000E-02 0.00000E+00
 -1       438 5.31250E-02 1.25000E-02 0.00000E+00
 -1       439 5.41667E-02 1.25000E-02 0.00000E+00
 -1       440 5.52083E-02 1.25000E-02 0.00000E+00
 -1       441 5.62500E-02 1.25000E-02 0.00000E+00
 -1       442 5.72917E-02 1.25000E-02 0.00000E+00
 -1       443 5.00000E-02 1.35417E-02 0.00000E+00
 -1       444 5.00000E-02 1.45833E-02 0.00000E+00
 -1       445 5.00000E-02 1.56250E-02 0.00000E+00
 -1       446 5.00000E-02 1.66667E-02 0.00000E+00
 -1       447 5.00000E-02 1.77083E-02 0.00000E+00
 -1       448 5.93750E-02 1.25000E-02 0.00000E+00
 -1       449 6.04167E-02 1.25000E-02 0.00000E+00
 -1       450 6.14583E-02 1.25000E-02 0.00000E+00
 -1       451 6.25000E-02 1.25000E-02 0.00000E+00
 -1       452 6.35417E-02 1.25000E-02 0.00000E+00
 -1       453 6.45833E-02 1.25000E-02 0.00000E+00
 -1       454 6.56250E-02 1.25000E-02 0.00000E+00
 -1       455 5.83333E-02 1.35417E-02 0.00000E+00
 -1       456 5.83333E-02 1.45833E-02 0.00000E+00
 -1       457 5.83333E-02 1.56250E-02 0.00000E+00
 -1       458 5.83333E-02 1.66667E-02 0.00000E+00
 -1       459 5.83333E-02 1.77083E-02 0.00000E+00
 -1       460 6.77083E-02 1.25000E-02 0.00000E+00
 -1       461 6.87500E-02 1.25000E-02 0.00000E+00
 -1       462 6.97917E-02 1.25000E-02 0.00000E+00
 -1       463 7.08333E-02 1.25000E-02 0.00000E+00
 -1       464 7.18750E-02 1.25000E-02 0.00000E+00
 -1       465 7.29167E-02 1.25000E-02 0.00000E+00
 -1       466 7.39583E-02 1.25000E-02 0.00000E+00
 -1       467 6.66667E-02 1.35417E-02 0.00000E+00
 -1       468 6.66667E-02 1.45833E-02 0.00000E+00
 -1       469 6.66667E-02 1.56250E-02 0.00000E+00
 -1       470 6.66667E-02 1.66667E-02 0.00000E+00
 -1       471 6.66667E-02 1.77083E-02 0.00000E+00
 -1       472 7.60417E-02 1.25000E-02 0.00000E+00
 -1       473 7.70833E-02 1.25000E-02 0.00000E+00
 -1       474 7.81250E-02 1.25000E-02 0.00000E+00
 -1       475 7.91667E-02 1.25000E-02 0.00000E+00
 -1       476 8.02083E-02 1.25000E-02 0.00000E+00
 -1       477 8.12500E-02 1.25000E-02 0.00000E+00
 -1       478 8.22917E-02 1.25000E-02 0.00000E+00
 -1       479 7.50000E-02 1.35417E-02 0.00000E+00
 -1       480 7.50000E-02 1.45833E-02 0.00000E+00
 -1       481 7.50000E-02 1.56250E-02 0.00000E+00
 -1       482 7.50000E-02 1.66667E-02 0.00000E+00
 -1       483 7.50000E-02 1.77083E-02 0.00000E+00
 -1       484 8.43750E-02 1.25000E-02 0.00000E+00
 -1       485 8.54167E-02 1.25000E-02 0.00000E+00
 -1       486 8.64583E-02 1.25000E-02 0.00000E+00
 -1       487 8.75000E-02 1.25000E-02 0.00000E+00
 -1       488 8.85417E-02 1.25000E-02 0.00000E+00
 -1       489 8.95833E-02 1.25000E-02 0.00000E+00
 -1       490 9.06250E-02 1.25000E-02 0.00000E+00
 -1       491 8.33333E-02 1.35417E-02 0.00000E+00
 -1       492 8.33333E-02 1.45833E-02 0.00000E+00
 -1       493 8.33333E-02 1.56250E-02 0.00000E+00
 -1       494 8.33333E-02 1.66667E-02 0.00000E+00
 -1       495 8.33333E-02 1.77083E-02 0.00000E+00
 -1       496 9.27083E-02 1.25000E-02 0.00000E+00
 -1       497 9.37500E-02 1.25000E-02 0.00000E+00
 -1       498 9.47917E-02 1.25000E-02 0.00000E+00
 -1       499 9.58333E-02 1.25000E-02 0.00000E+00
 -1       500 9.68750E-02 1.25000E-02 0.00000E+00
 -1       501 9.79167E-02 1.25000E-02 0.00000E+00
 -1       502 9.89583E-02 1.25000E-02 0.00000E+00
 -1       503 9.16667E-02 1.35417E-02 0.00000E+00
 -1       504 9.16667E-02 1.45833E-02 0.00000E+00
 -1       505 9.16667E-02 1.56250E-02 0.00000E+00
 -1       506 9.16667E-02 1.66667E-02 0.00000E+00
 -1       507 9.16667E-02 1.77083E-02 0.00000E+00
 -1       508 1.00000E-01 1.35417E-02 0.00000E+00
 -1       509 1.00000E-01 1.45833E-02 0.00000E+00
 -1       510 1.00000E-01 1.56250E-02 0.00000E+00
 -1       511 1.00000E-01 1.66667E-02 0.00000E+00
 -1       512 1.00000E-01 1.77083E-02 0.00000E+00
 -1       513 1.04167E-03 1.87500E-02 0.00000E+00
 -1       514 2.08333E-03 1.87500E-02 0.00000E+00
 -1       515 3.12500E-03 1.87500E-02 0.00000E+00
 -1       516 4.16667E-03 1.87500E-02 0.00000E+00
 -1       517 5.20833E-03 1.87500E-02 0.00000E+00
 -1       518 6.25000E-03 1.87500E-02 0.00000E+00
 -1       519 7.29167E-03 1.87500E-02 0.00000E+00
 -1       520 0.00000E+00 1.97917E-02 0.00000E+00
 -1       521 0.00000E+00 2.08333E-02 0.00000E+00
 -1       522 0.00000E+00 2.18750E-02 0.00000E+00
 -1       523 0.00000E+00 2.29167E-02 0.00000E+00
 -1       524 0.00000E+00 2.39583E-02 0.00000E+00
 -1       525 9.37500E-03 1.87500E-02 0.00000E+00
 -1       526 1.04167E-02 1.87500E-02 0.00000E+00
 -1       527 1.14583E-02 1.87500E-02 0.00000E+00
 -1       528 1.25000E-02 1.87500E-02 0.00000E+00
 -1       529 1.35417E-02 1.87500E-02 0.00000E+00
 -1       530 1.45833E-02 1.87500E-02 0.00000E+00
 -1       531 1.56250E-02 1.87500E-02 0.00000E+00
 -1       532 8.33333E-03 1.97917E-02 0.00000E+00
 -1       533 8.33333E-03 2.08333E-02 0.00000E+00
 -1       534 8.33333E-03 2.18750E-02 0.00000E+00
 -1       535 8.33333E-03 2.29167E-02 0.00000E+00
 -1       536 8.33333E-03 2.39583E-02 0.00000E+00
 -1       537 1.77083E-02 1.87500E-02 0.00000E+00
 -1       538 1.87500E-02 1.87500E-02 0.00000E+00
 -1       539 1.97917E-02 1.87500E-02 0.00000E+00
 -1       540 2.08333E-02 1.87500E-02 0.00000E+00
 -1       541 2.18750E-02 1.87500E-02 0.00000E+00
 -1       542 2.29167E-02 1.87500E-02 0.00000E+00
 -1       543 2.39583E-02 1.87500E-02 0.00000E+00
 -1       544 1.66667E-02 1.97917E-02 0.00000E+00
 -1       545 1.66667E-02 2.08333E-02 0.00000E+00
 -1       546 1.66667E-02 2.18750E-02 0.00000E+00
 -1       547 1.66667E-02 2.29167E-02 0.00000E+00
 -1       548 1.66667E-02 2.39583E-02 0.00000E+00
 -1       549 2.60417E-02 1.87500E-02 0.00000E+00
 -1       550 2.70833E-02 1.87500E-02 0.00000E+00
 -1       551 2.81250E-02 1.87500E-02 0.00000E+00
 -1       552 2.91667E-02 1.87500E-02 0.00000E+00
 -1       553 3.02083E-02 1.87500E-02 0.00000E+00
 -1       554 3.12500E-02 1.87500E-02 0.00000E+00
 -1       555 3.22917E-02 1.87500E-02 0.00000E+00
 -1       556 2.50000E-02 1.97917E-02 0.00000E+00
 -1       557 2.50000E-02 2.08333E-02 0.00000E+00
 -1       558 2.50000E-02 2.18750E-02 0.00000E+00
 -1       559 2.50000E-02 2.29167E-02 0.00000E+00
 -1       560 2.50000E-02 2.39583E-02 0.00000E+00
 -1       561 3.43750E-02 1.87500E-02 0.00000E+00
 -1       562 3.54167E-02 1.87500E-02 0.00000E+00
 -1       563 3.64583E-02 1.87500E-02 0.00000E+00
 -1       564 3.75000E-02 1.87500E-02 0.00000E+00
 -1       565 3.85417E-02 1.87500E-02 0.00000E+00
 -1       566 3.95833E-02 1.87500E-02 0.00000E+00
 -1       567 4.06250E-02 1.87500E-02 0.00000E+00
 -1       568 3.33333E-02 1.97917E-02 0.00000E+00
 -1       569 3.33333E-02 2.08333E-02 0.00000E+00
 -1       570 3.33333E-02 2.18750E-02 0.00000E+00
 -1       571 3.33333E-02 2.29167E-02 0.00000E+00
 -1       572 3.33333E-02 2.39583E-02 0.00000E+00
 -1       573 4.27083E-02 1.87500E-02 0.00000E+00
 -1       574 4.37500E-02 1.87500E-02 0.00000E+00
 -1       575 4.47917E-02 1.87500E-02 0.00000E+00
 -1       576 4.58333E-02 1.87500E-02 0.00000E+00
 -1       577 4.68750E-02 1.87500E-02 0.00000E+00
 -1       578 4.79167E-02 1.87500E-02 0.00000E+00
 -1       579 4.89583E-02 1.87500E-02 0.00000E+00
 -1       580 4.16667E-02 1.97917E-02 0.00000E+00
 -1       581 4.16667E-02 2.08333E-02 0.00000E+00
 -1       582 4.16667E-02 2.18750E-02 0.00000E+00
 -1       583 4.16667E-02 2.29167E-02 0.00000E+00
 -1       584 4.16667E-02 2.39583E-02 0.00000E+00
 -1       585 5.10417E-02 1.87500E-02 0.00000E+00
 -1       586 5.20833E-02 1.87500E-02 0.00000E+00
 -1       587 5.31250E-02 1.87500E-02 0.00000E+00
 -1       588 5.41667E-02 1.87500E-02 0.00000E+00
 -1       589 5.52083E-02 1.87500E-02 0.00000E+00
 -1       590 5.62500E-02 1.87500E-02 0.00000E+00
 -1       591 5.72917E-02 1.87500E-02 0.00000E+00
 -1       592 5.00000E-02 1.97917E-02 0.00000E+00
 -1       593 5.00000E-02 2.08333E-02 0.00000E+00
 -1       594 5.00000E-02 2.18750E-02 0.00000E+00
 -1       595 5.00000E-02 2.29167E-02 0.00000E+00
 -1       596 5.00000E-02 2.39583E-02 0.00000E+00
 -1       597 5.93750E-02 1.87500E-02 0.00000E+00
 -1       598 6.04167E-02 1.87500E-02 0.00000E+00
 -1       599 6.14583E-02 1.87500E-02 0.00000E+00
 -1       600 6.25000E-02 1.87500E-02 0.00000E+00
 -1       601 6.35417E-02 1.87500E-02 0.00000E+00
 -1       602 6.45833E-02 1.87500E-02 0.00000E+00
 -1       603 6.56250E-02 1.87500E-02 0.00000E+00
 -1       604 5.83333E-02 1.97917E-02 0.00000E+00
 -1       605 5.83333E-02 2.08333E-02 0.00000E+00
 -1       606 5.83333E-02 2.18750E-02 0.00000E+00
 -1       607 5.83333E-02 2.29167E-02 0.00000E+00
 -1       608 5.83333E-02 2.39583E-02 0.00000E+00
 -1       609 6.77083E-02 1.87500E-02 0.00000E+00
 -1       610 6.87500E-02 1.87500E-02 0.00000E+00
 -1       611 6.97917E-02 1.87500E-02 0.00000E+00
 -1       612 7.08333E-02 1.87500E-02 0.00000E+00
 -1       613 7.18750E-02 1.87500E-02 0.00000E+00
 -1       614 7.29167E-02 1.87500E-02 0.00000E+00
 -1       615 7.39583E-02 1.87500E-02 0.00000E+00
 -1       616 6.66667E-02 1.97917E-02 0.00000E+00
 -1       617 6.66667E-02 2.08333E-02 0.00000E+00
 -1       618 6.66667E-02 2.18750E-02 0.00000E+00
 -1       619 6.66667E-02 2.29167E-02 0.00000E+00
 -1       620 6.66667E-02 2.39583E-02 0.00000E+00
 -1       621 7.60417E-02 1.87500E-02 0.00000E+00
 -1       622 7.70833E-02 1.87500E-02 0.00000E+00
 -1       623 7.81250E-02 1.87500E-02 0.00000E+00
 -1       624 7.91667E-02 1.87500E-02 0.00000E+00
 -1       625 8.02083E-02 1.87500E-02 0.00000E+00
 -1       626 8.12500E-02 1.87500E-02 0.00000E+00
 -1       627 8.22917E-02 1.87500E-02 0.00000E+00
 -1       628 7.50000E-02 1.97917E-02 0.00000E+00
 -1       629 7.50000E-02 2.08333E-02 0.00000E+00
 -1       630 7.50000E-02 2.18750E-02 0.00000E+00
 -1       631 7.50000E-02 2.29167E-02 0.00000E+00
 -1       632 7.50000E-02 2.39583E-02 0.00000E+00
 -1       633 8.43750E-02 1.87500E-02 0.00000E+00
 -1       634 8.54167E-02 1.87500E-02 0.00000E+00
 -1       635 8.64583E-02 1.87500E-02 0.00000E+00
 -1       636 8.75000E-02 1.87500E-02 0.00000E+00
 -1       637 8.85417E-02 1.87500E-02 0.00000E+00
 -1       638 8.95833E-02 1.87500E-02 0.00000E+00
 -1       639 9.06250E-02 1.87500E-02 0.00000E+00
 -1       640 8.33333E-02 1.97917E-02 0.00000E+00
 -1       641 8.33333E-02 2.08333E-02 0.00000E+00
 -1       642 8.33333E-02 2.18750E-02 0.00000E+00
 -1       643 8.33333E-02 2.29167E-02 0.00000E+00
 -1       644 8.33333E-02 2.39583E-02 0.00000E+00
 -1       645 9.27083E-02 1.87500E-02 0.00000E+00
 -1       646 9.37500E-02 1.87500E-02 0.00000E+00
 -1       647 9.47917E-02 1.87500E-02 0.00000E+00
 -1       648 9.58333E-02 1.87500E-02 0.00000E+00
 -1       649 9.68750E-02 1.87500E-02 0.00000E+00
 -1       650 9.79167E-02 1.87500E-02 0.00000E+00
 -1       651 9.89583E-02 1.87500E-02 0.00000E+00
 -1       652 9.16667E-02 1.97917E-02 0.00000E+00
 -1       653 9.16667E-02 2.08333E-02 0.00000E+00
 -1       654 9.16667E-02 2.18750E-02 0.00000E+00
 -1       655 9.16667E-02 2.29167E-02 0.00000E+00
 -1       656 9.16667E-02 2.39583E-02 0.00000E+00
 -1       657 1.00000E-01 1.97917E-02 0.00000E+00
 -1       658 1.00000E-01 2.08333E-02 0.00000E+00
 -1       659 1.00000E-01 2.18750E-02 0.00000E+00
 -1       660 1.00000E-01 2.29167E-02 0.00000E+00
 -1       661 1.00000E-01 2.39583E-02 0.00000E+00
 -1       662 1.04167E-03 2.50000E-02 0.00000E+00
 -1       663 2.08333E-03 2.50000E-02 0.00000E+00
 -1       664 3.12500E-03 2.50000E-02 0.00000E+00
 -1       665 4.16667E-03 2.50000E-02 0.00000E+00
 -1       666 5.20833E-03 2.50000E-02 0.00000E+00
 -1       667 6.25000E-03 2.50000E-02 0.00000E+00
 -1       668 7.29167E-03 2.50000E-02 0.00000E+00
 -1       669 9.37500E-03 2.50000E-02 0.00000E+00
 -1       670 1.04167E-02 2.50000E-02 0.00000E+00
 -1       671 1.14583E-02 2.50000E-02 0.00000E+00
 -1       672 1.25000E-02 2.50000E-02 0.00000E+00
 -1       673 1.35417E-02 2.50000E-02 0.00000E+00
 -1       674 1.45833E-02 2.50000E-02 0.00000E+00
 -1       675 1.56250E-02 2.50000E-02 0.00000E+00
 -1       676 1.77083E-02 2.50000E-02 0.00000E+00
 -1       677 1.87500E-02 2.50000E-02 0.00000E+00
 -1       678 1.97917E-02 2.50000E-02 0.00000E+00
 -1       679 2.08333E-02 2.50000E-02 0.00000E+00
 -1       680 2.18750E-02 2.50000E-02 0.00000E+00
 -1       681 2.29167E-02 2.50000E-02 0.00000E+00
 -1       682 2.39583E-02 2.50000E-02 0.00000E+00
 -1       683 2.60417E-02 2.50000E-02 0.00000E+00
 -1       684 2.70833E-02 2.50000E-02 0.00000E+00
 -1       685 2.81250E-02 2.50000E-02 0.00000E+00
 -1       686 2.91667E-02 2.50000E-02 0.00000E+00
 -1       687 3.02083E-02 2.50000E-02 0.00000E+00
 -1       688 3.12500E-02 2.50000E-02 0.00000E+00
 -1       689 3.22917E-02 2.50000E-02 0.00000E+00
 -1       690 3.43750E-02 2.50000E-02 0.00000E+00
 -1       691 3.54167E-02 2.50000E-02 0.00000E+00
 -1       692 3.64583E-02 2.50000E-02 0.00000E+00
 -1       693 3.75000E-02 2.50000E-02 0.00000E+00
 -1       694 3.85417E-02 2.50000E-02 0.00000E+00
 -1       695 3.95833E-02 2.50000E-02 0.00000E+00
 -1       696 4.06250E-02 2.50000E-02 0.00000E+00
 -1       697 4.27083E-02 2.50000E-02 0.00000E+00
 -1       698 4.37500E-02 2.50000E-02 0.00000E+00
 -1       699 4.47917E-02 2.50000E-02 0.00000E+00
 -1       700 4.58333E-02 2.50000E-02 0.00000E+00
 -1       701 4.68750E-02 2.50000E-02 0.00000E+00
 -1       702 4.79167E-02 2.50000E-02 0.00000E+00
 -1       703 4.89583E-02 2.50000E-02 0.00000E+00
 -1       704 5.10417E-02 2.50000E-02 0.00000E+00
 -1       705 5.20833E-02 2.50000E-02 0.00000E+00
 -1       706 5.31250E-02 2.50000E-02 0.00000E+00
 -1       707 5.41667E-02 2.50000E-02 0.00000E+00
 -1       708 5.52083E-02 2.50000E-02 0.00000E+00
 -1       709 5.62500E-02 2.50000E-02 0.00000E+00
 -1       710 5.72917E-02 2.50000E-02 0.00000E+00
 -1       711 5.93750E-02 2.50000E-02 0.00000E+00
 -1       712 6.04167E-02 2.50000E-02 0.00000E+00
 -1       713 6.14583E-02 2.50000E-02 0.00000E+00
 -1       714 6.25000E-02 2.50000E-02 0.00000E+00
 -1       715 6.35417E-02 2.50000E-02 0.00000E+00
 -1       716 6.45833E-02 2.50000E-02 0.00000E+00
 -1       717 6.56250E-02 2.50000E-02 0.00000E+00
 -1       718 6.77083E-02 2.50000E-02 0.00000E+00
 -1       719 6.87500E-02 2.50000E-02 0.00000E+00
 -1       720 6.97917E-02 2.50000E-02 0.00000E+00
 -1       721 7.08333E-02 2.50000E-02 0.00000E+00
 -1       722 7.18750E-02 2.50000E-02 0.00000E+00
 -1       723 7.29167E-02 2.50000E-02 0.00000E+00
 -1       724 7.39583E-02 2.50000E-02 0.00000E+00
 -1       725 7.60417E-02 2.50000E-02 0.00000E+00
 -1       726 7.70833E-02 2.50000E-02 0.00000E+00
 -1       727 7.81250E-02 2.50000E-02 0.00000E+00
 -1       728 7.91667E-02 2.50000E-02 0.00000E+00
 -1       729 8.02083E-02 2.50000E-02 0.00000E+00
 -1       730 8.12500E-02 2.50000E-02 0.00000E+00
 -1       731 8.22917E-02 2.50000E-02 0.00000E+00
 -1       732 8.43750E-02 2.50000E-02 0.00000E+00
 -1       733 8.54167E-02 2.50000E-02 0.00000E+00
 -1       734 8.64583E-02 2.50000E-02 0.00000E+00
 -1       735 8.75000E-02 2.50000E-02 0.00000E+00
 -1       736 8.85417E-02 2.50000E-02 0.00000E+00
 -1       737 8.95833E-02 2.50000E-02 0.00000E+00
 -1       738 9.06250E-02 2.50000E-02 0.00000E+00
 -1       739 9.27083E-02 2.50000E-02 0.00000E+00
 -1       740 9.37500E-02 2.50000E-02 0.00000E+00
 -1       741 9.47917E-02 2.50000E-02 0.00000E+00
 -1       742 9.58333E-02 2.50000E-02 0.00000E+00
 -1       743 9.68750E-02 2.50000E-02 0.00000E+00
 -1       744 9.79167E-02 2.50000E-02 0.00000E+00
 -1       745 9.89583E-02 2.50000E-02 0.00000E+00
 -3
    3C                           340                                     1
 -1         1   12    0    1
 -2         1        67        66
 -1         2   12    0    1
 -2        67        69        68
 -1         3   12    0    1
 -2        69        71        70
 -1         4   12    0    1
 -2        71         2        72
 -1         5   12    0    1
 -2         1        74        73
 -1         6   12    0    1
 -2        74        76        75
 -1         7   12    0    1
 -2        76        14        77
 -1         8   12    0    1
 -2         2        79        78
 -1         9   12    0    1
 -2        79        81        80
 -1        10   12    0    1
 -2        81        83        82
 -1        11   12    0    1
 -2        83         3        84
 -1        12   12    0    1
 -2         2        86        85
 -1        13   12    0    1
 -2        86        88        87
 -1        14   12    0    1
 -2        88        15        89
 -1        15   12    0    1
 -2         3        91        90
 -1        16   12    0    1
 -2        91        93        92
 -1        17   12    0    1
 -2        93        95        94
 -1        18   12    0    1
 -2        95         4        96
 -1        19   12    0    1
 -2         3        98        97
 -1        20   12    0    1
 -2        98       100        99
 -1        21   12    0    1
 -2       100        16       101
 -1        22   12    0    1
 -2         4       103       102
 -1        23   12    0    1
 -2       103       105       104
 -1        24   12    0    1
 -2       105       107       106
 -1        25   12    0    1
 -2       107         5       108
 -1        26   12    0    1
 -2         4       110       109
 -1        27   12    0    1
 -2       110       112       111
 -1        28   12    0    1
 -2       112        17       113
 -1        29   12    0    1
 -2         5       115       114
 -1        30   12    0    1
 -2       115       117       116
 -1        31   12    0    1
 -2       117       119       118
 -1        32   12    0    1
 -2       119         6       120
 -1        33   12    0    1
 -2         5       122       121
 -1        34   12    0    1
 -2       122       124       123
 -1        35   12    0    1
 -2       124        18       125
 -1        36   12    0    1
 -2         6       127       126
 -1        37   12    0    1
 -2       127       129       128
 -1        38   12    0    1
 -2       129       131       130
 -1        39   12    0    1
 -2       131         7       132
 -1        40   12    0    1
 -2         6       134       133
 -1        41   12    0    1
 -2       134       136       135
 -1        42   12    0    1
 -2       136        19       137
 -1        43   12    0    1
 -2         7       139       138
 -1        44   12    0    1
 -2       139       141       140
 -1        45   12    0    1
 -2       141       143       142
 -1        46   12    0    1
 -2       143         8       144
 -1        47   12    0    1
 -2         7       146       145
 -1        48   12    0    1
 -2       146       148       147
 -1        49   12    0    1
 -2       148        20       149
 -1        50   12    0    1
 -2         8       151       150
 -1        51   12    0    1
 -2       151       153       152
 -1        52   12    0    1
 -2       153       155       154
 -1        53   12    0    1
 -2       155         9       156
 -1        54   12    0    1
 -2         8       158       157
 -1        55   12    0    1
 -2       158       160       159
 -1        56   12    0    1
 -2       160        21       161
 -1        57   12    0    1
 -2         9       170       169
 -1        58   12    0    1
 -2       170       172       171
 -1        59   12    0    1
 -2       172        22       173
 -1        60   12    0    1
 -2        14       216       215
 -1        61   12    0    1
 -2       216       218       217
 -1        62   12    0    1
 -2       218       220       219
 -1        63   12    0    1
 -2       220        15       221
 -1        64   12    0    1
 -2        14       223       222
 -1        65   12    0    1
 -2       223       225       224
 -1        66   12    0    1
 -2       225        27       226
 -1        67   12    0    1
 -2        15       228       227
 -1        68   12    0    1
 -2       228       230       229
 -1        69   12    0    1
 -2       230       232       231
 -1        70   12    0    1
 -2       232        16       233
 -1        71   12    0    1
 -2        15       235       234
 -1        72   12    0    1
 -2       235       237       236
 -1        73   12    0    1
 -2       237        28       238
 -1        74   12    0    1
 -2        16       240       239
 -1        75   12    0    1
 -2       240       242       241
 -1        76   12    0    1
 -2       242       244       243
 -1        77   12    0    1
 -2       244        17       245
 -1        78   12    0    1
 -2        16       247       246
 -1        79   12    0    1
 -2       247       249       248
 -1        80   12    0    1
 -2       249        29       250
 -1        81   12    0    1
 -2        17       252       251
 -1        82   12    0    1
 -2       252       254       253
 -1        83   12    0    1
 -2       254       256       255
 -1        84   12    0    1
 -2       256        18       257
 -1        85   12    0    1
 -2        17       259       258
 -1        86   12    0    1
 -2       259       261       260
 -1        87   12    0    1
 -2       261        30       262
 -1        88   12    0    1
 -2        18       264       263
 -1        89   12    0    1
 -2       264       266       265
 -1        90   12    0    1
 -2       266       268       267
 -1        91   12    0    1
 -2       268        19       269
 -1        92   12    0    1
 -2        18       271       270
 -1        93   12    0    1
 -2       271       273       272
 -1        94   12    0    1
 -2       273        31       274
 -1        95   12    0    1
 -2        19       276       275
 -1        96   12    0    1
 -2       276       278       277
 -1        97   12    0    1
 -2       278       280       279
 -1        98   12    0    1
 -2       280        20       281
 -1        99   12    0    1
 -2        19       283       282
 -1       100   12    0    1
 -2       283       285       284
 -1       101   12    0    1
 -2       285        32       286
 -1       102   12    0    1
 -2        20       288       287
 -1       103   12    0    1
 -2       288       290       289
 -1       104   12    0    1
 -2       290       292       291
 -1       105   12    0    1
 -2       292        21       293
 -1       106   12    0    1
 -2        20       295       294
 -1       107   12    0    1
 -2       295       297       296
 -1       108   12    0    1
 -2       297        33       298
 -1       109   12    0    1
 -2        21       300       299
 -1       110   12    0    1
 -2       300       302       301
 -1       111   12    0    1
 -2       302       304       303
 -1       112   12    0    1
 -2       304        22       305
 -1       113   12    0    1
 -2        21       307       306
 -1       114   12    0    1
 -2       307       309       308
 -1       115   12    0    1
 -2       309        34       310
 -1       116   12    0    1
 -2        22       319       318
 -1       117   12    0    1
 -2       319       321       320
 -1       118   12    0    1
 -2       321        35       322
 -1       119   12    0    1
 -2        27       365       364
 -1       120   12    0    1
 -2       365       367       366
 -1       121   12    0    1
 -2       367       369       368
 -1       122   12    0    1
 -2       369        28       370
 -1       123   12    0    1
 -2        27       372       371
 -1       124   12    0    1
 -2       372       374       373
 -1       125   12    0    1
 -2       374        40       375
 -1       126   12    0    1
 -2        28       377       376
 -1       127   12    0    1
 -2       377       379       378
 -1       128   12    0    1
 -2       379       381       380
 -1       129   12    0    1
 -2       381        29       382
 -1       130   12    0    1
 -2        28       384       383
 -1       131   12    0    1
 -2       384       386       385
 -1       132   12    0    1
 -2       386        41       387
 -1       133   12    0    1
 -2        29       389       388
 -1       134   12    0    1
 -2       389       391       390
 -1       135   12    0    1
 -2       391       393       392
 -1       136   12    0    1
 -2       393        30       394
 -1       137   12    0    1
 -2        29       396       395
 -1       138   12    0    1
 -2       396       398       397
 -1       139   12    0    1
 -2       398        42       399
 -1       140   12    0    1
 -2        30       401       400
 -1       141   12    0    1
 -2       401       403       402
 -1       142   12    0    1
 -2       403       405       404
 -1       143   12    0    1
 -2       405        31       406
 -1       144   12    0    1
 -2        30       408       407
 -1       145   12    0    1
 -2       408       410       409
 -1       146   12    0    1
 -2       410        43       411
 -1       147   12    0    1
 -2        31       413       412
 -1       148   12    0    1
 -2       413       415       414
 -1       149   12    0    1
 -2       415       417       416
 -1       150   12    0    1
 -2       417        32       418
 -1       151   12    0    1
 -2        31       420       419
 -1       152   12    0    1
 -2       420       422       421
 -1       153   12    0    1
 -2       422        44       423
 -1       154   12    0    1
 -2        32       425       424
 -1       155   12    0    1
 -2       425       427       426
 -1       156   12    0    1
 -2       427       429       428
 -1       157   12    0    1
 -2       429        33       430
 -1       158   12    0    1
 -2        32       432       431
 -1       159   12    0    1
 -2       432       434       433
 -1       160   12    0    1
 -2       434        45       435
 -1       161   12    0    1
 -2        33       437       436
 -1       162   12    0    1
 -2       437       439       438
 -1       163   12    0    1
 -2       439       441       440
 -1       164   12    0    1
 -2       441        34       442
 -1       165   12    0    1
 -2        33       444       443
 -1       166   12    0    1
 -2       444       446       445
 -1       167   12    0    1
 -2       446        46       447
 -1       168   12    0    1
 -2        34       449       448
 -1       169   12    0    1
 -2       449       451       450
 -1       170   12    0    1
 -2       451       453       452
 -1       171   12    0    1
 -2       453        35       454
 -1       172   12    0    1
 -2        34       456       455
 -1       173   12    0    1
 -2       456       458       457
 -1       174   12    0    1
 -2       458        47       459
 -1       175   12    0    1
 -2        35       461       460
 -1       176   12    0    1
 -2       461       463       462
 -1       177   12    0    1
 -2       463       465       464
 -1       178   12    0    1
 -2       465        36       466
 -1       179   12    0    1
 -2        35       468       467
 -1       180   12    0    1
 -2       468       470       469
 -1       181   12    0    1
 -2       470        48       471
 -1       182   12    0    1
 -2        36       473       472
 -1       183   12    0    1
 -2       473       475       474
 -1       184   12    0    1
 -2       475       477       476
 -1       185   12    0    1
 -2       477        37       478
 -1       186   12    0    1
 -2        36       480       479
 -1       187   12    0    1
 -2       480       482       481
 -1       188   12    0    1
 -2       482        49       483
 -1       189   12    0    1
 -2        37       485       484
 -1       190   12    0    1
 -2       485       487       486
 -1       191   12    0    1
 -2       487       489       488
 -1       192   12    0    1
 -2       489        38       490
 -1       193   12    0    1
 -2        37       492       491
 -1       194   12    0    1
 -2       492       494       493
 -1       195   12    0    1
 -2       494        50       495
 -1       196   12    0    1
 -2        38       497       496
 -1       197   12    0    1
 -2       497       499       498
 -1       198   12    0    1
 -2       499       501       500
 -1       199   12    0    1
 -2       501        39       502
 -1       200   12    0    1
 -2        38       504       503
 -1       201   12    0    1
 -2       504       506       505
 -1       202   12    0    1
 -2       506        51       507
 -1       203   12    0    1
 -2        39       509       508
 -1       204   12    0    1
 -2       509       511       510
 -1       205   12    0    1
 -2       511        52       512
 -1       206   12    0    1
 -2        40       514       513
 -1       207   12    0    1
 -2       514       516       515
 -1       208   12    0    1
 -2       516       518       517
 -1       209   12    0    1
 -2       518        41       519
 -1       210   12    0    1
 -2        40       521       520
 -1       211   12    0    1
 -2       521       523       522
 -1       212   12    0    1
 -2       523        53       524
 -1       213   12    0    1
 -2        41       526       525
 -1       214   12    0    1
 -2       526       528       527
 -1       215   12    0    1
 -2       528       530       529
 -1       216   12    0    1
 -2       530        42       531
 -1       217   12    0    1
 -2        41       533       532
 -1       218   12    0    1
 -2       533       535       534
 -1       219   12    0    1
 -2       535        54       536
 -1       220   12    0    1
 -2        42       538       537
 -1       221   12    0    1
 -2       538       540       539
 -1       222   12    0    1
 -2       540       542       541
 -1       223   12    0    1
 -2       542        43       543
 -1       224   12    0    1
 -2        42       545       544
 -1       225   12    0    1
 -2       545       547       546
 -1       226   12    0    1
 -2       547        55       548
 -1       227   12    0    1
 -2        43       550       549
 -1       228   12    0    1
 -2       550       552       551
 -1       229   12    0    1
 -2       552       554       553
 -1       230   12    0    1
 -2       554        44       555
 -1       231   12    0    1
 -2        43       557       556
 -1       232   12    0    1
 -2       557       559       558
 -1       233   12    0    1
 -2       559        56       560
 -1       234   12    0    1
 -2        44       562       561
 -1       235   12    0    1
 -2       562       564       563
 -1       236   12    0    1
 -2       564       566       565
 -1       237   12    0    1
 -2       566        45       567
 -1       238   12    0    1
 -2        44       569       568
 -1       239   12    0    1
 -2       569       571       570
 -1       240   12    0    1
 -2       571        57       572
 -1       241   12    0    1
 -2        45       574       573
 -1       242   12    0    1
 -2       574       576       575
 -1       243   12    0    1
 -2       576       578       577
 -1       244   12    0    1
 -2       578        46       579
 -1       245   12    0    1
 -2        45       581       580
 -1       246   12    0    1
 -2       581       583       582
 -1       247   12    0    1
 -2       583        58       584
 -1       248   12    0    1
 -2        46       586       585
 -1       249   12    0    1
 -2       586       588       587
 -1       250   12    0    1
 -2       588       590       589
 -1       251   12    0    1
 -2       590        47       591
 -1       252   12    0    1
 -2        46       593       592
 -1       253   12    0    1
 -2       593       595       594
 -1       254   12    0    1
 -2       595        59       596
 -1       255   12    0    1
 -2        47       598       597
 -1       256   12    0    1
 -2       598       600       599
 -1       257   12    0    1
 -2       600       602       601
 -1       258   12    0    1
 -2       602        48       603
 -1       259   12    0    1
 -2        47       605       604
 -1       260   12    0    1
 -2       605       607       606
 -1       261   12    0    1
 -2       607        60       608
 -1       262   12    0    1
 -2        48       610       609
 -1       263   12    0    1
 -2       610       612       611
 -1       264   12    0    1
 -2       612       614       613
 -1       265   12    0    1
 -2       614        49       615
 -1       266   12    0    1
 -2        48       617       616
 -1       267   12    0    1
 -2       617       619       618
 -1       268   12    0    1
 -2       619        61       620
 -1       269   12    0    1
 -2        49       622       621
 -1       270   12    0    1
 -2       622       624       623
 -1       271   12    0    1
 -2       624       626       625
 -1       272   12    0    1
 -2       626        50       627
 -1       273   12    0    1
 -2        49       629       628
 -1       274   12    0    1
 -2       629       631       630
 -1       275   12    0    1
 -2       631        62       632
 -1       276   12    0    1
 -2        50       634       633
 -1       277   12    0    1
 -2       634       636       635
 -1       278   12    0    1
 -2       636       638       637
 -1       279   12    0    1
 -2       638        51       639
 -1       280   12    0    1
 -2        50       641       640
 -1       281   12    0    1
 -2       641       643       642
 -1       282   12    0    1
 -2       643        63       644
 -1       283   12    0    1
 -2        51       646       645
 -1       284   12    0    1
 -2       646       648       647
 -1       285   12    0    1
 -2       648       650       649
 -1       286   12    0    1
 -2       650        52       651
 -1       287   12    0    1
 -2        51       653       652
 -1       288   12    0    1
 -2       653       655       654
 -1       289   12    0    1
 -2       655        64       656
 -1       290   12    0    1
 -2        52       658       657
 -1       291   12    0    1
 -2       658       660       659
 -1       292   12    0    1
 -2       660        65       661
 -1       293   12    0    1
 -2        53       663       662
 -1       294   12    0    1
 -2       663       665       664
 -1       295   12    0    1
 -2       665       667       666
 -1       296   12    0    1
 -2       667        54       668
 -1       297   12    0    1
 -2        54       670       669
 -1       298   12    0    1
 -2       670       672       671
 -1       299   12    0    1
 -2       672       674       673
 -1       300   12    0    1
 -2       674        55       675
 -1       301   12    0    1
 -2        55       677       676
 -1       302   12    0    1
 -2       677       679       678
 -1       303   12    0    1
 -2       679       681       680
 -1       304   12    0    1
 -2       681        56       682
 -1       305   12    0    1
 -2        56       684       683
 -1       306   12    0    1
 -2       684       686       685
 -1       307   12    0    1
 -2       686       688       687
 -1       308   12    0    1
 -2       688        57       689
 -1       309   12    0    1
 -2        57       691       690
 -1       310   12    0    1
 -2       691       693       692
 -1       311   12    0    1
 -2       693       695       694
 -1       312   12    0    1
 -2       695        58       696
 -1       313   12    0    1
 -2        58       698       697
 -1       314   12    0    1
 -2       698       700       699
 -1       315   12    0    1
 -2       700       702       701
 -1       316   12    0    1
 -2       702        59       703
 -1       317   12    0    1
 -2        59       705       704
 -1       318   12    0    1
 -2       705       707       706
 -1       319   12    0    1
 -2       707       709       708
 -1       320   12    0    1
 -2       709        60       710
 -1       321   12    0    1
 -2        60       712       711
 -1       322   12    0    1
 -2       712       714       713
 -1       323   12    0    1
 -2       714       716       715
 -1       324   12    0    1
 -2       716        61       717
 -1       325   12    0    1
 -2        61       719       718
 -1       326   12    0    1
 -2       719       721       720
 -1       327   12    0    1
 -2       721       723       722
 -1       328   12    0    1
 -2       723        62       724
 -1       329   12    0    1
 -2        62       726       725
 -1       330   12    0    1
 -2       726       728       727
 -1       331   12    0    1
 -2       728       730       729
 -1       332   12    0    1
 -2       730        63       731
 -1       333   12    0    1
 -2        63       733       732
 -1       334   12    0    1
 -2       733       735       734
 -1       335   12    0    1
 -2       735       737       736
 -1       336   12    0    1
 -2       737        64       738
 -1       337   12    0    1
 -2        64       740       739
 -1       338   12    0    1
 -2       740       742       741
 -1       339   12    0    1
 -2       742       744       743
 -1       340   12    0    1
 -2       744        65       745
 -3
    1PSTEP                         1           1           1          
  100CL  101 1.000000000         641                     0    1           1
 -4  DISP        4    1
 -5  D1          1    2    1    0
 -5  D2          1    2    2    0
 -5  D3          1    2    3    0
 -5  ALL         1    2    0    0    1ALL
 -1         1-2.69578E-05 0.00000E+00 0.00000E+00
 -1         2-2.21046E-05 0.00000E+00 0.00000E+00
 -1         3-1.86088E-05 0.00000E+00 0.00000E+00
 -1         4-1.60066E-05 0.00000E+00 0.00000E+00
 -1         5-1.40281E-05 0.00000E+00 0.00000E+00
 -1         6-1.25234E-05 0.00000E+00 0.00000E+00
 -1         7-1.14121E-05 0.00000E+00 0.00000E+00
 -1         8-1.06681E-05 0.00000E+00 0.00000E+00
 -1         9-1.03215E-05 0.00000E+00 0.00000E+00
 -1        14-1.80123E-05 9.41701E-07 0.00000E+00
 -1        15-1.66269E-05-2.81151E-07 0.00000E+00
 -1        16-1.49643E-05-2.62460E-07 0.00000E+00
 -1        17-1.33823E-05-1.62261E-07 0.00000E+00
 -1        18-1.19866E-05-7.45958E-08 0.00000E+00
 -1        19-1.07974E-05-2.17695E-08 0.00000E+00
 -1        20-9.80068E-06-4.12112E-08 0.00000E+00
 -1        21-8.98040E-06-1.13550E-08 0.00000E+00
 -1        22-8.39749E-06 2.30669E-07 0.00000E+00
 -1        27-1.07239E-05 1.14335E-06 0.00000E+00
 -1        28-1.04633E-05-3.99724E-07 0.00000E+00
 -1        29-9.93253E-06-4.21568E-07 0.00000E+00
 -1        30-9.25205E-06-2.61834E-07 0.00000E+00
 -1        31-8.50586E-06-1.09411E-07 0.00000E+00
 -1        32-7.74393E-06-1.58443E-08 0.00000E+00
 -1        33-6.96838E-06-8.08325E-08 0.00000E+00
 -1        34-6.06168E-06-1.27578E-07 0.00000E+00
 -1        35-4.85545E-06 7.91059E-07 0.00000E+00
 -1        36-3.14110E-06 6.33719E-06 0.00000E+00
 -1        37-2.13145E-06 1.31181E-05 0.00000E+00
 -1        38-1.65540E-06 1.95175E-05 0.00000E+00
 -1        39-1.50828E-06 2.50101E-05 0.00000E+00
 -1        40-5.20017E-06 7.96106E-07 0.00000E+00
 -1        41-5.40551E-06-5.14511E-07 0.00000E+00
 -1        42-5.48966E-06-5.07886E-07 0.00000E+00
 -1        43-5.35186E-06-3.06067E-07 0.00000E+00
 -1        44-5.01023E-06-1.03215E-07 0.00000E+00
 -1        45-4.54873E-06 3.40774E-08 0.00000E+00
 -1        46-4.14913E-06-8.01766E-08 0.00000E+00
 -1        47-4.18229E-06-2.38960E-07 0.00000E+00
 -1        48-4.30281E-06 1.13736E-06 0.00000E+00
 -1        49-4.46313E-06 6.30707E-06 0.00000E+00
 -1        50-4.51214E-06 1.29448E-05 0.00000E+00
 -1        51-4.53143E-06 1.93387E-05 0.00000E+00
 -1        52-4.54061E-06 2.48251E-05 0.00000E+00
 -1        53 0.00000E+00 0.00000E+00 0.00000E+00
 -1        54-1.54116E-06-6.22362E-07 0.00000E+00
 -1        55-2.38712E-06-5.46251E-07 0.00000E+00
 -1        56-2.62779E-06-3.19275E-07 0.00000E+00
 -1        57-2.32313E-06-8.53414E-08 0.00000E+00
 -1        58-1.46935E-06 8.82211E-08 0.00000E+00
 -1        59 0.00000E+00 0.00000E+00 0.00000E+00
 -1        60-2.42949E-06-3.08008E-07 0.00000E+00
 -1        61-4.44164E-06 1.25903E-06 0.00000E+00
 -1        62-6.00203E-06 6.28758E-06 0.00000E+00
 -1        63-6.97327E-06 1.28645E-05 0.00000E+00
 -1        64-7.44221E-06 1.92579E-05 0.00000E+00
 -1        65-7.59173E-06 2.47522E-05 0.00000E+00
 -1        66-2.63594E-05 9.39677E-22 1.32349E-23
 -1        67-2.57513E-05 2.63374E-21-6.61744E-24
 -1        68-2.51406E-05 1.89259E-21-1.32349E-23
 -1        69-2.45287E-05 4.10282E-22 6.61744E-24
 -1        70-2.39169E-05-3.57342E-22-1.32349E-23
 -1        71-2.33066E-05-1.08526E-21 6.61744E-24
 -1        72-2.26997E-05-5.55865E-22 0.00000E+00
 -1        73-2.60888E-05 1.68648E-07-6.61744E-24
 -1        74-2.48079E-05 3.27423E-07 0.00000E+00
 -1        75-2.32355E-05 4.83148E-07-3.30872E-24
 -1        76-2.14958E-05 6.37155E-07 2.48154E-24
 -1        77-1.97136E-05 7.90235E-07 0.00000E+00
 -1        78-2.16706E-05 5.75718E-22 1.32349E-23
 -1        79-2.12321E-05 1.09188E-21-6.61744E-24
 -1        80-2.07923E-05 1.06541E-21 1.32349E-23
 -1        81-2.03521E-05 9.85999E-22 6.61744E-24
 -1        82-1.99121E-05 1.26393E-21 1.32349E-23
 -1        83-1.94732E-05 6.48510E-22-6.61744E-24
 -1        84-1.90367E-05 5.29396E-22 1.32349E-23
 -1        85-2.15403E-05-3.04753E-08 0.00000E+00
 -1        86-2.07280E-05-7.73791E-08 0.00000E+00
 -1        87-1.97479E-05-1.28873E-07 0.00000E+00
 -1        88-1.86826E-05-1.81954E-07 0.00000E+00
 -1        89-1.76150E-05-2.34190E-07 0.00000E+00
 -1        90-1.82862E-05-2.77933E-22 6.61744E-24
 -1        91-1.79599E-05-2.24993E-22-3.30872E-24
 -1        92-1.76326E-05 1.32349E-23 0.00000E+00
 -1        93-1.73049E-05-1.25731E-22 0.00000E+00
 -1        94-1.69773E-05 3.57342E-22 0.00000E+00
 -1        95-1.66504E-05 4.76456E-22-3.30872E-24
 -1        96-1.63254E-05 9.26442E-23-6.61744E-24
 -1        97-1.82383E-05-3.20811E-08 0.00000E+00
 -1        98-1.77021E-05-7.64047E-08 0.00000E+00
 -1        99-1.70525E-05-1.24077E-07 0.00000E+00
 -1       100-1.63438E-05-1.72716E-07 0.00000E+00
 -1       101-1.56299E-05-2.20293E-07 0.00000E+00
 -1       102-1.57614E-05 3.67268E-22 6.61744E-24
 -1       103-1.55133E-05 6.74979E-22 0.00000E+00
 -1       104-1.52645E-05 8.40416E-22-6.61744E-24
 -1       105-1.50153E-05 8.86738E-22 0.00000E+00
 -1       106-1.47663E-05 1.08526E-21 0.00000E+00
 -1       107-1.45178E-05 9.95925E-22-3.30872E-24
 -1       108-1.42706E-05 5.82335E-22-6.61744E-24
 -1       109-1.57455E-05-1.86913E-08 8.27181E-25
 -1       110-1.53644E-05-4.64032E-08 0.00000E+00
 -1       111-1.48998E-05-7.65518E-08 0.00000E+00
 -1       112-1.43894E-05-1.07318E-07 0.00000E+00
 -1       113-1.38711E-05-1.37112E-07-8.27181E-25
 -1       114-1.38415E-05-7.47771E-22 6.61744E-24
 -1       115-1.36528E-05-1.53525E-21 0.00000E+00
 -1       116-1.34636E-05-9.16516E-22 0.00000E+00
 -1       117-1.32741E-05-3.01094E-22 0.00000E+00
 -1       118-1.30847E-05-1.58819E-22 0.00000E+00
 -1       119-1.28958E-05 3.34181E-22-3.30872E-24
 -1       120-1.27078E-05 1.81980E-22 3.30872E-24
 -1       121-1.38285E-05-6.43654E-09 1.65436E-24
 -1       122-1.35351E-05-1.94938E-08 0.00000E+00
 -1       123-1.31755E-05-3.43232E-08 0.00000E+00
 -1       124-1.27785E-05-4.95541E-08-1.03398E-25
 -1       125-1.23727E-05-6.39637E-08 0.00000E+00
 -1       126-1.23853E-05-4.26825E-22 0.00000E+00
 -1       127-1.22459E-05-8.33798E-22 0.00000E+00
 -1       128-1.21061E-05-6.74979E-22 3.30872E-24
 -1       129-1.19661E-05-4.96308E-22-1.65436E-24
 -1       130-1.18263E-05-6.12114E-22-3.30872E-24
 -1       131-1.16868E-05-9.36368E-22 0.00000E+00
 -1       132-1.15481E-05-5.36013E-22 3.30872E-24
 -1       133-1.23570E-05 6.14848E-10 4.13590E-25
 -1       134-1.21109E-05-3.57529E-09 0.00000E+00
 -1       135-1.18081E-05-9.03916E-09 0.00000E+00
 -1       136-1.14724E-05-1.47525E-08-1.03398E-25
 -1       137-1.11276E-05-1.97826E-08 0.00000E+00
 -1       138-1.13194E-05-2.68007E-22-3.30872E-24
 -1       139-1.12260E-05-6.84906E-22 0.00000E+00
 -1       140-1.11323E-05-6.66708E-22 0.00000E+00
 -1       141-1.10386E-05-4.41714E-22 1.65436E-24
 -1       142-1.09449E-05-3.22600E-22 0.00000E+00
 -1       143-1.08515E-05-1.95215E-22 1.65436E-24
 -1       144-1.07588E-05 3.30872E-24 0.00000E+00
 -1       145-1.12568E-05-3.87810E-09 8.27181E-25
 -1       146-1.10272E-05-1.12829E-08 0.00000E+00
 -1       147-1.07446E-05-1.96090E-08 0.00000E+00
 -1       148-1.04312E-05-2.80708E-08 0.00000E+00
 -1       149-1.01092E-05-3.59308E-08 8.27181E-25
 -1       150-1.06246E-05 1.26559E-22 0.00000E+00
 -1       151-1.05813E-05 2.89513E-22 0.00000E+00
 -1       152-1.05379E-05 5.21124E-23 0.00000E+00
 -1       153-1.04946E-05-4.17726E-22-8.27181E-25
 -1       154-1.04513E-05-5.42630E-22 0.00000E+00
 -1       155-1.04079E-05-5.83990E-22 0.00000E+00
 -1       156-1.03647E-05-2.21684E-22 0.00000E+00
 -1       157-1.05005E-05-2.85622E-10 0.00000E+00
 -1       158-1.02557E-05-2.57643E-09 0.00000E+00
 -1       159-9.95703E-06-5.38189E-09 0.00000E+00
 -1       160-9.62881E-06-8.22929E-09-1.03398E-25
 -1       161-9.29526E-06-1.06581E-08 0.00000E+00
 -1       169-1.01648E-05 3.80914E-08-1.65436E-24
 -1       170-9.91543E-06 7.60905E-08 8.27181E-25
 -1       171-9.59326E-06 1.14109E-07 1.65436E-24
 -1       172-9.21901E-06 1.52287E-07-7.75482E-26
 -1       173-8.81348E-06 1.90830E-07-8.27181E-25
 -1       215-1.78409E-05 3.71587E-07 0.00000E+00
 -1       216-1.76671E-05 3.54268E-08 0.00000E+00
 -1       217-1.74926E-05-1.22672E-07 0.00000E+00
 -1       218-1.73177E-05-1.60873E-07-3.30872E-24
 -1       219-1.71430E-05-1.37520E-07 6.61744E-24
 -1       220-1.69688E-05-1.11081E-07 0.00000E+00
 -1       221-1.67957E-05-1.39935E-07 3.30872E-24
 -1       222-1.67764E-05 9.80051E-07 1.65436E-24
 -1       223-1.54952E-05 1.01453E-06 8.27181E-25
 -1       224-1.42089E-05 1.04783E-06 0.00000E+00
 -1       225-1.29580E-05 1.08043E-06 1.65436E-24
 -1       226-1.17832E-05 1.11254E-06 0.00000E+00
 -1       227-1.64243E-05-4.92873E-07 0.00000E+00
 -1       228-1.62162E-05-5.60410E-07 0.00000E+00
 -1       229-1.60064E-05-5.24354E-07 6.61744E-24
 -1       230-1.57959E-05-4.26740E-07-3.30872E-24
 -1       231-1.55854E-05-3.09709E-07 6.61744E-24
 -1       232-1.53756E-05-2.15442E-07 0.00000E+00
 -1       233-1.51672E-05-1.86039E-07 3.30872E-24
 -1       234-1.57063E-05-2.96675E-07 0.00000E+00
 -1       235-1.46568E-05-3.16502E-07 0.00000E+00
 -1       236-1.35424E-05-3.37538E-07-2.06795E-25
 -1       237-1.24286E-05-3.58961E-07 0.00000E+00
 -1       238-1.13809E-05-3.80100E-07 0.00000E+00
 -1       239-1.47711E-05-3.95306E-07 0.00000E+00
 -1       240-1.45730E-05-4.24129E-07 0.00000E+00
 -1       241-1.43734E-05-3.79502E-07 6.61744E-24
 -1       242-1.41732E-05-2.93057E-07 0.00000E+00
 -1       243-1.39731E-05-1.96498E-07 0.00000E+00
 -1       244-1.37735E-05-1.21552E-07 1.65436E-24
 -1       245-1.35754E-05-9.98837E-08-3.30872E-24
 -1       246-1.42358E-05-2.84481E-07 0.00000E+00
 -1       247-1.33854E-05-3.11303E-07 0.00000E+00
 -1       248-1.24710E-05-3.39440E-07 0.00000E+00
 -1       249-1.15515E-05-3.67921E-07 0.00000E+00
 -1       250-1.06861E-05-3.95910E-07 0.00000E+00
 -1       251-1.32114E-05-2.60612E-07 6.61744E-24
 -1       252-1.30366E-05-2.77990E-07 0.00000E+00
 -1       253-1.28606E-05-2.38744E-07 0.00000E+00
 -1       254-1.26841E-05-1.68046E-07-3.30872E-24
 -1       255-1.25077E-05-9.11306E-08 0.00000E+00
 -1       256-1.23317E-05-3.32422E-08 1.65436E-24
 -1       257-1.21570E-05-1.95750E-08 0.00000E+00
 -1       258-1.27949E-05-1.74948E-07 0.00000E+00
 -1       259-1.21024E-05-1.91920E-07 0.00000E+00
 -1       260-1.13527E-05-2.10050E-07-4.13590E-25
 -1       261-1.05951E-05-2.28448E-07 0.00000E+00
 -1       262-9.87878E-06-2.46327E-07 0.00000E+00
 -1       263-1.18407E-05-1.53104E-07 0.00000E+00
 -1       264-1.16917E-05-1.65727E-07 3.30872E-24
 -1       265-1.15418E-05-1.32822E-07-6.61744E-24
 -1       266-1.13915E-05-7.54212E-08 0.00000E+00
 -1       267-1.12413E-05-1.46063E-08 3.30872E-24
 -1       268-1.10915E-05 2.85326E-08 0.00000E+00
 -1       269-1.09427E-05 3.29525E-08 0.00000E+00
 -1       270-1.14979E-05-7.72495E-08 8.27181E-25
 -1       271-1.09182E-05-8.34566E-08 0.00000E+00
 -1       272-1.02879E-05-9.06124E-08 0.00000E+00
 -1       273-9.64838E-06-9.79558E-08 0.00000E+00
 -1       274-9.04084E-06-1.04795E-07 0.00000E+00
 -1       275-1.06749E-05-9.31943E-08 0.00000E+00
 -1       276-1.05499E-05-1.08892E-07 0.00000E+00
 -1       277-1.04243E-05-8.65071E-08 0.00000E+00
 -1       278-1.02983E-05-4.42593E-08 0.00000E+00
 -1       279-1.01724E-05-4.10636E-10 3.30872E-24
 -1       280-1.00469E-05 2.67722E-08 0.00000E+00
 -1       281-9.92223E-06 1.90640E-08-3.30872E-24
 -1       282-1.03721E-05-1.83415E-08 0.00000E+00
 -1       283-9.86666E-06-1.77975E-08 0.00000E+00
 -1       284-9.31569E-06-1.80102E-08 2.06795E-25
 -1       285-8.75468E-06-1.83310E-08 0.00000E+00
 -1       286-8.21914E-06-1.81504E-08 0.00000E+00
 -1       287-9.69993E-06-1.02755E-07-3.30872E-24
 -1       288-9.59704E-06-1.10351E-07 0.00000E+00
 -1       289-9.49354E-06-8.12958E-08 3.30872E-24
 -1       290-9.38981E-06-3.34457E-08 0.00000E+00
 -1       291-9.28610E-06 1.53017E-08-1.65436E-24
 -1       292-9.18274E-06 4.70479E-08-8.27181E-25
 -1       293-9.08018E-06 4.39336E-08-8.27181E-25
 -1       294-9.40529E-06-4.58312E-08 8.27181E-25
 -1       295-8.93598E-06-5.30398E-08 0.00000E+00
 -1       296-8.42482E-06-6.09037E-08 0.00000E+00
 -1       297-7.90469E-06-6.87847E-08 0.00000E+00
 -1       298-7.40845E-06-7.60493E-08 0.00000E+00
 -1       299-8.90929E-06-1.49390E-08 0.00000E+00
 -1       300-8.83668E-06 4.38867E-08 0.00000E+00
 -1       301-8.76364E-06 1.39170E-07 3.30872E-24
 -1       302-8.69038E-06 2.44273E-07 0.00000E+00
 -1       303-8.61708E-06 3.32503E-07-1.65436E-24
 -1       304-8.54377E-06 3.77206E-07 4.13590E-25
 -1       305-8.47051E-06 3.51802E-07 1.24077E-24
 -1       306-8.55822E-06-2.91493E-08 0.00000E+00
 -1       307-8.05900E-06-4.94253E-08 0.00000E+00
 -1       308-7.52088E-06-7.02918E-08 2.06795E-25
 -1       309-6.98279E-06-9.10480E-08 0.00000E+00
 -1       310-6.48368E-06-1.10951E-07 0.00000E+00
 -1       318-7.76115E-06 3.22265E-07 3.30872E-24
 -1       319-7.06917E-06 4.14956E-07 0.00000E+00
 -1       320-6.37685E-06 5.08035E-07 0.00000E+00
 -1       321-5.74015E-06 6.01502E-07 0.00000E+00
 -1       322-5.21494E-06 6.95488E-07 0.00000E+00
 -1       364-1.06928E-05 6.74124E-07 0.00000E+00
 -1       365-1.06604E-05 3.70451E-07 0.00000E+00
 -1       366-1.06275E-05 1.90091E-07 0.00000E+00
 -1       367-1.05944E-05 8.91657E-08 0.00000E+00
 -1       368-1.05612E-05 2.36672E-08 8.27181E-25
 -1       369-1.05282E-05-5.04897E-08 4.13590E-25
 -1       370-1.04954E-05-1.77312E-07 0.00000E+00
 -1       371-9.79264E-06 1.08864E-06-1.65436E-24
 -1       372-8.83296E-06 1.03126E-06 0.00000E+00
 -1       373-7.86922E-06 9.73091E-07-8.27181E-25
 -1       374-6.92615E-06 9.14477E-07-1.03398E-25
 -1       375-6.02848E-06 8.55597E-07-1.65436E-24
 -1       376-1.03993E-05-6.04627E-07 0.00000E+00
 -1       377-1.03329E-05-6.67131E-07 0.00000E+00
 -1       378-1.02659E-05-6.28631E-07 0.00000E+00
 -1       379-1.01986E-05-5.31971E-07 0.00000E+00
 -1       380-1.01313E-05-4.20105E-07 1.65436E-24
 -1       381-1.00641E-05-3.36019E-07 8.27181E-25
 -1       382-9.99747E-06-3.22610E-07 1.65436E-24
 -1       383-9.65843E-06-4.17196E-07 0.00000E+00
 -1       384-8.77359E-06-4.36189E-07 0.00000E+00
 -1       385-7.85698E-06-4.55628E-07 2.06795E-25
 -1       386-6.95762E-06-4.75261E-07 0.00000E+00
 -1       387-6.12453E-06-4.94918E-07 0.00000E+00
 -1       388-9.84994E-06-5.55032E-07-3.30872E-24
 -1       389-9.76483E-06-5.73298E-07 0.00000E+00
 -1       390-9.67899E-06-5.11297E-07-3.30872E-24
 -1       391-9.59284E-06-4.05143E-07 1.65436E-24
 -1       392-9.50667E-06-2.91036E-07 1.65436E-24
 -1       393-9.42073E-06-2.05198E-07-5.16988E-26
 -1       394-9.33537E-06-1.83768E-07-4.13590E-25
 -1       395-9.24047E-06-4.34076E-07 0.00000E+00
 -1       396-8.46307E-06-4.48435E-07 0.00000E+00
 -1       397-7.64939E-06-4.63318E-07 0.00000E+00
 -1       398-6.84946E-06-4.78386E-07 0.00000E+00
 -1       399-6.11328E-06-4.93376E-07 0.00000E+00
 -1       400-9.16108E-06-3.68596E-07 0.00000E+00
 -1       401-9.06771E-06-3.78239E-07 0.00000E+00
 -1       402-8.97366E-06-3.20719E-07 0.00000E+00
 -1       403-8.87932E-06-2.26987E-07-1.65436E-24
 -1       404-8.78496E-06-1.28071E-07 1.65436E-24
 -1       405-8.69085E-06-5.50082E-08-8.27181E-25
 -1       406-8.59732E-06-3.87704E-08-1.60266E-24
 -1       407-8.65126E-06-2.67288E-07 0.00000E+00
 -1       408-7.97103E-06-2.74752E-07 0.00000E+00
 -1       409-7.25580E-06-2.82770E-07 0.00000E+00
 -1       410-6.55084E-06-2.90944E-07 0.00000E+00
 -1       411-5.90146E-06-2.98938E-07 0.00000E+00
 -1       412-8.41266E-06-2.02120E-07 0.00000E+00
 -1       413-8.31731E-06-2.11369E-07 0.00000E+00
 -1       414-8.22134E-06-1.63429E-07 0.00000E+00
 -1       415-8.12511E-06-8.54339E-08 1.65436E-24
 -1       416-8.02888E-06-4.58017E-09 1.65436E-24
 -1       417-7.93287E-06 5.19281E-08 4.13590E-25
 -1       418-7.83741E-06 5.69491E-08-1.24077E-24
 -1       419-7.97494E-06-1.06597E-07 8.27181E-25
 -1       420-7.37004E-06-1.05739E-07 0.00000E+00
 -1       421-6.73080E-06-1.05411E-07 0.00000E+00
 -1       422-6.09762E-06-1.05201E-07 0.00000E+00
 -1       423-5.51093E-06-1.04750E-07 0.00000E+00
 -1       424-7.64886E-06-1.12984E-07 0.00000E+00
 -1       425-7.55177E-06-1.38882E-07 1.65436E-24
 -1       426-7.45410E-06-1.15978E-07 3.30872E-24
 -1       427-7.35618E-06-6.74483E-08 0.00000E+00
 -1       428-7.25826E-06-1.65231E-08 1.65436E-24
 -1       429-7.16058E-06 1.35612E-08 1.65436E-24
 -1       430-7.06348E-06-3.79713E-10 0.00000E+00
 -1       431-7.26885E-06-5.84532E-09-8.27181E-25
 -1       432-6.72507E-06 2.32172E-09 0.00000E+00
 -1       433-6.14654E-06 9.99224E-09 4.13590E-25
 -1       434-5.56797E-06 1.75457E-08 0.00000E+00
 -1       435-5.02405E-06 2.53166E-08 0.00000E+00
 -1       436-6.85762E-06-1.81274E-07 0.00000E+00
 -1       437-6.74414E-06-2.16162E-07 1.65436E-24
 -1       438-6.62989E-06-2.04337E-07-3.30872E-24
 -1       439-6.51531E-06-1.65301E-07 0.00000E+00
 -1       440-6.40072E-06-1.18608E-07 0.00000E+00
 -1       441-6.28641E-06-8.38270E-08 1.65436E-24
 -1       442-6.17281E-06-8.04879E-08-1.65436E-24
 -1       443-6.56884E-06-7.84844E-08-8.27181E-25
 -1       444-6.10850E-06-7.83519E-08 0.00000E+00
 -1       445-5.61157E-06-7.88431E-08 0.00000E+00
 -1       446-5.10288E-06-7.95581E-08 0.00000E+00
 -1       447-4.60726E-06-8.01810E-08 0.00000E+00
 -1       448-5.91559E-06-1.64267E-07 0.00000E+00
 -1       449-5.76542E-06-1.20880E-07 0.00000E+00
 -1       450-5.61407E-06-1.53066E-08 0.00000E+00
 -1       451-5.46216E-06 1.33795E-07 0.00000E+00
 -1       452-5.31010E-06 3.07705E-07 0.00000E+00
 -1       453-5.15807E-06 4.87650E-07 0.00000E+00
 -1       454-5.00629E-06 6.54890E-07 0.00000E+00
 -1       455-5.75793E-06-1.42607E-07 0.00000E+00
 -1       456-5.42264E-06-1.60899E-07 0.00000E+00
 -1       457-5.07648E-06-1.80128E-07 1.03398E-25
 -1       458-4.74045E-06-1.99776E-07 0.00000E+00
 -1       459-4.43556E-06-2.19487E-07 0.00000E+00
 -1       460-4.64424E-06 1.09420E-06-1.32349E-23
 -1       461-4.42935E-06 1.57930E-06 0.00000E+00
 -1       462-4.21347E-06 2.21224E-06 1.32349E-23
 -1       463-3.99721E-06 2.95719E-06 0.00000E+00
 -1       464-3.78102E-06 3.77821E-06 6.61744E-24
 -1       465-3.56540E-06 4.63919E-06-3.30872E-24
 -1       466-3.35104E-06 5.50403E-06 0.00000E+00
 -1       467-4.73317E-06 8.53020E-07 0.00000E+00
 -1       468-4.58995E-06 9.11833E-07 1.65436E-24
 -1       469-4.45045E-06 9.69649E-07 0.00000E+00
 -1       470-4.33962E-06 1.02674E-06 0.00000E+00
 -1       471-4.28236E-06 1.08309E-06 0.00000E+00
 -1       472-3.01466E-06 7.09198E-06 6.61744E-24
 -1       473-2.88762E-06 7.90952E-06 0.00000E+00
 -1       474-2.76046E-06 8.77210E-06-6.61744E-24
 -1       475-2.63330E-06 9.66139E-06 0.00000E+00
 -1       476-2.50627E-06 1.05590E-05 0.00000E+00
 -1       477-2.37967E-06 1.14464E-05 1.65436E-24
 -1       478-2.25398E-06 1.23054E-05 0.00000E+00
 -1       479-3.48574E-06 6.33783E-06 8.27181E-25
 -1       480-3.72431E-06 6.33344E-06 0.00000E+00
 -1       481-3.89857E-06 6.32759E-06 0.00000E+00
 -1       482-4.05134E-06 6.32102E-06 0.00000E+00
 -1       483-4.22547E-06 6.31416E-06 0.00000E+00
 -1       484-2.07176E-06 1.38899E-05 0.00000E+00
 -1       485-2.01177E-06 1.46936E-05 0.00000E+00
 -1       486-1.95172E-06 1.55174E-05 0.00000E+00
 -1       487-1.89167E-06 1.63494E-05-8.27181E-25
 -1       488-1.83169E-06 1.71775E-05 8.27181E-25
 -1       489-1.77195E-06 1.79894E-05 6.20385E-25
 -1       490-1.71275E-06 1.87733E-05 4.13590E-25
 -1       491-2.61334E-06 1.30928E-05 0.00000E+00
 -1       492-3.01878E-06 1.30641E-05 0.00000E+00
 -1       493-3.37920E-06 1.30344E-05-8.27181E-25
 -1       494-3.72684E-06 1.30043E-05 0.00000E+00
 -1       495-4.09392E-06 1.29742E-05 0.00000E+00
 -1       496-1.63683E-06 2.02134E-05 0.00000E+00
 -1       497-1.61816E-06 2.09184E-05 0.00000E+00
 -1       498-1.59947E-06 2.16267E-05 4.13590E-25
 -1       499-1.58079E-06 2.23322E-05-1.03398E-25
 -1       500-1.56214E-06 2.30292E-05 2.06795E-25
 -1       501-1.54364E-06 2.37117E-05 0.00000E+00
 -1       502-1.52543E-06 2.43739E-05 0.00000E+00
 -1       503-2.18627E-06 1.94896E-05 0.00000E+00
 -1       504-2.67034E-06 1.94597E-05 1.65436E-24
 -1       505-3.12704E-06 1.94293E-05-8.27181E-25
 -1       506-3.57625E-06 1.93988E-05-4.13590E-25
 -1       507-4.03785E-06 1.93684E-05 5.68687E-25
 -1       508-2.04058E-06 2.49802E-05-8.27181E-25
 -1       509-2.55016E-06 2.49493E-05 0.00000E+00
 -1       510-3.04588E-06 2.49180E-05 0.00000E+00
 -1       511-3.53683E-06 2.48867E-05 0.00000E+00
 -1       512-4.03209E-06 2.48556E-05-4.13590E-25
 -1       513-5.22848E-06 3.93268E-07 1.65436E-24
 -1       514-5.25471E-06 1.29198E-07 0.00000E+00
 -1       515-5.28032E-06-3.04575E-08 0.00000E+00
 -1       516-5.30560E-06-1.21416E-07 0.00000E+00
 -1       517-5.33077E-06-1.79507E-07 8.27181E-25
 -1       518-5.35585E-06-2.40635E-07 0.00000E+00
 -1       519-5.38082E-06-3.40640E-07 0.00000E+00
 -1       520-4.32044E-06 6.66835E-07 0.00000E+00
 -1       521-3.39728E-06 5.34898E-07-1.65436E-24
 -1       522-2.46697E-06 4.02135E-07 0.00000E+00
 -1       523-1.56631E-06 2.68834E-07 1.65436E-24
 -1       524-7.32085E-07 1.35070E-07-1.65436E-24
 -1       525-5.41656E-06-6.76652E-07 0.00000E+00
 -1       526-5.42725E-06-7.24645E-07 0.00000E+00
 -1       527-5.43782E-06-6.91540E-07 0.00000E+00
 -1       528-5.44833E-06-6.11552E-07-2.06795E-25
 -1       529-5.45881E-06-5.18985E-07 0.00000E+00
 -1       530-5.46924E-06-4.48173E-07 0.00000E+00
 -1       531-5.47959E-06-4.33374E-07 0.00000E+00
 -1       532-4.75427E-06-5.31073E-07 0.00000E+00
 -1       533-4.05036E-06-5.47690E-07-4.13590E-25
 -1       534-3.33518E-06-5.64480E-07 4.13590E-25
 -1       535-2.65079E-06-5.81792E-07 0.00000E+00
 -1       536-2.03917E-06-6.00187E-07-8.27181E-25
 -1       537-5.47349E-06-6.04604E-07 0.00000E+00
 -1       538-5.45640E-06-6.07849E-07 0.00000E+00
 -1       539-5.43904E-06-5.46325E-07 0.00000E+00
 -1       540-5.42156E-06-4.49704E-07 0.00000E+00
 -1       541-5.40404E-06-3.47726E-07-4.13590E-25
 -1       542-5.38654E-06-2.70148E-07 0.00000E+00
 -1       543-5.36909E-06-2.46658E-07 0.00000E+00
 -1       544-4.97013E-06-5.13469E-07 0.00000E+00
 -1       545-4.40327E-06-5.19215E-07 4.13590E-25
 -1       546-3.82508E-06-5.25080E-07 0.00000E+00
 -1       547-3.27214E-06-5.31208E-07 0.00000E+00
 -1       548-2.78097E-06-5.37845E-07 0.00000E+00
 -1       549-5.31055E-06-3.81170E-07 0.00000E+00
 -1       550-5.26791E-06-3.74527E-07 1.65436E-24
 -1       551-5.22490E-06-3.12126E-07 1.65436E-24
 -1       552-5.18171E-06-2.20800E-07 8.27181E-25
 -1       553-5.13850E-06-1.27450E-07-1.24077E-24
 -1       554-5.09536E-06-5.89764E-08 2.06795E-25
 -1       555-5.05243E-06-4.22232E-08 8.27181E-25
 -1       556-4.89633E-06-3.07615E-07 0.00000E+00
 -1       557-4.39788E-06-3.09815E-07 0.00000E+00
 -1       558-3.88895E-06-3.12198E-07 0.00000E+00
 -1       559-3.40249E-06-3.14640E-07 0.00000E+00
 -1       560-2.97143E-06-3.17049E-07 0.00000E+00
 -1       561-4.95388E-06-1.70258E-07-3.30872E-24
 -1       562-4.89615E-06-1.61973E-07 3.30872E-24
 -1       563-4.83803E-06-1.03501E-07-3.30872E-24
 -1       564-4.77973E-06-2.07688E-08 8.27181E-25
 -1       565-4.72142E-06 6.02333E-08 1.65436E-24
 -1       566-4.66325E-06 1.13521E-07-7.23783E-25
 -1       567-4.60541E-06 1.13171E-07 8.27181E-25
 -1       568-4.56801E-06-9.98634E-08 4.13590E-25
 -1       569-4.07973E-06-9.75034E-08 5.16988E-26
 -1       570-3.57802E-06-9.53491E-08-8.27181E-25
 -1       571-3.09607E-06-9.30489E-08 0.00000E+00
 -1       572-2.66701E-06-9.01994E-08 0.00000E+00
 -1       573-4.49934E-06-4.84422E-08 0.00000E+00
 -1       574-4.44911E-06-5.99987E-08 0.00000E+00
 -1       575-4.39866E-06-2.58549E-08-1.65436E-24
 -1       576-4.34812E-06 2.79692E-08-8.27181E-25
 -1       577-4.29761E-06 7.53993E-08-1.44757E-24
 -1       578-4.24731E-06 9.03732E-08 4.13590E-25
 -1       579-4.19745E-06 4.68947E-08-8.27181E-25
 -1       580-4.05790E-06 4.26997E-08-4.13590E-25
 -1       581-3.50736E-06 5.03907E-08-3.23117E-26
 -1       582-2.93490E-06 5.79730E-08 1.65436E-24
 -1       583-2.37896E-06 6.59824E-08-1.65436E-24
 -1       584-1.87796E-06 7.51151E-08-3.30872E-24
 -1       585-4.15220E-06-2.48779E-07 0.00000E+00
 -1       586-4.15608E-06-3.38239E-07 0.00000E+00
 -1       587-4.16018E-06-3.66373E-07 0.00000E+00
 -1       588-4.16440E-06-3.51767E-07 0.00000E+00
 -1       589-4.16868E-06-3.13071E-07 0.00000E+00
 -1       590-4.17303E-06-2.68985E-07 0.00000E+00
 -1       591-4.17748E-06-2.38185E-07 0.00000E+00
 -1       592-3.52273E-06-6.59329E-08 0.00000E+00
 -1       593-2.80278E-06-5.18016E-08 0.00000E+00
 -1       594-2.03946E-06-3.77974E-08 0.00000E+00
 -1       595-1.28397E-06-2.40977E-08 0.00000E+00
 -1       596-5.87471E-07-1.09997E-08 0.00000E+00
 -1       597-4.19753E-06-2.47127E-07 0.00000E+00
 -1       598-4.21289E-06-1.78359E-07 0.00000E+00
 -1       599-4.22828E-06-4.49011E-08 0.00000E+00
 -1       600-4.24367E-06 1.40294E-07 0.00000E+00
 -1       601-4.25901E-06 3.64208E-07 0.00000E+00
 -1       602-4.27420E-06 6.13739E-07 0.00000E+00
 -1       603-4.28907E-06 8.75793E-07 0.00000E+00
 -1       604-3.90574E-06-2.47617E-07-1.65436E-24
 -1       605-3.58817E-06-2.56332E-07 0.00000E+00
 -1       606-3.25547E-06-2.65384E-07-4.13590E-25
 -1       607-2.93401E-06-2.75518E-07-6.20385E-25
 -1       608-2.65011E-06-2.87895E-07-1.65436E-24
 -1       609-4.32130E-06 1.54748E-06 0.00000E+00
 -1       610-4.34116E-06 2.08272E-06 0.00000E+00
 -1       611-4.36143E-06 2.71505E-06 0.00000E+00
 -1       612-4.38190E-06 3.41520E-06 0.00000E+00
 -1       613-4.40244E-06 4.15384E-06 6.13923E-26
 -1       614-4.42294E-06 4.90153E-06 0.00000E+00
 -1       615-4.44329E-06 5.62886E-06 0.00000E+00
 -1       616-4.33028E-06 1.15982E-06 2.06795E-25
 -1       617-4.31991E-06 1.18261E-06-1.03398E-25
 -1       618-4.29862E-06 1.20521E-06 8.27181E-25
 -1       619-4.29372E-06 1.22687E-06 0.00000E+00
 -1       620-4.33253E-06 1.24648E-06 1.17615E-24
 -1       621-4.46923E-06 6.99264E-06 0.00000E+00
 -1       622-4.47526E-06 7.77181E-06 0.00000E+00
 -1       623-4.48131E-06 8.61898E-06 0.00000E+00
 -1       624-4.48737E-06 9.50760E-06 0.00000E+00
 -1       625-4.49344E-06 1.04110E-05 0.00000E+00
 -1       626-4.49955E-06 1.13027E-05 0.00000E+00
 -1       627-4.50572E-06 1.21559E-05 0.00000E+00
 -1       628-4.74201E-06 6.30523E-06 0.00000E+00
 -1       629-4.96468E-06 6.30359E-06 0.00000E+00
 -1       630-5.16631E-06 6.30184E-06 0.00000E+00
 -1       631-5.38270E-06 6.29947E-06-4.13590E-25
 -1       632-5.64964E-06 6.29579E-06 4.13590E-25
 -1       633-4.51494E-06 1.36818E-05 0.00000E+00
 -1       634-4.51732E-06 1.44720E-05 0.00000E+00
 -1       635-4.51960E-06 1.52979E-05 0.00000E+00
 -1       636-4.52183E-06 1.61417E-05-5.16988E-26
 -1       637-4.52406E-06 1.69856E-05 0.00000E+00
 -1       638-4.52633E-06 1.78115E-05 0.00000E+00
 -1       639-4.52869E-06 1.86017E-05 1.65436E-24
 -1       640-4.94176E-06 1.29323E-05 1.65436E-24
 -1       641-5.32346E-06 1.29197E-05 0.00000E+00
 -1       642-5.68714E-06 1.29071E-05 2.06795E-25
 -1       643-6.06320E-06 1.28941E-05-4.13590E-25
 -1       644-6.48203E-06 1.28804E-05 0.00000E+00
 -1       645-4.53295E-06 2.00147E-05 0.00000E+00
 -1       646-4.53403E-06 2.07121E-05 0.00000E+00
 -1       647-4.53499E-06 2.14216E-05-1.29247E-26
 -1       648-4.53590E-06 2.21341E-05 0.00000E+00
 -1       649-4.53681E-06 2.28400E-05 0.00000E+00
 -1       650-4.53778E-06 2.35300E-05 0.00000E+00
 -1       651-4.53891E-06 2.41947E-05 0.00000E+00
 -1       652-5.02894E-06 1.93256E-05 8.27181E-25
 -1       653-5.49602E-06 1.93124E-05 0.00000E+00
 -1       654-5.95164E-06 1.92992E-05 1.03398E-25
 -1       655-6.41509E-06 1.92858E-05 2.06795E-25
 -1       656-6.90567E-06 1.92722E-05 4.13590E-25
 -1       657-5.05110E-06 2.48129E-05 8.27181E-25
 -1       658-5.54917E-06 2.48008E-05 0.00000E+00
 -1       659-6.04349E-06 2.47887E-05-4.13590E-25
 -1       660-6.54287E-06 2.47766E-05-5.16988E-26
 -1       661-7.05609E-06 2.47645E-05 1.03398E-25
 -1       662-1.92235E-07-2.87977E-07 3.30872E-24
 -1       663-3.85736E-07-4.63507E-07 1.65436E-24
 -1       664-5.79563E-07-5.52063E-07 0.00000E+00
 -1       665-7.73472E-07-5.80222E-07 1.65436E-24
 -1       666-9.67256E-07-5.74655E-07 0.00000E+00
 -1       667-1.16054E-06-5.62110E-07-3.30872E-24
 -1       668-1.35273E-06-5.69297E-07-6.61744E-24
 -1       669-1.64763E-06-7.07812E-07 1.65436E-24
 -1       670-1.75412E-06-7.28935E-07-1.65436E-24
 -1       671-1.86058E-06-7.03907E-07 0.00000E+00
 -1       672-1.96699E-06-6.51564E-07-1.65436E-24
 -1       673-2.07329E-06-5.90790E-07 3.30872E-24
 -1       674-2.17922E-06-5.40490E-07-1.65436E-24
 -1       675-2.28443E-06-5.19529E-07 3.30872E-24
 -1       676-2.41851E-06-5.85532E-07 1.03398E-25
 -1       677-2.44916E-06-5.73570E-07-3.10193E-25
 -1       678-2.47959E-06-5.25984E-07 0.00000E+00
 -1       679-2.50987E-06-4.58928E-07-4.13590E-25
 -1       680-2.54006E-06-3.88592E-07-1.65436E-24
 -1       681-2.57003E-06-3.31176E-07 0.00000E+00
 -1       682-2.59960E-06-3.02842E-07 0.00000E+00
 -1       683-2.59174E-06-3.42109E-07 0.00000E+00
 -1       684-2.55414E-06-3.20453E-07 0.00000E+00
 -1       685-2.51608E-06-2.68821E-07 1.65436E-24
 -1       686-2.47778E-06-2.02191E-07 4.13590E-25
 -1       687-2.43939E-06-1.35576E-07 0.00000E+00
 -1       688-2.40089E-06-8.39882E-08-2.06795E-25
 -1       689-2.36225E-06-6.24059E-08 4.13590E-25
 -1       690-2.21935E-06-1.04344E-07 0.00000E+00
 -1       691-2.11308E-06-8.03434E-08 0.00000E+00
 -1       692-2.00609E-06-2.87435E-08 0.00000E+00
 -1       693-1.89875E-06 3.45955E-08 1.65436E-24
 -1       694-1.79131E-06 9.37789E-08 3.30872E-24
 -1       695-1.68385E-06 1.32921E-07-1.65436E-24
 -1       696-1.57645E-06 1.36176E-07-3.30872E-24
 -1       697-1.28732E-06 5.51349E-08-6.61744E-24
 -1       698-1.10164E-06 6.65420E-08 3.30872E-24
 -1       699-9.14960E-07 1.03646E-07 6.61744E-24
 -1       700-7.27991E-07 1.47158E-07-3.30872E-24
 -1       701-5.41299E-07 1.77757E-07-6.61744E-24
 -1       702-3.55870E-07 1.76145E-07 0.00000E+00
 -1       703-1.73184E-07 1.23077E-07 8.27181E-25
 -1       704-2.91039E-07-1.70691E-07 6.61744E-24
 -1       705-5.93694E-07-2.81498E-07 0.00000E+00
 -1       706-8.99687E-07-3.43094E-07-6.61744E-24
 -1       707-1.20721E-06-3.66723E-07 3.30872E-24
 -1       708-1.51504E-06-3.63684E-07 0.00000E+00
 -1       709-1.82243E-06-3.45339E-07-3.30872E-24
 -1       710-2.12846E-06-3.23041E-07 6.61744E-24
 -1       711-2.67911E-06-2.86127E-07 0.00000E+00
 -1       712-2.93144E-06-2.00361E-07 0.00000E+00
 -1       713-3.18451E-06-5.73948E-08 0.00000E+00
 -1       714-3.43786E-06 1.35511E-07-3.30872E-24
 -1       715-3.69111E-06 3.71039E-07 0.00000E+00
 -1       716-3.94377E-06 6.41774E-07 0.00000E+00
 -1       717-4.19507E-06 9.40288E-07 6.61744E-24
 -1       718-4.63494E-06 1.69309E-06 3.30872E-24
 -1       719-4.83058E-06 2.21917E-06 0.00000E+00
 -1       720-5.02689E-06 2.81964E-06-3.30872E-24
 -1       721-5.22345E-06 3.47597E-06-1.65436E-24
 -1       722-5.41997E-06 4.16958E-06 0.00000E+00
 -1       723-5.61600E-06 4.88179E-06 0.00000E+00
 -1       724-5.81094E-06 5.59391E-06 0.00000E+00
 -1       725-6.12331E-06 7.00169E-06-3.30872E-24
 -1       726-6.24527E-06 7.78208E-06 0.00000E+00
 -1       727-6.36744E-06 8.61149E-06 0.00000E+00
 -1       728-6.48966E-06 9.47196E-06 1.65436E-24
 -1       729-6.61180E-06 1.03455E-05 0.00000E+00
 -1       730-6.73360E-06 1.12140E-05 0.00000E+00
 -1       731-6.85468E-06 1.20595E-05 3.30872E-24
 -1       732-7.03253E-06 1.36337E-05-8.27181E-25
 -1       733-7.09156E-06 1.44353E-05-8.27181E-25
 -1       734-7.15053E-06 1.52575E-05 0.00000E+00
 -1       735-7.20943E-06 1.60883E-05 0.00000E+00
 -1       736-7.26827E-06 1.69158E-05 0.00000E+00
 -1       737-7.32691E-06 1.77278E-05 0.00000E+00
 -1       738-7.38518E-06 1.85124E-05 0.00000E+00
 -1       739-7.46155E-06 1.99548E-05-4.13590E-25
 -1       740-7.48040E-06 2.06602E-05 4.13590E-25
 -1       741-7.49911E-06 2.13685E-05 0.00000E+00
 -1       742-7.51774E-06 2.20739E-05 0.00000E+00
 -1       743-7.53633E-06 2.27707E-05 0.00000E+00
 -1       744-7.55489E-06 2.34531E-05 8.27181E-25
 -1       745-7.57339E-06 2.41154E-05 1.65436E-24
 -3
    1PSTEP                         2           1           1          
  100CL  101 1.000000000         641                     0    1           1
 -4  STRESS      6    1
 -5  SXX         1    4    1    1
 -5  SYY         1    4    2    2
 -5  SZZ         1    4    3    3
 -5  SXY         1    4    1    2
 -5  SYZ         1    4    2    3
 -5  SZX         1    4    3    1
 -1         1 7.99751E+05 3.02114E+05-5.83280E+02 3.95109E+05 1.45519E-11-3.74712E-10
 -1         2 9.17773E+05 3.59164E+04-4.38486E+02 1.74771E+05-3.88051E-11-5.52442E-10
 -1         3 6.67904E+05 1.75714E+04-4.06411E+02 1.14236E+05 2.42532E-11-2.33172E-09
 -1         4 5.02494E+05 1.76123E+04-3.11060E+02 7.98186E+04-2.42532E-11 5.01548E-10
 -1         5 3.83207E+05 1.98604E+04-2.42627E+02 6.06205E+04-4.85064E-12 3.00133E-11
 -1         6 2.88602E+05 1.94640E+04-1.94006E+02 5.02760E+04-7.76102E-11 5.07801E-11
 -1         7 2.04007E+05 1.01732E+04-1.75408E+02 4.68992E+04 1.94026E-11-6.29711E-10
 -1         8 1.19891E+05 7.63414E+03-1.54769E+02 5.12263E+04 4.72937E-11-1.15983E-09
 -1         9 6.09536E+04 5.51824E+04-2.06064E+02 6.57895E+04-8.18545E-11-1.60242E-09
 -1        14 1.55900E+05 1.90791E+05-1.02553E+03 4.73120E+05-6.06330E-11-8.12776E-10
 -1        15 2.37046E+05-1.62827E+04-1.30331E+03 3.94303E+05 2.13731E-10-9.89694E-10
 -1        16 2.52781E+05-1.57120E+04-9.46192E+02 2.96410E+05-3.27418E-10-8.69502E-10
 -1        17 2.33573E+05-7.00902E+02-6.98649E+02 2.28145E+05 4.00178E-11-4.55200E-10
 -1        18 2.04278E+05 1.21249E+04-5.25046E+02 1.84361E+05 2.41016E-11-8.22463E-10
 -1        19 1.73776E+05 1.85132E+04-4.02034E+02 1.56330E+05-3.77440E-11 1.10860E-10
 -1        20 1.43518E+05 8.16063E+03-3.49568E+02 1.44563E+05-4.04270E-10 3.79478E-10
 -1        21 1.09600E+05-8.05039E+02-3.59490E+02 1.70752E+05-2.27374E-10-6.56579E-10
 -1        22 6.89869E+04 1.26302E+05-1.93336E+02 2.18718E+05-4.29888E-10-7.87418E-10
 -1        27 2.51246E+04-1.72285E+04-4.29943E+02 2.30923E+05 3.63798E-11 1.94893E-09
 -1        28 6.04021E+04-1.74978E+04-4.57681E+02 3.19171E+05 3.55612E-10-5.33880E-10
 -1        29 9.35264E+04-1.48963E+04-4.69297E+02 2.98202E+05-2.68301E-10 2.13916E-10
 -1        30 1.11907E+05-2.03082E+03-4.04563E+02 2.56236E+05 7.36691E-11-2.22755E-11
 -1        31 1.19832E+05 1.10574E+04-3.38871E+02 2.21742E+05 1.23691E-10 3.50628E-10
 -1        32 1.23266E+05 2.04698E+04-2.67214E+02 1.91112E+05-2.00089E-11 3.43558E-10
 -1        33 1.33502E+05 1.20653E+04-2.01699E+02 1.59190E+05-4.13365E-10 6.09099E-10
 -1        34 1.64878E+05-3.47345E+03-1.87960E+02 1.55670E+05-2.06910E-10 1.35108E-10
 -1        35 2.45939E+05 1.26760E+05 1.28911E+02 2.14986E+05-1.04592E-10-4.23244E-11
 -1        36 3.01552E+05 2.09733E+04 4.39263E+01 2.05671E+05-3.04135E-09-9.18021E-10
 -1        37 1.60463E+05-9.99675E+03-6.33557E+01 1.32560E+05 2.47383E-09-2.96723E-11
 -1        38 6.49848E+04-1.86000E+04-5.93504E+01 8.00165E+04 3.51793E-09-9.92676E-11
 -1        39 1.84518E+04-3.63508E+04-9.18854E+01 4.74632E+04 5.80621E-09-4.93003E-10
 -1        40-3.43092E+04-1.71800E+05-2.34762E+02 2.05422E+05 7.27596E-12 6.18774E-10
 -1        41-2.50531E+04-2.54521E+04 1.94258E+01 2.55320E+05-4.00178E-11 3.67494E-10
 -1        42 2.94904E+03-1.24244E+04-1.31150E+02 2.38554E+05-3.68345E-10 2.22093E-10
 -1        43 3.75849E+04-1.67579E+03-2.20442E+02 2.13633E+05-3.45608E-11 6.07200E-10
 -1        44 6.43448E+04 9.67118E+03-3.02749E+02 2.00343E+05 7.27596E-12 7.09310E-10
 -1        45 6.99926E+04 1.81834E+04-4.04811E+02 1.98322E+05-1.96451E-10 6.07209E-10
 -1        46 3.05804E+04 1.24242E+04-8.64044E+01 1.91303E+05-5.75710E-10 9.13758E-12
 -1        47-1.46207E+04-1.93218E+04 2.07256E+02 1.25241E+05-1.38698E-10 3.10791E-11
 -1        48-1.55194E+04 4.79522E+04 1.60173E+02 1.49947E+05-3.45608E-11-4.29429E-10
 -1        49-1.72530E+04-7.20946E+03-1.43613E+02 2.13351E+05-1.60389E-09-7.78812E-10
 -1        50-8.56926E+03-2.74848E+04-1.33398E+02 1.69809E+05-2.30102E-10-1.22980E-09
 -1        51-5.41282E+03-2.77625E+04-8.80391E+01 1.05349E+05 3.71597E-09-1.09506E-09
 -1        52-3.86693E+03-3.81126E+04-7.57308E+01 5.76321E+04-1.71894E-10-7.10564E-10
 -1        53-2.67124E+05-2.00769E+05-5.78745E+02 2.00672E+05-7.71365E-11-3.09228E-10
 -1        54-2.66222E+05-3.58240E+04-1.76635E+02 1.84859E+05-5.47402E-11-2.06152E-11
 -1        55-1.20834E+05-1.48471E+04-1.11580E+02 1.51163E+05-2.02742E-10-2.83762E-10
 -1        56 6.82314E+03-1.34431E+03-1.07184E+02 1.35374E+05 3.41155E-11 3.39545E-10
 -1        57 1.28487E+05 1.25377E+04-1.05879E+02 1.35246E+05 2.83080E-11-3.39545E-11
 -1        58 2.60490E+05 2.82368E+04 7.84505E+01 1.55490E+05-3.13112E-11 1.70985E-10
 -1        59-1.03753E+05 2.37245E+03-1.68009E+02 1.72747E+05-2.18307E-10-6.20882E-10
 -1        60-4.94866E+05-4.95018E+04-3.60832E+02 9.49882E+04-6.80759E-11-5.15380E-11
 -1        61-3.91757E+05-1.54293E+04-1.55650E+02 1.12372E+05 9.73159E-11 1.30967E-10
 -1        62-2.80052E+05-2.50191E+04-1.41956E+02 1.52736E+05-2.45259E-09 1.25510E-09
 -1        63-1.60560E+05-2.34609E+04-8.55482E+01 1.27505E+05-1.36256E-09-1.04895E-09
 -1        64-6.96175E+04-1.62203E+04-2.39889E+01 7.82208E+04 8.09584E-09-5.72982E-10
 -1        65-2.51851E+04-1.80803E+04 2.08265E+01 4.60086E+04 4.79498E-09-2.07820E-10
 -1        66 1.75141E+06 4.76127E+04 7.12591E+04 2.30284E-09-1.81616E-10 1.46247E-09
 -1        67 1.76209E+06 1.66290E+04 3.66047E+04-5.78211E-10-2.04115E-10-1.49157E-10
 -1        68 1.75569E+06 4.17957E+03 1.96770E+04 3.51520E-10 7.66867E-12 1.39153E-10
 -1        69 1.75798E+06 2.84662E+03 1.70023E+04-7.94984E-10-3.88686E-10 5.98078E-10
 -1        70 1.75557E+06 5.02400E+03 2.22838E+04 3.28964E-09 3.64243E-10 7.08496E-10
 -1        71 1.76331E+06 2.02995E+04 4.38694E+04-5.73209E-10 9.26530E-10-1.17780E-09
 -1        72 1.75030E+06 5.81795E+04 8.67260E+04 1.08412E-09 3.00734E-10-1.29148E-09
 -1        73-4.72371E+04 4.50429E+05-7.04974E+04 7.20852E+05 0.00000E+00-1.74623E-10
 -1        74-1.47040E+04 4.38108E+05-3.34379E+04 7.91644E+05-1.52795E-10 6.96673E-10
 -1        75-1.40134E+03 4.43059E+05-1.29754E+04 7.19712E+05 9.45874E-11-1.82990E-09
 -1        76 3.79948E+03 4.41764E+05-2.24973E+03 7.92499E+05 9.45874E-11-2.61934E-10
 -1        77 8.90334E+03 4.41390E+05 7.26173E+03 7.20020E+05 5.45697E-11 7.59428E-11
 -1        78 1.26026E+06 2.23396E+04 3.36514E+04 1.53705E-10 1.43355E-10-6.85759E-10
 -1        79 1.26527E+06 7.81380E+03 1.77041E+04-1.80592E-09 1.98688E-10-1.75351E-09
 -1        80 1.26224E+06 2.01123E+03 1.03161E+04-7.10315E-10-2.04451E-10 8.11951E-10
 -1        81 1.26354E+06 1.72448E+03 1.03032E+04-1.27262E-09 1.04163E-10-5.26200E-10
 -1        82 1.26202E+06 3.56458E+03 1.51128E+04 1.22327E-10-5.86848E-11-1.54523E-09
 -1        83 1.26752E+06 1.45686E+04 3.10738E+04-1.31047E-09 3.39099E-11-1.90721E-09
 -1        84 1.25822E+06 4.17806E+04 6.21113E+04-1.31877E-09-2.99893E-11 5.45697E-10
 -1        85-8.06505E+04-1.49009E+05-1.21145E+05 4.78102E+05 2.03727E-10 2.07001E-09
 -1        86-2.81490E+04-1.68245E+05-6.25895E+04 5.25282E+05 3.41061E-10 7.56700E-10
 -1        87-8.24257E+03-1.57192E+05-3.44773E+04 4.77433E+05 2.89219E-10 1.05501E-10
 -1        88-1.08216E+04-1.63445E+05-3.23749E+04 5.25724E+05 4.94765E-10-2.91948E-10
 -1        89-2.73660E+04-1.55634E+05-4.59005E+04 4.77720E+05 4.36557E-10-4.26553E-10
 -1        90 9.37951E+05 1.83480E+04 2.75817E+04 1.40699E-09-1.40069E-10 1.39062E-09
 -1        91 9.42061E+05 6.41423E+03 1.43969E+04 1.46969E-09 2.36694E-10 2.37810E-09
 -1        92 9.39581E+05 1.63739E+03 8.17652E+03 4.00746E-10 2.43654E-10 1.99634E-10
 -1        93 9.40581E+05 1.30995E+03 7.82795E+03-1.46255E-09-2.62376E-11 7.76197E-11
 -1        94 9.39441E+05 2.59814E+03 1.11439E+04-7.88077E-10 1.47463E-10-1.07320E-09
 -1        95 9.43456E+05 1.05932E+04 2.26686E+04-2.05398E-09-4.33635E-11 8.91305E-11
 -1        96 9.36687E+05 3.03747E+04 4.51889E+04 1.72986E-09-1.28981E-10-4.22006E-10
 -1        97-6.04452E+04-1.38670E+05-9.09870E+04 3.12510E+05-3.05590E-10-3.94721E-10
 -1        98-2.14987E+04-1.52959E+05-4.79065E+04 3.43316E+05-5.92991E-10-5.53882E-10
 -1        99-7.03931E+03-1.44359E+05-2.80706E+04 3.12054E+05-5.16593E-10-1.31058E-09
 -1       100-1.09461E+04-1.49916E+05-2.94169E+04 3.43627E+05-7.53062E-10 4.04043E-10
 -1       101-2.79267E+04-1.42543E+05-4.49434E+04 3.12234E+05-5.31145E-10-4.75893E-10
 -1       102 7.12921E+05 1.40017E+04 2.10393E+04 1.60799E-09 9.76294E-11 3.63798E-11
 -1       103 7.16056E+05 4.89430E+03 1.09627E+04 8.47706E-10 2.43975E-10-1.10708E-09
 -1       104 7.14165E+05 1.24693E+03 6.18985E+03 1.37163E-09 5.28066E-11-4.79872E-10
 -1       105 7.14917E+05 9.81714E+02 5.86729E+03 1.17737E-09-1.56210E-10-3.35348E-10
 -1       106 7.14066E+05 1.92734E+03 8.29168E+03-3.66185E-10-9.65804E-11 1.43723E-09
 -1       107 7.17044E+05 7.85435E+03 1.68220E+04-3.35376E-10 5.09044E-11 2.09184E-10
 -1       108 7.12027E+05 2.25209E+04 3.35118E+04 2.27374E-10-1.25328E-10-6.05723E-10
 -1       109-4.46814E+04-8.83120E+04-6.73594E+04 2.18378E+05-9.09495E-11-7.73070E-10
 -1       110-1.60451E+04-9.88470E+04-3.58585E+04 2.39872E+05-7.41238E-11-1.99179E-10
 -1       111-5.55448E+03-9.23644E+04-2.17378E+04 2.18043E+05-1.75532E-10 9.46784E-10
 -1       112-9.30399E+03-9.68686E+04-2.40212E+04 2.40113E+05-1.25510E-10 1.47543E-09
 -1       113-2.38873E+04-9.07383E+04-3.78808E+04 2.18158E+05-2.29193E-10 5.91172E-11
 -1       114 5.42086E+05 1.00852E+04 1.51663E+04-1.00499E-10 2.13546E-10 4.61114E-10
 -1       115 5.44343E+05 3.52582E+03 7.92471E+03 1.22603E-09-1.73273E-09-7.29415E-10
 -1       116 5.42980E+05 9.00735E+02 4.51659E+03 9.03071E-10-3.17920E-09-6.57110E-10
 -1       117 5.43532E+05 7.27946E+02 4.35112E+03-3.46546E-10-1.34227E-09 4.09216E-10
 -1       118 5.42899E+05 1.45308E+03 6.22299E+03 1.81143E-09 7.00111E-10 2.76032E-10
 -1       119 5.45145E+05 5.92903E+03 1.26819E+04-1.53477E-10 7.85720E-10 3.34012E-10
 -1       120 5.41360E+05 1.70013E+04 2.52923E+04 7.60338E-10 4.55387E-10 1.04683E-09
 -1       121-3.28663E+04-4.40952E+04-4.96188E+04 1.65868E+05-3.27418E-11 1.26238E-09
 -1       122-1.18698E+04-5.18496E+04-2.66311E+04 1.82173E+05 2.98542E-10 2.61434E-09
 -1       123-4.26021E+03-4.70186E+04-1.65446E+04 1.65603E+05-6.18456E-11 7.15772E-10
 -1       124-7.49389E+03-5.05603E+04-1.89430E+04 1.82371E+05 3.11047E-10 4.36671E-10
 -1       125-1.93640E+04-4.56628E+04-3.04720E+04 1.65683E+05-3.63798E-12-4.61284E-10
 -1       126 4.00421E+05 6.68723E+03 1.00897E+04 3.05590E-10 1.59945E-10 5.32054E-11
 -1       127 4.01919E+05 2.33957E+03 5.33631E+03-1.48785E-09 9.14807E-11-1.54671E-10
 -1       128 4.01009E+05 6.05032E+02 3.16244E+03-1.21219E-10-1.07294E-10 1.80648E-10
 -1       129 4.01412E+05 5.42838E+02 3.24494E+03 1.05693E-09 5.26989E-11 2.36696E-10
 -1       130 4.00930E+05 1.15023E+03 4.84692E+03-1.26539E-09 8.58545E-11-5.02723E-10
 -1       131 4.02712E+05 4.71199E+03 1.00326E+04-5.58487E-10 1.03012E-10-1.14096E-09
 -1       132 3.99705E+05 1.35144E+04 2.00858E+04-8.03084E-10-1.42748E-10-1.50976E-10
 -1       133-2.39043E+04-1.69216E+04-3.61582E+04 1.37573E+05-4.36557E-11-1.60708E-09
 -1       134-8.67309E+03-2.25826E+04-1.95813E+04 1.51084E+05 7.27596E-12 3.46517E-10
 -1       135-3.22218E+03-1.90269E+04-1.24878E+04 1.37347E+05-1.83718E-10 2.93767E-10
 -1       136-5.95634E+03-2.17949E+04-1.48175E+04 1.51258E+05 0.00000E+00-1.19519E-09
 -1       137-1.55276E+04-1.79117E+04-2.42930E+04 1.37408E+05-1.53705E-10 7.24015E-10
 -1       138 2.68240E+05 3.89289E+03 5.90818E+03 1.58911E-09-3.10565E-11-7.02585E-11
 -1       139 2.69116E+05 1.36377E+03 3.19143E+03 3.14401E-10-2.36665E-11-8.81641E-10
 -1       140 2.68578E+05 3.60355E+02 2.01537E+03 2.49403E-09-1.43297E-10-2.13277E-10
 -1       141 2.68851E+05 3.78583E+02 2.26324E+03-2.96296E-11 1.33352E-11-1.54728E-10
 -1       142 2.68505E+05 8.63794E+02 3.57096E+03 4.33346E-10-1.89708E-10 1.69962E-10
 -1       143 2.69848E+05 3.55469E+03 7.52856E+03-9.79242E-10-1.27256E-10-4.65434E-10
 -1       144 2.67579E+05 1.01980E+04 1.51400E+04-2.96950E-10 9.47708E-11 8.36735E-11
 -1       145-1.75985E+04-2.48229E+04-2.67088E+04 1.28331E+05-1.41881E-10-7.19410E-10
 -1       146-6.41983E+03-2.90244E+04-1.46622E+04 1.40931E+05-6.02995E-10 7.34872E-10
 -1       147-2.49998E+03-2.63668E+04-9.71549E+03 1.28117E+05-4.63842E-10 6.39375E-10
 -1       148-4.94660E+03-2.86256E+04-1.20998E+04 1.41094E+05-8.53106E-10 9.08585E-10
 -1       149-1.30709E+04-2.53976E+04-2.03249E+04 1.28174E+05-5.33873E-10 4.83169E-11
 -1       150 1.24018E+05-3.05600E+02-4.44456E+02-7.59513E-10-1.68853E-10 1.08969E-10
 -1       151 1.23940E+05-1.06041E+02-2.02806E+02-8.16694E-10-1.20186E-10 3.18465E-10
 -1       152 1.23989E+05-2.36843E+01-6.01414E+01-4.98721E-11-3.04865E-10-2.31523E-10
 -1       153 1.23978E+05 5.47609E+00 3.27403E+01 3.65894E-11-2.73449E-10 1.87541E-10
 -1       154 1.23979E+05 4.13918E+01 1.40955E+02 1.81485E-09 4.40896E-10 3.86734E-10
 -1       155 1.24034E+05 1.77196E+02 3.57893E+02 1.89239E-09 1.22455E-09-5.54223E-10
 -1       156 1.23932E+05 5.09449E+02 7.48963E+02 8.48274E-10 3.97927E-10-1.37422E-09
 -1       157-1.00353E+04-8.56283E+03-1.53174E+04 1.40137E+05-1.20053E-10 8.45830E-11
 -1       158-3.66247E+03-1.10128E+04-8.55629E+03 1.53915E+05-8.64020E-11 5.45697E-10
 -1       159-1.49305E+03-9.47929E+03-5.94243E+03 1.39912E+05-9.00400E-11 2.36014E-10
 -1       160-3.21076E+03-1.09463E+04-7.81170E+03 1.54072E+05-2.84672E-10 6.83258E-11
 -1       161-8.67683E+03-8.81367E+03-1.34596E+04 1.39984E+05-1.11868E-10 2.66368E-10
 -1       169-6.48868E+02 1.08731E+05-1.29003E+03 1.20183E+05-3.43789E-10-9.81345E-10
 -1       170-3.46227E+02 1.08413E+05-1.40899E+03 1.31845E+05-4.73847E-10 1.38243E-10
 -1       171-5.23828E+02 1.08630E+05-2.20894E+03 1.19918E+05-6.68479E-10-2.50111E-10
 -1       172-2.13350E+03 1.07720E+05-4.67241E+03 1.32121E+05-9.09495E-11 2.00089E-11
 -1       173-6.25454E+03 1.09147E+05-9.41098E+03 1.19910E+05-7.43057E-10-5.01814E-10
 -1       215 5.01611E+05 1.03288E+04 1.63893E+04 3.36797E+05-6.54836E-11-8.25821E-10
 -1       216 5.03693E+05 3.47987E+03 8.65605E+03 3.69637E+05-2.72848E-11 3.80169E-10
 -1       217 5.01751E+05 8.03563E+02 5.01895E+03 3.36098E+05 6.18456E-11 3.18323E-10
 -1       218 5.02174E+05 8.12527E+02 4.99530E+03 3.70354E+05-3.27418E-11-1.09139E-09
 -1       219 5.01339E+05 1.70451E+03 7.26098E+03 3.36061E+05 4.20641E-11 2.87400E-10
 -1       220 5.04064E+05 6.96972E+03 1.48912E+04 3.69998E+05 1.65528E-10 5.11136E-10
 -1       221 4.99785E+05 1.98523E+04 2.96888E+04 3.36469E+05 3.27418E-10-1.79716E-09
 -1       222-1.79157E+04 9.68540E+04-2.69850E+04 2.34768E+05 1.61890E-10 1.75078E-10
 -1       223-5.62843E+03 9.27205E+04-1.24012E+04 2.58291E+05 1.32786E-10 1.43928E-09
 -1       224-4.69500E+02 9.50742E+04-3.88239E+03 2.34596E+05-3.09228E-11 8.11269E-10
 -1       225 2.24738E+03 9.54114E+04 1.71021E+03 2.58096E+05-3.23780E-10-9.82254E-10
 -1       226 6.59059E+03 9.45300E+04 8.14690E+03 2.34934E+05 1.81899E-12-1.95723E-09
 -1       227 6.02120E+05 2.72683E+04 4.09569E+04 2.43162E+05-1.56433E-10 6.54836E-10
 -1       228 6.08107E+05 9.52054E+03 2.08503E+04 2.66997E+05-6.00267E-11 1.20963E-10
 -1       229 6.04239E+05 2.37908E+03 1.08088E+04 2.42704E+05 2.61934E-10 9.45874E-11
 -1       230 6.05392E+05 1.50592E+03 8.66114E+03 2.67441E+05 1.71667E-10 8.18545E-11
 -1       231 6.04181E+05 2.33349E+03 1.05446E+04 2.42692E+05-8.00355E-11-2.27374E-10
 -1       232 6.07827E+05 9.22426E+03 2.01104E+04 2.67111E+05-8.18545E-11-2.54659E-11
 -1       233 6.02033E+05 2.62969E+04 3.93881E+04 2.43050E+05 2.27374E-11-6.04814E-10
 -1       234-2.03248E+04-5.97155E+04-3.13795E+04 3.78215E+05 3.89264E-10 3.54703E-10
 -1       235-6.62872E+03-6.48265E+04-1.62476E+04 4.15846E+05 5.49335E-10 6.61657E-10
 -1       236-1.60246E+03-6.18729E+04-9.06379E+03 3.77812E+05 4.63842E-10 6.15842E-10
 -1       237-2.39080E+03-6.34591E+04-8.71415E+03 4.15840E+05 5.74801E-10 4.82032E-10
 -1       238-7.18296E+03-6.10736E+04-1.26214E+04 3.78215E+05 5.52973E-10-1.35151E-09
 -1       239 5.72484E+05 2.41246E+04 3.61576E+04 1.82907E+05 2.03727E-10 6.00267E-10
 -1       240 5.77824E+05 8.42973E+03 1.84383E+04 2.00864E+05 3.20142E-10-3.36513E-10
 -1       241 5.74471E+05 2.11209E+03 9.63201E+03 1.82575E+05 1.44610E-10-4.13820E-10
 -1       242 5.75538E+05 1.35016E+03 7.84830E+03 2.01186E+05-6.74390E-10 1.01863E-10
 -1       243 5.74439E+05 2.15807E+03 9.72574E+03 1.82569E+05-1.44792E-09-1.01136E-09
 -1       244 5.77807E+05 8.59141E+03 1.86982E+04 2.00924E+05-5.89353E-10-9.02219E-10
 -1       245 5.72366E+05 2.45430E+04 3.67130E+04 1.82849E+05 2.26464E-10-6.12090E-10
 -1       246-2.31720E+04-8.07466E+04-3.55191E+04 3.41208E+05-7.09406E-10-1.06775E-09
 -1       247-7.89629E+03-8.64653E+04-1.87921E+04 3.75131E+05-9.93168E-10-1.62618E-09
 -1       248-2.37774E+03-8.30600E+04-1.12248E+04 3.40833E+05-6.76664E-10-5.47288E-10
 -1       249-4.13028E+03-8.52866E+04-1.21244E+04 3.75155E+05-1.29512E-09-1.19280E-09
 -1       250-1.15135E+04-8.20023E+04-1.89155E+04 3.41181E+05-4.27463E-10-1.79443E-09
 -1       251 5.04661E+05 1.95866E+04 2.93447E+04 1.45532E+05-8.18545E-12 9.34961E-10
 -1       252 5.09010E+05 6.84488E+03 1.49894E+04 1.59835E+05-4.77485E-11-5.38421E-10
 -1       253 5.06308E+05 1.71679E+03 7.88258E+03 1.45275E+05 1.76442E-10-9.09495E-10
 -1       254 5.07195E+05 1.11405E+03 6.51574E+03 1.60085E+05 2.09695E-10 1.04410E-09
 -1       255 5.06280E+05 1.82434E+03 8.19123E+03 1.45271E+05 1.05501E-10 1.78261E-10
 -1       256 5.09125E+05 7.29404E+03 1.58491E+04 1.59871E+05 2.29193E-10-5.85715E-10
 -1       257 5.04492E+05 2.08570E+04 3.11764E+04 1.45498E+05 5.45697E-11 6.82121E-12
 -1       258-2.08676E+04-5.23821E+04-3.18993E+04 2.84329E+05-2.85581E-10-2.18643E-09
 -1       259-7.25230E+03-5.74854E+04-1.70556E+04 3.12575E+05-1.54614E-10-1.09640E-09
 -1       260-2.37374E+03-5.43921E+04-1.05091E+04 2.84007E+05-3.61979E-10-5.56156E-10
 -1       261-4.32785E+03-5.65876E+04-1.18908E+04 3.12615E+05-2.21917E-10 3.59023E-10
 -1       262-1.18236E+04-5.33807E+04-1.90373E+04 2.84288E+05-2.25327E-10-2.48292E-10
 -1       263 4.29748E+05 1.53873E+04 2.30568E+04 1.21558E+05-1.19144E-10-9.98625E-10
 -1       264 4.33169E+05 5.37792E+03 1.18001E+04 1.33518E+05-1.12777E-10 6.02085E-10
 -1       265 4.31053E+05 1.35084E+03 6.25030E+03 1.21350E+05 1.34605E-10-2.98314E-10
 -1       266 4.31764E+05 8.93797E+02 5.24605E+03 1.33722E+05 3.24974E-10-1.11413E-09
 -1       267 4.31026E+05 1.49742E+03 6.69235E+03 1.21348E+05 3.98813E-10-5.41149E-10
 -1       268 4.33363E+05 6.00712E+03 1.30321E+04 1.33538E+05 3.66981E-10 1.13687E-09
 -1       269 4.29543E+05 1.71878E+04 2.56800E+04 1.21540E+05-9.09495E-11 2.74667E-10
 -1       270-1.74021E+04-2.10449E+04-2.66009E+04 2.38711E+05-1.74623E-10-1.42791E-09
 -1       271-6.12221E+03-2.52930E+04-1.43752E+04 2.62408E+05 3.65617E-10-1.78261E-10
 -1       272-2.12842E+03-2.26825E+04-9.13459E+03 2.38434E+05-1.43700E-10-1.03000E-09
 -1       273-4.08447E+03-2.46798E+04-1.07855E+04 2.62456E+05 3.47427E-10-5.52063E-10
 -1       274-1.11068E+04-2.17573E+04-1.76606E+04 2.38663E+05-6.20730E-11-1.19599E-09
 -1       275 3.60207E+05 1.21148E+04 1.81747E+04 1.05274E+05 1.38243E-10-1.49157E-10
 -1       276 3.62904E+05 4.23457E+03 9.34621E+03 1.15641E+05 1.04137E-10 4.35648E-10
 -1       277 3.61235E+05 1.06767E+03 5.03693E+03 1.05098E+05-9.32232E-11 2.43745E-10
 -1       278 3.61823E+05 7.43053E+02 4.37985E+03 1.15814E+05-2.71385E-10-7.42148E-10
 -1       279 3.61198E+05 1.30611E+03 5.76924E+03 1.05097E+05-3.91083E-11 4.44743E-10
 -1       280 3.63243E+05 5.26865E+03 1.13878E+04 1.15651E+05-6.00267E-11 4.84761E-10
 -1       281 3.59889E+05 1.50864E+04 2.25204E+04 1.05266E+05-5.50244E-11-2.35787E-10
 -1       282-1.41930E+04-1.17492E+03-2.17507E+04 2.05153E+05-2.32831E-10-8.59472E-10
 -1       283-5.04815E+03-4.65463E+03-1.19407E+04 2.25506E+05-6.73026E-11-6.77574E-11
 -1       284-1.87982E+03-2.48342E+03-7.92706E+03 2.04909E+05-3.11047E-10 4.17231E-10
 -1       285-3.88010E+03-4.31814E+03-9.89410E+03 2.25558E+05 3.63798E-11 1.57343E-10
 -1       286-1.05924E+04-1.60330E+03-1.66527E+04 2.05101E+05-1.75532E-10-4.76575E-10
 -1       287 2.96698E+05 1.04605E+04 1.57018E+04 1.03154E+05-1.35515E-10 1.80080E-10
 -1       288 2.99027E+05 3.65837E+03 8.09086E+03 1.13317E+05 2.38970E-10-6.88033E-10
 -1       289 2.97580E+05 9.25576E+02 4.39092E+03 1.02983E+05 2.50111E-10 3.75167E-10
 -1       290 2.98098E+05 6.58868E+02 3.87118E+03 1.13485E+05 2.21746E-10 2.11003E-10
 -1       291 2.97543E+05 1.17524E+03 5.15995E+03 1.02983E+05 1.66892E-10 5.37511E-10
 -1       292 2.99386E+05 4.74292E+03 1.02349E+04 1.13322E+05 1.59162E-10 9.18590E-10
 -1       293 2.96368E+05 1.35796E+04 2.02658E+04 1.03150E+05-7.73070E-11 3.35604E-10
 -1       294-1.28411E+04-2.31657E+04-1.98077E+04 1.89926E+05-6.33008E-10-1.44610E-10
 -1       295-4.64552E+03-2.63490E+04-1.12034E+04 2.08771E+05-1.27602E-09 4.60204E-10
 -1       296-1.93695E+03-2.43084E+04-8.02989E+03 1.89701E+05-8.64929E-10-1.58252E-10
 -1       297-4.46978E+03-2.63249E+04-1.09151E+04 2.08818E+05-1.36060E-09-2.94449E-10
 -1       298-1.23135E+04-2.32656E+04-1.90881E+04 1.89880E+05-8.34461E-10-5.41149E-11
 -1       299 2.09346E+05 7.22047E+03 1.07083E+04 1.53654E+05-8.64929E-10-1.56433E-10
 -1       300 2.10899E+05 2.54225E+03 5.28114E+03 1.68904E+05-2.04841E-09 7.51243E-10
 -1       301 2.09928E+05 6.32360E+02 2.40560E+03 1.53446E+05-1.15585E-09-8.82210E-11
 -1       302 2.10143E+05 2.53748E+02 1.33072E+03 1.69099E+05 4.67480E-10 2.56478E-10
 -1       303 2.10038E+05 1.13208E+02 8.69174E+02 1.53456E+05 4.42924E-10-2.80124E-10
 -1       304 2.10261E+05 3.36700E+02 9.99323E+02 1.68803E+05 2.89219E-10-3.77440E-10
 -1       305 2.10107E+05 9.38727E+02 1.59113E+03 1.53743E+05-1.12777E-10-1.27147E-09
 -1       306-1.24150E+04-6.05178E+04-1.94321E+04 2.24983E+05-2.29193E-10-4.26553E-10
 -1       307-4.55584E+03-6.36909E+04-1.14932E+04 2.47368E+05-3.34694E-10 7.69433E-10
 -1       308-2.18239E+03-6.15882E+04-9.12323E+03 2.24746E+05-1.45519E-10 8.33950E-10
 -1       309-5.76224E+03-6.40787E+04-1.36368E+04 2.47368E+05-4.45652E-10 6.12999E-10
 -1       310-1.61553E+04-6.01294E+04-2.47694E+04 2.24984E+05-1.46883E-10-2.31012E-10
 -1       318 5.53943E+03 2.66598E+05 7.21963E+03 3.23249E+05-8.69477E-10-9.85892E-10
 -1       319 2.08944E+03 2.67508E+05 2.61577E+03 3.55695E+05 1.23691E-10 3.52884E-10
 -1       320 1.79529E+02 2.67168E+05-7.48060E+02 3.23055E+05-7.36691E-10 2.56296E-09
 -1       321-2.15160E+03 2.66486E+05-4.66808E+03 3.55403E+05 9.02219E-10 1.50339E-09
 -1       322-7.42898E+03 2.68421E+05-1.09350E+04 3.23540E+05-5.92991E-10-7.74889E-10
 -1       364 9.52076E+04 5.86870E+03 9.20473E+03 2.53844E+05-9.09495E-11 5.56611E-10
 -1       365 9.64000E+04 1.95885E+03 4.64042E+03 2.78662E+05 1.11868E-10 1.90994E-10
 -1       366 9.53366E+04 4.10198E+02 2.27873E+03 2.53346E+05 2.71029E-10 5.20231E-10
 -1       367 9.54799E+04 2.20226E+02 1.60678E+03 2.79174E+05 1.54159E-10-1.16779E-09
 -1       368 9.52331E+04 2.86013E+02 1.65997E+03 2.53324E+05 3.80851E-11 5.23869E-10
 -1       369 9.58122E+04 1.23150E+03 2.90850E+03 2.78873E+05-5.45697E-11-3.09228E-10
 -1       370 9.50911E+04 3.54991E+03 5.53002E+03 2.53650E+05 5.27507E-11-7.65795E-10
 -1       371-1.25151E+04-1.65596E+05-1.87325E+04 1.42590E+05-2.71029E-10 4.64297E-10
 -1       372-4.08308E+03-1.68431E+05-8.80056E+03 1.56896E+05-1.44610E-10-2.27674E-09
 -1       373-5.78848E+02-1.66803E+05-3.16065E+03 1.42484E+05-9.18590E-11-7.97172E-10
 -1       374 8.99344E+02-1.66772E+05 9.48113E+01 1.56783E+05-6.00267E-11 5.09317E-11
 -1       375 2.96534E+03-1.67122E+05 3.41635E+03 1.42688E+05-5.00222E-11 2.81034E-10
 -1       376 1.92713E+05 1.06320E+04 1.60803E+04 2.47642E+05-8.91305E-11 1.81899E-10
 -1       377 1.94960E+05 3.71670E+03 8.13673E+03 2.71962E+05-2.82853E-10-4.29281E-10
 -1       378 1.93341E+05 9.30817E+02 4.09705E+03 2.47200E+05-1.13687E-10 7.83984E-10
 -1       379 1.93721E+05 5.71055E+02 3.07040E+03 2.72404E+05-5.66160E-11-3.45608E-10
 -1       380 1.93315E+05 7.55385E+02 3.45656E+03 2.47190E+05-1.22782E-10 7.27596E-11
 -1       381 1.94534E+05 2.87504E+03 6.34817E+03 2.72053E+05-3.68345E-11 4.03816E-10
 -1       382 1.92826E+05 8.11514E+03 1.22781E+04 2.47556E+05 5.45697E-12-2.99224E-10
 -1       383-6.82450E+03-5.49228E+04-1.07386E+04 2.83112E+05 2.17369E-10-6.31189E-10
 -1       384-1.98435E+03-5.66915E+04-5.26563E+03 3.11374E+05 4.72937E-10-2.30762E-09
 -1       385-1.50211E+02-5.57029E+04-2.39078E+03 2.82855E+05 4.45652E-10-1.84400E-09
 -1       386 1.99685E+02-5.58960E+04-1.31615E+03 3.11281E+05 4.45652E-10 1.90994E-10
 -1       387-2.25948E+00-5.55008E+04-9.07893E+02 2.83201E+05 2.38288E-10 6.05723E-10
 -1       388 2.46445E+05 1.20266E+04 1.80694E+04 2.08699E+05-6.18456E-11 6.54836E-11
 -1       389 2.49042E+05 4.21305E+03 9.15282E+03 2.29221E+05 3.18323E-11 7.23048E-10
 -1       390 2.47305E+05 1.06063E+03 4.64515E+03 2.08336E+05 1.26420E-10 3.01952E-10
 -1       391 2.47775E+05 6.44380E+02 3.54537E+03 2.29579E+05-1.37561E-10 7.40329E-10
 -1       392 2.47306E+05 8.94389E+02 4.08813E+03 2.08332E+05-1.31877E-10-1.01863E-10
 -1       393 2.48725E+05 3.45517E+03 7.59856E+03 2.29270E+05-1.05501E-10-7.78527E-10
 -1       394 2.46611E+05 9.80359E+03 1.47630E+04 2.08652E+05-3.18323E-11 3.25599E-10
 -1       395-8.59539E+03-4.22235E+04-1.33823E+04 2.88853E+05-6.33008E-10 5.14774E-10
 -1       396-2.69109E+03-4.44172E+04-6.82039E+03 3.17665E+05-8.71296E-10-1.85173E-09
 -1       397-5.17387E+02-4.31548E+04-3.60845E+03 2.88581E+05-5.69344E-10-4.36557E-10
 -1       398-6.37565E+02-4.36811E+04-3.11571E+03 3.17591E+05-1.02227E-09-2.29193E-10
 -1       399-2.18738E+03-4.27829E+04-4.16055E+03 2.88924E+05-4.78394E-10 1.26784E-09
 -1       400 2.69829E+05 1.14998E+04 1.72510E+04 1.78858E+05-1.34605E-10-1.26420E-09
 -1       401 2.72334E+05 4.02717E+03 8.75357E+03 1.96458E+05-4.38376E-10-1.31877E-10
 -1       402 2.70703E+05 1.01291E+03 4.47845E+03 1.78553E+05-3.61069E-10 2.33740E-10
 -1       403 2.71171E+05 6.21188E+02 3.48297E+03 1.96760E+05-2.44768E-10-1.16415E-10
 -1       404 2.70707E+05 9.00064E+02 4.10553E+03 1.78550E+05 4.00178E-11-1.47338E-10
 -1       405 2.72128E+05 3.51682E+03 7.71316E+03 1.96488E+05 1.70530E-10-6.36646E-11
 -1       406 2.69948E+05 1.00079E+04 1.50378E+04 1.78830E+05 4.82032E-11-6.59384E-10
 -1       407-9.54936E+03-2.28684E+04-1.47709E+04 2.61620E+05-2.24645E-10-2.14641E-10
 -1       408-3.14806E+03-2.52651E+04-7.74263E+03 2.87702E+05-1.78261E-10-9.37462E-10
 -1       409-8.40896E+02-2.38384E+04-4.49981E+03 2.61368E+05-3.34694E-10-6.98492E-10
 -1       410-1.42869E+03-2.46610E+04-4.64973E+03 2.87647E+05-3.54703E-10-9.01309E-10
 -1       411-4.19068E+03-2.33531E+04-7.07157E+03 2.61673E+05-4.61114E-10 8.18545E-11
 -1       412 2.75217E+05 1.03935E+04 1.55832E+04 1.56765E+05-1.16415E-10 2.23736E-10
 -1       413 2.77490E+05 3.63825E+03 7.91871E+03 1.72200E+05-1.40972E-10 2.94676E-10
 -1       414 2.76032E+05 9.14060E+02 4.07655E+03 1.56502E+05 1.59162E-11 1.36424E-10
 -1       415 2.76465E+05 5.65982E+02 3.21578E+03 1.72459E+05 3.91850E-10 1.16415E-09
 -1       416 2.76036E+05 8.44846E+02 3.85097E+03 1.56500E+05 5.36602E-11 5.38421E-10
 -1       417 2.77369E+05 3.32774E+03 7.28947E+03 1.72218E+05-2.68301E-11-3.78350E-10
 -1       418 2.75294E+05 9.48868E+03 1.42444E+04 1.56748E+05-5.82077E-11-2.93767E-10
 -1       419-9.40695E+03 8.53752E+02-1.45218E+04 2.33519E+05-1.13687E-10 5.62068E-10
 -1       420-3.18592E+03-1.49495E+03-7.75783E+03 2.56781E+05 5.32964E-10-3.02862E-10
 -1       421-9.83217E+02-6.91519E+01-4.77699E+03 2.33287E+05-6.54836E-11 3.75167E-12
 -1       422-1.86949E+03-1.04462E+03-5.39877E+03 2.56749E+05 2.83762E-10 4.79758E-10
 -1       423-5.31065E+03 4.66220E+02-8.64876E+03 2.33550E+05-1.56888E-10 6.74845E-10
 -1       424 2.80035E+05 9.83855E+03 1.47535E+04 1.33899E+05 1.81899E-10-2.91038E-11
 -1       425 2.82201E+05 3.43868E+03 7.51694E+03 1.47084E+05 1.51886E-10 8.36735E-11
 -1       426 2.80831E+05 8.60552E+02 3.91157E+03 1.33674E+05 3.59250E-11-7.91260E-11
 -1       427 2.81258E+05 5.44110E+02 3.16098E+03 1.47305E+05-1.20167E-10 3.01952E-10
 -1       428 2.80828E+05 8.54130E+02 3.88335E+03 1.33673E+05-4.54747E-12 1.90994E-11
 -1       429 2.82177E+05 3.40409E+03 7.43803E+03 1.47099E+05-1.18234E-10 2.34650E-10
 -1       430 2.80034E+05 9.73076E+03 1.45858E+04 1.33885E+05-1.52795E-10-3.83807E-10
 -1       431-8.84742E+03 2.18233E+04-1.35900E+04 2.00483E+05-1.81899E-10 9.11314E-10
 -1       432-3.03246E+03 1.96381E+04-7.24903E+03 2.20424E+05 4.91127E-11 6.29143E-10
 -1       433-9.54230E+02 2.09648E+04-4.43820E+03 2.00269E+05-3.32875E-10-1.58843E-09
 -1       434-1.75260E+03 2.00494E+04-4.97500E+03 2.20423E+05 9.09495E-12-1.00954E-10
 -1       435-4.87906E+03 2.14112E+04-7.92730E+03 2.00482E+05-2.93767E-10 2.24645E-10
 -1       436 3.27588E+05 1.32085E+04 1.97650E+04 1.12759E+05 2.36469E-11 9.71340E-10
 -1       437 3.30520E+05 4.60999E+03 1.00381E+04 1.23828E+05 3.05135E-10 5.30235E-10
 -1       438 3.28706E+05 1.14567E+03 5.16770E+03 1.12556E+05 5.86624E-11 5.06589E-10
 -1       439 3.29269E+05 6.92453E+02 4.07525E+03 1.24031E+05 2.13731E-11 9.27685E-11
 -1       440 3.28706E+05 1.06178E+03 4.88595E+03 1.12551E+05-4.82032E-11 1.02773E-10
 -1       441 3.30359E+05 4.22700E+03 9.25190E+03 1.23873E+05 1.86901E-10-3.61979E-10
 -1       442 3.27672E+05 1.20848E+04 1.80928E+04 1.12717E+05 1.77351E-11-6.41194E-11
 -1       443-1.07418E+04-1.58756E+03-1.61965E+04 1.43536E+05-6.60293E-10-1.47338E-10
 -1       444-3.72141E+03-4.12087E+03-8.31898E+03 1.57748E+05-1.29785E-09-2.33740E-10
 -1       445-1.04935E+03-2.61022E+03-4.48592E+03 1.43352E+05-9.76797E-10-3.38559E-10
 -1       446-1.29852E+03-3.37380E+03-4.03742E+03 1.57810E+05-1.47156E-09 9.48546E-10
 -1       447-3.24633E+03-2.41012E+03-5.53324E+03 1.43473E+05-9.43487E-10 6.87578E-10
 -1       448 4.33966E+05 1.98439E+04 2.94613E+04 1.08171E+05-7.54881E-11-8.76753E-10
 -1       449 4.38344E+05 6.92297E+03 1.45705E+04 1.18676E+05-8.54925E-11 1.21418E-09
 -1       450 4.35684E+05 1.68550E+03 6.74457E+03 1.07931E+05-7.48514E-10-1.08776E-09
 -1       451 4.36286E+05 6.94068E+02 3.94892E+03 1.18923E+05-3.51974E-10-1.44610E-10
 -1       452 4.35821E+05 4.95237E+02 2.99711E+03 1.07916E+05-7.61702E-11-4.07454E-10
 -1       453 4.36492E+05 1.68821E+03 4.12082E+03 1.18824E+05-6.77289E-10-5.93900E-10
 -1       454 4.35445E+05 4.71144E+03 7.22193E+03 1.08030E+05-7.27596E-11 1.86560E-10
 -1       455-1.58550E+04-5.54525E+04-2.36194E+04 1.21330E+05-1.01863E-10-1.71440E-10
 -1       456-5.50040E+03-5.90579E+04-1.17351E+04 1.33457E+05-1.49157E-10-2.38231E-10
 -1       457-1.38923E+03-5.69062E+04-5.55399E+03 1.21227E+05-9.45874E-11-6.83258E-10
 -1       458-9.11772E+02-5.75586E+04-3.56417E+03 1.33402E+05-3.10138E-10 2.98542E-10
 -1       459-1.61453E+03-5.68973E+04-3.27403E+03 1.21382E+05-2.43745E-10 2.08729E-10
 -1       460 6.19808E+05 1.80846E+04 2.70709E+04 2.08369E+05-3.00133E-09-4.83851E-10
 -1       461 6.23667E+05 6.44642E+03 1.39137E+04 2.28414E+05-1.00044E-09-5.07498E-10
 -1       462 6.21010E+05 1.76752E+03 7.45222E+03 2.07846E+05 2.80488E-09 4.12001E-10
 -1       463 6.21714E+05 1.37959E+03 6.41193E+03 2.28972E+05-1.59071E-09-1.08594E-09
 -1       464 6.20735E+05 2.19193E+03 8.35078E+03 2.07800E+05-5.19140E-09-2.48838E-09
 -1       465 6.23568E+05 7.96595E+03 1.64071E+04 2.28860E+05-8.53652E-09-2.07365E-09
 -1       466 6.18760E+05 2.20582E+04 3.23986E+04 2.07939E+05-3.55499E-09-1.26238E-09
 -1       467-1.49798E+04 1.65478E+05-2.17010E+04 1.43991E+05 4.54747E-11 1.83149E-10
 -1       468-4.93646E+03 1.62249E+05-9.40908E+03 1.58472E+05 3.09228E-11 2.81148E-10
 -1       469-4.28170E+02 1.63995E+05-1.72094E+03 1.43915E+05-4.04725E-11 7.36691E-11
 -1       470 2.95464E+03 1.64864E+05 4.67009E+03 1.58320E+05 3.85626E-10-1.29603E-10
 -1       471 9.53087E+03 1.63042E+05 1.33553E+04 1.44147E+05 2.03727E-10-3.41061E-10
 -1       472 3.65104E+05 3.29301E+03 4.89100E+03 1.06381E+05-9.27685E-10-4.02906E-10
 -1       473 3.65772E+05 1.28929E+03 2.85528E+03 1.16795E+05 3.87490E-09 4.09273E-11
 -1       474 3.65300E+05 4.89824E+02 2.18407E+03 1.06194E+05-2.33103E-09-8.57654E-10
 -1       475 3.65608E+05 7.05326E+02 3.01629E+03 1.16989E+05-7.13499E-10 3.29237E-10
 -1       476 3.65143E+05 1.49160E+03 5.25630E+03 1.06188E+05-1.15142E-09-5.52973E-10
 -1       477 3.67188E+05 5.63043E+03 1.14201E+04 1.16842E+05-7.86713E-10-7.63976E-11
 -1       478 3.63762E+05 1.57637E+04 2.31228E+04 1.06329E+05 2.19779E-09-1.95087E-10
 -1       479-2.50396E+04-1.70032E+04-3.67149E+04 2.47596E+05 1.97906E-09-1.81899E-10
 -1       480-8.76693E+03-2.26728E+04-1.78866E+04 2.72130E+05 1.85719E-09 3.90628E-10
 -1       481-2.14251E+03-1.94992E+04-7.78056E+03 2.47299E+05 1.81353E-09-1.75078E-10
 -1       482-6.53245E+02-2.01643E+04-3.54377E+03 2.72245E+05 1.51886E-09-8.68567E-11
 -1       483 6.37440E+01-1.97502E+04-9.96149E+02 2.47506E+05 1.71349E-09-5.25233E-10
 -1       484 1.72832E+05 1.72859E+03 2.54337E+03 6.97457E+04-5.30736E-09-7.81711E-10
 -1       485 1.73185E+05 6.92676E+02 1.51532E+03 7.66352E+04-1.98270E-09-2.28283E-10
 -1       486 1.72946E+05 2.77559E+02 1.21195E+03 6.96445E+04-2.16380E-09-5.04770E-10
 -1       487 1.73130E+05 4.13109E+02 1.73790E+03 7.67348E+04-2.76486E-10 2.54659E-10
 -1       488 1.72862E+05 8.78381E+02 3.07577E+03 6.96466E+04-2.10821E-09 4.09273E-11
 -1       489 1.74072E+05 3.31323E+03 6.71211E+03 7.66100E+04-5.29531E-09-1.47793E-10
 -1       490 1.72053E+05 9.27708E+03 1.36046E+04 6.97627E+04-3.37423E-10-3.32534E-10
 -1       491-1.74898E+04-8.51943E+04-2.57689E+04 1.86291E+05-3.07773E-09-3.51065E-10
 -1       492-6.27983E+03-8.91715E+04-1.30462E+04 2.04764E+05-1.33332E-09-3.09228E-11
 -1       493-1.89274E+03-8.68454E+04-6.67045E+03 1.86074E+05-2.36105E-09 1.58479E-10
 -1       494-1.91744E+03-8.78134E+04-5.32774E+03 2.04833E+05-2.77032E-09-4.77939E-10
 -1       495-3.98741E+03-8.66583E+04-6.54715E+03 1.86236E+05-2.79567E-09-4.78394E-10
 -1       496 5.41943E+04 6.01462E+02 8.99605E+02 3.39816E+04 3.76201E-09-9.38485E-11
 -1       497 5.43228E+04 2.48609E+02 5.93035E+02 3.73807E+04 2.33894E-09 2.02817E-10
 -1       498 5.42347E+04 1.10486E+02 5.69154E+02 3.39478E+04-7.77561E-10-1.37788E-10
 -1       499 5.43364E+04 2.04904E+02 9.26650E+02 3.74095E+04 7.08269E-11 1.60298E-10
 -1       500 5.41851E+04 4.79656E+02 1.71761E+03 3.39529E+04 3.13821E-09-4.59067E-10
 -1       501 5.48733E+04 1.86142E+03 3.79545E+03 3.73286E+04-1.23237E-09-7.58291E-11
 -1       502 5.37194E+04 5.25026E+03 7.71558E+03 3.40251E+04 4.42924E-10-2.70006E-10
 -1       503-9.93113E+03-8.69611E+04-1.47034E+04 1.14994E+05 1.38971E-09-7.65795E-10
 -1       504-3.63670E+03-8.92266E+04-7.67771E+03 1.26395E+05 3.89537E-09 4.28145E-10
 -1       505-1.25783E+03-8.78515E+04-4.37908E+03 1.14859E+05 3.32375E-09 7.87850E-11
 -1       506-1.77697E+03-8.86446E+04-4.38503E+03 1.26435E+05 3.20961E-09 5.94810E-10
 -1       507-4.17306E+03-8.75812E+04-6.50325E+03 1.14959E+05 3.62064E-09-7.18728E-10
 -1       508-5.33341E+03-8.93055E+04-7.98058E+03 5.25583E+04-1.11095E-09 4.32010E-12
 -1       509-1.98594E+03-9.05346E+04-4.33249E+03 5.77590E+04-2.10775E-09 1.12561E-09
 -1       510-7.84510E+02-8.97547E+04-2.78192E+03 5.24931E+04-4.46994E-09-5.37739E-11
 -1       511-1.42037E+03-9.03574E+04-3.33095E+03 5.77845E+04-8.79481E-10-2.66311E-10
 -1       512-3.58209E+03-8.94938E+04-5.48631E+03 5.25344E+04-5.55019E-10-6.07201E-10
 -1       513-7.23472E+04 9.45055E+03 1.42865E+04 2.06689E+05 4.36557E-11 7.16682E-10
 -1       514-7.03128E+04 3.22501E+03 6.96927E+03 2.26864E+05 7.73070E-11 5.27507E-10
 -1       515-7.17579E+04 7.14433E+02 3.00679E+03 2.06268E+05 9.45874E-11-3.72893E-11
 -1       516-7.15627E+04 1.84871E+02 1.32572E+03 2.27295E+05 8.36735E-11-1.61890E-10
 -1       517-7.17286E+04-1.21008E+02 2.47242E+02 2.06247E+05 9.08642E-11 1.74623E-10
 -1       518-7.18368E+04-5.52789E+02-7.30325E+02 2.27062E+05 1.32559E-10 3.87445E-10
 -1       519-7.14639E+04-1.59187E+03-2.09382E+03 2.06500E+05 2.54659E-11 1.61890E-10
 -1       520-1.22929E+04-3.78890E+05-1.83837E+04 2.12047E+05-1.09139E-11 5.32509E-10
 -1       521-3.82272E+03-3.81653E+05-8.20221E+03 2.33334E+05-2.11003E-10 3.85512E-10
 -1       522-1.78340E+02-3.80138E+05-2.04320E+03 2.11892E+05 3.00133E-11-7.63976E-10
 -1       523 2.19261E+03-3.79597E+05 2.57622E+03 2.33171E+05 1.50976E-10-1.03364E-09
 -1       524 6.42533E+03-3.80660E+05 8.45234E+03 2.12196E+05 1.65528E-10-1.04046E-09
 -1       525-2.98674E+04 1.41718E+03 2.22303E+03 1.97713E+05-9.27685E-11 4.85670E-10
 -1       526-2.96402E+04 4.97644E+02 1.05871E+03 2.17135E+05-8.36735E-11 2.05546E-10
 -1       527-2.99467E+04 1.23551E+02 3.83569E+02 1.97364E+05-7.63976E-11-2.16460E-10
 -1       528-2.99698E+04 4.02329E+01 1.42872E+01 2.17490E+05 1.85082E-10 1.58252E-10
 -1       529-2.99483E+04-9.74224E+01-3.64348E+02 1.97356E+05 5.36602E-11 3.81988E-11
 -1       530-3.00746E+04-5.15875E+02-1.02856E+03 2.17211E+05-8.00355E-11 3.32875E-10
 -1       531-2.96550E+04-1.56195E+03-2.21649E+03 1.97643E+05-5.91172E-11 6.03904E-10
 -1       532 7.32547E+02-4.65644E+04 1.57919E+03 2.42618E+05 2.16801E-10-2.92857E-10
 -1       533 1.00434E+03-4.62461E+04 3.07861E+03 2.66926E+05 3.51065E-10 2.14712E-10
 -1       534 1.89481E+03-4.67867E+04 5.99793E+03 2.42441E+05 2.31012E-10-1.06547E-09
 -1       535 6.78048E+03-4.42462E+04 1.34478E+04 2.66760E+05 2.91038E-10-7.31688E-10
 -1       536 1.87227E+04-4.82302E+04 2.73973E+04 2.42783E+05 1.38243E-10-7.07587E-10
 -1       537 5.00329E+04 4.26038E+03 6.40035E+03 1.71396E+05 7.71252E-10 3.12866E-10
 -1       538 5.09169E+04 1.49906E+03 3.17357E+03 1.88264E+05 2.06637E-09 3.12866E-10
 -1       539 5.02727E+04 3.77789E+02 1.46847E+03 1.71106E+05 6.14818E-10 1.81899E-10
 -1       540 5.03864E+04 1.81991E+02 8.61291E+02 1.88555E+05-7.61418E-10-2.21917E-10
 -1       541 5.02978E+04 1.19255E+02 6.45516E+02 1.71102E+05-7.41693E-10-3.62888E-10
 -1       542 5.04991E+04 3.54698E+02 8.78276E+02 1.88297E+05-3.60615E-10-4.36557E-11
 -1       543 5.03432E+04 9.44062E+02 1.51594E+03 1.71365E+05-2.23736E-10 3.15595E-10
 -1       544-2.33664E+02-1.60125E+04-2.13439E+02 2.11084E+05-4.95561E-10-5.48425E-10
 -1       545 3.33864E+02-1.60316E+04 9.79439E+02 2.32222E+05-6.65750E-10 2.11173E-11
 -1       546 9.06321E+02-1.61899E+04 2.60423E+03 2.10926E+05-5.29326E-10-1.17961E-09
 -1       547 3.22816E+03-1.49994E+04 6.19732E+03 2.32087E+05-6.73026E-10-5.54792E-10
 -1       548 8.79628E+03-1.68073E+04 1.27764E+04 2.11218E+05-3.09228E-10-7.31234E-10
 -1       549 1.23485E+05 6.29471E+03 9.42324E+03 1.54999E+05-2.09184E-11 2.54659E-10
 -1       550 1.24838E+05 2.20949E+03 4.72655E+03 1.70270E+05-1.81899E-10-1.03682E-10
 -1       551 1.23939E+05 5.55120E+02 2.30737E+03 1.54743E+05-1.38698E-10 3.49246E-10
 -1       552 1.24159E+05 2.98496E+02 1.59337E+03 1.70524E+05 2.06910E-11 2.49202E-10
 -1       553 1.23967E+05 3.33982E+02 1.61581E+03 1.54742E+05-2.91038E-11 2.93767E-10
 -1       554 1.24502E+05 1.24049E+03 2.79808E+03 1.70281E+05-1.81899E-11 4.13820E-10
 -1       555 1.23765E+05 3.49833E+03 5.31892E+03 1.54988E+05 8.91305E-11 1.38243E-10
 -1       556-3.00180E+03-6.68892E+03-4.72827E+03 1.90223E+05-2.07365E-10 1.79625E-10
 -1       557-9.18021E+02-7.46068E+03-2.41633E+03 2.09270E+05-1.41881E-10-2.59348E-10
 -1       558-1.68025E+02-6.99241E+03-1.29375E+03 1.90080E+05-2.62844E-10-7.43967E-10
 -1       559-2.36474E+02-7.16017E+03-1.14531E+03 2.09150E+05-2.00089E-11 1.01863E-10
 -1       560-8.44862E+02-6.79930E+03-1.56695E+03 1.90341E+05-1.38243E-10-4.19277E-10
 -1       561 1.66733E+05 6.64404E+03 9.96088E+03 1.49730E+05-5.00222E-11-2.94676E-10
 -1       562 1.68171E+05 2.33261E+03 5.04979E+03 1.64503E+05 1.64619E-10-2.19188E-10
 -1       563 1.67230E+05 5.90280E+02 2.57280E+03 1.49492E+05 1.63254E-10 3.94721E-10
 -1       564 1.67499E+05 3.58975E+02 1.98152E+03 1.64737E+05 3.32548E-10 2.76486E-10
 -1       565 1.67246E+05 5.02761E+02 2.30912E+03 1.49493E+05 4.00178E-11-8.82210E-11
 -1       566 1.68056E+05 1.95709E+03 4.31482E+03 1.64492E+05-9.86802E-11-3.62888E-10
 -1       567 1.66855E+05 5.56988E+03 8.39613E+03 1.49739E+05-1.04592E-10-3.22871E-10
 -1       568-4.95871E+03 5.78102E+03-8.06986E+03 1.91556E+05-9.36780E-11-1.90539E-10
 -1       569-1.83205E+03 4.42378E+03-5.15658E+03 2.10720E+05 3.01952E-10-2.12367E-10
 -1       570-1.07828E+03 5.40084E+03-4.74151E+03 1.91405E+05-7.18501E-11-4.16094E-10
 -1       571-3.40743E+03 3.98912E+03-7.90281E+03 2.10616E+05 3.31056E-10 7.07587E-10
 -1       572-9.80498E+03 6.38428E+03-1.49118E+04 1.91659E+05-1.54614E-11-2.49202E-10
 -1       573 1.44706E+05 3.95520E+03 6.01348E+03 1.50179E+05 8.91305E-11 5.27507E-11
 -1       574 1.45554E+05 1.39370E+03 3.16835E+03 1.65025E+05 4.22915E-11 4.32010E-10
 -1       575 1.44963E+05 3.66275E+02 1.84206E+03 1.49952E+05 3.59250E-11 1.70076E-10
 -1       576 1.45193E+05 3.24544E+02 1.83596E+03 1.65247E+05 1.04762E-10 3.16504E-10
 -1       577 1.44938E+05 6.29471E+02 2.68049E+03 1.49956E+05 1.78716E-10-4.63842E-11
 -1       578 1.45981E+05 2.55917E+03 5.50675E+03 1.64988E+05-1.43245E-10 7.82165E-11
 -1       579 1.44391E+05 7.33321E+03 1.09895E+04 1.50215E+05-1.52795E-10-7.46695E-10
 -1       580-4.92640E+03 2.09293E+04-8.57366E+03 2.22028E+05-2.65572E-10-2.06910E-10
 -1       581-2.01867E+03 1.93877E+04-6.58129E+03 2.44205E+05-5.82077E-11-4.39172E-10
 -1       582-1.81677E+03 2.06339E+04-7.76166E+03 2.21837E+05-3.21961E-10-6.22549E-10
 -1       583-6.67151E+03 1.79611E+04-1.47973E+04 2.44119E+05 3.63798E-12-3.26963E-10
 -1       584-1.93153E+04 2.25205E+04-2.90351E+04 2.22114E+05-1.35969E-10-6.29370E-10
 -1       585-1.16816E+04-4.08210E+03-5.92925E+03 1.07636E+05-2.53749E-10 8.83119E-10
 -1       586-1.26160E+04-1.43249E+03-2.85050E+03 1.18111E+05 5.82077E-11 7.43057E-10
 -1       587-1.21424E+04-3.44857E+02-1.16751E+03 1.07409E+05 1.90084E-10-2.47383E-10
 -1       588-1.22554E+04-5.98385E+01-3.75067E+02 1.18356E+05 5.47971E-11-1.18234E-11
 -1       589-1.22466E+04 1.31351E+02 2.36449E+02 1.07394E+05 9.91349E-11-1.47338E-10
 -1       590-1.20401E+04 5.86539E+02 1.06228E+03 1.18255E+05 2.12879E-10 1.69166E-10
 -1       591-1.23863E+04 1.66280E+03 2.40229E+03 1.07509E+05 6.02540E-11 5.28644E-11
 -1       592 2.48845E+02 4.12811E+04 3.87825E+02 2.95735E+05-7.68523E-10 2.70120E-10
 -1       593 7.08408E+02 4.12557E+04 1.49206E+03 3.25193E+05-1.81171E-09 1.66665E-10
 -1       594 1.27686E+03 4.09711E+04 3.24916E+03 2.95441E+05-1.24237E-09 4.97948E-11
 -1       595 4.05018E+03 4.23743E+04 7.46270E+03 3.25149E+05-1.68075E-09-7.45786E-11
 -1       596 1.06358E+04 4.02653E+04 1.52551E+04 2.95776E+05-1.16961E-09-3.74712E-10
 -1       597-4.39561E+04-6.82202E+02-1.05329E+03 7.53126E+04 2.72848E-12-2.76486E-10
 -1       598-4.41412E+04-2.40175E+02-6.72644E+02 8.25089E+04 1.97360E-10-1.41426E-10
 -1       599-4.40721E+04-7.03602E+01-6.20490E+02 7.51000E+04-6.93035E-10-1.36879E-10
 -1       600-4.42106E+04-1.41874E+02-9.82931E+02 8.27468E+04-3.03771E-10 1.00954E-10
 -1       601-4.40593E+04-4.30452E+02-1.80946E+03 7.50751E+04-5.63887E-11 1.82354E-10
 -1       602-4.47974E+04-1.86802E+03-3.99006E+03 8.27435E+04-1.18280E-09-3.52429E-10
 -1       603-4.35746E+04-5.44003E+03-8.11044E+03 7.51049E+04 2.67619E-10-2.60684E-10
 -1       604 1.07266E+03-2.38529E+04 3.38645E+03 1.52210E+05-1.25056E-10-3.05590E-10
 -1       605 1.42928E+03-2.30583E+04 6.32523E+03 1.67414E+05-2.51021E-10-1.25056E-10
 -1       606 3.31987E+03-2.42558E+04 1.22300E+04 1.52077E+05-1.10504E-10-4.24052E-10
 -1       607 1.32555E+04-1.92222E+04 2.73655E+04 1.67351E+05 1.10276E-11 2.65800E-10
 -1       608 3.77718E+04-2.76070E+04 5.57907E+04 1.52274E+05-1.56433E-10-2.78305E-10
 -1       609-5.74688E+04-6.45377E+03-9.69867E+03 1.69371E+05-3.54885E-09 2.14641E-10
 -1       610-5.90517E+04-2.11505E+03-4.81043E+03 1.85849E+05-1.45246E-09-9.37689E-10
 -1       611-5.82853E+04-3.71644E+02-2.28053E+03 1.69007E+05 2.79033E-09-4.92037E-10
 -1       612-5.86025E+04 8.70607E+00-1.43757E+03 1.86237E+05-1.74077E-09-1.33696E-09
 -1       613-5.84283E+04 6.85920E+00-1.28098E+03 1.68983E+05-4.81305E-09-4.60204E-10
 -1       614-5.87960E+04-6.02361E+02-2.02814E+03 1.86081E+05-7.73809E-09-6.41194E-10
 -1       615-5.81670E+04-2.26571E+03-3.76825E+03 1.69164E+05-2.81125E-09-4.77485E-10
 -1       616 2.71264E+03 6.65134E+04 5.77240E+03 1.57819E+05 3.39014E-10-5.45697E-11
 -1       617 1.84735E+03 6.76447E+04 7.08096E+03 1.73608E+05-2.19188E-10 4.69015E-10
 -1       618 3.09539E+03 6.63171E+04 1.17303E+04 1.57694E+05 3.69255E-10 1.91903E-10
 -1       619 1.20416E+04 7.09719E+04 2.52328E+04 1.73521E+05 5.77074E-10-4.97948E-10
 -1       620 3.43579E+04 6.33038E+04 5.09810E+04 1.57922E+05 4.83851E-10-3.21961E-10
 -1       621-1.62830E+04 7.34730E+02 8.49294E+02 1.53450E+05-2.29920E-09-9.20409E-10
 -1       622-1.62462E+04 4.39357E+02 4.65743E+02 1.68497E+05 3.37241E-09-2.08547E-09
 -1       623-1.63772E+04 2.92662E+02 2.90446E+02 1.53169E+05-2.13822E-09-4.07454E-10
 -1       624-1.63907E+04 3.44766E+02 3.23733E+02 1.68788E+05-8.06722E-10-1.43700E-09
 -1       625-1.64206E+04 3.79333E+02 4.98859E+02 1.53160E+05 3.37877E-10-9.06766E-10
 -1       626-1.62233E+04 7.69549E+02 1.04517E+03 1.68586E+05 2.29215E-09-1.48430E-09
 -1       627-1.64672E+04 1.62721E+03 2.08559E+03 1.53370E+05 1.97815E-09-5.63887E-10
 -1       628 1.46115E+03-3.61443E+03 3.44032E+03 2.06772E+05 1.84195E-09-5.60703E-10
 -1       629 1.02858E+03-2.95141E+03 4.39612E+03 2.27421E+05 1.99725E-09 1.73372E-10
 -1       630 1.86627E+03-3.79746E+03 7.41070E+03 2.06591E+05 1.41154E-09-1.78034E-10
 -1       631 7.54592E+03-7.97450E+02 1.60203E+04 2.27344E+05 1.89357E-09-2.81943E-10
 -1       632 2.17049E+04-5.63082E+03 3.23884E+04 2.06867E+05 1.65346E-09 1.46429E-10
 -1       633-5.57046E+03 2.33875E+03 3.28426E+03 1.03193E+05-4.35102E-09-6.27551E-10
 -1       634-5.11491E+03 9.39402E+02 1.67041E+03 1.13371E+05-4.03270E-09-1.24601E-09
 -1       635-5.42360E+03 3.52251E+02 8.59524E+02 1.03029E+05-4.37058E-09-7.39419E-10
 -1       636-5.34558E+03 2.98120E+02 6.77871E+02 1.13537E+05-2.35111E-10-1.05774E-09
 -1       637-5.42125E+03 3.36029E+02 8.09380E+02 1.03029E+05-2.94222E-10-7.35781E-10
 -1       638-5.13854E+03 8.68785E+02 1.53060E+03 1.13371E+05-3.85717E-09-1.89993E-09
 -1       639-5.54921E+03 2.13551E+03 2.98665E+03 1.03193E+05-1.36424E-09-6.79847E-10
 -1       640-9.42111E+01-3.52707E+04 6.26377E+02 1.75618E+05-2.39584E-09-5.10227E-10
 -1       641 1.63916E+02-3.51057E+04 1.64614E+03 1.93155E+05-2.98678E-09-1.78625E-09
 -1       642 7.73851E+02-3.54407E+04 3.42271E+03 1.75465E+05-2.34104E-09-2.93767E-10
 -1       643 3.60100E+03-3.39590E+04 7.78415E+03 1.93090E+05-3.42789E-09 2.92903E-09
 -1       644 1.05866E+04-3.63199E+04 1.59107E+04 1.75694E+05-4.24188E-09 1.07957E-09
 -1       645-2.00643E+03 2.32764E+03 3.38319E+03 5.40449E+04 5.00881E-09-6.00267E-10
 -1       646-1.50571E+03 8.68933E+02 1.74237E+03 5.94150E+04 4.42014E-09-8.30823E-10
 -1       647-1.81423E+03 2.71681E+02 9.43707E+02 5.39748E+04 1.86469E-09-3.30147E-10
 -1       648-1.70217E+03 2.19547E+02 8.28912E+02 5.94825E+04-3.38520E-09-9.95897E-10
 -1       649-1.81641E+03 3.19631E+02 1.10112E+03 5.39789E+04 1.41085E-09-7.48969E-10
 -1       650-1.41984E+03 1.08492E+03 2.18154E+03 5.93758E+04-4.18140E-10-1.62891E-09
 -1       651-2.05834E+03 2.95824E+03 4.31749E+03 5.40799E+04 2.11185E-09-8.03539E-10
 -1       652-4.28559E+02-3.72739E+04-2.95924E+02 1.11494E+05 2.01544E-09-9.28139E-10
 -1       653-1.27606E+02-3.72904E+04 2.92933E+02 1.22627E+05 2.90038E-09-3.56977E-11
 -1       654 1.66014E+02-3.73636E+04 1.00889E+03 1.11397E+05 9.68612E-10 1.01249E-09
 -1       655 1.10026E+03-3.68789E+04 2.48698E+03 1.22586E+05 3.23507E-09 1.88993E-09
 -1       656 3.38780E+03-3.76463E+04 5.16723E+03 1.11539E+05 3.37423E-09 8.54925E-11
 -1       657 4.99079E+02-3.41176E+04 8.45825E+02 5.08468E+04-1.04336E-09-1.64391E-10
 -1       658 1.55940E+02-3.39786E+04 4.97346E+02 5.59309E+04-8.21728E-10 4.25970E-10
 -1       659 5.33199E+01-3.40783E+04 3.87508E+02 5.08060E+04-1.26147E-09 5.02496E-10
 -1       660 1.94996E+02-3.39612E+04 5.70292E+02 5.59041E+04-2.71712E-09-2.00089E-11
 -1       661 6.22673E+02-3.41236E+04 1.02725E+03 5.08738E+04-2.20621E-09 4.26780E-10
 -1       662-5.54357E+05-6.65435E+03-9.92464E+03 1.53856E+05 9.27685E-11 3.69255E-10
 -1       663-5.55897E+05-2.36651E+03-5.38821E+03 1.68828E+05 3.36513E-11 1.04592E-10
 -1       664-5.55102E+05-6.52959E+02-3.47211E+03 1.53532E+05 3.63798E-11 2.10093E-10
 -1       665-5.55624E+05-6.78321E+02-3.99858E+03 1.69180E+05 4.72937E-11 1.89175E-10
 -1       666-5.55042E+05-1.55907E+03-6.40901E+03 1.53510E+05 5.00222E-11 2.00089E-10
 -1       667-5.57453E+05-6.42016E+03-1.35823E+04 1.69036E+05 4.39968E-11 8.54925E-11
 -1       668-5.53333E+05-1.84495E+04-2.73587E+04 1.53671E+05 2.91038E-11 1.36424E-10
 -1       669-3.04567E+05-2.53420E+02-5.11281E+02 1.08812E+05 7.91260E-11 3.53793E-10
 -1       670-3.04659E+05-9.55834E+01-6.04909E+02 1.19493E+05 1.25510E-10 1.70985E-10
 -1       671-3.04635E+05-5.99457E+01-9.89188E+02 1.08617E+05-2.22826E-11 1.96451E-10
 -1       672-3.04849E+05-3.22074E+02-2.00619E+03 1.19694E+05-1.09594E-10 1.01863E-10
 -1       673-3.04509E+05-1.01583E+03-3.96784E+03 1.08611E+05-7.16227E-11-6.91216E-11
 -1       674-3.06093E+05-4.27632E+03-8.91163E+03 1.19545E+05-2.08956E-10 2.42835E-10
 -1       675-3.03344E+05-1.23071E+04-1.81907E+04 1.08763E+05-3.18323E-12 1.20053E-10
 -1       676-8.69253E+04 3.53142E+03 5.14573E+03 9.32865E+04 2.91038E-11-7.54881E-11
 -1       677-8.61677E+04 1.23077E+03 2.32713E+03 1.02465E+05 7.00311E-11-2.21007E-10
 -1       678-8.66358E+04 2.78706E+02 6.39681E+02 9.31272E+04 2.22826E-11-1.37788E-10
 -1       679-8.66521E+04-7.04809E+01-5.05819E+02 1.02626E+05 1.63709E-11-1.93722E-10
 -1       680-8.65216E+04-5.37787E+02-1.89178E+03 9.31253E+04-7.52607E-11 4.09273E-11
 -1       681-8.73705E+04-2.32986E+03-4.73179E+03 1.02486E+05-7.82165E-11 7.68523E-11
 -1       682-8.58651E+04-6.72259E+03-9.87860E+03 9.32654E+04 9.09495E-12 5.88443E-10
 -1       683 1.09167E+05 7.55245E+03 1.11501E+04 8.64986E+04-1.77351E-11-3.22871E-10
 -1       684 1.10823E+05 2.63535E+03 5.39655E+03 9.50271E+04-3.18323E-11-8.73115E-11
 -1       685 1.09826E+05 6.29719E+02 2.26208E+03 8.63583E+04-2.18279E-11 3.40606E-10
 -1       686 1.09993E+05 1.54823E+02 8.49551E+02 9.51656E+04-2.55760E-11-1.64619E-10
 -1       687 1.09941E+05-1.56706E+02-1.68121E+02 8.63582E+04 5.91172E-12 2.06910E-10
 -1       688 1.09679E+05-7.87504E+02-1.37940E+03 9.50267E+04-1.81899E-12 6.04814E-11
 -1       689 1.10199E+05-2.29747E+03-3.27243E+03 8.64966E+04-1.81899E-11 1.45519E-11
 -1       690 3.06597E+05 1.20789E+04 1.78973E+04 9.15723E+04 2.91038E-11 2.18279E-11
 -1       691 3.09258E+05 4.21585E+03 8.80967E+03 1.00623E+05-6.38920E-11 1.22782E-11
 -1       692 3.07665E+05 1.02088E+03 3.99565E+03 9.14328E+04 1.33468E-10 3.16049E-10
 -1       693 3.08016E+05 3.75876E+02 2.17318E+03 1.00757E+05 2.20837E-10 5.09317E-11
 -1       694 3.07795E+05 1.66264E+02 1.36498E+03 9.14354E+04 3.72893E-11 1.28239E-10
 -1       695 3.08032E+05 5.04685E+02 1.47552E+03 1.00599E+05-9.16316E-11-8.04903E-11
 -1       696 3.07730E+05 1.40865E+03 2.28593E+03 9.15919E+04-3.36513E-11 2.18279E-11
 -1       697 5.35345E+05 1.80507E+04 2.73969E+04 1.11285E+05 5.45697E-12 2.91038E-10
 -1       698 5.39446E+05 6.33157E+03 1.47751E+04 1.22329E+05-1.81899E-12 8.73115E-11
 -1       699 5.36878E+05 1.67583E+03 9.28126E+03 1.11133E+05-4.32010E-11-3.68345E-10
 -1       700 5.38194E+05 1.73990E+03 1.03493E+04 1.22469E+05 1.55183E-10 4.36557E-10
 -1       701 5.36570E+05 3.92200E+03 1.62584E+04 1.11141E+05-3.45608E-11 6.91216E-10
 -1       702 5.42775E+05 1.61339E+04 3.42268E+04 1.22254E+05-3.43789E-10 1.85537E-10
 -1       703 5.32444E+05 4.63022E+04 6.88054E+04 1.11371E+05-2.56478E-10-5.16593E-10
 -1       704-8.76877E+05-5.68045E+04-8.43422E+04 6.52558E+04 3.63798E-12 4.80213E-10
 -1       705-8.89581E+05-1.98188E+04-4.20284E+04 7.15549E+04 3.09228E-11 1.66528E-09
 -1       706-8.82049E+05-4.83065E+03-2.00988E+04 6.51118E+04 9.18590E-11-4.00178E-11
 -1       707-8.84095E+05-2.19166E+03-1.30751E+04 7.17443E+04-8.36735E-11 3.54703E-11
 -1       708-8.82444E+05-2.25486E+03-1.21798E+04 6.50946E+04 5.91172E-11-7.63976E-11
 -1       709-8.85898E+05-8.63461E+03-1.99424E+04 7.17215E+04 4.59295E-11-1.01352E-09
 -1       710-8.80302E+05-2.46748E+04-3.73419E+04 6.51344E+04 1.38542E-10-6.47560E-10
 -1       711-7.24229E+05-1.32957E+04-1.99854E+04 4.23567E+04 7.63976E-11 1.99634E-10
 -1       712-7.27207E+05-4.65144E+03-1.04615E+04 4.62907E+04 4.09727E-10-1.18689E-09
 -1       713-7.25429E+05-1.19136E+03-6.00236E+03 4.21888E+04-8.78572E-10 1.35492E-09
 -1       714-7.26182E+05-9.71256E+02-5.84990E+03 4.64915E+04 3.16504E-10-3.22416E-10
 -1       715-7.25342E+05-1.96475E+03-8.44079E+03 4.21602E+04 2.57387E-10-9.20522E-10
 -1       716-7.28417E+05-8.05712E+03-1.72633E+04 4.65567E+04-1.38402E-09 6.24141E-10
 -1       717-7.23274E+05-2.31412E+04-3.44599E+04 4.21346E+04 6.31644E-10-8.84938E-10
 -1       718-5.61377E+05-1.12711E+04-1.70341E+04 1.07036E+05-3.45972E-09 9.31323E-10
 -1       719-5.63969E+05-3.86160E+03-8.88318E+03 1.17400E+05-1.25783E-09-5.18412E-10
 -1       720-5.62485E+05-9.03158E+02-5.04171E+03 1.06772E+05 2.45018E-09-1.55069E-09
 -1       721-5.63150E+05-6.62213E+02-4.82215E+03 1.17687E+05-1.57070E-09-2.75577E-10
 -1       722-5.62458E+05-1.46000E+03-6.86771E+03 1.06748E+05-4.20732E-09 7.50333E-10
 -1       723-5.64962E+05-6.36928E+03-1.39785E+04 1.17631E+05-6.63226E-09 1.87470E-09
 -1       724-5.60773E+05-1.85882E+04-2.78734E+04 1.06842E+05-3.15731E-09 6.81212E-10
 -1       725-3.48751E+05-3.09473E+03-4.94410E+03 1.03525E+05-6.05723E-10-8.46740E-10
 -1       726-3.49524E+05-9.66472E+02-2.76743E+03 1.13683E+05 5.21868E-09-1.10322E-09
 -1       727-3.49094E+05-1.50438E+02-1.93201E+03 1.03325E+05-1.26602E-09-3.77440E-10
 -1       728-3.49406E+05-2.18695E+02-2.44101E+03 1.13890E+05 6.04814E-10-6.23004E-10
 -1       729-3.49012E+05-8.39713E+02-4.09801E+03 1.03318E+05 1.04649E-09-4.04270E-10
 -1       730-3.50590E+05-3.99550E+03-8.80853E+03 1.13764E+05 3.93356E-11 3.71983E-10
 -1       731-3.47891E+05-1.18458E+04-1.78006E+04 1.03461E+05-1.06593E-09-4.98403E-10
 -1       732-1.67852E+05 1.27435E+03 1.64964E+03 6.92115E+04-4.61932E-09-2.46473E-10
 -1       733-1.67612E+05 5.22023E+02 6.35869E+02 7.60711E+04-2.85581E-09 1.68257E-11
 -1       734-1.67754E+05 1.85776E+02-6.62858E+01 6.91088E+04-2.63083E-09-6.23459E-10
 -1       735-1.67823E+05-6.23658E+00-7.64784E+02 7.61725E+04 8.74252E-10 3.24235E-10
 -1       736-1.67668E+05-3.84743E+02-1.82347E+03 6.91115E+04-1.96292E-09-7.17137E-10
 -1       737-1.68433E+05-1.95675E+03-4.26372E+03 7.60518E+04-5.57156E-09-1.91903E-10
 -1       738-1.67097E+05-5.85277E+03-8.77941E+03 6.92342E+04 1.71622E-09-9.13133E-10
 -1       739-5.28022E+04 2.46303E+03 3.56794E+03 3.29928E+04 2.54096E-09-1.76669E-10
 -1       740-5.22640E+04 8.91386E+02 1.72831E+03 3.63031E+04 4.53754E-09-1.49385E-10
 -1       741-5.25814E+04 2.43806E+02 7.28413E+02 3.29618E+04 8.40657E-10-6.66660E-10
 -1       742-5.25202E+04 9.57077E+01 2.82312E+02 3.63306E+04-1.67574E-10-4.02906E-10
 -1       743-5.25415E+04-4.66919E+00-3.20813E+01 3.29675E+04 2.61889E-09-6.45286E-10
 -1       744-5.26128E+04-1.84388E+02-3.92003E+02 3.62517E+04-2.03636E-09-4.49745E-10
 -1       745-5.24678E+04-6.25358E+02-9.45549E+02 3.30413E+04 2.76214E-09-1.01682E-09
 -3
 9999
