
 stresses (elem, integ.pnt.,sxx,syy,szz,sxy,sxz,syz) for set ELALL and time  0.2500000E+00

         1   1  7.642453E+05  2.803037E+06  7.264377E+05 -5.099034E+05  3.630163E+04  2.680575E+05
         1   2  6.177857E+05  2.391812E+06  4.936920E+05 -4.660865E+05  1.200377E+05  1.214059E+05
         1   3  5.104536E+05  2.009906E+06  3.660282E+05 -4.892829E+05  1.388484E+05 -2.512264E+04
         1   4  3.117872E+04 -1.740718E+05  3.350793E+04 -4.868520E+05  3.654654E+04  2.207737E+04
         1   5  9.615616E+03 -1.764361E+05  1.773891E+04 -4.533641E+05  1.202180E+05  1.317129E+04
         1   6  3.407813E+03 -1.734130E+05  1.167080E+04 -4.868879E+05  1.388451E+05  4.283256E+03
         1   7 -7.024793E+05 -3.142895E+06 -6.597938E+05 -4.639068E+05  3.677420E+04 -2.227355E+05
         1   8 -5.989253E+05 -2.738283E+06 -4.584478E+05 -4.406915E+05  1.203943E+05 -9.462848E+04
         1   9 -5.038796E+05 -2.352013E+06 -3.428160E+05 -4.844981E+05  1.388420E+05  3.358959E+04
         1  10  7.642247E+05  2.802959E+06  7.263008E+05 -5.099113E+05  8.775207E-10  2.869295E-09
         1  11  6.177663E+05  2.391792E+06  4.936373E+05 -4.660982E+05 -9.461115E-10  3.293000E-09
         1  12  5.104328E+05  2.009900E+06  3.659908E+05 -4.892801E+05 -1.168731E-09  4.286892E-09
         1  13  3.117715E+04 -1.740727E+05  3.350450E+04 -4.868527E+05  3.492308E-10 -4.299081E-12
         1  14  9.600050E+03 -1.764402E+05  1.771142E+04 -4.533653E+05  1.981920E-09 -5.475908E-12
         1  15  3.387109E+03 -1.734182E+05  1.163454E+04 -4.868884E+05  2.568577E-09  1.252762E-12
         1  16 -7.024941E+05 -3.142948E+06 -6.598900E+05 -4.639002E+05  8.835486E-10 -2.858198E-09
         1  17 -5.989433E+05 -2.738296E+06 -4.584919E+05 -4.406823E+05  1.992581E-09 -3.321402E-09
         1  18 -5.039006E+05 -2.352019E+06 -3.428544E+05 -4.845018E+05  2.215351E-09 -4.250266E-09
         1  19  7.642453E+05  2.803037E+06  7.264377E+05 -5.099034E+05 -3.630163E+04 -2.680575E+05
         1  20  6.177857E+05  2.391812E+06  4.936920E+05 -4.660865E+05 -1.200377E+05 -1.214059E+05
         1  21  5.104536E+05  2.009906E+06  3.660282E+05 -4.892829E+05 -1.388484E+05  2.512264E+04
         1  22  3.117872E+04 -1.740718E+05  3.350793E+04 -4.868520E+05 -3.654654E+04 -2.207737E+04
         1  23  9.615616E+03 -1.764361E+05  1.773891E+04 -4.533641E+05 -1.202180E+05 -1.317129E+04
         1  24  3.407813E+03 -1.734130E+05  1.167080E+04 -4.868879E+05 -1.388451E+05 -4.283256E+03
         1  25 -7.024793E+05 -3.142895E+06 -6.597938E+05 -4.639068E+05 -3.677420E+04  2.227355E+05
         1  26 -5.989253E+05 -2.738283E+06 -4.584478E+05 -4.406915E+05 -1.203943E+05  9.462848E+04
         1  27 -5.038796E+05 -2.352013E+06 -3.428160E+05 -4.844981E+05 -1.388420E+05 -3.358959E+04
         2   1  4.501267E+05  1.756697E+06  3.162321E+05 -4.916508E+05  1.283144E+05 -2.703806E+04
         2   2  3.552693E+05  1.358375E+06  2.413137E+05 -4.536920E+05  1.105638E+05 -4.829302E+04
         2   3  2.666939E+05  9.645124E+05  1.817710E+05 -4.873970E+05  8.519405E+04 -6.956446E+04
         2   4  3.164727E+03 -1.740843E+05  1.036738E+04 -4.879237E+05  1.282977E+05  2.552170E+03
         2   5  2.673687E+03 -1.746357E+05  1.022762E+04 -4.520855E+05  1.104975E+05 -2.571602E+03
         2   6  5.680701E+03 -1.736757E+05  1.428224E+04 -4.879214E+05  8.506842E+04 -7.724577E+03
         2   7 -4.439821E+05 -2.101160E+06 -2.955884E+05 -4.842057E+05  1.282814E+05  3.205393E+04
         2   8 -3.500325E+05 -1.705288E+06 -2.208981E+05 -4.504812E+05  1.104313E+05  4.304158E+04
         2   9 -2.553908E+05 -1.310553E+06 -1.532152E+05 -4.884436E+05  8.494252E+04  5.400673E+04
         2  10  4.501089E+05  1.756692E+06  3.161998E+05 -4.916480E+05  1.553203E-09  5.476553E-08
         2  11  3.552555E+05  1.358370E+06  2.412863E+05 -4.536877E+05  1.036914E-08 -1.057572E-08
         2  12  2.666849E+05  9.645052E+05  1.817483E+05 -4.873922E+05  1.374261E-08 -7.700186E-08
         2  13  3.147051E+03 -1.740888E+05  1.033644E+04 -4.879240E+05 -3.657370E-09  5.813466E-11
         2  14  2.660576E+03 -1.746390E+05  1.020466E+04 -4.520852E+05 -1.273896E-08  6.234645E-11
         2  15  5.672916E+03 -1.736777E+05  1.426854E+04 -4.879208E+05 -2.395489E-08 -1.110017E-11
         2  16 -4.440000E+05 -2.101165E+06 -2.956212E+05 -4.842090E+05  6.276916E-10 -5.455572E-08
         2  17 -3.500461E+05 -1.705293E+06 -2.209245E+05 -4.504850E+05  4.903990E-09  1.054975E-08
         2  18 -2.553993E+05 -1.310558E+06 -1.532342E+05 -4.884473E+05  1.107607E-08  7.692800E-08
         2  19  4.501267E+05  1.756697E+06  3.162321E+05 -4.916508E+05 -1.283144E+05  2.703806E+04
         2  20  3.552693E+05  1.358375E+06  2.413137E+05 -4.536920E+05 -1.105638E+05  4.829302E+04
         2  21  2.666939E+05  9.645124E+05  1.817710E+05 -4.873970E+05 -8.519405E+04  6.956446E+04
         2  22  3.164727E+03 -1.740843E+05  1.036738E+04 -4.879237E+05 -1.282977E+05 -2.552170E+03
         2  23  2.673687E+03 -1.746357E+05  1.022762E+04 -4.520855E+05 -1.104975E+05  2.571602E+03
         2  24  5.680701E+03 -1.736757E+05  1.428224E+04 -4.879214E+05 -8.506842E+04  7.724577E+03
         2  25 -4.439821E+05 -2.101160E+06 -2.955884E+05 -4.842057E+05 -1.282814E+05 -3.205393E+04
         2  26 -3.500325E+05 -1.705288E+06 -2.208981E+05 -4.504812E+05 -1.104313E+05 -4.304158E+04
         2  27 -2.553908E+05 -1.310553E+06 -1.532152E+05 -4.884436E+05 -8.494252E+04 -5.400673E+04
         3   1  2.104901E+05  7.173989E+05  1.470447E+05 -4.893218E+05  6.786878E+04 -7.202618E+04
         3   2  1.320420E+05  3.172647E+05  1.015371E+05 -4.338735E+05  3.852315E+04 -8.837609E+04
         3   3  8.029959E+04 -7.413375E+04  7.328076E+04 -4.505926E+05  8.930164E+03 -1.047260E+05
         3   4  6.823112E+03 -1.720341E+05  1.784045E+04 -4.880371E+05  6.773177E+04 -1.017532E+04
         3   5  1.932833E+04 -1.762017E+05  3.086761E+04 -4.519077E+05  3.837831E+04 -2.601563E+04
         3   6  5.845931E+04 -1.718969E+05  6.077973E+04 -4.879363E+05  8.778447E+03 -4.186479E+04
         3   7 -1.968782E+05 -1.060662E+06 -1.113625E+05 -4.867536E+05  6.759488E+04  5.159072E+04
         3   8 -9.339306E+04 -6.694130E+05 -3.979072E+04 -4.699268E+05  3.822976E+04  3.629740E+04
         3   9  3.662603E+04 -2.696388E+05  4.829428E+04 -5.252739E+05  8.619149E+03  2.098696E+04
         3  10  2.104838E+05  7.173921E+05  1.470264E+05 -4.893178E+05  1.286173E-08  8.616412E-08
         3  11  1.320383E+05  3.172560E+05  1.015196E+05 -4.338708E+05  9.195250E-09  1.525888E-08
         3  12  8.029657E+04 -7.414555E+04  7.326000E+04 -4.505918E+05  2.008591E-09 -5.347880E-08
         3  13  6.818160E+03 -1.720354E+05  1.783164E+04 -4.880365E+05 -2.361049E-08 -5.563148E-11
         3  14  1.932657E+04 -1.762028E+05  3.086357E+04 -4.519069E+05 -1.274781E-08 -7.958624E-11
         3  15  5.845876E+04 -1.718989E+05  6.077630E+04 -4.879360E+05 -2.628566E-09  1.236575E-11
         3  16 -1.968838E+05 -1.060666E+06 -1.113761E+05 -4.867564E+05  1.260519E-08 -8.608896E-08
         3  17 -9.339498E+04 -6.694148E+05 -3.979595E+04 -4.699279E+05  7.423787E-09 -1.522456E-08
         3  18  3.662583E+04 -2.696393E+05  4.829331E+04 -5.252741E+05  1.147135E-09  5.351522E-08
         3  19  2.104901E+05  7.173989E+05  1.470447E+05 -4.893218E+05 -6.786878E+04  7.202618E+04
         3  20  1.320420E+05  3.172647E+05  1.015371E+05 -4.338735E+05 -3.852315E+04  8.837609E+04
         3  21  8.029959E+04 -7.413375E+04  7.328076E+04 -4.505926E+05 -8.930164E+03  1.047260E+05
         3  22  6.823112E+03 -1.720341E+05  1.784045E+04 -4.880371E+05 -6.773177E+04  1.017532E+04
         3  23  1.932833E+04 -1.762017E+05  3.086761E+04 -4.519077E+05 -3.837831E+04  2.601563E+04
         3  24  5.845931E+04 -1.718969E+05  6.077973E+04 -4.879363E+05 -8.778447E+03  4.186479E+04
         3  25 -1.968782E+05 -1.060662E+06 -1.113625E+05 -4.867536E+05 -6.759488E+04 -5.159072E+04
         3  26 -9.339306E+04 -6.694130E+05 -3.979072E+04 -4.699268E+05 -3.822976E+04 -3.629740E+04
         3  27  3.662603E+04 -2.696388E+05  4.829428E+04 -5.252739E+05 -8.619149E+03 -2.098696E+04
         4   1 -1.898788E+06 -5.619469E+05 -3.773681E+05 -6.506420E+05 -2.235037E+05 -8.309165E+04
         4   2 -1.829514E+06 -2.348353E+05 -1.671795E+05 -7.099295E+05 -1.440141E+05 -5.203719E+04
         4   3 -1.892681E+06 -2.629564E+05 -1.115886E+05 -6.888881E+05 -6.394160E+04 -2.253439E+04
         4   4 -1.836060E+06 -4.969402E+05 -3.518767E+05 -5.910973E+05 -2.230560E+05 -8.294256E+04
         4   5 -1.752274E+06 -1.949374E+05 -1.440072E+05 -6.778620E+05 -1.439446E+05 -5.201430E+04
         4   6 -1.800836E+06 -2.480697E+05 -9.042185E+04 -6.843045E+05 -6.424805E+04 -2.264667E+04
         4   7 -1.773324E+06 -4.319208E+05 -3.263851E+05 -5.315448E+05 -2.226082E+05 -8.279337E+04
         4   8 -1.675028E+06 -1.550375E+05 -1.208355E+05 -6.457903E+05 -1.438750E+05 -5.199139E+04
         4   9 -1.708983E+06 -2.331830E+05 -6.925532E+04 -6.797210E+05 -6.455455E+04 -2.275895E+04
         4  10 -1.898843E+06 -5.619678E+05 -3.774753E+05 -6.506570E+05  5.522036E-11  3.050504E-11
         4  11 -1.829537E+06 -2.348438E+05 -1.672237E+05 -7.099356E+05 -2.486418E-09  1.791462E-11
         4  12 -1.892685E+06 -2.629581E+05 -1.115973E+05 -6.888893E+05  1.122021E-09  6.730232E-10
         4  13 -1.836115E+06 -4.969610E+05 -3.519835E+05 -5.911122E+05  1.043254E-09 -2.711862E-12
         4  14 -1.752297E+06 -1.949459E+05 -1.440514E+05 -6.778680E+05 -2.728917E-09 -3.666121E-12
         4  15 -1.800841E+06 -2.480714E+05 -9.043060E+04 -6.843057E+05 -6.942943E-10  2.199213E-10
         4  16 -1.773379E+06 -4.319416E+05 -3.264915E+05 -5.315596E+05  2.187697E-09 -3.273750E-11
         4  17 -1.675051E+06 -1.550460E+05 -1.208797E+05 -6.457963E+05  4.495133E-11 -1.567649E-10
         4  18 -1.708987E+06 -2.331846E+05 -6.926416E+04 -6.797222E+05 -3.146984E-10  2.048506E-10
         4  19 -1.898788E+06 -5.619469E+05 -3.773681E+05 -6.506420E+05  2.235037E+05  8.309165E+04
         4  20 -1.829514E+06 -2.348353E+05 -1.671795E+05 -7.099295E+05  1.440141E+05  5.203719E+04
         4  21 -1.892681E+06 -2.629564E+05 -1.115886E+05 -6.888881E+05  6.394160E+04  2.253439E+04
         4  22 -1.836060E+06 -4.969402E+05 -3.518767E+05 -5.910973E+05  2.230560E+05  8.294256E+04
         4  23 -1.752274E+06 -1.949374E+05 -1.440072E+05 -6.778620E+05  1.439446E+05  5.201430E+04
         4  24 -1.800836E+06 -2.480697E+05 -9.042185E+04 -6.843045E+05  6.424805E+04  2.264667E+04
         4  25 -1.773324E+06 -4.319208E+05 -3.263851E+05 -5.315448E+05  2.226082E+05  8.279337E+04
         4  26 -1.675028E+06 -1.550375E+05 -1.208355E+05 -6.457903E+05  1.438750E+05  5.199139E+04
         4  27 -1.708983E+06 -2.331830E+05 -6.925532E+04 -6.797210E+05  6.455455E+04  2.275895E+04
         5   1 -1.830830E+06 -3.103617E+05 -8.690143E+04 -6.790497E+05 -5.053317E+04 -1.798549E+04
         5   2 -1.816985E+06 -2.568036E+05 -4.397797E+04 -6.802711E+05 -3.245649E+04 -1.138133E+04
         5   3 -1.814143E+06 -2.623410E+05 -2.794831E+04 -6.803490E+05 -1.429464E+04 -5.002940E+03
         5   4 -1.788922E+06 -2.889842E+05 -7.436664E+04 -6.619305E+05 -5.054389E+04 -1.799008E+04
         5   5 -1.780936E+06 -2.418502E+05 -3.387853E+04 -6.690834E+05 -3.252178E+04 -1.140588E+04
         5   6 -1.783941E+06 -2.537988E+05 -2.023933E+04 -6.750931E+05 -1.441471E+04 -5.047827E+03
         5   7 -1.747011E+06 -2.676061E+05 -6.183202E+04 -6.448101E+05 -5.055461E+04 -1.799467E+04
         5   8 -1.744885E+06 -2.268966E+05 -2.377922E+04 -6.578952E+05 -3.258708E+04 -1.143043E+04
         5   9 -1.753737E+06 -2.452567E+05 -1.253043E+04 -6.698371E+05 -1.453479E+04 -5.092715E+03
         5  10 -1.830833E+06 -3.103628E+05 -8.690686E+04 -6.790504E+05  1.855447E-09 -7.287563E-11
         5  11 -1.816987E+06 -2.568040E+05 -4.398020E+04 -6.802714E+05 -1.370577E-09 -4.787022E-10
         5  12 -1.814143E+06 -2.623411E+05 -2.794874E+04 -6.803490E+05 -4.531632E-10 -1.003394E-09
         5  13 -1.788924E+06 -2.889853E+05 -7.437207E+04 -6.619312E+05 -2.141353E-09  2.579468E-11
         5  14 -1.780937E+06 -2.418506E+05 -3.388077E+04 -6.690837E+05 -1.396700E-09 -8.305489E-10
         5  15 -1.783941E+06 -2.537989E+05 -2.023977E+04 -6.750932E+05 -2.269623E-10 -6.584665E-10
         5  16 -1.747014E+06 -2.676071E+05 -6.183745E+04 -6.448108E+05 -3.916478E-09  3.199556E-11
         5  17 -1.744887E+06 -2.268970E+05 -2.378147E+04 -6.578955E+05 -1.449018E-09 -6.898507E-10
         5  18 -1.753737E+06 -2.452568E+05 -1.253088E+04 -6.698372E+05 -3.797926E-10 -1.095415E-09
         5  19 -1.830830E+06 -3.103617E+05 -8.690143E+04 -6.790497E+05  5.053317E+04  1.798549E+04
         5  20 -1.816985E+06 -2.568036E+05 -4.397797E+04 -6.802711E+05  3.245649E+04  1.138133E+04
         5  21 -1.814143E+06 -2.623410E+05 -2.794831E+04 -6.803490E+05  1.429464E+04  5.002940E+03
         5  22 -1.788922E+06 -2.889842E+05 -7.436664E+04 -6.619305E+05  5.054389E+04  1.799008E+04
         5  23 -1.780936E+06 -2.418502E+05 -3.387853E+04 -6.690834E+05  3.252178E+04  1.140588E+04
         5  24 -1.783941E+06 -2.537988E+05 -2.023933E+04 -6.750931E+05  1.441471E+04  5.047827E+03
         5  25 -1.747011E+06 -2.676061E+05 -6.183202E+04 -6.448101E+05  5.055461E+04  1.799467E+04
         5  26 -1.744885E+06 -2.268966E+05 -2.377922E+04 -6.578952E+05  3.258708E+04  1.143043E+04
         5  27 -1.753737E+06 -2.452567E+05 -1.253043E+04 -6.698371E+05  1.453479E+04  5.092715E+03
         6   1 -1.775168E+06 -2.576292E+05 -1.433177E+04 -6.707746E+05 -1.124323E+04 -4.139466E+03
         6   2 -1.769558E+06 -2.427884E+05 -3.686813E+03 -6.638087E+05 -7.017552E+03 -2.937063E+03
         6   3 -1.757037E+06 -2.449992E+05  2.000320E+03 -6.667063E+05 -2.786804E+03 -1.748100E+03
         6   4 -1.782083E+06 -2.595170E+05 -1.610663E+04 -6.719019E+05 -1.132362E+04 -4.169588E+03
         6   5 -1.785190E+06 -2.485272E+05 -7.920982E+03 -6.678913E+05 -7.101298E+03 -2.968432E+03
         6   6 -1.781384E+06 -2.545884E+05 -4.690442E+03 -6.737442E+05 -2.873971E+03 -1.780749E+03
         6   7 -1.788999E+06 -2.614049E+05 -1.788149E+04 -6.730293E+05 -1.140401E+04 -4.199711E+03
         6   8 -1.800821E+06 -2.542660E+05 -1.215518E+04 -6.719739E+05 -7.185042E+03 -2.999800E+03
         6   9 -1.805731E+06 -2.641776E+05 -1.138127E+04 -6.807819E+05 -2.961135E+03 -1.813396E+03
         6  10 -1.775168E+06 -2.576293E+05 -1.433204E+04 -6.707746E+05 -3.000211E-10  2.260482E-10
         6  11 -1.769558E+06 -2.427884E+05 -3.686922E+03 -6.638087E+05 -1.791667E-10  7.816196E-10
         6  12 -1.757037E+06 -2.449992E+05  2.000299E+03 -6.667063E+05  1.489763E-09  6.123381E-10
         6  13 -1.782084E+06 -2.595171E+05 -1.610690E+04 -6.719020E+05  3.304749E-12  5.239701E-11
         6  14 -1.785190E+06 -2.485272E+05 -7.921094E+03 -6.678913E+05  5.928047E-10  8.462603E-10
         6  15 -1.781384E+06 -2.545884E+05 -4.690464E+03 -6.737442E+05  1.630864E-09  5.248306E-10
         6  16 -1.788999E+06 -2.614049E+05 -1.788176E+04 -6.730294E+05  1.065902E-09 -2.475676E-10
         6  17 -1.800821E+06 -2.542660E+05 -1.215530E+04 -6.719739E+05  9.771913E-10  6.939896E-10
         6  18 -1.805731E+06 -2.641777E+05 -1.138129E+04 -6.807819E+05  5.809285E-10 -8.390753E-11
         6  19 -1.775168E+06 -2.576292E+05 -1.433177E+04 -6.707746E+05  1.124323E+04  4.139466E+03
         6  20 -1.769558E+06 -2.427884E+05 -3.686813E+03 -6.638087E+05  7.017552E+03  2.937063E+03
         6  21 -1.757037E+06 -2.449992E+05  2.000320E+03 -6.667063E+05  2.786804E+03  1.748100E+03
         6  22 -1.782083E+06 -2.595170E+05 -1.610663E+04 -6.719019E+05  1.132362E+04  4.169588E+03
         6  23 -1.785190E+06 -2.485272E+05 -7.920982E+03 -6.678913E+05  7.101298E+03  2.968432E+03
         6  24 -1.781384E+06 -2.545884E+05 -4.690442E+03 -6.737442E+05  2.873971E+03  1.780749E+03
         6  25 -1.788999E+06 -2.614049E+05 -1.788149E+04 -6.730293E+05  1.140401E+04  4.199711E+03
         6  26 -1.800821E+06 -2.542660E+05 -1.215518E+04 -6.719739E+05  7.185042E+03  2.999800E+03
         6  27 -1.805731E+06 -2.641776E+05 -1.138127E+04 -6.807819E+05  2.961135E+03  1.813396E+03
         7   1 -1.723441E+06 -2.334116E+05  1.207216E+04 -6.574378E+05 -2.009864E+03 -1.697100E+03
         7   2 -1.719481E+06 -2.248323E+05  1.585103E+04 -6.501299E+05 -7.900874E+02 -1.626082E+03
         7   3 -1.706946E+06 -2.264649E+05  1.852173E+04 -6.530208E+05  4.128916E+02 -1.509889E+03
         7   4 -1.781308E+06 -2.551409E+05 -3.729401E+03 -6.730436E+05 -2.098699E+03 -1.730384E+03
         7   5 -1.785551E+06 -2.497365E+05 -2.170652E+03 -6.680553E+05 -8.678899E+02 -1.655245E+03
         7   6 -1.781223E+06 -2.545463E+05 -1.728933E+03 -6.732657E+05  3.461072E+02 -1.534933E+03
         7   7 -1.839170E+06 -2.768701E+05 -1.953123E+04 -6.886481E+05 -2.187525E+03 -1.763664E+03
         7   8 -1.851617E+06 -2.746405E+05 -2.019272E+04 -6.859789E+05 -9.456832E+02 -1.684404E+03
         7   9 -1.855494E+06 -2.826273E+05 -2.198011E+04 -6.935084E+05  2.793316E+02 -1.559974E+03
         7  10 -1.723441E+06 -2.334116E+05  1.207215E+04 -6.574378E+05  1.453873E-10  2.033536E-10
         7  11 -1.719481E+06 -2.248323E+05  1.585103E+04 -6.501299E+05 -1.070920E-09 -7.933172E-10
         7  12 -1.706946E+06 -2.264649E+05  1.852173E+04 -6.530208E+05  2.691663E-10  6.349416E-10
         7  13 -1.781308E+06 -2.551409E+05 -3.729415E+03 -6.730436E+05 -1.082719E-09 -2.959247E-10
         7  14 -1.785551E+06 -2.497365E+05 -2.170658E+03 -6.680553E+05 -8.472688E-10 -3.111164E-10
         7  15 -1.781223E+06 -2.545463E+05 -1.728938E+03 -6.732657E+05 -3.255046E-10  6.045195E-10
         7  16 -1.839170E+06 -2.768701E+05 -1.953124E+04 -6.886481E+05  2.740904E-10 -5.448809E-10
         7  17 -1.851617E+06 -2.746405E+05 -2.019272E+04 -6.859789E+05 -1.824411E-10  6.469130E-10
         7  18 -1.855494E+06 -2.826273E+05 -2.198012E+04 -6.935084E+05  7.045887E-10  6.871347E-10
         7  19 -1.723441E+06 -2.334116E+05  1.207216E+04 -6.574378E+05  2.009864E+03  1.697100E+03
         7  20 -1.719481E+06 -2.248323E+05  1.585103E+04 -6.501299E+05  7.900874E+02  1.626082E+03
         7  21 -1.706946E+06 -2.264649E+05  1.852173E+04 -6.530208E+05 -4.128916E+02  1.509889E+03
         7  22 -1.781308E+06 -2.551409E+05 -3.729401E+03 -6.730436E+05  2.098699E+03  1.730384E+03
         7  23 -1.785551E+06 -2.497365E+05 -2.170652E+03 -6.680553E+05  8.678899E+02  1.655245E+03
         7  24 -1.781223E+06 -2.545463E+05 -1.728933E+03 -6.732657E+05 -3.461072E+02  1.534933E+03
         7  25 -1.839170E+06 -2.768701E+05 -1.953123E+04 -6.886481E+05  2.187525E+03  1.763664E+03
         7  26 -1.851617E+06 -2.746405E+05 -2.019272E+04 -6.859789E+05  9.456832E+02  1.684404E+03
         7  27 -1.855494E+06 -2.826273E+05 -2.198011E+04 -6.935084E+05 -2.793316E+02  1.559974E+03
         8   1 -1.679257E+06 -2.155288E+05  2.625171E+04 -6.449959E+05  7.768319E+02 -1.574066E+03
         8   2 -1.676246E+06 -2.092599E+05  2.762940E+04 -6.391336E+05  1.904538E+03 -1.477686E+03
         8   3 -1.666606E+06 -2.110955E+05  2.798294E+04 -6.411480E+05  3.001017E+03 -1.297694E+03
         8   4 -1.781660E+06 -2.540998E+05 -1.704521E+03 -6.727425E+05  6.959508E+02 -1.604408E+03
         8   5 -1.785011E+06 -2.503151E+05 -2.048546E+03 -6.687031E+05  1.844097E+03 -1.500381E+03
         8   6 -1.781737E+06 -2.546394E+05 -3.433082E+03 -6.725403E+05  2.961004E+03 -1.312739E+03
         8   7 -1.884054E+06 -2.926701E+05 -2.966166E+04 -7.004850E+05  6.150847E+02 -1.634745E+03
         8   8 -1.893764E+06 -2.913697E+05 -3.172756E+04 -6.982679E+05  1.783668E+03 -1.523072E+03
         8   9 -1.896855E+06 -2.981825E+05 -3.485035E+04 -7.039275E+05  2.920999E+03 -1.327782E+03
         8  10 -1.679257E+06 -2.155288E+05  2.625170E+04 -6.449959E+05  2.258658E-09  8.407163E-10
         8  11 -1.676246E+06 -2.092599E+05  2.762938E+04 -6.391336E+05 -8.549157E-10  3.616895E-10
         8  12 -1.666606E+06 -2.110955E+05  2.798292E+04 -6.411480E+05 -7.610106E-10  1.091154E-10
         8  13 -1.781660E+06 -2.540998E+05 -1.704527E+03 -6.727425E+05  9.711183E-10  7.263271E-10
         8  14 -1.785011E+06 -2.503151E+05 -2.048556E+03 -6.687031E+05 -4.298531E-10  2.096250E-10
         8  15 -1.781737E+06 -2.546394E+05 -3.433102E+03 -6.725403E+05 -8.481894E-10 -1.050682E-11
         8  16 -1.884054E+06 -2.926701E+05 -2.966167E+04 -7.004850E+05 -1.006197E-09  2.440996E-10
         8  17 -1.893764E+06 -2.913697E+05 -3.172757E+04 -6.982679E+05 -1.770560E-09  7.608164E-10
         8  18 -1.896855E+06 -2.981825E+05 -3.485037E+04 -7.039275E+05  3.804721E-10 -2.580333E-11
         8  19 -1.679257E+06 -2.155288E+05  2.625171E+04 -6.449959E+05 -7.768319E+02  1.574066E+03
         8  20 -1.676246E+06 -2.092599E+05  2.762940E+04 -6.391336E+05 -1.904538E+03  1.477686E+03
         8  21 -1.666606E+06 -2.110955E+05  2.798294E+04 -6.411480E+05 -3.001017E+03  1.297694E+03
         8  22 -1.781660E+06 -2.540998E+05 -1.704521E+03 -6.727425E+05 -6.959508E+02  1.604408E+03
         8  23 -1.785011E+06 -2.503151E+05 -2.048546E+03 -6.687031E+05 -1.844097E+03  1.500381E+03
         8  24 -1.781737E+06 -2.546394E+05 -3.433082E+03 -6.725403E+05 -2.961004E+03  1.312739E+03
         8  25 -1.884054E+06 -2.926701E+05 -2.966166E+04 -7.004850E+05 -6.150847E+02  1.634745E+03
         8  26 -1.893764E+06 -2.913697E+05 -3.172756E+04 -6.982679E+05 -1.783668E+03  1.523072E+03
         8  27 -1.896855E+06 -2.981825E+05 -3.485035E+04 -7.039275E+05 -2.920999E+03  1.327782E+03
         9   1 -1.647650E+06 -2.027130E+05  3.248613E+04 -6.359048E+05  3.712854E+03 -1.174965E+03
         9   2 -1.645273E+06 -1.978610E+05  3.056147E+04 -6.319576E+05  7.492195E+03  1.736278E+01
         9   3 -1.641469E+06 -2.035470E+05  2.416783E+04 -6.312529E+05  1.122042E+04  1.345976E+03
         9   4 -1.782628E+06 -2.532962E+05 -4.294015E+03 -6.722186E+05  3.646696E+03 -1.199833E+03
         9   5 -1.783658E+06 -2.502672E+05 -7.231308E+03 -6.697559E+05  7.458844E+03  4.792169E+00
         9   6 -1.783269E+06 -2.577838E+05 -1.466438E+04 -6.705356E+05  1.121984E+04  1.345699E+03
         9   7 -1.917589E+06 -3.038784E+05 -4.107580E+04 -7.085254E+05  3.580554E+03 -1.224695E+03
         9   8 -1.922025E+06 -3.026723E+05 -4.502579E+04 -7.075466E+05  7.425501E+03 -7.775401E+00
         9   9 -1.925049E+06 -3.120192E+05 -5.349837E+04 -7.098101E+05  1.121927E+04  1.345423E+03
         9  10 -1.647650E+06 -2.027130E+05  3.248610E+04 -6.359048E+05  2.900898E-11  6.153454E-10
         9  11 -1.645273E+06 -1.978610E+05  3.056136E+04 -6.319576E+05  1.317166E-09  1.088837E-09
         9  12 -1.641469E+06 -2.035470E+05  2.416759E+04 -6.312529E+05 -9.563786E-10  6.002962E-10
         9  13 -1.782628E+06 -2.532962E+05 -4.294042E+03 -6.722186E+05 -1.190546E-09  4.538268E-10
         9  14 -1.783658E+06 -2.502672E+05 -7.231413E+03 -6.697559E+05 -3.772389E-10  7.302854E-10
         9  15 -1.783269E+06 -2.577838E+05 -1.466462E+04 -6.705356E+05  4.577229E-10  8.927380E-10
         9  16 -1.917589E+06 -3.038784E+05 -4.107583E+04 -7.085254E+05  3.482749E-10  7.564334E-10
         9  17 -1.922026E+06 -3.026723E+05 -4.502590E+04 -7.075466E+05 -2.777191E-09  3.829360E-10
         9  18 -1.925049E+06 -3.120193E+05 -5.349861E+04 -7.098101E+05 -2.469626E-10  9.736215E-10
         9  19 -1.647650E+06 -2.027130E+05  3.248613E+04 -6.359048E+05 -3.712854E+03  1.174965E+03
         9  20 -1.645273E+06 -1.978610E+05  3.056147E+04 -6.319576E+05 -7.492195E+03 -1.736278E+01
         9  21 -1.641469E+06 -2.035470E+05  2.416783E+04 -6.312529E+05 -1.122042E+04 -1.345976E+03
         9  22 -1.782628E+06 -2.532962E+05 -4.294015E+03 -6.722186E+05 -3.646696E+03  1.199833E+03
         9  23 -1.783658E+06 -2.502672E+05 -7.231308E+03 -6.697559E+05 -7.458844E+03 -4.792169E+00
         9  24 -1.783269E+06 -2.577838E+05 -1.466438E+04 -6.705356E+05 -1.121984E+04 -1.345699E+03
         9  25 -1.917589E+06 -3.038784E+05 -4.107580E+04 -7.085254E+05 -3.580554E+03  1.224695E+03
         9  26 -1.922025E+06 -3.026723E+05 -4.502579E+04 -7.075466E+05 -7.425501E+03  7.775401E+00
         9  27 -1.925049E+06 -3.120192E+05 -5.349837E+04 -7.098101E+05 -1.121927E+04 -1.345423E+03
        10   1 -1.632784E+06 -1.967136E+05  2.279739E+04 -6.336872E+05  1.405598E+04  2.306471E+03
        10   2 -1.628123E+06 -1.868302E+05  1.055595E+04 -6.294915E+05  3.035387E+04  8.318854E+03
        10   3 -1.641497E+06 -2.225088E+05 -2.602193E+04 -6.148520E+05  4.651080E+04  1.470647E+04
        10   4 -1.785653E+06 -2.518792E+05 -1.842221E+04 -6.726408E+05  1.398270E+04  2.278946E+03
        10   5 -1.778909E+06 -2.450778E+05 -3.084503E+04 -6.718537E+05  3.036924E+04  8.324509E+03
        10   6 -1.790222E+06 -2.838628E+05 -6.767924E+04 -6.606219E+05  4.661486E+04  1.474511E+04
        10   7 -1.938500E+06 -3.070442E+05 -5.964394E+04 -7.115859E+05  1.390945E+04  2.251427E+03
        10   8 -1.929673E+06 -3.033239E+05 -7.224812E+04 -7.142066E+05  3.038461E+04  8.330162E+03
        10   9 -1.938925E+06 -3.452145E+05 -1.093386E+05 -7.063815E+05  4.671889E+04  1.478374E+04
        10  10 -1.632784E+06 -1.967136E+05  2.279701E+04 -6.336873E+05  7.173029E-10  4.133684E-10
        10  11 -1.628124E+06 -1.868305E+05  1.055409E+04 -6.294917E+05  1.637887E-09 -8.044882E-10
        10  12 -1.641500E+06 -2.225096E+05 -2.602641E+04 -6.148526E+05 -8.061911E-10 -8.801072E-12
        10  13 -1.785653E+06 -2.518793E+05 -1.842259E+04 -6.726408E+05  1.140478E-09 -2.422628E-10
        10  14 -1.778910E+06 -2.450781E+05 -3.084689E+04 -6.718539E+05  2.265790E-09 -9.522522E-10
        10  15 -1.790224E+06 -2.838637E+05 -6.768374E+04 -6.606225E+05  1.557492E-09 -2.786875E-10
        10  16 -1.938500E+06 -3.070442E+05 -5.964431E+04 -7.115859E+05 -5.680823E-10  1.512532E-11
        10  17 -1.929674E+06 -3.033242E+05 -7.224999E+04 -7.142068E+05  1.624082E-09 -8.369088E-10
        10  18 -1.938928E+06 -3.452153E+05 -1.093432E+05 -7.063820E+05  1.231275E-09  5.654630E-10
        10  19 -1.632784E+06 -1.967136E+05  2.279739E+04 -6.336872E+05 -1.405598E+04 -2.306471E+03
        10  20 -1.628123E+06 -1.868302E+05  1.055595E+04 -6.294915E+05 -3.035387E+04 -8.318854E+03
        10  21 -1.641497E+06 -2.225088E+05 -2.602193E+04 -6.148520E+05 -4.651080E+04 -1.470647E+04
        10  22 -1.785653E+06 -2.518792E+05 -1.842221E+04 -6.726408E+05 -1.398270E+04 -2.278946E+03
        10  23 -1.778909E+06 -2.450778E+05 -3.084503E+04 -6.718537E+05 -3.036924E+04 -8.324509E+03
        10  24 -1.790222E+06 -2.838628E+05 -6.767924E+04 -6.606219E+05 -4.661486E+04 -1.474511E+04
        10  25 -1.938500E+06 -3.070442E+05 -5.964394E+04 -7.115859E+05 -1.390945E+04 -2.251427E+03
        10  26 -1.929673E+06 -3.033239E+05 -7.224812E+04 -7.142066E+05 -3.038461E+04 -8.330162E+03
        10  27 -1.938925E+06 -3.452145E+05 -1.093386E+05 -7.063815E+05 -4.671889E+04 -1.478374E+04
        11   1 -1.639152E+06 -2.028636E+05 -4.156370E+04 -6.547444E+05  5.932807E+04  1.922292E+04
        11   2 -1.612572E+06 -1.403422E+05 -9.105031E+04 -6.323742E+05  1.312141E+05  4.617788E+04
        11   3 -1.716848E+06 -3.902678E+05 -2.805203E+05 -5.247560E+05  2.023203E+05  7.520634E+04
        11   4 -1.801495E+06 -2.462122E+05 -8.229480E+04 -6.805080E+05  5.903731E+04  1.911554E+04
        11   5 -1.752178E+06 -2.030127E+05 -1.310743E+05 -6.805584E+05  1.314181E+05  4.625207E+04
        11   6 -1.833845E+06 -4.724047E+05 -3.202544E+05 -5.953512E+05  2.030217E+05  7.545525E+04
        11   7 -1.963812E+06 -2.895615E+05 -1.230277E+05 -7.062669E+05  5.874664E+04  1.900816E+04
        11   8 -1.891765E+06 -2.656796E+05 -1.711000E+05 -7.287318E+05  1.316220E+05  4.632624E+04
        11   9 -1.950825E+06 -5.545268E+05 -3.599894E+05 -6.659307E+05  2.037230E+05  7.570398E+04
        11  10 -1.639156E+06 -2.028650E+05 -4.157103E+04 -6.547453E+05 -4.856130E-10  7.455176E-10
        11  11 -1.612591E+06 -1.403492E+05 -9.108678E+04 -6.323791E+05  1.325654E-10  1.180333E-09
        11  12 -1.716894E+06 -3.902850E+05 -2.806081E+05 -5.247683E+05 -5.952856E-11  5.047028E-11
        11  13 -1.801499E+06 -2.462135E+05 -8.230206E+04 -6.805089E+05 -4.639832E-10  7.997726E-10
        11  14 -1.752197E+06 -2.030197E+05 -1.311109E+05 -6.805633E+05  1.784028E-09  2.722063E-10
        11  15 -1.833891E+06 -4.724219E+05 -3.203429E+05 -5.953636E+05 -2.866452E-10  7.228535E-10
        11  16 -1.963816E+06 -2.895628E+05 -1.230349E+05 -7.062678E+05  3.569741E-10  7.685760E-10
        11  17 -1.891784E+06 -2.656866E+05 -1.711368E+05 -7.287368E+05  9.896802E-10  6.961896E-10
        11  18 -1.950871E+06 -5.545441E+05 -3.600785E+05 -6.659432E+05  2.626718E-10 -8.911315E-11
        11  19 -1.639152E+06 -2.028636E+05 -4.156370E+04 -6.547444E+05 -5.932807E+04 -1.922292E+04
        11  20 -1.612572E+06 -1.403422E+05 -9.105031E+04 -6.323742E+05 -1.312141E+05 -4.617788E+04
        11  21 -1.716848E+06 -3.902678E+05 -2.805203E+05 -5.247560E+05 -2.023203E+05 -7.520634E+04
        11  22 -1.801495E+06 -2.462122E+05 -8.229480E+04 -6.805080E+05 -5.903731E+04 -1.911554E+04
        11  23 -1.752178E+06 -2.030127E+05 -1.310743E+05 -6.805584E+05 -1.314181E+05 -4.625207E+04
        11  24 -1.833845E+06 -4.724047E+05 -3.202544E+05 -5.953512E+05 -2.030217E+05 -7.545525E+04
        11  25 -1.963812E+06 -2.895615E+05 -1.230277E+05 -7.062669E+05 -5.874664E+04 -1.900816E+04
        11  26 -1.891765E+06 -2.656796E+05 -1.711000E+05 -7.287318E+05 -1.316220E+05 -4.632624E+04
        11  27 -1.950825E+06 -5.545268E+05 -3.599894E+05 -6.659307E+05 -2.037230E+05 -7.570398E+04
        12   1  1.698233E+04 -1.545098E+05  1.851105E+04 -1.868731E+02  3.133068E+02 -1.508059E+02
        12   2  1.654248E+04 -1.550388E+05  1.871878E+04  1.795977E+02  3.214031E+02 -1.133634E+03
        12   3  1.780033E+04 -1.547685E+05  2.004035E+04 -1.358186E+02  2.949604E+02 -2.116496E+03
        12   4  1.251835E+02 -2.219363E+05  1.665671E+03 -1.517132E+02  3.133090E+02 -1.526147E+02
        12   5 -2.821926E+02 -2.223357E+05  1.906157E+03  1.895527E+02  3.214050E+02 -1.132863E+03
        12   6  1.007771E+03 -2.219362E+05  3.258771E+03 -1.510733E+02  2.949604E+02 -2.113146E+03
        12   7 -1.673231E+04 -2.893586E+05 -1.518005E+04 -1.165569E+02  3.133113E+02 -1.544233E+02
        12   8 -1.710721E+04 -2.896285E+05 -1.490681E+04  1.995070E+02  3.214069E+02 -1.132093E+03
        12   9 -1.578513E+04 -2.890999E+05 -1.352315E+04 -1.663256E+02  2.949604E+02 -2.109796E+03
        12  10  1.698233E+04 -1.545098E+05  1.851105E+04 -1.868731E+02 -2.800331E-10 -1.506349E-10
        12  11  1.654248E+04 -1.550388E+05  1.871878E+04  1.795980E+02  4.437594E-10 -3.339788E-10
        12  12  1.780033E+04 -1.547686E+05  2.004034E+04 -1.358181E+02 -8.494913E-10  6.694392E-11
        12  13  1.251834E+02 -2.219363E+05  1.665671E+03 -1.517131E+02 -1.090720E-09 -1.572345E-11
        12  14 -2.821930E+02 -2.223357E+05  1.906154E+03  1.895530E+02  7.013893E-10 -5.403313E-12
        12  15  1.007770E+03 -2.219363E+05  3.258762E+03 -1.510728E+02  2.919422E-09  1.309442E-10
        12  16 -1.673231E+04 -2.893586E+05 -1.518005E+04 -1.165569E+02  1.219341E-10  1.341723E-10
        12  17 -1.710721E+04 -2.896285E+05 -1.490681E+04  1.995073E+02  4.361261E-10  2.818745E-10
        12  18 -1.578513E+04 -2.890999E+05 -1.352316E+04 -1.663251E+02  2.248629E-09 -7.935528E-11
        12  19  1.698233E+04 -1.545098E+05  1.851105E+04 -1.868731E+02 -3.133068E+02  1.508059E+02
        12  20  1.654248E+04 -1.550388E+05  1.871878E+04  1.795977E+02 -3.214031E+02  1.133634E+03
        12  21  1.780033E+04 -1.547685E+05  2.004035E+04 -1.358186E+02 -2.949604E+02  2.116496E+03
        12  22  1.251835E+02 -2.219363E+05  1.665671E+03 -1.517132E+02 -3.133090E+02  1.526147E+02
        12  23 -2.821926E+02 -2.223357E+05  1.906157E+03  1.895527E+02 -3.214050E+02  1.132863E+03
        12  24  1.007771E+03 -2.219362E+05  3.258771E+03 -1.510733E+02 -2.949604E+02  2.113146E+03
        12  25 -1.673231E+04 -2.893586E+05 -1.518005E+04 -1.165569E+02 -3.133113E+02  1.544233E+02
        12  26 -1.710721E+04 -2.896285E+05 -1.490681E+04  1.995070E+02 -3.214069E+02  1.132093E+03
        12  27 -1.578513E+04 -2.890999E+05 -1.352315E+04 -1.663256E+02 -2.949604E+02  2.109796E+03
        13   1  1.418844E+04 -1.639869E+05  1.830366E+04 -6.320269E+02  2.866976E+02 -2.769076E+03
        13   2  1.270526E+04 -1.658381E+05  2.037379E+04  5.678382E+02  2.809194E+02 -5.987039E+03
        13   3  2.069065E+04 -1.647299E+05  2.694121E+04 -1.652570E+02  2.324904E+02 -9.205065E+03
        13   4 -1.795487E+02 -2.214559E+05  3.946657E+03 -4.322310E+02  2.866991E+02 -2.769834E+03
        13   5 -1.569332E+03 -2.229352E+05  6.109438E+03  5.384818E+02  2.809191E+02 -5.984468E+03
        13   6  6.509343E+03 -2.214553E+05  1.276748E+04 -4.237766E+02  2.324888E+02 -9.199168E+03
        13   7 -1.454779E+04 -2.789220E+05 -1.041060E+04 -2.324529E+02  2.867006E+02 -2.770592E+03
        13   8 -1.584417E+04 -2.800293E+05 -8.155162E+03  5.091289E+02  2.809187E+02 -5.981898E+03
        13   9 -7.672211E+03 -2.781777E+05 -1.406489E+03 -6.822717E+02  2.324871E+02 -9.193271E+03
        13  10  1.418844E+04 -1.639869E+05  1.830365E+04 -6.320263E+02 -5.823049E-10 -2.680204E-10
        13  11  1.270525E+04 -1.658382E+05  2.037372E+04  5.678396E+02  6.851535E-10 -4.111004E-10
        13  12  2.069063E+04 -1.647300E+05  2.694105E+04 -1.652552E+02 -9.231040E-10  7.164107E-10
        13  13 -1.795509E+02 -2.214559E+05  3.946642E+03 -4.322303E+02  7.515926E-10 -2.027143E-10
        13  14 -1.569342E+03 -2.229352E+05  6.109370E+03  5.384832E+02 -1.727777E-09  1.780832E-12
        13  15  6.509320E+03 -2.214554E+05  1.276732E+04 -4.237749E+02 -4.325642E-10  2.624112E-10
        13  16 -1.454779E+04 -2.789220E+05 -1.041061E+04 -2.324523E+02  1.706164E-09  2.469567E-10
        13  17 -1.584418E+04 -2.800293E+05 -8.155230E+03  5.091303E+02 -3.401602E-10  2.968120E-10
        13  18 -7.672234E+03 -2.781778E+05 -1.406648E+03 -6.822699E+02  1.024476E-10 -7.393020E-10
        13  19  1.418844E+04 -1.639869E+05  1.830366E+04 -6.320269E+02 -2.866976E+02  2.769076E+03
        13  20  1.270526E+04 -1.658381E+05  2.037379E+04  5.678382E+02 -2.809194E+02  5.987039E+03
        13  21  2.069065E+04 -1.647299E+05  2.694121E+04 -1.652570E+02 -2.324904E+02  9.205065E+03
        13  22 -1.795487E+02 -2.214559E+05  3.946657E+03 -4.322310E+02 -2.866991E+02  2.769834E+03
        13  23 -1.569332E+03 -2.229352E+05  6.109438E+03  5.384818E+02 -2.809191E+02  5.984468E+03
        13  24  6.509343E+03 -2.214553E+05  1.276748E+04 -4.237766E+02 -2.324888E+02  9.199168E+03
        13  25 -1.454779E+04 -2.789220E+05 -1.041060E+04 -2.324529E+02 -2.867006E+02  2.770592E+03
        13  26 -1.584417E+04 -2.800293E+05 -8.155162E+03  5.091289E+02 -2.809187E+02  5.981898E+03
        13  27 -7.672211E+03 -2.781777E+05 -1.406489E+03 -6.822717E+02 -2.324871E+02  9.193271E+03
        14   1  8.385149E+03 -1.795769E+05  2.507120E+04 -1.736142E+03  2.311830E+02 -1.175641E+04
        14   2 -4.548964E+02 -1.885487E+05  3.284635E+04  1.280772E+03  2.369948E+02 -2.451289E+04
        14   3  5.115887E+04 -1.806754E+05  6.405616E+04  1.471961E+03  1.262696E+02 -3.726933E+04
        14   4 -1.317030E+03 -2.183703E+05  1.538011E+04 -6.522008E+02  2.311680E+02 -1.175924E+04
        14   5 -1.001359E+04 -2.267899E+05  2.329366E+04  7.973771E+02  2.370067E+02 -2.450665E+04
        14   6  4.174403E+04 -2.183651E+05  5.463658E+04 -5.787725E+02  1.263696E+02 -3.725403E+04
        14   7 -1.101932E+04 -2.571624E+05  5.688913E+03  4.316728E+02  2.311530E+02 -1.176207E+04
        14   8 -1.957240E+04 -2.650298E+05  1.374087E+04  3.140123E+02  2.370187E+02 -2.450041E+04
        14   9  3.232910E+04 -2.560534E+05  4.521691E+04 -2.629381E+03  1.264696E+02 -3.723873E+04
        14  10  8.385112E+03 -1.795770E+05  2.507094E+04 -1.736139E+03  3.757571E-11 -2.699523E-10
        14  11 -4.550578E+02 -1.885493E+05  3.284522E+04  1.280777E+03 -1.071322E-09 -9.742196E-10
        14  12  5.115850E+04 -1.806769E+05  6.405355E+04  1.471965E+03  1.102641E-10  4.642701E-10
        14  13 -1.317068E+03 -2.183705E+05  1.537985E+04 -6.521986E+02  2.499999E-10 -3.446709E-10
        14  14 -1.001375E+04 -2.267906E+05  2.329253E+04  7.973818E+02 -1.051378E-09 -3.313450E-12
        14  15  4.174366E+04 -2.183666E+05  5.463397E+04 -5.787687E+02 -1.402864E-09  3.814233E-10
        14  16 -1.101936E+04 -2.571625E+05  5.688653E+03  4.316749E+02 -1.683581E-09  2.994074E-10
        14  17 -1.957256E+04 -2.650305E+05  1.373974E+04  3.140170E+02 -8.947081E-10  7.623991E-10
        14  18  3.232873E+04 -2.560549E+05  4.521430E+04 -2.629377E+03 -2.942228E-10 -5.117622E-10
        14  19  8.385149E+03 -1.795769E+05  2.507120E+04 -1.736142E+03 -2.311830E+02  1.175641E+04
        14  20 -4.548964E+02 -1.885487E+05  3.284635E+04  1.280772E+03 -2.369948E+02  2.451289E+04
        14  21  5.115887E+04 -1.806754E+05  6.405616E+04  1.471961E+03 -1.262696E+02  3.726933E+04
        14  22 -1.317030E+03 -2.183703E+05  1.538011E+04 -6.522008E+02 -2.311680E+02  1.175924E+04
        14  23 -1.001359E+04 -2.267899E+05  2.329366E+04  7.973771E+02 -2.370067E+02  2.450665E+04
        14  24  4.174403E+04 -2.183651E+05  5.463658E+04 -5.787725E+02 -1.263696E+02  3.725403E+04
        14  25 -1.101932E+04 -2.571624E+05  5.688913E+03  4.316728E+02 -2.311530E+02  1.176207E+04
        14  26 -1.957240E+04 -2.650298E+05  1.374087E+04  3.140123E+02 -2.370187E+02  2.450041E+04
        14  27  3.232910E+04 -2.560534E+05  4.521691E+04 -2.629381E+03 -1.264696E+02  3.723873E+04
        15   1  6.399018E+04 -1.017538E+05  6.110438E+04 -3.093304E+01  9.533209E+03 -2.093260E+00
        15   2  6.394628E+04 -1.019390E+05  6.108053E+04 -4.995400E+00  9.528534E+03 -6.620640E+01
        15   3  6.393740E+04 -1.020538E+05  6.111862E+04 -7.760391E+01  9.496422E+03 -1.303314E+02
        15   4 -1.087393E+01 -3.606737E+05  8.244907E+01 -2.190088E+01  9.533478E+03 -7.514111E+00
        15   5 -1.730284E+01 -3.607074E+05  9.462453E+01  2.737628E+01  9.528800E+03 -5.514859E+01
        15   6  8.436477E+00 -3.606737E+05  1.572912E+02 -2.189434E+01  9.496681E+03 -1.027947E+02
        15   7 -6.401673E+04 -6.195319E+05 -6.094410E+04 -1.287193E+01  9.533747E+03 -1.293271E+01
        15   8 -6.398567E+04 -6.194143E+05 -6.089590E+04  5.973696E+01  9.529067E+03 -4.409535E+01
        15   9 -6.392531E+04 -6.192321E+05 -6.080865E+04  3.379645E+01  9.496940E+03 -7.526943E+01
        15  10  6.399009E+04 -1.017539E+05  6.110421E+04 -3.093302E+01 -1.719589E-09  1.007861E-09
        15  11  6.394618E+04 -1.019390E+05  6.108036E+04 -4.994892E+00 -1.672933E-09 -5.001996E-11
        15  12  6.393730E+04 -1.020538E+05  6.111845E+04 -7.760291E+01 -3.010496E-09 -7.774695E-10
        15  13 -1.097151E+01 -3.606738E+05  8.227830E+01 -2.190083E+01 -2.776946E-09  1.046794E-11
        15  14 -1.740033E+01 -3.607075E+05  9.445392E+01  2.737670E+01 -8.531801E-10  1.026421E-11
        15  15  8.339646E+00 -3.606737E+05  1.571218E+02 -2.189356E+01 -1.141725E-09  1.774711E-10
        15  16 -6.401682E+04 -6.195319E+05 -6.094427E+04 -1.287183E+01  6.833968E-10 -1.008944E-09
        15  17 -6.398577E+04 -6.194143E+05 -6.089607E+04  5.973730E+01 -6.124681E-10 -8.426104E-11
        15  18 -6.392541E+04 -6.192321E+05 -6.080882E+04  3.379703E+01 -8.994038E-10  8.225403E-10
        15  19  6.399018E+04 -1.017538E+05  6.110438E+04 -3.093304E+01 -9.533209E+03  2.093260E+00
        15  20  6.394628E+04 -1.019390E+05  6.108053E+04 -4.995400E+00 -9.528534E+03  6.620640E+01
        15  21  6.393740E+04 -1.020538E+05  6.111862E+04 -7.760391E+01 -9.496422E+03  1.303314E+02
        15  22 -1.087393E+01 -3.606737E+05  8.244907E+01 -2.190088E+01 -9.533478E+03  7.514111E+00
        15  23 -1.730284E+01 -3.607074E+05  9.462453E+01  2.737628E+01 -9.528800E+03  5.514859E+01
        15  24  8.436477E+00 -3.606737E+05  1.572912E+02 -2.189434E+01 -9.496681E+03  1.027947E+02
        15  25 -6.401673E+04 -6.195319E+05 -6.094410E+04 -1.287193E+01 -9.533747E+03  1.293271E+01
        15  26 -6.398567E+04 -6.194143E+05 -6.089590E+04  5.973696E+01 -9.529067E+03  4.409535E+01
        15  27 -6.392531E+04 -6.192321E+05 -6.080865E+04  3.379645E+01 -9.496940E+03  7.526943E+01
        16   1  6.381846E+04 -1.023741E+05  6.105764E+04 -1.710383E+02  9.534747E+03 -5.622932E+01
        16   2  6.368819E+04 -1.029122E+05  6.107889E+04  2.726252E+00  9.486702E+03 -4.311330E+02
        16   3  6.386477E+04 -1.032724E+05  6.143222E+04 -1.189192E+02  9.082646E+03 -8.062800E+02
        16   4 -2.336932E+01 -3.606573E+05  1.954669E+02 -6.568473E+01  9.535045E+03 -1.340718E+02
        16   5 -4.043875E+01 -3.607277E+05  3.148236E+02  8.209178E+01  9.486899E+03 -2.953188E+02
        16   6  2.123021E+02 -3.606572E+05  6.179099E+02 -6.554936E+01  9.082677E+03 -4.568093E+02
        16   7 -6.386997E+04 -6.188792E+05 -6.067131E+04  3.963044E+01  9.535342E+03 -2.118821E+02
        16   8 -6.377382E+04 -6.184821E+05 -6.045382E+04  1.614318E+02  9.487097E+03 -1.595606E+02
        16   9 -6.344492E+04 -6.179811E+05 -6.020098E+04 -1.219213E+01  9.082708E+03 -1.074827E+02
        16  10  6.381837E+04 -1.023741E+05  6.105747E+04 -1.710378E+02 -2.875769E-09  5.323076E-10
        16  11  6.368809E+04 -1.029123E+05  6.107872E+04  2.729545E+00  7.864031E-10  2.737270E-10
        16  12  6.386468E+04 -1.032724E+05  6.143206E+04 -1.189133E+02  2.147822E-10 -4.016603E-10
        16  13 -2.346694E+01 -3.606574E+05  1.952961E+02 -6.568370E+01 -2.827537E-09  4.333803E-10
        16  14 -4.053540E+01 -3.607278E+05  3.146544E+02  8.209404E+01 -2.101795E-12  2.035211E-11
        16  15  2.122135E+02 -3.606572E+05  6.177545E+02 -6.554602E+01 -5.836846E-10  3.940019E-10
        16  16 -6.387007E+04 -6.188792E+05 -6.067148E+04  3.963207E+01  8.777263E-10 -5.284249E-10
        16  17 -6.377392E+04 -6.184821E+05 -6.045399E+04  1.614331E+02 -3.714274E-10 -6.950822E-10
        16  18 -6.344501E+04 -6.179811E+05 -6.020114E+04 -1.219135E+01  7.732363E-10  4.853809E-10
        16  19  6.381846E+04 -1.023741E+05  6.105764E+04 -1.710383E+02 -9.534747E+03  5.622932E+01
        16  20  6.368819E+04 -1.029122E+05  6.107889E+04  2.726252E+00 -9.486702E+03  4.311330E+02
        16  21  6.386477E+04 -1.032724E+05  6.143222E+04 -1.189192E+02 -9.082646E+03  8.062800E+02
        16  22 -2.336932E+01 -3.606573E+05  1.954669E+02 -6.568473E+01 -9.535045E+03  1.340718E+02
        16  23 -4.043875E+01 -3.607277E+05  3.148236E+02  8.209178E+01 -9.486899E+03  2.953188E+02
        16  24  2.123021E+02 -3.606572E+05  6.179099E+02 -6.554936E+01 -9.082677E+03  4.568093E+02
        16  25 -6.386997E+04 -6.188792E+05 -6.067131E+04  3.963044E+01 -9.535342E+03  2.118821E+02
        16  26 -6.377382E+04 -6.184821E+05 -6.045382E+04  1.614318E+02 -9.487097E+03  1.595606E+02
        16  27 -6.344492E+04 -6.179811E+05 -6.020098E+04 -1.219213E+01 -9.082708E+03  1.074827E+02
        17   1  6.329673E+04 -1.037300E+05  6.112153E+04 -6.276706E+02  9.833037E+03  8.510224E+02
        17   2  6.294798E+04 -1.051507E+05  6.153577E+04  2.910473E+02  9.298669E+03 -3.293875E+03
        17   3  6.607160E+04 -1.051129E+05  6.552761E+04  5.580969E+02  2.948848E+03 -7.444507E+03
        17   4 -1.438126E+02 -3.604990E+05  7.546096E+02 -1.454875E+02  9.834327E+03 -5.708883E+02
        17   5 -2.848048E+02 -3.609252E+05  1.207655E+03  1.815323E+02  9.297189E+03 -1.226431E+03
        17   6  2.441336E+03 -3.604984E+05  2.814990E+03 -1.431527E+02  2.943539E+03 -1.887756E+03
        17   7 -6.358906E+04 -6.172073E+05 -5.961683E+04  3.365056E+02  9.835614E+03 -1.992214E+03
        17   8 -6.352227E+04 -6.166394E+05 -5.912496E+04  7.207523E+01  9.295708E+03  8.401649E+02
        17   9 -6.119375E+04 -6.158245E+05 -5.990231E+04 -8.440989E+02  2.938216E+03  3.666714E+03
        17  10  6.329663E+04 -1.037301E+05  6.112134E+04 -6.276773E+02  4.755076E-10  5.393408E-10
        17  11  6.294789E+04 -1.051508E+05  6.153559E+04  2.910720E+02  7.662840E-10  2.263142E-11
        17  12  6.607157E+04 -1.051130E+05  6.552749E+04  5.581146E+02 -2.557926E-09 -1.349083E-09
        17  13 -1.439165E+02 -3.604990E+05  7.544273E+02 -1.454830E+02  2.159848E-10  7.494793E-10
        17  14 -2.848980E+02 -3.609252E+05  1.207490E+03  1.815415E+02 -1.075224E-09 -1.261691E-11
        17  15  2.441326E+03 -3.604985E+05  2.814967E+03 -1.431482E+02 -4.367605E-09  5.618993E-10
        17  16 -6.358916E+04 -6.172073E+05 -5.961702E+04  3.365213E+02 -8.544609E-11 -5.446263E-10
        17  17 -6.352236E+04 -6.166394E+05 -5.912512E+04  7.206894E+01 -3.060202E-10 -7.107667E-10
        17  18 -6.119376E+04 -6.158245E+05 -5.990235E+04 -8.441075E+02 -2.924381E-09  1.477692E-09
        17  19  6.329673E+04 -1.037300E+05  6.112153E+04 -6.276706E+02 -9.833037E+03 -8.510224E+02
        17  20  6.294798E+04 -1.051507E+05  6.153577E+04  2.910473E+02 -9.298669E+03  3.293875E+03
        17  21  6.607160E+04 -1.051129E+05  6.552761E+04  5.580969E+02 -2.948848E+03  7.444507E+03
        17  22 -1.438126E+02 -3.604990E+05  7.546096E+02 -1.454875E+02 -9.834327E+03  5.708883E+02
        17  23 -2.848048E+02 -3.609252E+05  1.207655E+03  1.815323E+02 -9.297189E+03  1.226431E+03
        17  24  2.441336E+03 -3.604984E+05  2.814990E+03 -1.431527E+02 -2.943539E+03  1.887756E+03
        17  25 -6.358906E+04 -6.172073E+05 -5.961683E+04  3.365056E+02 -9.835614E+03  1.992214E+03
        17  26 -6.352227E+04 -6.166394E+05 -5.912496E+04  7.207523E+01 -9.295708E+03 -8.401649E+02
        17  27 -6.119375E+04 -6.158245E+05 -5.990231E+04 -8.440989E+02 -2.938216E+03 -3.666714E+03
        18   1  2.146055E+04  2.314026E+05  1.205281E+04 -3.376275E-01  7.530815E+03 -2.406933E-01
        18   2  2.146077E+04  2.314039E+05  1.205398E+04 -1.627276E+00  7.530847E+03 -2.410575E+00
        18   3  2.146104E+04  2.314059E+05  1.205673E+04 -3.001925E+00  7.530876E+03 -4.580489E+00
        18   4 -2.140204E+00  1.361178E+05  3.626286E+00 -1.887717E-02  7.530937E+03 -3.199338E-01
        18   5 -2.318729E+00  1.361174E+05  4.434454E+00  2.361316E-02  7.530969E+03 -2.484120E+00
        18   6 -2.442967E+00  1.361178E+05  6.820838E+00 -1.885610E-02  7.530998E+03 -4.648339E+00
        18   7 -2.146520E+04  4.084231E+04 -1.204559E+04  2.998297E-01  7.531059E+03 -3.991628E-01
        18   8 -2.146578E+04  4.084028E+04 -1.204514E+04  1.674272E+00  7.531091E+03 -2.557655E+00
        18   9 -2.146630E+04  4.083903E+04 -1.204312E+04  2.963794E+00  7.531121E+03 -4.716179E+00
        18  10  2.146049E+04  2.314026E+05  1.205271E+04 -3.376259E-01 -8.719874E-09 -6.306121E-08
        18  11  2.146071E+04  2.314039E+05  1.205387E+04 -1.627262E+00 -2.469586E-09 -1.336969E-10
        18  12  2.146098E+04  2.314059E+05  1.205662E+04 -3.001897E+00  2.121530E-09  6.205354E-08
        18  13 -2.201110E+00  1.361178E+05  3.519701E+00 -1.887515E-02 -8.200052E-09  3.607055E-12
        18  14 -2.379635E+00  1.361174E+05  4.327868E+00  2.362821E-02 -2.199551E-09 -3.425020E-11
        18  15 -2.503874E+00  1.361178E+05  6.714251E+00 -1.882804E-02  2.454588E-09  4.097248E-11
        18  16 -2.146526E+04  4.084229E+04 -1.204570E+04  2.998322E-01 -7.915673E-09  6.303886E-08
        18  17 -2.146584E+04  4.084026E+04 -1.204525E+04  1.674288E+00 -1.960331E-09  1.231859E-10
        18  18 -2.146636E+04  4.083901E+04 -1.204322E+04  2.963823E+00  2.506791E-09 -6.204077E-08
        18  19  2.146055E+04  2.314026E+05  1.205281E+04 -3.376273E-01 -7.530815E+03  2.406932E-01
        18  20  2.146077E+04  2.314039E+05  1.205398E+04 -1.627276E+00 -7.530847E+03  2.410575E+00
        18  21  2.146104E+04  2.314059E+05  1.205673E+04 -3.001925E+00 -7.530876E+03  4.580489E+00
        18  22 -2.140204E+00  1.361178E+05  3.626286E+00 -1.887698E-02 -7.530937E+03  3.199338E-01
        18  23 -2.318729E+00  1.361174E+05  4.434454E+00  2.361314E-02 -7.530969E+03  2.484120E+00
        18  24 -2.442967E+00  1.361178E+05  6.820838E+00 -1.885635E-02 -7.530998E+03  4.648339E+00
        18  25 -2.146520E+04  4.084231E+04 -1.204559E+04  2.998299E-01 -7.531059E+03  3.991629E-01
        18  26 -2.146578E+04  4.084028E+04 -1.204514E+04  1.674272E+00 -7.531091E+03  2.557655E+00
        18  27 -2.146630E+04  4.083903E+04 -1.204312E+04  2.963794E+00 -7.531121E+03  4.716179E+00
        19   1  2.146138E+04  2.314081E+05  1.205905E+04 -3.602493E+00  7.530929E+03 -5.857663E+00
        19   2  2.146198E+04  2.314121E+05  1.206648E+04 -5.963804E+00  7.530741E+03 -1.436101E+01
        19   3  2.146300E+04  2.314177E+05  1.207970E+04 -7.599322E+00  7.530020E+03 -2.286439E+01
        19   4 -2.593985E+00  1.361180E+05  8.719209E+00  1.613132E-01  7.531052E+03 -6.042615E+00
        19   5 -3.230190E+00  1.361172E+05  1.467411E+01 -2.015946E-01  7.530863E+03 -1.326697E+01
        19   6 -3.673557E+00  1.361180E+05  2.553575E+01  1.612964E-01  7.530142E+03 -2.049136E+01
        19   7 -2.146694E+04  4.083718E+04 -1.204164E+04  3.924591E+00  7.531174E+03 -6.227541E+00
        19   8 -2.146881E+04  4.083172E+04 -1.203716E+04  5.559792E+00  7.530985E+03 -1.217310E+01
        19   9 -2.147072E+04  4.082751E+04 -1.202866E+04  7.920798E+00  7.530264E+03 -1.811868E+01
        19  10  2.146132E+04  2.314081E+05  1.205894E+04 -3.602457E+00  3.305827E-09 -2.030384E-07
        19  11  2.146192E+04  2.314120E+05  1.206637E+04 -5.963717E+00  6.780648E-09 -7.685239E-11
        19  12  2.146294E+04  2.314177E+05  1.207960E+04 -7.599184E+00  4.618178E-09  2.031154E-07
        19  13 -2.654893E+00  1.361179E+05  8.612620E+00  1.613501E-01  4.361536E-09  3.011858E-11
        19  14 -3.291095E+00  1.361172E+05  1.456753E+01 -2.015142E-01  6.114223E-09 -1.131402E-10
        19  15 -3.734451E+00  1.361179E+05  2.542918E+01  1.614204E-01  4.222517E-09  7.369198E-11
        19  16 -2.146700E+04  4.083717E+04 -1.204174E+04  3.924629E+00  3.018007E-09  2.029436E-07
        19  17 -2.146887E+04  4.083170E+04 -1.203726E+04  5.559866E+00  5.537796E-09  2.274325E-11
        19  18 -2.147078E+04  4.082750E+04 -1.202877E+04  7.920907E+00  3.645304E-09 -2.030538E-07
        19  19  2.146138E+04  2.314081E+05  1.205905E+04 -3.602492E+00 -7.530929E+03  5.857662E+00
        19  20  2.146198E+04  2.314121E+05  1.206648E+04 -5.963804E+00 -7.530741E+03  1.436101E+01
        19  21  2.146300E+04  2.314177E+05  1.207970E+04 -7.599323E+00 -7.530020E+03  2.286439E+01
        19  22 -2.593985E+00  1.361180E+05  8.719209E+00  1.613138E-01 -7.531052E+03  6.042615E+00
        19  23 -3.230190E+00  1.361172E+05  1.467411E+01 -2.015946E-01 -7.530863E+03  1.326697E+01
        19  24 -3.673557E+00  1.361180E+05  2.553575E+01  1.612958E-01 -7.530142E+03  2.049136E+01
        19  25 -2.146694E+04  4.083718E+04 -1.204164E+04  3.924592E+00 -7.531174E+03  6.227542E+00
        19  26 -2.146881E+04  4.083172E+04 -1.203716E+04  5.559792E+00 -7.530985E+03  1.217310E+01
        19  27 -2.147072E+04  4.082751E+04 -1.202866E+04  7.920797E+00 -7.530264E+03  1.811868E+01
        20   1  2.146381E+04  2.314228E+05  1.208955E+04 -9.052076E+00  7.529591E+03 -2.839125E+01
        20   2  2.146573E+04  2.314275E+05  1.212138E+04 -1.264815E+01  7.526259E+03 -6.817249E+01
        20   3  2.147241E+04  2.314390E+05  1.218044E+04 -1.500686E+01  7.518400E+03 -1.079536E+02
        20   4 -4.082223E+00  1.361187E+05  3.363149E+01  2.749036E-01  7.529713E+03 -2.581747E+01
        20   5 -4.982060E+00  1.361163E+05  5.846710E+01 -3.437144E-01  7.526380E+03 -5.472613E+01
        20   6 -3.012223E+00  1.361187E+05  1.029936E+02  2.749803E-01  7.518520E+03 -8.363485E+01
        20   7 -2.147234E+04  4.082396E+04 -1.202232E+04  9.600529E+00  7.529835E+03 -2.324405E+01
        20   8 -2.147606E+04  4.081436E+04 -1.200447E+04  1.195892E+01  7.526501E+03 -4.128173E+01
        20   9 -2.147880E+04  4.080784E+04 -1.197448E+04  1.555457E+01  7.518639E+03 -5.931962E+01
        20  10  2.146375E+04  2.314228E+05  1.208945E+04 -9.051904E+00  3.414624E-09  1.696958E-09
        20  11  2.146567E+04  2.314275E+05  1.212127E+04 -1.264774E+01  3.264105E-10  1.918113E-09
        20  12  2.147235E+04  2.314389E+05  1.218033E+04 -1.500621E+01 -5.345159E-10  3.080147E-09
        20  13 -4.143110E+00  1.361187E+05  3.352494E+01  2.750602E-01  2.324705E-09  8.032213E-11
        20  14 -5.042893E+00  1.361162E+05  5.836063E+01 -3.433827E-01  4.655167E-10 -1.826769E-10
        20  15 -3.072930E+00  1.361187E+05  1.028874E+02  2.754867E-01 -1.674318E-09  1.081749E-10
        20  16 -2.147240E+04  4.082394E+04 -1.202243E+04  9.600670E+00  1.258665E-09 -1.782430E-09
        20  17 -2.147613E+04  4.081434E+04 -1.200458E+04  1.195917E+01 -2.126661E-09 -1.985108E-09
        20  18 -2.147886E+04  4.080783E+04 -1.197459E+04  1.555493E+01 -3.135549E-10 -3.048402E-09
        20  19  2.146381E+04  2.314228E+05  1.208955E+04 -9.052076E+00 -7.529591E+03  2.839125E+01
        20  20  2.146573E+04  2.314275E+05  1.212138E+04 -1.264815E+01 -7.526259E+03  6.817249E+01
        20  21  2.147241E+04  2.314390E+05  1.218044E+04 -1.500686E+01 -7.518400E+03  1.079536E+02
        20  22 -4.082223E+00  1.361187E+05  3.363149E+01  2.749036E-01 -7.529713E+03  2.581747E+01
        20  23 -4.982060E+00  1.361163E+05  5.846710E+01 -3.437144E-01 -7.526380E+03  5.472613E+01
        20  24 -3.012223E+00  1.361187E+05  1.029936E+02  2.749803E-01 -7.518520E+03  8.363485E+01
        20  25 -2.147234E+04  4.082396E+04 -1.202232E+04  9.600529E+00 -7.529835E+03  2.324405E+01
        20  26 -2.147606E+04  4.081436E+04 -1.200447E+04  1.195892E+01 -7.526501E+03  4.128173E+01
        20  27 -2.147880E+04  4.080784E+04 -1.197448E+04  1.555457E+01 -7.518639E+03  5.931962E+01
        21   1 -6.410600E+05 -3.609489E+04 -4.111748E+04 -1.927297E+02 -1.453967E+04  1.171217E+02
        21   2 -6.387704E+05 -1.619388E+04 -2.914495E+04 -1.679283E+03 -9.556487E+03  4.142153E+02
        21   3 -6.426633E+05 -1.977297E+04 -2.622172E+04  1.045198E+03 -4.572751E+03  4.003670E+02
        21   4 -5.615838E+05 -1.621017E+04 -2.124084E+04  7.226000E+02 -1.450898E+04  1.171517E+02
        21   5 -5.584920E+05  3.885875E+03 -9.081717E+03 -1.396367E+03 -9.547612E+03  4.142202E+02
        21   6 -5.615781E+05  5.072313E+02 -5.955914E+03  6.956537E+02 -4.585686E+03  4.003543E+02
        21   7 -4.821019E+05  3.674076E+03 -1.364676E+03  1.638045E+03 -1.447829E+04  1.171817E+02
        21   8 -4.782078E+05  2.396514E+04  1.098102E+04 -1.113416E+03 -9.538737E+03  4.142251E+02
        21   9 -4.804870E+05  2.078694E+04  1.430939E+04  3.460628E+02 -4.598623E+03  4.003415E+02
        21  10 -6.410602E+05 -3.609495E+04 -4.111788E+04 -1.927283E+02  1.283412E-09 -2.891701E-10
        21  11 -6.387705E+05 -1.619390E+04 -2.914512E+04 -1.679280E+03  1.453421E-10 -2.480626E-10
        21  12 -6.426633E+05 -1.977297E+04 -2.622176E+04  1.045199E+03 -9.281879E-10 -5.253053E-11
        21  13 -5.615840E+05 -1.621023E+04 -2.124124E+04  7.226013E+02  1.212104E-13 -7.421161E-11
        21  14 -5.584921E+05  3.885851E+03 -9.081889E+03 -1.396364E+03  5.355388E-10 -2.608604E-10
        21  15 -5.615781E+05  5.072255E+02 -5.955953E+03  6.956552E+02 -1.099822E-09 -1.727012E-10
        21  16 -4.821021E+05  3.674020E+03 -1.365070E+03  1.638046E+03  7.931390E-10  2.759982E-10
        21  17 -4.782078E+05  2.396512E+04  1.098085E+04 -1.113413E+03 -3.659267E-10 -5.548163E-10
        21  18 -4.804870E+05  2.078693E+04  1.430935E+04  3.460643E+02  7.148697E-11 -2.243877E-10
        21  19 -6.410600E+05 -3.609489E+04 -4.111748E+04 -1.927297E+02  1.453967E+04 -1.171217E+02
        21  20 -6.387704E+05 -1.619388E+04 -2.914495E+04 -1.679283E+03  9.556487E+03 -4.142153E+02
        21  21 -6.426633E+05 -1.977297E+04 -2.622172E+04  1.045198E+03  4.572751E+03 -4.003670E+02
        21  22 -5.615838E+05 -1.621017E+04 -2.124084E+04  7.226000E+02  1.450898E+04 -1.171517E+02
        21  23 -5.584920E+05  3.885875E+03 -9.081717E+03 -1.396367E+03  9.547612E+03 -4.142202E+02
        21  24 -5.615781E+05  5.072313E+02 -5.955914E+03  6.956537E+02  4.585686E+03 -4.003543E+02
        21  25 -4.821019E+05  3.674076E+03 -1.364676E+03  1.638045E+03  1.447829E+04 -1.171817E+02
        21  26 -4.782078E+05  2.396514E+04  1.098102E+04 -1.113416E+03  9.538737E+03 -4.142251E+02
        21  27 -4.804870E+05  2.078694E+04  1.430939E+04  3.460628E+02  4.598623E+03 -4.003415E+02
        22   1 -6.559114E+05 -2.642837E+04 -2.881340E+04 -4.804337E+02 -3.613098E+03  3.878311E+02
        22   2 -6.555614E+05 -2.328993E+04 -2.624673E+04 -1.941213E+02 -2.364081E+03  4.699513E+02
        22   3 -6.557848E+05 -2.378846E+04 -2.530316E+04 -2.330940E+02 -1.115007E+03  4.098395E+02
        22   4 -5.603343E+05 -2.521236E+03 -4.921111E+03 -3.025452E+02 -3.602522E+03  3.878345E+02
        22   5 -5.600482E+05  6.001876E+02 -2.374267E+03 -1.408351E+02 -2.363570E+03  4.699468E+02
        22   6 -5.603335E+05  8.672770E+01 -1.443336E+03 -3.044071E+02 -1.124562E+03  4.098363E+02
        22   7 -4.647490E+05  2.138521E+04  1.897048E+04 -1.246309E+02 -3.591944E+03  3.878379E+02
        22   8 -4.645267E+05  2.448962E+04  2.149751E+04 -8.754146E+01 -2.363059E+03  4.699423E+02
        22   9 -4.648739E+05  2.396123E+04  2.241580E+04 -3.757309E+02 -1.134118E+03  4.098330E+02
        22  10 -6.559114E+05 -2.642837E+04 -2.881342E+04 -4.804326E+02  1.982051E-10  1.112937E-10
        22  11 -6.555614E+05 -2.328993E+04 -2.624674E+04 -1.941204E+02  5.268457E-10  3.897269E-10
        22  12 -6.557848E+05 -2.378846E+04 -2.530317E+04 -2.330936E+02 -1.083990E-09 -3.709556E-11
        22  13 -5.603343E+05 -2.521240E+03 -4.921136E+03 -3.025441E+02  4.248395E-12 -1.048785E-10
        22  14 -5.600482E+05  6.001859E+02 -2.374277E+03 -1.408342E+02 -2.121855E-09 -1.111307E-10
        22  15 -5.603335E+05  8.672718E+01 -1.443339E+03 -3.044067E+02  1.360254E-09  2.076815E-10
        22  16 -4.647490E+05  2.138520E+04  1.897046E+04 -1.246297E+02 -2.673110E-10  2.470084E-11
        22  17 -4.645267E+05  2.448962E+04  2.149750E+04 -8.754057E+01 -1.986282E-10 -3.949488E-11
        22  18 -4.648739E+05  2.396123E+04  2.241580E+04 -3.757306E+02 -1.199594E-09  5.618217E-10
        22  19 -6.559114E+05 -2.642837E+04 -2.881340E+04 -4.804337E+02  3.613098E+03 -3.878311E+02
        22  20 -6.555614E+05 -2.328993E+04 -2.624673E+04 -1.941213E+02  2.364081E+03 -4.699513E+02
        22  21 -6.557848E+05 -2.378846E+04 -2.530316E+04 -2.330940E+02  1.115007E+03 -4.098395E+02
        22  22 -5.603343E+05 -2.521236E+03 -4.921111E+03 -3.025452E+02  3.602522E+03 -3.878345E+02
        22  23 -5.600482E+05  6.001876E+02 -2.374267E+03 -1.408351E+02  2.363570E+03 -4.699468E+02
        22  24 -5.603335E+05  8.672770E+01 -1.443336E+03 -3.044071E+02  1.124562E+03 -4.098363E+02
        22  25 -4.647490E+05  2.138521E+04  1.897048E+04 -1.246309E+02  3.591944E+03 -3.878379E+02
        22  26 -4.645267E+05  2.448962E+04  2.149751E+04 -8.754146E+01  2.363059E+03 -4.699423E+02
        22  27 -4.648739E+05  2.396123E+04  2.241580E+04 -3.757309E+02  1.134118E+03 -4.098330E+02
        23   1 -6.366253E+05 -1.952103E+04 -2.027376E+04 -1.282974E+03 -8.950166E+02  3.793390E+02
        23   2 -6.357826E+05 -1.880369E+04 -1.950165E+04  1.106258E+03 -5.756027E+02  3.688964E+02
        23   3 -6.348158E+05 -1.864425E+04 -1.901598E+04 -1.215788E+03 -2.562826E+02  2.695315E+02
        23   4 -5.601778E+05 -3.999501E+02 -1.166881E+03 -1.278627E+03 -8.926382E+02  3.793354E+02
        23   5 -5.602407E+05  9.092208E+01 -6.208616E+02  1.077059E+03 -5.795878E+02  3.688959E+02
        23   6 -5.601785E+05  2.506293E+01 -3.568340E+02 -1.278496E+03 -2.666316E+02  2.695388E+02
        23   7 -4.837249E+05  1.872069E+04  1.793956E+04 -1.274280E+03 -8.902595E+02  3.793318E+02
        23   8 -4.846937E+05  1.898511E+04  1.825949E+04  1.047857E+03 -5.835734E+02  3.688954E+02
        23   9 -4.855362E+05  1.869395E+04  1.830189E+04 -1.341210E+03 -2.769818E+02  2.695462E+02
        23  10 -6.366254E+05 -1.952103E+04 -2.027376E+04 -1.282974E+03 -1.849359E-09  2.897761E-10
        23  11 -6.357826E+05 -1.880369E+04 -1.950165E+04  1.106258E+03  8.598683E-10  2.016018E-10
        23  12 -6.348158E+05 -1.864425E+04 -1.901598E+04 -1.215788E+03  5.497984E-10 -1.102067E-10
        23  13 -5.601778E+05 -3.999505E+02 -1.166883E+03 -1.278627E+03 -1.080826E-09  2.610710E-10
        23  14 -5.602407E+05  9.092184E+01 -6.208625E+02  1.077059E+03  1.076799E-09  2.507116E-10
        23  15 -5.601785E+05  2.506283E+01 -3.568343E+02 -1.278496E+03  9.573938E-10  1.819835E-10
        23  16 -4.837249E+05  1.872069E+04  1.793955E+04 -1.274280E+03 -2.676531E-10 -1.561201E-10
        23  17 -4.846937E+05  1.898511E+04  1.825949E+04  1.047857E+03  2.063220E-09 -3.022666E-10
        23  18 -4.855362E+05  1.869395E+04  1.830189E+04 -1.341210E+03  1.790543E-09  1.283638E-10
        23  19 -6.366253E+05 -1.952103E+04 -2.027376E+04 -1.282974E+03  8.950166E+02 -3.793390E+02
        23  20 -6.357826E+05 -1.880369E+04 -1.950165E+04  1.106258E+03  5.756027E+02 -3.688964E+02
        23  21 -6.348158E+05 -1.864425E+04 -1.901598E+04 -1.215788E+03  2.562826E+02 -2.695315E+02
        23  22 -5.601778E+05 -3.999501E+02 -1.166881E+03 -1.278627E+03  8.926382E+02 -3.793354E+02
        23  23 -5.602407E+05  9.092208E+01 -6.208616E+02  1.077059E+03  5.795878E+02 -3.688959E+02
        23  24 -5.601785E+05  2.506293E+01 -3.568340E+02 -1.278496E+03  2.666316E+02 -2.695388E+02
        23  25 -4.837249E+05  1.872069E+04  1.793956E+04 -1.274280E+03  8.902595E+02 -3.793318E+02
        23  26 -4.846937E+05  1.898511E+04  1.825949E+04  1.047857E+03  5.835734E+02 -3.688954E+02
        23  27 -4.855362E+05  1.869395E+04  1.830189E+04 -1.341210E+03  2.769818E+02 -2.695462E+02
        24   1 -5.893412E+05 -7.355513E+03 -7.579029E+03 -1.847824E+03 -2.050651E+02  2.084975E+02
        24   2 -5.879224E+05 -6.917184E+03 -7.108002E+03  1.835501E+03 -1.125119E+02  1.351509E+02
        24   3 -5.865209E+05 -6.583593E+03 -6.719303E+03 -1.839044E+03 -2.001500E+01  3.060951E+01
        24   4 -5.602085E+05 -6.963947E+01 -3.009819E+02 -1.866744E+03 -2.092198E+02  2.085012E+02
        24   5 -5.602003E+05  1.651733E+01 -1.793895E+02  1.812215E+03 -1.189073E+02  1.351579E+02
        24   6 -5.602090E+05 -1.676322E+00 -1.385710E+02 -1.866675E+03 -2.865141E+01  3.062035E+01
        24   7 -5.310751E+05  7.216170E+03  6.977002E+03 -1.885666E+03 -2.133747E+02  2.085048E+02
        24   8 -5.324776E+05  6.950160E+03  6.749165E+03  1.788928E+03 -1.253030E+02  1.351648E+02
        24   9 -5.338965E+05  6.580188E+03  6.442109E+03 -1.894308E+03 -3.728819E+01  3.063120E+01
        24  10 -5.893412E+05 -7.355513E+03 -7.579030E+03 -1.847824E+03 -1.138324E-09  8.588418E-11
        24  11 -5.879224E+05 -6.917184E+03 -7.108002E+03  1.835501E+03  1.159333E-09 -3.542338E-10
        24  12 -5.865209E+05 -6.583593E+03 -6.719303E+03 -1.839044E+03 -1.200464E-09  7.345671E-11
        24  13 -5.602085E+05 -6.963953E+01 -3.009820E+02 -1.866744E+03 -1.093121E-09  2.290774E-11
        24  14 -5.602003E+05  1.651731E+01 -1.793895E+02  1.812215E+03 -1.049759E-09  4.655700E-10
        24  15 -5.602090E+05 -1.676323E+00 -1.385710E+02 -1.866675E+03  5.885686E-10  1.308171E-10
        24  16 -5.310751E+05  7.216170E+03  6.977001E+03 -1.885666E+03  1.216725E-09 -3.471421E-11
        24  17 -5.324776E+05  6.950160E+03  6.749165E+03  1.788928E+03  2.107899E-09  4.211787E-10
        24  18 -5.338965E+05  6.580188E+03  6.442109E+03 -1.894308E+03  6.558996E-10 -2.403164E-10
        24  19 -5.893412E+05 -7.355513E+03 -7.579029E+03 -1.847824E+03  2.050651E+02 -2.084975E+02
        24  20 -5.879224E+05 -6.917184E+03 -7.108002E+03  1.835501E+03  1.125119E+02 -1.351509E+02
        24  21 -5.865209E+05 -6.583593E+03 -6.719303E+03 -1.839044E+03  2.001500E+01 -3.060951E+01
        24  22 -5.602085E+05 -6.963947E+01 -3.009819E+02 -1.866744E+03  2.092198E+02 -2.085012E+02
        24  23 -5.602003E+05  1.651733E+01 -1.793895E+02  1.812215E+03  1.189073E+02 -1.351579E+02
        24  24 -5.602090E+05 -1.676322E+00 -1.385710E+02 -1.866675E+03  2.865141E+01 -3.062035E+01
        24  25 -5.310751E+05  7.216170E+03  6.977002E+03 -1.885666E+03  2.133747E+02 -2.085048E+02
        24  26 -5.324776E+05  6.950160E+03  6.749165E+03  1.788928E+03  1.253030E+02 -1.351648E+02
        24  27 -5.338965E+05  6.580188E+03  6.442109E+03 -1.894308E+03  3.728819E+01 -3.063120E+01
        25   1 -5.312842E+05  7.230504E+03  7.100072E+03 -1.881539E+03  4.028282E+00 -4.261255E+01
        25   2 -5.298853E+05  7.596156E+03  7.427868E+03  1.768405E+03  7.658391E+01 -1.477332E+02
        25   3 -5.284871E+05  7.878468E+03  7.693415E+03 -1.872745E+03  1.492022E+02 -2.188730E+02
        25   4 -5.602056E+05 -3.844541E+00 -1.326388E+02 -1.851854E+03 -4.751329E+00 -4.260160E+01
        25   5 -5.602047E+05  1.308975E+01 -1.496342E+02  1.793680E+03  7.024618E+01 -1.477265E+02
        25   6 -5.602050E+05 -5.374351E+01 -2.305770E+02 -1.851902E+03  1.453062E+02 -2.188698E+02
        25   7 -5.891262E+05 -7.238257E+03 -7.365413E+03 -1.822169E+03 -1.353053E+01 -4.259065E+01
        25   8 -5.905233E+05 -7.570046E+03 -7.727206E+03  1.818955E+03  6.390876E+01 -1.477198E+02
        25   9 -5.919220E+05 -7.986031E+03 -8.154645E+03 -1.831060E+03  1.414104E+02 -2.188666E+02
        25  10 -5.312842E+05  7.230504E+03  7.100072E+03 -1.881539E+03 -7.360428E-10 -4.486447E-10
        25  11 -5.298853E+05  7.596156E+03  7.427868E+03  1.768405E+03 -1.372681E-09  5.664783E-12
        25  12 -5.284871E+05  7.878468E+03  7.693415E+03 -1.872745E+03 -7.403685E-10  3.353827E-10
        25  13 -5.602056E+05 -3.844543E+00 -1.326388E+02 -1.851854E+03  6.749398E-11  2.451015E-10
        25  14 -5.602047E+05  1.308972E+01 -1.496342E+02  1.793680E+03 -1.589519E-09  1.943667E-10
        25  15 -5.602050E+05 -5.374357E+01 -2.305771E+02 -1.851902E+03 -3.476485E-10  2.768614E-10
        25  16 -5.891262E+05 -7.238257E+03 -7.365413E+03 -1.822169E+03  2.953670E-10 -3.254465E-10
        25  17 -5.905233E+05 -7.570046E+03 -7.727206E+03  1.818955E+03  1.341227E-09 -1.164192E-10
        25  18 -5.919220E+05 -7.986031E+03 -8.154645E+03 -1.831060E+03  8.824463E-10  1.192627E-11
        25  19 -5.312842E+05  7.230504E+03  7.100072E+03 -1.881539E+03 -4.028282E+00  4.261255E+01
        25  20 -5.298853E+05  7.596156E+03  7.427868E+03  1.768405E+03 -7.658391E+01  1.477332E+02
        25  21 -5.284871E+05  7.878468E+03  7.693415E+03 -1.872745E+03 -1.492022E+02  2.188730E+02
        25  22 -5.602056E+05 -3.844541E+00 -1.326388E+02 -1.851854E+03  4.751329E+00  4.260160E+01
        25  23 -5.602047E+05  1.308975E+01 -1.496342E+02  1.793680E+03 -7.024618E+01  1.477265E+02
        25  24 -5.602050E+05 -5.374351E+01 -2.305770E+02 -1.851902E+03 -1.453062E+02  2.188698E+02
        25  25 -5.891262E+05 -7.238257E+03 -7.365413E+03 -1.822169E+03  1.353053E+01  4.259065E+01
        25  26 -5.905233E+05 -7.570046E+03 -7.727206E+03  1.818955E+03 -6.390876E+01  1.477198E+02
        25  27 -5.919220E+05 -7.986031E+03 -8.154645E+03 -1.831060E+03 -1.414104E+02  2.188666E+02
        26   1 -4.838466E+05  1.910966E+04  1.881349E+04 -1.299277E+03  1.980837E+02 -2.786743E+02
        26   2 -4.830724E+05  1.936952E+04  1.882579E+04  1.000002E+03  4.237809E+02 -3.767238E+02
        26   3 -4.821088E+05  1.922716E+04  1.865446E+04 -1.237993E+03  6.495615E+02 -3.843291E+02
        26   4 -5.601645E+05  2.174166E+01 -2.639236E+02 -1.239864E+03  1.877722E+02 -2.786674E+02
        26   5 -5.602583E+05  6.548621E+01 -4.641151E+02  1.028747E+03  4.199525E+02 -3.767247E+02
        26   6 -5.601637E+05 -2.941680E+02 -8.524648E+02 -1.239950E+03  6.522158E+02 -3.843327E+02
        26   7 -6.364772E+05 -1.906661E+04 -1.934178E+04 -1.180457E+03  1.774620E+02 -2.786606E+02
        26   8 -6.374387E+05 -1.923900E+04 -1.975447E+04  1.057489E+03  4.161246E+02 -3.767255E+02
        26   9 -6.382131E+05 -1.981595E+04 -2.035985E+04 -1.241907E+03  6.548698E+02 -3.843364E+02
        26  10 -4.838466E+05  1.910966E+04  1.881349E+04 -1.299276E+03  6.157217E-10 -8.603429E-11
        26  11 -4.830724E+05  1.936952E+04  1.882579E+04  1.000002E+03  7.049136E-10  1.769978E-11
        26  12 -4.821088E+05  1.922716E+04  1.865446E+04 -1.237993E+03  7.760680E-10  3.173097E-10
        26  13 -5.601645E+05  2.174157E+01 -2.639238E+02 -1.239864E+03 -5.920241E-11 -3.675787E-10
        26  14 -5.602583E+05  6.548601E+01 -4.641157E+02  1.028747E+03 -5.090906E-11 -4.671284E-10
        26  15 -5.601637E+05 -2.941683E+02 -8.524659E+02 -1.239950E+03 -4.261158E-11 -4.100443E-11
        26  16 -6.364772E+05 -1.906661E+04 -1.934178E+04 -1.180457E+03  7.761064E-10  1.249422E-11
        26  17 -6.374387E+05 -1.923900E+04 -1.975447E+04  1.057489E+03 -2.388135E-10 -4.520724E-10
        26  18 -6.382131E+05 -1.981595E+04 -2.035985E+04 -1.241907E+03 -6.089558E-10 -3.396143E-11
        26  19 -4.838466E+05  1.910966E+04  1.881349E+04 -1.299277E+03 -1.980837E+02  2.786743E+02
        26  20 -4.830724E+05  1.936952E+04  1.882579E+04  1.000002E+03 -4.237809E+02  3.767238E+02
        26  21 -4.821088E+05  1.922716E+04  1.865446E+04 -1.237993E+03 -6.495615E+02  3.843291E+02
        26  22 -5.601645E+05  2.174166E+01 -2.639236E+02 -1.239864E+03 -1.877722E+02  2.786674E+02
        26  23 -5.602583E+05  6.548621E+01 -4.641151E+02  1.028747E+03 -4.199525E+02  3.767247E+02
        26  24 -5.601637E+05 -2.941680E+02 -8.524648E+02 -1.239950E+03 -6.522158E+02  3.843327E+02
        26  25 -6.364772E+05 -1.906661E+04 -1.934178E+04 -1.180457E+03 -1.774620E+02  2.786606E+02
        26  26 -6.374387E+05 -1.923900E+04 -1.975447E+04  1.057489E+03 -4.161246E+02  3.767255E+02
        26  27 -6.382131E+05 -1.981595E+04 -2.035985E+04 -1.241907E+03 -6.548698E+02  3.843364E+02
        27   1 -4.646922E+05  2.396899E+04  2.283660E+04 -3.063814E+02  8.292770E+02 -4.127135E+02
        27   2 -4.645298E+05  2.434590E+04  2.214500E+04 -1.528114E+02  1.727838E+03 -4.702473E+02
        27   3 -4.646470E+05  2.207415E+04  2.030604E+04 -1.056184E+02  2.626349E+03 -3.870202E+02
        27   4 -5.602690E+05  6.519859E+01 -1.051718E+03 -2.556570E+02  8.199863E+02 -4.127173E+02
        27   5 -5.601286E+05  4.371291E+02 -1.746108E+03 -2.017428E+02  1.728554E+03 -4.702516E+02
        27   6 -5.602697E+05 -1.841600E+03 -3.594948E+03 -2.542086E+02  2.637072E+03 -3.870158E+02
        27   7 -6.558376E+05 -2.383928E+04 -2.494073E+04 -2.049405E+02  8.106970E+02 -4.127212E+02
        27   8 -6.557191E+05 -2.347234E+04 -2.563791E+04 -2.506674E+02  1.729270E+03 -4.702559E+02
        27   9 -6.558841E+05 -2.575804E+04 -2.749663E+04 -4.027775E+02  2.647793E+03 -3.870115E+02
        27  10 -4.646922E+05  2.396899E+04  2.283660E+04 -3.063811E+02  5.326292E-10  2.478204E-10
        27  11 -4.645298E+05  2.434590E+04  2.214499E+04 -1.528108E+02  2.954683E-10  4.504697E-11
        27  12 -4.646470E+05  2.207415E+04  2.030603E+04 -1.056176E+02  1.284059E-10  2.189125E-10
        27  13 -5.602690E+05  6.519822E+01 -1.051720E+03 -2.556568E+02  4.220454E-11  3.926771E-11
        27  14 -5.601286E+05  4.371281E+02 -1.746114E+03 -2.017421E+02 -5.636887E-10 -2.368474E-10
        27  15 -5.602697E+05 -1.841602E+03 -3.594962E+03 -2.542078E+02  2.789197E-10 -3.289640E-12
        27  16 -6.558376E+05 -2.383928E+04 -2.494073E+04 -2.049402E+02 -2.836812E-10  3.126351E-10
        27  17 -6.557191E+05 -2.347234E+04 -2.563791E+04 -2.506667E+02 -9.897178E-10 -1.596868E-10
        27  18 -6.558841E+05 -2.575804E+04 -2.749664E+04 -4.027767E+02 -3.992123E-10  3.944390E-10
        27  19 -4.646922E+05  2.396899E+04  2.283660E+04 -3.063814E+02 -8.292770E+02  4.127135E+02
        27  20 -4.645298E+05  2.434590E+04  2.214500E+04 -1.528114E+02 -1.727838E+03  4.702473E+02
        27  21 -4.646470E+05  2.207415E+04  2.030604E+04 -1.056184E+02 -2.626349E+03  3.870202E+02
        27  22 -5.602690E+05  6.519859E+01 -1.051718E+03 -2.556570E+02 -8.199863E+02  4.127173E+02
        27  23 -5.601286E+05  4.371291E+02 -1.746108E+03 -2.017428E+02 -1.728554E+03  4.702516E+02
        27  24 -5.602697E+05 -1.841600E+03 -3.594948E+03 -2.542086E+02 -2.637072E+03  3.870158E+02
        27  25 -6.558376E+05 -2.383928E+04 -2.494073E+04 -2.049405E+02 -8.106970E+02  4.127212E+02
        27  26 -6.557191E+05 -2.347234E+04 -2.563791E+04 -2.506674E+02 -1.729270E+03  4.702559E+02
        27  27 -6.558841E+05 -2.575804E+04 -2.749663E+04 -4.027775E+02 -2.647793E+03  3.870115E+02
        28   1 -4.815826E+05  2.027859E+04  1.553932E+04  4.973833E+02  3.366625E+03 -3.967862E+02
        28   2 -4.802035E+05  2.254143E+04  1.303384E+04 -1.217185E+03  6.977248E+03 -4.086496E+02
        28   3 -4.832612E+05  7.643542E+03  3.951311E+03  1.452729E+03  1.058738E+04 -1.199104E+02
        28   4 -5.611922E+05  3.692030E+02 -4.355635E+03  7.363559E+02  3.354401E+03 -3.968001E+02
        28   5 -5.589738E+05  2.840893E+03 -6.650597E+03 -1.445854E+03  6.986252E+03 -4.086426E+02
        28   6 -5.611966E+05 -1.185301E+04 -1.553794E+04  7.564568E+02  1.061762E+04 -1.198712E+02
        28   7 -6.407960E+05 -1.954066E+04 -2.425107E+04  9.752964E+02  3.342178E+03 -3.968141E+02
        28   8 -6.377386E+05 -1.686011E+04 -2.633550E+04 -1.674495E+03  6.995254E+03 -4.086356E+02
        28   9 -6.391265E+05 -3.135001E+04 -3.502766E+04  6.026944E+01  1.064785E+04 -1.198321E+02
        28  10 -4.815826E+05  2.027859E+04  1.553930E+04  4.973844E+02 -9.211089E-10  1.151162E-09
        28  11 -4.802036E+05  2.254142E+04  1.303375E+04 -1.217183E+03  8.439229E-10  2.973337E-10
        28  12 -4.832614E+05  7.643512E+03  3.951100E+03  1.452730E+03  7.600095E-10 -4.711909E-10
        28  13 -5.611922E+05  3.691998E+02 -4.355657E+03  7.363570E+02 -8.710615E-12  2.974545E-11
        28  14 -5.589739E+05  2.840880E+03 -6.650689E+03 -1.445852E+03 -5.135029E-10 -2.910826E-10
        28  15 -5.611967E+05 -1.185304E+04 -1.553816E+04  7.564579E+02 -5.146170E-11  3.009068E-11
        28  16 -6.407960E+05 -1.954066E+04 -2.425109E+04  9.752975E+02  1.327828E-09  4.081693E-10
        28  17 -6.377386E+05 -1.686013E+04 -2.633559E+04 -1.674493E+03  7.175484E-10  6.963609E-10
        28  18 -6.391266E+05 -3.135005E+04 -3.502787E+04  6.027046E+01  5.886862E-10 -1.120463E-10
        28  19 -4.815826E+05  2.027859E+04  1.553932E+04  4.973833E+02 -3.366625E+03  3.967862E+02
        28  20 -4.802035E+05  2.254143E+04  1.303384E+04 -1.217185E+03 -6.977248E+03  4.086496E+02
        28  21 -4.832612E+05  7.643542E+03  3.951311E+03  1.452729E+03 -1.058738E+04  1.199104E+02
        28  22 -5.611922E+05  3.692030E+02 -4.355635E+03  7.363559E+02 -3.354401E+03  3.968001E+02
        28  23 -5.589738E+05  2.840893E+03 -6.650597E+03 -1.445854E+03 -6.986252E+03  4.086426E+02
        28  24 -5.611966E+05 -1.185301E+04 -1.553794E+04  7.564568E+02 -1.061762E+04  1.198712E+02
        28  25 -6.407960E+05 -1.954066E+04 -2.425107E+04  9.752964E+02 -3.342178E+03  3.968141E+02
        28  26 -6.377386E+05 -1.686011E+04 -2.633550E+04 -1.674495E+03 -6.995254E+03  4.086356E+02
        28  27 -6.391265E+05 -3.135001E+04 -3.502766E+04  6.026944E+01 -1.064785E+04  1.198321E+02
        29   1  7.260000E+04  6.471472E+03  9.502631E+04 -3.538190E+03 -1.126036E+02  6.481060E+04
        29   2 -1.740830E+04 -8.105028E+03  4.052773E+04 -9.343569E+02 -7.388701E+01  4.263482E+04
        29   3 -2.291088E+03  6.488626E+03  2.675039E+04  1.800985E+03 -3.536496E+01  2.045854E+04
        29   4  7.258733E+04  6.484107E+03  9.502630E+04  1.144608E+02 -1.122222E+02  6.481060E+04
        29   5 -1.741148E+04 -8.101849E+03  4.052773E+04 -1.612007E+01 -7.382395E+01  4.263482E+04
        29   6 -2.284804E+03  6.482332E+03  2.675038E+04 -1.518070E+01 -3.542481E+01  2.045854E+04
        29   7  7.257470E+04  6.496770E+03  9.502631E+04  3.767112E+03 -1.118409E+02  6.481060E+04
        29   8 -1.741466E+04 -8.098668E+03  4.052773E+04  9.021167E+02 -7.376089E+01  4.263482E+04
        29   9 -2.278508E+03  6.476046E+03  2.675039E+04 -1.831346E+03 -3.548466E+01  2.045854E+04
        29  10  7.259888E+04  6.466961E+03  9.501842E+04 -3.538184E+03 -9.587997E-08 -1.070938E-07
        29  11 -1.740879E+04 -8.106980E+03  4.052431E+04 -9.343543E+02 -4.177953E-07 -1.872201E-07
        29  12 -2.291200E+03  6.488176E+03  2.674960E+04  1.800985E+03 -7.355618E-07 -1.336325E-07
        29  13  7.258620E+04  6.479597E+03  9.501841E+04  1.144667E+02  1.141690E-07 -5.560188E-09
        29  14 -1.741197E+04 -8.103801E+03  4.052431E+04 -1.611753E+01  5.207587E-07 -2.463289E-08
        29  15 -2.284916E+03  6.481883E+03  2.674960E+04 -1.518012E+01  9.339214E-07 -4.366749E-08
        29  16  7.257358E+04  6.492260E+03  9.501842E+04  3.767118E+03 -9.662094E-08  1.021549E-07
        29  17 -1.741515E+04 -8.100620E+03  4.052431E+04  9.021193E+02 -4.203025E-07  1.653277E-07
        29  18 -2.278620E+03  6.475597E+03  2.674960E+04 -1.831346E+03 -7.332208E-07  9.482110E-08
        29  19  7.260000E+04  6.471472E+03  9.502631E+04 -3.538190E+03  1.126035E+02 -6.481060E+04
        29  20 -1.740830E+04 -8.105028E+03  4.052773E+04 -9.343569E+02  7.388701E+01 -4.263482E+04
        29  21 -2.291089E+03  6.488625E+03  2.675039E+04  1.800985E+03  3.536496E+01 -2.045854E+04
        29  22  7.258733E+04  6.484107E+03  9.502630E+04  1.144608E+02  1.122222E+02 -6.481060E+04
        29  23 -1.741148E+04 -8.101849E+03  4.052773E+04 -1.612007E+01  7.382395E+01 -4.263482E+04
        29  24 -2.284804E+03  6.482332E+03  2.675038E+04 -1.518070E+01  3.542481E+01 -2.045854E+04
        29  25  7.257470E+04  6.496770E+03  9.502631E+04  3.767112E+03  1.118409E+02 -6.481060E+04
        29  26 -1.741466E+04 -8.098668E+03  4.052773E+04  9.021167E+02  7.376089E+01 -4.263482E+04
        29  27 -2.278507E+03  6.476047E+03  2.675039E+04 -1.831346E+03  3.548466E+01 -2.045854E+04
        30   1  1.131161E+04  1.074294E+03  2.219405E+04 -5.285321E+02 -2.773402E+01  1.600882E+04
        30   2 -2.725148E+03 -1.345445E+03  1.064564E+04 -1.306210E+02 -1.803234E+01  1.041280E+04
        30   3 -3.079724E+02  1.077051E+03  6.854127E+03  2.873959E+02 -8.338226E+00  4.816791E+03
        30   4  1.130972E+04  1.076185E+03  2.219405E+04  1.771983E+01 -2.771993E+01  1.600882E+04
        30   5 -2.725592E+03 -1.345001E+03  1.064564E+04 -2.390555E+00 -1.803019E+01  1.041280E+04
        30   6 -3.069689E+02  1.076047E+03  6.854127E+03 -2.394760E+00 -8.340473E+00  4.816791E+03
        30   7  1.130782E+04  1.078077E+03  2.219405E+04  5.639718E+02 -2.770585E+01  1.600882E+04
        30   8 -2.726036E+03 -1.344557E+03  1.064564E+04  1.258399E+02 -1.802804E+01  1.041280E+04
        30   9 -3.059651E+02  1.075043E+03  6.854127E+03 -2.921855E+02 -8.342723E+00  4.816791E+03
        30  10  1.131154E+04  1.074018E+03  2.219357E+04 -5.285318E+02 -7.892563E-07  6.035529E-09
        30  11 -2.725177E+03 -1.345562E+03  1.064543E+04 -1.306209E+02 -6.695775E-07  4.809756E-08
        30  12 -3.079790E+02  1.077026E+03  6.854083E+03  2.873960E+02 -5.507708E-07  5.366824E-08
        30  13  1.130965E+04  1.075910E+03  2.219357E+04  1.772019E+01  1.008266E-06 -4.745500E-08
        30  14 -2.725621E+03 -1.345118E+03  1.064543E+04 -2.390404E+00  8.416928E-07 -4.125256E-08
        30  15 -3.069752E+02  1.076022E+03  6.854083E+03 -2.394727E+00  6.729099E-07 -3.507371E-08
        30  16  1.130776E+04  1.077802E+03  2.219357E+04  5.639722E+02 -7.887563E-07 -4.812455E-08
        30  17 -2.726064E+03 -1.344674E+03  1.064543E+04  1.258401E+02 -6.677590E-07 -8.458496E-08
        30  18 -3.059710E+02  1.075019E+03  6.854083E+03 -2.921854E+02 -5.508553E-07 -8.454394E-08
        30  19  1.131161E+04  1.074294E+03  2.219405E+04 -5.285321E+02  2.773402E+01 -1.600882E+04
        30  20 -2.725149E+03 -1.345446E+03  1.064564E+04 -1.306210E+02  1.803234E+01 -1.041280E+04
        30  21 -3.079731E+02  1.077051E+03  6.854127E+03  2.873959E+02  8.338225E+00 -4.816791E+03
        30  22  1.130972E+04  1.076185E+03  2.219405E+04  1.771983E+01  2.771994E+01 -1.600882E+04
        30  23 -2.725592E+03 -1.345001E+03  1.064564E+04 -2.390554E+00  1.803019E+01 -1.041280E+04
        30  24 -3.069689E+02  1.076047E+03  6.854127E+03 -2.394759E+00  8.340475E+00 -4.816791E+03
        30  25  1.130783E+04  1.078077E+03  2.219405E+04  5.639718E+02  2.770585E+01 -1.600882E+04
        30  26 -2.726035E+03 -1.344557E+03  1.064564E+04  1.258399E+02  1.802804E+01 -1.041280E+04
        30  27 -3.059644E+02  1.075044E+03  6.854127E+03 -2.921855E+02  8.342722E+00 -4.816791E+03
        31   1  1.746555E+03  2.124094E+02  5.649298E+03 -8.326432E+01 -6.375314E+00  3.681577E+03
        31   2 -4.867341E+02 -2.659193E+02  3.340407E+03 -1.499657E+01 -3.413605E+00  1.971398E+03
        31   3  2.178107E+02  2.128926E+02  2.879369E+03  5.669979E+01 -4.523360E-01  2.612463E+02
        31   4  1.746258E+03  2.127069E+02  5.649298E+03  2.655413E+00 -6.374803E+00  3.681577E+03
        31   5 -4.867847E+02 -2.658688E+02  3.340407E+03 -3.825245E-01 -3.413558E+00  1.971398E+03
        31   6  2.180071E+02  2.126962E+02  2.879369E+03  9.190613E-03 -4.523591E-01  2.612463E+02
        31   7  1.745960E+03  2.130044E+02  5.649298E+03  8.857515E+01 -6.374295E+00  3.681577E+03
        31   8 -4.868353E+02 -2.658182E+02  3.340407E+03  1.423152E+01 -3.413512E+00  1.971398E+03
        31   9  2.182034E+02  2.124998E+02  2.879369E+03 -5.668141E+01 -4.523837E-01  2.612463E+02
        31  10  1.746551E+03  2.123948E+02  5.649273E+03 -8.326430E+01 -4.819047E-07  2.558034E-08
        31  11 -4.867354E+02 -2.659236E+02  3.340400E+03 -1.499656E+01 -3.853622E-07  1.677853E-08
        31  12  2.178105E+02  2.128924E+02  2.879368E+03  5.669980E+01 -3.156794E-07  9.558732E-08
        31  13  1.746254E+03  2.126924E+02  5.649273E+03  2.655432E+00  5.987999E-07 -3.180295E-08
        31  14 -4.867857E+02 -2.658730E+02  3.340400E+03 -3.825197E-01  4.952867E-07 -2.679834E-08
        31  15  2.180071E+02  2.126961E+02  2.879368E+03  9.194344E-03  3.644620E-07 -2.184690E-08
        31  16  1.745957E+03  2.129899E+02  5.649273E+03  8.857516E+01 -4.845190E-07 -5.350455E-08
        31  17 -4.868360E+02 -2.658223E+02  3.340400E+03  1.423152E+01 -3.864833E-07 -4.023786E-08
        31  18  2.182036E+02  2.124997E+02  2.879369E+03 -5.668141E+01 -3.131457E-07 -1.146520E-07
        31  19  1.746554E+03  2.124093E+02  5.649298E+03 -8.326431E+01  6.375313E+00 -3.681577E+03
        31  20 -4.867346E+02 -2.659195E+02  3.340407E+03 -1.499656E+01  3.413605E+00 -1.971398E+03
        31  21  2.178103E+02  2.128925E+02  2.879369E+03  5.669980E+01  4.523353E-01 -2.612463E+02
        31  22  1.746258E+03  2.127069E+02  5.649298E+03  2.655413E+00  6.374805E+00 -3.681577E+03
        31  23 -4.867847E+02 -2.658688E+02  3.340407E+03 -3.825257E-01  3.413559E+00 -1.971398E+03
        31  24  2.180071E+02  2.126962E+02  2.879369E+03  9.197836E-03  4.523599E-01 -2.612463E+02
        31  25  1.745961E+03  2.130046E+02  5.649298E+03  8.857514E+01  6.374294E+00 -3.681577E+03
        31  26 -4.868347E+02 -2.658181E+02  3.340408E+03  1.423152E+01  3.413512E+00 -1.971398E+03
        31  27  2.182038E+02  2.124999E+02  2.879369E+03 -5.668141E+01  4.523831E-01 -2.612463E+02
        32   1 -2.449203E+06 -7.867704E+05 -5.036752E+05 -8.577901E+05 -2.424891E+05 -8.582006E+04
        32   2 -2.377530E+06 -4.221080E+05 -2.760328E+05 -8.911769E+05 -1.574065E+05 -4.279164E+04
        32   3 -2.428307E+06 -4.198625E+05 -2.088011E+05 -8.564547E+05 -6.819107E+04 -1.071813E+04
        32   4 -2.012335E+06 -5.488058E+05 -3.698588E+05 -6.643446E+05 -2.361825E+05 -8.347933E+04
        32   5 -1.932433E+06 -2.339569E+05 -1.534816E+05 -7.488633E+05 -1.557120E+05 -4.216090E+04
        32   6 -1.973970E+06 -2.804688E+05 -9.376300E+04 -7.653029E+05 -7.110912E+04 -1.181194E+04
        32   7 -1.575270E+06 -3.107598E+05 -2.360611E+05 -4.707560E+05 -2.298710E+05 -8.113486E+04
        32   8 -1.487143E+06 -4.577954E+04 -3.094872E+04 -6.064523E+05 -1.540160E+05 -4.152951E+04
        32   9 -1.519432E+06 -1.410772E+05  2.125976E+04 -6.740982E+05 -7.402951E+04 -1.290625E+04
        32  10 -2.449268E+06 -7.867942E+05 -5.038001E+05 -8.578070E+05  1.126308E-09  6.447349E-11
        32  11 -2.377557E+06 -4.221166E+05 -2.760831E+05 -8.911823E+05 -3.758511E-10 -1.217898E-10
        32  12 -2.428313E+06 -4.198639E+05 -2.088101E+05 -8.564553E+05 -7.620871E-10 -1.681328E-10
        32  13 -2.012397E+06 -5.488284E+05 -3.699771E+05 -6.643605E+05 -1.178287E-09 -1.961579E-10
        32  14 -1.932460E+06 -2.339654E+05 -1.535307E+05 -7.488686E+05 -2.084381E-09 -3.241684E-10
        32  15 -1.973976E+06 -2.804703E+05 -9.377280E+04 -7.653036E+05 -2.067036E-09 -2.768209E-10
        32  16 -1.575329E+06 -3.107811E+05 -2.361731E+05 -4.707710E+05 -1.760903E-09 -2.493583E-10
        32  17 -1.487169E+06 -4.578779E+04 -3.099667E+04 -6.064574E+05 -2.069088E-09 -5.432025E-10
        32  18 -1.519438E+06 -1.410789E+05  2.124912E+04 -6.740990E+05 -2.634772E-10 -1.427401E-10
        32  19 -2.449203E+06 -7.867704E+05 -5.036752E+05 -8.577901E+05  2.424891E+05  8.582006E+04
        32  20 -2.377530E+06 -4.221080E+05 -2.760328E+05 -8.911769E+05  1.574065E+05  4.279164E+04
        32  21 -2.428307E+06 -4.198625E+05 -2.088011E+05 -8.564547E+05  6.819107E+04  1.071813E+04
        32  22 -2.012335E+06 -5.488058E+05 -3.698588E+05 -6.643446E+05  2.361825E+05  8.347933E+04
        32  23 -1.932433E+06 -2.339569E+05 -1.534816E+05 -7.488633E+05  1.557120E+05  4.216090E+04
        32  24 -1.973970E+06 -2.804688E+05 -9.376300E+04 -7.653029E+05  7.110912E+04  1.181194E+04
        32  25 -1.575270E+06 -3.107598E+05 -2.360611E+05 -4.707560E+05  2.298710E+05  8.113486E+04
        32  26 -1.487143E+06 -4.577954E+04 -3.094872E+04 -6.064523E+05  1.540160E+05  4.152951E+04
        32  27 -1.519432E+06 -1.410772E+05  2.125976E+04 -6.740982E+05  7.402951E+04  1.290625E+04
        33   1 -2.334105E+06 -4.692871E+05 -1.777447E+05 -8.532492E+05 -5.677624E+04 -9.107133E+03
        33   2 -2.304228E+06 -4.053046E+05 -1.281548E+05 -8.374763E+05 -3.725976E+04 -2.241686E+03
        33   3 -2.270042E+06 -4.036119E+05 -1.040067E+05 -8.366012E+05 -1.734309E+04  3.559329E+03
        33   4 -1.961203E+06 -3.208583E+05 -7.650710E+04 -7.435397E+05 -5.674721E+04 -9.097607E+03
        33   5 -1.961168E+06 -2.740804E+05 -3.622379E+04 -7.419716E+05 -3.767273E+04 -2.397360E+03
        33   6 -1.956727E+06 -2.894896E+05 -2.101878E+04 -7.553033E+05 -1.819914E+04  3.237916E+03
        33   7 -1.588167E+06 -1.724172E+05  2.471766E+04 -6.337692E+05 -5.671815E+04 -9.088069E+03
        33   8 -1.617994E+06 -1.428482E+05  5.569686E+04 -6.464189E+05 -3.808595E+04 -2.553128E+03
        33   9 -1.643316E+06 -1.753629E+05  6.196085E+04 -6.739688E+05 -1.905568E+04  2.916337E+03
        33  10 -2.334109E+06 -4.692880E+05 -1.777509E+05 -8.532496E+05 -5.432371E-10 -3.332825E-10
        33  11 -2.304229E+06 -4.053050E+05 -1.281575E+05 -8.374764E+05 -4.706023E-10 -7.996433E-10
        33  12 -2.270042E+06 -4.036120E+05 -1.040073E+05 -8.366011E+05 -1.332540E-09 -7.326618E-10
        33  13 -1.961207E+06 -3.208592E+05 -7.651333E+04 -7.435401E+05 -1.894363E-09 -3.121249E-10
        33  14 -1.961169E+06 -2.740808E+05 -3.622648E+04 -7.419717E+05 -1.225350E-09 -5.386654E-10
        33  15 -1.956727E+06 -2.894897E+05 -2.101943E+04 -7.553032E+05 -3.474158E-09 -1.136982E-09
        33  16 -1.588170E+06 -1.724182E+05  2.471144E+04 -6.337697E+05 -1.501398E-11 -2.744775E-10
        33  17 -1.617995E+06 -1.428486E+05  5.569412E+04 -6.464190E+05 -1.776803E-10 -8.851406E-10
        33  18 -1.643317E+06 -1.753630E+05  6.196015E+04 -6.739688E+05 -3.652812E-09 -1.305366E-09
        33  19 -2.334105E+06 -4.692871E+05 -1.777447E+05 -8.532492E+05  5.677624E+04  9.107133E+03
        33  20 -2.304228E+06 -4.053046E+05 -1.281548E+05 -8.374763E+05  3.725976E+04  2.241686E+03
        33  21 -2.270042E+06 -4.036119E+05 -1.040067E+05 -8.366012E+05  1.734309E+04 -3.559329E+03
        33  22 -1.961203E+06 -3.208583E+05 -7.650710E+04 -7.435397E+05  5.674721E+04  9.097607E+03
        33  23 -1.961168E+06 -2.740804E+05 -3.622379E+04 -7.419716E+05  3.767273E+04  2.397360E+03
        33  24 -1.956727E+06 -2.894896E+05 -2.101878E+04 -7.553033E+05  1.819914E+04 -3.237916E+03
        33  25 -1.588167E+06 -1.724172E+05  2.471766E+04 -6.337692E+05  5.671815E+04  9.088069E+03
        33  26 -1.617994E+06 -1.428482E+05  5.569686E+04 -6.464189E+05  3.808595E+04  2.553128E+03
        33  27 -1.643316E+06 -1.753629E+05  6.196085E+04 -6.739688E+05  1.905568E+04 -2.916337E+03
        34   1 -2.205073E+06 -3.895596E+05 -8.335470E+04 -8.221290E+05 -1.418575E+04  3.576754E+03
        34   2 -2.178626E+06 -3.587842E+05 -6.539500E+04 -7.988426E+05 -9.280881E+03  3.756175E+03
        34   3 -2.130440E+06 -3.567624E+05 -5.195459E+04 -8.019714E+05 -4.323644E+03  3.793999E+03
        34   4 -1.954629E+06 -2.945359E+05 -1.648690E+04 -7.531753E+05 -1.477846E+04  3.354200E+03
        34   5 -1.965242E+06 -2.783426E+05 -8.436081E+03 -7.406492E+05 -9.932101E+03  3.511890E+03
        34   6 -1.954106E+06 -2.908893E+05 -4.856359E+03 -7.545381E+05 -5.033675E+03  3.527894E+03
        34   7 -1.704124E+06 -1.995081E+05  5.037539E+04 -6.841964E+05 -1.537144E+04  3.131545E+03
        34   8 -1.751815E+06 -1.978983E+05  4.851878E+04 -6.824378E+05 -1.058357E+04  3.267513E+03
        34   9 -1.777742E+06 -2.250146E+05  4.223903E+04 -7.070928E+05 -5.743926E+03  3.261708E+03
        34  10 -2.205073E+06 -3.895597E+05 -8.335510E+04 -8.221289E+05 -2.683333E-09 -1.027528E-09
        34  11 -2.178626E+06 -3.587843E+05 -6.539519E+04 -7.988426E+05  6.885241E-10 -1.044219E-09
        34  12 -2.130440E+06 -3.567624E+05 -5.195465E+04 -8.019714E+05  1.446537E-09  9.055749E-11
        34  13 -1.954629E+06 -2.945359E+05 -1.648734E+04 -7.531752E+05 -1.668720E-09 -1.154187E-09
        34  14 -1.965242E+06 -2.783426E+05 -8.436290E+03 -7.406492E+05  8.418058E-10 -1.001158E-09
        34  15 -1.954106E+06 -2.908893E+05 -4.856430E+03 -7.545381E+05 -9.220439E-10 -1.298147E-10
        34  16 -1.704124E+06 -1.995082E+05  5.037492E+04 -6.841963E+05 -2.943291E-09 -1.301834E-09
        34  17 -1.751815E+06 -1.978983E+05  4.851855E+04 -6.824378E+05  7.787416E-10 -1.130412E-09
        34  18 -1.777742E+06 -2.250147E+05  4.223895E+04 -7.070928E+05 -6.508638E-11 -5.015170E-11
        34  19 -2.205073E+06 -3.895596E+05 -8.335470E+04 -8.221290E+05  1.418575E+04 -3.576754E+03
        34  20 -2.178626E+06 -3.587842E+05 -6.539500E+04 -7.988426E+05  9.280881E+03 -3.756175E+03
        34  21 -2.130440E+06 -3.567624E+05 -5.195459E+04 -8.019714E+05  4.323644E+03 -3.793999E+03
        34  22 -1.954629E+06 -2.945359E+05 -1.648690E+04 -7.531753E+05  1.477846E+04 -3.354200E+03
        34  23 -1.965242E+06 -2.783426E+05 -8.436081E+03 -7.406492E+05  9.932101E+03 -3.511890E+03
        34  24 -1.954106E+06 -2.908893E+05 -4.856359E+03 -7.545381E+05  5.033675E+03 -3.527894E+03
        34  25 -1.704124E+06 -1.995081E+05  5.037539E+04 -6.841964E+05  1.537144E+04 -3.131545E+03
        34  26 -1.751815E+06 -1.978983E+05  4.851878E+04 -6.824378E+05  1.058357E+04 -3.267513E+03
        34  27 -1.777742E+06 -2.250146E+05  4.223903E+04 -7.070928E+05  5.743926E+03 -3.261708E+03
        35   1 -2.065690E+06 -3.338328E+05 -3.356218E+04 -7.850443E+05 -3.277045E+03  3.092012E+03
        35   2 -2.038781E+06 -3.059736E+05 -2.166567E+04 -7.600141E+05 -1.526037E+03  1.892933E+03
        35   3 -1.987124E+06 -3.038401E+05 -1.078139E+04 -7.636927E+05  2.342965E+02  6.682700E+02
        35   4 -1.953636E+06 -2.916505E+05 -3.804071E+03 -7.545093E+05 -3.964469E+03  2.834479E+03
        35   5 -1.965981E+06 -2.785957E+05 -2.247063E+03 -7.402264E+05 -2.224163E+03  1.631459E+03
        35   6 -1.953580E+06 -2.912645E+05 -1.693775E+03 -7.546529E+05 -4.746227E+02  4.028356E+02
        35   7 -1.841570E+06 -2.494674E+05  2.595308E+04 -7.239691E+05 -4.652031E+03  2.576893E+03
        35   8 -1.893177E+06 -2.512176E+05  1.717105E+04 -7.204367E+05 -2.922379E+03  1.369951E+03
        35   9 -1.920035E+06 -2.786889E+05  7.393681E+03 -7.456127E+05 -1.183579E+03  1.373874E+02
        35  10 -2.065690E+06 -3.338328E+05 -3.356222E+04 -7.850443E+05  9.059428E-10  8.952935E-11
        35  11 -2.038781E+06 -3.059736E+05 -2.166568E+04 -7.600141E+05 -5.735298E-10 -5.113939E-10
        35  12 -1.987124E+06 -3.038401E+05 -1.078140E+04 -7.636927E+05 -1.102085E-09  3.178980E-10
        35  13 -1.953636E+06 -2.916506E+05 -3.804115E+03 -7.545093E+05 -5.552785E-10  6.920404E-11
        35  14 -1.965981E+06 -2.785957E+05 -2.247077E+03 -7.402264E+05 -1.313043E-09 -4.249086E-10
        35  15 -1.953580E+06 -2.912645E+05 -1.693776E+03 -7.546529E+05 -3.042298E-10  1.408604E-10
        35  16 -1.841570E+06 -2.494674E+05  2.595302E+04 -7.239691E+05 -3.103328E-10  4.563892E-10
        35  17 -1.893177E+06 -2.512176E+05  1.717103E+04 -7.204367E+05 -2.146490E-11 -2.542273E-10
        35  18 -1.920035E+06 -2.786889E+05  7.393678E+03 -7.456127E+05  5.593136E-10  1.997119E-10
        35  19 -2.065690E+06 -3.338328E+05 -3.356218E+04 -7.850443E+05  3.277045E+03 -3.092012E+03
        35  20 -2.038781E+06 -3.059736E+05 -2.166567E+04 -7.600141E+05  1.526037E+03 -1.892933E+03
        35  21 -1.987124E+06 -3.038401E+05 -1.078139E+04 -7.636927E+05 -2.342965E+02 -6.682700E+02
        35  22 -1.953636E+06 -2.916505E+05 -3.804071E+03 -7.545093E+05  3.964469E+03 -2.834479E+03
        35  23 -1.965981E+06 -2.785957E+05 -2.247063E+03 -7.402264E+05  2.224163E+03 -1.631459E+03
        35  24 -1.953580E+06 -2.912645E+05 -1.693775E+03 -7.546529E+05  4.746227E+02 -4.028356E+02
        35  25 -1.841570E+06 -2.494674E+05  2.595308E+04 -7.239691E+05  4.652031E+03 -2.576893E+03
        35  26 -1.893177E+06 -2.512176E+05  1.717105E+04 -7.204367E+05  2.922379E+03 -1.369951E+03
        35  27 -1.920035E+06 -2.786889E+05  7.393681E+03 -7.456127E+05  1.183579E+03 -1.373874E+02
        36   1 -1.921619E+06 -2.792887E+05  7.026489E+03 -7.460270E+05  8.730574E+02 -2.001216E+02
        36   2 -1.894762E+06 -2.518174E+05  1.707022E+04 -7.208565E+05  2.451850E+03 -1.493266E+03
        36   3 -1.843084E+06 -2.499730E+05  2.626634E+04 -7.244281E+05  4.021253E+03 -2.760143E+03
        36   4 -1.953569E+06 -2.912780E+05 -1.638111E+03 -7.546475E+05  1.637477E+02 -4.657001E+02
        36   5 -1.965999E+06 -2.786080E+05 -1.930190E+03 -7.402221E+05  1.753571E+03 -1.754794E+03
        36   6 -1.953610E+06 -2.915675E+05 -3.078508E+03 -7.545396E+05  3.333937E+03 -3.017639E+03
        36   7 -1.985518E+06 -3.032672E+05 -1.030283E+04 -7.632677E+05 -5.455239E+02 -7.312644E+02
        36   8 -2.037231E+06 -3.053985E+05 -2.093115E+04 -7.595858E+05  1.055376E+03 -2.016290E+03
        36   9 -2.064126E+06 -3.331616E+05 -3.242466E+04 -7.846465E+05  2.646751E+03 -3.275086E+03
        36  10 -1.921619E+06 -2.792887E+05  7.026488E+03 -7.460270E+05 -1.314239E-09  7.519734E-10
        36  11 -1.894762E+06 -2.518174E+05  1.707021E+04 -7.208565E+05 -6.420839E-10  5.361285E-11
        36  12 -1.843084E+06 -2.499730E+05  2.626630E+04 -7.244281E+05 -4.906031E-10  1.393998E-10
        36  13 -1.953569E+06 -2.912780E+05 -1.638112E+03 -7.546475E+05  1.008750E-09  2.160408E-10
        36  14 -1.965999E+06 -2.786080E+05 -1.930202E+03 -7.402221E+05 -1.729392E-09  1.530344E-11
        36  15 -1.953611E+06 -2.915675E+05 -3.078546E+03 -7.545396E+05  3.552347E-10  1.445875E-10
        36  16 -1.985518E+06 -3.032672E+05 -1.030283E+04 -7.632677E+05  8.888719E-10 -1.944228E-10
        36  17 -2.037231E+06 -3.053985E+05 -2.093116E+04 -7.595858E+05 -9.687073E-10  2.725566E-10
        36  18 -2.064126E+06 -3.331616E+05 -3.242470E+04 -7.846465E+05  9.925973E-10 -4.229762E-11
        36  19 -1.921619E+06 -2.792887E+05  7.026489E+03 -7.460270E+05 -8.730574E+02  2.001216E+02
        36  20 -1.894762E+06 -2.518174E+05  1.707022E+04 -7.208565E+05 -2.451850E+03  1.493266E+03
        36  21 -1.843084E+06 -2.499730E+05  2.626634E+04 -7.244281E+05 -4.021253E+03  2.760143E+03
        36  22 -1.953569E+06 -2.912780E+05 -1.638111E+03 -7.546475E+05 -1.637477E+02  4.657001E+02
        36  23 -1.965999E+06 -2.786080E+05 -1.930190E+03 -7.402221E+05 -1.753571E+03  1.754794E+03
        36  24 -1.953610E+06 -2.915675E+05 -3.078508E+03 -7.545396E+05 -3.333937E+03  3.017639E+03
        36  25 -1.985518E+06 -3.032672E+05 -1.030283E+04 -7.632677E+05  5.455239E+02  7.312644E+02
        36  26 -2.037231E+06 -3.053985E+05 -2.093115E+04 -7.595858E+05 -1.055376E+03  2.016290E+03
        36  27 -2.064126E+06 -3.331616E+05 -3.242466E+04 -7.846465E+05 -2.646751E+03  3.275086E+03
        37   1 -1.779344E+06 -2.255708E+05  4.278613E+04 -7.074052E+05  4.973566E+03 -3.496799E+03
        37   2 -1.753485E+06 -1.986503E+05  4.987414E+04 -6.828719E+05  8.908488E+03 -3.842002E+03
        37   3 -1.705364E+06 -1.994629E+05  5.348367E+04 -6.850109E+05  1.279216E+04 -4.047403E+03
        37   4 -1.954030E+06 -2.909185E+05 -3.881692E+03 -7.545017E+05  4.263739E+03 -3.762831E+03
        37   5 -1.965360E+06 -2.784798E+05 -6.660773E+03 -7.406292E+05  8.256960E+03 -4.086396E+03
        37   6 -1.954442E+06 -2.937870E+05 -1.296539E+04 -7.534298E+05  1.219872E+04 -4.270219E+03
        37   7 -2.128685E+06 -3.562640E+05 -5.055184E+04 -8.015859E+05  3.554138E+03 -4.028779E+03
        37   8 -2.177191E+06 -3.583063E+05 -6.319937E+04 -7.983685E+05  7.605678E+03 -4.330697E+03
        37   9 -2.203459E+06 -3.881071E+05 -7.941981E+04 -8.218237E+05  1.160553E+04 -4.492935E+03
        37  10 -1.779344E+06 -2.255708E+05  4.278606E+04 -7.074052E+05 -2.368256E-10  1.200950E-12
        37  11 -1.753485E+06 -1.986503E+05  4.987396E+04 -6.828719E+05  1.031750E-09  3.663881E-10
        37  12 -1.705364E+06 -1.994630E+05  5.348333E+04 -6.850109E+05 -7.654552E-10  1.348661E-10
        37  13 -1.954030E+06 -2.909185E+05 -3.881752E+03 -7.545017E+05 -1.744337E-09  2.134298E-10
        37  14 -1.965360E+06 -2.784798E+05 -6.660933E+03 -7.406292E+05 -4.992112E-10  1.219584E-10
        37  15 -1.954442E+06 -2.937871E+05 -1.296571E+04 -7.534298E+05 -8.433623E-10  2.575427E-10
        37  16 -2.128685E+06 -3.562640E+05 -5.055190E+04 -8.015859E+05  3.209230E-10  3.486801E-10
        37  17 -2.177191E+06 -3.583063E+05 -6.319952E+04 -7.983684E+05 -1.387070E-09  3.756780E-10
        37  18 -2.203460E+06 -3.881071E+05 -7.942011E+04 -8.218237E+05  8.991238E-11  4.451446E-10
        37  19 -1.779344E+06 -2.255708E+05  4.278613E+04 -7.074052E+05 -4.973566E+03  3.496799E+03
        37  20 -1.753485E+06 -1.986503E+05  4.987414E+04 -6.828719E+05 -8.908488E+03  3.842002E+03
        37  21 -1.705364E+06 -1.994629E+05  5.348367E+04 -6.850109E+05 -1.279216E+04  4.047403E+03
        37  22 -1.954030E+06 -2.909185E+05 -3.881692E+03 -7.545017E+05 -4.263739E+03  3.762831E+03
        37  23 -1.965360E+06 -2.784798E+05 -6.660773E+03 -7.406292E+05 -8.256960E+03  4.086396E+03
        37  24 -1.954442E+06 -2.937870E+05 -1.296539E+04 -7.534298E+05 -1.219872E+04  4.270219E+03
        37  25 -2.128685E+06 -3.562640E+05 -5.055184E+04 -8.015859E+05 -3.554138E+03  4.028779E+03
        37  26 -2.177191E+06 -3.583063E+05 -6.319937E+04 -7.983685E+05 -7.605678E+03  4.330697E+03
        37  27 -2.203459E+06 -3.881071E+05 -7.941981E+04 -8.218237E+05 -1.160553E+04  4.492935E+03
        38   1 -1.644841E+06 -1.755363E+05  6.607412E+04 -6.733501E+05  1.582633E+04 -4.077543E+03
        38   2 -1.619976E+06 -1.448859E+05  6.309128E+04 -6.470107E+05  3.079557E+04 -1.361880E+02
        38   3 -1.586820E+06 -1.676559E+05  4.078477E+04 -6.377437E+05  4.536852E+04  4.866688E+03
        38   4 -1.956188E+06 -2.897163E+05 -1.651599E+04 -7.549774E+05  1.497034E+04 -4.398949E+03
        38   5 -1.962043E+06 -2.752737E+05 -2.845104E+04 -7.418217E+05  3.038348E+04 -2.914732E+02
        38   6 -1.959704E+06 -3.143527E+05 -6.007115E+04 -7.457392E+05  4.539942E+04  4.877244E+03
        38   7 -2.267441E+06 -4.038921E+05 -9.911468E+04 -8.365684E+05  1.411483E+04 -4.720190E+03
        38   8 -2.303997E+06 -4.056539E+05 -1.200038E+05 -8.365855E+05  2.997164E+04 -4.466639E+02
        38   9 -2.332454E+06 -4.610378E+05 -1.609395E+05 -8.536749E+05  4.543029E+04  4.887789E+03
        38  10 -1.644841E+06 -1.755364E+05  6.607361E+04 -6.733501E+05 -8.439302E-10  1.959710E-10
        38  11 -1.619977E+06 -1.448861E+05  6.308950E+04 -6.470107E+05 -1.087581E-09  1.695764E-10
        38  12 -1.586823E+06 -1.676565E+05  4.078085E+04 -6.377439E+05  2.706568E-10  5.936459E-10
        38  13 -1.956188E+06 -2.897164E+05 -1.651644E+04 -7.549773E+05 -5.340104E-10 -1.506165E-10
        38  14 -1.962044E+06 -2.752739E+05 -2.845278E+04 -7.418217E+05  1.682143E-10 -9.273726E-11
        38  15 -1.959707E+06 -3.143533E+05 -6.007508E+04 -7.457394E+05  5.352068E-10 -1.811608E-10
        38  16 -2.267442E+06 -4.038922E+05 -9.911509E+04 -8.365684E+05  2.036242E-09 -1.670417E-10
        38  17 -2.303998E+06 -4.056541E+05 -1.200055E+05 -8.365854E+05 -8.312103E-10 -1.106651E-10
        38  18 -2.332456E+06 -4.610384E+05 -1.609435E+05 -8.536750E+05 -1.895277E-09 -1.946194E-10
        38  19 -1.644841E+06 -1.755363E+05  6.607412E+04 -6.733501E+05 -1.582633E+04  4.077543E+03
        38  20 -1.619976E+06 -1.448859E+05  6.309128E+04 -6.470107E+05 -3.079557E+04  1.361880E+02
        38  21 -1.586820E+06 -1.676559E+05  4.078477E+04 -6.377437E+05 -4.536852E+04 -4.866688E+03
        38  22 -1.956188E+06 -2.897163E+05 -1.651599E+04 -7.549774E+05 -1.497034E+04  4.398949E+03
        38  23 -1.962043E+06 -2.752737E+05 -2.845104E+04 -7.418217E+05 -3.038348E+04  2.914732E+02
        38  24 -1.959704E+06 -3.143527E+05 -6.007115E+04 -7.457392E+05 -4.539942E+04 -4.877244E+03
        38  25 -2.267441E+06 -4.038921E+05 -9.911468E+04 -8.365684E+05 -1.411483E+04  4.720190E+03
        38  26 -2.303997E+06 -4.056539E+05 -1.200038E+05 -8.365855E+05 -2.997164E+04  4.466639E+02
        38  27 -2.332454E+06 -4.610378E+05 -1.609395E+05 -8.536749E+05 -4.543029E+04 -4.887789E+03
        39   1 -1.521636E+06 -1.386082E+05  4.105443E+04 -6.661085E+05  5.977600E+04  7.595563E+03
        39   2 -1.492067E+06 -5.941791E+04  1.692211E+03 -6.089841E+05  1.216967E+05  2.940473E+04
        39   3 -1.552764E+06 -2.668812E+05 -1.569190E+05 -5.029976E+05  1.795035E+05  6.215139E+04
        39   4 -1.969877E+06 -2.824879E+05 -7.361720E+04 -7.626451E+05  5.686609E+04  6.503532E+03
        39   5 -1.939308E+06 -2.439758E+05 -1.205172E+05 -7.474576E+05  1.233986E+05  3.004071E+04
        39   6 -1.999999E+06 -4.931624E+05 -2.903985E+05 -6.833893E+05  1.858151E+05  6.450877E+04
        39   7 -2.417925E+06 -4.263677E+05 -1.883045E+05 -8.591247E+05  5.395848E+04  5.412074E+03
        39   8 -2.386352E+06 -4.285097E+05 -2.427444E+05 -8.858364E+05  1.250992E+05  3.067606E+04
        39   9 -2.447029E+06 -7.193782E+05 -4.238964E+05 -8.636464E+05  1.921217E+05  6.686277E+04
        39  10 -1.521639E+06 -1.386092E+05  4.104759E+04 -6.661089E+05 -1.845815E-10  2.239110E-10
        39  11 -1.492084E+06 -5.942283E+04  1.662674E+03 -6.089870E+05 -1.041552E-10 -1.476746E-10
        39  12 -1.552800E+06 -2.668940E+05 -1.569870E+05 -5.030066E+05  6.859499E-10 -4.129939E-10
        39  13 -1.969881E+06 -2.824888E+05 -7.362338E+04 -7.626454E+05 -6.030647E-11  2.076321E-10
        39  14 -1.939324E+06 -2.439808E+05 -1.205477E+05 -7.474606E+05  6.057482E-10  9.113251E-10
        39  15 -2.000038E+06 -4.931762E+05 -2.904714E+05 -6.833990E+05  2.098672E-09  3.175838E-10
        39  16 -2.417928E+06 -4.263685E+05 -1.883101E+05 -8.591249E+05 -1.695925E-09  3.394312E-10
        39  17 -2.386369E+06 -4.285149E+05 -2.427758E+05 -8.858395E+05 -1.713569E-11  1.200609E-09
        39  18 -2.447070E+06 -7.193930E+05 -4.239745E+05 -8.636567E+05  3.894943E-10  1.605669E-10
        39  19 -1.521636E+06 -1.386082E+05  4.105443E+04 -6.661085E+05 -5.977600E+04 -7.595563E+03
        39  20 -1.492067E+06 -5.941791E+04  1.692211E+03 -6.089841E+05 -1.216967E+05 -2.940473E+04
        39  21 -1.552764E+06 -2.668812E+05 -1.569190E+05 -5.029976E+05 -1.795035E+05 -6.215139E+04
        39  22 -1.969877E+06 -2.824879E+05 -7.361720E+04 -7.626451E+05 -5.686609E+04 -6.503532E+03
        39  23 -1.939308E+06 -2.439758E+05 -1.205172E+05 -7.474576E+05 -1.233986E+05 -3.004071E+04
        39  24 -1.999999E+06 -4.931624E+05 -2.903985E+05 -6.833893E+05 -1.858151E+05 -6.450877E+04
        39  25 -2.417925E+06 -4.263677E+05 -1.883045E+05 -8.591247E+05 -5.395848E+04 -5.412074E+03
        39  26 -2.386352E+06 -4.285097E+05 -2.427444E+05 -8.858364E+05 -1.250992E+05 -3.067606E+04
        39  27 -2.447029E+06 -7.193782E+05 -4.238964E+05 -8.636464E+05 -1.921217E+05 -6.686277E+04
        40   1  9.863447E+04  3.670092E+04  1.110662E+05 -6.731503E+04  1.676556E+02  6.779678E+04
        40   2  1.842106E+04  1.060641E+04  5.631464E+04 -3.477685E+04  5.844502E+02  3.936028E+04
        40   3  4.779001E+02  3.764314E+03  3.564241E+04 -6.563169E+03 -9.467545E+00  1.092225E+04
        40   4  8.951053E+04  9.477967E+02  1.023531E+05 -1.434788E+04  1.756302E+02  6.656899E+04
        40   5  1.365065E+04 -8.554345E+03  5.210975E+04 -1.226611E+04  5.855175E+02  3.956118E+04
        40   6 -1.890111E+02  9.473511E+02  3.495451E+04 -1.450761E+04 -1.253261E+01  1.255109E+04
        40   7  8.039703E+04 -3.479814E+04  9.364146E+04  3.861620E+04  1.833956E+02  6.534128E+04
        40   8  8.882110E+03 -2.771367E+04  4.790510E+04  1.024392E+04  5.865995E+02  3.976208E+04
        40   9 -8.556842E+02 -1.869463E+03  3.426665E+04 -2.245202E+04 -1.563937E+01  1.417993E+04
        40  10  9.863323E+04  3.669598E+04  1.110575E+05 -6.731504E+04  1.019642E-10  2.298398E-09
        40  11  1.842065E+04  1.060475E+04  5.631173E+04 -3.477687E+04  1.631167E-09  7.400745E-10
        40  12  4.778681E+02  3.764186E+03  3.564218E+04 -6.563169E+03  9.897951E-10  1.855791E-09
        40  13  8.950934E+04  9.430384E+02  1.023448E+05 -1.434789E+04 -8.350591E-10 -9.497709E-10
        40  14  1.365023E+04 -8.556026E+03  5.210681E+04 -1.226613E+04  2.247017E-09 -1.056143E-10
        40  15 -1.890534E+02  9.471819E+02  3.495421E+04 -1.450761E+04  2.249234E-09 -2.663920E-10
        40  16  8.039588E+04 -3.480272E+04  9.363344E+04  3.861619E+04  1.048465E-10 -2.774539E-09
        40  17  8.881685E+03 -2.771537E+04  4.790213E+04  1.024390E+04  1.497699E-09 -1.663906E-09
        40  18 -8.557382E+02 -1.869679E+03  3.426628E+04 -2.245202E+04  1.520121E-09 -1.869359E-09
        40  19  9.863447E+04  3.670092E+04  1.110662E+05 -6.731503E+04 -1.676556E+02 -6.779678E+04
        40  20  1.842106E+04  1.060641E+04  5.631464E+04 -3.477685E+04 -5.844502E+02 -3.936028E+04
        40  21  4.779001E+02  3.764314E+03  3.564241E+04 -6.563169E+03  9.467545E+00 -1.092225E+04
        40  22  8.951053E+04  9.477967E+02  1.023531E+05 -1.434788E+04 -1.756302E+02 -6.656899E+04
        40  23  1.365065E+04 -8.554345E+03  5.210975E+04 -1.226611E+04 -5.855175E+02 -3.956118E+04
        40  24 -1.890111E+02  9.473511E+02  3.495451E+04 -1.450761E+04  1.253261E+01 -1.255109E+04
        40  25  8.039703E+04 -3.479814E+04  9.364146E+04  3.861620E+04 -1.833956E+02 -6.534128E+04
        40  26  8.882110E+03 -2.771367E+04  4.790510E+04  1.024392E+04 -5.865995E+02 -3.976208E+04
        40  27 -8.556842E+02 -1.869463E+03  3.426665E+04 -2.245202E+04  1.563937E+01 -1.417993E+04
        41   1  1.220406E+03 -1.095386E+04  3.014120E+04 -1.688765E+04 -6.838139E+02  5.856608E+03
        41   2 -5.169982E+03 -2.943534E+04  2.630616E+04 -1.210549E+04 -1.651983E+03 -9.505930E+03
        41   3 -4.101899E+03 -4.407066E+04  3.433381E+04 -1.176680E+04 -2.534610E+03 -2.486799E+04
        41   4  3.219908E+03 -2.416601E+03  3.165273E+04 -1.450675E+04 -6.864312E+02  7.327308E+03
        41   5  7.944769E+02 -4.350007E+03  3.103902E+04 -1.228270E+04 -1.654388E+03 -8.156986E+03
        41   6  5.848445E+03 -2.416613E+03  4.237225E+04 -1.450202E+04 -2.536678E+03 -2.364120E+04
        41   7  5.219429E+03  6.120750E+03  3.316428E+04 -1.212583E+04 -6.890372E+02  8.798027E+03
        41   8  6.758900E+03  2.073594E+04  3.577186E+04 -1.245992E+04 -1.656793E+03 -6.807989E+03
        41   9  1.579871E+04  3.923912E+04  5.041062E+04 -1.723744E+04 -2.538757E+03 -2.241432E+04
        41  10  1.220397E+03 -1.095390E+04  3.014114E+04 -1.688765E+04  6.602779E-10  2.897309E-09
        41  11 -5.170009E+03 -2.943544E+04  2.630599E+04 -1.210550E+04  8.183859E-10  1.470552E-08
        41  12 -4.102072E+03 -4.407132E+04  3.433263E+04 -1.176685E+04  3.912093E-10  2.524583E-08
        41  13  3.219893E+03 -2.416659E+03  3.165263E+04 -1.450675E+04  2.480762E-09 -9.663486E-10
        41  14  7.944560E+02 -4.350080E+03  3.103889E+04 -1.228271E+04 -3.641179E-09 -2.855903E-11
        41  15  5.848288E+03 -2.417215E+03  4.237119E+04 -1.450207E+04 -5.984695E-09 -2.324545E-10
        41  16  5.219408E+03  6.120666E+03  3.316413E+04 -1.212582E+04  1.613019E-09 -3.363170E-09
        41  17  6.758885E+03  2.073589E+04  3.577176E+04 -1.245992E+04  1.186957E-09 -1.562184E-08
        41  18  1.579857E+04  3.923858E+04  5.040966E+04 -1.723748E+04  9.587724E-10 -2.519011E-08
        41  19  1.220406E+03 -1.095386E+04  3.014120E+04 -1.688765E+04  6.838139E+02 -5.856608E+03
        41  20 -5.169982E+03 -2.943534E+04  2.630616E+04 -1.210549E+04  1.651983E+03  9.505930E+03
        41  21 -4.101899E+03 -4.407066E+04  3.433381E+04 -1.176680E+04  2.534610E+03  2.486799E+04
        41  22  3.219908E+03 -2.416601E+03  3.165273E+04 -1.450675E+04  6.864312E+02 -7.327308E+03
        41  23  7.944769E+02 -4.350007E+03  3.103902E+04 -1.228270E+04  1.654388E+03  8.156986E+03
        41  24  5.848445E+03 -2.416613E+03  4.237225E+04 -1.450202E+04  2.536678E+03  2.364120E+04
        41  25  5.219429E+03  6.120750E+03  3.316428E+04 -1.212583E+04  6.890372E+02 -8.798027E+03
        41  26  6.758900E+03  2.073594E+04  3.577186E+04 -1.245992E+04  1.656793E+03  6.807989E+03
        41  27  1.579871E+04  3.923912E+04  5.041062E+04 -1.723744E+04  2.538757E+03  2.241432E+04
        42   1 -1.303979E+04 -4.907500E+04  4.126750E+04 -2.880601E+04 -3.198490E+03 -3.242124E+04
        42   2  6.957965E+03 -8.157184E+04  7.206424E+04  2.648386E+04 -3.158065E+03 -7.410452E+04
        42   3  1.341188E+05 -8.185862E+04  1.567951E+05  7.758096E+04 -8.815357E+02 -1.157818E+05
        42   4 -4.344964E+02  4.002436E+03  5.152161E+04 -1.449630E+04 -3.202110E+03 -3.079557E+04
        42   5  2.382081E+04 -1.237262E+04  8.637092E+04 -1.226251E+04 -3.150683E+03 -7.565911E+04
        42   6  1.557738E+05  4.003468E+03  1.773575E+05 -1.422178E+04 -8.561418E+02 -1.205180E+05
        42   7  1.217140E+04  5.708303E+04  6.177570E+04 -1.853383E+02 -3.205654E+03 -2.916977E+04
        42   8  4.068898E+04  5.683437E+04  1.006782E+05 -5.101327E+04 -3.143108E+03 -7.721387E+04
        42   9  1.774600E+05  8.989043E+04  1.979241E+05 -1.060373E+05 -8.293497E+02 -1.252548E+05
        42  10 -1.304008E+04 -4.907613E+04  4.126550E+04 -2.880610E+04  3.600494E-10 -2.356905E-08
        42  11  6.956480E+03 -8.157774E+04  7.205391E+04  2.648367E+04  4.051092E-10 -1.552917E-08
        42  12  1.341152E+05 -8.187302E+04  1.567699E+05  7.758088E+04  6.492373E-10 -1.037001E-09
        42  13 -4.347620E+02  4.001415E+03  5.151980E+04 -1.449638E+04 -8.650454E-09 -9.986478E-10
        42  14  2.381926E+04 -1.237876E+04  8.636015E+04 -1.226270E+04 -5.101049E-09  8.850835E-12
        42  15  1.557699E+05  3.987873E+03  1.773303E+05 -1.422187E+04 -4.391490E-10 -2.092072E-10
        42  16  1.217116E+04  5.708211E+04  6.177409E+04 -1.854136E+02  1.076662E-09  2.315662E-08
        42  17  4.068737E+04  5.682797E+04  1.006669E+05 -5.101347E+04  5.098345E-10  1.454652E-08
        42  18  1.774558E+05  8.987359E+04  1.978946E+05 -1.060374E+05  1.401336E-09  1.045623E-09
        42  19 -1.303979E+04 -4.907500E+04  4.126750E+04 -2.880601E+04  3.198490E+03  3.242124E+04
        42  20  6.957965E+03 -8.157184E+04  7.206424E+04  2.648386E+04  3.158065E+03  7.410452E+04
        42  21  1.341188E+05 -8.185862E+04  1.567951E+05  7.758096E+04  8.815357E+02  1.157818E+05
        42  22 -4.344964E+02  4.002436E+03  5.152161E+04 -1.449630E+04  3.202110E+03  3.079557E+04
        42  23  2.382081E+04 -1.237262E+04  8.637092E+04 -1.226251E+04  3.150683E+03  7.565911E+04
        42  24  1.557738E+05  4.003468E+03  1.773575E+05 -1.422178E+04  8.561418E+02  1.205180E+05
        42  25  1.217140E+04  5.708303E+04  6.177570E+04 -1.853383E+02  3.205654E+03  2.916977E+04
        42  26  4.068898E+04  5.683437E+04  1.006782E+05 -5.101327E+04  3.143108E+03  7.721387E+04
        42  27  1.774600E+05  8.989043E+04  1.979241E+05 -1.060373E+05  8.293497E+02  1.252548E+05
        43   1 -1.841460E+06 -5.640140E+05 -3.527909E+05 -6.325420E+05 -1.461793E+05 -5.054125E+04
        43   2 -1.789983E+06 -3.390467E+05 -2.131708E+05 -6.500659E+05 -9.571220E+04 -2.269221E+04
        43   3 -1.804604E+06 -3.480077E+05 -1.717088E+05 -6.357068E+05 -4.175749E+04 -4.098393E+03
        43   4 -1.389727E+06 -3.578371E+05 -2.219375E+05 -4.733416E+05 -1.420967E+05 -4.901333E+04
        43   5 -1.345689E+06 -1.618413E+05 -9.147145E+04 -5.191553E+05 -9.470702E+04 -2.231637E+04
        43   6 -1.367078E+06 -1.990702E+05 -5.666416E+04 -5.331025E+05 -4.383169E+04 -4.877194E+03
        43   7 -9.377986E+05 -1.516216E+05 -9.110500E+04 -3.140284E+05 -1.380108E+05 -4.748360E+04
        43   8 -9.012057E+05  1.538142E+04  3.020939E+04 -3.881583E+05 -9.370103E+04 -2.194019E+04
        43   9 -9.293677E+05 -5.013006E+04  5.836449E+04 -4.304370E+05 -4.590750E+04 -5.656463E+03
        43  10 -1.841483E+06 -5.640225E+05 -3.528360E+05 -6.325479E+05 -1.721829E-10 -2.749898E-10
        43  11 -1.789993E+06 -3.390498E+05 -2.131891E+05 -6.500677E+05  1.984915E-09  3.435159E-10
        43  12 -1.804606E+06 -3.480082E+05 -1.717122E+05 -6.357069E+05  1.431329E-09  1.821306E-10
        43  13 -1.389750E+06 -3.578451E+05 -2.219801E+05 -4.733472E+05 -8.787656E-11 -6.810816E-10
        43  14 -1.345698E+06 -1.618442E+05 -9.148928E+04 -5.191570E+05  1.342875E-09  3.740836E-11
        43  15 -1.367080E+06 -1.990708E+05 -5.666783E+04 -5.331027E+05  6.329157E-10  2.069522E-10
        43  16 -9.378197E+05 -1.516292E+05 -9.114510E+04 -3.140337E+05  4.263796E-10  5.197131E-10
        43  17 -9.012152E+05  1.537854E+04  3.019196E+04 -3.881600E+05  1.187307E-09 -6.468037E-11
        43  18 -9.293699E+05 -5.013066E+04  5.836046E+04 -4.304372E+05  2.210621E-09  4.182249E-10
        43  19 -1.841460E+06 -5.640140E+05 -3.527909E+05 -6.325420E+05  1.461793E+05  5.054125E+04
        43  20 -1.789983E+06 -3.390467E+05 -2.131708E+05 -6.500659E+05  9.571220E+04  2.269221E+04
        43  21 -1.804604E+06 -3.480077E+05 -1.717088E+05 -6.357068E+05  4.175749E+04  4.098393E+03
        43  22 -1.389727E+06 -3.578371E+05 -2.219375E+05 -4.733416E+05  1.420967E+05  4.901333E+04
        43  23 -1.345689E+06 -1.618413E+05 -9.147145E+04 -5.191553E+05  9.470702E+04  2.231637E+04
        43  24 -1.367078E+06 -1.990702E+05 -5.666416E+04 -5.331025E+05  4.383169E+04  4.877194E+03
        43  25 -9.377986E+05 -1.516216E+05 -9.110500E+04 -3.140284E+05  1.380108E+05  4.748360E+04
        43  26 -9.012057E+05  1.538142E+04  3.020939E+04 -3.881583E+05  9.370103E+04  2.194019E+04
        43  27 -9.293677E+05 -5.013006E+04  5.836449E+04 -4.304370E+05  4.590750E+04  5.656463E+03
        44   1 -1.717009E+06 -3.640770E+05 -1.441218E+05 -6.219487E+05 -3.485814E+04 -3.799254E+03
        44   2 -1.694066E+06 -3.137562E+05 -1.109224E+05 -6.043360E+05 -2.306712E+04  4.268234E+02
        44   3 -1.658298E+06 -3.157645E+05 -9.400053E+04 -6.077243E+05 -1.086033E+04  3.544736E+03
        44   4 -1.359016E+06 -2.247374E+05 -4.645303E+04 -5.200622E+05 -3.474457E+04 -3.757266E+03
        44   5 -1.363999E+06 -1.882779E+05 -2.158323E+04 -5.134377E+05 -2.331975E+04  3.316538E+02
        44   6 -1.356081E+06 -2.040648E+05 -1.269281E+04 -5.278151E+05 -1.147986E+04  3.312316E+03
        44   7 -1.000898E+06 -8.538788E+04  5.120428E+04 -4.181218E+05 -3.463092E+04 -3.715246E+03
        44   8 -1.033827E+06 -6.279275E+04  6.774632E+04 -4.224957E+05 -2.357252E+04  2.364286E+02
        44   9 -1.053776E+06 -9.236067E+04  6.860686E+04 -4.478712E+05 -1.209973E+04  3.079776E+03
        44  10 -1.717010E+06 -3.640774E+05 -1.441241E+05 -6.219488E+05  4.148397E-10  5.306543E-12
        44  11 -1.694067E+06 -3.137563E+05 -1.109234E+05 -6.043360E+05 -7.897554E-10 -1.667248E-10
        44  12 -1.658298E+06 -3.157645E+05 -9.400078E+04 -6.077243E+05 -6.683938E-10 -5.746881E-10
        44  13 -1.359017E+06 -2.247378E+05 -4.645533E+04 -5.200623E+05  1.723000E-09  2.678600E-10
        44  14 -1.364000E+06 -1.882781E+05 -2.158425E+04 -5.134377E+05 -2.145260E-09 -1.076548E-10
        44  15 -1.356081E+06 -2.040648E+05 -1.269307E+04 -5.278151E+05 -1.578419E-10 -5.493360E-10
        44  16 -1.000900E+06 -8.538821E+04  5.120199E+04 -4.181219E+05  2.501479E-09  2.804120E-10
        44  17 -1.033828E+06 -6.279289E+04  6.774527E+04 -4.224956E+05  4.599642E-10 -2.831750E-10
        44  18 -1.053776E+06 -9.236072E+04  6.860656E+04 -4.478712E+05 -3.408699E-10  2.002801E-11
        44  19 -1.717009E+06 -3.640770E+05 -1.441218E+05 -6.219487E+05  3.485814E+04  3.799254E+03
        44  20 -1.694066E+06 -3.137562E+05 -1.109224E+05 -6.043360E+05  2.306712E+04 -4.268234E+02
        44  21 -1.658298E+06 -3.157645E+05 -9.400053E+04 -6.077243E+05  1.086033E+04 -3.544736E+03
        44  22 -1.359016E+06 -2.247374E+05 -4.645303E+04 -5.200622E+05  3.474457E+04  3.757266E+03
        44  23 -1.363999E+06 -1.882779E+05 -2.158323E+04 -5.134377E+05  2.331975E+04 -3.316538E+02
        44  24 -1.356081E+06 -2.040648E+05 -1.269281E+04 -5.278151E+05  1.147986E+04 -3.312316E+03
        44  25 -1.000898E+06 -8.538788E+04  5.120428E+04 -4.181218E+05  3.463092E+04  3.715246E+03
        44  26 -1.033827E+06 -6.279275E+04  6.774632E+04 -4.224957E+05  2.357252E+04 -2.364286E+02
        44  27 -1.053776E+06 -9.236067E+04  6.860686E+04 -4.478712E+05  1.209973E+04 -3.079776E+03
        45   1 -1.581324E+06 -2.937056E+05 -7.129272E+04 -5.887539E+05 -8.920809E+03  3.256718E+03
        45   2 -1.560758E+06 -2.642166E+05 -5.739105E+04 -5.648056E+05 -5.827671E+03  3.077106E+03
        45   3 -1.514833E+06 -2.653183E+05 -4.643102E+04 -5.709183E+05 -2.672282E+03  2.729318E+03
        45   4 -1.354507E+06 -2.078149E+05 -1.004682E+04 -5.266107E+05 -9.289103E+03  3.118570E+03
        45   5 -1.367001E+06 -1.911799E+05 -5.060829E+03 -5.120835E+05 -6.251560E+03  2.918279E+03
        45   6 -1.354126E+06 -2.051233E+05 -2.971419E+03 -5.276174E+05 -3.151925E+03  2.549780E+03
        45   7 -1.127641E+06 -1.219212E+05  5.119437E+04 -4.644471E+05 -9.657545E+03  2.980367E+03
        45   8 -1.173208E+06 -1.181409E+05  4.726605E+04 -4.593466E+05 -6.675594E+03  2.759397E+03
        45   9 -1.193394E+06 -1.449268E+05  4.048596E+04 -4.843063E+05 -3.631706E+03  2.370191E+03
        45  10 -1.581324E+06 -2.937057E+05 -7.129289E+04 -5.887538E+05  3.525436E-10 -6.145742E-10
        45  11 -1.560758E+06 -2.642166E+05 -5.739113E+04 -5.648056E+05  1.219774E-09  4.576509E-10
        45  12 -1.514833E+06 -2.653183E+05 -4.643105E+04 -5.709183E+05  1.086238E-09  1.140308E-09
        45  13 -1.354507E+06 -2.078149E+05 -1.004700E+04 -5.266107E+05 -2.251845E-09 -5.277238E-10
        45  14 -1.367001E+06 -1.911799E+05 -5.060918E+03 -5.120835E+05 -7.053090E-10  5.759576E-10
        45  15 -1.354126E+06 -2.051233E+05 -2.971450E+03 -5.276174E+05 -4.242921E-10  1.792646E-10
        45  16 -1.127641E+06 -1.219212E+05  5.119417E+04 -4.644471E+05 -8.182141E-10 -8.646085E-11
        45  17 -1.173208E+06 -1.181409E+05  4.726595E+04 -4.593466E+05 -1.791662E-09 -4.840560E-10
        45  18 -1.193394E+06 -1.449269E+05  4.048593E+04 -4.843063E+05 -1.870355E-09 -8.177601E-10
        45  19 -1.581324E+06 -2.937056E+05 -7.129272E+04 -5.887539E+05  8.920809E+03 -3.256718E+03
        45  20 -1.560758E+06 -2.642166E+05 -5.739105E+04 -5.648056E+05  5.827671E+03 -3.077106E+03
        45  21 -1.514833E+06 -2.653183E+05 -4.643102E+04 -5.709183E+05  2.672282E+03 -2.729318E+03
        45  22 -1.354507E+06 -2.078149E+05 -1.004682E+04 -5.266107E+05  9.289103E+03 -3.118570E+03
        45  23 -1.367001E+06 -1.911799E+05 -5.060829E+03 -5.120835E+05  6.251560E+03 -2.918279E+03
        45  24 -1.354126E+06 -2.051233E+05 -2.971419E+03 -5.276174E+05  3.151925E+03 -2.549780E+03
        45  25 -1.127641E+06 -1.219212E+05  5.119437E+04 -4.644471E+05  9.657545E+03 -2.980367E+03
        45  26 -1.173208E+06 -1.181409E+05  4.726605E+04 -4.593466E+05  6.675594E+03 -2.759397E+03
        45  27 -1.193394E+06 -1.449268E+05  4.048596E+04 -4.843063E+05  3.631706E+03 -2.370191E+03
        46   1 -1.435525E+06 -2.365837E+05 -2.433024E+04 -5.499320E+05 -1.961947E+03  2.073585E+03
        46   2 -1.414658E+06 -2.090263E+05 -1.415368E+04 -5.244259E+05 -7.158788E+02  1.006690E+03
        46   3 -1.366021E+06 -2.100930E+05 -4.678828E+03 -5.310670E+05  5.393967E+02 -8.538023E+01
        46   4 -1.353739E+06 -2.057794E+05 -2.371618E+03 -5.276699E+05 -2.410262E+03  1.905845E+03
        46   5 -1.367604E+06 -1.913194E+05 -1.451630E+03 -5.116520E+05 -1.172568E+03  8.358529E+02
        46   6 -1.353697E+06 -2.054814E+05 -1.226504E+03 -5.277813E+05  7.428126E+01 -2.593235E+02
        46   7 -1.271947E+06 -1.749747E+05  1.958644E+04 -5.054052E+05 -2.858642E+03  1.738080E+03
        46   8 -1.320547E+06 -1.736123E+05  1.125018E+04 -4.988772E+05 -1.629294E+03  6.650024E+02
        46   9 -1.341373E+06 -2.008697E+05  2.225782E+03 -5.244955E+05 -3.908409E+02 -4.332691E+02
        46  10 -1.435525E+06 -2.365837E+05 -2.433026E+04 -5.499320E+05  1.230678E-09  1.053163E-09
        46  11 -1.414658E+06 -2.090263E+05 -1.415368E+04 -5.244259E+05  1.127562E-09  1.273768E-09
        46  12 -1.366021E+06 -2.100930E+05 -4.678829E+03 -5.310670E+05 -1.377913E-09 -4.872053E-10
        46  13 -1.353739E+06 -2.057794E+05 -2.371636E+03 -5.276699E+05 -6.199390E-10  2.487966E-10
        46  14 -1.367604E+06 -1.913194E+05 -1.451634E+03 -5.116520E+05 -1.737529E-09  1.149795E-09
        46  15 -1.353697E+06 -2.054814E+05 -1.226504E+03 -5.277813E+05 -1.964634E-11  8.215782E-11
        46  16 -1.271947E+06 -1.749747E+05  1.958642E+04 -5.054052E+05 -3.375069E-10 -4.673268E-10
        46  17 -1.320547E+06 -1.736123E+05  1.125017E+04 -4.988772E+05 -2.493483E-10  1.274107E-10
        46  18 -1.341373E+06 -2.008697E+05  2.225781E+03 -5.244955E+05  9.801004E-10  9.804327E-11
        46  19 -1.435525E+06 -2.365837E+05 -2.433024E+04 -5.499320E+05  1.961947E+03 -2.073585E+03
        46  20 -1.414658E+06 -2.090263E+05 -1.415368E+04 -5.244259E+05  7.158788E+02 -1.006690E+03
        46  21 -1.366021E+06 -2.100930E+05 -4.678828E+03 -5.310670E+05 -5.393967E+02  8.538023E+01
        46  22 -1.353739E+06 -2.057794E+05 -2.371618E+03 -5.276699E+05  2.410262E+03 -1.905845E+03
        46  23 -1.367604E+06 -1.913194E+05 -1.451630E+03 -5.116520E+05  1.172568E+03 -8.358529E+02
        46  24 -1.353697E+06 -2.054814E+05 -1.226504E+03 -5.277813E+05 -7.428126E+01  2.593235E+02
        46  25 -1.271947E+06 -1.749747E+05  1.958644E+04 -5.054052E+05  2.858642E+03 -1.738080E+03
        46  26 -1.320547E+06 -1.736123E+05  1.125018E+04 -4.988772E+05  1.629294E+03 -6.650024E+02
        46  27 -1.341373E+06 -2.008697E+05  2.225782E+03 -5.244955E+05  3.908409E+02  4.332691E+02
        47   1 -1.285992E+06 -1.799558E+05  1.715852E+04 -5.094032E+05  1.048011E+03 -8.169207E+02
        47   2 -1.265368E+06 -1.529412E+05  2.594427E+04 -4.840047E+05  2.369743E+03 -1.878842E+03
        47   3 -1.217242E+06 -1.543664E+05  3.396320E+04 -4.904239E+05  3.676062E+03 -2.897995E+03
        47   4 -1.353754E+06 -2.054103E+05 -1.255277E+03 -5.277206E+05  5.814306E+02 -9.914297E+02
        47   5 -1.367531E+06 -1.913824E+05 -1.631283E+03 -5.117388E+05  1.917377E+03 -2.048124E+03
        47   6 -1.353809E+06 -2.057979E+05 -2.785467E+03 -5.275757E+05  3.237856E+03 -3.062059E+03
        47   7 -1.421513E+06 -2.308648E+05 -1.966960E+04 -5.460364E+05  1.149030E+02 -1.165919E+03
        47   8 -1.469685E+06 -2.298232E+05 -2.920792E+04 -5.394689E+05  1.465090E+03 -2.217376E+03
        47   9 -1.490359E+06 -2.572285E+05 -3.953596E+04 -5.647204E+05  2.799755E+03 -3.226085E+03
        47  10 -1.285992E+06 -1.799558E+05  1.715851E+04 -5.094032E+05 -1.164621E-09 -1.741415E-10
        47  11 -1.265368E+06 -1.529412E+05  2.594425E+04 -4.840047E+05 -2.870688E-09  3.785490E-10
        47  12 -1.217242E+06 -1.543664E+05  3.396316E+04 -4.904239E+05 -1.954746E-09  1.170293E-10
        47  13 -1.353754E+06 -2.054103E+05 -1.255280E+03 -5.277206E+05 -1.419451E-09 -2.214946E-10
        47  14 -1.367531E+06 -1.913824E+05 -1.631298E+03 -5.117388E+05 -1.598629E-09  9.276507E-10
        47  15 -1.353809E+06 -2.057979E+05 -2.785504E+03 -5.275757E+05 -1.302294E-09 -2.087967E-10
        47  16 -1.421513E+06 -2.308648E+05 -1.966960E+04 -5.460364E+05  1.301860E-09  7.055783E-10
        47  17 -1.469685E+06 -2.298232E+05 -2.920793E+04 -5.394689E+05 -2.270579E-10  4.253027E-10
        47  18 -1.490359E+06 -2.572285E+05 -3.953599E+04 -5.647204E+05 -1.249669E-09 -1.100986E-09
        47  19 -1.285992E+06 -1.799558E+05  1.715852E+04 -5.094032E+05 -1.048011E+03  8.169207E+02
        47  20 -1.265368E+06 -1.529412E+05  2.594427E+04 -4.840047E+05 -2.369743E+03  1.878842E+03
        47  21 -1.217242E+06 -1.543664E+05  3.396320E+04 -4.904239E+05 -3.676062E+03  2.897995E+03
        47  22 -1.353754E+06 -2.054103E+05 -1.255277E+03 -5.277206E+05 -5.814306E+02  9.914297E+02
        47  23 -1.367531E+06 -1.913824E+05 -1.631283E+03 -5.117388E+05 -1.917377E+03  2.048124E+03
        47  24 -1.353809E+06 -2.057979E+05 -2.785467E+03 -5.275757E+05 -3.237856E+03  3.062059E+03
        47  25 -1.421513E+06 -2.308648E+05 -1.966960E+04 -5.460364E+05 -1.149030E+02  1.165919E+03
        47  26 -1.469685E+06 -2.298232E+05 -2.920792E+04 -5.394689E+05 -1.465090E+03  2.217376E+03
        47  27 -1.490359E+06 -2.572285E+05 -3.953596E+04 -5.647204E+05 -2.799755E+03  3.226085E+03
        48   1 -1.140309E+06 -1.247315E+05  5.431043E+04 -4.697017E+05  4.527012E+03 -3.484716E+03
        48   2 -1.120658E+06 -9.851893E+04  6.038926E+04 -4.453509E+05  8.064133E+03 -3.654464E+03
        48   3 -1.076671E+06 -1.028342E+05  6.305569E+04 -4.499819E+05  1.153092E+04 -3.633090E+03
        48   4 -1.354339E+06 -2.049429E+05 -3.521432E+03 -5.274444E+05  4.053298E+03 -3.662181E+03
        48   5 -1.366729E+06 -1.912906E+05 -6.057976E+03 -5.123474E+05  7.653446E+03 -3.808518E+03
        48   6 -1.354797E+06 -2.081800E+05 -1.205794E+04 -5.262326E+05  1.118309E+04 -3.763761E+03
        48   7 -1.568323E+06 -2.851511E+05 -6.135693E+04 -5.851687E+05  3.579768E+03 -3.839577E+03
        48   8 -1.612741E+06 -2.840585E+05 -7.251046E+04 -5.793197E+05  7.242938E+03 -3.962504E+03
        48   9 -1.632850E+06 -3.135215E+05 -8.717871E+04 -6.024527E+05  1.083542E+04 -3.894368E+03
        48  10 -1.140309E+06 -1.247316E+05  5.431037E+04 -4.697017E+05 -1.095488E-09 -8.767721E-10
        48  11 -1.120658E+06 -9.851896E+04  6.038912E+04 -4.453509E+05 -1.415880E-09 -4.163648E-10
        48  12 -1.076671E+06 -1.028342E+05  6.305542E+04 -4.499819E+05 -2.984214E-10 -3.198184E-10
        48  13 -1.354339E+06 -2.049429E+05 -3.521488E+03 -5.274444E+05 -1.862361E-09 -7.059456E-10
        48  14 -1.366729E+06 -1.912906E+05 -6.058113E+03 -5.123473E+05 -1.665326E-09 -4.494416E-10
        48  15 -1.354797E+06 -2.081801E+05 -1.205820E+04 -5.262326E+05 -3.156502E-10 -2.846977E-10
        48  16 -1.568323E+06 -2.851511E+05 -6.135699E+04 -5.851687E+05 -1.953137E-09 -1.299692E-09
        48  17 -1.612741E+06 -2.840585E+05 -7.251059E+04 -5.793197E+05 -8.136892E-10  3.891228E-10
        48  18 -1.632850E+06 -3.135215E+05 -8.717896E+04 -6.024527E+05 -1.490402E-09 -2.753810E-12
        48  19 -1.140309E+06 -1.247315E+05  5.431043E+04 -4.697017E+05 -4.527012E+03  3.484716E+03
        48  20 -1.120658E+06 -9.851893E+04  6.038926E+04 -4.453509E+05 -8.064133E+03  3.654464E+03
        48  21 -1.076671E+06 -1.028342E+05  6.305569E+04 -4.499819E+05 -1.153092E+04  3.633090E+03
        48  22 -1.354339E+06 -2.049429E+05 -3.521432E+03 -5.274444E+05 -4.053298E+03  3.662181E+03
        48  23 -1.366729E+06 -1.912906E+05 -6.057976E+03 -5.123474E+05 -7.653446E+03  3.808518E+03
        48  24 -1.354797E+06 -2.081800E+05 -1.205794E+04 -5.262326E+05 -1.118309E+04  3.763761E+03
        48  25 -1.568323E+06 -2.851511E+05 -6.135693E+04 -5.851687E+05 -3.579768E+03  3.839577E+03
        48  26 -1.612741E+06 -2.840585E+05 -7.251046E+04 -5.793197E+05 -7.242938E+03  3.962504E+03
        48  27 -1.632850E+06 -3.135215E+05 -8.717871E+04 -6.024527E+05 -1.083542E+04  3.894368E+03
        49   1 -1.005604E+06 -7.397530E+04  7.914562E+04 -4.348563E+05  1.435739E+04 -3.566374E+03
        49   2 -9.861977E+05 -4.438202E+04  7.607730E+04 -4.099785E+05  2.807195E+04  1.810513E+02
        49   3 -9.573647E+05 -7.130337E+04  5.413304E+04 -4.032386E+05  4.133976E+04  5.122325E+03
        49   4 -1.356686E+06 -2.036836E+05 -1.524275E+04 -5.276913E+05  1.373939E+04 -3.798498E+03
        49   5 -1.363122E+06 -1.877931E+05 -2.593153E+04 -5.139619E+05  2.784764E+04  9.629628E+01
        49   6 -1.360218E+06 -2.285096E+05 -5.581782E+04 -5.183703E+05  4.150840E+04  5.184845E+03
        49   7 -1.707649E+06 -3.333859E+05 -1.096420E+05 -6.204796E+05  1.312177E+04 -4.030486E+03
        49   8 -1.739909E+06 -3.311951E+05 -1.279530E+05 -6.178881E+05  2.762349E+04  1.159703E+01
        49   9 -1.762914E+06 -3.857031E+05 -1.657832E+05 -6.334333E+05  4.167691E+04  5.247313E+03
        49  10 -1.005604E+06 -7.397537E+04  7.914521E+04 -4.348563E+05 -2.108407E-10  6.651869E-11
        49  11 -9.861985E+05 -4.438223E+04  7.607582E+04 -4.099785E+05 -2.502123E-09 -4.886153E-11
        49  12 -9.573665E+05 -7.130386E+04  5.412977E+04 -4.032387E+05 -1.027317E-09 -2.254870E-10
        49  13 -1.356686E+06 -2.036836E+05 -1.524313E+04 -5.276913E+05 -9.850502E-10 -1.212101E-10
        49  14 -1.363123E+06 -1.877933E+05 -2.593299E+04 -5.139619E+05 -3.180888E-09  1.494926E-10
        49  15 -1.360220E+06 -2.285101E+05 -5.582112E+04 -5.183704E+05 -9.293717E-10 -2.685007E-10
        49  16 -1.707649E+06 -3.333860E+05 -1.096423E+05 -6.204795E+05 -4.205836E-10 -3.429108E-10
        49  17 -1.739910E+06 -3.311953E+05 -1.279544E+05 -6.178881E+05 -1.360616E-09 -8.043782E-10
        49  18 -1.762916E+06 -3.857036E+05 -1.657865E+05 -6.334335E+05  6.106293E-10 -6.753735E-10
        49  19 -1.005604E+06 -7.397530E+04  7.914562E+04 -4.348563E+05 -1.435739E+04  3.566374E+03
        49  20 -9.861977E+05 -4.438202E+04  7.607730E+04 -4.099785E+05 -2.807195E+04 -1.810513E+02
        49  21 -9.573647E+05 -7.130337E+04  5.413304E+04 -4.032386E+05 -4.133976E+04 -5.122325E+03
        49  22 -1.356686E+06 -2.036836E+05 -1.524275E+04 -5.276913E+05 -1.373939E+04  3.798498E+03
        49  23 -1.363122E+06 -1.877931E+05 -2.593153E+04 -5.139619E+05 -2.784764E+04 -9.629628E+01
        49  24 -1.360218E+06 -2.285096E+05 -5.581782E+04 -5.183703E+05 -4.150840E+04 -5.184845E+03
        49  25 -1.707649E+06 -3.333859E+05 -1.096420E+05 -6.204796E+05 -1.312177E+04  4.030486E+03
        49  26 -1.739909E+06 -3.311951E+05 -1.279530E+05 -6.178881E+05 -2.762349E+04 -1.159703E+01
        49  27 -1.762914E+06 -3.857031E+05 -1.657832E+05 -6.334333E+05 -4.167691E+04 -5.247313E+03
        50   1 -8.884830E+05 -3.550612E+04  5.808687E+04 -4.227828E+05  5.446775E+04  7.706324E+03
        50   2 -8.589197E+05  3.763796E+04  2.236424E+04 -3.772939E+05  1.121722E+05  2.780601E+04
        50   3 -9.131873E+05 -1.628286E+05 -1.256395E+05 -2.867908E+05  1.661443E+05  5.781596E+04
        50   4 -1.369827E+06 -1.977662E+05 -6.809379E+04 -5.341469E+05  5.229435E+04  6.889845E+03
        50   5 -1.341188E+06 -1.559239E+05 -1.099117E+05 -5.207209E+05  1.132890E+05  2.822357E+04
        50   6 -1.397111E+06 -3.884741E+05 -2.666920E+05 -4.622623E+05  1.705492E+05  5.946393E+04
        50   7 -1.850951E+06 -3.600240E+05 -1.942940E+05 -6.454386E+05  5.012279E+04  6.073888E+03
        50   8 -1.823231E+06 -3.494636E+05 -2.422088E+05 -6.640443E+05  1.144048E+05  2.864071E+04
        50   9 -1.880802E+06 -6.140677E+05 -4.077668E+05 -6.375975E+05  1.749503E+05  6.110968E+04
        50  10 -8.884862E+05 -3.550698E+04  5.808118E+04 -4.227831E+05  9.415887E-10 -1.002805E-09
        50  11 -8.589334E+05  3.763374E+04  2.233910E+04 -3.772964E+05 -1.191185E-09 -1.713026E-09
        50  12 -9.132178E+05 -1.628396E+05 -1.256978E+05 -2.867985E+05 -1.193882E-09 -6.927255E-10
        50  13 -1.369830E+06 -1.977670E+05 -6.809903E+04 -5.341472E+05  5.681502E-10 -1.373135E-09
        50  14 -1.341202E+06 -1.559282E+05 -1.099373E+05 -5.207235E+05  2.132360E-10  1.202510E-09
        50  15 -1.397143E+06 -3.884858E+05 -2.667534E+05 -4.622705E+05  3.288437E-10  3.254251E-10
        50  16 -1.850953E+06 -3.600248E+05 -1.942988E+05 -6.454388E+05 -1.491501E-10 -1.647538E-09
        50  17 -1.823246E+06 -3.494680E+05 -2.422350E+05 -6.640469E+05 -1.232465E-09 -3.898802E-10
        50  18 -1.880836E+06 -6.140800E+05 -4.078315E+05 -6.376061E+05  6.610380E-10 -7.816244E-10
        50  19 -8.884830E+05 -3.550612E+04  5.808687E+04 -4.227828E+05 -5.446775E+04 -7.706324E+03
        50  20 -8.589197E+05  3.763796E+04  2.236424E+04 -3.772939E+05 -1.121722E+05 -2.780601E+04
        50  21 -9.131873E+05 -1.628286E+05 -1.256395E+05 -2.867908E+05 -1.661443E+05 -5.781596E+04
        50  22 -1.369827E+06 -1.977662E+05 -6.809379E+04 -5.341469E+05 -5.229435E+04 -6.889845E+03
        50  23 -1.341188E+06 -1.559239E+05 -1.099117E+05 -5.207209E+05 -1.132890E+05 -2.822357E+04
        50  24 -1.397111E+06 -3.884741E+05 -2.666920E+05 -4.622623E+05 -1.705492E+05 -5.946393E+04
        50  25 -1.850951E+06 -3.600240E+05 -1.942940E+05 -6.454386E+05 -5.012279E+04 -6.073888E+03
        50  26 -1.823231E+06 -3.494636E+05 -2.422088E+05 -6.640443E+05 -1.144048E+05 -2.864071E+04
        50  27 -1.880802E+06 -6.140677E+05 -4.077668E+05 -6.375975E+05 -1.749503E+05 -6.110968E+04
        51   1  7.214709E+04 -9.178933E+04  7.013263E+04  5.791382E+02  3.276866E+03  3.703902E+03
        51   2  7.435059E+04 -9.295246E+04  6.880923E+04  1.840085E+02  1.025523E+04  1.212064E+03
        51   3  7.366032E+04 -9.443177E+04  6.840713E+04 -8.775942E+02  1.057529E+04 -1.286741E+03
        51   4 -2.753812E+03 -3.922686E+05 -3.826893E+03 -1.502573E+02  3.282971E+03 -1.983073E+03
        51   5  3.595302E+02 -3.917909E+05 -2.233459E+03  1.844782E+02  1.025801E+04 -8.001296E+02
        51   6 -5.986083E+01 -3.922680E+05 -2.271657E+03 -1.472358E+02  1.057333E+04  3.758956E+02
        51   7 -7.766141E+04 -6.926656E+05 -7.779295E+04 -8.792776E+02  3.289091E+03 -7.667300E+03
        51   8 -7.363797E+04 -6.905473E+05 -7.328237E+04  1.849725E+02  1.026080E+04 -2.811359E+03
        51   9 -7.378642E+04 -6.900227E+05 -7.295661E+04  5.827985E+02  1.057137E+04  2.037738E+03
        51  10  7.214707E+04 -9.178934E+04  7.013258E+04  5.791284E+02 -2.965661E-09  1.661471E-09
        51  11  7.435048E+04 -9.295249E+04  6.880903E+04  1.839985E+02  1.509751E-09 -4.755466E-10
        51  12  7.366020E+04 -9.443180E+04  6.840691E+04 -8.775833E+02  1.783519E-09 -2.158374E-09
        51  13 -2.753825E+03 -3.922686E+05 -3.826921E+03 -1.502521E+02 -1.302661E-09 -1.057147E-11
        51  14  3.594170E+02 -3.917909E+05 -2.233657E+03  1.844848E+02  2.572449E-09 -6.162638E-10
        51  15 -5.998089E+01 -3.922680E+05 -2.271867E+03 -1.472390E+02  1.786592E-09 -7.221092E-11
        51  16 -7.766144E+04 -6.926656E+05 -7.779308E+04 -8.792573E+02 -3.640470E-09 -2.521278E-09
        51  17 -7.363808E+04 -6.905474E+05 -7.328258E+04  1.849957E+02  4.756148E-10 -1.512603E-09
        51  18 -7.378654E+04 -6.900227E+05 -7.295683E+04  5.827812E+02 -1.895175E-11  1.082675E-09
        51  19  7.214709E+04 -9.178933E+04  7.013263E+04  5.791382E+02 -3.276866E+03 -3.703902E+03
        51  20  7.435059E+04 -9.295246E+04  6.880923E+04  1.840085E+02 -1.025523E+04 -1.212064E+03
        51  21  7.366032E+04 -9.443177E+04  6.840713E+04 -8.775942E+02 -1.057529E+04  1.286741E+03
        51  22 -2.753812E+03 -3.922686E+05 -3.826893E+03 -1.502573E+02 -3.282971E+03  1.983073E+03
        51  23  3.595302E+02 -3.917909E+05 -2.233459E+03  1.844782E+02 -1.025801E+04  8.001296E+02
        51  24 -5.986083E+01 -3.922680E+05 -2.271657E+03 -1.472358E+02 -1.057333E+04 -3.758956E+02
        51  25 -7.766141E+04 -6.926656E+05 -7.779295E+04 -8.792776E+02 -3.289091E+03  7.667300E+03
        51  26 -7.363797E+04 -6.905473E+05 -7.328237E+04  1.849725E+02 -1.026080E+04  2.811359E+03
        51  27 -7.378642E+04 -6.900227E+05 -7.295661E+04  5.827985E+02 -1.057137E+04 -2.037738E+03
        52   1  7.314365E+04 -9.624794E+04  6.805354E+04 -2.016973E+02  9.685847E+03  1.234804E+03
        52   2  7.314869E+04 -9.755830E+04  6.665000E+04 -1.754346E+02  1.006003E+04  2.451277E+03
        52   3  7.048712E+04 -9.961709E+04  6.380442E+04 -1.299537E+03  9.564562E+03  3.666283E+03
        52   4 -1.764375E+02 -3.922405E+05 -2.482069E+03 -2.548518E+02  9.686817E+03  7.870396E+02
        52   5  2.852036E+02 -3.918246E+05 -3.319175E+03  3.187497E+02  1.006030E+04  2.482837E+03
        52   6 -2.003733E+03 -3.922408E+05 -5.931806E+03 -2.580493E+02  9.563946E+03  4.177170E+03
        52   7 -7.350286E+04 -6.881526E+05 -7.302383E+04 -3.079513E+02  9.687787E+03  3.394880E+02
        52   8 -7.258453E+04 -6.860114E+05 -7.329440E+04  8.127309E+02  1.006057E+04  2.514383E+03
        52   9 -7.450077E+04 -6.847860E+05 -7.567404E+04  7.829802E+02  9.563330E+03  4.687817E+03
        52  10  7.314355E+04 -9.624797E+04  6.805336E+04 -2.017070E+02 -4.531328E-10 -1.848258E-09
        52  11  7.314858E+04 -9.755833E+04  6.664980E+04 -1.754544E+02 -1.226926E-09  1.552665E-09
        52  12  7.048702E+04 -9.961713E+04  6.380422E+04 -1.299565E+03  1.046866E-09  4.068540E-09
        52  13 -1.765384E+02 -3.922405E+05 -2.482246E+03 -2.548580E+02 -2.933972E-11  3.842495E-11
        52  14  2.850933E+02 -3.918246E+05 -3.319377E+03  3.187296E+02 -8.399747E-10 -8.155837E-10
        52  15 -2.003836E+03 -3.922409E+05 -5.932010E+03 -2.580815E+02 -1.084674E-09 -1.118889E-10
        52  16 -7.350296E+04 -6.881527E+05 -7.302400E+04 -3.079539E+02 -1.132688E-09  7.050587E-10
        52  17 -7.258464E+04 -6.860114E+05 -7.329461E+04  8.127106E+02  4.430398E-10 -4.262331E-09
        52  18 -7.450087E+04 -6.847860E+05 -7.567425E+04  7.829441E+02 -1.933804E-09 -5.529191E-09
        52  19  7.314365E+04 -9.624794E+04  6.805354E+04 -2.016973E+02 -9.685847E+03 -1.234804E+03
        52  20  7.314869E+04 -9.755830E+04  6.665000E+04 -1.754346E+02 -1.006003E+04 -2.451277E+03
        52  21  7.048712E+04 -9.961709E+04  6.380442E+04 -1.299537E+03 -9.564562E+03 -3.666283E+03
        52  22 -1.764375E+02 -3.922405E+05 -2.482069E+03 -2.548518E+02 -9.686817E+03 -7.870396E+02
        52  23  2.852036E+02 -3.918246E+05 -3.319175E+03  3.187497E+02 -1.006030E+04 -2.482837E+03
        52  24 -2.003733E+03 -3.922408E+05 -5.931806E+03 -2.580493E+02 -9.563946E+03 -4.177170E+03
        52  25 -7.350286E+04 -6.881526E+05 -7.302383E+04 -3.079513E+02 -9.687787E+03 -3.394880E+02
        52  26 -7.258453E+04 -6.860114E+05 -7.329440E+04  8.127309E+02 -1.006057E+04 -2.514383E+03
        52  27 -7.450077E+04 -6.847860E+05 -7.567404E+04  7.829802E+02 -9.563330E+03 -4.687817E+03
        53   1  7.290843E+04 -1.032094E+05  6.171314E+04  2.063932E+03  1.030868E+04  6.789596E+03
        53   2  7.391612E+04 -1.021313E+05  5.706699E+04 -2.044634E+03  9.865658E+03  9.450230E+03
        53   3  5.090146E+04 -1.073358E+05  4.469750E+04 -7.808704E+03  3.118289E+03  1.209677E+04
        53   4  1.049634E+03 -3.935856E+05 -7.188469E+03 -3.542450E+02  1.031182E+04  5.289809E+03
        53   5  2.593388E+03 -3.901429E+05 -1.140482E+04  4.505826E+02  9.861932E+03  1.142783E+04
        53   6 -2.049513E+04 -3.935896E+05 -2.576293E+04 -4.003014E+02  3.106443E+03  1.755167E+04
        53   7 -7.081520E+04 -6.838844E+05 -7.609594E+04 -2.771248E+03  1.031497E+04  3.790720E+03
        53   8 -6.873531E+04 -6.780782E+05 -7.988242E+04  2.944674E+03  9.858222E+03  1.340452E+04
        53   9 -9.189762E+04 -6.797686E+05 -9.622927E+04  7.004720E+03  3.094724E+03  2.300405E+04
        53  10  7.290830E+04 -1.032094E+05  6.171285E+04  2.063875E+03 -1.039380E-09 -6.502879E-09
        53  11  7.391600E+04 -1.021314E+05  5.706664E+04 -2.044709E+03 -1.031786E-09 -4.609927E-09
        53  12  5.090141E+04 -1.073359E+05  4.469721E+04 -7.808735E+03 -4.290242E-10 -3.073862E-10
        53  13  1.049512E+03 -3.935857E+05 -7.188722E+03 -3.542889E+02 -1.150151E-09 -3.293890E-13
        53  14  2.593248E+03 -3.901430E+05 -1.140525E+04  4.504918E+02 -1.459272E-09 -1.158520E-09
        53  15 -2.049523E+04 -3.935899E+05 -2.576353E+04 -4.003453E+02 -1.108184E-10 -1.563767E-10
        53  16 -7.081532E+04 -6.838844E+05 -7.609617E+04 -2.771280E+03 -7.305521E-10  5.004053E-09
        53  17 -6.873546E+04 -6.780785E+05 -7.988294E+04  2.944568E+03 -3.945478E-10  1.277675E-09
        53  18 -9.189777E+04 -6.797692E+05 -9.623028E+04  7.004663E+03  5.174995E-12 -1.501414E-09
        53  19  7.290843E+04 -1.032094E+05  6.171314E+04  2.063932E+03 -1.030868E+04 -6.789596E+03
        53  20  7.391612E+04 -1.021313E+05  5.706699E+04 -2.044634E+03 -9.865658E+03 -9.450230E+03
        53  21  5.090146E+04 -1.073358E+05  4.469750E+04 -7.808704E+03 -3.118289E+03 -1.209677E+04
        53  22  1.049634E+03 -3.935856E+05 -7.188469E+03 -3.542450E+02 -1.031182E+04 -5.289809E+03
        53  23  2.593388E+03 -3.901429E+05 -1.140482E+04  4.505826E+02 -9.861932E+03 -1.142783E+04
        53  24 -2.049513E+04 -3.935896E+05 -2.576293E+04 -4.003014E+02 -3.106443E+03 -1.755167E+04
        53  25 -7.081520E+04 -6.838844E+05 -7.609594E+04 -2.771248E+03 -1.031497E+04 -3.790720E+03
        53  26 -6.873531E+04 -6.780782E+05 -7.988242E+04  2.944674E+03 -9.858222E+03 -1.340452E+04
        53  27 -9.189762E+04 -6.797686E+05 -9.622927E+04  7.004720E+03 -3.094724E+03 -2.300405E+04
        54   1  2.147669E+04  2.314517E+05  1.222342E+04 -2.075835E+01  7.513451E+03 -1.316254E+02
        54   2  2.149772E+04  2.314439E+05  1.237145E+04 -8.792636E+00  7.485241E+03 -3.321536E+02
        54   3  2.156718E+04  2.314748E+05  1.266226E+04  1.688486E+00  7.422950E+03 -5.326898E+02
        54   4 -2.385511E+00  1.361231E+05  1.361307E+02 -3.306806E-01  7.513570E+03 -1.047538E+02
        54   5  8.717949E+00  1.361108E+05  2.389415E+02  4.143747E-01  7.485350E+03 -2.234417E+02
        54   6  5.404579E+01  1.361231E+05  4.277187E+02 -3.253285E-01  7.423046E+03 -3.421363E+02
        54   7 -2.148183E+04  4.080377E+04 -1.195119E+04  2.009392E+01  7.513689E+03 -7.788604E+01
        54   8 -2.148066E+04  4.078707E+04 -1.189360E+04  9.620149E+00  7.485459E+03 -1.147456E+02
        54   9 -2.145946E+04  4.078066E+04 -1.180687E+04 -2.338545E+00  7.423142E+03 -1.516107E+02
        54  10  2.147663E+04  2.314517E+05  1.222331E+04 -2.075755E+01 -5.379709E-10  3.962280E-09
        54  11  2.149766E+04  2.314439E+05  1.237135E+04 -8.790634E+00  2.875822E-10  2.837643E-09
        54  12  2.156712E+04  2.314748E+05  1.266216E+04  1.691670E+00  1.545584E-11  2.596756E-09
        54  13 -2.446139E+00  1.361231E+05  1.360246E+02 -3.300468E-01 -5.645965E-10  1.175537E-10
        54  14  8.657764E+00  1.361108E+05  2.388361E+02  4.157217E-01 -7.834676E-11 -2.303838E-10
        54  15  5.398659E+01  1.361230E+05  4.276149E+02 -3.232831E-01 -1.006012E-09  1.542059E-10
        54  16 -2.148189E+04  4.080375E+04 -1.195129E+04  2.009439E+01 -1.350438E-09 -4.108143E-09
        54  17 -2.148072E+04  4.078705E+04 -1.189371E+04  9.620841E+00  1.284461E-10 -2.877830E-09
        54  18 -2.145952E+04  4.078065E+04 -1.180697E+04 -2.337639E+00 -1.175401E-09 -2.560624E-09
        54  19  2.147669E+04  2.314517E+05  1.222342E+04 -2.075835E+01 -7.513451E+03  1.316254E+02
        54  20  2.149772E+04  2.314439E+05  1.237145E+04 -8.792636E+00 -7.485241E+03  3.321536E+02
        54  21  2.156718E+04  2.314748E+05  1.266226E+04  1.688486E+00 -7.422950E+03  5.326898E+02
        54  22 -2.385511E+00  1.361231E+05  1.361307E+02 -3.306806E-01 -7.513570E+03  1.047538E+02
        54  23  8.717949E+00  1.361108E+05  2.389415E+02  4.143747E-01 -7.485350E+03  2.234417E+02
        54  24  5.404579E+01  1.361231E+05  4.277187E+02 -3.253284E-01 -7.423046E+03  3.421363E+02
        54  25 -2.148183E+04  4.080377E+04 -1.195119E+04  2.009392E+01 -7.513689E+03  7.788604E+01
        54  26 -2.148066E+04  4.078707E+04 -1.189360E+04  9.620149E+00 -7.485459E+03  1.147456E+02
        54  27 -2.145946E+04  4.078066E+04 -1.180687E+04 -2.338545E+00 -7.423142E+03  1.516107E+02
        55   1  2.161005E+04  2.315300E+05  1.287056E+04 -2.572825E+01  7.383614E+03 -6.361519E+02
        55   2  2.185061E+04  2.314158E+05  1.364232E+04  2.248469E+02  7.169739E+03 -1.751228E+03
        55   3  2.255325E+04  2.315626E+05  1.525551E+04  4.558462E+02  6.703166E+03 -2.866352E+03
        55   4  7.809190E+01  1.361523E+05  5.680125E+02 -4.353811E+00  7.383705E+03 -4.256278E+02
        55   5  2.609183E+02  1.360743E+05  1.014423E+03  5.480387E+00  7.169736E+03 -9.339713E+02
        55   6  8.005516E+02  1.361522E+05  1.881064E+03 -4.261887E+00  6.703050E+03 -1.442360E+03
        55   7 -2.145424E+04  4.078378E+04 -1.173458E+04  1.701748E+01  7.383797E+03 -2.151344E+02
        55   8 -2.132916E+04  4.074210E+04 -1.161354E+04 -2.138506E+02  7.169733E+03 -1.168336E+02
        55   9 -2.095255E+04  4.075098E+04 -1.149349E+04 -4.642958E+02  6.702932E+03 -1.857766E+01
        55  10  2.160999E+04  2.315300E+05  1.287046E+04 -2.572447E+01  7.927737E-10  2.973198E-08
        55  11  2.185055E+04  2.314158E+05  1.364222E+04  2.248570E+02  2.721822E-09 -5.569832E-09
        55  12  2.255320E+04  2.315626E+05  1.525541E+04  4.558616E+02  5.801197E-09 -4.090874E-08
        55  13  7.803331E+01  1.361522E+05  5.679097E+02 -4.351280E+00 -8.196242E-10  1.066895E-10
        55  14  2.608629E+02  1.360743E+05  1.014325E+03  5.485780E+00 -8.164547E-09 -3.360751E-10
        55  15  8.005028E+02  1.361522E+05  1.880976E+03 -4.254100E+00 -1.156058E-08  1.499307E-10
        55  16 -2.145430E+04  4.078376E+04 -1.173468E+04  1.701876E+01 -3.112672E-10 -2.998320E-08
        55  17 -2.132921E+04  4.074208E+04 -1.161364E+04 -2.138499E+02  3.098580E-09  5.436779E-09
        55  18 -2.095260E+04  4.075096E+04 -1.149358E+04 -4.642957E+02  6.192868E-09  4.095362E-08
        55  19  2.161005E+04  2.315300E+05  1.287056E+04 -2.572825E+01 -7.383614E+03  6.361519E+02
        55  20  2.185061E+04  2.314158E+05  1.364232E+04  2.248469E+02 -7.169739E+03  1.751228E+03
        55  21  2.255325E+04  2.315626E+05  1.525551E+04  4.558462E+02 -6.703166E+03  2.866352E+03
        55  22  7.809190E+01  1.361523E+05  5.680125E+02 -4.353811E+00 -7.383705E+03  4.256278E+02
        55  23  2.609183E+02  1.360743E+05  1.014423E+03  5.480387E+00 -7.169736E+03  9.339713E+02
        55  24  8.005516E+02  1.361522E+05  1.881064E+03 -4.261886E+00 -6.703050E+03  1.442360E+03
        55  25 -2.145424E+04  4.078378E+04 -1.173458E+04  1.701748E+01 -7.383797E+03  2.151344E+02
        55  26 -2.132916E+04  4.074210E+04 -1.161354E+04 -2.138506E+02 -7.169733E+03  1.168336E+02
        55  27 -2.095255E+04  4.075098E+04 -1.149349E+04 -4.642958E+02 -6.702932E+03  1.857766E+01
        56   1  2.298275E+04  2.319371E+05  1.639366E+04  2.904910E+02  6.408512E+03 -3.343291E+03
        56   2  2.543827E+04  2.309831E+05  2.092840E+04  3.175926E+03  4.819706E+03 -1.020778E+04
        56   3  3.220245E+04  2.320001E+05  3.100837E+04  5.902653E+03  1.361106E+03 -1.707262E+04
        56   4  1.101849E+03  1.363825E+05  2.522602E+03 -3.526275E+01  6.408355E+03 -1.770551E+03
        56   5  3.151086E+03  1.357862E+05  4.662468E+03  4.469407E+01  4.818760E+03 -4.146038E+03
        56   6  8.730133E+03  1.363820E+05  9.231052E+03 -3.404128E+01  1.359301E+03 -6.521883E+03
        56   7 -2.077947E+04  4.083699E+04 -1.134859E+04 -3.609639E+02  6.408196E+03 -1.980429E+02
        56   8 -1.913652E+04  4.059826E+04 -1.160363E+04 -3.086042E+03  4.817752E+03  1.914807E+03
        56   9 -1.474263E+04  4.077257E+04 -1.254642E+04 -5.969813E+03  1.357295E+03  4.027242E+03
        56  10  2.298271E+04  2.319371E+05  1.639356E+04  2.905082E+02  6.418718E-09  4.315111E-08
        56  11  2.543822E+04  2.309830E+05  2.092816E+04  3.175965E+03  4.993110E-09  7.950409E-09
        56  12  3.220237E+04  2.319998E+05  3.100782E+04  5.902672E+03  1.097279E-09 -2.540641E-08
        56  13  1.101804E+03  1.363824E+05  2.522519E+03 -3.525361E+01 -1.059255E-08  1.749248E-10
        56  14  3.151057E+03  1.357862E+05  4.662392E+03  4.471016E+01 -5.541674E-09 -3.775897E-10
        56  15  8.730120E+03  1.363819E+05  9.230969E+03 -3.403414E+01 -2.108073E-10  2.531968E-10
        56  16 -2.077952E+04  4.083698E+04 -1.134867E+04 -3.609629E+02  5.616003E-09 -4.341176E-08
        56  17 -1.913655E+04  4.059825E+04 -1.160368E+04 -3.086050E+03  3.600224E-09 -8.081950E-09
        56  18 -1.474263E+04  4.077255E+04 -1.254646E+04 -5.969817E+03  6.609180E-10  2.544921E-08
        56  19  2.298275E+04  2.319371E+05  1.639366E+04  2.904910E+02 -6.408512E+03  3.343291E+03
        56  20  2.543827E+04  2.309831E+05  2.092840E+04  3.175926E+03 -4.819706E+03  1.020778E+04
        56  21  3.220245E+04  2.320001E+05  3.100837E+04  5.902653E+03 -1.361106E+03  1.707262E+04
        56  22  1.101849E+03  1.363825E+05  2.522602E+03 -3.526275E+01 -6.408355E+03  1.770551E+03
        56  23  3.151086E+03  1.357862E+05  4.662468E+03  4.469407E+01 -4.818760E+03  4.146038E+03
        56  24  8.730133E+03  1.363820E+05  9.231052E+03 -3.404128E+01 -1.359301E+03  6.521883E+03
        56  25 -2.077947E+04  4.083699E+04 -1.134859E+04 -3.609639E+02 -6.408196E+03  1.980429E+02
        56  26 -1.913652E+04  4.059826E+04 -1.160363E+04 -3.086042E+03 -4.817752E+03 -1.914807E+03
        56  27 -1.474263E+04  4.077257E+04 -1.254642E+04 -5.969813E+03 -1.357295E+03 -4.027242E+03
        57   1 -2.993662E+06 -8.809206E+05 -5.478316E+05 -1.041426E+06 -2.743152E+05 -9.906121E+04
        57   2 -2.911843E+06 -4.726346E+05 -2.900390E+05 -1.095929E+06 -1.779182E+05 -5.437147E+04
        57   3 -2.979788E+06 -4.892513E+05 -2.181304E+05 -1.063290E+06 -7.825122E+04 -1.836053E+04
        57   4 -2.595880E+06 -6.629731E+05 -4.252172E+05 -8.642008E+05 -2.705192E+05 -9.766832E+04
        57   5 -2.499538E+06 -2.987557E+05 -1.751156E+05 -9.649717E+05 -1.769826E+05 -5.402635E+04
        57   6 -2.552288E+06 -3.587142E+05 -1.085296E+05 -9.786324E+05 -8.017439E+04 -1.907912E+04
        57   7 -2.197936E+06 -4.449575E+05 -3.026190E+05 -6.868566E+05 -2.667205E+05 -9.627336E+04
        57   8 -2.087069E+06 -1.248555E+05 -6.020856E+04 -8.339319E+05 -1.760462E+05 -5.368089E+04
        57   9 -2.124611E+06 -2.281798E+05  1.057075E+03 -8.939287E+05 -8.209901E+04 -1.979801E+04
        57  10 -2.993746E+06 -8.809515E+05 -5.479923E+05 -1.041448E+06  1.487601E-10 -2.956863E-10
        57  11 -2.911878E+06 -4.726463E+05 -2.901044E+05 -1.095937E+06 -4.547040E-10 -1.149940E-10
        57  12 -2.979794E+06 -4.892533E+05 -2.181426E+05 -1.063291E+06 -1.047607E-09  4.556608E-10
        57  13 -2.595962E+06 -6.630032E+05 -4.253734E+05 -8.642221E+05  7.871451E-10 -6.392447E-10
        57  14 -2.499573E+06 -2.987673E+05 -1.751803E+05 -9.649794E+05  3.086918E-10 -3.537289E-10
        57  15 -2.552295E+06 -3.587164E+05 -1.085424E+05 -9.786336E+05 -4.694336E-10 -3.097184E-10
        57  16 -2.198015E+06 -4.449866E+05 -3.027707E+05 -6.868773E+05  1.214451E-10  3.881047E-10
        57  17 -2.087104E+06 -1.248669E+05 -6.027246E+04 -8.339395E+05  7.443707E-10 -9.659866E-11
        57  18 -2.124618E+06 -2.281820E+05  1.043619E+03 -8.939300E+05  1.741390E-10  1.010139E-10
        57  19 -2.993662E+06 -8.809206E+05 -5.478316E+05 -1.041426E+06  2.743152E+05  9.906121E+04
        57  20 -2.911843E+06 -4.726346E+05 -2.900390E+05 -1.095929E+06  1.779182E+05  5.437147E+04
        57  21 -2.979788E+06 -4.892513E+05 -2.181304E+05 -1.063290E+06  7.825122E+04  1.836053E+04
        57  22 -2.595880E+06 -6.629731E+05 -4.252172E+05 -8.642008E+05  2.705192E+05  9.766832E+04
        57  23 -2.499538E+06 -2.987557E+05 -1.751156E+05 -9.649717E+05  1.769826E+05  5.402635E+04
        57  24 -2.552288E+06 -3.587142E+05 -1.085296E+05 -9.786324E+05  8.017439E+04  1.907912E+04
        57  25 -2.197936E+06 -4.449575E+05 -3.026190E+05 -6.868566E+05  2.667205E+05  9.627336E+04
        57  26 -2.087069E+06 -1.248555E+05 -6.020856E+04 -8.339319E+05  1.760462E+05  5.368089E+04
        57  27 -2.124611E+06 -2.281798E+05  1.057075E+03 -8.939287E+05  8.209901E+04  1.979801E+04
        58   1 -2.878271E+06 -5.448244E+05 -1.830194E+05 -1.054805E+06 -6.365770E+04 -1.496344E+04
        58   2 -2.851493E+06 -4.712824E+05 -1.273939E+05 -1.042521E+06 -4.151977E+04 -6.820472E+03
        58   3 -2.823980E+06 -4.744235E+05 -1.027580E+05 -1.043565E+06 -1.896425E+04  2.126290E+02
        58   4 -2.536948E+06 -4.077329E+05 -8.895171E+04 -9.534783E+05 -6.354596E+04 -1.492285E+04
        58   5 -2.534531E+06 -3.496548E+05 -4.127828E+04 -9.542247E+05 -4.176912E+04 -6.914520E+03
        58   6 -2.531298E+06 -3.681702E+05 -2.429377E+04 -9.683026E+05 -1.957580E+04 -1.671319E+01
        58   7 -2.195512E+06 -2.706302E+05  5.105376E+03 -8.520991E+05 -6.343413E+04 -1.488222E+04
        58   8 -2.217472E+06 -2.280205E+05  4.482837E+04 -8.658876E+05 -4.201862E+04 -7.008621E+03
        58   9 -2.238533E+06 -2.619136E+05  5.416292E+04 -8.930085E+05 -2.018766E+04 -2.461638E+02
        58  10 -2.878276E+06 -5.448257E+05 -1.830275E+05 -1.054806E+06 -5.835390E-10 -4.281170E-12
        58  11 -2.851495E+06 -4.712829E+05 -1.273973E+05 -1.042521E+06  7.709891E-10 -5.886655E-11
        58  12 -2.823981E+06 -4.744235E+05 -1.027586E+05 -1.043565E+06 -1.092977E-09 -1.038555E-09
        58  13 -2.536953E+06 -4.077343E+05 -8.895975E+04 -9.534791E+05  3.862250E-10 -2.672857E-11
        58  14 -2.534533E+06 -3.496554E+05 -4.128167E+04 -9.542250E+05  1.185627E-09  3.371619E-10
        58  15 -2.531298E+06 -3.681703E+05 -2.429449E+04 -9.683026E+05 -2.321781E-09 -9.071190E-10
        58  16 -2.195516E+06 -2.706316E+05  5.097366E+03 -8.520999E+05  7.925176E-10 -3.145444E-10
        58  17 -2.217474E+06 -2.280210E+05  4.482495E+04 -8.658879E+05 -9.138315E-10  4.093339E-10
        58  18 -2.238533E+06 -2.619137E+05  5.416215E+04 -8.930085E+05 -1.354123E-09 -5.592093E-11
        58  19 -2.878271E+06 -5.448244E+05 -1.830194E+05 -1.054805E+06  6.365770E+04  1.496344E+04
        58  20 -2.851493E+06 -4.712824E+05 -1.273939E+05 -1.042521E+06  4.151977E+04  6.820472E+03
        58  21 -2.823980E+06 -4.744235E+05 -1.027580E+05 -1.043565E+06  1.896425E+04 -2.126290E+02
        58  22 -2.536948E+06 -4.077329E+05 -8.895171E+04 -9.534783E+05  6.354596E+04  1.492285E+04
        58  23 -2.534531E+06 -3.496548E+05 -4.127828E+04 -9.542247E+05  4.176912E+04  6.914520E+03
        58  24 -2.531298E+06 -3.681702E+05 -2.429377E+04 -9.683026E+05  1.957580E+04  1.671319E+01
        58  25 -2.195512E+06 -2.706302E+05  5.105376E+03 -8.520991E+05  6.343413E+04  1.488222E+04
        58  26 -2.217472E+06 -2.280205E+05  4.482837E+04 -8.658876E+05  4.201862E+04  7.008621E+03
        58  27 -2.238533E+06 -2.619136E+05  5.416292E+04 -8.930085E+05  2.018766E+04  2.461638E+02
        59   1 -2.743893E+06 -4.574435E+05 -7.759483E+04 -1.025431E+06 -1.532354E+04  5.724310E+02
        59   2 -2.722073E+06 -4.240466E+05 -5.884295E+04 -1.001314E+06 -9.858064E+03  1.257732E+03
        59   3 -2.675658E+06 -4.253706E+05 -4.570569E+04 -1.007398E+06 -4.317700E+03  1.741753E+03
        59   4 -2.528320E+06 -3.752539E+05 -1.921129E+04 -9.659008E+05 -1.569426E+04  4.333440E+02
        59   5 -2.540258E+06 -3.553415E+05 -9.647277E+03 -9.517565E+05 -1.029467E+04  1.094122E+03
        59   6 -2.527588E+06 -3.701350E+05 -5.643828E+03 -9.678130E+05 -4.820477E+03  1.553529E+03
        59   7 -2.312702E+06 -2.930615E+05  3.916796E+04 -9.063522E+05 -1.606513E+04  2.942028E+02
        59   8 -2.358411E+06 -2.866344E+05  3.954544E+04 -9.021857E+05 -1.073141E+04  9.304596E+02
        59   9 -2.379497E+06 -3.148982E+05  3.441615E+04 -9.282192E+05 -5.323386E+03  1.365255E+03
        59  10 -2.743893E+06 -4.574436E+05 -7.759527E+04 -1.025431E+06 -1.840380E-09 -7.212112E-10
        59  11 -2.722073E+06 -4.240467E+05 -5.884313E+04 -1.001314E+06  4.993537E-11  7.176202E-10
        59  12 -2.675658E+06 -4.253706E+05 -4.570573E+04 -1.007398E+06  2.757089E-11  1.127522E-09
        59  13 -2.528320E+06 -3.752540E+05 -1.921176E+04 -9.659008E+05 -7.143507E-10 -1.056929E-09
        59  14 -2.540258E+06 -3.553415E+05 -9.647479E+03 -9.517565E+05 -6.144693E-10  4.774785E-10
        59  15 -2.527588E+06 -3.701350E+05 -5.643876E+03 -9.678130E+05 -4.594646E-10  5.395110E-10
        59  16 -2.312702E+06 -2.930616E+05  3.916748E+04 -9.063522E+05 -1.330107E-09 -5.808310E-10
        59  17 -2.358411E+06 -2.866344E+05  3.954522E+04 -9.021857E+05 -2.402531E-09 -7.588815E-10
        59  18 -2.379497E+06 -3.148982E+05  3.441609E+04 -9.282191E+05 -9.938437E-10 -4.912786E-10
        59  19 -2.743893E+06 -4.574435E+05 -7.759483E+04 -1.025431E+06  1.532354E+04 -5.724310E+02
        59  20 -2.722073E+06 -4.240466E+05 -5.884295E+04 -1.001314E+06  9.858064E+03 -1.257732E+03
        59  21 -2.675658E+06 -4.253706E+05 -4.570569E+04 -1.007398E+06  4.317700E+03 -1.741753E+03
        59  22 -2.528320E+06 -3.752539E+05 -1.921129E+04 -9.659008E+05  1.569426E+04 -4.333440E+02
        59  23 -2.540258E+06 -3.553415E+05 -9.647277E+03 -9.517565E+05  1.029467E+04 -1.094122E+03
        59  24 -2.527588E+06 -3.701350E+05 -5.643828E+03 -9.678130E+05  4.820477E+03 -1.553529E+03
        59  25 -2.312702E+06 -2.930615E+05  3.916796E+04 -9.063522E+05  1.606513E+04 -2.942028E+02
        59  26 -2.358411E+06 -2.866344E+05  3.954544E+04 -9.021857E+05  1.073141E+04 -9.304596E+02
        59  27 -2.379497E+06 -3.148982E+05  3.441615E+04 -9.282192E+05  5.323386E+03 -1.365255E+03
        60   1 -2.592027E+06 -3.959218E+05 -2.196688E+04 -9.856153E+05 -3.200277E+03  1.190910E+03
        60   2 -2.569965E+06 -3.664974E+05 -1.040076E+04 -9.588127E+05 -1.313250E+03  2.857860E+02
        60   3 -2.518878E+06 -3.676855E+05 -1.239350E+02 -9.657909E+05  5.833002E+02 -6.450172E+02
        60   4 -2.526894E+06 -3.713083E+05 -4.473887E+03 -9.678264E+05 -3.670849E+03  1.014806E+03
        60   5 -2.541366E+06 -3.557160E+05 -2.668013E+03 -9.510430E+05 -1.792319E+03  1.065248E+02
        60   6 -2.526812E+06 -3.707342E+05 -2.144358E+03 -9.680404E+05  9.564168E+01 -8.274634E+02
        60   7 -2.461758E+06 -3.466945E+05  1.301873E+04 -9.500359E+05 -4.141475E+03  8.386822E+02
        60   8 -2.512767E+06 -3.449345E+05  5.064656E+03 -9.432729E+05 -2.271413E+03 -7.274538E+01
        60   9 -2.534746E+06 -3.737829E+05 -4.164781E+03 -9.702899E+05 -3.920091E+02 -1.009907E+03
        60  10 -2.592027E+06 -3.959218E+05 -2.196690E+04 -9.856153E+05  1.558290E-09  7.271377E-10
        60  11 -2.569965E+06 -3.664974E+05 -1.040077E+04 -9.588127E+05  1.495711E-09  4.549470E-10
        60  12 -2.518878E+06 -3.676855E+05 -1.239364E+02 -9.657909E+05 -9.473094E-11  1.987377E-10
        60  13 -2.526894E+06 -3.713083E+05 -4.473915E+03 -9.678264E+05 -8.202979E-11  1.652043E-10
        60  14 -2.541366E+06 -3.557160E+05 -2.668019E+03 -9.510430E+05  4.174335E-10  2.407695E-10
        60  15 -2.526812E+06 -3.707342E+05 -2.144359E+03 -9.680404E+05  3.676887E-10 -1.954632E-10
        60  16 -2.461758E+06 -3.466945E+05  1.301869E+04 -9.500359E+05 -1.205879E-09 -5.946322E-11
        60  17 -2.512767E+06 -3.449345E+05  5.064646E+03 -9.432729E+05 -6.561827E-10 -9.171820E-10
        60  18 -2.534746E+06 -3.737829E+05 -4.164783E+03 -9.702899E+05 -4.203302E-10  1.328851E-10
        60  19 -2.592027E+06 -3.959218E+05 -2.196688E+04 -9.856153E+05  3.200277E+03 -1.190910E+03
        60  20 -2.569965E+06 -3.664974E+05 -1.040076E+04 -9.588127E+05  1.313250E+03 -2.857860E+02
        60  21 -2.518878E+06 -3.676855E+05 -1.239350E+02 -9.657909E+05 -5.833002E+02  6.450172E+02
        60  22 -2.526894E+06 -3.713083E+05 -4.473887E+03 -9.678264E+05  3.670849E+03 -1.014806E+03
        60  23 -2.541366E+06 -3.557160E+05 -2.668013E+03 -9.510430E+05  1.792319E+03 -1.065248E+02
        60  24 -2.526812E+06 -3.707342E+05 -2.144358E+03 -9.680404E+05 -9.564168E+01  8.274634E+02
        60  25 -2.461758E+06 -3.466945E+05  1.301873E+04 -9.500359E+05  4.141475E+03 -8.386822E+02
        60  26 -2.512767E+06 -3.449345E+05  5.064656E+03 -9.432729E+05  2.271413E+03  7.274538E+01
        60  27 -2.534746E+06 -3.737829E+05 -4.164781E+03 -9.702899E+05  3.920091E+02  1.009907E+03
        61   1 -2.435013E+06 -3.359608E+05  2.285190E+04 -9.429630E+05  1.259253E+03 -1.364129E+03
        61   2 -2.413708E+06 -3.079545E+05  3.179974E+04 -9.167306E+05  3.104462E+03 -2.296128E+03
        61   3 -2.364188E+06 -3.096707E+05  3.950714E+04 -9.232600E+05  4.920506E+03 -3.148223E+03
        61   4 -2.526996E+06 -3.705366E+05 -2.137318E+03 -9.678160E+05  7.677330E+02 -1.548055E+03
        61   5 -2.541142E+06 -3.559656E+05 -2.648950E+03 -9.513251E+05  2.639469E+03 -2.470238E+03
        61   6 -2.527081E+06 -3.711233E+05 -4.422393E+03 -9.675972E+05  4.481952E+03 -3.312535E+03
        61   7 -2.618972E+06 -4.051119E+05 -2.712734E+04 -9.926658E+05  2.762922E+02 -1.731951E+03
        61   8 -2.668562E+06 -4.039758E+05 -3.709913E+04 -9.859132E+05  2.174581E+03 -2.644308E+03
        61   9 -2.689947E+06 -4.325745E+05 -4.835429E+04 -1.011924E+06  4.043525E+03 -3.476799E+03
        61  10 -2.435013E+06 -3.359609E+05  2.285189E+04 -9.429630E+05 -2.474987E-10  2.591132E-10
        61  11 -2.413708E+06 -3.079545E+05  3.179972E+04 -9.167306E+05 -1.479499E-09 -9.619691E-10
        61  12 -2.364188E+06 -3.096707E+05  3.950707E+04 -9.232600E+05 -6.033662E-10 -5.803747E-10
        61  13 -2.526996E+06 -3.705366E+05 -2.137323E+03 -9.678160E+05 -1.245080E-09 -5.595403E-10
        61  14 -2.541142E+06 -3.559656E+05 -2.648975E+03 -9.513251E+05 -2.463238E-09 -2.930204E-10
        61  15 -2.527081E+06 -3.711234E+05 -4.422451E+03 -9.675972E+05 -1.742926E-09 -5.200636E-10
        61  16 -2.618972E+06 -4.051119E+05 -2.712735E+04 -9.926658E+05 -2.096488E-09 -1.231398E-11
        61  17 -2.668562E+06 -4.039758E+05 -3.709915E+04 -9.859132E+05 -1.503063E-09 -6.019815E-10
        61  18 -2.689947E+06 -4.325745E+05 -4.835434E+04 -1.011924E+06 -9.256645E-11  1.580719E-10
        61  19 -2.435013E+06 -3.359608E+05  2.285190E+04 -9.429630E+05 -1.259253E+03  1.364129E+03
        61  20 -2.413708E+06 -3.079545E+05  3.179974E+04 -9.167306E+05 -3.104462E+03  2.296128E+03
        61  21 -2.364188E+06 -3.096707E+05  3.950714E+04 -9.232600E+05 -4.920506E+03  3.148223E+03
        61  22 -2.526996E+06 -3.705366E+05 -2.137318E+03 -9.678160E+05 -7.677330E+02  1.548055E+03
        61  23 -2.541142E+06 -3.559656E+05 -2.648950E+03 -9.513251E+05 -2.639469E+03  2.470238E+03
        61  24 -2.527081E+06 -3.711233E+05 -4.422393E+03 -9.675972E+05 -4.481952E+03  3.312535E+03
        61  25 -2.618972E+06 -4.051119E+05 -2.712734E+04 -9.926658E+05 -2.762922E+02  1.731951E+03
        61  26 -2.668562E+06 -4.039758E+05 -3.709913E+04 -9.859132E+05 -2.174581E+03  2.644308E+03
        61  27 -2.689947E+06 -4.325745E+05 -4.835429E+04 -1.011924E+06 -4.043525E+03  3.476799E+03
        62   1 -2.287184E+06 -2.793266E+05  5.958796E+04 -9.023066E+05  6.082228E+03 -3.626804E+03
        62   2 -2.268057E+06 -2.535022E+05  6.391984E+04 -8.785723E+05  1.137351E+04 -3.121672E+03
        62   3 -2.226674E+06 -2.597389E+05  6.285565E+04 -8.821033E+05  1.656948E+04 -2.358469E+03
        62   4 -2.528126E+06 -3.695830E+05 -5.570189E+03 -9.671530E+05  5.602599E+03 -3.806625E+03
        62   5 -2.539608E+06 -3.560746E+05 -9.531338E+03 -9.525728E+05  1.097841E+04 -3.270037E+03
        62   6 -2.528851E+06 -3.746471E+05 -1.895760E+04 -9.652587E+05  1.625863E+04 -2.475429E+03
        62   7 -2.769012E+06 -4.598360E+05 -7.073340E+04 -1.031977E+06  5.123177E+03 -3.986369E+03
        62   8 -2.811087E+06 -4.586428E+05 -8.298911E+04 -1.026544E+06  1.058349E+04 -3.418329E+03
        62   9 -2.830941E+06 -4.895497E+05 -1.007792E+05 -1.048378E+06  1.594794E+04 -2.592326E+03
        62  10 -2.287184E+06 -2.793266E+05  5.958787E+04 -9.023066E+05  7.536138E-10  3.175659E-10
        62  11 -2.268057E+06 -2.535022E+05  6.391958E+04 -8.785723E+05 -1.071528E-09  9.604148E-11
        62  12 -2.226674E+06 -2.597390E+05  6.285512E+04 -8.821033E+05 -2.034291E-10 -4.808975E-10
        62  13 -2.528126E+06 -3.695830E+05 -5.570275E+03 -9.671530E+05 -1.236153E-09 -2.028172E-10
        62  14 -2.539608E+06 -3.560747E+05 -9.531585E+03 -9.525728E+05 -1.852563E-09 -6.227839E-10
        62  15 -2.528852E+06 -3.746471E+05 -1.895811E+04 -9.652587E+05 -1.150389E-09 -9.872530E-10
        62  16 -2.769012E+06 -4.598361E+05 -7.073348E+04 -1.031977E+06  1.854322E-10 -2.997674E-10
        62  17 -2.811087E+06 -4.586428E+05 -8.298935E+04 -1.026544E+06  7.573530E-10 -2.191001E-11
        62  18 -2.830942E+06 -4.895498E+05 -1.007797E+05 -1.048378E+06 -2.522914E-09 -5.818275E-10
        62  19 -2.287184E+06 -2.793266E+05  5.958796E+04 -9.023066E+05 -6.082228E+03  3.626804E+03
        62  20 -2.268057E+06 -2.535022E+05  6.391984E+04 -8.785723E+05 -1.137351E+04  3.121672E+03
        62  21 -2.226674E+06 -2.597389E+05  6.285565E+04 -8.821033E+05 -1.656948E+04  2.358469E+03
        62  22 -2.528126E+06 -3.695830E+05 -5.570189E+03 -9.671530E+05 -5.602599E+03  3.806625E+03
        62  23 -2.539608E+06 -3.560746E+05 -9.531338E+03 -9.525728E+05 -1.097841E+04  3.270037E+03
        62  24 -2.528851E+06 -3.746471E+05 -1.895760E+04 -9.652587E+05 -1.625863E+04  2.475429E+03
        62  25 -2.769012E+06 -4.598360E+05 -7.073340E+04 -1.031977E+06 -5.123177E+03  3.986369E+03
        62  26 -2.811087E+06 -4.586428E+05 -8.298911E+04 -1.026544E+06 -1.058349E+04  3.418329E+03
        62  27 -2.830941E+06 -4.895497E+05 -1.007792E+05 -1.048378E+06 -1.594794E+04  2.592326E+03
        63   1 -2.162180E+06 -2.317979E+05  7.536512E+04 -8.707889E+05  2.063457E+04 -1.741105E+03
        63   2 -2.144198E+06 -2.018385E+05  6.492961E+04 -8.473371E+05  4.208061E+04  5.084139E+03
        63   3 -2.128843E+06 -2.436832E+05  2.456888E+04 -8.327761E+05  6.306875E+04  1.313133E+04
        63   4 -2.532114E+06 -3.673251E+05 -2.397106E+04 -9.672544E+05  2.006014E+04 -1.957022E+03
        63   5 -2.533551E+06 -3.508838E+05 -4.074657E+04 -9.554848E+05  4.190357E+04  5.016951E+03
        63   6 -2.537709E+06 -4.063478E+05 -8.777810E+04 -9.526044E+05  6.328822E+04  1.321243E+04
        63   7 -2.901916E+06 -5.028462E+05 -1.233193E+05 -1.063669E+06  1.948607E+04 -2.172807E+03
        63   8 -2.922758E+06 -4.999189E+05 -1.464363E+05 -1.063571E+06  4.172664E+04  4.949807E+03
        63   9 -2.946412E+06 -5.689973E+05 -2.001402E+05 -1.072359E+06  6.350752E+04  1.329346E+04
        63  10 -2.162181E+06 -2.317981E+05  7.536431E+04 -8.707889E+05 -1.128390E-09 -3.019227E-10
        63  11 -2.144200E+06 -2.018391E+05  6.492622E+04 -8.473373E+05 -5.582750E-10  6.624714E-10
        63  12 -2.128848E+06 -2.436845E+05  2.456106E+04 -8.327767E+05  4.507453E-10  5.040669E-10
        63  13 -2.532115E+06 -3.673252E+05 -2.397183E+04 -9.672544E+05  2.151806E-10 -7.338342E-10
        63  14 -2.533553E+06 -3.508843E+05 -4.074993E+04 -9.554850E+05  2.832799E-11  1.352581E-09
        63  15 -2.537713E+06 -4.063490E+05 -8.778599E+04 -9.526051E+05  2.472249E-10  5.978436E-10
        63  16 -2.901916E+06 -5.028463E+05 -1.233200E+05 -1.063669E+06 -9.063697E-10 -1.371435E-10
        63  17 -2.922759E+06 -4.999194E+05 -1.464396E+05 -1.063571E+06  2.241937E-09  8.154327E-12
        63  18 -2.946416E+06 -5.689985E+05 -2.001482E+05 -1.072360E+06  1.039303E-09  4.320356E-10
        63  19 -2.162180E+06 -2.317979E+05  7.536512E+04 -8.707889E+05 -2.063457E+04  1.741105E+03
        63  20 -2.144198E+06 -2.018385E+05  6.492961E+04 -8.473371E+05 -4.208061E+04 -5.084139E+03
        63  21 -2.128843E+06 -2.436832E+05  2.456888E+04 -8.327761E+05 -6.306875E+04 -1.313133E+04
        63  22 -2.532114E+06 -3.673251E+05 -2.397106E+04 -9.672544E+05 -2.006014E+04  1.957022E+03
        63  23 -2.533551E+06 -3.508838E+05 -4.074657E+04 -9.554848E+05 -4.190357E+04 -5.016951E+03
        63  24 -2.537709E+06 -4.063478E+05 -8.777810E+04 -9.526044E+05 -6.328822E+04 -1.321243E+04
        63  25 -2.901916E+06 -5.028462E+05 -1.233193E+05 -1.063669E+06 -1.948607E+04  2.172807E+03
        63  26 -2.922758E+06 -4.999189E+05 -1.464363E+05 -1.063571E+06 -4.172664E+04 -4.949807E+03
        63  27 -2.946412E+06 -5.689973E+05 -2.001402E+05 -1.072359E+06 -6.350752E+04 -1.329346E+04
        64   1 -2.071223E+06 -2.061770E+05  1.722179E+04 -8.770263E+05  8.165809E+04  1.807705E+04
        64   2 -2.037858E+06 -1.087762E+05 -4.485013E+04 -8.222326E+05  1.740264E+05  5.167330E+04
        64   3 -2.155764E+06 -4.241595E+05 -2.854497E+05 -6.757677E+05  2.628684E+05  9.463117E+04
        64   4 -2.553077E+06 -3.577560E+05 -1.071018E+05 -9.771738E+05  7.968851E+04  1.733942E+04
        64   5 -2.498670E+06 -3.009916E+05 -1.728247E+05 -9.664698E+05  1.751317E+05  5.208326E+04
        64   6 -2.596267E+06 -6.578186E+05 -4.196250E+05 -8.640616E+05  2.670499E+05  9.617502E+04
        64   7 -3.034708E+06 -5.093372E+05 -2.314440E+05 -1.077259E+06  7.772059E+04  1.660218E+04
        64   8 -2.959275E+06 -4.931811E+05 -3.008190E+05 -1.110605E+06  1.762360E+05  5.249278E+04
        64   9 -3.036568E+06 -8.914020E+05 -5.538187E+05 -1.052215E+06  2.712280E+05  9.771646E+04
        64  10 -2.071230E+06 -2.061792E+05  1.720859E+04 -8.770275E+05 -5.312354E-10 -1.896419E-10
        64  11 -2.037892E+06 -1.087872E+05 -4.491230E+04 -8.222398E+05 -1.404737E-09  8.487514E-10
        64  12 -2.155841E+06 -4.241878E+05 -2.855970E+05 -6.757878E+05 -2.748021E-10 -3.079205E-10
        64  13 -2.553084E+06 -3.577581E+05 -1.071143E+05 -9.771749E+05  1.287107E-09 -7.766390E-10
        64  14 -2.498704E+06 -3.010028E+05 -1.728877E+05 -9.664772E+05 -2.690611E-09 -1.253124E-09
        64  15 -2.596347E+06 -6.578479E+05 -4.197771E+05 -8.640824E+05  4.424677E-10  5.670662E-10
        64  16 -3.034715E+06 -5.093391E+05 -2.314559E+05 -1.077260E+06  2.578549E-10 -4.586556E-10
        64  17 -2.959310E+06 -4.931925E+05 -3.008829E+05 -1.110613E+06 -3.449016E-10 -5.283458E-11
        64  18 -3.036650E+06 -8.914322E+05 -5.539757E+05 -1.052237E+06  9.574240E-11 -8.382324E-10
        64  19 -2.071223E+06 -2.061770E+05  1.722179E+04 -8.770263E+05 -8.165809E+04 -1.807705E+04
        64  20 -2.037858E+06 -1.087762E+05 -4.485013E+04 -8.222326E+05 -1.740264E+05 -5.167330E+04
        64  21 -2.155764E+06 -4.241595E+05 -2.854497E+05 -6.757677E+05 -2.628684E+05 -9.463117E+04
        64  22 -2.553077E+06 -3.577560E+05 -1.071018E+05 -9.771738E+05 -7.968851E+04 -1.733942E+04
        64  23 -2.498670E+06 -3.009916E+05 -1.728247E+05 -9.664698E+05 -1.751317E+05 -5.208326E+04
        64  24 -2.596267E+06 -6.578186E+05 -4.196250E+05 -8.640616E+05 -2.670499E+05 -9.617502E+04
        64  25 -3.034708E+06 -5.093372E+05 -2.314440E+05 -1.077259E+06 -7.772059E+04 -1.660218E+04
        64  26 -2.959275E+06 -4.931811E+05 -3.008190E+05 -1.110605E+06 -1.762360E+05 -5.249278E+04
        64  27 -3.036568E+06 -8.914020E+05 -5.538187E+05 -1.052215E+06 -2.712280E+05 -9.771646E+04
        65   1 -4.043045E+05 -5.898985E+04 -4.577338E+04 -1.838796E+03  3.582522E+04  3.004601E+03
        65   2 -3.947580E+05 -1.069544E+05 -7.237009E+04  2.399139E+03  2.465173E+04  8.681296E+03
        65   3 -3.683837E+05 -9.563328E+04 -7.676153E+04 -1.487191E+04  1.349120E+04  7.625542E+03
        65   4  7.729927E+03  4.387575E+04  5.665381E+04 -1.032552E+04  3.867015E+04  3.009993E+03
        65   5 -8.622223E+02 -8.817036E+03  2.436991E+04  4.754417E+02  2.538950E+04  8.682140E+03
        65   6  7.728581E+03 -1.878478E+03  1.574427E+04 -1.023162E+04  1.212218E+04  7.623478E+03
        65   7  4.199187E+05  1.467289E+05  1.590684E+05 -1.881796E+04  4.151696E+04  3.015305E+03
        65   8  3.931748E+05  8.930880E+04  1.210985E+05 -1.449541E+03  2.612773E+04  8.682978E+03
        65   9  3.839697E+05  9.186588E+04  1.082397E+05 -5.588563E+03  1.075234E+04  7.621394E+03
        65  10 -4.043059E+05 -5.899021E+04 -4.577581E+04 -1.838882E+03  7.958944E-11  7.801032E-10
        65  11 -3.947586E+05 -1.069546E+05 -7.237138E+04  2.398967E+03  9.311979E-10 -6.011032E-10
        65  12 -3.683839E+05 -9.563339E+04 -7.676199E+04 -1.487199E+04  1.207629E-09 -5.562607E-11
        65  13  7.728319E+03  4.387534E+04  5.665098E+04 -1.032561E+04  3.801859E-12  1.885658E-10
        65  14 -8.629348E+02 -8.817290E+03  2.436855E+04  4.752642E+02  3.563694E-11 -2.422640E-09
        65  15  7.728408E+03 -1.878580E+03  1.574388E+04 -1.023170E+04  1.292548E-10  6.857539E-11
        65  16  4.199168E+05  1.467284E+05  1.590651E+05 -1.881806E+04 -1.442449E-09 -3.317210E-10
        65  17  3.931741E+05  8.930853E+04  1.210971E+05 -1.449724E+03 -2.440168E-09 -6.094190E-10
        65  18  3.839696E+05  9.186579E+04  1.082393E+05 -5.588629E+03 -7.941135E-10 -4.381709E-10
        65  19 -4.043045E+05 -5.898985E+04 -4.577338E+04 -1.838796E+03 -3.582522E+04 -3.004601E+03
        65  20 -3.947580E+05 -1.069544E+05 -7.237009E+04  2.399139E+03 -2.465173E+04 -8.681296E+03
        65  21 -3.683837E+05 -9.563328E+04 -7.676153E+04 -1.487191E+04 -1.349120E+04 -7.625542E+03
        65  22  7.729927E+03  4.387575E+04  5.665381E+04 -1.032552E+04 -3.867015E+04 -3.009993E+03
        65  23 -8.622223E+02 -8.817036E+03  2.436991E+04  4.754417E+02 -2.538950E+04 -8.682140E+03
        65  24  7.728581E+03 -1.878478E+03  1.574427E+04 -1.023162E+04 -1.212218E+04 -7.623478E+03
        65  25  4.199187E+05  1.467289E+05  1.590684E+05 -1.881796E+04 -4.151696E+04 -3.015305E+03
        65  26  3.931748E+05  8.930880E+04  1.210985E+05 -1.449541E+03 -2.612773E+04 -8.682978E+03
        65  27  3.839697E+05  9.186588E+04  1.082397E+05 -5.588563E+03 -1.075234E+04 -7.621394E+03
        66   1 -3.256396E+05 -7.649641E+04 -6.833793E+04 -9.413348E+03  9.416876E+03  6.232147E+03
        66   2 -3.091283E+05 -7.902849E+04 -7.048139E+04  5.606060E+02  6.375322E+03  6.336365E+03
        66   3 -2.899109E+05 -7.364910E+04 -6.859851E+04 -1.095933E+04  3.334037E+03  5.653891E+03
        66   4  4.531126E+03  5.806521E+03  1.295613E+04 -1.026199E+04  9.576599E+03  6.232104E+03
        66   5  3.156954E+03 -1.200242E+03  6.318155E+03  4.879635E+02  6.288150E+03  6.336083E+03
        66   6  4.530512E+03 -2.547271E+02  3.876565E+03 -1.025528E+04  3.000060E+03  5.653537E+03
        66   7  3.348011E+05  8.810134E+04  9.424213E+04 -1.111111E+04  9.736406E+03  6.232060E+03
        66   8  3.155310E+05  7.662075E+04  8.311051E+04  4.152651E+02  6.200933E+03  6.335801E+03
        66   9  2.990508E+05  7.313320E+04  7.634524E+04 -9.550916E+03  2.665925E+03  5.653183E+03
        66  10 -3.256398E+05 -7.649647E+04 -6.833817E+04 -9.413395E+03 -9.448903E-10 -8.074110E-10
        66  11 -3.091284E+05 -7.902854E+04 -7.048154E+04  5.605735E+02  2.293004E-10  5.255517E-10
        66  12 -2.899109E+05 -7.364914E+04 -6.859859E+04 -1.095934E+04  2.847837E-10 -6.187488E-10
        66  13  4.531017E+03  5.806454E+03  1.295588E+04 -1.026204E+04 -5.381897E-10 -1.550298E-10
        66  14  3.156900E+03 -1.200295E+03  6.318006E+03  4.879314E+02  4.201772E-10 -1.925915E-10
        66  15  4.530494E+03 -2.547639E+02  3.876488E+03 -1.025530E+04  6.566303E-10 -4.190656E-10
        66  16  3.348010E+05  8.810127E+04  9.424188E+04 -1.111116E+04  5.920147E-10  5.738799E-10
        66  17  3.155310E+05  7.662070E+04  8.311036E+04  4.152334E+02  8.366831E-10 -1.267433E-09
        66  18  2.990508E+05  7.313316E+04  7.634517E+04 -9.550928E+03  4.984619E-10  1.104219E-10
        66  19 -3.256396E+05 -7.649641E+04 -6.833793E+04 -9.413348E+03 -9.416876E+03 -6.232147E+03
        66  20 -3.091283E+05 -7.902849E+04 -7.048139E+04  5.606060E+02 -6.375322E+03 -6.336365E+03
        66  21 -2.899109E+05 -7.364910E+04 -6.859851E+04 -1.095933E+04 -3.334037E+03 -5.653891E+03
        66  22  4.531126E+03  5.806521E+03  1.295613E+04 -1.026199E+04 -9.576599E+03 -6.232104E+03
        66  23  3.156954E+03 -1.200242E+03  6.318155E+03  4.879635E+02 -6.288150E+03 -6.336083E+03
        66  24  4.530512E+03 -2.547271E+02  3.876565E+03 -1.025528E+04 -3.000060E+03 -5.653537E+03
        66  25  3.348011E+05  8.810134E+04  9.424213E+04 -1.111111E+04 -9.736406E+03 -6.232060E+03
        66  26  3.155310E+05  7.662075E+04  8.311051E+04  4.152651E+02 -6.200933E+03 -6.335801E+03
        66  27  2.990508E+05  7.313320E+04  7.634524E+04 -9.550916E+03 -2.665925E+03 -5.653183E+03
        67   1 -2.444385E+05 -6.117545E+04 -5.801468E+04 -1.020614E+04  2.531612E+03  5.166055E+03
        67   2 -2.268611E+05 -5.764911E+04 -5.513146E+04  4.802478E+02  1.747763E+03  4.620151E+03
        67   3 -2.087530E+05 -5.307397E+04 -5.144159E+04 -1.032919E+04  9.634751E+02  3.982525E+03
        67   4  4.046730E+03  7.449735E+02  3.066436E+03 -1.025797E+04  2.376380E+03  5.165860E+03
        67   5  3.779068E+03 -1.689708E+02  1.597923E+03  4.898349E+02  1.563629E+03  4.620006E+03
        67   6  4.046296E+03 -2.934872E+01  9.558539E+02 -1.025768E+04  7.504620E+02  3.982448E+03
        67   7  2.525882E+05  6.266081E+04  6.414301E+04 -1.030983E+04  2.221086E+03  5.165665E+03
        67   8  2.344676E+05  5.730722E+04  5.832338E+04  4.994232E+02  1.379427E+03  4.619862E+03
        67   9  2.168868E+05  5.301191E+04  5.334995E+04 -1.018616E+04  5.373758E+02  3.982370E+03
        67  10 -2.444386E+05 -6.117548E+04 -5.801475E+04 -1.020615E+04  9.769452E-10 -5.499249E-11
        67  11 -2.268611E+05 -5.764914E+04 -5.513150E+04  4.802413E+02  3.709164E-11  5.791808E-11
        67  12 -2.087530E+05 -5.307399E+04 -5.144162E+04 -1.032919E+04  3.752648E-10 -2.749531E-11
        67  13  4.046717E+03  7.449434E+02  3.066375E+03 -1.025798E+04 -5.387602E-10 -1.566180E-10
        67  14  3.779060E+03 -1.689944E+02  1.597878E+03  4.898290E+02  1.319794E-09 -7.690752E-11
        67  15  4.046291E+03 -2.936590E+01  9.558231E+02 -1.025769E+04 -2.784284E-10  1.049874E-10
        67  16  2.525882E+05  6.266078E+04  6.414295E+04 -1.030984E+04  2.754553E-10 -5.478338E-11
        67  17  2.344676E+05  5.730719E+04  5.832334E+04  4.994180E+02 -2.091674E-09 -1.965972E-10
        67  18  2.168868E+05  5.301189E+04  5.334992E+04 -1.018616E+04  8.651395E-11  2.594887E-10
        67  19 -2.444385E+05 -6.117545E+04 -5.801468E+04 -1.020614E+04 -2.531612E+03 -5.166055E+03
        67  20 -2.268611E+05 -5.764911E+04 -5.513146E+04  4.802478E+02 -1.747763E+03 -4.620151E+03
        67  21 -2.087530E+05 -5.307397E+04 -5.144159E+04 -1.032919E+04 -9.634751E+02 -3.982525E+03
        67  22  4.046730E+03  7.449735E+02  3.066436E+03 -1.025797E+04 -2.376380E+03 -5.165860E+03
        67  23  3.779068E+03 -1.689708E+02  1.597923E+03  4.898349E+02 -1.563629E+03 -4.620006E+03
        67  24  4.046296E+03 -2.934872E+01  9.558539E+02 -1.025768E+04 -7.504620E+02 -3.982448E+03
        67  25  2.525882E+05  6.266081E+04  6.414301E+04 -1.030983E+04 -2.221086E+03 -5.165665E+03
        67  26  2.344676E+05  5.730722E+04  5.832338E+04  4.994232E+02 -1.379427E+03 -4.619862E+03
        67  27  2.168868E+05  5.301191E+04  5.334995E+04 -1.018616E+04 -5.373758E+02 -3.982370E+03
        68   1 -1.628956E+05 -4.148039E+04 -4.025241E+04 -1.022736E+04  7.894361E+02  3.600672E+03
        68   2 -1.451118E+05 -3.716065E+04 -3.626413E+04  5.181770E+02  5.976491E+02  2.978895E+03
        68   3 -1.272167E+05 -3.269561E+04 -3.210452E+04 -1.022217E+04  4.055699E+02  2.347146E+03
        68   4  3.957778E+03  9.070988E+01  7.335410E+02 -1.025558E+04  5.971321E+02  3.600639E+03
        68   5  3.901880E+03 -2.505054E+01  3.873615E+02  4.871955E+02  4.021844E+02  2.978906E+03
        68   6  3.957498E+03  5.052087E+00  2.146855E+02 -1.025560E+04  2.069499E+02  2.347202E+03
        68   7  1.708365E+05  4.165974E+04  4.171745E+04 -1.028381E+04  4.047764E+02  3.600606E+03
        68   8  1.529358E+05  3.710890E+04  3.703721E+04  4.562081E+02  2.066728E+02  2.978916E+03
        68   9  1.351474E+05  3.270443E+04  3.253262E+04 -1.028903E+04  8.288038E+00  2.347258E+03
        68  10 -1.628956E+05 -4.148040E+04 -4.025244E+04 -1.022737E+04  9.829463E-11  3.939642E-11
        68  11 -1.451118E+05 -3.716066E+04 -3.626414E+04  5.181755E+02  6.536961E-10  3.141427E-10
        68  12 -1.272167E+05 -3.269562E+04 -3.210453E+04 -1.022217E+04  1.076968E-09 -2.100550E-11
        68  13  3.957774E+03  9.069586E+01  7.335160E+02 -1.025559E+04 -1.349999E-12  2.383266E-10
        68  14  3.901878E+03 -2.506011E+01  3.873445E+02  4.871946E+02  8.452226E-10 -2.990554E-10
        68  15  3.957497E+03  5.046159E+00  2.146751E+02 -1.025560E+04 -3.171383E-10 -3.417764E-10
        68  16  1.708365E+05  4.165973E+04  4.171742E+04 -1.028381E+04 -5.575428E-10  8.983598E-11
        68  17  1.529358E+05  3.710889E+04  3.703720E+04  4.562076E+02  3.609170E-10 -5.627095E-11
        68  18  1.351474E+05  3.270443E+04  3.253261E+04 -1.028903E+04  3.200912E-10 -2.298940E-10
        68  19 -1.628956E+05 -4.148039E+04 -4.025241E+04 -1.022736E+04 -7.894361E+02 -3.600672E+03
        68  20 -1.451118E+05 -3.716065E+04 -3.626413E+04  5.181770E+02 -5.976491E+02 -2.978895E+03
        68  21 -1.272167E+05 -3.269561E+04 -3.210452E+04 -1.022217E+04 -4.055699E+02 -2.347146E+03
        68  22  3.957778E+03  9.070988E+01  7.335410E+02 -1.025558E+04 -5.971321E+02 -3.600639E+03
        68  23  3.901880E+03 -2.505054E+01  3.873615E+02  4.871955E+02 -4.021844E+02 -2.978906E+03
        68  24  3.957498E+03  5.052087E+00  2.146855E+02 -1.025560E+04 -2.069499E+02 -2.347202E+03
        68  25  1.708365E+05  4.165974E+04  4.171745E+04 -1.028381E+04 -4.047764E+02 -3.600606E+03
        68  26  1.529358E+05  3.710890E+04  3.703721E+04  4.562081E+02 -2.066728E+02 -2.978916E+03
        68  27  1.351474E+05  3.270443E+04  3.253262E+04 -1.028903E+04 -8.288038E+00 -2.347258E+03
        69   1 -8.130610E+04 -2.121367E+04 -2.076129E+04 -1.022502E+04  3.709886E+02  1.977065E+03
        69   2 -6.346356E+04 -1.679691E+04 -1.653305E+04  5.126740E+02  3.473630E+02  1.346250E+03
        69   3 -4.563012E+04 -1.236329E+04 -1.228876E+04 -1.023009E+04  3.236107E+02  7.196364E+02
        69   4  3.933810E+03  1.699844E+01  1.480663E+02 -1.025442E+04  1.735464E+02  1.977146E+03
        69   5  3.938423E+03 -4.837871E-01  4.456199E+01  4.857334E+02  1.512269E+02  1.346350E+03
        69   6  3.933684E+03 -1.241708E+00 -4.370366E+01 -1.025443E+04  1.287813E+02  7.197559E+02
        69   7  8.918034E+04  2.124713E+04  2.105689E+04 -1.028382E+04 -2.392291E+01  1.977228E+03
        69   8  7.134454E+04  1.679561E+04  1.662184E+04  4.587905E+02 -4.493056E+01  1.346450E+03
        69   9  5.349972E+04  1.236062E+04  1.220117E+04 -1.027876E+04 -6.606375E+01  7.198755E+02
        69  10 -8.130610E+04 -2.121368E+04 -2.076130E+04 -1.022502E+04 -2.890269E-10 -1.046414E-10
        69  11 -6.346357E+04 -1.679691E+04 -1.653306E+04  5.126736E+02  4.225035E-10  1.545357E-10
        69  12 -4.563013E+04 -1.236329E+04 -1.228876E+04 -1.023009E+04 -4.439575E-10 -2.702023E-10
        69  13  3.933809E+03  1.699423E+01  1.480589E+02 -1.025442E+04  5.373040E-10  5.481997E-10
        69  14  3.938422E+03 -4.857397E-01  4.455854E+01  4.857333E+02 -1.971028E-10  7.903367E-10
        69  15  3.933683E+03 -1.242269E+00 -4.370466E+01 -1.025443E+04  4.754221E-10 -9.643487E-10
        69  16  8.918034E+04  2.124713E+04  2.105688E+04 -1.028382E+04 -4.431573E-10  1.330324E-10
        69  17  7.134454E+04  1.679560E+04  1.662184E+04  4.587906E+02 -2.763670E-10  5.411626E-10
        69  18  5.349972E+04  1.236062E+04  1.220117E+04 -1.027876E+04  4.308976E-11  2.230336E-11
        69  19 -8.130610E+04 -2.121367E+04 -2.076129E+04 -1.022502E+04 -3.709886E+02 -1.977065E+03
        69  20 -6.346356E+04 -1.679691E+04 -1.653305E+04  5.126740E+02 -3.473630E+02 -1.346250E+03
        69  21 -4.563012E+04 -1.236329E+04 -1.228876E+04 -1.023009E+04 -3.236107E+02 -7.196364E+02
        69  22  3.933810E+03  1.699844E+01  1.480663E+02 -1.025442E+04 -1.735464E+02 -1.977146E+03
        69  23  3.938423E+03 -4.837871E-01  4.456199E+01  4.857334E+02 -1.512269E+02 -1.346350E+03
        69  24  3.933684E+03 -1.241708E+00 -4.370366E+01 -1.025443E+04 -1.287813E+02 -7.197559E+02
        69  25  8.918034E+04  2.124713E+04  2.105689E+04 -1.028382E+04  2.392291E+01 -1.977228E+03
        69  26  7.134454E+04  1.679561E+04  1.662184E+04  4.587905E+02  4.493056E+01 -1.346450E+03
        69  27  5.349972E+04  1.236062E+04  1.220117E+04 -1.027876E+04  6.606375E+01 -7.198755E+02
        70   1  2.882904E+02 -8.764687E+02 -9.260798E+02 -1.026498E+04  3.453149E+02  3.448589E+02
        70   2  1.816373E+04  3.561568E+03  3.293751E+03  4.821186E+02  4.318814E+02 -2.893789E+02
        70   3  3.596519E+04  7.877314E+03  7.419838E+03 -1.025024E+04  5.185065E+02 -8.775046E+02
        70   4  3.919420E+03  1.727403E+01 -8.839802E+01 -1.025422E+04  1.402544E+02  3.449914E+02
        70   5  3.957956E+03  2.191498E+01 -1.989228E+02  4.854940E+02  2.412014E+02 -2.892602E+02
        70   6  3.919447E+03 -9.827945E+01 -4.132282E+02 -1.025429E+04  3.422047E+02 -8.773983E+02
        70   7  7.550562E+03  9.110158E+02  7.492831E+02 -1.024345E+04 -6.480722E+01  3.451240E+02
        70   8 -1.024764E+04 -3.517753E+03 -3.691611E+03  4.888693E+02  5.052577E+01 -2.891416E+02
        70   9 -2.812536E+04 -8.073949E+03 -8.246370E+03 -1.025834E+04  1.659121E+02 -8.772920E+02
        70  10  2.882902E+02 -8.764688E+02 -9.260803E+02 -1.026499E+04  1.024670E-10  3.982006E-10
        70  11  1.816373E+04  3.561568E+03  3.293750E+03  4.821187E+02 -1.086211E-09 -1.275507E-10
        70  12  3.596519E+04  7.877313E+03  7.419836E+03 -1.025024E+04 -1.183087E-09  1.671248E-10
        70  13  3.919420E+03  1.727390E+01 -8.839828E+01 -1.025422E+04  1.094817E-12 -7.295686E-10
        70  14  3.957956E+03  2.191488E+01 -1.989231E+02  4.854940E+02  1.430275E-09 -1.102998E-09
        70  15  3.919447E+03 -9.828030E+01 -4.132299E+02 -1.025429E+04 -1.943401E-10  3.815191E-10
        70  16  7.550562E+03  9.110157E+02  7.492828E+02 -1.024345E+04  7.862460E-10  3.814311E-10
        70  17 -1.024764E+04 -3.517754E+03 -3.691611E+03  4.888693E+02  1.114675E-09 -1.270272E-09
        70  18 -2.812536E+04 -8.073949E+03 -8.246371E+03 -1.025834E+04  4.612754E-10  1.101033E-11
        70  19  2.882904E+02 -8.764687E+02 -9.260798E+02 -1.026498E+04 -3.453149E+02 -3.448589E+02
        70  20  1.816373E+04  3.561568E+03  3.293751E+03  4.821186E+02 -4.318814E+02  2.893789E+02
        70  21  3.596519E+04  7.877314E+03  7.419838E+03 -1.025024E+04 -5.185065E+02  8.775046E+02
        70  22  3.919420E+03  1.727403E+01 -8.839802E+01 -1.025422E+04 -1.402544E+02 -3.449914E+02
        70  23  3.957956E+03  2.191498E+01 -1.989228E+02  4.854940E+02 -2.412014E+02  2.892602E+02
        70  24  3.919447E+03 -9.827945E+01 -4.132282E+02 -1.025429E+04 -3.422047E+02  8.773983E+02
        70  25  7.550562E+03  9.110158E+02  7.492831E+02 -1.024345E+04  6.480722E+01 -3.451240E+02
        70  26 -1.024764E+04 -3.517753E+03 -3.691611E+03  4.888693E+02 -5.052577E+01  2.891416E+02
        70  27 -2.812536E+04 -8.073949E+03 -8.246370E+03 -1.025834E+04 -1.659121E+02  8.772920E+02
        71   1  8.184378E+04  1.948834E+04  1.870327E+04 -1.037098E+04  6.919370E+02 -1.304952E+03
        71   2  9.984403E+04  2.403544E+04  2.267536E+04  4.889983E+02  1.024997E+03 -1.960029E+03
        71   3  1.175342E+05  2.751075E+04  2.616267E+04 -1.012732E+04  1.358405E+03 -2.219481E+03
        71   4  3.861210E+03  4.655142E+01 -5.264155E+02 -1.025345E+04  4.258246E+02 -1.304806E+03
        71   5  4.027230E+03  1.623663E+02 -8.793182E+02  4.846243E+02  8.822700E+02 -1.959978E+03
        71   6  3.861393E+03 -8.151010E+02 -1.802733E+03 -1.025381E+04  1.339054E+03 -2.219499E+03
        71   7 -7.411583E+04 -1.939569E+04 -1.975655E+04 -1.013593E+04  1.597455E+02 -1.304660E+03
        71   8 -9.178122E+04 -2.371139E+04 -2.443468E+04  4.802521E+02  7.395654E+02 -1.959928E+03
        71   9 -1.097997E+05 -2.914191E+04 -2.976909E+04 -1.038028E+04  1.319708E+03 -2.219518E+03
        71  10  8.184378E+04  1.948834E+04  1.870327E+04 -1.037098E+04 -1.949622E-10 -6.826414E-10
        71  11  9.984403E+04  2.403544E+04  2.267535E+04  4.889999E+02 -1.064511E-09  7.948990E-11
        71  12  1.175342E+05  2.751075E+04  2.616266E+04 -1.012731E+04  1.506928E-10  9.391029E-11
        71  13  3.861210E+03  4.654954E+01 -5.264190E+02 -1.025345E+04  5.388419E-10  2.784981E-10
        71  14  4.027228E+03  1.623620E+02 -8.793269E+02  4.846257E+02  6.467863E-11 -6.388343E-11
        71  15  3.861390E+03 -8.151068E+02 -1.802746E+03 -1.025380E+04  1.044906E-09  2.201300E-10
        71  16 -7.411583E+04 -1.939569E+04 -1.975656E+04 -1.013593E+04  2.723186E-10  6.141627E-10
        71  17 -9.178122E+04 -2.371139E+04 -2.443468E+04  4.802533E+02  1.295474E-09  4.297262E-10
        71  18 -1.097997E+05 -2.914192E+04 -2.976910E+04 -1.038027E+04  3.682422E-11 -2.466121E-12
        71  19  8.184378E+04  1.948834E+04  1.870327E+04 -1.037098E+04 -6.919370E+02  1.304952E+03
        71  20  9.984403E+04  2.403544E+04  2.267536E+04  4.889983E+02 -1.024997E+03  1.960029E+03
        71  21  1.175342E+05  2.751075E+04  2.616267E+04 -1.012732E+04 -1.358405E+03  2.219481E+03
        71  22  3.861210E+03  4.655142E+01 -5.264155E+02 -1.025345E+04 -4.258246E+02  1.304806E+03
        71  23  4.027230E+03  1.623663E+02 -8.793182E+02  4.846243E+02 -8.822700E+02  1.959978E+03
        71  24  3.861393E+03 -8.151010E+02 -1.802733E+03 -1.025381E+04 -1.339054E+03  2.219499E+03
        71  25 -7.411583E+04 -1.939569E+04 -1.975655E+04 -1.013593E+04 -1.597455E+02  1.304660E+03
        71  26 -9.178122E+04 -2.371139E+04 -2.443468E+04  4.802521E+02 -7.395654E+02  1.959928E+03
        71  27 -1.097997E+05 -2.914191E+04 -2.976909E+04 -1.038028E+04 -1.319708E+03  2.219518E+03
        72   1  1.630562E+05  4.003982E+04  3.708551E+04 -1.087908E+04  2.479057E+03 -3.098387E+03
        72   2  1.819590E+05  4.540166E+04  4.013868E+04  7.949721E+02  3.277312E+03 -3.929716E+03
        72   3  1.988164E+05  4.265872E+04  4.066313E+04 -8.965511E+03  4.075860E+03 -1.377791E+03
        72   4  3.435727E+03  2.640455E+02 -2.186554E+03 -1.024419E+04  1.691478E+03 -3.098179E+03
        72   5  4.550571E+03  1.214296E+03 -3.410369E+03  4.732376E+02  3.545123E+03 -3.929829E+03
        72   6  3.436081E+03 -6.124624E+03 -7.896275E+03 -1.024425E+04  5.399019E+03 -1.377803E+03
        72   7 -1.561616E+05 -3.951362E+04 -4.146049E+04 -9.609472E+03  9.041021E+02 -3.097973E+03
        72   8 -1.728292E+05 -4.297541E+04 -4.696173E+04  1.515963E+02  3.812858E+03 -3.929942E+03
        72   9 -1.919096E+05 -5.491083E+04 -5.645853E+04 -1.152259E+04  6.721761E+03 -1.377821E+03
        72  10  1.630562E+05  4.003981E+04  3.708548E+04 -1.087907E+04 -4.840453E-10 -6.592649E-11
        72  11  1.819590E+05  4.540164E+04  4.013863E+04  7.949825E+02  1.537290E-11 -1.961517E-10
        72  12  1.988164E+05  4.265872E+04  4.066310E+04 -8.965506E+03 -2.006188E-10 -6.496176E-11
        72  13  3.435721E+03  2.640345E+02 -2.186578E+03 -1.024419E+04 -5.427610E-10  5.881983E-10
        72  14  4.550553E+03  1.214276E+03 -3.410421E+03  4.732489E+02 -2.511512E-10 -1.545178E-10
        72  15  3.436049E+03 -6.124634E+03 -7.896334E+03 -1.024425E+04 -1.184514E-10 -6.811750E-11
        72  16 -1.561616E+05 -3.951363E+04 -4.146051E+04 -9.609470E+03 -4.521868E-11  5.576438E-11
        72  17 -1.728292E+05 -4.297543E+04 -4.696178E+04  1.516083E+02 -3.706448E-10  2.541826E-12
        72  18 -1.919097E+05 -5.491084E+04 -5.645862E+04 -1.152259E+04 -5.275806E-10 -2.097969E-11
        72  19  1.630562E+05  4.003982E+04  3.708551E+04 -1.087908E+04 -2.479057E+03  3.098387E+03
        72  20  1.819590E+05  4.540166E+04  4.013868E+04  7.949721E+02 -3.277312E+03  3.929716E+03
        72  21  1.988164E+05  4.265872E+04  4.066313E+04 -8.965511E+03 -4.075860E+03  1.377791E+03
        72  22  3.435727E+03  2.640455E+02 -2.186554E+03 -1.024419E+04 -1.691478E+03  3.098179E+03
        72  23  4.550571E+03  1.214296E+03 -3.410369E+03  4.732376E+02 -3.545123E+03  3.929829E+03
        72  24  3.436081E+03 -6.124624E+03 -7.896275E+03 -1.024425E+04 -5.399019E+03  1.377803E+03
        72  25 -1.561616E+05 -3.951362E+04 -4.146049E+04 -9.609472E+03 -9.041021E+02  3.097973E+03
        72  26 -1.728292E+05 -4.297541E+04 -4.696173E+04  1.515963E+02 -3.812858E+03  3.929942E+03
        72  27 -1.919096E+05 -5.491083E+04 -5.645853E+04 -1.152259E+04 -6.721761E+03  1.377821E+03
        73   1  4.297149E+05  1.478990E+06  4.163833E+05 -3.711573E+05  1.891873E+04  9.345991E+04
        73   2  3.054475E+05  1.061287E+06  2.711028E+05 -3.113429E+05  5.666965E+04  2.532555E+04
        73   3  2.037167E+05  6.577843E+05  1.756957E+05 -3.591802E+05  5.044408E+04 -4.286811E+04
        73   4  1.723952E+04 -1.860914E+05  1.811666E+04 -3.581239E+05  1.917199E+04  9.004914E+03
        73   5  3.828642E+03 -1.875533E+05  1.137217E+04 -3.043167E+05  5.674844E+04  3.285576E+03
        73   6  2.166639E+03 -1.857666E+05  1.123533E+04 -3.581699E+05  5.030938E+04 -2.538540E+03
        73   7 -3.954324E+05 -1.848620E+06 -3.803189E+05 -3.451230E+05  1.942210E+04 -7.522498E+04
        73   8 -2.978891E+05 -1.434917E+06 -2.484423E+05 -2.973034E+05  5.682682E+04 -1.871087E+04
        73   9 -1.994253E+05 -1.028632E+06 -1.532529E+05 -3.571602E+05  5.017470E+04  3.773748E+04
        73  10  4.297122E+05  1.478980E+06  4.163662E+05 -3.711587E+05  1.193199E-10  9.811492E-09
        73  11  3.054439E+05  1.061285E+06  2.710956E+05 -3.113440E+05  2.458520E-09 -7.024098E-09
        73  12  2.037135E+05  6.577817E+05  1.756875E+05 -3.591785E+05  5.287421E-09 -1.668828E-08
        73  13  1.723911E+04 -1.860916E+05  1.811582E+04 -3.581240E+05  6.762516E-10  3.065559E-12
        73  14  3.825181E+03 -1.875542E+05  1.136610E+04 -3.043168E+05 -2.859860E-09  1.273771E-09
        73  15  2.163920E+03 -1.857673E+05  1.123056E+04 -3.581698E+05 -4.733847E-09 -1.636940E-10
        73  16 -3.954343E+05 -1.848626E+06 -3.803302E+05 -3.451218E+05  1.001795E-09 -1.039877E-08
        73  17 -2.978927E+05 -1.434918E+06 -2.484490E+05 -2.973025E+05  5.944608E-09  5.203687E-09
        73  18 -1.994284E+05 -1.028634E+06 -1.532603E+05 -3.571617E+05  2.374064E-09  1.543417E-08
        73  19  4.297149E+05  1.478990E+06  4.163833E+05 -3.711573E+05 -1.891873E+04 -9.345991E+04
        73  20  3.054475E+05  1.061287E+06  2.711028E+05 -3.113429E+05 -5.666965E+04 -2.532555E+04
        73  21  2.037167E+05  6.577843E+05  1.756957E+05 -3.591802E+05 -5.044408E+04  4.286811E+04
        73  22  1.723952E+04 -1.860914E+05  1.811666E+04 -3.581239E+05 -1.917199E+04 -9.004914E+03
        73  23  3.828642E+03 -1.875533E+05  1.137217E+04 -3.043167E+05 -5.674844E+04 -3.285576E+03
        73  24  2.166639E+03 -1.857666E+05  1.123533E+04 -3.581699E+05 -5.030938E+04  2.538540E+03
        73  25 -3.954324E+05 -1.848620E+06 -3.803189E+05 -3.451230E+05 -1.942210E+04  7.522498E+04
        73  26 -2.978891E+05 -1.434917E+06 -2.484423E+05 -2.973034E+05 -5.682682E+04  1.871087E+04
        73  27 -1.994253E+05 -1.028632E+06 -1.532529E+05 -3.571602E+05 -5.017470E+04 -3.773748E+04
        74   1  1.371252E+05  3.764493E+05  1.222949E+05 -3.613608E+05  3.359197E+04 -3.726680E+04
        74   2  3.862328E+04 -3.461639E+04  4.680596E+04 -3.037785E+05  1.029775E+04 -4.708354E+04
        74   3 -5.475100E+04 -4.437525E+05 -2.122527E+04 -3.563383E+05 -1.351358E+04 -5.689898E+04
        74   4  2.672515E+03 -1.860463E+05  1.253007E+04 -3.587163E+05  3.347771E+04 -4.588951E+03
        74   5  2.430139E+03 -1.868442E+05  1.808046E+04 -3.036372E+05  1.017910E+04 -1.368163E+04
        74   6  7.197388E+03 -1.860046E+05  3.058451E+04 -3.587004E+05 -1.363705E+04 -2.277917E+04
        74   7 -1.317986E+05 -7.482361E+05 -9.724588E+04 -3.560739E+05  3.336367E+04  2.805996E+04
        74   8 -3.376376E+04 -3.390472E+05 -1.064187E+04 -3.034959E+05  1.006046E+04  1.971229E+04
        74   9  6.914232E+04  7.180931E+04  8.239529E+04 -3.610633E+05 -1.376074E+04  1.135455E+04
        74  10  1.371236E+05  3.764475E+05  1.222902E+05 -3.613598E+05  3.526089E-09  1.309439E-08
        74  11  3.862257E+04 -3.461880E+04  4.680160E+04 -3.037781E+05  2.777077E-09 -3.720202E-09
        74  12 -5.475207E+04 -4.437561E+05 -2.123171E+04 -3.563389E+05  1.228550E-09 -1.057488E-08
        74  13  2.671306E+03 -1.860466E+05  1.252793E+04 -3.587162E+05 -5.134862E-09  4.202429E-12
        74  14  2.429978E+03 -1.868444E+05  1.807992E+04 -3.036371E+05 -7.593333E-09  1.431920E-09
        74  15  7.197048E+03 -1.860052E+05  3.058319E+04 -3.587006E+05 -1.213403E-09 -3.035978E-10
        74  16 -1.318000E+05 -7.482373E+05 -9.724946E+04 -3.560747E+05  1.882796E-09 -1.408981E-08
        74  17 -3.376397E+04 -3.390476E+05 -1.064279E+04 -3.034960E+05 -6.805530E-10  7.222175E-10
        74  18  6.914208E+04  7.180912E+04  8.239469E+04 -3.610632E+05  6.339381E-10  9.163112E-09
        74  19  1.371252E+05  3.764493E+05  1.222949E+05 -3.613608E+05 -3.359197E+04  3.726680E+04
        74  20  3.862328E+04 -3.461639E+04  4.680596E+04 -3.037785E+05 -1.029775E+04  4.708354E+04
        74  21 -5.475100E+04 -4.437525E+05 -2.122527E+04 -3.563383E+05  1.351358E+04  5.689898E+04
        74  22  2.672515E+03 -1.860463E+05  1.253007E+04 -3.587163E+05 -3.347771E+04  4.588951E+03
        74  23  2.430139E+03 -1.868442E+05  1.808046E+04 -3.036372E+05 -1.017910E+04  1.368163E+04
        74  24  7.197388E+03 -1.860046E+05  3.058451E+04 -3.587004E+05  1.363705E+04  2.277917E+04
        74  25 -1.317986E+05 -7.482361E+05 -9.724588E+04 -3.560739E+05 -3.336367E+04 -2.805996E+04
        74  26 -3.376376E+04 -3.390472E+05 -1.064187E+04 -3.034959E+05 -1.006046E+04 -1.971229E+04
        74  27  6.914232E+04  7.180931E+04  8.239529E+04 -3.610633E+05  1.376074E+04 -1.135455E+04
        75   1 -1.270120E+05 -7.188776E+05 -6.729000E+04 -3.688182E+05 -3.034286E+04 -6.835129E+04
        75   2 -2.076482E+05 -1.137385E+06 -1.294218E+05 -2.704550E+05 -4.063420E+04 -5.258324E+04
        75   3 -2.085905E+05 -1.538413E+06 -1.820471E+05 -2.801360E+05 -1.440016E+04 -3.672819E+04
        75   4  1.895133E+03 -1.805830E+05  3.912923E+04 -3.582963E+05 -3.048643E+04 -2.807981E+04
        75   5  2.116557E+04 -1.938188E+05  6.907739E+04 -3.040920E+05 -4.058869E+04 -6.400265E+04
        75   6  1.290372E+05 -1.808164E+05  1.444140E+05 -3.578940E+05 -1.419312E+04 -9.982929E+04
        75   7  1.307860E+05  3.579929E+05  1.455404E+05 -3.477647E+05 -3.062856E+04  1.222590E+04
        75   8  2.499260E+05  7.505924E+05  2.675277E+05 -3.377802E+05 -4.054199E+04 -7.543910E+04
        75   9  4.665545E+05  1.178491E+06  4.707618E+05 -4.358213E+05 -1.397051E+04 -1.630679E+05
        75  10 -1.270143E+05 -7.188828E+05 -6.730053E+04 -3.688199E+05  1.784882E-09 -2.064872E-09
        75  11 -2.076507E+05 -1.137389E+06 -1.294302E+05 -2.704567E+05  1.421080E-09 -5.724606E-09
        75  12 -2.085910E+05 -1.538415E+06 -1.820500E+05 -2.801365E+05 -1.767948E-10 -1.651740E-09
        75  13  1.893923E+03 -1.805841E+05  3.912600E+04 -3.582970E+05  1.521961E-09  4.209688E-11
        75  14  2.116270E+04 -1.938236E+05  6.906658E+04 -3.040941E+05 -2.740199E-09  1.494624E-09
        75  15  1.290343E+05 -1.808272E+05  1.443949E+05 -3.578952E+05 -3.505950E-11 -3.649720E-11
        75  16  1.307850E+05  3.579925E+05  1.455384E+05 -3.477644E+05 -7.028362E-10  1.444180E-09
        75  17  2.499227E+05  7.505858E+05  2.675139E+05 -3.377826E+05  1.296558E-09  3.494792E-09
        75  18  4.665472E+05  1.178463E+06  4.707115E+05 -4.358232E+05  5.592370E-10  5.762672E-10
        75  19 -1.270120E+05 -7.188776E+05 -6.729000E+04 -3.688182E+05  3.034286E+04  6.835129E+04
        75  20 -2.076482E+05 -1.137385E+06 -1.294218E+05 -2.704550E+05  4.063420E+04  5.258324E+04
        75  21 -2.085905E+05 -1.538413E+06 -1.820471E+05 -2.801360E+05  1.440016E+04  3.672819E+04
        75  22  1.895133E+03 -1.805830E+05  3.912923E+04 -3.582963E+05  3.048643E+04  2.807981E+04
        75  23  2.116557E+04 -1.938188E+05  6.907739E+04 -3.040920E+05  4.058869E+04  6.400265E+04
        75  24  1.290372E+05 -1.808164E+05  1.444140E+05 -3.578940E+05  1.419312E+04  9.982929E+04
        75  25  1.307860E+05  3.579929E+05  1.455404E+05 -3.477647E+05  3.062856E+04 -1.222590E+04
        75  26  2.499260E+05  7.505924E+05  2.675277E+05 -3.377802E+05  4.054199E+04  7.543910E+04
        75  27  4.665545E+05  1.178491E+06  4.707618E+05 -4.358213E+05  1.397051E+04  1.630679E+05
        76   1 -1.512981E+06 -5.929380E+05 -3.516476E+05 -5.034814E+05 -7.989333E+04 -3.686906E+03
        76   2 -1.412374E+06 -5.684962E+05 -2.919220E+05 -4.656566E+05 -5.452317E+04  6.620209E+04
        76   3 -1.291969E+06 -5.504578E+05 -2.618777E+05 -4.564771E+05 -1.345275E+04  9.454487E+04
        76   4  4.508653E+03 -4.019030E+04  4.083698E+04 -1.065192E+05  1.750076E+04  3.305587E+04
        76   5 -1.306388E+04 -5.839859E+04  1.842559E+04 -8.616234E+04 -1.208879E+04  8.217809E+04
        76   6  5.154978E+01 -7.212716E+04  9.958387E+03 -9.444963E+04 -2.600525E+04  8.980027E+04
        76   7  1.524217E+06  5.126604E+05  4.331620E+05  2.913005E+05  1.151544E+05  6.988921E+04
        76   8  1.388218E+06  4.518365E+05  3.286569E+05  2.941097E+05  3.044906E+04  9.819182E+04
        76   9  1.293796E+06  4.063553E+05  2.817076E+05  2.682795E+05 -3.858613E+04  8.504484E+04
        76  10 -1.512988E+06 -5.929397E+05 -3.516596E+05 -5.034816E+05  2.857507E-10 -1.982442E-11
        76  11 -1.412378E+06 -5.685017E+05 -2.919358E+05 -4.656537E+05  1.771646E-09 -1.014910E-09
        76  12 -1.291972E+06 -5.504675E+05 -2.618949E+05 -4.564761E+05  6.833991E-10 -7.005841E-10
        76  13  4.508031E+03 -4.019156E+04  4.083435E+04 -1.065197E+05  7.645875E-10  2.093661E-09
        76  14 -1.306585E+04 -5.840588E+04  1.841262E+04 -8.616154E+04  9.558868E-10  6.871123E-10
        76  15  4.865905E+01 -7.213600E+04  9.941962E+03 -9.444775E+04  1.031388E-09 -2.665819E-10
        76  16  1.524202E+06  5.126516E+05  4.331279E+05  2.912940E+05 -1.670045E-09  2.550568E-10
        76  17  1.388214E+06  4.518259E+05  3.286370E+05  2.941073E+05  9.122152E-10  7.477392E-11
        76  18  1.293792E+06  4.063471E+05  2.816912E+05  2.682821E+05  5.326668E-10  7.743243E-10
        76  19 -1.512981E+06 -5.929380E+05 -3.516476E+05 -5.034814E+05  7.989333E+04  3.686906E+03
        76  20 -1.412374E+06 -5.684962E+05 -2.919220E+05 -4.656566E+05  5.452317E+04 -6.620209E+04
        76  21 -1.291969E+06 -5.504578E+05 -2.618777E+05 -4.564771E+05  1.345275E+04 -9.454487E+04
        76  22  4.508653E+03 -4.019030E+04  4.083698E+04 -1.065192E+05 -1.750076E+04 -3.305587E+04
        76  23 -1.306388E+04 -5.839859E+04  1.842559E+04 -8.616234E+04  1.208879E+04 -8.217809E+04
        76  24  5.154978E+01 -7.212716E+04  9.958387E+03 -9.444963E+04  2.600525E+04 -8.980027E+04
        76  25  1.524217E+06  5.126604E+05  4.331620E+05  2.913005E+05 -1.151544E+05 -6.988921E+04
        76  26  1.388218E+06  4.518365E+05  3.286569E+05  2.941097E+05 -3.044906E+04 -9.819182E+04
        76  27  1.293796E+06  4.063553E+05  2.817076E+05  2.682795E+05  3.858613E+04 -8.504484E+04
        77   1 -1.222141E+06 -5.194363E+05 -2.489665E+05 -4.343518E+05 -2.164907E+04  8.552209E+04
        77   2 -1.129274E+06 -4.710240E+05 -2.277606E+05 -3.931794E+05 -1.876283E+04  8.206039E+04
        77   3 -1.014520E+06 -4.437623E+05 -2.073842E+05 -3.768038E+05 -1.492071E+04  7.603650E+04
        77   4 -7.726400E+02 -7.104112E+04  7.640909E+03 -9.607546E+04 -2.521278E+04  8.416423E+04
        77   5 -1.207856E+04 -6.131904E+04  4.001276E+03 -8.346538E+04 -2.571888E+04  7.943041E+04
        77   6 -8.391143E+02 -7.207359E+04  2.220527E+03 -9.565266E+04 -2.527026E+04  7.213683E+04
        77   7  1.222121E+06  3.774777E+05  2.641667E+05  2.428142E+05 -2.878409E+04  8.280355E+04
        77   8  1.106392E+06  3.484892E+05  2.356959E+05  2.267617E+05 -3.268842E+04  7.679537E+04
        77   9  1.013888E+06  2.996991E+05  2.117694E+05  1.859201E+05 -3.563796E+04  6.823035E+04
        77  10 -1.222144E+06 -5.194443E+05 -2.489812E+05 -4.343503E+05  9.260665E-10  5.625635E-10
        77  11 -1.129276E+06 -4.710313E+05 -2.277739E+05 -3.931781E+05  2.934139E-09  5.046451E-10
        77  12 -1.014522E+06 -4.437686E+05 -2.073955E+05 -3.768029E+05  6.422996E-10  2.774560E-10
        77  13 -7.752239E+02 -7.104890E+04  7.626403E+03 -9.607375E+04  1.177601E-09 -8.875116E-10
        77  14 -1.208097E+04 -6.132600E+04  3.988177E+03 -8.346373E+04  1.154503E-09 -1.296763E-09
        77  15 -8.411967E+02 -7.207935E+04  2.209548E+03 -9.565120E+04 -7.440305E-11 -8.499532E-11
        77  16  1.222118E+06  3.774701E+05  2.641522E+05  2.428162E+05  2.913200E-10  5.166596E-10
        77  17  1.106389E+06  3.484826E+05  2.356828E+05  2.267637E+05 -1.310486E-09  1.682556E-10
        77  18  1.013885E+06  2.996937E+05  2.117583E+05  1.859221E+05 -1.132378E-09  9.119856E-11
        77  19 -1.222141E+06 -5.194363E+05 -2.489665E+05 -4.343518E+05  2.164907E+04 -8.552209E+04
        77  20 -1.129274E+06 -4.710240E+05 -2.277606E+05 -3.931794E+05  1.876283E+04 -8.206039E+04
        77  21 -1.014520E+06 -4.437623E+05 -2.073842E+05 -3.768038E+05  1.492071E+04 -7.603650E+04
        77  22 -7.726400E+02 -7.104112E+04  7.640909E+03 -9.607546E+04  2.521278E+04 -8.416423E+04
        77  23 -1.207856E+04 -6.131904E+04  4.001276E+03 -8.346538E+04  2.571888E+04 -7.943041E+04
        77  24 -8.391143E+02 -7.207359E+04  2.220527E+03 -9.565266E+04  2.527026E+04 -7.213683E+04
        77  25  1.222121E+06  3.774777E+05  2.641667E+05  2.428142E+05  2.878409E+04 -8.280355E+04
        77  26  1.106392E+06  3.484892E+05  2.356959E+05  2.267617E+05  3.268842E+04 -7.679537E+04
        77  27  1.013888E+06  2.996991E+05  2.117694E+05  1.859201E+05  3.563796E+04 -6.823035E+04
        78   1 -9.426198E+05 -4.169671E+05 -1.924646E+05 -3.567415E+05 -1.407807E+04  7.118035E+04
        78   2 -8.498272E+05 -3.679528E+05 -1.719107E+05 -3.154618E+05 -1.149426E+04  6.361072E+04
        78   3 -7.351164E+05 -3.406110E+05 -1.511382E+05 -2.989898E+05 -8.857405E+03  5.588000E+04
        78   4 -9.021887E+02 -7.201493E+04  1.662159E+03 -9.576263E+04 -2.387730E+04  6.749059E+04
        78   5 -1.183407E+04 -6.112927E+04  8.899185E+02 -8.337064E+04 -2.150661E+04  5.984550E+04
        78   6 -8.216003E+02 -7.187399E+04  5.026330E+02 -9.578899E+04 -1.908289E+04  5.203950E+04
        78   7  9.417333E+05  2.730150E+05  1.957451E+05  1.655837E+05 -3.369263E+04  6.379480E+04
        78   8  8.268832E+05  2.457548E+05  1.736552E+05  1.490106E+05 -3.153356E+04  5.607482E+04
        78   9  7.340266E+05  1.969084E+05  1.521157E+05  1.076336E+05 -2.932142E+04  4.819412E+04
        78  10 -9.426214E+05 -4.169726E+05 -1.924745E+05 -3.567407E+05  1.162048E-09  3.383539E-10
        78  11 -8.498284E+05 -3.679572E+05 -1.719185E+05 -3.154612E+05  2.103102E-10  3.185100E-10
        78  12 -7.351173E+05 -3.406144E+05 -1.511442E+05 -2.989894E+05 -3.239659E-10  8.896629E-10
        78  13 -9.040234E+02 -7.201997E+04  1.652528E+03 -9.576133E+04 -3.617596E-10  2.581136E-10
        78  14 -1.183553E+04 -6.113324E+04  8.823193E+02 -8.336961E+04  9.131093E-10  4.639793E-10
        78  15 -8.227182E+02 -7.187700E+04  4.968598E+02 -9.578819E+04 -1.298902E-11  2.430056E-10
        78  16  9.417310E+05  2.730104E+05  1.957354E+05  1.655855E+05 -1.120487E-09  3.499095E-10
        78  17  8.268813E+05  2.457511E+05  1.736474E+05  1.490120E+05 -9.310548E-10  2.622437E-10
        78  18  7.340250E+05  1.969056E+05  1.521097E+05  1.076347E+05  8.961299E-10 -5.389748E-10
        78  19 -9.426198E+05 -4.169671E+05 -1.924646E+05 -3.567415E+05  1.407807E+04 -7.118035E+04
        78  20 -8.498272E+05 -3.679528E+05 -1.719107E+05 -3.154618E+05  1.149426E+04 -6.361072E+04
        78  21 -7.351164E+05 -3.406110E+05 -1.511382E+05 -2.989898E+05  8.857405E+03 -5.588000E+04
        78  22 -9.021887E+02 -7.201493E+04  1.662159E+03 -9.576263E+04  2.387730E+04 -6.749059E+04
        78  23 -1.183407E+04 -6.112927E+04  8.899185E+02 -8.337064E+04  2.150661E+04 -5.984550E+04
        78  24 -8.216003E+02 -7.187399E+04  5.026330E+02 -9.578899E+04  1.908289E+04 -5.203950E+04
        78  25  9.417333E+05  2.730150E+05  1.957451E+05  1.655837E+05  3.369263E+04 -6.379480E+04
        78  26  8.268832E+05  2.457548E+05  1.736552E+05  1.490106E+05  3.153356E+04 -5.607482E+04
        78  27  7.340266E+05  1.969084E+05  1.521157E+05  1.076336E+05  2.932142E+04 -4.819412E+04
        79   1 -6.630333E+05 -3.140513E+05 -1.357752E+05 -2.790522E+05 -7.275471E+03  5.134734E+04
        79   2 -5.700373E+05 -2.651349E+05 -1.148380E+05 -2.378137E+05 -4.465069E+03  4.361524E+04
        79   3 -4.552364E+05 -2.379128E+05 -9.382130E+04 -2.214431E+05 -1.655267E+03  3.587126E+04
        79   4 -8.271430E+02 -7.185302E+04  3.705648E+02 -9.580567E+04 -1.746962E+04  4.752095E+04
        79   5 -1.169852E+04 -6.094883E+04  1.906477E+02 -8.338385E+04 -1.467478E+04  3.978613E+04
        79   6 -7.739310E+02 -7.173620E+04  1.014696E+02 -9.583340E+04 -1.188052E+04  3.203945E+04
        79   7  6.618242E+05  1.703803E+05  1.364927E+05  8.761988E+04 -2.767539E+04  4.369020E+04
        79   8  5.469602E+05  1.432634E+05  1.152034E+05  7.117412E+04 -2.489437E+04  3.595332E+04
        79   9  4.539039E+05  9.445902E+04  9.401479E+04  2.986206E+04 -2.211392E+04  2.820460E+04
        79  10 -6.630340E+05 -3.140541E+05 -1.357803E+05 -2.790519E+05  5.667650E-10  8.349464E-10
        79  11 -5.700378E+05 -2.651369E+05 -1.148416E+05 -2.378135E+05  7.769001E-09  2.276042E-09
        79  12 -4.552367E+05 -2.379142E+05 -9.382372E+04 -2.214430E+05  5.874632E-09  1.493482E-09
        79  13 -8.280769E+02 -7.185553E+04  3.657478E+02 -9.580500E+04  1.891314E-09  8.860822E-10
        79  14 -1.169918E+04 -6.095059E+04  1.872685E+02 -8.338338E+04  6.818288E-09  2.110894E-09
        79  15 -7.743581E+02 -7.173734E+04  9.927538E+01 -9.583309E+04  1.366084E-09  8.226437E-10
        79  16  6.618228E+05  1.703780E+05  1.364876E+05  8.762086E+04  5.960002E-09  1.288600E-09
        79  17  5.469592E+05  1.432619E+05  1.151998E+05  7.117484E+04  7.390093E-09  2.428816E-09
        79  18  4.539031E+05  9.445803E+04  9.401237E+04  2.986256E+04 -4.150867E-10  1.052102E-09
        79  19 -6.630333E+05 -3.140513E+05 -1.357752E+05 -2.790522E+05  7.275471E+03 -5.134734E+04
        79  20 -5.700373E+05 -2.651349E+05 -1.148380E+05 -2.378137E+05  4.465069E+03 -4.361524E+04
        79  21 -4.552364E+05 -2.379128E+05 -9.382130E+04 -2.214431E+05  1.655267E+03 -3.587126E+04
        79  22 -8.271430E+02 -7.185302E+04  3.705648E+02 -9.580567E+04  1.746962E+04 -4.752095E+04
        79  23 -1.169852E+04 -6.094883E+04  1.906477E+02 -8.338385E+04  1.467478E+04 -3.978613E+04
        79  24 -7.739310E+02 -7.173620E+04  1.014696E+02 -9.583340E+04  1.188052E+04 -3.203945E+04
        79  25  6.618242E+05  1.703803E+05  1.364927E+05  8.761988E+04  2.767539E+04 -4.369020E+04
        79  26  5.469602E+05  1.432634E+05  1.152034E+05  7.117412E+04  2.489437E+04 -3.595332E+04
        79  27  4.539039E+05  9.445902E+04  9.401479E+04  2.986206E+04  2.211392E+04 -2.820460E+04
        80   1 -3.830653E+05 -2.113993E+05 -7.835956E+04 -2.015348E+05  1.388012E+01  3.137354E+04
        80   2 -2.899426E+05 -1.625563E+05 -5.731147E+04 -1.603176E+05  2.899131E+03  2.365593E+04
        80   3 -1.750816E+05 -1.354121E+05 -3.625386E+04 -1.440024E+05  5.780838E+03  1.594080E+04
        80   4 -7.734387E+02 -7.172405E+04  6.376375E+01 -9.584003E+04 -1.021212E+04  2.754285E+04
        80   5 -1.162255E+04 -6.084512E+04  3.896266E+00 -8.339400E+04 -7.323788E+03  1.982794E+04
        80   6 -7.457281E+02 -7.166594E+04 -4.934637E+01 -9.585327E+04 -4.439018E+03  1.211556E+04
        80   7  3.816685E+05  6.796352E+04  7.847997E+04  9.914848E+03 -2.044489E+04  2.370962E+04
        80   8  2.667760E+05  4.087214E+04  5.731536E+04 -6.438827E+03 -1.755160E+04  1.599812E+04
        80   9  1.736201E+05 -7.917655E+03  3.615362E+04 -4.769205E+04 -1.466188E+04  8.289186E+03
        80  10 -3.830656E+05 -2.114004E+05 -7.836141E+04 -2.015348E+05 -1.366703E-09 -1.417512E-10
        80  11 -2.899427E+05 -1.625569E+05 -5.731254E+04 -1.603177E+05 -6.442020E-10  9.594883E-10
        80  12 -1.750817E+05 -1.354124E+05 -3.625440E+04 -1.440024E+05  1.571580E-09 -7.353838E-10
        80  13 -7.737543E+02 -7.172490E+04  6.214226E+01 -9.583980E+04 -3.175215E-10  8.518013E-10
        80  14 -1.162271E+04 -6.084556E+04  3.056698E+00 -8.339388E+04 -8.319653E-10  1.144894E-09
        80  15 -7.457887E+02 -7.166610E+04 -4.965923E+01 -9.585323E+04 -5.402856E-10  1.330357E-10
        80  16  3.816679E+05  6.796281E+04  7.847813E+04  9.915239E+03  5.309532E-10  2.046805E-09
        80  17  2.667756E+05  4.087178E+04  5.731430E+04 -6.438601E+03  3.836756E-10  1.529390E-09
        80  18  1.736198E+05 -7.917786E+03  3.615308E+04 -4.769195E+04 -1.020699E-09  6.992468E-10
        80  19 -3.830653E+05 -2.113993E+05 -7.835956E+04 -2.015348E+05 -1.388012E+01 -3.137354E+04
        80  20 -2.899426E+05 -1.625563E+05 -5.731147E+04 -1.603176E+05 -2.899131E+03 -2.365593E+04
        80  21 -1.750816E+05 -1.354121E+05 -3.625386E+04 -1.440024E+05 -5.780838E+03 -1.594080E+04
        80  22 -7.734387E+02 -7.172405E+04  6.376375E+01 -9.584003E+04  1.021212E+04 -2.754285E+04
        80  23 -1.162255E+04 -6.084512E+04  3.896266E+00 -8.339400E+04  7.323788E+03 -1.982794E+04
        80  24 -7.457281E+02 -7.166594E+04 -4.934637E+01 -9.585327E+04  4.439018E+03 -1.211556E+04
        80  25  3.816685E+05  6.796352E+04  7.847997E+04  9.914848E+03  2.044489E+04 -2.370962E+04
        80  26  2.667760E+05  4.087214E+04  5.731536E+04 -6.438827E+03  1.755160E+04 -1.599812E+04
        80  27  1.736201E+05 -7.917655E+03  3.615362E+04 -4.769205E+04  1.466188E+04 -8.289186E+03
        81   1 -1.028560E+05 -1.089185E+05 -2.078732E+04 -1.241008E+05  7.489828E+03  1.145697E+04
        81   2 -9.678051E+03 -6.011372E+04  2.499077E+02 -8.288374E+04  1.036355E+04  3.769916E+03
        81   3  1.052182E+05 -3.300021E+04  2.129191E+04 -6.657734E+04  1.321032E+04 -3.845309E+03
        81   4 -7.499061E+02 -7.166157E+04 -8.448088E+01 -9.585668E+04 -2.746415E+03  7.626053E+03
        81   5 -1.159316E+04 -6.080811E+04 -1.821278E+02 -8.339771E+04  2.216034E+02 -2.576096E+01
        81   6 -7.502788E+02 -7.166666E+04 -3.505840E+02 -9.585463E+04  3.162651E+03 -7.605705E+03
        81   7  1.013679E+05 -3.440338E+04  2.061851E+04 -6.760795E+04 -1.298455E+04  3.794431E+03
        81   8 -1.350804E+04 -6.150242E+04 -6.137250E+02 -8.391163E+04 -9.920354E+03 -3.821441E+03
        81   9 -1.067071E+05 -1.103321E+05 -2.199323E+04 -1.251273E+05 -6.883178E+03 -1.136541E+04
        81  10 -1.028561E+05 -1.089186E+05 -2.078768E+04 -1.241009E+05 -1.032258E-08 -4.158517E-09
        81  11 -9.678171E+03 -6.011376E+04  2.496792E+02 -8.288377E+04  9.815594E-11  1.799626E-09
        81  12  1.052180E+05 -3.300027E+04  2.129156E+04 -6.657730E+04  1.392671E-08  7.954917E-09
        81  13 -7.499298E+02 -7.166163E+04 -8.460434E+01 -9.585666E+04 -1.259209E-09 -1.862410E-09
        81  14 -1.159316E+04 -6.080811E+04 -1.821279E+02 -8.339771E+04 -1.517526E-09 -4.455110E-09
        81  15 -7.503051E+02 -7.166673E+04 -3.507115E+02 -9.585461E+04  7.254426E-10 -6.120568E-09
        81  16  1.013678E+05 -3.440344E+04  2.061817E+04 -6.760791E+04  1.001614E-08  4.526319E-09
        81  17 -1.350815E+04 -6.150247E+04 -6.139374E+02 -8.391166E+04 -1.876063E-09  7.768607E-10
        81  18 -1.067071E+05 -1.103323E+05 -2.199356E+04 -1.251273E+05 -1.362538E-08 -1.453857E-09
        81  19 -1.028560E+05 -1.089185E+05 -2.078732E+04 -1.241008E+05 -7.489828E+03 -1.145697E+04
        81  20 -9.678051E+03 -6.011372E+04  2.499077E+02 -8.288374E+04 -1.036355E+04 -3.769916E+03
        81  21  1.052182E+05 -3.300021E+04  2.129191E+04 -6.657734E+04 -1.321032E+04  3.845309E+03
        81  22 -7.499061E+02 -7.166157E+04 -8.448088E+01 -9.585668E+04  2.746415E+03 -7.626053E+03
        81  23 -1.159316E+04 -6.080811E+04 -1.821278E+02 -8.339771E+04 -2.216034E+02  2.576096E+01
        81  24 -7.502788E+02 -7.166666E+04 -3.505840E+02 -9.585463E+04 -3.162651E+03  7.605705E+03
        81  25  1.013679E+05 -3.440338E+04  2.061851E+04 -6.760795E+04  1.298455E+04 -3.794431E+03
        81  26 -1.350804E+04 -6.150242E+04 -6.137250E+02 -8.391163E+04  9.920354E+03  3.821441E+03
        81  27 -1.067071E+05 -1.103321E+05 -2.199323E+04 -1.251273E+05  6.883178E+03  1.136541E+04
        82   1  1.775025E+05 -6.504488E+03  3.666536E+04 -4.668096E+04  1.521831E+04 -8.237809E+03
        82   2  2.705727E+05  4.233635E+04  5.785679E+04 -5.436672E+03  1.679789E+04 -1.583658E+04
        82   3  3.854876E+05  6.960675E+04  7.989100E+04  1.100292E+04  1.794164E+04 -2.226673E+04
        82   4 -7.827076E+02 -7.164811E+04 -4.704052E+02 -9.585399E+04  4.917016E+03 -1.209359E+04
        82   5 -1.157838E+04 -6.086943E+04 -8.703931E+02 -8.339316E+04  8.045282E+03 -1.911414E+04
        82   6 -8.462613E+02 -7.196910E+04 -1.653576E+03 -9.574191E+04  1.073780E+04 -2.496571E+04
        82   7 -1.790339E+05 -1.367885E+05 -3.760704E+04 -1.450136E+05 -5.381020E+03 -1.594815E+04
        82   8 -2.936479E+05 -1.640686E+05 -5.960151E+04 -1.613170E+05 -7.030495E+02 -2.239010E+04
        82   9 -3.870308E+05 -2.135338E+05 -8.320702E+04 -2.024265E+05  3.538739E+03 -2.766290E+04
        82  10  1.775023E+05 -6.504623E+03  3.666479E+04 -4.668086E+04 -1.160059E-08 -7.165205E-10
        82  11  2.705723E+05  4.233600E+04  5.785579E+04 -5.436457E+03 -2.289954E-09  1.596504E-09
        82  12  3.854871E+05  6.960613E+04  7.988947E+04  1.100324E+04  9.499830E-09  4.422274E-09
        82  13 -7.827729E+02 -7.164827E+04 -4.707254E+02 -9.585394E+04  1.910111E-09 -5.038256E-09
        82  14 -1.157854E+04 -6.086984E+04 -8.712012E+02 -8.339304E+04 -2.122733E-09 -3.801023E-09
        82  15 -8.465524E+02 -7.196980E+04 -1.654964E+03 -9.574170E+04 -1.680053E-09 -1.417255E-09
        82  16 -1.790340E+05 -1.367888E+05 -3.760757E+04 -1.450137E+05  1.194489E-08  8.707328E-09
        82  17 -2.936480E+05 -1.640691E+05 -5.960245E+04 -1.613170E+05 -6.398942E-10  9.169053E-10
        82  18 -3.870310E+05 -2.135347E+05 -8.320849E+04 -2.024264E+05 -1.176007E-08 -4.417762E-09
        82  19  1.775025E+05 -6.504488E+03  3.666536E+04 -4.668096E+04 -1.521831E+04  8.237809E+03
        82  20  2.705727E+05  4.233635E+04  5.785679E+04 -5.436672E+03 -1.679789E+04  1.583658E+04
        82  21  3.854876E+05  6.960675E+04  7.989100E+04  1.100292E+04 -1.794164E+04  2.226673E+04
        82  22 -7.827076E+02 -7.164811E+04 -4.704052E+02 -9.585399E+04 -4.917016E+03  1.209359E+04
        82  23 -1.157838E+04 -6.086943E+04 -8.703931E+02 -8.339316E+04 -8.045282E+03  1.911414E+04
        82  24 -8.462613E+02 -7.196910E+04 -1.653576E+03 -9.574191E+04 -1.073780E+04  2.496571E+04
        82  25 -1.790339E+05 -1.367885E+05 -3.760704E+04 -1.450136E+05  5.381020E+03  1.594815E+04
        82  26 -2.936479E+05 -1.640686E+05 -5.960151E+04 -1.613170E+05  7.030495E+02  2.239010E+04
        82  27 -3.870308E+05 -2.135338E+05 -8.320702E+04 -2.024265E+05 -3.538739E+03  2.766290E+04
        83   1  4.586197E+05  9.621786E+04  9.477587E+04  3.044980E+04  2.411277E+04 -2.544861E+04
        83   2  5.491661E+05  1.461739E+05  1.219669E+05  7.273635E+04  7.142816E+02 -3.312795E+04
        83   3  6.634155E+05  1.751078E+05  1.661079E+05  9.241037E+04 -2.980022E+04 -2.184567E+04
        83   4 -1.289620E+03 -7.149983E+04 -2.151647E+03 -9.578025E+04  1.279228E+04 -2.969049E+04
        83   5 -1.115637E+04 -6.196995E+04 -4.014523E+03 -8.317918E+04  1.455842E+04 -2.794343E+04
        83   6 -2.310164E+03 -7.844708E+04 -8.850322E+03 -9.319689E+04  9.210013E+03 -7.224514E+03
        83   7 -4.609853E+05 -2.392015E+05 -9.909088E+04 -2.219250E+05  1.480764E+03 -3.392904E+04
        83   8 -5.711555E+05 -2.700858E+05 -1.300132E+05 -2.389635E+05  2.838887E+04 -2.276414E+04
        83   9 -6.675838E+05 -3.319623E+05 -1.838344E+05 -2.786171E+05  4.817325E+04  7.378391E+03
        83  10  4.586190E+05  9.621701E+04  9.477356E+04  3.045029E+04  7.580544E-11  2.977332E-10
        83  11  5.491658E+05  1.461727E+05  1.219648E+05  7.273636E+04 -3.885895E-11  8.037973E-10
        83  12  6.634144E+05  1.751070E+05  1.661054E+05  9.240984E+04  1.132203E-09  6.171485E-10
        83  13 -1.290033E+03 -7.150082E+04 -2.153611E+03 -9.577994E+04 -1.704534E-10 -4.081474E-10
        83  14 -1.115681E+04 -6.197085E+04 -4.016389E+03 -8.317885E+04 -1.273159E-09  4.883046E-10
        83  15 -2.310269E+03 -7.844716E+04 -8.850579E+03 -9.319683E+04 -8.434284E-10  2.951675E-10
        83  16 -4.609856E+05 -2.392027E+05 -9.909305E+04 -2.219250E+05 -5.314884E-11  6.485730E-11
        83  17 -5.711565E+05 -2.700865E+05 -1.300157E+05 -2.389630E+05 -1.331422E-09  3.055693E-11
        83  18 -6.675863E+05 -3.319630E+05 -1.838389E+05 -2.786174E+05 -1.938610E-09 -1.644513E-10
        83  19  4.586197E+05  9.621786E+04  9.477587E+04  3.044980E+04 -2.411277E+04  2.544861E+04
        83  20  5.491661E+05  1.461739E+05  1.219669E+05  7.273635E+04 -7.142816E+02  3.312795E+04
        83  21  6.634155E+05  1.751078E+05  1.661079E+05  9.241037E+04  2.980022E+04  2.184567E+04
        83  22 -1.289620E+03 -7.149983E+04 -2.151647E+03 -9.578025E+04 -1.279228E+04  2.969049E+04
        83  23 -1.115637E+04 -6.196995E+04 -4.014523E+03 -8.317918E+04 -1.455842E+04  2.794343E+04
        83  24 -2.310164E+03 -7.844708E+04 -8.850322E+03 -9.319689E+04 -9.210013E+03  7.224514E+03
        83  25 -4.609853E+05 -2.392015E+05 -9.909088E+04 -2.219250E+05 -1.480764E+03  3.392904E+04
        83  26 -5.711555E+05 -2.700858E+05 -1.300132E+05 -2.389635E+05 -2.838887E+04  2.276414E+04
        83  27 -6.675838E+05 -3.319623E+05 -1.838344E+05 -2.786171E+05 -4.817325E+04 -7.378391E+03
        84   1 -4.292542E+04 -2.338124E+04 -2.072175E+04 -1.668306E+04 -4.552010E+03  1.636007E+03
        84   2 -2.574765E+04 -2.452595E+04 -1.586947E+04 -1.883175E+04 -7.142110E+02  5.447008E+03
        84   3 -8.282556E+03 -2.252978E+04 -1.273053E+04 -2.353106E+04  3.124045E+03  6.450336E+03
        84   4  9.527817E+04  1.065633E+04  1.127130E+04 -2.394120E+04  7.963415E+03  1.636618E+03
        84   5  9.455090E+04  3.845018E+03  5.692971E+03 -2.266582E+04  5.063108E+03  5.447106E+03
        84   6  9.527998E+04  1.343908E+03  3.080268E+03 -2.394091E+04  2.163061E+03  6.450215E+03
        84   7  2.334998E+05  4.469284E+04  4.326368E+04 -3.120097E+04  2.048161E+04  1.636937E+03
        84   8  2.148637E+05  3.221526E+04  2.725499E+04 -2.650064E+04  1.084151E+04  5.447133E+03
        84   9  1.988533E+05  2.521709E+04  1.889084E+04 -2.435083E+04  1.201923E+03  6.450095E+03
        84  10 -4.292544E+04 -2.338125E+04 -2.072179E+04 -1.668305E+04  1.693040E-10  2.403249E-10
        84  11 -2.574766E+04 -2.452598E+04 -1.586953E+04 -1.883175E+04  1.025579E-09  6.110993E-10
        84  12 -8.282578E+03 -2.252983E+04 -1.273062E+04 -2.353107E+04 -6.059838E-10  2.937199E-10
        84  13  9.527810E+04  1.065631E+04  1.127117E+04 -2.394121E+04  5.751282E-10  2.495590E-10
        84  14  9.455086E+04  3.844979E+03  5.692867E+03 -2.266584E+04  1.389198E-09  5.070039E-10
        84  15  9.527996E+04  1.343862E+03  3.080181E+03 -2.394092E+04  5.705235E-10  1.816784E-10
        84  16  2.334994E+05  4.469272E+04  4.326289E+04 -3.120100E+04  7.425753E-10  2.183260E-10
        84  17  2.148635E+05  3.221519E+04  2.725471E+04 -2.650069E+04 -4.813739E-10  4.271431E-10
        84  18  1.988532E+05  2.521704E+04  1.889076E+04 -2.435084E+04  1.236509E-09  1.883802E-10
        84  19 -4.292542E+04 -2.338124E+04 -2.072175E+04 -1.668306E+04  4.552010E+03 -1.636007E+03
        84  20 -2.574765E+04 -2.452595E+04 -1.586947E+04 -1.883175E+04  7.142110E+02 -5.447008E+03
        84  21 -8.282556E+03 -2.252978E+04 -1.273053E+04 -2.353106E+04 -3.124045E+03 -6.450336E+03
        84  22  9.527817E+04  1.065633E+04  1.127130E+04 -2.394120E+04 -7.963415E+03 -1.636618E+03
        84  23  9.455090E+04  3.845018E+03  5.692971E+03 -2.266582E+04 -5.063108E+03 -5.447106E+03
        84  24  9.527998E+04  1.343908E+03  3.080268E+03 -2.394091E+04 -2.163061E+03 -6.450215E+03
        84  25  2.334998E+05  4.469284E+04  4.326368E+04 -3.120097E+04 -2.048161E+04 -1.636937E+03
        84  26  2.148637E+05  3.221526E+04  2.725499E+04 -2.650064E+04 -1.084151E+04 -5.447133E+03
        84  27  1.988533E+05  2.521709E+04  1.889084E+04 -2.435083E+04 -1.201923E+03 -6.450095E+03
        85   1  2.306848E+03 -2.029286E+04 -1.136339E+04 -2.341357E+04  2.946711E+03  6.087354E+03
        85   2  1.959241E+04 -1.681924E+04 -9.144137E+03 -2.232768E+04  3.236888E+03  5.404034E+03
        85   3  3.691048E+04 -1.306827E+04 -7.044278E+03 -2.400203E+04  3.527052E+03  4.341208E+03
        85   4  9.499901E+04  9.766424E+02  2.296920E+03 -2.398757E+04  1.762345E+03  6.087252E+03
        85   5  9.490433E+04  3.187825E+02  1.238803E+03 -2.260746E+04  1.141613E+03  5.403966E+03
        85   6  9.499996E+04  9.638067E+01  6.937817E+02 -2.398757E+04  5.208617E+02  4.341200E+03
        85   7  1.876998E+05  2.224575E+04  1.595708E+04 -2.456166E+04  5.778091E+02  6.087152E+03
        85   8  1.702220E+05  1.745656E+04  1.162170E+04 -2.288728E+04 -9.539047E+02  5.403901E+03
        85   9  1.530929E+05  1.326089E+04  8.431848E+03 -2.397311E+04 -2.485597E+03  4.341192E+03
        85  10  2.306829E+03 -2.029290E+04 -1.136348E+04 -2.341358E+04 -6.924825E-08  9.754855E-11
        85  11  1.959239E+04 -1.681927E+04 -9.144212E+03 -2.232769E+04 -1.532841E-09 -6.259464E-11
        85  12  3.691047E+04 -1.306829E+04 -7.044336E+03 -2.400204E+04  6.654303E-08 -4.729809E-10
        85  13  9.499900E+04  9.766018E+02  2.296844E+03 -2.398758E+04  5.743536E-10  5.842463E-12
        85  14  9.490432E+04  3.187508E+02  1.238746E+03 -2.260747E+04  5.553188E-11 -1.016497E-10
        85  15  9.499995E+04  9.636036E+01  6.937458E+02 -2.398757E+04 -2.189633E-09  3.751484E-11
        85  16  1.876998E+05  2.224571E+04  1.595701E+04 -2.456166E+04  6.926932E-08 -1.555432E-10
        85  17  1.702220E+05  1.745652E+04  1.162164E+04 -2.288728E+04  1.924607E-10 -1.767726E-10
        85  18  1.530929E+05  1.326087E+04  8.431801E+03 -2.397310E+04 -6.792251E-08  5.654121E-10
        85  19  2.306848E+03 -2.029286E+04 -1.136339E+04 -2.341357E+04 -2.946711E+03 -6.087354E+03
        85  20  1.959241E+04 -1.681924E+04 -9.144137E+03 -2.232768E+04 -3.236888E+03 -5.404034E+03
        85  21  3.691048E+04 -1.306827E+04 -7.044278E+03 -2.400203E+04 -3.527052E+03 -4.341208E+03
        85  22  9.499901E+04  9.766424E+02  2.296920E+03 -2.398757E+04 -1.762345E+03 -6.087252E+03
        85  23  9.490433E+04  3.187825E+02  1.238803E+03 -2.260746E+04 -1.141613E+03 -5.403966E+03
        85  24  9.499996E+04  9.638067E+01  6.937817E+02 -2.398757E+04 -5.208617E+02 -4.341200E+03
        85  25  1.876998E+05  2.224575E+04  1.595708E+04 -2.456166E+04 -5.778091E+02 -6.087152E+03
        85  26  1.702220E+05  1.745656E+04  1.162170E+04 -2.288728E+04  9.539047E+02 -5.403901E+03
        85  27  1.530929E+05  1.326089E+04  8.431848E+03 -2.397311E+04  2.485597E+03 -4.341192E+03
        86   1  4.757028E+04 -1.065686E+04 -5.708282E+03 -2.398022E+04  3.455213E+03  3.594685E+03
        86   2  6.486477E+04 -6.788032E+03 -3.628238E+03 -2.260077E+04  3.432789E+03  2.304057E+03
        86   3  8.216756E+04 -2.899004E+03 -1.528521E+03 -2.400967E+04  3.410346E+03  9.623192E+02
        86   4  9.496444E+04  6.736745E+01  5.224988E+02 -2.399382E+04  4.188533E+02  3.594703E+03
        86   5  9.494985E+04  1.251530E+01  2.921378E+02 -2.259965E+04  2.737259E+02  2.304102E+03
        86   6  9.496481E+04 -7.671664E-01  1.667003E+02 -2.399383E+04  1.285819E+02  9.623928E+02
        86   7  1.423609E+05  1.079151E+04  6.753299E+03 -2.400743E+04 -2.617728E+03  3.594720E+03
        86   8  1.250359E+05  6.813030E+03  4.212546E+03 -2.259853E+04 -2.885483E+03  2.304148E+03
        86   9  1.077623E+05  2.897469E+03  1.861961E+03 -2.397798E+04 -3.153246E+03  9.624663E+02
        86  10  4.757026E+04 -1.065688E+04 -5.708329E+03 -2.398023E+04 -1.078746E-09 -2.427314E-10
        86  11  6.486475E+04 -6.788041E+03 -3.628270E+03 -2.260077E+04 -7.162506E-10  5.402609E-10
        86  12  8.216755E+04 -2.899009E+03 -1.528545E+03 -2.400967E+04 -1.215307E-09  4.764791E-10
        86  13  9.496444E+04  6.735353E+01  5.224742E+02 -2.399383E+04 -1.112374E-09  4.062656E-10
        86  14  9.494985E+04  1.250958E+01  2.921277E+02 -2.259965E+04 -8.050601E-10  8.003276E-10
        86  15  9.496481E+04 -7.681655E-01  1.666985E+02 -2.399383E+04 -4.067167E-10  4.200627E-10
        86  16  1.423609E+05  1.079149E+04  6.753262E+03 -2.400742E+04  1.300281E-09  1.060639E-09
        86  17  1.250359E+05  6.813022E+03  4.212520E+03 -2.259853E+04  5.909321E-10  1.056823E-09
        86  18  1.077622E+05  2.897465E+03  1.861940E+03 -2.397798E+04  1.095229E-09  3.479254E-10
        86  19  4.757028E+04 -1.065686E+04 -5.708282E+03 -2.398022E+04 -3.455213E+03 -3.594685E+03
        86  20  6.486477E+04 -6.788032E+03 -3.628238E+03 -2.260077E+04 -3.432789E+03 -2.304057E+03
        86  21  8.216756E+04 -2.899004E+03 -1.528521E+03 -2.400967E+04 -3.410346E+03 -9.623192E+02
        86  22  9.496444E+04  6.736745E+01  5.224988E+02 -2.399382E+04 -4.188533E+02 -3.594703E+03
        86  23  9.494985E+04  1.251530E+01  2.921378E+02 -2.259965E+04 -2.737259E+02 -2.304102E+03
        86  24  9.496481E+04 -7.671664E-01  1.667003E+02 -2.399383E+04 -1.285819E+02 -9.623928E+02
        86  25  1.423609E+05  1.079151E+04  6.753299E+03 -2.400743E+04  2.617728E+03 -3.594720E+03
        86  26  1.250359E+05  6.813030E+03  4.212546E+03 -2.259853E+04  2.885483E+03 -2.304148E+03
        86  27  1.077623E+05  2.897469E+03  1.861961E+03 -2.397798E+04  3.153246E+03 -9.624663E+02
        87   1  9.283453E+04 -4.813571E+02 -1.482006E+02 -2.400495E+04  3.388412E+03  1.641706E+02
        87   2  1.101312E+05  3.411868E+03  1.978936E+03 -2.260634E+04  3.365911E+03 -1.207486E+03
        87   3  1.274319E+05  7.306148E+03  4.121118E+03 -2.399986E+04  3.343421E+03 -2.584649E+03
        87   4  9.495954E+04 -1.490593E+00  1.263346E+02 -2.399466E+04  1.026581E+02  1.642481E+02
        87   5  9.495660E+04 -4.017695E+00  7.230406E+01 -2.259860E+04  6.687077E+01 -1.207422E+03
        87   6  9.495936E+04 -3.250278E+00  4.242977E+01 -2.399467E+04  3.109394E+01 -2.584598E+03
        87   7  9.708458E+04  4.783815E+02  4.009103E+02 -2.398438E+04 -3.183107E+03  1.643256E+02
        87   8  7.978224E+04 -3.419907E+03 -1.834288E+03 -2.259086E+04 -3.232093E+03 -1.207357E+03
        87   9  6.248794E+04 -7.312685E+03 -4.036220E+03 -2.398947E+04 -3.281068E+03 -2.584547E+03
        87  10  9.283452E+04 -4.813602E+02 -1.482222E+02 -2.400495E+04 -2.720012E-08  9.266166E-10
        87  11  1.101312E+05  3.411863E+03  1.978912E+03 -2.260634E+04  7.743062E-09  3.286735E-09
        87  12  1.274319E+05  7.306137E+03  4.121085E+03 -2.399985E+04  4.166626E-08  5.995049E-09
        87  13  9.495954E+04 -1.490625E+00  1.263345E+02 -2.399466E+04 -5.290727E-10 -1.318259E-09
        87  14  9.495660E+04 -4.019262E+00  7.230131E+01 -2.259860E+04 -1.898489E-09 -6.367069E-09
        87  15  9.495936E+04 -3.257452E+00  4.241721E+01 -2.399467E+04 -6.935339E-10 -1.141749E-08
        87  16  9.708457E+04  4.783788E+02  4.008912E+02 -2.398438E+04  2.749082E-08  8.836791E-10
        87  17  7.978223E+04 -3.419911E+03 -1.834310E+03 -2.259087E+04 -7.120777E-09  3.691010E-09
        87  18  6.248792E+04 -7.312695E+03 -4.036253E+03 -2.398948E+04 -4.178899E-08  6.161931E-09
        87  19  9.283453E+04 -4.813571E+02 -1.482006E+02 -2.400495E+04 -3.388412E+03 -1.641706E+02
        87  20  1.101312E+05  3.411868E+03  1.978936E+03 -2.260634E+04 -3.365911E+03  1.207486E+03
        87  21  1.274319E+05  7.306148E+03  4.121118E+03 -2.399986E+04 -3.343421E+03  2.584649E+03
        87  22  9.495954E+04 -1.490593E+00  1.263346E+02 -2.399466E+04 -1.026581E+02 -1.642481E+02
        87  23  9.495660E+04 -4.017695E+00  7.230406E+01 -2.259860E+04 -6.687077E+01  1.207422E+03
        87  24  9.495936E+04 -3.250278E+00  4.242977E+01 -2.399467E+04 -3.109394E+01  2.584598E+03
        87  25  9.708458E+04  4.783815E+02  4.009103E+02 -2.398438E+04  3.183107E+03 -1.643256E+02
        87  26  7.978224E+04 -3.419907E+03 -1.834288E+03 -2.259086E+04  3.232093E+03  1.207357E+03
        87  27  6.248794E+04 -7.312685E+03 -4.036220E+03 -2.398947E+04  3.281068E+03  2.584547E+03
        88   1  1.381010E+05  9.722317E+03  5.522925E+03 -2.399850E+04  3.336379E+03 -3.388348E+03
        88   2  1.553981E+05  1.361631E+04  7.686236E+03 -2.260058E+04  3.303036E+03 -4.763327E+03
        88   3  1.727014E+05  1.751445E+04  9.872430E+03 -2.399471E+04  3.269735E+03 -6.128685E+03
        88   4  9.495836E+04 -3.021212E+00  3.293082E+01 -2.399465E+04  2.427526E+01 -3.388317E+03
        88   5  9.495707E+04 -3.188364E+00  2.083748E+01 -2.259862E+04  1.398196E+01 -4.763350E+03
        88   6  9.495764E+04 -3.211765E+00  1.559361E+01 -2.399465E+04  3.731137E+00 -6.128763E+03
        88   7  5.181770E+04 -9.728430E+03 -5.457029E+03 -2.399081E+04 -3.287610E+03 -3.388287E+03
        88   8  3.451984E+04 -1.362283E+04 -7.644533E+03 -2.259666E+04 -3.274768E+03 -4.763374E+03
        88   9  1.722014E+04 -1.752111E+04 -9.841224E+03 -2.399460E+04 -3.261884E+03 -6.128840E+03
        88  10  1.381009E+05  9.722302E+03  5.522882E+03 -2.399849E+04 -4.147481E-08  5.907015E-09
        88  11  1.553981E+05  1.361629E+04  7.686173E+03 -2.260056E+04 -6.201503E-09  2.935308E-09
        88  12  1.727013E+05  1.751440E+04  9.872340E+03 -2.399469E+04  2.745858E-08  3.701425E-10
        88  13  9.495836E+04 -3.033541E+00  3.290925E+01 -2.399465E+04  6.042875E-10 -1.166106E-08
        88  14  9.495706E+04 -3.212730E+00  2.079484E+01 -2.259862E+04  1.148628E-09 -7.040092E-09
        88  15  9.495763E+04 -3.252102E+00  1.552302E+01 -2.399465E+04  2.181076E-10 -1.807793E-09
        88  16  5.181768E+04 -9.728445E+03 -5.457071E+03 -2.399082E+04  4.117512E-08  5.759615E-09
        88  17  3.451982E+04 -1.362286E+04 -7.644596E+03 -2.259667E+04  5.250020E-09  2.653768E-09
        88  18  1.722012E+04 -1.752116E+04 -9.841314E+03 -2.399462E+04 -2.845962E-08  4.299595E-10
        88  19  1.381010E+05  9.722317E+03  5.522925E+03 -2.399850E+04 -3.336379E+03  3.388348E+03
        88  20  1.553981E+05  1.361631E+04  7.686236E+03 -2.260058E+04 -3.303036E+03  4.763327E+03
        88  21  1.727014E+05  1.751445E+04  9.872430E+03 -2.399471E+04 -3.269735E+03  6.128685E+03
        88  22  9.495836E+04 -3.021212E+00  3.293082E+01 -2.399465E+04 -2.427526E+01  3.388317E+03
        88  23  9.495707E+04 -3.188364E+00  2.083748E+01 -2.259862E+04 -1.398196E+01  4.763350E+03
        88  24  9.495764E+04 -3.211765E+00  1.559361E+01 -2.399465E+04 -3.731137E+00  6.128763E+03
        88  25  5.181770E+04 -9.728430E+03 -5.457029E+03 -2.399081E+04  3.287610E+03  3.388287E+03
        88  26  3.451984E+04 -1.362283E+04 -7.644533E+03 -2.259666E+04  3.274768E+03  4.763374E+03
        88  27  1.722014E+04 -1.752111E+04 -9.841224E+03 -2.399460E+04  3.261884E+03  6.128840E+03
        89   1  1.833771E+05  1.993442E+04  1.129948E+04 -2.399253E+04  3.260986E+03 -6.922661E+03
        89   2  2.006626E+05  2.384267E+04  1.356138E+04 -2.259769E+04  3.065056E+03 -8.241534E+03
        89   3  2.179832E+05  2.778500E+04  1.595958E+04 -2.398976E+04  2.869191E+03 -9.482213E+03
        89   4  9.495746E+04 -3.531699E+00  1.484270E+01 -2.399351E+04  1.014681E+00 -6.922782E+03
        89   5  9.495556E+04 -3.975322E+00  1.669235E+01 -2.260005E+04 -7.213604E+00 -8.241743E+03
        89   6  9.495620E+04 -2.844397E+00  2.458139E+01 -2.399351E+04 -1.537563E+01 -9.482503E+03
        89   7  6.545864E+03 -1.994180E+04 -1.126978E+04 -2.399449E+04 -3.258515E+03 -6.922903E+03
        89   8 -1.073998E+04 -2.385108E+04 -1.352801E+04 -2.260240E+04 -3.078986E+03 -8.241952E+03
        89   9 -2.805530E+04 -2.779131E+04 -1.591047E+04 -2.399726E+04 -2.899398E+03 -9.482794E+03
        89  10  1.833771E+05  1.993436E+04  1.129937E+04 -2.399251E+04  1.301441E-09  8.454674E-11
        89  11  2.006625E+05  2.384260E+04  1.356123E+04 -2.259767E+04  2.898483E-10  7.072348E-10
        89  12  2.179832E+05  2.778490E+04  1.595940E+04 -2.398973E+04  1.803917E-09  8.067297E-10
        89  13  9.495745E+04 -3.583165E+00  1.475264E+01 -2.399351E+04 -5.374661E-10  2.010845E-10
        89  14  9.495554E+04 -4.048267E+00  1.656470E+01 -2.260005E+04  7.812457E-10  8.650633E-10
        89  15  9.495618E+04 -2.940958E+00  2.441241E+01 -2.399351E+04  5.910364E-10  7.273516E-10
        89  16  6.545840E+03 -1.994185E+04 -1.126989E+04 -2.399451E+04 -9.792065E-10  3.085248E-10
        89  17 -1.074001E+04 -2.385115E+04 -1.352815E+04 -2.260242E+04 -6.461336E-10  9.850188E-10
        89  18 -2.805533E+04 -2.779141E+04 -1.591066E+04 -2.399729E+04 -2.059863E-09  7.367536E-10
        89  19  1.833771E+05  1.993442E+04  1.129948E+04 -2.399253E+04 -3.260986E+03  6.922661E+03
        89  20  2.006626E+05  2.384267E+04  1.356138E+04 -2.259769E+04 -3.065056E+03  8.241534E+03
        89  21  2.179832E+05  2.778500E+04  1.595958E+04 -2.398976E+04 -2.869191E+03  9.482213E+03
        89  22  9.495746E+04 -3.531699E+00  1.484270E+01 -2.399351E+04 -1.014681E+00  6.922782E+03
        89  23  9.495556E+04 -3.975322E+00  1.669235E+01 -2.260005E+04  7.213604E+00  8.241743E+03
        89  24  9.495620E+04 -2.844397E+00  2.458139E+01 -2.399351E+04  1.537563E+01  9.482503E+03
        89  25  6.545864E+03 -1.994180E+04 -1.126978E+04 -2.399449E+04  3.258515E+03  6.922903E+03
        89  26 -1.073998E+04 -2.385108E+04 -1.352801E+04 -2.260240E+04  3.078986E+03  8.241952E+03
        89  27 -2.805530E+04 -2.779131E+04 -1.591047E+04 -2.399726E+04  2.899398E+03  9.482794E+03
        90   1  2.286986E+05  3.023989E+04  1.752692E+04 -2.397740E+04  2.818563E+03 -1.019717E+04
        90   2  2.458828E+05  3.426510E+04  2.045060E+04 -2.261517E+04  1.400151E+03 -1.108972E+04
        90   3  2.633190E+05  3.855033E+04  2.436308E+04 -2.399586E+04 -1.831620E+01 -1.140248E+04
        90   4  9.495736E+04 -2.373711E+00  3.122302E+01 -2.398374E+04 -2.002426E+01 -1.019752E+04
        90   5  9.495146E+04  5.450269E+00  5.317315E+01 -2.261226E+04 -4.650035E+01 -1.109009E+04
        90   6  9.495559E+04  3.166671E+01  9.746988E+01 -2.398374E+04 -7.297377E+01 -1.140279E+04
        90   7 -3.876560E+04 -3.024538E+04 -1.746456E+04 -2.399008E+04 -2.858029E+03 -1.019787E+04
        90   8 -5.595664E+04 -3.425518E+04 -2.034447E+04 -2.260935E+04 -1.492817E+03 -1.109045E+04
        90   9 -7.337925E+04 -3.848830E+04 -2.416858E+04 -2.397162E+04 -1.276171E+02 -1.140310E+04
        90  10  2.286986E+05  3.023978E+04  1.752671E+04 -2.397738E+04  1.817658E-10  8.746638E-10
        90  11  2.458827E+05  3.426497E+04  2.045037E+04 -2.261516E+04  6.534082E-11  8.505430E-10
        90  12  2.633190E+05  3.855019E+04  2.436284E+04 -2.399586E+04  5.949431E-10 -2.114199E-10
        90  13  9.495733E+04 -2.485383E+00  3.102759E+01 -2.398374E+04 -5.364579E-10  6.912540E-10
        90  14  9.495142E+04  5.318192E+00  5.294201E+01 -2.261226E+04 -5.259870E-10  7.445545E-10
        90  15  9.495555E+04  3.152708E+01  9.722552E+01 -2.398374E+04 -1.765205E-10  1.210889E-10
        90  16 -3.876564E+04 -3.024550E+04 -1.746477E+04 -2.399010E+04 -1.017317E-10  5.531990E-10
        90  17 -5.595668E+04 -3.425531E+04 -2.034470E+04 -2.260936E+04 -3.813025E-10  8.466371E-10
        90  18 -7.337928E+04 -3.848844E+04 -2.416883E+04 -2.397163E+04 -6.780314E-11  5.012315E-10
        90  19  2.286986E+05  3.023989E+04  1.752692E+04 -2.397740E+04 -2.818563E+03  1.019717E+04
        90  20  2.458828E+05  3.426510E+04  2.045060E+04 -2.261517E+04 -1.400151E+03  1.108972E+04
        90  21  2.633190E+05  3.855033E+04  2.436308E+04 -2.399586E+04  1.831620E+01  1.140248E+04
        90  22  9.495736E+04 -2.373711E+00  3.122302E+01 -2.398374E+04  2.002426E+01  1.019752E+04
        90  23  9.495146E+04  5.450269E+00  5.317315E+01 -2.261226E+04  4.650035E+01  1.109009E+04
        90  24  9.495559E+04  3.166671E+01  9.746988E+01 -2.398374E+04  7.297377E+01  1.140279E+04
        90  25 -3.876560E+04 -3.024538E+04 -1.746456E+04 -2.399008E+04  2.858029E+03  1.019787E+04
        90  26 -5.595664E+04 -3.425518E+04 -2.034447E+04 -2.260935E+04  1.492817E+03  1.109045E+04
        90  27 -7.337925E+04 -3.848830E+04 -2.416858E+04 -2.397162E+04  1.276171E+02  1.140310E+04
        91   1  2.743136E+05  4.126962E+04  2.693947E+04 -2.391510E+04 -3.765781E+02 -1.153147E+04
        91   2  2.907284E+05  4.619281E+04  3.469789E+04 -2.284557E+04 -1.079697E+04 -9.268444E+03
        91   3  3.089954E+05  5.308729E+04  4.973189E+04 -2.419816E+04 -2.121868E+04 -2.716081E+03
        91   4  9.496709E+04  4.634233E+01  1.304453E+02 -2.391243E+04 -8.999064E+01 -1.153177E+04
        91   5  9.493358E+04  1.512409E+02  2.400022E+02 -2.270141E+04 -2.117262E+02 -9.267427E+03
        91   6  9.496490E+04  4.401840E+02  4.752409E+02 -2.391247E+04 -3.344091E+02 -2.713130E+03
        91   7 -8.434715E+04 -4.117845E+04 -2.667920E+04 -2.390976E+04  1.965174E+02 -1.153206E+04
        91   8 -1.008235E+05 -4.589236E+04 -3.421886E+04 -2.255731E+04  1.037028E+04 -9.266404E+03
        91   9 -1.190223E+05 -5.220989E+04 -4.878280E+04 -2.362688E+04  2.054273E+04 -2.710159E+03
        91  10  2.743136E+05  4.126947E+04  2.693922E+04 -2.391510E+04  7.276469E-10 -8.298986E-10
        91  11  2.907282E+05  4.619268E+04  3.469751E+04 -2.284565E+04  7.801567E-10 -1.007900E-09
        91  12  3.089949E+05  5.308716E+04  4.973103E+04 -2.419821E+04 -2.540417E-10 -2.947065E-10
        91  13  9.496705E+04  4.619953E+01  1.301953E+02 -2.391243E+04 -6.444099E-10 -7.545292E-10
        91  14  9.493356E+04  1.511486E+02  2.398407E+02 -2.270142E+04 -4.142370E-10 -1.140353E-10
        91  15  9.496489E+04  4.401761E+02  4.752268E+02 -2.391247E+04 -1.186255E-09 -1.494239E-10
        91  16 -8.434719E+04 -4.117859E+04 -2.667945E+04 -2.390976E+04 -4.256957E-10  9.552339E-11
        91  17 -1.008236E+05 -4.589248E+04 -3.421922E+04 -2.255723E+04 -1.774368E-09  3.205489E-11
        91  18 -1.190228E+05 -5.221001E+04 -4.878361E+04 -2.362684E+04  6.045068E-10 -2.502649E-10
        91  19  2.743136E+05  4.126962E+04  2.693947E+04 -2.391510E+04  3.765781E+02  1.153147E+04
        91  20  2.907284E+05  4.619281E+04  3.469789E+04 -2.284557E+04  1.079697E+04  9.268444E+03
        91  21  3.089954E+05  5.308729E+04  4.973189E+04 -2.419816E+04  2.121868E+04  2.716081E+03
        91  22  9.496709E+04  4.634233E+01  1.304453E+02 -2.391243E+04  8.999064E+01  1.153177E+04
        91  23  9.493358E+04  1.512409E+02  2.400022E+02 -2.270141E+04  2.117262E+02  9.267427E+03
        91  24  9.496490E+04  4.401840E+02  4.752409E+02 -2.391247E+04  3.344091E+02  2.713130E+03
        91  25 -8.434715E+04 -4.117845E+04 -2.667920E+04 -2.390976E+04 -1.965174E+02  1.153206E+04
        91  26 -1.008235E+05 -4.589236E+04 -3.421886E+04 -2.255731E+04 -1.037028E+04  9.266404E+03
        91  27 -1.190223E+05 -5.220989E+04 -4.878280E+04 -2.362688E+04 -2.054273E+04  2.710159E+03
        92   1  4.195380E+04  2.105060E+05  4.024841E+04 -7.514842E+04  1.428704E+03  8.926654E+03
        92   2  2.715222E+04  1.520021E+05  2.265687E+04 -7.061008E+04  3.901353E+03  4.611026E+02
        92   3  1.352288E+04  9.489435E+04  1.086799E+04 -7.564225E+04  2.585489E+03 -8.004022E+03
        92   4 -8.025651E+02  3.777337E+04 -8.272851E+02 -7.564093E+04  1.430883E+03 -9.229985E+02
        92   5 -2.438006E+02  3.782046E+04 -1.550540E+02 -7.085552E+04  3.901710E+03 -8.393879E+02
        92   6  3.732432E+00  3.777772E+04  3.843330E+02 -7.564078E+04  2.583696E+03 -7.560153E+02
        92   7 -4.356102E+04 -1.349317E+05 -4.190470E+04 -7.613331E+04  1.433077E+03 -1.076992E+04
        92   8 -2.764062E+04 -7.634868E+04 -2.296763E+04 -7.110092E+04  3.902069E+03 -2.139644E+03
        92   9 -1.351557E+04 -1.933563E+04 -1.009926E+04 -7.563930E+04  2.581903E+03  6.491343E+03
        92  10  4.195377E+04  2.105060E+05  4.024825E+04 -7.514843E+04  6.627663E-10  7.426537E-10
        92  11  2.715221E+04  1.520020E+05  2.265685E+04 -7.061008E+04  1.862704E-09 -5.228937E-10
        92  12  1.352286E+04  9.489428E+04  1.086786E+04 -7.564223E+04  6.169337E-10 -1.650816E-09
        92  13 -8.025675E+02  3.777337E+04 -8.272906E+02 -7.564093E+04  7.118817E-10 -1.171498E-10
        92  14 -2.438172E+02  3.782046E+04 -1.550839E+02 -7.085552E+04 -1.446150E-09 -7.020921E-11
        92  15  3.725111E+00  3.777772E+04  3.843193E+02 -7.564077E+04  1.476173E-10 -3.615265E-10
        92  16 -4.356106E+04 -1.349318E+05 -4.190492E+04 -7.613330E+04  1.235942E-10 -8.629910E-10
        92  17 -2.764064E+04 -7.634868E+04 -2.296767E+04 -7.110091E+04  1.675200E-09  5.504351E-10
        92  18 -1.351559E+04 -1.933567E+04 -1.009935E+04 -7.563932E+04 -1.401514E-09  1.823604E-09
        92  19  4.195380E+04  2.105060E+05  4.024841E+04 -7.514842E+04 -1.428704E+03 -8.926654E+03
        92  20  2.715222E+04  1.520021E+05  2.265687E+04 -7.061008E+04 -3.901353E+03 -4.611026E+02
        92  21  1.352288E+04  9.489435E+04  1.086799E+04 -7.564225E+04 -2.585489E+03  8.004022E+03
        92  22 -8.025651E+02  3.777337E+04 -8.272851E+02 -7.564093E+04 -1.430883E+03  9.229985E+02
        92  23 -2.438006E+02  3.782046E+04 -1.550540E+02 -7.085552E+04 -3.901710E+03  8.393879E+02
        92  24  3.732432E+00  3.777772E+04  3.843330E+02 -7.564078E+04 -2.583696E+03  7.560153E+02
        92  25 -4.356102E+04 -1.349317E+05 -4.190470E+04 -7.613331E+04 -1.433077E+03  1.076992E+04
        92  26 -2.764062E+04 -7.634868E+04 -2.296763E+04 -7.110092E+04 -3.902069E+03  2.139644E+03
        92  27 -1.351557E+04 -1.933563E+04 -1.009926E+04 -7.563930E+04 -2.581903E+03 -6.491343E+03
        93   1  5.123185E+03  5.876501E+04  5.130913E+03 -7.571101E+04  5.304846E+02 -8.230236E+03
        93   2 -8.095258E+03  9.115989E+02 -3.842086E+03 -7.048849E+04 -2.645592E+03 -8.540713E+03
        93   3 -2.088883E+04 -5.679396E+04 -1.250755E+04 -7.507093E+04 -5.631732E+03 -8.851078E+03
        93   4  4.913924E+01  3.784684E+04  6.776382E+02 -7.569284E+04  5.286159E+02 -8.503596E+02
        93   5  3.332260E+02  3.773666E+04  1.475111E+03 -7.079029E+04 -2.647271E+03 -1.589712E+03
        93   6  1.116718E+03  3.784537E+04  2.877743E+03 -7.569262E+04 -5.633229E+03 -2.328980E+03
        93   7 -5.024905E+03  1.692920E+04 -3.775457E+03 -7.567467E+04  5.267475E+02  6.529272E+03
        93   8  8.761674E+03  7.456320E+04  6.792467E+03 -7.109210E+04 -2.648956E+03  5.361683E+03
        93   9  2.312183E+04  1.324937E+05  1.826294E+04 -7.631440E+04 -5.634740E+03  4.194077E+03
        93  10  5.123166E+03  5.876494E+04  5.130785E+03 -7.571101E+04 -8.749025E-10  1.424424E-09
        93  11 -8.095285E+03  9.115187E+02 -3.842236E+03 -7.048851E+04  3.092905E-10 -1.906110E-10
        93  12 -2.088888E+04 -5.679405E+04 -1.250775E+04 -7.507097E+04  3.408255E-10 -1.634555E-09
        93  13  4.913874E+01  3.784684E+04  6.776364E+02 -7.569284E+04 -3.093972E-10 -1.387774E-10
        93  14  3.332178E+02  3.773666E+04  1.475093E+03 -7.079029E+04  2.953953E-10 -6.309351E-11
        93  15  1.116682E+03  3.784536E+04  2.877673E+03 -7.569263E+04 -1.617158E-09 -3.345773E-10
        93  16 -5.024917E+03  1.692916E+04 -3.775537E+03 -7.567468E+04 -8.747339E-10 -1.569985E-09
        93  17  8.761659E+03  7.456317E+04  6.792400E+03 -7.109209E+04 -6.554464E-10  2.054632E-10
        93  18  2.312179E+04  1.324936E+05  1.826285E+04 -7.631438E+04 -1.463617E-09  1.810148E-09
        93  19  5.123185E+03  5.876501E+04  5.130913E+03 -7.571101E+04 -5.304846E+02  8.230236E+03
        93  20 -8.095258E+03  9.115989E+02 -3.842086E+03 -7.048849E+04  2.645592E+03  8.540713E+03
        93  21 -2.088883E+04 -5.679396E+04 -1.250755E+04 -7.507093E+04  5.631732E+03  8.851078E+03
        93  22  4.913924E+01  3.784684E+04  6.776382E+02 -7.569284E+04 -5.286159E+02  8.503596E+02
        93  23  3.332260E+02  3.773666E+04  1.475111E+03 -7.079029E+04  2.647271E+03  1.589712E+03
        93  24  1.116718E+03  3.784537E+04  2.877743E+03 -7.569262E+04  5.633229E+03  2.328980E+03
        93  25 -5.024905E+03  1.692920E+04 -3.775457E+03 -7.567467E+04 -5.267475E+02 -6.529272E+03
        93  26  8.761674E+03  7.456320E+04  6.792467E+03 -7.109210E+04  2.648956E+03 -5.361683E+03
        93  27  2.312183E+04  1.324937E+05  1.826294E+04 -7.631440E+04  5.634740E+03 -4.194077E+03
        94   1 -2.904709E+04 -9.269141E+04 -1.781799E+04 -7.532494E+04 -7.505011E+03 -9.150391E+03
        94   2 -4.008738E+04 -1.504366E+05 -2.844393E+04 -6.616369E+04 -7.655543E+03 -8.734159E+02
        94   3 -4.732003E+04 -2.083025E+05 -4.350708E+04 -6.645033E+04 -2.498980E+03  7.402808E+03
        94   4  1.479166E+03  3.822925E+04  3.887043E+03 -7.561321E+04 -7.506341E+03 -2.830444E+03
        94   5  4.590549E+03  3.724903E+04  7.236620E+03 -7.088851E+04 -7.654186E+03 -6.524344E+03
        94   6  1.358709E+04  3.822185E+04  1.446204E+04 -7.561109E+04 -2.495796E+03 -1.021807E+04
        94   7  3.200455E+04  1.691669E+05  2.559171E+04 -7.590154E+04 -7.507677E+03  3.490791E+03
        94   8  4.926652E+04  2.249687E+05  4.291572E+04 -7.561479E+04 -7.652743E+03 -1.217694E+04
        94   9  7.449036E+04  2.848030E+05  7.242820E+04 -8.477551E+04 -2.492093E+03 -2.784590E+04
        94  10 -2.904717E+04 -9.269152E+04 -1.781825E+04 -7.532500E+04  1.097750E-10  1.174486E-09
        94  11 -4.008745E+04 -1.504366E+05 -2.844404E+04 -6.616369E+04  1.711383E-09  5.615530E-10
        94  12 -4.732006E+04 -2.083026E+05 -4.350720E+04 -6.645031E+04 -4.594282E-11 -1.091734E-11
        94  13  1.479103E+03  3.822923E+04  3.886922E+03 -7.561323E+04 -9.838956E-10 -1.224458E-10
        94  14  4.590475E+03  3.724897E+04  7.236430E+03 -7.088855E+04  7.199378E-10 -4.910784E-11
        94  15  1.358705E+04  3.822174E+04  1.446183E+04 -7.561111E+04 -4.331151E-10 -1.736568E-10
        94  16  3.200449E+04  1.691669E+05  2.559158E+04 -7.590152E+04 -5.476858E-10 -1.264559E-09
        94  17  4.926641E+04  2.249685E+05  4.291533E+04 -7.561486E+04 -1.017554E-09 -5.030970E-10
        94  18  7.449014E+04  2.848022E+05  7.242674E+04 -8.477556E+04 -1.231761E-09  1.115935E-10
        94  19 -2.904709E+04 -9.269141E+04 -1.781799E+04 -7.532494E+04  7.505011E+03  9.150391E+03
        94  20 -4.008738E+04 -1.504366E+05 -2.844393E+04 -6.616369E+04  7.655543E+03  8.734159E+02
        94  21 -4.732003E+04 -2.083025E+05 -4.350708E+04 -6.645033E+04  2.498980E+03 -7.402808E+03
        94  22  1.479166E+03  3.822925E+04  3.887043E+03 -7.561321E+04  7.506341E+03  2.830444E+03
        94  23  4.590549E+03  3.724903E+04  7.236620E+03 -7.088851E+04  7.654186E+03  6.524344E+03
        94  24  1.358709E+04  3.822185E+04  1.446204E+04 -7.561109E+04  2.495796E+03  1.021807E+04
        94  25  3.200455E+04  1.691669E+05  2.559171E+04 -7.590154E+04  7.507677E+03 -3.490791E+03
        94  26  4.926652E+04  2.249687E+05  4.291572E+04 -7.561479E+04  7.652743E+03  1.217694E+04
        94  27  7.449036E+04  2.848030E+05  7.242820E+04 -8.477551E+04  2.492093E+03  2.784590E+04
        95   1 -8.788825E+04 -5.039253E+04 -3.266861E+04 -3.652271E+04 -1.563382E+04 -4.979348E+03
        95   2 -8.223061E+04 -3.048594E+04 -1.891923E+04 -3.408344E+04 -9.813458E+03 -8.537829E+02
        95   3 -8.043846E+04 -2.327963E+04 -1.308823E+04 -3.031376E+04 -3.433935E+03  1.781574E+03
        95   4 -4.093290E+04 -2.427309E+04 -1.878555E+04 -1.493771E+04 -1.238897E+04 -3.762499E+03
        95   5 -3.816367E+04 -1.078224E+04 -8.506702E+03 -1.835453E+04 -8.544002E+03 -3.777219E+02
        95   6 -3.886836E+04 -9.600097E+03 -4.581045E+03 -2.044118E+04 -4.139925E+03  1.516774E+03
        95   7  6.024150E+03  1.847057E+03 -4.902842E+03  6.648735E+03 -9.143897E+03 -2.545455E+03
        95   8  5.905081E+03  8.921793E+03  1.905643E+03 -2.624565E+03 -7.274455E+03  9.839142E+01
        95   9  2.703720E+03  4.079573E+03  3.926110E+03 -1.056799E+04 -4.845970E+03  1.251957E+03
        95  10 -8.788852E+04 -5.039262E+04 -3.266912E+04 -3.652277E+04 -5.325231E-10 -5.263317E-11
        95  11 -8.223072E+04 -3.048597E+04 -1.891941E+04 -3.408345E+04 -6.224960E-10 -4.219342E-10
        95  12 -8.043847E+04 -2.327964E+04 -1.308826E+04 -3.031375E+04 -6.445870E-10 -3.141006E-11
        95  13 -4.093307E+04 -2.427315E+04 -1.878586E+04 -1.493774E+04 -1.028546E-09 -7.118152E-11
        95  14 -3.816375E+04 -1.078226E+04 -8.506840E+03 -1.835453E+04  3.030398E-10 -1.712277E-10
        95  15 -3.886838E+04 -9.600104E+03 -4.581081E+03 -2.044118E+04  1.938782E-11 -1.294616E-10
        95  16  6.024059E+03  1.847028E+03 -4.903012E+03  6.648716E+03 -1.294252E-09 -1.004874E-10
        95  17  5.905024E+03  8.921779E+03  1.905544E+03 -2.624564E+03 -2.967375E-10  2.077198E-10
        95  18  2.703694E+03  4.079565E+03  3.926063E+03 -1.056798E+04  5.235898E-10  3.197739E-12
        95  19 -8.788825E+04 -5.039253E+04 -3.266861E+04 -3.652271E+04  1.563382E+04  4.979348E+03
        95  20 -8.223061E+04 -3.048594E+04 -1.891923E+04 -3.408344E+04  9.813458E+03  8.537829E+02
        95  21 -8.043846E+04 -2.327963E+04 -1.308823E+04 -3.031376E+04  3.433935E+03 -1.781574E+03
        95  22 -4.093290E+04 -2.427309E+04 -1.878555E+04 -1.493771E+04  1.238897E+04  3.762499E+03
        95  23 -3.816367E+04 -1.078224E+04 -8.506702E+03 -1.835453E+04  8.544002E+03  3.777219E+02
        95  24 -3.886836E+04 -9.600097E+03 -4.581045E+03 -2.044118E+04  4.139925E+03 -1.516774E+03
        95  25  6.024150E+03  1.847057E+03 -4.902842E+03  6.648735E+03  9.143897E+03  2.545455E+03
        95  26  5.905081E+03  8.921793E+03  1.905643E+03 -2.624565E+03  7.274455E+03 -9.839142E+01
        95  27  2.703720E+03  4.079573E+03  3.926110E+03 -1.056799E+04  4.845970E+03 -1.251957E+03
        96   1 -7.414834E+04 -2.359763E+04 -1.109467E+04 -3.003366E+04 -3.110187E+03  1.562921E+03
        96   2 -6.840041E+04 -1.996972E+04 -8.018548E+03 -2.756133E+04 -1.927771E+03  1.624775E+03
        96   3 -6.166130E+04 -1.816829E+04 -5.863053E+03 -2.651225E+04 -7.109478E+02  1.594866E+03
        96   4 -3.829311E+04 -1.026848E+04 -3.518834E+03 -1.992657E+04 -3.492980E+03  1.419337E+03
        96   5 -3.876062E+04 -9.082180E+03 -1.858047E+03 -1.932184E+04 -2.432165E+03  1.435593E+03
        96   6 -3.821287E+04 -9.698280E+03 -1.021512E+03 -2.014040E+04 -1.336946E+03  1.360086E+03
        96   7 -2.436835E+03  3.060672E+03  4.056851E+03 -9.819005E+03 -3.875795E+03  1.275745E+03
        96   8 -9.119939E+03  1.805430E+03  4.302409E+03 -1.108198E+04 -2.936585E+03  1.246403E+03
        96   9 -1.476369E+04 -1.228159E+03  3.820051E+03 -1.376828E+04 -1.962975E+03  1.125296E+03
        96  10 -7.414835E+04 -2.359763E+04 -1.109469E+04 -3.003366E+04  1.376216E-11  3.110003E-10
        96  11 -6.840042E+04 -1.996972E+04 -8.018560E+03 -2.756133E+04 -1.194304E-09 -5.335814E-11
        96  12 -6.166130E+04 -1.816829E+04 -5.863059E+03 -2.651225E+04 -9.595300E-10 -6.050547E-11
        96  13 -3.829312E+04 -1.026849E+04 -3.518861E+03 -1.992656E+04  6.041977E-12 -1.668024E-11
        96  14 -3.876063E+04 -9.082184E+03 -1.858062E+03 -1.932183E+04  2.861329E-10 -2.808151E-11
        96  15 -3.821287E+04 -9.698283E+03 -1.021519E+03 -2.014040E+04  2.041597E-10  1.861820E-10
        96  16 -2.436852E+03  3.060666E+03  4.056820E+03 -9.819001E+03 -5.185924E-10 -2.896728E-10
        96  17 -9.119949E+03  1.805426E+03  4.302390E+03 -1.108198E+04 -1.109725E-10 -1.354427E-11
        96  18 -1.476369E+04 -1.228161E+03  3.820042E+03 -1.376828E+04  5.447020E-10  4.039129E-10
        96  19 -7.414834E+04 -2.359763E+04 -1.109467E+04 -3.003366E+04  3.110187E+03 -1.562921E+03
        96  20 -6.840041E+04 -1.996972E+04 -8.018548E+03 -2.756133E+04  1.927771E+03 -1.624775E+03
        96  21 -6.166130E+04 -1.816829E+04 -5.863053E+03 -2.651225E+04  7.109478E+02 -1.594866E+03
        96  22 -3.829311E+04 -1.026848E+04 -3.518834E+03 -1.992657E+04  3.492980E+03 -1.419337E+03
        96  23 -3.876062E+04 -9.082180E+03 -1.858047E+03 -1.932184E+04  2.432165E+03 -1.435593E+03
        96  24 -3.821287E+04 -9.698280E+03 -1.021512E+03 -2.014040E+04  1.336946E+03 -1.360086E+03
        96  25 -2.436835E+03  3.060672E+03  4.056851E+03 -9.819005E+03  3.875795E+03 -1.275745E+03
        96  26 -9.119939E+03  1.805430E+03  4.302409E+03 -1.108198E+04  2.936585E+03 -1.246403E+03
        96  27 -1.476369E+04 -1.228159E+03  3.820051E+03 -1.376828E+04  1.962975E+03 -1.125296E+03
        97   1 -5.717658E+04 -1.664376E+04 -4.671112E+03 -2.534049E+04 -4.842258E+02  1.367256E+03
        97   2 -5.149982E+04 -1.366620E+04 -3.035903E+03 -2.284463E+04 -9.315610E+01  9.891963E+02
        97   3 -4.454128E+04 -1.203273E+04 -1.568965E+03 -2.186371E+04  3.000235E+02  6.054723E+02
        97   4 -3.817135E+04 -9.725042E+03 -7.694881E+02 -2.011236E+04 -1.090355E+03  1.139932E+03
        97   5 -3.881213E+04 -9.047943E+03 -4.231766E+02 -1.935706E+04 -7.067825E+02  7.590652E+02
        97   6 -3.816966E+04 -9.713416E+03 -2.391841E+02 -2.011670E+04 -3.211042E+02  3.725340E+02
        97   7 -1.916576E+04 -2.806300E+03  3.132117E+03 -1.488409E+04 -1.696503E+03  9.126009E+02
        97   8 -2.612432E+04 -4.429690E+03  2.189528E+03 -1.586943E+04 -1.320420E+03  5.289301E+02
        97   9 -3.179805E+04 -7.394122E+03  1.090583E+03 -1.836968E+04 -9.422339E+02  1.395950E+02
        97  10 -5.717658E+04 -1.664376E+04 -4.671116E+03 -2.534049E+04 -7.294305E-10  2.267867E-10
        97  11 -5.149982E+04 -1.366620E+04 -3.035905E+03 -2.284463E+04  1.573563E-09  3.583358E-10
        97  12 -4.454128E+04 -1.203273E+04 -1.568966E+03 -2.186371E+04  4.850851E-10 -3.147121E-11
        97  13 -3.817135E+04 -9.725044E+03 -7.694927E+02 -2.011236E+04  4.278984E-10  4.063878E-10
        97  14 -3.881213E+04 -9.047944E+03 -4.231787E+02 -1.935705E+04 -9.271702E-10  4.092644E-10
        97  15 -3.816966E+04 -9.713416E+03 -2.391845E+02 -2.011670E+04  1.047665E-09 -2.061876E-10
        97  16 -1.916576E+04 -2.806301E+03  3.132110E+03 -1.488409E+04  7.286998E-10  5.597136E-10
        97  17 -2.612432E+04 -4.429691E+03  2.189525E+03 -1.586943E+04  8.732438E-10  3.875302E-10
        97  18 -3.179805E+04 -7.394122E+03  1.090581E+03 -1.836968E+04  6.168711E-11 -4.042123E-10
        97  19 -5.717658E+04 -1.664376E+04 -4.671112E+03 -2.534049E+04  4.842258E+02 -1.367256E+03
        97  20 -5.149982E+04 -1.366620E+04 -3.035903E+03 -2.284463E+04  9.315610E+01 -9.891963E+02
        97  21 -4.454128E+04 -1.203273E+04 -1.568965E+03 -2.186371E+04 -3.000235E+02 -6.054723E+02
        97  22 -3.817135E+04 -9.725042E+03 -7.694881E+02 -2.011236E+04  1.090355E+03 -1.139932E+03
        97  23 -3.881213E+04 -9.047943E+03 -4.231766E+02 -1.935706E+04  7.067825E+02 -7.590652E+02
        97  24 -3.816966E+04 -9.713416E+03 -2.391841E+02 -2.011670E+04  3.211042E+02 -3.725340E+02
        97  25 -1.916576E+04 -2.806300E+03  3.132117E+03 -1.488409E+04  1.696503E+03 -9.126009E+02
        97  26 -2.612432E+04 -4.429690E+03  2.189528E+03 -1.586943E+04  1.320420E+03 -5.289301E+02
        97  27 -3.179805E+04 -7.394122E+03  1.090583E+03 -1.836968E+04  9.422339E+02 -1.395950E+02
        98   1 -4.015046E+04 -1.042778E+04 -5.733863E+02 -2.065510E+04  4.362319E+02  3.455835E+02
        98   2 -3.449191E+04 -7.466607E+03  7.762968E+02 -1.815399E+04  6.696415E+02 -1.004115E+02
        98   3 -2.752264E+04 -5.826057E+03  2.082648E+03 -1.716595E+04  9.031664E+02 -5.467136E+02
        98   4 -3.816438E+04 -9.714155E+03 -1.842228E+02 -2.011419E+04 -1.836797E+02  1.131021E+02
        98   5 -3.881981E+04 -9.054744E+03 -1.156546E+02 -1.935729E+04  4.931496E+01 -3.330516E+02
        98   6 -3.816462E+04 -9.715935E+03 -9.013217E+01 -2.011352E+04  2.824237E+02 -7.795118E+02
        98   7 -3.617827E+04 -9.000526E+03  2.049466E+02 -1.957327E+04 -8.035983E+02 -1.193819E+02
        98   8 -4.314771E+04 -1.064289E+04 -1.007610E+03 -2.056058E+04 -5.710095E+02 -5.656909E+02
        98   9 -4.880649E+04 -1.360580E+04 -2.262918E+03 -2.306105E+04 -3.383077E+02 -1.012306E+03
        98  10 -4.015046E+04 -1.042778E+04 -5.733869E+02 -2.065511E+04 -7.112874E-10 -6.734388E-10
        98  11 -3.449191E+04 -7.466607E+03  7.762959E+02 -1.815399E+04  8.406142E-10 -3.028790E-10
        98  12 -2.752264E+04 -5.826058E+03  2.082646E+03 -1.716595E+04 -2.644543E-10 -2.994039E-10
        98  13 -3.816438E+04 -9.714155E+03 -1.842229E+02 -2.011419E+04 -3.836236E-10 -4.171691E-10
        98  14 -3.881981E+04 -9.054744E+03 -1.156549E+02 -1.935729E+04 -1.807773E-10 -2.560581E-10
        98  15 -3.816462E+04 -9.715936E+03 -9.013347E+01 -2.011352E+04 -1.766523E-10 -1.172065E-10
        98  16 -3.617827E+04 -9.000527E+03  2.049453E+02 -1.957327E+04 -1.076883E-10 -1.530650E-10
        98  17 -4.314771E+04 -1.064289E+04 -1.007612E+03 -2.056058E+04  1.031248E-09 -1.228142E-10
        98  18 -4.880649E+04 -1.360581E+04 -2.262920E+03 -2.306105E+04  1.605165E-10 -3.441356E-12
        98  19 -4.015046E+04 -1.042778E+04 -5.733863E+02 -2.065510E+04 -4.362319E+02 -3.455835E+02
        98  20 -3.449191E+04 -7.466607E+03  7.762968E+02 -1.815399E+04 -6.696415E+02  1.004115E+02
        98  21 -2.752264E+04 -5.826057E+03  2.082648E+03 -1.716595E+04 -9.031664E+02  5.467136E+02
        98  22 -3.816438E+04 -9.714155E+03 -1.842228E+02 -2.011419E+04  1.836797E+02 -1.131021E+02
        98  23 -3.881981E+04 -9.054744E+03 -1.156546E+02 -1.935729E+04 -4.931496E+01  3.330516E+02
        98  24 -3.816462E+04 -9.715935E+03 -9.013217E+01 -2.011352E+04 -2.824237E+02  7.795118E+02
        98  25 -3.617827E+04 -9.000526E+03  2.049466E+02 -1.957327E+04  8.035983E+02  1.193819E+02
        98  26 -4.314771E+04 -1.064289E+04 -1.007610E+03 -2.056058E+04  5.710095E+02  5.656909E+02
        98  27 -4.880649E+04 -1.360580E+04 -2.262918E+03 -2.306105E+04  3.383077E+02  1.012306E+03
        99   1 -2.314051E+04 -4.217811E+03  3.023624E+03 -1.595678E+04  1.020429E+03 -8.135975E+02
        99   2 -1.748227E+04 -1.255126E+03  4.280955E+03 -1.345619E+04  1.251587E+03 -1.260695E+03
        99   3 -1.051323E+04  3.871257E+02  5.496669E+03 -1.246859E+04  1.482558E+03 -1.707280E+03
        99   4 -3.816470E+04 -9.715959E+03 -8.969448E+01 -2.011351E+04  3.996605E+02 -1.046407E+03
        99   5 -3.881992E+04 -9.055005E+03 -1.131206E+02 -1.935727E+04  6.314907E+02 -1.493259E+03
        99   6 -3.816452E+04 -9.714602E+03 -1.786909E+02 -2.011402E+04  8.631342E+02 -1.939600E+03
        99   7 -5.318855E+04 -1.521404E+04 -3.202991E+03 -2.427011E+04 -2.210874E+02 -1.279209E+03
        99   8 -6.015710E+04 -1.685485E+04 -4.507218E+03 -2.525816E+04  1.141692E+01 -1.725814E+03
        99   9 -6.581522E+04 -1.981634E+04 -5.854147E+03 -2.775919E+04  2.437350E+02 -2.171910E+03
        99  10 -2.314051E+04 -4.217812E+03  3.023621E+03 -1.595678E+04  4.668004E-10 -2.913830E-10
        99  11 -1.748227E+04 -1.255128E+03  4.280949E+03 -1.345619E+04 -1.130673E-09  2.317458E-10
        99  12 -1.051324E+04  3.871220E+02  5.496659E+03 -1.246859E+04 -5.698496E-10  5.410184E-10
        99  13 -3.816470E+04 -9.715960E+03 -8.969684E+01 -2.011351E+04 -5.448682E-10 -2.031534E-11
        99  14 -3.881992E+04 -9.055007E+03 -1.131256E+02 -1.935727E+04 -3.280485E-10  1.447168E-10
        99  15 -3.816452E+04 -9.714606E+03 -1.786994E+02 -2.011402E+04 -6.501937E-10  3.514926E-10
        99  16 -5.318855E+04 -1.521405E+04 -3.202995E+03 -2.427012E+04  3.569924E-10  2.289835E-10
        99  17 -6.015710E+04 -1.685485E+04 -4.507224E+03 -2.525816E+04 -5.315158E-10  2.400618E-10
        99  18 -6.581522E+04 -1.981635E+04 -5.854156E+03 -2.775919E+04 -1.738573E-10  2.292652E-10
        99  19 -2.314051E+04 -4.217811E+03  3.023624E+03 -1.595678E+04 -1.020429E+03  8.135975E+02
        99  20 -1.748227E+04 -1.255126E+03  4.280955E+03 -1.345619E+04 -1.251587E+03  1.260695E+03
        99  21 -1.051323E+04  3.871257E+02  5.496669E+03 -1.246859E+04 -1.482558E+03  1.707280E+03
        99  22 -3.816470E+04 -9.715959E+03 -8.969448E+01 -2.011351E+04 -3.996605E+02  1.046407E+03
        99  23 -3.881992E+04 -9.055005E+03 -1.131206E+02 -1.935727E+04 -6.314907E+02  1.493259E+03
        99  24 -3.816452E+04 -9.714602E+03 -1.786909E+02 -2.011402E+04 -8.631342E+02  1.939600E+03
        99  25 -5.318855E+04 -1.521404E+04 -3.202991E+03 -2.427011E+04  2.210874E+02  1.279209E+03
        99  26 -6.015710E+04 -1.685485E+04 -4.507218E+03 -2.525816E+04 -1.141692E+01  1.725814E+03
        99  27 -6.581522E+04 -1.981634E+04 -5.854147E+03 -2.775919E+04 -2.437350E+02  2.171910E+03
       100   1 -6.133893E+03  1.993428E+03  6.384167E+03 -1.126477E+04  1.620663E+03 -1.966449E+03
       100   2 -4.624010E+02  4.957575E+03  7.490610E+03 -8.764749E+03  1.987769E+03 -2.358449E+03
       100   3  6.495018E+03  6.582158E+03  8.448763E+03 -7.779200E+03  2.351772E+03 -2.742143E+03
       100   4 -3.816983E+04 -9.713937E+03 -2.315845E+02 -2.011641E+04  9.994826E+02 -2.199434E+03
       100   5 -3.881265E+04 -9.048829E+03 -4.089002E+02 -1.935706E+04  1.377588E+03 -2.587322E+03
       100   6 -3.817173E+04 -9.725473E+03 -7.432159E+02 -2.011221E+04  1.752586E+03 -2.966902E+03
       100   7 -7.020470E+04 -2.142121E+04 -6.847385E+03 -2.896763E+04  3.783364E+02 -2.432407E+03
       100   8 -7.716123E+04 -2.305505E+04 -8.308442E+03 -2.994873E+04  7.674489E+02 -2.816178E+03
       100   9 -8.283607E+04 -2.603280E+04 -9.935199E+03 -3.244430E+04  1.153451E+03 -3.191643E+03
       100  10 -6.133897E+03  1.993423E+03  6.384155E+03 -1.126476E+04  4.750032E-10  4.077756E-10
       100  11 -4.624067E+02  4.957568E+03  7.490592E+03 -8.764745E+03  6.182434E-10 -1.296477E-10
       100  12  6.495010E+03  6.582149E+03  8.448739E+03 -7.779195E+03 -5.567294E-10  5.615817E-11
       100  13 -3.816983E+04 -9.713942E+03 -2.315955E+02 -2.011641E+04  9.714099E-10  3.012037E-10
       100  14 -3.881265E+04 -9.048837E+03 -4.089164E+02 -1.935706E+04  5.298004E-10  2.060450E-10
       100  15 -3.817173E+04 -9.725483E+03 -7.432382E+02 -2.011220E+04  1.677412E-09  8.790807E-11
       100  16 -7.020470E+04 -2.142122E+04 -6.847397E+03 -2.896763E+04 -1.541849E-10  2.000442E-10
       100  17 -7.716124E+04 -2.305506E+04 -8.308458E+03 -2.994873E+04  1.234789E-09  2.710771E-10
       100  18 -8.283607E+04 -2.603282E+04 -9.935221E+03 -3.244429E+04  9.784906E-10  1.329603E-10
       100  19 -6.133893E+03  1.993428E+03  6.384167E+03 -1.126477E+04 -1.620663E+03  1.966449E+03
       100  20 -4.624010E+02  4.957575E+03  7.490610E+03 -8.764749E+03 -1.987769E+03  2.358449E+03
       100  21  6.495018E+03  6.582158E+03  8.448763E+03 -7.779200E+03 -2.351772E+03  2.742143E+03
       100  22 -3.816983E+04 -9.713937E+03 -2.315845E+02 -2.011641E+04 -9.994826E+02  2.199434E+03
       100  23 -3.881265E+04 -9.048829E+03 -4.089002E+02 -1.935706E+04 -1.377588E+03  2.587322E+03
       100  24 -3.817173E+04 -9.725473E+03 -7.432159E+02 -2.011221E+04 -1.752586E+03  2.966902E+03
       100  25 -7.020470E+04 -2.142121E+04 -6.847385E+03 -2.896763E+04 -3.783364E+02  2.432407E+03
       100  26 -7.716123E+04 -2.305505E+04 -8.308442E+03 -2.994873E+04 -7.674489E+02  2.816178E+03
       100  27 -8.283607E+04 -2.603280E+04 -9.935199E+03 -3.244430E+04 -1.153451E+03  3.191643E+03
       101   1  1.089622E+04  8.162183E+03  9.144904E+03 -6.658849E+03  2.622827E+03 -2.953854E+03
       101   2  1.653437E+04  1.119311E+04  9.673554E+03 -3.983381E+03  3.500336E+03 -3.088553E+03
       101   3  2.323076E+04  1.247661E+04  9.547550E+03 -2.730739E+03  4.327463E+03 -3.088812E+03
       101   4 -3.821210E+04 -9.699085E+03 -9.864318E+02 -2.013847E+04  1.994545E+03 -3.189537E+03
       101   5 -3.876242E+04 -9.083063E+03 -1.794063E+03 -1.932379E+04  3.050203E+03 -3.257432E+03
       101   6 -3.828994E+04 -1.024988E+04 -3.397561E+03 -1.993203E+04  4.055469E+03 -3.190884E+03
       101   7 -8.731835E+04 -2.756031E+04 -1.111800E+04 -3.361722E+04  1.366311E+03 -3.425201E+03
       101   8 -9.405630E+04 -2.935907E+04 -1.326190E+04 -3.466300E+04  2.600112E+03 -3.426296E+03
       101   9 -9.980679E+04 -3.297605E+04 -1.634288E+04 -3.713175E+04  3.783504E+03 -3.292945E+03
       101  10  1.089621E+04  8.162172E+03  9.144875E+03 -6.658843E+03 -1.145956E-10  1.674838E-10
       101  11  1.653435E+04  1.119310E+04  9.673514E+03 -3.983372E+03 -2.748492E-10  5.356249E-11
       101  12  2.323074E+04  1.247660E+04  9.547497E+03 -2.730728E+03 -4.895312E-10  1.420255E-10
       101  13 -3.821211E+04 -9.699097E+03 -9.864584E+02 -2.013847E+04 -4.123430E-11 -9.511737E-12
       101  14 -3.876243E+04 -9.083077E+03 -1.794100E+03 -1.932378E+04 -1.622754E-09  6.768298E-11
       101  15 -3.828996E+04 -1.024989E+04 -3.397611E+03 -1.993202E+04 -1.862434E-09  9.603832E-11
       101  16 -8.731835E+04 -2.756032E+04 -1.111803E+04 -3.361722E+04  8.251514E-12  2.151712E-10
       101  17 -9.405631E+04 -2.935908E+04 -1.326194E+04 -3.466299E+04 -1.119665E-09  3.802458E-10
       101  18 -9.980681E+04 -3.297606E+04 -1.634293E+04 -3.713174E+04  3.041226E-10 -1.885427E-10
       101  19  1.089622E+04  8.162183E+03  9.144904E+03 -6.658849E+03 -2.622827E+03  2.953854E+03
       101  20  1.653437E+04  1.119311E+04  9.673554E+03 -3.983381E+03 -3.500336E+03  3.088553E+03
       101  21  2.323076E+04  1.247661E+04  9.547550E+03 -2.730739E+03 -4.327463E+03  3.088812E+03
       101  22 -3.821210E+04 -9.699085E+03 -9.864318E+02 -2.013847E+04 -1.994545E+03  3.189537E+03
       101  23 -3.876242E+04 -9.083063E+03 -1.794063E+03 -1.932379E+04 -3.050203E+03  3.257432E+03
       101  24 -3.828994E+04 -1.024988E+04 -3.397561E+03 -1.993203E+04 -4.055469E+03  3.190884E+03
       101  25 -8.731835E+04 -2.756031E+04 -1.111800E+04 -3.361722E+04 -1.366311E+03  3.425201E+03
       101  26 -9.405630E+04 -2.935907E+04 -1.326190E+04 -3.466300E+04 -2.600112E+03  3.426296E+03
       101  27 -9.980679E+04 -3.297605E+04 -1.634288E+04 -3.713175E+04 -3.783504E+03  3.292945E+03
       102   1  2.836499E+04  1.353106E+04  9.448749E+03 -3.395313E+03  5.433955E+03 -3.027333E+03
       102   2  3.159087E+04  1.831930E+04  7.853733E+03  4.295820E+03  6.670607E+03 -1.959485E+03
       102   3  3.204694E+04  1.178639E+04  2.417379E+03  1.325897E+04  7.088353E+03  1.291313E+03
       102   4 -3.885229E+04 -9.597663E+03 -4.423119E+03 -2.042088E+04  4.688444E+03 -3.307029E+03
       102   5 -3.817786E+04 -1.073324E+04 -8.213412E+03 -1.839997E+04  8.819052E+03 -1.153595E+03
       102   6 -4.084686E+04 -2.376397E+04 -1.813788E+04 -1.510715E+04  1.213068E+04  3.182844E+03
       102   7 -1.060649E+05 -3.272611E+04 -1.829519E+04 -3.744479E+04  3.943021E+03 -3.586697E+03
       102   8 -1.079408E+05 -3.978468E+04 -2.428063E+04 -4.109304E+04  1.096721E+04 -3.478406E+02
       102   9 -1.137337E+05 -5.931204E+04 -3.869307E+04 -4.346928E+04  1.717226E+04  5.073926E+03
       102  10  2.836496E+04  1.353104E+04  9.448676E+03 -3.395299E+03 -2.639606E-10  1.791571E-10
       102  11  3.159082E+04  1.831928E+04  7.853642E+03  4.295831E+03  2.732837E-10  1.960531E-14
       102  12  3.204688E+04  1.178637E+04  2.417281E+03  1.325896E+04 -6.906846E-10 -1.479553E-10
       102  13 -3.885232E+04 -9.597681E+03 -4.423181E+03 -2.042087E+04  6.460792E-11 -2.525143E-10
       102  14 -3.817795E+04 -1.073327E+04 -8.213561E+03 -1.839997E+04 -9.901291E-10 -3.725651E-10
       102  15 -4.084702E+04 -2.376402E+04 -1.813818E+04 -1.510718E+04  1.081170E-09  2.695148E-10
       102  16 -1.060649E+05 -3.272613E+04 -1.829525E+04 -3.744477E+04  3.752670E-10 -5.786373E-10
       102  17 -1.079410E+05 -3.978471E+04 -2.428086E+04 -4.109303E+04 -3.698049E-10 -1.944158E-10
       102  18 -1.137340E+05 -5.931215E+04 -3.869367E+04 -4.346935E+04 -6.147863E-10 -7.471565E-11
       102  19  2.836499E+04  1.353106E+04  9.448749E+03 -3.395313E+03 -5.433955E+03  3.027333E+03
       102  20  3.159087E+04  1.831930E+04  7.853733E+03  4.295820E+03 -6.670607E+03  1.959485E+03
       102  21  3.204694E+04  1.178639E+04  2.417379E+03  1.325897E+04 -7.088353E+03 -1.291313E+03
       102  22 -3.885229E+04 -9.597663E+03 -4.423119E+03 -2.042088E+04 -4.688444E+03  3.307029E+03
       102  23 -3.817786E+04 -1.073324E+04 -8.213412E+03 -1.839997E+04 -8.819052E+03  1.153595E+03
       102  24 -4.084686E+04 -2.376397E+04 -1.813788E+04 -1.510715E+04 -1.213068E+04 -3.182844E+03
       102  25 -1.060649E+05 -3.272611E+04 -1.829519E+04 -3.744479E+04 -3.943021E+03  3.586697E+03
       102  26 -1.079408E+05 -3.978468E+04 -2.428063E+04 -4.109304E+04 -1.096721E+04  3.478406E+02
       102  27 -1.137337E+05 -5.931204E+04 -3.869307E+04 -4.346928E+04 -1.717226E+04 -5.073926E+03
       103   1  2.315732E+05  3.761927E+04  3.348997E+04  3.405261E+03  9.101063E+03 -2.874459E+03
       103   2  2.217302E+05  4.219998E+04  2.849201E+04  7.025768E+03  3.532198E+03 -9.888511E+03
       103   3  2.114433E+05  4.209570E+04  2.594894E+04  1.216235E+04 -2.037229E+03 -1.245443E+04
       103   4  2.534592E+04 -1.315236E+04 -1.419330E+04  1.205180E+04 -9.967615E+03 -2.878587E+03
       103   5  2.636573E+04 -3.973592E+03 -7.052676E+03  1.129213E+04 -6.352980E+03 -9.891208E+03
       103   6  2.534697E+04 -1.074869E+03 -3.833798E+03  1.204856E+04 -2.739119E+03 -1.245498E+04
       103   7 -1.808411E+05 -6.392650E+04 -6.187799E+04  2.069544E+04 -2.903001E+04 -2.883247E+03
       103   8 -1.689614E+05 -5.014919E+04 -4.259851E+04  1.555711E+04 -1.623513E+04 -9.894042E+03
       103   9 -1.607150E+05 -4.424718E+04 -3.361744E+04  1.193481E+04 -3.440807E+03 -1.245552E+04
       103  10  2.315731E+05  3.761924E+04  3.348979E+04  3.405282E+03  2.963487E-10 -1.237806E-10
       103  11  2.217302E+05  4.219987E+04  2.849180E+04  7.025796E+03 -3.989280E-10 -7.462121E-10
       103  12  2.114433E+05  4.209553E+04  2.594864E+04  1.216233E+04 -4.989725E-11 -8.501770E-10
       103  13  2.534581E+04 -1.315240E+04 -1.419350E+04  1.205178E+04  6.624846E-11  6.418207E-11
       103  14  2.636566E+04 -3.973708E+03 -7.052935E+03  1.129208E+04 -5.990042E-10 -4.877397E-10
       103  15  2.534692E+04 -1.075038E+03 -3.834104E+03  1.204854E+04  9.842246E-10 -1.532984E-10
       103  16 -1.808421E+05 -6.392674E+04 -6.187959E+04  2.069537E+04 -1.668362E-09 -1.029290E-10
       103  17 -1.689617E+05 -5.014937E+04 -4.259919E+04  1.555698E+04  1.277566E-09 -1.001247E-09
       103  18 -1.607150E+05 -4.424735E+04 -3.361776E+04  1.193478E+04  8.130859E-10 -6.410373E-10
       103  19  2.315732E+05  3.761927E+04  3.348997E+04  3.405261E+03 -9.101063E+03  2.874459E+03
       103  20  2.217302E+05  4.219998E+04  2.849201E+04  7.025768E+03 -3.532198E+03  9.888511E+03
       103  21  2.114433E+05  4.209570E+04  2.594894E+04  1.216235E+04  2.037229E+03  1.245443E+04
       103  22  2.534592E+04 -1.315236E+04 -1.419330E+04  1.205180E+04  9.967615E+03  2.878587E+03
       103  23  2.636573E+04 -3.973592E+03 -7.052676E+03  1.129213E+04  6.352980E+03  9.891208E+03
       103  24  2.534697E+04 -1.074869E+03 -3.833798E+03  1.204856E+04  2.739119E+03  1.245498E+04
       103  25 -1.808411E+05 -6.392650E+04 -6.187799E+04  2.069544E+04  2.903001E+04  2.883247E+03
       103  26 -1.689614E+05 -5.014919E+04 -4.259851E+04  1.555711E+04  1.623513E+04  9.894042E+03
       103  27 -1.607150E+05 -4.424718E+04 -3.361744E+04  1.193481E+04  3.440807E+03  1.245552E+04
       104   1  2.052683E+05  4.063759E+04  2.520625E+04  1.170691E+04 -1.495563E+03 -1.249206E+04
       104   2  1.952558E+05  3.873683E+04  2.384676E+04  1.105391E+04 -1.770734E+03 -1.259747E+04
       104   3  1.852074E+05  3.654641E+04  2.259428E+04  1.223362E+04 -2.046099E+03 -1.218935E+04
       104   4  2.575155E+04 -8.779513E+02 -2.881162E+03  1.211916E+04 -2.242657E+03 -1.249262E+04
       104   5  2.586206E+04 -2.204390E+02 -1.569018E+03  1.120264E+04 -1.457771E+03 -1.259771E+04
       104   6  2.575266E+04 -3.660568E+01 -8.859420E+02  1.211887E+04 -6.730673E+02 -1.218919E+04
       104   7 -1.537331E+05 -4.239508E+04 -3.096934E+04  1.253127E+04 -2.989543E+03 -1.249319E+04
       104   8 -1.435029E+05 -3.917907E+04 -2.698536E+04  1.135133E+04 -1.144891E+03 -1.259795E+04
       104   9 -1.336765E+05 -3.662081E+04 -2.436661E+04  1.200415E+04  6.996266E+02 -1.218902E+04
       104  10  2.052683E+05  4.063742E+04  2.520595E+04  1.170690E+04 -6.431546E-10 -9.276282E-10
       104  11  1.952558E+05  3.873666E+04  2.384646E+04  1.105389E+04 -7.495263E-10  1.720078E-10
       104  12  1.852074E+05  3.654625E+04  2.259400E+04  1.223360E+04  5.349553E-10  4.126368E-10
       104  13  2.575150E+04 -8.781203E+02 -2.881465E+03  1.211913E+04  6.091895E-10 -4.488578E-10
       104  14  2.586201E+04 -2.206100E+02 -1.569320E+03  1.120262E+04 -8.893998E-10 -1.296041E-10
       104  15  2.575262E+04 -3.676535E+01 -8.862221E+02  1.211886E+04 -7.906730E-10 -4.627480E-10
       104  16 -1.537332E+05 -4.239525E+04 -3.096965E+04  1.253124E+04  1.094881E-09  2.783656E-10
       104  17 -1.435030E+05 -3.917924E+04 -2.698566E+04  1.135131E+04  2.769058E-10  2.072080E-10
       104  18 -1.336766E+05 -3.662097E+04 -2.436689E+04  1.200415E+04  1.668657E-11 -3.471586E-10
       104  19  2.052683E+05  4.063759E+04  2.520625E+04  1.170691E+04  1.495563E+03  1.249206E+04
       104  20  1.952558E+05  3.873683E+04  2.384676E+04  1.105391E+04  1.770734E+03  1.259747E+04
       104  21  1.852074E+05  3.654641E+04  2.259428E+04  1.223362E+04  2.046099E+03  1.218935E+04
       104  22  2.575155E+04 -8.779513E+02 -2.881162E+03  1.211916E+04  2.242657E+03  1.249262E+04
       104  23  2.586206E+04 -2.204390E+02 -1.569018E+03  1.120264E+04  1.457771E+03  1.259771E+04
       104  24  2.575266E+04 -3.660568E+01 -8.859420E+02  1.211887E+04  6.730673E+02  1.218919E+04
       104  25 -1.537331E+05 -4.239508E+04 -3.096934E+04  1.253127E+04  2.989543E+03  1.249319E+04
       104  26 -1.435029E+05 -3.917907E+04 -2.698536E+04  1.135133E+04  1.144891E+03  1.259795E+04
       104  27 -1.336765E+05 -3.662081E+04 -2.436661E+04  1.200415E+04 -6.996266E+02  1.218902E+04
       105   1  1.789139E+05  3.507941E+04  2.177178E+04  1.218849E+04 -1.907642E+03 -1.178379E+04
       105   2  1.688942E+05  3.279441E+04  2.048549E+04  1.125509E+04 -1.842900E+03 -1.109168E+04
       105   3  1.588632E+05  3.049836E+04  1.915427E+04  1.218991E+04 -1.778245E+03 -1.034031E+04
       105   4  2.579464E+04 -2.903695E+01 -6.698536E+02  1.212678E+04 -5.399148E+02 -1.178359E+04
       105   5  2.581145E+04  8.556765E+00 -3.775672E+02  1.119265E+04 -3.528828E+02 -1.109137E+04
       105   6  2.579561E+04  1.386114E+01 -2.151563E+02  1.212677E+04 -1.659359E+02 -1.033989E+04
       105   7 -1.273010E+05 -3.513857E+04 -2.311188E+04  1.206509E+04  8.274889E+02 -1.178338E+04
       105   8 -1.172507E+05 -3.277824E+04 -2.124096E+04  1.113022E+04  1.136806E+03 -1.109106E+04
       105   9 -1.072542E+05 -3.047145E+04 -1.958487E+04  1.206363E+04  1.446042E+03 -1.033946E+04
       105  10  1.789139E+05  3.507926E+04  2.177151E+04  1.218847E+04 -8.072395E-10  4.233471E-10
       105  11  1.688942E+05  3.279428E+04  2.048526E+04  1.125507E+04  1.051114E-09 -1.629380E-10
       105  12  1.588632E+05  3.049824E+04  1.915406E+04  1.218990E+04  2.096344E-09 -7.034005E-10
       105  13  2.579461E+04 -2.918613E+01 -6.701150E+02  1.212678E+04  6.990652E-11 -6.230881E-10
       105  14  2.581142E+04  8.424630E+00 -3.777986E+02  1.119265E+04 -3.657275E-10  2.922747E-10
       105  15  2.579558E+04  1.374633E+01 -2.153573E+02  1.212677E+04 -5.553210E-10  3.858698E-10
       105  16 -1.273011E+05 -3.513872E+04 -2.311215E+04  1.206510E+04  8.321422E-10 -1.071324E-11
       105  17 -1.172507E+05 -3.277837E+04 -2.124120E+04  1.113023E+04 -4.498912E-10  8.355738E-10
       105  18 -1.072542E+05 -3.047156E+04 -1.958507E+04  1.206365E+04 -1.017863E-09 -5.482364E-11
       105  19  1.789139E+05  3.507941E+04  2.177178E+04  1.218849E+04  1.907642E+03  1.178379E+04
       105  20  1.688942E+05  3.279441E+04  2.048549E+04  1.125509E+04  1.842900E+03  1.109168E+04
       105  21  1.588632E+05  3.049836E+04  1.915427E+04  1.218991E+04  1.778245E+03  1.034031E+04
       105  22  2.579464E+04 -2.903695E+01 -6.698536E+02  1.212678E+04  5.399148E+02  1.178359E+04
       105  23  2.581145E+04  8.556765E+00 -3.775672E+02  1.119265E+04  3.528828E+02  1.109137E+04
       105  24  2.579561E+04  1.386114E+01 -2.151563E+02  1.212677E+04  1.659359E+02  1.033989E+04
       105  25 -1.273010E+05 -3.513857E+04 -2.311188E+04  1.206509E+04 -8.274889E+02  1.178338E+04
       105  26 -1.172507E+05 -3.277824E+04 -2.124096E+04  1.113022E+04 -1.136806E+03  1.109106E+04
       105  27 -1.072542E+05 -3.047145E+04 -1.958487E+04  1.206363E+04 -1.446042E+03  1.033946E+04
       106   1  1.525629E+05  2.904372E+04  1.824445E+04  1.218272E+04 -1.743877E+03 -9.883653E+03
       106   2  1.425413E+05  2.674795E+04  1.686384E+04  1.124068E+04 -1.713350E+03 -9.099570E+03
       106   3  1.325156E+05  2.445450E+04  1.546371E+04  1.217038E+04 -1.682882E+03 -8.308672E+03
       106   4  2.580166E+04  1.280121E+01 -1.623227E+02  1.212755E+04 -1.322294E+02 -9.883188E+03
       106   5  2.580546E+04  1.220913E+01 -9.065399E+01  1.119167E+04 -8.766576E+01 -9.099041E+03
       106   6  2.580246E+04  1.146090E+01 -4.831896E+01  1.212755E+04 -4.316057E+01 -8.308079E+03
       106   7 -1.009434E+05 -2.901886E+04 -1.856935E+04  1.207239E+04  1.479103E+03 -9.882722E+03
       106   8 -9.091665E+04 -2.672416E+04 -1.704536E+04  1.114267E+04  1.537726E+03 -9.098512E+03
       106   9 -8.089922E+04 -2.443210E+04 -1.556052E+04  1.208472E+04  1.596291E+03 -8.307485E+03
       106  10  1.525629E+05  2.904362E+04  1.824426E+04  1.218271E+04  2.524265E-10 -2.354196E-10
       106  11  1.425413E+05  2.674786E+04  1.686368E+04  1.124067E+04  1.671713E-10  1.824503E-09
       106  12  1.325156E+05  2.445442E+04  1.546357E+04  1.217037E+04 -9.396252E-11  2.079829E-09
       106  13  2.580164E+04  1.269632E+01 -1.625063E+02  1.212755E+04 -4.310460E-10 -1.924652E-10
       106  14  2.580544E+04  1.212022E+01 -9.080959E+01  1.119167E+04  4.458750E-10  1.120467E-09
       106  15  2.580244E+04  1.138678E+01 -4.844867E+01  1.212755E+04  7.815934E-10  9.293809E-10
       106  16 -1.009434E+05 -2.901896E+04 -1.856954E+04  1.207240E+04 -8.080608E-10 -4.438449E-10
       106  17 -9.091667E+04 -2.672425E+04 -1.704552E+04  1.114268E+04  5.348354E-11 -2.738915E-10
       106  18 -8.089924E+04 -2.443217E+04 -1.556066E+04  1.208473E+04 -1.272214E-10 -1.286549E-10
       106  19  1.525629E+05  2.904372E+04  1.824445E+04  1.218272E+04  1.743877E+03  9.883653E+03
       106  20  1.425413E+05  2.674795E+04  1.686384E+04  1.124068E+04  1.713350E+03  9.099570E+03
       106  21  1.325156E+05  2.445450E+04  1.546371E+04  1.217038E+04  1.682882E+03  8.308672E+03
       106  22  2.580166E+04  1.280121E+01 -1.623227E+02  1.212755E+04  1.322294E+02  9.883188E+03
       106  23  2.580546E+04  1.220913E+01 -9.065399E+01  1.119167E+04  8.766576E+01  9.099041E+03
       106  24  2.580246E+04  1.146090E+01 -4.831896E+01  1.212755E+04  4.316057E+01  8.308079E+03
       106  25 -1.009434E+05 -2.901886E+04 -1.856935E+04  1.207239E+04 -1.479103E+03  9.882722E+03
       106  26 -9.091665E+04 -2.672416E+04 -1.704536E+04  1.114267E+04 -1.537726E+03  9.098512E+03
       106  27 -8.089922E+04 -2.443210E+04 -1.556052E+04  1.208472E+04 -1.596291E+03  8.307485E+03
       107   1  1.262144E+05  2.300306E+04  1.452460E+04  1.216802E+04 -1.675487E+03 -7.846153E+03
       107   2  1.161927E+05  2.070984E+04  1.310985E+04  1.122803E+04 -1.671964E+03 -7.051549E+03
       107   3  1.061695E+05  1.841894E+04  1.169290E+04  1.216096E+04 -1.668484E+03 -6.256241E+03
       107   4  2.580385E+04  1.112414E+01 -3.354588E+01  1.212781E+04 -3.588781E+01 -7.845529E+03
       107   5  2.580499E+04  9.694438E+00 -1.071633E+01  1.119135E+04 -3.091353E+01 -7.050879E+03
       107   6  2.580446E+04  1.038501E+01  8.937794E+00  1.212781E+04 -2.598237E+01 -6.255526E+03
       107   7 -7.459654E+04 -2.298127E+04 -1.459185E+04  1.208761E+04  1.603457E+03 -7.844906E+03
       107   8 -6.457447E+04 -2.069082E+04 -1.313141E+04  1.115467E+04  1.609908E+03 -7.050210E+03
       107   9 -5.455406E+04 -1.839847E+04 -1.167512E+04  1.209467E+04  1.616316E+03 -6.254810E+03
       107  10  1.262144E+05  2.300299E+04  1.452448E+04  1.216801E+04  2.501211E-09  1.282560E-09
       107  11  1.161927E+05  2.070978E+04  1.310975E+04  1.122802E+04  1.735561E-09  3.996786E-10
       107  12  1.061695E+05  1.841890E+04  1.169282E+04  1.216095E+04 -7.463906E-10 -7.116129E-10
       107  13  2.580383E+04  1.105804E+01 -3.366155E+01  1.212781E+04  1.216052E-09  1.850582E-09
       107  14  2.580497E+04  9.641052E+00 -1.080976E+01  1.119135E+04  1.571934E-10  3.569886E-10
       107  15  2.580445E+04  1.034299E+01  8.864256E+00  1.212781E+04 -7.638044E-10 -6.420173E-10
       107  16 -7.459656E+04 -2.298134E+04 -1.459197E+04  1.208762E+04 -2.273571E-09  4.767637E-10
       107  17 -6.457449E+04 -2.069088E+04 -1.313151E+04  1.115467E+04 -2.039818E-10 -3.149155E-10
       107  18 -5.455408E+04 -1.839851E+04 -1.167520E+04  1.209467E+04  5.170082E-10 -4.230818E-10
       107  19  1.262144E+05  2.300306E+04  1.452460E+04  1.216802E+04  1.675487E+03  7.846153E+03
       107  20  1.161927E+05  2.070984E+04  1.310985E+04  1.122803E+04  1.671964E+03  7.051549E+03
       107  21  1.061695E+05  1.841894E+04  1.169290E+04  1.216096E+04  1.668484E+03  6.256241E+03
       107  22  2.580385E+04  1.112414E+01 -3.354588E+01  1.212781E+04  3.588781E+01  7.845529E+03
       107  23  2.580499E+04  9.694438E+00 -1.071633E+01  1.119135E+04  3.091353E+01  7.050879E+03
       107  24  2.580446E+04  1.038501E+01  8.937794E+00  1.212781E+04  2.598237E+01  6.255526E+03
       107  25 -7.459654E+04 -2.298127E+04 -1.459185E+04  1.208761E+04 -1.603457E+03  7.844906E+03
       107  26 -6.457447E+04 -2.069082E+04 -1.313141E+04  1.115467E+04 -1.609908E+03  7.050210E+03
       107  27 -5.455406E+04 -1.839847E+04 -1.167512E+04  1.209467E+04 -1.616316E+03  6.254810E+03
       108   1  9.986922E+04  1.696814E+04  1.075047E+04  1.215957E+04 -1.671142E+03 -5.793128E+03
       108   2  8.984623E+04  1.467648E+04  9.340603E+03  1.121945E+04 -1.693282E+03 -4.997695E+03
       108   3  7.982584E+04  1.239122E+04  7.946158E+03  1.215179E+04 -1.715452E+03 -4.202702E+03
       108   4  2.580561E+04  1.028500E+01  1.934386E+01  1.212771E+04 -2.868218E+01 -5.792390E+03
       108   5  2.580449E+04  1.002975E+01  4.576957E+01  1.119147E+04 -5.174215E+01 -4.996925E+03
       108   6  2.580604E+04  1.633990E+01  8.824631E+01  1.212771E+04 -7.483229E+01 -4.201900E+03
       108   7 -4.825247E+04 -1.694782E+04 -1.071186E+04  1.209585E+04  1.613590E+03 -5.791652E+03
       108   8 -3.823310E+04 -1.465661E+04 -9.249121E+03  1.116349E+04  1.589635E+03 -4.996156E+03
       108   9 -2.821081E+04 -1.235867E+04 -7.769704E+03  1.210362E+04  1.565650E+03 -4.201099E+03
       108  10  9.986921E+04  1.696811E+04  1.075040E+04  1.215957E+04  7.396851E-10 -5.118239E-10
       108  11  8.984622E+04  1.467645E+04  9.340551E+03  1.121945E+04  1.481871E-09 -7.822773E-10
       108  12  7.982583E+04  1.239120E+04  7.946120E+03  1.215179E+04  8.266269E-10 -7.015368E-10
       108  13  2.580560E+04  1.024897E+01  1.928081E+01  1.212771E+04 -4.122479E-10 -4.398783E-10
       108  14  2.580449E+04  1.000294E+01  4.572265E+01  1.119147E+04 -3.983566E-10 -1.212043E-09
       108  15  2.580604E+04  1.632093E+01  8.821312E+01  1.212771E+04 -8.518741E-11 -6.913566E-10
       108  16 -4.825248E+04 -1.694786E+04 -1.071193E+04  1.209585E+04 -7.400300E-10  2.563777E-10
       108  17 -3.823311E+04 -1.465664E+04 -9.249172E+03  1.116350E+04 -4.695961E-10 -2.199227E-09
       108  18 -2.821081E+04 -1.235869E+04 -7.769742E+03  1.210363E+04 -9.285971E-10 -1.087411E-09
       108  19  9.986922E+04  1.696814E+04  1.075047E+04  1.215957E+04  1.671142E+03  5.793128E+03
       108  20  8.984623E+04  1.467648E+04  9.340603E+03  1.121945E+04  1.693282E+03  4.997695E+03
       108  21  7.982584E+04  1.239122E+04  7.946158E+03  1.215179E+04  1.715452E+03  4.202702E+03
       108  22  2.580561E+04  1.028500E+01  1.934386E+01  1.212771E+04  2.868218E+01  5.792390E+03
       108  23  2.580449E+04  1.002975E+01  4.576957E+01  1.119147E+04  5.174215E+01  4.996925E+03
       108  24  2.580604E+04  1.633990E+01  8.824631E+01  1.212771E+04  7.483229E+01  4.201900E+03
       108  25 -4.825247E+04 -1.694782E+04 -1.071186E+04  1.209585E+04 -1.613590E+03  5.791652E+03
       108  26 -3.823310E+04 -1.465661E+04 -9.249121E+03  1.116349E+04 -1.589635E+03  4.996156E+03
       108  27 -2.821081E+04 -1.235867E+04 -7.769704E+03  1.210362E+04 -1.565650E+03  4.201099E+03
       109   1  7.353060E+04  1.094156E+04  7.023176E+03  1.215653E+04 -1.733376E+03 -3.739980E+03
       109   2  6.349604E+04  8.673727E+03  5.677678E+03  1.118078E+04 -1.831071E+03 -2.947457E+03
       109   3  5.348852E+04  6.471234E+03  4.411468E+03  1.207691E+04 -1.928778E+03 -2.159392E+03
       109   4  2.581188E+04  1.743855E+01  1.185825E+02  1.212758E+04 -9.273601E+01 -3.739164E+03
       109   5  2.579781E+04  4.156372E+01  2.129824E+02  1.119161E+04 -1.996511E+02 -2.946627E+03
       109   6  2.581213E+04  1.325965E+02  3.930211E+02  1.212752E+04 -3.065803E+02 -2.158548E+03
       109   7 -2.190454E+04 -1.090679E+04 -6.786037E+03  1.209863E+04  1.547783E+03 -3.738348E+03
       109   8 -1.189897E+04 -8.590664E+03 -5.251726E+03  1.120244E+04  1.431674E+03 -2.945797E+03
       109   9 -1.863477E+03 -6.206075E+03 -3.625428E+03  1.217813E+04  1.315548E+03 -2.157704E+03
       109  10  7.353060E+04  1.094155E+04  7.023144E+03  1.215653E+04  6.963420E-10  9.117923E-11
       109  11  6.349604E+04  8.673717E+03  5.677655E+03  1.118078E+04  4.141948E-09 -4.925302E-11
       109  12  5.348851E+04  6.471228E+03  4.411452E+03  1.207691E+04  4.632612E-09  8.572004E-10
       109  13  2.581187E+04  1.742354E+01  1.185562E+02  1.212758E+04  6.733251E-10 -2.162707E-10
       109  14  2.579781E+04  4.155438E+01  2.129660E+02  1.119161E+04 -6.732992E-10  1.284939E-10
       109  15  2.581213E+04  1.325914E+02  3.930121E+02  1.212752E+04  4.605567E-11 -4.969867E-10
       109  16 -2.190455E+04 -1.090681E+04 -6.786068E+03  1.209864E+04 -6.840613E-10 -1.155853E-10
       109  17 -1.189898E+04 -8.590674E+03 -5.251746E+03  1.120244E+04 -2.073862E-09 -3.198889E-10
       109  18 -1.863480E+03 -6.206080E+03 -3.625440E+03  1.217813E+04 -5.635316E-09 -1.871014E-09
       109  19  7.353060E+04  1.094156E+04  7.023176E+03  1.215653E+04  1.733376E+03  3.739980E+03
       109  20  6.349604E+04  8.673727E+03  5.677678E+03  1.118078E+04  1.831071E+03  2.947457E+03
       109  21  5.348852E+04  6.471234E+03  4.411468E+03  1.207691E+04  1.928778E+03  2.159392E+03
       109  22  2.581188E+04  1.743855E+01  1.185825E+02  1.212758E+04  9.273601E+01  3.739164E+03
       109  23  2.579781E+04  4.156372E+01  2.129824E+02  1.119161E+04  1.996511E+02  2.946627E+03
       109  24  2.581213E+04  1.325965E+02  3.930211E+02  1.212752E+04  3.065803E+02  2.158548E+03
       109  25 -2.190454E+04 -1.090679E+04 -6.786037E+03  1.209863E+04 -1.547783E+03  3.738348E+03
       109  26 -1.189897E+04 -8.590664E+03 -5.251726E+03  1.120244E+04 -1.431674E+03  2.945797E+03
       109  27 -1.863477E+03 -6.206075E+03 -3.625428E+03  1.217813E+04 -1.315548E+03  2.157704E+03
       110   1  4.724076E+04  5.045886E+03  3.582865E+03  1.214586E+04 -1.997119E+03 -1.700545E+03
       110   2  3.708882E+04  3.143168E+03  2.550034E+03  1.060839E+04 -2.411327E+03 -9.340017E+02
       110   3  2.720011E+04  2.087422E+03  1.997846E+03  1.093994E+04 -2.825522E+03 -2.061135E+02
       110   4  2.586747E+04  1.595105E+02  5.234507E+02  1.212697E+04 -3.745495E+02 -1.699693E+03
       110   5  2.572893E+04  5.547408E+02  9.636624E+02  1.119203E+04 -8.685415E+02 -9.331892E+02
       110   6  2.586753E+04  1.810842E+03  1.939959E+03  1.212611E+04 -1.362527E+03 -2.053411E+02
       110   7  4.494644E+03 -4.726884E+03 -2.535961E+03  1.210807E+04  1.247967E+03 -1.698842E+03
       110   8  1.436919E+04 -2.033689E+03 -6.227016E+02  1.177565E+04  6.742172E+02 -9.323738E+02
       110   9  2.453495E+04  1.534268E+03  1.882081E+03  1.331228E+04  1.004652E+02 -2.045631E+02
       110  10  4.724076E+04  5.045882E+03  3.582852E+03  1.214585E+04  6.454336E-08  1.238765E-09
       110  11  3.708881E+04  3.143165E+03  2.550021E+03  1.060838E+04  2.121786E-09  5.853024E-10
       110  12  2.720010E+04  2.087420E+03  1.997831E+03  1.093994E+04 -6.114049E-08  1.657223E-10
       110  13  2.586747E+04  1.595073E+02  5.234450E+02  1.212697E+04  6.988615E-10  1.229757E-09
       110  14  2.572893E+04  5.547396E+02  9.636594E+02  1.119203E+04  1.265104E-10 -5.461719E-11
       110  15  2.586752E+04  1.810841E+03  1.939956E+03  1.212611E+04  4.043443E-10  1.248007E-09
       110  16  4.494642E+03 -4.726888E+03 -2.535969E+03  1.210808E+04 -6.343656E-08  3.683518E-10
       110  17  1.436918E+04 -2.033690E+03 -6.227041E+02  1.177566E+04 -2.814684E-10  1.312546E-09
       110  18  2.453495E+04  1.534267E+03  1.882081E+03  1.331228E+04  6.055755E-08  4.795851E-10
       110  19  4.724076E+04  5.045886E+03  3.582865E+03  1.214586E+04  1.997119E+03  1.700545E+03
       110  20  3.708882E+04  3.143168E+03  2.550034E+03  1.060839E+04  2.411327E+03  9.340017E+02
       110  21  2.720011E+04  2.087422E+03  1.997846E+03  1.093994E+04  2.825522E+03  2.061135E+02
       110  22  2.586747E+04  1.595105E+02  5.234507E+02  1.212697E+04  3.745495E+02  1.699693E+03
       110  23  2.572893E+04  5.547408E+02  9.636624E+02  1.119203E+04  8.685415E+02  9.331892E+02
       110  24  2.586753E+04  1.810842E+03  1.939959E+03  1.212611E+04  1.362527E+03  2.053411E+02
       110  25  4.494644E+03 -4.726884E+03 -2.535961E+03  1.210807E+04 -1.247967E+03  1.698842E+03
       110  26  1.436919E+04 -2.033689E+03 -6.227016E+02  1.177565E+04 -6.742172E+02  9.323738E+02
       110  27  2.453495E+04  1.534268E+03  1.882081E+03  1.331228E+04 -1.004652E+02  2.045631E+02
       111   1  2.722229E+03  1.055234E+05  2.973151E+03 -6.892517E+03 -2.394922E+01  6.250275E+02
       111   2 -1.276072E+02  9.844144E+04  8.395729E+02 -5.509465E+03 -2.253470E+02 -1.534458E+02
       111   3 -1.979039E+03  9.170945E+04 -5.378713E+02 -5.974542E+03 -6.121697E+02 -9.319562E+02
       111   4  1.358192E+03  1.000859E+05  1.591878E+03 -6.068932E+03 -2.397947E+01  7.791655E+02
       111   5  2.036713E+02  9.993367E+04  1.004781E+03 -5.144999E+03 -2.254306E+02  2.632868E+02
       111   6  1.999887E+00  1.000859E+05  9.915142E+02 -6.069197E+03 -6.123054E+02 -2.526333E+02
       111   7 -5.844620E+00  9.464837E+04  2.106037E+02 -5.245354E+03 -2.400932E+01  9.333020E+02
       111   8  5.349504E+02  1.014259E+05  1.169991E+03 -4.780532E+03 -2.255137E+02  6.800204E+02
       111   9  1.983035E+03  1.084625E+05  2.520899E+03 -6.163853E+03 -6.124412E+02  4.266985E+02
       111  10  2.722229E+03  1.055234E+05  2.973150E+03 -6.892517E+03  5.053509E-10  2.127205E-09
       111  11 -1.276073E+02  9.844144E+04  8.395728E+02 -5.509465E+03 -4.507733E-10 -2.296903E-10
       111  12 -1.979040E+03  9.170945E+04 -5.378737E+02 -5.974542E+03  1.946679E-10 -2.104455E-09
       111  13  1.358192E+03  1.000859E+05  1.591877E+03 -6.068932E+03  1.095256E-09 -3.651533E-12
       111  14  2.036713E+02  9.993367E+04  1.004781E+03 -5.144998E+03  6.979882E-10 -4.151072E-10
       111  15  1.999467E+00  1.000859E+05  9.915134E+02 -6.069197E+03  6.446951E-10 -2.721337E-10
       111  16 -5.844855E+00  9.464837E+04  2.106020E+02 -5.245354E+03 -2.546588E-11 -2.349894E-09
       111  17  5.349502E+02  1.014259E+05  1.169990E+03 -4.780531E+03 -1.927305E-10 -3.506572E-10
       111  18  1.983035E+03  1.084625E+05  2.520898E+03 -6.163853E+03 -4.819201E-10  2.034308E-09
       111  19  2.722229E+03  1.055234E+05  2.973151E+03 -6.892517E+03  2.394922E+01 -6.250275E+02
       111  20 -1.276072E+02  9.844144E+04  8.395729E+02 -5.509465E+03  2.253470E+02  1.534458E+02
       111  21 -1.979039E+03  9.170945E+04 -5.378713E+02 -5.974542E+03  6.121697E+02  9.319562E+02
       111  22  1.358192E+03  1.000859E+05  1.591878E+03 -6.068932E+03  2.397947E+01 -7.791655E+02
       111  23  2.036713E+02  9.993367E+04  1.004781E+03 -5.144999E+03  2.254306E+02 -2.632868E+02
       111  24  1.999887E+00  1.000859E+05  9.915142E+02 -6.069197E+03  6.123054E+02  2.526333E+02
       111  25 -5.844620E+00  9.464837E+04  2.106037E+02 -5.245354E+03  2.400932E+01 -9.333020E+02
       111  26  5.349504E+02  1.014259E+05  1.169991E+03 -4.780532E+03  2.255137E+02 -6.800204E+02
       111  27  1.983035E+03  1.084625E+05  2.520899E+03 -6.163853E+03  6.124412E+02 -4.266985E+02
       112   1 -3.068945E+03  8.697761E+04 -1.333090E+03 -6.178541E+03 -8.979334E+02 -1.087066E+03
       112   2 -4.709505E+03  7.997875E+04 -2.161059E+03 -5.118672E+03 -1.329178E+03 -1.792899E+03
       112   3 -5.979332E+03  7.316371E+04 -2.437068E+03 -5.913714E+03 -1.692138E+03 -2.498706E+03
       112   4  3.636142E+01  1.000628E+05  1.109870E+03 -6.070670E+03 -8.980635E+02 -4.278237E+02
       112   5  4.080010E+01  9.996247E+04  1.608703E+03 -5.143179E+03 -1.329284E+03 -1.230385E+03
       112   6  4.327552E+02  1.000627E+05  2.726644E+03 -6.070592E+03 -1.692220E+03 -2.032928E+03
       112   7  3.141659E+03  1.131482E+05  3.552825E+03 -5.962798E+03 -8.981934E+02  2.314321E+02
       112   8  4.791082E+03  1.199466E+05  5.378449E+03 -5.167686E+03 -1.329390E+03 -6.678535E+02
       112   9  6.844800E+03  1.269623E+05  7.890324E+03 -6.227477E+03 -1.692302E+03 -1.567130E+03
       112  10 -3.068947E+03  8.697761E+04 -1.333094E+03 -6.178542E+03  4.321128E-10  1.871252E-09
       112  11 -4.709508E+03  7.997874E+04 -2.161068E+03 -5.118674E+03  2.521034E-10 -9.209355E-10
       112  12 -5.979337E+03  7.316370E+04 -2.437085E+03 -5.913717E+03 -5.752896E-10 -2.764387E-09
       112  13  3.636050E+01  1.000628E+05  1.109868E+03 -6.070671E+03 -6.192647E-10  2.007378E-11
       112  14  4.079780E+01  9.996247E+04  1.608697E+03 -5.143180E+03  3.840272E-10 -4.027538E-10
       112  15  4.327510E+02  1.000627E+05  2.726631E+03 -6.070595E+03 -1.111933E-09 -2.663605E-10
       112  16  3.141658E+03  1.131482E+05  3.552823E+03 -5.962798E+03  1.752188E-10 -2.046040E-09
       112  17  4.791080E+03  1.199466E+05  5.378445E+03 -5.167687E+03  2.059537E-09  4.159679E-10
       112  18  6.844796E+03  1.269623E+05  7.890314E+03 -6.227480E+03  1.248412E-10  2.693768E-09
       112  19 -3.068945E+03  8.697761E+04 -1.333090E+03 -6.178541E+03  8.979334E+02  1.087066E+03
       112  20 -4.709505E+03  7.997875E+04 -2.161059E+03 -5.118672E+03  1.329178E+03  1.792899E+03
       112  21 -5.979332E+03  7.316371E+04 -2.437068E+03 -5.913714E+03  1.692138E+03  2.498706E+03
       112  22  3.636142E+01  1.000628E+05  1.109870E+03 -6.070670E+03  8.980635E+02  4.278237E+02
       112  23  4.080010E+01  9.996247E+04  1.608703E+03 -5.143179E+03  1.329284E+03  1.230385E+03
       112  24  4.327552E+02  1.000627E+05  2.726644E+03 -6.070592E+03  1.692220E+03  2.032928E+03
       112  25  3.141659E+03  1.131482E+05  3.552825E+03 -5.962798E+03  8.981934E+02 -2.314321E+02
       112  26  4.791082E+03  1.199466E+05  5.378449E+03 -5.167686E+03  1.329390E+03  6.678535E+02
       112  27  6.844800E+03  1.269623E+05  7.890324E+03 -6.227477E+03  1.692302E+03  1.567130E+03
       113   1 -7.581539E+03  6.890000E+04 -2.600398E+03 -7.115243E+03 -1.973820E+03 -3.177680E+03
       113   2 -7.523200E+03  6.093753E+04 -1.710580E+03 -2.351963E+03 -1.867405E+03 -4.729154E+03
       113   3  8.992364E+01  5.506542E+04  2.077912E+03  6.247276E+02 -5.904259E+02 -6.280391E+03
       113   4 -3.518364E+01  1.005465E+05  3.490198E+03 -6.055758E+03 -1.973944E+03 -2.499270E+03
       113   5  1.737648E+03  9.935725E+04  6.171455E+03 -5.161500E+03 -1.867201E+03 -5.708572E+03
       113   6  1.135271E+04  1.005458E+05  1.290237E+04 -6.053740E+03 -5.899056E+02 -8.917639E+03
       113   7  7.511117E+03  1.321940E+05  9.580750E+03 -4.996218E+03 -1.974066E+03 -1.820827E+03
       113   8  1.099843E+04  1.377784E+05  1.405342E+04 -7.971214E+03 -1.866987E+03 -6.688049E+03
       113   9  2.261551E+04  1.460282E+05  2.372673E+04 -1.273270E+04 -5.893286E+02 -1.155508E+04
       113  10 -7.581546E+03  6.889999E+04 -2.600425E+03 -7.115248E+03  2.367367E-10  6.090927E-10
       113  11 -7.523210E+03  6.093750E+04 -1.710628E+03 -2.351970E+03  5.279407E-10 -3.776290E-10
       113  12  8.991268E+01  5.506538E+04  2.077837E+03  6.247247E+02  9.010641E-11 -6.418313E-10
       113  13 -3.518951E+01  1.005465E+05  3.490179E+03 -6.055762E+03  4.850730E-10 -3.724800E-11
       113  14  1.737635E+03  9.935722E+04  6.171387E+03 -5.161508E+03 -6.527629E-10 -2.785537E-10
       113  15  1.135269E+04  1.005457E+05  1.290222E+04 -6.053745E+03  3.927147E-10 -2.492892E-10
       113  16  7.511112E+03  1.321940E+05  9.580737E+03 -4.996221E+03 -9.736202E-10 -8.102815E-10
       113  17  1.099842E+04  1.377783E+05  1.405333E+04 -7.971224E+03 -1.366623E-11 -1.123721E-10
       113  18  2.261548E+04  1.460280E+05  2.372647E+04 -1.273271E+04  2.436157E-10  6.091670E-10
       113  19 -7.581539E+03  6.890000E+04 -2.600398E+03 -7.115243E+03  1.973820E+03  3.177680E+03
       113  20 -7.523200E+03  6.093753E+04 -1.710580E+03 -2.351963E+03  1.867405E+03  4.729154E+03
       113  21  8.992364E+01  5.506542E+04  2.077912E+03  6.247276E+02  5.904259E+02  6.280391E+03
       113  22 -3.518364E+01  1.005465E+05  3.490198E+03 -6.055758E+03  1.973944E+03  2.499270E+03
       113  23  1.737648E+03  9.935725E+04  6.171455E+03 -5.161500E+03  1.867201E+03  5.708572E+03
       113  24  1.135271E+04  1.005458E+05  1.290237E+04 -6.053740E+03  5.899056E+02  8.917639E+03
       113  25  7.511117E+03  1.321940E+05  9.580750E+03 -4.996218E+03  1.974066E+03  1.820827E+03
       113  26  1.099843E+04  1.377784E+05  1.405342E+04 -7.971214E+03  1.866987E+03  6.688049E+03
       113  27  2.261551E+04  1.460282E+05  2.372673E+04 -1.273270E+04  5.893286E+02  1.155508E+04
       114   1  2.602201E+05  9.404350E+04  4.834417E+04  9.605226E+04  1.878351E+04  3.976573E+03
       114   2  2.467653E+05  8.511175E+04  3.441115E+04  9.182307E+04  1.217402E+04 -5.801175E+03
       114   3  2.336526E+05  8.016661E+04  2.776526E+04  8.933447E+04  3.903904E+03 -1.115150E+04
       114   4  7.637464E+04  2.451207E+04  1.431534E+03  4.497612E+04  1.943704E+03 -2.342996E+03
       114   5  7.698617E+04  2.283230E+04  6.777980E+02  4.431058E+04  3.993567E+03 -8.871520E+03
       114   6  7.622517E+04  2.342511E+04  3.539523E+02  4.538567E+04  4.382106E+03 -1.097235E+04
       114   7 -1.074295E+05 -4.501379E+04 -4.548049E+04 -6.083974E+03 -1.488994E+04 -8.660199E+03
       114   8 -9.275914E+04 -3.944303E+04 -3.305557E+04 -3.188770E+03 -4.184300E+03 -1.194088E+04
       114   9 -8.117559E+04 -3.331382E+04 -2.705799E+04  1.447389E+03  4.860178E+03 -1.079325E+04
       114  10  2.602197E+05  9.404339E+04  4.834348E+04  9.605220E+04 -1.223219E-09 -2.237606E-11
       114  11  2.467651E+05  8.511168E+04  3.441081E+04  9.182312E+04 -8.706299E-11  5.356872E-10
       114  12  2.336525E+05  8.016647E+04  2.776499E+04  8.933450E+04  3.266322E-09  3.677454E-10
       114  13  7.637464E+04  2.451206E+04  1.431517E+03  4.497612E+04 -6.116047E-10  6.077105E-10
       114  14  7.698614E+04  2.283221E+04  6.776201E+02  4.431061E+04 -1.487155E-09 -8.890586E-11
       114  15  7.622512E+04  2.342498E+04  3.536900E+02  4.538571E+04 -4.366851E-11 -2.613667E-10
       114  16 -1.074297E+05 -4.501393E+04 -4.548105E+04 -6.084078E+03  1.258951E-09  5.099241E-10
       114  17 -9.275920E+04 -3.944319E+04 -3.305587E+04 -3.188810E+03 -1.017393E-09 -9.398492E-10
       114  18 -8.117564E+04 -3.331396E+04 -2.705825E+04  1.447431E+03 -1.725335E-09 -1.310741E-09
       114  19  2.602201E+05  9.404350E+04  4.834417E+04  9.605226E+04 -1.878351E+04 -3.976573E+03
       114  20  2.467653E+05  8.511175E+04  3.441115E+04  9.182307E+04 -1.217402E+04  5.801175E+03
       114  21  2.336526E+05  8.016661E+04  2.776526E+04  8.933447E+04 -3.903904E+03  1.115150E+04
       114  22  7.637464E+04  2.451207E+04  1.431534E+03  4.497612E+04 -1.943704E+03  2.342996E+03
       114  23  7.698617E+04  2.283230E+04  6.777980E+02  4.431058E+04 -3.993567E+03  8.871520E+03
       114  24  7.622517E+04  2.342511E+04  3.539523E+02  4.538567E+04 -4.382106E+03  1.097235E+04
       114  25 -1.074295E+05 -4.501379E+04 -4.548049E+04 -6.083974E+03  1.488994E+04  8.660199E+03
       114  26 -9.275914E+04 -3.944303E+04 -3.305557E+04 -3.188770E+03  4.184300E+03  1.194088E+04
       114  27 -8.117559E+04 -3.331382E+04 -2.705799E+04  1.447389E+03 -4.860178E+03  1.079325E+04
       115   1  2.248157E+05  7.702867E+04  2.566520E+04  8.703729E+04  4.048503E+03 -1.079139E+04
       115   2  2.123736E+05  7.105005E+04  2.232433E+04  8.229019E+04  2.968397E+03 -1.082514E+04
       115   3  1.982547E+05  6.716909E+04  1.975045E+04  7.968530E+04  1.717763E+03 -1.040477E+04
       115   4  7.613581E+04  2.346285E+04  2.642434E+02  4.543195E+04  4.241593E+03 -1.071922E+04
       115   5  7.705792E+04  2.246976E+04  1.383267E+02  4.437307E+04  4.049707E+03 -1.041953E+04
       115   6  7.612753E+04  2.339857E+04  7.603388E+01  4.545641E+04  3.687270E+03 -9.665650E+03
       115   7 -7.252240E+04 -3.010146E+04 -2.513781E+04  3.835445E+03  4.434637E+03 -1.064708E+04
       115   8 -5.823906E+04 -2.610899E+04 -2.204832E+04  6.463477E+03  5.130774E+03 -1.001401E+04
       115   9 -4.598372E+04 -2.037044E+04 -1.959868E+04  1.123383E+04  5.656368E+03 -8.926686E+03
       115  10  2.248157E+05  7.702854E+04  2.566495E+04  8.703732E+04 -7.959598E-10 -1.041045E-09
       115  11  2.123736E+05  7.104992E+04  2.232410E+04  8.229021E+04  8.651042E-10  1.587044E-09
       115  12  1.982547E+05  6.716898E+04  1.975024E+04  7.968532E+04  1.630299E-09  1.562633E-09
       115  13  7.613576E+04  2.346272E+04  2.639937E+02  4.543199E+04  5.432792E-10 -6.525434E-10
       115  14  7.705787E+04  2.246963E+04  1.380919E+02  4.437311E+04  1.152589E-09  5.048183E-10
       115  15  7.612749E+04  2.339847E+04  7.583276E+01  4.545644E+04  6.718672E-10  7.889087E-11
       115  16 -7.252245E+04 -3.010158E+04 -2.513806E+04  3.835483E+03  1.898707E-09  3.772040E-10
       115  17 -5.823911E+04 -2.610911E+04 -2.204856E+04  6.463518E+03 -1.434757E-09 -8.338826E-11
       115  18 -4.598378E+04 -2.037053E+04 -1.959889E+04  1.123387E+04 -1.489827E-09 -1.471758E-09
       115  19  2.248157E+05  7.702867E+04  2.566520E+04  8.703729E+04 -4.048503E+03  1.079139E+04
       115  20  2.123736E+05  7.105005E+04  2.232433E+04  8.229019E+04 -2.968397E+03  1.082514E+04
       115  21  1.982547E+05  6.716909E+04  1.975045E+04  7.968530E+04 -1.717763E+03  1.040477E+04
       115  22  7.613581E+04  2.346285E+04  2.642434E+02  4.543195E+04 -4.241593E+03  1.071922E+04
       115  23  7.705792E+04  2.246976E+04  1.383267E+02  4.437307E+04 -4.049707E+03  1.041953E+04
       115  24  7.612753E+04  2.339857E+04  7.603388E+01  4.545641E+04 -3.687270E+03  9.665650E+03
       115  25 -7.252240E+04 -3.010146E+04 -2.513781E+04  3.835445E+03 -4.434637E+03  1.064708E+04
       115  26 -5.823906E+04 -2.610899E+04 -2.204832E+04  6.463477E+03 -5.130774E+03  1.001401E+04
       115  27 -4.598372E+04 -2.037044E+04 -1.959868E+04  1.123383E+04 -5.656368E+03  8.926686E+03
       116   1  1.898000E+05  6.413580E+04  1.827052E+04  7.733531E+04  1.511989E+03 -9.798632E+03
       116   2  1.774738E+05  5.841734E+04  1.605403E+04  7.253187E+04  1.023356E+03 -8.823732E+03
       116   3  1.632684E+05  5.462085E+04  1.392276E+04  6.990377E+04  5.172177E+02 -7.802371E+03
       116   4  7.611888E+04  2.340362E+04  5.753125E+01  4.546043E+04  3.452042E+03 -9.070518E+03
       116   5  7.706839E+04  2.245133E+04  3.342504E+01  4.437320E+04  3.054269E+03 -8.061428E+03
       116   6  7.612035E+04  2.340304E+04  2.252423E+01  4.546133E+04  2.638983E+03 -7.005870E+03
       116   7 -3.754709E+04 -1.732672E+04 -1.815534E+04  1.359138E+04  5.391698E+03 -8.342553E+03
       116   8 -2.332618E+04 -1.351365E+04 -1.598736E+04  1.621881E+04  5.084834E+03 -7.299256E+03
       116   9 -1.102054E+04 -7.814357E+03 -1.387812E+04  2.102184E+04  4.760457E+03 -6.209478E+03
       116  10  1.898000E+05  6.413569E+04  1.827034E+04  7.733532E+04 -1.407157E-09  9.751256E-10
       116  11  1.774738E+05  5.841726E+04  1.605388E+04  7.253188E+04  1.332248E-09  1.988855E-09
       116  12  1.632684E+05  5.462079E+04  1.392265E+04  6.990377E+04  7.110345E-11  6.635340E-10
       116  13  7.611884E+04  2.340353E+04  5.735424E+01  4.546045E+04  1.501386E-09 -4.204279E-10
       116  14  7.706837E+04  2.245125E+04  3.328538E+01  4.437322E+04  3.601108E-09  5.968430E-10
       116  15  7.612033E+04  2.340299E+04  2.241890E+01  4.546134E+04  1.579091E-09 -2.382893E-10
       116  16 -3.754714E+04 -1.732681E+04 -1.815553E+04  1.359142E+04  2.890304E-09 -1.445233E-10
       116  17 -2.332623E+04 -1.351371E+04 -1.598750E+04  1.621884E+04 -2.563332E-10 -5.443983E-10
       116  18 -1.102057E+04 -7.814405E+03 -1.387823E+04  2.102186E+04 -5.394740E-09 -7.952957E-10
       116  19  1.898000E+05  6.413580E+04  1.827052E+04  7.733531E+04 -1.511989E+03  9.798632E+03
       116  20  1.774738E+05  5.841734E+04  1.605403E+04  7.253187E+04 -1.023356E+03  8.823732E+03
       116  21  1.632684E+05  5.462085E+04  1.392276E+04  6.990377E+04 -5.172177E+02  7.802371E+03
       116  22  7.611888E+04  2.340362E+04  5.753125E+01  4.546043E+04 -3.452042E+03  9.070518E+03
       116  23  7.706839E+04  2.245133E+04  3.342504E+01  4.437320E+04 -3.054269E+03  8.061428E+03
       116  24  7.612035E+04  2.340304E+04  2.252423E+01  4.546133E+04 -2.638983E+03  7.005870E+03
       116  25 -3.754709E+04 -1.732672E+04 -1.815534E+04  1.359138E+04 -5.391698E+03  8.342553E+03
       116  26 -2.332618E+04 -1.351365E+04 -1.598736E+04  1.621881E+04 -5.084834E+03  7.299256E+03
       116  27 -1.102054E+04 -7.814357E+03 -1.387812E+04  2.102184E+04 -4.760457E+03  6.209478E+03
       117   1  1.548540E+05  5.159840E+04  1.251554E+04  6.754980E+04  2.792998E+02 -7.169745E+03
       117   2  1.425443E+05  4.590334E+04  1.042925E+04  6.274131E+04 -1.473997E+02 -6.091282E+03
       117   3  1.283348E+05  4.211300E+04  8.357544E+03  6.011034E+04 -5.758119E+02 -5.008348E+03
       117   4  7.611952E+04  2.340380E+04  2.017871E+01  4.546139E+04  2.397919E+03 -6.374380E+03
       117   5  7.707068E+04  2.245270E+04  2.089175E+01  4.437265E+04  1.979936E+03 -5.292590E+03
       117   6  7.612013E+04  2.340453E+04  2.924656E+01  4.546134E+04  1.560241E+03 -4.206332E+03
       117   7 -2.608276E+03 -4.790132E+03 -1.247527E+04  2.337562E+04  4.516253E+03 -5.579123E+03
       117   8  1.160207E+04 -9.973329E+02 -1.038742E+04  2.600593E+04  4.107022E+03 -4.493992E+03
       117   9  2.390899E+04  4.696590E+03 -8.298913E+03  3.081366E+04  3.696080E+03 -3.404396E+03
       117  10  1.548540E+05  5.159835E+04  1.251544E+04  6.754980E+04 -4.871670E-09 -5.286144E-10
       117  11  1.425443E+05  4.590330E+04  1.042918E+04  6.274131E+04  1.670282E-09  2.171579E-09
       117  12  1.283348E+05  4.211297E+04  8.357496E+03  6.011034E+04  7.193354E-09  1.316384E-10
       117  13  7.611950E+04  2.340376E+04  2.009155E+01  4.546140E+04  6.109030E-10  4.621399E-10
       117  14  7.707067E+04  2.245267E+04  2.083174E+01  4.437266E+04  5.075228E-09  1.504492E-09
       117  15  7.612012E+04  2.340451E+04  2.920873E+01  4.546134E+04  1.987241E-09  3.382659E-10
       117  16 -2.608307E+03 -4.790171E+03 -1.247537E+04  2.337564E+04  6.277430E-10  1.840667E-09
       117  17  1.160204E+04 -9.973591E+02 -1.038749E+04  2.600595E+04 -2.962014E-10  2.153309E-09
       117  18  2.390897E+04  4.696574E+03 -8.298960E+03  3.081367E+04 -3.743187E-09 -3.247432E-10
       117  19  1.548540E+05  5.159840E+04  1.251554E+04  6.754980E+04 -2.792998E+02  7.169745E+03
       117  20  1.425443E+05  4.590334E+04  1.042925E+04  6.274131E+04  1.473997E+02  6.091282E+03
       117  21  1.283348E+05  4.211300E+04  8.357544E+03  6.011034E+04  5.758119E+02  5.008348E+03
       117  22  7.611952E+04  2.340380E+04  2.017871E+01  4.546139E+04 -2.397919E+03  6.374380E+03
       117  23  7.707068E+04  2.245270E+04  2.089175E+01  4.437265E+04 -1.979936E+03  5.292590E+03
       117  24  7.612013E+04  2.340453E+04  2.924656E+01  4.546134E+04 -1.560241E+03  4.206332E+03
       117  25 -2.608276E+03 -4.790132E+03 -1.247527E+04  2.337562E+04 -4.516253E+03  5.579123E+03
       117  26  1.160207E+04 -9.973329E+02 -1.038742E+04  2.600593E+04 -4.107022E+03  4.493992E+03
       117  27  2.390899E+04  4.696590E+03 -8.298913E+03  3.081366E+04 -3.696080E+03  3.404396E+03
       118   1  1.199255E+05  3.909129E+04  6.965622E+03  5.775684E+04 -8.198622E+02 -4.374349E+03
       118   2  1.076167E+05  3.339790E+04  4.913988E+03  5.294993E+04 -1.257393E+03 -3.293477E+03
       118   3  9.340841E+04  2.960840E+04  2.883004E+03  5.032120E+04 -1.694231E+03 -2.214497E+03
       118   4  7.612126E+04  2.340467E+04  3.691463E+01  4.546181E+04  1.315900E+03 -3.572417E+03
       118   5  7.707048E+04  2.245157E+04  6.322550E+01  4.437301E+04  8.746668E+02 -2.492903E+03
       118   6  7.612116E+04  2.340321E+04  1.132036E+02  4.546241E+04  4.341280E+02 -1.415285E+03
       118   7  3.231855E+04  7.718057E+03 -6.891952E+03  3.316746E+04  3.451528E+03 -2.770536E+03
       118   8  4.652512E+04  1.150528E+04 -4.787586E+03  3.579643E+04  3.006629E+03 -1.692367E+03
       118   9  5.883423E+04  1.719805E+04 -2.656585E+03  4.060374E+04  2.562425E+03 -6.160960E+02
       118  10  1.199255E+05  3.909127E+04  6.965585E+03  5.775684E+04  2.723067E-09 -2.484105E-09
       118  11  1.076167E+05  3.339789E+04  4.913964E+03  5.294992E+04 -1.791644E-09 -2.239745E-09
       118  12  9.340841E+04  2.960840E+04  2.882989E+03  5.032120E+04 -8.891680E-09 -2.929275E-09
       118  13  7.612125E+04  2.340466E+04  3.688739E+01  4.546182E+04 -2.260569E-09 -1.347546E-09
       118  14  7.707048E+04  2.245157E+04  6.321238E+01  4.437301E+04 -6.019495E-09 -2.482695E-09
       118  15  7.612116E+04  2.340321E+04  1.131995E+02  4.546241E+04 -1.236141E-08 -5.502503E-09
       118  16  3.231854E+04  7.718046E+03 -6.891988E+03  3.316747E+04 -4.740422E-09  4.864441E-10
       118  17  4.652511E+04  1.150527E+04 -4.787609E+03  3.579644E+04 -9.729453E-09 -2.701452E-09
       118  18  5.883422E+04  1.719805E+04 -2.656598E+03  4.060374E+04 -1.665655E-08 -8.336712E-09
       118  19  1.199255E+05  3.909129E+04  6.965622E+03  5.775684E+04  8.198622E+02  4.374349E+03
       118  20  1.076167E+05  3.339790E+04  4.913988E+03  5.294993E+04  1.257393E+03  3.293477E+03
       118  21  9.340841E+04  2.960840E+04  2.883004E+03  5.032120E+04  1.694231E+03  2.214497E+03
       118  22  7.612126E+04  2.340467E+04  3.691463E+01  4.546181E+04 -1.315900E+03  3.572417E+03
       118  23  7.707048E+04  2.245157E+04  6.322550E+01  4.437301E+04 -8.746668E+02  2.492903E+03
       118  24  7.612116E+04  2.340321E+04  1.132036E+02  4.546241E+04 -4.341280E+02  1.415285E+03
       118  25  3.231855E+04  7.718057E+03 -6.891952E+03  3.316746E+04 -3.451528E+03  2.770536E+03
       118  26  4.652512E+04  1.150528E+04 -4.787586E+03  3.579643E+04 -3.006629E+03  1.692367E+03
       118  27  5.883423E+04  1.719805E+04 -2.656585E+03  4.060374E+04 -2.562425E+03  6.160960E+02
       119   1  8.500068E+04  2.658856E+04  1.519023E+03  4.797276E+04 -1.955624E+03 -1.588594E+03
       119   2  7.268732E+04  2.089251E+04 -4.550918E+02  4.316232E+04 -2.452316E+03 -5.452450E+02
       119   3  5.849034E+04  1.711544E+04 -2.356608E+03  4.052776E+04 -2.940457E+03  4.753924E+02
       119   4  7.612559E+04  2.340232E+04  1.506152E+02  4.546415E+04  1.741405E+02 -7.888497E+02
       119   5  7.706482E+04  2.245063E+04  2.730267E+02  4.437167E+04 -3.669895E+02  2.378054E+02
       119   6  7.612895E+04  2.342665E+04  5.031928E+02  4.545498E+04 -8.995752E+02  1.241753E+03
       119   7  6.725070E+04  2.021613E+04 -1.217746E+03  4.295560E+04  2.303850E+03  1.087366E+01
       119   8  8.144235E+04  2.400875E+04  1.001163E+03  4.558104E+04  1.718352E+03  1.020861E+03
       119   9  9.376810E+04  2.973798E+04  3.363060E+03  5.038239E+04  1.141391E+03  2.008146E+03
       119  10  8.500067E+04  2.658856E+04  1.519011E+03  4.797276E+04 -1.672703E-08 -4.099398E-09
       119  11  7.268732E+04  2.089251E+04 -4.551036E+02  4.316232E+04  1.264372E-09  2.042668E-09
       119  12  5.849033E+04  1.711544E+04 -2.356624E+03  4.052776E+04  1.070734E-08  3.933967E-09
       119  13  7.612559E+04  2.340232E+04  1.506140E+02  4.546415E+04 -6.277412E-09 -5.684793E-09
       119  14  7.706482E+04  2.245063E+04  2.730263E+02  4.437167E+04  7.885995E-09 -7.644371E-10
       119  15  7.612895E+04  2.342665E+04  5.031884E+02  4.545498E+04  1.609328E-08  1.201645E-09
       119  16  6.725070E+04  2.021613E+04 -1.217756E+03  4.295560E+04 -1.276235E-09 -4.687235E-09
       119  17  8.144235E+04  2.400875E+04  1.001156E+03  4.558103E+04  6.027484E-09 -4.510727E-09
       119  18  9.376810E+04  2.973797E+04  3.363050E+03  5.038238E+04  3.372085E-09 -1.678551E-09
       119  19  8.500068E+04  2.658856E+04  1.519023E+03  4.797276E+04  1.955624E+03  1.588594E+03
       119  20  7.268732E+04  2.089251E+04 -4.550918E+02  4.316232E+04  2.452316E+03  5.452450E+02
       119  21  5.849034E+04  1.711544E+04 -2.356608E+03  4.052776E+04  2.940457E+03 -4.753924E+02
       119  22  7.612559E+04  2.340232E+04  1.506152E+02  4.546415E+04 -1.741405E+02  7.888497E+02
       119  23  7.706482E+04  2.245063E+04  2.730267E+02  4.437167E+04  3.669895E+02 -2.378054E+02
       119  24  7.612895E+04  2.342665E+04  5.031928E+02  4.545498E+04  8.995752E+02 -1.241753E+03
       119  25  6.725070E+04  2.021613E+04 -1.217746E+03  4.295560E+04 -2.303850E+03 -1.087366E+01
       119  26  8.144235E+04  2.400875E+04  1.001163E+03  4.558104E+04 -1.718352E+03 -1.020861E+03
       119  27  9.376810E+04  2.973798E+04  3.363060E+03  5.038239E+04 -1.141391E+03 -2.008146E+03
       120   1  5.007134E+04  1.411855E+04 -3.616283E+03  3.821929E+04 -3.278270E+03  1.053731E+03
       120   2  3.786158E+04  8.376638E+03 -5.336935E+03  3.320637E+04 -3.822678E+03  1.922137E+03
       120   3  2.389796E+04  4.822839E+03 -6.834320E+03  3.028580E+04 -4.283774E+03  2.568782E+03
       120   4  7.616422E+04  2.342816E+04  6.723611E+02  4.546471E+04 -1.223092E+03  1.825452E+03
       120   5  7.704057E+04  2.259159E+04  1.239134E+03  4.430574E+04 -2.201167E+03  2.530984E+03
       120   6  7.624871E+04  2.402896E+04  2.372663E+03  4.523902E+04 -3.095934E+03  3.014762E+03
       120   7  1.022578E+05  3.273784E+04  4.961005E+03  5.271041E+04  8.321765E+02  2.597206E+03
       120   8  1.162210E+05  3.680662E+04  7.815109E+03  5.540570E+04 -5.795581E+02  3.139868E+03
       120   9  1.286017E+05  4.323513E+04  1.157939E+04  6.019326E+04 -1.908001E+03  3.460777E+03
       120  10  5.007133E+04  1.411855E+04 -3.616305E+03  3.821929E+04  2.440914E-08  7.104579E-09
       120  11  3.786156E+04  8.376630E+03 -5.336970E+03  3.320637E+04  2.279997E-08  1.630980E-09
       120  12  2.389794E+04  4.822827E+03 -6.834367E+03  3.028581E+04  2.000105E-08  8.748170E-10
       120  13  7.616422E+04  2.342816E+04  6.723520E+02  4.546471E+04  1.205283E-08  1.327020E-09
       120  14  7.704057E+04  2.259159E+04  1.239113E+03  4.430574E+04  2.647410E-09  9.102022E-09
       120  15  7.624870E+04  2.402895E+04  2.372628E+03  4.523903E+04 -6.207589E-09  1.215402E-08
       120  16  1.022578E+05  3.273783E+04  4.960991E+03  5.271041E+04 -1.403692E-08 -5.830354E-09
       120  17  1.162210E+05  3.680661E+04  7.815089E+03  5.540570E+04 -1.651620E-08 -7.619930E-09
       120  18  1.286017E+05  4.323512E+04  1.157936E+04  6.019326E+04 -1.728683E-08 -1.117949E-08
       120  19  5.007134E+04  1.411855E+04 -3.616283E+03  3.821929E+04  3.278270E+03 -1.053731E+03
       120  20  3.786158E+04  8.376638E+03 -5.336935E+03  3.320637E+04  3.822678E+03 -1.922137E+03
       120  21  2.389796E+04  4.822839E+03 -6.834320E+03  3.028580E+04  4.283774E+03 -2.568782E+03
       120  22  7.616422E+04  2.342816E+04  6.723611E+02  4.546471E+04  1.223092E+03 -1.825452E+03
       120  23  7.704057E+04  2.259159E+04  1.239134E+03  4.430574E+04  2.201167E+03 -2.530984E+03
       120  24  7.624871E+04  2.402896E+04  2.372663E+03  4.523902E+04  3.095934E+03 -3.014762E+03
       120  25  1.022578E+05  3.273784E+04  4.961005E+03  5.271041E+04 -8.321765E+02 -2.597206E+03
       120  26  1.162210E+05  3.680662E+04  7.815109E+03  5.540570E+04  5.795581E+02 -3.139868E+03
       120  27  1.286017E+05  4.323513E+04  1.157939E+04  6.019326E+04  1.908001E+03 -3.460777E+03
       121   1  1.534350E+04  2.193745E+03 -7.722677E+03  2.843694E+04 -4.952226E+03  2.838590E+03
       121   2  5.353699E+03 -4.212308E+03 -8.953323E+03  1.977151E+04 -3.734642E+03  2.837131E+03
       121   3 -4.759598E+03 -4.107059E+03 -9.666978E+03  1.179765E+04 -1.705550E+03  6.740693E+02
       121   4  7.663199E+04  2.412545E+04  3.180634E+03  4.531464E+04 -3.625341E+03  3.336763E+03
       121   5  7.696349E+04  2.533437E+04  6.097596E+03  4.313529E+04 -6.634006E+03  1.748453E+03
       121   6  7.800835E+04  3.389140E+04  1.287940E+04  4.164782E+04 -8.831316E+03 -2.001327E+03
       121   7  1.379255E+05  4.605788E+04  1.408411E+04  6.219417E+04 -2.298294E+03  3.834996E+03
       121   8  1.485784E+05  5.488182E+04  2.114822E+04  6.650164E+04 -9.533720E+03  6.596035E+02
       121   9  1.607813E+05  7.189052E+04  3.542484E+04  7.150128E+04 -1.595796E+04 -4.677254E+03
       121  10  1.534347E+04  2.193730E+03 -7.722738E+03  2.843695E+04  4.955477E-08  1.286311E-08
       121  11  5.353682E+03 -4.212321E+03 -8.953364E+03  1.977151E+04  4.951089E-10 -1.365090E-09
       121  12 -4.759601E+03 -4.107060E+03 -9.666984E+03  1.179765E+04 -5.869447E-08 -2.187909E-08
       121  13  7.663197E+04  2.412543E+04  3.180589E+03  4.531465E+04 -3.988028E-09  1.386508E-08
       121  14  7.696344E+04  2.533436E+04  6.097507E+03  4.313530E+04  6.275851E-09  1.200717E-08
       121  15  7.800826E+04  3.389137E+04  1.287925E+04  4.164780E+04  3.350942E-09  3.961414E-09
       121  16  1.379255E+05  4.605786E+04  1.408408E+04  6.219418E+04 -3.942669E-08 -1.949892E-08
       121  17  1.485783E+05  5.488179E+04  2.114804E+04  6.650164E+04  2.060882E-08  5.788788E-09
       121  18  1.607811E+05  7.189043E+04  3.542432E+04  7.150122E+04  6.736365E-08  2.436951E-08
       121  19  1.534350E+04  2.193745E+03 -7.722677E+03  2.843694E+04  4.952226E+03 -2.838590E+03
       121  20  5.353699E+03 -4.212308E+03 -8.953323E+03  1.977151E+04  3.734642E+03 -2.837131E+03
       121  21 -4.759598E+03 -4.107059E+03 -9.666978E+03  1.179765E+04  1.705550E+03 -6.740693E+02
       121  22  7.663199E+04  2.412545E+04  3.180634E+03  4.531464E+04  3.625341E+03 -3.336763E+03
       121  23  7.696349E+04  2.533437E+04  6.097596E+03  4.313529E+04  6.634006E+03 -1.748453E+03
       121  24  7.800835E+04  3.389140E+04  1.287940E+04  4.164782E+04  8.831316E+03  2.001327E+03
       121  25  1.379255E+05  4.605788E+04  1.408411E+04  6.219417E+04  2.298294E+03 -3.834996E+03
       121  26  1.485784E+05  5.488182E+04  2.114822E+04  6.650164E+04  9.533720E+03 -6.596035E+02
       121  27  1.607813E+05  7.189052E+04  3.542484E+04  7.150128E+04  1.595796E+04  4.677254E+03
       122   1 -6.533764E+04 -3.351130E+05 -7.690723E+04  1.709690E+04 -7.158579E+02 -3.399168E+04
       122   2 -1.434836E+04 -3.122503E+05 -4.496633E+04  1.864992E+03 -2.000384E+03 -2.093702E+04
       122   3 -1.766077E+04 -3.046243E+05 -3.509545E+04  4.925881E+03 -1.368117E+03 -7.881121E+03
       122   4 -3.913002E+04 -2.302371E+05 -5.082601E+04  8.818636E+03 -7.157234E+02 -3.329755E+04
       122   5  7.974002E+03 -2.226696E+05 -2.297174E+04 -3.186196E+02 -2.000330E+03 -2.083885E+04
       122   6  8.839806E+02 -2.302331E+05 -1.677093E+04  8.837069E+03 -1.368010E+03 -8.379248E+03
       122   7 -1.292296E+04 -1.253511E+05 -2.474558E+04  5.389701E+02 -7.156075E+02 -3.260330E+04
       122   8  3.029578E+04 -1.330815E+05 -9.777322E+02 -2.502547E+03 -2.000278E+03 -2.074066E+04
       122   9  1.942837E+04 -1.558370E+05  1.553194E+03  1.274873E+04 -1.367909E+03 -8.877435E+03
       122  10 -6.533796E+04 -3.351142E+05 -7.690940E+04  1.709688E+04  3.476277E-10  2.996768E-09
       122  11 -1.434848E+04 -3.122508E+05 -4.496716E+04  1.864958E+03  6.394964E-10  5.271613E-10
       122  12 -1.766078E+04 -3.046243E+05 -3.509557E+04  4.925872E+03  1.605677E-09 -2.557630E-09
       122  13 -3.913031E+04 -2.302383E+05 -5.082810E+04  8.818616E+03  1.804626E-10  1.652763E-10
       122  14  7.973881E+03 -2.226700E+05 -2.297256E+04 -3.186532E+02  4.062932E-10  2.077840E-09
       122  15  8.839597E+02 -2.302332E+05 -1.677106E+04  8.837060E+03 -1.074735E-09  6.521813E-11
       122  16 -1.292324E+04 -1.253523E+05 -2.474758E+04  5.389513E+02  8.219027E-11 -2.072264E-09
       122  17  3.029566E+04 -1.330820E+05 -9.785483E+02 -2.502580E+03  1.278286E-09 -3.971992E-10
       122  18  1.942835E+04 -1.558371E+05  1.553042E+03  1.274872E+04 -9.022829E-10  2.889671E-09
       122  19 -6.533764E+04 -3.351130E+05 -7.690723E+04  1.709690E+04  7.158579E+02  3.399168E+04
       122  20 -1.434836E+04 -3.122503E+05 -4.496633E+04  1.864992E+03  2.000384E+03  2.093702E+04
       122  21 -1.766077E+04 -3.046243E+05 -3.509545E+04  4.925881E+03  1.368117E+03  7.881121E+03
       122  22 -3.913002E+04 -2.302371E+05 -5.082601E+04  8.818636E+03  7.157234E+02  3.329755E+04
       122  23  7.974002E+03 -2.226696E+05 -2.297174E+04 -3.186196E+02  2.000330E+03  2.083885E+04
       122  24  8.839806E+02 -2.302331E+05 -1.677093E+04  8.837069E+03  1.368010E+03  8.379248E+03
       122  25 -1.292296E+04 -1.253511E+05 -2.474558E+04  5.389701E+02  7.156075E+02  3.260330E+04
       122  26  3.029578E+04 -1.330815E+05 -9.777322E+02 -2.502547E+03  2.000278E+03  2.074066E+04
       122  27  1.942837E+04 -1.558370E+05  1.553194E+03  1.274873E+04  1.367909E+03  8.877435E+03
       123   1 -1.371569E+04 -2.628556E+05 -2.370857E+04  1.046713E+04 -7.384564E+02 -5.454994E+03
       123   2 -2.701186E+03 -2.452731E+05 -1.647823E+04 -3.791077E+02 -4.010596E+02  6.239181E+02
       123   3 -6.558027E+03 -2.321874E+05 -1.692184E+04  7.231159E+03  7.879681E+00  6.702971E+03
       123   4 -4.995557E+03 -2.278687E+05 -1.510947E+04  8.867306E+03 -7.384147E+02 -5.549755E+03
       123   5  2.196510E+03 -2.256223E+05 -1.164565E+04 -3.609242E+02 -4.010294E+02  5.070717E+02
       123   6 -5.478659E+03 -2.278688E+05 -1.584020E+04  8.867354E+03  7.928672E+00  6.563890E+03
       123   7  3.724493E+03 -1.928808E+05 -6.510453E+03  7.267392E+03 -7.383726E+02 -5.644520E+03
       123   8  7.094177E+03 -2.059711E+05 -6.813086E+03 -3.427401E+02 -4.009992E+02  3.902216E+02
       123   9 -4.399283E+03 -2.235502E+05 -1.475857E+04  1.050356E+04  7.976929E+00  6.424807E+03
       123  10 -1.371570E+04 -2.628556E+05 -2.370863E+04  1.046713E+04  1.389791E-09  1.062001E-09
       123  11 -2.701186E+03 -2.452731E+05 -1.647823E+04 -3.791075E+02  1.473783E-09  6.564157E-10
       123  12 -6.558039E+03 -2.321875E+05 -1.692193E+04  7.231159E+03 -2.405060E-11 -7.769905E-10
       123  13 -4.995566E+03 -2.278688E+05 -1.510953E+04  8.867302E+03 -1.843837E-09 -2.650864E-10
       123  14  2.196509E+03 -2.256223E+05 -1.164565E+04 -3.609240E+02 -2.322970E-10  1.549635E-09
       123  15 -5.478671E+03 -2.278689E+05 -1.584029E+04  8.867354E+03 -2.360936E-10 -1.170474E-10
       123  16  3.724484E+03 -1.928808E+05 -6.510514E+03  7.267389E+03  5.418113E-10 -4.200820E-10
       123  17  7.094177E+03 -2.059711E+05 -6.813087E+03 -3.427399E+02 -9.084879E-10 -7.841164E-10
       123  18 -4.399294E+03 -2.235503E+05 -1.475864E+04  1.050356E+04  9.826654E-10  9.771084E-10
       123  19 -1.371569E+04 -2.628556E+05 -2.370857E+04  1.046713E+04  7.384564E+02  5.454994E+03
       123  20 -2.701186E+03 -2.452731E+05 -1.647823E+04 -3.791077E+02  4.010596E+02 -6.239181E+02
       123  21 -6.558027E+03 -2.321874E+05 -1.692184E+04  7.231159E+03 -7.879681E+00 -6.702971E+03
       123  22 -4.995557E+03 -2.278687E+05 -1.510947E+04  8.867306E+03  7.384147E+02  5.549755E+03
       123  23  2.196510E+03 -2.256223E+05 -1.164565E+04 -3.609242E+02  4.010294E+02 -5.070717E+02
       123  24 -5.478659E+03 -2.278688E+05 -1.584020E+04  8.867354E+03 -7.928672E+00 -6.563890E+03
       123  25  3.724493E+03 -1.928808E+05 -6.510453E+03  7.267392E+03  7.383726E+02  5.644520E+03
       123  26  7.094177E+03 -2.059711E+05 -6.813086E+03 -3.427401E+02  4.009992E+02 -3.902216E+02
       123  27 -4.399283E+03 -2.235502E+05 -1.475857E+04  1.050356E+04 -7.976929E+00 -6.424807E+03
       124   1  9.864332E+03 -1.953443E+05 -9.109419E+03  1.310904E+04  5.581444E+02  9.937607E+03
       124   2  2.123298E+04 -1.718463E+05 -1.242800E+04 -2.710281E+03  1.149901E+03  2.299580E+04
       124   3 -2.617961E+04 -1.647236E+05 -3.893992E+04 -1.355192E+02  4.377461E+02  3.605381E+04
       124   4  1.092430E+03 -2.305247E+05 -1.779230E+04  8.858440E+03  5.581694E+02  9.548176E+03
       124   5  8.661368E+03 -2.223031E+05 -2.481045E+04 -3.458806E+02  1.149989E+03  2.301204E+04
       124   6 -4.262414E+04 -2.305291E+05 -5.530525E+04  8.843954E+03  4.381299E+02  3.647540E+04
       124   7 -7.679495E+03 -2.657039E+05 -2.647526E+04  4.608086E+03  5.581996E+02  9.158767E+03
       124   8 -3.910413E+03 -2.727576E+05 -3.719309E+04  2.018328E+03  1.150078E+03  2.302829E+04
       124   9 -5.906870E+04 -2.963304E+05 -7.167085E+04  1.782248E+04  4.385260E+02  3.689695E+04
       124  10  9.864305E+03 -1.953444E+05 -9.109605E+03  1.310903E+04 -7.226591E-10 -3.719330E-11
       124  11  2.123284E+04 -1.718469E+05 -1.242899E+04 -2.710303E+03  7.927643E-11  4.896322E-10
       124  12 -2.617996E+04 -1.647250E+05 -3.894236E+04 -1.355319E+02  1.812191E-10  5.502889E-10
       124  13  1.092405E+03 -2.305248E+05 -1.779247E+04  8.858436E+03  9.875207E-10  1.977086E-11
       124  14  8.661224E+03 -2.223037E+05 -2.481145E+04 -3.459019E+02  6.677195E-10  1.017664E-09
       124  15 -4.262450E+04 -2.305305E+05 -5.530775E+04  8.843942E+03  2.681383E-10  1.553579E-10
       124  16 -7.679518E+03 -2.657040E+05 -2.647541E+04  4.608082E+03  2.711960E-10  2.653522E-10
       124  17 -3.910557E+03 -2.727581E+05 -3.719409E+04  2.018307E+03  5.019723E-11 -8.159545E-10
       124  18 -5.906907E+04 -2.963319E+05 -7.167341E+04  1.782246E+04 -3.991894E-10 -3.047692E-10
       124  19  9.864332E+03 -1.953443E+05 -9.109419E+03  1.310904E+04 -5.581444E+02 -9.937607E+03
       124  20  2.123298E+04 -1.718463E+05 -1.242800E+04 -2.710281E+03 -1.149901E+03 -2.299580E+04
       124  21 -2.617961E+04 -1.647236E+05 -3.893992E+04 -1.355192E+02 -4.377461E+02 -3.605381E+04
       124  22  1.092430E+03 -2.305247E+05 -1.779230E+04  8.858440E+03 -5.581694E+02 -9.548176E+03
       124  23  8.661368E+03 -2.223031E+05 -2.481045E+04 -3.458806E+02 -1.149989E+03 -2.301204E+04
       124  24 -4.262414E+04 -2.305291E+05 -5.530525E+04  8.843954E+03 -4.381299E+02 -3.647540E+04
       124  25 -7.679495E+03 -2.657039E+05 -2.647526E+04  4.608086E+03 -5.581996E+02 -9.158767E+03
       124  26 -3.910413E+03 -2.727576E+05 -3.719309E+04  2.018328E+03 -1.150078E+03 -2.302829E+04
       124  27 -5.906870E+04 -2.963304E+05 -7.167085E+04  1.782248E+04 -4.385260E+02 -3.689695E+04
       125   1  1.037780E+05  3.451336E+04  2.173958E+04  3.801542E+04  1.186537E+04  4.308853E+03
       125   2  9.990145E+04  1.594901E+04  1.037300E+04  3.892601E+04  7.615557E+03  2.444574E+03
       125   3  1.015538E+05  1.515733E+04  6.759550E+03  3.700036E+04  3.243372E+03  9.061589E+02
       125   4  9.405107E+04  2.676884E+04  1.829133E+04  3.117486E+04  1.166855E+04  4.234830E+03
       125   5  9.035669E+04  1.119140E+04  7.641268E+03  3.511227E+04  7.579901E+03  2.431164E+03
       125   6  9.215942E+04  1.335480E+04  4.616801E+03  3.621344E+04  3.368854E+03  9.533013E+02
       125   7  8.432433E+04  1.902453E+04  1.484310E+04  2.433448E+04  1.147173E+04  4.160812E+03
       125   8  8.081205E+04  6.433825E+03  4.909540E+03  3.129859E+04  7.544247E+03  2.417754E+03
       125   9  8.276510E+04  1.155227E+04  2.474040E+03  3.542652E+04  3.494334E+03  1.000444E+03
       125  10  1.037779E+05  3.451331E+04  2.173928E+04  3.801538E+04  5.600248E-09  3.179599E-09
       125  11  9.990139E+04  1.594899E+04  1.037288E+04  3.892599E+04  3.347454E-09  1.507134E-09
       125  12  1.015538E+05  1.515732E+04  6.759528E+03  3.700036E+04 -4.804417E-09 -9.904219E-11
       125  13  9.405092E+04  2.676878E+04  1.829104E+04  3.117482E+04  1.076502E-09 -4.544482E-10
       125  14  9.035663E+04  1.119138E+04  7.641149E+03  3.511225E+04  1.059745E-09 -6.620942E-10
       125  15  9.215941E+04  1.335480E+04  4.616778E+03  3.621344E+04  7.208019E-10  1.690502E-10
       125  16  8.432418E+04  1.902447E+04  1.484282E+04  2.433444E+04 -3.282011E-09 -1.187920E-09
       125  17  8.081199E+04  6.433803E+03  4.909422E+03  3.129858E+04  2.077741E-09  2.362228E-09
       125  18  8.276509E+04  1.155227E+04  2.474015E+03  3.542651E+04  6.344661E-09  2.138518E-09
       125  19  1.037780E+05  3.451336E+04  2.173958E+04  3.801542E+04 -1.186537E+04 -4.308853E+03
       125  20  9.990145E+04  1.594901E+04  1.037300E+04  3.892601E+04 -7.615557E+03 -2.444574E+03
       125  21  1.015538E+05  1.515733E+04  6.759550E+03  3.700036E+04 -3.243372E+03 -9.061589E+02
       125  22  9.405107E+04  2.676884E+04  1.829133E+04  3.117486E+04 -1.166855E+04 -4.234830E+03
       125  23  9.035669E+04  1.119140E+04  7.641268E+03  3.511227E+04 -7.579901E+03 -2.431164E+03
       125  24  9.215942E+04  1.335480E+04  4.616801E+03  3.621344E+04 -3.368854E+03 -9.533013E+02
       125  25  8.432433E+04  1.902453E+04  1.484310E+04  2.433448E+04 -1.147173E+04 -4.160812E+03
       125  26  8.081205E+04  6.433825E+03  4.909540E+03  3.129859E+04 -7.544247E+03 -2.417754E+03
       125  27  8.276510E+04  1.155227E+04  2.474040E+03  3.542652E+04 -3.494334E+03 -1.000444E+03
       126   1  9.628959E+04  1.741310E+04  5.073047E+03  3.682747E+04  2.645160E+03  8.009787E+02
       126   2  9.436847E+04  1.411895E+04  2.528299E+03  3.573283E+04  1.666347E+03  5.185864E+02
       126   3  9.198515E+04  1.385642E+04  1.175256E+03  3.563616E+04  6.781778E+02  2.611375E+02
       126   4  9.156173E+04  1.524100E+04  3.752682E+03  3.512903E+04  2.675929E+03  8.125335E+02
       126   5  9.169343E+04  1.301276E+04  1.805276E+03  3.489813E+04  1.709452E+03  5.347767E+02
       126   6  9.136047E+04  1.381369E+04  1.039807E+03  3.566519E+04  7.336171E+02  2.819613E+02
       126   7  8.683390E+04  1.306890E+04  2.432315E+03  3.343060E+04  2.706697E+03  8.240882E+02
       126   8  8.901840E+04  1.190656E+04  1.082253E+03  3.406343E+04  1.752556E+03  5.509669E+02
       126   9  9.073580E+04  1.377095E+04  9.043584E+02  3.569422E+04  7.890560E+02  3.027851E+02
       126  10  9.628958E+04  1.741310E+04  5.073033E+03  3.682747E+04 -1.346300E-09  4.376833E-10
       126  11  9.436847E+04  1.411895E+04  2.528293E+03  3.573283E+04  7.361307E-10 -1.327291E-10
       126  12  9.198515E+04  1.385642E+04  1.175255E+03  3.563616E+04  6.001985E-11  1.116920E-09
       126  13  9.156173E+04  1.524100E+04  3.752667E+03  3.512903E+04 -6.676997E-10  6.165154E-10
       126  14  9.169343E+04  1.301276E+04  1.805270E+03  3.489813E+04 -4.671438E-10 -2.563828E-09
       126  15  9.136047E+04  1.381369E+04  1.039806E+03  3.566519E+04 -1.082022E-09  5.849030E-10
       126  16  8.683389E+04  1.306890E+04  2.432300E+03  3.343059E+04  1.199374E-09 -2.446650E-10
       126  17  8.901840E+04  1.190656E+04  1.082247E+03  3.406343E+04 -8.560949E-10  1.122147E-10
       126  18  9.073580E+04  1.377095E+04  9.043571E+02  3.569422E+04  1.684733E-10  1.200852E-09
       126  19  9.628959E+04  1.741310E+04  5.073047E+03  3.682747E+04 -2.645160E+03 -8.009787E+02
       126  20  9.436847E+04  1.411895E+04  2.528299E+03  3.573283E+04 -1.666347E+03 -5.185864E+02
       126  21  9.198515E+04  1.385642E+04  1.175256E+03  3.563616E+04 -6.781778E+02 -2.611375E+02
       126  22  9.156173E+04  1.524100E+04  3.752682E+03  3.512903E+04 -2.675929E+03 -8.125335E+02
       126  23  9.169343E+04  1.301276E+04  1.805276E+03  3.489813E+04 -1.709452E+03 -5.347767E+02
       126  24  9.136047E+04  1.381369E+04  1.039807E+03  3.566519E+04 -7.336171E+02 -2.819613E+02
       126  25  8.683390E+04  1.306890E+04  2.432315E+03  3.343060E+04 -2.706697E+03 -8.240882E+02
       126  26  8.901840E+04  1.190656E+04  1.082253E+03  3.406343E+04 -1.752556E+03 -5.509669E+02
       126  27  9.073580E+04  1.377095E+04  9.043584E+02  3.569422E+04 -7.890560E+02 -3.027851E+02
       127   1  8.862366E+04  1.304204E+04  1.095835E+02  3.485451E+04  5.126064E+02  2.696559E+02
       127   2  8.694384E+04  1.137528E+04 -8.661223E+02  3.354473E+04  2.592988E+02  2.868388E+02
       127   3  8.411092E+04  1.115283E+04 -1.629352E+03  3.362630E+04  5.262653E+00  3.059573E+02
       127   4  9.128483E+04  1.401010E+04  8.115396E+02  3.554653E+04  5.608029E+02  2.877590E+02
       127   5  9.185093E+04  1.321332E+04  4.242556E+02  3.487891E+04  3.084522E+02  3.053011E+02
       127   6  9.126377E+04  1.386068E+04  2.487027E+02  3.560266E+04  5.537250E+01  3.247786E+02
       127   7  9.394603E+04  1.497815E+04  1.513497E+03  3.623855E+04  6.089998E+02  3.058622E+02
       127   8  9.675805E+04  1.505136E+04  1.714634E+03  3.621310E+04  3.576062E+02  3.237637E+02
       127   9  9.841666E+04  1.656853E+04  2.126753E+03  3.757904E+04  1.054830E+02  3.436002E+02
       127  10  8.862366E+04  1.304204E+04  1.095829E+02  3.485451E+04 -3.425558E-10  1.105099E-09
       127  11  8.694384E+04  1.137528E+04 -8.661226E+02  3.354473E+04  9.328808E-10  9.296137E-10
       127  12  8.411092E+04  1.115283E+04 -1.629352E+03  3.362630E+04  1.091466E-09  9.408014E-10
       127  13  9.128483E+04  1.401010E+04  8.115389E+02  3.554653E+04 -6.901766E-10  1.038623E-09
       127  14  9.185093E+04  1.321332E+04  4.242552E+02  3.487891E+04 -2.354349E-10 -3.393508E-10
       127  15  9.126377E+04  1.386068E+04  2.487025E+02  3.560266E+04 -1.229044E-10 -1.431378E-10
       127  16  9.394603E+04  1.497815E+04  1.513496E+03  3.623855E+04 -7.408164E-10  1.884740E-10
       127  17  9.675805E+04  1.505136E+04  1.714633E+03  3.621310E+04 -9.839805E-10 -6.709643E-10
       127  18  9.841666E+04  1.656853E+04  2.126753E+03  3.757904E+04  7.427040E-10  1.083288E-09
       127  19  8.862366E+04  1.304204E+04  1.095835E+02  3.485451E+04 -5.126064E+02 -2.696559E+02
       127  20  8.694384E+04  1.137528E+04 -8.661223E+02  3.354473E+04 -2.592988E+02 -2.868388E+02
       127  21  8.411092E+04  1.115283E+04 -1.629352E+03  3.362630E+04 -5.262653E+00 -3.059573E+02
       127  22  9.128483E+04  1.401010E+04  8.115396E+02  3.554653E+04 -5.608029E+02 -2.877590E+02
       127  23  9.185093E+04  1.321332E+04  4.242556E+02  3.487891E+04 -3.084522E+02 -3.053011E+02
       127  24  9.126377E+04  1.386068E+04  2.487027E+02  3.560266E+04 -5.537250E+01 -3.247786E+02
       127  25  9.394603E+04  1.497815E+04  1.513497E+03  3.623855E+04 -6.089998E+02 -3.058622E+02
       127  26  9.675805E+04  1.505136E+04  1.714634E+03  3.621310E+04 -3.576062E+02 -3.237637E+02
       127  27  9.841666E+04  1.656853E+04  2.126753E+03  3.757904E+04 -1.054830E+02 -3.436002E+02
       128   1  8.095951E+04  1.001424E+04 -2.518931E+03  3.278272E+04 -5.300152E+01  3.511079E+02
       128   2  7.930823E+04  8.515328E+03 -3.174668E+03  3.144706E+04 -1.567213E+02  4.267144E+02
       128   3  7.641994E+04  8.295654E+03 -3.774895E+03  3.154337E+04 -2.605186E+02  5.025410E+02
       128   4  9.125313E+04  1.388065E+04  1.982087E+02  3.559041E+04 -3.412742E+00  3.697330E+02
       128   5  9.187072E+04  1.323461E+04  1.313775E+02  3.487684E+04 -1.070252E+02  4.453790E+02
       128   6  9.125129E+04  1.386778E+04  1.199726E+02  3.559523E+04 -2.107158E+02  5.212450E+02
       128   7  1.015468E+05  1.774705E+04  2.915332E+03  3.839812E+04  4.617680E+01  3.883585E+02
       128   8  1.044334E+05  1.795390E+04  3.437410E+03  3.830668E+04 -5.732809E+01  4.640440E+02
       128   9  1.060829E+05  1.943993E+04  4.014833E+03  3.964718E+04 -1.609115E+02  5.399495E+02
       128  10  8.095951E+04  1.001424E+04 -2.518931E+03  3.278272E+04  3.034705E-09 -7.944494E-11
       128  11  7.930823E+04  8.515328E+03 -3.174669E+03  3.144706E+04  9.082187E-10 -1.246692E-09
       128  12  7.641994E+04  8.295654E+03 -3.774896E+03  3.154337E+04  1.107607E-09 -2.118072E-09
       128  13  9.125313E+04  1.388065E+04  1.982084E+02  3.559041E+04  1.061309E-11  3.488530E-10
       128  14  9.187072E+04  1.323461E+04  1.313771E+02  3.487684E+04  3.220212E-10 -1.287362E-09
       128  15  9.125129E+04  1.386778E+04  1.199720E+02  3.559523E+04  9.419769E-10 -2.788442E-09
       128  16  1.015468E+05  1.774705E+04  2.915331E+03  3.839812E+04 -5.739269E-10 -1.291932E-10
       128  17  1.044334E+05  1.795390E+04  3.437409E+03  3.830668E+04 -9.179543E-10  7.145085E-10
       128  18  1.060829E+05  1.943993E+04  4.014833E+03  3.964718E+04 -2.647743E-10 -1.677684E-09
       128  19  8.095951E+04  1.001424E+04 -2.518931E+03  3.278272E+04  5.300152E+01 -3.511079E+02
       128  20  7.930823E+04  8.515328E+03 -3.174668E+03  3.144706E+04  1.567213E+02 -4.267144E+02
       128  21  7.641994E+04  8.295654E+03 -3.774895E+03  3.154337E+04  2.605186E+02 -5.025410E+02
       128  22  9.125313E+04  1.388065E+04  1.982087E+02  3.559041E+04  3.412742E+00 -3.697330E+02
       128  23  9.187072E+04  1.323461E+04  1.313775E+02  3.487684E+04  1.070252E+02 -4.453790E+02
       128  24  9.125129E+04  1.386778E+04  1.199726E+02  3.559523E+04  2.107158E+02 -5.212450E+02
       128  25  1.015468E+05  1.774705E+04  2.915332E+03  3.839812E+04 -4.617680E+01 -3.883585E+02
       128  26  1.044334E+05  1.795390E+04  3.437410E+03  3.830668E+04  5.732809E+01 -4.640440E+02
       128  27  1.060829E+05  1.943993E+04  4.014833E+03  3.964718E+04  1.609115E+02 -5.399495E+02
       129   1  7.328435E+04  7.121008E+03 -4.607238E+03  3.069732E+04 -3.032924E+02  5.534706E+02
       129   2  7.162713E+04  5.628557E+03 -5.144991E+03  2.935038E+04 -4.323531E+02  6.200390E+02
       129   3  6.873751E+04  5.432144E+03 -5.604991E+03  2.943830E+04 -5.612973E+02  6.863204E+02
       129   4  9.125174E+04  1.386756E+04  1.289616E+02  3.559735E+04 -2.533725E+02  5.722178E+02
       129   5  9.186963E+04  1.323151E+04  1.819236E+02  3.487542E+04 -3.825795E+02  6.387301E+02
       129   6  9.125511E+04  1.389151E+04  3.127472E+02  3.558836E+04 -5.116701E+02  7.049551E+02
       129   7  1.092194E+05  2.061414E+04  4.865133E+03  4.049751E+04 -2.034511E+02  5.909657E+02
       129   8  1.121125E+05  2.083447E+04  5.508794E+03  4.040062E+04 -3.328042E+02  6.574217E+02
       129   9  1.137731E+05  2.235089E+04  6.230424E+03  4.173860E+04 -4.620411E+02  7.235904E+02
       129  10  7.328435E+04  7.121008E+03 -4.607239E+03  3.069732E+04 -3.081246E-10 -1.075960E-10
       129  11  7.162713E+04  5.628556E+03 -5.144992E+03  2.935038E+04  1.075337E-09  5.022730E-10
       129  12  6.873751E+04  5.432143E+03 -5.604993E+03  2.943830E+04  1.891982E-09 -4.431074E-10
       129  13  9.125174E+04  1.386756E+04  1.289608E+02  3.559735E+04  2.593620E-10 -6.259499E-10
       129  14  9.186963E+04  1.323151E+04  1.819225E+02  3.487542E+04 -3.497252E-10  1.518246E-09
       129  15  9.125511E+04  1.389151E+04  3.127458E+02  3.558836E+04  1.099846E-09  1.704926E-10
       129  16  1.092194E+05  2.061414E+04  4.865133E+03  4.049751E+04  9.946163E-10 -1.417868E-09
       129  17  1.121125E+05  2.083447E+04  5.508793E+03  4.040062E+04  3.157417E-10 -5.085536E-10
       129  18  1.137731E+05  2.235089E+04  6.230423E+03  4.173860E+04 -1.454945E-09 -1.198754E-09
       129  19  7.328435E+04  7.121008E+03 -4.607238E+03  3.069732E+04  3.032924E+02 -5.534706E+02
       129  20  7.162713E+04  5.628557E+03 -5.144991E+03  2.935038E+04  4.323531E+02 -6.200390E+02
       129  21  6.873751E+04  5.432144E+03 -5.604991E+03  2.943830E+04  5.612973E+02 -6.863204E+02
       129  22  9.125174E+04  1.386756E+04  1.289616E+02  3.559735E+04  2.533725E+02 -5.722178E+02
       129  23  9.186963E+04  1.323151E+04  1.819236E+02  3.487542E+04  3.825795E+02 -6.387301E+02
       129  24  9.125511E+04  1.389151E+04  3.127472E+02  3.558836E+04  5.116701E+02 -7.049551E+02
       129  25  1.092194E+05  2.061414E+04  4.865133E+03  4.049751E+04  2.034511E+02 -5.909657E+02
       129  26  1.121125E+05  2.083447E+04  5.508794E+03  4.040062E+04  3.328042E+02 -6.574217E+02
       129  27  1.137731E+05  2.235089E+04  6.230424E+03  4.173860E+04  4.620411E+02 -7.235904E+02
       130   1  6.557940E+04  4.245693E+03 -6.358859E+03  2.863823E+04 -6.444825E+02  7.232974E+02
       130   2  6.389038E+04  2.685887E+03 -6.648595E+03  2.723808E+04 -1.038737E+03  6.906540E+02
       130   3  6.110431E+04  2.713668E+03 -6.586211E+03  2.721586E+04 -1.430686E+03  6.518762E+02
       130   4  9.127164E+04  1.385990E+04  4.036438E+02  3.561192E+04 -5.929645E+02  7.426410E+02
       130   5  9.183762E+04  1.319194E+04  7.075838E+02  3.487558E+04 -9.902673E+02  7.088513E+02
       130   6  9.130717E+04  1.411218E+04  1.366059E+03  3.551718E+04 -1.385265E+03  6.689268E+02
       130   7  1.169646E+05  2.347418E+04  7.166111E+03  4.258590E+04 -5.414441E+02  7.619856E+02
       130   8  1.197857E+05  2.369805E+04  8.063707E+03  4.251339E+04 -9.417952E+02  7.270496E+02
       130   9  1.215109E+05  2.551076E+04  9.318252E+03  4.381885E+04 -1.339843E+03  6.859783E+02
       130  10  6.557939E+04  4.245692E+03 -6.358861E+03  2.863823E+04  8.581867E-10  1.278519E-11
       130  11  6.389038E+04  2.685887E+03 -6.648598E+03  2.723808E+04  2.289355E-09  1.307415E-09
       130  12  6.110431E+04  2.713667E+03 -6.586215E+03  2.721586E+04  2.237395E-09  8.091066E-10
       130  13  9.127164E+04  1.385990E+04  4.036421E+02  3.561192E+04 -1.089177E-10 -6.519633E-10
       130  14  9.183762E+04  1.319194E+04  7.075810E+02  3.487558E+04  1.281575E-09  3.176957E-09
       130  15  9.130717E+04  1.411218E+04  1.366055E+03  3.551718E+04  1.110117E-09  4.284789E-09
       130  16  1.169646E+05  2.347418E+04  7.166109E+03  4.258590E+04  4.742603E-11 -1.138606E-09
       130  17  1.197857E+05  2.369805E+04  8.063705E+03  4.251339E+04 -1.392916E-09  5.346556E-10
       130  18  1.215109E+05  2.551075E+04  9.318248E+03  4.381886E+04  2.365735E-10 -4.252146E-10
       130  19  6.557940E+04  4.245693E+03 -6.358859E+03  2.863823E+04  6.444825E+02 -7.232974E+02
       130  20  6.389038E+04  2.685887E+03 -6.648595E+03  2.723808E+04  1.038737E+03 -6.906540E+02
       130  21  6.110431E+04  2.713668E+03 -6.586211E+03  2.721586E+04  1.430686E+03 -6.518762E+02
       130  22  9.127164E+04  1.385990E+04  4.036438E+02  3.561192E+04  5.929645E+02 -7.426410E+02
       130  23  9.183762E+04  1.319194E+04  7.075838E+02  3.487558E+04  9.902673E+02 -7.088513E+02
       130  24  9.130717E+04  1.411218E+04  1.366059E+03  3.551718E+04  1.385265E+03 -6.689268E+02
       130  25  1.169646E+05  2.347418E+04  7.166111E+03  4.258590E+04  5.414441E+02 -7.619856E+02
       130  26  1.197857E+05  2.369805E+04  8.063707E+03  4.251339E+04  9.417952E+02 -7.270496E+02
       130  27  1.215109E+05  2.551076E+04  9.318252E+03  4.381885E+04  1.339843E+03 -6.859783E+02
       131   1  5.779057E+04  1.471819E+03 -7.044556E+03  2.687431E+04 -1.733520E+03  6.192021E+02
       131   2  5.599007E+04 -6.841561E+02 -6.347710E+03  2.501800E+04 -3.314234E+03  1.392974E+02
       131   3  5.424210E+04  1.426866E+03 -3.686606E+03  2.388546E+04 -4.863849E+03 -4.234128E+02
       131   4  9.143362E+04  1.378231E+04  1.753063E+03  3.571981E+04 -1.663872E+03  6.453493E+02
       131   5  9.157313E+04  1.285046E+04  3.047622E+03  3.490525E+04 -3.285614E+03  1.500357E+02
       131   6  9.177323E+04  1.619359E+04  6.338851E+03  3.481443E+04 -4.876269E+03 -4.280876E+02
       131   7  1.250777E+05  2.609282E+04  1.055056E+04  4.456570E+04 -1.594219E+03  6.714978E+02
       131   8  1.271574E+05  2.638516E+04  1.244285E+04  4.479301E+04 -3.256992E+03  1.607748E+02
       131   9  1.293058E+05  3.096047E+04  1.636421E+04  4.574404E+04 -4.888689E+03 -4.327629E+02
       131  10  5.779056E+04  1.471818E+03 -7.044563E+03  2.687431E+04  4.307851E-11 -6.695953E-10
       131  11  5.599006E+04 -6.841591E+02 -6.347730E+03  2.501800E+04 -2.385010E-09 -1.864044E-09
       131  12  5.424207E+04  1.426859E+03 -3.686651E+03  2.388546E+04 -3.194333E-09 -1.349606E-09
       131  13  9.143362E+04  1.378231E+04  1.753057E+03  3.571981E+04  9.463239E-10  2.013494E-09
       131  14  9.157311E+04  1.285046E+04  3.047602E+03  3.490525E+04 -2.322792E-10  2.436848E-09
       131  15  9.177320E+04  1.619358E+04  6.338806E+03  3.481443E+04 -2.153955E-09 -3.850567E-10
       131  16  1.250777E+05  2.609282E+04  1.055055E+04  4.456571E+04  1.331335E-09 -4.190858E-10
       131  17  1.271574E+05  2.638516E+04  1.244283E+04  4.479301E+04  1.499780E-09 -1.921133E-09
       131  18  1.293058E+05  3.096047E+04  1.636417E+04  4.574404E+04 -7.039765E-10  5.151109E-10
       131  19  5.779057E+04  1.471819E+03 -7.044556E+03  2.687431E+04  1.733520E+03 -6.192021E+02
       131  20  5.599007E+04 -6.841561E+02 -6.347710E+03  2.501800E+04  3.314234E+03 -1.392974E+02
       131  21  5.424210E+04  1.426866E+03 -3.686606E+03  2.388546E+04  4.863849E+03  4.234128E+02
       131  22  9.143362E+04  1.378231E+04  1.753063E+03  3.571981E+04  1.663872E+03 -6.453493E+02
       131  23  9.157313E+04  1.285046E+04  3.047622E+03  3.490525E+04  3.285614E+03 -1.500357E+02
       131  24  9.177323E+04  1.619359E+04  6.338851E+03  3.481443E+04  4.876269E+03  4.280876E+02
       131  25  1.250777E+05  2.609282E+04  1.055056E+04  4.456570E+04  1.594219E+03 -6.714978E+02
       131  26  1.271574E+05  2.638516E+04  1.244285E+04  4.479301E+04  3.256992E+03 -1.607748E+02
       131  27  1.293058E+05  3.096047E+04  1.636421E+04  4.574404E+04  4.888689E+03  4.327629E+02
       132   1  4.945786E+04 -3.464623E+02 -3.027131E+03  2.782422E+04 -6.363968E+03 -7.425896E+02
       132   2  4.725860E+04 -7.996211E+03  1.478264E+03  2.175153E+04 -1.291032E+04 -3.118729E+03
       132   3  5.508789E+04  1.337929E+04  1.844276E+04  9.925659E+03 -1.904937E+04 -6.579894E+03
       132   4  9.278459E+04  1.300604E+04  7.799160E+03  3.664506E+04 -6.060758E+03 -6.287368E+02
       132   5  8.931367E+04  9.773705E+03  1.290872E+04  3.526765E+04 -1.314411E+04 -3.206542E+03
       132   6  9.597675E+04  3.567160E+04  3.090207E+04  2.813741E+04 -1.982011E+04 -6.869438E+03
       132   7  1.361132E+05  2.635855E+04  1.862533E+04  4.546641E+04 -5.757524E+03 -5.148786E+02
       132   8  1.313703E+05  2.754378E+04  2.433895E+04  4.878459E+04 -1.337790E+04 -3.294362E+03
       132   9  1.368669E+05  5.796439E+04  4.336107E+04  4.635021E+04 -2.059089E+04 -7.159021E+03
       132  10  4.945782E+04 -3.464737E+02 -3.027208E+03  2.782421E+04 -1.712425E-09  2.394647E-10
       132  11  4.725841E+04 -7.996266E+03  1.477933E+03  2.175149E+04 -1.727326E-10 -3.666360E-10
       132  12  5.508749E+04  1.337915E+04  1.844200E+04  9.925558E+03  1.082903E-09  2.004374E-10
       132  13  9.278456E+04  1.300603E+04  7.799091E+03  3.664506E+04 -1.285770E-09 -3.872754E-10
       132  14  8.931349E+04  9.773647E+03  1.290837E+04  3.526762E+04 -2.903200E-09  5.670905E-10
       132  15  9.597631E+04  3.567144E+04  3.090124E+04  2.813730E+04 -8.963533E-10 -3.215357E-10
       132  16  1.361132E+05  2.635855E+04  1.862527E+04  4.546641E+04 -1.768072E-09 -6.212883E-10
       132  17  1.313701E+05  2.754372E+04  2.433860E+04  4.878455E+04  6.640743E-10  9.554729E-10
       132  18  1.368664E+05  5.796422E+04  4.336018E+04  4.635010E+04 -4.949367E-10 -3.332773E-11
       132  19  4.945786E+04 -3.464623E+02 -3.027131E+03  2.782422E+04  6.363968E+03  7.425896E+02
       132  20  4.725860E+04 -7.996211E+03  1.478264E+03  2.175153E+04  1.291032E+04  3.118729E+03
       132  21  5.508789E+04  1.337929E+04  1.844276E+04  9.925659E+03  1.904937E+04  6.579894E+03
       132  22  9.278459E+04  1.300604E+04  7.799160E+03  3.664506E+04  6.060758E+03  6.287368E+02
       132  23  8.931367E+04  9.773705E+03  1.290872E+04  3.526765E+04  1.314411E+04  3.206542E+03
       132  24  9.597675E+04  3.567160E+04  3.090207E+04  2.813741E+04  1.982011E+04  6.869438E+03
       132  25  1.361132E+05  2.635855E+04  1.862533E+04  4.546641E+04  5.757524E+03  5.148786E+02
       132  26  1.313703E+05  2.754378E+04  2.433895E+04  4.878459E+04  1.337790E+04  3.294362E+03
       132  27  1.368669E+05  5.796439E+04  4.336107E+04  4.635021E+04  2.059089E+04  7.159021E+03
       133   1 -1.093936E+01 -1.157931E+05 -4.461765E+02  4.880521E+00 -2.462826E+00  3.817200E+01
       133   2 -1.644735E+01 -1.158396E+05 -5.636651E+02  1.239205E+01 -4.784346E+00  3.044424E+02
       133   3 -1.297830E+02 -1.159478E+05 -8.814940E+02 -2.505206E+01 -8.258921E+00  5.707163E+02
       133   4 -1.038094E+00 -1.157527E+05 -4.371112E+02 -9.983580E+00 -2.463134E+00  3.925364E+01
       133   5  1.260928E+01 -1.157218E+05 -5.361940E+02  1.248268E+01 -4.784865E+00  3.062711E+02
       133   6 -8.170039E+01 -1.157527E+05 -8.361356E+02 -1.000646E+01 -8.259637E+00  5.732922E+02
       133   7  8.863175E+00 -1.157123E+05 -4.280459E+02 -2.484768E+01 -2.463442E+00  4.033529E+01
       133   8  4.166591E+01 -1.156040E+05 -5.087228E+02  1.257332E+01 -4.785383E+00  3.080999E+02
       133   9 -3.361781E+01 -1.155576E+05 -7.907772E+02  5.039144E+00 -8.260354E+00  5.758681E+02
       133  10 -1.093936E+01 -1.157931E+05 -4.461765E+02  4.880521E+00  3.759688E-09  3.386987E-09
       133  11 -1.644738E+01 -1.158396E+05 -5.636653E+02  1.239205E+01 -1.417997E-09 -1.804096E-09
       133  12 -1.297831E+02 -1.159478E+05 -8.814947E+02 -2.505206E+01 -6.149509E-11 -2.037542E-09
       133  13 -1.038095E+00 -1.157527E+05 -4.371112E+02 -9.983580E+00  3.218281E-10  1.067947E-11
       133  14  1.260926E+01 -1.157218E+05 -5.361942E+02  1.248269E+01 -4.008344E-09  2.279145E-10
       133  15 -8.170048E+01 -1.157527E+05 -8.361363E+02 -1.000646E+01 -1.165301E-09 -4.150148E-10
       133  16  8.863175E+00 -1.157123E+05 -4.280459E+02 -2.484768E+01  3.473725E-09 -3.384436E-09
       133  17  4.166589E+01 -1.156040E+05 -5.087230E+02  1.257332E+01 -1.585426E-09  1.175435E-09
       133  18 -3.361790E+01 -1.155576E+05 -7.907778E+02  5.039147E+00 -2.604212E-09  2.756454E-09
       133  19 -1.093936E+01 -1.157931E+05 -4.461765E+02  4.880521E+00  2.462826E+00 -3.817200E+01
       133  20 -1.644735E+01 -1.158396E+05 -5.636651E+02  1.239205E+01  4.784346E+00 -3.044424E+02
       133  21 -1.297830E+02 -1.159478E+05 -8.814940E+02 -2.505206E+01  8.258921E+00 -5.707163E+02
       133  22 -1.038094E+00 -1.157527E+05 -4.371112E+02 -9.983580E+00  2.463134E+00 -3.925364E+01
       133  23  1.260928E+01 -1.157218E+05 -5.361940E+02  1.248268E+01  4.784865E+00 -3.062711E+02
       133  24 -8.170039E+01 -1.157527E+05 -8.361356E+02 -1.000646E+01  8.259637E+00 -5.732922E+02
       133  25  8.863175E+00 -1.157123E+05 -4.280459E+02 -2.484768E+01  2.463442E+00 -4.033529E+01
       133  26  4.166591E+01 -1.156040E+05 -5.087228E+02  1.257332E+01  4.785383E+00 -3.080999E+02
       133  27 -3.361781E+01 -1.155576E+05 -7.907772E+02  5.039144E+00  8.260354E+00 -5.758681E+02
       134   1 -1.188866E+01 -1.161051E+05 -1.110956E+03  1.527865E+02 -1.066389E+01  7.367624E+02
       134   2  1.870552E+01 -1.159793E+05 -1.815368E+03 -7.120265E+01 -1.432560E+01  1.617132E+03
       134   3 -1.117742E+03 -1.162600E+05 -3.384782E+03 -3.403153E+02 -1.713818E+01  2.497502E+03
       134   4  5.631233E+01 -1.158293E+05 -1.046376E+03 -9.938004E+00 -1.066479E+01  7.392484E+02
       134   5  1.057841E+02 -1.156261E+05 -1.732922E+03  1.247245E+01 -1.432593E+01  1.619068E+03
       134   6 -1.011690E+03 -1.158294E+05 -3.284088E+03 -1.024062E+01 -1.713724E+01  2.498888E+03
       134   7  1.245134E+02 -1.155534E+05 -9.817956E+02 -1.726625E+02 -1.066568E+01  7.417344E+02
       134   8  1.928627E+02 -1.152729E+05 -1.650476E+03  9.614760E+01 -1.432626E+01  1.621004E+03
       134   9 -9.056378E+02 -1.153987E+05 -3.183393E+03  3.198343E+02 -1.713630E+01  2.500273E+03
       134  10 -1.188881E+01 -1.161051E+05 -1.110957E+03  1.527865E+02  3.250217E-10 -8.054471E-10
       134  11  1.870482E+01 -1.159793E+05 -1.815372E+03 -7.120263E+01 -7.254092E-10 -8.207191E-10
       134  12 -1.117744E+03 -1.162600E+05 -3.384794E+03 -3.403153E+02 -8.186593E-10  6.880925E-10
       134  13  5.631218E+01 -1.158293E+05 -1.046377E+03 -9.937998E+00  6.257058E-10  8.140268E-10
       134  14  1.057834E+02 -1.156261E+05 -1.732926E+03  1.247247E+01  2.021626E-10 -2.998470E-10
       134  15 -1.011692E+03 -1.158294E+05 -3.284099E+03 -1.024059E+01  3.177093E-10 -1.154324E-09
       134  16  1.245133E+02 -1.155534E+05 -9.817966E+02 -1.726625E+02 -4.950148E-10  7.924396E-10
       134  17  1.928620E+02 -1.152730E+05 -1.650481E+03  9.614762E+01  2.060156E-09  6.091334E-10
       134  18 -9.056395E+02 -1.153987E+05 -3.183405E+03  3.198344E+02  1.315282E-09 -1.146043E-10
       134  19 -1.188866E+01 -1.161051E+05 -1.110956E+03  1.527865E+02  1.066389E+01 -7.367624E+02
       134  20  1.870552E+01 -1.159793E+05 -1.815368E+03 -7.120265E+01  1.432560E+01 -1.617132E+03
       134  21 -1.117742E+03 -1.162600E+05 -3.384782E+03 -3.403153E+02  1.713818E+01 -2.497502E+03
       134  22  5.631233E+01 -1.158293E+05 -1.046376E+03 -9.938004E+00  1.066479E+01 -7.392484E+02
       134  23  1.057841E+02 -1.156261E+05 -1.732922E+03  1.247245E+01  1.432593E+01 -1.619068E+03
       134  24 -1.011690E+03 -1.158294E+05 -3.284088E+03 -1.024062E+01  1.713724E+01 -2.498888E+03
       134  25  1.245134E+02 -1.155534E+05 -9.817956E+02 -1.726625E+02  1.066568E+01 -7.417344E+02
       134  26  1.928627E+02 -1.152729E+05 -1.650476E+03  9.614760E+01  1.432626E+01 -1.621004E+03
       134  27 -9.056378E+02 -1.153987E+05 -3.183393E+03  3.198343E+02  1.713630E+01 -2.500273E+03
       135   1  5.323898E+02 -1.171089E+05 -4.172061E+03  1.732775E+03 -2.149027E+01  3.101762E+03
       135   2  9.884799E+02 -1.152533E+05 -6.761895E+03 -1.405267E+03 -2.421540E+01  6.664318E+03
       135   3 -1.217893E+04 -1.172677E+05 -1.507728E+04 -4.590301E+03 -1.040623E+01  1.022683E+04
       135   4  6.594891E+02 -1.165985E+05 -4.052902E+03 -9.413226E+00 -2.150080E+01  3.108229E+03
       135   5  1.132734E+03 -1.146648E+05 -6.624366E+03  1.232035E+01 -2.419897E+01  6.660052E+03
       135   6 -1.201568E+04 -1.165992E+05 -1.491393E+04 -1.299684E+01 -1.032657E+01  1.021183E+04
       135   7  7.865998E+02 -1.160881E+05 -3.933742E+03 -1.751603E+03 -2.151137E+01  3.114696E+03
       135   8  1.276996E+03 -1.140763E+05 -6.486836E+03  1.429909E+03 -2.418256E+01  6.655785E+03
       135   9 -1.185236E+04 -1.159307E+05 -1.475057E+04  4.564312E+03 -1.024714E+01  1.019683E+04
       135  10  5.323872E+02 -1.171089E+05 -4.172079E+03  1.732775E+03  2.631118E-11 -2.220801E-10
       135  11  9.884680E+02 -1.152533E+05 -6.761978E+03 -1.405267E+03 -1.339007E-09 -1.444849E-09
       135  12 -1.217895E+04 -1.172678E+05 -1.507748E+04 -4.590301E+03 -4.844221E-11  2.813720E-10
       135  13  6.594865E+02 -1.165985E+05 -4.052920E+03 -9.413173E+00 -1.641548E-09  5.488552E-10
       135  14  1.132722E+03 -1.146648E+05 -6.624449E+03  1.232048E+01 -1.202884E-09  4.629811E-10
       135  15 -1.201571E+04 -1.165993E+05 -1.491412E+04 -1.299676E+01  4.173912E-10 -1.159447E-09
       135  16  7.865972E+02 -1.160881E+05 -3.933760E+03 -1.751603E+03  5.817093E-10 -4.360308E-11
       135  17  1.276984E+03 -1.140763E+05 -6.486919E+03  1.429909E+03  2.559675E-10  9.612799E-10
       135  18 -1.185239E+04 -1.159308E+05 -1.475076E+04  4.564312E+03  9.637370E-11  7.421168E-10
       135  19  5.323898E+02 -1.171089E+05 -4.172061E+03  1.732775E+03  2.149027E+01 -3.101762E+03
       135  20  9.884799E+02 -1.152533E+05 -6.761895E+03 -1.405267E+03  2.421540E+01 -6.664318E+03
       135  21 -1.217893E+04 -1.172677E+05 -1.507728E+04 -4.590301E+03  1.040623E+01 -1.022683E+04
       135  22  6.594891E+02 -1.165985E+05 -4.052902E+03 -9.413226E+00  2.150080E+01 -3.108229E+03
       135  23  1.132734E+03 -1.146648E+05 -6.624366E+03  1.232035E+01  2.419897E+01 -6.660052E+03
       135  24 -1.201568E+04 -1.165992E+05 -1.491393E+04 -1.299684E+01  1.032657E+01 -1.021183E+04
       135  25  7.865998E+02 -1.160881E+05 -3.933742E+03 -1.751603E+03  2.151137E+01 -3.114696E+03
       135  26  1.276996E+03 -1.140763E+05 -6.486836E+03  1.429909E+03  2.418256E+01 -6.655785E+03
       135  27 -1.185236E+04 -1.159307E+05 -1.475057E+04  4.564312E+03  1.024714E+01 -1.019683E+04
       136   1 -2.228365E+06 -7.268187E+05 -3.912525E+05 -7.760915E+05 -1.268711E+05 -2.455365E+04
       136   2 -2.163174E+06 -6.401170E+05 -2.969336E+05 -7.524400E+05 -8.504551E+04  4.512779E+04
       136   3 -2.107678E+06 -6.052844E+05 -2.575814E+05 -7.351867E+05 -2.967331E+04  7.899921E+04
       136   4 -9.438496E+05 -2.191828E+05 -5.156622E+04 -3.997317E+05 -4.090759E+04  7.901291E+03
       136   5 -9.408327E+05 -1.779076E+05 -2.339538E+04 -4.040813E+05 -4.637372E+04  5.970379E+04
       136   6 -9.380782E+05 -1.790622E+05 -1.257030E+04 -4.148395E+05 -3.831535E+04  7.572608E+04
       136   7  3.422613E+05  2.885971E+05  2.880007E+05 -2.265343E+04  4.524969E+04  4.043758E+04
       136   8  2.830183E+05  2.844358E+05  2.500527E+05 -5.508597E+04 -7.619459E+03  7.431243E+04
       136   9  2.329364E+05  2.472730E+05  2.323703E+05 -9.393371E+04 -4.697510E+04  7.244644E+04
       136  10 -2.228382E+06 -7.268236E+05 -3.912840E+05 -7.760941E+05  7.509819E-10 -5.157451E-10
       136  11 -2.163182E+06 -6.401211E+05 -2.969511E+05 -7.524369E+05  4.092054E-10 -2.533217E-09
       136  12 -2.107681E+06 -6.052914E+05 -2.575947E+05 -7.351848E+05  3.332417E-10 -7.802637E-10
       136  13 -9.438514E+05 -2.191833E+05 -5.156948E+04 -3.997314E+05  1.561315E-09 -1.151337E-10
       136  14 -9.408359E+05 -1.779120E+05 -2.340611E+04 -4.040790E+05  1.476776E-09  7.178157E-10
       136  15 -9.380813E+05 -1.790687E+05 -1.258383E+04 -4.148372E+05 -9.246774E-10 -1.266321E-10
       136  16  3.422586E+05  2.885948E+05  2.879938E+05 -2.265490E+04 -5.171565E-10  8.367599E-10
       136  17  2.830167E+05  2.844298E+05  2.500423E+05 -5.508552E+04 -3.931979E-11  1.450565E-09
       136  18  2.329326E+05  2.472668E+05  2.323563E+05 -9.393097E+04 -3.359452E-10  1.169709E-09
       136  19 -2.228365E+06 -7.268187E+05 -3.912525E+05 -7.760915E+05  1.268711E+05  2.455365E+04
       136  20 -2.163174E+06 -6.401170E+05 -2.969336E+05 -7.524400E+05  8.504551E+04 -4.512779E+04
       136  21 -2.107678E+06 -6.052844E+05 -2.575814E+05 -7.351867E+05  2.967331E+04 -7.899921E+04
       136  22 -9.438496E+05 -2.191828E+05 -5.156622E+04 -3.997317E+05  4.090759E+04 -7.901291E+03
       136  23 -9.408327E+05 -1.779076E+05 -2.339538E+04 -4.040813E+05  4.637372E+04 -5.970379E+04
       136  24 -9.380782E+05 -1.790622E+05 -1.257030E+04 -4.148395E+05  3.831535E+04 -7.572608E+04
       136  25  3.422613E+05  2.885971E+05  2.880007E+05 -2.265343E+04 -4.524969E+04 -4.043758E+04
       136  26  2.830183E+05  2.844358E+05  2.500527E+05 -5.508597E+04  7.619459E+03 -7.431243E+04
       136  27  2.329364E+05  2.472730E+05  2.323703E+05 -9.393371E+04  4.697510E+04 -7.244644E+04
       137   1 -2.054422E+06 -5.932126E+05 -2.448637E+05 -7.247111E+05 -3.460197E+04  7.311715E+04
       137   2 -1.993620E+06 -5.588193E+05 -2.233422E+05 -6.979993E+05 -2.839740E+04  7.339230E+04
       137   3 -1.919911E+06 -5.403490E+05 -2.063610E+05 -6.870419E+05 -2.135805E+04  7.144019E+04
       137   4 -9.361604E+05 -1.812023E+05 -9.660074E+03 -4.138265E+05 -3.552247E+04  7.275598E+04
       137   5 -9.427588E+05 -1.726909E+05 -5.128141E+03 -4.062558E+05 -3.225578E+04  7.192657E+04
       137   6 -9.358698E+05 -1.795150E+05 -2.799053E+03 -4.144388E+05 -2.815574E+04  6.887168E+04
       137   7  1.833828E+05  2.309136E+05  2.254749E+05 -1.024241E+05 -3.644476E+04  7.239416E+04
       137   8  1.092330E+05  2.135295E+05  2.130261E+05 -1.140566E+05 -3.612121E+04  7.045820E+04
       137   9  4.915878E+04  1.813977E+05  2.007100E+05 -1.414383E+05 -3.496502E+04  6.629883E+04
       137  10 -2.054425E+06 -5.932186E+05 -2.448760E+05 -7.247090E+05  3.340379E-10  1.211075E-09
       137  11 -1.993623E+06 -5.588253E+05 -2.233539E+05 -6.979976E+05 -9.608394E-10  1.171007E-09
       137  12 -1.919913E+06 -5.403546E+05 -2.063715E+05 -6.870406E+05 -1.106606E-09  9.573879E-10
       137  13 -9.361631E+05 -1.812083E+05 -9.672386E+03 -4.138244E+05  1.207176E-10 -6.771261E-10
       137  14 -9.427613E+05 -1.726968E+05 -5.139812E+03 -4.062539E+05 -4.912868E-10 -8.251811E-10
       137  15 -9.358719E+05 -1.795203E+05 -2.809451E+03 -4.144372E+05 -2.460730E-10  3.603246E-10
       137  16  1.833800E+05  2.309076E+05  2.254626E+05 -1.024220E+05 -4.619594E-10  1.589335E-10
       137  17  1.092303E+05  2.135239E+05  2.130144E+05 -1.140545E+05  2.804482E-10  1.464513E-09
       137  18  4.915628E+04  1.813927E+05  2.006994E+05 -1.414364E+05  1.972376E-10  8.509425E-10
       137  19 -2.054422E+06 -5.932126E+05 -2.448637E+05 -7.247111E+05  3.460197E+04 -7.311715E+04
       137  20 -1.993620E+06 -5.588193E+05 -2.233422E+05 -6.979993E+05  2.839740E+04 -7.339230E+04
       137  21 -1.919911E+06 -5.403490E+05 -2.063610E+05 -6.870419E+05  2.135805E+04 -7.144019E+04
       137  22 -9.361604E+05 -1.812023E+05 -9.660074E+03 -4.138265E+05  3.552247E+04 -7.275598E+04
       137  23 -9.427588E+05 -1.726909E+05 -5.128141E+03 -4.062558E+05  3.225578E+04 -7.192657E+04
       137  24 -9.358698E+05 -1.795150E+05 -2.799053E+03 -4.144388E+05  2.815574E+04 -6.887168E+04
       137  25  1.833828E+05  2.309136E+05  2.254749E+05 -1.024241E+05  3.644476E+04 -7.239416E+04
       137  26  1.092330E+05  2.135295E+05  2.130261E+05 -1.140566E+05  3.612121E+04 -7.045820E+04
       137  27  4.915878E+04  1.813977E+05  2.007100E+05 -1.414383E+05  3.496502E+04 -6.629883E+04
       138   1 -1.872346E+06 -5.231297E+05 -1.955213E+05 -6.740599E+05 -2.029139E+04  6.843839E+04
       138   2 -1.811217E+06 -4.907049E+05 -1.804667E+05 -6.468509E+05 -1.766027E+04  6.385942E+04
       138   3 -1.735732E+06 -4.726749E+05 -1.659800E+05 -6.359862E+05 -1.497523E+04  5.912397E+04
       138   4 -9.357011E+05 -1.796277E+05 -2.113578E+03 -4.144388E+05 -2.663789E+04  6.604165E+04
       138   5 -9.428639E+05 -1.723787E+05 -1.178532E+03 -4.062842E+05 -2.421208E+04  6.138860E+04
       138   6 -9.356382E+05 -1.794832E+05 -6.491332E+02 -4.144745E+05 -2.173251E+04  5.657916E+04
       138   7  1.852762E+03  1.639515E+05  1.912504E+05 -1.544534E+05 -3.299478E+04  6.364102E+04
       138   8 -7.373241E+04  1.460126E+05  1.780713E+05 -1.654054E+05 -3.077382E+04  5.891406E+04
       138   9 -1.348861E+05  1.137626E+05  1.646484E+05 -1.926986E+05 -2.849919E+04  5.403083E+04
       138  10 -1.872347E+06 -5.231349E+05 -1.955308E+05 -6.740588E+05 -5.674873E-10  9.311126E-10
       138  11 -1.811218E+06 -4.907094E+05 -1.804749E+05 -6.468500E+05  2.253417E-11  8.376559E-10
       138  12 -1.735733E+06 -4.726787E+05 -1.659870E+05 -6.359855E+05  3.613187E-10 -2.527582E-10
       138  13 -9.357031E+05 -1.796325E+05 -2.123102E+03 -4.144374E+05 -2.273801E-10  2.673460E-10
       138  14 -9.428655E+05 -1.723829E+05 -1.186711E+03 -4.062830E+05  5.416299E-10  3.420781E-10
       138  15 -9.356396E+05 -1.794867E+05 -6.560328E+02 -4.144735E+05 -1.039947E-11  1.699565E-10
       138  16  1.850507E+03  1.639469E+05  1.912407E+05 -1.544517E+05  2.995370E-11  5.641781E-11
       138  17 -7.373436E+04  1.460086E+05  1.780630E+05 -1.654039E+05 -7.632587E-12 -6.887754E-10
       138  18 -1.348878E+05  1.137592E+05  1.646414E+05 -1.926974E+05  1.772650E-10 -6.249669E-10
       138  19 -1.872346E+06 -5.231297E+05 -1.955213E+05 -6.740599E+05  2.029139E+04 -6.843839E+04
       138  20 -1.811217E+06 -4.907049E+05 -1.804667E+05 -6.468509E+05  1.766027E+04 -6.385942E+04
       138  21 -1.735732E+06 -4.726749E+05 -1.659800E+05 -6.359862E+05  1.497523E+04 -5.912397E+04
       138  22 -9.357011E+05 -1.796277E+05 -2.113578E+03 -4.144388E+05  2.663789E+04 -6.604165E+04
       138  23 -9.428639E+05 -1.723787E+05 -1.178532E+03 -4.062842E+05  2.421208E+04 -6.138860E+04
       138  24 -9.356382E+05 -1.794832E+05 -6.491332E+02 -4.144745E+05  2.173251E+04 -5.657916E+04
       138  25  1.852762E+03  1.639515E+05  1.912504E+05 -1.544534E+05  3.299478E+04 -6.364102E+04
       138  26 -7.373241E+04  1.460126E+05  1.780713E+05 -1.654054E+05  3.077382E+04 -5.891406E+04
       138  27 -1.348861E+05  1.137626E+05  1.646484E+05 -1.926986E+05  2.849919E+04 -5.403083E+04
       139   1 -1.687961E+06 -4.550858E+05 -1.555560E+05 -6.227921E+05 -1.376790E+04  5.617912E+04
       139   2 -1.626191E+06 -4.224907E+05 -1.413031E+05 -5.953397E+05 -1.165522E+04  5.113509E+04
       139   3 -1.549884E+06 -4.043375E+05 -1.271630E+05 -5.844198E+05 -9.537260E+03  4.606620E+04
       139   4 -9.355877E+05 -1.795004E+05 -4.999935E+02 -4.145093E+05 -2.051717E+04  5.363905E+04
       139   5 -9.428359E+05 -1.722399E+05 -3.165110E+02 -4.062520E+05 -1.843667E+04  4.858550E+04
       139   6 -9.355465E+05 -1.794150E+05 -2.209062E+02 -4.145286E+05 -1.635093E+04  4.350708E+04
       139   7 -1.826378E+05  9.613049E+04  1.545251E+05 -2.059946E+05 -2.727522E+04  5.109571E+04
       139   8 -2.590011E+05  7.805012E+04  1.406458E+05 -2.169719E+05 -2.522618E+04  4.603289E+04
       139   9 -3.208171E+05  4.554094E+04  1.267029E+05 -2.444807E+05 -2.317192E+04  4.094521E+04
       139  10 -1.687962E+06 -4.550892E+05 -1.555623E+05 -6.227915E+05 -8.982052E-10 -4.783777E-10
       139  11 -1.626192E+06 -4.224935E+05 -1.413083E+05 -5.953392E+05 -1.901700E-10  6.048709E-10
       139  12 -1.549884E+06 -4.043398E+05 -1.271672E+05 -5.844195E+05  8.123871E-10  1.914058E-10
       139  13 -9.355890E+05 -1.795037E+05 -5.061880E+02 -4.145084E+05 -3.089608E-10  3.608639E-10
       139  14 -9.428369E+05 -1.722425E+05 -3.215831E+02 -4.062513E+05 -3.100730E-11  4.135977E-10
       139  15 -9.355473E+05 -1.794171E+05 -2.249636E+02 -4.145280E+05  7.615677E-11 -2.813268E-11
       139  16 -1.826393E+05  9.612749E+04  1.545188E+05 -2.059935E+05  1.082166E-09  4.535112E-10
       139  17 -2.590023E+05  7.804768E+04  1.406407E+05 -2.169710E+05 -1.563638E-10  4.113068E-10
       139  18 -3.208181E+05  4.553900E+04  1.266987E+05 -2.444800E+05 -7.681634E-10 -3.989662E-10
       139  19 -1.687961E+06 -4.550858E+05 -1.555560E+05 -6.227921E+05  1.376790E+04 -5.617912E+04
       139  20 -1.626191E+06 -4.224907E+05 -1.413031E+05 -5.953397E+05  1.165522E+04 -5.113509E+04
       139  21 -1.549884E+06 -4.043375E+05 -1.271630E+05 -5.844198E+05  9.537260E+03 -4.606620E+04
       139  22 -9.355877E+05 -1.795004E+05 -4.999935E+02 -4.145093E+05  2.051717E+04 -5.363905E+04
       139  23 -9.428359E+05 -1.722399E+05 -3.165110E+02 -4.062520E+05  1.843667E+04 -4.858550E+04
       139  24 -9.355465E+05 -1.794150E+05 -2.209062E+02 -4.145286E+05  1.635093E+04 -4.350708E+04
       139  25 -1.826378E+05  9.613049E+04  1.545251E+05 -2.059946E+05  2.727522E+04 -5.109571E+04
       139  26 -2.590011E+05  7.805012E+04  1.406458E+05 -2.169719E+05  2.522618E+04 -4.603289E+04
       139  27 -3.208171E+05  4.554094E+04  1.267029E+05 -2.444807E+05  2.317192E+04 -4.094521E+04
       140   1 -1.501696E+06 -3.866151E+05 -1.167926E+05 -5.711328E+05 -8.360202E+03  4.308358E+04
       140   2 -1.439392E+06 -3.538383E+05 -1.026779E+05 -5.435128E+05 -6.278393E+03  3.797036E+04
       140   3 -1.362494E+06 -3.356040E+05 -8.865376E+04 -5.325690E+05 -4.195227E+03  3.284545E+04
       140   4 -9.355193E+05 -1.794257E+05 -2.141481E+02 -4.145591E+05 -1.518848E+04  4.052030E+04
       140   5 -9.427980E+05 -1.721216E+05 -2.578196E+02 -4.062283E+05 -1.312170E+04  3.540331E+04
       140   6 -9.354856E+05 -1.793567E+05 -3.805188E+02 -4.145745E+05 -1.105359E+04  3.027466E+04
       140   7 -3.690128E+05  2.779068E+04  1.163478E+05 -2.578533E+05 -2.202347E+04  3.795450E+04
       140   8 -4.459525E+05  9.614911E+03  1.021490E+05 -2.688429E+05 -1.997088E+04  3.283406E+04
       140   9 -5.082935E+05 -2.309537E+04  8.788240E+04 -2.965059E+05 -1.791698E+04  2.770198E+04
       140  10 -1.501697E+06 -3.866171E+05 -1.167962E+05 -5.711325E+05 -2.411221E-10 -4.415472E-10
       140  11 -1.439392E+06 -3.538398E+05 -1.026807E+05 -5.435126E+05 -1.121010E-10  1.324419E-10
       140  12 -1.362494E+06 -3.356052E+05 -8.865582E+04 -5.325689E+05 -9.889405E-10 -7.994962E-10
       140  13 -9.355200E+05 -1.794275E+05 -2.176652E+02 -4.145586E+05  6.520311E-11 -3.098220E-10
       140  14 -9.427985E+05 -1.721230E+05 -2.604971E+02 -4.062279E+05  1.188746E-10 -1.031272E-10
       140  15 -9.354860E+05 -1.793577E+05 -3.824697E+02 -4.145742E+05 -3.304153E-11  2.050967E-10
       140  16 -3.690138E+05  2.778901E+04  1.163442E+05 -2.578526E+05  6.161903E-10  1.245977E-10
       140  17 -4.459532E+05  9.613647E+03  1.021462E+05 -2.688423E+05  3.734956E-10 -1.955255E-10
       140  18 -5.082940E+05 -2.309628E+04  8.788035E+04 -2.965055E+05  6.741793E-10  6.031066E-10
       140  19 -1.501696E+06 -3.866151E+05 -1.167926E+05 -5.711328E+05  8.360202E+03 -4.308358E+04
       140  20 -1.439392E+06 -3.538383E+05 -1.026779E+05 -5.435128E+05  6.278393E+03 -3.797036E+04
       140  21 -1.362494E+06 -3.356040E+05 -8.865376E+04 -5.325690E+05  4.195227E+03 -3.284545E+04
       140  22 -9.355193E+05 -1.794257E+05 -2.141481E+02 -4.145591E+05  1.518848E+04 -4.052030E+04
       140  23 -9.427980E+05 -1.721216E+05 -2.578196E+02 -4.062283E+05  1.312170E+04 -3.540331E+04
       140  24 -9.354856E+05 -1.793567E+05 -3.805188E+02 -4.145745E+05  1.105359E+04 -3.027466E+04
       140  25 -3.690128E+05  2.779068E+04  1.163478E+05 -2.578533E+05  2.202347E+04 -3.795450E+04
       140  26 -4.459525E+05  9.614911E+03  1.021490E+05 -2.688429E+05  1.997088E+04 -3.283406E+04
       140  27 -5.082935E+05 -2.309537E+04  8.788240E+04 -2.965059E+05  1.791698E+04 -2.770198E+04
       141   1 -1.313981E+06 -3.177903E+05 -7.833504E+04 -5.192220E+05 -2.976599E+03  2.985727E+04
       141   2 -1.251275E+06 -2.848871E+05 -6.447559E+04 -4.914836E+05 -6.137243E+02  2.482525E+04
       141   3 -1.173992E+06 -2.666442E+05 -5.093181E+04 -4.805281E+05  1.743874E+03  1.980248E+04
       141   4 -9.354812E+05 -1.793640E+05 -4.926085E+02 -4.146031E+05 -9.849563E+03  2.728192E+04
       141   5 -9.427564E+05 -1.720235E+05 -8.651590E+02 -4.062108E+05 -7.474289E+03  2.225568E+04
       141   6 -9.354635E+05 -1.793463E+05 -1.564001E+03 -4.146031E+05 -5.104350E+03  1.723869E+04
       141   7 -5.568313E+05 -4.092450E+04  7.734343E+04 -3.099245E+05 -1.672710E+04  2.470485E+04
       141   8 -6.341386E+05 -5.915141E+04  6.274085E+04 -3.208984E+05 -1.433856E+04  1.968472E+04
       141   9 -6.968769E+05 -9.204360E+04  4.780103E+04 -3.486548E+05 -1.195541E+04  1.467384E+04
       141  10 -1.313981E+06 -3.177912E+05 -7.833673E+04 -5.192219E+05 -6.143510E-10  3.278858E-10
       141  11 -1.251275E+06 -2.848878E+05 -6.447675E+04 -4.914836E+05 -2.409106E-10  3.374004E-10
       141  12 -1.173992E+06 -2.666446E+05 -5.093255E+04 -4.805281E+05 -8.173391E-11 -7.235593E-10
       141  13 -9.354815E+05 -1.793648E+05 -4.941887E+02 -4.146029E+05 -4.997530E-10 -3.825087E-10
       141  14 -9.427566E+05 -1.720241E+05 -8.661942E+02 -4.062106E+05 -8.815172E-10 -6.299084E-10
       141  15 -9.354636E+05 -1.793466E+05 -1.564608E+03 -4.146031E+05 -7.841890E-10 -1.119356E-09
       141  16 -5.568317E+05 -4.092523E+04  7.734176E+04 -3.099241E+05  6.600785E-10  8.208946E-10
       141  17 -6.341389E+05 -5.915188E+04  6.273974E+04 -3.208982E+05 -7.053782E-10 -2.096723E-10
       141  18 -6.968771E+05 -9.204387E+04  4.780035E+04 -3.486546E+05 -9.693408E-10 -4.253074E-10
       141  19 -1.313981E+06 -3.177903E+05 -7.833504E+04 -5.192220E+05  2.976599E+03 -2.985727E+04
       141  20 -1.251275E+06 -2.848871E+05 -6.447559E+04 -4.914836E+05  6.137243E+02 -2.482525E+04
       141  21 -1.173992E+06 -2.666442E+05 -5.093181E+04 -4.805281E+05 -1.743874E+03 -1.980248E+04
       141  22 -9.354812E+05 -1.793640E+05 -4.926085E+02 -4.146031E+05  9.849563E+03 -2.728192E+04
       141  23 -9.427564E+05 -1.720235E+05 -8.651590E+02 -4.062108E+05  7.474289E+03 -2.225568E+04
       141  24 -9.354635E+05 -1.793463E+05 -1.564001E+03 -4.146031E+05  5.104350E+03 -1.723869E+04
       141  25 -5.568313E+05 -4.092450E+04  7.734343E+04 -3.099245E+05  1.672710E+04 -2.470485E+04
       141  26 -6.341386E+05 -5.915141E+04  6.274085E+04 -3.208984E+05  1.433856E+04 -1.968472E+04
       141  27 -6.968769E+05 -9.204360E+04  4.780103E+04 -3.486548E+05  1.195541E+04 -1.467384E+04
       142   1 -1.125237E+06 -2.488293E+05 -4.097888E+04 -4.673093E+05  3.237762E+03  1.689949E+04
       142   2 -1.062391E+06 -2.157248E+05 -2.830493E+04 -4.391325E+05  6.687014E+03  1.238970E+04
       142   3 -9.854330E+05 -1.981837E+05 -1.702486E+04 -4.276009E+05  1.003464E+04  8.149831E+03
       142   4 -9.355397E+05 -1.792948E+05 -2.077155E+03 -4.146706E+05 -3.675826E+03  1.431173E+04
       142   5 -9.426359E+05 -1.720498E+05 -3.778767E+03 -4.061320E+05  1.307664E+02  9.936116E+03
       142   6 -9.356964E+05 -1.804394E+05 -7.157728E+03 -4.142407E+05  3.835576E+03  5.830315E+03
       142   7 -7.458064E+05 -1.097577E+05  3.682252E+04 -3.620174E+05 -1.059164E+04  1.172314E+04
       142   8 -8.228660E+05 -1.283736E+05  2.074684E+04 -3.731257E+05 -6.426843E+03  7.482022E+03
       142   9 -8.859568E+05 -1.626947E+05  2.709554E+03 -4.008795E+05 -2.364068E+03  3.510591E+03
       142  10 -1.125237E+06 -2.488296E+05 -4.097944E+04 -4.673094E+05 -1.133509E-09 -8.067943E-10
       142  11 -1.062391E+06 -2.157250E+05 -2.830530E+04 -4.391325E+05 -7.941788E-10 -1.146563E-12
       142  12 -9.854331E+05 -1.981838E+05 -1.702517E+04 -4.276009E+05  8.649863E-10  1.044225E-09
       142  13 -9.355398E+05 -1.792950E+05 -2.077566E+03 -4.146706E+05 -3.395466E-10 -6.296999E-10
       142  14 -9.426359E+05 -1.720500E+05 -3.778953E+03 -4.061320E+05 -1.922984E-10 -1.892641E-10
       142  15 -9.356965E+05 -1.804394E+05 -7.157820E+03 -4.142407E+05 -5.160035E-10 -3.714099E-10
       142  16 -7.458066E+05 -1.097579E+05  3.682205E+04 -3.620173E+05  8.561673E-10  1.173917E-09
       142  17 -8.228660E+05 -1.283737E+05  2.074666E+04 -3.731257E+05 -3.570139E-10 -1.056272E-09
       142  18 -8.859568E+05 -1.626947E+05  2.709521E+03 -4.008795E+05 -7.269013E-10 -5.814077E-10
       142  19 -1.125237E+06 -2.488293E+05 -4.097888E+04 -4.673093E+05 -3.237762E+03 -1.689949E+04
       142  20 -1.062391E+06 -2.157248E+05 -2.830493E+04 -4.391325E+05 -6.687014E+03 -1.238970E+04
       142  21 -9.854330E+05 -1.981837E+05 -1.702486E+04 -4.276009E+05 -1.003464E+04 -8.149831E+03
       142  22 -9.355397E+05 -1.792948E+05 -2.077155E+03 -4.146706E+05  3.675826E+03 -1.431173E+04
       142  23 -9.426359E+05 -1.720498E+05 -3.778767E+03 -4.061320E+05 -1.307664E+02 -9.936116E+03
       142  24 -9.356964E+05 -1.804394E+05 -7.157728E+03 -4.142407E+05 -3.835576E+03 -5.830315E+03
       142  25 -7.458064E+05 -1.097577E+05  3.682252E+04 -3.620174E+05  1.059164E+04 -1.172314E+04
       142  26 -8.228660E+05 -1.283736E+05  2.074684E+04 -3.731257E+05  6.426843E+03 -7.482022E+03
       142  27 -8.859568E+05 -1.626947E+05  2.709554E+03 -4.008795E+05  2.364068E+03 -3.510591E+03
       143   1 -9.350608E+05 -1.814450E+05 -8.730909E+03 -4.181220E+05  1.325085E+04  5.803859E+03
       143   2 -8.772342E+05 -1.446643E+05 -6.003839E+02 -3.793463E+05  1.769119E+04  3.829563E+03
       143   3 -8.133952E+05 -1.436966E+05 -7.474253E+02 -3.515565E+05  2.047010E+04  6.295050E+03
       143   4 -9.368798E+05 -1.790627E+05 -9.319352E+03 -4.152728E+05  6.087684E+03  3.123753E+03
       143   5 -9.414034E+05 -1.755190E+05 -1.731097E+04 -4.041891E+05  1.640593E+04  3.348366E+03
       143   6 -9.410873E+05 -2.089573E+05 -3.824251E+04 -4.040947E+05  2.506218E+04  8.012645E+03
       143   7 -9.386986E+05 -1.766803E+05 -9.907567E+03 -4.124237E+05 -1.075491E+03  4.435528E+02
       143   8 -1.005567E+06 -2.063720E+05 -3.402162E+04 -4.290288E+05  1.512084E+04  2.867265E+03
       143   9 -1.068759E+06 -2.742104E+05 -7.573788E+04 -4.566202E+05  2.965310E+04  9.729478E+03
       143  10 -9.350610E+05 -1.814451E+05 -8.731303E+03 -4.181220E+05 -1.143360E-09 -4.173608E-10
       143  11 -8.772345E+05 -1.446644E+05 -6.010006E+02 -3.793464E+05 -6.406254E-10 -1.508758E-10
       143  12 -8.133956E+05 -1.436968E+05 -7.482885E+02 -3.515566E+05  6.464335E-10  2.693750E-10
       143  13 -9.368798E+05 -1.790627E+05 -9.319440E+03 -4.152729E+05 -5.493575E-10 -8.098077E-10
       143  14 -9.414037E+05 -1.755191E+05 -1.731149E+04 -4.041891E+05 -6.980232E-10 -9.399811E-11
       143  15 -9.410880E+05 -2.089575E+05 -3.824381E+04 -4.040949E+05  1.057967E-11  2.760036E-10
       143  16 -9.386986E+05 -1.766803E+05 -9.907569E+03 -4.124237E+05  1.267828E-09  1.383288E-09
       143  17 -1.005568E+06 -2.063721E+05 -3.402206E+04 -4.290289E+05  6.567518E-10  1.897663E-09
       143  18 -1.068760E+06 -2.742108E+05 -7.573971E+04 -4.566204E+05 -5.491599E-10 -2.068226E-10
       143  19 -9.350608E+05 -1.814450E+05 -8.730909E+03 -4.181220E+05 -1.325085E+04 -5.803859E+03
       143  20 -8.772342E+05 -1.446643E+05 -6.003839E+02 -3.793463E+05 -1.769119E+04 -3.829563E+03
       143  21 -8.133952E+05 -1.436966E+05 -7.474253E+02 -3.515565E+05 -2.047010E+04 -6.295050E+03
       143  22 -9.368798E+05 -1.790627E+05 -9.319352E+03 -4.152728E+05 -6.087684E+03 -3.123753E+03
       143  23 -9.414034E+05 -1.755190E+05 -1.731097E+04 -4.041891E+05 -1.640593E+04 -3.348366E+03
       143  24 -9.410873E+05 -2.089573E+05 -3.824251E+04 -4.040947E+05 -2.506218E+04 -8.012645E+03
       143  25 -9.386986E+05 -1.766803E+05 -9.907567E+03 -4.124237E+05  1.075491E+03 -4.435528E+02
       143  26 -1.005567E+06 -2.063720E+05 -3.402162E+04 -4.290288E+05 -1.512084E+04 -2.867265E+03
       143  27 -1.068759E+06 -2.742104E+05 -7.573788E+04 -4.566202E+05 -2.965310E+04 -9.729478E+03
       144   1  6.734861E+04  1.461516E+04  1.958584E+04  3.048401E+03  1.500792E+04  7.126919E+01
       144   2  6.501716E+04 -5.681137E+03  7.280911E+03  9.783460E+02  9.886869E+03  2.015175E+02
       144   3  6.915801E+04 -2.756495E+03  4.115241E+03 -2.176649E+03  4.765730E+03  1.591387E+02
       144   4  7.734069E+04  1.710965E+04  2.206924E+04 -5.158444E+02  1.507576E+04  7.118619E+01
       144   5  7.410022E+04 -3.418808E+03  9.510624E+03  2.702255E+01  9.900755E+03  2.015027E+02
       144   6  7.734130E+04 -7.171778E+02  6.128618E+03 -5.150200E+02  4.725671E+03  1.591501E+02
       144   7  8.733288E+04  1.960418E+04  2.455265E+04 -4.080147E+03  1.514360E+04  7.110241E+01
       144   8  8.318336E+04 -1.156481E+03  1.174033E+04 -9.243149E+02  9.914641E+03  2.014878E+02
       144   9  8.552465E+04  1.322145E+03  8.141991E+03  1.146631E+03  4.685612E+03  1.591613E+02
       144  10  6.734837E+04  1.461510E+04  1.958542E+04  3.048400E+03 -2.891194E-10  9.357193E-12
       144  11  6.501705E+04 -5.681164E+03  7.280728E+03  9.783444E+02  8.321447E-10  1.387062E-10
       144  12  6.915799E+04 -2.756501E+03  4.115198E+03 -2.176650E+03  2.695661E-10 -1.054960E-11
       144  13  7.734044E+04  1.710959E+04  2.206882E+04 -5.158453E+02 -1.022852E-09  6.947373E-11
       144  14  7.410012E+04 -3.418834E+03  9.510440E+03  2.702094E+01  2.955915E-10  6.797004E-11
       144  15  7.734127E+04 -7.171838E+02  6.128576E+03 -5.150206E+02 -4.230276E-10 -7.194585E-11
       144  16  8.733264E+04  1.960412E+04  2.455221E+04 -4.080148E+03 -2.266689E-10  4.201363E-11
       144  17  8.318325E+04 -1.156508E+03  1.174015E+04 -9.243165E+02  1.716549E-10  1.475601E-11
       144  18  8.552462E+04  1.322139E+03  8.141949E+03  1.146631E+03 -5.429855E-10 -4.702482E-11
       144  19  6.734861E+04  1.461516E+04  1.958584E+04  3.048401E+03 -1.500792E+04 -7.126919E+01
       144  20  6.501716E+04 -5.681137E+03  7.280911E+03  9.783460E+02 -9.886869E+03 -2.015175E+02
       144  21  6.915801E+04 -2.756495E+03  4.115241E+03 -2.176649E+03 -4.765730E+03 -1.591387E+02
       144  22  7.734069E+04  1.710965E+04  2.206924E+04 -5.158444E+02 -1.507576E+04 -7.118619E+01
       144  23  7.410022E+04 -3.418808E+03  9.510624E+03  2.702255E+01 -9.900755E+03 -2.015027E+02
       144  24  7.734130E+04 -7.171778E+02  6.128618E+03 -5.150200E+02 -4.725671E+03 -1.591501E+02
       144  25  8.733288E+04  1.960418E+04  2.455265E+04 -4.080147E+03 -1.514360E+04 -7.110241E+01
       144  26  8.318336E+04 -1.156481E+03  1.174033E+04 -9.243149E+02 -9.914641E+03 -2.014878E+02
       144  27  8.552465E+04  1.322145E+03  8.141991E+03  1.146631E+03 -4.685612E+03 -1.591613E+02
       145   1  7.024423E+04  8.202056E+02  3.603362E+03 -6.871049E+01  3.736228E+03  1.144616E+02
       145   2  7.067112E+04 -1.697000E+03  1.249612E+03  1.344796E+02  2.458320E+03  1.015982E+02
       145   3  7.204098E+04 -1.108248E+03  5.042915E+02 -7.435286E+02  1.180411E+03  6.860067E+01
       145   4  7.611059E+04  2.282001E+03  5.046595E+03 -5.144910E+02  3.735390E+03  1.144588E+02
       145   5  7.563861E+04 -4.593567E+02  2.470757E+03  2.613790E+01  2.451188E+03  1.015976E+02
       145   6  7.611070E+04 -9.367816E+01  1.507708E+03 -5.144305E+02  1.166987E+03  6.860086E+01
       145   7  8.197698E+04  3.743794E+03  6.489826E+03 -9.602756E+02  3.734551E+03  1.144560E+02
       145   8  8.060614E+04  7.782850E+02  3.691901E+03 -8.220466E+01  2.444055E+03  1.015970E+02
       145   9  8.018044E+04  9.208905E+02  2.511124E+03 -2.853309E+02  1.153562E+03  6.860103E+01
       145  10  7.024421E+04  8.202018E+02  3.603336E+03 -6.871083E+01 -6.449633E-11 -2.310451E-11
       145  11  7.067111E+04 -1.697002E+03  1.249600E+03  1.344794E+02 -5.025868E-10 -3.738426E-12
       145  12  7.204098E+04 -1.108248E+03  5.042888E+02 -7.435287E+02  4.705098E-10 -2.072296E-10
       145  13  7.611057E+04  2.281997E+03  5.046569E+03 -5.144913E+02 -1.573688E-09  1.897247E-11
       145  14  7.563861E+04 -4.593583E+02  2.470746E+03  2.613770E+01 -1.036226E-09  7.944545E-11
       145  15  7.611070E+04 -9.367854E+01  1.507706E+03 -5.144306E+02 -1.435904E-09 -1.593879E-10
       145  16  8.197697E+04  3.743790E+03  6.489800E+03 -9.602760E+02  5.928255E-10 -1.989590E-12
       145  17  8.060613E+04  7.782834E+02  3.691890E+03 -8.220486E+01 -6.703179E-10  1.294694E-10
       145  18  8.018044E+04  9.208901E+02  2.511122E+03 -2.853310E+02 -4.485382E-10 -7.050636E-11
       145  19  7.024423E+04  8.202056E+02  3.603362E+03 -6.871049E+01 -3.736228E+03 -1.144616E+02
       145  20  7.067112E+04 -1.697000E+03  1.249612E+03  1.344796E+02 -2.458320E+03 -1.015982E+02
       145  21  7.204098E+04 -1.108248E+03  5.042915E+02 -7.435286E+02 -1.180411E+03 -6.860067E+01
       145  22  7.611059E+04  2.282001E+03  5.046595E+03 -5.144910E+02 -3.735390E+03 -1.144588E+02
       145  23  7.563861E+04 -4.593567E+02  2.470757E+03  2.613790E+01 -2.451188E+03 -1.015976E+02
       145  24  7.611070E+04 -9.367816E+01  1.507708E+03 -5.144305E+02 -1.166987E+03 -6.860086E+01
       145  25  8.197698E+04  3.743794E+03  6.489826E+03 -9.602756E+02 -3.734551E+03 -1.144560E+02
       145  26  8.060614E+04  7.782850E+02  3.691901E+03 -8.220466E+01 -2.444055E+03 -1.015970E+02
       145  27  8.018044E+04  9.208905E+02  2.511124E+03 -2.853309E+02 -1.153562E+03 -6.860103E+01
       146   1  7.417275E+04 -1.362395E+02  7.658971E+02 -4.624046E+02  9.337578E+02  4.706842E+01
       146   2  7.499660E+04 -2.769330E+02  4.188113E+02  3.534125E+01  6.142254E+02  1.753888E+01
       146   3  7.596543E+04 -4.233977E+00  3.830856E+02 -5.461500E+02  2.946974E+02 -1.433535E+01
       146   4  7.593314E+04  3.019088E+02  1.196400E+03 -5.140169E+02  9.249124E+02  4.706820E+01
       146   5  7.586060E+04 -6.166472E+01  6.312312E+02  2.560422E+01  6.046475E+02  1.753873E+01
       146   6  7.593317E+04 -1.171558E+01  3.779332E+02 -5.140122E+02  2.843875E+02 -1.433547E+01
       146   7  7.769354E+04  7.400568E+02  1.626903E+03 -5.656293E+02  9.160670E+02  4.706798E+01
       146   8  7.672459E+04  1.536035E+02  8.436510E+02  1.586718E+01  5.950697E+02  1.753858E+01
       146   9  7.590090E+04 -1.919719E+01  3.727809E+02 -4.818745E+02  2.740776E+02 -1.433560E+01
       146  10  7.417275E+04 -1.362397E+02  7.658955E+02 -4.624047E+02  1.888946E-10 -2.671270E-10
       146  11  7.499660E+04 -2.769331E+02  4.188106E+02  3.534124E+01 -3.779976E-10 -8.998191E-11
       146  12  7.596543E+04 -4.234001E+00  3.830854E+02 -5.461500E+02  1.012689E-09  1.967563E-10
       146  13  7.593314E+04  3.019085E+02  1.196399E+03 -5.140169E+02  1.060308E-09 -1.855335E-10
       146  14  7.586060E+04 -6.166481E+01  6.312305E+02  2.560421E+01  2.692514E-10  3.135388E-11
       146  15  7.593317E+04 -1.171561E+01  3.779331E+02 -5.140122E+02  4.906482E-10  1.473401E-10
       146  16  7.769354E+04  7.400565E+02  1.626902E+03 -5.656293E+02  4.603542E-11 -9.884233E-11
       146  17  7.672459E+04  1.536034E+02  8.436503E+02  1.586718E+01 -1.193326E-09  1.100197E-10
       146  18  7.590090E+04 -1.919721E+01  3.727808E+02 -4.818745E+02  1.259106E-10  1.394032E-10
       146  19  7.417275E+04 -1.362395E+02  7.658971E+02 -4.624046E+02 -9.337578E+02 -4.706842E+01
       146  20  7.499660E+04 -2.769330E+02  4.188113E+02  3.534125E+01 -6.142254E+02 -1.753888E+01
       146  21  7.596543E+04 -4.233977E+00  3.830856E+02 -5.461500E+02 -2.946974E+02  1.433535E+01
       146  22  7.593314E+04  3.019088E+02  1.196400E+03 -5.140169E+02 -9.249124E+02 -4.706820E+01
       146  23  7.586060E+04 -6.166472E+01  6.312312E+02  2.560422E+01 -6.046475E+02 -1.753873E+01
       146  24  7.593317E+04 -1.171558E+01  3.779332E+02 -5.140122E+02 -2.843875E+02  1.433547E+01
       146  25  7.769354E+04  7.400568E+02  1.626903E+03 -5.656293E+02 -9.160670E+02 -4.706798E+01
       146  26  7.672459E+04  1.536035E+02  8.436510E+02  1.586718E+01 -5.950697E+02 -1.753858E+01
       146  27  7.590090E+04 -1.919719E+01  3.727809E+02 -4.818745E+02 -2.740776E+02  1.433560E+01
       147   1  7.824684E+04  6.229399E+02  8.749028E+02 -5.090871E+02  2.334307E+02 -3.316383E+01
       147   2  7.913117E+04  7.980141E+02  9.677069E+02  2.608618E+01  1.476047E+02 -6.465274E+01
       147   3  8.004097E+04  1.029864E+03  1.130595E+03 -5.188543E+02  6.177765E+01 -9.640459E+01
       147   4  7.590657E+04  3.927145E+01  2.966242E+02 -5.142089E+02  2.236460E+02 -3.316397E+01
       147   5  7.589384E+04 -8.621981E+00  1.715773E+02  2.584839E+01  1.377382E+02 -6.465293E+01
       147   6  7.590658E+04  2.711421E-01  1.166686E+02 -5.142084E+02  5.182935E+01 -9.640483E+01
       147   7  7.356631E+04 -5.443974E+02 -2.816548E+02 -5.193307E+02  2.138613E+02 -3.316412E+01
       147   8  7.265652E+04 -8.152588E+02 -6.245530E+02  2.561060E+01  1.278716E+02 -6.465312E+01
       147   9  7.177220E+04 -1.029323E+03 -8.972595E+02 -5.095624E+02  4.188113E+01 -9.640507E+01
       147  10  7.824684E+04  6.229399E+02  8.749027E+02 -5.090871E+02  1.309017E-10  1.543605E-10
       147  11  7.913117E+04  7.980141E+02  9.677068E+02  2.608619E+01  2.057926E-10 -5.371159E-11
       147  12  8.004097E+04  1.029864E+03  1.130595E+03 -5.188543E+02 -6.172871E-10  2.807173E-10
       147  13  7.590657E+04  3.927144E+01  2.966241E+02 -5.142089E+02 -5.294259E-10  6.281601E-11
       147  14  7.589384E+04 -8.621990E+00  1.715773E+02  2.584840E+01  1.063301E-09 -1.011780E-10
       147  15  7.590658E+04  2.711314E-01  1.166686E+02 -5.142084E+02  3.480981E-11  3.033485E-10
       147  16  7.356631E+04 -5.443974E+02 -2.816549E+02 -5.193307E+02  1.519580E-10 -1.157566E-11
       147  17  7.265652E+04 -8.152589E+02 -6.245530E+02  2.561061E+01  9.766850E-10 -1.408771E-10
       147  18  7.177220E+04 -1.029323E+03 -8.972596E+02 -5.095624E+02 -2.293005E-10  2.753630E-10
       147  19  7.824684E+04  6.229399E+02  8.749028E+02 -5.090871E+02 -2.334307E+02  3.316383E+01
       147  20  7.913117E+04  7.980141E+02  9.677069E+02  2.608618E+01 -1.476047E+02  6.465274E+01
       147  21  8.004097E+04  1.029864E+03  1.130595E+03 -5.188543E+02 -6.177765E+01  9.640459E+01
       147  22  7.590657E+04  3.927145E+01  2.966242E+02 -5.142089E+02 -2.236460E+02  3.316397E+01
       147  23  7.589384E+04 -8.621981E+00  1.715773E+02  2.584839E+01 -1.377382E+02  6.465293E+01
       147  24  7.590658E+04  2.711421E-01  1.166686E+02 -5.142084E+02 -5.182935E+01  9.640483E+01
       147  25  7.356631E+04 -5.443974E+02 -2.816548E+02 -5.193307E+02 -2.138613E+02  3.316412E+01
       147  26  7.265652E+04 -8.152588E+02 -6.245530E+02  2.561060E+01 -1.278716E+02  6.465312E+01
       147  27  7.177220E+04 -1.029323E+03 -8.972595E+02 -5.095624E+02 -4.188113E+01  9.640507E+01
       148   1  8.235130E+04  1.611521E+03  1.691097E+03 -5.132276E+02  4.200895E+01 -1.150308E+02
       148   2  8.324517E+04  1.826851E+03  1.901458E+03  2.680780E+01 -5.321125E+00 -1.468622E+02
       148   3  8.415193E+04  2.068117E+03  2.149164E+03 -5.172611E+02 -5.265057E+01 -1.782947E+02
       148   4  7.590377E+04  4.452827E+00  1.027212E+02 -5.150954E+02  3.201446E+01 -1.150311E+02
       148   5  7.589734E+04 -3.979002E+00  9.449376E+01  2.695696E+01 -1.519069E+01 -1.468626E+02
       148   6  7.590377E+04  1.350455E+01  1.235241E+02 -5.150957E+02 -6.239515E+01 -1.782952E+02
       148   7  6.945627E+04 -1.602619E+03 -1.485657E+03 -5.169631E+02  2.202007E+01 -1.150314E+02
       148   8  6.854955E+04 -1.834813E+03 -1.712475E+03  2.710613E+01 -2.506014E+01 -1.468630E+02
       148   9  6.765567E+04 -2.041113E+03 -1.902121E+03 -5.129305E+02 -7.213960E+01 -1.782958E+02
       148  10  8.235130E+04  1.611521E+03  1.691097E+03 -5.132276E+02 -2.808214E-10  1.597167E-10
       148  11  8.324517E+04  1.826851E+03  1.901458E+03  2.680780E+01  1.428622E-10 -2.953341E-10
       148  12  8.415193E+04  2.068117E+03  2.149164E+03 -5.172611E+02 -4.618359E-10  2.869255E-11
       148  13  7.590377E+04  4.452813E+00  1.027212E+02 -5.150954E+02 -4.717037E-10  2.374210E-10
       148  14  7.589734E+04 -3.979025E+00  9.449372E+01  2.695696E+01 -1.560658E-09 -2.275182E-10
       148  15  7.590377E+04  1.350452E+01  1.235240E+02 -5.150958E+02 -4.469335E-10  9.578972E-11
       148  16  6.945627E+04 -1.602619E+03 -1.485657E+03 -5.169631E+02 -1.589280E-09  2.234639E-10
       148  17  6.854955E+04 -1.834813E+03 -1.712475E+03  2.710612E+01 -2.285770E-09 -2.866684E-10
       148  18  6.765567E+04 -2.041113E+03 -1.902121E+03 -5.129305E+02  6.446160E-10  1.383879E-10
       148  19  8.235130E+04  1.611521E+03  1.691097E+03 -5.132276E+02 -4.200895E+01  1.150308E+02
       148  20  8.324517E+04  1.826851E+03  1.901458E+03  2.680780E+01  5.321125E+00  1.468622E+02
       148  21  8.415193E+04  2.068117E+03  2.149164E+03 -5.172611E+02  5.265057E+01  1.782947E+02
       148  22  7.590377E+04  4.452827E+00  1.027212E+02 -5.150954E+02 -3.201446E+01  1.150311E+02
       148  23  7.589734E+04 -3.979002E+00  9.449376E+01  2.695696E+01  1.519069E+01  1.468626E+02
       148  24  7.590377E+04  1.350455E+01  1.235241E+02 -5.150957E+02  6.239515E+01  1.782952E+02
       148  25  6.945627E+04 -1.602619E+03 -1.485657E+03 -5.169631E+02 -2.202007E+01  1.150314E+02
       148  26  6.854955E+04 -1.834813E+03 -1.712475E+03  2.710613E+01  2.506014E+01  1.468630E+02
       148  27  6.765567E+04 -2.041113E+03 -1.902121E+03 -5.129305E+02  7.213960E+01  1.782958E+02
       149   1  8.648557E+04  2.631413E+03  2.750053E+03 -5.052300E+02 -7.601404E+01 -1.976008E+02
       149   2  8.736558E+04  2.838506E+03  3.051654E+03  2.590338E+01 -1.934215E+02 -2.298823E+02
       149   3  8.829770E+04  3.190780E+03  3.466086E+03 -5.341822E+02 -3.108266E+02 -2.576832E+02
       149   4  7.591243E+04 -3.607156E+00  1.471436E+02 -5.166745E+02 -8.678343E+01 -1.976015E+02
       149   5  7.588649E+04 -2.166728E+01  2.288347E+02  2.893228E+01 -2.027908E+02 -2.298831E+02
       149   6  7.591242E+04  1.052145E+02  4.223893E+02 -5.166814E+02 -3.187957E+02 -2.576841E+02
       149   7  6.533938E+04 -2.638636E+03 -2.455774E+03 -5.281188E+02 -9.755264E+01 -1.976021E+02
       149   8  6.440751E+04 -2.881851E+03 -2.593995E+03  3.196114E+01 -2.121600E+02 -2.298839E+02
       149   9  6.352728E+04 -2.980362E+03 -2.621319E+03 -4.991808E+02 -3.267647E+02 -2.576849E+02
       149  10  8.648557E+04  2.631413E+03  2.750053E+03 -5.052300E+02  4.550601E-10  2.079087E-10
       149  11  8.736558E+04  2.838506E+03  3.051654E+03  2.590334E+01 -6.024844E-10 -2.172175E-10
       149  12  8.829770E+04  3.190780E+03  3.466086E+03 -5.341823E+02  1.674282E-10 -2.400383E-11
       149  13  7.591243E+04 -3.607200E+00  1.471435E+02 -5.166745E+02 -5.160245E-10  1.871265E-10
       149  14  7.588649E+04 -2.166734E+01  2.288345E+02  2.893225E+01  1.588109E-09 -1.889699E-10
       149  15  7.591242E+04  1.052144E+02  4.223889E+02 -5.166814E+02  9.529843E-10 -7.798061E-11
       149  16  6.533938E+04 -2.638636E+03 -2.455774E+03 -5.281188E+02 -4.583362E-10  1.660491E-10
       149  17  6.440751E+04 -2.881851E+03 -2.593995E+03  3.196110E+01 -9.717753E-10 -2.329243E-10
       149  18  6.352728E+04 -2.980362E+03 -2.621319E+03 -4.991809E+02  9.215930E-10 -5.341129E-11
       149  19  8.648557E+04  2.631413E+03  2.750053E+03 -5.052300E+02  7.601404E+01  1.976008E+02
       149  20  8.736558E+04  2.838506E+03  3.051654E+03  2.590338E+01  1.934215E+02  2.298823E+02
       149  21  8.829770E+04  3.190780E+03  3.466086E+03 -5.341822E+02  3.108266E+02  2.576832E+02
       149  22  7.591243E+04 -3.607156E+00  1.471436E+02 -5.166745E+02  8.678343E+01  1.976015E+02
       149  23  7.588649E+04 -2.166728E+01  2.288347E+02  2.893228E+01  2.027908E+02  2.298831E+02
       149  24  7.591242E+04  1.052145E+02  4.223893E+02 -5.166814E+02  3.187957E+02  2.576841E+02
       149  25  6.533938E+04 -2.638636E+03 -2.455774E+03 -5.281188E+02  9.755264E+01  1.976021E+02
       149  26  6.440751E+04 -2.881851E+03 -2.593995E+03  3.196114E+01  2.121600E+02  2.298839E+02
       149  27  6.352728E+04 -2.980362E+03 -2.621319E+03 -4.991808E+02  3.267647E+02  2.576849E+02
       150   1  9.070268E+04  3.637581E+03  4.154215E+03 -4.380321E+02 -3.870791E+02 -2.824514E+02
       150   2  9.145148E+04  3.737012E+03  4.709951E+03 -5.349991E+00 -8.485291E+02 -3.171232E+02
       150   3  9.253285E+04  4.922583E+03  5.837808E+03 -6.730797E+02 -1.309989E+03 -3.122017E+02
       150   4  7.597430E+04 -3.271115E+01  5.298290E+02 -5.186932E+02 -4.040577E+02 -2.824530E+02
       150   5  7.580908E+04 -1.603360E+02  8.641190E+02  3.147119E+01 -8.531433E+02 -3.171242E+02
       150   6  7.597426E+04  7.960451E+02  1.761951E+03 -5.187760E+02 -1.302238E+03 -3.122017E+02
       150   7  6.124613E+04 -3.703020E+03 -3.094573E+03 -5.993524E+02 -4.210359E+02 -2.824546E+02
       150   8  6.016689E+04 -4.057702E+03 -2.981731E+03  6.829144E+01 -8.577574E+02 -3.171252E+02
       150   9  5.941593E+04 -3.330513E+03 -2.313927E+03 -3.644765E+02 -1.294487E+03 -3.122018E+02
       150  10  9.070268E+04  3.637581E+03  4.154215E+03 -4.380322E+02  4.191959E-10 -1.255829E-10
       150  11  9.145148E+04  3.737011E+03  4.709950E+03 -5.350208E+00  1.545034E-09 -5.944937E-10
       150  12  9.253285E+04  4.922582E+03  5.837804E+03 -6.730800E+02  1.289760E-09 -7.047865E-10
       150  13  7.597430E+04 -3.271128E+01  5.298286E+02 -5.186933E+02  5.791926E-10  9.593406E-11
       150  14  7.580908E+04 -1.603363E+02  8.641174E+02  3.147097E+01  8.078808E-10  6.218594E-10
       150  15  7.597426E+04  7.960445E+02  1.761947E+03 -5.187763E+02 -4.241468E-10  1.633401E-09
       150  16  6.124612E+04 -3.703020E+03 -3.094573E+03 -5.993525E+02  4.128478E-10 -1.778813E-10
       150  17  6.016689E+04 -4.057702E+03 -2.981733E+03  6.829122E+01 -2.833716E-09 -3.944321E-10
       150  18  5.941592E+04 -3.330514E+03 -2.313930E+03 -3.644768E+02 -1.114499E-09 -3.087358E-10
       150  19  9.070268E+04  3.637581E+03  4.154215E+03 -4.380321E+02  3.870791E+02  2.824514E+02
       150  20  9.145148E+04  3.737012E+03  4.709951E+03 -5.349991E+00  8.485291E+02  3.171232E+02
       150  21  9.253285E+04  4.922583E+03  5.837808E+03 -6.730797E+02  1.309989E+03  3.122017E+02
       150  22  7.597430E+04 -3.271115E+01  5.298290E+02 -5.186932E+02  4.040577E+02  2.824530E+02
       150  23  7.580908E+04 -1.603360E+02  8.641190E+02  3.147119E+01  8.531433E+02  3.171242E+02
       150  24  7.597426E+04  7.960451E+02  1.761951E+03 -5.187760E+02  1.302238E+03  3.122017E+02
       150  25  6.124613E+04 -3.703020E+03 -3.094573E+03 -5.993524E+02  4.210359E+02  2.824546E+02
       150  26  6.016689E+04 -4.057702E+03 -2.981731E+03  6.829144E+01  8.577574E+02  3.171252E+02
       150  27  5.941593E+04 -3.330513E+03 -2.313927E+03 -3.644765E+02  1.294487E+03  3.122018E+02
       151   1  9.532963E+04  4.465299E+03  6.792536E+03  6.073692E+01 -1.578405E+03 -3.826375E+02
       151   2  9.511824E+04  3.750322E+03  8.191157E+03 -2.961195E+02 -3.490401E+03 -4.356715E+02
       151   3  9.718803E+04  1.115865E+04  1.286557E+04 -1.762829E+03 -5.402449E+03 -1.484248E+02
       151   4  7.640372E+04 -2.503518E+02  2.139172E+03 -5.205279E+02 -1.647940E+03 -3.826447E+02
       151   5  7.527220E+04 -1.192928E+03  3.318551E+03  3.393904E+01 -3.453707E+03 -4.356694E+02
       151   6  7.640349E+04  5.969496E+03  7.700030E+03 -5.214461E+02 -5.259523E+03 -1.484143E+02
       151   7  5.747813E+04 -4.966028E+03 -2.514219E+03 -1.101775E+03 -1.717473E+03 -3.826516E+02
       151   8  5.542651E+04 -6.136206E+03 -1.554084E+03  3.639870E+02 -3.417014E+03 -4.356673E+02
       151   9  5.561934E+04  7.803167E+02  2.534461E+03  7.198949E+02 -5.116601E+03 -1.484032E+02
       151  10  9.532962E+04  4.465298E+03  6.792531E+03  6.073643E+01 -1.522170E-09 -8.524568E-10
       151  11  9.511823E+04  3.750318E+03  8.191133E+03 -2.961207E+02 -2.471513E-09 -1.036627E-09
       151  12  9.718800E+04  1.115864E+04  1.286551E+04 -1.762829E+03 -6.106929E-10 -3.157041E-10
       151  13  7.640371E+04 -2.503527E+02  2.139167E+03 -5.205284E+02 -5.577112E-10  1.087985E-09
       151  14  7.527218E+04 -1.192931E+03  3.318528E+03  3.393783E+01  8.134838E-11  7.133590E-10
       151  15  7.640346E+04  5.969489E+03  7.699978E+03 -5.214467E+02  3.959141E-10 -2.582397E-12
       151  16  5.747813E+04 -4.966029E+03 -2.514225E+03 -1.101776E+03  3.433894E-09 -5.373396E-10
       151  17  5.542650E+04 -6.136209E+03 -1.554106E+03  3.639858E+02  3.140494E-09 -6.493804E-10
       151  18  5.561931E+04  7.803097E+02  2.534412E+03  7.198943E+02  5.911945E-10 -4.705396E-10
       151  19  9.532963E+04  4.465299E+03  6.792536E+03  6.073692E+01  1.578405E+03  3.826375E+02
       151  20  9.511824E+04  3.750322E+03  8.191157E+03 -2.961195E+02  3.490401E+03  4.356715E+02
       151  21  9.718803E+04  1.115865E+04  1.286557E+04 -1.762829E+03  5.402449E+03  1.484248E+02
       151  22  7.640372E+04 -2.503518E+02  2.139172E+03 -5.205279E+02  1.647940E+03  3.826447E+02
       151  23  7.527220E+04 -1.192928E+03  3.318551E+03  3.393904E+01  3.453707E+03  4.356694E+02
       151  24  7.640349E+04  5.969496E+03  7.700030E+03 -5.214461E+02  5.259523E+03  1.484143E+02
       151  25  5.747813E+04 -4.966028E+03 -2.514219E+03 -1.101775E+03  1.717473E+03  3.826516E+02
       151  26  5.542651E+04 -6.136206E+03 -1.554084E+03  3.639870E+02  3.417014E+03  4.356673E+02
       151  27  5.561934E+04  7.803167E+02  2.534461E+03  7.198949E+02  5.116601E+03  1.484032E+02
       152   1  7.337841E+05  2.953877E+06  7.367851E+05 -3.120084E+05  1.982989E+04  2.808022E+04
       152   2  5.781443E+05  2.409125E+06  5.870590E+05  7.535868E+03  5.298759E+04  4.301672E+03
       152   3  4.579613E+05  1.887489E+06  4.638254E+05 -3.118324E+05  3.180160E+04 -1.964250E+04
       152   4  1.569618E+04  7.311116E+04  2.194049E+04 -3.054640E+05  1.986184E+04  9.177582E+03
       152   5 -5.373004E+03  6.308723E+04  1.218286E+04  1.407252E+04  5.300668E+04  2.450465E+03
       152   6  6.121745E+03  7.298097E+04  1.716440E+04 -3.054543E+05  3.171772E+04 -4.462834E+03
       152   7 -7.030130E+05 -2.800144E+06 -6.935224E+05 -2.989456E+05  1.989348E+04 -9.637795E+03
       152   8 -5.892977E+05 -2.277950E+06 -5.630966E+05  2.058867E+04  5.302577E+04  6.062057E+02
       152   9 -4.459625E+05 -1.738537E+06 -4.297386E+05 -2.990898E+05  3.163403E+04  1.067265E+04
       152  10  7.337835E+05  2.953876E+06  7.367828E+05 -3.120089E+05 -5.916203E-10 -2.443631E-11
       152  11  5.781413E+05  2.409124E+06  5.870537E+05  7.535685E+03 -2.454518E-09  7.410131E-09
       152  12  4.579602E+05  1.887488E+06  4.638228E+05 -3.118319E+05  2.664933E-09  8.337436E-09
       152  13  1.569574E+04  7.311097E+04  2.193959E+04 -3.054642E+05 -3.744850E-10 -9.742408E-10
       152  14 -5.376023E+03  6.308647E+04  1.217757E+04  1.407242E+04 -2.157654E-09 -1.834970E-09
       152  15  6.120659E+03  7.298068E+04  1.716247E+04 -3.054542E+05  3.109130E-09 -2.200122E-09
       152  16 -7.030135E+05 -2.800145E+06 -6.935233E+05 -2.989454E+05 -1.128427E-09  4.979072E-10
       152  17 -5.893008E+05 -2.277951E+06 -5.631019E+05  2.058864E+04  3.126871E-11 -6.063106E-09
       152  18 -4.459636E+05 -1.738538E+06 -4.297407E+05 -2.990901E+05  2.108334E-09 -5.064368E-09
       152  19  7.337841E+05  2.953877E+06  7.367851E+05 -3.120084E+05 -1.982989E+04 -2.808022E+04
       152  20  5.781443E+05  2.409125E+06  5.870590E+05  7.535868E+03 -5.298759E+04 -4.301672E+03
       152  21  4.579613E+05  1.887489E+06  4.638254E+05 -3.118324E+05 -3.180160E+04  1.964250E+04
       152  22  1.569618E+04  7.311116E+04  2.194049E+04 -3.054640E+05 -1.986184E+04 -9.177582E+03
       152  23 -5.373004E+03  6.308723E+04  1.218286E+04  1.407252E+04 -5.300668E+04 -2.450465E+03
       152  24  6.121745E+03  7.298097E+04  1.716440E+04 -3.054543E+05 -3.171772E+04  4.462834E+03
       152  25 -7.030130E+05 -2.800144E+06 -6.935224E+05 -2.989456E+05 -1.989348E+04  9.637795E+03
       152  26 -5.892977E+05 -2.277950E+06 -5.630966E+05  2.058867E+04 -5.302577E+04 -6.062057E+02
       152  27 -4.459625E+05 -1.738537E+06 -4.297386E+05 -2.990898E+05 -3.163403E+04 -1.067265E+04
       153   1  1.150073E+05  5.159172E+05  1.273963E+05 -3.097586E+05  1.145972E+04 -1.202981E+04
       153   2 -2.557428E+04 -1.563997E+04  4.687325E+03  1.530507E+04 -1.574021E+03 -2.521539E+04
       153   3 -1.295638E+05 -5.456946E+05 -1.023307E+05 -2.983959E+05 -1.428724E+04 -3.838420E+04
       153   4  3.931423E+03  6.981750E+04  1.821285E+04 -3.054288E+05  1.143305E+04 -7.885681E+03
       153   5 -4.419538E+03  6.919400E+04  2.554663E+04  1.400983E+04 -1.599082E+03 -2.117460E+04
       153   6  2.385433E+04  6.982254E+04  4.865432E+04 -3.053063E+05 -1.431116E+04 -3.445788E+04
       153   7 -1.071591E+05 -3.761010E+05 -9.098509E+04 -3.011018E+05  1.140642E+04 -3.744520E+03
       153   8  1.673468E+04  1.540346E+05  4.640547E+04  1.271442E+04 -1.624159E+03 -1.713327E+04
       153   9  1.772445E+05  6.856849E+05  1.996116E+05 -3.122230E+05 -1.433516E+04 -3.052765E+04
       153  10  1.150071E+05  5.159171E+05  1.273958E+05 -3.097585E+05  3.178346E-10  4.024849E-09
       153  11 -2.557445E+04 -1.564065E+04  4.686125E+03  1.530504E+04 -5.115417E-10  1.031139E-08
       153  12 -1.295645E+05 -5.456962E+05 -1.023339E+05 -2.983964E+05 -2.191805E-09  8.542206E-09
       153  13  3.931266E+03  6.981740E+04  1.821249E+04 -3.054287E+05  1.584845E-09 -6.539680E-09
       153  14 -4.419661E+03  6.919352E+04  2.554578E+04  1.400980E+04  2.144672E-09 -3.418057E-09
       153  15  2.385379E+04  6.982120E+04  4.865170E+04 -3.053067E+05  5.105287E-09 -2.411682E-09
       153  16 -1.071593E+05 -3.761010E+05 -9.098536E+04 -3.011018E+05  1.813911E-09 -7.288977E-10
       153  17  1.673460E+04  1.540342E+05  4.640491E+04  1.271440E+04 -5.565914E-09 -8.720037E-09
       153  18  1.772440E+05  6.856838E+05  1.996095E+05 -3.122234E+05 -1.287476E-09 -4.657381E-09
       153  19  1.150073E+05  5.159172E+05  1.273963E+05 -3.097586E+05 -1.145972E+04  1.202981E+04
       153  20 -2.557428E+04 -1.563997E+04  4.687325E+03  1.530507E+04  1.574021E+03  2.521539E+04
       153  21 -1.295638E+05 -5.456946E+05 -1.023307E+05 -2.983959E+05  1.428724E+04  3.838420E+04
       153  22  3.931423E+03  6.981750E+04  1.821285E+04 -3.054288E+05 -1.143305E+04  7.885681E+03
       153  23 -4.419538E+03  6.919400E+04  2.554663E+04  1.400983E+04  1.599082E+03  2.117460E+04
       153  24  2.385433E+04  6.982254E+04  4.865432E+04 -3.053063E+05  1.431116E+04  3.445788E+04
       153  25 -1.071591E+05 -3.761010E+05 -9.098509E+04 -3.011018E+05 -1.140642E+04  3.744520E+03
       153  26  1.673468E+04  1.540346E+05  4.640547E+04  1.271442E+04  1.624159E+03  1.713327E+04
       153  27  1.772445E+05  6.856849E+05  1.996116E+05 -3.122230E+05  1.433516E+04  3.052765E+04
       154   1 -4.967886E+05 -1.895328E+06 -4.287164E+05 -3.125570E+05 -3.485228E+04 -5.988220E+04
       154   2 -6.605323E+05 -2.463379E+06 -5.282764E+05  2.839484E+04 -5.644296E+04 -9.071711E+04
       154   3 -6.000359E+05 -2.956995E+06 -5.488460E+05 -2.701314E+05 -2.101132E+04 -1.213585E+05
       154   4 -2.611985E+03  8.553184E+04  5.985204E+04 -3.056050E+05 -3.493445E+04 -4.435482E+04
       154   5 -3.420557E+04  4.708392E+04  8.873522E+04  1.411908E+04 -5.641989E+04 -9.309898E+04
       154   6  1.611115E+05  8.567274E+04  2.088139E+05 -3.054581E+05 -2.098228E+04 -1.416772E+05
       154   7  4.912725E+05  2.069967E+06  5.481312E+05 -2.986249E+05 -3.501614E+04 -2.877767E+04
       154   8  5.916529E+05  2.563298E+06  7.052830E+05 -2.104985E+02 -5.639678E+04 -9.548987E+04
       154   9  9.215665E+05  3.136767E+06  9.657811E+05 -3.409550E+05 -2.095102E+04 -1.620944E+05
       154  10 -4.967909E+05 -1.895332E+06 -4.287255E+05 -3.125587E+05  8.893811E-10  5.225020E-09
       154  11 -6.605379E+05 -2.463389E+06 -5.282979E+05  2.839071E+04 -1.132712E-10  4.608104E-09
       154  12 -6.000404E+05 -2.957011E+06 -5.488747E+05 -2.701334E+05 -4.695921E-10  4.218924E-10
       154  13 -2.613824E+03  8.552940E+04  5.984605E+04 -3.056063E+05 -2.351132E-09 -5.597266E-09
       154  14 -3.421131E+04  4.707376E+04  8.871296E+04  1.411485E+04  2.362688E-10 -1.631687E-09
       154  15  1.611056E+05  8.565107E+04  2.087753E+05 -3.054605E+05 -8.275839E-10 -1.111631E-10
       154  16  4.912710E+05  2.069966E+06  5.481273E+05 -2.986257E+05  3.025172E-09 -2.430452E-09
       154  17  5.916471E+05  2.563288E+06  7.052599E+05 -2.148276E+02 -1.015272E-09 -4.045372E-09
       154  18  9.215590E+05  3.136739E+06  9.657311E+05 -3.409578E+05 -1.376308E-09 -2.929561E-10
       154  19 -4.967886E+05 -1.895328E+06 -4.287164E+05 -3.125570E+05  3.485228E+04  5.988220E+04
       154  20 -6.605323E+05 -2.463379E+06 -5.282764E+05  2.839484E+04  5.644296E+04  9.071711E+04
       154  21 -6.000359E+05 -2.956995E+06 -5.488460E+05 -2.701314E+05  2.101132E+04  1.213585E+05
       154  22 -2.611985E+03  8.553184E+04  5.985204E+04 -3.056050E+05  3.493445E+04  4.435482E+04
       154  23 -3.420557E+04  4.708392E+04  8.873522E+04  1.411908E+04  5.641989E+04  9.309898E+04
       154  24  1.611115E+05  8.567274E+04  2.088139E+05 -3.054581E+05  2.098228E+04  1.416772E+05
       154  25  4.912725E+05  2.069967E+06  5.481312E+05 -2.986249E+05  3.501614E+04  2.877767E+04
       154  26  5.916529E+05  2.563298E+06  7.052830E+05 -2.104985E+02  5.639678E+04  9.548987E+04
       154  27  9.215665E+05  3.136767E+06  9.657811E+05 -3.409550E+05  2.095102E+04  1.620944E+05
       155   1 -1.049638E+05 -4.560431E+04 -2.154152E+04 -4.886354E+04 -1.151844E+04 -3.988897E+03
       155   2 -9.944443E+04 -3.062863E+04 -1.106144E+04 -4.598279E+04 -6.812565E+03 -1.572837E+03
       155   3 -9.613242E+04 -2.321686E+04 -6.043545E+03 -4.260168E+04 -1.859141E+03  1.834725E+02
       155   4 -8.481176E+04 -3.001287E+04 -1.479632E+04 -3.506814E+04 -9.757601E+03 -3.328688E+03
       155   5 -8.304622E+04 -2.074675E+04 -7.004867E+03 -3.742292E+04 -6.341474E+03 -1.396214E+03
       155   6 -8.323252E+04 -1.878906E+04 -3.653790E+03 -3.927745E+04 -2.677797E+03 -1.235528E+02
       155   7 -6.465957E+04 -1.442116E+04 -8.051274E+03 -2.127249E+04 -7.996735E+03 -2.668412E+03
       155   8 -6.664780E+04 -1.086475E+04 -2.948338E+03 -2.886284E+04 -5.870372E+03 -1.219579E+03
       155   9 -7.033236E+04 -1.436122E+04 -1.264012E+03 -3.595314E+04 -3.496477E+03 -4.305864E+02
       155  10 -1.049639E+05 -4.560436E+04 -2.154180E+04 -4.886358E+04  2.167638E-09 -4.374837E-10
       155  11 -9.944448E+04 -3.062864E+04 -1.106153E+04 -4.598280E+04  4.981401E-09 -1.552749E-09
       155  12 -9.613242E+04 -2.321686E+04 -6.043551E+03 -4.260168E+04  1.243455E-09 -1.590124E-09
       155  13 -8.481186E+04 -3.001291E+04 -1.479652E+04 -3.506817E+04  3.400644E-11 -6.113203E-11
       155  14 -8.304627E+04 -2.074676E+04 -7.004946E+03 -3.742292E+04 -3.733719E-09 -1.193291E-09
       155  15 -8.323253E+04 -1.878907E+04 -3.653804E+03 -3.927745E+04 -1.093234E-08 -3.500600E-09
       155  16 -6.465964E+04 -1.442119E+04 -8.051407E+03 -2.127251E+04 -1.542616E-09  2.339360E-10
       155  17 -6.664784E+04 -1.086476E+04 -2.948406E+03 -2.886285E+04 -5.314543E-09 -9.239428E-10
       155  18 -7.033237E+04 -1.436122E+04 -1.264036E+03 -3.595314E+04 -1.546002E-08 -5.437231E-09
       155  19 -1.049638E+05 -4.560431E+04 -2.154152E+04 -4.886354E+04  1.151844E+04  3.988897E+03
       155  20 -9.944443E+04 -3.062863E+04 -1.106144E+04 -4.598279E+04  6.812565E+03  1.572837E+03
       155  21 -9.613242E+04 -2.321686E+04 -6.043545E+03 -4.260168E+04  1.859141E+03 -1.834725E+02
       155  22 -8.481176E+04 -3.001287E+04 -1.479632E+04 -3.506814E+04  9.757601E+03  3.328688E+03
       155  23 -8.304622E+04 -2.074675E+04 -7.004867E+03 -3.742292E+04  6.341474E+03  1.396214E+03
       155  24 -8.323252E+04 -1.878906E+04 -3.653790E+03 -3.927745E+04  2.677797E+03  1.235528E+02
       155  25 -6.465957E+04 -1.442116E+04 -8.051274E+03 -2.127249E+04  7.996735E+03  2.668412E+03
       155  26 -6.664780E+04 -1.086475E+04 -2.948338E+03 -2.886284E+04  5.870372E+03  1.219579E+03
       155  27 -7.033236E+04 -1.436122E+04 -1.264012E+03 -3.595314E+04  3.496477E+03  4.305864E+02
       156   1 -9.102783E+04 -2.199979E+04 -4.327144E+03 -4.182805E+04 -1.392033E+03  5.926582E+01
       156   2 -8.485593E+04 -1.840664E+04 -1.820923E+03 -3.943017E+04 -3.799648E+02 -5.269473E+01
       156   3 -7.802066E+04 -1.622415E+04 -7.053865E+01 -3.803306E+04  6.574888E+02 -2.323448E+02
       156   4 -8.281214E+04 -1.865713E+04 -2.725553E+03 -3.916673E+04 -2.168224E+03 -2.318331E+02
       156   5 -8.310827E+04 -1.761924E+04 -1.423590E+03 -3.879596E+04 -1.288477E+03 -3.934158E+02
       156   6 -8.271484E+04 -1.796578E+04 -7.726237E+02 -3.942598E+04 -3.833441E+02 -6.226914E+02
       156   7 -7.459646E+04 -1.531449E+04 -1.123989E+03 -3.650539E+04 -2.944417E+03 -5.229341E+02
       156   8 -8.136061E+04 -1.683183E+04 -1.026255E+03 -3.816175E+04 -2.196992E+03 -7.341385E+02
       156   9 -8.740904E+04 -1.970743E+04 -1.474719E+03 -4.081891E+04 -1.424180E+03 -1.013039E+03
       156  10 -9.102784E+04 -2.199979E+04 -4.327148E+03 -4.182805E+04  1.176367E-08  4.389965E-09
       156  11 -8.485593E+04 -1.840664E+04 -1.820923E+03 -3.943017E+04 -1.533236E-08 -4.805102E-09
       156  12 -7.802066E+04 -1.622415E+04 -7.053957E+01 -3.803306E+04 -4.354626E-08 -1.821059E-08
       156  13 -8.281214E+04 -1.865713E+04 -2.725562E+03 -3.916673E+04 -1.361897E-08 -2.034754E-09
       156  14 -8.310827E+04 -1.761924E+04 -1.423594E+03 -3.879596E+04 -6.921742E-09  5.007072E-09
       156  15 -8.271484E+04 -1.796578E+04 -7.726248E+02 -3.942598E+04 -4.270907E-09  1.019280E-08
       156  16 -7.459647E+04 -1.531449E+04 -1.124005E+03 -3.650540E+04 -3.027958E-08 -1.282681E-08
       156  17 -8.136062E+04 -1.683183E+04 -1.026265E+03 -3.816176E+04  2.124094E-09 -4.795882E-09
       156  18 -8.740904E+04 -1.970743E+04 -1.474725E+03 -4.081891E+04  3.421823E-08  3.535419E-09
       156  19 -9.102783E+04 -2.199979E+04 -4.327144E+03 -4.182805E+04  1.392033E+03 -5.926582E+01
       156  20 -8.485593E+04 -1.840664E+04 -1.820923E+03 -3.943017E+04  3.799648E+02  5.269473E+01
       156  21 -7.802066E+04 -1.622415E+04 -7.053865E+01 -3.803306E+04 -6.574888E+02  2.323448E+02
       156  22 -8.281214E+04 -1.865713E+04 -2.725553E+03 -3.916673E+04  2.168224E+03  2.318331E+02
       156  23 -8.310827E+04 -1.761924E+04 -1.423590E+03 -3.879596E+04  1.288477E+03  3.934158E+02
       156  24 -8.271484E+04 -1.796578E+04 -7.726237E+02 -3.942598E+04  3.833441E+02  6.226914E+02
       156  25 -7.459646E+04 -1.531449E+04 -1.123989E+03 -3.650539E+04  2.944417E+03  5.229341E+02
       156  26 -8.136061E+04 -1.683183E+04 -1.026255E+03 -3.816175E+04  2.196992E+03  7.341385E+02
       156  27 -8.740904E+04 -1.970743E+04 -1.474719E+03 -4.081891E+04  1.424180E+03  1.013039E+03
       157   1 -7.374769E+04 -1.474949E+04  8.301888E+02 -3.688994E+04  8.751567E+02 -5.063646E+02
       157   2 -6.759236E+04 -1.188100E+04  2.145957E+03 -3.450049E+04  1.245968E+03 -9.760107E+02
       157   3 -6.052271E+04 -9.992650E+03  3.326864E+03 -3.319711E+04  1.619366E+03 -1.452560E+03
       157   4 -8.267648E+04 -1.796188E+04 -5.784966E+02 -3.941248E+04 -1.613117E+02 -8.950772E+02
       157   5 -8.313307E+04 -1.745916E+04 -3.146259E+02 -3.887472E+04  1.960050E+02 -1.369790E+03
       157   6 -8.267270E+04 -1.793390E+04 -1.749215E+02 -3.942304E+04  5.559052E+02 -1.851406E+03
       157   7 -9.160518E+04 -2.117425E+04 -1.987178E+03 -4.193499E+04 -1.197764E+03 -1.283784E+03
       157   8 -9.867342E+04 -2.303725E+04 -2.775182E+03 -4.324882E+04 -8.539241E+02 -1.763556E+03
       157   9 -1.048219E+05 -2.587500E+04 -3.676638E+03 -4.564869E+04 -5.075036E+02 -2.250232E+03
       157  10 -7.374769E+04 -1.474949E+04  8.301869E+02 -3.688994E+04  2.775128E-08  6.647086E-09
       157  11 -6.759236E+04 -1.188101E+04  2.145952E+03 -3.450049E+04  7.126749E-09 -1.177447E-09
       157  12 -6.052272E+04 -9.992653E+03  3.326855E+03 -3.319711E+04 -2.161049E-08 -9.800052E-09
       157  13 -8.267648E+04 -1.796188E+04 -5.784982E+02 -3.941248E+04 -1.254925E-09  1.081975E-08
       157  14 -8.313307E+04 -1.745916E+04 -3.146295E+02 -3.887472E+04  4.239297E-09  7.620857E-09
       157  15 -8.267270E+04 -1.793391E+04 -1.749285E+02 -3.942304E+04  1.594194E-09  2.054772E-09
       157  16 -9.160518E+04 -2.117425E+04 -1.987184E+03 -4.193499E+04 -3.182373E-08 -2.000967E-08
       157  17 -9.867342E+04 -2.303725E+04 -2.775189E+03 -4.324882E+04 -6.306584E-10 -3.280650E-09
       157  18 -1.048219E+05 -2.587501E+04 -3.676648E+03 -4.564869E+04  2.455168E-08  9.534875E-09
       157  19 -7.374769E+04 -1.474949E+04  8.301888E+02 -3.688994E+04 -8.751567E+02  5.063646E+02
       157  20 -6.759236E+04 -1.188100E+04  2.145957E+03 -3.450049E+04 -1.245968E+03  9.760107E+02
       157  21 -6.052271E+04 -9.992650E+03  3.326864E+03 -3.319711E+04 -1.619366E+03  1.452560E+03
       157  22 -8.267648E+04 -1.796188E+04 -5.784966E+02 -3.941248E+04  1.613117E+02  8.950772E+02
       157  23 -8.313307E+04 -1.745916E+04 -3.146259E+02 -3.887472E+04 -1.960050E+02  1.369790E+03
       157  24 -8.267270E+04 -1.793390E+04 -1.749215E+02 -3.942304E+04 -5.559052E+02  1.851406E+03
       157  25 -9.160518E+04 -2.117425E+04 -1.987178E+03 -4.193499E+04  1.197764E+03  1.283784E+03
       157  26 -9.867342E+04 -2.303725E+04 -2.775182E+03 -4.324882E+04  8.539241E+02  1.763556E+03
       157  27 -1.048219E+05 -2.587500E+04 -3.676638E+03 -4.564869E+04  5.075036E+02  2.250232E+03
       158   1 -5.632121E+04 -8.491712E+03  4.067416E+03 -3.202694E+04  1.763026E+03 -1.760053E+03
       158   2 -5.018094E+04 -5.657980E+03  5.158984E+03 -2.963323E+04  2.006327E+03 -2.289263E+03
       158   3 -4.309835E+04 -3.773934E+03  6.221065E+03 -2.832673E+04  2.249780E+03 -2.818849E+03
       158   4 -8.266795E+04 -1.793473E+04 -1.325896E+02 -3.942063E+04  7.000452E+02 -2.158725E+03
       158   5 -8.313937E+04 -1.746117E+04 -7.736020E+01 -3.887656E+04  9.425912E+02 -2.688235E+03
       158   6 -8.266851E+04 -1.793723E+04 -5.107351E+01 -3.941979E+04  1.185288E+03 -3.218120E+03
       158   7 -1.090142E+05 -2.737780E+04 -4.332690E+03 -4.681411E+04 -3.629007E+02 -2.557383E+03
       158   8 -1.160968E+05 -2.926432E+04 -5.313776E+03 -4.811948E+04 -1.210914E+02 -3.087186E+03
       158   9 -1.222370E+05 -3.210036E+04 -6.323241E+03 -5.051219E+04  1.208675E+02 -3.617364E+03
       158  10 -5.632122E+04 -8.491716E+03  4.067404E+03 -3.202694E+04 -2.268226E-09 -1.613095E-09
       158  11 -5.018094E+04 -5.657987E+03  5.158966E+03 -2.963323E+04 -1.989383E-09 -1.352831E-09
       158  12 -4.309835E+04 -3.773944E+03  6.221041E+03 -2.832672E+04 -2.382166E-09 -7.625019E-10
       158  13 -8.266795E+04 -1.793474E+04 -1.325993E+02 -3.942063E+04  6.236528E-10 -2.832142E-10
       158  14 -8.313937E+04 -1.746118E+04 -7.737545E+01 -3.887656E+04  6.783207E-11 -9.240852E-10
       158  15 -8.266851E+04 -1.793724E+04 -5.109561E+01 -3.941978E+04  4.659283E-10 -7.282950E-10
       158  16 -1.090143E+05 -2.737780E+04 -4.332702E+03 -4.681411E+04  1.877392E-09  1.062012E-09
       158  17 -1.160968E+05 -2.926433E+04 -5.313794E+03 -4.811948E+04  1.770546E-09 -3.186658E-10
       158  18 -1.222370E+05 -3.210038E+04 -6.323266E+03 -5.051219E+04  2.249156E-09 -6.751621E-10
       158  19 -5.632121E+04 -8.491712E+03  4.067416E+03 -3.202694E+04 -1.763026E+03  1.760053E+03
       158  20 -5.018094E+04 -5.657980E+03  5.158984E+03 -2.963323E+04 -2.006327E+03  2.289263E+03
       158  21 -4.309835E+04 -3.773934E+03  6.221065E+03 -2.832673E+04 -2.249780E+03  2.818849E+03
       158  22 -8.266795E+04 -1.793473E+04 -1.325896E+02 -3.942063E+04 -7.000452E+02  2.158725E+03
       158  23 -8.313937E+04 -1.746117E+04 -7.736020E+01 -3.887656E+04 -9.425912E+02  2.688235E+03
       158  24 -8.266851E+04 -1.793723E+04 -5.107351E+01 -3.941979E+04 -1.185288E+03  3.218120E+03
       158  25 -1.090142E+05 -2.737780E+04 -4.332690E+03 -4.681411E+04  3.629007E+02  2.557383E+03
       158  26 -1.160968E+05 -2.926432E+04 -5.313776E+03 -4.811948E+04  1.210914E+02  3.087186E+03
       158  27 -1.222370E+05 -3.210036E+04 -6.323241E+03 -5.051219E+04 -1.208675E+02  3.617364E+03
       159   1 -3.890566E+04 -2.269474E+03  6.924419E+03 -2.715498E+04  2.376838E+03 -3.132843E+03
       159   2 -3.276961E+04  5.653292E+02  7.961513E+03 -2.476103E+04  2.597539E+03 -3.669617E+03
       159   3 -2.568806E+04  2.452703E+03  8.986106E+03 -2.345354E+04  2.817195E+03 -4.203566E+03
       159   4 -8.266836E+04 -1.793753E+04 -4.533685E+01 -3.941948E+04  1.312271E+03 -3.532151E+03
       159   5 -8.314055E+04 -1.746365E+04 -4.512375E+01 -3.887613E+04  1.538481E+03 -4.066879E+03
       159   6 -8.266839E+04 -1.793824E+04 -6.176232E+01 -3.941919E+04  1.763647E+03 -4.598785E+03
       159   7 -1.264285E+05 -3.360520E+04 -7.014986E+03 -5.168304E+04  2.477957E+02 -3.931425E+03
       159   8 -1.335088E+05 -3.549236E+04 -8.051804E+03 -5.299015E+04  4.795142E+02 -4.464106E+03
       159   9 -1.396459E+05 -3.832909E+04 -9.109867E+03 -5.538364E+04  7.101893E+02 -4.993969E+03
       159  10 -3.890567E+04 -2.269486E+03  6.924390E+03 -2.715497E+04 -3.041619E-09 -9.583750E-10
       159  11 -3.276962E+04  5.653130E+02  7.961475E+03 -2.476102E+04  6.591969E-09  1.306128E-09
       159  12 -2.568807E+04  2.452682E+03  8.986058E+03 -2.345353E+04  6.523306E-09  1.374640E-09
       159  13 -8.266836E+04 -1.793754E+04 -4.536353E+01 -3.941948E+04  4.259961E-09  2.796096E-10
       159  14 -8.314056E+04 -1.746367E+04 -4.515928E+01 -3.887612E+04  9.129924E-09  1.878869E-09
       159  15 -8.266840E+04 -1.793826E+04 -6.180790E+01 -3.941918E+04  3.137691E-09  6.563090E-10
       159  16 -1.264285E+05 -3.360521E+04 -7.015015E+03 -5.168304E+04  8.138467E-09  1.739351E-09
       159  17 -1.335088E+05 -3.549238E+04 -8.051842E+03 -5.299014E+04  9.464851E-09  2.406692E-09
       159  18 -1.396459E+05 -3.832912E+04 -9.109914E+03 -5.538364E+04 -1.478680E-10  4.523596E-10
       159  19 -3.890566E+04 -2.269474E+03  6.924419E+03 -2.715498E+04 -2.376838E+03  3.132843E+03
       159  20 -3.276961E+04  5.653292E+02  7.961513E+03 -2.476103E+04 -2.597539E+03  3.669617E+03
       159  21 -2.568806E+04  2.452703E+03  8.986106E+03 -2.345354E+04 -2.817195E+03  4.203566E+03
       159  22 -8.266836E+04 -1.793753E+04 -4.533685E+01 -3.941948E+04 -1.312271E+03  3.532151E+03
       159  23 -8.314055E+04 -1.746365E+04 -4.512375E+01 -3.887613E+04 -1.538481E+03  4.066879E+03
       159  24 -8.266839E+04 -1.793824E+04 -6.176232E+01 -3.941919E+04 -1.763647E+03  4.598785E+03
       159  25 -1.264285E+05 -3.360520E+04 -7.014986E+03 -5.168304E+04 -2.477957E+02  3.931425E+03
       159  26 -1.335088E+05 -3.549236E+04 -8.051804E+03 -5.299015E+04 -4.795142E+02  4.464106E+03
       159  27 -1.396459E+05 -3.832909E+04 -9.109867E+03 -5.538364E+04 -7.101893E+02  4.993969E+03
       160   1 -2.149661E+04  3.957792E+03  9.671373E+03 -2.228353E+04  2.948495E+03 -4.513565E+03
       160   2 -1.536309E+04  6.795398E+03  1.067684E+04 -1.989008E+04  3.157617E+03 -5.035034E+03
       160   3 -8.285779E+03  8.685355E+03  1.167308E+04 -1.858041E+04  3.356372E+03 -5.528819E+03
       160   4 -8.267079E+04 -1.793785E+04 -7.727170E+01 -3.941970E+04  1.893275E+03 -4.909427E+03
       160   5 -8.313849E+04 -1.746497E+04 -1.320110E+02 -3.887554E+04  2.156512E+03 -5.410625E+03
       160   6 -8.267313E+04 -1.795048E+04 -2.388354E+02 -3.941521E+04  2.409380E+03 -5.884136E+03
       160   7 -1.438409E+05 -3.983309E+04 -9.825976E+03 -5.655427E+04  8.381656E+02 -5.305247E+03
       160   8 -1.509085E+05 -4.172470E+04 -1.094083E+04 -5.785894E+04  1.155529E+03 -5.786171E+03
       160   9 -1.570537E+05 -4.458540E+04 -1.215061E+04 -6.024742E+04  1.462519E+03 -6.239404E+03
       160  10 -2.149663E+04  3.957768E+03  9.671318E+03 -2.228351E+04  3.804706E-10 -6.959078E-10
       160  11 -1.536311E+04  6.795368E+03  1.067677E+04 -1.989007E+04 -3.142137E-10 -1.230829E-10
       160  12 -8.285799E+03  8.685319E+03  1.167300E+04 -1.858039E+04 -1.236356E-09  3.807530E-10
       160  13 -8.267080E+04 -1.793787E+04 -7.732373E+01 -3.941969E+04  1.006261E-09  2.038389E-10
       160  14 -8.313851E+04 -1.746500E+04 -1.320747E+02 -3.887553E+04 -1.405763E-09  4.551687E-10
       160  15 -8.267315E+04 -1.795051E+04 -2.389113E+02 -3.941520E+04  8.259073E-10  4.837555E-10
       160  16 -1.438409E+05 -3.983312E+04 -9.826030E+03 -5.655427E+04 -7.706692E-10  9.930220E-10
       160  17 -1.509086E+05 -4.172473E+04 -1.094089E+04 -5.785894E+04 -6.252653E-11  3.105846E-10
       160  18 -1.570537E+05 -4.458545E+04 -1.215069E+04 -6.024741E+04  6.474570E-10  5.446059E-10
       160  19 -2.149661E+04  3.957792E+03  9.671373E+03 -2.228353E+04 -2.948495E+03  4.513565E+03
       160  20 -1.536309E+04  6.795398E+03  1.067684E+04 -1.989008E+04 -3.157617E+03  5.035034E+03
       160  21 -8.285779E+03  8.685355E+03  1.167308E+04 -1.858041E+04 -3.356372E+03  5.528819E+03
       160  22 -8.267079E+04 -1.793785E+04 -7.727170E+01 -3.941970E+04 -1.893275E+03  4.909427E+03
       160  23 -8.313849E+04 -1.746497E+04 -1.320110E+02 -3.887554E+04 -2.156512E+03  5.410625E+03
       160  24 -8.267313E+04 -1.795048E+04 -2.388354E+02 -3.941521E+04 -2.409380E+03  5.884136E+03
       160  25 -1.438409E+05 -3.983309E+04 -9.825976E+03 -5.655427E+04 -8.381656E+02  5.305247E+03
       160  26 -1.509085E+05 -4.172470E+04 -1.094083E+04 -5.785894E+04 -1.155529E+03  5.786171E+03
       160  27 -1.570537E+05 -4.458540E+04 -1.215061E+04 -6.024742E+04 -1.462519E+03  6.239404E+03
       161   1 -4.083465E+03  1.018758E+04  1.232767E+04 -1.742581E+04  3.527478E+03 -5.800800E+03
       161   2  1.980840E+03  1.305784E+04  1.335269E+04 -1.495915E+04  3.430233E+03 -6.246282E+03
       161   3  8.977039E+03  1.492101E+04  1.452794E+04 -1.352591E+04  3.231984E+03 -6.422497E+03
       161   4 -8.269128E+04 -1.794925E+04 -3.177905E+02 -3.941710E+04  2.563291E+03 -6.162585E+03
       161   5 -8.312533E+04 -1.753558E+04 -5.839961E+02 -3.884718E+04  2.992444E+03 -6.410627E+03
       161   6 -8.273190E+04 -1.823338E+04 -1.117042E+03 -3.931079E+04  3.320597E+03 -6.389373E+03
       161   7 -1.612934E+05 -4.608579E+04 -1.296363E+04 -6.140603E+04  1.599223E+03 -6.524326E+03
       161   8 -1.682243E+05 -4.812845E+04 -1.452099E+04 -6.273227E+04  2.554716E+03 -6.574949E+03
       161   9 -1.744319E+05 -5.138694E+04 -1.676227E+04 -6.509211E+04  3.409196E+03 -6.356255E+03
       161  10 -4.083487E+03  1.018754E+04  1.232758E+04 -1.742580E+04 -1.481100E-10  9.104631E-10
       161  11  1.980817E+03  1.305779E+04  1.335260E+04 -1.495914E+04 -2.139923E-09  5.990804E-10
       161  12  8.977017E+03  1.492096E+04  1.452784E+04 -1.352589E+04  3.542653E-10  1.452946E-09
       161  13 -8.269130E+04 -1.794929E+04 -3.178743E+02 -3.941709E+04 -6.365067E-10  8.120763E-11
       161  14 -8.312535E+04 -1.753563E+04 -5.840901E+02 -3.884716E+04  1.318704E-09  9.160170E-11
       161  15 -8.273192E+04 -1.823343E+04 -1.117139E+03 -3.931077E+04  4.882989E-09  1.452681E-09
       161  16 -1.612934E+05 -4.608584E+04 -1.296371E+04 -6.140602E+04 -1.353788E-09 -5.274274E-10
       161  17 -1.682243E+05 -4.812850E+04 -1.452109E+04 -6.273226E+04  2.879526E-09 -2.983258E-10
       161  18 -1.744320E+05 -5.138698E+04 -1.676237E+04 -6.509210E+04  1.007656E-08  1.501974E-09
       161  19 -4.083465E+03  1.018758E+04  1.232767E+04 -1.742581E+04 -3.527478E+03  5.800800E+03
       161  20  1.980840E+03  1.305784E+04  1.335269E+04 -1.495915E+04 -3.430233E+03  6.246282E+03
       161  21  8.977039E+03  1.492101E+04  1.452794E+04 -1.352591E+04 -3.231984E+03  6.422497E+03
       161  22 -8.269128E+04 -1.794925E+04 -3.177905E+02 -3.941710E+04 -2.563291E+03  6.162585E+03
       161  23 -8.312533E+04 -1.753558E+04 -5.839961E+02 -3.884718E+04 -2.992444E+03  6.410627E+03
       161  24 -8.273190E+04 -1.823338E+04 -1.117042E+03 -3.931079E+04 -3.320597E+03  6.389373E+03
       161  25 -1.612934E+05 -4.608579E+04 -1.296363E+04 -6.140603E+04 -1.599223E+03  6.524326E+03
       161  26 -1.682243E+05 -4.812845E+04 -1.452099E+04 -6.273227E+04 -2.554716E+03  6.574949E+03
       161  27 -1.744319E+05 -5.138694E+04 -1.676227E+04 -6.509211E+04 -3.409196E+03  6.356255E+03
       162   1  1.331647E+04  1.632991E+04  1.520558E+04 -1.255695E+04  3.606266E+03 -6.394349E+03
       162   2  1.816796E+04  1.963257E+04  1.738010E+04 -8.580329E+03 -5.121148E+02 -6.489806E+03
       162   3  2.365987E+04  2.053414E+04  2.179874E+04 -4.883593E+03 -5.615033E+03 -3.961794E+03
       162   4 -8.293117E+04 -1.826077E+04 -1.497211E+03 -3.932541E+04  3.526012E+03 -6.424584E+03
       162   5 -8.306771E+04 -1.885090E+04 -2.870114E+03 -3.832332E+04  4.536829E+03 -4.595595E+03
       162   6 -8.357982E+04 -2.285827E+04 -6.062266E+03 -3.760127E+04  4.563163E+03 -1.429117E+02
       162   7 -1.791688E+05 -5.285048E+04 -1.820022E+04 -6.608993E+04  3.445771E+03 -6.454813E+03
       162   8 -1.842910E+05 -5.733255E+04 -2.312024E+04 -6.806122E+04  9.584808E+03 -2.701780E+03
       162   9 -1.908047E+05 -6.624796E+04 -3.392287E+04 -7.031258E+04  1.473913E+04  3.674997E+03
       162  10  1.331644E+04  1.632986E+04  1.520548E+04 -1.255694E+04  7.051580E-09  2.683779E-09
       162  11  1.816795E+04  1.963252E+04  1.738002E+04 -8.580332E+03  8.871523E-09  1.908289E-09
       162  12  2.365983E+04  2.053412E+04  2.179866E+04 -4.883611E+03  5.815135E-09  1.418133E-09
       162  13 -8.293120E+04 -1.826081E+04 -1.497312E+03 -3.932539E+04  7.556816E-09  2.049916E-09
       162  14 -8.306774E+04 -1.885093E+04 -2.870193E+03 -3.832330E+04  6.272769E-09  1.794393E-09
       162  15 -8.357984E+04 -2.285828E+04 -6.062305E+03 -3.760127E+04  3.040650E-09  8.009950E-10
       162  16 -1.791688E+05 -5.285052E+04 -1.820032E+04 -6.608991E+04  8.820572E-09  2.025139E-09
       162  17 -1.842911E+05 -5.733258E+04 -2.312042E+04 -6.806120E+04  4.671953E-09  2.742400E-09
       162  18 -1.908049E+05 -6.624804E+04 -3.392330E+04 -7.031262E+04 -1.506948E-09  3.324479E-11
       162  19  1.331647E+04  1.632991E+04  1.520558E+04 -1.255695E+04 -3.606266E+03  6.394349E+03
       162  20  1.816796E+04  1.963257E+04  1.738010E+04 -8.580329E+03  5.121148E+02  6.489806E+03
       162  21  2.365987E+04  2.053414E+04  2.179874E+04 -4.883593E+03  5.615033E+03  3.961794E+03
       162  22 -8.293117E+04 -1.826077E+04 -1.497211E+03 -3.932541E+04 -3.526012E+03  6.424584E+03
       162  23 -8.306771E+04 -1.885090E+04 -2.870114E+03 -3.832332E+04 -4.536829E+03  4.595595E+03
       162  24 -8.357982E+04 -2.285827E+04 -6.062266E+03 -3.760127E+04 -4.563163E+03  1.429117E+02
       162  25 -1.791688E+05 -5.285048E+04 -1.820022E+04 -6.608993E+04 -3.445771E+03  6.454813E+03
       162  26 -1.842910E+05 -5.733255E+04 -2.312024E+04 -6.806122E+04 -9.584808E+03  2.701780E+03
       162  27 -1.908047E+05 -6.624796E+04 -3.392287E+04 -7.031258E+04 -1.473913E+04 -3.674997E+03
       163   1 -7.274954E+04 -1.394910E+04 -2.106397E+04 -4.065187E+03 -2.119976E+04 -3.006638E+02
       163   2 -6.995483E+04  1.483484E+04 -3.736694E+03 -1.419793E+03 -1.403625E+04 -8.798551E+02
       163   3 -7.635792E+04  1.054442E+04  6.590844E+02  3.380457E+03 -6.873014E+03 -7.742597E+02
       163   4 -1.145619E+05 -2.438915E+04 -3.145744E+04  1.009908E+03 -2.148662E+04 -3.008878E+02
       163   5 -1.099436E+05  4.873033E+03 -1.355663E+04 -6.981745E+01 -1.410994E+04 -8.799048E+02
       163   6 -1.145606E+05  1.022649E+03 -8.736002E+03  1.005363E+03 -6.733511E+03 -7.742018E+02
       163   7 -1.563727E+05 -3.482924E+04 -4.185103E+04  6.084660E+03 -2.177345E+04 -3.011164E+02
       163   8 -1.499308E+05 -5.088886E+03 -2.337669E+04  1.280071E+03 -1.418362E+04 -8.799548E+02
       163   9 -1.527620E+05 -8.499207E+03 -1.813119E+04 -1.369584E+03 -6.594017E+03 -7.741449E+02
       163  10 -7.275002E+04 -1.394922E+04 -2.106481E+04 -4.065192E+03  4.825840E-10  2.071382E-10
       163  11 -6.995504E+04  1.483479E+04 -3.737065E+03 -1.419803E+03 -5.275608E-10  1.399225E-11
       163  12 -7.635797E+04  1.054440E+04  6.589945E+02  3.380453E+03  7.244979E-11 -5.797306E-10
       163  13 -1.145624E+05 -2.438928E+04 -3.145831E+04  1.009902E+03 -1.021232E-09  2.703272E-10
       163  14 -1.099438E+05  4.872978E+03 -1.355701E+04 -6.982745E+01 -2.692442E-10  5.983792E-11
       163  15 -1.145607E+05  1.022636E+03 -8.736088E+03  1.005359E+03 -8.548857E-10 -1.626027E-11
       163  16 -1.563732E+05 -3.482937E+04 -4.185192E+04  6.084655E+03  4.992418E-11  1.309982E-10
       163  17 -1.499310E+05 -5.088941E+03 -2.337707E+04  1.280061E+03 -5.866215E-10 -4.349544E-10
       163  18 -1.527621E+05 -8.499220E+03 -1.813127E+04 -1.369589E+03 -7.222554E-10 -5.442371E-10
       163  19 -7.274954E+04 -1.394910E+04 -2.106397E+04 -4.065187E+03  2.119976E+04  3.006638E+02
       163  20 -6.995483E+04  1.483484E+04 -3.736694E+03 -1.419793E+03  1.403625E+04  8.798551E+02
       163  21 -7.635792E+04  1.054442E+04  6.590844E+02  3.380457E+03  6.873014E+03  7.742597E+02
       163  22 -1.145619E+05 -2.438915E+04 -3.145744E+04  1.009908E+03  2.148662E+04  3.008878E+02
       163  23 -1.099436E+05  4.873033E+03 -1.355663E+04 -6.981745E+01  1.410994E+04  8.799048E+02
       163  24 -1.145606E+05  1.022649E+03 -8.736002E+03  1.005363E+03  6.733511E+03  7.742018E+02
       163  25 -1.563727E+05 -3.482924E+04 -4.185103E+04  6.084660E+03  2.177345E+04  3.011164E+02
       163  26 -1.499308E+05 -5.088886E+03 -2.337669E+04  1.280071E+03  1.418362E+04  8.799548E+02
       163  27 -1.527620E+05 -8.499207E+03 -1.813119E+04 -1.369584E+03  6.594017E+03  7.741449E+02
       164   1 -7.927385E+04  5.105384E+03  1.061636E+03  3.893468E+02 -5.306305E+03 -6.333334E+02
       164   2 -8.043359E+04  8.554555E+03  4.271813E+03 -2.310430E+02 -3.500058E+03 -6.437632E+02
       164   3 -8.293315E+04  7.580387E+03  5.200366E+03  1.351139E+03 -1.693814E+03 -5.734613E+02
       164   4 -1.128073E+05 -3.252767E+03 -7.194183E+03  1.018180E+03 -5.322108E+03 -6.333453E+02
       164   5 -1.121350E+05  6.545824E+02 -3.523823E+03 -8.357212E+01 -3.490764E+03 -6.437634E+02
       164   6 -1.128070E+05  1.341159E+02 -2.152598E+03  1.017249E+03 -1.659418E+03 -5.734508E+02
       164   7 -1.463397E+05 -1.161100E+04 -1.545009E+04  1.646980E+03 -5.337910E+03 -6.333572E+02
       164   8 -1.438356E+05 -7.245465E+03 -1.131953E+04  6.389111E+01 -3.481470E+03 -6.437636E+02
       164   9 -1.426801E+05 -7.312222E+03 -9.505627E+03  6.833742E+02 -1.625023E+03 -5.734403E+02
       164  10 -7.927388E+04  5.105376E+03  1.061582E+03  3.893441E+02 -3.218688E-10 -9.432512E-10
       164  11 -8.043360E+04  8.554552E+03  4.271789E+03 -2.310448E+02  2.130501E-10  2.372776E-10
       164  12 -8.293315E+04  7.580386E+03  5.200360E+03  1.351138E+03  1.165728E-09  3.884971E-10
       164  13 -1.128073E+05 -3.252775E+03 -7.194237E+03  1.018178E+03  1.439411E-10 -6.807978E-10
       164  14 -1.121351E+05  6.545787E+02 -3.523847E+03 -8.357393E+01  6.392178E-14 -1.967889E-10
       164  15 -1.128070E+05  1.341148E+02 -2.152603E+03  1.017248E+03  1.450854E-09 -1.971921E-10
       164  16 -1.463397E+05 -1.161101E+04 -1.545014E+04  1.646977E+03  6.022195E-10 -1.981355E-10
       164  17 -1.438356E+05 -7.245469E+03 -1.131956E+04  6.388930E+01 -1.161776E-11 -2.234814E-10
       164  18 -1.426801E+05 -7.312223E+03 -9.505633E+03  6.833735E+02 -1.483887E-09  4.939888E-10
       164  19 -7.927385E+04  5.105384E+03  1.061636E+03  3.893468E+02  5.306305E+03  6.333334E+02
       164  20 -8.043359E+04  8.554555E+03  4.271813E+03 -2.310430E+02  3.500058E+03  6.437632E+02
       164  21 -8.293315E+04  7.580387E+03  5.200366E+03  1.351139E+03  1.693814E+03  5.734613E+02
       164  22 -1.128073E+05 -3.252767E+03 -7.194183E+03  1.018180E+03  5.322108E+03  6.333453E+02
       164  23 -1.121350E+05  6.545824E+02 -3.523823E+03 -8.357212E+01  3.490764E+03  6.437634E+02
       164  24 -1.128070E+05  1.341159E+02 -2.152598E+03  1.017249E+03  1.659418E+03  5.734508E+02
       164  25 -1.463397E+05 -1.161100E+04 -1.545009E+04  1.646980E+03  5.337910E+03  6.333572E+02
       164  26 -1.438356E+05 -7.245465E+03 -1.131953E+04  6.389111E+01  3.481470E+03  6.437636E+02
       164  27 -1.426801E+05 -7.312222E+03 -9.505627E+03  6.833742E+02  1.625023E+03  5.734403E+02
       165   1 -8.742596E+04  5.831608E+03  4.466322E+03  9.572003E+02 -1.329841E+03 -5.232878E+02
       165   2 -8.917668E+04  5.888045E+03  4.815692E+03 -9.972358E+01 -8.720252E+02 -4.665697E+02
       165   3 -9.113454E+04  5.356324E+03  4.719835E+03  1.076304E+03 -4.142184E+02 -3.999750E+02
       165   4 -1.125544E+05 -4.299008E+02 -1.710279E+03  1.024424E+03 -1.313702E+03 -5.232837E+02
       165   5 -1.124506E+05  8.787943E+01 -9.087182E+02 -9.213324E+01 -8.528211E+02 -4.665638E+02
       165   6 -1.125544E+05  1.695693E+01 -5.545258E+02  1.024267E+03 -3.919485E+02 -3.999672E+02
       165   7 -1.376823E+05 -6.691457E+03 -7.886928E+03  1.091644E+03 -1.297563E+03 -5.232796E+02
       165   8 -1.357240E+05 -5.712327E+03 -6.633169E+03 -8.454322E+01 -8.336178E+02 -4.665578E+02
       165   9 -1.339738E+05 -5.322445E+03 -5.828921E+03  9.722315E+02 -3.696794E+02 -3.999593E+02
       165  10 -8.742596E+04  5.831607E+03  4.466318E+03  9.571997E+02  1.012578E-09  7.895228E-10
       165  11 -8.917668E+04  5.888045E+03  4.815691E+03 -9.972391E+01 -8.298983E-10  9.364022E-10
       165  12 -9.113454E+04  5.356324E+03  4.719834E+03  1.076304E+03 -1.504647E-10 -5.381665E-11
       165  13 -1.125544E+05 -4.299015E+02 -1.710283E+03  1.024423E+03 -2.753475E-10 -1.904619E-11
       165  14 -1.124506E+05  8.787900E+01 -9.087200E+02 -9.213356E+01 -5.387660E-10  8.756640E-10
       165  15 -1.125544E+05  1.695672E+01 -5.545264E+02  1.024267E+03  1.437274E-09  9.757724E-10
       165  16 -1.376823E+05 -6.691457E+03 -7.886931E+03  1.091644E+03 -1.719157E-10  8.112199E-10
       165  17 -1.357240E+05 -5.712327E+03 -6.633171E+03 -8.454354E+01 -1.357490E-09  6.204498E-10
       165  18 -1.339738E+05 -5.322445E+03 -5.828921E+03  9.722314E+02 -1.919202E-11  8.351960E-10
       165  19 -8.742596E+04  5.831608E+03  4.466322E+03  9.572003E+02  1.329841E+03  5.232878E+02
       165  20 -8.917668E+04  5.888045E+03  4.815692E+03 -9.972358E+01  8.720252E+02  4.665697E+02
       165  21 -9.113454E+04  5.356324E+03  4.719835E+03  1.076304E+03  4.142184E+02  3.999750E+02
       165  22 -1.125544E+05 -4.299008E+02 -1.710279E+03  1.024424E+03  1.313702E+03  5.232837E+02
       165  23 -1.124506E+05  8.787943E+01 -9.087182E+02 -9.213324E+01  8.528211E+02  4.665638E+02
       165  24 -1.125544E+05  1.695693E+01 -5.545258E+02  1.024267E+03  3.919485E+02  3.999672E+02
       165  25 -1.376823E+05 -6.691457E+03 -7.886928E+03  1.091644E+03  1.297563E+03  5.232796E+02
       165  26 -1.357240E+05 -5.712327E+03 -6.633169E+03 -8.454322E+01  8.336178E+02  4.665578E+02
       165  27 -1.339738E+05 -5.322445E+03 -5.828921E+03  9.722315E+02  3.696794E+02  3.999593E+02
       166   1 -9.589760E+04  4.085638E+03  3.638580E+03  1.026014E+03 -3.221799E+02 -3.600817E+02
       166   2 -9.774869E+04  3.688650E+03  3.346614E+03 -9.388360E+01 -1.821048E+02 -2.949695E+02
       166   3 -9.964109E+04  3.206073E+03  2.941697E+03  1.039954E+03 -4.203563E+01 -2.284967E+02
       166   4 -1.125174E+05 -5.515866E+01 -4.437299E+02  1.028952E+03 -3.020916E+02 -3.600743E+02
       166   5 -1.124967E+05  1.320361E+01 -2.809117E+02 -9.792688E+01 -1.615954E+02 -2.949614E+02
       166   6 -1.125174E+05 -4.104485E+00 -2.313457E+02  1.028932E+03 -2.110488E+01 -2.284880E+02
       166   7 -1.291369E+05 -4.195976E+03 -4.526060E+03  1.031891E+03 -2.820038E+02 -3.600668E+02
       166   8 -1.272445E+05 -3.662259E+03 -3.908453E+03 -1.019701E+02 -1.410866E+02 -2.949534E+02
       166   9 -1.253935E+05 -3.214295E+03 -3.404401E+03  1.017911E+03 -1.745656E-01 -2.284792E+02
       166  10 -9.589760E+04  4.085638E+03  3.638579E+03  1.026014E+03  5.689587E-10 -1.792524E-10
       166  11 -9.774869E+04  3.688650E+03  3.346613E+03 -9.388364E+01 -9.918490E-11  1.102065E-09
       166  12 -9.964109E+04  3.206073E+03  2.941697E+03  1.039954E+03 -8.982659E-13  7.730017E-10
       166  13 -1.125174E+05 -5.515883E+01 -4.437303E+02  1.028952E+03  1.287926E-09  8.558176E-11
       166  14 -1.124967E+05  1.320351E+01 -2.809119E+02 -9.792692E+01  7.252741E-10  5.675290E-10
       166  15 -1.125174E+05 -4.104541E+00 -2.313458E+02  1.028932E+03 -1.120346E-09 -2.806230E-10
       166  16 -1.291369E+05 -4.195976E+03 -4.526060E+03  1.031891E+03  2.988232E-10  3.145941E-10
       166  17 -1.272445E+05 -3.662259E+03 -3.908453E+03 -1.019701E+02  1.156755E-10 -5.056859E-10
       166  18 -1.253935E+05 -3.214295E+03 -3.404401E+03  1.017911E+03 -1.036433E-09 -3.999947E-10
       166  19 -9.589760E+04  4.085638E+03  3.638580E+03  1.026014E+03  3.221799E+02  3.600817E+02
       166  20 -9.774869E+04  3.688650E+03  3.346614E+03 -9.388360E+01  1.821048E+02  2.949695E+02
       166  21 -9.964109E+04  3.206073E+03  2.941697E+03  1.039954E+03  4.203563E+01  2.284967E+02
       166  22 -1.125174E+05 -5.515866E+01 -4.437299E+02  1.028952E+03  3.020916E+02  3.600743E+02
       166  23 -1.124967E+05  1.320361E+01 -2.809117E+02 -9.792688E+01  1.615954E+02  2.949614E+02
       166  24 -1.125174E+05 -4.104485E+00 -2.313457E+02  1.028932E+03  2.110488E+01  2.284880E+02
       166  25 -1.291369E+05 -4.195976E+03 -4.526060E+03  1.031891E+03  2.820038E+02  3.600668E+02
       166  26 -1.272445E+05 -3.662259E+03 -3.908453E+03 -1.019701E+02  1.410866E+02  2.949534E+02
       166  27 -1.253935E+05 -3.214295E+03 -3.404401E+03  1.017911E+03  1.745656E-01  2.284792E+02
       167   1 -1.044762E+05  1.998659E+03  1.740796E+03  1.027376E+03 -1.221128E-01 -1.895058E+02
       167   2 -1.063363E+05  1.548443E+03  1.234964E+03 -9.864164E+01  1.401588E+02 -1.230139E+02
       167   3 -1.082384E+05  1.012878E+03  6.159532E+02  1.040947E+03  2.804402E+02 -5.684365E+01
       167   4 -1.125175E+05 -4.203181E+00 -2.312768E+02  1.031569E+03  2.065160E+01 -1.894969E+02
       167   5 -1.124965E+05  1.320199E+01 -2.802759E+02 -1.012235E+02  1.608310E+02 -1.230049E+02
       167   6 -1.125175E+05 -5.471784E+01 -4.423772E+02  1.031592E+03  3.010114E+02 -5.683445E+01
       167   7 -1.205587E+05 -2.007070E+03 -2.203354E+03  1.035762E+03  4.142504E+01 -1.894880E+02
       167   8 -1.186567E+05 -1.522042E+03 -1.795519E+03 -1.038053E+02  1.815030E+02 -1.229958E+02
       167   9 -1.167965E+05 -1.122315E+03 -1.500709E+03  1.022237E+03  3.215824E+02 -5.682525E+01
       167  10 -1.044762E+05  1.998659E+03  1.740795E+03  1.027376E+03  9.168026E-10  3.923731E-10
       167  11 -1.063363E+05  1.548443E+03  1.234964E+03 -9.864163E+01 -5.740587E-10  4.121623E-10
       167  12 -1.082384E+05  1.012878E+03  6.159531E+02  1.040947E+03 -4.042995E-10 -8.571205E-10
       167  13 -1.125175E+05 -4.203220E+00 -2.312769E+02  1.031569E+03  1.511493E-10  1.366177E-09
       167  14 -1.124965E+05  1.320197E+01 -2.802760E+02 -1.012235E+02 -8.484510E-10  4.063263E-10
       167  15 -1.125175E+05 -5.471786E+01 -4.423774E+02  1.031592E+03 -5.818008E-10 -9.829134E-10
       167  16 -1.205587E+05 -2.007070E+03 -2.203354E+03  1.035762E+03 -8.799193E-10  7.198706E-10
       167  17 -1.186567E+05 -1.522042E+03 -1.795519E+03 -1.038053E+02 -1.226960E-09  3.859151E-12
       167  18 -1.167965E+05 -1.122315E+03 -1.500709E+03  1.022237E+03 -2.903442E-10 -8.866623E-10
       167  19 -1.044762E+05  1.998659E+03  1.740796E+03  1.027376E+03  1.221128E-01  1.895058E+02
       167  20 -1.063363E+05  1.548443E+03  1.234964E+03 -9.864164E+01 -1.401588E+02  1.230139E+02
       167  21 -1.082384E+05  1.012878E+03  6.159532E+02  1.040947E+03 -2.804402E+02  5.684365E+01
       167  22 -1.125175E+05 -4.203181E+00 -2.312768E+02  1.031569E+03 -2.065160E+01  1.894969E+02
       167  23 -1.124965E+05  1.320199E+01 -2.802759E+02 -1.012235E+02 -1.608310E+02  1.230049E+02
       167  24 -1.125175E+05 -5.471784E+01 -4.423772E+02  1.031592E+03 -3.010114E+02  5.683445E+01
       167  25 -1.205587E+05 -2.007070E+03 -2.203354E+03  1.035762E+03 -4.142504E+01  1.894880E+02
       167  26 -1.186567E+05 -1.522042E+03 -1.795519E+03 -1.038053E+02 -1.815030E+02  1.229958E+02
       167  27 -1.167965E+05 -1.122315E+03 -1.500709E+03  1.022237E+03 -3.215824E+02  5.682525E+01
       168   1 -1.131250E+05 -1.263819E+02 -6.989647E+02  9.862257E+02  3.689165E+02 -1.718539E+01
       168   2 -1.149034E+05 -5.236887E+02 -1.508785E+03 -8.863249E+01  8.297513E+02  4.997853E+01
       168   3 -1.168910E+05 -1.507576E+03 -2.765838E+03  1.104160E+03  1.290587E+03  1.120436E+02
       168   4 -1.125546E+05  1.700270E+01 -5.528015E+02  1.031964E+03  3.906003E+02 -1.717561E+01
       168   5 -1.124501E+05  8.767189E+01 -9.054734E+02 -1.017621E+02  8.498462E+02  4.998747E+01
       168   6 -1.125546E+05 -4.279613E+02 -1.704271E+03  1.032162E+03  1.309095E+03  1.120516E+02
       168   7 -1.119841E+05  1.603873E+02 -4.066384E+02  1.077702E+03  4.122841E+02 -1.716583E+01
       168   8 -1.099969E+05  6.990321E+02 -3.021622E+02 -1.148918E+02  8.699411E+02  4.999640E+01
       168   9 -1.082183E+05  6.516519E+02 -6.427067E+02  9.601634E+02  1.327602E+03  1.120597E+02
       168  10 -1.131250E+05 -1.263819E+02 -6.989650E+02  9.862257E+02 -1.243463E-09 -9.474751E-11
       168  11 -1.149034E+05 -5.236889E+02 -1.508786E+03 -8.863252E+01 -1.142160E-09  4.310334E-10
       168  12 -1.168910E+05 -1.507576E+03 -2.765841E+03  1.104160E+03 -3.051124E-10  2.690344E-10
       168  13 -1.125546E+05  1.700266E+01 -5.528018E+02  1.031964E+03  2.431959E-10 -6.576445E-10
       168  14 -1.124501E+05  8.767169E+01 -9.054748E+02 -1.017622E+02 -5.386507E-10  2.201963E-10
       168  15 -1.125546E+05 -4.279617E+02 -1.704275E+03  1.032162E+03  8.668538E-11  3.286821E-10
       168  16 -1.119841E+05  1.603872E+02 -4.066387E+02  1.077702E+03  9.732719E-10 -2.736881E-10
       168  17 -1.099969E+05  6.990319E+02 -3.021636E+02 -1.148919E+02  2.116140E-11 -1.230332E-09
       168  18 -1.082183E+05  6.516514E+02 -6.427100E+02  9.601633E+02 -6.040818E-10  1.005642E-11
       168  19 -1.131250E+05 -1.263819E+02 -6.989647E+02  9.862257E+02 -3.689165E+02  1.718539E+01
       168  20 -1.149034E+05 -5.236887E+02 -1.508785E+03 -8.863249E+01 -8.297513E+02 -4.997853E+01
       168  21 -1.168910E+05 -1.507576E+03 -2.765838E+03  1.104160E+03 -1.290587E+03 -1.120436E+02
       168  22 -1.125546E+05  1.700270E+01 -5.528015E+02  1.031964E+03 -3.906003E+02  1.717561E+01
       168  23 -1.124501E+05  8.767189E+01 -9.054734E+02 -1.017621E+02 -8.498462E+02 -4.998747E+01
       168  24 -1.125546E+05 -4.279613E+02 -1.704271E+03  1.032162E+03 -1.309095E+03 -1.120516E+02
       168  25 -1.119841E+05  1.603873E+02 -4.066384E+02  1.077702E+03 -4.122841E+02  1.716583E+01
       168  26 -1.099969E+05  6.990321E+02 -3.021622E+02 -1.148918E+02 -8.699411E+02 -4.999640E+01
       168  27 -1.082183E+05  6.516519E+02 -6.427067E+02  9.601634E+02 -1.327602E+03 -1.120597E+02
       169   1 -1.219863E+05 -2.155310E+03 -4.408541E+03  7.017578E+02  1.625262E+03  1.575101E+02
       169   2 -1.231913E+05 -2.102587E+03 -6.229540E+03  5.079243E+01  3.463581E+03  2.273894E+02
       169   3 -1.257413E+05 -6.463830E+03 -1.035146E+04  1.660646E+03  5.301886E+03  2.537355E+02
       169   4 -1.128065E+05  1.339230E+02 -2.145072E+03  1.030040E+03  1.653618E+03  1.575233E+02
       169   5 -1.121353E+05  6.524290E+02 -3.511098E+03 -9.966229E+01  3.478385E+03  2.273947E+02
       169   6 -1.128068E+05 -3.240641E+03 -7.168601E+03  1.031461E+03  5.303143E+03  2.537303E+02
       169   7 -1.036267E+05  2.423151E+03  1.183904E+02  1.358327E+03  1.681975E+03  1.575365E+02
       169   8 -1.010792E+05  3.407436E+03 -7.926643E+02 -2.501197E+02  3.493189E+03  2.273999E+02
       169   9 -9.987210E+04 -1.746418E+01 -3.985759E+03  4.022620E+02  5.304401E+03  2.537251E+02
       169  10 -1.219863E+05 -2.155311E+03 -4.408546E+03  7.017576E+02 -8.718939E-10  8.258947E-10
       169  11 -1.231913E+05 -2.102590E+03 -6.229563E+03  5.079180E+01 -1.096077E-09  3.318561E-10
       169  12 -1.257414E+05 -6.463837E+03 -1.035151E+04  1.660645E+03 -7.360896E-10  8.801422E-10
       169  13 -1.128065E+05  1.339223E+02 -2.145077E+03  1.030040E+03 -3.055442E-10  3.287428E-10
       169  14 -1.121353E+05  6.524257E+02 -3.511121E+03 -9.966292E+01 -2.694438E-10  3.619384E-10
       169  15 -1.128068E+05 -3.240649E+03 -7.168654E+03  1.031460E+03  4.991474E-10 -9.853645E-11
       169  16 -1.036267E+05  2.423150E+03  1.183850E+02  1.358327E+03  6.452132E-10  2.927291E-10
       169  17 -1.010793E+05  3.407432E+03 -7.926873E+02 -2.501203E+02 -3.341254E-10 -2.460520E-10
       169  18 -9.987213E+04 -1.747180E+01 -3.985812E+03  4.022609E+02  1.710859E-10 -7.580917E-10
       169  19 -1.219863E+05 -2.155310E+03 -4.408541E+03  7.017578E+02 -1.625262E+03 -1.575101E+02
       169  20 -1.231913E+05 -2.102587E+03 -6.229540E+03  5.079243E+01 -3.463581E+03 -2.273894E+02
       169  21 -1.257413E+05 -6.463830E+03 -1.035146E+04  1.660646E+03 -5.301886E+03 -2.537355E+02
       169  22 -1.128065E+05  1.339230E+02 -2.145072E+03  1.030040E+03 -1.653618E+03 -1.575233E+02
       169  23 -1.121353E+05  6.524290E+02 -3.511098E+03 -9.966229E+01 -3.478385E+03 -2.273947E+02
       169  24 -1.128068E+05 -3.240641E+03 -7.168601E+03  1.031461E+03 -5.303143E+03 -2.537303E+02
       169  25 -1.036267E+05  2.423151E+03  1.183904E+02  1.358327E+03 -1.681975E+03 -1.575365E+02
       169  26 -1.010792E+05  3.407436E+03 -7.926643E+02 -2.501197E+02 -3.493189E+03 -2.273999E+02
       169  27 -9.987210E+04 -1.746418E+01 -3.985759E+03  4.022620E+02 -5.304401E+03 -2.537251E+02
       170   1 -1.323038E+05 -3.406927E+03 -1.307324E+04 -1.340920E+03  6.624251E+03  3.486511E+02
       170   2 -1.295601E+05 -2.794283E+01 -1.832246E+04  1.251545E+03  1.408965E+04  4.395130E+02
       170   3 -1.360437E+05 -2.966378E+04 -3.668648E+04  6.089494E+03  2.155530E+04  1.599057E+02
       170   4 -1.145541E+05  1.019467E+03 -8.704975E+03  1.023904E+03  6.709561E+03  3.487107E+02
       170   5 -1.099512E+05  4.855963E+03 -1.350798E+04 -9.406624E+01  1.405957E+04  4.394697E+02
       170   6 -1.145554E+05 -2.430181E+04 -3.134534E+04  1.033423E+03  2.140985E+04  1.596754E+02
       170   7 -9.680413E+04  5.445859E+03 -4.336731E+03  3.388797E+03  6.794874E+03  3.487710E+02
       170   8 -9.034204E+04  9.739848E+03 -8.693531E+03 -1.439720E+03  1.402949E+04  4.394265E+02
       170   9 -9.306661E+04 -1.893978E+04 -2.600421E+04 -4.022822E+03  2.126440E+04  1.594474E+02
       170  10 -1.323039E+05 -3.406939E+03 -1.307332E+04 -1.340922E+03 -3.187349E-10  4.748540E-10
       170  11 -1.295603E+05 -2.799635E+01 -1.832284E+04  1.251540E+03 -4.074436E-10 -2.069813E-10
       170  12 -1.360442E+05 -2.966391E+04 -3.668735E+04  6.089491E+03 -6.429221E-10 -1.149049E-10
       170  13 -1.145542E+05  1.019455E+03 -8.705060E+03  1.023903E+03  1.218447E-09  8.201050E-10
       170  14 -1.099515E+05  4.855910E+03 -1.350835E+04 -9.407122E+01 -4.601898E-10 -3.972863E-10
       170  15 -1.145559E+05 -2.430193E+04 -3.134620E+04  1.033421E+03  2.786582E-10  7.703570E-10
       170  16 -9.680418E+04  5.445847E+03 -4.336818E+03  3.388795E+03 -5.130656E-10  8.014305E-10
       170  17 -9.034225E+04  9.739795E+03 -8.693901E+03 -1.439725E+03 -1.092348E-09  8.604343E-10
       170  18 -9.306709E+04 -1.893990E+04 -2.600506E+04 -4.022825E+03 -9.055507E-10 -4.675092E-11
       170  19 -1.323038E+05 -3.406927E+03 -1.307324E+04 -1.340920E+03 -6.624251E+03 -3.486511E+02
       170  20 -1.295601E+05 -2.794283E+01 -1.832246E+04  1.251545E+03 -1.408965E+04 -4.395130E+02
       170  21 -1.360437E+05 -2.966378E+04 -3.668648E+04  6.089494E+03 -2.155530E+04 -1.599057E+02
       170  22 -1.145541E+05  1.019467E+03 -8.704975E+03  1.023904E+03 -6.709561E+03 -3.487107E+02
       170  23 -1.099512E+05  4.855963E+03 -1.350798E+04 -9.406624E+01 -1.405957E+04 -4.394697E+02
       170  24 -1.145554E+05 -2.430181E+04 -3.134534E+04  1.033423E+03 -2.140985E+04 -1.596754E+02
       170  25 -9.680413E+04  5.445859E+03 -4.336731E+03  3.388797E+03 -6.794874E+03 -3.487710E+02
       170  26 -9.034204E+04  9.739848E+03 -8.693531E+03 -1.439720E+03 -1.402949E+04 -4.394265E+02
       170  27 -9.306661E+04 -1.893978E+04 -2.600421E+04 -4.022822E+03 -2.126440E+04 -1.594474E+02
       171   1  4.209707E+04  2.374796E+05  4.513049E+04 -2.156598E+04  1.194816E+03  1.545149E+04
       171   2  1.956965E+04  2.117870E+05  2.818522E+04 -1.161387E+04  3.458832E+03  7.922034E+03
       171   3  1.364074E+04  1.912216E+05  2.028996E+04 -1.193213E+04  2.850756E+03  3.922051E+02
       171   4  1.599868E+04  1.325533E+05  1.955901E+04 -1.424250E+04  1.195608E+03  1.234269E+04
       171   5 -4.460095E+02  1.301999E+05  9.684751E+03 -9.109039E+03  3.459047E+03  7.227190E+03
       171   6 -7.098860E+02  1.325554E+05  7.185484E+03 -1.424589E+04  2.850342E+03  2.111060E+03
       171   7 -1.010031E+04  2.763713E+04 -6.013200E+03 -6.920265E+03  1.196327E+03  9.234408E+03
       171   8 -2.046211E+04  4.861903E+04 -8.816147E+03 -6.604537E+03  3.459256E+03  6.532435E+03
       171   9 -1.506073E+04  7.389238E+04 -5.919190E+03 -1.655943E+04  2.849915E+03  3.829754E+03
       171  10  4.209701E+04  2.374794E+05  4.513004E+04 -2.156600E+04 -6.415358E-10 -3.474888E-10
       171  11  1.956962E+04  2.117870E+05  2.818508E+04 -1.161389E+04 -9.147903E-10 -5.962505E-10
       171  12  1.364073E+04  1.912215E+05  2.028994E+04 -1.193214E+04 -1.094622E-09 -1.073597E-10
       171  13  1.599864E+04  1.325531E+05  1.955873E+04 -1.424252E+04  1.114339E-11 -2.231161E-10
       171  14 -4.460364E+02  1.301999E+05  9.684630E+03 -9.109059E+03  9.915427E-10  2.195255E-10
       171  15 -7.098959E+02  1.325553E+05  7.185460E+03 -1.424590E+04 -5.272058E-10  3.011099E-13
       171  16 -1.010034E+04  2.763704E+04 -6.013363E+03 -6.920274E+03  1.642687E-10  2.819007E-10
       171  17 -2.046213E+04  4.861898E+04 -8.816250E+03 -6.604555E+03  5.490671E-10 -4.693281E-11
       171  18 -1.506074E+04  7.389236E+04 -5.919233E+03 -1.655944E+04 -9.342667E-10 -3.343359E-10
       171  19  4.209707E+04  2.374796E+05  4.513049E+04 -2.156598E+04 -1.194816E+03 -1.545149E+04
       171  20  1.956965E+04  2.117870E+05  2.818522E+04 -1.161387E+04 -3.458832E+03 -7.922034E+03
       171  21  1.364074E+04  1.912216E+05  2.028996E+04 -1.193213E+04 -2.850756E+03 -3.922051E+02
       171  22  1.599868E+04  1.325533E+05  1.955901E+04 -1.424250E+04 -1.195608E+03 -1.234269E+04
       171  23 -4.460095E+02  1.301999E+05  9.684751E+03 -9.109039E+03 -3.459047E+03 -7.227190E+03
       171  24 -7.098860E+02  1.325554E+05  7.185484E+03 -1.424589E+04 -2.850342E+03 -2.111060E+03
       171  25 -1.010031E+04  2.763713E+04 -6.013200E+03 -6.920265E+03 -1.196327E+03 -9.234408E+03
       171  26 -2.046211E+04  4.861903E+04 -8.816147E+03 -6.604537E+03 -3.459256E+03 -6.532435E+03
       171  27 -1.506073E+04  7.389238E+04 -5.919190E+03 -1.655943E+04 -2.849915E+03 -3.829754E+03
       172   1  1.035843E+04  1.705690E+05  1.552524E+04 -1.501685E+04  1.829202E+03  6.866297E+01
       172   2  3.687095E+03  1.468382E+05  1.051524E+04 -8.986834E+03  7.603173E+02 -3.491053E+03
       172   3  2.927780E+02  1.243843E+05  8.640216E+03 -1.333534E+04 -3.438435E+02 -7.050680E+03
       172   4  8.653674E+02  1.317917E+05  6.832887E+03 -1.426903E+04  1.828979E+03  9.526150E+02
       172   5 -1.496825E+02  1.311561E+05  7.010657E+03 -9.079614E+03  7.600789E+02 -2.577375E+03
       172   6  2.107194E+03  1.317918E+05  1.030283E+04 -1.426870E+04 -3.440900E+02 -6.107404E+03
       172   7 -8.627795E+03  9.301590E+04 -1.859564E+03 -1.352126E+04  1.828758E+03  1.836512E+03
       172   8 -3.986477E+03  1.154743E+05  3.506060E+03 -9.172391E+03  7.598402E+02 -1.663720E+03
       172   9  3.921609E+03  1.391994E+05  1.196544E+04 -1.520207E+04 -3.443394E+02 -5.164117E+03
       172  10  1.035843E+04  1.705690E+05  1.552524E+04 -1.501685E+04 -8.801825E-10  2.215121E-10
       172  11  3.687092E+03  1.468381E+05  1.051522E+04 -8.986832E+03 -2.070377E-10 -4.431012E-10
       172  12  2.927645E+02  1.243842E+05  8.640123E+03 -1.333534E+04 -6.538216E-10 -5.615221E-10
       172  13  8.653636E+02  1.317917E+05  6.832879E+03 -1.426903E+04  2.387737E-10 -2.488171E-10
       172  14 -1.496849E+02  1.311561E+05  7.010644E+03 -9.079613E+03 -5.696750E-10  2.249098E-10
       172  15  2.107184E+03  1.317918E+05  1.030276E+04 -1.426870E+04 -8.720500E-10 -9.752972E-11
       172  16 -8.627799E+03  9.301590E+04 -1.859576E+03 -1.352126E+04 -3.077232E-10 -3.163615E-10
       172  17 -3.986478E+03  1.154743E+05  3.506053E+03 -9.172390E+03  4.813291E-11 -3.294678E-10
       172  18  3.921602E+03  1.391993E+05  1.196539E+04 -1.520207E+04 -4.536234E-10  1.145001E-10
       172  19  1.035843E+04  1.705690E+05  1.552524E+04 -1.501685E+04 -1.829202E+03 -6.866297E+01
       172  20  3.687095E+03  1.468382E+05  1.051524E+04 -8.986834E+03 -7.603173E+02  3.491053E+03
       172  21  2.927780E+02  1.243843E+05  8.640216E+03 -1.333534E+04  3.438435E+02  7.050680E+03
       172  22  8.653674E+02  1.317917E+05  6.832887E+03 -1.426903E+04 -1.828979E+03 -9.526150E+02
       172  23 -1.496825E+02  1.311561E+05  7.010657E+03 -9.079614E+03 -7.600789E+02  2.577375E+03
       172  24  2.107194E+03  1.317918E+05  1.030283E+04 -1.426870E+04  3.440900E+02  6.107404E+03
       172  25 -8.627795E+03  9.301590E+04 -1.859564E+03 -1.352126E+04 -1.828758E+03 -1.836512E+03
       172  26 -3.986477E+03  1.154743E+05  3.506060E+03 -9.172391E+03 -7.598402E+02  1.663720E+03
       172  27  3.921609E+03  1.391994E+05  1.196544E+04 -1.520207E+04  3.443394E+02  5.164117E+03
       173   1 -8.445547E+03  1.064912E+05  6.181744E+03 -1.938857E+04 -1.290011E+03 -9.463016E+03
       173   2 -1.328933E+04  7.844753E+04  8.231772E+03 -3.695396E+03 -2.069210E+03 -1.814502E+04
       173   3  1.682796E+04  6.027111E+04  2.467343E+04  1.700627E+03 -7.650448E+02 -2.682605E+04
       173   4 -1.771751E+03  1.337693E+05  1.229273E+04 -1.425310E+04 -1.290498E+03 -7.931824E+03
       173   5 -9.553193E+02  1.286834E+05  1.965588E+04 -9.100435E+03 -2.068986E+03 -1.836504E+04
       173   6  3.512404E+04  1.337665E+05  4.262548E+04 -1.424444E+04 -7.638914E+02 -2.879761E+04
       173   7  4.902094E+03  1.610482E+05  1.840369E+04 -9.117398E+03 -1.290959E+03 -6.400564E+03
       173   8  1.137863E+04  1.789217E+05  3.107985E+04 -1.450591E+04 -2.068759E+03 -1.858508E+04
       173   9  5.342068E+04  2.072673E+05  6.057728E+04 -3.019139E+04 -7.626369E+02 -3.076939E+04
       173  10 -8.445572E+03  1.064911E+05  6.181573E+03 -1.938858E+04  1.294782E-11  2.968811E-10
       173  11 -1.328943E+04  7.844717E+04  8.231145E+03 -3.695427E+03  1.260770E-09 -4.478762E-10
       173  12  1.682776E+04  6.027033E+04  2.467208E+04  1.700611E+03 -7.923847E-11 -4.328709E-10
       173  13 -1.771770E+03  1.337693E+05  1.229261E+04 -1.425310E+04  6.317079E-10 -2.398405E-10
       173  14 -9.554145E+02  1.286831E+05  1.965524E+04 -9.100466E+03  1.352879E-09  2.044342E-10
       173  15  3.512382E+04  1.337656E+05  4.262392E+04 -1.424445E+04  1.136474E-09 -2.994527E-11
       173  16  4.902081E+03  1.610481E+05  1.840361E+04 -9.117405E+03 -2.574203E-10 -4.439429E-10
       173  17  1.137853E+04  1.789214E+05  3.107919E+04 -1.450595E+04 -4.232535E-10 -3.243298E-10
       173  18  5.342042E+04  2.072663E+05  6.057550E+04 -3.019141E+04  2.276730E-11  4.336592E-11
       173  19 -8.445547E+03  1.064912E+05  6.181744E+03 -1.938857E+04  1.290011E+03  9.463016E+03
       173  20 -1.328933E+04  7.844753E+04  8.231772E+03 -3.695396E+03  2.069210E+03  1.814502E+04
       173  21  1.682796E+04  6.027111E+04  2.467343E+04  1.700627E+03  7.650448E+02  2.682605E+04
       173  22 -1.771751E+03  1.337693E+05  1.229273E+04 -1.425310E+04  1.290498E+03  7.931824E+03
       173  23 -9.553193E+02  1.286834E+05  1.965588E+04 -9.100435E+03  2.068986E+03  1.836504E+04
       173  24  3.512404E+04  1.337665E+05  4.262548E+04 -1.424444E+04  7.638914E+02  2.879761E+04
       173  25  4.902094E+03  1.610482E+05  1.840369E+04 -9.117398E+03  1.290959E+03  6.400564E+03
       173  26  1.137863E+04  1.789217E+05  3.107985E+04 -1.450591E+04  2.068759E+03  1.858508E+04
       173  27  5.342068E+04  2.072673E+05  6.057728E+04 -3.019139E+04  7.626369E+02  3.076939E+04
       174   1  5.782788E+03  1.747859E+03 -3.345787E+03 -2.351750E+03 -1.477808E+04 -8.399911E+02
       174   2  1.771684E+03  2.109551E+04  7.521083E+03 -5.427137E+02 -1.017983E+04 -2.500164E+03
       174   3 -8.498116E+03  1.779995E+04  9.734311E+03  6.293951E+03 -5.582396E+03 -2.291207E+03
       174   4 -7.638037E+04 -1.873064E+04 -2.359943E+04  3.742275E+03 -1.614754E+04 -8.406710E+02
       174   5 -7.316452E+04  2.534280E+03 -1.035539E+04  1.224482E+03 -1.056307E+04 -2.500377E+03
       174   6 -7.637949E+04  9.832030E+02 -6.450740E+03  3.734381E+03 -4.979344E+03 -2.290916E+03
       174   7 -1.585373E+05 -3.920950E+04 -4.385354E+04  9.835491E+03 -1.751682E+04 -8.413778E+02
       174   8 -1.480956E+05 -1.602734E+04 -2.823226E+04  2.991463E+03 -1.094626E+04 -2.500592E+03
       174   9 -1.442566E+05 -1.583385E+04 -2.263611E+04  1.175091E+03 -4.376358E+03 -2.290631E+03
       174  10  5.782553E+03  1.747800E+03 -3.346199E+03 -2.351760E+03 -5.038688E-09  5.715641E-10
       174  11  1.771571E+03  2.109548E+04  7.520876E+03 -5.427342E+02  3.171215E-10  1.890009E-09
       174  12 -8.498151E+03  1.779994E+04  9.734243E+03  6.293941E+03  7.124085E-09  6.572889E-10
       174  13 -7.638065E+04 -1.873071E+04 -2.359992E+04  3.742264E+03 -1.563808E-09 -5.569432E-10
       174  14 -7.316464E+04  2.534243E+03 -1.035561E+04  1.224461E+03  1.089631E-09 -6.806553E-10
       174  15 -7.637952E+04  9.831907E+02 -6.450796E+03  3.734371E+03  6.477557E-11 -4.088598E-10
       174  16 -1.585376E+05 -3.920958E+04 -4.385411E+04  9.835479E+03  5.573284E-09  9.147265E-11
       174  17 -1.480957E+05 -1.602738E+04 -2.823249E+04  2.991441E+03 -5.941199E-10  9.758078E-10
       174  18 -1.442567E+05 -1.583386E+04 -2.263616E+04  1.175083E+03 -7.453972E-09 -7.023174E-10
       174  19  5.782788E+03  1.747859E+03 -3.345787E+03 -2.351750E+03  1.477808E+04  8.399911E+02
       174  20  1.771684E+03  2.109551E+04  7.521083E+03 -5.427137E+02  1.017983E+04  2.500164E+03
       174  21 -8.498116E+03  1.779995E+04  9.734311E+03  6.293951E+03  5.582396E+03  2.291207E+03
       174  22 -7.638037E+04 -1.873064E+04 -2.359943E+04  3.742275E+03  1.614754E+04  8.406710E+02
       174  23 -7.316452E+04  2.534280E+03 -1.035539E+04  1.224482E+03  1.056307E+04  2.500377E+03
       174  24 -7.637949E+04  9.832030E+02 -6.450740E+03  3.734381E+03  4.979344E+03  2.290916E+03
       174  25 -1.585373E+05 -3.920950E+04 -4.385354E+04  9.835491E+03  1.751682E+04  8.413778E+02
       174  26 -1.480956E+05 -1.602734E+04 -2.823226E+04  2.991463E+03  1.094626E+04  2.500592E+03
       174  27 -1.442566E+05 -1.583385E+04 -2.263611E+04  1.175091E+03  4.376358E+03  2.290631E+03
       175   1 -1.636940E+04  1.266189E+04  8.794403E+03  3.216621E+03 -4.032773E+03 -1.857704E+03
       175   2 -2.313064E+04  1.305396E+04  9.633978E+03  1.088206E+03 -2.728350E+03 -1.697988E+03
       175   3 -3.064536E+04  1.112610E+04  9.043598E+03  4.043729E+03 -1.424054E+03 -1.406061E+03
       175   4 -7.512045E+04 -1.898342E+03 -5.256063E+03  3.750070E+03 -3.983436E+03 -1.857695E+03
       175   5 -7.473741E+04  2.684046E+02 -2.685173E+03  1.207580E+03 -2.609327E+03 -1.697936E+03
       175   6 -7.512020E+04  1.029838E+02 -1.592764E+03  3.749064E+03 -1.235331E+03 -1.405963E+03
       175   7 -1.338683E+05 -1.645882E+04 -1.930677E+04  4.283469E+03 -3.934105E+03 -1.857685E+03
       175   8 -1.263418E+05 -1.251734E+04 -1.500451E+04  1.326943E+03 -2.490313E+03 -1.697884E+03
       175   9 -1.195932E+05 -1.092028E+04 -1.222927E+04  3.454420E+03 -1.046621E+03 -1.405865E+03
       175  10 -1.636942E+04  1.266188E+04  8.794366E+03  3.216615E+03  2.337204E-10 -1.631955E-10
       175  11 -2.313065E+04  1.305396E+04  9.633959E+03  1.088202E+03 -2.219866E-10  1.468453E-09
       175  12 -3.064536E+04  1.112610E+04  9.043590E+03  4.043727E+03  9.579361E-10  1.373472E-09
       175  13 -7.512047E+04 -1.898350E+03 -5.256099E+03  3.750065E+03  1.022845E-09  1.534144E-09
       175  14 -7.473742E+04  2.683997E+02 -2.685191E+03  1.207576E+03  8.306686E-10 -2.491396E-09
       175  15 -7.512020E+04  1.029812E+02 -1.592771E+03  3.749063E+03 -4.398140E-10  1.529554E-09
       175  16 -1.338684E+05 -1.645883E+04 -1.930681E+04  4.283463E+03 -9.081840E-10 -1.854771E-09
       175  17 -1.263418E+05 -1.251735E+04 -1.500453E+04  1.326940E+03 -7.502154E-10 -3.762352E-10
       175  18 -1.195932E+05 -1.092028E+04 -1.222927E+04  3.454419E+03 -2.315954E-10  5.926609E-10
       175  19 -1.636940E+04  1.266189E+04  8.794403E+03  3.216621E+03  4.032773E+03  1.857704E+03
       175  20 -2.313064E+04  1.305396E+04  9.633978E+03  1.088206E+03  2.728350E+03  1.697988E+03
       175  21 -3.064536E+04  1.112610E+04  9.043598E+03  4.043729E+03  1.424054E+03  1.406061E+03
       175  22 -7.512045E+04 -1.898342E+03 -5.256063E+03  3.750070E+03  3.983436E+03  1.857695E+03
       175  23 -7.473741E+04  2.684046E+02 -2.685173E+03  1.207580E+03  2.609327E+03  1.697936E+03
       175  24 -7.512020E+04  1.029838E+02 -1.592764E+03  3.749064E+03  1.235331E+03  1.405963E+03
       175  25 -1.338683E+05 -1.645882E+04 -1.930677E+04  4.283469E+03  3.934105E+03  1.857685E+03
       175  26 -1.263418E+05 -1.251734E+04 -1.500451E+04  1.326943E+03  2.490313E+03  1.697884E+03
       175  27 -1.195932E+05 -1.092028E+04 -1.222927E+04  3.454420E+03  1.046621E+03  1.405865E+03
       176   1 -3.963831E+04  8.565564E+03  7.172829E+03  3.728368E+03 -1.134494E+03 -1.214254E+03
       176   2 -4.673191E+04  7.014309E+03  6.048242E+03  1.212921E+03 -7.984172E+02 -9.259249E+02
       176   3 -5.393373E+04  5.231517E+03  4.645534E+03  3.793680E+03 -4.623612E+02 -6.281426E+02
       176   4 -7.497406E+04 -1.854406E+02 -1.244473E+03  3.752178E+03 -9.848257E+02 -1.214174E+03
       176   5 -7.491949E+04  3.056862E+01 -6.809952E+02  1.204011E+03 -6.437749E+02 -9.258382E+02
       176   6 -7.497396E+04  1.419950E+01 -3.990767E+02  3.752064E+03 -3.027414E+02 -6.280487E+02
       176   7 -1.103087E+05 -8.936535E+03 -9.661861E+03  3.775986E+03 -8.351655E+02 -1.214094E+03
       176   8 -1.031063E+05 -6.953229E+03 -7.410288E+03  1.195101E+03 -4.891396E+02 -9.257515E+02
       176   9 -9.601378E+04 -5.203150E+03 -5.443719E+03  3.710449E+03 -1.431269E+02 -6.279548E+02
       176  10 -3.963832E+04  8.565562E+03  7.172823E+03  3.728367E+03 -4.249682E-10 -9.996965E-10
       176  11 -4.673191E+04  7.014308E+03  6.048239E+03  1.212921E+03 -1.022301E-09 -9.621949E-10
       176  12 -5.393373E+04  5.231516E+03  4.645533E+03  3.793680E+03  1.209545E-10 -9.820958E-10
       176  13 -7.497406E+04 -1.854425E+02 -1.244477E+03  3.752177E+03  6.441867E-12 -5.080556E-10
       176  14 -7.491949E+04  3.056759E+01 -6.809976E+02  1.204011E+03 -9.349063E-10 -8.466436E-10
       176  15 -7.497396E+04  1.419905E+01 -3.990776E+02  3.752064E+03 -1.093599E-09 -8.559092E-10
       176  16 -1.103087E+05 -8.936537E+03 -9.661865E+03  3.775985E+03  1.285478E-09 -3.880772E-10
       176  17 -1.031063E+05 -6.953230E+03 -7.410290E+03  1.195101E+03 -4.424831E-11  1.531992E-09
       176  18 -9.601378E+04 -5.203150E+03 -5.443720E+03  3.710449E+03 -8.848649E-12  1.393140E-09
       176  19 -3.963831E+04  8.565564E+03  7.172829E+03  3.728368E+03  1.134494E+03  1.214254E+03
       176  20 -4.673191E+04  7.014309E+03  6.048242E+03  1.212921E+03  7.984172E+02  9.259249E+02
       176  21 -5.393373E+04  5.231517E+03  4.645534E+03  3.793680E+03  4.623612E+02  6.281426E+02
       176  22 -7.497406E+04 -1.854406E+02 -1.244473E+03  3.752178E+03  9.848257E+02  1.214174E+03
       176  23 -7.491949E+04  3.056862E+01 -6.809952E+02  1.204011E+03  6.437749E+02  9.258382E+02
       176  24 -7.497396E+04  1.419950E+01 -3.990767E+02  3.752064E+03  3.027414E+02  6.280487E+02
       176  25 -1.103087E+05 -8.936535E+03 -9.661861E+03  3.775986E+03  8.351655E+02  1.214094E+03
       176  26 -1.031063E+05 -6.953229E+03 -7.410288E+03  1.195101E+03  4.891396E+02  9.257515E+02
       176  27 -9.601378E+04 -5.203150E+03 -5.443719E+03  3.710449E+03  1.431269E+02  6.279548E+02
       177   1 -6.306378E+04  2.928396E+03  2.508537E+03  3.758597E+03 -3.962365E+02 -4.532843E+02
       177   2 -7.020437E+04  1.179122E+03  9.503132E+02  1.207374E+03 -3.068643E+02 -1.557480E+02
       177   3 -7.736882E+04 -5.886965E+02 -6.723828E+02  3.755723E+03 -2.174964E+02  1.424140E+02
       177   4 -7.495497E+04 -1.348579E+01 -3.087537E+02  3.752853E+03 -2.393415E+02 -4.531904E+02
       177   5 -7.494298E+04  5.064887E+00 -1.809601E+02  1.203060E+03 -1.496416E+02 -1.556532E+02
       177   6 -7.495495E+04  5.017656E+00 -1.178647E+02  3.752842E+03 -5.994486E+01  1.425097E+02
       177   7 -8.684603E+04 -2.955378E+03 -3.126055E+03  3.747109E+03 -8.244957E+01 -4.530964E+02
       177   8 -7.968156E+04 -1.168994E+03 -1.312235E+03  1.198746E+03  7.579989E+00 -1.555584E+02
       177   9 -7.254107E+04  5.987314E+02  4.366530E+02  3.749960E+03  9.760732E+01  1.426055E+02
       177  10 -6.306378E+04  2.928396E+03  2.508537E+03  3.758597E+03  1.148296E-10 -1.471001E-09
       177  11 -7.020437E+04  1.179122E+03  9.503130E+02  1.207374E+03 -1.355850E-09  2.165747E-10
       177  12 -7.736882E+04 -5.886965E+02 -6.723829E+02  3.755723E+03 -2.143858E-09  9.883095E-11
       177  13 -7.495497E+04 -1.348603E+01 -3.087542E+02  3.752853E+03  5.406650E-10 -1.533658E-10
       177  14 -7.494298E+04  5.064855E+00 -1.809602E+02  1.203060E+03  1.628689E-10 -7.059945E-10
       177  15 -7.495495E+04  5.017633E+00 -1.178648E+02  3.752842E+03 -4.238115E-10 -3.596281E-10
       177  16 -8.684603E+04 -2.955378E+03 -3.126055E+03  3.747108E+03  2.099049E-10  6.127964E-10
       177  17 -7.968156E+04 -1.168994E+03 -1.312235E+03  1.198746E+03  6.288718E-10  1.964042E-09
       177  18 -7.254107E+04  5.987314E+02  4.366530E+02  3.749960E+03  1.558055E-09  6.191415E-10
       177  19 -6.306378E+04  2.928396E+03  2.508537E+03  3.758597E+03  3.962365E+02  4.532843E+02
       177  20 -7.020437E+04  1.179122E+03  9.503132E+02  1.207374E+03  3.068643E+02  1.557480E+02
       177  21 -7.736882E+04 -5.886965E+02 -6.723828E+02  3.755723E+03  2.174964E+02 -1.424140E+02
       177  22 -7.495497E+04 -1.348579E+01 -3.087537E+02  3.752853E+03  2.393415E+02  4.531904E+02
       177  23 -7.494298E+04  5.064887E+00 -1.809601E+02  1.203060E+03  1.496416E+02  1.556532E+02
       177  24 -7.495495E+04  5.017656E+00 -1.178647E+02  3.752842E+03  5.994486E+01 -1.425097E+02
       177  25 -8.684603E+04 -2.955378E+03 -3.126055E+03  3.747109E+03  8.244957E+01  4.530964E+02
       177  26 -7.968156E+04 -1.168994E+03 -1.312235E+03  1.198746E+03 -7.579989E+00  1.555584E+02
       177  27 -7.254107E+04  5.987314E+02  4.366530E+02  3.749960E+03 -9.760732E+01 -1.426055E+02
       178   1 -8.651712E+04 -2.866294E+03 -2.883428E+03  3.747294E+03 -1.978859E+02  3.161773E+02
       178   2 -9.366059E+04 -4.634086E+03 -4.556036E+03  1.195398E+03 -1.539438E+02  6.142637E+02
       178   3 -1.008175E+05 -6.404850E+03 -6.259529E+03  3.741791E+03 -1.099910E+02  9.115394E+02
       178   4 -7.495268E+04  3.337071E+00 -1.007820E+02  3.752557E+03 -4.031286E+01  3.162724E+02
       178   5 -7.494592E+04  2.792512E+00 -8.810888E+01  1.203418E+03  3.200174E+00  6.143556E+02
       178   6 -7.495273E+04 -6.721319E-01 -1.060469E+02  3.752559E+03  4.672447E+01  9.116284E+02
       178   7 -6.338811E+04  2.872958E+03  2.681854E+03  3.757819E+03  1.172631E+02  3.163674E+02
       178   8 -5.623093E+04  4.639646E+03  4.379793E+03  1.211439E+03  1.603489E+02  6.144476E+02
       178   9 -4.908730E+04  6.403458E+03  6.047388E+03  3.763328E+03  2.034465E+02  9.117174E+02
       178  10 -8.651712E+04 -2.866294E+03 -2.883428E+03  3.747294E+03 -5.697756E-11  3.414614E-10
       178  11 -9.366059E+04 -4.634087E+03 -4.556036E+03  1.195398E+03 -7.897567E-10 -1.632965E-09
       178  12 -1.008175E+05 -6.404851E+03 -6.259530E+03  3.741791E+03  5.376981E-11 -6.778386E-10
       178  13 -7.495268E+04  3.336963E+00 -1.007821E+02  3.752557E+03 -5.327991E-11  9.385681E-10
       178  14 -7.494592E+04  2.792106E+00 -8.810959E+01  1.203418E+03  3.811026E-10 -1.884312E-09
       178  15 -7.495273E+04 -6.730248E-01 -1.060485E+02  3.752559E+03 -3.715901E-10 -1.229482E-09
       178  16 -6.338811E+04  2.872958E+03  2.681854E+03  3.757819E+03 -5.027896E-10 -1.021348E-10
       178  17 -5.623093E+04  4.639646E+03  4.379793E+03  1.211439E+03 -7.102737E-10 -3.038926E-09
       178  18 -4.908730E+04  6.403457E+03  6.047386E+03  3.763328E+03  1.186990E-09 -1.011749E-09
       178  19 -8.651712E+04 -2.866294E+03 -2.883428E+03  3.747294E+03  1.978859E+02 -3.161773E+02
       178  20 -9.366059E+04 -4.634086E+03 -4.556036E+03  1.195398E+03  1.539438E+02 -6.142637E+02
       178  21 -1.008175E+05 -6.404850E+03 -6.259529E+03  3.741791E+03  1.099910E+02 -9.115394E+02
       178  22 -7.495268E+04  3.337071E+00 -1.007820E+02  3.752557E+03  4.031286E+01 -3.162724E+02
       178  23 -7.494592E+04  2.792511E+00 -8.810888E+01  1.203418E+03 -3.200174E+00 -6.143556E+02
       178  24 -7.495273E+04 -6.721318E-01 -1.060469E+02  3.752559E+03 -4.672447E+01 -9.116284E+02
       178  25 -6.338811E+04  2.872958E+03  2.681854E+03  3.757819E+03 -1.172631E+02 -3.163674E+02
       178  26 -5.623093E+04  4.639646E+03  4.379793E+03  1.211439E+03 -1.603489E+02 -6.144476E+02
       178  27 -4.908730E+04  6.403458E+03  6.047388E+03  3.763328E+03 -2.034465E+02 -9.117174E+02
       179   1 -1.099652E+05 -8.671442E+03 -8.504418E+03  3.727395E+03 -9.249293E+01  1.086480E+03
       179   2 -1.170898E+05 -1.043428E+04 -1.025684E+04  1.189382E+03  1.033780E+01  1.383848E+03
       179   3 -1.242481E+05 -1.225725E+04 -1.209240E+04  3.742177E+03  1.132003E+02  1.670204E+03
       179   4 -7.495710E+04  6.825671E+00 -1.249652E+02  3.750883E+03  6.737317E+01  1.086567E+03
       179   5 -7.494089E+04  8.978604E+00 -1.941505E+02  1.205504E+03  1.643966E+02  1.383926E+03
       179   6 -7.495722E+04 -4.796204E+01 -3.424004E+02  3.750913E+03  2.614529E+02  1.670273E+03
       179   7 -3.994786E+04  8.685004E+03  8.254401E+03  3.774373E+03  2.272483E+02  1.086655E+03
       179   8 -3.279032E+04  1.045210E+04  9.868416E+03  1.221627E+03  3.184658E+02  1.384004E+03
       179   9 -2.566414E+04  1.216115E+04  1.140743E+04  3.759649E+03  4.097172E+02  1.670342E+03
       179  10 -1.099652E+05 -8.671443E+03 -8.504420E+03  3.727395E+03  2.101182E-09 -2.142617E-10
       179  11 -1.170898E+05 -1.043428E+04 -1.025685E+04  1.189381E+03 -1.597309E-09 -2.503826E-09
       179  12 -1.242481E+05 -1.225725E+04 -1.209240E+04  3.742177E+03 -2.613417E-09 -1.430818E-09
       179  13 -7.495710E+04  6.824402E+00 -1.249674E+02  3.750883E+03  3.070993E-12  1.817494E-10
       179  14 -7.494090E+04  8.976540E+00 -1.941541E+02  1.205504E+03 -9.521375E-10  1.798012E-09
       179  15 -7.495722E+04 -4.796506E+01 -3.424057E+02  3.750912E+03 -2.408818E-10  2.812404E-09
       179  16 -3.994786E+04  8.685003E+03  8.254399E+03  3.774373E+03 -2.397140E-09  9.498550E-10
       179  17 -3.279032E+04  1.045210E+04  9.868412E+03  1.221627E+03 -2.391197E-10 -2.939156E-09
       179  18 -2.566414E+04  1.216114E+04  1.140742E+04  3.759648E+03  4.022345E-09 -9.607593E-10
       179  19 -1.099652E+05 -8.671442E+03 -8.504418E+03  3.727395E+03  9.249293E+01 -1.086480E+03
       179  20 -1.170898E+05 -1.043428E+04 -1.025684E+04  1.189382E+03 -1.033780E+01 -1.383848E+03
       179  21 -1.242481E+05 -1.225725E+04 -1.209240E+04  3.742177E+03 -1.132003E+02 -1.670204E+03
       179  22 -7.495710E+04  6.825671E+00 -1.249652E+02  3.750883E+03 -6.737317E+01 -1.086567E+03
       179  23 -7.494089E+04  8.978604E+00 -1.941505E+02  1.205504E+03 -1.643966E+02 -1.383926E+03
       179  24 -7.495722E+04 -4.796204E+01 -3.424004E+02  3.750913E+03 -2.614529E+02 -1.670273E+03
       179  25 -3.994786E+04  8.685004E+03  8.254401E+03  3.774373E+03 -2.272483E+02 -1.086655E+03
       179  26 -3.279032E+04  1.045210E+04  9.868416E+03  1.221627E+03 -3.184658E+02 -1.384004E+03
       179  27 -2.566414E+04  1.216115E+04  1.140743E+04  3.759649E+03 -4.097172E+02 -1.670342E+03
       180   1 -1.334149E+05 -1.444801E+04 -1.440064E+04  3.650510E+03  1.365133E+02  1.864611E+03
       180   2 -1.404311E+05 -1.616572E+04 -1.637547E+04  1.224509E+03  5.905245E+02  2.154695E+03
       180   3 -1.476683E+05 -1.852511E+04 -1.880671E+04  3.874614E+03  1.044635E+03  2.291428E+03
       180   4 -7.499626E+04  3.029330E+01 -4.351614E+02  3.747547E+03  3.300310E+02  1.864697E+03
       180   5 -7.489287E+04  7.269504E+01 -7.294880E+02  1.209631E+03  7.031227E+02  2.154733E+03
       180   6 -7.499648E+04 -5.124928E+02 -1.423988E+03  3.747789E+03  1.076319E+03  2.291424E+03
       180   7 -1.657452E+04  1.450835E+04  1.353007E+04  3.844592E+03  5.235669E+02  1.864784E+03
       180   8 -9.350732E+03  1.631080E+04  1.491619E+04  1.194751E+03  8.157327E+02  2.154770E+03
       180   9 -2.319818E+03  1.749974E+04  1.595837E+04  3.620949E+03  1.108006E+03  2.291420E+03
       180  10 -1.334149E+05 -1.444802E+04 -1.440064E+04  3.650510E+03  4.013797E-09 -1.393500E-09
       180  11 -1.404311E+05 -1.616573E+04 -1.637548E+04  1.224508E+03  4.856950E-10  2.568718E-10
       180  12 -1.476683E+05 -1.852512E+04 -1.880672E+04  3.874612E+03 -2.518354E-09 -1.147492E-09
       180  13 -7.499626E+04  3.028954E+01 -4.351681E+02  3.747546E+03 -4.847072E-10  1.634484E-09
       180  14 -7.489287E+04  7.268992E+01 -7.294977E+02  1.209630E+03 -2.044842E-10  2.799689E-09
       180  15 -7.499648E+04 -5.124988E+02 -1.424000E+03  3.747787E+03  2.504164E-10 -3.263651E-10
       180  16 -1.657452E+04  1.450835E+04  1.353007E+04  3.844591E+03 -3.742573E-09 -2.033454E-09
       180  17 -9.350734E+03  1.631079E+04  1.491618E+04  1.194749E+03 -1.037171E-10 -3.603361E-09
       180  18 -2.319821E+03  1.749974E+04  1.595835E+04  3.620947E+03  2.714249E-09  1.655489E-10
       180  19 -1.334149E+05 -1.444801E+04 -1.440064E+04  3.650510E+03 -1.365133E+02 -1.864611E+03
       180  20 -1.404311E+05 -1.616572E+04 -1.637547E+04  1.224509E+03 -5.905245E+02 -2.154695E+03
       180  21 -1.476683E+05 -1.852511E+04 -1.880671E+04  3.874614E+03 -1.044635E+03 -2.291428E+03
       180  22 -7.499626E+04  3.029330E+01 -4.351614E+02  3.747547E+03 -3.300310E+02 -1.864697E+03
       180  23 -7.489287E+04  7.269504E+01 -7.294880E+02  1.209631E+03 -7.031227E+02 -2.154733E+03
       180  24 -7.499648E+04 -5.124928E+02 -1.423988E+03  3.747789E+03 -1.076319E+03 -2.291424E+03
       180  25 -1.657452E+04  1.450835E+04  1.353007E+04  3.844592E+03 -5.235669E+02 -1.864784E+03
       180  26 -9.350732E+03  1.631080E+04  1.491619E+04  1.194751E+03 -8.157327E+02 -2.154770E+03
       180  27 -2.319818E+03  1.749974E+04  1.595837E+04  3.620949E+03 -1.108006E+03 -2.291420E+03
       181   1 -1.571264E+05 -1.999325E+04 -2.124665E+04  3.020118E+03  6.720227E+02  2.765362E+03
       181   2 -1.632843E+05 -2.131813E+04 -2.399435E+04  1.690765E+03  3.328152E+03  2.958642E+03
       181   3 -1.713772E+05 -2.901339E+04 -3.006347E+04  5.366634E+03  5.984891E+03  9.838656E+02
       181   4 -7.533661E+04  2.675198E+02 -1.746826E+03  3.731324E+03  1.345880E+03  2.765613E+03
       181   5 -7.446881E+04  6.850288E+02 -2.804128E+03  1.229582E+03  2.857706E+03  2.958445E+03
       181   6 -7.533706E+04 -5.068685E+03 -6.387829E+03  3.733051E+03  4.370196E+03  9.833480E+02
       181   7  6.459282E+03  2.052781E+04  1.775253E+04  4.442624E+03  2.019825E+03  2.765865E+03
       181   8  1.435395E+04  2.268762E+04  1.838554E+04  7.683314E+02  2.387194E+03  2.958249E+03
       181   9  2.071146E+04  1.887535E+04  1.728714E+04  2.099215E+03  2.755251E+03  9.828389E+02
       181  10 -1.571264E+05 -1.999326E+04 -2.124666E+04  3.020116E+03 -6.355038E-10 -1.128515E-09
       181  11 -1.632843E+05 -2.131814E+04 -2.399439E+04  1.690757E+03  2.527972E-10 -6.607205E-10
       181  12 -1.713772E+05 -2.901340E+04 -3.006354E+04  5.366629E+03 -4.271242E-10  7.188853E-10
       181  13 -7.533661E+04  2.675111E+02 -1.746844E+03  3.731321E+03 -5.373457E-10 -7.250014E-10
       181  14 -7.446882E+04  6.850172E+02 -2.804160E+03  1.229575E+03 -3.630014E-10  4.177006E-10
       181  15 -7.533708E+04 -5.068691E+03 -6.387867E+03  3.733048E+03 -1.910906E-09 -3.470175E-11
       181  16  6.459276E+03  2.052780E+04  1.775250E+04  4.442619E+03  6.375075E-10  1.042960E-09
       181  17  1.435394E+04  2.268761E+04  1.838552E+04  7.683257E+02 -1.873256E-09 -6.553574E-11
       181  18  2.071145E+04  1.887535E+04  1.728713E+04  2.099212E+03 -1.058051E-09 -2.119910E-10
       181  19 -1.571264E+05 -1.999325E+04 -2.124665E+04  3.020118E+03 -6.720227E+02 -2.765362E+03
       181  20 -1.632843E+05 -2.131813E+04 -2.399435E+04  1.690765E+03 -3.328152E+03 -2.958642E+03
       181  21 -1.713772E+05 -2.901339E+04 -3.006347E+04  5.366634E+03 -5.984891E+03 -9.838656E+02
       181  22 -7.533661E+04  2.675198E+02 -1.746826E+03  3.731324E+03 -1.345880E+03 -2.765613E+03
       181  23 -7.446881E+04  6.850288E+02 -2.804128E+03  1.229582E+03 -2.857706E+03 -2.958445E+03
       181  24 -7.533706E+04 -5.068685E+03 -6.387829E+03  3.733051E+03 -4.370196E+03 -9.833480E+02
       181  25  6.459282E+03  2.052781E+04  1.775253E+04  4.442624E+03 -2.019825E+03 -2.765865E+03
       181  26  1.435395E+04  2.268762E+04  1.838554E+04  7.683314E+02 -2.387194E+03 -2.958249E+03
       181  27  2.071146E+04  1.887535E+04  1.728714E+04  2.099215E+03 -2.755251E+03 -9.828389E+02
       182   1 -6.798376E+04 -2.484784E+05 -6.704428E+04  5.589812E+04 -2.748013E+03 -1.988135E+04
       182   2 -4.482312E+04 -1.898231E+05 -4.180913E+04  4.541325E+04 -8.189648E+03 -8.497170E+03
       182   3 -2.944406E+04 -1.345764E+05 -2.593125E+04  4.960950E+04 -7.398323E+03  2.890471E+03
       182   4 -9.200970E+03 -1.133541E+04 -1.032976E+04  5.046193E+04 -2.751080E+03 -7.567031E+03
       182   5 -1.497797E+03 -1.040546E+04 -4.628601E+03  4.312250E+04 -8.190224E+03 -5.154363E+03
       182   6 -1.701032E+01 -1.132884E+04 -2.052157E+03  5.046428E+04 -7.397113E+03 -2.739478E+03
       182   7  4.957793E+04  2.258595E+05  4.638137E+04  4.502365E+04 -2.754363E+03  4.751976E+03
       182   8  4.182551E+04  1.690428E+05  3.255022E+04  4.083107E+04 -8.190825E+03 -1.810606E+03
       182   9  2.940915E+04  1.119334E+05  2.182634E+04  5.131924E+04 -7.395920E+03 -8.370520E+03
       182  10 -6.798387E+04 -2.484788E+05 -6.704504E+04  5.589807E+04  6.393194E-10  6.997598E-10
       182  11 -4.482321E+04 -1.898232E+05 -4.180939E+04  4.541320E+04  7.215376E-10  4.901835E-10
       182  12 -2.944412E+04 -1.345764E+05 -2.593137E+04  4.960952E+04 -1.964010E-10 -5.280252E-10
       182  13 -9.200993E+03 -1.133547E+04 -1.032989E+04  5.046191E+04  7.810693E-10  6.311799E-10
       182  14 -1.497877E+03 -1.040550E+04 -4.628776E+03  4.312246E+04 -1.397860E-09 -8.862899E-10
       182  15 -1.707109E+01 -1.132887E+04 -2.052274E+03  5.046427E+04 -9.404328E-10  4.159358E-10
       182  16  4.957792E+04  2.258595E+05  4.638132E+04  4.502366E+04 -4.386538E-10 -4.416819E-10
       182  17  4.182544E+04  1.690428E+05  3.255009E+04  4.083106E+04  6.180057E-10 -6.575399E-10
       182  18  2.940907E+04  1.119333E+05  2.182611E+04  5.131919E+04 -1.421352E-09  2.055230E-10
       182  19 -6.798376E+04 -2.484784E+05 -6.704428E+04  5.589812E+04  2.748013E+03  1.988135E+04
       182  20 -4.482312E+04 -1.898231E+05 -4.180913E+04  4.541325E+04  8.189648E+03  8.497170E+03
       182  21 -2.944406E+04 -1.345764E+05 -2.593125E+04  4.960950E+04  7.398323E+03 -2.890471E+03
       182  22 -9.200970E+03 -1.133541E+04 -1.032976E+04  5.046193E+04  2.751080E+03  7.567031E+03
       182  23 -1.497797E+03 -1.040546E+04 -4.628601E+03  4.312250E+04  8.190224E+03  5.154363E+03
       182  24 -1.701032E+01 -1.132884E+04 -2.052157E+03  5.046428E+04  7.397113E+03  2.739478E+03
       182  25  4.957793E+04  2.258595E+05  4.638137E+04  4.502365E+04  2.754363E+03 -4.751976E+03
       182  26  4.182551E+04  1.690428E+05  3.255022E+04  4.083107E+04  8.190825E+03  1.810606E+03
       182  27  2.940915E+04  1.119334E+05  2.182634E+04  5.131924E+04  7.395920E+03  8.370520E+03
       183   1 -2.055817E+04 -9.534399E+04 -1.751312E+04  5.056084E+04 -5.074509E+03  2.059934E+03
       183   2 -6.539939E+03 -3.846431E+04 -4.573765E+03  4.308243E+04 -1.844247E+03  1.909928E+03
       183   3  7.585475E+03  1.847532E+04  8.492273E+03  5.063812E+04  1.481972E+03  1.759855E+03
       183   4 -3.965832E+02 -1.089742E+04 -1.157124E+03  5.054218E+04 -5.073629E+03 -2.522220E+03
       183   5 -3.710788E+00 -1.093738E+04  5.795186E+02  4.302523E+04 -1.843392E+03 -2.810530E+03
       183   6  5.205580E+02 -1.089639E+04  2.539043E+03  5.054235E+04  1.482793E+03 -3.098896E+03
       183   7  1.976459E+04  7.355605E+04  1.519861E+04  5.052352E+04 -5.072749E+03 -7.104984E+03
       183   8  6.532485E+03  1.659033E+04  5.732854E+03  4.296803E+04 -1.842535E+03 -7.531193E+03
       183   9 -6.544400E+03 -4.026723E+04 -3.414144E+03  5.044657E+04  1.483616E+03 -7.957421E+03
       183  10 -2.055820E+04 -9.534400E+04 -1.751317E+04  5.056085E+04 -9.902659E-11  9.922692E-11
       183  11 -6.539943E+03 -3.846432E+04 -4.573779E+03  4.308243E+04 -7.941159E-10  5.548103E-11
       183  12  7.585472E+03  1.847532E+04  8.492263E+03  5.063812E+04 -1.388669E-10  7.923661E-11
       183  13 -3.966125E+02 -1.089743E+04 -1.157184E+03  5.054217E+04 -6.070850E-10  7.061065E-10
       183  14 -3.716557E+00 -1.093739E+04  5.794973E+02  4.302523E+04 -1.026237E-09 -9.592019E-10
       183  15  5.205531E+02 -1.089640E+04  2.539020E+03  5.054235E+04 -1.571919E-09  5.128111E-10
       183  16  1.976455E+04  7.355599E+04  1.519847E+04  5.052349E+04 -8.766890E-10  4.183041E-11
       183  17  6.532466E+03  1.659027E+04  5.732741E+03  4.296802E+04 -5.250175E-10 -8.901211E-11
       183  18 -6.544419E+03 -4.026730E+04 -3.414267E+03  5.044658E+04 -9.509569E-10  6.682100E-11
       183  19 -2.055817E+04 -9.534399E+04 -1.751312E+04  5.056084E+04  5.074509E+03 -2.059934E+03
       183  20 -6.539939E+03 -3.846431E+04 -4.573765E+03  4.308243E+04  1.844247E+03 -1.909928E+03
       183  21  7.585475E+03  1.847532E+04  8.492273E+03  5.063812E+04 -1.481972E+03 -1.759855E+03
       183  22 -3.965832E+02 -1.089742E+04 -1.157124E+03  5.054218E+04  5.073629E+03  2.522220E+03
       183  23 -3.710788E+00 -1.093738E+04  5.795186E+02  4.302523E+04  1.843392E+03  2.810530E+03
       183  24  5.205580E+02 -1.089639E+04  2.539043E+03  5.054235E+04 -1.482793E+03  3.098896E+03
       183  25  1.976459E+04  7.355605E+04  1.519861E+04  5.052352E+04  5.072749E+03  7.104984E+03
       183  26  6.532485E+03  1.659033E+04  5.732854E+03  4.296803E+04  1.842535E+03  7.531193E+03
       183  27 -6.544400E+03 -4.026723E+04 -3.414144E+03  5.044657E+04 -1.483616E+03  7.957421E+03
       184   1  1.628369E+04  5.784021E+04  1.712076E+04  4.919308E+04  3.816338E+03  2.104312E+03
       184   2  3.229478E+04  1.127635E+05  3.336217E+04  4.649432E+04  5.302568E+03 -8.679724E+03
       184   3  5.886745E+04  1.717463E+05  5.926640E+04  5.856639E+04  1.909039E+03 -1.946613E+04
       184   4 -3.194010E+01 -1.028441E+04  3.668157E+03  5.048313E+04  3.817360E+03 -3.546646E+03
       184   5  2.175171E+03 -1.170574E+04  7.216844E+03  4.309940E+04  5.302412E+03 -7.302361E+03
       184   6  1.372536E+04 -1.028885E+04  1.554903E+04  5.048632E+04  1.907423E+03 -1.105952E+04
       184   7 -1.634783E+04 -7.840451E+04 -9.784552E+03  5.177304E+04  3.818358E+03 -9.196998E+03
       184   8 -2.794539E+04 -1.361604E+05 -1.892934E+04  3.970518E+04  5.302242E+03 -5.925268E+03
       184   9 -3.141886E+04 -1.922934E+05 -2.817040E+04  4.240864E+04  1.905589E+03 -2.655357E+03
       184  10  1.628368E+04  5.784020E+04  1.712072E+04  4.919308E+04  5.215923E-10  1.091124E-09
       184  11  3.229473E+04  1.127635E+05  3.336198E+04  4.649436E+04  1.097878E-09  3.804020E-10
       184  12  5.886734E+04  1.717459E+05  5.926568E+04  5.856642E+04 -1.646072E-10 -5.677153E-10
       184  13 -3.195913E+01 -1.028443E+04  3.668106E+03  5.048314E+04 -7.469277E-10  8.289385E-10
       184  14  2.175127E+03 -1.170581E+04  7.216690E+03  4.309944E+04  6.501225E-10 -5.454870E-10
       184  15  1.372532E+04 -1.028898E+04  1.554879E+04  5.048634E+04  1.028579E-09  3.166152E-10
       184  16 -1.634787E+04 -7.840461E+04 -9.784738E+03  5.177307E+04 -2.847473E-10 -8.086754E-10
       184  17 -2.794543E+04 -1.361604E+05 -1.892946E+04  3.970521E+04 -1.391958E-09 -1.998926E-10
       184  18 -3.141886E+04 -1.922934E+05 -2.817042E+04  4.240864E+04 -7.618834E-10  2.825699E-10
       184  19  1.628369E+04  5.784021E+04  1.712076E+04  4.919308E+04 -3.816338E+03 -2.104312E+03
       184  20  3.229478E+04  1.127635E+05  3.336217E+04  4.649432E+04 -5.302568E+03  8.679724E+03
       184  21  5.886745E+04  1.717463E+05  5.926640E+04  5.856639E+04 -1.909039E+03  1.946613E+04
       184  22 -3.194010E+01 -1.028441E+04  3.668157E+03  5.048313E+04 -3.817360E+03  3.546646E+03
       184  23  2.175171E+03 -1.170574E+04  7.216844E+03  4.309940E+04 -5.302412E+03  7.302361E+03
       184  24  1.372536E+04 -1.028885E+04  1.554903E+04  5.048632E+04 -1.907423E+03  1.105952E+04
       184  25 -1.634783E+04 -7.840451E+04 -9.784552E+03  5.177304E+04 -3.818358E+03  9.196998E+03
       184  26 -2.794539E+04 -1.361604E+05 -1.892934E+04  3.970518E+04 -5.302242E+03  5.925268E+03
       184  27 -3.141886E+04 -1.922934E+05 -2.817040E+04  4.240864E+04 -1.905589E+03  2.655357E+03
       185   1  1.818588E+05  6.481845E+04  3.822926E+04  6.657451E+04  1.600808E+04  4.904145E+03
       185   2  1.763997E+05  4.312278E+04  2.394334E+04  6.523127E+04  1.034746E+04  3.976535E+02
       185   3  1.759570E+05  3.820346E+04  1.860963E+04  6.184449E+04  3.963258E+03 -2.181130E+03
       185   4  1.192708E+05  3.409063E+04  2.019040E+04  4.209964E+04  1.326419E+04  3.873750E+03
       185   5  1.158383E+05  1.809537E+04  8.787201E+03  4.604222E+04  9.337153E+03  1.825296E+01
       185   6  1.170794E+05  1.853401E+04  4.963752E+03  4.794119E+04  4.686398E+03 -1.909618E+03
       185   7  5.668789E+04  3.364441E+03  2.151495E+03  1.762766E+04  1.052064E+04  2.843565E+03
       185   8  5.528092E+04 -6.931431E+03 -6.369146E+03  2.685503E+04  8.326957E+03 -3.610955E+02
       185   9  5.820490E+04 -1.135507E+03 -8.682479E+03  3.403892E+04  5.409469E+03 -1.638125E+03
       185  10  1.818585E+05  6.481835E+04  3.822874E+04  6.657444E+04 -4.997551E-10  4.379606E-10
       185  11  1.763995E+05  4.312275E+04  2.394314E+04  6.523127E+04  7.335923E-10 -2.347862E-10
       185  12  1.759570E+05  3.820345E+04  1.860960E+04  6.184450E+04  8.818935E-10  1.516838E-09
       185  13  1.192707E+05  3.409057E+04  2.019004E+04  4.209959E+04  9.813129E-11 -9.515812E-10
       185  14  1.158382E+05  1.809535E+04  8.787037E+03  4.604222E+04  2.109949E-09  1.980563E-09
       185  15  1.170794E+05  1.853400E+04  4.963704E+03  4.794120E+04  2.547176E-09  6.193359E-10
       185  16  5.668777E+04  3.364403E+03  2.151272E+03  1.762764E+04  7.612852E-10  3.388724E-11
       185  17  5.528084E+04 -6.931449E+03 -6.369276E+03  2.685503E+04  1.572760E-09  1.327819E-09
       185  18  5.820487E+04 -1.135518E+03 -8.682539E+03  3.403892E+04  1.862614E-09  6.899373E-10
       185  19  1.818588E+05  6.481845E+04  3.822926E+04  6.657451E+04 -1.600808E+04 -4.904145E+03
       185  20  1.763997E+05  4.312278E+04  2.394334E+04  6.523127E+04 -1.034746E+04 -3.976535E+02
       185  21  1.759570E+05  3.820346E+04  1.860963E+04  6.184449E+04 -3.963258E+03  2.181130E+03
       185  22  1.192708E+05  3.409063E+04  2.019040E+04  4.209964E+04 -1.326419E+04 -3.873750E+03
       185  23  1.158383E+05  1.809537E+04  8.787201E+03  4.604222E+04 -9.337153E+03 -1.825296E+01
       185  24  1.170794E+05  1.853401E+04  4.963752E+03  4.794119E+04 -4.686398E+03  1.909618E+03
       185  25  5.668789E+04  3.364441E+03  2.151495E+03  1.762766E+04 -1.052064E+04 -2.843565E+03
       185  26  5.528092E+04 -6.931431E+03 -6.369146E+03  2.685503E+04 -8.326957E+03  3.610955E+02
       185  27  5.820490E+04 -1.135507E+03 -8.682479E+03  3.403892E+04 -5.409469E+03  1.638125E+03
       186   1  1.691416E+05  3.988493E+04  1.661269E+04  6.183761E+04  3.771298E+03 -1.841256E+03
       186   2  1.645885E+05  3.609352E+04  1.341328E+04  5.956255E+04  2.588167E+03 -2.044706E+03
       186   3  1.589198E+05  3.479466E+04  1.127615E+04  5.892266E+04  1.372817E+03 -2.162348E+03
       186   4  1.164320E+05  1.999158E+04  3.924023E+03  4.704684E+04  3.922315E+03 -1.784573E+03
       186   5  1.169360E+05  1.831580E+04  2.023620E+03  4.639348E+04  2.816414E+03 -1.959015E+03
       186   6  1.163090E+05  1.911731E+04  1.124387E+03  4.737524E+04  1.678285E+03 -2.047648E+03
       186   7  6.372530E+04  9.846297E+01 -8.764849E+03  3.225723E+04  4.073319E+03 -1.727896E+03
       186   8  6.928586E+04  5.383078E+02 -9.366172E+03  3.322536E+04  3.044641E+03 -1.873330E+03
       186   9  7.370021E+04  3.440157E+03 -9.027449E+03  3.582860E+04  1.983729E+03 -1.932957E+03
       186  10  1.691415E+05  3.988492E+04  1.661266E+04  6.183761E+04  2.923749E-09  2.287210E-09
       186  11  1.645885E+05  3.609351E+04  1.341326E+04  5.956255E+04 -1.962850E-09 -3.142647E-10
       186  12  1.589198E+05  3.479466E+04  1.127614E+04  5.892266E+04 -1.765174E-09 -4.541564E-10
       186  13  1.164320E+05  1.999158E+04  3.923989E+03  4.704685E+04  1.583035E-09  3.638778E-10
       186  14  1.169360E+05  1.831580E+04  2.023598E+03  4.639348E+04  1.120649E-09 -2.500999E-09
       186  15  1.163090E+05  1.911730E+04  1.124373E+03  4.737525E+04  4.257859E-09  9.530296E-10
       186  16  6.372528E+04  9.845531E+01 -8.764885E+03  3.225724E+04 -4.248104E-09 -1.681872E-09
       186  17  6.928585E+04  5.383015E+02 -9.366196E+03  3.322537E+04 -3.006180E-09 -2.656381E-09
       186  18  7.370020E+04  3.440152E+03 -9.027463E+03  3.582861E+04  6.660188E-09  3.960378E-09
       186  19  1.691416E+05  3.988493E+04  1.661269E+04  6.183761E+04 -3.771298E+03  1.841256E+03
       186  20  1.645885E+05  3.609352E+04  1.341328E+04  5.956255E+04 -2.588167E+03  2.044706E+03
       186  21  1.589198E+05  3.479466E+04  1.127615E+04  5.892266E+04 -1.372817E+03  2.162348E+03
       186  22  1.164320E+05  1.999158E+04  3.924023E+03  4.704684E+04 -3.922315E+03  1.784573E+03
       186  23  1.169360E+05  1.831580E+04  2.023620E+03  4.639348E+04 -2.816414E+03  1.959015E+03
       186  24  1.163090E+05  1.911731E+04  1.124387E+03  4.737524E+04 -1.678285E+03  2.047648E+03
       186  25  6.372530E+04  9.846297E+01 -8.764849E+03  3.225723E+04 -4.073319E+03  1.727896E+03
       186  26  6.928586E+04  5.383078E+02 -9.366172E+03  3.322536E+04 -3.044641E+03  1.873330E+03
       186  27  7.370021E+04  3.440157E+03 -9.027449E+03  3.582860E+04 -1.983729E+03  1.932957E+03
       187   1  1.544626E+05  3.337853E+04  9.951513E+03  5.780911E+04  1.167389E+03 -2.019361E+03
       187   2  1.500277E+05  3.059968E+04  8.338079E+03  5.547420E+04  8.123565E+02 -1.795469E+03
       187   3  1.440508E+05  2.946944E+04  6.915258E+03  5.495797E+04  4.559282E+02 -1.567906E+03
       187   4  1.162547E+05  1.919532E+04  8.553118E+02  4.731762E+04  1.447182E+03 -1.914298E+03
       187   5  1.170229E+05  1.834964E+04  4.682666E+02  4.641643E+04  1.095468E+03 -1.689152E+03
       187   6  1.162486E+05  1.915196E+04  2.692472E+02  4.733393E+04  7.423571E+02 -1.460335E+03
       187   7  7.804804E+04  5.012143E+03 -8.241050E+03  3.682666E+04  1.726958E+03 -1.809241E+03
       187   8  8.401921E+04  6.099656E+03 -7.401649E+03  3.735907E+04  1.378564E+03 -1.582841E+03
       187   9  8.844730E+04  8.834538E+03 -6.376821E+03  3.971021E+04  1.028772E+03 -1.352770E+03
       187  10  1.544626E+05  3.337852E+04  9.951503E+03  5.780911E+04  2.811473E-09 -2.393927E-10
       187  11  1.500277E+05  3.059967E+04  8.338071E+03  5.547420E+04 -3.132898E-09 -1.011050E-09
       187  12  1.440508E+05  2.946943E+04  6.915253E+03  5.495797E+04 -4.065361E-09 -2.913398E-10
       187  13  1.162547E+05  1.919532E+04  8.553010E+02  4.731762E+04  4.271180E-09  1.796002E-09
       187  14  1.170229E+05  1.834964E+04  4.682590E+02  4.641643E+04 -2.435431E-09 -7.239635E-10
       187  15  1.162486E+05  1.915196E+04  2.692422E+02  4.733393E+04 -1.668534E-09  9.424908E-10
       187  16  7.804804E+04  5.012139E+03 -8.241062E+03  3.682666E+04 -2.951282E-10  2.483161E-09
       187  17  8.401920E+04  6.099653E+03 -7.401657E+03  3.735907E+04 -3.943912E-09  1.408694E-09
       187  18  8.844730E+04  8.834536E+03 -6.376826E+03  3.971021E+04 -3.127137E-10  1.036072E-09
       187  19  1.544626E+05  3.337853E+04  9.951513E+03  5.780911E+04 -1.167389E+03  2.019361E+03
       187  20  1.500277E+05  3.059968E+04  8.338079E+03  5.547420E+04 -8.123565E+02  1.795469E+03
       187  21  1.440508E+05  2.946944E+04  6.915258E+03  5.495797E+04 -4.559282E+02  1.567906E+03
       187  22  1.162547E+05  1.919532E+04  8.553118E+02  4.731762E+04 -1.447182E+03  1.914298E+03
       187  23  1.170229E+05  1.834964E+04  4.682666E+02  4.641643E+04 -1.095468E+03  1.689152E+03
       187  24  1.162486E+05  1.915196E+04  2.692472E+02  4.733393E+04 -7.423571E+02  1.460335E+03
       187  25  7.804804E+04  5.012143E+03 -8.241050E+03  3.682666E+04 -1.726958E+03  1.809241E+03
       187  26  8.401921E+04  6.099656E+03 -7.401649E+03  3.735907E+04 -1.378564E+03  1.582841E+03
       187  27  8.844730E+04  8.834538E+03 -6.376821E+03  3.971021E+04 -1.028772E+03  1.352770E+03
       188   1  1.397510E+05  2.788003E+04  5.798962E+03  5.378501E+04  3.478847E+02 -1.397192E+03
       188   2  1.353393E+05  2.515520E+04  4.507588E+03  5.144687E+04  1.579408E+02 -1.106502E+03
       188   3  1.293471E+05  2.402597E+04  3.269694E+03  5.093034E+04 -3.203740E+01 -8.157317E+02
       188   4  1.162423E+05  1.915481E+04  2.112128E+02  4.732915E+04  6.330901E+02 -1.290078E+03
       188   5  1.170325E+05  1.835641E+04  1.419643E+02  4.641859E+04  4.432206E+02 -9.993567E+02
       188   6  1.162422E+05  1.915361E+04  1.261381E+02  4.732965E+04  2.533155E+02 -7.085546E+02
       188   7  9.273418E+04  1.042968E+04 -5.376542E+03  4.087355E+04  9.182823E+02 -1.182969E+03
       188   8  9.872605E+04  1.155765E+04 -4.223683E+03  4.139044E+04  7.284912E+02 -8.922149E+02
       188   9  1.031374E+05  1.428124E+04 -3.017448E+03  4.372901E+04  5.386633E+02 -6.013794E+02
       188  10  1.397510E+05  2.788003E+04  5.798958E+03  5.378501E+04 -9.301360E-09 -2.840345E-09
       188  11  1.353393E+05  2.515520E+04  4.507586E+03  5.144687E+04 -2.096683E-09 -7.931757E-10
       188  12  1.293471E+05  2.402597E+04  3.269693E+03  5.093034E+04  7.723785E-09  2.343839E-09
       188  13  1.162423E+05  1.915481E+04  2.112089E+02  4.732915E+04 -1.277732E-09 -3.185871E-10
       188  14  1.170325E+05  1.835641E+04  1.419621E+02  4.641859E+04 -2.386470E-09 -1.069126E-09
       188  15  1.162422E+05  1.915361E+04  1.261370E+02  4.732965E+04 -7.457280E-10 -1.660353E-09
       188  16  9.273418E+04  1.042968E+04 -5.376546E+03  4.087355E+04  6.530362E-09  2.574734E-09
       188  17  9.872605E+04  1.155765E+04 -4.223686E+03  4.139044E+04 -2.516633E-09 -1.722409E-09
       188  18  1.031374E+05  1.428124E+04 -3.017450E+03  4.372901E+04 -9.015968E-09 -4.417489E-09
       188  19  1.397510E+05  2.788003E+04  5.798962E+03  5.378501E+04 -3.478847E+02  1.397192E+03
       188  20  1.353393E+05  2.515520E+04  4.507588E+03  5.144687E+04 -1.579408E+02  1.106502E+03
       188  21  1.293471E+05  2.402597E+04  3.269694E+03  5.093034E+04  3.203740E+01  8.157317E+02
       188  22  1.162423E+05  1.915481E+04  2.112128E+02  4.732915E+04 -6.330901E+02  1.290078E+03
       188  23  1.170325E+05  1.835641E+04  1.419643E+02  4.641859E+04 -4.432206E+02  9.993567E+02
       188  24  1.162422E+05  1.915361E+04  1.261381E+02  4.732965E+04 -2.533155E+02  7.085546E+02
       188  25  9.273418E+04  1.042968E+04 -5.376542E+03  4.087355E+04 -9.182823E+02  1.182969E+03
       188  26  9.872605E+04  1.155765E+04 -4.223683E+03  4.139044E+04 -7.284912E+02  8.922149E+02
       188  27  1.031374E+05  1.428124E+04 -3.017448E+03  4.372901E+04 -5.386633E+02  6.013794E+02
       189   1  1.250636E+05  2.242946E+04  2.220676E+03  4.975701E+04 -1.230618E+02 -6.391560E+02
       189   2  1.206520E+05  1.970703E+04  1.054648E+03  4.741986E+04 -3.368223E+02 -3.574248E+02
       189   3  1.146646E+05  1.858149E+04 -3.973320E+01  4.690402E+04 -5.505340E+02 -7.580685E+01
       189   4  1.162432E+05  1.915354E+04  1.347584E+02  4.732971E+04  1.622204E+02 -5.320037E+02
       189   5  1.170313E+05  1.835595E+04  1.901029E+02  4.641874E+04 -5.164592E+01 -2.503118E+02
       189   6  1.162435E+05  1.915526E+04  3.171692E+02  4.732907E+04 -2.654640E+02  3.126635E+01
       189   7  1.074229E+05  1.587762E+04 -1.951164E+03  4.490244E+04  4.474981E+02 -4.248531E+02
       189   8  1.134105E+05  1.700488E+04 -6.744404E+02  4.541764E+04  2.335278E+02 -1.431997E+02
       189   9  1.178223E+05  1.972903E+04  6.740695E+02  4.775412E+04  1.960528E+01  1.383393E+02
       189  10  1.250636E+05  2.242946E+04  2.220675E+03  4.975701E+04  2.641699E-09  9.075620E-10
       189  11  1.206520E+05  1.970703E+04  1.054648E+03  4.741986E+04 -3.121744E-11 -1.839757E-09
       189  12  1.146646E+05  1.858149E+04 -3.973378E+01  4.690402E+04 -1.990617E-09 -1.323342E-09
       189  13  1.162432E+05  1.915354E+04  1.347578E+02  4.732971E+04  8.991507E-10  2.090841E-09
       189  14  1.170313E+05  1.835595E+04  1.901027E+02  4.641874E+04  5.134580E-10 -7.172150E-10
       189  15  1.162435E+05  1.915526E+04  3.171691E+02  4.732907E+04 -3.743399E-10  8.925768E-10
       189  16  1.074229E+05  1.587762E+04 -1.951164E+03  4.490244E+04 -2.068468E-09 -5.497644E-10
       189  17  1.134105E+05  1.700488E+04 -6.744406E+02  4.541764E+04  7.512607E-10  1.469252E-09
       189  18  1.178223E+05  1.972903E+04  6.740694E+02  4.775412E+04  8.508396E-10  2.927321E-09
       189  19  1.250636E+05  2.242946E+04  2.220676E+03  4.975701E+04  1.230618E+02  6.391560E+02
       189  20  1.206520E+05  1.970703E+04  1.054648E+03  4.741986E+04  3.368223E+02  3.574248E+02
       189  21  1.146646E+05  1.858149E+04 -3.973320E+01  4.690402E+04  5.505340E+02  7.580685E+01
       189  22  1.162432E+05  1.915354E+04  1.347584E+02  4.732971E+04 -1.622204E+02  5.320037E+02
       189  23  1.170313E+05  1.835595E+04  1.901029E+02  4.641874E+04  5.164592E+01  2.503118E+02
       189  24  1.162435E+05  1.915526E+04  3.171692E+02  4.732907E+04  2.654640E+02 -3.126635E+01
       189  25  1.074229E+05  1.587762E+04 -1.951164E+03  4.490244E+04 -4.474981E+02  4.248531E+02
       189  26  1.134105E+05  1.700488E+04 -6.744404E+02  4.541764E+04 -2.335278E+02  1.431997E+02
       189  27  1.178223E+05  1.972903E+04  6.740695E+02  4.775412E+04 -1.960528E+01 -1.383393E+02
       190   1  1.103820E+05  1.698905E+04 -9.996009E+02  4.574797E+04 -6.812779E+02  8.607638E+01
       190   2  1.059487E+05  1.425286E+04 -1.896856E+03  4.339402E+04 -1.167727E+03  2.647208E+02
       190   3  1.000040E+05  1.319472E+04 -2.498818E+03  4.285416E+04 -1.653200E+03  4.407747E+02
       190   4  1.162546E+05  1.915031E+04  4.149088E+02  4.733614E+04 -3.954192E+02  1.934453E+02
       190   5  1.170150E+05  1.834583E+04  7.395833E+02  4.641600E+04 -8.842034E+02  3.712112E+02
       190   6  1.162643E+05  1.921989E+04  1.361427E+03  4.730998E+04 -1.372013E+03  5.463853E+02
       190   7  1.221273E+05  2.131159E+04  1.829425E+03  4.892434E+04 -1.095560E+02  3.008160E+02
       190   8  1.280813E+05  2.243881E+04  3.376023E+03  4.943804E+04 -6.006731E+02  4.777039E+02
       190   9  1.325250E+05  2.524509E+04  5.221655E+03  5.176590E+04 -1.090818E+03  6.519989E+02
       190  10  1.103820E+05  1.698905E+04 -9.996018E+02  4.574797E+04  3.476904E-09  1.595264E-09
       190  11  1.059487E+05  1.425286E+04 -1.896859E+03  4.339402E+04 -1.960941E-09 -1.089813E-09
       190  12  1.000040E+05  1.319472E+04 -2.498824E+03  4.285416E+04 -8.990972E-09 -3.151160E-09
       190  13  1.162546E+05  1.915031E+04  4.149085E+02  4.733614E+04 -8.194951E-10  1.554088E-09
       190  14  1.170150E+05  1.834583E+04  7.395816E+02  4.641600E+04 -2.542157E-10 -1.398933E-09
       190  15  1.162643E+05  1.921989E+04  1.361423E+03  4.730998E+04 -2.595054E-09 -2.444741E-09
       190  16  1.221273E+05  2.131159E+04  1.829425E+03  4.892434E+04 -4.374118E-09  2.093539E-09
       190  17  1.280813E+05  2.243881E+04  3.376022E+03  4.943804E+04  2.845641E-09  1.294352E-09
       190  18  1.325250E+05  2.524509E+04  5.221652E+03  5.176590E+04  6.524049E-09  1.584000E-09
       190  19  1.103820E+05  1.698905E+04 -9.996009E+02  4.574797E+04  6.812779E+02 -8.607638E+01
       190  20  1.059487E+05  1.425286E+04 -1.896856E+03  4.339402E+04  1.167727E+03 -2.647208E+02
       190  21  1.000040E+05  1.319472E+04 -2.498818E+03  4.285416E+04  1.653200E+03 -4.407747E+02
       190  22  1.162546E+05  1.915031E+04  4.149088E+02  4.733614E+04  3.954192E+02 -1.934453E+02
       190  23  1.170150E+05  1.834583E+04  7.395833E+02  4.641600E+04  8.842034E+02 -3.712112E+02
       190  24  1.162643E+05  1.921989E+04  1.361427E+03  4.730998E+04  1.372013E+03 -5.463853E+02
       190  25  1.221273E+05  2.131159E+04  1.829425E+03  4.892434E+04  1.095560E+02 -3.008160E+02
       190  26  1.280813E+05  2.243881E+04  3.376023E+03  4.943804E+04  6.006731E+02 -4.777039E+02
       190  27  1.325250E+05  2.524509E+04  5.221655E+03  5.176590E+04  1.090818E+03 -6.519989E+02
       191   1  9.563467E+04  1.164302E+04 -3.122664E+03  4.196595E+04 -1.994870E+03  5.293723E+02
       191   2  9.122797E+04  8.643353E+03 -2.916312E+03  3.920929E+04 -3.694437E+03  2.367348E+02
       191   3  8.595798E+04  8.637109E+03 -1.153340E+03  3.797408E+04 -5.371907E+03 -1.146594E+02
       191   4  1.163515E+05  1.909552E+04  1.792382E+03  4.740226E+04 -1.696135E+03  6.415717E+02
       191   5  1.168763E+05  1.829195E+04  3.229951E+03  4.637920E+04 -3.448596E+03  3.290608E+02
       191   6  1.165482E+05  2.049220E+04  6.265979E+03  4.687755E+04 -5.178983E+03 -4.221536E+01
       191   7  1.370687E+05  2.654799E+04  6.707368E+03  5.283870E+04 -1.397391E+03  7.537742E+02
       191   8  1.425253E+05  2.794059E+04  9.376165E+03  5.354938E+04 -3.202744E+03  4.213910E+02
       191   9  1.471395E+05  3.234745E+04  1.368527E+04  5.578148E+04 -4.986047E+03  3.023332E+01
       191  10  9.563467E+04  1.164302E+04 -3.122672E+03  4.196595E+04  3.044723E-09  1.568479E-09
       191  11  9.122796E+04  8.643349E+03 -2.916337E+03  3.920929E+04  6.397274E-09  4.719842E-09
       191  12  8.595795E+04  8.637101E+03 -1.153394E+03  3.797408E+04  3.929016E-09  1.617294E-09
       191  13  1.163515E+05  1.909551E+04  1.792375E+03  4.740226E+04  6.964983E-10 -1.449680E-09
       191  14  1.168763E+05  1.829194E+04  3.229928E+03  4.637920E+04  1.877341E-09  3.523986E-09
       191  15  1.165482E+05  2.049220E+04  6.265928E+03  4.687755E+04  1.987757E-09  5.789436E-10
       191  16  1.370687E+05  2.654799E+04  6.707363E+03  5.283870E+04 -2.125280E-09 -1.387948E-09
       191  17  1.425253E+05  2.794059E+04  9.376146E+03  5.354938E+04  3.786631E-10 -1.731969E-09
       191  18  1.471395E+05  3.234744E+04  1.368522E+04  5.578148E+04  9.677884E-11 -4.166506E-10
       191  19  9.563467E+04  1.164302E+04 -3.122664E+03  4.196595E+04  1.994870E+03 -5.293723E+02
       191  20  9.122797E+04  8.643353E+03 -2.916312E+03  3.920929E+04  3.694437E+03 -2.367348E+02
       191  21  8.595798E+04  8.637109E+03 -1.153340E+03  3.797408E+04  5.371907E+03  1.146594E+02
       191  22  1.163515E+05  1.909552E+04  1.792382E+03  4.740226E+04  1.696135E+03 -6.415717E+02
       191  23  1.168763E+05  1.829195E+04  3.229951E+03  4.637920E+04  3.448596E+03 -3.290608E+02
       191  24  1.165482E+05  2.049220E+04  6.265979E+03  4.687755E+04  5.178983E+03  4.221536E+01
       191  25  1.370687E+05  2.654799E+04  6.707368E+03  5.283870E+04  1.397391E+03 -7.537742E+02
       191  26  1.425253E+05  2.794059E+04  9.376165E+03  5.354938E+04  3.202744E+03 -4.213910E+02
       191  27  1.471395E+05  3.234745E+04  1.368527E+04  5.578148E+04  4.986047E+03 -3.023332E+01
       192   1  7.974903E+04  7.636939E+03 -4.799768E+02  4.155684E+04 -6.881716E+03 -3.335624E+02
       192   2  7.765043E+04 -3.612550E+00  4.209422E+03  3.140857E+04 -1.321454E+04 -2.722232E+03
       192   3  8.368320E+04  1.746601E+04  2.006473E+04  1.696485E+04 -1.905199E+04 -6.429875E+03
       192   4  1.175702E+05  1.817639E+04  7.926726E+03  4.831907E+04 -6.297257E+03 -1.140282E+02
       192   5  1.151385E+05  1.792594E+04  1.403344E+04  4.580175E+04 -1.381643E+04 -2.948381E+03
       192   6  1.210722E+05  4.301925E+04  3.224527E+04  3.898932E+04 -2.084019E+04 -7.101817E+03
       192   7  1.553929E+05  2.871585E+04  1.633338E+04  5.508163E+04 -5.712757E+03  1.055129E+02
       192   8  1.526277E+05  3.585573E+04  2.385726E+04  6.019570E+04 -1.441836E+04 -3.174553E+03
       192   9  1.584621E+05  6.857334E+04  4.442547E+04  6.101487E+04 -2.262847E+04 -7.773872E+03
       192  10  7.974898E+04  7.636926E+03 -4.800660E+02  4.155683E+04 -9.559031E-10  1.040726E-09
       192  11  7.765024E+04 -3.667377E+00  4.209080E+03  3.140854E+04 -6.105172E-10  2.240591E-09
       192  12  8.368280E+04  1.746586E+04  2.006397E+04  1.696476E+04  1.682984E-09  2.399059E-09
       192  13  1.175702E+05  1.817638E+04  7.926651E+03  4.831907E+04  4.805706E-10  2.868888E-10
       192  14  1.151383E+05  1.792588E+04  1.403307E+04  4.580172E+04  5.996242E-11  3.961575E-09
       192  15  1.210717E+05  4.301907E+04  3.224436E+04  3.898920E+04 -1.134148E-09  8.096264E-10
       192  16  1.553929E+05  2.871584E+04  1.633332E+04  5.508163E+04  1.625840E-09  8.656087E-10
       192  17  1.526274E+05  3.585566E+04  2.385685E+04  6.019566E+04 -1.627065E-09  1.366175E-09
       192  18  1.584615E+05  6.857314E+04  4.442439E+04  6.101473E+04 -1.795591E-09  7.686266E-10
       192  19  7.974903E+04  7.636939E+03 -4.799768E+02  4.155684E+04  6.881716E+03  3.335624E+02
       192  20  7.765043E+04 -3.612550E+00  4.209422E+03  3.140857E+04  1.321454E+04  2.722232E+03
       192  21  8.368320E+04  1.746601E+04  2.006473E+04  1.696485E+04  1.905199E+04  6.429875E+03
       192  22  1.175702E+05  1.817639E+04  7.926726E+03  4.831907E+04  6.297257E+03  1.140282E+02
       192  23  1.151385E+05  1.792594E+04  1.403344E+04  4.580175E+04  1.381643E+04  2.948381E+03
       192  24  1.210722E+05  4.301925E+04  3.224527E+04  3.898932E+04  2.084019E+04  7.101817E+03
       192  25  1.553929E+05  2.871585E+04  1.633338E+04  5.508163E+04  5.712757E+03 -1.055129E+02
       192  26  1.526277E+05  3.585573E+04  2.385726E+04  6.019570E+04  1.441836E+04  3.174553E+03
       192  27  1.584621E+05  6.857334E+04  4.442547E+04  6.101487E+04  2.262847E+04  7.773872E+03
       193   1 -1.554954E+04 -1.128887E+05 -1.612606E+04  1.889271E+04 -3.837873E+02 -3.528216E+03
       193   2 -4.970664E+03 -8.415516E+04 -6.794493E+03  1.157705E+04 -7.274748E+02 -1.170454E+03
       193   3  1.959475E+03 -5.663108E+04  9.128698E+01  1.684631E+04  4.451511E+02  1.187858E+03
       193   4 -3.390966E+03 -6.409497E+04 -4.136547E+03  1.733822E+04 -3.840069E+02 -2.603379E+03
       193   5  8.926771E+01 -6.360007E+04 -2.053212E+03  1.104620E+04 -7.273862E+02 -1.519083E+03
       193   6  1.419101E+02 -6.409453E+04 -1.531175E+03  1.733913E+04  4.455323E+02 -4.343629E+02
       193   7  8.767445E+03 -1.529909E+04  7.852800E+03  1.578361E+04 -3.842311E+02 -1.678469E+03
       193   8  5.149171E+03 -4.304459E+04  2.688042E+03  1.051533E+04 -7.272969E+02 -1.867724E+03
       193   9 -1.675656E+03 -7.155793E+04 -3.153631E+03  1.783195E+04  4.459109E+02 -2.056565E+03
       193  10 -1.554955E+04 -1.128887E+05 -1.612609E+04  1.889270E+04  3.953752E-10 -3.410058E-09
       193  11 -4.970665E+03 -8.415516E+04 -6.794497E+03  1.157705E+04 -5.996966E-10 -5.344464E-09
       193  12  1.959475E+03 -5.663108E+04  9.128396E+01  1.684631E+04 -2.874621E-09 -3.247001E-09
       193  13 -3.390968E+03 -6.409497E+04 -4.136560E+03  1.733822E+04  7.982857E-10  5.454526E-10
       193  14  8.926652E+01 -6.360008E+04 -2.053217E+03  1.104620E+04  4.042447E-09  5.620006E-10
       193  15  1.419098E+02 -6.409453E+04 -1.531176E+03  1.733913E+04  5.889541E-09 -6.929599E-10
       193  16  8.767444E+03 -1.529910E+04  7.852795E+03  1.578361E+04 -4.149448E-10  3.713758E-09
       193  17  5.149169E+03 -4.304460E+04  2.688035E+03  1.051533E+04 -2.960890E-10  5.679379E-09
       193  18 -1.675658E+03 -7.155793E+04 -3.153639E+03  1.783195E+04 -2.554766E-09  2.268668E-09
       193  19 -1.554954E+04 -1.128887E+05 -1.612606E+04  1.889271E+04  3.837873E+02  3.528216E+03
       193  20 -4.970664E+03 -8.415516E+04 -6.794493E+03  1.157705E+04  7.274748E+02  1.170454E+03
       193  21  1.959475E+03 -5.663108E+04  9.128698E+01  1.684631E+04 -4.451511E+02 -1.187858E+03
       193  22 -3.390966E+03 -6.409497E+04 -4.136547E+03  1.733822E+04  3.840069E+02  2.603379E+03
       193  23  8.926771E+01 -6.360007E+04 -2.053212E+03  1.104620E+04  7.273862E+02  1.519083E+03
       193  24  1.419101E+02 -6.409453E+04 -1.531175E+03  1.733913E+04 -4.455323E+02  4.343629E+02
       193  25  8.767445E+03 -1.529909E+04  7.852800E+03  1.578361E+04  3.842311E+02  1.678469E+03
       193  26  5.149171E+03 -4.304459E+04  2.688042E+03  1.051533E+04  7.272969E+02  1.867724E+03
       193  27 -1.675656E+03 -7.155793E+04 -3.153631E+03  1.783195E+04 -4.459109E+02  2.056565E+03
       194   1  7.556334E+03 -3.229457E+04  5.628041E+03  1.750401E+04  1.501732E+03  1.038829E+03
       194   2  1.464696E+04 -4.055842E+03  1.184262E+04  1.099777E+04  2.893318E+03  1.687025E+03
       194   3  2.104515E+04  2.393688E+04  1.746437E+04  1.712936E+04  4.149976E+03  2.335325E+03
       194   4 -1.895944E+02 -6.393413E+04 -1.460853E+03  1.735066E+04  1.502029E+03 -1.868731E+02
       194   5  2.653424E+01 -6.380139E+04 -1.511784E+03  1.103166E+04  2.893633E+03  5.745829E+02
       194   6 -4.694264E+02 -6.393510E+04 -2.234213E+03  1.735058E+04  4.150300E+03  1.336114E+03
       194   7 -7.935590E+03 -9.557274E+04 -8.549805E+03  1.719731E+04  1.502327E+03 -1.412513E+03
       194   8 -1.459413E+04 -1.235436E+05 -1.486641E+04  1.106554E+04  2.893948E+03 -5.377533E+02
       194   9 -2.198453E+04 -1.517999E+05 -2.193328E+04  1.757177E+04  4.150623E+03  3.370431E+02
       194  10  7.556331E+03 -3.229458E+04  5.628034E+03  1.750401E+04 -2.257432E-09  5.483148E-09
       194  11  1.464695E+04 -4.055847E+03  1.184260E+04  1.099776E+04 -2.023157E-09  5.045207E-09
       194  12  2.104513E+04  2.393687E+04  1.746433E+04  1.712936E+04 -2.269836E-09  4.023771E-09
       194  13 -1.895968E+02 -6.393413E+04 -1.460858E+03  1.735066E+04  6.392276E-09 -2.461716E-12
       194  14  2.652516E+01 -6.380139E+04 -1.511801E+03  1.103166E+04  3.191994E-09 -7.470647E-11
       194  15 -4.694454E+02 -6.393510E+04 -2.234249E+03  1.735058E+04 -6.156584E-10 -1.178632E-09
       194  16 -7.935593E+03 -9.557275E+04 -8.549813E+03  1.719731E+04 -1.680903E-09 -5.066460E-09
       194  17 -1.459414E+04 -1.235436E+05 -1.486642E+04  1.106555E+04 -1.736777E-09 -5.854983E-09
       194  18 -2.198455E+04 -1.517999E+05 -2.193331E+04  1.757177E+04 -9.423123E-10 -5.340884E-09
       194  19  7.556334E+03 -3.229457E+04  5.628041E+03  1.750401E+04 -1.501732E+03 -1.038829E+03
       194  20  1.464696E+04 -4.055842E+03  1.184262E+04  1.099777E+04 -2.893318E+03 -1.687025E+03
       194  21  2.104515E+04  2.393688E+04  1.746437E+04  1.712936E+04 -4.149976E+03 -2.335325E+03
       194  22 -1.895944E+02 -6.393413E+04 -1.460853E+03  1.735066E+04 -1.502029E+03  1.868731E+02
       194  23  2.653424E+01 -6.380139E+04 -1.511784E+03  1.103166E+04 -2.893633E+03 -5.745829E+02
       194  24 -4.694264E+02 -6.393510E+04 -2.234213E+03  1.735058E+04 -4.150300E+03 -1.336114E+03
       194  25 -7.935590E+03 -9.557274E+04 -8.549805E+03  1.719731E+04 -1.502327E+03  1.412513E+03
       194  26 -1.459413E+04 -1.235436E+05 -1.486641E+04  1.106554E+04 -2.893948E+03  5.377533E+02
       194  27 -2.198453E+04 -1.517999E+05 -2.193328E+04  1.757177E+04 -4.150623E+03 -3.370431E+02
       195   1  2.779930E+04  4.773854E+04  2.235406E+04  1.840231E+04  5.489844E+03  4.066794E+03
       195   2  3.452009E+04  7.665270E+04  2.741710E+04  9.870196E+03  6.010038E+03  2.541198E+03
       195   3  3.422323E+04  1.040316E+05  3.172300E+04  1.378919E+04  2.011889E+03  1.013728E+03
       195   4  3.748000E+02 -6.436474E+04 -2.668824E+03  1.730999E+04  5.490615E+03  1.732038E+03
       195   5  1.966483E+02 -6.326848E+04 -4.275756E+03  1.108280E+04  6.009615E+03  4.001897E+03
       195   6 -7.658835E+03 -6.436720E+04 -9.275807E+03  1.730695E+04  2.009807E+03  6.269882E+03
       195   7 -2.705054E+04 -1.764563E+05 -2.769248E+04  1.621787E+04  5.491394E+03 -6.022997E+02
       195   8 -3.412813E+04 -2.031715E+05 -3.596986E+04  1.229514E+04  6.009198E+03  5.462270E+03
       195   9 -4.954292E+04 -2.327401E+05 -5.027656E+04  2.082376E+04  2.007784E+03  1.152461E+04
       195  10  2.779926E+04  4.773851E+04  2.235398E+04  1.840229E+04 -1.624156E-09  3.622719E-09
       195  11  3.452005E+04  7.665268E+04  2.741702E+04  9.870184E+03 -2.898210E-11  3.318018E-10
       195  12  3.422322E+04  1.040316E+05  3.172299E+04  1.378919E+04 -3.255110E-10 -4.889594E-10
       195  13  3.747668E+02 -6.436475E+04 -2.668886E+03  1.730999E+04 -3.269880E-09  2.579112E-10
       195  14  1.966052E+02 -6.326851E+04 -4.275854E+03  1.108279E+04 -1.217054E-09  8.291136E-10
       195  15 -7.658850E+03 -6.436724E+04 -9.275889E+03  1.730694E+04 -8.555156E-10 -1.324718E-09
       195  16 -2.705058E+04 -1.764563E+05 -2.769254E+04  1.621788E+04 -1.089653E-09 -3.520548E-09
       195  17 -3.412818E+04 -2.031715E+05 -3.596999E+04  1.229511E+04 -5.906488E-10 -7.805878E-10
       195  18 -4.954296E+04 -2.327402E+05 -5.027682E+04  2.082374E+04 -5.491757E-10 -9.335028E-10
       195  19  2.779930E+04  4.773854E+04  2.235406E+04  1.840231E+04 -5.489844E+03 -4.066794E+03
       195  20  3.452009E+04  7.665270E+04  2.741710E+04  9.870196E+03 -6.010038E+03 -2.541198E+03
       195  21  3.422323E+04  1.040316E+05  3.172300E+04  1.378919E+04 -2.011889E+03 -1.013728E+03
       195  22  3.748000E+02 -6.436474E+04 -2.668824E+03  1.730999E+04 -5.490615E+03 -1.732038E+03
       195  23  1.966483E+02 -6.326848E+04 -4.275756E+03  1.108280E+04 -6.009615E+03 -4.001897E+03
       195  24 -7.658835E+03 -6.436720E+04 -9.275807E+03  1.730695E+04 -2.009807E+03 -6.269882E+03
       195  25 -2.705054E+04 -1.764563E+05 -2.769248E+04  1.621787E+04 -5.491394E+03  6.022997E+02
       195  26 -3.412813E+04 -2.031715E+05 -3.596986E+04  1.229514E+04 -6.009198E+03 -5.462270E+03
       195  27 -4.954292E+04 -2.327401E+05 -5.027656E+04  2.082376E+04 -2.007784E+03 -1.152461E+04
       196   1  4.522940E+04  3.168819E+04  2.866619E+04  7.383366E+03  5.335635E+03 -2.308450E+03
       196   2  3.246109E+04  3.419840E+04  2.455687E+04  9.141971E+03  1.251889E+03 -7.704431E+03
       196   3  1.917328E+04  3.249807E+04  2.205457E+04  1.358503E+04 -2.832462E+03 -9.162646E+03
       196   4 -1.199060E+05 -9.088797E+03 -1.009242E+04  1.302475E+04 -7.035413E+03 -2.311310E+03
       196   5 -1.190707E+05 -1.999167E+03 -4.900400E+03  1.168131E+04 -4.503394E+03 -7.706066E+03
       196   6 -1.199042E+05 -2.693549E+02 -2.696010E+03  1.302240E+04 -1.972153E+03 -9.162576E+03
       196   7 -2.850159E+05 -4.986752E+04 -4.885230E+04  1.866463E+04 -1.940319E+04 -2.314395E+03
       196   8 -2.705804E+05 -3.819807E+04 -3.435863E+04  1.422001E+04 -1.025730E+04 -7.707749E+03
       196   9 -2.589629E+05 -3.303784E+04 -2.744732E+04  1.245990E+04 -1.112031E+03 -9.162509E+03
       196  10  4.522937E+04  3.168818E+04  2.866613E+04  7.383376E+03  6.128912E-10 -1.825838E-10
       196  11  3.246107E+04  3.419834E+04  2.455675E+04  9.141979E+03  5.413779E-10 -7.793014E-10
       196  12  1.917325E+04  3.249797E+04  2.205440E+04  1.358501E+04  6.173818E-10 -7.073741E-10
       196  13 -1.199061E+05 -9.088816E+03 -1.009252E+04  1.302474E+04 -4.752975E-10  9.582666E-11
       196  14 -1.190708E+05 -1.999236E+03 -4.900550E+03  1.168128E+04 -9.355279E-10 -5.463645E-10
       196  15 -1.199043E+05 -2.694461E+02 -2.696175E+03  1.302239E+04  1.865177E-10 -4.284685E-10
       196  16 -2.850163E+05 -4.986763E+04 -4.885302E+04  1.866459E+04 -1.259948E-09  7.387553E-11
       196  17 -2.705806E+05 -3.819816E+04 -3.435894E+04  1.421994E+04 -2.366761E-10 -9.158722E-10
       196  18 -2.589629E+05 -3.303793E+04 -2.744748E+04  1.245989E+04 -9.558991E-10 -1.412586E-09
       196  19  4.522940E+04  3.168819E+04  2.866619E+04  7.383366E+03 -5.335635E+03  2.308450E+03
       196  20  3.246109E+04  3.419840E+04  2.455687E+04  9.141971E+03 -1.251889E+03  7.704431E+03
       196  21  1.917328E+04  3.249807E+04  2.205457E+04  1.358503E+04  2.832462E+03  9.162646E+03
       196  22 -1.199060E+05 -9.088797E+03 -1.009242E+04  1.302475E+04  7.035413E+03  2.311310E+03
       196  23 -1.190707E+05 -1.999167E+03 -4.900400E+03  1.168131E+04  4.503394E+03  7.706066E+03
       196  24 -1.199042E+05 -2.693549E+02 -2.696010E+03  1.302240E+04  1.972153E+03  9.162576E+03
       196  25 -2.850159E+05 -4.986752E+04 -4.885230E+04  1.866463E+04  1.940319E+04  2.314395E+03
       196  26 -2.705804E+05 -3.819807E+04 -3.435863E+04  1.422001E+04  1.025730E+04  7.707749E+03
       196  27 -2.589629E+05 -3.303784E+04 -2.744732E+04  1.245990E+04  1.112031E+03  9.162509E+03
       197   1  1.083991E+04  3.027372E+04  2.093618E+04  1.294563E+04 -2.032627E+03 -8.790330E+03
       197   2 -2.142850E+03  2.745159E+04  1.905490E+04  1.158957E+04 -2.057432E+03 -8.370322E+03
       197   3 -1.516760E+04  2.445153E+04  1.714514E+04  1.317550E+04 -2.082404E+03 -7.599851E+03
       197   4 -1.195650E+05 -4.065158E+02 -2.053193E+03  1.307993E+04 -1.621138E+03 -8.790369E+03
       197   5 -1.194924E+05 -5.680951E+01 -1.130108E+03  1.160884E+04 -1.057249E+03 -8.370143E+03
       197   6 -1.195640E+05  1.277613E+01 -6.443508E+02  1.307979E+04 -4.935180E+02 -7.599418E+03
       197   7 -2.499534E+05 -3.108768E+04 -2.504318E+04  1.321419E+04 -1.209734E+03 -8.790408E+03
       197   8 -2.368285E+05 -2.756595E+04 -2.131558E+04  1.162811E+04 -5.724914E+01 -8.369963E+03
       197   9 -2.239496E+05 -2.442656E+04 -1.843419E+04  1.298409E+04  1.095110E+03 -7.598987E+03
       197  10  1.083988E+04  3.027363E+04  2.093602E+04  1.294562E+04 -1.676129E-09 -4.296144E-10
       197  11 -2.142873E+03  2.745152E+04  1.905476E+04  1.158956E+04 -1.160029E-10  8.520212E-10
       197  12 -1.516762E+04  2.445147E+04  1.714502E+04  1.317549E+04 -9.465023E-11  5.731344E-10
       197  13 -1.195651E+05 -4.065994E+02 -2.053343E+03  1.307992E+04  1.559161E-10 -4.687839E-10
       197  14 -1.194924E+05 -5.688504E+01 -1.130242E+03  1.160884E+04  3.751536E-10  5.757762E-10
       197  15 -1.195640E+05  1.271406E+01 -6.444598E+02  1.307978E+04  6.692754E-10 -1.289593E-10
       197  16 -2.499534E+05 -3.108776E+04 -2.504333E+04  1.321418E+04  1.258318E-09 -3.821759E-10
       197  17 -2.368285E+05 -2.756602E+04 -2.131571E+04  1.162811E+04  2.851635E-10  5.445166E-10
       197  18 -2.239497E+05 -2.442662E+04 -1.843430E+04  1.298410E+04 -2.256041E-10  3.494132E-10
       197  19  1.083991E+04  3.027372E+04  2.093618E+04  1.294563E+04  2.032627E+03  8.790330E+03
       197  20 -2.142850E+03  2.745159E+04  1.905490E+04  1.158957E+04  2.057432E+03  8.370322E+03
       197  21 -1.516760E+04  2.445153E+04  1.714514E+04  1.317550E+04  2.082404E+03  7.599851E+03
       197  22 -1.195650E+05 -4.065158E+02 -2.053193E+03  1.307993E+04  1.621138E+03  8.790369E+03
       197  23 -1.194924E+05 -5.680951E+01 -1.130108E+03  1.160884E+04  1.057249E+03  8.370143E+03
       197  24 -1.195640E+05  1.277613E+01 -6.443508E+02  1.307979E+04  4.935180E+02  7.599418E+03
       197  25 -2.499534E+05 -3.108768E+04 -2.504318E+04  1.321419E+04  1.209734E+03  8.790408E+03
       197  26 -2.368285E+05 -2.756595E+04 -2.131558E+04  1.162811E+04  5.724914E+01  8.369963E+03
       197  27 -2.239496E+05 -2.442656E+04 -1.843419E+04  1.298409E+04 -1.095110E+03  7.598987E+03
       198   1 -2.363844E+04  2.243908E+04  1.578449E+04  1.313574E+04 -1.943739E+03 -7.042765E+03
       198   2 -3.663834E+04  1.940312E+04  1.376665E+04  1.164443E+04 -1.857850E+03 -6.104996E+03
       198   3 -4.965191E+04  1.636395E+04  1.169159E+04  1.311856E+04 -1.772032E+03 -5.135950E+03
       198   4 -1.195367E+05  3.066983E+00 -4.897111E+02  1.308502E+04 -3.946072E+02 -7.042313E+03
       198   5 -1.195249E+05  1.500119E+01 -2.801923E+02  1.160228E+04 -2.562078E+02 -6.104478E+03
       198   6 -1.195360E+05  1.460876E+01 -1.643873E+02  1.308501E+04 -1.178770E+02 -5.135364E+03
       198   7 -2.154259E+05 -2.243344E+04 -1.676420E+04  1.303430E+04  1.154293E+03 -7.041861E+03
       198   8 -2.024046E+05 -1.937348E+04 -1.432725E+04  1.156014E+04  1.345228E+03 -6.103961E+03
       198   9 -1.894153E+05 -1.633499E+04 -1.202051E+04  1.305147E+04  1.536097E+03 -5.134778E+03
       198  10 -2.363846E+04  2.243903E+04  1.578439E+04  1.313573E+04 -1.091382E-09  4.469189E-10
       198  11 -3.663836E+04  1.940308E+04  1.376657E+04  1.164442E+04  1.733354E-10  2.994373E-10
       198  12 -4.965192E+04  1.636392E+04  1.169153E+04  1.311855E+04 -1.032301E-10  1.010333E-10
       198  13 -1.195367E+05  3.013689E+00 -4.898046E+02  1.308501E+04 -8.078715E-10 -4.617130E-10
       198  14 -1.195249E+05  1.496116E+01 -2.802625E+02  1.160228E+04  3.506439E-10  5.114053E-10
       198  15 -1.195360E+05  1.458044E+01 -1.644369E+02  1.308501E+04  8.378386E-10  6.110525E-10
       198  16 -2.154259E+05 -2.243349E+04 -1.676429E+04  1.303431E+04  1.271137E-09  3.501505E-10
       198  17 -2.024046E+05 -1.937352E+04 -1.432732E+04  1.156015E+04 -1.442631E-11  6.349662E-10
       198  18 -1.894153E+05 -1.633502E+04 -1.202057E+04  1.305148E+04 -7.048842E-10 -1.650590E-10
       198  19 -2.363844E+04  2.243908E+04  1.578449E+04  1.313574E+04  1.943739E+03  7.042765E+03
       198  20 -3.663834E+04  1.940312E+04  1.376665E+04  1.164443E+04  1.857850E+03  6.104996E+03
       198  21 -4.965191E+04  1.636395E+04  1.169159E+04  1.311856E+04  1.772032E+03  5.135950E+03
       198  22 -1.195367E+05  3.066983E+00 -4.897111E+02  1.308502E+04  3.946072E+02  7.042313E+03
       198  23 -1.195249E+05  1.500119E+01 -2.801923E+02  1.160228E+04  2.562078E+02  6.104478E+03
       198  24 -1.195360E+05  1.460876E+01 -1.643873E+02  1.308501E+04  1.178770E+02  5.135364E+03
       198  25 -2.154259E+05 -2.243344E+04 -1.676420E+04  1.303430E+04 -1.154293E+03  7.041861E+03
       198  26 -2.024046E+05 -1.937348E+04 -1.432725E+04  1.156014E+04 -1.345228E+03  6.103961E+03
       198  27 -1.894153E+05 -1.633499E+04 -1.202051E+04  1.305147E+04 -1.536097E+03  5.134778E+03
       199   1 -5.813328E+04  1.436714E+04  1.023437E+04  1.311290E+04 -1.742434E+03 -4.562255E+03
       199   2 -7.114022E+04  1.132818E+04  8.103995E+03  1.162134E+04 -1.707079E+03 -3.578246E+03
       199   3 -8.415338E+04  8.291664E+03  5.950533E+03  1.309786E+04 -1.671760E+03 -2.591538E+03
       199   4 -1.195323E+05  1.368525E+01 -1.277014E+02  1.308560E+04 -9.167999E+01 -4.561648E+03
       199   5 -1.195284E+05  1.241421E+01 -8.139654E+01  1.160155E+04 -5.182337E+01 -3.577609E+03
       199   6 -1.195319E+05  1.276544E+01 -6.137097E+01  1.308560E+04 -1.200296E+01 -2.590870E+03
       199   7 -1.809276E+05 -1.433996E+04 -1.048988E+04  1.305830E+04  1.558916E+03 -4.561041E+03
       199   8 -1.679143E+05 -1.130347E+04 -8.266853E+03  1.158177E+04  1.603307E+03 -3.576971E+03
       199   9 -1.549092E+05 -8.266198E+03 -6.073306E+03  1.307334E+04  1.647663E+03 -2.590202E+03
       199  10 -5.813328E+04  1.436711E+04  1.023433E+04  1.311289E+04  7.063827E-10  3.699102E-10
       199  11 -7.114023E+04  1.132816E+04  8.103965E+03  1.162133E+04 -8.183794E-10  1.368812E-09
       199  12 -8.415339E+04  8.291656E+03  5.950515E+03  1.309785E+04 -7.091119E-10  1.219408E-09
       199  13 -1.195323E+05  1.366291E+01 -1.277405E+02  1.308560E+04  2.059612E-10 -3.448291E-11
       199  14 -1.195284E+05  1.240047E+01 -8.142060E+01  1.160155E+04 -1.367921E-09  1.013820E-09
       199  15 -1.195319E+05  1.275824E+01 -6.138358E+01  1.308560E+04 -1.185484E-09  1.041406E-10
       199  16 -1.809276E+05 -1.433999E+04 -1.048993E+04  1.305830E+04 -2.583575E-10 -4.315603E-10
       199  17 -1.679143E+05 -1.130348E+04 -8.266882E+03  1.158177E+04  7.199239E-10 -2.959269E-10
       199  18 -1.549092E+05 -8.266206E+03 -6.073323E+03  1.307334E+04  1.892156E-10 -2.729956E-10
       199  19 -5.813328E+04  1.436714E+04  1.023437E+04  1.311290E+04  1.742434E+03  4.562255E+03
       199  20 -7.114022E+04  1.132818E+04  8.103995E+03  1.162134E+04  1.707079E+03  3.578246E+03
       199  21 -8.415338E+04  8.291664E+03  5.950533E+03  1.309786E+04  1.671760E+03  2.591538E+03
       199  22 -1.195323E+05  1.368525E+01 -1.277014E+02  1.308560E+04  9.167999E+01  4.561648E+03
       199  23 -1.195284E+05  1.241421E+01 -8.139654E+01  1.160155E+04  5.182337E+01  3.577609E+03
       199  24 -1.195319E+05  1.276544E+01 -6.137097E+01  1.308560E+04  1.200296E+01  2.590870E+03
       199  25 -1.809276E+05 -1.433996E+04 -1.048988E+04  1.305830E+04 -1.558916E+03  4.561041E+03
       199  26 -1.679143E+05 -1.130347E+04 -8.266853E+03  1.158177E+04 -1.603307E+03  3.576971E+03
       199  27 -1.549092E+05 -8.266198E+03 -6.073306E+03  1.307334E+04 -1.647663E+03  2.590202E+03
       200   1 -9.263872E+04  6.295955E+03  4.460676E+03  1.309437E+04 -1.660999E+03 -2.016329E+03
       200   2 -1.056467E+05  3.258420E+03  2.278878E+03  1.160260E+04 -1.625692E+03 -1.029025E+03
       200   3 -1.186618E+05  2.222339E+02  7.355224E+01  1.307971E+04 -1.590394E+03 -4.320966E+01
       200   4 -1.195316E+05  1.283576E+01 -5.875888E+01  1.308577E+04 -1.302967E+00 -2.015650E+03
       200   5 -1.195282E+05  1.254454E+01 -6.719700E+01  1.160133E+04  3.149816E+01 -1.028339E+03
       200   6 -1.195315E+05  1.409539E+01 -9.737016E+01  1.308577E+04  6.429041E+01 -4.251644E+01
       200   7 -1.464238E+05 -6.270320E+03 -4.578206E+03  1.307718E+04  1.658324E+03 -2.014971E+03
       200   8 -1.334096E+05 -3.233340E+03 -2.413268E+03  1.160006E+04  1.688652E+03 -1.027653E+03
       200   9 -1.204012E+05 -1.940417E+02 -2.682823E+02  1.309184E+04  1.718972E+03 -4.182317E+01
       200  10 -9.263873E+04  6.295950E+03  4.460663E+03  1.309436E+04  1.326820E-09  6.928371E-10
       200  11 -1.056467E+05  3.258418E+03  2.278871E+03  1.160260E+04  1.282762E-11  4.967522E-10
       200  12 -1.186618E+05  2.222333E+02  7.354748E+01  1.307971E+04 -7.085648E-10 -5.086532E-10
       200  13 -1.195316E+05  1.283140E+01 -5.876651E+01  1.308577E+04  1.243638E-10  1.310687E-09
       200  14 -1.195282E+05  1.254340E+01 -6.719899E+01  1.160133E+04 -2.577656E-10  4.037076E-10
       200  15 -1.195315E+05  1.409538E+01 -9.737017E+01  1.308577E+04 -9.228267E-10 -3.015019E-10
       200  16 -1.464238E+05 -6.270325E+03 -4.578219E+03  1.307718E+04 -6.560204E-10  2.727615E-10
       200  17 -1.334096E+05 -3.233341E+03 -2.413275E+03  1.160007E+04 -1.135661E-09 -2.156285E-10
       200  18 -1.204012E+05 -1.940425E+02 -2.682879E+02  1.309184E+04  1.188415E-09  3.452477E-11
       200  19 -9.263872E+04  6.295955E+03  4.460676E+03  1.309437E+04  1.660999E+03  2.016329E+03
       200  20 -1.056467E+05  3.258420E+03  2.278878E+03  1.160260E+04  1.625692E+03  1.029025E+03
       200  21 -1.186618E+05  2.222339E+02  7.355224E+01  1.307971E+04  1.590394E+03  4.320966E+01
       200  22 -1.195316E+05  1.283576E+01 -5.875888E+01  1.308577E+04  1.302967E+00  2.015650E+03
       200  23 -1.195282E+05  1.254454E+01 -6.719700E+01  1.160133E+04 -3.149816E+01  1.028339E+03
       200  24 -1.195315E+05  1.409539E+01 -9.737016E+01  1.308577E+04 -6.429041E+01  4.251644E+01
       200  25 -1.464238E+05 -6.270320E+03 -4.578206E+03  1.307718E+04 -1.658324E+03  2.014971E+03
       200  26 -1.334096E+05 -3.233340E+03 -2.413268E+03  1.160006E+04 -1.688652E+03  1.027653E+03
       200  27 -1.204012E+05 -1.940417E+02 -2.682823E+02  1.309184E+04 -1.718972E+03  4.182317E+01
       201   1 -1.271507E+05 -1.773153E+03 -1.445553E+03  1.307369E+04 -1.572913E+03  5.312523E+02
       201   2 -1.401502E+05 -4.811864E+03 -3.712582E+03  1.158150E+04 -1.438531E+03  1.507856E+03
       201   3 -1.531733E+05 -7.864561E+03 -6.071437E+03  1.305685E+04 -1.304128E+03  2.464750E+03
       201   4 -1.195341E+05  1.493442E+01 -1.229008E+02  1.308547E+04  8.396762E+01  5.319453E+02
       201   5 -1.195251E+05  1.521091E+01 -2.054184E+02  1.160171E+04  1.852322E+02  1.508523E+03
       201   6 -1.195343E+05  7.258677E+00 -3.567630E+02  1.308548E+04  2.865189E+02  2.465392E+03
       201   7 -1.119174E+05  1.803020E+03  1.199760E+03  1.309725E+04  1.740868E+03  5.326383E+02
       201   8 -9.889962E+04  4.842265E+03  3.301741E+03  1.162191E+04  1.809047E+03  1.509190E+03
       201   9 -8.589409E+04  7.879020E+03  5.357884E+03  1.311411E+04  1.877250E+03  2.466034E+03
       201  10 -1.271507E+05 -1.773154E+03 -1.445558E+03  1.307369E+04 -1.507386E-09  3.481707E-10
       201  11 -1.401502E+05 -4.811867E+03 -3.712590E+03  1.158150E+04 -7.849168E-10  5.261043E-10
       201  12 -1.531733E+05 -7.864568E+03 -6.071452E+03  1.305685E+04 -2.569149E-09  4.536418E-10
       201  13 -1.195341E+05  1.493412E+01 -1.229013E+02  1.308547E+04 -3.333711E-10  5.737565E-11
       201  14 -1.195251E+05  1.520845E+01 -2.054228E+02  1.160171E+04  5.959457E-10  4.668101E-10
       201  15 -1.195343E+05  7.252128E+00 -3.567746E+02  1.308548E+04 -5.210991E-10  4.481110E-10
       201  16 -1.119174E+05  1.803019E+03  1.199754E+03  1.309725E+04  1.608224E-09  8.968054E-10
       201  17 -9.889962E+04  4.842261E+03  3.301731E+03  1.162191E+04  1.018893E-09 -8.102192E-10
       201  18 -8.589410E+04  7.879013E+03  5.357866E+03  1.311410E+04  1.565734E-09  2.540260E-10
       201  19 -1.271507E+05 -1.773153E+03 -1.445553E+03  1.307369E+04  1.572913E+03 -5.312523E+02
       201  20 -1.401502E+05 -4.811864E+03 -3.712582E+03  1.158150E+04  1.438531E+03 -1.507856E+03
       201  21 -1.531733E+05 -7.864561E+03 -6.071437E+03  1.305685E+04  1.304128E+03 -2.464750E+03
       201  22 -1.195341E+05  1.493442E+01 -1.229008E+02  1.308547E+04 -8.396762E+01 -5.319453E+02
       201  23 -1.195251E+05  1.521091E+01 -2.054184E+02  1.160171E+04 -1.852322E+02 -1.508523E+03
       201  24 -1.195343E+05  7.258677E+00 -3.567630E+02  1.308548E+04 -2.865189E+02 -2.465392E+03
       201  25 -1.119174E+05  1.803020E+03  1.199760E+03  1.309725E+04 -1.740868E+03 -5.326383E+02
       201  26 -9.889962E+04  4.842265E+03  3.301741E+03  1.162191E+04 -1.809047E+03 -1.509190E+03
       201  27 -8.589409E+04  7.879020E+03  5.357884E+03  1.311411E+04 -1.877250E+03 -2.466034E+03
       202   1 -1.616884E+05 -9.858225E+03 -7.690786E+03  1.301945E+04 -1.257389E+03  3.028811E+03
       202   2 -1.746135E+05 -1.296773E+04 -1.035724E+04  1.162394E+04 -4.758996E+02  3.880334E+03
       202   3 -1.877093E+05 -1.634454E+04 -1.360005E+04  1.318142E+04  3.056761E+02  4.510326E+03
       202   4 -1.195540E+05  1.445804E+01 -4.688050E+02  1.308222E+04  3.584211E+02  3.029450E+03
       202   5 -1.195010E+05 -3.617916E+01 -8.211144E+02  1.160579E+04  7.678270E+02  3.880796E+03
       202   6 -1.195545E+05 -2.895327E+02 -1.491378E+03  1.308234E+04  1.177341E+03  4.510619E+03
       202   7 -7.741791E+04  9.887048E+03  6.753126E+03  1.314499E+04  1.974337E+03  3.030089E+03
       202   8 -6.438561E+04  1.289521E+04  8.714911E+03  1.158765E+04  2.011661E+03  3.881257E+03
       202   9 -5.139518E+04  1.576522E+04  1.061713E+04  1.298325E+04  2.049098E+03  4.510912E+03
       202  10 -1.616884E+05 -9.858236E+03 -7.690806E+03  1.301945E+04 -1.329570E-08  1.265254E-09
       202  11 -1.746135E+05 -1.296775E+04 -1.035727E+04  1.162394E+04  1.907856E-09  1.682496E-09
       202  12 -1.877093E+05 -1.634456E+04 -1.360009E+04  1.318142E+04  1.659315E-08  3.789524E-09
       202  13 -1.195540E+05  1.444815E+01 -4.688225E+02  1.308222E+04 -3.374176E-10 -3.253927E-10
       202  14 -1.195010E+05 -3.619549E+01 -8.211438E+02  1.160579E+04 -4.718486E-10 -2.713960E-09
       202  15 -1.195545E+05 -2.895549E+02 -1.491419E+03  1.308234E+04  3.060494E-11 -5.269327E-09
       202  16 -7.741791E+04  9.887037E+03  6.753101E+03  1.314499E+04  1.236077E-08  9.332289E-10
       202  17 -6.438562E+04  1.289520E+04  8.714876E+03  1.158764E+04 -3.035602E-09  1.826049E-09
       202  18 -5.139519E+04  1.576520E+04  1.061708E+04  1.298325E+04 -1.673296E-08  2.744566E-09
       202  19 -1.616884E+05 -9.858225E+03 -7.690786E+03  1.301945E+04  1.257389E+03 -3.028811E+03
       202  20 -1.746135E+05 -1.296773E+04 -1.035724E+04  1.162394E+04  4.758996E+02 -3.880334E+03
       202  21 -1.877093E+05 -1.634454E+04 -1.360005E+04  1.318142E+04 -3.056761E+02 -4.510326E+03
       202  22 -1.195540E+05  1.445804E+01 -4.688050E+02  1.308222E+04 -3.584211E+02 -3.029450E+03
       202  23 -1.195010E+05 -3.617916E+01 -8.211144E+02  1.160579E+04 -7.678270E+02 -3.880796E+03
       202  24 -1.195545E+05 -2.895327E+02 -1.491378E+03  1.308234E+04 -1.177341E+03 -4.510619E+03
       202  25 -7.741791E+04  9.887048E+03  6.753126E+03  1.314499E+04 -1.974337E+03 -3.030089E+03
       202  26 -6.438561E+04  1.289521E+04  8.714911E+03  1.158765E+04 -2.011661E+03 -3.881257E+03
       202  27 -5.139518E+04  1.576522E+04  1.061713E+04  1.298325E+04 -2.049098E+03 -4.510912E+03
       203   1 -1.965615E+05 -1.829940E+04 -1.572979E+04  1.263722E+04  2.768699E+02  4.957488E+03
       203   2 -2.086185E+05 -2.284253E+04 -2.110582E+04  1.349291E+04  6.296148E+03  4.402749E+03
       203   3 -2.226159E+05 -3.200472E+04 -3.155647E+04  1.713949E+04  1.231615E+04  1.358423E+03
       203   4 -1.198009E+05 -1.897953E+02 -1.958176E+03  1.304601E+04  1.432203E+03  4.957872E+03
       203   5 -1.191944E+05 -1.446544E+03 -3.558909E+03  1.165172E+04  3.270280E+03  4.401584E+03
       203   6 -1.198020E+05 -6.595899E+03 -7.329783E+03  1.304833E+04  5.109170E+03  1.355830E+03
       203   7 -4.303449E+04  1.791948E+04  1.181322E+04  1.345484E+04  2.587675E+03  4.958258E+03
       203   8 -2.976263E+04  1.994898E+04  1.398766E+04  9.810259E+03  2.439855E+02  4.400438E+03
       203   9 -1.697821E+04  1.881226E+04  1.689637E+04  8.956485E+03 -2.098997E+03  1.353333E+03
       203  10 -1.965615E+05 -1.829943E+04 -1.572984E+04  1.263722E+04 -1.888407E-08  3.783838E-09
       203  11 -2.086185E+05 -2.284256E+04 -2.110594E+04  1.349289E+04 -4.466589E-09  2.176998E-09
       203  12 -2.226160E+05 -3.200476E+04 -3.155675E+04  1.713947E+04  1.087012E-08  6.556808E-10
       203  13 -1.198009E+05 -1.898223E+02 -1.958226E+03  1.304600E+04 -4.311878E-10 -4.655292E-09
       203  14 -1.191944E+05 -1.446568E+03 -3.558965E+03  1.165171E+04 -3.687884E-10 -3.637687E-09
       203  15 -1.198020E+05 -6.595908E+03 -7.329836E+03  1.304832E+04 -1.201537E-10 -1.783121E-10
       203  16 -4.303451E+04  1.791945E+04  1.181316E+04  1.345483E+04  1.842817E-08  3.861258E-09
       203  17 -2.976263E+04  1.994896E+04  1.398762E+04  9.810258E+03  2.511071E-09  2.261889E-09
       203  18 -1.697821E+04  1.881226E+04  1.689636E+04  8.956488E+03 -1.061440E-08  4.857373E-10
       203  19 -1.965615E+05 -1.829940E+04 -1.572979E+04  1.263722E+04 -2.768699E+02 -4.957488E+03
       203  20 -2.086185E+05 -2.284253E+04 -2.110582E+04  1.349291E+04 -6.296148E+03 -4.402749E+03
       203  21 -2.226159E+05 -3.200472E+04 -3.155647E+04  1.713949E+04 -1.231615E+04 -1.358423E+03
       203  22 -1.198009E+05 -1.897953E+02 -1.958176E+03  1.304601E+04 -1.432203E+03 -4.957872E+03
       203  23 -1.191944E+05 -1.446544E+03 -3.558909E+03  1.165172E+04 -3.270280E+03 -4.401584E+03
       203  24 -1.198020E+05 -6.595899E+03 -7.329783E+03  1.304833E+04 -5.109170E+03 -1.355830E+03
       203  25 -4.303449E+04  1.791948E+04  1.181322E+04  1.345484E+04 -2.587675E+03 -4.958258E+03
       203  26 -2.976263E+04  1.994898E+04  1.398766E+04  9.810259E+03 -2.439855E+02 -4.400438E+03
       203  27 -1.697821E+04  1.881226E+04  1.689637E+04  8.956485E+03  2.098997E+03 -1.353333E+03
       204   1 -1.762636E+04  2.072805E+04  1.809404E+04  1.578623E+03 -2.799557E+03 -1.626946E+03
       204   2 -2.603109E+04  2.713657E+04  1.954951E+04  2.765839E+03 -3.133021E+03 -5.163714E+03
       204   3 -3.643311E+04  2.537822E+04  1.918143E+04  7.500674E+03 -3.467537E+03 -5.522647E+03
       204   4 -1.389353E+05 -9.394649E+03 -1.121869E+04  6.147651E+03 -7.718960E+03 -1.628665E+03
       204   5 -1.376709E+05 -1.289798E+02 -5.136029E+03  4.371999E+03 -5.002139E+03 -5.164491E+03
       204   6 -1.389340E+05  4.393711E+02 -2.995769E+03  6.144025E+03 -2.286359E+03 -5.522221E+03
       204   7 -2.602307E+05 -3.951834E+04 -4.053237E+04  1.071578E+04 -1.263740E+04 -1.630456E+03
       204   8 -2.492991E+05 -2.739536E+04 -2.982232E+04  5.977866E+03 -6.870924E+03 -5.165277E+03
       204   9 -2.414251E+05 -2.450017E+04 -2.517359E+04  4.787603E+03 -1.105374E+03 -5.521800E+03
       204  10 -1.762637E+04  2.072805E+04  1.809402E+04  1.578620E+03 -1.738830E-09  5.086067E-10
       204  11 -2.603111E+04  2.713654E+04  1.954944E+04  2.765826E+03 -1.643134E-09  2.432296E-09
       204  12 -3.643313E+04  2.537819E+04  1.918135E+04  7.500658E+03 -3.062102E-09  2.165400E-09
       204  13 -1.389354E+05 -9.394668E+03 -1.121880E+04  6.147641E+03 -6.174638E-10 -9.560716E-11
       204  14 -1.376710E+05 -1.290151E+02 -5.136126E+03  4.371978E+03  4.973069E-11  4.710345E-10
       204  15 -1.389340E+05  4.393370E+02 -2.995836E+03  6.144015E+03 -4.892776E-10  2.349763E-09
       204  16 -2.602309E+05 -3.951838E+04 -4.053267E+04  1.071577E+04  1.838245E-09  2.336123E-10
       204  17 -2.492992E+05 -2.739540E+04 -2.982246E+04  5.977837E+03  1.420062E-09  2.666575E-09
       204  18 -2.414251E+05 -2.450020E+04 -2.517364E+04  4.787598E+03  3.218082E-09  2.594898E-09
       204  19 -1.762636E+04  2.072805E+04  1.809404E+04  1.578623E+03  2.799557E+03  1.626946E+03
       204  20 -2.603109E+04  2.713657E+04  1.954951E+04  2.765839E+03  3.133021E+03  5.163714E+03
       204  21 -3.643311E+04  2.537822E+04  1.918143E+04  7.500674E+03  3.467537E+03  5.522647E+03
       204  22 -1.389353E+05 -9.394649E+03 -1.121869E+04  6.147651E+03  7.718960E+03  1.628665E+03
       204  23 -1.376709E+05 -1.289798E+02 -5.136029E+03  4.371999E+03  5.002139E+03  5.164491E+03
       204  24 -1.389340E+05  4.393711E+02 -2.995769E+03  6.144025E+03  2.286359E+03  5.522221E+03
       204  25 -2.602307E+05 -3.951834E+04 -4.053237E+04  1.071578E+04  1.263740E+04  1.630456E+03
       204  26 -2.492991E+05 -2.739536E+04 -2.982232E+04  5.977866E+03  6.870924E+03  5.165277E+03
       204  27 -2.414251E+05 -2.450017E+04 -2.517359E+04  4.787603E+03  1.105374E+03  5.521800E+03
       205   1 -4.344507E+04  2.265039E+04  1.827742E+04  6.043080E+03 -2.145523E+03 -4.950865E+03
       205   2 -5.274659E+04  2.083324E+04  1.723698E+04  4.322692E+03 -1.636983E+03 -4.586916E+03
       205   3 -6.222678E+04  1.857273E+04  1.575426E+04  6.298431E+03 -1.128572E+03 -4.078437E+03
       205   4 -1.384173E+05 -4.760823E+02 -2.374232E+03  6.178061E+03 -1.865534E+03 -4.950801E+03
       205   5 -1.383155E+05  1.209655E+01 -1.291109E+03  4.329864E+03 -1.218344E+03 -4.586772E+03
       205   6 -1.384167E+05  3.277229E+01 -7.466554E+02  6.177830E+03 -5.712769E+02 -4.078204E+03
       205   7 -2.333810E+05 -2.360315E+04 -2.302643E+04  6.313021E+03 -1.585588E+03 -4.950737E+03
       205   8 -2.238775E+05 -2.080953E+04 -1.981964E+04  4.337035E+03 -7.997614E+02 -4.586629E+03
       205   9 -2.146012E+05 -1.850757E+04 -1.724792E+04  6.057242E+03 -1.404951E+01 -4.077971E+03
       205  10 -4.344508E+04  2.265036E+04  1.827737E+04  6.043071E+03 -2.276649E-09  1.105233E-09
       205  11 -5.274660E+04  2.083321E+04  1.723694E+04  4.322686E+03 -1.227954E-08  1.336607E-09
       205  12 -6.222678E+04  1.857271E+04  1.575423E+04  6.298428E+03 -1.858898E-08  1.390885E-09
       205  13 -1.384173E+05 -4.761096E+02 -2.374285E+03  6.178054E+03 -8.584326E-10  2.252745E-09
       205  14 -1.383155E+05  1.207357E+01 -1.291151E+03  4.329860E+03  5.790144E-11 -7.101394E-09
       205  15 -1.384167E+05  3.275435E+01 -7.466872E+02  6.177828E+03 -7.529167E-10 -7.341644E-09
       205  16 -2.333810E+05 -2.360318E+04 -2.302648E+04  6.313014E+03  3.166648E-09  1.256973E-09
       205  17 -2.238775E+05 -2.080955E+04 -1.981968E+04  4.337032E+03  1.211230E-08  4.950464E-10
       205  18 -2.146012E+05 -1.850758E+04 -1.724795E+04  6.057242E+03  1.779082E-08  6.743675E-10
       205  19 -4.344507E+04  2.265039E+04  1.827742E+04  6.043080E+03  2.145523E+03  4.950865E+03
       205  20 -5.274659E+04  2.083324E+04  1.723698E+04  4.322692E+03  1.636983E+03  4.586916E+03
       205  21 -6.222678E+04  1.857273E+04  1.575426E+04  6.298431E+03  1.128572E+03  4.078437E+03
       205  22 -1.384173E+05 -4.760823E+02 -2.374232E+03  6.178061E+03  1.865534E+03  4.950801E+03
       205  23 -1.383155E+05  1.209655E+01 -1.291109E+03  4.329864E+03  1.218344E+03  4.586772E+03
       205  24 -1.384167E+05  3.277229E+01 -7.466554E+02  6.177830E+03  5.712769E+02  4.078204E+03
       205  25 -2.333810E+05 -2.360315E+04 -2.302643E+04  6.313021E+03  1.585588E+03  4.950737E+03
       205  26 -2.238775E+05 -2.080953E+04 -1.981964E+04  4.337035E+03  7.997614E+02  4.586629E+03
       205  27 -2.146012E+05 -1.850757E+04 -1.724792E+04  6.057242E+03  1.404951E+01  4.077971E+03
       206   1 -6.965544E+04  1.670013E+04  1.426732E+04  6.217679E+03 -9.716906E+02 -3.747002E+03
       206   2 -7.904391E+04  1.443944E+04  1.249649E+04  4.359420E+03 -8.139790E+02 -3.205369E+03
       206   3 -8.846189E+04  1.215752E+04  1.061678E+04  6.210494E+03 -6.563104E+02 -2.656962E+03
       206   4 -1.383782E+05 -1.421924E+01 -5.737537E+02  6.180828E+03 -4.550617E+02 -3.746775E+03
       206   5 -1.383627E+05  8.560423E+00 -3.318962E+02  4.326145E+03 -2.908640E+02 -3.205122E+03
       206   6 -1.383778E+05  9.033531E+00 -2.033873E+02  6.180816E+03 -1.267068E+02 -2.656694E+03
       206   7 -2.070964E+05 -1.672888E+04 -1.541510E+04  6.143981E+03  6.151073E+01 -3.746549E+03
       206   8 -1.976782E+05 -1.442255E+04 -1.316049E+04  4.292872E+03  2.322017E+02 -3.204875E+03
       206   9 -1.882914E+05 -1.213962E+04 -1.102370E+04  6.151139E+03  4.028548E+02 -2.656426E+03
       206  10 -6.965544E+04  1.670011E+04  1.426729E+04  6.217676E+03  1.928278E-08 -2.089326E-10
       206  11 -7.904392E+04  1.443942E+04  1.249647E+04  4.359418E+03  1.264584E-08  5.667254E-10
       206  12 -8.846189E+04  1.215752E+04  1.061677E+04  6.210493E+03  6.616513E-10  1.707914E-09
       206  13 -1.383782E+05 -1.423437E+01 -5.737805E+02  6.180826E+03 -2.700832E-10 -8.617501E-09
       206  14 -1.383627E+05  8.549370E+00 -3.319156E+02  4.326144E+03  4.523884E-11 -4.972302E-09
       206  15 -1.383778E+05  9.025949E+00 -2.034006E+02  6.180815E+03 -4.515546E-11  5.433581E-10
       206  16 -2.070965E+05 -1.672889E+04 -1.541513E+04  6.143981E+03 -1.959909E-08 -6.323436E-10
       206  17 -1.976782E+05 -1.442256E+04 -1.316051E+04  4.292873E+03 -1.337527E-08  1.306825E-09
       206  18 -1.882914E+05 -1.213963E+04 -1.102371E+04  6.151140E+03 -1.555978E-09  3.135075E-09
       206  19 -6.965544E+04  1.670013E+04  1.426732E+04  6.217679E+03  9.716906E+02  3.747002E+03
       206  20 -7.904391E+04  1.443944E+04  1.249649E+04  4.359420E+03  8.139790E+02  3.205369E+03
       206  21 -8.846189E+04  1.215752E+04  1.061678E+04  6.210494E+03  6.563104E+02  2.656962E+03
       206  22 -1.383782E+05 -1.421924E+01 -5.737537E+02  6.180828E+03  4.550617E+02  3.746775E+03
       206  23 -1.383627E+05  8.560423E+00 -3.318962E+02  4.326145E+03  2.908640E+02  3.205122E+03
       206  24 -1.383778E+05  9.033531E+00 -2.033873E+02  6.180816E+03  1.267068E+02  2.656694E+03
       206  25 -2.070964E+05 -1.672888E+04 -1.541510E+04  6.143981E+03 -6.151073E+01  3.746549E+03
       206  26 -1.976782E+05 -1.442255E+04 -1.316049E+04  4.292872E+03 -2.322017E+02  3.204875E+03
       206  27 -1.882914E+05 -1.213962E+04 -1.102370E+04  6.151139E+03 -4.028548E+02  2.656426E+03
       207   1 -9.593047E+04  1.032722E+04  8.987183E+03  6.203603E+03 -6.215065E+02 -2.336092E+03
       207   2 -1.053367E+05  8.042168E+03  7.018991E+03  4.340461E+03 -5.609968E+02 -1.785883E+03
       207   3 -1.147549E+05  5.759314E+03  5.010824E+03  6.190082E+03 -5.005103E+02 -1.235259E+03
       207   4 -1.383736E+05  7.027365E+00 -1.651233E+02  6.181580E+03 -9.359641E+01 -2.335817E+03
       207   5 -1.383674E+05  6.561514E+00 -1.238210E+02  4.325192E+03 -3.269477E+01 -1.785598E+03
       207   6 -1.383734E+05  8.233054E+00 -1.227653E+02  6.181579E+03  2.818441E+01 -1.234964E+03
       207   7 -1.808150E+05 -1.031329E+04 -9.317535E+03  6.159558E+03  4.342781E+02 -2.335542E+03
       207   8 -1.713971E+05 -8.029117E+03 -7.266697E+03  4.309923E+03  4.955795E+02 -1.785313E+03
       207   9 -1.619913E+05 -5.742885E+03 -5.256387E+03  6.173077E+03  5.568593E+02 -1.234669E+03
       207  10 -9.593047E+04  1.032722E+04  8.987172E+03  6.203602E+03  2.898572E-09  1.871313E-10
       207  11 -1.053367E+05  8.042165E+03  7.018985E+03  4.340460E+03  2.976326E-10  5.956232E-10
       207  12 -1.147549E+05  5.759312E+03  5.010821E+03  6.190082E+03 -2.763297E-09  1.322655E-10
       207  13 -1.383736E+05  7.021504E+00 -1.651336E+02  6.181580E+03 -8.222378E-10  1.922716E-09
       207  14 -1.383674E+05  6.558090E+00 -1.238270E+02  4.325192E+03  6.131066E-10 -1.268848E-09
       207  15 -1.383734E+05  8.231416E+00 -1.227681E+02  6.181579E+03 -1.196970E-10 -4.374526E-10
       207  16 -1.808150E+05 -1.031329E+04 -9.317545E+03  6.159559E+03 -3.734574E-09  2.062757E-09
       207  17 -1.713971E+05 -8.029121E+03 -7.266703E+03  4.309924E+03  6.664441E-11  2.412993E-09
       207  18 -1.619913E+05 -5.742886E+03 -5.256391E+03  6.173077E+03  2.368978E-09  1.189777E-09
       207  19 -9.593047E+04  1.032722E+04  8.987183E+03  6.203603E+03  6.215065E+02  2.336092E+03
       207  20 -1.053367E+05  8.042168E+03  7.018991E+03  4.340461E+03  5.609968E+02  1.785883E+03
       207  21 -1.147549E+05  5.759314E+03  5.010824E+03  6.190082E+03  5.005103E+02  1.235259E+03
       207  22 -1.383736E+05  7.027365E+00 -1.651233E+02  6.181580E+03  9.359641E+01  2.335817E+03
       207  23 -1.383674E+05  6.561514E+00 -1.238210E+02  4.325192E+03  3.269477E+01  1.785598E+03
       207  24 -1.383734E+05  8.233054E+00 -1.227653E+02  6.181579E+03 -2.818441E+01  1.234964E+03
       207  25 -1.808150E+05 -1.031329E+04 -9.317535E+03  6.159558E+03 -4.342781E+02  2.335542E+03
       207  26 -1.713971E+05 -8.029117E+03 -7.266697E+03  4.309923E+03 -4.955795E+02  1.785313E+03
       207  27 -1.619913E+05 -5.742885E+03 -5.256387E+03  6.173077E+03 -5.568593E+02  1.234669E+03
       208   1 -1.222336E+05  3.929751E+03  3.328006E+03  6.186115E+03 -4.772356E+02 -9.146485E+02
       208   2 -1.316408E+05  1.644088E+03  1.257353E+03  4.320249E+03 -3.800854E+02 -3.638247E+02
       208   3 -1.410655E+05 -6.411654E+02 -8.776725E+02  6.168613E+03 -2.829426E+02  1.868395E+02
       208   4 -1.383746E+05  8.229297E+00 -1.363272E+02  6.181903E+03  5.150311E+01 -9.143496E+02
       208   5 -1.383657E+05  8.076584E+00 -1.968610E+02  4.324787E+03  1.484916E+02 -3.635241E+02
       208   6 -1.383745E+05  8.331083E+00 -3.216914E+02  6.181903E+03  2.454741E+02  1.871422E+02
       208   7 -1.545152E+05 -3.913309E+03 -3.600674E+03  6.177690E+03  5.802282E+02 -9.140507E+02
       208   8 -1.450905E+05 -1.627937E+03 -1.651077E+03  4.329325E+03  6.770629E+02 -3.632234E+02
       208   9 -1.356835E+05  6.578272E+02  2.342905E+02  6.195193E+03  7.738931E+02  1.874449E+02
       208  10 -1.222336E+05  3.929750E+03  3.328004E+03  6.186115E+03  1.958262E-10  6.114203E-10
       208  11 -1.316408E+05  1.644088E+03  1.257353E+03  4.320249E+03  1.829329E-10 -2.667527E-10
       208  12 -1.410655E+05 -6.411654E+02 -8.776728E+02  6.168613E+03 -5.835741E-10 -7.446589E-10
       208  13 -1.383746E+05  8.228399E+00 -1.363288E+02  6.181903E+03  1.397629E-10  1.098861E-09
       208  14 -1.383657E+05  8.076436E+00 -1.968612E+02  4.324787E+03 -1.376074E-09  1.785501E-10
       208  15 -1.383745E+05  8.331029E+00 -3.216915E+02  6.181903E+03 -1.636414E-10 -8.929641E-10
       208  16 -1.545152E+05 -3.913310E+03 -3.600676E+03  6.177691E+03  1.712304E-10  5.527350E-10
       208  17 -1.450905E+05 -1.627938E+03 -1.651078E+03  4.329325E+03  7.438618E-10 -1.688653E-09
       208  18 -1.356835E+05  6.578270E+02  2.342893E+02  6.195193E+03  4.797701E-10 -1.203607E-09
       208  19 -1.222336E+05  3.929751E+03  3.328006E+03  6.186115E+03  4.772356E+02  9.146485E+02
       208  20 -1.316408E+05  1.644088E+03  1.257353E+03  4.320249E+03  3.800854E+02  3.638247E+02
       208  21 -1.410655E+05 -6.411654E+02 -8.776725E+02  6.168613E+03  2.829426E+02 -1.868395E+02
       208  22 -1.383746E+05  8.229297E+00 -1.363272E+02  6.181903E+03 -5.150311E+01  9.143496E+02
       208  23 -1.383657E+05  8.076584E+00 -1.968610E+02  4.324787E+03 -1.484916E+02  3.635241E+02
       208  24 -1.383745E+05  8.331083E+00 -3.216914E+02  6.181903E+03 -2.454741E+02 -1.871422E+02
       208  25 -1.545152E+05 -3.913309E+03 -3.600674E+03  6.177690E+03 -5.802282E+02  9.140507E+02
       208  26 -1.450905E+05 -1.627937E+03 -1.651077E+03  4.329325E+03 -6.770629E+02  3.632234E+02
       208  27 -1.356835E+05  6.578272E+02  2.342905E+02  6.195193E+03 -7.738931E+02 -1.874449E+02
       209   1 -1.485547E+05 -2.466585E+03 -2.642906E+03  6.154611E+03 -2.176386E+02  5.078420E+02
       209   2 -1.579365E+05 -4.749433E+03 -4.952656E+03  4.292725E+03  1.415960E+02  1.057600E+03
       209   3 -1.673839E+05 -7.087054E+03 -7.511262E+03  6.144278E+03  5.008459E+02  1.602811E+03
       209   4 -1.383850E+05  1.278316E+01 -4.175491E+02  6.181716E+03  3.120180E+02  5.081442E+02
       209   5 -1.383527E+05  1.518234E+01 -7.168289E+02  4.325014E+03  6.668999E+02  1.057893E+03
       209   6 -1.383851E+05 -3.639039E+01 -1.261893E+03  6.181745E+03  1.021803E+03  1.603097E+03
       209   7 -1.282152E+05  2.492144E+03  1.807802E+03  6.208821E+03  8.416832E+02  5.084464E+02
       209   8 -1.187685E+05  4.779773E+03  3.518976E+03  4.357305E+03  1.192220E+03  1.058187E+03
       209   9 -1.093856E+05  7.014218E+03  4.987428E+03  6.219213E+03  1.542783E+03  1.603383E+03
       209  10 -1.485547E+05 -2.466585E+03 -2.642906E+03  6.154611E+03 -1.708910E-09 -5.775439E-10
       209  11 -1.579365E+05 -4.749435E+03 -4.952658E+03  4.292725E+03 -7.559820E-11 -1.500537E-09
       209  12 -1.673839E+05 -7.087057E+03 -7.511267E+03  6.144278E+03  1.317334E-09 -1.340696E-09
       209  13 -1.383850E+05  1.278286E+01 -4.175498E+02  6.181716E+03 -8.422179E-10 -1.640011E-10
       209  14 -1.383527E+05  1.518102E+01 -7.168318E+02  4.325014E+03 -5.678636E-10  2.849503E-10
       209  15 -1.383851E+05 -3.639343E+01 -1.261900E+03  6.181743E+03 -5.883559E-10 -1.162638E-10
       209  16 -1.282152E+05  2.492144E+03  1.807801E+03  6.208821E+03  1.499561E-09  1.040660E-09
       209  17 -1.187685E+05  4.779771E+03  3.518971E+03  4.357304E+03 -1.071299E-09 -9.895843E-10
       209  18 -1.093856E+05  7.014215E+03  4.987418E+03  6.219211E+03 -5.648184E-10  9.090252E-10
       209  19 -1.485547E+05 -2.466585E+03 -2.642906E+03  6.154611E+03  2.176386E+02 -5.078420E+02
       209  20 -1.579365E+05 -4.749433E+03 -4.952656E+03  4.292725E+03 -1.415960E+02 -1.057600E+03
       209  21 -1.673839E+05 -7.087054E+03 -7.511262E+03  6.144278E+03 -5.008459E+02 -1.602811E+03
       209  22 -1.383850E+05  1.278316E+01 -4.175491E+02  6.181716E+03 -3.120180E+02 -5.081442E+02
       209  23 -1.383527E+05  1.518234E+01 -7.168289E+02  4.325014E+03 -6.668999E+02 -1.057893E+03
       209  24 -1.383851E+05 -3.639039E+01 -1.261893E+03  6.181745E+03 -1.021803E+03 -1.603097E+03
       209  25 -1.282152E+05  2.492144E+03  1.807802E+03  6.208821E+03 -8.416832E+02 -5.084464E+02
       209  26 -1.187685E+05  4.779773E+03  3.518976E+03  4.357305E+03 -1.192220E+03 -1.058187E+03
       209  27 -1.093856E+05  7.014218E+03  4.987428E+03  6.219213E+03 -1.542783E+03 -1.603383E+03
       210   1 -1.749473E+05 -8.811563E+03 -9.562317E+03  5.958654E+03  7.292544E+02  1.931222E+03
       210   2 -1.841228E+05 -1.113907E+04 -1.279745E+04  4.388937E+03  2.257186E+03  2.454440E+03
       210   3 -1.937660E+05 -1.452459E+04 -1.729308E+04  6.526179E+03  3.785172E+03  2.878983E+03
       210   4 -1.384711E+05  6.803395E+01 -1.648357E+03  6.180130E+03  1.278036E+03  1.931518E+03
       210   5 -1.382457E+05  2.555289E+01 -2.859347E+03  4.326959E+03  2.711354E+03  2.454671E+03
       210   6 -1.384716E+05 -1.058464E+03 -5.265040E+03  6.180735E+03  4.144749E+03  2.879150E+03
       210   7 -1.019937E+05  8.947543E+03  6.265526E+03  6.401620E+03  1.826849E+03  1.931814E+03
       210   8 -9.236663E+04  1.119003E+04  7.078631E+03  4.264977E+03  3.165555E+03  2.454901E+03
       210   9 -8.317428E+04  1.240746E+04  6.762817E+03  5.835259E+03  4.504358E+03  2.879317E+03
       210  10 -1.749473E+05 -8.811567E+03 -9.562325E+03  5.958653E+03  3.285590E-10 -6.841786E-10
       210  11 -1.841228E+05 -1.113907E+04 -1.279747E+04  4.388932E+03 -4.043055E-10  1.374980E-09
       210  12 -1.937660E+05 -1.452461E+04 -1.729312E+04  6.526171E+03 -9.095539E-10  1.869985E-10
       210  13 -1.384711E+05  6.802951E+01 -1.648367E+03  6.180128E+03  3.506780E-10 -1.697944E-09
       210  14 -1.382457E+05  2.554445E+01 -2.859372E+03  4.326954E+03  1.048005E-10  1.527765E-09
       210  15 -1.384716E+05 -1.058478E+03 -5.265088E+03  6.180725E+03  2.268558E-10  1.565364E-10
       210  16 -1.019937E+05  8.947538E+03  6.265512E+03  6.401617E+03 -6.937970E-10 -7.316003E-10
       210  17 -9.236664E+04  1.119002E+04  7.078601E+03  4.264970E+03  5.837483E-10 -1.899553E-09
       210  18 -8.317430E+04  1.240745E+04  6.762763E+03  5.835248E+03  1.054719E-10 -2.791459E-10
       210  19 -1.749473E+05 -8.811563E+03 -9.562317E+03  5.958654E+03 -7.292544E+02 -1.931222E+03
       210  20 -1.841228E+05 -1.113907E+04 -1.279745E+04  4.388937E+03 -2.257186E+03 -2.454440E+03
       210  21 -1.937660E+05 -1.452459E+04 -1.729308E+04  6.526179E+03 -3.785172E+03 -2.878983E+03
       210  22 -1.384711E+05  6.803395E+01 -1.648357E+03  6.180130E+03 -1.278036E+03 -1.931518E+03
       210  23 -1.382457E+05  2.555289E+01 -2.859347E+03  4.326959E+03 -2.711354E+03 -2.454671E+03
       210  24 -1.384716E+05 -1.058464E+03 -5.265040E+03  6.180735E+03 -4.144749E+03 -2.879150E+03
       210  25 -1.019937E+05  8.947543E+03  6.265526E+03  6.401620E+03 -1.826849E+03 -1.931814E+03
       210  26 -9.236663E+04  1.119003E+04  7.078631E+03  4.264977E+03 -3.165555E+03 -2.454901E+03
       210  27 -8.317428E+04  1.240746E+04  6.762817E+03  5.835259E+03 -4.504358E+03 -2.879317E+03
       211   1 -2.024322E+05 -1.431575E+04 -2.024637E+04  3.192441E+03  4.103218E+03  3.371333E+03
       211   2 -2.088693E+05 -1.788543E+04 -2.734785E+04  7.962968E+03  1.221023E+04  3.305696E+03
       211   3 -2.212819E+05 -4.112156E+04 -4.464564E+04  1.634411E+04  2.031797E+04  1.069368E+03
       211   4 -1.396187E+05  9.732980E+02 -6.644894E+03  6.156400E+03  5.078321E+03  3.371828E+03
       211   5 -1.368128E+05 -2.846667E+02 -1.139330E+04  4.356258E+03  1.110246E+04  3.305055E+03
       211   6 -1.396205E+05 -2.084634E+04 -2.489065E+04  6.166948E+03  1.712752E+04  1.067533E+03
       211   7 -7.680137E+04  1.626211E+04  6.956360E+03  9.120663E+03  6.053520E+03  3.372331E+03
       211   8 -6.475154E+04  1.731579E+04  4.560939E+03  7.491239E+02  9.994572E+03  3.304427E+03
       211   9 -5.795276E+04 -5.712155E+02 -5.136044E+03 -4.011560E+03  1.393665E+04  1.065803E+03
       211  10 -2.024323E+05 -1.431576E+04 -2.024643E+04  3.192430E+03  9.920524E-10  1.157025E-10
       211  11 -2.088694E+05 -1.788548E+04 -2.734815E+04  7.962935E+03  8.571766E-10 -4.865146E-10
       211  12 -2.212823E+05 -4.112167E+04 -4.464642E+04  1.634410E+04  1.479602E-10  8.853871E-10
       211  13 -1.396187E+05  9.732788E+02 -6.644964E+03  6.156386E+03 -8.110862E-10  2.564637E-10
       211  14 -1.368130E+05 -2.847115E+02 -1.139355E+04  4.356228E+03  8.189106E-10 -8.538683E-11
       211  15 -1.396208E+05 -2.084642E+04 -2.489120E+04  6.166933E+03  2.524665E-10  5.190729E-11
       211  16 -7.680141E+04  1.626209E+04  6.956270E+03  9.120646E+03 -1.098682E-09 -7.106028E-12
       211  17 -6.475165E+04  1.731575E+04  4.560731E+03  7.490973E+02 -5.892314E-10  1.124084E-10
       211  18 -5.795297E+04 -5.712688E+02 -5.136411E+03 -4.011572E+03  5.900991E-11 -4.716293E-10
       211  19 -2.024322E+05 -1.431575E+04 -2.024637E+04  3.192441E+03 -4.103218E+03 -3.371333E+03
       211  20 -2.088693E+05 -1.788543E+04 -2.734785E+04  7.962968E+03 -1.221023E+04 -3.305696E+03
       211  21 -2.212819E+05 -4.112156E+04 -4.464564E+04  1.634411E+04 -2.031797E+04 -1.069368E+03
       211  22 -1.396187E+05  9.732980E+02 -6.644894E+03  6.156400E+03 -5.078321E+03 -3.371828E+03
       211  23 -1.368128E+05 -2.846667E+02 -1.139330E+04  4.356258E+03 -1.110246E+04 -3.305055E+03
       211  24 -1.396205E+05 -2.084634E+04 -2.489065E+04  6.166948E+03 -1.712752E+04 -1.067533E+03
       211  25 -7.680137E+04  1.626211E+04  6.956360E+03  9.120663E+03 -6.053520E+03 -3.372331E+03
       211  26 -6.475154E+04  1.731579E+04  4.560939E+03  7.491239E+02 -9.994572E+03 -3.304427E+03
       211  27 -5.795276E+04 -5.712155E+02 -5.136044E+03 -4.011560E+03 -1.393665E+04 -1.065803E+03

 stresses (elem, integ.pnt.,sxx,syy,szz,sxy,sxz,syz) for set ELALL and time  0.5000000E+00

         1   1  1.529908E+06  5.623369E+06  1.453596E+06 -1.024315E+06  7.227499E+04  5.368223E+05
         1   2  1.237770E+06  4.797997E+06  9.883825E+05 -9.372805E+05  2.403551E+05  2.430545E+05
         1   3  1.024380E+06  4.032350E+06  7.334048E+05 -9.845138E+05  2.784942E+05 -5.021564E+04
         1   4  6.053116E+04 -3.533310E+05  6.454756E+04 -9.749750E+05  7.325940E+04  4.233818E+04
         1   5  1.845298E+04 -3.577891E+05  3.416644E+04 -9.079142E+05  2.410799E+05  2.550736E+04
         1   6  7.607610E+03 -3.506838E+05  2.280760E+04 -9.751155E+05  2.784809E+05  8.749400E+03
         1   7 -1.411223E+06 -6.296720E+06 -1.325996E+06 -9.260723E+05  7.417341E+04 -4.474525E+05
         1   8 -1.202355E+06 -5.487834E+06 -9.209891E+05 -8.787647E+05  2.417887E+05 -1.902908E+05
         1   9 -1.010137E+06 -4.714734E+06 -6.883105E+05 -9.657573E+05  2.784693E+05  6.731461E+04
         1  10  1.529825E+06  5.623061E+06  1.453049E+06 -1.024346E+06  1.878773E-09  5.471751E-09
         1  11  1.237692E+06  4.797919E+06  9.881633E+05 -9.373275E+05  4.066148E-09  2.133066E-11
         1  12  1.024296E+06  4.032327E+06  7.332544E+05 -9.845026E+05 -2.264835E-09 -5.885831E-09
         1  13  6.052491E+04 -3.533344E+05  6.453409E+04 -9.749775E+05  8.279371E-10  7.526890E-11
         1  14  1.839039E+04 -3.578054E+05  3.405598E+04 -9.079192E+05 -1.430210E-09  4.295006E-11
         1  15  7.524323E+03 -3.507047E+05  2.266173E+04 -9.751175E+05 -9.833685E-10 -2.913784E-11
         1  16 -1.411283E+06 -6.296938E+06 -1.326386E+06 -9.260456E+05 -1.331562E-09 -5.403659E-09
         1  17 -1.202428E+06 -5.487889E+06 -9.211672E+05 -8.787276E+05 -1.407422E-09  1.701142E-13
         1  18 -1.010221E+06 -4.714760E+06 -6.884649E+05 -9.657725E+05  1.120622E-09  5.768997E-09
         1  19  1.529908E+06  5.623369E+06  1.453596E+06 -1.024315E+06 -7.227499E+04 -5.368223E+05
         1  20  1.237770E+06  4.797997E+06  9.883825E+05 -9.372805E+05 -2.403551E+05 -2.430545E+05
         1  21  1.024380E+06  4.032350E+06  7.334048E+05 -9.845138E+05 -2.784942E+05  5.021564E+04
         1  22  6.053116E+04 -3.533310E+05  6.454756E+04 -9.749750E+05 -7.325940E+04 -4.233818E+04
         1  23  1.845298E+04 -3.577891E+05  3.416644E+04 -9.079142E+05 -2.410799E+05 -2.550736E+04
         1  24  7.607610E+03 -3.506838E+05  2.280760E+04 -9.751155E+05 -2.784809E+05 -8.749400E+03
         1  25 -1.411223E+06 -6.296720E+06 -1.325996E+06 -9.260723E+05 -7.417341E+04  4.474525E+05
         1  26 -1.202355E+06 -5.487834E+06 -9.209891E+05 -8.787647E+05 -2.417887E+05  1.902908E+05
         1  27 -1.010137E+06 -4.714734E+06 -6.883105E+05 -9.657573E+05 -2.784693E+05 -6.731461E+04
         2   1  9.041434E+05  3.524201E+06  6.337648E+05 -9.891828E+05  2.574223E+05 -5.404770E+04
         2   2  7.147667E+05  2.725070E+06  4.838473E+05 -9.126064E+05  2.219737E+05 -9.659106E+04
         2   3  5.384334E+05  1.935227E+06  3.647574E+05 -9.796245E+05  1.712618E+05 -1.392008E+05
         2   4  7.714551E+03 -3.518070E+05  2.031835E+04 -9.771968E+05  2.573554E+05  5.291191E+03
         2   5  7.411143E+03 -3.525212E+05  2.023122E+04 -9.053723E+05  2.217072E+05 -4.856949E+03
         2   6  1.459244E+04 -3.501634E+05  2.855847E+04 -9.771838E+05  1.707565E+05 -1.512254E+04
         2   7 -8.894579E+05 -4.212903E+06 -5.934945E+05 -9.652647E+05  2.572904E+05  6.427468E+04
         2   8 -7.003899E+05 -3.420619E+06 -4.435445E+05 -8.981601E+05  2.214419E+05  8.644199E+04
         2   9 -5.094833E+05 -2.630273E+06 -3.076755E+05 -9.747431E+05  1.702509E+05  1.085189E+05
         2  10  9.040715E+05  3.524180E+06  6.336349E+05 -9.891716E+05 -1.681485E-09 -8.041017E-09
         2  11  7.147114E+05  2.725047E+06  4.837374E+05 -9.125892E+05  3.969657E-10  1.989815E-08
         2  12  5.383968E+05  1.935198E+06  3.646662E+05 -9.796054E+05 -3.726840E-09  4.553643E-08
         2  13  7.643432E+03 -3.518248E+05  2.019385E+04 -9.771980E+05 -9.082145E-09 -3.121561E-12
         2  14  7.358367E+03 -3.525344E+05  2.013883E+04 -9.053715E+05 -9.885493E-10  1.002268E-10
         2  15  1.456108E+04 -3.501715E+05  2.850328E+04 -9.771817E+05 -6.280464E-09  1.803271E-10
         2  16 -8.895301E+05 -4.212925E+06 -5.936268E+05 -9.652781E+05 -1.806613E-09  7.970768E-09
         2  17 -7.004446E+05 -3.420640E+06 -4.436509E+05 -8.981756E+05 -1.128424E-09 -1.982802E-08
         2  18 -5.095176E+05 -2.630293E+06 -3.077523E+05 -9.747580E+05  1.877833E-09 -4.517959E-08
         2  19  9.041434E+05  3.524201E+06  6.337648E+05 -9.891828E+05 -2.574223E+05  5.404770E+04
         2  20  7.147667E+05  2.725070E+06  4.838473E+05 -9.126064E+05 -2.219737E+05  9.659106E+04
         2  21  5.384334E+05  1.935227E+06  3.647574E+05 -9.796245E+05 -1.712618E+05  1.392008E+05
         2  22  7.714551E+03 -3.518070E+05  2.031835E+04 -9.771968E+05 -2.573554E+05 -5.291191E+03
         2  23  7.411143E+03 -3.525212E+05  2.023122E+04 -9.053723E+05 -2.217072E+05  4.856949E+03
         2  24  1.459244E+04 -3.501634E+05  2.855847E+04 -9.771838E+05 -1.707565E+05  1.512254E+04
         2  25 -8.894579E+05 -4.212903E+06 -5.934945E+05 -9.652647E+05 -2.572904E+05 -6.427468E+04
         2  26 -7.003899E+05 -3.420619E+06 -4.435445E+05 -8.981601E+05 -2.214419E+05 -8.644199E+04
         2  27 -5.094833E+05 -2.630273E+06 -3.076755E+05 -9.747431E+05 -1.702509E+05 -1.085189E+05
         3   1  4.261151E+05  1.439575E+06  2.951824E+05 -9.827890E+05  1.365641E+05 -1.441821E+05
         3   2  2.687777E+05  6.375477E+05  2.040593E+05 -8.703414E+05  7.779125E+04 -1.771437E+05
         3   3  1.654996E+05 -1.469651E+05  1.476279E+05 -9.025034E+05  1.846402E+04 -2.101058E+05
         3   4  1.718268E+04 -3.467695E+05  3.570604E+04 -9.774241E+05  1.360132E+05 -2.009964E+04
         3   5  4.231230E+04 -3.548077E+05  6.183825E+04 -9.049351E+05  7.720813E+04 -5.194093E+04
         3   6  1.213444E+05 -3.462161E+05  1.218377E+05 -9.770176E+05  1.785268E+04 -8.381848E+04
         3   7 -3.918883E+05 -2.129867E+06 -2.237652E+05 -9.720695E+05  1.354632E+05  1.036414E+05
         3   8 -1.841845E+05 -1.346132E+06 -8.033810E+04 -9.394696E+05  7.661042E+04  7.307043E+04
         3   9  7.721709E+04 -5.453800E+05  9.611025E+04 -1.051507E+06  1.721087E+04  4.243021E+04
         3  10  4.260895E+05  1.439548E+06  2.951086E+05 -9.827732E+05 -2.525273E-09 -1.176115E-07
         3  11  2.687628E+05  6.375124E+05  2.039892E+05 -8.703303E+05 -3.604990E-10 -2.248553E-08
         3  12  1.654874E+05 -1.470126E+05  1.475443E+05 -9.025003E+05  1.482476E-09  7.479398E-08
         3  13  1.716271E+04 -3.467749E+05  3.567055E+04 -9.774219E+05 -3.191017E-09  2.549099E-10
         3  14  4.230518E+04 -3.548122E+05  6.182201E+04 -9.049319E+05 -4.507484E-09  5.820760E-11
         3  15  1.213421E+05 -3.462237E+05  1.218239E+05 -9.770164E+05 -1.900573E-09 -1.445901E-10
         3  16 -3.919109E+05 -2.129883E+06 -2.238200E+05 -9.720809E+05 -1.736959E-09  1.175983E-07
         3  17 -1.841923E+05 -1.346139E+06 -8.035922E+04 -9.394741E+05 -7.993313E-09  2.207156E-08
         3  18  7.721628E+04 -5.453821E+05  9.610630E+04 -1.051507E+06 -1.209641E-09 -7.512598E-08
         3  19  4.261151E+05  1.439575E+06  2.951824E+05 -9.827890E+05 -1.365641E+05  1.441821E+05
         3  20  2.687777E+05  6.375477E+05  2.040593E+05 -8.703414E+05 -7.779125E+04  1.771437E+05
         3  21  1.654996E+05 -1.469651E+05  1.476279E+05 -9.025034E+05 -1.846402E+04  2.101058E+05
         3  22  1.718268E+04 -3.467695E+05  3.570604E+04 -9.774241E+05 -1.360132E+05  2.009964E+04
         3  23  4.231230E+04 -3.548077E+05  6.183825E+04 -9.049351E+05 -7.720813E+04  5.194093E+04
         3  24  1.213444E+05 -3.462161E+05  1.218377E+05 -9.770176E+05 -1.785268E+04  8.381848E+04
         3  25 -3.918883E+05 -2.129867E+06 -2.237652E+05 -9.720695E+05 -1.354632E+05 -1.036414E+05
         3  26 -1.841845E+05 -1.346132E+06 -8.033810E+04 -9.394696E+05 -7.661042E+04 -7.307043E+04
         3  27  7.721709E+04 -5.453800E+05  9.611025E+04 -1.051507E+06 -1.721087E+04 -4.243021E+04
         4   1 -3.873418E+06 -1.156741E+06 -7.786320E+05 -1.322417E+06 -4.468516E+05 -1.653759E+05
         4   2 -3.732486E+06 -4.982274E+05 -3.567747E+05 -1.436866E+06 -2.881426E+05 -1.021166E+05
         4   3 -3.851474E+06 -5.553648E+05 -2.444790E+05 -1.396376E+06 -1.277005E+05 -4.347420E+04
         4   4 -3.660438E+06 -9.937616E+05 -7.034522E+05 -1.179857E+06 -4.455738E+05 -1.649721E+05
         4   5 -3.495196E+06 -3.871910E+05 -2.877345E+05 -1.350402E+06 -2.879602E+05 -1.020610E+05
         4   6 -3.589551E+06 -4.959054E+05 -1.806190E+05 -1.366045E+06 -1.286063E+05 -4.380300E+04
         4   7 -3.447397E+06 -8.307198E+05 -6.282749E+05 -1.037238E+06 -4.442955E+05 -1.645676E+05
         4   8 -3.257851E+06 -2.761420E+05 -2.186999E+05 -1.263906E+06 -2.877776E+05 -1.020054E+05
         4   9 -3.327560E+06 -4.364481E+05 -1.167629E+05 -1.335707E+06 -1.295126E+05 -4.413181E+04
         4  10 -3.873641E+06 -1.156824E+06 -7.790616E+05 -1.322476E+06 -1.037220E-09 -1.177216E-10
         4  11 -3.732578E+06 -4.982612E+05 -3.569516E+05 -1.436889E+06 -4.388700E-09  2.499858E-11
         4  12 -3.851492E+06 -5.553712E+05 -2.445135E+05 -1.396381E+06  1.302342E-09  1.762599E-11
         4  13 -3.660660E+06 -9.938447E+05 -7.038792E+05 -1.179916E+06 -4.298977E-12 -1.237792E-10
         4  14 -3.495288E+06 -3.872247E+05 -2.879111E+05 -1.350426E+06  1.040589E-09 -1.402231E-10
         4  15 -3.589570E+06 -4.959120E+05 -1.806539E+05 -1.366049E+06  1.624191E-09  2.746589E-12
         4  16 -3.447617E+06 -8.308024E+05 -6.286994E+05 -1.037298E+06  3.306366E-09 -1.496383E-10
         4  17 -3.257943E+06 -2.761756E+05 -2.188761E+05 -1.263930E+06  8.871149E-10  5.196040E-11
         4  18 -3.327579E+06 -4.364548E+05 -1.167983E+05 -1.335712E+06 -7.752892E-10  6.767441E-10
         4  19 -3.873418E+06 -1.156741E+06 -7.786320E+05 -1.322417E+06  4.468516E+05  1.653759E+05
         4  20 -3.732486E+06 -4.982274E+05 -3.567747E+05 -1.436866E+06  2.881426E+05  1.021166E+05
         4  21 -3.851474E+06 -5.553648E+05 -2.444790E+05 -1.396376E+06  1.277005E+05  4.347420E+04
         4  22 -3.660438E+06 -9.937616E+05 -7.034522E+05 -1.179857E+06  4.455738E+05  1.649721E+05
         4  23 -3.495196E+06 -3.871910E+05 -2.877345E+05 -1.350402E+06  2.879602E+05  1.020610E+05
         4  24 -3.589551E+06 -4.959054E+05 -1.806190E+05 -1.366045E+06  1.286063E+05  4.380300E+04
         4  25 -3.447397E+06 -8.307198E+05 -6.282749E+05 -1.037238E+06  4.442955E+05  1.645676E+05
         4  26 -3.257851E+06 -2.761420E+05 -2.186999E+05 -1.263906E+06  2.877776E+05  1.020054E+05
         4  27 -3.327560E+06 -4.364481E+05 -1.167629E+05 -1.335707E+06  1.295126E+05  4.413181E+04
         5   1 -3.697732E+06 -6.404503E+05 -1.871627E+05 -1.370406E+06 -1.011122E+05 -3.489629E+04
         5   2 -3.665609E+06 -5.242108E+05 -9.867016E+04 -1.363952E+06 -6.492040E+04 -2.187313E+04
         5   3 -3.644704E+06 -5.369929E+05 -6.401388E+04 -1.367668E+06 -2.845445E+04 -9.576494E+03
         5   4 -3.564529E+06 -5.791035E+05 -1.485557E+05 -1.322881E+06 -1.011472E+05 -3.491168E+04
         5   5 -3.553932E+06 -4.793933E+05 -6.762474E+04 -1.330927E+06 -6.512680E+04 -2.195066E+04
         5   6 -3.554511E+06 -5.086583E+05 -4.038375E+04 -1.349145E+06 -2.883374E+04 -9.717856E+03
         5   7 -3.431309E+06 -5.177530E+05 -1.099504E+05 -1.275345E+06 -1.011821E+05 -3.492707E+04
         5   8 -3.442243E+06 -4.345746E+05 -3.658054E+04 -1.297897E+06 -6.533325E+04 -2.202820E+04
         5   9 -3.464311E+06 -4.803240E+05 -1.675434E+04 -1.330620E+06 -2.921310E+04 -9.859233E+03
         5  10 -3.697744E+06 -6.404544E+05 -1.871843E+05 -1.370409E+06 -2.165973E-09  1.528649E-09
         5  11 -3.665613E+06 -5.242125E+05 -9.867904E+04 -1.363953E+06 -5.923170E-09  4.566115E-10
         5  12 -3.644705E+06 -5.369932E+05 -6.401559E+04 -1.367668E+06  1.089851E-09 -3.100669E-10
         5  13 -3.564541E+06 -5.791076E+05 -1.485773E+05 -1.322883E+06  2.195361E-11  4.720030E-10
         5  14 -3.553937E+06 -4.793949E+05 -6.763367E+04 -1.330928E+06  2.048431E-09  1.292715E-10
         5  15 -3.554512E+06 -5.086587E+05 -4.038550E+04 -1.349145E+06  3.121821E-09 -1.172805E-10
         5  16 -3.431321E+06 -5.177571E+05 -1.099720E+05 -1.275348E+06  9.885845E-10 -1.259783E-10
         5  17 -3.442248E+06 -4.345763E+05 -3.658953E+04 -1.297898E+06  5.181584E-09  2.064777E-10
         5  18 -3.464312E+06 -4.803243E+05 -1.675614E+04 -1.330620E+06  1.286682E-09 -6.105617E-10
         5  19 -3.697732E+06 -6.404503E+05 -1.871627E+05 -1.370406E+06  1.011122E+05  3.489629E+04
         5  20 -3.665609E+06 -5.242108E+05 -9.867016E+04 -1.363952E+06  6.492040E+04  2.187313E+04
         5  21 -3.644704E+06 -5.369929E+05 -6.401388E+04 -1.367668E+06  2.845445E+04  9.576494E+03
         5  22 -3.564529E+06 -5.791035E+05 -1.485557E+05 -1.322881E+06  1.011472E+05  3.491168E+04
         5  23 -3.553932E+06 -4.793933E+05 -6.762474E+04 -1.330927E+06  6.512680E+04  2.195066E+04
         5  24 -3.554511E+06 -5.086583E+05 -4.038375E+04 -1.349145E+06  2.883374E+04  9.717856E+03
         5  25 -3.431309E+06 -5.177530E+05 -1.099504E+05 -1.275345E+06  1.011821E+05  3.492707E+04
         5  26 -3.442243E+06 -4.345746E+05 -3.658054E+04 -1.297897E+06  6.533325E+04  2.202820E+04
         5  27 -3.464311E+06 -4.803240E+05 -1.675434E+04 -1.330620E+06  2.921310E+04  9.859233E+03
         6   1 -3.525843E+06 -5.124181E+05 -2.555943E+04 -1.337825E+06 -2.230457E+04 -8.174509E+03
         6   2 -3.509830E+06 -4.728848E+05 -1.417307E+03 -1.314259E+06 -1.374091E+04 -6.189195E+03
         6   3 -3.468311E+06 -4.791625E+05  1.281824E+04 -1.323937E+06 -5.178437E+03 -4.198940E+03
         6   4 -3.550602E+06 -5.203195E+05 -3.213916E+04 -1.343020E+06 -2.256602E+04 -8.272227E+03
         6   5 -3.562651E+06 -4.924867E+05 -1.579082E+04 -1.328231E+06 -1.400145E+04 -6.286553E+03
         6   6 -3.549194E+06 -5.104658E+05 -9.349565E+03 -1.346686E+06 -5.438485E+03 -4.296126E+03
         6   7 -3.575360E+06 -5.282208E+05 -3.871896E+04 -1.348215E+06 -2.282745E+04 -8.369943E+03
         6   8 -3.615469E+06 -5.120885E+05 -3.016463E+04 -1.342202E+06 -1.426197E+04 -6.383902E+03
         6   9 -3.630071E+06 -5.417687E+05 -3.151801E+04 -1.369433E+06 -5.698495E+03 -4.393296E+03
         6  10 -3.525843E+06 -5.124183E+05 -2.556050E+04 -1.337825E+06  2.183568E-09 -1.136482E-10
         6  11 -3.509830E+06 -4.728849E+05 -1.417736E+03 -1.314259E+06  4.191731E-10 -4.960021E-10
         6  12 -3.468311E+06 -4.791625E+05  1.281815E+04 -1.323937E+06  1.761278E-09  1.218530E-09
         6  13 -3.550602E+06 -5.203197E+05 -3.214025E+04 -1.343020E+06 -2.378722E-09 -3.601462E-10
         6  14 -3.562651E+06 -4.924868E+05 -1.579127E+04 -1.328231E+06  3.081270E-09 -1.021223E-10
         6  15 -3.549194E+06 -5.104658E+05 -9.349656E+03 -1.346686E+06 -2.125403E-09  3.826927E-10
         6  16 -3.575360E+06 -5.282211E+05 -3.872008E+04 -1.348215E+06  8.864914E-10 -2.500995E-10
         6  17 -3.615469E+06 -5.120886E+05 -3.016509E+04 -1.342202E+06  1.839484E-09 -4.694560E-10
         6  18 -3.630071E+06 -5.417687E+05 -3.151810E+04 -1.369433E+06 -5.883146E-10 -4.921721E-10
         6  19 -3.525843E+06 -5.124181E+05 -2.555943E+04 -1.337825E+06  2.230457E+04  8.174509E+03
         6  20 -3.509830E+06 -4.728848E+05 -1.417307E+03 -1.314259E+06  1.374091E+04  6.189195E+03
         6  21 -3.468311E+06 -4.791625E+05  1.281824E+04 -1.323937E+06  5.178437E+03  4.198940E+03
         6  22 -3.550602E+06 -5.203195E+05 -3.213916E+04 -1.343020E+06  2.256602E+04  8.272227E+03
         6  23 -3.562651E+06 -4.924867E+05 -1.579082E+04 -1.328231E+06  1.400145E+04  6.286553E+03
         6  24 -3.549194E+06 -5.104658E+05 -9.349565E+03 -1.346686E+06  5.438485E+03  4.296126E+03
         6  25 -3.575360E+06 -5.282208E+05 -3.871896E+04 -1.348215E+06  2.282745E+04  8.369943E+03
         6  26 -3.615469E+06 -5.120885E+05 -3.016463E+04 -1.342202E+06  1.426197E+04  6.383902E+03
         6  27 -3.630071E+06 -5.417687E+05 -3.151801E+04 -1.369433E+06  5.698495E+03  4.393296E+03
         7   1 -3.367000E+06 -4.418355E+05  4.263453E+04 -1.294912E+06 -3.523495E+03 -4.331361E+03
         7   2 -3.356111E+06 -4.183225E+05  5.200432E+04 -1.274075E+06 -1.010886E+03 -4.557139E+03
         7   3 -3.320343E+06 -4.227532E+05  5.923661E+04 -1.282295E+06  1.396301E+03 -4.498606E+03
         7   4 -3.549927E+06 -5.106294E+05 -7.421035E+03 -1.344219E+06 -3.808774E+03 -4.438064E+03
         7   5 -3.562274E+06 -4.960746E+05 -4.332264E+03 -1.329903E+06 -1.226880E+03 -4.638049E+03
         7   6 -3.549758E+06 -5.094783E+05 -3.436595E+03 -1.344645E+06  1.249493E+03 -4.553708E+03
         7   7 -3.732820E+06 -5.794213E+05 -5.747951E+04 -1.393512E+06 -4.093959E+03 -4.544731E+03
         7   8 -3.768397E+06 -5.738243E+05 -6.067266E+04 -1.385714E+06 -1.442794E+03 -4.718928E+03
         7   9 -3.779122E+06 -5.962005E+05 -6.611465E+04 -1.406975E+06  1.102744E+03 -4.608788E+03
         7  10 -3.367000E+06 -4.418355E+05  4.263447E+04 -1.294912E+06  2.190319E-09  6.150259E-10
         7  11 -3.356111E+06 -4.183225E+05  5.200428E+04 -1.274075E+06 -9.909019E-10  2.804576E-10
         7  12 -3.320343E+06 -4.227532E+05  5.923657E+04 -1.282295E+06  5.296234E-09 -4.364691E-10
         7  13 -3.549927E+06 -5.106294E+05 -7.421100E+03 -1.344219E+06  1.968845E-09 -1.480186E-10
         7  14 -3.562275E+06 -4.960746E+05 -4.332307E+03 -1.329903E+06  3.682371E-09 -7.031181E-10
         7  15 -3.549758E+06 -5.094783E+05 -3.436636E+03 -1.344645E+06  2.843746E-10  2.636426E-10
         7  16 -3.732820E+06 -5.794214E+05 -5.747958E+04 -1.393512E+06 -1.312544E-09 -1.868254E-09
         7  17 -3.768397E+06 -5.738243E+05 -6.067271E+04 -1.385714E+06  1.058779E-09  7.180872E-10
         7  18 -3.779122E+06 -5.962005E+05 -6.611469E+04 -1.406975E+06 -4.029190E-09 -3.104821E-10
         7  19 -3.367000E+06 -4.418355E+05  4.263453E+04 -1.294912E+06  3.523495E+03  4.331361E+03
         7  20 -3.356111E+06 -4.183225E+05  5.200432E+04 -1.274075E+06  1.010886E+03  4.557139E+03
         7  21 -3.320343E+06 -4.227532E+05  5.923661E+04 -1.282295E+06 -1.396301E+03  4.498606E+03
         7  22 -3.549927E+06 -5.106294E+05 -7.421035E+03 -1.344219E+06  3.808774E+03  4.438064E+03
         7  23 -3.562274E+06 -4.960746E+05 -4.332264E+03 -1.329903E+06  1.226880E+03  4.638049E+03
         7  24 -3.549758E+06 -5.094783E+05 -3.436595E+03 -1.344645E+06 -1.249493E+03  4.553708E+03
         7  25 -3.732820E+06 -5.794213E+05 -5.747951E+04 -1.393512E+06  4.093959E+03  4.544731E+03
         7  26 -3.768397E+06 -5.738243E+05 -6.067266E+04 -1.385714E+06  1.442794E+03  4.718928E+03
         7  27 -3.779122E+06 -5.962005E+05 -6.611465E+04 -1.406975E+06 -1.102744E+03  4.608788E+03
         8   1 -3.253349E+06 -3.939818E+05  7.842164E+04 -1.260563E+06  2.199142E+03 -4.706195E+03
         8   2 -3.247785E+06 -3.818338E+05  8.099854E+04 -1.249216E+06  4.424525E+03 -4.657409E+03
         8   3 -3.229037E+06 -3.853360E+05  8.167551E+04 -1.252963E+06  6.483388E+03 -4.162911E+03
         8   4 -3.552374E+06 -5.067717E+05 -3.371723E+03 -1.341540E+06  1.974920E+03 -4.790396E+03
         8   5 -3.559033E+06 -4.994871E+05 -4.102185E+03 -1.333785E+06  4.308978E+03 -4.700984E+03
         8   6 -3.552532E+06 -5.078755E+05 -6.819806E+03 -1.341126E+06  6.476437E+03 -4.165768E+03
         8   7 -3.851312E+06 -6.195565E+05 -8.517311E+04 -1.422481E+06  1.750818E+03 -4.874552E+03
         8   8 -3.870189E+06 -6.171350E+05 -8.921172E+04 -1.418317E+06  4.193496E+03 -4.744534E+03
         8   9 -3.875926E+06 -6.304092E+05 -9.532478E+04 -1.429247E+06  6.469489E+03 -4.168623E+03
         8  10 -3.253349E+06 -3.939819E+05  7.842159E+04 -1.260563E+06 -3.200845E-10  1.690654E-09
         8  11 -3.247785E+06 -3.818338E+05  8.099846E+04 -1.249216E+06 -1.765513E-09  1.889110E-09
         8  12 -3.229037E+06 -3.853361E+05  8.167540E+04 -1.252963E+06 -4.865084E-09  1.289380E-09
         8  13 -3.552374E+06 -5.067718E+05 -3.371773E+03 -1.341540E+06  1.960274E-09  8.855906E-10
         8  14 -3.559033E+06 -4.994872E+05 -4.102261E+03 -1.333785E+06 -5.679752E-09  9.563683E-10
         8  15 -3.552532E+06 -5.078756E+05 -6.819917E+03 -1.341126E+06  2.280314E-09 -4.437831E-10
         8  16 -3.851312E+06 -6.195565E+05 -8.517316E+04 -1.422481E+06  2.251952E-09  1.246504E-10
         8  17 -3.870189E+06 -6.171350E+05 -8.921180E+04 -1.418317E+06 -2.431744E-09  2.095362E-09
         8  18 -3.875926E+06 -6.304092E+05 -9.532489E+04 -1.429247E+06  3.305480E-09  6.546535E-11
         8  19 -3.253349E+06 -3.939818E+05  7.842164E+04 -1.260563E+06 -2.199142E+03  4.706195E+03
         8  20 -3.247785E+06 -3.818338E+05  8.099854E+04 -1.249216E+06 -4.424525E+03  4.657409E+03
         8  21 -3.229037E+06 -3.853360E+05  8.167551E+04 -1.252963E+06 -6.483388E+03  4.162911E+03
         8  22 -3.552374E+06 -5.067717E+05 -3.371723E+03 -1.341540E+06 -1.974920E+03  4.790396E+03
         8  23 -3.559033E+06 -4.994871E+05 -4.102185E+03 -1.333785E+06 -4.308978E+03  4.700984E+03
         8  24 -3.552532E+06 -5.078755E+05 -6.819806E+03 -1.341126E+06 -6.476437E+03  4.165768E+03
         8  25 -3.851312E+06 -6.195565E+05 -8.517311E+04 -1.422481E+06 -1.750818E+03  4.874552E+03
         8  26 -3.870189E+06 -6.171350E+05 -8.921172E+04 -1.418317E+06 -4.193496E+03  4.744534E+03
         8  27 -3.875926E+06 -6.304092E+05 -9.532478E+04 -1.429247E+06 -6.469489E+03  4.168623E+03
         9   1 -3.211143E+06 -3.731404E+05  8.579280E+04 -1.244858E+06  7.899709E+03 -3.787949E+03
         9   2 -3.210744E+06 -3.718832E+05  7.943964E+04 -1.245194E+06  1.529104E+04 -1.218137E+03
         9   3 -3.217131E+06 -3.815199E+05  6.430970E+04 -1.240384E+06  2.248704E+04  1.869861E+03
         9   4 -3.556437E+06 -5.030538E+05 -8.531862E+03 -1.338046E+06  7.788588E+03 -3.829984E+03
         9   5 -3.553681E+06 -5.020645E+05 -1.443240E+04 -1.338940E+06  1.530350E+04 -1.213728E+03
         9   6 -3.557737E+06 -5.119984E+05 -2.921182E+04 -1.334687E+06  2.262305E+04  1.920828E+03
         9   7 -3.901617E+06 -6.329606E+05 -1.028673E+05 -1.431187E+06  7.677534E+03 -3.871993E+03
         9   8 -3.896504E+06 -6.322387E+05 -1.083151E+05 -1.432639E+06  1.531595E+04 -1.209322E+03
         9   9 -3.898232E+06 -6.424694E+05 -1.227438E+05 -1.428943E+06  2.275897E+04  1.971761E+03
         9  10 -3.211143E+06 -3.731405E+05  8.579265E+04 -1.244858E+06 -2.069858E-09 -4.863463E-11
         9  11 -3.210744E+06 -3.718832E+05  7.943920E+04 -1.245194E+06 -5.737687E-10  1.022492E-09
         9  12 -3.217131E+06 -3.815200E+05  6.430873E+04 -1.240384E+06 -3.503915E-09  9.117996E-10
         9  13 -3.556437E+06 -5.030538E+05 -8.532004E+03 -1.338046E+06 -2.022127E-09  8.295507E-10
         9  14 -3.553681E+06 -5.020645E+05 -1.443284E+04 -1.338940E+06  1.758115E-09 -4.904226E-10
         9  15 -3.557738E+06 -5.119985E+05 -2.921280E+04 -1.334687E+06 -4.188390E-09  1.667726E-10
         9  16 -3.901617E+06 -6.329606E+05 -1.028675E+05 -1.431187E+06  1.607641E-09  5.056375E-10
         9  17 -3.896504E+06 -6.322388E+05 -1.083155E+05 -1.432639E+06 -1.037733E-09  1.564179E-09
         9  18 -3.898232E+06 -6.424695E+05 -1.227448E+05 -1.428943E+06  5.242053E-10  1.477490E-10
         9  19 -3.211143E+06 -3.731404E+05  8.579280E+04 -1.244858E+06 -7.899709E+03  3.787949E+03
         9  20 -3.210744E+06 -3.718832E+05  7.943964E+04 -1.245194E+06 -1.529104E+04  1.218137E+03
         9  21 -3.217131E+06 -3.815199E+05  6.430970E+04 -1.240384E+06 -2.248704E+04 -1.869861E+03
         9  22 -3.556437E+06 -5.030538E+05 -8.531862E+03 -1.338046E+06 -7.788588E+03  3.829984E+03
         9  23 -3.553681E+06 -5.020645E+05 -1.443240E+04 -1.338940E+06 -1.530350E+04  1.213728E+03
         9  24 -3.557737E+06 -5.119984E+05 -2.921182E+04 -1.334687E+06 -2.262305E+04 -1.920828E+03
         9  25 -3.901617E+06 -6.329606E+05 -1.028673E+05 -1.431187E+06 -7.677534E+03  3.871993E+03
         9  26 -3.896504E+06 -6.322387E+05 -1.083151E+05 -1.432639E+06 -1.531595E+04  1.209322E+03
         9  27 -3.898232E+06 -6.424694E+05 -1.227438E+05 -1.428943E+06 -2.275897E+04 -1.971761E+03
        10   1 -3.250996E+06 -3.847578E+05  4.798941E+04 -1.256596E+06  2.797123E+04  4.145909E+03
        10   2 -3.249194E+06 -3.803860E+05  1.908118E+04 -1.263178E+06  6.026513E+04  1.674938E+04
        10   3 -3.301645E+06 -4.486139E+05 -5.842361E+04 -1.227935E+06  9.231854E+04  2.998486E+04
        10   4 -3.564354E+06 -4.984062E+05 -3.671927E+04 -1.336837E+06  2.797396E+04  4.146986E+03
        10   5 -3.541846E+06 -4.939752E+05 -6.152105E+04 -1.345725E+06  6.040850E+04  1.680304E+04
        10   6 -3.573636E+06 -5.621976E+05 -1.350482E+05 -1.312783E+06  9.260367E+04  3.009068E+04
        10   7 -3.877618E+06 -6.120511E+05 -1.214368E+05 -1.417041E+06  2.797668E+04  4.148062E+03
        10   8 -3.834417E+06 -6.075585E+05 -1.421312E+05 -1.428235E+06  6.055180E+04  1.685668E+04
        10   9 -3.845556E+06 -6.757726E+05 -2.116798E+05 -1.397595E+06  9.288866E+04  3.019643E+04
        10  10 -3.250997E+06 -3.847581E+05  4.798790E+04 -1.256596E+06 -3.882617E-09 -7.578968E-10
        10  11 -3.249198E+06 -3.803872E+05  1.907378E+04 -1.263179E+06  5.691044E-10 -1.842584E-09
        10  12 -3.301654E+06 -4.486172E+05 -5.844143E+04 -1.227938E+06 -1.357427E-09 -4.020154E-10
        10  13 -3.564355E+06 -4.984065E+05 -3.672078E+04 -1.336837E+06 -2.123401E-09 -1.067731E-09
        10  14 -3.541850E+06 -4.939765E+05 -6.152848E+04 -1.345725E+06 -7.610067E-11 -9.671854E-10
        10  15 -3.573646E+06 -5.622009E+05 -1.350661E+05 -1.312785E+06  5.573940E-10 -1.092726E-09
        10  16 -3.877619E+06 -6.120514E+05 -1.214383E+05 -1.417041E+06 -1.638352E-09 -7.345609E-10
        10  17 -3.834421E+06 -6.075598E+05 -1.421387E+05 -1.428236E+06 -1.384844E-09  1.122165E-09
        10  18 -3.845565E+06 -6.757759E+05 -2.116979E+05 -1.397597E+06 -1.158994E-09 -1.075293E-09
        10  19 -3.250996E+06 -3.847578E+05  4.798941E+04 -1.256596E+06 -2.797123E+04 -4.145909E+03
        10  20 -3.249194E+06 -3.803860E+05  1.908118E+04 -1.263178E+06 -6.026513E+04 -1.674938E+04
        10  21 -3.301645E+06 -4.486139E+05 -5.842361E+04 -1.227935E+06 -9.231854E+04 -2.998486E+04
        10  22 -3.564354E+06 -4.984062E+05 -3.671927E+04 -1.336837E+06 -2.797396E+04 -4.146986E+03
        10  23 -3.541846E+06 -4.939752E+05 -6.152105E+04 -1.345725E+06 -6.040850E+04 -1.680304E+04
        10  24 -3.573636E+06 -5.621976E+05 -1.350482E+05 -1.312783E+06 -9.260367E+04 -3.009068E+04
        10  25 -3.877618E+06 -6.120511E+05 -1.214368E+05 -1.417041E+06 -2.797668E+04 -4.148062E+03
        10  26 -3.834417E+06 -6.075585E+05 -1.421312E+05 -1.428235E+06 -6.055180E+04 -1.685668E+04
        10  27 -3.845556E+06 -6.757726E+05 -2.116798E+05 -1.397595E+06 -9.288866E+04 -3.019643E+04
        11   1 -3.368880E+06 -4.357476E+05 -1.090524E+05 -1.326044E+06  1.170622E+05  3.968455E+04
        11   2 -3.324858E+06 -3.296284E+05 -2.132588E+05 -1.299903E+06  2.606515E+05  9.491650E+04
        11   3 -3.565724E+06 -8.248952E+05 -5.977383E+05 -1.077417E+06  4.035772E+05  1.518953E+05
        11   4 -3.596914E+06 -4.862172E+05 -1.642427E+05 -1.351623E+06  1.170089E+05  3.967274E+04
        11   5 -3.487238E+06 -4.111015E+05 -2.616161E+05 -1.364484E+06  2.609882E+05  9.503358E+04
        11   6 -3.662599E+06 -9.375578E+05 -6.396258E+05 -1.180969E+06  4.043206E+05  1.521152E+05
        11   7 -3.824895E+06 -5.366881E+05 -2.194359E+05 -1.377198E+06  1.169556E+05  3.966094E+04
        11   8 -3.649591E+06 -4.925664E+05 -3.099760E+05 -1.429047E+06  2.613248E+05  9.515059E+04
        11   9 -3.759451E+06 -1.050179E+06 -6.815115E+05 -1.284498E+06  4.050638E+05  1.523348E+05
        11  10 -3.368896E+06 -4.357531E+05 -1.090812E+05 -1.326048E+06 -2.061262E-09  1.433305E-10
        11  11 -3.324934E+06 -3.296565E+05 -2.134043E+05 -1.299923E+06 -2.633822E-09  2.847069E-09
        11  12 -3.565906E+06 -8.249641E+05 -5.980900E+05 -1.077467E+06 -1.054359E-09  1.653585E-10
        11  13 -3.596929E+06 -4.862226E+05 -1.642716E+05 -1.351627E+06 -2.101876E-10  5.089305E-10
        11  14 -3.487314E+06 -4.111297E+05 -2.617621E+05 -1.364504E+06  3.798135E-10  8.344842E-10
        11  15 -3.662782E+06 -9.376270E+05 -6.399788E+05 -1.181019E+06 -1.386954E-09  1.694597E-09
        11  16 -3.824910E+06 -5.366935E+05 -2.194647E+05 -1.377202E+06  6.596297E-10 -1.745730E-10
        11  17 -3.649668E+06 -4.925947E+05 -3.101223E+05 -1.429067E+06  2.307598E-09  1.285912E-09
        11  18 -3.759634E+06 -1.050249E+06 -6.818658E+05 -1.284548E+06 -4.927007E-10 -2.046274E-10
        11  19 -3.368880E+06 -4.357476E+05 -1.090524E+05 -1.326044E+06 -1.170622E+05 -3.968455E+04
        11  20 -3.324858E+06 -3.296284E+05 -2.132588E+05 -1.299903E+06 -2.606515E+05 -9.491650E+04
        11  21 -3.565724E+06 -8.248952E+05 -5.977383E+05 -1.077417E+06 -4.035772E+05 -1.518953E+05
        11  22 -3.596914E+06 -4.862172E+05 -1.642427E+05 -1.351623E+06 -1.170089E+05 -3.967274E+04
        11  23 -3.487238E+06 -4.111015E+05 -2.616161E+05 -1.364484E+06 -2.609882E+05 -9.503358E+04
        11  24 -3.662599E+06 -9.375578E+05 -6.396258E+05 -1.180969E+06 -4.043206E+05 -1.521152E+05
        11  25 -3.824895E+06 -5.366881E+05 -2.194359E+05 -1.377198E+06 -1.169556E+05 -3.966094E+04
        11  26 -3.649591E+06 -4.925664E+05 -3.099760E+05 -1.429047E+06 -2.613248E+05 -9.515059E+04
        11  27 -3.759451E+06 -1.050179E+06 -6.815115E+05 -1.284498E+06 -4.050638E+05 -1.523348E+05
        12   1  4.278438E+04 -2.578094E+05  4.595258E+04 -8.213921E+02  7.863156E+02 -3.155748E+02
        12   2  4.177559E+04 -2.597964E+05  4.617781E+04  8.225315E+02  8.197458E+02 -2.320888E+03
        12   3  4.430713E+04 -2.590755E+05  4.890685E+04 -8.485876E+02  7.109299E+02 -4.326427E+03
        12   4  2.576654E+02 -4.278825E+05  3.455440E+03 -7.376420E+02  7.863306E+02 -3.230097E+02
        12   5 -5.925453E+02 -4.292360E+05  3.840482E+03  9.215866E+02  8.197568E+02 -2.317607E+03
        12   6  2.096047E+03 -4.278833E+05  6.722282E+03 -7.342816E+02  7.109197E+02 -4.312432E+03
        12   7 -4.227123E+04 -5.979293E+05 -3.904389E+04 -6.539135E+02  7.863456E+02 -3.304425E+02
        12   8 -4.296285E+04 -5.986495E+05 -3.849901E+04  1.020621E+03  8.197678E+02 -2.314327E+03
        12   9 -4.011719E+04 -5.966654E+05 -3.546444E+04 -6.199961E+02  7.109095E+02 -4.298440E+03
        12  10  4.278438E+04 -2.578094E+05  4.595258E+04 -8.213919E+02  4.970250E-09  6.447554E-11
        12  11  4.177559E+04 -2.597964E+05  4.617780E+04  8.225330E+02 -1.407676E-09 -4.346705E-10
        12  12  4.430712E+04 -2.590755E+05  4.890682E+04 -8.485851E+02  1.525698E-09  5.793661E-10
        12  13  2.576647E+02 -4.278825E+05  3.455439E+03 -7.376418E+02  2.710168E-09 -6.565228E-11
        12  14 -5.925474E+02 -4.292360E+05  3.840470E+03  9.215882E+02  1.075901E-10  2.874705E-12
        12  15  2.096042E+03 -4.278834E+05  6.722246E+03 -7.342791E+02  2.441888E-09  3.114146E-10
        12  16 -4.227123E+04 -5.979293E+05 -3.904389E+04 -6.539133E+02  4.426907E-09 -6.079638E-11
        12  17 -4.296285E+04 -5.986495E+05 -3.849902E+04  1.020622E+03  5.864404E-10  3.050218E-10
        12  18 -4.011719E+04 -5.966654E+05 -3.546448E+04 -6.199936E+02  4.463543E-09 -5.791143E-10
        12  19  4.278438E+04 -2.578094E+05  4.595258E+04 -8.213921E+02 -7.863156E+02  3.155748E+02
        12  20  4.177559E+04 -2.597964E+05  4.617781E+04  8.225315E+02 -8.197458E+02  2.320888E+03
        12  21  4.430713E+04 -2.590755E+05  4.890685E+04 -8.485876E+02 -7.109299E+02  4.326427E+03
        12  22  2.576654E+02 -4.278825E+05  3.455440E+03 -7.376420E+02 -7.863306E+02  3.230097E+02
        12  23 -5.925453E+02 -4.292360E+05  3.840482E+03  9.215866E+02 -8.197568E+02  2.317607E+03
        12  24  2.096047E+03 -4.278833E+05  6.722282E+03 -7.342816E+02 -7.109197E+02  4.312432E+03
        12  25 -4.227123E+04 -5.979293E+05 -3.904389E+04 -6.539135E+02 -7.863456E+02  3.304425E+02
        12  26 -4.296285E+04 -5.986495E+05 -3.849901E+04  1.020621E+03 -8.197678E+02  2.314327E+03
        12  27 -4.011719E+04 -5.966654E+05 -3.546444E+04 -6.199961E+02 -7.109095E+02  4.298440E+03
        13   1  3.029557E+04 -3.043358E+05  3.874846E+04 -2.520797E+03  6.555036E+02 -5.672698E+03
        13   2  2.703245E+04 -3.092860E+05  4.271093E+04  2.420640E+03  6.135513E+02 -1.225409E+04
        13   3  4.318041E+04 -3.077813E+05  5.596167E+04 -1.593485E+03  4.798248E+02 -1.883583E+04
        13   4 -3.904247E+02 -4.270465E+05  8.088419E+03 -2.003217E+03  6.555057E+02 -5.671276E+03
        13   5 -3.220905E+03 -4.302732E+05  1.247943E+04  2.495037E+03  6.135386E+02 -1.224494E+04
        13   6  1.336031E+04 -4.270455E+05  2.615457E+04 -1.962380E+03  4.797986E+02 -1.881897E+04
        13   7 -3.107756E+04 -5.497435E+05 -2.257276E+04 -1.485732E+03  6.555078E+02 -5.669855E+03
        13   8 -3.347536E+04 -5.512472E+05 -1.775316E+04  2.569427E+03  6.135259E+02 -1.223579E+04
        13   9 -1.646086E+04 -5.462968E+05 -3.653603E+03 -2.331194E+03  4.797724E+02 -1.880212E+04
        13  10  3.029556E+04 -3.043359E+05  3.874840E+04 -2.520794E+03  2.602332E-09 -3.156726E-10
        13  11  2.703241E+04 -3.092861E+05  4.271064E+04  2.420646E+03  2.864867E-09 -1.402281E-09
        13  12  4.318032E+04 -3.077817E+05  5.596101E+04 -1.593478E+03 -1.523178E-09  1.076737E-09
        13  13 -3.904338E+02 -4.270465E+05  8.088358E+03 -2.003214E+03  2.102943E-09 -4.949530E-10
        13  14 -3.220946E+03 -4.302734E+05  1.247915E+04  2.495043E+03  5.054486E-09  3.837130E-11
        13  15  1.336022E+04 -4.270459E+05  2.615391E+04 -1.962372E+03  3.977544E-09  5.772843E-10
        13  16 -3.107757E+04 -5.497436E+05 -2.257282E+04 -1.485729E+03  1.793709E-09  3.001378E-10
        13  17 -3.347540E+04 -5.512473E+05 -1.775345E+04  2.569433E+03 -2.565307E-09  1.107553E-09
        13  18 -1.646095E+04 -5.462972E+05 -3.654268E+03 -2.331186E+03 -1.986720E-09 -1.161813E-09
        13  19  3.029557E+04 -3.043358E+05  3.874846E+04 -2.520797E+03 -6.555036E+02  5.672698E+03
        13  20  2.703245E+04 -3.092860E+05  4.271093E+04  2.420640E+03 -6.135513E+02  1.225409E+04
        13  21  4.318041E+04 -3.077813E+05  5.596167E+04 -1.593485E+03 -4.798248E+02  1.883583E+04
        13  22 -3.904247E+02 -4.270465E+05  8.088419E+03 -2.003217E+03 -6.555057E+02  5.671276E+03
        13  23 -3.220905E+03 -4.302732E+05  1.247943E+04  2.495037E+03 -6.135386E+02  1.224494E+04
        13  24  1.336031E+04 -4.270455E+05  2.615457E+04 -1.962380E+03 -4.797986E+02  1.881897E+04
        13  25 -3.107756E+04 -5.497435E+05 -2.257276E+04 -1.485732E+03 -6.555078E+02  5.669855E+03
        13  26 -3.347536E+04 -5.512472E+05 -1.775316E+04  2.569427E+03 -6.135259E+02  1.223579E+04
        13  27 -1.646086E+04 -5.462968E+05 -3.653603E+03 -2.331194E+03 -4.797724E+02  1.880212E+04
        14   1  7.373320E+03 -3.806068E+05  4.152213E+04 -4.953136E+03  3.943407E+02 -2.407250E+04
        14   2 -1.102072E+04 -4.000565E+05  5.716563E+04  4.308782E+03  3.457401E+02 -5.016225E+04
        14   3  9.433740E+04 -3.851845E+05  1.207389E+05  1.787865E+03  3.077013E+02 -7.625131E+04
        14   4 -2.707270E+03 -4.208533E+05  3.146756E+04 -2.722517E+03  3.942243E+02 -2.406159E+04
        14   5 -2.050180E+04 -4.380043E+05  4.768452E+04  3.323448E+03  3.457895E+02 -5.015074E+04
        14   6  8.545963E+04 -4.208319E+05  1.118328E+05 -2.413475E+03  3.081870E+02 -7.623929E+04
        14   7 -1.278796E+04 -4.610983E+05  2.141287E+04 -4.920423E+02  3.941079E+02 -2.405068E+04
        14   8 -2.998299E+04 -4.759508E+05  3.820331E+04  2.338175E+03  3.458388E+02 -5.013922E+04
        14   9  7.658182E+04 -4.564782E+05  1.029266E+05 -6.614572E+03  3.086726E+02 -7.622726E+04
        14  10  7.373164E+03 -3.806074E+05  4.152104E+04 -4.953128E+03 -1.551837E-10  4.097995E-10
        14  11 -1.102139E+04 -4.000592E+05  5.716090E+04  4.308796E+03  1.488064E-09 -1.878232E-09
        14  12  9.433584E+04 -3.851908E+05  1.207280E+05  1.787884E+03  6.140104E-10  4.751808E-10
        14  13 -2.707426E+03 -4.208539E+05  3.146647E+04 -2.722510E+03  3.430794E-09 -7.954114E-10
        14  14 -2.050248E+04 -4.380070E+05  4.767979E+04  3.323462E+03 -2.368858E-09  2.812704E-11
        14  15  8.545807E+04 -4.208382E+05  1.118219E+05 -2.413456E+03  1.501513E-09  7.000115E-10
        14  16 -1.278812E+04 -4.610990E+05  2.141178E+04 -4.920346E+02  1.580976E-10 -3.131924E-10
        14  17 -2.998366E+04 -4.759535E+05  3.819858E+04  2.338189E+03  3.997509E-09  1.386893E-09
        14  18  7.658026E+04 -4.564844E+05  1.029157E+05 -6.614553E+03  3.117929E-10 -5.880142E-10
        14  19  7.373320E+03 -3.806068E+05  4.152213E+04 -4.953136E+03 -3.943407E+02  2.407250E+04
        14  20 -1.102072E+04 -4.000565E+05  5.716563E+04  4.308782E+03 -3.457401E+02  5.016225E+04
        14  21  9.433740E+04 -3.851845E+05  1.207389E+05  1.787865E+03 -3.077013E+02  7.625131E+04
        14  22 -2.707270E+03 -4.208533E+05  3.146756E+04 -2.722517E+03 -3.942243E+02  2.406159E+04
        14  23 -2.050180E+04 -4.380043E+05  4.768452E+04  3.323448E+03 -3.457895E+02  5.015074E+04
        14  24  8.545963E+04 -4.208319E+05  1.118328E+05 -2.413475E+03 -3.081870E+02  7.623929E+04
        14  25 -1.278796E+04 -4.610983E+05  2.141287E+04 -4.920423E+02 -3.941079E+02  2.405068E+04
        14  26 -2.998299E+04 -4.759508E+05  3.820331E+04  2.338175E+03 -3.458388E+02  5.013922E+04
        14  27  7.658182E+04 -4.564782E+05  1.029266E+05 -6.614572E+03 -3.086726E+02  7.622726E+04
        15   1  1.322787E+05 -1.878549E+05  1.263357E+05 -1.199257E+02  1.970773E+04 -6.817626E+00
        15   2  1.321040E+05 -1.886117E+05  1.261972E+05 -2.802157E+01  1.968926E+04 -1.377153E+02
        15   3  1.320142E+05 -1.891031E+05  1.262139E+05 -3.370716E+02  1.960459E+04 -2.686785E+02
        15   4 -4.768059E+01 -7.230611E+05  1.679742E+02 -8.911161E+01  1.970888E+04 -1.557584E+01
        15   5 -6.697051E+01 -7.231902E+05  1.791516E+02  1.113923E+02  1.969040E+04 -1.066825E+02
        15   6 -8.247685E+00 -7.230609E+05  3.179514E+02 -8.907540E+01  1.960569E+04 -1.978543E+02
        15   7 -1.323945E+05 -1.258004E+06 -1.260195E+05 -5.831906E+01  1.971003E+04 -2.432654E+01
        15   8 -1.322584E+05 -1.257506E+06 -1.258586E+05  2.507082E+02  1.969153E+04 -7.567633E+01
        15   9 -1.320511E+05 -1.256756E+06 -1.255977E+05  1.587466E+02  1.960678E+04 -1.270907E+02
        15  10  1.322783E+05 -1.878550E+05  1.263349E+05 -1.199256E+02 -4.774402E-10 -6.721904E-10
        15  11  1.321036E+05 -1.886118E+05  1.261964E+05 -2.801938E+01  6.853848E-10 -6.946088E-10
        15  12  1.320138E+05 -1.891032E+05  1.262132E+05 -3.370674E+02 -1.141661E-10 -1.070683E-09
        15  13 -4.809757E+01 -7.230612E+05  1.672445E+02 -8.911136E+01 -4.040259E-10  4.486412E-11
        15  14 -6.738670E+01 -7.231903E+05  1.784233E+02  1.113940E+02 -3.077899E-09  1.650984E-11
        15  15 -8.660315E+00 -7.230610E+05  3.172293E+02 -8.907227E+01  2.598668E-09  3.319261E-10
        15  16 -1.323950E+05 -1.258004E+06 -1.260202E+05 -5.831867E+01  1.164243E-09  6.877007E-10
        15  17 -1.322588E+05 -1.257506E+06 -1.258593E+05  2.507094E+02  1.127876E-10  4.303553E-10
        15  18 -1.320515E+05 -1.256756E+06 -1.255984E+05  1.587486E+02 -8.382602E-10  1.197880E-09
        15  19  1.322787E+05 -1.878549E+05  1.263357E+05 -1.199257E+02 -1.970773E+04  6.817626E+00
        15  20  1.321040E+05 -1.886117E+05  1.261972E+05 -2.802157E+01 -1.968926E+04  1.377153E+02
        15  21  1.320142E+05 -1.891031E+05  1.262139E+05 -3.370716E+02 -1.960459E+04  2.686785E+02
        15  22 -4.768059E+01 -7.230611E+05  1.679742E+02 -8.911161E+01 -1.970888E+04  1.557584E+01
        15  23 -6.697051E+01 -7.231902E+05  1.791516E+02  1.113923E+02 -1.969040E+04  1.066825E+02
        15  24 -8.247685E+00 -7.230609E+05  3.179514E+02 -8.907540E+01 -1.960569E+04  1.978543E+02
        15  25 -1.323945E+05 -1.258004E+06 -1.260195E+05 -5.831906E+01 -1.971003E+04  2.432654E+01
        15  26 -1.322584E+05 -1.257506E+06 -1.258586E+05  2.507082E+02 -1.969153E+04  7.567633E+01
        15  27 -1.320511E+05 -1.256756E+06 -1.255977E+05  1.587466E+02 -1.960678E+04  1.270907E+02
        16   1  1.315955E+05 -1.904723E+05  1.259158E+05 -6.388346E+02  1.966596E+04 -1.226081E+02
        16   2  1.310890E+05 -1.925786E+05  1.257183E+05 -4.611953E+01  1.953140E+04 -8.820093E+02
        16   3  1.312144E+05 -1.942071E+05  1.262208E+05 -6.531050E+02  1.866279E+04 -1.642482E+03
        16   4 -7.198781E+01 -7.230288E+05  3.942252E+02 -2.667593E+02  1.966721E+04 -2.615392E+02
        16   5 -1.126004E+02 -7.232291E+05  6.204430E+02  3.334082E+02  1.953222E+04 -5.802929E+02
        16   6  4.024700E+02 -7.230280E+05  1.240666E+03 -2.661889E+02  1.866289E+04 -9.001205E+02
        16   7 -1.317598E+05 -1.255324E+06 -1.251469E+05  1.050453E+02  1.966846E+04 -4.003516E+02
        16   8 -1.313343E+05 -1.253620E+06 -1.244969E+05  7.126766E+02  1.953303E+04 -2.788329E+02
        16   9 -1.304295E+05 -1.251592E+06 -1.237589E+05  1.204797E+02  1.866299E+04 -1.583877E+02
        16  10  1.315951E+05 -1.904724E+05  1.259151E+05 -6.388327E+02  2.612809E-09 -7.041003E-09
        16  11  1.310886E+05 -1.925787E+05  1.257176E+05 -4.610566E+01  5.603279E-09 -1.580742E-10
        16  12  1.312141E+05 -1.942072E+05  1.262202E+05 -6.530803E+02  1.456041E-09  6.103970E-09
        16  13 -7.240304E+01 -7.230289E+05  3.934984E+02 -2.667552E+02 -1.142219E-11  8.667925E-10
        16  14 -1.130101E+02 -7.232292E+05  6.197257E+02  3.334173E+02  4.582448E-09 -3.411911E-11
        16  15  4.020959E+02 -7.230281E+05  1.240010E+03 -2.661753E+02  1.803172E-09  8.890836E-10
        16  16 -1.317602E+05 -1.255324E+06 -1.251476E+05  1.050516E+02 -6.950763E-10  6.973073E-09
        16  17 -1.313347E+05 -1.253620E+06 -1.244976E+05  7.126810E+02  1.648344E-09 -7.059533E-10
        16  18 -1.304299E+05 -1.251592E+06 -1.237595E+05  1.204820E+02 -3.954437E-10 -5.957003E-09
        16  19  1.315955E+05 -1.904723E+05  1.259158E+05 -6.388346E+02 -1.966596E+04  1.226081E+02
        16  20  1.310890E+05 -1.925786E+05  1.257183E+05 -4.611953E+01 -1.953140E+04  8.820093E+02
        16  21  1.312144E+05 -1.942071E+05  1.262208E+05 -6.531050E+02 -1.866279E+04  1.642482E+03
        16  22 -7.198781E+01 -7.230288E+05  3.942252E+02 -2.667593E+02 -1.966721E+04  2.615392E+02
        16  23 -1.126004E+02 -7.232291E+05  6.204430E+02  3.334082E+02 -1.953222E+04  5.802929E+02
        16  24  4.024700E+02 -7.230280E+05  1.240666E+03 -2.661889E+02 -1.866289E+04  9.001205E+02
        16  25 -1.317598E+05 -1.255324E+06 -1.251469E+05  1.050453E+02 -1.966846E+04  4.003516E+02
        16  26 -1.313343E+05 -1.253620E+06 -1.244969E+05  7.126766E+02 -1.953303E+04  2.788329E+02
        16  27 -1.304295E+05 -1.251592E+06 -1.237589E+05  1.204797E+02 -1.866299E+04  1.583877E+02
        17   1  1.297174E+05 -1.965710E+05  1.252410E+05 -1.784957E+03  2.015319E+04  1.725305E+03
        17   2  1.286135E+05 -2.010785E+05  1.256879E+05  5.068435E+02  1.900937E+04 -6.682925E+03
        17   3  1.345033E+05 -2.025352E+05  1.334023E+05  4.865595E+02  6.034443E+03 -1.511532E+04
        17   4 -3.110376E+02 -7.227127E+05  1.514227E+03 -5.165736E+02  2.015854E+04 -1.128980E+03
        17   5 -6.010491E+02 -7.236208E+05  2.409579E+03  6.444005E+02  1.900309E+04 -2.438129E+03
        17   6  4.872391E+03 -7.227100E+05  5.641928E+03 -5.069307E+02  6.012128E+03 -3.771549E+03
        17   7 -1.303592E+05 -1.248599E+06 -1.222316E+05  7.508215E+02  2.016389E+04 -3.980860E+03
        17   8 -1.298351E+05 -1.245912E+06 -1.208876E+05  7.819489E+02  1.899682E+04  1.803113E+03
        17   9 -1.247785E+05 -1.242638E+06 -1.221379E+05 -1.499464E+03  5.989768E+03  7.562730E+03
        17  10  1.297170E+05 -1.965711E+05  1.252403E+05 -1.784985E+03 -1.724932E-09  3.746986E-09
        17  11  1.286131E+05 -2.010786E+05  1.256872E+05  5.069458E+02  3.149519E-09  1.227396E-09
        17  12  1.345032E+05 -2.025355E+05  1.334018E+05  4.866330E+02 -4.373851E-09 -2.376101E-09
        17  13 -3.114742E+02 -7.227128E+05  1.513461E+03 -5.165553E+02  4.235922E-09  1.680102E-09
        17  14 -6.014383E+02 -7.236209E+05  2.408889E+03  6.444378E+02 -3.814125E-09  8.554357E-13
        17  15  4.872348E+03 -7.227100E+05  5.641833E+03 -5.069124E+02 -5.689314E-09  1.113828E-09
        17  16 -1.303597E+05 -1.248599E+06 -1.222324E+05  7.508862E+02 -6.927378E-10 -3.571682E-09
        17  17 -1.298355E+05 -1.245912E+06 -1.208882E+05  7.819213E+02  3.826025E-10 -2.590496E-09
        17  18 -1.247786E+05 -1.242638E+06 -1.221381E+05 -1.499501E+03 -3.167918E-09  2.628951E-09
        17  19  1.297174E+05 -1.965710E+05  1.252410E+05 -1.784957E+03 -2.015319E+04 -1.725305E+03
        17  20  1.286135E+05 -2.010785E+05  1.256879E+05  5.068435E+02 -1.900937E+04  6.682925E+03
        17  21  1.345033E+05 -2.025352E+05  1.334023E+05  4.865595E+02 -6.034443E+03  1.511532E+04
        17  22 -3.110376E+02 -7.227127E+05  1.514227E+03 -5.165736E+02 -2.015854E+04  1.128980E+03
        17  23 -6.010491E+02 -7.236208E+05  2.409579E+03  6.444005E+02 -1.900309E+04  2.438129E+03
        17  24  4.872391E+03 -7.227100E+05  5.641928E+03 -5.069307E+02 -6.012128E+03  3.771549E+03
        17  25 -1.303592E+05 -1.248599E+06 -1.222316E+05  7.508215E+02 -2.016389E+04  3.980860E+03
        17  26 -1.298351E+05 -1.245912E+06 -1.208876E+05  7.819489E+02 -1.899682E+04 -1.803113E+03
        17  27 -1.247785E+05 -1.242638E+06 -1.221379E+05 -1.499464E+03 -5.989768E+03 -7.562730E+03
        18   1  4.222874E+04  4.606139E+05  2.371831E+04 -1.041385E+00  1.482013E+04 -2.819687E-01
        18   2  4.222982E+04  4.606191E+05  2.372108E+04 -5.615241E+00  1.482035E+04 -4.021594E+00
        18   3  4.223114E+04  4.606267E+05  2.372696E+04 -9.841951E+00  1.482076E+04 -7.761246E+00
        18   4 -7.519477E+00  2.730629E+05  7.130767E+00  7.719355E-02  1.482060E+04 -6.053874E-01
        18   5 -7.986346E+00  2.730617E+05  8.646102E+00 -9.638170E-02  1.482082E+04 -4.777682E+00
        18   6 -8.130223E+00  2.730629E+05  1.356140E+01  7.733895E-02  1.482123E+04 -8.950010E+00
        18   7 -4.224522E+04  8.554809E+04 -2.370416E+04  1.195478E+00  1.482107E+04 -9.287132E-01
        18   8 -4.224722E+04  8.554038E+04 -2.370390E+04  5.420996E+00  1.482130E+04 -5.533553E+00
        18   9 -4.224884E+04  8.553527E+04 -2.369995E+04  9.993961E+00  1.482170E+04 -1.013843E+01
        18  10  4.222851E+04  4.606138E+05  2.371789E+04 -1.041381E+00  1.955935E-09 -6.971115E-08
        18  11  4.222958E+04  4.606190E+05  2.372067E+04 -5.615193E+00  6.033696E-10 -9.414461E-10
        18  12  4.223091E+04  4.606267E+05  2.372654E+04 -9.841859E+00  1.950485E-09  6.748054E-08
        18  13 -7.755373E+00  2.730629E+05  6.717948E+00  7.720087E-02 -2.395173E-09 -6.169155E-12
        18  14 -8.222249E+00  2.730616E+05  8.233271E+00 -9.632469E-02  2.218043E-09 -7.063715E-11
        18  15 -8.366140E+00  2.730629E+05  1.314855E+01  7.744567E-02 -2.493041E-09  6.596184E-11
        18  16 -4.224545E+04  8.554803E+04 -2.370457E+04  1.195489E+00 -3.981862E-09  6.968869E-08
        18  17 -4.224746E+04  8.554032E+04 -2.370431E+04  5.421062E+00  2.668484E-10  9.044835E-10
        18  18 -4.224907E+04  8.553521E+04 -2.370036E+04  9.994082E+00  8.481494E-10 -6.742277E-08
        18  19  4.222874E+04  4.606139E+05  2.371831E+04 -1.041385E+00 -1.482013E+04  2.819686E-01
        18  20  4.222982E+04  4.606191E+05  2.372108E+04 -5.615241E+00 -1.482035E+04  4.021594E+00
        18  21  4.223114E+04  4.606267E+05  2.372696E+04 -9.841952E+00 -1.482076E+04  7.761246E+00
        18  22 -7.519477E+00  2.730629E+05  7.130767E+00  7.719376E-02 -1.482060E+04  6.053874E-01
        18  23 -7.986346E+00  2.730617E+05  8.646102E+00 -9.638171E-02 -1.482082E+04  4.777682E+00
        18  24 -8.130223E+00  2.730629E+05  1.356140E+01  7.733872E-02 -1.482123E+04  8.950010E+00
        18  25 -4.224522E+04  8.554809E+04 -2.370416E+04  1.195478E+00 -1.482107E+04  9.287134E-01
        18  26 -4.224722E+04  8.554038E+04 -2.370390E+04  5.420996E+00 -1.482130E+04  5.533553E+00
        18  27 -4.224884E+04  8.553527E+04 -2.369995E+04  9.993960E+00 -1.482170E+04  1.013843E+01
        19   1  4.223268E+04  4.606349E+05  2.373212E+04 -1.178473E+01  1.482116E+04 -9.925779E+00
        19   2  4.223592E+04  4.606518E+05  2.374825E+04 -1.901391E+01  1.482146E+04 -2.636420E+01
        19   3  4.224013E+04  4.606731E+05  2.377592E+04 -2.327126E+01  1.482089E+04 -4.280263E+01
        19   4 -8.434935E+00  2.730632E+05  1.738288E+01  6.605954E-01  1.482163E+04 -1.167956E+01
        19   5 -9.824108E+00  2.730613E+05  2.925811E+01 -8.253476E-01  1.482193E+04 -2.603817E+01
        19   6 -1.061146E+01  2.730632E+05  5.123285E+01  6.605890E-01  1.482137E+04 -4.039680E+01
        19   7 -4.225098E+04  8.552770E+04 -2.369747E+04  1.310257E+01  1.482210E+04 -1.343284E+01
        19   8 -4.225700E+04  8.550685E+04 -2.368985E+04  1.735825E+01  1.482240E+04 -2.571224E+01
        19   9 -4.226278E+04  8.548955E+04 -2.367357E+04  2.458587E+01  1.482184E+04 -3.799166E+01
        19  10  4.223244E+04  4.606348E+05  2.373171E+04 -1.178461E+01  5.146334E-10 -3.014009E-10
        19  11  4.223569E+04  4.606518E+05  2.374784E+04 -1.901359E+01 -1.950521E-10 -9.332217E-10
        19  12  4.223989E+04  4.606730E+05  2.377551E+04 -2.327075E+01  1.631698E-09 -1.055593E-09
        19  13 -8.670864E+00  2.730632E+05  1.697001E+01  6.607348E-01  4.807846E-10  8.190321E-11
        19  14 -1.006005E+01  2.730612E+05  2.884521E+01 -8.250368E-01  1.425723E-09 -2.208221E-10
        19  15 -1.084738E+01  2.730632E+05  5.081999E+01  6.610711E-01  1.149450E-09  1.754714E-10
        19  16 -4.225122E+04  8.552765E+04 -2.369788E+04  1.310273E+01 -1.114825E-09  1.808894E-10
        19  17 -4.225724E+04  8.550679E+04 -2.369026E+04  1.735856E+01  1.622856E-09  8.440047E-10
        19  18 -4.226302E+04  8.548949E+04 -2.367398E+04  2.458632E+01  3.075579E-10  1.137634E-09
        19  19  4.223268E+04  4.606349E+05  2.373212E+04 -1.178473E+01 -1.482116E+04  9.925779E+00
        19  20  4.223592E+04  4.606518E+05  2.374825E+04 -1.901391E+01 -1.482146E+04  2.636420E+01
        19  21  4.224013E+04  4.606731E+05  2.377592E+04 -2.327126E+01 -1.482089E+04  4.280263E+01
        19  22 -8.434935E+00  2.730632E+05  1.738288E+01  6.605954E-01 -1.482163E+04  1.167956E+01
        19  23 -9.824108E+00  2.730613E+05  2.925811E+01 -8.253476E-01 -1.482193E+04  2.603817E+01
        19  24 -1.061146E+01  2.730632E+05  5.123285E+01  6.605890E-01 -1.482137E+04  4.039680E+01
        19  25 -4.225098E+04  8.552770E+04 -2.369747E+04  1.310257E+01 -1.482210E+04  1.343284E+01
        19  26 -4.225700E+04  8.550685E+04 -2.368985E+04  1.735825E+01 -1.482240E+04  2.571224E+01
        19  27 -4.226278E+04  8.548955E+04 -2.367357E+04  2.458587E+01 -1.482184E+04  3.799166E+01
        20   1  4.224348E+04  4.606910E+05  2.379671E+04 -2.692852E+01  1.482064E+04 -5.351074E+01
        20   2  4.225074E+04  4.607155E+05  2.386251E+04 -3.714750E+01  1.481526E+04 -1.325220E+02
        20   3  4.226764E+04  4.607546E+05  2.398274E+04 -4.235945E+01  1.480114E+04 -2.115339E+02
        20   4 -1.143524E+01  2.730648E+05  6.752871E+01  1.112585E+00  1.482111E+04 -5.104166E+01
        20   5 -1.335463E+01  2.730593E+05  1.174059E+02 -1.390692E+00  1.481573E+04 -1.090490E+02
        20   6 -9.283400E+00  2.730648E+05  2.071375E+02  1.112952E+00  1.480160E+04 -1.670572E+02
        20   7 -4.226779E+04  8.547472E+04 -2.366177E+04  2.914593E+01  1.482159E+04 -4.857329E+01
        20   8 -4.227889E+04  8.543927E+04 -2.362782E+04  3.435612E+01  1.481620E+04 -8.558270E+01
        20   9 -4.228764E+04  8.541113E+04 -2.356858E+04  4.457311E+01  1.480206E+04 -1.225933E+02
        20  10  4.224325E+04  4.606910E+05  2.379630E+04 -2.692788E+01  6.153431E-10 -1.158016E-09
        20  11  4.225051E+04  4.607155E+05  2.386210E+04 -3.714592E+01 -5.769657E-10 -3.384955E-09
        20  12  4.226740E+04  4.607545E+05  2.398233E+04 -4.235693E+01 -2.806635E-10 -5.134545E-09
        20  13 -1.167116E+01  2.730647E+05  6.711586E+01  1.113195E+00  2.207977E-09  1.202092E-10
        20  14 -1.359038E+01  2.730593E+05  1.169934E+02 -1.389391E+00  4.003310E-09 -3.095212E-10
        20  15 -9.518699E+00  2.730647E+05  2.067257E+02  1.114943E+00 -2.428156E-09  2.483214E-10
        20  16 -4.226802E+04  8.547466E+04 -2.366218E+04  2.914651E+01  7.341719E-11  9.638227E-10
        20  17 -4.227912E+04  8.543921E+04 -2.362823E+04  3.435714E+01 -2.246092E-09  3.282518E-09
        20  18 -4.228788E+04  8.541107E+04 -2.356899E+04  4.457457E+01 -2.057719E-09  5.256729E-09
        20  19  4.224348E+04  4.606910E+05  2.379671E+04 -2.692852E+01 -1.482064E+04  5.351074E+01
        20  20  4.225074E+04  4.607155E+05  2.386251E+04 -3.714750E+01 -1.481526E+04  1.325220E+02
        20  21  4.226764E+04  4.607546E+05  2.398274E+04 -4.235945E+01 -1.480114E+04  2.115339E+02
        20  22 -1.143524E+01  2.730648E+05  6.752871E+01  1.112585E+00 -1.482111E+04  5.104166E+01
        20  23 -1.335463E+01  2.730593E+05  1.174059E+02 -1.390692E+00 -1.481573E+04  1.090490E+02
        20  24 -9.283400E+00  2.730648E+05  2.071375E+02  1.112952E+00 -1.480160E+04  1.670572E+02
        20  25 -4.226779E+04  8.547472E+04 -2.366177E+04  2.914593E+01 -1.482159E+04  4.857329E+01
        20  26 -4.227889E+04  8.543927E+04 -2.362782E+04  3.435612E+01 -1.481620E+04  8.558270E+01
        20  27 -4.228764E+04  8.541113E+04 -2.356858E+04  4.457311E+01 -1.480206E+04  1.225933E+02
        21   1 -1.130493E+06 -3.621814E+04 -4.529541E+04  6.289382E+03 -2.597992E+04 -9.545710E+01
        21   2 -1.130934E+06 -1.838633E+03 -2.502723E+04 -9.393102E+03 -1.711474E+04  7.003221E+01
        21   3 -1.143273E+06 -9.578121E+03 -2.110999E+04  8.364015E+03 -8.250233E+03  4.673071E+02
        21   4 -1.101729E+06 -2.900516E+04 -3.809259E+04  7.829530E+03 -2.597947E+04 -9.551694E+01
        21   5 -1.095769E+06  6.965648E+03 -1.623030E+04 -8.941416E+03 -1.709729E+04  7.007924E+01
        21   6 -1.101709E+06  8.157422E+02 -1.073024E+04  7.727105E+03 -8.215681E+03  4.674241E+02
        21   7 -1.072965E+06 -2.179224E+04 -3.088983E+04  9.369749E+03 -2.597901E+04 -9.557679E+01
        21   8 -1.060603E+06  1.576984E+04 -7.433465E+03 -8.489705E+03 -1.707983E+04  7.012630E+01
        21   9 -1.060144E+06  1.120948E+04 -3.506214E+02  7.090151E+03 -8.181127E+03  4.675410E+02
        21  10 -1.130494E+06 -3.621832E+04 -4.529668E+04  6.289380E+03  1.944356E-09  7.550309E-11
        21  11 -1.130934E+06 -1.838712E+03 -2.502778E+04 -9.393101E+03  1.285159E-09 -5.437966E-10
        21  12 -1.143273E+06 -9.578140E+03 -2.111012E+04  8.364018E+03 -2.648585E-09  1.457833E-09
        21  13 -1.101730E+06 -2.900534E+04 -3.809386E+04  7.829528E+03 -2.110811E-09 -3.155979E-11
        21  14 -1.095769E+06  6.965569E+03 -1.623085E+04 -8.941415E+03 -6.602010E-12  2.479386E-10
        21  15 -1.101709E+06  8.157238E+02 -1.073037E+04  7.727108E+03 -1.371586E-09  2.753242E-10
        21  16 -1.072966E+06 -2.179242E+04 -3.089110E+04  9.369747E+03  5.616972E-10 -4.361700E-10
        21  17 -1.060603E+06  1.576976E+04 -7.434015E+03 -8.489704E+03  2.065293E-09  5.737864E-10
        21  18 -1.060144E+06  1.120946E+04 -3.507478E+02  7.090154E+03 -2.091878E-09  3.845570E-10
        21  19 -1.130493E+06 -3.621814E+04 -4.529541E+04  6.289382E+03  2.597992E+04  9.545710E+01
        21  20 -1.130934E+06 -1.838633E+03 -2.502723E+04 -9.393102E+03  1.711474E+04 -7.003221E+01
        21  21 -1.143273E+06 -9.578121E+03 -2.110999E+04  8.364015E+03  8.250233E+03 -4.673071E+02
        21  22 -1.101729E+06 -2.900516E+04 -3.809259E+04  7.829530E+03  2.597947E+04  9.551694E+01
        21  23 -1.095769E+06  6.965648E+03 -1.623030E+04 -8.941416E+03  1.709729E+04 -7.007924E+01
        21  24 -1.101709E+06  8.157422E+02 -1.073024E+04  7.727105E+03  8.215681E+03 -4.674241E+02
        21  25 -1.072965E+06 -2.179224E+04 -3.088983E+04  9.369749E+03  2.597901E+04  9.557679E+01
        21  26 -1.060603E+06  1.576984E+04 -7.433465E+03 -8.489705E+03  1.707983E+04 -7.012630E+01
        21  27 -1.060144E+06  1.120948E+04 -3.506214E+02  7.090151E+03  8.181127E+03 -4.675410E+02
        22   1 -1.344455E+06 -6.585028E+04 -7.014228E+04  3.811451E+03 -6.518444E+03  8.216369E+02
        22   2 -1.348809E+06 -6.137692E+04 -6.675321E+04 -5.322090E+03 -4.244664E+03  1.231270E+03
        22   3 -1.351722E+06 -6.322022E+04 -6.576133E+04  4.553533E+03 -1.969729E+03  1.212455E+03
        22   4 -1.098766E+06 -4.348344E+03 -8.674508E+03  4.563294E+03 -6.475834E+03  8.217331E+02
        22   5 -1.099482E+06  1.029541E+03 -4.393803E+03 -4.947144E+03 -4.232075E+03  1.231261E+03
        22   6 -1.098750E+06  9.795992E+01 -2.488499E+03  4.551108E+03 -1.987146E+03  1.212412E+03
        22   7 -8.530223E+05  5.714902E+04  5.278870E+04  5.315395E+03 -6.433207E+03  8.218294E+02
        22   8 -8.500986E+05  6.343130E+04  5.796090E+04 -4.572071E+03 -4.219479E+03  1.231251E+03
        22   9 -8.457204E+05  6.341130E+04  6.077949E+04  4.548671E+03 -2.004571E+03  1.212369E+03
        22  10 -1.344455E+06 -6.585029E+04 -7.014236E+04  3.811456E+03 -7.484994E-10  6.134790E-10
        22  11 -1.348809E+06 -6.137693E+04 -6.675325E+04 -5.322086E+03 -9.405485E-11 -5.505554E-10
        22  12 -1.351722E+06 -6.322022E+04 -6.576134E+04  4.553535E+03  2.873573E-10 -1.332750E-10
        22  13 -1.098766E+06 -4.348356E+03 -8.674589E+03  4.563298E+03 -2.162593E-09 -1.951435E-10
        22  14 -1.099482E+06  1.029535E+03 -4.393840E+03 -4.947140E+03  2.215286E-09 -1.259651E-11
        22  15 -1.098750E+06  9.795728E+01 -2.488509E+03  4.551109E+03 -1.969162E-09  6.189930E-12
        22  16 -8.530224E+05  5.714901E+04  5.278862E+04  5.315400E+03  1.591069E-09 -3.338614E-10
        22  17 -8.500986E+05  6.343129E+04  5.796087E+04 -4.572067E+03 -8.374603E-10 -1.863253E-10
        22  18 -8.457204E+05  6.341130E+04  6.077948E+04  4.548673E+03 -1.988890E-09 -8.591195E-10
        22  19 -1.344455E+06 -6.585028E+04 -7.014228E+04  3.811451E+03  6.518444E+03 -8.216369E+02
        22  20 -1.348809E+06 -6.137692E+04 -6.675321E+04 -5.322090E+03  4.244664E+03 -1.231270E+03
        22  21 -1.351722E+06 -6.322022E+04 -6.576133E+04  4.553533E+03  1.969729E+03 -1.212455E+03
        22  22 -1.098766E+06 -4.348344E+03 -8.674508E+03  4.563294E+03  6.475834E+03 -8.217331E+02
        22  23 -1.099482E+06  1.029541E+03 -4.393803E+03 -4.947144E+03  4.232075E+03 -1.231261E+03
        22  24 -1.098750E+06  9.795992E+01 -2.488499E+03  4.551108E+03  1.987146E+03 -1.212412E+03
        22  25 -8.530223E+05  5.714902E+04  5.278870E+04  5.315395E+03  6.433207E+03 -8.218294E+02
        22  26 -8.500986E+05  6.343130E+04  5.796090E+04 -4.572071E+03  4.219479E+03 -1.231251E+03
        22  27 -8.457204E+05  6.341130E+04  6.077949E+04  4.548671E+03  2.004571E+03 -1.212369E+03
        23   1 -1.392532E+06 -7.433605E+04 -7.553926E+04 -1.587542E+03 -1.672012E+03  1.282570E+03
        23   2 -1.393140E+06 -7.321218E+04 -7.459033E+04  2.907946E+03 -1.029520E+03  1.464401E+03
        23   3 -1.389321E+06 -7.270943E+04 -7.327971E+04 -9.529980E+02 -3.879484E+02  1.096189E+03
        23   4 -1.098094E+06 -6.357113E+02 -1.886991E+03 -1.526450E+03 -1.639709E+03  1.282532E+03
        23   5 -1.100314E+06  8.335794E+01 -1.349919E+03  2.651886E+03 -1.036500E+03  1.464366E+03
        23   6 -1.098099E+06  1.892822E+02 -4.235499E+02 -1.525955E+03 -4.342124E+02  1.096270E+03
        23   7 -8.035772E+05  7.305806E+04  7.175872E+04 -1.465329E+03 -1.607391E+03  1.282495E+03
        23   8 -8.074100E+05  7.337240E+04  7.188400E+04  2.395727E+03 -1.043484E+03  1.464331E+03
        23   9 -8.067994E+05  7.308158E+04  7.242620E+04 -2.099134E+03 -4.804980E+02  1.096350E+03
        23  10 -1.392532E+06 -7.433605E+04 -7.553927E+04 -1.587541E+03  5.071529E-10 -2.625712E-10
        23  11 -1.393140E+06 -7.321218E+04 -7.459033E+04  2.907947E+03  6.242136E-10  2.996773E-10
        23  12 -1.389321E+06 -7.270943E+04 -7.327972E+04 -9.529977E+02 -1.866336E-09 -1.097116E-10
        23  13 -1.098094E+06 -6.357138E+02 -1.886999E+03 -1.526448E+03 -4.297883E-09 -3.255130E-10
        23  14 -1.100314E+06  8.335535E+01 -1.349925E+03  2.651887E+03  8.105480E-14 -2.016659E-10
        23  15 -1.098099E+06  1.892808E+02 -4.235525E+02 -1.525955E+03  2.429193E-10  3.135364E-10
        23  16 -8.035772E+05  7.305806E+04  7.175871E+04 -1.465327E+03 -1.614323E-09 -7.912155E-11
        23  17 -8.074100E+05  7.337240E+04  7.188400E+04  2.395729E+03 -1.773901E-09 -4.377212E-10
        23  18 -8.067994E+05  7.308158E+04  7.242619E+04 -2.099134E+03  1.844724E-09 -3.902095E-10
        23  19 -1.392532E+06 -7.433605E+04 -7.553926E+04 -1.587542E+03  1.672012E+03 -1.282570E+03
        23  20 -1.393140E+06 -7.321218E+04 -7.459033E+04  2.907946E+03  1.029520E+03 -1.464401E+03
        23  21 -1.389321E+06 -7.270943E+04 -7.327971E+04 -9.529980E+02  3.879484E+02 -1.096189E+03
        23  22 -1.098094E+06 -6.357113E+02 -1.886991E+03 -1.526450E+03  1.639709E+03 -1.282532E+03
        23  23 -1.100314E+06  8.335794E+01 -1.349919E+03  2.651886E+03  1.036500E+03 -1.464366E+03
        23  24 -1.098099E+06  1.892822E+02 -4.235499E+02 -1.525955E+03  4.342124E+02 -1.096270E+03
        23  25 -8.035772E+05  7.305806E+04  7.175872E+04 -1.465329E+03  1.607391E+03 -1.282495E+03
        23  26 -8.074100E+05  7.337240E+04  7.188400E+04  2.395727E+03  1.043484E+03 -1.464331E+03
        23  27 -8.067994E+05  7.308158E+04  7.242620E+04 -2.099134E+03  4.804980E+02 -1.096350E+03
        24   1 -1.240585E+06 -3.567694E+04 -3.595335E+04 -6.035932E+03 -3.783634E+02  8.773722E+02
        24   2 -1.235181E+06 -3.400139E+04 -3.435694E+04  9.015474E+03 -1.888810E+02  6.802411E+02
        24   3 -1.229108E+06 -3.253434E+04 -3.278692E+04 -5.913730E+03 -7.056227E-01  2.255948E+02
        24   4 -1.098914E+06 -2.201849E+02 -5.302773E+02 -6.332281E+03 -3.832978E+02  8.773743E+02
        24   5 -1.099256E+06  1.943121E+01 -3.628539E+02  8.658200E+03 -2.122940E+02  6.803145E+02
        24   6 -1.098925E+06  5.387590E+01 -2.089444E+02 -6.331523E+03 -4.259902E+01  2.257644E+02
        24   7 -9.572250E+05  3.523505E+04  3.489128E+04 -6.628684E+03 -3.882333E+02  8.773765E+02
        24   8 -9.633133E+05  3.403885E+04  3.362984E+04  8.300862E+03 -2.357120E+02  6.803880E+02
        24   9 -9.687261E+05  3.264081E+04  3.236775E+04 -6.749387E+03 -8.450122E+01  2.259341E+02
        24  10 -1.240585E+06 -3.567694E+04 -3.595335E+04 -6.035932E+03 -1.554796E-09  3.233574E-10
        24  11 -1.235181E+06 -3.400139E+04 -3.435694E+04  9.015475E+03  1.901084E-09  6.551510E-10
        24  12 -1.229108E+06 -3.253434E+04 -3.278692E+04 -5.913730E+03 -1.849164E-09 -1.178585E-09
        24  13 -1.098914E+06 -2.201858E+02 -5.302791E+02 -6.332281E+03  1.970013E-12 -5.480676E-11
        24  14 -1.099256E+06  1.943070E+01 -3.628548E+02  8.658200E+03  5.642443E-11  1.402206E-09
        24  15 -1.098925E+06  5.387585E+01 -2.089445E+02 -6.331523E+03  2.767822E-09  5.708069E-10
        24  16 -9.572250E+05  3.523505E+04  3.489128E+04 -6.628684E+03  2.847345E-09 -1.535936E-10
        24  17 -9.633133E+05  3.403885E+04  3.362984E+04  8.300862E+03 -2.573708E-10 -1.998209E-10
        24  18 -9.687261E+05  3.264081E+04  3.236775E+04 -6.749387E+03  2.026254E-09  1.930219E-10
        24  19 -1.240585E+06 -3.567694E+04 -3.595335E+04 -6.035932E+03  3.783634E+02 -8.773722E+02
        24  20 -1.235181E+06 -3.400139E+04 -3.435694E+04  9.015474E+03  1.888810E+02 -6.802411E+02
        24  21 -1.229108E+06 -3.253434E+04 -3.278692E+04 -5.913730E+03  7.056227E-01 -2.255948E+02
        24  22 -1.098914E+06 -2.201849E+02 -5.302773E+02 -6.332281E+03  3.832978E+02 -8.773743E+02
        24  23 -1.099256E+06  1.943121E+01 -3.628539E+02  8.658200E+03  2.122940E+02 -6.803145E+02
        24  24 -1.098925E+06  5.387590E+01 -2.089444E+02 -6.331523E+03  4.259902E+01 -2.257644E+02
        24  25 -9.572250E+05  3.523505E+04  3.489128E+04 -6.628684E+03  3.882333E+02 -8.773765E+02
        24  26 -9.633133E+05  3.403885E+04  3.362984E+04  8.300862E+03  2.357120E+02 -6.803880E+02
        24  27 -9.687261E+05  3.264081E+04  3.236775E+04 -6.749387E+03  8.450122E+01 -2.259341E+02
        25   1 -9.908903E+05  2.708266E+04  2.683301E+04 -6.926799E+03  2.352614E+01 -1.250908E+02
        25   2 -9.851077E+05  2.856239E+04  2.823285E+04  8.654021E+03  1.460569E+02 -5.707472E+02
        25   3 -9.789637E+05  2.984150E+04  2.958728E+04 -6.845914E+03  2.697277E+02 -8.002043E+02
        25   4 -1.098993E+06  2.498454E+01 -2.184685E+02 -6.576260E+03 -1.625780E+01 -1.249271E+02
        25   5 -1.099169E+06  1.831258E+01 -2.887277E+02  8.964009E+03  1.217989E+02 -5.706651E+02
        25   6 -1.098985E+06 -1.917655E+02 -4.152154E+02 -6.576837E+03  2.609944E+02 -8.001861E+02
        25   7 -1.207086E+06 -2.703358E+04 -2.727083E+04 -6.225770E+03 -5.603479E+01 -1.247635E+02
        25   8 -1.213218E+06 -2.852675E+04 -2.881129E+04  9.273950E+03  9.754533E+01 -5.705830E+02
        25   9 -1.218994E+06 -3.022612E+04 -3.041880E+04 -6.307801E+03  2.522629E+02 -8.001680E+02
        25  10 -9.908903E+05  2.708266E+04  2.683301E+04 -6.926799E+03 -7.583802E-10 -5.846979E-10
        25  11 -9.851077E+05  2.856239E+04  2.823285E+04  8.654021E+03  1.158857E-09  3.184454E-10
        25  12 -9.789638E+05  2.984150E+04  2.958728E+04 -6.845914E+03 -2.756856E-09  5.574243E-10
        25  13 -1.098993E+06  2.498453E+01 -2.184686E+02 -6.576260E+03  4.405795E-09  7.941543E-10
        25  14 -1.099169E+06  1.831223E+01 -2.887284E+02  8.964009E+03  5.075611E-11  5.070638E-10
        25  15 -1.098985E+06 -1.917662E+02 -4.152168E+02 -6.576837E+03 -2.543192E-09  6.836866E-10
        25  16 -1.207086E+06 -2.703358E+04 -2.727083E+04 -6.225770E+03  1.132871E-09 -1.090263E-09
        25  17 -1.213218E+06 -2.852675E+04 -2.881129E+04  9.273950E+03 -4.617459E-10 -6.875081E-10
        25  18 -1.218994E+06 -3.022612E+04 -3.041880E+04 -6.307801E+03  1.495343E-09 -7.499269E-10
        25  19 -9.908903E+05  2.708266E+04  2.683301E+04 -6.926799E+03 -2.352614E+01  1.250908E+02
        25  20 -9.851077E+05  2.856239E+04  2.823285E+04  8.654021E+03 -1.460569E+02  5.707472E+02
        25  21 -9.789637E+05  2.984150E+04  2.958728E+04 -6.845914E+03 -2.697277E+02  8.002043E+02
        25  22 -1.098993E+06  2.498454E+01 -2.184685E+02 -6.576260E+03  1.625780E+01  1.249271E+02
        25  23 -1.099169E+06  1.831258E+01 -2.887277E+02  8.964009E+03 -1.217989E+02  5.706651E+02
        25  24 -1.098985E+06 -1.917655E+02 -4.152154E+02 -6.576837E+03 -2.609944E+02  8.001861E+02
        25  25 -1.207086E+06 -2.703358E+04 -2.727083E+04 -6.225770E+03  5.603479E+01  1.247635E+02
        25  26 -1.213218E+06 -2.852675E+04 -2.881129E+04  9.273950E+03 -9.754533E+01  5.705830E+02
        25  27 -1.218994E+06 -3.022612E+04 -3.041880E+04 -6.307801E+03 -2.522629E+02  8.001680E+02
        26   1 -8.142208E+05  7.123241E+04  7.074225E+04 -2.701260E+03  3.371168E+02 -1.040547E+03
        26   2 -8.142766E+05  7.160112E+04  7.046397E+04  3.052479E+03  7.475881E+02 -1.429997E+03
        26   3 -8.100384E+05  7.162352E+04  7.071969E+04 -2.109648E+03  1.159164E+03 -1.281012E+03
        26   4 -1.098134E+06  1.875785E+02 -2.618889E+02 -2.094787E+03  2.897256E+02 -1.040449E+03
        26   5 -1.100272E+06  4.022269E+01 -1.042934E+03  3.362948E+03  7.387486E+02 -1.430026E+03
        26   6 -1.098124E+06 -4.611521E+02 -1.316989E+03 -2.095486E+03  1.188875E+03 -1.281057E+03
        26   7 -1.381973E+06 -7.086335E+04 -7.127212E+04 -1.488544E+03  2.423561E+02 -1.040352E+03
        26   8 -1.386193E+06 -7.152687E+04 -7.255602E+04  3.673302E+03  7.299131E+02 -1.430054E+03
        26   9 -1.386135E+06 -7.255210E+04 -7.335994E+04 -2.081326E+03  1.218571E+03 -1.281103E+03
        26  10 -8.142209E+05  7.123241E+04  7.074224E+04 -2.701259E+03 -3.004306E-09 -1.001981E-09
        26  11 -8.142766E+05  7.160112E+04  7.046396E+04  3.052480E+03 -3.836961E-10 -4.971842E-10
        26  12 -8.100384E+05  7.162352E+04  7.071969E+04 -2.109647E+03 -2.725270E-09  9.504525E-10
        26  13 -1.098134E+06  1.875773E+02 -2.618911E+02 -2.094787E+03 -4.506662E-09 -9.683668E-10
        26  14 -1.100272E+06  4.022035E+01 -1.042939E+03  3.362949E+03 -1.007610E-10 -3.654683E-10
        26  15 -1.098124E+06 -4.611542E+02 -1.316994E+03 -2.095485E+03 -4.931420E-09  5.910858E-10
        26  16 -1.381973E+06 -7.086335E+04 -7.127212E+04 -1.488543E+03 -2.212308E-09 -1.983481E-10
        26  17 -1.386193E+06 -7.152687E+04 -7.255602E+04  3.673303E+03 -4.082386E-09  6.129245E-11
        26  18 -1.386135E+06 -7.255210E+04 -7.335995E+04 -2.081324E+03 -1.282086E-09  1.064249E-09
        26  19 -8.142208E+05  7.123241E+04  7.074225E+04 -2.701260E+03 -3.371168E+02  1.040547E+03
        26  20 -8.142766E+05  7.160112E+04  7.046397E+04  3.052479E+03 -7.475881E+02  1.429997E+03
        26  21 -8.100384E+05  7.162352E+04  7.071969E+04 -2.109648E+03 -1.159164E+03  1.281012E+03
        26  22 -1.098134E+06  1.875785E+02 -2.618889E+02 -2.094787E+03 -2.897256E+02  1.040449E+03
        26  23 -1.100272E+06  4.022269E+01 -1.042934E+03  3.362948E+03 -7.387486E+02  1.430026E+03
        26  24 -1.098124E+06 -4.611521E+02 -1.316989E+03 -2.095486E+03 -1.188875E+03  1.281057E+03
        26  25 -1.381973E+06 -7.086335E+04 -7.127212E+04 -1.488544E+03 -2.423561E+02  1.040352E+03
        26  26 -1.386193E+06 -7.152687E+04 -7.255602E+04  3.673302E+03 -7.299131E+02  1.430054E+03
        26  27 -1.386135E+06 -7.255210E+04 -7.335994E+04 -2.081326E+03 -1.218571E+03  1.281103E+03
        27   1 -8.331577E+05  6.648761E+04  6.462336E+04  4.025995E+03  1.436978E+03 -1.240929E+03
        27   2 -8.375601E+05  6.632204E+04  6.231029E+04 -3.989882E+03  3.036493E+03 -1.300105E+03
        27   3 -8.395796E+05  6.173440E+04  5.859048E+04  4.740831E+03  4.634931E+03 -8.950634E+02
        27   4 -1.098544E+06  8.259409E+01 -1.735208E+03  4.049789E+03  1.415568E+03 -1.240971E+03
        27   5 -1.099739E+06  7.194235E+02 -3.242963E+03 -4.319696E+03  3.047872E+03 -1.300123E+03
        27   6 -1.098558E+06 -3.073213E+03 -6.180947E+03  4.057842E+03  4.679108E+03 -8.949729E+02
        27   7 -1.363866E+06 -6.632775E+04 -6.809910E+04  4.073567E+03  1.394167E+03 -1.241013E+03
        27   8 -1.361855E+06 -6.488839E+04 -6.880141E+04 -4.649394E+03  3.059246E+03 -1.300140E+03
        27   9 -1.357475E+06 -6.788590E+04 -7.095745E+04  3.375099E+03  4.723266E+03 -8.948826E+02
        27  10 -8.331577E+05  6.648761E+04  6.462335E+04  4.025996E+03 -3.777617E-09  7.936364E-10
        27  11 -8.375601E+05  6.632204E+04  6.231027E+04 -3.989879E+03 -3.798555E-09  1.943742E-10
        27  12 -8.395796E+05  6.173439E+04  5.859044E+04  4.740834E+03  4.931589E-10  7.127953E-10
        27  13 -1.098544E+06  8.259190E+01 -1.735214E+03  4.049791E+03 -2.086637E-09  3.829642E-10
        27  14 -1.099739E+06  7.194192E+02 -3.242984E+03 -4.319693E+03 -4.878376E-11  5.890790E-10
        27  15 -1.098558E+06 -3.073220E+03 -6.180989E+03  4.057846E+03  3.662629E-11  6.823257E-10
        27  16 -1.363866E+06 -6.632775E+04 -6.809910E+04  4.073568E+03  1.606054E-09 -8.667513E-11
        27  17 -1.361855E+06 -6.488840E+04 -6.880143E+04 -4.649391E+03  1.385320E-09 -1.547688E-09
        27  18 -1.357475E+06 -6.788591E+04 -7.095749E+04  3.375102E+03 -7.793537E-10  4.218698E-10
        27  19 -8.331577E+05  6.648761E+04  6.462336E+04  4.025995E+03 -1.436978E+03  1.240929E+03
        27  20 -8.375601E+05  6.632204E+04  6.231029E+04 -3.989882E+03 -3.036493E+03  1.300105E+03
        27  21 -8.395796E+05  6.173440E+04  5.859048E+04  4.740831E+03 -4.634931E+03  8.950634E+02
        27  22 -1.098544E+06  8.259409E+01 -1.735208E+03  4.049789E+03 -1.415568E+03  1.240971E+03
        27  23 -1.099739E+06  7.194235E+02 -3.242963E+03 -4.319696E+03 -3.047872E+03  1.300123E+03
        27  24 -1.098558E+06 -3.073213E+03 -6.180947E+03  4.057842E+03 -4.679108E+03  8.949729E+02
        27  25 -1.363866E+06 -6.632775E+04 -6.809910E+04  4.073567E+03 -1.394167E+03  1.241013E+03
        27  26 -1.361855E+06 -6.488839E+04 -6.880141E+04 -4.649394E+03 -3.059246E+03  1.300140E+03
        27  27 -1.357475E+06 -6.788590E+04 -7.095745E+04  3.375099E+03 -4.723266E+03  8.948826E+02
        28   1 -1.035727E+06  1.686573E+04  8.558413E+03  7.253162E+03  5.890661E+03 -5.698092E+02
        28   2 -1.037804E+06  1.975880E+04  3.030196E+03 -8.417599E+03  1.230104E+04 -2.175655E+02
        28   3 -1.048382E+06 -7.685215E+03 -1.427703E+04  8.909034E+03  1.871157E+04  2.428885E+01
        28   4 -1.100952E+06  5.492463E+02 -7.738857E+03  7.638611E+03  5.918175E+03 -5.697250E+02
        28   5 -1.096711E+06  5.014352E+03 -1.170252E+04 -8.822924E+03  1.232009E+04 -2.175103E+02
        28   6 -1.100971E+06 -2.085767E+04 -2.744005E+04  7.713147E+03  1.872222E+04  2.429413E+01
        28   7 -1.166173E+06 -1.576755E+04 -2.403645E+04  8.024016E+03  5.945686E+03 -5.696407E+02
        28   8 -1.155615E+06 -9.730357E+03 -2.643550E+04 -9.228213E+03  1.233913E+04 -2.174551E+02
        28   9 -1.153557E+06 -3.403033E+04 -4.060327E+04  6.517359E+03  1.873287E+04  2.429937E+01
        28  10 -1.035727E+06  1.686572E+04  8.558347E+03  7.253165E+03 -8.656379E-10  1.467870E-09
        28  11 -1.037804E+06  1.975876E+04  3.029911E+03 -8.417597E+03 -5.357720E-10 -6.244050E-11
        28  12 -1.048383E+06 -7.685310E+03 -1.427769E+04  8.909034E+03 -7.470000E-10 -5.201633E-10
        28  13 -1.100952E+06  5.492365E+02 -7.738924E+03  7.638614E+03  5.073875E-11  1.654057E-09
        28  14 -1.096711E+06  5.014311E+03 -1.170281E+04 -8.822922E+03 -5.333554E-09  3.748350E-10
        28  15 -1.100971E+06 -2.085776E+04 -2.744071E+04  7.713147E+03 -8.788865E-10  3.079444E-10
        28  16 -1.166173E+06 -1.576756E+04 -2.403652E+04  8.024019E+03  2.727561E-09  7.230729E-10
        28  17 -1.155615E+06 -9.730398E+03 -2.643579E+04 -9.228210E+03  3.170477E-09  1.576659E-09
        28  18 -1.153558E+06 -3.403042E+04 -4.060393E+04  6.517359E+03  2.505489E-10 -3.988673E-11
        28  19 -1.035727E+06  1.686573E+04  8.558413E+03  7.253162E+03 -5.890661E+03  5.698092E+02
        28  20 -1.037804E+06  1.975880E+04  3.030196E+03 -8.417599E+03 -1.230104E+04  2.175655E+02
        28  21 -1.048382E+06 -7.685215E+03 -1.427703E+04  8.909034E+03 -1.871157E+04 -2.428885E+01
        28  22 -1.100952E+06  5.492463E+02 -7.738857E+03  7.638611E+03 -5.918175E+03  5.697250E+02
        28  23 -1.096711E+06  5.014352E+03 -1.170252E+04 -8.822924E+03 -1.232009E+04  2.175103E+02
        28  24 -1.100971E+06 -2.085767E+04 -2.744005E+04  7.713147E+03 -1.872222E+04 -2.429413E+01
        28  25 -1.166173E+06 -1.576755E+04 -2.403645E+04  8.024016E+03 -5.945686E+03  5.696407E+02
        28  26 -1.155615E+06 -9.730357E+03 -2.643550E+04 -9.228213E+03 -1.233913E+04  2.174551E+02
        28  27 -1.153557E+06 -3.403033E+04 -4.060327E+04  6.517359E+03 -1.873287E+04 -2.429937E+01
        29   1  1.452667E+05  1.292615E+04  1.901262E+05 -6.847828E+03 -4.519545E+02  1.296572E+05
        29   2 -3.481978E+04 -1.621981E+04  8.108770E+04 -1.901598E+03 -2.965636E+02  8.529411E+04
        29   3 -4.595787E+03  1.299411E+04  5.351869E+04  3.572385E+03 -1.419500E+02  4.092970E+04
        29   4  1.452158E+05  1.297687E+04  1.901262E+05  4.594025E+02 -4.504284E+02  1.296572E+05
        29   5 -3.483254E+04 -1.620705E+04  8.108770E+04 -6.470545E+01 -2.963113E+02  8.529411E+04
        29   6 -4.570566E+03  1.296886E+04  5.351868E+04 -6.093264E+01 -1.421896E+02  4.092970E+04
        29   7  1.451652E+05  1.302770E+04  1.901262E+05  7.766634E+03 -4.489023E+02  1.296572E+05
        29   8 -3.484530E+04 -1.619428E+04  8.108770E+04  1.772187E+03 -2.960589E+02  8.529411E+04
        29   9 -4.545295E+03  1.294363E+04  5.351869E+04 -3.694250E+03 -1.424291E+02  4.092970E+04
        29  10  1.452622E+05  1.290810E+04  1.900946E+05 -6.847781E+03 -7.707823E-07 -8.720691E-07
        29  11 -3.482173E+04 -1.622762E+04  8.107403E+04 -1.901577E+03 -3.388763E-06 -1.533471E-06
        29  12 -4.596241E+03  1.299231E+04  5.351554E+04  3.572389E+03 -5.949449E-06 -1.110621E-06
        29  13  1.452113E+05  1.295882E+04  1.900946E+05  4.594496E+02  9.372761E-07 -4.926172E-08
        29  14 -3.483450E+04 -1.621486E+04  8.107403E+04 -6.468511E+01  4.224544E-06 -2.183373E-07
        29  15 -4.571016E+03  1.296706E+04  5.351554E+04 -6.092794E+01  7.571899E-06 -3.872248E-07
        29  16  1.451607E+05  1.300965E+04  1.900946E+05  7.766681E+03 -7.832350E-07  8.246661E-07
        29  17 -3.484725E+04 -1.620209E+04  8.107403E+04  1.772207E+03 -3.414141E-06  1.323411E-06
        29  18 -4.545741E+03  1.294183E+04  5.351554E+04 -3.694245E+03 -5.961463E-06  7.384438E-07
        29  19  1.452667E+05  1.292615E+04  1.901262E+05 -6.847828E+03  4.519545E+02 -1.296572E+05
        29  20 -3.481978E+04 -1.621981E+04  8.108770E+04 -1.901598E+03  2.965636E+02 -8.529411E+04
        29  21 -4.595795E+03  1.299411E+04  5.351868E+04  3.572385E+03  1.419500E+02 -4.092970E+04
        29  22  1.452158E+05  1.297687E+04  1.901262E+05  4.594025E+02  4.504284E+02 -1.296572E+05
        29  23 -3.483254E+04 -1.620705E+04  8.108770E+04 -6.470548E+01  2.963113E+02 -8.529411E+04
        29  24 -4.570566E+03  1.296886E+04  5.351868E+04 -6.093261E+01  1.421896E+02 -4.092970E+04
        29  25  1.451652E+05  1.302770E+04  1.901262E+05  7.766634E+03  4.489023E+02 -1.296572E+05
        29  26 -3.484529E+04 -1.619428E+04  8.108770E+04  1.772187E+03  2.960589E+02 -8.529411E+04
        29  27 -4.545287E+03  1.294363E+04  5.351869E+04 -3.694250E+03  1.424291E+02 -4.092970E+04
        30   1  2.263351E+04  2.145842E+03  4.440230E+04 -1.021681E+03 -1.113175E+02  3.202685E+04
        30   2 -5.450953E+03 -2.692512E+03  2.129802E+04 -2.661254E+02 -7.237749E+01  2.083160E+04
        30   3 -6.181114E+02  2.156768E+03  1.371241E+04  5.701292E+02 -3.346782E+01  9.636401E+03
        30   4  2.262591E+04  2.153433E+03  4.440230E+04  7.112219E+01 -1.112611E+02  3.202685E+04
        30   5 -5.452735E+03 -2.690730E+03  2.129802E+04 -9.595298E+00 -7.236887E+01  2.083160E+04
        30   6 -6.140834E+02  2.152739E+03  1.371240E+04 -9.612085E+00 -3.347681E+01  9.636401E+03
        30   7  2.261832E+04  2.161026E+03  4.440230E+04  1.163925E+03 -1.112047E+02  3.202685E+04
        30   8 -5.454517E+03 -2.688949E+03  2.129802E+04  2.469348E+02 -7.236027E+01  2.083160E+04
        30   9 -6.100541E+02  2.148711E+03  1.371240E+04 -5.893534E+02 -3.348582E+01  9.636401E+03
        30  10  2.263323E+04  2.144739E+03  4.440037E+04 -1.021678E+03 -6.399262E-06  1.940861E-08
        30  11 -5.451073E+03 -2.692979E+03  2.129721E+04 -2.661241E+02 -5.420967E-06  3.656390E-07
        30  12 -6.181391E+02  2.156668E+03  1.371223E+04  5.701295E+02 -4.452313E-06  4.138065E-07
        30  13  2.262564E+04  2.152331E+03  4.440037E+04  7.112505E+01  8.166477E-06 -4.201615E-07
        30  14 -5.452852E+03 -2.691196E+03  2.129721E+04 -9.594080E+00  6.815783E-06 -3.648999E-07
        30  15 -6.141083E+02  2.152639E+03  1.371223E+04 -9.611820E+00  5.453270E-06 -3.095896E-07
        30  16  2.261805E+04  2.159926E+03  4.440038E+04  1.163928E+03 -6.397147E-06 -4.226959E-07
        30  17 -5.454630E+03 -2.689414E+03  2.129721E+04  2.469360E+02 -5.412585E-06 -7.140981E-07
        30  18 -6.100762E+02  2.148612E+03  1.371223E+04 -5.893531E+02 -4.446132E-06 -7.075443E-07
        30  19  2.263350E+04  2.145840E+03  4.440230E+04 -1.021681E+03  1.113175E+02 -3.202685E+04
        30  20 -5.450960E+03 -2.692514E+03  2.129802E+04 -2.661253E+02  7.237748E+01 -2.083160E+04
        30  21 -6.181170E+02  2.156767E+03  1.371240E+04  5.701293E+02  3.346781E+01 -9.636401E+03
        30  22  2.262591E+04  2.153433E+03  4.440230E+04  7.112217E+01  1.112611E+02 -3.202685E+04
        30  23 -5.452735E+03 -2.690730E+03  2.129802E+04 -9.595290E+00  7.236888E+01 -2.083160E+04
        30  24 -6.140834E+02  2.152739E+03  1.371240E+04 -9.612075E+00  3.347682E+01 -9.636401E+03
        30  25  2.261833E+04  2.161028E+03  4.440230E+04  1.163925E+03  1.112047E+02 -3.202685E+04
        30  26 -5.454510E+03 -2.688947E+03  2.129803E+04  2.469348E+02  7.236026E+01 -2.083160E+04
        30  27 -6.100485E+02  2.148712E+03  1.371241E+04 -5.893534E+02  3.348581E+01 -9.636401E+03
        31   1  3.494714E+03  4.243882E+02  1.130198E+04 -1.612288E+02 -2.558899E+01  7.365279E+03
        31   2 -9.736475E+02 -5.320974E+02  6.682799E+03 -3.077153E+01 -1.370140E+01  3.943934E+03
        31   3  4.353559E+02  4.263090E+02  5.760434E+03  1.134494E+02 -1.815579E+00  5.226450E+02
        31   4  3.493520E+03  4.255820E+02  1.130198E+04  1.065813E+01 -2.558694E+01  7.365280E+03
        31   5 -9.738502E+02 -5.318947E+02  6.682799E+03 -1.535359E+00 -1.370121E+01  3.943934E+03
        31   6  4.361442E+02  4.255205E+02  5.760434E+03  3.686390E-02 -1.815669E+00  5.226450E+02
        31   7  3.492326E+03  4.267758E+02  1.130198E+04  1.825451E+02 -2.558491E+01  7.365280E+03
        31   8 -9.740529E+02 -5.316921E+02  6.682799E+03  2.770082E+01 -1.370103E+01  3.943934E+03
        31   9  4.369325E+02  4.247320E+02  5.760434E+03 -1.133757E+02 -1.815770E+00  5.226450E+02
        31  10  3.494697E+03  4.243293E+02  1.130188E+04 -1.612287E+02 -3.898001E-06  1.862730E-07
        31  11 -9.736537E+02 -5.321146E+02  6.682769E+03 -3.077147E+01 -3.106645E-06  1.206226E-07
        31  12  4.353543E+02  4.263084E+02  5.760434E+03  1.134495E+02 -2.539761E-06  7.627248E-07
        31  13  3.493506E+03  4.255237E+02  1.130188E+04  1.065828E+01  4.847994E-06 -2.804438E-07
        31  14 -9.738543E+02 -5.319114E+02  6.682770E+03 -1.535320E+00  4.016265E-06 -2.359536E-07
        31  15  4.361441E+02  4.255202E+02  5.760434E+03  3.689381E-02  2.967327E-06 -1.922448E-07
        31  16  3.492314E+03  4.267182E+02  1.130188E+04  1.825452E+02 -3.896941E-06 -4.512175E-07
        31  17 -9.740550E+02 -5.317083E+02  6.682770E+03  2.770085E+01 -3.105639E-06 -3.421376E-07
        31  18  4.369340E+02  4.247321E+02  5.760434E+03 -1.133757E+02 -2.516628E-06 -9.423160E-07
        31  19  3.494709E+03  4.243869E+02  1.130198E+04 -1.612288E+02  2.558898E+01 -7.365279E+03
        31  20 -9.736515E+02 -5.320984E+02  6.682798E+03 -3.077151E+01  1.370139E+01 -3.943934E+03
        31  21  4.353528E+02  4.263083E+02  5.760434E+03  1.134495E+02  1.815574E+00 -5.226450E+02
        31  22  3.493520E+03  4.255820E+02  1.130198E+04  1.065813E+01  2.558695E+01 -7.365280E+03
        31  23 -9.738502E+02 -5.318947E+02  6.682799E+03 -1.535368E+00  1.370122E+01 -3.943934E+03
        31  24  4.361442E+02  4.255205E+02  5.760434E+03  3.692213E-02  1.815675E+00 -5.226450E+02
        31  25  3.492331E+03  4.267771E+02  1.130198E+04  1.825451E+02  2.558491E+01 -7.365280E+03
        31  26 -9.740488E+02 -5.316910E+02  6.682800E+03  2.770080E+01  1.370102E+01 -3.943934E+03
        31  27  4.369356E+02  4.247328E+02  5.760435E+03 -1.133757E+02  1.815765E+00 -5.226450E+02
        32   1 -4.872617E+06 -1.562584E+06 -1.001162E+06 -1.705312E+06 -4.852555E+05 -1.728630E+05
        32   2 -4.739146E+06 -8.415294E+05 -5.484119E+05 -1.783591E+06 -3.150628E+05 -8.676135E+04
        32   3 -4.862046E+06 -8.377939E+05 -4.176447E+05 -1.712379E+06 -1.368589E+05 -2.178395E+04
        32   4 -4.036195E+06 -1.098274E+06 -7.426398E+05 -1.327728E+06 -4.731743E+05 -1.684320E+05
        32   5 -3.869935E+06 -4.715372E+05 -3.080365E+05 -1.504050E+06 -3.117508E+05 -8.553842E+04
        32   6 -3.957933E+06 -5.598226E+05 -1.880899E+05 -1.530995E+06 -1.423132E+05 -2.382694E+04
        32   7 -3.199038E+06 -6.336440E+05 -4.841857E+05 -9.496025E+05 -4.610749E+05 -1.639868E+05
        32   8 -2.999983E+06 -1.014410E+05 -6.773152E+04 -1.224132E+06 -3.084334E+05 -8.431287E+04
        32   9 -3.053021E+06 -2.818598E+05  4.140327E+04 -1.349400E+06 -1.477762E+05 -2.587179E+04
        32  10 -4.872880E+06 -1.562680E+06 -1.001665E+06 -1.705380E+06  2.266477E-09 -5.597009E-10
        32  11 -4.739255E+06 -8.415645E+05 -5.486143E+05 -1.783613E+06 -1.767273E-09 -1.232775E-09
        32  12 -4.862067E+06 -8.377995E+05 -4.176811E+05 -1.712381E+06 -6.058340E-10  1.568995E-09
        32  13 -4.036444E+06 -1.098366E+06 -7.431173E+05 -1.327793E+06 -4.533475E-09 -5.339233E-10
        32  14 -3.870042E+06 -4.715715E+05 -3.082343E+05 -1.504071E+06  4.362155E-09 -7.361602E-10
        32  15 -3.957955E+06 -5.598287E+05 -1.881293E+05 -1.530997E+06 -4.403472E-09  1.215000E-09
        32  16 -3.199275E+06 -6.337305E+05 -4.846383E+05 -9.496636E+05 -2.059926E-09 -6.152719E-10
        32  17 -3.000088E+06 -1.014744E+05 -6.792474E+04 -1.224153E+06  7.000371E-10 -3.437445E-10
        32  18 -3.053044E+06 -2.818665E+05  4.136074E+04 -1.349403E+06 -3.142618E-09  1.444475E-09
        32  19 -4.872617E+06 -1.562584E+06 -1.001162E+06 -1.705312E+06  4.852555E+05  1.728630E+05
        32  20 -4.739146E+06 -8.415294E+05 -5.484119E+05 -1.783591E+06  3.150628E+05  8.676135E+04
        32  21 -4.862046E+06 -8.377939E+05 -4.176447E+05 -1.712379E+06  1.368589E+05  2.178395E+04
        32  22 -4.036195E+06 -1.098274E+06 -7.426398E+05 -1.327728E+06  4.731743E+05  1.684320E+05
        32  23 -3.869935E+06 -4.715372E+05 -3.080365E+05 -1.504050E+06  3.117508E+05  8.553842E+04
        32  24 -3.957933E+06 -5.598226E+05 -1.880899E+05 -1.530995E+06  1.423132E+05  2.382694E+04
        32  25 -3.199038E+06 -6.336440E+05 -4.841857E+05 -9.496025E+05  4.610749E+05  1.639868E+05
        32  26 -2.999983E+06 -1.014410E+05 -6.773152E+04 -1.224132E+06  3.084334E+05  8.431287E+04
        32  27 -3.053021E+06 -2.818598E+05  4.140327E+04 -1.349400E+06  1.477762E+05  2.587179E+04
        33   1 -4.689216E+06 -9.448543E+05 -3.599216E+05 -1.711904E+06 -1.138820E+05 -1.799082E+04
        33   2 -4.633604E+06 -8.202968E+05 -2.619337E+05 -1.684074E+06 -7.485954E+04 -3.948037E+03
        33   3 -4.572732E+06 -8.170502E+05 -2.149905E+05 -1.681587E+06 -3.499622E+04  7.863318E+03
        33   4 -3.931077E+06 -6.423572E+05 -1.534788E+05 -1.488868E+06 -1.137451E+05 -1.794491E+04
        33   5 -3.929248E+06 -5.502711E+05 -7.264852E+04 -1.488027E+06 -7.562415E+04 -4.238098E+03
        33   6 -3.921939E+06 -5.792544E+05 -4.209465E+04 -1.512536E+06 -3.666643E+04  7.235272E+03
        33   7 -3.172382E+06 -3.398082E+05  5.291121E+04 -1.265578E+06 -1.136079E+05 -1.789889E+04
        33   8 -3.224409E+06 -2.802116E+05  1.165926E+05 -1.291775E+06 -7.638969E+04 -4.528515E+03
        33   9 -3.270735E+06 -3.414394E+05  1.307649E+05 -1.343326E+06 -3.833858E+04  6.606556E+03
        33  10 -4.689230E+06 -9.448582E+05 -3.599468E+05 -1.711906E+06  6.922807E-09  4.628179E-10
        33  11 -4.633610E+06 -8.202983E+05 -2.619443E+05 -1.684074E+06 -9.164887E-10 -4.324174E-09
        33  12 -4.572733E+06 -8.170506E+05 -2.149929E+05 -1.681587E+06 -2.390097E-09  1.020588E-08
        33  13 -3.931092E+06 -6.423610E+05 -1.535039E+05 -1.488870E+06  3.388022E-10 -7.633897E-10
        33  14 -3.929254E+06 -5.502726E+05 -7.265937E+04 -1.488027E+06  7.319842E-10 -4.101341E-09
        33  15 -3.921941E+06 -5.792548E+05 -4.209729E+04 -1.512536E+06 -9.741532E-09  4.780604E-09
        33  16 -3.172396E+06 -3.398120E+05  5.288621E+04 -1.265580E+06 -4.378396E-09 -1.994894E-09
        33  17 -3.224415E+06 -2.802132E+05  1.165815E+05 -1.291776E+06  1.673530E-09 -4.098719E-09
        33  18 -3.270737E+06 -3.414399E+05  1.307620E+05 -1.343326E+06 -9.864088E-09 -2.458480E-10
        33  19 -4.689216E+06 -9.448543E+05 -3.599216E+05 -1.711904E+06  1.138820E+05  1.799082E+04
        33  20 -4.633604E+06 -8.202968E+05 -2.619337E+05 -1.684074E+06  7.485954E+04  3.948037E+03
        33  21 -4.572732E+06 -8.170502E+05 -2.149905E+05 -1.681587E+06  3.499622E+04 -7.863318E+03
        33  22 -3.931077E+06 -6.423572E+05 -1.534788E+05 -1.488868E+06  1.137451E+05  1.794491E+04
        33  23 -3.929248E+06 -5.502711E+05 -7.264852E+04 -1.488027E+06  7.562415E+04  4.238098E+03
        33  24 -3.921939E+06 -5.792544E+05 -4.209465E+04 -1.512536E+06  3.666643E+04 -7.235272E+03
        33  25 -3.172382E+06 -3.398082E+05  5.291121E+04 -1.265578E+06  1.136079E+05  1.789889E+04
        33  26 -3.224409E+06 -2.802116E+05  1.165926E+05 -1.291775E+06  7.638969E+04  4.528515E+03
        33  27 -3.270735E+06 -3.414394E+05  1.307649E+05 -1.343326E+06  3.833858E+04 -6.606556E+03
        34   1 -4.444061E+06 -7.908495E+05 -1.742096E+05 -1.654479E+06 -2.867480E+04  7.952106E+03
        34   2 -4.390101E+06 -7.278492E+05 -1.377167E+05 -1.606738E+06 -1.880544E+04  8.307481E+03
        34   3 -4.291298E+06 -7.235962E+05 -1.102916E+05 -1.613160E+06 -8.790618E+03  8.266551E+03
        34   4 -3.916721E+06 -5.904969E+05 -3.303322E+04 -1.509496E+06 -2.984970E+04  7.510249E+03
        34   5 -3.938615E+06 -5.574350E+05 -1.690227E+04 -1.483795E+06 -2.014108E+04  7.806257E+03
        34   6 -3.915637E+06 -5.830808E+05 -9.704003E+03 -1.512258E+06 -1.028824E+04  7.705633E+03
        34   7 -3.389112E+06 -3.901266E+05  1.081186E+05 -1.364400E+06 -3.102570E+04  7.067974E+03
        34   8 -3.486931E+06 -3.870089E+05  1.038940E+05 -1.360771E+06 -2.147778E+04  7.304631E+03
        34   9 -3.539839E+06 -4.425579E+05  9.087086E+04 -1.411300E+06 -1.178685E+04  7.144348E+03
        34  10 -4.444062E+06 -7.908498E+05 -1.742113E+05 -1.654479E+06 -3.212589E-09  9.212860E-10
        34  11 -4.390101E+06 -7.278493E+05 -1.377175E+05 -1.606737E+06  7.352710E-08 -3.935775E-08
        34  12 -4.291298E+06 -7.235963E+05 -1.102918E+05 -1.613160E+06  3.420136E-07 -3.003595E-08
        34  13 -3.916722E+06 -5.904972E+05 -3.303501E+04 -1.509495E+06 -7.483344E-09  2.559845E-09
        34  14 -3.938615E+06 -5.574352E+05 -1.690315E+04 -1.483795E+06  1.937641E-08 -5.581971E-08
        34  15 -3.915637E+06 -5.830809E+05 -9.704314E+03 -1.512257E+06  6.218991E-08 -1.646232E-07
        34  16 -3.389113E+06 -3.901269E+05  1.081167E+05 -1.364400E+06 -8.803663E-09  3.134523E-09
        34  17 -3.486932E+06 -3.870091E+05  1.038931E+05 -1.360771E+06 -3.523990E-08 -7.191558E-08
        34  18 -3.539840E+06 -4.425580E+05  9.087051E+04 -1.411300E+06 -2.212433E-07 -2.993581E-07
        34  19 -4.444061E+06 -7.908495E+05 -1.742096E+05 -1.654479E+06  2.867480E+04 -7.952106E+03
        34  20 -4.390101E+06 -7.278492E+05 -1.377167E+05 -1.606738E+06  1.880544E+04 -8.307481E+03
        34  21 -4.291298E+06 -7.235962E+05 -1.102916E+05 -1.613160E+06  8.790618E+03 -8.266551E+03
        34  22 -3.916721E+06 -5.904969E+05 -3.303322E+04 -1.509496E+06  2.984970E+04 -7.510249E+03
        34  23 -3.938615E+06 -5.574350E+05 -1.690227E+04 -1.483795E+06  2.014108E+04 -7.806257E+03
        34  24 -3.915637E+06 -5.830808E+05 -9.704003E+03 -1.512258E+06  1.028824E+04 -7.705633E+03
        34  25 -3.389112E+06 -3.901266E+05  1.081186E+05 -1.364400E+06  3.102570E+04 -7.067974E+03
        34  26 -3.486931E+06 -3.870089E+05  1.038940E+05 -1.360771E+06  2.147778E+04 -7.304631E+03
        34  27 -3.539839E+06 -4.425579E+05  9.087086E+04 -1.411300E+06  1.178685E+04 -7.144348E+03
        35   1 -4.153749E+06 -6.754557E+05 -7.138970E+04 -1.578003E+06 -6.654070E+03  6.744855E+03
        35   2 -4.095985E+06 -6.156196E+05 -4.599715E+04 -1.524214E+06 -3.056083E+03  4.127022E+03
        35   3 -3.984978E+06 -6.110003E+05 -2.264862E+04 -1.532229E+06  5.750481E+02  1.417244E+03
        35   4 -3.914162E+06 -5.852014E+05 -7.611656E+03 -1.512860E+06 -8.111952E+03  6.199280E+03
        35   5 -3.940720E+06 -5.571921E+05 -4.489855E+03 -1.482107E+06 -4.552179E+03  3.567470E+03
        35   6 -3.914039E+06 -5.843915E+05 -3.380979E+03 -1.513159E+06 -9.596362E+02  8.436299E+02
        35   7 -3.674517E+06 -4.949433E+05  5.616165E+04 -1.447695E+06 -9.570462E+03  5.653470E+03
        35   8 -3.785433E+06 -4.987632E+05  3.701527E+04 -1.439990E+06 -6.048687E+03  3.007764E+03
        35   9 -3.843096E+06 -5.577825E+05  1.588608E+04 -1.494088E+06 -2.494504E+03  2.699486E+02
        35  10 -4.153750E+06 -6.754558E+05 -7.138987E+04 -1.578003E+06  1.012569E-06  1.504493E-07
        35  11 -4.095985E+06 -6.156197E+05 -4.599720E+04 -1.524214E+06  1.481174E-06  1.270496E-07
        35  12 -3.984978E+06 -6.110003E+05 -2.264862E+04 -1.532229E+06  1.362954E-06 -2.091010E-07
        35  13 -3.914162E+06 -5.852015E+05 -7.611852E+03 -1.512860E+06  1.705072E-07  6.854053E-08
        35  14 -3.940720E+06 -5.571921E+05 -4.489917E+03 -1.482107E+06  4.918472E-07  1.036723E-06
        35  15 -3.914039E+06 -5.843915E+05 -3.380982E+03 -1.513159E+06  7.988868E-07  2.044488E-06
        35  16 -3.674517E+06 -4.949434E+05  5.616142E+04 -1.447695E+06 -6.683072E-07 -6.522298E-07
        35  17 -3.785433E+06 -4.987632E+05  3.701518E+04 -1.439990E+06 -4.928324E-07 -8.883834E-07
        35  18 -3.843096E+06 -5.577825E+05  1.588607E+04 -1.494088E+06  2.398948E-07 -7.329700E-07
        35  19 -4.153749E+06 -6.754557E+05 -7.138970E+04 -1.578003E+06  6.654070E+03 -6.744855E+03
        35  20 -4.095985E+06 -6.156196E+05 -4.599715E+04 -1.524214E+06  3.056083E+03 -4.127022E+03
        35  21 -3.984978E+06 -6.110003E+05 -2.264862E+04 -1.532229E+06 -5.750481E+02 -1.417244E+03
        35  22 -3.914162E+06 -5.852014E+05 -7.611656E+03 -1.512860E+06  8.111952E+03 -6.199280E+03
        35  23 -3.940720E+06 -5.571921E+05 -4.489855E+03 -1.482107E+06  4.552179E+03 -3.567470E+03
        35  24 -3.914039E+06 -5.843915E+05 -3.380979E+03 -1.513159E+06  9.596362E+02 -8.436299E+02
        35  25 -3.674517E+06 -4.949433E+05  5.616165E+04 -1.447695E+06  9.570462E+03 -5.653470E+03
        35  26 -3.785433E+06 -4.987632E+05  3.701527E+04 -1.439990E+06  6.048687E+03 -3.007764E+03
        35  27 -3.843096E+06 -5.577825E+05  1.588608E+04 -1.494088E+06  2.494504E+03 -2.699486E+02
        36   1 -3.843036E+06 -5.577642E+05  1.601352E+04 -1.494035E+06  1.911476E+03 -4.899631E+02
        36   2 -3.785389E+06 -4.987592E+05  3.766931E+04 -1.439961E+06  5.145615E+03 -3.348328E+03
        36   3 -3.674356E+06 -4.947509E+05  5.763877E+04 -1.447741E+06  8.346519E+03 -6.112413E+03
        36   4 -3.914020E+06 -5.844154E+05 -3.269742E+03 -1.513145E+06  3.759186E+02 -1.063900E+03
        36   5 -3.940752E+06 -5.572207E+05 -3.856867E+03 -1.482102E+06  3.649415E+03 -3.907916E+03
        36   6 -3.914112E+06 -5.850321E+05 -6.161218E+03 -1.512917E+06  6.889385E+03 -6.657722E+03
        36   7 -3.984999E+06 -6.110665E+05 -2.255351E+04 -1.532253E+06 -1.159450E+03 -1.637766E+03
        36   8 -4.096093E+06 -6.156811E+05 -4.538539E+04 -1.524234E+06  2.153621E+03 -4.467352E+03
        36   9 -4.153815E+06 -6.753105E+05 -6.996675E+04 -1.578071E+06  5.432861E+03 -7.202802E+03
        36  10 -3.843036E+06 -5.577642E+05  1.601352E+04 -1.494035E+06  2.390354E-07 -7.325210E-07
        36  11 -3.785389E+06 -4.987592E+05  3.766924E+04 -1.439961E+06 -4.903637E-07 -8.861393E-07
        36  12 -3.674356E+06 -4.947510E+05  5.763857E+04 -1.447741E+06 -6.660434E-07 -6.518266E-07
        36  13 -3.914020E+06 -5.844154E+05 -3.269744E+03 -1.513145E+06  8.006466E-07  2.045178E-06
        36  14 -3.940752E+06 -5.572207E+05 -3.856920E+03 -1.482102E+06  4.939154E-07  1.038713E-06
        36  15 -3.914112E+06 -5.850321E+05 -6.161391E+03 -1.512917E+06  1.740050E-07  6.964432E-08
        36  16 -3.984999E+06 -6.110665E+05 -2.255352E+04 -1.532253E+06  1.364795E-06 -2.093151E-07
        36  17 -4.096093E+06 -6.156811E+05 -4.538544E+04 -1.524234E+06  1.480472E-06  1.288337E-07
        36  18 -4.153815E+06 -6.753105E+05 -6.996691E+04 -1.578071E+06  1.014821E-06  1.513860E-07
        36  19 -3.843036E+06 -5.577642E+05  1.601352E+04 -1.494035E+06 -1.911476E+03  4.899631E+02
        36  20 -3.785389E+06 -4.987592E+05  3.766931E+04 -1.439961E+06 -5.145615E+03  3.348328E+03
        36  21 -3.674356E+06 -4.947509E+05  5.763877E+04 -1.447741E+06 -8.346519E+03  6.112413E+03
        36  22 -3.914020E+06 -5.844154E+05 -3.269742E+03 -1.513145E+06 -3.759186E+02  1.063900E+03
        36  23 -3.940752E+06 -5.572207E+05 -3.856867E+03 -1.482102E+06 -3.649415E+03  3.907916E+03
        36  24 -3.914112E+06 -5.850321E+05 -6.161218E+03 -1.512917E+06 -6.889385E+03  6.657722E+03
        36  25 -3.984999E+06 -6.110665E+05 -2.255351E+04 -1.532253E+06  1.159450E+03  1.637766E+03
        36  26 -4.096093E+06 -6.156811E+05 -4.538539E+04 -1.524234E+06 -2.153621E+03  4.467352E+03
        36  27 -4.153815E+06 -6.753105E+05 -6.996675E+04 -1.578071E+06 -5.432861E+03  7.202802E+03
        37   1 -3.539928E+06 -4.424868E+05  9.279706E+04 -1.411064E+06  1.028414E+04 -7.705731E+03
        37   2 -3.487197E+06 -3.873706E+05  1.074215E+05 -1.360815E+06  1.816535E+04 -8.542445E+03
        37   3 -3.388590E+06 -3.888904E+05  1.151416E+05 -1.365201E+06  2.590425E+04 -8.985554E+03
        37   4 -3.915492E+06 -5.831314E+05 -7.755655E+03 -1.512175E+06  8.787282E+03 -8.266380E+03
        37   5 -3.938840E+06 -5.577211E+05 -1.335221E+04 -1.483766E+06  1.683038E+04 -9.043415E+03
        37   6 -3.916350E+06 -5.889850E+05 -2.598549E+04 -1.509995E+06  2.473024E+04 -9.427046E+03
        37   7 -4.290918E+06 -7.237671E+05 -1.083200E+05 -1.613229E+06  7.291434E+03 -8.826655E+03
        37   8 -4.390283E+06 -7.280588E+05 -1.341433E+05 -1.606635E+06  1.549649E+04 -9.543982E+03
        37   9 -4.443839E+06 -7.890620E+05 -1.671370E+05 -1.654678E+06  2.355733E+04 -9.868121E+03
        37  10 -3.539928E+06 -4.424869E+05  9.279675E+04 -1.411064E+06 -2.215509E-07 -2.987377E-07
        37  11 -3.487197E+06 -3.873708E+05  1.074207E+05 -1.360815E+06 -3.529038E-08 -7.003365E-08
        37  12 -3.388590E+06 -3.888906E+05  1.151402E+05 -1.365200E+06 -6.733000E-09  4.558106E-09
        37  13 -3.915492E+06 -5.831315E+05 -7.755928E+03 -1.512175E+06  6.592760E-08 -1.639924E-07
        37  14 -3.938840E+06 -5.577213E+05 -1.335290E+04 -1.483766E+06  1.813611E-08 -5.502328E-08
        37  15 -3.916351E+06 -5.889853E+05 -2.598681E+04 -1.509995E+06 -4.875674E-09  3.939311E-09
        37  16 -4.290918E+06 -7.237672E+05 -1.083203E+05 -1.613229E+06  3.481791E-07 -2.980870E-08
        37  17 -4.390283E+06 -7.280589E+05 -1.341440E+05 -1.606634E+06  7.422163E-08 -3.930979E-08
        37  18 -4.443840E+06 -7.890623E+05 -1.671382E+05 -1.654678E+06  2.750267E-10  3.915293E-09
        37  19 -3.539928E+06 -4.424868E+05  9.279706E+04 -1.411064E+06 -1.028414E+04  7.705731E+03
        37  20 -3.487197E+06 -3.873706E+05  1.074215E+05 -1.360815E+06 -1.816535E+04  8.542445E+03
        37  21 -3.388590E+06 -3.888904E+05  1.151416E+05 -1.365201E+06 -2.590425E+04  8.985554E+03
        37  22 -3.915492E+06 -5.831314E+05 -7.755655E+03 -1.512175E+06 -8.787282E+03  8.266380E+03
        37  23 -3.938840E+06 -5.577211E+05 -1.335221E+04 -1.483766E+06 -1.683038E+04  9.043415E+03
        37  24 -3.916350E+06 -5.889850E+05 -2.598549E+04 -1.509995E+06 -2.473024E+04  9.427046E+03
        37  25 -4.290918E+06 -7.237671E+05 -1.083200E+05 -1.613229E+06 -7.291434E+03  8.826655E+03
        37  26 -4.390283E+06 -7.280588E+05 -1.341433E+05 -1.606635E+06 -1.549649E+04  9.543982E+03
        37  27 -4.443839E+06 -7.890620E+05 -1.671370E+05 -1.654678E+06 -2.355733E+04  9.868121E+03
        38   1 -3.270921E+06 -3.406882E+05  1.397637E+05 -1.341283E+06  3.191936E+04 -9.013280E+03
        38   2 -3.225574E+06 -2.832634E+05  1.321384E+05 -1.292212E+06  6.184023E+04 -9.394896E+02
        38   3 -3.166973E+06 -3.292215E+05  8.582264E+04 -1.272791E+06  9.093139E+04  9.361971E+03
        38   4 -3.920868E+06 -5.796956E+05 -3.308265E+04 -1.511865E+06  3.025079E+04 -9.640835E+03
        38   5 -3.930981E+06 -5.526836E+05 -5.708789E+04 -1.487740E+06  6.108430E+04 -1.226085E+03
        38   6 -3.928054E+06 -6.292889E+05 -1.205464E+05 -1.493266E+06  9.108476E+04  9.415392E+03
        38   7 -4.570408E+06 -8.186839E+05 -2.059662E+05 -1.682288E+06  2.858414E+04 -1.026771E+04
        38   8 -4.635905E+06 -8.220711E+05 -2.463585E+05 -1.683066E+06  6.032929E+04 -1.512328E+03
        38   9 -4.688573E+06 -9.293075E+05 -3.269677E+05 -1.713491E+06  9.123786E+04  9.468700E+03
        38  10 -3.270922E+06 -3.406886E+05  1.397617E+05 -1.341283E+06 -9.277996E-09  6.602621E-10
        38  11 -3.225578E+06 -2.832645E+05  1.321312E+05 -1.292212E+06  9.798931E-10 -3.578806E-09
        38  12 -3.166982E+06 -3.292238E+05  8.580685E+04 -1.272791E+06 -2.445221E-09 -1.839253E-09
        38  13 -3.920869E+06 -5.796960E+05 -3.308455E+04 -1.511865E+06 -3.223391E-09  5.532277E-09
        38  14 -3.930985E+06 -5.526846E+05 -5.709495E+04 -1.487740E+06 -6.885927E-10 -4.121068E-09
        38  15 -3.928063E+06 -6.292912E+05 -1.205623E+05 -1.493267E+06  1.567731E-09 -1.791528E-09
        38  16 -4.570409E+06 -8.186843E+05 -2.059679E+05 -1.682288E+06  1.166883E-09  1.032846E-08
        38  17 -4.635909E+06 -8.220721E+05 -2.463654E+05 -1.683066E+06  1.110699E-09 -5.493251E-09
        38  18 -4.688582E+06 -9.293099E+05 -3.269837E+05 -1.713492E+06  4.460474E-09 -5.660859E-10
        38  19 -3.270921E+06 -3.406882E+05  1.397637E+05 -1.341283E+06 -3.191936E+04  9.013280E+03
        38  20 -3.225574E+06 -2.832634E+05  1.321384E+05 -1.292212E+06 -6.184023E+04  9.394896E+02
        38  21 -3.166973E+06 -3.292215E+05  8.582264E+04 -1.272791E+06 -9.093139E+04 -9.361971E+03
        38  22 -3.920868E+06 -5.796956E+05 -3.308265E+04 -1.511865E+06 -3.025079E+04  9.640835E+03
        38  23 -3.930981E+06 -5.526836E+05 -5.708789E+04 -1.487740E+06 -6.108430E+04  1.226085E+03
        38  24 -3.928054E+06 -6.292889E+05 -1.205464E+05 -1.493266E+06 -9.108476E+04 -9.415392E+03
        38  25 -4.570408E+06 -8.186839E+05 -2.059662E+05 -1.682288E+06 -2.858414E+04  1.026771E+04
        38  26 -4.635905E+06 -8.220711E+05 -2.463585E+05 -1.683066E+06 -6.032929E+04  1.512328E+03
        38  27 -4.688573E+06 -9.293075E+05 -3.269677E+05 -1.713491E+06 -9.123786E+04 -9.468700E+03
        39   1 -3.054995E+06 -2.759414E+05  8.172101E+04 -1.332698E+06  1.193083E+05  1.515277E+04
        39   2 -3.007435E+06 -1.279270E+05 -1.700123E+03 -1.228519E+06  2.437537E+05  5.987067E+04
        39   3 -3.151407E+06 -5.448894E+05 -3.249031E+05 -1.013616E+06  3.602141E+05  1.257368E+05
        39   4 -3.949747E+06 -5.638453E+05 -1.477242E+05 -1.525632E+06  1.138717E+05  1.311108E+04
        39   5 -3.883683E+06 -4.916623E+05 -2.419908E+05 -1.501224E+06  2.471181E+05  6.112347E+04
        39   6 -4.011222E+06 -9.867165E+05 -5.833195E+05 -1.366011E+06  3.723752E+05  1.302578E+05
        39   7 -4.843721E+06 -8.517495E+05 -3.772324E+05 -1.718337E+06  1.084437E+05  1.107152E+04
        39   8 -4.759178E+06 -8.553045E+05 -4.823511E+05 -1.773562E+06  2.504770E+05  6.237373E+04
        39   9 -4.870279E+06 -1.428291E+06 -8.418064E+05 -1.717897E+06  3.845173E+05  1.347658E+05
        39  10 -3.055010E+06 -2.759455E+05  8.169368E+04 -1.332700E+06  5.441153E-10  5.812604E-10
        39  11 -3.007500E+06 -1.279470E+05 -1.819179E+03 -1.228531E+06 -7.174427E-10 -5.905859E-10
        39  12 -3.151551E+06 -5.449415E+05 -3.251782E+05 -1.013652E+06  1.554110E-10 -1.343929E-09
        39  13 -3.949761E+06 -5.638490E+05 -1.477491E+05 -1.525633E+06 -3.566879E-10  1.218238E-09
        39  14 -3.883750E+06 -4.916828E+05 -2.421135E+05 -1.501236E+06 -2.769148E-09  7.866840E-10
        39  15 -4.011377E+06 -9.867723E+05 -5.836141E+05 -1.366050E+06 -1.096431E-09  1.766297E-10
        39  16 -4.843734E+06 -8.517528E+05 -3.772549E+05 -1.718338E+06 -2.746100E-09  1.848994E-09
        39  17 -4.759247E+06 -8.553258E+05 -4.824774E+05 -1.773575E+06 -5.304291E-09  2.600973E-10
        39  18 -4.870444E+06 -1.428351E+06 -8.421211E+05 -1.717939E+06 -6.549436E-11 -1.905384E-10
        39  19 -3.054995E+06 -2.759414E+05  8.172101E+04 -1.332698E+06 -1.193083E+05 -1.515277E+04
        39  20 -3.007435E+06 -1.279270E+05 -1.700123E+03 -1.228519E+06 -2.437537E+05 -5.987067E+04
        39  21 -3.151407E+06 -5.448894E+05 -3.249031E+05 -1.013616E+06 -3.602141E+05 -1.257368E+05
        39  22 -3.949747E+06 -5.638453E+05 -1.477242E+05 -1.525632E+06 -1.138717E+05 -1.311108E+04
        39  23 -3.883683E+06 -4.916623E+05 -2.419908E+05 -1.501224E+06 -2.471181E+05 -6.112347E+04
        39  24 -4.011222E+06 -9.867165E+05 -5.833195E+05 -1.366011E+06 -3.723752E+05 -1.302578E+05
        39  25 -4.843721E+06 -8.517495E+05 -3.772324E+05 -1.718337E+06 -1.084437E+05 -1.107152E+04
        39  26 -4.759178E+06 -8.553045E+05 -4.823511E+05 -1.773562E+06 -2.504770E+05 -6.237373E+04
        39  27 -4.870279E+06 -1.428291E+06 -8.418064E+05 -1.717897E+06 -3.845173E+05 -1.347658E+05
        40   1  1.949857E+05  6.457934E+04  2.194052E+05 -1.319352E+05 -2.415269E+01  1.347662E+05
        40   2  3.536796E+04  1.519559E+04  1.109871E+05 -6.754101E+04  7.204062E+02  7.836503E+04
        40   3 -4.618800E+01  4.141143E+03  7.033349E+04 -1.098743E+04 -3.131975E+02  2.195916E+04
        40   4  1.786602E+05  2.784811E+03  2.042162E+05 -2.619283E+04  5.978162E+00  1.327659E+05
        40   5  2.730708E+04 -1.616216E+04  1.039980E+05 -2.259662E+04  7.242423E+02  7.887204E+04
        40   6 -2.865752E+02  2.781756E+03  6.980623E+04 -2.683551E+04 -3.246570E+02  2.497074E+04
        40   7  1.623763E+05 -5.898228E+04  1.890330E+05  7.953898E+04  3.542997E+01  1.307658E+05
        40   8  1.925371E+04 -4.751467E+04  9.700994E+04  2.234547E+04  7.281520E+02  7.937902E+04
        40   9 -5.260135E+02  1.422930E+03  6.927913E+04 -4.268356E+04 -3.362703E+02  2.798231E+04
        40  10  1.949809E+05  6.455984E+04  2.193711E+05 -1.319352E+05  1.499588E-10 -1.014527E-09
        40  11  3.536631E+04  1.518900E+04  1.109755E+05 -6.754106E+04 -2.654223E-09 -3.771246E-09
        40  12 -4.631755E+01  4.140625E+03  7.033259E+04 -1.098743E+04 -4.224971E-09 -2.570377E-09
        40  13  1.786554E+05  2.765886E+03  2.041831E+05 -2.619283E+04 -6.602229E-10 -2.004712E-09
        40  14  2.730541E+04 -1.616884E+04  1.039863E+05 -2.259666E+04 -1.144649E-09 -5.807242E-11
        40  15 -2.867427E+02  2.781087E+03  6.980505E+04 -2.683550E+04 -3.231344E-09 -6.827691E-10
        40  16  1.623717E+05 -5.900064E+04  1.890008E+05  7.953897E+04 -4.026408E-10 -1.541835E-10
        40  17  1.925202E+04 -4.752143E+04  9.699810E+04  2.234543E+04 -5.052484E-10  1.798052E-09
        40  18 -5.262238E+02  1.422090E+03  6.927766E+04 -4.268355E+04 -6.456717E-11  2.354189E-09
        40  19  1.949857E+05  6.457934E+04  2.194052E+05 -1.319352E+05  2.415269E+01 -1.347662E+05
        40  20  3.536796E+04  1.519559E+04  1.109871E+05 -6.754101E+04 -7.204062E+02 -7.836503E+04
        40  21 -4.618800E+01  4.141143E+03  7.033349E+04 -1.098743E+04  3.131975E+02 -2.195916E+04
        40  22  1.786602E+05  2.784811E+03  2.042162E+05 -2.619283E+04 -5.978162E+00 -1.327659E+05
        40  23  2.730708E+04 -1.616216E+04  1.039980E+05 -2.259662E+04 -7.242423E+02 -7.887204E+04
        40  24 -2.865752E+02  2.781756E+03  6.980623E+04 -2.683551E+04  3.246570E+02 -2.497074E+04
        40  25  1.623763E+05 -5.898228E+04  1.890330E+05  7.953898E+04 -3.542997E+01 -1.307658E+05
        40  26  1.925371E+04 -4.751467E+04  9.700994E+04  2.234547E+04 -7.281520E+02 -7.937902E+04
        40  27 -5.260135E+02  1.422930E+03  6.927913E+04 -4.268356E+04  3.362703E+02 -2.798231E+04
        41   1  1.902007E+03 -2.363742E+04  5.970575E+04 -3.153606E+04 -1.540767E+03  1.179373E+04
        41   2 -1.029468E+04 -5.806944E+04  5.260936E+04 -2.226954E+04 -3.277347E+03 -1.894228E+04
        41   3 -7.542959E+03 -8.483219E+04  6.924752E+04 -2.120565E+04 -4.842872E+03 -4.967652E+04
        41   4  6.510883E+03 -3.925620E+03  6.324424E+04 -2.680625E+04 -1.550578E+03  1.453193E+04
        41   5  1.664414E+03 -7.780544E+03  6.209790E+04 -2.269551E+04 -3.286301E+03 -1.644885E+04
        41   6  1.180800E+04 -3.925549E+03  8.485490E+04 -2.678705E+04 -4.850470E+03 -4.742930E+04
        41   7  1.111983E+04  1.578663E+04  6.678276E+04 -2.207629E+04 -1.560347E+03  1.727021E+04
        41   8  1.362336E+04  4.251080E+04  7.158635E+04 -2.312151E+04 -3.295258E+03 -1.395522E+04
        41   9  3.115868E+04  7.698746E+04  1.004620E+05 -3.236919E+04 -4.858108E+03 -4.518179E+04
        41  10  1.901967E+03 -2.363757E+04  5.970549E+04 -3.153604E+04 -5.077933E-09 -6.016598E-10
        41  11 -1.029479E+04 -5.806982E+04  5.260866E+04 -2.226959E+04 -8.628000E-11 -1.864744E-08
        41  12 -7.543647E+03 -8.483484E+04  6.924284E+04 -2.120584E+04  1.457959E-09 -2.769458E-08
        41  13  6.510824E+03 -3.925847E+03  6.324384E+04 -2.680623E+04  1.286487E-09 -2.205173E-09
        41  14  1.664330E+03 -7.780838E+03  6.209737E+04 -2.269555E+04  1.440617E-09 -4.421459E-11
        41  15  1.180737E+04 -3.927971E+03  8.485063E+04 -2.678723E+04  8.671090E-09 -6.653143E-10
        41  16  1.111974E+04  1.578631E+04  6.678220E+04 -2.207627E+04  8.545780E-11 -6.038516E-10
        41  17  1.362330E+04  4.251059E+04  7.158597E+04 -2.312154E+04  7.803514E-10  1.681960E-08
        41  18  3.115810E+04  7.698526E+04  1.004581E+05 -3.236936E+04  2.965148E-10  2.745390E-08
        41  19  1.902007E+03 -2.363742E+04  5.970575E+04 -3.153606E+04  1.540767E+03 -1.179373E+04
        41  20 -1.029468E+04 -5.806944E+04  5.260936E+04 -2.226954E+04  3.277347E+03  1.894228E+04
        41  21 -7.542959E+03 -8.483219E+04  6.924752E+04 -2.120565E+04  4.842872E+03  4.967652E+04
        41  22  6.510883E+03 -3.925620E+03  6.324424E+04 -2.680625E+04  1.550578E+03 -1.453193E+04
        41  23  1.664414E+03 -7.780544E+03  6.209790E+04 -2.269551E+04  3.286301E+03  1.644885E+04
        41  24  1.180800E+04 -3.925549E+03  8.485490E+04 -2.678705E+04  4.850470E+03  4.742930E+04
        41  25  1.111983E+04  1.578663E+04  6.678276E+04 -2.207629E+04  1.560347E+03 -1.727021E+04
        41  26  1.362336E+04  4.251080E+04  7.158635E+04 -2.312151E+04  3.295258E+03  1.395522E+04
        41  27  3.115868E+04  7.698746E+04  1.004620E+05 -3.236919E+04  4.858108E+03  4.518179E+04
        42   1 -2.490976E+04 -9.322013E+04  8.350160E+04 -5.536448E+04 -6.038714E+03 -6.476246E+04
        42   2  1.539338E+04 -1.554089E+05  1.458386E+05  5.526145E+04 -5.766149E+03 -1.486273E+05
        42   3  2.705603E+05 -1.529909E+05  3.165147E+05  1.584259E+05 -1.281501E+03 -2.324706E+05
        42   4 -7.823142E+02  8.941952E+03  1.032068E+05 -2.682495E+04 -6.052394E+03 -6.176103E+04
        42   5  4.780506E+04 -2.385950E+04  1.730793E+05 -2.253781E+04 -5.736779E+03 -1.516455E+05
        42   6  3.122327E+05  8.948301E+03  3.554508E+05 -2.571545E+04 -1.180759E+03 -2.415134E+05
        42   7  2.334760E+04  1.111159E+05  1.229120E+05  1.719380E+03 -6.065796E+03 -5.875912E+04
        42   8  8.023832E+04  1.077193E+05  2.003223E+05 -1.003539E+05 -5.706658E+03 -1.546644E+05
        42   9  3.540304E+05  1.709843E+05  3.944036E+05 -2.099052E+05 -1.074673E+03 -2.505585E+05
        42  10 -2.491092E+04 -9.322464E+04  8.349365E+04 -5.536479E+04 -3.129948E-09  2.397374E-08
        42  11  1.538741E+04 -1.554327E+05  1.457970E+05  5.526076E+04 -2.045222E-09  1.239942E-08
        42  12  2.705458E+05 -1.530489E+05  3.164131E+05  1.584256E+05  5.373900E-11  1.194823E-09
        42  13 -7.833775E+02  8.937847E+03  1.031996E+05 -2.682525E+04  5.916949E-09 -2.007519E-09
        42  14  4.779885E+04 -2.388420E+04  1.730360E+05 -2.253852E+04  1.342228E-09 -1.804820E-10
        42  15  3.122170E+05  8.885683E+03  3.553412E+05 -2.571568E+04  3.525807E-11 -5.450357E-10
        42  16  2.334664E+04  1.111121E+05  1.229055E+05  1.719093E+03  2.303244E-10 -2.526466E-08
        42  17  8.023186E+04  1.076936E+05  2.002773E+05 -1.003546E+05  1.298285E-09 -1.444726E-08
        42  18  3.540135E+05  1.709169E+05  3.942856E+05 -2.099054E+05  3.887221E-10 -1.086492E-09
        42  19 -2.490976E+04 -9.322013E+04  8.350160E+04 -5.536448E+04  6.038714E+03  6.476246E+04
        42  20  1.539338E+04 -1.554089E+05  1.458386E+05  5.526145E+04  5.766149E+03  1.486273E+05
        42  21  2.705603E+05 -1.529909E+05  3.165147E+05  1.584259E+05  1.281501E+03  2.324706E+05
        42  22 -7.823142E+02  8.941952E+03  1.032068E+05 -2.682495E+04  6.052394E+03  6.176103E+04
        42  23  4.780506E+04 -2.385950E+04  1.730793E+05 -2.253781E+04  5.736779E+03  1.516455E+05
        42  24  3.122327E+05  8.948301E+03  3.554508E+05 -2.571545E+04  1.180759E+03  2.415134E+05
        42  25  2.334760E+04  1.111159E+05  1.229120E+05  1.719380E+03  6.065796E+03  5.875912E+04
        42  26  8.023832E+04  1.077193E+05  2.003223E+05 -1.003539E+05  5.706658E+03  1.546644E+05
        42  27  3.540304E+05  1.709843E+05  3.944036E+05 -2.099052E+05  1.074673E+03  2.505585E+05
        43   1 -3.659864E+06 -1.118018E+06 -7.005437E+05 -1.254543E+06 -2.917729E+05 -1.015198E+05
        43   2 -3.564983E+06 -6.781624E+05 -4.248123E+05 -1.299767E+06 -1.911408E+05 -4.574260E+04
        43   3 -3.612331E+06 -6.953970E+05 -3.452450E+05 -1.268216E+06 -8.365890E+04 -8.053304E+03
        43   4 -2.778223E+06 -7.121590E+05 -4.440419E+05 -9.413295E+05 -2.838474E+05 -9.856037E+04
        43   5 -2.684845E+06 -3.256939E+05 -1.830429E+05 -1.039647E+06 -1.891474E+05 -4.499941E+04
        43   6 -2.732285E+06 -3.947740E+05 -1.132685E+05 -1.061255E+06 -8.760331E+04 -9.536375E+03
        43   7 -1.895822E+06 -3.061447E+05 -1.876185E+05 -6.276781E+05 -2.759092E+05 -9.559385E+04
        43   8 -1.803960E+06  2.684467E+04  5.865427E+04 -7.791842E+05 -1.871507E+05 -4.425481E+04
        43   9 -1.851491E+06 -9.413918E+04  1.186429E+05 -8.540434E+05 -9.155384E+04 -1.102123E+04
        43  10 -3.659959E+06 -1.118053E+06 -7.007242E+05 -1.254567E+06 -8.414692E-10 -3.777869E-10
        43  11 -3.565023E+06 -6.781746E+05 -4.248854E+05 -1.299774E+06 -5.853281E-10  1.385162E-10
        43  12 -3.612339E+06 -6.953989E+05 -3.452583E+05 -1.268217E+06 -8.318718E-10  1.301137E-10
        43  13 -2.778312E+06 -7.121912E+05 -4.442125E+05 -9.413521E+05 -2.463840E-09 -1.353383E-09
        43  14 -2.684884E+06 -3.257058E+05 -1.831143E+05 -1.039654E+06 -5.088987E-10 -2.202247E-10
        43  15 -2.732293E+06 -3.947761E+05 -1.132831E+05 -1.061255E+06 -2.441601E-09 -1.163887E-09
        43  16 -1.895906E+06 -3.061751E+05 -1.877792E+05 -6.276994E+05  2.743195E-10  1.147208E-09
        43  17 -1.803998E+06  2.683312E+04  5.858453E+04 -7.791909E+05 -5.158358E-10 -5.086052E-10
        43  18 -1.851500E+06 -9.414157E+04  1.186269E+05 -8.540443E+05 -1.680085E-09 -6.300027E-10
        43  19 -3.659864E+06 -1.118018E+06 -7.005437E+05 -1.254543E+06  2.917729E+05  1.015198E+05
        43  20 -3.564983E+06 -6.781624E+05 -4.248123E+05 -1.299767E+06  1.911408E+05  4.574260E+04
        43  21 -3.612331E+06 -6.953970E+05 -3.452450E+05 -1.268216E+06  8.365890E+04  8.053304E+03
        43  22 -2.778223E+06 -7.121590E+05 -4.440419E+05 -9.413295E+05  2.838474E+05  9.856037E+04
        43  23 -2.684845E+06 -3.256939E+05 -1.830429E+05 -1.039647E+06  1.891474E+05  4.499941E+04
        43  24 -2.732285E+06 -3.947740E+05 -1.132685E+05 -1.061255E+06  8.760331E+04  9.536375E+03
        43  25 -1.895822E+06 -3.061447E+05 -1.876185E+05 -6.276781E+05  2.759092E+05  9.559385E+04
        43  26 -1.803960E+06  2.684467E+04  5.865427E+04 -7.791842E+05  1.871507E+05  4.425481E+04
        43  27 -1.851491E+06 -9.413918E+04  1.186429E+05 -8.540434E+05  9.155384E+04  1.102123E+04
        44   1 -3.454001E+06 -7.360144E+05 -2.950035E+05 -1.247388E+06 -6.987371E+04 -7.100457E+03
        44   2 -3.410776E+06 -6.379922E+05 -2.295903E+05 -1.214840E+06 -4.634521E+04  1.555827E+03
        44   3 -3.344148E+06 -6.416501E+05 -1.966320E+05 -1.220678E+06 -2.193418E+04  7.859593E+03
        44   4 -2.714614E+06 -4.478558E+05 -9.287269E+04 -1.037090E+06 -6.959098E+04 -6.996879E+03
        44   5 -2.723429E+06 -3.763718E+05 -4.318900E+04 -1.025676E+06 -4.682493E+04  1.374069E+03
        44   6 -2.708669E+06 -4.063732E+05 -2.532288E+04 -1.052651E+06 -2.317901E+04  7.392295E+03
        44   7 -1.974696E+06 -1.596555E+05  1.092086E+05 -8.265627E+05 -6.930784E+04 -6.893132E+03
        44   8 -2.035625E+06 -1.147216E+05  1.431700E+05 -8.363218E+05 -4.730520E+04  1.192097E+03
        44   9 -2.072800E+06 -1.710767E+05  1.459504E+05 -8.844698E+05 -2.442524E+04  6.924496E+03
        44  10 -3.454007E+06 -7.360158E+05 -2.950128E+05 -1.247388E+06 -2.376335E-09 -9.831632E-10
        44  11 -3.410779E+06 -6.379928E+05 -2.295943E+05 -1.214840E+06 -1.403351E-09  1.109101E-10
        44  12 -3.344148E+06 -6.416503E+05 -1.966330E+05 -1.220678E+06 -6.376612E-10 -7.603791E-10
        44  13 -2.714619E+06 -4.478572E+05 -9.288192E+04 -1.037091E+06 -2.573113E-09 -8.800081E-10
        44  14 -2.723431E+06 -3.763724E+05 -4.319314E+04 -1.025676E+06 -8.172401E-10 -2.716028E-10
        44  15 -2.708669E+06 -4.063734E+05 -2.532399E+04 -1.052651E+06  1.187837E-09 -7.063669E-10
        44  16 -1.974702E+06 -1.596568E+05  1.091995E+05 -8.265631E+05 -6.917417E-10 -1.089578E-09
        44  17 -2.035628E+06 -1.147222E+05  1.431658E+05 -8.363218E+05  3.796503E-09 -5.388690E-10
        44  18 -2.072801E+06 -1.710769E+05  1.459492E+05 -8.844697E+05  1.633106E-09  7.047178E-10
        44  19 -3.454001E+06 -7.360144E+05 -2.950035E+05 -1.247388E+06  6.987371E+04  7.100457E+03
        44  20 -3.410776E+06 -6.379922E+05 -2.295903E+05 -1.214840E+06  4.634521E+04 -1.555827E+03
        44  21 -3.344148E+06 -6.416501E+05 -1.966320E+05 -1.220678E+06  2.193418E+04 -7.859593E+03
        44  22 -2.714614E+06 -4.478558E+05 -9.287269E+04 -1.037090E+06  6.959098E+04  6.996879E+03
        44  23 -2.723429E+06 -3.763718E+05 -4.318900E+04 -1.025676E+06  4.682493E+04 -1.374069E+03
        44  24 -2.708669E+06 -4.063732E+05 -2.532288E+04 -1.052651E+06  2.317901E+04 -7.392295E+03
        44  25 -1.974696E+06 -1.596555E+05  1.092086E+05 -8.265627E+05  6.930784E+04  6.893132E+03
        44  26 -2.035625E+06 -1.147216E+05  1.431700E+05 -8.363218E+05  4.730520E+04 -1.192097E+03
        44  27 -2.072800E+06 -1.710767E+05  1.459504E+05 -8.844698E+05  2.442524E+04 -6.924496E+03
        45   1 -3.188504E+06 -5.985060E+05 -1.510091E+05 -1.184011E+06 -1.807641E+04  7.272859E+03
        45   2 -3.145653E+06 -5.369651E+05 -1.223400E+05 -1.133777E+06 -1.183602E+04  6.862904E+03
        45   3 -3.049310E+06 -5.391279E+05 -9.953322E+04 -1.146614E+06 -5.428490E+03  5.997123E+03
        45   4 -2.704398E+06 -4.151626E+05 -2.007081E+04 -1.051665E+06 -1.881583E+04  6.995362E+03
        45   5 -2.730766E+06 -3.805815E+05 -1.012153E+04 -1.021154E+06 -1.272424E+04  6.530381E+03
        45   6 -2.703615E+06 -4.096690E+05 -5.912202E+03 -1.053713E+06 -6.466221E+03  5.609478E+03
        45   7 -2.220068E+06 -2.318054E+05  1.108463E+05 -9.192245E+05 -1.955588E+04  6.717625E+03
        45   8 -2.315713E+06 -2.241879E+05  1.020816E+05 -9.084619E+05 -1.361312E+04  6.197613E+03
        45   9 -2.357805E+06 -2.802034E+05  8.769830E+04 -9.607662E+05 -7.504593E+03  5.221598E+03
        45  10 -3.188504E+06 -5.985061E+05 -1.510098E+05 -1.184011E+06 -4.298268E-10 -2.795895E-10
        45  11 -3.145653E+06 -5.369652E+05 -1.223403E+05 -1.133777E+06  2.433110E-09  1.272400E-09
        45  12 -3.049310E+06 -5.391279E+05 -9.953334E+04 -1.146614E+06  2.004949E-09  2.288418E-09
        45  13 -2.704399E+06 -4.151627E+05 -2.007156E+04 -1.051665E+06  1.693955E-09 -3.179980E-10
        45  14 -2.730766E+06 -3.805816E+05 -1.012191E+04 -1.021153E+06  3.657805E-09  2.178793E-09
        45  15 -2.703615E+06 -4.096690E+05 -5.912340E+03 -1.053713E+06  9.932568E-10  8.569846E-10
        45  16 -2.220069E+06 -2.318055E+05  1.108455E+05 -9.192244E+05 -9.002633E-10  9.624687E-10
        45  17 -2.315713E+06 -2.241880E+05  1.020811E+05 -9.084619E+05  1.309006E-09  4.664960E-10
        45  18 -2.357805E+06 -2.802034E+05  8.769815E+04 -9.607662E+05 -4.599857E-10 -6.187540E-10
        45  19 -3.188504E+06 -5.985060E+05 -1.510091E+05 -1.184011E+06  1.807641E+04 -7.272859E+03
        45  20 -3.145653E+06 -5.369651E+05 -1.223400E+05 -1.133777E+06  1.183602E+04 -6.862904E+03
        45  21 -3.049310E+06 -5.391279E+05 -9.953322E+04 -1.146614E+06  5.428490E+03 -5.997123E+03
        45  22 -2.704398E+06 -4.151626E+05 -2.007081E+04 -1.051665E+06  1.881583E+04 -6.995362E+03
        45  23 -2.730766E+06 -3.805815E+05 -1.012153E+04 -1.021154E+06  1.272424E+04 -6.530381E+03
        45  24 -2.703615E+06 -4.096690E+05 -5.912202E+03 -1.053713E+06  6.466221E+03 -5.609478E+03
        45  25 -2.220068E+06 -2.318054E+05  1.108463E+05 -9.192245E+05  1.955588E+04 -6.717625E+03
        45  26 -2.315713E+06 -2.241879E+05  1.020816E+05 -9.084619E+05  1.361312E+04 -6.197613E+03
        45  27 -2.357805E+06 -2.802034E+05  8.769830E+04 -9.607662E+05  7.504593E+03 -5.221598E+03
        46   1 -2.877767E+06 -4.776265E+05 -5.189916E+04 -1.102096E+06 -3.973968E+03  4.544375E+03
        46   2 -2.832180E+06 -4.175552E+05 -2.980841E+04 -1.046380E+06 -1.395561E+03  2.182571E+03
        46   3 -2.725987E+06 -4.198441E+05 -9.136524E+03 -1.061024E+06  1.211682E+03 -2.589551E+02
        46   4 -2.702323E+06 -4.115927E+05 -4.735179E+03 -1.054493E+06 -4.940709E+03  4.183586E+03
        46   5 -2.732581E+06 -3.801031E+05 -2.890381E+03 -1.019429E+06 -2.388681E+03  1.812104E+03
        46   6 -2.702234E+06 -4.109676E+05 -2.442627E+03 -1.054726E+06  1.919637E+02 -6.391413E+02
        46   7 -2.526848E+06 -3.455570E+05  4.242614E+04 -1.006878E+06 -5.907753E+03  3.822684E+03
        46   8 -2.632972E+06 -3.426506E+05  2.402668E+04 -9.924749E+05 -3.381974E+03  1.441574E+03
        46   9 -2.678480E+06 -4.020911E+05  4.251172E+03 -1.048427E+06 -8.277898E+02 -1.019340E+03
        46  10 -2.877767E+06 -4.776266E+05 -5.189923E+04 -1.102096E+06  1.606417E-09  1.488817E-09
        46  11 -2.832180E+06 -4.175552E+05 -2.980842E+04 -1.046380E+06 -1.060580E-09  2.386485E-09
        46  12 -2.725987E+06 -4.198441E+05 -9.136527E+03 -1.061024E+06 -7.357321E-10 -1.054924E-09
        46  13 -2.702323E+06 -4.115927E+05 -4.735257E+03 -1.054493E+06  1.906010E-09  9.193179E-11
        46  14 -2.732581E+06 -3.801031E+05 -2.890398E+03 -1.019429E+06  2.251287E-09  1.525333E-09
        46  15 -2.702234E+06 -4.109676E+05 -2.442628E+03 -1.054726E+06  1.660968E-09  2.875238E-10
        46  16 -2.526848E+06 -3.455570E+05  4.242605E+04 -1.006878E+06  9.809230E-10 -1.673321E-09
        46  17 -2.632972E+06 -3.426506E+05  2.402665E+04 -9.924749E+05  6.766311E-10 -1.520379E-09
        46  18 -2.678480E+06 -4.020911E+05  4.251168E+03 -1.048427E+06  2.661221E-09  6.731963E-10
        46  19 -2.877767E+06 -4.776265E+05 -5.189916E+04 -1.102096E+06  3.973968E+03 -4.544375E+03
        46  20 -2.832180E+06 -4.175552E+05 -2.980841E+04 -1.046380E+06  1.395561E+03 -2.182571E+03
        46  21 -2.725987E+06 -4.198441E+05 -9.136524E+03 -1.061024E+06 -1.211682E+03  2.589551E+02
        46  22 -2.702323E+06 -4.115927E+05 -4.735179E+03 -1.054493E+06  4.940709E+03 -4.183586E+03
        46  23 -2.732581E+06 -3.801031E+05 -2.890381E+03 -1.019429E+06  2.388681E+03 -1.812104E+03
        46  24 -2.702234E+06 -4.109676E+05 -2.442627E+03 -1.054726E+06 -1.919637E+02  6.391413E+02
        46  25 -2.526848E+06 -3.455570E+05  4.242614E+04 -1.006878E+06  5.907753E+03 -3.822684E+03
        46  26 -2.632972E+06 -3.426506E+05  2.402668E+04 -9.924749E+05  3.381974E+03 -1.441574E+03
        46  27 -2.678480E+06 -4.020911E+05  4.251172E+03 -1.048427E+06  8.277898E+02  1.019340E+03
        47   1 -2.550815E+06 -3.537409E+05  3.875933E+04 -1.013563E+06  2.287067E+03 -1.887427E+03
        47   2 -2.506269E+06 -2.954392E+05  5.781978E+04 -9.586527E+05  4.990007E+03 -4.268030E+03
        47   3 -2.402236E+06 -2.984430E+05  7.537552E+04 -9.726282E+05  7.637687E+03 -6.493380E+03
        47   4 -2.702483E+06 -4.106665E+05 -2.494040E+03 -1.054429E+06  1.261785E+03 -2.269779E+03
        47   5 -2.732278E+06 -3.804268E+05 -3.252587E+03 -1.019827E+06  4.016101E+03 -4.631639E+03
        47   6 -2.702602E+06 -4.115058E+05 -5.556805E+03 -1.054116E+06  6.714927E+03 -6.838274E+03
        47   7 -2.854129E+06 -4.675912E+05 -4.374975E+04 -1.095285E+06  2.367735E+02 -2.652032E+03
        47   8 -2.958240E+06 -4.654120E+05 -6.432985E+04 -1.080982E+06  3.042580E+03 -4.995104E+03
        47   9 -3.002882E+06 -5.245639E+05 -8.649752E+04 -1.135569E+06  5.792655E+03 -7.182985E+03
        47  10 -2.550815E+06 -3.537409E+05  3.875932E+04 -1.013563E+06 -4.633477E-10  7.821667E-11
        47  11 -2.506269E+06 -2.954392E+05  5.781970E+04 -9.586527E+05 -1.451684E-09  9.431909E-10
        47  12 -2.402237E+06 -2.984430E+05  7.537533E+04 -9.726282E+05 -2.014114E-09  1.504444E-09
        47  13 -2.702483E+06 -4.106665E+05 -2.494052E+03 -1.054429E+06  2.386994E-09 -3.978523E-10
        47  14 -2.732279E+06 -3.804269E+05 -3.252658E+03 -1.019827E+06  2.285503E-10  1.197004E-09
        47  15 -2.702602E+06 -4.115058E+05 -5.556978E+03 -1.054116E+06 -1.821900E-09  4.279313E-10
        47  16 -2.854129E+06 -4.675912E+05 -4.374976E+04 -1.095285E+06  2.255006E-09  2.343598E-09
        47  17 -2.958240E+06 -4.654120E+05 -6.432991E+04 -1.080982E+06 -4.783363E-10 -3.635800E-10
        47  18 -3.002882E+06 -5.245639E+05 -8.649768E+04 -1.135569E+06 -1.840645E-09 -1.449335E-09
        47  19 -2.550815E+06 -3.537409E+05  3.875933E+04 -1.013563E+06 -2.287067E+03  1.887427E+03
        47  20 -2.506269E+06 -2.954392E+05  5.781978E+04 -9.586527E+05 -4.990007E+03  4.268030E+03
        47  21 -2.402236E+06 -2.984430E+05  7.537552E+04 -9.726282E+05 -7.637687E+03  6.493380E+03
        47  22 -2.702483E+06 -4.106665E+05 -2.494040E+03 -1.054429E+06 -1.261785E+03  2.269779E+03
        47  23 -2.732278E+06 -3.804268E+05 -3.252587E+03 -1.019827E+06 -4.016101E+03  4.631639E+03
        47  24 -2.702602E+06 -4.115058E+05 -5.556805E+03 -1.054116E+06 -6.714927E+03  6.838274E+03
        47  25 -2.854129E+06 -4.675912E+05 -4.374975E+04 -1.095285E+06 -2.367735E+02  2.652032E+03
        47  26 -2.958240E+06 -4.654120E+05 -6.432985E+04 -1.080982E+06 -3.042580E+03  4.995104E+03
        47  27 -3.002882E+06 -5.245639E+05 -8.649752E+04 -1.135569E+06 -5.792655E+03  7.182985E+03
        48   1 -2.240490E+06 -2.350161E+05  1.185169E+05 -9.279262E+05  9.375957E+03 -7.761464E+03
        48   2 -2.201043E+06 -1.819827E+05  1.308387E+05 -8.785865E+05  1.643003E+04 -8.225452E+03
        48   3 -2.111855E+06 -1.905535E+05  1.364758E+05 -8.878492E+05  2.329078E+04 -8.158267E+03
        48   4 -2.704437E+06 -4.088915E+05 -6.996066E+03 -1.052854E+06  8.370175E+03 -8.137882E+03
        48   5 -2.729758E+06 -3.813666E+05 -1.211568E+04 -1.022319E+06  1.559722E+04 -8.538053E+03
        48   6 -2.705380E+06 -4.154877E+05 -2.406184E+04 -1.050389E+06  2.263019E+04 -8.407097E+03
        48   7 -3.168173E+06 -5.827540E+05 -1.325273E+05 -1.177697E+06  7.365228E+03 -8.513990E+03
        48   8 -3.258203E+06 -5.807339E+05 -1.550947E+05 -1.165940E+06  1.476519E+04 -8.850360E+03
        48   9 -3.298567E+06 -6.404013E+05 -1.846315E+05 -1.212789E+06  2.197029E+04 -8.655666E+03
        48  10 -2.240490E+06 -2.350161E+05  1.185166E+05 -9.279262E+05 -7.449527E-10  3.778445E-10
        48  11 -2.201043E+06 -1.819828E+05  1.308380E+05 -8.785863E+05  2.246548E-10  8.019426E-10
        48  12 -2.111855E+06 -1.905537E+05  1.364746E+05 -8.878491E+05  6.368972E-11 -2.833687E-10
        48  13 -2.704437E+06 -4.088916E+05 -6.996322E+03 -1.052854E+06 -7.214432E-10  2.981519E-10
        48  14 -2.729758E+06 -3.813667E+05 -1.211628E+04 -1.022318E+06 -3.080887E-10 -6.354734E-10
        48  15 -2.705380E+06 -4.154879E+05 -2.406294E+04 -1.050389E+06 -2.357534E-09  1.615397E-10
        48  16 -3.168173E+06 -5.827541E+05 -1.325275E+05 -1.177696E+06 -2.196073E-09 -1.253236E-09
        48  17 -3.258203E+06 -5.807340E+05 -1.550953E+05 -1.165940E+06 -1.285491E-09  7.331559E-10
        48  18 -3.298567E+06 -6.404015E+05 -1.846325E+05 -1.212789E+06  7.450956E-10  1.102375E-12
        48  19 -2.240490E+06 -2.350161E+05  1.185169E+05 -9.279262E+05 -9.375957E+03  7.761464E+03
        48  20 -2.201043E+06 -1.819827E+05  1.308387E+05 -8.785865E+05 -1.643003E+04  8.225452E+03
        48  21 -2.111855E+06 -1.905535E+05  1.364758E+05 -8.878492E+05 -2.329078E+04  8.158267E+03
        48  22 -2.704437E+06 -4.088915E+05 -6.996066E+03 -1.052854E+06 -8.370175E+03  8.137882E+03
        48  23 -2.729758E+06 -3.813666E+05 -1.211568E+04 -1.022319E+06 -1.559722E+04  8.538053E+03
        48  24 -2.705380E+06 -4.154877E+05 -2.406184E+04 -1.050389E+06 -2.263019E+04  8.407097E+03
        48  25 -3.168173E+06 -5.827540E+05 -1.325273E+05 -1.177697E+06 -7.365228E+03  8.513990E+03
        48  26 -3.258203E+06 -5.807339E+05 -1.550947E+05 -1.165940E+06 -1.476519E+04  8.850360E+03
        48  27 -3.298567E+06 -6.404013E+05 -1.846315E+05 -1.212789E+06 -2.197029E+04  8.655666E+03
        49   1 -1.977474E+06 -1.336228E+05  1.670168E+05 -8.575920E+05  2.887904E+04 -7.956360E+03
        49   2 -1.943700E+06 -8.001008E+04  1.588520E+05 -8.131057E+05  5.617842E+04 -2.743128E+02
        49   3 -1.895997E+06 -1.333683E+05  1.131849E+05 -7.978318E+05  8.254606E+04  9.899888E+03
        49   4 -2.710494E+06 -4.049887E+05 -3.038372E+04 -1.051632E+06  2.768509E+04 -8.405794E+03
        49   5 -2.720941E+06 -3.762554E+05 -5.184680E+04 -1.027679E+06  5.578862E+04 -4.231444E+02
        49   6 -2.717654E+06 -4.547114E+05 -1.114892E+05 -1.032935E+06  8.295772E+04  1.005150E+04
        49   7 -3.442997E+06 -6.763286E+05 -2.278318E+05 -1.245468E+06  2.649269E+04 -8.854676E+03
        49   8 -3.497599E+06 -6.724622E+05 -2.625997E+05 -1.242007E+06  5.539933E+04 -5.717848E+02
        49   9 -3.538658E+06 -7.760016E+05 -3.362246E+05 -1.267753E+06  8.336871E+04  1.020284E+04
        49  10 -1.977475E+06 -1.336231E+05  1.670151E+05 -8.575918E+05  6.914410E-10 -5.263225E-10
        49  11 -1.943704E+06 -8.001093E+04  1.588461E+05 -8.131057E+05 -1.959428E-09  1.308398E-09
        49  12 -1.896004E+06 -1.333702E+05  1.131719E+05 -7.978325E+05 -2.872645E-10  1.057211E-09
        49  13 -2.710495E+06 -4.049890E+05 -3.038530E+04 -1.051632E+06  2.302348E-09 -2.893863E-11
        49  14 -2.720945E+06 -3.762563E+05 -5.185268E+04 -1.027679E+06  1.262119E-09  1.462572E-09
        49  15 -2.717661E+06 -4.547134E+05 -1.115024E+05 -1.032936E+06 -7.180094E-10  1.596739E-09
        49  16 -3.442998E+06 -6.763289E+05 -2.278333E+05 -1.245468E+06  2.980960E-11  1.072843E-10
        49  17 -3.497603E+06 -6.724630E+05 -2.626055E+05 -1.242007E+06  3.151353E-09 -3.480916E-10
        49  18 -3.538665E+06 -7.760036E+05 -3.362379E+05 -1.267753E+06  8.461975E-10  1.715107E-09
        49  19 -1.977474E+06 -1.336228E+05  1.670168E+05 -8.575920E+05 -2.887904E+04  7.956360E+03
        49  20 -1.943700E+06 -8.001008E+04  1.588520E+05 -8.131057E+05 -5.617842E+04  2.743128E+02
        49  21 -1.895997E+06 -1.333683E+05  1.131849E+05 -7.978318E+05 -8.254606E+04 -9.899888E+03
        49  22 -2.710494E+06 -4.049887E+05 -3.038372E+04 -1.051632E+06 -2.768509E+04  8.405794E+03
        49  23 -2.720941E+06 -3.762554E+05 -5.184680E+04 -1.027679E+06 -5.578862E+04  4.231444E+02
        49  24 -2.717654E+06 -4.547114E+05 -1.114892E+05 -1.032935E+06 -8.295772E+04 -1.005150E+04
        49  25 -3.442997E+06 -6.763286E+05 -2.278318E+05 -1.245468E+06 -2.649269E+04  8.854676E+03
        49  26 -3.497599E+06 -6.724622E+05 -2.625997E+05 -1.242007E+06 -5.539933E+04  5.717848E+02
        49  27 -3.538658E+06 -7.760016E+05 -3.362246E+05 -1.267753E+06 -8.336871E+04 -1.020284E+04
        50   1 -1.787489E+06 -7.022969E+04  1.136981E+05 -8.420638E+05  1.082681E+05  1.545004E+04
        50   2 -1.739902E+06  6.260717E+04  3.748750E+04 -7.640950E+05  2.236640E+05  5.662669E+04
        50   3 -1.873374E+06 -3.365597E+05 -2.631826E+05 -5.789922E+05  3.319066E+05  1.166925E+05
        50   4 -2.738515E+06 -3.914368E+05 -1.359989E+05 -1.062447E+06  1.042693E+05  1.394498E+04
        50   5 -2.674928E+06 -3.149342E+05 -2.197226E+05 -1.043917E+06  2.258373E+05  5.743691E+04
        50   6 -2.793933E+06 -7.721588E+05 -5.330835E+05 -9.181723E+05  3.402481E+05  1.198036E+05
        50   7 -3.688671E+06 -7.126340E+05 -3.857719E+05 -1.282545E+06  1.002771E+05  1.244181E+04
        50   8 -3.609107E+06 -6.923901E+05 -4.770133E+05 -1.323344E+06  2.280067E+05  5.824545E+04
        50   9 -3.713651E+06 -1.207560E+06 -8.030668E+05 -1.256849E+06  3.485756E+05  1.229064E+05
        50  10 -1.787502E+06 -7.023311E+04  1.136756E+05 -8.420651E+05  4.791292E-09  1.232617E-10
        50  11 -1.739956E+06  6.259023E+04  3.738713E+04 -7.641053E+05  3.241578E-09 -2.198966E-09
        50  12 -1.873496E+06 -3.366041E+05 -2.634160E+05 -5.790235E+05 -8.511327E-10 -1.064909E-09
        50  13 -2.738527E+06 -3.914399E+05 -1.360198E+05 -1.062448E+06  2.552582E-09 -5.956618E-10
        50  14 -2.674984E+06 -3.149516E+05 -2.198252E+05 -1.043927E+06  3.413082E-09  3.425966E-09
        50  15 -2.794062E+06 -7.722056E+05 -5.333292E+05 -9.182052E+05  1.328137E-09  7.315436E-10
        50  16 -3.688682E+06 -7.126369E+05 -3.857912E+05 -1.282546E+06  2.449425E-10 -8.794559E-10
        50  17 -3.609164E+06 -6.924078E+05 -4.771180E+05 -1.323355E+06 -1.966464E-09 -1.116164E-10
        50  18 -3.713786E+06 -1.207609E+06 -8.033252E+05 -1.256883E+06  1.040999E-09 -1.500519E-09
        50  19 -1.787489E+06 -7.022969E+04  1.136981E+05 -8.420638E+05 -1.082681E+05 -1.545004E+04
        50  20 -1.739902E+06  6.260717E+04  3.748750E+04 -7.640950E+05 -2.236640E+05 -5.662669E+04
        50  21 -1.873374E+06 -3.365597E+05 -2.631826E+05 -5.789922E+05 -3.319066E+05 -1.166925E+05
        50  22 -2.738515E+06 -3.914368E+05 -1.359989E+05 -1.062447E+06 -1.042693E+05 -1.394498E+04
        50  23 -2.674928E+06 -3.149342E+05 -2.197226E+05 -1.043917E+06 -2.258373E+05 -5.743691E+04
        50  24 -2.793933E+06 -7.721588E+05 -5.330835E+05 -9.181723E+05 -3.402481E+05 -1.198036E+05
        50  25 -3.688671E+06 -7.126340E+05 -3.857719E+05 -1.282545E+06 -1.002771E+05 -1.244181E+04
        50  26 -3.609107E+06 -6.923901E+05 -4.770133E+05 -1.323344E+06 -2.280067E+05 -5.824545E+04
        50  27 -3.713651E+06 -1.207560E+06 -8.030668E+05 -1.256849E+06 -3.485756E+05 -1.229064E+05
        51   1  1.464084E+05 -1.769499E+05  1.423712E+05  2.456150E+02  6.625552E+03  7.538896E+03
        51   2  1.501462E+05 -1.820154E+05  1.389990E+05  2.808745E+02  2.071440E+04  2.465580E+03
        51   3  1.481312E+05 -1.875318E+05  1.375812E+05 -2.819319E+03  2.125689E+04 -2.636890E+03
        51   4 -5.545971E+03 -7.863998E+05 -7.680091E+03 -7.056271E+02  6.650953E+03 -3.965641E+03
        51   5  6.817393E+02 -7.855226E+05 -4.508566E+03  8.683457E+02  2.072583E+04 -1.563661E+03
        51   6 -1.451181E+02 -7.863967E+05 -4.577830E+03 -6.931773E+02  2.124848E+04  8.092192E+02
        51   7 -1.575279E+05 -1.395511E+06 -1.577584E+05 -1.655751E+03  6.676401E+03 -1.545890E+04
        51   8 -1.488090E+05 -1.388695E+06 -1.480416E+05  1.455450E+03  2.073727E+04 -5.589002E+03
        51   9 -1.484473E+05 -1.384932E+06 -1.467619E+05  1.431135E+03  2.124010E+04  4.252019E+03
        51  10  1.464084E+05 -1.769500E+05  1.423710E+05  2.455748E+02 -5.366979E-09  2.774034E-09
        51  11  1.501458E+05 -1.820155E+05  1.389982E+05  2.808334E+02 -1.659777E-10 -1.885270E-09
        51  12  1.481308E+05 -1.875319E+05  1.375804E+05 -2.819274E+03  7.694519E-11 -4.874159E-09
        51  13 -5.546023E+03 -7.863998E+05 -7.680204E+03 -7.056059E+02 -5.803096E-09  2.890492E-11
        51  14  6.812775E+02 -7.855227E+05 -4.509378E+03  8.683718E+02 -4.281583E-10 -1.388076E-09
        51  15 -1.456029E+02 -7.863968E+05 -4.578679E+03 -6.931911E+02 -1.430747E-09 -8.305115E-11
        51  16 -1.575281E+05 -1.395511E+06 -1.577589E+05 -1.655668E+03 -3.552707E-09 -4.467501E-09
        51  17 -1.488095E+05 -1.388695E+06 -1.480425E+05  1.455544E+03  2.583110E-10 -2.129360E-09
        51  18 -1.484478E+05 -1.384932E+06 -1.467628E+05  1.431062E+03 -1.934459E-09  2.557846E-09
        51  19  1.464084E+05 -1.769499E+05  1.423712E+05  2.456150E+02 -6.625552E+03 -7.538896E+03
        51  20  1.501462E+05 -1.820154E+05  1.389990E+05  2.808745E+02 -2.071440E+04 -2.465580E+03
        51  21  1.481312E+05 -1.875318E+05  1.375812E+05 -2.819319E+03 -2.125689E+04  2.636890E+03
        51  22 -5.545971E+03 -7.863998E+05 -7.680091E+03 -7.056271E+02 -6.650953E+03  3.965641E+03
        51  23  6.817393E+02 -7.855226E+05 -4.508566E+03  8.683457E+02 -2.072583E+04  1.563661E+03
        51  24 -1.451181E+02 -7.863967E+05 -4.577830E+03 -6.931773E+02 -2.124848E+04 -8.092192E+02
        51  25 -1.575279E+05 -1.395511E+06 -1.577584E+05 -1.655751E+03 -6.676401E+03  1.545890E+04
        51  26 -1.488090E+05 -1.388695E+06 -1.480416E+05  1.455450E+03 -2.073727E+04  5.589002E+03
        51  27 -1.484473E+05 -1.384932E+06 -1.467619E+05  1.431135E+03 -2.124010E+04 -4.252019E+03
        52   1  1.461645E+05 -1.949378E+05  1.359611E+05 -1.610161E+03  1.935882E+04  2.458751E+03
        52   2  1.452989E+05 -2.011352E+05  1.322742E+05 -4.327454E+02  1.997768E+04  4.941251E+03
        52   3  1.390771E+05 -2.087133E+05  1.256931E+05 -3.959181E+03  1.886259E+04  7.417622E+03
        52   4 -3.721928E+02 -7.863494E+05 -5.008799E+03 -1.042044E+03  1.936255E+04  1.633631E+03
        52   5  5.413977E+02 -7.855756E+05 -6.728815E+03  1.303446E+03  1.997850E+04  5.070340E+03
        52   6 -4.069845E+03 -7.863500E+05 -1.200808E+04 -1.055207E+03  1.885980E+04  8.500941E+03
        52   7 -1.469342E+05 -1.377440E+06 -1.460033E+05 -4.742285E+02  1.936628E+04  8.092930E+02
        52   8 -1.442407E+05 -1.369702E+06 -1.457557E+05  3.038254E+03  1.997934E+04  5.199306E+03
        52   9 -1.472409E+05 -1.363680E+06 -1.497327E+05  1.846331E+03  1.885702E+04  9.583254E+03
        52  10  1.461641E+05 -1.949379E+05  1.359604E+05 -1.610199E+03 -5.207015E-09 -2.031037E-10
        52  11  1.452985E+05 -2.011353E+05  1.322734E+05 -4.328249E+02 -2.916596E-09 -6.431249E-09
        52  12  1.390767E+05 -2.087134E+05  1.256924E+05 -3.959294E+03 -1.365838E-09 -8.349930E-09
        52  13 -3.725960E+02 -7.863495E+05 -5.009508E+03 -1.042069E+03  5.024760E-11  1.053789E-10
        52  14  5.409624E+02 -7.855757E+05 -6.729613E+03  1.303364E+03  1.303670E-09 -1.741160E-09
        52  15 -4.070247E+03 -7.863501E+05 -1.200888E+04 -1.055336E+03  2.844345E-09 -3.065661E-10
        52  16 -1.469346E+05 -1.377440E+06 -1.460040E+05 -4.742412E+02 -5.948965E-09 -2.208374E-09
        52  17 -1.442412E+05 -1.369702E+06 -1.457565E+05  3.038170E+03 -1.484061E-09  1.181597E-09
        52  18 -1.472413E+05 -1.363681E+06 -1.497336E+05  1.846185E+03 -2.512808E-09  5.362789E-09
        52  19  1.461645E+05 -1.949378E+05  1.359611E+05 -1.610161E+03 -1.935882E+04 -2.458751E+03
        52  20  1.452989E+05 -2.011352E+05  1.322742E+05 -4.327454E+02 -1.997768E+04 -4.941251E+03
        52  21  1.390771E+05 -2.087133E+05  1.256931E+05 -3.959181E+03 -1.886259E+04 -7.417622E+03
        52  22 -3.721928E+02 -7.863494E+05 -5.008799E+03 -1.042044E+03 -1.936255E+04 -1.633631E+03
        52  23  5.413977E+02 -7.855756E+05 -6.728815E+03  1.303446E+03 -1.997850E+04 -5.070340E+03
        52  24 -4.069845E+03 -7.863500E+05 -1.200808E+04 -1.055207E+03 -1.885980E+04 -8.500941E+03
        52  25 -1.469342E+05 -1.377440E+06 -1.460033E+05 -4.742285E+02 -1.936628E+04 -8.092930E+02
        52  26 -1.442407E+05 -1.369702E+06 -1.457557E+05  3.038254E+03 -1.997934E+04 -5.199306E+03
        52  27 -1.472409E+05 -1.363680E+06 -1.497327E+05  1.846331E+03 -1.885702E+04 -9.583254E+03
        53   1  1.427810E+05 -2.207144E+05  1.203350E+05  2.740100E+03  2.016735E+04  1.353474E+04
        53   2  1.437862E+05 -2.228863E+05  1.098854E+05 -4.176965E+03  1.912169E+04  1.930280E+04
        53   3  9.613837E+04 -2.377440E+05  8.356453E+04 -1.743089E+04  5.975596E+03  2.501617E+04
        53   4  2.114775E+03 -7.890782E+05 -1.455729E+04 -1.352263E+03  2.017918E+04  1.075387E+04
        53   5  5.221980E+03 -7.821579E+05 -2.311789E+04  1.722410E+03  1.910680E+04  2.319091E+04
        53   6 -4.150606E+04 -7.890937E+05 -5.219508E+04 -1.540707E+03  5.929313E+03  3.557301E+04
        53   7 -1.385747E+05 -1.357145E+06 -1.494720E+05 -5.440575E+03  2.019107E+04  7.975529E+03
        53   8 -1.333647E+05 -1.341142E+06 -1.561430E+05  7.616739E+03  1.909198E+04  2.707551E+04
        53   9 -1.791722E+05 -1.340166E+06 -1.879766E+05  1.433564E+04  5.883551E+03  4.612049E+04
        53  10  1.427806E+05 -2.207147E+05  1.203339E+05  2.739880E+03 -2.820308E-09  3.985995E-09
        53  11  1.437857E+05 -2.228868E+05  1.098841E+05 -4.177262E+03 -2.987482E-09  3.162676E-09
        53  12  9.613816E+04 -2.377446E+05  8.356329E+04 -1.743101E+04 -1.104469E-09  2.573286E-10
        53  13  2.114306E+03 -7.890785E+05 -1.455827E+04 -1.352438E+03  1.839241E-09 -2.265162E-11
        53  14  5.221443E+03 -7.821586E+05 -2.311958E+04  1.722053E+03 -5.346862E-10 -2.223205E-09
        53  15 -4.150643E+04 -7.890951E+05 -5.219753E+04 -1.540877E+03 -1.117302E-09 -3.559091E-10
        53  16 -1.385751E+05 -1.357145E+06 -1.494729E+05 -5.440705E+03 -3.240668E-09 -6.981683E-09
        53  17 -1.333653E+05 -1.341143E+06 -1.561451E+05  7.616322E+03 -4.339529E-09 -9.791052E-09
        53  18 -1.791728E+05 -1.340168E+06 -1.879807E+05  1.433542E+04  6.494001E-11 -3.722945E-09
        53  19  1.427810E+05 -2.207144E+05  1.203350E+05  2.740100E+03 -2.016735E+04 -1.353474E+04
        53  20  1.437862E+05 -2.228863E+05  1.098854E+05 -4.176965E+03 -1.912169E+04 -1.930280E+04
        53  21  9.613837E+04 -2.377440E+05  8.356453E+04 -1.743089E+04 -5.975596E+03 -2.501617E+04
        53  22  2.114775E+03 -7.890782E+05 -1.455729E+04 -1.352263E+03 -2.017918E+04 -1.075387E+04
        53  23  5.221980E+03 -7.821579E+05 -2.311789E+04  1.722410E+03 -1.910680E+04 -2.319091E+04
        53  24 -4.150606E+04 -7.890937E+05 -5.219508E+04 -1.540707E+03 -5.929313E+03 -3.557301E+04
        53  25 -1.385747E+05 -1.357145E+06 -1.494720E+05 -5.440575E+03 -2.019107E+04 -7.975529E+03
        53  26 -1.333647E+05 -1.341142E+06 -1.561430E+05  7.616739E+03 -1.909198E+04 -2.707551E+04
        53  27 -1.791722E+05 -1.340166E+06 -1.879766E+05  1.433564E+04 -5.883551E+03 -4.612049E+04
        54   1  4.227877E+04  4.607917E+05  2.407039E+04 -5.464200E+01  1.479227E+04 -2.586796E+02
        54   2  4.232564E+04  4.607976E+05  2.436930E+04 -3.409207E+01  1.473839E+04 -6.583527E+02
        54   3  4.246954E+04  4.608817E+05  2.495312E+04 -1.286787E+01  1.461751E+04 -1.058051E+03
        54   4 -8.021461E+00  2.730735E+05  2.738338E+02  1.471016E-01  1.479273E+04 -2.094940E+02
        54   5  1.422688E+01  2.730484E+05  4.806426E+02 -1.792779E-01  1.473881E+04 -4.482076E+02
        54   6  1.055809E+02  2.730735E+05  8.606813E+02  1.683696E-01  1.461788E+04 -6.869438E+02
        54   7 -4.229625E+04  8.539149E+04 -2.352284E+04  5.492049E+01  1.479320E+04 -1.603224E+02
        54   8 -4.229863E+04  8.533527E+04 -2.340815E+04  3.372464E+01  1.473924E+04 -2.381228E+02
        54   9 -4.225983E+04  8.530136E+04 -2.323192E+04  1.320256E+01  1.461826E+04 -3.159434E+02
        54  10  4.227853E+04  4.607916E+05  2.406998E+04 -5.463891E+01 -1.392634E-09  1.618656E-09
        54  11  4.232541E+04  4.607976E+05  2.436889E+04 -3.408426E+01 -2.716935E-09 -2.472909E-09
        54  12  4.246931E+04  4.608816E+05  2.495272E+04 -1.285541E+01 -1.585914E-09 -6.327903E-09
        54  13 -8.256482E+00  2.730735E+05  2.734224E+02  1.495972E-01  7.117816E-10  2.398898E-10
        54  14  1.399353E+01  2.730483E+05  4.802340E+02 -1.739581E-01 -1.290761E-09 -4.869412E-10
        54  15  1.053513E+02  2.730734E+05  8.602788E+02  1.764560E-01 -1.736362E-09  2.573128E-10
        54  16 -4.229648E+04  8.539144E+04 -2.352325E+04  5.492240E+01 -3.012185E-09 -1.860527E-09
        54  17 -4.229887E+04  8.533521E+04 -2.340855E+04  3.372746E+01 -2.761801E-09  2.331491E-09
        54  18 -4.226006E+04  8.530130E+04 -2.323232E+04  1.320628E+01 -2.888271E-09  6.437575E-09
        54  19  4.227877E+04  4.607917E+05  2.407039E+04 -5.464200E+01 -1.479227E+04  2.586796E+02
        54  20  4.232564E+04  4.607976E+05  2.436930E+04 -3.409207E+01 -1.473839E+04  6.583527E+02
        54  21  4.246954E+04  4.608817E+05  2.495312E+04 -1.286787E+01 -1.461751E+04  1.058051E+03
        54  22 -8.021461E+00  2.730735E+05  2.738338E+02  1.471016E-01 -1.479273E+04  2.094940E+02
        54  23  1.422688E+01  2.730484E+05  4.806426E+02 -1.792780E-01 -1.473881E+04  4.482076E+02
        54  24  1.055809E+02  2.730735E+05  8.606813E+02  1.683695E-01 -1.461788E+04  6.869438E+02
        54  25 -4.229625E+04  8.539149E+04 -2.352284E+04  5.492049E+01 -1.479320E+04  1.603224E+02
        54  26 -4.229863E+04  8.533527E+04 -2.340815E+04  3.372464E+01 -1.473924E+04  2.381228E+02
        54  27 -4.225983E+04  8.530136E+04 -2.323192E+04  1.320256E+01 -1.461826E+04  3.159434E+02
        55   1  4.255863E+04  4.610075E+05  2.537162E+04 -6.860982E+01  1.454117E+04 -1.265140E+03
        55   2  4.304669E+04  4.608073E+05  2.691501E+04  4.314989E+02  1.412207E+04 -3.484003E+03
        55   3  4.446049E+04  4.611289E+05  3.013415E+04  8.977152E+02  1.320510E+04 -5.703046E+03
        55   4  1.539960E+02  2.731322E+05  1.143034E+03 -7.545608E+00  1.454153E+04 -8.549383E+02
        55   5  5.219070E+02  2.729748E+05  2.041311E+03  9.583755E+00  1.412206E+04 -1.877895E+03
        55   6  1.608173E+03  2.731319E+05  3.785449E+03 -7.181363E+00  1.320465E+04 -2.901027E+03
        55   7 -4.225210E+04  8.529301E+04 -2.308573E+04  5.350145E+01  1.454188E+04 -4.448550E+02
        55   8 -4.200437E+04  8.517831E+04 -2.283264E+04 -4.121954E+02  1.412205E+04 -2.722496E+02
        55   9 -4.124571E+04  8.517073E+04 -2.256368E+04 -9.117894E+02  1.320420E+04 -9.981807E+01
        55  10  4.255840E+04  4.610075E+05  2.537122E+04 -6.859501E+01  1.795162E-09 -1.609538E-08
        55  11  4.304647E+04  4.608072E+05  2.691461E+04  4.315385E+02 -2.181822E-09 -2.184199E-08
        55  12  4.446029E+04  4.611289E+05  3.013376E+04  8.977758E+02 -4.686422E-09 -2.469266E-08
        55  13  1.537687E+02  2.731321E+05  1.142635E+03 -7.535596E+00  1.797124E-09  2.370074E-10
        55  14  5.216918E+02  2.729747E+05  2.040929E+03  9.605111E+00  7.270662E-09 -6.242253E-10
        55  15  1.607984E+03  2.731319E+05  3.785105E+03 -7.150514E+00  1.154557E-08  3.940511E-10
        55  16 -4.225232E+04  8.529295E+04 -2.308612E+04  5.350666E+01 -3.114065E-09  1.558320E-08
        55  17 -4.200459E+04  8.517826E+04 -2.283301E+04 -4.121923E+02 -3.055709E-09  2.163907E-08
        55  18 -4.124590E+04  8.517068E+04 -2.256401E+04 -9.117884E+02 -5.646055E-09  2.479247E-08
        55  19  4.255863E+04  4.610075E+05  2.537162E+04 -6.860982E+01 -1.454117E+04  1.265140E+03
        55  20  4.304669E+04  4.608073E+05  2.691501E+04  4.314989E+02 -1.412207E+04  3.484003E+03
        55  21  4.446049E+04  4.611289E+05  3.013415E+04  8.977152E+02 -1.320510E+04  5.703046E+03
        55  22  1.539960E+02  2.731322E+05  1.143034E+03 -7.545608E+00 -1.454153E+04  8.549383E+02
        55  23  5.219070E+02  2.729748E+05  2.041311E+03  9.583755E+00 -1.412206E+04  1.877895E+03
        55  24  1.608173E+03  2.731319E+05  3.785449E+03 -7.181363E+00 -1.320465E+04  2.901027E+03
        55  25 -4.225210E+04  8.529301E+04 -2.308573E+04  5.350145E+01 -1.454188E+04  4.448550E+02
        55  26 -4.200437E+04  8.517831E+04 -2.283264E+04 -4.121954E+02 -1.412205E+04  2.722496E+02
        55  27 -4.124571E+04  8.517073E+04 -2.256368E+04 -9.117894E+02 -1.320420E+04  9.981807E+01
        56   1  4.532423E+04  4.618961E+05  3.240674E+04  5.656326E+02  1.262589E+04 -6.656901E+03
        56   2  5.025519E+04  4.600265E+05  4.143795E+04  6.366953E+03  9.499243E+03 -2.028704E+04
        56   3  6.382439E+04  4.620914E+05  6.149845E+04  1.186211E+04  2.687755E+03 -3.391871E+04
        56   4  2.214708E+03  2.735953E+05  5.076500E+03 -6.803116E+01  1.262528E+04 -3.561638E+03
        56   5  6.338937E+03  2.723945E+05  9.382464E+03  8.747879E+01  9.495578E+03 -8.342284E+03
        56   6  1.756693E+04  2.735933E+05  1.857565E+04 -6.319189E+01  2.680773E+03 -1.312438E+04
        56   7 -4.089644E+04  8.533027E+04 -2.225429E+04 -7.014921E+02  1.262467E+04 -4.672732E+02
        56   8 -3.757897E+04  8.479753E+04 -2.267364E+04 -6.190036E+03  9.491672E+03  3.598984E+03
        56   9 -2.869222E+04  8.512925E+04 -2.434776E+04 -1.198484E+04  2.672992E+03  7.663693E+03
        56  10  4.532405E+04  4.618960E+05  3.240636E+04  5.657003E+02 -4.916835E-09 -5.570697E-08
        56  11  5.025499E+04  4.600261E+05  4.143701E+04  6.367108E+03 -5.155676E-10  1.327251E-08
        56  12  6.382408E+04  4.620902E+05  6.149628E+04  1.186218E+04  6.829930E-10  8.046440E-08
        56  13  2.214533E+03  2.735952E+05  5.076176E+03 -6.799495E+01  9.495853E-09  3.635146E-10
        56  14  6.338822E+03  2.723944E+05  9.382164E+03  8.754258E+01  8.307169E-09 -6.638324E-10
        56  15  1.756688E+04  2.735931E+05  1.857531E+04 -6.316356E+01  3.090997E-09  4.813936E-10
        56  16 -4.089661E+04  8.533023E+04 -2.225459E+04 -7.014874E+02 -6.036828E-09  5.519023E-08
        56  17 -3.757907E+04  8.479749E+04 -2.267383E+04 -6.190064E+03 -3.568280E-09 -1.346399E-08
        56  18 -2.869224E+04  8.512919E+04 -2.434789E+04 -1.198486E+04 -5.789979E-10 -8.036327E-08
        56  19  4.532423E+04  4.618961E+05  3.240674E+04  5.656326E+02 -1.262589E+04  6.656901E+03
        56  20  5.025519E+04  4.600265E+05  4.143795E+04  6.366953E+03 -9.499243E+03  2.028704E+04
        56  21  6.382439E+04  4.620914E+05  6.149845E+04  1.186211E+04 -2.687755E+03  3.391871E+04
        56  22  2.214708E+03  2.735953E+05  5.076500E+03 -6.803116E+01 -1.262528E+04  3.561638E+03
        56  23  6.338937E+03  2.723945E+05  9.382464E+03  8.747879E+01 -9.495578E+03  8.342284E+03
        56  24  1.756693E+04  2.735933E+05  1.857565E+04 -6.319189E+01 -2.680773E+03  1.312438E+04
        56  25 -4.089644E+04  8.533027E+04 -2.225429E+04 -7.014921E+02 -1.262467E+04  4.672732E+02
        56  26 -3.757897E+04  8.479753E+04 -2.267364E+04 -6.190036E+03 -9.491672E+03 -3.598984E+03
        56  27 -2.869222E+04  8.512925E+04 -2.434776E+04 -1.198484E+04 -2.672992E+03 -7.663693E+03
        57   1 -5.966491E+06 -1.749806E+06 -1.090731E+06 -2.069807E+06 -5.480619E+05 -1.990023E+05
        57   2 -5.815297E+06 -9.493436E+05 -5.800544E+05 -2.196910E+06 -3.555798E+05 -1.092398E+05
        57   3 -5.983014E+06 -9.819156E+05 -4.420143E+05 -2.127046E+06 -1.567455E+05 -3.626585E+04
        57   4 -5.199526E+06 -1.322617E+06 -8.522432E+05 -1.722751E+06 -5.407935E+05 -1.964005E+05
        57   5 -4.996330E+06 -6.022215E+05 -3.507687E+05 -1.936128E+06 -3.537204E+05 -1.085656E+05
        57   6 -5.110563E+06 -7.131563E+05 -2.172515E+05 -1.952666E+06 -1.602815E+05 -3.758122E+04
        57   7 -4.431946E+06 -8.951568E+05 -6.138138E+05 -1.375237E+06 -5.335149E+05 -1.937905E+05
        57   8 -4.176708E+06 -2.550122E+05 -1.215475E+05 -1.675016E+06 -3.518580E+05 -1.078899E+05
        57   9 -4.237371E+06 -4.444067E+05  7.451923E+03 -1.778091E+06 -1.638228E+05 -3.889774E+04
        57  10 -5.966827E+06 -1.749931E+06 -1.091377E+06 -2.069896E+06  5.634589E-10 -6.470780E-10
        57  11 -5.815437E+06 -9.493909E+05 -5.803172E+05 -2.196941E+06  1.437672E-09  4.068720E-11
        57  12 -5.983041E+06 -9.819237E+05 -4.420635E+05 -2.127050E+06 -1.289091E-09 -5.213721E-10
        57  13 -5.199853E+06 -1.322738E+06 -8.528711E+05 -1.722837E+06  4.914740E-09 -1.430570E-09
        57  14 -4.996468E+06 -6.022682E+05 -3.510284E+05 -1.936159E+06  2.066262E-10 -7.202654E-10
        57  15 -5.110592E+06 -7.131648E+05 -2.173029E+05 -1.952671E+06 -1.842174E-09 -7.783175E-10
        57  16 -4.432264E+06 -8.952745E+05 -6.144241E+05 -1.375321E+06 -2.302620E-10  5.801976E-10
        57  17 -4.176845E+06 -2.550583E+05 -1.218041E+05 -1.675047E+06  1.257947E-09 -7.720195E-10
        57  18 -4.237401E+06 -4.444157E+05  7.398227E+03 -1.778096E+06 -2.168610E-11 -5.142919E-10
        57  19 -5.966491E+06 -1.749806E+06 -1.090731E+06 -2.069807E+06  5.480619E+05  1.990023E+05
        57  20 -5.815297E+06 -9.493436E+05 -5.800544E+05 -2.196910E+06  3.555798E+05  1.092398E+05
        57  21 -5.983014E+06 -9.819156E+05 -4.420143E+05 -2.127046E+06  1.567455E+05  3.626585E+04
        57  22 -5.199526E+06 -1.322617E+06 -8.522432E+05 -1.722751E+06  5.407935E+05  1.964005E+05
        57  23 -4.996330E+06 -6.022215E+05 -3.507687E+05 -1.936128E+06  3.537204E+05  1.085656E+05
        57  24 -5.110563E+06 -7.131563E+05 -2.172515E+05 -1.952666E+06  1.602815E+05  3.758122E+04
        57  25 -4.431946E+06 -8.951568E+05 -6.138138E+05 -1.375237E+06  5.335149E+05  1.937905E+05
        57  26 -4.176708E+06 -2.550122E+05 -1.215475E+05 -1.675016E+06  3.518580E+05  1.078899E+05
        57  27 -4.237371E+06 -4.444067E+05  7.451923E+03 -1.778091E+06  1.638228E+05  3.889774E+04
        58   1 -5.807730E+06 -1.107913E+06 -3.800185E+05 -2.121638E+06 -1.276178E+05 -2.888690E+04
        58   2 -5.757565E+06 -9.642791E+05 -2.699295E+05 -2.100832E+06 -8.341798E+04 -1.225133E+04
        58   3 -5.709406E+06 -9.701893E+05 -2.218948E+05 -2.101705E+06 -3.827085E+04  1.869508E+03
        58   4 -5.076902E+06 -8.146093E+05 -1.780582E+05 -1.905832E+06 -1.272993E+05 -2.877281E+04
        58   5 -5.070240E+06 -7.002307E+05 -8.260732E+04 -1.909862E+06 -8.389061E+04 -1.243094E+04
        58   6 -5.065380E+06 -7.351594E+05 -4.852119E+04 -1.935580E+06 -3.953864E+04  1.393948E+03
        58   7 -4.345553E+06 -5.212558E+05  2.385283E+04 -1.689787E+06 -1.269803E+05 -2.865850E+04
        58   8 -4.382456E+06 -4.361505E+05  1.046721E+05 -1.718698E+06 -8.436378E+04 -1.261076E+04
        58   9 -4.420953E+06 -5.001128E+05  1.248157E+05 -1.769302E+06 -4.080788E+04  9.178917E+02
        58  10 -5.807748E+06 -1.107918E+06 -3.800510E+05 -2.121641E+06  1.241539E-10  3.107314E-10
        58  11 -5.757572E+06 -9.642811E+05 -2.699430E+05 -2.100832E+06 -1.585023E-09  8.959359E-10
        58  12 -5.709408E+06 -9.701897E+05 -2.218976E+05 -2.101705E+06  1.150126E-09  1.664659E-10
        58  13 -5.076920E+06 -8.146146E+05 -1.780905E+05 -1.905835E+06 -3.520611E-10  5.400851E-11
        58  14 -5.070248E+06 -7.002328E+05 -8.262096E+04 -1.909863E+06  7.992187E-10  8.354310E-10
        58  15 -5.065382E+06 -7.351599E+05 -4.852415E+04 -1.935580E+06  1.816413E-09  7.751525E-11
        58  16 -4.345570E+06 -5.212611E+05  2.382074E+04 -1.689790E+06  5.936891E-10  2.194260E-10
        58  17 -4.382464E+06 -4.361526E+05  1.046584E+05 -1.718699E+06 -2.097376E-10  1.013433E-09
        58  18 -4.420955E+06 -5.001132E+05  1.248126E+05 -1.769302E+06  3.364135E-09  1.526881E-09
        58  19 -5.807730E+06 -1.107913E+06 -3.800185E+05 -2.121638E+06  1.276178E+05  2.888690E+04
        58  20 -5.757565E+06 -9.642791E+05 -2.699295E+05 -2.100832E+06  8.341798E+04  1.225133E+04
        58  21 -5.709406E+06 -9.701893E+05 -2.218948E+05 -2.101705E+06  3.827085E+04 -1.869508E+03
        58  22 -5.076902E+06 -8.146093E+05 -1.780582E+05 -1.905832E+06  1.272993E+05  2.877281E+04
        58  23 -5.070240E+06 -7.002307E+05 -8.260732E+04 -1.909862E+06  8.389061E+04  1.243094E+04
        58  24 -5.065380E+06 -7.351594E+05 -4.852119E+04 -1.935580E+06  3.953864E+04 -1.393948E+03
        58  25 -4.345553E+06 -5.212558E+05  2.385283E+04 -1.689787E+06  1.269803E+05  2.865850E+04
        58  26 -4.382456E+06 -4.361505E+05  1.046721E+05 -1.718698E+06  8.436378E+04  1.261076E+04
        58  27 -4.420953E+06 -5.001128E+05  1.248157E+05 -1.769302E+06  4.080788E+04 -9.178917E+02
        59   1 -5.541030E+06 -9.363193E+05 -1.698301E+05 -2.066610E+06 -3.101439E+04  2.514590E+03
        59   2 -5.492681E+06 -8.629290E+05 -1.300503E+05 -2.012312E+06 -1.995827E+04  3.703569E+03
        59   3 -5.388253E+06 -8.656782E+05 -1.015241E+05 -2.026115E+06 -8.668643E+03  4.260741E+03
        59   4 -5.057147E+06 -7.518172E+05 -3.839772E+04 -1.933530E+06 -3.178874E+04  2.223917E+03
        59   5 -5.084452E+06 -7.085768E+05 -1.927766E+04 -1.901412E+06 -2.093618E+04  3.337494E+03
        59   6 -5.055641E+06 -7.414265E+05 -1.124105E+04 -1.937395E+06 -9.851539E+03  3.818919E+03
        59   7 -4.573037E+06 -5.673008E+05  9.301321E+04 -1.800356E+06 -3.256374E+04  1.932991E+03
        59   8 -4.676062E+06 -5.542150E+05  9.147994E+04 -1.790446E+06 -2.191481E+04  2.971152E+03
        59   9 -4.722921E+06 -6.171689E+05  7.903223E+04 -1.848632E+06 -1.103514E+04  3.376840E+03
        59  10 -5.541031E+06 -9.363195E+05 -1.698319E+05 -2.066610E+06  1.562962E-09  5.534072E-10
        59  11 -5.492682E+06 -8.629291E+05 -1.300511E+05 -2.012312E+06  2.049682E-09  1.071882E-09
        59  12 -5.388253E+06 -8.656782E+05 -1.015243E+05 -2.026115E+06  3.563385E-10  2.465905E-09
        59  13 -5.057148E+06 -7.518175E+05 -3.839964E+04 -1.933530E+06  2.370061E-09 -2.007555E-10
        59  14 -5.084453E+06 -7.085770E+05 -1.927851E+04 -1.901412E+06  1.925181E-09  1.587177E-09
        59  15 -5.055641E+06 -7.414265E+05 -1.124126E+04 -1.937395E+06 -1.866142E-09  8.087868E-10
        59  16 -4.573038E+06 -5.673011E+05  9.301120E+04 -1.800356E+06  9.126339E-10  2.896545E-10
        59  17 -4.676063E+06 -5.542151E+05  9.147901E+04 -1.790446E+06 -1.666017E-09 -5.089037E-10
        59  18 -4.722921E+06 -6.171689E+05  7.903198E+04 -1.848632E+06 -1.702137E-09 -1.376107E-10
        59  19 -5.541030E+06 -9.363193E+05 -1.698301E+05 -2.066610E+06  3.101439E+04 -2.514590E+03
        59  20 -5.492681E+06 -8.629290E+05 -1.300503E+05 -2.012312E+06  1.995827E+04 -3.703569E+03
        59  21 -5.388253E+06 -8.656782E+05 -1.015241E+05 -2.026115E+06  8.668643E+03 -4.260741E+03
        59  22 -5.057147E+06 -7.518172E+05 -3.839772E+04 -1.933530E+06  3.178874E+04 -2.223917E+03
        59  23 -5.084452E+06 -7.085768E+05 -1.927766E+04 -1.901412E+06  2.093618E+04 -3.337494E+03
        59  24 -5.055641E+06 -7.414265E+05 -1.124105E+04 -1.937395E+06  9.851539E+03 -3.818919E+03
        59  25 -4.573037E+06 -5.673008E+05  9.301321E+04 -1.800356E+06  3.256374E+04 -1.932991E+03
        59  26 -4.676062E+06 -5.542150E+05  9.147994E+04 -1.790446E+06  2.191481E+04 -2.971152E+03
        59  27 -4.722921E+06 -6.171689E+05  7.903223E+04 -1.848632E+06  1.103514E+04 -3.376840E+03
        60   1 -5.191597E+06 -7.970577E+05 -4.613622E+04 -1.976195E+06 -6.345973E+03  2.838146E+03
        60   2 -5.139252E+06 -7.274563E+05 -1.926325E+04 -1.912451E+06 -2.390540E+03  5.134052E+02
        60   3 -5.017816E+06 -7.302102E+05  5.008517E+03 -1.929257E+06  1.592367E+03 -1.885597E+03
        60   4 -5.053323E+06 -7.448060E+05 -8.927697E+03 -1.938578E+06 -7.450762E+03  2.425844E+03
        60   5 -5.087782E+06 -7.080472E+05 -5.309847E+03 -1.898518E+06 -3.519681E+03  9.210652E+01
        60   6 -5.053153E+06 -7.436383E+05 -4.272415E+03 -1.939010E+06  4.384407E+02 -2.316018E+03
        60   7 -4.915031E+06 -6.925531E+05  2.827913E+04 -1.900953E+06 -8.555823E+03  2.013440E+03
        60   8 -5.036310E+06 -6.886379E+05  8.643308E+03 -1.884583E+06 -4.648925E+03 -3.292305E+02
        60   9 -5.088488E+06 -7.570663E+05 -1.355343E+04 -1.948763E+06 -7.154108E+02 -2.746409E+03
        60  10 -5.191597E+06 -7.970578E+05 -4.613631E+04 -1.976195E+06  2.012694E-09  2.110335E-09
        60  11 -5.139252E+06 -7.274563E+05 -1.926326E+04 -1.912451E+06  2.262960E-09  1.327780E-09
        60  12 -5.017816E+06 -7.302102E+05  5.008506E+03 -1.929257E+06 -1.610844E-09 -1.102772E-09
        60  13 -5.053323E+06 -7.448060E+05 -8.927813E+03 -1.938578E+06 -1.177308E-09 -5.499297E-11
        60  14 -5.087782E+06 -7.080472E+05 -5.309871E+03 -1.898518E+06 -5.721357E-10  4.425356E-10
        60  15 -5.053153E+06 -7.436383E+05 -4.272425E+03 -1.939010E+06 -1.134074E-09 -8.386863E-10
        60  16 -4.915031E+06 -6.925531E+05  2.827898E+04 -1.900953E+06 -1.969149E-09 -2.090556E-09
        60  17 -5.036310E+06 -6.886379E+05  8.643267E+03 -1.884583E+06  2.032965E-10 -2.919877E-09
        60  18 -5.088488E+06 -7.570663E+05 -1.355344E+04 -1.948763E+06  6.497872E-10 -5.889770E-10
        60  19 -5.191597E+06 -7.970577E+05 -4.613622E+04 -1.976195E+06  6.345973E+03 -2.838146E+03
        60  20 -5.139252E+06 -7.274563E+05 -1.926325E+04 -1.912451E+06  2.390540E+03 -5.134052E+02
        60  21 -5.017816E+06 -7.302102E+05  5.008517E+03 -1.929257E+06 -1.592367E+03  1.885597E+03
        60  22 -5.053323E+06 -7.448060E+05 -8.927697E+03 -1.938578E+06  7.450762E+03 -2.425844E+03
        60  23 -5.087782E+06 -7.080472E+05 -5.309847E+03 -1.898518E+06  3.519681E+03 -9.210652E+01
        60  24 -5.053153E+06 -7.436383E+05 -4.272415E+03 -1.939010E+06 -4.384407E+02  2.316018E+03
        60  25 -4.915031E+06 -6.925531E+05  2.827913E+04 -1.900953E+06  8.555823E+03 -2.013440E+03
        60  26 -5.036310E+06 -6.886379E+05  8.643308E+03 -1.884583E+06  4.648925E+03  3.292305E+02
        60  27 -5.088488E+06 -7.570663E+05 -1.355343E+04 -1.948763E+06  7.154108E+02  2.746409E+03
        61   1 -4.819912E+06 -6.544875E+05  5.952928E+04 -1.874718E+06  3.070235E+03 -3.658129E+03
        61   2 -4.771408E+06 -5.905911E+05  8.013211E+04 -1.814755E+06  6.863595E+03 -6.028754E+03
        61   3 -4.658139E+06 -5.942953E+05  9.833557E+04 -1.829819E+06  1.052816E+04 -8.043759E+03
        61   4 -5.054134E+06 -7.425667E+05 -4.244323E+03 -1.937800E+06  1.897996E+03 -4.095607E+03
        61   5 -5.086595E+06 -7.093921E+05 -5.289989E+03 -1.900045E+06  5.808874E+03 -6.423004E+03
        61   6 -5.054321E+06 -7.438458E+05 -8.829505E+03 -1.937325E+06  9.590545E+03 -8.394807E+03
        61   7 -5.288303E+06 -8.306429E+05 -6.802301E+04 -2.000860E+06  7.262456E+02 -4.532904E+03
        61   8 -5.401686E+06 -8.281875E+05 -9.072110E+04 -1.985297E+06  4.754744E+03 -6.817034E+03
        61   9 -5.450350E+06 -8.933873E+05 -1.160087E+05 -2.044768E+06  8.653593E+03 -8.745608E+03
        61  10 -4.819912E+06 -6.544875E+05  5.952924E+04 -1.874718E+06 -3.379536E-10  9.494138E-10
        61  11 -4.771408E+06 -5.905912E+05  8.013195E+04 -1.814755E+06  4.044583E-09  1.210442E-09
        61  12 -4.658139E+06 -5.942954E+05  9.833524E+04 -1.829819E+06  5.512942E-10  2.105311E-10
        61  13 -5.054134E+06 -7.425667E+05 -4.244361E+03 -1.937800E+06  7.154842E-11 -1.377490E-09
        61  14 -5.086595E+06 -7.093921E+05 -5.290130E+03 -1.900045E+06  2.558185E-09  1.306990E-09
        61  15 -5.054321E+06 -7.438459E+05 -8.829810E+03 -1.937325E+06  1.078128E-09 -1.394179E-10
        61  16 -5.288303E+06 -8.306430E+05 -6.802305E+04 -2.000860E+06 -1.480787E-10 -6.383883E-10
        61  17 -5.401686E+06 -8.281875E+05 -9.072123E+04 -1.985297E+06  9.686216E-11 -1.466103E-10
        61  18 -5.450350E+06 -8.933874E+05 -1.160089E+05 -2.044768E+06  1.017108E-09 -3.553398E-10
        61  19 -4.819912E+06 -6.544875E+05  5.952928E+04 -1.874718E+06 -3.070235E+03  3.658129E+03
        61  20 -4.771408E+06 -5.905911E+05  8.013211E+04 -1.814755E+06 -6.863595E+03  6.028754E+03
        61  21 -4.658139E+06 -5.942953E+05  9.833557E+04 -1.829819E+06 -1.052816E+04  8.043759E+03
        61  22 -5.054134E+06 -7.425667E+05 -4.244323E+03 -1.937800E+06 -1.897996E+03  4.095607E+03
        61  23 -5.086595E+06 -7.093921E+05 -5.289989E+03 -1.900045E+06 -5.808874E+03  6.423004E+03
        61  24 -5.054321E+06 -7.438458E+05 -8.829505E+03 -1.937325E+06 -9.590545E+03  8.394807E+03
        61  25 -5.288303E+06 -8.306429E+05 -6.802301E+04 -2.000860E+06 -7.262456E+02  4.532904E+03
        61  26 -5.401686E+06 -8.281875E+05 -9.072110E+04 -1.985297E+06 -4.754744E+03  6.817034E+03
        61  27 -5.450350E+06 -8.933873E+05 -1.160087E+05 -2.044768E+06 -8.653593E+03  8.745608E+03
        62   1 -4.494025E+06 -5.267163E+05  1.419836E+05 -1.782196E+06  1.291384E+04 -9.133508E+03
        62   2 -4.457404E+06 -4.764269E+05  1.500691E+05 -1.735984E+06  2.341940E+04 -8.262250E+03
        62   3 -4.377021E+06 -4.887253E+05  1.475843E+05 -1.742441E+06  3.361010E+04 -6.534469E+03
        62   4 -5.058452E+06 -7.385491E+05 -1.108418E+04 -1.933948E+06  1.186647E+04 -9.526266E+03
        62   5 -5.081052E+06 -7.123676E+05 -1.909335E+04 -1.905690E+06  2.264897E+04 -8.552325E+03
        62   6 -5.059954E+06 -7.488424E+05 -3.790211E+04 -1.930106E+06  3.311547E+04 -6.721867E+03
        62   7 -5.622570E+06 -9.503643E+05 -1.641803E+05 -2.085574E+06  1.082016E+04 -9.918635E+03
        62   8 -5.704324E+06 -9.482855E+05 -1.882908E+05 -2.075241E+06  2.187939E+04 -8.842082E+03
        62   9 -5.742436E+06 -1.008931E+06 -2.234310E+05 -2.117583E+06  3.262143E+04 -6.909043E+03
        62  10 -4.494025E+06 -5.267164E+05  1.419831E+05 -1.782196E+06  1.702588E-09 -6.414423E-10
        62  11 -4.457405E+06 -4.764271E+05  1.500679E+05 -1.735983E+06  8.408103E-10  6.178725E-10
        62  12 -4.377022E+06 -4.887257E+05  1.475821E+05 -1.742441E+06  1.282835E-09  3.184009E-11
        62  13 -5.058452E+06 -7.385493E+05 -1.108461E+04 -1.933948E+06  6.713936E-10  1.842789E-10
        62  14 -5.081053E+06 -7.123678E+05 -1.909445E+04 -1.905689E+06  7.608016E-10 -9.253231E-10
        62  15 -5.059955E+06 -7.488427E+05 -3.790427E+04 -1.930106E+06 -1.882754E-09 -1.062588E-10
        62  16 -5.622571E+06 -9.503644E+05 -1.641807E+05 -2.085574E+06  6.632061E-10 -4.071174E-10
        62  17 -5.704325E+06 -9.482857E+05 -1.882919E+05 -2.075241E+06  1.011611E-10  3.767050E-10
        62  18 -5.742437E+06 -1.008931E+06 -2.234331E+05 -2.117582E+06 -1.873808E-09 -2.757263E-10
        62  19 -4.494025E+06 -5.267163E+05  1.419836E+05 -1.782196E+06 -1.291384E+04  9.133508E+03
        62  20 -4.457404E+06 -4.764269E+05  1.500691E+05 -1.735984E+06 -2.341940E+04  8.262250E+03
        62  21 -4.377021E+06 -4.887253E+05  1.475843E+05 -1.742441E+06 -3.361010E+04  6.534469E+03
        62  22 -5.058452E+06 -7.385491E+05 -1.108418E+04 -1.933948E+06 -1.186647E+04  9.526266E+03
        62  23 -5.081052E+06 -7.123676E+05 -1.909335E+04 -1.905690E+06 -2.264897E+04  8.552325E+03
        62  24 -5.059954E+06 -7.488424E+05 -3.790211E+04 -1.930106E+06 -3.311547E+04  6.721867E+03
        62  25 -5.622570E+06 -9.503643E+05 -1.641803E+05 -2.085574E+06 -1.082016E+04  9.918635E+03
        62  26 -5.704324E+06 -9.482855E+05 -1.882908E+05 -2.075241E+06 -2.187939E+04  8.842082E+03
        62  27 -5.742436E+06 -1.008931E+06 -2.234310E+05 -2.117583E+06 -3.262143E+04  6.909043E+03
        63   1 -4.273864E+06 -4.380546E+05  1.664994E+05 -1.722340E+06  4.157407E+04 -5.043094E+03
        63   2 -4.250075E+06 -3.928806E+05  1.403320E+05 -1.689430E+06  8.424356E+04  9.208939E+03
        63   3 -4.246170E+06 -4.759258E+05  5.439756E+04 -1.656098E+06  1.259417E+05  2.604476E+04
        63   4 -5.069515E+06 -7.309935E+05 -4.790606E+04 -1.930548E+06  4.058084E+04 -5.417945E+03
        63   5 -5.065191E+06 -7.059040E+05 -8.162446E+04 -1.916040E+06  8.406071E+04  9.137217E+03
        63   6 -5.080970E+06 -8.092872E+05 -1.758184E+05 -1.901099E+06  1.265671E+05  2.627505E+04
        63   7 -5.864554E+06 -1.023904E+06 -2.623677E+05 -2.138517E+06  3.958899E+04 -5.792310E+03
        63   8 -5.879663E+06 -1.018883E+06 -3.036410E+05 -2.142376E+06  8.387806E+04  9.065571E+03
        63   9 -5.915093E+06 -1.142586E+06 -4.060986E+05 -2.145791E+06  1.271914E+05  2.650491E+04
        63  10 -4.273866E+06 -4.380551E+05  1.664961E+05 -1.722339E+06  2.094362E-10  5.311183E-10
        63  11 -4.250083E+06 -3.928826E+05  1.403185E+05 -1.689431E+06 -3.967384E-09  7.768205E-10
        63  12 -4.246187E+06 -4.759308E+05  5.436624E+04 -1.656101E+06 -2.056090E-09  4.713890E-10
        63  13 -5.069517E+06 -7.309940E+05 -4.790923E+04 -1.930548E+06  1.926493E-10 -9.534580E-10
        63  14 -5.065199E+06 -7.059061E+05 -8.163801E+04 -1.916040E+06 -3.618754E-09  1.936897E-09
        63  15 -5.080988E+06 -8.092923E+05 -1.758501E+05 -1.901101E+06 -9.348643E-11  1.475024E-09
        63  16 -5.864555E+06 -1.023905E+06 -2.623707E+05 -2.138517E+06 -2.265965E-09 -6.118931E-10
        63  17 -5.879671E+06 -1.018885E+06 -3.036545E+05 -2.142377E+06  6.985933E-10 -1.127533E-09
        63  18 -5.915110E+06 -1.142591E+06 -4.061307E+05 -2.145794E+06  3.231437E-09  1.012176E-09
        63  19 -4.273864E+06 -4.380546E+05  1.664994E+05 -1.722340E+06 -4.157407E+04  5.043094E+03
        63  20 -4.250075E+06 -3.928806E+05  1.403320E+05 -1.689430E+06 -8.424356E+04 -9.208939E+03
        63  21 -4.246170E+06 -4.759258E+05  5.439756E+04 -1.656098E+06 -1.259417E+05 -2.604476E+04
        63  22 -5.069515E+06 -7.309935E+05 -4.790606E+04 -1.930548E+06 -4.058084E+04  5.417945E+03
        63  23 -5.065191E+06 -7.059040E+05 -8.162446E+04 -1.916040E+06 -8.406071E+04 -9.137217E+03
        63  24 -5.080970E+06 -8.092872E+05 -1.758184E+05 -1.901099E+06 -1.265671E+05 -2.627505E+04
        63  25 -5.864554E+06 -1.023904E+06 -2.623677E+05 -2.138517E+06 -3.958899E+04  5.792310E+03
        63  26 -5.879663E+06 -1.018883E+06 -3.036410E+05 -2.142376E+06 -8.387806E+04 -9.065571E+03
        63  27 -5.915093E+06 -1.142586E+06 -4.060986E+05 -2.145791E+06 -1.271914E+05 -2.650491E+04
        64   1 -4.198780E+06 -4.220936E+05  2.198865E+04 -1.758608E+06  1.619242E+05  3.685799E+04
        64   2 -4.154988E+06 -2.557491E+05 -1.125576E+05 -1.676733E+06  3.472856E+05  1.064062E+05
        64   3 -4.445708E+06 -8.861228E+05 -6.059847E+05 -1.375062E+06  5.265038E+05  1.921376E+05
        64   4 -5.114822E+06 -7.086539E+05 -2.145624E+05 -1.946835E+06  1.588612E+05  3.571527E+04
        64   5 -4.991114E+06 -6.099358E+05 -3.464159E+05 -1.942891E+06  3.493845E+05  1.071756E+05
        64   6 -5.203391E+06 -1.309672E+06 -8.416445E+05 -1.719011E+06  5.337844E+05  1.947654E+05
        64   7 -6.030050E+06 -9.952225E+05 -4.511801E+05 -2.134840E+06  1.558031E+05  3.457363E+04
        64   8 -5.826556E+06 -9.640309E+05 -5.803401E+05 -2.208705E+06  3.514799E+05  1.079433E+05
        64   9 -5.960465E+06 -1.732950E+06 -1.077359E+06 -2.062510E+06  5.410547E+05  1.973851E+05
        64  10 -4.198808E+06 -4.221022E+05  2.193642E+04 -1.758613E+06 -5.890904E-10  6.523233E-10
        64  11 -4.155121E+06 -2.557940E+05 -1.128075E+05 -1.676762E+06 -2.799795E-09  3.053658E-09
        64  12 -4.446017E+06 -8.862378E+05 -6.065796E+05 -1.375143E+06 -1.145222E-10 -7.109583E-10
        64  13 -5.114849E+06 -7.086621E+05 -2.146127E+05 -1.946840E+06  4.085980E-09 -1.352822E-09
        64  14 -4.991249E+06 -6.099814E+05 -3.466692E+05 -1.942921E+06 -3.917922E-09 -1.477428E-09
        64  15 -5.203709E+06 -1.309790E+06 -8.422569E+05 -1.719095E+06  1.399108E-09  1.435934E-09
        64  16 -6.030077E+06 -9.952304E+05 -4.512285E+05 -2.134844E+06  2.390825E-09 -2.348926E-10
        64  17 -5.826693E+06 -9.640771E+05 -5.805969E+05 -2.208736E+06 -2.510261E-10 -2.714943E-10
        64  18 -5.960792E+06 -1.733072E+06 -1.077989E+06 -2.062596E+06  7.286548E-10 -1.560247E-09
        64  19 -4.198780E+06 -4.220936E+05  2.198865E+04 -1.758608E+06 -1.619242E+05 -3.685799E+04
        64  20 -4.154988E+06 -2.557491E+05 -1.125576E+05 -1.676733E+06 -3.472856E+05 -1.064062E+05
        64  21 -4.445708E+06 -8.861228E+05 -6.059847E+05 -1.375062E+06 -5.265038E+05 -1.921376E+05
        64  22 -5.114822E+06 -7.086539E+05 -2.145624E+05 -1.946835E+06 -1.588612E+05 -3.571527E+04
        64  23 -4.991114E+06 -6.099358E+05 -3.464159E+05 -1.942891E+06 -3.493845E+05 -1.071756E+05
        64  24 -5.203391E+06 -1.309672E+06 -8.416445E+05 -1.719011E+06 -5.337844E+05 -1.947654E+05
        64  25 -6.030050E+06 -9.952225E+05 -4.511801E+05 -2.134840E+06 -1.558031E+05 -3.457363E+04
        64  26 -5.826556E+06 -9.640309E+05 -5.803401E+05 -2.208705E+06 -3.514799E+05 -1.079433E+05
        64  27 -5.960465E+06 -1.732950E+06 -1.077359E+06 -2.062510E+06 -5.410547E+05 -1.973851E+05
        65   1 -8.243265E+05 -1.210334E+05 -9.519621E+04 -5.685861E+03  6.962684E+04  6.180450E+03
        65   2 -8.053459E+05 -2.143996E+05 -1.468781E+05  3.599816E+03  4.796890E+04  1.751868E+04
        65   3 -7.524096E+05 -1.921227E+05 -1.551077E+05 -3.032043E+04  2.636349E+04  1.535612E+04
        65   4  3.008067E+03  8.547968E+04  1.105023E+05 -2.084714E+04  7.536230E+04  6.202517E+03
        65   5 -1.432055E+04 -1.728182E+04  4.744168E+04  9.385803E+02  4.946638E+04  1.752219E+04
        65   6  3.001453E+03 -3.742604E+03  3.073608E+04 -2.047774E+04  2.362442E+04  1.534775E+04
        65   7  8.309650E+05  2.919423E+05  3.161498E+05 -3.602930E+04  8.110536E+04  6.224291E+03
        65   8  7.772749E+05  1.797895E+05  2.417154E+05 -1.726559E+03  5.096573E+04  1.752568E+04
        65   9  7.589324E+05  1.845953E+05  2.165379E+05 -1.062339E+04  2.088200E+04  1.533931E+04
        65  10 -8.243317E+05 -1.210347E+05 -9.520541E+04 -5.686208E+03 -7.752885E-10  1.357290E-09
        65  11 -8.053484E+05 -2.144006E+05 -1.468830E+05  3.599139E+03  1.778165E-10 -1.672106E-09
        65  12 -7.524104E+05 -1.921231E+05 -1.551095E+05 -3.032076E+04  5.521386E-10  2.695894E-10
        65  13  3.001958E+03  8.547812E+04  1.104916E+05 -2.084751E+04  2.153222E-09  1.953108E-10
        65  14 -1.432326E+04 -1.728281E+04  4.743651E+04  9.378822E+02 -1.006958E-09 -5.155125E-09
        65  15  3.000790E+03 -3.743007E+03  3.073459E+04 -2.047803E+04  2.782373E-10  5.070692E-10
        65  16  8.309579E+05  2.919405E+05  3.161374E+05 -3.602971E+04 -3.512487E-10 -8.657132E-10
        65  17  7.772720E+05  1.797885E+05  2.417100E+05 -1.727278E+03 -7.703599E-10 -1.539861E-09
        65  18  7.589318E+05  1.845950E+05  2.165366E+05 -1.062365E+04 -3.198908E-09 -9.129403E-10
        65  19 -8.243265E+05 -1.210334E+05 -9.519621E+04 -5.685861E+03 -6.962684E+04 -6.180450E+03
        65  20 -8.053459E+05 -2.143996E+05 -1.468781E+05  3.599816E+03 -4.796890E+04 -1.751868E+04
        65  21 -7.524096E+05 -1.921227E+05 -1.551077E+05 -3.032043E+04 -2.636349E+04 -1.535612E+04
        65  22  3.008067E+03  8.547968E+04  1.105023E+05 -2.084714E+04 -7.536230E+04 -6.202517E+03
        65  23 -1.432055E+04 -1.728182E+04  4.744168E+04  9.385803E+02 -4.946638E+04 -1.752219E+04
        65  24  3.001453E+03 -3.742604E+03  3.073608E+04 -2.047774E+04 -2.362442E+04 -1.534775E+04
        65  25  8.309650E+05  2.919423E+05  3.161498E+05 -3.602930E+04 -8.110536E+04 -6.224291E+03
        65  26  7.772749E+05  1.797895E+05  2.417154E+05 -1.726559E+03 -5.096573E+04 -1.752568E+04
        65  27  7.589324E+05  1.845953E+05  2.165379E+05 -1.062339E+04 -2.088200E+04 -1.533931E+04
        66   1 -6.668718E+05 -1.542212E+05 -1.381361E+05 -1.954804E+04  1.832432E+04  1.254709E+04
        66   2 -6.340834E+05 -1.588652E+05 -1.421326E+05  6.682427E+02  1.242190E+04  1.274996E+04
        66   3 -5.953373E+05 -1.481278E+05 -1.381647E+05 -2.217363E+04  6.520502E+03  1.137539E+04
        66   4 -3.314567E+03  1.121701E+04  2.527690E+04 -2.057759E+04  1.865126E+04  1.254694E+04
        66   5 -6.335443E+03 -2.385063E+03  1.227869E+04  9.632778E+02  1.225103E+04  1.274882E+04
        66   6 -3.317157E+03 -5.271350E+02  7.585030E+03 -2.055123E+04  5.852187E+03  1.137396E+04
        66   7  6.606435E+05  1.766225E+05  1.886574E+05 -2.160848E+04  1.897853E+04  1.254678E+04
        66   8  6.217713E+05  1.540658E+05  1.666610E+05  1.258454E+03  1.207999E+04  1.274769E+04
        66   9  5.890221E+05  1.470474E+05  1.533089E+05 -1.892736E+04  5.183233E+03  1.137252E+04
        66  10 -6.668722E+05 -1.542215E+05 -1.381370E+05 -1.954822E+04  5.800747E-10 -1.248655E-09
        66  11 -6.340836E+05 -1.588655E+05 -1.421332E+05  6.681151E+02 -2.543429E-09  1.049142E-09
        66  12 -5.953374E+05 -1.481279E+05 -1.381650E+05 -2.217369E+04 -1.756507E-09 -5.454583E-10
        66  13 -3.314983E+03  1.121675E+04  2.527595E+04 -2.057778E+04  2.729229E-12 -3.946251E-10
        66  14 -6.335647E+03 -2.385278E+03  1.227810E+04  9.631520E+02 -7.774929E-10 -6.482137E-10
        66  15 -3.317229E+03 -5.272831E+02  7.584722E+03 -2.055128E+04 -4.247107E-10 -6.215657E-10
        66  16  6.606430E+05  1.766222E+05  1.886564E+05 -2.160867E+04 -1.286961E-09  1.178339E-09
        66  17  6.217711E+05  1.540656E+05  1.666604E+05  1.258330E+03 -7.128075E-10 -2.951314E-09
        66  18  5.890220E+05  1.470473E+05  1.533086E+05 -1.892741E+04  2.384284E-09  6.463145E-10
        66  19 -6.668718E+05 -1.542212E+05 -1.381361E+05 -1.954804E+04 -1.832432E+04 -1.254709E+04
        66  20 -6.340834E+05 -1.588652E+05 -1.421326E+05  6.682427E+02 -1.242190E+04 -1.274996E+04
        66  21 -5.953373E+05 -1.481278E+05 -1.381647E+05 -2.217363E+04 -6.520502E+03 -1.137539E+04
        66  22 -3.314567E+03  1.121701E+04  2.527690E+04 -2.057759E+04 -1.865126E+04 -1.254694E+04
        66  23 -6.335443E+03 -2.385063E+03  1.227869E+04  9.632778E+02 -1.225103E+04 -1.274882E+04
        66  24 -3.317157E+03 -5.271350E+02  7.585030E+03 -2.055123E+04 -5.852187E+03 -1.137396E+04
        66  25  6.606435E+05  1.766225E+05  1.886574E+05 -2.160848E+04 -1.897853E+04 -1.254678E+04
        66  26  6.217713E+05  1.540658E+05  1.666610E+05  1.258454E+03 -1.207999E+04 -1.274769E+04
        66  27  5.890221E+05  1.470474E+05  1.533089E+05 -1.892736E+04 -5.183233E+03 -1.137252E+04
        67   1 -5.042818E+05 -1.232171E+05 -1.169326E+05 -2.064134E+04  4.938501E+03  1.039570E+04
        67   2 -4.692099E+05 -1.160569E+05 -1.110990E+05  8.830521E+02  3.419286E+03  9.300700E+03
        67   3 -4.327584E+05 -1.068668E+05 -1.036304E+05 -2.068756E+04  1.898331E+03  8.021287E+03
        67   4 -4.318693E+03  1.389598E+03  5.985374E+03 -2.056829E+04  4.628708E+03  1.039491E+04
        67   5 -5.013461E+03 -3.523418E+02  3.094260E+03  9.787696E+02  3.050848E+03  9.300111E+03
        67   6 -4.320465E+03 -5.500955E+01  1.877894E+03 -2.056717E+04  1.471334E+03  8.020966E+03
        67   7  4.958720E+05  1.259778E+05  1.288850E+05 -2.049523E+04  4.318665E+03  1.039412E+04
        67   8  4.593792E+05  1.153362E+05  1.172716E+05  1.074539E+03  2.682133E+03  9.299522E+03
        67   9  4.242845E+05  1.067432E+05  1.073726E+05 -2.044668E+04  1.044041E+03  8.020646E+03
        67  10 -5.042819E+05 -1.232173E+05 -1.169329E+05 -2.064138E+04 -9.642446E-10  6.448311E-10
        67  11 -4.692100E+05 -1.160570E+05 -1.110992E+05  8.830265E+02 -1.140205E-09  2.547179E-10
        67  12 -4.327584E+05 -1.068669E+05 -1.036305E+05 -2.068758E+04 -7.095258E-10 -9.134181E-10
        67  13 -4.318745E+03  1.389476E+03  5.985131E+03 -2.056833E+04  3.718856E-14  8.947823E-11
        67  14 -5.013494E+03 -3.524371E+02  3.094080E+03  9.787467E+02 -5.955983E-10 -5.424423E-10
        67  15 -4.320485E+03 -5.507922E+01  1.877769E+03 -2.056718E+04  1.061001E-09 -1.515195E-10
        67  16  4.958720E+05  1.259776E+05  1.288847E+05 -2.049527E+04 -1.385731E-09  9.344409E-11
        67  17  4.593791E+05  1.153361E+05  1.172714E+05  1.074519E+03 -2.973747E-09 -1.386152E-09
        67  18  4.242845E+05  1.067431E+05  1.073725E+05 -2.044669E+04 -3.151859E-10  4.872888E-10
        67  19 -5.042818E+05 -1.232171E+05 -1.169326E+05 -2.064134E+04 -4.938501E+03 -1.039570E+04
        67  20 -4.692099E+05 -1.160569E+05 -1.110990E+05  8.830521E+02 -3.419286E+03 -9.300700E+03
        67  21 -4.327584E+05 -1.068668E+05 -1.036304E+05 -2.068756E+04 -1.898331E+03 -8.021287E+03
        67  22 -4.318693E+03  1.389598E+03  5.985374E+03 -2.056829E+04 -4.628708E+03 -1.039491E+04
        67  23 -5.013461E+03 -3.523418E+02  3.094260E+03  9.787696E+02 -3.050848E+03 -9.300111E+03
        67  24 -4.320465E+03 -5.500955E+01  1.877894E+03 -2.056717E+04 -1.471334E+03 -8.020966E+03
        67  25  4.958720E+05  1.259778E+05  1.288850E+05 -2.049523E+04 -4.318665E+03 -1.039412E+04
        67  26  4.593792E+05  1.153362E+05  1.172716E+05  1.074539E+03 -2.682133E+03 -9.299522E+03
        67  27  4.242845E+05  1.067432E+05  1.073726E+05 -2.044668E+04 -1.044041E+03 -8.020646E+03
        68   1 -3.408405E+05 -8.364481E+04 -8.119105E+04 -2.048469E+04  1.553966E+03  7.255181E+03
        68   2 -3.052201E+05 -7.495834E+04 -7.318135E+04  1.104961E+03  1.184947E+03  6.007947E+03
        68   3 -2.692716E+05 -6.597213E+04 -6.481487E+04 -2.041152E+04  8.147469E+02  4.740244E+03
        68   4 -4.533486E+03  1.547276E+02  1.429368E+03 -2.057007E+04  1.168563E+03  7.255042E+03
        68   5 -4.698044E+03 -5.781075E+01  7.426896E+02  9.823384E+02  7.929659E+02  6.007983E+03
        68   6 -4.534623E+03  3.059800E+01  4.173156E+02 -2.057010E+04  4.162085E+02  4.740464E+03
        68   7  3.318765E+05  8.394586E+04  8.404147E+04 -2.065548E+04  7.829517E+02  7.254903E+03
        68   8  2.959062E+05  7.483600E+04  7.466007E+04  8.596675E+02  4.007951E+02  6.008019E+03
        68   9  2.602661E+05  6.602810E+04  6.564432E+04 -2.072872E+04  1.750036E+01  4.740684E+03
        68  10 -3.408405E+05 -8.364487E+04 -8.119116E+04 -2.048470E+04  5.018543E-10 -5.411499E-10
        68  11 -3.052201E+05 -7.495838E+04 -7.318142E+04  1.104956E+03 -1.382589E-09  8.157451E-10
        68  12 -2.692716E+05 -6.597215E+04 -6.481491E+04 -2.041152E+04  8.461316E-10  1.414740E-10
        68  13 -4.533502E+03  1.546707E+02  1.429266E+03 -2.057008E+04 -2.151642E-09  3.216591E-10
        68  14 -4.698054E+03 -5.784968E+01  7.426205E+02  9.823346E+02 -4.668960E-10 -9.758941E-11
        68  15 -4.534629E+03  3.057382E+01  4.172730E+02 -2.057010E+04  1.115918E-09 -4.153486E-10
        68  16  3.318765E+05  8.394580E+04  8.404137E+04 -2.065549E+04 -8.857785E-10  4.479696E-10
        68  17  2.959062E+05  7.483596E+04  7.466000E+04  8.596655E+02  4.528435E-10  2.099927E-10
        68  18  2.602661E+05  6.602808E+04  6.564428E+04 -2.072872E+04 -8.118802E-10 -3.653429E-10
        68  19 -3.408405E+05 -8.364481E+04 -8.119105E+04 -2.048469E+04 -1.553966E+03 -7.255181E+03
        68  20 -3.052201E+05 -7.495834E+04 -7.318135E+04  1.104961E+03 -1.184947E+03 -6.007947E+03
        68  21 -2.692716E+05 -6.597213E+04 -6.481487E+04 -2.041152E+04 -8.147469E+02 -4.740244E+03
        68  22 -4.533486E+03  1.547276E+02  1.429368E+03 -2.057007E+04 -1.168563E+03 -7.255042E+03
        68  23 -4.698044E+03 -5.781075E+01  7.426896E+02  9.823384E+02 -7.929659E+02 -6.007983E+03
        68  24 -4.534623E+03  3.059800E+01  4.173156E+02 -2.057010E+04 -4.162085E+02 -4.740464E+03
        68  25  3.318765E+05  8.394586E+04  8.404147E+04 -2.065548E+04 -7.829517E+02 -7.254903E+03
        68  26  2.959062E+05  7.483600E+04  7.466007E+04  8.596675E+02 -4.007951E+02 -6.008019E+03
        68  27  2.602661E+05  6.602810E+04  6.564432E+04 -2.072872E+04 -1.750036E+01 -4.740684E+03
        69   1 -1.771731E+05 -4.294407E+04 -4.205845E+04 -2.045120E+04  7.470928E+02  3.997509E+03
        69   2 -1.413521E+05 -3.408576E+04 -3.357465E+04  1.094925E+03  7.109258E+02  2.731536E+03
        69   3 -1.055743E+05 -2.516452E+04 -2.506532E+04 -2.047192E+04  6.742419E+02  1.473715E+03
        69   4 -4.604469E+03  4.051564E+01  2.763051E+02 -2.057175E+04  3.509637E+02  3.997833E+03
        69   5 -4.582627E+03 -1.239748E+00  6.574332E+01  9.844298E+02  3.173191E+02  2.731936E+03
        69   6 -4.604986E+03  1.972056E+01 -1.208204E+02 -2.057177E+04  2.831595E+02  1.474194E+03
        69   7  1.679913E+05  4.302290E+04  4.260888E+04 -2.069232E+04 -4.527530E+01  3.998157E+03
        69   8  1.322039E+05  3.408189E+04  3.370476E+04  8.739145E+02 -7.637424E+01  2.732336E+03
        69   9  9.637355E+04  2.520320E+04  2.482292E+04 -2.067164E+04 -1.079864E+02  1.474672E+03
        69  10 -1.771731E+05 -4.294409E+04 -4.205848E+04 -2.045120E+04 -2.516137E-10 -5.341150E-10
        69  11 -1.413521E+05 -3.408577E+04 -3.357467E+04  1.094924E+03 -2.708088E-09  5.116345E-10
        69  12 -1.055743E+05 -2.516453E+04 -2.506532E+04 -2.047192E+04 -2.196689E-09 -9.660505E-11
        69  13 -4.604473E+03  4.049844E+01  2.762748E+02 -2.057175E+04  2.280112E-12  1.442020E-09
        69  14 -4.582629E+03 -1.247790E+00  6.572910E+01  9.844291E+02 -3.892284E-10  1.950168E-09
        69  15 -4.604987E+03  1.971821E+01 -1.208247E+02 -2.057177E+04 -2.420887E-09 -1.715209E-09
        69  16  1.679913E+05  4.302288E+04  4.260885E+04 -2.069232E+04  9.408450E-10  7.505293E-10
        69  17  1.322039E+05  3.408188E+04  3.370475E+04  8.739146E+02  2.464980E-09  1.589630E-09
        69  18  9.637355E+04  2.520320E+04  2.482292E+04 -2.067164E+04  3.833845E-10  1.164242E-11
        69  19 -1.771731E+05 -4.294407E+04 -4.205845E+04 -2.045120E+04 -7.470928E+02 -3.997509E+03
        69  20 -1.413521E+05 -3.408576E+04 -3.357465E+04  1.094925E+03 -7.109258E+02 -2.731536E+03
        69  21 -1.055743E+05 -2.516452E+04 -2.506532E+04 -2.047192E+04 -6.742419E+02 -1.473715E+03
        69  22 -4.604469E+03  4.051564E+01  2.763051E+02 -2.057175E+04 -3.509637E+02 -3.997833E+03
        69  23 -4.582627E+03 -1.239748E+00  6.574332E+01  9.844298E+02 -3.173191E+02 -2.731936E+03
        69  24 -4.604986E+03  1.972056E+01 -1.208204E+02 -2.057177E+04 -2.831595E+02 -1.474194E+03
        69  25  1.679913E+05  4.302290E+04  4.260888E+04 -2.069232E+04  4.527530E+01 -3.998157E+03
        69  26  1.322039E+05  3.408189E+04  3.370476E+04  8.739145E+02  7.637424E+01 -2.732336E+03
        69  27  9.637355E+04  2.520320E+04  2.482292E+04 -2.067164E+04  1.079864E+02 -1.474672E+03
        70   1 -1.341524E+04 -2.105045E+03 -2.267611E+03 -2.059398E+04  7.238859E+02  7.213988E+02
        70   2  2.250142E+04  6.786512E+03  6.176534E+03  9.677178E+02  9.326356E+02 -5.517922E+02
        70   3  5.819864E+04  1.542843E+04  1.439485E+04 -2.058585E+04  1.141615E+03 -1.732742E+03
        70   4 -4.642197E+03  5.881151E+01 -2.210667E+02 -2.057231E+04  3.123406E+02  7.219307E+02
        70   5 -4.529059E+03  5.132118E+01 -4.691706E+02  9.852153E+02  5.498446E+02 -5.513151E+02
        70   6 -4.642096E+03 -2.108518E+02 -9.631450E+02 -2.057264E+04  7.875670E+02 -1.732314E+03
        70   7  4.130923E+03  2.222663E+03  1.825473E+03 -2.055063E+04 -9.921048E+01  7.224625E+02
        70   8 -3.155888E+04 -6.683923E+03 -7.114928E+03  1.002712E+03  1.670703E+02 -5.508380E+02
        70   9 -6.747923E+04 -1.585043E+04 -1.632142E+04 -2.055944E+04  4.335546E+02 -1.731886E+03
        70  10 -1.341525E+04 -2.105046E+03 -2.267612E+03 -2.059398E+04 -1.183070E-09  6.624739E-10
        70  11  2.250142E+04  6.786511E+03  6.176531E+03  9.677183E+02 -3.266834E-09 -1.127409E-09
        70  12  5.819864E+04  1.542843E+04  1.439484E+04 -2.058584E+04 -1.067340E-09  1.917110E-10
        70  13 -4.642197E+03  5.881092E+01 -2.210678E+02 -2.057231E+04 -2.753560E-12 -1.661722E-09
        70  14 -4.529060E+03  5.132077E+01 -4.691717E+02  9.852155E+02 -3.783183E-10 -2.407670E-09
        70  15 -4.642097E+03 -2.108552E+02 -9.631518E+02 -2.057264E+04  2.853043E-10  9.229306E-10
        70  16  4.130923E+03  2.222662E+03  1.825472E+03 -2.055063E+04 -8.027303E-10  4.946203E-10
        70  17 -3.155888E+04 -6.683924E+03 -7.114929E+03  1.002712E+03 -2.070339E-09 -2.305904E-09
        70  18 -6.747923E+04 -1.585043E+04 -1.632143E+04 -2.055944E+04  5.656813E-10 -5.348499E-13
        70  19 -1.341524E+04 -2.105045E+03 -2.267611E+03 -2.059398E+04 -7.238859E+02 -7.213988E+02
        70  20  2.250142E+04  6.786512E+03  6.176534E+03  9.677178E+02 -9.326356E+02  5.517922E+02
        70  21  5.819864E+04  1.542843E+04  1.439485E+04 -2.058585E+04 -1.141615E+03  1.732742E+03
        70  22 -4.642197E+03  5.881151E+01 -2.210667E+02 -2.057231E+04 -3.123406E+02 -7.219307E+02
        70  23 -4.529059E+03  5.132118E+01 -4.691706E+02  9.852153E+02 -5.498446E+02  5.513151E+02
        70  24 -4.642096E+03 -2.108518E+02 -9.631450E+02 -2.057264E+04 -7.875670E+02  1.732314E+03
        70  25  4.130923E+03  2.222663E+03  1.825473E+03 -2.055063E+04  9.921048E+01 -7.224625E+02
        70  26 -3.155888E+04 -6.683923E+03 -7.114928E+03  1.002712E+03 -1.670703E+02  5.508380E+02
        70  27 -6.747923E+04 -1.585043E+04 -1.632142E+04 -2.055944E+04 -4.335546E+02  1.731886E+03
        71   1  1.502798E+05  3.878368E+04  3.701175E+04 -2.090006E+04  1.514899E+03 -2.590472E+03
        71   2  1.864543E+05  4.791921E+04  4.486995E+04  9.334246E+02  2.326944E+03 -3.905360E+03
        71   3  2.219118E+05  5.459628E+04  5.158453E+04 -2.033314E+04  3.140394E+03 -4.428687E+03
        71   4 -4.767425E+03  1.297110E+02 -1.220967E+03 -2.056860E+04  9.811611E+02 -2.589882E+03
        71   5 -4.386401E+03  3.729366E+02 -2.042172E+03  9.810006E+02  2.039934E+03 -3.905156E+03
        71   6 -4.766708E+03 -1.885499E+03 -4.178548E+03 -2.057029E+04  3.100066E+03 -4.428759E+03
        71   7 -1.597927E+05 -3.852605E+04 -3.945546E+04 -2.023722E+04  4.475558E+02 -2.589294E+03
        71   8 -1.951939E+05 -4.717604E+04 -4.895697E+04  1.028570E+03  1.753012E+03 -3.904953E+03
        71   9 -2.313984E+05 -5.837109E+04 -5.994541E+04 -2.080734E+04  3.059752E+03 -4.428832E+03
        71  10  1.502797E+05  3.878368E+04  3.701173E+04 -2.090006E+04  7.714641E-10 -9.893905E-10
        71  11  1.864543E+05  4.791919E+04  4.486991E+04  9.334319E+02 -1.535105E-09  1.763144E-10
        71  12  2.219117E+05  5.459625E+04  5.158447E+04 -2.033313E+04  7.952512E-10  4.216580E-10
        71  13 -4.767427E+03  1.297035E+02 -1.220982E+03 -2.056860E+04 -2.153322E-09  6.981910E-10
        71  14 -4.386410E+03  3.729191E+02 -2.042208E+03  9.810070E+02 -2.026495E-09 -7.046541E-11
        71  15 -4.766724E+03 -1.885522E+03 -4.178603E+03 -2.057028E+04  1.819705E-09  3.112358E-10
        71  16 -1.597927E+05 -3.852606E+04 -3.945547E+04 -2.023722E+04  2.073593E-09  1.248512E-09
        71  17 -1.951939E+05 -4.717606E+04 -4.895701E+04  1.028576E+03 -6.934393E-10  7.869622E-10
        71  18 -2.313984E+05 -5.837112E+04 -5.994547E+04 -2.080733E+04  9.279206E-10 -5.357645E-10
        71  19  1.502798E+05  3.878368E+04  3.701175E+04 -2.090006E+04 -1.514899E+03  2.590472E+03
        71  20  1.864543E+05  4.791921E+04  4.486995E+04  9.334246E+02 -2.326944E+03  3.905360E+03
        71  21  2.219118E+05  5.459628E+04  5.158453E+04 -2.033314E+04 -3.140394E+03  4.428687E+03
        71  22 -4.767425E+03  1.297110E+02 -1.220967E+03 -2.056860E+04 -9.811611E+02  2.589882E+03
        71  23 -4.386401E+03  3.729366E+02 -2.042172E+03  9.810006E+02 -2.039934E+03  3.905156E+03
        71  24 -4.766708E+03 -1.885499E+03 -4.178548E+03 -2.057029E+04 -3.100066E+03  4.428759E+03
        71  25 -1.597927E+05 -3.852605E+04 -3.945546E+04 -2.023722E+04 -4.475558E+02  2.589294E+03
        71  26 -1.951939E+05 -4.717604E+04 -4.895697E+04  1.028570E+03 -1.753012E+03  3.904953E+03
        71  27 -2.313984E+05 -5.837109E+04 -5.994541E+04 -2.080734E+04 -3.059752E+03  4.428832E+03
        72   1  3.131530E+05  8.008095E+04  7.338944E+04 -2.208415E+04  5.491553E+03 -6.189294E+03
        72   2  3.513443E+05  9.110060E+04  7.911211E+04  1.664199E+03  7.680017E+03 -7.855128E+03
        72   3  3.848912E+05  8.332873E+04  7.878094E+04 -1.757823E+04  9.869744E+03 -2.754039E+03
        72   4 -5.727876E+03  6.245206E+02 -5.060103E+03 -2.054441E+04  3.914465E+03 -6.188450E+03
        72   5 -3.219947E+03  2.797889E+03 -7.915340E+03  9.516060E+02  8.213118E+03 -7.855583E+03
        72   6 -5.726529E+03 -1.419223E+04 -1.829230E+04 -2.054478E+04  1.251286E+04 -2.754114E+03
        72   7 -3.245162E+05 -7.883946E+04 -8.351714E+04 -1.900543E+04  2.338186E+03 -6.187613E+03
        72   8 -3.576697E+05 -8.551415E+04 -9.495202E+04  2.394285E+02  8.745914E+03 -7.856039E+03
        72   9 -3.962058E+05 -1.117246E+05 -1.153769E+05 -2.350945E+04  1.515431E+04 -2.754215E+03
        72  10  3.131529E+05  8.008090E+04  7.338931E+04 -2.208413E+04  5.149756E-10  3.736668E-10
        72  11  3.513442E+05  9.110052E+04  7.911188E+04  1.664248E+03 -1.868180E-09  1.915245E-10
        72  12  3.848911E+05  8.332870E+04  7.878074E+04 -1.757821E+04 -5.661710E-10  7.528463E-11
        72  13 -5.727903E+03  6.244753E+02 -5.060204E+03 -2.054439E+04  7.644566E-13  1.185669E-09
        72  14 -3.220036E+03  2.797805E+03 -7.915582E+03  9.516580E+02 -2.656323E-09 -6.539409E-11
        72  15 -5.726699E+03 -1.419228E+04 -1.829261E+04 -2.054475E+04  9.766817E-10 -2.263200E-11
        72  16 -3.245162E+05 -7.883950E+04 -8.351722E+04 -1.900542E+04  1.125009E-09 -3.870611E-10
        72  17 -3.576698E+05 -8.551424E+04 -9.495228E+04  2.394838E+02  8.480661E-11 -8.181485E-11
        72  18 -3.962060E+05 -1.117247E+05 -1.153774E+05 -2.350942E+04  5.235117E-10 -2.661833E-11
        72  19  3.131530E+05  8.008095E+04  7.338944E+04 -2.208415E+04 -5.491553E+03  6.189294E+03
        72  20  3.513443E+05  9.110060E+04  7.911211E+04  1.664199E+03 -7.680017E+03  7.855128E+03
        72  21  3.848912E+05  8.332873E+04  7.878094E+04 -1.757823E+04 -9.869744E+03  2.754039E+03
        72  22 -5.727876E+03  6.245206E+02 -5.060103E+03 -2.054441E+04 -3.914465E+03  6.188450E+03
        72  23 -3.219947E+03  2.797889E+03 -7.915340E+03  9.516060E+02 -8.213118E+03  7.855583E+03
        72  24 -5.726529E+03 -1.419223E+04 -1.829230E+04 -2.054478E+04 -1.251286E+04  2.754114E+03
        72  25 -3.245162E+05 -7.883946E+04 -8.351714E+04 -1.900543E+04 -2.338186E+03  6.187613E+03
        72  26 -3.576697E+05 -8.551415E+04 -9.495202E+04  2.394285E+02 -8.745914E+03  7.856039E+03
        72  27 -3.962058E+05 -1.117246E+05 -1.153769E+05 -2.350945E+04 -1.515431E+04  2.754215E+03
        73   1  8.645969E+05  2.963707E+06  8.340225E+05 -7.477859E+05  3.739355E+04  1.876388E+05
        73   2  6.158813E+05  2.128648E+06  5.435472E+05 -6.268122E+05  1.135937E+05  5.127658E+04
        73   3  4.138691E+05  1.321799E+06  3.530504E+05 -7.208917E+05  1.017410E+05 -8.532435E+04
        73   4  3.784053E+04 -3.756221E+05  3.591954E+04 -7.144051E+05  3.841714E+04  1.794631E+04
        73   5  1.070439E+04 -3.779646E+05  2.256208E+04 -6.069533E+05  1.139129E+05  6.846692E+03
        73   6  8.714910E+03 -3.743203E+05  2.250571E+04 -7.145880E+05  1.011994E+05 -4.675907E+03
        73   7 -7.897046E+05 -3.704695E+06 -7.628619E+05 -6.811838E+05  3.942575E+04 -1.508408E+05
        73   8 -5.948703E+05 -2.878634E+06 -4.987601E+05 -5.871640E+05  1.142301E+05 -3.740731E+04
        73   9 -3.966082E+05 -2.067668E+06 -3.081516E+05 -7.082957E+05  1.006585E+05  7.575741E+04
        73  10  8.645860E+05  2.963669E+06  8.339540E+05 -7.477915E+05  3.252210E-10  2.186236E-09
        73  11  6.158667E+05  2.128642E+06  5.435180E+05 -6.268169E+05 -9.317255E-10 -8.169946E-09
        73  12  4.138560E+05  1.321788E+06  3.530173E+05 -7.208848E+05  3.177220E-09 -3.431326E-09
        73  13  3.783886E+04 -3.756228E+05  3.591616E+04 -7.144057E+05  3.570295E-09  5.778858E-11
        73  14  1.069045E+04 -3.779681E+05  2.253761E+04 -6.069540E+05  1.615491E-09  2.952905E-09
        73  15  8.703910E+03 -3.743231E+05  2.248643E+04 -7.145876E+05  7.491304E-10 -3.325225E-10
        73  16 -7.897124E+05 -3.704720E+06 -7.629078E+05 -6.811791E+05  2.009706E-09 -3.137166E-09
        73  17 -5.948847E+05 -2.878639E+06 -4.987872E+05 -5.871605E+05  7.707484E-09  5.117183E-09
        73  18 -3.966207E+05 -2.067677E+06 -3.081814E+05 -7.083019E+05 -3.143292E-09  1.131783E-09
        73  19  8.645969E+05  2.963707E+06  8.340225E+05 -7.477859E+05 -3.739355E+04 -1.876388E+05
        73  20  6.158813E+05  2.128648E+06  5.435472E+05 -6.268122E+05 -1.135937E+05 -5.127658E+04
        73  21  4.138691E+05  1.321799E+06  3.530504E+05 -7.208917E+05 -1.017410E+05  8.532435E+04
        73  22  3.784053E+04 -3.756221E+05  3.591954E+04 -7.144051E+05 -3.841714E+04 -1.794631E+04
        73  23  1.070439E+04 -3.779646E+05  2.256208E+04 -6.069533E+05 -1.139129E+05 -6.846692E+03
        73  24  8.714910E+03 -3.743203E+05  2.250571E+04 -7.145880E+05 -1.011994E+05  4.675907E+03
        73  25 -7.897046E+05 -3.704695E+06 -7.628619E+05 -6.811838E+05 -3.942575E+04  1.508408E+05
        73  26 -5.948703E+05 -2.878634E+06 -4.987601E+05 -5.871640E+05 -1.142301E+05  3.740731E+04
        73  27 -3.966082E+05 -2.067668E+06 -3.081516E+05 -7.082957E+05 -1.006585E+05 -7.575741E+04
        74   1  2.810096E+05  7.591285E+05  2.463166E+05 -7.238771E+05  6.803134E+04 -7.421822E+04
        74   2  8.351538E+04 -6.196973E+04  9.544598E+04 -6.066965E+05  2.156143E+04 -9.404585E+04
        74   3 -1.023822E+05 -8.801312E+05 -4.048304E+04 -7.096405E+05 -2.596826E+04 -1.138688E+05
        74   4  9.937860E+03 -3.748870E+05  2.509121E+04 -7.156860E+05  6.757233E+04 -8.927024E+03
        74   5  8.884073E+03 -3.758096E+05  3.621136E+04 -6.055918E+05  2.108437E+04 -2.728638E+04
        74   6  1.920272E+04 -3.747150E+05  6.124856E+04 -7.156210E+05 -2.646502E+04 -4.566577E+04
        74   7 -2.612087E+05 -1.507660E+06 -1.961795E+05 -7.075075E+05  6.711455E+04  5.624764E+04
        74   8 -6.575058E+04 -6.895448E+05 -2.301084E+04 -6.044876E+05  2.060741E+04  3.944017E+04
        74   9  1.407745E+05  1.309550E+05  1.629846E+05 -7.216059E+05 -2.696287E+04  2.259182E+04
        74  10  2.810031E+05  7.591213E+05  2.462976E+05 -7.238731E+05  2.174380E-09 -1.858427E-10
        74  11  8.351251E+04 -6.197935E+04  9.542849E+04 -6.066948E+05  1.822916E-09 -1.029092E-08
        74  12 -1.023864E+05 -8.801453E+05 -4.050872E+04 -7.096429E+05  2.296771E-09 -1.559831E-09
        74  13  9.932938E+03 -3.748883E+05  2.508249E+04 -7.156856E+05  6.734882E-10 -1.898268E-10
        74  14  8.883396E+03 -3.758105E+05  3.620913E+04 -6.055913E+05 -5.534916E-09  2.989678E-09
        74  15  1.920141E+04 -3.747175E+05  6.124332E+04 -7.156219E+05  8.737805E-10 -4.210857E-10
        74  16 -2.612144E+05 -1.507665E+06 -1.961939E+05 -7.075105E+05 -1.841430E-09 -1.976803E-09
        74  17 -6.575145E+04 -6.895466E+05 -2.301457E+04 -6.044882E+05 -3.561765E-09  5.196002E-09
        74  18  1.407735E+05  1.309542E+05  1.629823E+05 -7.216054E+05  2.295607E-10 -1.089547E-09
        74  19  2.810096E+05  7.591285E+05  2.463166E+05 -7.238771E+05 -6.803134E+04  7.421822E+04
        74  20  8.351538E+04 -6.196973E+04  9.544598E+04 -6.066965E+05 -2.156143E+04  9.404585E+04
        74  21 -1.023822E+05 -8.801312E+05 -4.048304E+04 -7.096405E+05  2.596826E+04  1.138688E+05
        74  22  9.937860E+03 -3.748870E+05  2.509121E+04 -7.156860E+05 -6.757233E+04  8.927024E+03
        74  23  8.884073E+03 -3.758096E+05  3.621136E+04 -6.055918E+05 -2.108437E+04  2.728638E+04
        74  24  1.920272E+04 -3.747150E+05  6.124856E+04 -7.156210E+05  2.646502E+04  4.566577E+04
        74  25 -2.612087E+05 -1.507660E+06 -1.961795E+05 -7.075075E+05 -6.711455E+04 -5.624764E+04
        74  26 -6.575058E+04 -6.895448E+05 -2.301084E+04 -6.044876E+05 -2.060741E+04 -3.944017E+04
        74  27  1.407745E+05  1.309550E+05  1.629846E+05 -7.216059E+05  2.696287E+04 -2.259182E+04
        75   1 -2.467921E+05 -1.429901E+06 -1.325500E+05 -7.331815E+05 -5.952598E+04 -1.368276E+05
        75   2 -4.097210E+05 -2.264969E+06 -2.567333E+05 -5.345234E+05 -8.036353E+04 -1.057111E+05
        75   3 -4.113849E+05 -3.065377E+06 -3.614728E+05 -5.515709E+05 -2.840619E+04 -7.424330E+04
        75   4  8.470328E+03 -3.638570E+05  7.835057E+04 -7.148908E+05 -6.010320E+04 -5.642459E+04
        75   5  4.585418E+04 -3.901612E+05  1.381462E+05 -6.063041E+05 -8.018252E+04 -1.282702E+05
        75   6  2.621146E+05 -3.647794E+05  2.888323E+05 -7.132709E+05 -2.757619E+04 -1.997300E+05
        75   7  2.636688E+05  7.032914E+05  2.892198E+05 -6.965655E+05 -6.067507E+04  2.411395E+04
        75   8  5.012200E+05  1.487985E+06  5.328319E+05 -6.782987E+05 -7.999663E+04 -1.508960E+05
        75   9  9.351814E+05  2.342600E+06  9.386883E+05 -8.756661E+05 -2.668274E+04 -3.257611E+05
        75  10 -2.468010E+05 -1.429922E+06 -1.325919E+05 -7.331880E+05  3.430715E-09 -2.142236E-09
        75  11 -4.097310E+05 -2.264983E+06 -2.567665E+05 -5.345303E+05  2.587760E-09 -1.008914E-08
        75  12 -4.113873E+05 -3.065383E+06 -3.614848E+05 -5.515726E+05 -2.418203E-10 -1.403174E-09
        75  13  8.465588E+03 -3.638614E+05  7.833778E+04 -7.148935E+05  2.871414E-09  6.733028E-11
        75  14  4.584284E+04 -3.901806E+05  1.381031E+05 -6.063124E+05 -7.989679E-09  2.666754E-09
        75  15  2.621031E+05 -3.648225E+05  2.887559E+05 -7.132754E+05 -2.113919E-10 -3.207857E-10
        75  16  2.636647E+05  7.032898E+05  2.892118E+05 -6.965643E+05 -2.429921E-09  1.051090E-09
        75  17  5.012070E+05  1.487959E+06  5.327771E+05 -6.783084E+05  7.416315E-10  5.676481E-09
        75  18  9.351523E+05  2.342486E+06  9.384882E+05 -8.756731E+05  9.657835E-10 -1.104176E-09
        75  19 -2.467921E+05 -1.429901E+06 -1.325500E+05 -7.331815E+05  5.952598E+04  1.368276E+05
        75  20 -4.097210E+05 -2.264969E+06 -2.567333E+05 -5.345234E+05  8.036353E+04  1.057111E+05
        75  21 -4.113849E+05 -3.065377E+06 -3.614728E+05 -5.515709E+05  2.840619E+04  7.424330E+04
        75  22  8.470328E+03 -3.638570E+05  7.835057E+04 -7.148908E+05  6.010320E+04  5.642459E+04
        75  23  4.585418E+04 -3.901612E+05  1.381462E+05 -6.063041E+05  8.018252E+04  1.282702E+05
        75  24  2.621146E+05 -3.647794E+05  2.888323E+05 -7.132709E+05  2.757619E+04  1.997300E+05
        75  25  2.636688E+05  7.032914E+05  2.892198E+05 -6.965655E+05  6.067507E+04 -2.411395E+04
        75  26  5.012200E+05  1.487985E+06  5.328319E+05 -6.782987E+05  7.999663E+04  1.508960E+05
        75  27  9.351814E+05  2.342600E+06  9.386883E+05 -8.756661E+05  2.668274E+04  3.257611E+05
        76   1 -3.032625E+06 -1.195300E+06 -7.071950E+05 -1.013199E+06 -1.607773E+05 -7.823394E+03
        76   2 -2.832401E+06 -1.145812E+06 -5.871311E+05 -9.367873E+05 -1.100121E+05  1.328097E+05
        76   3 -2.591466E+06 -1.108816E+06 -5.266126E+05 -9.175509E+05 -2.745809E+04  1.899750E+05
        76   4  1.041437E+04 -8.173753E+04  8.148428E+04 -2.127412E+05  3.457453E+04  6.632342E+04
        76   5 -2.526804E+04 -1.183074E+05  3.663463E+04 -1.719995E+05 -2.482561E+04  1.650109E+05
        76   6  1.603587E+03 -1.455493E+05  1.987327E+04 -1.884232E+05 -5.254747E+04  1.804151E+05
        76   7  3.062465E+06  1.032281E+06  8.695392E+05  5.912143E+05  2.309780E+05  1.408398E+05
        76   8  2.789833E+06  9.097703E+05  6.599357E+05  5.959470E+05  6.077914E+04  1.973655E+05
        76   9  2.601598E+06  8.183278E+05  5.659998E+05  5.435403E+05 -7.775089E+04  1.708117E+05
        76  10 -3.032652E+06 -1.195307E+06 -7.072439E+05 -1.013200E+06  1.085910E-09  7.659673E-11
        76  11 -2.832419E+06 -1.145834E+06 -5.871870E+05 -9.367755E+05  4.564664E-09 -2.398609E-09
        76  12 -2.591477E+06 -1.108855E+06 -5.266818E+05 -9.175467E+05  1.681837E-09 -2.265895E-09
        76  13  1.041191E+04 -8.174258E+04  8.147377E+04 -2.127431E+05  1.550190E-09  4.047054E-09
        76  14 -2.527601E+04 -1.183368E+05  3.658230E+04 -1.719962E+05 -5.916800E-11  8.406777E-10
        76  15  1.591886E+03 -1.455850E+05  1.980692E+04 -1.884155E+05  2.600761E-09 -1.399369E-09
        76  16  3.062403E+06  1.032246E+06  8.694023E+05  5.911882E+05 -2.162618E-09  1.939377E-10
        76  17  2.789819E+06  9.097275E+05  6.598556E+05  5.959374E+05  2.284006E-09 -5.163116E-10
        76  18  2.601584E+06  8.182949E+05  5.659336E+05  5.435510E+05 -5.753001E-10  2.890371E-10
        76  19 -3.032625E+06 -1.195300E+06 -7.071950E+05 -1.013199E+06  1.607773E+05  7.823394E+03
        76  20 -2.832401E+06 -1.145812E+06 -5.871311E+05 -9.367873E+05  1.100121E+05 -1.328097E+05
        76  21 -2.591466E+06 -1.108816E+06 -5.266126E+05 -9.175509E+05  2.745809E+04 -1.899750E+05
        76  22  1.041437E+04 -8.173753E+04  8.148428E+04 -2.127412E+05 -3.457453E+04 -6.632342E+04
        76  23 -2.526804E+04 -1.183074E+05  3.663463E+04 -1.719995E+05  2.482561E+04 -1.650109E+05
        76  24  1.603587E+03 -1.455493E+05  1.987327E+04 -1.884232E+05  5.254747E+04 -1.804151E+05
        76  25  3.062465E+06  1.032281E+06  8.695392E+05  5.912143E+05 -2.309780E+05 -1.408398E+05
        76  26  2.789833E+06  9.097703E+05  6.599357E+05  5.959470E+05 -6.077914E+04 -1.973655E+05
        76  27  2.601598E+06  8.183278E+05  5.659998E+05  5.435403E+05  7.775089E+04 -1.708117E+05
        77   1 -2.452081E+06 -1.046188E+06 -5.007275E+05 -8.729399E+05 -4.385976E+04  1.718611E+05
        77   2 -2.266823E+06 -9.484947E+05 -4.581991E+05 -7.901235E+05 -3.797715E+04  1.649710E+05
        77   3 -2.037071E+06 -8.931399E+05 -4.172387E+05 -7.567888E+05 -3.018016E+04  1.529237E+05
        77   4 -2.744797E+01 -1.432863E+05  1.523036E+04 -1.917363E+05 -5.093520E+04  1.691211E+05
        77   5 -2.288147E+04 -1.236166E+05  7.914931E+03 -1.666151E+05 -5.187095E+04  1.596739E+05
        77   6  5.578327E+01 -1.449266E+05  4.438050E+03 -1.909793E+05 -5.089709E+04  1.450793E+05
        77   7  2.458184E+06  7.601210E+05  5.308582E+05  4.919534E+05 -5.804112E+04  1.663698E+05
        77   8  2.226221E+06  7.016868E+05  4.737596E+05  4.589752E+05 -6.581914E+04  1.543565E+05
        77   9  2.041430E+06  6.036349E+05  4.258935E+05  3.765434E+05 -7.168738E+04  1.372075E+05
        77  10 -2.452091E+06 -1.046220E+06 -5.007866E+05 -8.729338E+05 -5.127205E-10 -3.464134E-10
        77  11 -2.266832E+06 -9.485244E+05 -4.582529E+05 -7.901185E+05 -1.792024E-11  5.510684E-10
        77  12 -2.037079E+06 -8.931653E+05 -4.172843E+05 -7.567851E+05 -1.950757E-09 -3.948850E-10
        77  13 -3.790976E+01 -1.433177E+05  1.517174E+04 -1.917294E+05  2.597672E-09 -2.361470E-09
        77  14 -2.289120E+04 -1.236447E+05  7.861965E+03 -1.666084E+05  2.136447E-09 -1.680780E-09
        77  15  4.735333E+01 -1.449499E+05  4.393631E+03 -1.909734E+05 -5.761782E-10  8.752373E-10
        77  16  2.458173E+06  7.600904E+05  5.307998E+05  4.919612E+05  1.212201E-09  1.205852E-09
        77  17  2.226210E+06  7.016601E+05  4.737066E+05  4.589834E+05 -3.106415E-10  2.061459E-09
        77  18  2.041419E+06  6.036133E+05  4.258484E+05  3.765513E+05  7.003638E-10  2.734121E-09
        77  19 -2.452081E+06 -1.046188E+06 -5.007275E+05 -8.729399E+05  4.385976E+04 -1.718611E+05
        77  20 -2.266823E+06 -9.484947E+05 -4.581991E+05 -7.901235E+05  3.797715E+04 -1.649710E+05
        77  21 -2.037071E+06 -8.931399E+05 -4.172387E+05 -7.567888E+05  3.018016E+04 -1.529237E+05
        77  22 -2.744797E+01 -1.432863E+05  1.523036E+04 -1.917363E+05  5.093520E+04 -1.691211E+05
        77  23 -2.288147E+04 -1.236166E+05  7.914931E+03 -1.666151E+05  5.187095E+04 -1.596739E+05
        77  24  5.578327E+01 -1.449266E+05  4.438050E+03 -1.909793E+05  5.089709E+04 -1.450793E+05
        77  25  2.458184E+06  7.601210E+05  5.308582E+05  4.919534E+05  5.804112E+04 -1.663698E+05
        77  26  2.226221E+06  7.016868E+05  4.737596E+05  4.589752E+05  6.581914E+04 -1.543565E+05
        77  27  2.041430E+06  6.036349E+05  4.258935E+05  3.765434E+05  7.168738E+04 -1.372075E+05
        78   1 -1.893203E+06 -8.391754E+05 -3.873189E+05 -7.164405E+05 -2.846839E+04  1.431856E+05
        78   2 -1.707594E+06 -7.404934E+05 -3.460971E+05 -6.335399E+05 -2.323620E+04  1.280133E+05
        78   3 -1.477683E+06 -6.852315E+05 -3.043725E+05 -6.002817E+05 -1.790942E+04  1.125099E+05
        78   4 -5.688897E+01 -1.447508E+05  3.309098E+03 -1.912301E+05 -4.808873E+04  1.357668E+05
        78   5 -2.205764E+04 -1.227750E+05  1.740801E+03 -1.664676E+05 -4.329347E+04  1.204487E+05
        78   6  2.711349E+02 -1.441316E+05  1.013444E+03 -1.913573E+05 -3.840370E+04  1.048002E+05
        78   7  1.896788E+06  5.499846E+05  3.937555E+05  3.354656E+05 -6.777388E+04  1.283237E+05
        78   8  1.666405E+06  4.951867E+05  3.494337E+05  3.017789E+05 -6.340963E+04  1.128620E+05
        78   9  1.480469E+06  3.971522E+05  3.062867E+05  2.184666E+05 -5.895063E+04  9.707076E+04
        78  10 -1.893210E+06 -8.391976E+05 -3.873590E+05 -7.164372E+05 -2.119594E-08 -8.450624E-09
        78  11 -1.707599E+06 -7.405111E+05 -3.461289E+05 -6.335376E+05 -6.123911E-09 -3.225551E-09
        78  12 -1.477687E+06 -6.852452E+05 -3.043969E+05 -6.002801E+05  1.892461E-08  5.939087E-09
        78  13 -6.431853E+01 -1.447712E+05  3.270116E+03 -1.912249E+05 -3.561749E-09 -2.590733E-10
        78  14 -2.206355E+04 -1.227910E+05  1.710017E+03 -1.664634E+05 -3.357342E-09 -3.488370E-09
        78  15  2.666040E+02 -1.441438E+05  9.900347E+02 -1.913541E+05 -2.101407E-09 -2.105604E-09
        78  16  1.896779E+06  5.499657E+05  3.937160E+05  3.354726E+05  1.495637E-08  7.449309E-09
        78  17  1.666397E+06  4.951720E+05  3.494022E+05  3.017846E+05 -2.445288E-09 -3.945236E-09
        78  18  1.480462E+06  3.971411E+05  3.062624E+05  2.184712E+05 -2.070567E-08 -1.050677E-08
        78  19 -1.893203E+06 -8.391754E+05 -3.873189E+05 -7.164405E+05  2.846839E+04 -1.431856E+05
        78  20 -1.707594E+06 -7.404934E+05 -3.460971E+05 -6.335399E+05  2.323620E+04 -1.280133E+05
        78  21 -1.477683E+06 -6.852315E+05 -3.043725E+05 -6.002817E+05  1.790942E+04 -1.125099E+05
        78  22 -5.688897E+01 -1.447508E+05  3.309098E+03 -1.912301E+05  4.808873E+04 -1.357668E+05
        78  23 -2.205764E+04 -1.227750E+05  1.740801E+03 -1.664676E+05  4.329347E+04 -1.204487E+05
        78  24  2.711349E+02 -1.441316E+05  1.013444E+03 -1.913573E+05  3.840370E+04 -1.048002E+05
        78  25  1.896788E+06  5.499846E+05  3.937555E+05  3.354656E+05  6.777388E+04 -1.283237E+05
        78  26  1.666405E+06  4.951867E+05  3.494337E+05  3.017789E+05  6.340963E+04 -1.128620E+05
        78  27  1.480469E+06  3.971522E+05  3.062867E+05  2.184666E+05  5.895063E+04 -9.707076E+04
        79   1 -1.333229E+06 -6.318466E+05 -2.735518E+05 -5.602728E+05 -1.472735E+04  1.034144E+05
        79   2 -1.146841E+06 -5.335439E+05 -2.315391E+05 -4.775387E+05 -9.070811E+03  8.790021E+04
        79   3 -9.165609E+05 -4.787229E+05 -1.893375E+05 -4.446705E+05 -3.423672E+03  7.235722E+04
        79   4  2.695589E+02 -1.440483E+05  7.394275E+02 -1.914119E+05 -3.516408E+04  9.573574E+04
        79   5 -2.154609E+04 -1.220806E+05  3.698295E+02 -1.665253E+05 -2.954505E+04  8.022009E+04
        79   6  4.875811E+02 -1.435881E+05  2.147771E+02 -1.915174E+05 -2.393540E+04  6.467572E+04
        79   7  1.335585E+06  3.438962E+05  2.749373E+05  1.781781E+05 -5.564798E+04  8.803942E+04
        79   8  1.105049E+06  2.894889E+05  2.322145E+05  1.450088E+05 -5.005929E+04  7.252499E+04
        79   9  9.184062E+05  1.916196E+05  1.897266E+05  6.198281E+04 -4.447992E+04  5.698195E+04
        79  10 -1.333232E+06 -6.318582E+05 -2.735723E+05 -5.602715E+05  1.312698E-09  5.402161E-10
        79  11 -1.146843E+06 -5.335522E+05 -2.315538E+05 -4.775380E+05  2.559911E-09  2.061625E-09
        79  12 -9.165623E+05 -4.787285E+05 -1.893474E+05 -4.446703E+05  1.004455E-09  1.219274E-09
        79  13  2.657716E+02 -1.440584E+05  7.198817E+02 -1.914092E+05 -1.977183E-09 -2.932551E-10
        79  14 -2.154876E+04 -1.220878E+05  3.560969E+02 -1.665233E+05  1.612551E-10  9.710300E-10
        79  15  4.858435E+02 -1.435927E+05  2.058405E+02 -1.915161E+05 -7.921059E-10  3.198911E-10
        79  16  1.335580E+06  3.438870E+05  2.749169E+05  1.781821E+05  1.258912E-09 -7.396350E-10
        79  17  1.105045E+06  2.894826E+05  2.321999E+05  1.450117E+05 -2.714080E-09  1.120491E-09
        79  18  9.184032E+05  1.916156E+05  1.897168E+05  6.198485E+04 -1.827004E-09  1.730715E-09
        79  19 -1.333229E+06 -6.318466E+05 -2.735518E+05 -5.602728E+05  1.472735E+04 -1.034144E+05
        79  20 -1.146841E+06 -5.335439E+05 -2.315391E+05 -4.775387E+05  9.070811E+03 -8.790021E+04
        79  21 -9.165609E+05 -4.787229E+05 -1.893375E+05 -4.446705E+05  3.423672E+03 -7.235722E+04
        79  22  2.695589E+02 -1.440483E+05  7.394275E+02 -1.914119E+05  3.516408E+04 -9.573574E+04
        79  23 -2.154609E+04 -1.220806E+05  3.698295E+02 -1.665253E+05  2.954505E+04 -8.022009E+04
        79  24  4.875811E+02 -1.435881E+05  2.147771E+02 -1.915174E+05  2.393540E+04 -6.467572E+04
        79  25  1.335585E+06  3.438962E+05  2.749373E+05  1.781781E+05  5.564798E+04 -8.803942E+04
        79  26  1.105049E+06  2.894889E+05  2.322145E+05  1.450088E+05  5.005929E+04 -7.252499E+04
        79  27  9.184062E+05  1.916196E+05  1.897266E+05  6.198281E+04  4.447992E+04 -5.698195E+04
        80   1 -7.717724E+05 -4.255054E+05 -1.583085E+05 -4.047718E+05 -7.479878E+01  6.332758E+04
        80   2 -5.848930E+05 -3.274810E+05 -1.160600E+05 -3.221176E+05  5.713475E+03  4.783424E+04
        80   3 -3.543667E+05 -2.729576E+05 -7.378453E+04 -2.894587E+05  1.149054E+04  3.234333E+04
        80   4  4.942439E+02 -1.435388E+05  1.332736E+02 -1.915434E+05 -2.059168E+04  5.564983E+04
        80   5 -2.124925E+04 -1.216722E+05  1.212191E+01 -1.665644E+05 -1.480127E+04  4.016356E+04
        80   6  6.058187E+02 -1.433085E+05 -8.586952E+01 -1.915950E+05 -9.022114E+03  2.467987E+04
        80   7  7.733738E+05  1.384779E+05  1.585460E+05  2.192995E+04 -4.113603E+04  4.796180E+04
        80   8  5.427189E+05  8.416242E+04  1.160689E+05 -1.088143E+04 -3.533598E+04  3.248541E+04
        80   9  3.557053E+05 -1.364982E+04  7.360712E+04 -9.368027E+04 -2.954724E+04  1.701174E+04
        80  10 -7.717735E+05 -4.255097E+05 -1.583160E+05 -4.047718E+05  3.405897E-10  6.886691E-10
        80  11 -5.848937E+05 -3.274835E+05 -1.160644E+05 -3.221178E+05 -3.251734E-09  1.856607E-09
        80  12 -3.543671E+05 -2.729588E+05 -7.378675E+04 -2.894590E+05 -2.158843E-09 -1.263862E-10
        80  13  4.929575E+02 -1.435423E+05  1.266575E+02 -1.915425E+05 -2.705694E-09  1.751779E-09
        80  14 -2.124992E+04 -1.216740E+05  8.679091E+00 -1.665640E+05  1.467244E-10  2.170252E-09
        80  15  6.055678E+02 -1.433092E+05 -8.716702E+01 -1.915948E+05 -8.883122E-10  8.144083E-10
        80  16  7.733714E+05  1.384750E+05  1.585385E+05  2.193154E+04 -1.830611E-09  2.429247E-09
        80  17  5.427173E+05  8.416095E+04  1.160645E+05 -1.088051E+04  3.127913E-09  2.197326E-09
        80  18  3.557043E+05 -1.365037E+04  7.360493E+04 -9.367987E+04  9.349993E-10  1.339891E-09
        80  19 -7.717724E+05 -4.255054E+05 -1.583085E+05 -4.047718E+05  7.479878E+01 -6.332758E+04
        80  20 -5.848930E+05 -3.274810E+05 -1.160600E+05 -3.221176E+05 -5.713475E+03 -4.783424E+04
        80  21 -3.543667E+05 -2.729576E+05 -7.378453E+04 -2.894587E+05 -1.149054E+04 -3.234333E+04
        80  22  4.942439E+02 -1.435388E+05  1.332736E+02 -1.915434E+05  2.059168E+04 -5.564983E+04
        80  23 -2.124925E+04 -1.216722E+05  1.212191E+01 -1.665644E+05  1.480127E+04 -4.016356E+04
        80  24  6.058187E+02 -1.433085E+05 -8.586952E+01 -1.915950E+05  9.022114E+03 -2.467987E+04
        80  25  7.733738E+05  1.384779E+05  1.585460E+05  2.192995E+04  4.113603E+04 -4.796180E+04
        80  26  5.427189E+05  8.416242E+04  1.160689E+05 -1.088143E+04  3.533598E+04 -3.248541E+04
        80  27  3.557053E+05 -1.364982E+04  7.360712E+04 -9.368027E+04  2.954724E+04 -1.701174E+04
        81   1 -2.093704E+05 -2.198238E+05 -4.273922E+04 -2.495870E+05  1.491437E+04  2.334002E+04
        81   2 -2.227801E+04 -1.219553E+05 -5.111484E+02 -1.669221E+05  2.067019E+04  7.905640E+03
        81   3  2.083832E+05 -6.757432E+04  4.172800E+04 -1.342898E+05  2.637214E+04 -7.385206E+03
        81   4  5.993728E+02 -1.432914E+05 -1.579412E+02 -1.916061E+05 -5.633164E+03  1.566543E+04
        81   5 -2.114151E+04 -1.215302E+05 -3.530700E+02 -1.665783E+05  3.093057E+02  3.006653E+02
        81   6  5.992984E+02 -1.433000E+05 -6.871448E+02 -1.916024E+05  6.197869E+03 -1.492042E+04
        81   7  2.106171E+05 -6.675422E+04  4.242340E+04 -1.336065E+05 -2.618833E+04  7.987992E+03
        81   8 -2.000409E+04 -1.211048E+05 -1.932144E+02 -1.662342E+05 -2.005170E+04 -7.304356E+03
        81   9 -2.071394E+05 -2.190218E+05 -4.310276E+04 -2.488971E+05 -1.396916E+04 -2.245293E+04
        81  10 -2.093708E+05 -2.198245E+05 -4.274066E+04 -2.495872E+05 -3.471250E-09 -4.683417E-10
        81  11 -2.227849E+04 -1.219554E+05 -5.120689E+02 -1.669222E+05 -1.272876E-08 -5.405193E-09
        81  12  2.083824E+05 -6.757456E+04  4.172659E+04 -1.342897E+05 -2.303474E-08 -1.032594E-08
        81  13  5.992729E+02 -1.432917E+05 -1.584620E+02 -1.916060E+05  8.985518E-10 -1.022975E-09
        81  14 -2.114151E+04 -1.215302E+05 -3.530703E+02 -1.665783E+05 -1.866353E-09 -6.055388E-09
        81  15  5.991974E+02 -1.433002E+05 -6.876353E+02 -1.916024E+05 -9.230523E-09 -1.245462E-08
        81  16  2.106164E+05 -6.675447E+04  4.242199E+04 -1.336063E+05  4.840022E-09  3.604321E-09
        81  17 -2.000453E+04 -1.211050E+05 -1.940704E+02 -1.662343E+05  8.815392E-09  6.749569E-09
        81  18 -2.071397E+05 -2.190223E+05 -4.310407E+04 -2.488974E+05  1.067568E-08  5.315402E-09
        81  19 -2.093704E+05 -2.198238E+05 -4.273922E+04 -2.495870E+05 -1.491437E+04 -2.334002E+04
        81  20 -2.227801E+04 -1.219553E+05 -5.111484E+02 -1.669221E+05 -2.067019E+04 -7.905640E+03
        81  21  2.083832E+05 -6.757432E+04  4.172800E+04 -1.342898E+05 -2.637214E+04  7.385206E+03
        81  22  5.993728E+02 -1.432914E+05 -1.579412E+02 -1.916061E+05  5.633164E+03 -1.566543E+04
        81  23 -2.114151E+04 -1.215302E+05 -3.530700E+02 -1.665783E+05 -3.093057E+02 -3.006653E+02
        81  24  5.992984E+02 -1.433000E+05 -6.871448E+02 -1.916024E+05 -6.197869E+03  1.492042E+04
        81  25  2.106171E+05 -6.675422E+04  4.242340E+04 -1.336065E+05  2.618833E+04 -7.987992E+03
        81  26 -2.000409E+04 -1.211048E+05 -1.932144E+02 -1.662342E+05  2.005170E+04  7.304356E+03
        81  27 -2.071394E+05 -2.190218E+05 -4.310276E+04 -2.488971E+05  1.396916E+04  2.245293E+04
        82   1  3.535352E+05 -1.444955E+04  7.259008E+04 -9.440230E+04  3.039186E+04 -1.620522E+04
        82   2  5.403808E+05  8.346346E+04  1.151161E+05 -1.162678E+04  3.355639E+04 -3.145899E+04
        82   3  7.710857E+05  1.381427E+05  1.593412E+05  2.134819E+04  3.585365E+04 -4.437400E+04
        82   4  5.329925E+02 -1.432715E+05 -9.234119E+02 -1.915966E+05  9.709597E+03 -2.393202E+04
        82   5 -2.115923E+04 -1.217169E+05 -1.726822E+03 -1.665638E+05  1.597210E+04 -3.803424E+04
        82   6  3.526399E+02 -1.440152E+05 -3.282284E+03 -1.913519E+05  2.136767E+04 -4.979620E+04
        82   7 -3.523382E+05 -2.720819E+05 -7.444101E+04 -2.887391E+05 -1.095986E+04 -3.165404E+04
        82   8 -5.823763E+05 -3.268710E+05 -1.185853E+05 -3.213717E+05 -1.595088E+03 -4.460310E+04
        82   9 -7.697807E+05 -4.261269E+05 -1.659394E+05 -4.038107E+05  6.900932E+03 -5.521120E+04
        82  10  3.535341E+05 -1.445008E+04  7.258785E+04 -9.440190E+04  1.301777E-08  6.097392E-09
        82  11  5.403793E+05  8.346209E+04  1.151121E+05 -1.162593E+04  1.123268E-08  7.803272E-09
        82  12  7.710837E+05  1.381402E+05  1.593351E+05  2.134947E+04  3.659186E-09  4.489118E-09
        82  13  5.327376E+02 -1.432721E+05 -9.246653E+02 -1.915964E+05 -3.508723E-09 -1.048225E-08
        82  14 -2.115989E+04 -1.217185E+05 -1.730019E+03 -1.665633E+05 -2.005686E-09 -4.572588E-09
        82  15  3.514843E+02 -1.440180E+05 -3.287801E+03 -1.913510E+05 -1.018096E-09 -4.303196E-10
        82  16 -3.523386E+05 -2.720830E+05 -7.444312E+04 -2.887393E+05 -2.640315E-08 -8.290770E-09
        82  17 -5.823769E+05 -3.268732E+05 -1.185890E+05 -3.213718E+05 -1.771260E-08 -6.558218E-09
        82  18 -7.697815E+05 -4.261302E+05 -1.659452E+05 -4.038104E+05 -7.058014E-09 -2.006252E-09
        82  19  3.535352E+05 -1.444955E+04  7.259008E+04 -9.440230E+04 -3.039186E+04  1.620522E+04
        82  20  5.403808E+05  8.346346E+04  1.151161E+05 -1.162678E+04 -3.355639E+04  3.145899E+04
        82  21  7.710857E+05  1.381427E+05  1.593412E+05  2.134819E+04 -3.585365E+04  4.437400E+04
        82  22  5.329925E+02 -1.432715E+05 -9.234119E+02 -1.915966E+05 -9.709597E+03  2.393202E+04
        82  23 -2.115923E+04 -1.217169E+05 -1.726822E+03 -1.665638E+05 -1.597210E+04  3.803424E+04
        82  24  3.526399E+02 -1.440152E+05 -3.282284E+03 -1.913519E+05 -2.136767E+04  4.979620E+04
        82  25 -3.523382E+05 -2.720819E+05 -7.444101E+04 -2.887391E+05  1.095986E+04  3.165404E+04
        82  26 -5.823763E+05 -3.268710E+05 -1.185853E+05 -3.213717E+05  1.595088E+03  4.460310E+04
        82  27 -7.697807E+05 -4.261269E+05 -1.659394E+05 -4.038107E+05 -6.900932E+03  5.521120E+04
        83   1  9.179002E+05  1.915251E+05  1.892278E+05  6.042868E+04  4.819998E+04 -5.077406E+04
        83   2  1.099570E+06  2.916641E+05  2.437333E+05  1.453109E+05  1.397365E+03 -6.617608E+04
        83   3  1.328982E+06  3.498408E+05  3.322164E+05  1.847949E+05 -5.964032E+04 -4.367507E+04
        83   4 -5.334097E+02 -1.431119E+05 -4.266690E+03 -1.914076E+05  2.547694E+04 -5.928169E+04
        83   5 -2.046215E+04 -1.240863E+05 -7.998252E+03 -1.661342E+05  2.902647E+04 -5.584341E+04
        83   6 -2.647814E+03 -1.569983E+05 -1.759591E+04 -1.862818E+05  1.834622E+04 -1.446061E+04
        83   7 -9.181110E+05 -4.776836E+05 -1.978067E+05 -4.429032E+05  2.789982E+03 -6.777595E+04
        83   8 -1.139218E+06 -5.397304E+05 -2.598028E+05 -4.770595E+05  5.660136E+04 -4.553144E+04
        83   9 -1.332510E+06 -6.636947E+05 -3.675226E+05 -5.566221E+05  9.614733E+04  1.468185E+04
        83  10  9.178970E+05  1.915217E+05  1.892186E+05  6.043065E+04  1.531226E-09  1.650435E-09
        83  11  1.099569E+06  2.916594E+05  2.437251E+05  1.453109E+05 -6.015117E-11  2.285097E-09
        83  12  1.328978E+06  3.498378E+05  3.322062E+05  1.847928E+05  2.588525E-09  1.693152E-09
        83  13 -5.350496E+02 -1.431159E+05 -4.274513E+03 -1.914064E+05 -7.760287E-10  4.909792E-10
        83  14 -2.046389E+04 -1.240899E+05 -8.005694E+03 -1.661329E+05 -1.741961E-10  1.931930E-09
        83  15 -2.648231E+03 -1.569986E+05 -1.759694E+04 -1.862816E+05 -4.298873E-10  8.645972E-10
        83  16 -9.181123E+05 -4.776885E+05 -1.978154E+05 -4.429030E+05 -2.878315E-09  1.689142E-09
        83  17 -1.139222E+06 -5.397335E+05 -2.598127E+05 -4.770574E+05 -4.926747E-09  1.296353E-09
        83  18 -1.332520E+06 -6.636974E+05 -3.675404E+05 -5.566232E+05 -4.177942E-09 -2.629684E-10
        83  19  9.179002E+05  1.915251E+05  1.892278E+05  6.042868E+04 -4.819998E+04  5.077406E+04
        83  20  1.099570E+06  2.916641E+05  2.437333E+05  1.453109E+05 -1.397365E+03  6.617608E+04
        83  21  1.328982E+06  3.498408E+05  3.322164E+05  1.847949E+05  5.964032E+04  4.367507E+04
        83  22 -5.334097E+02 -1.431119E+05 -4.266690E+03 -1.914076E+05 -2.547694E+04  5.928169E+04
        83  23 -2.046215E+04 -1.240863E+05 -7.998252E+03 -1.661342E+05 -2.902647E+04  5.584341E+04
        83  24 -2.647814E+03 -1.569983E+05 -1.759591E+04 -1.862818E+05 -1.834622E+04  1.446061E+04
        83  25 -9.181110E+05 -4.776836E+05 -1.978067E+05 -4.429032E+05 -2.789982E+03  6.777595E+04
        83  26 -1.139218E+06 -5.397304E+05 -2.598028E+05 -4.770595E+05 -5.660136E+04  4.553144E+04
        83  27 -1.332510E+06 -6.636947E+05 -3.675226E+05 -5.566221E+05 -9.614733E+04 -1.468185E+04
        84   1 -8.903216E+04 -4.746903E+04 -4.209203E+04 -3.372030E+04 -9.352855E+03  3.310302E+03
        84   2 -5.438138E+04 -4.969834E+04 -3.220203E+04 -3.801571E+04 -1.545586E+03  1.102572E+04
        84   3 -1.916901E+04 -4.564239E+04 -2.582360E+04 -4.745418E+04  6.263392E+03  1.306308E+04
        84   4  1.905029E+05  2.137227E+04  2.261320E+04 -4.827403E+04  1.597725E+04  3.312625E+03
        84   5  1.890443E+05  7.706809E+03  1.142179E+04 -4.570219E+04  1.015831E+04  1.102604E+04
        84   6  1.905103E+05  2.690395E+03  6.180360E+03 -4.827298E+04  4.340478E+03  1.306260E+04
        84   7  4.701120E+05  9.020922E+04  8.731573E+04 -6.283437E+04  4.131868E+04  3.313760E+03
        84   8  4.325282E+05  6.510896E+04  5.504388E+04 -5.339177E+04  2.186666E+04  1.102608E+04
        84   9  4.002335E+05  5.102107E+04  3.818339E+04 -4.909207E+04  2.416940E+03  1.306212E+04
        84  10 -8.903226E+04 -4.746906E+04 -4.209222E+04 -3.372027E+04 -1.015684E-09  2.032415E-10
        84  11 -5.438141E+04 -4.969847E+04 -3.220226E+04 -3.801570E+04  2.080045E-10  7.134696E-10
        84  12 -1.916910E+04 -4.564258E+04 -2.582399E+04 -4.745424E+04 -1.192198E-09  9.498388E-10
        84  13  1.905026E+05  2.137219E+04  2.261270E+04 -4.827407E+04  6.266863E-11  4.178780E-10
        84  14  1.890442E+05  7.706651E+03  1.142137E+04 -4.570228E+04  6.235068E-10  1.084430E-09
        84  15  1.905102E+05  2.690207E+03  6.180004E+03 -4.827303E+04 -4.737308E-10  1.192610E-09
        84  16  4.701101E+05  9.020875E+04  8.731251E+04 -6.283448E+04  1.207203E-09  5.640739E-10
        84  17  4.325277E+05  6.510870E+04  5.504276E+04 -5.339196E+04  6.186400E-10  1.505160E-09
        84  18  4.002335E+05  5.102089E+04  3.818306E+04 -4.909209E+04  1.776088E-09  1.646812E-09
        84  19 -8.903216E+04 -4.746903E+04 -4.209203E+04 -3.372030E+04  9.352855E+03 -3.310302E+03
        84  20 -5.438138E+04 -4.969834E+04 -3.220203E+04 -3.801571E+04  1.545586E+03 -1.102572E+04
        84  21 -1.916901E+04 -4.564239E+04 -2.582360E+04 -4.745418E+04 -6.263392E+03 -1.306308E+04
        84  22  1.905029E+05  2.137227E+04  2.261320E+04 -4.827403E+04 -1.597725E+04 -3.312625E+03
        84  23  1.890443E+05  7.706809E+03  1.142179E+04 -4.570219E+04 -1.015831E+04 -1.102604E+04
        84  24  1.905103E+05  2.690395E+03  6.180360E+03 -4.827298E+04 -4.340478E+03 -1.306260E+04
        84  25  4.701120E+05  9.020922E+04  8.731573E+04 -6.283437E+04 -4.131868E+04 -3.313760E+03
        84  26  4.325282E+05  6.510896E+04  5.504388E+04 -5.339177E+04 -2.186666E+04 -1.102608E+04
        84  27  4.002335E+05  5.102107E+04  3.818339E+04 -4.909207E+04 -2.416940E+03 -1.306212E+04
        85   1  2.187798E+03 -4.112598E+04 -2.305457E+04 -4.721772E+04  5.911209E+03  1.233384E+04
        85   2  3.704312E+04 -3.411232E+04 -1.856259E+04 -4.502403E+04  6.508102E+03  1.096024E+04
        85   3  7.196305E+04 -2.654462E+04 -1.431995E+04 -4.839592E+04  7.104941E+03  8.819186E+03
        85   4  1.899470E+05  1.954557E+03  4.608600E+03 -4.836714E+04  3.536322E+03  1.233344E+04
        85   5  1.897574E+05  6.363603E+02  2.485580E+03 -4.558443E+04  2.290934E+03  1.095999E+04
        85   6  1.899509E+05  1.919387E+02  1.392220E+03 -4.836716E+04  1.045462E+03  8.819195E+03
        85   7  3.777417E+05  4.503346E+04  3.227116E+04 -4.951693E+04  1.160747E+03  1.233305E+04
        85   8  3.424955E+05  3.538403E+04  2.353355E+04 -4.614497E+04 -1.927224E+03  1.095975E+04
        85   9  3.079530E+05  2.692792E+04  1.710442E+04 -4.833839E+04 -5.015114E+03  8.819203E+03
        85  10  2.187720E+03 -4.112616E+04 -2.305492E+04 -4.721778E+04 -6.865977E-08  8.833628E-10
        85  11  3.704304E+04 -3.411246E+04 -1.856289E+04 -4.502409E+04  1.179610E-09  2.016127E-10
        85  12  7.196297E+04 -2.654471E+04 -1.432020E+04 -4.839597E+04  6.944491E-08 -8.105765E-10
        85  13  1.899470E+05  1.954390E+03  4.608290E+03 -4.836718E+04  1.144465E-09  1.154687E-09
        85  14  1.897574E+05  6.362299E+02  2.485344E+03 -4.558445E+04  1.725838E-09  5.228293E-10
        85  15  1.899509E+05  1.918549E+02  1.392072E+03 -4.836717E+04 -1.960384E-09 -2.566527E-10
        85  16  3.777417E+05  4.503330E+04  3.227087E+04 -4.951694E+04  6.815060E-08  1.296883E-09
        85  17  3.424954E+05  3.538390E+04  2.353332E+04 -4.614495E+04  7.229463E-10  7.730684E-10
        85  18  3.079530E+05  2.692783E+04  1.710423E+04 -4.833836E+04 -7.214134E-08  3.124814E-10
        85  19  2.187798E+03 -4.112598E+04 -2.305457E+04 -4.721772E+04 -5.911209E+03 -1.233384E+04
        85  20  3.704312E+04 -3.411232E+04 -1.856259E+04 -4.502403E+04 -6.508102E+03 -1.096024E+04
        85  21  7.196305E+04 -2.654462E+04 -1.431995E+04 -4.839592E+04 -7.104941E+03 -8.819186E+03
        85  22  1.899470E+05  1.954557E+03  4.608600E+03 -4.836714E+04 -3.536322E+03 -1.233344E+04
        85  23  1.897574E+05  6.363603E+02  2.485580E+03 -4.558443E+04 -2.290934E+03 -1.095999E+04
        85  24  1.899509E+05  1.919387E+02  1.392220E+03 -4.836716E+04 -1.045462E+03 -8.819195E+03
        85  25  3.777417E+05  4.503346E+04  3.227116E+04 -4.951693E+04 -1.160747E+03 -1.233305E+04
        85  26  3.424955E+05  3.538403E+04  2.353355E+04 -4.614497E+04  1.927224E+03 -1.095975E+04
        85  27  3.079530E+05  2.692792E+04  1.710442E+04 -4.833839E+04  5.015114E+03 -8.819203E+03
        86   1  9.345699E+04 -2.168161E+04 -1.162411E+04 -4.835202E+04  6.961206E+03  7.314373E+03
        86   2  1.283280E+05 -1.387986E+04 -7.427343E+03 -4.557062E+04  6.918178E+03  4.712787E+03
        86   3  1.632164E+05 -6.037981E+03 -3.192324E+03 -4.841117E+04  6.875071E+03  2.007861E+03
        86   4  1.898799E+05  1.344255E+02  1.048517E+03 -4.837972E+04  8.407264E+02  7.314487E+03
        86   5  1.898508E+05  2.520115E+01  5.862630E+02 -4.556876E+04  5.494822E+02  4.713017E+03
        86   6  1.898814E+05 -6.650362E-01  3.346257E+02 -4.837973E+04  2.581646E+02  2.008210E+03
        86   7  2.863124E+05  2.195009E+04  1.372122E+04 -4.840742E+04 -5.280658E+03  7.314603E+03
        86   8  2.513775E+05  1.393012E+04  8.599999E+03 -4.556690E+04 -5.819815E+03  4.713247E+03
        86   9  2.165472E+05  6.036645E+03  3.861735E+03 -4.834828E+04 -6.359013E+03  2.008558E+03
        86  10  9.345692E+04 -2.168168E+04 -1.162430E+04 -4.835207E+04 -2.399564E-09 -3.486166E-10
        86  11  1.283280E+05 -1.387989E+04 -7.427475E+03 -4.557065E+04 -6.560175E-10  1.232425E-09
        86  12  1.632164E+05 -6.037998E+03 -3.192420E+03 -4.841119E+04 -4.978985E-10  9.912655E-10
        86  13  1.898799E+05  1.343679E+02  1.048415E+03 -4.837972E+04  1.002184E-09 -3.901994E-11
        86  14  1.898508E+05  2.517721E+01  5.862207E+02 -4.556877E+04 -1.609048E-09  9.760121E-10
        86  15  1.898814E+05 -6.693852E-01  3.346180E+02 -4.837973E+04  1.746401E-09  1.282598E-09
        86  16  2.863123E+05  2.195003E+04  1.372107E+04 -4.840739E+04  6.920024E-10  2.772890E-10
        86  17  2.513775E+05  1.393009E+04  8.599893E+03 -4.556688E+04  1.420940E-10  7.342604E-10
        86  18  2.165472E+05  6.036630E+03  3.861651E+03 -4.834827E+04  7.511703E-10  1.510126E-09
        86  19  9.345699E+04 -2.168161E+04 -1.162411E+04 -4.835202E+04 -6.961206E+03 -7.314373E+03
        86  20  1.283280E+05 -1.387986E+04 -7.427343E+03 -4.557062E+04 -6.918178E+03 -4.712787E+03
        86  21  1.632164E+05 -6.037981E+03 -3.192324E+03 -4.841117E+04 -6.875071E+03 -2.007861E+03
        86  22  1.898799E+05  1.344255E+02  1.048517E+03 -4.837972E+04 -8.407264E+02 -7.314487E+03
        86  23  1.898508E+05  2.520115E+01  5.862630E+02 -4.556876E+04 -5.494822E+02 -4.713017E+03
        86  24  1.898814E+05 -6.650362E-01  3.346257E+02 -4.837973E+04 -2.581646E+02 -2.008210E+03
        86  25  2.863124E+05  2.195009E+04  1.372122E+04 -4.840742E+04  5.280658E+03 -7.314603E+03
        86  26  2.513775E+05  1.393012E+04  8.599999E+03 -4.556690E+04  5.819815E+03 -4.713247E+03
        86  27  2.165472E+05  6.036645E+03  3.861735E+03 -4.834828E+04  6.359013E+03 -2.008558E+03
        87   1  1.847243E+05 -1.163652E+03 -4.090815E+02 -4.840205E+04  6.831107E+03  3.987296E+02
        87   2  2.196004E+05  6.685257E+03  3.879989E+03 -4.558245E+04  6.786309E+03 -2.366621E+03
        87   3  2.544853E+05  1.453614E+04  8.199082E+03 -4.839233E+04  6.741553E+03 -5.143143E+03
        87   4  1.898709E+05 -2.004983E+00  2.536078E+02 -4.838141E+04  2.060846E+02  3.990956E+02
        87   5  1.898647E+05 -7.435051E+00  1.450822E+02 -4.556667E+04  1.342347E+02 -2.366306E+03
        87   6  1.898702E+05 -6.319824E+00  8.506937E+01 -4.838141E+04  6.242733E+01 -5.142883E+03
        87   7  1.950176E+05  1.159664E+03  9.164619E+02 -4.836077E+04 -6.418990E+03  3.994611E+02
        87   8  1.601300E+05 -6.700140E+03 -3.589660E+03 -4.555088E+04 -6.517537E+03 -2.365992E+03
        87   9  1.252594E+05 -1.454893E+04 -8.028786E+03 -4.837050E+04 -6.616038E+03 -5.142622E+03
        87  10  1.847242E+05 -1.163664E+03 -4.091694E+02 -4.840205E+04  9.616000E-10  1.188426E-09
        87  11  2.196003E+05  6.685239E+03  3.879891E+03 -4.558244E+04 -3.479354E-08  2.993174E-09
        87  12  2.544852E+05  1.453610E+04  8.198946E+03 -4.839230E+04 -7.002582E-08  4.452981E-09
        87  13  1.898709E+05 -2.005165E+00  2.536074E+02 -4.838141E+04 -1.066515E-09 -6.533269E-10
        87  14  1.898647E+05 -7.441069E+00  1.450716E+02 -4.556667E+04 -3.044365E-11 -6.845787E-09
        87  15  1.898702E+05 -6.348229E+00  8.501966E+01 -4.838141E+04  8.421733E-11 -1.289363E-08
        87  16  1.950175E+05  1.159653E+03  9.163842E+02 -4.836077E+04  6.792443E-10  1.959611E-09
        87  17  1.601299E+05 -6.700157E+03 -3.589751E+03 -4.555090E+04  3.765706E-08  3.015810E-09
        87  18  1.252594E+05 -1.454897E+04 -8.028918E+03 -4.837052E+04  6.891416E-08  4.778417E-09
        87  19  1.847243E+05 -1.163652E+03 -4.090815E+02 -4.840205E+04 -6.831107E+03 -3.987296E+02
        87  20  2.196004E+05  6.685257E+03  3.879989E+03 -4.558245E+04 -6.786309E+03  2.366621E+03
        87  21  2.544853E+05  1.453614E+04  8.199082E+03 -4.839233E+04 -6.741553E+03  5.143143E+03
        87  22  1.898709E+05 -2.004983E+00  2.536078E+02 -4.838141E+04 -2.060846E+02 -3.990956E+02
        87  23  1.898647E+05 -7.435051E+00  1.450822E+02 -4.556667E+04 -1.342347E+02  2.366306E+03
        87  24  1.898702E+05 -6.319824E+00  8.506937E+01 -4.838141E+04 -6.242733E+01  5.142883E+03
        87  25  1.950176E+05  1.159664E+03  9.164619E+02 -4.836077E+04  6.418990E+03 -3.994611E+02
        87  26  1.601300E+05 -6.700140E+03 -3.589660E+03 -4.555088E+04  6.517537E+03  2.365992E+03
        87  27  1.252594E+05 -1.454893E+04 -8.028786E+03 -4.837050E+04  6.616038E+03  5.142622E+03
        88   1  2.759985E+05  1.940690E+04  1.102527E+04 -4.838979E+04  6.727571E+03 -6.763502E+03
        88   2  3.108780E+05  2.725645E+04  1.538674E+04 -4.557039E+04  6.661044E+03 -9.535676E+03
        88   3  3.457713E+05  3.511413E+04  1.979408E+04 -4.838060E+04  6.594684E+03 -1.228858E+04
        88   4  1.898680E+05 -6.364718E+00  6.595035E+01 -4.838145E+04  4.874147E+01 -6.763322E+03
        88   5  1.898642E+05 -8.260843E+00  4.132678E+01 -4.556662E+04  2.831063E+01 -9.535714E+03
        88   6  1.898651E+05 -1.000875E+01  3.045714E+01 -4.838145E+04  8.051401E+00 -1.228883E+04
        88   7  1.037452E+05 -1.941991E+04 -1.089323E+04 -4.837312E+04 -6.629208E+03 -6.763141E+03
        88   8  6.886561E+04 -2.727354E+04 -1.530397E+04 -4.556285E+04 -6.603194E+03 -9.535753E+03
        88   9  3.398382E+04 -3.513511E+04 -1.973308E+04 -4.838231E+04 -6.577010E+03 -1.228909E+04
        88  10  2.759984E+05  1.940684E+04  1.102510E+04 -4.838975E+04  1.389997E-07  4.487981E-09
        88  11  3.108779E+05  2.725634E+04  1.538648E+04 -4.557034E+04  3.903187E-08  3.086072E-09
        88  12  3.457713E+05  3.511395E+04  1.979371E+04 -4.838053E+04 -6.673329E-08  1.195392E-09
        88  13  1.898680E+05 -6.413842E+00  6.586438E+01 -4.838145E+04  1.207800E-09 -1.289023E-08
        88  14  1.898642E+05 -8.358495E+00  4.115589E+01 -4.556662E+04  6.798054E-10 -6.910164E-09
        88  15  1.898650E+05 -1.017093E+01  3.017333E+01 -4.838145E+04  4.452495E-10 -9.119542E-10
        88  16  1.037451E+05 -1.941997E+04 -1.089340E+04 -4.837316E+04 -1.374146E-07  4.741472E-09
        88  17  6.886554E+04 -2.727365E+04 -1.530422E+04 -4.556290E+04 -3.795646E-08  2.759922E-09
        88  18  3.398374E+04 -3.513529E+04 -1.973345E+04 -4.838237E+04  6.524741E-08  1.399896E-09
        88  19  2.759985E+05  1.940690E+04  1.102527E+04 -4.838979E+04 -6.727571E+03  6.763502E+03
        88  20  3.108780E+05  2.725645E+04  1.538674E+04 -4.557039E+04 -6.661044E+03  9.535676E+03
        88  21  3.457713E+05  3.511413E+04  1.979408E+04 -4.838060E+04 -6.594684E+03  1.228858E+04
        88  22  1.898680E+05 -6.364718E+00  6.595035E+01 -4.838145E+04 -4.874147E+01  6.763322E+03
        88  23  1.898642E+05 -8.260843E+00  4.132678E+01 -4.556662E+04 -2.831063E+01  9.535714E+03
        88  24  1.898651E+05 -1.000875E+01  3.045714E+01 -4.838145E+04 -8.051401E+00  1.228883E+04
        88  25  1.037452E+05 -1.941991E+04 -1.089323E+04 -4.837312E+04  6.629208E+03  6.763141E+03
        88  26  6.886561E+04 -2.727354E+04 -1.530397E+04 -4.556285E+04  6.603194E+03  9.535753E+03
        88  27  3.398382E+04 -3.513511E+04 -1.973308E+04 -4.838231E+04  6.577010E+03  1.228909E+04
        89   1  3.673005E+05  3.999226E+04  2.267103E+04 -4.837554E+04  6.577554E+03 -1.388946E+04
        89   2  4.021610E+05  4.787009E+04  2.723057E+04 -4.555967E+04  6.184781E+03 -1.654891E+04
        89   3  4.370948E+05  5.581594E+04  3.206383E+04 -4.836363E+04  5.792262E+03 -1.905114E+04
        89   4  1.898643E+05 -1.178064E+01  2.869789E+01 -4.837929E+04  2.810508E+00 -1.388989E+04
        89   5  1.898582E+05 -1.547409E+01  3.125360E+01 -4.556932E+04 -1.250575E+01 -1.654971E+04
        89   6  1.898592E+05 -1.648071E+01  4.558309E+01 -4.837929E+04 -2.755266E+01 -1.905226E+04
        89   7  1.246042E+04 -4.001709E+04 -2.261360E+04 -4.838304E+04 -6.570147E+03 -1.389032E+04
        89   8 -2.239828E+04 -4.790288E+04 -2.716812E+04 -4.557897E+04 -6.207777E+03 -1.655050E+04
        89   9 -5.731381E+04 -5.585143E+04 -3.197287E+04 -4.839494E+04 -5.845163E+03 -1.905339E+04
        89  10  3.673004E+05  3.999205E+04  2.267059E+04 -4.837546E+04  2.007834E-09  8.685198E-10
        89  11  4.021609E+05  4.786979E+04  2.722999E+04 -4.555959E+04  3.365443E-09  1.280221E-09
        89  12  4.370946E+05  5.581554E+04  3.206309E+04 -4.836354E+04  8.593289E-10  1.626235E-09
        89  13  1.898642E+05 -1.198783E+01  2.833530E+01 -4.837929E+04 -1.075058E-09  1.084944E-09
        89  14  1.898582E+05 -1.576823E+01  3.073885E+01 -4.556932E+04  1.022976E-09  1.554595E-09
        89  15  1.898591E+05 -1.687054E+01  4.490090E+01 -4.837929E+04  6.369116E-10  1.725989E-09
        89  16  1.246032E+04 -4.001731E+04 -2.261405E+04 -4.838311E+04 -2.942213E-10  1.287387E-09
        89  17 -2.239840E+04 -4.790318E+04 -2.716871E+04 -4.557905E+04 -3.531564E-09  1.744996E-09
        89  18 -5.731394E+04 -5.585182E+04 -3.197361E+04 -4.839503E+04 -7.847367E-10  1.979695E-09
        89  19  3.673005E+05  3.999226E+04  2.267103E+04 -4.837554E+04 -6.577554E+03  1.388946E+04
        89  20  4.021610E+05  4.787009E+04  2.723057E+04 -4.555967E+04 -6.184781E+03  1.654891E+04
        89  21  4.370948E+05  5.581594E+04  3.206383E+04 -4.836363E+04 -5.792262E+03  1.905114E+04
        89  22  1.898643E+05 -1.178064E+01  2.869789E+01 -4.837929E+04 -2.810508E+00  1.388989E+04
        89  23  1.898582E+05 -1.547409E+01  3.125360E+01 -4.556932E+04  1.250575E+01  1.654971E+04
        89  24  1.898592E+05 -1.648071E+01  4.558309E+01 -4.837929E+04  2.755266E+01  1.905226E+04
        89  25  1.246042E+04 -4.001709E+04 -2.261360E+04 -4.838304E+04  6.570147E+03  1.389032E+04
        89  26 -2.239828E+04 -4.790288E+04 -2.716812E+04 -4.557897E+04  6.207777E+03  1.655050E+04
        89  27 -5.731381E+04 -5.585143E+04 -3.197287E+04 -4.839494E+04  5.845163E+03  1.905339E+04
        90   1  4.587074E+05  6.076424E+04  3.522264E+04 -4.833662E+04  5.691534E+03 -2.049315E+04
        90   2  4.933706E+05  6.887645E+04  4.111169E+04 -4.558080E+04  2.841627E+03 -2.229508E+04
        90   3  5.285443E+05  7.750884E+04  4.898741E+04 -4.835724E+04 -8.454727E+00 -2.293040E+04
        90   4  1.898606E+05 -1.743333E+01  5.777783E+01 -4.835984E+04 -3.603409E+01 -2.049452E+04
        90   5  1.898457E+05 -6.799376E+00  9.754222E+01 -4.559363E+04 -8.426027E+01 -2.229654E+04
        90   6  1.898534E+05  3.783226E+01  1.792421E+02 -4.835985E+04 -1.324646E+02 -2.293166E+04
        90   7 -7.891224E+04 -6.080212E+04 -3.510742E+04 -4.838305E+04 -5.761242E+03 -2.049588E+04
        90   8 -1.135855E+05 -6.889402E+04 -4.091744E+04 -4.560645E+04 -3.008783E+03 -2.229801E+04
        90   9 -1.487217E+05 -7.743841E+04 -4.863073E+04 -4.836245E+04 -2.564097E+02 -2.293293E+04
        90  10  4.587072E+05  6.076378E+04  3.522179E+04 -4.833653E+04  7.143174E-10  1.328342E-09
        90  11  4.933705E+05  6.887592E+04  4.111074E+04 -4.558075E+04  1.423261E-09 -2.791559E-10
        90  12  5.285442E+05  7.750827E+04  4.898642E+04 -4.835724E+04  8.451282E-10 -2.750197E-09
        90  13  1.898605E+05 -1.788441E+01  5.698844E+01 -4.835984E+04 -3.225080E-09  1.471903E-09
        90  14  1.898455E+05 -7.333263E+00  9.660791E+01 -4.559363E+04 -2.666331E-09  1.676930E-10
        90  15  1.898533E+05  3.726752E+01  1.782538E+02 -4.835985E+04 -3.455744E-09 -1.797951E-09
        90  16 -7.891239E+04 -6.080258E+04 -3.510827E+04 -4.838315E+04 -2.201425E-09  1.702788E-09
        90  17 -1.135857E+05 -6.889456E+04 -4.091840E+04 -4.560651E+04 -4.337030E-10  9.800339E-10
        90  18 -1.487219E+05 -7.743898E+04 -4.863172E+04 -4.836246E+04 -3.009475E-09 -7.230888E-10
        90  19  4.587074E+05  6.076424E+04  3.522264E+04 -4.833662E+04 -5.691534E+03  2.049315E+04
        90  20  4.933706E+05  6.887645E+04  4.111169E+04 -4.558080E+04 -2.841627E+03  2.229508E+04
        90  21  5.285443E+05  7.750884E+04  4.898741E+04 -4.835724E+04  8.454727E+00  2.293040E+04
        90  22  1.898606E+05 -1.743333E+01  5.777783E+01 -4.835984E+04  3.603409E+01  2.049452E+04
        90  23  1.898457E+05 -6.799376E+00  9.754222E+01 -4.559363E+04  8.426027E+01  2.229654E+04
        90  24  1.898534E+05  3.783226E+01  1.792421E+02 -4.835985E+04  1.324646E+02  2.293166E+04
        90  25 -7.891224E+04 -6.080212E+04 -3.510742E+04 -4.838305E+04  5.761242E+03  2.049588E+04
        90  26 -1.135855E+05 -6.889402E+04 -4.091744E+04 -4.560645E+04  3.008783E+03  2.229801E+04
        90  27 -1.487217E+05 -7.743841E+04 -4.863073E+04 -4.836245E+04  2.564097E+02  2.293293E+04
        91   1  5.507222E+05  8.298764E+04  5.417334E+04 -4.819115E+04 -7.266971E+02 -2.319342E+04
        91   2  5.838481E+05  9.289409E+04  6.977841E+04 -4.600094E+04 -2.168090E+04 -1.864740E+04
        91   3  6.206980E+05  1.067404E+05  1.000050E+05 -4.869889E+04 -4.264039E+04 -5.470230E+03
        91   4  1.898738E+05  6.291913E+01  2.400637E+02 -4.821661E+04 -1.638129E+02 -2.319463E+04
        91   5  1.898060E+05  2.542620E+02  4.405132E+02 -4.577271E+04 -3.860376E+02 -1.864346E+04
        91   6  1.898649E+05  7.890628E+02  8.731974E+02 -4.821677E+04 -6.120274E+02 -5.458632E+03
        91   7 -1.708439E+05 -8.286795E+04 -5.369573E+04 -4.824206E+04  3.987576E+02 -2.319585E+04
        91   8 -2.040833E+05 -9.239381E+04 -6.890133E+04 -4.554464E+04  2.089572E+04 -1.863951E+04
        91   9 -2.407928E+05 -1.051743E+05 -9.826429E+04 -4.773499E+04  4.138743E+04 -5.446964E+03
        91  10  5.507220E+05  8.298707E+04  5.417233E+04 -4.819116E+04 -1.122268E-09 -2.848305E-09
        91  11  5.838475E+05  9.289359E+04  6.977687E+04 -4.600127E+04 -3.829944E-10 -1.144580E-09
        91  12  6.206960E+05  1.067399E+05  1.000016E+05 -4.869908E+04  2.179491E-11 -6.399383E-11
        91  13  1.898736E+05  6.234136E+01  2.390526E+02 -4.821662E+04 -2.112551E-10 -2.931550E-09
        91  14  1.898059E+05  2.538887E+02  4.398597E+02 -4.577272E+04 -8.293796E-10 -1.663330E-10
        91  15  1.898649E+05  7.890307E+02  8.731407E+02 -4.821677E+04 -1.449334E-09 -8.715614E-11
        91  16 -1.708441E+05 -8.286853E+04 -5.369674E+04 -4.824206E+04  2.826801E-09 -1.465066E-09
        91  17 -2.040839E+05 -9.239430E+04 -6.890281E+04 -4.554433E+04  2.819909E-10 -7.130156E-10
        91  18 -2.407946E+05 -1.051748E+05 -9.826757E+04 -4.773480E+04  5.349115E-10 -6.306160E-10
        91  19  5.507222E+05  8.298764E+04  5.417334E+04 -4.819115E+04  7.266971E+02  2.319342E+04
        91  20  5.838481E+05  9.289409E+04  6.977841E+04 -4.600094E+04  2.168090E+04  1.864740E+04
        91  21  6.206980E+05  1.067404E+05  1.000050E+05 -4.869889E+04  4.264039E+04  5.470230E+03
        91  22  1.898738E+05  6.291913E+01  2.400637E+02 -4.821661E+04  1.638129E+02  2.319463E+04
        91  23  1.898060E+05  2.542620E+02  4.405132E+02 -4.577271E+04  3.860376E+02  1.864346E+04
        91  24  1.898649E+05  7.890628E+02  8.731974E+02 -4.821677E+04  6.120274E+02  5.458632E+03
        91  25 -1.708439E+05 -8.286795E+04 -5.369573E+04 -4.824206E+04 -3.987576E+02  2.319585E+04
        91  26 -2.040833E+05 -9.239381E+04 -6.890133E+04 -4.554464E+04 -2.089572E+04  1.863951E+04
        91  27 -2.407928E+05 -1.051743E+05 -9.826429E+04 -4.773499E+04 -4.138743E+04  5.446964E+03
        92   1  8.517486E+04  4.258071E+05  8.168148E+04 -1.515542E+05  2.897218E+03  1.833981E+04
        92   2  5.519475E+04  3.079550E+05  4.603737E+04 -1.423242E+05  7.941287E+03  1.151371E+03
        92   3  2.769830E+04  1.929677E+05  2.219736E+04 -1.523639E+05  5.322545E+03 -1.603501E+04
        92   4 -1.336563E+03  7.624137E+04 -1.417639E+03 -1.523383E+05  2.906007E+03 -1.675206E+03
        92   5 -3.665613E+02  7.632401E+04 -1.927016E+02 -1.427028E+05  7.942771E+03 -1.566860E+03
        92   6  8.691129E+01  7.625915E+04  8.301828E+02 -1.523378E+05  5.315375E+03 -1.459436E+03
        92   7 -8.785657E+04 -2.732114E+05 -8.452380E+04 -1.531219E+05  2.914849E+03 -2.167902E+04
        92   8 -5.593116E+04 -1.552558E+05 -4.642545E+04 -1.430813E+05  7.944257E+03 -4.284097E+03
        92   9 -2.752514E+04 -4.043568E+04 -2.053675E+04 -1.523116E+05  5.308206E+03  1.311347E+04
        92  10  8.517476E+04  4.258068E+05  8.168083E+04 -1.515542E+05 -4.005062E-10  8.263267E-10
        92  11  5.519469E+04  3.079550E+05  4.603725E+04 -1.423242E+05  2.242639E-09 -5.273001E-10
        92  12  2.769820E+04  1.929674E+05  2.219683E+04 -1.523639E+05  6.654685E-10 -1.732966E-09
        92  13 -1.336573E+03  7.624136E+04 -1.417660E+03 -1.523383E+05  1.311993E-09 -2.214979E-10
        92  14 -3.666297E+02  7.632399E+04 -1.928247E+02 -1.427028E+05  1.277554E-09 -1.076471E-10
        92  15  8.688039E+01  7.625914E+04  8.301257E+02 -1.523377E+05 -1.352016E-09 -7.254968E-10
        92  16 -8.785670E+04 -2.732119E+05 -8.452469E+04 -1.531219E+05  1.397779E-10 -1.026528E-09
        92  17 -5.593123E+04 -1.552558E+05 -4.642560E+04 -1.430813E+05  2.937060E-09  6.060367E-10
        92  18 -2.752521E+04 -4.043587E+04 -2.053713E+04 -1.523116E+05  5.305571E-10  2.054784E-09
        92  19  8.517486E+04  4.258071E+05  8.168148E+04 -1.515542E+05 -2.897218E+03 -1.833981E+04
        92  20  5.519475E+04  3.079550E+05  4.603737E+04 -1.423242E+05 -7.941287E+03 -1.151371E+03
        92  21  2.769830E+04  1.929677E+05  2.219736E+04 -1.523639E+05 -5.322545E+03  1.603501E+04
        92  22 -1.336563E+03  7.624137E+04 -1.417639E+03 -1.523383E+05 -2.906007E+03  1.675206E+03
        92  23 -3.665613E+02  7.632401E+04 -1.927016E+02 -1.427028E+05 -7.942771E+03  1.566860E+03
        92  24  8.691129E+01  7.625915E+04  8.301828E+02 -1.523378E+05 -5.315375E+03  1.459436E+03
        92  25 -8.785657E+04 -2.732114E+05 -8.452380E+04 -1.531219E+05 -2.914849E+03  2.167902E+04
        92  26 -5.593116E+04 -1.552558E+05 -4.642545E+04 -1.430813E+05 -7.944257E+03  4.284097E+03
        92  27 -2.752514E+04 -4.043568E+04 -2.053675E+04 -1.523116E+05 -5.308206E+03 -1.311347E+04
        93   1  1.077692E+04  1.201981E+05  1.061572E+04 -1.524961E+05  1.188746E+03 -1.649951E+04
        93   2 -1.586803E+04  3.691425E+03 -7.499847E+03 -1.419632E+05 -5.202587E+03 -1.714185E+04
        93   3 -4.165019E+04 -1.125108E+05 -2.498476E+04 -1.511752E+05 -1.122004E+04 -1.778373E+04
        93   4  1.731245E+02  7.639124E+04  1.398542E+03 -1.524432E+05  1.181266E+03 -1.657205E+03
        93   5  7.206863E+02  7.616966E+04  2.964981E+03 -1.425705E+05 -5.209319E+03 -3.144547E+03
        93   6  2.278069E+03  7.638541E+04  5.748049E+03 -1.524423E+05 -1.122606E+04 -4.631554E+03
        93   7 -1.043068E+04  3.258661E+04 -7.817920E+03 -1.523903E+05  1.173788E+03  1.318407E+04
        93   8  1.730927E+04  1.486536E+05  1.343046E+04 -1.431778E+05 -5.216078E+03  1.085432E+04
        93   9  4.620461E+04  2.653173E+05  3.648051E+04 -1.537099E+05 -1.123213E+04  8.524489E+03
        93  10  1.077685E+04  1.201979E+05  1.061521E+04 -1.524961E+05 -2.274015E-09  2.025551E-09
        93  11 -1.586814E+04  3.691103E+03 -7.500450E+03 -1.419632E+05  1.611116E-09 -8.888179E-10
        93  12 -4.165041E+04 -1.125112E+05 -2.498559E+04 -1.511753E+05 -4.148614E-10 -3.288520E-09
        93  13  1.731222E+02  7.639124E+04  1.398534E+03 -1.524432E+05 -1.142488E-09 -2.950518E-10
        93  14  7.206545E+02  7.616964E+04  2.964911E+03 -1.425705E+05 -2.184883E-09 -1.384135E-10
        93  15  2.277928E+03  7.638535E+04  5.747772E+03 -1.524424E+05 -3.455388E-09 -6.618579E-10
        93  16 -1.043073E+04  3.258643E+04 -7.818250E+03 -1.523904E+05 -1.177961E-10 -2.326648E-09
        93  17  1.730921E+04  1.486535E+05  1.343019E+04 -1.431778E+05  2.647440E-09  8.978172E-10
        93  18  4.620445E+04  2.653172E+05  3.648013E+04 -1.537098E+05  8.889005E-10  3.638552E-09
        93  19  1.077692E+04  1.201981E+05  1.061572E+04 -1.524961E+05 -1.188746E+03  1.649951E+04
        93  20 -1.586803E+04  3.691425E+03 -7.499847E+03 -1.419632E+05  5.202587E+03  1.714185E+04
        93  21 -4.165019E+04 -1.125108E+05 -2.498476E+04 -1.511752E+05  1.122004E+04  1.778373E+04
        93  22  1.731245E+02  7.639124E+04  1.398542E+03 -1.524432E+05 -1.181266E+03  1.657205E+03
        93  23  7.206863E+02  7.616966E+04  2.964981E+03 -1.425705E+05  5.209319E+03  3.144547E+03
        93  24  2.278069E+03  7.638541E+04  5.748049E+03 -1.524423E+05  1.122606E+04  4.631554E+03
        93  25 -1.043068E+04  3.258661E+04 -7.817920E+03 -1.523903E+05 -1.173788E+03 -1.318407E+04
        93  26  1.730927E+04  1.486536E+05  1.343046E+04 -1.431778E+05  5.216078E+03 -1.085432E+04
        93  27  4.620461E+04  2.653173E+05  3.648051E+04 -1.537099E+05  1.123213E+04 -8.524489E+03
        94   1 -5.808964E+04 -1.848021E+05 -3.569760E+04 -1.516710E+05 -1.499646E+04 -1.838004E+04
        94   2 -8.040291E+04 -3.010682E+05 -5.713981E+04 -1.333037E+05 -1.533024E+04 -1.712050E+03
        94   3 -9.514831E+04 -4.175939E+05 -8.754390E+04 -1.339664E+05 -5.010470E+03  1.495309E+04
        94   4  2.995346E+03  7.714792E+04  7.755188E+03 -1.522833E+05 -1.500180E+04 -5.634226E+03
        94   5  9.178523E+03  7.518520E+04  1.442018E+04 -1.427652E+05 -1.532485E+04 -1.299275E+04
        94   6  2.709823E+04  7.711803E+04  2.880868E+04 -1.522749E+05 -4.997793E+03 -2.035071E+04
        94   7  6.407686E+04  3.391661E+05  5.120653E+04 -1.528957E+05 -1.500717E+04  7.116788E+03
        94   8  9.875205E+04  4.515756E+05  8.597435E+04 -1.522326E+05 -1.531911E+04 -2.428012E+04
        94   9  1.493292E+05  5.720587E+05  1.451493E+05 -1.705980E+05 -4.983042E+03 -5.568249E+04
        94  10 -5.808997E+04 -1.848025E+05 -3.569866E+04 -1.516712E+05 -2.094585E-09 -2.285800E-10
        94  11 -8.040317E+04 -3.010683E+05 -5.714025E+04 -1.333037E+05  3.494180E-09  5.755757E-11
        94  12 -9.514839E+04 -4.175942E+05 -8.754437E+04 -1.339663E+05  4.057990E-11  6.787321E-10
        94  13  2.995095E+03  7.714782E+04  7.754706E+03 -1.522833E+05 -5.123675E-10 -2.462267E-10
        94  14  9.178225E+03  7.518496E+04  1.441942E+04 -1.427654E+05  1.680001E-10 -9.663108E-11
        94  15  2.709810E+04  7.711758E+04  2.880785E+04 -1.522750E+05  6.122304E-10 -3.433590E-10
        94  16  6.407661E+04  3.391660E+05  5.120601E+04 -1.528957E+05  2.516828E-09  4.855140E-11
        94  17  9.875164E+04  4.515749E+05  8.597280E+04 -1.522329E+05  2.345996E-09  7.674525E-11
        94  18  1.493284E+05  5.720554E+05  1.451434E+05 -1.705982E+05 -1.790999E-09 -4.804899E-10
        94  19 -5.808964E+04 -1.848021E+05 -3.569760E+04 -1.516710E+05  1.499646E+04  1.838004E+04
        94  20 -8.040291E+04 -3.010682E+05 -5.713981E+04 -1.333037E+05  1.533024E+04  1.712050E+03
        94  21 -9.514831E+04 -4.175939E+05 -8.754390E+04 -1.339664E+05  5.010470E+03 -1.495309E+04
        94  22  2.995346E+03  7.714792E+04  7.755188E+03 -1.522833E+05  1.500180E+04  5.634226E+03
        94  23  9.178523E+03  7.518520E+04  1.442018E+04 -1.427652E+05  1.532485E+04  1.299275E+04
        94  24  2.709823E+04  7.711803E+04  2.880868E+04 -1.522749E+05  4.997793E+03  2.035071E+04
        94  25  6.407686E+04  3.391661E+05  5.120653E+04 -1.528957E+05  1.500717E+04 -7.116788E+03
        94  26  9.875205E+04  4.515756E+05  8.597435E+04 -1.522326E+05  1.531911E+04  2.428012E+04
        94  27  1.493292E+05  5.720587E+05  1.451493E+05 -1.705980E+05  4.983042E+03  5.568249E+04
        95   1 -1.781382E+05 -1.017334E+05 -6.587758E+04 -7.392398E+04 -3.146670E+04 -1.000960E+04
        95   2 -1.667086E+05 -6.171543E+04 -3.820931E+04 -6.900255E+04 -1.975523E+04 -1.672937E+03
        95   3 -1.630361E+05 -4.722254E+04 -2.647329E+04 -6.142296E+04 -6.909442E+03  3.642079E+03
        95   4 -8.280654E+04 -4.888317E+04 -3.772413E+04 -3.029265E+04 -2.488397E+04 -7.541028E+03
        95   5 -7.725108E+04 -2.178548E+04 -1.708260E+04 -3.714792E+04 -1.717711E+04 -7.060998E+02
        95   6 -7.865810E+04 -1.941814E+04 -9.199237E+03 -4.134582E+04 -8.336192E+03  3.106839E+03
        95   7  1.253357E+04  3.970710E+03 -9.571699E+03  1.334523E+04 -1.830023E+04 -5.071616E+03
        95   8  1.221435E+04  1.814605E+04  4.043479E+03 -5.288839E+03 -1.459860E+04  2.609569E+02
        95   9  5.727582E+03  8.386662E+03  8.074578E+03 -2.126621E+04 -9.763158E+03  2.571536E+03
        95  10 -1.781393E+05 -1.017338E+05 -6.587963E+04 -7.392423E+04 -1.485362E-09  2.628094E-10
        95  11 -1.667091E+05 -6.171554E+04 -3.821005E+04 -6.900258E+04  2.801048E-10  1.544338E-09
        95  12 -1.630362E+05 -4.722257E+04 -2.647341E+04 -6.142294E+04 -1.649709E-09  5.920093E-10
        95  13 -8.280722E+04 -4.888340E+04 -3.772540E+04 -3.029280E+04  9.959688E-10  3.898544E-10
        95  14 -7.725140E+04 -2.178556E+04 -1.708316E+04 -3.714793E+04  7.136269E-10  9.600464E-10
        95  15 -7.865818E+04 -1.941817E+04 -9.199385E+03 -4.134580E+04  1.512569E-09  1.721367E-10
        95  16  1.253320E+04  3.970592E+03 -9.572377E+03  1.334515E+04  2.862586E-09  4.838766E-10
        95  17  1.221412E+04  1.814600E+04  4.043078E+03 -5.288836E+03  7.915104E-10  6.235871E-10
        95  18  5.727478E+03  8.386629E+03  8.074387E+03 -2.126619E+04 -5.667585E-09  1.820867E-10
        95  19 -1.781382E+05 -1.017334E+05 -6.587758E+04 -7.392398E+04  3.146670E+04  1.000960E+04
        95  20 -1.667086E+05 -6.171543E+04 -3.820931E+04 -6.900255E+04  1.975523E+04  1.672937E+03
        95  21 -1.630361E+05 -4.722254E+04 -2.647329E+04 -6.142296E+04  6.909442E+03 -3.642079E+03
        95  22 -8.280654E+04 -4.888317E+04 -3.772413E+04 -3.029265E+04  2.488397E+04  7.541028E+03
        95  23 -7.725108E+04 -2.178548E+04 -1.708260E+04 -3.714792E+04  1.717711E+04  7.060998E+02
        95  24 -7.865810E+04 -1.941814E+04 -9.199237E+03 -4.134582E+04  8.336192E+03 -3.106839E+03
        95  25  1.253357E+04  3.970710E+03 -9.571699E+03  1.334523E+04  1.830023E+04  5.071616E+03
        95  26  1.221435E+04  1.814605E+04  4.043479E+03 -5.288839E+03  1.459860E+04 -2.609569E+02
        95  27  5.727582E+03  8.386662E+03  8.074578E+03 -2.126621E+04  9.763158E+03 -2.571536E+03
        96   1 -1.503535E+05 -4.784215E+04 -2.245924E+04 -6.084593E+04 -6.264336E+03  3.196940E+03
        96   2 -1.387458E+05 -4.052063E+04 -1.626426E+04 -5.585202E+04 -3.886509E+03  3.319215E+03
        96   3 -1.251322E+05 -3.688297E+04 -1.191990E+04 -5.373341E+04 -1.438882E+03  3.255368E+03
        96   4 -7.750263E+04 -2.076062E+04 -7.066233E+03 -4.031283E+04 -7.035755E+03  2.907516E+03
        96   5 -7.844922E+04 -1.837025E+04 -3.731162E+03 -3.908991E+04 -4.904443E+03  2.937361E+03
        96   6 -7.734104E+04 -1.961485E+04 -2.051236E+03 -4.074240E+04 -2.703364E+03  2.781076E+03
        96   7 -4.646893E+03  6.321168E+03  8.326327E+03 -1.977764E+04 -7.807265E+03  2.618057E+03
        96   8 -1.814889E+04  3.780440E+03  8.801745E+03 -2.232631E+04 -5.922483E+03  2.555466E+03
        96   9 -2.954717E+04 -2.346427E+03  7.817414E+03 -2.775038E+04 -3.967960E+03  2.306742E+03
        96  10 -1.503536E+05 -4.784217E+04 -2.245933E+04 -6.084592E+04 -4.327821E-09 -8.513674E-10
        96  11 -1.387458E+05 -4.052065E+04 -1.626431E+04 -5.585201E+04  6.624093E-10  8.777628E-10
        96  12 -1.251322E+05 -3.688298E+04 -1.191992E+04 -5.373341E+04  1.550417E-09 -1.783481E-11
        96  13 -7.750269E+04 -2.076065E+04 -7.066342E+03 -4.031281E+04  3.049192E-09  5.655910E-10
        96  14 -7.844925E+04 -1.837027E+04 -3.731224E+03 -3.908990E+04  5.509492E-09  1.285508E-09
        96  15 -7.734105E+04 -1.961486E+04 -2.051264E+03 -4.074240E+04  3.224277E-09 -3.930765E-10
        96  16 -4.646960E+03  6.321145E+03  8.326200E+03 -1.977762E+04  2.281628E-10  2.098930E-09
        96  17 -1.814893E+04  3.780424E+03  8.801667E+03 -2.232630E+04  9.504976E-10  1.655675E-09
        96  18 -2.954719E+04 -2.346437E+03  7.817374E+03 -2.775038E+04  8.913384E-10 -8.415170E-10
        96  19 -1.503535E+05 -4.784215E+04 -2.245924E+04 -6.084593E+04  6.264336E+03 -3.196940E+03
        96  20 -1.387458E+05 -4.052063E+04 -1.626426E+04 -5.585202E+04  3.886509E+03 -3.319215E+03
        96  21 -1.251322E+05 -3.688297E+04 -1.191990E+04 -5.373341E+04  1.438882E+03 -3.255368E+03
        96  22 -7.750263E+04 -2.076062E+04 -7.066233E+03 -4.031283E+04  7.035755E+03 -2.907516E+03
        96  23 -7.844922E+04 -1.837025E+04 -3.731162E+03 -3.908991E+04  4.904443E+03 -2.937361E+03
        96  24 -7.734104E+04 -1.961485E+04 -2.051236E+03 -4.074240E+04  2.703364E+03 -2.781076E+03
        96  25 -4.646893E+03  6.321168E+03  8.326327E+03 -1.977764E+04  7.807265E+03 -2.618057E+03
        96  26 -1.814889E+04  3.780440E+03  8.801745E+03 -2.232631E+04  5.922483E+03 -2.555466E+03
        96  27 -2.954717E+04 -2.346427E+03  7.817414E+03 -2.775038E+04  3.967960E+03 -2.306742E+03
        97   1 -1.160746E+05 -3.380215E+04 -9.515099E+03 -5.136604E+04 -9.827219E+02  2.794884E+03
        97   2 -1.046081E+05 -2.778684E+04 -6.215832E+03 -4.632418E+04 -1.951835E+02  2.030308E+03
        97   3 -9.055155E+04 -2.448660E+04 -3.254603E+03 -4.434242E+04  5.966344E+02  1.254222E+03
        97   4 -7.725756E+04 -1.966860E+04 -1.545172E+03 -4.068623E+04 -2.206963E+03  2.335702E+03
        97   5 -7.855226E+04 -1.830076E+04 -8.497613E+02 -3.916056E+04 -1.434652E+03  1.565433E+03
        97   6 -7.725399E+04 -1.964492E+04 -4.802905E+02 -4.069500E+04 -6.580736E+02  7.836519E+02
        97   7 -3.843902E+04 -5.534934E+03  6.424680E+03 -3.000581E+04 -3.431285E+03  1.876489E+03
        97   8 -5.249584E+04 -8.814661E+03  4.516251E+03 -3.199668E+04 -2.674171E+03  1.100539E+03
        97   9 -6.395636E+04 -1.480327E+04  2.293991E+03 -3.704754E+04 -1.912801E+03  3.130751E+02
        97  10 -1.160746E+05 -3.380216E+04 -9.515116E+03 -5.136604E+04 -2.335866E-09 -1.892974E-09
        97  11 -1.046081E+05 -2.778685E+04 -6.215839E+03 -4.632418E+04 -1.224772E-09 -7.217899E-10
        97  12 -9.055155E+04 -2.448660E+04 -3.254607E+03 -4.434242E+04 -2.052031E-09 -2.342751E-11
        97  13 -7.725757E+04 -1.966861E+04 -1.545192E+03 -4.068623E+04 -2.795966E-09 -1.190836E-09
        97  14 -7.855227E+04 -1.830076E+04 -8.497697E+02 -3.916056E+04  7.452924E-10 -5.446763E-10
        97  15 -7.725399E+04 -1.964493E+04 -4.802924E+02 -4.069500E+04 -1.900531E-09  3.062104E-10
        97  16 -3.843903E+04 -5.534941E+03  6.424652E+03 -3.000580E+04  4.199520E-09 -5.427163E-10
        97  17 -5.249584E+04 -8.814664E+03  4.516235E+03 -3.199668E+04  2.711584E-09 -4.935050E-10
        97  18 -6.395637E+04 -1.480327E+04  2.293984E+03 -3.704754E+04  3.270185E-10  5.844351E-10
        97  19 -1.160746E+05 -3.380215E+04 -9.515099E+03 -5.136604E+04  9.827219E+02 -2.794884E+03
        97  20 -1.046081E+05 -2.778684E+04 -6.215832E+03 -4.632418E+04  1.951835E+02 -2.030308E+03
        97  21 -9.055155E+04 -2.448660E+04 -3.254603E+03 -4.434242E+04 -5.966344E+02 -1.254222E+03
        97  22 -7.725756E+04 -1.966860E+04 -1.545172E+03 -4.068623E+04  2.206963E+03 -2.335702E+03
        97  23 -7.855226E+04 -1.830076E+04 -8.497613E+02 -3.916056E+04  1.434652E+03 -1.565433E+03
        97  24 -7.725399E+04 -1.964492E+04 -4.802905E+02 -4.069500E+04  6.580736E+02 -7.836519E+02
        97  25 -3.843902E+04 -5.534934E+03  6.424680E+03 -3.000581E+04  3.431285E+03 -1.876489E+03
        97  26 -5.249584E+04 -8.814661E+03  4.516251E+03 -3.199668E+04  2.674171E+03 -1.100539E+03
        97  27 -6.395636E+04 -1.480327E+04  2.293991E+03 -3.704754E+04  1.912801E+03 -3.130751E+02
        98   1 -8.168168E+04 -2.124415E+04 -1.243962E+03 -4.190086E+04  8.713850E+02  7.290367E+02
        98   2 -7.025125E+04 -1.526188E+04  1.481786E+03 -3.684823E+04  1.342270E+03 -1.721938E+02
        98   3 -5.617260E+04 -1.194761E+04  4.120484E+03 -3.485207E+04  1.813392E+03 -1.074037E+03
        98   4 -7.724336E+04 -1.964641E+04 -3.699475E+02 -4.069000E+04 -3.808724E+02  2.593896E+02
        98   5 -7.856761E+04 -1.831426E+04 -2.323203E+02 -3.916101E+04  8.917706E+01 -6.421635E+02
        98   6 -7.724391E+04 -1.965008E+04 -1.811675E+02 -4.068863E+04  5.594586E+02 -1.544328E+03
        98   7 -7.280499E+04 -1.804865E+04  5.040826E+02 -3.947912E+04 -1.633149E+03 -2.102646E+02
        98   8 -8.688393E+04 -2.136664E+04 -1.946433E+03 -4.147376E+04 -1.163903E+03 -1.112128E+03
        98   9 -9.831476E+04 -2.735251E+04 -4.482836E+03 -4.652501E+04 -6.944291E+02 -2.014603E+03
        98  10 -8.168168E+04 -2.124415E+04 -1.243965E+03 -4.190086E+04  1.018769E-09  8.111146E-10
        98  11 -7.025125E+04 -1.526188E+04  1.481783E+03 -3.684823E+04 -2.530015E-09  3.781856E-11
        98  12 -5.617260E+04 -1.194761E+04  4.120475E+03 -3.485207E+04  1.226209E-09  1.327109E-10
        98  13 -7.724336E+04 -1.964641E+04 -3.699479E+02 -4.069000E+04 -2.197060E-09  2.366404E-10
        98  14 -7.856761E+04 -1.831426E+04 -2.323211E+02 -3.916101E+04 -5.470016E-10  6.362595E-11
        98  15 -7.724391E+04 -1.965008E+04 -1.811726E+02 -4.068863E+04  3.972276E-09  1.751502E-09
        98  16 -7.280499E+04 -1.804865E+04  5.040775E+02 -3.947912E+04 -2.300709E-09 -2.959750E-10
        98  17 -8.688393E+04 -2.136664E+04 -1.946438E+03 -4.147376E+04  5.170206E-10  2.377883E-10
        98  18 -9.831476E+04 -2.735251E+04 -4.482845E+03 -4.652502E+04  9.241067E-09  3.223209E-09
        98  19 -8.168168E+04 -2.124415E+04 -1.243962E+03 -4.190086E+04 -8.713850E+02 -7.290367E+02
        98  20 -7.025125E+04 -1.526188E+04  1.481786E+03 -3.684823E+04 -1.342270E+03  1.721938E+02
        98  21 -5.617260E+04 -1.194761E+04  4.120484E+03 -3.485207E+04 -1.813392E+03  1.074037E+03
        98  22 -7.724336E+04 -1.964641E+04 -3.699475E+02 -4.069000E+04  3.808724E+02 -2.593896E+02
        98  23 -7.856761E+04 -1.831426E+04 -2.323203E+02 -3.916101E+04 -8.917706E+01  6.421635E+02
        98  24 -7.724391E+04 -1.965008E+04 -1.811675E+02 -4.068863E+04 -5.594586E+02  1.544328E+03
        98  25 -7.280499E+04 -1.804865E+04  5.040826E+02 -3.947912E+04  1.633149E+03  2.102646E+02
        98  26 -8.688393E+04 -2.136664E+04 -1.946433E+03 -4.147376E+04  1.163903E+03  1.112128E+03
        98  27 -9.831476E+04 -2.735251E+04 -4.482836E+03 -4.652501E+04  6.944291E+02  2.014603E+03
        99   1 -4.732035E+04 -8.698580E+03  6.021382E+03 -3.240924E+04  2.050114E+03 -1.613239E+03
        99   2 -3.589156E+04 -2.713735E+03  8.561233E+03 -2.735777E+04  2.516628E+03 -2.516560E+03
        99   3 -2.181439E+04  6.036949E+02  1.101741E+04 -2.536227E+04  2.982771E+03 -3.418800E+03
        99   4 -7.724412E+04 -1.965013E+04 -1.803511E+02 -4.068854E+04  7.961547E+02 -2.083549E+03
        99   5 -7.856803E+04 -1.831518E+04 -2.276711E+02 -3.916099E+04  1.264071E+03 -2.986371E+03
        99   6 -7.724400E+04 -1.964791E+04 -3.597662E+02 -4.068945E+04  1.731616E+03 -3.888117E+03
        99   7 -1.071667E+05 -3.060152E+04 -6.382062E+03 -4.896740E+04 -4.577298E+02 -2.553831E+03
        99   8 -1.212426E+05 -3.391648E+04 -9.016664E+03 -5.096347E+04  1.160704E+01 -3.456148E+03
        99   9 -1.326709E+05 -3.989942E+04 -1.173721E+04 -5.601550E+04  4.805723E+02 -4.357392E+03
        99  10 -4.732035E+04 -8.698583E+03  6.021369E+03 -3.240924E+04  9.189141E-09  2.238659E-09
        99  11 -3.589156E+04 -2.713743E+03  8.561209E+03 -2.735776E+04 -3.249645E-09 -2.972168E-10
        99  12 -2.181441E+04  6.036799E+02  1.101737E+04 -2.536226E+04 -5.851324E-09 -6.444984E-10
        99  13 -7.724412E+04 -1.965013E+04 -1.803605E+02 -4.068854E+04  5.939815E-09  1.484116E-09
        99  14 -7.856803E+04 -1.831519E+04 -2.276909E+02 -3.916099E+04  1.284369E-09 -6.474184E-10
        99  15 -7.724401E+04 -1.964793E+04 -3.598003E+02 -4.068945E+04 -1.291762E-09 -1.133676E-10
        99  16 -1.071667E+05 -3.060152E+04 -6.382075E+03 -4.896740E+04  1.678864E-09  6.935473E-10
        99  17 -1.212426E+05 -3.391649E+04 -9.016686E+03 -5.096347E+04  1.104532E-09 -7.188285E-10
        99  18 -1.326709E+05 -3.989944E+04 -1.173725E+04 -5.601550E+04  2.158519E-09  5.122295E-10
        99  19 -4.732035E+04 -8.698580E+03  6.021382E+03 -3.240924E+04 -2.050114E+03  1.613239E+03
        99  20 -3.589156E+04 -2.713735E+03  8.561233E+03 -2.735777E+04 -2.516628E+03  2.516560E+03
        99  21 -2.181439E+04  6.036949E+02  1.101741E+04 -2.536227E+04 -2.982771E+03  3.418800E+03
        99  22 -7.724412E+04 -1.965013E+04 -1.803511E+02 -4.068854E+04 -7.961547E+02  2.083549E+03
        99  23 -7.856803E+04 -1.831518E+04 -2.276711E+02 -3.916099E+04 -1.264071E+03  2.986371E+03
        99  24 -7.724400E+04 -1.964791E+04 -3.597662E+02 -4.068945E+04 -1.731616E+03  3.888117E+03
        99  25 -1.071667E+05 -3.060152E+04 -6.382062E+03 -4.896740E+04  4.577298E+02  2.553831E+03
        99  26 -1.212426E+05 -3.391648E+04 -9.016664E+03 -5.096347E+04 -1.160704E+01  3.456148E+03
        99  27 -1.326709E+05 -3.989942E+04 -1.173721E+04 -5.601550E+04 -4.805723E+02  4.357392E+03
       100   1 -1.296896E+04  3.848577E+03  1.281044E+04 -2.293015E+04  3.261450E+03 -3.942383E+03
       100   2 -1.516087E+03  9.835528E+03  1.504594E+04 -1.788020E+04  4.001753E+03 -4.734542E+03
       100   3  1.253511E+04  1.311704E+04  1.698303E+04 -1.588842E+04  4.735817E+03 -5.509881E+03
       100   4 -7.725483E+04 -1.964658E+04 -4.662774E+02 -4.069411E+04  2.006822E+03 -4.413028E+03
       100   5 -7.855389E+04 -1.830373E+04 -8.234992E+02 -3.916064E+04  2.769355E+03 -5.196900E+03
       100   6 -7.725912E+04 -1.967076E+04 -1.496747E+03 -4.068544E+04  3.525638E+03 -5.963953E+03
       100   7 -1.415364E+05 -4.314139E+04 -1.374320E+04 -5.845637E+04  7.523345E+02 -4.883621E+03
       100   8 -1.555853E+05 -4.644237E+04 -1.669315E+04 -6.043856E+04  1.537126E+03 -5.659195E+03
       100   9 -1.670444E+05 -5.245762E+04 -1.997674E+04 -6.547895E+04  2.315656E+03 -6.417951E+03
       100  10 -1.296898E+04  3.848558E+03  1.281039E+04 -2.293014E+04  3.053978E-11  5.895267E-10
       100  11 -1.516110E+03  9.835500E+03  1.504587E+04 -1.788019E+04 -2.458881E-09  1.163328E-10
       100  12  1.253508E+04  1.311700E+04  1.698293E+04 -1.588840E+04 -2.495739E-09  7.579482E-10
       100  13 -7.725484E+04 -1.964661E+04 -4.663215E+02 -4.069410E+04 -9.556582E-11  2.869962E-10
       100  14 -7.855391E+04 -1.830376E+04 -8.235644E+02 -3.916063E+04  5.616995E-10  2.587621E-10
       100  15 -7.725915E+04 -1.967080E+04 -1.496838E+03 -4.068542E+04 -3.686536E-09  7.011642E-10
       100  16 -1.415364E+05 -4.314142E+04 -1.374324E+04 -5.845637E+04 -2.473335E-10 -2.799336E-11
       100  17 -1.555853E+05 -4.644240E+04 -1.669322E+04 -6.043855E+04 -2.088448E-09 -6.807353E-11
       100  18 -1.670444E+05 -5.245766E+04 -1.997683E+04 -6.547894E+04  2.294814E-10  7.159285E-10
       100  19 -1.296896E+04  3.848577E+03  1.281044E+04 -2.293015E+04 -3.261450E+03  3.942383E+03
       100  20 -1.516087E+03  9.835528E+03  1.504594E+04 -1.788020E+04 -4.001753E+03  4.734542E+03
       100  21  1.253511E+04  1.311704E+04  1.698303E+04 -1.588842E+04 -4.735817E+03  5.509881E+03
       100  22 -7.725483E+04 -1.964658E+04 -4.662774E+02 -4.069411E+04 -2.006822E+03  4.413028E+03
       100  23 -7.855389E+04 -1.830373E+04 -8.234992E+02 -3.916064E+04 -2.769355E+03  5.196900E+03
       100  24 -7.725912E+04 -1.967076E+04 -1.496747E+03 -4.068544E+04 -3.525638E+03  5.963953E+03
       100  25 -1.415364E+05 -4.314139E+04 -1.374320E+04 -5.845637E+04 -7.523345E+02  4.883621E+03
       100  26 -1.555853E+05 -4.644237E+04 -1.669315E+04 -6.043856E+04 -1.537126E+03  5.659195E+03
       100  27 -1.670444E+05 -5.245762E+04 -1.997674E+04 -6.547895E+04 -2.315656E+03  6.417951E+03
       101   1  2.142234E+04  1.630856E+04  1.839026E+04 -1.362444E+04  5.282204E+03 -5.937737E+03
       101   2  3.280383E+04  2.242885E+04  1.946128E+04 -8.221859E+03  7.050399E+03 -6.211310E+03
       101   3  4.632517E+04  2.502316E+04  1.921429E+04 -5.691634E+03  8.717106E+03 -6.213962E+03
       101   4 -7.734063E+04 -1.961764E+04 -1.986525E+03 -4.073809E+04  4.013506E+03 -6.413799E+03
       101   5 -7.845356E+04 -1.837421E+04 -3.613250E+03 -3.909373E+04  6.140531E+03 -6.552824E+03
       101   6 -7.749818E+04 -2.072817E+04 -6.842535E+03 -4.032199E+04  8.166025E+03 -6.420914E+03
       101   7 -1.760944E+05 -5.554335E+04 -2.236404E+04 -6.784798E+04  2.745016E+03 -6.889784E+03
       101   8 -1.896987E+05 -5.917640E+04 -2.668856E+04 -6.996063E+04  5.230835E+03 -6.894274E+03
       101   9 -2.013059E+05 -6.647819E+04 -3.290021E+04 -7.494598E+04  7.615062E+03 -6.627821E+03
       101  10  2.142230E+04  1.630852E+04  1.839014E+04 -1.362442E+04  6.997821E-10  1.440642E-09
       101  11  3.280377E+04  2.242880E+04  1.946112E+04 -8.221824E+03 -2.487243E-09 -1.013271E-09
       101  12  4.632507E+04  2.502310E+04  1.921407E+04 -5.691591E+03 -1.469066E-09 -9.132255E-10
       101  13 -7.734066E+04 -1.961769E+04 -1.986633E+03 -4.073807E+04 -1.233344E-09  2.633520E-10
       101  14 -7.845361E+04 -1.837426E+04 -3.613402E+03 -3.909370E+04 -2.742856E-10 -7.335978E-10
       101  15 -7.749826E+04 -2.072823E+04 -6.842738E+03 -4.032195E+04 -3.111876E-10 -3.972150E-10
       101  16 -1.760944E+05 -5.554341E+04 -2.236414E+04 -6.784796E+04 -2.154170E-09 -1.732424E-10
       101  17 -1.896988E+05 -5.917646E+04 -2.668870E+04 -6.996060E+04  5.348627E-10  9.853378E-11
       101  18 -2.013060E+05 -6.647825E+04 -3.290040E+04 -7.494594E+04  1.257063E-09 -3.275038E-10
       101  19  2.142234E+04  1.630856E+04  1.839026E+04 -1.362444E+04 -5.282204E+03  5.937737E+03
       101  20  3.280383E+04  2.242885E+04  1.946128E+04 -8.221859E+03 -7.050399E+03  6.211310E+03
       101  21  4.632517E+04  2.502316E+04  1.921429E+04 -5.691634E+03 -8.717106E+03  6.213962E+03
       101  22 -7.734063E+04 -1.961764E+04 -1.986525E+03 -4.073809E+04 -4.013506E+03  6.413799E+03
       101  23 -7.845356E+04 -1.837421E+04 -3.613250E+03 -3.909373E+04 -6.140531E+03  6.552824E+03
       101  24 -7.749818E+04 -2.072817E+04 -6.842535E+03 -4.032199E+04 -8.166025E+03  6.420914E+03
       101  25 -1.760944E+05 -5.554335E+04 -2.236404E+04 -6.784798E+04 -2.745016E+03  6.889784E+03
       101  26 -1.896987E+05 -5.917640E+04 -2.668856E+04 -6.996063E+04 -5.230835E+03  6.894274E+03
       101  27 -2.013059E+05 -6.647819E+04 -3.290021E+04 -7.494598E+04 -7.615062E+03  6.627821E+03
       102   1  5.668638E+04  2.715502E+04  1.901995E+04 -7.022174E+03  1.094617E+04 -6.091247E+03
       102   2  6.320154E+04  3.681512E+04  1.581281E+04  8.479144E+03  1.343695E+04 -3.942166E+03
       102   3  6.414651E+04  2.367326E+04  4.870954E+03  2.653845E+04  1.427756E+04  2.603965E+03
       102   4 -7.863076E+04 -1.941477E+04 -8.907892E+03 -4.130633E+04  9.441249E+03 -6.656100E+03
       102   5 -7.727783E+04 -2.169908E+04 -1.654172E+04 -3.723323E+04  1.776068E+04 -2.319898E+03
       102   6 -8.265158E+04 -4.794324E+04 -3.652925E+04 -3.060215E+04  2.442964E+04  6.413643E+03
       102   7 -2.139290E+05 -6.598353E+04 -3.683664E+04 -7.558380E+04  7.936687E+03 -7.220838E+03
       102   8 -2.177354E+05 -8.020946E+04 -4.889701E+04 -8.293504E+04  2.208331E+04 -6.981635E+02
       102   9 -2.294246E+05 -1.195520E+05 -7.793005E+04 -8.772777E+04  3.457888E+04  1.022158E+04
       102  10  5.668624E+04  2.715495E+04  1.901966E+04 -7.022121E+03  4.277446E-11  1.282168E-10
       102  11  6.320134E+04  3.681505E+04  1.581244E+04  8.479187E+03  1.462630E-09  3.743427E-10
       102  12  6.414629E+04  2.367320E+04  4.870558E+03  2.653842E+04 -1.212896E-09  1.194971E-11
       102  13 -7.863087E+04 -1.941484E+04 -8.908143E+03 -4.130628E+04  1.227987E-09 -6.420993E-10
       102  14 -7.727817E+04 -2.169917E+04 -1.654232E+04 -3.723320E+04 -1.508511E-09 -5.113307E-10
       102  15 -8.265223E+04 -4.794345E+04 -3.653045E+04 -3.060227E+04  5.116690E-10  5.436214E-10
       102  16 -2.139291E+05 -6.598360E+04 -3.683685E+04 -7.558375E+04 -8.556263E-10 -1.074411E-09
       102  17 -2.177360E+05 -8.020959E+04 -4.889793E+04 -8.293503E+04 -2.594271E-09 -3.688226E-10
       102  18 -2.294259E+05 -1.195524E+05 -7.793250E+04 -8.772806E+04  4.859365E-10 -2.933609E-10
       102  19  5.668638E+04  2.715502E+04  1.901995E+04 -7.022174E+03 -1.094617E+04  6.091247E+03
       102  20  6.320154E+04  3.681512E+04  1.581281E+04  8.479144E+03 -1.343695E+04  3.942166E+03
       102  21  6.414651E+04  2.367326E+04  4.870954E+03  2.653845E+04 -1.427756E+04 -2.603965E+03
       102  22 -7.863076E+04 -1.941477E+04 -8.907892E+03 -4.130633E+04 -9.441249E+03  6.656100E+03
       102  23 -7.727783E+04 -2.169908E+04 -1.654172E+04 -3.723323E+04 -1.776068E+04  2.319898E+03
       102  24 -8.265158E+04 -4.794324E+04 -3.652925E+04 -3.060215E+04 -2.442964E+04 -6.413643E+03
       102  25 -2.139290E+05 -6.598353E+04 -3.683664E+04 -7.558380E+04 -7.936687E+03  7.220838E+03
       102  26 -2.177354E+05 -8.020946E+04 -4.889701E+04 -8.293504E+04 -2.208331E+04  6.981635E+02
       102  27 -2.294246E+05 -1.195520E+05 -7.793005E+04 -8.772777E+04 -3.457888E+04 -1.022158E+04
       103   1  4.633787E+05  7.522464E+04  6.696172E+04  6.888102E+03  1.818393E+04 -5.746750E+03
       103   2  4.436710E+05  8.440675E+04  5.697911E+04  1.414128E+04  7.054285E+03 -1.978031E+04
       103   3  4.230762E+05  8.420974E+04  5.189989E+04  2.443042E+04 -4.077727E+03 -2.491583E+04
       103   4  5.073753E+04 -2.634076E+04 -2.843252E+04  2.413955E+04 -1.996871E+04 -5.763045E+03
       103   5  5.277874E+04 -7.960445E+03 -1.412921E+04  2.261517E+04 -1.272291E+04 -1.979099E+04
       103   6  5.074177E+04 -2.152216E+03 -7.680206E+03  2.412674E+04 -5.480040E+03 -2.491801E+04
       103   7 -3.617426E+05 -1.279162E+05 -1.238325E+05  4.137943E+04 -5.809620E+04 -5.781465E+03
       103   8 -3.379640E+05 -1.003358E+05 -8.524213E+04  3.108356E+04 -3.248799E+04 -1.980221E+04
       103   9 -3.214550E+05 -8.852113E+04 -6.726394E+04  2.382323E+04 -6.881543E+03 -2.492018E+04
       103  10  4.633784E+05  7.522451E+04  6.696104E+04  6.888186E+03  5.056371E-10 -4.107986E-11
       103  11  4.436708E+05  8.440632E+04  5.697828E+04  1.414139E+04  1.412093E-09 -7.340426E-10
       103  12  4.230760E+05  8.420907E+04  5.189869E+04  2.443033E+04  2.180207E-09 -9.008546E-10
       103  13  5.073710E+04 -2.634091E+04 -2.843334E+04  2.413946E+04  1.288071E-10  9.947027E-11
       103  14  5.277846E+04 -7.960909E+03 -1.413025E+04  2.261497E+04 -1.198386E-09 -1.043409E-09
       103  15  5.074157E+04 -2.152891E+03 -7.681430E+03  2.412663E+04  1.153900E-09  6.930004E-11
       103  16 -3.617462E+05 -1.279172E+05 -1.238389E+05  4.137916E+04 -2.164952E-09 -3.565573E-10
       103  17 -3.379652E+05 -1.003365E+05 -8.524485E+04  3.108304E+04 -1.541182E-09 -2.468554E-09
       103  18 -3.214552E+05 -8.852181E+04 -6.726520E+04  2.382309E+04 -9.436766E-10 -1.481442E-09
       103  19  4.633787E+05  7.522464E+04  6.696172E+04  6.888102E+03 -1.818393E+04  5.746750E+03
       103  20  4.436710E+05  8.440675E+04  5.697911E+04  1.414128E+04 -7.054285E+03  1.978031E+04
       103  21  4.230762E+05  8.420974E+04  5.189989E+04  2.443042E+04  4.077727E+03  2.491583E+04
       103  22  5.073753E+04 -2.634076E+04 -2.843252E+04  2.413955E+04  1.996871E+04  5.763045E+03
       103  23  5.277874E+04 -7.960445E+03 -1.412921E+04  2.261517E+04  1.272291E+04  1.979099E+04
       103  24  5.074177E+04 -2.152216E+03 -7.680206E+03  2.412674E+04  5.480040E+03  2.491801E+04
       103  25 -3.617426E+05 -1.279162E+05 -1.238325E+05  4.137943E+04  5.809620E+04  5.781465E+03
       103  26 -3.379640E+05 -1.003358E+05 -8.524213E+04  3.108356E+04  3.248799E+04  1.980221E+04
       103  27 -3.214550E+05 -8.852113E+04 -6.726394E+04  2.382323E+04  6.881543E+03  2.492018E+04
       104   1  4.107175E+05  8.129294E+04  5.041587E+04  2.351972E+04 -2.992177E+03 -2.499053E+04
       104   2  3.906776E+05  7.749178E+04  4.769859E+04  2.221512E+04 -3.539702E+03 -2.520124E+04
       104   3  3.705678E+05  7.311351E+04  4.519466E+04  2.457802E+04 -4.087989E+03 -2.438472E+04
       104   4  5.155235E+04 -1.756535E+03 -5.772008E+03  2.426800E+04 -4.485377E+03 -2.499278E+04
       104   5  5.177370E+04 -4.389773E+02 -3.143950E+03  2.243362E+04 -2.912221E+03 -2.520219E+04
       104   6  5.155678E+04 -6.675845E+01 -1.775005E+03  2.426686E+04 -1.339809E+03 -2.438407E+04
       104   7 -3.074842E+05 -8.481235E+04 -6.196297E+04  2.501582E+04 -5.977745E+03 -2.499503E+04
       104   8 -2.870150E+05 -7.837518E+04 -5.398875E+04  2.265197E+04 -2.285069E+03 -2.520313E+04
       104   9 -2.673518E+05 -7.325176E+04 -4.874645E+04  2.395585E+04  1.407017E+03 -2.438342E+04
       104  10  4.107173E+05  8.129227E+04  5.041468E+04  2.351966E+04 -7.015851E-10 -1.106056E-09
       104  11  3.906774E+05  7.749110E+04  4.769737E+04  2.221505E+04  1.223676E-09  8.129888E-10
       104  12  3.705676E+05  7.311286E+04  4.519351E+04  2.457794E+04  1.854107E-09  7.150436E-10
       104  13  5.155216E+04 -1.757211E+03 -5.773220E+03  2.426791E+04  3.370693E-09 -1.846942E-10
       104  14  5.177352E+04 -4.396617E+02 -3.145160E+03  2.243356E+04 -1.773552E-09  1.197073E-09
       104  15  5.155662E+04 -6.739743E+01 -1.776126E+03  2.426684E+04  1.519283E-09 -1.061116E-10
       104  16 -3.074844E+05 -8.481303E+04 -6.196422E+04  2.501570E+04  1.614611E-09  1.101487E-09
       104  17 -2.870152E+05 -7.837586E+04 -5.398995E+04  2.265192E+04  2.946196E-09  2.424442E-09
       104  18 -2.673520E+05 -7.325240E+04 -4.874757E+04  2.395588E+04  5.454829E-10  1.397537E-09
       104  19  4.107175E+05  8.129294E+04  5.041587E+04  2.351972E+04  2.992177E+03  2.499053E+04
       104  20  3.906776E+05  7.749178E+04  4.769859E+04  2.221512E+04  3.539702E+03  2.520124E+04
       104  21  3.705678E+05  7.311351E+04  4.519466E+04  2.457802E+04  4.087989E+03  2.438472E+04
       104  22  5.155235E+04 -1.756535E+03 -5.772008E+03  2.426800E+04  4.485377E+03  2.499278E+04
       104  23  5.177370E+04 -4.389773E+02 -3.143950E+03  2.243362E+04  2.912221E+03  2.520219E+04
       104  24  5.155678E+04 -6.675845E+01 -1.775005E+03  2.426686E+04  1.339809E+03  2.438407E+04
       104  25 -3.074842E+05 -8.481235E+04 -6.196297E+04  2.501582E+04  5.977745E+03  2.499503E+04
       104  26 -2.870150E+05 -7.837518E+04 -5.398875E+04  2.265197E+04  2.285069E+03  2.520313E+04
       104  27 -2.673518E+05 -7.325176E+04 -4.874645E+04  2.395585E+04 -1.407017E+03  2.438342E+04
       105   1  3.579732E+05  7.017935E+04  4.354940E+04  2.448735E+04 -3.810515E+03 -2.357318E+04
       105   2  3.379229E+05  6.560830E+04  4.097635E+04  2.261894E+04 -3.680250E+03 -2.218842E+04
       105   3  3.178506E+05  6.101837E+04  3.831371E+04  2.448849E+04 -3.550329E+03 -2.068518E+04
       105   4  5.164124E+04 -5.044285E+01 -1.342201E+03  2.428261E+04 -1.073147E+03 -2.357238E+04
       105   5  5.167564E+04  2.538112E+01 -7.569925E+02  2.241355E+04 -6.984297E+02 -2.218718E+04
       105   6  5.164511E+04  3.988691E+01 -4.312031E+02  2.428254E+04 -3.240521E+02 -2.068348E+04
       105   7 -2.545962E+05 -7.028458E+04 -4.623540E+04  2.407797E+04  1.662926E+03 -2.357158E+04
       105   8 -2.344890E+05 -6.556131E+04 -4.249168E+04  2.220825E+04  2.282074E+03 -2.218595E+04
       105   9 -2.144889E+05 -6.094186E+04 -3.917725E+04  2.407667E+04  2.900900E+03 -2.068179E+04
       105  10  3.579730E+05  7.017875E+04  4.354833E+04  2.448727E+04  6.588038E-10  7.724220E-10
       105  11  3.379228E+05  6.560776E+04  4.097540E+04  2.261888E+04  4.055178E-10  7.668074E-10
       105  12  3.178504E+05  6.101791E+04  3.831288E+04  2.448843E+04 -9.311737E-10  3.998896E-10
       105  13  5.164109E+04 -5.103985E+01 -1.343248E+03  2.428259E+04  1.423154E-10 -5.969640E-10
       105  14  5.167551E+04  2.485237E+01 -7.579185E+02  2.241354E+04  3.434844E-10  1.173900E-09
       105  15  5.164500E+04  3.942748E+01 -4.320073E+02  2.428254E+04  3.654869E-10  2.236861E-09
       105  16 -2.545963E+05 -7.028518E+04 -4.623645E+04  2.407800E+04  4.785532E-10  1.116817E-09
       105  17 -2.344892E+05 -6.556184E+04 -4.249262E+04  2.220829E+04  1.064040E-09  1.778315E-09
       105  18 -2.144890E+05 -6.094232E+04 -3.917807E+04  2.407672E+04  8.542364E-10  1.413962E-09
       105  19  3.579732E+05  7.017935E+04  4.354940E+04  2.448735E+04  3.810515E+03  2.357318E+04
       105  20  3.379229E+05  6.560830E+04  4.097635E+04  2.261894E+04  3.680250E+03  2.218842E+04
       105  21  3.178506E+05  6.101837E+04  3.831371E+04  2.448849E+04  3.550329E+03  2.068518E+04
       105  22  5.164124E+04 -5.044285E+01 -1.342201E+03  2.428261E+04  1.073147E+03  2.357238E+04
       105  23  5.167564E+04  2.538112E+01 -7.569925E+02  2.241355E+04  6.984297E+02  2.218718E+04
       105  24  5.164511E+04  3.988691E+01 -4.312031E+02  2.428254E+04  3.240521E+02  2.068348E+04
       105  25 -2.545962E+05 -7.028458E+04 -4.623540E+04  2.407797E+04 -1.662926E+03  2.357158E+04
       105  26 -2.344890E+05 -6.556131E+04 -4.249168E+04  2.220825E+04 -2.282074E+03  2.218595E+04
       105  27 -2.144889E+05 -6.094186E+04 -3.917725E+04  2.407667E+04 -2.900900E+03  2.068179E+04
       106   1  3.052440E+05  5.810915E+04  3.649358E+04  2.447230E+04 -3.481562E+03 -1.977159E+04
       106   2  2.851932E+05  5.351647E+04  3.373166E+04  2.258445E+04 -3.420487E+03 -1.820302E+04
       106   3  2.651335E+05  4.893189E+04  3.093101E+04  2.444117E+04 -3.359646E+03 -1.662087E+04
       106   4  5.165754E+04  3.872635E+01 -3.254131E+02  2.428402E+04 -2.567402E+02 -1.976974E+04
       106   5  5.166642E+04  3.761685E+01 -1.820349E+02  2.241170E+04 -1.677394E+02 -1.820092E+04
       106   6  5.166072E+04  3.968200E+01 -9.691867E+01  2.428402E+04 -7.897127E+01 -1.661852E+04
       106   7 -2.018640E+05 -5.803465E+04 -3.714542E+04  2.409580E+04  2.966821E+03 -1.976790E+04
       106   8 -1.818054E+05 -5.344374E+04 -3.409659E+04  2.223900E+04  3.083836E+03 -1.819882E+04
       106   9 -1.617661E+05 -4.885461E+04 -3.112556E+04  2.412692E+04  3.200623E+03 -1.661616E+04
       106  10  3.052439E+05  5.810872E+04  3.649282E+04  2.447224E+04  7.914486E-10  5.872980E-10
       106  11  2.851931E+05  5.351611E+04  3.373102E+04  2.258440E+04 -1.581813E-10  2.648648E-09
       106  12  2.651334E+05  4.893159E+04  3.093047E+04  2.444112E+04 -9.312651E-10  2.453652E-09
       106  13  5.165744E+04  3.830663E+01 -3.261477E+02  2.428401E+04 -8.693128E-10  1.409702E-09
       106  14  5.166633E+04  3.726111E+01 -1.826575E+02  2.241170E+04  3.550554E-10  2.882076E-09
       106  15  5.166065E+04  3.938543E+01 -9.743768E+01  2.428402E+04 -1.867667E-10  1.166568E-09
       106  16 -2.018642E+05 -5.803507E+04 -3.714617E+04  2.409585E+04 -1.926400E-09  1.575547E-09
       106  17 -1.818055E+05 -5.344410E+04 -3.409723E+04  2.223904E+04  2.480863E-09  1.780774E-09
       106  18 -1.617661E+05 -4.885491E+04 -3.112610E+04  2.412696E+04  1.302892E-09  6.403095E-10
       106  19  3.052440E+05  5.810915E+04  3.649358E+04  2.447230E+04  3.481562E+03  1.977159E+04
       106  20  2.851932E+05  5.351647E+04  3.373166E+04  2.258445E+04  3.420487E+03  1.820302E+04
       106  21  2.651335E+05  4.893189E+04  3.093101E+04  2.444117E+04  3.359646E+03  1.662087E+04
       106  22  5.165754E+04  3.872635E+01 -3.254131E+02  2.428402E+04  2.567402E+02  1.976974E+04
       106  23  5.166642E+04  3.761685E+01 -1.820349E+02  2.241170E+04  1.677394E+02  1.820092E+04
       106  24  5.166072E+04  3.968200E+01 -9.691867E+01  2.428402E+04  7.897127E+01  1.661852E+04
       106  25 -2.018640E+05 -5.803465E+04 -3.714542E+04  2.409580E+04 -2.966821E+03  1.976790E+04
       106  26 -1.818054E+05 -5.344374E+04 -3.409659E+04  2.223900E+04 -3.083836E+03  1.819882E+04
       106  27 -1.617661E+05 -4.885461E+04 -3.112556E+04  2.412692E+04 -3.200623E+03  1.661616E+04
       107   1  2.525266E+05  4.602915E+04  2.905238E+04  2.443344E+04 -3.345042E+03 -1.569566E+04
       107   2  2.324783E+05  4.144148E+04  2.622233E+04  2.254796E+04 -3.338333E+03 -1.410619E+04
       107   3  2.124252E+05  3.686205E+04  2.338809E+04  2.440907E+04 -3.331797E+03 -1.251536E+04
       107   4  5.166375E+04  3.977518E+01 -6.736556E+01  2.428446E+04 -6.471322E+01 -1.569319E+04
       107   5  5.166767E+04  3.651968E+01 -2.175566E+01  2.241114E+04 -5.522045E+01 -1.410353E+04
       107   6  5.166621E+04  4.111774E+01  1.778629E+01  2.428446E+04 -4.590032E+01 -1.251252E+04
       107   7 -1.491584E+05 -4.595145E+04 -2.918773E+04  2.413553E+04  3.214599E+03 -1.569071E+04
       107   8 -1.291100E+05 -4.136993E+04 -2.626634E+04  2.227436E+04  3.226977E+03 -1.410087E+04
       107   9 -1.090667E+05 -3.678100E+04 -2.335290E+04  2.415989E+04  3.239182E+03 -1.250967E+04
       107  10  2.525265E+05  4.602888E+04  2.905190E+04  2.443339E+04  4.900107E-09  7.258825E-10
       107  11  2.324782E+05  4.144126E+04  2.622194E+04  2.254793E+04  9.489823E-10 -7.257726E-10
       107  12  2.124251E+05  3.686188E+04  2.338777E+04  2.440904E+04 -3.067223E-09 -1.111358E-09
       107  13  5.166368E+04  3.951071E+01 -6.782838E+01  2.428446E+04 -8.066062E-10  2.515462E-09
       107  14  5.166762E+04  3.630608E+01 -2.212946E+01  2.241114E+04 -2.211308E-10 -1.489001E-10
       107  15  5.166616E+04  4.094961E+01  1.749207E+01  2.428446E+04  2.237302E-09 -1.266113E-09
       107  16 -1.491585E+05 -4.595171E+04 -2.918821E+04  2.413557E+04 -4.975586E-09  1.187130E-09
       107  17 -1.291100E+05 -4.137015E+04 -2.626673E+04  2.227440E+04  7.675319E-10 -6.741893E-10
       107  18 -1.090667E+05 -3.678117E+04 -2.335322E+04  2.415992E+04  4.551240E-09 -9.272857E-10
       107  19  2.525266E+05  4.602915E+04  2.905238E+04  2.443344E+04  3.345042E+03  1.569566E+04
       107  20  2.324783E+05  4.144148E+04  2.622233E+04  2.254796E+04  3.338333E+03  1.410619E+04
       107  21  2.124252E+05  3.686205E+04  2.338809E+04  2.440907E+04  3.331797E+03  1.251536E+04
       107  22  5.166375E+04  3.977518E+01 -6.736556E+01  2.428446E+04  6.471322E+01  1.569319E+04
       107  23  5.166767E+04  3.651968E+01 -2.175566E+01  2.241114E+04  5.522045E+01  1.410353E+04
       107  24  5.166621E+04  4.111774E+01  1.778629E+01  2.428446E+04  4.590032E+01  1.251252E+04
       107  25 -1.491584E+05 -4.595145E+04 -2.918773E+04  2.413553E+04 -3.214599E+03  1.569071E+04
       107  26 -1.291100E+05 -4.136993E+04 -2.626634E+04  2.227436E+04 -3.226977E+03  1.410087E+04
       107  27 -1.090667E+05 -3.678100E+04 -2.335290E+04  2.415989E+04 -3.239182E+03  1.250967E+04
       108   1  1.998214E+05  3.396061E+04  2.150293E+04  2.440237E+04 -3.337420E+03 -1.158903E+04
       108   2  1.797726E+05  2.937588E+04  1.868282E+04  2.251533E+04 -3.382242E+03 -9.998007E+03
       108   3  1.597264E+05  2.480763E+04  1.589365E+04  2.437373E+04 -3.427184E+03 -8.407902E+03
       108   4  5.166868E+04  4.148980E+01  3.857813E+01  2.428421E+04 -5.168542E+01 -1.158609E+04
       108   5  5.166834E+04  4.012833E+01  9.137920E+01  2.241146E+04 -9.843543E+01 -9.994947E+03
       108   6  5.167042E+04  5.559595E+01  1.764269E+02  2.428420E+04 -1.453062E+02 -8.404716E+03
       108   7 -9.646190E+04 -3.387863E+04 -2.142609E+04  2.416607E+04  3.233299E+03 -1.158316E+04
       108   8 -7.641940E+04 -2.929637E+04 -1.850029E+04  2.230761E+04  3.184723E+03 -9.991888E+03
       108   9 -5.637374E+04 -2.469697E+04 -1.554095E+04  2.419468E+04  3.136024E+03 -8.401531E+03
       108  10  1.998214E+05  3.396046E+04  2.150266E+04  2.440234E+04  7.244578E-10  2.122651E-10
       108  11  1.797726E+05  2.937577E+04  1.868261E+04  2.251531E+04 -7.820221E-11 -8.813776E-10
       108  12  1.597263E+05  2.480755E+04  1.589349E+04  2.437370E+04 -1.708320E-09 -1.304830E-09
       108  13  5.166864E+04  4.134565E+01  3.832586E+01  2.428421E+04  1.331077E-09 -7.184968E-10
       108  14  5.166831E+04  4.002106E+01  9.119145E+01  2.241146E+04  1.897158E-09 -1.173158E-09
       108  15  5.167040E+04  5.552009E+01  1.762942E+02  2.428419E+04 -3.621811E-11 -1.473609E-09
       108  16 -9.646195E+04 -3.387878E+04 -2.142636E+04  2.416610E+04  1.978247E-09  2.611884E-10
       108  17 -7.641944E+04 -2.929648E+04 -1.850050E+04  2.230764E+04  3.449316E-09 -4.917276E-09
       108  18 -5.637377E+04 -2.469705E+04 -1.554110E+04  2.419470E+04  6.315694E-10 -2.867956E-09
       108  19  1.998214E+05  3.396061E+04  2.150293E+04  2.440237E+04  3.337420E+03  1.158903E+04
       108  20  1.797726E+05  2.937588E+04  1.868282E+04  2.251533E+04  3.382242E+03  9.998007E+03
       108  21  1.597264E+05  2.480763E+04  1.589365E+04  2.437373E+04  3.427184E+03  8.407902E+03
       108  22  5.166868E+04  4.148980E+01  3.857813E+01  2.428421E+04  5.168542E+01  1.158609E+04
       108  23  5.166834E+04  4.012833E+01  9.137920E+01  2.241146E+04  9.843543E+01  9.994947E+03
       108  24  5.167042E+04  5.559595E+01  1.764269E+02  2.428420E+04  1.453062E+02  8.404716E+03
       108  25 -9.646190E+04 -3.387863E+04 -2.142609E+04  2.416607E+04 -3.233299E+03  1.158316E+04
       108  26 -7.641940E+04 -2.929637E+04 -1.850029E+04  2.230761E+04 -3.184723E+03  9.991888E+03
       108  27 -5.637374E+04 -2.469697E+04 -1.554095E+04  2.419468E+04 -3.136024E+03  8.401531E+03
       109   1  1.471337E+05  2.190843E+04  1.404747E+04  2.437862E+04 -3.463412E+03 -7.482404E+03
       109   2  1.270634E+05  1.737100E+04  1.135615E+04  2.241946E+04 -3.659418E+03 -5.897334E+03
       109   3  1.070438E+05  1.296793E+04  8.823380E+03  2.420438E+04 -3.855478E+03 -4.321197E+03
       109   4  5.168221E+04  5.816972E+01  2.370588E+02  2.428392E+04 -1.815487E+02 -7.479158E+03
       109   5  5.165607E+04  1.051087E+02  4.257619E+02  2.241175E+04 -3.960505E+02 -5.894032E+03
       109   6  5.168323E+04  2.895659E+02  7.857324E+02  2.428368E+04 -6.106118E+02 -4.317841E+03
       109   7 -4.376005E+04 -2.179251E+04 -1.357346E+04  2.418923E+04  3.099832E+03 -7.475913E+03
       109   8 -2.374546E+04 -1.716103E+04 -1.050468E+04  2.240403E+04  2.866938E+03 -5.890730E+03
       109   9 -3.674270E+03 -1.238893E+04 -7.251926E+03  2.436298E+04  2.633978E+03 -4.314483E+03
       109  10  1.471337E+05  2.190837E+04  1.404734E+04  2.437860E+04 -6.147667E-08 -6.061995E-10
       109  11  1.270633E+05  1.737095E+04  1.135606E+04  2.241944E+04  5.568347E-09 -2.747984E-09
       109  12  1.070438E+05  1.296790E+04  8.823317E+03  2.420437E+04  6.773503E-08  9.771632E-11
       109  13  5.168220E+04  5.810964E+01  2.369536E+02  2.428392E+04  2.546622E-10 -9.530427E-10
       109  14  5.165606E+04  1.050714E+02  4.256963E+02  2.241174E+04 -1.907516E-09 -1.186466E-09
       109  15  5.168322E+04  2.895457E+02  7.856966E+02  2.428368E+04 -3.189906E-10 -1.682728E-09
       109  16 -4.376007E+04 -2.179257E+04 -1.357358E+04  2.418924E+04  6.146399E-08 -1.157578E-09
       109  17 -2.374547E+04 -1.716107E+04 -1.050476E+04  2.240405E+04 -3.634807E-09 -1.406663E-09
       109  18 -3.674282E+03 -1.238895E+04 -7.251974E+03  2.436299E+04 -7.076059E-08 -3.456226E-09
       109  19  1.471337E+05  2.190843E+04  1.404747E+04  2.437862E+04  3.463412E+03  7.482404E+03
       109  20  1.270634E+05  1.737100E+04  1.135615E+04  2.241946E+04  3.659418E+03  5.897334E+03
       109  21  1.070438E+05  1.296793E+04  8.823380E+03  2.420438E+04  3.855478E+03  4.321197E+03
       109  22  5.168221E+04  5.816972E+01  2.370588E+02  2.428392E+04  1.815487E+02  7.479158E+03
       109  23  5.165607E+04  1.051087E+02  4.257619E+02  2.241175E+04  3.960505E+02  5.894032E+03
       109  24  5.168323E+04  2.895659E+02  7.857324E+02  2.428368E+04  6.106118E+02  4.317841E+03
       109  25 -4.376005E+04 -2.179251E+04 -1.357346E+04  2.418923E+04 -3.099832E+03  7.475913E+03
       109  26 -2.374546E+04 -1.716103E+04 -1.050468E+04  2.240403E+04 -2.866938E+03  5.890730E+03
       109  27 -3.674270E+03 -1.238893E+04 -7.251926E+03  2.436298E+04 -2.633978E+03  4.314483E+03
       110   1  9.454660E+04  1.011734E+04  7.165930E+03  2.433727E+04 -3.992545E+03 -3.403513E+03
       110   2  7.424366E+04  6.308287E+03  5.099695E+03  2.125422E+04 -4.821320E+03 -1.870729E+03
       110   3  5.446344E+04  4.196155E+03  3.994290E+03  2.190895E+04 -5.650029E+03 -4.152378E+02
       110   4  5.179391E+04  3.435560E+02  1.046463E+03  2.428258E+04 -7.469719E+02 -3.400126E+03
       110   5  5.151888E+04  1.131953E+03  1.926464E+03  2.241200E+04 -1.735303E+03 -1.867497E+03
       110   6  5.179414E+04  3.645082E+03  3.878150E+03  2.427918E+04 -2.723594E+03 -4.121647E+02
       110   7  9.043083E+03 -9.430310E+03 -5.072992E+03  2.422789E+04  2.498387E+03 -3.396739E+03
       110   8  2.879464E+04 -4.044393E+03 -1.246737E+03  2.356973E+04  1.350605E+03 -1.864253E+03
       110   9  4.912487E+04  3.094033E+03  3.762046E+03  2.664939E+04  2.028283E+02 -4.090692E+02
       110  10  9.454658E+04  1.011733E+04  7.165878E+03  2.433726E+04  6.471401E-08  1.067678E-09
       110  11  7.424363E+04  6.308277E+03  5.099645E+03  2.125422E+04  4.349859E-09  7.443622E-10
       110  12  5.446340E+04  4.196146E+03  3.994230E+03  2.190895E+04 -5.897216E-08  1.210397E-10
       110  13  5.179391E+04  3.435434E+02  1.046440E+03  2.428258E+04 -7.582799E-10  1.717766E-09
       110  14  5.151887E+04  1.131948E+03  1.926452E+03  2.241200E+04  7.935286E-10 -1.668936E-09
       110  15  5.179413E+04  3.645079E+03  3.878136E+03  2.427918E+04 -1.479860E-09  1.704171E-09
       110  16  9.043073E+03 -9.430324E+03 -5.073026E+03  2.422790E+04 -6.465142E-08 -2.655876E-10
       110  17  2.879464E+04 -4.044398E+03 -1.246747E+03  2.356973E+04 -3.362491E-09  1.723068E-09
       110  18  4.912487E+04  3.094033E+03  3.762046E+03  2.664939E+04  5.975361E-08  7.544582E-11
       110  19  9.454660E+04  1.011734E+04  7.165930E+03  2.433727E+04  3.992545E+03  3.403513E+03
       110  20  7.424366E+04  6.308287E+03  5.099695E+03  2.125422E+04  4.821320E+03  1.870729E+03
       110  21  5.446344E+04  4.196155E+03  3.994290E+03  2.190895E+04  5.650029E+03  4.152378E+02
       110  22  5.179391E+04  3.435560E+02  1.046463E+03  2.428258E+04  7.469719E+02  3.400126E+03
       110  23  5.151888E+04  1.131953E+03  1.926464E+03  2.241200E+04  1.735303E+03  1.867497E+03
       110  24  5.179414E+04  3.645082E+03  3.878150E+03  2.427918E+04  2.723594E+03  4.121647E+02
       110  25  9.043083E+03 -9.430310E+03 -5.072992E+03  2.422789E+04 -2.498387E+03  3.396739E+03
       110  26  2.879464E+04 -4.044393E+03 -1.246737E+03  2.356973E+04 -1.350605E+03  1.864253E+03
       110  27  4.912487E+04  3.094033E+03  3.762046E+03  2.664939E+04 -2.028283E+02  4.090692E+02
       111   1  5.476519E+03  2.115386E+05  5.985874E+03 -1.386220E+04 -5.102643E+01  1.293324E+03
       111   2 -2.841691E+02  1.973754E+05  1.684881E+03 -1.106985E+04 -4.602135E+02 -2.793696E+02
       111   3 -3.996054E+03  1.839256E+05 -1.081125E+03 -1.197166E+04 -1.235391E+03 -1.852185E+03
       111   4  2.795923E+03  2.008577E+05  3.269378E+03 -1.216907E+04 -5.115056E+01  1.614571E+03
       111   5  4.227041E+02  2.005461E+05  2.052856E+03 -1.032253E+04 -4.605452E+02  5.602467E+02
       111   6  8.377371E+00  2.008579E+05  2.011500E+03 -1.217015E+04 -1.235925E+03 -4.942244E+02
       111   7  1.153290E+02  1.901769E+05  5.528747E+02 -1.047597E+04 -5.127294E+01  1.935812E+03
       111   8  1.129579E+03  2.037167E+05  2.420834E+03 -9.575213E+03 -4.608749E+02  1.399867E+03
       111   9  4.012794E+03  2.177905E+05  5.104121E+03 -1.236864E+04 -1.236460E+03  8.637720E+02
       111  10  5.476518E+03  2.115386E+05  5.985871E+03 -1.386220E+04  6.019240E-10  2.394388E-09
       111  11 -2.841694E+02  1.973754E+05  1.684880E+03 -1.106985E+04 -2.018587E-09 -9.042410E-10
       111  12 -3.996057E+03  1.839256E+05 -1.081134E+03 -1.197166E+04 -1.134402E-09 -2.811420E-09
       111  13  2.795922E+03  2.008577E+05  3.269373E+03 -1.216907E+04 -3.699717E-10  1.373135E-11
       111  14  4.227038E+02  2.005461E+05  2.052855E+03 -1.032253E+04  1.892145E-09 -6.826522E-10
       111  15  8.375665E+00  2.008579E+05  2.011497E+03 -1.217015E+04  1.984532E-09 -5.481456E-10
       111  16  1.153280E+02  1.901769E+05  5.528676E+02 -1.047597E+04  1.156006E-09 -2.796497E-09
       111  17  1.129579E+03  2.037167E+05  2.420830E+03 -9.575212E+03  3.700085E-10 -1.520550E-10
       111  18  4.012792E+03  2.177905E+05  5.104116E+03 -1.236864E+04  1.216876E-09  2.745715E-09
       111  19  5.476519E+03  2.115386E+05  5.985874E+03 -1.386220E+04  5.102643E+01 -1.293324E+03
       111  20 -2.841691E+02  1.973754E+05  1.684881E+03 -1.106985E+04  4.602135E+02  2.793696E+02
       111  21 -3.996054E+03  1.839256E+05 -1.081125E+03 -1.197166E+04  1.235391E+03  1.852185E+03
       111  22  2.795923E+03  2.008577E+05  3.269378E+03 -1.216907E+04  5.115056E+01 -1.614571E+03
       111  23  4.227041E+02  2.005461E+05  2.052856E+03 -1.032253E+04  4.605452E+02 -5.602467E+02
       111  24  8.377371E+00  2.008579E+05  2.011500E+03 -1.217015E+04  1.235925E+03  4.942244E+02
       111  25  1.153290E+02  1.901769E+05  5.528747E+02 -1.047597E+04  5.127294E+01 -1.935812E+03
       111  26  1.129579E+03  2.037167E+05  2.420834E+03 -9.575213E+03  4.608749E+02 -1.399867E+03
       111  27  4.012794E+03  2.177905E+05  5.104121E+03 -1.236864E+04  1.236460E+03 -8.637720E+02
       112   1 -6.171405E+03  1.744641E+05 -2.673413E+03 -1.238686E+04 -1.806535E+03 -2.167728E+03
       112   2 -9.453886E+03  1.604712E+05 -4.329269E+03 -1.026420E+04 -2.668609E+03 -3.590685E+03
       112   3 -1.198800E+04  1.468477E+05 -4.872618E+03 -1.184955E+04 -3.393587E+03 -5.013535E+03
       112   4  7.993372E+01  2.008088E+05  2.245132E+03 -1.217309E+04 -1.807048E+03 -8.489556E+02
       112   5  8.581226E+01  2.006071E+05  3.241248E+03 -1.031894E+04 -2.669025E+03 -2.466185E+03
       112   6  8.737467E+02  2.008082E+05  5.484684E+03 -1.217278E+04 -3.393910E+03 -4.083339E+03
       112   7  6.331233E+03  2.271542E+05  7.163654E+03 -1.195932E+04 -1.807559E+03  4.698715E+02
       112   8  9.625418E+03  2.407445E+05  1.081170E+04 -1.037369E+04 -2.669441E+03 -1.341614E+03
       112   9  1.373532E+04  2.547715E+05  1.584186E+04 -1.249605E+04 -3.394233E+03 -3.153063E+03
       112  10 -6.171409E+03  1.744640E+05 -2.673428E+03 -1.238686E+04 -2.437162E-10  3.705784E-09
       112  11 -9.453897E+03  1.604712E+05 -4.329306E+03 -1.026420E+04  1.058058E-09 -2.020112E-09
       112  12 -1.198802E+04  1.468477E+05 -4.872687E+03 -1.184956E+04 -1.244729E-09 -5.858214E-09
       112  13  7.993002E+01  2.008088E+05  2.245124E+03 -1.217309E+04 -7.260250E-10 -3.352001E-11
       112  14  8.580298E+01  2.006070E+05  3.241223E+03 -1.031895E+04 -5.602208E-10 -7.754861E-10
       112  15  8.737299E+02  2.008082E+05  5.484631E+03 -1.217279E+04 -3.054460E-09 -5.701909E-10
       112  16  6.331230E+03  2.271542E+05  7.163648E+03 -1.195932E+04  2.470425E-09 -3.993237E-09
       112  17  9.625410E+03  2.407445E+05  1.081168E+04 -1.037369E+04  1.987072E-09  9.751392E-10
       112  18  1.373531E+04  2.547715E+05  1.584182E+04 -1.249605E+04 -2.267588E-09  5.789466E-09
       112  19 -6.171405E+03  1.744641E+05 -2.673413E+03 -1.238686E+04  1.806535E+03  2.167728E+03
       112  20 -9.453886E+03  1.604712E+05 -4.329269E+03 -1.026420E+04  2.668609E+03  3.590685E+03
       112  21 -1.198800E+04  1.468477E+05 -4.872618E+03 -1.184955E+04  3.393587E+03  5.013535E+03
       112  22  7.993372E+01  2.008088E+05  2.245132E+03 -1.217309E+04  1.807048E+03  8.489556E+02
       112  23  8.581226E+01  2.006071E+05  3.241248E+03 -1.031894E+04  2.669025E+03  2.466185E+03
       112  24  8.737467E+02  2.008082E+05  5.484684E+03 -1.217278E+04  3.393910E+03  4.083339E+03
       112  25  6.331233E+03  2.271542E+05  7.163654E+03 -1.195932E+04  1.807559E+03 -4.698715E+02
       112  26  9.625418E+03  2.407445E+05  1.081170E+04 -1.037369E+04  2.669441E+03  1.341614E+03
       112  27  1.373532E+04  2.547715E+05  1.584186E+04 -1.249605E+04  3.394233E+03  3.153063E+03
       113   1 -1.519509E+04  1.383272E+05 -5.192120E+03 -1.426429E+04 -3.956423E+03 -6.377710E+03
       113   2 -1.506407E+04  1.223953E+05 -3.389008E+03 -4.697263E+03 -3.741030E+03 -9.507799E+03
       113   3  2.544402E+02  1.106663E+05  4.248339E+03  1.299055E+03 -1.181171E+03 -1.263700E+04
       113   4 -6.662440E+01  2.017805E+05  7.018213E+03 -1.214367E+04 -3.956911E+03 -5.021525E+03
       113   5  3.495652E+03  1.993900E+05  1.240538E+04 -1.035445E+04 -3.740220E+03 -1.147260E+04
       113   6  2.282053E+04  2.017776E+05  2.593192E+04 -1.213570E+04 -1.179115E+03 -1.792285E+04
       113   7  1.506162E+04  2.652377E+05  1.922837E+04 -1.002283E+04 -3.957389E+03 -3.665204E+03
       113   8  2.205513E+04  2.763904E+05  2.819948E+04 -1.601236E+04 -3.739374E+03 -1.343764E+04
       113   9  4.538672E+04  2.928970E+05  4.761513E+04 -2.557244E+04 -1.176831E+03 -2.320946E+04
       113  10 -1.519511E+04  1.383272E+05 -5.192226E+03 -1.426431E+04 -1.291103E-09  2.514660E-09
       113  11 -1.506411E+04  1.223952E+05 -3.389204E+03 -4.697291E+03 -5.527062E-10 -9.517443E-11
       113  12  2.543959E+02  1.106661E+05  4.248037E+03  1.299043E+03  8.089223E-10 -1.580055E-09
       113  13 -6.664798E+01  2.017805E+05  7.018136E+03 -1.214369E+04 -7.990704E-10 -1.591131E-11
       113  14  3.495602E+03  1.993899E+05  1.240511E+04 -1.035449E+04 -1.289623E-09 -5.750590E-10
       113  15  2.282045E+04  2.017773E+05  2.593132E+04 -1.213572E+04 -7.392943E-10 -4.893418E-10
       113  16  1.506160E+04  2.652376E+05  1.922831E+04 -1.002284E+04 -1.555277E-09 -2.869071E-09
       113  17  2.205506E+04  2.763902E+05  2.819912E+04 -1.601240E+04  1.055266E-09 -8.008926E-10
       113  18  4.538658E+04  2.928964E+05  4.761411E+04 -2.557246E+04  7.803020E-10  1.522519E-09
       113  19 -1.519509E+04  1.383272E+05 -5.192120E+03 -1.426429E+04  3.956423E+03  6.377710E+03
       113  20 -1.506407E+04  1.223953E+05 -3.389008E+03 -4.697263E+03  3.741030E+03  9.507799E+03
       113  21  2.544402E+02  1.106663E+05  4.248339E+03  1.299055E+03  1.181171E+03  1.263700E+04
       113  22 -6.662440E+01  2.017805E+05  7.018213E+03 -1.214367E+04  3.956911E+03  5.021525E+03
       113  23  3.495652E+03  1.993900E+05  1.240538E+04 -1.035445E+04  3.740220E+03  1.147260E+04
       113  24  2.282053E+04  2.017776E+05  2.593192E+04 -1.213570E+04  1.179115E+03  1.792285E+04
       113  25  1.506162E+04  2.652377E+05  1.922837E+04 -1.002283E+04  3.957389E+03  3.665204E+03
       113  26  2.205513E+04  2.763904E+05  2.819948E+04 -1.601236E+04  3.739374E+03  1.343764E+04
       113  27  4.538672E+04  2.928970E+05  4.761513E+04 -2.557244E+04  1.176831E+03  2.320946E+04
       114   1  5.203509E+05  1.880800E+05  9.660677E+04  1.921775E+05  3.751925E+04  7.944609E+03
       114   2  4.934240E+05  1.702728E+05  6.878230E+04  1.837191E+05  2.432101E+04 -1.160625E+04
       114   3  4.671695E+05  1.604126E+05  5.550845E+04  1.787501E+05  7.801278E+03 -2.230423E+04
       114   4  1.525980E+05  4.899031E+04  2.781246E+03  8.997715E+04  3.833892E+03 -4.705404E+03
       114   5  1.538324E+05  4.567363E+04  1.316089E+03  8.863170E+04  7.957739E+03 -1.775307E+04
       114   6  1.523102E+05  4.687655E+04  6.878661E+02  9.077568E+04  8.757650E+03 -2.194631E+04
       114   7 -2.150049E+05 -9.008302E+04 -9.104612E+04 -1.216331E+04 -2.982824E+04 -1.734649E+04
       114   8 -1.856319E+05 -7.891194E+04 -6.615229E+04 -6.405197E+03 -8.395573E+03 -2.389609E+04
       114   9 -1.624434E+05 -6.664957E+04 -5.413548E+04  2.843073E+03  9.713504E+03 -2.158859E+04
       114  10  5.203493E+05  1.880796E+05  9.660401E+04  1.921773E+05 -7.828880E-10 -2.208893E-10
       114  11  4.934233E+05  1.702725E+05  6.878093E+04  1.837193E+05  7.419363E-10 -9.015527E-10
       114  12  4.671693E+05  1.604121E+05  5.550740E+04  1.787503E+05  1.015807E-09 -3.769659E-10
       114  13  1.525980E+05  4.899029E+04  2.781177E+03  8.997716E+04  2.117293E-09  8.893035E-10
       114  14  1.538322E+05  4.567327E+04  1.315377E+03  8.863181E+04  4.542688E-10 -9.291727E-10
       114  15  1.523100E+05  4.687601E+04  6.868167E+02  9.077583E+04 -6.371495E-10 -1.242396E-10
       114  16 -2.150059E+05 -9.008358E+04 -9.104836E+04 -1.216372E+04  5.188393E-10  4.596305E-10
       114  17 -1.856321E+05 -7.891258E+04 -6.615349E+04 -6.405358E+03  9.435925E-10 -1.222359E-09
       114  18 -1.624436E+05 -6.665009E+04 -5.413653E+04  2.843242E+03  4.161404E-11 -5.714454E-10
       114  19  5.203509E+05  1.880800E+05  9.660677E+04  1.921775E+05 -3.751925E+04 -7.944609E+03
       114  20  4.934240E+05  1.702728E+05  6.878230E+04  1.837191E+05 -2.432101E+04  1.160625E+04
       114  21  4.671695E+05  1.604126E+05  5.550845E+04  1.787501E+05 -7.801278E+03  2.230423E+04
       114  22  1.525980E+05  4.899031E+04  2.781246E+03  8.997715E+04 -3.833892E+03  4.705404E+03
       114  23  1.538324E+05  4.567363E+04  1.316089E+03  8.863170E+04 -7.957739E+03  1.775307E+04
       114  24  1.523102E+05  4.687655E+04  6.878661E+02  9.077568E+04 -8.757650E+03  2.194631E+04
       114  25 -2.150049E+05 -9.008302E+04 -9.104612E+04 -1.216331E+04  2.982824E+04  1.734649E+04
       114  26 -1.856319E+05 -7.891194E+04 -6.615229E+04 -6.405197E+03  8.395573E+03  2.389609E+04
       114  27 -1.624434E+05 -6.664957E+04 -5.413548E+04  2.843073E+03 -9.713504E+03  2.158859E+04
       115   1  4.494965E+05  1.541359E+05  5.131317E+04  1.741510E+05  8.092859E+03 -2.158315E+04
       115   2  4.246122E+05  1.421836E+05  4.463918E+04  1.646548E+05  5.937329E+03 -2.165008E+04
       115   3  3.963746E+05  1.344276E+05  3.949606E+04  1.594416E+05  3.440510E+03 -2.080921E+04
       115   4  1.521345E+05  4.695396E+04  5.133458E+02  9.086797E+04  8.478749E+03 -2.143943E+04
       115   5  1.539806E+05  4.497194E+04  2.682762E+02  8.874976E+04  8.099431E+03 -2.083883E+04
       115   6  1.521218E+05  4.683488E+04  1.478183E+02  9.091450E+04  7.378693E+03 -1.933022E+04
       115   7 -1.451371E+05 -6.022053E+04 -5.028991E+04  7.621265E+03  8.864448E+03 -2.129578E+04
       115   8 -1.165744E+05 -5.223285E+04 -4.410472E+04  1.287525E+04  1.026055E+04 -2.002794E+04
       115   9 -9.206720E+04 -4.075168E+04 -3.920161E+04  2.241261E+04  1.131524E+04 -1.785184E+04
       115  10  4.494963E+05  1.541354E+05  5.131218E+04  1.741511E+05 -2.266046E-09 -7.845242E-10
       115  11  4.246120E+05  1.421830E+05  4.463823E+04  1.646549E+05 -9.629188E-10  2.010368E-09
       115  12  3.963745E+05  1.344271E+05  3.949523E+04  1.594417E+05 -2.144482E-09  1.318885E-09
       115  13  1.521343E+05  4.695345E+04  5.123469E+02  9.086812E+04 -1.394414E-10 -7.203762E-10
       115  14  1.539804E+05  4.497145E+04  2.673367E+02  8.874989E+04 -3.477486E-09  4.708867E-10
       115  15  1.521216E+05  4.683447E+04  1.470137E+02  9.091462E+04 -4.112794E-10 -1.087226E-10
       115  16 -1.451373E+05 -6.022104E+04 -5.029091E+04  7.621417E+03  1.505946E-09  4.851347E-10
       115  17 -1.165746E+05 -5.223331E+04 -4.410568E+04  1.287542E+04 -2.564991E-09 -1.506389E-10
       115  18 -9.206743E+04 -4.075206E+04 -3.920245E+04  2.241278E+04 -9.938281E-10 -1.469688E-09
       115  19  4.494965E+05  1.541359E+05  5.131317E+04  1.741510E+05 -8.092859E+03  2.158315E+04
       115  20  4.246122E+05  1.421836E+05  4.463918E+04  1.646548E+05 -5.937329E+03  2.165008E+04
       115  21  3.963746E+05  1.344276E+05  3.949606E+04  1.594416E+05 -3.440510E+03  2.080921E+04
       115  22  1.521345E+05  4.695396E+04  5.133458E+02  9.086797E+04 -8.478749E+03  2.143943E+04
       115  23  1.539806E+05  4.497194E+04  2.682762E+02  8.874976E+04 -8.099431E+03  2.083883E+04
       115  24  1.521218E+05  4.683488E+04  1.478183E+02  9.091450E+04 -7.378693E+03  1.933022E+04
       115  25 -1.451371E+05 -6.022053E+04 -5.028991E+04  7.621265E+03 -8.864448E+03  2.129578E+04
       115  26 -1.165744E+05 -5.223285E+04 -4.410472E+04  1.287525E+04 -1.026055E+04  2.002794E+04
       115  27 -9.206720E+04 -4.075168E+04 -3.920161E+04  2.241261E+04 -1.131524E+04  1.785184E+04
       116   1  3.794705E+05  1.283618E+05  3.653829E+04  1.547391E+05  3.029832E+03 -1.959723E+04
       116   2  3.548297E+05  1.169272E+05  3.210888E+04  1.451314E+05  2.053861E+03 -1.764831E+04
       116   3  3.264314E+05  1.093382E+05  2.784946E+04  1.398703E+05  1.042783E+03 -1.560675E+04
       116   4  1.521055E+05  4.684600E+04  1.117784E+02  9.092196E+04  6.908672E+03 -1.814032E+04
       116   5  1.540055E+05  4.494293E+04  6.482541E+01  8.874906E+04  6.113944E+03 -1.612296E+04
       116   6  1.521110E+05  4.684968E+04  4.414502E+01  9.092276E+04  5.284088E+03 -1.401294E+04
       116   7 -7.520139E+04 -3.466351E+04 -3.631498E+04  2.712748E+04  1.078597E+04 -1.668399E+04
       116   8 -4.677529E+04 -2.703716E+04 -3.197994E+04  3.238387E+04  1.017264E+04 -1.459814E+04
       116   9 -2.217875E+04 -1.563645E+04 -2.776223E+04  4.198756E+04  9.524179E+03 -1.241958E+04
       116  10  3.794703E+05  1.283614E+05  3.653755E+04  1.547391E+05 -2.049414E-09  2.083582E-09
       116  11  3.548296E+05  1.169269E+05  3.210829E+04  1.451314E+05 -1.187613E-09  3.131840E-09
       116  12  3.264313E+05  1.093380E+05  2.784900E+04  1.398703E+05  2.270929E-09  1.805974E-09
       116  13  1.521053E+05  4.684563E+04  1.110702E+02  9.092206E+04 -1.187278E-09 -1.461552E-09
       116  14  1.540054E+05  4.494264E+04  6.426661E+01  8.874914E+04  2.042703E-09  1.407574E-10
       116  15  1.521109E+05  4.684946E+04  4.372350E+01  9.092282E+04  1.427207E-08  2.040596E-09
       116  16 -7.520159E+04 -3.466384E+04 -3.631572E+04  2.712763E+04  9.436543E-10 -1.591397E-09
       116  17 -4.677546E+04 -2.703742E+04 -3.198053E+04  3.238399E+04  3.515839E-09 -1.796260E-09
       116  18 -2.217889E+04 -1.563664E+04 -2.776269E+04  4.198765E+04  1.194336E-08  3.038795E-09
       116  19  3.794705E+05  1.283618E+05  3.653829E+04  1.547391E+05 -3.029832E+03  1.959723E+04
       116  20  3.548297E+05  1.169272E+05  3.210888E+04  1.451314E+05 -2.053861E+03  1.764831E+04
       116  21  3.264314E+05  1.093382E+05  2.784946E+04  1.398703E+05 -1.042783E+03  1.560675E+04
       116  22  1.521055E+05  4.684600E+04  1.117784E+02  9.092196E+04 -6.908672E+03  1.814032E+04
       116  23  1.540055E+05  4.494293E+04  6.482541E+01  8.874906E+04 -6.113944E+03  1.612296E+04
       116  24  1.521110E+05  4.684968E+04  4.414502E+01  9.092276E+04 -5.284088E+03  1.401294E+04
       116  25 -7.520139E+04 -3.466351E+04 -3.631498E+04  2.712748E+04 -1.078597E+04  1.668399E+04
       116  26 -4.677529E+04 -2.703716E+04 -3.197994E+04  3.238387E+04 -1.017264E+04  1.459814E+04
       116  27 -2.217875E+04 -1.563645E+04 -2.776223E+04  4.198756E+04 -9.524179E+03  1.241958E+04
       117   1  3.096138E+05  1.032946E+05  2.503710E+04  1.351604E+05  5.672716E+02 -1.434237E+04
       117   2  2.850146E+05  9.190681E+04  2.086800E+04  1.255436E+05 -2.857484E+02 -1.218713E+04
       117   3  2.566164E+05  8.432943E+04  1.672795E+04  1.202764E+05 -1.142243E+03 -1.002314E+04
       117   4  1.521099E+05  4.685190E+04  3.963266E+01  9.092245E+04  4.801947E+03 -1.275087E+04
       117   5  1.540130E+05  4.495073E+04  4.131183E+01  8.874751E+04  3.966006E+03 -1.058900E+04
       117   6  1.521128E+05  4.685644E+04  5.838523E+01  9.092173E+04  3.126590E+03 -8.418362E+03
       117   7 -5.367182E+03 -9.588183E+03 -2.495821E+04  4.669511E+04  9.035484E+03 -1.115980E+04
       117   8  2.303070E+04 -2.003241E+03 -2.078540E+04  5.195891E+04  8.216785E+03 -8.991224E+03
       117   9  4.762231E+04  9.385065E+03 -1.661097E+04  6.157203E+04  7.394613E+03 -6.813892E+03
       117  10  3.096138E+05  1.032944E+05  2.503672E+04  1.351604E+05  9.127054E-09  3.828056E-09
       117  11  2.850146E+05  9.190665E+04  2.086772E+04  1.255436E+05  1.204381E-08  5.573286E-09
       117  12  2.566163E+05  8.432932E+04  1.672776E+04  1.202764E+05  1.159988E-08  1.336049E-09
       117  13  1.521099E+05  4.685172E+04  3.928376E+01  9.092250E+04  1.641985E-08  3.996089E-09
       117  14  1.540130E+05  4.495061E+04  4.107155E+01  8.874755E+04  1.190128E-08  3.935760E-09
       117  15  1.521128E+05  4.685636E+04  5.823367E+01  9.092175E+04  1.050491E-09  1.836452E-09
       117  16 -5.367303E+03 -9.588338E+03 -2.495859E+04  4.669519E+04  1.333615E-08  5.315675E-09
       117  17  2.303061E+04 -2.003346E+03 -2.078567E+04  5.195897E+04  6.064924E-09  5.421259E-09
       117  18  4.762224E+04  9.385001E+03 -1.661116E+04  6.157207E+04 -3.810324E-09  3.219735E-10
       117  19  3.096138E+05  1.032946E+05  2.503710E+04  1.351604E+05 -5.672716E+02  1.434237E+04
       117  20  2.850146E+05  9.190681E+04  2.086800E+04  1.255436E+05  2.857484E+02  1.218713E+04
       117  21  2.566164E+05  8.432943E+04  1.672795E+04  1.202764E+05  1.142243E+03  1.002314E+04
       117  22  1.521099E+05  4.685190E+04  3.963266E+01  9.092245E+04 -4.801947E+03  1.275087E+04
       117  23  1.540130E+05  4.495073E+04  4.131183E+01  8.874751E+04 -3.966006E+03  1.058900E+04
       117  24  1.521128E+05  4.685644E+04  5.838523E+01  9.092173E+04 -3.126590E+03  8.418362E+03
       117  25 -5.367182E+03 -9.588183E+03 -2.495821E+04  4.669511E+04 -9.035484E+03  1.115980E+04
       117  26  2.303070E+04 -2.003241E+03 -2.078540E+04  5.195891E+04 -8.216785E+03  8.991224E+03
       117  27  4.762231E+04  9.385065E+03 -1.661097E+04  6.157203E+04 -7.394613E+03  6.813892E+03
       118   1  2.398131E+05  7.828741E+04  1.394654E+04  1.155678E+05 -1.630254E+03 -8.756320E+03
       118   2  2.152208E+05  6.690276E+04  9.847042E+03  1.059551E+05 -2.505315E+03 -6.596730E+03
       118   3  1.868299E+05  5.932639E+04  5.788810E+03  1.006923E+05 -3.379011E+03 -4.440999E+03
       118   4  1.521154E+05  4.685712E+04  7.374551E+01  9.092243E+04  2.637787E+03 -7.151745E+03
       118   5  1.540143E+05  4.495140E+04  1.264271E+02  8.874796E+04  1.755140E+03 -4.994890E+03
       118   6  1.521160E+05  4.685564E+04  2.265052E+02  9.092333E+04  8.738592E+02 -2.841902E+03
       118   7  6.442503E+04  1.542725E+04 -1.379940E+04  6.628006E+04  6.905240E+03 -5.547392E+03
       118   8  9.281154E+04  2.300030E+04 -9.594284E+03  7.154233E+04  6.015176E+03 -3.393207E+03
       118   9  1.174034E+05  3.438503E+04 -5.335750E+03  8.115484E+04  5.126479E+03 -1.242898E+03
       118  10  2.398130E+05  7.828733E+04  1.394639E+04  1.155678E+05 -9.301949E-10 -1.890303E-09
       118  11  2.152208E+05  6.690271E+04  9.846949E+03  1.059551E+05 -9.754354E-09 -1.054001E-09
       118  12  1.868299E+05  5.932637E+04  5.788752E+03  1.006923E+05 -7.136364E-09 -3.077109E-09
       118  13  1.521154E+05  4.685706E+04  7.363631E+01  9.092244E+04 -1.745336E-09 -1.771157E-09
       118  14  1.540143E+05  4.495137E+04  1.263744E+02  8.874797E+04 -6.209098E-09 -1.073623E-09
       118  15  1.521160E+05  4.685563E+04  2.264886E+02  9.092333E+04 -3.118742E-09 -7.339874E-10
       118  16  6.442498E+04  1.542720E+04 -1.379955E+04  6.628009E+04 -6.196651E-09  9.306681E-10
       118  17  9.281150E+04  2.300028E+04 -9.594374E+03  7.154234E+04 -7.794688E-09 -9.765790E-10
       118  18  1.174034E+05  3.438502E+04 -5.335803E+03  8.115485E+04  1.030182E-09  5.870788E-10
       118  19  2.398131E+05  7.828741E+04  1.394654E+04  1.155678E+05  1.630254E+03  8.756320E+03
       118  20  2.152208E+05  6.690276E+04  9.847042E+03  1.059551E+05  2.505315E+03  6.596730E+03
       118  21  1.868299E+05  5.932639E+04  5.788810E+03  1.006923E+05  3.379011E+03  4.440999E+03
       118  22  1.521154E+05  4.685712E+04  7.374551E+01  9.092243E+04 -2.637787E+03  7.151745E+03
       118  23  1.540143E+05  4.495140E+04  1.264271E+02  8.874796E+04 -1.755140E+03  4.994890E+03
       118  24  1.521160E+05  4.685564E+04  2.265052E+02  9.092333E+04 -8.738592E+02  2.841902E+03
       118  25  6.442503E+04  1.542725E+04 -1.379940E+04  6.628006E+04 -6.905240E+03  5.547392E+03
       118  26  9.281154E+04  2.300030E+04 -9.594284E+03  7.154233E+04 -6.015176E+03  3.393207E+03
       118  27  1.174034E+05  3.438503E+04 -5.335750E+03  8.115484E+04 -5.126479E+03  1.242898E+03
       119   1  1.700320E+05  5.328803E+04  3.063500E+03  9.599426E+04 -3.901857E+03 -3.190534E+03
       119   2  1.454325E+05  4.189748E+04 -8.808853E+02  8.637512E+04 -4.895569E+03 -1.106205E+03
       119   3  1.170660E+05  3.434529E+04 -4.679919E+03  8.110109E+04 -5.872184E+03  9.327897E+02
       119   4  1.521249E+05  4.685397E+04  3.013365E+02  9.092675E+04  3.537388E+02 -1.590389E+03
       119   5  1.540035E+05  4.495032E+04  5.461549E+02  8.874521E+04 -7.287437E+02  4.605413E+02
       119   6  1.521316E+05  4.690244E+04  1.006519E+03  9.090841E+04 -1.794143E+03  2.466145E+03
       119   7  1.342185E+05  4.042004E+04 -2.460698E+03  8.585944E+04  4.609157E+03  9.688611E+00
       119   8  1.625745E+05  4.800318E+04  1.973268E+03  9.111534E+04  3.438143E+03  2.027310E+03
       119   9  1.871989E+05  5.945987E+04  6.693112E+03  1.007164E+05  2.284188E+03  3.999608E+03
       119  10  1.700319E+05  5.328802E+04  3.063452E+03  9.599425E+04 -1.013196E-09 -2.988681E-10
       119  11  1.454325E+05  4.189747E+04 -8.809326E+02  8.637512E+04 -1.165101E-09 -3.139090E-10
       119  12  1.170659E+05  3.434528E+04 -4.679985E+03  8.110109E+04  1.756798E-09 -8.494193E-10
       119  13  1.521249E+05  4.685397E+04  3.013315E+02  9.092675E+04  1.867795E-09 -8.884173E-10
       119  14  1.540035E+05  4.495032E+04  5.461535E+02  8.874521E+04 -2.093312E-09  6.954362E-10
       119  15  1.521316E+05  4.690243E+04  1.006501E+03  9.090842E+04 -5.579522E-09 -8.601281E-10
       119  16  1.342185E+05  4.042003E+04 -2.460738E+03  8.585944E+04  2.986459E-09  2.607286E-09
       119  17  1.625745E+05  4.800317E+04  1.973238E+03  9.111533E+04 -4.638007E-09 -5.018662E-10
       119  18  1.871989E+05  5.945985E+04  6.693072E+03  1.007164E+05 -1.105470E-08 -9.639531E-10
       119  19  1.700320E+05  5.328803E+04  3.063500E+03  9.599426E+04  3.901857E+03  3.190534E+03
       119  20  1.454325E+05  4.189748E+04 -8.808853E+02  8.637512E+04  4.895569E+03  1.106205E+03
       119  21  1.170660E+05  3.434529E+04 -4.679919E+03  8.110109E+04  5.872184E+03 -9.327897E+02
       119  22  1.521249E+05  4.685397E+04  3.013365E+02  9.092675E+04 -3.537388E+02  1.590389E+03
       119  23  1.540035E+05  4.495032E+04  5.461549E+02  8.874521E+04  7.287437E+02 -4.605413E+02
       119  24  1.521316E+05  4.690244E+04  1.006519E+03  9.090841E+04  1.794143E+03 -2.466145E+03
       119  25  1.342185E+05  4.042004E+04 -2.460698E+03  8.585944E+04 -4.609157E+03 -9.688611E+00
       119  26  1.625745E+05  4.800318E+04  1.973268E+03  9.111534E+04 -3.438143E+03 -2.027310E+03
       119  27  1.871989E+05  5.945987E+04  6.693112E+03  1.007164E+05 -2.284188E+03 -3.999608E+03
       120   1  1.002456E+05  2.835270E+04 -7.196571E+03  7.648337E+04 -6.547929E+03  2.088124E+03
       120   2  7.585206E+04  1.686911E+04 -1.063387E+04  6.645962E+04 -7.638464E+03  3.822623E+03
       120   3  4.795152E+04  9.762683E+03 -1.362331E+04  6.061424E+04 -8.562456E+03  5.114509E+03
       120   4  1.522019E+05  4.690531E+04  1.344876E+03  9.092802E+04 -2.441328E+03  3.632180E+03
       120   5  1.539543E+05  4.523086E+04  2.478298E+03  8.861325E+04 -4.397602E+03  5.041042E+03
       120   6  1.523702E+05  4.810481E+04  4.745263E+03  9.047647E+04 -6.187353E+03  6.007319E+03
       120   7  2.041612E+05  6.545818E+04  9.886327E+03  1.053738E+05  1.665635E+03  5.176371E+03
       120   8  2.320626E+05  7.359308E+04  1.559022E+04  1.107694E+05 -1.156327E+03  6.259621E+03
       120   9  2.567992E+05  8.644763E+04  2.311318E+04  1.203431E+05 -3.811852E+03  6.900284E+03
       120  10  1.002455E+05  2.835269E+04 -7.196660E+03  7.648338E+04 -5.758930E-09 -2.375889E-09
       120  11  7.585199E+04  1.686908E+04 -1.063400E+04  6.645965E+04 -2.364516E-09 -1.371701E-09
       120  12  4.795144E+04  9.762635E+03 -1.362350E+04  6.061428E+04  2.009254E-10  8.647861E-10
       120  13  1.522019E+05  4.690529E+04  1.344840E+03  9.092802E+04 -7.570681E-09 -3.479210E-09
       120  14  1.539543E+05  4.523083E+04  2.478214E+03  8.861326E+04 -5.884875E-09  3.217847E-09
       120  15  1.523702E+05  4.810476E+04  4.745124E+03  9.047650E+04 -1.367869E-08 -2.787868E-09
       120  16  2.041611E+05  6.545815E+04  9.886271E+03  1.053738E+05 -4.493459E-09  1.308826E-09
       120  17  2.320625E+05  7.359304E+04  1.559014E+04  1.107694E+05 -3.380991E-09 -9.336674E-10
       120  18  2.567992E+05  8.644758E+04  2.311306E+04  1.203431E+05 -1.317750E-08 -5.353807E-09
       120  19  1.002456E+05  2.835270E+04 -7.196571E+03  7.648337E+04  6.547929E+03 -2.088124E+03
       120  20  7.585206E+04  1.686911E+04 -1.063387E+04  6.645962E+04  7.638464E+03 -3.822623E+03
       120  21  4.795152E+04  9.762683E+03 -1.362331E+04  6.061424E+04  8.562456E+03 -5.114509E+03
       120  22  1.522019E+05  4.690531E+04  1.344876E+03  9.092802E+04  2.441328E+03 -3.632180E+03
       120  23  1.539543E+05  4.523086E+04  2.478298E+03  8.861325E+04  4.397602E+03 -5.041042E+03
       120  24  1.523702E+05  4.810481E+04  4.745263E+03  9.047647E+04  6.187353E+03 -6.007319E+03
       120  25  2.041612E+05  6.545818E+04  9.886327E+03  1.053738E+05 -1.665635E+03 -5.176371E+03
       120  26  2.320626E+05  7.359308E+04  1.559022E+04  1.107694E+05  1.156327E+03 -6.259621E+03
       120  27  2.567992E+05  8.644763E+04  2.311318E+04  1.203431E+05  3.811852E+03 -6.900284E+03
       121   1  3.085811E+04  4.506495E+03 -1.539682E+04  5.691584E+04 -9.898946E+03  5.653337E+03
       121   2  1.090471E+04 -8.312124E+03 -1.784910E+04  3.958796E+04 -7.479250E+03  5.649830E+03
       121   3 -9.290264E+03 -8.104802E+03 -1.925562E+04  2.363652E+04 -3.437954E+03  1.331472E+03
       121   4  1.531362E+05  4.829768E+04  6.361199E+03  9.062832E+04 -7.246407E+03  6.650391E+03
       121   5  1.538000E+05  5.071139E+04  1.219444E+04  8.626977E+04 -1.326327E+04  3.475212E+03
       121   6  1.558920E+05  6.782056E+04  2.575668E+04  8.328811E+04 -1.765893E+04 -4.014258E+03
       121   7  2.754320E+05  9.209100E+04  2.811933E+04  1.243475E+05 -4.593266E+03  7.647666E+03
       121   8  2.967161E+05  1.097381E+05  4.223693E+04  1.329620E+05 -1.904869E+04  1.299904E+03
       121   9  3.210982E+05  1.437503E+05  7.076634E+04  1.429542E+05 -3.188370E+04 -9.362228E+03
       121  10  3.085800E+04  4.506434E+03 -1.539707E+04  5.691588E+04 -1.018396E-08 -3.810004E-09
       121  11  1.090464E+04 -8.312174E+03 -1.784926E+04  3.958799E+04 -6.325599E-10  9.515607E-10
       121  12 -9.290278E+03 -8.104807E+03 -1.925565E+04  2.363652E+04 -7.170698E-11  6.762048E-10
       121  13  1.531361E+05  4.829762E+04  6.361017E+03  9.062836E+04 -1.375902E-08 -3.476235E-09
       121  14  1.537998E+05  5.071133E+04  1.219409E+04  8.626980E+04 -7.341309E-09 -1.474208E-09
       121  15  1.558917E+05  6.782046E+04  2.575606E+04  8.328805E+04  1.652882E-09  4.379823E-11
       121  16  2.754320E+05  9.209094E+04  2.811918E+04  1.243475E+05 -4.280526E-09 -2.270120E-09
       121  17  2.967157E+05  1.097380E+05  4.223625E+04  1.329620E+05 -4.570845E-10 -2.366487E-09
       121  18  3.210971E+05  1.437500E+05  7.076427E+04  1.429540E+05  2.402860E-09 -1.457795E-09
       121  19  3.085811E+04  4.506495E+03 -1.539682E+04  5.691584E+04  9.898946E+03 -5.653337E+03
       121  20  1.090471E+04 -8.312124E+03 -1.784910E+04  3.958796E+04  7.479250E+03 -5.649830E+03
       121  21 -9.290264E+03 -8.104802E+03 -1.925562E+04  2.363652E+04  3.437954E+03 -1.331472E+03
       121  22  1.531362E+05  4.829768E+04  6.361199E+03  9.062832E+04  7.246407E+03 -6.650391E+03
       121  23  1.538000E+05  5.071139E+04  1.219444E+04  8.626977E+04  1.326327E+04 -3.475212E+03
       121  24  1.558920E+05  6.782056E+04  2.575668E+04  8.328811E+04  1.765893E+04  4.014258E+03
       121  25  2.754320E+05  9.209100E+04  2.811933E+04  1.243475E+05  4.593266E+03 -7.647666E+03
       121  26  2.967161E+05  1.097381E+05  4.223693E+04  1.329620E+05  1.904869E+04 -1.299904E+03
       121  27  3.210982E+05  1.437503E+05  7.076634E+04  1.429542E+05  3.188370E+04  9.362228E+03
       122   1 -1.307094E+05 -6.700641E+05 -1.538228E+05  3.432248E+04 -1.400529E+03 -6.800618E+04
       122   2 -2.868489E+04 -6.245312E+05 -8.994771E+04  3.964470E+03 -3.984140E+03 -4.189019E+04
       122   3 -3.535387E+04 -6.094189E+05 -7.023035E+04  9.969965E+03 -2.733470E+03 -1.576965E+04
       122   4 -7.832333E+04 -4.605756E+05 -1.017045E+05  1.768947E+04 -1.399976E+03 -6.662452E+04
       122   5  1.595365E+04 -4.454647E+05 -4.596736E+04 -4.558217E+02 -3.983924E+03 -4.169653E+04
       122   6  1.760256E+03 -4.605596E+05 -3.355211E+04  1.776279E+04 -2.733048E+03 -1.676531E+04
       122   7 -2.593952E+04 -2.510466E+05 -4.958932E+04  1.050853E+03 -1.399497E+03 -6.524240E+04
       122   8  6.058988E+04 -2.663690E+05 -1.989366E+03 -4.877386E+03 -3.983710E+03 -4.150281E+04
       122   9  3.887297E+04 -3.116800E+05  3.124523E+03  2.555750E+04 -2.732650E+03 -1.776122E+04
       122  10 -1.307107E+05 -6.700691E+05 -1.538315E+05  3.432240E+04 -1.629708E-10  3.635526E-09
       122  11 -2.868538E+04 -6.245331E+05 -8.995104E+04  3.964336E+03  1.207277E-09  2.544108E-09
       122  12 -3.535395E+04 -6.094192E+05 -7.023083E+04  9.969931E+03  1.481556E-09  1.015702E-10
       122  13 -7.832452E+04 -4.605803E+05 -1.017129E+05  1.768940E+04 -2.644948E-09  2.950793E-10
       122  14  1.595317E+04 -4.454666E+05 -4.597066E+04 -4.559555E+02  1.825923E-09  4.123723E-09
       122  15  1.760173E+03 -4.605599E+05 -3.355265E+04  1.776276E+04 -2.225928E-11 -5.773106E-10
       122  16 -2.594066E+04 -2.510511E+05 -4.959732E+04  1.050779E+03 -1.607399E-10 -1.932329E-09
       122  17  6.058940E+04 -2.663709E+05 -1.992634E+03 -4.877519E+03 -2.019337E-10 -2.557034E-09
       122  18  3.887287E+04 -3.116803E+05  3.123916E+03  2.555746E+04 -1.489649E-09  1.451107E-10
       122  19 -1.307094E+05 -6.700641E+05 -1.538228E+05  3.432248E+04  1.400529E+03  6.800618E+04
       122  20 -2.868489E+04 -6.245312E+05 -8.994771E+04  3.964470E+03  3.984140E+03  4.189019E+04
       122  21 -3.535387E+04 -6.094189E+05 -7.023035E+04  9.969965E+03  2.733470E+03  1.576965E+04
       122  22 -7.832333E+04 -4.605756E+05 -1.017045E+05  1.768947E+04  1.399976E+03  6.662452E+04
       122  23  1.595365E+04 -4.454647E+05 -4.596736E+04 -4.558217E+02  3.983924E+03  4.169653E+04
       122  24  1.760256E+03 -4.605596E+05 -3.355211E+04  1.776279E+04  2.733048E+03  1.676531E+04
       122  25 -2.593952E+04 -2.510466E+05 -4.958932E+04  1.050853E+03  1.399497E+03  6.524240E+04
       122  26  6.058988E+04 -2.663690E+05 -1.989366E+03 -4.877386E+03  3.983710E+03  4.150281E+04
       122  27  3.887297E+04 -3.116800E+05  3.124523E+03  2.555750E+04  2.732650E+03  1.776122E+04
       123   1 -2.748397E+04 -5.259193E+05 -4.745936E+04  2.108785E+04 -1.477016E+03 -1.091557E+04
       123   2 -5.417354E+03 -4.907175E+05 -3.297832E+04 -6.403590E+02 -8.039682E+02  1.243755E+03
       123   3 -1.313038E+04 -4.644940E+05 -3.385243E+04  1.460140E+04  1.320512E+01  1.340364E+04
       123   4 -1.001032E+04 -4.558393E+05 -3.022981E+04  1.787318E+04 -1.476850E+03 -1.110567E+04
       123   5  4.395984E+03 -4.513540E+05 -2.329537E+04 -6.117061E+02 -8.038484E+02  1.009631E+03
       123   6 -1.096861E+04 -4.558397E+05 -3.168460E+04  1.787338E+04  1.339972E+01  1.312490E+04
       123   7  7.462993E+03 -3.857548E+05 -1.300062E+04  1.465815E+04 -1.476683E+03 -1.129579E+04
       123   8  1.420921E+04 -4.119891E+05 -1.361255E+04 -5.830512E+02 -8.037286E+02  7.754909E+02
       123   9 -8.806805E+03 -4.471853E+05 -2.951678E+04  2.114542E+04  1.359138E+01  1.284615E+04
       123  10 -2.748400E+04 -5.259194E+05 -4.745959E+04  2.108784E+04  1.232054E-09  1.192095E-09
       123  11 -5.417355E+03 -4.907175E+05 -3.297832E+04 -6.403582E+02  3.175467E-09  4.049730E-10
       123  12 -1.313043E+04 -4.644942E+05 -3.385277E+04  1.460140E+04 -5.425972E-10 -6.649302E-10
       123  13 -1.001036E+04 -4.558394E+05 -3.023005E+04  1.787317E+04  1.280819E-09  2.705015E-10
       123  14  4.395983E+03 -4.513540E+05 -2.329538E+04 -6.117054E+02 -8.031802E-10  2.390679E-09
       123  15 -1.096866E+04 -4.558399E+05 -3.168493E+04  1.787338E+04 -2.682282E-09 -8.082127E-10
       123  16  7.462957E+03 -3.857549E+05 -1.300086E+04  1.465814E+04  1.756909E-09 -4.728075E-11
       123  17  1.420921E+04 -4.119891E+05 -1.361255E+04 -5.830507E+02 -2.023457E-11 -8.576671E-10
       123  18 -8.806849E+03 -4.471855E+05 -2.951709E+04  2.114542E+04 -2.765101E-09  1.358906E-09
       123  19 -2.748397E+04 -5.259193E+05 -4.745936E+04  2.108785E+04  1.477016E+03  1.091557E+04
       123  20 -5.417354E+03 -4.907175E+05 -3.297832E+04 -6.403590E+02  8.039682E+02 -1.243755E+03
       123  21 -1.313038E+04 -4.644940E+05 -3.385243E+04  1.460140E+04 -1.320512E+01 -1.340364E+04
       123  22 -1.001032E+04 -4.558393E+05 -3.022981E+04  1.787318E+04  1.476850E+03  1.110567E+04
       123  23  4.395984E+03 -4.513540E+05 -2.329537E+04 -6.117061E+02  8.038484E+02 -1.009631E+03
       123  24 -1.096861E+04 -4.558397E+05 -3.168460E+04  1.787338E+04 -1.339972E+01 -1.312490E+04
       123  25  7.462993E+03 -3.857548E+05 -1.300062E+04  1.465815E+04  1.476683E+03  1.129579E+04
       123  26  1.420921E+04 -4.119891E+05 -1.361255E+04 -5.830512E+02  8.037286E+02 -7.754909E+02
       123  27 -8.806805E+03 -4.471853E+05 -2.951678E+04  2.114542E+04 -1.359138E+01 -1.284615E+04
       124   1  1.975514E+04 -3.906431E+05 -1.818350E+04  2.633382E+04  1.114093E+03  1.987315E+04
       124   2  4.250898E+04 -3.436847E+05 -2.482508E+04 -5.310508E+03  2.290137E+03  4.599270E+04
       124   3 -5.233996E+04 -3.294466E+05 -7.785861E+04 -2.045286E+02  8.522198E+02  7.211195E+04
       124   4  2.176259E+03 -4.611474E+05 -3.558795E+04  1.784427E+04  1.114189E+03  1.909293E+04
       124   5  1.732625E+04 -4.447218E+05 -4.962654E+04 -5.598689E+02  2.290492E+03  4.602346E+04
       124   6 -8.527858E+04 -4.611650E+05 -1.106267E+05  1.778680E+04  8.537622E+02  7.295235E+04
       124   7 -1.540272E+04 -5.316470E+05 -5.299273E+04  9.355684E+03  1.114306E+03  1.831279E+04
       124   8 -7.857154E+03 -5.457496E+05 -7.442874E+04  4.189997E+03  2.290848E+03  4.605420E+04
       124   9 -1.182173E+05 -5.928670E+05 -1.433959E+05  3.577431E+04  8.553537E+02  7.379258E+04
       124  10  1.975503E+04 -3.906436E+05 -1.818425E+04  2.633380E+04 -1.870941E-09  1.527765E-09
       124  11  4.250840E+04 -3.436870E+05 -2.482907E+04 -5.310593E+03 -1.705689E-09  1.672715E-09
       124  12 -5.234136E+04 -3.294522E+05 -7.786839E+04 -2.045781E+02 -3.156864E-12  7.952242E-10
       124  13  2.176159E+03 -4.611478E+05 -3.558864E+04  1.784425E+04 -1.124086E-09 -7.606727E-10
       124  14  1.732567E+04 -4.447241E+05 -4.963054E+04 -5.599538E+02 -7.458774E-10  2.681370E-09
       124  15 -8.528001E+04 -4.611708E+05 -1.106367E+05  1.778675E+04 -6.589487E-10 -2.876925E-10
       124  16 -1.540281E+04 -5.316474E+05 -5.299337E+04  9.355667E+03 -4.727990E-09 -9.579678E-10
       124  17 -7.857730E+03 -5.457519E+05 -7.443274E+04  4.189912E+03 -3.998360E-10 -1.725114E-09
       124  18 -1.182188E+05 -5.928728E+05 -1.434061E+05  3.577426E+04  7.131657E-11 -8.638870E-10
       124  19  1.975514E+04 -3.906431E+05 -1.818350E+04  2.633382E+04 -1.114093E+03 -1.987315E+04
       124  20  4.250898E+04 -3.436847E+05 -2.482508E+04 -5.310508E+03 -2.290137E+03 -4.599270E+04
       124  21 -5.233996E+04 -3.294466E+05 -7.785861E+04 -2.045286E+02 -8.522198E+02 -7.211195E+04
       124  22  2.176259E+03 -4.611474E+05 -3.558795E+04  1.784427E+04 -1.114189E+03 -1.909293E+04
       124  23  1.732625E+04 -4.447218E+05 -4.962654E+04 -5.598689E+02 -2.290492E+03 -4.602346E+04
       124  24 -8.527858E+04 -4.611650E+05 -1.106267E+05  1.778680E+04 -8.537622E+02 -7.295235E+04
       124  25 -1.540272E+04 -5.316470E+05 -5.299273E+04  9.355684E+03 -1.114306E+03 -1.831279E+04
       124  26 -7.857154E+03 -5.457496E+05 -7.442874E+04  4.189997E+03 -2.290848E+03 -4.605420E+04
       124  27 -1.182173E+05 -5.928670E+05 -1.433959E+05  3.577431E+04 -8.553537E+02 -7.379258E+04
       125   1  2.075687E+05  6.910056E+04  4.347146E+04  7.613658E+04  2.374583E+04  8.639093E+03
       125   2  1.998299E+05  3.196122E+04  2.072826E+04  7.799129E+04  1.524112E+04  4.906638E+03
       125   3  2.031796E+05  3.037484E+04  1.350258E+04  7.413762E+04  6.492822E+03  1.821914E+03
       125   4  1.882787E+05  5.364670E+04  3.661497E+04  6.248568E+04  2.335432E+04  8.491424E+03
       125   5  1.808682E+05  2.248141E+04  1.529651E+04  7.038900E+04  1.517008E+04  4.879843E+03
       125   6  1.844831E+05  2.680605E+04  9.242137E+03  7.258387E+04  6.742199E+03  1.915774E+03
       125   7  1.689893E+05  3.819357E+04  2.975853E+04  4.883542E+04  2.296283E+04  8.343775E+03
       125   8  1.619068E+05  1.300174E+04  9.864753E+03  6.278697E+04  1.509905E+04  4.853050E+03
       125   9  1.657870E+05  2.323723E+04  4.981662E+03  7.103012E+04  6.991569E+03  2.009635E+03
       125  10  2.075681E+05  6.910033E+04  4.347027E+04  7.613642E+04  6.480516E-09  4.106453E-09
       125  11  1.998296E+05  3.196113E+04  2.072777E+04  7.799123E+04  4.299591E-09  1.964518E-09
       125  12  2.031796E+05  3.037483E+04  1.350249E+04  7.413761E+04 -4.554765E-09  2.004062E-09
       125  13  1.882781E+05  5.364648E+04  3.661381E+04  6.248552E+04 -1.056835E-09 -1.836836E-09
       125  14  1.808679E+05  2.248132E+04  1.529604E+04  7.038894E+04  1.617311E-09 -2.836304E-09
       125  15  1.844831E+05  2.680603E+04  9.242045E+03  7.258386E+04  2.655792E-09 -9.649389E-11
       125  16  1.689887E+05  3.819336E+04  2.975741E+04  4.883526E+04 -2.882965E-09 -1.069248E-09
       125  17  1.619066E+05  1.300165E+04  9.864280E+03  6.278691E+04  3.120575E-09  2.704137E-09
       125  18  1.657869E+05  2.323722E+04  4.981563E+03  7.103011E+04  7.298449E-09  1.613343E-09
       125  19  2.075687E+05  6.910056E+04  4.347146E+04  7.613658E+04 -2.374583E+04 -8.639093E+03
       125  20  1.998299E+05  3.196122E+04  2.072826E+04  7.799129E+04 -1.524112E+04 -4.906638E+03
       125  21  2.031796E+05  3.037484E+04  1.350258E+04  7.413762E+04 -6.492822E+03 -1.821914E+03
       125  22  1.882787E+05  5.364670E+04  3.661497E+04  6.248568E+04 -2.335432E+04 -8.491424E+03
       125  23  1.808682E+05  2.248141E+04  1.529651E+04  7.038900E+04 -1.517008E+04 -4.879843E+03
       125  24  1.844831E+05  2.680605E+04  9.242137E+03  7.258387E+04 -6.742199E+03 -1.915774E+03
       125  25  1.689893E+05  3.819357E+04  2.975853E+04  4.883542E+04 -2.296283E+04 -8.343775E+03
       125  26  1.619068E+05  1.300174E+04  9.864753E+03  6.278697E+04 -1.509905E+04 -4.853050E+03
       125  27  1.657870E+05  2.323723E+04  4.981662E+03  7.103012E+04 -6.991569E+03 -2.009635E+03
       126   1  1.926894E+05  3.490719E+04  1.013912E+04  7.379579E+04  5.294574E+03  1.608739E+03
       126   2  1.888718E+05  2.833432E+04  5.054600E+03  7.162692E+04  3.335939E+03  1.041184E+03
       126   3  1.841466E+05  2.781207E+04  2.355366E+03  7.142953E+04  1.358698E+03  5.231800E+02
       126   4  1.832895E+05  3.057856E+04  7.512297E+03  7.040961E+04  5.355626E+03  1.631699E+03
       126   5  1.835439E+05  2.612778E+04  3.614035E+03  6.996117E+04  3.421513E+03  1.073376E+03
       126   6  1.828857E+05  2.772275E+04  2.081658E+03  7.148419E+04  1.468784E+03  5.645974E+02
       126   7  1.738897E+05  2.624996E+04  4.885467E+03  6.702347E+04  5.416677E+03  1.654658E+03
       126   8  1.782159E+05  2.392124E+04  2.173470E+03  6.829543E+04  3.507087E+03  1.105569E+03
       126   9  1.816248E+05  2.763342E+04  1.807951E+03  7.153884E+04  1.578869E+03  6.060146E+02
       126  10  1.926894E+05  3.490718E+04  1.013906E+04  7.379578E+04 -2.269657E-09  1.614705E-09
       126  11  1.888718E+05  2.833432E+04  5.054577E+03  7.162692E+04  2.714506E-10 -4.319466E-10
       126  12  1.841466E+05  2.781207E+04  2.355362E+03  7.142953E+04  1.349442E-09  1.423723E-09
       126  13  1.832895E+05  3.057855E+04  7.512238E+03  7.040960E+04  6.752308E-10  1.903897E-09
       126  14  1.835439E+05  2.612777E+04  3.614011E+03  6.996117E+04 -5.812088E-11 -3.737842E-09
       126  15  1.828857E+05  2.772274E+04  2.081653E+03  7.148418E+04 -2.189871E-09  1.307643E-10
       126  16  1.738896E+05  2.624995E+04  4.885407E+03  6.702346E+04  1.147876E-09 -7.063555E-10
       126  17  1.782159E+05  2.392123E+04  2.173445E+03  6.829543E+04  1.510735E-09 -4.339757E-10
       126  18  1.816248E+05  2.763342E+04  1.807946E+03  7.153884E+04 -5.497579E-10  1.916477E-09
       126  19  1.926894E+05  3.490719E+04  1.013912E+04  7.379579E+04 -5.294574E+03 -1.608739E+03
       126  20  1.888718E+05  2.833432E+04  5.054600E+03  7.162692E+04 -3.335939E+03 -1.041184E+03
       126  21  1.841466E+05  2.781207E+04  2.355366E+03  7.142953E+04 -1.358698E+03 -5.231800E+02
       126  22  1.832895E+05  3.057856E+04  7.512297E+03  7.040961E+04 -5.355626E+03 -1.631699E+03
       126  23  1.835439E+05  2.612778E+04  3.614035E+03  6.996117E+04 -3.421513E+03 -1.073376E+03
       126  24  1.828857E+05  2.772275E+04  2.081658E+03  7.148419E+04 -1.468784E+03 -5.645974E+02
       126  25  1.738897E+05  2.624996E+04  4.885467E+03  6.702347E+04 -5.416677E+03 -1.654658E+03
       126  26  1.782159E+05  2.392124E+04  2.173470E+03  6.829543E+04 -3.507087E+03 -1.105569E+03
       126  27  1.816248E+05  2.763342E+04  1.807951E+03  7.153884E+04 -1.578869E+03 -6.060146E+02
       127   1  1.774695E+05  2.619944E+04  2.357889E+02  6.987597E+04  1.027465E+03  5.389968E+02
       127   2  1.741345E+05  2.288294E+04 -1.708319E+03  6.727449E+04  5.208668E+02  5.715276E+02
       127   3  1.685077E+05  2.244122E+04 -3.227068E+03  6.743349E+04  1.278852E+01  6.079958E+02
       127   4  1.827344E+05  2.811576E+04  1.624683E+03  7.124651E+04  1.123156E+03  5.749968E+02
       127   5  1.838594E+05  2.652903E+04  8.493803E+02  6.992252E+04  6.185019E+02  6.082584E+02
       127   6  1.826922E+05  2.781672E+04  4.979212E+02  7.135904E+04  1.123656E+02  6.454562E+02
       127   7  1.879994E+05  3.003209E+04  3.013580E+03  7.261706E+04  1.218848E+03  6.109974E+02
       127   8  1.935843E+05  3.017512E+04  3.407075E+03  7.257059E+04  7.161389E+02  6.449899E+02
       127   9  1.968768E+05  3.319223E+04  4.222893E+03  7.528466E+04  2.119451E+02  6.829175E+02
       127  10  1.774695E+05  2.619944E+04  2.357864E+02  6.987597E+04 -2.345719E-09  3.087649E-10
       127  11  1.741345E+05  2.288294E+04 -1.708320E+03  6.727449E+04  1.872642E-09  3.008412E-09
       127  12  1.685077E+05  2.244122E+04 -3.227068E+03  6.743349E+04  2.120843E-09  1.053143E-09
       127  13  1.827344E+05  2.811576E+04  1.624680E+03  7.124651E+04 -9.614928E-10  9.766765E-10
       127  14  1.838594E+05  2.652903E+04  8.493789E+02  6.992252E+04  1.167407E-09  6.049596E-10
       127  15  1.826922E+05  2.781672E+04  4.979204E+02  7.135904E+04  3.112496E-09  4.863105E-11
       127  16  1.879994E+05  3.003209E+04  3.013576E+03  7.261706E+04  4.892730E-10 -8.468635E-11
       127  17  1.935843E+05  3.017512E+04  3.407074E+03  7.257059E+04 -5.700537E-10 -7.101843E-10
       127  18  1.968768E+05  3.319223E+04  4.222892E+03  7.528466E+04  1.567017E-09  9.554467E-10
       127  19  1.774695E+05  2.619944E+04  2.357889E+02  6.987597E+04 -1.027465E+03 -5.389968E+02
       127  20  1.741345E+05  2.288294E+04 -1.708319E+03  6.727449E+04 -5.208668E+02 -5.715276E+02
       127  21  1.685077E+05  2.244122E+04 -3.227068E+03  6.743349E+04 -1.278852E+01 -6.079958E+02
       127  22  1.827344E+05  2.811576E+04  1.624683E+03  7.124651E+04 -1.123156E+03 -5.749968E+02
       127  23  1.838594E+05  2.652903E+04  8.493803E+02  6.992252E+04 -6.185019E+02 -6.082584E+02
       127  24  1.826922E+05  2.781672E+04  4.979212E+02  7.135904E+04 -1.123656E+02 -6.454562E+02
       127  25  1.879994E+05  3.003209E+04  3.013580E+03  7.261706E+04 -1.218848E+03 -6.109974E+02
       127  26  1.935843E+05  3.017512E+04  3.407075E+03  7.257059E+04 -7.161389E+02 -6.449899E+02
       127  27  1.968768E+05  3.319223E+04  4.222893E+03  7.528466E+04 -2.119451E+02 -6.829175E+02
       128   1  1.622443E+05  2.017810E+04 -4.995742E+03  6.575588E+04 -1.036339E+02  6.974535E+02
       128   2  1.589604E+05  1.719240E+04 -6.301473E+03  6.309786E+04 -3.109699E+02  8.473573E+02
       128   3  1.532126E+05  1.675556E+04 -7.495922E+03  6.328693E+04 -5.185350E+02  9.979168E+02
       128   4  1.826700E+05  2.785769E+04  3.968565E+02  7.133561E+04 -5.064104E+00  7.345333E+02
       128   5  1.839001E+05  2.657032E+04  2.630023E+02  6.991695E+04 -2.120818E+02  8.845535E+02
       128   6  1.826662E+05  2.783172E+04  2.401815E+02  7.134535E+04 -4.193303E+02  1.035229E+03
       128   7  2.030960E+05  3.553728E+04  5.789403E+03  7.691549E+04  9.350902E+01  7.716144E+02
       128   8  2.088404E+05  3.594827E+04  6.827424E+03  7.673629E+04 -1.131894E+02  9.217513E+02
       128   9  2.121208E+05  3.890797E+04  7.976233E+03  7.940413E+04 -3.201201E+02  1.072544E+03
       128  10  1.622443E+05  2.017810E+04 -4.995743E+03  6.575588E+04 -2.826688E-10 -1.056030E-09
       128  11  1.589604E+05  1.719240E+04 -6.301474E+03  6.309786E+04  1.532709E-09 -1.631878E-09
       128  12  1.532125E+05  1.675556E+04 -7.495924E+03  6.328693E+04  1.702659E-09 -3.724304E-09
       128  13  1.826700E+05  2.785769E+04  3.968555E+02  7.133561E+04  2.471733E-09 -6.831641E-10
       128  14  1.839001E+05  2.657032E+04  2.630008E+02  6.991695E+04  3.058382E-09 -2.100756E-09
       128  15  1.826662E+05  2.783172E+04  2.401792E+02  7.134535E+04 -1.578886E-09 -4.955061E-09
       128  16  2.030960E+05  3.553728E+04  5.789402E+03  7.691549E+04  1.512958E-09  7.244426E-10
       128  17  2.088404E+05  3.594827E+04  6.827423E+03  7.673629E+04  8.565794E-10  3.881436E-10
       128  18  2.121208E+05  3.890797E+04  7.976231E+03  7.940413E+04 -4.109215E-09 -3.060377E-09
       128  19  1.622443E+05  2.017810E+04 -4.995742E+03  6.575588E+04  1.036339E+02 -6.974535E+02
       128  20  1.589604E+05  1.719240E+04 -6.301473E+03  6.309786E+04  3.109699E+02 -8.473573E+02
       128  21  1.532126E+05  1.675556E+04 -7.495922E+03  6.328693E+04  5.185350E+02 -9.979168E+02
       128  22  1.826700E+05  2.785769E+04  3.968565E+02  7.133561E+04  5.064104E+00 -7.345333E+02
       128  23  1.839001E+05  2.657032E+04  2.630023E+02  6.991695E+04  2.120818E+02 -8.845535E+02
       128  24  1.826662E+05  2.783172E+04  2.401815E+02  7.134535E+04  4.193303E+02 -1.035229E+03
       128  25  2.030960E+05  3.553728E+04  5.789403E+03  7.691549E+04 -9.350902E+01 -7.716144E+02
       128  26  2.088404E+05  3.594827E+04  6.827424E+03  7.673629E+04  1.131894E+02 -9.217513E+02
       128  27  2.121208E+05  3.890797E+04  7.976233E+03  7.940413E+04  3.201201E+02 -1.072544E+03
       129   1  1.469642E+05  1.441534E+04 -9.154236E+03  6.160128E+04 -6.040795E+02  1.099257E+03
       129   2  1.436569E+05  1.143297E+04 -1.022779E+04  5.891198E+04 -8.623791E+02  1.231642E+03
       129   3  1.378874E+05  1.104138E+04 -1.114536E+04  5.908539E+04 -1.120565E+03  1.363803E+03
       129   4  1.826654E+05  2.783323E+04  2.582221E+02  7.135172E+04 -5.045865E+02  1.136675E+03
       129   5  1.838999E+05  2.656161E+04  3.640855E+02  6.991143E+04 -7.630126E+02  1.269007E+03
       129   6  1.826721E+05  2.788077E+04  6.260142E+02  7.133382E+04 -1.021326E+03  1.401115E+03
       129   7  2.183679E+05  4.125119E+04  9.670570E+03  8.110268E+04 -4.050872E+02  1.174095E+03
       129   8  2.241443E+05  4.169032E+04  1.095581E+04  8.091150E+04 -6.636392E+02  1.306375E+03
       129   9  2.274586E+05  4.472023E+04  1.239719E+04  8.358301E+04 -9.220799E+02  1.438430E+03
       129  10  1.469642E+05  1.441534E+04 -9.154239E+03  6.160128E+04 -1.883807E-09 -1.083835E-09
       129  11  1.436569E+05  1.143297E+04 -1.022779E+04  5.891198E+04 -3.593743E-10  1.048254E-09
       129  12  1.378874E+05  1.104138E+04 -1.114537E+04  5.908539E+04  2.310057E-09 -4.118984E-11
       129  13  1.826654E+05  2.783322E+04  2.582192E+02  7.135172E+04  1.740928E-09 -1.132834E-09
       129  14  1.838999E+05  2.656161E+04  3.640814E+02  6.991143E+04  2.065372E-09  4.448645E-09
       129  15  1.826721E+05  2.788077E+04  6.260085E+02  7.133382E+04  3.197221E-09  1.868976E-09
       129  16  2.183679E+05  4.125119E+04  9.670567E+03  8.110268E+04  8.657889E-10 -2.483093E-09
       129  17  2.241443E+05  4.169032E+04  1.095580E+04  8.091150E+04  2.723239E-09 -1.082621E-10
       129  18  2.274586E+05  4.472023E+04  1.239718E+04  8.358301E+04  1.388109E-09 -3.712145E-10
       129  19  1.469642E+05  1.441534E+04 -9.154236E+03  6.160128E+04  6.040795E+02 -1.099257E+03
       129  20  1.436569E+05  1.143297E+04 -1.022779E+04  5.891198E+04  8.623791E+02 -1.231642E+03
       129  21  1.378874E+05  1.104138E+04 -1.114536E+04  5.908539E+04  1.120565E+03 -1.363803E+03
       129  22  1.826654E+05  2.783323E+04  2.582221E+02  7.135172E+04  5.045865E+02 -1.136675E+03
       129  23  1.838999E+05  2.656161E+04  3.640855E+02  6.991143E+04  7.630126E+02 -1.269007E+03
       129  24  1.826721E+05  2.788077E+04  6.260142E+02  7.133382E+04  1.021326E+03 -1.401115E+03
       129  25  2.183679E+05  4.125119E+04  9.670570E+03  8.110268E+04  4.050872E+02 -1.174095E+03
       129  26  2.241443E+05  4.169032E+04  1.095581E+04  8.091150E+04  6.636392E+02 -1.306375E+03
       129  27  2.274586E+05  4.472023E+04  1.239719E+04  8.358301E+04  9.220799E+02 -1.438430E+03
       130   1  1.315673E+05  8.669124E+03 -1.265344E+04  5.748603E+04 -1.287204E+03  1.437650E+03
       130   2  1.281795E+05  5.537790E+03 -1.323648E+04  5.467747E+04 -2.076561E+03  1.372154E+03
       130   3  1.225894E+05  5.592794E+03 -1.311419E+04  5.463206E+04 -2.861463E+03  1.294865E+03
       130   4  1.827026E+05  2.782040E+04  8.080271E+02  7.138416E+04 -1.184099E+03  1.476412E+03
       130   5  1.838387E+05  2.647873E+04  1.416096E+03  6.990775E+04 -1.979351E+03  1.408692E+03
       130   6  1.827737E+05  2.832458E+04  2.734143E+03  7.119452E+04 -2.770152E+03  1.329178E+03
       130   7  2.338405E+05  4.697188E+04  1.426931E+04  8.528337E+04 -1.080985E+03  1.515177E+03
       130   8  2.395009E+05  4.741990E+04  1.606843E+04  8.513928E+04 -1.882131E+03  1.445234E+03
       130   9  2.429615E+05  5.105660E+04  1.858217E+04  8.775842E+04 -2.678832E+03  1.363495E+03
       130  10  1.315673E+05  8.669122E+03 -1.265345E+04  5.748603E+04  1.045151E-09  3.683157E-10
       130  11  1.281795E+05  5.537787E+03 -1.323649E+04  5.467747E+04  1.624519E-09  3.523236E-09
       130  12  1.225894E+05  5.592790E+03 -1.311421E+04  5.463206E+04  3.954438E-09  4.414695E-09
       130  13  1.827026E+05  2.782040E+04  8.080204E+02  7.138417E+04  1.363147E-10 -1.504287E-09
       130  14  1.838387E+05  2.647873E+04  1.416085E+03  6.990775E+04  3.282793E-09  2.187313E-09
       130  15  1.827737E+05  2.832457E+04  2.734125E+03  7.119452E+04  8.600803E-10  5.162859E-09
       130  16  2.338405E+05  4.697188E+04  1.426931E+04  8.528337E+04  3.565065E-10 -5.998069E-10
       130  17  2.395009E+05  4.741990E+04  1.606842E+04  8.513928E+04 -7.292591E-09  1.134464E-09
       130  18  2.429615E+05  5.105659E+04  1.858215E+04  8.775843E+04 -1.306374E-09 -1.541221E-09
       130  19  1.315673E+05  8.669124E+03 -1.265344E+04  5.748603E+04  1.287204E+03 -1.437650E+03
       130  20  1.281795E+05  5.537790E+03 -1.323648E+04  5.467747E+04  2.076561E+03 -1.372154E+03
       130  21  1.225894E+05  5.592794E+03 -1.311419E+04  5.463206E+04  2.861463E+03 -1.294865E+03
       130  22  1.827026E+05  2.782040E+04  8.080271E+02  7.138416E+04  1.184099E+03 -1.476412E+03
       130  23  1.838387E+05  2.647873E+04  1.416096E+03  6.990775E+04  1.979351E+03 -1.408692E+03
       130  24  1.827737E+05  2.832458E+04  2.734143E+03  7.119452E+04  2.770152E+03 -1.329178E+03
       130  25  2.338405E+05  4.697188E+04  1.426931E+04  8.528337E+04  1.080985E+03 -1.515177E+03
       130  26  2.395009E+05  4.741990E+04  1.606843E+04  8.513928E+04  1.882131E+03 -1.445234E+03
       130  27  2.429615E+05  5.105660E+04  1.858217E+04  8.775842E+04  2.678832E+03 -1.363495E+03
       131   1  1.159207E+05  3.098390E+03 -1.404026E+04  5.394201E+04 -3.468059E+03  1.229800E+03
       131   2  1.122879E+05 -1.245448E+03 -1.265663E+04  5.020382E+04 -6.631966E+03  2.696125E+02
       131   3  1.087396E+05  2.974474E+03 -7.341140E+03  4.793782E+04 -9.733727E+03 -8.557932E+02
       131   4  1.830231E+05  2.766856E+04  3.508811E+03  7.160457E+04 -3.328098E+03  1.282401E+03
       131   5  1.833130E+05  2.579052E+04  6.099291E+03  6.996185E+04 -6.574056E+03  2.913528E+02
       131   6  1.837036E+05  3.249196E+04  1.268627E+04  6.979127E+04 -9.757902E+03 -8.649281E+02
       131   7  2.501296E+05  5.223888E+04  2.105745E+04  8.926878E+04 -3.188121E+03  1.335008E+03
       131   8  2.543430E+05  5.282683E+04  2.485478E+04  8.972193E+04 -6.516139E+03  3.130960E+02
       131   9  2.586731E+05  6.201002E+04  3.271325E+04  9.164722E+04 -9.782081E+03 -8.740643E+02
       131  10  1.159207E+05  3.098385E+03 -1.404028E+04  5.394201E+04 -3.130594E-09 -2.356840E-10
       131  11  1.122878E+05 -1.245460E+03 -1.265671E+04  5.020383E+04 -3.296370E-09 -1.982568E-09
       131  12  1.087395E+05  2.974447E+03 -7.341319E+03  4.793781E+04 -1.018549E-09 -5.319557E-10
       131  13  1.830231E+05  2.766855E+04  3.508787E+03  7.160458E+04  2.110808E-09  4.009553E-09
       131  14  1.833130E+05  2.579051E+04  6.099210E+03  6.996186E+04  1.491469E-09  4.743102E-09
       131  15  1.837035E+05  3.249194E+04  1.268609E+04  6.979127E+04 -5.282830E-10 -3.219575E-09
       131  16  2.501296E+05  5.223887E+04  2.105743E+04  8.926879E+04  9.541724E-09  2.579233E-09
       131  17  2.543430E+05  5.282681E+04  2.485470E+04  8.972193E+04  4.910832E-09 -3.939463E-10
       131  18  2.586730E+05  6.201000E+04  3.271307E+04  9.164721E+04 -3.478199E-10 -5.594053E-10
       131  19  1.159207E+05  3.098390E+03 -1.404026E+04  5.394201E+04  3.468059E+03 -1.229800E+03
       131  20  1.122879E+05 -1.245448E+03 -1.265663E+04  5.020382E+04  6.631966E+03 -2.696125E+02
       131  21  1.087396E+05  2.974474E+03 -7.341140E+03  4.793782E+04  9.733727E+03  8.557932E+02
       131  22  1.830231E+05  2.766856E+04  3.508811E+03  7.160457E+04  3.328098E+03 -1.282401E+03
       131  23  1.833130E+05  2.579052E+04  6.099291E+03  6.996185E+04  6.574056E+03 -2.913528E+02
       131  24  1.837036E+05  3.249196E+04  1.268627E+04  6.979127E+04  9.757902E+03  8.649281E+02
       131  25  2.501296E+05  5.223888E+04  2.105745E+04  8.926878E+04  3.188121E+03 -1.335008E+03
       131  26  2.543430E+05  5.282683E+04  2.485478E+04  8.972193E+04  6.516139E+03 -3.130960E+02
       131  27  2.586731E+05  6.201002E+04  3.271325E+04  9.164722E+04  9.782081E+03  8.740643E+02
       132   1  9.907657E+04 -5.925977E+02 -6.041829E+03  5.580297E+04 -1.273795E+04 -1.494153E+03
       132   2  9.462224E+04 -1.596053E+04  2.953828E+03  4.360758E+04 -2.583691E+04 -6.249538E+03
       132   3  1.102062E+05  2.679742E+04  3.688357E+04  1.993786E+04 -3.811926E+04 -1.317802E+04
       132   4  1.857212E+05  2.612033E+04  1.560897E+04  7.346315E+04 -1.212946E+04 -1.265373E+03
       132   5  1.787952E+05  1.962759E+04  2.583430E+04  7.068064E+04 -2.630497E+04 -6.425639E+03
       132   6  1.921173E+05  7.146864E+04  6.184382E+04  5.642491E+04 -3.966383E+04 -1.375931E+04
       132   7  2.723732E+05  5.283325E+04  3.725925E+04  9.112532E+04 -1.152087E+04 -1.036572E+03
       132   8  2.629747E+05  5.521653E+04  4.871402E+04  9.775707E+04 -2.677311E+04 -6.601773E+03
       132   9  2.740345E+05  1.161423E+05  8.680316E+04  9.291662E+04 -4.120861E+04 -1.434077E+04
       132  10  9.907639E+04 -5.926436E+02 -6.042138E+03  5.580295E+04 -2.407047E-09  1.939810E-09
       132  11  9.462152E+04 -1.596075E+04  2.952501E+03  4.360745E+04 -9.434718E-10 -1.116492E-09
       132  12  1.102046E+05  2.679684E+04  3.688052E+04  1.993746E+04  1.764393E-09  9.584041E-10
       132  13  1.857210E+05  2.612029E+04  1.560869E+04  7.346314E+04  1.715066E-09 -1.779012E-09
       132  14  1.787945E+05  1.962736E+04  2.583292E+04  7.068050E+04  2.007178E-09  1.302853E-09
       132  15  1.921156E+05  7.146801E+04  6.184051E+04  5.642447E+04  1.721437E-09 -2.666694E-09
       132  16  2.723730E+05  5.283321E+04  3.725900E+04  9.112531E+04 -2.964751E-10 -1.763626E-09
       132  17  2.629739E+05  5.521629E+04  4.871259E+04  9.775693E+04 -3.188911E-09  1.035201E-09
       132  18  2.740326E+05  1.161416E+05  8.679958E+04  9.291614E+04 -3.307505E-09  1.487661E-09
       132  19  9.907657E+04 -5.925977E+02 -6.041829E+03  5.580297E+04  1.273795E+04  1.494153E+03
       132  20  9.462224E+04 -1.596053E+04  2.953828E+03  4.360758E+04  2.583691E+04  6.249538E+03
       132  21  1.102062E+05  2.679742E+04  3.688357E+04  1.993786E+04  3.811926E+04  1.317802E+04
       132  22  1.857212E+05  2.612033E+04  1.560897E+04  7.346315E+04  1.212946E+04  1.265373E+03
       132  23  1.787952E+05  1.962759E+04  2.583430E+04  7.068064E+04  2.630497E+04  6.425639E+03
       132  24  1.921173E+05  7.146864E+04  6.184382E+04  5.642491E+04  3.966383E+04  1.375931E+04
       132  25  2.723732E+05  5.283325E+04  3.725925E+04  9.112532E+04  1.152087E+04  1.036572E+03
       132  26  2.629747E+05  5.521653E+04  4.871402E+04  9.775707E+04  2.677311E+04  6.601773E+03
       132  27  2.740345E+05  1.161423E+05  8.680316E+04  9.291662E+04  4.120861E+04  1.434077E+04
       133   1 -4.145473E+01 -2.316628E+05 -9.106309E+02 -9.986450E+00 -9.813977E+00  7.420996E+01
       133   2 -9.054717E+01 -2.319094E+05 -1.182218E+03  4.970250E+01 -1.906397E+01  6.054210E+02
       133   3 -3.550174E+02 -2.322792E+05 -1.853638E+03 -6.973662E+01 -3.290705E+01  1.136637E+03
       133   4 -1.990258E+00 -2.315019E+05 -8.744981E+02 -3.978015E+01 -9.816418E+00  7.851997E+01
       133   5  2.524665E+01 -2.314400E+05 -1.072742E+03  4.973805E+01 -1.906809E+01  6.127068E+02
       133   6 -1.634097E+02 -2.315019E+05 -1.672886E+03 -3.987137E+01 -3.291279E+01  1.146899E+03
       133   7  3.747422E+01 -2.313409E+05 -8.383653E+02 -6.957386E+01 -9.818859E+00  8.282997E+01
       133   8  1.410405E+02 -2.309706E+05 -9.632667E+02  4.977360E+01 -1.907221E+01  6.199926E+02
       133   9  2.819797E+01 -2.307247E+05 -1.492133E+03 -1.000609E+01 -3.291853E+01  1.157161E+03
       133  10 -4.145473E+01 -2.316628E+05 -9.106309E+02 -9.986449E+00 -2.339775E-09 -7.563283E-09
       133  11 -9.054727E+01 -2.319094E+05 -1.182218E+03  4.970251E+01 -3.968469E-10 -8.845521E-09
       133  12 -3.550177E+02 -2.322792E+05 -1.853641E+03 -6.973659E+01 -5.715751E-12 -1.485357E-09
       133  13 -1.990260E+00 -2.315019E+05 -8.744981E+02 -3.978015E+01 -3.286485E-09  2.928610E-11
       133  14  2.524655E+01 -2.314400E+05 -1.072743E+03  4.973806E+01  1.656964E-09 -1.156108E-09
       133  15 -1.634100E+02 -2.315019E+05 -1.672888E+03 -3.987134E+01 -9.930139E-10 -7.560781E-10
       133  16  3.747422E+01 -2.313409E+05 -8.383653E+02 -6.957386E+01  8.700661E-10  8.106867E-09
       133  17  1.410403E+02 -2.309706E+05 -9.632674E+02  4.977361E+01  3.832311E-09  7.187697E-09
       133  18  2.819761E+01 -2.307247E+05 -1.492136E+03 -1.000605E+01  2.286491E-09  1.657365E-09
       133  19 -4.145473E+01 -2.316628E+05 -9.106309E+02 -9.986449E+00  9.813977E+00 -7.420996E+01
       133  20 -9.054717E+01 -2.319094E+05 -1.182218E+03  4.970250E+01  1.906397E+01 -6.054210E+02
       133  21 -3.550174E+02 -2.322792E+05 -1.853638E+03 -6.973662E+01  3.290705E+01 -1.136637E+03
       133  22 -1.990258E+00 -2.315019E+05 -8.744981E+02 -3.978015E+01  9.816418E+00 -7.851997E+01
       133  23  2.524665E+01 -2.314400E+05 -1.072742E+03  4.973805E+01  1.906809E+01 -6.127068E+02
       133  24 -1.634097E+02 -2.315019E+05 -1.672886E+03 -3.987137E+01  3.291279E+01 -1.146899E+03
       133  25  3.747422E+01 -2.313409E+05 -8.383653E+02 -6.957386E+01  9.818859E+00 -8.282997E+01
       133  26  1.410405E+02 -2.309706E+05 -9.632667E+02  4.977360E+01  1.907221E+01 -6.199926E+02
       133  27  2.819797E+01 -2.307247E+05 -1.492133E+03 -1.000609E+01  3.291853E+01 -1.157161E+03
       134   1 -1.589842E+02 -2.327541E+05 -2.350865E+03  2.863750E+02 -4.248701E+01  1.468997E+03
       134   2 -1.351858E+02 -2.326555E+05 -3.795669E+03 -1.173336E+02 -5.706717E+01  3.231465E+03
       134   3 -2.446825E+03 -2.333706E+05 -6.972136E+03 -7.006588E+02 -6.826004E+01  4.993931E+03
       134   4  1.127712E+02 -2.316551E+05 -2.093537E+03 -3.955860E+01 -4.249337E+01  1.478896E+03
       134   5  2.117156E+02 -2.312487E+05 -3.467222E+03  4.964728E+01 -5.707064E+01  3.239172E+03
       134   6 -2.024394E+03 -2.316555E+05 -6.571046E+03 -4.076346E+01 -6.825782E+01  4.999447E+03
       134   7  3.845270E+02 -2.305562E+05 -1.836208E+03 -3.654928E+02 -4.249974E+01  1.488796E+03
       134   8  5.586170E+02 -2.298418E+05 -3.138776E+03  2.166285E+02 -5.707410E+01  3.246879E+03
       134   9 -1.601963E+03 -2.299404E+05 -6.169956E+03  6.191337E+02 -6.825559E+01  5.004962E+03
       134  10 -1.589848E+02 -2.327541E+05 -2.350869E+03  2.863750E+02 -5.376125E-10 -1.046651E-09
       134  11 -1.351886E+02 -2.326555E+05 -3.795688E+03 -1.173334E+02 -1.791833E-09 -3.447394E-09
       134  12 -2.446832E+03 -2.333707E+05 -6.972183E+03 -7.006586E+02 -1.806308E-09 -1.436986E-09
       134  13  1.127706E+02 -2.316551E+05 -2.093541E+03 -3.955855E+01  6.142027E-10 -1.080731E-09
       134  14  2.117128E+02 -2.312487E+05 -3.467242E+03  4.964743E+01  3.201656E-10 -1.944879E-09
       134  15 -2.024401E+03 -2.316556E+05 -6.571093E+03 -4.076319E+01  3.332785E-10 -1.441284E-09
       134  16  3.845264E+02 -2.305562E+05 -1.836212E+03 -3.654927E+02 -5.628948E-10  4.827609E-10
       134  17  5.586141E+02 -2.298418E+05 -3.138796E+03  2.166287E+02  2.696916E-10  2.623291E-09
       134  18 -1.601969E+03 -2.299405E+05 -6.170003E+03  6.191340E+02  3.426653E-09  1.353880E-09
       134  19 -1.589842E+02 -2.327541E+05 -2.350865E+03  2.863750E+02  4.248701E+01 -1.468997E+03
       134  20 -1.351858E+02 -2.326555E+05 -3.795669E+03 -1.173336E+02  5.706717E+01 -3.231465E+03
       134  21 -2.446825E+03 -2.333706E+05 -6.972136E+03 -7.006588E+02  6.826004E+01 -4.993931E+03
       134  22  1.127712E+02 -2.316551E+05 -2.093537E+03 -3.955860E+01  4.249337E+01 -1.478896E+03
       134  23  2.117156E+02 -2.312487E+05 -3.467222E+03  4.964728E+01  5.707064E+01 -3.239172E+03
       134  24 -2.024394E+03 -2.316555E+05 -6.571046E+03 -4.076346E+01  6.825782E+01 -4.999447E+03
       134  25  3.845270E+02 -2.305562E+05 -1.836208E+03 -3.654928E+02  4.249974E+01 -1.488796E+03
       134  26  5.586170E+02 -2.298418E+05 -3.138776E+03  2.166285E+02  5.707410E+01 -3.246879E+03
       134  27 -1.601963E+03 -2.299404E+05 -6.169956E+03  6.191337E+02  6.825559E+01 -5.004962E+03
       135   1  8.135530E+02 -2.352267E+05 -8.583914E+03  3.448998E+03 -8.556841E+01  6.192796E+03
       135   2  1.692582E+03 -2.316679E+05 -1.380221E+04 -2.786522E+03 -9.640044E+01  1.334221E+04
       135   3 -2.469302E+04 -2.358574E+05 -3.049245E+04 -9.208798E+03 -4.141551E+01  2.049156E+04
       135   4  1.319708E+03 -2.331944E+05 -8.109376E+03 -3.739070E+01 -8.561766E+01  6.218525E+03
       135   5  2.266879E+03 -2.293253E+05 -1.325469E+04  4.894062E+01 -9.632990E+01  1.332523E+04
       135   6 -2.404326E+04 -2.331972E+05 -2.984228E+04 -5.162680E+01 -4.107964E+01  2.043188E+04
       135   7  1.825909E+03 -2.311621E+05 -7.634832E+03 -3.523791E+03 -8.566720E+01  6.244255E+03
       135   8  2.841206E+03 -2.269828E+05 -1.270717E+04  2.884414E+03 -9.625951E+01  1.330825E+04
       135   9 -2.339319E+04 -2.305368E+05 -2.919207E+04  9.105584E+03 -4.074552E+01  2.037220E+04
       135  10  8.135427E+02 -2.352267E+05 -8.583986E+03  3.448999E+03 -6.017235E-10 -1.561345E-09
       135  11  1.692534E+03 -2.316681E+05 -1.380254E+04 -2.786521E+03 -1.685170E-10 -3.201866E-09
       135  12 -2.469313E+04 -2.358579E+05 -3.049324E+04 -9.208798E+03  1.833975E-09  1.077677E-09
       135  13  1.319698E+03 -2.331944E+05 -8.109449E+03 -3.739027E+01  2.005665E-09  5.594346E-10
       135  14  2.266831E+03 -2.293255E+05 -1.325502E+04  4.894165E+01 -1.497981E-09  3.895843E-10
       135  15 -2.404337E+04 -2.331977E+05 -2.984306E+04 -5.162612E+01 -1.280784E-09 -2.092619E-09
       135  16  1.825898E+03 -2.311622E+05 -7.634906E+03 -3.523791E+03  1.606001E-09  1.839362E-09
       135  17  2.841158E+03 -2.269830E+05 -1.270750E+04  2.884415E+03  7.230431E-11  3.180354E-09
       135  18 -2.339330E+04 -2.305373E+05 -2.919285E+04  9.105585E+03 -1.184240E-09  4.465555E-10
       135  19  8.135530E+02 -2.352267E+05 -8.583914E+03  3.448998E+03  8.556841E+01 -6.192796E+03
       135  20  1.692582E+03 -2.316679E+05 -1.380221E+04 -2.786522E+03  9.640044E+01 -1.334221E+04
       135  21 -2.469302E+04 -2.358574E+05 -3.049245E+04 -9.208798E+03  4.141551E+01 -2.049156E+04
       135  22  1.319708E+03 -2.331944E+05 -8.109376E+03 -3.739070E+01  8.561766E+01 -6.218525E+03
       135  23  2.266879E+03 -2.293253E+05 -1.325469E+04  4.894062E+01  9.632990E+01 -1.332523E+04
       135  24 -2.404326E+04 -2.331972E+05 -2.984228E+04 -5.162680E+01  4.107964E+01 -2.043188E+04
       135  25  1.825909E+03 -2.311621E+05 -7.634832E+03 -3.523791E+03  8.566720E+01 -6.244255E+03
       135  26  2.841206E+03 -2.269828E+05 -1.270717E+04  2.884414E+03  9.625951E+01 -1.330825E+04
       135  27 -2.339319E+04 -2.305368E+05 -2.919207E+04  9.105584E+03  4.074552E+01 -2.037220E+04
       136   1 -4.453341E+06 -1.459641E+06 -7.843378E+05 -1.555004E+06 -2.542648E+05 -4.974424E+04
       136   2 -4.327977E+06 -1.287808E+06 -5.962573E+05 -1.509413E+06 -1.710165E+05  9.039517E+04
       136   3 -4.222472E+06 -1.218646E+06 -5.182894E+05 -1.475153E+06 -6.037488E+04  1.587596E+05
       136   4 -1.887616E+06 -4.395549E+05 -1.036388E+05 -7.992024E+05 -8.225781E+04  1.564471E+04
       136   5 -1.881256E+06 -3.575711E+05 -4.710745E+04 -8.086964E+05 -9.342259E+04  1.197949E+05
       136   6 -1.875787E+06 -3.592608E+05 -2.525558E+04 -8.295592E+05 -7.728371E+04  1.522887E+05
       136   7  6.845589E+05  5.811470E+05  5.765984E+05 -4.048578E+04  9.053164E+04  8.136410E+04
       136   8  5.715529E+05  5.732217E+05  5.016836E+05 -1.053992E+05 -1.549546E+04  1.493274E+05
       136   9  4.765870E+05  5.005797E+05  4.674855E+05 -1.817022E+05 -9.426219E+04  1.457922E+05
       136  10 -4.453411E+06 -1.459662E+06 -7.844649E+05 -1.555015E+06  2.795735E-09 -7.685885E-10
       136  11 -4.328010E+06 -1.287824E+06 -5.963278E+05 -1.509401E+06 -6.639052E-09 -7.676372E-09
       136  12 -4.222482E+06 -1.218674E+06 -5.183435E+05 -1.475146E+06 -6.629772E-09 -3.495482E-09
       136  13 -1.887623E+06 -4.395570E+05 -1.036520E+05 -7.992013E+05  2.684335E-10 -1.408322E-09
       136  14 -1.881269E+06 -3.575888E+05 -4.715079E+04 -8.086874E+05 -4.087748E-09 -1.222658E-09
       136  15 -1.875799E+06 -3.592873E+05 -2.531033E+04 -8.295498E+05 -4.531679E-09 -1.507347E-09
       136  16  6.845484E+05  5.811377E+05  5.765705E+05 -4.049170E+04 -7.892414E-09 -9.616889E-10
       136  17  5.715466E+05  5.731977E+05  5.016413E+05 -1.053973E+05 -7.094093E-09 -1.549107E-11
       136  18  4.765717E+05  5.005545E+05  4.674289E+05 -1.816911E+05  1.298415E-09  1.687184E-09
       136  19 -4.453341E+06 -1.459641E+06 -7.843378E+05 -1.555004E+06  2.542648E+05  4.974424E+04
       136  20 -4.327977E+06 -1.287808E+06 -5.962573E+05 -1.509413E+06  1.710165E+05 -9.039517E+04
       136  21 -4.222472E+06 -1.218646E+06 -5.182894E+05 -1.475153E+06  6.037488E+04 -1.587596E+05
       136  22 -1.887616E+06 -4.395549E+05 -1.036388E+05 -7.992024E+05  8.225781E+04 -1.564471E+04
       136  23 -1.881256E+06 -3.575711E+05 -4.710745E+04 -8.086964E+05  9.342259E+04 -1.197949E+05
       136  24 -1.875787E+06 -3.592608E+05 -2.525558E+04 -8.295592E+05  7.728371E+04 -1.522887E+05
       136  25  6.845589E+05  5.811470E+05  5.765984E+05 -4.048578E+04 -9.053164E+04 -8.136410E+04
       136  26  5.715529E+05  5.732217E+05  5.016836E+05 -1.053992E+05  1.549546E+04 -1.493274E+05
       136  27  4.765870E+05  5.005797E+05  4.674855E+05 -1.817022E+05  9.426219E+04 -1.457922E+05
       137   1 -4.118755E+06 -1.195174E+06 -4.933545E+05 -1.454694E+06 -7.020714E+04  1.471376E+05
       137   2 -4.000354E+06 -1.127093E+06 -4.507998E+05 -1.402059E+06 -5.776537E+04  1.479649E+05
       137   3 -3.856170E+06 -1.090265E+06 -4.172893E+05 -1.380099E+06 -4.363304E+04  1.442813E+05
       137   4 -1.871854E+06 -3.635845E+05 -1.941957E+04 -8.276464E+05 -7.173078E+04  1.465023E+05
       137   5 -1.884969E+06 -3.467396E+05 -1.036390E+04 -8.129504E+05 -6.520849E+04  1.450976E+05
       137   6 -1.871135E+06 -3.599539E+05 -5.621521E+03 -8.289286E+05 -5.700136E+04  1.391894E+05
       137   7  3.802383E+05  4.684400E+05  4.542366E+05 -1.984902E+05 -7.326045E+04  1.458649E+05
       137   8  2.350193E+05  4.339964E+05  4.298308E+05 -2.219789E+05 -7.267915E+04  1.422201E+05
       137   9  1.179469E+05  3.706884E+05  4.058342E+05 -2.761253E+05 -7.041597E+04  1.340802E+05
       137  10 -4.118766E+06 -1.195198E+06 -4.934044E+05 -1.454685E+06  2.301299E-10  3.272723E-09
       137  11 -4.000364E+06 -1.127117E+06 -4.508472E+05 -1.402052E+06 -1.966771E-09  1.728818E-09
       137  12 -3.856178E+06 -1.090288E+06 -4.173319E+05 -1.380094E+06 -2.117152E-09  1.382518E-09
       137  13 -1.871865E+06 -3.636089E+05 -1.946952E+04 -8.276379E+05  1.197333E-10 -1.292504E-09
       137  14 -1.884979E+06 -3.467633E+05 -1.041141E+04 -8.129428E+05 -4.813392E-10 -2.024144E-09
       137  15 -1.871144E+06 -3.599756E+05 -5.663989E+03 -8.289223E+05 -2.615715E-10  2.106693E-10
       137  16  3.802268E+05  4.684157E+05  4.541866E+05 -1.984816E+05 -2.700214E-10 -8.495330E-10
       137  17  2.350083E+05  4.339732E+05  4.297829E+05 -2.219706E+05  6.926780E-10  2.107995E-09
       137  18  1.179368E+05  3.706678E+05  4.057911E+05 -2.761177E+05  3.679043E-10  8.852027E-10
       137  19 -4.118755E+06 -1.195174E+06 -4.933545E+05 -1.454694E+06  7.020714E+04 -1.471376E+05
       137  20 -4.000354E+06 -1.127093E+06 -4.507998E+05 -1.402059E+06  5.776537E+04 -1.479649E+05
       137  21 -3.856170E+06 -1.090265E+06 -4.172893E+05 -1.380099E+06  4.363304E+04 -1.442813E+05
       137  22 -1.871854E+06 -3.635845E+05 -1.941957E+04 -8.276464E+05  7.173078E+04 -1.465023E+05
       137  23 -1.884969E+06 -3.467396E+05 -1.036390E+04 -8.129504E+05  6.520849E+04 -1.450976E+05
       137  24 -1.871135E+06 -3.599539E+05 -5.621521E+03 -8.289286E+05  5.700136E+04 -1.391894E+05
       137  25  3.802383E+05  4.684400E+05  4.542366E+05 -1.984902E+05  7.326045E+04 -1.458649E+05
       137  26  2.350193E+05  4.339964E+05  4.298308E+05 -2.219789E+05  7.267915E+04 -1.422201E+05
       137  27  1.179469E+05  3.706884E+05  4.058342E+05 -2.761253E+05  7.041597E+04 -1.340802E+05
       138   1 -3.762459E+06 -1.056104E+06 -3.958436E+05 -1.354407E+06 -4.145730E+04  1.383711E+05
       138   2 -3.641647E+06 -9.913124E+05 -3.659027E+05 -1.300213E+06 -3.612841E+04  1.293303E+05
       138   3 -3.491959E+06 -9.550813E+05 -3.370647E+05 -1.278357E+06 -3.068487E+04  1.199330E+05
       138   4 -1.870712E+06 -3.602191E+05 -4.254452E+03 -8.290341E+05 -5.397625E+04  1.336080E+05
       138   5 -1.885062E+06 -3.457273E+05 -2.410153E+03 -8.129252E+05 -4.911090E+04  1.244050E+05
       138   6 -1.870471E+06 -3.597001E+05 -1.301736E+03 -8.291557E+05 -4.413152E+04  1.148459E+05
       138   7  2.474099E+04  3.359781E+05  3.871511E+05 -3.021700E+05 -6.653668E+04  1.288293E+05
       138   8 -1.252889E+05  3.001239E+05  3.609227E+05 -3.243552E+05 -6.213327E+04  1.194647E+05
       138   9 -2.462732E+05  2.359042E+05  3.343235E+05 -3.788656E+05 -5.761623E+04  1.097446E+05
       138  10 -3.762466E+06 -1.056125E+06 -3.958828E+05 -1.354402E+06 -8.478837E-10  1.853089E-09
       138  11 -3.641653E+06 -9.913307E+05 -3.659365E+05 -1.300209E+06  3.445266E-10  1.738677E-09
       138  12 -3.491964E+06 -9.550970E+05 -3.370934E+05 -1.278354E+06  8.042253E-10 -8.189076E-11
       138  13 -1.870720E+06 -3.602390E+05 -4.293431E+03 -8.290283E+05  2.614703E-10  5.395965E-10
       138  14 -1.885069E+06 -3.457445E+05 -2.443733E+03 -8.129203E+05  1.187075E-09  3.656125E-10
       138  15 -1.870477E+06 -3.597148E+05 -1.330151E+03 -8.291517E+05  4.475968E-10  4.970885E-10
       138  16  2.473180E+04  3.359592E+05  3.871116E+05 -3.021631E+05  2.610539E-10 -7.457708E-10
       138  17 -1.252969E+05  3.001076E+05  3.608887E+05 -3.243493E+05  2.126370E-10 -1.670486E-09
       138  18 -2.462800E+05  2.358904E+05  3.342946E+05 -3.788605E+05  3.056741E-10 -1.802944E-09
       138  19 -3.762459E+06 -1.056104E+06 -3.958436E+05 -1.354407E+06  4.145730E+04 -1.383711E+05
       138  20 -3.641647E+06 -9.913124E+05 -3.659027E+05 -1.300213E+06  3.612841E+04 -1.293303E+05
       138  21 -3.491959E+06 -9.550813E+05 -3.370647E+05 -1.278357E+06  3.068487E+04 -1.199330E+05
       138  22 -1.870712E+06 -3.602191E+05 -4.254452E+03 -8.290341E+05  5.397625E+04 -1.336080E+05
       138  23 -1.885062E+06 -3.457273E+05 -2.410153E+03 -8.129252E+05  4.911090E+04 -1.244050E+05
       138  24 -1.870471E+06 -3.597001E+05 -1.301736E+03 -8.291557E+05  4.413152E+04 -1.148459E+05
       138  25  2.474099E+04  3.359781E+05  3.871511E+05 -3.021700E+05  6.653668E+04 -1.288293E+05
       138  26 -1.252889E+05  3.001239E+05  3.609227E+05 -3.243552E+05  6.213327E+04 -1.194647E+05
       138  27 -2.462732E+05  2.359042E+05  3.343235E+05 -3.788656E+05  5.761623E+04 -1.097446E+05
       139   1 -3.396682E+06 -9.198525E+05 -3.162212E+05 -1.252008E+06 -2.821989E+04  1.140644E+05
       139   2 -3.273132E+06 -8.542096E+05 -2.875983E+05 -1.196873E+06 -2.391718E+04  1.039744E+05
       139   3 -3.120197E+06 -8.175138E+05 -2.591855E+05 -1.174848E+06 -1.959924E+04  9.380027E+04
       139   4 -1.870301E+06 -3.597659E+05 -1.010101E+03 -8.293121E+05 -4.169423E+04  1.089740E+05
       139   5 -1.884905E+06 -3.451241E+05 -6.616198E+02 -8.127952E+05 -3.749978E+04  9.885377E+04
       139   6 -1.870125E+06 -3.594067E+05 -4.396015E+02 -8.293922E+05 -3.329024E+04  8.864939E+04
       139   7 -3.415292E+05  2.005140E+05  3.140766E+05 -4.056545E+05 -5.520435E+04  1.038702E+05
       139   8 -4.946923E+05  1.641243E+05  2.861747E+05 -4.279200E+05 -5.111526E+04  9.372080E+04
       139   9 -6.184348E+05  9.883534E+04  2.582274E+05 -4.832883E+05 -4.701116E+04  8.348733E+04
       139  10 -3.396686E+06 -9.198667E+05 -3.162471E+05 -1.252006E+06 -1.634455E-09 -8.297080E-10
       139  11 -3.273136E+06 -8.542214E+05 -2.876196E+05 -1.196871E+06 -7.137408E-10  1.685313E-09
       139  12 -3.120199E+06 -8.175233E+05 -2.592027E+05 -1.174847E+06  1.508547E-09  6.704326E-10
       139  13 -1.870306E+06 -3.597791E+05 -1.035657E+03 -8.293085E+05 -4.615633E-10  3.773722E-10
       139  14 -1.884909E+06 -3.451349E+05 -6.826040E+02 -8.127922E+05 -5.440424E-10  9.025270E-10
       139  15 -1.870129E+06 -3.594154E+05 -4.564345E+02 -8.293899E+05  7.223947E-11  4.466650E-10
       139  16 -3.415353E+05  2.005016E+05  3.140506E+05 -4.056499E+05  2.166237E-09  8.761894E-10
       139  17 -4.946974E+05  1.641142E+05  2.861533E+05 -4.279162E+05 -3.543738E-10  1.043080E-09
       139  18 -6.184390E+05  9.882727E+04  2.582102E+05 -4.832851E+05 -2.004095E-09  2.038585E-11
       139  19 -3.396682E+06 -9.198525E+05 -3.162212E+05 -1.252008E+06  2.821989E+04 -1.140644E+05
       139  20 -3.273132E+06 -8.542096E+05 -2.875983E+05 -1.196873E+06  2.391718E+04 -1.039744E+05
       139  21 -3.120197E+06 -8.175138E+05 -2.591855E+05 -1.174848E+06  1.959924E+04 -9.380027E+04
       139  22 -1.870301E+06 -3.597659E+05 -1.010101E+03 -8.293121E+05  4.169423E+04 -1.089740E+05
       139  23 -1.884905E+06 -3.451241E+05 -6.616198E+02 -8.127952E+05  3.749978E+04 -9.885377E+04
       139  24 -1.870125E+06 -3.594067E+05 -4.396015E+02 -8.293922E+05  3.329024E+04 -8.864939E+04
       139  25 -3.415292E+05  2.005140E+05  3.140766E+05 -4.056545E+05  5.520435E+04 -1.038702E+05
       139  26 -4.946923E+05  1.641243E+05  2.861747E+05 -4.279200E+05  5.111526E+04 -9.372080E+04
       139  27 -6.184348E+05  9.883534E+04  2.582274E+05 -4.832883E+05  4.701116E+04 -8.348733E+04
       140   1 -3.023167E+06 -7.817591E+05 -2.382651E+05 -1.148126E+06 -1.719087E+04  8.779754E+04
       140   2 -2.897426E+06 -7.153729E+05 -2.096988E+05 -1.092307E+06 -1.294510E+04  7.747692E+04
       140   3 -2.742076E+06 -6.783572E+05 -1.813117E+05 -1.070189E+06 -8.693344E+03  6.710763E+04
       140   4 -1.870018E+06 -3.594511E+05 -4.319939E+02 -8.295199E+05 -3.094483E+04  8.262853E+04
       140   5 -1.884748E+06 -3.446334E+05 -5.291699E+02 -8.126981E+05 -2.676166E+04  7.229215E+04
       140   6 -1.869881E+06 -3.591722E+05 -7.577297E+02 -8.295817E+05 -2.257262E+04  6.190718E+04
       140   7 -7.154984E+05  6.296878E+04  2.373324E+05 -5.103654E+05 -4.472641E+04  7.744919E+04
       140   8 -8.710180E+05  2.619059E+04  2.085864E+05 -5.326679E+05 -4.060252E+04  6.709828E+04
       140   9 -9.969091E+05 -3.992632E+04  1.797550E+05 -5.886628E+05 -3.647285E+04  5.669889E+04
       140  10 -3.023169E+06 -7.817675E+05 -2.382802E+05 -1.148124E+06 -3.530509E-10 -7.125451E-10
       140  11 -2.897428E+06 -7.153794E+05 -2.097104E+05 -1.092306E+06 -1.426356E-10  1.131201E-10
       140  12 -2.742078E+06 -6.783621E+05 -1.813203E+05 -1.070189E+06 -1.861971E-09 -6.990129E-10
       140  13 -1.870020E+06 -3.594587E+05 -4.466082E+02 -8.295178E+05 -6.020691E-11 -2.966275E-11
       140  14 -1.884750E+06 -3.446392E+05 -5.403250E+02 -8.126965E+05  2.536776E-10  9.208844E-11
       140  15 -1.869882E+06 -3.591765E+05 -7.658807E+02 -8.295806E+05 -1.029402E-10  9.240564E-10
       140  16 -7.155022E+05  6.296181E+04  2.373174E+05 -5.103626E+05  6.103812E-10  4.675356E-10
       140  17 -8.710210E+05  2.618532E+04  2.085748E+05 -5.326657E+05  4.399275E-10 -3.293474E-10
       140  18 -9.969114E+05 -3.993013E+04  1.797465E+05 -5.886611E+05  1.089229E-09  1.345290E-09
       140  19 -3.023167E+06 -7.817591E+05 -2.382651E+05 -1.148126E+06  1.719087E+04 -8.779754E+04
       140  20 -2.897426E+06 -7.153729E+05 -2.096988E+05 -1.092307E+06  1.294510E+04 -7.747692E+04
       140  21 -2.742076E+06 -6.783572E+05 -1.813117E+05 -1.070189E+06  8.693344E+03 -6.710763E+04
       140  22 -1.870018E+06 -3.594511E+05 -4.319939E+02 -8.295199E+05  3.094483E+04 -8.262853E+04
       140  23 -1.884748E+06 -3.446334E+05 -5.291699E+02 -8.126981E+05  2.676166E+04 -7.229215E+04
       140  24 -1.869881E+06 -3.591722E+05 -7.577297E+02 -8.295817E+05  2.257262E+04 -6.190718E+04
       140  25 -7.154984E+05  6.296878E+04  2.373324E+05 -5.103654E+05  4.472641E+04 -7.744919E+04
       140  26 -8.710180E+05  2.619059E+04  2.085864E+05 -5.326679E+05  4.060252E+04 -6.709828E+04
       140  27 -9.969091E+05 -3.992632E+04  1.797550E+05 -5.886628E+05  3.647285E+04 -5.669889E+04
       141   1 -2.643719E+06 -6.422292E+05 -1.603598E+05 -1.043202E+06 -6.201817E+03  6.105008E+04
       141   2 -2.516397E+06 -5.753400E+05 -1.321563E+05 -9.869019E+05 -1.393288E+03  5.082615E+04
       141   3 -2.359423E+06 -5.382084E+05 -1.045909E+05 -9.647275E+05  3.406737E+03  4.060499E+04
       141   4 -1.869836E+06 -3.592023E+05 -9.867158E+02 -8.296853E+05 -2.013373E+04  5.583374E+04
       141   5 -1.884608E+06 -3.442601E+05 -1.737143E+03 -8.126291E+05 -1.532081E+04  4.561623E+04
       141   6 -1.869757E+06 -3.590777E+05 -3.131374E+03 -8.297051E+05 -1.051662E+04  3.540148E+04
       141   7 -1.095329E+06 -7.612279E+04  1.583578E+05 -6.159204E+05 -3.408451E+04  5.061034E+04
       141   8 -1.252405E+06 -1.131457E+05  1.286627E+05 -6.381912E+05 -2.926369E+04  4.040056E+04
       141   9 -1.379843E+06 -1.799269E+05  9.831630E+04 -6.945840E+05 -2.445184E+04  3.019354E+04
       141  10 -2.643720E+06 -6.422332E+05 -1.603669E+05 -1.043201E+06 -1.385402E-09  9.827912E-10
       141  11 -2.516397E+06 -5.753428E+05 -1.321612E+05 -9.869019E+05 -5.779040E-10  7.238861E-10
       141  12 -2.359424E+06 -5.382102E+05 -1.045940E+05 -9.647276E+05 -1.656192E-10 -1.104156E-09
       141  13 -1.869837E+06 -3.592057E+05 -9.933289E+02 -8.296843E+05 -1.051443E-09 -3.365816E-10
       141  14 -1.884609E+06 -3.442624E+05 -1.741490E+03 -8.126286E+05 -1.995491E-09 -1.207113E-09
       141  15 -1.869757E+06 -3.590791E+05 -3.133934E+03 -8.297048E+05 -1.649154E-09 -2.297665E-09
       141  16 -1.095331E+06 -7.612585E+04  1.583508E+05 -6.159190E+05  1.313431E-09  1.615104E-09
       141  17 -1.252407E+06 -1.131477E+05  1.286580E+05 -6.381903E+05 -1.586176E-09 -3.505333E-10
       141  18 -1.379844E+06 -1.799280E+05  9.831346E+04 -6.945834E+05 -2.266479E-09 -8.193647E-10
       141  19 -2.643719E+06 -6.422292E+05 -1.603598E+05 -1.043202E+06  6.201817E+03 -6.105008E+04
       141  20 -2.516397E+06 -5.753400E+05 -1.321563E+05 -9.869019E+05  1.393288E+03 -5.082615E+04
       141  21 -2.359423E+06 -5.382084E+05 -1.045909E+05 -9.647275E+05 -3.406737E+03 -4.060499E+04
       141  22 -1.869836E+06 -3.592023E+05 -9.867158E+02 -8.296853E+05  2.013373E+04 -5.583374E+04
       141  23 -1.884608E+06 -3.442601E+05 -1.737143E+03 -8.126291E+05  1.532081E+04 -4.561623E+04
       141  24 -1.869757E+06 -3.590777E+05 -3.131374E+03 -8.297051E+05  1.051662E+04 -3.540148E+04
       141  25 -1.095329E+06 -7.612279E+04  1.583578E+05 -6.159204E+05  3.408451E+04 -5.061034E+04
       141  26 -1.252405E+06 -1.131457E+05  1.286627E+05 -6.381912E+05  2.926369E+04 -4.040056E+04
       141  27 -1.379843E+06 -1.799269E+05  9.831630E+04 -6.945840E+05  2.445184E+04 -3.019354E+04
       142   1 -2.260159E+06 -5.019559E+05 -8.428823E+04 -9.378963E+05  6.446532E+03  3.468939E+04
       142   2 -2.132128E+06 -4.345432E+05 -5.838729E+04 -8.805790E+05  1.342702E+04  2.547263E+04
       142   3 -1.975343E+06 -3.987815E+05 -3.528806E+04 -8.572231E+05  2.020429E+04  1.679353E+04
       142   4 -1.869890E+06 -3.589822E+05 -4.163273E+03 -8.298652E+05 -7.621344E+03  2.943398E+04
       142   5 -1.884336E+06 -3.442175E+05 -7.579028E+03 -8.124541E+05  6.988626E+01  2.048448E+04
       142   6 -1.870190E+06 -3.612465E+05 -1.436126E+04 -8.290125E+05  7.557212E+03  1.207226E+04
       142   7 -1.479468E+06 -2.159964E+05  7.595384E+04 -7.217717E+05 -2.169865E+04  2.417503E+04
       142   8 -1.636480E+06 -2.538867E+05  4.322684E+04 -7.443039E+05 -1.329300E+04  1.549419E+04
       142   9 -1.765024E+06 -3.237101E+05  6.565922E+03 -8.007972E+05 -5.092263E+03  7.350128E+03
       142  10 -2.260159E+06 -5.019572E+05 -8.429057E+04 -9.378965E+05 -2.056228E-09 -1.278326E-09
       142  11 -2.132128E+06 -4.345439E+05 -5.838886E+04 -8.805793E+05 -1.498833E-09  4.264063E-10
       142  12 -1.975344E+06 -3.987820E+05 -3.528936E+04 -8.572234E+05  1.872493E-09  2.547918E-09
       142  13 -1.869891E+06 -3.589831E+05 -4.165009E+03 -8.298650E+05 -8.420063E-10 -8.343165E-10
       142  14 -1.884336E+06 -3.442180E+05 -7.579816E+03 -8.124541E+05 -4.825555E-10 -6.123418E-11
       142  15 -1.870190E+06 -3.612466E+05 -1.436164E+04 -8.290126E+05 -1.110555E-09 -2.906529E-10
       142  16 -1.479468E+06 -2.159972E+05  7.595186E+04 -7.217713E+05  1.456518E-09  2.227777E-09
       142  17 -1.636480E+06 -2.538870E+05  4.322606E+04 -7.443038E+05 -1.062095E-09 -1.901225E-09
       142  18 -1.765024E+06 -3.237102E+05  6.565772E+03 -8.007972E+05 -1.633807E-09 -1.108527E-09
       142  19 -2.260159E+06 -5.019559E+05 -8.428823E+04 -9.378963E+05 -6.446532E+03 -3.468939E+04
       142  20 -2.132128E+06 -4.345432E+05 -5.838729E+04 -8.805790E+05 -1.342702E+04 -2.547263E+04
       142  21 -1.975343E+06 -3.987815E+05 -3.528806E+04 -8.572231E+05 -2.020429E+04 -1.679353E+04
       142  22 -1.869890E+06 -3.589822E+05 -4.163273E+03 -8.298652E+05  7.621344E+03 -2.943398E+04
       142  23 -1.884336E+06 -3.442175E+05 -7.579028E+03 -8.124541E+05 -6.988626E+01 -2.048448E+04
       142  24 -1.870190E+06 -3.612465E+05 -1.436126E+04 -8.290125E+05 -7.557212E+03 -1.207226E+04
       142  25 -1.479468E+06 -2.159964E+05  7.595384E+04 -7.217717E+05  2.169865E+04 -2.417503E+04
       142  26 -1.636480E+06 -2.538867E+05  4.322684E+04 -7.443039E+05  1.329300E+04 -1.549419E+04
       142  27 -1.765024E+06 -3.237101E+05  6.565922E+03 -8.007972E+05  5.092263E+03 -7.350128E+03
       143   1 -1.872669E+06 -3.646194E+05 -1.828354E+04 -8.378455E+05  2.670276E+04  1.198094E+04
       143   2 -1.754614E+06 -2.898721E+05 -1.491471E+03 -7.592254E+05  3.562032E+04  7.842683E+03
       143   3 -1.624048E+06 -2.874573E+05 -1.287915E+03 -7.032262E+05  4.119152E+04  1.266637E+04
       143   4 -1.872565E+06 -3.584761E+05 -1.870099E+04 -8.310850E+05  1.210709E+04  6.532907E+03
       143   5 -1.881859E+06 -3.511683E+05 -3.475037E+04 -8.085664E+05  3.287217E+04  6.815593E+03
       143   6 -1.881025E+06 -4.185601E+05 -7.679833E+04 -8.086831E+05  5.028872E+04  1.605993E+04
       143   7 -1.872460E+06 -3.523323E+05 -1.911749E+04 -8.243242E+05 -2.488638E+03  1.084475E+03
       143   8 -2.009087E+06 -4.124591E+05 -6.801003E+04 -8.578965E+05  3.012465E+04  5.788904E+03
       143   9 -2.137926E+06 -5.496365E+05 -1.523123E+05 -9.140918E+05  5.938151E+04  1.945056E+04
       143  10 -1.872670E+06 -3.646197E+05 -1.828515E+04 -8.378458E+05 -2.234169E-09 -7.318471E-10
       143  11 -1.754615E+06 -2.898725E+05 -1.493979E+03 -7.592256E+05 -1.322128E-09 -4.705610E-10
       143  12 -1.624050E+06 -2.874579E+05 -1.291416E+03 -7.032266E+05  1.113057E-09  4.295041E-10
       143  13 -1.872565E+06 -3.584761E+05 -1.870135E+04 -8.310850E+05 -1.238860E-09 -1.515811E-09
       143  14 -1.881861E+06 -3.511687E+05 -3.475250E+04 -8.085666E+05 -1.291734E-09 -1.183822E-10
       143  15 -1.881027E+06 -4.185611E+05 -7.680359E+04 -8.086838E+05  5.246026E-11  5.392015E-10
       143  16 -1.872460E+06 -3.523323E+05 -1.911750E+04 -8.243242E+05  2.613399E-09  2.763268E-09
       143  17 -2.009088E+06 -4.124594E+05 -6.801180E+04 -8.578966E+05  1.550540E-09  3.761074E-09
       143  18 -2.137930E+06 -5.496378E+05 -1.523196E+05 -9.140927E+05 -8.873444E-10 -4.997425E-10
       143  19 -1.872669E+06 -3.646194E+05 -1.828354E+04 -8.378455E+05 -2.670276E+04 -1.198094E+04
       143  20 -1.754614E+06 -2.898721E+05 -1.491471E+03 -7.592254E+05 -3.562032E+04 -7.842683E+03
       143  21 -1.624048E+06 -2.874573E+05 -1.287915E+03 -7.032262E+05 -4.119152E+04 -1.266637E+04
       143  22 -1.872565E+06 -3.584761E+05 -1.870099E+04 -8.310850E+05 -1.210709E+04 -6.532907E+03
       143  23 -1.881859E+06 -3.511683E+05 -3.475037E+04 -8.085664E+05 -3.287217E+04 -6.815593E+03
       143  24 -1.881025E+06 -4.185601E+05 -7.679833E+04 -8.086831E+05 -5.028872E+04 -1.605993E+04
       143  25 -1.872460E+06 -3.523323E+05 -1.911749E+04 -8.243242E+05  2.488638E+03 -1.084475E+03
       143  26 -2.009087E+06 -4.124591E+05 -6.801003E+04 -8.578965E+05 -3.012465E+04 -5.788904E+03
       143  27 -2.137926E+06 -5.496365E+05 -1.523123E+05 -9.140918E+05 -5.938151E+04 -1.945056E+04
       144   1  1.371306E+05  2.936194E+04  3.938864E+04  6.140191E+03  3.026873E+04  1.485336E+02
       144   2  1.324506E+05 -1.156952E+04  1.457658E+04  1.979026E+03  1.994184E+04  4.169241E+02
       144   3  1.408250E+05 -5.665783E+03  8.196432E+03 -4.397456E+03  9.614755E+03  3.298661E+02
       144   4  1.577538E+05  3.450920E+04  4.451366E+04 -1.048613E+03  3.040902E+04  1.481956E+02
       144   5  1.512185E+05 -6.895501E+03  1.918334E+04  6.060587E+01  1.997084E+04  4.168638E+02
       144   6  1.577563E+05 -1.446582E+03  1.236173E+04 -1.045445E+03  9.532508E+03  3.299129E+02
       144   7  1.783775E+05  3.965663E+04  4.963867E+04 -8.237656E+03  3.054931E+04  1.478543E+02
       144   8  1.699867E+05 -2.221497E+03  2.379007E+04 -1.857873E+03  1.999985E+04  4.168033E+02
       144   9  1.746879E+05  2.772639E+03  1.652702E+04  2.306658E+03  9.450258E+03  3.299589E+02
       144  10  1.371296E+05  2.936169E+04  3.938692E+04  6.140187E+03  2.372724E-10 -3.576964E-10
       144  11  1.324502E+05 -1.156962E+04  1.457584E+04  1.979020E+03 -2.474788E-09 -4.809201E-10
       144  12  1.408249E+05 -5.665808E+03  8.196258E+03 -4.397458E+03 -1.838049E-09  2.570327E-10
       144  13  1.577528E+05  3.450896E+04  4.451192E+04 -1.048617E+03 -2.055376E-09 -1.843847E-10
       144  14  1.512180E+05 -6.895608E+03  1.918259E+04  6.059917E+01  1.131909E-09 -4.598726E-10
       144  15  1.577562E+05 -1.446607E+03  1.236156E+04 -1.045447E+03 -8.491337E-10  2.317419E-10
       144  16  1.783765E+05  3.965638E+04  4.963692E+04 -8.237660E+03 -1.920435E-10 -1.673509E-10
       144  17  1.699863E+05 -2.221605E+03  2.378932E+04 -1.857879E+03  7.173812E-10 -3.979799E-10
       144  18  1.746878E+05  2.772615E+03  1.652685E+04  2.306655E+03  7.532192E-10  3.770905E-10
       144  19  1.371306E+05  2.936194E+04  3.938864E+04  6.140191E+03 -3.026873E+04 -1.485336E+02
       144  20  1.324506E+05 -1.156952E+04  1.457658E+04  1.979026E+03 -1.994184E+04 -4.169241E+02
       144  21  1.408250E+05 -5.665783E+03  8.196432E+03 -4.397456E+03 -9.614755E+03 -3.298661E+02
       144  22  1.577538E+05  3.450920E+04  4.451366E+04 -1.048613E+03 -3.040902E+04 -1.481956E+02
       144  23  1.512185E+05 -6.895501E+03  1.918334E+04  6.060587E+01 -1.997084E+04 -4.168638E+02
       144  24  1.577563E+05 -1.446582E+03  1.236173E+04 -1.045445E+03 -9.532508E+03 -3.299129E+02
       144  25  1.783775E+05  3.965663E+04  4.963867E+04 -8.237656E+03 -3.054931E+04 -1.478543E+02
       144  26  1.699867E+05 -2.221497E+03  2.379007E+04 -1.857873E+03 -1.999985E+04 -4.168033E+02
       144  27  1.746879E+05  2.772639E+03  1.652702E+04  2.306658E+03 -9.450258E+03 -3.299589E+02
       145   1  1.430552E+05  1.558218E+03  7.173464E+03 -1.430223E+02  7.536327E+03  2.382196E+02
       145   2  1.439280E+05 -3.515870E+03  2.428921E+03  2.738783E+02  4.958841E+03  2.125476E+02
       145   3  1.467028E+05 -2.325565E+03  9.283927E+02 -1.503967E+03  2.381351E+03  1.455416E+02
       145   4  1.552737E+05  4.602564E+03  1.017924E+04 -1.042004E+03  7.534901E+03  2.382083E+02
       145   5  1.543218E+05 -9.264880E+02  4.983804E+03  5.547471E+01  4.944469E+03  2.125451E+02
       145   6  1.552742E+05 -1.889611E+02  3.041329E+03 -1.041788E+03  2.354040E+03  1.455425E+02
       145   7  1.674923E+05  7.646901E+03  1.318500E+04 -1.941003E+03  7.533476E+03  2.381970E+02
       145   8  1.647157E+05  1.662886E+03  7.538680E+03 -1.629325E+02  4.930096E+03  2.125426E+02
       145   9  1.638456E+05  1.947638E+03  5.154259E+03 -5.796026E+02  2.326728E+03  1.455434E+02
       145  10  1.430551E+05  1.558203E+03  7.173357E+03 -1.430238E+02  2.024234E-10  5.756500E-10
       145  11  1.439279E+05 -3.515877E+03  2.428875E+03  2.738774E+02  2.585042E-09  1.328150E-10
       145  12  1.467028E+05 -2.325566E+03  9.283821E+02 -1.503967E+03  1.195564E-09 -4.932649E-10
       145  13  1.552736E+05  4.602548E+03  1.017913E+04 -1.042005E+03  8.587312E-11  5.763124E-10
       145  14  1.543218E+05 -9.264946E+02  4.983758E+03  5.547387E+01  2.239411E-09  9.898566E-12
       145  15  1.552742E+05 -1.889626E+02  3.041318E+03 -1.041788E+03  1.566548E-09 -3.402700E-10
       145  16  1.674923E+05  7.646886E+03  1.318489E+04 -1.941005E+03 -3.454186E-09  4.010296E-10
       145  17  1.647157E+05  1.662880E+03  7.538634E+03 -1.629333E+02 -1.159827E-09 -1.914976E-10
       145  18  1.638456E+05  1.947636E+03  5.154249E+03 -5.796029E+02 -6.636411E-10 -1.338048E-10
       145  19  1.430552E+05  1.558218E+03  7.173464E+03 -1.430223E+02 -7.536327E+03 -2.382196E+02
       145  20  1.439280E+05 -3.515870E+03  2.428921E+03  2.738783E+02 -4.958841E+03 -2.125476E+02
       145  21  1.467028E+05 -2.325565E+03  9.283927E+02 -1.503967E+03 -2.381351E+03 -1.455416E+02
       145  22  1.552737E+05  4.602564E+03  1.017924E+04 -1.042004E+03 -7.534901E+03 -2.382083E+02
       145  23  1.543218E+05 -9.264880E+02  4.983804E+03  5.547471E+01 -4.944469E+03 -2.125451E+02
       145  24  1.552742E+05 -1.889611E+02  3.041329E+03 -1.041788E+03 -2.354040E+03 -1.455425E+02
       145  25  1.674923E+05  7.646901E+03  1.318500E+04 -1.941003E+03 -7.533476E+03 -2.381970E+02
       145  26  1.647157E+05  1.662886E+03  7.538680E+03 -1.629325E+02 -4.930096E+03 -2.125426E+02
       145  27  1.638456E+05  1.947638E+03  5.154259E+03 -5.796026E+02 -2.326728E+03 -1.455434E+02
       146   1  1.510248E+05 -3.595921E+02  1.461457E+03 -9.357589E+02  1.883582E+03  1.018048E+02
       146   2  1.526940E+05 -6.415020E+02  7.632191E+02  7.260255E+01  1.238929E+03  4.204353E+01
       146   3  1.546555E+05 -8.968277E+01  6.930478E+02 -1.104644E+03  5.942848E+02 -2.251640E+01
       146   4  1.549160E+05  6.088907E+02  2.413407E+03 -1.039834E+03  1.865692E+03  1.018040E+02
       146   5  1.547697E+05 -1.243697E+02  1.273524E+03  5.297708E+01  1.219539E+03  4.204306E+01
       146   6  1.549161E+05 -2.363596E+01  7.627528E+02 -1.039820E+03  5.733946E+02 -2.251673E+01
       146   7  1.588072E+05  1.577372E+03  3.365356E+03 -1.143911E+03  1.847803E+03  1.018032E+02
       146   8  1.568454E+05  3.927622E+02  1.783829E+03  3.335153E+01  1.200148E+03  4.204259E+01
       146   9  1.551766E+05  4.241085E+01  8.324578E+02 -9.749959E+02  5.525045E+02 -2.251706E+01
       146  10  1.510248E+05 -3.595930E+02  1.461450E+03 -9.357590E+02 -1.015345E-09 -5.584836E-10
       146  11  1.526940E+05 -6.415024E+02  7.632162E+02  7.260251E+01 -8.287567E-10 -2.176584E-11
       146  12  1.546555E+05 -8.968287E+01  6.930471E+02 -1.104644E+03  1.574952E-09  4.095438E-10
       146  13  1.549160E+05  6.088898E+02  2.413401E+03 -1.039835E+03 -5.288206E-11 -4.607813E-10
       146  14  1.547697E+05 -1.243701E+02  1.273521E+03  5.297703E+01  1.615570E-09 -2.848678E-10
       146  15  1.549161E+05 -2.363605E+01  7.627522E+02 -1.039820E+03  1.378393E-09  6.814285E-10
       146  16  1.588071E+05  1.577371E+03  3.365350E+03 -1.143911E+03  3.961069E-10 -4.137190E-10
       146  17  1.568454E+05  3.927618E+02  1.783826E+03  3.335149E+01  3.755702E-10 -6.367997E-10
       146  18  1.551766E+05  4.241077E+01  8.324573E+02 -9.749958E+02 -5.162664E-10  9.883837E-10
       146  19  1.510248E+05 -3.595921E+02  1.461457E+03 -9.357589E+02 -1.883582E+03 -1.018048E+02
       146  20  1.526940E+05 -6.415020E+02  7.632191E+02  7.260255E+01 -1.238929E+03 -4.204353E+01
       146  21  1.546555E+05 -8.968277E+01  6.930478E+02 -1.104644E+03 -5.942848E+02  2.251640E+01
       146  22  1.549160E+05  6.088907E+02  2.413407E+03 -1.039834E+03 -1.865692E+03 -1.018040E+02
       146  23  1.547697E+05 -1.243697E+02  1.273524E+03  5.297708E+01 -1.219539E+03 -4.204306E+01
       146  24  1.549161E+05 -2.363596E+01  7.627528E+02 -1.039820E+03 -5.733946E+02  2.251673E+01
       146  25  1.588072E+05  1.577372E+03  3.365356E+03 -1.143911E+03 -1.847803E+03 -1.018032E+02
       146  26  1.568454E+05  3.927622E+02  1.783829E+03  3.335153E+01 -1.200148E+03 -4.204259E+01
       146  27  1.551766E+05  4.241085E+01  8.324578E+02 -9.749959E+02 -5.525045E+02  2.251706E+01
       147   1  1.592755E+05  1.179801E+03  1.689616E+03 -1.030167E+03  4.705795E+02 -6.063903E+01
       147   2  1.610677E+05  1.535009E+03  1.879189E+03  5.438194E+01  2.970417E+02 -1.244103E+02
       147   3  1.629114E+05  2.004802E+03  2.210428E+03 -1.049824E+03  1.235020E+02 -1.888188E+02
       147   4  1.548625E+05  7.919043E+01  5.988611E+02 -1.040525E+03  4.507771E+02 -6.063946E+01
       147   5  1.548367E+05 -1.741168E+01  3.469869E+02  5.385343E+01  2.770412E+02 -1.244109E+02
       147   6  1.548625E+05  5.998591E-01  2.369099E+02 -1.040523E+03  1.033040E+02 -1.888196E+02
       147   7  1.504494E+05 -1.021422E+03 -4.918954E+02 -1.050883E+03  4.309748E+02 -6.063989E+01
       147   8  1.486057E+05 -1.569835E+03 -1.185218E+03  5.332494E+01  2.570409E+02 -1.244115E+02
       147   9  1.468136E+05 -2.003607E+03 -1.736613E+03 -1.031223E+03  8.310624E+01 -1.888204E+02
       147  10  1.592755E+05  1.179801E+03  1.689616E+03 -1.030167E+03  1.038624E-09  3.316946E-10
       147  11  1.610677E+05  1.535009E+03  1.879189E+03  5.438197E+01  1.096675E-09 -8.509746E-11
       147  12  1.629114E+05  2.004802E+03  2.210428E+03 -1.049824E+03  1.293764E-09  1.095084E-10
       147  13  1.548625E+05  7.919037E+01  5.988607E+02 -1.040525E+03  1.402832E-11  6.703148E-10
       147  14  1.548367E+05 -1.741171E+01  3.469867E+02  5.385346E+01  1.049083E-09 -2.764752E-10
       147  15  1.548625E+05  5.998180E-01  2.369098E+02 -1.040523E+03 -5.944996E-10  2.004502E-10
       147  16  1.504494E+05 -1.021422E+03 -4.918958E+02 -1.050883E+03 -1.548283E-09  1.003041E-09
       147  17  1.486057E+05 -1.569835E+03 -1.185218E+03  5.332496E+01  1.907990E-10 -4.727842E-10
       147  18  1.468136E+05 -2.003607E+03 -1.736613E+03 -1.031223E+03  1.044061E-09  2.142719E-10
       147  19  1.592755E+05  1.179801E+03  1.689616E+03 -1.030167E+03 -4.705795E+02  6.063903E+01
       147  20  1.610677E+05  1.535009E+03  1.879189E+03  5.438194E+01 -2.970417E+02  1.244103E+02
       147  21  1.629114E+05  2.004802E+03  2.210428E+03 -1.049824E+03 -1.235020E+02  1.888188E+02
       147  22  1.548625E+05  7.919043E+01  5.988611E+02 -1.040525E+03 -4.507771E+02  6.063946E+01
       147  23  1.548367E+05 -1.741168E+01  3.469869E+02  5.385343E+01 -2.770412E+02  1.244109E+02
       147  24  1.548625E+05  5.998591E-01  2.369099E+02 -1.040523E+03 -1.033040E+02  1.888196E+02
       147  25  1.504494E+05 -1.021422E+03 -4.918954E+02 -1.050883E+03 -4.309748E+02  6.063989E+01
       147  26  1.486057E+05 -1.569835E+03 -1.185218E+03  5.332494E+01 -2.570409E+02  1.244115E+02
       147  27  1.468136E+05 -2.003607E+03 -1.736613E+03 -1.031223E+03 -8.310624E+01  1.888204E+02
       148   1  1.675997E+05  3.184842E+03  3.348359E+03 -1.040058E+03  8.326434E+01 -2.265990E+02
       148   2  1.694173E+05  3.622727E+03  3.777708E+03  5.820923E+01 -1.388753E+01 -2.912381E+02
       148   3  1.712617E+05  4.113990E+03  4.283825E+03 -1.048168E+03 -1.110369E+02 -3.552917E+02
       148   4  1.548570E+05  8.925755E+00  2.092661E+02 -1.044055E+03  6.300178E+01 -2.266001E+02
       148   5  1.548435E+05 -8.222164E+00  1.940854E+02  5.826788E+01 -3.396553E+01 -2.912396E+02
       148   6  1.548570E+05  2.797585E+01  2.555453E+02 -1.044057E+03 -1.309300E+02 -3.552937E+02
       148   7  1.421143E+05 -3.167003E+03 -2.929839E+03 -1.048053E+03  4.273964E+01 -2.266011E+02
       148   8  1.402700E+05 -3.639187E+03 -3.389553E+03  5.832653E+01 -5.404306E+01 -2.912411E+02
       148   9  1.384524E+05 -4.058058E+03 -3.772755E+03 -1.039946E+03 -1.508227E+02 -3.552956E+02
       148  10  1.675997E+05  3.184842E+03  3.348359E+03 -1.040058E+03 -1.999663E-10 -1.001719E-10
       148  11  1.694173E+05  3.622727E+03  3.777708E+03  5.820923E+01 -1.671766E-09 -4.901085E-10
       148  12  1.712617E+05  4.113989E+03  4.283825E+03 -1.048168E+03  9.363455E-10  2.935789E-10
       148  13  1.548570E+05  8.925699E+00  2.092660E+02 -1.044055E+03  2.283358E-09  2.260144E-10
       148  14  1.548435E+05 -8.222256E+00  1.940852E+02  5.826787E+01  1.186846E-09 -2.915015E-10
       148  15  1.548570E+05  2.797571E+01  2.555450E+02 -1.044057E+03 -2.234240E-09  4.408413E-10
       148  16  1.421143E+05 -3.167003E+03 -2.929839E+03 -1.048053E+03 -8.534659E-10  3.896888E-10
       148  17  1.402700E+05 -3.639187E+03 -3.389554E+03  5.832652E+01  8.883300E-10 -3.295649E-10
       148  18  1.384524E+05 -4.058058E+03 -3.772755E+03 -1.039946E+03  5.936334E-10  5.520427E-10
       148  19  1.675997E+05  3.184842E+03  3.348359E+03 -1.040058E+03 -8.326434E+01  2.265990E+02
       148  20  1.694173E+05  3.622727E+03  3.777708E+03  5.820923E+01  1.388753E+01  2.912381E+02
       148  21  1.712617E+05  4.113990E+03  4.283825E+03 -1.048168E+03  1.110369E+02  3.552917E+02
       148  22  1.548570E+05  8.925755E+00  2.092661E+02 -1.044055E+03 -6.300178E+01  2.266001E+02
       148  23  1.548435E+05 -8.222164E+00  1.940854E+02  5.826788E+01  3.396553E+01  2.912396E+02
       148  24  1.548570E+05  2.797585E+01  2.555453E+02 -1.044057E+03  1.309300E+02  3.552937E+02
       148  25  1.421143E+05 -3.167003E+03 -2.929839E+03 -1.048053E+03 -4.273964E+01  2.266011E+02
       148  26  1.402700E+05 -3.639187E+03 -3.389553E+03  5.832653E+01  5.404306E+01  2.912411E+02
       148  27  1.384524E+05 -4.058058E+03 -3.772755E+03 -1.039946E+03  1.508227E+02  3.552956E+02
       149   1  1.760214E+05  5.261960E+03  5.510494E+03 -1.026127E+03 -1.595211E+02 -3.946456E+02
       149   2  1.778213E+05  5.685272E+03  6.130939E+03  6.071904E+01 -4.032862E+02 -4.605663E+02
       149   3  1.797305E+05  6.410284E+03  6.985901E+03 -1.085827E+03 -6.470450E+02 -5.177240E+02
       149   4  1.548751E+05 -7.606528E+00  3.050590E+02 -1.050436E+03 -1.814498E+02 -3.946482E+02
       149   5  1.548207E+05 -4.510698E+01  4.753955E+02  6.624922E+01 -4.224723E+02 -4.605693E+02
       149   6  1.548751E+05  2.186302E+02  8.783582E+02 -1.050463E+03 -6.634878E+02 -5.177273E+02
       149   7  1.337292E+05 -5.277207E+03 -4.900409E+03 -1.074745E+03 -2.033778E+02 -3.946507E+02
       149   8  1.318206E+05 -5.775525E+03 -5.180187E+03  7.177918E+01 -4.416577E+02 -4.605723E+02
       149   9  1.300202E+05 -5.973069E+03 -5.229230E+03 -1.015100E+03 -6.799299E+02 -5.177307E+02
       149  10  1.760214E+05  5.261960E+03  5.510493E+03 -1.026127E+03  4.423808E-10  5.057356E-10
       149  11  1.778213E+05  5.685272E+03  6.130938E+03  6.071889E+01 -2.022281E-09 -3.734327E-10
       149  12  1.797305E+05  6.410283E+03  6.985900E+03 -1.085827E+03 -1.712109E-09  4.827356E-11
       149  13  1.548751E+05 -7.606705E+00  3.050586E+02 -1.050436E+03  3.826528E-11  5.045569E-10
       149  14  1.548207E+05 -4.510726E+01  4.753947E+02  6.624906E+01 -5.589044E-11 -2.876394E-10
       149  15  1.548751E+05  2.186298E+02  8.783568E+02 -1.050463E+03  1.484020E-09  3.077367E-11
       149  16  1.337292E+05 -5.277207E+03 -4.900409E+03 -1.074745E+03 -9.765404E-10  4.819190E-10
       149  17  1.318206E+05 -5.775525E+03 -5.180188E+03  7.177902E+01  2.102013E-09 -4.124005E-10
       149  18  1.300202E+05 -5.973069E+03 -5.229232E+03 -1.015100E+03  2.585624E-10  1.887845E-10
       149  19  1.760214E+05  5.261960E+03  5.510494E+03 -1.026127E+03  1.595211E+02  3.946456E+02
       149  20  1.778213E+05  5.685272E+03  6.130939E+03  6.071904E+01  4.032862E+02  4.605663E+02
       149  21  1.797305E+05  6.410284E+03  6.985901E+03 -1.085827E+03  6.470450E+02  5.177240E+02
       149  22  1.548751E+05 -7.606528E+00  3.050590E+02 -1.050436E+03  1.814498E+02  3.946482E+02
       149  23  1.548207E+05 -4.510698E+01  4.753955E+02  6.624922E+01  4.224723E+02  4.605693E+02
       149  24  1.548751E+05  2.186302E+02  8.783582E+02 -1.050463E+03  6.634878E+02  5.177273E+02
       149  25  1.337292E+05 -5.277207E+03 -4.900409E+03 -1.074745E+03  2.033778E+02  3.946507E+02
       149  26  1.318206E+05 -5.775525E+03 -5.180187E+03  7.177918E+01  4.416577E+02  4.605723E+02
       149  27  1.300202E+05 -5.973069E+03 -5.229230E+03 -1.015100E+03  6.799299E+02  5.177307E+02
       150   1  1.846753E+05  7.325186E+03  8.402964E+03 -8.900254E+02 -8.061119E+02 -5.685161E+02
       150   2  1.862188E+05  7.528736E+03  9.555783E+03  2.476904E+00 -1.765294E+03 -6.399279E+02
       150   3  1.884558E+05  9.991128E+03  1.189843E+04 -1.378158E+03 -2.724503E+03 -6.312149E+02
       150   4  1.550040E+05 -6.819439E+01  1.101999E+03 -1.059173E+03 -8.408296E+02 -5.685224E+02
       150   5  1.546594E+05 -3.336104E+02  1.797358E+03  7.723177E+01 -1.774965E+03 -6.399318E+02
       150   6  1.550038E+05  1.655524E+03  3.665190E+03 -1.059504E+03 -2.709125E+03 -6.312154E+02
       150   7  1.253335E+05 -7.461641E+03 -6.199032E+03 -1.228312E+03 -8.755457E+02 -5.685286E+02
       150   8  1.231008E+05 -8.196031E+03 -5.961141E+03  1.519828E+02 -1.784636E+03 -6.399357E+02
       150   9  1.215529E+05 -6.680162E+03 -4.568131E+03 -7.408667E+02 -2.693747E+03 -6.312160E+02
       150  10  1.846753E+05  7.325186E+03  8.402962E+03 -8.900258E+02  3.126535E-09 -1.859745E-10
       150  11  1.862188E+05  7.528735E+03  9.555776E+03  2.475995E+00 -1.241501E-09 -1.133889E-09
       150  12  1.884558E+05  9.991126E+03  1.189841E+04 -1.378160E+03  1.771639E-09 -1.008808E-09
       150  13  1.550040E+05 -6.819492E+01  1.101997E+03 -1.059173E+03  1.156138E-09  1.586558E-10
       150  14  1.546594E+05 -3.336117E+02  1.797351E+03  7.723085E+01 -1.779639E-12  1.402777E-10
       150  15  1.550038E+05  1.655522E+03  3.665176E+03 -1.059505E+03 -2.462803E-09  1.167419E-09
       150  16  1.253335E+05 -7.461641E+03 -6.199034E+03 -1.228313E+03 -2.009066E-09  5.849678E-11
       150  17  1.231008E+05 -8.196032E+03 -5.961147E+03  1.519819E+02 -4.833053E-09 -6.410472E-10
       150  18  1.215528E+05 -6.680164E+03 -4.568145E+03 -7.408681E+02 -8.447960E-12 -9.720714E-10
       150  19  1.846753E+05  7.325186E+03  8.402964E+03 -8.900254E+02  8.061119E+02  5.685161E+02
       150  20  1.862188E+05  7.528736E+03  9.555783E+03  2.476904E+00  1.765294E+03  6.399279E+02
       150  21  1.884558E+05  9.991128E+03  1.189843E+04 -1.378158E+03  2.724503E+03  6.312149E+02
       150  22  1.550040E+05 -6.819439E+01  1.101999E+03 -1.059173E+03  8.408296E+02  5.685224E+02
       150  23  1.546594E+05 -3.336104E+02  1.797358E+03  7.723177E+01  1.774965E+03  6.399318E+02
       150  24  1.550038E+05  1.655524E+03  3.665190E+03 -1.059504E+03  2.709125E+03  6.312154E+02
       150  25  1.253335E+05 -7.461641E+03 -6.199032E+03 -1.228312E+03  8.755457E+02  5.685286E+02
       150  26  1.231008E+05 -8.196031E+03 -5.961141E+03  1.519828E+02  1.784636E+03  6.399357E+02
       150  27  1.215529E+05 -6.680162E+03 -4.568131E+03 -7.408667E+02  2.693747E+03  6.312160E+02
       151   1  1.942660E+05  9.038385E+03  1.388294E+04  1.432358E+02 -3.286368E+03 -7.755153E+02
       151   2  1.938347E+05  7.553259E+03  1.679461E+04 -5.928315E+02 -7.258960E+03 -8.855447E+02
       151   3  1.981506E+05  2.296434E+04  2.651735E+04 -3.650682E+03 -1.123176E+04 -3.032395E+02
       151   4  1.558974E+05 -5.210499E+02  4.449963E+03 -1.068911E+03 -3.428313E+03 -7.755429E+02
       151   5  1.535421E+05 -2.481619E+03  6.903016E+03  9.011130E+01 -7.184637E+03 -8.855373E+02
       151   6  1.558965E+05  1.241705E+04  1.601729E+04 -1.072646E+03 -1.094115E+04 -3.032016E+02
       151   7  1.175303E+05 -1.008059E+04 -4.983125E+03 -2.280983E+03 -3.570250E+03 -7.755699E+02
       151   8  1.132509E+05 -1.251662E+04 -2.988698E+03  7.730096E+02 -7.110319E+03 -8.855297E+02
       151   9  1.136440E+05  1.869654E+03  5.517104E+03  1.505214E+03 -1.065057E+04 -3.031613E+02
       151  10  1.942659E+05  9.038381E+03  1.388292E+04  1.432338E+02  2.646022E-09 -8.429088E-10
       151  11  1.938347E+05  7.553244E+03  1.679451E+04 -5.928366E+02 -8.377370E-10 -1.110100E-09
       151  12  1.981504E+05  2.296431E+04  2.651711E+04 -3.650685E+03 -1.270865E-09 -2.456920E-10
       151  13  1.558974E+05 -5.210537E+02  4.449939E+03 -1.068913E+03 -1.117585E-09  5.466169E-10
       151  14  1.535420E+05 -2.481634E+03  6.902918E+03  9.010618E+01 -3.727431E-10  1.341360E-09
       151  15  1.558963E+05  1.241702E+04  1.601707E+04 -1.072649E+03 -4.150989E-10  1.516761E-10
       151  16  1.175303E+05 -1.008059E+04 -4.983150E+03 -2.280985E+03 -9.909231E-10 -8.905658E-10
       151  17  1.132508E+05 -1.251663E+04 -2.988795E+03  7.730045E+02  8.302208E-10 -3.434751E-11
       151  18  1.136439E+05  1.869624E+03  5.516891E+03  1.505211E+03  1.578201E-09 -3.893013E-10
       151  19  1.942660E+05  9.038385E+03  1.388294E+04  1.432358E+02  3.286368E+03  7.755153E+02
       151  20  1.938347E+05  7.553259E+03  1.679461E+04 -5.928315E+02  7.258960E+03  8.855447E+02
       151  21  1.981506E+05  2.296434E+04  2.651735E+04 -3.650682E+03  1.123176E+04  3.032395E+02
       151  22  1.558974E+05 -5.210499E+02  4.449963E+03 -1.068911E+03  3.428313E+03  7.755429E+02
       151  23  1.535421E+05 -2.481619E+03  6.903016E+03  9.011130E+01  7.184637E+03  8.855373E+02
       151  24  1.558965E+05  1.241705E+04  1.601729E+04 -1.072646E+03  1.094115E+04  3.032016E+02
       151  25  1.175303E+05 -1.008059E+04 -4.983125E+03 -2.280983E+03  3.570250E+03  7.755699E+02
       151  26  1.132509E+05 -1.251662E+04 -2.988698E+03  7.730096E+02  7.110319E+03  8.855297E+02
       151  27  1.136440E+05  1.869654E+03  5.517104E+03  1.505214E+03  1.065057E+04  3.031613E+02
       152   1  1.476832E+06  5.961417E+06  1.483583E+06 -6.353248E+05  3.981134E+04  5.685119E+04
       152   2  1.159547E+06  4.847866E+06  1.178592E+06  3.019864E+03  1.065537E+05  9.571436E+03
       152   3  9.290779E+05  3.807457E+06  9.347620E+05 -6.458474E+05  6.417342E+04 -3.837699E+04
       152   4  3.220581E+04  1.554325E+05  4.552884E+04 -6.160777E+05  3.994087E+04  1.867889E+04
       152   5 -1.425909E+04  1.221458E+05  2.230285E+04  2.789876E+04  1.066309E+05  5.833747E+03
       152   6  2.030473E+04  1.549056E+05  3.667333E+04 -6.159602E+05  6.383305E+04 -7.764504E+03
       152   7 -1.414937E+06 -5.620128E+06 -1.395030E+06 -5.969743E+05  4.006886E+04 -1.913994E+04
       152   8 -1.189714E+06 -4.583332E+06 -1.135619E+06  5.262294E+04  1.067083E+05  2.124172E+03
       152   9 -8.894569E+05 -3.485553E+06 -8.623944E+05 -5.862068E+05  6.349456E+04  2.266910E+04
       152  10  1.476829E+06  5.961413E+06  1.483574E+06 -6.353266E+05 -1.746609E-09 -1.753125E-09
       152  11  1.159535E+06  4.847863E+06  1.178571E+06  3.019045E+03 -7.144201E-09  1.447863E-08
       152  12  9.290730E+05  3.807454E+06  9.347515E+05 -6.458454E+05  4.465783E-09  1.854297E-08
       152  13  3.220401E+04  1.554316E+05  4.552518E+04 -6.160783E+05 -1.298727E-09 -1.950332E-09
       152  14 -1.427130E+04  1.221427E+05  2.228142E+04  2.789826E+04 -6.506085E-09 -3.727085E-09
       152  15  2.030034E+04  1.549044E+05  3.666556E+04 -6.159598E+05  2.395603E-09 -4.336929E-09
       152  16 -1.414938E+06 -5.620129E+06 -1.395034E+06 -5.969737E+05 -1.559309E-10  2.670815E-09
       152  17 -1.189726E+06 -4.583335E+06 -1.135640E+06  5.262276E+04  5.188467E-11 -1.178638E-08
       152  18 -8.894614E+05 -3.485555E+06 -8.624030E+05 -5.862079E+05  2.558307E-09 -1.189902E-08
       152  19  1.476832E+06  5.961417E+06  1.483583E+06 -6.353248E+05 -3.981134E+04 -5.685119E+04
       152  20  1.159547E+06  4.847866E+06  1.178592E+06  3.019864E+03 -1.065537E+05 -9.571436E+03
       152  21  9.290779E+05  3.807457E+06  9.347620E+05 -6.458474E+05 -6.417342E+04  3.837699E+04
       152  22  3.220581E+04  1.554325E+05  4.552884E+04 -6.160777E+05 -3.994087E+04 -1.867889E+04
       152  23 -1.425909E+04  1.221458E+05  2.230285E+04  2.789876E+04 -1.066309E+05 -5.833747E+03
       152  24  2.030473E+04  1.549056E+05  3.667333E+04 -6.159602E+05 -6.383305E+04  7.764504E+03
       152  25 -1.414937E+06 -5.620128E+06 -1.395030E+06 -5.969743E+05 -4.006886E+04  1.913994E+04
       152  26 -1.189714E+06 -4.583332E+06 -1.135619E+06  5.262294E+04 -1.067083E+05 -2.124172E+03
       152  27 -8.894569E+05 -3.485553E+06 -8.623944E+05 -5.862068E+05 -6.349456E+04 -2.266910E+04
       153   1  2.366106E+05  1.036638E+06  2.557167E+05 -6.277444E+05  2.316941E+04 -2.372636E+04
       153   2 -5.127928E+04 -2.436229E+04  9.464209E+03  3.053536E+04 -2.893487E+03 -5.051905E+04
       153   3 -2.567037E+05 -1.099133E+06 -2.069876E+05 -5.960518E+05 -2.827758E+04 -7.724307E+04
       153   4  1.351343E+04  1.409197E+05  3.654229E+04 -6.154969E+05  2.306133E+04 -1.537682E+04
       153   5 -8.169041E+03  1.483399E+05  5.193523E+04  2.715630E+04 -2.994821E+03 -4.239473E+04
       153   6  5.271389E+04  1.409431E+05  9.733123E+04 -6.150118E+05 -2.837389E+04 -6.938923E+04
       153   7 -2.096428E+05 -7.540685E+05 -1.826905E+05 -6.032643E+05  2.295350E+04 -7.039274E+03
       153   8  3.493904E+04  3.210694E+05  9.440430E+04  2.377638E+04 -3.096230E+03 -3.426816E+04
       153   9  3.620181E+05  1.382422E+06  4.015374E+05 -6.340046E+05 -2.847059E+04 -6.151961E+04
       153  10  2.366099E+05  1.036638E+06  2.557146E+05 -6.277440E+05  4.716280E-10  9.207734E-09
       153  11 -5.127997E+04 -2.436504E+04  9.459398E+03  3.053524E+04 -1.412874E-09  2.092852E-08
       153  12 -2.567062E+05 -1.099140E+06 -2.070004E+05 -5.960536E+05 -4.113557E-09  1.687159E-08
       153  13  1.351279E+04  1.409193E+05  3.654085E+04 -6.154966E+05  6.202299E-10 -1.302683E-08
       153  14 -8.169533E+03  1.483380E+05  5.193184E+04  2.715620E+04  3.565706E-09 -6.679028E-09
       153  15  5.271173E+04  1.409378E+05  9.732067E+04 -6.150134E+05  1.018554E-08 -4.819932E-09
       153  16 -2.096434E+05 -7.540687E+05 -1.826916E+05 -6.032642E+05  1.285757E-09 -2.480563E-09
       153  17  3.493872E+04  3.210682E+05  9.440208E+04  2.377630E+04 -1.125600E-08 -1.752977E-08
       153  18  3.620162E+05  1.382417E+06  4.015288E+05 -6.340060E+05 -1.368147E-09 -8.964792E-09
       153  19  2.366106E+05  1.036638E+06  2.557167E+05 -6.277444E+05 -2.316941E+04  2.372636E+04
       153  20 -5.127928E+04 -2.436229E+04  9.464209E+03  3.053536E+04  2.893487E+03  5.051905E+04
       153  21 -2.567037E+05 -1.099133E+06 -2.069876E+05 -5.960518E+05  2.827758E+04  7.724307E+04
       153  22  1.351343E+04  1.409197E+05  3.654229E+04 -6.154969E+05 -2.306133E+04  1.537682E+04
       153  23 -8.169041E+03  1.483399E+05  5.193523E+04  2.715630E+04  2.994821E+03  4.239473E+04
       153  24  5.271389E+04  1.409431E+05  9.733123E+04 -6.150118E+05  2.837389E+04  6.938923E+04
       153  25 -2.096428E+05 -7.540685E+05 -1.826905E+05 -6.032643E+05 -2.295350E+04  7.039274E+03
       153  26  3.493904E+04  3.210694E+05  9.440430E+04  2.377638E+04  3.096230E+03  3.426816E+04
       153  27  3.620181E+05  1.382422E+06  4.015374E+05 -6.340046E+05  2.847059E+04  6.151961E+04
       154   1 -9.923707E+05 -3.803391E+06 -8.614922E+05 -6.126399E+05 -6.948205E+04 -1.210623E+05
       154   2 -1.334493E+06 -4.961949E+06 -1.068028E+06  6.750739E+04 -1.131246E+05 -1.819474E+05
       154   3 -1.211428E+06 -5.938155E+06 -1.107029E+06 -5.419648E+05 -4.214797E+04 -2.420574E+05
       154   4  2.721569E+03  1.811483E+05  1.223184E+05 -6.165930E+05 -6.981233E+04 -8.999478E+04
       154   5 -7.243242E+04  8.804908E+04  1.750123E+05  2.811915E+04 -1.130291E+05 -1.871124E+05
       154   6  3.222264E+05  1.817178E+05  4.194793E+05 -6.160908E+05 -4.203052E+04 -2.835667E+05
       154   7  9.966291E+05  4.180181E+06  1.104957E+06 -6.205236E+05 -7.014192E+04 -5.872569E+04
       154   8  1.187731E+06  5.161373E+06  1.416172E+06 -1.155787E+04 -1.129334E+05 -1.923147E+05
       154   9  1.853074E+06  6.335779E+06  1.943178E+06 -6.909239E+05 -4.190403E+04 -3.254768E+05
       154  10 -9.923799E+05 -3.803408E+06 -8.615290E+05 -6.126467E+05  1.821670E-09  1.043428E-08
       154  11 -1.334516E+06 -4.961988E+06 -1.068115E+06  6.749076E+04 -5.495214E-10  9.262937E-09
       154  12 -1.211446E+06 -5.938219E+06 -1.107143E+06 -5.419730E+05 -4.232597E-10  9.374658E-10
       154  13  2.714152E+03  1.811383E+05  1.222940E+05 -6.165981E+05 -4.877431E-09 -1.122047E-08
       154  14 -7.245553E+04  8.800807E+04  1.749226E+05  2.810212E+04  2.588860E-10 -3.269405E-09
       154  15  3.222029E+05  1.816310E+05  4.193249E+05 -6.161004E+05 -1.752270E-09 -2.290604E-10
       154  16  9.966229E+05  4.180176E+06  1.104941E+06 -6.205269E+05  5.854996E-09 -4.964356E-09
       154  17  1.187707E+06  5.161330E+06  1.416079E+06 -1.157530E+04 -2.101804E-09 -8.081513E-09
       154  18  1.853044E+06  6.335666E+06  1.942978E+06 -6.909349E+05 -2.402163E-09 -6.468429E-10
       154  19 -9.923707E+05 -3.803391E+06 -8.614922E+05 -6.126399E+05  6.948205E+04  1.210623E+05
       154  20 -1.334493E+06 -4.961949E+06 -1.068028E+06  6.750739E+04  1.131246E+05  1.819474E+05
       154  21 -1.211428E+06 -5.938155E+06 -1.107029E+06 -5.419648E+05  4.214797E+04  2.420574E+05
       154  22  2.721569E+03  1.811483E+05  1.223184E+05 -6.165930E+05  6.981233E+04  8.999478E+04
       154  23 -7.243242E+04  8.804908E+04  1.750123E+05  2.811915E+04  1.130291E+05  1.871124E+05
       154  24  3.222264E+05  1.817178E+05  4.194793E+05 -6.160908E+05  4.203052E+04  2.835667E+05
       154  25  9.966291E+05  4.180181E+06  1.104957E+06 -6.205236E+05  7.014192E+04  5.872569E+04
       154  26  1.187731E+06  5.161373E+06  1.416172E+06 -1.155787E+04  1.129334E+05  1.923147E+05
       154  27  1.853074E+06  6.335779E+06  1.943178E+06 -6.909239E+05  4.190403E+04  3.254768E+05
       155   1 -2.125772E+05 -9.277690E+04 -4.408393E+04 -9.873278E+04 -2.347583E+04 -8.091231E+03
       155   2 -2.013347E+05 -6.252646E+04 -2.279060E+04 -9.289891E+04 -1.390759E+04 -3.077342E+03
       155   3 -1.945521E+05 -4.755272E+04 -1.260191E+04 -8.607069E+04 -3.816293E+03  5.431443E+02
       155   4 -1.692838E+05 -6.035618E+04 -2.980943E+04 -7.020504E+04 -1.967202E+04 -6.665259E+03
       155   5 -1.657320E+05 -4.168147E+04 -1.411196E+04 -7.494237E+04 -1.282747E+04 -2.672441E+03
       155   6 -1.661002E+05 -3.774374E+04 -7.360744E+03 -7.868573E+04 -5.459940E+03 -7.333136E+01
       155   7 -1.259887E+05 -2.793363E+04 -1.553527E+04 -4.167554E+04 -1.586800E+04 -5.238959E+03
       155   8 -1.301280E+05 -2.083578E+04 -5.433448E+03 -5.698480E+04 -1.174728E+04 -2.267483E+03
       155   9 -1.376472E+05 -2.793464E+04 -2.119538E+03 -7.130041E+04 -7.103680E+03 -6.898384E+02
       155  10 -2.125778E+05 -9.277712E+04 -4.408508E+04 -9.873293E+04 -1.770630E-09 -7.001044E-10
       155  11 -2.013349E+05 -6.252653E+04 -2.279098E+04 -9.289895E+04 -3.691604E-10  7.074636E-11
       155  12 -1.945521E+05 -4.755272E+04 -1.260194E+04 -8.607069E+04 -8.785651E-10 -9.484678E-10
       155  13 -1.692842E+05 -6.035633E+04 -2.981024E+04 -7.020515E+04  1.998789E-09  6.592326E-10
       155  14 -1.657321E+05 -4.168152E+04 -1.411228E+04 -7.494240E+04 -2.777372E-11  1.678836E-09
       155  15 -1.661002E+05 -3.774375E+04 -7.360800E+03 -7.868573E+04 -1.778659E-09  1.274902E-09
       155  16 -1.259890E+05 -2.793373E+04 -1.553580E+04 -4.167560E+04  2.029162E-09  1.867258E-09
       155  17 -1.301281E+05 -2.083582E+04 -5.433717E+03 -5.698482E+04 -5.036953E-10  3.131450E-09
       155  18 -1.376473E+05 -2.793465E+04 -2.119634E+03 -7.130042E+04 -1.780483E-09  3.441871E-09
       155  19 -2.125772E+05 -9.277690E+04 -4.408393E+04 -9.873278E+04  2.347583E+04  8.091231E+03
       155  20 -2.013347E+05 -6.252646E+04 -2.279060E+04 -9.289891E+04  1.390759E+04  3.077342E+03
       155  21 -1.945521E+05 -4.755272E+04 -1.260191E+04 -8.607069E+04  3.816293E+03 -5.431443E+02
       155  22 -1.692838E+05 -6.035618E+04 -2.980943E+04 -7.020504E+04  1.967202E+04  6.665259E+03
       155  23 -1.657320E+05 -4.168147E+04 -1.411196E+04 -7.494237E+04  1.282747E+04  2.672441E+03
       155  24 -1.661002E+05 -3.774374E+04 -7.360744E+03 -7.868573E+04  5.459940E+03  7.333136E+01
       155  25 -1.259887E+05 -2.793363E+04 -1.553527E+04 -4.167554E+04  1.586800E+04  5.238959E+03
       155  26 -1.301280E+05 -2.083578E+04 -5.433448E+03 -5.698480E+04  1.174728E+04  2.267483E+03
       155  27 -1.376472E+05 -2.793464E+04 -2.119538E+03 -7.130041E+04  7.103680E+03  6.898384E+02
       156   1 -1.841913E+05 -4.507260E+04 -9.123031E+03 -8.449220E+04 -2.879520E+03  2.911107E+02
       156   2 -1.716501E+05 -3.778116E+04 -4.039366E+03 -7.962105E+04 -8.285002E+02  7.199704E+01
       156   3 -1.577588E+05 -3.335041E+04 -4.886550E+02 -7.678432E+04  1.276158E+03 -2.900682E+02
       156   4 -1.652525E+05 -3.747876E+04 -5.490740E+03 -7.846348E+04 -4.433423E+03 -2.917026E+02
       156   5 -1.658571E+05 -3.537970E+04 -2.867801E+03 -7.770739E+04 -2.661812E+03 -6.156015E+02
       156   6 -1.650563E+05 -3.608595E+04 -1.556377E+03 -7.898576E+04 -8.365818E+02 -1.082467E+03
       156   7 -1.463135E+05 -2.988495E+04 -1.858515E+03 -7.243465E+04 -5.987358E+03 -8.745329E+02
       156   8 -1.600641E+05 -3.297822E+04 -1.696223E+03 -7.579370E+04 -4.495143E+03 -1.303209E+03
       156   9 -1.723538E+05 -3.882151E+04 -2.624104E+03 -8.118720E+04 -2.949319E+03 -1.874863E+03
       156  10 -1.841913E+05 -4.507260E+04 -9.123047E+03 -8.449220E+04 -1.164619E-08 -5.633366E-09
       156  11 -1.716501E+05 -3.778116E+04 -4.039368E+03 -7.962105E+04 -1.811119E-08 -5.034300E-09
       156  12 -1.577588E+05 -3.335041E+04 -4.886582E+02 -7.678432E+04 -1.607499E-08 -7.710547E-10
       156  13 -1.652525E+05 -3.747876E+04 -5.490777E+03 -7.846348E+04 -5.407622E-10 -1.511243E-09
       156  14 -1.658571E+05 -3.537970E+04 -2.867815E+03 -7.770739E+04 -3.449326E-09 -8.195258E-09
       156  15 -1.650563E+05 -3.608595E+04 -1.556381E+03 -7.898576E+04  6.923364E-10 -1.289719E-08
       156  16 -1.463135E+05 -2.988496E+04 -1.858583E+03 -7.243465E+04  9.717543E-09  7.197908E-09
       156  17 -1.600641E+05 -3.297823E+04 -1.696265E+03 -7.579370E+04  1.246831E-08  8.523320E-09
       156  18 -1.723538E+05 -3.882152E+04 -2.624127E+03 -8.118720E+04  1.455785E-08  9.862627E-09
       156  19 -1.841913E+05 -4.507260E+04 -9.123031E+03 -8.449220E+04  2.879520E+03 -2.911107E+02
       156  20 -1.716501E+05 -3.778116E+04 -4.039366E+03 -7.962105E+04  8.285002E+02 -7.199704E+01
       156  21 -1.577588E+05 -3.335041E+04 -4.886550E+02 -7.678432E+04 -1.276158E+03  2.900682E+02
       156  22 -1.652525E+05 -3.747876E+04 -5.490740E+03 -7.846348E+04  4.433423E+03  2.917026E+02
       156  23 -1.658571E+05 -3.537970E+04 -2.867801E+03 -7.770739E+04  2.661812E+03  6.156015E+02
       156  24 -1.650563E+05 -3.608595E+04 -1.556377E+03 -7.898576E+04  8.365818E+02  1.082467E+03
       156  25 -1.463135E+05 -2.988495E+04 -1.858515E+03 -7.243465E+04  5.987358E+03  8.745329E+02
       156  26 -1.600641E+05 -3.297822E+04 -1.696223E+03 -7.579370E+04  4.495143E+03  1.303209E+03
       156  27 -1.723538E+05 -3.882151E+04 -2.624104E+03 -8.118720E+04  2.949319E+03  1.874863E+03
       157   1 -1.490776E+05 -3.035301E+04  1.339080E+03 -7.446106E+04  1.716069E+03 -8.472731E+02
       157   2 -1.365718E+05 -2.452451E+04  4.009494E+03 -6.960593E+04  2.467468E+03 -1.801297E+03
       157   3 -1.222076E+05 -2.068735E+04  6.407258E+03 -6.695735E+04  3.224334E+03 -2.769864E+03
       157   4 -1.649789E+05 -3.607818E+04 -1.165303E+03 -7.895862E+04 -3.874361E+02 -1.636216E+03
       157   5 -1.659072E+05 -3.505731E+04 -6.337446E+02 -7.786590E+04  3.355142E+02 -2.600934E+03
       157   6 -1.649715E+05 -3.602217E+04 -3.522904E+02 -7.897981E+04  1.063921E+03 -3.580195E+03
       157   7 -1.808800E+05 -4.180331E+04 -3.669669E+03 -8.345607E+04 -2.490883E+03 -2.425138E+03
       157   8 -1.952414E+05 -4.558996E+04 -5.276929E+03 -8.612546E+04 -1.796320E+03 -3.400525E+03
       157   9 -2.077329E+05 -5.135660E+04 -7.111711E+03 -9.100135E+04 -1.096310E+03 -4.390457E+03
       157  10 -1.490776E+05 -3.035301E+04  1.339073E+03 -7.446106E+04  1.533690E-08  1.108381E-08
       157  11 -1.365718E+05 -2.452451E+04  4.009476E+03 -6.960593E+04  1.911906E-08  1.058585E-08
       157  12 -1.222076E+05 -2.068736E+04  6.407224E+03 -6.695734E+04  1.521260E-08  7.863031E-09
       157  13 -1.649789E+05 -3.607818E+04 -1.165308E+03 -7.895862E+04  4.794256E-09 -1.241942E-08
       157  14 -1.659072E+05 -3.505732E+04 -6.337575E+02 -7.786590E+04  1.188788E-09 -7.042220E-09
       157  15 -1.649715E+05 -3.602218E+04 -3.523167E+02 -7.897981E+04  1.193290E-09 -1.660134E-09
       157  16 -1.808800E+05 -4.180332E+04 -3.669692E+03 -8.345607E+04 -9.968525E-09 -9.194603E-10
       157  17 -1.952414E+05 -4.558997E+04 -5.276957E+03 -8.612546E+04 -9.642425E-09 -4.934364E-09
       157  18 -2.077329E+05 -5.135662E+04 -7.111750E+03 -9.100135E+04 -1.320517E-08 -6.617118E-09
       157  19 -1.490776E+05 -3.035301E+04  1.339080E+03 -7.446106E+04 -1.716069E+03  8.472731E+02
       157  20 -1.365718E+05 -2.452451E+04  4.009494E+03 -6.960593E+04 -2.467468E+03  1.801297E+03
       157  21 -1.222076E+05 -2.068735E+04  6.407258E+03 -6.695735E+04 -3.224334E+03  2.769864E+03
       157  22 -1.649789E+05 -3.607818E+04 -1.165303E+03 -7.895862E+04  3.874361E+02  1.636216E+03
       157  23 -1.659072E+05 -3.505731E+04 -6.337446E+02 -7.786590E+04 -3.355142E+02  2.600934E+03
       157  24 -1.649715E+05 -3.602217E+04 -3.522904E+02 -7.897981E+04 -1.063921E+03  3.580195E+03
       157  25 -1.808800E+05 -4.180331E+04 -3.669669E+03 -8.345607E+04  2.490883E+03  2.425138E+03
       157  26 -1.952414E+05 -4.558996E+04 -5.276929E+03 -8.612546E+04  1.796320E+03  3.400525E+03
       157  27 -2.077329E+05 -5.135660E+04 -7.111711E+03 -9.100135E+04  1.096310E+03  4.390457E+03
       158   1 -1.136715E+05 -1.763737E+04  7.911412E+03 -6.457954E+04  3.515671E+03 -3.394804E+03
       158   2 -1.011980E+05 -1.187984E+04  1.012836E+04 -5.971595E+04  4.009293E+03 -4.470180E+03
       158   3 -8.680939E+04 -8.051864E+03  1.228600E+04 -5.706091E+04  4.503246E+03 -5.546305E+03
       158   4 -1.649620E+05 -3.602392E+04 -2.670001E+02 -7.897488E+04  1.356342E+03 -4.204753E+03
       158   5 -1.659203E+05 -3.506210E+04 -1.557494E+02 -7.786956E+04  1.848436E+03 -5.280764E+03
       158   6 -1.649636E+05 -3.602973E+04 -1.027045E+02 -7.897301E+04  2.340859E+03 -6.357522E+03
       158   7 -2.162504E+05 -5.441043E+04 -8.445611E+03 -9.336927E+04 -8.028234E+02 -5.014640E+03
       158   8 -2.306384E+05 -5.824407E+04 -1.044002E+04 -9.602150E+04 -3.121948E+02 -6.091263E+03
       158   9 -2.431112E+05 -6.400696E+04 -1.249151E+04 -1.008825E+05  1.787591E+02 -7.168632E+03
       158  10 -1.136715E+05 -1.763739E+04  7.911367E+03 -6.457953E+04  3.442816E-09  2.387287E-09
       158  11 -1.011980E+05 -1.187987E+04  1.012829E+04 -5.971594E+04  3.657622E-09  1.151391E-09
       158  12 -8.680942E+04 -8.051902E+03  1.228590E+04 -5.706089E+04  1.469945E-11  2.188430E-09
       158  13 -1.649620E+05 -3.602394E+04 -2.670368E+02 -7.897487E+04  3.337457E-09 -3.361931E-10
       158  14 -1.659203E+05 -3.506213E+04 -1.558082E+02 -7.786956E+04 -3.004697E-10 -3.282618E-10
       158  15 -1.649636E+05 -3.602977E+04 -1.027907E+02 -7.897300E+04 -9.029785E-10  1.629826E-09
       158  16 -2.162504E+05 -5.441045E+04 -8.445659E+03 -9.336927E+04 -3.256148E-09 -3.049748E-09
       158  17 -2.306384E+05 -5.824411E+04 -1.044009E+04 -9.602150E+04  4.211540E-10 -1.496960E-09
       158  18 -2.431112E+05 -6.400702E+04 -1.249161E+04 -1.008825E+05  1.823951E-09  1.129702E-09
       158  19 -1.136715E+05 -1.763737E+04  7.911412E+03 -6.457954E+04 -3.515671E+03  3.394804E+03
       158  20 -1.011980E+05 -1.187984E+04  1.012836E+04 -5.971595E+04 -4.009293E+03  4.470180E+03
       158  21 -8.680939E+04 -8.051864E+03  1.228600E+04 -5.706091E+04 -4.503246E+03  5.546305E+03
       158  22 -1.649620E+05 -3.602392E+04 -2.670001E+02 -7.897488E+04 -1.356342E+03  4.204753E+03
       158  23 -1.659203E+05 -3.506210E+04 -1.557494E+02 -7.786956E+04 -1.848436E+03  5.280764E+03
       158  24 -1.649636E+05 -3.602973E+04 -1.027045E+02 -7.897301E+04 -2.340859E+03  6.357522E+03
       158  25 -2.162504E+05 -5.441043E+04 -8.445611E+03 -9.336927E+04  8.028234E+02  5.014640E+03
       158  26 -2.306384E+05 -5.824407E+04 -1.044002E+04 -9.602150E+04  3.121948E+02  6.091263E+03
       158  27 -2.431112E+05 -6.400696E+04 -1.249151E+04 -1.008825E+05 -1.787591E+02  7.168632E+03
       159   1 -7.829267E+04 -4.995199E+03  1.371493E+04 -5.467995E+04  4.761094E+03 -6.184279E+03
       159   2 -6.583098E+04  7.633944E+02  1.582158E+04 -4.981641E+04  5.208865E+03 -7.274867E+03
       159   3 -5.144782E+04  4.597474E+03  1.790347E+04 -4.715922E+04  5.654535E+03 -8.359661E+03
       159   4 -1.649634E+05 -3.603046E+04 -9.107607E+01 -7.897223E+04  2.598697E+03 -6.995540E+03
       159   5 -1.659233E+05 -3.506845E+04 -9.054968E+01 -7.786864E+04  3.057738E+03 -8.081985E+03
       159   6 -1.649642E+05 -3.603311E+04 -1.236779E+02 -7.897139E+04  3.514679E+03 -9.162642E+03
       159   7 -2.516251E+05 -6.706457E+04 -1.389693E+04 -1.032611E+05  4.366436E+02 -7.806673E+03
       159   8 -2.660049E+05 -7.089926E+04 -1.600285E+04 -1.059166E+05  9.069771E+02 -8.888965E+03
       159   9 -2.784679E+05 -7.666285E+04 -1.815140E+04 -1.107785E+05  1.375213E+03 -9.965476E+03
       159  10 -7.829270E+04 -4.995246E+03  1.371482E+04 -5.467993E+04  6.005730E-08  2.568533E-08
       159  11 -6.583103E+04  7.633303E+02  1.582143E+04 -4.981637E+04  1.223274E-08  5.398083E-09
       159  12 -5.144787E+04  4.597390E+03  1.790327E+04 -4.715918E+04 -4.881736E-08 -1.836898E-08
       159  13 -1.649634E+05 -3.603052E+04 -9.118072E+01 -7.897222E+04  4.969598E-09  3.661982E-09
       159  14 -1.659234E+05 -3.506852E+04 -9.068998E+01 -7.786862E+04  1.165165E-08  5.555196E-09
       159  15 -1.649642E+05 -3.603320E+04 -1.238588E+02 -7.897137E+04  2.849470E-09  2.662730E-09
       159  16 -2.516251E+05 -6.706464E+04 -1.389705E+04 -1.032611E+05 -5.424089E-08 -1.795957E-08
       159  17 -2.660049E+05 -7.089934E+04 -1.600300E+04 -1.059166E+05  8.540820E-09  5.558966E-09
       159  18 -2.784680E+05 -7.666296E+04 -1.815159E+04 -1.107784E+05  5.697318E-08  2.457237E-08
       159  19 -7.829267E+04 -4.995199E+03  1.371493E+04 -5.467995E+04 -4.761094E+03  6.184279E+03
       159  20 -6.583098E+04  7.633944E+02  1.582158E+04 -4.981641E+04 -5.208865E+03  7.274867E+03
       159  21 -5.144782E+04  4.597474E+03  1.790347E+04 -4.715922E+04 -5.654535E+03  8.359661E+03
       159  22 -1.649634E+05 -3.603046E+04 -9.107607E+01 -7.897223E+04 -2.598697E+03  6.995540E+03
       159  23 -1.659233E+05 -3.506845E+04 -9.054968E+01 -7.786864E+04 -3.057738E+03  8.081985E+03
       159  24 -1.649642E+05 -3.603311E+04 -1.236779E+02 -7.897139E+04 -3.514679E+03  9.162642E+03
       159  25 -2.516251E+05 -6.706457E+04 -1.389693E+04 -1.032611E+05 -4.366436E+02  7.806673E+03
       159  26 -2.660049E+05 -7.089926E+04 -1.600285E+04 -1.059166E+05 -9.069771E+02  8.888965E+03
       159  27 -2.784679E+05 -7.666285E+04 -1.815140E+04 -1.107785E+05 -1.375213E+03  9.965476E+03
       160   1 -4.293615E+04  7.654839E+03  1.929576E+04 -4.478190E+04  5.920722E+03 -8.989470E+03
       160   2 -3.048435E+04  1.341761E+04  2.133845E+04 -3.992023E+04  6.344548E+03 -1.004916E+04
       160   3 -1.611450E+04  1.725621E+04  2.336358E+04 -3.725861E+04  6.747522E+03 -1.105302E+04
       160   4 -1.649692E+05 -3.603251E+04 -1.546401E+02 -7.897216E+04  3.777702E+03 -9.793700E+03
       160   5 -1.659202E+05 -3.507303E+04 -2.642141E+02 -7.786741E+04  4.310589E+03 -1.081258E+04
       160   6 -1.649748E+05 -3.605939E+04 -4.777417E+02 -7.896286E+04  4.822620E+03 -1.177564E+04
       160   7 -2.869862E+05 -7.971829E+04 -1.960529E+04 -1.131561E+05  1.635129E+03 -1.059776E+04
       160   8 -3.013355E+05 -8.356146E+04 -2.186699E+04 -1.158066E+05  2.277113E+03 -1.157583E+04
       160   9 -3.138095E+05 -8.937205E+04 -2.431900E+04 -1.206572E+05  2.898229E+03 -1.249806E+04
       160  10 -4.293621E+04  7.654743E+03  1.929554E+04 -4.478186E+04  1.889465E-09 -1.554764E-10
       160  11 -3.048443E+04  1.341749E+04  2.133819E+04 -3.992018E+04 -9.049613E-10 -1.186284E-09
       160  12 -1.611458E+04  1.725607E+04  2.336327E+04 -3.725855E+04 -5.551215E-09  6.191412E-10
       160  13 -1.649693E+05 -3.603261E+04 -1.548472E+02 -7.897213E+04 -2.496556E-09  1.106006E-09
       160  14 -1.659202E+05 -3.507316E+04 -2.644687E+02 -7.786737E+04  5.854941E-10  3.786027E-10
       160  15 -1.649749E+05 -3.605955E+04 -4.780459E+02 -7.896282E+04  2.228532E-09  7.895880E-10
       160  16 -2.869863E+05 -7.971841E+04 -1.960551E+04 -1.131561E+05 -4.163300E-09  2.083746E-09
       160  17 -3.013355E+05 -8.356160E+04 -2.186725E+04 -1.158066E+05 -3.502884E-10  5.217196E-10
       160  18 -3.138096E+05 -8.937222E+04 -2.431931E+04 -1.206572E+05  3.542862E-09  8.604995E-10
       160  19 -4.293615E+04  7.654839E+03  1.929576E+04 -4.478190E+04 -5.920722E+03  8.989470E+03
       160  20 -3.048435E+04  1.341761E+04  2.133845E+04 -3.992023E+04 -6.344548E+03  1.004916E+04
       160  21 -1.611450E+04  1.725621E+04  2.336358E+04 -3.725861E+04 -6.747522E+03  1.105302E+04
       160  22 -1.649692E+05 -3.603251E+04 -1.546401E+02 -7.897216E+04 -3.777702E+03  9.793700E+03
       160  23 -1.659202E+05 -3.507303E+04 -2.642141E+02 -7.786741E+04 -4.310589E+03  1.081258E+04
       160  24 -1.649748E+05 -3.605939E+04 -4.777417E+02 -7.896286E+04 -4.822620E+03  1.177564E+04
       160  25 -2.869862E+05 -7.971829E+04 -1.960529E+04 -1.131561E+05 -1.635129E+03  1.059776E+04
       160  26 -3.013355E+05 -8.356146E+04 -2.186699E+04 -1.158066E+05 -2.277113E+03  1.157583E+04
       160  27 -3.138095E+05 -8.937205E+04 -2.431900E+04 -1.206572E+05 -2.898229E+03  1.249806E+04
       161   1 -7.584476E+03  2.030722E+04  2.469431E+04 -3.491234E+04  7.093289E+03 -1.160629E+04
       161   2  4.722336E+03  2.613368E+04  2.677749E+04 -2.990588E+04  6.898646E+03 -1.251371E+04
       161   3  1.892413E+04  2.991925E+04  2.916612E+04 -2.699740E+04  6.500834E+03 -1.287961E+04
       161   4 -1.650115E+05 -3.605713E+04 -6.356046E+02 -7.896631E+04  5.134051E+03 -1.234186E+04
       161   5 -1.658951E+05 -3.521672E+04 -1.168213E+03 -7.781068E+04  5.997975E+03 -1.285216E+04
       161   6 -1.650939E+05 -3.662716E+04 -2.234162E+03 -7.875334E+04  6.658728E+03 -1.282084E+04
       161   7 -3.224138E+05 -9.241966E+04 -2.596653E+04 -1.230103E+05  3.175317E+03 -1.307724E+04
       161   8 -3.364825E+05 -9.656453E+04 -2.911486E+04 -1.257034E+05  5.097561E+03 -1.319051E+04
       161   9 -3.490760E+05 -1.031702E+05 -3.363540E+04 -1.304949E+05  6.816573E+03 -1.276208E+04
       161  10 -7.584566E+03  2.030706E+04  2.469397E+04 -3.491227E+04 -1.651381E-09  2.964312E-09
       161  11  4.722243E+03  2.613350E+04  2.677711E+04 -2.990581E+04 -3.390141E-09  2.147058E-09
       161  12  1.892404E+04  2.991906E+04  2.916573E+04 -2.699733E+04  5.954040E-10  2.579046E-09
       161  13 -1.650116E+05 -3.605731E+04 -6.359403E+02 -7.896626E+04 -1.403071E-09  6.148754E-10
       161  14 -1.658952E+05 -3.521690E+04 -1.168591E+03 -7.781062E+04  2.367554E-09  1.135330E-09
       161  15 -1.650940E+05 -3.662735E+04 -2.234555E+03 -7.875327E+04  1.171697E-08  3.626324E-09
       161  16 -3.224139E+05 -9.241985E+04 -2.596687E+04 -1.230103E+05  1.623847E-09 -1.266965E-09
       161  17 -3.364826E+05 -9.656472E+04 -2.911523E+04 -1.257034E+05  6.483735E-09  3.002645E-10
       161  18 -3.490761E+05 -1.031704E+05 -3.363579E+04 -1.304949E+05  1.385090E-08  4.782278E-09
       161  19 -7.584476E+03  2.030722E+04  2.469431E+04 -3.491234E+04 -7.093289E+03  1.160629E+04
       161  20  4.722336E+03  2.613368E+04  2.677749E+04 -2.990588E+04 -6.898646E+03  1.251371E+04
       161  21  1.892413E+04  2.991925E+04  2.916612E+04 -2.699740E+04 -6.500834E+03  1.287961E+04
       161  22 -1.650115E+05 -3.605713E+04 -6.356046E+02 -7.896631E+04 -5.134051E+03  1.234186E+04
       161  23 -1.658951E+05 -3.521672E+04 -1.168213E+03 -7.781068E+04 -5.997975E+03  1.285216E+04
       161  24 -1.650939E+05 -3.662716E+04 -2.234162E+03 -7.875334E+04 -6.658728E+03  1.282084E+04
       161  25 -3.224138E+05 -9.241966E+04 -2.596653E+04 -1.230103E+05 -3.175317E+03  1.307724E+04
       161  26 -3.364825E+05 -9.656453E+04 -2.911486E+04 -1.257034E+05 -5.097561E+03  1.319051E+04
       161  27 -3.490760E+05 -1.031702E+05 -3.363540E+04 -1.304949E+05 -6.816573E+03  1.276208E+04
       162   1  2.772541E+04  3.278409E+04  3.054563E+04 -2.502212E+04  7.253755E+03 -1.282961E+04
       162   2  3.759575E+04  3.947599E+04  3.495019E+04 -1.700270E+04 -1.038561E+03 -1.303874E+04
       162   3  4.878621E+04  4.135347E+04  4.388730E+04 -9.571087E+03 -1.131166E+04 -7.973386E+03
       162   4 -1.654932E+05 -3.668181E+04 -2.994438E+03 -7.878187E+04  7.072172E+03 -1.289827E+04
       162   5 -1.657814E+05 -3.784951E+04 -5.740723E+03 -7.676350E+04  9.092582E+03 -9.236210E+03
       162   6 -1.667928E+05 -4.587534E+04 -1.212528E+04 -7.533321E+04  9.132228E+03 -2.986754E+02
       162   7 -3.586718E+05 -1.061440E+05 -3.653550E+04 -1.325259E+05  6.890649E+03 -1.296691E+04
       162   8 -3.691119E+05 -1.151690E+05 -4.643222E+04 -1.365048E+05  1.922000E+04 -5.435207E+03
       162   9 -3.823186E+05 -1.330959E+05 -6.813809E+04 -1.410716E+05  2.956773E+04  7.372341E+03
       162  10  2.772531E+04  3.278390E+04  3.054522E+04 -2.502205E+04  1.060236E-08  4.856025E-09
       162  11  3.759570E+04  3.947581E+04  3.494987E+04 -1.700271E+04  1.012758E-08  1.825299E-09
       162  12  4.878605E+04  4.135337E+04  4.388694E+04 -9.571160E+03  5.550918E-09  1.068304E-09
       162  13 -1.654932E+05 -3.668200E+04 -2.994844E+03 -7.878179E+04  1.625388E-08  3.836481E-09
       162  14 -1.657815E+05 -3.784962E+04 -5.741039E+03 -7.676343E+04  1.134750E-08  2.100653E-09
       162  15 -1.667929E+05 -4.587536E+04 -1.212544E+04 -7.533321E+04  2.900085E-09  9.663617E-10
       162  16 -3.586718E+05 -1.061442E+05 -3.653590E+04 -1.325258E+05  9.431740E-09  4.034073E-09
       162  17 -3.691123E+05 -1.151691E+05 -4.643297E+04 -1.365047E+05  8.377804E-09  4.494766E-09
       162  18 -3.823196E+05 -1.330962E+05 -6.813984E+04 -1.410718E+05 -3.501576E-10  5.271172E-10
       162  19  2.772541E+04  3.278409E+04  3.054563E+04 -2.502212E+04 -7.253755E+03  1.282961E+04
       162  20  3.759575E+04  3.947599E+04  3.495019E+04 -1.700270E+04  1.038561E+03  1.303874E+04
       162  21  4.878621E+04  4.135347E+04  4.388730E+04 -9.571087E+03  1.131166E+04  7.973386E+03
       162  22 -1.654932E+05 -3.668181E+04 -2.994438E+03 -7.878187E+04 -7.072172E+03  1.289827E+04
       162  23 -1.657814E+05 -3.784951E+04 -5.740723E+03 -7.676350E+04 -9.092582E+03  9.236210E+03
       162  24 -1.667928E+05 -4.587534E+04 -1.212528E+04 -7.533321E+04 -9.132228E+03  2.986754E+02
       162  25 -3.586718E+05 -1.061440E+05 -3.653550E+04 -1.325259E+05 -6.890649E+03  1.296691E+04
       162  26 -3.691119E+05 -1.151690E+05 -4.643222E+04 -1.365048E+05 -1.922000E+04  5.435207E+03
       162  27 -3.823186E+05 -1.330959E+05 -6.813809E+04 -1.410716E+05 -2.956773E+04 -7.372341E+03
       163   1 -1.464238E+05 -2.811190E+04 -4.235709E+04 -8.253632E+03 -4.246441E+04 -6.043083E+02
       163   2 -1.406846E+05  2.957854E+04 -7.614701E+03 -2.873916E+03 -2.811207E+04 -1.755914E+03
       163   3 -1.533609E+05  2.102644E+04  1.226163E+03  6.653270E+03 -1.376060E+04 -1.547300E+03
       163   4 -2.294871E+05 -4.885000E+04 -6.300592E+04  1.900491E+03 -4.303318E+04 -6.052008E+02
       163   5 -2.202388E+05  9.759813E+03 -2.715247E+04 -1.822223E+02 -2.825839E+04 -1.756111E+03
       163   6 -2.294819E+05  2.048958E+03 -1.749646E+04  1.882619E+03 -1.348437E+04 -1.547071E+03
       163   7 -3.125439E+05 -6.958823E+04 -8.365521E+04  1.205325E+04 -4.360189E+04 -6.061120E+02
       163   8 -2.997872E+05 -1.005936E+04 -4.669070E+04  2.509125E+03 -2.840469E+04 -1.756310E+03
       163   9 -3.055976E+05 -1.692887E+04 -3.621951E+04 -2.887446E+03 -1.320818E+04 -1.546847E+03
       163  10 -1.464257E+05 -2.811238E+04 -4.236048E+04 -8.253653E+03  9.379265E-10  3.106982E-10
       163  11 -1.406854E+05  2.957833E+04 -7.616192E+03 -2.873955E+03 -1.874161E-09 -1.220174E-10
       163  12 -1.533611E+05  2.102639E+04  1.225803E+03  6.653253E+03 -1.271747E-09 -1.115320E-09
       163  13 -2.294890E+05 -4.885050E+04 -6.300940E+04  1.900470E+03 -2.049118E-09  5.959108E-10
       163  14 -2.202396E+05  9.759595E+03 -2.715397E+04 -1.822622E+02  2.001682E-12  3.469127E-10
       163  15 -2.294821E+05  2.048906E+03 -1.749681E+04  1.882602E+03 -1.040212E-09  2.134426E-11
       163  16 -3.125459E+05 -6.958874E+04 -8.365878E+04  1.205323E+04  6.655353E-10  3.230765E-10
       163  17 -2.997880E+05 -1.005958E+04 -4.669222E+04  2.509085E+03 -4.122866E-09 -6.423516E-10
       163  18 -3.055977E+05 -1.692892E+04 -3.621984E+04 -2.887463E+03 -2.675398E-11 -9.560033E-10
       163  19 -1.464238E+05 -2.811190E+04 -4.235709E+04 -8.253632E+03  4.246441E+04  6.043083E+02
       163  20 -1.406846E+05  2.957854E+04 -7.614701E+03 -2.873916E+03  2.811207E+04  1.755914E+03
       163  21 -1.533609E+05  2.102644E+04  1.226163E+03  6.653270E+03  1.376060E+04  1.547300E+03
       163  22 -2.294871E+05 -4.885000E+04 -6.300592E+04  1.900491E+03  4.303318E+04  6.052008E+02
       163  23 -2.202388E+05  9.759813E+03 -2.715247E+04 -1.822223E+02  2.825839E+04  1.756111E+03
       163  24 -2.294819E+05  2.048958E+03 -1.749646E+04  1.882619E+03  1.348437E+04  1.547071E+03
       163  25 -3.125439E+05 -6.958823E+04 -8.365521E+04  1.205325E+04  4.360189E+04  6.061120E+02
       163  26 -2.997872E+05 -1.005936E+04 -4.669070E+04  2.509125E+03  2.840469E+04  1.756310E+03
       163  27 -3.055976E+05 -1.692887E+04 -3.621951E+04 -2.887446E+03  1.320818E+04  1.546847E+03
       164   1 -1.589156E+05  1.019971E+04  2.101990E+03  6.825013E+02 -1.062613E+04 -1.268819E+03
       164   2 -1.611599E+05  1.712777E+04  8.550717E+03 -5.126507E+02 -7.008429E+03 -1.290985E+03
       164   3 -1.660845E+05  1.519888E+04  1.043066E+04  2.608632E+03 -3.390800E+03 -1.151500E+03
       164   4 -2.259713E+05 -6.514801E+03 -1.440864E+04  1.928917E+03 -1.065807E+04 -1.268866E+03
       164   5 -2.246262E+05  1.310574E+03 -7.057772E+03 -2.311505E+02 -6.990303E+03 -1.290986E+03
       164   6 -2.259703E+05  2.698055E+02 -4.310809E+03  1.925235E+03 -3.322583E+03 -1.151459E+03
       164   7 -2.930229E+05 -2.322964E+04 -3.091960E+04  3.175198E+03 -1.069001E+04 -1.268914E+03
       164   8 -2.880889E+05 -1.450692E+04 -2.266656E+04  5.032026E+01 -6.972179E+03 -1.290987E+03
       164   9 -2.858529E+05 -1.465953E+04 -1.905254E+04  1.241903E+03 -3.254373E+03 -1.151418E+03
       164  10 -1.589157E+05  1.019967E+04  2.101774E+03  6.824905E+02 -2.656124E-09 -1.879187E-09
       164  11 -1.611600E+05  1.712775E+04  8.550621E+03 -5.126580E+02 -2.831657E-09  2.333738E-10
       164  12 -1.660845E+05  1.519887E+04  1.043063E+04  2.608628E+03 -2.187634E-09  1.069265E-09
       164  13 -2.259714E+05 -6.514833E+03 -1.440886E+04  1.928907E+03 -2.937855E-09 -1.412641E-09
       164  14 -2.246263E+05  1.310559E+03 -7.057867E+03 -2.311578E+02 -2.693882E-09 -6.708734E-10
       164  15 -2.259703E+05  2.698011E+02 -4.310832E+03  1.925232E+03 -1.816353E-09 -1.621526E-10
       164  16 -2.930230E+05 -2.322967E+04 -3.091982E+04  3.175187E+03  1.048880E-09 -5.184786E-10
       164  17 -2.880889E+05 -1.450694E+04 -2.266665E+04  5.031301E+01 -2.418347E-09 -8.290090E-10
       164  18 -2.858529E+05 -1.465953E+04 -1.905256E+04  1.241900E+03 -2.722668E-10  9.997289E-10
       164  19 -1.589156E+05  1.019971E+04  2.101990E+03  6.825013E+02  1.062613E+04  1.268819E+03
       164  20 -1.611599E+05  1.712777E+04  8.550717E+03 -5.126507E+02  7.008429E+03  1.290985E+03
       164  21 -1.660845E+05  1.519888E+04  1.043066E+04  2.608632E+03  3.390800E+03  1.151500E+03
       164  22 -2.259713E+05 -6.514801E+03 -1.440864E+04  1.928917E+03  1.065807E+04  1.268866E+03
       164  23 -2.246262E+05  1.310574E+03 -7.057772E+03 -2.311505E+02  6.990303E+03  1.290986E+03
       164  24 -2.259703E+05  2.698055E+02 -4.310809E+03  1.925235E+03  3.322583E+03  1.151459E+03
       164  25 -2.930229E+05 -2.322964E+04 -3.091960E+04  3.175198E+03  1.069001E+04  1.268914E+03
       164  26 -2.880889E+05 -1.450692E+04 -2.266656E+04  5.032026E+01  6.972179E+03  1.290987E+03
       164  27 -2.858529E+05 -1.465953E+04 -1.905254E+04  1.241903E+03  3.254373E+03  1.151418E+03
       165   1 -1.749478E+05  1.172896E+04  8.993554E+03  1.831923E+03 -2.662181E+03 -1.052100E+03
       165   2 -1.784249E+05  1.184809E+04  9.699978E+03 -2.676772E+02 -1.745604E+03 -9.396608E+02
       165   3 -1.823167E+05  1.079242E+04  9.515492E+03  2.069978E+03 -8.290644E+02 -8.065385E+02
       165   4 -2.254650E+05 -8.602066E+02 -3.425145E+03  1.953759E+03 -2.630386E+03 -1.052084E+03
       165   5 -2.252570E+05  1.756322E+02 -1.820027E+03 -2.651903E+02 -1.707425E+03 -9.396376E+02
       165   6 -2.254648E+05  3.550456E+01 -1.110306E+03  1.953137E+03 -7.844952E+02 -8.065073E+02
       165   7 -2.759798E+05 -1.344957E+04 -1.584403E+04  2.075584E+03 -2.598594E+03 -1.052069E+03
       165   8 -2.720870E+05 -1.149699E+04 -1.334019E+04 -2.627040E+02 -1.669249E+03 -9.396143E+02
       165   9 -2.686113E+05 -1.072155E+04 -1.173624E+04  1.836305E+03 -7.399292E+02 -8.064762E+02
       165  10 -1.749478E+05  1.172896E+04  8.993539E+03  1.831921E+03 -9.725141E-10  1.733560E-09
       165  11 -1.784249E+05  1.184809E+04  9.699971E+03 -2.676785E+02 -4.275427E-09  1.368425E-09
       165  12 -1.823167E+05  1.079242E+04  9.515490E+03  2.069977E+03 -4.758648E-10 -6.281888E-10
       165  13 -2.254650E+05 -8.602097E+02 -3.425160E+03  1.953757E+03 -5.565634E-10  4.616598E-11
       165  14 -2.252570E+05  1.756305E+02 -1.820034E+03 -2.651916E+02  1.614377E-09  1.484645E-09
       165  15 -2.254648E+05  3.550370E+01 -1.110309E+03  1.953137E+03  2.606796E-09  1.799173E-09
       165  16 -2.759799E+05 -1.344957E+04 -1.584405E+04  2.075582E+03 -4.800238E-11  1.797233E-09
       165  17 -2.720870E+05 -1.149699E+04 -1.334020E+04 -2.627052E+02 -1.178444E-09  1.125338E-09
       165  18 -2.686113E+05 -1.072155E+04 -1.173624E+04  1.836304E+03  1.940984E-09  1.221501E-09
       165  19 -1.749478E+05  1.172896E+04  8.993554E+03  1.831923E+03  2.662181E+03  1.052100E+03
       165  20 -1.784249E+05  1.184809E+04  9.699978E+03 -2.676772E+02  1.745604E+03  9.396608E+02
       165  21 -1.823167E+05  1.079242E+04  9.515492E+03  2.069978E+03  8.290644E+02  8.065385E+02
       165  22 -2.254650E+05 -8.602066E+02 -3.425145E+03  1.953759E+03  2.630386E+03  1.052084E+03
       165  23 -2.252570E+05  1.756322E+02 -1.820027E+03 -2.651903E+02  1.707425E+03  9.396376E+02
       165  24 -2.254648E+05  3.550456E+01 -1.110306E+03  1.953137E+03  7.844952E+02  8.065073E+02
       165  25 -2.759798E+05 -1.344957E+04 -1.584403E+04  2.075584E+03  2.598594E+03  1.052069E+03
       165  26 -2.720870E+05 -1.149699E+04 -1.334019E+04 -2.627040E+02  1.669249E+03  9.396143E+02
       165  27 -2.686113E+05 -1.072155E+04 -1.173624E+04  1.836305E+03  7.399292E+02  8.064762E+02
       166   1 -1.918327E+05  8.252861E+03  7.355472E+03  1.976213E+03 -6.447312E+02 -7.267449E+02
       166   2 -1.955450E+05  7.454573E+03  6.768992E+03 -2.713323E+02 -3.645000E+02 -5.963798E+02
       166   3 -1.993423E+05  6.488525E+03  5.956698E+03  2.002533E+03 -8.428940E+01 -4.626263E+02
       166   4 -2.253912E+05 -1.091682E+02 -8.885567E+02  1.972105E+03 -6.046432E+02 -7.267154E+02
       166   5 -2.253485E+05  2.616594E+01 -5.625411E+02 -2.886484E+02 -3.233687E+02 -5.963477E+02
       166   6 -2.253911E+05 -6.459530E+00 -4.630847E+02  1.972023E+03 -4.211317E+01 -4.625915E+02
       166   7 -2.589486E+05 -8.471281E+03 -9.132669E+03  1.967996E+03 -5.645573E+02 -7.266859E+02
       166   8 -2.551512E+05 -7.402307E+03 -7.894139E+03 -3.059638E+02 -2.822394E+02 -5.963156E+02
       166   9 -2.514393E+05 -6.501495E+03 -6.882918E+03  1.941514E+03  6.129488E-02 -4.625566E+02
       166  10 -1.918327E+05  8.252860E+03  7.355470E+03  1.976213E+03 -2.352702E-09 -5.285425E-10
       166  11 -1.955450E+05  7.454572E+03  6.768991E+03 -2.713325E+02 -3.498575E-09  2.522198E-09
       166  12 -1.993423E+05  6.488525E+03  5.956698E+03  2.002532E+03 -1.659951E-10  1.749863E-09
       166  13 -2.253912E+05 -1.091688E+02 -8.885584E+02  1.972104E+03  1.507960E-09  3.303902E-10
       166  14 -2.253485E+05  2.616553E+01 -5.625420E+02 -2.886485E+02 -1.615266E-10  1.742869E-09
       166  15 -2.253911E+05 -6.459760E+00 -4.630851E+02  1.972023E+03 -1.719209E-09  4.047767E-10
       166  16 -2.589486E+05 -8.471282E+03 -9.132670E+03  1.967996E+03  8.764137E-10  7.252838E-10
       166  17 -2.551512E+05 -7.402307E+03 -7.894140E+03 -3.059639E+02  3.530594E-09 -6.579514E-10
       166  18 -2.514393E+05 -6.501495E+03 -6.882918E+03  1.941514E+03 -1.504976E-09 -5.159430E-10
       166  19 -1.918327E+05  8.252861E+03  7.355472E+03  1.976213E+03  6.447312E+02  7.267449E+02
       166  20 -1.955450E+05  7.454573E+03  6.768992E+03 -2.713323E+02  3.645000E+02  5.963798E+02
       166  21 -1.993423E+05  6.488525E+03  5.956698E+03  2.002533E+03  8.428940E+01  4.626263E+02
       166  22 -2.253912E+05 -1.091682E+02 -8.885567E+02  1.972105E+03  6.046432E+02  7.267154E+02
       166  23 -2.253485E+05  2.616594E+01 -5.625411E+02 -2.886484E+02  3.233687E+02  5.963477E+02
       166  24 -2.253911E+05 -6.459530E+00 -4.630847E+02  1.972023E+03  4.211317E+01  4.625915E+02
       166  25 -2.589486E+05 -8.471281E+03 -9.132669E+03  1.967996E+03  5.645573E+02  7.266859E+02
       166  26 -2.551512E+05 -7.402307E+03 -7.894139E+03 -3.059638E+02  2.822394E+02  5.963156E+02
       166  27 -2.514393E+05 -6.501495E+03 -6.882918E+03  1.941514E+03 -6.129487E-02  4.625566E+02
       167   1 -2.090735E+05  4.058072E+03  3.539472E+03  1.979509E+03 -3.577999E-01 -3.840712E+02
       167   2 -2.128228E+05  3.148023E+03  2.520104E+03 -2.925146E+02  2.802843E+02 -2.500537E+02
       167   3 -2.166600E+05  2.070993E+03  1.274236E+03  2.004376E+03  5.609240E+02 -1.163919E+02
       167   4 -2.253916E+05 -6.793719E+00 -4.629978E+02  1.982575E+03  4.142397E+01 -3.840356E+02
       167   5 -2.253476E+05  2.621401E+01 -5.610229E+02 -3.018395E+02  3.219501E+02 -2.500174E+02
       167   6 -2.253916E+05 -1.077265E+02 -8.854550E+02  1.982665E+03  6.024756E+02 -1.163549E+02
       167   7 -2.417093E+05 -4.071679E+03 -4.465487E+03  1.985642E+03  8.320464E+01 -3.840000E+02
       167   8 -2.378723E+05 -3.095607E+03 -3.642162E+03 -3.111642E+02  3.636151E+02 -2.499812E+02
       167   9 -2.341231E+05 -2.286452E+03 -3.045152E+03  1.960955E+03  6.440265E+02 -1.163180E+02
       167  10 -2.090735E+05  4.058072E+03  3.539471E+03  1.979509E+03 -7.938774E-11  7.223150E-10
       167  11 -2.128228E+05  3.148023E+03  2.520104E+03 -2.925146E+02 -1.936191E-09  3.182701E-11
       167  12 -2.166600E+05  2.070993E+03  1.274236E+03  2.004376E+03  4.949991E-12 -1.602725E-09
       167  13 -2.253916E+05 -6.793878E+00 -4.629981E+02  1.982575E+03  2.982574E-10  2.676514E-09
       167  14 -2.253476E+05  2.621391E+01 -5.610232E+02 -3.018394E+02 -1.696916E-09  4.263270E-10
       167  15 -2.253916E+05 -1.077266E+02 -8.854558E+02  1.982665E+03  3.225017E-10 -2.146376E-09
       167  16 -2.417093E+05 -4.071679E+03 -4.465487E+03  1.985642E+03  1.482159E-10  1.671157E-09
       167  17 -2.378723E+05 -3.095607E+03 -3.642162E+03 -3.111641E+02 -1.665048E-09 -3.503160E-10
       167  18 -2.341231E+05 -2.286452E+03 -3.045153E+03  1.960955E+03  7.031274E-10 -2.164188E-09
       167  19 -2.090735E+05  4.058072E+03  3.539472E+03  1.979509E+03  3.577999E-01  3.840712E+02
       167  20 -2.128228E+05  3.148023E+03  2.520104E+03 -2.925146E+02 -2.802843E+02  2.500537E+02
       167  21 -2.166600E+05  2.070993E+03  1.274236E+03  2.004376E+03 -5.609240E+02  1.163919E+02
       167  22 -2.253916E+05 -6.793719E+00 -4.629978E+02  1.982575E+03 -4.142397E+01  3.840356E+02
       167  23 -2.253476E+05  2.621401E+01 -5.610229E+02 -3.018395E+02 -3.219501E+02  2.500174E+02
       167  24 -2.253916E+05 -1.077265E+02 -8.854550E+02  1.982665E+03 -6.024756E+02  1.163549E+02
       167  25 -2.417093E+05 -4.071679E+03 -4.465487E+03  1.985642E+03 -8.320464E+01  3.840000E+02
       167  26 -2.378723E+05 -3.095607E+03 -3.642162E+03 -3.111642E+02 -3.636151E+02  2.499812E+02
       167  27 -2.341231E+05 -2.286452E+03 -3.045152E+03  1.960955E+03 -6.440265E+02  1.163180E+02
       168   1 -2.265241E+05 -2.305029E+02 -1.378652E+03  1.892394E+03  7.379729E+02 -3.621143E+01
       168   2 -2.301134E+05 -1.035592E+03 -3.007390E+03 -2.794622E+02  1.660330E+03  9.975911E+01
       168   3 -2.341255E+05 -3.011082E+03 -5.531484E+03  2.126365E+03  2.582692E+03  2.254055E+02
       168   4 -2.254659E+05  3.583056E+01 -1.106491E+03  1.984287E+03  7.817404E+02 -3.617218E+01
       168   5 -2.252548E+05  1.753125E+02 -1.812408E+03 -3.041593E+02  1.700884E+03  9.979499E+01
       168   6 -2.254661E+05 -8.550403E+02 -3.411441E+03  1.985075E+03  2.620038E+03  2.254377E+02
       168   7 -2.244076E+05  3.021640E+02 -8.343294E+02  2.076182E+03  8.255080E+02 -3.613292E+01
       168   8 -2.203962E+05  1.386215E+03 -6.174287E+02 -3.288566E+02  1.741438E+03  9.983086E+01
       168   9 -2.168065E+05  1.300996E+03 -1.291404E+03  1.843784E+03  2.657384E+03  2.254700E+02
       168  10 -2.265241E+05 -2.305031E+02 -1.378654E+03  1.892394E+03 -8.875777E-10  3.122182E-10
       168  11 -2.301134E+05 -1.035593E+03 -3.007395E+03 -2.794623E+02 -2.967526E-09  1.467229E-09
       168  12 -2.341256E+05 -3.011084E+03 -5.531497E+03  2.126365E+03  1.738508E-09 -3.797231E-10
       168  13 -2.254659E+05  3.583039E+01 -1.106492E+03  1.984288E+03 -6.097628E-10 -1.189093E-09
       168  14 -2.252548E+05  1.753117E+02 -1.812414E+03 -3.041594E+02 -2.154592E-09  1.218299E-09
       168  15 -2.254661E+05 -8.550422E+02 -3.411454E+03  1.985075E+03 -7.830928E-10  1.013441E-10
       168  16 -2.244076E+05  3.021638E+02 -8.343307E+02  2.076182E+03  1.980833E-09 -7.543410E-10
       168  17 -2.203962E+05  1.386215E+03 -6.174344E+02 -3.288567E+02 -3.507938E-10 -2.470026E-09
       168  18 -2.168065E+05  1.300994E+03 -1.291417E+03  1.843783E+03 -7.121346E-11 -5.035626E-11
       168  19 -2.265241E+05 -2.305029E+02 -1.378652E+03  1.892394E+03 -7.379729E+02  3.621143E+01
       168  20 -2.301134E+05 -1.035592E+03 -3.007390E+03 -2.794622E+02 -1.660330E+03 -9.975911E+01
       168  21 -2.341255E+05 -3.011082E+03 -5.531484E+03  2.126365E+03 -2.582692E+03 -2.254055E+02
       168  22 -2.254659E+05  3.583056E+01 -1.106491E+03  1.984287E+03 -7.817404E+02  3.617218E+01
       168  23 -2.252548E+05  1.753125E+02 -1.812408E+03 -3.041593E+02 -1.700884E+03 -9.979499E+01
       168  24 -2.254661E+05 -8.550403E+02 -3.411441E+03  1.985075E+03 -2.620038E+03 -2.254377E+02
       168  25 -2.244076E+05  3.021640E+02 -8.343294E+02  2.076182E+03 -8.255080E+02  3.613292E+01
       168  26 -2.203962E+05  1.386215E+03 -6.174287E+02 -3.288566E+02 -1.741438E+03 -9.983086E+01
       168  27 -2.168065E+05  1.300996E+03 -1.291404E+03  1.843784E+03 -2.657384E+03 -2.254700E+02
       169   1 -2.443953E+05 -4.326252E+03 -8.837656E+03  1.313593E+03  3.252410E+03  3.173345E+02
       169   2 -2.468255E+05 -4.226576E+03 -1.248759E+04 -1.896458E+00  6.932217E+03  4.596259E+02
       169   3 -2.519516E+05 -1.295981E+04 -2.074386E+04  3.233785E+03  1.061202E+04  5.141326E+02
       169   4 -2.259702E+05  2.699002E+02 -4.293750E+03  1.976777E+03  3.309554E+03  3.173874E+02
       169   5 -2.246250E+05  1.305907E+03 -7.028299E+03 -2.959864E+02  6.962094E+03  4.596469E+02
       169   6 -2.259712E+05 -6.486102E+03 -1.435013E+04  1.982431E+03  1.061465E+04  5.141118E+02
       169   7 -2.075447E+05  4.866029E+03  2.501312E+02  2.639981E+03  3.366700E+03  3.174405E+02
       169   8 -2.024242E+05  6.838353E+03 -1.569045E+03 -5.900869E+02  6.991972E+03  4.596679E+02
       169   9 -1.999901E+05 -1.243471E+01 -7.956445E+03  7.310234E+02  1.061729E+04  5.140909E+02
       169  10 -2.443953E+05 -4.326255E+03 -8.837676E+03  1.313592E+03 -1.769694E-09  9.274416E-10
       169  11 -2.468255E+05 -4.226589E+03 -1.248768E+04 -1.899025E+00 -2.700171E-09  1.812100E-09
       169  12 -2.519517E+05 -1.295984E+04 -2.074407E+04  3.233781E+03  1.685581E-09  1.571950E-09
       169  13 -2.259702E+05  2.698971E+02 -4.293771E+03  1.976776E+03  1.556723E-09  1.847236E-10
       169  14 -2.246251E+05  1.305893E+03 -7.028391E+03 -2.959889E+02  5.370489E-10  1.353848E-09
       169  15 -2.259713E+05 -6.486132E+03 -1.435034E+04  1.982426E+03  2.204011E-09  3.347321E-10
       169  16 -2.075448E+05  4.866026E+03  2.501097E+02  2.639980E+03  1.291095E-09  6.054102E-10
       169  17 -2.024242E+05  6.838340E+03 -1.569137E+03 -5.900895E+02  1.994840E-09 -1.178356E-10
       169  18 -1.999902E+05 -1.246527E+01 -7.956657E+03  7.310190E+02 -1.885802E-09 -1.952408E-09
       169  19 -2.443953E+05 -4.326252E+03 -8.837656E+03  1.313593E+03 -3.252410E+03 -3.173345E+02
       169  20 -2.468255E+05 -4.226576E+03 -1.248759E+04 -1.896458E+00 -6.932217E+03 -4.596259E+02
       169  21 -2.519516E+05 -1.295981E+04 -2.074386E+04  3.233785E+03 -1.061202E+04 -5.141326E+02
       169  22 -2.259702E+05  2.699002E+02 -4.293750E+03  1.976777E+03 -3.309554E+03 -3.173874E+02
       169  23 -2.246250E+05  1.305907E+03 -7.028299E+03 -2.959864E+02 -6.962094E+03 -4.596469E+02
       169  24 -2.259712E+05 -6.486102E+03 -1.435013E+04  1.982431E+03 -1.061465E+04 -5.141118E+02
       169  25 -2.075447E+05  4.866029E+03  2.501312E+02  2.639981E+03 -3.366700E+03 -3.174405E+02
       169  26 -2.024242E+05  6.838353E+03 -1.569045E+03 -5.900869E+02 -6.991972E+03 -4.596679E+02
       169  27 -1.999901E+05 -1.243471E+01 -7.956445E+03  7.310234E+02 -1.061729E+04 -5.140909E+02
       170   1 -2.651017E+05 -6.849696E+03 -2.619726E+04 -2.789743E+03  1.325837E+04  7.053756E+02
       170   2 -2.596043E+05 -7.842140E+01 -3.670286E+04  2.405368E+03  2.820288E+04  8.929940E+02
       170   3 -2.725822E+05 -5.939838E+04 -7.346405E+04  1.210110E+04  4.314815E+04  3.370368E+02
       170   4 -2.294683E+05  2.042499E+03 -1.742556E+04  1.954729E+03  1.342961E+04  7.056138E+02
       170   5 -2.202539E+05  9.721151E+03 -2.704048E+04 -2.766715E+02  2.814291E+04  8.928210E+02
       170   6 -2.294735E+05 -4.864921E+04 -6.274917E+04  1.992564E+03  4.285707E+04  3.361155E+02
       170   7 -1.938337E+05  1.093468E+04 -8.653940E+03  6.699474E+03  1.360085E+04  7.058546E+02
       170   8 -1.809021E+05  1.952064E+04 -1.737820E+04 -2.958882E+03  2.808294E+04  8.926485E+02
       170   9 -1.863629E+05 -3.789980E+04 -5.203438E+04 -8.116675E+03  4.256597E+04  3.352037E+02
       170  10 -2.651019E+05 -6.849744E+03 -2.619759E+04 -2.789750E+03  1.173630E-10  9.101708E-10
       170  11 -2.596052E+05 -7.863591E+01 -3.670436E+04  2.405348E+03 -9.361042E-10  1.538375E-10
       170  12 -2.725842E+05 -5.939888E+04 -7.346755E+04  1.210109E+04 -4.097525E-10  1.293268E-10
       170  13 -2.294685E+05  2.042450E+03 -1.742590E+04  1.954722E+03  1.358984E-09  1.471698E-09
       170  14 -2.202548E+05  9.720938E+03 -2.704197E+04 -2.766917E+02 -1.458419E-09 -1.442257E-09
       170  15 -2.294755E+05 -4.864971E+04 -6.275262E+04  1.992552E+03 -7.974353E-10  1.189830E-09
       170  16 -1.938339E+05  1.093463E+04 -8.654289E+03  6.699466E+03 -1.239846E-09  7.561583E-10
       170  17 -1.809029E+05  1.952042E+04 -1.737969E+04 -2.958902E+03  6.287716E-10  1.315556E-09
       170  18 -1.863648E+05 -3.790029E+04 -5.203778E+04 -8.116687E+03  6.683277E-11 -1.585100E-10
       170  19 -2.651017E+05 -6.849696E+03 -2.619726E+04 -2.789743E+03 -1.325837E+04 -7.053756E+02
       170  20 -2.596043E+05 -7.842140E+01 -3.670286E+04  2.405368E+03 -2.820288E+04 -8.929940E+02
       170  21 -2.725822E+05 -5.939838E+04 -7.346405E+04  1.210110E+04 -4.314815E+04 -3.370368E+02
       170  22 -2.294683E+05  2.042499E+03 -1.742556E+04  1.954729E+03 -1.342961E+04 -7.056138E+02
       170  23 -2.202539E+05  9.721151E+03 -2.704048E+04 -2.766715E+02 -2.814291E+04 -8.928210E+02
       170  24 -2.294735E+05 -4.864921E+04 -6.274917E+04  1.992564E+03 -4.285707E+04 -3.361155E+02
       170  25 -1.938337E+05  1.093468E+04 -8.653940E+03  6.699474E+03 -1.360085E+04 -7.058546E+02
       170  26 -1.809021E+05  1.952064E+04 -1.737820E+04 -2.958882E+03 -2.808294E+04 -8.926485E+02
       170  27 -1.863629E+05 -3.789980E+04 -5.203438E+04 -8.116675E+03 -4.256597E+04 -3.352037E+02
       171   1  8.497853E+04  4.782566E+05  9.102693E+04 -4.377974E+04  2.414360E+03  3.102337E+04
       171   2  3.964612E+04  4.259724E+05  5.685808E+04 -2.366394E+04  6.998373E+03  1.588098E+04
       171   3  2.757420E+04  3.839640E+05  4.085612E+04 -2.448055E+04  5.756857E+03  7.373657E+02
       171   4  3.204870E+04  2.654385E+05  3.916992E+04 -2.907981E+04  2.417536E+03  2.472285E+04
       171   5 -8.877970E+02  2.607289E+05  1.939370E+04 -1.862049E+04  6.999236E+03  1.447967E+04
       171   6 -1.408856E+03  2.654469E+05  1.438751E+04 -2.909323E+04  5.755185E+03  4.234114E+03
       171   7 -2.088364E+04  5.266222E+04 -1.269011E+04 -1.438493E+04  2.420414E+03  1.842448E+04
       171   8 -4.142350E+04  9.551073E+04 -1.807243E+04 -1.357839E+04  7.000076E+03  1.307872E+04
       171   9 -3.039278E+04  1.469429E+05 -1.208191E+04 -3.370501E+04  5.753462E+03  7.730202E+03
       171  10  8.497827E+04  4.782556E+05  9.102511E+04 -4.377980E+04 -9.864508E-11 -2.540194E-10
       171  11  3.964600E+04  4.259721E+05  5.685751E+04 -2.366403E+04 -1.051677E-09 -5.561440E-10
       171  12  2.757416E+04  3.839640E+05  4.085605E+04 -2.448056E+04 -1.470451E-09 -9.016622E-11
       171  13  3.204853E+04  2.654378E+05  3.916876E+04 -2.907986E+04  1.325177E-10 -3.598848E-10
       171  14 -8.879059E+02  2.607286E+05  1.939321E+04 -1.862057E+04 -1.953204E-10  4.503206E-10
       171  15 -1.408896E+03  2.654468E+05  1.438742E+04 -2.909325E+04  1.538273E-10 -1.058549E-10
       171  16 -2.088374E+04  5.266185E+04 -1.269076E+04 -1.438497E+04  4.402516E-10  1.008379E-10
       171  17 -4.142360E+04  9.551054E+04 -1.807284E+04 -1.357847E+04 -5.435263E-10 -6.979684E-10
       171  18 -3.039283E+04  1.469428E+05 -1.208209E+04 -3.370504E+04  1.483097E-09 -7.747139E-10
       171  19  8.497853E+04  4.782566E+05  9.102693E+04 -4.377974E+04 -2.414360E+03 -3.102337E+04
       171  20  3.964612E+04  4.259724E+05  5.685808E+04 -2.366394E+04 -6.998373E+03 -1.588098E+04
       171  21  2.757420E+04  3.839640E+05  4.085612E+04 -2.448055E+04 -5.756857E+03 -7.373657E+02
       171  22  3.204870E+04  2.654385E+05  3.916992E+04 -2.907981E+04 -2.417536E+03 -2.472285E+04
       171  23 -8.877970E+02  2.607289E+05  1.939370E+04 -1.862049E+04 -6.999236E+03 -1.447967E+04
       171  24 -1.408856E+03  2.654469E+05  1.438751E+04 -2.909323E+04 -5.755185E+03 -4.234114E+03
       171  25 -2.088364E+04  5.266222E+04 -1.269011E+04 -1.438493E+04 -2.420414E+03 -1.842448E+04
       171  26 -4.142350E+04  9.551073E+04 -1.807243E+04 -1.357839E+04 -7.000076E+03 -1.307872E+04
       171  27 -3.039278E+04  1.469429E+05 -1.208191E+04 -3.370501E+04 -5.753462E+03 -7.730202E+03
       172   1  2.083653E+04  3.419031E+05  3.115853E+04 -3.064809E+04  3.678054E+03  1.107311E+02
       172   2  7.275937E+03  2.935788E+05  2.094256E+04 -1.838449E+04  1.501167E+03 -7.013822E+03
       172   3  2.822836E+02  2.478007E+05  1.699941E+04 -2.726456E+04 -7.450637E+02 -1.413801E+04
       172   4  1.746817E+03  2.639160E+05  1.367967E+04 -2.913666E+04  3.677150E+03  1.913809E+03
       172   5 -2.900188E+02  2.626492E+05  1.403159E+04 -1.856421E+04  1.500202E+03 -5.152120E+03
       172   6  4.230191E+03  2.639163E+05  2.061588E+04 -2.913536E+04 -7.460606E+02 -1.221820E+04
       172   7 -1.734330E+04  1.859346E+05 -3.799559E+03 -2.762542E+04  3.676255E+03  3.716664E+03
       172   8 -7.856038E+03  2.317205E+05  7.120566E+03 -1.874391E+04  1.499236E+03 -3.290509E+03
       172   9  8.178096E+03  2.800322E+05  2.423236E+04 -3.100620E+04 -7.470690E+02 -1.029835E+04
       172  10  2.083652E+04  3.419031E+05  3.115851E+04 -3.064809E+04 -2.417497E-09 -3.987896E-10
       172  11  7.275921E+03  2.935788E+05  2.094246E+04 -1.838448E+04 -6.729923E-10 -1.326115E-09
       172  12  2.822293E+02  2.478004E+05  1.699903E+04 -2.726457E+04 -2.504425E-11 -7.595026E-10
       172  13  1.746801E+03  2.639160E+05  1.367964E+04 -2.913667E+04 -7.176981E-10 -5.115703E-10
       172  14 -2.900284E+02  2.626492E+05  1.403153E+04 -1.856420E+04  7.519866E-10  3.757906E-10
       172  15  4.230150E+03  2.639161E+05  2.061560E+04 -2.913536E+04  8.925906E-10 -1.437436E-10
       172  16 -1.734332E+04  1.859346E+05 -3.799611E+03 -2.762543E+04 -2.048502E-10  1.057838E-10
       172  17 -7.856043E+03  2.317205E+05  7.120541E+03 -1.874391E+04  3.341208E-09 -2.365895E-10
       172  18  8.178067E+03  2.800320E+05  2.423216E+04 -3.100621E+04  4.453195E-10 -9.473842E-11
       172  19  2.083653E+04  3.419031E+05  3.115853E+04 -3.064809E+04 -3.678054E+03 -1.107311E+02
       172  20  7.275937E+03  2.935788E+05  2.094256E+04 -1.838449E+04 -1.501167E+03  7.013822E+03
       172  21  2.822836E+02  2.478007E+05  1.699941E+04 -2.726456E+04  7.450637E+02  1.413801E+04
       172  22  1.746817E+03  2.639160E+05  1.367967E+04 -2.913666E+04 -3.677150E+03 -1.913809E+03
       172  23 -2.900188E+02  2.626492E+05  1.403159E+04 -1.856421E+04 -1.500202E+03  5.152120E+03
       172  24  4.230191E+03  2.639163E+05  2.061588E+04 -2.913536E+04  7.460606E+02  1.221820E+04
       172  25 -1.734330E+04  1.859346E+05 -3.799559E+03 -2.762542E+04 -3.676255E+03 -3.716664E+03
       172  26 -7.856038E+03  2.317205E+05  7.120566E+03 -1.874391E+04 -1.499236E+03  3.290509E+03
       172  27  8.178096E+03  2.800322E+05  2.423236E+04 -3.100620E+04  7.470690E+02  1.029835E+04
       173   1 -1.736935E+04  2.112699E+05  1.192008E+04 -3.937008E+04 -2.673570E+03 -1.899537E+04
       173   2 -2.728670E+04  1.543228E+05  1.582060E+04 -7.771608E+03 -4.252215E+03 -3.627897E+04
       173   3  3.273580E+04  1.170968E+05  4.845433E+04  2.854286E+03 -1.561964E+03 -5.355890E+04
       173   4 -3.529477E+03  2.678732E+05  2.459647E+04 -2.910718E+04 -2.675537E+03 -1.586993E+04
       173   5 -1.902358E+03  2.576998E+05  3.932628E+04 -1.860461E+04 -4.251307E+03 -3.674422E+04
       173   6  7.027925E+04  2.678617E+05  8.527765E+04 -2.907296E+04 -1.557325E+03 -5.761619E+04
       173   7  1.031058E+04  3.244798E+05  3.727276E+04 -1.884334E+04 -2.677401E+03 -1.274421E+04
       173   8  2.348169E+04  3.610869E+05  6.283134E+04 -2.943944E+04 -4.250383E+03 -3.720955E+04
       173   9  1.078249E+05  4.186495E+05  1.220999E+05 -6.100797E+04 -1.552269E+03 -6.167446E+04
       173  10 -1.736946E+04  2.112695E+05  1.191939E+04 -3.937012E+04 -8.140647E-10 -3.503731E-11
       173  11 -2.728708E+04  1.543214E+05  1.581809E+04 -7.771733E+03 -1.893108E-10 -8.512709E-10
       173  12  3.273503E+04  1.170938E+05  4.844893E+04  2.854219E+03 -1.410516E-09 -4.681912E-10
       173  13 -3.529552E+03  2.678729E+05  2.459599E+04 -2.910722E+04 -1.182911E-09 -4.424438E-10
       173  14 -1.902740E+03  2.576983E+05  3.932371E+04 -1.860474E+04 -5.471156E-10  3.666472E-10
       173  15  7.027836E+04  2.678582E+05  8.527141E+04 -2.907303E+04  6.851971E-10  8.404952E-12
       173  16  1.031053E+04  3.244796E+05  3.727244E+04 -1.884337E+04  3.499146E-09 -2.528247E-10
       173  17  2.348130E+04  3.610854E+05  6.282870E+04 -2.943956E+04 -6.328344E-11 -6.811117E-10
       173  18  1.078238E+05  4.186455E+05  1.220928E+05 -6.100805E+04 -2.664078E-10 -3.090405E-10
       173  19 -1.736935E+04  2.112699E+05  1.192008E+04 -3.937008E+04  2.673570E+03  1.899537E+04
       173  20 -2.728670E+04  1.543228E+05  1.582060E+04 -7.771608E+03  4.252215E+03  3.627897E+04
       173  21  3.273580E+04  1.170968E+05  4.845433E+04  2.854286E+03  1.561964E+03  5.355890E+04
       173  22 -3.529477E+03  2.678732E+05  2.459647E+04 -2.910718E+04  2.675537E+03  1.586993E+04
       173  23 -1.902358E+03  2.576998E+05  3.932628E+04 -1.860461E+04  4.251307E+03  3.674422E+04
       173  24  7.027925E+04  2.678617E+05  8.527765E+04 -2.907296E+04  1.557325E+03  5.761619E+04
       173  25  1.031058E+04  3.244798E+05  3.727276E+04 -1.884334E+04  2.677401E+03  1.274421E+04
       173  26  2.348169E+04  3.610869E+05  6.283134E+04 -2.943944E+04  4.250383E+03  3.720955E+04
       173  27  1.078249E+05  4.186495E+05  1.220999E+05 -6.100797E+04  1.552269E+03  6.167446E+04
       174   1  1.137811E+04  3.462950E+03 -6.717982E+03 -4.736600E+03 -2.955503E+04 -1.689944E+03
       174   2  3.405701E+03  4.216972E+04  1.502674E+04 -1.111653E+03 -2.035555E+04 -5.006688E+03
       174   3 -1.707816E+04  3.560789E+04  1.946836E+04  1.253815E+04 -1.115929E+04 -4.587351E+03
       174   4 -1.528241E+05 -3.745345E+04 -4.719398E+04  7.403366E+03 -3.229034E+04 -1.692645E+03
       174   5 -1.463938E+05  5.067707E+03 -2.070947E+04  2.375138E+03 -2.112091E+04 -5.007534E+03
       174   6 -1.528206E+05  1.971996E+03 -1.289954E+04  7.372013E+03 -9.954442E+03 -4.586199E+03
       174   7 -3.170014E+05 -7.837129E+04 -8.767186E+04  1.954011E+04 -3.502493E+04 -1.695454E+03
       174   8 -2.961726E+05 -3.203588E+04 -5.644726E+04  5.861080E+03 -2.188608E+04 -5.008388E+03
       174   9 -2.885460E+05 -3.166513E+04 -4.526872E+04  2.207007E+03 -8.749853E+03 -4.585066E+03
       174  10  1.137717E+04  3.462712E+03 -6.719629E+03 -4.736640E+03 -1.065911E-09  1.334466E-09
       174  11  3.405249E+03  4.216958E+04  1.502592E+04 -1.111735E+03 -5.937275E-10  3.839512E-09
       174  12 -1.707830E+04  3.560783E+04  1.946809E+04  1.253811E+04  3.446691E-09  2.903654E-10
       174  13 -1.528252E+05 -3.745373E+04 -4.719594E+04  7.403322E+03 -9.768015E-10 -6.562997E-10
       174  14 -1.463942E+05  5.067561E+03 -2.071036E+04  2.375053E+03 -5.054739E-10 -1.280962E-09
       174  15 -1.528207E+05  1.971947E+03 -1.289977E+04  7.371976E+03 -5.395382E-10 -4.183696E-10
       174  16 -3.170027E+05 -7.837162E+04 -8.767417E+04  1.954006E+04  3.757579E-09  6.276499E-10
       174  17 -2.961731E+05 -3.203604E+04 -5.644821E+04  5.860992E+03 -2.101855E-09  3.134959E-09
       174  18 -2.885461E+05 -3.166517E+04 -4.526891E+04  2.206975E+03 -2.759335E-09 -7.204563E-10
       174  19  1.137811E+04  3.462950E+03 -6.717982E+03 -4.736600E+03  2.955503E+04  1.689944E+03
       174  20  3.405701E+03  4.216972E+04  1.502674E+04 -1.111653E+03  2.035555E+04  5.006688E+03
       174  21 -1.707816E+04  3.560789E+04  1.946836E+04  1.253815E+04  1.115929E+04  4.587351E+03
       174  22 -1.528241E+05 -3.745345E+04 -4.719398E+04  7.403366E+03  3.229034E+04  1.692645E+03
       174  23 -1.463938E+05  5.067707E+03 -2.070947E+04  2.375138E+03  2.112091E+04  5.007534E+03
       174  24 -1.528206E+05  1.971996E+03 -1.289954E+04  7.372013E+03  9.954442E+03  4.586199E+03
       174  25 -3.170014E+05 -7.837129E+04 -8.767186E+04  1.954011E+04  3.502493E+04  1.695454E+03
       174  26 -2.961726E+05 -3.203588E+04 -5.644726E+04  5.861080E+03  2.188608E+04  5.008388E+03
       174  27 -2.885460E+05 -3.166513E+04 -4.526872E+04  2.207007E+03  8.749853E+03  4.585066E+03
       175   1 -3.277022E+04  2.533769E+04  1.759891E+04  6.389206E+03 -8.062098E+03 -3.720406E+03
       175   2 -4.626945E+04  2.612326E+04  1.928209E+04  2.135276E+03 -5.453625E+03 -3.400715E+03
       175   3 -6.128012E+04  2.228024E+04  1.810689E+04  8.035273E+03 -2.845622E+03 -2.816236E+03
       175   4 -1.503042E+05 -3.790844E+03 -1.051086E+04  7.413316E+03 -7.963558E+03 -3.720370E+03
       175   5 -1.495355E+05  5.380934E+02 -5.370001E+03  2.334281E+03 -5.215759E+03 -3.400509E+03
       175   6 -1.503032E+05  2.137384E+02 -3.184750E+03  7.409311E+03 -2.468373E+03 -2.815846E+03
       175   7 -2.678256E+05 -3.292037E+04 -3.862159E+04  8.437228E+03 -7.865036E+03 -3.720334E+03
       175   8 -2.527918E+05 -2.504785E+04 -3.002284E+04  2.533251E+03 -4.977932E+03 -3.400303E+03
       175   9 -2.393190E+05 -2.185334E+04 -2.447695E+04  6.783437E+03 -2.091178E+03 -2.815457E+03
       175  10 -3.277029E+04  2.533765E+04  1.759876E+04  6.389182E+03 -8.927355E-10 -1.689608E-09
       175  11 -4.626948E+04  2.612324E+04  1.928201E+04  2.135261E+03 -8.405563E-10  2.431788E-09
       175  12 -6.128014E+04  2.228023E+04  1.810686E+04  8.035267E+03  9.305748E-10  3.055435E-09
       175  13 -1.503043E+05 -3.790876E+03 -1.051100E+04  7.413292E+03 -1.182119E-09  2.070493E-09
       175  14 -1.495356E+05  5.380737E+02 -5.370074E+03  2.334267E+03 -2.643019E-09 -5.241399E-09
       175  15 -1.503032E+05  2.137282E+02 -3.184777E+03  7.409306E+03  8.688622E-10  3.084309E-09
       175  16 -2.678257E+05 -3.292040E+04 -3.862173E+04  8.437204E+03 -4.572183E-10 -3.470341E-09
       175  17 -2.527919E+05 -2.504787E+04 -3.002291E+04  2.533237E+03 -2.448379E-09 -1.710021E-09
       175  18 -2.393190E+05 -2.185335E+04 -2.447697E+04  6.783432E+03 -8.251713E-10  2.683979E-10
       175  19 -3.277022E+04  2.533769E+04  1.759891E+04  6.389206E+03  8.062098E+03  3.720406E+03
       175  20 -4.626945E+04  2.612326E+04  1.928209E+04  2.135276E+03  5.453625E+03  3.400715E+03
       175  21 -6.128012E+04  2.228024E+04  1.810689E+04  8.035273E+03  2.845622E+03  2.816236E+03
       175  22 -1.503042E+05 -3.790844E+03 -1.051086E+04  7.413316E+03  7.963558E+03  3.720370E+03
       175  23 -1.495355E+05  5.380934E+02 -5.370001E+03  2.334281E+03  5.215759E+03  3.400509E+03
       175  24 -1.503032E+05  2.137384E+02 -3.184750E+03  7.409311E+03  2.468373E+03  2.815846E+03
       175  25 -2.678256E+05 -3.292037E+04 -3.862159E+04  8.437228E+03  7.865036E+03  3.720334E+03
       175  26 -2.527918E+05 -2.504785E+04 -3.002284E+04  2.533251E+03  4.977932E+03  3.400303E+03
       175  27 -2.393190E+05 -2.185334E+04 -2.447695E+04  6.783437E+03  2.091178E+03  2.815457E+03
       176   1 -7.925764E+04  1.716014E+04  1.436686E+04  7.401761E+03 -2.267042E+03 -2.432530E+03
       176   2 -9.344177E+04  1.405195E+04  1.211680E+04  2.364522E+03 -1.595419E+03 -1.855544E+03
       176   3 -1.078522E+05  1.049219E+04  9.310924E+03  7.521429E+03 -9.238909E+02 -1.259379E+03
       176   4 -1.500117E+05 -3.633875E+02 -2.488552E+03  7.419795E+03 -1.967745E+03 -2.432212E+03
       176   5 -1.498975E+05  6.354076E+01 -1.361813E+03  2.322465E+03 -1.286069E+03 -1.855199E+03
       176   6 -1.500113E+05  3.718709E+01 -7.978584E+02  7.419339E+03 -6.044731E+02 -1.259005E+03
       176   7 -2.207612E+05 -1.788727E+04 -1.934431E+04  7.437825E+03 -1.668483E+03 -2.431895E+03
       176   8 -2.063503E+05 -1.392510E+04 -1.484065E+04  2.280411E+03 -9.767479E+02 -1.854854E+03
       176   9 -1.921688E+05 -1.041794E+04 -1.090677E+04  7.317256E+03 -2.850769E+02 -1.258631E+03
       176  10 -7.925764E+04  1.716013E+04  1.436684E+04  7.401757E+03 -1.218494E-09 -1.095153E-09
       176  11 -9.344178E+04  1.405194E+04  1.211679E+04  2.364520E+03 -2.017966E-09 -1.428953E-09
       176  12 -1.078522E+05  1.049219E+04  9.310919E+03  7.521428E+03 -1.295138E-09 -8.755525E-10
       176  13 -1.500117E+05 -3.633949E+02 -2.488570E+03  7.419791E+03  2.162807E-09 -5.247327E-10
       176  14 -1.498975E+05  6.353662E+01 -1.361823E+03  2.322463E+03 -7.910730E-10 -1.399018E-09
       176  15 -1.500113E+05  3.718529E+01 -7.978620E+02  7.419339E+03  2.789946E-09 -1.095078E-09
       176  16 -2.207612E+05 -1.788728E+04 -1.934433E+04  7.437822E+03  1.328583E-09 -1.748170E-09
       176  17 -2.063503E+05 -1.392510E+04 -1.484066E+04  2.280410E+03  1.501891E-09  2.685195E-09
       176  18 -1.921688E+05 -1.041795E+04 -1.090677E+04  7.317255E+03  4.226191E-10  3.351427E-09
       176  19 -7.925764E+04  1.716014E+04  1.436686E+04  7.401761E+03  2.267042E+03  2.432530E+03
       176  20 -9.344177E+04  1.405195E+04  1.211680E+04  2.364522E+03  1.595419E+03  1.855544E+03
       176  21 -1.078522E+05  1.049219E+04  9.310924E+03  7.521429E+03  9.238909E+02  1.259379E+03
       176  22 -1.500117E+05 -3.633875E+02 -2.488552E+03  7.419795E+03  1.967745E+03  2.432212E+03
       176  23 -1.498975E+05  6.354076E+01 -1.361813E+03  2.322465E+03  1.286069E+03  1.855199E+03
       176  24 -1.500113E+05  3.718709E+01 -7.978584E+02  7.419339E+03  6.044731E+02  1.259005E+03
       176  25 -2.207612E+05 -1.788727E+04 -1.934431E+04  7.437825E+03  1.668483E+03  2.431895E+03
       176  26 -2.063503E+05 -1.392510E+04 -1.484065E+04  2.280411E+03  9.767479E+02  1.854854E+03
       176  27 -1.921688E+05 -1.041794E+04 -1.090677E+04  7.317256E+03  2.850769E+02  1.258631E+03
       177   1 -1.261252E+05  5.882294E+03  5.033411E+03  7.444660E+03 -7.919554E+02 -9.093425E+02
       177   2 -1.404118E+05  2.374838E+03  1.913968E+03  2.331523E+03 -6.136368E+02 -3.136825E+02
       177   3 -1.547581E+05 -1.157899E+03 -1.334468E+03  7.426179E+03 -4.353355E+02  2.832733E+02
       177   4 -1.499737E+05 -1.832186E+01 -6.173717E+02  7.422535E+03 -4.779439E+02 -9.089681E+02
       177   5 -1.499436E+05  1.298666E+01 -3.618039E+02  2.318611E+03 -2.989511E+02 -3.133048E+02
       177   6 -1.499736E+05  1.890767E+01 -2.356918E+02  7.422490E+03 -1.199715E+02  2.836550E+02
       177   7 -1.738216E+05 -5.918978E+03 -6.268194E+03  7.400411E+03 -1.639444E+02 -9.085937E+02
       177   8 -1.594753E+05 -2.348871E+03 -2.637582E+03  2.305699E+03  1.572980E+01 -3.129272E+02
       177   9 -1.451890E+05  1.195713E+03  8.630832E+02  7.418801E+03  1.953949E+02  2.840366E+02
       177  10 -1.261252E+05  5.882293E+03  5.033408E+03  7.444659E+03  3.111403E-09 -2.521368E-09
       177  11 -1.404118E+05  2.374838E+03  1.913967E+03  2.331522E+03 -1.542298E-09 -3.026994E-10
       177  12 -1.547581E+05 -1.157900E+03 -1.334468E+03  7.426179E+03 -1.739357E-09  7.236228E-10
       177  13 -1.499737E+05 -1.832281E+01 -6.173737E+02  7.422535E+03 -1.083852E-09  5.363431E-10
       177  14 -1.499436E+05  1.298653E+01 -3.618043E+02  2.318611E+03  3.283198E-10 -2.948283E-09
       177  15 -1.499736E+05  1.890758E+01 -2.356920E+02  7.422490E+03 -5.742371E-10 -1.099941E-09
       177  16 -1.738216E+05 -5.918979E+03 -6.268195E+03  7.400411E+03  1.302768E-09  2.216665E-09
       177  17 -1.594753E+05 -2.348872E+03 -2.637582E+03  2.305699E+03  9.000864E-11  3.179086E-09
       177  18 -1.451890E+05  1.195713E+03  8.630830E+02  7.418801E+03  1.844019E-09  8.717222E-10
       177  19 -1.261252E+05  5.882294E+03  5.033411E+03  7.444660E+03  7.919554E+02  9.093425E+02
       177  20 -1.404118E+05  2.374838E+03  1.913968E+03  2.331523E+03  6.136368E+02  3.136825E+02
       177  21 -1.547581E+05 -1.157899E+03 -1.334468E+03  7.426179E+03  4.353355E+02 -2.832733E+02
       177  22 -1.499737E+05 -1.832186E+01 -6.173717E+02  7.422535E+03  4.779439E+02  9.089681E+02
       177  23 -1.499436E+05  1.298666E+01 -3.618039E+02  2.318611E+03  2.989511E+02  3.133048E+02
       177  24 -1.499736E+05  1.890767E+01 -2.356918E+02  7.422490E+03  1.199715E+02 -2.836550E+02
       177  25 -1.738216E+05 -5.918978E+03 -6.268194E+03  7.400411E+03  1.639444E+02  9.085937E+02
       177  26 -1.594753E+05 -2.348871E+03 -2.637582E+03  2.305699E+03 -1.572980E+01  3.129272E+02
       177  27 -1.451890E+05  1.195713E+03  8.630832E+02  7.418801E+03 -1.953949E+02 -2.840366E+02
       178   1 -1.730704E+05 -5.717422E+03 -5.760818E+03  7.400253E+03 -3.963252E+02  6.311444E+02
       178   2 -1.873588E+05 -9.261376E+03 -9.108187E+03  2.287678E+03 -3.086472E+02  1.227799E+03
       178   3 -2.016854E+05 -1.279967E+04 -1.251738E+04  7.377390E+03 -2.209247E+02  1.822648E+03
       178   4 -1.499689E+05  1.560960E+01 -2.015085E+02  7.421268E+03 -8.094020E+01  6.315233E+02
       178   5 -1.499498E+05  8.256143E+00 -1.763372E+02  2.320148E+03  5.783110E+00  1.228165E+03
       178   6 -1.499691E+05  6.688784E+00 -2.123644E+02  7.421278E+03  9.255297E+01  1.823003E+03
       178   7 -1.268669E+05  5.748602E+03  5.357764E+03  7.442283E+03  2.344565E+02  6.319021E+02
       178   8 -1.125395E+05  9.277787E+03  8.755415E+03  2.352620E+03  3.202323E+02  1.228531E+03
       178   9 -9.825043E+04  1.281286E+04  1.209246E+04  7.465168E+03  4.060567E+02  1.823357E+03
       178  10 -1.730704E+05 -5.717422E+03 -5.760820E+03  7.400253E+03  6.133077E-09  1.975806E-09
       178  11 -1.873588E+05 -9.261377E+03 -9.108190E+03  2.287678E+03 -2.240154E-09 -6.161093E-10
       178  12 -2.016854E+05 -1.279967E+04 -1.251738E+04  7.377391E+03 -8.355533E-09  1.487077E-11
       178  13 -1.499689E+05  1.560917E+01 -2.015093E+02  7.421268E+03  2.045956E-09  2.891194E-09
       178  14 -1.499498E+05  8.254523E+00 -1.763400E+02  2.320148E+03 -2.458489E-09 -1.413540E-09
       178  15 -1.499691E+05  6.685213E+00 -2.123707E+02  7.421278E+03  3.703868E-09 -7.926683E-10
       178  16 -1.268669E+05  5.748601E+03  5.357763E+03  7.442283E+03 -4.560884E-09  3.281014E-12
       178  17 -1.125395E+05  9.277785E+03  8.755412E+03  2.352620E+03 -1.277686E-09 -5.073077E-09
       178  18 -9.825043E+04  1.281285E+04  1.209245E+04  7.465168E+03  9.504080E-09 -2.272385E-09
       178  19 -1.730704E+05 -5.717422E+03 -5.760818E+03  7.400253E+03  3.963252E+02 -6.311444E+02
       178  20 -1.873588E+05 -9.261376E+03 -9.108187E+03  2.287678E+03  3.086472E+02 -1.227799E+03
       178  21 -2.016854E+05 -1.279967E+04 -1.251738E+04  7.377390E+03  2.209247E+02 -1.822648E+03
       178  22 -1.499689E+05  1.560960E+01 -2.015085E+02  7.421268E+03  8.094020E+01 -6.315233E+02
       178  23 -1.499498E+05  8.256143E+00 -1.763372E+02  2.320148E+03 -5.783110E+00 -1.228165E+03
       178  24 -1.499691E+05  6.688784E+00 -2.123644E+02  7.421278E+03 -9.255297E+01 -1.823003E+03
       178  25 -1.268669E+05  5.748602E+03  5.357764E+03  7.442283E+03 -2.344565E+02 -6.319021E+02
       178  26 -1.125395E+05  9.277787E+03  8.755415E+03  2.352620E+03 -3.202323E+02 -1.228531E+03
       178  27 -9.825043E+04  1.281286E+04  1.209246E+04  7.465168E+03 -4.060567E+02 -1.823357E+03
       179   1 -2.199813E+05 -1.733344E+04 -1.700787E+04  7.337988E+03 -1.860209E+02  2.172597E+03
       179   2 -2.342156E+05 -2.086317E+04 -2.051116E+04  2.261507E+03  1.990460E+01  2.767239E+03
       179   3 -2.485244E+05 -2.450248E+04 -2.418045E+04  7.359483E+03  2.259543E+02  3.339482E+03
       179   4 -1.499773E+05  2.197375E+01 -2.500764E+02  7.415038E+03  1.336602E+02  2.172946E+03
       179   5 -1.499413E+05  1.982827E+01 -3.892140E+02  2.327912E+03  3.277850E+02  2.767550E+03
       179   6 -1.499778E+05 -8.977079E+01 -6.860662E+02  7.415157E+03  5.220385E+02  3.339757E+03
       179   7 -7.996879E+04  1.737704E+04  1.650737E+04  7.492095E+03  4.533773E+02  2.173295E+03
       179   8 -6.566053E+04  2.090231E+04  1.973223E+04  2.394324E+03  6.357071E+02  2.767861E+03
       179   9 -5.142228E+04  2.432223E+04  2.280764E+04  7.470837E+03  8.181696E+02  3.340031E+03
       179  10 -2.199813E+05 -1.733345E+04 -1.700788E+04  7.337989E+03 -4.667835E-09 -3.722653E-10
       179  11 -2.342156E+05 -2.086318E+04 -2.051118E+04  2.261507E+03 -3.347991E-10 -4.102894E-09
       179  12 -2.485245E+05 -2.450249E+04 -2.418047E+04  7.359482E+03  4.043175E-09  1.719029E-09
       179  13 -1.499773E+05  2.196868E+01 -2.500853E+02  7.415038E+03  1.001505E-11 -2.261327E-09
       179  14 -1.499413E+05  1.982002E+01 -3.892286E+02  2.327911E+03  2.436558E-10 -3.204888E-09
       179  15 -1.499778E+05 -8.978284E+01 -6.860876E+02  7.415156E+03 -6.166295E-10 -3.347424E-09
       179  16 -7.996880E+04  1.737703E+04  1.650736E+04  7.492095E+03  4.597909E-09  6.317675E-10
       179  17 -6.566053E+04  2.090230E+04  1.973222E+04  2.394323E+03  1.561165E-10 -2.045741E-09
       179  18 -5.142228E+04  2.432222E+04  2.280762E+04  7.470835E+03 -1.294000E-09  4.820793E-09
       179  19 -2.199813E+05 -1.733344E+04 -1.700787E+04  7.337988E+03  1.860209E+02 -2.172597E+03
       179  20 -2.342156E+05 -2.086317E+04 -2.051116E+04  2.261507E+03 -1.990460E+01 -2.767239E+03
       179  21 -2.485244E+05 -2.450248E+04 -2.418045E+04  7.359483E+03 -2.259543E+02 -3.339482E+03
       179  22 -1.499773E+05  2.197375E+01 -2.500764E+02  7.415038E+03 -1.336602E+02 -2.172946E+03
       179  23 -1.499413E+05  1.982827E+01 -3.892140E+02  2.327912E+03 -3.277850E+02 -2.767550E+03
       179  24 -1.499778E+05 -8.977079E+01 -6.860662E+02  7.415157E+03 -5.220385E+02 -3.339757E+03
       179  25 -7.996879E+04  1.737704E+04  1.650737E+04  7.492095E+03 -4.533773E+02 -2.173295E+03
       179  26 -6.566053E+04  2.090231E+04  1.973223E+04  2.394324E+03 -6.357071E+02 -2.767861E+03
       179  27 -5.142228E+04  2.432223E+04  2.280764E+04  7.470837E+03 -8.181696E+02 -3.340031E+03
       180   1 -2.668257E+05 -2.887636E+04 -2.878999E+04  7.164595E+03  2.728994E+02  3.727666E+03
       180   2 -2.808141E+05 -3.230748E+04 -3.273202E+04  2.327156E+03  1.182226E+03  4.306852E+03
       180   3 -2.952457E+05 -3.701445E+04 -3.758663E+04  7.612246E+03  2.091947E+03  4.579328E+03
       180   4 -1.500550E+05  6.746826E+01 -8.715780E+02  7.403223E+03  6.591584E+02  3.728009E+03
       180   5 -1.498479E+05  1.460338E+02 -1.462512E+03  2.342507E+03  1.406741E+03  4.307001E+03
       180   6 -1.500559E+05 -1.022993E+03 -2.853522E+03  7.404192E+03  2.154739E+03  4.579310E+03
       180   7 -3.327186E+04  2.901031E+04  2.704588E+04  7.641893E+03  1.045490E+03  3.728353E+03
       180   8 -1.886593E+04  3.259831E+04  2.980579E+04  2.357858E+03  1.631303E+03  4.307149E+03
       180   9 -4.846754E+03  3.496694E+04  3.187809E+04  7.196085E+03  2.217545E+03  4.579292E+03
       180  10 -2.668257E+05 -2.887637E+04 -2.879002E+04  7.164594E+03  4.133234E-10  2.239475E-09
       180  11 -2.808141E+05 -3.230750E+04 -3.273206E+04  2.327152E+03 -3.656114E-09  1.081911E-09
       180  12 -2.952457E+05 -3.701447E+04 -3.758668E+04  7.612238E+03 -3.960878E-09 -2.780946E-09
       180  13 -1.500550E+05  6.745322E+01 -8.716049E+02  7.403221E+03 -2.048019E-09 -5.684882E-09
       180  14 -1.498479E+05  1.460133E+02 -1.462551E+03  2.342502E+03 -2.027059E-09 -5.642350E-10
       180  15 -1.500559E+05 -1.023017E+03 -2.853570E+03  7.404184E+03 -5.857533E-10 -2.445328E-09
       180  16 -3.327187E+04  2.901029E+04  2.704585E+04  7.641890E+03 -9.265121E-10  2.318218E-09
       180  17 -1.886594E+04  3.259828E+04  2.980575E+04  2.357852E+03  6.479445E-10 -2.688829E-09
       180  18 -4.846765E+03  3.496691E+04  3.187805E+04  7.196076E+03  1.395853E-09  1.199328E-09
       180  19 -2.668257E+05 -2.887636E+04 -2.878999E+04  7.164595E+03 -2.728994E+02 -3.727666E+03
       180  20 -2.808141E+05 -3.230748E+04 -3.273202E+04  2.327156E+03 -1.182226E+03 -4.306852E+03
       180  21 -2.952457E+05 -3.701445E+04 -3.758663E+04  7.612246E+03 -2.091947E+03 -4.579328E+03
       180  22 -1.500550E+05  6.746826E+01 -8.715780E+02  7.403223E+03 -6.591584E+02 -3.728009E+03
       180  23 -1.498479E+05  1.460338E+02 -1.462512E+03  2.342507E+03 -1.406741E+03 -4.307001E+03
       180  24 -1.500559E+05 -1.022993E+03 -2.853522E+03  7.404192E+03 -2.154739E+03 -4.579310E+03
       180  25 -3.327186E+04  2.901031E+04  2.704588E+04  7.641893E+03 -1.045490E+03 -3.728353E+03
       180  26 -1.886593E+04  3.259831E+04  2.980579E+04  2.357858E+03 -1.631303E+03 -4.307149E+03
       180  27 -4.846754E+03  3.496694E+04  3.187809E+04  7.196085E+03 -2.217545E+03 -4.579292E+03
       181   1 -3.140788E+05 -3.992948E+04 -4.244878E+04  5.888892E+03  1.350476E+03  5.523977E+03
       181   2 -3.263085E+05 -4.256026E+04 -4.792965E+04  3.269171E+03  6.663805E+03  5.909629E+03
       181   3 -3.424043E+05 -5.794475E+04 -6.005644E+04  1.059987E+04  1.197963E+04  1.967771E+03
       181   4 -1.507358E+05  5.402907E+02 -3.500027E+03  7.363098E+03  2.694318E+03  5.524969E+03
       181   5 -1.490023E+05  1.370770E+03 -5.621062E+03  2.391361E+03  5.724462E+03  5.908846E+03
       181   6 -1.507376E+05 -1.015407E+04 -1.280096E+04  7.369969E+03  8.757273E+03  1.965720E+03
       181   7  1.263158E+04  4.100814E+04  3.544686E+04  8.837689E+03  4.038512E+03  5.525967E+03
       181   8  2.833267E+04  4.529953E+04  3.668532E+04  1.513295E+03  4.784851E+03  5.908067E+03
       181   9  4.096248E+04  3.763392E+04  3.445184E+04  4.139067E+03  5.533921E+03  1.963704E+03
       181  10 -3.140788E+05 -3.992951E+04 -4.244884E+04  5.888886E+03  6.468650E-09 -2.107404E-09
       181  11 -3.263086E+05 -4.256031E+04 -4.792980E+04  3.269139E+03  2.302694E-09  6.446296E-10
       181  12 -3.424044E+05 -5.794480E+04 -6.005672E+04  1.059985E+04 -3.663050E-10  1.195845E-09
       181  13 -1.507359E+05  5.402560E+02 -3.500098E+03  7.363086E+03 -3.300157E-13 -2.257882E-10
       181  14 -1.490024E+05  1.370724E+03 -5.621189E+03  2.391334E+03 -1.862794E-10  3.895933E-10
       181  15 -1.507377E+05 -1.015409E+04 -1.280111E+04  7.369955E+03  1.027662E-09  8.087704E-10
       181  16  1.263155E+04  4.100810E+04  3.544678E+04  8.837671E+03 -4.867736E-09  1.964650E-09
       181  17  2.833263E+04  4.529948E+04  3.668521E+04  1.513272E+03 -4.734721E-09  3.531807E-10
       181  18  4.096244E+04  3.763391E+04  3.445178E+04  4.139058E+03 -7.849622E-10 -3.955756E-10
       181  19 -3.140788E+05 -3.992948E+04 -4.244878E+04  5.888892E+03 -1.350476E+03 -5.523977E+03
       181  20 -3.263085E+05 -4.256026E+04 -4.792965E+04  3.269171E+03 -6.663805E+03 -5.909629E+03
       181  21 -3.424043E+05 -5.794475E+04 -6.005644E+04  1.059987E+04 -1.197963E+04 -1.967771E+03
       181  22 -1.507358E+05  5.402907E+02 -3.500027E+03  7.363098E+03 -2.694318E+03 -5.524969E+03
       181  23 -1.490023E+05  1.370770E+03 -5.621062E+03  2.391361E+03 -5.724462E+03 -5.908846E+03
       181  24 -1.507376E+05 -1.015407E+04 -1.280096E+04  7.369969E+03 -8.757273E+03 -1.965720E+03
       181  25  1.263158E+04  4.100814E+04  3.544686E+04  8.837689E+03 -4.038512E+03 -5.525967E+03
       181  26  2.833267E+04  4.529953E+04  3.668532E+04  1.513295E+03 -4.784851E+03 -5.908067E+03
       181  27  4.096248E+04  3.763392E+04  3.445184E+04  4.139067E+03 -5.533921E+03 -1.963704E+03
       182   1 -1.359096E+05 -4.963699E+05 -1.339642E+05  1.117979E+05 -5.479187E+03 -3.972737E+04
       182   2 -8.959837E+04 -3.792006E+05 -8.353068E+04  9.081891E+04 -1.635468E+04 -1.698543E+04
       182   3 -5.885673E+04 -2.688101E+05 -5.179685E+04  9.917153E+04 -1.477678E+04  5.769922E+03
       182   4 -1.847144E+04 -2.270397E+04 -2.066422E+04  1.008305E+05 -5.491305E+03 -1.513730E+04
       182   5 -3.052140E+03 -2.085286E+04 -9.260596E+03  8.616926E+04 -1.635694E+04 -1.031264E+04
       182   6 -8.490360E+01 -2.267777E+04 -4.104525E+03  1.008399E+05 -1.477200E+04 -5.479262E+03
       182   7  9.895126E+04  4.511692E+05  9.262231E+04  8.985483E+04 -5.504288E+03  9.471465E+03
       182   8  8.348605E+04  3.376167E+05  6.500268E+04  8.151689E+04 -1.635931E+04 -3.636061E+03
       182   9  5.868339E+04  2.235130E+05  4.358544E+04  1.025089E+05 -1.476729E+04 -1.673281E+04
       182  10 -1.359101E+05 -4.963716E+05 -1.339673E+05  1.117977E+05 -1.414905E-09 -1.988465E-09
       182  11 -8.959874E+04 -3.792010E+05 -8.353173E+04  9.081869E+04 -4.039781E-09 -3.658452E-09
       182  12 -5.885697E+04 -2.688102E+05 -5.179732E+04  9.917160E+04 -3.176549E-09 -5.323467E-09
       182  13 -1.847153E+04 -2.270422E+04 -2.066470E+04  1.008305E+05 -1.135273E-09  1.784386E-09
       182  14 -3.052455E+03 -2.085305E+04 -9.261299E+03  8.616913E+04 -2.888862E-09 -1.086855E-09
       182  15 -8.514596E+01 -2.267786E+04 -4.104991E+03  1.008398E+05 -4.664167E-09  5.854045E-10
       182  16  9.895121E+04  4.511691E+05  9.262208E+04  8.985487E+04 -3.398491E-10  2.363393E-09
       182  17  8.348575E+04  3.376167E+05  6.500215E+04  8.151684E+04  1.941184E-09  3.593726E-09
       182  18  5.868308E+04  2.235127E+05  4.358450E+04  1.025087E+05 -3.469809E-09  5.466001E-09
       182  19 -1.359096E+05 -4.963699E+05 -1.339642E+05  1.117979E+05  5.479187E+03  3.972737E+04
       182  20 -8.959837E+04 -3.792006E+05 -8.353068E+04  9.081891E+04  1.635468E+04  1.698543E+04
       182  21 -5.885673E+04 -2.688101E+05 -5.179685E+04  9.917153E+04  1.477678E+04 -5.769922E+03
       182  22 -1.847144E+04 -2.270397E+04 -2.066422E+04  1.008305E+05  5.491305E+03  1.513730E+04
       182  23 -3.052140E+03 -2.085286E+04 -9.260596E+03  8.616926E+04  1.635694E+04  1.031264E+04
       182  24 -8.490360E+01 -2.267777E+04 -4.104525E+03  1.008399E+05  1.477200E+04  5.479262E+03
       182  25  9.895126E+04  4.511692E+05  9.262231E+04  8.985483E+04  5.504288E+03 -9.471465E+03
       182  26  8.348605E+04  3.376167E+05  6.500268E+04  8.151689E+04  1.635931E+04  3.636061E+03
       182  27  5.868339E+04  2.235130E+05  4.358544E+04  1.025089E+05  1.476729E+04  1.673281E+04
       183   1 -4.109799E+04 -1.904241E+05 -3.497469E+04  1.010600E+05 -1.013279E+04  4.111937E+03
       183   2 -1.307643E+04 -7.678387E+04 -9.117644E+03  8.609856E+04 -3.677797E+03  3.813648E+03
       183   3  1.514360E+04  3.699893E+04  1.699205E+04  1.011777E+05  2.968396E+03  3.515087E+03
       183   4 -8.399245E+02 -2.181493E+04 -2.315114E+03  1.009953E+05 -1.012932E+04 -5.044301E+03
       183   5 -4.440888E+01 -2.190206E+04  1.156981E+03  8.597540E+04 -3.674426E+03 -5.618412E+03
       183   6  9.982889E+02 -2.181083E+04  5.073853E+03  1.009959E+05  2.971628E+03 -6.192744E+03
       183   7  3.941649E+04  1.468218E+05  3.034345E+04  1.009305E+05 -1.012585E+04 -1.420297E+04
       183   8  1.298749E+04  3.298284E+04  1.143181E+04  8.585224E+04 -3.671051E+03 -1.505129E+04
       183   9 -1.314718E+04 -8.061709E+04 -6.844164E+03  1.008142E+05  2.974866E+03 -1.589967E+04
       183  10 -4.109811E+04 -1.904242E+05 -3.497492E+04  1.010601E+05 -4.417052E-10 -3.629305E-08
       183  11 -1.307645E+04 -7.678388E+04 -9.117697E+03  8.609857E+04 -1.785007E-09 -1.302941E-08
       183  12  1.514359E+04  3.699891E+04  1.699201E+04  1.011777E+05 -4.692930E-09  1.334489E-08
       183  13 -8.400415E+02 -2.181498E+04 -2.315355E+03  1.009953E+05 -2.005764E-09  1.126459E-09
       183  14 -4.443185E+01 -2.190210E+04  1.156897E+03  8.597539E+04  9.860422E-09 -9.738495E-10
       183  15  9.982692E+02 -2.181087E+04  5.073765E+03  1.009959E+05  1.323993E-08  9.420960E-10
       183  16  3.941633E+04  1.468215E+05  3.034288E+04  1.009304E+05 -1.478168E-09  3.616712E-08
       183  17  1.298741E+04  3.298260E+04  1.143136E+04  8.585219E+04 -2.867812E-09  1.327860E-08
       183  18 -1.314726E+04 -8.061736E+04 -6.844656E+03  1.008143E+05 -4.086496E-09 -1.402724E-08
       183  19 -4.109799E+04 -1.904241E+05 -3.497469E+04  1.010600E+05  1.013279E+04 -4.111937E+03
       183  20 -1.307643E+04 -7.678387E+04 -9.117644E+03  8.609856E+04  3.677797E+03 -3.813648E+03
       183  21  1.514360E+04  3.699893E+04  1.699205E+04  1.011777E+05 -2.968396E+03 -3.515087E+03
       183  22 -8.399245E+02 -2.181493E+04 -2.315114E+03  1.009953E+05  1.012932E+04  5.044301E+03
       183  23 -4.440888E+01 -2.190206E+04  1.156981E+03  8.597540E+04  3.674426E+03  5.618412E+03
       183  24  9.982889E+02 -2.181083E+04  5.073853E+03  1.009959E+05 -2.971628E+03  6.192744E+03
       183  25  3.941649E+04  1.468218E+05  3.034345E+04  1.009305E+05  1.012585E+04  1.420297E+04
       183  26  1.298749E+04  3.298284E+04  1.143181E+04  8.585224E+04  3.671051E+03  1.505129E+04
       183  27 -1.314718E+04 -8.061709E+04 -6.844164E+03  1.008142E+05 -2.974866E+03  1.589967E+04
       184   1  3.252276E+04  1.156581E+05  3.423356E+04  9.827866E+04  7.632522E+03  4.204131E+03
       184   2  6.450953E+04  2.253998E+05  6.668546E+04  9.286664E+04  1.060473E+04 -1.734774E+04
       184   3  1.175893E+05  3.432816E+05  1.184483E+05  1.169734E+05  3.824442E+03 -3.890935E+04
       184   4 -1.077884E+02 -2.058787E+04  7.330475E+03  1.008771E+05  7.636549E+03 -7.087152E+03
       184   5  4.300708E+03 -2.344431E+04  1.441975E+04  8.612451E+04  1.060412E+04 -1.458966E+04
       184   6  2.736939E+04 -2.060561E+04  3.106879E+04  1.008898E+05  3.818063E+03 -2.209800E+04
       184   7 -3.273937E+04 -1.568158E+05 -1.957304E+04  1.034751E+05  7.640481E+03 -1.837601E+04
       184   8 -5.591192E+04 -2.722298E+05 -3.784937E+04  7.938512E+04  1.060345E+04 -1.183267E+04
       184   9 -6.285905E+04 -3.843705E+05 -5.631893E+04  8.481559E+04  3.810812E+03 -5.296451E+03
       184  10  3.252269E+04  1.156581E+05  3.423342E+04  9.827863E+04 -5.891417E-09  1.170436E-08
       184  11  6.450933E+04  2.253995E+05  6.668468E+04  9.286679E+04 -3.766716E-09  1.462443E-08
       184  12  1.175889E+05  3.432800E+05  1.184454E+05  1.169735E+05  7.516482E-11  1.237956E-08
       184  13 -1.078645E+02 -2.058794E+04  7.330271E+03  1.008772E+05  1.150505E-08  1.094191E-09
       184  14  4.300530E+03 -2.344457E+04  1.441914E+04  8.612463E+04  3.951799E-09 -8.180551E-10
       184  15  2.736925E+04 -2.060613E+04  3.106784E+04  1.008898E+05  2.270301E-09  1.064639E-09
       184  16 -3.273952E+04 -1.568162E+05 -1.957378E+04  1.034752E+05 -5.341902E-09 -1.117380E-08
       184  17 -5.591208E+04 -2.722300E+05 -3.784984E+04  7.938522E+04 -5.516641E-09 -1.467102E-08
       184  18 -6.285907E+04 -3.843705E+05 -5.631901E+04  8.481560E+04 -1.782332E-09 -1.230833E-08
       184  19  3.252276E+04  1.156581E+05  3.423356E+04  9.827866E+04 -7.632522E+03 -4.204131E+03
       184  20  6.450953E+04  2.253998E+05  6.668546E+04  9.286664E+04 -1.060473E+04  1.734774E+04
       184  21  1.175893E+05  3.432816E+05  1.184483E+05  1.169734E+05 -3.824442E+03  3.890935E+04
       184  22 -1.077884E+02 -2.058787E+04  7.330475E+03  1.008771E+05 -7.636549E+03  7.087152E+03
       184  23  4.300708E+03 -2.344431E+04  1.441975E+04  8.612451E+04 -1.060412E+04  1.458966E+04
       184  24  2.736939E+04 -2.060561E+04  3.106879E+04  1.008898E+05 -3.818063E+03  2.209800E+04
       184  25 -3.273937E+04 -1.568158E+05 -1.957304E+04  1.034751E+05 -7.640481E+03  1.837601E+04
       184  26 -5.591192E+04 -2.722298E+05 -3.784937E+04  7.938512E+04 -1.060345E+04  1.183267E+04
       184  27 -6.285905E+04 -3.843705E+05 -5.631893E+04  8.481559E+04 -3.810812E+03  5.296451E+03
       185   1  3.637373E+05  1.298298E+05  7.650823E+04  1.333053E+05  3.201998E+04  9.820500E+03
       185   2  3.527742E+05  8.641606E+04  4.792380E+04  1.306061E+05  2.069874E+04  7.965074E+02
       185   3  3.518302E+05  7.656246E+04  3.724434E+04  1.238327E+05  7.926922E+03 -4.366793E+03
       185   4  2.383535E+05  6.825184E+04  4.037207E+04  8.426247E+04  2.652310E+04  7.753482E+03
       185   5  2.314926E+05  3.626575E+04  1.757086E+04  9.214568E+04  1.867542E+04  3.562764E+01
       185   6  2.339651E+05  3.715531E+04  9.925951E+03  9.595419E+04  9.376725E+03 -3.821782E+03
       185   7  1.129877E+05  6.679415E+03  4.235163E+03  3.523052E+04  2.102753E+04  5.687274E+03
       185   8  1.102261E+05 -1.388233E+04 -1.278306E+04  5.369263E+04  1.665253E+04 -7.250465E+02
       185   9  1.161128E+05 -2.251771E+03 -1.739360E+04  6.808004E+04  1.082624E+04 -3.276854E+03
       185  10  3.637362E+05  1.298294E+05  7.650613E+04  1.333050E+05 -1.717442E-09  6.051904E-10
       185  11  3.527738E+05  8.641595E+04  4.792299E+04  1.306061E+05 -1.579287E-09 -8.550055E-10
       185  12  3.518302E+05  7.656242E+04  3.724419E+04  1.238327E+05  1.803293E-10  1.749988E-09
       185  13  2.383528E+05  6.825159E+04  4.037064E+04  8.426230E+04  1.660003E-10 -1.821381E-09
       185  14  2.314922E+05  3.626566E+04  1.757021E+04  9.214567E+04 -2.752331E-09  2.781751E-09
       185  15  2.339650E+05  3.715527E+04  9.925758E+03  9.595422E+04 -9.650333E-11  2.416474E-10
       185  16  1.129872E+05  6.679262E+03  4.234271E+03  3.523042E+04  1.636646E-09  4.695271E-10
       185  17  1.102258E+05 -1.388241E+04 -1.278358E+04  5.369264E+04 -1.559167E-09  1.736562E-09
       185  18  1.161127E+05 -2.251814E+03 -1.739384E+04  6.808007E+04 -2.728379E-09  5.470024E-10
       185  19  3.637373E+05  1.298298E+05  7.650823E+04  1.333053E+05 -3.201998E+04 -9.820500E+03
       185  20  3.527742E+05  8.641606E+04  4.792380E+04  1.306061E+05 -2.069874E+04 -7.965074E+02
       185  21  3.518302E+05  7.656246E+04  3.724434E+04  1.238327E+05 -7.926922E+03  4.366793E+03
       185  22  2.383535E+05  6.825184E+04  4.037207E+04  8.426247E+04 -2.652310E+04 -7.753482E+03
       185  23  2.314926E+05  3.626575E+04  1.757086E+04  9.214568E+04 -1.867542E+04 -3.562764E+01
       185  24  2.339651E+05  3.715531E+04  9.925951E+03  9.595419E+04 -9.376725E+03  3.821782E+03
       185  25  1.129877E+05  6.679415E+03  4.235163E+03  3.523052E+04 -2.102753E+04 -5.687274E+03
       185  26  1.102261E+05 -1.388233E+04 -1.278306E+04  5.369263E+04 -1.665253E+04  7.250465E+02
       185  27  1.161128E+05 -2.251771E+03 -1.739360E+04  6.808004E+04 -1.082624E+04  3.276854E+03
       186   1  3.381661E+05  7.991108E+04  3.324315E+04  1.238009E+05  7.544347E+03 -3.684251E+03
       186   2  3.290356E+05  7.231013E+04  2.683791E+04  1.192365E+05  5.177867E+03 -4.090405E+03
       186   3  3.176630E+05  6.970637E+04  2.255705E+04  1.179505E+05  2.746924E+03 -4.325155E+03
       186   4  2.326733E+05  4.006663E+04  7.846763E+03  9.416211E+04  7.847658E+03 -3.570306E+03
       186   5  2.336866E+05  3.671007E+04  4.046558E+03  9.285147E+04  5.635654E+03 -3.918340E+03
       186   6  2.324273E+05  3.832027E+04  2.248646E+03  9.481922E+04  3.359149E+03 -4.094975E+03
       186   7  1.271915E+05  2.230657E+02 -1.755044E+04  6.452794E+04  8.150912E+03 -3.456383E+03
       186   8  1.383469E+05  1.110780E+03 -1.874538E+04  6.647025E+04  6.093363E+03 -3.746305E+03
       186   9  1.471994E+05  6.934815E+03 -1.806015E+04  7.169094E+04  3.971279E+03 -3.864830E+03
       186  10  3.381661E+05  7.991105E+04  3.324302E+04  1.238009E+05  2.066765E-09  2.440627E-09
       186  11  3.290355E+05  7.231010E+04  2.683783E+04  1.192365E+05  5.987706E-10  1.725583E-09
       186  12  3.176630E+05  6.970635E+04  2.255700E+04  1.179505E+05 -2.155026E-09 -3.790800E-10
       186  13  2.326732E+05  4.006660E+04  7.846623E+03  9.416214E+04 -2.228814E-09 -3.320588E-10
       186  14  2.336866E+05  3.671005E+04  4.046470E+03  9.285149E+04  6.367194E-10 -3.842727E-09
       186  15  2.324273E+05  3.832025E+04  2.248593E+03  9.481923E+04  4.678375E-09  8.912191E-10
       186  16  1.271914E+05  2.230351E+02 -1.755058E+04  6.452796E+04 -4.724264E-09 -2.923552E-09
       186  17  1.383469E+05  1.110755E+03 -1.874547E+04  6.647027E+04  7.943812E-10 -4.981331E-09
       186  18  1.471993E+05  6.934795E+03 -1.806021E+04  7.169096E+04  5.185267E-09  3.701269E-09
       186  19  3.381661E+05  7.991108E+04  3.324315E+04  1.238009E+05 -7.544347E+03  3.684251E+03
       186  20  3.290356E+05  7.231013E+04  2.683791E+04  1.192365E+05 -5.177867E+03  4.090405E+03
       186  21  3.176630E+05  6.970637E+04  2.255705E+04  1.179505E+05 -2.746924E+03  4.325155E+03
       186  22  2.326733E+05  4.006663E+04  7.846763E+03  9.416211E+04 -7.847658E+03  3.570306E+03
       186  23  2.336866E+05  3.671007E+04  4.046558E+03  9.285147E+04 -5.635654E+03  3.918340E+03
       186  24  2.324273E+05  3.832027E+04  2.248646E+03  9.481922E+04 -3.359149E+03  4.094975E+03
       186  25  1.271915E+05  2.230657E+02 -1.755044E+04  6.452794E+04 -8.150912E+03  3.456383E+03
       186  26  1.383469E+05  1.110780E+03 -1.874538E+04  6.647025E+04 -6.093363E+03  3.746305E+03
       186  27  1.471994E+05  6.934815E+03 -1.806015E+04  7.169094E+04 -3.971279E+03  3.864830E+03
       187   1  3.087342E+05  6.686500E+04  1.990394E+04  1.157145E+05  2.336027E+03 -4.038498E+03
       187   2  2.998559E+05  6.129683E+04  1.667434E+04  1.110370E+05  1.625698E+03 -3.590056E+03
       187   3  2.878871E+05  5.903344E+04  1.382591E+04  1.099986E+05  9.126558E+02 -3.134570E+03
       187   4  2.323200E+05  3.847498E+04  1.710482E+03  9.470246E+04  2.896515E+03 -3.827754E+03
       187   5  2.338599E+05  3.678023E+04  9.364151E+02  9.289913E+04  2.192586E+03 -3.376875E+03
       187   6  2.323082E+05  3.838910E+04  5.385477E+02  9.473493E+04  1.485938E+03 -2.918955E+03
       187   7  1.559111E+05  1.008522E+04 -1.648351E+04  7.369264E+04  3.456931E+03 -3.617036E+03
       187   8  1.678681E+05  1.226387E+04 -1.480187E+04  7.476295E+04  2.759411E+03 -3.163717E+03
       187   9  1.767323E+05  1.774496E+04 -1.274904E+04  7.947247E+04  2.059165E+03 -2.703360E+03
       187  10  3.087342E+05  6.686498E+04  1.990390E+04  1.157145E+05  4.674510E-11 -2.944621E-09
       187  11  2.998559E+05  6.129681E+04  1.667431E+04  1.110370E+05  1.084946E-09 -1.127855E-09
       187  12  2.878871E+05  5.903343E+04  1.382589E+04  1.099986E+05 -1.238987E-10  1.031097E-09
       187  13  2.323200E+05  3.847496E+04  1.710439E+03  9.470247E+04  2.909883E-09  8.496805E-10
       187  14  2.338599E+05  3.678022E+04  9.363846E+02  9.289914E+04  3.087314E-09 -1.369383E-09
       187  15  2.323082E+05  3.838909E+04  5.385275E+02  9.473493E+04 -1.942206E-10  2.276408E-09
       187  16  1.559111E+05  1.008520E+04 -1.648355E+04  7.369265E+04  1.233333E-09  2.874526E-09
       187  17  1.678680E+05  1.226386E+04 -1.480190E+04  7.476295E+04  6.595655E-10  1.867444E-09
       187  18  1.767323E+05  1.774496E+04 -1.274906E+04  7.947247E+04  8.241483E-10  1.849590E-09
       187  19  3.087342E+05  6.686500E+04  1.990394E+04  1.157145E+05 -2.336027E+03  4.038498E+03
       187  20  2.998559E+05  6.129683E+04  1.667434E+04  1.110370E+05 -1.625698E+03  3.590056E+03
       187  21  2.878871E+05  5.903344E+04  1.382591E+04  1.099986E+05 -9.126558E+02  3.134570E+03
       187  22  2.323200E+05  3.847498E+04  1.710482E+03  9.470246E+04 -2.896515E+03  3.827754E+03
       187  23  2.338599E+05  3.678023E+04  9.364151E+02  9.289913E+04 -2.192586E+03  3.376875E+03
       187  24  2.323082E+05  3.838910E+04  5.385477E+02  9.473493E+04 -1.485938E+03  2.918955E+03
       187  25  1.559111E+05  1.008522E+04 -1.648351E+04  7.369264E+04 -3.456931E+03  3.617036E+03
       187  26  1.678681E+05  1.226387E+04 -1.480187E+04  7.476295E+04 -2.759411E+03  3.163717E+03
       187  27  1.767323E+05  1.774496E+04 -1.274904E+04  7.947247E+04 -2.059165E+03  2.703360E+03
       188   1  2.792852E+05  5.584998E+04  1.159233E+04  1.076476E+05  6.965057E+02 -2.792978E+03
       188   2  2.704636E+05  5.039498E+04  9.009380E+03  1.029683E+05  3.164093E+02 -2.211569E+03
       188   3  2.584772E+05  4.813542E+04  6.533315E+03  1.019298E+05 -6.370927E+01 -1.630169E+03
       188   4  2.322962E+05  3.839405E+04  4.224353E+02  9.472446E+04  1.267138E+03 -2.578347E+03
       188   5  2.338787E+05  3.679533E+04  2.839259E+02  9.290453E+04  8.870428E+02 -1.996923E+03
       188   6  2.322962E+05  3.839208E+04  2.523111E+02  9.472535E+04  5.069219E+02 -1.415507E+03
       188   7  1.853095E+05  2.093838E+04 -1.074755E+04  8.180230E+04  1.837719E+03 -2.363734E+03
       188   8  1.972951E+05  2.319578E+04 -8.441624E+03  8.284127E+04  1.457640E+03 -1.782291E+03
       188   9  2.061158E+05  2.864874E+04 -6.028779E+03  8.752111E+04  1.077530E+03 -1.200854E+03
       188  10  2.792852E+05  5.584997E+04  1.159232E+04  1.076476E+05  1.936541E-09  1.166918E-09
       188  11  2.704636E+05  5.039497E+04  9.009371E+03  1.029683E+05 -1.238294E-09  2.298367E-09
       188  12  2.584772E+05  4.813542E+04  6.533310E+03  1.019298E+05  5.921795E-10 -6.761850E-10
       188  13  2.322962E+05  3.839405E+04  4.224197E+02  9.472446E+04 -3.034327E-09  8.104130E-10
       188  14  2.338787E+05  3.679533E+04  2.839169E+02  9.290453E+04 -2.329990E-09  2.286454E-09
       188  15  2.322962E+05  3.839208E+04  2.523068E+02  9.472535E+04 -7.926336E-10 -1.454276E-09
       188  16  1.853095E+05  2.093838E+04 -1.074757E+04  8.180230E+04 -3.584050E-09  2.010034E-09
       188  17  1.972951E+05  2.319578E+04 -8.441634E+03  8.284127E+04 -2.016389E-09  4.712788E-11
       188  18  2.061158E+05  2.864874E+04 -6.028784E+03  8.752111E+04  3.625091E-09 -3.100113E-10
       188  19  2.792852E+05  5.584998E+04  1.159233E+04  1.076476E+05 -6.965057E+02  2.792978E+03
       188  20  2.704636E+05  5.039498E+04  9.009380E+03  1.029683E+05 -3.164093E+02  2.211569E+03
       188  21  2.584772E+05  4.813542E+04  6.533315E+03  1.019298E+05  6.370927E+01  1.630169E+03
       188  22  2.322962E+05  3.839405E+04  4.224353E+02  9.472446E+04 -1.267138E+03  2.578347E+03
       188  23  2.338787E+05  3.679533E+04  2.839259E+02  9.290453E+04 -8.870428E+02  1.996923E+03
       188  24  2.322962E+05  3.839208E+04  2.523111E+02  9.472535E+04 -5.069219E+02  1.415507E+03
       188  25  1.853095E+05  2.093838E+04 -1.074755E+04  8.180230E+04 -1.837719E+03  2.363734E+03
       188  26  1.972951E+05  2.319578E+04 -8.441624E+03  8.284127E+04 -1.457640E+03  1.782291E+03
       188  27  2.061158E+05  2.864874E+04 -6.028779E+03  8.752111E+04 -1.077530E+03  1.200854E+03
       189   1  2.499142E+05  4.494042E+04  4.435917E+03  9.958019E+04 -2.458387E+02 -1.277162E+03
       189   2  2.410974E+05  3.949233E+04  2.104693E+03  9.490501E+04 -6.735449E+02 -7.140912E+02
       189   3  2.291261E+05  3.724085E+04 -8.330566E+01  9.386817E+04 -1.101142E+03 -1.512815E+02
       189   4  2.322985E+05  3.839162E+04  2.695221E+02  9.472509E+04  3.245635E+02 -1.062580E+03
       189   5  2.338760E+05  3.679507E+04  3.801798E+02  9.290529E+04 -1.033867E+02 -4.995982E+02
       189   6  2.322990E+05  3.839515E+04  6.342420E+02  9.472378E+04 -5.312310E+02  6.312044E+01
       189   7  2.146831E+05  3.184283E+04 -3.896892E+03  8.987011E+04  8.949481E+02 -8.480039E+02
       189   8  2.266547E+05  3.409782E+04 -1.344330E+03  9.090561E+04  4.667626E+02 -2.851086E+02
       189   9  2.354719E+05  3.954943E+04  1.351786E+03  9.557939E+04  3.868042E+01  2.775224E+02
       189  10  2.499142E+05  4.494042E+04  4.435913E+03  9.958019E+04  3.118056E-09  6.481545E-10
       189  11  2.410974E+05  3.949233E+04  2.104691E+03  9.490501E+04 -1.966058E-09 -3.355544E-09
       189  12  2.291261E+05  3.724085E+04 -8.330798E+01  9.386817E+04 -5.686272E-09 -2.499626E-09
       189  13  2.322985E+05  3.839161E+04  2.695198E+02  9.472509E+04  5.157768E-10  4.747372E-09
       189  14  2.338760E+05  3.679507E+04  3.801793E+02  9.290529E+04 -3.197773E-09 -2.459592E-09
       189  15  2.322990E+05  3.839515E+04  6.342415E+02  9.472378E+04 -1.206209E-09  2.073364E-09
       189  16  2.146831E+05  3.184283E+04 -3.896895E+03  8.987011E+04  1.335134E-09  2.762755E-10
       189  17  2.266547E+05  3.409782E+04 -1.344330E+03  9.090561E+04  2.762520E-09  2.037582E-09
       189  18  2.354719E+05  3.954943E+04  1.351786E+03  9.557939E+04  3.746329E-09  4.566029E-09
       189  19  2.499142E+05  4.494042E+04  4.435917E+03  9.958019E+04  2.458387E+02  1.277162E+03
       189  20  2.410974E+05  3.949233E+04  2.104693E+03  9.490501E+04  6.735449E+02  7.140912E+02
       189  21  2.291261E+05  3.724085E+04 -8.330566E+01  9.386817E+04  1.101142E+03  1.512815E+02
       189  22  2.322985E+05  3.839162E+04  2.695221E+02  9.472509E+04 -3.245635E+02  1.062580E+03
       189  23  2.338760E+05  3.679507E+04  3.801798E+02  9.290529E+04  1.033867E+02  4.995982E+02
       189  24  2.322990E+05  3.839515E+04  6.342420E+02  9.472378E+04  5.312310E+02 -6.312044E+01
       189  25  2.146831E+05  3.184283E+04 -3.896892E+03  8.987011E+04 -8.949481E+02  8.480039E+02
       189  26  2.266547E+05  3.409782E+04 -1.344330E+03  9.090561E+04 -4.667626E+02  2.851086E+02
       189  27  2.354719E+05  3.954943E+04  1.351786E+03  9.557939E+04 -3.868042E+01 -2.775224E+02
       190   1  2.205658E+05  3.405489E+04 -2.002109E+03  9.155394E+04 -1.362778E+03  1.722090E+02
       190   2  2.117043E+05  2.857831E+04 -3.796413E+03  8.684460E+04 -2.335731E+03  5.288767E+02
       190   3  1.998166E+05  2.646106E+04 -5.000274E+03  8.575977E+04 -3.306746E+03  8.804637E+02
       190   4  2.323212E+05  3.838537E+04  8.296766E+02  9.473806E+04 -7.912631E+02  3.872125E+02
       190   5  2.338435E+05  3.677459E+04  1.478807E+03  9.289963E+04 -1.768815E+03  7.421417E+02
       190   6  2.323405E+05  3.852413E+04  2.722069E+03  9.468574E+04 -2.744441E+03  1.091986E+03
       190   7  2.440767E+05  4.271588E+04  3.661471E+03  9.792226E+04 -2.197330E+02  6.022214E+02
       190   8  2.559832E+05  4.497093E+04  6.754011E+03  9.895488E+04 -1.201875E+03  9.554155E+02
       190   9  2.648655E+05  5.058728E+04  1.044434E+04  1.036121E+05 -2.182104E+03  1.303520E+03
       190  10  2.205658E+05  3.405489E+04 -2.002113E+03  9.155394E+04 -2.073015E-09  1.511015E-11
       190  11  2.117043E+05  2.857831E+04 -3.796423E+03  8.684460E+04  4.767500E-09  1.190892E-09
       190  12  1.998166E+05  2.646105E+04 -5.000296E+03  8.575977E+04  3.130461E-09  4.303878E-09
       190  13  2.323212E+05  3.838537E+04  8.296751E+02  9.473807E+04  2.022025E-09  2.657395E-09
       190  14  2.338435E+05  3.677459E+04  1.478801E+03  9.289963E+04  1.459073E-09 -1.315007E-09
       190  15  2.323405E+05  3.852412E+04  2.722052E+03  9.468575E+04  2.209188E-09 -4.002142E-09
       190  16  2.440767E+05  4.271588E+04  3.661470E+03  9.792226E+04  2.177941E-09  6.204585E-09
       190  17  2.559832E+05  4.497093E+04  6.754006E+03  9.895489E+04  1.162471E-10  8.446752E-10
       190  18  2.648655E+05  5.058727E+04  1.044433E+04  1.036121E+05 -3.771931E-11  1.559989E-09
       190  19  2.205658E+05  3.405489E+04 -2.002109E+03  9.155394E+04  1.362778E+03 -1.722090E+02
       190  20  2.117043E+05  2.857831E+04 -3.796413E+03  8.684460E+04  2.335731E+03 -5.288767E+02
       190  21  1.998166E+05  2.646106E+04 -5.000274E+03  8.575977E+04  3.306746E+03 -8.804637E+02
       190  22  2.323212E+05  3.838537E+04  8.296766E+02  9.473806E+04  7.912631E+02 -3.872125E+02
       190  23  2.338435E+05  3.677459E+04  1.478807E+03  9.289963E+04  1.768815E+03 -7.421417E+02
       190  24  2.323405E+05  3.852413E+04  2.722069E+03  9.468574E+04  2.744441E+03 -1.091986E+03
       190  25  2.440767E+05  4.271588E+04  3.661471E+03  9.792226E+04  2.197330E+02 -6.022214E+02
       190  26  2.559832E+05  4.497093E+04  6.754011E+03  9.895488E+04  1.201875E+03 -9.554155E+02
       190  27  2.648655E+05  5.058728E+04  1.044434E+04  1.036121E+05  2.182104E+03 -1.303520E+03
       191   1  1.910781E+05  2.335622E+04 -6.248207E+03  8.398046E+04 -3.990281E+03  1.057332E+03
       191   2  1.822631E+05  1.734806E+04 -5.838158E+03  7.846304E+04 -7.388243E+03  4.709862E+02
       191   3  1.717164E+05  1.733052E+04 -2.316102E+03  7.598756E+04 -1.074197E+04 -2.326653E+02
       191   4  2.325141E+05  3.827623E+04  3.583733E+03  9.487107E+04 -3.392732E+03  1.282104E+03
       191   5  2.335665E+05  3.666570E+04  6.457737E+03  9.282513E+04 -6.896459E+03  6.559450E+02
       191   6  2.329077E+05  4.106648E+04  1.252730E+04  9.382101E+04 -1.035603E+04 -8.754963E+01
       191   7  2.739516E+05  5.319626E+04  1.341549E+04  1.057623E+05 -2.795142E+03  1.506891E+03
       191   8  2.848724E+05  5.598355E+04  1.875344E+04  1.071883E+05 -6.404632E+03  8.409208E+02
       191   9  2.941031E+05  6.480291E+04  2.737052E+04  1.116562E+05 -9.970043E+03  5.758393E+01
       191  10  1.910781E+05  2.335621E+04 -6.248239E+03  8.398047E+04 -6.967329E-09 -2.629926E-10
       191  11  1.822631E+05  1.734805E+04 -5.838261E+03  7.846304E+04  3.407127E-10  6.334138E-09
       191  12  1.717162E+05  1.733049E+04 -2.316319E+03  7.598755E+04  7.864024E-09  5.356214E-09
       191  13  2.325141E+05  3.827622E+04  3.583709E+03  9.487108E+04  5.741278E-09 -3.006851E-09
       191  14  2.335664E+05  3.666569E+04  6.457647E+03  9.282514E+04  1.555985E-09  3.215605E-09
       191  15  2.329076E+05  4.106645E+04  1.252710E+04  9.382101E+04  7.660897E-10  1.492203E-09
       191  16  2.739516E+05  5.319625E+04  1.341548E+04  1.057623E+05  1.105704E-08  7.336581E-09
       191  17  2.848724E+05  5.598354E+04  1.875336E+04  1.071883E+05  5.566214E-09 -1.117938E-09
       191  18  2.941030E+05  6.480289E+04  2.737033E+04  1.116562E+05 -8.024182E-09 -3.057989E-09
       191  19  1.910781E+05  2.335622E+04 -6.248207E+03  8.398046E+04  3.990281E+03 -1.057332E+03
       191  20  1.822631E+05  1.734806E+04 -5.838158E+03  7.846304E+04  7.388243E+03 -4.709862E+02
       191  21  1.717164E+05  1.733052E+04 -2.316102E+03  7.598756E+04  1.074197E+04  2.326653E+02
       191  22  2.325141E+05  3.827623E+04  3.583733E+03  9.487107E+04  3.392732E+03 -1.282104E+03
       191  23  2.335665E+05  3.666570E+04  6.457737E+03  9.282513E+04  6.896459E+03 -6.559450E+02
       191  24  2.329077E+05  4.106648E+04  1.252730E+04  9.382101E+04  1.035603E+04  8.754963E+01
       191  25  2.739516E+05  5.319626E+04  1.341549E+04  1.057623E+05  2.795142E+03 -1.506891E+03
       191  26  2.848724E+05  5.598355E+04  1.875344E+04  1.071883E+05  6.404632E+03 -8.409208E+02
       191  27  2.941031E+05  6.480291E+04  2.737052E+04  1.116562E+05  9.970043E+03 -5.758393E+01
       192   1  1.592823E+05  1.533500E+04 -9.726160E+02  8.314277E+04 -1.376196E+04 -6.715468E+02
       192   2  1.550824E+05  2.727618E+01  8.395737E+03  6.284751E+04 -2.641751E+04 -5.450902E+03
       192   3  1.671391E+05  3.491875E+04  4.008411E+04  3.395885E+04 -3.808057E+04 -1.286876E+04
       192   4  2.349476E+05  3.644099E+04  1.584761E+04  9.670723E+04 -1.259235E+04 -2.315052E+02
       192   5  2.300932E+05  3.593148E+04  2.805612E+04  9.166736E+04 -2.762250E+04 -5.904526E+03
       192   6  2.419622E+05  8.608630E+04  6.446354E+04  7.803508E+04 -4.166014E+04 -1.421657E+04
       192   7  3.106188E+05  5.754697E+04  3.266758E+04  1.102730E+05 -1.142259E+04  2.085628E+02
       192   8  3.051092E+05  7.183695E+04  4.771586E+04  1.204905E+05 -2.882765E+04 -6.358244E+03
       192   9  3.167907E+05  1.372583E+05  8.884212E+04  1.221165E+05 -4.524011E+04 -1.556488E+04
       192  10  1.592821E+05  1.533494E+04 -9.729726E+02  8.314277E+04 -1.832014E-09  4.101039E-09
       192  11  1.550817E+05  2.705700E+01  8.394370E+03  6.284739E+04 -1.609871E-09  4.865584E-09
       192  12  1.671375E+05  3.491819E+04  4.008108E+04  3.395846E+04  3.298981E-09  4.497743E-09
       192  13  2.349474E+05  3.644095E+04  1.584731E+04  9.670723E+04  9.661812E-10  5.575874E-10
       192  14  2.300924E+05  3.593124E+04  2.805462E+04  9.166723E+04 -1.427810E-10  6.625475E-09
       192  15  2.419603E+05  8.608562E+04  6.445990E+04  7.803460E+04 -7.921024E-10  2.899495E-09
       192  16  3.106187E+05  5.754694E+04  3.266734E+04  1.102730E+05  1.555926E-09 -3.378045E-10
       192  17  3.051083E+05  7.183668E+04  4.771423E+04  1.204904E+05 -3.923815E-09  2.070014E-09
       192  18  3.167885E+05  1.372575E+05  8.883782E+04  1.221159E+05 -2.587517E-09  5.501021E-10
       192  19  1.592823E+05  1.533500E+04 -9.726160E+02  8.314277E+04  1.376196E+04  6.715468E+02
       192  20  1.550824E+05  2.727618E+01  8.395737E+03  6.284751E+04  2.641751E+04  5.450902E+03
       192  21  1.671391E+05  3.491875E+04  4.008411E+04  3.395885E+04  3.808057E+04  1.286876E+04
       192  22  2.349476E+05  3.644099E+04  1.584761E+04  9.670723E+04  1.259235E+04  2.315052E+02
       192  23  2.300932E+05  3.593148E+04  2.805612E+04  9.166736E+04  2.762250E+04  5.904526E+03
       192  24  2.419622E+05  8.608630E+04  6.446354E+04  7.803508E+04  4.166014E+04  1.421657E+04
       192  25  3.106188E+05  5.754697E+04  3.266758E+04  1.102730E+05  1.142259E+04 -2.085628E+02
       192  26  3.051092E+05  7.183695E+04  4.771586E+04  1.204905E+05  2.882765E+04  6.358244E+03
       192  27  3.167907E+05  1.372583E+05  8.884212E+04  1.221165E+05  4.524011E+04  1.556488E+04
       193   1 -3.129519E+04 -2.263964E+05 -3.242510E+04  3.790555E+04 -7.742682E+02 -7.079448E+03
       193   2 -1.009604E+04 -1.688236E+05 -1.372144E+04  2.323910E+04 -1.479476E+03 -2.348460E+03
       193   3  3.787999E+03 -1.136575E+05  7.877979E+01  3.379249E+04  8.669032E+02  2.384655E+03
       193   4 -6.801716E+03 -1.281180E+05 -8.274950E+03  3.477756E+04 -7.751479E+02 -5.208241E+03
       193   5  1.673391E+02 -1.271345E+05 -4.106839E+03  2.216941E+04 -1.479128E+03 -3.039640E+03
       193   6  2.665979E+02 -1.281162E+05 -3.061966E+03  3.478119E+04  8.684152E+02 -8.693781E+02
       193   7  1.769108E+04 -2.983068E+04  1.587451E+04  3.164908E+04 -7.760463E+02 -3.336737E+03
       193   8  1.043060E+04 -8.544387E+04  5.507646E+03  2.109964E+04 -1.478777E+03 -3.730866E+03
       193   9 -3.254808E+03 -1.425747E+05 -6.202684E+03  3.576986E+04  8.699168E+02 -4.123337E+03
       193  10 -3.129521E+04 -2.263965E+05 -3.242519E+04  3.790554E+04  1.432831E-09  1.681004E-09
       193  11 -1.009604E+04 -1.688236E+05 -1.372145E+04  2.323910E+04  3.636762E-09 -6.322023E-10
       193  12  3.787996E+03 -1.136575E+05  7.876769E+01  3.379249E+04 -7.341723E-10  2.400928E-09
       193  13 -6.801724E+03 -1.281180E+05 -8.275002E+03  3.477756E+04 -4.527594E-10 -5.122166E-10
       193  14  1.673343E+02 -1.271346E+05 -4.106860E+03  2.216940E+04  2.144507E-09 -2.260447E-10
       193  15  2.665969E+02 -1.281162E+05 -3.061969E+03  3.478119E+04  7.037237E-10 -2.375002E-09
       193  16  1.769108E+04 -2.983069E+04  1.587449E+04  3.164908E+04  3.500078E-10 -1.355591E-09
       193  17  1.043059E+04 -8.544388E+04  5.507615E+03  2.109963E+04  1.009628E-09  9.030299E-10
       193  18 -3.254813E+03 -1.425747E+05 -6.202717E+03  3.576986E+04 -1.177672E-09 -4.095570E-09
       193  19 -3.129519E+04 -2.263964E+05 -3.242510E+04  3.790555E+04  7.742682E+02  7.079448E+03
       193  20 -1.009604E+04 -1.688236E+05 -1.372144E+04  2.323910E+04  1.479476E+03  2.348460E+03
       193  21  3.787999E+03 -1.136575E+05  7.877979E+01  3.379249E+04 -8.669032E+02 -2.384655E+03
       193  22 -6.801716E+03 -1.281180E+05 -8.274950E+03  3.477756E+04  7.751479E+02  5.208241E+03
       193  23  1.673391E+02 -1.271345E+05 -4.106839E+03  2.216941E+04  1.479128E+03  3.039640E+03
       193  24  2.665979E+02 -1.281162E+05 -3.061966E+03  3.478119E+04 -8.684152E+02  8.693781E+02
       193  25  1.769108E+04 -2.983068E+04  1.587451E+04  3.164908E+04  7.760463E+02  3.336737E+03
       193  26  1.043060E+04 -8.544387E+04  5.507646E+03  2.109964E+04  1.478777E+03  3.730866E+03
       193  27 -3.254808E+03 -1.425747E+05 -6.202684E+03  3.576986E+04 -8.699168E+02  4.123337E+03
       194   1  1.500627E+04 -6.488200E+04  1.117560E+04  3.509945E+04  2.985741E+03  2.081256E+03
       194   2  2.921927E+04 -8.303186E+03  2.362996E+04  2.204846E+04  5.773628E+03  3.378398E+03
       194   3  4.203301E+04  4.780265E+04  3.489907E+04  3.432282E+04  8.292035E+03  4.675957E+03
       194   4 -3.965893E+02 -1.277950E+05 -2.920885E+03  3.480372E+04  2.986919E+03 -3.741469E+02
       194   5  3.973925E+01 -1.275393E+05 -3.022823E+03  2.214071E+04  5.774877E+03  1.149035E+03
       194   6 -9.624009E+02 -1.277989E+05 -4.467043E+03  3.480341E+04  8.293323E+03  2.672520E+03
       194   7 -1.579971E+04 -1.907043E+05 -1.701760E+04  3.450801E+04  2.988098E+03 -2.829303E+03
       194   8 -2.914076E+04 -2.467621E+05 -2.967648E+04  2.223295E+04  5.776126E+03 -1.079904E+03
       194   9 -4.395992E+04 -3.033717E+05 -4.383510E+04  3.528386E+04  8.294607E+03  6.696442E+02
       194  10  1.500626E+04 -6.488201E+04  1.117557E+04  3.509945E+04 -3.549554E-09  1.358128E-08
       194  11  2.921923E+04 -8.303208E+03  2.362988E+04  2.204844E+04 -4.605141E-10 -9.030980E-11
       194  12  4.203293E+04  4.780261E+04  3.489890E+04  3.432279E+04 -3.168758E-09 -8.094342E-09
       194  13 -3.965989E+02 -1.277950E+05 -2.920902E+03  3.480372E+04 -1.324078E-09  1.077884E-09
       194  14  3.970309E+01 -1.275393E+05 -3.022889E+03  2.214071E+04 -1.340192E-09  6.600984E-10
       194  15 -9.624767E+02 -1.277989E+05 -4.467186E+03  3.480339E+04 -2.173035E-10 -2.397285E-09
       194  16 -1.579973E+04 -1.907043E+05 -1.701763E+04  3.450801E+04 -2.421048E-10 -1.246726E-08
       194  17 -2.914079E+04 -2.467621E+05 -2.967655E+04  2.223296E+04 -2.843593E-09 -1.113479E-09
       194  18 -4.395999E+04 -3.033717E+05 -4.383523E+04  3.528386E+04  1.012414E-09  5.768112E-09
       194  19  1.500627E+04 -6.488200E+04  1.117560E+04  3.509945E+04 -2.985741E+03 -2.081256E+03
       194  20  2.921927E+04 -8.303186E+03  2.362996E+04  2.204846E+04 -5.773628E+03 -3.378398E+03
       194  21  4.203301E+04  4.780265E+04  3.489907E+04  3.432282E+04 -8.292035E+03 -4.675957E+03
       194  22 -3.965893E+02 -1.277950E+05 -2.920885E+03  3.480372E+04 -2.986919E+03  3.741469E+02
       194  23  3.973925E+01 -1.275393E+05 -3.022823E+03  2.214071E+04 -5.774877E+03 -1.149035E+03
       194  24 -9.624009E+02 -1.277989E+05 -4.467043E+03  3.480341E+04 -8.293323E+03 -2.672520E+03
       194  25 -1.579971E+04 -1.907043E+05 -1.701760E+04  3.450801E+04 -2.988098E+03  2.829303E+03
       194  26 -2.914076E+04 -2.467621E+05 -2.967648E+04  2.223295E+04 -5.776126E+03  1.079904E+03
       194  27 -4.395992E+04 -3.033717E+05 -4.383510E+04  3.528386E+04 -8.294607E+03 -6.696442E+02
       195   1  5.556026E+04  9.550344E+04  4.470029E+04  3.685257E+04  1.097448E+04  8.140124E+03
       195   2  6.902718E+04  1.533985E+05  5.484379E+04  1.974540E+04  1.201972E+04  5.085442E+03
       195   3  6.845708E+04  2.082649E+05  6.348314E+04  2.757473E+04  4.023942E+03  2.023261E+03
       195   4  7.242255E+02 -1.286557E+05 -5.335164E+03  3.472062E+04  1.097754E+04  3.464560E+03
       195   5  3.689816E+02 -1.264849E+05 -8.550983E+03  2.224584E+04  1.201805E+04  8.004483E+03
       195   6 -1.534500E+04 -1.286655E+05 -1.854625E+04  3.470854E+04  4.015671E+03  1.253702E+04
       195   7 -5.411519E+04 -3.527679E+05 -5.537369E+04  3.258944E+04  1.098063E+04 -1.209334E+03
       195   8 -6.829459E+04 -4.062955E+05 -7.195077E+04  2.474516E+04  1.201640E+04  1.092222E+04
       195   9 -9.915519E+04 -4.654920E+05 -1.005834E+05  4.183849E+04  4.007638E+03  2.304510E+04
       195  10  5.556011E+04  9.550333E+04  4.469994E+04  3.685250E+04 -1.777978E-09  4.791022E-09
       195  11  6.902702E+04  1.533985E+05  5.484347E+04  1.974535E+04  2.788044E-09 -3.072166E-09
       195  12  6.845706E+04  2.082649E+05  6.348310E+04  2.757472E+04  1.588163E-09 -3.399440E-09
       195  13  7.240929E+02 -1.286557E+05 -5.335413E+03  3.472059E+04  8.576507E-10  5.158831E-10
       195  14  3.688093E+02 -1.264850E+05 -8.551374E+03  2.224576E+04  3.633809E-09  8.466546E-10
       195  15 -1.534506E+04 -1.286657E+05 -1.854658E+04  3.470850E+04  2.563277E-10 -2.232034E-09
       195  16 -5.411532E+04 -3.527679E+05 -5.537391E+04  3.258945E+04  2.528725E-09 -2.437745E-09
       195  17 -6.829478E+04 -4.062957E+05 -7.195127E+04  2.474505E+04  5.810813E-10  9.667451E-10
       195  18 -9.915535E+04 -4.654926E+05 -1.005845E+05  4.183841E+04  1.000983E-09 -1.103837E-10
       195  19  5.556026E+04  9.550344E+04  4.470029E+04  3.685257E+04 -1.097448E+04 -8.140124E+03
       195  20  6.902718E+04  1.533985E+05  5.484379E+04  1.974540E+04 -1.201972E+04 -5.085442E+03
       195  21  6.845708E+04  2.082649E+05  6.348314E+04  2.757473E+04 -4.023942E+03 -2.023261E+03
       195  22  7.242255E+02 -1.286557E+05 -5.335164E+03  3.472062E+04 -1.097754E+04 -3.464560E+03
       195  23  3.689816E+02 -1.264849E+05 -8.550983E+03  2.224584E+04 -1.201805E+04 -8.004483E+03
       195  24 -1.534500E+04 -1.286655E+05 -1.854625E+04  3.470854E+04 -4.015671E+03 -1.253702E+04
       195  25 -5.411519E+04 -3.527679E+05 -5.537369E+04  3.258944E+04 -1.098063E+04  1.209334E+03
       195  26 -6.829459E+04 -4.062955E+05 -7.195077E+04  2.474516E+04 -1.201640E+04 -1.092222E+04
       195  27 -9.915519E+04 -4.654920E+05 -1.005834E+05  4.183849E+04 -4.007638E+03 -2.304510E+04
       196   1  9.152798E+04  6.360113E+04  5.753778E+04  1.477287E+04  1.073545E+04 -4.629498E+03
       196   2  6.596978E+04  6.862291E+04  4.928615E+04  1.829303E+04  2.537779E+03 -1.545929E+04
       196   3  3.937996E+04  6.522688E+04  4.427096E+04  2.718503E+04 -5.662385E+03 -1.839050E+04
       196   4 -2.397158E+05 -1.818975E+04 -2.020822E+04  2.600967E+04 -1.408560E+04 -4.640789E+03
       196   5 -2.380432E+05 -3.998550E+03 -9.812634E+03  2.331898E+04 -9.012554E+03 -1.546578E+04
       196   6 -2.397087E+05 -5.318407E+02 -5.397920E+03  2.600038E+04 -3.942494E+03 -1.839024E+04
       196   7 -5.708569E+05 -9.998764E+04 -9.795935E+04  3.724043E+04 -3.889350E+04 -4.652983E+03
       196   8 -5.419672E+05 -7.662537E+04 -6.891527E+04  2.834241E+04 -2.055736E+04 -1.547245E+04
       196   9 -5.187213E+05 -6.629486E+04 -5.506972E+04  2.481627E+04 -2.223353E+03 -1.838998E+04
       196  10  9.152785E+04  6.360108E+04  5.753752E+04  1.477291E+04  2.317943E-11 -6.813797E-11
       196  11  6.596971E+04  6.862265E+04  4.928569E+04  1.829306E+04 -1.089011E-10 -6.522724E-10
       196  12  3.937983E+04  6.522651E+04  4.427026E+04  2.718495E+04 -1.775947E-09 -1.363616E-10
       196  13 -2.397160E+05 -1.818983E+04 -2.020864E+04  2.600962E+04  1.218158E-09  1.778900E-10
       196  14 -2.380434E+05 -3.998829E+03 -9.813236E+03  2.331887E+04 -2.517501E-10 -6.357761E-10
       196  15 -2.397088E+05 -5.322080E+02 -5.398585E+03  2.600032E+04  2.541795E-09  8.963359E-10
       196  16 -5.708585E+05 -9.998807E+04 -9.796224E+04  3.724028E+04 -1.848912E-09 -3.336922E-10
       196  17 -5.419677E+05 -7.662574E+04 -6.891652E+04  2.834215E+04  4.569455E-10 -2.021477E-09
       196  18 -5.187214E+05 -6.629522E+04 -5.507036E+04  2.481624E+04  8.176762E-10 -6.614968E-10
       196  19  9.152798E+04  6.360113E+04  5.753778E+04  1.477287E+04 -1.073545E+04  4.629498E+03
       196  20  6.596978E+04  6.862291E+04  4.928615E+04  1.829303E+04 -2.537779E+03  1.545929E+04
       196  21  3.937996E+04  6.522688E+04  4.427096E+04  2.718503E+04  5.662385E+03  1.839050E+04
       196  22 -2.397158E+05 -1.818975E+04 -2.020822E+04  2.600967E+04  1.408560E+04  4.640789E+03
       196  23 -2.380432E+05 -3.998550E+03 -9.812634E+03  2.331898E+04  9.012554E+03  1.546578E+04
       196  24 -2.397087E+05 -5.318407E+02 -5.397920E+03  2.600038E+04  3.942494E+03  1.839024E+04
       196  25 -5.708569E+05 -9.998764E+04 -9.795935E+04  3.724043E+04  3.889350E+04  4.652983E+03
       196  26 -5.419672E+05 -7.662537E+04 -6.891527E+04  2.834241E+04  2.055736E+04  1.547245E+04
       196  27 -5.187213E+05 -6.629486E+04 -5.506972E+04  2.481627E+04  2.223353E+03  1.838998E+04
       197   1  2.269704E+04  6.077400E+04  4.203117E+04  2.590550E+04 -4.059692E+03 -1.764541E+04
       197   2 -3.299012E+03  5.512266E+04  3.826143E+04  2.318789E+04 -4.111710E+03 -1.680651E+04
       197   3 -2.937860E+04  4.911988E+04  3.443720E+04  2.636106E+04 -4.164394E+03 -1.526435E+04
       197   4 -2.390295E+05 -8.052454E+02 -4.110991E+03  2.611689E+04 -3.240002E+03 -1.764558E+04
       197   5 -2.388829E+05 -1.049983E+02 -2.263029E+03  2.317115E+04 -2.110896E+03 -1.680581E+04
       197   6 -2.390253E+05  3.874104E+01 -1.289969E+03  2.611633E+04 -9.824392E+02 -1.526264E+04
       197   7 -5.006891E+05 -6.238825E+04 -5.025565E+04  2.632818E+04 -2.420647E+03 -1.764575E+04
       197   8 -4.744123E+05 -5.533563E+04 -4.278936E+04  2.315440E+04 -1.108171E+02 -1.680511E+04
       197   9 -4.486287E+05 -4.904472E+04 -3.701855E+04  2.587168E+04  2.198476E+03 -1.526094E+04
       197  10  2.269694E+04  6.077366E+04  4.203055E+04  2.590544E+04 -1.891442E-10 -2.611795E-10
       197  11 -3.299106E+03  5.512235E+04  3.826087E+04  2.318783E+04 -1.140333E-09  1.060131E-09
       197  12 -2.937868E+04  4.911962E+04  3.443673E+04  2.636101E+04  1.379988E-10  7.821914E-10
       197  13 -2.390296E+05 -8.055825E+02 -4.111596E+03  2.611684E+04  3.077137E-10  1.219263E-10
       197  14 -2.388830E+05 -1.053028E+02 -2.263568E+03  2.317112E+04  2.175439E-10  4.327195E-10
       197  15 -2.390253E+05  3.849066E+01 -1.290408E+03  2.611632E+04 -2.146190E-11 -9.013917E-10
       197  16 -5.006892E+05 -6.238858E+04 -5.025625E+04  2.632814E+04 -1.198220E-09  1.167294E-09
       197  17 -4.744124E+05 -5.533593E+04 -4.278989E+04  2.315440E+04  1.218622E-09  7.195659E-10
       197  18 -4.486288E+05 -4.904498E+04 -3.701900E+04  2.587171E+04 -7.534151E-10 -1.820568E-12
       197  19  2.269704E+04  6.077400E+04  4.203117E+04  2.590550E+04  4.059692E+03  1.764541E+04
       197  20 -3.299012E+03  5.512266E+04  3.826143E+04  2.318789E+04  4.111710E+03  1.680651E+04
       197  21 -2.937860E+04  4.911988E+04  3.443720E+04  2.636106E+04  4.164394E+03  1.526435E+04
       197  22 -2.390295E+05 -8.052454E+02 -4.110991E+03  2.611689E+04  3.240002E+03  1.764558E+04
       197  23 -2.388829E+05 -1.049983E+02 -2.263029E+03  2.317115E+04  2.110896E+03  1.680581E+04
       197  24 -2.390253E+05  3.874104E+01 -1.289969E+03  2.611633E+04  9.824392E+02  1.526264E+04
       197  25 -5.006891E+05 -6.238825E+04 -5.025565E+04  2.632818E+04  2.420647E+03  1.764575E+04
       197  26 -4.744123E+05 -5.533563E+04 -4.278936E+04  2.315440E+04  1.108171E+02  1.680511E+04
       197  27 -4.486287E+05 -4.904472E+04 -3.701855E+04  2.587168E+04 -2.198476E+03  1.526094E+04
       198   1 -4.634500E+04  4.508983E+04  3.171153E+04  2.627923E+04 -3.887340E+03 -1.414856E+04
       198   2 -7.238528E+04  3.900728E+04  2.766848E+04  2.328673E+04 -3.716415E+03 -1.227019E+04
       198   3 -9.845492E+04  3.292280E+04  2.351165E+04  2.623472E+04 -3.545774E+03 -1.032883E+04
       198   4 -2.389705E+05  2.020366E+01 -9.804473E+02  2.612745E+04 -7.847560E+02 -1.414677E+04
       198   5 -2.389448E+05  4.362874E+01 -5.610900E+02  2.315715E+04 -5.081545E+02 -1.226814E+04
       198   6 -2.389676E+05  4.678149E+01 -3.289624E+02  2.612743E+04 -2.318294E+02 -1.032650E+04
       198   7 -4.315594E+05 -4.505138E+04 -3.367360E+04  2.597571E+04  2.316896E+03 -1.414499E+04
       198   8 -4.054770E+05 -3.892149E+04 -2.879151E+04  2.302759E+04  2.699273E+03 -1.226609E+04
       198   9 -3.794608E+05 -3.283028E+04 -2.417018E+04  2.602015E+04  3.081389E+03 -1.032418E+04
       198  10 -4.634507E+04  4.508961E+04  3.171113E+04  2.627918E+04 -2.558548E-10  8.814961E-10
       198  11 -7.238533E+04  3.900712E+04  2.766817E+04  2.328670E+04  1.812090E-09  4.885407E-10
       198  12 -9.845496E+04  3.292268E+04  2.351143E+04  2.623469E+04  1.883812E-09 -1.301204E-09
       198  13 -2.389705E+05  1.998861E+01 -9.808245E+02  2.612744E+04  1.598852E-09 -1.194806E-09
       198  14 -2.389449E+05  4.346707E+01 -5.613733E+02  2.315714E+04 -1.445019E-09  6.842602E-10
       198  15 -2.389676E+05  4.666698E+01 -3.291628E+02  2.612742E+04  1.664158E-09  3.175851E-10
       198  16 -4.315595E+05 -4.505160E+04 -3.367398E+04  2.597573E+04  1.139533E-09  4.188307E-10
       198  17 -4.054771E+05 -3.892165E+04 -2.879181E+04  2.302762E+04 -1.218212E-09  1.090743E-09
       198  18 -3.794608E+05 -3.283039E+04 -2.417040E+04  2.602017E+04 -1.814508E-09 -7.663724E-10
       198  19 -4.634500E+04  4.508983E+04  3.171153E+04  2.627923E+04  3.887340E+03  1.414856E+04
       198  20 -7.238528E+04  3.900728E+04  2.766848E+04  2.328673E+04  3.716415E+03  1.227019E+04
       198  21 -9.845492E+04  3.292280E+04  2.351165E+04  2.623472E+04  3.545774E+03  1.032883E+04
       198  22 -2.389705E+05  2.020366E+01 -9.804473E+02  2.612745E+04  7.847560E+02  1.414677E+04
       198  23 -2.389448E+05  4.362874E+01 -5.610900E+02  2.315715E+04  5.081545E+02  1.226814E+04
       198  24 -2.389676E+05  4.678149E+01 -3.289624E+02  2.612743E+04  2.318294E+02  1.032650E+04
       198  25 -4.315594E+05 -4.505138E+04 -3.367360E+04  2.597571E+04 -2.316896E+03  1.414499E+04
       198  26 -4.054770E+05 -3.892149E+04 -2.879151E+04  2.302759E+04 -2.699273E+03  1.226609E+04
       198  27 -3.794608E+05 -3.283028E+04 -2.417018E+04  2.602015E+04 -3.081389E+03  1.032418E+04
       199   1 -1.154483E+05  2.892227E+04  2.059158E+04  2.621951E+04 -3.487204E+03 -9.179359E+03
       199   2 -1.415092E+05  2.283111E+04  1.632220E+04  2.322367E+04 -3.417400E+03 -7.207605E+03
       199   3 -1.675860E+05  1.674943E+04  1.200695E+04  2.617541E+04 -3.347743E+03 -5.230283E+03
       199   4 -2.389601E+05  4.552181E+01 -2.555649E+02  2.612900E+04 -1.798185E+02 -9.176947E+03
       199   5 -2.389499E+05  4.172141E+01 -1.628787E+02  2.315519E+04 -1.007667E+02 -7.205071E+03
       199   6 -2.389584E+05  4.572902E+01 -1.226301E+02  2.612900E+04 -2.185987E+01 -5.227626E+03
       199   7 -3.624568E+05 -2.883203E+04 -2.110316E+04  2.603850E+04  3.126930E+03 -9.174535E+03
       199   8 -3.363813E+05 -2.274816E+04 -1.664822E+04  2.308671E+04  3.215362E+03 -7.202537E+03
       199   9 -3.103257E+05 -1.665824E+04 -1.225234E+04  2.608259E+04  3.303653E+03 -5.224969E+03
       199  10 -1.154483E+05  2.892218E+04  2.059140E+04  2.621948E+04 -1.143526E-10 -1.026372E-09
       199  11 -1.415092E+05  2.283105E+04  1.632208E+04  2.322365E+04  4.877234E-10  1.780496E-09
       199  12 -1.675860E+05  1.674940E+04  1.200688E+04  2.617539E+04 -2.119896E-10  2.103104E-09
       199  13 -2.389601E+05  4.543138E+01 -2.557232E+02  2.612900E+04  1.477617E-09 -1.159940E-09
       199  14 -2.389499E+05  4.166567E+01 -1.629763E+02  2.315519E+04  1.040486E-09  1.653753E-09
       199  15 -2.389584E+05  4.569968E+01 -1.226814E+02  2.612900E+04 -2.149218E-10  1.261591E-09
       199  16 -3.624568E+05 -2.883212E+04 -2.110334E+04  2.603852E+04 -7.026432E-11 -1.015044E-09
       199  17 -3.363813E+05 -2.274822E+04 -1.664834E+04  2.308673E+04 -9.476741E-10 -2.451807E-10
       199  18 -3.103257E+05 -1.665827E+04 -1.225241E+04  2.608261E+04  3.242970E-10  1.510712E-09
       199  19 -1.154483E+05  2.892227E+04  2.059158E+04  2.621951E+04  3.487204E+03  9.179359E+03
       199  20 -1.415092E+05  2.283111E+04  1.632220E+04  2.322367E+04  3.417400E+03  7.207605E+03
       199  21 -1.675860E+05  1.674943E+04  1.200695E+04  2.617541E+04  3.347743E+03  5.230283E+03
       199  22 -2.389601E+05  4.552181E+01 -2.555649E+02  2.612900E+04  1.798185E+02  9.176947E+03
       199  23 -2.389499E+05  4.172141E+01 -1.628787E+02  2.315519E+04  1.007667E+02  7.205071E+03
       199  24 -2.389584E+05  4.572902E+01 -1.226301E+02  2.612900E+04  2.185987E+01  5.227626E+03
       199  25 -3.624568E+05 -2.883203E+04 -2.110316E+04  2.603850E+04 -3.126930E+03  9.174535E+03
       199  26 -3.363813E+05 -2.274816E+04 -1.664822E+04  2.308671E+04 -3.215362E+03  7.202537E+03
       199  27 -3.103257E+05 -1.665824E+04 -1.225234E+04  2.608259E+04 -3.303653E+03  5.224969E+03
       200   1 -1.845906E+05  1.274989E+04  9.020910E+03  2.616349E+04 -3.326821E+03 -4.077510E+03
       200   2 -2.106563E+05  6.659910E+03  4.648092E+03  2.316587E+04 -3.257123E+03 -2.098762E+03
       200   3 -2.367406E+05  5.772647E+02  2.283293E+02  2.611831E+04 -3.187465E+03 -1.229427E+02
       200   4 -2.389578E+05  4.615084E+01 -1.173998E+02  2.612954E+04 -9.461617E-01 -4.074809E+03
       200   5 -2.389486E+05  4.354578E+01 -1.342210E+02  2.315450E+04  6.378821E+01 -2.096032E+03
       200   6 -2.389573E+05  4.926938E+01 -1.944490E+02  2.612954E+04  1.284852E+02 -1.201826E+02
       200   7 -2.933221E+05 -1.265774E+04 -9.255761E+03  2.609559E+04  3.324647E+03 -4.072107E+03
       200   8 -2.672401E+05 -6.572854E+03 -4.916518E+03  2.314314E+04  3.384553E+03 -2.093301E+03
       200   9 -2.411740E+05 -4.787203E+02 -6.171861E+02  2.614077E+04  3.444424E+03 -1.174224E+02
       200  10 -1.845906E+05  1.274987E+04  9.020858E+03  2.616348E+04  4.430596E-09  8.951910E-10
       200  11 -2.106563E+05  6.659902E+03  4.648064E+03  2.316587E+04  1.814852E-09  4.284344E-11
       200  12 -2.367406E+05  5.772620E+02  2.283102E+02  2.611831E+04 -6.915045E-10 -5.073378E-10
       200  13 -2.389578E+05  4.613301E+01 -1.174310E+02  2.612954E+04  2.572921E-10  3.183881E-09
       200  14 -2.389486E+05  4.354106E+01 -1.342292E+02  2.315450E+04  3.030903E-11  6.871807E-10
       200  15 -2.389573E+05  4.926936E+01 -1.944490E+02  2.612954E+04  1.892736E-10 -5.721265E-10
       200  16 -2.933221E+05 -1.265776E+04 -9.255813E+03  2.609561E+04 -4.706265E-09  2.379867E-09
       200  17 -2.672401E+05 -6.572862E+03 -4.916548E+03  2.314314E+04 -2.707820E-09 -4.642610E-11
       200  18 -2.411741E+05 -4.787235E+02 -6.172084E+02  2.614077E+04 -1.790551E-11 -3.767065E-11
       200  19 -1.845906E+05  1.274989E+04  9.020910E+03  2.616349E+04  3.326821E+03  4.077510E+03
       200  20 -2.106563E+05  6.659910E+03  4.648092E+03  2.316587E+04  3.257123E+03  2.098762E+03
       200  21 -2.367406E+05  5.772647E+02  2.283293E+02  2.611831E+04  3.187465E+03  1.229427E+02
       200  22 -2.389578E+05  4.615084E+01 -1.173998E+02  2.612954E+04  9.461617E-01  4.074809E+03
       200  23 -2.389486E+05  4.354578E+01 -1.342210E+02  2.315450E+04 -6.378821E+01  2.096032E+03
       200  24 -2.389573E+05  4.926938E+01 -1.944490E+02  2.612954E+04 -1.284852E+02  1.201826E+02
       200  25 -2.933221E+05 -1.265774E+04 -9.255761E+03  2.609559E+04 -3.324647E+03  4.072107E+03
       200  26 -2.672401E+05 -6.572854E+03 -4.916518E+03  2.314314E+04 -3.384553E+03  2.093301E+03
       200  27 -2.411740E+05 -4.787203E+02 -6.171861E+02  2.614077E+04 -3.444424E+03  1.174224E+02
       201   1 -2.537529E+05 -3.422235E+03 -2.816369E+03  2.610090E+04 -3.153010E+03  1.028445E+03
       201   2 -2.798007E+05 -9.515240E+03 -7.359481E+03  2.310255E+04 -2.885184E+03  2.985957E+03
       201   3 -3.059000E+05 -1.563159E+04 -1.208614E+04  2.605153E+04 -2.617282E+03  4.904008E+03
       201   4 -2.389624E+05  5.091917E+01 -2.454515E+02  2.612892E+04  1.672990E+02  1.031204E+03
       201   5 -2.389425E+05  4.873081E+01 -4.103732E+02  2.315528E+04  3.687998E+02  2.988613E+03
       201   6 -2.389632E+05  3.474321E+01 -7.127831E+02  2.612894E+04  5.703882E+02  4.906563E+03
       201   7 -2.241717E+05  3.524068E+03  2.325499E+03  2.615694E+04  3.487685E+03  1.033963E+03
       201   8 -1.980826E+05  9.612619E+03  6.538720E+03  2.320800E+04  3.622991E+03  2.991270E+03
       201   9 -1.720219E+05  1.570085E+04  1.066047E+04  2.620634E+04  3.758391E+03  4.909119E+03
       201  10 -2.537529E+05 -3.422239E+03 -2.816389E+03  2.610090E+04  2.616076E-09  4.475251E-10
       201  11 -2.798007E+05 -9.515252E+03 -7.359514E+03  2.310256E+04 -3.584242E-10 -6.152360E-10
       201  12 -3.059000E+05 -1.563162E+04 -1.208620E+04  2.605154E+04 -2.515135E-09 -7.609646E-10
       201  13 -2.389624E+05  5.091803E+01 -2.454536E+02  2.612892E+04  4.410033E-10 -3.324321E-10
       201  14 -2.389425E+05  4.872119E+01 -4.103902E+02  2.315528E+04  1.188733E-10 -8.352278E-10
       201  15 -2.389632E+05  3.471727E+01 -7.128290E+02  2.612893E+04  2.574661E-09 -1.644285E-10
       201  16 -2.241717E+05  3.524063E+03  2.325474E+03  2.615694E+04 -2.442305E-09  6.698761E-10
       201  17 -1.980826E+05  9.612606E+03  6.538679E+03  2.320799E+04  8.347274E-10 -3.445702E-09
       201  18 -1.720219E+05  1.570082E+04  1.066040E+04  2.620633E+04  5.709114E-10 -6.625132E-10
       201  19 -2.537529E+05 -3.422235E+03 -2.816369E+03  2.610090E+04  3.153010E+03 -1.028445E+03
       201  20 -2.798007E+05 -9.515240E+03 -7.359481E+03  2.310255E+04  2.885184E+03 -2.985957E+03
       201  21 -3.059000E+05 -1.563159E+04 -1.208614E+04  2.605153E+04  2.617282E+03 -4.904008E+03
       201  22 -2.389624E+05  5.091917E+01 -2.454515E+02  2.612892E+04 -1.672990E+02 -1.031204E+03
       201  23 -2.389425E+05  4.873081E+01 -4.103732E+02  2.315528E+04 -3.687998E+02 -2.988613E+03
       201  24 -2.389632E+05  3.474321E+01 -7.127831E+02  2.612894E+04 -5.703882E+02 -4.906563E+03
       201  25 -2.241717E+05  3.524068E+03  2.325499E+03  2.615694E+04 -3.487685E+03 -1.033963E+03
       201  26 -1.980826E+05  9.612619E+03  6.538720E+03  2.320800E+04 -3.622991E+03 -2.991270E+03
       201  27 -1.720219E+05  1.570085E+04  1.066047E+04  2.620634E+04 -3.758391E+03 -4.909119E+03
       202   1 -3.229624E+05 -1.962767E+04 -1.533088E+04  2.597154E+04 -2.524235E+03  6.034551E+03
       202   2 -3.488573E+05 -2.586164E+04 -2.067163E+04  2.316803E+04 -9.628002E+02  7.742276E+03
       202   3 -3.750967E+05 -3.262531E+04 -2.716444E+04  2.628184E+04  5.990028E+02  9.006910E+03
       202   4 -2.390027E+05  4.879208E+01 -9.366393E+02  2.612218E+04  7.135748E+02  6.037095E+03
       202   5 -2.388955E+05 -5.576043E+01 -1.640813E+03  2.316380E+04  1.531006E+03  7.744114E+03
       202   6 -2.390048E+05 -5.607980E+02 -2.980215E+03  2.612266E+04  2.348879E+03  9.008080E+03
       202   7 -1.550360E+05  1.972489E+04  1.345741E+04  2.627284E+04  3.951809E+03  6.039641E+03
       202   8 -1.289219E+05  2.574948E+04  1.738960E+04  2.315956E+04  4.025240E+03  7.745951E+03
       202   9 -1.028947E+05  3.150269E+04  2.120333E+04  2.596345E+04  4.099127E+03  9.009250E+03
       202  10 -3.229625E+05 -1.962771E+04 -1.533096E+04  2.597155E+04  1.013662E-08  1.138682E-09
       202  11 -3.488573E+05 -2.586171E+04 -2.067174E+04  2.316804E+04 -1.914904E-09  1.578828E-11
       202  12 -3.750967E+05 -3.262539E+04 -2.716459E+04  2.628183E+04 -1.378386E-08 -1.204406E-09
       202  13 -2.390027E+05  4.875281E+01 -9.367087E+02  2.612218E+04  4.041488E-10  1.913528E-09
       202  14 -2.388956E+05 -5.582545E+01 -1.640930E+03  2.316379E+04 -3.966811E-10  4.898626E-09
       202  15 -2.390048E+05 -5.608866E+02 -2.980377E+03  2.612265E+04 -1.019354E-09  5.468003E-09
       202  16 -1.550360E+05  1.972484E+04  1.345731E+04  2.627283E+04 -9.876706E-09  6.993795E-10
       202  17 -1.289220E+05  2.574941E+04  1.738946E+04  2.315954E+04  2.366403E-09 -1.841267E-09
       202  18 -1.028947E+05  3.150260E+04  2.120314E+04  2.596342E+04  1.230885E-08 -4.880731E-09
       202  19 -3.229624E+05 -1.962767E+04 -1.533088E+04  2.597154E+04  2.524235E+03 -6.034551E+03
       202  20 -3.488573E+05 -2.586164E+04 -2.067163E+04  2.316803E+04  9.628002E+02 -7.742276E+03
       202  21 -3.750967E+05 -3.262531E+04 -2.716444E+04  2.628184E+04 -5.990028E+02 -9.006910E+03
       202  22 -2.390027E+05  4.879208E+01 -9.366393E+02  2.612218E+04 -7.135748E+02 -6.037095E+03
       202  23 -2.388955E+05 -5.576043E+01 -1.640813E+03  2.316380E+04 -1.531006E+03 -7.744114E+03
       202  24 -2.390048E+05 -5.607980E+02 -2.980215E+03  2.612266E+04 -2.348879E+03 -9.008080E+03
       202  25 -1.550360E+05  1.972489E+04  1.345741E+04  2.627284E+04 -3.951809E+03 -6.039641E+03
       202  26 -1.289219E+05  2.574948E+04  1.738960E+04  2.315956E+04 -4.025240E+03 -7.745951E+03
       202  27 -1.028947E+05  3.150269E+04  2.120333E+04  2.596345E+04 -4.099127E+03 -9.009250E+03
       203   1 -3.928275E+05 -3.654394E+04 -3.142847E+04  2.518967E+04  5.408282E+02  9.903486E+03
       203   2 -4.169826E+05 -4.563786E+04 -4.218415E+04  2.688814E+04  1.257325E+04  8.802740E+03
       203   3 -4.450183E+05 -6.395865E+04 -6.308427E+04  3.417935E+04  2.460835E+04  2.723589E+03
       203   4 -2.394971E+05 -3.621208E+02 -3.912982E+03  2.604931E+04  2.857731E+03  9.905017E+03
       203   5 -2.382853E+05 -2.876797E+03 -7.112300E+03  2.325750E+04  6.531633E+03  8.798122E+03
       203   6 -2.395016E+05 -1.316511E+04 -1.464821E+04  2.605852E+04  1.020870E+04  2.713303E+03
       203   7 -8.614371E+04  3.581840E+04  2.360162E+04  2.690916E+04  5.175190E+03  9.906554E+03
       203   8 -5.955727E+04  3.988241E+04  2.795815E+04  1.962579E+04  4.883169E+02  8.793575E+03
       203   9 -3.394532E+04  3.762577E+04  3.378575E+04  1.793497E+04 -4.195683E+03  2.703396E+03
       203  10 -3.928275E+05 -3.654405E+04 -3.142865E+04  2.518966E+04  1.581221E-08 -2.284239E-09
       203  11 -4.169828E+05 -4.563799E+04 -4.218459E+04  2.688805E+04  3.088739E-09 -1.541537E-09
       203  12 -4.450190E+05 -6.395882E+04 -6.308543E+04  3.417930E+04 -9.198037E-09 -5.799718E-10
       203  13 -2.394971E+05 -3.622283E+02 -3.913181E+03  2.604929E+04  3.427193E-09  7.193745E-09
       203  14 -2.382854E+05 -2.876892E+03 -7.112526E+03  2.325746E+04 -1.805512E-09  2.049013E-09
       203  15 -2.395017E+05 -1.316515E+04 -1.464842E+04  2.605849E+04 -1.456460E-09  1.244625E-09
       203  16 -8.614377E+04  3.581828E+04  2.360139E+04  2.690912E+04 -1.510622E-08 -2.592353E-09
       203  17 -5.955729E+04  3.988233E+04  2.795800E+04  1.962579E+04 -2.407658E-09 -6.442923E-10
       203  18 -3.394534E+04  3.762575E+04  3.378570E+04  1.793498E+04  9.604466E-09 -5.237018E-13
       203  19 -3.928275E+05 -3.654394E+04 -3.142847E+04  2.518967E+04 -5.408282E+02 -9.903486E+03
       203  20 -4.169826E+05 -4.563786E+04 -4.218415E+04  2.688814E+04 -1.257325E+04 -8.802740E+03
       203  21 -4.450183E+05 -6.395865E+04 -6.308427E+04  3.417935E+04 -2.460835E+04 -2.723589E+03
       203  22 -2.394971E+05 -3.621208E+02 -3.912982E+03  2.604931E+04 -2.857731E+03 -9.905017E+03
       203  23 -2.382853E+05 -2.876797E+03 -7.112300E+03  2.325750E+04 -6.531633E+03 -8.798122E+03
       203  24 -2.395016E+05 -1.316511E+04 -1.464821E+04  2.605852E+04 -1.020870E+04 -2.713303E+03
       203  25 -8.614371E+04  3.581840E+04  2.360162E+04  2.690916E+04 -5.175190E+03 -9.906554E+03
       203  26 -5.955727E+04  3.988241E+04  2.795815E+04  1.962579E+04 -4.883169E+02 -8.793575E+03
       203  27 -3.394532E+04  3.762577E+04  3.378575E+04  1.793497E+04  4.195683E+03 -2.703396E+03
       204   1 -3.542360E+04  4.140174E+04  3.613445E+04  3.075190E+03 -5.604648E+03 -3.253518E+03
       204   2 -5.216341E+04  5.423557E+04  3.906488E+04  5.458288E+03 -6.262702E+03 -1.032367E+04
       204   3 -7.289414E+04  5.074638E+04  3.834726E+04  1.491115E+04 -6.924922E+03 -1.104388E+04
       204   4 -2.778035E+05 -1.878206E+04 -2.243643E+04  1.215017E+04 -1.543499E+04 -3.260335E+03
       204   5 -2.752754E+05 -2.562614E+02 -1.027238E+04  8.607973E+03 -9.998819E+03 -1.032676E+04
       204   6 -2.777985E+05  8.849537E+02 -5.990864E+03  1.213578E+04 -4.566773E+03 -1.104219E+04
       204   7 -5.201294E+05 -7.896980E+04 -8.101113E+04  2.122159E+04 -2.526151E+04 -3.267441E+03
       204   8 -4.983407E+05 -5.475140E+04 -5.961266E+04  1.175650E+04 -1.373361E+04 -1.032988E+04
       204   9 -4.826633E+05 -4.897922E+04 -5.033146E+04  9.361322E+03 -2.209391E+03 -1.104052E+04
       204  10 -3.542364E+04  4.140172E+04  3.613438E+04  3.075175E+03 -1.404636E-08  2.546073E-09
       204  11 -5.216348E+04  5.423544E+04  3.906461E+04  5.458236E+03 -1.283607E-08  8.934239E-09
       204  12 -7.289422E+04  5.074624E+04  3.834694E+04  1.491109E+04 -7.396834E-09  7.439542E-09
       204  13 -2.778038E+05 -1.878214E+04 -2.243690E+04  1.215013E+04 -1.719226E-10 -5.238716E-10
       204  14 -2.752755E+05 -2.564027E+02 -1.027277E+04  8.607890E+03  2.247750E-09 -4.789156E-09
       204  15 -2.777985E+05  8.848171E+02 -5.991132E+03  1.213574E+04 -1.799076E-09 -1.077077E-08
       204  16 -5.201301E+05 -7.896998E+04 -8.101235E+04  2.122152E+04  1.371336E-08  2.274189E-09
       204  17 -4.983410E+05 -5.475156E+04 -5.961322E+04  1.175639E+04  1.506278E-08  8.590972E-09
       204  18 -4.826634E+05 -4.897935E+04 -5.033169E+04  9.361302E+03  8.019052E-09  7.152872E-09
       204  19 -3.542360E+04  4.140174E+04  3.613445E+04  3.075190E+03  5.604648E+03  3.253518E+03
       204  20 -5.216341E+04  5.423557E+04  3.906488E+04  5.458288E+03  6.262702E+03  1.032367E+04
       204  21 -7.289414E+04  5.074638E+04  3.834726E+04  1.491115E+04  6.924922E+03  1.104388E+04
       204  22 -2.778035E+05 -1.878206E+04 -2.243643E+04  1.215017E+04  1.543499E+04  3.260335E+03
       204  23 -2.752754E+05 -2.562614E+02 -1.027238E+04  8.607973E+03  9.998819E+03  1.032676E+04
       204  24 -2.777985E+05  8.849537E+02 -5.990864E+03  1.213578E+04  4.566773E+03  1.104219E+04
       204  25 -5.201294E+05 -7.896980E+04 -8.101113E+04  2.122159E+04  2.526151E+04  3.267441E+03
       204  26 -4.983407E+05 -5.475140E+04 -5.961266E+04  1.175650E+04  1.373361E+04  1.032988E+04
       204  27 -4.826633E+05 -4.897922E+04 -5.033146E+04  9.361322E+03  2.209391E+03  1.104052E+04
       205   1 -8.687479E+04  4.529894E+04  3.654778E+04  1.199879E+04 -4.283975E+03 -9.901525E+03
       205   2 -1.054403E+05  4.167125E+04  3.447395E+04  8.562170E+03 -3.267298E+03 -9.175292E+03
       205   3 -1.243645E+05  3.716430E+04  3.151692E+04  1.250367E+04 -2.251123E+03 -8.159603E+03
       205   4 -2.767657E+05 -9.452598E+02 -4.748063E+03  1.220840E+04 -3.725839E+03 -9.901275E+03
       205   5 -2.765607E+05  2.887474E+01 -2.582359E+03  8.518816E+03 -2.431678E+03 -9.174723E+03
       205   6 -2.767635E+05  7.534084E+01 -1.492897E+03  1.220748E+04 -1.137992E+03 -8.158679E+03
       205   7 -4.666228E+05 -4.719186E+04 -4.604606E+04  1.241794E+04 -3.167871E+03 -9.901023E+03
       205   8 -4.476537E+05 -4.161544E+04 -3.964041E+04  8.475467E+03 -1.596285E+03 -9.174154E+03
       205   9 -4.291407E+05 -3.701515E+04 -3.450409E+04  1.191137E+04 -2.513094E+01 -8.157755E+03
       205  10 -8.687484E+04  4.529883E+04  3.654756E+04  1.199876E+04 -4.029858E-09  5.272952E-09
       205  11 -1.054403E+05  4.167116E+04  3.447377E+04  8.562146E+03 -5.700496E-10  6.894482E-09
       205  12 -1.243645E+05  3.716422E+04  3.151679E+04  1.250365E+04  2.871871E-09  7.721352E-09
       205  13 -2.767657E+05 -9.453688E+02 -4.748273E+03  1.220837E+04 -1.749495E-09 -1.143556E-08
       205  14 -2.765608E+05  2.878277E+01 -2.582528E+03  8.518798E+03  2.799628E-09 -1.997197E-08
       205  15 -2.767635E+05  7.526902E+01 -1.493025E+03  1.220748E+04 -1.766464E-09 -1.219841E-08
       205  16 -4.666228E+05 -4.719196E+04 -4.604626E+04  1.241792E+04  4.725902E-09  3.571124E-09
       205  17 -4.476537E+05 -4.161553E+04 -3.964057E+04  8.475455E+03  7.553338E-10  4.261154E-09
       205  18 -4.291407E+05 -3.701522E+04 -3.450422E+04  1.191137E+04 -2.531698E-09  6.431870E-09
       205  19 -8.687479E+04  4.529894E+04  3.654778E+04  1.199879E+04  4.283975E+03  9.901525E+03
       205  20 -1.054403E+05  4.167125E+04  3.447395E+04  8.562170E+03  3.267298E+03  9.175292E+03
       205  21 -1.243645E+05  3.716430E+04  3.151692E+04  1.250367E+04  2.251123E+03  8.159603E+03
       205  22 -2.767657E+05 -9.452598E+02 -4.748063E+03  1.220840E+04  3.725839E+03  9.901275E+03
       205  23 -2.765607E+05  2.887474E+01 -2.582359E+03  8.518816E+03  2.431678E+03  9.174723E+03
       205  24 -2.767635E+05  7.534084E+01 -1.492897E+03  1.220748E+04  1.137992E+03  8.158679E+03
       205  25 -4.666228E+05 -4.719186E+04 -4.604606E+04  1.241794E+04  3.167871E+03  9.901023E+03
       205  26 -4.476537E+05 -4.161544E+04 -3.964041E+04  8.475467E+03  1.596285E+03  9.174154E+03
       205  27 -4.291407E+05 -3.701515E+04 -3.450409E+04  1.191137E+04  2.513094E+01  8.157755E+03
       206   1 -1.392066E+05  3.342267E+04  2.854598E+04  1.234048E+04 -1.938327E+03 -7.497302E+03
       206   2 -1.579722E+05  2.890016E+04  2.500541E+04  8.620108E+03 -1.623783E+03 -6.414556E+03
       206   3 -1.768016E+05  2.434299E+04  2.124792E+04  1.231529E+04 -1.309416E+03 -5.317809E+03
       206   4 -2.766866E+05 -1.841535E+01 -1.147302E+03  1.221606E+04 -9.059525E+02 -7.496403E+03
       206   5 -2.766528E+05  2.435959E+01 -6.638238E+02  8.508212E+03 -5.780427E+02 -6.413575E+03
       206   6 -2.766853E+05  3.024192E+01 -4.065109E+02  1.221600E+04 -2.503004E+02 -5.316744E+03
       206   7 -4.141490E+05 -3.346075E+04 -3.084169E+04  1.209165E+04  1.261961E+02 -7.495504E+03
       206   8 -3.953203E+05 -2.885237E+04 -2.633389E+04  8.396335E+03  4.675001E+02 -6.412594E+03
       206   9 -3.765595E+05 -2.428317E+04 -2.206153E+04  1.211674E+04  8.086469E+02 -5.315679E+03
       206  10 -1.392066E+05  3.342261E+04  2.854587E+04  1.234047E+04  1.455995E-08  2.879886E-09
       206  11 -1.579722E+05  2.890011E+04  2.500533E+04  8.620100E+03  1.464492E-08  1.789240E-09
       206  12 -1.768016E+05  2.434296E+04  2.124786E+04  1.231528E+04  7.179110E-09  3.055374E-09
       206  13 -2.766867E+05 -1.847591E+01 -1.147409E+03  1.221605E+04  5.445593E-10 -1.271223E-08
       206  14 -2.766528E+05  2.431533E+01 -6.639017E+02  8.508209E+03 -2.604131E-09 -8.600984E-09
       206  15 -2.766853E+05  3.021156E+01 -4.065641E+02  1.221600E+04  3.069106E-10  6.460659E-10
       206  16 -4.141490E+05 -3.346081E+04 -3.084180E+04  1.209165E+04 -1.518794E-08  3.945683E-09
       206  17 -3.953203E+05 -2.885241E+04 -2.633397E+04  8.396337E+03 -1.368613E-08  5.681060E-09
       206  18 -3.765595E+05 -2.428320E+04 -2.206159E+04  1.211674E+04 -9.799587E-09  6.480533E-09
       206  19 -1.392066E+05  3.342267E+04  2.854598E+04  1.234048E+04  1.938327E+03  7.497302E+03
       206  20 -1.579722E+05  2.890016E+04  2.500541E+04  8.620108E+03  1.623783E+03  6.414556E+03
       206  21 -1.768016E+05  2.434299E+04  2.124792E+04  1.231529E+04  1.309416E+03  5.317809E+03
       206  22 -2.766866E+05 -1.841535E+01 -1.147302E+03  1.221606E+04  9.059525E+02  7.496403E+03
       206  23 -2.766528E+05  2.435959E+01 -6.638238E+02  8.508212E+03  5.780427E+02  6.413575E+03
       206  24 -2.766853E+05  3.024192E+01 -4.065109E+02  1.221600E+04  2.503004E+02  5.316744E+03
       206  25 -4.141490E+05 -3.346075E+04 -3.084169E+04  1.209165E+04 -1.261961E+02  7.495504E+03
       206  26 -3.953203E+05 -2.885237E+04 -2.633389E+04  8.396335E+03 -4.675001E+02  6.412594E+03
       206  27 -3.765595E+05 -2.428317E+04 -2.206153E+04  1.211674E+04 -8.086469E+02  5.315679E+03
       207   1 -1.917417E+05  2.068146E+04  1.798761E+04  1.229751E+04 -1.240518E+03 -4.675923E+03
       207   2 -2.105596E+05  1.610515E+04  1.404868E+04  8.562011E+03 -1.120355E+03 -3.574951E+03
       207   3 -2.294084E+05  1.154132E+04  1.003012E+04  1.225610E+04 -1.000286E+03 -2.472890E+03
       207   4 -2.766769E+05  2.636429E+01 -3.301016E+02  1.221913E+04 -1.844659E+02 -4.674827E+03
       207   5 -2.766608E+05  2.201375E+01 -2.475406E+02  8.504312E+03 -6.328641E+01 -3.573815E+03
       207   6 -2.766762E+05  2.998135E+01 -2.452968E+02  1.221913E+04  5.780289E+01 -2.471713E+03
       207   7 -3.616053E+05 -2.062920E+04 -1.864824E+04  1.214076E+04  8.714437E+02 -4.673732E+03
       207   8 -3.427579E+05 -1.606141E+04 -1.454401E+04  8.446617E+03  9.936713E+02 -3.572680E+03
       207   9 -3.239418E+05 -1.148150E+04 -1.052085E+04  1.218216E+04  1.115812E+03 -2.470537E+03
       207  10 -1.917417E+05  2.068143E+04  1.798757E+04  1.229750E+04  6.915028E-09  9.483862E-10
       207  11 -2.105596E+05  1.610513E+04  1.404865E+04  8.562008E+03  3.363018E-09  1.967064E-09
       207  12 -2.294084E+05  1.154131E+04  1.003011E+04  1.225610E+04 -3.048817E-09  1.920983E-09
       207  13 -2.766769E+05  2.634081E+01 -3.301427E+02  1.221913E+04  5.017114E-10  3.343212E-09
       207  14 -2.766608E+05  2.200003E+01 -2.475646E+02  8.504312E+03 -1.459113E-09 -1.595549E-09
       207  15 -2.766762E+05  2.997479E+01 -2.453083E+02  1.221913E+04 -7.849221E-10 -1.613358E-10
       207  16 -3.616053E+05 -2.062923E+04 -1.864828E+04  1.214077E+04 -8.589297E-09  4.157447E-09
       207  17 -3.427579E+05 -1.606142E+04 -1.454404E+04  8.446620E+03 -1.286772E-09  4.005968E-09
       207  18 -3.239418E+05 -1.148151E+04 -1.052086E+04  1.218216E+04  3.954213E-09  2.138255E-09
       207  19 -1.917417E+05  2.068146E+04  1.798761E+04  1.229751E+04  1.240518E+03  4.675923E+03
       207  20 -2.105596E+05  1.610515E+04  1.404868E+04  8.562011E+03  1.120355E+03  3.574951E+03
       207  21 -2.294084E+05  1.154132E+04  1.003012E+04  1.225610E+04  1.000286E+03  2.472890E+03
       207  22 -2.766769E+05  2.636429E+01 -3.301016E+02  1.221913E+04  1.844659E+02  4.674827E+03
       207  23 -2.766608E+05  2.201375E+01 -2.475406E+02  8.504312E+03  6.328641E+01  3.573815E+03
       207  24 -2.766762E+05  2.998135E+01 -2.452968E+02  1.221913E+04 -5.780289E+01  2.471713E+03
       207  25 -3.616053E+05 -2.062920E+04 -1.864824E+04  1.214076E+04 -8.714437E+02  4.673732E+03
       207  26 -3.427579E+05 -1.606141E+04 -1.454401E+04  8.446617E+03 -9.936713E+02  3.572680E+03
       207  27 -3.239418E+05 -1.148150E+04 -1.052085E+04  1.218216E+04 -1.115812E+03  2.470537E+03
       208   1 -2.443787E+05  7.878629E+03  6.661132E+03  1.224253E+04 -9.542841E+02 -1.831078E+03
       208   2 -2.632055E+05  3.298633E+03  2.515745E+03  8.499269E+03 -7.607771E+02 -7.282564E+02
       208   3 -2.820753E+05 -1.272360E+03 -1.758321E+03  1.219163E+04 -5.672966E+02  3.743004E+02
       208   4 -2.766786E+05  3.003182E+01 -2.724511E+02  1.222046E+04  1.040280E+02 -1.829887E+03
       208   5 -2.766567E+05  2.575545E+01 -3.934585E+02  8.502646E+03  2.972546E+02 -7.270584E+02
       208   6 -2.766785E+05  3.047918E+01 -6.430152E+02  1.222046E+04  4.904605E+02  3.755067E+02
       208   7 -3.089775E+05 -7.818633E+03 -7.206091E+03  1.219839E+04  1.162286E+03 -1.828696E+03
       208   8 -2.901078E+05 -3.247134E+03 -3.302668E+03  8.506022E+03  1.355264E+03 -7.258604E+02
       208   9 -2.712816E+05  1.333317E+03  4.722928E+02  1.224929E+04  1.548227E+03  3.767130E+02
       208  10 -2.443787E+05  7.878625E+03  6.661124E+03  1.224253E+04  1.293242E-09  1.838729E-09
       208  11 -2.632055E+05  3.298633E+03  2.515743E+03  8.499269E+03 -5.173340E-10 -7.796698E-10
       208  12 -2.820753E+05 -1.272360E+03 -1.758321E+03  1.219163E+04 -2.613123E-09 -1.808682E-09
       208  13 -2.766786E+05  3.002823E+01 -2.724574E+02  1.222046E+04 -8.124842E-10  3.878341E-09
       208  14 -2.766567E+05  2.575485E+01 -3.934597E+02  8.502646E+03  1.554860E-09 -1.497342E-09
       208  15 -2.766785E+05  3.047896E+01 -6.430160E+02  1.222046E+04  1.438251E-09 -2.511679E-09
       208  16 -3.089775E+05 -7.818637E+03 -7.206100E+03  1.219839E+04 -1.101360E-09  1.972894E-09
       208  17 -2.901078E+05 -3.247135E+03 -3.302673E+03  8.506023E+03  2.214808E-10 -4.260698E-09
       208  18 -2.712816E+05  1.333316E+03  4.722880E+02  1.224929E+04  2.566514E-09 -2.247971E-09
       208  19 -2.443787E+05  7.878629E+03  6.661132E+03  1.224253E+04  9.542841E+02  1.831078E+03
       208  20 -2.632055E+05  3.298633E+03  2.515745E+03  8.499269E+03  7.607771E+02  7.282564E+02
       208  21 -2.820753E+05 -1.272360E+03 -1.758321E+03  1.219163E+04  5.672966E+02 -3.743004E+02
       208  22 -2.766786E+05  3.003182E+01 -2.724511E+02  1.222046E+04 -1.040280E+02  1.829887E+03
       208  23 -2.766567E+05  2.575545E+01 -3.934585E+02  8.502646E+03 -2.972546E+02  7.270584E+02
       208  24 -2.766785E+05  3.047918E+01 -6.430152E+02  1.222046E+04 -4.904605E+02 -3.755067E+02
       208  25 -3.089775E+05 -7.818633E+03 -7.206091E+03  1.219839E+04 -1.162286E+03  1.828696E+03
       208  26 -2.901078E+05 -3.247134E+03 -3.302668E+03  8.506022E+03 -1.355264E+03  7.258604E+02
       208  27 -2.712816E+05  1.333317E+03  4.722928E+02  1.224929E+04 -1.548227E+03 -3.767130E+02
       209   1 -2.970681E+05 -4.927401E+03 -5.292517E+03  1.215692E+04 -4.371027E+02  1.017044E+03
       209   2 -3.158414E+05 -9.501617E+03 -9.915429E+03  8.422390E+03  2.805452E+02  2.117993E+03
       209   3 -3.347537E+05 -1.417727E+04 -1.503599E+04  1.212093E+04  9.982444E+02  3.209698E+03
       209   4 -2.766994E+05  3.936365E+01 -8.346432E+02  1.221985E+04  6.230851E+02  1.018248E+03
       209   5 -2.766310E+05  3.973276E+01 -1.433052E+03  8.503386E+03  1.331896E+03  2.119164E+03
       209   6 -2.767000E+05 -5.969257E+01 -2.522854E+03  1.221996E+04  2.040780E+03  3.210836E+03
       209   7 -2.563304E+05  5.006101E+03  3.623209E+03  1.228278E+04  1.683307E+03  1.019452E+03
       209   8 -2.374191E+05  9.580982E+03  7.049237E+03  8.584387E+03  2.383313E+03  2.120335E+03
       209   9 -2.186431E+05  1.405766E+04  9.990091E+03  1.231901E+04  3.083411E+03  3.211975E+03
       209  10 -2.970681E+05 -4.927402E+03 -5.292519E+03  1.215692E+04 -4.934830E-09 -1.485504E-10
       209  11 -3.158414E+05 -9.501622E+03 -9.915438E+03  8.422390E+03 -1.381984E-09 -1.242997E-09
       209  12 -3.347537E+05 -1.417728E+04 -1.503601E+04  1.212092E+04  2.639704E-09 -8.270524E-10
       209  13 -2.766994E+05  3.936244E+01 -8.346459E+02  1.221985E+04  1.557716E-09 -6.594651E-10
       209  14 -2.766310E+05  3.972746E+01 -1.433064E+03  8.503384E+03  2.096705E-09  1.363208E-09
       209  15 -2.767000E+05 -5.970476E+01 -2.522881E+03  1.221996E+04  1.264297E-09  4.906654E-10
       209  16 -2.563304E+05  5.006099E+03  3.623202E+03  1.228278E+04  4.522127E-09  9.267647E-10
       209  17 -2.374191E+05  9.580975E+03  7.049218E+03  8.584383E+03  2.320066E-09 -1.834674E-09
       209  18 -2.186431E+05  1.405765E+04  9.990054E+03  1.231900E+04 -1.968094E-09  2.378129E-09
       209  19 -2.970681E+05 -4.927401E+03 -5.292517E+03  1.215692E+04  4.371027E+02 -1.017044E+03
       209  20 -3.158414E+05 -9.501617E+03 -9.915429E+03  8.422390E+03 -2.805452E+02 -2.117993E+03
       209  21 -3.347537E+05 -1.417727E+04 -1.503599E+04  1.212093E+04 -9.982444E+02 -3.209698E+03
       209  22 -2.766994E+05  3.936365E+01 -8.346432E+02  1.221985E+04 -6.230851E+02 -1.018248E+03
       209  23 -2.766310E+05  3.973276E+01 -1.433052E+03  8.503386E+03 -1.331896E+03 -2.119164E+03
       209  24 -2.767000E+05 -5.969257E+01 -2.522854E+03  1.221996E+04 -2.040780E+03 -3.210836E+03
       209  25 -2.563304E+05  5.006101E+03  3.623209E+03  1.228278E+04 -1.683307E+03 -1.019452E+03
       209  26 -2.374191E+05  9.580982E+03  7.049237E+03  8.584387E+03 -2.383313E+03 -2.120335E+03
       209  27 -2.186431E+05  1.405766E+04  9.990091E+03  1.231901E+04 -3.083411E+03 -3.211975E+03
       210   1 -3.498880E+05 -1.762949E+04 -1.914027E+04  1.174241E+04  1.454647E+03  3.867182E+03
       210   2 -3.682371E+05 -2.228958E+04 -2.561086E+04  8.596092E+03  4.509173E+03  4.915625E+03
       210   3 -3.875278E+05 -2.905767E+04 -3.460203E+04  1.286542E+04  7.563918E+03  5.766276E+03
       210   4 -2.768718E+05  1.490323E+02 -3.295467E+03  1.221540E+04  2.552624E+03  3.868358E+03
       210   5 -2.764182E+05  5.933488E+01 -5.717001E+03  8.508804E+03  5.417729E+03  4.916541E+03
       210   6 -2.768735E+05 -2.105237E+03 -1.052720E+04  1.221780E+04  8.283144E+03  5.766941E+03
       210   7 -2.038507E+05  1.792721E+04  1.254902E+04  1.268844E+04  3.650728E+03  3.869536E+03
       210   8 -1.845915E+05  2.240769E+04  1.417636E+04  8.421500E+03  6.326418E+03  4.917457E+03
       210   9 -1.662078E+05  2.484639E+04  1.354689E+04  1.157007E+04  9.002497E+03  5.767605E+03
       210  10 -3.498880E+05 -1.762951E+04 -1.914030E+04  1.174240E+04  4.694538E-09 -1.368613E-09
       210  11 -3.682371E+05 -2.228961E+04 -2.561095E+04  8.596074E+03  1.114093E-09  1.642276E-09
       210  12 -3.875279E+05 -2.905772E+04 -3.460220E+04  1.286538E+04 -7.147701E-10 -6.947127E-10
       210  13 -2.768718E+05  1.490145E+02 -3.295507E+03  1.221539E+04  1.769262E-09 -1.762020E-09
       210  14 -2.764183E+05  5.930104E+01 -5.717102E+03  8.508782E+03  1.289288E-09  4.229682E-09
       210  15 -2.768736E+05 -2.105292E+03 -1.052739E+04  1.221776E+04 -2.092687E-10  1.114476E-09
       210  16 -2.038507E+05  1.792719E+04  1.254897E+04  1.268843E+04 -2.715826E-09 -1.451692E-09
       210  17 -1.845915E+05  2.240765E+04  1.417624E+04  8.421475E+03  1.402775E-09 -2.458599E-09
       210  18 -1.662079E+05  2.484633E+04  1.354668E+04  1.157003E+04  1.861607E-09  1.089871E-09
       210  19 -3.498880E+05 -1.762949E+04 -1.914027E+04  1.174241E+04 -1.454647E+03 -3.867182E+03
       210  20 -3.682371E+05 -2.228958E+04 -2.561086E+04  8.596092E+03 -4.509173E+03 -4.915625E+03
       210  21 -3.875278E+05 -2.905767E+04 -3.460203E+04  1.286542E+04 -7.563918E+03 -5.766276E+03
       210  22 -2.768718E+05  1.490323E+02 -3.295467E+03  1.221540E+04 -2.552624E+03 -3.868358E+03
       210  23 -2.764182E+05  5.933488E+01 -5.717001E+03  8.508804E+03 -5.417729E+03 -4.916541E+03
       210  24 -2.768735E+05 -2.105237E+03 -1.052720E+04  1.221780E+04 -8.283144E+03 -5.766941E+03
       210  25 -2.038507E+05  1.792721E+04  1.254902E+04  1.268844E+04 -3.650728E+03 -3.869536E+03
       210  26 -1.845915E+05  2.240769E+04  1.417636E+04  8.421500E+03 -6.326418E+03 -4.917457E+03
       210  27 -1.662078E+05  2.484639E+04  1.354689E+04  1.157007E+04 -9.002497E+03 -5.767605E+03
       211   1 -4.048462E+05 -2.864690E+04 -4.050715E+04  6.190005E+03  8.198777E+03  6.751170E+03
       211   2 -4.177103E+05 -3.577209E+04 -5.470389E+04  1.572973E+04  2.440969E+04  6.626805E+03
       211   3 -4.425286E+05 -8.221704E+04 -8.929132E+04  3.249458E+04  4.062375E+04  2.159136E+03
       211   4 -2.791666E+05  1.957343E+03 -1.328608E+04  1.216379E+04  1.014897E+04  6.753137E+03
       211   5 -2.735559E+05 -5.622389E+02 -2.278109E+04  8.571869E+03  2.219432E+04  6.624253E+03
       211   6 -2.791740E+05 -4.167378E+04 -4.977021E+04  1.220573E+04  3.424349E+04  2.151833E+03
       211   7 -1.534721E+05  3.256068E+04  1.393408E+04  1.813879E+04  1.209955E+04  6.755142E+03
       211   8 -1.293821E+05  3.464641E+04  9.140470E+03  1.412317E+03  1.997845E+04  6.621754E+03
       211   9 -1.157940E+05 -1.130898E+03 -1.025065E+04 -8.088486E+03  2.786156E+04  2.144948E+03
       211  10 -4.048463E+05 -2.864697E+04 -4.050736E+04  6.189960E+03  3.065668E-09 -8.238948E-10
       211  11 -4.177109E+05 -3.577230E+04 -5.470510E+04  1.572960E+04  1.777977E-09  1.711475E-09
       211  12 -4.425304E+05 -8.221749E+04 -8.929443E+04  3.249451E+04  2.405943E-10  3.388183E-09
       211  13 -2.791668E+05  1.957266E+03 -1.328636E+04  1.216373E+04 -5.389348E-10  5.275937E-10
       211  14 -2.735565E+05 -5.624183E+02 -2.278210E+04  8.571751E+03  2.665985E-11  2.258795E-09
       211  15 -2.791752E+05 -4.167410E+04 -4.977243E+04  1.220567E+04 -1.668224E-10  1.857545E-09
       211  16 -1.534723E+05  3.256059E+04  1.393372E+04  1.813872E+04 -2.746686E-09  1.907455E-09
       211  17 -1.293825E+05  3.464625E+04  9.139637E+03  1.412210E+03 -1.511333E-09  2.367221E-09
       211  18 -1.157948E+05 -1.131112E+03 -1.025211E+04 -8.088535E+03 -8.206820E-10 -9.677624E-10
       211  19 -4.048462E+05 -2.864690E+04 -4.050715E+04  6.190005E+03 -8.198777E+03 -6.751170E+03
       211  20 -4.177103E+05 -3.577209E+04 -5.470389E+04  1.572973E+04 -2.440969E+04 -6.626805E+03
       211  21 -4.425286E+05 -8.221704E+04 -8.929132E+04  3.249458E+04 -4.062375E+04 -2.159136E+03
       211  22 -2.791666E+05  1.957343E+03 -1.328608E+04  1.216379E+04 -1.014897E+04 -6.753137E+03
       211  23 -2.735559E+05 -5.622389E+02 -2.278109E+04  8.571869E+03 -2.219432E+04 -6.624253E+03
       211  24 -2.791740E+05 -4.167378E+04 -4.977021E+04  1.220573E+04 -3.424349E+04 -2.151833E+03
       211  25 -1.534721E+05  3.256068E+04  1.393408E+04  1.813879E+04 -1.209955E+04 -6.755142E+03
       211  26 -1.293821E+05  3.464641E+04  9.140470E+03  1.412317E+03 -1.997845E+04 -6.621754E+03
       211  27 -1.157940E+05 -1.130898E+03 -1.025065E+04 -8.088486E+03 -2.786156E+04 -2.144948E+03

 stresses (elem, integ.pnt.,sxx,syy,szz,sxy,sxz,syz) for set ELALL and time  0.8750000E+00

         1   1  2.678061E+06  9.872028E+06  2.542876E+06 -1.802121E+06  1.254627E+05  9.404542E+05
         1   2  2.169280E+06  8.422001E+06  1.730327E+06 -1.651472E+06  4.208383E+05  4.256883E+05
         1   3  1.799664E+06  7.079317E+06  1.285544E+06 -1.736072E+06  4.888730E+05 -8.754718E+04
         1   4  1.014228E+05 -6.328966E+05  1.067941E+05 -1.707000E+06  1.284919E+05  6.955113E+04
         1   5  3.031712E+04 -6.400122E+05  5.649760E+04 -1.589589E+06  4.230707E+05  4.260236E+04
         1   6  1.540564E+04 -6.247567E+05  3.858409E+04 -1.707417E+06  4.888330E+05  1.587809E+04
         1   7 -2.482533E+06 -1.103529E+07 -2.333889E+06 -1.613277E+06  1.312986E+05 -7.869022E+05
         1   8 -2.113238E+06 -9.622761E+06 -1.620224E+06 -1.528452E+06  4.252515E+05 -3.350962E+05
         1   9 -1.771848E+06 -8.270343E+06 -1.209981E+06 -1.678975E+06  4.888018E+05  1.180750E+05
         1  10  2.677811E+06  9.871086E+06  2.541208E+06 -1.802216E+06  6.035856E-10  2.665315E-09
         1  11  2.169042E+06  8.421760E+06  1.729656E+06 -1.651616E+06 -2.999835E-09 -7.919126E-09
         1  12  1.799406E+06  7.079244E+06  1.285081E+06 -1.736038E+06 -1.261267E-08 -1.922775E-08
         1  13  1.014037E+05 -6.329063E+05  1.067539E+05 -1.707008E+06 -3.751264E-09  7.268257E-11
         1  14  3.012443E+04 -6.400623E+05  5.615773E+04 -1.589604E+06 -4.294450E-09  1.873241E-12
         1  15  1.514903E+04 -6.248211E+05  3.813461E+04 -1.707424E+06 -3.764000E-09 -3.536191E-11
         1  16 -2.482721E+06 -1.103597E+07 -2.335104E+06 -1.613194E+06 -2.658639E-09 -2.403403E-09
         1  17 -2.113462E+06 -9.622931E+06 -1.620776E+06 -1.528337E+06  6.437329E-09  7.754498E-09
         1  18 -1.772109E+06 -8.270422E+06 -1.210457E+06 -1.679022E+06  1.512703E-09  1.893998E-08
         1  19  2.678061E+06  9.872028E+06  2.542876E+06 -1.802121E+06 -1.254627E+05 -9.404542E+05
         1  20  2.169280E+06  8.422001E+06  1.730327E+06 -1.651472E+06 -4.208383E+05 -4.256883E+05
         1  21  1.799664E+06  7.079317E+06  1.285544E+06 -1.736072E+06 -4.888730E+05  8.754718E+04
         1  22  1.014228E+05 -6.328966E+05  1.067941E+05 -1.707000E+06 -1.284919E+05 -6.955113E+04
         1  23  3.031712E+04 -6.400122E+05  5.649760E+04 -1.589589E+06 -4.230707E+05 -4.260236E+04
         1  24  1.540564E+04 -6.247567E+05  3.858409E+04 -1.707417E+06 -4.888330E+05 -1.587809E+04
         1  25 -2.482533E+06 -1.103529E+07 -2.333889E+06 -1.613277E+06 -1.312986E+05  7.869022E+05
         1  26 -2.113238E+06 -9.622761E+06 -1.620224E+06 -1.528452E+06 -4.252515E+05  3.350962E+05
         1  27 -1.771848E+06 -8.270343E+06 -1.209981E+06 -1.678975E+06 -4.888018E+05 -1.180750E+05
         2   1  1.590660E+06  6.186782E+06  1.111265E+06 -1.744073E+06  4.520452E+05 -9.426122E+04
         2   2  1.260615E+06  4.783810E+06  8.490312E+05 -1.608509E+06  3.902450E+05 -1.687347E+05
         2   3  9.546541E+05  3.398061E+06  6.409039E+05 -1.724564E+06  3.016994E+05 -2.434130E+05
         2   4  1.715309E+04 -6.261534E+05  3.450910E+04 -1.711077E+06  4.518402E+05  9.827897E+03
         2   5  1.839494E+04 -6.263777E+05  3.481513E+04 -1.585175E+06  3.894253E+05 -7.669208E+03
         2   6  3.402747E+04 -6.210924E+05  4.991608E+04 -1.711020E+06  3.001439E+05 -2.552802E+04
         2   7 -1.558645E+06 -7.393127E+06 -1.043377E+06 -1.678327E+06  4.516446E+05  1.128247E+05
         2   8 -1.225199E+06 -6.007280E+06 -7.798939E+05 -1.561968E+06  3.886125E+05  1.520567E+05
         2   9 -8.873247E+05 -4.623934E+06 -5.411811E+05 -1.697517E+06  2.985907E+05  1.910105E+05
         2  10  1.590438E+06  6.186718E+06  1.110865E+06 -1.744039E+06 -6.064730E-09  2.783899E-08
         2  11  1.260444E+06  4.783739E+06  8.486927E+05 -1.608456E+06  9.723990E-10 -7.855840E-08
         2  12  9.545409E+05  3.397973E+06  6.406231E+05 -1.724505E+06 -5.095712E-10 -1.766165E-07
         2  13  1.693388E+04 -6.262083E+05  3.412533E+04 -1.711081E+06 -7.570090E-09  1.878043E-10
         2  14  1.823214E+04 -6.264184E+05  3.453016E+04 -1.585172E+06  1.578320E-08  1.255628E-10
         2  15  3.393063E+04 -6.211172E+05  4.974573E+04 -1.711014E+06  1.555853E-08 -1.272223E-10
         2  16 -1.558868E+06 -7.393196E+06 -1.043785E+06 -1.678368E+06 -1.202278E-08 -2.709607E-08
         2  17 -1.225368E+06 -6.007346E+06 -7.802221E+05 -1.562016E+06 -3.483554E-09  7.753035E-08
         2  18 -8.874305E+05 -4.623997E+06 -5.414184E+05 -1.697563E+06 -1.693675E-09  1.750137E-07
         2  19  1.590660E+06  6.186782E+06  1.111265E+06 -1.744073E+06 -4.520452E+05  9.426122E+04
         2  20  1.260615E+06  4.783810E+06  8.490312E+05 -1.608509E+06 -3.902450E+05  1.687347E+05
         2  21  9.546541E+05  3.398061E+06  6.409039E+05 -1.724564E+06 -3.016994E+05  2.434130E+05
         2  22  1.715309E+04 -6.261534E+05  3.450910E+04 -1.711077E+06 -4.518402E+05 -9.827897E+03
         2  23  1.839494E+04 -6.263777E+05  3.481513E+04 -1.585175E+06 -3.894253E+05  7.669208E+03
         2  24  3.402747E+04 -6.210924E+05  4.991608E+04 -1.711020E+06 -3.001439E+05  2.552802E+04
         2  25 -1.558645E+06 -7.393127E+06 -1.043377E+06 -1.678327E+06 -4.516446E+05 -1.128247E+05
         2  26 -1.225199E+06 -6.007280E+06 -7.798939E+05 -1.561968E+06 -3.886125E+05 -1.520567E+05
         2  27 -8.873247E+05 -4.623934E+06 -5.411811E+05 -1.697517E+06 -2.985907E+05 -1.910105E+05
         3   1  7.586242E+05  2.528206E+06  5.190040E+05 -1.728279E+06  2.409413E+05 -2.522741E+05
         3   2  4.825233E+05  1.122117E+06  3.595187E+05 -1.527686E+06  1.380009E+05 -3.106522E+05
         3   3  3.026124E+05 -2.532401E+05  2.612143E+05 -1.580509E+06  3.389413E+04 -3.690328E+05
         3   4  3.936402E+04 -6.148696E+05  6.247877E+04 -1.711462E+06  2.392451E+05 -3.442899E+04
         3   5  8.359209E+04 -6.281258E+05  1.083335E+05 -1.584185E+06  1.362020E+05 -9.049599E+04
         3   6  2.237287E+05 -6.131558E+05  2.136266E+05 -1.710204E+06  3.200460E+04 -1.466766E+05
         3   7 -6.803250E+05 -3.747903E+06 -3.940317E+05 -1.694701E+06  2.375545E+05  1.823630E+05
         3   8 -3.154381E+05 -2.375163E+06 -1.427142E+05 -1.640510E+06  1.343595E+05  1.290669E+05
         3   9  1.449306E+05 -9.727956E+05  1.662332E+05 -1.839820E+06  3.002134E+04  7.555676E+04
         3  10  7.585451E+05  2.528122E+06  5.187766E+05 -1.728230E+06 -7.888060E-09  1.731388E-07
         3  11  4.824771E+05  1.122009E+06  3.593024E+05 -1.527652E+06  3.030086E-09  7.907933E-08
         3  12  3.025746E+05 -2.533866E+05  2.609563E+05 -1.580499E+06  4.499692E-09 -2.408447E-08
         3  13  3.930230E+04 -6.148862E+05  6.236913E+04 -1.711455E+06  1.056514E-08 -2.749218E-10
         3  14  8.357003E+04 -6.281395E+05  1.082834E+05 -1.584176E+06  1.205800E-08 -4.667518E-10
         3  15  2.237219E+05 -6.131792E+05  2.135843E+05 -1.710200E+06  3.008802E-09 -7.270310E-12
         3  16 -6.803947E+05 -3.747954E+06 -3.942012E+05 -1.694736E+06 -5.955399E-11 -1.733228E-07
         3  17 -3.154621E+05 -2.375186E+06 -1.427798E+05 -1.640524E+06 -2.602647E-09 -7.896528E-08
         3  18  1.449281E+05 -9.728020E+05  1.662207E+05 -1.839822E+06  1.889053E-11  2.420268E-08
         3  19  7.586242E+05  2.528206E+06  5.190040E+05 -1.728279E+06 -2.409413E+05  2.522741E+05
         3  20  4.825233E+05  1.122117E+06  3.595187E+05 -1.527686E+06 -1.380009E+05  3.106522E+05
         3  21  3.026124E+05 -2.532401E+05  2.612143E+05 -1.580509E+06 -3.389413E+04  3.690328E+05
         3  22  3.936402E+04 -6.148696E+05  6.247877E+04 -1.711462E+06 -2.392451E+05  3.442899E+04
         3  23  8.359209E+04 -6.281258E+05  1.083335E+05 -1.584185E+06 -1.362020E+05  9.049599E+04
         3  24  2.237287E+05 -6.131558E+05  2.136266E+05 -1.710204E+06 -3.200460E+04  1.466766E+05
         3  25 -6.803250E+05 -3.747903E+06 -3.940317E+05 -1.694701E+06 -2.375545E+05 -1.823630E+05
         3  26 -3.154381E+05 -2.375163E+06 -1.427142E+05 -1.640510E+06 -1.343595E+05 -1.290669E+05
         3  27  1.449306E+05 -9.727956E+05  1.662332E+05 -1.839820E+06 -3.002134E+04 -7.555676E+04
         4   1 -7.346567E+06 -2.254678E+06 -1.527610E+06 -2.476374E+06 -7.864587E+05 -2.861672E+05
         4   2 -7.087287E+06 -1.070974E+06 -7.778685E+05 -2.650561E+06 -5.089036E+05 -1.669283E+05
         4   3 -7.248793E+06 -1.175691E+06 -5.728702E+05 -2.588712E+06 -2.244300E+05 -6.614519E+04
         4   4 -6.389199E+06 -1.747916E+06 -1.233867E+06 -2.069184E+06 -7.817773E+05 -2.846472E+05
         4   5 -6.116907E+06 -6.674037E+05 -5.046766E+05 -2.350121E+06 -5.083549E+05 -1.667649E+05
         4   6 -6.263834E+06 -8.733502E+05 -3.162542E+05 -2.395239E+06 -2.280131E+05 -6.744662E+04
         4   7 -5.430882E+06 -1.240803E+06 -9.402153E+05 -1.661333E+06 -7.770872E+05 -2.831207E+05
         4   8 -5.145608E+06 -2.637234E+05 -2.315750E+05 -2.049232E+06 -5.078048E+05 -1.666009E+05
         4   9 -5.277930E+06 -5.710241E+05 -5.971494E+04 -2.201521E+06 -2.316022E+05 -6.874933E+04
         4  10 -7.347261E+06 -2.254936E+06 -1.528944E+06 -2.476557E+06 -2.064875E-09  9.048533E-10
         4  11 -7.087576E+06 -1.071075E+06 -7.784147E+05 -2.650630E+06 -4.422012E-09  1.290907E-09
         4  12 -7.248849E+06 -1.175710E+06 -5.729745E+05 -2.588725E+06 -5.018392E-10 -3.166235E-09
         4  13 -6.389883E+06 -1.748171E+06 -1.235183E+06 -2.069365E+06 -4.597212E-09  1.129638E-09
         4  14 -6.117194E+06 -6.675042E+05 -5.052207E+05 -2.350190E+06  3.506382E-09  1.017388E-09
         4  15 -6.263891E+06 -8.733693E+05 -3.163617E+05 -2.395251E+06 -5.332557E-09 -2.758805E-09
         4  16 -5.431558E+06 -1.241054E+06 -9.415132E+05 -1.661512E+06  4.302757E-10  1.356763E-09
         4  17 -5.145894E+06 -2.638235E+05 -2.321170E+05 -2.049301E+06 -7.381565E-09  2.534059E-09
         4  18 -5.277989E+06 -5.710438E+05 -5.982571E+04 -2.201534E+06 -1.507115E-09 -2.443585E-09
         4  19 -7.346567E+06 -2.254678E+06 -1.527610E+06 -2.476374E+06  7.864587E+05  2.861672E+05
         4  20 -7.087287E+06 -1.070974E+06 -7.778685E+05 -2.650561E+06  5.089036E+05  1.669283E+05
         4  21 -7.248793E+06 -1.175691E+06 -5.728702E+05 -2.588712E+06  2.244300E+05  6.614519E+04
         4  22 -6.389199E+06 -1.747916E+06 -1.233867E+06 -2.069184E+06  7.817773E+05  2.846472E+05
         4  23 -6.116907E+06 -6.674037E+05 -5.046766E+05 -2.350121E+06  5.083549E+05  1.667649E+05
         4  24 -6.263834E+06 -8.733502E+05 -3.162542E+05 -2.395239E+06  2.280131E+05  6.744662E+04
         4  25 -5.430882E+06 -1.240803E+06 -9.402153E+05 -1.661333E+06  7.770872E+05  2.831207E+05
         4  26 -5.145608E+06 -2.637234E+05 -2.315750E+05 -2.049232E+06  5.078048E+05  1.666009E+05
         4  27 -5.277930E+06 -5.710241E+05 -5.971494E+04 -2.201521E+06  2.316022E+05  6.874933E+04
         5   1 -6.766910E+06 -1.258603E+06 -4.164962E+05 -2.501138E+06 -1.789424E+05 -5.451752E+04
         5   2 -6.678893E+06 -9.892775E+05 -2.419546E+05 -2.425796E+06 -1.147224E+05 -3.290390E+04
         5   3 -6.533162E+06 -1.023532E+06 -1.621783E+05 -2.458257E+06 -4.931176E+04 -1.447990E+04
         5   4 -6.210624E+06 -1.030186E+06 -2.603177E+05 -2.331857E+06 -1.791302E+05 -5.459487E+04
         5   5 -6.230789E+06 -8.163287E+05 -1.183968E+05 -2.300889E+06 -1.156360E+05 -3.324351E+04
         5   6 -6.193047E+06 -9.058158E+05 -7.058821E+04 -2.377732E+06 -5.096396E+04 -1.508905E+04
         5   7 -5.654038E+06 -8.017360E+05 -1.041687E+05 -2.162432E+06 -1.793180E+05 -5.467226E+04
         5   8 -5.782491E+06 -6.433665E+05  5.142329E+03 -2.175898E+06 -1.165503E+05 -3.358341E+04
         5   9 -5.852821E+06 -7.880980E+05  2.099149E+04 -2.297169E+06 -5.261715E+04 -1.569849E+04
         5  10 -6.766945E+06 -1.258615E+06 -4.165628E+05 -2.501146E+06 -2.986419E-09 -1.961705E-09
         5  11 -6.678908E+06 -9.892823E+05 -2.419817E+05 -2.425800E+06 -6.608583E-09  5.005643E-09
         5  12 -6.533165E+06 -1.023533E+06 -1.621833E+05 -2.458258E+06 -9.823065E-10 -3.677281E-10
         5  13 -6.210660E+06 -1.030198E+06 -2.603843E+05 -2.331865E+06 -3.553426E-09 -2.030670E-09
         5  14 -6.230804E+06 -8.163335E+05 -1.184243E+05 -2.300892E+06 -7.200732E-09  1.015468E-09
         5  15 -6.193050E+06 -9.058168E+05 -7.059358E+04 -2.377733E+06  4.043761E-09 -5.743267E-10
         5  16 -5.654073E+06 -8.017479E+05 -1.042354E+05 -2.162440E+06  7.193770E-09 -4.946996E-10
         5  17 -5.782506E+06 -6.433714E+05  5.114388E+03 -2.175901E+06  4.567555E-09 -5.202683E-10
         5  18 -5.852824E+06 -7.880991E+05  2.098577E+04 -2.297170E+06  3.305008E-09 -4.497419E-10
         5  19 -6.766910E+06 -1.258603E+06 -4.164962E+05 -2.501138E+06  1.789424E+05  5.451752E+04
         5  20 -6.678893E+06 -9.892775E+05 -2.419546E+05 -2.425796E+06  1.147224E+05  3.290390E+04
         5  21 -6.533162E+06 -1.023532E+06 -1.621783E+05 -2.458257E+06  4.931176E+04  1.447990E+04
         5  22 -6.210624E+06 -1.030186E+06 -2.603177E+05 -2.331857E+06  1.791302E+05  5.459487E+04
         5  23 -6.230789E+06 -8.163287E+05 -1.183968E+05 -2.300889E+06  1.156360E+05  3.324351E+04
         5  24 -6.193047E+06 -9.058158E+05 -7.058821E+04 -2.377732E+06  5.096396E+04  1.508905E+04
         5  25 -5.654038E+06 -8.017360E+05 -1.041687E+05 -2.162432E+06  1.793180E+05  5.467226E+04
         5  26 -5.782491E+06 -6.433665E+05  5.142329E+03 -2.175898E+06  1.165503E+05  3.358341E+04
         5  27 -5.852821E+06 -7.880980E+05  2.099149E+04 -2.297169E+06  5.261715E+04  1.569849E+04
         6   1 -6.030253E+06 -8.718580E+05 -1.386492E+04 -2.329625E+06 -3.804761E+04 -1.432409E+04
         6   2 -5.968207E+06 -7.338979E+05  4.861150E+04 -2.220513E+06 -2.212449E+04 -1.382467E+04
         6   3 -5.780027E+06 -7.578322E+05  9.376100E+04 -2.265136E+06 -6.346965E+03 -1.290630E+04
         6   4 -6.185236E+06 -9.274623E+05 -5.620302E+04 -2.368330E+06 -3.924867E+04 -1.476762E+04
         6   5 -6.247067E+06 -8.379779E+05 -2.757794E+04 -2.294579E+06 -2.322637E+04 -1.423219E+04
         6   6 -6.182794E+06 -9.104179E+05 -1.635775E+04 -2.374573E+06 -7.352852E+03 -1.327893E+04
         6   7 -6.340196E+06 -9.830661E+05 -9.854342E+04 -2.407026E+06 -4.044939E+04 -1.521104E+04
         6   8 -6.525853E+06 -9.420542E+05 -1.037746E+05 -2.368616E+06 -2.432771E+04 -1.463950E+04
         6   9 -6.585404E+06 -1.062994E+06 -1.264915E+05 -2.483945E+06 -8.358015E+03 -1.365128E+04
         6  10 -6.030255E+06 -8.718587E+05 -1.386807E+04 -2.329625E+06 -1.589483E-10 -1.090380E-09
         6  11 -5.968208E+06 -7.338983E+05  4.861021E+04 -2.220514E+06  4.583944E-09  4.382531E-09
         6  12 -5.780027E+06 -7.578324E+05  9.376061E+04 -2.265136E+06 -1.698265E-09  1.741752E-09
         6  13 -6.185237E+06 -9.274630E+05 -5.620637E+04 -2.368330E+06  1.325795E-10 -3.083730E-10
         6  14 -6.247068E+06 -8.379783E+05 -2.757934E+04 -2.294580E+06  3.550143E-09  2.320789E-09
         6  15 -6.182794E+06 -9.104181E+05 -1.635819E+04 -2.374573E+06 -2.417412E-09  1.015921E-11
         6  16 -6.340198E+06 -9.830668E+05 -9.854697E+04 -2.407026E+06  3.569474E-09  7.143933E-10
         6  17 -6.525854E+06 -9.420546E+05 -1.037762E+05 -2.368616E+06  5.397856E-09 -3.477738E-10
         6  18 -6.585405E+06 -1.062995E+06 -1.264920E+05 -2.483945E+06  3.501765E-09  7.259197E-10
         6  19 -6.030253E+06 -8.718580E+05 -1.386492E+04 -2.329625E+06  3.804761E+04  1.432409E+04
         6  20 -5.968207E+06 -7.338979E+05  4.861150E+04 -2.220513E+06  2.212449E+04  1.382467E+04
         6  21 -5.780027E+06 -7.578322E+05  9.376100E+04 -2.265136E+06  6.346965E+03  1.290630E+04
         6  22 -6.185236E+06 -9.274623E+05 -5.620302E+04 -2.368330E+06  3.924867E+04  1.476762E+04
         6  23 -6.247067E+06 -8.379779E+05 -2.757794E+04 -2.294579E+06  2.322637E+04  1.423219E+04
         6  24 -6.182794E+06 -9.104179E+05 -1.635775E+04 -2.374573E+06  7.352852E+03  1.327893E+04
         6  25 -6.340196E+06 -9.830661E+05 -9.854342E+04 -2.407026E+06  4.044939E+04  1.521104E+04
         6  26 -6.525853E+06 -9.420542E+05 -1.037746E+05 -2.368616E+06  2.432771E+04  1.463950E+04
         6  27 -6.585404E+06 -1.062994E+06 -1.264915E+05 -2.483945E+06  8.358015E+03  1.365128E+04
         7   1 -5.376834E+06 -5.962294E+05  2.105825E+05 -2.142265E+06 -2.719765E+03 -1.470103E+04
         7   2 -5.341941E+06 -5.179925E+05  2.372714E+05 -2.069072E+06  2.165508E+03 -1.749788E+04
         7   3 -5.215589E+06 -5.319584E+05  2.614004E+05 -2.096950E+06  6.273711E+03 -1.817206E+04
         7   4 -6.191652E+06 -9.019615E+05 -1.273349E+04 -2.360355E+06 -3.964454E+03 -1.516357E+04
         7   5 -6.237201E+06 -8.550887E+05 -7.815511E+03 -2.310065E+06  1.436510E+03 -1.777097E+04
         7   6 -6.191399E+06 -9.005372E+05 -5.871640E+03 -2.360858E+06  6.059377E+03 -1.825438E+04
         7   7 -7.005827E+06 -1.207658E+06 -2.361096E+05 -2.578186E+06 -5.207322E+03 -1.562542E+04
         7   8 -7.131685E+06 -1.192141E+06 -2.529754E+05 -2.550742E+06  7.086847E+02 -1.804362E+04
         7   9 -7.166289E+06 -1.269063E+06 -2.732310E+05 -2.624388E+06  5.845419E+03 -1.833657E+04
         7  10 -5.376834E+06 -5.962297E+05  2.105821E+05 -2.142265E+06 -5.057105E-09  3.889102E-10
         7  11 -5.341942E+06 -5.179928E+05  2.372708E+05 -2.069072E+06 -2.656541E-09  1.118266E-09
         7  12 -5.215590E+06 -5.319588E+05  2.613997E+05 -2.096950E+06 -2.898892E-09 -2.582103E-09
         7  13 -6.191652E+06 -9.019618E+05 -1.273395E+04 -2.360355E+06  4.305507E-09  1.865400E-10
         7  14 -6.237201E+06 -8.550891E+05 -7.816107E+03 -2.310064E+06  4.860416E-09  7.460060E-10
         7  15 -6.191399E+06 -9.005375E+05 -5.872333E+03 -2.360857E+06 -5.518099E-09  9.362135E-10
         7  16 -7.005827E+06 -1.207658E+06 -2.361101E+05 -2.578186E+06  3.840217E-09 -3.039340E-09
         7  17 -7.131685E+06 -1.192141E+06 -2.529760E+05 -2.550742E+06 -2.108778E-09  7.287826E-10
         7  18 -7.166289E+06 -1.269063E+06 -2.732317E+05 -2.624388E+06  3.395713E-10  1.313676E-09
         7  19 -5.376834E+06 -5.962294E+05  2.105825E+05 -2.142265E+06  2.719765E+03  1.470103E+04
         7  20 -5.341941E+06 -5.179925E+05  2.372714E+05 -2.069072E+06 -2.165508E+03  1.749788E+04
         7  21 -5.215589E+06 -5.319584E+05  2.614004E+05 -2.096950E+06 -6.273711E+03  1.817206E+04
         7  22 -6.191652E+06 -9.019615E+05 -1.273349E+04 -2.360355E+06  3.964454E+03  1.516357E+04
         7  23 -6.237201E+06 -8.550887E+05 -7.815511E+03 -2.310065E+06 -1.436510E+03  1.777097E+04
         7  24 -6.191399E+06 -9.005372E+05 -5.871640E+03 -2.360858E+06 -6.059377E+03  1.825438E+04
         7  25 -7.005827E+06 -1.207658E+06 -2.361096E+05 -2.578186E+06  5.207322E+03  1.562542E+04
         7  26 -7.131685E+06 -1.192141E+06 -2.529754E+05 -2.550742E+06 -7.086847E+02  1.804362E+04
         7  27 -7.166289E+06 -1.269063E+06 -2.732310E+05 -2.624388E+06 -5.845419E+03  1.833657E+04
         8   1 -5.063216E+06 -4.483438E+05  3.087373E+05 -2.029014E+06  8.073125E+03 -1.878639E+04
         8   2 -5.065130E+06 -4.429142E+05  3.077024E+05 -2.024602E+06  1.170697E+04 -1.917914E+04
         8   3 -5.056824E+06 -4.442970E+05  3.051872E+05 -2.022954E+06  1.430951E+04 -1.682791E+04
         8   4 -6.209560E+06 -8.814451E+05 -5.591155E+03 -2.339109E+06  7.359459E+03 -1.905645E+04
         8   5 -6.214738E+06 -8.789248E+05 -7.596565E+03 -2.337368E+06  1.166081E+04 -1.919962E+04
         8   6 -6.209842E+06 -8.833606E+05 -1.162020E+04 -2.338390E+06  1.492991E+04 -1.659637E+04
         8   7 -7.354632E+06 -1.314472E+06 -3.200395E+05 -2.648684E+06  6.647260E+03 -1.932596E+04
         8   8 -7.363068E+06 -1.314859E+06 -3.230167E+05 -2.649607E+06  1.161474E+04 -1.922008E+04
         8   9 -7.361576E+06 -1.322346E+06 -3.285503E+05 -2.653294E+06  1.554901E+04 -1.636531E+04
         8  10 -5.063216E+06 -4.483442E+05  3.087365E+05 -2.029014E+06 -7.454859E-09 -5.267318E-10
         8  11 -5.065130E+06 -4.429146E+05  3.077014E+05 -2.024602E+06  4.281614E-09  1.236976E-09
         8  12 -5.056824E+06 -4.442973E+05  3.051863E+05 -2.022954E+06  3.061837E-09  4.560940E-09
         8  13 -6.209560E+06 -8.814455E+05 -5.591937E+03 -2.339109E+06 -3.973803E-09  5.937535E-10
         8  14 -6.214738E+06 -8.789253E+05 -7.597510E+03 -2.337368E+06 -3.486721E-09 -6.147933E-10
         8  15 -6.209842E+06 -8.833609E+05 -1.162114E+04 -2.338390E+06  3.807687E-09  3.174586E-09
         8  16 -7.354632E+06 -1.314473E+06 -3.200403E+05 -2.648684E+06  9.394578E-11 -1.050754E-09
         8  17 -7.363068E+06 -1.314860E+06 -3.230176E+05 -2.649607E+06 -1.222234E-09 -3.587341E-10
         8  18 -7.361576E+06 -1.322346E+06 -3.285513E+05 -2.653294E+06 -1.522596E-09  1.581136E-09
         8  19 -5.063216E+06 -4.483438E+05  3.087373E+05 -2.029014E+06 -8.073125E+03  1.878639E+04
         8  20 -5.065130E+06 -4.429142E+05  3.077024E+05 -2.024602E+06 -1.170697E+04  1.917914E+04
         8  21 -5.056824E+06 -4.442970E+05  3.051872E+05 -2.022954E+06 -1.430951E+04  1.682791E+04
         8  22 -6.209560E+06 -8.814451E+05 -5.591155E+03 -2.339109E+06 -7.359459E+03  1.905645E+04
         8  23 -6.214738E+06 -8.789248E+05 -7.596565E+03 -2.337368E+06 -1.166081E+04  1.919962E+04
         8  24 -6.209842E+06 -8.833606E+05 -1.162020E+04 -2.338390E+06 -1.492991E+04  1.659637E+04
         8  25 -7.354632E+06 -1.314472E+06 -3.200395E+05 -2.648684E+06 -6.647260E+03  1.932596E+04
         8  26 -7.363068E+06 -1.314859E+06 -3.230167E+05 -2.649607E+06 -1.161474E+04  1.922008E+04
         8  27 -7.361576E+06 -1.322346E+06 -3.285503E+05 -2.653294E+06 -1.554901E+04  1.636531E+04
         9   1 -5.214621E+06 -4.759528E+05  2.639367E+05 -2.041073E+06  1.654394E+04 -1.490416E+04
         9   2 -5.247531E+06 -5.402788E+05  2.330300E+05 -2.106170E+06  2.847185E+04 -8.507997E+03
         9   3 -5.368608E+06 -5.431342E+05  1.877843E+05 -2.071391E+06  3.957922E+04  9.470658E+00
         9   4 -6.230667E+06 -8.617765E+05 -1.479757E+04 -2.317968E+06  1.667485E+04 -1.485700E+04
         9   5 -6.187675E+06 -8.999606E+05 -2.547262E+04 -2.365074E+06  2.910512E+04 -8.269180E+03
         9   6 -6.232982E+06 -8.767909E+05 -5.090534E+04 -2.312293E+06  4.071592E+04  4.420148E+02
         9   7 -7.245713E+06 -1.247540E+06 -2.936265E+05 -2.594451E+06  1.680551E+04 -1.480992E+04
         9   8 -7.126962E+06 -1.259588E+06 -2.840565E+05 -2.623620E+06  2.973730E+04 -8.030783E+03
         9   9 -7.096632E+06 -1.210398E+06 -2.896640E+05 -2.552888E+06  4.185083E+04  8.738588E+02
         9  10 -5.214621E+06 -4.759531E+05  2.639358E+05 -2.041073E+06 -1.603076E-09  4.215459E-09
         9  11 -5.247532E+06 -5.402791E+05  2.330284E+05 -2.106170E+06 -4.071554E-09  1.450284E-09
         9  12 -5.368609E+06 -5.431346E+05  1.877814E+05 -2.071391E+06 -5.906412E-09  3.049344E-09
         9  13 -6.230667E+06 -8.617768E+05 -1.479850E+04 -2.317968E+06 -4.380287E-09  4.299605E-09
         9  14 -6.187676E+06 -8.999609E+05 -2.547435E+04 -2.365074E+06  8.105117E-09  2.791477E-09
         9  15 -6.232984E+06 -8.767914E+05 -5.090848E+04 -2.312293E+06  2.121149E-09  2.093062E-09
         9  16 -7.245714E+06 -1.247541E+06 -2.936275E+05 -2.594450E+06  2.060131E-09  3.236512E-09
         9  17 -7.126963E+06 -1.259588E+06 -2.840583E+05 -2.623619E+06  5.644785E-09  6.225360E-09
         9  18 -7.096633E+06 -1.210399E+06 -2.896673E+05 -2.552888E+06 -3.557071E-09  1.320502E-09
         9  19 -5.214621E+06 -4.759528E+05  2.639367E+05 -2.041073E+06 -1.654394E+04  1.490416E+04
         9  20 -5.247531E+06 -5.402788E+05  2.330300E+05 -2.106170E+06 -2.847185E+04  8.507997E+03
         9  21 -5.368608E+06 -5.431342E+05  1.877843E+05 -2.071391E+06 -3.957922E+04 -9.470658E+00
         9  22 -6.230667E+06 -8.617765E+05 -1.479757E+04 -2.317968E+06 -1.667485E+04  1.485700E+04
         9  23 -6.187675E+06 -8.999606E+05 -2.547262E+04 -2.365074E+06 -2.910512E+04  8.269180E+03
         9  24 -6.232982E+06 -8.767909E+05 -5.090534E+04 -2.312293E+06 -4.071592E+04 -4.420148E+02
         9  25 -7.245713E+06 -1.247540E+06 -2.936265E+05 -2.594451E+06 -1.680551E+04  1.480992E+04
         9  26 -7.126962E+06 -1.259588E+06 -2.840565E+05 -2.623620E+06 -2.973730E+04  8.030783E+03
         9  27 -7.096632E+06 -1.210398E+06 -2.896640E+05 -2.552888E+06 -4.185083E+04 -8.738588E+02
        10   1 -5.768162E+06 -6.711012E+05  6.654457E+04 -2.185190E+06  4.799067E+04  6.423130E+03
        10   2 -5.806516E+06 -7.539604E+05 -1.006849E+04 -2.283683E+06  1.033609E+05  3.247550E+04
        10   3 -6.049392E+06 -8.560553E+05 -1.724621E+05 -2.188075E+06  1.588410E+05  5.818414E+04
        10   4 -6.251577E+06 -8.471902E+05 -6.432488E+04 -2.309437E+06  4.905179E+04  6.829339E+03
        10   5 -6.157747E+06 -8.932147E+05 -1.076745E+05 -2.385260E+06  1.043080E+05  3.283720E+04
        10   6 -6.268457E+06 -9.584950E+05 -2.367388E+05 -2.266966E+06  1.596876E+05  5.850322E+04
        10   7 -6.734766E+06 -1.023271E+06 -1.952154E+05 -2.433597E+06  5.011198E+04  7.235231E+03
        10   8 -6.508858E+06 -1.032459E+06 -2.052922E+05 -2.486784E+06  1.052546E+05  3.319864E+04
        10   9 -6.487474E+06 -1.060925E+06 -3.010203E+05 -2.345830E+06  1.605340E+05  5.882210E+04
        10  10 -5.768165E+06 -6.711019E+05  6.654012E+04 -2.185190E+06  3.988227E-09  1.133715E-09
        10  11 -5.806528E+06 -7.539644E+05 -1.009079E+04 -2.283686E+06  7.815982E-10 -5.773159E-09
        10  12 -6.049421E+06 -8.560658E+05 -1.725165E+05 -2.188082E+06 -1.113082E-08 -1.105927E-09
        10  13 -6.251580E+06 -8.471909E+05 -6.432954E+04 -2.309437E+06  4.198640E-09 -3.750935E-09
        10  14 -6.157759E+06 -8.932189E+05 -1.076972E+05 -2.385263E+06  7.533308E-09 -5.342003E-09
        10  15 -6.268486E+06 -9.585057E+05 -2.367938E+05 -2.266974E+06 -7.063954E-09 -1.369086E-09
        10  16 -6.734769E+06 -1.023271E+06 -1.952202E+05 -2.433598E+06 -8.231187E-09 -6.241454E-09
        10  17 -6.508870E+06 -1.032463E+06 -2.053154E+05 -2.486787E+06  7.279467E-09 -1.633036E-11
        10  18 -6.487503E+06 -1.060935E+06 -3.010759E+05 -2.345838E+06  3.206445E-09  2.700905E-09
        10  19 -5.768162E+06 -6.711012E+05  6.654457E+04 -2.185190E+06 -4.799067E+04 -6.423130E+03
        10  20 -5.806516E+06 -7.539604E+05 -1.006849E+04 -2.283683E+06 -1.033609E+05 -3.247550E+04
        10  21 -6.049392E+06 -8.560553E+05 -1.724621E+05 -2.188075E+06 -1.588410E+05 -5.818414E+04
        10  22 -6.251577E+06 -8.471902E+05 -6.432488E+04 -2.309437E+06 -4.905179E+04 -6.829339E+03
        10  23 -6.157747E+06 -8.932147E+05 -1.076745E+05 -2.385260E+06 -1.043080E+05 -3.283720E+04
        10  24 -6.268457E+06 -9.584950E+05 -2.367388E+05 -2.266966E+06 -1.596876E+05 -5.850322E+04
        10  25 -6.734766E+06 -1.023271E+06 -1.952154E+05 -2.433597E+06 -5.011198E+04 -7.235231E+03
        10  26 -6.508858E+06 -1.032459E+06 -2.052922E+05 -2.486784E+06 -1.052546E+05 -3.319864E+04
        10  27 -6.487474E+06 -1.060925E+06 -3.010203E+05 -2.345830E+06 -1.605340E+05 -5.882210E+04
        11   1 -6.509339E+06 -9.736012E+05 -3.577614E+05 -2.462307E+06  1.979322E+05  7.850096E+04
        11   2 -6.466088E+06 -8.601248E+05 -5.612583E+05 -2.487134E+06  4.507041E+05  1.818621E+05
        11   3 -7.013499E+06 -1.714824E+06 -1.259999E+06 -2.068284E+06  7.074760E+05  2.746620E+05
        11   4 -6.303695E+06 -8.302648E+05 -2.878957E+05 -2.340994E+06  2.006594E+05  7.957325E+04
        11   5 -6.067943E+06 -7.421994E+05 -4.587680E+05 -2.412075E+06  4.509992E+05  1.819427E+05
        11   6 -6.422105E+06 -1.621392E+06 -1.122645E+06 -2.039504E+06  7.054279E+05  2.736865E+05
        11   7 -6.097999E+06 -6.868861E+05 -2.180334E+05 -2.219635E+06  2.033876E+05  8.064662E+04
        11   8 -5.669643E+06 -6.242772E+05 -3.562900E+05 -2.336980E+06  4.512945E+05  1.820234E+05
        11   9 -5.830340E+06 -1.527955E+06 -9.853016E+05 -2.010731E+06  7.033774E+05  2.727114E+05
        11  10 -6.509383E+06 -9.736185E+05 -3.578476E+05 -2.462320E+06 -1.396903E-09  4.558051E-09
        11  11 -6.466317E+06 -8.602160E+05 -5.617076E+05 -2.487201E+06 -2.010735E-09  7.209746E-09
        11  12 -7.014063E+06 -1.715043E+06 -1.261095E+06 -2.068442E+06 -9.731485E-10  7.720035E-10
        11  13 -6.303740E+06 -8.302826E+05 -2.879843E+05 -2.341007E+06 -3.663105E-09  3.799256E-09
        11  14 -6.068172E+06 -7.422906E+05 -4.592176E+05 -2.412142E+06  2.177988E-09  6.964891E-10
        11  15 -6.422664E+06 -1.621608E+06 -1.123733E+06 -2.039660E+06 -5.023735E-09  2.779547E-09
        11  16 -6.098046E+06 -6.869044E+05 -2.181243E+05 -2.219648E+06 -1.489398E-09  3.501971E-09
        11  17 -5.669872E+06 -6.243685E+05 -3.567399E+05 -2.337046E+06  2.811955E-10  2.819487E-09
        11  18 -5.830896E+06 -1.528170E+06 -9.863825E+05 -2.010887E+06 -4.052599E-11 -8.402513E-10
        11  19 -6.509339E+06 -9.736012E+05 -3.577614E+05 -2.462307E+06 -1.979322E+05 -7.850096E+04
        11  20 -6.466088E+06 -8.601248E+05 -5.612583E+05 -2.487134E+06 -4.507041E+05 -1.818621E+05
        11  21 -7.013499E+06 -1.714824E+06 -1.259999E+06 -2.068284E+06 -7.074760E+05 -2.746620E+05
        11  22 -6.303695E+06 -8.302648E+05 -2.878957E+05 -2.340994E+06 -2.006594E+05 -7.957325E+04
        11  23 -6.067943E+06 -7.421994E+05 -4.587680E+05 -2.412075E+06 -4.509992E+05 -1.819427E+05
        11  24 -6.422105E+06 -1.621392E+06 -1.122645E+06 -2.039504E+06 -7.054279E+05 -2.736865E+05
        11  25 -6.097999E+06 -6.868861E+05 -2.180334E+05 -2.219635E+06 -2.033876E+05 -8.064662E+04
        11  26 -5.669643E+06 -6.242772E+05 -3.562900E+05 -2.336980E+06 -4.512945E+05 -1.820234E+05
        11  27 -5.830340E+06 -1.527955E+06 -9.853016E+05 -2.010731E+06 -7.033774E+05 -2.727114E+05
        12   1  9.860853E+04 -2.528907E+05  1.048769E+05 -2.792550E+03  1.804733E+03 -6.476823E+02
        12   2  9.633157E+04 -2.603760E+05  1.045157E+05  2.629054E+03  1.913077E+03 -4.438342E+03
        12   3  1.012195E+05 -2.573184E+05  1.100684E+05 -3.499919E+03  1.570622E+03 -8.230494E+03
        12   4  5.047793E+02 -6.451853E+05  6.841213E+03 -2.571332E+03  1.804816E+03 -6.712833E+02
        12   5 -1.219887E+03 -6.504580E+05  7.037100E+03  3.211999E+03  1.913129E+03 -4.427421E+03
        12   6  4.214487E+03 -6.451955E+05  1.312451E+04 -2.555684E+03  1.570514E+03 -8.185064E+03
        12   7 -9.761060E+04 -1.037340E+06 -9.120610E+04 -2.350237E+03  1.804899E+03 -6.948693E+02
        12   8 -9.878284E+04 -1.040402E+06 -9.045298E+04  3.794650E+03  1.913181E+03 -4.416506E+03
        12   9 -9.280187E+04 -1.032936E+06 -8.383077E+04 -1.611911E+03  1.570405E+03 -8.139661E+03
        12  10  9.860853E+04 -2.528907E+05  1.048769E+05 -2.792549E+03 -1.095921E-09 -1.400528E-10
        12  11  9.633156E+04 -2.603760E+05  1.045156E+05  2.629061E+03 -6.632580E-09 -7.472533E-10
        12  12  1.012195E+05 -2.573185E+05  1.100683E+05 -3.499909E+03  5.840905E-09  1.192946E-09
        12  13  5.047757E+02 -6.451853E+05  6.841206E+03 -2.571331E+03  2.265666E-09 -1.229524E-10
        12  14 -1.219896E+03 -6.504581E+05  7.037056E+03  3.212006E+03  2.033450E-09 -3.531698E-12
        12  15  4.214466E+03 -6.451955E+05  1.312438E+04 -2.555674E+03  7.519178E-09  7.794733E-10
        12  16 -9.761060E+04 -1.037340E+06 -9.120610E+04 -2.350236E+03  9.665757E-09  1.293712E-10
        12  17 -9.878285E+04 -1.040402E+06 -9.045302E+04  3.794657E+03  3.525629E-09  4.684046E-10
        12  18 -9.280189E+04 -1.032936E+06 -8.383090E+04 -1.611900E+03  6.449510E-09 -1.202457E-09
        12  19  9.860853E+04 -2.528907E+05  1.048769E+05 -2.792550E+03 -1.804733E+03  6.476823E+02
        12  20  9.633157E+04 -2.603760E+05  1.045157E+05  2.629054E+03 -1.913077E+03  4.438342E+03
        12  21  1.012195E+05 -2.573184E+05  1.100684E+05 -3.499919E+03 -1.570622E+03  8.230494E+03
        12  22  5.047793E+02 -6.451853E+05  6.841213E+03 -2.571332E+03 -1.804816E+03  6.712833E+02
        12  23 -1.219887E+03 -6.504580E+05  7.037100E+03  3.211999E+03 -1.913129E+03  4.427421E+03
        12  24  4.214487E+03 -6.451955E+05  1.312451E+04 -2.555684E+03 -1.570514E+03  8.185064E+03
        12  25 -9.761060E+04 -1.037340E+06 -9.120610E+04 -2.350237E+03 -1.804899E+03  6.948693E+02
        12  26 -9.878284E+04 -1.040402E+06 -9.045298E+04  3.794650E+03 -1.913181E+03  4.416506E+03
        12  27 -9.280187E+04 -1.032936E+06 -8.383077E+04 -1.611911E+03 -1.570405E+03  8.139661E+03
        13   1  5.691734E+04 -4.134739E+05  7.321053E+04 -8.038939E+03  1.363063E+03 -1.086065E+04
        13   2  5.018444E+04 -4.258273E+05  8.011746E+04  7.623165E+03  1.213351E+03 -2.342607E+04
        13   3  8.061948E+04 -4.248780E+05  1.049765E+05 -6.313043E+03  9.088359E+02 -3.599297E+04
        13   4 -8.841155E+02 -6.445502E+05  1.546791E+04 -6.632105E+03  1.363028E+03 -1.084863E+04
        13   5 -6.185120E+03 -6.512046E+05  2.379110E+04  8.251531E+03  1.213239E+03 -2.339893E+04
        13   6  2.568589E+04 -6.445559E+05  5.006019E+04 -6.463797E+03  9.086505E+02 -3.595083E+04
        13   7 -5.868960E+04 -8.755781E+05 -4.227874E+04 -5.225741E+03  1.362993E+03 -1.083662E+04
        13   8 -6.255852E+04 -8.765359E+05 -3.253909E+04  8.879731E+03  1.213126E+03 -2.337180E+04
        13   9 -2.925134E+04 -8.641900E+05 -4.859803E+03 -6.614427E+03  9.084651E+02 -3.590870E+04
        13  10  5.691731E+04 -4.134740E+05  7.321030E+04 -8.038927E+03  1.896378E-09 -7.706665E-10
        13  11  5.018430E+04 -4.258279E+05  8.011643E+04  7.623188E+03  4.603790E-09 -3.119569E-09
        13  12  8.061913E+04 -4.248794E+05  1.049741E+05 -6.313017E+03 -1.295757E-09  1.726594E-09
        13  13 -8.841491E+02 -6.445503E+05  1.546768E+04 -6.632093E+03  8.836038E-09 -1.219516E-09
        13  14 -6.185269E+03 -6.512052E+05  2.379007E+04  8.251554E+03 -1.265520E-09  3.090698E-11
        13  15  2.568555E+04 -6.445573E+05  5.005776E+04 -6.463770E+03  1.435485E-09  1.162016E-09
        13  16 -5.868964E+04 -8.755782E+05 -4.227897E+04 -5.225729E+03  6.471026E-09  8.795836E-10
        13  17 -6.255867E+04 -8.765365E+05 -3.254012E+04  8.879754E+03  1.254341E-09  2.459947E-09
        13  18 -2.925169E+04 -8.641914E+05 -4.862231E+03 -6.614400E+03 -7.902128E-10 -1.839692E-09
        13  19  5.691734E+04 -4.134739E+05  7.321053E+04 -8.038939E+03 -1.363063E+03  1.086065E+04
        13  20  5.018444E+04 -4.258273E+05  8.011746E+04  7.623165E+03 -1.213351E+03  2.342607E+04
        13  21  8.061948E+04 -4.248780E+05  1.049765E+05 -6.313043E+03 -9.088359E+02  3.599297E+04
        13  22 -8.841155E+02 -6.445502E+05  1.546791E+04 -6.632105E+03 -1.363028E+03  1.084863E+04
        13  23 -6.185120E+03 -6.512046E+05  2.379110E+04  8.251531E+03 -1.213239E+03  2.339893E+04
        13  24  2.568589E+04 -6.445559E+05  5.006019E+04 -6.463797E+03 -9.086505E+02  3.595083E+04
        13  25 -5.868960E+04 -8.755781E+05 -4.227874E+04 -5.225741E+03 -1.362993E+03  1.083662E+04
        13  26 -6.255852E+04 -8.765359E+05 -3.253909E+04  8.879731E+03 -1.213126E+03  2.337180E+04
        13  27 -2.925134E+04 -8.641900E+05 -4.859803E+03 -6.614427E+03 -9.084651E+02  3.590870E+04
        14   1 -1.202846E+04 -6.606802E+05  5.320843E+04 -1.194873E+04  5.620545E+02 -4.604334E+04
        14   2 -4.786947E+04 -6.999675E+05  8.257362E+04  1.195277E+04  3.576721E+02 -9.586360E+04
        14   3  1.530330E+05 -6.740564E+05  2.034955E+05  1.462794E+03  7.738253E+02 -1.456777E+05
        14   4 -5.173643E+03 -6.330239E+05  6.012597E+04 -8.013551E+03  5.613574E+02 -4.598416E+04
        14   5 -3.923547E+04 -6.655880E+05  9.116929E+04  9.718601E+03  3.579147E+02 -9.585161E+04
        14   6  1.634470E+05 -6.329500E+05  2.137979E+05 -6.940723E+03  7.759814E+02 -1.457134E+05
        14   7  1.681179E+03 -6.053668E+05  6.704346E+04 -4.078198E+03  5.606611E+02 -4.592498E+04
        14   8 -3.060154E+04 -6.312074E+05  9.976487E+04  7.484311E+03  3.581571E+02 -9.583962E+04
        14   9  1.738611E+05 -5.918418E+05  2.241003E+05 -1.534480E+04  7.781384E+02 -1.457491E+05
        14  10 -1.202903E+04 -6.606825E+05  5.320444E+04 -1.194871E+04 -2.424882E-09 -4.348551E-11
        14  11 -4.787194E+04 -6.999774E+05  8.255633E+04  1.195280E+04 -3.265667E-09 -3.568798E-09
        14  12  1.530273E+05 -6.740792E+05  2.034555E+05  1.462885E+03  6.266405E-10  1.149942E-09
        14  13 -5.174212E+03 -6.330261E+05  6.012199E+04 -8.013530E+03 -6.413573E-10 -1.858684E-09
        14  14 -3.923794E+04 -6.655979E+05  9.115200E+04  9.718629E+03  5.286837E-10 -1.898327E-11
        14  15  1.634413E+05 -6.329728E+05  2.137580E+05 -6.940632E+03  1.614153E-09  1.282696E-09
        14  16  1.680612E+03 -6.053691E+05  6.703949E+04 -4.078177E+03  3.676804E-10  9.894292E-11
        14  17 -3.060401E+04 -6.312172E+05  9.974759E+04  7.484339E+03 -2.845294E-09  2.606024E-09
        14  18  1.738554E+05 -5.918647E+05  2.240604E+05 -1.534470E+04  1.449373E-09 -1.358088E-09
        14  19 -1.202846E+04 -6.606802E+05  5.320843E+04 -1.194873E+04 -5.620545E+02  4.604334E+04
        14  20 -4.786947E+04 -6.999675E+05  8.257362E+04  1.195277E+04 -3.576721E+02  9.586360E+04
        14  21  1.530330E+05 -6.740564E+05  2.034955E+05  1.462794E+03 -7.738253E+02  1.456777E+05
        14  22 -5.173643E+03 -6.330239E+05  6.012597E+04 -8.013551E+03 -5.613574E+02  4.598416E+04
        14  23 -3.923547E+04 -6.655880E+05  9.116929E+04  9.718601E+03 -3.579147E+02  9.585161E+04
        14  24  1.634470E+05 -6.329500E+05  2.137979E+05 -6.940723E+03 -7.759814E+02  1.457134E+05
        14  25  1.681179E+03 -6.053668E+05  6.704346E+04 -4.078198E+03 -5.606611E+02  4.592498E+04
        14  26 -3.060154E+04 -6.312074E+05  9.976487E+04  7.484311E+03 -3.581571E+02  9.583962E+04
        14  27  1.738611E+05 -5.918418E+05  2.241003E+05 -1.534480E+04 -7.781384E+02  1.457491E+05
        15   1  2.431981E+05 -2.859340E+05  2.323400E+05 -3.789465E+02  3.623672E+04 -1.957066E+01
        15   2  2.426427E+05 -2.883762E+05  2.318351E+05 -1.154252E+02  3.617831E+04 -2.550777E+02
        15   3  2.422830E+05 -2.899731E+05  2.316970E+05 -1.136751E+03  3.597187E+04 -4.908891E+02
        15   4 -1.629355E+02 -1.269895E+06  3.029074E+02 -2.855752E+02  3.624061E+04 -2.887385E+01
        15   5 -2.163283E+02 -1.270309E+06  2.820954E+02  3.569897E+02  3.618214E+04 -1.753350E+02
        15   6 -8.974502E+01 -1.269894E+06  5.662600E+02 -2.854059E+02  3.597552E+04 -3.220998E+02
        15   7 -2.435934E+05 -2.252964E+06 -2.318010E+05 -1.923204E+02  3.624450E+04 -3.816234E+01
        15   8 -2.431444E+05 -2.251354E+06 -2.313375E+05  8.287939E+02  3.618597E+04 -9.571747E+01
        15   9 -2.425313E+05 -2.248931E+06 -2.306308E+05  5.648373E+02  3.597918E+04 -1.535753E+02
        15  10  2.431967E+05 -2.859344E+05  2.323375E+05 -3.789459E+02 -2.503273E-09  7.865428E-09
        15  11  2.426413E+05 -2.883765E+05  2.318326E+05 -1.154178E+02  2.291153E-09  1.245850E-08
        15  12  2.422816E+05 -2.899734E+05  2.316945E+05 -1.136737E+03  4.094251E-11  9.330311E-09
        15  13 -1.643450E+02 -1.269896E+06  3.004408E+02 -2.855743E+02  7.830160E-10  1.886456E-10
        15  14 -2.177333E+02 -1.270310E+06  2.796367E+02  3.569948E+02  8.150826E-11  6.123493E-12
        15  15 -9.113400E+01 -1.269894E+06  5.638291E+02 -2.853966E+02 -7.948482E-09  7.336571E-10
        15  16 -2.435948E+05 -2.252965E+06 -2.318035E+05 -1.923193E+02 -3.621654E-10 -7.805371E-09
        15  17 -2.431458E+05 -2.251354E+06 -2.313400E+05  8.287967E+02 -3.828285E-09 -1.296596E-08
        15  18 -2.425327E+05 -2.248931E+06 -2.306332E+05  5.648417E+02 -1.121954E-09 -9.136925E-09
        15  19  2.431981E+05 -2.859340E+05  2.323400E+05 -3.789465E+02 -3.623672E+04  1.957066E+01
        15  20  2.426427E+05 -2.883762E+05  2.318351E+05 -1.154252E+02 -3.617831E+04  2.550777E+02
        15  21  2.422830E+05 -2.899731E+05  2.316970E+05 -1.136751E+03 -3.597187E+04  4.908891E+02
        15  22 -1.629355E+02 -1.269895E+06  3.029074E+02 -2.855752E+02 -3.624061E+04  2.887385E+01
        15  23 -2.163283E+02 -1.270309E+06  2.820954E+02  3.569897E+02 -3.618214E+04  1.753350E+02
        15  24 -8.974502E+01 -1.269894E+06  5.662600E+02 -2.854059E+02 -3.597552E+04  3.220998E+02
        15  25 -2.435934E+05 -2.252964E+06 -2.318010E+05 -1.923204E+02 -3.624450E+04  3.816234E+01
        15  26 -2.431444E+05 -2.251354E+06 -2.313375E+05  8.287939E+02 -3.618597E+04  9.571747E+01
        15  27 -2.425313E+05 -2.248931E+06 -2.306308E+05  5.648373E+02 -3.597918E+04  1.535753E+02
        16   1  2.410332E+05 -2.944550E+05  2.306711E+05 -1.996140E+03  3.603520E+04 -2.423390E+02
        16   2  2.394443E+05 -3.010855E+05  2.296390E+05 -2.659494E+02  3.569024E+04 -1.595824E+03
        16   3  2.390212E+05 -3.065186E+05  2.299365E+05 -2.371959E+03  3.400100E+04 -2.953091E+03
        16   4 -2.015982E+02 -1.269841E+06  6.989554E+02 -8.530097E+02  3.603932E+04 -4.368739E+02
        16   5 -2.923741E+02 -1.270368E+06  1.057106E+03  1.066229E+03  3.569284E+04 -9.830625E+02
        16   6  6.428459E+02 -1.269838E+06  2.184486E+03 -8.511068E+02  3.400114E+04 -1.533046E+03
        16   7 -2.415046E+05 -2.244351E+06 -2.293388E+05  2.886244E+02  3.604343E+04 -6.311042E+02
        16   8 -2.400963E+05 -2.238785E+06 -2.275897E+05  2.396725E+03  3.569544E+04 -3.712513E+02
        16   9 -2.378021E+05 -2.232303E+06 -2.256319E+05  6.678823E+02  3.400128E+04 -1.151918E+02
        16  10  2.410318E+05 -2.944553E+05  2.306686E+05 -1.996133E+03 -2.888963E-09 -1.299483E-08
        16  11  2.394429E+05 -3.010858E+05  2.296366E+05 -2.659035E+02  3.100245E-09 -7.993708E-09
        16  12  2.390199E+05 -3.065189E+05  2.299343E+05 -2.371878E+03  6.455536E-09 -6.256331E-10
        16  13 -2.029921E+02 -1.269842E+06  6.965158E+02 -8.529970E+02 -9.043419E-09  1.529753E-09
        16  14 -2.937416E+02 -1.270368E+06  1.054712E+03  1.066257E+03  2.686106E-09  7.247683E-11
        16  15  6.416046E+02 -1.269838E+06  2.182310E+03 -8.510648E+02  6.901095E-09  1.403643E-09
        16  16 -2.415060E+05 -2.244351E+06 -2.293413E+05  2.886427E+02  2.603392E-09  1.310337E-08
        16  17 -2.400977E+05 -2.238785E+06 -2.275921E+05  2.396736E+03  1.182301E-10  6.507316E-09
        16  18 -2.378033E+05 -2.232303E+06 -2.256340E+05  6.678854E+02  4.222421E-09  8.693311E-10
        16  19  2.410332E+05 -2.944550E+05  2.306711E+05 -1.996140E+03 -3.603520E+04  2.423390E+02
        16  20  2.394443E+05 -3.010855E+05  2.296390E+05 -2.659494E+02 -3.569024E+04  1.595824E+03
        16  21  2.390212E+05 -3.065186E+05  2.299365E+05 -2.371959E+03 -3.400100E+04  2.953091E+03
        16  22 -2.015982E+02 -1.269841E+06  6.989554E+02 -8.530097E+02 -3.603932E+04  4.368739E+02
        16  23 -2.923741E+02 -1.270368E+06  1.057106E+03  1.066229E+03 -3.569284E+04  9.830625E+02
        16  24  6.428459E+02 -1.269838E+06  2.184486E+03 -8.511068E+02 -3.400114E+04  1.533046E+03
        16  25 -2.415046E+05 -2.244351E+06 -2.293388E+05  2.886244E+02 -3.604343E+04  6.311042E+02
        16  26 -2.400963E+05 -2.238785E+06 -2.275897E+05  2.396725E+03 -3.569544E+04  3.712513E+02
        16  27 -2.378021E+05 -2.232303E+06 -2.256319E+05  6.678823E+02 -3.400128E+04  1.151918E+02
        17   1  2.353743E+05 -3.147851E+05  2.272021E+05 -4.672076E+03  3.657315E+04  3.077831E+03
        17   2  2.322878E+05 -3.273923E+05  2.268998E+05  6.300222E+02  3.436281E+04 -1.194415E+04
        17   3  2.415870E+05 -3.342922E+05  2.396154E+05 -9.732468E+02  1.092629E+04 -2.704560E+04
        17   4 -6.090347E+02 -1.269292E+06  2.662457E+03 -1.543426E+03  3.659049E+04 -1.935481E+03
        17   5 -1.142378E+03 -1.271036E+06  4.197466E+03  1.925254E+03  3.434185E+04 -4.219933E+03
        17   6  8.505580E+03 -1.269282E+06  9.903300E+03 -1.512423E+03  1.085272E+04 -6.584161E+03
        17   7 -2.366574E+05 -2.222959E+06 -2.219398E+05  1.580944E+03  3.660780E+04 -6.941124E+03
        17   8 -2.346364E+05 -2.213859E+06 -2.185662E+05  3.219148E+03  3.432092E+04  3.492610E+03
        17   9 -2.246406E+05 -2.203473E+06 -2.198716E+05 -2.050061E+03  1.077907E+04  1.384650E+04
        17  10  2.353729E+05 -3.147855E+05  2.271996E+05 -4.672167E+03  2.142114E-10  4.302642E-09
        17  11  2.322865E+05 -3.273928E+05  2.268973E+05  6.303526E+02  4.076557E-09 -7.986618E-10
        17  12  2.415867E+05 -3.342930E+05  2.396138E+05 -9.730088E+02 -1.023119E-08 -8.401515E-09
        17  13 -6.104725E+02 -1.269292E+06  2.659936E+03 -1.543369E+03  3.503598E-09  2.980414E-09
        17  14 -1.143648E+03 -1.271036E+06  4.195218E+03  1.925371E+03  1.064967E-09  5.065424E-11
        17  15  8.505442E+03 -1.269282E+06  9.902997E+03 -1.512365E+03 -1.142419E-08  2.301858E-09
        17  16 -2.366589E+05 -2.222960E+06 -2.219424E+05  1.581149E+03  1.103045E-09 -4.046912E-09
        17  17 -2.346376E+05 -2.213859E+06 -2.185684E+05  3.219051E+03 -2.953761E-09 -1.535959E-09
        17  18 -2.246408E+05 -2.203474E+06 -2.198722E+05 -2.050182E+03 -1.055031E-08  8.768053E-09
        17  19  2.353743E+05 -3.147851E+05  2.272021E+05 -4.672076E+03 -3.657315E+04 -3.077831E+03
        17  20  2.322878E+05 -3.273923E+05  2.268998E+05  6.300222E+02 -3.436281E+04  1.194415E+04
        17  21  2.415870E+05 -3.342922E+05  2.396154E+05 -9.732468E+02 -1.092629E+04  2.704560E+04
        17  22 -6.090347E+02 -1.269292E+06  2.662457E+03 -1.543426E+03 -3.659049E+04  1.935481E+03
        17  23 -1.142378E+03 -1.271036E+06  4.197466E+03  1.925254E+03 -3.434185E+04  4.219933E+03
        17  24  8.505580E+03 -1.269282E+06  9.903300E+03 -1.512423E+03 -1.085272E+04  6.584161E+03
        17  25 -2.366574E+05 -2.222959E+06 -2.219398E+05  1.580944E+03 -3.660780E+04  6.941124E+03
        17  26 -2.346364E+05 -2.213859E+06 -2.185662E+05  3.219148E+03 -3.432092E+04 -3.492610E+03
        17  27 -2.246406E+05 -2.203473E+06 -2.198716E+05 -2.050061E+03 -1.077907E+04 -1.384650E+04
        18   1  7.206764E+04  8.003283E+05  4.048142E+04 -2.688634E+00  2.529566E+04  6.227006E-03
        18   2  7.207114E+04  8.003443E+05  4.048741E+04 -1.552898E+01  2.529646E+04 -5.045436E+00
        18   3  7.207539E+04  8.003667E+05  4.049863E+04 -2.644980E+01  2.529805E+04 -1.009695E+01
        18   4 -2.095301E+01  4.801140E+05  1.220207E+01  4.267393E-01  2.529704E+04 -9.780215E-01
        18   5 -2.203559E+01  4.801106E+05  1.461448E+01 -5.329125E-01  2.529784E+04 -7.913872E+00
        18   6 -2.203853E+01  4.801140E+05  2.356872E+01  4.274321E-01  2.529943E+04 -1.484961E+01
        18   7 -7.211372E+04  1.600048E+05 -4.045734E+04  3.540728E+00  2.529842E+04 -1.961788E+00
        18   8 -7.211938E+04  1.599821E+05 -4.045850E+04  1.445638E+01  2.529922E+04 -1.078090E+01
        18   9 -7.212364E+04  1.599665E+05 -4.045182E+04  2.729249E+01  2.530081E+04 -1.959993E+01
        18  10  7.206695E+04  8.003281E+05  4.048021E+04 -2.688635E+00  1.046364E-09 -6.787279E-08
        18  11  7.207045E+04  8.003441E+05  4.048620E+04 -1.552888E+01  1.027255E-09 -1.271109E-09
        18  12  7.207470E+04  8.003665E+05  4.049743E+04 -2.644959E+01 -4.689566E-09  6.558097E-08
        18  13 -2.164035E+01  4.801138E+05  1.099923E+01  4.267592E-01 -1.170218E-09  1.138963E-11
        18  14 -2.272297E+01  4.801105E+05  1.341156E+01 -5.327513E-01 -7.040898E-09 -1.147258E-10
        18  15 -2.272600E+01  4.801138E+05  2.236565E+01  4.277346E-01 -3.747430E-09  1.140423E-10
        18  16 -7.211441E+04  1.600046E+05 -4.045854E+04  3.540768E+00 -4.086325E-11  6.778088E-08
        18  17 -7.212007E+04  1.599820E+05 -4.045971E+04  1.445660E+01  9.167556E-10  1.212872E-09
        18  18 -7.212433E+04  1.599663E+05 -4.045302E+04  2.729289E+01  2.511656E-09 -6.554569E-08
        18  19  7.206764E+04  8.003283E+05  4.048142E+04 -2.688634E+00 -2.529566E+04 -6.227141E-03
        18  20  7.207114E+04  8.003443E+05  4.048741E+04 -1.552898E+01 -2.529646E+04  5.045436E+00
        18  21  7.207539E+04  8.003667E+05  4.049863E+04 -2.644980E+01 -2.529805E+04  1.009695E+01
        18  22 -2.095301E+01  4.801140E+05  1.220207E+01  4.267394E-01 -2.529704E+04  9.780215E-01
        18  23 -2.203559E+01  4.801106E+05  1.461448E+01 -5.329125E-01 -2.529784E+04  7.913872E+00
        18  24 -2.203853E+01  4.801140E+05  2.356872E+01  4.274319E-01 -2.529943E+04  1.484961E+01
        18  25 -7.211372E+04  1.600048E+05 -4.045734E+04  3.540728E+00 -2.529842E+04  1.961788E+00
        18  26 -7.211938E+04  1.599821E+05 -4.045850E+04  1.445638E+01 -2.529922E+04  1.078090E+01
        18  27 -7.212364E+04  1.599665E+05 -4.045182E+04  2.729249E+01 -2.530081E+04  1.959993E+01
        19   1  7.208029E+04  8.003908E+05  4.050901E+04 -3.160803E+01  2.529950E+04 -1.290996E+01
        19   2  7.209113E+04  8.004433E+05  4.054049E+04 -5.039794E+01  2.530175E+04 -4.027261E+01
        19   3  7.210396E+04  8.005053E+05  4.059202E+04 -6.013342E+01  2.530299E+04 -6.763492E+01
        19   4 -2.258039E+01  4.801145E+05  3.032372E+01  2.013014E+00  2.530088E+04 -1.949053E+01
        19   5 -2.529818E+01  4.801099E+05  5.104669E+01 -2.514217E+00  2.530313E+04 -4.443187E+01
        19   6 -2.644418E+01  4.801145E+05  9.015178E+01  2.013249E+00  2.530437E+04 -6.937286E+01
        19   7 -7.212963E+04  1.599434E+05 -4.044869E+04  3.561884E+01  2.530226E+04 -2.606788E+01
        19   8 -7.214590E+04  1.598818E+05 -4.043872E+04  4.534760E+01  2.530451E+04 -4.858909E+01
        19   9 -7.216103E+04  1.598290E+05 -4.041204E+04  6.413132E+01  2.530575E+04 -7.110994E+01
        19  10  7.207960E+04  8.003906E+05  4.050781E+04 -3.160777E+01 -6.111585E-09  6.837202E-08
        19  11  7.209044E+04  8.004431E+05  4.053928E+04 -5.039712E+01 -1.864739E-09 -6.921688E-10
        19  12  7.210327E+04  8.005051E+05  4.059081E+04 -6.013204E+01  1.212432E-09 -6.899743E-08
        19  13 -2.326794E+01  4.801143E+05  2.912051E+01  2.013411E+00 -5.088411E-09  1.272441E-10
        19  14 -2.598585E+01  4.801097E+05  4.984327E+01 -2.513312E+00  3.057260E-10 -3.875330E-10
        19  15 -2.713192E+01  4.801143E+05  8.894823E+01  2.014662E+00 -2.988885E-09  2.648359E-10
        19  16 -7.213031E+04  1.599433E+05 -4.044989E+04  3.561937E+01 -1.815162E-09 -6.855540E-08
        19  17 -7.214659E+04  1.598817E+05 -4.043992E+04  4.534859E+01 -4.670252E-09  4.961445E-10
        19  18 -7.216171E+04  1.598288E+05 -4.041324E+04  6.413277E+01 -9.295498E-10  6.903420E-08
        19  19  7.208029E+04  8.003908E+05  4.050901E+04 -3.160803E+01 -2.529950E+04  1.290996E+01
        19  20  7.209113E+04  8.004433E+05  4.054049E+04 -5.039794E+01 -2.530175E+04  4.027261E+01
        19  21  7.210396E+04  8.005053E+05  4.059202E+04 -6.013342E+01 -2.530299E+04  6.763492E+01
        19  22 -2.258039E+01  4.801145E+05  3.032372E+01  2.013014E+00 -2.530088E+04  1.949053E+01
        19  23 -2.529818E+01  4.801099E+05  5.104669E+01 -2.514217E+00 -2.530313E+04  4.443187E+01
        19  24 -2.644418E+01  4.801145E+05  9.015178E+01  2.013249E+00 -2.530437E+04  6.937286E+01
        19  25 -7.212963E+04  1.599434E+05 -4.044869E+04  3.561884E+01 -2.530226E+04  2.606788E+01
        19  26 -7.214590E+04  1.598818E+05 -4.043872E+04  4.534760E+01 -2.530451E+04  4.858909E+01
        19  27 -7.216103E+04  1.598290E+05 -4.041204E+04  6.413132E+01 -2.530575E+04  7.110995E+01
        20   1  7.211423E+04  8.005564E+05  4.063118E+04 -6.832242E+01  2.530408E+04 -8.551928E+01
        20   2  7.213561E+04  8.006380E+05  4.075183E+04 -9.367365E+01  2.529792E+04 -2.224451E+02
        20   3  7.217412E+04  8.007472E+05  4.096759E+04 -1.038425E+02  2.527728E+04 -3.593733E+02
        20   4 -2.790608E+01  4.801172E+05  1.189539E+02  3.374286E+00  2.530546E+04 -8.800597E+01
        20   5 -3.156206E+01  4.801064E+05  2.068357E+02 -4.216212E+00  2.529929E+04 -1.900951E+02
        20   6 -2.412142E+01  4.801172E+05  3.656792E+02  3.375645E+00  2.527864E+04 -2.921872E+02
        20   7 -7.217422E+04  1.597835E+05 -4.039360E+04  7.503782E+01  2.530684E+04 -9.049144E+01
        20   8 -7.220291E+04  1.596803E+05 -4.033849E+04  8.519947E+01  2.530066E+04 -1.577610E+02
        20   9 -7.222655E+04  1.595926E+05 -4.023657E+04  1.105434E+02  2.528000E+04 -2.250340E+02
        20  10  7.211354E+04  8.005562E+05  4.062998E+04 -6.832068E+01  5.382120E-10 -6.220997E-08
        20  11  7.213492E+04  8.006378E+05  4.075063E+04 -9.366912E+01  8.002258E-09  3.140095E-10
        20  12  7.217343E+04  8.007470E+05  4.096639E+04 -1.038352E+02  4.610843E-09  6.313245E-08
        20  13 -2.859388E+01  4.801171E+05  1.177503E+02  3.376079E+00  5.865991E-09  2.651966E-10
        20  14 -3.224953E+01  4.801063E+05  2.056326E+02 -4.212340E+00 -3.287597E-09 -5.588999E-10
        20  15 -2.480778E+01  4.801170E+05  3.644779E+02  3.381593E+00  5.037678E-09  4.455249E-10
        20  16 -7.217491E+04  1.597833E+05 -4.039480E+04  7.503967E+01 -1.640879E-09  6.185835E-08
        20  17 -7.220360E+04  1.596801E+05 -4.033970E+04  8.520269E+01  1.444702E-09 -4.733166E-10
        20  18 -7.222724E+04  1.595925E+05 -4.023778E+04  1.105480E+02  4.567785E-09 -6.289086E-08
        20  19  7.211423E+04  8.005564E+05  4.063118E+04 -6.832242E+01 -2.530408E+04  8.551928E+01
        20  20  7.213561E+04  8.006380E+05  4.075183E+04 -9.367365E+01 -2.529792E+04  2.224451E+02
        20  21  7.217412E+04  8.007472E+05  4.096759E+04 -1.038425E+02 -2.527728E+04  3.593733E+02
        20  22 -2.790608E+01  4.801172E+05  1.189539E+02  3.374286E+00 -2.530546E+04  8.800597E+01
        20  23 -3.156206E+01  4.801064E+05  2.068357E+02 -4.216212E+00 -2.529929E+04  1.900951E+02
        20  24 -2.412142E+01  4.801172E+05  3.656792E+02  3.375645E+00 -2.527864E+04  2.921872E+02
        20  25 -7.217422E+04  1.597835E+05 -4.039360E+04  7.503782E+01 -2.530684E+04  9.049144E+01
        20  26 -7.220291E+04  1.596803E+05 -4.033849E+04  8.519947E+01 -2.530066E+04  1.577610E+02
        20  27 -7.222655E+04  1.595926E+05 -4.023657E+04  1.105434E+02 -2.528000E+04  2.250340E+02
        21   1 -7.127400E+05  2.348495E+05  2.278910E+05  5.969435E+04 -1.498098E+04 -2.437503E+03
        21   2 -7.741070E+05  2.388332E+05  2.241845E+05 -4.634562E+04 -9.811410E+03 -5.737338E+03
        21   3 -7.970682E+05  2.280567E+05  2.220104E+05  6.623373E+04 -4.729128E+03 -1.725537E+03
        21   4 -1.700149E+06 -1.233325E+04 -1.917868E+04  5.516990E+04 -1.546744E+04 -2.441371E+03
        21   5 -1.719542E+06  2.102577E+03 -1.224944E+04 -5.420643E+04 -9.779669E+03 -5.737520E+03
        21   6 -1.700671E+06  1.639823E+03 -4.161286E+03  5.505749E+04 -4.178887E+03 -1.717214E+03
        21   7 -2.686673E+06 -2.595898E+05 -2.663222E+05  5.065098E+04 -1.595311E+04 -2.445236E+03
        21   8 -2.664165E+06 -2.346956E+05 -2.487510E+05 -6.205751E+04 -9.747968E+03 -5.737702E+03
        21   9 -2.603532E+06 -2.248387E+05 -2.303949E+05  4.389465E+04 -3.629444E+03 -1.708904E+03
        21  10 -7.127402E+05  2.348494E+05  2.278906E+05  5.969432E+04  1.833298E-09 -1.124243E-09
        21  11 -7.741071E+05  2.388331E+05  2.241843E+05 -4.634567E+04  1.039664E-09  5.036738E-10
        21  12 -7.970682E+05  2.280567E+05  2.220104E+05  6.623373E+04  1.036432E-09  3.655538E-11
        21  13 -1.700150E+06 -1.233332E+04 -1.917914E+04  5.516987E+04  4.258073E-09 -5.956869E-10
        21  14 -1.719542E+06  2.102516E+03 -1.224968E+04 -5.420648E+04  3.621238E-12  3.857972E-10
        21  15 -1.700671E+06  1.639815E+03 -4.161325E+03  5.505748E+04  6.686749E-09  2.878000E-10
        21  16 -2.686674E+06 -2.595899E+05 -2.663227E+05  5.065095E+04  2.198356E-09 -7.450085E-10
        21  17 -2.664165E+06 -2.346957E+05 -2.487513E+05 -6.205756E+04  1.484653E-09  9.100687E-10
        21  18 -2.603532E+06 -2.248387E+05 -2.303949E+05  4.389465E+04 -4.346941E-09 -3.239199E-10
        21  19 -7.127400E+05  2.348495E+05  2.278910E+05  5.969435E+04  1.498098E+04  2.437503E+03
        21  20 -7.741070E+05  2.388332E+05  2.241845E+05 -4.634562E+04  9.811410E+03  5.737338E+03
        21  21 -7.970682E+05  2.280567E+05  2.220104E+05  6.623373E+04  4.729128E+03  1.725537E+03
        21  22 -1.700149E+06 -1.233325E+04 -1.917868E+04  5.516990E+04  1.546744E+04  2.441371E+03
        21  23 -1.719542E+06  2.102577E+03 -1.224944E+04 -5.420643E+04  9.779669E+03  5.737520E+03
        21  24 -1.700671E+06  1.639823E+03 -4.161286E+03  5.505749E+04  4.178887E+03  1.717214E+03
        21  25 -2.686673E+06 -2.595898E+05 -2.663222E+05  5.065098E+04  1.595311E+04  2.445236E+03
        21  26 -2.664165E+06 -2.346956E+05 -2.487510E+05 -6.205751E+04  9.747968E+03  5.737702E+03
        21  27 -2.603532E+06 -2.248387E+05 -2.303949E+05  4.389465E+04  3.629444E+03  1.708904E+03
        22   1 -2.576819E+06 -2.197290E+05 -2.225798E+05  4.483204E+04 -4.433504E+03  1.871022E+03
        22   2 -2.637849E+06 -2.295909E+05 -2.346224E+05 -6.259410E+04 -2.584426E+03  4.546042E+03
        22   3 -2.660751E+06 -2.454502E+05 -2.413869E+05  5.070438E+04 -7.013256E+02  5.597784E+03
        22   4 -1.700672E+06  3.770430E+01 -3.060306E+03  5.555519E+04 -4.189474E+03  1.874610E+03
        22   5 -1.719501E+06  6.305147E+02 -4.660654E+03 -5.478067E+04 -2.454697E+03  4.547103E+03
        22   6 -1.700142E+06 -4.715885E+03 -8.957094E+02  5.558798E+04 -6.857830E+02  5.597358E+03
        22   7 -8.238264E+05  2.197464E+05  2.164010E+05  6.629081E+04 -3.945094E+03  1.878204E+03
        22   8 -8.003863E+05  2.307880E+05  2.252371E+05 -4.695780E+04 -2.324774E+03  4.548167E+03
        22   9 -7.386931E+05  2.359485E+05  2.395255E+05  6.047751E+04 -6.702156E+02  5.596933E+03
        22  10 -2.576819E+06 -2.197290E+05 -2.225799E+05  4.483205E+04  2.099242E-09  1.368908E-09
        22  11 -2.637849E+06 -2.295909E+05 -2.346224E+05 -6.259409E+04  1.193743E-09  1.296038E-09
        22  12 -2.660751E+06 -2.454502E+05 -2.413869E+05  5.070439E+04 -3.130628E-09 -1.498406E-09
        22  13 -1.700672E+06  3.769580E+01 -3.060346E+03  5.555520E+04  2.104341E-09  7.908560E-10
        22  14 -1.719501E+06  6.304909E+02 -4.660704E+03 -5.478066E+04  2.245309E-09  1.016993E-09
        22  15 -1.700142E+06 -4.715919E+03 -8.957691E+02  5.558798E+04 -1.197657E-10 -1.209321E-10
        22  16 -8.238264E+05  2.197464E+05  2.164009E+05  6.629081E+04 -1.983137E-09 -7.819871E-10
        22  17 -8.003863E+05  2.307880E+05  2.252371E+05 -4.695779E+04  3.629446E-09 -4.453014E-10
        22  18 -7.386931E+05  2.359484E+05  2.395254E+05  6.047751E+04  2.837504E-09 -2.842191E-09
        22  19 -2.576819E+06 -2.197290E+05 -2.225798E+05  4.483204E+04  4.433504E+03 -1.871022E+03
        22  20 -2.637849E+06 -2.295909E+05 -2.346224E+05 -6.259410E+04  2.584426E+03 -4.546042E+03
        22  21 -2.660751E+06 -2.454502E+05 -2.413869E+05  5.070438E+04  7.013256E+02 -5.597784E+03
        22  22 -1.700672E+06  3.770430E+01 -3.060306E+03  5.555519E+04  4.189474E+03 -1.874610E+03
        22  23 -1.719501E+06  6.305147E+02 -4.660654E+03 -5.478067E+04  2.454697E+03 -4.547103E+03
        22  24 -1.700142E+06 -4.715885E+03 -8.957094E+02  5.558798E+04  6.857830E+02 -5.597358E+03
        22  25 -8.238264E+05  2.197464E+05  2.164010E+05  6.629081E+04  3.945094E+03 -1.878204E+03
        22  26 -8.003863E+05  2.307880E+05  2.252371E+05 -4.695780E+04  2.324774E+03 -4.548167E+03
        22  27 -7.386931E+05  2.359485E+05  2.395255E+05  6.047751E+04  6.702156E+02 -5.596933E+03
        23   1 -3.523220E+06 -4.599088E+05 -4.566783E+05  1.407885E+02 -3.168213E+03  7.153601E+03
        23   2 -3.620071E+06 -4.695104E+05 -4.768801E+05  1.136482E+04 -5.610513E+02  9.499512E+03
        23   3 -3.523623E+06 -4.601386E+05 -4.560573E+05  2.369895E+04  2.027888E+03  7.077023E+03
        23   4 -1.666352E+06  5.660905E+03  8.591511E+03  6.724100E+03 -2.835668E+03  7.153622E+03
        23   5 -1.763178E+06 -3.918745E+03 -1.166215E+04  6.221493E+03 -5.643498E+02  9.497734E+03
        23   6 -1.666339E+06  5.753016E+03  9.363264E+03  6.828765E+03  1.688775E+03  7.079591E+03
        23   7  1.936547E+05  4.709690E+05  4.735997E+05  1.332394E+04 -2.502114E+03  7.153651E+03
        23   8  9.685436E+04  4.614112E+05  4.532942E+05  1.065594E+03 -5.676560E+02  9.495959E+03
        23   9  1.940846E+05  4.713832E+05  4.745221E+05 -1.008311E+04  1.348636E+03  7.082175E+03
        23  10 -3.523220E+06 -4.599089E+05 -4.566784E+05  1.408068E+02 -4.835556E-10 -2.197246E-09
        23  11 -3.620071E+06 -4.695105E+05 -4.768802E+05  1.136482E+04  2.370551E-09  2.106942E-09
        23  12 -3.523623E+06 -4.601386E+05 -4.560575E+05  2.369894E+04 -1.120251E-10  6.902953E-10
        23  13 -1.666352E+06  5.660848E+03  8.591400E+03  6.724117E+03 -2.153188E-09 -9.884042E-10
        23  14 -1.763178E+06 -3.918842E+03 -1.166232E+04  6.221497E+03  2.153424E-09  2.768413E-10
        23  15 -1.666340E+06  5.752961E+03  9.363165E+03  6.828755E+03  2.405013E-09  7.443622E-10
        23  16  1.936546E+05  4.709690E+05  4.735996E+05  1.332395E+04 -1.849240E-09 -3.525298E-09
        23  17  9.685434E+04  4.614111E+05  4.532940E+05  1.065598E+03 -3.092770E-09  5.387799E-10
        23  18  1.940846E+05  4.713832E+05  4.745220E+05 -1.008311E+04  6.302925E-09  6.575486E-10
        23  19 -3.523220E+06 -4.599088E+05 -4.566783E+05  1.407885E+02  3.168213E+03 -7.153601E+03
        23  20 -3.620071E+06 -4.695104E+05 -4.768801E+05  1.136482E+04  5.610513E+02 -9.499512E+03
        23  21 -3.523623E+06 -4.601386E+05 -4.560573E+05  2.369895E+04 -2.027888E+03 -7.077023E+03
        23  22 -1.666352E+06  5.660905E+03  8.591511E+03  6.724100E+03  2.835668E+03 -7.153622E+03
        23  23 -1.763178E+06 -3.918745E+03 -1.166215E+04  6.221493E+03  5.643498E+02 -9.497734E+03
        23  24 -1.666339E+06  5.753016E+03  9.363264E+03  6.828765E+03 -1.688775E+03 -7.079591E+03
        23  25  1.936547E+05  4.709690E+05  4.735997E+05  1.332394E+04  2.502114E+03 -7.153651E+03
        23  26  9.685436E+04  4.614112E+05  4.532942E+05  1.065594E+03  5.676560E+02 -9.495959E+03
        23  27  1.940846E+05  4.713832E+05  4.745221E+05 -1.008311E+04 -1.348636E+03 -7.082175E+03
        24   1 -2.682465E+06 -2.502654E+05 -2.455064E+05 -3.176789E+04 -6.969089E+02  5.724617E+03
        24   2 -2.659703E+06 -2.365518E+05 -2.379501E+05  8.071626E+04  7.627188E+01  4.816670E+03
        24   3 -2.599138E+06 -2.234564E+05 -2.234101E+05 -2.610527E+04  7.846603E+02  1.452068E+03
        24   4 -1.700210E+06 -3.958460E+03  4.364491E+02 -4.226437E+04 -6.738749E+02  5.723699E+03
        24   5 -1.719404E+06 -6.255374E+02 -2.454707E+03  6.742970E+04 -7.616259E+01  4.819103E+03
        24   6 -1.700722E+06  2.158276E+03  1.766789E+03 -4.216163E+04  4.567331E+02  1.459487E+03
        24   7 -7.170772E+05  2.422754E+05  2.463062E+05 -5.277418E+04 -6.508035E+02  5.722781E+03
        24   8 -7.783007E+05  2.352339E+05  2.329737E+05  5.412670E+04 -2.288286E+02  4.821541E+03
        24   9 -8.015708E+05  2.277121E+05  2.268824E+05 -5.823707E+04  1.283290E+02  1.466917E+03
        24  10 -2.682465E+06 -2.502654E+05 -2.455065E+05 -3.176788E+04  4.417148E-10  1.076747E-09
        24  11 -2.659703E+06 -2.365518E+05 -2.379502E+05  8.071626E+04  9.434166E-09  4.048642E-09
        24  12 -2.599138E+06 -2.234564E+05 -2.234101E+05 -2.610527E+04 -5.608803E-09 -2.142546E-09
        24  13 -1.700210E+06 -3.958496E+03  4.363867E+02 -4.226437E+04 -8.165719E-11 -1.153128E-09
        24  14 -1.719404E+06 -6.255623E+02 -2.454750E+03  6.742970E+04  2.370575E-09  7.758241E-09
        24  15 -1.700722E+06  2.158274E+03  1.766785E+03 -4.216163E+04  4.347116E-09  2.898317E-09
        24  16 -7.170773E+05  2.422754E+05  2.463061E+05 -5.277418E+04  5.881353E-09  2.677149E-09
        24  17 -7.783007E+05  2.352339E+05  2.329736E+05  5.412670E+04  6.018379E-09  9.022738E-10
        24  18 -8.015708E+05  2.277121E+05  2.268824E+05 -5.823707E+04  3.451127E-09 -6.085438E-10
        24  19 -2.682465E+06 -2.502654E+05 -2.455064E+05 -3.176789E+04  6.969089E+02 -5.724617E+03
        24  20 -2.659703E+06 -2.365518E+05 -2.379501E+05  8.071626E+04 -7.627188E+01 -4.816670E+03
        24  21 -2.599138E+06 -2.234564E+05 -2.234101E+05 -2.610527E+04 -7.846603E+02 -1.452068E+03
        24  22 -1.700210E+06 -3.958460E+03  4.364491E+02 -4.226437E+04  6.738749E+02 -5.723699E+03
        24  23 -1.719404E+06 -6.255374E+02 -2.454707E+03  6.742970E+04  7.616259E+01 -4.819103E+03
        24  24 -1.700722E+06  2.158276E+03  1.766789E+03 -4.216163E+04 -4.567331E+02 -1.459487E+03
        24  25 -7.170772E+05  2.422754E+05  2.463062E+05 -5.277418E+04  6.508035E+02 -5.722781E+03
        24  26 -7.783007E+05  2.352339E+05  2.329737E+05  5.412670E+04  2.288286E+02 -4.821541E+03
        24  27 -8.015708E+05  2.277121E+05  2.268824E+05 -5.823707E+04 -1.283290E+02 -1.466917E+03
        25   1 -8.202609E+05  2.230005E+05  2.222143E+05 -5.824199E+04 -2.012023E+02 -1.383059E+03
        25   2 -7.957072E+05  2.307739E+05  2.286773E+05  5.469559E+04  9.927791E+01 -4.727144E+03
        25   3 -7.352014E+05  2.378468E+05  2.419721E+05 -5.301161E+04  4.636765E+02 -5.665350E+03
        25   4 -1.701156E+06  2.021750E+03  1.664022E+03 -4.247038E+04 -5.271572E+02 -1.375668E+03
        25   5 -1.718842E+06 -5.879277E+02 -2.259137E+03  6.781211E+04 -5.427092E+01 -4.724656E+03
        25   6 -1.700651E+06 -3.964707E+03  5.234222E+02 -4.257076E+04  4.825384E+02 -5.666192E+03
        25   7 -2.581346E+06 -2.190154E+05 -2.189451E+05 -2.671711E+04 -8.526484E+02 -1.368288E+03
        25   8 -2.641203E+06 -2.320140E+05 -2.332600E+05  8.091275E+04 -2.075912E+02 -4.722174E+03
        25   9 -2.665254E+06 -2.458466E+05 -2.409958E+05 -3.214291E+04  5.013704E+02 -5.667034E+03
        25  10 -8.202609E+05  2.230005E+05  2.222143E+05 -5.824199E+04 -2.961160E-09 -2.896263E-09
        25  11 -7.957072E+05  2.307739E+05  2.286772E+05  5.469559E+04  7.697038E-10 -9.741977E-10
        25  12 -7.352014E+05  2.378468E+05  2.419720E+05 -5.301161E+04 -6.675278E-09  4.174932E-09
        25  13 -1.701156E+06  2.021748E+03  1.664018E+03 -4.247038E+04  2.453963E-10  4.946279E-09
        25  14 -1.718842E+06 -5.879516E+02 -2.259179E+03  6.781211E+04 -2.061967E-09  2.888472E-09
        25  15 -1.700651E+06 -3.964742E+03  5.233614E+02 -4.257075E+04  1.799317E-09  3.817030E-09
        25  16 -2.581346E+06 -2.190154E+05 -2.189451E+05 -2.671711E+04  7.482054E-09 -3.545635E-09
        25  17 -2.641203E+06 -2.320140E+05 -2.332601E+05  8.091274E+04  7.327432E-10 -9.246990E-10
        25  18 -2.665254E+06 -2.458467E+05 -2.409958E+05 -3.214291E+04  9.437824E-09 -2.245978E-09
        25  19 -8.202609E+05  2.230005E+05  2.222143E+05 -5.824199E+04  2.012023E+02  1.383059E+03
        25  20 -7.957072E+05  2.307739E+05  2.286773E+05  5.469559E+04 -9.927791E+01  4.727144E+03
        25  21 -7.352014E+05  2.378468E+05  2.419721E+05 -5.301161E+04 -4.636765E+02  5.665350E+03
        25  22 -1.701156E+06  2.021750E+03  1.664022E+03 -4.247038E+04  5.271572E+02  1.375668E+03
        25  23 -1.718842E+06 -5.879277E+02 -2.259137E+03  6.781211E+04  5.427093E+01  4.724656E+03
        25  24 -1.700651E+06 -3.964707E+03  5.234222E+02 -4.257076E+04 -4.825384E+02  5.666192E+03
        25  25 -2.581346E+06 -2.190154E+05 -2.189451E+05 -2.671711E+04  8.526484E+02  1.368288E+03
        25  26 -2.641203E+06 -2.320140E+05 -2.332600E+05  8.091275E+04  2.075912E+02  4.722174E+03
        25  27 -2.665254E+06 -2.458466E+05 -2.409958E+05 -3.214291E+04 -5.013704E+02  5.667034E+03
        26   1  1.936432E+05  4.713498E+05  4.746741E+05 -1.098527E+04 -1.559837E+03 -7.052478E+03
        26   2  9.683234E+04  4.613418E+05  4.537227E+05  1.593610E+03  1.366092E+02 -9.494578E+03
        26   3  1.941638E+05  4.712964E+05  4.745505E+05  1.239754E+04  1.852500E+03 -7.183170E+03
        26   4 -1.666321E+06  5.826169E+03  9.627367E+03  6.188961E+03 -1.901647E+03 -7.049802E+03
        26   5 -1.763209E+06 -3.992994E+03 -1.123626E+04  7.022994E+03  1.320256E+02 -9.496346E+03
        26   6 -1.666320E+06  5.872688E+03  9.425214E+03  6.082632E+03  2.185161E+03 -7.183215E+03
        26   7 -3.523147E+06 -4.599587E+05 -4.556810E+05  2.332088E+04 -2.242427E+03 -7.047142E+03
        26   8 -3.620111E+06 -4.695894E+05 -4.764568E+05  1.243914E+04  1.274552E+02 -9.498119E+03
        26   9 -3.523664E+06 -4.598128E+05 -4.559618E+05 -2.164491E+02  2.516818E+03 -7.183267E+03
        26  10  1.936431E+05  4.713497E+05  4.746740E+05 -1.098527E+04 -5.532600E-09  4.198251E-11
        26  11  9.683232E+04  4.613417E+05  4.537225E+05  1.593611E+03  7.695799E-10 -1.246441E-09
        26  12  1.941638E+05  4.712964E+05  4.745504E+05  1.239755E+04  2.807376E-10  6.823218E-09
        26  13 -1.666321E+06  5.826115E+03  9.627267E+03  6.188950E+03 -2.237590E-10 -3.167862E-09
        26  14 -1.763209E+06 -3.993091E+03 -1.123642E+04  7.022995E+03  1.989503E-09 -1.499487E-09
        26  15 -1.666320E+06  5.872631E+03  9.425108E+03  6.082645E+03 -3.983125E-09  4.608959E-09
        26  16 -3.523147E+06 -4.599587E+05 -4.556811E+05  2.332087E+04  5.139225E-09 -1.572533E-09
        26  17 -3.620111E+06 -4.695895E+05 -4.764570E+05  1.243914E+04  6.924783E-09  1.026115E-10
        26  18 -3.523664E+06 -4.598129E+05 -4.559620E+05 -2.164345E+02  1.134966E-09 -5.209677E-12
        26  19  1.936432E+05  4.713498E+05  4.746741E+05 -1.098527E+04  1.559837E+03  7.052478E+03
        26  20  9.683234E+04  4.613418E+05  4.537227E+05  1.593610E+03 -1.366092E+02  9.494578E+03
        26  21  1.941638E+05  4.712964E+05  4.745505E+05  1.239754E+04 -1.852500E+03  7.183170E+03
        26  22 -1.666321E+06  5.826169E+03  9.627367E+03  6.188961E+03  1.901647E+03  7.049802E+03
        26  23 -1.763209E+06 -3.992994E+03 -1.123626E+04  7.022994E+03 -1.320256E+02  9.496346E+03
        26  24 -1.666320E+06  5.872688E+03  9.425214E+03  6.082632E+03 -2.185161E+03  7.183215E+03
        26  25 -3.523147E+06 -4.599587E+05 -4.556810E+05  2.332088E+04  2.242427E+03  7.047142E+03
        26  26 -3.620111E+06 -4.695894E+05 -4.764568E+05  1.243914E+04 -1.274552E+02  9.498119E+03
        26  27 -3.523664E+06 -4.598128E+05 -4.559618E+05 -2.164491E+02 -2.516818E+03  7.183267E+03
        27   1 -7.203918E+05  2.403704E+05  2.451093E+05  6.018546E+04 -1.676764E+02 -5.658129E+03
        27   2 -7.831828E+05  2.347927E+05  2.313173E+05 -4.650277E+04  6.080979E+02 -4.660692E+03
        27   3 -8.049483E+05  2.262824E+05  2.246724E+05  6.606282E+04  1.349108E+03 -1.996945E+03
        27   4 -1.699529E+06 -4.718243E+03  2.657218E+02  5.527875E+04 -1.560587E+02 -5.658603E+03
        27   5 -1.720277E+06  1.378847E+02 -3.074329E+03 -5.438958E+04  7.384302E+02 -4.659654E+03
        27   6 -1.700064E+06  2.003301E+03  6.439475E+02  5.521664E+04  1.598197E+03 -1.993293E+03
        27   7 -2.677796E+06 -2.498794E+05 -2.446504E+05  5.037811E+04 -1.444591E+02 -5.659078E+03
        27   8 -2.656573E+06 -2.345833E+05 -2.375324E+05 -6.226670E+04  8.685648E+02 -4.658618E+03
        27   9 -2.594452E+06 -2.223363E+05 -2.234452E+05  4.438330E+04  1.846924E+03 -1.989646E+03
        27  10 -7.203918E+05  2.403704E+05  2.451093E+05  6.018546E+04 -1.608043E-09  3.615154E-09
        27  11 -7.831829E+05  2.347927E+05  2.313173E+05 -4.650277E+04 -3.492273E-09 -1.520386E-09
        27  12 -8.049483E+05  2.262824E+05  2.246724E+05  6.606282E+04  4.851247E-10  3.013399E-09
        27  13 -1.699529E+06 -4.718277E+03  2.656617E+02  5.527874E+04  4.458350E-09 -1.620607E-09
        27  14 -1.720277E+06  1.378612E+02 -3.074371E+03 -5.438958E+04 -6.497007E-09 -4.030404E-09
        27  15 -1.700064E+06  2.003296E+03  6.439352E+02  5.521664E+04  8.430809E-09 -6.445196E-10
        27  16 -2.677796E+06 -2.498794E+05 -2.446505E+05  5.037811E+04  1.268306E-09 -1.792701E-09
        27  17 -2.656573E+06 -2.345833E+05 -2.375325E+05 -6.226669E+04  1.352473E-09 -1.529099E-08
        27  18 -2.594452E+06 -2.223363E+05 -2.234452E+05  4.438330E+04 -5.450156E-10  2.625651E-09
        27  19 -7.203918E+05  2.403704E+05  2.451093E+05  6.018546E+04  1.676764E+02  5.658129E+03
        27  20 -7.831828E+05  2.347927E+05  2.313173E+05 -4.650277E+04 -6.080979E+02  4.660692E+03
        27  21 -8.049483E+05  2.262824E+05  2.246724E+05  6.606282E+04 -1.349108E+03  1.996945E+03
        27  22 -1.699529E+06 -4.718243E+03  2.657218E+02  5.527875E+04  1.560587E+02  5.658603E+03
        27  23 -1.720277E+06  1.378847E+02 -3.074329E+03 -5.438958E+04 -7.384302E+02  4.659654E+03
        27  24 -1.700064E+06  2.003301E+03  6.439475E+02  5.521664E+04 -1.598197E+03  1.993293E+03
        27  25 -2.677796E+06 -2.498794E+05 -2.446504E+05  5.037811E+04  1.444591E+02  5.659078E+03
        27  26 -2.656573E+06 -2.345833E+05 -2.375324E+05 -6.226670E+04 -8.685648E+02  4.658618E+03
        27  27 -2.594452E+06 -2.223363E+05 -2.234452E+05  4.438330E+04 -1.846924E+03  1.989646E+03
        28   1 -2.584641E+06 -2.207460E+05 -2.215972E+05  4.473106E+04  3.256715E+02  1.574613E+03
        28   2 -2.646929E+06 -2.329622E+05 -2.375510E+05 -6.251230E+04  2.823909E+03  5.562263E+03
        28   3 -2.668362E+06 -2.434543E+05 -2.465532E+05  5.027931E+04  5.408540E+03  2.334623E+03
        28   4 -1.700058E+06  1.135143E+03  5.351467E+01  5.540225E+04  8.688945E+02  1.582846E+03
        28   5 -1.720287E+06 -6.677358E+02 -5.553581E+03 -5.459594E+04  2.852084E+03  5.562064E+03
        28   6 -1.699531E+06 -6.234648E+02 -3.844358E+03  5.542062E+04  4.921788E+03  2.330695E+03
        28   7 -8.147634E+05  2.229571E+05  2.216449E+05  6.608592E+04  1.412894E+03  1.591092E+03
        28   8 -7.928646E+05  2.315618E+05  2.263788E+05 -4.666991E+04  2.880299E+03  5.561867E+03
        28   9 -7.298470E+05  2.421362E+05  2.387933E+05  6.056833E+04  4.434268E+03  2.326762E+03
        28  10 -2.584641E+06 -2.207460E+05 -2.215972E+05  4.473106E+04 -2.886178E-09  1.163533E-08
        28  11 -2.646929E+06 -2.329623E+05 -2.375511E+05 -6.251231E+04 -3.953881E-09  1.457547E-09
        28  12 -2.668362E+06 -2.434543E+05 -2.465533E+05  5.027930E+04 -1.539411E-09  3.852832E-10
        28  13 -1.700058E+06  1.135140E+03  5.350854E+01  5.540225E+04  4.325788E-09  5.280487E-09
        28  14 -1.720287E+06 -6.677712E+02 -5.553654E+03 -5.459595E+04  6.527305E-09 -8.988830E-10
        28  15 -1.699531E+06 -6.234771E+02 -3.844413E+03  5.542061E+04 -9.362446E-10  1.983204E-11
        28  16 -8.147634E+05  2.229571E+05  2.216449E+05  6.608592E+04 -6.208027E-10  4.884417E-09
        28  17 -7.928646E+05  2.315617E+05  2.263787E+05 -4.666993E+04  1.074630E-08  5.301390E-09
        28  18 -7.298470E+05  2.421362E+05  2.387932E+05  6.056832E+04  4.817158E-09 -6.125290E-10
        28  19 -2.584641E+06 -2.207460E+05 -2.215972E+05  4.473106E+04 -3.256715E+02 -1.574613E+03
        28  20 -2.646929E+06 -2.329622E+05 -2.375510E+05 -6.251230E+04 -2.823909E+03 -5.562263E+03
        28  21 -2.668362E+06 -2.434543E+05 -2.465532E+05  5.027931E+04 -5.408540E+03 -2.334623E+03
        28  22 -1.700058E+06  1.135143E+03  5.351467E+01  5.540225E+04 -8.688945E+02 -1.582846E+03
        28  23 -1.720287E+06 -6.677358E+02 -5.553581E+03 -5.459594E+04 -2.852084E+03 -5.562064E+03
        28  24 -1.699531E+06 -6.234648E+02 -3.844358E+03  5.542062E+04 -4.921788E+03 -2.330695E+03
        28  25 -8.147634E+05  2.229571E+05  2.216449E+05  6.608592E+04 -1.412894E+03 -1.591092E+03
        28  26 -7.928646E+05  2.315618E+05  2.263788E+05 -4.666991E+04 -2.880299E+03 -5.561867E+03
        28  27 -7.298470E+05  2.421362E+05  2.387933E+05  6.056833E+04 -4.434268E+03 -2.326762E+03
        29   1  2.542855E+05  2.256974E+04  3.327779E+05 -1.137524E+04 -1.389089E+03  2.269004E+05
        29   2 -6.091753E+04 -2.839911E+04  1.419301E+05 -3.413165E+03 -9.115138E+02  1.492670E+05
        29   3 -8.074893E+03  2.277449E+04  9.366640E+04  6.170860E+03 -4.363135E+02  7.163038E+04
        29   4  2.541291E+05  2.272561E+04  3.327778E+05  1.411943E+03 -1.384416E+03  2.269005E+05
        29   5 -6.095677E+04 -2.835990E+04  1.419300E+05 -1.988947E+02 -9.107409E+02  1.492670E+05
        29   6 -7.997379E+03  2.269686E+04  9.366639E+04 -1.872855E+02 -4.370471E+02  7.163037E+04
        29   7  2.539734E+05  2.288183E+04  3.327779E+05  1.419913E+04 -1.379742E+03  2.269005E+05
        29   8 -6.099598E+04 -2.832066E+04  1.419301E+05  3.015375E+03 -9.099680E+02  1.492670E+05
        29   9 -7.919712E+03  2.261931E+04  9.366640E+04 -6.545430E+03 -4.377807E+02  7.163037E+04
        29  10  2.542717E+05  2.251447E+04  3.326811E+05 -1.137499E+04  2.832966E-09 -2.776599E-12
        29  11 -6.092351E+04 -2.842304E+04  1.418882E+05 -3.413055E+03  1.514688E-09 -5.412600E-11
        29  12 -8.076270E+03  2.276898E+04  9.365676E+04  6.170885E+03  2.007362E-09 -4.255988E-11
        29  13  2.541153E+05  2.267034E+04  3.326811E+05  1.412196E+03 -8.091935E-10 -2.127352E-11
        29  14 -6.096275E+04 -2.838382E+04  1.418882E+05 -1.987852E+02 -2.893627E-09  4.179957E-11
        29  15 -7.998756E+03  2.269135E+04  9.365675E+04 -1.872602E+02 -4.337484E-09 -1.940465E-11
        29  16  2.539596E+05  2.282656E+04  3.326811E+05  1.419938E+04 -3.629978E-09  5.163790E-11
        29  17 -6.100196E+04 -2.834459E+04  1.418882E+05  3.015485E+03 -2.278070E-10  7.178117E-11
        29  18 -7.921090E+03  2.261380E+04  9.365676E+04 -6.545405E+03  5.110074E-09 -6.324163E-11
        29  19  2.542855E+05  2.256974E+04  3.327779E+05 -1.137524E+04  1.389089E+03 -2.269004E+05
        29  20 -6.091753E+04 -2.839911E+04  1.419301E+05 -3.413165E+03  9.115138E+02 -1.492670E+05
        29  21 -8.074893E+03  2.277449E+04  9.366640E+04  6.170860E+03  4.363135E+02 -7.163038E+04
        29  22  2.541291E+05  2.272561E+04  3.327778E+05  1.411943E+03  1.384416E+03 -2.269005E+05
        29  23 -6.095677E+04 -2.835990E+04  1.419300E+05 -1.988947E+02  9.107409E+02 -1.492670E+05
        29  24 -7.997379E+03  2.269686E+04  9.366639E+04 -1.872855E+02  4.370471E+02 -7.163037E+04
        29  25  2.539734E+05  2.288183E+04  3.327779E+05  1.419913E+04  1.379742E+03 -2.269005E+05
        29  26 -6.099598E+04 -2.832066E+04  1.419301E+05  3.015375E+03  9.099680E+02 -1.492670E+05
        29  27 -7.919712E+03  2.261931E+04  9.366640E+04 -6.545430E+03  4.377807E+02 -7.163037E+04
        30   1  3.961909E+04  3.746831E+03  7.770949E+04 -1.693767E+03 -3.421447E+02  5.604792E+04
        30   2 -9.536924E+03 -4.714299E+03  3.727400E+04 -4.784078E+02 -2.224594E+02  3.645594E+04
        30   3 -1.086916E+03  3.779766E+03  2.399778E+04  9.849847E+02 -1.028675E+02  1.686410E+04
        30   4  3.959575E+04  3.770165E+03  7.770949E+04  2.185951E+02 -3.419720E+02  5.604792E+04
        30   5 -9.542403E+03 -4.708821E+03  3.727400E+04 -2.949282E+01 -2.224330E+02  3.645594E+04
        30   6 -1.074537E+03  3.767384E+03  2.399778E+04 -2.954371E+01 -1.028950E+02  1.686410E+04
        30   7  3.957242E+04  3.793506E+03  7.770949E+04  2.130957E+03 -3.417993E+02  5.604792E+04
        30   8 -9.547880E+03 -4.703342E+03  3.727400E+04  4.194222E+02 -2.224067E+02  3.645594E+04
        30   9 -1.062155E+03  3.755005E+03  2.399778E+04 -1.044072E+03 -1.029226E+02  1.686410E+04
        30  10  3.961825E+04  3.743458E+03  7.770358E+04 -1.693752E+03  1.232950E-09  2.716265E-10
        30  11 -9.537281E+03 -4.715726E+03  3.727151E+04 -4.784013E+02 -3.171288E-10 -1.738377E-10
        30  12 -1.086992E+03  3.779461E+03  2.399725E+04  9.849861E+02 -8.242738E-09 -5.731551E-10
        30  13  3.959491E+04  3.766792E+03  7.770358E+04  2.186106E+02  4.997666E-09 -3.301337E-11
        30  14 -9.542759E+03 -4.710248E+03  3.727151E+04 -2.948629E+01 -1.549509E-09  3.161665E-11
        30  15 -1.074614E+03  3.767079E+03  2.399725E+04 -2.954231E+01  1.733836E-10 -5.397755E-11
        30  16  3.957158E+04  3.790133E+03  7.770358E+04  2.130973E+03  2.979003E-09 -2.867923E-10
        30  17 -9.548237E+03 -4.704770E+03  3.727151E+04  4.194287E+02  2.579264E-09  1.901774E-10
        30  18 -1.062231E+03  3.754699E+03  2.399725E+04 -1.044071E+03  6.328391E-10  4.871311E-10
        30  19  3.961909E+04  3.746831E+03  7.770949E+04 -1.693767E+03  3.421447E+02 -5.604792E+04
        30  20 -9.536924E+03 -4.714299E+03  3.727400E+04 -4.784078E+02  2.224594E+02 -3.645594E+04
        30  21 -1.086916E+03  3.779766E+03  2.399778E+04  9.849847E+02  1.028675E+02 -1.686410E+04
        30  22  3.959575E+04  3.770165E+03  7.770949E+04  2.185951E+02  3.419720E+02 -5.604792E+04
        30  23 -9.542403E+03 -4.708821E+03  3.727400E+04 -2.949282E+01  2.224330E+02 -3.645594E+04
        30  24 -1.074537E+03  3.767384E+03  2.399778E+04 -2.954371E+01  1.028950E+02 -1.686410E+04
        30  25  3.957242E+04  3.793506E+03  7.770949E+04  2.130957E+03  3.417993E+02 -5.604792E+04
        30  26 -9.547880E+03 -4.703342E+03  3.727400E+04  4.194222E+02  2.224067E+02 -3.645594E+04
        30  27 -1.062155E+03  3.755005E+03  2.399778E+04 -1.044072E+03  1.029226E+02 -1.686410E+04
        31   1  6.117399E+03  7.412906E+02  1.977926E+04 -2.680385E+02 -7.865034E+01  1.288947E+04
        31   2 -1.703650E+03 -9.314868E+02  1.169532E+04 -5.588152E+01 -4.211262E+01  6.902006E+03
        31   3  7.608524E+02  7.471082E+02  1.008109E+04  1.985819E+02 -5.580371E+00  9.146497E+02
        31   4  6.113728E+03  7.449613E+02  1.977926E+04  3.275833E+01 -7.864410E+01  1.288947E+04
        31   5 -1.704275E+03 -9.308624E+02  1.169532E+04 -4.719090E+00 -4.211205E+01  6.902006E+03
        31   6  7.632743E+02  7.446862E+02  1.008109E+04  1.134177E-01 -5.580663E+00  9.146497E+02
        31   7  6.110058E+03  7.486321E+02  1.977926E+04  3.335552E+02 -7.863785E+01  1.288947E+04
        31   8 -1.704899E+03 -9.302381E+02  1.169532E+04  4.644334E+01 -4.211148E+01  6.902006E+03
        31   9  7.656963E+02  7.422643E+02  1.008109E+04 -1.983551E+02 -5.580956E+00  9.146497E+02
        31  10  6.117355E+03  7.411122E+02  1.977894E+04 -2.680377E+02 -7.573122E-09  6.160771E-10
        31  11 -1.703663E+03 -9.315379E+02  1.169523E+04 -5.588128E+01 -1.304900E-12  1.927571E-10
        31  12  7.608521E+02  7.471073E+02  1.008109E+04  1.985819E+02  1.665994E-09 -1.142191E-09
        31  13  6.113684E+03  7.447829E+02  1.977894E+04  3.275915E+01 -5.596221E-09 -5.201498E-11
        31  14 -1.704287E+03 -9.309136E+02  1.169523E+04 -4.718855E+00  3.064637E-10  2.344471E-11
        31  15  7.632740E+02  7.446853E+02  1.008109E+04  1.134219E-01 -1.621497E-09 -6.969836E-11
        31  16  6.110013E+03  7.484537E+02  1.977894E+04  3.335560E+02  2.126267E-09 -6.528064E-10
        31  17 -1.704912E+03 -9.302892E+02  1.169523E+04  4.644357E+01  2.879614E-09 -1.132319E-10
        31  18  7.656961E+02  7.422634E+02  1.008109E+04 -1.983551E+02 -4.516056E-09  1.124255E-09
        31  19  6.117399E+03  7.412906E+02  1.977926E+04 -2.680385E+02  7.865034E+01 -1.288947E+04
        31  20 -1.703650E+03 -9.314868E+02  1.169532E+04 -5.588152E+01  4.211262E+01 -6.902006E+03
        31  21  7.608524E+02  7.471082E+02  1.008109E+04  1.985819E+02  5.580371E+00 -9.146497E+02
        31  22  6.113728E+03  7.449613E+02  1.977926E+04  3.275833E+01  7.864410E+01 -1.288947E+04
        31  23 -1.704275E+03 -9.308624E+02  1.169532E+04 -4.719090E+00  4.211205E+01 -6.902006E+03
        31  24  7.632743E+02  7.446862E+02  1.008109E+04  1.134177E-01  5.580663E+00 -9.146497E+02
        31  25  6.110058E+03  7.486321E+02  1.977926E+04  3.335552E+02  7.863785E+01 -1.288947E+04
        31  26 -1.704899E+03 -9.302381E+02  1.169532E+04  4.644334E+01  4.211148E+01 -6.902006E+03
        31  27  7.656963E+02  7.422643E+02  1.008109E+04 -1.983551E+02  5.580956E+00 -9.146497E+02
        32   1 -8.456347E+06 -2.702570E+06 -1.734154E+06 -2.956273E+06 -8.516397E+05 -3.066313E+05
        32   2 -8.249951E+06 -1.462163E+06 -9.476835E+05 -3.126054E+06 -5.530711E+05 -1.558969E+05
        32   3 -8.526147E+06 -1.457919E+06 -7.289904E+05 -2.996369E+06 -2.413418E+05 -3.962820E+04
        32   4 -7.107618E+06 -1.926770E+06 -1.310456E+06 -2.324183E+06 -8.320428E+05 -2.996015E+05
        32   5 -6.797559E+06 -8.363653E+05 -5.431547E+05 -2.653811E+06 -5.474866E+05 -1.538619E+05
        32   6 -6.966240E+06 -9.777065E+05 -3.314524E+05 -2.684317E+06 -2.497335E+05 -4.276419E+04
        32   7 -5.756934E+06 -1.150025E+06 -8.869331E+05 -1.690600E+06 -8.123969E+05 -2.925314E+05
        32   8 -5.343082E+06 -2.102610E+05 -1.388247E+05 -2.180493E+06 -5.418862E+05 -1.518191E+05
        32   9 -5.403938E+06 -4.975211E+05  6.590018E+04 -2.371636E+06 -2.581480E+05 -4.590506E+04
        32  10 -8.457162E+06 -2.702871E+06 -1.735718E+06 -2.956486E+06 -2.842150E-10  5.079667E-10
        32  11 -8.250290E+06 -1.462273E+06 -9.483136E+05 -3.126124E+06  3.167980E-09  1.651473E-09
        32  12 -8.526211E+06 -1.457936E+06 -7.291045E+05 -2.996376E+06  5.201822E-09 -1.045697E-09
        32  13 -7.108394E+06 -1.927056E+06 -1.311944E+06 -2.324386E+06 -5.094860E-09  3.182294E-10
        32  14 -6.797891E+06 -8.364728E+05 -5.437703E+05 -2.653880E+06 -2.607032E-10  1.025593E-09
        32  15 -6.966308E+06 -9.777255E+05 -3.315746E+05 -2.684325E+06 -3.136379E-09 -5.309934E-10
        32  16 -5.757672E+06 -1.150297E+06 -8.883485E+05 -1.690793E+06 -1.320298E-09  5.633679E-11
        32  17 -5.343406E+06 -2.103658E+05 -1.394259E+05 -2.180559E+06 -3.355085E-09 -5.761265E-11
        32  18 -5.404011E+06 -4.975415E+05  6.576971E+04 -2.371645E+06 -9.054051E-09 -2.911444E-10
        32  19 -8.456347E+06 -2.702570E+06 -1.734154E+06 -2.956273E+06  8.516397E+05  3.066313E+05
        32  20 -8.249951E+06 -1.462163E+06 -9.476835E+05 -3.126054E+06  5.530711E+05  1.558969E+05
        32  21 -8.526147E+06 -1.457919E+06 -7.289904E+05 -2.996369E+06  2.413418E+05  3.962820E+04
        32  22 -7.107618E+06 -1.926770E+06 -1.310456E+06 -2.324183E+06  8.320428E+05  2.996015E+05
        32  23 -6.797559E+06 -8.363653E+05 -5.431547E+05 -2.653811E+06  5.474866E+05  1.538619E+05
        32  24 -6.966240E+06 -9.777065E+05 -3.314524E+05 -2.684317E+06  2.497335E+05  4.276419E+04
        32  25 -5.756934E+06 -1.150025E+06 -8.869331E+05 -1.690600E+06  8.123969E+05  2.925314E+05
        32  26 -5.343082E+06 -2.102610E+05 -1.388247E+05 -2.180493E+06  5.418862E+05  1.518191E+05
        32  27 -5.403938E+06 -4.975211E+05  6.590018E+04 -2.371636E+06  2.581480E+05  4.590506E+04
        33   1 -8.270234E+06 -1.669910E+06 -6.410863E+05 -3.012862E+06 -2.005843E+05 -3.123566E+04
        33   2 -8.185811E+06 -1.462694E+06 -4.732339E+05 -2.975842E+06 -1.322077E+05 -5.661702E+03
        33   3 -8.102941E+06 -1.457498E+06 -3.953015E+05 -2.969153E+06 -6.225002E+04  1.573121E+04
        33   4 -6.915538E+06 -1.127097E+06 -2.704438E+05 -2.614070E+06 -2.001002E+05 -3.107056E+04
        33   5 -6.906726E+06 -9.705559E+05 -1.279843E+05 -2.619831E+06 -1.333460E+05 -6.099184E+03
        33   6 -6.899019E+06 -1.015511E+06 -7.398910E+04 -2.655945E+06 -6.502148E+04  1.468589E+04
        33   7 -5.559047E+06 -5.841159E+05  1.000292E+05 -2.214459E+06 -1.996145E+05 -3.090476E+04
        33   8 -5.626041E+06 -4.783054E+05  2.171186E+05 -2.263142E+06 -1.344867E+05 -6.537578E+03
        33   9 -5.693679E+06 -5.734580E+05  2.471972E+05 -2.342189E+06 -6.779884E+04  1.363852E+04
        33  10 -8.270278E+06 -1.669922E+06 -6.411649E+05 -3.012867E+06  3.399767E-09 -7.291418E-10
        33  11 -8.185830E+06 -1.462699E+06 -4.732673E+05 -2.975843E+06 -3.474729E-09  1.856385E-09
        33  12 -8.102945E+06 -1.457500E+06 -3.953093E+05 -2.969152E+06 -7.448413E-09  1.523093E-09
        33  13 -6.915582E+06 -1.127109E+06 -2.705218E+05 -2.614075E+06  2.806987E-09 -4.317807E-10
        33  14 -6.906745E+06 -9.705608E+05 -1.280182E+05 -2.619831E+06 -1.069422E-08  1.713824E-09
        33  15 -6.899023E+06 -1.015512E+06 -7.399751E+04 -2.655944E+06  8.547994E-10  2.622683E-09
        33  16 -5.559090E+06 -5.841277E+05  9.995178E+04 -2.214464E+06 -3.634332E-09  6.225604E-10
        33  17 -5.626060E+06 -4.783103E+05  2.170842E+05 -2.263142E+06 -5.405036E-10  1.392549E-09
        33  18 -5.693684E+06 -5.734594E+05  2.471882E+05 -2.342189E+06 -3.225759E-10  2.743558E-09
        33  19 -8.270234E+06 -1.669910E+06 -6.410863E+05 -3.012862E+06  2.005843E+05  3.123566E+04
        33  20 -8.185811E+06 -1.462694E+06 -4.732339E+05 -2.975842E+06  1.322077E+05  5.661702E+03
        33  21 -8.102941E+06 -1.457498E+06 -3.953015E+05 -2.969153E+06  6.225002E+04 -1.573121E+04
        33  22 -6.915538E+06 -1.127097E+06 -2.704438E+05 -2.614070E+06  2.001002E+05  3.107056E+04
        33  23 -6.906726E+06 -9.705559E+05 -1.279843E+05 -2.619831E+06  1.333460E+05  6.099184E+03
        33  24 -6.899019E+06 -1.015511E+06 -7.398910E+04 -2.655945E+06  6.502148E+04 -1.468589E+04
        33  25 -5.559047E+06 -5.841159E+05  1.000292E+05 -2.214459E+06  1.996145E+05  3.090476E+04
        33  26 -5.626041E+06 -4.783054E+05  2.171186E+05 -2.263142E+06  1.344867E+05  6.537578E+03
        33  27 -5.693679E+06 -5.734580E+05  2.471972E+05 -2.342189E+06  6.779884E+04 -1.363852E+04
        34   1 -7.883885E+06 -1.418214E+06 -3.261317E+05 -2.927747E+06 -5.115286E+04  1.609716E+04
        34   2 -7.787187E+06 -1.304500E+06 -2.608555E+05 -2.841506E+06 -3.368465E+04  1.678001E+04
        34   3 -7.608674E+06 -1.296462E+06 -2.115367E+05 -2.853074E+06 -1.583797E+04  1.642373E+04
        34   4 -6.886841E+06 -1.038586E+06 -5.809838E+04 -2.654189E+06 -5.315382E+04  1.534223E+04
        34   5 -6.926779E+06 -9.791212E+05 -2.974292E+04 -2.607760E+06 -3.609960E+04  1.587294E+04
        34   6 -6.884829E+06 -1.025222E+06 -1.699038E+04 -2.659139E+06 -1.867100E+04  1.536371E+04
        34   7 -5.888826E+06 -6.588948E+05  2.098464E+05 -2.380227E+06 -5.515830E+04  1.458597E+04
        34   8 -6.065650E+06 -6.536984E+05  2.013036E+05 -2.373718E+06 -3.851825E+04  1.496448E+04
        34   9 -6.160475E+06 -7.539553E+05  1.775089E+05 -2.464998E+06 -2.150768E+04  1.430235E+04
        34  10 -7.883888E+06 -1.418215E+06 -3.261371E+05 -2.927746E+06 -5.300888E-09 -4.472723E-10
        34  11 -7.787188E+06 -1.304501E+06 -2.608581E+05 -2.841506E+06  4.244543E-09 -2.458557E-09
        34  12 -7.608674E+06 -1.296462E+06 -2.115376E+05 -2.853074E+06  9.312902E-10  6.259089E-10
        34  13 -6.886844E+06 -1.038587E+06 -5.810417E+04 -2.654188E+06 -7.402167E-10 -7.649387E-12
        34  14 -6.926781E+06 -9.791218E+05 -2.974585E+04 -2.607760E+06 -3.935784E-09 -4.043682E-09
        34  15 -6.884830E+06 -1.025223E+06 -1.699148E+04 -2.659139E+06 -8.866169E-10 -9.685174E-10
        34  16 -5.888829E+06 -6.588959E+05  2.098403E+05 -2.380226E+06 -1.119103E-09  1.040035E-09
        34  17 -6.065651E+06 -6.536990E+05  2.013003E+05 -2.373717E+06  1.679136E-09 -2.479398E-09
        34  18 -6.160476E+06 -7.539556E+05  1.775076E+05 -2.464998E+06 -2.839540E-09  7.129297E-10
        34  19 -7.883885E+06 -1.418214E+06 -3.261317E+05 -2.927747E+06  5.115286E+04 -1.609716E+04
        34  20 -7.787187E+06 -1.304500E+06 -2.608555E+05 -2.841506E+06  3.368465E+04 -1.678001E+04
        34  21 -7.608674E+06 -1.296462E+06 -2.115367E+05 -2.853074E+06  1.583797E+04 -1.642373E+04
        34  22 -6.886841E+06 -1.038586E+06 -5.809838E+04 -2.654189E+06  5.315382E+04 -1.534223E+04
        34  23 -6.926779E+06 -9.791212E+05 -2.974292E+04 -2.607760E+06  3.609960E+04 -1.587294E+04
        34  24 -6.884829E+06 -1.025222E+06 -1.699038E+04 -2.659139E+06  1.867100E+04 -1.536371E+04
        34  25 -5.888826E+06 -6.588948E+05  2.098464E+05 -2.380227E+06  5.515830E+04 -1.458597E+04
        34  26 -6.065650E+06 -6.536984E+05  2.013036E+05 -2.373718E+06  3.851825E+04 -1.496448E+04
        34  27 -6.160475E+06 -7.539553E+05  1.775089E+05 -2.464998E+06  2.150768E+04 -1.430235E+04
        35   1 -7.345574E+06 -1.206109E+06 -1.375843E+05 -2.788215E+06 -1.197138E+04  1.343682E+04
        35   2 -7.233258E+06 -1.089674E+06 -8.856571E+04 -2.683477E+06 -5.390712E+03  8.241240E+03
        35   3 -7.017116E+06 -1.080569E+06 -4.318983E+04 -2.699425E+06  1.292831E+03  2.756838E+03
        35   4 -6.880599E+06 -1.030787E+06 -1.336161E+04 -2.662250E+06 -1.475319E+04  1.239772E+04
        35   5 -6.932384E+06 -9.763618E+05 -7.863457E+03 -2.602185E+06 -8.291778E+03  7.158842E+03
        35   6 -6.880353E+06 -1.029241E+06 -5.909392E+03 -2.662814E+06 -1.728777E+03  1.630877E+03
        35   7 -6.415410E+06 -8.554522E+05  1.108426E+05 -2.536198E+06 -1.753732E+04  1.135775E+04
        35   8 -6.631422E+06 -8.630448E+05  7.283068E+04 -2.520857E+06 -1.119440E+04  6.075863E+03
        35   9 -6.743572E+06 -9.779117E+05  3.136913E+04 -2.626195E+06 -4.751103E+03  5.046513E+02
        35  10 -7.345574E+06 -1.206109E+06 -1.375849E+05 -2.788215E+06  1.853658E-09  3.769617E-09
        35  11 -7.233258E+06 -1.089674E+06 -8.856589E+04 -2.683477E+06  2.197546E-10 -9.441723E-10
        35  12 -7.017116E+06 -1.080569E+06 -4.318985E+04 -2.699425E+06 -7.221517E-10  2.150118E-09
        35  13 -6.880599E+06 -1.030788E+06 -1.336231E+04 -2.662250E+06  4.760479E-09  4.873795E-10
        35  14 -6.932384E+06 -9.763618E+05 -7.863682E+03 -2.602185E+06 -4.781761E-10 -1.571279E-09
        35  15 -6.880353E+06 -1.029241E+06 -5.909402E+03 -2.662814E+06  1.878421E-09  4.874799E-10
        35  16 -6.415410E+06 -8.554525E+05  1.108417E+05 -2.536198E+06 -5.599301E-09  1.421163E-09
        35  17 -6.631422E+06 -8.630448E+05  7.283038E+04 -2.520857E+06 -3.666294E-09  2.812422E-10
        35  18 -6.743572E+06 -9.779117E+05  3.136908E+04 -2.626195E+06 -2.094616E-09  8.056886E-10
        35  19 -7.345574E+06 -1.206109E+06 -1.375843E+05 -2.788215E+06  1.197138E+04 -1.343682E+04
        35  20 -7.233258E+06 -1.089674E+06 -8.856571E+04 -2.683477E+06  5.390712E+03 -8.241240E+03
        35  21 -7.017116E+06 -1.080569E+06 -4.318983E+04 -2.699425E+06 -1.292831E+03 -2.756838E+03
        35  22 -6.880599E+06 -1.030787E+06 -1.336161E+04 -2.662250E+06  1.475319E+04 -1.239772E+04
        35  23 -6.932384E+06 -9.763618E+05 -7.863457E+03 -2.602185E+06  8.291778E+03 -7.158842E+03
        35  24 -6.880353E+06 -1.029241E+06 -5.909392E+03 -2.662814E+06  1.728777E+03 -1.630877E+03
        35  25 -6.415410E+06 -8.554522E+05  1.108426E+05 -2.536198E+06  1.753732E+04 -1.135775E+04
        35  26 -6.631422E+06 -8.630448E+05  7.283068E+04 -2.520857E+06  1.119440E+04 -6.075863E+03
        35  27 -6.743572E+06 -9.779117E+05  3.136913E+04 -2.626195E+06  4.751103E+03 -5.046513E+02
        36   1 -6.737238E+06 -9.755104E+05  3.326725E+04 -2.624395E+06  3.802421E+03 -1.073187E+03
        36   2 -6.625215E+06 -8.607634E+05  7.561356E+04 -2.519182E+06  9.682054E+03 -6.852905E+03
        36   3 -6.409173E+06 -8.528445E+05  1.150355E+05 -2.534637E+06  1.545784E+04 -1.233398E+04
        36   4 -6.880336E+06 -1.029263E+06 -5.714067E+03 -2.662767E+06  7.790295E+02 -2.199815E+03
        36   5 -6.932418E+06 -9.764380E+05 -6.754995E+03 -2.602205E+06  6.782573E+03 -7.934743E+03
        36   6 -6.880528E+06 -1.030472E+06 -1.081795E+04 -2.662326E+06  1.268126E+04 -1.337122E+04
        36   7 -7.023415E+06 -1.083014E+06 -4.469733E+04 -2.701131E+06 -2.243598E+03 -3.326161E+03
        36   8 -7.239530E+06 -1.092108E+06 -8.913234E+04 -2.685191E+06  3.884667E+03 -9.015994E+03
        36   9 -7.351670E+06 -1.208088E+06 -1.366919E+05 -2.789926E+06  9.906996E+03 -1.440758E+04
        36  10 -6.737238E+06 -9.755104E+05  3.326722E+04 -2.624395E+06  1.032383E-09  7.619396E-10
        36  11 -6.625215E+06 -8.607635E+05  7.561329E+04 -2.519182E+06 -2.942295E-09 -1.053023E-10
        36  12 -6.409173E+06 -8.528447E+05  1.150347E+05 -2.534637E+06  3.191840E-09  1.008102E-09
        36  13 -6.880336E+06 -1.029263E+06 -5.714077E+03 -2.662767E+06 -3.199181E-09  9.534837E-10
        36  14 -6.932418E+06 -9.764381E+05 -6.755199E+03 -2.602205E+06  4.907853E-10 -5.066054E-10
        36  15 -6.880528E+06 -1.030472E+06 -1.081859E+04 -2.662325E+06 -5.411649E-09  2.469768E-10
        36  16 -7.023415E+06 -1.083014E+06 -4.469736E+04 -2.701131E+06  2.131239E-09  4.257292E-10
        36  17 -7.239530E+06 -1.092108E+06 -8.913253E+04 -2.685190E+06  1.776801E-10  1.224511E-09
        36  18 -7.351671E+06 -1.208088E+06 -1.366925E+05 -2.789926E+06 -2.180800E-09 -5.431431E-10
        36  19 -6.737238E+06 -9.755104E+05  3.326725E+04 -2.624395E+06 -3.802421E+03  1.073187E+03
        36  20 -6.625215E+06 -8.607634E+05  7.561356E+04 -2.519182E+06 -9.682054E+03  6.852905E+03
        36  21 -6.409173E+06 -8.528445E+05  1.150355E+05 -2.534637E+06 -1.545784E+04  1.233398E+04
        36  22 -6.880336E+06 -1.029263E+06 -5.714067E+03 -2.662767E+06 -7.790295E+02  2.199815E+03
        36  23 -6.932418E+06 -9.764380E+05 -6.754995E+03 -2.602205E+06 -6.782573E+03  7.934743E+03
        36  24 -6.880528E+06 -1.030472E+06 -1.081795E+04 -2.662326E+06 -1.268126E+04  1.337122E+04
        36  25 -7.023415E+06 -1.083014E+06 -4.469733E+04 -2.701131E+06  2.243598E+03  3.326161E+03
        36  26 -7.239530E+06 -1.092108E+06 -8.913234E+04 -2.685191E+06 -3.884667E+03  9.015994E+03
        36  27 -7.351670E+06 -1.208088E+06 -1.366919E+05 -2.789926E+06 -9.906996E+03  1.440758E+04
        37   1 -6.155157E+06 -7.516909E+05  1.823679E+05 -2.463015E+06  1.893795E+04 -1.545107E+04
        37   2 -6.060914E+06 -6.524593E+05  2.088702E+05 -2.372468E+06  3.276817E+04 -1.728586E+04
        37   3 -5.883202E+06 -6.548506E+05  2.234615E+05 -2.380265E+06  4.622768E+04 -1.808297E+04
        37   4 -6.884626E+06 -1.025260E+06 -1.357328E+04 -2.658928E+06  1.611003E+04 -1.650928E+04
        37   5 -6.927109E+06 -9.796972E+05 -2.351489E+04 -2.607786E+06  3.036153E+04 -1.818989E+04
        37   6 -6.886228E+06 -1.035864E+06 -4.571655E+04 -2.655002E+06  4.423929E+04 -1.883318E+04
        37   7 -7.613572E+06 -1.298797E+06 -2.095602E+05 -2.854630E+06  1.328581E+04 -1.756613E+04
        37   8 -7.792569E+06 -1.306889E+06 -2.559655E+05 -2.842802E+06  2.795862E+04 -1.909253E+04
        37   9 -7.888272E+06 -1.416814E+06 -3.149836E+05 -2.929332E+06  4.225442E+04 -1.958207E+04
        37  10 -6.155157E+06 -7.516913E+05  1.823667E+05 -2.463015E+06  1.390974E-09  5.080724E-10
        37  11 -6.060916E+06 -6.524599E+05  2.088677E+05 -2.372468E+06  7.050281E-09  4.535888E-10
        37  12 -5.883204E+06 -6.548516E+05  2.234568E+05 -2.380264E+06  1.117832E-09 -3.561142E-11
        37  13 -6.884626E+06 -1.025260E+06 -1.357428E+04 -2.658928E+06 -6.537374E-09  1.119930E-10
        37  14 -6.927110E+06 -9.796978E+05 -2.351725E+04 -2.607785E+06 -1.558006E-09 -3.435287E-10
        37  15 -6.886230E+06 -1.035865E+06 -4.572091E+04 -2.655001E+06  1.259716E-10 -5.013312E-11
        37  16 -7.613572E+06 -1.298798E+06 -2.095611E+05 -2.854630E+06  1.282905E-09  1.201528E-09
        37  17 -7.792569E+06 -1.306890E+06 -2.559677E+05 -2.842802E+06 -5.508121E-09  2.565893E-10
        37  18 -7.888274E+06 -1.416815E+06 -3.149877E+05 -2.929332E+06  1.118883E-09  2.704761E-10
        37  19 -6.155157E+06 -7.516909E+05  1.823679E+05 -2.463015E+06 -1.893795E+04  1.545107E+04
        37  20 -6.060914E+06 -6.524593E+05  2.088702E+05 -2.372468E+06 -3.276817E+04  1.728586E+04
        37  21 -5.883202E+06 -6.548506E+05  2.234615E+05 -2.380265E+06 -4.622768E+04  1.808297E+04
        37  22 -6.884626E+06 -1.025260E+06 -1.357328E+04 -2.658928E+06 -1.611003E+04  1.650928E+04
        37  23 -6.927109E+06 -9.796972E+05 -2.351489E+04 -2.607786E+06 -3.036153E+04  1.818989E+04
        37  24 -6.886228E+06 -1.035864E+06 -4.571655E+04 -2.655002E+06 -4.423929E+04  1.883318E+04
        37  25 -7.613572E+06 -1.298797E+06 -2.095602E+05 -2.854630E+06 -1.328581E+04  1.756613E+04
        37  26 -7.792569E+06 -1.306889E+06 -2.559655E+05 -2.842802E+06 -2.795862E+04  1.909253E+04
        37  27 -7.888272E+06 -1.416814E+06 -3.149836E+05 -2.929332E+06 -4.225442E+04  1.958207E+04
        38   1 -5.690154E+06 -5.705559E+05  2.640602E+05 -2.337406E+06  5.659054E+04 -1.798253E+04
        38   2 -5.624623E+06 -4.824970E+05  2.453459E+05 -2.263069E+06  1.089876E+05 -3.178655E+03
        38   3 -5.546735E+06 -5.642782E+05  1.587010E+05 -2.226274E+06  1.598335E+05  1.579257E+04
        38   4 -6.897204E+06 -1.016210E+06 -5.815563E+04 -2.654664E+06  5.383401E+04 -1.902277E+04
        38   5 -6.909666E+06 -9.749179E+05 -1.006352E+05 -2.619430E+06  1.078871E+05 -3.601288E+03
        38   6 -6.910208E+06 -1.103964E+06 -2.124840E+05 -2.621734E+06  1.603804E+05  1.598551E+04
        38   7 -8.102839E+06 -1.461796E+06 -3.805001E+05 -2.971367E+06  5.108335E+04 -2.006093E+04
        38   8 -8.193099E+06 -1.467229E+06 -4.467643E+05 -2.975113E+06  1.067890E+05 -4.023029E+03
        38   9 -8.271864E+06 -1.643492E+06 -5.838383E+05 -3.016384E+06  1.609256E+05  1.617775E+04
        38  10 -5.690157E+06 -5.705571E+05  2.640536E+05 -2.337405E+06 -1.874673E-09 -1.945798E-09
        38  11 -5.624636E+06 -4.825002E+05  2.453233E+05 -2.263069E+06 -6.105168E-09 -2.141628E-09
        38  12 -5.546763E+06 -5.642854E+05  1.586520E+05 -2.226276E+06  1.047376E-09 -2.127297E-10
        38  13 -6.897207E+06 -1.016211E+06 -5.816179E+04 -2.654663E+06  2.272374E-09 -1.110898E-09
        38  14 -6.909678E+06 -9.749211E+05 -1.006573E+05 -2.619430E+06 -4.774752E-09 -2.343544E-09
        38  15 -6.910236E+06 -1.103971E+06 -2.125334E+05 -2.621736E+06  4.315315E-10 -2.500826E-09
        38  16 -8.102842E+06 -1.461797E+06 -3.805058E+05 -2.971366E+06  7.243758E-09 -1.783318E-09
        38  17 -8.193111E+06 -1.467232E+06 -4.467860E+05 -2.975113E+06  3.633717E-09 -1.526747E-09
        38  18 -8.271892E+06 -1.643499E+06 -5.838882E+05 -3.016386E+06  1.125923E-09 -2.751077E-09
        38  19 -5.690154E+06 -5.705559E+05  2.640602E+05 -2.337406E+06 -5.659054E+04  1.798253E+04
        38  20 -5.624623E+06 -4.824970E+05  2.453459E+05 -2.263069E+06 -1.089876E+05  3.178655E+03
        38  21 -5.546735E+06 -5.642782E+05  1.587010E+05 -2.226274E+06 -1.598335E+05 -1.579257E+04
        38  22 -6.897204E+06 -1.016210E+06 -5.815563E+04 -2.654664E+06 -5.383401E+04  1.902277E+04
        38  23 -6.909666E+06 -9.749179E+05 -1.006352E+05 -2.619430E+06 -1.078871E+05  3.601288E+03
        38  24 -6.910208E+06 -1.103964E+06 -2.124840E+05 -2.621734E+06 -1.603804E+05 -1.598551E+04
        38  25 -8.102839E+06 -1.461796E+06 -3.805001E+05 -2.971367E+06 -5.108335E+04  2.006093E+04
        38  26 -8.193099E+06 -1.467229E+06 -4.467643E+05 -2.975113E+06 -1.067890E+05  4.023029E+03
        38  27 -8.271864E+06 -1.643492E+06 -5.838383E+05 -3.016384E+06 -1.609256E+05 -1.617775E+04
        39   1 -5.405900E+06 -4.863066E+05  1.372927E+05 -2.341671E+06  2.082053E+05  2.696747E+04
        39   2 -5.354974E+06 -2.566625E+05 -2.233526E+04 -2.187875E+06  4.282268E+05  1.085803E+05
        39   3 -5.672004E+06 -9.936350E+05 -6.062423E+05 -1.803146E+06  6.351124E+05  2.247346E+05
        39   4 -6.951922E+06 -9.846775E+05 -2.604116E+05 -2.674725E+06  1.998831E+05  2.384025E+04
        39   5 -6.821624E+06 -8.719785E+05 -4.269294E+05 -2.648880E+06  4.339776E+05  1.107100E+05
        39   6 -7.063037E+06 -1.730204E+06 -1.029774E+06 -2.391829E+06  6.549439E+05  2.320397E+05
        39   7 -8.495608E+06 -1.483050E+06 -6.583052E+05 -3.007093E+06  1.915834E+05  2.071859E+04
        39   8 -8.286154E+06 -1.487023E+06 -8.317218E+05 -3.108838E+06  4.397123E+05  1.128321E+05
        39   9 -8.452060E+06 -2.466038E+06 -1.453494E+06 -2.979121E+06  6.747245E+05  2.393084E+05
        39  10 -5.405947E+06 -4.863192E+05  1.372090E+05 -2.341676E+06  2.948099E-09 -6.755906E-10
        39  11 -5.355175E+06 -2.567251E+05 -2.270572E+04 -2.187913E+06 -5.493133E-09 -1.640957E-09
        39  12 -5.672454E+06 -9.937993E+05 -6.071039E+05 -1.803262E+06 -5.355115E-10 -2.014668E-09
        39  13 -6.951965E+06 -9.846890E+05 -2.604887E+05 -2.674729E+06  2.763270E-09 -6.226324E-10
        39  14 -6.821831E+06 -8.720432E+05 -4.273112E+05 -2.648919E+06 -2.341470E-09  2.341308E-09
        39  15 -7.063517E+06 -1.730379E+06 -1.030693E+06 -2.391953E+06  1.117728E-09  8.125388E-10
        39  16 -8.495648E+06 -1.483060E+06 -6.583760E+05 -3.007096E+06 -4.320516E-09 -1.022398E-09
        39  17 -8.286367E+06 -1.487090E+06 -8.321150E+05 -3.108879E+06 -3.629898E-09  2.852099E-09
        39  18 -8.452571E+06 -2.466225E+06 -1.454472E+06 -2.979252E+06  2.645991E-09 -8.103791E-11
        39  19 -5.405900E+06 -4.863066E+05  1.372927E+05 -2.341671E+06 -2.082053E+05 -2.696747E+04
        39  20 -5.354974E+06 -2.566625E+05 -2.233526E+04 -2.187875E+06 -4.282268E+05 -1.085803E+05
        39  21 -5.672004E+06 -9.936350E+05 -6.062423E+05 -1.803146E+06 -6.351124E+05 -2.247346E+05
        39  22 -6.951922E+06 -9.846775E+05 -2.604116E+05 -2.674725E+06 -1.998831E+05 -2.384025E+04
        39  23 -6.821624E+06 -8.719785E+05 -4.269294E+05 -2.648880E+06 -4.339776E+05 -1.107100E+05
        39  24 -7.063037E+06 -1.730204E+06 -1.029774E+06 -2.391829E+06 -6.549439E+05 -2.320397E+05
        39  25 -8.495608E+06 -1.483050E+06 -6.583052E+05 -3.007093E+06 -1.915834E+05 -2.071859E+04
        39  26 -8.286154E+06 -1.487023E+06 -8.317218E+05 -3.108838E+06 -4.397123E+05 -1.128321E+05
        39  27 -8.452060E+06 -2.466038E+06 -1.453494E+06 -2.979121E+06 -6.747245E+05 -2.393084E+05
        40   1  3.294930E+05  7.201238E+04  3.711949E+05 -2.208684E+05 -1.220016E+03  2.317354E+05
        40   2  5.388602E+04 -4.377341E+03  1.860689E+05 -1.106705E+05 -7.080794E+02  1.352231E+05
        40   3 -6.074073E+03 -1.445038E+04  1.176765E+05 -1.142103E+04 -2.187803E+03  3.870249E+04
        40   4  3.106327E+05  8.201917E+03  3.549640E+05 -3.708662E+04 -1.144015E+03  2.305546E+05
        40   5  4.758378E+04 -2.471556E+04  1.808954E+05 -3.260590E+04 -7.012912E+02  1.368252E+05
        40   6 -3.356602E+02  8.186453E+03  1.216319E+05 -3.905702E+04 -2.217418E+03  4.308081E+04
        40   7  2.918989E+05 -5.553253E+04  3.387508E+05  1.466759E+05 -1.068706E+03  2.293740E+05
        40   8  4.130439E+04 -4.504033E+04  1.757252E+05  4.545611E+04 -6.940998E+02  1.384272E+05
        40   9  5.405596E+03  3.082546E+04  1.255877E+05 -6.669406E+04 -2.247422E+03  4.745928E+04
        40  10  3.294786E+05  7.195473E+04  3.710939E+05 -2.208681E+05  6.241599E-10  4.706729E-09
        40  11  5.388111E+04 -4.396973E+03  1.860346E+05 -1.106705E+05  8.183161E-10 -2.881479E-09
        40  12 -6.074480E+03 -1.445199E+04  1.176737E+05 -1.142096E+04 -2.497720E-09 -2.695357E-09
        40  13  3.106185E+05  8.144853E+03  3.548641E+05 -3.708640E+04  2.018376E-10 -3.441753E-09
        40  14  4.757875E+04 -2.473566E+04  1.808603E+05 -3.260582E+04  1.211179E-08 -2.638928E-10
        40  15 -3.361636E+02  8.184459E+03  1.216284E+05 -3.905694E+04 -3.191160E-09 -7.202900E-10
        40  16  2.918848E+05 -5.558901E+04  3.386519E+05  1.466761E+05 -1.451571E-09 -6.377778E-09
        40  17  4.129924E+04 -4.506090E+04  1.756892E+05  4.545619E+04 -4.017855E-10 -6.034997E-10
        40  18  5.404986E+03  3.082304E+04  1.255834E+05 -6.669397E+04  1.492126E-09  2.830464E-09
        40  19  3.294930E+05  7.201238E+04  3.711949E+05 -2.208684E+05  1.220016E+03 -2.317354E+05
        40  20  5.388602E+04 -4.377341E+03  1.860689E+05 -1.106705E+05  7.080794E+02 -1.352231E+05
        40  21 -6.074073E+03 -1.445038E+04  1.176765E+05 -1.142103E+04  2.187803E+03 -3.870249E+04
        40  22  3.106327E+05  8.201917E+03  3.549640E+05 -3.708662E+04  1.144015E+03 -2.305546E+05
        40  23  4.758378E+04 -2.471556E+04  1.808954E+05 -3.260590E+04  7.012912E+02 -1.368252E+05
        40  24 -3.356602E+02  8.186453E+03  1.216319E+05 -3.905702E+04  2.217418E+03 -4.308081E+04
        40  25  2.918989E+05 -5.553253E+04  3.387508E+05  1.466759E+05  1.068706E+03 -2.293740E+05
        40  26  4.130439E+04 -4.504033E+04  1.757252E+05  4.545611E+04  6.940998E+02 -1.384272E+05
        40  27  5.405596E+03  3.082546E+04  1.255877E+05 -6.669406E+04  2.247422E+03 -4.745928E+04
        41   1 -1.079379E+03 -5.693217E+04  1.004842E+05 -4.703234E+04 -3.914668E+03  2.076896E+04
        41   2 -2.023350E+04 -1.080319E+05  9.023326E+04 -3.197213E+04 -6.300346E+03 -3.298574E+04
        41   3 -1.318303E+04 -1.457589E+05  1.215002E+05 -2.879330E+04 -8.354433E+03 -8.673558E+04
        41   4  1.146290E+04 -3.451824E+03  1.103417E+05 -3.892797E+04 -3.940471E+03  2.486901E+04
        41   5  3.043674E+03 -1.017700E+04  1.086983E+05 -3.295758E+04 -6.323204E+03 -2.936399E+04
        41   6  2.090917E+04 -3.451191E+03  1.489008E+05 -3.886767E+04 -8.372816E+03 -8.359582E+04
        41   7  2.400529E+04  5.003148E+04  1.201992E+05 -3.082289E+04 -3.966166E+03  2.896939E+04
        41   8  2.632030E+04  8.768719E+04  1.271629E+05 -3.394317E+04 -6.346071E+03 -2.574170E+04
        41   9  5.500054E+04  1.388762E+05  1.763006E+05 -4.894438E+04 -8.391298E+03 -8.045535E+04
        41  10 -1.079511E+03 -5.693264E+04  1.004834E+05 -4.703227E+04 -7.683910E-10  1.008201E-08
        41  11 -2.023383E+04 -1.080331E+05  9.023114E+04 -3.197230E+04  5.139865E-09 -4.068509E-09
        41  12 -1.318512E+04 -1.457670E+05  1.214859E+05 -2.879388E+04 -2.182742E-10 -9.446928E-09
        41  13  1.146272E+04 -3.452493E+03  1.103405E+05 -3.892789E+04  7.439555E-09 -3.377007E-09
        41  14  3.043400E+03 -1.017793E+04  1.086966E+05 -3.295773E+04  1.682635E-09 -2.816949E-10
        41  15  2.090722E+04 -3.458713E+03  1.488876E+05 -3.886824E+04  2.307441E-09 -9.501759E-10
        41  16  2.400504E+04  5.003058E+04  1.201976E+05 -3.082279E+04  2.113943E-09 -1.160839E-08
        41  17  2.632008E+04  8.768647E+04  1.271616E+05 -3.394330E+04  4.238128E-09  7.367823E-10
        41  18  5.499873E+04  1.388692E+05  1.762883E+05 -4.894493E+04  1.098725E-09  9.400775E-09
        41  19 -1.079379E+03 -5.693217E+04  1.004842E+05 -4.703234E+04  3.914668E+03 -2.076896E+04
        41  20 -2.023350E+04 -1.080319E+05  9.023326E+04 -3.197213E+04  6.300346E+03  3.298574E+04
        41  21 -1.318303E+04 -1.457589E+05  1.215002E+05 -2.879330E+04  8.354433E+03  8.673558E+04
        41  22  1.146290E+04 -3.451824E+03  1.103417E+05 -3.892797E+04  3.940471E+03 -2.486901E+04
        41  23  3.043674E+03 -1.017700E+04  1.086983E+05 -3.295758E+04  6.323204E+03  2.936399E+04
        41  24  2.090917E+04 -3.451191E+03  1.489008E+05 -3.886767E+04  8.372816E+03  8.359582E+04
        41  25  2.400529E+04  5.003148E+04  1.201992E+05 -3.082289E+04  3.966166E+03 -2.896939E+04
        41  26  2.632030E+04  8.768719E+04  1.271629E+05 -3.394317E+04  6.346071E+03  2.574170E+04
        41  27  5.500054E+04  1.388762E+05  1.763006E+05 -4.894438E+04  8.391298E+03  8.045535E+04
        42   1 -4.185928E+04 -1.544376E+05  1.478664E+05 -8.888524E+04 -9.996349E+03 -1.131054E+05
        42   2  3.019963E+04 -2.534655E+05  2.596001E+05  1.047326E+05 -8.837787E+03 -2.614044E+05
        42   3  4.802028E+05 -2.387520E+05  5.624491E+05  2.884118E+05 -1.003522E+03 -4.096454E+05
        42   4 -1.221700E+03  1.918090E+04  1.812304E+05 -3.906505E+04 -1.003276E+04 -1.087558E+05
        42   5  8.414423E+04 -3.844765E+04  3.041824E+05 -3.237028E+04 -8.747220E+03 -2.666764E+05
        42   6  5.489190E+05  1.921068E+04  6.248725E+05 -3.562946E+04 -6.977151E+02 -4.245516E+05
        42   7  3.942358E+04  1.928339E+05  2.145945E+05  1.076941E+04 -1.006846E+04 -1.044051E+05
        42   8  1.381561E+05  1.766540E+05  3.487722E+05 -1.695217E+05 -8.654346E+03 -2.719502E+05
        42   9  6.180239E+05  2.774590E+05  6.873480E+05 -3.598071E+05 -3.764386E+02 -4.394640E+05
        42  10 -4.186282E+04 -1.544514E+05  1.478422E+05 -8.888615E+04 -2.650193E-09  3.120338E-09
        42  11  3.018120E+04 -2.535389E+05  2.594715E+05  1.047308E+05 -7.887202E-10 -2.731312E-09
        42  12  4.801578E+05 -2.389321E+05  5.621337E+05  2.884115E+05  1.609239E-09 -7.031361E-10
        42  13 -1.224983E+03  1.916817E+04  1.812080E+05 -3.906593E+04 -4.992791E-09 -3.678086E-09
        42  14  8.412506E+04 -3.852401E+04  3.040486E+05 -3.237216E+04 -1.491439E-09 -3.426882E-10
        42  15  5.488706E+05  1.901722E+04  6.245338E+05 -3.562970E+04 -2.945397E-09 -1.014892E-09
        42  16  3.942055E+04  1.928222E+05  2.145738E+05  1.076856E+04 -1.554330E-09 -5.080302E-09
        42  17  1.381362E+05  1.765746E+05  3.486332E+05 -1.695236E+05  1.571378E-09 -8.198904E-10
        42  18  6.179721E+05  2.772518E+05  6.869852E+05 -3.598073E+05  4.089921E-09  7.598814E-10
        42  19 -4.185928E+04 -1.544376E+05  1.478664E+05 -8.888524E+04  9.996349E+03  1.131054E+05
        42  20  3.019963E+04 -2.534655E+05  2.596001E+05  1.047326E+05  8.837787E+03  2.614044E+05
        42  21  4.802028E+05 -2.387520E+05  5.624491E+05  2.884118E+05  1.003522E+03  4.096454E+05
        42  22 -1.221700E+03  1.918090E+04  1.812304E+05 -3.906505E+04  1.003276E+04  1.087558E+05
        42  23  8.414423E+04 -3.844765E+04  3.041824E+05 -3.237028E+04  8.747220E+03  2.666764E+05
        42  24  5.489190E+05  1.921068E+04  6.248725E+05 -3.562946E+04  6.977151E+02  4.245516E+05
        42  25  3.942358E+04  1.928339E+05  2.145945E+05  1.076941E+04  1.006846E+04  1.044051E+05
        42  26  1.381561E+05  1.766540E+05  3.487722E+05 -1.695217E+05  8.654346E+03  2.719502E+05
        42  27  6.180239E+05  2.774590E+05  6.873480E+05 -3.598071E+05  3.764386E+02  4.394640E+05
        43   1 -6.331170E+06 -1.925503E+06 -1.210443E+06 -2.162462E+06 -5.085126E+05 -1.786885E+05
        43   2 -6.187410E+06 -1.184998E+06 -7.382622E+05 -2.269775E+06 -3.334051E+05 -8.098627E+04
        43   3 -6.320750E+06 -1.213329E+06 -6.086039E+05 -2.206891E+06 -1.467000E+05 -1.369315E+04
        43   4 -4.850424E+06 -1.234392E+06 -7.766916E+05 -1.629471E+06 -4.952891E+05 -1.737705E+05
        43   5 -4.672202E+06 -5.743760E+05 -3.202447E+05 -1.819804E+06 -3.299493E+05 -7.970308E+04
        43   6 -4.768439E+06 -6.801500E+05 -1.978781E+05 -1.840144E+06 -1.530169E+05 -1.607360E+04
        43   7 -3.367515E+06 -5.428179E+05 -3.431616E+05 -1.095214E+06 -4.820293E+05 -1.688318E+05
        43   8 -3.154763E+06  3.646146E+04  9.755802E+04 -1.368806E+06 -3.264833E+05 -7.841546E+04
        43   9 -3.213793E+06 -1.469310E+05  2.126436E+05 -1.472609E+06 -1.593509E+05 -1.845909E+04
        43  10 -6.331459E+06 -1.925608E+06 -1.210995E+06 -2.162535E+06 -1.389364E-09 -1.172633E-09
        43  11 -6.187532E+06 -1.185035E+06 -7.384859E+05 -2.269797E+06  2.951321E-10  4.585276E-10
        43  12 -6.320773E+06 -1.213335E+06 -6.086452E+05 -2.206893E+06  7.600098E-10  1.264068E-09
        43  13 -4.850697E+06 -1.234492E+06 -7.772139E+05 -1.629541E+06  1.952114E-09 -2.743312E-09
        43  14 -4.672321E+06 -5.744124E+05 -3.204631E+05 -1.819826E+06  3.746719E-09 -1.002130E-09
        43  15 -4.768465E+06 -6.801566E+05 -1.979229E+05 -1.840146E+06  1.695558E-09 -9.447215E-10
        43  16 -3.367773E+06 -5.429115E+05 -3.436548E+05 -1.095279E+06 -3.855062E-10  1.143727E-09
        43  17 -3.154880E+06  3.642599E+04  9.734489E+04 -1.368826E+06  3.577971E-10 -1.535267E-09
        43  18 -3.213820E+06 -1.469382E+05  2.125949E+05 -1.472611E+06  2.653490E-09 -6.470288E-10
        43  19 -6.331170E+06 -1.925503E+06 -1.210443E+06 -2.162462E+06  5.085126E+05  1.786885E+05
        43  20 -6.187410E+06 -1.184998E+06 -7.382622E+05 -2.269775E+06  3.334051E+05  8.098627E+04
        43  21 -6.320750E+06 -1.213329E+06 -6.086039E+05 -2.206891E+06  1.467000E+05  1.369315E+04
        43  22 -4.850424E+06 -1.234392E+06 -7.766916E+05 -1.629471E+06  4.952891E+05  1.737705E+05
        43  23 -4.672202E+06 -5.743760E+05 -3.202447E+05 -1.819804E+06  3.299493E+05  7.970308E+04
        43  24 -4.768439E+06 -6.801500E+05 -1.978781E+05 -1.840144E+06  1.530169E+05  1.607360E+04
        43  25 -3.367515E+06 -5.428179E+05 -3.431616E+05 -1.095214E+06  4.820293E+05  1.688318E+05
        43  26 -3.154763E+06  3.646146E+04  9.755802E+04 -1.368806E+06  3.264833E+05  7.841546E+04
        43  27 -3.213793E+06 -1.469310E+05  2.126436E+05 -1.472609E+06  1.593509E+05  1.845909E+04
        44   1 -6.092702E+06 -1.308606E+06 -5.350667E+05 -2.189458E+06 -1.226425E+05 -1.101097E+04
        44   2 -6.025090E+06 -1.145080E+06 -4.236799E+05 -2.140412E+06 -8.165318E+04  4.731959E+03
        44   3 -5.923007E+06 -1.150359E+06 -3.686621E+05 -2.147757E+06 -3.896978E+04  1.595913E+04
        44   4 -4.733171E+06 -7.776541E+05 -1.622487E+05 -1.803084E+06 -1.219823E+05 -1.077105E+04
        44   5 -4.745292E+06 -6.570494E+05 -7.560186E+04 -1.788550E+06 -8.241599E+04  4.439548E+03
        44   6 -4.722583E+06 -7.048235E+05 -4.408905E+04 -1.830417E+06 -4.116323E+04  1.513460E+04
        44   7 -3.371843E+06 -2.465619E+05  2.104003E+05 -1.415929E+06 -1.213202E+05 -1.053036E+04
        44   8 -3.463905E+06 -1.689160E+05  2.723283E+05 -1.436026E+06 -8.318041E+04  4.146532E+03
        44   9 -3.520765E+06 -2.592183E+05  2.803553E+05 -1.512525E+06 -4.336134E+04  1.430840E+04
        44  10 -6.092718E+06 -1.308610E+06 -5.350955E+05 -2.189459E+06  7.486574E-10 -5.344980E-10
        44  11 -6.025097E+06 -1.145082E+06 -4.236925E+05 -2.140412E+06  1.127662E-09 -1.335457E-09
        44  12 -5.923009E+06 -1.150359E+06 -3.686654E+05 -2.147756E+06  3.644918E-10 -2.138507E-09
        44  13 -4.733187E+06 -7.776582E+05 -1.622771E+05 -1.803086E+06 -1.324535E-09 -6.538582E-10
        44  14 -4.745299E+06 -6.570513E+05 -7.561475E+04 -1.788550E+06  1.586683E-09 -4.041306E-10
        44  15 -4.722585E+06 -7.048242E+05 -4.409268E+04 -1.830417E+06 -8.840003E-09 -1.902379E-09
        44  16 -3.371859E+06 -2.465660E+05  2.103723E+05 -1.415930E+06 -8.113191E-10 -9.629428E-10
        44  17 -3.463912E+06 -1.689178E+05  2.723152E+05 -1.436025E+06 -8.288058E-10  8.986225E-10
        44  18 -3.520767E+06 -2.592190E+05  2.803514E+05 -1.512525E+06 -1.492754E-09 -1.093641E-09
        44  19 -6.092702E+06 -1.308606E+06 -5.350667E+05 -2.189458E+06  1.226425E+05  1.101097E+04
        44  20 -6.025090E+06 -1.145080E+06 -4.236799E+05 -2.140412E+06  8.165318E+04 -4.731959E+03
        44  21 -5.923007E+06 -1.150359E+06 -3.686621E+05 -2.147757E+06  3.896978E+04 -1.595913E+04
        44  22 -4.733171E+06 -7.776541E+05 -1.622487E+05 -1.803084E+06  1.219823E+05  1.077105E+04
        44  23 -4.745292E+06 -6.570494E+05 -7.560186E+04 -1.788550E+06  8.241599E+04 -4.439548E+03
        44  24 -4.722583E+06 -7.048235E+05 -4.408905E+04 -1.830417E+06  4.116323E+04 -1.513460E+04
        44  25 -3.371843E+06 -2.465619E+05  2.104003E+05 -1.415929E+06  1.213202E+05  1.053036E+04
        44  26 -3.463905E+06 -1.689160E+05  2.723283E+05 -1.436026E+06  8.318041E+04 -4.146532E+03
        44  27 -3.520765E+06 -2.592183E+05  2.803553E+05 -1.512525E+06  4.336134E+04 -1.430840E+04
        45   1 -5.646003E+06 -1.077863E+06 -2.883387E+05 -2.087469E+06 -3.228884E+04  1.490430E+04
        45   2 -5.565985E+06 -9.625487E+05 -2.356191E+05 -1.992570E+06 -2.120723E+04  1.403955E+04
        45   3 -5.383936E+06 -9.661342E+05 -1.930445E+05 -2.016834E+06 -9.704244E+03  1.201164E+04
        45   4 -4.711767E+06 -7.240214E+05 -3.502230E+04 -1.832954E+06 -3.358927E+04  1.441564E+04
        45   5 -4.762097E+06 -6.596411E+05 -1.771461E+04 -1.775222E+06 -2.288248E+04  1.341329E+04
        45   6 -4.710335E+06 -7.140657E+05 -1.023893E+04 -1.836651E+06 -1.175678E+04  1.124769E+04
        45   7 -3.776687E+06 -3.701282E+05  2.182151E+05 -1.578092E+06 -3.489184E+04  1.392617E+04
        45   8 -3.957583E+06 -3.566969E+05  2.001319E+05 -1.557619E+06 -2.456013E+04  1.278614E+04
        45   9 -4.036295E+06 -4.619727E+05  1.725262E+05 -1.656290E+06 -1.381179E+04  1.048284E+04
        45  10 -5.646004E+06 -1.077864E+06 -2.883411E+05 -2.087468E+06 -8.948413E-10 -3.500380E-10
        45  11 -5.565985E+06 -9.625490E+05 -2.356204E+05 -1.992569E+06  2.184107E-09  3.139981E-09
        45  12 -5.383936E+06 -9.661344E+05 -1.930450E+05 -2.016834E+06  3.562709E-09  2.831746E-09
        45  13 -4.711768E+06 -7.240219E+05 -3.502481E+04 -1.832954E+06 -9.923525E-10 -1.160592E-09
        45  14 -4.762098E+06 -6.596415E+05 -1.771593E+04 -1.775222E+06 -2.459949E-09  4.343369E-09
        45  15 -4.710336E+06 -7.140659E+05 -1.023943E+04 -1.836651E+06  3.279297E-10  5.307728E-10
        45  16 -3.776689E+06 -3.701287E+05  2.182124E+05 -1.578091E+06 -1.220682E-09  6.141559E-11
        45  17 -3.957584E+06 -3.566972E+05  2.001304E+05 -1.557619E+06 -8.582471E-09  4.288999E-10
        45  18 -4.036296E+06 -4.619729E+05  1.725256E+05 -1.656290E+06 -3.270649E-09 -3.277267E-09
        45  19 -5.646003E+06 -1.077863E+06 -2.883387E+05 -2.087469E+06  3.228884E+04 -1.490430E+04
        45  20 -5.565985E+06 -9.625487E+05 -2.356191E+05 -1.992570E+06  2.120723E+04 -1.403955E+04
        45  21 -5.383936E+06 -9.661342E+05 -1.930445E+05 -2.016834E+06  9.704244E+03 -1.201164E+04
        45  22 -4.711767E+06 -7.240214E+05 -3.502230E+04 -1.832954E+06  3.358927E+04 -1.441564E+04
        45  23 -4.762097E+06 -6.596411E+05 -1.771461E+04 -1.775222E+06  2.288248E+04 -1.341329E+04
        45  24 -4.710335E+06 -7.140657E+05 -1.023893E+04 -1.836651E+06  1.175678E+04 -1.124769E+04
        45  25 -3.776687E+06 -3.701282E+05  2.182151E+05 -1.578092E+06  3.489184E+04 -1.392617E+04
        45  26 -3.957583E+06 -3.566969E+05  2.001319E+05 -1.557619E+06  2.456013E+04 -1.278614E+04
        45  27 -4.036295E+06 -4.619727E+05  1.725262E+05 -1.656290E+06  1.381179E+04 -1.048284E+04
        46   1 -5.044688E+06 -8.463876E+05 -9.931752E+04 -1.931345E+06 -7.058011E+03  9.040810E+03
        46   2 -4.953221E+06 -7.263635E+05 -5.540874E+04 -1.819648E+06 -2.290517E+03  4.216449E+03
        46   3 -4.740506E+06 -7.308225E+05 -1.403218E+04 -1.849462E+06  2.556466E+03 -8.309457E+02
        46   4 -4.706529E+06 -7.192988E+05 -8.258500E+03 -1.840092E+06 -8.962470E+03  8.333287E+03
        46   5 -4.767063E+06 -6.564722E+05 -5.013917E+03 -1.769553E+06 -4.268378E+03  3.482281E+03
        46   6 -4.706358E+06 -7.181113E+05 -4.239970E+03 -1.840531E+06  5.044385E+02 -1.591894E+03
        46   7 -4.368258E+06 -5.922033E+05  8.279047E+04 -1.748795E+06 -1.086808E+04  7.625336E+03
        46   8 -4.580872E+06 -5.865793E+05  4.537765E+04 -1.719445E+06 -6.246889E+03  2.747871E+03
        46   9 -4.672210E+06 -7.054002E+05  5.552070E+03 -1.831599E+06 -1.547699E+03 -2.352881E+03
        46  10 -5.044688E+06 -8.463877E+05 -9.931776E+04 -1.931345E+06  2.532193E-09  1.823478E-09
        46  11 -4.953221E+06 -7.263635E+05 -5.540878E+04 -1.819648E+06 -2.102669E-09  2.481477E-09
        46  12 -4.740506E+06 -7.308225E+05 -1.403219E+04 -1.849462E+06 -5.869770E-09 -1.330539E-09
        46  13 -4.706529E+06 -7.192988E+05 -8.258781E+03 -1.840092E+06 -4.341346E-09 -9.537168E-10
        46  14 -4.767063E+06 -6.564722E+05 -5.013974E+03 -1.769553E+06  1.187755E-09  2.471994E-09
        46  15 -4.706358E+06 -7.181113E+05 -4.239975E+03 -1.840531E+06 -3.497586E-09  6.375069E-10
        46  16 -4.368258E+06 -5.922034E+05  8.279014E+04 -1.748795E+06 -2.208037E-10 -3.211516E-09
        46  17 -4.580872E+06 -5.865793E+05  4.537756E+04 -1.719445E+06  1.416513E-09 -2.520113E-09
        46  18 -4.672210E+06 -7.054002E+05  5.552055E+03 -1.831599E+06  5.366645E-09  1.267673E-09
        46  19 -5.044688E+06 -8.463876E+05 -9.931752E+04 -1.931345E+06  7.058011E+03 -9.040810E+03
        46  20 -4.953221E+06 -7.263635E+05 -5.540874E+04 -1.819648E+06  2.290517E+03 -4.216449E+03
        46  21 -4.740506E+06 -7.308225E+05 -1.403218E+04 -1.849462E+06 -2.556466E+03  8.309457E+02
        46  22 -4.706529E+06 -7.192988E+05 -8.258500E+03 -1.840092E+06  8.962470E+03 -8.333287E+03
        46  23 -4.767063E+06 -6.564722E+05 -5.013917E+03 -1.769553E+06  4.268378E+03 -3.482281E+03
        46  24 -4.706358E+06 -7.181113E+05 -4.239970E+03 -1.840531E+06 -5.044385E+02  1.591894E+03
        46  25 -4.368258E+06 -5.922033E+05  8.279047E+04 -1.748795E+06  1.086808E+04 -7.625336E+03
        46  26 -4.580872E+06 -5.865793E+05  4.537765E+04 -1.719445E+06  6.246889E+03 -2.747871E+03
        46  27 -4.672210E+06 -7.054002E+05  5.552070E+03 -1.831599E+06  1.547699E+03  2.352881E+03
        47   1 -4.388762E+06 -5.976494E+05  8.243575E+04 -1.754005E+06  4.611020E+03 -4.178384E+03
        47   2 -4.301238E+06 -4.832598E+05  1.201105E+05 -1.645923E+06  9.505539E+03 -9.108752E+03
        47   3 -4.096541E+06 -4.889359E+05  1.552704E+05 -1.673698E+06  1.422311E+04 -1.353473E+04
        47   4 -4.707283E+06 -7.169883E+05 -4.303587E+03 -1.839348E+06  2.539884E+03 -4.946837E+03
        47   5 -4.765967E+06 -6.577848E+05 -5.662697E+03 -1.771097E+06  7.600613E+03 -9.817207E+03
        47   6 -4.707527E+06 -7.186905E+05 -9.669067E+03 -1.838718E+06  1.248359E+04 -1.418318E+04
        47   7 -5.025708E+06 -8.363225E+05 -9.105264E+04 -1.924652E+06  4.699108E+02 -5.714862E+03
        47   8 -5.230489E+06 -8.322989E+05 -1.314560E+05 -1.896186E+06  5.697253E+03 -1.052508E+04
        47   9 -5.318154E+06 -9.484250E+05 -1.746426E+05 -2.003592E+06  1.074596E+04 -1.483093E+04
        47  10 -4.388762E+06 -5.976494E+05  8.243567E+04 -1.754005E+06 -2.376230E-09 -5.139101E-10
        47  11 -4.301238E+06 -4.832599E+05  1.201102E+05 -1.645923E+06 -2.078153E-09  1.392500E-09
        47  12 -4.096541E+06 -4.889362E+05  1.552697E+05 -1.673697E+06 -3.075960E-09  4.045953E-09
        47  13 -4.707283E+06 -7.169883E+05 -4.303645E+03 -1.839348E+06 -1.533936E-09 -7.744430E-10
        47  14 -4.765967E+06 -6.577850E+05 -5.662986E+03 -1.771097E+06  2.174797E-09  2.446040E-09
        47  15 -4.707527E+06 -7.186908E+05 -9.669737E+03 -1.838718E+06 -4.261140E-09  1.007179E-09
        47  16 -5.025708E+06 -8.363226E+05 -9.105270E+04 -1.924652E+06  7.834708E-09  3.961753E-09
        47  17 -5.230489E+06 -8.322990E+05 -1.314562E+05 -1.896186E+06  1.152826E-09  6.486769E-10
        47  18 -5.318154E+06 -9.484253E+05 -1.746433E+05 -2.003592E+06  1.847910E-09 -2.562769E-09
        47  19 -4.388762E+06 -5.976494E+05  8.243575E+04 -1.754005E+06 -4.611020E+03  4.178384E+03
        47  20 -4.301238E+06 -4.832598E+05  1.201105E+05 -1.645923E+06 -9.505539E+03  9.108752E+03
        47  21 -4.096541E+06 -4.889359E+05  1.552704E+05 -1.673698E+06 -1.422311E+04  1.353473E+04
        47  22 -4.707283E+06 -7.169883E+05 -4.303587E+03 -1.839348E+06 -2.539884E+03  4.946837E+03
        47  23 -4.765967E+06 -6.577848E+05 -5.662697E+03 -1.771097E+06 -7.600613E+03  9.817207E+03
        47  24 -4.707527E+06 -7.186905E+05 -9.669067E+03 -1.838718E+06 -1.248359E+04  1.418318E+04
        47  25 -5.025708E+06 -8.363225E+05 -9.105264E+04 -1.924652E+06 -4.699108E+02  5.714862E+03
        47  26 -5.230489E+06 -8.322989E+05 -1.314560E+05 -1.896186E+06 -5.697253E+03  1.052508E+04
        47  27 -5.318154E+06 -9.484250E+05 -1.746426E+05 -2.003592E+06 -1.074596E+04  1.483093E+04
        48   1 -3.792389E+06 -3.661837E+05  2.374595E+05 -1.586096E+06  1.735977E+04 -1.601394E+04
        48   2 -3.724040E+06 -2.727528E+05  2.590674E+05 -1.498941E+06  2.961399E+04 -1.715269E+04
        48   3 -3.566346E+06 -2.873795E+05  2.695106E+05 -1.514736E+06  4.136659E+04 -1.689939E+04
        48   4 -4.713198E+06 -7.112146E+05 -1.207243E+04 -1.833272E+06  1.543847E+04 -1.673204E+04
        48   5 -4.758675E+06 -6.630652E+05 -2.120041E+04 -1.779578E+06  2.814076E+04 -1.770674E+04
        48   6 -4.714917E+06 -7.230918E+05 -4.186482E+04 -1.828846E+06  4.033896E+04 -1.728909E+04
        48   7 -5.633182E+06 -1.056197E+06 -2.616786E+05 -2.080116E+06  1.352032E+04 -1.744898E+04
        48   8 -5.792273E+06 -1.053315E+06 -3.015637E+05 -2.059789E+06  2.667023E+04 -1.825979E+04
        48   9 -5.862215E+06 -1.158726E+06 -3.533600E+05 -2.142429E+06  3.931339E+04 -1.767803E+04
        48  10 -3.792389E+06 -3.661841E+05  2.374585E+05 -1.586096E+06 -1.357772E-09  5.391517E-10
        48  11 -3.724041E+06 -2.727534E+05  2.590652E+05 -1.498941E+06  1.469341E-10  4.936218E-10
        48  12 -3.566348E+06 -2.873802E+05  2.695069E+05 -1.514735E+06 -6.377660E-10 -2.213906E-10
        48  13 -4.713199E+06 -7.112149E+05 -1.207341E+04 -1.833272E+06 -4.336077E-09  1.338788E-09
        48  14 -4.758676E+06 -6.630657E+05 -2.120249E+04 -1.779577E+06 -5.600829E-09  3.426619E-10
        48  15 -4.714919E+06 -7.230925E+05 -4.186845E+04 -1.828846E+06 -2.463990E-09  6.046383E-10
        48  16 -5.633182E+06 -1.056198E+06 -2.616795E+05 -2.080115E+06  5.946746E-10 -9.410522E-10
        48  17 -5.792274E+06 -1.053316E+06 -3.015657E+05 -2.059789E+06  8.667068E-10  4.626898E-09
        48  18 -5.862217E+06 -1.158726E+06 -3.533635E+05 -2.142429E+06  4.591108E-09  8.598020E-10
        48  19 -3.792389E+06 -3.661837E+05  2.374595E+05 -1.586096E+06 -1.735977E+04  1.601394E+04
        48  20 -3.724040E+06 -2.727528E+05  2.590674E+05 -1.498941E+06 -2.961399E+04  1.715269E+04
        48  21 -3.566346E+06 -2.873795E+05  2.695106E+05 -1.514736E+06 -4.136659E+04  1.689939E+04
        48  22 -4.713198E+06 -7.112146E+05 -1.207243E+04 -1.833272E+06 -1.543847E+04  1.673204E+04
        48  23 -4.758675E+06 -6.630652E+05 -2.120041E+04 -1.779578E+06 -2.814076E+04  1.770674E+04
        48  24 -4.714917E+06 -7.230918E+05 -4.186482E+04 -1.828846E+06 -4.033896E+04  1.728909E+04
        48  25 -5.633182E+06 -1.056197E+06 -2.616786E+05 -2.080116E+06 -1.352032E+04  1.744898E+04
        48  26 -5.792273E+06 -1.053315E+06 -3.015637E+05 -2.059789E+06 -2.667023E+04  1.825979E+04
        48  27 -5.862215E+06 -1.158726E+06 -3.533600E+05 -2.142429E+06 -3.931339E+04  1.767803E+04
        49   1 -3.358582E+06 -1.917395E+05  3.168814E+05 -1.462832E+06  5.092008E+04 -1.629812E+04
        49   2 -3.315287E+06 -1.156772E+05  2.962266E+05 -1.401737E+06  9.821947E+04 -2.253484E+03
        49   3 -3.263306E+06 -2.072195E+05  2.108491E+05 -1.369523E+06  1.437828E+05  1.642508E+04
        49   4 -4.727886E+06 -7.003200E+05 -5.278994E+04 -1.826051E+06  4.898358E+04 -1.703063E+04
        49   5 -4.738402E+06 -6.597140E+05 -9.054466E+04 -1.795236E+06  9.773077E+04 -2.445224E+03
        49   6 -4.740634E+06 -7.871873E+05 -1.942961E+05 -1.793290E+06  1.447354E+05  1.677472E+04
        49   7 -6.095379E+06 -1.208808E+06 -4.226284E+05 -2.188551E+06  4.705172E+04 -1.776147E+04
        49   8 -6.159556E+06 -1.203621E+06 -4.774987E+05 -2.187912E+06  9.724310E+04 -2.636581E+03
        49   9 -6.215845E+06 -1.366983E+06 -5.996411E+05 -2.216125E+06  1.456852E+05  1.712318E+04
        49  10 -3.358585E+06 -1.917405E+05  3.168760E+05 -1.462831E+06 -3.881326E-09 -1.066144E-10
        49  11 -3.315298E+06 -1.156798E+05  2.962084E+05 -1.401737E+06 -1.795108E-09  3.565594E-10
        49  12 -3.263328E+06 -2.072254E+05  2.108095E+05 -1.369525E+06 -7.306330E-10  9.402830E-10
        49  13 -4.727889E+06 -7.003209E+05 -5.279501E+04 -1.826051E+06  3.065519E-10 -1.934562E-10
        49  14 -4.738412E+06 -6.597166E+05 -9.056275E+04 -1.795235E+06 -7.336712E-09  3.076187E-09
        49  15 -4.740657E+06 -7.871933E+05 -1.943363E+05 -1.793292E+06  6.281313E-09  2.116360E-09
        49  16 -6.095381E+06 -1.208809E+06 -4.226332E+05 -2.188550E+06  1.063014E-09 -1.568951E-09
        49  17 -6.159567E+06 -1.203623E+06 -4.775166E+05 -2.187911E+06  9.164521E-09 -2.222130E-09
        49  18 -6.215868E+06 -1.366989E+06 -5.996819E+05 -2.216127E+06  5.159760E-09  1.379743E-09
        49  19 -3.358582E+06 -1.917395E+05  3.168814E+05 -1.462832E+06 -5.092008E+04  1.629812E+04
        49  20 -3.315287E+06 -1.156772E+05  2.962266E+05 -1.401737E+06 -9.821947E+04  2.253484E+03
        49  21 -3.263306E+06 -2.072195E+05  2.108491E+05 -1.369523E+06 -1.437828E+05 -1.642508E+04
        49  22 -4.727886E+06 -7.003200E+05 -5.278994E+04 -1.826051E+06 -4.898358E+04  1.703063E+04
        49  23 -4.738402E+06 -6.597140E+05 -9.054466E+04 -1.795236E+06 -9.773077E+04  2.445224E+03
        49  24 -4.740634E+06 -7.871873E+05 -1.942961E+05 -1.793290E+06 -1.447354E+05 -1.677472E+04
        49  25 -6.095379E+06 -1.208808E+06 -4.226284E+05 -2.188551E+06 -4.705172E+04  1.776147E+04
        49  26 -6.159556E+06 -1.203621E+06 -4.774987E+05 -2.187912E+06 -9.724310E+04  2.636581E+03
        49  27 -6.215845E+06 -1.366983E+06 -5.996411E+05 -2.216125E+06 -1.456852E+05 -1.712318E+04
        50   1 -3.160694E+06 -1.232835E+05  1.894643E+05 -1.463233E+06  1.871549E+05  2.725956E+04
        50   2 -3.109133E+06  7.052524E+04  4.303050E+04 -1.363823E+06  3.886656E+05  1.019673E+05
        50   3 -3.412918E+06 -6.218761E+05 -4.954296E+05 -1.029659E+06  5.786458E+05  2.068151E+05
        50   4 -4.781555E+06 -6.721511E+05 -2.370657E+05 -1.839636E+06  1.812099E+05  2.501588E+04
        50   5 -4.652007E+06 -5.587773E+05 -3.834142E+05 -1.830513E+06  3.923191E+05  1.033239E+05
        50   6 -4.880596E+06 -1.334941E+06 -9.302105E+05 -1.586375E+06  5.919065E+05  2.117284E+05
        50   7 -6.399877E+06 -1.220988E+06 -6.638165E+05 -2.215206E+06  1.752816E+05  2.277693E+04
        50   8 -6.192564E+06 -1.187835E+06 -8.100805E+05 -2.296113E+06  3.959613E+05  1.046756E+05
        50   9 -6.346118E+06 -2.047450E+06 -1.365204E+06 -2.141758E+06  6.051307E+05  2.166192E+05
        50  10 -3.160732E+06 -1.232938E+05  1.893967E+05 -1.463238E+06  4.691107E-09 -5.832792E-10
        50  11 -3.109299E+06  7.047315E+04  4.272527E+04 -1.363855E+06  3.364118E-09 -4.965852E-09
        50  12 -3.413290E+06 -6.220128E+05 -4.961435E+05 -1.029755E+06 -4.025081E-09 -2.176579E-09
        50  13 -4.781590E+06 -6.721607E+05 -2.371291E+05 -1.839640E+06  5.111010E-09 -8.712717E-10
        50  14 -4.652176E+06 -5.588306E+05 -3.837262E+05 -1.830546E+06 -5.139111E-10  6.382101E-09
        50  15 -4.880987E+06 -1.335085E+06 -9.309596E+05 -1.586477E+06  1.433379E-09  1.344074E-09
        50  16 -6.399911E+06 -1.220997E+06 -6.638759E+05 -2.215209E+06  4.996514E-09 -2.631370E-09
        50  17 -6.192737E+06 -1.187890E+06 -8.103993E+05 -2.296147E+06 -5.377903E-09  5.352744E-10
        50  18 -6.346528E+06 -2.047601E+06 -1.365990E+06 -2.141865E+06  4.030131E-09 -2.799798E-09
        50  19 -3.160694E+06 -1.232835E+05  1.894643E+05 -1.463233E+06 -1.871549E+05 -2.725956E+04
        50  20 -3.109133E+06  7.052524E+04  4.303050E+04 -1.363823E+06 -3.886656E+05 -1.019673E+05
        50  21 -3.412918E+06 -6.218761E+05 -4.954296E+05 -1.029659E+06 -5.786458E+05 -2.068151E+05
        50  22 -4.781555E+06 -6.721511E+05 -2.370657E+05 -1.839636E+06 -1.812099E+05 -2.501588E+04
        50  23 -4.652007E+06 -5.587773E+05 -3.834142E+05 -1.830513E+06 -3.923191E+05 -1.033239E+05
        50  24 -4.880596E+06 -1.334941E+06 -9.302105E+05 -1.586375E+06 -5.919065E+05 -2.117284E+05
        50  25 -6.399877E+06 -1.220988E+06 -6.638165E+05 -2.215206E+06 -1.752816E+05 -2.277693E+04
        50  26 -6.192564E+06 -1.187835E+06 -8.100805E+05 -2.296113E+06 -3.959613E+05 -1.046756E+05
        50  27 -6.346118E+06 -2.047450E+06 -1.365204E+06 -2.141758E+06 -6.051307E+05 -2.166192E+05
        51   1  2.616465E+05 -2.928441E+05  2.545468E+05 -2.179473E+03  1.177240E+04  1.352697E+04
        51   2  2.663030E+05 -3.093725E+05  2.466262E+05  2.248346E+02  3.675076E+04  4.424139E+03
        51   3  2.610215E+05 -3.262292E+05  2.424196E+05 -7.919230E+03  3.742505E+04 -4.774413E+03
        51   4 -9.799313E+03 -1.381142E+06 -1.351402E+04 -2.372365E+03  1.185481E+04 -6.933148E+03
        51   5  1.090493E+03 -1.379803E+06 -8.008020E+03  2.922147E+03  3.678710E+04 -2.626915E+03
        51   6 -2.984172E+02 -1.381129E+06 -8.112311E+03 -2.332459E+03  3.739659E+04  1.583466E+03
        51   7 -2.813332E+05 -2.468360E+06 -2.816608E+05 -2.563854E+03  1.193731E+04 -2.735743E+04
        51   8 -2.642048E+05 -2.449181E+06 -2.627224E+05  5.615968E+03  3.682341E+04 -9.665861E+03
        51   9 -2.616985E+05 -2.435005E+06 -2.587218E+05  3.246072E+03  3.736822E+04  7.930589E+03
        51  10  2.616463E+05 -2.928443E+05  2.545462E+05 -2.179601E+03 -1.053918E-08  4.053712E-09
        51  11  2.663016E+05 -3.093729E+05  2.466237E+05  2.247037E+02 -4.379373E-09 -1.385782E-09
        51  12  2.610200E+05 -3.262296E+05  2.424169E+05 -7.919087E+03 -3.991616E-09 -3.325634E-09
        51  13 -9.799476E+03 -1.381142E+06 -1.351437E+04 -2.372299E+03 -1.778575E-08  8.772388E-11
        51  14  1.089039E+03 -1.379804E+06 -8.010575E+03  2.922225E+03 -1.317751E-09 -2.334895E-09
        51  15 -2.999187E+02 -1.381129E+06 -8.114942E+03 -2.332506E+03 -5.877144E-10 -2.420300E-10
        51  16 -2.813335E+05 -2.468361E+06 -2.816625E+05 -2.563590E+03 -1.209260E-08 -7.260385E-09
        51  17 -2.642062E+05 -2.449181E+06 -2.627251E+05  5.616255E+03 -1.492799E-09 -5.996768E-09
        51  18 -2.617000E+05 -2.435006E+06 -2.587246E+05  3.245833E+03  1.662654E-09 -6.593081E-10
        51  19  2.616465E+05 -2.928441E+05  2.545468E+05 -2.179473E+03 -1.177240E+04 -1.352697E+04
        51  20  2.663030E+05 -3.093725E+05  2.466262E+05  2.248346E+02 -3.675076E+04 -4.424139E+03
        51  21  2.610215E+05 -3.262292E+05  2.424196E+05 -7.919230E+03 -3.742505E+04  4.774413E+03
        51  22 -9.799313E+03 -1.381142E+06 -1.351402E+04 -2.372365E+03 -1.185481E+04  6.933148E+03
        51  23  1.090493E+03 -1.379803E+06 -8.008020E+03  2.922147E+03 -3.678710E+04  2.626915E+03
        51  24 -2.984172E+02 -1.381129E+06 -8.112311E+03 -2.332459E+03 -3.739659E+04 -1.583466E+03
        51  25 -2.813332E+05 -2.468360E+06 -2.816608E+05 -2.563854E+03 -1.193731E+04  2.735743E+04
        51  26 -2.642048E+05 -2.449181E+06 -2.627224E+05  5.615968E+03 -3.682341E+04  9.665861E+03
        51  27 -2.616985E+05 -2.435005E+06 -2.587218E+05  3.246072E+03 -3.736822E+04 -7.930589E+03
        52   1  2.549753E+05 -3.497338E+05  2.370290E+05 -6.145816E+03  3.377604E+04  4.277720E+03
        52   2  2.510222E+05 -3.704230E+05  2.281427E+05 -9.234226E+02  3.449647E+04  8.767673E+03
        52   3  2.376725E+05 -3.933116E+05  2.141442E+05 -1.058289E+04  3.220441E+04  1.323770E+04
        52   4 -6.772309E+02 -1.381078E+06 -8.899351E+03 -3.296469E+03  3.378661E+04  3.032461E+03
        52   5  8.781913E+02 -1.379831E+06 -1.203677E+04  4.124219E+03  3.449778E+04  9.176259E+03
        52   6 -7.259713E+03 -1.381076E+06 -2.144256E+04 -3.338551E+03  3.219429E+04  1.530026E+04
        52   7 -2.564067E+05 -2.411446E+06 -2.549025E+05 -4.505508E+02  3.379717E+04  1.789258E+03
        52   8 -2.493394E+05 -2.388302E+06 -2.522876E+05  9.165004E+03  3.449909E+04  9.584175E+03
        52   9 -2.522624E+05 -2.367944E+06 -2.570979E+05  3.895666E+03  3.218421E+04  1.735954E+04
        52  10  2.549740E+05 -3.497341E+05  2.370268E+05 -6.145932E+03 -4.244884E-09  8.305691E-09
        52  11  2.510209E+05 -3.704234E+05  2.281403E+05 -9.236661E+02  4.376605E-09 -4.100495E-09
        52  12  2.376713E+05 -3.933120E+05  2.141419E+05 -1.058323E+04  4.557317E-09 -1.097318E-08
        52  13 -6.784584E+02 -1.381079E+06 -8.901512E+03 -3.296552E+03  6.013647E-09  3.097412E-10
        52  14  8.768914E+02 -1.379831E+06 -1.203917E+04  4.123964E+03 -7.273016E-10 -2.925277E-09
        52  15 -7.260888E+03 -1.381077E+06 -2.144495E+04 -3.338948E+03 -3.292079E-10 -2.470662E-10
        52  16 -2.564079E+05 -2.411446E+06 -2.549046E+05 -4.505995E+02  1.864072E-09 -1.274239E-08
        52  17 -2.493407E+05 -2.388302E+06 -2.522900E+05  9.164738E+03 -1.263813E-09 -5.164687E-09
        52  18 -2.522636E+05 -2.367945E+06 -2.571004E+05  3.895216E+03 -1.002389E-09  5.838606E-09
        52  19  2.549753E+05 -3.497338E+05  2.370290E+05 -6.145816E+03 -3.377604E+04 -4.277720E+03
        52  20  2.510222E+05 -3.704230E+05  2.281427E+05 -9.234226E+02 -3.449647E+04 -8.767673E+03
        52  21  2.376725E+05 -3.933116E+05  2.141442E+05 -1.058289E+04 -3.220441E+04 -1.323770E+04
        52  22 -6.772309E+02 -1.381078E+06 -8.899351E+03 -3.296469E+03 -3.378661E+04 -3.032461E+03
        52  23  8.781913E+02 -1.379831E+06 -1.203677E+04  4.124219E+03 -3.449778E+04 -9.176259E+03
        52  24 -7.259713E+03 -1.381076E+06 -2.144256E+04 -3.338551E+03 -3.219429E+04 -1.530026E+04
        52  25 -2.564067E+05 -2.411446E+06 -2.549025E+05 -4.505508E+02 -3.379717E+04 -1.789258E+03
        52  26 -2.493394E+05 -2.388302E+06 -2.522876E+05  9.165004E+03 -3.449909E+04 -9.584175E+03
        52  27 -2.522624E+05 -2.367944E+06 -2.570979E+05  3.895666E+03 -3.218421E+04 -1.735954E+04
        53   1  2.410428E+05 -4.275607E+05  2.015290E+05  1.177140E+03  3.398082E+04  2.357959E+04
        53   2  2.400440E+05 -4.430147E+05  1.800809E+05 -7.348414E+03  3.171220E+04  3.495255E+04
        53   3  1.521449E+05 -4.812150E+05  1.295958E+05 -3.518754E+04  9.707490E+03  4.616656E+04
        53   4  3.796438E+03 -1.385976E+06 -2.601222E+04 -4.113991E+03  3.401337E+04  1.932321E+04
        53   5  9.270088E+03 -1.373664E+06 -4.135758E+04  5.245799E+03  3.166686E+04  4.155856E+04
        53   6 -7.411547E+04 -1.386022E+06 -9.332485E+04 -4.711803E+03  9.571738E+03  6.363461E+04
        53   7 -2.335159E+05 -2.343546E+06 -2.536174E+05 -9.395457E+03  3.404602E+04  1.507336E+04
        53   8 -2.215660E+05 -2.303517E+06 -2.628566E+05  1.782248E+04  3.162176E+04  4.815466E+04
        53   9 -3.004338E+05 -2.290081E+06 -3.163046E+05  2.572087E+04  9.437606E+03  8.107717E+04
        53  10  2.410414E+05 -4.275616E+05  2.015258E+05  1.176495E+03 -1.892250E-09  2.865017E-09
        53  11  2.400426E+05 -4.430162E+05  1.800767E+05 -7.349306E+03 -4.329352E-09 -2.387342E-09
        53  12  1.521442E+05 -4.812173E+05  1.295916E+05 -3.518790E+04 -5.237454E-09 -6.574831E-09
        53  13  3.795096E+03 -1.385977E+06 -2.601510E+04 -4.114520E+03 -1.295480E-09  9.252470E-11
        53  14  9.268547E+03 -1.373666E+06 -4.136272E+04  5.244738E+03 -5.772050E-09 -4.266678E-09
        53  15 -7.411666E+04 -1.386027E+06 -9.333264E+04 -4.712294E+03 -2.170774E-09 -5.087110E-10
        53  16 -2.335172E+05 -2.343546E+06 -2.536201E+05 -9.395870E+03 -1.937347E-09 -8.499179E-09
        53  17 -2.215677E+05 -2.303520E+06 -2.628628E+05  1.782125E+04 -7.452979E-09 -9.447577E-09
        53  18 -3.004356E+05 -2.290088E+06 -3.163171E+05  2.572025E+04 -9.525490E-10  1.294116E-10
        53  19  2.410428E+05 -4.275607E+05  2.015290E+05  1.177140E+03 -3.398082E+04 -2.357959E+04
        53  20  2.400440E+05 -4.430147E+05  1.800809E+05 -7.348414E+03 -3.171220E+04 -3.495255E+04
        53  21  1.521449E+05 -4.812150E+05  1.295958E+05 -3.518754E+04 -9.707490E+03 -4.616656E+04
        53  22  3.796438E+03 -1.385976E+06 -2.601222E+04 -4.113991E+03 -3.401337E+04 -1.932321E+04
        53  23  9.270088E+03 -1.373664E+06 -4.135758E+04  5.245799E+03 -3.166686E+04 -4.155856E+04
        53  24 -7.411547E+04 -1.386022E+06 -9.332485E+04 -4.711803E+03 -9.571738E+03 -6.363461E+04
        53  25 -2.335159E+05 -2.343546E+06 -2.536174E+05 -9.395457E+03 -3.404602E+04 -1.507336E+04
        53  26 -2.215660E+05 -2.303517E+06 -2.628566E+05  1.782248E+04 -3.162176E+04 -4.815466E+04
        53  27 -3.004338E+05 -2.290081E+06 -3.163046E+05  2.572087E+04 -9.437606E+03 -8.107717E+04
        54   1  7.220011E+04  8.008415E+05  4.112533E+04 -1.272074E+02  2.526441E+04 -4.414275E+02
        54   2  7.229434E+04  8.009066E+05  4.165573E+04 -9.959619E+01  2.517665E+04 -1.137361E+03
        54   3  7.255877E+04  8.011103E+05  4.268306E+04 -6.155394E+01  2.497473E+04 -1.833360E+03
        54   4 -2.189424E+01  4.801326E+05  4.835481E+02  2.310824E+00  2.526576E+04 -3.670172E+02
        54   5  1.717886E+01  4.800870E+05  8.487348E+02 -2.872450E+00  2.517789E+04 -7.884690E+02
        54   6  1.789012E+02  4.801324E+05  1.520540E+03  2.375254E+00  2.497582E+04 -1.209982E+03
        54   7 -7.224809E+04  1.595292E+05 -4.015859E+04  1.317672E+02  2.526712E+04 -2.926435E+02
        54   8 -7.226419E+04  1.593729E+05 -3.995864E+04  9.380825E+01  2.517913E+04 -4.397481E+02
        54   9 -7.220522E+04  1.592601E+05 -3.964245E+04  6.628021E+01  2.497692E+04 -5.869096E+02
        54  10  7.219942E+04  8.008413E+05  4.112413E+04 -1.271984E+02  4.826815E-09 -7.359976E-08
        54  11  7.229366E+04  8.009065E+05  4.165453E+04 -9.957313E+01  1.925277E-10 -1.990731E-09
        54  12  7.255810E+04  8.011101E+05  4.268188E+04 -6.151708E+01  3.213552E-09  7.113756E-08
        54  13 -2.257992E+01  4.801324E+05  4.823480E+02  2.318291E+00 -6.783037E-10  4.216471E-10
        54  14  1.649781E+01  4.800868E+05  8.475421E+02 -2.856465E+00  8.523630E-10 -7.728601E-10
        54  15  1.782309E+02  4.801323E+05  1.519364E+03  2.399588E+00  2.926640E-09  5.019804E-10
        54  16 -7.224878E+04  1.595290E+05 -4.015979E+04  1.317732E+02  1.523944E-09  7.311031E-08
        54  17 -7.226487E+04  1.593727E+05 -3.995983E+04  9.381717E+01 -3.676495E-09  1.814887E-09
        54  18 -7.220589E+04  1.592599E+05 -3.964362E+04  6.629201E+01 -2.829885E-09 -7.097612E-08
        54  19  7.220011E+04  8.008415E+05  4.112533E+04 -1.272074E+02 -2.526441E+04  4.414275E+02
        54  20  7.229434E+04  8.009066E+05  4.165573E+04 -9.959619E+01 -2.517665E+04  1.137361E+03
        54  21  7.255877E+04  8.011103E+05  4.268306E+04 -6.155394E+01 -2.497473E+04  1.833360E+03
        54  22 -2.189424E+01  4.801326E+05  4.835481E+02  2.310824E+00 -2.526576E+04  3.670172E+02
        54  23  1.717886E+01  4.800870E+05  8.487348E+02 -2.872450E+00 -2.517789E+04  7.884690E+02
        54  24  1.789012E+02  4.801324E+05  1.520540E+03  2.375254E+00 -2.497582E+04  1.209982E+03
        54  25 -7.224809E+04  1.595292E+05 -4.015859E+04  1.317672E+02 -2.526712E+04  2.926435E+02
        54  26 -7.226419E+04  1.593729E+05 -3.995864E+04  9.380825E+01 -2.517913E+04  4.397481E+02
        54  27 -7.220522E+04  1.592601E+05 -3.964245E+04  6.628021E+01 -2.497692E+04  5.869096E+02
        55   1  7.272316E+04  8.013693E+05  4.342035E+04 -1.613366E+02  2.484719E+04 -2.196321E+03
        55   2  7.359514E+04  8.010907E+05  4.612085E+04  7.119323E+02  2.413646E+04 -6.049750E+03
        55   3  7.609155E+04  8.017245E+05  5.173539E+04  1.539311E+03  2.257445E+04 -9.903707E+03
        55   4  2.644984E+02  4.802362E+05  2.019468E+03 -1.023871E+01  2.484823E+04 -1.506749E+03
        55   5  9.145074E+02  4.799568E+05  3.606365E+03  1.325914E+01  2.413644E+04 -3.314063E+03
        55   6  2.834462E+03  4.802353E+05  6.688180E+03 -9.139425E+00  2.257315E+04 -5.121889E+03
        55   7 -7.219843E+04  1.592086E+05 -3.938193E+04  1.407883E+02  2.484927E+04 -8.175152E+02
        55   8 -7.177049E+04  1.589280E+05 -3.890887E+04 -6.850241E+02  2.413641E+04 -5.797218E+02
        55   9 -7.042721E+04  1.588508E+05 -3.836028E+04 -1.556740E+03  2.257182E+04 -3.424351E+02
        55  10  7.272250E+04  8.013691E+05  4.341918E+04 -1.612926E+02  3.512211E-09 -6.261718E-08
        55  11  7.359450E+04  8.010905E+05  4.611969E+04  7.120499E+02  2.387041E-09 -8.571740E-10
        55  12  7.609098E+04  8.017243E+05  5.173425E+04  1.539491E+03  2.357244E-09  6.339573E-08
        55  13  2.638347E+02  4.802360E+05  2.018303E+03 -1.020856E+01  2.403374E-09  4.132651E-10
        55  14  9.138787E+02  4.799566E+05  3.605249E+03  1.332355E+01  4.069104E-09 -1.014269E-09
        55  15  2.833908E+03  4.802351E+05  6.687173E+03 -9.046326E+00 -1.751343E-09  6.804824E-10
        55  16 -7.219910E+04  1.592084E+05 -3.938309E+04  1.408047E+02  1.031341E-10  6.191132E-08
        55  17 -7.177111E+04  1.589279E+05 -3.890996E+04 -6.850128E+02 -2.004044E-09  4.889562E-10
        55  18 -7.042775E+04  1.588507E+05 -3.836124E+04 -1.556734E+03  1.753890E-09 -6.315464E-08
        55  19  7.272316E+04  8.013693E+05  4.342035E+04 -1.613366E+02 -2.484719E+04  2.196321E+03
        55  20  7.359514E+04  8.010907E+05  4.612085E+04  7.119323E+02 -2.413646E+04  6.049750E+03
        55  21  7.609155E+04  8.017245E+05  5.173539E+04  1.539311E+03 -2.257445E+04  9.903707E+03
        55  22  2.644984E+02  4.802362E+05  2.019468E+03 -1.023871E+01 -2.484823E+04  1.506749E+03
        55  23  9.145074E+02  4.799568E+05  3.606365E+03  1.325914E+01 -2.413644E+04  3.314063E+03
        55  24  2.834462E+03  4.802353E+05  6.688180E+03 -9.139425E+00 -2.257315E+04  5.121889E+03
        55  25 -7.219843E+04  1.592086E+05 -3.938193E+04  1.407883E+02 -2.484927E+04  8.175152E+02
        55  26 -7.177049E+04  1.589280E+05 -3.890887E+04 -6.850241E+02 -2.413641E+04  5.797218E+02
        55  27 -7.042721E+04  1.588508E+05 -3.836028E+04 -1.556740E+03 -2.257182E+04  3.424351E+02
        56   1  7.761535E+04  8.031129E+05  5.570280E+04  9.546012E+02  2.158750E+04 -1.157315E+04
        56   2  8.629842E+04  7.999389E+05  7.140681E+04  1.119062E+04  1.625065E+04 -3.516470E+04
        56   3  1.101567E+05  8.036308E+05  1.062514E+05  2.092000E+04  4.610887E+03 -5.876095E+04
        56   4  3.906600E+03  4.810538E+05  8.969267E+03 -1.125910E+02  2.158573E+04 -6.289475E+03
        56   5  1.119411E+04  4.789303E+05  1.657631E+04  1.481039E+02  1.623998E+04 -1.473651E+04
        56   6  3.103329E+04  4.810475E+05  3.281719E+04 -9.798896E+01  4.590584E+03 -2.318787E+04
        56   7 -6.980690E+04  1.590993E+05 -3.776586E+04 -1.179193E+03  2.158394E+04 -1.008421E+03
        56   8 -6.391499E+04  1.580240E+05 -3.825598E+04 -1.088851E+04  1.622858E+04  5.681461E+03
        56   9 -4.809497E+04  1.585643E+05 -4.061885E+04 -2.110496E+04  4.567869E+03  1.236691E+04
        56  10  7.761482E+04  8.031126E+05  5.570167E+04  9.548024E+02  5.603073E-09  4.585735E-09
        56  11  8.629780E+04  7.999375E+05  7.140400E+04  1.119108E+04  1.698255E-09 -8.890735E-10
        56  12  1.101558E+05  8.036271E+05  1.062449E+05  2.092022E+04 -1.661554E-10 -3.501096E-09
        56  13  3.906089E+03  4.810537E+05  8.968317E+03 -1.124817E+02 -1.048813E-09  5.258648E-10
        56  14  1.119377E+04  4.789300E+05  1.657541E+04  1.482966E+02  1.578115E-09 -1.279259E-09
        56  15  3.103312E+04  4.810469E+05  3.281614E+04 -9.790325E+01  3.406951E-09  7.770958E-10
        56  16 -6.980740E+04  1.590992E+05 -3.776673E+04 -1.179176E+03  2.047934E-10 -5.455028E-09
        56  17 -6.391528E+04  1.580239E+05 -3.825654E+04 -1.088859E+04  2.055641E-09  4.176581E-10
        56  18 -4.809504E+04  1.585641E+05 -4.061918E+04 -2.110500E+04 -1.279630E-10  3.711392E-09
        56  19  7.761535E+04  8.031129E+05  5.570280E+04  9.546012E+02 -2.158750E+04  1.157315E+04
        56  20  8.629842E+04  7.999389E+05  7.140681E+04  1.119062E+04 -1.625065E+04  3.516470E+04
        56  21  1.101567E+05  8.036308E+05  1.062514E+05  2.092000E+04 -4.610887E+03  5.876095E+04
        56  22  3.906600E+03  4.810538E+05  8.969267E+03 -1.125910E+02 -2.158573E+04  6.289475E+03
        56  23  1.119411E+04  4.789303E+05  1.657631E+04  1.481039E+02 -1.623998E+04  1.473651E+04
        56  24  3.103329E+04  4.810475E+05  3.281719E+04 -9.798896E+01 -4.590584E+03  2.318787E+04
        56  25 -6.980690E+04  1.590993E+05 -3.776586E+04 -1.179193E+03 -2.158394E+04  1.008421E+03
        56  26 -6.391499E+04  1.580240E+05 -3.825598E+04 -1.088851E+04 -1.622858E+04 -5.681461E+03
        56  27 -4.809497E+04  1.585643E+05 -4.061885E+04 -2.110496E+04 -4.567869E+03 -1.236691E+04
        57   1 -1.043521E+07 -3.045178E+06 -1.907566E+06 -3.599416E+06 -9.588842E+05 -3.507461E+05
        57   2 -1.020539E+07 -1.689612E+06 -1.027241E+06 -3.872859E+06 -6.226315E+05 -1.916275E+05
        57   3 -1.058907E+07 -1.744786E+06 -8.019879E+05 -3.737474E+06 -2.755065E+05 -6.112927E+04
        57   4 -9.129874E+06 -2.305786E+06 -1.497433E+06 -3.000876E+06 -9.466448E+05 -3.465403E+05
        57   5 -8.744364E+06 -1.067494E+06 -6.158106E+05 -3.407770E+06 -6.192946E+05 -1.904472E+05
        57   6 -8.969371E+06 -1.236207E+06 -3.810326E+05 -3.406247E+06 -2.809907E+05 -6.315212E+04
        57   7 -7.822727E+06 -1.565566E+06 -1.087471E+06 -2.400974E+06 -9.343749E+05 -3.423101E+05
        57   8 -7.281239E+06 -4.450949E+05 -2.045865E+05 -2.941621E+06 -6.159473E+05 -1.892619E+05
        57   9 -7.347100E+06 -7.276533E+05  3.971318E+04 -3.074316E+06 -2.864900E+05 -6.517837E+04
        57  10 -1.043624E+07 -3.045565E+06 -1.909562E+06 -3.599690E+06  2.576162E-09 -1.352543E-09
        57  11 -1.020582E+07 -1.689759E+06 -1.028054E+06 -3.872956E+06 -2.692860E-10  2.287709E-09
        57  12 -1.058915E+07 -1.744811E+06 -8.021404E+05 -3.737487E+06  5.319541E-10  1.063385E-09
        57  13 -9.130882E+06 -2.306163E+06 -1.499375E+06 -3.001143E+06  7.580819E-09 -2.851631E-09
        57  14 -8.744791E+06 -1.067639E+06 -6.166126E+05 -3.407866E+06  4.984710E-10 -1.774980E-09
        57  15 -8.969457E+06 -1.236233E+06 -3.811911E+05 -3.406261E+06  6.563203E-09  4.142689E-10
        57  16 -7.823707E+06 -1.565931E+06 -1.089358E+06 -2.401234E+06  9.847759E-10  7.628885E-10
        57  17 -7.281660E+06 -4.452374E+05 -2.053776E+05 -2.941716E+06  2.915468E-09 -1.995762E-09
        57  18 -7.347190E+06 -7.276804E+05  3.954874E+04 -3.074332E+06  8.606802E-10  1.733767E-09
        57  19 -1.043521E+07 -3.045178E+06 -1.907566E+06 -3.599416E+06  9.588842E+05  3.507461E+05
        57  20 -1.020539E+07 -1.689612E+06 -1.027241E+06 -3.872859E+06  6.226315E+05  1.916275E+05
        57  21 -1.058907E+07 -1.744786E+06 -8.019879E+05 -3.737474E+06  2.755065E+05  6.112927E+04
        57  22 -9.129874E+06 -2.305786E+06 -1.497433E+06 -3.000876E+06  9.466448E+05  3.465403E+05
        57  23 -8.744364E+06 -1.067494E+06 -6.158106E+05 -3.407770E+06  6.192946E+05  1.904472E+05
        57  24 -8.969371E+06 -1.236207E+06 -3.810326E+05 -3.406247E+06  2.809907E+05  6.315212E+04
        57  25 -7.822727E+06 -1.565566E+06 -1.087471E+06 -2.400974E+06  9.343749E+05  3.423101E+05
        57  26 -7.281239E+06 -4.450949E+05 -2.045865E+05 -2.941621E+06  6.159473E+05  1.892619E+05
        57  27 -7.347100E+06 -7.276533E+05  3.971318E+04 -3.074316E+06  2.864900E+05  6.517837E+04
        58   1 -1.035718E+07 -2.007543E+06 -7.162406E+05 -3.760983E+06 -2.248001E+05 -4.672914E+04
        58   2 -1.027675E+07 -1.762140E+06 -5.255940E+05 -3.731590E+06 -1.474820E+05 -1.657307E+04
        58   3 -1.020489E+07 -1.771211E+06 -4.436248E+05 -3.730209E+06 -6.808042E+04  8.050961E+03
        58   4 -8.900830E+06 -1.424341E+06 -3.122220E+05 -3.335030E+06 -2.239565E+05 -4.643037E+04
        58   5 -8.886423E+06 -1.227402E+06 -1.449199E+05 -3.347181E+06 -1.483013E+05 -1.688903E+04
        58   6 -8.880082E+06 -1.284318E+06 -8.475647E+04 -3.387376E+06 -7.057420E+04  7.115437E+03
        58   7 -7.442398E+06 -8.409482E+05  9.159818E+04 -2.908132E+06 -2.231102E+05 -4.613040E+04
        58   8 -7.494205E+06 -6.925351E+05  2.355771E+05 -2.961974E+06 -1.491223E+05 -1.720564E+04
        58   9 -7.553561E+06 -7.973513E+05  2.739544E+05 -3.043882E+06 -7.307379E+04  6.177893E+03
        58  10 -1.035724E+07 -2.007559E+06 -7.163415E+05 -3.760992E+06  6.789180E-10  1.573736E-09
        58  11 -1.027677E+07 -1.762147E+06 -5.256362E+05 -3.731592E+06  4.209997E-09  2.152333E-09
        58  12 -1.020490E+07 -1.771212E+06 -4.436338E+05 -3.730209E+06  9.534794E-11 -3.005205E-09
        58  13 -8.900885E+06 -1.424357E+06 -3.123219E+05 -3.335038E+06  2.758690E-09  1.882691E-09
        58  14 -8.886447E+06 -1.227408E+06 -1.449624E+05 -3.347183E+06  2.663195E-09  1.367500E-09
        58  15 -8.880088E+06 -1.284320E+06 -8.476604E+04 -3.387376E+06 -3.759951E-09 -3.286407E-09
        58  16 -7.442453E+06 -8.409641E+05  9.149932E+04 -2.908140E+06 -2.032094E-09  2.601858E-09
        58  17 -7.494229E+06 -6.925415E+05  2.355342E+05 -2.961976E+06 -1.869493E-09  1.711282E-09
        58  18 -7.553567E+06 -7.973528E+05  2.739442E+05 -3.043881E+06 -4.828331E-10  2.316867E-10
        58  19 -1.035718E+07 -2.007543E+06 -7.162406E+05 -3.760983E+06  2.248001E+05  4.672914E+04
        58  20 -1.027675E+07 -1.762140E+06 -5.255940E+05 -3.731590E+06  1.474820E+05  1.657307E+04
        58  21 -1.020489E+07 -1.771211E+06 -4.436248E+05 -3.730209E+06  6.808042E+04 -8.050961E+03
        58  22 -8.900830E+06 -1.424341E+06 -3.122220E+05 -3.335030E+06  2.239565E+05  4.643037E+04
        58  23 -8.886423E+06 -1.227402E+06 -1.449199E+05 -3.347181E+06  1.483013E+05  1.688903E+04
        58  24 -8.880082E+06 -1.284318E+06 -8.475647E+04 -3.387376E+06  7.057420E+04 -7.115437E+03
        58  25 -7.442398E+06 -8.409482E+05  9.159818E+04 -2.908132E+06  2.231102E+05  4.613040E+04
        58  26 -7.494205E+06 -6.925351E+05  2.355771E+05 -2.961974E+06  1.491223E+05  1.720564E+04
        58  27 -7.553561E+06 -7.973513E+05  2.739544E+05 -3.043882E+06  7.307379E+04 -6.177893E+03
        59   1 -9.865002E+06 -1.705694E+06 -3.418465E+05 -3.668175E+06 -5.539353E+04  8.725777E+03
        59   2 -9.759865E+06 -1.548947E+06 -2.624230E+05 -3.546881E+06 -3.547681E+04  9.903922E+03
        59   3 -9.526949E+06 -1.554163E+06 -2.027300E+05 -3.578214E+06 -1.487366E+04  9.201666E+03
        59   4 -8.857991E+06 -1.321941E+06 -6.718428E+04 -3.393230E+06 -5.695932E+04  8.138043E+03
        59   5 -8.920546E+06 -1.231642E+06 -3.374722E+04 -3.320382E+06 -3.763908E+04  9.097137E+03
        59   6 -8.855221E+06 -1.303152E+06 -1.953278E+04 -3.400163E+06 -1.763823E+04  8.174961E+03
        59   7 -7.849992E+06 -9.381254E+05  2.073849E+05 -3.117873E+06 -5.852788E+04  7.549259E+03
        59   8 -8.080541E+06 -9.142977E+05  1.948645E+05 -3.093603E+06 -3.980458E+04  8.289145E+03
        59   9 -8.183052E+06 -1.052118E+06  1.636238E+05 -3.221936E+06 -2.040613E+04  7.147042E+03
        59  10 -9.865005E+06 -1.705695E+06 -3.418525E+05 -3.668175E+06 -1.298570E-09 -1.878544E-09
        59  11 -9.759866E+06 -1.548947E+06 -2.624256E+05 -3.546880E+06  1.880662E-09  4.037075E-09
        59  12 -9.526949E+06 -1.554163E+06 -2.027306E+05 -3.578214E+06  8.536318E-10  5.612379E-09
        59  13 -8.857995E+06 -1.321942E+06 -6.719057E+04 -3.393229E+06 -2.966213E-09 -2.663277E-09
        59  14 -8.920548E+06 -1.231643E+06 -3.375007E+04 -3.320382E+06  8.569886E-10  4.228099E-09
        59  15 -8.855221E+06 -1.303152E+06 -1.953349E+04 -3.400163E+06 -7.252562E-10  1.226110E-09
        59  16 -7.849996E+06 -9.381263E+05  2.073783E+05 -3.117873E+06  6.801692E-10 -5.190082E-10
        59  17 -8.080542E+06 -9.142982E+05  1.948614E+05 -3.093603E+06 -3.920152E-09 -1.761612E-09
        59  18 -8.183053E+06 -1.052118E+06  1.636230E+05 -3.221936E+06 -3.132039E-09 -2.800647E-09
        59  19 -9.865002E+06 -1.705694E+06 -3.418465E+05 -3.668175E+06  5.539353E+04 -8.725777E+03
        59  20 -9.759865E+06 -1.548947E+06 -2.624230E+05 -3.546881E+06  3.547681E+04 -9.903922E+03
        59  21 -9.526949E+06 -1.554163E+06 -2.027300E+05 -3.578214E+06  1.487366E+04 -9.201666E+03
        59  22 -8.857991E+06 -1.321941E+06 -6.718428E+04 -3.393230E+06  5.695932E+04 -8.138043E+03
        59  23 -8.920546E+06 -1.231642E+06 -3.374722E+04 -3.320382E+06  3.763908E+04 -9.097137E+03
        59  24 -8.855221E+06 -1.303152E+06 -1.953278E+04 -3.400163E+06  1.763823E+04 -8.174961E+03
        59  25 -7.849992E+06 -9.381254E+05  2.073849E+05 -3.117873E+06  5.852788E+04 -7.549259E+03
        59  26 -8.080541E+06 -9.142977E+05  1.948645E+05 -3.093603E+06  3.980458E+04 -8.289145E+03
        59  27 -8.183052E+06 -1.052118E+06  1.636238E+05 -3.221936E+06  2.040613E+04 -7.147042E+03
        60   1 -9.067171E+06 -1.394554E+06 -7.439345E+04 -3.464662E+06 -1.043190E+04  5.445229E+03
        60   2 -8.944677E+06 -1.232833E+06 -1.338730E+04 -3.315228E+06 -2.849924E+03 -6.317829E+02
        60   3 -8.660373E+06 -1.239076E+06  4.299077E+04 -3.355509E+06  4.755316E+03 -6.767946E+03
        60   4 -8.848619E+06 -1.312021E+06 -1.558215E+04 -3.405569E+06 -1.302460E+04  4.483965E+03
        60   5 -8.929354E+06 -1.227027E+06 -9.212433E+03 -3.311075E+06 -5.461291E+03 -1.599973E+03
        60   6 -8.848316E+06 -1.309992E+06 -7.450138E+03 -3.406311E+06  2.123521E+03 -7.743543E+03
        60   7 -8.630019E+06 -1.229486E+06  4.322491E+04 -3.346458E+06 -1.561832E+04  3.522320E+03
        60   8 -8.914032E+06 -1.221220E+06 -5.037560E+03 -3.306923E+06 -8.072728E+03 -2.568189E+03
        60   9 -9.036223E+06 -1.380906E+06 -5.789405E+04 -3.457100E+06 -5.073837E+02 -8.718805E+03
        60  10 -9.067172E+06 -1.394554E+06 -7.439371E+04 -3.464662E+06  2.758086E-10  2.741299E-09
        60  11 -8.944677E+06 -1.232833E+06 -1.338732E+04 -3.315228E+06  2.746480E-09  3.857817E-09
        60  12 -8.660373E+06 -1.239076E+06  4.299064E+04 -3.355509E+06  5.109559E-10 -6.462358E-10
        60  13 -8.848619E+06 -1.312021E+06 -1.558251E+04 -3.405569E+06 -3.556334E-10 -7.515714E-10
        60  14 -8.929354E+06 -1.227027E+06 -9.212495E+03 -3.311075E+06  3.299015E-09  9.699527E-10
        60  15 -8.848316E+06 -1.309992E+06 -7.450259E+03 -3.406311E+06  1.014070E-09 -1.096612E-09
        60  16 -8.630019E+06 -1.229486E+06  4.322443E+04 -3.346458E+06  3.627598E-10 -5.919697E-09
        60  17 -8.914032E+06 -1.221220E+06 -5.037697E+03 -3.306923E+06  2.182904E-09 -4.736295E-09
        60  18 -9.036223E+06 -1.380906E+06 -5.789420E+04 -3.457100E+06  1.399157E-09 -9.296461E-10
        60  19 -9.067171E+06 -1.394554E+06 -7.439345E+04 -3.464662E+06  1.043190E+04 -5.445229E+03
        60  20 -8.944677E+06 -1.232833E+06 -1.338730E+04 -3.315228E+06  2.849924E+03  6.317829E+02
        60  21 -8.660373E+06 -1.239076E+06  4.299077E+04 -3.355509E+06 -4.755316E+03  6.767946E+03
        60  22 -8.848619E+06 -1.312021E+06 -1.558215E+04 -3.405569E+06  1.302460E+04 -4.483965E+03
        60  23 -8.929354E+06 -1.227027E+06 -9.212433E+03 -3.311075E+06  5.461291E+03  1.599973E+03
        60  24 -8.848316E+06 -1.309992E+06 -7.450138E+03 -3.406311E+06 -2.123521E+03  7.743543E+03
        60  25 -8.630019E+06 -1.229486E+06  4.322491E+04 -3.346458E+06  1.561832E+04 -3.522320E+03
        60  26 -8.914032E+06 -1.221220E+06 -5.037560E+03 -3.306923E+06  8.072728E+03  2.568189E+03
        60  27 -9.036223E+06 -1.380906E+06 -5.789405E+04 -3.457100E+06  5.073837E+02  8.718805E+03
        61   1 -8.210439E+06 -1.062490E+06  1.682713E+05 -3.227647E+06  7.794335E+03 -1.103425E+04
        61   2 -8.108404E+06 -9.271743E+05  2.123035E+05 -3.100112E+06  1.471414E+04 -1.688245E+04
        61   3 -7.867317E+06 -9.342703E+05  2.526575E+05 -3.132251E+06  2.108538E+04 -2.119934E+04
        61   4 -8.853490E+06 -1.304194E+06 -7.296838E+03 -3.399745E+06  5.074565E+03 -1.204411E+04
        61   5 -8.923160E+06 -1.234319E+06 -9.314047E+03 -3.319382E+06  1.249769E+04 -1.770902E+04
        61   6 -8.853903E+06 -1.306977E+06 -1.541485E+04 -3.398720E+06  1.937058E+04 -2.184201E+04
        61   7 -9.496140E+06 -1.545877E+06 -1.829030E+05 -3.571681E+06  2.357926E+03 -1.305281E+04
        61   8 -9.737271E+06 -1.541427E+06 -2.309920E+05 -3.538389E+06  1.028448E+04 -1.853440E+04
        61   9 -9.839541E+06 -1.679628E+06 -2.835754E+05 -3.664802E+06  1.765879E+04 -2.248356E+04
        61  10 -8.210439E+06 -1.062490E+06  1.682710E+05 -3.227647E+06  1.935910E-09  4.268830E-09
        61  11 -8.108404E+06 -9.271747E+05  2.123026E+05 -3.100112E+06  1.423196E-09  1.018035E-10
        61  12 -7.867318E+06 -9.342709E+05  2.526558E+05 -3.132250E+06 -4.672166E-09 -3.644564E-09
        61  13 -8.853490E+06 -1.304195E+06 -7.297157E+03 -3.399745E+06  3.482985E-10 -2.368035E-09
        61  14 -8.923161E+06 -1.234319E+06 -9.314927E+03 -3.319382E+06  3.832373E-09 -4.979942E-10
        61  15 -8.853904E+06 -1.306977E+06 -1.541645E+04 -3.398720E+06 -6.856092E-09 -1.952799E-09
        61  16 -9.496140E+06 -1.545877E+06 -1.829033E+05 -3.571681E+06 -1.884576E-09  1.401061E-10
        61  17 -9.737271E+06 -1.541427E+06 -2.309929E+05 -3.538388E+06 -3.430005E-09 -3.604713E-10
        61  18 -9.839541E+06 -1.679628E+06 -2.835769E+05 -3.664802E+06 -1.816782E-09 -3.682850E-09
        61  19 -8.210439E+06 -1.062490E+06  1.682713E+05 -3.227647E+06 -7.794335E+03  1.103425E+04
        61  20 -8.108404E+06 -9.271743E+05  2.123035E+05 -3.100112E+06 -1.471414E+04  1.688245E+04
        61  21 -7.867317E+06 -9.342703E+05  2.526575E+05 -3.132251E+06 -2.108538E+04  2.119934E+04
        61  22 -8.853490E+06 -1.304194E+06 -7.296838E+03 -3.399745E+06 -5.074565E+03  1.204411E+04
        61  23 -8.923160E+06 -1.234319E+06 -9.314047E+03 -3.319382E+06 -1.249769E+04  1.770902E+04
        61  24 -8.853903E+06 -1.306977E+06 -1.541485E+04 -3.398720E+06 -1.937058E+04  2.184201E+04
        61  25 -9.496140E+06 -1.545877E+06 -1.829030E+05 -3.571681E+06 -2.357926E+03  1.305281E+04
        61  26 -9.737271E+06 -1.541427E+06 -2.309920E+05 -3.538389E+06 -1.028448E+04  1.853440E+04
        61  27 -9.839541E+06 -1.679628E+06 -2.835754E+05 -3.664802E+06 -1.765879E+04  2.248356E+04
        62   1 -7.568739E+06 -7.988490E+05  3.350134E+05 -3.033076E+06  2.539242E+04 -2.332437E+04
        62   2 -7.518874E+06 -7.257707E+05  3.434132E+05 -2.966140E+06  4.338121E+04 -2.182397E+04
        62   3 -7.404448E+06 -7.457618E+05  3.344374E+05 -2.972292E+06  6.034436E+04 -1.753958E+04
        62   4 -8.869623E+06 -1.288502E+06 -1.919987E+04 -3.382393E+06  2.338107E+04 -2.408079E+04
        62   5 -8.903181E+06 -1.251059E+06 -3.368655E+04 -3.342412E+06  4.226039E+04 -2.225083E+04
        62   6 -8.872389E+06 -1.306916E+06 -6.629498E+04 -3.375531E+06  6.011053E+04 -1.763499E+04
        62   7 -1.016886E+07 -1.778062E+06 -3.735661E+05 -3.731040E+06  2.137438E+04 -2.483549E+04
        62   8 -1.028562E+07 -1.776234E+06 -4.109606E+05 -3.717915E+06  4.114230E+04 -2.267668E+04
        62   9 -1.033823E+07 -1.867937E+06 -4.672251E+05 -3.777894E+06  5.987721E+04 -1.773022E+04
        62  10 -7.568740E+06 -7.988498E+05  3.350111E+05 -3.033075E+06 -2.098101E-09 -4.035394E-09
        62  11 -7.518876E+06 -7.257717E+05  3.434087E+05 -2.966140E+06 -2.650200E-09  1.285086E-09
        62  12 -7.404452E+06 -7.457631E+05  3.344300E+05 -2.972292E+06  1.864623E-09 -3.057334E-09
        62  13 -8.869624E+06 -1.288503E+06 -1.920199E+04 -3.382392E+06 -4.684989E-09 -2.583502E-09
        62  14 -8.903183E+06 -1.251060E+06 -3.369085E+04 -3.342412E+06 -1.407815E-09 -2.696213E-09
        62  15 -8.872393E+06 -1.306917E+06 -6.630242E+04 -3.375530E+06  9.086146E-10  4.188183E-10
        62  16 -1.016886E+07 -1.778063E+06 -3.735681E+05 -3.731040E+06 -4.498386E-09 -3.446184E-09
        62  17 -1.028562E+07 -1.776235E+06 -4.109648E+05 -3.717915E+06  4.171617E-09  3.605044E-09
        62  18 -1.033824E+07 -1.867938E+06 -4.672325E+05 -3.777893E+06  3.140055E-11  2.147837E-09
        62  19 -7.568739E+06 -7.988490E+05  3.350134E+05 -3.033076E+06 -2.539242E+04  2.332437E+04
        62  20 -7.518874E+06 -7.257707E+05  3.434132E+05 -2.966140E+06 -4.338121E+04  2.182397E+04
        62  21 -7.404448E+06 -7.457618E+05  3.344374E+05 -2.972292E+06 -6.034436E+04  1.753958E+04
        62  22 -8.869623E+06 -1.288502E+06 -1.919987E+04 -3.382393E+06 -2.338107E+04  2.408079E+04
        62  23 -8.903181E+06 -1.251059E+06 -3.368655E+04 -3.342412E+06 -4.226039E+04  2.225083E+04
        62  24 -8.872389E+06 -1.306916E+06 -6.629498E+04 -3.375531E+06 -6.011053E+04  1.763499E+04
        62  25 -1.016886E+07 -1.778062E+06 -3.735661E+05 -3.731040E+06 -2.137438E+04  2.483549E+04
        62  26 -1.028562E+07 -1.776234E+06 -4.109606E+05 -3.717915E+06 -4.114230E+04  2.267668E+04
        62  27 -1.033823E+07 -1.867937E+06 -4.672251E+05 -3.777894E+06 -5.987721E+04  1.773022E+04
        63   1 -7.347104E+06 -6.885589E+05  3.367918E+05 -2.955364E+06  7.355495E+04 -1.365095E+04
        63   2 -7.353429E+06 -6.695905E+05  2.696271E+05 -2.954502E+06  1.474205E+05  1.397768E+04
        63   3 -7.455157E+06 -8.119648E+05  9.805711E+04 -2.879867E+06  2.194866E+05  4.630350E+04
        63   4 -8.899683E+06 -1.265081E+06 -8.385844E+04 -3.364510E+06  7.257796E+04 -1.402591E+04
        63   5 -8.862138E+06 -1.252737E+06 -1.434094E+05 -3.375478E+06  1.478326E+05  1.412468E+04
        63   6 -8.920468E+06 -1.402300E+06 -3.086758E+05 -3.312622E+06  2.212911E+05  4.697309E+04
        63   7 -1.044991E+07 -1.841489E+06 -5.047254E+05 -3.772731E+06  7.160351E+04 -1.439998E+04
        63   8 -1.036863E+07 -1.835727E+06 -5.566546E+05 -3.795508E+06  1.482431E+05  1.427109E+04
        63   9 -1.038368E+07 -1.992436E+06 -7.156099E+05 -3.744414E+06  2.230903E+05  4.764039E+04
        63  10 -7.347110E+06 -6.885605E+05  3.367812E+05 -2.955364E+06  3.901955E-09  1.356477E-09
        63  11 -7.353452E+06 -6.695966E+05  2.695854E+05 -2.954504E+06 -5.023347E-09  2.292649E-09
        63  12 -7.455210E+06 -8.119802E+05  9.796127E+04 -2.879875E+06 -3.614839E-09  1.017678E-09
        63  13 -8.899689E+06 -1.265083E+06 -8.386882E+04 -3.364510E+06  3.729039E-09 -1.415726E-09
        63  14 -8.862162E+06 -1.252743E+06 -1.434514E+05 -3.375480E+06 -3.081065E-09  3.533079E-09
        63  15 -8.920522E+06 -1.402316E+06 -3.087735E+05 -3.312630E+06 -2.285837E-09  1.189054E-09
        63  16 -1.044992E+07 -1.841491E+06 -5.047355E+05 -3.772730E+06 -3.196772E-09  1.312309E-09
        63  17 -1.036865E+07 -1.835733E+06 -5.566970E+05 -3.795510E+06  1.584991E-09 -3.688068E-09
        63  18 -1.038373E+07 -1.992453E+06 -7.157095E+05 -3.744423E+06  1.404617E-09  1.647603E-09
        63  19 -7.347104E+06 -6.885589E+05  3.367918E+05 -2.955364E+06 -7.355495E+04  1.365095E+04
        63  20 -7.353429E+06 -6.695905E+05  2.696271E+05 -2.954502E+06 -1.474205E+05 -1.397768E+04
        63  21 -7.455157E+06 -8.119648E+05  9.805711E+04 -2.879867E+06 -2.194866E+05 -4.630350E+04
        63  22 -8.899683E+06 -1.265081E+06 -8.385844E+04 -3.364510E+06 -7.257796E+04  1.402591E+04
        63  23 -8.862138E+06 -1.252737E+06 -1.434094E+05 -3.375478E+06 -1.478326E+05 -1.412468E+04
        63  24 -8.920468E+06 -1.402300E+06 -3.086758E+05 -3.312622E+06 -2.212911E+05 -4.697309E+04
        63  25 -1.044991E+07 -1.841489E+06 -5.047254E+05 -3.772731E+06 -7.160351E+04  1.439998E+04
        63  26 -1.036863E+07 -1.835727E+06 -5.566546E+05 -3.795508E+06 -1.482431E+05 -1.427109E+04
        63  27 -1.038368E+07 -1.992436E+06 -7.156099E+05 -3.744414E+06 -2.230903E+05 -4.764039E+04
        64   1 -7.611801E+06 -8.000544E+05 -2.306060E+04 -3.115846E+06  2.782414E+05  6.854609E+04
        64   2 -7.604098E+06 -5.993237E+05 -2.910347E+05 -3.059712E+06  6.050740E+05  1.981328E+05
        64   3 -8.286573E+06 -1.702787E+06 -1.194248E+06 -2.505915E+06  9.247838E+05  3.460551E+05
        64   4 -8.987081E+06 -1.218607E+06 -3.770013E+05 -3.385765E+06  2.761033E+05  6.778140E+04
        64   5 -8.721515E+06 -1.092574E+06 -6.087867E+05 -3.433036E+06  6.084330E+05  1.993406E+05
        64   6 -9.148273E+06 -2.273457E+06 -1.481055E+06 -2.982226E+06  9.337809E+05  3.490773E+05
        64   7 -1.036050E+07 -1.637189E+06 -7.310892E+05 -3.655211E+06  2.739699E+05  6.701766E+04
        64   8 -9.837696E+06 -1.585622E+06 -9.266598E+05 -3.805700E+06  6.117844E+05  2.005444E+05
        64   9 -1.000910E+07 -2.843501E+06 -1.767924E+06 -3.457779E+06  9.427633E+05  3.520846E+05
        64  10 -7.611886E+06 -8.000807E+05 -2.321711E+04 -3.115862E+06 -2.730772E-09 -1.467992E-09
        64  11 -7.604506E+06 -5.994665E+05 -2.918076E+05 -3.059809E+06 -5.502945E-09  3.708349E-09
        64  12 -8.287535E+06 -1.703150E+06 -1.196108E+06 -2.506175E+06  1.116960E-10 -1.680754E-09
        64  13 -8.987165E+06 -1.218633E+06 -3.771558E+05 -3.385780E+06  3.076665E-09 -3.405968E-09
        64  14 -8.721928E+06 -1.092719E+06 -6.095698E+05 -3.433135E+06 -7.987713E-09 -4.471764E-09
        64  15 -9.149255E+06 -2.273828E+06 -1.482953E+06 -2.982491E+06  2.348049E-09  1.796087E-09
        64  16 -1.036059E+07 -1.637215E+06 -7.312415E+05 -3.655226E+06  1.302905E-09 -5.896791E-10
        64  17 -9.838114E+06 -1.585769E+06 -9.274533E+05 -3.805800E+06 -6.169876E-10 -1.136983E-09
        64  18 -1.001010E+07 -2.843880E+06 -1.769862E+06 -3.458049E+06  1.991488E-09 -4.467391E-09
        64  19 -7.611801E+06 -8.000544E+05 -2.306060E+04 -3.115846E+06 -2.782414E+05 -6.854609E+04
        64  20 -7.604098E+06 -5.993237E+05 -2.910347E+05 -3.059712E+06 -6.050740E+05 -1.981328E+05
        64  21 -8.286573E+06 -1.702787E+06 -1.194248E+06 -2.505915E+06 -9.247838E+05 -3.460551E+05
        64  22 -8.987081E+06 -1.218607E+06 -3.770013E+05 -3.385765E+06 -2.761033E+05 -6.778140E+04
        64  23 -8.721515E+06 -1.092574E+06 -6.087867E+05 -3.433036E+06 -6.084330E+05 -1.993406E+05
        64  24 -9.148273E+06 -2.273457E+06 -1.481055E+06 -2.982226E+06 -9.337809E+05 -3.490773E+05
        64  25 -1.036050E+07 -1.637189E+06 -7.310892E+05 -3.655211E+06 -2.739699E+05 -6.701766E+04
        64  26 -9.837696E+06 -1.585622E+06 -9.266598E+05 -3.805700E+06 -6.117844E+05 -2.005444E+05
        64  27 -1.000910E+07 -2.843501E+06 -1.767924E+06 -3.457779E+06 -9.427633E+05 -3.520846E+05
        65   1 -1.480494E+06 -2.191823E+05 -1.755689E+05 -1.513733E+04  1.163630E+05  1.121768E+04
        65   2 -1.448148E+06 -3.757151E+05 -2.620388E+05  2.896680E+03  8.031537E+04  3.098876E+04
        65   3 -1.355646E+06 -3.378603E+05 -2.750838E+05 -5.443220E+04  4.443131E+04  2.710013E+04
        65   4 -2.774537E+04  1.434038E+05  1.857287E+05 -3.678667E+04  1.264918E+05  1.128733E+04
        65   5 -5.842461E+04 -2.927817E+04  7.948864E+04  1.438547E+03  8.298755E+04  3.100008E+04
        65   6 -2.777092E+04 -6.506503E+03  5.173359E+04 -3.568712E+04  3.965101E+04  2.707408E+04
        65   7  1.426924E+06  5.058337E+05  5.468691E+05 -5.849036E+04  1.366441E+05  1.135620E+04
        65   8  1.333059E+06  3.170152E+05  4.208740E+05 -2.561827E+01  8.566555E+04  3.101138E+04
        65   9  1.301711E+06  3.247170E+05  3.784211E+05 -1.690372E+04  3.486041E+04  2.704778E+04
        65  10 -1.480509E+06 -2.191861E+05 -1.755946E+05 -1.513838E+04 -4.995877E-09  2.526138E-09
        65  11 -1.448155E+06 -3.757179E+05 -2.620527E+05  2.894674E+03 -1.447384E-09 -2.501088E-09
        65  12 -1.355648E+06 -3.378616E+05 -2.750889E+05 -5.443317E+04  9.372401E-10 -4.415196E-10
        65  13 -2.776258E+04  1.433993E+05  1.856984E+05 -3.678781E+04 -1.472060E-11  8.224588E-10
        65  14 -5.843227E+04 -2.928105E+04  7.947389E+04  1.436475E+03  1.370808E-09 -8.336461E-09
        65  15 -2.777281E+04 -6.507713E+03  5.172925E+04 -3.568798E+04  2.773987E-10  5.982912E-11
        65  16  1.426904E+06  5.058285E+05  5.468338E+05 -5.849161E+04 -2.501853E-09 -1.102019E-09
        65  17  1.333051E+06  3.170122E+05  4.208584E+05 -2.775560E+01 -2.293036E-09 -1.641788E-09
        65  18  1.301710E+06  3.247159E+05  3.784174E+05 -1.690448E+04 -2.401936E-09 -2.266600E-09
        65  19 -1.480494E+06 -2.191823E+05 -1.755689E+05 -1.513733E+04 -1.163630E+05 -1.121768E+04
        65  20 -1.448148E+06 -3.757151E+05 -2.620388E+05  2.896680E+03 -8.031537E+04 -3.098876E+04
        65  21 -1.355646E+06 -3.378603E+05 -2.750838E+05 -5.443220E+04 -4.443131E+04 -2.710013E+04
        65  22 -2.774537E+04  1.434038E+05  1.857287E+05 -3.678667E+04 -1.264918E+05 -1.128733E+04
        65  23 -5.842461E+04 -2.927817E+04  7.948864E+04  1.438547E+03 -8.298755E+04 -3.100008E+04
        65  24 -2.777092E+04 -6.506503E+03  5.173359E+04 -3.568712E+04 -3.965101E+04 -2.707408E+04
        65  25  1.426924E+06  5.058337E+05  5.468691E+05 -5.849036E+04 -1.366441E+05 -1.135620E+04
        65  26  1.333059E+06  3.170152E+05  4.208740E+05 -2.561827E+01 -8.566555E+04 -3.101138E+04
        65  27  1.301711E+06  3.247170E+05  3.784211E+05 -1.690372E+04 -3.486041E+04 -2.704778E+04
        66   1 -1.206973E+06 -2.728401E+05 -2.453293E+05 -3.604523E+04  3.067797E+04  2.214667E+04
        66   2 -1.150568E+06 -2.799102E+05 -2.516151E+05 -1.573402E+02  2.083924E+04  2.249569E+04
        66   3 -1.082278E+06 -2.612644E+05 -2.442077E+05 -3.938813E+04  1.100380E+04  2.007602E+04
        66   4 -3.859822E+04  1.855689E+04  4.250214E+04 -3.602796E+04  3.127068E+04  2.214632E+04
        66   5 -4.461408E+04 -4.130568E+03  2.051411E+04  1.566321E+03  2.055159E+04  2.249220E+04
        66   6 -3.860670E+04 -9.716395E+02  1.281402E+04 -3.594955E+04  9.836790E+03  2.007152E+04
        66   7  1.131020E+06  3.098522E+05  3.302328E+05 -3.601192E+04  3.186447E+04  2.214597E+04
        66   8  1.062454E+06  2.715580E+05  2.925531E+05  3.292187E+03  2.026340E+04  2.248872E+04
        66   9  1.006057E+06  2.592400E+05  2.697553E+05 -3.250566E+04  8.667806E+03  2.006701E+04
        66  10 -1.206975E+06 -2.728409E+05 -2.453320E+05 -3.604578E+04 -5.332250E-09 -2.678117E-09
        66  11 -1.150569E+06 -2.799109E+05 -2.516169E+05 -1.577181E+02 -2.693359E-09  2.513365E-09
        66  12 -1.082279E+06 -2.612648E+05 -2.442087E+05 -3.938831E+04  1.640476E-09 -2.323860E-09
        66  13 -3.859940E+04  1.855610E+04  4.249938E+04 -3.602852E+04 -2.150249E-09 -1.005938E-09
        66  14 -4.461467E+04 -4.131225E+03  2.051237E+04  1.565949E+03 -1.501548E-09  5.153130E-10
        66  15 -3.860691E+04 -9.720981E+02  1.281308E+04 -3.594971E+04 -4.173405E-09 -2.894048E-09
        66  16  1.131019E+06  3.098514E+05  3.302299E+05 -3.601249E+04  7.259125E-10  1.813724E-09
        66  17  1.062454E+06  2.715574E+05  2.925514E+05  3.291821E+03 -2.558459E-09 -3.384836E-09
        66  18  1.006057E+06  2.592395E+05  2.697544E+05 -3.250580E+04 -6.813729E-10 -2.808853E-10
        66  19 -1.206973E+06 -2.728401E+05 -2.453293E+05 -3.604523E+04 -3.067797E+04 -2.214667E+04
        66  20 -1.150568E+06 -2.799102E+05 -2.516151E+05 -1.573402E+02 -2.083924E+04 -2.249569E+04
        66  21 -1.082278E+06 -2.612644E+05 -2.442077E+05 -3.938813E+04 -1.100380E+04 -2.007602E+04
        66  22 -3.859822E+04  1.855689E+04  4.250214E+04 -3.602796E+04 -3.127068E+04 -2.214632E+04
        66  23 -4.461408E+04 -4.130568E+03  2.051411E+04  1.566321E+03 -2.055159E+04 -2.249220E+04
        66  24 -3.860670E+04 -9.716395E+02  1.281402E+04 -3.594955E+04 -9.836790E+03 -2.007152E+04
        66  25  1.131020E+06  3.098522E+05  3.302328E+05 -3.601192E+04 -3.186447E+04 -2.214597E+04
        66  26  1.062454E+06  2.715580E+05  2.925531E+05  3.292187E+03 -2.026340E+04 -2.248872E+04
        66  27  1.006057E+06  2.592400E+05  2.697553E+05 -3.250566E+04 -8.667806E+03 -2.006701E+04
        67   1 -9.232608E+05 -2.179264E+05 -2.070316E+05 -3.668517E+04  8.299106E+03  1.835710E+04
        67   2 -8.622750E+05 -2.051441E+05 -1.966788E+05  1.296293E+03  5.773433E+03  1.643932E+04
        67   3 -7.980083E+05 -1.889962E+05 -1.834070E+05 -3.622257E+04  3.242442E+03  1.419319E+04
        67   4 -4.044732E+04  2.159697E+03  1.007238E+04 -3.606074E+04  7.761172E+03  1.835462E+04
        67   5 -4.209727E+04 -6.557462E+02  5.138110E+03  1.688011E+03  5.129801E+03  1.643746E+04
        67   6 -4.045288E+04 -8.880249E+01  3.193804E+03 -3.605739E+04  2.493364E+03  1.419216E+04
        67   7  8.430761E+05  2.221878E+05  2.271189E+05 -3.543567E+04  7.222468E+03  1.835215E+04
        67   8  7.786931E+05  2.037826E+05  2.069054E+05  2.080136E+03  4.485316E+03  1.643560E+04
        67   9  7.176251E+05  1.887759E+05  1.897522E+05 -3.589198E+04  1.743370E+03  1.419113E+04
        67  10 -9.232609E+05 -2.179268E+05 -2.070324E+05 -3.668529E+04 -1.522195E-09 -5.886913E-10
        67  11 -8.622751E+05 -2.051444E+05 -1.966794E+05  1.296217E+03  4.533904E-09  2.246279E-10
        67  12 -7.980084E+05 -1.889965E+05 -1.834074E+05 -3.622261E+04 -2.738360E-09 -2.239314E-10
        67  13 -4.044747E+04  2.159319E+03  1.007163E+04 -3.606086E+04 -4.306937E-09 -1.384996E-09
        67  14 -4.209737E+04 -6.560434E+02  5.137553E+03  1.687944E+03 -3.343185E-09  3.981765E-10
        67  15 -4.045294E+04 -8.902044E+01  3.193414E+03 -3.605742E+04  2.410860E-09  2.364235E-09
        67  16  8.430759E+05  2.221875E+05  2.271182E+05 -3.543578E+04 -2.056412E-09 -2.056801E-09
        67  17  7.786930E+05  2.037823E+05  2.069049E+05  2.080077E+03 -3.065911E-09 -2.364865E-09
        67  18  7.176250E+05  1.887757E+05  1.897518E+05 -3.589200E+04  9.596493E-10  5.836256E-10
        67  19 -9.232608E+05 -2.179264E+05 -2.070316E+05 -3.668517E+04 -8.299106E+03 -1.835710E+04
        67  20 -8.622750E+05 -2.051441E+05 -1.966788E+05  1.296293E+03 -5.773433E+03 -1.643932E+04
        67  21 -7.980083E+05 -1.889962E+05 -1.834070E+05 -3.622257E+04 -3.242442E+03 -1.419319E+04
        67  22 -4.044732E+04  2.159697E+03  1.007238E+04 -3.606074E+04 -7.761172E+03 -1.835462E+04
        67  23 -4.209727E+04 -6.557462E+02  5.138110E+03  1.688011E+03 -5.129801E+03 -1.643746E+04
        67  24 -4.045288E+04 -8.880249E+01  3.193804E+03 -3.605739E+04 -2.493364E+03 -1.419216E+04
        67  25  8.430761E+05  2.221878E+05  2.271189E+05 -3.543567E+04 -7.222468E+03 -1.835215E+04
        67  26  7.786931E+05  2.037826E+05  2.069054E+05  2.080136E+03 -4.485316E+03 -1.643560E+04
        67  27  7.176251E+05  1.887759E+05  1.897522E+05 -3.589198E+04 -1.743370E+03 -1.419113E+04
        68   1 -6.368317E+05 -1.483193E+05 -1.440288E+05 -3.590037E+04  2.649664E+03  1.284784E+04
        68   2 -5.743910E+05 -1.329972E+05 -1.299297E+05  2.131860E+03  2.044295E+03  1.065767E+04
        68   3 -5.110810E+05 -1.171292E+05 -1.151673E+05 -3.559676E+04  1.435247E+03  8.427831E+03
        68   4 -4.092220E+04  1.965684E+02  2.398914E+03 -3.611661E+04  1.974190E+03  1.284737E+04
        68   5 -4.135803E+04 -1.225259E+02  1.212359E+03  1.761816E+03  1.355884E+03  1.065775E+04
        68   6 -4.092576E+04  1.068132E+02  6.980686E+02 -3.611656E+04  7.339585E+02  8.428485E+03
        68   7  5.553107E+05  1.486861E+05  1.488005E+05 -3.633302E+04  1.298068E+03  1.284690E+04
        68   8  4.919336E+05  1.327310E+05  1.323335E+05  1.391517E+03  6.668813E+02  1.065783E+04
        68   9  4.294306E+05  1.173264E+05  1.165471E+05 -3.663668E+04  3.213970E+01  8.429139E+03
        68  10 -6.368317E+05 -1.483195E+05 -1.440291E+05 -3.590039E+04  1.237992E-10 -9.377956E-11
        68  11 -5.743910E+05 -1.329973E+05 -1.299299E+05  2.131842E+03  2.402484E-12  1.832421E-09
        68  12 -5.110810E+05 -1.171293E+05 -1.151674E+05 -3.559677E+04 -2.266575E-11 -1.690002E-09
        68  13 -4.092225E+04  1.963901E+02  2.398596E+03 -3.611663E+04 -4.290244E-09  2.845069E-09
        68  14 -4.135806E+04 -1.226483E+02  1.212143E+03  1.761805E+03 -3.116105E-09 -6.896303E-10
        68  15 -4.092578E+04  1.067368E+02  6.979341E+02 -3.611657E+04 -2.254568E-09 -2.056973E-09
        68  16  5.553107E+05  1.486859E+05  1.488002E+05 -3.633304E+04  2.290371E-09  3.628918E-10
        68  17  4.919336E+05  1.327309E+05  1.323333E+05  1.391511E+03  1.873023E-09 -7.843983E-10
        68  18  4.294306E+05  1.173263E+05  1.165469E+05 -3.663668E+04 -2.182421E-10 -2.987946E-09
        68  19 -6.368317E+05 -1.483193E+05 -1.440288E+05 -3.590037E+04 -2.649664E+03 -1.284784E+04
        68  20 -5.743910E+05 -1.329972E+05 -1.299297E+05  2.131860E+03 -2.044295E+03 -1.065767E+04
        68  21 -5.110810E+05 -1.171292E+05 -1.151673E+05 -3.559676E+04 -1.435247E+03 -8.427831E+03
        68  22 -4.092220E+04  1.965684E+02  2.398914E+03 -3.611661E+04 -1.974190E+03 -1.284737E+04
        68  23 -4.135803E+04 -1.225259E+02  1.212359E+03  1.761816E+03 -1.355884E+03 -1.065775E+04
        68  24 -4.092576E+04  1.068132E+02  6.980686E+02 -3.611656E+04 -7.339585E+02 -8.428485E+03
        68  25  5.553107E+05  1.486861E+05  1.488005E+05 -3.633302E+04 -1.298068E+03 -1.284690E+04
        68  26  4.919336E+05  1.327310E+05  1.323335E+05  1.391517E+03 -6.668813E+02 -1.065783E+04
        68  27  4.294306E+05  1.173264E+05  1.165471E+05 -3.663668E+04 -3.213970E+01 -8.429139E+03
        69   1 -3.491260E+05 -7.664719E+04 -7.514498E+04 -3.577424E+04  1.320554E+03  7.120639E+03
        69   2 -2.860335E+05 -6.106537E+04 -6.021352E+04  2.150756E+03  1.287305E+03  4.892631E+03
        69   3 -2.230765E+05 -4.529706E+04 -4.525419E+04 -3.583497E+04  1.252425E+03  2.677033E+03
        69   4 -4.110927E+04  8.623013E+01  4.303407E+02 -3.615037E+04  6.239254E+02  7.121619E+03
        69   5 -4.104066E+04 -3.349986E+00  5.238579E+01  1.804059E+03  5.944920E+02  4.893850E+03
        69   6 -4.111090E+04  9.345016E+01 -2.998729E+02 -3.615037E+04  5.634290E+02  2.678504E+03
        69   7  2.669939E+05  7.681261E+04  7.599870E+04 -3.652664E+04 -7.304809E+01  7.122599E+03
        69   8  2.040068E+05  6.105421E+04  6.031387E+04  1.457252E+03 -9.859460E+01  4.895071E+03
        69   9  1.408848E+05  4.548149E+04  4.465199E+04 -3.646584E+04 -1.257684E+02  2.679975E+03
        69  10 -3.491260E+05 -7.664724E+04 -7.514508E+04 -3.577425E+04 -3.280751E-09 -1.822309E-09
        69  11 -2.860335E+05 -6.106540E+04 -6.021357E+04  2.150751E+03  1.620999E-10  1.307523E-09
        69  12 -2.230765E+05 -4.529707E+04 -4.525421E+04 -3.583497E+04 -2.931536E-10 -3.682473E-11
        69  13 -4.110928E+04  8.617557E+01  4.302447E+02 -3.615037E+04  2.166283E-09  1.219589E-09
        69  14 -4.104066E+04 -3.375798E+00  5.234012E+01  1.804057E+03 -8.028564E-10  3.476609E-09
        69  15 -4.111091E+04  9.344237E+01 -2.998870E+02 -3.615037E+04 -1.492182E-09 -2.516377E-09
        69  16  2.669939E+05  7.681256E+04  7.599860E+04 -3.652664E+04  2.461701E-09 -5.919092E-10
        69  17  2.040068E+05  6.105418E+04  6.031383E+04  1.457252E+03 -7.164669E-10  2.717255E-09
        69  18  1.408848E+05  4.548148E+04  4.465198E+04 -3.646584E+04 -1.858734E-09  4.222181E-10
        69  19 -3.491260E+05 -7.664719E+04 -7.514498E+04 -3.577424E+04 -1.320554E+03 -7.120639E+03
        69  20 -2.860335E+05 -6.106537E+04 -6.021352E+04  2.150756E+03 -1.287305E+03 -4.892631E+03
        69  21 -2.230765E+05 -4.529706E+04 -4.525419E+04 -3.583497E+04 -1.252425E+03 -2.677033E+03
        69  22 -4.110927E+04  8.623013E+01  4.303407E+02 -3.615037E+04 -6.239254E+02 -7.121619E+03
        69  23 -4.104066E+04 -3.349986E+00  5.238579E+01  1.804059E+03 -5.944920E+02 -4.893850E+03
        69  24 -4.111090E+04  9.345016E+01 -2.998729E+02 -3.615037E+04 -5.634290E+02 -2.678504E+03
        69  25  2.669939E+05  7.681261E+04  7.599870E+04 -3.652664E+04  7.304809E+01 -7.122599E+03
        69  26  2.040068E+05  6.105421E+04  6.031387E+04  1.457252E+03  9.859460E+01 -4.895071E+03
        69  27  1.408848E+05  4.548149E+04  4.465199E+04 -3.646584E+04  1.257684E+02 -2.679975E+03
        70   1 -6.077273E+04 -4.671480E+03 -5.122637E+03 -3.619243E+04  1.355725E+03  1.351556E+03
        70   2  2.590275E+03  1.094794E+04  9.683971E+03  1.761103E+03  1.815393E+03 -8.915555E+02
        70   3  6.537837E+04  2.611732E+04  2.399351E+04 -3.623568E+04  2.275750E+03 -2.973052E+03
        70   4 -4.120034E+04  1.665863E+02 -5.044723E+02 -3.615920E+04  6.310037E+02  1.353194E+03
        70   5 -4.090605E+04  1.096109E+02 -1.010058E+03  1.815498E+03  1.141016E+03 -8.900819E+02
        70   6 -4.120008E+04 -4.061539E+02 -2.047723E+03 -3.616045E+04  1.651671E+03 -2.971725E+03
        70   7 -2.162760E+04  5.004625E+03  4.113668E+03 -3.612598E+04 -9.374048E+01  1.354832E+03
        70   8 -8.440066E+04 -1.072886E+04 -1.170423E+04  1.869890E+03  4.666862E+02 -8.886084E+02
        70   9 -1.477682E+05 -2.693047E+04 -2.808978E+04 -3.608522E+04  1.027700E+03 -2.970398E+03
        70  10 -6.077273E+04 -4.671482E+03 -5.122644E+03 -3.619243E+04 -4.168646E-10  2.107060E-09
        70  11  2.590272E+03  1.094794E+04  9.683964E+03  1.761104E+03 -1.213534E-09 -2.309778E-10
        70  12  6.537836E+04  2.611731E+04  2.399348E+04 -3.623567E+04 -2.026489E-09 -4.349854E-10
        70  13 -4.120034E+04  1.665842E+02 -5.044764E+02 -3.615920E+04 -1.792647E-11 -1.888687E-09
        70  14 -4.090606E+04  1.096097E+02 -1.010062E+03  1.815499E+03  2.413702E-09 -2.760627E-09
        70  15 -4.120008E+04 -4.061641E+02 -2.047744E+03 -3.616044E+04  4.733563E-09  2.231252E-09
        70  16 -2.162760E+04  5.004623E+03  4.113664E+03 -3.612598E+04  1.805431E-09  1.522447E-09
        70  17 -8.440066E+04 -1.072886E+04 -1.170423E+04  1.869890E+03 -2.025458E-09 -4.564565E-09
        70  18 -1.477682E+05 -2.693048E+04 -2.808980E+04 -3.608522E+04  3.440540E-09 -1.902343E-09
        70  19 -6.077273E+04 -4.671480E+03 -5.122637E+03 -3.619243E+04 -1.355725E+03 -1.351556E+03
        70  20  2.590275E+03  1.094794E+04  9.683971E+03  1.761103E+03 -1.815393E+03  8.915555E+02
        70  21  6.537837E+04  2.611732E+04  2.399351E+04 -3.623568E+04 -2.275750E+03  2.973052E+03
        70  22 -4.120034E+04  1.665863E+02 -5.044723E+02 -3.615920E+04 -6.310037E+02 -1.353194E+03
        70  23 -4.090605E+04  1.096109E+02 -1.010058E+03  1.815498E+03 -1.141016E+03  8.900819E+02
        70  24 -4.120008E+04 -4.061539E+02 -2.047723E+03 -3.616045E+04 -1.651671E+03  2.971725E+03
        70  25 -2.162760E+04  5.004625E+03  4.113668E+03 -3.612598E+04  9.374048E+01 -1.354832E+03
        70  26 -8.440066E+04 -1.072886E+04 -1.170423E+04  1.869890E+03 -4.666862E+02  8.886084E+02
        70  27 -1.477682E+05 -2.693047E+04 -2.808978E+04 -3.608522E+04 -1.027700E+03  2.970398E+03
        71   1  2.275316E+05  6.738149E+04  6.374479E+04 -3.696974E+04  2.999157E+03 -4.483060E+03
        71   2  2.913343E+05  8.348655E+04  7.727767E+04  1.558943E+03  4.806543E+03 -6.798862E+03
        71   3  3.536204E+05  9.445561E+04  8.834737E+04 -3.577043E+04  6.618291E+03 -7.727194E+03
        71   4 -4.144351E+04  3.242264E+02 -2.582491E+03 -3.613737E+04  2.060324E+03 -4.481234E+03
        71   5 -4.064427E+04  7.806366E+02 -4.324905E+03  1.789777E+03  4.299669E+03 -6.798224E+03
        71   6 -4.144142E+04 -3.975362E+03 -8.831338E+03 -3.614373E+04  6.543193E+03 -7.727409E+03
        71   7 -3.103528E+05 -6.673843E+04 -6.891512E+04 -3.530532E+04  1.121896E+03 -4.479411E+03
        71   8 -3.725225E+05 -8.193347E+04 -8.593559E+04  2.020529E+03  3.793064E+03 -6.797585E+03
        71   9 -4.363612E+05 -1.024179E+05 -1.060216E+05 -3.651673E+04  6.468143E+03 -7.727623E+03
        71  10  2.275315E+05  6.738147E+04  6.374474E+04 -3.696973E+04 -1.705059E-09 -3.287179E-09
        71  11  2.913342E+05  8.348649E+04  7.727754E+04  1.558970E+03 -3.475886E-09 -1.104951E-10
        71  12  3.536203E+05  9.445553E+04  8.834718E+04 -3.577039E+04  2.611284E-09 -1.068923E-09
        71  13 -4.144352E+04  3.242037E+02 -2.582537E+03 -3.613736E+04  2.150792E-09  1.718040E-09
        71  14 -4.064430E+04  7.805820E+02 -4.325027E+03  1.789800E+03  2.370962E-09  9.241114E-10
        71  15 -4.144148E+04 -3.975438E+03 -8.831531E+03 -3.614369E+04  5.605166E-09  6.677997E-12
        71  16 -3.103528E+05 -6.673845E+04 -6.891516E+04 -3.530532E+04  6.257841E-09  4.865065E-10
        71  17 -3.725226E+05 -8.193352E+04 -8.593570E+04  2.020550E+03  4.814827E-11  1.531821E-09
        71  18 -4.363613E+05 -1.024180E+05 -1.060217E+05 -3.651669E+04 -2.644483E-09 -8.452014E-10
        71  19  2.275316E+05  6.738149E+04  6.374479E+04 -3.696974E+04 -2.999157E+03  4.483060E+03
        71  20  2.913343E+05  8.348655E+04  7.727767E+04  1.558943E+03 -4.806543E+03  6.798862E+03
        71  21  3.536204E+05  9.445561E+04  8.834737E+04 -3.577043E+04 -6.618291E+03  7.727194E+03
        71  22 -4.144351E+04  3.242264E+02 -2.582491E+03 -3.613737E+04 -2.060324E+03  4.481234E+03
        71  23 -4.064427E+04  7.806366E+02 -4.324905E+03  1.789777E+03 -4.299669E+03  6.798224E+03
        71  24 -4.144142E+04 -3.975362E+03 -8.831338E+03 -3.614373E+04 -6.543193E+03  7.727409E+03
        71  25 -3.103528E+05 -6.673843E+04 -6.891512E+04 -3.530532E+04 -1.121896E+03  4.479411E+03
        71  26 -3.725225E+05 -8.193347E+04 -8.593559E+04  2.020529E+03 -3.793064E+03  6.797585E+03
        71  27 -4.363612E+05 -1.024179E+05 -1.060216E+05 -3.651673E+04 -6.468143E+03  7.727623E+03
        72   1  5.138064E+05  1.401845E+05  1.263972E+05 -3.946661E+04  1.102397E+04 -1.081553E+04
        72   2  5.816086E+05  1.602375E+05  1.353815E+05  3.117179E+03  1.642291E+04 -1.373834E+04
        72   3  6.398097E+05  1.405647E+05  1.311303E+05 -2.978635E+04  2.182609E+04 -4.816032E+03
        72   4 -4.341492E+04  1.349101E+03 -1.067610E+04 -3.605511E+04  8.258750E+03 -1.081289E+04
        72   5 -3.828479E+04  5.875724E+03 -1.675222E+04  1.690150E+03  1.734846E+04 -1.373975E+04
        72   6 -4.341125E+04 -2.998558E+04 -3.863681E+04 -3.605696E+04  2.644175E+04 -4.816402E+03
        72   7 -6.003538E+05 -1.375093E+05 -1.477723E+05 -3.264659E+04  5.496004E+03 -1.081027E+04
        72   8 -6.578285E+05 -1.485145E+05 -1.689142E+05  2.645931E+02  1.827308E+04 -1.374117E+04
        72   9 -7.262088E+05 -2.005707E+05 -2.084388E+05 -4.232067E+04  3.105233E+04 -4.816865E+03
        72  10  5.138063E+05  1.401843E+05  1.263968E+05 -3.946651E+04  2.904718E-10 -8.864606E-10
        72  11  5.816083E+05  1.602372E+05  1.353807E+05  3.117360E+03 -2.296005E-09  1.089238E-09
        72  12  6.398092E+05  1.405645E+05  1.311294E+05 -2.978627E+04  1.270889E-09  6.704420E-10
        72  13 -4.341502E+04  1.348957E+03 -1.067645E+04 -3.605504E+04 -6.431676E-09  1.393026E-09
        72  14 -3.828516E+04  5.875441E+03 -1.675314E+04  1.690342E+03 -2.088550E-09  7.010839E-10
        72  15 -4.341201E+04 -2.998579E+04 -3.863817E+04 -3.605686E+04 -1.827083E-09  4.129706E-10
        72  16 -6.003539E+05 -1.375094E+05 -1.477726E+05 -3.264654E+04 -2.470728E-10 -5.687723E-10
        72  17 -6.578290E+05 -1.485148E+05 -1.689152E+05  2.647954E+02 -2.359420E-09  6.918643E-10
        72  18 -7.262098E+05 -2.005710E+05 -2.084406E+05 -4.232055E+04  2.547902E-09  3.405906E-10
        72  19  5.138064E+05  1.401845E+05  1.263972E+05 -3.946661E+04 -1.102397E+04  1.081553E+04
        72  20  5.816086E+05  1.602375E+05  1.353815E+05  3.117179E+03 -1.642291E+04  1.373834E+04
        72  21  6.398097E+05  1.405647E+05  1.311303E+05 -2.978635E+04 -2.182609E+04  4.816032E+03
        72  22 -4.341492E+04  1.349101E+03 -1.067610E+04 -3.605511E+04 -8.258750E+03  1.081289E+04
        72  23 -3.828479E+04  5.875724E+03 -1.675222E+04  1.690150E+03 -1.734846E+04  1.373975E+04
        72  24 -4.341125E+04 -2.998558E+04 -3.863681E+04 -3.605696E+04 -2.644175E+04  4.816402E+03
        72  25 -6.003538E+05 -1.375093E+05 -1.477723E+05 -3.264659E+04 -5.496004E+03  1.081027E+04
        72  26 -6.578285E+05 -1.485145E+05 -1.689142E+05  2.645931E+02 -1.827308E+04  1.374117E+04
        72  27 -7.262088E+05 -2.005707E+05 -2.084388E+05 -4.232067E+04 -3.105233E+04  4.816865E+03
        73   1  1.524908E+06  5.194678E+06  1.460983E+06 -1.320657E+06  6.417909E+04  3.299036E+05
        73   2  1.089950E+06  3.737210E+06  9.537470E+05 -1.105806E+06  1.992740E+05  9.134644E+04
        73   3  7.409334E+05  2.328517E+06  6.218636E+05 -1.265858E+06  1.802177E+05 -1.479546E+05
        73   4  7.501413E+04 -6.657940E+05  6.194728E+04 -1.242744E+06  6.735622E+04  3.117422E+04
        73   5  2.674395E+04 -6.683544E+05  3.896502E+04 -1.055521E+06  2.002695E+05  1.267504E+04
        73   6  2.679099E+04 -6.618072E+05  3.946330E+04 -1.243298E+06  1.785514E+05 -7.135100E+03
        73   7 -1.377301E+06 -6.494732E+06 -1.339173E+06 -1.165457E+06  7.047622E+04 -2.647661E+05
        73   8 -1.037687E+06 -5.055583E+06 -8.768563E+05 -1.005534E+06  2.012565E+05 -6.545014E+04
        73   9 -6.878761E+05 -3.643523E+06 -5.432880E+05 -1.220815E+06  1.768905E+05  1.330229E+05
        73  10  1.524875E+06  5.194561E+06  1.460772E+06 -1.320674E+06  4.577674E-10  3.184622E-09
        73  11  1.089905E+06  3.737190E+06  9.536567E+05 -1.105820E+06  1.182805E-09 -1.614854E-08
        73  12  7.408928E+05  2.328485E+06  6.217619E+05 -1.265836E+06  5.355740E-09 -7.724838E-09
        73  13  7.500899E+04 -6.657963E+05  6.193691E+04 -1.242746E+06  4.387460E-09 -1.806644E-11
        73  14  2.670085E+04 -6.683654E+05  3.888935E+04 -1.055524E+06  2.508967E-09  4.655829E-09
        73  15  2.675676E+04 -6.618158E+05  3.940333E+04 -1.243297E+06  8.187553E-09 -9.393501E-10
        73  16 -1.377326E+06 -6.494809E+06 -1.339315E+06 -1.165442E+06 -4.929592E-10 -5.396302E-09
        73  17 -1.037732E+06 -5.055598E+06 -8.769404E+05 -1.005524E+06  1.118751E-08  1.040889E-08
        73  18 -6.879146E+05 -3.643550E+06 -5.433805E+05 -1.220834E+06 -3.620616E-09  2.630812E-09
        73  19  1.524908E+06  5.194678E+06  1.460983E+06 -1.320657E+06 -6.417909E+04 -3.299036E+05
        73  20  1.089950E+06  3.737210E+06  9.537470E+05 -1.105806E+06 -1.992740E+05 -9.134644E+04
        73  21  7.409334E+05  2.328517E+06  6.218636E+05 -1.265858E+06 -1.802177E+05  1.479546E+05
        73  22  7.501413E+04 -6.657940E+05  6.194728E+04 -1.242744E+06 -6.735622E+04 -3.117422E+04
        73  23  2.674395E+04 -6.683544E+05  3.896502E+04 -1.055521E+06 -2.002695E+05 -1.267504E+04
        73  24  2.679099E+04 -6.618072E+05  3.946330E+04 -1.243298E+06 -1.785514E+05  7.135100E+03
        73  25 -1.377301E+06 -6.494732E+06 -1.339173E+06 -1.165457E+06 -7.047622E+04  2.647661E+05
        73  26 -1.037687E+06 -5.055583E+06 -8.768563E+05 -1.005534E+06 -2.012565E+05  6.545014E+04
        73  27 -6.878761E+05 -3.643523E+06 -5.432880E+05 -1.220815E+06 -1.768905E+05 -1.330229E+05
        74   1  5.097270E+05  1.345851E+06  4.356542E+05 -1.267437E+06  1.213317E+05 -1.288053E+05
        74   2  1.634827E+05 -8.541119E+04  1.725047E+05 -1.057438E+06  4.049993E+04 -1.640424E+05
        74   3 -1.589040E+05 -1.513992E+06 -6.440740E+04 -1.231437E+06 -4.226494E+04 -1.992680E+05
        74   4  2.948699E+04 -6.628145E+05  4.398703E+04 -1.245226E+06  1.199217E+05 -1.496904E+04
        74   5  2.615778E+04 -6.626377E+05  6.352225E+04 -1.053130E+06  3.903205E+04 -4.756577E+04
        74   6  4.632162E+04 -6.622621E+05  1.074470E+05 -1.245020E+06 -4.379546E+04 -8.022690E+04
        74   7 -4.509875E+05 -2.667583E+06 -3.478239E+05 -1.223072E+06  1.185170E+05  9.850759E+04
        74   8 -1.111793E+05 -1.239513E+06 -4.542391E+04 -1.048826E+06  3.756496E+04  6.880522E+04
        74   9  2.515102E+05  1.901915E+05  2.793175E+05 -1.258620E+06 -4.532996E+04  3.897476E+04
        74  10  5.097068E+05  1.345829E+06  4.355956E+05 -1.267425E+06  2.232741E-09  1.747937E-09
        74  11  1.634738E+05 -8.544051E+04  1.724511E+05 -1.057433E+06  3.414910E-09 -1.627244E-08
        74  12 -1.589166E+05 -1.514036E+06 -6.448563E+04 -1.231444E+06  2.344323E-09 -7.260948E-10
        74  13  2.947150E+04 -6.628186E+05  4.395961E+04 -1.245224E+06  2.239070E-09 -4.303490E-10
        74  14  2.615554E+04 -6.626405E+05  6.351514E+04 -1.053129E+06 -1.005254E-08  4.967643E-09
        74  15  4.631782E+04 -6.622696E+05  1.074313E+05 -1.245023E+06  1.419019E-09 -1.596770E-10
        74  16 -4.510053E+05 -2.667598E+06 -3.478687E+05 -1.223082E+06 -3.071325E-09 -5.609199E-09
        74  17 -1.111821E+05 -1.239519E+06 -4.543550E+04 -1.048828E+06 -4.716955E-09  7.343864E-09
        74  18  2.515076E+05  1.901894E+05  2.793108E+05 -1.258619E+06  1.894075E-09 -2.769908E-09
        74  19  5.097270E+05  1.345851E+06  4.356542E+05 -1.267437E+06 -1.213317E+05  1.288053E+05
        74  20  1.634827E+05 -8.541119E+04  1.725047E+05 -1.057438E+06 -4.049993E+04  1.640424E+05
        74  21 -1.589040E+05 -1.513992E+06 -6.440740E+04 -1.231437E+06  4.226494E+04  1.992680E+05
        74  22  2.948699E+04 -6.628145E+05  4.398703E+04 -1.245226E+06 -1.199217E+05  1.496904E+04
        74  23  2.615778E+04 -6.626377E+05  6.352225E+04 -1.053130E+06 -3.903205E+04  4.756577E+04
        74  24  4.632162E+04 -6.622621E+05  1.074470E+05 -1.245020E+06  4.379546E+04  8.022690E+04
        74  25 -4.509875E+05 -2.667583E+06 -3.478239E+05 -1.223072E+06 -1.185170E+05 -9.850759E+04
        74  26 -1.111793E+05 -1.239513E+06 -4.542391E+04 -1.048826E+06 -3.756496E+04 -6.880522E+04
        74  27  2.515102E+05  1.901915E+05  2.793175E+05 -1.258620E+06  4.532996E+04 -3.897476E+04
        75   1 -4.108712E+05 -2.472835E+06 -2.249532E+05 -1.268912E+06 -1.006041E+05 -2.395350E+05
        75   2 -6.996417E+05 -3.926195E+06 -4.412896E+05 -9.164318E+05 -1.377086E+05 -1.867841E+05
        75   3 -7.010001E+05 -5.319642E+06 -6.220259E+05 -9.396335E+05 -4.846710E+04 -1.329458E+05
        75   4  2.721002E+04 -6.432124E+05  1.374264E+05 -1.243959E+06 -1.023804E+05 -9.947816E+04
        75   5  8.964709E+04 -6.887650E+05  2.418778E+05 -1.053847E+06 -1.371626E+05 -2.252896E+05
        75   6  4.696951E+05 -6.459684E+05  5.057685E+05 -1.238948E+06 -4.592681E+04 -3.499152E+05
        75   7  4.651019E+05  1.189669E+06  4.997159E+05 -1.218918E+06 -1.041422E+05  4.098452E+04
        75   8  8.783169E+05  2.558639E+06  9.244657E+05 -1.191957E+06 -1.366013E+05 -2.639914E+05
        75   9  1.639114E+06  4.048071E+06  1.632212E+06 -1.540467E+06 -4.318739E+04 -5.685152E+05
        75  10 -4.108976E+05 -2.472900E+06 -2.250807E+05 -1.268931E+06  5.849630E-09 -3.551656E-09
        75  11 -6.996715E+05 -3.926238E+06 -4.413914E+05 -9.164526E+05  2.044988E-09 -1.774957E-08
        75  12 -7.010074E+05 -5.319661E+06 -6.220639E+05 -9.396387E+05 -1.167135E-09 -1.860974E-09
        75  13  2.719607E+04 -6.432259E+05  1.373880E+05 -1.243967E+06  1.103880E-09  4.039365E-10
        75  14  8.961317E+04 -6.888247E+05  2.417467E+05 -1.053872E+06 -1.527944E-08  5.383492E-09
        75  15  4.696599E+05 -6.461005E+05  5.055340E+05 -1.238961E+06 -1.431732E-09 -4.493422E-10
        75  16  4.650898E+05  1.189664E+06  4.996924E+05 -1.218914E+06 -5.882168E-09  1.447990E-09
        75  17  8.782781E+05  2.558560E+06  9.242999E+05 -1.191986E+06  1.582197E-09  1.057405E-08
        75  18  1.639026E+06  4.047726E+06  1.631605E+06 -1.540487E+06  2.127673E-09 -2.271337E-09
        75  19 -4.108712E+05 -2.472835E+06 -2.249532E+05 -1.268912E+06  1.006041E+05  2.395350E+05
        75  20 -6.996417E+05 -3.926195E+06 -4.412896E+05 -9.164318E+05  1.377086E+05  1.867841E+05
        75  21 -7.010001E+05 -5.319642E+06 -6.220259E+05 -9.396335E+05  4.846710E+04  1.329458E+05
        75  22  2.721002E+04 -6.432124E+05  1.374264E+05 -1.243959E+06  1.023804E+05  9.947816E+04
        75  23  8.964709E+04 -6.887650E+05  2.418778E+05 -1.053847E+06  1.371626E+05  2.252896E+05
        75  24  4.696951E+05 -6.459684E+05  5.057685E+05 -1.238948E+06  4.592681E+04  3.499152E+05
        75  25  4.651019E+05  1.189669E+06  4.997159E+05 -1.218918E+06  1.041422E+05 -4.098452E+04
        75  26  8.783169E+05  2.558639E+06  9.244657E+05 -1.191957E+06  1.366013E+05  2.639914E+05
        75  27  1.639114E+06  4.048071E+06  1.632212E+06 -1.540467E+06  4.318739E+04  5.685152E+05
        76   1 -5.319174E+06 -2.114907E+06 -1.246713E+06 -1.787954E+06 -2.837201E+05 -1.490046E+04
        76   2 -4.971799E+06 -2.026719E+06 -1.035163E+06 -1.652343E+06 -1.949123E+05  2.332310E+05
        76   3 -4.550276E+06 -1.959556E+06 -9.282052E+05 -1.616364E+06 -4.949017E+04  3.344513E+05
        76   4  2.176532E+04 -1.465875E+05  1.418939E+05 -3.711555E+05  5.926855E+04  1.164897E+05
        76   5 -4.204901E+04 -2.108979E+05  6.344226E+04 -2.998668E+05 -4.515525E+04  2.901903E+05
        76   6  6.636175E+03 -2.579435E+05  3.461344E+04 -3.281739E+05 -9.330969E+04  3.175489E+05
        76   7  5.390653E+06  1.823251E+06  1.528593E+06  1.056591E+06  4.055191E+05  2.490378E+05
        76   8  4.912375E+06  1.606762E+06  1.160614E+06  1.062471E+06  1.058985E+05  3.476300E+05
        76   9  4.584953E+06  1.445586E+06  9.963064E+05  9.688463E+05 -1.374810E+05  3.005117E+05
        76  10 -5.319261E+06 -2.114929E+06 -1.246866E+06 -1.787958E+06  3.552163E-09  7.110674E-10
        76  11 -4.971855E+06 -2.026788E+06 -1.035337E+06 -1.652306E+06  1.545041E-08  6.235379E-11
        76  12 -4.550309E+06 -1.959677E+06 -9.284201E+05 -1.616351E+06  2.118729E-08  2.665379E-09
        76  13  2.175790E+04 -1.466031E+05  1.418618E+05 -3.711610E+05  4.897332E-10  7.978704E-09
        76  14 -4.207381E+04 -2.109889E+05  6.328017E+04 -2.998562E+05 -8.142628E-09  4.939469E-09
        76  15  6.599769E+03 -2.580541E+05  3.440759E+04 -3.281501E+05 -6.436081E-09  5.468034E-09
        76  16  5.390461E+06  1.823141E+06  1.528171E+06  1.056510E+06 -6.926316E-09 -9.562382E-10
        76  17  4.912331E+06  1.606629E+06  1.160366E+06  1.062441E+06 -8.826581E-09 -7.823473E-09
        76  18  4.584909E+06  1.445484E+06  9.961012E+05  9.688795E+05 -2.198482E-08 -7.400506E-09
        76  19 -5.319174E+06 -2.114907E+06 -1.246713E+06 -1.787954E+06  2.837201E+05  1.490046E+04
        76  20 -4.971799E+06 -2.026719E+06 -1.035163E+06 -1.652343E+06  1.949123E+05 -2.332310E+05
        76  21 -4.550276E+06 -1.959556E+06 -9.282052E+05 -1.616364E+06  4.949017E+04 -3.344513E+05
        76  22  2.176532E+04 -1.465875E+05  1.418939E+05 -3.711555E+05 -5.926855E+04 -1.164897E+05
        76  23 -4.204901E+04 -2.108979E+05  6.344226E+04 -2.998668E+05  4.515525E+04 -2.901903E+05
        76  24  6.636175E+03 -2.579435E+05  3.461344E+04 -3.281739E+05  9.330969E+04 -3.175489E+05
        76  25  5.390653E+06  1.823251E+06  1.528593E+06  1.056591E+06 -4.055191E+05 -2.490378E+05
        76  26  4.912375E+06  1.606762E+06  1.160614E+06  1.062471E+06 -1.058985E+05 -3.476300E+05
        76  27  4.584953E+06  1.445586E+06  9.963064E+05  9.688463E+05  1.374810E+05 -3.005117E+05
        77   1 -4.307325E+06 -1.848500E+06 -8.827818E+05 -1.537415E+06 -7.818412E+04  3.026028E+05
        77   2 -3.984747E+06 -1.675381E+06 -8.081207E+05 -1.391378E+06 -6.760369E+04  2.906473E+05
        77   3 -3.582458E+06 -1.576377E+06 -7.359564E+05 -1.331537E+06 -5.366926E+04  2.695894E+05
        77   4  3.833317E+03 -2.537474E+05  2.647843E+04 -3.341289E+05 -9.041593E+04  2.977468E+05
        77   5 -3.677100E+04 -2.187594E+05  1.359636E+04 -2.904814E+05 -9.184385E+04  2.812867E+05
        77   6  4.556205E+03 -2.554813E+05  7.747315E+03 -3.330429E+05 -8.993273E+04  2.557546E+05
        77   7  4.334078E+06  1.342606E+06  9.347145E+05  8.769089E+05 -1.027414E+05  2.928564E+05
        77   8  3.927230E+06  1.239208E+06  8.344799E+05  8.169084E+05 -1.162520E+05  2.718635E+05
        77   9  3.604787E+06  1.066516E+06  7.507689E+05  6.707960E+05 -1.264234E+05  2.418346E+05
        77  10 -4.307356E+06 -1.848600E+06 -8.829654E+05 -1.537396E+06 -2.511580E-08 -1.038228E-08
        77  11 -3.984774E+06 -1.675473E+06 -8.082880E+05 -1.391362E+06 -1.463804E-08 -6.411105E-09
        77  12 -3.582481E+06 -1.576456E+06 -7.360985E+05 -1.331525E+06 -4.086474E-09 -2.092221E-09
        77  13  3.800753E+03 -2.538448E+05  2.629647E+04 -3.341072E+05 -6.275932E-09  3.912618E-09
        77  14 -3.680129E+04 -2.188466E+05  1.343183E+04 -2.904606E+05  8.658571E-10 -1.209946E-09
        77  15  4.529972E+03 -2.555537E+05  7.609208E+03 -3.330244E+05  2.711134E-09 -2.419761E-09
        77  16  4.334044E+06  1.342511E+06  9.345335E+05  8.769331E+05  1.905816E-08  1.115528E-08
        77  17  3.927196E+06  1.239125E+06  8.343156E+05  8.169338E+05  1.329327E-08  5.805453E-09
        77  18  3.604754E+06  1.066449E+06  7.506290E+05  6.708205E+05  5.445790E-09 -2.918736E-09
        77  19 -4.307325E+06 -1.848500E+06 -8.827818E+05 -1.537415E+06  7.818412E+04 -3.026028E+05
        77  20 -3.984747E+06 -1.675381E+06 -8.081207E+05 -1.391378E+06  6.760369E+04 -2.906473E+05
        77  21 -3.582458E+06 -1.576377E+06 -7.359564E+05 -1.331537E+06  5.366926E+04 -2.695894E+05
        77  22  3.833317E+03 -2.537474E+05  2.647843E+04 -3.341289E+05  9.041593E+04 -2.977468E+05
        77  23 -3.677100E+04 -2.187594E+05  1.359636E+04 -2.904814E+05  9.184385E+04 -2.812867E+05
        77  24  4.556205E+03 -2.554813E+05  7.747315E+03 -3.330429E+05  8.993273E+04 -2.557546E+05
        77  25  4.334078E+06  1.342606E+06  9.347145E+05  8.769089E+05  1.027414E+05 -2.928564E+05
        77  26  3.927230E+06  1.239208E+06  8.344799E+05  8.169084E+05  1.162520E+05 -2.718635E+05
        77  27  3.604787E+06  1.066516E+06  7.507689E+05  6.707960E+05  1.264234E+05 -2.418346E+05
        78   1 -3.330781E+06 -1.481032E+06 -6.834361E+05 -1.260398E+06 -5.060520E+04  2.524970E+05
        78   2 -3.006263E+06 -1.306765E+06 -6.110710E+05 -1.114560E+06 -4.128435E+04  2.258862E+05
        78   3 -2.603047E+06 -1.208605E+06 -5.376495E+05 -1.055568E+06 -3.182897E+04  1.986731E+05
        78   4  4.395340E+03 -2.550177E+05  5.741723E+03 -3.335637E+05 -8.496225E+04  2.394216E+05
        78   5 -3.443592E+04 -2.160532E+05  2.936414E+03 -2.903361E+05 -7.643344E+04  2.125697E+05
        78   6  5.415485E+03 -2.530321E+05  1.792528E+03 -3.339852E+05 -6.777033E+04  1.851176E+05
        78   7  3.351050E+06  9.719638E+05  6.943489E+05  5.978959E+05 -1.195198E+05  2.262711E+05
        78   8  2.946491E+06  8.754167E+05  6.164896E+05  5.375463E+05 -1.117649E+05  1.991849E+05
        78   9  2.620873E+06  7.031147E+05  5.408827E+05  3.904036E+05 -1.038750E+05  1.715010E+05
        78  10 -3.330801E+06 -1.481101E+06 -6.835607E+05 -1.260388E+06 -3.196456E-08 -1.081960E-08
        78  11 -3.006278E+06 -1.306820E+06 -6.111701E+05 -1.114552E+06  5.254125E-09 -1.898286E-09
        78  12 -2.603059E+06 -1.208647E+06 -5.377256E+05 -1.055563E+06  2.711593E-08  6.390286E-09
        78  13  4.372211E+03 -2.550812E+05  5.620448E+03 -3.335473E+05  1.897353E-09 -2.603717E-09
        78  14 -3.445431E+04 -2.161033E+05  2.840532E+03 -2.903230E+05  6.669832E-09 -1.605585E-09
        78  15  5.401360E+03 -2.530702E+05  1.719508E+03 -3.339751E+05  1.165437E-09 -2.715544E-09
        78  16  3.351021E+06  9.719050E+05  6.942259E+05  5.979176E+05  2.819420E-08  6.647669E-09
        78  17  2.946467E+06  8.753707E+05  6.163916E+05  5.375642E+05  7.234163E-09 -2.823945E-09
        78  18  2.620854E+06  7.030803E+05  5.408071E+05  3.904179E+05 -1.967351E-08 -9.924297E-09
        78  19 -3.330781E+06 -1.481032E+06 -6.834361E+05 -1.260398E+06  5.060520E+04 -2.524970E+05
        78  20 -3.006263E+06 -1.306765E+06 -6.110710E+05 -1.114560E+06  4.128435E+04 -2.258862E+05
        78  21 -2.603047E+06 -1.208605E+06 -5.376495E+05 -1.055568E+06  3.182897E+04 -1.986731E+05
        78  22  4.395340E+03 -2.550177E+05  5.741723E+03 -3.335637E+05  8.496225E+04 -2.394216E+05
        78  23 -3.443592E+04 -2.160532E+05  2.936414E+03 -2.903361E+05  7.643344E+04 -2.125697E+05
        78  24  5.415485E+03 -2.530321E+05  1.792528E+03 -3.339852E+05  6.777033E+04 -1.851176E+05
        78  25  3.351050E+06  9.719638E+05  6.943489E+05  5.978959E+05  1.195198E+05 -2.262711E+05
        78  26  2.946491E+06  8.754167E+05  6.164896E+05  5.375463E+05  1.117649E+05 -1.991849E+05
        78  27  2.620873E+06  7.031147E+05  5.408827E+05  3.904036E+05  1.038750E+05 -1.715010E+05
        79   1 -2.349764E+06 -1.114567E+06 -4.835184E+05 -9.852633E+05 -2.621723E+04  1.826925E+05
        79   2 -2.022895E+06 -9.414575E+05 -4.097081E+05 -8.399431E+05 -1.623227E+04  1.554391E+05
        79   3 -1.618537E+06 -8.446094E+05 -3.354854E+05 -7.821354E+05 -6.285843E+03  1.281219E+05
        79   4  5.437977E+03 -2.527750E+05  1.287149E+03 -3.341375E+05 -6.207150E+04  1.691991E+05
        79   5 -3.289639E+04 -2.139452E+05  6.144974E+02 -2.905211E+05 -5.216901E+04  1.419539E+05
        79   6  6.119117E+03 -2.513609E+05  4.066687E+02 -3.344560E+05 -4.230499E+04  1.146453E+05
        79   7  2.366327E+06  6.094783E+05  4.858050E+05  3.192696E+05 -9.807245E+04  1.556508E+05
        79   8  1.961172E+06  5.138992E+05  4.107359E+05  2.605295E+05 -8.823007E+04  1.284222E+05
        79   9  1.633498E+06  3.421116E+05  3.361689E+05  1.143093E+05 -7.842605E+04  1.011306E+05
        79  10 -2.349773E+06 -1.114603E+06 -4.835825E+05 -9.852594E+05  2.022762E-09 -1.788852E-09
        79  11 -2.022901E+06 -9.414835E+05 -4.097540E+05 -8.399410E+05  5.472646E-09  1.199795E-09
        79  12 -1.618542E+06 -8.446270E+05 -3.355163E+05 -7.821348E+05 -6.486219E-10  8.005584E-10
        79  13  5.426160E+03 -2.528068E+05  1.226117E+03 -3.341290E+05 -1.716022E-09 -2.046450E-09
        79  14 -3.290472E+04 -2.139676E+05  5.715201E+02 -2.905151E+05 -6.532620E-09 -5.321384E-10
        79  15  6.113669E+03 -2.513755E+05  3.786093E+02 -3.344521E+05 -7.979405E-09 -2.002576E-09
        79  16  2.366310E+06  6.094497E+05  4.857415E+05  3.192819E+05  3.405609E-11  2.880658E-10
        79  17  1.961159E+06  5.138794E+05  4.106903E+05  2.605386E+05 -3.332382E-09  1.055400E-10
        79  18  1.633489E+06  3.420990E+05  3.361382E+05  1.143157E+05 -6.516137E-09 -1.612326E-09
        79  19 -2.349764E+06 -1.114567E+06 -4.835184E+05 -9.852633E+05  2.621723E+04 -1.826925E+05
        79  20 -2.022895E+06 -9.414575E+05 -4.097081E+05 -8.399431E+05  1.623227E+04 -1.554391E+05
        79  21 -1.618537E+06 -8.446094E+05 -3.354854E+05 -7.821354E+05  6.285843E+03 -1.281219E+05
        79  22  5.437977E+03 -2.527750E+05  1.287149E+03 -3.341375E+05  6.207150E+04 -1.691991E+05
        79  23 -3.289639E+04 -2.139452E+05  6.144974E+02 -2.905211E+05  5.216901E+04 -1.419539E+05
        79  24  6.119117E+03 -2.513609E+05  4.066687E+02 -3.344560E+05  4.230499E+04 -1.146453E+05
        79  25  2.366327E+06  6.094783E+05  4.858050E+05  3.192696E+05  9.807245E+04 -1.556508E+05
        79  26  1.961172E+06  5.138992E+05  4.107359E+05  2.605295E+05  8.823007E+04 -1.284222E+05
        79  27  1.633498E+06  3.421116E+05  3.361689E+05  1.143093E+05  7.842605E+04 -1.011306E+05
        80   1 -1.364250E+06 -7.510666E+05 -2.809626E+05 -7.121648E+05 -4.030849E+02  1.122462E+05
        80   2 -1.035887E+06 -5.788000E+05 -2.067028E+05 -5.670884E+05  9.763749E+03  8.500769E+04
        80   3 -6.307662E+05 -4.828532E+05 -1.323738E+05 -5.099152E+05  1.989975E+04  5.776670E+04
        80   4  6.145827E+03 -2.512071E+05  2.477520E+02 -3.345356E+05 -3.644096E+04  9.878022E+04
        80   5 -3.198602E+04 -2.126886E+05  3.188478E+01 -2.906407E+05 -2.628111E+04  7.155876E+04
        80   6  6.493488E+03 -2.504941E+05 -1.162657E+02 -3.346939E+05 -1.615221E+04  4.433518E+04
        80   7  1.378473E+06  2.488095E+05  2.813667E+05  4.386419E+04 -7.256451E+04  8.528230E+04
        80   8  9.729479E+05  1.535054E+05  2.067185E+05 -1.378094E+04 -6.238857E+04  5.808647E+04
        80   9  6.441667E+05 -1.810263E+04  1.321238E+05 -1.593074E+05 -5.224373E+04  3.088891E+04
        80  10 -1.364253E+06 -7.510801E+05 -2.809863E+05 -7.121647E+05 -4.343942E-09 -1.715144E-10
        80  11 -1.035889E+06 -5.788078E+05 -2.067166E+05 -5.670891E+05  1.002372E-09  1.648804E-09
        80  12 -6.307676E+05 -4.828569E+05 -1.323808E+05 -5.099162E+05  5.200642E-09 -2.162944E-10
        80  13  6.141784E+03 -2.512179E+05  2.269224E+02 -3.345327E+05 -8.473662E-09 -4.159771E-10
        80  14 -3.198813E+04 -2.126943E+05  2.096530E+01 -2.906392E+05 -1.781831E-09  1.668238E-10
        80  15  6.492681E+03 -2.504962E+05 -1.204493E+02 -3.346933E+05 -2.147686E-10 -6.859435E-10
        80  16  1.378465E+06  2.488003E+05  2.813431E+05  4.386917E+04 -1.585514E-09 -3.106806E-10
        80  17  9.729428E+05  1.535008E+05  2.067049E+05 -1.377802E+04 -1.142682E-09 -1.095028E-09
        80  18  6.441635E+05 -1.810438E+04  1.321169E+05 -1.593061E+05 -4.712116E-09 -2.216605E-09
        80  19 -1.364250E+06 -7.510666E+05 -2.809626E+05 -7.121648E+05  4.030849E+02 -1.122462E+05
        80  20 -1.035887E+06 -5.788000E+05 -2.067028E+05 -5.670884E+05 -9.763749E+03 -8.500769E+04
        80  21 -6.307662E+05 -4.828532E+05 -1.323738E+05 -5.099152E+05 -1.989975E+04 -5.776670E+04
        80  22  6.145827E+03 -2.512071E+05  2.477520E+02 -3.345356E+05  3.644096E+04 -9.878022E+04
        80  23 -3.198602E+04 -2.126886E+05  3.188478E+01 -2.906407E+05  2.628111E+04 -7.155876E+04
        80  24  6.493488E+03 -2.504941E+05 -1.162657E+02 -3.346939E+05  1.615221E+04 -4.433518E+04
        80  25  1.378473E+06  2.488095E+05  2.813667E+05  4.386419E+04  7.256451E+04 -8.528230E+04
        80  26  9.729479E+05  1.535054E+05  2.067185E+05 -1.378094E+04  6.238857E+04 -5.808647E+04
        80  27  6.441667E+05 -1.810263E+04  1.321238E+05 -1.593074E+05  5.224373E+04 -3.088891E+04
        81   1 -3.758522E+05 -3.895771E+05 -7.780514E+04 -4.400315E+05  2.590082E+04  4.193319E+04
        81   2 -4.683816E+04 -2.177977E+05 -3.577430E+03 -2.949114E+05  3.598565E+04  1.479209E+04
        81   3  3.586913E+05 -1.223204E+05  7.067337E+04 -2.378147E+05  4.597620E+04 -1.209854E+04
        81   4  6.487405E+03 -2.504406E+05 -2.473952E+02 -3.347252E+05 -1.021775E+04  2.848290E+04
        81   5 -3.166160E+04 -2.122514E+05 -5.882265E+02 -2.906827E+05  1.881046E+02  1.461359E+03
        81   6  6.492301E+03 -2.504449E+05 -1.165128E+03 -3.347213E+05  1.049957E+04 -2.530931E+04
        81   7  3.889832E+05 -1.112896E+05  7.730945E+04 -2.293574E+05 -4.636051E+04  1.502359E+04
        81   8 -1.648189E+04 -2.067041E+05  2.406470E+03 -2.864532E+05 -3.561052E+04 -1.186978E+04
        81   9 -3.455767E+05 -3.785580E+05 -7.300458E+04 -4.315765E+05 -2.495546E+04 -3.851203E+04
        81  10 -3.758533E+05 -3.895792E+05 -7.780971E+04 -4.400324E+05  2.184703E-09  9.270639E-10
        81  11 -4.683961E+04 -2.177983E+05 -3.580276E+03 -2.949118E+05  1.599104E-09  2.256146E-09
        81  12  3.586889E+05 -1.223211E+05  7.066913E+04 -2.378142E+05  4.302286E-09  1.813238E-10
        81  13  6.487075E+03 -2.504415E+05 -2.491158E+02 -3.347249E+05  6.386296E-09 -1.964620E-09
        81  14 -3.166160E+04 -2.122514E+05 -5.882306E+02 -2.906827E+05 -1.637500E-09 -1.381538E-09
        81  15  6.492011E+03 -2.504456E+05 -1.166538E+03 -3.347211E+05 -8.364438E-09 -1.506529E-09
        81  16  3.889808E+05 -1.112904E+05  7.730499E+04 -2.293568E+05  2.181084E-09  1.022837E-09
        81  17 -1.648329E+04 -2.067046E+05  2.403821E+03 -2.864535E+05  3.481860E-09  9.590771E-10
        81  18 -3.455778E+05 -3.785598E+05 -7.300854E+04 -4.315773E+05 -6.228664E-09  1.244917E-09
        81  19 -3.758522E+05 -3.895771E+05 -7.780514E+04 -4.400315E+05 -2.590082E+04 -4.193319E+04
        81  20 -4.683816E+04 -2.177977E+05 -3.577430E+03 -2.949114E+05 -3.598565E+04 -1.479209E+04
        81  21  3.586913E+05 -1.223204E+05  7.067337E+04 -2.378147E+05 -4.597620E+04  1.209854E+04
        81  22  6.487405E+03 -2.504406E+05 -2.473952E+02 -3.347252E+05  1.021775E+04 -2.848290E+04
        81  23 -3.166160E+04 -2.122514E+05 -5.882265E+02 -2.906827E+05 -1.881046E+02 -1.461359E+03
        81  24  6.492301E+03 -2.504449E+05 -1.165128E+03 -3.347213E+05 -1.049957E+04  2.530931E+04
        81  25  3.889832E+05 -1.112896E+05  7.730945E+04 -2.293574E+05  4.636051E+04 -1.502359E+04
        81  26 -1.648189E+04 -2.067041E+05  2.406470E+03 -2.864532E+05  3.561052E+04  1.186978E+04
        81  27 -3.455767E+05 -3.785580E+05 -7.300458E+04 -4.315765E+05  2.495546E+04  3.851203E+04
        82   1  6.139836E+05 -2.909718E+04  1.249294E+05 -1.678366E+05  5.301345E+04 -2.760994E+04
        82   2  9.424928E+05  1.426836E+05  1.996503E+05 -2.237494E+04  5.856126E+04 -5.442449E+04
        82   3  1.348121E+06  2.386368E+05  2.773748E+05  3.551992E+04  6.260442E+04 -7.714663E+04
        82   4  6.372777E+03 -2.504169E+05 -1.569875E+03 -3.346996E+05  1.664671E+04 -4.115776E+04
        82   5 -3.181285E+04 -2.127406E+05 -2.984387E+03 -2.906438E+05  2.761160E+04 -6.597209E+04
        82   6  5.918896E+03 -2.519830E+05 -5.677823E+03 -3.342182E+05  3.707288E+04 -8.668936E+04
        82   7 -6.008534E+05 -4.717040E+05 -1.280820E+05 -5.014104E+05 -1.968149E+04 -5.469125E+04
        82   8 -1.005147E+06 -5.680866E+05 -2.056657E+05 -5.585249E+05 -3.285873E+03 -7.750022E+04
        82   9 -1.334458E+06 -7.424608E+05 -2.888302E+05 -7.032245E+05  1.160051E+04 -9.620999E+04
        82  10  6.139804E+05 -2.909876E+04  1.249227E+05 -1.678354E+05  5.569640E-09  1.358183E-09
        82  11  9.424883E+05  1.426795E+05  1.996383E+05 -2.237238E+04  5.923451E-09 -7.072584E-10
        82  12  1.348115E+06  2.386293E+05  2.773563E+05  3.552381E+04  1.715763E-09 -2.111180E-09
        82  13  6.372025E+03 -2.504188E+05 -1.573578E+03 -3.346990E+05  2.618022E-09  1.434193E-09
        82  14 -3.181484E+04 -2.127454E+05 -2.993997E+03 -2.906423E+05 -7.422067E-10 -2.349301E-09
        82  15  5.915405E+03 -2.519915E+05 -5.694525E+03 -3.342156E+05 -9.985903E-09 -5.988846E-09
        82  16 -6.008546E+05 -4.717073E+05 -1.280884E+05 -5.014113E+05 -2.109307E-09  3.517661E-09
        82  17 -1.005148E+06 -5.680930E+05 -2.056770E+05 -5.585251E+05 -4.330274E-09 -2.983681E-09
        82  18 -1.334461E+06 -7.424707E+05 -2.888479E+05 -7.032236E+05 -1.377502E-08 -7.637413E-09
        82  19  6.139836E+05 -2.909718E+04  1.249294E+05 -1.678366E+05 -5.301345E+04  2.760994E+04
        82  20  9.424928E+05  1.426836E+05  1.996503E+05 -2.237494E+04 -5.856126E+04  5.442449E+04
        82  21  1.348121E+06  2.386368E+05  2.773748E+05  3.551992E+04 -6.260442E+04  7.714663E+04
        82  22  6.372777E+03 -2.504169E+05 -1.569875E+03 -3.346996E+05 -1.664671E+04  4.115776E+04
        82  23 -3.181285E+04 -2.127406E+05 -2.984387E+03 -2.906438E+05 -2.761160E+04  6.597209E+04
        82  24  5.918896E+03 -2.519830E+05 -5.677823E+03 -3.342182E+05 -3.707288E+04  8.668936E+04
        82  25 -6.008534E+05 -4.717040E+05 -1.280820E+05 -5.014104E+05  1.968149E+04  5.469125E+04
        82  26 -1.005147E+06 -5.680866E+05 -2.056657E+05 -5.585249E+05  3.285873E+03  7.750022E+04
        82  27 -1.334458E+06 -7.424608E+05 -2.888302E+05 -7.032245E+05 -1.160051E+04  9.620999E+04
        83   1  1.606240E+06  3.323792E+05  3.299296E+05  1.043263E+05  8.419937E+04 -8.843096E+04
        83   2  1.925368E+06  5.080436E+05  4.255369E+05  2.535415E+05  2.373726E+03 -1.154684E+05
        83   3  2.328831E+06  6.105432E+05  5.807346E+05  3.229364E+05 -1.043446E+05 -7.629850E+04
        83   4  4.371115E+03 -2.504956E+05 -7.369636E+03 -3.342618E+05  4.425828E+04 -1.033664E+05
        83   5 -3.097896E+04 -2.173270E+05 -1.391422E+04 -2.898864E+05  5.051588E+04 -9.750182E+04
        83   6  4.782379E+02 -2.747760E+05 -3.051512E+04 -3.253993E+05  3.189652E+04 -2.530231E+04
        83   7 -1.594890E+06 -8.331708E+05 -3.448057E+05 -7.718145E+05  4.427808E+03 -1.182610E+05
        83   8 -1.983453E+06 -9.423818E+05 -4.535931E+05 -8.317370E+05  9.849367E+04 -7.959788E+04
        83   9 -2.322528E+06 -1.159680E+06 -6.421287E+05 -9.715019E+05  1.675750E+05  2.547555E+04
        83  10  1.606230E+06  3.323689E+05  3.299016E+05  1.043323E+05 -6.123110E-09 -6.141442E-09
        83  11  1.925365E+06  5.080292E+05  4.255119E+05  2.535417E+05 -1.923971E-09  1.308856E-10
        83  12  2.328818E+06  6.105340E+05  5.807032E+05  3.229300E+05  3.353922E-09  1.156043E-09
        83  13  4.366146E+03 -2.505076E+05 -7.393391E+03 -3.342581E+05 -5.502587E-09 -6.184851E-09
        83  14 -3.098425E+04 -2.173379E+05 -1.393687E+04 -2.898825E+05  1.316135E-09 -1.111593E-09
        83  15  4.769743E+02 -2.747770E+05 -3.051823E+04 -3.253987E+05  9.027972E-10  3.745315E-10
        83  16 -1.594894E+06 -8.331858E+05 -3.448320E+05 -7.718141E+05  5.297217E-10 -2.030847E-09
        83  17 -1.983465E+06 -9.423912E+05 -4.536232E+05 -8.317307E+05 -3.492141E-09 -2.817247E-09
        83  18 -2.322559E+06 -1.159689E+06 -6.421829E+05 -9.715053E+05 -2.843772E-09 -9.588699E-10
        83  19  1.606240E+06  3.323792E+05  3.299296E+05  1.043263E+05 -8.419937E+04  8.843096E+04
        83  20  1.925368E+06  5.080436E+05  4.255369E+05  2.535415E+05 -2.373726E+03  1.154684E+05
        83  21  2.328831E+06  6.105432E+05  5.807346E+05  3.229364E+05  1.043446E+05  7.629850E+04
        83  22  4.371115E+03 -2.504956E+05 -7.369636E+03 -3.342618E+05 -4.425828E+04  1.033664E+05
        83  23 -3.097896E+04 -2.173270E+05 -1.391422E+04 -2.898864E+05 -5.051588E+04  9.750182E+04
        83  24  4.782379E+02 -2.747760E+05 -3.051512E+04 -3.253993E+05 -3.189652E+04  2.530231E+04
        83  25 -1.594890E+06 -8.331708E+05 -3.448057E+05 -7.718145E+05 -4.427808E+03  1.182610E+05
        83  26 -1.983453E+06 -9.423818E+05 -4.535931E+05 -8.317370E+05 -9.849367E+04  7.959788E+04
        83  27 -2.322528E+06 -1.159680E+06 -6.421287E+05 -9.715019E+05 -1.675750E+05 -2.547555E+04
        84   1 -1.644189E+05 -8.498696E+04 -7.542181E+04 -5.996961E+04 -1.704531E+04  5.896781E+03
        84   2 -1.029834E+05 -8.872210E+04 -5.760977E+04 -6.748016E+04 -3.024701E+03  1.965149E+04
        84   3 -4.060145E+04 -8.145060E+04 -4.617426E+04 -8.410374E+04  1.100099E+04  2.329990E+04
        84   4  3.332262E+05  3.755853E+04  3.975763E+04 -8.554019E+04  2.809197E+04  5.903316E+03
        84   5  3.306633E+05  1.353175E+04  2.008181E+04 -8.098291E+04  1.786112E+04  1.965213E+04
        84   6  3.332493E+05  4.716258E+03  1.086748E+04 -8.553752E+04  7.633718E+03  2.329843E+04
        84   7  8.311060E+05  1.600902E+05  1.549285E+05 -1.111314E+05  7.326517E+04  5.906132E+03
        84   8  7.644947E+05  1.157761E+05  9.776792E+04 -9.449536E+04  3.876111E+04  1.965185E+04
        84   9  7.072400E+05  9.087641E+04  6.790627E+04 -8.697219E+04  4.264500E+03  2.329698E+04
        84  10 -1.644192E+05 -8.498708E+04 -7.542242E+04 -5.996953E+04  2.462180E-09 -1.844499E-11
        84  11 -1.029835E+05 -8.872252E+04 -5.761051E+04 -6.748011E+04 -1.328233E-10 -9.098321E-10
        84  12 -4.060173E+04 -8.145121E+04 -4.617550E+04 -8.410395E+04  1.574184E-09 -3.010160E-09
        84  13  3.332254E+05  3.755828E+04  3.975609E+04 -8.554032E+04 -2.035086E-09 -6.850830E-12
        84  14  3.306628E+05  1.353125E+04  2.008049E+04 -8.098319E+04 -3.088563E-09 -9.025185E-10
        84  15  3.332491E+05  4.715659E+03  1.086635E+04 -8.553766E+04 -2.555566E-09 -2.100135E-09
        84  16  8.311002E+05  1.600887E+05  1.549184E+05 -1.111317E+05 -1.009142E-09 -9.514667E-11
        84  17  7.644929E+05  1.157753E+05  9.776437E+04 -9.449597E+04 -9.002340E-10 -8.128903E-10
        84  18  7.072399E+05  9.087582E+04  6.790522E+04 -8.697227E+04 -3.003209E-09 -8.681287E-10
        84  19 -1.644189E+05 -8.498696E+04 -7.542181E+04 -5.996961E+04  1.704531E+04 -5.896781E+03
        84  20 -1.029834E+05 -8.872210E+04 -5.760977E+04 -6.748016E+04  3.024701E+03 -1.965149E+04
        84  21 -4.060145E+04 -8.145060E+04 -4.617426E+04 -8.410374E+04 -1.100099E+04 -2.329990E+04
        84  22  3.332262E+05  3.755853E+04  3.975763E+04 -8.554019E+04 -2.809197E+04 -5.903316E+03
        84  23  3.306633E+05  1.353175E+04  2.008181E+04 -8.098291E+04 -1.786112E+04 -1.965213E+04
        84  24  3.332493E+05  4.716258E+03  1.086748E+04 -8.553752E+04 -7.633718E+03 -2.329843E+04
        84  25  8.311060E+05  1.600902E+05  1.549285E+05 -1.111314E+05 -7.326517E+04 -5.906132E+03
        84  26  7.644947E+05  1.157761E+05  9.776792E+04 -9.449536E+04 -3.876111E+04 -1.965185E+04
        84  27  7.072400E+05  9.087641E+04  6.790627E+04 -8.697219E+04 -4.264500E+03 -2.329698E+04
        85   1 -2.746723E+03 -7.343175E+04 -4.123415E+04 -8.368632E+04  1.039160E+04  2.201496E+04
        85   2  5.901678E+04 -6.097825E+04 -3.322816E+04 -7.978864E+04  1.148123E+04  1.959247E+04
        85   3  1.208920E+05 -4.755685E+04 -2.568739E+04 -8.575232E+04  1.257067E+04  1.580409E+04
        85   4  3.322603E+05  3.425285E+03  8.103649E+03 -8.570459E+04  6.219294E+03  2.201376E+04
        85   5  3.319281E+05  1.112096E+03  4.370605E+03 -8.077416E+04  4.029594E+03  1.959182E+04
        85   6  3.322725E+05  3.357863E+02  2.448582E+03 -8.570469E+04  1.839602E+03  1.580431E+04
        85   7  6.673803E+05  8.027712E+04  5.743951E+04 -8.772399E+04  2.044832E+03  2.201259E+04
        85   8  6.049152E+05  6.319921E+04  4.196874E+04 -8.176013E+04 -3.425168E+03  1.959120E+04
        85   9  5.436989E+05  4.822658E+04  3.058463E+04 -8.565705E+04 -8.894945E+03  1.580453E+04
        85  10 -2.746969E+03 -7.343230E+04 -4.123527E+04 -8.368650E+04  5.453302E-08 -2.892210E-09
        85  11  5.901654E+04 -6.097870E+04 -3.322913E+04 -7.978882E+04  2.333630E-08 -7.347911E-11
        85  12  1.208917E+05 -4.755716E+04 -2.568816E+04 -8.575248E+04 -1.572263E-08  2.628601E-09
        85  13  3.322601E+05  3.424754E+03  8.102665E+03 -8.570470E+04 -4.183424E-09 -1.792043E-09
        85  14  3.319280E+05  1.111680E+03  4.369853E+03 -8.077422E+04 -1.958654E-09 -6.596106E-11
        85  15  3.322725E+05  3.355172E+02  2.448106E+03 -8.570472E+04 -3.624872E-09  2.211103E-09
        85  16  6.673802E+05  8.027660E+04  5.743860E+04 -8.772403E+04 -5.666869E-08 -8.898999E-10
        85  17  6.049151E+05  6.319879E+04  4.196800E+04 -8.176007E+04 -2.544520E-08 -1.249781E-10
        85  18  5.436988E+05  4.822629E+04  3.058401E+04 -8.565693E+04  1.255560E-08  1.785217E-09
        85  19 -2.746723E+03 -7.343175E+04 -4.123415E+04 -8.368632E+04 -1.039160E+04 -2.201496E+04
        85  20  5.901678E+04 -6.097825E+04 -3.322816E+04 -7.978864E+04 -1.148123E+04 -1.959247E+04
        85  21  1.208920E+05 -4.755685E+04 -2.568739E+04 -8.575232E+04 -1.257067E+04 -1.580409E+04
        85  22  3.322603E+05  3.425285E+03  8.103649E+03 -8.570459E+04 -6.219294E+03 -2.201376E+04
        85  23  3.319281E+05  1.112096E+03  4.370605E+03 -8.077416E+04 -4.029594E+03 -1.959182E+04
        85  24  3.322725E+05  3.357863E+02  2.448582E+03 -8.570469E+04 -1.839602E+03 -1.580431E+04
        85  25  6.673803E+05  8.027712E+04  5.743951E+04 -8.772399E+04 -2.044832E+03 -2.201259E+04
        85  26  6.049152E+05  6.319921E+04  4.196874E+04 -8.176013E+04  3.425168E+03 -1.959120E+04
        85  27  5.436989E+05  4.822658E+04  3.058463E+04 -8.565705E+04  8.894945E+03 -1.580453E+04
        86   1  1.589767E+05 -3.893808E+04 -2.090520E+04 -8.567512E+04  1.231900E+04  1.313893E+04
        86   2  2.207618E+05 -2.511208E+04 -1.346176E+04 -8.074764E+04  1.224865E+04  8.531314E+03
        86   3  2.825793E+05 -1.121635E+04 -5.954381E+03 -8.578059E+04  1.217804E+04  3.739828E+03
        86   4  3.321485E+05  2.366039E+02  1.844120E+03 -8.572680E+04  1.479394E+03  1.313949E+04
        86   5  3.320979E+05  4.675162E+01  1.031163E+03 -8.074666E+04  9.670653E+02  8.532252E+03
        86   6  3.321533E+05  3.627546E+00  5.888154E+02 -8.572684E+04  4.544917E+02  3.741156E+03
        86   7  5.053512E+05  3.941009E+04  2.459368E+04 -8.577850E+04 -9.363090E+03  1.314005E+04
        86   8  4.434470E+05  2.520514E+04  1.552449E+04 -8.074567E+04 -1.031644E+04  8.533191E+03
        86   9  3.817302E+05  1.122358E+04  7.132511E+03 -8.567307E+04 -1.126994E+04  3.742481E+03
        86  10  1.589765E+05 -3.893831E+04 -2.090581E+04 -8.567525E+04 -5.578938E-08  2.996792E-09
        86  11  2.207616E+05 -2.511220E+04 -1.346217E+04 -8.074772E+04 -1.938019E-08  1.648022E-09
        86  12  2.825791E+05 -1.121641E+04 -5.954686E+03 -8.578063E+04  1.310448E-08  2.245582E-10
        86  13  3.321484E+05  2.364179E+02  1.843791E+03 -8.572682E+04 -1.362303E-10  2.813728E-09
        86  14  3.320979E+05  4.667318E+01  1.031025E+03 -8.074666E+04 -4.303303E-09  1.463378E-09
        86  15  3.321533E+05  3.612459E+00  5.887887E+02 -8.572684E+04 -5.616167E-09 -8.958629E-10
        86  16  5.053510E+05  3.940988E+04  2.459319E+04 -8.577840E+04  5.346968E-08  2.641352E-09
        86  17  4.434468E+05  2.520503E+04  1.552415E+04 -8.074560E+04  2.112525E-08  1.402842E-09
        86  18  3.817300E+05  1.122353E+04  7.132246E+03 -8.567304E+04 -1.557778E-08 -2.183302E-09
        86  19  1.589767E+05 -3.893808E+04 -2.090520E+04 -8.567512E+04 -1.231900E+04 -1.313893E+04
        86  20  2.207618E+05 -2.511208E+04 -1.346176E+04 -8.074764E+04 -1.224865E+04 -8.531314E+03
        86  21  2.825793E+05 -1.121635E+04 -5.954381E+03 -8.578059E+04 -1.217804E+04 -3.739828E+03
        86  22  3.321485E+05  2.366039E+02  1.844120E+03 -8.572680E+04 -1.479394E+03 -1.313949E+04
        86  23  3.320979E+05  4.675162E+01  1.031163E+03 -8.074666E+04 -9.670653E+02 -8.532252E+03
        86  24  3.321533E+05  3.627547E+00  5.888154E+02 -8.572684E+04 -4.544917E+02 -3.741156E+03
        86  25  5.053512E+05  3.941009E+04  2.459368E+04 -8.577850E+04  9.363090E+03 -1.314005E+04
        86  26  4.434470E+05  2.520514E+04  1.552449E+04 -8.074567E+04  1.031644E+04 -8.533191E+03
        86  27  3.817302E+05  1.122358E+04  7.132511E+03 -8.567307E+04  1.126994E+04 -3.742481E+03
        87   1  3.206871E+05 -2.580925E+03 -1.022711E+03 -8.576591E+04  1.210080E+04  8.892262E+02
        87   2  3.824827E+05  1.132307E+04  6.577049E+03 -8.077195E+04  1.202290E+04 -4.009584E+03
        87   3  4.442960E+05  2.523044E+04  1.422916E+04 -8.575158E+04  1.194512E+04 -8.928369E+03
        87   4  3.321349E+05  1.615442E+00  4.462810E+02 -8.572979E+04  3.626963E+02  8.906112E+02
        87   5  3.321233E+05 -8.977707E+00  2.551371E+02 -8.074298E+04  2.361632E+02 -4.008350E+03
        87   6  3.321328E+05 -7.949837E+00  1.494178E+02 -8.572980E+04  1.097588E+02 -8.927297E+03
        87   7  3.435832E+05  2.584224E+03  1.915790E+03 -8.569368E+04 -1.137561E+04  8.919948E+02
        87   8  2.817667E+05 -1.134105E+04 -6.066259E+03 -8.071401E+04 -1.154967E+04 -4.007118E+03
        87   9  2.199828E+05 -2.524677E+04 -1.392983E+04 -8.570802E+04 -1.172357E+04 -8.926226E+03
        87  10  3.206869E+05 -2.580965E+03 -1.022988E+03 -8.576592E+04 -1.329009E-09 -5.436509E-10
        87  11  3.824825E+05  1.132301E+04  6.576747E+03 -8.077191E+04  3.921421E-08 -2.191672E-09
        87  12  4.442959E+05  2.523032E+04  1.422874E+04 -8.575149E+04  6.600708E-08 -4.348003E-09
        87  13  3.321349E+05  1.614555E+00  4.462792E+02 -8.572979E+04 -4.308479E-09  2.063731E-10
        87  14  3.321233E+05 -8.994978E+00  2.551068E+02 -8.074298E+04  2.097874E-09  6.848844E-09
        87  15  3.321328E+05 -8.035434E+00  1.492680E+02 -8.572980E+04 -5.270348E-09  1.237401E-08
        87  16  3.435830E+05  2.584189E+03  1.915546E+03 -8.569367E+04  1.398437E-09 -3.525235E-09
        87  17  2.817666E+05 -1.134110E+04 -6.066540E+03 -8.071405E+04 -3.613143E-08 -3.831747E-09
        87  18  2.199826E+05 -2.524690E+04 -1.393024E+04 -8.570811E+04 -6.618007E-08 -5.770705E-09
        87  19  3.206871E+05 -2.580925E+03 -1.022711E+03 -8.576591E+04 -1.210080E+04 -8.892262E+02
        87  20  3.824827E+05  1.132307E+04  6.577049E+03 -8.077195E+04 -1.202290E+04  4.009584E+03
        87  21  4.442960E+05  2.523044E+04  1.422916E+04 -8.575158E+04 -1.194512E+04  8.928369E+03
        87  22  3.321349E+05  1.615442E+00  4.462810E+02 -8.572979E+04 -3.626963E+02 -8.906112E+02
        87  23  3.321233E+05 -8.977707E+00  2.551371E+02 -8.074298E+04 -2.361632E+02  4.008350E+03
        87  24  3.321328E+05 -7.949837E+00  1.494178E+02 -8.572980E+04 -1.097588E+02  8.927297E+03
        87  25  3.435832E+05  2.584224E+03  1.915790E+03 -8.569368E+04  1.137561E+04 -8.919948E+02
        87  26  2.817667E+05 -1.134105E+04 -6.066259E+03 -8.071401E+04  1.154967E+04  4.007118E+03
        87  27  2.199828E+05 -2.524677E+04 -1.392983E+04 -8.570802E+04  1.172357E+04  8.926226E+03
        88   1  4.824163E+05  3.385791E+04  1.923590E+04 -8.574807E+04  1.192088E+04 -1.179895E+04
        88   2  5.442248E+05  4.776050E+04  2.696242E+04 -8.075139E+04  1.180481E+04 -1.671017E+04
        88   3  6.060612E+05  6.167720E+04  3.476950E+04 -8.572921E+04  1.168926E+04 -2.158757E+04
        88   4  3.321284E+05 -9.363855E+00  1.156353E+02 -8.573004E+04  8.563640E+01 -1.179813E+04
        88   5  3.321190E+05 -1.701935E+01  7.136788E+01 -8.074269E+04  5.023506E+01 -1.671003E+04
        88   6  3.321194E+05 -2.450361E+01  5.130633E+01 -8.573004E+04  1.536732E+01 -2.158811E+04
        88   7  1.818640E+05 -3.387748E+04 -1.900419E+04 -8.571201E+04 -1.174689E+04 -1.179730E+04
        88   8  1.200596E+05 -4.779630E+04 -2.681932E+04 -8.073399E+04 -1.170053E+04 -1.670989E+04
        88   9  5.825489E+04 -6.172920E+04 -3.466663E+04 -8.573086E+04 -1.165364E+04 -2.158865E+04
        88  10  4.824161E+05  3.385772E+04  1.923537E+04 -8.574796E+04 -7.248035E-08 -4.576551E-09
        88  11  5.442246E+05  4.776016E+04  2.696163E+04 -8.075123E+04 -4.123891E-08 -3.108721E-09
        88  12  6.060609E+05  6.167667E+04  3.476837E+04 -8.572901E+04 -2.013498E-09 -1.909352E-09
        88  13  3.321284E+05 -9.513352E+00  1.153737E+02 -8.573004E+04  2.278018E-10  1.194085E-08
        88  14  3.321189E+05 -1.731924E+01  7.084307E+01 -8.074269E+04  1.327142E-09  5.660888E-09
        88  15  3.321193E+05 -2.500414E+01  5.043041E+01 -8.573004E+04  4.010188E-11 -4.568261E-10
        88  16  1.818638E+05 -3.387767E+04 -1.900471E+04 -8.571212E+04  7.131395E-08 -6.446399E-09
        88  17  1.200594E+05 -4.779664E+04 -2.682010E+04 -8.073415E+04  3.800020E-08 -5.270966E-09
        88  18  5.825462E+04 -6.172974E+04 -3.466776E+04 -8.573107E+04  6.884254E-09 -3.471849E-09
        88  19  4.824163E+05  3.385791E+04  1.923590E+04 -8.574807E+04 -1.192088E+04  1.179895E+04
        88  20  5.442248E+05  4.776050E+04  2.696242E+04 -8.075139E+04 -1.180481E+04  1.671017E+04
        88  21  6.060612E+05  6.167720E+04  3.476950E+04 -8.572921E+04 -1.168926E+04  2.158757E+04
        88  22  3.321284E+05 -9.363855E+00  1.156353E+02 -8.573004E+04 -8.563640E+01  1.179813E+04
        88  23  3.321190E+05 -1.701935E+01  7.136788E+01 -8.074269E+04 -5.023506E+01  1.671003E+04
        88  24  3.321194E+05 -2.450361E+01  5.130633E+01 -8.573004E+04 -1.536732E+01  2.158811E+04
        88  25  1.818640E+05 -3.387748E+04 -1.900419E+04 -8.571201E+04  1.174689E+04  1.179730E+04
        88  26  1.200596E+05 -4.779630E+04 -2.681932E+04 -8.073399E+04  1.170053E+04  1.670989E+04
        88  27  5.825489E+04 -6.172920E+04 -3.466663E+04 -8.573086E+04  1.165364E+04  2.158865E+04
        89   1  6.442162E+05  7.031693E+04  3.986583E+04 -8.571894E+04  1.166023E+04 -2.442396E+04
        89   2  7.060031E+05  8.426828E+04  4.794131E+04 -8.072129E+04  1.097038E+04 -2.913656E+04
        89   3  7.679253E+05  9.833857E+04  5.649877E+04 -8.568243E+04  1.028133E+04 -3.357170E+04
        89   4  3.321168E+05 -3.066002E+01  4.752505E+01 -8.572658E+04  6.673825E+00 -2.442505E+04
        89   5  3.321004E+05 -4.486767E+01  4.888537E+01 -8.074701E+04 -1.709658E+01 -2.913878E+04
        89   6  3.321009E+05 -5.534271E+01  6.999902E+01 -8.572658E+04 -4.002081E+01 -3.357498E+04
        89   7  2.011748E+04 -7.038218E+04 -3.977066E+04 -8.573421E+04 -1.164131E+04 -2.442613E+04
        89   8 -4.165875E+04 -8.436371E+04 -4.784370E+04 -8.077271E+04 -1.099829E+04 -2.914100E+04
        89   9 -1.035290E+05 -9.845709E+04 -5.635940E+04 -8.577069E+04 -1.035448E+04 -3.357827E+04
        89  10  6.442159E+05  7.031626E+04  3.986445E+04 -8.571871E+04 -2.158169E-09 -1.109768E-09
        89  11  7.060027E+05  8.426733E+04  4.793949E+04 -8.072103E+04 -5.032211E-09 -8.188545E-10
        89  12  7.679249E+05  9.833733E+04  5.649646E+04 -8.568215E+04  1.967846E-09 -1.393367E-09
        89  13  3.321166E+05 -3.130075E+01  4.640378E+01 -8.572658E+04 -2.158136E-09 -1.982638E-09
        89  14  3.321002E+05 -4.577956E+01  4.728956E+01 -8.074701E+04  9.804774E-10 -1.544212E-09
        89  15  3.321006E+05 -5.655340E+01  6.788031E+01 -8.572658E+04 -1.137844E-09 -1.295831E-09
        89  16  2.011718E+04 -7.038286E+04 -3.977203E+04 -8.573444E+04  5.570991E-09 -2.860585E-09
        89  17 -4.165911E+04 -8.436465E+04 -4.784553E+04 -8.077297E+04  5.894957E-09 -2.389496E-09
        89  18 -1.035295E+05 -9.845833E+04 -5.636172E+04 -8.577097E+04  9.929040E-10 -1.007165E-09
        89  19  6.442162E+05  7.031693E+04  3.986583E+04 -8.571894E+04 -1.166023E+04  2.442396E+04
        89  20  7.060031E+05  8.426828E+04  4.794131E+04 -8.072129E+04 -1.097038E+04  2.913656E+04
        89  21  7.679253E+05  9.833857E+04  5.649877E+04 -8.568243E+04 -1.028133E+04  3.357170E+04
        89  22  3.321168E+05 -3.066002E+01  4.752505E+01 -8.572658E+04 -6.673825E+00  2.442505E+04
        89  23  3.321004E+05 -4.486767E+01  4.888537E+01 -8.074701E+04  1.709658E+01  2.913878E+04
        89  24  3.321009E+05 -5.534271E+01  6.999902E+01 -8.572658E+04  4.002081E+01  3.357498E+04
        89  25  2.011748E+04 -7.038218E+04 -3.977066E+04 -8.573421E+04  1.164131E+04  2.442613E+04
        89  26 -4.165875E+04 -8.436371E+04 -4.784370E+04 -8.077271E+04  1.099829E+04  2.914100E+04
        89  27 -1.035290E+05 -9.845709E+04 -5.635940E+04 -8.577069E+04  1.035448E+04  3.357827E+04
        90   1  8.062375E+05  1.071019E+05  6.209171E+04 -8.562943E+04  1.010646E+04 -3.612786E+04
        90   2  8.676933E+05  1.214645E+05  7.250965E+04 -8.072282E+04  5.084107E+03 -3.932654E+04
        90   3  9.300587E+05  1.367379E+05  8.642855E+04 -8.562278E+04  6.131461E+01 -4.046479E+04
        90   4  3.321010E+05 -6.215312E+01  8.836437E+01 -8.569279E+04 -5.267973E+01 -3.613188E+04
        90   5  3.320665E+05 -5.733617E+01  1.466642E+02 -8.078924E+04 -1.242296E+02 -3.933099E+04
        90   6  3.320786E+05 -3.594793E-01  2.707947E+02 -8.569280E+04 -1.956626E+02 -4.046873E+04
        90   7 -1.418055E+05 -1.072356E+05 -6.191602E+04 -8.575610E+04 -1.020444E+04 -3.613591E+04
        90   8 -2.032683E+05 -1.215915E+05 -7.221893E+04 -8.085560E+04 -5.328284E+03 -3.933545E+04
        90   9 -2.655409E+05 -1.367550E+05 -8.589257E+04 -8.576276E+04 -4.524029E+02 -4.047267E+04
        90  10  8.062370E+05  1.071005E+05  6.208907E+04 -8.562914E+04 -2.644281E-09 -1.510401E-09
        90  11  8.676928E+05  1.214628E+05  7.250670E+04 -8.072266E+04  1.120832E-09 -5.310169E-10
        90  12  9.300582E+05  1.367362E+05  8.642547E+04 -8.562278E+04  2.578421E-09  5.183839E-11
        90  13  3.321007E+05 -6.355524E+01  8.591067E+01 -8.569279E+04 -2.187669E-09 -9.195834E-10
        90  14  3.320661E+05 -5.899756E+01  1.437567E+02 -8.078925E+04  2.193680E-09 -1.813160E-10
        90  15  3.320782E+05 -2.118389E+00  2.677166E+02 -8.569281E+04 -6.099163E-09  4.404886E-11
        90  16 -1.418060E+05 -1.072370E+05 -6.191867E+04 -8.575639E+04  6.912015E-10 -2.421596E-10
        90  17 -2.032687E+05 -1.215932E+05 -7.222189E+04 -8.085577E+04  2.511649E-09  7.784086E-10
        90  18 -2.655413E+05 -1.367567E+05 -8.589565E+04 -8.576277E+04  6.208890E-10  2.162143E-10
        90  19  8.062375E+05  1.071019E+05  6.209171E+04 -8.562943E+04 -1.010646E+04  3.612786E+04
        90  20  8.676933E+05  1.214645E+05  7.250965E+04 -8.072282E+04 -5.084107E+03  3.932654E+04
        90  21  9.300587E+05  1.367379E+05  8.642855E+04 -8.562278E+04 -6.131461E+01  4.046479E+04
        90  22  3.321010E+05 -6.215312E+01  8.836437E+01 -8.569279E+04  5.267973E+01  3.613188E+04
        90  23  3.320665E+05 -5.733617E+01  1.466642E+02 -8.078924E+04  1.242296E+02  3.933099E+04
        90  24  3.320786E+05 -3.594793E-01  2.707947E+02 -8.569280E+04  1.956626E+02  4.046873E+04
        90  25 -1.418055E+05 -1.072356E+05 -6.191602E+04 -8.575610E+04  1.020444E+04  3.613591E+04
        90  26 -2.032683E+05 -1.215915E+05 -7.221893E+04 -8.085560E+04  5.328284E+03  3.933545E+04
        90  27 -2.655409E+05 -1.367550E+05 -8.589257E+04 -8.576276E+04  4.524029E+02  4.047267E+04
        91   1  9.693785E+05  1.464341E+05  9.559293E+04 -8.532026E+04 -1.200110E+03 -4.093872E+04
        91   2  1.028148E+06  1.639313E+05  1.231383E+05 -8.134918E+04 -3.817373E+04 -3.292914E+04
        91   3  1.093486E+06  1.883151E+05  1.764597E+05 -8.605067E+04 -7.516354E+04 -9.674025E+03
        91   4  3.321071E+05  3.189609E+01  3.632158E+02 -8.544050E+04 -2.431922E+02 -4.094253E+04
        91   5  3.319865E+05  3.161702E+02  6.630310E+02 -8.110472E+04 -5.739402E+02 -3.291769E+04
        91   6  3.320793E+05  1.134354E+03  1.316979E+03 -8.544089E+04 -9.161031E+02 -9.639482E+03
        91   7 -3.047570E+05 -1.463894E+05 -9.487434E+04 -8.556062E+04  7.127841E+02 -4.094635E+04
        91   8 -3.636981E+05 -1.633247E+05 -1.218246E+05 -8.086056E+04  3.698499E+04 -3.290620E+04
        91   9 -4.287795E+05 -1.860839E+05 -1.738435E+05 -8.483189E+04  7.324113E+04 -9.604776E+03
        91  10  9.693780E+05  1.464323E+05  9.558978E+04 -8.532030E+04  5.807655E-10  1.610866E-10
        91  11  1.028146E+06  1.639297E+05  1.231336E+05 -8.135019E+04 -1.084236E-09 -4.372173E-10
        91  12  1.093479E+06  1.883135E+05  1.764490E+05 -8.605126E+04 -1.161051E-09 -5.948596E-11
        91  13  3.321066E+05  3.009575E+01  3.600651E+02 -8.544051E+04  3.957661E-09 -1.066459E-09
        91  14  3.319862E+05  3.150063E+02  6.609938E+02 -8.110474E+04  1.507159E-09  2.137526E-09
        91  15  3.320792E+05  1.134254E+03  1.316803E+03 -8.544090E+04  5.713823E-11  4.376011E-10
        91  16 -3.047574E+05 -1.463912E+05 -9.487750E+04 -8.556059E+04  1.683771E-09  3.317781E-10
        91  17 -3.636999E+05 -1.633262E+05 -1.218292E+05 -8.085958E+04  1.585580E-09  2.171504E-09
        91  18 -4.287853E+05 -1.860854E+05 -1.738537E+05 -8.483132E+04 -1.346036E-09  9.559954E-11
        91  19  9.693785E+05  1.464341E+05  9.559293E+04 -8.532026E+04  1.200110E+03  4.093872E+04
        91  20  1.028148E+06  1.639313E+05  1.231383E+05 -8.134918E+04  3.817373E+04  3.292914E+04
        91  21  1.093486E+06  1.883151E+05  1.764597E+05 -8.605067E+04  7.516354E+04  9.674025E+03
        91  22  3.321071E+05  3.189609E+01  3.632158E+02 -8.544050E+04  2.431922E+02  4.094253E+04
        91  23  3.319865E+05  3.161702E+02  6.630310E+02 -8.110472E+04  5.739402E+02  3.291769E+04
        91  24  3.320793E+05  1.134354E+03  1.316979E+03 -8.544089E+04  9.161031E+02  9.639482E+03
        91  25 -3.047570E+05 -1.463894E+05 -9.487434E+04 -8.556062E+04 -7.127841E+02  4.094635E+04
        91  26 -3.636981E+05 -1.633247E+05 -1.218246E+05 -8.086056E+04 -3.698499E+04  3.290620E+04
        91  27 -4.287795E+05 -1.860839E+05 -1.738435E+05 -8.483189E+04 -7.324113E+04  9.604776E+03
        92   1  1.524805E+05  7.581740E+05  1.461468E+05 -2.685034E+05  5.179575E+03  3.342355E+04
        92   2  9.901787E+04  5.497332E+05  8.253593E+04 -2.519464E+05  1.428032E+04  2.648073E+03
        92   3  5.027590E+04  3.465014E+05  4.011910E+04 -2.694453E+05  9.738930E+03 -2.812029E+04
        92   4 -1.622762E+03  1.353112E+05 -1.844355E+03 -2.693378E+05  5.206852E+03 -2.472396E+03
        92   5 -3.211543E+02  1.354247E+05 -2.205236E+01 -2.523082E+05  1.428513E+04 -2.440803E+03
        92   6  3.608740E+02  1.353675E+05  1.617584E+03 -2.693364E+05  9.716994E+03 -2.411891E+03
        92   7 -1.557533E+05 -4.871930E+05 -1.498578E+05 -2.701712E+05  5.234246E+03 -3.833255E+04
        92   8 -9.967066E+04 -2.787199E+05 -8.258853E+04 -2.526697E+05  1.428994E+04 -7.526353E+03
        92   9 -4.955631E+04 -7.572177E+04 -3.688325E+04 -2.692276E+05  9.695062E+03  2.328800E+04
        92  10  1.524802E+05  7.581728E+05  1.461446E+05 -2.685035E+05  1.201369E-09  7.861348E-09
        92  11  9.901765E+04  5.497331E+05  8.253554E+04 -2.519464E+05  8.634313E-09 -7.052567E-10
        92  12  5.027559E+04  3.465005E+05  4.011744E+04 -2.694451E+05  4.611476E-09 -8.094715E-09
        92  13 -1.622793E+03  1.353112E+05 -1.844418E+03 -2.693378E+05  3.529002E-09 -3.666907E-10
        92  14 -3.213751E+02  1.354246E+05 -2.244699E+01 -2.523082E+05  6.138690E-09 -2.170645E-10
        92  15  3.607711E+02  1.353674E+05  1.617395E+03 -2.693364E+05  1.224878E-09 -1.292001E-09
        92  16 -1.557537E+05 -4.871946E+05 -1.498606E+05 -2.701710E+05  3.371929E-09 -8.218643E-09
        92  17 -9.967090E+04 -2.787200E+05 -8.258902E+04 -2.526696E+05  5.067135E-09  8.176735E-10
        92  18 -4.955656E+04 -7.572238E+04 -3.688444E+04 -2.692278E+05 -3.593203E-10  8.630250E-09
        92  19  1.524805E+05  7.581740E+05  1.461468E+05 -2.685034E+05 -5.179575E+03 -3.342355E+04
        92  20  9.901787E+04  5.497332E+05  8.253593E+04 -2.519464E+05 -1.428032E+04 -2.648073E+03
        92  21  5.027590E+04  3.465014E+05  4.011910E+04 -2.694453E+05 -9.738930E+03  2.812029E+04
        92  22 -1.622762E+03  1.353112E+05 -1.844355E+03 -2.693378E+05 -5.206852E+03  2.472396E+03
        92  23 -3.211543E+02  1.354247E+05 -2.205236E+01 -2.523082E+05 -1.428513E+04  2.440803E+03
        92  24  3.608740E+02  1.353675E+05  1.617584E+03 -2.693364E+05 -9.716994E+03  2.411891E+03
        92  25 -1.557533E+05 -4.871930E+05 -1.498578E+05 -2.701712E+05 -5.234246E+03  3.833255E+04
        92  26 -9.967066E+04 -2.787199E+05 -8.258853E+04 -2.526697E+05 -1.428994E+04  7.526353E+03
        92  27 -4.955631E+04 -7.572177E+04 -3.688325E+04 -2.692276E+05 -9.695062E+03 -2.328800E+04
        93   1  2.034595E+04  2.178252E+05  1.956829E+04 -2.696629E+05  2.444156E+03 -2.896561E+04
        93   2 -2.682521E+04  1.185805E+04 -1.257964E+04 -2.510016E+05 -8.841239E+03 -3.015046E+04
        93   3 -7.245174E+04 -1.935513E+05 -4.357980E+04 -2.672448E+05 -1.949029E+04 -3.133396E+04
        93   4  4.996488E+02  1.355822E+05  2.562925E+03 -2.695246E+05  2.421231E+03 -2.782238E+03
        93   5  1.402963E+03  1.351911E+05  5.226911E+03 -2.520715E+05 -8.861932E+03 -5.407465E+03
        93   6  4.101973E+03  1.355646E+05  1.003634E+04 -2.695219E+05 -1.950885E+04 -8.031698E+03
        93   7 -1.934671E+04  5.334701E+04 -1.444024E+04 -2.693863E+05  2.398316E+03  2.339772E+04
        93   8  2.963077E+04  2.585409E+05  2.303552E+04 -2.531416E+05 -8.882708E+03  1.934024E+04
        93   9  8.065047E+04  4.647890E+05  6.365148E+04 -2.718003E+05 -1.952758E+04  1.528250E+04
        93  10  2.034572E+04  2.178243E+05  1.956671E+04 -2.696628E+05 -3.403007E-09  6.744564E-11
        93  11 -2.682553E+04  1.185705E+04 -1.258150E+04 -2.510018E+05  4.547326E-10 -2.487769E-09
        93  12 -7.245241E+04 -1.935524E+05 -4.358236E+04 -2.672453E+05 -2.861159E-09 -4.593039E-09
        93  13  4.996404E+02  1.355821E+05  2.562900E+03 -2.695246E+05 -8.047535E-11 -5.147979E-10
        93  14  1.402871E+03  1.351911E+05  5.226709E+03 -2.520715E+05  1.480896E-09 -2.391393E-10
        93  15  4.101547E+03  1.355644E+05  1.003550E+04 -2.695221E+05 -5.150121E-09 -1.184120E-09
        93  16 -1.934687E+04  5.334642E+04 -1.444128E+04 -2.693863E+05 -1.249382E-09 -6.065428E-10
        93  17  2.963058E+04  2.585405E+05  2.303467E+04 -2.531414E+05  9.895519E-10  2.540559E-09
        93  18  8.065000E+04  4.647887E+05  6.365032E+04 -2.718001E+05 -1.166349E-09  5.179512E-09
        93  19  2.034595E+04  2.178252E+05  1.956829E+04 -2.696629E+05 -2.444156E+03  2.896561E+04
        93  20 -2.682521E+04  1.185805E+04 -1.257964E+04 -2.510016E+05  8.841239E+03  3.015046E+04
        93  21 -7.245174E+04 -1.935513E+05 -4.357980E+04 -2.672448E+05  1.949029E+04  3.133396E+04
        93  22  4.996488E+02  1.355822E+05  2.562925E+03 -2.695246E+05 -2.421231E+03  2.782238E+03
        93  23  1.402963E+03  1.351911E+05  5.226911E+03 -2.520715E+05  8.861932E+03  5.407465E+03
        93  24  4.101973E+03  1.355646E+05  1.003634E+04 -2.695219E+05  1.950885E+04  8.031698E+03
        93  25 -1.934671E+04  5.334701E+04 -1.444024E+04 -2.693863E+05 -2.398316E+03 -2.339772E+04
        93  26  2.963077E+04  2.585409E+05  2.303552E+04 -2.531416E+05  8.882708E+03 -1.934024E+04
        93  27  8.065047E+04  4.647890E+05  6.365148E+04 -2.718003E+05  1.952758E+04 -1.528250E+04
        94   1 -1.015407E+05 -3.213511E+05 -6.256646E+04 -2.680801E+05 -2.617776E+04 -3.237131E+04
        94   2 -1.411981E+05 -5.268335E+05 -1.005810E+05 -2.358275E+05 -2.685434E+04 -2.921307E+03
        94   3 -1.677405E+05 -7.328151E+05 -1.544975E+05 -2.372275E+05 -8.794289E+03  2.651990E+04
        94   4  5.336520E+03  1.368845E+05  1.351706E+04 -2.692431E+05 -2.619424E+04 -9.785175E+03
        94   5  1.604799E+04  1.334445E+05  2.508580E+04 -2.524077E+05 -2.683797E+04 -2.258045E+04
        94   6  4.720128E+04  1.367918E+05  5.009115E+04 -2.692179E+05 -8.755753E+03 -3.537436E+04
        94   7  1.122031E+05  5.953288E+05  8.959617E+04 -2.704069E+05 -2.621081E+04  1.281708E+04
        94   8  1.732697E+05  7.941445E+05  1.507346E+05 -2.690058E+05 -2.682057E+04 -4.226000E+04
        94   9  2.620950E+05  1.007106E+06  2.546428E+05 -3.012531E+05 -8.710875E+03 -9.735484E+04
        94  10 -1.015417E+05 -3.213524E+05 -6.256972E+04 -2.680808E+05 -2.884608E-09  1.139026E-08
        94  11 -1.411988E+05 -5.268337E+05 -1.005823E+05 -2.358276E+05  1.249944E-09  3.121359E-09
        94  12 -1.677408E+05 -7.328159E+05 -1.544990E+05 -2.372273E+05  1.818212E-09 -4.501442E-09
        94  13  5.335757E+03  1.368843E+05  1.351559E+04 -2.692433E+05  2.958409E-10 -4.358267E-10
        94  14  1.604708E+04  1.334438E+05  2.508349E+04 -2.524082E+05  2.165086E-09 -1.572907E-10
        94  15  4.720087E+04  1.367905E+05  5.008866E+04 -2.692181E+05  2.608142E-10 -5.592006E-10
        94  16  1.122023E+05  5.953284E+05  8.959457E+04 -2.704066E+05 -1.118638E-09 -1.173680E-08
        94  17  1.732684E+05  7.941424E+05  1.507299E+05 -2.690067E+05 -1.480581E-09 -2.873185E-09
        94  18  2.620924E+05  1.007095E+06  2.546249E+05 -3.012538E+05  1.910787E-10  4.825556E-09
        94  19 -1.015407E+05 -3.213511E+05 -6.256646E+04 -2.680801E+05  2.617776E+04  3.237131E+04
        94  20 -1.411981E+05 -5.268335E+05 -1.005810E+05 -2.358275E+05  2.685434E+04  2.921307E+03
        94  21 -1.677405E+05 -7.328151E+05 -1.544975E+05 -2.372275E+05  8.794289E+03 -2.651990E+04
        94  22  5.336520E+03  1.368845E+05  1.351706E+04 -2.692431E+05  2.619424E+04  9.785175E+03
        94  23  1.604799E+04  1.334445E+05  2.508580E+04 -2.524077E+05  2.683797E+04  2.258045E+04
        94  24  4.720128E+04  1.367918E+05  5.009115E+04 -2.692179E+05  8.755753E+03  3.537436E+04
        94  25  1.122031E+05  5.953288E+05  8.959617E+04 -2.704069E+05  2.621081E+04 -1.281708E+04
        94  26  1.732697E+05  7.941445E+05  1.507346E+05 -2.690058E+05  2.682057E+04  4.226000E+04
        94  27  2.620950E+05  1.007106E+06  2.546428E+05 -3.012531E+05  8.710875E+03  9.735484E+04
        95   1 -3.181524E+05 -1.806105E+05 -1.167580E+05 -1.317501E+05 -5.561080E+04 -1.765564E+04
        95   2 -2.978404E+05 -1.100183E+05 -6.787534E+04 -1.230205E+05 -3.492219E+04 -2.834071E+03
        95   3 -2.911752E+05 -8.443651E+04 -4.713523E+04 -1.096459E+05 -1.220521E+04  6.587654E+03
        95   4 -1.474665E+05 -8.646344E+04 -6.643833E+04 -5.414222E+04 -4.383860E+04 -1.324112E+04
        95   5 -1.376976E+05 -3.872342E+04 -3.008498E+04 -6.619841E+04 -3.030411E+04 -1.102242E+03
        95   6 -1.401541E+05 -3.457151E+04 -1.620089E+04 -7.361176E+04 -1.474213E+04  5.635699E+03
        95   7  2.324825E+04  7.696113E+03 -1.612133E+04  2.348740E+04 -3.206303E+04 -8.823909E+03
        95   8  2.247090E+04  3.257676E+04  7.703536E+03 -9.361902E+03 -2.568477E+04  6.302929E+02
        95   9  1.089108E+04  1.529458E+04  1.473252E+04 -3.756981E+04 -1.727973E+04  4.683546E+03
        95  10 -3.181558E+05 -1.806117E+05 -1.167644E+05 -1.317509E+05 -5.060192E-10 -2.677271E-10
        95  11 -2.978417E+05 -1.100187E+05 -6.787765E+04 -1.230206E+05 -5.898027E-09 -1.532491E-09
        95  12 -2.911754E+05 -8.443660E+04 -4.713559E+04 -1.096459E+05  5.782489E-10 -8.005729E-10
        95  13 -1.474686E+05 -8.646415E+04 -6.644227E+04 -5.414269E+04 -2.017922E-09 -1.500538E-10
        95  14 -1.376986E+05 -3.872367E+04 -3.008671E+04 -6.619844E+04  3.265678E-09 -3.058670E-10
        95  15 -1.401543E+05 -3.457161E+04 -1.620135E+04 -7.361169E+04 -4.441802E-11 -1.666583E-10
        95  16  2.324713E+04  7.695753E+03 -1.612341E+04  2.348717E+04 -1.521627E-09 -8.999776E-11
        95  17  2.247019E+04  3.257659E+04  7.702296E+03 -9.361889E+03 -2.893893E-09  1.313724E-09
        95  18  1.089075E+04  1.529448E+04  1.473192E+04 -3.756974E+04  1.893156E-09  1.104964E-09
        95  19 -3.181524E+05 -1.806105E+05 -1.167580E+05 -1.317501E+05  5.561080E+04  1.765564E+04
        95  20 -2.978404E+05 -1.100183E+05 -6.787534E+04 -1.230205E+05  3.492219E+04  2.834071E+03
        95  21 -2.911752E+05 -8.443651E+04 -4.713523E+04 -1.096459E+05  1.220521E+04 -6.587654E+03
        95  22 -1.474665E+05 -8.646344E+04 -6.643833E+04 -5.414222E+04  4.383860E+04  1.324112E+04
        95  23 -1.376976E+05 -3.872342E+04 -3.008498E+04 -6.619841E+04  3.030411E+04  1.102242E+03
        95  24 -1.401541E+05 -3.457151E+04 -1.620089E+04 -7.361176E+04  1.474213E+04 -5.635699E+03
        95  25  2.324825E+04  7.696113E+03 -1.612133E+04  2.348740E+04  3.206303E+04  8.823909E+03
        95  26  2.247090E+04  3.257676E+04  7.703536E+03 -9.361902E+03  2.568477E+04 -6.302929E+02
        95  27  1.089108E+04  1.529458E+04  1.473252E+04 -3.756981E+04  1.727973E+04 -4.683546E+03
        96   1 -2.687022E+05 -8.547691E+04 -4.003721E+04 -1.085910E+05 -1.108259E+04  5.787441E+03
        96   2 -2.480849E+05 -7.248583E+04 -2.907943E+04 -9.971798E+04 -6.885820E+03  5.997573E+03
        96   3 -2.238933E+05 -6.602533E+04 -2.138591E+04 -9.595505E+04 -2.564231E+03  5.874927E+03
        96   4 -1.381182E+05 -3.693660E+04 -1.244451E+04 -7.179374E+04 -1.244843E+04  5.274831E+03
        96   5 -1.398061E+05 -3.270508E+04 -6.571006E+03 -6.961709E+04 -8.692061E+03  5.319861E+03
        96   6 -1.378324E+05 -3.491669E+04 -3.612258E+03 -7.255073E+04 -4.810999E+03  5.032088E+03
        96   7 -7.517847E+03  1.160486E+04  1.514697E+04 -3.498960E+04 -1.381457E+04  4.762105E+03
        96   8 -3.151518E+04  7.076668E+03  1.593680E+04 -3.951135E+04 -1.049864E+04  4.642021E+03
        96   9 -5.176323E+04 -3.807225E+03  1.416120E+04 -4.914327E+04 -7.058120E+03  4.189120E+03
        96  10 -2.687023E+05 -8.547698E+04 -4.003751E+04 -1.085909E+05  2.501033E-10  4.288516E-10
        96  11 -2.480850E+05 -7.248588E+04 -2.907958E+04 -9.971795E+04 -6.194838E-09 -1.836844E-09
        96  12 -2.238933E+05 -6.602537E+04 -2.138598E+04 -9.595504E+04 -1.153168E-08 -6.245604E-10
        96  13 -1.381184E+05 -3.693667E+04 -1.244486E+04 -7.179368E+04 -6.257176E-09 -5.815780E-10
        96  14 -1.398062E+05 -3.270513E+04 -6.571201E+03 -6.961705E+04 -8.040013E-09 -1.687023E-09
        96  15 -1.378324E+05 -3.491672E+04 -3.612349E+03 -7.255071E+04 -7.729524E-10 -1.362589E-10
        96  16 -7.518058E+03  1.160479E+04  1.514657E+04 -3.498955E+04 -6.270394E-09 -1.438544E-09
        96  17 -3.151530E+04  7.076616E+03  1.593655E+04 -3.951131E+04 -6.621089E-09 -1.648873E-09
        96  18 -5.176329E+04 -3.807257E+03  1.416108E+04 -4.914324E+04  2.616815E-09  2.363289E-10
        96  19 -2.687022E+05 -8.547691E+04 -4.003721E+04 -1.085910E+05  1.108259E+04 -5.787441E+03
        96  20 -2.480849E+05 -7.248583E+04 -2.907943E+04 -9.971798E+04  6.885820E+03 -5.997573E+03
        96  21 -2.238933E+05 -6.602533E+04 -2.138591E+04 -9.595505E+04  2.564231E+03 -5.874927E+03
        96  22 -1.381182E+05 -3.693660E+04 -1.244451E+04 -7.179374E+04  1.244843E+04 -5.274831E+03
        96  23 -1.398061E+05 -3.270508E+04 -6.571006E+03 -6.961709E+04  8.692061E+03 -5.319861E+03
        96  24 -1.378324E+05 -3.491669E+04 -3.612258E+03 -7.255073E+04  4.810999E+03 -5.032088E+03
        96  25 -7.517847E+03  1.160486E+04  1.514697E+04 -3.498960E+04  1.381457E+04 -4.762105E+03
        96  26 -3.151518E+04  7.076668E+03  1.593680E+04 -3.951135E+04  1.049864E+04 -4.642021E+03
        96  27 -5.176323E+04 -3.807225E+03  1.416120E+04 -4.914327E+04  7.058120E+03 -4.189120E+03
        97   1 -2.078028E+05 -6.054777E+04 -1.712061E+04 -9.174754E+04 -1.758533E+03  5.054786E+03
        97   2 -1.874293E+05 -4.985761E+04 -1.126839E+04 -8.278821E+04 -3.656234E+02  3.693801E+03
        97   3 -1.624513E+05 -4.399179E+04 -6.011847E+03 -7.926623E+04  1.034937E+03  2.312171E+03
        97   4 -1.376851E+05 -3.501137E+04 -2.721102E+03 -7.245218E+04 -3.933523E+03  4.238924E+03
        97   5 -1.399865E+05 -3.258062E+04 -1.496461E+03 -6.974127E+04 -2.567898E+03  2.867763E+03
        97   6 -1.376783E+05 -3.496873E+04 -8.457953E+02 -7.246782E+04 -1.194656E+03  1.475952E+03
        97   7 -6.756235E+04 -9.474565E+03  1.167816E+04 -5.315482E+04 -6.108777E+03  3.422964E+03
        97   8 -9.254147E+04 -1.530351E+04  8.275314E+03 -5.669346E+04 -4.770344E+03  2.041662E+03
        97   9 -1.129049E+05 -2.594569E+04  4.320191E+03 -6.566920E+04 -3.424327E+03  6.397029E+02
        97  10 -2.078028E+05 -6.054780E+04 -1.712066E+04 -9.174753E+04  1.728055E-09  1.469333E-09
        97  11 -1.874293E+05 -4.985763E+04 -1.126841E+04 -8.278821E+04  1.228372E-08  2.538634E-09
        97  12 -1.624513E+05 -4.399179E+04 -6.011859E+03 -7.926624E+04  7.268395E-09  1.523035E-09
        97  13 -1.376851E+05 -3.501139E+04 -2.721165E+03 -7.245217E+04  1.635406E-09  1.761907E-09
        97  14 -1.399865E+05 -3.258063E+04 -1.496489E+03 -6.974126E+04  7.731662E-09  2.765547E-09
        97  15 -1.376783E+05 -3.496873E+04 -8.458020E+02 -7.246782E+04  3.016859E-09  3.857887E-10
        97  16 -6.756240E+04 -9.474588E+03  1.167807E+04 -5.315480E+04  5.724536E-09  1.975599E-09
        97  17 -9.254150E+04 -1.530352E+04  8.275264E+03 -5.669346E+04  1.019304E-08  2.808919E-09
        97  18 -1.129049E+05 -2.594569E+04  4.320168E+03 -6.566920E+04 -1.717937E-09 -7.671088E-10
        97  19 -2.078028E+05 -6.054777E+04 -1.712061E+04 -9.174754E+04  1.758533E+03 -5.054786E+03
        97  20 -1.874293E+05 -4.985761E+04 -1.126839E+04 -8.278821E+04  3.656234E+02 -3.693801E+03
        97  21 -1.624513E+05 -4.399179E+04 -6.011847E+03 -7.926623E+04 -1.034937E+03 -2.312171E+03
        97  22 -1.376851E+05 -3.501137E+04 -2.721102E+03 -7.245218E+04  3.933523E+03 -4.238924E+03
        97  23 -1.399865E+05 -3.258062E+04 -1.496461E+03 -6.974127E+04  2.567898E+03 -2.867763E+03
        97  24 -1.376783E+05 -3.496873E+04 -8.457953E+02 -7.246782E+04  1.194656E+03 -1.475952E+03
        97  25 -6.756235E+04 -9.474565E+03  1.167816E+04 -5.315482E+04  6.108777E+03 -3.422964E+03
        97  26 -9.254147E+04 -1.530351E+04  8.275314E+03 -5.669346E+04  4.770344E+03 -2.041662E+03
        97  27 -1.129049E+05 -2.594569E+04  4.320191E+03 -6.566920E+04  3.424327E+03 -6.397029E+02
        98   1 -1.466891E+05 -3.822914E+04 -2.440247E+03 -7.492748E+04  1.522094E+03  1.378396E+03
        98   2 -1.263775E+05 -2.759748E+04  2.401560E+03 -6.594857E+04  2.357192E+03 -2.238846E+02
        98   3 -1.013589E+05 -2.170742E+04  7.089960E+03 -6.240098E+04  3.192716E+03 -1.827237E+03
        98   4 -1.376595E+05 -3.497134E+04 -6.515389E+02 -7.245910E+04 -7.031641E+02  5.438144E+02
        98   5 -1.400132E+05 -3.260389E+04 -4.093364E+02 -6.974202E+04  1.304508E+02 -1.059045E+03
        98   6 -1.376606E+05 -3.497802E+04 -3.195171E+02 -7.245664E+04  9.644819E+02 -2.662975E+03
        98   7 -1.286298E+05 -3.171350E+04  1.137206E+03 -6.999066E+04 -2.928475E+03 -2.907865E+02
        98   8 -1.536488E+05 -3.761030E+04 -3.220236E+03 -7.353540E+04 -2.096247E+03 -1.894190E+03
        98   9 -1.739610E+05 -4.824850E+04 -7.729043E+03 -8.251176E+04 -1.263613E+03 -3.498662E+03
        98  10 -1.466891E+05 -3.822914E+04 -2.440255E+03 -7.492748E+04 -3.489192E-09 -7.723941E-10
        98  11 -1.263775E+05 -2.759749E+04  2.401549E+03 -6.594857E+04  7.842312E-10  2.816388E-09
        98  12 -1.013589E+05 -2.170743E+04  7.089935E+03 -6.240098E+04  3.703585E-09  2.886921E-09
        98  13 -1.376595E+05 -3.497134E+04 -6.515403E+02 -7.245910E+04  1.231288E-10 -2.287600E-10
        98  14 -1.400132E+05 -3.260389E+04 -4.093385E+02 -6.974202E+04  5.051555E-09  1.073030E-09
        98  15 -1.376606E+05 -3.497803E+04 -3.195321E+02 -7.245664E+04  3.535869E-09  1.391453E-09
        98  16 -1.286298E+05 -3.171350E+04  1.137190E+03 -6.999066E+04  4.673813E-09  3.187285E-10
        98  17 -1.536488E+05 -3.761031E+04 -3.220251E+03 -7.353541E+04  1.044858E-09 -3.866828E-10
        98  18 -1.739610E+05 -4.824851E+04 -7.729069E+03 -8.251176E+04  2.424639E-09 -2.987750E-10
        98  19 -1.466891E+05 -3.822914E+04 -2.440247E+03 -7.492748E+04 -1.522094E+03 -1.378396E+03
        98  20 -1.263775E+05 -2.759748E+04  2.401560E+03 -6.594857E+04 -2.357192E+03  2.238846E+02
        98  21 -1.013589E+05 -2.170742E+04  7.089960E+03 -6.240098E+04 -3.192716E+03  1.827237E+03
        98  22 -1.376595E+05 -3.497134E+04 -6.515389E+02 -7.245910E+04  7.031641E+02 -5.438144E+02
        98  23 -1.400132E+05 -3.260389E+04 -4.093364E+02 -6.974202E+04 -1.304508E+02  1.059045E+03
        98  24 -1.376606E+05 -3.497802E+04 -3.195171E+02 -7.245664E+04 -9.644819E+02  2.662975E+03
        98  25 -1.286298E+05 -3.171350E+04  1.137206E+03 -6.999066E+04  2.928475E+03  2.907865E+02
        98  26 -1.536488E+05 -3.761030E+04 -3.220236E+03 -7.353540E+04  2.096247E+03  1.894190E+03
        98  27 -1.739610E+05 -4.824850E+04 -7.729043E+03 -8.251176E+04  1.263613E+03  3.498662E+03
        99   1 -8.562807E+04 -1.593329E+04  1.046805E+04 -5.805962E+04  3.612942E+03 -2.785620E+03
        99   2 -6.532204E+04 -5.298375E+03  1.498129E+04 -4.908297E+04  4.440743E+03 -4.391256E+03
        99   3 -4.030872E+04  5.965406E+02  1.934688E+04 -4.553592E+04  5.267903E+03 -5.994849E+03
        99   4 -1.376611E+05 -3.497812E+04 -3.182487E+02 -7.245629E+04  1.384731E+03 -3.621380E+03
        99   5 -1.400145E+05 -3.260659E+04 -4.023311E+02 -6.974207E+04  2.215143E+03 -5.226124E+03
        99   6 -1.376616E+05 -3.497558E+04 -6.361065E+02 -7.245762E+04  3.044910E+03 -6.828833E+03
        99   7 -1.896910E+05 -5.402257E+04 -1.110456E+04 -8.685174E+04 -8.432620E+02 -4.457058E+03
        99   8 -2.147012E+05 -5.991434E+04 -1.578622E+04 -9.039887E+04 -1.016880E+01 -6.060885E+03
        99   9 -2.350055E+05 -7.054719E+04 -2.061977E+04 -9.937562E+04  8.222758E+02 -7.662683E+03
        99  10 -8.562809E+04 -1.593330E+04  1.046802E+04 -5.805961E+04  4.875286E-09  1.361817E-09
        99  11 -6.532206E+04 -5.298401E+03  1.498121E+04 -4.908295E+04  6.596140E-09  2.906851E-09
        99  12 -4.030876E+04  5.964946E+02  1.934676E+04 -4.553589E+04  1.305010E-08  2.844986E-09
        99  13 -1.376611E+05 -3.497814E+04 -3.182769E+02 -7.245629E+04  1.003893E-08  2.025561E-09
        99  14 -1.400145E+05 -3.260662E+04 -4.023917E+02 -6.974206E+04  1.385946E-08  3.656009E-09
        99  15 -1.376616E+05 -3.497564E+04 -6.362115E+02 -7.245760E+04  1.643743E-08  4.123812E-09
        99  16 -1.896910E+05 -5.402260E+04 -1.110460E+04 -8.685174E+04  6.695514E-09  2.645123E-09
        99  17 -2.147012E+05 -5.991438E+04 -1.578629E+04 -9.039887E+04  7.953540E-09  4.909645E-09
        99  18 -2.350055E+05 -7.054725E+04 -2.061988E+04 -9.937562E+04  9.727579E-09  5.569560E-09
        99  19 -8.562807E+04 -1.593329E+04  1.046805E+04 -5.805962E+04 -3.612942E+03  2.785620E+03
        99  20 -6.532204E+04 -5.298375E+03  1.498129E+04 -4.908297E+04 -4.440743E+03  4.391256E+03
        99  21 -4.030872E+04  5.965406E+02  1.934688E+04 -4.553592E+04 -5.267903E+03  5.994849E+03
        99  22 -1.376611E+05 -3.497812E+04 -3.182487E+02 -7.245629E+04 -1.384731E+03  3.621380E+03
        99  23 -1.400145E+05 -3.260659E+04 -4.023311E+02 -6.974207E+04 -2.215143E+03  5.226124E+03
        99  24 -1.376616E+05 -3.497558E+04 -6.361065E+02 -7.245762E+04 -3.044910E+03  6.828833E+03
        99  25 -1.896910E+05 -5.402257E+04 -1.110456E+04 -8.685174E+04  8.432620E+02  4.457058E+03
        99  26 -2.147012E+05 -5.991434E+04 -1.578622E+04 -9.039887E+04  1.016880E+01  6.060885E+03
        99  27 -2.350055E+05 -7.054719E+04 -2.061977E+04 -9.937562E+04 -8.222758E+02  7.662683E+03
       100   1 -2.459321E+04  6.362718E+03  2.253370E+04 -4.121336E+04  5.762296E+03 -6.925385E+03
       100   2 -4.251620E+03  1.699908E+04  2.650729E+04 -3.224042E+04  7.074401E+03 -8.333855E+03
       100   3  2.070883E+04  2.282952E+04  2.995366E+04 -2.869889E+04  8.375500E+03 -9.712326E+03
       100   4 -1.376811E+05 -3.497326E+04 -8.244793E+02 -7.246540E+04  3.533335E+03 -7.761687E+03
       100   5 -1.399909E+05 -3.258897E+04 -1.456692E+03 -6.974160E+04  4.884974E+03 -9.155489E+03
       100   6 -1.376900E+05 -3.501857E+04 -2.647496E+03 -7.244951E+04  6.225574E+03 -1.051929E+04
       100   7 -2.507558E+05 -7.630817E+04 -2.418330E+04 -1.037122E+05  1.304811E+03 -8.597826E+03
       100   8 -2.757106E+05 -8.217528E+04 -2.942146E+04 -1.072351E+05  2.696071E+03 -9.976927E+03
       100   9 -2.960618E+05 -9.286411E+04 -3.524959E+04 -1.161895E+05  4.076256E+03 -1.132604E+04
       100  10 -2.459326E+04  6.362658E+03  2.253355E+04 -4.121333E+04  1.263590E-08  2.289876E-09
       100  11 -4.251692E+03  1.699900E+04  2.650706E+04 -3.224038E+04  3.607132E-09 -1.340948E-09
       100  12  2.070873E+04  2.282940E+04  2.995335E+04 -2.869883E+04 -5.784124E-09 -1.441764E-09
       100  13 -1.376811E+05 -3.497333E+04 -8.246160E+02 -7.246538E+04  1.206387E-08  2.550051E-09
       100  14 -1.399909E+05 -3.258907E+04 -1.456895E+03 -6.974157E+04  3.420169E-09 -9.537586E-11
       100  15 -1.376900E+05 -3.501870E+04 -2.647777E+03 -7.244946E+04 -6.709522E-09 -7.418110E-10
       100  16 -2.507558E+05 -7.630825E+04 -2.418344E+04 -1.037122E+05  2.865863E-09  2.842843E-09
       100  17 -2.757107E+05 -8.217539E+04 -2.942166E+04 -1.072351E+05 -5.213835E-10  3.906924E-10
       100  18 -2.960618E+05 -9.286425E+04 -3.524986E+04 -1.161895E+05  2.668830E-09  8.269232E-11
       100  19 -2.459321E+04  6.362718E+03  2.253370E+04 -4.121336E+04 -5.762296E+03  6.925385E+03
       100  20 -4.251620E+03  1.699908E+04  2.650729E+04 -3.224042E+04 -7.074401E+03  8.333855E+03
       100  21  2.070883E+04  2.282952E+04  2.995366E+04 -2.869889E+04 -8.375500E+03  9.712326E+03
       100  22 -1.376811E+05 -3.497326E+04 -8.244793E+02 -7.246540E+04 -3.533335E+03  7.761687E+03
       100  23 -1.399909E+05 -3.258897E+04 -1.456692E+03 -6.974160E+04 -4.884974E+03  9.155489E+03
       100  24 -1.376900E+05 -3.501857E+04 -2.647496E+03 -7.244951E+04 -6.225574E+03  1.051929E+04
       100  25 -2.507558E+05 -7.630817E+04 -2.418330E+04 -1.037122E+05 -1.304811E+03  8.597826E+03
       100  26 -2.757106E+05 -8.217528E+04 -2.942146E+04 -1.072351E+05 -2.696071E+03  9.976927E+03
       100  27 -2.960618E+05 -9.286411E+04 -3.524959E+04 -1.161895E+05 -4.076256E+03  1.132604E+04
       101   1  3.649220E+04  2.850015E+04  3.245691E+04 -2.467382E+04  9.343314E+03 -1.047313E+04
       101   2  5.669604E+04  3.936920E+04  3.436833E+04 -1.507903E+04  1.247364E+04 -1.096322E+04
       101   3  8.070789E+04  4.398323E+04  3.394941E+04 -1.058359E+04  1.542438E+04 -1.097363E+04
       101   4 -1.378347E+05 -3.492467E+04 -3.513753E+03 -7.254196E+04  7.090098E+03 -1.131897E+04
       101   5 -1.398156E+05 -3.271781E+04 -6.391842E+03 -6.962354E+04  1.085527E+04 -1.157105E+04
       101   6 -1.381155E+05 -3.689257E+04 -1.210401E+04 -7.180506E+04  1.444073E+04 -1.134341E+04
       101   7 -3.121318E+05 -9.834756E+04 -3.948637E+04 -1.203981E+05  4.837546E+03 -1.216457E+04
       101   8 -3.362885E+05 -1.048019E+05 -4.715427E+04 -1.241524E+05  9.237444E+03 -1.217867E+04
       101   9 -3.568900E+05 -1.177642E+05 -5.816007E+04 -1.330066E+05  1.345745E+04 -1.171304E+04
       101  10  3.649208E+04  2.850001E+04  3.245654E+04 -2.467374E+04 -3.470863E-09  4.435622E-10
       101  11  5.669584E+04  3.936902E+04  3.436781E+04 -1.507892E+04 -4.380690E-09 -1.183474E-12
       101  12  8.070760E+04  4.398304E+04  3.394873E+04 -1.058345E+04 -1.482917E-09  1.786063E-09
       101  13 -1.378348E+05 -3.492482E+04 -3.514088E+03 -7.254190E+04 -1.845139E-09 -1.336723E-09
       101  14 -1.398158E+05 -3.271799E+04 -6.392315E+03 -6.962344E+04  2.461754E-09 -8.023243E-10
       101  15 -1.381157E+05 -3.689276E+04 -1.210464E+04 -7.180493E+04  9.825296E-09  3.373054E-09
       101  16 -3.121318E+05 -9.834772E+04 -3.948669E+04 -1.203981E+05 -2.499613E-09 -1.877889E-09
       101  17 -3.362886E+05 -1.048020E+05 -4.715471E+04 -1.241523E+05  6.791099E-10 -7.593044E-10
       101  18 -3.568902E+05 -1.177644E+05 -5.816067E+04 -1.330065E+05  1.309498E-08  4.138764E-09
       101  19  3.649220E+04  2.850015E+04  3.245691E+04 -2.467382E+04 -9.343314E+03  1.047313E+04
       101  20  5.669604E+04  3.936920E+04  3.436833E+04 -1.507903E+04 -1.247364E+04  1.096322E+04
       101  21  8.070789E+04  4.398323E+04  3.394941E+04 -1.058359E+04 -1.542438E+04  1.097363E+04
       101  22 -1.378347E+05 -3.492467E+04 -3.513753E+03 -7.254196E+04 -7.090098E+03  1.131897E+04
       101  23 -1.398156E+05 -3.271781E+04 -6.391842E+03 -6.962354E+04 -1.085527E+04  1.157105E+04
       101  24 -1.381155E+05 -3.689257E+04 -1.210401E+04 -7.180506E+04 -1.444073E+04  1.134341E+04
       101  25 -3.121318E+05 -9.834756E+04 -3.948637E+04 -1.203981E+05 -4.837546E+03  1.216457E+04
       101  26 -3.362885E+05 -1.048019E+05 -4.715427E+04 -1.241524E+05 -9.237444E+03  1.217867E+04
       101  27 -3.568900E+05 -1.177642E+05 -5.816007E+04 -1.330066E+05 -1.345745E+04  1.171304E+04
       102   1  9.909213E+04  4.777635E+04  3.361799E+04 -1.291644E+04  1.936907E+04 -1.075956E+04
       102   2  1.106662E+05  6.490826E+04  2.795821E+04  1.453558E+04  2.377621E+04 -6.962016E+03
       102   3  1.124086E+05  4.170049E+04  8.620136E+03  4.650213E+04  2.526201E+04  4.615222E+03
       102   4 -1.401191E+05 -3.456955E+04 -1.575730E+04 -7.354573E+04  1.669768E+04 -1.176285E+04
       102   5 -1.377399E+05 -3.860342E+04 -2.926199E+04 -6.633262E+04  3.141592E+04 -4.094599E+03
       102   6 -1.472415E+05 -8.503031E+04 -6.461894E+04 -5.460446E+04  4.321183E+04  1.135434E+04
       102   7 -3.792717E+05 -1.169123E+05 -6.513546E+04 -1.341542E+05  1.402740E+04 -1.276579E+04
       102   8 -3.860801E+05 -1.421041E+05 -8.648520E+04 -1.471685E+05  3.905223E+04 -1.228826E+03
       102   9 -4.068173E+05 -2.117389E+05 -1.378611E+05 -1.556658E+05  6.115306E+04  1.808811E+04
       102  10  9.909170E+04  4.777612E+04  3.361706E+04 -1.291627E+04  8.048869E-09  4.966079E-09
       102  11  1.106656E+05  6.490806E+04  2.795706E+04  1.453572E+04  1.394794E-08  4.739864E-09
       102  12  1.124079E+05  4.170030E+04  8.618897E+03  4.650203E+04  9.202670E-09  2.969648E-09
       102  13 -1.401194E+05 -3.456977E+04 -1.575808E+04 -7.354557E+04  1.346364E-08  4.793848E-09
       102  14 -1.377410E+05 -3.860370E+04 -2.926388E+04 -6.633251E+04  8.208670E-09  4.302010E-09
       102  15 -1.472435E+05 -8.503095E+04 -6.462269E+04 -5.460486E+04  2.667027E-09  2.561762E-09
       102  16 -3.792719E+05 -1.169125E+05 -6.513614E+04 -1.341540E+05  4.811864E-09  4.861832E-09
       102  17 -3.860818E+05 -1.421045E+05 -8.648807E+04 -1.471684E+05  1.472360E-09  5.306431E-09
       102  18 -4.068214E+05 -2.117403E+05 -1.378688E+05 -1.556667E+05 -6.696869E-09 -2.886909E-10
       102  19  9.909213E+04  4.777635E+04  3.361799E+04 -1.291644E+04 -1.936907E+04  1.075956E+04
       102  20  1.106662E+05  6.490826E+04  2.795821E+04  1.453558E+04 -2.377621E+04  6.962016E+03
       102  21  1.124086E+05  4.170049E+04  8.620136E+03  4.650213E+04 -2.526201E+04 -4.615222E+03
       102  22 -1.401191E+05 -3.456955E+04 -1.575730E+04 -7.354573E+04 -1.669768E+04  1.176285E+04
       102  23 -1.377399E+05 -3.860342E+04 -2.926199E+04 -6.633262E+04 -3.141592E+04  4.094599E+03
       102  24 -1.472415E+05 -8.503031E+04 -6.461894E+04 -5.460446E+04 -4.321183E+04 -1.135434E+04
       102  25 -3.792717E+05 -1.169123E+05 -6.513546E+04 -1.341542E+05 -1.402740E+04  1.276579E+04
       102  26 -3.860801E+05 -1.421041E+05 -8.648520E+04 -1.471685E+05 -3.905223E+04  1.228826E+03
       102  27 -4.068173E+05 -2.117389E+05 -1.378611E+05 -1.556658E+05 -6.115306E+04 -1.808811E+04
       103   1  8.115684E+05  1.316123E+05  1.171401E+05  1.225015E+04  3.177454E+04 -1.005209E+04
       103   2  7.770209E+05  1.477372E+05  9.970541E+04  2.497700E+04  1.231795E+04 -3.462633E+04
       103   3  7.409233E+05  1.474228E+05  9.083483E+04  4.302691E+04 -7.145857E+03 -4.362347E+04
       103   4  8.891511E+04 -4.619620E+04 -4.988220E+04  4.233968E+04 -3.503656E+04 -1.010098E+04
       103   5  9.249163E+04 -1.396777E+04 -2.479108E+04  3.965891E+04 -2.231206E+04 -3.465851E+04
       103   6  8.892811E+04 -3.774150E+03 -1.347473E+04  4.230103E+04 -9.596182E+03 -4.363008E+04
       103   7 -6.332444E+05 -2.240355E+05 -2.169221E+05  7.239387E+04 -1.017705E+05 -1.015637E+04
       103   8 -5.915794E+05 -1.756976E+05 -1.493017E+05  5.432412E+04 -5.690496E+04 -3.469235E+04
       103   9 -5.626449E+05 -1.549924E+05 -1.177955E+05  4.157582E+04 -1.204403E+04 -4.363670E+04
       103  10  8.115672E+05  1.316120E+05  1.171381E+05  1.225040E+04 -6.156093E-08 -8.236822E-11
       103  11  7.770204E+05  1.477359E+05  9.970287E+04  2.497734E+04 -3.006797E-09 -1.657610E-09
       103  12  7.409227E+05  1.474207E+05  9.083116E+04  4.302666E+04  6.893319E-08 -2.491283E-09
       103  13  8.891376E+04 -4.619664E+04 -4.988469E+04  4.233940E+04 -1.951856E-09  4.001955E-10
       103  14  9.249077E+04 -1.396919E+04 -2.479427E+04  3.965829E+04  1.921827E-09 -1.120251E-09
       103  15  8.892750E+04 -3.776219E+03 -1.347848E+04  4.230069E+04 -1.258488E-10 -2.776941E-10
       103  16 -6.332555E+05 -2.240384E+05 -2.169418E+05  7.239304E+04  6.242619E-08 -1.073929E-10
       103  17 -5.915832E+05 -1.756998E+05 -1.493100E+05  5.432253E+04 -2.717638E-09 -3.127363E-09
       103  18 -5.626456E+05 -1.549945E+05 -1.177993E+05  4.157540E+04 -6.532647E-08 -2.006667E-09
       103  19  8.115684E+05  1.316123E+05  1.171401E+05  1.225015E+04 -3.177454E+04  1.005209E+04
       103  20  7.770209E+05  1.477372E+05  9.970541E+04  2.497700E+04 -1.231795E+04  3.462633E+04
       103  21  7.409233E+05  1.474228E+05  9.083483E+04  4.302691E+04  7.145857E+03  4.362347E+04
       103  22  8.891511E+04 -4.619620E+04 -4.988220E+04  4.233968E+04  3.503656E+04  1.010098E+04
       103  23  9.249163E+04 -1.396777E+04 -2.479108E+04  3.965891E+04  2.231206E+04  3.465851E+04
       103  24  8.892811E+04 -3.774150E+03 -1.347473E+04  4.230103E+04  9.596182E+03  4.363008E+04
       103  25 -6.332444E+05 -2.240355E+05 -2.169221E+05  7.239387E+04  1.017705E+05  1.015637E+04
       103  26 -5.915794E+05 -1.756976E+05 -1.493017E+05  5.432412E+04  5.690496E+04  3.469235E+04
       103  27 -5.626449E+05 -1.549924E+05 -1.177955E+05  4.157582E+04  1.204403E+04  4.363670E+04
       104   1  7.192713E+05  1.423166E+05  8.824138E+04  4.143370E+04 -5.240149E+03 -4.375274E+04
       104   2  6.841603E+05  1.356653E+05  8.349044E+04  3.915455E+04 -6.190872E+03 -4.412118E+04
       104   3  6.489320E+05  1.280096E+05  7.911108E+04  4.329934E+04 -7.143891E+03 -4.269142E+04
       104   4  9.035051E+04 -3.076795E+03 -1.012739E+04  4.254846E+04 -7.850794E+03 -4.375959E+04
       104   5  9.073874E+04 -7.641259E+02 -5.517963E+03  3.933456E+04 -5.088629E+03 -4.412409E+04
       104   6  9.036412E+04 -1.007853E+02 -3.114747E+03  4.254500E+04 -2.328745E+03 -4.268951E+04
       104   7 -5.381760E+05 -1.484896E+05 -1.085056E+05  4.366195E+04 -1.045889E+04 -4.376646E+04
       104   8 -5.023297E+05 -1.372103E+05 -9.453330E+04  3.951429E+04 -3.987395E+03 -4.412701E+04
       104   9 -4.678899E+05 -1.282257E+05 -8.534604E+04  4.179127E+04  2.482250E+03 -4.268760E+04
       104  10  7.192707E+05  1.423145E+05  8.823773E+04  4.143351E+04  3.280396E-09 -3.637868E-09
       104  11  6.841598E+05  1.356632E+05  8.348671E+04  3.915433E+04  1.493088E-09  1.430002E-10
       104  12  6.489314E+05  1.280076E+05  7.910756E+04  4.329910E+04 -1.510225E-09  2.680022E-09
       104  13  9.034993E+04 -3.078868E+03 -1.013111E+04  4.254819E+04 -1.891020E-09 -1.823410E-09
       104  14  9.073818E+04 -7.662236E+02 -5.521670E+03  3.933438E+04 -5.657642E-09 -7.141223E-10
       104  15  9.036362E+04 -1.027437E+02 -3.118182E+03  4.254492E+04 -1.821003E-09 -2.087620E-10
       104  16 -5.381767E+05 -1.484917E+05 -1.085094E+05  4.366158E+04 -1.398998E-09  6.325837E-10
       104  17 -5.023302E+05 -1.372124E+05 -9.453698E+04  3.951415E+04 -4.489999E-09  1.544057E-10
       104  18 -4.678904E+05 -1.282276E+05 -8.534948E+04  4.179135E+04  1.847494E-09  8.149775E-10
       104  19  7.192713E+05  1.423166E+05  8.824138E+04  4.143370E+04  5.240149E+03  4.375274E+04
       104  20  6.841603E+05  1.356653E+05  8.349044E+04  3.915455E+04  6.190872E+03  4.412118E+04
       104  21  6.489320E+05  1.280096E+05  7.911108E+04  4.329934E+04  7.143891E+03  4.269142E+04
       104  22  9.035051E+04 -3.076795E+03 -1.012739E+04  4.254846E+04  7.850794E+03  4.375959E+04
       104  23  9.073874E+04 -7.641259E+02 -5.517963E+03  3.933456E+04  5.088629E+03  4.412409E+04
       104  24  9.036412E+04 -1.007853E+02 -3.114747E+03  4.254500E+04  2.328745E+03  4.268951E+04
       104  25 -5.381760E+05 -1.484896E+05 -1.085056E+05  4.366195E+04  1.045889E+04  4.376646E+04
       104  26 -5.023297E+05 -1.372103E+05 -9.453330E+04  3.951429E+04  3.987395E+03  4.412701E+04
       104  27 -4.678899E+05 -1.282257E+05 -8.534604E+04  4.179127E+04 -2.482250E+03  4.268760E+04
       105   1  6.268700E+05  1.228742E+05  7.623110E+04  4.313972E+04 -6.656779E+03 -4.127005E+04
       105   2  5.917515E+05  1.148717E+05  7.172682E+04  3.986593E+04 -6.426696E+03 -3.884516E+04
       105   3  5.565960E+05  1.068445E+05  6.706641E+04  4.313783E+04 -6.197665E+03 -3.621304E+04
       105   4  9.051319E+04 -6.913318E+01 -2.355624E+03  4.257235E+04 -1.861090E+03 -4.126767E+04
       105   5  9.057542E+04  6.531994E+01 -1.329742E+03  3.929923E+04 -1.203529E+03 -3.884146E+04
       105   6  9.052506E+04  1.008781E+02 -7.570158E+02  4.257211E+04 -5.470075E+02 -3.620793E+04
       105   7 -4.455541E+05 -1.230257E+05 -8.094725E+04  4.200539E+04  2.930631E+03 -4.126530E+04
       105   8 -4.103476E+05 -1.147526E+05 -7.439042E+04  3.873293E+04  4.015600E+03 -3.883777E+04
       105   9 -3.753269E+05 -1.066528E+05 -6.858393E+04  4.200676E+04  5.099588E+03 -3.620283E+04
       105  10  6.268695E+05  1.228723E+05  7.622782E+04  4.313950E+04 -4.244258E-10  3.184733E-09
       105  11  5.917511E+05  1.148700E+05  7.172390E+04  3.986573E+04  3.428282E-09  1.035239E-09
       105  12  5.565956E+05  1.068431E+05  6.706387E+04  4.313765E+04  2.472814E-09 -9.640317E-10
       105  13  9.051273E+04 -7.096293E+01 -2.358830E+03  4.257228E+04  2.562587E-10  2.337128E-10
       105  14  9.057501E+04  6.369944E+01 -1.332580E+03  3.929920E+04 -3.341123E-10  1.995837E-09
       105  15  9.052471E+04  9.947013E+01 -7.594801E+02  4.257210E+04 -1.158150E-10  2.217973E-09
       105  16 -4.455545E+05 -1.230276E+05 -8.095047E+04  4.200549E+04  1.622170E-09  2.493506E-09
       105  17 -4.103481E+05 -1.147542E+05 -7.439329E+04  3.873305E+04 -2.136881E-09  3.305007E-09
       105  18 -3.753273E+05 -1.066542E+05 -6.858645E+04  4.200691E+04 -6.123255E-09 -1.455386E-10
       105  19  6.268700E+05  1.228742E+05  7.623110E+04  4.313972E+04  6.656779E+03  4.127005E+04
       105  20  5.917515E+05  1.148717E+05  7.172682E+04  3.986593E+04  6.426696E+03  3.884516E+04
       105  21  5.565960E+05  1.068445E+05  6.706641E+04  4.313783E+04  6.197665E+03  3.621304E+04
       105  22  9.051319E+04 -6.913318E+01 -2.355624E+03  4.257235E+04  1.861090E+03  4.126767E+04
       105  23  9.057542E+04  6.531994E+01 -1.329742E+03  3.929923E+04  1.203529E+03  3.884146E+04
       105  24  9.052506E+04  1.008781E+02 -7.570158E+02  4.257211E+04  5.470075E+02  3.620793E+04
       105  25 -4.455541E+05 -1.230257E+05 -8.094725E+04  4.200539E+04 -2.930631E+03  4.126530E+04
       105  26 -4.103476E+05 -1.147526E+05 -7.439042E+04  3.873293E+04 -4.015600E+03  3.883777E+04
       105  27 -3.753269E+05 -1.066528E+05 -6.858393E+04  4.200676E+04 -5.099588E+03  3.620283E+04
       106   1  5.345176E+05  1.017532E+05  6.387975E+04  4.310494E+04 -6.077211E+03 -3.461345E+04
       106   2  4.994069E+05  9.371270E+04  5.904428E+04  3.979142E+04 -5.970227E+03 -3.186725E+04
       106   3  4.642784E+05  8.569527E+04  5.414186E+04  4.303407E+04 -5.863959E+03 -2.909743E+04
       106   4  9.054768E+04  1.013681E+02 -5.715435E+02  4.257447E+04 -4.294484E+02 -3.460789E+04
       106   5  9.056650E+04  9.969749E+01 -3.205021E+02  3.929625E+04 -2.739839E+02 -3.186091E+04
       106   6  9.055741E+04  1.125979E+02 -1.703640E+02  4.257446E+04 -1.192300E+02 -2.909030E+04
       106   7 -3.532235E+05 -1.015596E+05 -6.502595E+04  4.204431E+04  5.214447E+03 -3.460233E+04
       106   8 -3.181053E+05 -9.352098E+04 -5.968791E+04  3.880136E+04  5.418668E+03 -3.185457E+04
       106   9 -2.830228E+05 -8.547648E+04 -5.448477E+04  4.211508E+04  5.622188E+03 -2.908318E+04
       106  10  5.345172E+05  1.017519E+05  6.387743E+04  4.310477E+04  3.139417E-09  7.292842E-10
       106  11  4.994065E+05  9.371160E+04  5.904230E+04  3.979127E+04 -4.835485E-12  6.804444E-09
       106  12  4.642782E+05  8.569435E+04  5.414021E+04  4.303393E+04 -5.486637E-09  6.219194E-09
       106  13  9.054735E+04  1.000818E+02 -5.737946E+02  4.257445E+04  4.679714E-09  9.799716E-11
       106  14  9.056623E+04  9.860737E+01 -3.224100E+02  3.929625E+04  7.574748E-10  5.380274E-09
       106  15  9.055718E+04  1.116891E+02 -1.719543E+02  4.257446E+04 -2.569331E-09  4.806309E-09
       106  16 -3.532239E+05 -1.015608E+05 -6.502825E+04  4.204446E+04  1.290306E-11 -9.759629E-10
       106  17 -3.181056E+05 -9.352207E+04 -5.968987E+04  3.880150E+04 -2.430929E-10  1.435227E-09
       106  18 -2.830231E+05 -8.547740E+04 -5.448642E+04  4.211521E+04  8.623712E-10  3.864225E-09
       106  19  5.345176E+05  1.017532E+05  6.387975E+04  4.310494E+04  6.077211E+03  3.461345E+04
       106  20  4.994069E+05  9.371270E+04  5.904428E+04  3.979142E+04  5.970227E+03  3.186725E+04
       106  21  4.642784E+05  8.569527E+04  5.414186E+04  4.303407E+04  5.863959E+03  2.909743E+04
       106  22  9.054768E+04  1.013681E+02 -5.715435E+02  4.257447E+04  4.294484E+02  3.460789E+04
       106  23  9.056650E+04  9.969749E+01 -3.205021E+02  3.929625E+04  2.739839E+02  3.186091E+04
       106  24  9.055741E+04  1.125979E+02 -1.703640E+02  4.257446E+04  1.192300E+02  2.909030E+04
       106  25 -3.532235E+05 -1.015596E+05 -6.502595E+04  4.204431E+04 -5.214447E+03  3.460233E+04
       106  26 -3.181053E+05 -9.352098E+04 -5.968791E+04  3.880136E+04 -5.418668E+03  3.185457E+04
       106  27 -2.830228E+05 -8.547648E+04 -5.448477E+04  4.211508E+04 -5.622188E+03  2.908318E+04
       107   1  4.422037E+05  8.061556E+04  5.085302E+04  4.301284E+04 -5.838872E+03 -2.747777E+04
       107   2  4.071043E+05  7.258354E+04  4.589871E+04  3.969893E+04 -5.827980E+03 -2.469535E+04
       107   3  3.719917E+05  6.457524E+04  4.093762E+04  4.294387E+04 -5.817617E+03 -2.191067E+04
       107   4  9.056336E+04  1.147753E+02 -1.186241E+02  4.257504E+04 -9.501260E+01 -2.747027E+04
       107   5  9.057450E+04  1.081115E+02 -3.893182E+01  3.929552E+04 -7.956134E+01 -2.468729E+04
       107   6  9.057090E+04  1.245369E+02  3.088129E+01  4.257504E+04 -6.463911E+01 -2.190205E+04
       107   7 -2.609522E+05 -8.039168E+04 -5.109215E+04  4.213745E+04  5.645732E+03 -2.746277E+04
       107   8 -2.258542E+05 -7.237191E+04 -4.597809E+04  3.889229E+04  5.666051E+03 -2.467924E+04
       107   9 -1.907700E+05 -6.432979E+04 -4.087704E+04  4.220635E+04  5.685842E+03 -2.189344E+04
       107  10  4.422034E+05  8.061474E+04  5.085153E+04  4.301271E+04  7.464361E-09  3.771285E-09
       107  11  4.071041E+05  7.258288E+04  4.589750E+04  3.969882E+04 -1.802601E-10  2.548092E-09
       107  12  3.719915E+05  6.457471E+04  4.093665E+04  4.294377E+04 -6.227908E-09  2.720588E-09
       107  13  9.056316E+04  1.139649E+02 -1.200422E+02  4.257504E+04 -1.690390E-09  8.307928E-09
       107  14  9.057434E+04  1.074570E+02 -4.007718E+01  3.929552E+04 -2.539183E-09  2.570614E-09
       107  15  9.057077E+04  1.240218E+02  2.997979E+01  4.257504E+04 -3.827407E-10  4.619948E-10
       107  16 -2.609525E+05 -8.039249E+04 -5.109363E+04  4.213758E+04 -5.446200E-09  5.646344E-09
       107  17 -2.258544E+05 -7.237257E+04 -4.597929E+04  3.889240E+04  8.891548E-10  1.105310E-09
       107  18 -1.907701E+05 -6.433032E+04 -4.087800E+04  4.220645E+04  8.019409E-09 -1.895114E-09
       107  19  4.422037E+05  8.061556E+04  5.085302E+04  4.301284E+04  5.838872E+03  2.747777E+04
       107  20  4.071043E+05  7.258354E+04  4.589871E+04  3.969893E+04  5.827980E+03  2.469535E+04
       107  21  3.719917E+05  6.457524E+04  4.093762E+04  4.294387E+04  5.817617E+03  2.191067E+04
       107  22  9.056336E+04  1.147753E+02 -1.186241E+02  4.257504E+04  9.501260E+01  2.747027E+04
       107  23  9.057450E+04  1.081115E+02 -3.893182E+01  3.929552E+04  7.956134E+01  2.468729E+04
       107  24  9.057090E+04  1.245369E+02  3.088129E+01  4.257504E+04  6.463911E+01  2.190205E+04
       107  25 -2.609522E+05 -8.039168E+04 -5.109215E+04  4.213745E+04 -5.645732E+03  2.746277E+04
       107  26 -2.258542E+05 -7.237191E+04 -4.597809E+04  3.889229E+04 -5.666051E+03  2.467924E+04
       107  27 -1.907700E+05 -6.432979E+04 -4.087704E+04  4.220635E+04 -5.685842E+03  2.189344E+04
       108   1  3.499256E+05  5.949784E+04  3.763763E+04  4.292201E+04 -5.828247E+03 -2.028922E+04
       108   2  3.148310E+05  5.147050E+04  3.270117E+04  3.960195E+04 -5.908070E+03 -1.750439E+04
       108   3  2.797337E+05  4.348151E+04  2.781908E+04  4.283810E+04 -5.988258E+03 -1.472124E+04
       108   4  9.057571E+04  1.266908E+02  6.721284E+01  4.257444E+04 -7.575562E+01 -2.028032E+04
       108   5  9.058000E+04  1.221464E+02  1.594780E+02  3.929625E+04 -1.591845E+02 -1.749511E+04
       108   6  9.058105E+04  1.566199E+02  3.085495E+02  4.257440E+04 -2.429832E+02 -1.471157E+04
       108   7 -1.687063E+05 -5.924753E+04 -3.750417E+04  4.222700E+04  5.674435E+03 -2.027143E+04
       108   8 -1.336202E+05 -5.122850E+04 -3.238291E+04  3.899065E+04  5.587712E+03 -1.748582E+04
       108   9 -9.853551E+04 -4.316990E+04 -2.720245E+04  4.231077E+04  5.500615E+03 -1.470190E+04
       108  10  3.499255E+05  5.949739E+04  3.763680E+04  4.292191E+04 -2.342847E-08  4.358561E-09
       108  11  3.148309E+05  5.147016E+04  3.270053E+04  3.960187E+04  5.788004E-09  1.914363E-09
       108  12  2.797336E+05  4.348127E+04  2.781861E+04  4.283803E+04  3.250681E-08  3.696985E-09
       108  13  9.057560E+04  1.262492E+02  6.643990E+01  4.257444E+04  4.203302E-10 -1.226828E-09
       108  14  9.057991E+04  1.218177E+02  1.589027E+02  3.929625E+04 -3.690760E-09 -8.586465E-09
       108  15  9.058099E+04  1.563875E+02  3.081426E+02  4.257440E+04 -6.325393E-10 -1.266890E-08
       108  16 -1.687064E+05 -5.924798E+04 -3.750501E+04  4.222709E+04  2.557935E-08  1.568216E-09
       108  17 -1.336203E+05 -5.122884E+04 -3.238354E+04  3.899073E+04 -1.258464E-09 -2.272998E-09
       108  18 -9.853560E+04 -4.317014E+04 -2.720292E+04  4.231083E+04 -3.445918E-08  3.814304E-09
       108  19  3.499256E+05  5.949784E+04  3.763763E+04  4.292201E+04  5.828247E+03  2.028922E+04
       108  20  3.148310E+05  5.147050E+04  3.270117E+04  3.960195E+04  5.908070E+03  1.750439E+04
       108  21  2.797337E+05  4.348151E+04  2.781908E+04  4.283810E+04  5.988258E+03  1.472124E+04
       108  22  9.057571E+04  1.266908E+02  6.721284E+01  4.257444E+04  7.575562E+01  2.028032E+04
       108  23  9.058000E+04  1.221464E+02  1.594780E+02  3.929625E+04  1.591845E+02  1.749511E+04
       108  24  9.058105E+04  1.566199E+02  3.085495E+02  4.257440E+04  2.429832E+02  1.471157E+04
       108  25 -1.687063E+05 -5.924753E+04 -3.750417E+04  4.222700E+04 -5.674435E+03  2.027143E+04
       108  26 -1.336202E+05 -5.122850E+04 -3.238291E+04  3.899065E+04 -5.587712E+03  1.748582E+04
       108  27 -9.853551E+04 -4.316990E+04 -2.720245E+04  4.231077E+04 -5.500615E+03  1.470190E+04
       109   1  2.576895E+05  3.840793E+04  2.458752E+04  4.283481E+04 -6.052633E+03 -1.310139E+04
       109   2  2.225613E+05  3.046239E+04  1.987659E+04  3.938628E+04 -6.397209E+03 -1.032729E+04
       109   3  1.875136E+05  2.276152E+04  1.544300E+04  4.249110E+04 -6.741955E+03 -7.568882E+03
       109   4  9.060199E+04  1.621125E+02  4.145411E+02  4.257383E+04 -3.075274E+02 -1.309153E+04
       109   5  9.056140E+04  2.408782E+02  7.444930E+02  3.929676E+04 -6.846096E+02 -1.031727E+04
       109   6  9.060510E+04  5.698630E+02  1.374114E+03  4.257312E+04 -1.061879E+03 -7.558687E+03
       109   7 -7.645733E+04 -3.808497E+04 -2.375876E+04  4.231291E+04  5.436097E+03 -1.308168E+04
       109   8 -4.142091E+04 -2.998142E+04 -1.838777E+04  3.920726E+04  5.026826E+03 -1.030724E+04
       109   9 -6.293886E+03 -2.162221E+04 -1.269481E+04  4.265512E+04  4.617349E+03 -7.548489E+03
       109  10  2.576894E+05  3.840774E+04  2.458712E+04  4.283474E+04 -1.094761E-07  5.671063E-09
       109  11  2.225613E+05  3.046227E+04  1.987632E+04  3.938622E+04 -3.454027E-09  2.748693E-09
       109  12  1.875136E+05  2.276144E+04  1.544281E+04  4.249106E+04  9.290090E-08  3.830901E-09
       109  13  9.060194E+04  1.619284E+02  4.142189E+02  4.257383E+04 -1.708071E-09 -1.191318E-08
       109  14  9.056137E+04  2.407638E+02  7.442921E+02  3.929676E+04 -3.754459E-09 -5.978282E-09
       109  15  9.060508E+04  5.698014E+02  1.374004E+03  4.257311E+04 -6.734177E-10 -2.711077E-09
       109  16 -7.645740E+04 -3.808516E+04 -2.375913E+04  4.231297E+04  1.062392E-07  6.582643E-09
       109  17 -4.142097E+04 -2.998154E+04 -1.838802E+04  3.920730E+04  1.350889E-09  3.784679E-09
       109  18 -6.293924E+03 -2.162227E+04 -1.269496E+04  4.265515E+04 -9.559043E-08 -3.229847E-09
       109  19  2.576895E+05  3.840793E+04  2.458752E+04  4.283481E+04  6.052633E+03  1.310139E+04
       109  20  2.225613E+05  3.046239E+04  1.987659E+04  3.938628E+04  6.397209E+03  1.032729E+04
       109  21  1.875136E+05  2.276152E+04  1.544300E+04  4.249110E+04  6.741955E+03  7.568882E+03
       109  22  9.060199E+04  1.621125E+02  4.145411E+02  4.257383E+04  3.075274E+02  1.309153E+04
       109  23  9.056140E+04  2.408782E+02  7.444930E+02  3.929676E+04  6.846096E+02  1.031727E+04
       109  24  9.060510E+04  5.698630E+02  1.374114E+03  4.257312E+04  1.061879E+03  7.558687E+03
       109  25 -7.645733E+04 -3.808497E+04 -2.375876E+04  4.231291E+04 -5.436097E+03  1.308168E+04
       109  26 -4.142091E+04 -2.998142E+04 -1.838777E+04  3.920726E+04 -5.026826E+03  1.030724E+04
       109  27 -6.293886E+03 -2.162221E+04 -1.269481E+04  4.265512E+04 -4.617349E+03  7.548489E+03
       110   1  1.656378E+05  1.777299E+04  1.254161E+04  4.271069E+04 -6.982797E+03 -5.962870E+03
       110   2  1.301081E+05  1.109720E+04  8.923841E+03  3.729440E+04 -8.433992E+03 -3.281103E+03
       110   3  9.548353E+04  7.398486E+03  6.986217E+03  3.841885E+04 -9.884972E+03 -7.345223E+02
       110   4  9.079880E+04  6.647645E+02  1.830018E+03  4.257122E+04 -1.301581E+03 -5.952582E+03
       110   5  9.032281E+04  2.039006E+03  3.368798E+03  3.929572E+04 -3.031912E+03 -3.271284E+03
       110   6  9.079950E+04  6.439006E+03  6.781604E+03  4.256090E+04 -4.762102E+03 -7.251864E+02
       110   7  1.596555E+04 -1.644370E+04 -8.881536E+03  4.243176E+04  4.378980E+03 -5.942295E+03
       110   8  5.053916E+04 -7.019225E+03 -2.186154E+03  4.129691E+04  2.369837E+03 -3.261429E+03
       110   9  8.611559E+04  5.479604E+03  6.577100E+03  4.670292E+04  3.607335E+02 -7.157821E+02
       110  10  1.656377E+05  1.777294E+04  1.254145E+04  4.271066E+04 -6.403985E-08  2.544195E-09
       110  11  1.301081E+05  1.109717E+04  8.923687E+03  3.729437E+04  1.971910E-09 -8.080271E-10
       110  12  9.548343E+04  7.398459E+03  6.986032E+03  3.841884E+04  6.778481E-08 -4.821835E-10
       110  13  9.079879E+04  6.647260E+02  1.829948E+03  4.257121E+04  5.155599E-10  3.793060E-09
       110  14  9.032280E+04  2.038992E+03  3.368760E+03  3.929571E+04 -4.888922E-09 -3.982493E-09
       110  15  9.079948E+04  6.438999E+03  6.781560E+03  4.256089E+04 -2.492303E-09  2.955024E-09
       110  16  1.596552E+04 -1.644375E+04 -8.881639E+03  4.243178E+04  6.298053E-08  1.168706E-09
       110  17  5.053916E+04 -7.019238E+03 -2.186184E+03  4.129692E+04 -7.635401E-10  1.658297E-09
       110  18  8.611559E+04  5.479603E+03  6.577099E+03  4.670292E+04 -6.451550E-08 -7.784231E-10
       110  19  1.656378E+05  1.777299E+04  1.254161E+04  4.271069E+04  6.982797E+03  5.962870E+03
       110  20  1.301081E+05  1.109720E+04  8.923841E+03  3.729440E+04  8.433992E+03  3.281103E+03
       110  21  9.548353E+04  7.398486E+03  6.986217E+03  3.841885E+04  9.884972E+03  7.345223E+02
       110  22  9.079880E+04  6.647645E+02  1.830018E+03  4.257122E+04  1.301581E+03  5.952582E+03
       110  23  9.032281E+04  2.039006E+03  3.368798E+03  3.929572E+04  3.031912E+03  3.271284E+03
       110  24  9.079950E+04  6.439006E+03  6.781604E+03  4.256090E+04  4.762102E+03  7.251864E+02
       110  25  1.596555E+04 -1.644370E+04 -8.881536E+03  4.243176E+04 -4.378980E+03  5.942295E+03
       110  26  5.053916E+04 -7.019225E+03 -2.186154E+03  4.129691E+04 -2.369837E+03  3.261429E+03
       110  27  8.611559E+04  5.479604E+03  6.577100E+03  4.670292E+04 -3.607335E+02  7.157821E+02
       111   1  9.696207E+03  3.716432E+05  1.060886E+04 -2.447343E+04 -9.670803E+01  2.390420E+03
       111   2 -5.585864E+02  3.468491E+05  2.981949E+03 -1.951263E+04 -8.277453E+02 -4.091889E+02
       111   3 -7.082416E+03  3.233418E+05 -1.892852E+03 -2.101341E+04 -2.188145E+03 -3.209121E+03
       111   4  5.113984E+03  3.533979E+05  5.960734E+03 -2.138256E+04 -9.709882E+01  2.982919E+03
       111   5  7.816425E+02  3.528322E+05  3.713350E+03 -1.815346E+04 -8.287476E+02  1.074868E+03
       111   6  2.566681E+01  3.533985E+05  3.599347E+03 -2.138591E+04 -2.189741E+03 -8.335976E+02
       111   7  5.317715E+02  3.351529E+05  1.312591E+03 -1.829178E+04 -9.748372E+01  3.575401E+03
       111   8  2.121878E+03  3.588154E+05  4.444761E+03 -1.679428E+04 -8.297434E+02  2.558937E+03
       111   9  7.133702E+03  3.834561E+05  9.091531E+03 -2.175842E+04 -2.191341E+03  1.542038E+03
       111  10  9.696206E+03  3.716432E+05  1.060885E+04 -2.447343E+04  1.457494E-09  1.146111E-09
       111  11 -5.585872E+02  3.468491E+05  2.981947E+03 -1.951263E+04 -2.712628E-09 -2.716037E-09
       111  12 -7.082424E+03  3.233417E+05 -1.892881E+03 -2.101342E+04 -4.453581E-09 -3.848048E-09
       111  13  5.113982E+03  3.533979E+05  5.960718E+03 -2.138256E+04  2.716429E-09 -4.416099E-11
       111  14  7.816415E+02  3.528322E+05  3.713347E+03 -1.815346E+04  4.552203E-09 -1.401045E-09
       111  15  2.566148E+01  3.533985E+05  3.599337E+03 -2.138591E+04 -4.569094E-09 -1.041701E-09
       111  16  5.317680E+02  3.351529E+05  1.312567E+03 -1.829178E+04  4.234141E-10 -1.811356E-09
       111  17  2.121876E+03  3.588154E+05  4.444747E+03 -1.679428E+04  6.243593E-09  9.535089E-10
       111  18  7.133696E+03  3.834561E+05  9.091518E+03 -2.175841E+04 -3.679704E-09  3.750705E-09
       111  19  9.696207E+03  3.716432E+05  1.060886E+04 -2.447343E+04  9.670803E+01 -2.390420E+03
       111  20 -5.585864E+02  3.468491E+05  2.981949E+03 -1.951263E+04  8.277453E+02  4.091889E+02
       111  21 -7.082416E+03  3.233418E+05 -1.892852E+03 -2.101341E+04  2.188145E+03  3.209121E+03
       111  22  5.113984E+03  3.533979E+05  5.960734E+03 -2.138256E+04  9.709882E+01 -2.982919E+03
       111  23  7.816425E+02  3.528322E+05  3.713350E+03 -1.815346E+04  8.287476E+02 -1.074868E+03
       111  24  2.566681E+01  3.533985E+05  3.599347E+03 -2.138591E+04  2.189741E+03  8.335976E+02
       111  25  5.317715E+02  3.351529E+05  1.312591E+03 -1.829178E+04  9.748372E+01 -3.575401E+03
       111  26  2.121878E+03  3.588154E+05  4.444761E+03 -1.679428E+04  8.297434E+02 -2.558937E+03
       111  27  7.133702E+03  3.834561E+05  9.091531E+03 -2.175842E+04  2.191341E+03 -1.542038E+03
       112   1 -1.087855E+04  3.067828E+05 -4.686090E+03 -2.176050E+04 -3.187011E+03 -3.775635E+03
       112   2 -1.662898E+04  2.822986E+05 -7.586130E+03 -1.803691E+04 -4.695036E+03 -6.297154E+03
       112   3 -2.105103E+04  2.584660E+05 -8.515432E+03 -2.080006E+04 -5.961870E+03 -8.818350E+03
       112   4  1.588285E+02  3.533044E+05  3.999458E+03 -2.139108E+04 -3.188545E+03 -1.466429E+03
       112   5  1.609222E+02  3.529485E+05  5.737933E+03 -1.814728E+04 -4.696277E+03 -4.329924E+03
       112   6  1.550656E+03  3.533027E+05  9.684325E+03 -2.139016E+04 -5.962829E+03 -7.193189E+03
       112   7  1.119608E+04  3.998282E+05  1.268493E+04 -2.102164E+04 -3.190076E+03  8.429455E+02
       112   8  1.695054E+04  4.236031E+05  1.906179E+04 -1.825766E+04 -4.697519E+03 -2.362475E+03
       112   9  2.415182E+04  4.481480E+05  2.788368E+04 -2.198034E+04 -5.963791E+03 -5.567786E+03
       112  10 -1.087856E+04  3.067828E+05 -4.686136E+03 -2.176051E+04 -4.938504E-10  7.618845E-09
       112  11 -1.662902E+04  2.822986E+05 -7.586246E+03 -1.803693E+04  2.811491E-09 -5.216089E-11
       112  12 -2.105109E+04  2.584659E+05 -8.515645E+03 -2.080010E+04 -2.259108E-09 -5.254935E-09
       112  13  1.588170E+02  3.533044E+05  3.999435E+03 -2.139109E+04  6.696868E-10 -5.144634E-11
       112  14  1.608935E+02  3.529484E+05  5.737856E+03 -1.814730E+04  1.181448E-09 -1.386016E-09
       112  15  1.550604E+03  3.533026E+05  9.684161E+03 -2.139019E+04 -3.035620E-09 -9.101214E-10
       112  16  1.119607E+04  3.998282E+05  1.268491E+04 -2.102163E+04 -4.586356E-10 -8.217790E-09
       112  17  1.695051E+04  4.236031E+05  1.906174E+04 -1.825767E+04  3.548215E-09 -1.741120E-09
       112  18  2.415177E+04  4.481479E+05  2.788355E+04 -2.198037E+04 -1.992264E-09  5.116328E-09
       112  19 -1.087855E+04  3.067828E+05 -4.686090E+03 -2.176050E+04  3.187011E+03  3.775635E+03
       112  20 -1.662898E+04  2.822986E+05 -7.586130E+03 -1.803691E+04  4.695036E+03  6.297154E+03
       112  21 -2.105103E+04  2.584660E+05 -8.515432E+03 -2.080006E+04  5.961870E+03  8.818350E+03
       112  22  1.588285E+02  3.533044E+05  3.999458E+03 -2.139108E+04  3.188545E+03  1.466429E+03
       112  23  1.609222E+02  3.529485E+05  5.737933E+03 -1.814728E+04  4.696277E+03  4.329924E+03
       112  24  1.550656E+03  3.533027E+05  9.684325E+03 -2.139016E+04  5.962829E+03  7.193189E+03
       112  25  1.119608E+04  3.998282E+05  1.268493E+04 -2.102164E+04  3.190076E+03 -8.429455E+02
       112  26  1.695054E+04  4.236031E+05  1.906179E+04 -1.825766E+04  4.697519E+03  2.362475E+03
       112  27  2.415182E+04  4.481480E+05  2.788368E+04 -2.198034E+04  5.963791E+03  5.567786E+03
       113   1 -2.667247E+04  2.435676E+05 -9.056376E+03 -2.505801E+04 -6.945844E+03 -1.122263E+04
       113   2 -2.640560E+04  2.156575E+05 -5.838563E+03 -8.204397E+03 -6.562775E+03 -1.677486E+04
       113   3  6.521577E+02  1.951632E+05  7.690241E+03  2.404288E+03 -2.067982E+03 -2.232450E+04
       113   4 -1.072575E+02  3.550168E+05  1.238546E+04 -2.134065E+04 -6.947300E+03 -8.850070E+03
       113   5  6.172294E+03  3.508006E+05  2.188027E+04 -1.820652E+04 -6.560335E+03 -2.022826E+04
       113   6  4.024975E+04  3.550078E+05  4.572855E+04 -2.131671E+04 -2.061808E+03 -3.160410E+04
       113   7  2.645728E+04  4.664780E+05  3.382676E+04 -1.762260E+04 -6.948726E+03 -6.477092E+03
       113   8  3.874942E+04  4.859612E+05  4.959822E+04 -2.821086E+04 -6.557784E+03 -2.368240E+04
       113   9  7.984765E+04  5.148773E+05  8.376569E+04 -4.504384E+04 -2.054926E+03 -4.088608E+04
       113  10 -2.667256E+04  2.435675E+05 -9.056704E+03 -2.505807E+04 -8.942590E-10  7.135047E-09
       113  11 -2.640572E+04  2.156572E+05 -5.839173E+03 -8.204486E+03 -6.416611E-10  3.267250E-10
       113  12  6.520194E+02  1.951627E+05  7.689296E+03  2.404251E+03 -1.736195E-09 -3.746737E-09
       113  13 -1.073303E+02  3.550167E+05  1.238522E+04 -2.134070E+04 -9.599076E-10 -3.178991E-11
       113  14  6.172138E+03  3.508002E+05  2.187942E+04 -1.820663E+04  3.399012E-09 -1.087903E-09
       113  15  4.024947E+04  3.550068E+05  4.572667E+04 -2.131676E+04  3.219431E-09 -8.482611E-10
       113  16  2.645721E+04  4.664779E+05  3.382659E+04 -1.762264E+04 -2.464068E-10 -7.851806E-09
       113  17  3.874922E+04  4.859606E+05  4.959708E+04 -2.821098E+04  4.181003E-09 -1.942783E-09
       113  18  7.984719E+04  5.148755E+05  8.376255E+04 -4.504391E+04  4.090097E-09  3.642327E-09
       113  19 -2.667247E+04  2.435676E+05 -9.056376E+03 -2.505801E+04  6.945844E+03  1.122263E+04
       113  20 -2.640560E+04  2.156575E+05 -5.838563E+03 -8.204397E+03  6.562775E+03  1.677486E+04
       113  21  6.521577E+02  1.951632E+05  7.690241E+03  2.404288E+03  2.067982E+03  2.232450E+04
       113  22 -1.072575E+02  3.550168E+05  1.238546E+04 -2.134065E+04  6.947300E+03  8.850070E+03
       113  23  6.172294E+03  3.508006E+05  2.188027E+04 -1.820652E+04  6.560335E+03  2.022826E+04
       113  24  4.024975E+04  3.550078E+05  4.572855E+04 -2.131671E+04  2.061808E+03  3.160410E+04
       113  25  2.645728E+04  4.664780E+05  3.382676E+04 -1.762260E+04  6.948726E+03  6.477092E+03
       113  26  3.874942E+04  4.859612E+05  4.959822E+04 -2.821086E+04  6.557784E+03  2.368240E+04
       113  27  7.984765E+04  5.148773E+05  8.376569E+04 -4.504384E+04  2.054926E+03  4.088608E+04
       114   1  9.103985E+05  3.291097E+05  1.688448E+05  3.364948E+05  6.553008E+04  1.387811E+04
       114   2  8.632307E+05  2.981024E+05  1.202644E+05  3.216929E+05  4.248879E+04 -2.032402E+04
       114   3  8.172069E+05  2.809297E+05  9.708392E+04  3.130206E+05  1.363411E+04 -3.903809E+04
       114   4  2.666366E+05  8.563077E+04  4.643254E+03  1.575198E+05  6.562927E+03 -8.288222E+03
       114   5  2.688275E+05  7.994456E+04  2.195112E+03  1.551256E+05  1.384534E+04 -3.109722E+04
       114   6  2.661630E+05  8.209641E+04  1.148900E+03  1.588604E+05  1.530743E+04 -3.841284E+04
       114   7 -3.766865E+05 -1.578058E+05 -1.595695E+05 -2.127731E+04 -5.233493E+04 -3.042790E+04
       114   8 -3.251955E+05 -1.381754E+05 -1.158837E+05 -1.128978E+04 -1.476808E+04 -4.185898E+04
       114   9 -2.845583E+05 -1.167067E+05 -9.479488E+04  4.828194E+03  1.697917E+04 -3.778818E+04
       114  10  9.103939E+05  3.291084E+05  1.688363E+05  3.364941E+05 -1.635090E-09 -2.269385E-10
       114  11  8.632286E+05  2.981014E+05  1.202603E+05  3.216936E+05  8.277904E-09 -1.143528E-09
       114  12  8.172063E+05  2.809280E+05  9.708071E+04  3.130210E+05  3.838905E-09 -9.014753E-10
       114  13  2.666366E+05  8.563069E+04  4.643044E+03  1.575198E+05 -4.334768E-09  1.560490E-09
       114  14  2.688271E+05  7.994347E+04  2.192934E+03  1.551260E+05 -2.183634E-09 -1.781502E-09
       114  15  2.661624E+05  8.209476E+04  1.145686E+03  1.588609E+05 -5.482935E-10 -1.756907E-09
       114  16 -3.766897E+05 -1.578075E+05 -1.595764E+05 -2.127859E+04  2.266299E-09  7.664274E-10
       114  17 -3.251962E+05 -1.381773E+05 -1.158874E+05 -1.129028E+04 -4.083276E-09 -3.276196E-09
       114  18 -2.845590E+05 -1.167084E+05 -9.479810E+04  4.828711E+03 -4.369502E-09 -3.985535E-09
       114  19  9.103985E+05  3.291097E+05  1.688448E+05  3.364948E+05 -6.553008E+04 -1.387811E+04
       114  20  8.632307E+05  2.981024E+05  1.202644E+05  3.216929E+05 -4.248879E+04  2.032402E+04
       114  21  8.172069E+05  2.809297E+05  9.708392E+04  3.130206E+05 -1.363411E+04  3.903809E+04
       114  22  2.666366E+05  8.563077E+04  4.643254E+03  1.575198E+05 -6.562927E+03  8.288222E+03
       114  23  2.688275E+05  7.994456E+04  2.195112E+03  1.551256E+05 -1.384534E+04  3.109722E+04
       114  24  2.661630E+05  8.209641E+04  1.148900E+03  1.588604E+05 -1.530743E+04  3.841284E+04
       114  25 -3.766865E+05 -1.578058E+05 -1.595695E+05 -2.127731E+04  5.233493E+04  3.042790E+04
       114  26 -3.251955E+05 -1.381754E+05 -1.158837E+05 -1.128978E+04  1.476808E+04  4.185898E+04
       114  27 -2.845583E+05 -1.167067E+05 -9.479488E+04  4.828194E+03 -1.697917E+04  3.778818E+04
       115   1  7.862816E+05  2.699432E+05  8.975544E+04  3.049597E+05  1.415097E+04 -3.777391E+04
       115   2  7.427335E+05  2.490405E+05  7.809693E+04  2.883365E+05  1.039146E+04 -3.788945E+04
       115   3  6.933187E+05  2.354835E+05  6.910912E+04  2.792051E+05  6.034086E+03 -3.641752E+04
       115   4  2.658640E+05  8.223707E+04  8.569208E+02  1.590214E+05  1.482522E+04 -3.752410E+04
       115   5  2.690993E+05  7.877988E+04  4.466093E+02  1.553131E+05  1.417361E+04 -3.646980E+04
       115   6  2.658518E+05  8.205394E+04  2.470471E+02  1.590963E+05  1.292368E+04 -3.382740E+04
       115   7 -2.542724E+05 -1.054445E+05 -8.805081E+04  1.319561E+04  1.549888E+04 -3.727451E+04
       115   8 -2.042982E+05 -9.145890E+04 -7.720954E+04  2.238393E+04  1.795273E+04 -3.505129E+04
       115   9 -1.614195E+05 -7.135678E+04 -6.861862E+04  3.906497E+04  1.980825E+04 -3.123917E+04
       115  10  7.862810E+05  2.699417E+05  8.975238E+04  3.049601E+05 -4.673143E-09 -3.696157E-09
       115  11  7.427330E+05  2.490389E+05  7.809403E+04  2.883368E+05 -1.908276E-09  3.367225E-09
       115  12  6.933183E+05  2.354821E+05  6.910656E+04  2.792053E+05  3.469636E-09  2.832731E-09
       115  13  2.658633E+05  8.223550E+04  8.538613E+02  1.590218E+05  2.039518E-10 -2.934175E-09
       115  14  2.690987E+05  7.877840E+04  4.437319E+02  1.553135E+05 -1.481333E-09  6.541031E-10
       115  15  2.658513E+05  8.205267E+04  2.445825E+02  1.590967E+05 -3.699575E-09 -2.922365E-10
       115  16 -2.542731E+05 -1.054461E+05 -8.805388E+04  1.319607E+04  3.917836E-09  1.330454E-10
       115  17 -2.042988E+05 -9.146030E+04 -7.721245E+04  2.238444E+04 -7.769417E-10 -3.451744E-10
       115  18 -1.614202E+05 -7.135793E+04 -6.862119E+04  3.906547E+04 -8.606453E-10 -3.190353E-09
       115  19  7.862816E+05  2.699432E+05  8.975544E+04  3.049597E+05 -1.415097E+04  3.777391E+04
       115  20  7.427335E+05  2.490405E+05  7.809693E+04  2.883365E+05 -1.039146E+04  3.788945E+04
       115  21  6.933187E+05  2.354835E+05  6.910912E+04  2.792051E+05 -6.034086E+03  3.641752E+04
       115  22  2.658640E+05  8.223707E+04  8.569208E+02  1.590214E+05 -1.482522E+04  3.752410E+04
       115  23  2.690993E+05  7.877988E+04  4.466093E+02  1.553131E+05 -1.417361E+04  3.646980E+04
       115  24  2.658518E+05  8.205394E+04  2.470471E+02  1.590963E+05 -1.292368E+04  3.382740E+04
       115  25 -2.542724E+05 -1.054445E+05 -8.805081E+04  1.319561E+04 -1.549888E+04  3.727451E+04
       115  26 -2.042982E+05 -9.145890E+04 -7.720954E+04  2.238393E+04 -1.795273E+04  3.505129E+04
       115  27 -1.614195E+05 -7.135678E+04 -6.861862E+04  3.906497E+04 -1.980825E+04  3.123917E+04
       116   1  6.637501E+05  2.248710E+05  6.393863E+04  2.709692E+05  5.317789E+03 -3.429730E+04
       116   2  6.206594E+05  2.048670E+05  5.619674E+04  2.541538E+05  3.613378E+03 -3.088900E+04
       116   3  5.709955E+05  1.915970E+05  4.875105E+04  2.449349E+05  1.847279E+03 -2.731929E+04
       116   4  2.658259E+05  8.207605E+04  1.866318E+02  1.591079E+05  1.210238E+04 -3.174602E+04
       116   5  2.691535E+05  7.874982E+04  1.079337E+02  1.553093E+05  1.071391E+04 -2.821779E+04
       116   6  2.658423E+05  8.209522E+04  7.477359E+01  1.591067E+05  9.263692E+03 -2.452809E+04
       116   7 -1.319239E+05 -6.070077E+04 -6.356706E+04  4.731510E+04  1.888230E+04 -2.919650E+04
       116   8 -8.221959E+04 -4.735445E+04 -5.598305E+04  5.651729E+04  1.781019E+04 -2.554818E+04
       116   9 -3.921433E+04 -2.739815E+04 -4.860403E+04  7.331714E+04  1.667633E+04 -2.173832E+04
       116  10  6.637498E+05  2.248698E+05  6.393637E+04  2.709693E+05 -8.915810E-09 -2.435622E-09
       116  11  6.206591E+05  2.048660E+05  5.619492E+04  2.541539E+05  3.031239E-08  1.225278E-08
       116  12  5.709953E+05  1.915962E+05  4.874964E+04  2.449349E+05  5.379756E-08  2.078849E-08
       116  13  2.658255E+05  8.207493E+04  1.844623E+02  1.591082E+05 -1.372093E-09 -1.521339E-09
       116  14  2.691532E+05  7.874893E+04  1.062214E+02  1.553095E+05 -1.814794E-09  2.834113E-09
       116  15  2.658420E+05  8.209456E+04  7.348154E+01  1.591068E+05 -5.825016E-09  9.161832E-10
       116  16 -1.319245E+05 -6.070178E+04 -6.356933E+04  4.731554E+04  1.509926E-08  5.977819E-09
       116  17 -8.222011E+04 -4.735524E+04 -5.598487E+04  5.651766E+04 -1.976913E-08 -5.519688E-09
       116  18 -3.921475E+04 -2.739873E+04 -4.860544E+04  7.331743E+04 -5.902522E-08 -1.759010E-08
       116  19  6.637501E+05  2.248710E+05  6.393863E+04  2.709692E+05 -5.317789E+03  3.429730E+04
       116  20  6.206594E+05  2.048670E+05  5.619674E+04  2.541538E+05 -3.613378E+03  3.088900E+04
       116  21  5.709955E+05  1.915970E+05  4.875105E+04  2.449349E+05 -1.847279E+03  2.731929E+04
       116  22  2.658259E+05  8.207605E+04  1.866318E+02  1.591079E+05 -1.210238E+04  3.174602E+04
       116  23  2.691535E+05  7.874982E+04  1.079337E+02  1.553093E+05 -1.071391E+04  2.821779E+04
       116  24  2.658423E+05  8.209522E+04  7.477359E+01  1.591067E+05 -9.263692E+03  2.452809E+04
       116  25 -1.319239E+05 -6.070077E+04 -6.356706E+04  4.731510E+04 -1.888230E+04  2.919650E+04
       116  26 -8.221959E+04 -4.735445E+04 -5.598305E+04  5.651729E+04 -1.781019E+04  2.554818E+04
       116  27 -3.921433E+04 -2.739815E+04 -4.860403E+04  7.331714E+04 -1.667633E+04  2.173832E+04
       117   1  5.415940E+05  1.810243E+05  4.383497E+04  2.366873E+05  1.016033E+03 -2.510887E+04
       117   2  4.985983E+05  1.611023E+05  3.654823E+04  2.198592E+05 -4.756787E+02 -2.134166E+04
       117   3  4.489559E+05  1.478509E+05  2.931205E+04  2.106282E+05 -1.973600E+03 -1.755958E+04
       117   4  2.658420E+05  8.210092E+04  6.737268E+01  1.591050E+05  8.419963E+03 -2.232186E+04
       117   5  2.691743E+05  7.877671E+04  7.101075E+01  1.553054E+05  6.957208E+03 -1.854305E+04
       117   6  2.658514E+05  8.211693E+04  1.018636E+02  1.591021E+05  5.488242E+03 -1.474939E+04
       117   7 -9.828074E+03 -1.681443E+04 -4.370137E+04  8.155503E+04  1.582041E+04 -1.953615E+04
       117   8  3.980824E+04 -3.542814E+03 -3.640658E+04  9.077446E+04  1.438714E+04 -1.574556E+04
       117   9  8.278525E+04  1.638738E+04 -2.910813E+04  1.075909E+05  1.294767E+04 -1.194011E+04
       117  10  5.415938E+05  1.810236E+05  4.383378E+04  2.366874E+05 -5.765609E-08 -1.722642E-08
       117  11  4.985982E+05  1.611018E+05  3.654737E+04  2.198592E+05 -1.675493E-08  1.439647E-09
       117  12  4.489558E+05  1.478505E+05  2.931146E+04  2.106282E+05  2.778662E-08  6.481722E-09
       117  13  2.658418E+05  8.210036E+04  6.630294E+01  1.591051E+05 -6.492920E-09  2.724154E-09
       117  14  2.691741E+05  7.877633E+04  7.027352E+01  1.553055E+05  4.488807E-09  3.835977E-09
       117  15  2.658513E+05  8.211669E+04  1.013981E+02  1.591022E+05  8.840937E-10  6.019918E-10
       117  16 -9.828445E+03 -1.681490E+04 -4.370256E+04  8.155528E+04  5.854166E-08  2.442680E-08
       117  17  3.980795E+04 -3.543136E+03 -3.640743E+04  9.077464E+04  2.897023E-08  1.172030E-08
       117  18  8.278503E+04  1.638718E+04 -2.910871E+04  1.075910E+05 -1.640346E-08 -8.219381E-09
       117  19  5.415940E+05  1.810243E+05  4.383497E+04  2.366873E+05 -1.016033E+03  2.510887E+04
       117  20  4.985983E+05  1.611023E+05  3.654823E+04  2.198592E+05  4.756787E+02  2.134166E+04
       117  21  4.489559E+05  1.478509E+05  2.931205E+04  2.106282E+05  1.973600E+03  1.755958E+04
       117  22  2.658420E+05  8.210092E+04  6.737268E+01  1.591050E+05 -8.419963E+03  2.232186E+04
       117  23  2.691743E+05  7.877671E+04  7.101075E+01  1.553054E+05 -6.957208E+03  1.854305E+04
       117  24  2.658514E+05  8.211693E+04  1.018636E+02  1.591021E+05 -5.488242E+03  1.474939E+04
       117  25 -9.828074E+03 -1.681443E+04 -4.370137E+04  8.155503E+04 -1.582041E+04  1.953615E+04
       117  26  3.980824E+04 -3.542814E+03 -3.640658E+04  9.077446E+04 -1.438714E+04  1.574556E+04
       117  27  8.278525E+04  1.638738E+04 -2.910813E+04  1.075909E+05 -1.294767E+04  1.194011E+04
       118   1  4.195904E+05  1.372812E+05  2.445101E+04  2.023841E+05 -2.827344E+03 -1.534576E+04
       118   2  3.766205E+05  1.173643E+05  1.728685E+04  1.855653E+05 -4.358636E+03 -1.157213E+04
       118   3  3.270040E+05  1.041128E+05  1.019480E+04  1.763421E+05 -5.887593E+03 -7.805462E+03
       118   4  2.658568E+05  8.211918E+04  1.288130E+02  1.591026E+05  4.632562E+03 -1.253600E+04
       118   5  2.691810E+05  7.878556E+04  2.211695E+02  1.553055E+05  3.087519E+03 -8.767206E+03
       118   6  2.658599E+05  8.212039E+04  3.966284E+02  1.591034E+05  1.544810E+03 -5.005386E+03
       118   7  1.121470E+05  2.695895E+04 -2.419408E+04  1.158307E+05  1.209060E+04 -9.726942E+03
       118   8  1.617533E+05  4.020786E+04 -1.684467E+04  1.250505E+05  1.053236E+04 -5.962777E+03
       118   9  2.047199E+05  6.012840E+04 -9.401387E+03  1.418664E+05  8.976441E+03 -2.205601E+03
       118  10  4.195904E+05  1.372810E+05  2.445055E+04  2.023841E+05 -6.155520E-09 -5.767638E-09
       118  11  3.766205E+05  1.173641E+05  1.728656E+04  1.855653E+05 -1.039487E-08  4.727205E-09
       118  12  3.270040E+05  1.041127E+05  1.019462E+04  1.763420E+05  7.363365E-10  3.164673E-10
       118  13  2.658568E+05  8.211900E+04  1.284773E+02  1.591027E+05  4.121810E-10 -1.878808E-09
       118  14  2.691810E+05  7.878548E+04  2.210072E+02  1.553056E+05 -3.785476E-09  3.816387E-09
       118  15  2.658599E+05  8.212037E+04  3.965768E+02  1.591034E+05  1.199587E-09  3.432674E-10
       118  16  1.121468E+05  2.695881E+04 -2.419453E+04  1.158308E+05  1.153625E-08  5.591431E-09
       118  17  1.617532E+05  4.020780E+04 -1.684494E+04  1.250506E+05  6.758807E-09  2.979567E-09
       118  18  2.047198E+05  6.012837E+04 -9.401548E+03  1.418665E+05 -2.496425E-09 -2.377829E-09
       118  19  4.195904E+05  1.372812E+05  2.445101E+04  2.023841E+05  2.827344E+03  1.534576E+04
       118  20  3.766205E+05  1.173643E+05  1.728685E+04  1.855653E+05  4.358636E+03  1.157213E+04
       118  21  3.270040E+05  1.041128E+05  1.019480E+04  1.763421E+05  5.887593E+03  7.805462E+03
       118  22  2.658568E+05  8.211918E+04  1.288130E+02  1.591026E+05 -4.632562E+03  1.253600E+04
       118  23  2.691810E+05  7.878556E+04  2.211695E+02  1.553055E+05 -3.087519E+03  8.767206E+03
       118  24  2.658599E+05  8.212039E+04  3.966284E+02  1.591034E+05 -1.544810E+03  5.005386E+03
       118  25  1.121470E+05  2.695895E+04 -2.419408E+04  1.158307E+05 -1.209060E+04  9.726942E+03
       118  26  1.617533E+05  4.020786E+04 -1.684467E+04  1.250505E+05 -1.053236E+04  5.962777E+03
       118  27  2.047199E+05  6.012840E+04 -9.401387E+03  1.418664E+05 -8.976441E+03  2.205601E+03
       119   1  2.976536E+05  9.354945E+04  5.432503E+03  1.681176E+05 -6.802687E+03 -5.620668E+03
       119   2  2.546760E+05  7.362060E+04 -1.460020E+03  1.512892E+05 -8.542502E+03 -1.979317E+03
       119   3  2.051068E+05  6.040973E+04 -8.097769E+03  1.420472E+05 -1.025240E+04  1.582935E+03
       119   4  2.658758E+05  8.211778E+04  5.276041E+02  1.591093E+05  6.342539E+02 -2.818807E+03
       119   5  2.691632E+05  7.878582E+04  9.560208E+02  1.553005E+05 -1.260612E+03  7.640761E+02
       119   6  2.658871E+05  8.220210E+04  1.761731E+03  1.590772E+05 -3.125599E+03  4.267870E+03
       119   7  2.340996E+05  7.068640E+04 -4.376972E+03  1.501015E+05  8.070710E+03 -1.713009E+01
       119   8  2.836508E+05  8.395109E+04  3.372284E+03  1.593120E+05  6.021459E+03  3.507536E+03
       119   9  3.266722E+05  1.039951E+05  1.162156E+04  1.761090E+05  4.002022E+03  6.953112E+03
       119  10  2.976535E+05  9.354941E+04  5.432357E+03  1.681176E+05 -4.577667E-09 -2.535855E-09
       119  11  2.546759E+05  7.362058E+04 -1.460164E+03  1.512891E+05 -6.623485E-09 -5.782227E-10
       119  12  2.051067E+05  6.040970E+04 -8.097971E+03  1.420472E+05 -3.151307E-09  1.559719E-09
       119  13  2.658758E+05  8.211777E+04  5.275884E+02  1.591093E+05 -2.025575E-09 -3.576489E-09
       119  14  2.691632E+05  7.878581E+04  9.560167E+02  1.553005E+05 -5.305846E-10  8.195395E-10
       119  15  2.658871E+05  8.220207E+04  1.761678E+03  1.590772E+05  1.808327E-09  2.323899E-09
       119  16  2.340995E+05  7.068638E+04 -4.377095E+03  1.501015E+05  3.329541E-09  2.250228E-09
       119  17  2.836507E+05  8.395107E+04  3.372192E+03  1.593119E+05  7.152171E-10 -2.759984E-09
       119  18  3.266722E+05  1.039951E+05  1.162144E+04  1.761089E+05 -1.259435E-09  1.927978E-09
       119  19  2.976536E+05  9.354945E+04  5.432503E+03  1.681176E+05  6.802687E+03  5.620668E+03
       119  20  2.546760E+05  7.362060E+04 -1.460020E+03  1.512892E+05  8.542502E+03  1.979317E+03
       119  21  2.051068E+05  6.040973E+04 -8.097769E+03  1.420472E+05  1.025240E+04 -1.582935E+03
       119  22  2.658758E+05  8.211778E+04  5.276041E+02  1.591093E+05 -6.342539E+02  2.818807E+03
       119  23  2.691632E+05  7.878582E+04  9.560208E+02  1.553005E+05  1.260612E+03 -7.640761E+02
       119  24  2.658871E+05  8.220210E+04  1.761731E+03  1.590772E+05  3.125599E+03 -4.267870E+03
       119  25  2.340996E+05  7.068640E+04 -4.376972E+03  1.501015E+05 -8.070710E+03  1.713009E+01
       119  26  2.836508E+05  8.395109E+04  3.372284E+03  1.593120E+05 -6.021459E+03 -3.507536E+03
       119  27  3.266722E+05  1.039951E+05  1.162156E+04  1.761090E+05 -4.002022E+03 -6.953112E+03
       120   1  1.757175E+05  4.992610E+04 -1.249478E+04  1.339644E+05 -1.143523E+04  3.601252E+03
       120   2  1.330970E+05  2.983106E+04 -1.849940E+04  1.164288E+05 -1.334826E+04  6.630540E+03
       120   3  8.434140E+04  1.739824E+04 -2.371674E+04  1.061888E+05 -1.497010E+04  8.887716E+03
       120   4  2.660098E+05  8.220674E+04  2.353901E+03  1.591119E+05 -4.258538E+03  6.304863E+03
       120   5  2.690754E+05  7.927319E+04  4.337042E+03  1.550693E+05 -7.682286E+03  8.764661E+03
       120   6  2.663025E+05  8.430044E+04  8.303933E+03  1.583213E+05 -1.081491E+04  1.045243E+04
       120   7  3.563109E+05  1.144882E+05  1.720261E+04  1.842627E+05  2.919255E+03  9.008883E+03
       120   8  4.050727E+05  1.287170E+05  2.717292E+04  1.937176E+05 -2.015023E+03  1.089928E+04
       120   9  4.482966E+05  1.512054E+05  4.032306E+04  2.104675E+05 -6.658463E+03  1.201762E+04
       120  10  1.757173E+05  4.992605E+04 -1.249505E+04  1.339645E+05 -2.132812E-09  4.048542E-09
       120  11  1.330968E+05  2.983096E+04 -1.849982E+04  1.164289E+05  1.560886E-09  2.839664E-09
       120  12  8.434114E+04  1.739809E+04 -2.371731E+04  1.061889E+05  1.041482E-08  2.175305E-09
       120  13  2.660098E+05  8.220669E+04  2.353792E+03  1.591119E+05 -1.165294E-09 -1.667558E-09
       120  14  2.690753E+05  7.927310E+04  4.336786E+03  1.550694E+05 -8.644372E-10  7.859102E-09
       120  15  2.663024E+05  8.430029E+04  8.303508E+03  1.583213E+05  1.805534E-09 -1.498836E-09
       120  16  3.563109E+05  1.144881E+05  1.720244E+04  1.842627E+05 -2.761915E-10  1.554142E-09
       120  17  4.050727E+05  1.287169E+05  2.717269E+04  1.937176E+05 -1.050657E-09 -1.176088E-09
       120  18  4.482965E+05  1.512052E+05  4.032270E+04  2.104676E+05 -8.447455E-09 -4.230474E-09
       120  19  1.757175E+05  4.992610E+04 -1.249478E+04  1.339644E+05  1.143523E+04 -3.601252E+03
       120  20  1.330970E+05  2.983106E+04 -1.849940E+04  1.164288E+05  1.334826E+04 -6.630540E+03
       120  21  8.434140E+04  1.739824E+04 -2.371674E+04  1.061888E+05  1.497010E+04 -8.887716E+03
       120  22  2.660098E+05  8.220674E+04  2.353901E+03  1.591119E+05  4.258538E+03 -6.304863E+03
       120  23  2.690754E+05  7.927319E+04  4.337042E+03  1.550693E+05  7.682286E+03 -8.764661E+03
       120  24  2.663025E+05  8.430044E+04  8.303933E+03  1.583213E+05  1.081491E+04 -1.045243E+04
       120  25  3.563109E+05  1.144882E+05  1.720261E+04  1.842627E+05 -2.919255E+03 -9.008883E+03
       120  26  4.050727E+05  1.287170E+05  2.717292E+04  1.937176E+05  2.015023E+03 -1.089928E+04
       120  27  4.482966E+05  1.512054E+05  4.032306E+04  2.104675E+05  6.658463E+03 -1.201762E+04
       121   1  5.446884E+04  8.205424E+03 -2.681188E+04  9.971510E+04 -1.730781E+04  9.828695E+03
       121   2  1.961881E+04 -1.424327E+04 -3.107902E+04  6.939957E+04 -1.311546E+04  9.820908E+03
       121   3 -1.563950E+04 -1.388794E+04 -3.348423E+04  4.147547E+04 -6.089415E+03  2.284784E+03
       121   4  2.676412E+05  8.463768E+04  1.113176E+04  1.585886E+05 -1.266887E+04  1.157543E+04
       121   5  2.688049E+05  8.885088E+04  2.133803E+04  1.509616E+05 -2.319724E+04  6.023297E+03
       121   6  2.724720E+05  1.187788E+05  4.506799E+04  1.457265E+05 -3.089285E+04 -7.055430E+03
       121   7  4.808652E+05  1.610755E+05  4.907499E+04  2.174817E+05 -8.028144E+03  1.332282E+04
       121   8  5.180552E+05  1.919552E+05  7.375203E+04  2.325555E+05 -3.328332E+04  2.223576E+03
       121   9  5.606612E+05  2.514615E+05  1.236136E+05  2.500236E+05 -5.570829E+04 -1.640264E+04
       121  10  5.446849E+04  8.205240E+03 -2.681263E+04  9.971524E+04  4.881226E-09 -4.441935E-09
       121  11  1.961860E+04 -1.424342E+04 -3.107953E+04  6.939968E+04  1.870861E-09 -1.657499E-09
       121  12 -1.563954E+04 -1.388796E+04 -3.348431E+04  4.147548E+04 -2.592848E-09 -1.509734E-09
       121  13  2.676410E+05  8.463750E+04  1.113121E+04  1.585887E+05 -6.741152E-10 -3.630922E-09
       121  14  2.688044E+05  8.885070E+04  2.133695E+04  1.509617E+05  1.640708E-09 -2.712809E-09
       121  15  2.724710E+05  1.187785E+05  4.506610E+04  1.457263E+05 -4.431307E-09  3.444754E-10
       121  16  4.808651E+05  1.610752E+05  4.907453E+04  2.174818E+05 -4.621728E-09 -1.348355E-10
       121  17  5.180540E+05  1.919549E+05  7.374994E+04  2.325555E+05 -5.572765E-09 -1.872711E-09
       121  18  5.606578E+05  2.514603E+05  1.236073E+05  2.500228E+05  2.363570E-09 -1.999562E-10
       121  19  5.446884E+04  8.205424E+03 -2.681188E+04  9.971510E+04  1.730781E+04 -9.828695E+03
       121  20  1.961881E+04 -1.424327E+04 -3.107902E+04  6.939957E+04  1.311546E+04 -9.820908E+03
       121  21 -1.563950E+04 -1.388794E+04 -3.348423E+04  4.147547E+04  6.089415E+03 -2.284784E+03
       121  22  2.676412E+05  8.463768E+04  1.113176E+04  1.585886E+05  1.266887E+04 -1.157543E+04
       121  23  2.688049E+05  8.885088E+04  2.133803E+04  1.509616E+05  2.319724E+04 -6.023297E+03
       121  24  2.724720E+05  1.187788E+05  4.506799E+04  1.457265E+05  3.089285E+04  7.055430E+03
       121  25  4.808652E+05  1.610755E+05  4.907499E+04  2.174817E+05  8.028144E+03 -1.332282E+04
       121  26  5.180552E+05  1.919552E+05  7.375203E+04  2.325555E+05  3.328332E+04 -2.223576E+03
       121  27  5.606612E+05  2.514615E+05  1.236136E+05  2.500236E+05  5.570829E+04  1.640264E+04
       122   1 -2.288319E+05 -1.172193E+06 -2.692144E+05  6.039234E+04 -2.370290E+03 -1.190715E+05
       122   2 -5.016887E+04 -1.093013E+06 -1.574495E+05  7.542330E+03 -6.929445E+03 -7.335071E+04
       122   3 -6.195473E+04 -1.066933E+06 -1.230076E+05  1.774795E+04 -4.776644E+03 -2.761659E+04
       122   4 -1.372319E+05 -8.062731E+05 -1.781218E+05  3.108723E+04 -2.368522E+03 -1.166709E+05
       122   5  2.793340E+04 -7.798913E+05 -8.050600E+04 -3.297844E+02 -6.928766E+03 -7.301885E+04
       122   6  3.060837E+03 -8.062240E+05 -5.874328E+04  3.130986E+04 -4.775378E+03 -2.935751E+04
       122   7 -4.563880E+04 -4.402294E+05 -8.703874E+04  1.764846E+03 -2.366983E+03 -1.142689E+05
       122   8  1.060286E+05 -4.666805E+05 -3.569729E+03 -8.205853E+03 -6.928096E+03 -7.268682E+04
       122   9  6.807204E+04 -5.454529E+05  5.516163E+03  4.487750E+04 -4.774189E+03 -3.109916E+04
       122  10 -2.288357E+05 -1.172209E+06 -2.692411E+05  6.039211E+04 -9.024346E-11  3.799951E-09
       122  11 -5.017037E+04 -1.093018E+06 -1.574597E+05  7.541921E+03 -5.630598E-10  2.369032E-09
       122  12 -6.195496E+04 -1.066934E+06 -1.230091E+05  1.774784E+04 -2.417586E-09  8.415687E-11
       122  13 -1.372356E+05 -8.062878E+05 -1.781474E+05  3.108700E+04  1.347006E-09  7.248280E-11
       122  14  2.793192E+04 -7.798971E+05 -8.051612E+04 -3.301920E+02 -3.259083E-09  7.905290E-09
       122  15  3.060581E+03 -8.062249E+05 -5.874494E+04  3.130975E+04  4.383170E-10 -6.707581E-10
       122  16 -4.564231E+04 -4.402434E+05 -8.706330E+04  1.764628E+03  9.979023E-10 -1.356426E-09
       122  17  1.060271E+05 -4.666862E+05 -3.579756E+03 -8.206259E+03  1.110471E-09 -1.723858E-09
       122  18  6.807175E+04 -5.454539E+05  5.514301E+03  4.487738E+04 -1.813803E-09  3.164937E-10
       122  19 -2.288319E+05 -1.172193E+06 -2.692144E+05  6.039234E+04  2.370290E+03  1.190715E+05
       122  20 -5.016887E+04 -1.093013E+06 -1.574495E+05  7.542330E+03  6.929445E+03  7.335071E+04
       122  21 -6.195473E+04 -1.066933E+06 -1.230076E+05  1.774795E+04  4.776644E+03  2.761659E+04
       122  22 -1.372319E+05 -8.062731E+05 -1.781218E+05  3.108723E+04  2.368522E+03  1.166709E+05
       122  23  2.793340E+04 -7.798913E+05 -8.050600E+04 -3.297844E+02  6.928766E+03  7.301885E+04
       122  24  3.060837E+03 -8.062240E+05 -5.874328E+04  3.130986E+04  4.775378E+03  2.935751E+04
       122  25 -4.563880E+04 -4.402294E+05 -8.703874E+04  1.764846E+03  2.366983E+03  1.142689E+05
       122  26  1.060286E+05 -4.666805E+05 -3.569729E+03 -8.205853E+03  6.928096E+03  7.268682E+04
       122  27  6.807204E+04 -5.454529E+05  5.516163E+03  4.487750E+04  4.774189E+03  3.109916E+04
       123   1 -4.823432E+04 -9.209031E+05 -8.316448E+04  3.729892E+04 -2.585241E+03 -1.911720E+04
       123   2 -9.519057E+03 -8.592001E+05 -5.776830E+04 -8.204494E+02 -1.411696E+03  2.165413E+03
       123   3 -2.301362E+04 -8.131703E+05 -5.926256E+04  2.591042E+04  1.680459E+01  2.344976E+04
       123   4 -1.756818E+04 -7.979853E+05 -5.293076E+04  3.163473E+04 -2.584736E+03 -1.945142E+04
       123   5  7.700513E+03 -7.901556E+05 -4.077739E+04 -7.900715E+02 -1.411334E+03  1.754542E+03
       123   6 -1.922394E+04 -7.979865E+05 -5.545841E+04  3.163540E+04  1.739422E+01  2.296040E+04
       123   7  1.309695E+04 -6.750538E+05 -2.269813E+04  2.596943E+04 -2.584226E+03 -1.978571E+04
       123   8  2.491973E+04 -7.211066E+05 -2.378684E+04 -7.596894E+02 -1.410972E+03  1.343625E+03
       123   9 -1.543416E+04 -7.828025E+05 -5.165426E+04  3.736053E+04  1.797480E+01  2.247103E+04
       123  10 -4.823442E+04 -9.209035E+05 -8.316518E+04  3.729888E+04  1.364065E-09  3.070979E-09
       123  11 -9.519060E+03 -8.592001E+05 -5.776831E+04 -8.204469E+02 -1.507685E-10  6.348131E-10
       123  12 -2.301377E+04 -8.131709E+05 -5.926359E+04  2.591042E+04  2.438067E-09 -1.567978E-09
       123  13 -1.756829E+04 -7.979857E+05 -5.293148E+04  3.163469E+04  2.486808E-09  5.554889E-10
       123  14  7.700510E+03 -7.901556E+05 -4.077740E+04 -7.900695E+02  8.258556E-09  5.117145E-09
       123  15 -1.922409E+04 -7.979871E+05 -5.545940E+04  3.163540E+04 -6.813318E-10 -1.246900E-09
       123  16  1.309684E+04 -6.750542E+05 -2.269887E+04  2.596938E+04 -8.798614E-10 -9.972273E-10
       123  17  2.491972E+04 -7.211066E+05 -2.378685E+04 -7.596878E+02  3.468203E-09 -1.258609E-09
       123  18 -1.543430E+04 -7.828030E+05 -5.165521E+04  3.736053E+04  1.333745E-09  1.218421E-09
       123  19 -4.823432E+04 -9.209031E+05 -8.316448E+04  3.729892E+04  2.585241E+03  1.911720E+04
       123  20 -9.519057E+03 -8.592001E+05 -5.776830E+04 -8.204494E+02  1.411696E+03 -2.165413E+03
       123  21 -2.301362E+04 -8.131703E+05 -5.926256E+04  2.591042E+04 -1.680459E+01 -2.344976E+04
       123  22 -1.756818E+04 -7.979853E+05 -5.293076E+04  3.163473E+04  2.584736E+03  1.945142E+04
       123  23  7.700513E+03 -7.901556E+05 -4.077739E+04 -7.900715E+02  1.411334E+03 -1.754542E+03
       123  24 -1.922394E+04 -7.979865E+05 -5.545841E+04  3.163540E+04 -1.739422E+01 -2.296040E+04
       123  25  1.309695E+04 -6.750538E+05 -2.269813E+04  2.596943E+04  2.584226E+03  1.978571E+04
       123  26  2.491973E+04 -7.211066E+05 -2.378684E+04 -7.596894E+02  1.410972E+03 -1.343625E+03
       123  27 -1.543416E+04 -7.828025E+05 -5.165426E+04  3.736053E+04 -1.797480E+01 -2.247103E+04
       124   1  3.464489E+04 -6.834932E+05 -3.172435E+04  4.638100E+04  1.944523E+03  3.477192E+04
       124   2  7.450629E+04 -6.014123E+05 -4.335789E+04 -9.011623E+03  3.983561E+03  8.048863E+04
       124   3 -9.153803E+04 -5.765129E+05 -1.361897E+05 -1.872334E+02  1.431717E+03  1.262050E+05
       124   4  3.786232E+03 -8.072646E+05 -6.228690E+04  3.155422E+04  1.944798E+03  3.340287E+04
       124   5  3.032938E+04 -7.785657E+05 -8.685995E+04 -6.420737E+02  3.984656E+03  8.053787E+04
       124   6 -1.493141E+05 -8.073186E+05 -1.936361E+05  3.138044E+04  1.436473E+03  1.276684E+05
       124   7 -2.707274E+04 -9.310216E+05 -9.285045E+04  1.673040E+04  1.945138E+03  3.203410E+04
       124   8 -1.384960E+04 -9.556904E+05 -1.303643E+05  7.725088E+03  3.985752E+03  8.058709E+04
       124   9 -2.070905E+05 -1.038074E+06 -2.510859E+05  6.293638E+04  1.441380E+03  1.291314E+05
       124  10  3.464457E+04 -6.834945E+05 -3.172663E+04  4.638095E+04 -5.404256E-10  3.620939E-09
       124  11  7.450453E+04 -6.014193E+05 -4.337011E+04 -9.011881E+03 -1.283587E-09  3.551819E-09
       124  12 -9.154231E+04 -5.765300E+05 -1.362197E+05 -1.873790E+02 -1.544394E-09  2.071755E-09
       124  13  3.785928E+03 -8.072658E+05 -6.228900E+04  3.155416E+04 -2.416419E-09  5.873321E-11
       124  14  3.032762E+04 -7.785727E+05 -8.687218E+04 -6.423322E+02 -1.043155E-09  4.736486E-09
       124  15 -1.493185E+05 -8.073362E+05 -1.936667E+05  3.138030E+04  2.378453E-09 -4.029821E-10
       124  16 -2.707302E+04 -9.310227E+05 -9.285239E+04  1.673035E+04 -3.045642E-09 -1.841022E-09
       124  17 -1.385137E+04 -9.556974E+05 -1.303765E+05  7.724829E+03 -4.080369E-09 -3.806437E-09
       124  18 -2.070949E+05 -1.038092E+06 -2.511173E+05  6.293623E+04 -2.607589E-09 -1.572774E-09
       124  19  3.464489E+04 -6.834932E+05 -3.172435E+04  4.638100E+04 -1.944523E+03 -3.477192E+04
       124  20  7.450629E+04 -6.014123E+05 -4.335789E+04 -9.011623E+03 -3.983561E+03 -8.048863E+04
       124  21 -9.153803E+04 -5.765129E+05 -1.361897E+05 -1.872334E+02 -1.431717E+03 -1.262050E+05
       124  22  3.786232E+03 -8.072646E+05 -6.228690E+04  3.155422E+04 -1.944798E+03 -3.340287E+04
       124  23  3.032938E+04 -7.785657E+05 -8.685995E+04 -6.420737E+02 -3.984656E+03 -8.053787E+04
       124  24 -1.493141E+05 -8.073186E+05 -1.936361E+05  3.138044E+04 -1.436473E+03 -1.276684E+05
       124  25 -2.707274E+04 -9.310216E+05 -9.285045E+04  1.673040E+04 -1.945138E+03 -3.203410E+04
       124  26 -1.384960E+04 -9.556904E+05 -1.303643E+05  7.725088E+03 -3.985752E+03 -8.058709E+04
       124  27 -2.070905E+05 -1.038074E+06 -2.510859E+05  6.293638E+04 -1.441380E+03 -1.291314E+05
       125   1  3.633197E+05  1.211311E+05  7.606355E+04  1.335273E+05  4.159736E+04  1.517483E+04
       125   2  3.498125E+05  5.610525E+04  3.623408E+04  1.368599E+05  2.669991E+04  8.632149E+03
       125   3  3.557911E+05  5.332105E+04  2.359134E+04  1.301095E+05  1.137905E+04  3.213018E+03
       125   4  3.299718E+05  9.417181E+04  6.416423E+04  1.097119E+05  4.091751E+04  1.491729E+04
       125   5  3.169462E+05  3.960197E+04  2.680693E+04  1.236173E+05  2.657624E+04  8.585295E+03
       125   6  3.232975E+05  4.716501E+04  1.619695E+04  1.274394E+05  1.181145E+04  3.376206E+03
       125   7  2.966258E+05  6.721455E+04  5.226497E+04  8.589828E+04  4.023770E+04  1.465981E+04
       125   8  2.840810E+05  2.309908E+04  1.737971E+04  1.103755E+05  2.645259E+04  8.538447E+03
       125   9  2.908048E+05  4.100893E+04  8.802492E+03  1.247693E+05  1.224383E+04  3.539396E+03
       125  10  3.633178E+05  1.211304E+05  7.605986E+04  1.335268E+05 -3.497068E-10  3.411757E-09
       125  11  3.498117E+05  5.610498E+04  3.623260E+04  1.368597E+05  1.431666E-09  7.765893E-10
       125  12  3.557909E+05  5.332101E+04  2.359108E+04  1.301095E+05  1.917258E-10  6.720050E-09
       125  13  3.299699E+05  9.417112E+04  6.416066E+04  1.097114E+05  1.247243E-10 -3.069383E-09
       125  14  3.169454E+05  3.960170E+04  2.680547E+04  1.236171E+05 -3.837550E-09 -7.075734E-09
       125  15  3.232973E+05  4.716496E+04  1.619667E+04  1.274393E+05  1.479780E-09  1.269666E-10
       125  16  2.966240E+05  6.721388E+04  5.226153E+04  8.589781E+04 -8.363838E-10 -2.000495E-10
       125  17  2.840803E+05  2.309881E+04  1.737825E+04  1.103753E+05  4.857175E-10  3.566073E-09
       125  18  2.908046E+05  4.100887E+04  8.802187E+03  1.247692E+05 -1.623421E-09 -1.119918E-09
       125  19  3.633197E+05  1.211311E+05  7.606355E+04  1.335273E+05 -4.159736E+04 -1.517483E+04
       125  20  3.498125E+05  5.610525E+04  3.623408E+04  1.368599E+05 -2.669991E+04 -8.632149E+03
       125  21  3.557911E+05  5.332105E+04  2.359134E+04  1.301095E+05 -1.137905E+04 -3.213018E+03
       125  22  3.299718E+05  9.417181E+04  6.416423E+04  1.097119E+05 -4.091751E+04 -1.491729E+04
       125  23  3.169462E+05  3.960197E+04  2.680693E+04  1.236173E+05 -2.657624E+04 -8.585295E+03
       125  24  3.232975E+05  4.716501E+04  1.619695E+04  1.274394E+05 -1.181145E+04 -3.376206E+03
       125  25  2.966258E+05  6.721455E+04  5.226497E+04  8.589828E+04 -4.023770E+04 -1.465981E+04
       125  26  2.840810E+05  2.309908E+04  1.737971E+04  1.103755E+05 -2.645259E+04 -8.538447E+03
       125  27  2.908048E+05  4.100893E+04  8.802492E+03  1.247693E+05 -1.224383E+04 -3.539396E+03
       126   1  3.375304E+05  6.130691E+04  1.772950E+04  1.295214E+05  9.277304E+03  2.832718E+03
       126   2  3.309128E+05  4.984355E+04  8.843792E+03  1.257784E+05  5.846842E+03  1.832237E+03
       126   3  3.227500E+05  4.893678E+04  4.137477E+03  1.254226E+05  2.384082E+03  9.176293E+02
       126   4  3.212129E+05  5.376764E+04  1.316538E+04  1.236201E+05  9.382886E+03  2.872507E+03
       126   5  3.216348E+05  4.599299E+04  6.334024E+03  1.228697E+05  5.994963E+03  1.888089E+03
       126   6  3.205030E+05  4.876654E+04  3.648451E+03  1.255066E+05  2.574706E+03  9.895192E+02
       126   7  3.048957E+05  4.622842E+04  8.601236E+03  1.177188E+05  9.488466E+03  2.912293E+03
       126   8  3.123569E+05  4.214245E+04  3.824252E+03  1.199611E+05  6.143081E+03  1.943941E+03
       126   9  3.182560E+05  4.859630E+04  3.159428E+03  1.255905E+05  2.765327E+03  1.061409E+03
       126  10  3.375303E+05  6.130688E+04  1.772932E+04  1.295214E+05 -2.712513E-10  4.409964E-09
       126  11  3.309128E+05  4.984353E+04  8.843722E+03  1.257784E+05 -6.668978E-10  5.603230E-10
       126  12  3.227500E+05  4.893678E+04  4.137464E+03  1.254226E+05 -1.196303E-09  2.527568E-09
       126  13  3.212128E+05  5.376760E+04  1.316520E+04  1.236200E+05 -6.895185E-10  2.376115E-09
       126  14  3.216348E+05  4.599297E+04  6.333950E+03  1.228697E+05 -3.971392E-09 -7.657977E-09
       126  15  3.205030E+05  4.876654E+04  3.648437E+03  1.255066E+05 -2.050034E-09  1.117862E-09
       126  16  3.048956E+05  4.622839E+04  8.601051E+03  1.177188E+05 -3.800451E-09 -2.588408E-09
       126  17  3.123568E+05  4.214243E+04  3.824174E+03  1.199611E+05 -1.411526E-09 -1.411109E-09
       126  18  3.182560E+05  4.859630E+04  3.159411E+03  1.255905E+05  1.753305E-11  6.034844E-09
       126  19  3.375304E+05  6.130691E+04  1.772950E+04  1.295214E+05 -9.277304E+03 -2.832718E+03
       126  20  3.309128E+05  4.984355E+04  8.843792E+03  1.257784E+05 -5.846842E+03 -1.832237E+03
       126  21  3.227500E+05  4.893678E+04  4.137477E+03  1.254226E+05 -2.384082E+03 -9.176293E+02
       126  22  3.212129E+05  5.376764E+04  1.316538E+04  1.236201E+05 -9.382886E+03 -2.872507E+03
       126  23  3.216348E+05  4.599299E+04  6.334024E+03  1.228697E+05 -5.994963E+03 -1.888089E+03
       126  24  3.205030E+05  4.876654E+04  3.648451E+03  1.255066E+05 -2.574706E+03 -9.895192E+02
       126  25  3.048957E+05  4.622842E+04  8.601236E+03  1.177188E+05 -9.488466E+03 -2.912293E+03
       126  26  3.123569E+05  4.214245E+04  3.824252E+03  1.199611E+05 -6.143081E+03 -1.943941E+03
       126  27  3.182560E+05  4.859630E+04  3.159428E+03  1.255905E+05 -2.765327E+03 -1.061409E+03
       127   1  3.111827E+05  4.615618E+04  4.583426E+02  1.227289E+05  1.804158E+03  9.421619E+02
       127   2  3.054096E+05  4.039600E+04 -2.925218E+03  1.182227E+05  9.175923E+02  9.943507E+02
       127   3  2.956626E+05  3.963113E+04 -5.563301E+03  1.184904E+05  2.837831E+01  1.053602E+03
       127   4  3.202382E+05  4.945485E+04  2.847549E+03  1.250897E+05  1.969813E+03  1.004632E+03
       127   5  3.221883E+05  4.669558E+04  1.488772E+03  1.228015E+05  1.086731E+03  1.058131E+03
       127   6  3.201639E+05  4.893097E+04  8.727603E+02  1.252873E+05  2.009908E+02  1.118690E+03
       127   7  3.292939E+05  5.275355E+04  5.236756E+03  1.274505E+05  2.135472E+03  1.067103E+03
       127   8  3.389673E+05  5.299519E+04  5.902746E+03  1.273805E+05  1.255875E+03  1.121914E+03
       127   9  3.446658E+05  5.823087E+04  7.308772E+03  1.320844E+05  3.736107E+02  1.183780E+03
       127  10  3.111827E+05  4.615617E+04  4.583348E+02  1.227289E+05 -3.177208E-09  2.321719E-09
       127  11  3.054096E+05  4.039600E+04 -2.925222E+03  1.182227E+05 -8.329324E-10  4.173037E-09
       127  12  2.956626E+05  3.963112E+04 -5.563304E+03  1.184904E+05 -3.552584E-09  1.792606E-09
       127  13  3.202382E+05  4.945485E+04  2.847540E+03  1.250897E+05  1.494964E-09  3.106046E-09
       127  14  3.221883E+05  4.669558E+04  1.488768E+03  1.228015E+05  3.117342E-09 -6.431295E-10
       127  15  3.201639E+05  4.893097E+04  8.727578E+02  1.252873E+05  2.766577E-09 -1.142466E-09
       127  16  3.292939E+05  5.275354E+04  5.236745E+03  1.274505E+05 -3.367460E-09  2.647987E-09
       127  17  3.389673E+05  5.299519E+04  5.902740E+03  1.273805E+05 -3.095635E-09 -1.596307E-09
       127  18  3.446658E+05  5.823086E+04  7.308769E+03  1.320844E+05  4.983431E-09  2.300808E-09
       127  19  3.111827E+05  4.615618E+04  4.583426E+02  1.227289E+05 -1.804158E+03 -9.421619E+02
       127  20  3.054096E+05  4.039600E+04 -2.925218E+03  1.182227E+05 -9.175923E+02 -9.943507E+02
       127  21  2.956626E+05  3.963113E+04 -5.563301E+03  1.184904E+05 -2.837831E+01 -1.053602E+03
       127  22  3.202382E+05  4.945485E+04  2.847549E+03  1.250897E+05 -1.969813E+03 -1.004632E+03
       127  23  3.221883E+05  4.669558E+04  1.488772E+03  1.228015E+05 -1.086731E+03 -1.058131E+03
       127  24  3.201639E+05  4.893097E+04  8.727603E+02  1.252873E+05 -2.009908E+02 -1.118690E+03
       127  25  3.292939E+05  5.275355E+04  5.236756E+03  1.274505E+05 -2.135472E+03 -1.067103E+03
       127  26  3.389673E+05  5.299519E+04  5.902746E+03  1.273805E+05 -1.255875E+03 -1.121914E+03
       127  27  3.446658E+05  5.823087E+04  7.308772E+03  1.320844E+05 -3.736107E+02 -1.183780E+03
       128   1  2.848029E+05  3.570678E+04 -8.631602E+03  1.155791E+05 -1.750993E+02  1.207985E+03
       128   2  2.791036E+05  3.051285E+04 -1.090195E+04  1.109616E+05 -5.376926E+02  1.466950E+03
       128   3  2.691186E+05  2.975479E+04 -1.297686E+04  1.112834E+05 -9.008796E+02  1.727620E+03
       128   4  3.201228E+05  4.900534E+04  6.956841E+02  1.252491E+05 -4.159929E+00  1.272436E+03
       128   5  3.222624E+05  4.676450E+04  4.609286E+02  1.227881E+05 -3.659283E+02  1.531703E+03
       128   6  3.201161E+05  4.895931E+04  4.209570E+02  1.252663E+05 -7.282944E+02  1.792674E+03
       128   7  3.554437E+05  6.230394E+04  1.002284E+04  1.349195E+05  1.667896E+02  1.336892E+03
       128   8  3.654229E+05  6.301627E+04  1.182365E+04  1.346154E+05 -1.941509E+02  1.596461E+03
       128   9  3.711161E+05  6.816405E+04  1.381859E+04  1.392504E+05 -5.556932E+02  1.857734E+03
       128  10  2.848029E+05  3.570677E+04 -8.631605E+03  1.155791E+05 -4.733622E-09 -5.809165E-09
       128  11  2.791036E+05  3.051285E+04 -1.090195E+04  1.109616E+05 -2.624822E-09 -4.613903E-09
       128  12  2.691186E+05  2.975479E+04 -1.297687E+04  1.112834E+05  5.944653E-09 -7.370221E-09
       128  13  3.201228E+05  4.900534E+04  6.956811E+02  1.252491E+05  1.877744E-09 -2.302350E-09
       128  14  3.222624E+05  4.676450E+04  4.609240E+02  1.227881E+05  3.195088E-09 -5.608402E-09
       128  15  3.201160E+05  4.895931E+04  4.209500E+02  1.252663E+05  5.869424E-10 -8.299196E-09
       128  16  3.554437E+05  6.230394E+04  1.002283E+04  1.349195E+05  7.628461E-09  8.804382E-10
       128  17  3.654229E+05  6.301627E+04  1.182364E+04  1.346154E+05 -1.508304E-09 -5.573095E-10
       128  18  3.711161E+05  6.816405E+04  1.381859E+04  1.392504E+05 -4.586619E-09 -5.284850E-09
       128  19  2.848029E+05  3.570678E+04 -8.631602E+03  1.155791E+05  1.750993E+02 -1.207985E+03
       128  20  2.791036E+05  3.051285E+04 -1.090195E+04  1.109616E+05  5.376926E+02 -1.466950E+03
       128  21  2.691186E+05  2.975479E+04 -1.297686E+04  1.112834E+05  9.008796E+02 -1.727620E+03
       128  22  3.201228E+05  4.900534E+04  6.956841E+02  1.252491E+05  4.159929E+00 -1.272436E+03
       128  23  3.222624E+05  4.676450E+04  4.609286E+02  1.227881E+05  3.659283E+02 -1.531703E+03
       128  24  3.201161E+05  4.895931E+04  4.209570E+02  1.252663E+05  7.282944E+02 -1.792674E+03
       128  25  3.554437E+05  6.230394E+04  1.002284E+04  1.349195E+05 -1.667896E+02 -1.336892E+03
       128  26  3.654229E+05  6.301627E+04  1.182365E+04  1.346154E+05  1.941509E+02 -1.596461E+03
       128  27  3.711161E+05  6.816405E+04  1.381859E+04  1.392504E+05  5.556932E+02 -1.857734E+03
       129   1  2.582420E+05  2.568259E+04 -1.586265E+04  1.083500E+05 -1.050583E+03  1.903636E+03
       129   2  2.524722E+05  2.046962E+04 -1.773648E+04  1.036552E+05 -1.503100E+03  2.133384E+03
       129   3  2.424000E+05  1.978743E+04 -1.933610E+04  1.039524E+05 -1.955728E+03  2.363646E+03
       129   4  3.201101E+05  4.896695E+04  4.526900E+02  1.252830E+05 -8.773536E+02  1.968924E+03
       129   5  3.222671E+05  4.674276E+04  6.378096E+02  1.227715E+05 -1.329661E+03  2.198736E+03
       129   6  3.201216E+05  4.904926E+04  1.096933E+03  1.252519E+05 -1.782085E+03  2.429059E+03
       129   7  3.819819E+05  7.225155E+04  1.676770E+04  1.422176E+05 -7.041047E+02  2.034219E+03
       129   8  3.920667E+05  7.301616E+04  1.901165E+04  1.418897E+05 -1.156201E+03  2.264095E+03
       129   9  3.978488E+05  7.831139E+04  2.152939E+04  1.465538E+05 -1.608418E+03  2.494481E+03
       129  10  2.582420E+05  2.568259E+04 -1.586266E+04  1.083500E+05 -2.023826E-09 -2.976114E-09
       129  11  2.524722E+05  2.046961E+04 -1.773649E+04  1.036552E+05 -2.746233E-09 -2.363014E-09
       129  12  2.424000E+05  1.978742E+04 -1.933612E+04  1.039524E+05 -1.195181E-09 -9.103944E-10
       129  13  3.201101E+05  4.896695E+04  4.526813E+02  1.252830E+05  1.270376E-09 -2.435184E-09
       129  14  3.222671E+05  4.674275E+04  6.377972E+02  1.227715E+05 -1.613576E-09  6.928686E-09
       129  15  3.201216E+05  4.904926E+04  1.096916E+03  1.252519E+05 -1.995455E-09  4.987990E-09
       129  16  3.819819E+05  7.225154E+04  1.676769E+04  1.422176E+05  1.856235E-09 -4.248585E-09
       129  17  3.920666E+05  7.301616E+04  1.901164E+04  1.418897E+05  2.018004E-09 -2.239608E-09
       129  18  3.978488E+05  7.831138E+04  2.152937E+04  1.465538E+05  6.387315E-10  4.719806E-10
       129  19  2.582420E+05  2.568259E+04 -1.586265E+04  1.083500E+05  1.050583E+03 -1.903636E+03
       129  20  2.524722E+05  2.046962E+04 -1.773648E+04  1.036552E+05  1.503100E+03 -2.133384E+03
       129  21  2.424000E+05  1.978743E+04 -1.933610E+04  1.039524E+05  1.955728E+03 -2.363646E+03
       129  22  3.201101E+05  4.896695E+04  4.526900E+02  1.252830E+05  8.773536E+02 -1.968924E+03
       129  23  3.222671E+05  4.674276E+04  6.378096E+02  1.227715E+05  1.329661E+03 -2.198736E+03
       129  24  3.201216E+05  4.904926E+04  1.096933E+03  1.252519E+05  1.782085E+03 -2.429059E+03
       129  25  3.819819E+05  7.225155E+04  1.676770E+04  1.422176E+05  7.041047E+02 -2.034219E+03
       129  26  3.920667E+05  7.301616E+04  1.901165E+04  1.418897E+05  1.156201E+03 -2.264095E+03
       129  27  3.978488E+05  7.831139E+04  2.152939E+04  1.465538E+05  1.608418E+03 -2.494481E+03
       130   1  2.313289E+05  1.563731E+04 -2.197637E+04  1.011553E+05 -2.248061E+03  2.492618E+03
       130   2  2.253742E+05  1.012645E+04 -2.300610E+04  9.621829E+04 -3.631725E+03  2.377462E+03
       130   3  2.155438E+05  1.022119E+04 -2.279863E+04  9.613626E+04 -5.007995E+03  2.242912E+03
       130   4  3.201683E+05  4.895104E+04  1.416044E+03  1.253483E+05 -2.067432E+03  2.560650E+03
       130   5  3.221674E+05  4.658798E+04  2.480718E+03  1.227547E+05 -3.460886E+03  2.441785E+03
       130   6  3.202928E+05  4.983239E+04  4.790256E+03  1.250160E+05 -4.846964E+03  2.303518E+03
       130   7  4.090156E+05  8.226533E+04  2.480785E+04  1.495446E+05 -1.886775E+03  2.628694E+03
       130   8  4.189699E+05  8.305015E+04  2.796678E+04  1.492949E+05 -3.290019E+03  2.506118E+03
       130   9  4.250525E+05  8.944430E+04  3.237821E+04  1.539002E+05 -4.685902E+03  2.364136E+03
       130  10  2.313289E+05  1.563730E+04 -2.197639E+04  1.011553E+05 -4.553318E-09  1.529815E-09
       130  11  2.253742E+05  1.012644E+04 -2.300614E+04  9.621830E+04 -5.191958E-09  4.512811E-09
       130  12  2.155438E+05  1.022118E+04 -2.279869E+04  9.613627E+04 -2.368600E-09  2.311212E-09
       130  13  3.201683E+05  4.895103E+04  1.416023E+03  1.253483E+05  1.996411E-09  4.357883E-10
       130  14  3.221674E+05  4.658797E+04  2.480684E+03  1.227547E+05 -4.186690E-09  3.475090E-09
       130  15  3.202928E+05  4.983238E+04  4.790202E+03  1.250160E+05 -7.018244E-09 -8.967542E-10
       130  16  4.090156E+05  8.226532E+04  2.480783E+04  1.495446E+05  1.028397E-09  1.723799E-09
       130  17  4.189699E+05  8.305014E+04  2.796675E+04  1.492949E+05 -2.439561E-09  6.747389E-09
       130  18  4.250524E+05  8.944429E+04  3.237815E+04  1.539002E+05  2.779678E-10  4.033854E-10
       130  19  2.313289E+05  1.563731E+04 -2.197637E+04  1.011553E+05  2.248061E+03 -2.492618E+03
       130  20  2.253742E+05  1.012645E+04 -2.300610E+04  9.621829E+04  3.631725E+03 -2.377462E+03
       130  21  2.155438E+05  1.022119E+04 -2.279863E+04  9.613626E+04  5.007995E+03 -2.242912E+03
       130  22  3.201683E+05  4.895104E+04  1.416044E+03  1.253483E+05  2.067432E+03 -2.560650E+03
       130  23  3.221674E+05  4.658798E+04  2.480718E+03  1.227547E+05  3.460886E+03 -2.441785E+03
       130  24  3.202928E+05  4.983239E+04  4.790256E+03  1.250160E+05  4.846964E+03 -2.303518E+03
       130  25  4.090156E+05  8.226533E+04  2.480785E+04  1.495446E+05  1.886775E+03 -2.628694E+03
       130  26  4.189699E+05  8.305015E+04  2.796678E+04  1.492949E+05  3.290019E+03 -2.506118E+03
       130  27  4.250525E+05  8.944430E+04  3.237821E+04  1.539002E+05  4.685902E+03 -2.364136E+03
       131   1  2.037654E+05  5.827718E+03 -2.444387E+04  9.491034E+04 -6.072019E+03  2.129789E+03
       131   2  1.973243E+05 -1.857891E+03 -2.204875E+04  8.830125E+04 -1.161560E+04  4.484316E+02
       131   3  1.909774E+05  5.521727E+03 -1.276387E+04  8.433313E+04 -1.705056E+04 -1.521045E+03
       131   4  3.207201E+05  4.869406E+04  6.147718E+03  1.257462E+05 -5.825336E+03  2.222650E+03
       131   5  3.212563E+05  4.536976E+04  1.068482E+04  1.228357E+05 -1.151250E+04  4.871705E+02
       131   6  3.219143E+05  5.713759E+04  2.222436E+04  1.225662E+05 -1.709113E+04 -1.536469E+03
       131   7  4.376877E+05  9.156093E+04  3.673806E+04  1.565871E+05 -5.578602E+03  2.315529E+03
       131   8  4.452031E+05  9.259846E+04  4.341707E+04  1.573764E+05 -1.140938E+04  5.259182E+02
       131   9  4.528681E+05  1.087551E+05  5.721119E+04  1.608067E+05 -1.713171E+04 -1.551896E+03
       131  10  2.037654E+05  5.827704E+03 -2.444394E+04  9.491035E+04 -3.422962E-09  2.736392E-09
       131  11  1.973242E+05 -1.857927E+03 -2.204901E+04  8.830125E+04 -9.581272E-10  3.876413E-10
       131  12  1.909771E+05  5.521647E+03 -1.276442E+04  8.433310E+04 -5.796341E-09  1.776778E-09
       131  13  3.207201E+05  4.869404E+04  6.147645E+03  1.257462E+05 -7.675005E-09 -2.556599E-09
       131  14  3.212562E+05  4.536972E+04  1.068457E+04  1.228357E+05 -5.498112E-10  4.228356E-09
       131  15  3.219139E+05  5.713751E+04  2.222381E+04  1.225661E+05 -1.368658E-10 -8.356993E-10
       131  16  4.376877E+05  9.156092E+04  3.673799E+04  1.565871E+05 -6.699890E-09 -3.436569E-09
       131  17  4.452030E+05  9.259842E+04  4.341683E+04  1.573764E+05 -5.686550E-09 -5.154775E-09
       131  18  4.528678E+05  1.087550E+05  5.721063E+04  1.608067E+05  2.360657E-09  1.400094E-09
       131  19  2.037654E+05  5.827718E+03 -2.444387E+04  9.491034E+04  6.072019E+03 -2.129789E+03
       131  20  1.973243E+05 -1.857891E+03 -2.204875E+04  8.830125E+04  1.161560E+04 -4.484316E+02
       131  21  1.909774E+05  5.521727E+03 -1.276387E+04  8.433313E+04  1.705056E+04  1.521045E+03
       131  22  3.207201E+05  4.869406E+04  6.147718E+03  1.257462E+05  5.825336E+03 -2.222650E+03
       131  23  3.212563E+05  4.536976E+04  1.068482E+04  1.228357E+05  1.151250E+04 -4.871705E+02
       131  24  3.219143E+05  5.713759E+04  2.222436E+04  1.225662E+05  1.709113E+04  1.536469E+03
       131  25  4.376877E+05  9.156093E+04  3.673806E+04  1.565871E+05  5.578602E+03 -2.315529E+03
       131  26  4.452031E+05  9.259846E+04  4.341707E+04  1.573764E+05  1.140938E+04 -5.259182E+02
       131  27  4.528681E+05  1.087551E+05  5.721119E+04  1.608067E+05  1.713171E+04  1.551896E+03
       132   1  1.738188E+05 -7.745781E+02 -1.054142E+04  9.806527E+04 -2.231866E+04 -2.638208E+03
       132   2  1.658768E+05 -2.784904E+04  5.161895E+03  7.659109E+04 -4.525916E+04 -1.096843E+04
       132   3  1.929534E+05  4.699925E+04  6.454327E+04  3.512049E+04 -6.676538E+04 -2.310974E+04
       132   4  3.254319E+05  4.599586E+04  2.734475E+04  1.290200E+05 -2.124829E+04 -2.235010E+03
       132   5  3.133526E+05  3.455938E+04  4.525610E+04  1.240778E+05 -4.607966E+04 -1.127787E+04
       132   6  3.366562E+05  1.254040E+05  1.083352E+05  9.914222E+04 -6.947668E+04 -2.413285E+04
       132   7  4.770674E+05  9.276619E+04  6.522928E+04  1.599807E+05 -2.017764E+04 -1.831747E+03
       132   8  4.608490E+05  9.697051E+04  8.534815E+04  1.715750E+05 -4.690036E+04 -1.158742E+04
       132   9  4.803789E+05  2.038170E+05  1.521246E+05  1.631789E+05 -7.218864E+04 -2.515647E+04
       132  10  1.738183E+05 -7.747193E+02 -1.054236E+04  9.806522E+04 -1.386887E-09  7.547213E-09
       132  11  1.658746E+05 -2.784972E+04  5.157821E+03  7.659069E+04 -4.080836E-09 -1.351825E-09
       132  12  1.929484E+05  4.699748E+04  6.453389E+04  3.511925E+04  2.843200E-09  3.833056E-10
       132  13  3.254314E+05  4.599573E+04  2.734389E+04  1.290199E+05  5.025212E-10  4.020686E-11
       132  14  3.133503E+05  3.455867E+04  4.525187E+04  1.240774E+05 -5.961010E-09  1.275566E-09
       132  15  3.366508E+05  1.254021E+05  1.083250E+05  9.914087E+04  2.302478E-09 -5.201951E-09
       132  16  4.770670E+05  9.276608E+04  6.522851E+04  1.599807E+05 -2.400340E-09 -1.096046E-09
       132  17  4.608466E+05  9.696978E+04  8.534377E+04  1.715746E+05 -2.732948E-09  2.081031E-09
       132  18  4.803731E+05  2.038150E+05  1.521137E+05  1.631774E+05 -5.602521E-09  2.230908E-09
       132  19  1.738188E+05 -7.745781E+02 -1.054142E+04  9.806527E+04  2.231866E+04  2.638208E+03
       132  20  1.658768E+05 -2.784904E+04  5.161895E+03  7.659109E+04  4.525916E+04  1.096843E+04
       132  21  1.929534E+05  4.699925E+04  6.454327E+04  3.512049E+04  6.676538E+04  2.310974E+04
       132  22  3.254319E+05  4.599586E+04  2.734475E+04  1.290200E+05  2.124829E+04  2.235010E+03
       132  23  3.133526E+05  3.455938E+04  4.525610E+04  1.240778E+05  4.607966E+04  1.127787E+04
       132  24  3.366562E+05  1.254040E+05  1.083352E+05  9.914222E+04  6.947668E+04  2.413285E+04
       132  25  4.770674E+05  9.276619E+04  6.522928E+04  1.599807E+05  2.017764E+04  1.831747E+03
       132  26  4.608490E+05  9.697051E+04  8.534815E+04  1.715750E+05  4.690036E+04  1.158742E+04
       132  27  4.803789E+05  2.038170E+05  1.521246E+05  1.631789E+05  7.218864E+04  2.515647E+04
       133   1 -1.232640E+02 -4.056093E+05 -1.641149E+03 -6.867934E+01 -2.987924E+01  1.243135E+02
       133   2 -3.082925E+02 -4.064395E+05 -2.211571E+03  1.520505E+02 -5.803729E+01  1.050480E+03
       133   3 -8.691931E+02 -4.074856E+05 -3.479511E+03 -1.725260E+02 -1.001716E+02  1.976644E+03
       133   4 -3.068953E+00 -4.051192E+05 -1.531100E+03 -1.210996E+02 -2.989216E+01  1.374348E+02
       133   5  4.428339E+01 -4.050106E+05 -1.878234E+03  1.514142E+02 -5.805909E+01  1.072655E+03
       133   6 -2.858047E+02 -4.051194E+05 -2.929172E+03 -1.213775E+02 -1.002021E+02  2.007874E+03
       133   7  1.171261E+02 -4.046292E+05 -1.421050E+03 -1.735199E+02 -2.990509E+01  1.505561E+02
       133   8  3.968591E+02 -4.035817E+05 -1.544897E+03  1.507780E+02 -5.808089E+01  1.094830E+03
       133   9  2.975833E+02 -4.027533E+05 -2.378833E+03 -7.022875E+01 -1.002326E+02  2.039105E+03
       133  10 -1.232640E+02 -4.056093E+05 -1.641149E+03 -6.867933E+01 -4.733802E-09 -3.344256E-09
       133  11 -3.082928E+02 -4.064395E+05 -2.211573E+03  1.520505E+02 -5.492011E-09 -9.225431E-09
       133  12 -8.691942E+02 -4.074856E+05 -3.479519E+03 -1.725258E+02 -7.249437E-11 -1.256876E-09
       133  13 -3.068959E+00 -4.051192E+05 -1.531100E+03 -1.210996E+02 -8.803992E-09 -2.125725E-09
       133  14  4.428307E+01 -4.050106E+05 -1.878236E+03  1.514143E+02 -3.003333E-09 -2.690272E-09
       133  15 -2.858058E+02 -4.051194E+05 -2.929179E+03 -1.213773E+02  1.030195E-09 -2.867350E-09
       133  16  1.171261E+02 -4.046292E+05 -1.421050E+03 -1.735199E+02 -4.811744E-09  7.141637E-09
       133  17  3.968588E+02 -4.035817E+05 -1.544899E+03  1.507780E+02  4.425667E-09  6.869477E-09
       133  18  2.975822E+02 -4.027533E+05 -2.378840E+03 -7.022858E+01 -2.810589E-09  2.227910E-09
       133  19 -1.232640E+02 -4.056093E+05 -1.641149E+03 -6.867934E+01  2.987924E+01 -1.243135E+02
       133  20 -3.082925E+02 -4.064395E+05 -2.211571E+03  1.520505E+02  5.803729E+01 -1.050480E+03
       133  21 -8.691931E+02 -4.074856E+05 -3.479511E+03 -1.725260E+02  1.001716E+02 -1.976644E+03
       133  22 -3.068953E+00 -4.051192E+05 -1.531100E+03 -1.210996E+02  2.989216E+01 -1.374348E+02
       133  23  4.428339E+01 -4.050106E+05 -1.878234E+03  1.514142E+02  5.805909E+01 -1.072655E+03
       133  24 -2.858047E+02 -4.051194E+05 -2.929172E+03 -1.213775E+02  1.002021E+02 -2.007874E+03
       133  25  1.171261E+02 -4.046292E+05 -1.421050E+03 -1.735199E+02  2.990509E+01 -1.505561E+02
       133  26  3.968591E+02 -4.035817E+05 -1.544897E+03  1.507780E+02  5.808089E+01 -1.094830E+03
       133  27  2.975833E+02 -4.027533E+05 -2.378833E+03 -7.022875E+01  1.002326E+02 -2.039105E+03
       134   1 -6.293859E+02 -4.087326E+05 -4.449149E+03  4.521526E+02 -1.293226E+02  2.558978E+03
       134   2 -6.848197E+02 -4.089563E+05 -7.070849E+03 -1.393987E+02 -1.736615E+02  5.647803E+03
       134   3 -4.830522E+03 -4.106064E+05 -1.272731E+04 -1.276918E+03 -2.076711E+02  8.736625E+03
       134   4  1.979212E+02 -4.053877E+05 -3.665760E+03 -1.202427E+02 -1.293544E+02  2.589087E+03
       134   5  3.709162E+02 -4.046757E+05 -6.071279E+03  1.509096E+02 -1.736817E+02  5.671236E+03
       134   6 -3.545183E+03 -4.053889E+05 -1.150690E+04 -1.239063E+02 -2.076711E+02  8.753386E+03
       134   7  1.025229E+03 -4.020428E+05 -2.882372E+03 -6.926411E+02 -1.293864E+02  2.619196E+03
       134   8  1.426651E+03 -4.003950E+05 -5.071711E+03  4.412199E+02 -1.737019E+02  5.694668E+03
       134   9 -2.259841E+03 -4.001714E+05 -1.028650E+04  1.029115E+03 -2.076711E+02  8.770147E+03
       134  10 -6.293877E+02 -4.087326E+05 -4.449161E+03  4.521529E+02 -5.442615E-09  5.394830E-09
       134  11 -6.848283E+02 -4.089563E+05 -7.070909E+03 -1.393979E+02 -6.704526E-09 -9.770752E-10
       134  12 -4.830542E+03 -4.106065E+05 -1.272745E+04 -1.276917E+03 -1.538682E-09 -2.849364E-10
       134  13  1.979194E+02 -4.053877E+05 -3.665773E+03 -1.202424E+02 -3.178715E-09 -1.067275E-09
       134  14  3.709076E+02 -4.046757E+05 -6.071340E+03  1.509104E+02 -8.758916E-10 -2.101263E-09
       134  15 -3.545203E+03 -4.053890E+05 -1.150705E+04 -1.239049E+02 -4.434309E-09 -4.483678E-09
       134  16  1.025227E+03 -4.020428E+05 -2.882385E+03 -6.926408E+02 -1.182893E-09 -6.503931E-09
       134  17  1.426642E+03 -4.003951E+05 -5.071772E+03  4.412207E+02 -1.591032E-09 -1.048057E-09
       134  18 -2.259861E+03 -4.001715E+05 -1.028664E+04  1.029117E+03  2.524303E-09  1.313063E-10
       134  19 -6.293859E+02 -4.087326E+05 -4.449149E+03  4.521526E+02  1.293226E+02 -2.558978E+03
       134  20 -6.848197E+02 -4.089563E+05 -7.070849E+03 -1.393987E+02  1.736615E+02 -5.647803E+03
       134  21 -4.830522E+03 -4.106064E+05 -1.272731E+04 -1.276918E+03  2.076711E+02 -8.736625E+03
       134  22  1.979212E+02 -4.053877E+05 -3.665760E+03 -1.202427E+02  1.293544E+02 -2.589087E+03
       134  23  3.709162E+02 -4.046757E+05 -6.071279E+03  1.509096E+02  1.736817E+02 -5.671236E+03
       134  24 -3.545183E+03 -4.053889E+05 -1.150690E+04 -1.239063E+02  2.076711E+02 -8.753386E+03
       134  25  1.025229E+03 -4.020428E+05 -2.882372E+03 -6.926411E+02  1.293864E+02 -2.619196E+03
       134  26  1.426651E+03 -4.003950E+05 -5.071711E+03  4.412199E+02  1.737019E+02 -5.694668E+03
       134  27 -2.259841E+03 -4.001714E+05 -1.028650E+04  1.029115E+03  2.076711E+02 -8.770147E+03
       135   1  7.720137E+02 -4.142638E+05 -1.564426E+04  5.994528E+03 -2.602125E+02  1.080965E+04
       135   2  2.224735E+03 -4.084289E+05 -2.487602E+04 -4.812981E+03 -2.930660E+02  2.338420E+04
       135   3 -4.408175E+04 -4.161753E+05 -5.423801E+04 -1.618650E+04 -1.258543E+02  3.595877E+04
       135   4  2.311591E+03 -4.080834E+05 -1.420083E+04 -1.132924E+02 -2.603950E+02  1.088780E+04
       135   5  3.970775E+03 -4.013083E+05 -2.321143E+04  1.482995E+02 -2.928284E+02  2.333261E+04
       135   6 -4.210688E+04 -4.080921E+05 -5.226202E+04 -1.564339E+02 -1.247489E+02  3.577746E+04
       135   7  3.851306E+03 -4.019029E+05 -1.275738E+04 -6.221174E+03 -2.605790E+02  1.096596E+04
       135   8  5.716905E+03 -3.941876E+05 -2.154682E+04  5.109638E+03 -2.925917E+02  2.328102E+04
       135   9 -4.013104E+04 -4.000083E+05 -5.028589E+04  1.587384E+04 -1.236530E+02  3.559615E+04
       135  10  7.719822E+02 -4.142640E+05 -1.564448E+04  5.994530E+03  2.401068E-09 -1.047017E-08
       135  11  2.224588E+03 -4.084295E+05 -2.487705E+04 -4.812976E+03 -1.356839E-09 -1.186708E-08
       135  12 -4.408210E+04 -4.161767E+05 -5.424044E+04 -1.618649E+04  3.781631E-10 -9.847519E-10
       135  13  2.311559E+03 -4.080836E+05 -1.420105E+04 -1.132901E+02 -1.006283E-09  4.741276E-11
       135  14  3.970629E+03 -4.013089E+05 -2.321245E+04  1.483050E+02 -1.651694E-09 -1.118217E-10
       135  15 -4.210722E+04 -4.080935E+05 -5.226442E+04 -1.564303E+02  1.146334E-09 -3.503739E-09
       135  16  3.851273E+03 -4.019031E+05 -1.275761E+04 -6.221172E+03  1.548120E-09  1.155474E-08
       135  17  5.716759E+03 -3.941882E+05 -2.154784E+04  5.109643E+03  8.289553E-09  8.483817E-09
       135  18 -4.013138E+04 -4.000096E+05 -5.028828E+04  1.587384E+04  2.533166E-09  4.904388E-09
       135  19  7.720137E+02 -4.142638E+05 -1.564426E+04  5.994528E+03  2.602125E+02 -1.080965E+04
       135  20  2.224735E+03 -4.084289E+05 -2.487602E+04 -4.812981E+03  2.930660E+02 -2.338420E+04
       135  21 -4.408175E+04 -4.161753E+05 -5.423801E+04 -1.618650E+04  1.258543E+02 -3.595877E+04
       135  22  2.311591E+03 -4.080834E+05 -1.420083E+04 -1.132924E+02  2.603950E+02 -1.088780E+04
       135  23  3.970775E+03 -4.013083E+05 -2.321143E+04  1.482995E+02  2.928284E+02 -2.333261E+04
       135  24 -4.210688E+04 -4.080921E+05 -5.226202E+04 -1.564339E+02  1.247489E+02 -3.577746E+04
       135  25  3.851306E+03 -4.019029E+05 -1.275738E+04 -6.221174E+03  2.605790E+02 -1.096596E+04
       135  26  5.716905E+03 -3.941876E+05 -2.154682E+04  5.109638E+03  2.925917E+02 -2.328102E+04
       135  27 -4.013104E+04 -4.000083E+05 -5.028589E+04  1.587384E+04  1.236530E+02 -3.559615E+04
       136   1 -7.780961E+06 -2.568924E+06 -1.376409E+06 -2.727828E+06 -4.460229E+05 -8.871849E+04
       136   2 -7.575215E+06 -2.272815E+06 -1.049074E+06 -2.652761E+06 -3.015508E+05  1.584302E+05
       136   3 -7.405524E+06 -2.153309E+06 -9.147541E+05 -2.593577E+06 -1.083732E+05  2.796605E+05
       136   4 -3.303167E+06 -7.720987E+05 -1.825513E+05 -1.397850E+06 -1.450125E+05  2.693031E+04
       136   5 -3.291155E+06 -6.303382E+05 -8.320967E+04 -1.416577E+06 -1.651841E+05  2.105188E+05
       136   6 -3.281754E+06 -6.316402E+05 -4.446887E+04 -1.451295E+06 -1.369244E+05  2.685536E+05
       136   7  1.194466E+06  1.026714E+06  1.009910E+06 -5.882543E+04  1.584110E+05  1.436084E+05
       136   8  1.011697E+06  1.013915E+06  8.815509E+05 -1.723541E+05 -2.778392E+04  2.630232E+05
       136   9  8.596451E+05  8.914694E+05  8.248943E+05 -3.019339E+05 -1.656834E+05  2.573701E+05
       136  10 -7.781179E+06 -2.568987E+06 -1.376803E+06 -2.727860E+06  2.942606E-09 -2.222336E-09
       136  11 -7.575319E+06 -2.272866E+06 -1.049293E+06 -2.652723E+06  1.864878E-09 -9.332586E-09
       136  12 -7.405558E+06 -2.153396E+06 -9.149229E+05 -2.593553E+06  3.644723E-09 -2.951839E-09
       136  13 -3.303190E+06 -7.721052E+05 -1.825923E+05 -1.397847E+06  4.561146E-09 -5.988851E-10
       136  14 -3.291196E+06 -6.303930E+05 -8.334406E+04 -1.416549E+06  7.183655E-09  2.385414E-09
       136  15 -3.281793E+06 -6.317226E+05 -4.463933E+04 -1.451266E+06 -3.626140E-09 -1.164641E-09
       136  16  1.194434E+06  1.026685E+06  1.009824E+06 -5.884372E+04 -1.576995E-09  3.085331E-09
       136  17  1.011678E+06  1.013841E+06  8.814197E+05 -1.723482E+05 -8.097321E-10  4.846221E-09
       136  18  8.595979E+05  8.913910E+05  8.247185E+05 -3.018996E+05 -2.048237E-09  2.751414E-09
       136  19 -7.780961E+06 -2.568924E+06 -1.376409E+06 -2.727828E+06  4.460229E+05  8.871849E+04
       136  20 -7.575215E+06 -2.272815E+06 -1.049074E+06 -2.652761E+06  3.015508E+05 -1.584302E+05
       136  21 -7.405524E+06 -2.153309E+06 -9.147541E+05 -2.593577E+06  1.083732E+05 -2.796605E+05
       136  22 -3.303167E+06 -7.720987E+05 -1.825513E+05 -1.397850E+06  1.450125E+05 -2.693031E+04
       136  23 -3.291155E+06 -6.303382E+05 -8.320967E+04 -1.416577E+06  1.651841E+05 -2.105188E+05
       136  24 -3.281754E+06 -6.316402E+05 -4.446887E+04 -1.451295E+06  1.369244E+05 -2.685536E+05
       136  25  1.194466E+06  1.026714E+06  1.009910E+06 -5.882543E+04 -1.584110E+05 -1.436084E+05
       136  26  1.011697E+06  1.013915E+06  8.815509E+05 -1.723541E+05  2.778392E+04 -2.630232E+05
       136  27  8.596451E+05  8.914694E+05  8.248943E+05 -3.019339E+05  1.656834E+05 -2.573701E+05
       137   1 -7.231728E+06 -2.114116E+06 -8.725216E+05 -2.559142E+06 -1.255025E+05  2.597271E+05
       137   2 -7.033397E+06 -1.997045E+06 -7.994591E+05 -2.469258E+06 -1.036641E+05  2.619315E+05
       137   3 -6.790092E+06 -1.932983E+06 -7.421059E+05 -2.430745E+06 -7.881073E+04  2.560966E+05
       137   4 -3.274614E+06 -6.393283E+05 -3.422166E+04 -1.448247E+06 -1.273050E+05  2.588558E+05
       137   5 -3.297329E+06 -6.103970E+05 -1.841565E+04 -1.423759E+06 -1.159344E+05  2.570943E+05
       137   6 -3.273007E+06 -6.323314E+05 -9.895949E+03 -1.450636E+06 -1.015665E+05  2.473164E+05
       137   7  6.986874E+05  8.368525E+05  8.032067E+05 -3.307243E+05 -1.291204E+05  2.579805E+05
       137   8  4.531835E+05  7.774820E+05  7.618725E+05 -3.723747E+05 -1.282856E+05  2.522270E+05
       137   9  2.568667E+05  6.693901E+05  7.216490E+05 -4.653443E+05 -1.244629E+05  2.384837E+05
       137  10 -7.231763E+06 -2.114192E+06 -8.726777E+05 -2.559115E+06  2.118065E-09  3.970270E-09
       137  11 -7.033427E+06 -1.997121E+06 -7.996079E+05 -2.469236E+06 -3.549571E-09  4.101180E-09
       137  12 -6.790117E+06 -1.933055E+06 -7.422406E+05 -2.430729E+06 -3.362577E-09  3.901092E-09
       137  13 -3.274649E+06 -6.394045E+05 -3.437775E+04 -1.448221E+06  5.606487E-10 -3.623946E-09
       137  14 -3.297361E+06 -6.104715E+05 -1.856484E+04 -1.423735E+06 -4.337112E-10 -3.556214E-09
       137  15 -3.273034E+06 -6.323997E+05 -1.003003E+04 -1.450616E+06 -6.970355E-10  2.225168E-09
       137  16  6.986517E+05  8.367767E+05  8.030505E+05 -3.306975E+05 -1.383351E-09 -2.427595E-10
       137  17  4.531488E+05  7.774094E+05  7.617222E+05 -3.723487E+05  5.109119E-12  4.346502E-09
       137  18  2.568349E+05  6.693249E+05  7.215132E+05 -4.653204E+05  1.836143E-10  2.475851E-09
       137  19 -7.231728E+06 -2.114116E+06 -8.725216E+05 -2.559142E+06  1.255025E+05 -2.597271E+05
       137  20 -7.033397E+06 -1.997045E+06 -7.994591E+05 -2.469258E+06  1.036641E+05 -2.619315E+05
       137  21 -6.790092E+06 -1.932983E+06 -7.421059E+05 -2.430745E+06  7.881073E+04 -2.560966E+05
       137  22 -3.274614E+06 -6.393283E+05 -3.422166E+04 -1.448247E+06  1.273050E+05 -2.588558E+05
       137  23 -3.297329E+06 -6.103970E+05 -1.841565E+04 -1.423759E+06  1.159344E+05 -2.570943E+05
       137  24 -3.273007E+06 -6.323314E+05 -9.895949E+03 -1.450636E+06  1.015665E+05 -2.473164E+05
       137  25  6.986874E+05  8.368525E+05  8.032067E+05 -3.307243E+05  1.291204E+05 -2.579805E+05
       137  26  4.531835E+05  7.774820E+05  7.618725E+05 -3.723747E+05  1.282856E+05 -2.522270E+05
       137  27  2.568667E+05  6.693901E+05  7.216490E+05 -4.653443E+05  1.244629E+05 -2.384837E+05
       138   1 -6.630125E+06 -1.874017E+06 -7.052555E+05 -2.386555E+06 -7.489275E+04  2.460200E+05
       138   2 -6.422877E+06 -1.760909E+06 -6.533789E+05 -2.292407E+06 -6.539359E+04  2.305373E+05
       138   3 -6.164686E+06 -1.697091E+06 -6.033345E+05 -2.253829E+06 -5.567441E+04  2.143125E+05
       138   4 -3.272032E+06 -6.329078E+05 -7.515266E+03 -1.451104E+06 -9.630584E+04  2.377744E+05
       138   5 -3.297200E+06 -6.076052E+05 -4.364479E+03 -1.423490E+06 -8.776022E+04  2.219695E+05
       138   6 -3.271306E+06 -6.313884E+05 -2.288491E+03 -1.451451E+06 -7.899663E+04  2.054243E+05
       138   7  9.777215E+04  6.091974E+05  6.896360E+05 -5.109136E+05 -1.178456E+05  2.294813E+05
       138   8 -1.613904E+05  5.465507E+05  6.441380E+05 -5.504826E+05 -1.102498E+05  2.133558E+05
       138   9 -3.692604E+05  4.350325E+05  5.983158E+05 -6.455814E+05 -1.024373E+05  1.964918E+05
       138  10 -6.630147E+06 -1.874084E+06 -7.053795E+05 -2.386541E+06 -4.401185E-10  4.351053E-09
       138  11 -6.422896E+06 -1.760967E+06 -6.534866E+05 -2.292395E+06  4.602652E-10  1.591154E-09
       138  12 -6.164702E+06 -1.697141E+06 -6.034265E+05 -2.253819E+06  8.051059E-10 -2.338682E-09
       138  13 -3.272057E+06 -6.329709E+05 -7.638710E+03 -1.451085E+06 -2.532506E-10  7.039465E-10
       138  14 -3.297221E+06 -6.076600E+05 -4.471344E+03 -1.423475E+06  2.103309E-09 -7.588590E-10
       138  15 -3.271324E+06 -6.314353E+05 -2.379351E+03 -1.451437E+06  3.431515E-10 -4.558148E-10
       138  16  9.774317E+04  6.091373E+05  6.895112E+05 -5.108919E+05 -3.275596E-10 -6.702400E-10
       138  17 -1.614156E+05  5.464986E+05  6.440298E+05 -5.504637E+05 -2.327223E-10 -2.880838E-09
       138  18 -3.692819E+05  4.349883E+05  5.982237E+05 -6.455653E+05  1.013587E-09 -3.224227E-09
       138  19 -6.630125E+06 -1.874017E+06 -7.052555E+05 -2.386555E+06  7.489275E+04 -2.460200E+05
       138  20 -6.422877E+06 -1.760909E+06 -6.533789E+05 -2.292407E+06  6.539359E+04 -2.305373E+05
       138  21 -6.164686E+06 -1.697091E+06 -6.033345E+05 -2.253829E+06  5.567441E+04 -2.143125E+05
       138  22 -3.272032E+06 -6.329078E+05 -7.515266E+03 -1.451104E+06  9.630584E+04 -2.377744E+05
       138  23 -3.297200E+06 -6.076052E+05 -4.364479E+03 -1.423490E+06  8.776022E+04 -2.219695E+05
       138  24 -3.271306E+06 -6.313884E+05 -2.288491E+03 -1.451451E+06  7.899663E+04 -2.054243E+05
       138  25  9.777215E+04  6.091974E+05  6.896360E+05 -5.109136E+05  1.178456E+05 -2.294813E+05
       138  26 -1.613904E+05  5.465507E+05  6.441380E+05 -5.504826E+05  1.102498E+05 -2.133558E+05
       138  27 -3.692604E+05  4.350325E+05  5.983158E+05 -6.455814E+05  1.024373E+05 -1.964918E+05
       139   1 -5.998855E+06 -1.635359E+06 -5.669119E+05 -2.207862E+06 -5.122679E+04  2.041121E+05
       139   2 -5.782867E+06 -1.519351E+06 -5.165574E+05 -2.110830E+06 -4.349008E+04  1.864697E+05
       139   3 -5.514632E+06 -1.454111E+06 -4.665223E+05 -2.071795E+06 -3.571378E+04  1.685852E+05
       139   4 -3.270816E+06 -6.315895E+05 -1.796395E+03 -1.451960E+06 -7.471643E+04  1.951829E+05
       139   5 -3.296653E+06 -6.056649E+05 -1.240284E+03 -1.423083E+06 -6.728894E+04  1.774571E+05
       139   6 -3.270252E+06 -6.304417E+05 -7.645615E+02 -1.452215E+06 -5.982243E+04  1.594895E+05
       139   7 -5.350931E+05  3.728100E+05  5.629235E+05 -6.929641E+05 -9.831827E+04  1.862119E+05
       139   8 -8.040438E+05  3.085467E+05  5.137529E+05 -7.327679E+05 -9.119147E+04  1.684057E+05
       139   9 -1.020648E+06  1.936589E+05  4.647336E+05 -8.305424E+05 -8.402598E+04  1.503584E+05
       139  10 -5.998869E+06 -1.635405E+06 -5.669950E+05 -2.207854E+06 -3.573040E-09 -2.171808E-09
       139  11 -5.782879E+06 -1.519389E+06 -5.166262E+05 -2.110824E+06 -1.698509E-09  1.878133E-09
       139  12 -5.514641E+06 -1.454142E+06 -4.665781E+05 -2.071790E+06  1.610528E-09  2.927353E-10
       139  13 -3.270832E+06 -6.316318E+05 -1.878325E+03 -1.451949E+06 -9.363874E-10  6.477789E-10
       139  14 -3.296667E+06 -6.056998E+05 -1.307846E+03 -1.423074E+06 -2.810920E-10  1.244491E-09
       139  15 -3.270263E+06 -6.304699E+05 -8.189875E+02 -1.452207E+06  4.330259E-10  1.339243E-10
       139  16 -5.351127E+05  3.727702E+05  5.628403E+05 -6.929494E+05  4.275709E-09  1.405796E-09
       139  17 -8.040603E+05  3.085141E+05  5.136841E+05 -7.327556E+05  2.673301E-10  9.371143E-10
       139  18 -1.020661E+06  1.936328E+05  4.646780E+05 -8.305323E+05 -1.294650E-09 -1.451609E-10
       139  19 -5.998855E+06 -1.635359E+06 -5.669119E+05 -2.207862E+06  5.122679E+04 -2.041121E+05
       139  20 -5.782867E+06 -1.519351E+06 -5.165574E+05 -2.110830E+06  4.349008E+04 -1.864697E+05
       139  21 -5.514632E+06 -1.454111E+06 -4.665223E+05 -2.071795E+06  3.571378E+04 -1.685852E+05
       139  22 -3.270816E+06 -6.315895E+05 -1.796395E+03 -1.451960E+06  7.471643E+04 -1.951829E+05
       139  23 -3.296653E+06 -6.056649E+05 -1.240284E+03 -1.423083E+06  6.728894E+04 -1.774571E+05
       139  24 -3.270252E+06 -6.304417E+05 -7.645615E+02 -1.452215E+06  5.982243E+04 -1.594895E+05
       139  25 -5.350931E+05  3.728100E+05  5.629235E+05 -6.929641E+05  9.831827E+04 -1.862119E+05
       139  26 -8.040438E+05  3.085467E+05  5.137529E+05 -7.327679E+05  9.119147E+04 -1.684057E+05
       139  27 -1.020648E+06  1.936589E+05  4.647336E+05 -8.305424E+05  8.402598E+04 -1.503584E+05
       140   1 -5.343218E+06 -1.390748E+06 -4.294590E+05 -2.024662E+06 -3.135338E+04  1.579890E+05
       140   2 -5.120307E+06 -1.272391E+06 -3.785955E+05 -1.925480E+06 -2.370223E+04  1.396889E+05
       140   3 -4.844458E+06 -1.206157E+06 -3.280371E+05 -1.886171E+06 -1.603186E+04  1.212335E+05
       140   4 -3.269917E+06 -6.305814E+05 -7.676854E+02 -1.452623E+06 -5.566496E+04  1.488347E+05
       140   5 -3.296150E+06 -6.040980E+05 -9.664071E+02 -1.422777E+06 -4.821314E+04  1.304847E+05
       140   6 -3.269480E+06 -6.296940E+05 -1.317742E+03 -1.452818E+06 -4.074253E+04  1.119797E+05
       140   7 -1.192170E+06  1.299471E+05  4.277004E+05 -8.788027E+05 -8.006468E+04  1.396476E+05
       140   8 -1.468560E+06  6.447063E+04  3.764879E+05 -9.187014E+05 -7.280209E+04  1.212514E+05
       140   9 -1.691954E+06 -5.302943E+04  3.252694E+05 -1.018446E+06 -6.552098E+04  1.027006E+05
       140  10 -5.343225E+06 -1.390775E+06 -4.295077E+05 -2.024658E+06 -1.040359E-08 -5.796314E-09
       140  11 -5.120312E+06 -1.272412E+06 -3.786332E+05 -1.925477E+06 -2.612543E-10  1.458665E-09
       140  12 -4.844462E+06 -1.206173E+06 -3.280652E+05 -1.886169E+06  9.895777E-09  5.383925E-09
       140  13 -3.269926E+06 -6.306059E+05 -8.150488E+02 -1.452616E+06 -4.657640E-10 -2.116313E-09
       140  14 -3.296157E+06 -6.041169E+05 -1.002704E+03 -1.422772E+06 -1.156393E-09 -4.965153E-09
       140  15 -3.269486E+06 -6.297079E+05 -1.344377E+03 -1.452815E+06  1.011080E-09 -4.650669E-09
       140  16 -1.192182E+06  1.299245E+05  4.276517E+05 -8.787937E+05  9.857613E-09  3.525287E-09
       140  17 -1.468570E+06  6.445346E+04  3.764504E+05 -9.186943E+05 -1.991237E-09  1.999875E-11
       140  18 -1.691961E+06 -5.304188E+04  3.252416E+05 -1.018441E+06 -9.109562E-09  6.242025E-11
       140  19 -5.343218E+06 -1.390748E+06 -4.294590E+05 -2.024662E+06  3.135338E+04 -1.579890E+05
       140  20 -5.120307E+06 -1.272391E+06 -3.785955E+05 -1.925480E+06  2.370223E+04 -1.396889E+05
       140  21 -4.844458E+06 -1.206157E+06 -3.280371E+05 -1.886171E+06  1.603186E+04 -1.212335E+05
       140  22 -3.269917E+06 -6.305814E+05 -7.676854E+02 -1.452623E+06  5.566496E+04 -1.488347E+05
       140  23 -3.296150E+06 -6.040980E+05 -9.664071E+02 -1.422777E+06  4.821314E+04 -1.304847E+05
       140  24 -3.269480E+06 -6.296940E+05 -1.317742E+03 -1.452818E+06  4.074253E+04 -1.119797E+05
       140  25 -1.192170E+06  1.299471E+05  4.277004E+05 -8.788027E+05  8.006468E+04 -1.396476E+05
       140  26 -1.468560E+06  6.447063E+04  3.764879E+05 -9.187014E+05  7.280209E+04 -1.212514E+05
       140  27 -1.691954E+06 -5.302943E+04  3.252694E+05 -1.018446E+06  6.552098E+04 -1.027006E+05
       141   1 -4.668851E+06 -1.141616E+06 -2.905448E+05 -1.838182E+06 -1.152558E+04  1.104204E+05
       141   2 -4.441001E+06 -1.021689E+06 -2.399048E+05 -1.737490E+06 -2.887806E+03  9.210706E+04
       141   3 -4.159946E+06 -9.549841E+05 -1.903988E+05 -1.697998E+06  5.740474E+03  7.375447E+04
       141   4 -3.269301E+06 -6.297875E+05 -1.732144E+03 -1.453129E+06 -3.639342E+04  1.011202E+05
       141   5 -3.295736E+06 -6.029415E+05 -3.060997E+03 -1.422564E+06 -2.780494E+04  8.280418E+04
       141   6 -3.269036E+06 -6.293111E+05 -5.490504E+03 -1.453220E+06 -1.922671E+04  6.444880E+04
       141   7 -1.867714E+06 -1.177908E+05  2.869839E+05 -1.067264E+06 -6.132218E+04  9.179738E+04
       141   8 -2.149110E+06 -1.840831E+05  2.337178E+05 -1.107096E+06 -5.277193E+04  7.348269E+04
       141   9 -2.377306E+06 -3.035721E+05  1.793784E+05 -1.208116E+06 -4.423268E+04  5.512867E+04
       141  10 -4.668855E+06 -1.141629E+06 -2.905679E+05 -1.838181E+06 -1.410710E-08  6.378918E-10
       141  11 -4.441004E+06 -1.021698E+06 -2.399207E+05 -1.737490E+06 -4.566074E-09  2.797436E-09
       141  12 -4.159947E+06 -9.549900E+05 -1.904091E+05 -1.697998E+06  7.552176E-09  2.191159E-09
       141  13 -3.269305E+06 -6.297988E+05 -1.753809E+03 -1.453126E+06 -8.509639E-10 -6.502930E-09
       141  14 -3.295738E+06 -6.029490E+05 -3.075309E+03 -1.422562E+06 -5.168811E-09 -6.770629E-09
       141  15 -3.269038E+06 -6.293157E+05 -5.498990E+03 -1.453220E+06 -3.898982E-09 -4.217359E-09
       141  16 -1.867720E+06 -1.178009E+05  2.869610E+05 -1.067259E+06  1.573611E-08  9.404558E-09
       141  17 -2.149114E+06 -1.840896E+05  2.337024E+05 -1.107093E+06 -2.423706E-09 -7.196180E-10
       141  18 -2.377309E+06 -3.035759E+05  1.793691E+05 -1.208114E+06 -1.346878E-08 -5.653415E-09
       141  19 -4.668851E+06 -1.141616E+06 -2.905448E+05 -1.838182E+06  1.152558E+04 -1.104204E+05
       141  20 -4.441001E+06 -1.021689E+06 -2.399048E+05 -1.737490E+06  2.887806E+03 -9.210706E+04
       141  21 -4.159946E+06 -9.549841E+05 -1.903988E+05 -1.697998E+06 -5.740474E+03 -7.375447E+04
       141  22 -3.269301E+06 -6.297875E+05 -1.732144E+03 -1.453129E+06  3.639342E+04 -1.011202E+05
       141  23 -3.295736E+06 -6.029415E+05 -3.060997E+03 -1.422564E+06  2.780494E+04 -8.280418E+04
       141  24 -3.269036E+06 -6.293111E+05 -5.490504E+03 -1.453220E+06  1.922671E+04 -6.444880E+04
       141  25 -1.867714E+06 -1.177908E+05  2.869839E+05 -1.067264E+06  6.132218E+04 -9.179738E+04
       141  26 -2.149110E+06 -1.840831E+05  2.337178E+05 -1.107096E+06  5.277193E+04 -7.348269E+04
       141  27 -2.377306E+06 -3.035721E+05  1.793784E+05 -1.208116E+06  4.423268E+04 -5.512867E+04
       142   1 -3.981563E+06 -8.898890E+05 -1.538125E+05 -1.650011E+06  1.120008E+04  6.311050E+04
       142   2 -3.751267E+06 -7.687106E+05 -1.070098E+05 -1.547147E+06  2.363869E+04  4.645565E+04
       142   3 -3.469238E+06 -7.043143E+05 -6.515070E+04 -1.505513E+06  3.572200E+04  3.073413E+04
       142   4 -3.269218E+06 -6.291634E+05 -7.312538E+03 -1.453572E+06 -1.405857E+04  5.370311E+04
       142   5 -3.295166E+06 -6.025912E+05 -1.332619E+04 -1.422208E+06 -3.888933E+02  3.751253E+04
       142   6 -3.269698E+06 -6.330503E+05 -2.526430E+04 -1.452101E+06  1.292326E+04  2.225411E+04
       142   7 -2.556352E+06 -3.683964E+05  1.391624E+05 -1.256924E+06 -3.934836E+04  4.428404E+04
       142   8 -2.838848E+06 -4.364544E+05  8.034914E+04 -1.297184E+06 -2.443555E+04  2.856233E+04
       142   9 -3.070114E+06 -5.617823E+05  1.462283E+04 -1.398671E+06 -9.883560E+03  1.377121E+04
       142  10 -3.981564E+06 -8.898933E+05 -1.538202E+05 -1.650012E+06 -2.906445E-09 -1.180216E-09
       142  11 -3.751268E+06 -7.687131E+05 -1.070149E+05 -1.547148E+06 -2.554908E-09  7.766327E-10
       142  12 -3.469240E+06 -7.043156E+05 -6.515490E+04 -1.505514E+06  3.127391E-09  4.596724E-09
       142  13 -3.269219E+06 -6.291665E+05 -7.318319E+03 -1.453571E+06 -1.774221E-09 -1.752237E-09
       142  14 -3.295166E+06 -6.025927E+05 -1.332883E+04 -1.422208E+06 -1.007742E-09  1.287891E-09
       142  15 -3.269699E+06 -6.330509E+05 -2.526555E+04 -1.452101E+06 -2.469560E-09  4.069842E-10
       142  16 -2.556355E+06 -3.683989E+05  1.391558E+05 -1.256922E+06  1.676061E-09  4.562751E-09
       142  17 -2.838849E+06 -4.364554E+05  8.034649E+04 -1.297183E+06 -2.255497E-09 -2.225716E-09
       142  18 -3.070114E+06 -5.617825E+05  1.462229E+04 -1.398671E+06 -3.513804E-09 -5.122469E-10
       142  19 -3.981563E+06 -8.898890E+05 -1.538125E+05 -1.650011E+06 -1.120008E+04 -6.311050E+04
       142  20 -3.751267E+06 -7.687106E+05 -1.070098E+05 -1.547147E+06 -2.363869E+04 -4.645565E+04
       142  21 -3.469238E+06 -7.043143E+05 -6.515070E+04 -1.505513E+06 -3.572200E+04 -3.073413E+04
       142  22 -3.269218E+06 -6.291634E+05 -7.312538E+03 -1.453572E+06  1.405857E+04 -5.370311E+04
       142  23 -3.295166E+06 -6.025912E+05 -1.332619E+04 -1.422208E+06  3.888933E+02 -3.751253E+04
       142  24 -3.269698E+06 -6.330503E+05 -2.526430E+04 -1.452101E+06 -1.292326E+04 -2.225411E+04
       142  25 -2.556352E+06 -3.683964E+05  1.391624E+05 -1.256924E+06  3.934836E+04 -4.428404E+04
       142  26 -2.838848E+06 -4.364544E+05  8.034914E+04 -1.297184E+06  2.443555E+04 -2.856233E+04
       142  27 -3.070114E+06 -5.617823E+05  1.462283E+04 -1.398671E+06  9.883560E+03 -1.377121E+04
       143   1 -3.284387E+06 -6.427056E+05 -3.427891E+04 -1.470500E+06  4.727084E+04  2.198845E+04
       143   2 -3.071349E+06 -5.087346E+05 -3.483251E+03 -1.330046E+06  6.300040E+04  1.424284E+04
       143   3 -2.835137E+06 -5.032641E+05 -1.833967E+03 -1.230920E+06  7.281492E+04  2.239296E+04
       143   4 -3.273878E+06 -6.281545E+05 -3.290631E+04 -1.455752E+06  2.100820E+04  1.222231E+04
       143   5 -3.290797E+06 -6.147865E+05 -6.118151E+04 -1.415397E+06  5.770536E+04  1.226969E+04
       143   6 -3.288804E+06 -7.341365E+05 -1.352902E+05 -1.416415E+06  8.848095E+04  2.821210E+04
       143   7 -3.263366E+06 -6.136019E+05 -3.153062E+04 -1.441004E+06 -5.254964E+03  2.454760E+03
       143   8 -3.510192E+06 -7.208228E+05 -1.188826E+05 -1.500716E+06  5.241242E+04  1.029786E+04
       143   9 -3.742246E+06 -9.649321E+05 -2.687607E+05 -1.601764E+06  1.041339E+05  3.402246E+04
       143  10 -3.284390E+06 -6.427068E+05 -3.428405E+04 -1.470500E+06 -3.273901E-09 -9.625148E-10
       143  11 -3.071353E+06 -5.087359E+05 -3.491135E+03 -1.330046E+06 -2.112594E-09 -5.038278E-10
       143  12 -2.835143E+06 -5.032660E+05 -1.844931E+03 -1.230921E+06  2.081843E-09  7.757698E-10
       143  13 -3.273878E+06 -6.281548E+05 -3.290743E+04 -1.455752E+06 -2.409671E-09 -2.146708E-09
       143  14 -3.290800E+06 -6.147875E+05 -6.118809E+04 -1.415398E+06 -2.503974E-09 -1.101094E-10
       143  15 -3.288812E+06 -7.341395E+05 -1.353065E+05 -1.416417E+06  2.281727E-10  9.599256E-10
       143  16 -3.263366E+06 -6.136019E+05 -3.153068E+04 -1.441004E+06  3.267697E-09  5.742497E-09
       143  17 -3.510195E+06 -7.208237E+05 -1.188880E+05 -1.500717E+06  1.970462E-09  7.062345E-09
       143  18 -3.742258E+06 -9.649363E+05 -2.687834E+05 -1.601767E+06 -1.980914E-09 -8.556691E-10
       143  19 -3.284387E+06 -6.427056E+05 -3.427891E+04 -1.470500E+06 -4.727084E+04 -2.198845E+04
       143  20 -3.071349E+06 -5.087346E+05 -3.483251E+03 -1.330046E+06 -6.300040E+04 -1.424284E+04
       143  21 -2.835137E+06 -5.032641E+05 -1.833967E+03 -1.230920E+06 -7.281492E+04 -2.239296E+04
       143  22 -3.273878E+06 -6.281545E+05 -3.290631E+04 -1.455752E+06 -2.100820E+04 -1.222231E+04
       143  23 -3.290797E+06 -6.147865E+05 -6.118151E+04 -1.415397E+06 -5.770536E+04 -1.226969E+04
       143  24 -3.288804E+06 -7.341365E+05 -1.352902E+05 -1.416415E+06 -8.848095E+04 -2.821210E+04
       143  25 -3.263366E+06 -6.136019E+05 -3.153062E+04 -1.441004E+06  5.254964E+03 -2.454760E+03
       143  26 -3.510192E+06 -7.208228E+05 -1.188826E+05 -1.500716E+06 -5.241242E+04 -1.029786E+04
       143  27 -3.742246E+06 -9.649321E+05 -2.687607E+05 -1.601764E+06 -1.041339E+05 -3.402246E+04
       144   1  2.465086E+05  5.171265E+04  6.948930E+04  1.085536E+04  5.365019E+04  2.763401E+02
       144   2  2.382817E+05 -2.082668E+04  2.552675E+04  3.521651E+03  3.535051E+04  7.686506E+02
       144   3  2.531954E+05 -1.034616E+04  1.423237E+04 -7.821605E+03  1.705043E+04  6.098682E+02
       144   4  2.844179E+05  6.117111E+04  7.890835E+04 -1.887497E+03  5.390883E+04  2.752763E+02
       144   5  2.728347E+05 -1.222287E+04  3.400700E+04  1.218110E+02  3.540477E+04  7.684605E+02
       144   6  2.844260E+05 -2.564385E+03  2.191425E+04 -1.878379E+03  1.690040E+04  6.100172E+02
       144   7  3.223289E+05  7.063008E+04  8.832738E+04 -1.463114E+04  5.416749E+04  2.742019E+02
       144   8  3.073889E+05 -3.619112E+03  4.248717E+04 -3.278218E+03  3.545902E+04  7.682699E+02
       144   9  3.156575E+05  5.217451E+03  2.959607E+04  4.065147E+03  1.675036E+04  6.101632E+02
       144  10  2.465055E+05  5.171188E+04  6.948390E+04  1.085535E+04 -1.029818E-10  2.895043E-10
       144  11  2.382804E+05 -2.082701E+04  2.552440E+04  3.521629E+03 -3.756411E-09  1.006764E-09
       144  12  2.531951E+05 -1.034624E+04  1.423183E+04 -7.821614E+03 -6.774805E-09 -5.303134E-11
       144  13  2.844148E+05  6.117033E+04  7.890289E+04 -1.887509E+03 -1.970929E-09  2.344378E-10
       144  14  2.728334E+05 -1.222321E+04  3.400465E+04  1.217891E+02  9.908839E-11  4.349460E-10
       144  15  2.844257E+05 -2.564462E+03  2.191371E+04 -1.878387E+03 -1.158558E-09  3.374526E-10
       144  16  3.223257E+05  7.062929E+04  8.832186E+04 -1.463115E+04  3.416163E-09 -9.127423E-11
       144  17  3.073875E+05 -3.619450E+03  4.248481E+04 -3.278240E+03  4.524488E-09 -1.172085E-10
       144  18  3.156572E+05  5.217375E+03  2.959554E+04  4.065138E+03  8.230877E-10  1.046704E-09
       144  19  2.465086E+05  5.171265E+04  6.948930E+04  1.085536E+04 -5.365019E+04 -2.763401E+02
       144  20  2.382817E+05 -2.082668E+04  2.552675E+04  3.521651E+03 -3.535051E+04 -7.686506E+02
       144  21  2.531954E+05 -1.034616E+04  1.423237E+04 -7.821605E+03 -1.705043E+04 -6.098682E+02
       144  22  2.844179E+05  6.117111E+04  7.890835E+04 -1.887497E+03 -5.390883E+04 -2.752763E+02
       144  23  2.728347E+05 -1.222287E+04  3.400700E+04  1.218110E+02 -3.540477E+04 -7.684605E+02
       144  24  2.844260E+05 -2.564385E+03  2.191425E+04 -1.878379E+03 -1.690040E+04 -6.100172E+02
       144  25  3.223289E+05  7.063008E+04  8.832738E+04 -1.463114E+04 -5.416749E+04 -2.742019E+02
       144  26  3.073889E+05 -3.619112E+03  4.248717E+04 -3.278218E+03 -3.545902E+04 -7.682699E+02
       144  27  3.156575E+05  5.217451E+03  2.959607E+04  4.065147E+03 -1.675036E+04 -6.101632E+02
       145   1  2.572728E+05  2.490318E+03  1.244892E+04 -2.716204E+02  1.336051E+04  4.429366E+02
       145   2  2.588571E+05 -6.494607E+03  4.047761E+03  4.897491E+02  8.791621E+03  3.981478E+02
       145   3  2.638135E+05 -4.375569E+03  1.396678E+03 -2.683806E+03  4.222724E+03  2.780229E+02
       145   4  2.800243E+05  8.158259E+03  1.804522E+04 -1.864950E+03  1.335871E+04  4.429012E+02
       145   5  2.783370E+05 -1.642278E+03  8.835477E+03  1.027761E+02  8.766150E+03  3.981402E+02
       145   6  2.800258E+05 -3.349515E+02  5.392080E+03 -1.864409E+03  4.173606E+03  2.780266E+02
       145   7  3.027762E+05  1.382617E+04  2.364149E+04 -3.458338E+03  1.335690E+04  4.428657E+02
       145   8  2.978173E+05  3.210022E+03  1.362317E+04 -2.842090E+02  8.740678E+03  3.981327E+02
       145   9  2.962383E+05  3.705649E+03  9.387462E+03 -1.044990E+03  4.124486E+03  2.780302E+02
       145  10  2.572726E+05  2.490270E+03  1.244858E+04 -2.716252E+02 -7.436855E-10 -4.740574E-10
       145  11  2.588570E+05 -6.494628E+03  4.047616E+03  4.897463E+02 -4.369524E-10 -3.941426E-10
       145  12  2.638135E+05 -4.375573E+03  1.396645E+03 -2.683807E+03  1.995853E-09 -3.225239E-10
       145  13  2.800241E+05  8.158211E+03  1.804488E+04 -1.864955E+03 -2.018393E-09  1.542410E-10
       145  14  2.783369E+05 -1.642299E+03  8.835333E+03  1.027733E+02  3.377225E-09 -4.862387E-10
       145  15  2.800258E+05 -3.349563E+02  5.392047E+03 -1.864410E+03 -6.284529E-09 -1.718536E-10
       145  16  3.027760E+05  1.382612E+04  2.364115E+04 -3.458342E+03  1.770779E-09  7.027775E-10
       145  17  2.978172E+05  3.210001E+03  1.362302E+04 -2.842118E+02 -3.190469E-09 -7.466161E-10
       145  18  2.962383E+05  3.705644E+03  9.387429E+03 -1.044991E+03 -2.171021E-09  1.151995E-10
       145  19  2.572728E+05  2.490318E+03  1.244892E+04 -2.716204E+02 -1.336051E+04 -4.429366E+02
       145  20  2.588571E+05 -6.494607E+03  4.047761E+03  4.897491E+02 -8.791621E+03 -3.981478E+02
       145  21  2.638135E+05 -4.375569E+03  1.396678E+03 -2.683806E+03 -4.222724E+03 -2.780229E+02
       145  22  2.800243E+05  8.158259E+03  1.804522E+04 -1.864950E+03 -1.335871E+04 -4.429012E+02
       145  23  2.783370E+05 -1.642278E+03  8.835477E+03  1.027761E+02 -8.766150E+03 -3.981402E+02
       145  24  2.800258E+05 -3.349515E+02  5.392080E+03 -1.864409E+03 -4.173606E+03 -2.780266E+02
       145  25  3.027762E+05  1.382617E+04  2.364149E+04 -3.458338E+03 -1.335690E+04 -4.428657E+02
       145  26  2.978173E+05  3.210022E+03  1.362317E+04 -2.842090E+02 -8.740678E+03 -3.981327E+02
       145  27  2.962383E+05  3.705649E+03  9.387462E+03 -1.044990E+03 -4.124486E+03 -2.780302E+02
       146   1  2.715466E+05 -8.730464E+02  2.359051E+03 -1.672872E+03  3.339573E+03  1.995585E+02
       146   2  2.745291E+05 -1.366892E+03  1.127108E+03  1.286264E+02  2.196378E+03  9.296502E+01
       146   3  2.780299E+05 -3.829269E+02  1.008676E+03 -1.972244E+03  1.053195E+03 -2.230060E+01
       146   4  2.793907E+05  1.079246E+03  4.278932E+03 -1.857356E+03  3.307689E+03  1.995566E+02
       146   5  2.791314E+05 -2.204489E+02  2.258451E+03  9.384127E+01  2.161774E+03  9.296420E+01
       146   6  2.793910E+05 -4.185669E+01  1.353369E+03 -1.857331E+03  1.015876E+03 -2.230089E+01
       146   7  2.872347E+05  3.031533E+03  6.198808E+03 -2.041841E+03  3.275805E+03  1.995548E+02
       146   8  2.837337E+05  9.259927E+02  3.389792E+03  5.905586E+01  2.127170E+03  9.296339E+01
       146   9  2.807520E+05  2.992134E+02  1.698061E+03 -1.742418E+03  9.785571E+02 -2.230118E+01
       146  10  2.715466E+05 -8.730495E+02  2.359030E+03 -1.672873E+03  8.648819E-10  6.616552E-11
       146  11  2.745291E+05 -1.366893E+03  1.127099E+03  1.286263E+02  1.049234E-09  4.178265E-10
       146  12  2.780299E+05 -3.829272E+02  1.008674E+03 -1.972244E+03 -4.758816E-09 -8.747674E-10
       146  13  2.793907E+05  1.079243E+03  4.278911E+03 -1.857356E+03 -9.526702E-11  4.084945E-10
       146  14  2.791313E+05 -2.204502E+02  2.258442E+03  9.384111E+01 -4.215629E-12  4.243017E-10
       146  15  2.793910E+05 -4.185696E+01  1.353367E+03 -1.857331E+03  8.855439E-10 -6.013751E-10
       146  16  2.872347E+05  3.031530E+03  6.198788E+03 -2.041842E+03 -2.101951E-09  6.929990E-10
       146  17  2.837337E+05  9.259914E+02  3.389784E+03  5.905570E+01  2.379788E-10  3.299103E-10
       146  18  2.807520E+05  2.992132E+02  1.698060E+03 -1.742418E+03  3.125198E-09 -3.388862E-10
       146  19  2.715466E+05 -8.730464E+02  2.359051E+03 -1.672872E+03 -3.339573E+03 -1.995585E+02
       146  20  2.745291E+05 -1.366892E+03  1.127108E+03  1.286264E+02 -2.196378E+03 -9.296502E+01
       146  21  2.780299E+05 -3.829269E+02  1.008676E+03 -1.972244E+03 -1.053195E+03  2.230060E+01
       146  22  2.793907E+05  1.079246E+03  4.278932E+03 -1.857356E+03 -3.307689E+03 -1.995566E+02
       146  23  2.791314E+05 -2.204489E+02  2.258451E+03  9.384127E+01 -2.161774E+03 -9.296420E+01
       146  24  2.793910E+05 -4.185669E+01  1.353369E+03 -1.857331E+03 -1.015876E+03  2.230089E+01
       146  25  2.872347E+05  3.031533E+03  6.198808E+03 -2.041841E+03 -3.275805E+03 -1.995548E+02
       146  26  2.837337E+05  9.259927E+02  3.389792E+03  5.905586E+01 -2.127170E+03 -9.296339E+01
       146  27  2.807520E+05  2.992134E+02  1.698061E+03 -1.742418E+03 -9.785571E+02  2.230118E+01
       147   1  2.862766E+05  1.881316E+03  2.789388E+03 -1.840705E+03  8.335518E+02 -9.032841E+01
       147   2  2.894787E+05  2.517109E+03  3.132422E+03  9.692357E+01  5.247637E+02 -2.041579E+02
       147   3  2.927725E+05  3.356324E+03  3.727403E+03 -1.875528E+03  2.159730E+02 -3.193836E+02
       147   4  2.792960E+05  1.403756E+02  1.063128E+03 -1.859055E+03  7.982367E+02 -9.032901E+01
       147   5  2.792502E+05 -3.092175E+01  6.175692E+02  9.598825E+01  4.890153E+02 -2.041590E+02
       147   6  2.792960E+05  1.268368E+00  4.242480E+02 -1.859053E+03  1.797929E+02 -3.193853E+02
       147   7  2.723154E+05 -1.600569E+03 -6.631346E+02 -1.877404E+03  7.629220E+02 -9.032960E+01
       147   8  2.690217E+05 -2.578960E+03 -1.897291E+03  9.505294E+01  4.532675E+02 -2.041601E+02
       147   9  2.658198E+05 -3.353801E+03 -2.878921E+03 -1.842578E+03  1.436137E+02 -3.193870E+02
       147  10  2.862766E+05  1.881316E+03  2.789386E+03 -1.840705E+03  1.872768E-09 -9.357631E-10
       147  11  2.894787E+05  2.517109E+03  3.132421E+03  9.692366E+01 -8.256307E-10  1.676125E-10
       147  12  2.927725E+05  3.356324E+03  3.727403E+03 -1.875527E+03  2.113781E-10  4.674730E-10
       147  13  2.792960E+05  1.403754E+02  1.063127E+03 -1.859055E+03  2.257574E-11 -8.272288E-10
       147  14  2.792502E+05 -3.092186E+01  6.175686E+02  9.598833E+01  2.103757E-09 -9.951429E-11
       147  15  2.792960E+05  1.268250E+00  4.242477E+02 -1.859052E+03  3.366048E-09  4.626709E-10
       147  16  2.723154E+05 -1.600569E+03 -6.631357E+02 -1.877404E+03  3.554522E-09 -6.046944E-10
       147  17  2.690217E+05 -2.578961E+03 -1.897291E+03  9.505301E+01 -3.048635E-09 -4.624857E-10
       147  18  2.658198E+05 -3.353801E+03 -2.878921E+03 -1.842578E+03 -3.705481E-10  4.024838E-10
       147  19  2.862766E+05  1.881316E+03  2.789388E+03 -1.840705E+03 -8.335518E+02  9.032841E+01
       147  20  2.894787E+05  2.517109E+03  3.132422E+03  9.692357E+01 -5.247637E+02  2.041579E+02
       147  21  2.927725E+05  3.356324E+03  3.727403E+03 -1.875528E+03 -2.159730E+02  3.193836E+02
       147  22  2.792960E+05  1.403756E+02  1.063128E+03 -1.859055E+03 -7.982367E+02  9.032901E+01
       147  23  2.792502E+05 -3.092175E+01  6.175692E+02  9.598825E+01 -4.890153E+02  2.041590E+02
       147  24  2.792960E+05  1.268368E+00  4.242480E+02 -1.859053E+03 -1.797929E+02  3.193853E+02
       147  25  2.723154E+05 -1.600569E+03 -6.631346E+02 -1.877404E+03 -7.629220E+02  9.032960E+01
       147  26  2.690217E+05 -2.578960E+03 -1.897291E+03  9.505294E+01 -4.532675E+02  2.041601E+02
       147  27  2.658198E+05 -3.353801E+03 -2.878921E+03 -1.842578E+03 -1.436137E+02  3.193870E+02
       148   1  3.011647E+05  5.467766E+03  5.765707E+03 -1.862432E+03  1.436646E+02 -3.869602E+02
       148   2  3.044278E+05  6.253964E+03  6.540824E+03  1.096962E+02 -3.310421E+01 -5.027789E+02
       148   3  3.077409E+05  7.137756E+03  7.455900E+03 -1.876851E+03 -2.098651E+02 -6.181453E+02
       148   4  2.792867E+05  1.573209E+01  3.765565E+02 -1.869853E+03  1.074451E+02 -3.869626E+02
       148   5  2.792617E+05 -1.510120E+01  3.534607E+02  1.094879E+02 -6.917657E+01 -5.027828E+02
       148   6  2.792867E+05  5.163735E+01  4.702260E+02 -1.869857E+03 -2.457895E+02 -6.181504E+02
       148   7  2.574090E+05 -5.436338E+03 -5.012630E+03 -1.877274E+03  7.122701E+01 -3.869651E+02
       148   8  2.540961E+05 -6.284214E+03 -5.833949E+03  1.092795E+02 -1.052475E+02 -5.027866E+02
       148   9  2.508332E+05 -7.034542E+03 -6.515507E+03 -1.862863E+03 -2.817122E+02 -6.181556E+02
       148  10  3.011647E+05  5.467766E+03  5.765707E+03 -1.862432E+03  1.324770E-09  7.332816E-11
       148  11  3.044278E+05  6.253964E+03  6.540824E+03  1.096962E+02 -3.204636E-09 -4.015403E-10
       148  12  3.077409E+05  7.137756E+03  7.455899E+03 -1.876851E+03  1.022745E-09 -2.155281E-10
       148  13  2.792867E+05  1.573192E+01  3.765562E+02 -1.869853E+03  4.536139E-09  2.987667E-10
       148  14  2.792617E+05 -1.510147E+01  3.534602E+02  1.094878E+02 -1.952377E-09 -2.991581E-10
       148  15  2.792867E+05  5.163692E+01  4.702251E+02 -1.869857E+03  3.439698E-10 -6.780917E-12
       148  16  2.574090E+05 -5.436338E+03 -5.012630E+03 -1.877274E+03  8.616661E-10  2.677678E-10
       148  17  2.540961E+05 -6.284214E+03 -5.833950E+03  1.092795E+02 -1.058154E-09 -4.987116E-10
       148  18  2.508332E+05 -7.034542E+03 -6.515508E+03 -1.862863E+03 -1.773459E-09  1.873635E-10
       148  19  3.011647E+05  5.467766E+03  5.765707E+03 -1.862432E+03 -1.436646E+02  3.869602E+02
       148  20  3.044278E+05  6.253964E+03  6.540824E+03  1.096962E+02  3.310421E+01  5.027789E+02
       148  21  3.077409E+05  7.137756E+03  7.455900E+03 -1.876851E+03  2.098651E+02  6.181453E+02
       148  22  2.792867E+05  1.573209E+01  3.765565E+02 -1.869853E+03 -1.074451E+02  3.869626E+02
       148  23  2.792617E+05 -1.510120E+01  3.534607E+02  1.094879E+02  6.917657E+01  5.027828E+02
       148  24  2.792867E+05  5.163735E+01  4.702260E+02 -1.869857E+03  2.457895E+02  6.181504E+02
       148  25  2.574090E+05 -5.436338E+03 -5.012630E+03 -1.877274E+03 -7.122701E+01  3.869651E+02
       148  26  2.540961E+05 -6.284214E+03 -5.833949E+03  1.092795E+02  1.052475E+02  5.027866E+02
       148  27  2.508332E+05 -7.034542E+03 -6.515507E+03 -1.862863E+03  2.817122E+02  6.181556E+02
       149   1  3.163246E+05  9.205619E+03  9.670995E+03 -1.843963E+03 -2.994754E+02 -6.890537E+02
       149   2  3.195847E+05  9.971547E+03  1.080396E+04  1.257029E+02 -7.503219E+02 -8.081479E+02
       149   3  3.230493E+05  1.129627E+04  1.237131E+04 -1.953396E+03 -1.201153E+03 -9.124573E+02
       149   4  2.793207E+05 -1.431138E+01  5.630427E+02 -1.889852E+03 -3.389242E+02 -6.890607E+02
       149   5  2.792187E+05 -8.373533E+01  8.799860E+02  1.345007E+02 -7.851301E+02 -8.081565E+02
       149   6  2.793206E+05  4.048682E+02  1.628124E+03 -1.889928E+03 -1.231318E+03 -9.124672E+02
       149   7  2.423180E+05 -9.234344E+03 -8.545011E+03 -1.935738E+03 -3.783706E+02 -6.890676E+02
       149   8  2.388543E+05 -1.013914E+04 -9.044110E+03  1.432978E+02 -8.199362E+02 -8.081652E+02
       149   9  2.355937E+05 -1.048668E+04 -9.115204E+03 -1.826465E+03 -1.261481E+03 -9.124772E+02
       149  10  3.163246E+05  9.205619E+03  9.670994E+03 -1.843963E+03  1.259045E-09  5.301718E-11
       149  11  3.195847E+05  9.971547E+03  1.080396E+04  1.257024E+02 -1.024709E-09 -2.104876E-10
       149  12  3.230493E+05  1.129627E+04  1.237131E+04 -1.953396E+03 -7.532495E-11  1.025999E-09
       149  13  2.793207E+05 -1.431192E+01  5.630416E+02 -1.889852E+03 -2.092018E-09  1.386123E-10
       149  14  2.792187E+05 -8.373620E+01  8.799836E+02  1.345001E+02 -1.177953E-09 -1.968265E-11
       149  15  2.793206E+05  4.048669E+02  1.628120E+03 -1.889929E+03 -2.135392E-09  8.601383E-10
       149  16  2.423180E+05 -9.234344E+03 -8.545012E+03 -1.935738E+03 -2.374402E-09  1.667704E-10
       149  17  2.388543E+05 -1.013914E+04 -9.044113E+03  1.432973E+02 -4.700986E-09  1.117844E-11
       149  18  2.355937E+05 -1.048668E+04 -9.115209E+03 -1.826466E+03 -1.502469E-09  1.040332E-09
       149  19  3.163246E+05  9.205619E+03  9.670995E+03 -1.843963E+03  2.994754E+02  6.890537E+02
       149  20  3.195847E+05  9.971547E+03  1.080396E+04  1.257029E+02  7.503219E+02  8.081479E+02
       149  21  3.230493E+05  1.129627E+04  1.237131E+04 -1.953396E+03  1.201153E+03  9.124573E+02
       149  22  2.793207E+05 -1.431138E+01  5.630427E+02 -1.889852E+03  3.389242E+02  6.890607E+02
       149  23  2.792187E+05 -8.373533E+01  8.799860E+02  1.345007E+02  7.851301E+02  8.081565E+02
       149  24  2.793206E+05  4.048682E+02  1.628124E+03 -1.889928E+03  1.231318E+03  9.124672E+02
       149  25  2.423180E+05 -9.234344E+03 -8.545011E+03 -1.935738E+03  3.783706E+02  6.890676E+02
       149  26  2.388543E+05 -1.013914E+04 -9.044110E+03  1.432978E+02  8.199362E+02  8.081652E+02
       149  27  2.355937E+05 -1.048668E+04 -9.115204E+03 -1.826465E+03  1.261481E+03  9.124772E+02
       150   1  3.320743E+05  1.295663E+04  1.496330E+04 -1.601760E+03 -1.497295E+03 -1.004805E+03
       150   2  3.349035E+05  1.332636E+04  1.709359E+04  3.569801E+01 -3.274208E+03 -1.135471E+03
       150   3  3.390227E+05  1.788363E+04  2.142960E+04 -2.504874E+03 -5.051185E+03 -1.123346E+03
       150   4  2.795601E+05 -1.267946E+02  2.043245E+03 -1.918287E+03 -1.560148E+03 -1.004823E+03
       150   5  2.789187E+05 -6.188702E+02  3.332684E+03  1.702314E+02 -3.292354E+03 -1.135484E+03
       150   6  2.795595E+05  3.069043E+03  6.796934E+03 -1.919294E+03 -5.024614E+03 -1.123349E+03
       150   7  2.270484E+05 -1.321043E+04 -1.087701E+04 -2.234789E+03 -1.622996E+03 -1.004841E+03
       150   8  2.229367E+05 -1.456433E+04 -1.042846E+04  3.047524E+02 -3.310499E+03 -1.135496E+03
       150   9  2.200996E+05 -1.174581E+04 -7.835998E+03 -1.333770E+03 -4.998045E+03 -1.123352E+03
       150  10  3.320743E+05  1.295663E+04  1.496329E+04 -1.601761E+03  2.167870E-09  1.944876E-10
       150  11  3.349035E+05  1.332635E+04  1.709357E+04  3.569501E+01 -1.301781E-09 -1.945900E-09
       150  12  3.390227E+05  1.788362E+04  2.142955E+04 -2.504879E+03 -1.565004E-11 -5.814202E-10
       150  13  2.795601E+05 -1.267963E+02  2.043239E+03 -1.918289E+03 -4.176918E-09  5.426560E-10
       150  14  2.789186E+05 -6.188745E+02  3.332661E+03  1.702284E+02 -2.153481E-09 -5.253596E-10
       150  15  2.795595E+05  3.069035E+03  6.796884E+03 -1.919299E+03 -6.491635E-10  1.260487E-09
       150  16  2.270484E+05 -1.321043E+04 -1.087702E+04 -2.234790E+03 -3.149530E-09  4.656142E-10
       150  17  2.229366E+05 -1.456433E+04 -1.042848E+04  3.047494E+02 -4.944595E-09 -8.796834E-10
       150  18  2.200995E+05 -1.174581E+04 -7.836048E+03 -1.333775E+03  1.117619E-09 -9.887183E-10
       150  19  3.320743E+05  1.295663E+04  1.496330E+04 -1.601760E+03  1.497295E+03  1.004805E+03
       150  20  3.349035E+05  1.332636E+04  1.709359E+04  3.569801E+01  3.274208E+03  1.135471E+03
       150  21  3.390227E+05  1.788363E+04  2.142960E+04 -2.504874E+03  5.051185E+03  1.123346E+03
       150  22  2.795601E+05 -1.267946E+02  2.043245E+03 -1.918287E+03  1.560148E+03  1.004823E+03
       150  23  2.789187E+05 -6.188702E+02  3.332684E+03  1.702314E+02  3.292354E+03  1.135484E+03
       150  24  2.795595E+05  3.069043E+03  6.796934E+03 -1.919294E+03  5.024614E+03  1.123349E+03
       150  25  2.270484E+05 -1.321043E+04 -1.087701E+04 -2.234789E+03  1.622996E+03  1.004841E+03
       150  26  2.229367E+05 -1.456433E+04 -1.042846E+04  3.047524E+02  3.310499E+03  1.135496E+03
       150  27  2.200996E+05 -1.174581E+04 -7.835998E+03 -1.333770E+03  4.998045E+03  1.123352E+03
       151   1  3.497896E+05  1.611587E+04  2.510883E+04  3.023916E+02 -6.102142E+03 -1.385379E+03
       151   2  3.490185E+05  1.336905E+04  3.051585E+04 -1.042333E+03 -1.345708E+04 -1.588900E+03
       151   3  3.570554E+05  4.195055E+04  4.854544E+04 -6.734652E+03 -2.081264E+04 -5.482667E+02
       151   4  2.812175E+05 -9.669368E+02  8.252484E+03 -1.952608E+03 -6.358506E+03 -1.385460E+03
       151   5  2.768452E+05 -4.602296E+03  1.280079E+04  2.153314E+02 -1.332441E+04 -1.588882E+03
       151   6  2.812143E+05  2.302506E+04  2.970263E+04 -1.964312E+03 -2.029088E+04 -5.481704E+02
       151   7  2.126498E+05 -1.805008E+04 -8.604207E+03 -4.207358E+03 -6.614842E+03 -1.385538E+03
       151   8  2.046767E+05 -2.257402E+04 -4.914651E+03  1.472849E+03 -1.319175E+04 -1.588863E+03
       151   9  2.053785E+05  4.099214E+03  1.085941E+04  2.805444E+03 -1.976919E+04 -5.480660E+02
       151  10  3.497895E+05  1.611586E+04  2.510876E+04  3.023847E+02 -9.928235E-10 -3.111663E-10
       151  11  3.490183E+05  1.336900E+04  3.051551E+04 -1.042350E+03 -1.626720E-09 -2.195065E-09
       151  12  3.570549E+05  4.195044E+04  4.854463E+04 -6.734661E+03  1.014960E-09 -8.033273E-10
       151  13  2.812175E+05 -9.669497E+02  8.252405E+03 -1.952615E+03 -2.245210E-09  3.134313E-10
       151  14  2.768450E+05 -4.602347E+03  1.280045E+04  2.153144E+02 -1.859410E-09  1.234889E-09
       151  15  2.812139E+05  2.302495E+04  2.970186E+04 -1.964321E+03 -3.293096E-09 -1.165725E-10
       151  16  2.126497E+05 -1.805009E+04 -8.604293E+03 -4.207366E+03  3.230286E-09 -1.055133E-09
       151  17  2.046765E+05 -2.257407E+04 -4.914982E+03  1.472832E+03  5.391915E-10 -2.566798E-10
       151  18  2.053781E+05  4.099109E+03  1.085867E+04  2.805435E+03 -1.342922E-10 -7.621985E-10
       151  19  3.497896E+05  1.611587E+04  2.510883E+04  3.023916E+02  6.102142E+03  1.385379E+03
       151  20  3.490185E+05  1.336905E+04  3.051585E+04 -1.042333E+03  1.345708E+04  1.588900E+03
       151  21  3.570554E+05  4.195055E+04  4.854544E+04 -6.734652E+03  2.081264E+04  5.482667E+02
       151  22  2.812175E+05 -9.669368E+02  8.252484E+03 -1.952608E+03  6.358506E+03  1.385460E+03
       151  23  2.768452E+05 -4.602296E+03  1.280079E+04  2.153314E+02  1.332441E+04  1.588882E+03
       151  24  2.812143E+05  2.302506E+04  2.970263E+04 -1.964312E+03  2.029088E+04  5.481704E+02
       151  25  2.126498E+05 -1.805008E+04 -8.604207E+03 -4.207358E+03  6.614842E+03  1.385538E+03
       151  26  2.046767E+05 -2.257402E+04 -4.914651E+03  1.472849E+03  1.319175E+04  1.588863E+03
       151  27  2.053785E+05  4.099214E+03  1.085941E+04  2.805444E+03  1.976919E+04  5.480660E+02
       152   1  2.607794E+06  1.057131E+07  2.621659E+06 -1.142151E+06  7.001813E+04  1.015308E+05
       152   2  2.036543E+06  8.558206E+06  2.073100E+06 -2.732937E+04  1.878585E+05  1.950281E+04
       152   3  1.660728E+06  6.746147E+06  1.653723E+06 -1.189552E+06  1.137043E+05 -6.460137E+04
       152   4  5.879643E+04  2.985278E+05  8.444332E+04 -1.091750E+06  7.042277E+04  3.378617E+04
       152   5 -3.446006E+04  2.045679E+05  3.362357E+04  4.814062E+04  1.880991E+05  1.286577E+04
       152   6  5.733617E+04  2.968915E+05  7.061238E+04 -1.091013E+06  1.126404E+05 -1.039824E+04
       152   7 -2.498042E+06 -9.879409E+06 -2.460578E+06 -1.041979E+06  7.082093E+04 -3.285658E+04
       152   8 -2.110591E+06 -8.086031E+06 -2.010937E+06  1.227895E+05  1.883404E+05  6.316202E+03
       152   9 -1.549119E+06 -6.114764E+06 -1.515543E+06 -9.932645E+05  1.115879E+05  4.324781E+04
       152  10  2.607786E+06  1.057129E+07  2.621630E+06 -1.142156E+06 -5.252332E-09 -4.517934E-10
       152  11  2.036505E+06  8.558196E+06  2.073033E+06 -2.733230E+04 -1.224681E-08  2.538614E-08
       152  12  1.660713E+06  6.746140E+06  1.653691E+06 -1.189546E+06  8.451376E-09  2.809783E-08
       152  13  5.879080E+04  2.985252E+05  8.443184E+04 -1.091751E+06 -1.974677E-09 -3.468666E-09
       152  14 -3.449811E+04  2.045583E+05  3.355676E+04  4.813867E+04 -7.955679E-09 -6.509871E-09
       152  15  5.732252E+04  2.968880E+05  7.058834E+04 -1.091012E+06  8.663674E-09 -7.589040E-09
       152  16 -2.498047E+06 -9.879412E+06 -2.460590E+06 -1.041978E+06 -6.361943E-09  2.072704E-09
       152  17 -2.110630E+06 -8.086040E+06 -2.011004E+06  1.227885E+05 -1.408817E-09 -2.038337E-08
       152  18 -1.549133E+06 -6.114769E+06 -1.515570E+06 -9.932684E+05  1.256874E-09 -1.620323E-08
       152  19  2.607794E+06  1.057131E+07  2.621659E+06 -1.142151E+06 -7.001813E+04 -1.015308E+05
       152  20  2.036543E+06  8.558206E+06  2.073100E+06 -2.732937E+04 -1.878585E+05 -1.950281E+04
       152  21  1.660728E+06  6.746147E+06  1.653723E+06 -1.189552E+06 -1.137043E+05  6.460137E+04
       152  22  5.879643E+04  2.985278E+05  8.444332E+04 -1.091750E+06 -7.042277E+04 -3.378617E+04
       152  23 -3.446006E+04  2.045679E+05  3.362357E+04  4.814062E+04 -1.880991E+05 -1.286577E+04
       152  24  5.733617E+04  2.968915E+05  7.061238E+04 -1.091013E+06 -1.126404E+05  1.039824E+04
       152  25 -2.498042E+06 -9.879409E+06 -2.460578E+06 -1.041979E+06 -7.082093E+04  3.285658E+04
       152  26 -2.110591E+06 -8.086031E+06 -2.010937E+06  1.227895E+05 -1.883404E+05 -6.316202E+03
       152  27 -1.549119E+06 -6.114764E+06 -1.515543E+06 -9.932645E+05 -1.115879E+05 -4.324781E+04
       153   1  4.316568E+05  1.827181E+06  4.497283E+05 -1.119901E+06  4.116168E+04 -4.056741E+04
       153   2 -9.004423E+04 -2.219365E+04  1.690292E+04  5.286727E+04 -4.384532E+03 -8.862519E+04
       153   3 -4.424793E+05 -1.940816E+06 -3.680114E+05 -1.040350E+06 -4.864395E+04 -1.364653E+05
       153   4  3.894125E+04  2.517704E+05  6.435941E+04 -1.088869E+06  4.082474E+04 -2.580557E+04
       153   5 -1.243643E+04  2.880864E+05  9.323019E+04  4.476890E+04 -4.699503E+03 -7.430633E+04
       153   6  1.057209E+05  2.518568E+05  1.704665E+05 -1.087409E+06 -4.894133E+04 -1.227317E+05
       153   7 -3.539560E+05 -1.321382E+06 -3.211900E+05 -1.057901E+06  4.048883E+04 -1.108096E+04
       153   8  6.516445E+04  5.984545E+05  1.695511E+05  3.666694E+04 -5.014769E+03 -5.998031E+04
       153   9  6.535680E+05  2.448917E+06  7.085917E+05 -1.134606E+06 -4.924026E+04 -1.089489E+05
       153  10  4.316545E+05  1.827179E+06  4.497220E+05 -1.119899E+06  1.386038E-09  1.319680E-08
       153  11 -9.004636E+04 -2.220209E+04  1.688812E+04  5.286696E+04  7.869640E-10  3.747044E-08
       153  12 -4.424869E+05 -1.940837E+06 -3.680510E+05 -1.040355E+06 -8.472704E-09  3.226536E-08
       153  13  3.893928E+04  2.517692E+05  6.435504E+04 -1.088868E+06  7.804221E-09 -2.310477E-08
       153  14 -1.243794E+04  2.880805E+05  9.321978E+04  4.476862E+04  7.687446E-09 -1.210812E-08
       153  15  1.057142E+05  2.518400E+05  1.704337E+05 -1.087413E+06  1.861397E-08 -8.469953E-09
       153  16 -3.539578E+05 -1.321383E+06 -3.211933E+05 -1.057900E+06  1.913339E-09 -1.455876E-09
       153  17  6.516346E+04  5.984507E+05  1.695443E+05  3.666670E+04 -1.807220E-08 -3.201111E-08
       153  18  6.535622E+05  2.448904E+06  7.085649E+05 -1.134610E+06 -2.866115E-09 -1.890139E-08
       153  19  4.316568E+05  1.827181E+06  4.497283E+05 -1.119901E+06 -4.116168E+04  4.056741E+04
       153  20 -9.004423E+04 -2.219365E+04  1.690292E+04  5.286727E+04  4.384532E+03  8.862519E+04
       153  21 -4.424793E+05 -1.940816E+06 -3.680114E+05 -1.040350E+06  4.864395E+04  1.364653E+05
       153  22  3.894125E+04  2.517704E+05  6.435941E+04 -1.088869E+06 -4.082474E+04  2.580557E+04
       153  23 -1.243643E+04  2.880864E+05  9.323019E+04  4.476890E+04  4.699503E+03  7.430633E+04
       153  24  1.057209E+05  2.518568E+05  1.704665E+05 -1.087409E+06  4.894133E+04  1.227317E+05
       153  25 -3.539560E+05 -1.321382E+06 -3.211900E+05 -1.057901E+06 -4.048883E+04  1.108096E+04
       153  26  6.516445E+04  5.984545E+05  1.695511E+05  3.666694E+04  5.014769E+03  5.998031E+04
       153  27  6.535680E+05  2.448917E+06  7.085917E+05 -1.134606E+06  4.924026E+04  1.089489E+05
       154   1 -1.732590E+06 -6.682217E+06 -1.517004E+06 -1.038141E+06 -1.208801E+05 -2.153612E+05
       154   2 -2.370161E+06 -8.769606E+06 -1.898237E+06  1.468305E+05 -1.984797E+05 -3.199060E+05
       154   3 -2.148618E+06 -1.044757E+07 -1.960304E+06 -9.530446E+05 -7.406214E+04 -4.220730E+05
       154   4  2.627196E+04  3.459874E+05  2.212329E+05 -1.093037E+06 -1.218975E+05 -1.610052E+05
       154   5 -1.376755E+05  1.390774E+05  2.997356E+05  4.890786E+04 -1.981720E+05 -3.300160E+05
       154   6  5.640046E+05  3.477524E+05  7.393483E+05 -1.091910E+06 -7.369691E+04 -4.969951E+05
       154   7  1.781441E+06  7.419400E+06  1.955813E+06 -1.148295E+06 -1.229187E+05 -1.060212E+05
       154   8  2.088890E+06  9.120606E+06  2.491834E+06 -5.024986E+04 -1.978644E+05 -3.402448E+05
       154   9  3.267861E+06  1.124991E+07  3.430227E+06 -1.233062E+06 -7.330295E+04 -5.731748E+05
       154  10 -1.732619E+06 -6.682271E+06 -1.517120E+06 -1.038162E+06  2.397694E-09  1.910879E-08
       154  11 -2.370231E+06 -8.769728E+06 -1.898506E+06  1.467790E+05 -1.267164E-09  1.640591E-08
       154  12 -2.148672E+06 -1.044777E+07 -1.960654E+06 -9.530700E+05 -8.030025E-10  1.603603E-09
       154  13  2.624899E+04  3.459555E+05  2.211561E+05 -1.093053E+06 -9.183409E-09 -1.983753E-08
       154  14 -1.377469E+05  1.389500E+05  2.994572E+05  4.885521E+04  4.434206E-10 -5.679126E-09
       154  15  5.639324E+05  3.474859E+05  7.388739E+05 -1.091940E+06 -2.976928E-09 -3.934696E-10
       154  16  1.781422E+06  7.419384E+06  1.955764E+06 -1.148305E+06  1.006892E-08 -9.421978E-09
       154  17  2.088818E+06  9.120472E+06  2.491546E+06 -5.030373E+04 -3.513139E-09 -1.447497E-08
       154  18  3.267769E+06  1.124956E+07  3.429610E+06 -1.233096E+06 -5.363543E-09 -1.006202E-09
       154  19 -1.732590E+06 -6.682217E+06 -1.517004E+06 -1.038141E+06  1.208801E+05  2.153612E+05
       154  20 -2.370161E+06 -8.769606E+06 -1.898237E+06  1.468305E+05  1.984797E+05  3.199060E+05
       154  21 -2.148618E+06 -1.044757E+07 -1.960304E+06 -9.530446E+05  7.406214E+04  4.220730E+05
       154  22  2.627196E+04  3.459874E+05  2.212329E+05 -1.093037E+06  1.218975E+05  1.610052E+05
       154  23 -1.376755E+05  1.390774E+05  2.997356E+05  4.890786E+04  1.981720E+05  3.300160E+05
       154  24  5.640046E+05  3.477524E+05  7.393483E+05 -1.091910E+06  7.369691E+04  4.969951E+05
       154  25  1.781441E+06  7.419400E+06  1.955813E+06 -1.148295E+06  1.229187E+05  1.060212E+05
       154  26  2.088890E+06  9.120606E+06  2.491834E+06 -5.024986E+04  1.978644E+05  3.402448E+05
       154  27  3.267861E+06  1.124991E+07  3.430227E+06 -1.233062E+06  7.330295E+04  5.731748E+05
       155   1 -3.794583E+05 -1.667373E+05 -7.994247E+04 -1.755967E+05 -4.230763E+04 -1.447506E+04
       155   2 -3.592170E+05 -1.129705E+05 -4.175118E+04 -1.651865E+05 -2.512711E+04 -5.192041E+03
       155   3 -3.469063E+05 -8.635034E+04 -2.349541E+04 -1.530542E+05 -6.952832E+03  1.445422E+03
       155   4 -2.953156E+05 -1.065368E+05 -5.276508E+04 -1.230523E+05 -3.486003E+04 -1.168372E+04
       155   5 -2.890430E+05 -7.346245E+04 -2.497824E+04 -1.314188E+05 -2.284980E+04 -4.338524E+03
       155   6 -2.896754E+05 -6.650963E+04 -1.302812E+04 -1.380645E+05 -9.846280E+03  3.600871E+02
       155   7 -2.111654E+05 -4.632943E+04 -2.558844E+04 -7.050061E+04 -2.741150E+04 -8.891162E+03
       155   8 -2.188638E+05 -3.395185E+04 -8.205651E+03 -9.764723E+04 -2.057224E+04 -3.484780E+03
       155   9 -2.324406E+05 -4.666851E+04 -2.560800E+03 -1.230734E+05 -1.274003E+04 -7.253521E+02
       155  10 -3.794603E+05 -1.667380E+05 -7.994623E+04 -1.755972E+05 -6.378041E-10 -1.637430E-09
       155  11 -3.592177E+05 -1.129707E+05 -4.175242E+04 -1.651866E+05  1.335832E-08  4.724768E-09
       155  12 -3.469063E+05 -8.635036E+04 -2.349550E+04 -1.530542E+05  1.623187E-08  4.906759E-09
       155  13 -2.953170E+05 -1.065373E+05 -5.276762E+04 -1.230526E+05  5.856185E-09  2.259479E-09
       155  14 -2.890436E+05 -7.346261E+04 -2.497926E+04 -1.314189E+05  1.544958E-08  5.679351E-09
       155  15 -2.896755E+05 -6.650965E+04 -1.302830E+04 -1.380645E+05 -1.301259E-09  3.154559E-09
       155  16 -2.111662E+05 -4.632971E+04 -2.559000E+04 -7.050081E+04  1.567412E-08  5.907502E-09
       155  17 -2.188643E+05 -3.395197E+04 -8.206469E+03 -9.764729E+04  8.304688E-09  6.349786E-09
       155  18 -2.324407E+05 -4.666856E+04 -2.561106E+03 -1.230734E+05 -9.379409E-09  1.369631E-09
       155  19 -3.794583E+05 -1.667373E+05 -7.994247E+04 -1.755967E+05  4.230763E+04  1.447506E+04
       155  20 -3.592170E+05 -1.129705E+05 -4.175118E+04 -1.651865E+05  2.512711E+04  5.192041E+03
       155  21 -3.469063E+05 -8.635034E+04 -2.349541E+04 -1.530542E+05  6.952832E+03 -1.445422E+03
       155  22 -2.953156E+05 -1.065368E+05 -5.276508E+04 -1.230523E+05  3.486003E+04  1.168372E+04
       155  23 -2.890430E+05 -7.346245E+04 -2.497824E+04 -1.314188E+05  2.284980E+04  4.338524E+03
       155  24 -2.896754E+05 -6.650963E+04 -1.302812E+04 -1.380645E+05  9.846280E+03 -3.600871E+02
       155  25 -2.111654E+05 -4.632943E+04 -2.558844E+04 -7.050061E+04  2.741150E+04  8.891162E+03
       155  26 -2.188638E+05 -3.395185E+04 -8.205651E+03 -9.764723E+04  2.057224E+04  3.484780E+03
       155  27 -2.324406E+05 -4.666851E+04 -2.560800E+03 -1.230734E+05  1.274003E+04  7.253521E+02
       156   1 -3.283535E+05 -8.188220E+04 -1.727934E+04 -1.502051E+05 -5.306630E+03  9.943378E+02
       156   2 -3.058576E+05 -6.883009E+04 -8.184858E+03 -1.414712E+05 -1.642569E+03  6.245400E+02
       156   3 -2.809336E+05 -6.089353E+04 -1.832297E+03 -1.363890E+05  2.123394E+03 -1.666049E+01
       156   4 -2.881726E+05 -6.604284E+04 -9.718255E+03 -1.376734E+05 -8.029535E+03 -2.701620E+01
       156   5 -2.892651E+05 -6.230485E+04 -5.075606E+03 -1.363097E+05 -4.895825E+03 -5.957055E+02
       156   6 -2.878247E+05 -6.357728E+04 -2.754399E+03 -1.385978E+05 -1.660299E+03 -1.435845E+03
       156   7 -2.479904E+05 -5.020343E+04 -2.157330E+03 -1.251411E+05 -1.075260E+04 -1.048444E+03
       156   8 -2.726722E+05 -5.577956E+04 -1.966319E+03 -1.311480E+05 -8.149173E+03 -1.815993E+03
       156   9 -2.947159E+05 -6.626103E+04 -3.676462E+03 -1.408067E+05 -5.443989E+03 -2.855026E+03
       156  10 -3.283536E+05 -8.188221E+04 -1.727939E+04 -1.502051E+05  3.882532E-09  7.218377E-10
       156  11 -3.058576E+05 -6.883009E+04 -8.184864E+03 -1.414712E+05 -2.751495E-09  1.497964E-09
       156  12 -2.809336E+05 -6.089354E+04 -1.832305E+03 -1.363890E+05  1.966704E-09  1.486082E-09
       156  13 -2.881727E+05 -6.604286E+04 -9.718377E+03 -1.376734E+05 -9.663740E-11  8.863884E-10
       156  14 -2.892651E+05 -6.230486E+04 -5.075652E+03 -1.363097E+05  8.226336E-09  1.412111E-09
       156  15 -2.878247E+05 -6.357728E+04 -2.754408E+03 -1.385979E+05  9.141291E-09  4.643990E-09
       156  16 -2.479905E+05 -5.020346E+04 -2.157550E+03 -1.251411E+05 -1.382990E-09  1.214002E-09
       156  17 -2.726723E+05 -5.577958E+04 -1.966450E+03 -1.311480E+05  2.351111E-09  1.594498E-09
       156  18 -2.947159E+05 -6.626105E+04 -3.676533E+03 -1.408067E+05  1.633582E-08  7.697166E-09
       156  19 -3.283535E+05 -8.188220E+04 -1.727934E+04 -1.502051E+05  5.306630E+03 -9.943378E+02
       156  20 -3.058576E+05 -6.883009E+04 -8.184858E+03 -1.414712E+05  1.642569E+03 -6.245400E+02
       156  21 -2.809336E+05 -6.089353E+04 -1.832297E+03 -1.363890E+05 -2.123394E+03  1.666049E+01
       156  22 -2.881726E+05 -6.604284E+04 -9.718255E+03 -1.376734E+05  8.029535E+03  2.701620E+01
       156  23 -2.892651E+05 -6.230485E+04 -5.075606E+03 -1.363097E+05  4.895825E+03  5.957055E+02
       156  24 -2.878247E+05 -6.357728E+04 -2.754399E+03 -1.385978E+05  1.660299E+03  1.435845E+03
       156  25 -2.479904E+05 -5.020343E+04 -2.157330E+03 -1.251411E+05  1.075260E+04  1.048444E+03
       156  26 -2.726722E+05 -5.577956E+04 -1.966319E+03 -1.311480E+05  8.149173E+03  1.815993E+03
       156  27 -2.947159E+05 -6.626103E+04 -3.676462E+03 -1.408067E+05  5.443989E+03  2.855026E+03
       157   1 -2.653652E+05 -5.551443E+04  1.439296E+03 -1.322205E+05  2.905935E+03 -1.017270E+03
       157   2 -2.429368E+05 -4.506003E+04  6.220688E+03 -1.235121E+05  4.248067E+03 -2.727796E+03
       157   3 -2.171733E+05 -3.817685E+04  1.051678E+04 -1.187611E+05  5.600589E+03 -4.465858E+03
       157   4 -2.876876E+05 -6.356376E+04 -2.062231E+03 -1.385500E+05 -8.602066E+02 -2.429889E+03
       157   5 -2.893539E+05 -6.173428E+04 -1.121455E+03 -1.365899E+05  4.280167E+02 -4.160704E+03
       157   6 -2.876748E+05 -6.346540E+04 -6.232615E+02 -1.385873E+05  1.726601E+03 -5.919061E+03
       157   7 -3.100096E+05 -7.161302E+04 -5.563702E+03 -1.448793E+05 -4.626204E+03 -3.842453E+03
       157   8 -3.357683E+05 -7.840818E+04 -8.463496E+03 -1.496666E+05 -3.391708E+03 -5.593489E+03
       157   9 -3.581700E+05 -8.875310E+04 -1.176310E+04 -1.584112E+05 -2.146876E+03 -7.372072E+03
       157  10 -2.653652E+05 -5.551443E+04  1.439278E+03 -1.322205E+05  1.623261E-08  5.618639E-09
       157  11 -2.429369E+05 -4.506004E+04  6.220640E+03 -1.235121E+05  3.241195E-09 -4.070742E-10
       157  12 -2.171734E+05 -3.817688E+04  1.051668E+04 -1.187611E+05 -9.030156E-09 -2.637909E-09
       157  13 -2.876876E+05 -6.356377E+04 -2.062243E+03 -1.385500E+05  1.163684E-08  4.220127E-09
       157  14 -2.893539E+05 -6.173430E+04 -1.121488E+03 -1.365899E+05  4.728374E-09 -6.531154E-10
       157  15 -2.876748E+05 -6.346544E+04 -6.233329E+02 -1.385873E+05 -6.197945E-09 -3.436103E-09
       157  16 -3.100096E+05 -7.161305E+04 -5.563770E+03 -1.448793E+05 -1.442523E-09  2.702459E-09
       157  17 -3.357683E+05 -7.840822E+04 -8.463576E+03 -1.496666E+05 -2.019563E-09 -9.179407E-10
       157  18 -3.581700E+05 -8.875315E+04 -1.176321E+04 -1.584112E+05 -4.946030E-09 -4.001150E-09
       157  19 -2.653652E+05 -5.551443E+04  1.439296E+03 -1.322205E+05 -2.905935E+03  1.017270E+03
       157  20 -2.429368E+05 -4.506003E+04  6.220688E+03 -1.235121E+05 -4.248067E+03  2.727796E+03
       157  21 -2.171733E+05 -3.817685E+04  1.051678E+04 -1.187611E+05 -5.600589E+03  4.465858E+03
       157  22 -2.876876E+05 -6.356376E+04 -2.062231E+03 -1.385500E+05  8.602066E+02  2.429889E+03
       157  23 -2.893539E+05 -6.173428E+04 -1.121455E+03 -1.365899E+05 -4.280167E+02  4.160704E+03
       157  24 -2.876748E+05 -6.346540E+04 -6.232615E+02 -1.385873E+05 -1.726601E+03  5.919061E+03
       157  25 -3.100096E+05 -7.161302E+04 -5.563702E+03 -1.448793E+05  4.626204E+03  3.842453E+03
       157  26 -3.357683E+05 -7.840818E+04 -8.463496E+03 -1.496666E+05  3.391708E+03  5.593489E+03
       157  27 -3.581700E+05 -8.875310E+04 -1.176310E+04 -1.584112E+05  2.146876E+03  7.372072E+03
       158   1 -2.018642E+05 -3.270562E+04  1.321322E+04 -1.144958E+05  6.121618E+03 -5.587222E+03
       158   2 -1.794977E+05 -2.237926E+04  1.718708E+04 -1.057726E+05  7.005005E+03 -7.516373E+03
       158   3 -1.536950E+05 -1.551365E+04  2.105618E+04 -1.010096E+05  7.889054E+03 -9.446848E+03
       158   4 -2.876583E+05 -6.346873E+04 -4.722749E+02 -1.385784E+05  2.249840E+03 -7.039669E+03
       158   5 -2.893780E+05 -6.174457E+04 -2.753873E+02 -1.365962E+05  3.130459E+03 -8.970041E+03
       158   6 -2.876621E+05 -6.348099E+04 -1.812645E+02 -1.385747E+05  4.011731E+03 -1.090173E+04
       158   7 -3.734455E+05 -9.423144E+04 -1.415812E+04 -1.626582E+05 -1.621415E+03 -8.491919E+03
       158   8 -3.992460E+05 -1.011089E+05 -1.773820E+04 -1.674149E+05 -7.433847E+02 -1.042344E+04
       158   9 -4.216099E+05 -1.114465E+05 -2.141900E+04 -1.761322E+05  1.352916E+02 -1.235629E+04
       158  10 -2.018643E+05 -3.270566E+04  1.321309E+04 -1.144957E+05 -1.099939E-08 -3.487683E-09
       158  11 -1.794977E+05 -2.237934E+04  1.718688E+04 -1.057726E+05 -5.135125E-10  9.418615E-10
       158  12 -1.536950E+05 -1.551376E+04  2.105590E+04 -1.010095E+05  9.669454E-10  1.060895E-09
       158  13 -2.876583E+05 -6.346878E+04 -4.723775E+02 -1.385784E+05 -1.372953E-09 -2.612184E-09
       158  14 -2.893780E+05 -6.174466E+04 -2.755568E+02 -1.365962E+05  5.758963E-09 -4.364344E-10
       158  15 -2.876621E+05 -6.348113E+04 -1.815180E+02 -1.385747E+05  2.984882E-09 -4.314659E-10
       158  16 -3.734455E+05 -9.423152E+04 -1.415826E+04 -1.626582E+05  4.972200E-09 -1.715964E-09
       158  17 -3.992460E+05 -1.011090E+05 -1.773840E+04 -1.674149E+05  7.528296E-09 -1.458556E-09
       158  18 -4.216099E+05 -1.114467E+05 -2.141928E+04 -1.761322E+05 -2.021612E-09 -1.939305E-09
       158  19 -2.018642E+05 -3.270562E+04  1.321322E+04 -1.144958E+05 -6.121618E+03  5.587222E+03
       158  20 -1.794977E+05 -2.237926E+04  1.718708E+04 -1.057726E+05 -7.005005E+03  7.516373E+03
       158  21 -1.536950E+05 -1.551365E+04  2.105618E+04 -1.010096E+05 -7.889054E+03  9.446848E+03
       158  22 -2.876583E+05 -6.346873E+04 -4.722749E+02 -1.385784E+05 -2.249840E+03  7.039669E+03
       158  23 -2.893780E+05 -6.174457E+04 -2.753873E+02 -1.365962E+05 -3.130459E+03  8.970041E+03
       158  24 -2.876621E+05 -6.348099E+04 -1.812645E+02 -1.385747E+05 -4.011731E+03  1.090173E+04
       158  25 -3.734455E+05 -9.423144E+04 -1.415812E+04 -1.626582E+05  1.621415E+03  8.491919E+03
       158  26 -3.992460E+05 -1.011089E+05 -1.773820E+04 -1.674149E+05  7.433847E+02  1.042344E+04
       158  27 -4.216099E+05 -1.114465E+05 -2.141900E+04 -1.761322E+05 -1.352916E+02  1.235629E+04
       159   1 -1.384243E+05 -1.003157E+04  2.361878E+04 -9.673875E+04  8.350696E+03 -1.059114E+04
       159   2 -1.160869E+05  2.938907E+02  2.739598E+04 -8.801683E+04  9.152062E+03 -1.254721E+04
       159   3 -9.030212E+04  7.168800E+03  3.113047E+04 -8.324955E+04  9.949728E+03 -1.449275E+04
       159   4 -2.876623E+05 -6.348265E+04 -1.604890E+02 -1.385729E+05  4.473712E+03 -1.204603E+04
       159   5 -2.893852E+05 -6.175936E+04 -1.592804E+02 -1.365944E+05  5.295451E+03 -1.399472E+04
       159   6 -2.876653E+05 -6.349058E+04 -2.168624E+02 -1.385707E+05  6.113491E+03 -1.593290E+04
       159   7 -4.368747E+05 -1.169308E+05 -2.393964E+04 -1.803971E+05  5.977571E+02 -1.350053E+04
       159   8 -4.626513E+05 -1.238095E+05 -2.771504E+04 -1.851593E+05  1.439979E+03 -1.544180E+04
       159   9 -4.849889E+05 -1.341468E+05 -3.156549E+04 -1.938760E+05  2.278503E+03 -1.737257E+04
       159  10 -1.384244E+05 -1.003171E+04  2.361843E+04 -9.673868E+04 -6.634737E-09 -1.315523E-09
       159  11 -1.160870E+05  2.936992E+02  2.739552E+04 -8.801674E+04  6.095852E-10 -2.271280E-09
       159  12 -9.030228E+04  7.168548E+03  3.112989E+04 -8.324943E+04  1.898801E-09 -1.017985E-09
       159  13 -2.876624E+05 -6.348281E+04 -1.607993E+02 -1.385728E+05  6.934808E-09 -1.126990E-09
       159  14 -2.893853E+05 -6.175957E+04 -1.597010E+02 -1.365944E+05 -3.135209E-09 -4.347152E-10
       159  15 -2.876655E+05 -6.349086E+04 -2.174096E+02 -1.385707E+05  3.609725E-09 -8.843110E-11
       159  16 -4.368747E+05 -1.169310E+05 -2.393999E+04 -1.803971E+05 -1.680094E-09 -3.939992E-10
       159  17 -4.626513E+05 -1.238097E+05 -2.771549E+04 -1.851593E+05  1.474660E-09  1.182669E-09
       159  18 -4.849890E+05 -1.341471E+05 -3.156607E+04 -1.938760E+05  1.174495E-09  2.268379E-09
       159  19 -1.384243E+05 -1.003157E+04  2.361878E+04 -9.673875E+04 -8.350696E+03  1.059114E+04
       159  20 -1.160869E+05  2.938907E+02  2.739598E+04 -8.801683E+04 -9.152062E+03  1.254721E+04
       159  21 -9.030212E+04  7.168800E+03  3.113047E+04 -8.324955E+04 -9.949728E+03  1.449275E+04
       159  22 -2.876623E+05 -6.348265E+04 -1.604890E+02 -1.385729E+05 -4.473712E+03  1.204603E+04
       159  23 -2.893852E+05 -6.175936E+04 -1.592804E+02 -1.365944E+05 -5.295451E+03  1.399472E+04
       159  24 -2.876653E+05 -6.349058E+04 -2.168624E+02 -1.385707E+05 -6.113491E+03  1.593290E+04
       159  25 -4.368747E+05 -1.169308E+05 -2.393964E+04 -1.803971E+05 -5.977571E+02  1.350053E+04
       159  26 -4.626513E+05 -1.238095E+05 -2.771504E+04 -1.851593E+05 -1.439979E+03  1.544180E+04
       159  27 -4.849889E+05 -1.341468E+05 -3.156549E+04 -1.938760E+05 -2.278503E+03  1.737257E+04
       160   1 -7.504689E+04  1.265069E+04  3.362772E+04 -7.898541E+04  1.042558E+04 -1.562231E+04
       160   2 -5.273943E+04  2.297977E+04  3.729120E+04 -7.026893E+04  1.118290E+04 -1.752354E+04
       160   3 -2.699048E+04  2.986099E+04  4.092629E+04 -6.549355E+04  1.190342E+04 -1.932587E+04
       160   4 -2.876749E+05 -6.349003E+04 -2.708974E+02 -1.385714E+05  6.584274E+03 -1.706455E+04
       160   5 -2.893825E+05 -6.177262E+04 -4.629171E+02 -1.365921E+05  7.534705E+03 -1.889366E+04
       160   6 -2.876871E+05 -6.354152E+04 -8.363049E+02 -1.385543E+05  8.448322E+03 -2.062386E+04
       160   7 -5.002543E+05 -1.396260E+05 -3.417030E+04 -1.981382E+05  2.744360E+03 -1.850626E+04
       160   8 -5.259638E+05 -1.465187E+05 -3.821765E+04 -2.028911E+05  3.888002E+03 -2.026323E+04
       160   9 -5.483077E+05 -1.569359E+05 -4.259935E+04 -2.115853E+05  4.994799E+03 -2.192125E+04
       160  10 -7.504707E+04  1.265040E+04  3.362706E+04 -7.898528E+04  4.574132E-09  3.851718E-11
       160  11 -5.273964E+04  2.297941E+04  3.729038E+04 -7.026878E+04  9.868414E-10 -6.147566E-10
       160  12 -2.699073E+04  2.986055E+04  4.092533E+04 -6.549337E+04  1.225391E-09  1.449734E-10
       160  13 -2.876751E+05 -6.349036E+04 -2.715259E+02 -1.385713E+05  1.796071E-09  1.065897E-09
       160  14 -2.893826E+05 -6.177301E+04 -4.636945E+02 -1.365920E+05 -9.366173E-10  9.805475E-10
       160  15 -2.876873E+05 -6.354199E+04 -8.372382E+02 -1.385541E+05 -4.921679E-09 -4.884671E-10
       160  16 -5.002544E+05 -1.396264E+05 -3.417095E+04 -1.981382E+05 -3.124924E-09  1.758176E-09
       160  17 -5.259640E+05 -1.465191E+05 -3.821845E+04 -2.028910E+05 -2.101774E-09  3.234683E-10
       160  18 -5.483079E+05 -1.569364E+05 -4.260030E+04 -2.115852E+05 -2.722522E-09 -1.187028E-09
       160  19 -7.504689E+04  1.265069E+04  3.362772E+04 -7.898541E+04 -1.042558E+04  1.562231E+04
       160  20 -5.273943E+04  2.297977E+04  3.729120E+04 -7.026893E+04 -1.118290E+04  1.752354E+04
       160  21 -2.699048E+04  2.986099E+04  4.092629E+04 -6.549355E+04 -1.190342E+04  1.932587E+04
       160  22 -2.876749E+05 -6.349003E+04 -2.708974E+02 -1.385714E+05 -6.584274E+03  1.706455E+04
       160  23 -2.893825E+05 -6.177262E+04 -4.629171E+02 -1.365921E+05 -7.534705E+03  1.889366E+04
       160  24 -2.876871E+05 -6.354152E+04 -8.363049E+02 -1.385543E+05 -8.448322E+03  2.062386E+04
       160  25 -5.002543E+05 -1.396260E+05 -3.417030E+04 -1.981382E+05 -2.744360E+03  1.850626E+04
       160  26 -5.259638E+05 -1.465187E+05 -3.821765E+04 -2.028911E+05 -3.888002E+03  2.026323E+04
       160  27 -5.483077E+05 -1.569359E+05 -4.259935E+04 -2.115853E+05 -4.994799E+03  2.192125E+04
       161   1 -1.171198E+04  3.533018E+04  4.331529E+04 -6.128423E+04  1.251848E+04 -2.032010E+04
       161   2  1.032446E+04  4.576654E+04  4.705342E+04 -5.231859E+04  1.217776E+04 -2.195408E+04
       161   3  3.576399E+04  5.255654E+04  5.133976E+04 -4.711178E+04  1.147833E+04 -2.263219E+04
       161   4 -2.877524E+05 -6.353815E+04 -1.112460E+03 -1.385594E+05  9.003406E+03 -2.164082E+04
       161   5 -2.893421E+05 -6.203081E+04 -2.045134E+03 -1.364928E+05  1.053107E+04 -2.257372E+04
       161   6 -2.878998E+05 -6.454063E+04 -3.910329E+03 -1.381857E+05  1.170000E+04 -2.255045E+04
       161   7 -5.637144E+05 -1.623999E+05 -4.554262E+04 -2.158032E+05  5.489950E+03 -2.296094E+04
       161   8 -5.889144E+05 -1.698196E+05 -5.114621E+04 -2.206293E+05  8.885220E+03 -2.319305E+04
       161   9 -6.114524E+05 -1.816272E+05 -5.916334E+04 -2.292152E+05  1.192154E+04 -2.246875E+04
       161  10 -1.171226E+04  3.532969E+04  4.331422E+04 -6.128402E+04  3.377813E-09 -1.829462E-10
       161  11  1.032417E+04  4.576599E+04  4.705224E+04 -5.231838E+04  2.360213E-09 -1.141632E-10
       161  12  3.576371E+04  5.255595E+04  5.133855E+04 -4.711157E+04 -2.776175E-09  3.893427E-10
       161  13 -2.877526E+05 -6.353867E+04 -1.113493E+03 -1.385592E+05 -4.101850E-09 -1.634059E-09
       161  14 -2.893423E+05 -6.203138E+04 -2.046299E+03 -1.364926E+05 -6.985727E-10 -1.257509E-09
       161  15 -2.879001E+05 -6.454122E+04 -3.911542E+03 -1.381855E+05  6.239384E-10 -5.995855E-10
       161  16 -5.637145E+05 -1.624005E+05 -4.554366E+04 -2.158031E+05 -2.773152E-09 -2.178362E-09
       161  17 -5.889146E+05 -1.698202E+05 -5.114737E+04 -2.206292E+05 -2.175810E-09 -2.066962E-09
       161  18 -6.114527E+05 -1.816278E+05 -5.916456E+04 -2.292149E+05  3.916318E-09 -1.358067E-09
       161  19 -1.171198E+04  3.533018E+04  4.331529E+04 -6.128423E+04 -1.251848E+04  2.032010E+04
       161  20  1.032446E+04  4.576654E+04  4.705342E+04 -5.231859E+04 -1.217776E+04  2.195408E+04
       161  21  3.576399E+04  5.255654E+04  5.133976E+04 -4.711178E+04 -1.147833E+04  2.263219E+04
       161  22 -2.877524E+05 -6.353815E+04 -1.112460E+03 -1.385594E+05 -9.003406E+03  2.164082E+04
       161  23 -2.893421E+05 -6.203081E+04 -2.045134E+03 -1.364928E+05 -1.053107E+04  2.257372E+04
       161  24 -2.878998E+05 -6.454063E+04 -3.910329E+03 -1.381857E+05 -1.170000E+04  2.255045E+04
       161  25 -5.637144E+05 -1.623999E+05 -4.554262E+04 -2.158032E+05 -5.489950E+03  2.296094E+04
       161  26 -5.889144E+05 -1.698196E+05 -5.114621E+04 -2.206293E+05 -8.885220E+03  2.319305E+04
       161  27 -6.114524E+05 -1.816272E+05 -5.916334E+04 -2.292152E+05 -1.192154E+04  2.246875E+04
       162   1  5.150946E+04  5.770135E+04  5.382149E+04 -4.355091E+04  1.280817E+04 -2.256246E+04
       162   2  6.925290E+04  6.965414E+04  6.168361E+04 -2.933071E+04 -1.855776E+03 -2.297889E+04
       162   3  8.941561E+04  7.314565E+04  7.759911E+04 -1.621801E+04 -2.001810E+04 -1.408898E+04
       162   4 -2.886005E+05 -6.463596E+04 -5.240756E+03 -1.382337E+05  1.243094E+04 -2.270570E+04
       162   5 -2.891469E+05 -6.664461E+04 -1.004846E+04 -1.346616E+05  1.596414E+04 -1.628653E+04
       162   6 -2.908811E+05 -8.072240E+04 -2.122305E+04 -1.321973E+05  1.599876E+04 -5.578620E+02
       162   7 -6.285872E+05 -1.869619E+05 -6.430625E+04 -2.328680E+05  1.205392E+04 -2.284886E+04
       162   8 -6.474068E+05 -2.029264E+05 -8.178362E+04 -2.399331E+05  3.377273E+04 -9.598824E+03
       162   9 -6.710214E+05 -2.345684E+05 -1.200485E+05 -2.481054E+05  5.199040E+04  1.296210E+04
       162  10  5.150915E+04  5.770076E+04  5.382023E+04 -4.355068E+04 -2.036301E-10  8.831201E-10
       162  11  6.925275E+04  6.965357E+04  6.168261E+04 -2.933074E+04  9.499586E-09  4.281538E-10
       162  12  8.941512E+04  7.314533E+04  7.759798E+04 -1.621823E+04  4.352935E-09  2.087850E-10
       162  13 -2.886008E+05 -6.463655E+04 -5.242015E+03 -1.382335E+05  2.644179E-09 -8.005671E-10
       162  14 -2.891472E+05 -6.664496E+04 -1.004943E+04 -1.346614E+05  5.740088E-09 -6.596768E-10
       162  15 -2.908814E+05 -8.072247E+04 -2.122353E+04 -1.321973E+05  2.876197E-09  7.379109E-10
       162  16 -6.285875E+05 -1.869625E+05 -6.430751E+04 -2.328678E+05  4.394305E-09 -4.506857E-10
       162  17 -6.474080E+05 -2.029268E+05 -8.178594E+04 -2.399328E+05  4.014660E-09  1.988084E-09
       162  18 -6.710243E+05 -2.345693E+05 -1.200539E+05 -2.481060E+05  8.158832E-10  5.904796E-10
       162  19  5.150946E+04  5.770135E+04  5.382149E+04 -4.355091E+04 -1.280817E+04  2.256246E+04
       162  20  6.925290E+04  6.965414E+04  6.168361E+04 -2.933071E+04  1.855776E+03  2.297889E+04
       162  21  8.941561E+04  7.314565E+04  7.759911E+04 -1.621801E+04  2.001810E+04  1.408898E+04
       162  22 -2.886005E+05 -6.463596E+04 -5.240756E+03 -1.382337E+05 -1.243094E+04  2.270570E+04
       162  23 -2.891469E+05 -6.664461E+04 -1.004846E+04 -1.346616E+05 -1.596414E+04  1.628653E+04
       162  24 -2.908811E+05 -8.072240E+04 -2.122305E+04 -1.321973E+05 -1.599876E+04  5.578620E+02
       162  25 -6.285872E+05 -1.869619E+05 -6.430625E+04 -2.328680E+05 -1.205392E+04  2.284886E+04
       162  26 -6.474068E+05 -2.029264E+05 -8.178362E+04 -2.399331E+05 -3.377273E+04  9.598824E+03
       162  27 -6.710214E+05 -2.345684E+05 -1.200485E+05 -2.481054E+05 -5.199040E+04 -1.296210E+04
       163   1 -2.587296E+05 -4.977434E+04 -7.474660E+04 -1.476985E+04 -7.449082E+04 -1.064256E+03
       163   2 -2.482863E+05  5.151730E+04 -1.370911E+04 -5.116860E+03 -4.930503E+04 -3.061593E+03
       163   3 -2.701257E+05  3.662555E+04  1.894548E+03  1.136188E+04 -2.412154E+04 -2.703773E+03
       163   4 -4.025802E+05 -8.568465E+04 -1.105105E+05  3.013765E+03 -7.547302E+04 -1.066974E+03
       163   5 -3.863637E+05  1.711752E+04 -4.762445E+04 -4.258214E+02 -4.955829E+04 -3.062193E+03
       163   6 -4.025642E+05  3.595207E+03 -3.068614E+04  2.960450E+03 -2.364560E+04 -2.703087E+03
       163   7 -5.464113E+05 -1.215953E+05 -1.462758E+05  2.079325E+04 -7.645499E+04 -1.069750E+03
       163   8 -5.244237E+05 -1.728359E+04 -8.154118E+04  4.264169E+03 -4.981149E+04 -3.062796E+03
       163   9 -5.349866E+05 -2.943618E+04 -6.326809E+04 -5.439192E+03 -2.316976E+04 -2.702414E+03
       163  10 -2.587355E+05 -4.977583E+04 -7.475703E+04 -1.476991E+04  3.019012E-09  6.836603E-10
       163  11 -2.482889E+05  5.151664E+04 -1.371370E+04 -5.116982E+03 -2.134435E-09  1.814744E-10
       163  12 -2.701264E+05  3.662539E+04  1.893440E+03  1.136183E+04  6.149346E-10 -1.802416E-09
       163  13 -4.025863E+05 -8.568619E+04 -1.105212E+05  3.013700E+03  1.786862E-10  9.677155E-10
       163  14 -3.863663E+05  1.711685E+04 -4.762909E+04 -4.259437E+02 -2.160075E-09  3.235147E-10
       163  15 -4.025648E+05  3.595049E+03 -3.068721E+04  2.960398E+03  5.439261E-09 -6.418030E-11
       163  16 -5.464176E+05 -1.215969E+05 -1.462868E+05  2.079319E+04  1.882921E-10  3.906451E-10
       163  17 -5.244263E+05 -1.728426E+04 -8.154586E+04  4.264046E+03 -5.598243E-09 -1.441772E-09
       163  18 -5.349872E+05 -2.943633E+04 -6.326911E+04 -5.439243E+03  1.473898E-09 -1.765968E-09
       163  19 -2.587296E+05 -4.977434E+04 -7.474660E+04 -1.476985E+04  7.449082E+04  1.064256E+03
       163  20 -2.482863E+05  5.151730E+04 -1.370911E+04 -5.116860E+03  4.930503E+04  3.061593E+03
       163  21 -2.701257E+05  3.662555E+04  1.894548E+03  1.136188E+04  2.412154E+04  2.703773E+03
       163  22 -4.025802E+05 -8.568465E+04 -1.105105E+05  3.013765E+03  7.547302E+04  1.066974E+03
       163  23 -3.863637E+05  1.711752E+04 -4.762445E+04 -4.258214E+02  4.955829E+04  3.062193E+03
       163  24 -4.025642E+05  3.595207E+03 -3.068614E+04  2.960450E+03  2.364560E+04  2.703087E+03
       163  25 -5.464113E+05 -1.215953E+05 -1.462758E+05  2.079325E+04  7.645499E+04  1.069750E+03
       163  26 -5.244237E+05 -1.728359E+04 -8.154118E+04  4.264169E+03  4.981149E+04  3.062796E+03
       163  27 -5.349866E+05 -2.943618E+04 -6.326809E+04 -5.439192E+03  2.316976E+04  2.702414E+03
       164   1 -2.791050E+05  1.781573E+04  3.616808E+03  9.422074E+02 -1.863308E+04 -2.225563E+03
       164   2 -2.828308E+05  3.002062E+04  1.497904E+04 -1.026105E+03 -1.228779E+04 -2.267975E+03
       164   3 -2.912480E+05  2.669678E+04  1.833056E+04  4.320480E+03 -5.942767E+03 -2.027051E+03
       164   4 -3.964097E+05 -1.142669E+04 -2.527086E+04  3.095375E+03 -1.868989E+04 -2.225709E+03
       164   5 -3.940545E+05  2.297319E+03 -1.237893E+04 -5.676487E+02 -1.225732E+04 -2.267981E+03
       164   6 -3.964068E+05  4.759137E+02 -7.559410E+03  3.084299E+03 -5.824956E+03 -2.026930E+03
       164   7 -5.137019E+05 -4.067012E+04 -5.415954E+04  5.248131E+03 -1.874669E+04 -2.225855E+03
       164   8 -5.052670E+05 -2.542690E+04 -3.973781E+04 -1.092779E+02 -1.222685E+04 -2.267987E+03
       164   9 -5.015555E+05 -2.574577E+04 -3.345019E+04  1.848325E+03 -5.707164E+03 -2.026808E+03
       164  10 -2.791054E+05  1.781563E+04  3.616146E+03  9.421740E+02 -2.512878E-09 -2.965967E-09
       164  11 -2.828309E+05  3.002058E+04  1.497875E+04 -1.026127E+03 -5.244504E-09  6.653335E-10
       164  12 -2.912480E+05  2.669677E+04  1.833048E+04  4.320471E+03  1.916913E-09  1.409126E-09
       164  13 -3.964101E+05 -1.142679E+04 -2.527152E+04  3.095341E+03 -3.815343E-09 -1.933671E-09
       164  14 -3.940547E+05  2.297273E+03 -1.237922E+04 -5.676711E+02  1.077096E-09 -5.018548E-10
       164  15 -3.964068E+05  4.759002E+02 -7.559482E+03  3.084290E+03 -2.624633E-09 -1.300110E-09
       164  16 -5.137023E+05 -4.067022E+04 -5.416021E+04  5.248098E+03  1.429813E-09 -8.987404E-12
       164  17 -5.052672E+05 -2.542695E+04 -3.973810E+04 -1.093002E+02 -1.452719E-09 -1.661731E-10
       164  18 -5.015556E+05 -2.574579E+04 -3.345026E+04  1.848315E+03 -3.538873E-10 -1.254061E-10
       164  19 -2.791050E+05  1.781573E+04  3.616808E+03  9.422074E+02  1.863308E+04  2.225563E+03
       164  20 -2.828308E+05  3.002062E+04  1.497904E+04 -1.026105E+03  1.228779E+04  2.267975E+03
       164  21 -2.912480E+05  2.669678E+04  1.833056E+04  4.320480E+03  5.942767E+03  2.027051E+03
       164  22 -3.964097E+05 -1.142669E+04 -2.527086E+04  3.095375E+03  1.868989E+04  2.225709E+03
       164  23 -3.940545E+05  2.297319E+03 -1.237893E+04 -5.676487E+02  1.225732E+04  2.267981E+03
       164  24 -3.964068E+05  4.759137E+02 -7.559410E+03  3.084299E+03  5.824956E+03  2.026930E+03
       164  25 -5.137019E+05 -4.067012E+04 -5.415954E+04  5.248131E+03  1.874669E+04  2.225855E+03
       164  26 -5.052670E+05 -2.542690E+04 -3.973781E+04 -1.092779E+02  1.222685E+04  2.267987E+03
       164  27 -5.015555E+05 -2.574577E+04 -3.345019E+04  1.848325E+03  5.707164E+03  2.026808E+03
       165   1 -3.064271E+05  2.069963E+04  1.589982E+04  2.991260E+03 -4.665809E+03 -1.855707E+03
       165   2 -3.124450E+05  2.092563E+04  1.715725E+04 -6.435364E+02 -3.059162E+03 -1.661704E+03
       165   3 -3.191895E+05  1.909918E+04  1.685430E+04  3.407863E+03 -1.452630E+03 -1.429018E+03
       165   4 -3.955222E+05 -1.506915E+03 -6.006630E+03  3.171855E+03 -4.611484E+03 -1.855662E+03
       165   5 -3.951575E+05  3.068549E+02 -3.192183E+03 -6.722170E+02 -2.992980E+03 -1.661635E+03
       165   6 -3.955216E+05  6.596047E+01 -1.946506E+03  3.169974E+03 -1.374576E+03 -1.428925E+03
       165   7 -4.846100E+05 -2.371405E+04 -2.791367E+04  3.352421E+03 -4.557166E+03 -1.855617E+03
       165   8 -4.778638E+05 -2.031243E+04 -2.354212E+04 -7.008957E+02 -2.926807E+03 -1.661566E+03
       165   9 -4.718485E+05 -1.896770E+04 -2.074774E+04  2.932112E+03 -1.296531E+03 -1.428831E+03
       165  10 -3.064271E+05  2.069962E+04  1.589977E+04  2.991253E+03  5.717606E-10  2.614668E-09
       165  11 -3.124450E+05  2.092562E+04  1.715722E+04 -6.435405E+02 -1.975281E-10  2.620678E-09
       165  12 -3.191895E+05  1.909918E+04  1.685429E+04  3.407862E+03  9.544050E-11 -4.820985E-10
       165  13 -3.955222E+05 -1.506924E+03 -6.006676E+03  3.171848E+03  3.049279E-09 -1.085519E-09
       165  14 -3.951575E+05  3.068495E+02 -3.192205E+03 -6.722210E+02  6.453241E-09  2.731244E-09
       165  15 -3.955216E+05  6.595777E+01 -1.946514E+03  3.169972E+03  1.635658E-09  3.808779E-09
       165  16 -4.846100E+05 -2.371406E+04 -2.791371E+04  3.352414E+03  3.844008E-09  1.100553E-09
       165  17 -4.778638E+05 -2.031243E+04 -2.354214E+04 -7.008996E+02 -3.691334E-09  2.832077E-09
       165  18 -4.718485E+05 -1.896770E+04 -2.074775E+04  2.932110E+03 -1.192150E-09  3.215441E-09
       165  19 -3.064271E+05  2.069963E+04  1.589982E+04  2.991260E+03  4.665809E+03  1.855707E+03
       165  20 -3.124450E+05  2.092563E+04  1.715725E+04 -6.435364E+02  3.059162E+03  1.661704E+03
       165  21 -3.191895E+05  1.909918E+04  1.685430E+04  3.407863E+03  1.452630E+03  1.429018E+03
       165  22 -3.955222E+05 -1.506915E+03 -6.006630E+03  3.171855E+03  4.611484E+03  1.855662E+03
       165  23 -3.951575E+05  3.068549E+02 -3.192183E+03 -6.722170E+02  2.992980E+03  1.661635E+03
       165  24 -3.955216E+05  6.596047E+01 -1.946506E+03  3.169974E+03  1.374576E+03  1.428925E+03
       165  25 -4.846100E+05 -2.371405E+04 -2.791367E+04  3.352421E+03  4.557166E+03  1.855617E+03
       165  26 -4.778638E+05 -2.031243E+04 -2.354212E+04 -7.008957E+02  2.926807E+03  1.661566E+03
       165  27 -4.718485E+05 -1.896770E+04 -2.074774E+04  2.932112E+03  1.296531E+03  1.428831E+03
       166   1 -3.358109E+05  1.466102E+04  1.308211E+04  3.262473E+03 -1.129341E+03 -1.289407E+03
       166   2 -3.423331E+05  1.325298E+04  1.204931E+04 -6.904867E+02 -6.386927E+02 -1.060961E+03
       166   3 -3.490105E+05  1.156022E+04  1.062160E+04  3.304612E+03 -1.481054E+02 -8.247819E+02
       166   4 -3.953936E+05 -1.883571E+02 -1.557994E+03  3.228972E+03 -1.059444E+03 -1.289319E+03
       166   5 -3.953157E+05  4.491079E+01 -9.864255E+02 -7.452031E+02 -5.664265E+02 -1.060864E+03
       166   6 -3.953935E+05 -6.992581E+00 -8.114724E+02  3.228722E+03 -7.346443E+01 -8.246751E+02
       166   7 -4.549731E+05 -1.503800E+04 -1.619836E+04  3.195474E+03 -9.895543E+02 -1.289230E+03
       166   8 -4.482958E+05 -1.316336E+04 -1.402237E+04 -7.999158E+02 -4.941665E+02 -1.060766E+03
       166   9 -4.417746E+05 -1.157436E+04 -1.224471E+04  3.152838E+03  1.170950E+00 -8.245684E+02
       166  10 -3.358109E+05  1.466102E+04  1.308210E+04  3.262472E+03  1.675231E-09 -5.723382E-10
       166  11 -3.423331E+05  1.325298E+04  1.204931E+04 -6.904873E+02 -6.052865E-09  4.890507E-09
       166  12 -3.490105E+05  1.156022E+04  1.062160E+04  3.304612E+03 -1.820879E-09  4.101240E-09
       166  13 -3.953936E+05 -1.883592E+02 -1.557999E+03  3.228971E+03 -1.421255E-09  8.675319E-10
       166  14 -3.953157E+05  4.490950E+01 -9.864282E+02 -7.452036E+02 -2.442307E-09  2.480632E-09
       166  15 -3.953935E+05 -6.993313E+00 -8.114737E+02  3.228722E+03  3.210877E-09 -6.817531E-10
       166  16 -4.549731E+05 -1.503800E+04 -1.619836E+04  3.195473E+03 -1.477305E-09  1.882203E-09
       166  17 -4.482958E+05 -1.316337E+04 -1.402237E+04 -7.999162E+02 -8.208424E-10 -9.699185E-10
       166  18 -4.417746E+05 -1.157436E+04 -1.224471E+04  3.152838E+03  2.885446E-09  2.402771E-10
       166  19 -3.358109E+05  1.466102E+04  1.308211E+04  3.262473E+03  1.129341E+03  1.289407E+03
       166  20 -3.423331E+05  1.325298E+04  1.204931E+04 -6.904867E+02  6.386927E+02  1.060961E+03
       166  21 -3.490105E+05  1.156022E+04  1.062160E+04  3.304612E+03  1.481054E+02  8.247819E+02
       166  22 -3.953936E+05 -1.883571E+02 -1.557994E+03  3.228972E+03  1.059444E+03  1.289319E+03
       166  23 -3.953157E+05  4.491079E+01 -9.864255E+02 -7.452031E+02  5.664265E+02  1.060864E+03
       166  24 -3.953935E+05 -6.992581E+00 -8.114724E+02  3.228722E+03  7.346443E+01  8.246751E+02
       166  25 -4.549731E+05 -1.503800E+04 -1.619836E+04  3.195474E+03  9.895543E+02  1.289230E+03
       166  26 -4.482958E+05 -1.316336E+04 -1.402237E+04 -7.999158E+02  4.941665E+02  1.060766E+03
       166  27 -4.417746E+05 -1.157436E+04 -1.224471E+04  3.152838E+03 -1.170950E+00  8.245684E+02
       167   1 -3.662010E+05  7.265760E+03  6.350811E+03  3.270430E+03 -9.378558E-01 -6.857996E+02
       167   2 -3.728396E+05  5.647655E+03  4.546440E+03 -7.587031E+02  4.904027E+02 -4.485433E+02
       167   3 -3.796422E+05  3.747133E+03  2.345325E+03  3.307976E+03  9.817286E+02 -2.111201E+02
       167   4 -3.953950E+05 -7.922317E+00 -8.114548E+02  3.261546E+03  7.279512E+01 -6.856907E+02
       167   5 -3.953130E+05  4.510146E+01 -9.830618E+02 -7.862332E+02  5.641715E+02 -4.484320E+02
       167   6 -3.953951E+05 -1.842757E+02 -1.551417E+03  3.261819E+03  1.055539E+03 -2.110063E+02
       167   7 -4.245882E+05 -7.281668E+03 -7.973783E+03  3.252662E+03  1.465246E+02 -6.855819E+02
       167   8 -4.177860E+05 -5.557490E+03 -6.512601E+03 -8.137625E+02  6.379377E+02 -4.483207E+02
       167   9 -4.111477E+05 -4.115703E+03 -5.448178E+03  3.215662E+03  1.129347E+03 -2.108925E+02
       167  10 -3.662010E+05  7.265760E+03  6.350810E+03  3.270430E+03  1.178065E-09  2.313998E-09
       167  11 -3.728396E+05  5.647655E+03  4.546439E+03 -7.587029E+02 -1.467786E-09  9.914414E-10
       167  12 -3.796422E+05  3.747133E+03  2.345323E+03  3.307977E+03 -1.292803E-09 -2.955304E-09
       167  13 -3.953950E+05 -7.922823E+00 -8.114557E+02  3.261546E+03  2.678133E-09  3.963446E-09
       167  14 -3.953130E+05  4.510115E+01 -9.830628E+02 -7.862330E+02 -4.451942E-09  1.976332E-10
       167  15 -3.953951E+05 -1.842761E+02 -1.551419E+03  3.261819E+03 -3.473478E-09 -2.959787E-09
       167  16 -4.245882E+05 -7.281669E+03 -7.973784E+03  3.252662E+03  1.108494E-09  3.599748E-09
       167  17 -4.177860E+05 -5.557490E+03 -6.512602E+03 -8.137622E+02  1.824742E-09 -1.005665E-09
       167  18 -4.111477E+05 -4.115704E+03 -5.448180E+03  3.215663E+03 -3.251548E-09 -2.023450E-09
       167  19 -3.662010E+05  7.265760E+03  6.350811E+03  3.270430E+03  9.378558E-01  6.857996E+02
       167  20 -3.728396E+05  5.647655E+03  4.546440E+03 -7.587031E+02 -4.904027E+02  4.485433E+02
       167  21 -3.796422E+05  3.747133E+03  2.345325E+03  3.307976E+03 -9.817286E+02  2.111201E+02
       167  22 -3.953950E+05 -7.922317E+00 -8.114548E+02  3.261546E+03 -7.279512E+01  6.856907E+02
       167  23 -3.953130E+05  4.510146E+01 -9.830618E+02 -7.862332E+02 -5.641715E+02  4.484320E+02
       167  24 -3.953951E+05 -1.842757E+02 -1.551417E+03  3.261819E+03 -1.055539E+03  2.110063E+02
       167  25 -4.245882E+05 -7.281668E+03 -7.973783E+03  3.252662E+03 -1.465246E+02  6.855819E+02
       167  26 -4.177860E+05 -5.557490E+03 -6.512601E+03 -8.137625E+02 -6.379377E+02  4.483207E+02
       167  27 -4.111477E+05 -4.115703E+03 -5.448178E+03  3.215662E+03 -1.129347E+03  2.108925E+02
       168   1 -3.971472E+05 -3.418745E+02 -2.358821E+03  3.105489E+03  1.291825E+03 -6.850155E+01
       168   2 -4.035157E+05 -1.778799E+03 -5.233472E+03 -7.545442E+02  2.907779E+03  1.738064E+02
       168   3 -4.106360E+05 -5.256635E+03 -9.677377E+03  3.509896E+03  4.523748E+03  3.977221E+02
       168   4 -3.955254E+05  6.725720E+01 -1.938730E+03  3.267195E+03  1.369485E+03 -6.838070E+01
       168   5 -3.951502E+05  3.064418E+02 -3.175607E+03 -7.938412E+02  2.979724E+03  1.739168E+02
       168   6 -3.955260E+05 -1.494268E+03 -5.977737E+03  3.269591E+03  4.589994E+03  3.978213E+02
       168   7 -3.939035E+05  4.763888E+02 -1.518640E+03  3.428902E+03  1.447145E+03 -6.825982E+01
       168   8 -3.867847E+05  2.391678E+03 -1.117747E+03 -8.331387E+02  3.051670E+03  1.740272E+02
       168   9 -3.804157E+05  2.268083E+03 -2.278114E+03  3.029280E+03  4.656242E+03  3.979205E+02
       168  10 -3.971473E+05 -3.418749E+02 -2.358824E+03  3.105489E+03 -1.047596E-09 -2.875819E-10
       168  11 -4.035157E+05 -1.778802E+03 -5.233488E+03 -7.545446E+02 -4.209144E-09  1.210514E-09
       168  12 -4.106360E+05 -5.256641E+03 -9.677416E+03  3.509895E+03  6.298504E-10  5.079920E-10
       168  13 -3.955254E+05  6.725669E+01 -1.938734E+03  3.267195E+03  8.282394E-10 -7.636408E-10
       168  14 -3.951502E+05  3.064393E+02 -3.175624E+03 -7.938416E+02 -1.079009E-09  1.837565E-09
       168  15 -3.955260E+05 -1.494273E+03 -5.977777E+03  3.269590E+03 -3.167628E-10  8.791810E-10
       168  16 -3.939035E+05  4.763882E+02 -1.518644E+03  3.428902E+03  3.180748E-09  6.162379E-10
       168  17 -3.867847E+05  2.391675E+03 -1.117765E+03 -8.331391E+02  2.913939E-09 -4.395583E-09
       168  18 -3.804158E+05  2.268077E+03 -2.278155E+03  3.029279E+03 -6.967828E-10  2.207352E-11
       168  19 -3.971472E+05 -3.418745E+02 -2.358821E+03  3.105489E+03 -1.291825E+03  6.850155E+01
       168  20 -4.035157E+05 -1.778799E+03 -5.233472E+03 -7.545442E+02 -2.907779E+03 -1.738064E+02
       168  21 -4.106360E+05 -5.256635E+03 -9.677377E+03  3.509896E+03 -4.523748E+03 -3.977221E+02
       168  22 -3.955254E+05  6.725720E+01 -1.938730E+03  3.267195E+03 -1.369485E+03  6.838070E+01
       168  23 -3.951502E+05  3.064418E+02 -3.175607E+03 -7.938412E+02 -2.979724E+03 -1.739168E+02
       168  24 -3.955260E+05 -1.494268E+03 -5.977737E+03  3.269591E+03 -4.589994E+03 -3.978213E+02
       168  25 -3.939035E+05  4.763888E+02 -1.518640E+03  3.428902E+03 -1.447145E+03  6.825982E+01
       168  26 -3.867847E+05  2.391678E+03 -1.117747E+03 -8.331387E+02 -3.051670E+03 -1.740272E+02
       168  27 -3.804157E+05  2.268083E+03 -2.278114E+03  3.029280E+03 -4.656242E+03 -3.979205E+02
       169   1 -4.288205E+05 -7.611118E+03 -1.551896E+04  2.066498E+03  5.696739E+03  5.612459E+02
       169   2 -4.331278E+05 -7.452246E+03 -2.192766E+04 -2.721473E+02  1.214483E+04  8.169153E+02
       169   3 -4.421688E+05 -2.276433E+04 -3.640942E+04  5.433155E+03  1.859299E+04  9.170520E+02
       169   4 -3.964089E+05  4.774739E+02 -7.523658E+03  3.244376E+03  5.797899E+03  5.614085E+02
       169   5 -3.940477E+05  2.287872E+03 -1.231577E+04 -7.690131E+02  1.219784E+04  8.169800E+02
       169   6 -3.964119E+05 -1.136380E+04 -2.514711E+04  3.261556E+03  1.859792E+04  9.169884E+02
       169   7 -3.639963E+05  8.565992E+03  4.715630E+02  4.422316E+03  5.899064E+03  5.615715E+02
       169   8 -3.549664E+05  1.202788E+04 -2.703986E+03 -1.265911E+03  1.225086E+04  8.170446E+02
       169   9 -3.506530E+05  3.659094E+01 -1.388494E+04  1.089795E+03  1.860285E+04  9.169247E+02
       169  10 -4.288206E+05 -7.611127E+03 -1.551902E+04  2.066495E+03 -1.712468E-09  3.275096E-09
       169  11 -4.331279E+05 -7.452286E+03 -2.192794E+04 -2.721553E+02 -1.489911E-09  2.808905E-09
       169  12 -4.421692E+05 -2.276442E+04 -3.641007E+04  5.433141E+03  1.904755E-09  2.323569E-09
       169  13 -3.964089E+05  4.774645E+02 -7.523722E+03  3.244374E+03  8.082607E-10  1.614418E-09
       169  14 -3.940479E+05  2.287832E+03 -1.231605E+04 -7.690211E+02  3.226425E-09  2.397262E-09
       169  15 -3.964122E+05 -1.136389E+04 -2.514776E+04  3.261542E+03  8.083187E-09  7.100681E-11
       169  16 -3.639963E+05  8.565982E+03  4.714970E+02  4.422314E+03  7.797749E-10  1.237595E-09
       169  17 -3.549665E+05  1.202784E+04 -2.704270E+03 -1.265919E+03 -2.098210E-09 -7.453593E-10
       169  18 -3.506534E+05  3.649707E+01 -1.388560E+04  1.089781E+03 -5.409822E-10 -2.567109E-09
       169  19 -4.288205E+05 -7.611118E+03 -1.551896E+04  2.066498E+03 -5.696739E+03 -5.612459E+02
       169  20 -4.331278E+05 -7.452246E+03 -2.192766E+04 -2.721473E+02 -1.214483E+04 -8.169153E+02
       169  21 -4.421688E+05 -2.276433E+04 -3.640942E+04  5.433155E+03 -1.859299E+04 -9.170520E+02
       169  22 -3.964089E+05  4.774739E+02 -7.523658E+03  3.244376E+03 -5.797899E+03 -5.614085E+02
       169  23 -3.940477E+05  2.287872E+03 -1.231577E+04 -7.690131E+02 -1.219784E+04 -8.169800E+02
       169  24 -3.964119E+05 -1.136380E+04 -2.514711E+04  3.261556E+03 -1.859792E+04 -9.169884E+02
       169  25 -3.639963E+05  8.565992E+03  4.715630E+02  4.422316E+03 -5.899064E+03 -5.615715E+02
       169  26 -3.549664E+05  1.202788E+04 -2.703986E+03 -1.265911E+03 -1.225086E+04 -8.170446E+02
       169  27 -3.506530E+05  3.659094E+01 -1.388494E+04  1.089795E+03 -1.860285E+04 -9.169247E+02
       170   1 -4.652504E+05 -1.208168E+04 -4.597953E+04 -5.161752E+03  2.322844E+04  1.255421E+03
       170   2 -4.556043E+05 -1.970397E+02 -6.438357E+04  3.956344E+03  4.941779E+04  1.599030E+03
       170   3 -4.783440E+05 -1.041361E+05 -1.288040E+05  2.097581E+04  7.560916E+04  6.343689E+02
       170   4 -4.025384E+05  3.583487E+03 -3.053625E+04  3.179927E+03  2.352973E+04  1.256149E+03
       170   5 -3.863905E+05  1.703633E+04 -4.738604E+04 -7.134763E+02  4.931334E+04  1.598501E+03
       170   6 -4.025544E+05 -8.525767E+04 -1.099666E+05  3.294679E+03  7.509927E+04  6.315478E+02
       170   7 -3.398227E+05  1.924862E+04 -1.509321E+04  1.152245E+04  2.383106E+04  1.256886E+03
       170   8 -3.171723E+05  3.426943E+04 -3.038885E+04 -5.383820E+03  4.920889E+04  1.597974E+03
       170   9 -3.267590E+05 -6.637852E+04 -9.112951E+04 -1.438861E+04  7.458931E+04  6.287560E+02
       170  10 -4.652510E+05 -1.208182E+04 -4.598055E+04 -5.161775E+03  7.486514E-10  7.655895E-10
       170  11 -4.556069E+05 -1.976987E+02 -6.438817E+04  3.956280E+03 -3.815571E-09 -7.954448E-10
       170  12 -4.783501E+05 -1.041376E+05 -1.288148E+05  2.097577E+04 -1.663933E-09  1.187932E-10
       170  13 -4.025390E+05  3.583336E+03 -3.053729E+04  3.179903E+03  6.941307E-09  2.982652E-09
       170  14 -3.863931E+05  1.703567E+04 -4.739062E+04 -7.135398E+02  3.501954E-09 -2.443413E-09
       170  15 -4.025605E+05 -8.525919E+04 -1.099772E+05  3.294641E+03  2.408417E-09  2.057541E-09
       170  16 -3.398233E+05  1.924846E+04 -1.509428E+04  1.152242E+04 -8.406183E-10  2.342859E-09
       170  17 -3.171749E+05  3.426877E+04 -3.039340E+04 -5.383883E+03 -2.715601E-09  1.843195E-09
       170  18 -3.267649E+05 -6.638001E+04 -9.113997E+04 -1.438865E+04  5.872986E-10 -3.054245E-10
       170  19 -4.652504E+05 -1.208168E+04 -4.597953E+04 -5.161752E+03 -2.322844E+04 -1.255421E+03
       170  20 -4.556043E+05 -1.970397E+02 -6.438357E+04  3.956344E+03 -4.941779E+04 -1.599030E+03
       170  21 -4.783440E+05 -1.041361E+05 -1.288040E+05  2.097581E+04 -7.560916E+04 -6.343689E+02
       170  22 -4.025384E+05  3.583487E+03 -3.053625E+04  3.179927E+03 -2.352973E+04 -1.256149E+03
       170  23 -3.863905E+05  1.703633E+04 -4.738604E+04 -7.134763E+02 -4.931334E+04 -1.598501E+03
       170  24 -4.025544E+05 -8.525767E+04 -1.099666E+05  3.294679E+03 -7.509927E+04 -6.315478E+02
       170  25 -3.398227E+05  1.924862E+04 -1.509321E+04  1.152245E+04 -2.383106E+04 -1.256886E+03
       170  26 -3.171723E+05  3.426943E+04 -3.038885E+04 -5.383820E+03 -4.920889E+04 -1.597974E+03
       170  27 -3.267590E+05 -6.637852E+04 -9.112951E+04 -1.438861E+04 -7.458931E+04 -6.287560E+02
       171   1  1.508556E+05  8.459979E+05  1.613929E+05 -7.837815E+04  4.293493E+03  5.462294E+04
       171   2  7.076033E+04  7.520370E+05  1.008330E+05 -4.259450E+04  1.246745E+04  2.789432E+04
       171   3  4.904910E+04  6.761201E+05  7.225011E+04 -4.451572E+04  1.022474E+04  1.162378E+03
       171   4  5.622950E+04  4.654740E+05  6.869510E+04 -5.250956E+04  4.303245E+03  4.337105E+04
       171   5 -1.542830E+03  4.572230E+05  3.400784E+04 -3.367798E+04  1.247010E+04  2.541065E+04
       171   6 -2.436322E+03  4.655004E+05  2.522535E+04 -5.254997E+04  1.021955E+04  7.443189E+03
       171   7 -3.840470E+04  8.508374E+04 -2.401239E+04 -2.665682E+04  4.312064E+03  3.212604E+04
       171   8 -7.385168E+04  1.624899E+05 -3.282284E+04 -2.476572E+04  1.247269E+04  2.292815E+04
       171   9 -5.392449E+04  2.549222E+05 -2.180201E+04 -6.058146E+04  1.021419E+04  1.372189E+04
       171  10  1.508548E+05  8.459947E+05  1.613873E+05 -7.837834E+04 -2.753924E-09  6.567512E-09
       171  11  7.075996E+04  7.520361E+05  1.008312E+05 -4.259478E+04 -6.281659E-09 -1.941814E-09
       171  12  4.904899E+04  6.761201E+05  7.224991E+04 -4.451573E+04 -1.988760E-09 -1.045322E-08
       171  13  5.622898E+04  4.654720E+05  6.869153E+04 -5.250971E+04  8.694747E-10 -6.773889E-10
       171  14 -1.543170E+03  4.572223E+05  3.400633E+04 -3.367824E+04 -6.208448E-09  7.529083E-10
       171  15 -2.436449E+03  4.655003E+05  2.522505E+04 -5.255003E+04 -3.718735E-09 -1.647065E-11
       171  16 -3.840500E+04  8.508263E+04 -2.401437E+04 -2.665693E+04 -1.670699E-09 -6.843217E-09
       171  17 -7.385199E+04  1.624893E+05 -3.282412E+04 -2.476595E+04 -4.940872E-10 -2.536395E-10
       171  18 -5.392466E+04  2.549219E+05 -2.180256E+04 -6.058157E+04  1.388362E-09  8.951698E-09
       171  19  1.508556E+05  8.459979E+05  1.613929E+05 -7.837815E+04 -4.293493E+03 -5.462294E+04
       171  20  7.076033E+04  7.520370E+05  1.008330E+05 -4.259450E+04 -1.246745E+04 -2.789432E+04
       171  21  4.904910E+04  6.761201E+05  7.225011E+04 -4.451572E+04 -1.022474E+04 -1.162378E+03
       171  22  5.622950E+04  4.654740E+05  6.869510E+04 -5.250956E+04 -4.303245E+03 -4.337105E+04
       171  23 -1.542830E+03  4.572230E+05  3.400784E+04 -3.367798E+04 -1.247010E+04 -2.541065E+04
       171  24 -2.436322E+03  4.655004E+05  2.522535E+04 -5.254997E+04 -1.021955E+04 -7.443189E+03
       171  25 -3.840470E+04  8.508374E+04 -2.401239E+04 -2.665682E+04 -4.312064E+03 -3.212604E+04
       171  26 -7.385168E+04  1.624899E+05 -3.282284E+04 -2.476572E+04 -1.247269E+04 -2.292815E+04
       171  27 -5.392449E+04  2.549222E+05 -2.180201E+04 -6.058146E+04 -1.021419E+04 -1.372189E+04
       172   1  3.678443E+04  6.004443E+05  5.481867E+04 -5.530506E+04  6.489111E+03  1.212643E+02
       172   2  1.245651E+04  5.135132E+05  3.640380E+04 -3.328627E+04  2.572108E+03 -1.236139E+04
       172   3 -3.436703E+02  4.310175E+05  2.897493E+04 -4.932808E+04 -1.462906E+03 -2.484286E+04
       172   4  3.100778E+03  4.628113E+05  2.397919E+04 -5.261848E+04  6.486285E+03  3.373047E+03
       172   5 -4.822268E+02  4.606061E+05  2.458494E+04 -3.358632E+04  2.569099E+03 -9.009347E+03
       172   6  7.445973E+03  4.628120E+05  3.610790E+04 -5.261453E+04 -1.466010E+03 -2.139221E+04
       172   7 -3.058413E+04  3.251960E+05 -6.861446E+03 -4.993250E+04  6.483487E+03  6.624117E+03
       172   8 -1.342115E+04  4.077016E+05  1.276595E+04 -3.388634E+04  2.566085E+03 -5.657591E+03
       172   9  1.523559E+04  4.946075E+05  4.324086E+04 -5.590116E+04 -1.469151E+03 -1.794140E+04
       172  10  3.678438E+04  6.004443E+05  5.481859E+04 -5.530506E+04 -2.282329E-09 -1.204398E-08
       172  11  1.245646E+04  5.135130E+05  3.640350E+04 -3.328624E+04  1.580946E-09 -3.174236E-09
       172  12 -3.438381E+02  4.310168E+05  2.897377E+04 -4.932810E+04 -7.047974E-10  8.405105E-09
       172  13  3.100730E+03  4.628113E+05  2.397909E+04 -5.261850E+04 -2.172218E-09 -1.013431E-09
       172  14 -4.822557E+02  4.606060E+05  2.458478E+04 -3.358630E+04 -5.366202E-10  8.614269E-10
       172  15  7.445848E+03  4.628115E+05  3.610704E+04 -5.261456E+04  5.123229E-09 -3.182702E-10
       172  16 -3.058419E+04  3.251959E+05 -6.861607E+03 -4.993253E+04 -7.488239E-11  1.158878E-08
       172  17 -1.342117E+04  4.077016E+05  1.276588E+04 -3.388633E+04  3.121413E-09  3.434948E-10
       172  18  1.523551E+04  4.946072E+05  4.324025E+04 -5.590118E+04  1.448818E-09 -9.978007E-09
       172  19  3.678443E+04  6.004443E+05  5.481867E+04 -5.530506E+04 -6.489111E+03 -1.212643E+02
       172  20  1.245651E+04  5.135132E+05  3.640380E+04 -3.328627E+04 -2.572108E+03  1.236139E+04
       172  21 -3.436703E+02  4.310175E+05  2.897493E+04 -4.932808E+04  1.462906E+03  2.484286E+04
       172  22  3.100778E+03  4.628113E+05  2.397919E+04 -5.261848E+04 -6.486285E+03 -3.373047E+03
       172  23 -4.822268E+02  4.606061E+05  2.458494E+04 -3.358632E+04 -2.569099E+03  9.009347E+03
       172  24  7.445973E+03  4.628120E+05  3.610790E+04 -5.261453E+04  1.466010E+03  2.139221E+04
       172  25 -3.058413E+04  3.251960E+05 -6.861446E+03 -4.993250E+04 -6.483487E+03 -6.624117E+03
       172  26 -1.342115E+04  4.077016E+05  1.276595E+04 -3.388634E+04 -2.566085E+03  5.657591E+03
       172  27  1.523559E+04  4.946075E+05  4.324086E+04 -5.590116E+04  1.469151E+03  1.794140E+04
       173   1 -3.171544E+04  3.650501E+05  1.964163E+04 -7.051135E+04 -4.937142E+03 -3.343338E+04
       173   2 -4.969895E+04  2.630330E+05  2.592160E+04 -1.463211E+04 -7.756016E+03 -6.346063E+04
       173   3  5.476795E+04  1.954945E+05  8.235069E+04  3.505787E+03 -2.823615E+03 -9.347679E+04
       173   4 -6.139209E+03  4.697423E+05  4.307648E+04 -5.257324E+04 -4.943268E+03 -2.779096E+04
       173   5 -3.307584E+03  4.519325E+05  6.886441E+04 -3.365356E+04 -7.753175E+03 -6.434442E+04
       173   6  1.230800E+05  4.697064E+05  1.493174E+05 -5.247035E+04 -2.809290E+03 -1.008911E+05
       173   7  1.943751E+04  5.744454E+05  6.651093E+04 -3.463207E+04 -4.949068E+03 -2.214761E+04
       173   8  4.308267E+04  6.408658E+05  1.118051E+05 -5.268084E+04 -7.750280E+03 -6.522847E+04
       173   9  1.913983E+05  7.439937E+05  2.162804E+05 -1.084713E+05 -2.793633E+03 -1.083086E+05
       173  10 -3.171577E+04  3.650489E+05  1.963948E+04 -7.051148E+04  1.110810E-09  1.444962E-10
       173  11 -4.970009E+04  2.630287E+05  2.591392E+04 -1.463250E+04  4.657100E-09 -1.920061E-09
       173  12  5.476560E+04  1.954851E+05  8.233426E+04  3.505575E+03  2.885815E-09 -5.022372E-10
       173  13 -6.139442E+03  4.697415E+05  4.307498E+04 -5.257335E+04  2.633648E-09 -8.736630E-10
       173  14 -3.308759E+03  4.519280E+05  6.885652E+04 -3.365396E+04  2.799535E-09  8.092531E-10
       173  15  1.230773E+05  4.696955E+05  1.492982E+05 -5.247058E+04 -1.839350E-10 -1.521271E-10
       173  16  1.943735E+04  5.744449E+05  6.650996E+04 -3.463216E+04  2.189399E-09 -6.137499E-10
       173  17  4.308146E+04  6.408612E+05  1.117970E+05 -5.268125E+04 -1.058263E-09 -8.388853E-10
       173  18  1.913952E+05  7.439811E+05  2.162584E+05 -1.084715E+05 -4.614165E-10 -7.054836E-10
       173  19 -3.171544E+04  3.650501E+05  1.964163E+04 -7.051135E+04  4.937142E+03  3.343338E+04
       173  20 -4.969895E+04  2.630330E+05  2.592160E+04 -1.463211E+04  7.756016E+03  6.346063E+04
       173  21  5.476795E+04  1.954945E+05  8.235069E+04  3.505787E+03  2.823615E+03  9.347679E+04
       173  22 -6.139209E+03  4.697423E+05  4.307648E+04 -5.257324E+04  4.943268E+03  2.779096E+04
       173  23 -3.307584E+03  4.519325E+05  6.886441E+04 -3.365356E+04  7.753175E+03  6.434442E+04
       173  24  1.230800E+05  4.697064E+05  1.493174E+05 -5.247035E+04  2.809290E+03  1.008911E+05
       173  25  1.943751E+04  5.744454E+05  6.651093E+04 -3.463207E+04  4.949068E+03  2.214761E+04
       173  26  4.308267E+04  6.408658E+05  1.118051E+05 -5.268084E+04  7.750280E+03  6.522847E+04
       173  27  1.913983E+05  7.439937E+05  2.162804E+05 -1.084713E+05  2.793633E+03  1.083086E+05
       174   1  1.939944E+04  5.973845E+03 -1.182666E+04 -8.377001E+03 -5.172002E+04 -2.983077E+03
       174   2  5.578565E+03  7.374300E+04  2.625678E+04 -2.014002E+03 -3.561262E+04 -8.778238E+03
       174   3 -3.012201E+04  6.233575E+04  3.406975E+04  2.181232E+04 -1.951500E+04 -8.040822E+03
       174   4 -2.676349E+05 -6.552560E+04 -8.257928E+04  1.274489E+04 -5.649746E+04 -2.991267E+03
       174   5 -2.563854E+05  8.866229E+03 -3.623929E+04  3.965351E+03 -3.694910E+04 -8.780802E+03
       174   6 -2.676241E+05  3.465128E+03 -2.256984E+04  1.264990E+04 -1.740976E+04 -8.037329E+03
       174   7 -5.545933E+05 -1.370295E+05 -1.533377E+05  3.385698E+04 -6.127268E+04 -2.999784E+03
       174   8 -5.182864E+05 -5.601536E+04 -9.874015E+04  9.942147E+03 -3.828502E+04 -8.783393E+03
       174   9 -5.050743E+05 -5.540926E+04 -7.921333E+04  3.490967E+03 -1.530531E+04 -8.033898E+03
       174  10  1.939657E+04  5.973118E+03 -1.183170E+04 -8.377125E+03  4.047645E-09  1.658220E-09
       174  11  5.577182E+03  7.374257E+04  2.625425E+04 -2.014254E+03 -3.093353E-09  6.657769E-09
       174  12 -3.012243E+04  6.233558E+04  3.406892E+04  2.181220E+04 -1.141412E-09  1.983919E-09
       174  13 -2.676384E+05 -6.552647E+04 -8.258530E+04  1.274475E+04  2.334475E-09 -1.000307E-09
       174  14 -2.563869E+05  8.865779E+03 -3.624200E+04  3.965090E+03  7.754564E-11 -1.129544E-09
       174  15 -2.676245E+05  3.464977E+03 -2.257053E+04  1.264978E+04 -3.724718E-09 -7.591909E-10
       174  16 -5.545974E+05 -1.370305E+05 -1.533447E+05  3.385683E+04 -8.022604E-10  1.328735E-09
       174  17 -5.182879E+05 -5.601584E+04 -9.874305E+04  9.941876E+03  2.706055E-09  4.657649E-09
       174  18 -5.050745E+05 -5.540939E+04 -7.921389E+04  3.490868E+03  8.335748E-09 -8.100464E-10
       174  19  1.939944E+04  5.973845E+03 -1.182666E+04 -8.377001E+03  5.172002E+04  2.983077E+03
       174  20  5.578565E+03  7.374300E+04  2.625678E+04 -2.014002E+03  3.561262E+04  8.778238E+03
       174  21 -3.012201E+04  6.233575E+04  3.406975E+04  2.181232E+04  1.951500E+04  8.040822E+03
       174  22 -2.676349E+05 -6.552560E+04 -8.257928E+04  1.274489E+04  5.649746E+04  2.991267E+03
       174  23 -2.563854E+05  8.866229E+03 -3.623929E+04  3.965351E+03  3.694910E+04  8.780802E+03
       174  24 -2.676241E+05  3.465128E+03 -2.256984E+04  1.264990E+04  1.740976E+04  8.037329E+03
       174  25 -5.545933E+05 -1.370295E+05 -1.533377E+05  3.385698E+04  6.127268E+04  2.999784E+03
       174  26 -5.182864E+05 -5.601536E+04 -9.874015E+04  9.942147E+03  3.828502E+04  8.783393E+03
       174  27 -5.050743E+05 -5.540926E+04 -7.921333E+04  3.490967E+03  1.530531E+04  8.033898E+03
       175   1 -5.745110E+04  4.437830E+04  3.082543E+04  1.106660E+04 -1.410012E+04 -6.523858E+03
       175   2 -8.101438E+04  4.575712E+04  3.378175E+04  3.630044E+03 -9.536119E+03 -5.963764E+03
       175   3 -1.072340E+05  3.906475E+04  3.173976E+04  1.392652E+04 -4.973499E+03 -4.939312E+03
       175   4 -2.632251E+05 -6.619446E+03 -1.839125E+04  1.274809E+04 -1.392803E+04 -6.523753E+03
       175   5 -2.618732E+05  9.446864E+02 -9.396899E+03  3.875291E+03 -9.120319E+03 -5.963140E+03
       175   6 -2.632219E+05  3.938366E+02 -5.571448E+03  1.273592E+04 -4.313819E+03 -4.938129E+03
       175   7 -4.689602E+05 -5.762024E+04 -6.761091E+04  1.442901E+04 -1.375598E+04 -6.523647E+03
       175   8 -4.427020E+05 -4.387011E+04 -5.257784E+04  4.120453E+03 -8.704639E+03 -5.962516E+03
       175   9 -4.191875E+05 -3.827883E+04 -4.288437E+04  1.154562E+04 -3.654303E+03 -4.936949E+03
       175  10 -5.745133E+04  4.437820E+04  3.082498E+04  1.106653E+04 -4.004044E-10 -2.478314E-09
       175  11 -8.101449E+04  4.575706E+04  3.378151E+04  3.629998E+03  8.930070E-10  1.635920E-09
       175  12 -1.072341E+05  3.906472E+04  3.173967E+04  1.392650E+04 -1.403334E-10  4.390602E-09
       175  13 -2.632253E+05 -6.619544E+03 -1.839169E+04  1.274802E+04 -1.818838E-10  4.955771E-09
       175  14 -2.618733E+05  9.446259E+02 -9.397122E+03  3.875247E+03  9.478056E-11 -1.089310E-08
       175  15 -2.632220E+05  3.938054E+02 -5.571528E+03  1.273591E+04 -3.309649E-10  2.109947E-09
       175  16 -4.689604E+05 -5.762034E+04 -6.761135E+04  1.442893E+04  2.999472E-09 -5.339797E-09
       175  17 -4.427021E+05 -4.387017E+04 -5.257805E+04  4.120411E+03 -2.535192E-09 -8.517648E-10
       175  18 -4.191875E+05 -3.827886E+04 -4.288445E+04  1.154560E+04 -1.218568E-09 -3.711545E-10
       175  19 -5.745110E+04  4.437830E+04  3.082543E+04  1.106660E+04  1.410012E+04  6.523858E+03
       175  20 -8.101438E+04  4.575712E+04  3.378175E+04  3.630044E+03  9.536119E+03  5.963764E+03
       175  21 -1.072340E+05  3.906475E+04  3.173976E+04  1.392652E+04  4.973499E+03  4.939312E+03
       175  22 -2.632251E+05 -6.619446E+03 -1.839125E+04  1.274809E+04  1.392803E+04  6.523753E+03
       175  23 -2.618732E+05  9.446864E+02 -9.396899E+03  3.875291E+03  9.120319E+03  5.963140E+03
       175  24 -2.632219E+05  3.938366E+02 -5.571448E+03  1.273592E+04  4.313819E+03  4.938129E+03
       175  25 -4.689602E+05 -5.762024E+04 -6.761091E+04  1.442901E+04  1.375598E+04  6.523647E+03
       175  26 -4.427020E+05 -4.387011E+04 -5.257784E+04  4.120453E+03  8.704639E+03  5.962516E+03
       175  27 -4.191875E+05 -3.827883E+04 -4.288437E+04  1.154562E+04  3.654303E+03  4.936949E+03
       176   1 -1.386734E+05  3.010693E+04  2.519850E+04  1.281082E+04 -3.962365E+03 -4.267581E+03
       176   2 -1.634885E+05  2.465269E+04  2.125845E+04  3.978966E+03 -2.788372E+03 -3.256981E+03
       176   3 -1.887253E+05  1.843803E+04  1.634684E+04  1.299190E+04 -1.614685E+03 -2.212099E+03
       176   4 -2.627140E+05 -6.168626E+02 -4.354071E+03  1.276546E+04 -3.438690E+03 -4.266616E+03
       176   5 -2.625008E+05  1.171021E+02 -2.382789E+03  3.842284E+03 -2.246825E+03 -3.255931E+03
       176   6 -2.627127E+05  8.757296E+01 -1.395524E+03  1.276407E+04 -1.055218E+03 -2.210960E+03
       176   7 -3.867404E+05 -3.134176E+04 -3.390772E+04  1.272011E+04 -2.915119E+03 -4.265652E+03
       176   8 -3.615041E+05 -2.441920E+04 -2.602472E+04  3.705619E+03 -1.705364E+03 -3.254882E+03
       176   9 -3.366951E+05 -1.826329E+04 -1.913827E+04  1.253627E+04 -4.958183E+02 -2.209821E+03
       176  10 -1.386735E+05  3.010690E+04  2.519843E+04  1.281081E+04  2.097391E-09 -3.546783E-09
       176  11 -1.634886E+05  2.465268E+04  2.125842E+04  3.978959E+03 -4.352358E-09 -3.062621E-09
       176  12 -1.887253E+05  1.843803E+04  1.634683E+04  1.299189E+04 -2.182799E-10 -1.625940E-09
       176  13 -2.627140E+05 -6.168853E+02 -4.354127E+03  1.276545E+04 -2.147318E-09 -3.305999E-09
       176  14 -2.625008E+05  1.170894E+02 -2.382818E+03  3.842278E+03 -4.743912E-09 -3.221130E-09
       176  15 -2.627127E+05  8.756741E+01 -1.395535E+03  1.276407E+04 -4.869419E-09 -1.797415E-09
       176  16 -3.867404E+05 -3.134178E+04 -3.390777E+04  1.272009E+04  1.331218E-09 -4.382530E-09
       176  17 -3.615041E+05 -2.441921E+04 -2.602474E+04  3.705615E+03  1.301735E-09  4.031086E-09
       176  18 -3.366951E+05 -1.826329E+04 -1.913828E+04  1.253627E+04 -8.138716E-10  5.948191E-09
       176  19 -1.386734E+05  3.010693E+04  2.519850E+04  1.281082E+04  3.962365E+03  4.267581E+03
       176  20 -1.634885E+05  2.465269E+04  2.125845E+04  3.978966E+03  2.788372E+03  3.256981E+03
       176  21 -1.887253E+05  1.843803E+04  1.634684E+04  1.299190E+04  1.614685E+03  2.212099E+03
       176  22 -2.627140E+05 -6.168626E+02 -4.354071E+03  1.276546E+04  3.438690E+03  4.266616E+03
       176  23 -2.625008E+05  1.171021E+02 -2.382789E+03  3.842284E+03  2.246825E+03  3.255931E+03
       176  24 -2.627127E+05  8.757296E+01 -1.395524E+03  1.276407E+04  1.055218E+03  2.210960E+03
       176  25 -3.867404E+05 -3.134176E+04 -3.390772E+04  1.272011E+04  2.915119E+03  4.265652E+03
       176  26 -3.615041E+05 -2.441920E+04 -2.602472E+04  3.705619E+03  1.705364E+03  3.254882E+03
       176  27 -3.366951E+05 -1.826329E+04 -1.913827E+04  1.253627E+04  4.958183E+02  2.209821E+03
       177   1 -2.207377E+05  1.036084E+04  8.851700E+03  1.284045E+04 -1.384610E+03 -1.598676E+03
       177   2 -2.457544E+05  4.199312E+03  3.384609E+03  3.864255E+03 -1.073648E+03 -5.546971E+02
       177   3 -2.709071E+05 -1.975760E+03 -2.308356E+03  1.277500E+04 -7.627395E+02  4.916689E+02
       177   4 -2.626476E+05 -9.923014E+00 -1.080084E+03  1.277394E+04 -8.344896E+02 -1.597536E+03
       177   5 -2.625791E+05  2.981401E+01 -6.328807E+02  3.830381E+03 -5.222981E+02 -5.535470E+02
       177   6 -2.626474E+05  5.582394E+01 -4.123902E+02  1.277380E+04 -2.101475E+02  4.928315E+02
       177   7 -3.045560E+05 -1.038081E+04 -1.101199E+04  1.270743E+04 -2.844063E+02 -1.596396E+03
       177   8 -2.794036E+05 -4.139705E+03 -4.650389E+03  3.796509E+03  2.903695E+01 -5.523969E+02
       177   9 -2.543877E+05  2.087404E+03  1.483573E+03  1.277259E+04  3.424519E+02  4.939941E+02
       177  10 -2.207377E+05  1.036083E+04  8.851691E+03  1.284045E+04 -1.465381E-09 -2.291054E-09
       177  11 -2.457544E+05  4.199312E+03  3.384606E+03  3.864254E+03 -4.095406E-09  3.246274E-09
       177  12 -2.709071E+05 -1.975761E+03 -2.308358E+03  1.277500E+04 -7.032461E-09  1.593921E-09
       177  13 -2.626476E+05 -9.925941E+00 -1.080090E+03  1.277394E+04 -2.149121E-09  2.940431E-09
       177  14 -2.625791E+05  2.981361E+01 -6.328818E+02  3.830381E+03 -1.439769E-09  3.903350E-10
       177  15 -2.626474E+05  5.582366E+01 -4.123907E+02  1.277380E+04 -6.209258E-09 -3.296832E-09
       177  16 -3.045560E+05 -1.038081E+04 -1.101199E+04  1.270743E+04  1.632064E-09  2.580010E-09
       177  17 -2.794036E+05 -4.139705E+03 -4.650390E+03  3.796509E+03 -4.578714E-09  7.214354E-09
       177  18 -2.543877E+05  2.087403E+03  1.483572E+03  1.277259E+04  6.030357E-09  1.432185E-09
       177  19 -2.207377E+05  1.036084E+04  8.851700E+03  1.284045E+04  1.384610E+03  1.598676E+03
       177  20 -2.457544E+05  4.199312E+03  3.384609E+03  3.864255E+03  1.073648E+03  5.546971E+02
       177  21 -2.709071E+05 -1.975760E+03 -2.308356E+03  1.277500E+04  7.627395E+02 -4.916689E+02
       177  22 -2.626476E+05 -9.923013E+00 -1.080084E+03  1.277394E+04  8.344896E+02  1.597536E+03
       177  23 -2.625791E+05  2.981401E+01 -6.328807E+02  3.830381E+03  5.222981E+02  5.535470E+02
       177  24 -2.626474E+05  5.582394E+01 -4.123902E+02  1.277380E+04  2.101475E+02 -4.928315E+02
       177  25 -3.045560E+05 -1.038081E+04 -1.101199E+04  1.270743E+04  2.844063E+02  1.596396E+03
       177  26 -2.794036E+05 -4.139705E+03 -4.650389E+03  3.796509E+03 -2.903695E+01  5.523969E+02
       177  27 -2.543877E+05  2.087404E+03  1.483573E+03  1.277259E+04 -3.424519E+02 -4.939941E+02
       178   1 -3.029961E+05 -9.966630E+03 -1.006596E+04  1.270603E+04 -6.950147E+02  1.101370E+03
       178   2 -3.280057E+05 -1.619062E+04 -1.592975E+04  3.735812E+03 -5.420880E+02  2.146817E+03
       178   3 -3.531111E+05 -2.237456E+04 -2.190187E+04  1.263523E+04 -3.890223E+02  3.188625E+03
       178   4 -2.626389E+05  5.021193E+01 -3.525268E+02  1.276996E+04 -1.424435E+02  1.102523E+03
       178   5 -2.625910E+05  2.105645E+01 -3.089496E+02  3.835215E+03  8.559116E+00  2.147932E+03
       178   6 -2.626396E+05  3.222907E+01 -3.724251E+02  1.276999E+04  1.597069E+02  3.189703E+03
       178   7 -2.222802E+05  1.006693E+04  9.360789E+03  1.283389E+04  4.101636E+02  1.103677E+03
       178   8 -1.971724E+05  1.623242E+04  1.531155E+04  3.934626E+03  5.592640E+02  2.149047E+03
       178   9 -1.721605E+05  2.243843E+04  2.115645E+04  1.290476E+04  7.085157E+02  3.190781E+03
       178  10 -3.029961E+05 -9.966631E+03 -1.006596E+04  1.270603E+04 -1.119176E-08  1.364463E-09
       178  11 -3.280057E+05 -1.619062E+04 -1.592976E+04  3.735813E+03 -7.016114E-09 -5.239671E-09
       178  12 -3.531111E+05 -2.237457E+04 -2.190189E+04  1.263523E+04  5.256529E-09 -1.981963E-09
       178  13 -2.626389E+05  5.021062E+01 -3.525292E+02  1.276996E+04 -1.971058E-10  2.557577E-09
       178  14 -2.625910E+05  2.105149E+01 -3.089583E+02  3.835215E+03 -5.549159E-10 -4.876584E-09
       178  15 -2.626396E+05  3.221814E+01 -3.724443E+02  1.276999E+04  2.872013E-09 -3.781345E-09
       178  16 -2.222802E+05  1.006693E+04  9.360787E+03  1.283389E+04  6.788502E-09 -1.781857E-09
       178  17 -1.971724E+05  1.623242E+04  1.531154E+04  3.934625E+03 -3.220259E-09 -1.143649E-08
       178  18 -1.721605E+05  2.243842E+04  2.115643E+04  1.290476E+04 -2.172162E-09 -5.574545E-09
       178  19 -3.029961E+05 -9.966630E+03 -1.006596E+04  1.270603E+04  6.950147E+02 -1.101370E+03
       178  20 -3.280057E+05 -1.619062E+04 -1.592975E+04  3.735812E+03  5.420880E+02 -2.146817E+03
       178  21 -3.531111E+05 -2.237456E+04 -2.190187E+04  1.263523E+04  3.890223E+02 -3.188625E+03
       178  22 -2.626389E+05  5.021193E+01 -3.525268E+02  1.276996E+04  1.424435E+02 -1.102523E+03
       178  23 -2.625910E+05  2.105645E+01 -3.089496E+02  3.835215E+03 -8.559116E+00 -2.147932E+03
       178  24 -2.626396E+05  3.222907E+01 -3.724251E+02  1.276999E+04 -1.597069E+02 -3.189703E+03
       178  25 -2.222802E+05  1.006693E+04  9.360789E+03  1.283389E+04 -4.101636E+02 -1.103677E+03
       178  26 -1.971724E+05  1.623242E+04  1.531155E+04  3.934626E+03 -5.592640E+02 -2.149047E+03
       178  27 -1.721605E+05  2.243843E+04  2.115645E+04  1.290476E+04 -7.085157E+02 -3.190781E+03
       179   1 -3.851318E+05 -3.031057E+04 -2.976241E+04  1.253865E+04 -3.281612E+02  3.801235E+03
       179   2 -4.100036E+05 -3.649826E+04 -3.588939E+04  3.653530E+03  3.299793E+01  4.841651E+03
       179   3 -4.350247E+05 -4.285012E+04 -4.230622E+04  1.255553E+04  3.945342E+02  5.841880E+03
       179   4 -2.626524E+05  5.972006E+01 -4.381175E+02  1.275148E+04  2.311675E+02  3.802296E+03
       179   5 -2.625802E+05  3.923949E+01 -6.836901E+02  3.858238E+03  5.711858E+02  4.842594E+03
       179   6 -2.626540E+05 -1.415595E+02 -1.204243E+03  1.275185E+04  9.115953E+02  5.842711E+03
       179   7 -1.401592E+05  3.042892E+04  2.888512E+04  1.296435E+04  7.906061E+02  3.803357E+03
       179   8 -1.151369E+05  3.657517E+04  3.452048E+04  4.062985E+03  1.109501E+03  4.843537E+03
       179   9 -9.025591E+04  4.256485E+04  3.989564E+04  1.294822E+04  1.428799E+03  5.843542E+03
       179  10 -3.851318E+05 -3.031059E+04 -2.976244E+04  1.253865E+04 -6.947147E-11 -1.625334E-09
       179  11 -4.100036E+05 -3.649829E+04 -3.588943E+04  3.653529E+03  1.010663E-09 -2.803961E-09
       179  12 -4.350247E+05 -4.285015E+04 -4.230628E+04  1.255553E+04  2.431708E-09 -9.688743E-10
       179  13 -2.626524E+05  5.970453E+01 -4.381448E+02  1.275148E+04 -2.159484E-09 -1.355379E-09
       179  14 -2.625802E+05  3.921422E+01 -6.837348E+02  3.858235E+03 -4.813011E-09 -1.747934E-09
       179  15 -2.626540E+05 -1.415964E+02 -1.204309E+03  1.275185E+04 -2.785164E-09 -9.541429E-10
       179  16 -1.401592E+05  3.042891E+04  2.888509E+04  1.296435E+04 -2.555314E-11  2.709216E-09
       179  17 -1.151369E+05  3.657514E+04  3.452043E+04  4.062981E+03 -2.341539E-10 -4.184794E-09
       179  18 -9.025592E+04  4.256481E+04  3.989558E+04  1.294821E+04  2.623578E-10  2.476949E-09
       179  19 -3.851318E+05 -3.031057E+04 -2.976241E+04  1.253865E+04  3.281612E+02 -3.801235E+03
       179  20 -4.100036E+05 -3.649826E+04 -3.588939E+04  3.653530E+03 -3.299793E+01 -4.841651E+03
       179  21 -4.350247E+05 -4.285012E+04 -4.230622E+04  1.255553E+04 -3.945342E+02 -5.841880E+03
       179  22 -2.626524E+05  5.972006E+01 -4.381175E+02  1.275148E+04 -2.311675E+02 -3.802296E+03
       179  23 -2.625802E+05  3.923949E+01 -6.836901E+02  3.858238E+03 -5.711858E+02 -4.842594E+03
       179  24 -2.626540E+05 -1.415595E+02 -1.204243E+03  1.275185E+04 -9.115953E+02 -5.842711E+03
       179  25 -1.401592E+05  3.042892E+04  2.888512E+04  1.296435E+04 -7.906061E+02 -3.803357E+03
       179  26 -1.151369E+05  3.657517E+04  3.452048E+04  4.062985E+03 -1.109501E+03 -4.843537E+03
       179  27 -9.025591E+04  4.256485E+04  3.989564E+04  1.294822E+04 -1.428799E+03 -5.843542E+03
       180   1 -4.669681E+05 -5.048457E+04 -5.035507E+04  1.218439E+04  4.775919E+02  6.519570E+03
       180   2 -4.913335E+05 -5.647764E+04 -5.723404E+04  3.757138E+03  2.072697E+03  7.530591E+03
       180   3 -5.164771E+05 -6.468482E+04 -6.570975E+04  1.296700E+04  3.668999E+03  8.004829E+03
       180   4 -2.627868E+05  1.355482E+02 -1.528954E+03  1.271731E+04  1.151531E+03  6.520609E+03
       180   5 -2.624235E+05  2.569968E+02 -2.569335E+03  3.900428E+03  2.463825E+03  7.531038E+03
       180   6 -2.627895E+05 -1.786013E+03 -5.009513E+03  1.272027E+04  3.777379E+03  8.004770E+03
       180   7 -5.856729E+04  5.075265E+04  4.729422E+04  1.325039E+04  1.825692E+03  6.521650E+03
       180   8 -3.346546E+04  5.698784E+04  5.209169E+04  4.043752E+03  2.855096E+03  7.531484E+03
       180   9 -9.042839E+03  6.110813E+04  5.568618E+04  1.247342E+04  3.885802E+03  8.004712E+03
       180  10 -4.669681E+05 -5.048462E+04 -5.035515E+04  1.218439E+04  9.319276E-09 -8.427623E-10
       180  11 -4.913336E+05 -5.647770E+04 -5.723416E+04  3.757125E+03  3.875468E-10  5.456395E-10
       180  12 -5.164771E+05 -6.468489E+04 -6.570990E+04  1.296698E+04 -7.168644E-09 -5.290345E-09
       180  13 -2.627868E+05  1.355022E+02 -1.529036E+03  1.271731E+04 -1.972305E-09 -5.948350E-09
       180  14 -2.624236E+05  2.569342E+02 -2.569453E+03  3.900413E+03  3.605969E-09 -2.357059E-09
       180  15 -2.627895E+05 -1.786086E+03 -5.009660E+03  1.272025E+04 -4.586949E-09 -6.616219E-10
       180  16 -5.856731E+04  5.075260E+04  4.729413E+04  1.325038E+04 -9.283025E-09 -2.594589E-09
       180  17 -3.346549E+04  5.698778E+04  5.209156E+04  4.043735E+03 -7.295343E-09 -7.364382E-09
       180  18 -9.042872E+03  6.110806E+04  5.568603E+04  1.247340E+04  4.679973E-09  3.749052E-09
       180  19 -4.669681E+05 -5.048457E+04 -5.035507E+04  1.218439E+04 -4.775919E+02 -6.519570E+03
       180  20 -4.913335E+05 -5.647764E+04 -5.723404E+04  3.757138E+03 -2.072697E+03 -7.530591E+03
       180  21 -5.164771E+05 -6.468482E+04 -6.570975E+04  1.296700E+04 -3.668999E+03 -8.004829E+03
       180  22 -2.627868E+05  1.355482E+02 -1.528954E+03  1.271731E+04 -1.151531E+03 -6.520609E+03
       180  23 -2.624235E+05  2.569968E+02 -2.569335E+03  3.900428E+03 -2.463825E+03 -7.531038E+03
       180  24 -2.627895E+05 -1.786013E+03 -5.009513E+03  1.272027E+04 -3.777379E+03 -8.004770E+03
       180  25 -5.856729E+04  5.075265E+04  4.729422E+04  1.325039E+04 -1.825692E+03 -6.521650E+03
       180  26 -3.346546E+04  5.698784E+04  5.209169E+04  4.043752E+03 -2.855096E+03 -7.531484E+03
       180  27 -9.042839E+03  6.110813E+04  5.568618E+04  1.247342E+04 -3.885802E+03 -8.004712E+03
       181   1 -5.492185E+05 -6.972993E+04 -7.417261E+04  9.913111E+03  2.381462E+03  9.649597E+03
       181   2 -5.703947E+05 -7.428343E+04 -8.372710E+04  5.431770E+03  1.168412E+04  1.032205E+04
       181   3 -5.983280E+05 -1.011963E+05 -1.049226E+05  1.820676E+04  2.099441E+04  3.443664E+03
       181   4 -2.639789E+05  9.589421E+02 -6.143381E+03  1.262699E+04  4.723115E+03  9.652590E+03
       181   5 -2.609501E+05  2.401159E+03 -9.872978E+03  4.009389E+03  1.004427E+04  1.031968E+04
       181   6 -2.639843E+05 -1.781855E+04 -2.247390E+04  1.264786E+04  1.537353E+04  3.437475E+03
       181   7  2.133543E+04  7.164196E+04  6.188015E+04  1.534209E+04  7.065839E+03  9.655604E+03
       181   8  4.858240E+04  7.907884E+04  6.397442E+04  2.586269E+03  8.403602E+03  1.031732E+04
       181   9  7.046125E+04  6.555105E+04  5.996662E+04  7.085928E+03  9.749619E+03  3.431388E+03
       181  10 -5.492185E+05 -6.973003E+04 -7.417280E+04  9.913092E+03 -7.521135E-09 -4.305114E-09
       181  11 -5.703949E+05 -7.428359E+04 -8.372755E+04  5.431673E+03  1.148398E-09  3.030717E-10
       181  12 -5.983285E+05 -1.011965E+05 -1.049234E+05  1.820670E+04  3.542861E-10  1.186384E-09
       181  13 -2.639789E+05  9.588361E+02 -6.143598E+03  1.262695E+04 -4.296646E-09  1.082445E-09
       181  14 -2.609502E+05  2.401018E+03 -9.873368E+03  4.009306E+03 -5.709216E-09  2.173852E-09
       181  15 -2.639846E+05 -1.781862E+04 -2.247436E+04  1.264782E+04 -4.357384E-09  6.050798E-10
       181  16  2.133535E+04  7.164185E+04  6.187989E+04  1.534204E+04  6.446391E-09  7.332143E-09
       181  17  4.858230E+04  7.907870E+04  6.397408E+04  2.586199E+03 -1.634148E-09  3.093673E-09
       181  18  7.046114E+04  6.555101E+04  5.996642E+04  7.085901E+03 -3.873116E-09 -8.370794E-10
       181  19 -5.492185E+05 -6.972993E+04 -7.417261E+04  9.913111E+03 -2.381462E+03 -9.649597E+03
       181  20 -5.703947E+05 -7.428343E+04 -8.372710E+04  5.431770E+03 -1.168412E+04 -1.032205E+04
       181  21 -5.983280E+05 -1.011963E+05 -1.049226E+05  1.820676E+04 -2.099441E+04 -3.443664E+03
       181  22 -2.639789E+05  9.589421E+02 -6.143381E+03  1.262699E+04 -4.723115E+03 -9.652590E+03
       181  23 -2.609501E+05  2.401159E+03 -9.872978E+03  4.009389E+03 -1.004427E+04 -1.031968E+04
       181  24 -2.639843E+05 -1.781855E+04 -2.247390E+04  1.264786E+04 -1.537353E+04 -3.437475E+03
       181  25  2.133543E+04  7.164196E+04  6.188015E+04  1.534209E+04 -7.065839E+03 -9.655604E+03
       181  26  4.858240E+04  7.907884E+04  6.397442E+04  2.586269E+03 -8.403602E+03 -1.031732E+04
       181  27  7.046125E+04  6.555105E+04  5.996662E+04  7.085928E+03 -9.749619E+03 -3.431388E+03
       182   1 -2.376676E+05 -8.670518E+05 -2.340935E+05  1.956313E+05 -9.544312E+03 -6.942518E+04
       182   2 -1.566547E+05 -6.623881E+05 -1.459370E+05  1.588976E+05 -2.855382E+04 -2.969875E+04
       182   3 -1.029033E+05 -4.694875E+05 -9.046392E+04  1.734106E+05 -2.580454E+04  1.006791E+04
       182   4 -3.250191E+04 -3.982955E+04 -3.617301E+04  1.761973E+05 -9.580725E+03 -2.649743E+04
       182   5 -5.485956E+03 -3.661276E+04 -1.621420E+04  1.505876E+05 -2.856058E+04 -1.805624E+04
       182   6 -2.783073E+02 -3.974960E+04 -7.183190E+03  1.762254E+05 -2.579021E+04 -9.588802E+03
       182   7  1.726166E+05  7.880251E+05  1.617063E+05  1.567373E+05 -9.619810E+03  1.648734E+04
       182   8  1.456583E+05  5.895343E+05  1.134878E+05  1.422691E+05 -2.856765E+04 -6.402180E+03
       182   9  1.023359E+05  3.901667E+05  7.609033E+04  1.790423E+05 -2.577606E+04 -2.925882E+04
       182  10 -2.376690E+05 -8.670570E+05 -2.341027E+05  1.956308E+05  8.036976E-10  4.007042E-09
       182  11 -1.566559E+05 -6.623893E+05 -1.459402E+05  1.588970E+05  2.086699E-09  5.092707E-09
       182  12 -1.029040E+05 -4.694878E+05 -9.046537E+04  1.734108E+05  2.673064E-09  3.889874E-09
       182  13 -3.250220E+04 -3.983033E+04 -3.617450E+04  1.761971E+05  3.440506E-09  2.624314E-09
       182  14 -5.486920E+03 -3.661333E+04 -1.621635E+04  1.505872E+05  2.897230E-09 -2.070467E-09
       182  15 -2.790461E+02 -3.974987E+04 -7.184613E+03  1.762252E+05  5.044890E-09  3.983854E-10
       182  16  1.726164E+05  7.880248E+05  1.617056E+05  1.567375E+05  1.882702E-09 -3.632185E-09
       182  17  1.456574E+05  5.895340E+05  1.134862E+05  1.422690E+05  5.343664E-09 -4.799354E-09
       182  18  1.023349E+05  3.901656E+05  7.608747E+04  1.790417E+05  4.127540E-09 -4.847205E-09
       182  19 -2.376676E+05 -8.670518E+05 -2.340935E+05  1.956313E+05  9.544312E+03  6.942518E+04
       182  20 -1.566547E+05 -6.623881E+05 -1.459370E+05  1.588976E+05  2.855382E+04  2.969875E+04
       182  21 -1.029033E+05 -4.694875E+05 -9.046392E+04  1.734106E+05  2.580454E+04 -1.006791E+04
       182  22 -3.250191E+04 -3.982955E+04 -3.617301E+04  1.761973E+05  9.580725E+03  2.649743E+04
       182  23 -5.485956E+03 -3.661276E+04 -1.621420E+04  1.505876E+05  2.856058E+04  1.805624E+04
       182  24 -2.783073E+02 -3.974960E+04 -7.183190E+03  1.762254E+05  2.579021E+04  9.588802E+03
       182  25  1.726166E+05  7.880251E+05  1.617063E+05  1.567373E+05  9.619810E+03 -1.648734E+04
       182  26  1.456583E+05  5.895343E+05  1.134878E+05  1.422691E+05  2.856765E+04  6.402180E+03
       182  27  1.023359E+05  3.901667E+05  7.609033E+04  1.790423E+05  2.577606E+04  2.925882E+04
       183   1 -7.186169E+04 -3.325278E+05 -6.106400E+04  1.766793E+05 -1.768768E+04  7.174742E+03
       183   2 -2.286677E+04 -1.339818E+05 -1.587380E+04  1.504878E+05 -6.406635E+03  6.657119E+03
       183   3  2.643487E+04  6.487166E+04  2.975659E+04  1.767913E+05  5.207041E+03  6.138661E+03
       183   4 -1.588770E+03 -3.823970E+04 -4.053589E+03  1.764965E+05 -1.767728E+04 -8.826556E+03
       183   5 -1.716627E+02 -3.841056E+04  2.019150E+03  1.502501E+05 -6.396546E+03 -9.824696E+03
       183   6  1.638120E+03 -3.822722E+04  8.867593E+03  1.764984E+05  5.216701E+03 -1.082352E+04
       183   7  6.867912E+04  2.561322E+05  5.295373E+04  1.763136E+05 -1.766689E+04 -2.483527E+04
       183   8  2.252307E+04  5.717013E+04  1.991273E+04  1.500125E+05 -6.386446E+03 -2.630899E+04
       183   9 -2.315914E+04 -1.413154E+05 -1.202088E+04  1.762055E+05  5.226377E+03 -2.778293E+04
       183  10 -7.186204E+04 -3.325279E+05 -6.106469E+04  1.766794E+05  6.133216E-09 -3.686322E-10
       183  11 -2.286683E+04 -1.339819E+05 -1.587397E+04  1.504878E+05  1.904525E-09  1.542298E-08
       183  12  2.643483E+04  6.487161E+04  2.975647E+04  1.767913E+05 -1.404635E-09  2.683140E-08
       183  13 -1.589126E+03 -3.823987E+04 -4.054322E+03  1.764963E+05  4.078105E-09  1.956558E-09
       183  14 -1.717325E+02 -3.841067E+04  2.018892E+03  1.502501E+05 -6.125470E-09 -2.160180E-09
       183  15  1.638060E+03 -3.822736E+04  8.867322E+03  1.764984E+05 -6.195326E-09  6.125403E-10
       183  16  6.867862E+04  2.561314E+05  5.295198E+04  1.763132E+05  6.222657E-09  1.666605E-09
       183  17  2.252284E+04  5.716938E+04  1.991135E+04  1.500123E+05 -1.314771E-09 -1.488179E-08
       183  18 -2.315937E+04 -1.413162E+05 -1.202238E+04  1.762056E+05 -1.279168E-09 -2.787179E-08
       183  19 -7.186169E+04 -3.325278E+05 -6.106400E+04  1.766793E+05  1.768768E+04 -7.174742E+03
       183  20 -2.286677E+04 -1.339818E+05 -1.587380E+04  1.504878E+05  6.406635E+03 -6.657119E+03
       183  21  2.643487E+04  6.487166E+04  2.975659E+04  1.767913E+05 -5.207041E+03 -6.138661E+03
       183  22 -1.588770E+03 -3.823970E+04 -4.053589E+03  1.764965E+05  1.767728E+04  8.826556E+03
       183  23 -1.716627E+02 -3.841056E+04  2.019150E+03  1.502501E+05  6.396546E+03  9.824696E+03
       183  24  1.638120E+03 -3.822722E+04  8.867593E+03  1.764984E+05 -5.216701E+03  1.082352E+04
       183  25  6.867912E+04  2.561322E+05  5.295373E+04  1.763136E+05  1.766689E+04  2.483527E+04
       183  26  2.252307E+04  5.717013E+04  1.991273E+04  1.500125E+05  6.386446E+03  2.630899E+04
       183  27 -2.315914E+04 -1.413154E+05 -1.202088E+04  1.762055E+05 -5.226377E+03  2.778293E+04
       184   1  5.680104E+04  2.023314E+05  5.988680E+04  1.716960E+05  1.335667E+04  7.344737E+03
       184   2  1.126814E+05  3.940918E+05  1.165932E+05  1.621890E+05  1.855649E+04 -3.032677E+04
       184   3  2.053946E+05  6.001510E+05  2.070534E+05  2.042763E+05  6.708604E+03 -6.802824E+04
       184   4 -3.002398E+02 -3.608978E+04  1.281225E+04  1.762896E+05  1.336872E+04 -1.238584E+04
       184   5  7.398704E+03 -4.112381E+04  2.519657E+04  1.505129E+05  1.855468E+04 -2.549115E+04
       184   6  4.768405E+04 -3.614397E+04  5.429054E+04  1.763275E+05  6.689454E+03 -3.861419E+04
       184   7 -5.740468E+04 -2.744556E+05 -3.426361E+04  1.808815E+05  1.338048E+04 -3.210901E+04
       184   8 -9.789567E+04 -4.761601E+05 -6.621046E+04  1.388451E+05  1.855268E+04 -2.065886E+04
       184   9 -1.100525E+05 -6.720649E+05 -9.849741E+04  1.484075E+05  6.667652E+03 -9.230125E+03
       184  10  5.680083E+04  2.023312E+05  5.988636E+04  1.716959E+05 -7.509217E-10 -2.450459E-08
       184  11  1.126808E+05  3.940907E+05  1.165908E+05  1.621895E+05  5.072906E-09 -1.357227E-08
       184  12  2.053933E+05  6.001460E+05  2.070446E+05  2.042766E+05 -7.273441E-10 -4.077184E-10
       184  13 -3.004730E+02 -3.608999E+04  1.281163E+04  1.762898E+05 -6.800641E-09  2.984274E-09
       184  14  7.398159E+03 -4.112460E+04  2.519470E+04  1.505133E+05 -5.391714E-09 -7.444782E-10
       184  15  4.768360E+04 -3.614559E+04  5.428765E+04  1.763277E+05  8.159096E-10  2.387290E-09
       184  16 -5.740515E+04 -2.744568E+05 -3.426589E+04  1.808818E+05  3.534220E-09  2.608546E-08
       184  17 -9.789616E+04 -4.761607E+05 -6.621191E+04  1.388454E+05 -1.708217E-09  1.441987E-08
       184  18 -1.100526E+05 -6.720650E+05 -9.849765E+04  1.484076E+05 -3.105677E-09  5.478384E-10
       184  19  5.680104E+04  2.023314E+05  5.988680E+04  1.716960E+05 -1.335667E+04 -7.344737E+03
       184  20  1.126814E+05  3.940918E+05  1.165932E+05  1.621890E+05 -1.855649E+04  3.032677E+04
       184  21  2.053946E+05  6.001510E+05  2.070534E+05  2.042763E+05 -6.708604E+03  6.802824E+04
       184  22 -3.002398E+02 -3.608978E+04  1.281225E+04  1.762896E+05 -1.336872E+04  1.238584E+04
       184  23  7.398704E+03 -4.112381E+04  2.519657E+04  1.505129E+05 -1.855468E+04  2.549115E+04
       184  24  4.768405E+04 -3.614397E+04  5.429054E+04  1.763275E+05 -6.689454E+03  3.861419E+04
       184  25 -5.740468E+04 -2.744556E+05 -3.426361E+04  1.808815E+05 -1.338048E+04  3.210901E+04
       184  26 -9.789567E+04 -4.761601E+05 -6.621046E+04  1.388451E+05 -1.855268E+04  2.065886E+04
       184  27 -1.100525E+05 -6.720649E+05 -9.849741E+04  1.484075E+05 -6.667652E+03  9.230125E+03
       185   1  6.365926E+05  2.277062E+05  1.340222E+05  2.336882E+05  5.604570E+04  1.721744E+04
       185   2  6.172888E+05  1.516727E+05  8.396596E+04  2.289303E+05  3.623320E+04  1.396419E+03
       185   3  6.154820E+05  1.343897E+05  6.524509E+04  2.170769E+05  1.387323E+04 -7.654311E+03
       185   4  4.166159E+05  1.196220E+05  7.062850E+04  1.476176E+05  4.640193E+04  1.358376E+04
       185   5  4.046202E+05  6.365731E+04  3.073983E+04  1.614076E+05  3.268515E+04  5.940230E+01
       185   6  4.089216E+05  6.524632E+04  1.736641E+04  1.681002E+05  1.641971E+04 -6.695317E+03
       185   7  1.966915E+05  1.155346E+04  7.231692E+03  6.157929E+04  3.676206E+04  9.952532E+03
       185   8  1.919975E+05 -2.435156E+04 -2.248952E+04  9.390724E+04  2.913843E+04 -1.276986E+03
       185   9  2.024018E+05 -3.896497E+03 -3.051553E+04  1.191372E+05  1.896529E+04 -5.736583E+03
       185  10  6.365892E+05  2.277050E+05  1.340158E+05  2.336874E+05 -5.587029E-10  6.906562E-10
       185  11  6.172874E+05  1.516724E+05  8.396350E+04  2.289303E+05 -4.855755E-09 -3.625138E-09
       185  12  6.154818E+05  1.343896E+05  6.524461E+04  2.170770E+05 -4.734737E-09  3.593801E-09
       185  13  4.166135E+05  1.196212E+05  7.062411E+04  1.476171E+05 -1.504503E-09 -3.585397E-09
       185  14  4.046190E+05  6.365702E+04  3.073782E+04  1.614076E+05 -7.993832E-09  3.265661E-09
       185  15  4.089213E+05  6.524620E+04  1.736581E+04  1.681003E+05 -5.820494E-09 -6.596614E-11
       185  16  1.966900E+05  1.155299E+04  7.228967E+03  6.157899E+04 -4.257250E-09 -4.410830E-10
       185  17  1.919966E+05 -2.435179E+04 -2.249112E+04  9.390727E+04 -7.799169E-09  3.861049E-09
       185  18  2.024014E+05 -3.896629E+03 -3.051626E+04  1.191373E+05  1.190254E-09  1.736949E-09
       185  19  6.365926E+05  2.277062E+05  1.340222E+05  2.336882E+05 -5.604570E+04 -1.721744E+04
       185  20  6.172888E+05  1.516727E+05  8.396596E+04  2.289303E+05 -3.623320E+04 -1.396419E+03
       185  21  6.154820E+05  1.343897E+05  6.524509E+04  2.170769E+05 -1.387323E+04  7.654311E+03
       185  22  4.166159E+05  1.196220E+05  7.062850E+04  1.476176E+05 -4.640193E+04 -1.358376E+04
       185  23  4.046202E+05  6.365731E+04  3.073983E+04  1.614076E+05 -3.268515E+04 -5.940230E+01
       185  24  4.089216E+05  6.524632E+04  1.736641E+04  1.681002E+05 -1.641971E+04  6.695317E+03
       185  25  1.966915E+05  1.155346E+04  7.231692E+03  6.157929E+04 -3.676206E+04 -9.952532E+03
       185  26  1.919975E+05 -2.435156E+04 -2.248952E+04  9.390724E+04 -2.913843E+04  1.276986E+03
       185  27  2.024018E+05 -3.896497E+03 -3.051553E+04  1.191372E+05 -1.896529E+04  5.736583E+03
       186   1  5.914822E+05  1.402121E+05  5.822371E+04  2.169743E+05  1.320730E+04 -6.452463E+03
       186   2  5.754389E+05  1.268627E+05  4.699752E+04  2.089486E+05  9.065350E+03 -7.161221E+03
       186   3  5.554440E+05  1.222901E+05  3.948856E+04  2.066819E+05  4.810525E+03 -7.570577E+03
       186   4  4.066688E+05  7.033114E+04  1.372852E+04  1.649553E+05  1.374146E+04 -6.251534E+03
       186   5  4.084563E+05  6.444397E+04  7.079715E+03  1.626513E+05  9.869895E+03 -6.858314E+03
       186   6  4.062388E+05  6.728073E+04  3.934811E+03  1.661060E+05  5.885332E+03 -7.165707E+03
       186   7  2.218892E+05  4.528863E+02 -3.076917E+04  1.129506E+05  1.427544E+04 -6.050673E+03
       186   8  2.415018E+05  2.027509E+03 -3.283998E+04  1.163655E+05  1.067420E+04 -6.555498E+03
       186   9  2.570565E+05  1.227312E+04 -3.162031E+04  1.255392E+05  6.959853E+03 -6.760943E+03
       186  10  5.914820E+05  1.402120E+05  5.822330E+04  2.169743E+05  5.544740E-09  7.004614E-09
       186  11  5.754388E+05  1.268626E+05  4.699727E+04  2.089487E+05  4.721136E-09  7.175263E-10
       186  12  5.554439E+05  1.222901E+05  3.948841E+04  2.066819E+05 -3.001400E-09 -2.846082E-09
       186  13  4.066685E+05  7.033104E+04  1.372809E+04  1.649554E+05 -2.595369E-09  5.922194E-10
       186  14  4.084562E+05  6.444389E+04  7.079443E+03  1.626514E+05  1.582929E-09 -8.698809E-09
       186  15  4.062388E+05  6.728067E+04  3.934649E+03  1.661061E+05  2.763103E-09 -7.191824E-10
       186  16  2.218889E+05  4.527923E+02 -3.076962E+04  1.129506E+05 -4.856535E-09 -5.108383E-09
       186  17  2.415017E+05  2.027432E+03 -3.284028E+04  1.163655E+05 -5.141353E-10 -8.558230E-09
       186  18  2.570565E+05  1.227306E+04 -3.162049E+04  1.255392E+05  5.165542E-09  3.744969E-09
       186  19  5.914822E+05  1.402121E+05  5.822371E+04  2.169743E+05 -1.320730E+04  6.452463E+03
       186  20  5.754389E+05  1.268627E+05  4.699752E+04  2.089486E+05 -9.065350E+03  7.161221E+03
       186  21  5.554440E+05  1.222901E+05  3.948856E+04  2.066819E+05 -4.810525E+03  7.570577E+03
       186  22  4.066688E+05  7.033114E+04  1.372852E+04  1.649553E+05 -1.374146E+04  6.251534E+03
       186  23  4.084563E+05  6.444397E+04  7.079715E+03  1.626513E+05 -9.869895E+03  6.858314E+03
       186  24  4.062388E+05  6.728073E+04  3.934811E+03  1.661060E+05 -5.885332E+03  7.165707E+03
       186  25  2.218892E+05  4.528863E+02 -3.076917E+04  1.129506E+05 -1.427544E+04  6.050673E+03
       186  26  2.415018E+05  2.027509E+03 -3.283998E+04  1.163655E+05 -1.067420E+04  6.555498E+03
       186  27  2.570565E+05  1.227312E+04 -3.162031E+04  1.255392E+05 -6.959853E+03  6.760943E+03
       187   1  5.397804E+05  1.172937E+05  3.483547E+04  2.027457E+05  4.091341E+03 -7.067105E+03
       187   2  5.242208E+05  1.075218E+05  2.917636E+04  1.945397E+05  2.847560E+03 -6.280562E+03
       187   3  5.032354E+05  1.035531E+05  2.418415E+04  1.927070E+05  1.599240E+03 -5.482473E+03
       187   4  4.060541E+05  6.754803E+04  2.992983E+03  1.658977E+05  5.074592E+03 -6.696675E+03
       187   5  4.087582E+05  6.457327E+04  1.638423E+03  1.627393E+05  3.841394E+03 -5.906056E+03
       187   6  4.060344E+05  6.739993E+04  9.426008E+02  1.659541E+05  2.603634E+03 -5.103898E+03
       187   7  2.723449E+05  1.780333E+04 -2.885098E+04  1.290568E+05  6.057617E+03 -6.326330E+03
       187   8  2.933085E+05  2.162559E+04 -2.590056E+04  1.309442E+05  4.835030E+03 -5.531624E+03
       187   9  3.088428E+05  3.124740E+04 -2.229964E+04  1.392051E+05  3.607856E+03 -4.725387E+03
       187  10  5.397804E+05  1.172937E+05  3.483534E+04  2.027457E+05 -2.009741E-09 -4.044105E-09
       187  11  5.242207E+05  1.075217E+05  2.917627E+04  1.945398E+05  2.569009E-09  1.566156E-09
       187  12  5.032354E+05  1.035531E+05  2.418409E+04  1.927070E+05 -2.871047E-09  1.532816E-09
       187  13  4.060541E+05  6.754797E+04  2.992850E+03  1.658978E+05  2.496160E-09  1.796527E-09
       187  14  4.087581E+05  6.457323E+04  1.638329E+03  1.627393E+05  5.337618E-09  1.601214E-09
       187  15  4.060344E+05  6.739990E+04  9.425391E+02  1.659542E+05  1.445916E-09  6.999715E-09
       187  16  2.723449E+05  1.780327E+04 -2.885112E+04  1.290569E+05  2.158671E-10  1.900186E-09
       187  17  2.933084E+05  2.162555E+04 -2.590066E+04  1.309442E+05  6.101113E-09  3.450109E-09
       187  18  3.088428E+05  3.124737E+04 -2.229970E+04  1.392051E+05  2.866423E-09  1.152156E-09
       187  19  5.397804E+05  1.172937E+05  3.483547E+04  2.027457E+05 -4.091341E+03  7.067105E+03
       187  20  5.242208E+05  1.075218E+05  2.917636E+04  1.945397E+05 -2.847560E+03  6.280562E+03
       187  21  5.032354E+05  1.035531E+05  2.418415E+04  1.927070E+05 -1.599240E+03  5.482473E+03
       187  22  4.060541E+05  6.754803E+04  2.992983E+03  1.658977E+05 -5.074592E+03  6.696675E+03
       187  23  4.087582E+05  6.457327E+04  1.638423E+03  1.627393E+05 -3.841394E+03  5.906056E+03
       187  24  4.060344E+05  6.739993E+04  9.426008E+02  1.659541E+05 -2.603634E+03  5.103898E+03
       187  25  2.723449E+05  1.780333E+04 -2.885098E+04  1.290568E+05 -6.057617E+03  6.326330E+03
       187  26  2.933085E+05  2.162559E+04 -2.590056E+04  1.309442E+05 -4.835030E+03  5.531624E+03
       187  27  3.088428E+05  3.124740E+04 -2.229964E+04  1.392051E+05 -3.607856E+03  4.725387E+03
       188   1  4.881750E+05  9.796972E+04  2.027272E+04  1.885791E+05  1.220808E+03 -4.884233E+03
       188   2  4.727416E+05  8.840930E+04  1.575186E+04  1.803825E+05  5.550886E+02 -3.866650E+03
       188   3  4.517594E+05  8.445208E+04  1.141788E+04  1.785509E+05 -1.105486E+02 -2.849527E+03
       188   4  4.060152E+05  6.740664E+04  7.392881E+02  1.659334E+05  2.220029E+03 -4.507567E+03
       188   5  4.087901E+05  6.460380E+04  4.968612E+02  1.627516E+05  1.553927E+03 -3.490083E+03
       188   6  4.060158E+05  6.740432E+04  4.416301E+02  1.659347E+05  8.878966E+02 -2.473057E+03
       188   7  3.238625E+05  3.684421E+04 -1.879451E+04  1.432906E+05  3.219100E+03 -4.130957E+03
       188   8  3.448426E+05  4.079861E+04 -1.475843E+04  1.451223E+05  2.552653E+03 -3.113558E+03
       188   9  3.602740E+05  5.035661E+04 -1.053483E+04  1.533193E+05  1.886267E+03 -2.096616E+03
       188  10  4.881750E+05  9.796970E+04  2.027267E+04  1.885791E+05  7.836985E-09  2.150569E-09
       188  11  4.727416E+05  8.840928E+04  1.575183E+04  1.803825E+05  1.025316E-08  3.012999E-09
       188  12  4.517594E+05  8.445207E+04  1.141786E+04  1.785509E+05  1.096306E-09 -5.490239E-09
       188  13  4.060152E+05  6.740662E+04  7.392406E+02  1.659335E+05 -2.143181E-09  2.405063E-09
       188  14  4.087901E+05  6.460379E+04  4.968338E+02  1.627516E+05  2.431732E-09  4.896317E-09
       188  15  4.060158E+05  6.740431E+04  4.416171E+02  1.659347E+05 -1.200995E-09 -2.917565E-09
       188  16  3.238625E+05  3.684419E+04 -1.879456E+04  1.432906E+05 -7.539012E-09 -1.009878E-09
       188  17  3.448426E+05  4.079860E+04 -1.475846E+04  1.451223E+05 -9.972464E-10  8.848100E-10
       188  18  3.602740E+05  5.035661E+04 -1.053484E+04  1.533193E+05  1.499014E-09  3.511886E-10
       188  19  4.881750E+05  9.796972E+04  2.027272E+04  1.885791E+05 -1.220808E+03  4.884233E+03
       188  20  4.727416E+05  8.840930E+04  1.575186E+04  1.803825E+05 -5.550886E+02  3.866650E+03
       188  21  4.517594E+05  8.445208E+04  1.141788E+04  1.785509E+05  1.105486E+02  2.849527E+03
       188  22  4.060152E+05  6.740664E+04  7.392881E+02  1.659334E+05 -2.220029E+03  4.507567E+03
       188  23  4.087901E+05  6.460380E+04  4.968612E+02  1.627516E+05 -1.553927E+03  3.490083E+03
       188  24  4.060158E+05  6.740432E+04  4.416301E+02  1.659347E+05 -8.878966E+02  2.473057E+03
       188  25  3.238625E+05  3.684421E+04 -1.879451E+04  1.432906E+05 -3.219100E+03  4.130957E+03
       188  26  3.448426E+05  4.079861E+04 -1.475843E+04  1.451223E+05 -2.552653E+03  3.113558E+03
       188  27  3.602740E+05  5.035661E+04 -1.053483E+04  1.533193E+05 -1.886267E+03  2.096616E+03
       189   1  4.367839E+05  7.885552E+04  7.748969E+03  1.744312E+05 -4.294884E+02 -2.232116E+03
       189   2  4.213705E+05  6.931271E+04  3.671348E+03  1.662471E+05 -1.178457E+03 -1.247720E+03
       189   3  4.004293E+05  6.537142E+04 -1.558065E+02  1.644192E+05 -1.927205E+03 -2.638723E+02
       189   4  4.060205E+05  6.740267E+04  4.716696E+02  1.659333E+05  5.683276E+02 -1.855865E+03
       189   5  4.087850E+05  6.460509E+04  6.652307E+02  1.627541E+05 -1.811526E+02 -8.716542E+02
       189   6  4.060215E+05  6.740905E+04  1.109641E+03  1.659309E+05 -9.304221E+02  1.120048E+02
       189   7  3.752580E+05  5.594990E+04 -6.805691E+03  1.574357E+05  1.566090E+03 -1.479634E+03
       189   8  3.961997E+05  5.989749E+04 -2.340884E+03  1.592611E+05  8.161270E+02 -4.955977E+02
       189   9  4.116137E+05  6.944667E+04  2.375083E+03  1.674426E+05  6.636540E+01  4.878834E+02
       189  10  4.367839E+05  7.885552E+04  7.748959E+03  1.744312E+05  7.369206E-11 -1.895522E-09
       189  11  4.213705E+05  6.931271E+04  3.671343E+03  1.662471E+05 -7.773343E-09 -8.128686E-09
       189  12  4.004293E+05  6.537142E+04 -1.558136E+02  1.644192E+05 -9.869396E-09 -4.432961E-09
       189  13  4.060205E+05  6.740267E+04  4.716625E+02  1.659333E+05 -7.852729E-10  8.107233E-09
       189  14  4.087850E+05  6.460509E+04  6.652292E+02  1.627541E+05 -7.607830E-09 -3.476235E-09
       189  15  4.060215E+05  6.740905E+04  1.109639E+03  1.659309E+05 -7.203969E-10  3.897262E-09
       189  16  3.752580E+05  5.594989E+04 -6.805700E+03  1.574357E+05 -2.166376E-09  1.401523E-10
       189  17  3.961997E+05  5.989749E+04 -2.340886E+03  1.592611E+05  2.384603E-09  6.645061E-09
       189  18  4.116137E+05  6.944667E+04  2.375082E+03  1.674426E+05  8.507547E-09  1.081374E-08
       189  19  4.367839E+05  7.885552E+04  7.748969E+03  1.744312E+05  4.294884E+02  2.232116E+03
       189  20  4.213705E+05  6.931271E+04  3.671348E+03  1.662471E+05  1.178457E+03  1.247720E+03
       189  21  4.004293E+05  6.537142E+04 -1.558065E+02  1.644192E+05  1.927205E+03  2.638723E+02
       189  22  4.060205E+05  6.740267E+04  4.716696E+02  1.659333E+05 -5.683276E+02  1.855865E+03
       189  23  4.087850E+05  6.460509E+04  6.652307E+02  1.627541E+05  1.811526E+02  8.716542E+02
       189  24  4.060215E+05  6.740905E+04  1.109641E+03  1.659309E+05  9.304221E+02 -1.120048E+02
       189  25  3.752580E+05  5.594990E+04 -6.805691E+03  1.574357E+05 -1.566090E+03  1.479634E+03
       189  26  3.961997E+05  5.989749E+04 -2.340884E+03  1.592611E+05 -8.161270E+02  4.955977E+02
       189  27  4.116137E+05  6.944667E+04  2.375083E+03  1.674426E+05 -6.636540E+01 -4.878834E+02
       190   1  3.854612E+05  5.979306E+04 -3.511412E+03  1.603637E+05 -2.385455E+03  3.015416E+02
       190   2  3.699660E+05  5.019783E+04 -6.651086E+03  1.521183E+05 -4.088232E+03  9.241508E+02
       190   3  3.491662E+05  4.648996E+04 -8.757894E+03  1.502066E+05 -5.787664E+03  1.538132E+03
       190   4  4.060599E+05  6.739228E+04  1.451524E+03  1.659563E+05 -1.385794E+03  6.784977E+02
       190   5  4.087282E+05  6.456865E+04  2.586900E+03  1.627437E+05 -3.096438E+03  1.298114E+03
       190   6  4.060935E+05  6.763404E+04  4.761426E+03  1.658647E+05 -4.803773E+03  1.909088E+03
       190   7  4.266591E+05  7.499157E+04  6.414465E+03  1.715490E+05 -3.860929E+02  1.055469E+03
       190   8  4.474920E+05  7.893962E+04  1.182481E+04  1.733697E+05 -2.104574E+03  1.672103E+03
       190   9  4.630239E+05  8.877835E+04  1.828052E+04  1.815242E+05 -3.819783E+03  2.280080E+03
       190  10  3.854612E+05  5.979306E+04 -3.511423E+03  1.603637E+05  9.841204E-09  3.518363E-09
       190  11  3.699660E+05  5.019783E+04 -6.651119E+03  1.521183E+05  8.669262E-09 -6.413990E-10
       190  12  3.491662E+05  4.648994E+04 -8.757961E+03  1.502066E+05 -3.730173E-09  8.582283E-10
       190  13  4.060599E+05  6.739228E+04  1.451520E+03  1.659563E+05  8.864655E-10  4.374126E-09
       190  14  4.087282E+05  6.456865E+04  2.586878E+03  1.627437E+05  5.219740E-10 -3.218319E-09
       190  15  4.060934E+05  6.763403E+04  4.761376E+03  1.658648E+05 -2.889175E-10 -1.802131E-09
       190  16  4.266591E+05  7.499156E+04  6.414462E+03  1.715490E+05 -3.057322E-09  5.383688E-09
       190  17  4.474920E+05  7.893962E+04  1.182480E+04  1.733697E+05  3.017123E-09 -4.298155E-09
       190  18  4.630239E+05  8.877834E+04  1.828048E+04  1.815242E+05  2.906621E-09  2.258754E-09
       190  19  3.854612E+05  5.979306E+04 -3.511412E+03  1.603637E+05  2.385455E+03 -3.015416E+02
       190  20  3.699660E+05  5.019783E+04 -6.651086E+03  1.521183E+05  4.088232E+03 -9.241508E+02
       190  21  3.491662E+05  4.648996E+04 -8.757894E+03  1.502066E+05  5.787664E+03 -1.538132E+03
       190  22  4.060599E+05  6.739228E+04  1.451524E+03  1.659563E+05  1.385794E+03 -6.784977E+02
       190  23  4.087282E+05  6.456865E+04  2.586900E+03  1.627437E+05  3.096438E+03 -1.298114E+03
       190  24  4.060935E+05  6.763404E+04  4.761426E+03  1.658647E+05  4.803773E+03 -1.909088E+03
       190  25  4.266591E+05  7.499157E+04  6.414465E+03  1.715490E+05  3.860929E+02 -1.055469E+03
       190  26  4.474920E+05  7.893962E+04  1.182481E+04  1.733697E+05  2.104574E+03 -1.672103E+03
       190  27  4.630239E+05  8.877835E+04  1.828052E+04  1.815242E+05  3.819783E+03 -2.280080E+03
       191   1  3.338738E+05  4.105254E+04 -1.094259E+04  1.470851E+05 -6.984346E+03  1.846835E+03
       191   2  3.184427E+05  3.051498E+04 -1.023226E+04  1.374187E+05 -1.292756E+04  8.180842E+02
       191   3  2.999671E+05  3.047086E+04 -4.079318E+03  1.330735E+05 -1.879328E+04 -4.154166E+02
       191   4  4.063953E+05  6.720247E+04  6.268659E+03  1.661911E+05 -5.938385E+03  2.241172E+03
       191   5  4.082442E+05  6.437513E+04  1.129505E+04  1.626110E+05 -1.206664E+04  1.142571E+03
       191   6  4.070846E+05  7.207712E+04  2.190996E+04  1.643518E+05 -1.811760E+04 -1.608636E+02
       191   7  4.789215E+05  9.335256E+04  2.347943E+04  1.852989E+05 -4.892296E+03  2.635554E+03
       191   8  4.980537E+05  9.823591E+04  3.282178E+04  1.878066E+05 -1.120559E+04  1.467110E+03
       191   9  5.142141E+05  1.136847E+05  4.789855E+04  1.956353E+05 -1.744180E+04  9.374318E+01
       191  10  3.338738E+05  4.105252E+04 -1.094268E+04  1.470852E+05  1.026736E-08  5.241290E-09
       191  11  3.184425E+05  3.051493E+04 -1.023258E+04  1.374187E+05  2.517775E-09  1.061073E-08
       191  12  2.999667E+05  3.047076E+04 -4.079982E+03  1.330735E+05 -2.473570E-09  4.733872E-10
       191  13  4.063952E+05  6.720246E+04  6.268583E+03  1.661911E+05  1.244290E-09  1.212006E-09
       191  14  4.082440E+05  6.437509E+04  1.129478E+04  1.626110E+05 -7.911357E-10  1.047004E-08
       191  15  4.070843E+05  7.207703E+04  2.190935E+04  1.643518E+05  9.365294E-10  1.852717E-09
       191  16  4.789215E+05  9.335255E+04  2.347937E+04  1.852989E+05 -8.744051E-09  1.764824E-09
       191  17  4.980535E+05  9.823587E+04  3.282154E+04  1.878066E+05 -4.179499E-09 -3.817825E-09
       191  18  5.142137E+05  1.136846E+05  4.789798E+04  1.956353E+05  5.174527E-09 -2.141770E-09
       191  19  3.338738E+05  4.105254E+04 -1.094259E+04  1.470851E+05  6.984346E+03 -1.846835E+03
       191  20  3.184427E+05  3.051498E+04 -1.023226E+04  1.374187E+05  1.292756E+04 -8.180842E+02
       191  21  2.999671E+05  3.047086E+04 -4.079318E+03  1.330735E+05  1.879328E+04  4.154166E+02
       191  22  4.063953E+05  6.720247E+04  6.268659E+03  1.661911E+05  5.938385E+03 -2.241172E+03
       191  23  4.082442E+05  6.437513E+04  1.129505E+04  1.626110E+05  1.206664E+04 -1.142571E+03
       191  24  4.070846E+05  7.207712E+04  2.190996E+04  1.643518E+05  1.811760E+04  1.608636E+02
       191  25  4.789215E+05  9.335256E+04  2.347943E+04  1.852989E+05  4.892296E+03 -2.635554E+03
       191  26  4.980537E+05  9.823591E+04  3.282178E+04  1.878066E+05  1.120559E+04 -1.467110E+03
       191  27  5.142141E+05  1.136847E+05  4.789855E+04  1.956353E+05  1.744180E+04 -9.374318E+01
       192   1  2.781649E+05  2.699075E+04 -1.736998E+03  1.455676E+05 -2.407919E+04 -1.186174E+03
       192   2  2.708068E+05  1.332214E+02  1.462945E+04  1.100545E+05 -4.619913E+04 -9.554765E+03
       192   3  2.918796E+05  6.106707E+04  7.002374E+04  5.949789E+04 -6.657760E+04 -2.254234E+04
       192   4  4.106433E+05  6.399875E+04  2.771724E+04  1.694108E+05 -2.203050E+04 -4.135391E+02
       192   5  4.021724E+05  6.308450E+04  4.906860E+04  1.605775E+05 -4.831113E+04 -1.035209E+04
       192   6  4.229462E+05  1.507703E+05  1.127373E+05  1.367031E+05 -7.285040E+04 -2.491137E+04
       192   7  5.431397E+05  1.010066E+05  5.717060E+04  1.932579E+05 -1.998132E+04  3.591755E+02
       192   8  5.335546E+05  1.260401E+05  8.350607E+04  2.111108E+05 -5.042360E+04 -1.114971E+04
       192   9  5.540313E+05  2.404886E+05  1.554489E+05  2.139254E+05 -7.912451E+04 -2.728192E+04
       192  10  2.781642E+05  2.699060E+04 -1.738090E+03  1.455676E+05 -1.750632E-09  2.979260E-09
       192  11  2.708045E+05  1.325508E+02  1.462527E+04  1.100542E+05  1.572166E-09  5.830536E-09
       192  12  2.918747E+05  6.106533E+04  7.001446E+04  5.949668E+04  1.296650E-10  4.895629E-09
       192  13  4.106428E+05  6.399862E+04  2.771633E+04  1.694108E+05 -1.207106E-09  8.761355E-10
       192  14  4.021699E+05  6.308376E+04  4.906402E+04  1.605771E+05 -1.223786E-09  7.427721E-09
       192  15  4.229404E+05  1.507682E+05  1.127261E+05  1.367016E+05 -2.992935E-09  1.831728E-09
       192  16  5.431393E+05  1.010065E+05  5.716985E+04  1.932579E+05  6.243602E-09 -2.918320E-09
       192  17  5.335519E+05  1.260392E+05  8.350106E+04  2.111104E+05 -9.891128E-10 -6.458393E-10
       192  18  5.540243E+05  2.404862E+05  1.554357E+05  2.139236E+05 -1.891327E-09  1.117608E-09
       192  19  2.781649E+05  2.699075E+04 -1.736998E+03  1.455676E+05  2.407919E+04  1.186174E+03
       192  20  2.708068E+05  1.332214E+02  1.462945E+04  1.100545E+05  4.619913E+04  9.554765E+03
       192  21  2.918796E+05  6.106707E+04  7.002374E+04  5.949789E+04  6.657760E+04  2.254234E+04
       192  22  4.106433E+05  6.399875E+04  2.771724E+04  1.694108E+05  2.203050E+04  4.135391E+02
       192  23  4.021724E+05  6.308450E+04  4.906860E+04  1.605775E+05  4.831113E+04  1.035209E+04
       192  24  4.229462E+05  1.507703E+05  1.127373E+05  1.367031E+05  7.285040E+04  2.491137E+04
       192  25  5.431397E+05  1.010066E+05  5.717060E+04  1.932579E+05  1.998132E+04 -3.591755E+02
       192  26  5.335546E+05  1.260401E+05  8.350607E+04  2.111108E+05  5.042360E+04  1.114971E+04
       192  27  5.540313E+05  2.404886E+05  1.554489E+05  2.139254E+05  7.912451E+04  2.728192E+04
       193   1 -5.527498E+04 -3.977949E+05 -5.719240E+04  6.664569E+04 -1.372384E+03 -1.244818E+04
       193   2 -1.806957E+04 -2.967670E+05 -2.435599E+04  4.088844E+04 -2.652773E+03 -4.129040E+03
       193   3  6.289636E+03 -1.999193E+05 -1.310997E+02  5.939607E+04  1.456395E+03  4.196503E+03
       193   4 -1.195338E+04 -2.240131E+05 -1.448512E+04  6.112254E+04 -1.375082E+03 -9.117688E+03
       193   5  2.639405E+02 -2.223086E+05 -7.187631E+03  3.899542E+04 -2.651734E+03 -5.322854E+03
       193   6  4.222504E+02 -2.240076E+05 -5.357129E+03  6.113348E+04  1.460966E+03 -1.523003E+03
       193   7  3.136610E+04 -5.020370E+04  2.822001E+04  5.559784E+04 -1.377839E+03 -5.786268E+03
       193   8  1.859708E+04 -1.478450E+05  9.980366E+03  3.710219E+04 -2.650689E+03 -6.516810E+03
       193   9 -5.445145E+03 -2.480953E+05 -1.058307E+04  6.287082E+04  1.465504E+03 -7.242290E+03
       193  10 -5.527503E+04 -3.977950E+05 -5.719270E+04  6.664567E+04  3.353863E-09  3.432135E-09
       193  11 -1.806959E+04 -2.967670E+05 -2.435603E+04  4.088843E+04  8.843999E-09 -1.837873E-09
       193  12  6.289629E+03 -1.999193E+05 -1.311368E+02  5.939606E+04 -1.636964E-09 -2.374437E-09
       193  13 -1.195340E+04 -2.240132E+05 -1.448528E+04  6.112253E+04  3.822236E-09  2.180484E-09
       193  14  2.639254E+02 -2.223086E+05 -7.187697E+03  3.899541E+04  6.900122E-09 -6.077175E-10
       193  15  4.222475E+02 -2.240076E+05 -5.357137E+03  6.113348E+04  1.617504E-09 -5.462000E-09
       193  16  3.136609E+04 -5.020374E+04  2.821994E+04  5.559784E+04  1.247489E-10 -3.472384E-09
       193  17  1.859706E+04 -1.478450E+05  9.980273E+03  3.710217E+04  4.030721E-09  3.998286E-09
       193  18 -5.445161E+03 -2.480954E+05 -1.058317E+04  6.287083E+04  2.506007E-09 -2.261123E-09
       193  19 -5.527498E+04 -3.977949E+05 -5.719240E+04  6.664569E+04  1.372384E+03  1.244818E+04
       193  20 -1.806957E+04 -2.967670E+05 -2.435599E+04  4.088844E+04  2.652773E+03  4.129040E+03
       193  21  6.289636E+03 -1.999193E+05 -1.310997E+02  5.939607E+04 -1.456395E+03 -4.196503E+03
       193  22 -1.195338E+04 -2.240131E+05 -1.448512E+04  6.112254E+04  1.375082E+03  9.117688E+03
       193  23  2.639405E+02 -2.223086E+05 -7.187631E+03  3.899542E+04  2.651734E+03  5.322854E+03
       193  24  4.222504E+02 -2.240076E+05 -5.357129E+03  6.113348E+04 -1.460966E+03  1.523003E+03
       193  25  3.136610E+04 -5.020370E+04  2.822001E+04  5.559784E+04  1.377839E+03  5.786268E+03
       193  26  1.859708E+04 -1.478450E+05  9.980366E+03  3.710219E+04  2.650689E+03  6.516810E+03
       193  27 -5.445145E+03 -2.480953E+05 -1.058307E+04  6.287082E+04 -1.465504E+03  7.242290E+03
       194   1  2.598575E+04 -1.142953E+05  1.934907E+04  6.166158E+04  5.179146E+03  3.651617E+03
       194   2  5.094095E+04 -1.501808E+04  4.120984E+04  3.872243E+04  1.007026E+04  5.923417E+03
       194   3  7.341046E+04  8.348062E+04  6.099758E+04  6.023209E+04  1.449075E+04  8.196503E+03
       194   4 -7.386980E+02 -2.234445E+05 -5.109136E+03  6.117158E+04  5.182698E+03 -6.557660E+02
       194   5  3.517490E+01 -2.230221E+05 -5.287773E+03  3.894619E+04  1.007404E+04  2.010365E+03
       194   6 -1.745008E+03 -2.234564E+05 -7.813463E+03  6.117065E+04  1.449465E+04  4.677429E+03
       194   7 -2.746395E+04 -3.325825E+05 -2.956803E+04  6.068167E+04  5.186258E+03 -4.962399E+03
       194   8 -5.087354E+04 -4.309859E+05 -5.178806E+04  3.916989E+04  1.007781E+04 -1.901391E+03
       194   9 -7.690690E+04 -5.303056E+05 -7.663043E+04  6.210875E+04  1.449855E+04  1.160077E+03
       194  10  2.598572E+04 -1.142953E+05  1.934900E+04  6.166156E+04 -4.803358E-09  5.759637E-09
       194  11  5.094083E+04 -1.501815E+04  4.120959E+04  3.872238E+04 -3.762834E-10 -2.253510E-09
       194  12  7.341022E+04  8.348049E+04  6.099706E+04  6.023199E+04 -6.945647E-09 -2.625181E-09
       194  13 -7.387269E+02 -2.234445E+05 -5.109187E+03  6.117158E+04 -1.456927E-09 -9.807528E-12
       194  14  3.506485E+01 -2.230222E+05 -5.287972E+03  3.894618E+04 -2.793028E-09  1.669877E-09
       194  15 -1.745240E+03 -2.234565E+05 -7.813899E+03  6.117059E+04 -2.536619E-09 -2.731404E-09
       194  16 -2.746398E+04 -3.325826E+05 -2.956813E+04  6.068169E+04  2.847574E-09 -3.130601E-09
       194  17 -5.087365E+04 -4.309859E+05 -5.178825E+04  3.916990E+04 -1.372164E-09 -9.811904E-10
       194  18 -7.690712E+04 -5.303057E+05 -7.663082E+04  6.210874E+04 -3.107606E-09 -3.923121E-09
       194  19  2.598575E+04 -1.142953E+05  1.934907E+04  6.166158E+04 -5.179146E+03 -3.651617E+03
       194  20  5.094095E+04 -1.501808E+04  4.120984E+04  3.872243E+04 -1.007026E+04 -5.923417E+03
       194  21  7.341046E+04  8.348062E+04  6.099758E+04  6.023209E+04 -1.449075E+04 -8.196503E+03
       194  22 -7.386980E+02 -2.234445E+05 -5.109136E+03  6.117158E+04 -5.182698E+03  6.557660E+02
       194  23  3.517490E+01 -2.230221E+05 -5.287773E+03  3.894619E+04 -1.007404E+04 -2.010365E+03
       194  24 -1.745008E+03 -2.234564E+05 -7.813463E+03  6.117065E+04 -1.449465E+04 -4.677429E+03
       194  25 -2.746395E+04 -3.325825E+05 -2.956803E+04  6.068167E+04 -5.186258E+03  4.962399E+03
       194  26 -5.087354E+04 -4.309859E+05 -5.178806E+04  3.916989E+04 -1.007781E+04  1.901391E+03
       194  27 -7.690690E+04 -5.303056E+05 -7.663043E+04  6.210875E+04 -1.449855E+04 -1.160077E+03
       195   1  9.713253E+04  1.672111E+05  7.820663E+04  6.461717E+04  1.919213E+04  1.426196E+04
       195   2  1.207652E+05  2.687011E+05  9.600320E+04  3.456819E+04  2.103390E+04  8.906865E+03
       195   3  1.198299E+05  3.649999E+05  1.111944E+05  4.824733E+04  7.042432E+03  3.528953E+03
       195   4  1.201718E+03 -2.249491E+05 -9.329749E+03  6.102147E+04  1.920140E+04  6.063917E+03
       195   5  5.823941E+02 -2.212072E+05 -1.496246E+04  3.913760E+04  2.102886E+04  1.400912E+04
       195   6 -2.692400E+04 -2.249794E+05 -3.244109E+04  6.098491E+04  7.017363E+03  2.193201E+04
       195   7 -9.473946E+04 -6.169657E+05 -9.687553E+04  5.742809E+04  1.921077E+04 -2.129006E+03
       195   8 -1.196168E+05 -7.108924E+05 -1.259435E+05  4.370342E+04  2.102389E+04  1.910737E+04
       195   9 -1.737027E+05 -8.146401E+05 -1.761005E+05  7.371045E+04  6.993037E+03  4.031763E+04
       195  10  9.713208E+04  1.672108E+05  7.820556E+04  6.461695E+04 -3.967055E-09 -2.508802E-09
       195  11  1.207647E+05  2.687009E+05  9.600222E+04  3.456804E+04  1.746640E-09 -6.989054E-09
       195  12  1.198298E+05  3.649999E+05  1.111942E+05  4.824731E+04  2.788880E-09  4.911783E-09
       195  13  1.201312E+03 -2.249492E+05 -9.330511E+03  6.102138E+04 -5.006712E-09 -2.201228E-09
       195  14  5.818666E+02 -2.212075E+05 -1.496366E+04  3.913736E+04 -4.180387E-09 -7.009575E-10
       195  15 -2.692418E+04 -2.249799E+05 -3.244209E+04  6.098479E+04 -1.385814E-10 -5.541277E-09
       195  16 -9.473986E+04 -6.169658E+05 -9.687623E+04  5.742812E+04  3.163271E-10  3.754741E-09
       195  17 -1.196174E+05 -7.108929E+05 -1.259450E+05  4.370310E+04 -4.874690E-09  1.662076E-09
       195  18 -1.737032E+05 -8.146419E+05 -1.761036E+05  7.371022E+04 -3.082400E-09 -9.126188E-09
       195  19  9.713253E+04  1.672111E+05  7.820663E+04  6.461717E+04 -1.919213E+04 -1.426196E+04
       195  20  1.207652E+05  2.687011E+05  9.600320E+04  3.456819E+04 -2.103390E+04 -8.906865E+03
       195  21  1.198299E+05  3.649999E+05  1.111944E+05  4.824733E+04 -7.042432E+03 -3.528953E+03
       195  22  1.201718E+03 -2.249491E+05 -9.329749E+03  6.102147E+04 -1.920140E+04 -6.063917E+03
       195  23  5.823941E+02 -2.212072E+05 -1.496246E+04  3.913760E+04 -2.102886E+04 -1.400912E+04
       195  24 -2.692400E+04 -2.249794E+05 -3.244109E+04  6.098491E+04 -7.017363E+03 -2.193201E+04
       195  25 -9.473946E+04 -6.169657E+05 -9.687553E+04  5.742809E+04 -1.921077E+04  2.129006E+03
       195  26 -1.196168E+05 -7.108924E+05 -1.259435E+05  4.370342E+04 -2.102389E+04 -1.910737E+04
       195  27 -1.737027E+05 -8.146401E+05 -1.761005E+05  7.371045E+04 -6.993037E+03 -4.031763E+04
       196   1  1.631325E+05  1.119217E+05  1.012588E+05  2.587214E+04  1.896406E+04 -8.136854E+03
       196   2  1.183441E+05  1.207128E+05  8.672686E+04  3.204158E+04  4.534110E+03 -2.719294E+04
       196   3  7.177071E+04  1.147807E+05  7.792038E+04  4.762005E+04 -9.903377E+03 -3.236280E+04
       196   4 -4.192330E+05 -3.186812E+04 -3.542881E+04  4.542245E+04 -2.469083E+04 -8.170750E+03
       196   5 -4.163007E+05 -7.000119E+03 -1.720468E+04  4.070367E+04 -1.578875E+04 -2.721252E+04
       196   6 -4.192112E+05 -9.143490E+02 -9.462662E+03  4.539455E+04 -6.895485E+03 -3.236209E+04
       196   7 -1.001281E+06 -1.756796E+05 -1.721323E+05  6.495425E+04 -6.830502E+04 -8.207413E+03
       196   8 -9.506699E+05 -1.347296E+05 -1.211481E+05  4.935807E+04 -3.609450E+04 -2.723268E+04
       196   9 -9.099578E+05 -1.166227E+05 -9.685474E+04  4.317081E+04 -3.889901E+03 -3.236140E+04
       196  10  1.631320E+05  1.119215E+05  1.012580E+05  2.587227E+04  4.417432E-09 -3.343539E-10
       196  11  1.183439E+05  1.207120E+05  8.672543E+04  3.204168E+04  2.354483E-09 -1.600296E-09
       196  12  7.177032E+04  1.147796E+05  7.791823E+04  4.761979E+04 -2.515827E-10 -6.778442E-10
       196  13 -4.192337E+05 -3.186836E+04 -3.543008E+04  4.542229E+04 -1.932555E-09  3.469541E-10
       196  14 -4.163011E+05 -7.000981E+03 -1.720654E+04  4.070333E+04 -1.506452E-09 -1.497593E-09
       196  15 -4.192116E+05 -9.154861E+02 -9.464720E+03  4.539437E+04  3.434999E-09  7.408631E-10
       196  16 -1.001286E+06 -1.756809E+05 -1.721412E+05  6.495380E+04 -1.513648E-09 -4.931175E-10
       196  17 -9.506715E+05 -1.347308E+05 -1.211520E+05  4.935728E+04  2.782700E-11 -3.716386E-09
       196  18 -9.099581E+05 -1.166238E+05 -9.685673E+04  4.317071E+04 -1.016811E-09 -1.780495E-09
       196  19  1.631325E+05  1.119217E+05  1.012588E+05  2.587214E+04 -1.896406E+04  8.136854E+03
       196  20  1.183441E+05  1.207128E+05  8.672686E+04  3.204158E+04 -4.534110E+03  2.719294E+04
       196  21  7.177071E+04  1.147807E+05  7.792038E+04  4.762005E+04  9.903377E+03  3.236280E+04
       196  22 -4.192330E+05 -3.186812E+04 -3.542881E+04  4.542245E+04  2.469083E+04  8.170750E+03
       196  23 -4.163007E+05 -7.000119E+03 -1.720468E+04  4.070367E+04  1.578875E+04  2.721252E+04
       196  24 -4.192112E+05 -9.143490E+02 -9.462662E+03  4.539455E+04  6.895485E+03  3.236209E+04
       196  25 -1.001281E+06 -1.756796E+05 -1.721323E+05  6.495425E+04  6.830502E+04  8.207413E+03
       196  26 -9.506699E+05 -1.347296E+05 -1.211481E+05  4.935807E+04  3.609450E+04  2.723268E+04
       196  27 -9.099578E+05 -1.166227E+05 -9.685474E+04  4.317081E+04  3.889901E+03  3.236140E+04
       197   1  4.252990E+04  1.069765E+05  7.399230E+04  4.537922E+04 -7.090240E+03 -3.105767E+04
       197   2 -3.048540E+03  9.706703E+04  6.737532E+04  4.060910E+04 -7.187865E+03 -2.959262E+04
       197   3 -4.877153E+04  8.655401E+04  6.066977E+04  4.616679E+04 -7.287518E+03 -2.689047E+04
       197   4 -4.180205E+05 -1.390400E+03 -7.206946E+03  4.560230E+04 -5.664783E+03 -3.105826E+04
       197   5 -4.177604E+05 -1.624997E+02 -3.968049E+03  4.043732E+04 -3.685152E+03 -2.959056E+04
       197   6 -4.180073E+05  1.010385E+02 -2.260967E+03  4.560061E+04 -1.707521E+03 -2.688534E+04
       197   7 -8.783635E+05 -1.097689E+05 -8.841394E+04  4.582516E+04 -4.240350E+03 -3.105884E+04
       197   8 -8.323034E+05 -9.740124E+04 -7.531721E+04  4.026562E+04 -1.847048E+02 -2.958849E+04
       197   9 -7.871089E+05 -8.635916E+04 -6.519608E+04  4.503473E+04  3.869263E+03 -2.688022E+04
       197  10  4.252959E+04  1.069754E+05  7.399039E+04  4.537904E+04 -2.237265E-09 -9.527510E-10
       197  11 -3.048831E+03  9.706608E+04  6.737357E+04  4.060892E+04 -2.329773E-09  1.787967E-09
       197  12 -4.877178E+04  8.655322E+04  6.066831E+04  4.616663E+04 -1.782082E-09  1.176357E-09
       197  13 -4.180208E+05 -1.391444E+03 -7.208819E+03  4.560216E+04  5.019310E-10  1.732087E-10
       197  14 -4.177607E+05 -1.634434E+02 -3.969720E+03  4.043723E+04 -2.705639E-09  8.427010E-10
       197  15 -4.180075E+05  1.002617E+02 -2.262330E+03  4.560057E+04  1.256295E-09 -1.626253E-09
       197  16 -8.783637E+05 -1.097700E+05 -8.841579E+04  4.582505E+04  7.098015E-09  1.638136E-09
       197  17 -8.323036E+05 -9.740218E+04 -7.531885E+04  4.026561E+04  2.685265E-09  1.700211E-09
       197  18 -7.871092E+05 -8.635994E+04 -6.519746E+04  4.503481E+04 -1.321754E-09 -4.531448E-10
       197  19  4.252990E+04  1.069765E+05  7.399230E+04  4.537922E+04  7.090240E+03  3.105767E+04
       197  20 -3.048540E+03  9.706703E+04  6.737532E+04  4.060910E+04  7.187865E+03  2.959262E+04
       197  21 -4.877153E+04  8.655401E+04  6.066977E+04  4.616679E+04  7.287518E+03  2.689047E+04
       197  22 -4.180205E+05 -1.390400E+03 -7.206946E+03  4.560230E+04  5.664783E+03  3.105826E+04
       197  23 -4.177604E+05 -1.624997E+02 -3.968049E+03  4.043732E+04  3.685152E+03  2.959056E+04
       197  24 -4.180073E+05  1.010385E+02 -2.260967E+03  4.560061E+04  1.707521E+03  2.688534E+04
       197  25 -8.783635E+05 -1.097689E+05 -8.841394E+04  4.582516E+04  4.240350E+03  3.105884E+04
       197  26 -8.323034E+05 -9.740124E+04 -7.531721E+04  4.026562E+04  1.847048E+02  2.958849E+04
       197  27 -7.871089E+05 -8.635916E+04 -6.519608E+04  4.503473E+04 -3.869263E+03  2.688022E+04
       198   1 -7.853098E+04  7.948718E+04  5.588783E+04  4.601787E+04 -6.803322E+03 -2.493339E+04
       198   2 -1.242131E+05  6.881377E+04  4.879221E+04  4.075498E+04 -6.506408E+03 -2.163845E+04
       198   3 -1.699517E+05  5.814858E+04  4.149936E+04  4.591432E+04 -6.210367E+03 -1.823212E+04
       198   4 -4.179108E+05  7.094629E+01 -1.718626E+03  4.562180E+04 -1.361884E+03 -2.492801E+04
       198   5 -4.178608E+05  1.109496E+02 -9.838575E+02  4.041051E+04 -8.782610E+02 -2.163226E+04
       198   6 -4.179018E+05  1.267900E+02 -5.762233E+02  4.562173E+04 -3.954912E+02 -1.822508E+04
       198   7 -7.571771E+05 -7.935136E+04 -5.932871E+04  4.522593E+04  4.076675E+03 -2.492264E+04
       198   8 -7.114235E+05 -6.859641E+04 -5.076260E+04  4.006618E+04  4.747309E+03 -2.162607E+04
       198   9 -6.657912E+05 -5.789823E+04 -4.265368E+04  4.532925E+04  5.417137E+03 -1.821805E+04
       198  10 -7.853120E+04  7.948650E+04  5.588657E+04  4.601773E+04 -5.410578E-09  1.905670E-09
       198  11 -1.242133E+05  6.881325E+04  4.879125E+04  4.075487E+04  1.089632E-09  2.125565E-09
       198  12 -1.699518E+05  5.814821E+04  4.149866E+04  4.591422E+04 -1.544282E-09 -4.786976E-10
       198  13 -4.179110E+05  7.027865E+01 -1.719797E+03  4.562178E+04 -1.234029E-09 -1.691654E-09
       198  14 -4.178609E+05  1.104470E+02 -9.847381E+02  4.041050E+04 -1.716552E-09  2.306659E-09
       198  15 -4.179019E+05  1.264333E+02 -5.768477E+02  4.562173E+04  1.150627E-09  2.464359E-09
       198  16 -7.571773E+05 -7.935204E+04 -5.932991E+04  4.522601E+04  1.862140E-09  4.535773E-10
       198  17 -7.114236E+05 -6.859692E+04 -5.076352E+04  4.006627E+04 -5.084370E-09  2.618524E-09
       198  18 -6.657913E+05 -5.789860E+04 -4.265435E+04  4.532933E+04 -5.159107E-09  7.087502E-10
       198  19 -7.853098E+04  7.948718E+04  5.588783E+04  4.601787E+04  6.803322E+03  2.493339E+04
       198  20 -1.242131E+05  6.881377E+04  4.879221E+04  4.075498E+04  6.506408E+03  2.163845E+04
       198  21 -1.699517E+05  5.814858E+04  4.149936E+04  4.591432E+04  6.210367E+03  1.823212E+04
       198  22 -4.179108E+05  7.094629E+01 -1.718626E+03  4.562180E+04  1.361884E+03  2.492801E+04
       198  23 -4.178608E+05  1.109496E+02 -9.838575E+02  4.041051E+04  8.782610E+02  2.163226E+04
       198  24 -4.179018E+05  1.267900E+02 -5.762233E+02  4.562173E+04  3.954912E+02  1.822508E+04
       198  25 -7.571771E+05 -7.935136E+04 -5.932871E+04  4.522593E+04 -4.076675E+03  2.492264E+04
       198  26 -7.114235E+05 -6.859641E+04 -5.076260E+04  4.006618E+04 -4.747309E+03  2.162607E+04
       198  27 -6.657912E+05 -5.789823E+04 -4.265368E+04  4.532925E+04 -5.417137E+03  1.821805E+04
       199   1 -1.997741E+05  5.112874E+04  3.637385E+04  4.587771E+04 -6.109489E+03 -1.621485E+04
       199   2 -2.455097E+05  4.043327E+04  2.887885E+04  4.060136E+04 -5.989680E+03 -1.275407E+04
       199   3 -2.912819E+05  2.976632E+04  2.130441E+04  4.576447E+04 -5.870327E+03 -9.283089E+03
       199   4 -4.178883E+05  1.261597E+02 -4.477013E+02  4.562555E+04 -3.054499E+02 -1.620754E+04
       199   5 -4.178644E+05  1.163528E+02 -2.852865E+02  4.040574E+04 -1.688002E+02 -1.274638E+04
       199   6 -4.178830E+05  1.320215E+02 -2.143123E+02  4.562555E+04 -3.259917E+01 -9.275021E+03
       199   7 -6.359555E+05 -5.087891E+04 -3.727064E+04  4.537347E+04  5.496616E+03 -1.620024E+04
       199   8 -5.901899E+05 -4.020212E+04 -2.945025E+04  4.021016E+04  5.650515E+03 -1.273870E+04
       199   9 -5.444682E+05 -2.950310E+04 -2.173343E+04  4.548665E+04  5.803976E+03 -9.266955E+03
       199  10 -1.997742E+05  5.112845E+04  3.637329E+04  4.587763E+04  3.888663E-10 -3.507456E-10
       199  11 -2.455098E+05  4.043309E+04  2.887847E+04  4.060130E+04 -2.214330E-09  5.547554E-09
       199  12 -2.912820E+05  2.976621E+04  2.130419E+04  4.576442E+04 -5.311298E-09  4.782429E-09
       199  13 -4.178883E+05  1.258777E+02 -4.481950E+02  4.562555E+04 -1.452648E-09  7.858625E-11
       199  14 -4.178645E+05  1.161784E+02 -2.855918E+02  4.040574E+04  7.005445E-11  4.765260E-09
       199  15 -4.178830E+05  1.319291E+02 -2.144739E+02  4.562555E+04 -6.952544E-09  4.144985E-09
       199  16 -6.359556E+05 -5.087920E+04 -3.727119E+04  4.537354E+04  3.656371E-09  3.773346E-10
       199  17 -5.901899E+05 -4.020230E+04 -2.945061E+04  4.021022E+04  1.018833E-09  2.007956E-09
       199  18 -5.444683E+05 -2.950321E+04 -2.173366E+04  4.548670E+04  1.366883E-09  3.647471E-09
       199  19 -1.997741E+05  5.112874E+04  3.637385E+04  4.587771E+04  6.109489E+03  1.621485E+04
       199  20 -2.455097E+05  4.043327E+04  2.887885E+04  4.060136E+04  5.989680E+03  1.275407E+04
       199  21 -2.912819E+05  2.976632E+04  2.130441E+04  4.576447E+04  5.870327E+03  9.283089E+03
       199  22 -4.178883E+05  1.261597E+02 -4.477013E+02  4.562555E+04  3.054499E+02  1.620754E+04
       199  23 -4.178644E+05  1.163528E+02 -2.852865E+02  4.040574E+04  1.688002E+02  1.274638E+04
       199  24 -4.178830E+05  1.320215E+02 -2.143123E+02  4.562555E+04  3.259917E+01  9.275021E+03
       199  25 -6.359555E+05 -5.087891E+04 -3.727064E+04  4.537347E+04 -5.496616E+03  1.620024E+04
       199  26 -5.901899E+05 -4.020212E+04 -2.945025E+04  4.021016E+04 -5.650515E+03  1.273870E+04
       199  27 -5.444682E+05 -2.950310E+04 -2.173343E+04  4.548665E+04 -5.803976E+03  9.266955E+03
       200   1 -3.211327E+05  2.274495E+04  1.606159E+04  4.573088E+04 -5.835281E+03 -7.259307E+03
       200   2 -3.668843E+05  1.204709E+04  8.383994E+03  4.044771E+04 -5.715703E+03 -3.785204E+03
       200   3 -4.126792E+05  1.374097E+03  6.245516E+02  4.561073E+04 -5.596253E+03 -3.160890E+02
       200   4 -4.178819E+05  1.335217E+02 -2.051408E+02  4.562702E+04  2.740176E+00 -7.251101E+03
       200   5 -4.178596E+05  1.237756E+02 -2.344237E+02  4.040390E+04  1.137707E+02 -3.776905E+03
       200   6 -4.178803E+05  1.406391E+02 -3.394960E+02  4.562701E+04  2.246809E+02 -3.076950E+02
       200   7 -5.146217E+05 -2.247838E+04 -1.647204E+04  4.552317E+04  5.839881E+03 -7.242896E+03
       200   8 -4.688321E+05 -1.179966E+04 -8.852797E+03  4.036009E+04  5.942781E+03 -3.768606E+03
       200   9 -4.230814E+05 -1.092802E+03 -1.303417E+03  4.564329E+04  6.045567E+03 -2.993008E+02
       200  10 -3.211327E+05  2.274488E+04  1.606142E+04  4.573085E+04  1.291836E-08  2.036847E-09
       200  11 -3.668844E+05  1.204706E+04  8.383906E+03  4.044769E+04 -1.041883E-08 -1.268739E-10
       200  12 -4.126792E+05  1.374089E+03  6.244925E+02  4.561073E+04 -2.731031E-08 -2.594910E-09
       200  13 -4.178819E+05  1.334653E+02 -2.052396E+02  4.562702E+04  4.109848E-10  6.295235E-09
       200  14 -4.178596E+05  1.237603E+02 -2.344505E+02  4.040390E+04 -5.187428E-09  6.551065E-10
       200  15 -4.178803E+05  1.406390E+02 -3.394963E+02  4.562701E+04  1.657217E-09 -2.926627E-09
       200  16 -5.146218E+05 -2.247844E+04 -1.647220E+04  4.552320E+04 -1.126319E-08  4.246457E-09
       200  17 -4.688322E+05 -1.179968E+04 -8.852891E+03  4.036010E+04  7.264113E-09 -1.496967E-09
       200  18 -4.230814E+05 -1.092812E+03 -1.303486E+03  4.564329E+04  2.681035E-08 -1.750154E-09
       200  19 -3.211327E+05  2.274495E+04  1.606159E+04  4.573088E+04  5.835281E+03  7.259307E+03
       200  20 -3.668843E+05  1.204709E+04  8.383994E+03  4.044771E+04  5.715703E+03  3.785204E+03
       200  21 -4.126792E+05  1.374097E+03  6.245516E+02  4.561073E+04  5.596253E+03  3.160890E+02
       200  22 -4.178819E+05  1.335217E+02 -2.051408E+02  4.562702E+04 -2.740176E+00  7.251101E+03
       200  23 -4.178596E+05  1.237756E+02 -2.344237E+02  4.040390E+04 -1.137707E+02  3.776905E+03
       200  24 -4.178803E+05  1.406391E+02 -3.394960E+02  4.562701E+04 -2.246809E+02  3.076950E+02
       200  25 -5.146217E+05 -2.247838E+04 -1.647204E+04  4.552317E+04 -5.839881E+03  7.242896E+03
       200  26 -4.688321E+05 -1.179966E+04 -8.852797E+03  4.036009E+04 -5.942781E+03  3.768606E+03
       200  27 -4.230814E+05 -1.092802E+03 -1.303417E+03  4.564329E+04 -6.045567E+03  2.993008E+02
       201   1 -4.425450E+05 -5.648835E+03 -4.721364E+03  4.556630E+04 -5.537281E+03  1.705562E+03
       201   2 -4.882631E+05 -1.635381E+04 -1.269655E+04  4.028213E+04 -5.071069E+03  5.142955E+03
       201   3 -5.340819E+05 -2.708764E+04 -2.099265E+04  4.543924E+04 -4.604624E+03  8.511183E+03
       201   4 -4.178892E+05  1.434658E+02 -4.285898E+02  4.562588E+04  2.911948E+02  1.713955E+03
       201   5 -4.178490E+05  1.325391E+02 -7.168786E+02  4.040530E+04  6.411174E+02  5.151035E+03
       201   6 -4.178915E+05  1.130406E+02 -1.245322E+03  4.562593E+04  9.913055E+02  8.518957E+03
       201   7 -3.932328E+05  5.935752E+03  3.864291E+03  4.568546E+04  6.119895E+03  1.722348E+03
       201   8 -3.474301E+05  1.661864E+04  1.126275E+04  4.052848E+04  6.353931E+03  5.159117E+03
       201   9 -3.016877E+05  2.731302E+04  1.850168E+04  4.581265E+04  6.588250E+03  8.526734E+03
       201  10 -4.425451E+05 -5.648847E+03 -4.721427E+03  4.556631E+04  1.766175E-08  4.211601E-10
       201  11 -4.882631E+05 -1.635384E+04 -1.269665E+04  4.028215E+04  8.765948E-09  4.004862E-10
       201  12 -5.340819E+05 -2.708772E+04 -2.099283E+04  4.543927E+04 -1.405818E-08 -1.742281E-09
       201  13 -4.178892E+05  1.434626E+02 -4.285954E+02  4.562588E+04 -1.426960E-09 -1.054227E-09
       201  14 -4.178490E+05  1.325105E+02 -7.169293E+02  4.040529E+04  1.425835E-09  1.996956E-09
       201  15 -4.178915E+05  1.129624E+02 -1.245460E+03  4.562592E+04  5.356198E-10  7.913406E-10
       201  16 -3.932328E+05  5.935739E+03  3.864215E+03  4.568545E+04 -1.935469E-08  1.239261E-09
       201  17 -3.474301E+05  1.661860E+04  1.126263E+04  4.052845E+04 -6.030802E-09 -3.795442E-09
       201  18 -3.016878E+05  2.731293E+04  1.850147E+04  4.581260E+04  1.006543E-08  5.973602E-10
       201  19 -4.425450E+05 -5.648835E+03 -4.721364E+03  4.556630E+04  5.537281E+03 -1.705562E+03
       201  20 -4.882631E+05 -1.635381E+04 -1.269655E+04  4.028213E+04  5.071069E+03 -5.142955E+03
       201  21 -5.340819E+05 -2.708764E+04 -2.099265E+04  4.543924E+04  4.604624E+03 -8.511183E+03
       201  22 -4.178892E+05  1.434658E+02 -4.285898E+02  4.562588E+04 -2.911948E+02 -1.713955E+03
       201  23 -4.178490E+05  1.325391E+02 -7.168786E+02  4.040530E+04 -6.411174E+02 -5.151035E+03
       201  24 -4.178915E+05  1.130406E+02 -1.245322E+03  4.562593E+04 -9.913055E+02 -8.518957E+03
       201  25 -3.932328E+05  5.935752E+03  3.864291E+03  4.568546E+04 -6.119895E+03 -1.722348E+03
       201  26 -3.474301E+05  1.661864E+04  1.126275E+04  4.052848E+04 -6.353931E+03 -5.159117E+03
       201  27 -3.016877E+05  2.731302E+04  1.850168E+04  4.581265E+04 -6.588250E+03 -8.526734E+03
       202   1 -5.640300E+05 -3.410469E+04 -2.668747E+04  4.528576E+04 -4.442940E+03  1.049626E+04
       202   2 -6.094692E+05 -4.505474E+04 -3.605524E+04  4.034637E+04 -1.714640E+03  1.349751E+04
       202   3 -6.555195E+05 -5.691896E+04 -4.743728E+04  4.579339E+04  1.014804E+03  1.572333E+04
       202   4 -4.179608E+05  1.367099E+02 -1.636442E+03  4.561348E+04  1.240253E+03  1.050400E+04
       202   5 -4.177701E+05 -5.476819E+01 -2.867483E+03  4.042110E+04  2.667038E+03  1.350311E+04
       202   6 -4.179671E+05 -9.342082E+02 -5.208299E+03  4.561495E+04  4.095182E+03  1.572690E+04
       202   7 -2.718705E+05  3.437698E+04  2.341399E+04  4.594127E+04  6.924741E+03  1.051174E+04
       202   8 -2.260350E+05  4.494323E+04  3.031907E+04  4.049584E+04  7.050029E+03  1.350870E+04
       202   9 -1.803595E+05  5.504743E+04  3.701860E+04  4.543642E+04  7.176706E+03  1.573046E+04
       202  10 -5.640301E+05 -3.410481E+04 -2.668772E+04  4.528579E+04 -6.987861E-08  1.119726E-09
       202  11 -6.094692E+05 -4.505494E+04 -3.605558E+04  4.034639E+04  2.196747E-09  6.967428E-10
       202  12 -6.555196E+05 -5.691923E+04 -4.743775E+04  4.579338E+04  7.650068E-08  3.764000E-09
       202  13 -4.179608E+05  1.365910E+02 -1.636652E+03  4.561347E+04  6.986696E-10 -1.877320E-10
       202  14 -4.177702E+05 -5.496585E+01 -2.867839E+03  4.042107E+04  1.418989E-09 -4.195596E-09
       202  15 -4.179671E+05 -9.344783E+02 -5.208795E+03  4.561490E+04  8.540585E-10 -9.878273E-09
       202  16 -2.718705E+05  3.437685E+04  2.341370E+04  4.594121E+04  7.049966E-08  1.520772E-09
       202  17 -2.260351E+05  4.494302E+04  3.031863E+04  4.049577E+04 -6.059938E-09 -1.443539E-09
       202  18 -1.803596E+05  5.504715E+04  3.701804E+04  4.543633E+04 -7.976010E-08 -3.100694E-09
       202  19 -5.640300E+05 -3.410469E+04 -2.668747E+04  4.528576E+04  4.442940E+03 -1.049626E+04
       202  20 -6.094692E+05 -4.505474E+04 -3.605524E+04  4.034637E+04  1.714640E+03 -1.349751E+04
       202  21 -6.555195E+05 -5.691896E+04 -4.743728E+04  4.579339E+04 -1.014804E+03 -1.572333E+04
       202  22 -4.179608E+05  1.367099E+02 -1.636442E+03  4.561348E+04 -1.240253E+03 -1.050400E+04
       202  23 -4.177701E+05 -5.476819E+01 -2.867483E+03  4.042110E+04 -2.667038E+03 -1.350311E+04
       202  24 -4.179671E+05 -9.342082E+02 -5.208299E+03  4.561495E+04 -4.095182E+03 -1.572690E+04
       202  25 -2.718705E+05  3.437698E+04  2.341399E+04  4.594127E+04 -6.924741E+03 -1.051174E+04
       202  26 -2.260350E+05  4.494323E+04  3.031907E+04  4.049584E+04 -7.050029E+03 -1.350870E+04
       202  27 -1.803595E+05  5.504743E+04  3.701860E+04  4.543642E+04 -7.176706E+03 -1.573046E+04
       203   1 -6.866217E+05 -6.380091E+04 -5.491185E+04  4.387250E+04  9.115118E+02  1.729854E+04
       203   2 -7.290075E+05 -7.973655E+04 -7.374410E+04  4.680982E+04  2.195086E+04  1.539568E+04
       203   3 -7.781830E+05 -1.117887E+05 -1.103155E+05  5.956450E+04  4.299807E+04  4.783076E+03
       203   4 -4.188276E+05 -5.886468E+02 -6.838343E+03  4.548481E+04  4.983325E+03  1.730320E+04
       203   5 -4.167103E+05 -4.992023E+03 -1.243108E+04  4.058987E+04  1.140621E+04  1.538172E+04
       203   6 -4.188414E+05 -2.296800E+04 -2.560261E+04  4.551266E+04  1.783861E+04  4.751967E+03
       203   7 -1.509634E+05  6.261964E+04  4.123246E+04  4.709780E+04  9.056846E+03  1.730788E+04
       203   8 -1.043192E+05  6.974682E+04  4.887765E+04  3.436669E+04  8.563663E+02  1.536797E+04
       203   9 -5.937895E+04  6.584454E+04  5.910387E+04  3.145258E+04 -7.335348E+03  4.722008E+03
       203  10 -6.866218E+05 -6.380123E+04 -5.491241E+04  4.387249E+04 -2.095041E-08  3.180758E-09
       203  11 -7.290081E+05 -7.973694E+04 -7.374545E+04  4.680954E+04  2.767045E-10  3.104037E-09
       203  12 -7.781850E+05 -1.117892E+05 -1.103190E+05  5.956434E+04  1.446399E-08  6.337816E-10
       203  13 -4.188277E+05 -5.889749E+02 -6.838952E+03  4.548474E+04  2.513759E-09 -4.660645E-09
       203  14 -4.167105E+05 -4.992312E+03 -1.243177E+04  4.058973E+04 -3.399670E-10 -4.756764E-09
       203  15 -4.188417E+05 -2.296811E+04 -2.560325E+04  4.551259E+04 -1.038578E-09  3.985813E-10
       203  16 -1.509636E+05  6.261930E+04  4.123174E+04  4.709767E+04  1.980995E-08  1.481730E-09
       203  17 -1.043193E+05  6.974657E+04  4.887721E+04  3.436668E+04 -1.444216E-09  3.501488E-09
       203  18 -5.937901E+04  6.584450E+04  5.910373E+04  3.145261E+04 -1.412002E-08  6.134787E-10
       203  19 -6.866217E+05 -6.380091E+04 -5.491185E+04  4.387250E+04 -9.115118E+02 -1.729854E+04
       203  20 -7.290075E+05 -7.973655E+04 -7.374410E+04  4.680982E+04 -2.195086E+04 -1.539568E+04
       203  21 -7.781830E+05 -1.117887E+05 -1.103155E+05  5.956450E+04 -4.299807E+04 -4.783076E+03
       203  22 -4.188276E+05 -5.886468E+02 -6.838343E+03  4.548481E+04 -4.983325E+03 -1.730320E+04
       203  23 -4.167103E+05 -4.992023E+03 -1.243108E+04  4.058987E+04 -1.140621E+04 -1.538172E+04
       203  24 -4.188414E+05 -2.296800E+04 -2.560261E+04  4.551266E+04 -1.783861E+04 -4.751967E+03
       203  25 -1.509634E+05  6.261964E+04  4.123246E+04  4.709780E+04 -9.056846E+03 -1.730788E+04
       203  26 -1.043192E+05  6.974682E+04  4.887765E+04  3.436669E+04 -8.563663E+02 -1.536797E+04
       203  27 -5.937895E+04  6.584454E+04  5.910387E+04  3.145258E+04  7.335348E+03 -4.722008E+03
       204   1 -6.243626E+04  7.230846E+04  6.309329E+04  5.167467E+03 -9.822268E+03 -5.692445E+03
       204   2 -9.154758E+04  9.481083E+04  6.827237E+04  9.361014E+03 -1.095075E+04 -1.805600E+04
       204   3 -1.276329E+05  8.877660E+04  6.706510E+04  2.585935E+04 -1.209183E+04 -1.932242E+04
       204   4 -4.859658E+05 -3.284937E+04 -3.926001E+04  2.088621E+04 -2.700273E+04 -5.713054E+03
       204   5 -4.815431E+05 -4.446509E+02 -1.797693E+04  1.471165E+04 -1.748323E+04 -1.806534E+04
       204   6 -4.859503E+05  1.564007E+03 -1.048191E+04  2.084261E+04 -7.976199E+03 -1.931732E+04
       204   7 -9.093301E+05 -1.380192E+05 -1.416249E+05  3.659414E+04 -4.417151E+04 -5.734541E+03
       204   8 -8.713964E+05 -9.571025E+04 -1.042354E+05  2.005884E+04 -2.401165E+04 -1.807480E+04
       204   9 -8.441470E+05 -8.565697E+04 -8.803646E+04  1.582876E+04 -3.862915E+03 -1.931229E+04
       204  10 -6.243638E+04  7.230840E+04  6.309305E+04  5.167422E+03 -2.831233E-09  2.233265E-10
       204  11 -9.154780E+04  9.481045E+04  6.827153E+04  9.360855E+03  8.916466E-09  3.594338E-09
       204  12 -1.276331E+05  8.877616E+04  6.706412E+04  2.585916E+04  1.548613E-08  1.317017E-09
       204  13 -4.859666E+05 -3.284960E+04 -3.926144E+04  2.088608E+04 -2.555109E-10 -1.962198E-09
       204  14 -4.815436E+05 -4.450834E+02 -1.797812E+04  1.471140E+04 -3.037269E-09  5.121169E-10
       204  15 -4.859505E+05  1.563590E+03 -1.048273E+04  2.084249E+04 -1.890751E-09  8.401089E-09
       204  16 -9.093322E+05 -1.380198E+05 -1.416287E+05  3.659393E+04  4.896490E-10  2.310584E-10
       204  17 -8.713971E+05 -9.571075E+04 -1.042371E+05  2.005849E+04 -9.063182E-09  2.458906E-09
       204  18 -8.441471E+05 -8.565738E+04 -8.803719E+04  1.582870E+04 -1.369718E-08 -6.347378E-11
       204  19 -6.243626E+04  7.230846E+04  6.309329E+04  5.167467E+03  9.822268E+03  5.692445E+03
       204  20 -9.154758E+04  9.481083E+04  6.827237E+04  9.361014E+03  1.095075E+04  1.805600E+04
       204  21 -1.276329E+05  8.877660E+04  6.706510E+04  2.585935E+04  1.209183E+04  1.932242E+04
       204  22 -4.859658E+05 -3.284937E+04 -3.926001E+04  2.088621E+04  2.700273E+04  5.713054E+03
       204  23 -4.815431E+05 -4.446509E+02 -1.797693E+04  1.471165E+04  1.748323E+04  1.806534E+04
       204  24 -4.859503E+05  1.564007E+03 -1.048191E+04  2.084261E+04  7.976199E+03  1.931732E+04
       204  25 -9.093301E+05 -1.380192E+05 -1.416249E+05  3.659414E+04  4.417151E+04  5.734541E+03
       204  26 -8.713964E+05 -9.571025E+04 -1.042354E+05  2.005884E+04  2.401165E+04  1.807480E+04
       204  27 -8.441470E+05 -8.565697E+04 -8.803646E+04  1.582876E+04  3.862915E+03  1.931229E+04
       205   1 -1.519851E+05  7.926555E+04  6.393845E+04  2.077055E+04 -7.478350E+03 -1.732659E+04
       205   2 -1.843755E+05  7.293472E+04  6.032781E+04  1.476782E+04 -5.700268E+03 -1.606009E+04
       205   3 -2.173970E+05  6.508444E+04  5.517518E+04  2.163941E+04 -3.923694E+03 -1.428603E+04
       205   4 -4.841449E+05 -1.636932E+03 -8.307788E+03  2.098161E+04 -6.506463E+03 -1.732584E+04
       205   5 -4.837827E+05  6.205952E+01 -4.519355E+03  1.454284E+04 -4.242315E+03 -1.605838E+04
       205   6 -4.841381E+05  1.566117E+02 -2.611405E+03  2.097880E+04 -1.979589E+03 -1.428324E+04
       205   7 -8.162013E+05 -8.254674E+04 -8.056063E+04  2.119251E+04 -5.535089E+03 -1.732510E+04
       205   8 -7.831058E+05 -7.281653E+04 -6.937184E+04  1.431794E+04 -2.785055E+03 -1.605667E+04
       205   9 -7.508124E+05 -6.477592E+04 -6.040220E+04  2.031846E+04 -3.630715E+01 -1.428044E+04
       205  10 -1.519852E+05  7.926522E+04  6.393778E+04  2.077045E+04 -1.956012E-08 -1.762265E-09
       205  11 -1.843756E+05  7.293444E+04  6.032727E+04  1.476775E+04 -1.259432E-08 -8.939699E-10
       205  12 -2.173971E+05  6.508422E+04  5.517477E+04  2.163936E+04 -4.044594E-09  1.540372E-09
       205  13 -4.841451E+05 -1.637266E+03 -8.308432E+03  2.098152E+04  1.012843E-09  1.171913E-08
       205  14 -4.837828E+05  6.177784E+01 -4.519874E+03  1.454279E+04 -5.151149E-09 -5.834117E-09
       205  15 -4.841382E+05  1.563916E+02 -2.611795E+03  2.097878E+04  6.798796E-10  4.442989E-09
       205  16 -8.162014E+05 -8.254707E+04 -8.056125E+04  2.119243E+04  2.140054E-08 -2.853597E-09
       205  17 -7.831059E+05 -7.281681E+04 -6.937234E+04  1.431790E+04  1.366219E-08 -2.669992E-09
       205  18 -7.508125E+05 -6.477614E+04 -6.040259E+04  2.031845E+04  1.726103E-09  3.480514E-10
       205  19 -1.519851E+05  7.926555E+04  6.393845E+04  2.077055E+04  7.478350E+03  1.732659E+04
       205  20 -1.843755E+05  7.293472E+04  6.032781E+04  1.476782E+04  5.700268E+03  1.606009E+04
       205  21 -2.173970E+05  6.508444E+04  5.517518E+04  2.163941E+04  3.923694E+03  1.428603E+04
       205  22 -4.841449E+05 -1.636932E+03 -8.307788E+03  2.098161E+04  6.506463E+03  1.732584E+04
       205  23 -4.837827E+05  6.205952E+01 -4.519355E+03  1.454284E+04  4.242315E+03  1.605838E+04
       205  24 -4.841381E+05  1.566117E+02 -2.611405E+03  2.097880E+04  1.979589E+03  1.428324E+04
       205  25 -8.162013E+05 -8.254674E+04 -8.056063E+04  2.119251E+04  5.535089E+03  1.732510E+04
       205  26 -7.831058E+05 -7.281653E+04 -6.937184E+04  1.431794E+04  2.785055E+03  1.605667E+04
       205  27 -7.508124E+05 -6.477592E+04 -6.040220E+04  2.031846E+04  3.630715E+01  1.428044E+04
       206   1 -2.433301E+05  5.854612E+04  4.998386E+04  2.134968E+04 -3.378840E+03 -1.312853E+04
       206   2 -2.761396E+05  5.062907E+04  4.379088E+04  1.482933E+04 -2.830692E+03 -1.123514E+04
       206   3 -3.090732E+05  4.267154E+04  3.722045E+04  2.127773E+04 -2.283094E+03 -9.316058E+03
       206   4 -4.840045E+05 -6.844950E+00 -2.007175E+03  2.100056E+04 -1.574544E+03 -1.312581E+04
       206   5 -4.839378E+05  6.083678E+01 -1.161741E+03  1.451598E+04 -1.001972E+03 -1.123216E+04
       206   6 -4.840002E+05  8.395067E+01 -7.106805E+02  2.100040E+04 -4.299216E+02 -9.312823E+03
       206   7 -7.246243E+05 -5.856363E+04 -5.400163E+04  2.065156E+04  2.290623E+02 -1.312309E+04
       206   8 -6.916955E+05 -5.051025E+04 -4.611691E+04  1.420271E+04  8.261437E+02 -1.122919E+04
       206   9 -6.588984E+05 -4.250566E+04 -3.864363E+04  2.072314E+04  1.422735E+03 -9.309589E+03
       206  10 -2.433302E+05  5.854594E+04  4.998352E+04  2.134964E+04  1.480104E-09 -4.788106E-09
       206  11 -2.761396E+05  5.062893E+04  4.379063E+04  1.482931E+04  1.034439E-09 -4.374455E-09
       206  12 -3.090733E+05  4.267144E+04  3.722028E+04  2.127771E+04 -3.707863E-09 -1.756798E-09
       206  13 -4.840045E+05 -7.030579E+00 -2.007504E+03  2.100055E+04 -9.221844E-10 -1.509175E-09
       206  14 -4.839378E+05  6.070106E+01 -1.161979E+03  1.451597E+04 -7.598031E-10 -4.102302E-09
       206  15 -4.840002E+05  8.385751E+01 -7.108438E+02  2.100040E+04  7.125058E-10 -1.602271E-09
       206  16 -7.246244E+05 -5.856382E+04 -5.400195E+04  2.065156E+04 -1.199541E-09 -3.437834E-09
       206  17 -6.916955E+05 -5.051038E+04 -4.611715E+04  1.420272E+04  8.103582E-12  2.108921E-09
       206  18 -6.588985E+05 -4.250575E+04 -3.864379E+04  2.072315E+04  3.079835E-09  3.112033E-09
       206  19 -2.433301E+05  5.854612E+04  4.998386E+04  2.134968E+04  3.378840E+03  1.312853E+04
       206  20 -2.761396E+05  5.062907E+04  4.379088E+04  1.482933E+04  2.830692E+03  1.123514E+04
       206  21 -3.090732E+05  4.267154E+04  3.722045E+04  2.127773E+04  2.283094E+03  9.316058E+03
       206  22 -4.840045E+05 -6.844950E+00 -2.007175E+03  2.100056E+04  1.574544E+03  1.312581E+04
       206  23 -4.839378E+05  6.083678E+01 -1.161741E+03  1.451598E+04  1.001972E+03  1.123216E+04
       206  24 -4.840002E+05  8.395067E+01 -7.106805E+02  2.100040E+04  4.299216E+02  9.312823E+03
       206  25 -7.246243E+05 -5.856363E+04 -5.400163E+04  2.065156E+04 -2.290623E+02  1.312309E+04
       206  26 -6.916955E+05 -5.051025E+04 -4.611691E+04  1.420271E+04 -8.261437E+02  1.122919E+04
       206  27 -6.588984E+05 -4.250566E+04 -3.864363E+04  2.072314E+04 -1.422735E+03  9.309589E+03
       207   1 -3.352257E+05  3.626151E+04  3.151211E+04  2.123634E+04 -2.164379E+03 -8.192398E+03
       207   2 -3.681705E+05  2.823696E+04  2.461239E+04  1.467541E+04 -1.956332E+03 -6.264283E+03
       207   3 -4.011879E+05  2.025521E+04  1.757425E+04  2.112664E+04 -1.748574E+03 -4.333585E+03
       207   4 -4.839861E+05  7.753120E+01 -5.772801E+02  2.101007E+04 -3.157174E+02 -8.189067E+03
       207   5 -4.839479E+05  6.106263E+01 -4.329177E+02  1.450391E+04 -1.052793E+02 -6.260830E+03
       207   6 -4.839838E+05  8.703527E+01 -4.286427E+02  2.101006E+04  1.048810E+02 -4.330006E+03
       207   7 -6.327257E+05 -3.610790E+04 -3.266796E+04  2.078385E+04  1.532507E+03 -8.185737E+03
       207   8 -5.997128E+05 -2.811572E+04 -2.547901E+04  1.433244E+04  1.745433E+03 -6.257377E+03
       207   9 -5.667733E+05 -2.008159E+04 -1.843193E+04  2.089349E+04  1.958092E+03 -4.326426E+03
       207  10 -3.352257E+05  3.626144E+04  3.151198E+04  2.123632E+04  1.700339E-09 -4.785042E-09
       207  11 -3.681705E+05  2.823692E+04  2.461231E+04  1.467540E+04 -6.507072E-09 -6.193137E-10
       207  12 -4.011879E+05  2.025519E+04  1.757421E+04  2.112663E+04 -1.112948E-08  9.414808E-10
       207  13 -4.839861E+05  7.745918E+01 -5.774062E+02  2.101007E+04 -9.921362E-10  7.643084E-10
       207  14 -4.839479E+05  6.102054E+01 -4.329913E+02  1.450391E+04 -3.885898E-09 -4.803093E-09
       207  15 -4.839838E+05  8.701514E+01 -4.286780E+02  2.101006E+04  2.535580E-09 -1.008024E-09
       207  16 -6.327257E+05 -3.610798E+04 -3.266809E+04  2.078386E+04 -8.491060E-10  2.532756E-11
       207  17 -5.997128E+05 -2.811576E+04 -2.547909E+04  1.433245E+04  6.045932E-09  5.466260E-09
       207  18 -5.667733E+05 -2.008161E+04 -1.843197E+04  2.089350E+04  1.096780E-08  4.207976E-09
       207  19 -3.352257E+05  3.626151E+04  3.151211E+04  2.123634E+04  2.164379E+03  8.192398E+03
       207  20 -3.681705E+05  2.823696E+04  2.461239E+04  1.467541E+04  1.956332E+03  6.264283E+03
       207  21 -4.011879E+05  2.025521E+04  1.757425E+04  2.112664E+04  1.748574E+03  4.333585E+03
       207  22 -4.839861E+05  7.753120E+01 -5.772801E+02  2.101007E+04  3.157174E+02  8.189067E+03
       207  23 -4.839479E+05  6.106263E+01 -4.329177E+02  1.450391E+04  1.052793E+02  6.260830E+03
       207  24 -4.839838E+05  8.703527E+01 -4.286427E+02  2.101006E+04 -1.048810E+02  4.330006E+03
       207  25 -6.327257E+05 -3.610790E+04 -3.266796E+04  2.078385E+04 -1.532507E+03  8.185737E+03
       207  26 -5.997128E+05 -2.811572E+04 -2.547901E+04  1.433244E+04 -1.745433E+03  6.257377E+03
       207  27 -5.667733E+05 -2.008159E+04 -1.843193E+04  2.089349E+04 -1.958092E+03  4.326426E+03
       208   1 -4.274190E+05  1.383626E+04  1.166982E+04  2.108824E+04 -1.669501E+03 -3.208888E+03
       208   2 -4.603978E+05  5.798737E+03  4.404815E+03  1.450762E+04 -1.332941E+03 -1.275911E+03
       208   3 -4.934729E+05 -2.201759E+03 -3.085191E+03  2.095786E+04 -9.964586E+02  6.567464E+02
       208   4 -4.839883E+05  8.728173E+01 -4.762415E+02  2.101418E+04  1.846992E+02 -3.205262E+03
       208   5 -4.839392E+05  6.947916E+01 -6.878409E+02  1.449874E+04  5.208817E+02 -1.272263E+03
       208   6 -4.839879E+05  8.870624E+01 -1.124280E+03  2.101419E+04  8.570039E+02  6.604197E+02
       208   7 -5.405545E+05 -1.366190E+04 -1.262248E+04  2.094014E+04  2.038733E+03 -3.201637E+03
       208   8 -5.074800E+05 -5.659814E+03 -5.780516E+03  1.448987E+04  2.374635E+03 -1.268615E+03
       208   9 -4.745028E+05  2.379168E+03  8.366397E+02  2.107051E+04  2.710494E+03  6.640933E+02
       208  10 -4.274190E+05  1.383625E+04  1.166980E+04  2.108823E+04 -8.797385E-09  2.767405E-09
       208  11 -4.603978E+05  5.798735E+03  4.404808E+03  1.450762E+04 -7.265081E-09 -4.350564E-10
       208  12 -4.934729E+05 -2.201760E+03 -3.085194E+03  2.095786E+04 -8.505476E-09  5.161436E-10
       208  13 -4.839883E+05  8.727069E+01 -4.762609E+02  2.101419E+04  7.562031E-10  4.822670E-09
       208  14 -4.839392E+05  6.947735E+01 -6.878444E+02  1.449874E+04 -3.203629E-09 -6.789427E-09
       208  15 -4.839879E+05  8.870557E+01 -1.124282E+03  2.101419E+04 -2.998004E-09 -1.038170E-08
       208  16 -5.405545E+05 -1.366192E+04 -1.262250E+04  2.094014E+04  8.081949E-09  3.761477E-09
       208  17 -5.074800E+05 -5.659817E+03 -5.780530E+03  1.448987E+04  1.104698E-08 -4.823968E-09
       208  18 -4.745028E+05  2.379165E+03  8.366250E+02  2.107051E+04  5.071356E-09 -5.433420E-09
       208  19 -4.274190E+05  1.383626E+04  1.166982E+04  2.108824E+04  1.669501E+03  3.208888E+03
       208  20 -4.603978E+05  5.798737E+03  4.404815E+03  1.450762E+04  1.332941E+03  1.275911E+03
       208  21 -4.934729E+05 -2.201759E+03 -3.085191E+03  2.095786E+04  9.964586E+02 -6.567464E+02
       208  22 -4.839883E+05  8.728173E+01 -4.762415E+02  2.101418E+04 -1.846992E+02  3.205262E+03
       208  23 -4.839392E+05  6.947916E+01 -6.878409E+02  1.449874E+04 -5.208817E+02  1.272263E+03
       208  24 -4.839879E+05  8.870624E+01 -1.124280E+03  2.101419E+04 -8.570039E+02 -6.604197E+02
       208  25 -5.405545E+05 -1.366190E+04 -1.262248E+04  2.094014E+04 -2.038733E+03  3.201637E+03
       208  26 -5.074800E+05 -5.659814E+03 -5.780516E+03  1.448987E+04 -2.374635E+03  1.268615E+03
       208  27 -4.745028E+05  2.379168E+03  8.366397E+02  2.107051E+04 -2.710494E+03 -6.640933E+02
       209   1 -5.197476E+05 -8.609017E+03 -9.279705E+03  2.087967E+04 -7.697038E+02  1.783461E+03
       209   2 -5.526259E+05 -1.663602E+04 -1.737859E+04  1.431636E+04  4.840051E+02  3.713837E+03
       209   3 -5.857675E+05 -2.481946E+04 -2.634819E+04  2.077688E+04  1.737858E+03  5.627631E+03
       209   4 -4.840244E+05  1.041998E+02 -1.459390E+03  2.101249E+04  1.087883E+03  1.787127E+03
       209   5 -4.838948E+05  9.332173E+01 -2.506182E+03  1.450079E+04  2.325782E+03  3.717399E+03
       209   6 -4.840262E+05 -7.101434E+01 -4.412425E+03  2.101284E+04  3.563890E+03  5.631094E+03
       209   7 -4.483001E+05  8.817334E+03  6.360861E+03  2.114531E+04  2.945575E+03  1.790795E+03
       209   8 -4.151593E+05  1.682236E+04  1.236596E+04  1.468524E+04  4.167760E+03  3.720963E+03
       209   9 -3.822752E+05  2.467675E+04  1.752274E+04  2.124883E+04  5.390216E+03  5.634559E+03
       209  10 -5.197476E+05 -8.609021E+03 -9.279712E+03  2.087967E+04 -3.237833E-09  4.807910E-10
       209  11 -5.526259E+05 -1.663604E+04 -1.737862E+04  1.431636E+04  2.876844E-09 -4.042289E-09
       209  12 -5.857675E+05 -2.481950E+04 -2.634825E+04  2.077687E+04  3.664408E-09  2.114726E-09
       209  13 -4.840244E+05  1.041960E+02 -1.459398E+03  2.101248E+04 -3.183379E-09 -8.397792E-09
       209  14 -4.838948E+05  9.330544E+01 -2.506218E+03  1.450079E+04  1.110062E-09 -5.548557E-09
       209  15 -4.840262E+05 -7.105180E+01 -4.412508E+03  2.101282E+04 -1.175362E-09  1.159168E-09
       209  16 -4.483001E+05  8.817328E+03  6.360839E+03  2.114531E+04  1.806523E-09  4.619088E-09
       209  17 -4.151593E+05  1.682234E+04  1.236590E+04  1.468523E+04 -4.738172E-09 -2.306306E-11
       209  18 -3.822752E+05  2.467671E+04  1.752263E+04  2.124880E+04 -5.843097E-09  6.125897E-09
       209  19 -5.197476E+05 -8.609017E+03 -9.279705E+03  2.087967E+04  7.697038E+02 -1.783461E+03
       209  20 -5.526259E+05 -1.663602E+04 -1.737859E+04  1.431636E+04 -4.840051E+02 -3.713837E+03
       209  21 -5.857675E+05 -2.481946E+04 -2.634819E+04  2.077688E+04 -1.737858E+03 -5.627631E+03
       209  22 -4.840244E+05  1.041998E+02 -1.459390E+03  2.101249E+04 -1.087883E+03 -1.787127E+03
       209  23 -4.838948E+05  9.332173E+01 -2.506182E+03  1.450079E+04 -2.325782E+03 -3.717399E+03
       209  24 -4.840262E+05 -7.101434E+01 -4.412425E+03  2.101284E+04 -3.563890E+03 -5.631094E+03
       209  25 -4.483001E+05  8.817334E+03  6.360861E+03  2.114531E+04 -2.945575E+03 -1.790795E+03
       209  26 -4.151593E+05  1.682236E+04  1.236596E+04  1.468524E+04 -4.167760E+03 -3.720963E+03
       209  27 -3.822752E+05  2.467675E+04  1.752274E+04  2.124883E+04 -5.390216E+03 -5.634559E+03
       210   1 -6.122715E+05 -3.086917E+04 -3.353619E+04  2.009560E+04  2.535461E+03  6.779930E+03
       210   2 -6.443768E+05 -3.903739E+04 -4.486032E+04  1.457186E+04  7.877244E+03  8.619877E+03
       210   3 -6.781461E+05 -5.087366E+04 -6.059421E+04  2.202969E+04  1.321969E+04  1.011253E+04
       210   4 -4.843265E+05  2.939084E+02 -5.763634E+03  2.100134E+04  4.457967E+03  6.783508E+03
       210   5 -4.835258E+05  1.246325E+02 -1.000003E+04  1.451429E+04  9.467759E+03  8.622661E+03
       210   6 -4.843317E+05 -3.654300E+03 -1.841453E+04  2.100865E+04  1.447850E+04  1.011455E+04
       210   7 -3.563662E+05  3.145591E+04  2.200796E+04  2.190726E+04  6.380865E+03  6.787090E+03
       210   8 -3.226504E+05  3.928495E+04  2.485874E+04  1.445669E+04  1.105868E+04  8.625444E+03
       210   9 -2.904821E+05  4.356257E+04  2.376292E+04  1.998728E+04  1.573769E+04  1.011657E+04
       210  10 -6.122715E+05 -3.086922E+04 -3.353628E+04  2.009559E+04  2.965678E-09  1.892912E-09
       210  11 -6.443768E+05 -3.903749E+04 -4.486058E+04  1.457180E+04  5.228528E-10  5.584421E-09
       210  12 -6.781463E+05 -5.087382E+04 -6.059474E+04  2.202958E+04  7.593004E-10 -1.904636E-09
       210  13 -4.843265E+05  2.938536E+02 -5.763757E+03  2.100131E+04 -6.652510E-10 -2.053223E-09
       210  14 -4.835259E+05  1.245286E+02 -1.000034E+04  1.451422E+04 -4.747438E-09  6.301178E-09
       210  15 -4.843320E+05 -3.654466E+03 -1.841511E+04  2.100853E+04  4.580640E-10  2.182359E-10
       210  16 -3.563662E+05  3.145585E+04  2.200779E+04  2.190722E+04 -5.527860E-09 -6.368381E-10
       210  17 -3.226506E+05  3.928483E+04  2.485837E+04  1.445662E+04 -1.770108E-09 -6.798931E-09
       210  18 -2.904824E+05  4.356239E+04  2.376226E+04  1.998715E+04  1.946771E-09  5.025577E-10
       210  19 -6.122715E+05 -3.086917E+04 -3.353619E+04  2.009560E+04 -2.535461E+03 -6.779930E+03
       210  20 -6.443768E+05 -3.903739E+04 -4.486032E+04  1.457186E+04 -7.877244E+03 -8.619877E+03
       210  21 -6.781461E+05 -5.087366E+04 -6.059421E+04  2.202969E+04 -1.321969E+04 -1.011253E+04
       210  22 -4.843265E+05  2.939084E+02 -5.763634E+03  2.100134E+04 -4.457967E+03 -6.783508E+03
       210  23 -4.835258E+05  1.246325E+02 -1.000003E+04  1.451429E+04 -9.467759E+03 -8.622661E+03
       210  24 -4.843317E+05 -3.654300E+03 -1.841453E+04  2.100865E+04 -1.447850E+04 -1.011455E+04
       210  25 -3.563662E+05  3.145591E+04  2.200796E+04  2.190726E+04 -6.380865E+03 -6.787090E+03
       210  26 -3.226504E+05  3.928495E+04  2.485874E+04  1.445669E+04 -1.105868E+04 -8.625444E+03
       210  27 -2.904821E+05  4.356257E+04  2.376292E+04  1.998728E+04 -1.573769E+04 -1.011657E+04
       211   1 -7.084157E+05 -5.017282E+04 -7.092404E+04  1.032757E+04  1.432742E+04  1.183655E+04
       211   2 -7.309007E+05 -6.260472E+04 -9.575138E+04  2.701826E+04  4.268765E+04  1.163674E+04
       211   3 -7.743129E+05 -1.438100E+05 -1.562564E+05  5.636227E+04  7.105774E+04  3.831213E+03
       211   4 -4.883416E+05  3.452511E+03 -2.324025E+04  2.090020E+04  1.774016E+04  1.184253E+04
       211   5 -4.785258E+05 -9.660534E+02 -3.985131E+04  1.463632E+04  3.881124E+04  1.162898E+04
       211   6 -4.883642E+05 -7.287831E+04 -8.706630E+04  2.102751E+04  5.989413E+04  3.809013E+03
       211   7 -2.682218E+05  5.707506E+04  2.444077E+04  3.147662E+04  2.115409E+04  1.184862E+04
       211   8 -2.260910E+05  6.066891E+04  1.604495E+04  2.249253E+03  3.493326E+04  1.162138E+04
       211   9 -2.023377E+05 -1.947767E+03 -1.788095E+04 -1.432362E+04  4.872539E+04  3.788091E+03
       211  10 -7.084160E+05 -5.017303E+04 -7.092469E+04  1.032744E+04  4.499784E-09 -1.152818E-09
       211  11 -7.309027E+05 -6.260536E+04 -9.575507E+04  2.701786E+04  4.897730E-09 -9.985131E-10
       211  12 -7.743184E+05 -1.438114E+05 -1.562659E+05  5.636206E+04  9.337888E-10  3.841950E-09
       211  13 -4.883420E+05  3.452276E+03 -2.324110E+04  2.090004E+04 -9.236904E-10 -5.797553E-10
       211  14 -4.785275E+05 -9.666033E+02 -3.985440E+04  1.463595E+04 -1.973315E-09 -4.678130E-10
       211  15 -4.883681E+05 -7.287929E+04 -8.707308E+04  2.102733E+04 -2.359506E-09  1.899029E-09
       211  16 -2.682223E+05  5.707479E+04  2.443966E+04  3.147641E+04 -4.484716E-09  1.354632E-09
       211  17 -2.260923E+05  6.066844E+04  1.604240E+04  2.248926E+03 -2.073017E-09  3.674936E-09
       211  18 -2.023403E+05 -1.948420E+03 -1.788544E+04 -1.432377E+04 -1.766591E-09 -1.281402E-09
       211  19 -7.084157E+05 -5.017282E+04 -7.092404E+04  1.032757E+04 -1.432742E+04 -1.183655E+04
       211  20 -7.309007E+05 -6.260472E+04 -9.575138E+04  2.701826E+04 -4.268765E+04 -1.163674E+04
       211  21 -7.743129E+05 -1.438100E+05 -1.562564E+05  5.636227E+04 -7.105774E+04 -3.831213E+03
       211  22 -4.883416E+05  3.452511E+03 -2.324025E+04  2.090020E+04 -1.774016E+04 -1.184253E+04
       211  23 -4.785258E+05 -9.660534E+02 -3.985131E+04  1.463632E+04 -3.881124E+04 -1.162898E+04
       211  24 -4.883642E+05 -7.287831E+04 -8.706630E+04  2.102751E+04 -5.989413E+04 -3.809013E+03
       211  25 -2.682218E+05  5.707506E+04  2.444077E+04  3.147662E+04 -2.115409E+04 -1.184862E+04
       211  26 -2.260910E+05  6.066891E+04  1.604495E+04  2.249253E+03 -3.493326E+04 -1.162138E+04
       211  27 -2.023377E+05 -1.947767E+03 -1.788095E+04 -1.432362E+04 -4.872539E+04 -3.788091E+03

 stresses (elem, integ.pnt.,sxx,syy,szz,sxy,sxz,syz) for set ELALL and time  0.1000000E+01

         1   1  3.059836E+06  1.128850E+07  2.904783E+06 -2.062373E+06  1.429437E+05  1.074880E+06
         1   2  2.479459E+06  9.629926E+06  1.977061E+06 -1.890867E+06  4.808563E+05  4.865200E+05
         1   3  2.058656E+06  8.095084E+06  1.469463E+06 -1.988200E+06  5.590756E+05 -9.984148E+04
         1   4  1.142918E+05 -7.296991E+05  1.198115E+05 -1.950252E+06  1.469033E+05  7.783692E+04
         1   5  3.391908E+04 -7.375790E+05  6.336562E+04 -1.816107E+06  4.837752E+05  4.796627E+04
         1   6  1.840195E+04 -7.190622E+05  4.361328E+04 -1.950790E+06  5.590238E+05  1.838913E+04
         1   7 -2.840818E+06 -1.261387E+07 -2.671175E+06 -1.839981E+06  1.505694E+05 -9.003151E+05
         1   8 -2.417625E+06 -1.100145E+07 -1.854111E+06 -1.742356E+06  4.866257E+05 -3.835426E+05
         1   9 -2.025769E+06 -9.456723E+06 -1.384335E+06 -1.913698E+06  5.589851E+05  1.350151E+05
         1  10  3.059510E+06  1.128727E+07  2.902609E+06 -2.062497E+06  3.776209E-09 -3.922268E-09
         1  11  2.479148E+06  9.629611E+06  1.976185E+06 -1.891055E+06  4.482724E-10 -3.290357E-09
         1  12  2.058318E+06  8.094990E+06  1.468858E+06 -1.988156E+06  7.003655E-10 -2.173249E-09
         1  13  1.142670E+05 -7.297114E+05  1.197594E+05 -1.950261E+06  3.831870E-09 -1.408281E-10
         1  14  3.366715E+04 -7.376444E+05  6.292134E+04 -1.816126E+06 -6.133679E-09 -1.841500E-10
         1  15  1.806637E+04 -7.191464E+05  4.302544E+04 -1.950799E+06 -1.159441E-10 -2.192888E-10
         1  16 -2.841065E+06 -1.261476E+07 -2.672769E+06 -1.839872E+06 -4.867972E-09  3.727214E-09
         1  17 -2.417918E+06 -1.100167E+07 -1.854835E+06 -1.742205E+06 -7.216685E-09  3.133045E-09
         1  18 -2.026110E+06 -9.456827E+06 -1.384958E+06 -1.913759E+06  2.772992E-10  1.955645E-09
         1  19  3.059836E+06  1.128850E+07  2.904783E+06 -2.062373E+06 -1.429437E+05 -1.074880E+06
         1  20  2.479459E+06  9.629926E+06  1.977061E+06 -1.890867E+06 -4.808563E+05 -4.865200E+05
         1  21  2.058656E+06  8.095084E+06  1.469463E+06 -1.988200E+06 -5.590756E+05  9.984148E+04
         1  22  1.142918E+05 -7.296991E+05  1.198115E+05 -1.950252E+06 -1.469033E+05 -7.783692E+04
         1  23  3.391908E+04 -7.375790E+05  6.336562E+04 -1.816107E+06 -4.837752E+05 -4.796627E+04
         1  24  1.840195E+04 -7.190622E+05  4.361328E+04 -1.950790E+06 -5.590238E+05 -1.838913E+04
         1  25 -2.840818E+06 -1.261387E+07 -2.671175E+06 -1.839981E+06 -1.505694E+05  9.003151E+05
         1  26 -2.417625E+06 -1.100145E+07 -1.854111E+06 -1.742356E+06 -4.866257E+05  3.835426E+05
         1  27 -2.025769E+06 -9.456723E+06 -1.384335E+06 -1.913698E+06 -5.589851E+05 -1.350151E+05
         2   1  1.820439E+06  7.074256E+06  1.270399E+06 -1.997282E+06  5.170253E+05 -1.075189E+05
         2   2  1.443930E+06  5.469879E+06  9.708674E+05 -1.841825E+06  4.465199E+05 -1.926152E+05
         2   3  1.095422E+06  3.885553E+06  7.332161E+05 -1.973927E+06  3.454461E+05 -2.779794E+05
         2   4  2.099132E+04 -7.204452E+05  3.905371E+04 -1.954977E+06  5.167580E+05  1.147291E+04
         2   5  2.307936E+04 -7.203109E+05  3.956129E+04 -1.811073E+06  4.454486E+05 -8.422228E+03
         2   6  4.210565E+04 -7.138282E+05  5.700321E+04 -1.954895E+06  3.434125E+05 -2.879030E+04
         2   7 -1.781454E+06 -8.455033E+06 -1.193769E+06 -1.913029E+06  5.165042E+05  1.290376E+05
         2   8 -1.399569E+06 -6.872187E+06 -8.923901E+05 -1.780515E+06  4.443879E+05  1.740194E+05
         2   9 -1.012161E+06 -5.291857E+06 -6.193533E+05 -1.935935E+06  3.413835E+05  2.186377E+05
         2  10  1.820149E+06  7.074172E+06  1.269876E+06 -1.997238E+06 -2.144736E-10 -1.120295E-08
         2  11  1.443707E+06  5.469786E+06  9.704248E+05 -1.841756E+06  3.725184E-09  2.538821E-08
         2  12  1.095274E+06  3.885439E+06  7.328490E+05 -1.973850E+06  2.997947E-09  5.934227E-08
         2  13  2.070461E+04 -7.205170E+05  3.855174E+04 -1.954982E+06 -4.135170E-09 -2.476413E-10
         2  14  2.286637E+04 -7.203642E+05  3.918847E+04 -1.811070E+06 -6.367709E-12 -8.829938E-11
         2  15  4.197889E+04 -7.138606E+05  5.678028E+04 -1.954888E+06 -3.206848E-10 -4.904637E-10
         2  16 -1.781745E+06 -8.455123E+06 -1.194303E+06 -1.913083E+06 -1.327856E-08  1.090962E-08
         2  17 -1.399790E+06 -6.872273E+06 -8.928195E+05 -1.780578E+06 -2.425394E-10 -2.510949E-08
         2  18 -1.012299E+06 -5.291940E+06 -6.196639E+05 -1.935996E+06  8.290291E-09 -5.872255E-08
         2  19  1.820439E+06  7.074256E+06  1.270399E+06 -1.997282E+06 -5.170253E+05  1.075189E+05
         2  20  1.443930E+06  5.469879E+06  9.708674E+05 -1.841825E+06 -4.465199E+05  1.926152E+05
         2  21  1.095422E+06  3.885553E+06  7.332161E+05 -1.973927E+06 -3.454461E+05  2.779794E+05
         2  22  2.099132E+04 -7.204452E+05  3.905371E+04 -1.954977E+06 -5.167580E+05 -1.147291E+04
         2  23  2.307936E+04 -7.203109E+05  3.956129E+04 -1.811073E+06 -4.454486E+05  8.422228E+03
         2  24  4.210565E+04 -7.138282E+05  5.700321E+04 -1.954895E+06 -3.434125E+05  2.879030E+04
         2  25 -1.781454E+06 -8.455033E+06 -1.193769E+06 -1.913029E+06 -5.165042E+05 -1.290376E+05
         2  26 -1.399569E+06 -6.872187E+06 -8.923901E+05 -1.780515E+06 -4.443879E+05 -1.740194E+05
         2  27 -1.012161E+06 -5.291857E+06 -6.193533E+05 -1.935935E+06 -3.413835E+05 -2.186377E+05
         3   1  8.716908E+05  2.890951E+06  5.939090E+05 -1.977474E+06  2.760246E+05 -2.881573E+05
         3   2  5.559965E+05  1.283764E+06  4.117216E+05 -1.746880E+06  1.583900E+05 -3.551362E+05
         3   3  3.507863E+05 -2.882842E+05  2.996189E+05 -1.805905E+06  3.933425E+04 -4.221189E+05
         3   4  4.850928E+04 -7.066123E+05  7.137060E+04 -1.955408E+06  2.738071E+05 -3.903177E+04
         3   5  9.912566E+04 -7.214428E+05  1.237906E+05 -1.809855E+06  1.560363E+05 -1.032071E+05
         3   6  2.598968E+05 -7.043667E+05  2.441699E+05 -1.953760E+06  3.686016E+04 -1.675318E+05
         3   7 -7.752340E+05 -4.291024E+06 -4.511492E+05 -1.933427E+06  2.715982E+05  2.087159E+05
         3   8 -3.578758E+05 -2.722443E+06 -1.639609E+05 -1.872604E+06  1.536263E+05  1.479443E+05
         3   9  1.691187E+05 -1.120084E+06  1.889754E+05 -2.101512E+06  3.426355E+04  8.689243E+04
         3  10  8.715873E+05  2.890842E+06  5.936117E+05 -1.977410E+06  5.453000E-09 -6.155790E-08
         3  11  5.559361E+05  1.283622E+06  4.114387E+05 -1.746835E+06  5.113039E-09 -2.568570E-08
         3  12  3.507368E+05 -2.884759E+05  2.992813E+05 -1.805892E+06 -2.582255E-09  1.144221E-08
         3  13  4.842846E+04 -7.066339E+05  7.122707E+04 -1.955399E+06  2.465841E-09 -8.156727E-11
         3  14  9.909675E+04 -7.214607E+05  1.237250E+05 -1.809842E+06  2.065421E-09 -3.569218E-10
         3  15  2.598878E+05 -7.043971E+05  2.441147E+05 -1.953755E+06  2.369449E-09 -1.660905E-10
         3  16 -7.753252E+05 -4.291091E+06 -4.513710E+05 -1.933473E+06  8.098551E-09  6.097139E-08
         3  17 -3.579071E+05 -2.722473E+06 -1.640469E+05 -1.872622E+06  2.643690E-09  2.587820E-08
         3  18  1.691154E+05 -1.120093E+06  1.889590E+05 -2.101514E+06  2.583250E-09 -1.164928E-08
         3  19  8.716908E+05  2.890951E+06  5.939090E+05 -1.977474E+06 -2.760246E+05  2.881573E+05
         3  20  5.559965E+05  1.283764E+06  4.117216E+05 -1.746880E+06 -1.583900E+05  3.551362E+05
         3  21  3.507863E+05 -2.882842E+05  2.996189E+05 -1.805905E+06 -3.933425E+04  4.221189E+05
         3  22  4.850928E+04 -7.066123E+05  7.137060E+04 -1.955408E+06 -2.738071E+05  3.903177E+04
         3  23  9.912566E+04 -7.214428E+05  1.237906E+05 -1.809855E+06 -1.560363E+05  1.032071E+05
         3  24  2.598968E+05 -7.043667E+05  2.441699E+05 -1.953760E+06 -3.686016E+04  1.675318E+05
         3  25 -7.752340E+05 -4.291024E+06 -4.511492E+05 -1.933427E+06 -2.715982E+05 -2.087159E+05
         3  26 -3.578758E+05 -2.722443E+06 -1.639609E+05 -1.872604E+06 -1.536263E+05 -1.479443E+05
         3  27  1.691187E+05 -1.120084E+06  1.889754E+05 -2.101512E+06 -3.426355E+04 -8.689243E+04
         4   1 -9.002559E+06 -2.818670E+06 -1.917928E+06 -3.004316E+06 -9.040761E+05 -3.239071E+05
         4   2 -8.696707E+06 -1.433808E+06 -1.050241E+06 -3.175135E+06 -5.869377E+05 -1.785568E+05
         4   3 -8.829952E+06 -1.556684E+06 -8.063181E+05 -3.112795E+06 -2.577859E+05 -6.532619E+04
         4   4 -7.296091E+06 -2.007354E+06 -1.412103E+06 -2.374028E+06 -8.962195E+05 -3.212761E+05
         4   5 -7.006163E+06 -7.542995E+05 -5.783637E+05 -2.676842E+06 -5.861053E+05 -1.783062E+05
         4   6 -7.152445E+06 -1.005256E+06 -3.613982E+05 -2.746904E+06 -2.640048E+05 -6.758435E+04
         4   7 -5.586714E+06 -1.195346E+06 -9.065717E+05 -1.741986E+06 -8.883356E+05 -3.186287E+05
         4   8 -5.312835E+06 -7.452612E+04 -1.067569E+05 -2.177269E+06 -5.852682E+05 -1.780535E+05
         4   9 -5.472206E+06 -4.538285E+05  8.328538E+04 -2.380181E+06 -2.702414E+05 -6.984716E+04
         4  10 -9.003477E+06 -2.819008E+06 -1.919689E+06 -3.004554E+06 -8.787026E-10  9.551621E-10
         4  11 -8.697090E+06 -1.433937E+06 -1.050960E+06 -3.175221E+06  1.006824E-09  2.829910E-09
         4  12 -8.830025E+06 -1.556707E+06 -8.064531E+05 -3.112809E+06 -1.008122E-09  9.177697E-10
         4  13 -7.296991E+06 -2.007686E+06 -1.413829E+06 -2.374262E+06 -6.658598E-11  4.878164E-10
         4  14 -7.006544E+06 -7.544278E+05 -5.790783E+05 -2.676927E+06  5.737367E-09  9.567583E-10
         4  15 -7.152522E+06 -1.005280E+06 -3.615396E+05 -2.746919E+06 -5.712652E-09 -5.389691E-10
         4  16 -5.587596E+06 -1.195670E+06 -9.082622E+05 -1.742215E+06  2.768682E-09  9.271084E-10
         4  17 -5.313214E+06 -7.465360E+04 -1.074674E+05 -2.177354E+06 -1.996226E-09  1.887170E-09
         4  18 -5.472287E+06 -4.538536E+05  8.313746E+04 -2.380197E+06  6.247577E-10 -2.440105E-10
         4  19 -9.002559E+06 -2.818670E+06 -1.917928E+06 -3.004316E+06  9.040761E+05  3.239071E+05
         4  20 -8.696707E+06 -1.433808E+06 -1.050241E+06 -3.175135E+06  5.869377E+05  1.785568E+05
         4  21 -8.829952E+06 -1.556684E+06 -8.063181E+05 -3.112795E+06  2.577859E+05  6.532619E+04
         4  22 -7.296091E+06 -2.007354E+06 -1.412103E+06 -2.374028E+06  8.962195E+05  3.212761E+05
         4  23 -7.006163E+06 -7.542995E+05 -5.783637E+05 -2.676842E+06  5.861053E+05  1.783062E+05
         4  24 -7.152445E+06 -1.005256E+06 -3.613982E+05 -2.746904E+06  2.640048E+05  6.758435E+04
         4  25 -5.586714E+06 -1.195346E+06 -9.065717E+05 -1.741986E+06  8.883356E+05  3.186287E+05
         4  26 -5.312835E+06 -7.452612E+04 -1.067569E+05 -2.177269E+06  5.852682E+05  1.780535E+05
         4  27 -5.472206E+06 -4.538285E+05  8.328538E+04 -2.380181E+06  2.702414E+05  6.984716E+04
         5   1 -8.047985E+06 -1.580380E+06 -5.667866E+05 -2.968188E+06 -2.068376E+05 -5.563052E+04
         5   2 -7.912572E+06 -1.201403E+06 -3.459495E+05 -2.812087E+06 -1.323838E+05 -3.223626E+04
         5   3 -7.627271E+06 -1.252852E+06 -2.337931E+05 -2.878112E+06 -5.584106E+04 -1.451083E+04
         5   4 -7.082034E+06 -1.196966E+06 -2.979261E+05 -2.688267E+06 -2.072114E+05 -5.577936E+04
         5   5 -7.147157E+06 -9.102079E+05 -1.355138E+05 -2.603433E+06 -1.340320E+05 -3.284301E+04
         5   6 -7.062064E+06 -1.053435E+06 -8.061609E+04 -2.740741E+06 -5.879118E+04 -1.558677E+04
         5   7 -6.115176E+06 -8.134725E+05 -2.915359E+04 -2.407938E+06 -2.075856E+05 -5.592837E+04
         5   8 -6.381175E+06 -6.189776E+05  7.486775E+04 -2.394543E+06 -1.356823E+05 -3.345058E+04
         5   9 -6.496551E+06 -8.540114E+05  7.253217E+04 -2.603261E+06 -6.174424E+04 -1.666366E+04
         5  10 -8.048032E+06 -1.580395E+06 -5.668741E+05 -2.968197E+06 -3.735839E-09  1.142553E-09
         5  11 -7.912591E+06 -1.201409E+06 -3.459849E+05 -2.812090E+06 -7.962396E-09  1.679525E-09
         5  12 -7.627274E+06 -1.252853E+06 -2.337995E+05 -2.878113E+06  1.257561E-09 -2.529174E-09
         5  13 -7.082081E+06 -1.196981E+06 -2.980138E+05 -2.688277E+06 -4.759476E-11  4.974817E-10
         5  14 -7.147176E+06 -9.102140E+05 -1.355500E+05 -2.603437E+06 -1.267214E-08  1.005509E-10
         5  15 -7.062068E+06 -1.053437E+06 -8.062313E+04 -2.740742E+06  1.295980E-08 -9.790542E-10
         5  16 -6.115224E+06 -8.134877E+05 -2.924143E+04 -2.407947E+06 -3.579546E-10  2.002600E-09
         5  17 -6.381195E+06 -6.189838E+05  7.483062E+04 -2.394547E+06  1.644070E-09  1.237173E-09
         5  18 -6.496555E+06 -8.540127E+05  7.252439E+04 -2.603262E+06 -1.195951E-09 -1.647631E-09
         5  19 -8.047985E+06 -1.580380E+06 -5.667866E+05 -2.968188E+06  2.068376E+05  5.563052E+04
         5  20 -7.912572E+06 -1.201403E+06 -3.459495E+05 -2.812087E+06  1.323838E+05  3.223626E+04
         5  21 -7.627271E+06 -1.252852E+06 -2.337931E+05 -2.878112E+06  5.584106E+04  1.451083E+04
         5  22 -7.082034E+06 -1.196966E+06 -2.979261E+05 -2.688267E+06  2.072114E+05  5.577936E+04
         5  23 -7.147157E+06 -9.102079E+05 -1.355138E+05 -2.603433E+06  1.340320E+05  3.284301E+04
         5  24 -7.062064E+06 -1.053435E+06 -8.061609E+04 -2.740741E+06  5.879118E+04  1.558677E+04
         5  25 -6.115176E+06 -8.134725E+05 -2.915359E+04 -2.407938E+06  2.075856E+05  5.592837E+04
         5  26 -6.381175E+06 -6.189776E+05  7.486775E+04 -2.394543E+06  1.356823E+05  3.345058E+04
         5  27 -6.496551E+06 -8.540114E+05  7.253217E+04 -2.603261E+06  6.174424E+04  1.666366E+04
         6   1 -6.732669E+06 -9.626945E+05  2.344380E+04 -2.649526E+06 -4.240627E+04 -1.682208E+04
         6   2 -6.625088E+06 -7.329734E+05  1.162658E+05 -2.452491E+06 -2.320840E+04 -1.946847E+04
         6   3 -6.287720E+06 -7.738811E+05  1.893609E+05 -2.533402E+06 -4.369637E+03 -2.106050E+04
         6   4 -7.052653E+06 -1.078966E+06 -6.421819E+04 -2.730846E+06 -4.459712E+04 -1.762184E+04
         6   5 -7.166151E+06 -9.341921E+05 -3.152662E+04 -2.595254E+06 -2.514965E+04 -2.017952E+04
         6   6 -7.049944E+06 -1.060127E+06 -1.875836E+04 -2.737641E+06 -6.067810E+03 -2.168471E+04
         6   7 -7.372540E+06 -1.195235E+06 -1.518897E+05 -2.812130E+06 -4.678673E+04 -1.842118E+04
         6   8 -7.706932E+06 -1.135397E+06 -1.793460E+05 -2.737904E+06 -2.708902E+04 -2.088990E+04
         6   9 -7.811607E+06 -1.346341E+06 -2.269309E+05 -2.941651E+06 -7.763666E+03 -2.230807E+04
         6  10 -6.732671E+06 -9.626953E+05  2.343984E+04 -2.649526E+06  1.152119E-09 -2.361079E-09
         6  11 -6.625089E+06 -7.329740E+05  1.162640E+05 -2.452492E+06  3.647863E-09  1.924647E-09
         6  12 -6.287720E+06 -7.738815E+05  1.893600E+05 -2.533402E+06  2.036800E-09  2.984354E-09
         6  13 -7.052655E+06 -1.078967E+06 -6.422256E+04 -2.730847E+06  4.269558E-09 -1.800390E-09
         6  14 -7.166152E+06 -9.341927E+05 -3.152860E+04 -2.595254E+06  7.482703E-10  2.107584E-09
         6  15 -7.049944E+06 -1.060127E+06 -1.875931E+04 -2.737641E+06  5.368481E-09  4.228384E-09
         6  16 -7.372542E+06 -1.195236E+06 -1.518946E+05 -2.812131E+06 -3.007473E-09 -1.516539E-09
         6  17 -7.706933E+06 -1.135398E+06 -1.793482E+05 -2.737905E+06  4.580324E-09 -4.832835E-09
         6  18 -7.811607E+06 -1.346342E+06 -2.269319E+05 -2.941651E+06  4.277537E-09 -1.518109E-09
         6  19 -6.732669E+06 -9.626945E+05  2.344380E+04 -2.649526E+06  4.240627E+04  1.682208E+04
         6  20 -6.625088E+06 -7.329734E+05  1.162658E+05 -2.452491E+06  2.320840E+04  1.946847E+04
         6  21 -6.287720E+06 -7.738811E+05  1.893609E+05 -2.533402E+06  4.369637E+03  2.106050E+04
         6  22 -7.052653E+06 -1.078966E+06 -6.421819E+04 -2.730846E+06  4.459712E+04  1.762184E+04
         6  23 -7.166151E+06 -9.341921E+05 -3.152662E+04 -2.595254E+06  2.514965E+04  2.017952E+04
         6  24 -7.049944E+06 -1.060127E+06 -1.875836E+04 -2.737641E+06  6.067810E+03  2.168471E+04
         6  25 -7.372540E+06 -1.195235E+06 -1.518897E+05 -2.812130E+06  4.678673E+04  1.842118E+04
         6  26 -7.706932E+06 -1.135397E+06 -1.793460E+05 -2.737904E+06  2.708902E+04  2.088990E+04
         6  27 -7.811607E+06 -1.346341E+06 -2.269309E+05 -2.941651E+06  7.763666E+03  2.230807E+04
         7   1 -5.596006E+06 -4.895071E+05  3.891929E+05 -2.317854E+06  5.050009E+02 -2.472552E+04
         7   2 -5.544402E+06 -3.659528E+05  4.285883E+05 -2.199747E+06  6.609274E+03 -3.033306E+04
         7   3 -5.338939E+06 -3.864878E+05  4.674388E+05 -2.242556E+06  1.115432E+04 -3.163453E+04
         7   4 -7.068387E+06 -1.039582E+06 -1.405839E+04 -2.709105E+06 -1.698904E+03 -2.554006E+04
         7   5 -7.145098E+06 -9.671484E+05 -9.539831E+03 -2.628692E+06  5.451016E+03 -3.076796E+04
         7   6 -7.068178E+06 -1.039063E+06 -6.406057E+03 -2.709233E+06  1.103891E+04 -3.168468E+04
         7   7 -8.538671E+06 -1.589546E+06 -4.175067E+05 -3.099513E+06 -3.896982E+03 -2.635246E+04
         7   8 -8.743315E+06 -1.568207E+06 -4.479016E+05 -3.056632E+06  4.296095E+03 -3.120164E+04
         7   9 -8.794526E+06 -1.691473E+06 -4.805252E+05 -3.174727E+06  1.092387E+04 -3.173470E+04
         7  10 -5.596006E+06 -4.895078E+05  3.891918E+05 -2.317854E+06  3.967128E-09  1.971551E-09
         7  11 -5.544403E+06 -3.659537E+05  4.285865E+05 -2.199747E+06 -2.563612E-09  6.590503E-11
         7  12 -5.338939E+06 -3.864889E+05  4.674367E+05 -2.242556E+06  4.490217E-09 -1.561029E-09
         7  13 -7.068388E+06 -1.039583E+06 -1.405962E+04 -2.709105E+06  3.562217E-09  3.097950E-09
         7  14 -7.145099E+06 -9.671494E+05 -9.541659E+03 -2.628692E+06  5.716902E-10  7.298037E-10
         7  15 -7.068179E+06 -1.039064E+06 -6.408164E+03 -2.709232E+06 -1.723978E-09  1.463300E-09
         7  16 -8.538672E+06 -1.589546E+06 -4.175081E+05 -3.099513E+06  1.763436E-09  1.579014E-09
         7  17 -8.743315E+06 -1.568208E+06 -4.479035E+05 -3.056632E+06  2.744469E-09  3.589424E-09
         7  18 -8.794527E+06 -1.691474E+06 -4.805273E+05 -3.174727E+06  2.206574E-09  1.867078E-09
         7  19 -5.596006E+06 -4.895071E+05  3.891929E+05 -2.317854E+06 -5.050009E+02  2.472552E+04
         7  20 -5.544402E+06 -3.659528E+05  4.285883E+05 -2.199747E+06 -6.609274E+03  3.033306E+04
         7  21 -5.338939E+06 -3.864878E+05  4.674388E+05 -2.242556E+06 -1.115432E+04  3.163453E+04
         7  22 -7.068387E+06 -1.039582E+06 -1.405839E+04 -2.709105E+06  1.698904E+03  2.554006E+04
         7  23 -7.145098E+06 -9.671484E+05 -9.539831E+03 -2.628692E+06 -5.451016E+03  3.076796E+04
         7  24 -7.068178E+06 -1.039063E+06 -6.406057E+03 -2.709233E+06 -1.103891E+04  3.168468E+04
         7  25 -8.538671E+06 -1.589546E+06 -4.175067E+05 -3.099513E+06  3.896982E+03  2.635246E+04
         7  26 -8.743315E+06 -1.568207E+06 -4.479016E+05 -3.056632E+06 -4.296095E+03  3.120164E+04
         7  27 -8.794526E+06 -1.691473E+06 -4.805252E+05 -3.174727E+06 -1.092387E+04  3.173470E+04
         8   1 -5.156654E+06 -2.651294E+05  5.283504E+05 -2.139383E+06  1.347873E+04 -3.243210E+04
         8   2 -5.178096E+06 -2.832398E+05  5.184375E+05 -2.158206E+06  1.736318E+04 -3.304602E+04
         8   3 -5.205670E+06 -2.766211E+05  5.100375E+05 -2.143094E+06  1.928497E+04 -2.847810E+04
         8   4 -7.103961E+06 -1.001226E+06 -5.871681E+03 -2.666163E+06  1.239944E+04 -3.284465E+04
         8   5 -7.100889E+06 -1.014333E+06 -9.535057E+03 -2.682807E+06  1.754476E+04 -3.298628E+04
         8   6 -7.104253E+06 -1.002994E+06 -1.270381E+04 -2.665512E+06  2.072459E+04 -2.793817E+04
         8   7 -9.047596E+06 -1.737109E+06 -5.404409E+05 -3.191439E+06  1.132393E+04 -3.325581E+04
         8   8 -9.020102E+06 -1.745210E+06 -5.378476E+05 -3.205928E+06  1.772571E+04 -3.292679E+04
         8   9 -8.999346E+06 -1.729148E+06 -5.357789E+05 -3.186472E+06  2.215929E+04 -2.740015E+04
         8  10 -5.156654E+06 -2.651306E+05  5.283481E+05 -2.139382E+06  4.744925E-10  1.110699E-09
         8  11 -5.178097E+06 -2.832411E+05  5.184349E+05 -2.158206E+06  2.734161E-09 -8.285799E-10
         8  12 -5.205671E+06 -2.766220E+05  5.100352E+05 -2.143093E+06 -4.216626E-09  3.612211E-09
         8  13 -7.103961E+06 -1.001227E+06 -5.873988E+03 -2.666162E+06  8.427595E-09  3.106213E-09
         8  14 -7.100890E+06 -1.014335E+06 -9.537671E+03 -2.682807E+06  1.968232E-09  2.171410E-09
         8  15 -7.104253E+06 -1.002995E+06 -1.270608E+04 -2.665511E+06  5.274250E-09  3.167834E-09
         8  16 -9.047597E+06 -1.737110E+06 -5.404432E+05 -3.191439E+06 -1.495699E-09  4.820251E-10
         8  17 -9.020103E+06 -1.745212E+06 -5.378502E+05 -3.205927E+06 -7.655799E-09  1.979966E-09
         8  18 -8.999347E+06 -1.729149E+06 -5.357813E+05 -3.186471E+06 -1.858616E-09  2.083896E-09
         8  19 -5.156654E+06 -2.651294E+05  5.283504E+05 -2.139383E+06 -1.347873E+04  3.243210E+04
         8  20 -5.178096E+06 -2.832398E+05  5.184375E+05 -2.158206E+06 -1.736318E+04  3.304602E+04
         8  21 -5.205670E+06 -2.766211E+05  5.100375E+05 -2.143094E+06 -1.928497E+04  2.847810E+04
         8  22 -7.103961E+06 -1.001226E+06 -5.871681E+03 -2.666163E+06 -1.239944E+04  3.284465E+04
         8  23 -7.100889E+06 -1.014333E+06 -9.535057E+03 -2.682807E+06 -1.754476E+04  3.298628E+04
         8  24 -7.104253E+06 -1.002994E+06 -1.270381E+04 -2.665512E+06 -2.072459E+04  2.793817E+04
         8  25 -9.047596E+06 -1.737109E+06 -5.404409E+05 -3.191439E+06 -1.132393E+04  3.325581E+04
         8  26 -9.020102E+06 -1.745210E+06 -5.378476E+05 -3.205928E+06 -1.772571E+04  3.292679E+04
         8  27 -8.999346E+06 -1.729148E+06 -5.357789E+05 -3.186472E+06 -2.215929E+04  2.740015E+04
         9   1 -5.612297E+06 -3.810614E+05  4.038680E+05 -2.207465E+06  2.141473E+04 -2.476878E+04
         9   2 -5.686275E+06 -5.283190E+05  3.467593E+05 -2.352827E+06  3.400721E+04 -1.516296E+04
         9   3 -5.945963E+06 -5.154878E+05  2.743457E+05 -2.284753E+06  4.525716E+04 -2.170343E+03
         9   4 -7.142713E+06 -9.660388E+05 -1.685726E+04 -2.628062E+06  2.200632E+04 -2.454848E+04
         9   5 -7.051038E+06 -1.053936E+06 -2.943979E+04 -2.731780E+06  3.540008E+04 -1.463228E+04
         9   6 -7.145324E+06 -9.819247E+05 -5.799610E+04 -2.622036E+06  4.745402E+04 -1.324171E+03
         9   7 -8.670857E+06 -1.550874E+06 -4.377984E+05 -3.047714E+06  2.259626E+04 -2.432882E+04
         9   8 -8.413993E+06 -1.579433E+06 -4.058112E+05 -3.109970E+06  3.678948E+04 -1.410293E+04
         9   9 -8.343287E+06 -1.448262E+06 -3.904719E+05 -2.958719E+06  4.964606E+04 -4.798933E+02
         9  10 -5.612298E+06 -3.810622E+05  4.038660E+05 -2.207464E+06 -3.246858E-09  2.620226E-09
         9  11 -5.686277E+06 -5.283196E+05  3.467567E+05 -2.352827E+06 -3.140738E-09  2.983478E-09
         9  12 -5.945966E+06 -5.154884E+05  2.743418E+05 -2.284753E+06 -7.086977E-09  6.879887E-09
         9  13 -7.142714E+06 -9.660396E+05 -1.685930E+04 -2.628062E+06  3.030567E-09  1.199133E-09
         9  14 -7.051040E+06 -1.053937E+06 -2.944256E+04 -2.731780E+06 -3.285264E-09 -1.643867E-09
         9  15 -7.145327E+06 -9.819253E+05 -5.800038E+04 -2.622036E+06  3.442450E-09  4.560409E-09
         9  16 -8.670858E+06 -1.550875E+06 -4.378005E+05 -3.047714E+06  8.055448E-09  9.101929E-10
         9  17 -8.413994E+06 -1.579434E+06 -4.058141E+05 -3.109970E+06  9.464591E-10  5.023583E-09
         9  18 -8.343290E+06 -1.448263E+06 -3.904766E+05 -2.958719E+06  3.257807E-09  1.943588E-09
         9  19 -5.612297E+06 -3.810614E+05  4.038680E+05 -2.207465E+06 -2.141473E+04  2.476878E+04
         9  20 -5.686275E+06 -5.283190E+05  3.467593E+05 -2.352827E+06 -3.400721E+04  1.516296E+04
         9  21 -5.945963E+06 -5.154878E+05  2.743457E+05 -2.284753E+06 -4.525716E+04  2.170343E+03
         9  22 -7.142713E+06 -9.660388E+05 -1.685726E+04 -2.628062E+06 -2.200632E+04  2.454848E+04
         9  23 -7.051038E+06 -1.053936E+06 -2.943979E+04 -2.731780E+06 -3.540008E+04  1.463228E+04
         9  24 -7.145324E+06 -9.819247E+05 -5.799610E+04 -2.622036E+06 -4.745402E+04  1.324171E+03
         9  25 -8.670857E+06 -1.550874E+06 -4.377984E+05 -3.047714E+06 -2.259626E+04  2.432882E+04
         9  26 -8.413993E+06 -1.579433E+06 -4.058112E+05 -3.109970E+06 -3.678948E+04  1.410293E+04
         9  27 -8.343287E+06 -1.448262E+06 -3.904719E+05 -2.958719E+06 -4.964606E+04  4.798933E+02
        10   1 -6.745143E+06 -7.920307E+05  4.089164E+04 -2.507957E+06  5.362168E+04  7.617904E+03
        10   2 -6.825925E+06 -9.725399E+05 -7.094981E+04 -2.701387E+06  1.159271E+05  4.141584E+04
        10   3 -7.245474E+06 -1.073124E+06 -2.819203E+05 -2.561539E+06  1.790524E+05  7.299649E+04
        10   4 -7.170638E+06 -9.457145E+05 -7.374268E+04 -2.616069E+06  5.593560E+04  8.514560E+03
        10   5 -7.011174E+06 -1.049355E+06 -1.232010E+05 -2.758189E+06  1.176830E+05  4.209491E+04
        10   6 -7.190414E+06 -1.072972E+06 -2.713352E+05 -2.567027E+06  1.802786E+05  7.346452E+04
        10   7 -7.595958E+06 -1.099392E+06 -1.883931E+05 -2.724117E+06  5.824773E+04  9.410626E+03
        10   8 -7.196391E+06 -1.126167E+06 -1.754555E+05 -2.814976E+06  1.194383E+05  4.277371E+04
        10   9 -7.135351E+06 -1.072818E+06 -2.607500E+05 -2.572515E+06  1.815050E+05  7.393249E+04
        10  10 -6.745146E+06 -7.920316E+05  4.088606E+04 -2.507957E+06  6.347907E-09  3.113755E-09
        10  11 -6.825940E+06 -9.725455E+05 -7.097865E+04 -2.701391E+06  4.599443E-09 -7.990998E-09
        10  12 -7.245510E+06 -1.073139E+06 -2.819914E+05 -2.561549E+06 -8.747622E-09 -2.617432E-09
        10  13 -7.170642E+06 -9.457154E+05 -7.374877E+04 -2.616070E+06  8.380675E-09 -2.608544E-09
        10  14 -7.011190E+06 -1.049361E+06 -1.232307E+05 -2.758193E+06  1.268234E-08 -6.009208E-09
        10  15 -7.190451E+06 -1.072986E+06 -2.714074E+05 -2.567037E+06  4.937818E-09  1.465900E-09
        10  16 -7.595962E+06 -1.099393E+06 -1.883998E+05 -2.724117E+06 -5.467440E-09 -6.422434E-09
        10  17 -7.196407E+06 -1.126173E+06 -1.754862E+05 -2.814980E+06  7.299063E-09 -8.126883E-10
        10  18 -7.135388E+06 -1.072833E+06 -2.608232E+05 -2.572526E+06  6.599256E-09  5.768997E-09
        10  19 -6.745143E+06 -7.920307E+05  4.089164E+04 -2.507957E+06 -5.362168E+04 -7.617904E+03
        10  20 -6.825925E+06 -9.725399E+05 -7.094981E+04 -2.701387E+06 -1.159271E+05 -4.141584E+04
        10  21 -7.245474E+06 -1.073124E+06 -2.819203E+05 -2.561539E+06 -1.790524E+05 -7.299649E+04
        10  22 -7.170638E+06 -9.457145E+05 -7.374268E+04 -2.616069E+06 -5.593560E+04 -8.514560E+03
        10  23 -7.011174E+06 -1.049355E+06 -1.232010E+05 -2.758189E+06 -1.176830E+05 -4.209491E+04
        10  24 -7.190414E+06 -1.072972E+06 -2.713352E+05 -2.567027E+06 -1.802786E+05 -7.346452E+04
        10  25 -7.595958E+06 -1.099392E+06 -1.883931E+05 -2.724117E+06 -5.824773E+04 -9.410626E+03
        10  26 -7.196391E+06 -1.126167E+06 -1.754555E+05 -2.814976E+06 -1.194383E+05 -4.277371E+04
        10  27 -7.135351E+06 -1.072818E+06 -2.607500E+05 -2.572515E+06 -1.815050E+05 -7.393249E+04
        11   1 -8.047110E+06 -1.330396E+06 -5.739302E+05 -2.967377E+06  2.200713E+05  9.895031E+04
        11   2 -8.022602E+06 -1.249627E+06 -8.215000E+05 -3.042543E+06  5.109258E+05  2.225917E+05
        11   3 -8.731243E+06 -2.218593E+06 -1.638330E+06 -2.542505E+06  8.112044E+05  3.215486E+05
        11   4 -7.219324E+06 -9.354310E+05 -3.295434E+05 -2.662573E+06  2.256948E+05  1.011613E+05
        11   5 -6.922325E+06 -8.652128E+05 -5.261177E+05 -2.776649E+06  5.110227E+05  2.225837E+05
        11   6 -7.356500E+06 -1.842237E+06 -1.286643E+06 -2.315705E+06  8.059161E+05  3.192630E+05
        11   7 -6.390853E+06 -5.403066E+05 -8.522581E+04 -2.357358E+06  2.313264E+05  1.033772E+05
        11   8 -5.820874E+06 -4.807743E+05 -2.308415E+05 -2.510347E+06  5.111189E+05  2.225755E+05
        11   9 -5.979894E+06 -1.465937E+06 -9.350927E+05 -2.088550E+06  8.006127E+05  3.169755E+05
        11  10 -8.047166E+06 -1.330420E+06 -5.740412E+05 -2.967395E+06  2.218191E-09  3.906707E-09
        11  11 -8.022899E+06 -1.249752E+06 -8.220925E+05 -3.042635E+06  4.060712E-09  6.110242E-09
        11  12 -8.731987E+06 -2.218885E+06 -1.639783E+06 -2.542717E+06 -1.252901E-09  8.251097E-10
        11  13 -7.219382E+06 -9.354560E+05 -3.296599E+05 -2.662592E+06  6.716635E-09  7.419959E-09
        11  14 -6.922622E+06 -8.653378E+05 -5.267093E+05 -2.776741E+06 -6.895714E-09  9.912489E-10
        11  15 -7.357233E+06 -1.842525E+06 -1.288074E+06 -2.315914E+06 -7.739636E-09  2.806933E-09
        11  16 -6.390914E+06 -5.403328E+05 -8.534787E+04 -2.357378E+06  1.533932E-09  3.627325E-09
        11  17 -5.821170E+06 -4.808991E+05 -2.314322E+05 -2.510439E+06  1.790627E-09  1.895838E-09
        11  18 -5.980615E+06 -1.466220E+06 -9.365014E+05 -2.088756E+06 -1.729708E-09 -2.532465E-09
        11  19 -8.047110E+06 -1.330396E+06 -5.739302E+05 -2.967377E+06 -2.200713E+05 -9.895031E+04
        11  20 -8.022602E+06 -1.249627E+06 -8.215000E+05 -3.042543E+06 -5.109258E+05 -2.225917E+05
        11  21 -8.731243E+06 -2.218593E+06 -1.638330E+06 -2.542505E+06 -8.112044E+05 -3.215486E+05
        11  22 -7.219324E+06 -9.354310E+05 -3.295434E+05 -2.662573E+06 -2.256948E+05 -1.011613E+05
        11  23 -6.922325E+06 -8.652128E+05 -5.261177E+05 -2.776649E+06 -5.110227E+05 -2.225837E+05
        11  24 -7.356500E+06 -1.842237E+06 -1.286643E+06 -2.315705E+06 -8.059161E+05 -3.192630E+05
        11  25 -6.390853E+06 -5.403066E+05 -8.522581E+04 -2.357358E+06 -2.313264E+05 -1.033772E+05
        11  26 -5.820874E+06 -4.807743E+05 -2.308415E+05 -2.510347E+06 -5.111189E+05 -2.225755E+05
        11  27 -5.979894E+06 -1.465937E+06 -9.350927E+05 -2.088550E+06 -8.006127E+05 -3.169755E+05
        12   1  1.150934E+05 -2.019570E+05  1.227188E+05 -3.354548E+03  2.105363E+03 -7.955249E+02
        12   2  1.123281E+05 -2.116140E+05  1.221600E+05  3.039142E+03  2.236078E+03 -5.358588E+03
        12   3  1.183080E+05 -2.072498E+05  1.290104E+05 -4.365377E+03  1.833653E+03 -9.923709E+03
        12   4  6.123409E+02 -6.597513E+05  8.317258E+03 -3.072726E+03  2.105476E+03 -8.235229E+02
        12   5 -1.493747E+03 -6.667642E+05  8.423815E+03  3.837822E+03  2.236147E+03 -5.345295E+03
        12   6  5.137975E+03 -6.597658E+05  1.591305E+04 -3.050446E+03  1.833498E+03 -9.869144E+03
        12   7 -1.138846E+05 -1.117355E+06 -1.061001E+05 -2.791085E+03  2.105589E+03 -8.515001E+02
        12   8 -1.153313E+05 -1.121727E+06 -1.053280E+05  4.636032E+03  2.236217E+03 -5.332010E+03
        12   9 -1.080475E+05 -1.112096E+06 -9.719980E+04 -1.736270E+03  1.833343E+03 -9.814616E+03
        12  10  1.150934E+05 -2.019570E+05  1.227188E+05 -3.354546E+03  6.182545E-09  1.869582E-10
        12  11  1.123281E+05 -2.116141E+05  1.221600E+05  3.039152E+03  5.808018E-09 -1.751522E-09
        12  12  1.183080E+05 -2.072499E+05  1.290102E+05 -4.365362E+03 -3.313921E-09  1.055307E-09
        12  13  6.123360E+02 -6.597513E+05  8.317249E+03 -3.072725E+03  4.832432E-09 -1.196061E-10
        12  14 -1.493760E+03 -6.667643E+05  8.423752E+03  3.837832E+03  4.357546E-09 -5.545491E-12
        12  15  5.137945E+03 -6.597659E+05  1.591286E+04 -3.050431E+03  1.346028E-08  9.081807E-10
        12  16 -1.138846E+05 -1.117355E+06 -1.061002E+05 -2.791084E+03  4.823452E-09 -1.747801E-10
        12  17 -1.153313E+05 -1.121727E+06 -1.053281E+05  4.636042E+03  6.388053E-09  1.431382E-09
        12  18 -1.080475E+05 -1.112096E+06 -9.719999E+04 -1.736255E+03  8.612187E-09 -1.129959E-09
        12  19  1.150934E+05 -2.019570E+05  1.227188E+05 -3.354548E+03 -2.105363E+03  7.955249E+02
        12  20  1.123281E+05 -2.116140E+05  1.221600E+05  3.039142E+03 -2.236078E+03  5.358588E+03
        12  21  1.183080E+05 -2.072498E+05  1.290104E+05 -4.365377E+03 -1.833653E+03  9.923709E+03
        12  22  6.123409E+02 -6.597513E+05  8.317258E+03 -3.072726E+03 -2.105476E+03  8.235229E+02
        12  23 -1.493747E+03 -6.667642E+05  8.423815E+03  3.837822E+03 -2.236147E+03  5.345295E+03
        12  24  5.137975E+03 -6.597658E+05  1.591305E+04 -3.050446E+03 -1.833498E+03  9.869144E+03
        12  25 -1.138846E+05 -1.117355E+06 -1.061001E+05 -2.791085E+03 -2.105589E+03  8.515001E+02
        12  26 -1.153313E+05 -1.121727E+06 -1.053280E+05  4.636032E+03 -2.236217E+03  5.332010E+03
        12  27 -1.080475E+05 -1.112096E+06 -9.719980E+04 -1.736270E+03 -1.833343E+03  9.814616E+03
        13   1  6.532069E+04 -3.936929E+05  8.502853E+04 -9.695102E+03  1.588748E+03 -1.311644E+04
        13   2  5.724166E+04 -4.086280E+05  9.337568E+04  8.941381E+03  1.425472E+03 -2.828415E+04
        13   3  9.405056E+04 -4.072629E+05  1.234458E+05 -7.612172E+03  1.091538E+03 -4.345381E+04
        13   4 -1.100259E+03 -6.592150E+05  1.867853E+04 -7.896905E+03  1.588693E+03 -1.310129E+04
        13   5 -7.474228E+03 -6.673701E+05  2.871074E+04  9.816689E+03  1.425311E+03 -2.825121E+04
        13   6  3.104587E+04 -6.592239E+05  6.045948E+04 -7.660640E+03  1.091282E+03 -4.340324E+04
        13   7 -6.752653E+04 -9.246732E+05 -4.767679E+04 -6.099392E+03  1.588638E+03 -1.308616E+04
        13   8 -7.219517E+04 -9.260514E+05 -3.595924E+04  1.069173E+04  1.425151E+03 -2.821828E+04
        13   9 -3.196362E+04 -9.111273E+05 -2.531668E+03 -7.708981E+03  1.091027E+03 -4.335269E+04
        13  10  6.532064E+04 -3.936931E+05  8.502820E+04 -9.695085E+03 -1.258804E-09 -4.338634E-10
        13  11  5.724144E+04 -4.086288E+05  9.337417E+04  8.941413E+03 -2.116884E-09 -3.208595E-09
        13  12  9.405005E+04 -4.072649E+05  1.234423E+05 -7.612134E+03 -2.591024E-09  2.950224E-09
        13  13 -1.100308E+03 -6.592152E+05  1.867820E+04 -7.896888E+03  6.199799E-10 -1.403592E-09
        13  14 -7.474445E+03 -6.673709E+05  2.870924E+04  9.816721E+03 -4.579252E-09 -1.034640E-11
        13  15  3.104536E+04 -6.592259E+05  6.045594E+04 -7.660602E+03 -2.938543E-09  1.459175E-09
        13  16 -6.752657E+04 -9.246734E+05 -4.767712E+04 -6.099376E+03  4.391749E-09  4.093651E-10
        13  17 -7.219539E+04 -9.260523E+05 -3.596075E+04  1.069176E+04 -3.603597E-09  2.366232E-09
        13  18 -3.196413E+04 -9.111293E+05 -2.535207E+03 -7.708943E+03  8.356239E-10 -3.118506E-09
        13  19  6.532069E+04 -3.936929E+05  8.502853E+04 -9.695102E+03 -1.588748E+03  1.311644E+04
        13  20  5.724166E+04 -4.086280E+05  9.337568E+04  8.941381E+03 -1.425472E+03  2.828415E+04
        13  21  9.405056E+04 -4.072629E+05  1.234458E+05 -7.612172E+03 -1.091538E+03  4.345381E+04
        13  22 -1.100259E+03 -6.592150E+05  1.867853E+04 -7.896905E+03 -1.588693E+03  1.310129E+04
        13  23 -7.474228E+03 -6.673701E+05  2.871074E+04  9.816689E+03 -1.425311E+03  2.825121E+04
        13  24  3.104587E+04 -6.592239E+05  6.045948E+04 -7.660640E+03 -1.091282E+03  4.340324E+04
        13  25 -6.752653E+04 -9.246732E+05 -4.767679E+04 -6.099392E+03 -1.588638E+03  1.308616E+04
        13  26 -7.219517E+04 -9.260514E+05 -3.595924E+04  1.069173E+04 -1.425151E+03  2.821828E+04
        13  27 -3.196362E+04 -9.111273E+05 -2.531668E+03 -7.708981E+03 -1.091027E+03  4.335269E+04
        14   1 -1.647414E+04 -6.866068E+05  6.228236E+04 -1.416198E+04  6.912053E+02 -5.559298E+04
        14   2 -5.973304E+04 -7.338301E+05  9.778789E+04  1.421099E+04  5.069769E+02 -1.157429E+05
        14   3  1.829076E+05 -7.023470E+05  2.438490E+05  2.222181E+03  1.085422E+03 -1.758842E+05
        14   4 -6.244018E+03 -6.453568E+05  7.259599E+04 -9.483950E+03  6.902153E+02 -5.552189E+04
        14   5 -4.738540E+04 -6.846630E+05  1.100819E+05  1.143947E+04  5.073556E+02 -1.157311E+05
        14   6  1.973705E+05 -6.452599E+05  2.581575E+05 -7.998893E+03  1.088584E+03 -1.759323E+05
        14   7  3.986061E+03 -6.041053E+05  8.290951E+04 -4.805609E+03  6.892264E+02 -5.545080E+04
        14   8 -3.503790E+04 -6.354937E+05  1.223756E+05  8.667737E+03  5.077343E+02 -1.157192E+05
        14   9  2.118336E+05 -5.881695E+05  2.724658E+05 -1.822090E+04  1.091749E+03 -1.759805E+05
        14  10 -1.647497E+04 -6.866101E+05  6.227654E+04 -1.416195E+04 -3.819222E-09 -1.682472E-10
        14  11 -5.973664E+04 -7.338445E+05  9.776269E+04  1.421103E+04 -8.126597E-09 -4.701907E-09
        14  12  1.828993E+05 -7.023803E+05  2.437908E+05  2.222335E+03  3.041870E-09  1.120099E-09
        14  13 -6.244847E+03 -6.453601E+05  7.259019E+04 -9.483919E+03 -1.750573E-09 -2.032972E-09
        14  14 -4.738900E+04 -6.846774E+05  1.100567E+05  1.143952E+04 -3.727661E-09  5.002558E-12
        14  15  1.973622E+05 -6.452931E+05  2.580992E+05 -7.998739E+03 -3.894091E-10  1.428214E-09
        14  16  3.985234E+03 -6.041086E+05  8.290372E+04 -4.805578E+03 -2.174876E-09  7.379086E-11
        14  17 -3.504150E+04 -6.355080E+05  1.223505E+05  8.667784E+03 -1.495072E-09  3.672162E-09
        14  18  2.118253E+05 -5.882028E+05  2.724075E+05 -1.822075E+04  7.057834E-10 -1.424438E-09
        14  19 -1.647414E+04 -6.866068E+05  6.228236E+04 -1.416198E+04 -6.912053E+02  5.559298E+04
        14  20 -5.973304E+04 -7.338301E+05  9.778789E+04  1.421099E+04 -5.069769E+02  1.157429E+05
        14  21  1.829076E+05 -7.023470E+05  2.438490E+05  2.222181E+03 -1.085422E+03  1.758842E+05
        14  22 -6.244018E+03 -6.453568E+05  7.259599E+04 -9.483950E+03 -6.902153E+02  5.552189E+04
        14  23 -4.738540E+04 -6.846630E+05  1.100819E+05  1.143947E+04 -5.073556E+02  1.157311E+05
        14  24  1.973705E+05 -6.452599E+05  2.581575E+05 -7.998893E+03 -1.088584E+03  1.759323E+05
        14  25  3.986061E+03 -6.041053E+05  8.290951E+04 -4.805609E+03 -6.892264E+02  5.545080E+04
        14  26 -3.503790E+04 -6.354937E+05  1.223756E+05  8.667737E+03 -5.077343E+02  1.157192E+05
        14  27  2.118336E+05 -5.881695E+05  2.724658E+05 -1.822090E+04 -1.091749E+03  1.759805E+05
        15   1  2.823081E+05 -3.101565E+05  2.697322E+05 -5.022565E+02  4.206574E+04 -2.548688E+01
        15   2  2.815722E+05 -3.134024E+05  2.690483E+05 -1.633192E+02  4.198848E+04 -2.967145E+02
        15   3  2.810804E+05 -3.155211E+05  2.688236E+05 -1.528143E+03  4.172916E+04 -5.683900E+02
        15   4 -2.199536E+02 -1.452354E+06  3.496621E+02 -3.786938E+02  4.207099E+04 -3.364975E+01
        15   5 -2.892749E+02 -1.452907E+06  3.087079E+02  4.734006E+02  4.199362E+04 -1.953565E+02
        15   6 -1.340276E+02 -1.452353E+06  6.508623E+02 -3.784430E+02  4.173406E+04 -3.575107E+02
        15   7 -2.828415E+05 -2.593350E+06 -2.691230E+05 -2.553093E+02  4.207624E+04 -4.179762E+01
        15   8 -2.822438E+05 -2.591216E+06 -2.685206E+05  1.109165E+03  4.199878E+04 -9.418318E+01
        15   9 -2.814411E+05 -2.587994E+06 -2.676112E+05  7.695290E+02  4.173896E+04 -1.470149E+02
        15  10  2.823062E+05 -3.101570E+05  2.697288E+05 -5.022556E+02  2.779418E-09  7.053490E-09
        15  11  2.815703E+05 -3.134029E+05  2.690450E+05 -1.633092E+02  3.822707E-09  2.161305E-10
        15  12  2.810786E+05 -3.155216E+05  2.688203E+05 -1.528124E+03  5.326688E-09 -4.838501E-09
        15  13 -2.218529E+02 -1.452355E+06  3.463382E+02 -3.786927E+02  6.261817E-09  2.789066E-10
        15  14 -2.911672E+02 -1.452908E+06  3.053962E+02  4.734073E+02 -4.715649E-09  2.389968E-11
        15  15 -1.358967E+02 -1.452353E+06  6.475913E+02 -3.784310E+02  7.847244E-09  7.848730E-10
        15  16 -2.828434E+05 -2.593351E+06 -2.691263E+05 -2.553079E+02  9.365096E-09 -6.903642E-09
        15  17 -2.822457E+05 -2.591216E+06 -2.685239E+05  1.109168E+03 -2.613306E-09 -8.196278E-10
        15  18 -2.814430E+05 -2.587994E+06 -2.676145E+05  7.695339E+02  6.787140E-10  5.075934E-09
        15  19  2.823081E+05 -3.101565E+05  2.697322E+05 -5.022565E+02 -4.206574E+04  2.548688E+01
        15  20  2.815722E+05 -3.134024E+05  2.690483E+05 -1.633192E+02 -4.198848E+04  2.967145E+02
        15  21  2.810804E+05 -3.155211E+05  2.688236E+05 -1.528143E+03 -4.172916E+04  5.683900E+02
        15  22 -2.199536E+02 -1.452354E+06  3.496621E+02 -3.786938E+02 -4.207099E+04  3.364975E+01
        15  23 -2.892749E+02 -1.452907E+06  3.087079E+02  4.734006E+02 -4.199362E+04  1.953565E+02
        15  24 -1.340276E+02 -1.452353E+06  6.508623E+02 -3.784430E+02 -4.173406E+04  3.575107E+02
        15  25 -2.828415E+05 -2.593350E+06 -2.691230E+05 -2.553093E+02 -4.207624E+04  4.179762E+01
        15  26 -2.822438E+05 -2.591216E+06 -2.685206E+05  1.109165E+03 -4.199878E+04  9.418318E+01
        15  27 -2.814411E+05 -2.587994E+06 -2.676112E+05  7.695290E+02 -4.173896E+04  1.470149E+02
        16   1  2.794436E+05 -3.214858E+05  2.674475E+05 -2.644719E+03  4.178352E+04 -2.877244E+02
        16   2  2.773446E+05 -3.302511E+05  2.659906E+05 -3.902726E+02  4.134535E+04 -1.842631E+03
        16   3  2.766039E+05 -3.374987E+05  2.660954E+05 -3.219383E+03  3.934880E+04 -3.402704E+03
        16   4 -2.619021E+02 -1.452294E+06  8.019305E+02 -1.130373E+03  4.178902E+04 -4.899850E+02
        16   5 -3.739411E+02 -1.452969E+06  1.195158E+03  1.412972E+03  4.134878E+04 -1.108879E+03
        16   6  7.101910E+02 -1.452289E+06  2.500475E+03 -1.127814E+03  3.934889E+04 -1.732960E+03
        16   7 -2.800590E+05 -2.581925E+06 -2.659319E+05  3.816814E+02  4.179451E+04 -6.918784E+02
        16   8 -2.781828E+05 -2.574526E+06 -2.636873E+05  3.213574E+03  4.135222E+04 -3.764458E+02
        16   9 -2.752728E+05 -2.565935E+06 -2.611806E+05  9.607695E+02  3.934901E+04 -6.619807E+01
        16  10  2.794417E+05 -3.214862E+05  2.674442E+05 -2.644709E+03  8.009477E-10 -8.453580E-09
        16  11  2.773427E+05 -3.302515E+05  2.659873E+05 -3.902112E+02 -9.653231E-10 -1.272169E-09
        16  12  2.766022E+05 -3.374991E+05  2.660925E+05 -3.219275E+03  4.098691E-09  5.048344E-09
        16  13 -2.637762E+02 -1.452295E+06  7.986506E+02 -1.130357E+03  1.062149E-09  1.797300E-09
        16  14 -3.757761E+02 -1.452969E+06  1.191945E+03  1.413009E+03  2.315433E-09  1.720688E-11
        16  15  7.085287E+02 -1.452289E+06  2.497562E+03 -1.127759E+03  6.333991E-09  1.626199E-09
        16  16 -2.800609E+05 -2.581925E+06 -2.659352E+05  3.817047E+02  7.309858E-09  8.416396E-09
        16  17 -2.781846E+05 -2.574526E+06 -2.636905E+05  3.213587E+03 -2.506453E-09 -5.316761E-10
        16  18 -2.752744E+05 -2.565936E+06 -2.611835E+05  9.607716E+02 -1.119757E-09 -4.853268E-09
        16  19  2.794436E+05 -3.214858E+05  2.674475E+05 -2.644719E+03 -4.178352E+04  2.877244E+02
        16  20  2.773446E+05 -3.302511E+05  2.659906E+05 -3.902726E+02 -4.134535E+04  1.842631E+03
        16  21  2.766039E+05 -3.374987E+05  2.660954E+05 -3.219383E+03 -3.934880E+04  3.402704E+03
        16  22 -2.619021E+02 -1.452294E+06  8.019305E+02 -1.130373E+03 -4.178902E+04  4.899850E+02
        16  23 -3.739411E+02 -1.452969E+06  1.195158E+03  1.412972E+03 -4.134878E+04  1.108879E+03
        16  24  7.101910E+02 -1.452289E+06  2.500475E+03 -1.127814E+03 -3.934889E+04  1.732960E+03
        16  25 -2.800590E+05 -2.581925E+06 -2.659319E+05  3.816814E+02 -4.179451E+04  6.918784E+02
        16  26 -2.781828E+05 -2.574526E+06 -2.636873E+05  3.213574E+03 -4.135222E+04  3.764458E+02
        16  27 -2.752728E+05 -2.565935E+06 -2.611806E+05  9.607695E+02 -3.934901E+04  6.619807E+01
        17   1  2.720241E+05 -3.486088E+05  2.625611E+05 -5.973487E+03  4.226974E+04  3.535831E+03
        17   2  2.680334E+05 -3.649053E+05  2.617788E+05  6.036258E+02  3.966273E+04 -1.373542E+04
        17   3  2.782523E+05 -3.745387E+05  2.759794E+05 -1.856305E+03  1.261881E+04 -3.111272E+04
        17   4 -7.210371E+02 -1.451669E+06  3.045726E+03 -2.020014E+03  4.229277E+04 -2.193403E+03
        17   5 -1.341679E+03 -1.453722E+06  4.785872E+03  2.519780E+03  3.963461E+04 -4.799881E+03
        17   6  9.710425E+03 -1.451655E+06  1.132301E+04 -1.978903E+03  1.252051E+04 -7.512841E+03
        17   7 -2.735531E+05 -2.553608E+06 -2.565533E+05  1.927258E+03  4.231575E+04 -7.912508E+03
        17   8 -2.708018E+05 -2.541446E+06 -2.522887E+05  4.433545E+03  3.960652E+04  4.120075E+03
        17   9 -2.589175E+05 -2.527712E+06 -2.534167E+05 -2.100176E+03  1.242213E+04  1.604614E+04
        17  10  2.720222E+05 -3.486093E+05  2.625577E+05 -5.973607E+03  1.128370E-09  7.586180E-09
        17  11  2.680317E+05 -3.649060E+05  2.617755E+05  6.040645E+02  5.351848E-09  1.201297E-09
        17  12  2.782518E+05 -3.745398E+05  2.759773E+05 -1.855989E+03 -1.740065E-08 -9.515993E-09
        17  13 -7.229578E+02 -1.451670E+06  3.042358E+03 -2.019939E+03  2.161223E-09  3.425292E-09
        17  14 -1.343371E+03 -1.453722E+06  4.782879E+03  2.519934E+03 -3.089791E-09  1.469169E-10
        17  15  9.710242E+03 -1.451655E+06  1.132261E+04 -1.978827E+03 -1.158728E-08  2.515452E-09
        17  16 -2.735550E+05 -2.553609E+06 -2.565567E+05  1.927528E+03 -5.488068E-09 -7.417741E-09
        17  17 -2.708034E+05 -2.541446E+06 -2.522917E+05  4.433413E+03 -7.606605E-09 -4.128826E-09
        17  18 -2.589177E+05 -2.527712E+06 -2.534175E+05 -2.100336E+03 -2.043216E-08  9.897839E-09
        17  19  2.720241E+05 -3.486088E+05  2.625611E+05 -5.973487E+03 -4.226974E+04 -3.535831E+03
        17  20  2.680334E+05 -3.649053E+05  2.617788E+05  6.036258E+02 -3.966273E+04  1.373542E+04
        17  21  2.782523E+05 -3.745387E+05  2.759794E+05 -1.856305E+03 -1.261881E+04  3.111272E+04
        17  22 -7.210371E+02 -1.451669E+06  3.045726E+03 -2.020014E+03 -4.229277E+04  2.193403E+03
        17  23 -1.341679E+03 -1.453722E+06  4.785872E+03  2.519780E+03 -3.963461E+04  4.799881E+03
        17  24  9.710425E+03 -1.451655E+06  1.132301E+04 -1.978903E+03 -1.252051E+04  7.512841E+03
        17  25 -2.735531E+05 -2.553608E+06 -2.565533E+05  1.927258E+03 -4.231575E+04  7.912508E+03
        17  26 -2.708018E+05 -2.541446E+06 -2.522887E+05  4.433545E+03 -3.960652E+04 -4.120075E+03
        17  27 -2.589175E+05 -2.527712E+06 -2.534167E+05 -2.100176E+03 -1.242213E+04 -1.604614E+04
        18   1  8.167973E+04  9.125565E+05  4.588202E+04 -3.375943E+00  2.867083E+04  1.906485E-01
        18   2  8.168433E+04  9.125773E+05  4.588929E+04 -1.977940E+01  2.867190E+04 -5.037814E+00
        18   3  8.168991E+04  9.126062E+05  4.590246E+04 -3.350273E+01  2.867404E+04 -1.026601E+01
        18   4 -2.671460E+01  5.495810E+05  1.385184E+01  5.958229E-01  2.867260E+04 -1.089295E+00
        18   5 -2.804655E+01  5.495768E+05  1.652492E+01 -7.440429E-01  2.867367E+04 -8.889083E+00
        18   6 -2.796238E+01  5.495810E+05  2.688639E+01  5.968249E-01  2.867581E+04 -1.668865E+01
        18   7 -8.173852E+04  1.867407E+05 -4.585473E+04  4.565591E+00  2.867437E+04 -2.368528E+00
        18   8 -8.174579E+04  1.867114E+05 -4.585665E+04  1.828158E+01  2.867544E+04 -1.273821E+01
        18   9 -8.175119E+04  1.866910E+05 -4.584910E+04  3.467891E+01  2.867758E+04 -2.310771E+01
        18  10  8.167885E+04  9.125562E+05  4.588047E+04 -3.375947E+00 -6.487423E-09 -1.324477E-07
        18  11  8.168345E+04  9.125771E+05  4.588774E+04 -1.977928E+01 -3.093735E-09 -2.369198E-09
        18  12  8.168903E+04  9.126060E+05  4.590091E+04 -3.350249E+01 -3.550916E-10  1.281463E-07
        18  13 -2.759764E+01  5.495808E+05  1.230652E+01  5.958483E-01 -7.641835E-09  1.775790E-11
        18  14 -2.892965E+01  5.495766E+05  1.497949E+01 -7.438377E-01 -2.563776E-09 -1.228594E-10
        18  15 -2.884562E+01  5.495808E+05  2.534072E+01  5.972100E-01  4.091265E-09  1.540114E-10
        18  16 -8.173941E+04  1.867405E+05 -4.585628E+04  4.565646E+00 -2.195688E-09  1.323664E-07
        18  17 -8.174667E+04  1.867112E+05 -4.585820E+04  1.828188E+01  1.629419E-09  2.314837E-09
        18  18 -8.175208E+04  1.866908E+05 -4.585065E+04  3.467945E+01  8.023624E-10 -1.280247E-07
        18  19  8.167973E+04  9.125565E+05  4.588202E+04 -3.375943E+00 -2.867083E+04 -1.906488E-01
        18  20  8.168433E+04  9.125773E+05  4.588929E+04 -1.977940E+01 -2.867190E+04  5.037814E+00
        18  21  8.168991E+04  9.126062E+05  4.590246E+04 -3.350273E+01 -2.867404E+04  1.026601E+01
        18  22 -2.671460E+01  5.495810E+05  1.385184E+01  5.958233E-01 -2.867260E+04  1.089295E+00
        18  23 -2.804655E+01  5.495768E+05  1.652492E+01 -7.440429E-01 -2.867367E+04  8.889083E+00
        18  24 -2.796238E+01  5.495810E+05  2.688639E+01  5.968245E-01 -2.867581E+04  1.668865E+01
        18  25 -8.173852E+04  1.867407E+05 -4.585473E+04  4.565591E+00 -2.867437E+04  2.368528E+00
        18  26 -8.174579E+04  1.867114E+05 -4.585665E+04  1.828158E+01 -2.867544E+04  1.273821E+01
        18  27 -8.175119E+04  1.866910E+05 -4.584910E+04  3.467891E+01 -2.867758E+04  2.310771E+01
        19   1  8.169632E+04  9.126374E+05  4.591482E+04 -4.001435E+01  2.867598E+04 -1.312333E+01
        19   2  8.171063E+04  9.127058E+05  4.595200E+04 -6.370172E+01  2.867918E+04 -4.388586E+01
        19   3  8.172732E+04  9.127860E+05  4.601205E+04 -7.561268E+01  2.868142E+04 -7.464778E+01
        19   4 -2.858537E+01  5.495816E+05  3.463270E+01  2.618312E+00  2.867775E+04 -2.194619E+01
        19   5 -3.179500E+01  5.495760E+05  5.830264E+01 -3.269886E+00  2.868095E+04 -5.039364E+01
        19   6 -3.302457E+01  5.495816E+05  1.032381E+02  2.618718E+00  2.868319E+04 -7.884047E+01
        19   7 -8.175886E+04  1.866611E+05 -4.584598E+04  4.522915E+01  2.867952E+04 -3.076416E+01
        19   8 -8.177958E+04  1.865814E+05 -4.583582E+04  5.713071E+01  2.868272E+04 -5.689780E+01
        19   9 -8.179873E+04  1.865126E+05 -4.580599E+04  8.080946E+01  2.868497E+04 -8.303082E+01
        19  10  8.169544E+04  9.126372E+05  4.591328E+04 -4.001405E+01 -4.111187E-10  6.200152E-09
        19  11  8.170975E+04  9.127056E+05  4.595046E+04 -6.370071E+01  6.885445E-09  5.085347E-11
        19  12  8.172643E+04  9.127858E+05  4.601050E+04 -7.561096E+01  3.823480E-09 -4.672766E-09
        19  13 -2.946872E+01  5.495814E+05  3.308682E+01  2.618819E+00  1.671198E-09  1.334374E-10
        19  14 -3.267856E+01  5.495758E+05  5.675641E+01 -3.268722E+00 -6.373491E-10 -4.243995E-10
        19  15 -3.390827E+01  5.495814E+05  1.016916E+02  2.620539E+00 -6.030071E-09  2.814191E-10
        19  16 -8.175974E+04  1.866609E+05 -4.584752E+04  4.522986E+01 -5.822304E-09 -6.462373E-09
        19  17 -8.178047E+04  1.865812E+05 -4.583737E+04  5.713203E+01 -6.695204E-09 -2.452815E-10
        19  18 -8.179962E+04  1.865123E+05 -4.580754E+04  8.081138E+01 -5.040945E-09  4.841436E-09
        19  19  8.169632E+04  9.126374E+05  4.591482E+04 -4.001435E+01 -2.867598E+04  1.312333E+01
        19  20  8.171063E+04  9.127058E+05  4.595200E+04 -6.370172E+01 -2.867918E+04  4.388586E+01
        19  21  8.172732E+04  9.127860E+05  4.601205E+04 -7.561268E+01 -2.868142E+04  7.464778E+01
        19  22 -2.858537E+01  5.495816E+05  3.463270E+01  2.618312E+00 -2.867775E+04  2.194619E+01
        19  23 -3.179500E+01  5.495760E+05  5.830264E+01 -3.269886E+00 -2.868095E+04  5.039364E+01
        19  24 -3.302457E+01  5.495816E+05  1.032381E+02  2.618718E+00 -2.868319E+04  7.884047E+01
        19  25 -8.175886E+04  1.866611E+05 -4.584598E+04  4.522915E+01 -2.867952E+04  3.076416E+01
        19  26 -8.177958E+04  1.865814E+05 -4.583582E+04  5.713071E+01 -2.868272E+04  5.689780E+01
        19  27 -8.179873E+04  1.865126E+05 -4.580599E+04  8.080946E+01 -2.868497E+04  8.303082E+01
        20   1  8.174068E+04  9.128516E+05  4.605784E+04 -8.560073E+01  2.868324E+04 -9.477655E+01
        20   2  8.176833E+04  9.129592E+05  4.619779E+04 -1.172824E+02  2.867741E+04 -2.507895E+02
        20   3  8.181566E+04  9.130992E+05  4.644638E+04 -1.292327E+02  2.865534E+04 -4.068055E+02
        20   4 -3.470395E+01  5.495848E+05  1.362659E+02  4.385566E+00  2.868502E+04 -1.001438E+02
        20   5 -3.899043E+01  5.495720E+05  2.369444E+02 -5.479213E+00  2.867917E+04 -2.170577E+02
        20   6 -3.037480E+01  5.495847E+05  4.191782E+02  4.387433E+00  2.865708E+04 -3.339752E+02
        20   7 -8.181545E+04  1.864533E+05 -4.578573E+04  9.432486E+01  2.868679E+04 -1.055080E+02
        20   8 -8.185169E+04  1.863201E+05 -4.572433E+04  1.062651E+02  2.868094E+04 -1.833446E+02
        20   9 -8.188179E+04  1.862057E+05 -4.560847E+04  1.379368E+02  2.865883E+04 -2.611853E+02
        20  10  8.173979E+04  9.128514E+05  4.605630E+04 -8.559854E+01  4.697006E-09  9.782274E-09
        20  11  8.176744E+04  9.129590E+05  4.619624E+04 -1.172766E+02  9.032423E-10  1.054047E-10
        20  12  8.181477E+04  9.130990E+05  4.644484E+04 -1.292234E+02  1.642767E-10 -7.712779E-09
        20  13 -3.558776E+01  5.495846E+05  1.347192E+02  4.387879E+00  1.416349E-09  2.308373E-10
        20  14 -3.987388E+01  5.495717E+05  2.353983E+02 -5.474201E+00  3.820232E-10 -6.302027E-10
        20  15 -3.125691E+01  5.495845E+05  4.176343E+02  4.395140E+00  1.365302E-09  4.745312E-10
        20  16 -8.181634E+04  1.864531E+05 -4.578728E+04  9.432730E+01 -6.065125E-09 -1.016007E-08
        20  17 -8.185257E+04  1.863199E+05 -4.572588E+04  1.062694E+02 -3.514945E-09 -3.454133E-10
        20  18 -8.188267E+04  1.862055E+05 -4.561001E+04  1.379429E+02  2.130443E-10  7.791981E-09
        20  19  8.174068E+04  9.128516E+05  4.605784E+04 -8.560073E+01 -2.868324E+04  9.477655E+01
        20  20  8.176833E+04  9.129592E+05  4.619779E+04 -1.172824E+02 -2.867741E+04  2.507895E+02
        20  21  8.181566E+04  9.130992E+05  4.644638E+04 -1.292327E+02 -2.865534E+04  4.068055E+02
        20  22 -3.470395E+01  5.495848E+05  1.362659E+02  4.385566E+00 -2.868502E+04  1.001438E+02
        20  23 -3.899043E+01  5.495720E+05  2.369444E+02 -5.479213E+00 -2.867917E+04  2.170577E+02
        20  24 -3.037480E+01  5.495847E+05  4.191782E+02  4.387434E+00 -2.865708E+04  3.339752E+02
        20  25 -8.181545E+04  1.864533E+05 -4.578573E+04  9.432486E+01 -2.868679E+04  1.055080E+02
        20  26 -8.185169E+04  1.863201E+05 -4.572433E+04  1.062651E+02 -2.868094E+04  1.833446E+02
        20  27 -8.188179E+04  1.862057E+05 -4.560847E+04  1.379368E+02 -2.865883E+04  2.611853E+02
        21   1 -1.500956E+05  4.197652E+05  4.189806E+05  9.146641E+04  7.696957E+03 -3.632132E+03
        21   2 -2.749322E+05  3.776435E+05  3.815061E+05 -6.016019E+04  5.537504E+03 -8.985688E+03
        21   3 -2.730023E+05  3.733634E+05  3.783677E+05  1.054430E+05  3.195818E+03 -2.975909E+03
        21   4 -1.747190E+06  2.001441E+04  1.947080E+04  8.041622E+04  6.892074E+03 -3.640054E+03
        21   5 -1.811073E+06 -7.074749E+03 -2.590168E+03 -7.816586E+04  5.554423E+03 -8.986840E+03
        21   6 -1.748498E+06  3.432467E+03  9.113263E+03  8.053036E+04  4.034139E+03 -2.957887E+03
        21   7 -3.341970E+06 -3.799292E+05 -3.802321E+05  6.938907E+04  6.089243E+03 -3.647957E+03
        21   8 -3.345071E+06 -3.919710E+05 -3.868650E+05 -9.613505E+04  5.571287E+03 -8.987995E+03
        21   9 -3.222018E+06 -3.666624E+05 -3.603061E+05  5.566600E+04  4.870457E+03 -2.939912E+03
        21  10 -1.500957E+05  4.197651E+05  4.189805E+05  9.146644E+04  4.690775E-09  9.058045E-10
        21  11 -2.749323E+05  3.776434E+05  3.815059E+05 -6.016015E+04 -3.685502E-09  1.090391E-09
        21  12 -2.730023E+05  3.733634E+05  3.783677E+05  1.054430E+05 -1.537424E-09 -1.314072E-09
        21  13 -1.747190E+06  2.001438E+04  1.947069E+04  8.041624E+04  9.955856E-11  2.450237E-10
        21  14 -1.811073E+06 -7.074844E+03 -2.590378E+03 -7.816582E+04 -1.011519E-11  2.398617E-10
        21  15 -1.748498E+06  3.432453E+03  9.113216E+03  8.053037E+04 -1.984435E-09  3.062963E-10
        21  16 -3.341970E+06 -3.799293E+05 -3.802322E+05  6.938909E+04 -8.269014E-11 -9.967544E-10
        21  17 -3.345071E+06 -3.919711E+05 -3.868652E+05 -9.613501E+04 -2.272695E-09 -1.737378E-10
        21  18 -3.222018E+06 -3.666624E+05 -3.603061E+05  5.566602E+04 -9.964146E-10  4.720599E-10
        21  19 -1.500956E+05  4.197652E+05  4.189806E+05  9.146641E+04 -7.696957E+03  3.632132E+03
        21  20 -2.749322E+05  3.776435E+05  3.815061E+05 -6.016019E+04 -5.537504E+03  8.985688E+03
        21  21 -2.730023E+05  3.733634E+05  3.783677E+05  1.054430E+05 -3.195818E+03  2.975909E+03
        21  22 -1.747190E+06  2.001441E+04  1.947080E+04  8.041622E+04 -6.892074E+03  3.640054E+03
        21  23 -1.811073E+06 -7.074749E+03 -2.590168E+03 -7.816586E+04 -5.554423E+03  8.986840E+03
        21  24 -1.748498E+06  3.432467E+03  9.113263E+03  8.053036E+04 -4.034139E+03  2.957887E+03
        21  25 -3.341970E+06 -3.799292E+05 -3.802321E+05  6.938907E+04 -6.089243E+03  3.647957E+03
        21  26 -3.345071E+06 -3.919710E+05 -3.868650E+05 -9.613505E+04 -5.571287E+03  8.987995E+03
        21  27 -3.222018E+06 -3.666624E+05 -3.603061E+05  5.566600E+04 -4.870457E+03  2.939912E+03
        22   1 -2.949416E+06 -2.926959E+05 -2.917249E+05  6.446113E+04  7.777632E+02  2.397076E+03
        22   2 -3.048981E+06 -3.144422E+05 -3.166962E+05 -1.000856E+05  1.096853E+03  6.262754E+03
        22   3 -3.078203E+06 -3.414772E+05 -3.288357E+05  7.511381E+04  1.485187E+03  7.958184E+03
        22   4 -1.760704E+06  5.865563E+03  6.257465E+03  8.535680E+04  1.133907E+03  2.404769E+03
        22   5 -1.795382E+06  9.202944E+01 -2.658228E+03 -8.437234E+04  1.297796E+03  6.265370E+03
        22   6 -1.759584E+06 -1.085012E+04  1.381786E+03  8.560264E+04  1.530937E+03  7.957659E+03
        22   7 -5.707062E+05  3.043205E+05  3.041326E+05  1.062854E+05  1.490733E+03  2.412478E+03
        22   8 -5.403513E+05  3.145074E+05  3.112605E+05 -6.863322E+04  1.499143E+03  6.267994E+03
        22   9 -4.393820E+05  3.196452E+05  3.314674E+05  9.610906E+04  1.576782E+03  7.957137E+03
        22  10 -2.949416E+06 -2.926959E+05 -2.917250E+05  6.446112E+04 -2.028874E-09  1.894765E-09
        22  11 -3.048981E+06 -3.144422E+05 -3.166962E+05 -1.000856E+05 -3.842823E-09  6.030791E-09
        22  12 -3.078203E+06 -3.414772E+05 -3.288358E+05  7.511381E+04 -1.165614E-09  4.221572E-09
        22  13 -1.760704E+06  5.865556E+03  6.257452E+03  8.535680E+04 -4.272888E-09 -1.178180E-09
        22  14 -1.795382E+06  9.198687E+01 -2.658305E+03 -8.437235E+04  4.340294E-09  5.650537E-09
        22  15 -1.759584E+06 -1.085019E+04  1.381663E+03  8.560263E+04  8.781402E-09  3.358310E-09
        22  16 -5.707062E+05  3.043205E+05  3.041325E+05  1.062854E+05  3.737572E-09  2.736095E-09
        22  17 -5.403513E+05  3.145073E+05  3.112604E+05 -6.863323E+04  4.397055E-09 -2.647164E-10
        22  18 -4.393820E+05  3.196451E+05  3.314673E+05  9.610905E+04  2.166133E-09  1.137809E-09
        22  19 -2.949416E+06 -2.926959E+05 -2.917249E+05  6.446113E+04 -7.777632E+02 -2.397076E+03
        22  20 -3.048981E+06 -3.144422E+05 -3.166962E+05 -1.000856E+05 -1.096853E+03 -6.262754E+03
        22  21 -3.078203E+06 -3.414772E+05 -3.288357E+05  7.511381E+04 -1.485187E+03 -7.958184E+03
        22  22 -1.760704E+06  5.865563E+03  6.257465E+03  8.535680E+04 -1.133907E+03 -2.404769E+03
        22  23 -1.795382E+06  9.202944E+01 -2.658228E+03 -8.437234E+04 -1.297796E+03 -6.265370E+03
        22  24 -1.759584E+06 -1.085012E+04  1.381786E+03  8.560264E+04 -1.530937E+03 -7.957659E+03
        22  25 -5.707062E+05  3.043205E+05  3.041326E+05  1.062854E+05 -1.490733E+03 -2.412478E+03
        22  26 -5.403513E+05  3.145074E+05  3.112605E+05 -6.863322E+04 -1.499143E+03 -6.267994E+03
        22  27 -4.393820E+05  3.196452E+05  3.314674E+05  9.610906E+04 -1.576782E+03 -7.957137E+03
        23   1 -4.415642E+06 -6.716626E+05 -6.629600E+05 -3.356775E+03 -4.168581E+03  1.038687E+04
        23   2 -4.627501E+06 -6.947367E+05 -7.089911E+05  1.705987E+04  3.910284E+02  1.401596E+04
        23   3 -4.419572E+06 -6.749726E+05 -6.648187E+05  4.775567E+04  4.916912E+03  1.041499E+04
        23   4 -1.683418E+06  1.384868E+04  2.204269E+04  1.212947E+04 -3.662942E+03  1.038737E+04
        23   5 -1.893799E+06 -8.805784E+03 -2.362950E+04  7.161990E+03  3.945756E+02  1.401204E+04
        23   6 -1.683327E+06  1.216231E+04  2.131416E+04  1.246996E+04  4.418456E+03  1.042021E+04
        23   7  1.055609E+06  6.987933E+05  7.064785E+05  2.767279E+04 -3.155035E+03  1.038789E+04
        23   8  8.467149E+05  6.765574E+05  6.611644E+05 -2.771571E+03  3.981361E+02  1.400814E+04
        23   9  1.059741E+06  6.987304E+05  7.068782E+05 -2.294438E+04  3.917757E+03  1.042548E+04
        23  10 -4.415642E+06 -6.716627E+05 -6.629602E+05 -3.356740E+03 -4.658144E-09 -2.403811E-09
        23  11 -4.627501E+06 -6.947369E+05 -7.089914E+05  1.705987E+04  4.768142E-09  3.459752E-09
        23  12 -4.419572E+06 -6.749727E+05 -6.648189E+05  4.775563E+04 -4.008882E-09 -3.701969E-10
        23  13 -1.683418E+06  1.384856E+04  2.204246E+04  1.212951E+04  7.560259E-11 -1.617073E-09
        23  14 -1.893799E+06 -8.805995E+03 -2.362987E+04  7.161985E+03  6.440287E-09 -1.018894E-09
        23  15 -1.683327E+06  1.216219E+04  2.131392E+04  1.246993E+04  2.974666E-09 -2.429951E-09
        23  16  1.055609E+06  6.987931E+05  7.064782E+05  2.767282E+04 -8.620593E-11  5.029033E-10
        23  17  8.467148E+05  6.765572E+05  6.611641E+05 -2.771575E+03 -5.002510E-09  8.483308E-10
        23  18  1.059741E+06  6.987303E+05  7.068780E+05 -2.294441E+04  2.125430E-09  6.111242E-10
        23  19 -4.415642E+06 -6.716626E+05 -6.629600E+05 -3.356775E+03  4.168581E+03 -1.038687E+04
        23  20 -4.627501E+06 -6.947367E+05 -7.089911E+05  1.705987E+04 -3.910284E+02 -1.401596E+04
        23  21 -4.419572E+06 -6.749726E+05 -6.648187E+05  4.775567E+04 -4.916912E+03 -1.041499E+04
        23  22 -1.683418E+06  1.384868E+04  2.204269E+04  1.212947E+04  3.662942E+03 -1.038737E+04
        23  23 -1.893799E+06 -8.805784E+03 -2.362950E+04  7.161990E+03 -3.945756E+02 -1.401204E+04
        23  24 -1.683327E+06  1.216231E+04  2.131416E+04  1.246996E+04 -4.418456E+03 -1.042021E+04
        23  25  1.055609E+06  6.987933E+05  7.064785E+05  2.767279E+04  3.155035E+03 -1.038789E+04
        23  26  8.467149E+05  6.765574E+05  6.611644E+05 -2.771571E+03 -3.981361E+02 -1.400814E+04
        23  27  1.059741E+06  6.987304E+05  7.068782E+05 -2.294438E+04 -3.917757E+03 -1.042548E+04
        24   1 -3.225104E+06 -3.770305E+05 -3.660121E+05 -4.088123E+04 -9.532666E+02  8.495952E+03
        24   2 -3.205602E+06 -3.549396E+05 -3.573934E+05  1.302313E+05  3.994698E+02  7.215492E+03
        24   3 -3.100605E+06 -3.336011E+05 -3.325881E+05 -2.810972E+04  1.608219E+03  2.153978E+03
        24   4 -1.756233E+06 -8.274897E+03  1.965749E+03 -6.337321E+04 -9.091113E+02  8.493729E+03
        24   5 -1.799685E+06 -1.542918E+03 -5.050713E+03  1.014893E+05  1.746749E+02  7.220633E+03
        24   6 -1.757447E+06  4.611363E+03  4.328392E+03 -6.305683E+04  1.114435E+03  2.170231E+03
        24   7 -2.853972E+05  3.603178E+05  3.697799E+05 -8.590794E+04 -8.648484E+02  8.491506E+03
        24   8 -3.919672E+05  3.517051E+05  3.471418E+05  7.269415E+04 -5.063133E+01  7.225790E+03
        24   9 -4.126466E+05  3.426888E+05  3.411077E+05 -9.806610E+04  6.195750E+02  2.186523E+03
        24  10 -3.225104E+06 -3.770306E+05 -3.660122E+05 -4.088123E+04 -3.991806E-09  1.156404E-09
        24  11 -3.205602E+06 -3.549397E+05 -3.573935E+05  1.302313E+05  1.150535E-08  4.089953E-09
        24  12 -3.100605E+06 -3.336011E+05 -3.325881E+05 -2.810972E+04 -1.826601E-09 -4.570801E-09
        24  13 -1.756233E+06 -8.274975E+03  1.965612E+03 -6.337321E+04 -4.316729E-09 -1.519232E-09
        24  14 -1.799685E+06 -1.542974E+03 -5.050811E+03  1.014893E+05  3.917812E-10  1.040965E-08
        24  15 -1.757447E+06  4.611357E+03  4.328381E+03 -6.305683E+04  2.300807E-09  3.963884E-09
        24  16 -2.853972E+05  3.603177E+05  3.697797E+05 -8.590793E+04  3.163619E-09  4.095895E-11
        24  17 -3.919673E+05  3.517050E+05  3.471418E+05  7.269415E+04 -1.483340E-09  5.472785E-09
        24  18 -4.126466E+05  3.426887E+05  3.411077E+05 -9.806610E+04 -2.816079E-09 -9.778283E-10
        24  19 -3.225104E+06 -3.770305E+05 -3.660121E+05 -4.088123E+04  9.532666E+02 -8.495952E+03
        24  20 -3.205602E+06 -3.549396E+05 -3.573934E+05  1.302313E+05 -3.994698E+02 -7.215492E+03
        24  21 -3.100605E+06 -3.336011E+05 -3.325881E+05 -2.810972E+04 -1.608219E+03 -2.153978E+03
        24  22 -1.756233E+06 -8.274897E+03  1.965749E+03 -6.337321E+04  9.091113E+02 -8.493729E+03
        24  23 -1.799685E+06 -1.542918E+03 -5.050713E+03  1.014893E+05 -1.746749E+02 -7.220633E+03
        24  24 -1.757447E+06  4.611363E+03  4.328392E+03 -6.305683E+04 -1.114435E+03 -2.170231E+03
        24  25 -2.853972E+05  3.603178E+05  3.697799E+05 -8.590794E+04  8.648484E+02 -8.491506E+03
        24  26 -3.919672E+05  3.517051E+05  3.471418E+05  7.269415E+04  5.063133E+01 -7.225790E+03
        24  27 -4.126466E+05  3.426888E+05  3.411077E+05 -9.806610E+04 -6.195750E+02 -2.186523E+03
        25   1 -4.337750E+05  3.373472E+05  3.358255E+05 -9.792618E+04 -6.793067E+02 -2.092768E+03
        25   2 -4.110849E+05  3.467522E+05  3.424001E+05  7.342432E+04 -7.764630E+01 -7.119393E+03
        25   3 -3.058689E+05  3.553411E+05  3.648657E+05 -8.615459E+04  6.665521E+02 -8.427223E+03
        25   4 -1.758178E+06  4.389547E+03  4.146647E+03 -6.340970E+04 -1.171365E+03 -2.076541E+03
        25   5 -1.798741E+06 -1.473267E+03 -4.778762E+03  1.019223E+05 -3.039327E+02 -7.114155E+03
        25   6 -1.756975E+06 -8.321704E+03  1.981285E+03 -6.372124E+04  7.060608E+02 -8.429324E+03
        25   7 -3.080987E+06 -3.286991E+05 -3.276653E+05 -2.895357E+04 -1.662369E+03 -2.060352E+03
        25   8 -3.184648E+06 -3.498432E+05 -3.521035E+05  1.303684E+05 -5.297125E+02 -7.108933E+03
        25   9 -3.206168E+06 -3.721431E+05 -3.610624E+05 -4.132988E+04  7.454750E+02 -8.431426E+03
        25  10 -4.337750E+05  3.373472E+05  3.358255E+05 -9.792618E+04 -7.287458E-10 -2.627893E-09
        25  11 -4.110849E+05  3.467522E+05  3.424000E+05  7.342432E+04  3.284478E-09  3.474188E-09
        25  12 -3.058689E+05  3.553410E+05  3.648655E+05 -8.615458E+04 -1.073189E-08  4.342033E-09
        25  13 -1.758178E+06  4.389542E+03  4.146637E+03 -6.340970E+04  3.855751E-11  6.051987E-09
        25  14 -1.798741E+06 -1.473321E+03 -4.778857E+03  1.019223E+05 -8.397145E-09  5.355937E-09
        25  15 -1.756975E+06 -8.321780E+03  1.981151E+03 -6.372124E+04 -4.781267E-09  5.669991E-09
        25  16 -3.080987E+06 -3.286991E+05 -3.276653E+05 -2.895358E+04  2.755850E-09 -3.858033E-09
        25  17 -3.184648E+06 -3.498433E+05 -3.521036E+05  1.303684E+05  2.433896E-09  3.432109E-09
        25  18 -3.206168E+06 -3.721431E+05 -3.610626E+05 -4.132988E+04  7.006099E-09 -5.645057E-09
        25  19 -4.337750E+05  3.373472E+05  3.358255E+05 -9.792618E+04  6.793067E+02  2.092768E+03
        25  20 -4.110849E+05  3.467522E+05  3.424001E+05  7.342432E+04  7.764630E+01  7.119393E+03
        25  21 -3.058689E+05  3.553411E+05  3.648657E+05 -8.615459E+04 -6.665521E+02  8.427223E+03
        25  22 -1.758178E+06  4.389547E+03  4.146647E+03 -6.340970E+04  1.171365E+03  2.076541E+03
        25  23 -1.798741E+06 -1.473267E+03 -4.778762E+03  1.019223E+05  3.039327E+02  7.114155E+03
        25  24 -1.756975E+06 -8.321704E+03  1.981285E+03 -6.372124E+04 -7.060608E+02  8.429324E+03
        25  25 -3.080987E+06 -3.286991E+05 -3.276653E+05 -2.895357E+04  1.662369E+03  2.060352E+03
        25  26 -3.184648E+06 -3.498432E+05 -3.521035E+05  1.303684E+05  5.297125E+02  7.108933E+03
        25  27 -3.206168E+06 -3.721431E+05 -3.610624E+05 -4.132988E+04 -7.454750E+02  8.431426E+03
        26   1  1.059887E+06  6.989059E+05  7.071889E+05 -2.412854E+04 -4.129856E+03 -1.039308E+04
        26   2  8.472403E+05  6.766315E+05  6.617298E+05 -2.284836E+03 -8.279791E+02 -1.400914E+04
        26   3  1.056809E+06  6.992406E+05  7.075875E+05  2.648405E+04  2.509546E+03 -1.042490E+04
        26   4 -1.683274E+06  1.229542E+04  2.159675E+04  1.172925E+04 -4.632431E+03 -1.038766E+04
        26   5 -1.893881E+06 -8.888940E+03 -2.321677E+04  8.092477E+03 -8.256406E+02 -1.401304E+04
        26   6 -1.683340E+06  1.402439E+04  2.287480E+04  1.138574E+04  3.016869E+03 -1.042450E+04
        26   7 -4.419611E+06 -6.748818E+05 -6.645642E+05  4.745682E+04 -5.132752E+03 -1.038230E+04
        26   8 -4.628188E+06 -6.949773E+05 -7.087312E+05  1.843251E+04 -8.233067E+02 -1.401695E+04
        26   9 -4.416683E+06 -6.717590E+05 -6.624053E+05 -3.657072E+03  3.521932E+03 -1.042413E+04
        26  10  1.059887E+06  6.989058E+05  7.071886E+05 -2.412857E+04 -6.654205E-09 -3.254743E-09
        26  11  8.472402E+05  6.766313E+05  6.617294E+05 -2.284845E+03  6.305455E-09 -9.473706E-10
        26  12  1.056809E+06  6.992405E+05  7.075873E+05  2.648407E+04 -1.514996E-09  4.782646E-09
        26  13 -1.683274E+06  1.229530E+04  2.159651E+04  1.172921E+04 -8.852544E-09 -3.462186E-09
        26  14 -1.893881E+06 -8.889151E+03 -2.321714E+04  8.092467E+03 -4.474850E-09 -1.155495E-09
        26  15 -1.683340E+06  1.402427E+04  2.287458E+04  1.138577E+04 -2.893091E-09  1.492148E-09
        26  16 -4.419611E+06 -6.748820E+05 -6.645644E+05  4.745678E+04  1.292564E-09 -1.643220E-09
        26  17 -4.628188E+06 -6.949776E+05 -7.087316E+05  1.843250E+04 -6.729816E-09  2.149894E-09
        26  18 -4.416683E+06 -6.717591E+05 -6.624055E+05 -3.657042E+03 -1.864745E-09 -1.991227E-10
        26  19  1.059887E+06  6.989059E+05  7.071889E+05 -2.412854E+04  4.129856E+03  1.039308E+04
        26  20  8.472403E+05  6.766315E+05  6.617298E+05 -2.284836E+03  8.279791E+02  1.400914E+04
        26  21  1.056809E+06  6.992406E+05  7.075875E+05  2.648405E+04 -2.509546E+03  1.042490E+04
        26  22 -1.683274E+06  1.229542E+04  2.159675E+04  1.172925E+04  4.632431E+03  1.038766E+04
        26  23 -1.893881E+06 -8.888940E+03 -2.321677E+04  8.092477E+03  8.256406E+02  1.401304E+04
        26  24 -1.683340E+06  1.402439E+04  2.287480E+04  1.138574E+04 -3.016869E+03  1.042450E+04
        26  25 -4.419611E+06 -6.748818E+05 -6.645642E+05  4.745682E+04  5.132752E+03  1.038230E+04
        26  26 -4.628188E+06 -6.949773E+05 -7.087312E+05  1.843251E+04  8.233067E+02  1.401695E+04
        26  27 -4.416683E+06 -6.717590E+05 -6.624053E+05 -3.657072E+03 -3.521932E+03  1.042413E+04
        27   1 -4.181533E+05  3.247564E+05  3.377702E+05  9.582015E+04 -2.421275E+03 -8.030565E+03
        27   2 -5.207669E+05  3.191589E+05  3.179417E+05 -6.807922E+04 -3.208180E+03 -6.403437E+03
        27   3 -5.488655E+05  3.116178E+05  3.131354E+05  1.061769E+05 -4.065343E+03 -2.559327E+03
        27   4 -1.758721E+06 -1.083004E+04  2.595110E+03  8.528030E+04 -2.379737E+03 -8.031172E+03
        27   5 -1.796473E+06 -4.277847E+02 -1.143490E+03 -8.396373E+04 -3.005952E+03 -6.400845E+03
        27   6 -1.759852E+06  7.910088E+03  1.001466E+04  8.499128E+04 -3.702539E+03 -2.551501E+03
        27   7 -3.097656E+06 -3.465523E+05 -3.327159E+05  7.475840E+04 -2.338284E+03 -8.031783E+03
        27   8 -3.070700E+06 -3.201372E+05 -3.203519E+05 -9.982168E+04 -2.804135E+03 -6.398262E+03
        27   9 -2.969506E+06 -2.959080E+05 -2.932172E+05  6.383950E+04 -3.340437E+03 -2.543693E+03
        27  10 -4.181533E+05  3.247564E+05  3.377701E+05  9.582014E+04 -6.618923E-09  3.433423E-09
        27  11 -5.207669E+05  3.191588E+05  3.179417E+05 -6.807924E+04 -3.002582E-09  3.730608E-09
        27  12 -5.488655E+05  3.116178E+05  3.131353E+05  1.061769E+05 -2.326057E-09  1.741783E-09
        27  13 -1.758721E+06 -1.083011E+04  2.594979E+03  8.528029E+04 -8.340739E-09 -5.036834E-09
        27  14 -1.796473E+06 -4.278311E+02 -1.143584E+03 -8.396374E+04 -6.451048E-09 -1.941068E-09
        27  15 -1.759852E+06  7.910077E+03  1.001462E+04  8.499127E+04 -3.030898E-10 -1.213159E-09
        27  16 -3.097656E+06 -3.465524E+05 -3.327160E+05  7.475838E+04 -2.775316E-09 -4.127214E-09
        27  17 -3.070700E+06 -3.201373E+05 -3.203520E+05 -9.982169E+04  9.353667E-09 -2.220128E-08
        27  18 -2.969506E+06 -2.959080E+05 -2.932172E+05  6.383949E+04 -6.423636E-09  3.385846E-09
        27  19 -4.181533E+05  3.247564E+05  3.377702E+05  9.582015E+04  2.421275E+03  8.030565E+03
        27  20 -5.207669E+05  3.191589E+05  3.179417E+05 -6.807922E+04  3.208180E+03  6.403437E+03
        27  21 -5.488655E+05  3.116178E+05  3.131354E+05  1.061769E+05  4.065343E+03  2.559327E+03
        27  22 -1.758721E+06 -1.083004E+04  2.595110E+03  8.528030E+04  2.379737E+03  8.031172E+03
        27  23 -1.796473E+06 -4.277847E+02 -1.143490E+03 -8.396373E+04  3.005952E+03  6.400845E+03
        27  24 -1.759852E+06  7.910088E+03  1.001466E+04  8.499128E+04  3.702539E+03  2.551501E+03
        27  25 -3.097656E+06 -3.465523E+05 -3.327159E+05  7.475840E+04  2.338284E+03  8.031783E+03
        27  26 -3.070700E+06 -3.201372E+05 -3.203519E+05 -9.982168E+04  2.804135E+03  6.398262E+03
        27  27 -2.969506E+06 -2.959080E+05 -2.932172E+05  6.383950E+04  3.340437E+03  2.543693E+03
        28   1 -3.201942E+06 -3.622573E+05 -3.512268E+05  5.668773E+04 -8.143219E+03  2.775459E+03
        28   2 -3.325961E+06 -3.898191E+05 -3.752413E+05 -9.668512E+04 -1.246129E+04  8.775204E+03
        28   3 -3.322644E+06 -3.635868E+05 -3.602728E+05  6.900370E+04 -1.659690E+04  3.513475E+03
        28   4 -1.748225E+06  2.846263E+03  1.322247E+04  8.097043E+04 -7.314567E+03  2.793319E+03
        28   5 -1.811381E+06 -9.787603E+03  4.165756E+03 -7.865612E+04 -1.245075E+04  8.773981E+03
        28   6 -1.746914E+06  3.159246E+04  3.465221E+04  8.073228E+04 -1.740510E+04  3.505355E+03
        28   7 -2.925846E+05  3.677903E+05  3.775112E+05  1.052995E+05 -6.483949E+03  2.811223E+03
        28   8 -2.947116E+05  3.700703E+05  3.833988E+05 -6.059092E+04 -1.244017E+04  8.772760E+03
        28   9 -1.689229E+05  4.265834E+05  4.293887E+05  9.248537E+04 -1.821531E+04  3.497214E+03
        28  10 -3.201942E+06 -3.622573E+05 -3.512269E+05  5.668775E+04 -3.622512E-09  1.263382E-08
        28  11 -3.325962E+06 -3.898192E+05 -3.752417E+05 -9.668503E+04 -6.296692E-10  3.862115E-09
        28  12 -3.322645E+06 -3.635869E+05 -3.602733E+05  6.900375E+04  6.336938E-09  6.791460E-10
        28  13 -1.748225E+06  2.846240E+03  1.322236E+04  8.097045E+04 -8.668213E-09  5.764879E-09
        28  14 -1.811381E+06 -9.787728E+03  4.165319E+03 -7.865603E+04 -4.249147E-09  6.276887E-10
        28  15 -1.746914E+06  3.159237E+04  3.465162E+04  8.073233E+04 -4.450187E-09  4.765980E-10
        28  16 -2.925847E+05  3.677903E+05  3.775111E+05  1.052995E+05 -5.870309E-09  8.047620E-09
        28  17 -2.947118E+05  3.700702E+05  3.833983E+05 -6.059084E+04  2.259400E-09  4.747034E-09
        28  18 -1.689232E+05  4.265833E+05  4.293881E+05  9.248542E+04  3.607764E-09  4.272420E-10
        28  19 -3.201942E+06 -3.622573E+05 -3.512268E+05  5.668773E+04  8.143219E+03 -2.775459E+03
        28  20 -3.325961E+06 -3.898191E+05 -3.752413E+05 -9.668512E+04  1.246129E+04 -8.775204E+03
        28  21 -3.322644E+06 -3.635868E+05 -3.602728E+05  6.900370E+04  1.659690E+04 -3.513475E+03
        28  22 -1.748225E+06  2.846263E+03  1.322247E+04  8.097043E+04  7.314567E+03 -2.793319E+03
        28  23 -1.811381E+06 -9.787603E+03  4.165756E+03 -7.865612E+04  1.245075E+04 -8.773981E+03
        28  24 -1.746914E+06  3.159246E+04  3.465221E+04  8.073228E+04  1.740510E+04 -3.505355E+03
        28  25 -2.925846E+05  3.677903E+05  3.775112E+05  1.052995E+05  6.483949E+03 -2.811223E+03
        28  26 -2.947116E+05  3.700703E+05  3.833988E+05 -6.059092E+04  1.244017E+04 -8.772760E+03
        28  27 -1.689229E+05  4.265834E+05  4.293887E+05  9.248537E+04  1.821531E+04 -3.497214E+03
        29   1  2.906728E+05  2.577845E+04  3.803856E+05 -1.276951E+04 -1.816076E+03  2.593461E+05
        29   2 -6.962187E+04 -3.246571E+04  1.622356E+05 -3.933805E+03 -1.191708E+03  1.706122E+05
        29   3 -9.241782E+03  2.604433E+04  1.070637E+05  7.022373E+03 -5.704410E+02  8.187442E+04
        29   4  2.904683E+05  2.598223E+04  3.803855E+05  1.845932E+03 -1.809970E+03  2.593461E+05
        29   5 -6.967318E+04 -3.241444E+04  1.622356E+05 -2.600404E+02 -1.190698E+03  1.706122E+05
        29   6 -9.140441E+03  2.594283E+04  1.070636E+05 -2.448572E+02 -5.713994E+02  8.187441E+04
        29   7  2.902647E+05  2.618647E+04  3.803856E+05  1.646137E+04 -1.803864E+03  2.593462E+05
        29   8 -6.972443E+04 -3.236315E+04  1.622356E+05  3.413724E+03 -1.189689E+03  1.706122E+05
        29   9 -9.038901E+03  2.584145E+04  1.070637E+05 -7.512086E+03 -5.723579E+02  8.187441E+04
        29  10  2.906547E+05  2.570625E+04  3.802592E+05 -1.276913E+04  2.908790E-09  2.738679E-10
        29  11 -6.962968E+04 -3.249696E+04  1.621809E+05 -3.933641E+03  3.555302E-09  1.170531E-10
        29  12 -9.243582E+03  2.603713E+04  1.070511E+05  7.022410E+03  5.966006E-09 -5.027412E-10
        29  13  2.904503E+05  2.591003E+04  3.802591E+05  1.846310E+03 -8.468312E-09  2.018564E-12
        29  14 -6.968099E+04 -3.244570E+04  1.621809E+05 -2.598768E+02  3.885488E-09  2.613948E-11
        29  15 -9.142240E+03  2.593564E+04  1.070510E+05 -2.448195E+02 -5.373955E-11 -1.678937E-11
        29  16  2.902467E+05  2.611427E+04  3.802592E+05  1.646175E+04 -3.200711E-10 -2.600647E-10
        29  17 -6.973225E+04 -3.239440E+04  1.621809E+05  3.413888E+03 -2.818596E-10 -6.469508E-11
        29  18 -9.040700E+03  2.583425E+04  1.070511E+05 -7.512049E+03  4.547949E-09  4.380220E-10
        29  19  2.906728E+05  2.577845E+04  3.803856E+05 -1.276951E+04  1.816076E+03 -2.593461E+05
        29  20 -6.962187E+04 -3.246571E+04  1.622356E+05 -3.933805E+03  1.191708E+03 -1.706122E+05
        29  21 -9.241782E+03  2.604433E+04  1.070637E+05  7.022373E+03  5.704410E+02 -8.187442E+04
        29  22  2.904683E+05  2.598223E+04  3.803855E+05  1.845932E+03  1.809970E+03 -2.593461E+05
        29  23 -6.967318E+04 -3.241444E+04  1.622356E+05 -2.600404E+02  1.190698E+03 -1.706122E+05
        29  24 -9.140441E+03  2.594283E+04  1.070636E+05 -2.448572E+02  5.713994E+02 -8.187441E+04
        29  25  2.902647E+05  2.618647E+04  3.803856E+05  1.646137E+04  1.803864E+03 -2.593462E+05
        29  26 -6.972443E+04 -3.236315E+04  1.622356E+05  3.413724E+03  1.189689E+03 -1.706122E+05
        29  27 -9.038901E+03  2.584145E+04  1.070637E+05 -7.512086E+03  5.723579E+02 -8.187441E+04
        30   1  4.528834E+04  4.279537E+03  8.882373E+04 -1.900006E+03 -4.473183E+02  6.406281E+04
        30   2 -1.089979E+04 -5.389359E+03  4.260498E+04 -5.516591E+02 -2.908425E+02  4.166917E+04
        30   3 -1.244316E+03  4.322312E+03  2.742978E+04  1.120962E+03 -1.344888E+02  1.927573E+04
        30   4  4.525782E+04  4.310043E+03  8.882373E+04  2.857874E+02 -4.470927E+02  6.406282E+04
        30   5 -1.090696E+04 -5.382197E+03  4.260498E+04 -3.855903E+01 -2.908081E+02  4.166917E+04
        30   6 -1.228133E+03  4.306124E+03  2.742978E+04 -3.862532E+01 -1.345248E+02  1.927573E+04
        30   7  4.522731E+04  4.340559E+03  8.882373E+04  2.471581E+03 -4.468672E+02  6.406282E+04
        30   8 -1.091412E+04 -5.375035E+03  4.260498E+04  4.745411E+02 -2.907736E+02  4.166917E+04
        30   9 -1.211944E+03  4.289939E+03  2.742978E+04 -1.198213E+03 -1.345608E+02  1.927573E+04
        30  10  4.528723E+04  4.275130E+03  8.881602E+04 -1.899983E+03  2.400051E-09 -5.120563E-10
        30  11 -1.090026E+04 -5.391223E+03  4.260172E+04 -5.516494E+02 -4.093504E-12  1.250314E-10
        30  12 -1.244416E+03  4.321913E+03  2.742909E+04  1.120964E+03 -2.832865E-09  2.590683E-10
        30  13  4.525671E+04  4.305636E+03  8.881601E+04  2.858104E+02 -2.488156E-09  4.086090E-11
        30  14 -1.090742E+04 -5.384062E+03  4.260172E+04 -3.854927E+01 -3.305264E-09 -1.078339E-11
        30  15 -1.228232E+03  4.305725E+03  2.742909E+04 -3.862323E+01  1.211572E-09 -6.025300E-11
        30  16  4.522621E+04  4.336152E+03  8.881602E+04  2.471604E+03 -6.151706E-09  4.351618E-10
        30  17 -1.091458E+04 -5.376899E+03  4.260172E+04  4.745508E+02  2.307991E-10 -2.407158E-10
        30  18 -1.212044E+03  4.289540E+03  2.742909E+04 -1.198211E+03  1.992078E-09 -3.135141E-10
        30  19  4.528834E+04  4.279537E+03  8.882373E+04 -1.900006E+03  4.473183E+02 -6.406281E+04
        30  20 -1.089979E+04 -5.389359E+03  4.260498E+04 -5.516591E+02  2.908425E+02 -4.166917E+04
        30  21 -1.244316E+03  4.322312E+03  2.742978E+04  1.120962E+03  1.344888E+02 -1.927573E+04
        30  22  4.525782E+04  4.310043E+03  8.882373E+04  2.857874E+02  4.470927E+02 -6.406282E+04
        30  23 -1.090696E+04 -5.382197E+03  4.260498E+04 -3.855903E+01  2.908081E+02 -4.166917E+04
        30  24 -1.228133E+03  4.306124E+03  2.742978E+04 -3.862532E+01  1.345248E+02 -1.927573E+04
        30  25  4.522731E+04  4.340559E+03  8.882373E+04  2.471581E+03  4.468672E+02 -6.406282E+04
        30  26 -1.091412E+04 -5.375035E+03  4.260498E+04  4.745411E+02  2.907736E+02 -4.166917E+04
        30  27 -1.211944E+03  4.289939E+03  2.742978E+04 -1.198213E+03  1.345608E+02 -1.927573E+04
        31   1  6.992776E+03  8.467823E+02  2.260791E+04 -3.009777E+02 -1.028272E+02  1.473268E+04
        31   2 -1.947173E+03 -1.064808E+03  1.336786E+04 -6.464746E+01 -5.505788E+01  7.889001E+03
        31   3  8.692626E+02  8.543508E+02  1.152277E+04  2.269943E+02 -7.295768E+00  1.045447E+03
        31   4  6.987976E+03  8.515812E+02  2.260791E+04  4.282783E+01 -1.028190E+02  1.473268E+04
        31   5 -1.947990E+03 -1.063992E+03  1.336786E+04 -6.169699E+00 -5.505714E+01  7.889001E+03
        31   6  8.724289E+02  8.511843E+02  1.152277E+04  1.482731E-01 -7.296150E+00  1.045447E+03
        31   7  6.983177E+03  8.563804E+02  2.260791E+04  3.866333E+02 -1.028108E+02  1.473268E+04
        31   8 -1.948806E+03 -1.063176E+03  1.336786E+04  5.230806E+01 -5.505639E+01  7.889001E+03
        31   9  8.755955E+02  8.480179E+02  1.152277E+04 -2.266978E+02 -7.296532E+00  1.045447E+03
        31  10  6.992717E+03  8.465492E+02  2.260751E+04 -3.009765E+02 -1.736225E-09 -8.446836E-10
        31  11 -1.947190E+03 -1.064875E+03  1.336775E+04 -6.464711E+01 -4.155883E-10 -2.349736E-10
        31  12  8.692623E+02  8.543496E+02  1.152277E+04  2.269943E+02 -1.627601E-11  3.500382E-10
        31  13  6.987918E+03  8.513482E+02  2.260751E+04  4.282905E+01 -7.508036E-09 -4.763119E-11
        31  14 -1.948006E+03 -1.064059E+03  1.336775E+04 -6.169349E+00 -7.159198E-09 -6.053737E-11
        31  15  8.724286E+02  8.511831E+02  1.152277E+04  1.482793E-01  1.122185E-09 -7.500980E-11
        31  16  6.983119E+03  8.561473E+02  2.260751E+04  3.866346E+02 -2.888628E-09  7.594754E-10
        31  17 -1.948823E+03 -1.063242E+03  1.336775E+04  5.230841E+01 -1.310077E-08  1.215935E-11
        31  18  8.755952E+02  8.480167E+02  1.152277E+04 -2.266978E+02 -1.892558E-09 -3.853618E-10
        31  19  6.992776E+03  8.467823E+02  2.260791E+04 -3.009777E+02  1.028272E+02 -1.473268E+04
        31  20 -1.947173E+03 -1.064808E+03  1.336786E+04 -6.464746E+01  5.505788E+01 -7.889001E+03
        31  21  8.692626E+02  8.543508E+02  1.152277E+04  2.269943E+02  7.295768E+00 -1.045447E+03
        31  22  6.987976E+03  8.515812E+02  2.260791E+04  4.282783E+01  1.028190E+02 -1.473268E+04
        31  23 -1.947990E+03 -1.063992E+03  1.336786E+04 -6.169699E+00  5.505714E+01 -7.889001E+03
        31  24  8.724289E+02  8.511843E+02  1.152277E+04  1.482731E-01  7.296150E+00 -1.045447E+03
        31  25  6.983177E+03  8.563804E+02  2.260791E+04  3.866333E+02  1.028108E+02 -1.473268E+04
        31  26 -1.948806E+03 -1.063176E+03  1.336786E+04  5.230806E+01  5.505639E+01 -7.889001E+03
        31  27  8.755955E+02  8.480179E+02  1.152277E+04 -2.266978E+02  7.296532E+00 -1.045447E+03
        32   1 -9.637451E+06 -3.075304E+06 -1.974453E+06 -3.368175E+06 -9.755638E+05 -3.526604E+05
        32   2 -9.412405E+06 -1.664826E+06 -1.076937E+06 -3.576039E+06 -6.335504E+05 -1.803962E+05
        32   3 -9.753923E+06 -1.660989E+06 -8.309155E+05 -3.425609E+06 -2.769358E+05 -4.629790E+04
        32   4 -8.150901E+06 -2.206563E+06 -1.504200E+06 -2.659351E+06 -9.538671E+05 -3.449496E+05
        32   5 -7.788051E+06 -9.613652E+05 -6.232838E+05 -3.045242E+06 -6.272654E+05 -1.781173E+05
        32   6 -7.987351E+06 -1.117653E+06 -3.802899E+05 -3.073282E+06 -2.860013E+05 -4.968096E+04
        32   7 -6.661953E+06 -1.336610E+06 -1.034160E+06 -1.948668E+06 -9.321102E+05 -3.371883E+05
        32   8 -6.161082E+06 -2.575110E+05 -1.698802E+05 -2.513086E+06 -6.209600E+05 -1.758282E+05
        32   9 -6.217700E+06 -5.743534E+05  7.009750E+04 -2.720150E+06 -2.950946E+05 -5.306992E+04
        32  10 -9.638522E+06 -3.075701E+06 -1.976511E+06 -3.368456E+06  1.199577E-09 -3.265643E-10
        32  11 -9.412850E+06 -1.664972E+06 -1.077767E+06 -3.576132E+06  1.058904E-09 -1.403951E-09
        32  12 -9.754007E+06 -1.661012E+06 -8.310662E+05 -3.425620E+06  5.507312E-09 -5.202027E-10
        32  13 -8.151922E+06 -2.206941E+06 -1.506162E+06 -2.659619E+06 -4.708826E-09 -1.154636E-09
        32  14 -7.788487E+06 -9.615073E+05 -6.240946E+05 -3.045333E+06  4.631481E-09 -1.773320E-09
        32  15 -7.987440E+06 -1.117678E+06 -3.804506E+05 -3.073294E+06 -3.272455E-09  1.084080E-09
        32  16 -6.662925E+06 -1.336970E+06 -1.036029E+06 -1.948923E+06 -5.177163E-09 -1.588824E-09
        32  17 -6.161508E+06 -2.576496E+05 -1.706721E+05 -2.513175E+06  1.181887E-09 -1.407943E-09
        32  18 -6.217795E+06 -5.743802E+05  6.992664E+04 -2.720163E+06 -5.682159E-09  2.903808E-09
        32  19 -9.637451E+06 -3.075304E+06 -1.974453E+06 -3.368175E+06  9.755638E+05  3.526604E+05
        32  20 -9.412405E+06 -1.664826E+06 -1.076937E+06 -3.576039E+06  6.335504E+05  1.803962E+05
        32  21 -9.753923E+06 -1.660989E+06 -8.309155E+05 -3.425609E+06  2.769358E+05  4.629790E+04
        32  22 -8.150901E+06 -2.206563E+06 -1.504200E+06 -2.659351E+06  9.538671E+05  3.449496E+05
        32  23 -7.788051E+06 -9.613652E+05 -6.232838E+05 -3.045242E+06  6.272654E+05  1.781173E+05
        32  24 -7.987351E+06 -1.117653E+06 -3.802899E+05 -3.073282E+06  2.860013E+05  4.968096E+04
        32  25 -6.661953E+06 -1.336610E+06 -1.034160E+06 -1.948668E+06  9.321102E+05  3.371883E+05
        32  26 -6.161082E+06 -2.575110E+05 -1.698802E+05 -2.513086E+06  6.209600E+05  1.758282E+05
        32  27 -6.217700E+06 -5.743534E+05  7.009750E+04 -2.720150E+06  2.950946E+05  5.306992E+04
        33   1 -9.481850E+06 -1.914257E+06 -7.361621E+05 -3.451889E+06 -2.300259E+05 -3.589140E+04
        33   2 -9.391330E+06 -1.682440E+06 -5.458997E+05 -3.415098E+06 -1.517537E+05 -6.184129E+03
        33   3 -9.307822E+06 -1.676775E+06 -4.587769E+05 -3.406361E+06 -7.163641E+04  1.865018E+04
        33   4 -7.927901E+06 -1.290502E+06 -3.102750E+05 -2.994136E+06 -2.293630E+05 -3.566410E+04
        33   5 -7.915108E+06 -1.113676E+06 -1.468272E+05 -3.004145E+06 -1.529567E+05 -6.649231E+03
        33   6 -7.908789E+06 -1.162364E+06 -8.481676E+04 -3.042238E+06 -7.471820E+04  1.748626E+04
        33   7 -6.371584E+06 -6.665241E+05  1.153885E+05 -2.535301E+06 -2.286977E+05 -3.543571E+04
        33   8 -6.436752E+06 -5.447621E+05  2.520491E+05 -2.592286E+06 -1.541625E+05 -7.115415E+03
        33   9 -6.507839E+06 -6.478630E+05  2.889724E+05 -2.677373E+06 -7.780760E+04  1.631969E+04
        33  10 -9.481908E+06 -1.914273E+06 -7.362657E+05 -3.451896E+06  8.149959E-09  1.632153E-09
        33  11 -9.391355E+06 -1.682447E+06 -5.459437E+05 -3.415099E+06  7.717660E-09 -3.235087E-09
        33  12 -9.307828E+06 -1.676777E+06 -4.587873E+05 -3.406360E+06  3.961120E-09 -1.356447E-09
        33  13 -7.927958E+06 -1.290518E+06 -3.103777E+05 -2.994142E+06  9.320568E-11  4.177163E-10
        33  14 -7.915134E+06 -1.113683E+06 -1.468718E+05 -3.004146E+06  1.042708E-08 -3.343300E-09
        33  15 -7.908795E+06 -1.162365E+06 -8.482793E+04 -3.042237E+06 -2.166252E-09 -2.162883E-09
        33  16 -6.371641E+06 -6.665397E+05  1.152867E+05 -2.535308E+06 -7.385497E-09 -1.023871E-09
        33  17 -6.436777E+06 -5.447686E+05  2.520039E+05 -2.592287E+06  4.016382E-09 -4.054814E-09
        33  18 -6.507846E+06 -6.478649E+05  2.889604E+05 -2.677372E+06 -1.288594E-09 -1.233904E-09
        33  19 -9.481850E+06 -1.914257E+06 -7.361621E+05 -3.451889E+06  2.300259E+05  3.589140E+04
        33  20 -9.391330E+06 -1.682440E+06 -5.458997E+05 -3.415098E+06  1.517537E+05  6.184129E+03
        33  21 -9.307822E+06 -1.676775E+06 -4.587769E+05 -3.406361E+06  7.163641E+04 -1.865018E+04
        33  22 -7.927901E+06 -1.290502E+06 -3.102750E+05 -2.994136E+06  2.293630E+05  3.566410E+04
        33  23 -7.915108E+06 -1.113676E+06 -1.468272E+05 -3.004145E+06  1.529567E+05  6.649231E+03
        33  24 -7.908789E+06 -1.162364E+06 -8.481676E+04 -3.042238E+06  7.471820E+04 -1.748626E+04
        33  25 -6.371584E+06 -6.665241E+05  1.153885E+05 -2.535301E+06  2.286977E+05  3.543571E+04
        33  26 -6.436752E+06 -5.447621E+05  2.520491E+05 -2.592286E+06  1.541625E+05  7.115415E+03
        33  27 -6.507839E+06 -6.478630E+05  2.889724E+05 -2.677373E+06  7.780760E+04 -1.631969E+04
        34   1 -9.061812E+06 -1.635342E+06 -3.811204E+05 -3.362033E+06 -5.892812E+04  1.919517E+04
        34   2 -8.951056E+06 -1.504612E+06 -3.061552E+05 -3.262988E+06 -3.887072E+04  2.005506E+04
        34   3 -8.746020E+06 -1.495220E+06 -2.494797E+05 -3.276229E+06 -1.832776E+04  1.957939E+04
        34   4 -7.893583E+06 -1.190168E+06 -6.661220E+04 -3.041697E+06 -6.117356E+04  1.834678E+04
        34   5 -7.939596E+06 -1.121846E+06 -3.411332E+04 -2.988412E+06 -4.164581E+04  1.901223E+04
        34   6 -7.891235E+06 -1.174719E+06 -1.944858E+04 -3.047410E+06 -2.163795E+04  1.834117E+04
        34   7 -6.724019E+06 -7.449084E+05  2.477741E+05 -2.720806E+06 -6.342363E+04  1.749664E+04
        34   8 -6.927136E+06 -7.390193E+05  2.378370E+05 -2.713425E+06 -4.442590E+04  1.796752E+04
        34   9 -7.035738E+06 -8.541790E+05  2.105169E+05 -2.818305E+06 -2.495319E+04  1.710110E+04
        34  10 -9.061815E+06 -1.635343E+06 -3.811277E+05 -3.362032E+06  1.164683E-09  6.526262E-10
        34  11 -8.951058E+06 -1.504613E+06 -3.061588E+05 -3.262987E+06  3.547659E-09  7.514694E-10
        34  12 -8.746021E+06 -1.495220E+06 -2.494810E+05 -3.276228E+06  1.952703E-09 -9.098521E-11
        34  13 -7.893588E+06 -1.190170E+06 -6.661992E+04 -3.041697E+06  4.612382E-10 -2.785000E-10
        34  14 -7.939598E+06 -1.121847E+06 -3.411727E+04 -2.988411E+06 -2.266371E-09 -2.921988E-10
        34  15 -7.891235E+06 -1.174719E+06 -1.945009E+04 -3.047410E+06 -7.500474E-09 -1.213066E-10
        34  16 -6.724023E+06 -7.449098E+05  2.477659E+05 -2.720805E+06 -4.009353E-09 -5.562277E-10
        34  17 -6.927138E+06 -7.390201E+05  2.378327E+05 -2.713425E+06 -3.771683E-09  5.944988E-10
        34  18 -7.035738E+06 -8.541795E+05  2.105152E+05 -2.818305E+06 -4.922261E-09  3.300998E-10
        34  19 -9.061812E+06 -1.635342E+06 -3.811204E+05 -3.362033E+06  5.892812E+04 -1.919517E+04
        34  20 -8.951056E+06 -1.504612E+06 -3.061552E+05 -3.262988E+06  3.887072E+04 -2.005506E+04
        34  21 -8.746020E+06 -1.495220E+06 -2.494797E+05 -3.276229E+06  1.832776E+04 -1.957939E+04
        34  22 -7.893583E+06 -1.190168E+06 -6.661220E+04 -3.041697E+06  6.117356E+04 -1.834678E+04
        34  23 -7.939596E+06 -1.121846E+06 -3.411332E+04 -2.988412E+06  4.164581E+04 -1.901223E+04
        34  24 -7.891235E+06 -1.174719E+06 -1.944858E+04 -3.047410E+06  2.163795E+04 -1.834117E+04
        34  25 -6.724019E+06 -7.449084E+05  2.477741E+05 -2.720806E+06  6.342363E+04 -1.749664E+04
        34  26 -6.927136E+06 -7.390193E+05  2.378370E+05 -2.713425E+06  4.442590E+04 -1.796752E+04
        34  27 -7.035738E+06 -8.541790E+05  2.105169E+05 -2.818305E+06  2.495319E+04 -1.710110E+04
        35   1 -8.437389E+06 -1.389989E+06 -1.628920E+05 -3.201149E+06 -1.385831E+04  1.605387E+04
        35   2 -8.304842E+06 -1.252527E+06 -1.051374E+05 -3.077486E+06 -6.222282E+03  9.895820E+03
        35   3 -8.049653E+06 -1.241730E+06 -5.157892E+04 -3.096452E+06  1.551608E+03  3.349326E+03
        35   4 -7.885676E+06 -1.181895E+06 -1.531029E+04 -3.051872E+06 -1.711866E+04  1.483675E+04
        35   5 -7.946842E+06 -1.117665E+06 -9.003391E+03 -2.980885E+06 -9.642720E+03  8.620702E+03
        35   6 -7.885380E+06 -1.180065E+06 -6.759860E+03 -3.052536E+06 -2.030662E+03  2.015872E+03
        35   7 -7.333662E+06 -9.737821E+05  1.322452E+05 -2.902472E+06 -2.038224E+04  1.361842E+04
        35   8 -7.588718E+06 -9.827961E+05  8.711910E+04 -2.884232E+06 -1.306534E+04  7.344769E+03
        35   9 -7.721081E+06 -1.118400E+06  3.805648E+04 -3.008609E+06 -5.613963E+03  6.820390E+02
        35  10 -8.437389E+06 -1.389990E+06 -1.628929E+05 -3.201148E+06 -7.855650E-10 -2.059421E-09
        35  11 -8.304842E+06 -1.252527E+06 -1.051376E+05 -3.077486E+06  4.649416E-10 -1.796707E-10
        35  12 -8.049653E+06 -1.241730E+06 -5.157895E+04 -3.096452E+06  1.256106E-09  2.298313E-09
        35  13 -7.885676E+06 -1.181896E+06 -1.531126E+04 -3.051871E+06 -8.785701E-09  2.934974E-10
        35  14 -7.946843E+06 -1.117665E+06 -9.003706E+03 -2.980884E+06 -3.812085E-09  1.773620E-11
        35  15 -7.885380E+06 -1.180065E+06 -6.759875E+03 -3.052536E+06  1.467638E-10  1.224828E-09
        35  16 -7.333663E+06 -9.737824E+05  1.322441E+05 -2.902472E+06 -4.485234E-09  6.326167E-10
        35  17 -7.588718E+06 -9.827962E+05  8.711867E+04 -2.884232E+06 -1.720050E-09  8.499963E-10
        35  18 -7.721081E+06 -1.118400E+06  3.805642E+04 -3.008609E+06 -1.401438E-09  1.699098E-11
        35  19 -8.437389E+06 -1.389989E+06 -1.628920E+05 -3.201149E+06  1.385831E+04 -1.605387E+04
        35  20 -8.304842E+06 -1.252527E+06 -1.051374E+05 -3.077486E+06  6.222282E+03 -9.895820E+03
        35  21 -8.049653E+06 -1.241730E+06 -5.157892E+04 -3.096452E+06 -1.551608E+03 -3.349326E+03
        35  22 -7.885676E+06 -1.181895E+06 -1.531029E+04 -3.051872E+06  1.711866E+04 -1.483675E+04
        35  23 -7.946842E+06 -1.117665E+06 -9.003391E+03 -2.980885E+06  9.642720E+03 -8.620702E+03
        35  24 -7.885380E+06 -1.180065E+06 -6.759860E+03 -3.052536E+06  2.030662E+03 -2.015872E+03
        35  25 -7.333662E+06 -9.737821E+05  1.322452E+05 -2.902472E+06  2.038224E+04 -1.361842E+04
        35  26 -7.588718E+06 -9.827961E+05  8.711910E+04 -2.884232E+06  1.306534E+04 -7.344769E+03
        35  27 -7.721081E+06 -1.118400E+06  3.805648E+04 -3.008609E+06  5.613963E+03 -6.820390E+02
        36   1 -7.717648E+06 -1.117101E+06  3.920416E+04 -3.007594E+06  4.486946E+03 -1.218227E+03
        36   2 -7.585377E+06 -9.815850E+05  8.930009E+04 -2.883316E+06  1.129462E+04 -8.120741E+03
        36   3 -7.330193E+06 -9.721921E+05  1.360601E+05 -2.901697E+06  1.796483E+04 -1.462639E+04
        36   4 -7.885351E+06 -1.180101E+06 -6.536496E+03 -3.052493E+06  9.023939E+02 -2.552527E+03
        36   5 -7.946892E+06 -1.117739E+06 -7.733670E+03 -2.980892E+06  7.874440E+03 -9.395782E+03
        36   6 -7.885584E+06 -1.181541E+06 -1.239632E+04 -3.051971E+06  1.470764E+04 -1.584240E+04
        36   7 -8.053028E+06 -1.243100E+06 -5.227980E+04 -3.097382E+06 -2.681092E+03 -3.886433E+03
        36   8 -8.308281E+06 -1.253886E+06 -1.047795E+05 -3.078417E+06  4.456448E+03 -1.067001E+04
        36   9 -8.440678E+06 -1.390874E+06 -1.608812E+05 -3.202122E+06  1.145367E+04 -1.705721E+04
        36  10 -7.717648E+06 -1.117101E+06  3.920412E+04 -3.007594E+06  1.916499E-09  2.203400E-09
        36  11 -7.585377E+06 -9.815851E+05  8.929973E+04 -2.883316E+06 -4.182775E-09  1.109463E-09
        36  12 -7.330193E+06 -9.721924E+05  1.360591E+05 -2.901697E+06 -3.741861E-09 -6.525726E-10
        36  13 -7.885351E+06 -1.180101E+06 -6.536510E+03 -3.052493E+06  2.588770E-09  1.350685E-09
        36  14 -7.946892E+06 -1.117739E+06 -7.733952E+03 -2.980892E+06  7.969207E-10  5.006922E-10
        36  15 -7.885584E+06 -1.181541E+06 -1.239720E+04 -3.051970E+06 -4.794857E-09  1.099281E-10
        36  16 -8.053028E+06 -1.243100E+06 -5.227985E+04 -3.097382E+06  9.874330E-10 -9.355525E-11
        36  17 -8.308281E+06 -1.253886E+06 -1.047798E+05 -3.078417E+06 -3.897513E-09  1.817167E-09
        36  18 -8.440678E+06 -1.390874E+06 -1.608820E+05 -3.202122E+06  3.844719E-09  8.851587E-10
        36  19 -7.717648E+06 -1.117101E+06  3.920416E+04 -3.007594E+06 -4.486946E+03  1.218227E+03
        36  20 -7.585377E+06 -9.815850E+05  8.930009E+04 -2.883316E+06 -1.129462E+04  8.120741E+03
        36  21 -7.330193E+06 -9.721921E+05  1.360601E+05 -2.901697E+06 -1.796483E+04  1.462639E+04
        36  22 -7.885351E+06 -1.180101E+06 -6.536496E+03 -3.052493E+06 -9.023939E+02  2.552527E+03
        36  23 -7.946892E+06 -1.117739E+06 -7.733670E+03 -2.980892E+06 -7.874440E+03  9.395782E+03
        36  24 -7.885584E+06 -1.181541E+06 -1.239632E+04 -3.051971E+06 -1.470764E+04  1.584240E+04
        36  25 -8.053028E+06 -1.243100E+06 -5.227980E+04 -3.097382E+06  2.681092E+03  3.886433E+03
        36  26 -8.308281E+06 -1.253886E+06 -1.047795E+05 -3.078417E+06 -4.456448E+03  1.067001E+04
        36  27 -8.440678E+06 -1.390874E+06 -1.608812E+05 -3.202122E+06 -1.145367E+04  1.705721E+04
        37   1 -7.033067E+06 -8.529166E+05  2.151580E+05 -2.817006E+06  2.197616E+04 -1.830993E+04
        37   2 -6.924984E+06 -7.387906E+05  2.456377E+05 -2.712836E+06  3.780915E+04 -2.052701E+04
        37   3 -6.720575E+06 -7.414502E+05  2.625634E+05 -2.721720E+06  5.316806E+04 -2.141355E+04
        37   4 -7.890973E+06 -1.174790E+06 -1.553459E+04 -3.047203E+06  1.866875E+04 -1.954719E+04
        37   5 -7.940005E+06 -1.122468E+06 -2.697659E+04 -2.988397E+06  3.504016E+04 -2.156760E+04
        37   6 -7.892847E+06 -1.187070E+06 -5.241985E+04 -3.042666E+06  5.093342E+04 -2.225782E+04
        37   7 -8.748154E+06 -1.496621E+06 -2.462910E+05 -3.277109E+06  1.536643E+04 -2.078257E+04
        37   8 -8.954015E+06 -1.506083E+06 -2.996813E+05 -3.263544E+06  3.227618E+04 -2.260631E+04
        37   9 -9.063775E+06 -1.632603E+06 -3.675251E+05 -3.363054E+06  4.870342E+04 -2.310034E+04
        37  10 -7.033068E+06 -8.529171E+05  2.151565E+05 -2.817005E+06 -5.420072E-09 -9.655939E-10
        37  11 -6.924986E+06 -7.387914E+05  2.456342E+05 -2.712835E+06 -2.195829E-09 -1.592702E-09
        37  12 -6.720578E+06 -7.414514E+05  2.625572E+05 -2.721720E+06  1.288328E-09  6.497946E-10
        37  13 -7.890973E+06 -1.174791E+06 -1.553596E+04 -3.047203E+06 -2.448872E-09 -9.699746E-10
        37  14 -7.940006E+06 -1.122469E+06 -2.697978E+04 -2.988396E+06 -6.983008E-09 -2.120218E-09
        37  15 -7.892850E+06 -1.187071E+06 -5.242568E+04 -3.042665E+06  3.074080E-09 -7.917471E-10
        37  16 -8.748155E+06 -1.496622E+06 -2.462922E+05 -3.277109E+06  4.051206E-09  1.014435E-09
        37  17 -8.954016E+06 -1.506084E+06 -2.996842E+05 -3.263543E+06 -4.490942E-09 -4.507497E-10
        37  18 -9.063778E+06 -1.632605E+06 -3.675306E+05 -3.363053E+06  1.900873E-09 -2.690525E-09
        37  19 -7.033067E+06 -8.529166E+05  2.151580E+05 -2.817006E+06 -2.197616E+04  1.830993E+04
        37  20 -6.924984E+06 -7.387906E+05  2.456377E+05 -2.712836E+06 -3.780915E+04  2.052701E+04
        37  21 -6.720575E+06 -7.414502E+05  2.625634E+05 -2.721720E+06 -5.316806E+04  2.141355E+04
        37  22 -7.890973E+06 -1.174790E+06 -1.553459E+04 -3.047203E+06 -1.866875E+04  1.954719E+04
        37  23 -7.940005E+06 -1.122468E+06 -2.697659E+04 -2.988397E+06 -3.504016E+04  2.156760E+04
        37  24 -7.892847E+06 -1.187070E+06 -5.241985E+04 -3.042666E+06 -5.093342E+04  2.225782E+04
        37  25 -8.748154E+06 -1.496621E+06 -2.462910E+05 -3.277109E+06 -1.536643E+04  2.078257E+04
        37  26 -8.954015E+06 -1.506083E+06 -2.996813E+05 -3.263544E+06 -3.227618E+04  2.260631E+04
        37  27 -9.063775E+06 -1.632603E+06 -3.675251E+05 -3.363054E+06 -4.870342E+04  2.310034E+04
        38   1 -6.506348E+06 -6.455699E+05  3.076041E+05 -2.672659E+06  6.494662E+04 -2.121429E+04
        38   2 -6.437448E+06 -5.503911E+05  2.837979E+05 -2.592767E+06  1.249272E+05 -3.957421E+03
        38   3 -6.359339E+06 -6.445633E+05  1.821487E+05 -2.549463E+06  1.831016E+05  1.814951E+04
        38   4 -7.906660E+06 -1.163208E+06 -6.666775E+04 -3.040820E+06  6.187883E+04 -2.237357E+04
        38   5 -7.918527E+06 -1.118625E+06 -1.154725E+05 -3.003614E+06  1.237674E+05 -4.405433E+03
        38   6 -7.921707E+06 -1.263995E+06 -2.437991E+05 -3.002989E+06  1.838390E+05  1.841049E+04
        38   7 -9.305064E+06 -1.680754E+06 -4.411130E+05 -3.408231E+06  5.881860E+04 -2.353016E+04
        38   8 -9.397465E+06 -1.686712E+06 -5.149400E+05 -3.413559E+06  1.226103E+05 -4.852385E+03
        38   9 -9.481686E+06 -1.883217E+06 -6.699699E+05 -3.455447E+06  1.845739E+05  1.867037E+04
        38  10 -6.506352E+06 -6.455715E+05  3.075952E+05 -2.672657E+06 -5.520805E-09  1.000666E-09
        38  11 -6.437464E+06 -5.503953E+05  2.837683E+05 -2.592766E+06 -8.879820E-09  8.391593E-10
        38  12 -6.359375E+06 -6.445728E+05  1.820844E+05 -2.549466E+06  9.758885E-11  1.080876E-09
        38  13 -7.906665E+06 -1.163210E+06 -6.667594E+04 -3.040819E+06  2.534498E-09 -1.355435E-09
        38  14 -7.918543E+06 -1.118629E+06 -1.155016E+05 -3.003614E+06  2.307904E-11 -2.395948E-10
        38  15 -7.921743E+06 -1.264004E+06 -2.438641E+05 -3.002992E+06  2.156037E-09 -1.343420E-09
        38  16 -9.305068E+06 -1.680755E+06 -4.411206E+05 -3.408230E+06  5.395360E-09 -3.791436E-09
        38  17 -9.397481E+06 -1.686716E+06 -5.149687E+05 -3.413559E+06  1.906696E-09 -1.198536E-09
        38  18 -9.481723E+06 -1.883226E+06 -6.700357E+05 -3.455450E+06 -3.927131E-09 -5.224109E-10
        38  19 -6.506348E+06 -6.455699E+05  3.076041E+05 -2.672659E+06 -6.494662E+04  2.121429E+04
        38  20 -6.437448E+06 -5.503911E+05  2.837979E+05 -2.592767E+06 -1.249272E+05  3.957421E+03
        38  21 -6.359339E+06 -6.445633E+05  1.821487E+05 -2.549463E+06 -1.831016E+05 -1.814951E+04
        38  22 -7.906660E+06 -1.163208E+06 -6.666775E+04 -3.040820E+06 -6.187883E+04  2.237357E+04
        38  23 -7.918527E+06 -1.118625E+06 -1.154725E+05 -3.003614E+06 -1.237674E+05  4.405433E+03
        38  24 -7.921707E+06 -1.263995E+06 -2.437991E+05 -3.002989E+06 -1.838390E+05 -1.841049E+04
        38  25 -9.305064E+06 -1.680754E+06 -4.411130E+05 -3.408231E+06 -5.881860E+04  2.353016E+04
        38  26 -9.397465E+06 -1.686712E+06 -5.149400E+05 -3.413559E+06 -1.226103E+05  4.852385E+03
        38  27 -9.481686E+06 -1.883217E+06 -6.699699E+05 -3.455447E+06 -1.845739E+05 -1.867037E+04
        39   1 -6.221313E+06 -5.620657E+05  1.515999E+05 -2.686261E+06  2.378614E+05  3.138567E+04
        39   2 -6.175750E+06 -3.110981E+05 -3.654618E+04 -2.521704E+06  4.906698E+05  1.261823E+05
        39   3 -6.564744E+06 -1.157606E+06 -7.122956E+05 -2.078061E+06  7.288874E+05  2.592404E+05
        39   4 -7.970874E+06 -1.125692E+06 -2.988107E+05 -3.062325E+06  2.288813E+05  2.801189E+04
        39   5 -7.815714E+06 -1.002169E+06 -4.899847E+05 -3.039470E+06  4.971595E+05  1.285805E+05
        39   6 -8.099416E+06 -1.981132E+06 -1.182165E+06 -2.737165E+06  7.508668E+05  2.673027E+05
        39   7 -9.717438E+06 -1.689322E+06 -7.494642E+05 -3.437510E+06  2.199286E+05  2.464484E+04
        39   8 -9.453023E+06 -1.692893E+06 -9.436724E+05 -3.555917E+06  5.036284E+05  1.309689E+05
        39   9 -9.631628E+06 -2.803721E+06 -1.652264E+06 -3.394538E+06  7.727835E+05  2.753194E+05
        39  10 -6.221374E+06 -5.620822E+05  1.514905E+05 -2.686267E+06 -5.865464E-10 -1.038839E-10
        39  11 -6.176014E+06 -3.111809E+05 -3.703416E+04 -2.521755E+06 -3.890892E-09 -4.929014E-10
        39  12 -6.565338E+06 -1.157824E+06 -7.134335E+05 -2.078214E+06  1.088373E-09 -1.477213E-09
        39  13 -7.970931E+06 -1.125708E+06 -2.989120E+05 -3.062330E+06 -2.284188E-09  2.076099E-10
        39  14 -7.815987E+06 -1.002254E+06 -4.904875E+05 -3.039522E+06 -1.937717E-09  3.559792E-09
        39  15 -8.100048E+06 -1.981364E+06 -1.183377E+06 -2.737328E+06  2.391259E-09  1.233471E-09
        39  16 -9.717491E+06 -1.689336E+06 -7.495578E+05 -3.437515E+06 -7.401215E-10  2.983615E-10
        39  17 -9.453303E+06 -1.692981E+06 -9.441902E+05 -3.555971E+06 -3.462146E-09  3.884969E-09
        39  18 -9.632299E+06 -2.803967E+06 -1.653551E+06 -3.394711E+06  3.491274E-09  7.267617E-10
        39  19 -6.221313E+06 -5.620657E+05  1.515999E+05 -2.686261E+06 -2.378614E+05 -3.138567E+04
        39  20 -6.175750E+06 -3.110981E+05 -3.654618E+04 -2.521704E+06 -4.906698E+05 -1.261823E+05
        39  21 -6.564744E+06 -1.157606E+06 -7.122956E+05 -2.078061E+06 -7.288874E+05 -2.592404E+05
        39  22 -7.970874E+06 -1.125692E+06 -2.988107E+05 -3.062325E+06 -2.288813E+05 -2.801189E+04
        39  23 -7.815714E+06 -1.002169E+06 -4.899847E+05 -3.039470E+06 -4.971595E+05 -1.285805E+05
        39  24 -8.099416E+06 -1.981132E+06 -1.182165E+06 -2.737165E+06 -7.508668E+05 -2.673027E+05
        39  25 -9.717438E+06 -1.689322E+06 -7.494642E+05 -3.437510E+06 -2.199286E+05 -2.464484E+04
        39  26 -9.453023E+06 -1.692893E+06 -9.436724E+05 -3.555917E+06 -5.036284E+05 -1.309689E+05
        39  27 -9.631628E+06 -2.803721E+06 -1.652264E+06 -3.394538E+06 -7.727835E+05 -2.753194E+05
        40   1  3.672216E+05  5.111081E+04  4.146094E+05 -2.463510E+05 -2.040666E+03  2.616490E+05
        40   2  5.492340E+04 -3.033235E+04  2.062147E+05 -1.218869E+05 -2.255537E+03  1.529803E+05
        40   3 -1.222651E+04 -3.652297E+04  1.298432E+05 -8.391787E+03 -3.906176E+03  4.430578E+04
        40   4  3.534050E+05  1.131211E+04  4.038633E+05 -3.739729E+04 -1.956496E+03  2.621726E+05
        40   5  5.414272E+04 -2.614279E+04  2.059089E+05 -3.320277E+04 -2.251862E+03  1.554840E+05
        40   6 -3.658171E+02  1.128922E+04  1.386032E+05 -3.995660E+04 -3.940927E+03  4.878236E+04
        40   7  3.397523E+05 -2.839159E+04  3.931406E+05  1.715426E+05 -1.871969E+03  2.626961E+05
        40   8  5.339162E+04 -2.193629E+04  2.056072E+05  5.548193E+04 -2.247472E+03  1.579877E+05
        40   9  1.149847E+04  5.910578E+04  1.473637E+05 -7.152393E+04 -3.976133E+03  5.325927E+04
        40  10  3.672032E+05  5.103733E+04  4.144807E+05 -2.463506E+05  3.636334E-09  1.316782E-08
        40  11  5.491712E+04 -3.035748E+04  2.061707E+05 -1.218866E+05  3.525949E-09 -6.637742E-09
        40  12 -1.222705E+04 -3.652508E+04  1.298394E+05 -8.391648E+03 -1.294296E-09 -1.747868E-08
        40  13  3.533866E+05  1.123832E+04  4.037342E+05 -3.739688E+04 -6.439492E-09 -3.964511E-09
        40  14  5.413623E+04 -2.616874E+04  2.058634E+05 -3.320249E+04 -9.713912E-10 -9.630980E-11
        40  15 -3.664725E+02  1.128666E+04  1.385987E+05 -3.995645E+04 -6.884519E-09 -1.014482E-09
        40  16  3.397338E+05 -2.846568E+04  3.930109E+05  1.715430E+05 -1.573965E-09 -1.495161E-08
        40  17  5.338491E+04 -2.196308E+04  2.055603E+05  5.548222E+04  3.054587E-10  2.643067E-09
        40  18  1.149770E+04  5.910273E+04  1.473584E+05 -7.152376E+04  2.131531E-09  1.751652E-08
        40  19  3.672216E+05  5.111081E+04  4.146094E+05 -2.463510E+05  2.040666E+03 -2.616490E+05
        40  20  5.492340E+04 -3.033235E+04  2.062147E+05 -1.218869E+05  2.255537E+03 -1.529803E+05
        40  21 -1.222651E+04 -3.652297E+04  1.298432E+05 -8.391787E+03  3.906176E+03 -4.430578E+04
        40  22  3.534050E+05  1.131211E+04  4.038633E+05 -3.739729E+04  1.956496E+03 -2.621726E+05
        40  23  5.414272E+04 -2.614279E+04  2.059089E+05 -3.320277E+04  2.251862E+03 -1.554840E+05
        40  24 -3.658171E+02  1.128922E+04  1.386032E+05 -3.995660E+04  3.940927E+03 -4.878236E+04
        40  25  3.397523E+05 -2.839159E+04  3.931406E+05  1.715426E+05  1.871969E+03 -2.626961E+05
        40  26  5.339162E+04 -2.193629E+04  2.056072E+05  5.548193E+04  2.247472E+03 -1.579877E+05
        40  27  1.149847E+04  5.910578E+04  1.473637E+05 -7.152393E+04  3.976133E+03 -5.325927E+04
        41   1 -5.635734E+03 -8.137546E+04  1.110562E+05 -4.888724E+04 -5.641208E+03  2.370517E+04
        41   2 -2.618983E+04 -1.343693E+05  1.006798E+05 -3.239651E+04 -8.026090E+03 -3.766120E+04
        41   3 -1.680488E+04 -1.720933E+05  1.377088E+05 -2.802679E+04 -9.988711E+03 -9.902145E+04
        41   4  1.304715E+04 -1.937719E+03  1.258406E+05 -3.977555E+04 -5.672083E+03  2.801572E+04
        41   5  3.486613E+03 -9.622122E+03  1.242201E+05 -3.367582E+04 -8.052661E+03 -3.396129E+04
        41   6  2.396695E+04 -1.936791E+03  1.704230E+05 -3.969605E+04 -1.000899E+04 -9.593647E+04
        41   7  3.173001E+04  7.750637E+04  1.406249E+05 -3.066265E+04 -5.702828E+03  3.232681E+04
        41   8  3.316216E+04  1.151401E+05  1.477598E+05 -3.495538E+04 -8.079245E+03 -3.026065E+04
        41   9  6.473755E+04  1.682479E+05  2.031360E+05 -5.136855E+04 -1.002938E+04 -9.285066E+04
        41  10 -5.635919E+03 -8.137607E+04  1.110551E+05 -4.888713E+04  5.453620E-10  2.215696E-08
        41  11 -2.619028E+04 -1.343708E+05  1.006770E+05 -3.239675E+04  6.383892E-09 -3.287352E-10
        41  12 -1.680762E+04 -1.721039E+05  1.376901E+05 -2.802758E+04  8.913473E-10 -1.394058E-08
        41  13  1.304691E+04 -1.938570E+03  1.258391E+05 -3.977542E+04 -5.982966E-09 -3.941505E-09
        41  14  3.486234E+03 -9.623378E+03  1.242178E+05 -3.367604E+04 -6.913516E-10 -2.311212E-10
        41  15  2.396437E+04 -1.946699E+03  1.704055E+05 -3.969683E+04  8.393411E-09 -1.147298E-09
        41  16  3.172970E+04  7.750524E+04  1.406229E+05 -3.066250E+04 -7.506065E-10 -2.411787E-08
        41  17  3.316185E+04  1.151391E+05  1.477579E+05 -3.495557E+04 -1.925426E-09 -3.486205E-09
        41  18  6.473513E+04  1.682386E+05  2.031196E+05 -5.136930E+04 -7.879970E-10  1.403964E-08
        41  19 -5.635734E+03 -8.137546E+04  1.110562E+05 -4.888724E+04  5.641208E+03 -2.370517E+04
        41  20 -2.618983E+04 -1.343693E+05  1.006798E+05 -3.239651E+04  8.026090E+03  3.766120E+04
        41  21 -1.680488E+04 -1.720933E+05  1.377088E+05 -2.802679E+04  9.988711E+03  9.902145E+04
        41  22  1.304715E+04 -1.937719E+03  1.258406E+05 -3.977555E+04  5.672083E+03 -2.801572E+04
        41  23  3.486613E+03 -9.622122E+03  1.242201E+05 -3.367582E+04  8.052661E+03  3.396129E+04
        41  24  2.396695E+04 -1.936791E+03  1.704230E+05 -3.969605E+04  1.000899E+04  9.593647E+04
        41  25  3.173001E+04  7.750637E+04  1.406249E+05 -3.066265E+04  5.702828E+03 -3.232681E+04
        41  26  3.316216E+04  1.151401E+05  1.477598E+05 -3.495538E+04  8.079245E+03  3.026065E+04
        41  27  6.473755E+04  1.682479E+05  2.031360E+05 -5.136855E+04  1.002938E+04  9.285066E+04
        42   1 -4.864286E+04 -1.783878E+05  1.686963E+05 -9.690078E+04 -1.161441E+04 -1.291751E+05
        42   2  3.486327E+04 -2.859842E+05  2.979185E+05  1.243230E+05 -9.880971E+03 -2.993647E+05
        42   3  5.514678E+05 -2.631913E+05  6.463273E+05  3.358937E+05 -7.466584E+02 -4.694819E+05
        42   4 -1.390922E+03  2.400227E+04  2.075127E+05 -3.997006E+04 -1.165802E+04 -1.247375E+05
        42   5  9.640901E+04 -4.201925E+04  3.484650E+05 -3.288907E+04 -9.760783E+03 -3.056280E+05
        42   6  6.288964E+05  2.404546E+04  7.159593E+05 -3.548384E+04 -3.465560E+02 -4.864612E+05
        42   7  4.587101E+04  2.264390E+05  2.463291E+05  1.697969E+04 -1.170081E+04 -1.202986E+05
        42   8  1.580432E+05  2.020547E+05  3.990214E+05 -1.901643E+05 -9.637456E+03 -3.118938E+05
        42   9  7.068359E+05  3.116528E+05  7.856599E+05 -4.070356E+05  7.372796E+01 -5.034484E+05
        42  10 -4.864749E+04 -1.784058E+05  1.686647E+05 -9.690198E+04  3.097260E-10 -2.581366E-08
        42  11  3.483910E+04 -2.860805E+05  2.977498E+05  1.243206E+05 -3.152829E-09 -6.029332E-09
        42  12  5.514086E+05 -2.634279E+05  6.459129E+05  3.358934E+05  2.226770E-09  2.277209E-08
        42  13 -1.395244E+03  2.398553E+04  2.074832E+05 -3.997123E+04 -2.390036E-09 -4.289099E-09
        42  14  9.638384E+04 -4.211955E+04  3.482893E+05 -3.289147E+04  4.119445E-09 -1.804693E-10
        42  15  6.288329E+05  2.379149E+04  7.155146E+05 -3.548398E+04  4.974825E-09 -1.109858E-09
        42  16  4.586698E+04  2.264234E+05  2.463016E+05  1.697855E+04  2.104027E-09  2.371421E-08
        42  17  1.580170E+05  2.019503E+05  3.988385E+05 -1.901667E+05  5.577786E-09  2.236764E-09
        42  18  7.067679E+05  3.113808E+05  7.851838E+05 -4.070356E+05  3.093618E-09 -2.278827E-08
        42  19 -4.864286E+04 -1.783878E+05  1.686963E+05 -9.690078E+04  1.161441E+04  1.291751E+05
        42  20  3.486327E+04 -2.859842E+05  2.979185E+05  1.243230E+05  9.880971E+03  2.993647E+05
        42  21  5.514678E+05 -2.631913E+05  6.463273E+05  3.358937E+05  7.466584E+02  4.694819E+05
        42  22 -1.390922E+03  2.400227E+04  2.075127E+05 -3.997006E+04  1.165802E+04  1.247375E+05
        42  23  9.640901E+04 -4.201925E+04  3.484650E+05 -3.288907E+04  9.760783E+03  3.056280E+05
        42  24  6.288964E+05  2.404546E+04  7.159593E+05 -3.548384E+04  3.465560E+02  4.864612E+05
        42  25  4.587101E+04  2.264390E+05  2.463291E+05  1.697969E+04  1.170081E+04  1.202986E+05
        42  26  1.580432E+05  2.020547E+05  3.990214E+05 -1.901643E+05  9.637456E+03  3.118938E+05
        42  27  7.068359E+05  3.116528E+05  7.856599E+05 -4.070356E+05 -7.372796E+01  5.034484E+05
        43   1 -7.198235E+06 -2.185955E+06 -1.376063E+06 -2.455302E+06 -5.798701E+05 -2.044426E+05
        43   2 -7.042699E+06 -1.351943E+06 -8.409589E+05 -2.588850E+06 -3.802989E+05 -9.284861E+04
        43   3 -7.214777E+06 -1.383611E+06 -6.966845E+05 -2.514085E+06 -1.676450E+05 -1.548257E+04
        43   4 -5.531654E+06 -1.404384E+06 -8.867415E+05 -1.852658E+06 -5.650139E+05 -1.989259E+05
        43   5 -5.322279E+06 -6.571593E+05 -3.656479E+05 -2.077106E+06 -3.763612E+05 -9.138834E+04
        43   6 -5.437443E+06 -7.720131E+05 -2.258311E+05 -2.093506E+06 -1.746263E+05 -1.811537E+04
        43   7 -3.862327E+06 -6.222142E+05 -3.977002E+05 -1.248396E+06 -5.501115E+05 -1.933825E+05
        43   8 -3.598977E+06  3.790525E+04  1.093856E+05 -1.564031E+06 -3.724100E+05 -8.992223E+04
        43   9 -3.657042E+06 -1.603619E+05  2.447538E+05 -1.671891E+06 -1.816293E+05 -2.075455E+04
        43  10 -7.198611E+06 -2.186092E+06 -1.376783E+06 -2.455399E+06 -1.732420E-10 -1.106247E-09
        43  11 -7.042859E+06 -1.351992E+06 -8.412506E+05 -2.588879E+06  3.057296E-09  6.814768E-10
        43  12 -7.214807E+06 -1.383619E+06 -6.967384E+05 -2.514087E+06 -1.876803E-09  9.284117E-10
        43  13 -5.532010E+06 -1.404514E+06 -8.874225E+05 -1.852749E+06 -1.270892E-10 -3.410398E-09
        43  14 -5.322434E+06 -6.572068E+05 -3.659326E+05 -2.077134E+06 -2.513365E-09 -1.711990E-09
        43  15 -5.437476E+06 -7.720217E+05 -2.258896E+05 -2.093509E+06  4.290840E-09 -8.408307E-10
        43  16 -3.862663E+06 -6.223365E+05 -3.983436E+05 -1.248482E+06 -2.172252E-09  7.590600E-10
        43  17 -3.599129E+06  3.785896E+04  1.091079E+05 -1.564058E+06  1.203567E-09 -3.066686E-09
        43  18 -3.657078E+06 -1.603713E+05  2.446906E+05 -1.671894E+06  6.884366E-10 -3.563766E-10
        43  19 -7.198235E+06 -2.185955E+06 -1.376063E+06 -2.455302E+06  5.798701E+05  2.044426E+05
        43  20 -7.042699E+06 -1.351943E+06 -8.409589E+05 -2.588850E+06  3.802989E+05  9.284861E+04
        43  21 -7.214777E+06 -1.383611E+06 -6.966845E+05 -2.514085E+06  1.676450E+05  1.548257E+04
        43  22 -5.531654E+06 -1.404384E+06 -8.867415E+05 -1.852658E+06  5.650139E+05  1.989259E+05
        43  23 -5.322279E+06 -6.571593E+05 -3.656479E+05 -2.077106E+06  3.763612E+05  9.138834E+04
        43  24 -5.437443E+06 -7.720131E+05 -2.258311E+05 -2.093506E+06  1.746263E+05  1.811537E+04
        43  25 -3.862327E+06 -6.222142E+05 -3.977002E+05 -1.248396E+06  5.501115E+05  1.933825E+05
        43  26 -3.598977E+06  3.790525E+04  1.093856E+05 -1.564031E+06  3.724100E+05  8.992223E+04
        43  27 -3.657042E+06 -1.603619E+05  2.447538E+05 -1.671891E+06  1.816293E+05  2.075455E+04
        44   1 -6.973998E+06 -1.502064E+06 -6.184891E+05 -2.501727E+06 -1.402014E+05 -1.201457E+04
        44   2 -6.900064E+06 -1.318569E+06 -4.925522E+05 -2.448876E+06 -9.346487E+04  6.205263E+03
        44   3 -6.789276E+06 -1.324117E+06 -4.307844E+05 -2.456072E+06 -4.473171E+04  1.910296E+04
        44   4 -5.395430E+06 -8.851280E+05 -1.851561E+05 -2.053209E+06 -1.393802E+05 -1.171667E+04
        44   5 -5.407996E+06 -7.492491E+05 -8.635042E+04 -2.038800E+06 -9.430580E+04  5.881337E+03
        44   6 -5.383273E+06 -8.018914E+05 -5.025393E+04 -2.084453E+06 -4.724445E+04  1.815790E+04
        44   7 -3.814436E+06 -2.680029E+05  2.479483E+05 -1.603634E+06 -1.385563E+05 -1.141767E+04
        44   8 -3.913764E+06 -1.797894E+05  3.196500E+05 -1.627821E+06 -9.514876E+04  5.556649E+03
        44   9 -3.975354E+06 -2.795697E+05  3.300996E+05 -1.712074E+06 -4.976344E+04  1.721059E+04
        44  10 -6.974019E+06 -1.502069E+06 -6.185267E+05 -2.501729E+06 -1.074422E-09 -5.164383E-10
        44  11 -6.900073E+06 -1.318571E+06 -4.925689E+05 -2.448875E+06 -1.023439E-09 -3.973312E-10
        44  12 -6.789279E+06 -1.324118E+06 -4.307889E+05 -2.456072E+06 -2.293677E-09 -2.414343E-09
        44  13 -5.395451E+06 -8.851335E+05 -1.851932E+05 -2.053210E+06  2.451191E-09  4.956459E-10
        44  14 -5.408005E+06 -7.492515E+05 -8.636733E+04 -2.038799E+06  1.952468E-09  4.526186E-10
        44  15 -5.383276E+06 -8.018923E+05 -5.025876E+04 -2.084452E+06 -1.955019E-09 -1.768666E-09
        44  16 -3.814457E+06 -2.680082E+05  2.479118E+05 -1.603636E+06  3.810550E-10  7.912781E-10
        44  17 -3.913774E+06 -1.797919E+05  3.196328E+05 -1.627821E+06  9.060047E-11  9.922124E-10
        44  18 -3.975357E+06 -2.795707E+05  3.300944E+05 -1.712073E+06 -1.322172E-09  8.069031E-10
        44  19 -6.973998E+06 -1.502064E+06 -6.184891E+05 -2.501727E+06  1.402014E+05  1.201457E+04
        44  20 -6.900064E+06 -1.318569E+06 -4.925522E+05 -2.448876E+06  9.346487E+04 -6.205263E+03
        44  21 -6.789276E+06 -1.324117E+06 -4.307844E+05 -2.456072E+06  4.473171E+04 -1.910296E+04
        44  22 -5.395430E+06 -8.851280E+05 -1.851561E+05 -2.053209E+06  1.393802E+05  1.171667E+04
        44  23 -5.407996E+06 -7.492491E+05 -8.635042E+04 -2.038800E+06  9.430580E+04 -5.881337E+03
        44  24 -5.383273E+06 -8.018914E+05 -5.025393E+04 -2.084453E+06  4.724445E+04 -1.815790E+04
        44  25 -3.814436E+06 -2.680029E+05  2.479483E+05 -1.603634E+06  1.385563E+05  1.141767E+04
        44  26 -3.913764E+06 -1.797894E+05  3.196500E+05 -1.627821E+06  9.514876E+04 -5.556649E+03
        44  27 -3.975354E+06 -2.795697E+05  3.300996E+05 -1.712074E+06  4.976344E+04 -1.721059E+04
        45   1 -6.470799E+06 -1.242480E+06 -3.387976E+05 -2.388766E+06 -3.713072E+04  1.788439E+04
        45   2 -6.377272E+06 -1.107525E+06 -2.775018E+05 -2.277380E+06 -2.440485E+04  1.683166E+04
        45   3 -6.163575E+06 -1.111513E+06 -2.277296E+05 -2.305861E+06 -1.114408E+04  1.429667E+04
        45   4 -5.369536E+06 -8.253939E+05 -3.995123E+04 -2.089125E+06 -3.861990E+04  1.732450E+04
        45   5 -5.428828E+06 -7.502235E+05 -2.023584E+04 -2.021329E+06 -2.637003E+04  1.609743E+04
        45   6 -5.367875E+06 -8.138740E+05 -1.164521E+04 -2.093396E+06 -1.358864E+04  1.338809E+04
        45   7 -4.267097E+06 -4.082362E+05  2.587853E+05 -1.789000E+06 -4.011196E+04  1.676353E+04
        45   8 -4.479512E+06 -3.928715E+05  2.369491E+05 -1.764921E+06 -2.833853E+04  1.536197E+04
        45   9 -4.571561E+06 -5.162008E+05  2.043826E+05 -1.880683E+06 -1.603666E+04  1.247824E+04
        45  10 -6.470801E+06 -1.242481E+06 -3.388008E+05 -2.388765E+06 -1.519994E-09 -8.797173E-10
        45  11 -6.377273E+06 -1.107525E+06 -2.775034E+05 -2.277380E+06  3.577299E-09  1.813937E-09
        45  12 -6.163575E+06 -1.111514E+06 -2.277302E+05 -2.305861E+06  2.843490E-10  2.633212E-09
        45  13 -5.369537E+06 -8.253946E+05 -3.995460E+04 -2.089125E+06  1.714457E-09 -1.767962E-09
        45  14 -5.428829E+06 -7.502240E+05 -2.023764E+04 -2.021328E+06 -4.957055E-09  3.425070E-09
        45  15 -5.367875E+06 -8.138743E+05 -1.164589E+04 -2.093395E+06  8.272742E-10 -9.745073E-10
        45  16 -4.267099E+06 -4.082369E+05  2.587817E+05 -1.789000E+06  1.231627E-09 -2.961520E-10
        45  17 -4.479512E+06 -3.928719E+05  2.369472E+05 -1.764921E+06  1.989121E-09 -2.316817E-09
        45  18 -4.571561E+06 -5.162010E+05  2.043818E+05 -1.880683E+06 -2.107673E-09 -5.193864E-09
        45  19 -6.470799E+06 -1.242480E+06 -3.387976E+05 -2.388766E+06  3.713072E+04 -1.788439E+04
        45  20 -6.377272E+06 -1.107525E+06 -2.775018E+05 -2.277380E+06  2.440485E+04 -1.683166E+04
        45  21 -6.163575E+06 -1.111513E+06 -2.277296E+05 -2.305861E+06  1.114408E+04 -1.429667E+04
        45  22 -5.369536E+06 -8.253939E+05 -3.995123E+04 -2.089125E+06  3.861990E+04 -1.732450E+04
        45  23 -5.428828E+06 -7.502235E+05 -2.023584E+04 -2.021329E+06  2.637003E+04 -1.609743E+04
        45  24 -5.367875E+06 -8.138740E+05 -1.164521E+04 -2.093396E+06  1.358864E+04 -1.338809E+04
        45  25 -4.267097E+06 -4.082362E+05  2.587853E+05 -1.789000E+06  4.011196E+04 -1.676353E+04
        45  26 -4.479512E+06 -3.928715E+05  2.369491E+05 -1.764921E+06  2.833853E+04 -1.536197E+04
        45  27 -4.571561E+06 -5.162008E+05  2.043826E+05 -1.880683E+06  1.603666E+04 -1.247824E+04
        46   1 -5.759520E+06 -9.695927E+05 -1.162717E+05 -2.205010E+06 -8.078852E+03  1.072096E+04
        46   2 -5.650094E+06 -8.262487E+05 -6.390475E+04 -2.071447E+06 -2.528185E+03  4.916692E+03
        46   3 -5.395821E+06 -8.315283E+05 -1.445204E+04 -2.107297E+06  3.123845E+03 -1.173398E+03
        46   4 -5.362900E+06 -8.206269E+05 -9.420027E+03 -2.098196E+06 -1.034489E+04  9.880586E+03
        46   5 -5.435216E+06 -7.456284E+05 -5.706004E+03 -2.013743E+06 -4.888146E+03  4.042341E+03
        46   6 -5.362700E+06 -8.192312E+05 -4.827058E+03 -2.098710E+06  6.689186E+02 -2.081896E+03
        46   7 -4.966128E+06 -6.716522E+05  9.741779E+04 -1.991321E+06 -1.261254E+04  9.039610E+03
        46   8 -5.220294E+06 -6.650058E+05  5.248843E+04 -1.956021E+06 -7.249004E+03  3.167658E+03
        46   9 -5.329579E+06 -8.069341E+05  4.797777E+03 -2.090123E+06 -1.786135E+03 -2.990439E+03
        46  10 -5.759520E+06 -9.695928E+05 -1.162720E+05 -2.205010E+06  8.394423E-11  2.197669E-09
        46  11 -5.650094E+06 -8.262487E+05 -6.390480E+04 -2.071447E+06 -1.901524E-10  5.115246E-09
        46  12 -5.395821E+06 -8.315283E+05 -1.445207E+04 -2.107297E+06 -3.395655E-09 -1.359708E-09
        46  13 -5.362900E+06 -8.206271E+05 -9.420411E+03 -2.098196E+06  4.346127E-10 -1.148521E-09
        46  14 -5.435216E+06 -7.456284E+05 -5.706079E+03 -2.013743E+06 -2.195022E-09  4.423059E-09
        46  15 -5.362700E+06 -8.192312E+05 -4.827067E+03 -2.098710E+06 -6.006449E-09  1.878634E-09
        46  16 -4.966128E+06 -6.716523E+05  9.741734E+04 -1.991321E+06 -2.609017E-09 -5.508529E-09
        46  17 -5.220294E+06 -6.650058E+05  5.248831E+04 -1.956021E+06  6.676552E-09 -7.896248E-10
        46  18 -5.329579E+06 -8.069341E+05  4.797754E+03 -2.090123E+06 -9.541404E-10  4.346808E-09
        46  19 -5.759520E+06 -9.695927E+05 -1.162717E+05 -2.205010E+06  8.078852E+03 -1.072096E+04
        46  20 -5.650094E+06 -8.262487E+05 -6.390475E+04 -2.071447E+06  2.528185E+03 -4.916692E+03
        46  21 -5.395821E+06 -8.315283E+05 -1.445204E+04 -2.107297E+06 -3.123845E+03  1.173398E+03
        46  22 -5.362900E+06 -8.206269E+05 -9.420027E+03 -2.098196E+06  1.034489E+04 -9.880586E+03
        46  23 -5.435216E+06 -7.456284E+05 -5.706004E+03 -2.013743E+06  4.888146E+03 -4.042341E+03
        46  24 -5.362700E+06 -8.192312E+05 -4.827058E+03 -2.098710E+06 -6.689186E+02  2.081896E+03
        46  25 -4.966128E+06 -6.716522E+05  9.741779E+04 -1.991321E+06  1.261254E+04 -9.039610E+03
        46  26 -5.220294E+06 -6.650058E+05  5.248843E+04 -1.956021E+06  7.249004E+03 -3.167658E+03
        46  27 -5.329579E+06 -8.069341E+05  4.797777E+03 -2.090123E+06  1.786135E+03  2.990439E+03
        47   1 -4.975279E+06 -6.721083E+05  1.010040E+05 -1.993078E+06  5.541848E+03 -5.204803E+03
        47   2 -4.871467E+06 -5.364950E+05  1.457717E+05 -1.864783E+06  1.119457E+04 -1.115258E+04
        47   3 -4.628525E+06 -5.431347E+05  1.877313E+05 -1.897844E+06  1.660864E+04 -1.641690E+04
        47   4 -5.364003E+06 -8.176411E+05 -4.884706E+03 -2.097015E+06  3.060431E+03 -6.123735E+03
        47   5 -5.433681E+06 -7.475144E+05 -6.455591E+03 -2.015946E+06  8.938108E+03 -1.199061E+04
        47   6 -5.364298E+06 -8.197000E+05 -1.101377E+04 -2.096255E+06  1.457605E+04 -1.717395E+04
        47   7 -5.752583E+06 -9.631668E+05 -1.107877E+05 -2.200895E+06  5.807184E+02 -7.042040E+03
        47   8 -5.995592E+06 -9.585175E+05 -1.587121E+05 -2.166985E+06  6.683894E+03 -1.282780E+04
        47   9 -6.099549E+06 -1.096236E+06 -2.098082E+05 -2.294454E+06  1.254610E+04 -1.793001E+04
        47  10 -4.975279E+06 -6.721083E+05  1.010039E+05 -1.993078E+06 -2.027344E-10 -1.000190E-09
        47  11 -4.871467E+06 -5.364952E+05  1.457712E+05 -1.864783E+06 -6.649871E-09  3.296854E-10
        47  12 -4.628525E+06 -5.431351E+05  1.877303E+05 -1.897844E+06 -2.741379E-09  3.551323E-09
        47  13 -5.364003E+06 -8.176411E+05 -4.884793E+03 -2.097015E+06 -3.613229E-09 -1.274125E-09
        47  14 -5.433681E+06 -7.475146E+05 -6.456011E+03 -2.015946E+06 -7.660248E-09  5.516833E-10
        47  15 -5.364298E+06 -8.197004E+05 -1.101472E+04 -2.096255E+06 -2.734429E-09  8.944314E-10
        47  16 -5.752583E+06 -9.631668E+05 -1.107878E+05 -2.200895E+06  2.522203E-09  4.785120E-09
        47  17 -5.995592E+06 -9.585177E+05 -1.587125E+05 -2.166985E+06  3.659809E-09 -8.166625E-10
        47  18 -6.099550E+06 -1.096236E+06 -2.098090E+05 -2.294454E+06 -1.664933E-09 -2.487286E-09
        47  19 -4.975279E+06 -6.721083E+05  1.010040E+05 -1.993078E+06 -5.541848E+03  5.204803E+03
        47  20 -4.871467E+06 -5.364950E+05  1.457717E+05 -1.864783E+06 -1.119457E+04  1.115258E+04
        47  21 -4.628525E+06 -5.431347E+05  1.877313E+05 -1.897844E+06 -1.660864E+04  1.641690E+04
        47  22 -5.364003E+06 -8.176411E+05 -4.884706E+03 -2.097015E+06 -3.060431E+03  6.123735E+03
        47  23 -5.433681E+06 -7.475144E+05 -6.455591E+03 -2.015946E+06 -8.938108E+03  1.199061E+04
        47  24 -5.364298E+06 -8.197000E+05 -1.101377E+04 -2.096255E+06 -1.457605E+04  1.717395E+04
        47  25 -5.752583E+06 -9.631668E+05 -1.107877E+05 -2.200895E+06 -5.807184E+02  7.042040E+03
        47  26 -5.995592E+06 -9.585175E+05 -1.587121E+05 -2.166985E+06 -6.683894E+03  1.282780E+04
        47  27 -6.099549E+06 -1.096236E+06 -2.098082E+05 -2.294454E+06 -1.254610E+04  1.793001E+04
        48   1 -4.273425E+06 -3.983345E+05  2.841181E+05 -1.794050E+06  2.022452E+04 -1.934686E+04
        48   2 -4.196119E+06 -2.918682E+05  3.086295E+05 -1.694636E+06  3.416889E+04 -2.076467E+04
        48   3 -4.016194E+06 -3.083400E+05  3.206582E+05 -1.712329E+06  4.746984E+04 -2.039294E+04
        48   4 -5.371859E+06 -8.098728E+05 -1.370366E+04 -2.088587E+06  1.796872E+04 -2.018968E+04
        48   5 -5.424092E+06 -7.551714E+05 -2.420983E+04 -2.027475E+06  3.248752E+04 -2.139764E+04
        48   6 -5.373848E+06 -8.235634E+05 -4.767681E+04 -2.083489E+06  4.635960E+04 -2.081543E+04
        48   7 -6.469119E+06 -1.221343E+06 -3.116316E+05 -2.382650E+06  1.571734E+04 -2.103088E+04
        48   8 -6.650604E+06 -1.218387E+06 -3.571841E+05 -2.359715E+06  3.080979E+04 -2.202925E+04
        48   9 -6.729722E+06 -1.338677E+06 -4.161792E+05 -2.453911E+06  4.525197E+04 -2.123693E+04
        48  10 -4.273425E+06 -3.983350E+05  2.841166E+05 -1.794050E+06  2.837556E-09  2.324799E-09
        48  11 -4.196120E+06 -2.918690E+05  3.086265E+05 -1.694635E+06 -3.273960E-09  3.242803E-11
        48  12 -4.016197E+06 -3.083410E+05  3.206532E+05 -1.712328E+06 -3.581307E-09 -5.055767E-10
        48  13 -5.371860E+06 -8.098733E+05 -1.370503E+04 -2.088586E+06  1.128846E-09  1.896089E-09
        48  14 -5.424094E+06 -7.551722E+05 -2.421267E+04 -2.027474E+06 -5.265311E-09 -1.408029E-09
        48  15 -5.373851E+06 -8.235644E+05 -4.768168E+04 -2.083488E+06 -6.649255E-09 -6.720181E-10
        48  16 -6.469120E+06 -1.221344E+06 -3.116328E+05 -2.382649E+06 -6.357343E-09 -2.242252E-09
        48  17 -6.650605E+06 -1.218388E+06 -3.571868E+05 -2.359714E+06 -2.185972E-09  3.771242E-09
        48  18 -6.729724E+06 -1.338678E+06 -4.161839E+05 -2.453910E+06  7.522356E-10  4.156166E-10
        48  19 -4.273425E+06 -3.983345E+05  2.841181E+05 -1.794050E+06 -2.022452E+04  1.934686E+04
        48  20 -4.196119E+06 -2.918682E+05  3.086295E+05 -1.694636E+06 -3.416889E+04  2.076467E+04
        48  21 -4.016194E+06 -3.083400E+05  3.206582E+05 -1.712329E+06 -4.746984E+04  2.039294E+04
        48  22 -5.371859E+06 -8.098728E+05 -1.370366E+04 -2.088587E+06 -1.796872E+04  2.018968E+04
        48  23 -5.424092E+06 -7.551714E+05 -2.420983E+04 -2.027475E+06 -3.248752E+04  2.139764E+04
        48  24 -5.373848E+06 -8.235634E+05 -4.767681E+04 -2.083489E+06 -4.635960E+04  2.081543E+04
        48  25 -6.469119E+06 -1.221343E+06 -3.116316E+05 -2.382650E+06 -1.571734E+04  2.103088E+04
        48  26 -6.650604E+06 -1.218387E+06 -3.571841E+05 -2.359715E+06 -3.080979E+04  2.202925E+04
        48  27 -6.729722E+06 -1.338677E+06 -4.161792E+05 -2.453911E+06 -4.525197E+04  2.123693E+04
        49   1 -3.792111E+06 -2.014481E+05  3.717375E+05 -1.653930E+06  5.827224E+04 -1.958516E+04
        49   2 -3.749603E+06 -1.224843E+05  3.453542E+05 -1.591602E+06  1.120558E+05 -3.276614E+03
        49   3 -3.704177E+06 -2.261229E+05  2.454909E+05 -1.552462E+06  1.638162E+05  1.842292E+04
        49   4 -5.390354E+06 -7.957529E+05 -6.009775E+04 -2.078229E+06  5.613583E+04 -2.039507E+04
        49   5 -5.398884E+06 -7.536705E+05 -1.032707E+05 -2.047950E+06  1.115860E+05 -3.463944E+03
        49   6 -5.404980E+06 -8.947682E+05 -2.214116E+05 -2.040842E+06  1.650054E+05  1.885950E+04
        49   7 -6.986126E+06 -1.389931E+06 -4.921611E+05 -2.501546E+06  5.400538E+04 -2.120284E+04
        49   8 -7.045528E+06 -1.384681E+06 -5.521417E+05 -2.503192E+06  1.111172E+05 -3.650886E+03
        49   9 -7.102974E+06 -1.563184E+06 -6.885797E+05 -2.527985E+06  1.661905E+05  1.929436E+04
        49  10 -3.792115E+06 -2.014494E+05  3.717303E+05 -1.653929E+06 -7.170924E-10 -2.612275E-10
        49  11 -3.749617E+06 -1.224877E+05  3.453305E+05 -1.591602E+06 -3.703828E-09  3.483840E-09
        49  12 -3.704207E+06 -2.261305E+05  2.454395E+05 -1.552464E+06  8.935513E-10  1.825744E-09
        49  13 -5.390357E+06 -7.957542E+05 -6.010448E+04 -2.078228E+06  2.570640E-09  5.764903E-11
        49  14 -5.398897E+06 -7.536739E+05 -1.032944E+05 -2.047950E+06  4.714558E-09  4.184028E-09
        49  15 -5.405010E+06 -8.947760E+05 -2.214639E+05 -2.040845E+06  1.118912E-09  1.987469E-09
        49  16 -6.986129E+06 -1.389932E+06 -4.921675E+05 -2.501545E+06  1.042105E-09 -1.082809E-09
        49  17 -7.045542E+06 -1.384684E+06 -5.521652E+05 -2.503191E+06  2.682861E-09 -9.196891E-10
        49  18 -7.103005E+06 -1.563192E+06 -6.886329E+05 -2.527987E+06  6.017806E-09  1.474028E-09
        49  19 -3.792111E+06 -2.014481E+05  3.717375E+05 -1.653930E+06 -5.827224E+04  1.958516E+04
        49  20 -3.749603E+06 -1.224843E+05  3.453542E+05 -1.591602E+06 -1.120558E+05  3.276614E+03
        49  21 -3.704177E+06 -2.261229E+05  2.454909E+05 -1.552462E+06 -1.638162E+05 -1.842292E+04
        49  22 -5.390354E+06 -7.957529E+05 -6.009775E+04 -2.078229E+06 -5.613583E+04  2.039507E+04
        49  23 -5.398884E+06 -7.536705E+05 -1.032707E+05 -2.047950E+06 -1.115860E+05  3.463944E+03
        49  24 -5.404980E+06 -8.947682E+05 -2.214116E+05 -2.040842E+06 -1.650054E+05 -1.885950E+04
        49  25 -6.986126E+06 -1.389931E+06 -4.921611E+05 -2.501546E+06 -5.400538E+04  2.120284E+04
        49  26 -7.045528E+06 -1.384681E+06 -5.521417E+05 -2.503192E+06 -1.111172E+05  3.650886E+03
        49  27 -7.102974E+06 -1.563184E+06 -6.885797E+05 -2.527985E+06 -1.661905E+05 -1.929436E+04
        50   1 -3.623739E+06 -1.419155E+05  2.116135E+05 -1.666683E+06  2.126364E+05  3.126096E+04
        50   2 -3.577334E+06  6.361521E+04  3.927249E+04 -1.568162E+06  4.424404E+05  1.176005E+05
        50   3 -3.952404E+06 -7.242060E+05 -5.802563E+05 -1.182899E+06  6.595146E+05  2.370818E+05
        50   4 -5.453390E+06 -7.619366E+05 -2.701993E+05 -2.091808E+06  2.062965E+05  2.886641E+04
        50   5 -5.297954E+06 -6.408031E+05 -4.371112E+05 -2.090700E+06  4.465589E+05  1.191281E+05
        50   6 -5.567197E+06 -1.516900E+06 -1.060529E+06 -1.802504E+06  6.741121E+05  2.424748E+05
        50   7 -7.279802E+06 -1.381918E+06 -7.522939E+05 -2.515870E+06  1.999767E+05  2.647751E+04
        50   8 -7.015689E+06 -1.344911E+06 -9.137713E+05 -2.611873E+06  4.506630E+05  1.206493E+05
        50   9 -7.179373E+06 -2.308892E+06 -1.541061E+06 -2.420469E+06  6.886653E+05  2.478401E+05
        50  10 -3.623788E+06 -1.419288E+05  2.115262E+05 -1.666688E+06  4.940688E-09 -2.362894E-09
        50  11 -3.577549E+06  6.354725E+04  3.887592E+04 -1.568204E+06  3.667985E-09 -4.811723E-09
        50  12 -3.952889E+06 -7.243845E+05 -5.811857E+05 -1.183025E+06 -2.594026E-09 -1.910152E-09
        50  13 -5.453436E+06 -7.619491E+05 -2.702816E+05 -2.091813E+06  7.697977E-09 -3.220132E-09
        50  14 -5.298173E+06 -6.408727E+05 -4.375166E+05 -2.090743E+06 -9.736307E-10  7.523508E-09
        50  15 -5.567705E+06 -1.517087E+06 -1.061503E+06 -1.802637E+06 -2.461268E-09  2.179504E-09
        50  16 -7.279845E+06 -1.381929E+06 -7.523713E+05 -2.515875E+06  1.507155E-09 -2.953142E-09
        50  17 -7.015914E+06 -1.344982E+06 -9.141856E+05 -2.611917E+06  9.239730E-10  8.571200E-10
        50  18 -7.179904E+06 -2.309088E+06 -1.542081E+06 -2.420608E+06 -1.416276E-09 -3.030336E-09
        50  19 -3.623739E+06 -1.419155E+05  2.116135E+05 -1.666683E+06 -2.126364E+05 -3.126096E+04
        50  20 -3.577334E+06  6.361521E+04  3.927249E+04 -1.568162E+06 -4.424404E+05 -1.176005E+05
        50  21 -3.952404E+06 -7.242060E+05 -5.802563E+05 -1.182899E+06 -6.595146E+05 -2.370818E+05
        50  22 -5.453390E+06 -7.619366E+05 -2.701993E+05 -2.091808E+06 -2.062965E+05 -2.886641E+04
        50  23 -5.297954E+06 -6.408031E+05 -4.371112E+05 -2.090700E+06 -4.465589E+05 -1.191281E+05
        50  24 -5.567197E+06 -1.516900E+06 -1.060529E+06 -1.802504E+06 -6.741121E+05 -2.424748E+05
        50  25 -7.279802E+06 -1.381918E+06 -7.522939E+05 -2.515870E+06 -1.999767E+05 -2.647751E+04
        50  26 -7.015689E+06 -1.344911E+06 -9.137713E+05 -2.611873E+06 -4.506630E+05 -1.206493E+05
        50  27 -7.179373E+06 -2.308892E+06 -1.541061E+06 -2.420469E+06 -6.886653E+05 -2.478401E+05
        51   1  3.008200E+05 -3.286722E+05  2.926922E+05 -3.543332E+03  1.350805E+04  1.556964E+04
        51   2  3.053862E+05 -3.506005E+05  2.828465E+05  1.461036E+02  4.214819E+04  5.094388E+03
        51   3  2.986606E+05 -3.727374E+05  2.773508E+05 -1.023338E+04  4.280800E+04 -5.508602E+03
        51   4 -1.122671E+04 -1.579591E+06 -1.546760E+04 -3.163820E+03  1.361757E+04 -7.914927E+03
        51   5  1.205750E+03 -1.578132E+06 -9.196404E+03  3.897699E+03  4.219613E+04 -2.953824E+03
        51   6 -3.501958E+02 -1.579572E+06 -9.310981E+03 -3.110951E+03  4.276964E+04  1.879264E+03
        51   7 -3.233899E+05 -2.829083E+06 -3.237411E+05 -2.783445E+03  1.372718E+04 -3.135220E+04
        51   8 -3.030835E+05 -2.804278E+06 -3.013446E+05  7.643636E+03  4.224403E+04 -1.098619E+04
        51   9 -2.994659E+05 -2.785068E+06 -2.960744E+05  3.999525E+03  4.273142E+04  9.252829E+03
        51  10  3.008197E+05 -3.286725E+05  2.926914E+05 -3.543501E+03 -1.280267E-08  8.375097E-09
        51  11  3.053843E+05 -3.506010E+05  2.828431E+05  1.459307E+02 -3.351108E-10 -3.750649E-09
        51  12  2.986586E+05 -3.727379E+05  2.773473E+05 -1.023319E+04  1.172943E-09 -1.155598E-08
        51  13 -1.122692E+04 -1.579591E+06 -1.546807E+04 -3.163733E+03 -1.593203E-08 -8.639459E-11
        51  14  1.203837E+03 -1.578132E+06 -9.199764E+03  3.897799E+03  6.204910E-09 -2.889892E-09
        51  15 -3.521596E+02 -1.579573E+06 -9.314422E+03 -3.111016E+03  3.070253E-09 -2.934089E-10
        51  16 -3.233903E+05 -2.829084E+06 -3.237433E+05 -2.783098E+03 -1.546996E-08 -1.210416E-08
        51  17 -3.030854E+05 -2.804278E+06 -3.013482E+05  7.644010E+03  3.179056E-09 -4.658402E-09
        51  18 -2.994679E+05 -2.785068E+06 -2.960780E+05  3.999206E+03  3.344890E-09  6.890291E-09
        51  19  3.008200E+05 -3.286722E+05  2.926922E+05 -3.543332E+03 -1.350805E+04 -1.556964E+04
        51  20  3.053862E+05 -3.506005E+05  2.828465E+05  1.461036E+02 -4.214819E+04 -5.094388E+03
        51  21  2.986606E+05 -3.727374E+05  2.773508E+05 -1.023338E+04 -4.280800E+04  5.508602E+03
        51  22 -1.122671E+04 -1.579591E+06 -1.546760E+04 -3.163820E+03 -1.361757E+04  7.914927E+03
        51  23  1.205750E+03 -1.578132E+06 -9.196404E+03  3.897699E+03 -4.219613E+04  2.953824E+03
        51  24 -3.501958E+02 -1.579572E+06 -9.310981E+03 -3.110951E+03 -4.276964E+04 -1.879264E+03
        51  25 -3.233899E+05 -2.829083E+06 -3.237411E+05 -2.783445E+03 -1.372718E+04  3.135220E+04
        51  26 -3.030835E+05 -2.804278E+06 -3.013446E+05  7.643636E+03 -4.224403E+04  1.098619E+04
        51  27 -2.994659E+05 -2.785068E+06 -2.960744E+05  3.999525E+03 -4.273142E+04 -9.252829E+03
        52   1  2.907205E+05 -4.037772E+05  2.701752E+05 -8.324867E+03  3.851216E+04  4.880002E+03
        52   2  2.852385E+05 -4.312743E+05  2.590625E+05 -1.097286E+03  3.919037E+04  1.007223E+04
        52   3  2.690216E+05 -4.612339E+05  2.420816E+05 -1.349190E+04  3.643905E+04  1.523797E+04
        52   4 -7.744821E+02 -1.579531E+06 -1.022517E+04 -4.346322E+03  3.852553E+04  3.537573E+03
        52   5  9.799862E+02 -1.578130E+06 -1.386170E+04  5.438119E+03  3.919149E+04  1.061104E+04
        52   6 -8.339716E+03 -1.579526E+06 -2.468281E+04 -4.402034E+03  3.642514E+04  1.765821E+04
        52   7 -2.923695E+05 -2.754014E+06 -2.907228E+05 -3.733556E+02  3.853889E+04  2.197672E+03
        52   8 -2.833735E+05 -2.723776E+06 -2.868781E+05  1.196346E+04  3.919263E+04  1.114884E+04
        52   9 -2.857914E+05 -2.696670E+06 -2.915352E+05  4.673536E+03  3.641129E+04  2.007409E+04
        52  10  2.907189E+05 -4.037777E+05  2.701724E+05 -8.325018E+03 -1.914764E-09 -1.749495E-09
        52  11  2.852369E+05 -4.312748E+05  2.590594E+05 -1.097604E+03  1.098458E-09 -1.059972E-09
        52  12  2.690201E+05 -4.612345E+05  2.420787E+05 -1.349235E+04  4.457599E-10  1.637159E-09
        52  13 -7.760781E+02 -1.579531E+06 -1.022798E+04 -4.346432E+03  5.397275E-09  8.317142E-11
        52  14  9.783077E+02 -1.578130E+06 -1.386480E+04  5.437784E+03  6.364094E-09 -3.812439E-09
        52  15 -8.341223E+03 -1.579527E+06 -2.468589E+04 -4.402552E+03  1.357005E-09 -3.969795E-10
        52  16 -2.923711E+05 -2.754014E+06 -2.907256E+05 -3.734239E+02 -1.134639E-09 -3.434630E-09
        52  17 -2.833752E+05 -2.723776E+06 -2.868812E+05  1.196311E+04  5.841091E-09 -1.001988E-08
        52  18 -2.857930E+05 -2.696670E+06 -2.915385E+05  4.672947E+03 -9.940257E-10 -7.551502E-09
        52  19  2.907205E+05 -4.037772E+05  2.701752E+05 -8.324867E+03 -3.851216E+04 -4.880002E+03
        52  20  2.852385E+05 -4.312743E+05  2.590625E+05 -1.097286E+03 -3.919037E+04 -1.007223E+04
        52  21  2.690216E+05 -4.612339E+05  2.420816E+05 -1.349190E+04 -3.643905E+04 -1.523797E+04
        52  22 -7.744821E+02 -1.579531E+06 -1.022517E+04 -4.346322E+03 -3.852553E+04 -3.537573E+03
        52  23  9.799862E+02 -1.578130E+06 -1.386170E+04  5.438119E+03 -3.919149E+04 -1.061104E+04
        52  24 -8.339716E+03 -1.579526E+06 -2.468281E+04 -4.402034E+03 -3.642514E+04 -1.765821E+04
        52  25 -2.923695E+05 -2.754014E+06 -2.907228E+05 -3.733556E+02 -3.853889E+04 -2.197672E+03
        52  26 -2.833735E+05 -2.723776E+06 -2.868781E+05  1.196346E+04 -3.919263E+04 -1.114884E+04
        52  27 -2.857914E+05 -2.696670E+06 -2.915352E+05  4.673536E+03 -3.641129E+04 -2.007409E+04
        53   1  2.716625E+05 -5.055571E+05  2.263966E+05 -1.736306E+00  3.826781E+04  2.690690E+04
        53   2  2.694485E+05 -5.276983E+05  2.006540E+05 -8.344742E+03  3.550436E+04  4.043111E+04
        53   3  1.672035E+05 -5.761173E+05  1.411957E+05 -4.194647E+04  1.078080E+04  5.375213E+04
        53   4  4.393070E+03 -1.585180E+06 -2.995085E+04 -5.377775E+03  3.830851E+04  2.228853E+04
        53   5  1.065669E+04 -1.570999E+06 -4.763523E+04  6.859462E+03  3.544543E+04  4.789315E+04
        53   6 -8.530232E+04 -1.585241E+06 -1.074781E+05 -6.167450E+03  1.060669E+04  7.329429E+04
        53   7 -2.629601E+05 -2.663731E+06 -2.863796E+05 -1.074229E+04  3.834932E+04  1.767814E+04
        53   8 -2.482132E+05 -2.613298E+06 -2.960005E+05  2.204007E+04  3.538681E+04  5.534266E+04
        53   9 -3.378799E+05 -2.593433E+06 -3.562253E+05  2.955534E+04  1.043468E+04  9.280463E+04
        53  10  2.716607E+05 -5.055583E+05  2.263925E+05 -2.565420E+00 -5.308158E-10 -8.017998E-09
        53  11  2.694467E+05 -5.277004E+05  2.006486E+05 -8.345898E+03 -2.808765E-10 -6.462003E-09
        53  12  1.672026E+05 -5.761205E+05  1.411900E+05 -4.194694E+04 -1.375268E-09  1.421341E-09
        53  13  4.391362E+03 -1.585181E+06 -2.995454E+04 -5.378463E+03 -3.395140E-09  1.090542E-10
        53  14  1.065472E+04 -1.571001E+06 -4.764191E+04  6.858094E+03 -2.072558E-09 -4.654310E-09
        53  15 -8.530389E+04 -1.585247E+06 -1.074884E+05 -6.168076E+03 -5.086271E-09 -5.008908E-10
        53  16 -2.629618E+05 -2.663732E+06 -2.863829E+05 -1.074284E+04 -7.352657E-10  1.957072E-09
        53  17 -2.482154E+05 -2.613301E+06 -2.960087E+05  2.203849E+04 -4.199907E-09 -7.169174E-09
        53  18 -3.378823E+05 -2.593442E+06 -3.562418E+05  2.955456E+04  2.759556E-09 -8.692389E-09
        53  19  2.716625E+05 -5.055571E+05  2.263966E+05 -1.736306E+00 -3.826781E+04 -2.690690E+04
        53  20  2.694485E+05 -5.276983E+05  2.006540E+05 -8.344742E+03 -3.550436E+04 -4.043111E+04
        53  21  1.672035E+05 -5.761173E+05  1.411957E+05 -4.194647E+04 -1.078080E+04 -5.375213E+04
        53  22  4.393070E+03 -1.585180E+06 -2.995085E+04 -5.377775E+03 -3.830851E+04 -2.228853E+04
        53  23  1.065669E+04 -1.570999E+06 -4.763523E+04  6.859462E+03 -3.544543E+04 -4.789315E+04
        53  24 -8.530232E+04 -1.585241E+06 -1.074781E+05 -6.167450E+03 -1.060669E+04 -7.329429E+04
        53  25 -2.629601E+05 -2.663731E+06 -2.863796E+05 -1.074229E+04 -3.834932E+04 -1.767814E+04
        53  26 -2.482132E+05 -2.613298E+06 -2.960005E+05  2.204007E+04 -3.538681E+04 -5.534266E+04
        53  27 -3.378799E+05 -2.593433E+06 -3.562253E+05  2.955534E+04 -1.043468E+04 -9.280463E+04
        54   1  8.184777E+04  9.132179E+05  4.662830E+04 -1.565988E+02  2.864160E+04 -5.004312E+02
        54   2  8.195999E+04  9.133126E+05  4.723723E+04 -1.280735E+02  2.854373E+04 -1.294561E+03
        54   3  8.226690E+04  9.135664E+05  4.841353E+04 -8.419630E+01  2.831654E+04 -2.088773E+03
        54   4 -2.782330E+01  5.496024E+05  5.543346E+02  3.402630E+00  2.864334E+04 -4.197224E+02
        54   5  1.689254E+01  5.495497E+05  9.729773E+02 -4.231514E+00  2.854532E+04 -9.028423E+02
        54   6  2.024280E+02  5.496021E+05  1.743375E+03  3.486477E+00  2.831795E+04 -1.386040E+03
        54   7 -8.190881E+04  1.861224E+05 -4.552008E+04  1.633179E+02  2.864508E+04 -3.390584E+02
        54   8 -8.193162E+04  1.859224E+05 -4.529178E+04  1.195481E+02  2.854692E+04 -5.113417E+02
        54   9 -8.186750E+04  1.857736E+05 -4.492738E+04  9.113054E+01  2.831936E+04 -6.836976E+02
        54  10  8.184689E+04  9.132177E+05  4.662675E+04 -1.565872E+02  3.093944E-09  4.961853E-09
        54  11  8.195911E+04  9.133124E+05  4.723570E+04 -1.280438E+02  3.021462E-09 -1.491613E-10
        54  12  8.226604E+04  9.135661E+05  4.841202E+04 -8.414868E+01  2.062892E-10 -3.451038E-09
        54  13 -2.870459E+01  5.496022E+05  5.527921E+02  3.412311E+00  6.225907E-09  4.247052E-10
        54  14  1.601710E+01  5.495495E+05  9.714442E+02 -4.210762E+00  9.069834E-09 -9.090539E-10
        54  15  2.015662E+02  5.496019E+05  1.741865E+03  3.518082E+00  3.394596E-09  5.464572E-10
        54  16 -8.190969E+04  1.861222E+05 -4.552162E+04  1.633257E+02 -1.513371E-10 -5.475054E-09
        54  17 -8.193249E+04  1.859221E+05 -4.529331E+04  1.195598E+02 -3.335259E-10 -8.204738E-11
        54  18 -8.186836E+04  1.857733E+05 -4.492889E+04  9.114613E+01 -3.890647E-09  3.558107E-09
        54  19  8.184777E+04  9.132179E+05  4.662830E+04 -1.565988E+02 -2.864160E+04  5.004312E+02
        54  20  8.195999E+04  9.133126E+05  4.723723E+04 -1.280735E+02 -2.854373E+04  1.294561E+03
        54  21  8.226690E+04  9.135664E+05  4.841353E+04 -8.419630E+01 -2.831654E+04  2.088773E+03
        54  22 -2.782330E+01  5.496024E+05  5.543346E+02  3.402630E+00 -2.864334E+04  4.197224E+02
        54  23  1.689254E+01  5.495497E+05  9.729773E+02 -4.231514E+00 -2.854532E+04  9.028423E+02
        54  24  2.024280E+02  5.496021E+05  1.743375E+03  3.486477E+00 -2.831795E+04  1.386040E+03
        54  25 -8.190881E+04  1.861224E+05 -4.552008E+04  1.633179E+02 -2.864508E+04  3.390584E+02
        54  26 -8.193162E+04  1.859224E+05 -4.529178E+04  1.195481E+02 -2.854692E+04  5.113417E+02
        54  27 -8.186750E+04  1.857736E+05 -4.492738E+04  9.113054E+01 -2.831936E+04  6.836976E+02
        55   1  8.245793E+04  9.138768E+05  4.925806E+04 -1.990449E+02  2.817304E+04 -2.503846E+03
        55   2  8.346121E+04  9.135849E+05  5.234443E+04  7.984779E+02  2.736922E+04 -6.897037E+03
        55   3  8.632283E+04  9.143357E+05  5.875446E+04  1.748536E+03  2.559998E+04 -1.129090E+04
        55   4  3.005910E+02  5.497211E+05  2.315458E+03 -1.060015E+01  2.817438E+04 -1.726291E+03
        55   5  1.045868E+03  5.494002E+05  4.134887E+03  1.385021E+01  2.736919E+04 -3.798498E+03
        55   6  3.247491E+03  5.497199E+05  7.668503E+03 -9.171217E+00  2.559830E+04 -5.871364E+03
        55   7 -8.186224E+04  1.857011E+05 -4.462780E+04  1.777449E+02  2.817572E+04 -9.491679E+02
        55   8 -8.137509E+04  1.853508E+05 -4.407561E+04 -7.702787E+02  2.736916E+04 -7.016893E+02
        55   9 -7.983374E+04  1.852388E+05 -4.341906E+04 -1.765783E+03  2.559660E+04 -4.548619E+02
        55  10  8.245708E+04  9.138765E+05  4.925656E+04 -1.989881E+02  3.564652E-09  4.941453E-09
        55  11  8.346039E+04  9.135847E+05  5.234293E+04  7.986299E+02  8.371959E-09 -2.875258E-09
        55  12  8.632209E+04  9.143354E+05  5.875298E+04  1.748769E+03  1.268505E-09 -8.277932E-09
        55  13  2.997376E+02  5.497209E+05  2.313960E+03 -1.056099E+01  1.414564E-09  4.488239E-10
        55  14  1.045059E+03  5.494000E+05  4.133452E+03  1.393392E+01  3.600490E-09 -1.154196E-09
        55  15  3.246778E+03  5.497197E+05  7.667207E+03 -9.050196E+00  2.773496E-09  6.293021E-10
        55  16 -8.186309E+04  1.857009E+05 -4.462930E+04  1.777664E+02 -4.088665E-09 -5.939661E-09
        55  17 -8.137589E+04  1.853506E+05 -4.407702E+04 -7.702632E+02 -1.971736E-09  2.387304E-09
        55  18 -7.983445E+04  1.852387E+05 -4.342029E+04 -1.765774E+03  1.267533E-09  8.384206E-09
        55  19  8.245793E+04  9.138768E+05  4.925806E+04 -1.990449E+02 -2.817304E+04  2.503846E+03
        55  20  8.346121E+04  9.135849E+05  5.234443E+04  7.984779E+02 -2.736922E+04  6.897037E+03
        55  21  8.632283E+04  9.143357E+05  5.875446E+04  1.748536E+03 -2.559998E+04  1.129090E+04
        55  22  3.005910E+02  5.497211E+05  2.315458E+03 -1.060015E+01 -2.817438E+04  1.726291E+03
        55  23  1.045868E+03  5.494002E+05  4.134887E+03  1.385021E+01 -2.736919E+04  3.798498E+03
        55  24  3.247491E+03  5.497199E+05  7.668503E+03 -9.171217E+00 -2.559830E+04  5.871364E+03
        55  25 -8.186224E+04  1.857011E+05 -4.462780E+04  1.777449E+02 -2.817572E+04  9.491679E+02
        55  26 -8.137509E+04  1.853508E+05 -4.407561E+04 -7.702787E+02 -2.736916E+04  7.016893E+02
        55  27 -7.983374E+04  1.852388E+05 -4.341906E+04 -1.765783E+03 -2.559660E+04  4.548619E+02
        56   1  8.806905E+04  9.159395E+05  6.328540E+04  1.078927E+03  2.448197E+04 -1.319911E+04
        56   2  9.801380E+04  9.123481E+05  8.119655E+04  1.281016E+04  1.843293E+04 -4.006479E+04
        56   3  1.253254E+05  9.165967E+05  1.209242E+05  2.397323E+04  5.234855E+03 -6.693659E+04
        56   4  4.476960E+03  5.506584E+05  1.028395E+04 -1.262697E+02  2.447969E+04 -7.210243E+03
        56   5  1.283289E+04  5.482228E+05  1.900570E+04  1.674116E+02  1.841923E+04 -1.689559E+04
        56   6  3.558038E+04  5.506500E+05  3.762638E+04 -1.072899E+02  5.208788E+03 -2.658652E+04
        56   7 -7.912123E+04  1.855117E+05 -4.271955E+04 -1.330708E+03  2.447740E+04 -1.224743E+03
        56   8 -7.235417E+04  1.842292E+05 -4.318746E+04 -1.246768E+04  1.840458E+04  6.260475E+03
        56   9 -5.417084E+04  1.848322E+05 -4.567368E+04 -2.417349E+04  5.179588E+03  1.374001E+04
        56  10  8.806836E+04  9.159392E+05  6.328395E+04  1.079187E+03 -1.592569E-10  1.476876E-09
        56  11  9.801300E+04  9.123463E+05  8.119290E+04  1.281076E+04  6.004732E-09 -1.652023E-09
        56  12  1.253242E+05  9.165919E+05  1.209157E+05  2.397352E+04 -1.144190E-09 -1.618064E-09
        56  13  4.476303E+03  5.506582E+05  1.028273E+04 -1.261275E+02 -2.519726E-09  5.514381E-10
        56  14  1.283245E+04  5.482224E+05  1.900452E+04  1.676622E+02  1.549155E-09 -1.376519E-09
        56  15  3.558016E+04  5.506493E+05  3.762500E+04 -1.071784E+02  2.541110E-09  8.881831E-10
        56  16 -7.912187E+04  1.855115E+05 -4.272068E+04 -1.330684E+03 -1.757577E-10 -2.503967E-09
        56  17 -7.235455E+04  1.842291E+05 -4.318817E+04 -1.246777E+04  1.485620E-09  1.345175E-09
        56  18 -5.417092E+04  1.848320E+05 -4.567409E+04 -2.417355E+04 -3.037844E-10  1.859760E-09
        56  19  8.806905E+04  9.159395E+05  6.328540E+04  1.078927E+03 -2.448197E+04  1.319911E+04
        56  20  9.801380E+04  9.123481E+05  8.119655E+04  1.281016E+04 -1.843293E+04  4.006479E+04
        56  21  1.253254E+05  9.165967E+05  1.209242E+05  2.397323E+04 -5.234855E+03  6.693659E+04
        56  22  4.476960E+03  5.506584E+05  1.028395E+04 -1.262697E+02 -2.447969E+04  7.210243E+03
        56  23  1.283289E+04  5.482228E+05  1.900570E+04  1.674116E+02 -1.841923E+04  1.689559E+04
        56  24  3.558038E+04  5.506500E+05  3.762638E+04 -1.072899E+02 -5.208788E+03  2.658652E+04
        56  25 -7.912123E+04  1.855117E+05 -4.271955E+04 -1.330708E+03 -2.447740E+04  1.224743E+03
        56  26 -7.235417E+04  1.842292E+05 -4.318746E+04 -1.246768E+04 -1.840458E+04 -6.260475E+03
        56  27 -5.417084E+04  1.848322E+05 -4.567368E+04 -2.417349E+04 -5.179588E+03 -1.374001E+04
        57   1 -1.197130E+07 -3.490704E+06 -2.191893E+06 -4.118272E+06 -1.096955E+06 -4.018223E+05
        57   2 -1.172141E+07 -1.957240E+06 -1.189948E+06 -4.449790E+06 -7.126415E+05 -2.182789E+05
        57   3 -1.219339E+07 -2.019588E+06 -9.383928E+05 -4.289889E+06 -3.156772E+05 -6.801455E+04
        57   4 -1.045339E+07 -2.633247E+06 -1.714738E+06 -3.426422E+06 -1.082824E+06 -3.970265E+05
        57   5 -1.000160E+07 -1.225567E+06 -7.050334E+05 -3.904173E+06 -7.087337E+05 -2.169071E+05
        57   6 -1.026805E+07 -1.409014E+06 -4.360602E+05 -3.891062E+06 -3.218696E+05 -7.029231E+04
        57   7 -8.933032E+06 -1.774686E+06 -1.237814E+06 -2.732737E+06 -1.068652E+06 -3.921977E+05
        57   8 -8.278880E+06 -4.935078E+05 -2.204054E+05 -3.357086E+06 -7.048112E+05 -2.155283E+05
        57   9 -8.339058E+06 -7.984692E+05  6.597324E+04 -3.491216E+06 -3.280821E+05 -7.257472E+04
        57  10 -1.197266E+07 -3.491212E+06 -2.194515E+06 -4.118632E+06  2.065680E-09 -3.267785E-10
        57  11 -1.172197E+07 -1.957433E+06 -1.191015E+06 -4.449917E+06 -2.731025E-09  7.581515E-11
        57  12 -1.219350E+07 -2.019621E+06 -9.385930E+05 -4.289907E+06 -1.807704E-09  1.325095E-09
        57  13 -1.045471E+07 -2.633741E+06 -1.717285E+06 -3.426773E+06 -2.472589E-10 -2.683870E-09
        57  14 -1.000216E+07 -1.225756E+06 -7.060853E+05 -3.904298E+06 -3.555608E-09 -1.398225E-09
        57  15 -1.026816E+07 -1.409048E+06 -4.362680E+05 -3.891080E+06  7.425820E-10 -9.151955E-10
        57  16 -8.934315E+06 -1.775166E+06 -1.240288E+06 -2.733078E+06 -2.586763E-09  1.111980E-09
        57  17 -8.279433E+06 -4.936943E+05 -2.214424E+05 -3.357210E+06  1.533350E-09 -1.286554E-09
        57  18 -8.339177E+06 -7.985044E+05  6.575778E+04 -3.491236E+06  3.405359E-09 -7.809875E-10
        57  19 -1.197130E+07 -3.490704E+06 -2.191893E+06 -4.118272E+06  1.096955E+06  4.018223E+05
        57  20 -1.172141E+07 -1.957240E+06 -1.189948E+06 -4.449790E+06  7.126415E+05  2.182789E+05
        57  21 -1.219339E+07 -2.019588E+06 -9.383928E+05 -4.289889E+06  3.156772E+05  6.801455E+04
        57  22 -1.045339E+07 -2.633247E+06 -1.714738E+06 -3.426422E+06  1.082824E+06  3.970265E+05
        57  23 -1.000160E+07 -1.225567E+06 -7.050334E+05 -3.904173E+06  7.087337E+05  2.169071E+05
        57  24 -1.026805E+07 -1.409014E+06 -4.360602E+05 -3.891062E+06  3.218696E+05  7.029231E+04
        57  25 -8.933032E+06 -1.774686E+06 -1.237814E+06 -2.732737E+06  1.068652E+06  3.921977E+05
        57  26 -8.278880E+06 -4.935078E+05 -2.204054E+05 -3.357086E+06  7.048112E+05  2.155283E+05
        57  27 -8.339058E+06 -7.984692E+05  6.597324E+04 -3.491216E+06  3.280821E+05  7.257472E+04
        58   1 -1.194852E+07 -2.334347E+06 -8.470563E+05 -4.328419E+06 -2.579114E+05 -5.121815E+04
        58   2 -1.185620E+07 -2.051235E+06 -6.282266E+05 -4.293006E+06 -1.693898E+05 -1.640785E+04
        58   3 -1.177017E+07 -2.061056E+06 -5.336121E+05 -4.291281E+06 -7.824522E+04  1.143042E+04
        58   4 -1.018496E+07 -1.629181E+06 -3.572710E+05 -3.814837E+06 -2.568523E+05 -5.084508E+04
        58   5 -1.017018E+07 -1.402829E+06 -1.659188E+05 -3.827956E+06 -1.703983E+05 -1.679825E+04
        58   6 -1.016103E+07 -1.468597E+06 -9.683522E+04 -3.874805E+06 -8.133745E+04  1.027119E+04
        58   7 -8.418349E+06 -9.237412E+05  1.322222E+05 -3.299874E+06 -2.557887E+05 -5.047016E+04
        58   8 -8.481369E+06 -7.542376E+05  2.961277E+05 -3.361732E+06 -1.714093E+05 -1.718960E+04
        58   9 -8.549349E+06 -8.760269E+05  3.397083E+05 -3.457350E+06 -8.443843E+04  9.108914E+03
        58  10 -1.194859E+07 -2.334368E+06 -8.471890E+05 -4.328430E+06  3.391636E-09  7.872480E-10
        58  11 -1.185623E+07 -2.051243E+06 -6.282822E+05 -4.293009E+06  2.116447E-09 -9.322770E-11
        58  12 -1.177018E+07 -2.061057E+06 -5.336240E+05 -4.291280E+06 -4.827139E-09 -4.409675E-09
        58  13 -1.018504E+07 -1.629202E+06 -3.574022E+05 -3.814848E+06  1.900682E-09  4.173991E-10
        58  14 -1.017021E+07 -1.402838E+06 -1.659748E+05 -3.827958E+06 -6.202376E-10  2.646395E-09
        58  15 -1.016103E+07 -1.468599E+06 -9.684802E+04 -3.874804E+06 -7.272285E-09 -2.977672E-09
        58  16 -8.418421E+06 -9.237619E+05  1.320925E+05 -3.299884E+06  3.668349E-09 -2.196191E-09
        58  17 -8.481401E+06 -7.542459E+05  2.960711E+05 -3.361734E+06 -3.457996E-09  1.604977E-09
        58  18 -8.549357E+06 -8.760289E+05  3.396946E+05 -3.457349E+06 -2.054767E-09  2.207887E-09
        58  19 -1.194852E+07 -2.334347E+06 -8.470563E+05 -4.328419E+06  2.579114E+05  5.121815E+04
        58  20 -1.185620E+07 -2.051235E+06 -6.282266E+05 -4.293006E+06  1.693898E+05  1.640785E+04
        58  21 -1.177017E+07 -2.061056E+06 -5.336121E+05 -4.291281E+06  7.824522E+04 -1.143042E+04
        58  22 -1.018496E+07 -1.629181E+06 -3.572710E+05 -3.814837E+06  2.568523E+05  5.084508E+04
        58  23 -1.017018E+07 -1.402829E+06 -1.659188E+05 -3.827956E+06  1.703983E+05  1.679825E+04
        58  24 -1.016103E+07 -1.468597E+06 -9.683522E+04 -3.874805E+06  8.133745E+04 -1.027119E+04
        58  25 -8.418349E+06 -9.237412E+05  1.322222E+05 -3.299874E+06  2.557887E+05  5.047016E+04
        58  26 -8.481369E+06 -7.542376E+05  2.961277E+05 -3.361732E+06  1.714093E+05  1.718960E+04
        58  27 -8.549349E+06 -8.760269E+05  3.397083E+05 -3.457350E+06  8.443843E+04 -9.108914E+03
        59   1 -1.134413E+07 -1.977059E+06 -4.077550E+05 -4.215758E+06 -6.369065E+04  1.179461E+04
        59   2 -1.121023E+07 -1.779454E+06 -3.105392E+05 -4.059858E+06 -4.055760E+04  1.244509E+04
        59   3 -1.091114E+07 -1.785751E+06 -2.359043E+05 -4.100518E+06 -1.652407E+04  1.061407E+04
        59   4 -1.013228E+07 -1.515566E+06 -7.683174E+04 -3.885941E+06 -6.567257E+04  1.105159E+04
        59   5 -1.021333E+07 -1.402811E+06 -3.859777E+04 -3.791672E+06 -4.332315E+04  1.141557E+04
        59   6 -1.012905E+07 -1.493749E+06 -2.227323E+04 -3.893963E+06 -2.008189E+04  9.296918E+03
        59   7 -8.918999E+06 -1.053984E+06  2.539566E+05 -3.555530E+06 -6.765871E+04  1.030697E+04
        59   8 -9.215451E+06 -1.026112E+06  2.332531E+05 -3.523089E+06 -4.609362E+04  1.038421E+04
        59   9 -9.346366E+06 -1.201716E+06  1.913024E+05 -3.687170E+06 -2.364471E+04  7.977956E+03
        59  10 -1.134413E+07 -1.977060E+06 -4.077630E+05 -4.215757E+06 -2.966045E-10 -3.522297E-09
        59  11 -1.121023E+07 -1.779455E+06 -3.105427E+05 -4.059857E+06  4.246194E-09  5.137331E-09
        59  12 -1.091114E+07 -1.785751E+06 -2.359050E+05 -4.100518E+06  6.699007E-09  7.781618E-09
        59  13 -1.013228E+07 -1.515567E+06 -7.684018E+04 -3.885941E+06 -1.674040E-09 -3.326888E-09
        59  14 -1.021333E+07 -1.402812E+06 -3.860158E+04 -3.791671E+06  2.765748E-09  5.313459E-09
        59  15 -1.012905E+07 -1.493749E+06 -2.227416E+04 -3.893963E+06 -1.895386E-09  2.805046E-09
        59  16 -8.919004E+06 -1.053986E+06  2.539477E+05 -3.555529E+06 -3.984659E-09 -1.143296E-09
        59  17 -9.215453E+06 -1.026112E+06  2.332488E+05 -3.523089E+06 -4.684083E-09 -2.879878E-09
        59  18 -9.346366E+06 -1.201716E+06  1.913013E+05 -3.687170E+06 -2.953105E-09 -3.638426E-09
        59  19 -1.134413E+07 -1.977059E+06 -4.077550E+05 -4.215758E+06  6.369065E+04 -1.179461E+04
        59  20 -1.121023E+07 -1.779454E+06 -3.105392E+05 -4.059858E+06  4.055760E+04 -1.244509E+04
        59  21 -1.091114E+07 -1.785751E+06 -2.359043E+05 -4.100518E+06  1.652407E+04 -1.061407E+04
        59  22 -1.013228E+07 -1.515566E+06 -7.683174E+04 -3.885941E+06  6.567257E+04 -1.105159E+04
        59  23 -1.021333E+07 -1.402811E+06 -3.859777E+04 -3.791672E+06  4.332315E+04 -1.141557E+04
        59  24 -1.012905E+07 -1.493749E+06 -2.227323E+04 -3.893963E+06  2.008189E+04 -9.296918E+03
        59  25 -8.918999E+06 -1.053984E+06  2.539566E+05 -3.555530E+06  6.765871E+04 -1.030697E+04
        59  26 -9.215451E+06 -1.026112E+06  2.332531E+05 -3.523089E+06  4.609362E+04 -1.038421E+04
        59  27 -9.346366E+06 -1.201716E+06  1.913024E+05 -3.687170E+06  2.364471E+04 -7.977956E+03
        60   1 -1.031910E+07 -1.579461E+06 -7.092187E+04 -3.954531E+06 -1.121106E+04  5.588155E+03
        60   2 -1.016258E+07 -1.373555E+06  6.220849E+03 -3.763577E+06 -2.210982E+03 -2.499524E+03
        60   3 -9.799524E+06 -1.381466E+06  7.805608E+04 -3.815480E+06  6.758549E+03 -1.049161E+04
        60   4 -1.012094E+07 -1.504626E+06 -1.779712E+04 -3.900989E+06 -1.456486E+04  4.348870E+03
        60   5 -1.022401E+07 -1.396604E+06 -1.049593E+04 -3.779950E+06 -5.532429E+03 -3.727354E+03
        60   6 -1.012061E+07 -1.502407E+06 -8.519742E+03 -3.901796E+06  3.466906E+03 -1.170865E+04
        60   7 -9.922745E+06 -1.429788E+06  3.532419E+04 -3.847431E+06 -1.791985E+04  3.109138E+03
        60   8 -1.028543E+07 -1.419652E+06 -2.721299E+04 -3.796321E+06 -8.853506E+03 -4.955047E+03
        60   9 -1.044159E+07 -1.623343E+06 -9.510457E+04 -3.988070E+06  1.771666E+02 -1.292497E+04
        60  10 -1.031910E+07 -1.579461E+06 -7.092216E+04 -3.954531E+06  4.279615E-09  6.561958E-09
        60  11 -1.016258E+07 -1.373555E+06  6.220828E+03 -3.763577E+06  1.286070E-09  5.316440E-09
        60  12 -9.799524E+06 -1.381466E+06  7.805579E+04 -3.815480E+06 -6.458856E-09 -6.763618E-10
        60  13 -1.012094E+07 -1.504626E+06 -1.779755E+04 -3.900989E+06  2.617490E-09  4.257072E-10
        60  14 -1.022401E+07 -1.396604E+06 -1.049601E+04 -3.779950E+06  2.539137E-09  2.698394E-09
        60  15 -1.012061E+07 -1.502408E+06 -8.520021E+03 -3.901796E+06 -2.488625E-10 -9.996343E-10
        60  16 -9.922745E+06 -1.429788E+06  3.532356E+04 -3.847431E+06 -2.801289E-09 -4.484432E-09
        60  17 -1.028543E+07 -1.419652E+06 -2.721318E+04 -3.796321E+06  2.237050E-09 -5.423160E-09
        60  18 -1.044159E+07 -1.623343E+06 -9.510488E+04 -3.988070E+06  1.822541E-09 -4.009346E-09
        60  19 -1.031910E+07 -1.579461E+06 -7.092187E+04 -3.954531E+06  1.121106E+04 -5.588155E+03
        60  20 -1.016258E+07 -1.373555E+06  6.220849E+03 -3.763577E+06  2.210982E+03  2.499524E+03
        60  21 -9.799524E+06 -1.381466E+06  7.805608E+04 -3.815480E+06 -6.758549E+03  1.049161E+04
        60  22 -1.012094E+07 -1.504626E+06 -1.779712E+04 -3.900989E+06  1.456486E+04 -4.348870E+03
        60  23 -1.022401E+07 -1.396604E+06 -1.049593E+04 -3.779950E+06  5.532429E+03  3.727354E+03
        60  24 -1.012061E+07 -1.502407E+06 -8.519742E+03 -3.901796E+06 -3.466906E+03  1.170865E+04
        60  25 -9.922745E+06 -1.429788E+06  3.532419E+04 -3.847431E+06  1.791985E+04 -3.109138E+03
        60  26 -1.028543E+07 -1.419652E+06 -2.721299E+04 -3.796321E+06  8.853506E+03  4.955047E+03
        60  27 -1.044159E+07 -1.623343E+06 -9.510457E+04 -3.988070E+06 -1.771666E+02  1.292497E+04
        61   1 -9.237107E+06 -1.157596E+06  2.354611E+05 -3.652671E+06  1.045657E+04 -1.591916E+04
        61   2 -9.114835E+06 -9.945334E+05  2.885305E+05 -3.498661E+06  1.844564E+04 -2.336594E+04
        61   3 -8.823614E+06 -1.002663E+06  3.378398E+05 -3.537193E+06  2.559875E+04 -2.847128E+04
        61   4 -1.012917E+07 -1.492725E+06 -8.251515E+03 -3.890806E+06  7.023100E+03 -1.719167E+04
        61   5 -1.021381E+07 -1.408807E+06 -1.073613E+04 -3.793861E+06  1.578066E+04 -2.435968E+04
        61   6 -1.012969E+07 -1.496269E+06 -1.760032E+04 -3.889503E+06  2.369974E+04 -2.918468E+04
        61   7 -1.102045E+07 -1.827812E+06 -2.520373E+05 -4.128627E+06  3.595126E+03 -1.846217E+04
        61   8 -1.131161E+07 -1.823013E+06 -3.101129E+05 -4.088582E+06  1.312092E+04 -2.535146E+04
        61   9 -1.143411E+07 -1.989778E+06 -3.731956E+05 -4.241132E+06  2.180517E+04 -2.989643E+04
        61  10 -9.237107E+06 -1.157596E+06  2.354605E+05 -3.652671E+06 -7.991143E-10  2.398208E-09
        61  11 -9.114835E+06 -9.945340E+05  2.885288E+05 -3.498660E+06  6.499543E-09  7.867256E-10
        61  12 -8.823615E+06 -1.002664E+06  3.378371E+05 -3.537192E+06 -4.093146E-09 -3.063712E-09
        61  13 -1.012917E+07 -1.492725E+06 -8.252159E+03 -3.890805E+06 -3.763571E-09 -1.894089E-09
        61  14 -1.021381E+07 -1.408807E+06 -1.073771E+04 -3.793861E+06  4.159505E-10  3.146028E-09
        61  15 -1.012970E+07 -1.496270E+06 -1.760297E+04 -3.889502E+06 -1.003285E-09  4.994817E-10
        61  16 -1.102045E+07 -1.827812E+06 -2.520380E+05 -4.128627E+06  1.101223E-09 -2.522194E-09
        61  17 -1.131161E+07 -1.823014E+06 -3.101144E+05 -4.088582E+06  1.907764E-09 -1.164446E-09
        61  18 -1.143411E+07 -1.989779E+06 -3.731981E+05 -4.241131E+06  1.634150E-09  2.480539E-09
        61  19 -9.237107E+06 -1.157596E+06  2.354611E+05 -3.652671E+06 -1.045657E+04  1.591916E+04
        61  20 -9.114835E+06 -9.945334E+05  2.885305E+05 -3.498661E+06 -1.844564E+04  2.336594E+04
        61  21 -8.823614E+06 -1.002663E+06  3.378398E+05 -3.537193E+06 -2.559875E+04  2.847128E+04
        61  22 -1.012917E+07 -1.492725E+06 -8.251515E+03 -3.890806E+06 -7.023100E+03  1.719167E+04
        61  23 -1.021381E+07 -1.408807E+06 -1.073613E+04 -3.793861E+06 -1.578066E+04  2.435968E+04
        61  24 -1.012969E+07 -1.496269E+06 -1.760032E+04 -3.889503E+06 -2.369974E+04  2.918468E+04
        61  25 -1.102045E+07 -1.827812E+06 -2.520373E+05 -4.128627E+06 -3.595126E+03  1.846217E+04
        61  26 -1.131161E+07 -1.823013E+06 -3.101129E+05 -4.088582E+06 -1.312092E+04  2.535146E+04
        61  27 -1.143411E+07 -1.989778E+06 -3.731956E+05 -4.241132E+06 -2.180517E+04  2.989643E+04
        62   1 -8.493542E+06 -8.445098E+05  4.305038E+05 -3.419194E+06  3.052509E+04 -3.083394E+04
        62   2 -8.449077E+06 -7.750304E+05  4.348434E+05 -3.355873E+06  5.080083E+04 -2.881791E+04
        62   3 -8.343108E+06 -7.965670E+05  4.200528E+05 -3.358438E+06  6.964919E+04 -2.294384E+04
        62   4 -1.015267E+07 -1.469792E+06 -2.185152E+04 -3.864745E+06  2.823004E+04 -3.169963E+04
        62   5 -1.018488E+07 -1.434675E+06 -3.872833E+04 -3.827863E+06  4.973691E+04 -2.922751E+04
        62   6 -1.015588E+07 -1.490897E+06 -7.577010E+04 -3.856878E+06  6.981190E+04 -2.289338E+04
        62   7 -1.180911E+07 -2.094923E+06 -4.744568E+05 -4.309205E+06  2.594180E+04 -3.256281E+04
        62   8 -1.191774E+07 -2.094142E+06 -5.125752E+05 -4.298639E+06  4.867620E+04 -2.963592E+04
        62   9 -1.196544E+07 -2.185021E+06 -5.718956E+05 -4.353977E+06  6.997388E+04 -2.284323E+04
        62  10 -8.493544E+06 -8.445110E+05  4.305003E+05 -3.419193E+06  1.202759E-09 -1.813879E-09
        62  11 -8.449080E+06 -7.750320E+05  4.348370E+05 -3.355872E+06  6.081061E-10  2.305323E-09
        62  12 -8.343114E+06 -7.965688E+05  4.200427E+05 -3.358437E+06  4.771152E-09 -1.122103E-09
        62  13 -1.015267E+07 -1.469794E+06 -2.185490E+04 -3.864744E+06 -1.583844E-09 -4.590750E-10
        62  14 -1.018488E+07 -1.434677E+06 -3.873461E+04 -3.827861E+06  2.093316E-10 -3.188393E-09
        62  15 -1.015588E+07 -1.490899E+06 -7.578033E+04 -3.856877E+06  1.223229E-09 -7.354720E-11
        62  16 -1.180911E+07 -2.094924E+06 -4.744601E+05 -4.309204E+06 -1.363630E-09  8.100383E-10
        62  17 -1.191774E+07 -2.094144E+06 -5.125813E+05 -4.298638E+06  3.000812E-09  1.477599E-09
        62  18 -1.196545E+07 -2.185023E+06 -5.719059E+05 -4.353975E+06 -1.262422E-09  1.968290E-10
        62  19 -8.493542E+06 -8.445098E+05  4.305038E+05 -3.419194E+06 -3.052509E+04  3.083394E+04
        62  20 -8.449077E+06 -7.750304E+05  4.348434E+05 -3.355873E+06 -5.080083E+04  2.881791E+04
        62  21 -8.343108E+06 -7.965670E+05  4.200528E+05 -3.358438E+06 -6.964919E+04  2.294384E+04
        62  22 -1.015267E+07 -1.469792E+06 -2.185152E+04 -3.864745E+06 -2.823004E+04  3.169963E+04
        62  23 -1.018488E+07 -1.434675E+06 -3.872833E+04 -3.827863E+06 -4.973691E+04  2.922751E+04
        62  24 -1.015588E+07 -1.490897E+06 -7.577010E+04 -3.856878E+06 -6.981190E+04  2.289338E+04
        62  25 -1.180911E+07 -2.094923E+06 -4.744568E+05 -4.309205E+06 -2.594180E+04  3.256281E+04
        62  26 -1.191774E+07 -2.094142E+06 -5.125752E+05 -4.298639E+06 -4.867620E+04  2.963592E+04
        62  27 -1.196544E+07 -2.185021E+06 -5.718956E+05 -4.353977E+06 -6.997388E+04  2.284323E+04
        63   1 -8.359127E+06 -7.551412E+05  4.016469E+05 -3.354201E+06  8.428951E+04 -1.763044E+04
        63   2 -8.393566E+06 -7.687636E+05  3.124636E+05 -3.386389E+06  1.682955E+05  1.565359E+04
        63   3 -8.573421E+06 -9.298047E+05  1.038603E+05 -3.292005E+06  2.502603E+05  5.419367E+04
        63   4 -1.019225E+07 -1.438210E+06 -9.595895E+04 -3.838875E+06  8.368889E+04 -1.786644E+04
        63   5 -1.013129E+07 -1.442521E+06 -1.642614E+05 -3.872480E+06  1.692124E+05  1.599039E+04
        63   6 -1.021632E+07 -1.594925E+06 -3.534575E+05 -3.779438E+06  2.527061E+05  5.510642E+04
        63   7 -1.202210E+07 -2.121115E+06 -5.938683E+05 -4.322250E+06  8.308997E+04 -1.810185E+04
        63   8 -1.186606E+07 -2.116068E+06 -6.412648E+05 -4.357310E+06  1.701258E+05  1.632581E+04
        63   9 -1.185656E+07 -2.259788E+06 -8.110300E+05 -4.265649E+06  2.551438E+05  5.601569E+04
        63  10 -8.359135E+06 -7.551434E+05  4.016328E+05 -3.354200E+06  3.437334E-09  5.711460E-10
        63  11 -8.393597E+06 -7.687716E+05  3.124092E+05 -3.386391E+06 -6.226973E-09  2.411635E-09
        63  12 -8.573490E+06 -9.298251E+05  1.037352E+05 -3.292016E+06 -5.195101E-10 -6.003914E-11
        63  13 -1.019226E+07 -1.438212E+06 -9.597287E+04 -3.838874E+06  2.928160E-09 -2.760859E-09
        63  14 -1.013132E+07 -1.442529E+06 -1.643166E+05 -3.872483E+06 -4.254287E-09  6.902256E-09
        63  15 -1.021639E+07 -1.594945E+06 -3.535855E+05 -3.779449E+06  7.790203E-10  3.412453E-09
        63  16 -1.202210E+07 -2.121117E+06 -5.938821E+05 -4.322248E+06 -1.473676E-09 -1.786007E-09
        63  17 -1.186610E+07 -2.116076E+06 -6.413208E+05 -4.357313E+06  4.775086E-09 -3.763713E-09
        63  18 -1.185663E+07 -2.259810E+06 -8.111609E+05 -4.265661E+06  4.714842E-09 -1.143530E-09
        63  19 -8.359127E+06 -7.551412E+05  4.016469E+05 -3.354201E+06 -8.428951E+04  1.763044E+04
        63  20 -8.393566E+06 -7.687636E+05  3.124636E+05 -3.386389E+06 -1.682955E+05 -1.565359E+04
        63  21 -8.573421E+06 -9.298047E+05  1.038603E+05 -3.292005E+06 -2.502603E+05 -5.419367E+04
        63  22 -1.019225E+07 -1.438210E+06 -9.595895E+04 -3.838875E+06 -8.368889E+04  1.786644E+04
        63  23 -1.013129E+07 -1.442521E+06 -1.642614E+05 -3.872480E+06 -1.692124E+05 -1.599039E+04
        63  24 -1.021632E+07 -1.594925E+06 -3.534575E+05 -3.779438E+06 -2.527061E+05 -5.510642E+04
        63  25 -1.202210E+07 -2.121115E+06 -5.938683E+05 -4.322250E+06 -8.308997E+04  1.810185E+04
        63  26 -1.186606E+07 -2.116068E+06 -6.412648E+05 -4.357310E+06 -1.701258E+05 -1.632581E+04
        63  27 -1.185656E+07 -2.259788E+06 -8.110300E+05 -4.265649E+06 -2.551438E+05 -5.601569E+04
        64   1 -8.875825E+06 -9.621925E+05 -6.861302E+04 -3.594418E+06  3.152013E+05  8.136432E+04
        64   2 -8.897607E+06 -7.747987E+05 -3.899265E+05 -3.570419E+06  6.903008E+05  2.334342E+05
        64   3 -9.758482E+06 -2.037316E+06 -1.441535E+06 -2.925900E+06  1.059397E+06  4.006806E+05
        64   4 -1.029434E+07 -1.383156E+06 -4.318800E+05 -3.861917E+06  3.145126E+05  8.117021E+04
        64   5 -9.967227E+06 -1.260757E+06 -6.972967E+05 -3.940641E+06  6.939841E+05  2.347489E+05
        64   6 -1.048123E+07 -2.590902E+06 -1.697394E+06 -3.398326E+06  1.067680E+06  4.033019E+05
        64   7 -1.171088E+07 -1.804158E+06 -7.953001E+05 -4.128943E+06  3.138249E+05  8.097629E+04
        64   8 -1.103571E+07 -1.746503E+06 -1.004779E+06 -4.310226E+06  6.976593E+05  2.360592E+05
        64   9 -1.120328E+07 -3.143793E+06 -1.953283E+06 -3.870087E+06  1.075951E+06  4.059090E+05
        64  10 -8.875935E+06 -9.622269E+05 -6.881547E+04 -3.594439E+06  1.242182E-09 -2.463324E-09
        64  11 -8.898140E+06 -7.749886E+05 -3.909414E+05 -3.570550E+06 -4.512399E-09  3.665538E-09
        64  12 -9.759748E+06 -2.037799E+06 -1.443988E+06 -2.926245E+06 -2.117976E-09 -1.888452E-09
        64  13 -1.029445E+07 -1.383190E+06 -4.320821E+05 -3.861938E+06  8.961570E-09 -1.925126E-09
        64  14 -9.967766E+06 -1.260950E+06 -6.983245E+05 -3.940774E+06 -8.115921E-09 -3.978052E-09
        64  15 -1.048252E+07 -2.591392E+06 -1.699888E+06 -3.398677E+06  2.382851E-09  3.132460E-09
        64  16 -1.171099E+07 -1.804192E+06 -7.955017E+05 -4.128964E+06  2.264007E-09 -1.930697E-09
        64  17 -1.103625E+07 -1.746698E+06 -1.005820E+06 -4.310361E+06 -4.940439E-12 -2.874669E-09
        64  18 -1.120459E+07 -3.144291E+06 -1.955820E+06 -3.870444E+06  2.572808E-09 -3.005465E-09
        64  19 -8.875825E+06 -9.621925E+05 -6.861302E+04 -3.594418E+06 -3.152013E+05 -8.136432E+04
        64  20 -8.897607E+06 -7.747987E+05 -3.899265E+05 -3.570419E+06 -6.903008E+05 -2.334342E+05
        64  21 -9.758482E+06 -2.037316E+06 -1.441535E+06 -2.925900E+06 -1.059397E+06 -4.006806E+05
        64  22 -1.029434E+07 -1.383156E+06 -4.318800E+05 -3.861917E+06 -3.145126E+05 -8.117021E+04
        64  23 -9.967227E+06 -1.260757E+06 -6.972967E+05 -3.940641E+06 -6.939841E+05 -2.347489E+05
        64  24 -1.048123E+07 -2.590902E+06 -1.697394E+06 -3.398326E+06 -1.067680E+06 -4.033019E+05
        64  25 -1.171088E+07 -1.804158E+06 -7.953001E+05 -4.128943E+06 -3.138249E+05 -8.097629E+04
        64  26 -1.103571E+07 -1.746503E+06 -1.004779E+06 -4.310226E+06 -6.976593E+05 -2.360592E+05
        64  27 -1.120328E+07 -3.143793E+06 -1.953283E+06 -3.870087E+06 -1.075951E+06 -4.059090E+05
        65   1 -1.703594E+06 -2.528265E+05 -2.036102E+05 -1.920302E+04  1.308449E+05  1.294894E+04
        65   2 -1.667158E+06 -4.290663E+05 -3.009207E+05  1.954833E+03  9.036448E+04  3.549235E+04
        65   3 -1.561734E+06 -3.862963E+05 -3.153502E+05 -6.265059E+04  5.009853E+04  3.102061E+04
        65   4 -4.371082E+04  1.614577E+05  2.092461E+05 -4.206735E+04  1.424388E+05  1.304058E+04
        65   5 -7.888729E+04 -3.307746E+04  8.945489E+04  1.516465E+03  9.343391E+04  3.550737E+04
        65   6 -4.374627E+04 -7.416100E+03  5.831289E+04 -4.064734E+04  4.464872E+04  3.098650E+04
        65   7  1.618680E+06  5.755377E+05  6.218970E+05 -6.499833E+04  1.540633E+05  1.313125E+04
        65   8  1.511683E+06  3.627238E+05  4.796448E+05  1.072841E+03  9.651095E+04  3.552236E+04
        65   9  1.476342E+06  3.712939E+05  4.318062E+05 -1.859296E+04  3.918547E+04  3.095204E+04
        65  10 -1.703613E+06 -2.528313E+05 -2.036428E+05 -1.920439E+04 -2.269202E-09  3.369043E-09
        65  11 -1.667167E+06 -4.290698E+05 -3.009384E+05  1.952247E+03  3.312554E-09 -2.480637E-09
        65  12 -1.561737E+06 -3.862980E+05 -3.153567E+05 -6.265185E+04  3.753337E-09 -8.132866E-10
        65  13 -4.373265E+04  1.614520E+05  2.092076E+05 -4.206884E+04 -1.122599E-11  8.750478E-10
        65  14 -7.889700E+04 -3.308116E+04  8.943611E+04  1.513793E+03 -5.221382E-09 -9.852451E-09
        65  15 -4.374867E+04 -7.417666E+03  5.830734E+04 -4.064845E+04  1.988540E-09 -3.829980E-10
        65  16  1.618654E+06  5.755311E+05  6.218522E+05 -6.499995E+04  3.389753E-12 -1.463397E-09
        65  17  1.511673E+06  3.627200E+05  4.796250E+05  1.070084E+03 -3.979704E-09 -2.557268E-09
        65  18  1.476340E+06  3.712925E+05  4.318015E+05 -1.859393E+04 -7.026370E-09 -3.329706E-09
        65  19 -1.703594E+06 -2.528265E+05 -2.036102E+05 -1.920302E+04 -1.308449E+05 -1.294894E+04
        65  20 -1.667158E+06 -4.290663E+05 -3.009207E+05  1.954833E+03 -9.036448E+04 -3.549235E+04
        65  21 -1.561734E+06 -3.862963E+05 -3.153502E+05 -6.265059E+04 -5.009853E+04 -3.102061E+04
        65  22 -4.371082E+04  1.614577E+05  2.092461E+05 -4.206735E+04 -1.424388E+05 -1.304058E+04
        65  23 -7.888729E+04 -3.307746E+04  8.945489E+04  1.516465E+03 -9.343391E+04 -3.550737E+04
        65  24 -4.374627E+04 -7.416100E+03  5.831289E+04 -4.064734E+04 -4.464872E+04 -3.098650E+04
        65  25  1.618680E+06  5.755377E+05  6.218970E+05 -6.499833E+04 -1.540633E+05 -1.313125E+04
        65  26  1.511683E+06  3.627238E+05  4.796448E+05  1.072841E+03 -9.651095E+04 -3.552236E+04
        65  27  1.476342E+06  3.712939E+05  4.318062E+05 -1.859296E+04 -3.918547E+04 -3.095204E+04
        66   1 -1.392660E+06 -3.126135E+05 -2.814314E+05 -4.184205E+04  3.451391E+04  2.535532E+04
        66   2 -1.328715E+06 -3.203155E+05 -2.883706E+05 -7.215829E+02  2.346128E+04  2.575407E+04
        66   3 -1.250636E+06 -2.990993E+05 -2.797598E+05 -4.518253E+04  1.241304E+04  2.298849E+04
        66   4 -5.602585E+04  2.078961E+04  4.789107E+04 -4.111726E+04  3.519881E+04  2.535492E+04
        66   5 -6.317789E+04 -4.702500E+03  2.306231E+04  1.718511E+03  2.313769E+04  2.574951E+04
        66   6 -5.603712E+04 -1.129566E+03  1.446253E+04 -4.101603E+04  1.108223E+04  2.298258E+04
        66   7  1.282236E+06  3.540596E+05  3.770815E+05 -4.039282E+04  3.588513E+04  2.535451E+04
        66   8  1.203819E+06  3.107913E+05  3.343771E+05  4.162279E+03  2.281339E+04  2.574496E+04
        66   9  1.139861E+06  2.967339E+05  3.085794E+05 -3.684221E+04  9.748845E+03  2.297666E+04
        66  10 -1.392661E+06 -3.126145E+05 -2.814348E+05 -4.184275E+04 -3.404279E-09 -3.186229E-09
        66  11 -1.328716E+06 -3.203164E+05 -2.883728E+05 -7.220699E+02 -1.936851E-10  3.349152E-09
        66  12 -1.250636E+06 -2.990999E+05 -2.797610E+05 -4.518276E+04  4.219567E-09 -3.482915E-09
        66  13 -5.602736E+04  2.078859E+04  4.788754E+04 -4.111798E+04  2.168548E-09 -1.883677E-09
        66  14 -6.317865E+04 -4.703356E+03  2.306006E+04  1.718032E+03  5.843055E-10 -1.256053E-09
        66  15 -5.603739E+04 -1.130166E+03  1.446131E+04 -4.101623E+04  4.320678E-09 -3.590971E-09
        66  16  1.282234E+06  3.540586E+05  3.770779E+05 -4.039355E+04  2.019368E-09  1.227576E-09
        66  17  1.203818E+06  3.107905E+05  3.343748E+05  4.161807E+03 -9.668348E-10 -4.908557E-09
        66  18  1.139861E+06  2.967333E+05  3.085783E+05 -3.684239E+04 -1.759563E-09 -2.448295E-10
        66  19 -1.392660E+06 -3.126135E+05 -2.814314E+05 -4.184205E+04 -3.451391E+04 -2.535532E+04
        66  20 -1.328715E+06 -3.203155E+05 -2.883706E+05 -7.215829E+02 -2.346128E+04 -2.575407E+04
        66  21 -1.250636E+06 -2.990993E+05 -2.797598E+05 -4.518253E+04 -1.241304E+04 -2.298849E+04
        66  22 -5.602585E+04  2.078961E+04  4.789107E+04 -4.111726E+04 -3.519881E+04 -2.535492E+04
        66  23 -6.317789E+04 -4.702500E+03  2.306231E+04  1.718511E+03 -2.313769E+04 -2.574951E+04
        66  24 -5.603712E+04 -1.129566E+03  1.446253E+04 -4.101603E+04 -1.108223E+04 -2.298258E+04
        66  25  1.282236E+06  3.540596E+05  3.770815E+05 -4.039282E+04 -3.588513E+04 -2.535451E+04
        66  26  1.203819E+06  3.107913E+05  3.343771E+05  4.162279E+03 -2.281339E+04 -2.574496E+04
        66  27  1.139861E+06  2.967339E+05  3.085794E+05 -3.684221E+04 -9.748845E+03 -2.297666E+04
        67   1 -1.069333E+06 -2.497456E+05 -2.373395E+05 -4.209928E+04  9.348185E+03  2.102548E+04
        67   2 -9.998818E+05 -2.350631E+05 -2.254740E+05  1.371777E+03  6.514057E+03  1.883665E+04
        67   3 -9.263459E+05 -2.166078E+05 -2.102508E+05 -4.136001E+04  3.672993E+03  1.626986E+04
        67   4 -5.817262E+04  2.362680E+03  1.135289E+04 -4.118817E+04  8.736124E+03  2.102223E+04
        67   5 -6.022643E+04 -7.644924E+02  5.763460E+03  1.911386E+03  5.779881E+03  1.883421E+04
        67   6 -5.817993E+04 -9.940257E+01  3.613369E+03 -4.118384E+04  2.817028E+03  1.626849E+04
        67   7  9.539190E+05  2.543949E+05  2.599700E+05 -4.027594E+04  8.123058E+03  2.101898E+04
        67   8  8.802332E+05  2.334684E+05  2.369358E+05  2.451641E+03  5.044590E+03  1.883176E+04
        67   9  8.106724E+05  2.163529E+05  2.174219E+05 -4.100739E+04  1.959864E+03  1.626712E+04
        67  10 -1.069333E+06 -2.497461E+05 -2.373405E+05 -4.209944E+04  3.286226E-09 -2.060718E-09
        67  11 -9.998820E+05 -2.350635E+05 -2.254748E+05  1.371679E+03 -2.391205E-09 -1.926444E-10
        67  12 -9.263460E+05 -2.166081E+05 -2.102514E+05 -4.136006E+04 -5.466375E-09  1.014105E-09
        67  13 -5.817282E+04  2.362185E+03  1.135192E+04 -4.118832E+04  2.153296E-09 -2.927772E-09
        67  14 -6.022656E+04 -7.648823E+02  5.762730E+03  1.911298E+03 -1.205699E-09 -4.781306E-10
        67  15 -5.818001E+04 -9.968890E+01  3.612856E+03 -4.118388E+04  2.416479E-09  1.502294E-09
        67  16  9.539188E+05  2.543944E+05  2.599690E+05 -4.027608E+04 -2.613837E-09 -1.718289E-09
        67  17  8.802331E+05  2.334680E+05  2.369351E+05  2.451565E+03  7.436742E-11 -1.706687E-09
        67  18  8.106723E+05  2.163526E+05  2.174214E+05 -4.100742E+04  8.027937E-09  1.577336E-09
        67  19 -1.069333E+06 -2.497456E+05 -2.373395E+05 -4.209928E+04 -9.348185E+03 -2.102548E+04
        67  20 -9.998818E+05 -2.350631E+05 -2.254740E+05  1.371777E+03 -6.514057E+03 -1.883665E+04
        67  21 -9.263459E+05 -2.166078E+05 -2.102508E+05 -4.136001E+04 -3.672993E+03 -1.626986E+04
        67  22 -5.817262E+04  2.362680E+03  1.135289E+04 -4.118817E+04 -8.736124E+03 -2.102223E+04
        67  23 -6.022643E+04 -7.644924E+02  5.763460E+03  1.911386E+03 -5.779881E+03 -1.883421E+04
        67  24 -5.817993E+04 -9.940257E+01  3.613369E+03 -4.118384E+04 -2.817028E+03 -1.626849E+04
        67  25  9.539190E+05  2.543949E+05  2.599700E+05 -4.027594E+04 -8.123058E+03 -2.101898E+04
        67  26  8.802332E+05  2.334684E+05  2.369358E+05  2.451641E+03 -5.044590E+03 -1.883176E+04
        67  27  8.106724E+05  2.163529E+05  2.174219E+05 -4.100739E+04 -1.959864E+03 -1.626712E+04
        68   1 -7.422152E+05 -1.701535E+05 -1.652528E+05 -4.101283E+04  2.999456E+03  1.473211E+04
        68   2 -6.708756E+05 -1.526102E+05 -1.491221E+05  2.514111E+03  2.323558E+03  1.222861E+04
        68   3 -5.984253E+05 -1.344359E+05 -1.322179E+05 -4.059623E+04  1.642833E+03  9.677653E+03
        68   4 -5.875317E+04  1.953452E+02  2.701479E+03 -4.128213E+04  2.227956E+03  1.473148E+04
        68   5 -5.931000E+04 -1.484450E+02  1.351492E+03  2.033936E+03  1.536528E+03  1.222870E+04
        68   6 -5.875784E+04  1.419639E+02  7.856376E+02 -4.128201E+04  8.403505E+02  9.678496E+03
        68   7  6.251344E+05  1.705095E+05  1.706214E+05 -4.155165E+04  1.455606E+03  1.473086E+04
        68   8  5.525962E+05  1.522854E+05  1.517975E+05  1.553378E+03  7.487219E+02  1.222879E+04
        68   9  4.811747E+05  1.346981E+05  1.337677E+05 -4.196825E+04  3.717047E+01  9.679341E+03
        68  10 -7.422152E+05 -1.701537E+05 -1.652532E+05 -4.101287E+04  8.513548E-10  6.760354E-10
        68  11 -6.708756E+05 -1.526103E+05 -1.491224E+05  2.514088E+03 -5.842225E-09  3.898110E-10
        68  12 -5.984253E+05 -1.344360E+05 -1.322181E+05 -4.059625E+04 -4.022063E-09  5.511260E-10
        68  13 -5.875323E+04  1.951108E+02  2.701062E+03 -4.128215E+04  2.160913E-11  1.141044E-09
        68  14 -5.931004E+04 -1.486062E+02  1.351206E+03  2.033920E+03 -6.338888E-09 -1.811393E-09
        68  15 -5.875787E+04  1.418631E+02  7.854603E+02 -4.128201E+04 -4.496460E-09 -1.096681E-09
        68  16  6.251343E+05  1.705092E+05  1.706210E+05 -4.155167E+04 -5.613763E-10  7.957141E-10
        68  17  5.525961E+05  1.522853E+05  1.517972E+05  1.553370E+03 -1.944150E-09 -1.584492E-09
        68  18  4.811747E+05  1.346980E+05  1.337675E+05 -4.196825E+04  5.308206E-09 -1.476276E-09
        68  19 -7.422152E+05 -1.701535E+05 -1.652528E+05 -4.101283E+04 -2.999456E+03 -1.473211E+04
        68  20 -6.708756E+05 -1.526102E+05 -1.491221E+05  2.514111E+03 -2.323558E+03 -1.222861E+04
        68  21 -5.984253E+05 -1.344359E+05 -1.322179E+05 -4.059623E+04 -1.642833E+03 -9.677653E+03
        68  22 -5.875317E+04  1.953452E+02  2.701479E+03 -4.128213E+04 -2.227956E+03 -1.473148E+04
        68  23 -5.931000E+04 -1.484450E+02  1.351492E+03  2.033936E+03 -1.536528E+03 -1.222870E+04
        68  24 -5.875784E+04  1.419639E+02  7.856376E+02 -4.128201E+04 -8.403505E+02 -9.678496E+03
        68  25  6.251344E+05  1.705095E+05  1.706214E+05 -4.155165E+04 -1.455606E+03 -1.473086E+04
        68  26  5.525962E+05  1.522854E+05  1.517975E+05  1.553378E+03 -7.487219E+02 -1.222879E+04
        68  27  4.811747E+05  1.346981E+05  1.337677E+05 -4.196825E+04 -3.717047E+01 -9.679341E+03
        69   1 -4.131538E+05 -8.813024E+04 -8.643128E+04 -4.084517E+04  1.513035E+03  8.181792E+03
        69   2 -3.409317E+05 -7.030071E+04 -6.934292E+04  2.559612E+03  1.486300E+03  5.632221E+03
        69   3 -2.688853E+05 -5.222907E+04 -5.222860E+04 -4.092277E+04  1.457413E+03  3.095774E+03
        69   4 -5.899137E+04  1.037302E+02  4.717358E+02 -4.133822E+04  7.161284E+02  8.183064E+03
        69   5 -5.890246E+04 -4.484283E+00  3.655014E+01  2.104145E+03  6.934175E+02  5.633810E+03
        69   6 -5.899353E+04  1.293999E+02 -3.748775E+02 -4.133819E+04  6.685565E+02  3.097695E+03
        69   7  2.952853E+05  8.832839E+04  8.736554E+04 -4.183150E+04 -8.123200E+01  8.184338E+03
        69   8  2.231992E+05  7.028582E+04  6.941016E+04  1.648510E+03 -9.982517E+01  5.635400E+03
        69   9  1.509383E+05  5.248458E+04  5.147558E+04 -4.175372E+04 -1.205666E+02  3.099616E+03
        69  10 -4.131538E+05 -8.813031E+04 -8.643141E+04 -4.084518E+04 -1.020027E-09 -6.521426E-10
        69  11 -3.409317E+05 -7.030074E+04 -6.934299E+04  2.559605E+03  3.086198E-10 -1.633317E-09
        69  12 -2.688853E+05 -5.222908E+04 -5.222862E+04 -4.092277E+04 -2.910281E-09 -1.855849E-10
        69  13 -5.899139E+04  1.036581E+02  4.716090E+02 -4.133822E+04 -4.280186E-09  1.937887E-09
        69  14 -5.890246E+04 -4.518495E+00  3.648959E+01  2.104142E+03  3.120272E-10  1.836963E-09
        69  15 -5.899353E+04  1.293894E+02 -3.748963E+02 -4.133819E+04  2.674234E-09 -2.661758E-09
        69  16  2.952853E+05  8.832832E+04  8.736542E+04 -4.183150E+04 -4.055652E-09 -3.637336E-10
        69  17  2.231992E+05  7.028579E+04  6.941010E+04  1.648511E+03 -5.106280E-09  6.560788E-10
        69  18  1.509383E+05  5.248457E+04  5.147556E+04 -4.175372E+04  1.430228E-09  5.419049E-10
        69  19 -4.131538E+05 -8.813024E+04 -8.643128E+04 -4.084517E+04 -1.513035E+03 -8.181792E+03
        69  20 -3.409317E+05 -7.030071E+04 -6.934292E+04  2.559612E+03 -1.486300E+03 -5.632221E+03
        69  21 -2.688853E+05 -5.222907E+04 -5.222860E+04 -4.092277E+04 -1.457413E+03 -3.095774E+03
        69  22 -5.899137E+04  1.037302E+02  4.717358E+02 -4.133822E+04 -7.161284E+02 -8.183064E+03
        69  23 -5.890246E+04 -4.484283E+00  3.655014E+01  2.104145E+03 -6.934175E+02 -5.633810E+03
        69  24 -5.899353E+04  1.293999E+02 -3.748775E+02 -4.133819E+04 -6.685565E+02 -3.097695E+03
        69  25  2.952853E+05  8.832839E+04  8.736554E+04 -4.183150E+04  8.123200E+01 -8.184338E+03
        69  26  2.231992E+05  7.028582E+04  6.941016E+04  1.648510E+03  9.982517E+01 -5.635400E+03
        69  27  1.509383E+05  5.248458E+04  5.147558E+04 -4.175372E+04  1.205666E+02 -3.099616E+03
        70   1 -8.308659E+04 -5.716860E+03 -6.293833E+03 -4.138741E+04  1.581362E+03  1.578154E+03
        70   2 -1.050917E+04  1.214886E+04  1.063324E+04  2.053274E+03  2.140998E+03 -9.900419E+02
        70   3  6.133895E+04  2.949734E+04  2.695498E+04 -4.145937E+04  2.701526E+03 -3.373550E+03
        70   4 -5.910527E+04  2.143025E+02 -6.194867E+02 -4.135292E+04  7.517607E+02  1.580295E+03
        70   5 -5.873249E+04  1.324425E+02 -1.223049E+03  2.123095E+03  1.368913E+03 -9.881140E+02
        70   6 -5.910494E+04 -4.765923E+02 -2.471922E+03 -4.135464E+04  1.986894E+03 -3.371812E+03
        70   7 -3.512341E+04  6.145424E+03  5.054822E+03 -4.131843E+04 -7.787269E+01  1.582436E+03
        70   8 -1.069537E+05 -1.188414E+04 -1.307951E+04  2.192911E+03  5.968883E+02 -9.861862E+02
        70   9 -1.795356E+05 -3.045160E+04 -3.189988E+04 -4.124992E+04  1.272400E+03 -3.370074E+03
        70  10 -8.308660E+04 -5.716863E+03 -6.293842E+03 -4.138742E+04  4.272620E-10  3.080949E-09
        70  11 -1.050918E+04  1.214885E+04  1.063323E+04  2.053275E+03 -5.642564E-09 -1.533351E-09
        70  12  6.133894E+04  2.949733E+04  2.695494E+04 -4.145936E+04 -2.694857E-09  1.047176E-09
        70  13 -5.910527E+04  2.142996E+02 -6.194925E+02 -4.135292E+04 -2.173974E-09 -1.092538E-09
        70  14 -5.873249E+04  1.324410E+02 -1.223054E+03  2.123096E+03 -1.863111E-09 -4.437978E-09
        70  15 -5.910495E+04 -4.766056E+02 -2.471951E+03 -4.135463E+04 -2.347603E-10  1.378542E-09
        70  16 -3.512341E+04  6.145421E+03  5.054818E+03 -4.131843E+04  1.017174E-09  3.211573E-09
        70  17 -1.069537E+05 -1.188414E+04 -1.307951E+04  2.192912E+03 -3.449548E-09 -4.574226E-09
        70  18 -1.795356E+05 -3.045161E+04 -3.189990E+04 -4.124991E+04  2.899055E-09 -9.343684E-10
        70  19 -8.308659E+04 -5.716860E+03 -6.293833E+03 -4.138741E+04 -1.581362E+03 -1.578154E+03
        70  20 -1.050917E+04  1.214886E+04  1.063324E+04  2.053274E+03 -2.140998E+03  9.900419E+02
        70  21  6.133895E+04  2.949734E+04  2.695498E+04 -4.145937E+04 -2.701526E+03  3.373550E+03
        70  22 -5.910527E+04  2.143025E+02 -6.194867E+02 -4.135292E+04 -7.517607E+02 -1.580295E+03
        70  23 -5.873249E+04  1.324425E+02 -1.223049E+03  2.123095E+03 -1.368913E+03  9.881140E+02
        70  24 -5.910494E+04 -4.765923E+02 -2.471922E+03 -4.135464E+04 -1.986894E+03  3.371812E+03
        70  25 -3.512341E+04  6.145424E+03  5.054822E+03 -4.131843E+04  7.787269E+01 -1.582436E+03
        70  26 -1.069537E+05 -1.188414E+04 -1.307951E+04  2.192911E+03 -5.968883E+02  9.861862E+02
        70  27 -1.795356E+05 -3.045160E+04 -3.189988E+04 -4.124992E+04 -1.272400E+03  3.370074E+03
        71   1  2.469569E+05  7.678269E+04  7.243104E+04 -4.236465E+04  3.553533E+03 -5.101921E+03
        71   2  3.200216E+05  9.522149E+04  8.780930E+04  1.763699E+03  5.759694E+03 -7.752958E+03
        71   3  3.912568E+05  1.074895E+05  1.002047E+05 -4.091968E+04  7.971572E+03 -8.818100E+03
        71   4 -5.939160E+04  4.070623E+02 -3.113352E+03 -4.131957E+04  2.479269E+03 -5.099531E+03
        71   5 -5.842948E+04  9.385482E+02 -5.215727E+03  2.083585E+03  5.178930E+03 -7.752118E+03
        71   6 -5.938891E+04 -4.788420E+03 -1.064492E+04 -4.132837E+04  7.884053E+03 -8.818377E+03
        71   7 -3.656548E+05 -7.597555E+04 -7.866468E+04 -4.027496E+04  1.405533E+03 -5.097144E+03
        71   8 -4.367503E+05 -9.335504E+04 -9.825130E+04  2.403340E+03  4.598519E+03 -7.751279E+03
        71   9 -5.098499E+05 -1.170814E+05 -1.215095E+05 -4.173668E+04  7.796597E+03 -8.818655E+03
        71  10  2.469569E+05  7.678266E+04  7.243096E+04 -4.236463E+04  1.312749E-10 -1.690996E-09
        71  11  3.200216E+05  9.522142E+04  8.780912E+04  1.763735E+03 -4.677267E-09  1.702097E-10
        71  12  3.912567E+05  1.074894E+05  1.002044E+05 -4.091962E+04 -1.046520E-09  8.442203E-10
        71  13 -5.939161E+04  4.070327E+02 -3.113412E+03 -4.131956E+04  3.299425E-12  1.452766E-09
        71  14 -5.842952E+04  9.384765E+02 -5.215890E+03  2.083617E+03  1.326048E-09  3.046816E-10
        71  15 -5.938900E+04 -4.788520E+03 -1.064518E+04 -4.132831E+04  7.678075E-09  5.734784E-10
        71  16 -3.656548E+05 -7.597558E+04 -7.866473E+04 -4.027496E+04  1.587615E-10  2.136239E-09
        71  17 -4.367503E+05 -9.335511E+04 -9.825145E+04  2.403369E+03  1.842894E-09  2.562193E-09
        71  18 -5.098500E+05 -1.170815E+05 -1.215098E+05 -4.173663E+04 -3.526150E-10 -1.156725E-09
        71  19  2.469569E+05  7.678269E+04  7.243104E+04 -4.236465E+04 -3.553533E+03  5.101921E+03
        71  20  3.200216E+05  9.522149E+04  8.780930E+04  1.763699E+03 -5.759694E+03  7.752958E+03
        71  21  3.912568E+05  1.074895E+05  1.002047E+05 -4.091968E+04 -7.971572E+03  8.818100E+03
        71  22 -5.939160E+04  4.070623E+02 -3.113352E+03 -4.131957E+04 -2.479269E+03  5.099531E+03
        71  23 -5.842948E+04  9.385482E+02 -5.215727E+03  2.083585E+03 -5.178930E+03  7.752118E+03
        71  24 -5.938891E+04 -4.788420E+03 -1.064492E+04 -4.132837E+04 -7.884053E+03  8.818377E+03
        71  25 -3.656548E+05 -7.597555E+04 -7.866468E+04 -4.027496E+04 -1.405533E+03  5.097144E+03
        71  26 -4.367503E+05 -9.335504E+04 -9.825130E+04  2.403340E+03 -4.598519E+03  7.751279E+03
        71  27 -5.098499E+05 -1.170814E+05 -1.215095E+05 -4.173668E+04 -7.796597E+03  8.818655E+03
        72   1  5.743988E+05  1.601341E+05  1.436229E+05 -4.536684E+04  1.311034E+04 -1.234803E+04
        72   2  6.521743E+05  1.833140E+05  1.535005E+05  3.636756E+03  1.985375E+04 -1.568878E+04
        72   3  7.184473E+05  1.586095E+05  1.472919E+05 -3.364895E+04  2.660286E+04 -5.499336E+03
        72   4 -6.174905E+04  1.635727E+03 -1.286263E+04 -4.120358E+04  9.950079E+03 -1.234456E+04
        72   5 -5.561948E+04  7.070403E+03 -2.019981E+04  1.943018E+03  2.090787E+04 -1.569064E+04
        72   6 -6.174451E+04 -3.614034E+04 -4.656373E+04 -4.120634E+04  3.187043E+04 -5.499881E+03
        72   7 -6.975288E+05 -1.568927E+05 -1.693779E+05 -3.704446E+04  6.793046E+03 -1.234112E+04
        72   8 -7.629575E+05 -1.692103E+05 -1.939369E+05  2.512816E+02  2.196077E+04 -1.569250E+04
        72   9 -8.413841E+05 -2.309357E+05 -2.404648E+05 -4.875422E+04  3.713137E+04 -5.500555E+03
        72  10  5.743986E+05  1.601339E+05  1.436223E+05 -4.536671E+04 -1.351622E-09  7.791654E-10
        72  11  6.521738E+05  1.833136E+05  1.534993E+05  3.637007E+03  2.692226E-09  1.724706E-10
        72  12  7.184465E+05  1.586093E+05  1.472905E+05 -3.364884E+04 -7.241734E-10  2.522292E-11
        72  13 -6.174920E+04  1.635537E+03 -1.286310E+04 -4.120348E+04 -2.117547E-09  2.256532E-09
        72  14 -5.562002E+04  7.070021E+03 -2.020109E+04  1.943282E+03 -1.001988E-09  2.047043E-10
        72  15 -6.174561E+04 -3.614064E+04 -4.656569E+04 -4.120620E+04  4.102448E-09  1.213803E-10
        72  16 -6.975289E+05 -1.568929E+05 -1.693783E+05 -3.704439E+04 -7.477748E-10 -1.098719E-09
        72  17 -7.629580E+05 -1.692107E+05 -1.939383E+05  2.515593E+02  2.914449E-09  7.026160E-10
        72  18 -8.413856E+05 -2.309361E+05 -2.404674E+05 -4.875405E+04 -5.235377E-11  3.804382E-10
        72  19  5.743988E+05  1.601341E+05  1.436229E+05 -4.536684E+04 -1.311034E+04  1.234803E+04
        72  20  6.521743E+05  1.833140E+05  1.535005E+05  3.636756E+03 -1.985375E+04  1.568878E+04
        72  21  7.184473E+05  1.586095E+05  1.472919E+05 -3.364895E+04 -2.660286E+04  5.499336E+03
        72  22 -6.174905E+04  1.635727E+03 -1.286263E+04 -4.120358E+04 -9.950079E+03  1.234456E+04
        72  23 -5.561948E+04  7.070403E+03 -2.019981E+04  1.943018E+03 -2.090787E+04  1.569064E+04
        72  24 -6.174451E+04 -3.614034E+04 -4.656373E+04 -4.120634E+04 -3.187043E+04  5.499881E+03
        72  25 -6.975288E+05 -1.568927E+05 -1.693779E+05 -3.704446E+04 -6.793046E+03  1.234112E+04
        72  26 -7.629575E+05 -1.692103E+05 -1.939369E+05  2.512816E+02 -2.196077E+04  1.569250E+04
        72  27 -8.413841E+05 -2.309357E+05 -2.404648E+05 -4.875422E+04 -3.713137E+04  5.500555E+03
        73   1  1.745456E+06  5.933568E+06  1.668484E+06 -1.511768E+06  7.279678E+04  3.772522E+05
        73   2  1.249139E+06  4.271797E+06  1.089955E+06 -1.265381E+06  2.277318E+05  1.049341E+05
        73   3  8.525399E+05  2.665483E+06  7.117681E+05 -1.446275E+06  2.066619E+05 -1.683599E+05
        73   4  8.896700E+04 -7.633500E+05  7.038279E+04 -1.415345E+06  7.695677E+04  3.548481E+04
        73   5  3.355526E+04 -7.656933E+05  4.430624E+04 -1.202003E+06  2.290378E+05  1.471079E+04
        73   6  3.494382E+04 -7.581551E+05  4.512152E+04 -1.416063E+06  2.044879E+05 -7.778743E+03
        73   7 -1.570680E+06 -7.419113E+06 -1.530439E+06 -1.319797E+06  8.103733E+04 -3.026398E+05
        73   8 -1.183629E+06 -5.779219E+06 -1.002700E+06 -1.139049E+06  2.303319E+05 -7.479676E+04
        73   9 -7.833397E+05 -4.170511E+06 -6.219859E+05 -1.385972E+06  2.023223E+05  1.519392E+05
        73  10  1.745412E+06  5.933415E+06  1.668209E+06 -1.511790E+06 -6.099715E-10  2.840570E-09
        73  11  1.249081E+06  4.271771E+06  1.089836E+06 -1.265400E+06 -1.563128E-09 -1.826486E-08
        73  12  8.524866E+05  2.665441E+06  7.116352E+05 -1.446247E+06  8.804575E-09 -7.438887E-09
        73  13  8.896030E+04 -7.633529E+05  7.036927E+04 -1.415347E+06  4.785207E-09 -2.121695E-11
        73  14  3.349888E+04 -7.657076E+05  4.420726E+04 -1.202006E+06 -1.867662E-09  5.454298E-09
        73  15  3.489892E+04 -7.581664E+05  4.504288E+04 -1.416062E+06  4.715374E-09 -4.980754E-10
        73  16 -1.570712E+06 -7.419214E+06 -1.530625E+06 -1.319777E+06  1.674650E-09 -5.152037E-09
        73  17 -1.183687E+06 -5.779239E+06 -1.002810E+06 -1.139035E+06  1.095881E-08  1.150084E-08
        73  18 -7.833900E+05 -4.170547E+06 -6.221067E+05 -1.385997E+06 -5.532446E-09  2.642434E-09
        73  19  1.745456E+06  5.933568E+06  1.668484E+06 -1.511768E+06 -7.279678E+04 -3.772522E+05
        73  20  1.249139E+06  4.271797E+06  1.089955E+06 -1.265381E+06 -2.277318E+05 -1.049341E+05
        73  21  8.525399E+05  2.665483E+06  7.117681E+05 -1.446275E+06 -2.066619E+05  1.683599E+05
        73  22  8.896700E+04 -7.633500E+05  7.038279E+04 -1.415345E+06 -7.695677E+04 -3.548481E+04
        73  23  3.355526E+04 -7.656933E+05  4.430624E+04 -1.202003E+06 -2.290378E+05 -1.471079E+04
        73  24  3.494382E+04 -7.581551E+05  4.512152E+04 -1.416063E+06 -2.044879E+05  7.778743E+03
        73  25 -1.570680E+06 -7.419113E+06 -1.530439E+06 -1.319797E+06 -8.103733E+04  3.026398E+05
        73  26 -1.183629E+06 -5.779219E+06 -1.002700E+06 -1.139049E+06 -2.303319E+05  7.479676E+04
        73  27 -7.833397E+05 -4.170511E+06 -6.219859E+05 -1.385972E+06 -2.023223E+05 -1.519392E+05
        74   1  5.891746E+05  1.544844E+06  4.995024E+05 -1.446702E+06  1.395029E+05 -1.466136E+05
        74   2  1.938009E+05 -8.634415E+04  1.995805E+05 -1.205171E+06  4.745243E+04 -1.871066E+05
        74   3 -1.729556E+05 -1.715398E+06 -7.030696E+04 -1.401384E+06 -4.684308E+04 -2.275860E+05
        74   4  3.823202E+04 -7.593086E+05  5.029981E+04 -1.418265E+06  1.376642E+05 -1.687928E+04
        74   5  3.387880E+04 -7.584287E+05  7.267468E+04 -1.199268E+06  4.553695E+04 -5.431827E+04
        74   6  5.773454E+04 -7.585752E+05  1.229450E+05 -1.417995E+06 -4.884150E+04 -9.184281E+04
        74   7 -5.130189E+05 -3.058335E+06 -3.990927E+05 -1.389913E+06  1.358333E+05  1.123851E+05
        74   8 -1.260602E+05 -1.430039E+06 -5.418475E+04 -1.193370E+06  4.362275E+04  7.832985E+04
        74   9  2.883783E+05  1.991619E+05  3.162193E+05 -1.434628E+06 -5.084536E+04  4.410611E+04
        74  10  5.891480E+05  1.544816E+06  4.994258E+05 -1.446686E+06  4.623944E-09 -1.084255E-09
        74  11  1.937892E+05 -8.638232E+04  1.995105E+05 -1.205164E+06  6.535567E-11 -2.220712E-08
        74  12 -1.729720E+05 -1.715454E+06 -7.040879E+04 -1.401393E+06  2.246220E-09 -2.314385E-09
        74  13  3.821161E+04 -7.593140E+05  5.026370E+04 -1.418264E+06 -1.583558E-09 -1.090004E-10
        74  14  3.387579E+04 -7.584324E+05  7.266525E+04 -1.199266E+06 -1.058061E-08  5.976398E-09
        74  15  5.772969E+04 -7.585850E+05  1.229246E+05 -1.417998E+06 -5.811969E-10 -4.540119E-10
        74  16 -5.130422E+05 -3.058354E+06 -3.991514E+05 -1.389926E+06 -6.623461E-10 -2.240613E-09
        74  17 -1.260639E+05 -1.430046E+06 -5.419991E+04 -1.193373E+06 -2.820108E-09  1.075401E-08
        74  18  2.883750E+05  1.991591E+05  3.162108E+05 -1.434626E+06 -1.035444E-10 -3.449118E-09
        74  19  5.891746E+05  1.544844E+06  4.995024E+05 -1.446702E+06 -1.395029E+05  1.466136E+05
        74  20  1.938009E+05 -8.634415E+04  1.995805E+05 -1.205171E+06 -4.745243E+04  1.871066E+05
        74  21 -1.729556E+05 -1.715398E+06 -7.030696E+04 -1.401384E+06  4.684308E+04  2.275860E+05
        74  22  3.823202E+04 -7.593086E+05  5.029981E+04 -1.418265E+06 -1.376642E+05  1.687928E+04
        74  23  3.387880E+04 -7.584287E+05  7.267468E+04 -1.199268E+06 -4.553695E+04  5.431827E+04
        74  24  5.773454E+04 -7.585752E+05  1.229450E+05 -1.417995E+06  4.884150E+04  9.184281E+04
        74  25 -5.130189E+05 -3.058335E+06 -3.990927E+05 -1.389913E+06 -1.358333E+05 -1.123851E+05
        74  26 -1.260602E+05 -1.430039E+06 -5.418475E+04 -1.193370E+06 -4.362275E+04 -7.832985E+04
        74  27  2.883783E+05  1.991619E+05  3.162193E+05 -1.434628E+06  5.084536E+04 -4.410611E+04
        75   1 -4.602510E+05 -2.808347E+06 -2.532344E+05 -1.442839E+06 -1.132713E+05 -2.735983E+05
        75   2 -7.910314E+05 -4.463953E+06 -4.994729E+05 -1.038411E+06 -1.558816E+05 -2.144199E+05
        75   3 -7.911610E+05 -6.051280E+06 -7.040759E+05 -1.062010E+06 -5.477407E+04 -1.538189E+05
        75   4  3.576611E+04 -7.367763E+05  1.572435E+05 -1.416869E+06 -1.155896E+05 -1.140114E+05
        75   5  1.060506E+05 -7.886561E+05  2.766083E+05 -1.199880E+06 -1.551751E+05 -2.578971E+05
        75   6  5.411955E+05 -7.403319E+05  5.784131E+05 -1.410305E+06 -5.146638E+04 -4.002359E+05
        75   7  5.315403E+05  1.338974E+06  5.676069E+05 -1.390791E+06 -1.178899E+05  4.609938E+04
        75   8  1.002338E+06  2.899504E+06  1.051942E+06 -1.362272E+06 -1.544484E+05 -3.016257E+05
        75   9  1.871915E+06  4.596939E+06  1.859156E+06 -1.761507E+06 -4.789708E+04 -6.487577E+05
        75  10 -4.602851E+05 -2.808431E+06 -2.534002E+05 -1.442864E+06  6.384356E-09 -4.671159E-09
        75  11 -7.910700E+05 -4.464009E+06 -4.996058E+05 -1.038438E+06  2.838838E-09 -2.042052E-08
        75  12 -7.911707E+05 -6.051306E+06 -7.041265E+05 -1.062017E+06 -1.840602E-09 -3.028434E-09
        75  13  3.574823E+04 -7.367939E+05  1.571938E+05 -1.416879E+06  3.099627E-09  2.708089E-10
        75  14  1.060068E+05 -7.887341E+05  2.764375E+05 -1.199912E+06 -1.762437E-08  6.151391E-09
        75  15  5.411496E+05 -7.405048E+05  5.781065E+05 -1.410322E+06  1.612358E-10 -2.653163E-10
        75  16  5.315249E+05  1.338968E+06  5.675769E+05 -1.390787E+06 -5.444873E-09  1.784309E-09
        75  17  1.002288E+06  2.899400E+06  1.051726E+06 -1.362309E+06  2.686643E-09  1.144073E-08
        75  18  1.871800E+06  4.596489E+06  1.858366E+06 -1.761532E+06  2.766074E-09 -1.589151E-09
        75  19 -4.602510E+05 -2.808347E+06 -2.532344E+05 -1.442839E+06  1.132713E+05  2.735983E+05
        75  20 -7.910314E+05 -4.463953E+06 -4.994729E+05 -1.038411E+06  1.558816E+05  2.144199E+05
        75  21 -7.911610E+05 -6.051280E+06 -7.040759E+05 -1.062010E+06  5.477407E+04  1.538189E+05
        75  22  3.576611E+04 -7.367763E+05  1.572435E+05 -1.416869E+06  1.155896E+05  1.140114E+05
        75  23  1.060506E+05 -7.886561E+05  2.766083E+05 -1.199880E+06  1.551751E+05  2.578971E+05
        75  24  5.411955E+05 -7.403319E+05  5.784131E+05 -1.410305E+06  5.146638E+04  4.002359E+05
        75  25  5.315403E+05  1.338974E+06  5.676069E+05 -1.390791E+06  1.178899E+05 -4.609938E+04
        75  26  1.002338E+06  2.899504E+06  1.051942E+06 -1.362272E+06  1.544484E+05  3.016257E+05
        75  27  1.871915E+06  4.596939E+06  1.859156E+06 -1.761507E+06  4.789708E+04  6.487577E+05
        76   1 -6.077773E+06 -2.423622E+06 -1.426937E+06 -2.047133E+06 -3.248586E+05 -1.749051E+04
        76   2 -5.682309E+06 -2.322275E+06 -1.184826E+06 -1.891574E+06 -2.234690E+05  2.665850E+05
        76   3 -5.201086E+06 -2.244644E+06 -1.062294E+06 -1.849600E+06 -5.706285E+04  3.826074E+05
        76   4  2.601124E+04 -1.687976E+05  1.616871E+05 -4.233889E+05  6.716360E+04  1.331474E+05
        76   5 -4.736711E+04 -2.423094E+05  7.215589E+04 -3.420091E+05 -5.223087E+04  3.318496E+05
        76   6  8.851875E+03 -2.957796E+05  3.944422E+04 -3.741654E+05 -1.070611E+05  3.632423E+05
        76   7  6.166359E+06  2.088053E+06  1.747821E+06  1.214723E+06  4.634545E+05  2.853058E+05
        76   8  5.619852E+06  1.840088E+06  1.327262E+06  1.220491E+06  1.207042E+05  3.977449E+05
        76   9  5.246786E+06  1.655608E+06  1.139706E+06  1.112846E+06 -1.575192E+05  3.437010E+05
        76  10 -6.077888E+06 -2.423651E+06 -1.427138E+06 -2.047138E+06 -1.013712E-08 -4.864876E-09
        76  11 -5.682382E+06 -2.322365E+06 -1.185054E+06 -1.891526E+06 -2.147202E-09 -8.482761E-09
        76  12 -5.201128E+06 -2.244802E+06 -1.062575E+06 -1.849583E+06  5.573015E-09 -5.746090E-09
        76  13  2.600163E+04 -1.688178E+05  1.616453E+05 -4.233961E+05  2.120736E-09  8.422134E-09
        76  14 -4.739960E+04 -2.424284E+05  7.194380E+04 -3.419951E+05  1.118261E-09  2.298571E-09
        76  15  8.804166E+03 -2.959243E+05  3.917473E+04 -3.741341E+05 -6.547553E-10  5.344659E-10
        76  16  6.166108E+06  2.087909E+06  1.747269E+06  1.214617E+06  6.956550E-09  3.308099E-09
        76  17  5.619794E+06  1.839915E+06  1.326939E+06  1.220453E+06 -1.944079E-09 -5.628965E-09
        76  18  5.246728E+06  1.655475E+06  1.139438E+06  1.112890E+06 -1.398706E-08 -7.921599E-09
        76  19 -6.077773E+06 -2.423622E+06 -1.426937E+06 -2.047133E+06  3.248586E+05  1.749051E+04
        76  20 -5.682309E+06 -2.322275E+06 -1.184826E+06 -1.891574E+06  2.234690E+05 -2.665850E+05
        76  21 -5.201086E+06 -2.244644E+06 -1.062294E+06 -1.849600E+06  5.706285E+04 -3.826074E+05
        76  22  2.601124E+04 -1.687976E+05  1.616871E+05 -4.233889E+05 -6.716360E+04 -1.331474E+05
        76  23 -4.736711E+04 -2.423094E+05  7.215589E+04 -3.420091E+05  5.223087E+04 -3.318496E+05
        76  24  8.851875E+03 -2.957796E+05  3.944422E+04 -3.741654E+05  1.070611E+05 -3.632423E+05
        76  25  6.166359E+06  2.088053E+06  1.747821E+06  1.214723E+06 -4.634545E+05 -2.853058E+05
        76  26  5.619852E+06  1.840088E+06  1.327262E+06  1.220491E+06 -1.207042E+05 -3.977449E+05
        76  27  5.246786E+06  1.655608E+06  1.139706E+06  1.112846E+06  1.575192E+05 -3.437010E+05
        77   1 -4.924061E+06 -2.117288E+06 -1.010380E+06 -1.759126E+06 -8.981810E+04  3.461876E+05
        77   2 -4.556377E+06 -1.918795E+06 -9.250397E+05 -1.591961E+06 -7.762589E+04  3.325769E+05
        77   3 -4.096975E+06 -1.804935E+06 -8.424573E+05 -1.523057E+06 -6.160273E+04  3.085441E+05
        77   4  5.673161E+03 -2.909006E+05  3.015519E+04 -3.810232E+05 -1.037277E+05  3.406192E+05
        77   5 -4.092182E+04 -2.507346E+05  1.542062E+04 -3.313101E+05 -1.052746E+05  3.218541E+05
        77   6  6.719685E+03 -2.924440E+05  8.835197E+03 -3.798754E+05 -1.030102E+05  2.927067E+05
        77   7  4.960385E+06  1.537596E+06  1.069349E+06  1.007243E+06 -1.177595E+05  3.350061E+05
        77   8  4.495516E+06  1.419098E+06  9.547901E+05  9.378554E+05 -1.331430E+05  3.110495E+05
        77   9  4.127728E+06  1.221497E+06  8.592353E+05  7.703159E+05 -1.447150E+05  2.767577E+05
        77  10 -4.924102E+06 -2.117419E+06 -1.010620E+06 -1.759101E+06  1.428121E-08  7.757179E-10
        77  11 -4.556413E+06 -1.918916E+06 -9.252589E+05 -1.591941E+06  1.255800E-08 -9.677150E-10
        77  12 -4.097005E+06 -1.805038E+06 -8.426434E+05 -1.523042E+06 -6.893842E-09 -3.040303E-09
        77  13  5.630480E+03 -2.910281E+05  2.991695E+04 -3.809948E+05 -1.764350E-09 -1.736716E-10
        77  14 -4.096151E+04 -2.508488E+05  1.520514E+04 -3.312828E+05 -5.761606E-09 -1.453396E-09
        77  15  6.685309E+03 -2.925388E+05  8.654269E+03 -3.798511E+05 -2.998276E-09  1.605131E-09
        77  16  4.960340E+06  1.537472E+06  1.069112E+06  1.007275E+06 -2.035098E-08 -7.225841E-09
        77  17  4.495470E+06  1.418990E+06  9.545750E+05  9.378887E+05 -1.134714E-08  1.889655E-09
        77  18  4.127685E+06  1.221409E+06  8.590520E+05  7.703481E+05  1.073387E-08  6.859004E-09
        77  19 -4.924061E+06 -2.117288E+06 -1.010380E+06 -1.759126E+06  8.981810E+04 -3.461876E+05
        77  20 -4.556377E+06 -1.918795E+06 -9.250397E+05 -1.591961E+06  7.762589E+04 -3.325769E+05
        77  21 -4.096975E+06 -1.804935E+06 -8.424573E+05 -1.523057E+06  6.160273E+04 -3.085441E+05
        77  22  5.673161E+03 -2.909006E+05  3.015519E+04 -3.810232E+05  1.037277E+05 -3.406192E+05
        77  23 -4.092182E+04 -2.507346E+05  1.542062E+04 -3.313101E+05  1.052746E+05 -3.218541E+05
        77  24  6.719685E+03 -2.924440E+05  8.835197E+03 -3.798754E+05  1.030102E+05 -2.927067E+05
        77  25  4.960385E+06  1.537596E+06  1.069349E+06  1.007243E+06  1.177595E+05 -3.350061E+05
        77  26  4.495516E+06  1.419098E+06  9.547901E+05  9.378554E+05  1.331430E+05 -3.110495E+05
        77  27  4.127728E+06  1.221497E+06  8.592353E+05  7.703159E+05  1.447150E+05 -2.767577E+05
        78   1 -3.809656E+06 -1.695724E+06 -7.824293E+05 -1.441630E+06 -5.807745E+04  2.890095E+05
        78   2 -3.439253E+06 -1.496147E+06 -6.997182E+05 -1.274824E+06 -4.737135E+04  2.586039E+05
        78   3 -2.978546E+06 -1.383513E+06 -6.157332E+05 -1.207163E+06 -3.652353E+04  2.275020E+05
        78   4  6.550062E+03 -2.918550E+05  6.534538E+03 -3.805012E+05 -9.731311E+04  2.740446E+05
        78   5 -3.791366E+04 -2.471724E+05  3.308979E+03 -3.311876E+05 -8.752168E+04  2.433692E+05
        78   6  7.885919E+03 -2.892421E+05  2.053141E+03 -3.810588E+05 -7.758887E+04  2.120002E+05
        78   7  3.837789E+06  1.113284E+06  7.947494E+05  6.866910E+05 -1.368110E+05  2.589816E+05
        78   8  3.375349E+06  1.002797E+06  7.057401E+05  6.172460E+05 -1.279107E+05  2.280453E+05
        78   9  3.003491E+06  8.057823E+05  6.193779E+05  4.487261E+05 -1.188680E+05  1.964185E+05
        78  10 -3.809682E+06 -1.695815E+06 -7.825926E+05 -1.441617E+06 -1.644412E-08 -5.204117E-09
        78  11 -3.439273E+06 -1.496220E+06 -6.998481E+05 -1.274814E+06 -5.131544E-09 -3.414983E-09
        78  12 -2.978561E+06 -1.383569E+06 -6.158330E+05 -1.207156E+06  1.617821E-08  4.761696E-09
        78  13  6.519748E+03 -2.919382E+05  6.375629E+03 -3.804797E+05 -3.106027E-09 -8.683643E-10
        78  14 -3.793778E+04 -2.472381E+05  3.183296E+03 -3.311704E+05 -1.047307E-08 -5.506883E-09
        78  15  7.867399E+03 -2.892920E+05  1.957381E+03 -3.810456E+05 -5.863302E-09 -3.599346E-09
        78  16  3.837751E+06  1.113207E+06  7.945882E+05  6.867194E+05  1.199775E-08  5.911832E-09
        78  17  3.375318E+06  1.002737E+06  7.056117E+05  6.172695E+05 -6.172966E-09 -6.732731E-09
        78  18  3.003465E+06  8.057371E+05  6.192789E+05  4.487448E+05 -1.951152E-08 -1.256945E-08
        78  19 -3.809656E+06 -1.695724E+06 -7.824293E+05 -1.441630E+06  5.807745E+04 -2.890095E+05
        78  20 -3.439253E+06 -1.496147E+06 -6.997182E+05 -1.274824E+06  4.737135E+04 -2.586039E+05
        78  21 -2.978546E+06 -1.383513E+06 -6.157332E+05 -1.207163E+06  3.652353E+04 -2.275020E+05
        78  22  6.550062E+03 -2.918550E+05  6.534538E+03 -3.805012E+05  9.731311E+04 -2.740446E+05
        78  23 -3.791366E+04 -2.471724E+05  3.308979E+03 -3.311876E+05  8.752168E+04 -2.433692E+05
        78  24  7.885919E+03 -2.892421E+05  2.053141E+03 -3.810588E+05  7.758887E+04 -2.120002E+05
        78  25  3.837789E+06  1.113284E+06  7.947494E+05  6.866910E+05  1.368110E+05 -2.589816E+05
        78  26  3.375349E+06  1.002797E+06  7.057401E+05  6.172460E+05  1.279107E+05 -2.280453E+05
        78  27  3.003491E+06  8.057823E+05  6.193779E+05  4.487261E+05  1.188680E+05 -1.964185E+05
        79   1 -2.689172E+06 -1.275907E+06 -5.538540E+05 -1.126780E+06 -3.009954E+04  2.092318E+05
        79   2 -2.315708E+06 -1.077843E+06 -4.694705E+05 -9.606530E+05 -1.866572E+04  1.780757E+05
        79   3 -1.853509E+06 -9.669142E+05 -3.845844E+05 -8.945371E+05 -7.284404E+03  1.468415E+05
        79   4  7.921250E+03 -2.889057E+05  1.466349E+03 -3.812543E+05 -7.107063E+04  1.938039E+05
        79   5 -3.590841E+04 -2.444227E+05  6.884626E+02 -3.314312E+05 -5.973735E+04  1.626613E+05
        79   6  8.814191E+03 -2.870568E+05  4.758304E+02 -3.816695E+05 -4.845652E+04  1.314412E+05
        79   7  2.712479E+06  6.987028E+05  5.564101E+05  3.672652E+05 -1.122338E+05  1.783042E+05
        79   8  2.249235E+06  5.894328E+05  4.705833E+05  2.999285E+05 -1.009718E+05  1.471861E+05
        79   9  1.874715E+06  3.930938E+05  3.853649E+05  1.326241E+05 -8.976217E+04  1.159910E+05
        79  10 -2.689185E+06 -1.275955E+06 -5.539380E+05 -1.126775E+06  5.285524E-11  5.449522E-10
        79  11 -2.315717E+06 -1.077877E+06 -4.695308E+05 -9.606504E+05 -6.609747E-10  1.965666E-09
        79  12 -1.853515E+06 -9.669373E+05 -3.846251E+05 -8.945362E+05  2.236414E-09  1.920101E-09
        79  13  7.905751E+03 -2.889474E+05  1.386284E+03 -3.812432E+05  5.969123E-10 -1.742490E-09
        79  14 -3.591934E+04 -2.444521E+05  6.320424E+02 -3.314234E+05 -4.449843E-09 -7.006269E-10
        79  15  8.807035E+03 -2.870760E+05  4.389561E+02 -3.816643E+05 -3.190862E-09  1.015195E-10
        79  16  2.712457E+06  6.986652E+05  5.563267E+05  3.672813E+05 -8.492356E-10 -2.949448E-09
        79  17  2.249219E+06  5.894068E+05  4.705234E+05  2.999404E+05  4.828048E-10 -5.361745E-10
        79  18  1.874702E+06  3.930772E+05  3.853245E+05  1.326325E+05  4.391934E-09  2.178094E-09
        79  19 -2.689172E+06 -1.275907E+06 -5.538540E+05 -1.126780E+06  3.009954E+04 -2.092318E+05
        79  20 -2.315708E+06 -1.077843E+06 -4.694705E+05 -9.606530E+05  1.866572E+04 -1.780757E+05
        79  21 -1.853509E+06 -9.669142E+05 -3.845844E+05 -8.945371E+05  7.284404E+03 -1.468415E+05
        79  22  7.921250E+03 -2.889057E+05  1.466349E+03 -3.812543E+05  7.107063E+04 -1.938039E+05
        79  23 -3.590841E+04 -2.444227E+05  6.884626E+02 -3.314312E+05  5.973735E+04 -1.626613E+05
        79  24  8.814191E+03 -2.870568E+05  4.758304E+02 -3.816695E+05  4.845652E+04 -1.314412E+05
        79  25  2.712479E+06  6.987028E+05  5.564101E+05  3.672652E+05  1.122338E+05 -1.783042E+05
        79  26  2.249235E+06  5.894328E+05  4.705833E+05  2.999285E+05  1.009718E+05 -1.471861E+05
        79  27  1.874715E+06  3.930938E+05  3.853649E+05  1.326241E+05  8.976217E+04 -1.159910E+05
        80   1 -1.562831E+06 -8.599521E+05 -3.222481E+05 -8.145899E+05 -5.590886E+02  1.286871E+05
        80   2 -1.187419E+06 -6.629866E+05 -2.373375E+05 -6.487824E+05  1.106361E+04  9.753974E+04
        80   3 -7.242218E+05 -5.532338E+05 -1.523394E+05 -5.834951E+05  2.264673E+04  6.638692E+04
        80   4  8.850427E+03 -2.868550E+05  2.881128E+02 -3.817734E+05 -4.175628E+04  1.133006E+05
        80   5 -3.471807E+04 -2.427790E+05  4.006218E+01 -3.315875E+05 -3.014565E+04  8.217452E+04
        80   6  9.306456E+03 -2.859205E+05 -1.201157E+02 -3.819805E+05 -1.857476E+04  5.104346E+04
        80   7  1.583072E+06  2.864485E+05  3.227040E+05  5.205633E+04 -8.306582E+04  9.787223E+04
        80   8  1.119345E+06  1.775378E+05  2.373544E+05 -1.384941E+04 -7.143713E+04  6.677863E+04
        80   9  7.433834E+05 -1.856427E+04  1.520763E+05 -1.802470E+05 -5.984834E+04  3.568058E+04
        80  10 -1.562835E+06 -8.599699E+05 -3.222792E+05 -8.145899E+05 -1.599539E-09  1.036384E-09
        80  11 -1.187422E+06 -6.629968E+05 -2.373557E+05 -6.487833E+05  7.194302E-09  5.246643E-09
        80  12 -7.242235E+05 -5.532387E+05 -1.523487E+05 -5.834963E+05  2.018809E-08  5.301764E-09
        80  13  8.845112E+03 -2.868692E+05  2.607164E+02 -3.817696E+05 -1.317776E-09  1.941973E-09
        80  14 -3.472086E+04 -2.427865E+05  2.566665E+01 -3.315856E+05 -2.361350E-09  1.171927E-09
        80  15  9.305387E+03 -2.859234E+05 -1.256595E+02 -3.819797E+05 -8.619652E-10  5.205139E-10
        80  16  1.583062E+06  2.864364E+05  3.226730E+05  5.206287E+04  2.490633E-09  4.221467E-09
        80  17  1.119338E+06  1.775316E+05  2.373365E+05 -1.384557E+04 -6.863360E-09 -4.967675E-10
        80  18  7.433792E+05 -1.856660E+04  1.520672E+05 -1.802453E+05 -2.208268E-08 -5.592714E-09
        80  19 -1.562831E+06 -8.599521E+05 -3.222481E+05 -8.145899E+05  5.590886E+02 -1.286871E+05
        80  20 -1.187419E+06 -6.629866E+05 -2.373375E+05 -6.487824E+05 -1.106361E+04 -9.753974E+04
        80  21 -7.242218E+05 -5.532338E+05 -1.523394E+05 -5.834951E+05 -2.264673E+04 -6.638692E+04
        80  22  8.850427E+03 -2.868550E+05  2.881128E+02 -3.817734E+05  4.175628E+04 -1.133006E+05
        80  23 -3.471807E+04 -2.427790E+05  4.006218E+01 -3.315875E+05  3.014565E+04 -8.217452E+04
        80  24  9.306456E+03 -2.859205E+05 -1.201157E+02 -3.819805E+05  1.857476E+04 -5.104346E+04
        80  25  1.583072E+06  2.864485E+05  3.227040E+05  5.205633E+04  8.306582E+04 -9.787223E+04
        80  26  1.119345E+06  1.775378E+05  2.373544E+05 -1.384941E+04  7.143713E+04 -6.677863E+04
        80  27  7.433834E+05 -1.856427E+04  1.520763E+05 -1.802470E+05  5.984834E+04 -3.568058E+04
        81   1 -4.327268E+05 -4.466229E+05 -8.994428E+04 -5.036632E+05  2.950221E+04  4.827931E+04
        81   2 -5.646277E+04 -2.502967E+05 -5.069253E+03 -3.377975E+05  4.102177E+04  1.724100E+04
        81   3  4.072667E+05 -1.411652E+05  7.983326E+04 -2.726104E+05  5.243360E+04 -1.351162E+04
        81   4  9.301517E+03 -2.858502E+05 -2.719173E+02 -3.820208E+05 -1.179747E+04  3.291471E+04
        81   5 -3.429415E+04 -2.422055E+05 -6.611268E+02 -3.316425E+05  8.647181E+01  2.012098E+03
        81   6  9.309935E+03 -2.858491E+05 -1.317478E+03 -3.820178E+05  1.186255E+04 -2.860431E+04
        81   7  4.515381E+05 -1.250584E+05  8.939893E+04 -2.602965E+05 -5.312907E+04  1.753821E+04
        81   8 -1.212121E+04 -2.341129E+05  3.754174E+03 -3.254864E+05 -4.085056E+04 -1.321746E+04
        81   9 -3.884808E+05 -4.305187E+05 -8.246925E+04 -4.913596E+05 -2.868060E+04 -4.368660E+04
        81  10 -4.327284E+05 -4.466256E+05 -8.995031E+04 -5.036644E+05 -2.403919E-08 -6.404554E-09
        81  11 -5.646466E+04 -2.502975E+05 -5.072976E+03 -3.377980E+05 -3.291401E-08 -4.879823E-09
        81  12  4.072637E+05 -1.411661E+05  7.982775E+04 -2.726098E+05 -2.137625E-08 -5.104140E-09
        81  13  9.301077E+03 -2.858514E+05 -2.742145E+02 -3.820205E+05 -7.995469E-10 -2.139440E-09
        81  14 -3.429415E+04 -2.422055E+05 -6.611344E+02 -3.316425E+05 -6.148760E-09 -5.516269E-09
        81  15  9.309565E+03 -2.858500E+05 -1.319279E+03 -3.820175E+05 -2.321697E-10 -8.697344E-09
        81  16  4.515349E+05 -1.250595E+05  8.939305E+04 -2.602958E+05  2.047167E-08  1.046514E-08
        81  17 -1.212305E+04 -2.341135E+05  3.750709E+03 -3.254868E+05  1.917335E-08  9.699307E-09
        81  18 -3.884822E+05 -4.305209E+05 -8.247439E+04 -4.913606E+05  2.046428E-08  9.208880E-09
        81  19 -4.327268E+05 -4.466229E+05 -8.994428E+04 -5.036632E+05 -2.950221E+04 -4.827931E+04
        81  20 -5.646277E+04 -2.502967E+05 -5.069253E+03 -3.377975E+05 -4.102177E+04 -1.724100E+04
        81  21  4.072667E+05 -1.411652E+05  7.983326E+04 -2.726104E+05 -5.243360E+04  1.351162E+04
        81  22  9.301517E+03 -2.858502E+05 -2.719173E+02 -3.820208E+05  1.179747E+04 -3.291471E+04
        81  23 -3.429415E+04 -2.422055E+05 -6.611268E+02 -3.316425E+05 -8.647181E+01 -2.012098E+03
        81  24  9.309935E+03 -2.858491E+05 -1.317478E+03 -3.820178E+05 -1.186255E+04  2.860431E+04
        81  25  4.515381E+05 -1.250584E+05  8.939893E+04 -2.602965E+05  5.312907E+04 -1.753821E+04
        81  26 -1.212121E+04 -2.341129E+05  3.754174E+03 -3.254864E+05  4.085056E+04  1.321746E+04
        81  27 -3.884808E+05 -4.305187E+05 -8.246925E+04 -4.913596E+05  2.868060E+04  4.368660E+04
        82   1  6.992350E+05 -3.462954E+04  1.418743E+05 -1.926463E+05  6.046987E+04 -3.125088E+04
        82   2  1.074897E+06  1.616685E+05  2.273008E+05 -2.633426E+04  6.680922E+04 -6.191194E+04
        82   3  1.538750E+06  2.713239E+05  3.161668E+05  3.983902E+04  7.143542E+04 -8.790034E+04
        82   4  9.172138E+03 -2.858253E+05 -1.776832E+03 -3.819889E+05  1.888199E+04 -4.672910E+04
        82   5 -3.451111E+04 -2.428239E+05 -3.396586E+03 -3.315929E+05  3.140503E+04 -7.511190E+04
        82   6  8.601877E+03 -2.877139E+05 -6.464227E+03 -3.814189E+05  4.221631E+04 -9.881598E+04
        82   7 -6.803954E+05 -5.369794E+05 -1.454447E+05 -5.711355E+05 -2.265590E+04 -6.218872E+04
        82   8 -1.142660E+06 -6.472152E+05 -2.341544E+05 -6.363494E+05 -3.931190E+03 -8.828652E+04
        82   9 -1.519173E+06 -8.465669E+05 -3.292244E+05 -8.017260E+05  1.307440E+04 -1.097028E+05
        82  10  6.992309E+05 -3.463157E+04  1.418656E+05 -1.926448E+05  2.629405E-08  1.356458E-08
        82  11  1.074892E+06  1.616632E+05  2.272852E+05 -2.633093E+04  1.622319E-08  7.851591E-09
        82  12  1.538742E+06  2.713143E+05  3.161427E+05  3.984407E+04  2.154067E-09  4.682801E-09
        82  13  9.171170E+03 -2.858277E+05 -1.781604E+03 -3.819881E+05  1.166812E-08 -5.735739E-09
        82  14 -3.451369E+04 -2.428302E+05 -3.409039E+03 -3.315911E+05  4.674018E-09 -4.118388E-09
        82  15  8.597345E+03 -2.877249E+05 -6.485922E+03 -3.814155E+05  7.039239E-09  1.239510E-09
        82  16 -6.803970E+05 -5.369837E+05 -1.454529E+05 -5.711367E+05 -2.649677E-08 -5.071383E-09
        82  17 -1.142662E+06 -6.472236E+05 -2.341691E+05 -6.363496E+05 -1.236154E-08 -5.635416E-09
        82  18 -1.519176E+06 -8.465799E+05 -3.292473E+05 -8.017249E+05  4.357944E-09  2.544670E-09
        82  19  6.992350E+05 -3.462954E+04  1.418743E+05 -1.926463E+05 -6.046987E+04  3.125088E+04
        82  20  1.074897E+06  1.616685E+05  2.273008E+05 -2.633426E+04 -6.680922E+04  6.191194E+04
        82  21  1.538750E+06  2.713239E+05  3.161668E+05  3.983902E+04 -7.143542E+04  8.790034E+04
        82  22  9.172138E+03 -2.858253E+05 -1.776832E+03 -3.819889E+05 -1.888199E+04  4.672910E+04
        82  23 -3.451111E+04 -2.428239E+05 -3.396586E+03 -3.315929E+05 -3.140503E+04  7.511190E+04
        82  24  8.601877E+03 -2.877139E+05 -6.464227E+03 -3.814189E+05 -4.221631E+04  9.881598E+04
        82  25 -6.803954E+05 -5.369794E+05 -1.454447E+05 -5.711355E+05  2.265590E+04  6.218872E+04
        82  26 -1.142660E+06 -6.472152E+05 -2.341544E+05 -6.363494E+05  3.931190E+03  8.828652E+04
        82  27 -1.519173E+06 -8.465669E+05 -3.292244E+05 -8.017260E+05 -1.307440E+04  1.097028E+05
        83   1  1.833916E+06  3.784770E+05  3.762662E+05  1.185530E+05  9.608963E+04 -1.008157E+05
        83   2  2.198743E+06  5.792082E+05  4.855071E+05  2.891869E+05  2.695346E+03 -1.317152E+05
        83   3  2.660149E+06  6.964836E+05  6.628276E+05  3.685476E+05 -1.191150E+05 -8.706306E+04
        83   4  6.834714E+03 -2.860497E+05 -8.386212E+03 -3.814494E+05  5.041916E+04 -1.178865E+05
        83   5 -3.370372E+04 -2.482299E+05 -1.587132E+04 -3.307243E+05  5.758882E+04 -1.112432E+05
        83   6  2.313025E+03 -3.137927E+05 -3.477142E+04 -3.713606E+05  3.636278E+04 -2.888213E+04
        83   7 -1.816855E+06 -9.503167E+05 -3.932161E+05 -8.801054E+05  4.892940E+03 -1.349039E+05
        83   8 -2.261112E+06 -1.075259E+06 -5.175473E+05 -9.485838E+05  1.122686E+05 -9.085264E+04
        83   9 -2.648570E+06 -1.323534E+06 -7.328476E+05 -1.108364E+06  1.911086E+05  2.901480E+04
        83  10  1.833904E+06  3.784636E+05  3.762298E+05  1.185608E+05  9.947490E-09  4.616773E-09
        83  11  2.198738E+06  5.791896E+05  4.854745E+05  2.891872E+05 -1.563956E-09  2.291096E-09
        83  12  2.660132E+06  6.964717E+05  6.627868E+05  3.685392E+05  4.237104E-09  1.263148E-09
        83  13  6.828258E+03 -2.860653E+05 -8.417098E+03 -3.814446E+05  4.427051E-09  2.478734E-09
        83  14 -3.371060E+04 -2.482441E+05 -1.590080E+04 -3.307191E+05  1.175291E-09  2.540048E-09
        83  15  2.311382E+03 -3.137940E+05 -3.477547E+04 -3.713598E+05 -5.946346E-10  9.026024E-10
        83  16 -1.816860E+06 -9.503363E+05 -3.932504E+05 -8.801049E+05  3.629210E-10  5.062038E-09
        83  17 -2.261128E+06 -1.075271E+06 -5.175865E+05 -9.485756E+05 -3.751106E-09  2.271535E-09
        83  18 -2.648609E+06 -1.323544E+06 -7.329182E+05 -1.108368E+06 -3.669525E-09  5.251085E-11
        83  19  1.833916E+06  3.784770E+05  3.762662E+05  1.185530E+05 -9.608963E+04  1.008157E+05
        83  20  2.198743E+06  5.792082E+05  4.855071E+05  2.891869E+05 -2.695346E+03  1.317152E+05
        83  21  2.660149E+06  6.964836E+05  6.628276E+05  3.685476E+05  1.191150E+05  8.706306E+04
        83  22  6.834714E+03 -2.860497E+05 -8.386212E+03 -3.814494E+05 -5.041916E+04  1.178865E+05
        83  23 -3.370372E+04 -2.482299E+05 -1.587132E+04 -3.307243E+05 -5.758882E+04  1.112432E+05
        83  24  2.313025E+03 -3.137927E+05 -3.477142E+04 -3.713606E+05 -3.636278E+04  2.888213E+04
        83  25 -1.816855E+06 -9.503167E+05 -3.932161E+05 -8.801054E+05 -4.892940E+03  1.349039E+05
        83  26 -2.261112E+06 -1.075259E+06 -5.175473E+05 -9.485838E+05 -1.122686E+05  9.085264E+04
        83  27 -2.648570E+06 -1.323534E+06 -7.328476E+05 -1.108364E+06 -1.911086E+05 -2.901480E+04
        84   1 -1.912143E+05 -9.786774E+04 -8.687714E+04 -6.890629E+04 -1.974458E+04  6.778989E+03
        84   2 -1.206981E+05 -1.020694E+05 -6.632434E+04 -7.748568E+04 -3.582313E+03  2.259555E+04
        84   3 -4.911489E+04 -9.369129E+04 -5.314920E+04 -9.652293E+04  1.258654E+04  2.679702E+04
        84   4  3.807635E+05  4.297879E+04  4.550181E+04 -9.816587E+04  3.215123E+04  6.787274E+03
        84   5  3.778308E+05  1.548028E+04  2.298340E+04 -9.293607E+04  2.044220E+04  2.259622E+04
        84   6  3.807939E+05  5.392794E+03  1.243816E+04 -9.816263E+04  8.737677E+03  2.679511E+04
        84   7  9.530511E+05  1.838070E+05  1.778695E+05 -1.274526E+05  8.409449E+04  6.790666E+03
        84   8  8.766038E+05  1.330173E+05  1.122839E+05 -1.083992E+05  4.448545E+04  2.259570E+04
        84   9  8.108877E+05  1.044680E+05  7.802163E+04 -9.980351E+04  4.886246E+03  2.679322E+04
        84  10 -1.912147E+05 -9.786789E+04 -8.687796E+04 -6.890619E+04  6.672556E-09 -9.237208E-10
        84  11 -1.206983E+05 -1.020699E+05 -6.632533E+04 -7.748561E+04  9.865353E-09 -2.531583E-09
        84  12 -4.911525E+04 -9.369211E+04 -5.315084E+04 -9.652320E+04  5.126543E-09 -1.654358E-09
        84  13  3.807623E+05  4.297847E+04  4.549979E+04 -9.816605E+04 -4.162113E-09 -4.015099E-10
        84  14  3.778302E+05  1.547962E+04  2.298166E+04 -9.293644E+04 -3.064050E-09 -1.553804E-09
        84  15  3.807936E+05  5.392002E+03  1.243667E+04 -9.816282E+04 -2.559244E-09 -1.019526E-09
        84  16  9.530435E+05  1.838051E+05  1.778561E+05 -1.274531E+05 -6.262973E-09 -2.709459E-11
        84  17  8.766015E+05  1.330162E+05  1.122793E+05 -1.084000E+05 -9.816961E-09 -4.353563E-10
        84  18  8.108874E+05  1.044672E+05  7.802023E+04 -9.980361E+04 -9.878499E-09 -5.823947E-11
        84  19 -1.912143E+05 -9.786774E+04 -8.687714E+04 -6.890629E+04  1.974458E+04 -6.778989E+03
        84  20 -1.206981E+05 -1.020694E+05 -6.632434E+04 -7.748568E+04  3.582313E+03 -2.259555E+04
        84  21 -4.911489E+04 -9.369129E+04 -5.314920E+04 -9.652293E+04 -1.258654E+04 -2.679702E+04
        84  22  3.807635E+05  4.297879E+04  4.550181E+04 -9.816587E+04 -3.215123E+04 -6.787274E+03
        84  23  3.778308E+05  1.548028E+04  2.298340E+04 -9.293607E+04 -2.044220E+04 -2.259622E+04
        84  24  3.807939E+05  5.392794E+03  1.243816E+04 -9.816263E+04 -8.737677E+03 -2.679511E+04
        84  25  9.530511E+05  1.838070E+05  1.778695E+05 -1.274526E+05 -8.409449E+04 -6.790666E+03
        84  26  8.766038E+05  1.330173E+05  1.122839E+05 -1.083992E+05 -4.448545E+04 -2.259570E+04
        84  27  8.108877E+05  1.044680E+05  7.802163E+04 -9.980351E+04 -4.886246E+03 -2.679322E+04
        85   1 -5.669018E+03 -8.448273E+04 -4.746691E+04 -9.604462E+04  1.189297E+04  2.532522E+04
        85   2  6.521026E+04 -7.018125E+04 -3.826123E+04 -9.156771E+04  1.315586E+04  2.254960E+04
        85   3  1.362165E+05 -5.477439E+04 -2.959856E+04 -9.840730E+04  1.441849E+04  1.820421E+04
        85   4  3.796624E+05  3.916391E+03  9.274845E+03 -9.835444E+04  7.118664E+03  2.532367E+04
        85   5  3.792827E+05  1.270703E+03  5.002281E+03 -9.269653E+04  4.612552E+03  2.254880E+04
        85   6  3.796786E+05  3.842748E+02  2.802676E+03 -9.835460E+04  2.106042E+03  1.820458E+04
        85   7  7.651434E+05  9.230863E+04  6.601404E+04 -1.006657E+05  2.341517E+03  2.532215E+04
        85   8  6.934555E+05  7.271837E+04  4.826496E+04 -9.382594E+04 -3.934887E+03  2.254803E+04
        85   9  6.232014E+05  5.554050E+04  3.520401E+04 -9.830187E+04 -1.021101E+04  1.820495E+04
        85  10 -5.669342E+03 -8.448346E+04 -4.746838E+04 -9.604487E+04  6.745173E-08  5.728179E-10
        85  11  6.520994E+04 -7.018185E+04 -3.826251E+04 -9.156795E+04  3.552571E-08  1.594562E-09
        85  12  1.362162E+05 -5.477480E+04 -2.959958E+04 -9.840751E+04  5.705170E-09 -3.381295E-09
        85  13  3.796622E+05  3.915689E+03  9.273544E+03 -9.835459E+04 -2.004071E-09  2.776759E-09
        85  14  3.792826E+05  1.270151E+03  5.001285E+03 -9.269661E+04 -3.009322E-09  1.057382E-08
        85  15  3.796785E+05  3.839177E+02  2.802044E+03 -9.835463E+04 -4.063505E-10  1.439447E-08
        85  16  7.651432E+05  9.230794E+04  6.601282E+04 -1.006658E+05 -7.285368E-08  3.467325E-10
        85  17  6.934554E+05  7.271782E+04  4.826397E+04 -9.382586E+04 -3.924549E-08 -1.564737E-10
        85  18  6.232012E+05  5.554011E+04  3.520319E+04 -9.830172E+04 -8.097714E-09 -2.880902E-09
        85  19 -5.669018E+03 -8.448273E+04 -4.746691E+04 -9.604462E+04 -1.189297E+04 -2.532522E+04
        85  20  6.521026E+04 -7.018125E+04 -3.826123E+04 -9.156771E+04 -1.315586E+04 -2.254960E+04
        85  21  1.362165E+05 -5.477439E+04 -2.959856E+04 -9.840730E+04 -1.441849E+04 -1.820421E+04
        85  22  3.796624E+05  3.916391E+03  9.274845E+03 -9.835444E+04 -7.118664E+03 -2.532367E+04
        85  23  3.792827E+05  1.270703E+03  5.002281E+03 -9.269653E+04 -4.612552E+03 -2.254880E+04
        85  24  3.796786E+05  3.842748E+02  2.802676E+03 -9.835460E+04 -2.106042E+03 -1.820458E+04
        85  25  7.651434E+05  9.230863E+04  6.601404E+04 -1.006657E+05 -2.341517E+03 -2.532215E+04
        85  26  6.934555E+05  7.271837E+04  4.826496E+04 -9.382594E+04  3.934887E+03 -2.254803E+04
        85  27  6.232014E+05  5.554050E+04  3.520401E+04 -9.830187E+04  1.021101E+04 -1.820495E+04
        86   1  1.799212E+05 -4.488294E+04 -2.410853E+04 -9.831904E+04  1.413086E+04  1.514622E+04
        86   2  2.508229E+05 -2.901583E+04 -1.556381E+04 -9.266493E+04  1.405242E+04  9.859468E+03
        86   3  3.217623E+05 -1.306915E+04 -6.947246E+03 -9.844069E+04  1.397363E+04  4.361425E+03
        86   4  3.795369E+05  2.715330E+02  2.110812E+03 -9.837992E+04  1.693684E+03  1.514704E+04
        86   5  3.794793E+05  5.508894E+01  1.180306E+03 -9.266507E+04  1.107212E+03  9.860795E+03
        86   6  3.795433E+05  6.720968E+00  6.740781E+02 -9.837996E+04  5.204110E+02  4.363271E+03
        86   7  5.791936E+05  4.542441E+04  2.833047E+04 -9.844080E+04 -1.074730E+04  1.514786E+04
        86   8  5.081530E+05  2.912541E+04  1.792496E+04 -9.266521E+04 -1.184055E+04  9.862121E+03
        86   9  4.373281E+05  1.308254E+04  8.296059E+03 -9.831922E+04 -1.293400E+04  4.365114E+03
        86  10  1.799209E+05 -4.488324E+04 -2.410934E+04 -9.831922E+04 -7.370874E-08 -5.261604E-09
        86  11  2.508227E+05 -2.901599E+04 -1.556437E+04 -9.266504E+04 -3.669255E-08 -2.598771E-09
        86  12  3.217620E+05 -1.306922E+04 -6.947649E+03 -9.844074E+04 -2.984775E-09  9.040727E-10
        86  13  3.795368E+05  2.712858E+02  2.110375E+03 -9.837994E+04  2.030286E-09  1.288328E-08
        86  14  3.794793E+05  5.498418E+01  1.180121E+03 -9.266508E+04 -3.226656E-09  7.282376E-09
        86  15  3.795433E+05  6.700448E+00  6.740418E+02 -9.837996E+04  1.632393E-09  3.154648E-09
        86  16  5.791934E+05  4.542414E+04  2.832982E+04 -9.844067E+04  6.815749E-08 -3.924320E-09
        86  17  5.081528E+05  2.912527E+04  1.792451E+04 -9.266512E+04  3.731238E-08 -2.370733E-09
        86  18  4.373280E+05  1.308248E+04  8.295709E+03 -9.831918E+04  5.333402E-09  6.958299E-10
        86  19  1.799212E+05 -4.488294E+04 -2.410853E+04 -9.831904E+04 -1.413086E+04 -1.514622E+04
        86  20  2.508229E+05 -2.901583E+04 -1.556381E+04 -9.266493E+04 -1.405242E+04 -9.859468E+03
        86  21  3.217623E+05 -1.306915E+04 -6.947246E+03 -9.844069E+04 -1.397363E+04 -4.361425E+03
        86  22  3.795369E+05  2.715330E+02  2.110812E+03 -9.837992E+04 -1.693684E+03 -1.514704E+04
        86  23  3.794793E+05  5.508894E+01  1.180306E+03 -9.266507E+04 -1.107212E+03 -9.860795E+03
        86  24  3.795433E+05  6.720968E+00  6.740781E+02 -9.837996E+04 -5.204110E+02 -4.363271E+03
        86  25  5.791936E+05  4.542441E+04  2.833047E+04 -9.844080E+04  1.074730E+04 -1.514786E+04
        86  26  5.081530E+05  2.912541E+04  1.792496E+04 -9.266521E+04  1.184055E+04 -9.862121E+03
        86  27  4.373281E+05  1.308254E+04  8.296059E+03 -9.831922E+04  1.293400E+04 -4.365114E+03
        87   1  3.654929E+05 -3.159906E+03 -1.287780E+03 -9.842454E+04  1.388524E+04  1.090396E+03
        87   2  4.364071E+05  1.279454E+04  7.433476E+03 -9.269463E+04  1.379640E+04 -4.530904E+03
        87   3  5.073425E+05  2.875290E+04  1.621448E+04 -9.840963E+04  1.370772E+04 -1.017520E+04
        87   4  3.795223E+05  4.565054E+00  5.109142E+02 -9.838334E+04  4.152514E+02  1.092320E+03
        87   5  3.795087E+05 -7.985440E+00  2.920227E+02 -9.266087E+04  2.703347E+02 -4.529176E+03
        87   6  3.795196E+05 -7.108709E+00  1.709487E+02 -9.838335E+04  1.255851E+02 -1.017368E+04
        87   7  3.935523E+05  3.169125E+03  2.310289E+03 -9.834215E+04 -1.305503E+04  1.094241E+03
        87   8  3.226141E+05 -1.281054E+04 -6.848751E+03 -9.262711E+04 -1.325456E+04 -4.527450E+03
        87   9  2.517138E+05 -2.876768E+04 -1.587193E+04 -9.835708E+04 -1.345389E+04 -1.017216E+04
        87  10  3.654927E+05 -3.159959E+03 -1.288144E+03 -9.842455E+04  6.027042E-09  1.160238E-09
        87  11  4.364069E+05  1.279446E+04  7.433080E+03 -9.269458E+04  3.978851E-08 -2.863281E-09
        87  12  5.073422E+05  2.875273E+04  1.621393E+04 -9.840952E+04  7.247411E-08 -7.879699E-09
        87  13  3.795223E+05  4.563726E+00  5.109116E+02 -9.838335E+04  1.232109E-11  3.462960E-09
        87  14  3.795087E+05 -8.007491E+00  2.919841E+02 -9.266087E+04  2.088765E-09  7.494069E-09
        87  15  3.795195E+05 -7.219878E+00  1.707541E+02 -9.838335E+04  1.493508E-09  9.954295E-09
        87  16  3.935521E+05  3.169078E+03  2.309966E+03 -9.834214E+04 -2.731568E-09  1.306698E-09
        87  17  3.226139E+05 -1.281061E+04 -6.849120E+03 -9.262716E+04 -3.725934E-08 -1.873672E-09
        87  18  2.517136E+05 -2.876784E+04 -1.587247E+04 -9.835719E+04 -7.034904E-08 -7.054760E-09
        87  19  3.654929E+05 -3.159906E+03 -1.287780E+03 -9.842454E+04 -1.388524E+04 -1.090396E+03
        87  20  4.364071E+05  1.279454E+04  7.433476E+03 -9.269463E+04 -1.379640E+04  4.530904E+03
        87  21  5.073425E+05  2.875290E+04  1.621448E+04 -9.840963E+04 -1.370772E+04  1.017520E+04
        87  22  3.795223E+05  4.565054E+00  5.109142E+02 -9.838334E+04 -4.152514E+02 -1.092320E+03
        87  23  3.795087E+05 -7.985440E+00  2.920227E+02 -9.266087E+04 -2.703347E+02  4.529176E+03
        87  24  3.795196E+05 -7.108709E+00  1.709487E+02 -9.838335E+04 -1.255851E+02  1.017368E+04
        87  25  3.935523E+05  3.169125E+03  2.310289E+03 -9.834215E+04  1.305503E+04 -1.094241E+03
        87  26  3.226141E+05 -1.281054E+04 -6.848751E+03 -9.262711E+04  1.325456E+04  4.527450E+03
        87  27  2.517138E+05 -2.876768E+04 -1.587193E+04 -9.835708E+04  1.345389E+04  1.017216E+04
        88   1  5.510885E+05  3.865236E+04  2.195968E+04 -9.840612E+04  1.368009E+04 -1.346919E+04
        88   2  6.220201E+05  5.460419E+04  3.082579E+04 -9.267193E+04  1.354757E+04 -1.910485E+04
        88   3  6.929850E+05  7.057219E+04  3.978409E+04 -9.838394E+04  1.341573E+04 -2.470182E+04
        88   4  3.795143E+05 -9.237759E+00  1.322192E+02 -9.838369E+04  9.794113E+01 -1.346799E+04
        88   5  3.795025E+05 -1.971010E+01  8.117626E+01 -9.266046E+04  5.760567E+01 -1.910455E+04
        88   6  3.795025E+05 -2.993749E+01  5.784297E+01 -9.838369E+04  1.797059E+01 -2.470241E+04
        88   7  2.079708E+05 -3.867194E+04 -2.169466E+04 -9.836125E+04 -1.348064E+04 -1.346680E+04
        88   8  1.370455E+05 -5.464592E+04 -3.066296E+04 -9.264899E+04 -1.342735E+04 -1.910424E+04
        88   9  6.612119E+04 -7.063598E+04 -3.966806E+04 -9.838343E+04 -1.337337E+04 -2.470300E+04
        88  10  5.510882E+05  3.865211E+04  2.195899E+04 -9.840597E+04 -7.394406E-08 -8.951758E-09
        88  11  6.220199E+05  5.460375E+04  3.082476E+04 -9.267172E+04 -4.089110E-08 -6.631203E-09
        88  12  6.929846E+05  7.057149E+04  3.978260E+04 -9.838367E+04 -3.688047E-09 -3.493009E-09
        88  13  3.795143E+05 -9.432574E+00  1.318783E+02 -9.838369E+04  4.583405E-09  8.775468E-09
        88  14  3.795024E+05 -2.010210E+01  8.049025E+01 -9.266046E+04 -7.880174E-10  3.293478E-09
        88  15  3.795023E+05 -3.059287E+01  5.669606E+01 -9.838369E+04 -1.034326E-09 -2.117915E-09
        88  16  2.079705E+05 -3.867218E+04 -2.169534E+04 -9.836140E+04  7.380595E-08 -8.342617E-09
        88  17  1.370452E+05 -5.464636E+04 -3.066399E+04 -9.264920E+04  4.627361E-08 -6.476222E-09
        88  18  6.612083E+04 -7.063668E+04 -3.966954E+04 -9.838370E+04 -4.469755E-10 -5.208683E-09
        88  19  5.510885E+05  3.865236E+04  2.195968E+04 -9.840612E+04 -1.368009E+04  1.346919E+04
        88  20  6.220201E+05  5.460419E+04  3.082579E+04 -9.267193E+04 -1.354757E+04  1.910485E+04
        88  21  6.929850E+05  7.057219E+04  3.978409E+04 -9.838394E+04 -1.341573E+04  2.470182E+04
        88  22  3.795143E+05 -9.237759E+00  1.322192E+02 -9.838369E+04 -9.794113E+01  1.346799E+04
        88  23  3.795025E+05 -1.971010E+01  8.117626E+01 -9.266046E+04 -5.760567E+01  1.910455E+04
        88  24  3.795025E+05 -2.993749E+01  5.784297E+01 -9.838369E+04 -1.797059E+01  2.470241E+04
        88  25  2.079708E+05 -3.867194E+04 -2.169466E+04 -9.836125E+04  1.348064E+04  1.346680E+04
        88  26  1.370455E+05 -5.464592E+04 -3.066296E+04 -9.264899E+04  1.342735E+04  1.910424E+04
        88  27  6.612119E+04 -7.063598E+04 -3.966806E+04 -9.838343E+04  1.337337E+04  2.470300E+04
        89   1  7.367734E+05  8.048540E+04  4.563195E+04 -9.837180E+04  1.338291E+04 -2.795669E+04
        89   2  8.076848E+05  9.649263E+04  5.489774E+04 -9.263371E+04  1.259360E+04 -3.336482E+04
        89   3  8.787536E+05  1.126358E+05  6.471545E+04 -9.832441E+04  1.180533E+04 -3.845501E+04
        89   4  3.794990E+05 -3.816273E+01  5.324532E+01 -9.837986E+04  8.211332E+00 -2.795801E+04
        89   5  3.794782E+05 -5.746443E+01  5.357763E+01 -9.266524E+04 -1.778039E+01 -3.336764E+04
        89   6  3.794782E+05 -7.279827E+01  7.614087E+01 -9.837986E+04 -4.265757E+01 -3.845922E+04
        89   7  2.235588E+04 -8.056687E+04 -4.552530E+04 -9.838792E+04 -1.335917E+04 -2.795932E+04
        89   8 -4.854037E+04 -9.661502E+04 -5.479079E+04 -9.269674E+04 -1.262089E+04 -3.337046E+04
        89   9 -1.195421E+05 -1.127917E+05 -6.456399E+04 -9.843526E+04 -1.188159E+04 -3.846343E+04
        89  10  7.367730E+05  8.048451E+04  4.563014E+04 -9.837149E+04  6.778698E-08 -1.990565E-09
        89  11  8.076843E+05  9.649139E+04  5.489535E+04 -9.263337E+04  1.069517E-09 -1.602263E-09
        89  12  8.787531E+05  1.126342E+05  6.471241E+04 -9.832404E+04 -6.450474E-08 -1.639982E-09
        89  13  3.794988E+05 -3.900224E+01  5.177618E+01 -9.837986E+04 -1.505417E-11 -3.182759E-09
        89  14  3.794779E+05 -5.866024E+01  5.148496E+01 -9.266524E+04  6.351628E-09 -2.270222E-09
        89  15  3.794778E+05 -7.438686E+01  7.336083E+01 -9.837986E+04 -6.593310E-11 -2.181922E-09
        89  16  2.235548E+04 -8.056775E+04 -4.552710E+04 -9.838822E+04 -6.537542E-08 -4.388546E-09
        89  17 -4.854084E+04 -9.661626E+04 -5.479318E+04 -9.269708E+04 -8.318980E-10 -3.025157E-09
        89  18 -1.195426E+05 -1.127933E+05 -6.456704E+04 -9.843562E+04  7.088927E-08 -2.484563E-09
        89  19  7.367734E+05  8.048540E+04  4.563195E+04 -9.837180E+04 -1.338291E+04  2.795669E+04
        89  20  8.076848E+05  9.649263E+04  5.489774E+04 -9.263371E+04 -1.259360E+04  3.336482E+04
        89  21  8.787536E+05  1.126358E+05  6.471545E+04 -9.832441E+04 -1.180533E+04  3.845501E+04
        89  22  3.794990E+05 -3.816273E+01  5.324532E+01 -9.837986E+04 -8.211332E+00  2.795801E+04
        89  23  3.794782E+05 -5.746443E+01  5.357763E+01 -9.266524E+04  1.778039E+01  3.336764E+04
        89  24  3.794782E+05 -7.279827E+01  7.614087E+01 -9.837986E+04  4.265757E+01  3.845922E+04
        89  25  2.235588E+04 -8.056687E+04 -4.552530E+04 -9.838792E+04  1.335917E+04  2.795932E+04
        89  26 -4.854037E+04 -9.661502E+04 -5.479079E+04 -9.269674E+04  1.262089E+04  3.337046E+04
        89  27 -1.195421E+05 -1.127917E+05 -6.456399E+04 -9.843526E+04  1.188159E+04  3.846343E+04
        90   1  9.227259E+05  1.226906E+05  7.113212E+04 -9.826175E+04  1.160604E+04 -4.138877E+04
        90   2  9.932644E+05  1.391682E+05  8.308087E+04 -9.262220E+04  5.853105E+03 -4.506169E+04
        90   3  1.064849E+06  1.566868E+05  9.903979E+04 -9.823786E+04  9.962776E+01 -4.637268E+04
        90   4  3.794774E+05 -8.259405E+01  9.595399E+01 -9.834134E+04 -5.627601E+01 -4.139396E+04
        90   5  3.794348E+05 -8.254293E+01  1.581302E+02 -9.271339E+04 -1.329952E+02 -4.506749E+04
        90   6  3.794479E+05 -2.569982E+01  2.925458E+02 -9.834136E+04 -2.095401E+02 -4.637786E+04
        90   7 -1.634693E+05 -1.228681E+05 -7.094157E+04 -9.842085E+04 -1.170889E+04 -4.139916E+04
        90   8 -2.340115E+05 -1.393495E+05 -8.276803E+04 -9.280448E+04 -6.113456E+03 -4.507330E+04
        90   9 -3.054792E+05 -1.567597E+05 -9.846207E+04 -9.844473E+04 -5.183814E+02 -4.638304E+04
        90  10  9.227253E+05  1.226887E+05  7.112864E+04 -9.826136E+04 -6.529363E-08 -2.501377E-09
        90  11  9.932638E+05  1.391660E+05  8.307699E+04 -9.262198E+04  4.553610E-08 -4.892587E-09
        90  12  1.064848E+06  1.566845E+05  9.903575E+04 -9.823786E+04  1.447316E-07 -7.397832E-09
        90  13  3.794769E+05 -8.443434E+01  9.273348E+01 -9.834134E+04  4.301999E-09 -4.819173E-10
        90  14  3.794342E+05 -8.472435E+01  1.543127E+02 -9.271339E+04  2.201416E-09  5.283507E-09
        90  15  3.794473E+05 -2.800994E+01  2.885030E+02 -9.834136E+04  6.579560E-09  1.056671E-08
        90  16 -1.634699E+05 -1.228699E+05 -7.094505E+04 -9.842124E+04  6.768583E-08 -2.780196E-09
        90  17 -2.340121E+05 -1.393517E+05 -8.277192E+04 -9.280470E+04 -3.543451E-08 -3.507164E-09
        90  18 -3.054797E+05 -1.567620E+05 -9.846611E+04 -9.844475E+04 -1.413361E-07 -6.157070E-09
        90  19  9.227259E+05  1.226906E+05  7.113212E+04 -9.826175E+04 -1.160604E+04  4.138877E+04
        90  20  9.932644E+05  1.391682E+05  8.308087E+04 -9.262220E+04 -5.853105E+03  4.506169E+04
        90  21  1.064849E+06  1.566868E+05  9.903979E+04 -9.823786E+04 -9.962776E+01  4.637268E+04
        90  22  3.794774E+05 -8.259405E+01  9.595399E+01 -9.834134E+04  5.627601E+01  4.139396E+04
        90  23  3.794348E+05 -8.254293E+01  1.581302E+02 -9.271339E+04  1.329952E+02  4.506749E+04
        90  24  3.794479E+05 -2.569982E+01  2.925458E+02 -9.834136E+04  2.095401E+02  4.637786E+04
        90  25 -1.634693E+05 -1.228681E+05 -7.094157E+04 -9.842085E+04  1.170889E+04  4.139916E+04
        90  26 -2.340115E+05 -1.393495E+05 -8.276803E+04 -9.280448E+04  6.113456E+03  4.507330E+04
        90  27 -3.054792E+05 -1.567597E+05 -9.846207E+04 -9.844473E+04  5.183814E+02  4.638304E+04
        91   1  1.109979E+06  1.678092E+05  1.095470E+05 -9.788766E+04 -1.343593E+03 -4.691956E+04
        91   2  1.177449E+06  1.878666E+05  1.411166E+05 -9.329572E+04 -4.371352E+04 -3.774529E+04
        91   3  1.252445E+06  2.157902E+05  2.022150E+05 -9.866042E+04 -8.610458E+04 -1.109412E+04
        91   4  3.794776E+05  6.574948E+00  3.926314E+02 -9.805239E+04 -2.609662E+02 -4.692458E+04
        91   5  3.793392E+05  3.114454E+02  7.151559E+02 -9.307471E+04 -6.159786E+02 -3.773060E+04
        91   6  3.794410E+05  1.199994E+03  1.421744E+03 -9.805287E+04 -9.858506E+02 -1.104943E+04
        91   7 -3.504891E+05 -1.678213E+05 -1.087721E+05 -9.821692E+04  8.204398E+02 -4.692960E+04
        91   8 -4.181447E+05 -1.872775E+05 -1.397025E+05 -9.285402E+04  4.242788E+04 -3.771586E+04
        91   9 -4.928437E+05 -2.134395E+05 -1.993947E+05 -9.744620E+04  8.401433E+04 -1.100454E+04
        91  10  1.109979E+06  1.678069E+05  1.095429E+05 -9.788771E+04 -6.444922E-08 -7.112284E-09
        91  11  1.177447E+06  1.878646E+05  1.411103E+05 -9.329705E+04 -3.223521E-08 -4.218074E-09
        91  12  1.252437E+06  2.157881E+05  2.022008E+05 -9.866119E+04 -4.633232E-09 -8.873770E-10
        91  13  3.794770E+05  4.210033E+00  3.884927E+02 -9.805240E+04  6.083033E-09  9.356002E-09
        91  14  3.793388E+05  3.099163E+02  7.124795E+02 -9.307473E+04  4.803189E-09  8.018801E-09
        91  15  3.794410E+05  1.199862E+03  1.421512E+03 -9.805287E+04 -2.067243E-09  1.623774E-09
        91  16 -3.504897E+05 -1.678236E+05 -1.087762E+05 -9.821689E+04  7.099837E-08 -6.257463E-09
        91  17 -4.181470E+05 -1.872795E+05 -1.397085E+05 -9.285273E+04  3.900618E-08 -2.320664E-09
        91  18 -4.928514E+05 -2.134416E+05 -1.994082E+05 -9.744546E+04  2.496386E-09 -1.146625E-09
        91  19  1.109979E+06  1.678092E+05  1.095470E+05 -9.788766E+04  1.343593E+03  4.691956E+04
        91  20  1.177449E+06  1.878666E+05  1.411166E+05 -9.329572E+04  4.371352E+04  3.774529E+04
        91  21  1.252445E+06  2.157902E+05  2.022150E+05 -9.866042E+04  8.610458E+04  1.109412E+04
        91  22  3.794776E+05  6.574948E+00  3.926314E+02 -9.805239E+04  2.609662E+02  4.692458E+04
        91  23  3.793392E+05  3.114454E+02  7.151559E+02 -9.307471E+04  6.159786E+02  3.773060E+04
        91  24  3.794410E+05  1.199994E+03  1.421744E+03 -9.805287E+04  9.858506E+02  1.104943E+04
        91  25 -3.504891E+05 -1.678213E+05 -1.087721E+05 -9.821692E+04 -8.204398E+02  4.692960E+04
        91  26 -4.181447E+05 -1.872775E+05 -1.397025E+05 -9.285402E+04 -4.242788E+04  3.771586E+04
        91  27 -4.928437E+05 -2.134395E+05 -1.993947E+05 -9.744620E+04 -8.401433E+04  1.100454E+04
        92   1  1.755745E+05  8.714938E+05  1.682503E+05 -3.080106E+05  5.963044E+03  3.871877E+04
        92   2  1.141133E+05  6.325135E+05  9.509269E+04 -2.889418E+05  1.647472E+04  3.281217E+03
        92   3  5.818881E+04  3.995612E+05  4.636143E+04 -3.089081E+05  1.130642E+04 -3.214675E+04
        92   4 -1.585005E+03  1.553699E+05 -1.867981E+03 -3.087606E+05  5.998840E+03 -2.652101E+03
        92   5 -2.465417E+02  1.554879E+05  9.327504E+01 -2.892410E+05  1.648112E+04 -2.675345E+03
        92   6  4.911778E+02  1.554442E+05  1.910113E+03 -3.087590E+05  1.127780E+04 -2.702028E+03
        92   7 -1.787805E+05 -5.602800E+05 -1.720156E+05 -3.095095E+05  6.034765E+03 -4.397554E+04
        92   8 -1.146202E+05 -3.213203E+05 -9.491739E+04 -2.895399E+05  1.648753E+04 -8.627426E+03
        92   9 -5.720935E+04 -8.861315E+04 -4.254034E+04 -3.086100E+05  1.124917E+04  2.673144E+04
        92  10  1.755741E+05  8.714921E+05  1.682474E+05 -3.080108E+05  1.162909E-09 -1.947930E-10
        92  11  1.141130E+05  6.325134E+05  9.509216E+04 -2.889418E+05 -8.116199E-10 -3.846748E-09
        92  12  5.818840E+04  3.995601E+05  4.635925E+04 -3.089078E+05 -4.324179E-09 -6.391586E-09
        92  13 -1.585046E+03  1.553699E+05 -1.868062E+03 -3.087606E+05  6.733898E-09 -3.845949E-10
        92  14 -2.468352E+02  1.554879E+05  9.275122E+01 -2.892410E+05  1.556742E-09 -1.634495E-10
        92  15  4.910392E+02  1.554441E+05  1.909861E+03 -3.087590E+05  4.156988E-09 -1.372351E-09
        92  16 -1.787811E+05 -5.602821E+05 -1.720193E+05 -3.095093E+05  2.244517E-09 -2.084978E-10
        92  17 -1.146206E+05 -3.213204E+05 -9.491804E+04 -2.895398E+05 -3.754775E-09  4.051750E-09
        92  18 -5.720968E+04 -8.861395E+04 -4.254192E+04 -3.086102E+05  2.493445E-10  7.096560E-09
        92  19  1.755745E+05  8.714938E+05  1.682503E+05 -3.080106E+05 -5.963044E+03 -3.871877E+04
        92  20  1.141133E+05  6.325135E+05  9.509269E+04 -2.889418E+05 -1.647472E+04 -3.281217E+03
        92  21  5.818881E+04  3.995612E+05  4.636143E+04 -3.089081E+05 -1.130642E+04  3.214675E+04
        92  22 -1.585005E+03  1.553699E+05 -1.867981E+03 -3.087606E+05 -5.998840E+03  2.652101E+03
        92  23 -2.465417E+02  1.554879E+05  9.327504E+01 -2.892410E+05 -1.648112E+04  2.675345E+03
        92  24  4.911778E+02  1.554442E+05  1.910113E+03 -3.087590E+05 -1.127780E+04  2.702028E+03
        92  25 -1.787805E+05 -5.602800E+05 -1.720156E+05 -3.095095E+05 -6.034765E+03  4.397554E+04
        92  26 -1.146202E+05 -3.213203E+05 -9.491739E+04 -2.895399E+05 -1.648753E+04  8.627426E+03
        92  27 -5.720935E+04 -8.861315E+04 -4.254034E+04 -3.086100E+05 -1.124917E+04 -2.673144E+04
        93   1  2.387326E+04  2.520434E+05  2.277384E+04 -3.091515E+05  2.949841E+03 -3.312507E+04
        93   2 -3.022567E+04  1.593574E+04 -1.412515E+04 -2.877441E+05 -9.981146E+03 -3.450504E+04
        93   3 -8.254619E+04 -2.195244E+05 -4.969384E+04 -3.063482E+05 -2.219336E+04 -3.588325E+04
        93   4  6.453373E+02  1.556833E+05  2.971639E+03 -3.089754E+05  2.919904E+03 -3.134314E+03
        93   5  1.656802E+03  1.552354E+05  5.986204E+03 -2.889685E+05 -1.000820E+04 -6.142112E+03
        93   6  4.730624E+03  1.556606E+05  1.145813E+04 -3.089720E+05 -2.221766E+04 -9.148626E+03
        93   7 -2.258269E+04  5.933392E+04 -1.682768E+04 -3.087994E+05  2.889980E+03  2.685187E+04
        93   8  3.353882E+04  2.945563E+05  2.610028E+04 -2.901933E+05 -1.003536E+04  2.222691E+04
        93   9  9.200066E+04  5.309866E+05  7.260881E+04 -3.115974E+05 -2.224218E+04  1.760160E+04
        93  10  2.387296E+04  2.520423E+05  2.277176E+04 -3.091514E+05 -6.229974E-09  1.836686E-09
        93  11 -3.022610E+04  1.593443E+04 -1.412758E+04 -2.877444E+05 -2.642860E-09  1.163974E-09
        93  12 -8.254706E+04 -2.195259E+05 -4.969719E+04 -3.063488E+05  1.117426E-09  3.734747E-11
        93  13  6.453255E+02  1.556833E+05  2.971604E+03 -3.089754E+05  1.417404E-09 -5.327877E-10
        93  14  1.656684E+03  1.552353E+05  5.985945E+03 -2.889686E+05 -9.155585E-09 -2.471446E-10
        93  15  4.730071E+03  1.556604E+05  1.145704E+04 -3.089722E+05 -3.067496E-09 -1.314519E-09
        93  16 -2.258289E+04  5.933315E+04 -1.682905E+04 -3.087994E+05 -2.990204E-09 -2.359332E-09
        93  17  3.353858E+04  2.945557E+05  2.609916E+04 -2.901931E+05 -1.099812E-09 -1.076885E-09
        93  18  9.200005E+04  5.309862E+05  7.260730E+04 -3.115971E+05  3.716222E-10  5.947051E-10
        93  19  2.387326E+04  2.520434E+05  2.277384E+04 -3.091515E+05 -2.949841E+03  3.312507E+04
        93  20 -3.022567E+04  1.593574E+04 -1.412515E+04 -2.877441E+05  9.981146E+03  3.450504E+04
        93  21 -8.254619E+04 -2.195244E+05 -4.969384E+04 -3.063482E+05  2.219336E+04  3.588325E+04
        93  22  6.453373E+02  1.556833E+05  2.971639E+03 -3.089754E+05 -2.919904E+03  3.134314E+03
        93  23  1.656802E+03  1.552354E+05  5.986204E+03 -2.889685E+05  1.000820E+04  6.142112E+03
        93  24  4.730624E+03  1.556606E+05  1.145813E+04 -3.089720E+05  2.221766E+04  9.148626E+03
        93  25 -2.258269E+04  5.933392E+04 -1.682768E+04 -3.087994E+05 -2.889980E+03 -2.685187E+04
        93  26  3.353882E+04  2.945563E+05  2.610028E+04 -2.901933E+05  1.003536E+04 -2.222691E+04
        93  27  9.200066E+04  5.309866E+05  7.260881E+04 -3.115974E+05  2.224218E+04 -1.760160E+04
        94   1 -1.159014E+05 -3.660249E+05 -7.147563E+04 -3.072903E+05 -2.986436E+04 -3.706639E+04
        94   2 -1.614399E+05 -6.015554E+05 -1.150869E+05 -2.703993E+05 -3.067689E+04 -3.326436E+03
        94   3 -1.920407E+05 -8.376704E+05 -1.769398E+05 -2.720897E+05 -1.005330E+04  3.040195E+04
        94   4  6.133260E+03  1.571632E+05  1.542294E+04 -3.086533E+05 -2.988595E+04 -1.115158E+04
        94   5  1.832989E+04  1.532307E+05  2.860455E+04 -2.893509E+05 -3.065561E+04 -2.573940E+04
        94   6  5.384512E+04  1.570417E+05  5.710773E+04 -3.086206E+05 -1.000311E+04 -4.032554E+04
        94   7  1.281541E+05  6.806232E+05  1.023158E+05 -3.100174E+05 -2.990764E+04  1.478434E+04
        94   8  1.980678E+05  9.085681E+05  1.722724E+05 -3.083258E+05 -3.063298E+04 -4.817897E+04
        94   9  2.996680E+05  1.152679E+06  2.911067E+05 -3.452101E+05 -9.944643E+03 -1.111658E+05
        94  10 -1.159027E+05 -3.660266E+05 -7.147989E+04 -3.072912E+05 -9.703769E-10 -6.015926E-08
        94  11 -1.614410E+05 -6.015557E+05 -1.150886E+05 -2.703994E+05  4.123504E-09 -1.366227E-09
        94  12 -1.920411E+05 -8.376714E+05 -1.769417E+05 -2.720895E+05  7.258176E-10  5.756022E-08
        94  13  6.132267E+03  1.571628E+05  1.542102E+04 -3.086536E+05  4.292295E-09 -4.661462E-10
        94  14  1.832870E+04  1.532297E+05  2.860153E+04 -2.893515E+05 -9.106391E-10 -2.132860E-10
        94  15  5.384457E+04  1.570399E+05  5.710448E+04 -3.086209E+05  6.966321E-10 -6.592072E-10
        94  16  1.281531E+05  6.806227E+05  1.023137E+05 -3.100171E+05 -4.658519E-10  5.982458E-08
        94  17  1.980662E+05  9.085654E+05  1.722663E+05 -3.083270E+05  3.991470E-09  1.618982E-09
        94  18  2.996646E+05  1.152665E+06  2.910834E+05 -3.452110E+05  2.669373E-09 -5.725590E-08
        94  19 -1.159014E+05 -3.660249E+05 -7.147563E+04 -3.072903E+05  2.986436E+04  3.706639E+04
        94  20 -1.614399E+05 -6.015554E+05 -1.150869E+05 -2.703993E+05  3.067689E+04  3.326436E+03
        94  21 -1.920407E+05 -8.376704E+05 -1.769398E+05 -2.720897E+05  1.005330E+04 -3.040195E+04
        94  22  6.133260E+03  1.571632E+05  1.542294E+04 -3.086533E+05  2.988595E+04  1.115158E+04
        94  23  1.832989E+04  1.532307E+05  2.860455E+04 -2.893509E+05  3.065561E+04  2.573940E+04
        94  24  5.384512E+04  1.570417E+05  5.710773E+04 -3.086206E+05  1.000311E+04  4.032554E+04
        94  25  1.281541E+05  6.806232E+05  1.023158E+05 -3.100174E+05  2.990764E+04 -1.478434E+04
        94  26  1.980678E+05  9.085681E+05  1.722724E+05 -3.083258E+05  3.063298E+04  4.817897E+04
        94  27  2.996680E+05  1.152679E+06  2.911067E+05 -3.452101E+05  9.944643E+03  1.111658E+05
        95   1 -3.660747E+05 -2.074111E+05 -1.340109E+05 -1.514910E+05 -6.376849E+04 -2.023253E+04
        95   2 -3.427413E+05 -1.265133E+05 -7.796327E+04 -1.414689E+05 -4.004842E+04 -3.203594E+03
        95   3 -3.350335E+05 -9.719077E+04 -5.418119E+04 -1.261402E+05 -1.399349E+04  7.610929E+03
        95   4 -1.695208E+05 -9.917357E+04 -7.609744E+04 -6.231148E+04 -5.021730E+04 -1.515101E+04
        95   5 -1.583374E+05 -4.448665E+04 -3.445878E+04 -7.611401E+04 -3.472965E+04 -1.209027E+03
        95   6 -1.611429E+05 -3.973753E+04 -1.855606E+04 -8.461262E+04 -1.690832E+04  6.517085E+03
        95   7  2.707179E+04  9.080645E+03 -1.818747E+04  2.689695E+04 -3.666162E+04 -1.006590E+04
        95   8  2.610081E+04  3.754697E+04  9.043318E+03 -1.073995E+04 -2.940921E+04  7.864766E+02
        95   9  1.277930E+04  1.771714E+04  1.706780E+04 -4.307471E+04 -1.982405E+04  5.422980E+03
        95  10 -3.660792E+05 -2.074126E+05 -1.340193E+05 -1.514921E+05  1.841554E-09  2.219751E-12
        95  11 -3.427431E+05 -1.265137E+05 -7.796630E+04 -1.414691E+05 -6.251565E-09 -2.396877E-09
        95  12 -3.350337E+05 -9.719089E+04 -5.418167E+04 -1.261401E+05 -2.721155E-09 -3.397330E-09
        95  13 -1.695236E+05 -9.917449E+04 -7.610261E+04 -6.231209E+04  2.439708E-10 -4.626948E-10
        95  14 -1.583387E+05 -4.448698E+04 -3.446105E+04 -7.611404E+04 -1.740333E-09 -1.458643E-09
        95  15 -1.611432E+05 -3.973765E+04 -1.855668E+04 -8.461254E+04  2.999719E-09 -1.992136E-09
        95  16  2.707031E+04  9.080175E+03 -1.819019E+04  2.689666E+04  6.449227E-10 -9.702716E-10
        95  17  2.609988E+04  3.754674E+04  9.041692E+03 -1.073993E+04 -1.272166E-10 -1.418934E-10
        95  18  1.277887E+04  1.771700E+04  1.706700E+04 -4.307462E+04  3.275313E-09  1.453497E-10
        95  19 -3.660747E+05 -2.074111E+05 -1.340109E+05 -1.514910E+05  6.376849E+04  2.023253E+04
        95  20 -3.427413E+05 -1.265133E+05 -7.796327E+04 -1.414689E+05  4.004842E+04  3.203594E+03
        95  21 -3.350335E+05 -9.719077E+04 -5.418119E+04 -1.261402E+05  1.399349E+04 -7.610929E+03
        95  22 -1.695208E+05 -9.917357E+04 -7.609744E+04 -6.231148E+04  5.021730E+04  1.515101E+04
        95  23 -1.583374E+05 -4.448665E+04 -3.445878E+04 -7.611401E+04  3.472965E+04  1.209027E+03
        95  24 -1.611429E+05 -3.973753E+04 -1.855606E+04 -8.461262E+04  1.690832E+04 -6.517085E+03
        95  25  2.707179E+04  9.080645E+03 -1.818747E+04  2.689695E+04  3.666162E+04  1.006590E+04
        95  26  2.610081E+04  3.754697E+04  9.043318E+03 -1.073995E+04  2.940921E+04 -7.864766E+02
        95  27  1.277930E+04  1.771714E+04  1.706780E+04 -4.307471E+04  1.982405E+04 -5.422980E+03
        96   1 -3.092420E+05 -9.836338E+04 -4.604052E+04 -1.249175E+05 -1.271278E+04  6.688265E+03
        96   2 -2.855621E+05 -8.344737E+04 -3.347185E+04 -1.147253E+05 -7.902471E+03  6.927002E+03
        96   3 -2.577725E+05 -7.602737E+04 -2.464392E+04 -1.104035E+05 -2.948485E+03  6.782694E+03
        96   4 -1.588108E+05 -4.244676E+04 -1.425364E+04 -8.253078E+04 -1.427988E+04  6.100060E+03
        96   5 -1.607517E+05 -3.759191E+04 -7.526260E+03 -8.002910E+04 -9.976358E+03  6.148819E+03
        96   6 -1.584829E+05 -4.013237E+04 -4.137306E+03 -8.339800E+04 -5.529329E+03  5.814502E+03
        96   7 -8.357552E+03  1.347145E+04  1.753167E+04 -4.013488E+04 -1.584738E+04  5.511700E+03
        96   8 -3.592547E+04  8.264881E+03  1.841852E+04 -4.532641E+04 -1.205069E+04  5.370467E+03
        96   9 -5.918243E+04 -4.236324E+03  1.636903E+04 -5.638834E+04 -8.110636E+03  4.846140E+03
        96  10 -3.092422E+05 -9.836347E+04 -4.604091E+04 -1.249174E+05  1.123680E-09 -2.577745E-09
        96  11 -2.855621E+05 -8.344744E+04 -3.347206E+04 -1.147253E+05 -6.654934E-09 -3.183476E-09
        96  12 -2.577725E+05 -7.602742E+04 -2.464402E+04 -1.104035E+05 -8.433518E-09 -1.732113E-09
        96  13 -1.588110E+05 -4.244685E+04 -1.425410E+04 -8.253071E+04 -1.386910E-09 -2.276757E-09
        96  14 -1.607519E+05 -3.759198E+04 -7.526518E+03 -8.002905E+04 -5.484768E-09 -2.915578E-09
        96  15 -1.584829E+05 -4.013241E+04 -4.137427E+03 -8.339798E+04 -1.208152E-09 -1.269274E-09
        96  16 -8.357830E+03  1.347135E+04  1.753114E+04 -4.013481E+04 -8.149278E-09 -1.833509E-09
        96  17 -3.592564E+04  8.264811E+03  1.841819E+04 -4.532636E+04 -6.978801E-09 -2.709530E-09
        96  18 -5.918250E+04 -4.236367E+03  1.636886E+04 -5.638831E+04 -6.555998E-10 -1.016736E-09
        96  19 -3.092420E+05 -9.836338E+04 -4.604052E+04 -1.249175E+05  1.271278E+04 -6.688265E+03
        96  20 -2.855621E+05 -8.344737E+04 -3.347185E+04 -1.147253E+05  7.902471E+03 -6.927002E+03
        96  21 -2.577725E+05 -7.602737E+04 -2.464392E+04 -1.104035E+05  2.948485E+03 -6.782694E+03
        96  22 -1.588108E+05 -4.244676E+04 -1.425364E+04 -8.253078E+04  1.427988E+04 -6.100060E+03
        96  23 -1.607517E+05 -3.759191E+04 -7.526260E+03 -8.002910E+04  9.976358E+03 -6.148819E+03
        96  24 -1.584829E+05 -4.013237E+04 -4.137306E+03 -8.339800E+04  5.529329E+03 -5.814502E+03
        96  25 -8.357552E+03  1.347145E+04  1.753167E+04 -4.013488E+04  1.584738E+04 -5.511700E+03
        96  26 -3.592547E+04  8.264881E+03  1.841852E+04 -4.532641E+04  1.205069E+04 -5.370467E+03
        96  27 -5.918243E+04 -4.236324E+03  1.636903E+04 -5.638834E+04  8.110636E+03 -4.846140E+03
        97   1 -2.392907E+05 -6.973406E+04 -1.974723E+04 -1.055700E+05 -2.024782E+03  5.839879E+03
        97   2 -2.158880E+05 -5.745365E+04 -1.302854E+04 -9.527823E+04 -4.271432E+02  4.275602E+03
        97   3 -1.871951E+05 -5.071493E+04 -6.992263E+03 -9.123237E+04  1.179302E+03  2.687538E+03
        97   4 -1.583140E+05 -4.024082E+04 -3.116630E+03 -8.328527E+04 -4.523073E+03  4.902723E+03
        97   5 -1.609579E+05 -3.744852E+04 -1.713981E+03 -8.017124E+04 -2.956863E+03  3.326735E+03
        97   6 -1.583061E+05 -4.019160E+04 -9.687294E+02 -8.330326E+04 -1.381892E+03  1.726950E+03
        97   7 -7.733071E+04 -1.074704E+04  1.351365E+04 -6.099787E+04 -7.021714E+03  3.965438E+03
        97   8 -1.060250E+05 -1.744322E+04  9.600387E+03 -6.506307E+04 -5.486814E+03  2.377783E+03
        97   9 -1.294164E+05 -2.966828E+04  5.054724E+03 -7.537388E+04 -3.943194E+03  7.663221E+02
        97  10 -2.392907E+05 -6.973410E+04 -1.974730E+04 -1.055700E+05 -4.196333E-09  3.047992E-10
        97  11 -2.158880E+05 -5.745367E+04 -1.302858E+04 -9.527823E+04 -7.843354E-10  1.124743E-09
        97  12 -1.871951E+05 -5.071494E+04 -6.992279E+03 -9.123237E+04 -6.720653E-10  1.220035E-09
        97  13 -1.583141E+05 -4.024085E+04 -3.116714E+03 -8.328526E+04  6.263684E-12  2.224825E-10
        97  14 -1.609580E+05 -3.744853E+04 -1.714019E+03 -8.017123E+04  2.917527E-09  1.036638E-09
        97  15 -1.583061E+05 -4.019160E+04 -9.687386E+02 -8.330326E+04  3.121790E-09  5.751255E-11
        97  16 -7.733077E+04 -1.074707E+04  1.351353E+04 -6.099785E+04  2.975077E-09  4.693023E-11
        97  17 -1.060251E+05 -1.744323E+04  9.600320E+03 -6.506306E+04  3.949778E-09  8.089694E-10
        97  18 -1.294164E+05 -2.966829E+04  5.054693E+03 -7.537388E+04  9.387311E-10 -1.125040E-09
        97  19 -2.392907E+05 -6.973406E+04 -1.974723E+04 -1.055700E+05  2.024782E+03 -5.839879E+03
        97  20 -2.158880E+05 -5.745365E+04 -1.302854E+04 -9.527823E+04  4.271432E+02 -4.275602E+03
        97  21 -1.871951E+05 -5.071493E+04 -6.992263E+03 -9.123237E+04 -1.179302E+03 -2.687538E+03
        97  22 -1.583140E+05 -4.024082E+04 -3.116630E+03 -8.328527E+04  4.523073E+03 -4.902723E+03
        97  23 -1.609579E+05 -3.744852E+04 -1.713981E+03 -8.017124E+04  2.956863E+03 -3.326735E+03
        97  24 -1.583061E+05 -4.019160E+04 -9.687294E+02 -8.330326E+04  1.381892E+03 -1.726950E+03
        97  25 -7.733071E+04 -1.074704E+04  1.351365E+04 -6.099787E+04  7.021714E+03 -3.965438E+03
        97  26 -1.060250E+05 -1.744322E+04  9.600387E+03 -6.506307E+04  5.486814E+03 -2.377783E+03
        97  27 -1.294164E+05 -2.966828E+04  5.054724E+03 -7.537388E+04  3.943194E+03 -7.663221E+02
        98   1 -1.690884E+05 -4.409492E+04 -2.889936E+03 -8.624832E+04  1.738512E+03  1.614684E+03
        98   2 -1.457559E+05 -3.188163E+04  2.671319E+03 -7.593387E+04  2.697189E+03 -2.262069E+02
        98   3 -1.170159E+05 -2.511534E+04  8.056828E+03 -7.185857E+04  3.656360E+03 -2.068323E+03
        98   4 -1.582846E+05 -4.019459E+04 -7.462605E+02 -8.329331E+04 -8.177118E+02  6.559770E+02
        98   5 -1.609885E+05 -3.747497E+04 -4.689143E+02 -8.017208E+04  1.392621E+02 -1.185582E+03
        98   6 -1.582858E+05 -4.020232E+04 -3.661384E+02 -8.329048E+04  1.096716E+03 -3.028364E+03
        98   7 -1.474805E+05 -3.629421E+04  1.397461E+03 -8.033823E+04 -3.374003E+03 -3.027550E+02
        98   8 -1.762209E+05 -4.306830E+04 -3.609149E+03 -8.441021E+04 -2.418608E+03 -2.144935E+03
        98   9 -1.995540E+05 -5.528915E+04 -8.789167E+03 -9.472169E+04 -1.462746E+03 -3.988337E+03
        98  10 -1.690884E+05 -4.409492E+04 -2.889946E+03 -8.624832E+04 -3.319273E-09  3.357900E-10
        98  11 -1.457559E+05 -3.188164E+04  2.671305E+03 -7.593387E+04 -6.626661E-09  2.632670E-10
        98  12 -1.170159E+05 -2.511534E+04  8.056795E+03 -7.185857E+04 -6.124841E-09  1.426264E-09
        98  13 -1.582846E+05 -4.019459E+04 -7.462625E+02 -8.329331E+04  3.228564E-10 -8.836325E-10
        98  14 -1.609885E+05 -3.747497E+04 -4.689170E+02 -8.017208E+04 -7.277545E-09 -6.866277E-10
        98  15 -1.582858E+05 -4.020233E+04 -3.661579E+02 -8.329048E+04  1.287878E-08  1.576961E-09
        98  16 -1.474806E+05 -3.629422E+04  1.397439E+03 -8.033823E+04 -2.661934E-09 -1.947285E-09
        98  17 -1.762209E+05 -4.306831E+04 -3.609168E+03 -8.441022E+04 -4.395396E-09 -1.391298E-09
        98  18 -1.995540E+05 -5.528917E+04 -8.789201E+03 -9.472169E+04  1.105249E-08  1.574911E-09
        98  19 -1.690884E+05 -4.409492E+04 -2.889936E+03 -8.624832E+04 -1.738512E+03 -1.614684E+03
        98  20 -1.457559E+05 -3.188163E+04  2.671319E+03 -7.593387E+04 -2.697189E+03  2.262069E+02
        98  21 -1.170159E+05 -2.511534E+04  8.056828E+03 -7.185857E+04 -3.656360E+03  2.068323E+03
        98  22 -1.582846E+05 -4.019459E+04 -7.462605E+02 -8.329331E+04  8.177118E+02 -6.559770E+02
        98  23 -1.609885E+05 -3.747497E+04 -4.689143E+02 -8.017208E+04 -1.392621E+02  1.185582E+03
        98  24 -1.582858E+05 -4.020232E+04 -3.661384E+02 -8.329048E+04 -1.096716E+03  3.028364E+03
        98  25 -1.474805E+05 -3.629421E+04  1.397461E+03 -8.033823E+04  3.374003E+03  3.027550E+02
        98  26 -1.762209E+05 -4.306830E+04 -3.609149E+03 -8.441021E+04  2.418608E+03  2.144935E+03
        98  27 -1.995540E+05 -5.528915E+04 -8.789167E+03 -9.472169E+04  1.462746E+03  3.988337E+03
        99   1 -9.894520E+04 -1.848221E+04  1.193743E+04 -6.687139E+04  4.138923E+03 -3.169334E+03
        99   2 -7.562005E+04 -6.265680E+03  1.712189E+04 -5.655960E+04  5.089391E+03 -5.013944E+03
        99   3 -4.688713E+04  5.059026E+02  2.213715E+04 -5.248468E+04  6.039132E+03 -6.856161E+03
        99   4 -1.582865E+05 -4.020244E+04 -3.647497E+02 -8.329001E+04  1.579332E+03 -4.129394E+03
        99   5 -1.609901E+05 -3.747846E+04 -4.613384E+02 -8.017216E+04  2.532846E+03 -5.972979E+03
        99   6 -1.582873E+05 -4.020006E+04 -7.295303E+02 -8.329142E+04  3.485626E+03 -7.814178E+03
        99   7 -2.176237E+05 -6.192220E+04 -1.266696E+04 -9.970706E+04 -9.799769E+02 -5.089349E+03
        99   8 -2.463528E+05 -6.869063E+04 -1.804492E+04 -1.037817E+05 -2.332136E+01 -6.931872E+03
        99   9 -2.696756E+05 -8.090530E+04 -2.359706E+04 -1.140933E+05  9.325935E+02 -8.772017E+03
        99  10 -9.894522E+04 -1.848223E+04  1.193738E+04 -6.687137E+04  1.166708E-08  3.565051E-09
        99  11 -7.562009E+04 -6.265714E+03  1.712180E+04 -5.655958E+04  1.142798E-09 -3.022129E-10
        99  12 -4.688718E+04  5.058424E+02  2.213699E+04 -5.248465E+04  2.734063E-09 -4.813062E-10
        99  13 -1.582865E+05 -4.020246E+04 -3.647864E+02 -8.329001E+04  1.667113E-08  1.447624E-09
        99  14 -1.609902E+05 -3.747850E+04 -4.614175E+02 -8.017215E+04  6.545726E-09 -2.396268E-10
        99  15 -1.582873E+05 -4.020013E+04 -7.296679E+02 -8.329140E+04  7.129370E-09  1.307993E-09
        99  16 -2.176237E+05 -6.192223E+04 -1.266702E+04 -9.970707E+04  1.207561E-08 -5.308700E-10
        99  17 -2.463528E+05 -6.869069E+04 -1.804501E+04 -1.037817E+05  8.942040E-10  2.814419E-10
        99  18 -2.696756E+05 -8.090538E+04 -2.359720E+04 -1.140933E+05  5.972157E-10  3.244857E-09
        99  19 -9.894520E+04 -1.848221E+04  1.193743E+04 -6.687139E+04 -4.138923E+03  3.169334E+03
        99  20 -7.562005E+04 -6.265680E+03  1.712189E+04 -5.655960E+04 -5.089391E+03  5.013944E+03
        99  21 -4.688713E+04  5.059026E+02  2.213715E+04 -5.248468E+04 -6.039132E+03  6.856161E+03
        99  22 -1.582865E+05 -4.020244E+04 -3.647497E+02 -8.329001E+04 -1.579332E+03  4.129394E+03
        99  23 -1.609901E+05 -3.747846E+04 -4.613384E+02 -8.017216E+04 -2.532846E+03  5.972979E+03
        99  24 -1.582873E+05 -4.020006E+04 -7.295303E+02 -8.329142E+04 -3.485626E+03  7.814178E+03
        99  25 -2.176237E+05 -6.192220E+04 -1.266696E+04 -9.970706E+04  9.799769E+02  5.089349E+03
        99  26 -2.463528E+05 -6.869063E+04 -1.804492E+04 -1.037817E+05  2.332136E+01  6.931872E+03
        99  27 -2.696756E+05 -8.090530E+04 -2.359706E+04 -1.140933E+05 -9.325935E+02  8.772017E+03
       100   1 -2.883527E+04  7.129664E+03  2.579817E+04 -4.751900E+04  6.606746E+03 -7.925146E+03
       100   2 -5.472080E+03  1.934697E+04  3.036314E+04 -3.721187E+04  8.112732E+03 -9.543398E+03
       100   3  2.319751E+04  2.604423E+04  3.432361E+04 -3.314287E+04  9.606104E+03 -1.112714E+04
       100   4 -1.583098E+05 -4.019741E+04 -9.455876E+02 -8.330018E+04  4.046462E+03 -8.885810E+03
       100   5 -1.609636E+05 -3.745928E+04 -1.670885E+03 -8.017169E+04  5.597876E+03 -1.048723E+04
       100   6 -1.583205E+05 -4.025037E+04 -3.036744E+03 -8.328174E+04  7.136634E+03 -1.205415E+04
       100   7 -2.877670E+05 -8.752308E+04 -2.769019E+04 -1.190745E+05  1.486753E+03 -9.846258E+03
       100   8 -3.164296E+05 -9.426327E+04 -3.370597E+04 -1.231214E+05  3.083707E+03 -1.143081E+04
       100   9 -3.398032E+05 -1.065417E+05 -4.039839E+04 -1.334067E+05  4.667961E+03 -1.298087E+04
       100  10 -2.883534E+04  7.129585E+03  2.579797E+04 -4.751896E+04  1.060320E-08  1.666885E-09
       100  11 -5.472175E+03  1.934685E+04  3.036285E+04 -3.721181E+04  6.585426E-09 -1.423056E-09
       100  12  2.319738E+04  2.604407E+04  3.432320E+04 -3.314279E+04 -4.930896E-09 -1.238340E-09
       100  13 -1.583098E+05 -4.019750E+04 -9.457667E+02 -8.330015E+04  8.168078E-09  1.320165E-09
       100  14 -1.609636E+05 -3.745941E+04 -1.671150E+03 -8.017165E+04  6.693384E-09 -1.716842E-10
       100  15 -1.583206E+05 -4.025054E+04 -3.037113E+03 -8.328167E+04 -4.896495E-09  3.390070E-10
       100  16 -2.877671E+05 -8.752318E+04 -2.769037E+04 -1.190745E+05 -1.811422E-09  9.345213E-10
       100  17 -3.164296E+05 -9.426342E+04 -3.370623E+04 -1.231214E+05  9.013828E-10  3.629091E-10
       100  18 -3.398033E+05 -1.065419E+05 -4.039874E+04 -1.334067E+05  3.806862E-09  2.069810E-09
       100  19 -2.883527E+04  7.129664E+03  2.579817E+04 -4.751900E+04 -6.606746E+03  7.925146E+03
       100  20 -5.472080E+03  1.934697E+04  3.036314E+04 -3.721187E+04 -8.112732E+03  9.543398E+03
       100  21  2.319751E+04  2.604423E+04  3.432361E+04 -3.314287E+04 -9.606104E+03  1.112714E+04
       100  22 -1.583098E+05 -4.019741E+04 -9.455876E+02 -8.330018E+04 -4.046462E+03  8.885810E+03
       100  23 -1.609636E+05 -3.745928E+04 -1.670885E+03 -8.017169E+04 -5.597876E+03  1.048723E+04
       100  24 -1.583205E+05 -4.025037E+04 -3.036744E+03 -8.328174E+04 -7.136634E+03  1.205415E+04
       100  25 -2.877670E+05 -8.752308E+04 -2.769019E+04 -1.190745E+05 -1.486753E+03  9.846258E+03
       100  26 -3.164296E+05 -9.426327E+04 -3.370597E+04 -1.231214E+05 -3.083707E+03  1.143081E+04
       100  27 -3.398032E+05 -1.065417E+05 -4.039839E+04 -1.334067E+05 -4.667961E+03  1.298087E+04
       101   1  4.132484E+04  3.255794E+04  3.720012E+04 -2.851845E+04  1.071670E+04 -1.200129E+04
       101   2  6.452556E+04  4.504088E+04  3.939878E+04 -1.749878E+04  1.430827E+04 -1.256571E+04
       101   3  9.210266E+04  5.034254E+04  3.892485E+04 -1.233505E+04  1.769386E+04 -1.257978E+04
       101   4 -1.584866E+05 -4.014268E+04 -4.030330E+03 -8.338751E+04  8.128841E+03 -1.297288E+04
       101   5 -1.607634E+05 -3.760868E+04 -7.331836E+03 -8.003638E+04  1.244863E+04 -1.326430E+04
       101   6 -1.588095E+05 -4.240130E+04 -1.388387E+04 -8.254193E+04  1.656226E+04 -1.300531E+04
       101   7 -3.582588E+05 -1.128407E+05 -4.526328E+04 -1.382408E+05  5.541860E+03 -1.394414E+04
       101   8 -3.860013E+05 -1.202543E+05 -5.406539E+04 -1.425533E+05  1.058971E+04 -1.396262E+04
       101   9 -4.096575E+05 -1.351397E+05 -6.669607E+04 -1.527226E+05  1.543115E+04 -1.343065E+04
       101  10  4.132468E+04  3.255775E+04  3.719963E+04 -2.851835E+04  1.374891E-09  1.046179E-09
       101  11  6.452530E+04  4.504066E+04  3.939810E+04 -1.749864E+04 -1.068037E-09 -1.244970E-10
       101  12  9.210228E+04  5.034229E+04  3.892397E+04 -1.233487E+04  2.191546E-10 -1.755515E-09
       101  13 -1.584867E+05 -4.014288E+04 -4.030771E+03 -8.338743E+04 -2.336911E-09  2.609739E-10
       101  14 -1.607636E+05 -3.760891E+04 -7.332458E+03 -8.003625E+04 -2.937218E-09 -7.562572E-10
       101  15 -1.588099E+05 -4.240155E+04 -1.388470E+04 -8.254176E+04  3.700471E-09 -7.967015E-10
       101  16 -3.582589E+05 -1.128409E+05 -4.526371E+04 -1.382407E+05  2.467526E-10  6.722148E-10
       101  17 -3.860015E+05 -1.202545E+05 -5.406596E+04 -1.425532E+05 -5.858153E-10 -3.082677E-10
       101  18 -4.096578E+05 -1.351400E+05 -6.669686E+04 -1.527225E+05 -2.083997E-09 -7.930759E-10
       101  19  4.132484E+04  3.255794E+04  3.720012E+04 -2.851845E+04 -1.071670E+04  1.200129E+04
       101  20  6.452556E+04  4.504088E+04  3.939878E+04 -1.749878E+04 -1.430827E+04  1.256571E+04
       101  21  9.210266E+04  5.034254E+04  3.892485E+04 -1.233505E+04 -1.769386E+04  1.257978E+04
       101  22 -1.584866E+05 -4.014268E+04 -4.030330E+03 -8.338751E+04 -8.128841E+03  1.297288E+04
       101  23 -1.607634E+05 -3.760868E+04 -7.331836E+03 -8.003638E+04 -1.244863E+04  1.326430E+04
       101  24 -1.588095E+05 -4.240130E+04 -1.388387E+04 -8.254193E+04 -1.656226E+04  1.300531E+04
       101  25 -3.582588E+05 -1.128407E+05 -4.526328E+04 -1.382408E+05 -5.541860E+03  1.394414E+04
       101  26 -3.860013E+05 -1.202543E+05 -5.406539E+04 -1.425533E+05 -1.058971E+04  1.396262E+04
       101  27 -4.096575E+05 -1.351397E+05 -6.669607E+04 -1.527226E+05 -1.543115E+04  1.343065E+04
       102   1  1.132107E+05  5.470153E+04  3.854923E+04 -1.500328E+04  2.221913E+04 -1.233535E+04
       102   2  1.265045E+05  7.436855E+04  3.206192E+04  1.649693E+04  2.727521E+04 -7.980842E+03
       102   3  1.285288E+05  4.776251E+04  9.886108E+03  5.317176E+04  2.897966E+04  5.297662E+03
       102   4 -1.611079E+05 -3.973678E+04 -1.807430E+04 -8.453832E+04  1.915150E+04 -1.348769E+04
       102   5 -1.583840E+05 -4.436139E+04 -3.356519E+04 -7.626164E+04  3.603471E+04 -4.692787E+03
       102   6 -1.692813E+05 -9.761621E+04 -7.412140E+04 -6.280956E+04  4.956498E+04  1.302743E+04
       102   7 -4.353493E+05 -1.341710E+05 -7.470163E+04 -1.540459E+05  1.608534E+04 -1.463956E+04
       102   8 -4.431863E+05 -1.630770E+05 -9.919638E+04 -1.689778E+05  4.478978E+04 -1.406889E+03
       102   9 -4.669945E+05 -2.429662E+05 -1.581333E+05 -1.787317E+05  7.013908E+04  2.075018E+04
       102  10  1.132101E+05  5.470123E+04  3.854801E+04 -1.500306E+04  1.045002E-09 -1.204614E-09
       102  11  1.265037E+05  7.436828E+04  3.206040E+04  1.649711E+04  3.222593E-09 -7.143141E-10
       102  12  1.285279E+05  4.776226E+04  9.884478E+03  5.317163E+04 -3.232416E-09 -1.111351E-09
       102  13 -1.611083E+05 -3.973708E+04 -1.807533E+04 -8.453811E+04  2.819947E-09 -2.052764E-09
       102  14 -1.583854E+05 -4.436176E+04 -3.356767E+04 -7.626151E+04 -2.465880E-09 -2.454419E-09
       102  15 -1.692840E+05 -9.761705E+04 -7.412634E+04 -6.281008E+04  2.304738E-09  5.132942E-10
       102  16 -4.353497E+05 -1.341713E+05 -7.470251E+04 -1.540457E+05 -1.926815E-09 -2.736620E-09
       102  17 -4.431885E+05 -1.630776E+05 -9.920016E+04 -1.689778E+05 -5.427324E-09 -2.544424E-09
       102  18 -4.669999E+05 -2.429679E+05 -1.581433E+05 -1.787329E+05  1.119180E-09 -5.898900E-10
       102  19  1.132107E+05  5.470153E+04  3.854923E+04 -1.500328E+04 -2.221913E+04  1.233535E+04
       102  20  1.265045E+05  7.436855E+04  3.206192E+04  1.649693E+04 -2.727521E+04  7.980842E+03
       102  21  1.285288E+05  4.776251E+04  9.886108E+03  5.317176E+04 -2.897966E+04 -5.297662E+03
       102  22 -1.611079E+05 -3.973678E+04 -1.807430E+04 -8.453832E+04 -1.915150E+04  1.348769E+04
       102  23 -1.583840E+05 -4.436139E+04 -3.356519E+04 -7.626164E+04 -3.603471E+04  4.692787E+03
       102  24 -1.692813E+05 -9.761621E+04 -7.412140E+04 -6.280956E+04 -4.956498E+04 -1.302743E+04
       102  25 -4.353493E+05 -1.341710E+05 -7.470163E+04 -1.540459E+05 -1.608534E+04  1.463956E+04
       102  26 -4.431863E+05 -1.630770E+05 -9.919638E+04 -1.689778E+05 -4.478978E+04  1.406889E+03
       102  27 -4.669945E+05 -2.429662E+05 -1.581333E+05 -1.787317E+05 -7.013908E+04 -2.075018E+04
       103   1  9.277785E+05  1.504064E+05  1.338618E+05  1.407330E+04  3.629687E+04 -1.148669E+04
       103   2  8.882723E+05  1.688563E+05  1.139490E+05  2.863154E+04  1.406777E+04 -3.957808E+04
       103   3  8.469954E+05  1.685083E+05  1.038177E+05  4.927725E+04 -8.170704E+03 -4.986450E+04
       103   4  1.016665E+05 -5.283489E+04 -5.705694E+04  4.842537E+04 -4.007731E+04 -1.155012E+04
       103   5  1.057557E+05 -1.597779E+04 -2.835791E+04  4.535665E+04 -2.551795E+04 -3.961989E+04
       103   6  1.016835E+05 -4.316617E+03 -1.541306E+04  4.837513E+04 -1.096972E+04 -4.987313E+04
       103   7 -7.238002E+05 -2.561164E+05 -2.479987E+05  8.273129E+04 -1.163507E+05 -1.162204E+04
       103   8 -6.761621E+05 -2.008444E+05 -1.706832E+05  6.205997E+04 -6.505518E+04 -3.966386E+04
       103   9 -6.430767E+05 -1.771694E+05 -1.346584E+05  4.747396E+04 -1.376550E+04 -4.988176E+04
       103  10  9.277770E+05  1.504059E+05  1.338591E+05  1.407364E+04  6.083275E-11 -4.295706E-10
       103  11  8.882716E+05  1.688546E+05  1.139456E+05  2.863199E+04 -3.458150E-09 -2.992270E-09
       103  12  8.469946E+05  1.685056E+05  1.038129E+05  4.927692E+04 -1.164933E-09 -4.273345E-09
       103  13  1.016648E+05 -5.283546E+04 -5.706021E+04  4.842500E+04 -1.936637E-09  7.364805E-10
       103  14  1.057546E+05 -1.597965E+04 -2.836208E+04  4.535584E+04  5.148883E-09 -1.507014E-09
       103  15  1.016827E+05 -4.319320E+03 -1.541796E+04  4.837468E+04  7.183286E-09 -1.820629E-09
       103  16 -7.238148E+05 -2.561202E+05 -2.480244E+05  8.273020E+04  8.844868E-10  5.514365E-10
       103  17 -6.761671E+05 -2.008472E+05 -1.706941E+05  6.205790E+04  5.019008E-10 -2.372156E-09
       103  18 -6.430776E+05 -1.771721E+05 -1.346634E+05  4.747341E+04  4.421402E-10 -4.052287E-09
       103  19  9.277785E+05  1.504064E+05  1.338618E+05  1.407330E+04 -3.629687E+04  1.148669E+04
       103  20  8.882723E+05  1.688563E+05  1.139490E+05  2.863154E+04 -1.406777E+04  3.957808E+04
       103  21  8.469954E+05  1.685083E+05  1.038177E+05  4.927725E+04  8.170704E+03  4.986450E+04
       103  22  1.016665E+05 -5.283489E+04 -5.705694E+04  4.842537E+04  4.007731E+04  1.155012E+04
       103  23  1.057557E+05 -1.597779E+04 -2.835791E+04  4.535665E+04  2.551795E+04  3.961989E+04
       103  24  1.016835E+05 -4.316617E+03 -1.541306E+04  4.837513E+04  1.096972E+04  4.987313E+04
       103  25 -7.238002E+05 -2.561164E+05 -2.479987E+05  8.273129E+04  1.163507E+05  1.162204E+04
       103  26 -6.761621E+05 -2.008444E+05 -1.706832E+05  6.205997E+04  6.505518E+04  3.966386E+04
       103  27 -6.430767E+05 -1.771694E+05 -1.346584E+05  4.747396E+04  1.376550E+04  4.988176E+04
       104   1  8.222403E+05  1.626719E+05  1.008550E+05  4.745665E+04 -5.990427E+03 -5.001170E+04
       104   2  7.820968E+05  1.550706E+05  9.542685E+04  4.485342E+04 -7.074178E+03 -5.043266E+04
       104   3  7.418211E+05  1.463233E+05  9.042269E+04  4.959422E+04 -8.160915E+03 -4.879829E+04
       104   4  1.033106E+05 -3.517753E+03 -1.158442E+04  4.865800E+04 -8.973158E+03 -5.002063E+04
       104   5  1.037546E+05 -8.719888E+02 -6.312468E+03  4.498347E+04 -5.812859E+03 -5.043647E+04
       104   6  1.033284E+05 -1.093310E+02 -3.563007E+03  4.865349E+04 -2.655537E+03 -4.879582E+04
       104   7 -6.151040E+05 -1.697328E+05 -1.240362E+05  4.985775E+04 -1.195256E+04 -5.002958E+04
       104   8 -5.741261E+05 -1.568363E+05 -1.080608E+05  4.511321E+04 -4.552859E+03 -5.044029E+04
       104   9 -5.347543E+05 -1.465609E+05 -9.755585E+04  4.771362E+04  2.844419E+03 -4.879337E+04
       104  10  8.222396E+05  1.626692E+05  1.008503E+05  4.745641E+04 -6.990198E-09 -5.586557E-09
       104  11  7.820961E+05  1.550678E+05  9.542198E+04  4.485314E+04  6.326868E-10 -1.703372E-09
       104  12  7.418204E+05  1.463207E+05  9.041809E+04  4.959390E+04  1.241621E-09  7.572462E-10
       104  13  1.033099E+05 -3.520462E+03 -1.158927E+04  4.865764E+04  2.821667E-10 -3.576651E-09
       104  14  1.037539E+05 -8.747296E+02 -6.317312E+03  4.498323E+04  5.071111E-09 -9.748677E-10
       104  15  1.033278E+05 -1.118898E+02 -3.567495E+03  4.865339E+04  8.938154E-10 -1.580839E-09
       104  16 -6.151048E+05 -1.697355E+05 -1.240412E+05  4.985727E+04  7.727356E-09 -1.158702E-09
       104  17 -5.741268E+05 -1.568391E+05 -1.080657E+05  4.511302E+04  1.663859E-10  1.170642E-09
       104  18 -5.347549E+05 -1.465635E+05 -9.756034E+04  4.771373E+04  6.711495E-11 -1.115257E-10
       104  19  8.222403E+05  1.626719E+05  1.008550E+05  4.745665E+04  5.990427E+03  5.001170E+04
       104  20  7.820968E+05  1.550706E+05  9.542685E+04  4.485342E+04  7.074178E+03  5.043266E+04
       104  21  7.418211E+05  1.463233E+05  9.042269E+04  4.959422E+04  8.160915E+03  4.879829E+04
       104  22  1.033106E+05 -3.517753E+03 -1.158442E+04  4.865800E+04  8.973158E+03  5.002063E+04
       104  23  1.037546E+05 -8.719888E+02 -6.312468E+03  4.498347E+04  5.812859E+03  5.043647E+04
       104  24  1.033284E+05 -1.093310E+02 -3.563007E+03  4.865349E+04  2.655537E+03  4.879582E+04
       104  25 -6.151040E+05 -1.697328E+05 -1.240362E+05  4.985775E+04  1.195256E+04  5.002958E+04
       104  26 -5.741261E+05 -1.568363E+05 -1.080608E+05  4.511321E+04  4.552859E+03  5.044029E+04
       104  27 -5.347543E+05 -1.465609E+05 -9.755585E+04  4.771362E+04 -2.844419E+03  4.879337E+04
       105   1  7.165987E+05  1.404538E+05  8.713091E+04  4.941149E+04 -7.603618E+03 -4.717339E+04
       105   2  6.764507E+05  1.313067E+05  8.198246E+04  4.566846E+04 -7.339848E+03 -4.440142E+04
       105   3  6.362609E+05  1.221346E+05  7.665585E+04  4.940801E+04 -7.077451E+03 -4.139265E+04
       105   4  1.034993E+05 -7.197399E+01 -2.694768E+03  4.868466E+04 -2.120680E+03 -4.717031E+04
       105   5  1.035711E+05  8.238326E+01 -1.521639E+03  4.494301E+04 -1.368473E+03 -4.439662E+04
       105   6  1.035148E+05  1.268813E+02 -8.660945E+02  4.868435E+04 -6.176225E+02 -4.138602E+04
       105   7 -5.092219E+05 -1.406152E+05 -9.252685E+04  4.795843E+04  3.357073E+03 -4.716724E+04
       105   8 -4.689778E+05 -1.311571E+05 -8.503113E+04  4.421813E+04  4.597627E+03 -4.439183E+04
       105   9 -4.289453E+05 -1.218939E+05 -7.839261E+04  4.796122E+04  5.836899E+03 -4.137939E+04
       105  10  7.165981E+05  1.404514E+05  8.712662E+04  4.941120E+04 -1.794758E-09  1.521594E-09
       105  11  6.764501E+05  1.313046E+05  8.197866E+04  4.566819E+04  2.133881E-09 -3.627968E-10
       105  12  6.362604E+05  1.221328E+05  7.665254E+04  4.940778E+04  1.887829E-09 -8.803795E-10
       105  13  1.034987E+05 -7.436461E+01 -2.698958E+03  4.868458E+04  2.437442E-09 -1.966240E-09
       105  14  1.035706E+05  8.026609E+01 -1.525347E+03  4.494296E+04  6.995129E-10  1.434376E-09
       105  15  1.035143E+05  1.250419E+02 -8.693141E+02  4.868433E+04 -8.813912E-11  3.597492E-09
       105  16 -5.092225E+05 -1.406176E+05 -9.253105E+04  4.795856E+04  1.884855E-09  8.736654E-10
       105  17 -4.689783E+05 -1.311592E+05 -8.503487E+04  4.421829E+04  8.038422E-10  3.515502E-09
       105  18 -4.289458E+05 -1.218958E+05 -7.839589E+04  4.796141E+04 -9.301246E-10  2.175295E-09
       105  19  7.165987E+05  1.404538E+05  8.713091E+04  4.941149E+04  7.603618E+03  4.717339E+04
       105  20  6.764507E+05  1.313067E+05  8.198246E+04  4.566846E+04  7.339848E+03  4.440142E+04
       105  21  6.362609E+05  1.221346E+05  7.665585E+04  4.940801E+04  7.077451E+03  4.139265E+04
       105  22  1.034993E+05 -7.197399E+01 -2.694768E+03  4.868466E+04  2.120680E+03  4.717031E+04
       105  23  1.035711E+05  8.238326E+01 -1.521639E+03  4.494301E+04  1.368473E+03  4.439662E+04
       105  24  1.035148E+05  1.268813E+02 -8.660945E+02  4.868435E+04  6.176225E+02  4.138602E+04
       105  25 -5.092219E+05 -1.406152E+05 -9.252685E+04  4.795843E+04 -3.357073E+03  4.716724E+04
       105  26 -4.689778E+05 -1.311571E+05 -8.503113E+04  4.421813E+04 -4.597627E+03  4.439183E+04
       105  27 -4.289453E+05 -1.218939E+05 -7.839261E+04  4.796122E+04 -5.836899E+03  4.137939E+04
       106   1  6.110215E+05  1.163158E+05  7.301333E+04  4.936875E+04 -6.939739E+03 -3.956421E+04
       106   2  5.708856E+05  1.071251E+05  6.748614E+04  4.557813E+04 -6.817422E+03 -3.642515E+04
       106   3  5.307288E+05  9.796426E+04  6.188276E+04  4.928167E+04 -6.696040E+03 -3.325916E+04
       106   4  1.035410E+05  1.284029E+02 -6.539932E+02  4.868695E+04 -4.833522E+02 -3.955698E+04
       106   5  1.035637E+05  1.266190E+02 -3.670350E+02  4.493970E+04 -3.057757E+02 -3.641690E+04
       106   6  1.035537E+05  1.448829E+02 -1.949943E+02  4.868694E+04 -1.291270E+02 -3.324989E+04
       106   7 -4.036799E+05 -1.160708E+05 -7.432538E+04  4.800562E+04  5.967983E+03 -3.954975E+04
       106   8 -3.635380E+05 -1.068819E+05 -6.822363E+04  4.430168E+04  6.201178E+03 -3.640866E+04
       106   9 -3.234375E+05 -9.768287E+04 -6.227560E+04  4.809254E+04  6.433459E+03 -3.324062E+04
       106  10  6.110210E+05  1.163141E+05  7.301029E+04  4.936853E+04  2.588992E-09  8.635554E-10
       106  11  5.708852E+05  1.071237E+05  6.748355E+04  4.557793E+04  2.386398E-09  6.917870E-09
       106  12  5.307285E+05  9.796306E+04  6.188059E+04  4.928149E+04 -2.283878E-09  7.298519E-09
       106  13  1.035405E+05  1.267225E+02 -6.569343E+02  4.868693E+04 -3.901596E-09  1.890670E-09
       106  14  1.035633E+05  1.251948E+02 -3.695274E+02  4.493969E+04 -4.675686E-09  6.528860E-09
       106  15  1.035534E+05  1.436957E+02 -1.970720E+02  4.868693E+04 -1.481166E-09  3.828834E-09
       106  16 -4.036804E+05 -1.160725E+05 -7.432839E+04  4.800581E+04 -3.757617E-09  2.295529E-09
       106  17 -3.635384E+05 -1.068834E+05 -6.822620E+04  4.430186E+04  6.350649E-10  3.005988E-09
       106  18 -3.234378E+05 -9.768407E+04 -6.227775E+04  4.809272E+04  3.127079E-09  9.747372E-10
       106  19  6.110215E+05  1.163158E+05  7.301333E+04  4.936875E+04  6.939739E+03  3.956421E+04
       106  20  5.708856E+05  1.071251E+05  6.748614E+04  4.557813E+04  6.817422E+03  3.642515E+04
       106  21  5.307288E+05  9.796426E+04  6.188276E+04  4.928167E+04  6.696040E+03  3.325916E+04
       106  22  1.035410E+05  1.284029E+02 -6.539932E+02  4.868695E+04  4.833522E+02  3.955698E+04
       106  23  1.035637E+05  1.266190E+02 -3.670350E+02  4.493970E+04  3.057757E+02  3.641690E+04
       106  24  1.035537E+05  1.448829E+02 -1.949943E+02  4.868694E+04  1.291270E+02  3.324989E+04
       106  25 -4.036799E+05 -1.160708E+05 -7.432538E+04  4.800562E+04 -5.967983E+03  3.954975E+04
       106  26 -3.635380E+05 -1.068819E+05 -6.822363E+04  4.430168E+04 -6.201178E+03  3.640866E+04
       106  27 -3.234375E+05 -9.768287E+04 -6.227560E+04  4.809254E+04 -6.433459E+03  3.324062E+04
       107   1  5.054950E+05  9.215878E+04  5.812351E+04  4.925452E+04 -6.667541E+03 -3.140787E+04
       107   2  4.653748E+05  8.297776E+04  5.246065E+04  4.546173E+04 -6.655405E+03 -2.822758E+04
       107   3  4.252377E+05  7.382734E+04  4.679025E+04  4.916583E+04 -6.643962E+03 -2.504474E+04
       107   4  1.035607E+05  1.481395E+02 -1.358539E+02  4.868753E+04 -1.017240E+02 -3.139811E+04
       107   5  1.035751E+05  1.401769E+02 -4.482420E+01  4.493896E+04 -8.449762E+01 -2.821708E+04
       107   6  1.035706E+05  1.621227E+02  3.519618E+01  4.868752E+04 -6.796237E+01 -2.503351E+04
       107   7 -2.982106E+05 -9.186990E+04 -5.839768E+04  4.812084E+04  6.460023E+03 -3.138836E+04
       107   8 -2.580926E+05 -8.270341E+04 -5.255228E+04  4.441643E+04  6.482744E+03 -2.820660E+04
       107   9 -2.179922E+05 -7.350784E+04 -4.672141E+04  4.820942E+04  6.504774E+03 -2.502229E+04
       107  10  5.054947E+05  9.215771E+04  5.812157E+04  4.925436E+04  6.715280E-09  4.223540E-09
       107  11  4.653745E+05  8.297690E+04  5.245907E+04  4.546158E+04  4.055315E-09  2.195876E-09
       107  12  4.252375E+05  7.382666E+04  4.678899E+04  4.916570E+04 -9.194763E-09  7.816223E-10
       107  13  1.035605E+05  1.470809E+02 -1.377066E+02  4.868753E+04 -1.623733E-09  6.662452E-09
       107  14  1.035749E+05  1.393218E+02 -4.632051E+01  4.493895E+04 -4.421223E-10  1.982154E-09
       107  15  1.035704E+05  1.614497E+02  3.401847E+01  4.868752E+04 -5.213154E-09 -3.215170E-11
       107  16 -2.982109E+05 -9.187097E+04 -5.839961E+04  4.812101E+04 -3.647495E-09  2.271853E-09
       107  17 -2.580929E+05 -8.270427E+04 -5.255385E+04  4.441658E+04  4.219594E-09 -5.460744E-10
       107  18 -2.179924E+05 -7.350852E+04 -4.672267E+04  4.820955E+04  1.164831E-08 -1.004731E-09
       107  19  5.054950E+05  9.215878E+04  5.812351E+04  4.925452E+04  6.667541E+03  3.140787E+04
       107  20  4.653748E+05  8.297776E+04  5.246065E+04  4.546173E+04  6.655405E+03  2.822758E+04
       107  21  4.252377E+05  7.382734E+04  4.679025E+04  4.916583E+04  6.643962E+03  2.504474E+04
       107  22  1.035607E+05  1.481395E+02 -1.358539E+02  4.868753E+04  1.017240E+02  3.139811E+04
       107  23  1.035751E+05  1.401769E+02 -4.482420E+01  4.493896E+04  8.449762E+01  2.821708E+04
       107  24  1.035706E+05  1.621227E+02  3.519618E+01  4.868752E+04  6.796237E+01  2.503351E+04
       107  25 -2.982106E+05 -9.186990E+04 -5.839768E+04  4.812084E+04 -6.460023E+03  3.138836E+04
       107  26 -2.580926E+05 -8.270341E+04 -5.255228E+04  4.441643E+04 -6.482744E+03  2.820660E+04
       107  27 -2.179922E+05 -7.350784E+04 -4.672141E+04  4.820942E+04 -6.504774E+03  2.502229E+04
       108   1  4.000151E+05  6.802452E+04  4.301839E+04  4.913703E+04 -6.656405E+03 -2.319146E+04
       108   2  3.599025E+05  5.884866E+04  3.737609E+04  4.533592E+04 -6.748147E+03 -2.000852E+04
       108   3  3.197843E+05  4.972023E+04  3.179604E+04  4.902844E+04 -6.840366E+03 -1.682753E+04
       108   4  1.035763E+05  1.651573E+02  7.669669E+01  4.868679E+04 -8.103947E+01 -2.317988E+04
       108   5  1.035830E+05  1.591608E+02  1.820882E+02  4.493986E+04 -1.769908E+02 -1.999642E+04
       108   6  1.035832E+05  2.013608E+02  3.525419E+02  4.868673E+04 -2.734253E+02 -1.681493E+04
       108   7 -1.927739E+05 -6.769821E+04 -4.286626E+04  4.823672E+04  6.491320E+03 -2.316829E+04
       108   8 -1.526702E+05 -5.853334E+04 -3.701283E+04  4.454393E+04  6.391567E+03 -1.998434E+04
       108   9 -1.125706E+05 -4.931964E+04 -3.109157E+04  4.834512E+04  6.291325E+03 -1.680234E+04
       108  10  4.000150E+05  6.802393E+04  4.301730E+04  4.913691E+04 -2.925037E-08  3.532822E-09
       108  11  3.599023E+05  5.884822E+04  3.737525E+04  4.533581E+04  2.233865E-09  4.237466E-09
       108  12  3.197841E+05  4.971991E+04  3.179542E+04  4.902834E+04  3.102848E-08  8.436652E-09
       108  13  1.035761E+05  1.645803E+02  7.568693E+01  4.868678E+04  2.632240E-09 -6.934483E-10
       108  14  1.035829E+05  1.587314E+02  1.813367E+02  4.493985E+04 -1.602728E-09 -5.194938E-09
       108  15  1.035832E+05  2.010572E+02  3.520105E+02  4.868672E+04  1.540699E-09 -9.526866E-09
       108  16 -1.927741E+05 -6.769880E+04 -4.286734E+04  4.823684E+04  2.706914E-08  3.177297E-09
       108  17 -1.526703E+05 -5.853378E+04 -3.701365E+04  4.454403E+04  7.041366E-10 -1.192004E-10
       108  18 -1.125707E+05 -4.931995E+04 -3.109217E+04  4.834520E+04 -2.884083E-08  6.286891E-09
       108  19  4.000151E+05  6.802452E+04  4.301839E+04  4.913703E+04  6.656405E+03  2.319146E+04
       108  20  3.599025E+05  5.884866E+04  3.737609E+04  4.533592E+04  6.748147E+03  2.000852E+04
       108  21  3.197843E+05  4.972023E+04  3.179604E+04  4.902844E+04  6.840366E+03  1.682753E+04
       108  22  1.035763E+05  1.651573E+02  7.669669E+01  4.868679E+04  8.103947E+01  2.317988E+04
       108  23  1.035830E+05  1.591608E+02  1.820882E+02  4.493986E+04  1.769908E+02  1.999642E+04
       108  24  1.035832E+05  2.013608E+02  3.525419E+02  4.868673E+04  2.734253E+02  1.681493E+04
       108  25 -1.927739E+05 -6.769821E+04 -4.286626E+04  4.823672E+04 -6.491320E+03  2.316829E+04
       108  26 -1.526702E+05 -5.853334E+04 -3.701283E+04  4.454393E+04 -6.391567E+03  1.998434E+04
       108  27 -1.125706E+05 -4.931964E+04 -3.109157E+04  4.834512E+04 -6.291325E+03  1.680234E+04
       109   1  2.945876E+05  4.392172E+04  2.810244E+04  4.902020E+04 -6.914301E+03 -1.497613E+04
       109   2  2.544382E+05  3.483898E+04  2.271796E+04  4.507140E+04 -7.308680E+03 -1.180558E+04
       109   3  2.143776E+05  2.603945E+04  1.765037E+04  4.861279E+04 -7.703282E+03 -8.652961E+03
       109   4  1.036073E+05  2.080147E+02  4.736285E+02  4.868604E+04 -3.476096E+02 -1.496329E+04
       109   5  1.035628E+05  2.967637E+02  8.505996E+02  4.494044E+04 -7.791891E+02 -1.179252E+04
       109   6  1.036113E+05  6.750727E+02  1.570021E+03  4.868511E+04 -1.211014E+03 -8.639680E+03
       109   7 -8.733619E+04 -4.350734E+04 -2.715560E+04  4.835197E+04  6.217147E+03 -1.495046E+04
       109   8 -4.728951E+04 -3.424648E+04 -2.101697E+04  4.480950E+04  5.748782E+03 -1.177946E+04
       109   9 -7.142461E+03 -2.468984E+04 -1.451037E+04  4.875742E+04  5.280146E+03 -8.626396E+03
       109  10  2.945875E+05  4.392146E+04  2.810193E+04  4.902011E+04 -4.671680E-08  1.073104E-08
       109  11  2.544381E+05  3.483882E+04  2.271759E+04  4.507133E+04 -7.015725E-09  4.777898E-09
       109  12  2.143775E+05  2.603935E+04  1.765012E+04  4.861274E+04  2.333714E-08  4.263888E-09
       109  13  1.036072E+05  2.077743E+02  4.732075E+02  4.868604E+04 -1.629890E-09 -7.491289E-09
       109  14  1.035628E+05  2.966142E+02  8.503372E+02  4.494043E+04 -5.937247E-09 -2.612586E-09
       109  15  1.036113E+05  6.749922E+02  1.569878E+03  4.868511E+04 -1.713413E-09 -1.719653E-09
       109  16 -8.733629E+04 -4.350759E+04 -2.715610E+04  4.835205E+04  4.781600E-08  1.049803E-08
       109  17 -4.728959E+04 -3.424664E+04 -2.101729E+04  4.480956E+04  7.702480E-09  6.275741E-09
       109  18 -7.142511E+03 -2.468993E+04 -1.451056E+04  4.875745E+04 -2.950281E-08 -2.873539E-09
       109  19  2.945876E+05  4.392172E+04  2.810244E+04  4.902020E+04  6.914301E+03  1.497613E+04
       109  20  2.544382E+05  3.483898E+04  2.271796E+04  4.507140E+04  7.308680E+03  1.180558E+04
       109  21  2.143776E+05  2.603945E+04  1.765037E+04  4.861279E+04  7.703282E+03  8.652961E+03
       109  22  1.036073E+05  2.080147E+02  4.736285E+02  4.868604E+04  3.476096E+02  1.496329E+04
       109  23  1.035628E+05  2.967637E+02  8.505996E+02  4.494044E+04  7.791891E+02  1.179252E+04
       109  24  1.036113E+05  6.750727E+02  1.570021E+03  4.868511E+04  1.211014E+03  8.639680E+03
       109  25 -8.733619E+04 -4.350734E+04 -2.715560E+04  4.835197E+04 -6.217147E+03  1.495046E+04
       109  26 -4.728951E+04 -3.424648E+04 -2.101697E+04  4.480950E+04 -5.748782E+03  1.177946E+04
       109  27 -7.142461E+03 -2.468984E+04 -1.451037E+04  4.875742E+04 -5.280146E+03  8.626396E+03
       110   1  1.893739E+05  2.033813E+04  1.433407E+04  4.885886E+04 -7.978888E+03 -6.817449E+03
       110   2  1.487678E+05  1.270463E+04  1.019859E+04  4.266088E+04 -9.637673E+03 -3.752716E+03
       110   3  1.091924E+05  8.476221E+03  7.982734E+03  4.393810E+04 -1.129617E+04 -8.424435E+02
       110   4  1.038327E+05  7.836882E+02  2.090897E+03  4.868296E+04 -1.485354E+03 -6.804047E+03
       110   5  1.032907E+05  2.352146E+03  3.848986E+03  4.493869E+04 -3.463097E+03 -3.739924E+03
       110   6  1.038336E+05  7.381324E+03  7.748216E+03  4.866951E+04 -5.440652E+03 -8.302812E+02
       110   7  1.829902E+04 -1.877107E+04 -1.015222E+04  4.850708E+04  5.007324E+03 -6.790647E+03
       110   8  5.781586E+04 -8.000390E+03 -2.500497E+03  4.721632E+04  2.711046E+03 -3.727087E+03
       110   9  9.847502E+04  6.286530E+03  7.513841E+03  5.340089E+04  4.148246E+02 -8.180296E+02
       110  10  1.893738E+05  2.033807E+04  1.433386E+04  4.885881E+04 -1.282381E-07  1.554033E-09
       110  11  1.487677E+05  1.270459E+04  1.019839E+04  4.266086E+04  8.495693E-10 -2.605860E-09
       110  12  1.091923E+05  8.476186E+03  7.982493E+03  4.393809E+04  1.252949E-07 -6.172118E-10
       110  13  1.038327E+05  7.836379E+02  2.090806E+03  4.868295E+04  5.674481E-10  4.023863E-09
       110  14  1.032907E+05  2.352128E+03  3.848937E+03  4.493868E+04 -1.786308E-09 -5.915508E-09
       110  15  1.038336E+05  7.381315E+03  7.748160E+03  4.866951E+04 -3.295879E-09  2.731519E-09
       110  16  1.829898E+04 -1.877112E+04 -1.015236E+04  4.850710E+04  1.303710E-07  7.336751E-10
       110  17  5.781585E+04 -8.000407E+03 -2.500537E+03  4.721633E+04  1.897466E-09  8.075595E-10
       110  18  9.847502E+04  6.286529E+03  7.513840E+03  5.340089E+04 -1.218202E-07 -1.614036E-09
       110  19  1.893739E+05  2.033813E+04  1.433407E+04  4.885886E+04  7.978888E+03  6.817449E+03
       110  20  1.487678E+05  1.270463E+04  1.019859E+04  4.266088E+04  9.637673E+03  3.752716E+03
       110  21  1.091924E+05  8.476221E+03  7.982734E+03  4.393810E+04  1.129617E+04  8.424435E+02
       110  22  1.038327E+05  7.836882E+02  2.090897E+03  4.868296E+04  1.485354E+03  6.804047E+03
       110  23  1.032907E+05  2.352146E+03  3.848986E+03  4.493869E+04  3.463097E+03  3.739924E+03
       110  24  1.038336E+05  7.381324E+03  7.748216E+03  4.866951E+04  5.440652E+03  8.302812E+02
       110  25  1.829902E+04 -1.877107E+04 -1.015222E+04  4.850708E+04 -5.007324E+03  6.790647E+03
       110  26  5.781586E+04 -8.000390E+03 -2.500497E+03  4.721632E+04 -2.711046E+03  3.727087E+03
       110  27  9.847502E+04  6.286530E+03  7.513841E+03  5.340089E+04 -4.148246E+02  8.180296E+02
       111   1  1.114171E+04  4.253733E+05  1.219322E+04 -2.805849E+04 -1.126953E+02  2.787603E+03
       111   2 -6.505397E+02  3.970277E+05  3.432585E+03 -2.235823E+04 -9.523752E+02 -4.333666E+02
       111   3 -8.119301E+03  3.701688E+05 -2.154474E+03 -2.404281E+04 -2.508338E+03 -3.654744E+03
       111   4  5.934186E+03  4.046425E+05  6.909725E+03 -2.447415E+04 -1.132078E+02  3.473302E+03
       111   5  9.100154E+02  4.039877E+05  4.292934E+03 -2.078396E+04 -9.536776E+02  1.267084E+03
       111   6  3.338673E+01  4.046433E+05  4.145552E+03 -2.447855E+04 -2.510407E+03 -9.396638E+02
       111   7  7.266788E+02  3.839122E+05  1.626204E+03 -2.088992E+04 -1.137124E+02  4.158979E+03
       111   8  2.470579E+03  4.109478E+05  5.153295E+03 -1.920967E+04 -9.549714E+02  2.967552E+03
       111   9  8.186012E+03  4.391191E+05  1.044556E+04 -2.491431E+04 -2.512480E+03  1.775563E+03
       111  10  1.114171E+04  4.253733E+05  1.219321E+04 -2.805849E+04 -1.763537E-10  3.205796E-09
       111  11 -6.505407E+02  3.970277E+05  3.432583E+03 -2.235823E+04  1.892135E-09 -2.522241E-09
       111  12 -8.119312E+03  3.701688E+05 -2.154511E+03 -2.404282E+04  2.221980E-09 -5.228937E-09
       111  13  5.934183E+03  4.046425E+05  6.909702E+03 -2.447415E+04  1.108726E-09 -2.727202E-11
       111  14  9.100140E+02  4.039877E+05  4.292929E+03 -2.078396E+04  6.483431E-09 -1.548613E-09
       111  15  3.337973E+01  4.046433E+05  4.145538E+03 -2.447855E+04  4.152653E-09 -1.056095E-09
       111  16  7.266741E+02  3.839121E+05  1.626171E+03 -2.088992E+04  9.338328E-10 -4.042759E-09
       111  17  2.470576E+03  4.109478E+05  5.153277E+03 -1.920967E+04  2.865784E-09  3.927357E-10
       111  18  8.186005E+03  4.391191E+05  1.044554E+04 -2.491431E+04 -7.875190E-11  4.991713E-09
       111  19  1.114171E+04  4.253733E+05  1.219322E+04 -2.805849E+04  1.126953E+02 -2.787603E+03
       111  20 -6.505397E+02  3.970277E+05  3.432585E+03 -2.235823E+04  9.523752E+02  4.333666E+02
       111  21 -8.119301E+03  3.701688E+05 -2.154474E+03 -2.404281E+04  2.508338E+03  3.654744E+03
       111  22  5.934186E+03  4.046425E+05  6.909725E+03 -2.447415E+04  1.132078E+02 -3.473302E+03
       111  23  9.100154E+02  4.039877E+05  4.292934E+03 -2.078396E+04  9.536776E+02 -1.267084E+03
       111  24  3.338673E+01  4.046433E+05  4.145552E+03 -2.447855E+04  2.510407E+03  9.396638E+02
       111  25  7.266788E+02  3.839122E+05  1.626204E+03 -2.088992E+04  1.137124E+02 -4.158979E+03
       111  26  2.470579E+03  4.109478E+05  5.153295E+03 -1.920967E+04  9.549714E+02 -2.967552E+03
       111  27  8.186012E+03  4.391191E+05  1.044556E+04 -2.491431E+04  2.512480E+03 -1.775563E+03
       112   1 -1.245433E+04  3.512397E+05 -5.350376E+03 -2.490509E+04 -3.649880E+03 -4.307663E+03
       112   2 -1.903007E+04  3.232535E+05 -8.667116E+03 -2.064538E+04 -5.373378E+03 -7.202029E+03
       112   3 -2.408027E+04  2.960140E+05 -9.721976E+03 -2.379971E+04 -6.820843E+03 -1.009597E+04
       112   4  1.888167E+02  4.045325E+05  4.599167E+03 -2.448449E+04 -3.651868E+03 -1.667743E+03
       112   5  1.879289E+02  4.041245E+05  6.583794E+03 -2.077691E+04 -5.374986E+03 -4.953561E+03
       112   6  1.780393E+03  4.045302E+05  1.110175E+04 -2.448329E+04 -6.822084E+03 -8.239081E+03
       112   7  1.283181E+04  4.578281E+05  1.454861E+04 -2.406385E+04 -3.653852E+03  9.723968E+02
       112   8  1.940555E+04  4.850018E+05  2.183444E+04 -2.090846E+04 -5.376594E+03 -2.704807E+03
       112   9  2.764036E+04  5.130578E+05  3.192494E+04 -2.516698E+04 -6.823329E+03 -6.381871E+03
       112  10 -1.245435E+04  3.512397E+05 -5.350436E+03 -2.490510E+04  1.488496E-10 -1.714563E-13
       112  11 -1.903012E+04  3.232534E+05 -8.667268E+03 -2.064541E+04 -2.685180E-09 -4.087411E-09
       112  12 -2.408034E+04  2.960139E+05 -9.722255E+03 -2.379976E+04 -5.122077E-09 -5.596418E-09
       112  13  1.888017E+02  4.045325E+05  4.599136E+03 -2.448449E+04  2.400806E-09  5.482859E-11
       112  14  1.878913E+02  4.041245E+05  6.583694E+03 -2.077693E+04 -5.400905E-10 -1.432196E-09
       112  15  1.780325E+03  4.045301E+05  1.110153E+04 -2.448333E+04  2.159495E-09 -1.168121E-09
       112  16  1.283179E+04  4.578281E+05  1.454859E+04 -2.406384E+04  1.726473E-10 -6.787506E-10
       112  17  1.940552E+04  4.850018E+05  2.183437E+04 -2.090847E+04  5.079440E-09  2.096602E-09
       112  18  2.764030E+04  5.130578E+05  3.192478E+04 -2.516702E+04 -2.961479E-10  5.430674E-09
       112  19 -1.245433E+04  3.512397E+05 -5.350376E+03 -2.490509E+04  3.649880E+03  4.307663E+03
       112  20 -1.903007E+04  3.232535E+05 -8.667116E+03 -2.064538E+04  5.373378E+03  7.202029E+03
       112  21 -2.408027E+04  2.960140E+05 -9.721976E+03 -2.379971E+04  6.820843E+03  1.009597E+04
       112  22  1.888167E+02  4.045325E+05  4.599167E+03 -2.448449E+04  3.651868E+03  1.667743E+03
       112  23  1.879289E+02  4.041245E+05  6.583794E+03 -2.077691E+04  5.374986E+03  4.953561E+03
       112  24  1.780393E+03  4.045302E+05  1.110175E+04 -2.448329E+04  6.822084E+03  8.239081E+03
       112  25  1.283181E+04  4.578281E+05  1.454861E+04 -2.406385E+04  3.653852E+03 -9.723968E+02
       112  26  1.940555E+04  4.850018E+05  2.183444E+04 -2.090846E+04  5.376594E+03  2.704807E+03
       112  27  2.764036E+04  5.130578E+05  3.192494E+04 -2.516698E+04  6.823329E+03  6.381871E+03
       113   1 -3.050925E+04  2.789884E+05 -1.033388E+04 -2.867859E+04 -7.945244E+03 -1.285033E+04
       113   2 -3.019065E+04  2.470740E+05 -6.632968E+03 -9.373147E+03 -7.505592E+03 -1.922535E+04
       113   3  8.293595E+02  2.236587E+05  8.891779E+03  2.795134E+03 -2.363600E+03 -2.559701E+04
       113   4 -1.191563E+02  4.064942E+05  1.419553E+04 -2.442725E+04 -7.947129E+03 -1.013858E+04
       113   5  7.075350E+03  4.016628E+05  2.507297E+04 -2.084352E+04 -7.502423E+03 -2.317703E+04
       113   6  4.612233E+04  4.064824E+05  5.239731E+04 -2.439618E+04 -2.355587E+03 -3.621247E+04
       113   7  3.027004E+04  5.340156E+05  3.872423E+04 -2.017501E+04 -7.948977E+03 -7.426284E+03
       113   8  4.434035E+04  5.562746E+05  5.677777E+04 -3.231679E+04 -7.499109E+03 -2.712968E+04
       113   9  9.141571E+04  5.893386E+05  9.590133E+04 -5.159554E+04 -2.346647E+03 -4.683103E+04
       113  10 -3.050936E+04  2.789882E+05 -1.033431E+04 -2.867867E+04  3.003749E-10  9.330925E-09
       113  11 -3.019081E+04  2.470736E+05 -6.633769E+03 -9.373264E+03  9.691246E-09 -1.346143E-09
       113  12  8.291777E+02  2.236580E+05  8.890537E+03  2.795085E+03  2.461198E-09 -8.804206E-09
       113  13 -1.192517E+02  4.064940E+05  1.419522E+04 -2.442731E+04  2.246089E-10 -2.299905E-11
       113  14  7.075145E+03  4.016622E+05  2.507186E+04 -2.084366E+04  5.015981E-09 -1.228334E-09
       113  15  4.612197E+04  4.064810E+05  5.239484E+04 -2.439625E+04  8.338364E-10 -9.032782E-10
       113  16  3.026996E+04  5.340156E+05  3.872401E+04 -2.017506E+04 -3.426993E-09 -1.004704E-08
       113  17  4.434009E+04  5.562737E+05  5.677629E+04 -3.231696E+04  9.127626E-09 -3.416348E-10
       113  18  9.141512E+04  5.893363E+05  9.589720E+04 -5.159563E+04  1.715605E-09  8.679000E-09
       113  19 -3.050925E+04  2.789884E+05 -1.033388E+04 -2.867859E+04  7.945244E+03  1.285033E+04
       113  20 -3.019065E+04  2.470740E+05 -6.632968E+03 -9.373147E+03  7.505592E+03  1.922535E+04
       113  21  8.293595E+02  2.236587E+05  8.891779E+03  2.795134E+03  2.363600E+03  2.559701E+04
       113  22 -1.191563E+02  4.064942E+05  1.419553E+04 -2.442725E+04  7.947129E+03  1.013858E+04
       113  23  7.075350E+03  4.016628E+05  2.507297E+04 -2.084352E+04  7.502423E+03  2.317703E+04
       113  24  4.612233E+04  4.064824E+05  5.239731E+04 -2.439618E+04  2.355587E+03  3.621247E+04
       113  25  3.027004E+04  5.340156E+05  3.872423E+04 -2.017501E+04  7.948977E+03  7.426284E+03
       113  26  4.434035E+04  5.562746E+05  5.677777E+04 -3.231679E+04  7.499109E+03  2.712968E+04
       113  27  9.141571E+04  5.893386E+05  9.590133E+04 -5.159554E+04  2.346647E+03  4.683103E+04
       114   1  1.040382E+06  3.761119E+05  1.928830E+05  3.846342E+05  7.484195E+04  1.585047E+04
       114   2  9.864582E+05  3.407365E+05  1.374064E+05  3.677180E+05  4.853047E+04 -2.323354E+04
       114   3  9.338289E+05  3.211433E+05  1.109333E+05  3.578162E+05  1.557477E+04 -4.461830E+04
       114   4  3.045644E+05  9.782020E+04  5.218142E+03  1.800429E+05  7.442734E+03 -9.493766E+03
       114   5  3.070805E+05  9.136847E+04  2.466056E+03  1.772910E+05  1.579140E+04 -3.555215E+04
       114   6  3.040350E+05  9.384601E+04  1.291353E+03  1.815525E+05  1.748691E+04 -4.390418E+04
       114   7 -4.306848E+05 -1.804179E+05 -1.824627E+05 -2.431714E+04 -5.986637E+04 -3.480334E+04
       114   8 -3.718030E+05 -1.579509E+05 -1.324872E+05 -1.293824E+04 -1.690853E+04 -4.785585E+04
       114   9 -3.253379E+05 -1.334119E+05 -1.083621E+05  5.455881E+03  1.939698E+04 -4.319085E+04
       114  10  1.040376E+06  3.761101E+05  1.928720E+05  3.846332E+05  1.074825E-09 -1.315604E-09
       114  11  9.864556E+05  3.407353E+05  1.374009E+05  3.677189E+05 -4.011395E-08 -1.570022E-08
       114  12  9.338281E+05  3.211411E+05  1.109291E+05  3.578168E+05 -6.123513E-08 -2.350175E-08
       114  13  3.045643E+05  9.782009E+04  5.217868E+03  1.800429E+05 -1.893872E-09 -2.432313E-10
       114  14  3.070799E+05  9.136705E+04  2.463211E+03  1.772914E+05 -1.368938E-08 -1.221644E-08
       114  15  3.040342E+05  9.384385E+04  1.287155E+03  1.815531E+05 -2.223640E-08 -2.245305E-08
       114  16 -4.306890E+05 -1.804201E+05 -1.824717E+05 -2.431882E+04 -3.061077E-09  2.291793E-09
       114  17 -3.718039E+05 -1.579535E+05 -1.324920E+05 -1.293890E+04  1.103733E-08  9.922325E-09
       114  18 -3.253388E+05 -1.334140E+05 -1.083663E+05  5.456556E+03  2.968895E-08  1.240153E-08
       114  19  1.040382E+06  3.761119E+05  1.928830E+05  3.846342E+05 -7.484195E+04 -1.585047E+04
       114  20  9.864582E+05  3.407365E+05  1.374064E+05  3.677180E+05 -4.853047E+04  2.323354E+04
       114  21  9.338289E+05  3.211433E+05  1.109333E+05  3.578162E+05 -1.557477E+04  4.461830E+04
       114  22  3.045644E+05  9.782020E+04  5.218142E+03  1.800429E+05 -7.442734E+03  9.493766E+03
       114  23  3.070805E+05  9.136847E+04  2.466056E+03  1.772910E+05 -1.579140E+04  3.555215E+04
       114  24  3.040350E+05  9.384601E+04  1.291353E+03  1.815525E+05 -1.748691E+04  4.390418E+04
       114  25 -4.306848E+05 -1.804179E+05 -1.824627E+05 -2.431714E+04  5.986637E+04  3.480334E+04
       114  26 -3.718030E+05 -1.579509E+05 -1.324872E+05 -1.293824E+04  1.690853E+04  4.785585E+04
       114  27 -3.253379E+05 -1.334119E+05 -1.083621E+05  5.455881E+03 -1.939698E+04  4.319085E+04
       115   1  8.984866E+05  3.085864E+05  1.025631E+05  3.485990E+05  1.616810E+04 -4.317263E+04
       115   2  8.487171E+05  2.847031E+05  8.924723E+04  3.295993E+05  1.187645E+04 -4.330406E+04
       115   3  7.922432E+05  2.692155E+05  7.898036E+04  3.191604E+05  6.901283E+03 -4.162167E+04
       115   4  3.036964E+05  9.400877E+04  9.629756E+02  1.817362E+05  1.693814E+04 -4.288783E+04
       115   5  3.073958E+05  9.006217E+04  5.013942E+02  1.774976E+05  1.619827E+04 -4.168165E+04
       115   6  3.036864E+05  9.380925E+04  2.777429E+02  1.818194E+05  1.477426E+04 -3.866083E+04
       115   7 -2.907255E+05 -1.205363E+05 -1.006489E+05  1.502085E+04  1.770742E+04 -4.260332E+04
       115   8 -2.336157E+05 -1.045500E+05 -8.825193E+04  2.551926E+04  2.051612E+04 -4.006074E+04
       115   9 -1.846148E+05 -8.157238E+04 -7.842957E+04  4.457964E+04  2.264069E+04 -3.570247E+04
       115  10  8.984859E+05  3.085844E+05  1.025591E+05  3.485996E+05  3.872714E-08  1.762704E-08
       115  11  8.487165E+05  2.847010E+05  8.924345E+04  3.295997E+05  2.679880E-08  1.890837E-08
       115  12  7.922427E+05  2.692137E+05  7.897702E+04  3.191606E+05 -2.772030E-09  8.812261E-09
       115  13  3.036956E+05  9.400672E+04  9.589792E+02  1.817368E+05 -1.939287E-08 -2.452763E-08
       115  14  3.073951E+05  9.006024E+04  4.976356E+02  1.774982E+05 -9.324040E-09 -1.081189E-08
       115  15  3.036858E+05  9.380759E+04  2.745233E+02  1.818198E+05 -7.234484E-09  1.325082E-09
       115  16 -2.907263E+05 -1.205384E+05 -1.006529E+05  1.502146E+04 -6.655968E-08 -2.954848E-08
       115  17 -2.336166E+05 -1.045518E+05 -8.825573E+04  2.551993E+04 -3.913640E-08 -1.919856E-08
       115  18 -1.846157E+05 -8.157389E+04 -7.843292E+04  4.458030E+04 -2.903269E-09 -2.602336E-09
       115  19  8.984866E+05  3.085864E+05  1.025631E+05  3.485990E+05 -1.616810E+04  4.317263E+04
       115  20  8.487171E+05  2.847031E+05  8.924723E+04  3.295993E+05 -1.187645E+04  4.330406E+04
       115  21  7.922432E+05  2.692155E+05  7.898036E+04  3.191604E+05 -6.901283E+03  4.162167E+04
       115  22  3.036964E+05  9.400877E+04  9.629756E+02  1.817362E+05 -1.693814E+04  4.288783E+04
       115  23  3.073958E+05  9.006217E+04  5.013942E+02  1.774976E+05 -1.619827E+04  4.168165E+04
       115  24  3.036864E+05  9.380925E+04  2.777429E+02  1.818194E+05 -1.477426E+04  3.866083E+04
       115  25 -2.907255E+05 -1.205363E+05 -1.006489E+05  1.502085E+04 -1.770742E+04  4.260332E+04
       115  26 -2.336157E+05 -1.045500E+05 -8.825193E+04  2.551926E+04 -2.051612E+04  4.006074E+04
       115  27 -1.846148E+05 -8.157238E+04 -7.842957E+04  4.457964E+04 -2.264069E+04  3.570247E+04
       116   1  7.584556E+05  2.570880E+05  7.307340E+04  3.097454E+05  6.083598E+03 -3.919883E+04
       116   2  7.092205E+05  2.342288E+05  6.422920E+04  2.905273E+05  4.137086E+03 -3.530448E+04
       116   3  6.524742E+05  2.190673E+05  5.572301E+04  2.799867E+05  2.119978E+03 -3.122594E+04
       116   4  3.036578E+05  9.383553E+04  2.097493E+02  1.818320E+05  1.383614E+04 -3.628246E+04
       116   5  3.074618E+05  9.003572E+04  1.211861E+02  1.774923E+05  1.225024E+04 -3.225099E+04
       116   6  3.036791E+05  9.386230E+04  8.447335E+01  1.818297E+05  1.059366E+04 -2.803526E+04
       116   7 -1.509129E+05 -6.939346E+04 -7.265631E+04  5.400799E+04  2.158259E+04 -3.336839E+04
       116   8 -9.412352E+04 -5.414049E+04 -6.398967E+04  6.452600E+04  2.035783E+04 -2.919960E+04
       116   9 -4.498918E+04 -3.133144E+04 -5.555721E+04  8.372325E+04  1.906241E+04 -2.484644E+04
       116  10  7.584552E+05  2.570864E+05  7.307044E+04  3.097456E+05  8.286709E-08  4.029184E-08
       116  11  7.092202E+05  2.342275E+05  6.422683E+04  2.905274E+05  1.216275E-08  6.723282E-09
       116  12  6.524739E+05  2.190662E+05  5.572117E+04  2.799868E+05 -7.988820E-08 -4.016954E-08
       116  13  3.036573E+05  9.383407E+04  2.069152E+02  1.818324E+05  4.975540E-09  6.710145E-09
       116  14  3.074614E+05  9.003457E+04  1.189491E+02  1.774926E+05  6.549961E-09  1.576774E-08
       116  15  3.036788E+05  9.386142E+04  8.278514E+01  1.818299E+05 -1.353730E-08  1.032613E-08
       116  16 -1.509137E+05 -6.939478E+04 -7.265928E+04  5.400857E+04 -7.575453E-08 -2.469950E-08
       116  17 -9.412419E+04 -5.414151E+04 -6.399206E+04  6.452648E+04  6.571973E-09  6.224194E-09
       116  18 -4.498974E+04 -3.133220E+04 -5.555905E+04  8.372363E+04  7.185317E-08  2.709277E-08
       116  19  7.584556E+05  2.570880E+05  7.307340E+04  3.097454E+05 -6.083598E+03  3.919883E+04
       116  20  7.092205E+05  2.342288E+05  6.422920E+04  2.905273E+05 -4.137086E+03  3.530448E+04
       116  21  6.524742E+05  2.190673E+05  5.572301E+04  2.799867E+05 -2.119978E+03  3.122594E+04
       116  22  3.036578E+05  9.383553E+04  2.097493E+02  1.818320E+05 -1.383614E+04  3.628246E+04
       116  23  3.074618E+05  9.003572E+04  1.211861E+02  1.774923E+05 -1.225024E+04  3.225099E+04
       116  24  3.036791E+05  9.386230E+04  8.447335E+01  1.818297E+05 -1.059366E+04  2.803526E+04
       116  25 -1.509129E+05 -6.939346E+04 -7.265631E+04  5.400799E+04 -2.158259E+04  3.336839E+04
       116  26 -9.412352E+04 -5.414049E+04 -6.398967E+04  6.452600E+04 -2.035783E+04  2.919960E+04
       116  27 -4.498918E+04 -3.133144E+04 -5.555721E+04  8.372325E+04 -1.906241E+04  2.484644E+04
       117   1  6.188836E+05  2.069856E+05  5.010674E+04  2.705591E+05  1.170336E+03 -2.870061E+04
       117   2  5.697657E+05  1.842202E+05  4.178255E+04  2.513274E+05 -5.340492E+02 -2.439690E+04
       117   3  5.130521E+05  1.690791E+05  3.351600E+04  2.407727E+05 -2.245581E+03 -2.007637E+04
       117   4  3.036794E+05  9.386949E+04  7.621307E+01  1.818273E+05  9.629421E+03 -2.551474E+04
       117   5  3.074884E+05  9.007151E+04  8.064917E+01  1.774874E+05  7.957774E+03 -2.119780E+04
       117   6  3.036919E+05  9.389087E+04  1.162871E+02  1.818234E+05  6.278979E+03 -1.686405E+04
       117   7 -1.141773E+04 -1.923607E+04 -4.995583E+04  9.313781E+04  1.808396E+04 -2.233059E+04
       117   8  4.528679E+04 -4.069330E+03 -4.162179E+04  1.036771E+05  1.644575E+04 -1.800015E+04
       117   9  9.438137E+04  1.870821E+04 -3.328328E+04  1.228934E+05  1.480040E+04 -1.365292E+04
       117  10  6.188834E+05  2.069847E+05  5.010519E+04  2.705592E+05 -6.449170E-08 -3.049599E-08
       117  11  5.697655E+05  1.842196E+05  4.178143E+04  2.513274E+05  5.129714E-09  7.457847E-09
       117  12  5.130519E+05  1.690787E+05  3.351524E+04  2.407727E+05  7.444609E-08  3.393088E-08
       117  13  3.036791E+05  9.386877E+04  7.481520E+01  1.818275E+05 -1.550865E-08  5.845857E-09
       117  14  3.074882E+05  9.007101E+04  7.968558E+01  1.774875E+05 -5.435921E-09 -1.931532E-09
       117  15  3.036917E+05  9.389055E+04  1.156785E+02  1.818235E+05  7.219963E-09 -9.356153E-09
       117  16 -1.141821E+04 -1.923670E+04 -4.995738E+04  9.313814E+04  4.599602E-08  1.382978E-08
       117  17  4.528642E+04 -4.069751E+03 -4.162291E+04  1.036774E+05 -1.283644E-08 -6.089928E-09
       117  18  9.438108E+04  1.870795E+04 -3.328404E+04  1.228935E+05 -7.273631E-08 -2.541944E-08
       117  19  6.188836E+05  2.069856E+05  5.010674E+04  2.705591E+05 -1.170336E+03  2.870061E+04
       117  20  5.697657E+05  1.842202E+05  4.178255E+04  2.513274E+05  5.340492E+02  2.439690E+04
       117  21  5.130521E+05  1.690791E+05  3.351600E+04  2.407727E+05  2.245581E+03  2.007637E+04
       117  22  3.036794E+05  9.386949E+04  7.621307E+01  1.818273E+05 -9.629421E+03  2.551474E+04
       117  23  3.074884E+05  9.007151E+04  8.064917E+01  1.774874E+05 -7.957774E+03  2.119780E+04
       117  24  3.036919E+05  9.389087E+04  1.162871E+02  1.818234E+05 -6.278979E+03  1.686405E+04
       117  25 -1.141773E+04 -1.923607E+04 -4.995583E+04  9.313781E+04 -1.808396E+04  2.233059E+04
       117  26  4.528679E+04 -4.069330E+03 -4.162179E+04  1.036771E+05 -1.644575E+04  1.800015E+04
       117  27  9.438137E+04  1.870821E+04 -3.328328E+04  1.228934E+05 -1.480040E+04  1.365292E+04
       118   1  4.795068E+05  1.570011E+05  2.796297E+04  2.313495E+05 -3.221175E+03 -1.754747E+04
       118   2  4.304235E+05  1.342413E+05  1.977914E+04  2.121294E+05 -4.971184E+03 -1.323690E+04
       118   3  3.737445E+05  1.190995E+05  1.167768E+04  2.015835E+05 -6.718546E+03 -8.934348E+03
       118   4  3.036984E+05  9.389384E+04  1.471144E+02  1.818237E+05  5.300962E+03 -1.433567E+04
       118   5  3.074978E+05  9.008455E+04  2.527285E+02  1.774873E+05  3.535058E+03 -1.003064E+04
       118   6  3.037027E+05  9.389668E+04  4.533750E+02  1.818244E+05  1.771797E+03 -5.733652E+03
       118   7  1.279213E+05  3.078911E+04 -2.766957E+04  1.323106E+05  1.382064E+04 -1.112480E+04
       118   8  1.845877E+05  4.592919E+04 -1.927386E+04  1.428515E+05  1.203957E+04 -6.825034E+03
       118   9  2.336662E+05  6.869439E+04 -1.077073E+04  1.620673E+05  1.026113E+04 -2.533339E+03
       118  10  4.795067E+05  1.570008E+05  2.796237E+04  2.313495E+05 -3.489783E-08 -8.694315E-09
       118  11  4.304234E+05  1.342411E+05  1.977876E+04  2.121293E+05 -9.584902E-09  4.758448E-09
       118  12  3.737444E+05  1.190994E+05  1.167745E+04  2.015835E+05  1.813386E-08  1.011192E-08
       118  13  3.036983E+05  9.389361E+04  1.466753E+02  1.818238E+05  6.120362E-09 -1.260339E-08
       118  14  3.074978E+05  9.008444E+04  2.525159E+02  1.774873E+05  6.202899E-10 -4.474197E-09
       118  15  3.037027E+05  9.389664E+04  4.533074E+02  1.818244E+05 -3.676188E-09  7.597582E-10
       118  16  1.279211E+05  3.078892E+04 -2.767016E+04  1.323107E+05  3.876728E-08  2.227427E-08
       118  17  1.845875E+05  4.592910E+04 -1.927422E+04  1.428515E+05  6.027498E-09  7.133839E-09
       118  18  2.336661E+05  6.869436E+04 -1.077094E+04  1.620674E+05 -1.933781E-08 -6.870550E-09
       118  19  4.795068E+05  1.570011E+05  2.796297E+04  2.313495E+05  3.221175E+03  1.754747E+04
       118  20  4.304235E+05  1.342413E+05  1.977914E+04  2.121294E+05  4.971184E+03  1.323690E+04
       118  21  3.737445E+05  1.190995E+05  1.167768E+04  2.015835E+05  6.718546E+03  8.934348E+03
       118  22  3.036984E+05  9.389384E+04  1.471144E+02  1.818237E+05 -5.300962E+03  1.433567E+04
       118  23  3.074978E+05  9.008455E+04  2.527285E+02  1.774873E+05 -3.535058E+03  1.003064E+04
       118  24  3.037027E+05  9.389668E+04  4.533750E+02  1.818244E+05 -1.771797E+03  5.733652E+03
       118  25  1.279213E+05  3.078911E+04 -2.766957E+04  1.323106E+05 -1.382064E+04  1.112480E+04
       118  26  1.845877E+05  4.592919E+04 -1.927386E+04  1.428515E+05 -1.203957E+04  6.825034E+03
       118  27  2.336662E+05  6.869439E+04 -1.077073E+04  1.620673E+05 -1.026113E+04  2.533339E+03
       119   1  3.402186E+05  1.070286E+05  6.237715E+03  1.921831E+05 -7.764402E+03 -6.438775E+03
       119   2  2.911283E+05  8.425460E+04 -1.635600E+03  1.729526E+05 -9.753061E+03 -2.279588E+03
       119   3  2.345052E+05  6.915857E+04 -9.217591E+03  1.623857E+05 -1.170754E+04  1.789294E+03
       119   4  3.037209E+05  9.389381E+04  6.030681E+02  1.818309E+05  7.310385E+02 -3.236057E+03
       119   5  3.074780E+05  9.008566E+04  1.092677E+03  1.774814E+05 -1.434704E+03  8.563051E+02
       119   6  3.037338E+05  9.398999E+04  2.013506E+03  1.817943E+05 -3.566309E+03  4.858371E+03
       119   7  2.672253E+05  8.075940E+04 -5.031174E+03  1.714795E+05  9.225857E+03 -3.357577E+01
       119   8  3.238280E+05  9.591680E+04  3.821243E+03  1.820105E+05  6.883886E+03  3.992283E+03
       119   9  3.729684E+05  1.188223E+05  1.324500E+04  2.012051E+05  4.575973E+03  7.927842E+03
       119  10  3.402185E+05  1.070285E+05  6.237524E+03  1.921831E+05  5.691380E-08  2.483770E-08
       119  11  2.911282E+05  8.425457E+04 -1.635788E+03  1.729526E+05  6.629099E-09  5.375905E-09
       119  12  2.345051E+05  6.915853E+04 -9.217855E+03  1.623857E+05 -4.916095E-08 -1.606670E-08
       119  13  3.037209E+05  9.389379E+04  6.030474E+02  1.818309E+05  4.654379E-09  1.033832E-10
       119  14  3.074780E+05  9.008566E+04  1.092671E+03  1.774815E+05  1.049373E-08  5.985408E-09
       119  15  3.037337E+05  9.398996E+04  2.013437E+03  1.817943E+05  3.217606E-09  3.462908E-09
       119  16  2.672252E+05  8.075937E+04 -5.031334E+03  1.714795E+05 -4.795790E-08 -1.474650E-08
       119  17  3.238280E+05  9.591677E+04  3.821125E+03  1.820104E+05  5.742257E-09  2.451642E-09
       119  18  3.729684E+05  1.188222E+05  1.324485E+04  2.012051E+05  5.368819E-08  2.220872E-08
       119  19  3.402186E+05  1.070286E+05  6.237715E+03  1.921831E+05  7.764402E+03  6.438775E+03
       119  20  2.911283E+05  8.425460E+04 -1.635600E+03  1.729526E+05  9.753061E+03  2.279588E+03
       119  21  2.345052E+05  6.915857E+04 -9.217591E+03  1.623857E+05  1.170754E+04 -1.789294E+03
       119  22  3.037209E+05  9.389381E+04  6.030681E+02  1.818309E+05 -7.310385E+02  3.236057E+03
       119  23  3.074780E+05  9.008566E+04  1.092677E+03  1.774814E+05  1.434704E+03 -8.563051E+02
       119  24  3.037338E+05  9.398999E+04  2.013506E+03  1.817943E+05  3.566309E+03 -4.858371E+03
       119  25  2.672253E+05  8.075940E+04 -5.031174E+03  1.714795E+05 -9.225857E+03  3.357577E+01
       119  26  3.238280E+05  9.591680E+04  3.821243E+03  1.820105E+05 -6.883886E+03 -3.992283E+03
       119  27  3.729684E+05  1.188223E+05  1.324500E+04  2.012051E+05 -4.575973E+03 -7.927842E+03
       120   1  2.009350E+05  5.717863E+04 -1.424005E+04  1.531477E+05 -1.305943E+04  4.094614E+03
       120   2  1.522517E+05  3.421344E+04 -2.109842E+04  1.331093E+05 -1.524754E+04  7.554358E+03
       120   3  9.655766E+04  2.000586E+04 -2.705568E+04  1.214025E+05 -1.710295E+04  1.013265E+04
       120   4  3.038738E+05  9.399516E+04  2.690281E+03  1.818341E+05 -4.861224E+03  7.185013E+03
       120   5  3.073769E+05  9.064131E+04  4.956570E+03  1.772172E+05 -8.774153E+03  9.994082E+03
       120   6  3.042076E+05  9.638587E+04  9.489994E+03  1.809304E+05 -1.235449E+04  1.192180E+04
       120   7  4.068240E+05  1.308128E+05  1.962064E+04  2.105250E+05  3.338418E+03  1.027595E+04
       120   8  4.625270E+05  1.470714E+05  3.101086E+04  2.213351E+05 -2.299092E+03  1.243445E+04
       120   9  5.119009E+05  1.727696E+05  4.603374E+04  2.404763E+05 -7.604392E+03  1.371160E+04
       120  10  2.009348E+05  5.717857E+04 -1.424040E+04  1.531477E+05 -4.499688E-09  2.567891E-09
       120  11  1.522514E+05  3.421331E+04 -2.109896E+04  1.331094E+05 -5.280567E-09  5.359348E-10
       120  12  9.655731E+04  2.000567E+04 -2.705642E+04  1.214026E+05  1.924890E-09  3.653065E-09
       120  13  3.038738E+05  9.399509E+04  2.690140E+03  1.818341E+05 -7.362340E-09 -3.580596E-09
       120  14  3.073768E+05  9.064119E+04  4.956237E+03  1.772172E+05 -2.758412E-09  9.117162E-09
       120  15  3.042074E+05  9.638568E+04  9.489440E+03  1.809305E+05  7.678201E-09  1.217765E-09
       120  16  4.068240E+05  1.308127E+05  1.962042E+04  2.105249E+05  3.816969E-09  1.806125E-09
       120  17  4.625269E+05  1.470713E+05  3.101056E+04  2.213352E+05  2.170295E-09 -8.880349E-10
       120  18  5.119008E+05  1.727694E+05  4.603328E+04  2.404764E+05 -2.080415E-09 -1.106984E-10
       120  19  2.009350E+05  5.717863E+04 -1.424005E+04  1.531477E+05  1.305943E+04 -4.094614E+03
       120  20  1.522517E+05  3.421344E+04 -2.109842E+04  1.331093E+05  1.524754E+04 -7.554358E+03
       120  21  9.655766E+04  2.000586E+04 -2.705568E+04  1.214025E+05  1.710295E+04 -1.013265E+04
       120  22  3.038738E+05  9.399516E+04  2.690281E+03  1.818341E+05  4.861224E+03 -7.185013E+03
       120  23  3.073769E+05  9.064131E+04  4.956570E+03  1.772172E+05  8.774153E+03 -9.994082E+03
       120  24  3.042076E+05  9.638587E+04  9.489994E+03  1.809304E+05  1.235449E+04 -1.192180E+04
       120  25  4.068240E+05  1.308128E+05  1.962064E+04  2.105250E+05 -3.338418E+03 -1.027595E+04
       120  26  4.625270E+05  1.470714E+05  3.101086E+04  2.213351E+05  2.299092E+03 -1.243445E+04
       120  27  5.119009E+05  1.727696E+05  4.603374E+04  2.404763E+05  7.604392E+03 -1.371160E+04
       121   1  6.243313E+04  9.501908E+03 -3.058974E+04  1.140035E+05 -1.977416E+04  1.120735E+04
       121   2  2.263026E+04 -1.615965E+04 -3.545706E+04  7.936048E+04 -1.499942E+04  1.119785E+04
       121   3 -1.763373E+04 -1.575635E+04 -3.818407E+04  4.744410E+04 -6.987873E+03  2.593423E+03
       121   4  3.057370E+05  9.677119E+04  1.272174E+04  1.812364E+05 -1.447352E+04  1.320437E+04
       121   5  3.070677E+05  1.015821E+05  2.438518E+04  1.725202E+05 -2.650546E+04  6.861047E+03
       121   6  3.112607E+05  1.357802E+05  5.150331E+04  1.665308E+05 -3.530176E+04 -8.074910E+03
       121   7  5.491074E+05  1.840475E+05  5.603251E+04  2.484950E+05 -9.170588E+03  1.520224E+04
       121   8  5.915888E+05  2.193372E+05  8.422349E+04  2.657215E+05 -3.801712E+04  2.521497E+03
       121   9  6.402576E+05  2.873379E+05  1.411824E+05  2.856781E+05 -6.363139E+04 -1.875240E+04
       121  10  6.243267E+04  9.501668E+03 -3.059071E+04  1.140036E+05 -4.826024E-10 -1.242822E-09
       121  11  2.262998E+04 -1.615985E+04 -3.545772E+04  7.936061E+04  5.619329E-09  1.723481E-09
       121  12 -1.763378E+04 -1.575637E+04 -3.818418E+04  4.744412E+04  1.900060E-09  2.517835E-10
       121  13  3.057367E+05  9.677095E+04  1.272102E+04  1.812366E+05  6.266454E-10  1.029271E-09
       121  14  3.070669E+05  1.015819E+05  2.438377E+04  1.725203E+05 -3.580646E-09  2.298054E-09
       121  15  3.112594E+05  1.357798E+05  5.150085E+04  1.665306E+05  3.508836E-09  2.453764E-09
       121  16  5.491072E+05  1.840472E+05  5.603192E+04  2.484951E+05  9.628725E-10  4.231297E-09
       121  17  5.915872E+05  2.193368E+05  8.422076E+04  2.657215E+05 -1.764087E-09  1.329624E-09
       121  18  6.402532E+05  2.873364E+05  1.411742E+05  2.856771E+05 -1.750474E-09 -1.409695E-09
       121  19  6.243313E+04  9.501908E+03 -3.058974E+04  1.140035E+05  1.977416E+04 -1.120735E+04
       121  20  2.263026E+04 -1.615965E+04 -3.545706E+04  7.936048E+04  1.499942E+04 -1.119785E+04
       121  21 -1.763373E+04 -1.575635E+04 -3.818407E+04  4.744410E+04  6.987873E+03 -2.593423E+03
       121  22  3.057370E+05  9.677119E+04  1.272174E+04  1.812364E+05  1.447352E+04 -1.320437E+04
       121  23  3.070677E+05  1.015821E+05  2.438518E+04  1.725202E+05  2.650546E+04 -6.861047E+03
       121  24  3.112607E+05  1.357802E+05  5.150331E+04  1.665308E+05  3.530176E+04  8.074910E+03
       121  25  5.491074E+05  1.840475E+05  5.603251E+04  2.484950E+05  9.170588E+03 -1.520224E+04
       121  26  5.915888E+05  2.193372E+05  8.422349E+04  2.657215E+05  3.801712E+04 -2.521497E+03
       121  27  6.402576E+05  2.873379E+05  1.411824E+05  2.856781E+05  6.363139E+04  1.875240E+04
       122   1 -2.615569E+05 -1.339491E+06 -3.076836E+05  6.914203E+04 -2.678540E+03 -1.361050E+05
       122   2 -5.732505E+04 -1.249188E+06 -1.799583E+05  8.846919E+03 -7.903313E+03 -8.384581E+04
       122   3 -7.083816E+04 -1.219522E+06 -1.406202E+05  2.039516E+04 -5.456478E+03 -3.156940E+04
       122   4 -1.568996E+05 -9.215547E+05 -2.036208E+05  3.557629E+04 -2.676199E+03 -1.333680E+05
       122   5  3.192931E+04 -8.914273E+05 -9.203094E+04 -2.010413E+02 -7.902419E+03 -8.346923E+04
       122   6  3.490810E+03 -9.214904E+05 -6.714547E+04  3.586627E+04 -5.454836E+03 -3.355847E+04
       122   7 -5.225127E+04 -5.034576E+05 -9.957057E+04  1.987972E+03 -2.674158E+03 -1.306292E+05
       122   8  1.211744E+05 -5.335492E+05 -4.112993E+03 -9.254190E+03 -7.901536E+03 -8.309243E+04
       122   9  7.781407E+04 -6.233770E+05  6.322870E+03  5.134486E+04 -5.453294E+03 -3.554850E+04
       122  10 -2.615619E+05 -1.339511E+06 -3.077185E+05  6.914174E+04  6.193512E-10  2.282927E-09
       122  11 -5.732701E+04 -1.249196E+06 -1.799716E+05  8.846385E+03  3.183238E-09  6.288862E-11
       122  12 -7.083846E+04 -1.219524E+06 -1.406222E+05  2.039502E+04 -2.929732E-09  5.877269E-10
       122  13 -1.569044E+05 -9.215738E+05 -2.036543E+05  3.557601E+04 -5.380112E-11  1.177429E-09
       122  14  3.192737E+04 -8.914348E+05 -9.204417E+04 -2.015727E+02  3.254409E-09  6.497986E-09
       122  15  3.490475E+03 -9.214917E+05 -6.714765E+04  3.586613E+04 -3.974055E-09 -2.006987E-11
       122  16 -5.225587E+04 -5.034759E+05 -9.960268E+04  1.987690E+03  1.694086E-09  1.309380E-09
       122  17  1.211725E+05 -5.335567E+05 -4.126097E+03 -9.254718E+03 -7.965446E-10 -1.048434E-09
       122  18  7.781370E+04 -6.233784E+05  6.320437E+03  5.134470E+04 -3.553624E-09 -7.330168E-10
       122  19 -2.615569E+05 -1.339491E+06 -3.076836E+05  6.914203E+04  2.678540E+03  1.361050E+05
       122  20 -5.732505E+04 -1.249188E+06 -1.799583E+05  8.846919E+03  7.903313E+03  8.384581E+04
       122  21 -7.083816E+04 -1.219522E+06 -1.406202E+05  2.039516E+04  5.456478E+03  3.156940E+04
       122  22 -1.568996E+05 -9.215547E+05 -2.036208E+05  3.557629E+04  2.676199E+03  1.333680E+05
       122  23  3.192931E+04 -8.914273E+05 -9.203094E+04 -2.010413E+02  7.902419E+03  8.346923E+04
       122  24  3.490810E+03 -9.214904E+05 -6.714547E+04  3.586627E+04  5.454836E+03  3.355847E+04
       122  25 -5.225127E+04 -5.034576E+05 -9.957057E+04  1.987972E+03  2.674158E+03  1.306292E+05
       122  26  1.211744E+05 -5.335492E+05 -4.112993E+03 -9.254190E+03  7.901536E+03  8.309243E+04
       122  27  7.781407E+04 -6.233770E+05  6.322870E+03  5.134486E+04  5.453294E+03  3.554850E+04
       123   1 -5.517699E+04 -1.052666E+06 -9.508705E+04  4.277568E+04 -2.954788E+03 -2.185403E+04
       123   2 -1.089337E+04 -9.821089E+05 -6.604182E+04 -8.259543E+02 -1.615137E+03  2.470323E+03
       123   3 -2.631394E+04 -9.294498E+05 -6.773562E+04  2.974636E+04  1.693296E+01  2.679693E+04
       123   4 -2.009691E+04 -9.120831E+05 -6.050312E+04  3.628792E+04 -2.954131E+03 -2.223659E+04
       123   5  8.803374E+03 -9.031420E+05 -4.660658E+04 -7.986285E+02 -1.614667E+03  2.000310E+03
       123   6 -2.198094E+04 -9.120846E+05 -6.338464E+04  3.628882E+04  1.770040E+01  2.623707E+04
       123   7  1.498185E+04 -7.714824E+05 -2.592063E+04  2.979870E+04 -2.953465E+03 -2.261924E+04
       123   8  2.849965E+04 -8.241695E+05 -2.717180E+04 -7.712977E+02 -1.614197E+03  1.530238E+03
       123   9 -1.764780E+04 -8.947191E+05 -5.903365E+04  4.283148E+04  1.845602E+01  2.567720E+04
       123  10 -5.517713E+04 -1.052666E+06 -9.508796E+04  4.277563E+04 -2.728675E-09  6.222032E-09
       123  11 -1.089338E+04 -9.821090E+05 -6.604184E+04 -8.259511E+02 -4.812344E-10  3.140813E-09
       123  12 -2.631413E+04 -9.294506E+05 -6.773697E+04  2.974636E+04  2.526278E-09 -2.967588E-09
       123  13 -2.009705E+04 -9.120836E+05 -6.050407E+04  3.628787E+04 -1.604638E-09  1.061725E-09
       123  14  8.803370E+03 -9.031420E+05 -4.660659E+04 -7.986259E+02  1.956136E-09  6.006555E-09
       123  15 -2.198112E+04 -9.120854E+05 -6.338593E+04  3.628882E+04 -1.899603E-09 -1.378351E-09
       123  16  1.498170E+04 -7.714830E+05 -2.592161E+04  2.979864E+04 -1.673682E-09 -4.829908E-09
       123  17  2.849965E+04 -8.241695E+05 -2.717181E+04 -7.712958E+02  3.181787E-10 -3.379286E-09
       123  18 -1.764798E+04 -8.947198E+05 -5.903489E+04  4.283148E+04  3.001335E-10  2.204489E-09
       123  19 -5.517699E+04 -1.052666E+06 -9.508705E+04  4.277568E+04  2.954788E+03  2.185403E+04
       123  20 -1.089337E+04 -9.821089E+05 -6.604182E+04 -8.259543E+02  1.615137E+03 -2.470323E+03
       123  21 -2.631394E+04 -9.294498E+05 -6.773562E+04  2.974636E+04 -1.693296E+01 -2.679693E+04
       123  22 -2.009691E+04 -9.120831E+05 -6.050312E+04  3.628792E+04  2.954131E+03  2.223659E+04
       123  23  8.803374E+03 -9.031420E+05 -4.660658E+04 -7.986285E+02  1.614667E+03 -2.000310E+03
       123  24 -2.198094E+04 -9.120846E+05 -6.338464E+04  3.628882E+04 -1.770040E+01 -2.623707E+04
       123  25  1.498185E+04 -7.714824E+05 -2.592063E+04  2.979870E+04  2.953465E+03  2.261924E+04
       123  26  2.849965E+04 -8.241695E+05 -2.717180E+04 -7.712977E+02  1.614197E+03 -1.530238E+03
       123  27 -1.764780E+04 -8.947191E+05 -5.903365E+04  4.283148E+04 -1.845602E+01 -2.567720E+04
       124   1  3.962353E+04 -7.810781E+05 -3.621791E+04  5.311797E+04  2.220555E+03  3.973669E+04
       124   2  8.519508E+04 -6.873075E+05 -4.951712E+04 -1.019368E+04  4.543803E+03  9.198682E+04
       124   3 -1.045905E+05 -6.588567E+05 -1.556184E+05 -1.498848E+02  1.613936E+03  1.442366E+05
       124   4  4.318743E+03 -9.226840E+05 -7.118763E+04  3.618434E+04  2.220907E+03  3.817064E+04
       124   5  3.466504E+04 -8.899029E+05 -9.927299E+04 -6.075995E+02  4.545235E+03  9.204135E+04
       124   6 -1.706725E+05 -9.227547E+05 -2.213118E+05  3.595831E+04  1.620162E+03  1.459064E+05
       124   7 -3.098645E+04 -1.064271E+06 -1.061587E+05  1.925459E+04  2.221344E+03  3.660496E+04
       124   8 -1.586770E+04 -1.092461E+06 -1.490318E+05  8.975358E+03  4.546670E+03  9.209586E+04
       124   9 -2.367549E+05 -1.186587E+06 -2.870098E+05  7.205115E+04  1.626585E+03  1.475755E+05
       124  10  3.962310E+04 -7.810798E+05 -3.622089E+04  5.311789E+04  1.736163E-09  2.140746E-09
       124  11  8.519278E+04 -6.873166E+05 -4.953308E+04 -1.019402E+04 -1.383207E-09  3.340025E-09
       124  12 -1.045961E+05 -6.588791E+05 -1.556575E+05 -1.500724E+02 -2.637073E-09  2.390968E-09
       124  13  4.318345E+03 -9.226856E+05 -7.119038E+04  3.618427E+04 -2.228070E-09  1.151380E-09
       124  14  3.466274E+04 -8.899121E+05 -9.928897E+04 -6.079366E+02 -2.672067E-09  6.314550E-09
       124  15 -1.706783E+05 -9.227776E+05 -2.213519E+05  3.595812E+04 -5.689843E-10 -1.051166E-09
       124  16 -3.098682E+04 -1.064273E+06 -1.061612E+05  1.925452E+04 -2.961559E-09 -1.310443E-09
       124  17 -1.587001E+04 -1.092470E+06 -1.490478E+05  8.975020E+03 -8.560808E-10 -3.568041E-09
       124  18 -2.367608E+05 -1.186610E+06 -2.870508E+05  7.205096E+04  1.023556E-09 -1.220290E-09
       124  19  3.962353E+04 -7.810781E+05 -3.621791E+04  5.311797E+04 -2.220555E+03 -3.973669E+04
       124  20  8.519508E+04 -6.873075E+05 -4.951712E+04 -1.019368E+04 -4.543803E+03 -9.198682E+04
       124  21 -1.045905E+05 -6.588567E+05 -1.556184E+05 -1.498848E+02 -1.613936E+03 -1.442366E+05
       124  22  4.318743E+03 -9.226840E+05 -7.118763E+04  3.618434E+04 -2.220907E+03 -3.817064E+04
       124  23  3.466504E+04 -8.899029E+05 -9.927299E+04 -6.075995E+02 -4.545235E+03 -9.204135E+04
       124  24 -1.706725E+05 -9.227547E+05 -2.213118E+05  3.595831E+04 -1.620162E+03 -1.459064E+05
       124  25 -3.098645E+04 -1.064271E+06 -1.061587E+05  1.925459E+04 -2.221344E+03 -3.660496E+04
       124  26 -1.586770E+04 -1.092461E+06 -1.490318E+05  8.975358E+03 -4.546670E+03 -9.209586E+04
       124  27 -2.367549E+05 -1.186587E+06 -2.870098E+05  7.205115E+04 -1.626585E+03 -1.475755E+05
       125   1  4.152659E+05  1.385180E+05  8.692851E+04  1.527166E+05  4.755686E+04  1.736430E+04
       125   2  3.998422E+05  6.418905E+04  4.139720E+04  1.565581E+05  3.052546E+04  9.882561E+03
       125   3  4.067188E+05  6.100398E+04  2.694883E+04  1.488408E+05  1.301120E+04  3.681249E+03
       125   4  3.773031E+05  1.077371E+05  7.336529E+04  1.255251E+05  4.678178E+04  1.707027E+04
       125   5  3.623948E+05  4.535873E+04  3.065149E+04  1.414454E+05  3.038434E+04  9.829017E+03
       125   6  3.696630E+05  5.400049E+04  1.851995E+04  1.458065E+05  1.350390E+04  3.867361E+03
       125   7  3.393427E+05  7.695880E+04  5.980214E+04  9.833587E+04  4.600676E+04  1.677631E+04
       125   8  3.249490E+05  2.652890E+04  1.990568E+04  1.263337E+05  3.024324E+04  9.775480E+03
       125   9  3.326085E+05  4.699695E+04  1.009099E+04  1.427722E+05  1.399658E+04  4.053475E+03
       125  10  4.152634E+05  1.385171E+05  8.692370E+04  1.527160E+05  1.294437E-09  3.712045E-09
       125  11  3.998411E+05  6.418870E+04  4.139527E+04  1.565578E+05 -9.067657E-10  1.059713E-09
       125  12  4.067186E+05  6.100392E+04  2.694849E+04  1.488408E+05  9.582491E-10  5.103610E-09
       125  13  3.773007E+05  1.077362E+05  7.336064E+04  1.255245E+05 -4.038919E-09 -4.414929E-09
       125  14  3.623938E+05  4.535838E+04  3.064958E+04  1.414452E+05 -3.686178E-09 -8.226773E-09
       125  15  3.696628E+05  5.400042E+04  1.851958E+04  1.458065E+05  1.109169E-09 -9.840295E-10
       125  16  3.393403E+05  7.695793E+04  5.979764E+04  9.833525E+04 -1.060191E-10 -1.694468E-09
       125  17  3.249480E+05  2.652855E+04  1.990378E+04  1.263335E+05  4.033502E-09  2.523561E-09
       125  18  3.326083E+05  4.699688E+04  1.009059E+04  1.427722E+05  2.460843E-09 -1.880023E-09
       125  19  4.152659E+05  1.385180E+05  8.692851E+04  1.527166E+05 -4.755686E+04 -1.736430E+04
       125  20  3.998422E+05  6.418905E+04  4.139720E+04  1.565581E+05 -3.052546E+04 -9.882561E+03
       125  21  4.067188E+05  6.100398E+04  2.694883E+04  1.488408E+05 -1.301120E+04 -3.681249E+03
       125  22  3.773031E+05  1.077371E+05  7.336529E+04  1.255251E+05 -4.678178E+04 -1.707027E+04
       125  23  3.623948E+05  4.535873E+04  3.065149E+04  1.414454E+05 -3.038434E+04 -9.829017E+03
       125  24  3.696630E+05  5.400049E+04  1.851995E+04  1.458065E+05 -1.350390E+04 -3.867361E+03
       125  25  3.393427E+05  7.695880E+04  5.980214E+04  9.833587E+04 -4.600676E+04 -1.677631E+04
       125  26  3.249490E+05  2.652890E+04  1.990568E+04  1.263337E+05 -3.024324E+04 -9.775480E+03
       125  27  3.326085E+05  4.699695E+04  1.009099E+04  1.427722E+05 -1.399658E+04 -4.053475E+03
       126   1  3.858853E+05  7.015127E+04  2.025852E+04  1.481725E+05  1.060737E+04  3.243908E+03
       126   2  3.783460E+05  5.706472E+04  1.010778E+04  1.439144E+05  6.685675E+03  2.097734E+03
       126   3  3.690568E+05  5.603108E+04  4.735522E+03  1.435039E+05  2.727170E+03  1.049394E+03
       126   4  3.672822E+05  6.154677E+04  1.505358E+04  1.414361E+05  1.072756E+04  3.289233E+03
       126   5  3.677557E+05  5.266663E+04  7.242610E+03  1.405914E+05  6.854345E+03  2.161384E+03
       126   6  3.664697E+05  5.582983E+04  4.171843E+03  1.435944E+05  2.944270E+03  1.131334E+03
       126   7  3.486795E+05  5.294235E+04  9.848611E+03  1.346999E+05  1.084774E+04  3.334555E+03
       126   8  3.571655E+05  4.826855E+04  4.377437E+03  1.372685E+05  7.023011E+03  2.225033E+03
       126   9  3.638826E+05  5.562859E+04  3.608165E+03  1.436849E+05  3.161368E+03  1.213274E+03
       126  10  3.858852E+05  7.015123E+04  2.025829E+04  1.481725E+05 -4.962043E-09  2.834249E-09
       126  11  3.783459E+05  5.706470E+04  1.010769E+04  1.439143E+05  4.469672E-10  5.768247E-10
       126  12  3.690568E+05  5.603107E+04  4.735506E+03  1.435039E+05 -8.792467E-10  2.690617E-09
       126  13  3.672821E+05  6.154673E+04  1.505335E+04  1.414361E+05 -2.884640E-09  3.298485E-10
       126  14  3.677556E+05  5.266661E+04  7.242513E+03  1.405914E+05 -1.601545E-09 -8.939148E-09
       126  15  3.664697E+05  5.582983E+04  4.171824E+03  1.435944E+05 -4.107369E-09  2.090184E-09
       126  16  3.486794E+05  5.294231E+04  9.848369E+03  1.346998E+05 -2.462980E-09 -1.133284E-09
       126  17  3.571654E+05  4.826853E+04  4.377335E+03  1.372685E+05  6.993602E-10 -1.576442E-09
       126  18  3.638826E+05  5.562858E+04  3.608143E+03  1.436849E+05 -2.499089E-09  7.428952E-09
       126  19  3.858853E+05  7.015127E+04  2.025852E+04  1.481725E+05 -1.060737E+04 -3.243908E+03
       126  20  3.783460E+05  5.706472E+04  1.010778E+04  1.439144E+05 -6.685675E+03 -2.097734E+03
       126  21  3.690568E+05  5.603108E+04  4.735522E+03  1.435039E+05 -2.727170E+03 -1.049394E+03
       126  22  3.672822E+05  6.154677E+04  1.505358E+04  1.414361E+05 -1.072756E+04 -3.289233E+03
       126  23  3.677557E+05  5.266663E+04  7.242610E+03  1.405914E+05 -6.854345E+03 -2.161384E+03
       126  24  3.664697E+05  5.582983E+04  4.171843E+03  1.435944E+05 -2.944270E+03 -1.131334E+03
       126  25  3.486795E+05  5.294235E+04  9.848611E+03  1.346999E+05 -1.084774E+04 -3.334555E+03
       126  26  3.571655E+05  4.826855E+04  4.377437E+03  1.372685E+05 -7.023011E+03 -2.225033E+03
       126  27  3.638826E+05  5.562859E+04  3.608165E+03  1.436849E+05 -3.161368E+03 -1.213274E+03
       127   1  3.558809E+05  5.286878E+04  5.420232E+02  1.404347E+05  2.064285E+03  1.076250E+03
       127   2  3.493066E+05  4.630203E+04 -3.317989E+03  1.353021E+05  1.051038E+03  1.134113E+03
       127   3  3.382046E+05  4.543092E+04 -6.325595E+03  1.356041E+05  3.474177E+01  1.200112E+03
       127   4  3.661671E+05  5.661669E+04  3.256054E+03  1.431176E+05  2.252932E+03  1.147446E+03
       127   5  3.683887E+05  5.346976E+04  1.702380E+03  1.405133E+05  1.243696E+03  1.206819E+03
       127   6  3.660820E+05  5.601775E+04  9.979896E+02  1.433437E+05  2.313985E+02  1.274323E+03
       127   7  3.764534E+05  6.036461E+04  5.970085E+03  1.458005E+05  2.441583E+03  1.218644E+03
       127   8  3.874713E+05  6.063753E+04  6.722727E+03  1.457247E+05  1.436361E+03  1.279527E+03
       127   9  3.939602E+05  6.660463E+04  8.321509E+03  1.510836E+05  4.280650E+02  1.348537E+03
       127  10  3.558809E+05  5.286878E+04  5.420130E+02  1.404347E+05 -4.745216E-09  8.962066E-10
       127  11  3.493066E+05  4.630203E+04 -3.317994E+03  1.353021E+05 -2.124226E-09  5.302024E-09
       127  12  3.382046E+05  4.543092E+04 -6.325598E+03  1.356041E+05 -1.750621E-09 -9.298869E-10
       127  13  3.661671E+05  5.661669E+04  3.256042E+03  1.431175E+05 -2.749232E-09  3.075471E-09
       127  14  3.683887E+05  5.346976E+04  1.702375E+03  1.405133E+05 -3.430453E-09  7.527310E-11
       127  15  3.660820E+05  5.601775E+04  9.979865E+02  1.433437E+05 -4.266678E-09 -4.189975E-09
       127  16  3.764534E+05  6.036461E+04  5.970071E+03  1.458005E+05 -4.943085E-09  5.652945E-09
       127  17  3.874713E+05  6.063753E+04  6.722720E+03  1.457247E+05 -5.675595E-09  9.472313E-10
       127  18  3.939602E+05  6.660463E+04  8.321505E+03  1.510836E+05  3.823714E-09  3.835062E-09
       127  19  3.558809E+05  5.286878E+04  5.420232E+02  1.404347E+05 -2.064285E+03 -1.076250E+03
       127  20  3.493066E+05  4.630203E+04 -3.317989E+03  1.353021E+05 -1.051038E+03 -1.134113E+03
       127  21  3.382046E+05  4.543092E+04 -6.325595E+03  1.356041E+05 -3.474177E+01 -1.200112E+03
       127  22  3.661671E+05  5.661669E+04  3.256054E+03  1.431176E+05 -2.252932E+03 -1.147446E+03
       127  23  3.683887E+05  5.346976E+04  1.702380E+03  1.405133E+05 -1.243696E+03 -1.206819E+03
       127  24  3.660820E+05  5.601775E+04  9.979896E+02  1.433437E+05 -2.313985E+02 -1.274323E+03
       127  25  3.764534E+05  6.036461E+04  5.970085E+03  1.458005E+05 -2.441583E+03 -1.218644E+03
       127  26  3.874713E+05  6.063753E+04  6.722727E+03  1.457247E+05 -1.436361E+03 -1.279527E+03
       127  27  3.939602E+05  6.660463E+04  8.321509E+03  1.510836E+05 -4.280650E+02 -1.348537E+03
       128   1  3.258311E+05  4.095944E+04 -9.822197E+03  1.322861E+05 -1.977102E+02  1.375737E+03
       128   2  3.193355E+05  3.503509E+04 -1.241141E+04  1.270216E+05 -6.120193E+02  1.670438E+03
       128   3  3.079514E+05  3.417112E+04 -1.477702E+04  1.273860E+05 -1.027080E+03  1.967298E+03
       128   4  3.660341E+05  5.610374E+04  7.955316E+02  1.433010E+05 -2.932180E+00  1.449233E+03
       128   5  3.684745E+05  5.354728E+04  5.270420E+02  1.404966E+05 -4.161976E+02  1.744315E+03
       128   6  3.660263E+05  5.605092E+04  4.813446E+02  1.433209E+05 -8.302195E+02  2.041555E+03
       128   7  4.062384E+05  7.124810E+04  1.141309E+04  1.543166E+05  1.918591E+02  1.522734E+03
       128   8  4.176158E+05  7.205961E+04  1.346529E+04  1.539725E+05 -2.203590E+02  1.818198E+03
       128   9  4.241047E+05  7.793099E+04  1.573946E+04  1.592571E+05 -6.333387E+02  2.115820E+03
       128  10  3.258311E+05  4.095944E+04 -9.822201E+03  1.322861E+05  5.075854E-09 -3.829712E-09
       128  11  3.193355E+05  3.503509E+04 -1.241142E+04  1.270216E+05  3.606060E-10 -2.429376E-09
       128  12  3.079514E+05  3.417112E+04 -1.477703E+04  1.273860E+05 -1.103764E-10 -7.046058E-09
       128  13  3.660341E+05  5.610374E+04  7.955276E+02  1.433010E+05 -5.309947E-09 -2.647990E-10
       128  14  3.684745E+05  5.354727E+04  5.270359E+02  1.404966E+05  3.121690E-11 -5.182107E-09
       128  15  3.660263E+05  5.605091E+04  4.813354E+02  1.433209E+05 -1.819591E-09 -7.402524E-09
       128  16  4.062384E+05  7.124809E+04  1.141309E+04  1.543166E+05 -3.708105E-09 -3.030057E-09
       128  17  4.176158E+05  7.205961E+04  1.346528E+04  1.539725E+05 -1.096666E-08  1.977478E-09
       128  18  4.241047E+05  7.793099E+04  1.573945E+04  1.592571E+05 -4.638638E-09 -6.387063E-09
       128  19  3.258311E+05  4.095944E+04 -9.822197E+03  1.322861E+05  1.977102E+02 -1.375737E+03
       128  20  3.193355E+05  3.503509E+04 -1.241141E+04  1.270216E+05  6.120193E+02 -1.670438E+03
       128  21  3.079514E+05  3.417112E+04 -1.477702E+04  1.273860E+05  1.027080E+03 -1.967298E+03
       128  22  3.660341E+05  5.610374E+04  7.955316E+02  1.433010E+05  2.932180E+00 -1.449233E+03
       128  23  3.684745E+05  5.354728E+04  5.270420E+02  1.404966E+05  4.161976E+02 -1.744315E+03
       128  24  3.660263E+05  5.605092E+04  4.813446E+02  1.433209E+05  8.302195E+02 -2.041555E+03
       128  25  4.062384E+05  7.124810E+04  1.141309E+04  1.543166E+05 -1.918591E+02 -1.522734E+03
       128  26  4.176158E+05  7.205961E+04  1.346529E+04  1.539725E+05  2.203590E+02 -1.818198E+03
       128  27  4.241047E+05  7.793099E+04  1.573946E+04  1.592571E+05  6.333387E+02 -2.115820E+03
       129   1  2.955426E+05  2.952581E+04 -1.806902E+04  1.240396E+05 -1.198174E+03  2.167963E+03
       129   2  2.889551E+05  2.357028E+04 -2.020875E+04  1.186783E+05 -1.715532E+03  2.429814E+03
       129   3  2.774529E+05  2.279178E+04 -2.203464E+04  1.190156E+05 -2.233136E+03  2.692594E+03
       129   4  3.660179E+05  5.606155E+04  5.176720E+02  1.433420E+05 -1.000524E+03  2.242507E+03
       129   5  3.684819E+05  5.351998E+04  7.291893E+02  1.404750E+05 -1.517481E+03  2.504489E+03
       129   6  3.660309E+05  5.615528E+04  1.254192E+03  1.433065E+05 -2.034690E+03  2.767399E+03
       129   7  4.364979E+05  8.259759E+04  1.910394E+04  1.626463E+05 -8.028496E+02  2.317060E+03
       129   8  4.480146E+05  8.347001E+04  2.166656E+04  1.622741E+05 -1.319403E+03  2.579175E+03
       129   9  4.546163E+05  8.951917E+04  2.454229E+04  1.676004E+05 -1.836212E+03  2.842215E+03
       129  10  2.955426E+05  2.952580E+04 -1.806903E+04  1.240396E+05 -3.054280E-09 -5.586938E-10
       129  11  2.889551E+05  2.357028E+04 -2.020877E+04  1.186783E+05 -3.707696E-10 -2.249737E-09
       129  12  2.774529E+05  2.279177E+04 -2.203467E+04  1.190156E+05  1.976621E-09 -5.876847E-10
       129  13  3.660179E+05  5.606154E+04  5.176607E+02  1.433420E+05 -2.796150E-09 -1.747743E-09
       129  14  3.684819E+05  5.351997E+04  7.291732E+02  1.404750E+05 -1.502588E-09  8.213328E-09
       129  15  3.660309E+05  5.615527E+04  1.254170E+03  1.433065E+05  5.567119E-09  1.563019E-09
       129  16  4.364979E+05  8.259758E+04  1.910392E+04  1.626463E+05  2.492424E-09 -6.648148E-09
       129  17  4.480146E+05  8.347000E+04  2.166654E+04  1.622741E+05  5.143755E-09 -4.210552E-09
       129  18  4.546163E+05  8.951916E+04  2.454227E+04  1.676004E+05  1.176117E-09 -9.982244E-10
       129  19  2.955426E+05  2.952581E+04 -1.806902E+04  1.240396E+05  1.198174E+03 -2.167963E+03
       129  20  2.889551E+05  2.357028E+04 -2.020875E+04  1.186783E+05  1.715532E+03 -2.429814E+03
       129  21  2.774529E+05  2.279178E+04 -2.203464E+04  1.190156E+05  2.233136E+03 -2.692594E+03
       129  22  3.660179E+05  5.606155E+04  5.176720E+02  1.433420E+05  1.000524E+03 -2.242507E+03
       129  23  3.684819E+05  5.351998E+04  7.291893E+02  1.404750E+05  1.517481E+03 -2.504489E+03
       129  24  3.660309E+05  5.615528E+04  1.254192E+03  1.433065E+05  2.034690E+03 -2.767399E+03
       129  25  4.364979E+05  8.259759E+04  1.910394E+04  1.626463E+05  8.028496E+02 -2.317060E+03
       129  26  4.480146E+05  8.347001E+04  2.166656E+04  1.622741E+05  1.319403E+03 -2.579175E+03
       129  27  4.546163E+05  8.951917E+04  2.454229E+04  1.676004E+05  1.836212E+03 -2.842215E+03
       130   1  2.647957E+05  1.804916E+04 -2.505261E+04  1.158195E+05 -2.567508E+03  2.839897E+03
       130   2  2.579803E+05  1.173910E+04 -2.623306E+04  1.101688E+05 -4.149733E+03  2.708091E+03
       130   3  2.467271E+05  1.184678E+04 -2.599845E+04  1.100740E+05 -5.723662E+03  2.554588E+03
       130   4  3.660818E+05  5.604583E+04  1.619118E+03  1.434199E+05 -2.360995E+03  2.917727E+03
       130   5  3.683707E+05  5.333938E+04  2.836120E+03  1.404519E+05 -3.954210E+03  2.781749E+03
       130   6  3.662241E+05  5.705274E+04  5.476750E+03  1.430400E+05 -5.539151E+03  2.624067E+03
       130   7  4.673782E+05  9.404323E+04  2.829005E+04  1.710244E+05 -2.154445E+03  2.995570E+03
       130   8  4.787732E+05  9.494049E+04  3.190430E+04  1.707399E+05 -3.758650E+03  2.855421E+03
       130   9  4.857349E+05  1.022596E+05  3.695073E+04  1.760116E+05 -5.354602E+03  2.693560E+03
       130  10  2.647957E+05  1.804915E+04 -2.505264E+04  1.158195E+05 -1.568489E-09  6.197141E-10
       130  11  2.579802E+05  1.173909E+04 -2.623310E+04  1.101688E+05 -5.284880E-09  4.590736E-10
       130  12  2.467271E+05  1.184677E+04 -2.599852E+04  1.100740E+05 -4.054814E-09  2.682378E-09
       130  13  3.660818E+05  5.604582E+04  1.619091E+03  1.434199E+05  3.610545E-10 -2.251065E-09
       130  14  3.683707E+05  5.333937E+04  2.836076E+03  1.404519E+05 -7.588996E-09  1.296910E-10
       130  15  3.662241E+05  5.705273E+04  5.476680E+03  1.430400E+05 -1.942926E-09  6.842379E-10
       130  16  4.673781E+05  9.404322E+04  2.829002E+04  1.710244E+05 -7.312687E-10 -6.786651E-10
       130  17  4.787731E+05  9.494048E+04  3.190426E+04  1.707400E+05  2.784341E-09  6.494055E-09
       130  18  4.857349E+05  1.022596E+05  3.695066E+04  1.760116E+05  1.026969E-09  3.709648E-10
       130  19  2.647957E+05  1.804916E+04 -2.505261E+04  1.158195E+05  2.567508E+03 -2.839897E+03
       130  20  2.579803E+05  1.173910E+04 -2.623306E+04  1.101688E+05  4.149733E+03 -2.708091E+03
       130  21  2.467271E+05  1.184678E+04 -2.599845E+04  1.100740E+05  5.723662E+03 -2.554588E+03
       130  22  3.660818E+05  5.604583E+04  1.619118E+03  1.434199E+05  2.360995E+03 -2.917727E+03
       130  23  3.683707E+05  5.333938E+04  2.836120E+03  1.404519E+05  3.954210E+03 -2.781749E+03
       130  24  3.662241E+05  5.705274E+04  5.476750E+03  1.430400E+05  5.539151E+03 -2.624067E+03
       130  25  4.673782E+05  9.404323E+04  2.829005E+04  1.710244E+05  2.154445E+03 -2.995570E+03
       130  26  4.787732E+05  9.494049E+04  3.190430E+04  1.707399E+05  3.758650E+03 -2.855421E+03
       130  27  4.857349E+05  1.022596E+05  3.695073E+04  1.760116E+05  5.354602E+03 -2.693560E+03
       131   1  2.332247E+05  6.814830E+03 -2.788811E+04  1.086660E+05 -6.940650E+03  2.425588E+03
       131   2  2.258315E+05 -2.000783E+03 -2.516078E+04  1.010870E+05 -1.327884E+04  5.036269E+02
       131   3  2.185255E+05  6.431190E+03 -1.455590E+04  9.655091E+04 -1.949292E+04 -1.747234E+03
       131   4  3.667090E+05  5.575546E+04  7.028841E+03  1.438792E+05 -6.658056E+03  2.532024E+03
       131   5  3.673327E+05  5.194185E+04  1.221561E+04  1.405393E+05 -1.316034E+04  5.481647E+02
       131   6  3.680750E+05  6.540633E+04  2.540852E+04  1.402423E+05 -1.953863E+04 -1.764647E+03
       131   7  5.002101E+05  1.046968E+05  4.194419E+04  1.790990E+05 -6.375396E+03  2.638483E+03
       131   8  5.088532E+05  1.058858E+05  4.959028E+04  1.799997E+05 -1.304180E+04  5.927141E+02
       131   9  5.176465E+05  1.243836E+05  6.537109E+04  1.839434E+05 -1.958435E+04 -1.782064E+03
       131  10  2.332247E+05  6.814811E+03 -2.788821E+04  1.086660E+05 -3.431117E-09  4.046537E-09
       131  11  2.258314E+05 -2.000830E+03 -2.516112E+04  1.010870E+05 -2.465240E-09  2.374261E-09
       131  12  2.185251E+05  6.431085E+03 -1.455662E+04  9.655089E+04 -2.203342E-10  2.775222E-09
       131  13  3.667090E+05  5.575544E+04  7.028746E+03  1.438792E+05 -4.144668E-09 -3.356310E-09
       131  14  3.673325E+05  5.194180E+04  1.221528E+04  1.405393E+05 -2.187882E-09  8.068931E-09
       131  15  3.680746E+05  6.540622E+04  2.540780E+04  1.402422E+05 -1.641919E-09 -1.026620E-09
       131  16  5.002101E+05  1.046968E+05  4.194410E+04  1.790990E+05 -5.259195E-10 -1.189500E-09
       131  17  5.088531E+05  1.058858E+05  4.958996E+04  1.799997E+05  7.691004E-10 -3.607250E-09
       131  18  5.176461E+05  1.243835E+05  6.537036E+04  1.839434E+05  3.164970E-09  3.253355E-09
       131  19  2.332247E+05  6.814830E+03 -2.788811E+04  1.086660E+05  6.940650E+03 -2.425588E+03
       131  20  2.258315E+05 -2.000783E+03 -2.516078E+04  1.010870E+05  1.327884E+04 -5.036269E+02
       131  21  2.185255E+05  6.431190E+03 -1.455590E+04  9.655091E+04  1.949292E+04  1.747234E+03
       131  22  3.667090E+05  5.575546E+04  7.028841E+03  1.438792E+05  6.658056E+03 -2.532024E+03
       131  23  3.673327E+05  5.194185E+04  1.221561E+04  1.405393E+05  1.316034E+04 -5.481647E+02
       131  24  3.680750E+05  6.540633E+04  2.540852E+04  1.402423E+05  1.953863E+04  1.764647E+03
       131  25  5.002101E+05  1.046968E+05  4.194419E+04  1.790990E+05  6.375396E+03 -2.638483E+03
       131  26  5.088532E+05  1.058858E+05  4.959028E+04  1.799997E+05  1.304180E+04 -5.927141E+02
       131  27  5.176465E+05  1.243836E+05  6.537109E+04  1.839434E+05  1.958435E+04  1.782064E+03
       132   1  1.988211E+05 -7.852648E+02 -1.203544E+04  1.122329E+05 -2.551778E+04 -3.024013E+03
       132   2  1.896883E+05 -3.179670E+04  5.896545E+03  8.764020E+04 -5.174246E+04 -1.254750E+04
       132   3  2.205587E+05  5.375388E+04  7.376353E+04  4.022614E+04 -7.632596E+04 -2.642970E+04
       132   4  3.720901E+05  5.267603E+04  3.126264E+04  1.476288E+05 -2.429239E+04 -2.562131E+03
       132   5  3.583008E+05  3.957730E+04  5.173951E+04  1.419528E+05 -5.268072E+04 -1.290164E+04
       132   6  3.849298E+05  1.434481E+05  1.238546E+05  1.134593E+05 -7.942781E+04 -2.760121E+04
       132   7  5.453886E+05  1.061372E+05  7.455857E+04  1.830325E+05 -2.306662E+04 -2.100164E+03
       132   8  5.269403E+05  1.109549E+05  9.757969E+04  1.962792E+05 -5.361924E+04 -1.325591E+04
       132   9  5.493271E+05  2.331532E+05  1.739426E+05  1.867121E+05 -8.253053E+04 -2.877339E+04
       132  10  1.988204E+05 -7.854494E+02 -1.203668E+04  1.122328E+05  5.996018E-09  7.149009E-09
       132  11  1.896854E+05 -3.179758E+04  5.891220E+03  8.763968E+04  2.232666E-09 -3.334608E-09
       132  12  2.205523E+05  5.375157E+04  7.375128E+04  4.022451E+04  2.076681E-09  2.593543E-10
       132  13  3.720895E+05  5.267586E+04  3.126152E+04  1.476287E+05  2.614224E-09  4.009630E-09
       132  14  3.582978E+05  3.957637E+04  5.173398E+04  1.419522E+05 -1.800493E-09  3.603870E-09
       132  15  3.849228E+05  1.434456E+05  1.238413E+05  1.134575E+05 -1.914053E-10 -4.542492E-09
       132  16  5.453880E+05  1.061370E+05  7.455756E+04  1.830325E+05 -2.263522E-09 -8.288090E-10
       132  17  5.269372E+05  1.109539E+05  9.757396E+04  1.962786E+05 -8.682435E-09  2.537188E-09
       132  18  5.493196E+05  2.331505E+05  1.739283E+05  1.867102E+05 -4.250834E-09  2.132815E-09
       132  19  1.988211E+05 -7.852648E+02 -1.203544E+04  1.122329E+05  2.551778E+04  3.024013E+03
       132  20  1.896883E+05 -3.179670E+04  5.896545E+03  8.764020E+04  5.174246E+04  1.254750E+04
       132  21  2.205587E+05  5.375388E+04  7.376353E+04  4.022614E+04  7.632596E+04  2.642970E+04
       132  22  3.720901E+05  5.267603E+04  3.126264E+04  1.476288E+05  2.429239E+04  2.562131E+03
       132  23  3.583008E+05  3.957730E+04  5.173951E+04  1.419528E+05  5.268072E+04  1.290164E+04
       132  24  3.849298E+05  1.434481E+05  1.238546E+05  1.134593E+05  7.942781E+04  2.760121E+04
       132  25  5.453886E+05  1.061372E+05  7.455857E+04  1.830325E+05  2.306662E+04  2.100164E+03
       132  26  5.269403E+05  1.109549E+05  9.757969E+04  1.962792E+05  5.361924E+04  1.325591E+04
       132  27  5.493271E+05  2.331532E+05  1.739426E+05  1.867121E+05  8.253053E+04  2.877339E+04
       133   1 -1.600137E+02 -4.636290E+05 -1.893600E+03 -9.782614E+01 -3.895440E+01  1.399692E+02
       133   2 -4.090213E+02 -4.647284E+05 -2.581507E+03  1.984834E+02 -7.566304E+01  1.197140E+03
       133   3 -1.087109E+03 -4.660749E+05 -4.065753E+03 -2.161118E+02 -1.305896E+02  2.254303E+03
       133   4 -3.293349E+00 -4.629900E+05 -1.750108E+03 -1.578749E+02 -3.897362E+01  1.570754E+02
       133   5  5.065673E+01 -4.628656E+05 -2.146912E+03  1.973958E+02 -7.569546E+01  1.226047E+03
       133   6 -3.265172E+02 -4.629903E+05 -3.348248E+03 -1.582373E+02 -1.306350E+02  2.295013E+03
       133   7  1.534270E+02 -4.623510E+05 -1.606616E+03 -2.179238E+02 -3.899284E+01  1.741816E+02
       133   8  5.103345E+02 -4.610028E+05 -1.712318E+03  1.963083E+02 -7.572787E+01  1.254955E+03
       133   9  4.340737E+02 -4.599056E+05 -2.630744E+03 -1.003624E+02 -1.306804E+02  2.335724E+03
       133  10 -1.600137E+02 -4.636290E+05 -1.893600E+03 -9.782614E+01  4.782582E-09  4.173139E-09
       133  11 -4.090217E+02 -4.647284E+05 -2.581510E+03  1.984835E+02 -3.840015E-09 -1.280837E-09
       133  12 -1.087110E+03 -4.660749E+05 -4.065762E+03 -2.161116E+02  4.469109E-09 -6.153211E-10
       133  13 -3.293358E+00 -4.629900E+05 -1.750108E+03 -1.578749E+02  1.044205E-08 -2.103887E-09
       133  14  5.065632E+01 -4.628656E+05 -2.146915E+03  1.973959E+02  5.149238E-09 -2.841932E-09
       133  15 -3.265186E+02 -4.629903E+05 -3.348258E+03 -1.582370E+02 -4.845038E-10 -2.023689E-09
       133  16  1.534270E+02 -4.623510E+05 -1.606616E+03 -2.179237E+02  7.951321E-09 -4.696132E-09
       133  17  5.103341E+02 -4.610028E+05 -1.712321E+03  1.963084E+02  3.048679E-09  3.627472E-09
       133  18  4.340722E+02 -4.599056E+05 -2.630754E+03 -1.003621E+02 -3.658004E-09  2.296231E-09
       133  19 -1.600137E+02 -4.636290E+05 -1.893600E+03 -9.782614E+01  3.895440E+01 -1.399692E+02
       133  20 -4.090213E+02 -4.647284E+05 -2.581507E+03  1.984834E+02  7.566304E+01 -1.197140E+03
       133  21 -1.087109E+03 -4.660749E+05 -4.065753E+03 -2.161118E+02  1.305896E+02 -2.254303E+03
       133  22 -3.293349E+00 -4.629900E+05 -1.750108E+03 -1.578749E+02  3.897362E+01 -1.570754E+02
       133  23  5.065673E+01 -4.628656E+05 -2.146912E+03  1.973958E+02  7.569546E+01 -1.226047E+03
       133  24 -3.265172E+02 -4.629903E+05 -3.348248E+03 -1.582373E+02  1.306350E+02 -2.295013E+03
       133  25  1.534270E+02 -4.623510E+05 -1.606616E+03 -2.179238E+02  3.899284E+01 -1.741816E+02
       133  26  5.103345E+02 -4.610028E+05 -1.712318E+03  1.963083E+02  7.572787E+01 -1.254955E+03
       133  27  4.340737E+02 -4.599056E+05 -2.630744E+03 -1.003624E+02  1.306804E+02 -2.335724E+03
       134   1 -8.520843E+02 -4.676574E+05 -5.211533E+03  4.984749E+02 -1.685876E+02  2.920098E+03
       134   2 -9.521370E+02 -4.680625E+05 -8.242994E+03 -1.341364E+02 -2.263712E+02  6.451895E+03
       134   3 -5.727935E+03 -4.700989E+05 -1.474441E+04 -1.478156E+03 -2.706811E+02  9.983688E+03
       134   4  2.264692E+02 -4.632969E+05 -4.190236E+03 -1.566785E+02 -1.686346E+02  2.959338E+03
       134   5  4.240700E+02 -4.624828E+05 -6.940003E+03  1.966387E+02 -2.264017E+02  6.482430E+03
       134   6 -4.052541E+03 -4.632985E+05 -1.315365E+04 -1.614529E+02 -2.706840E+02  1.000553E+04
       134   7  1.305023E+03 -4.589365E+05 -3.168939E+03 -8.118365E+02 -1.686816E+02  2.998578E+03
       134   8  1.800275E+03 -4.569032E+05 -5.637014E+03  5.274169E+02 -2.264322E+02  6.512966E+03
       134   9 -2.377142E+03 -4.564981E+05 -1.156290E+04  1.155265E+03 -2.706868E+02  1.002736E+04
       134  10 -8.520866E+02 -4.676574E+05 -5.211550E+03  4.984753E+02  4.498346E-09 -3.146082E-09
       134  11 -9.521483E+02 -4.680625E+05 -8.243072E+03 -1.341352E+02  1.995416E-09 -6.755085E-09
       134  12 -5.727962E+03 -4.700990E+05 -1.474460E+04 -1.478154E+03  7.921417E-10 -7.747088E-10
       134  13  2.264668E+02 -4.632969E+05 -4.190252E+03 -1.566781E+02 -5.048469E-09  1.078353E-09
       134  14  4.240586E+02 -4.624829E+05 -6.940082E+03  1.966399E+02 -1.833621E-09  9.725848E-10
       134  15 -4.052567E+03 -4.632986E+05 -1.315384E+04 -1.614507E+02 -1.787544E-09 -6.998610E-09
       134  16  1.305020E+03 -4.589365E+05 -3.168956E+03 -8.118361E+02 -3.076140E-09  3.656294E-09
       134  17  1.800264E+03 -4.569032E+05 -5.637094E+03  5.274181E+02  2.066085E-10  4.042465E-09
       134  18 -2.377170E+03 -4.564983E+05 -1.156309E+04  1.155267E+03 -2.502602E-09  3.753023E-09
       134  19 -8.520843E+02 -4.676574E+05 -5.211533E+03  4.984749E+02  1.685876E+02 -2.920098E+03
       134  20 -9.521370E+02 -4.680625E+05 -8.242994E+03 -1.341364E+02  2.263712E+02 -6.451895E+03
       134  21 -5.727935E+03 -4.700989E+05 -1.474441E+04 -1.478156E+03  2.706811E+02 -9.983688E+03
       134  22  2.264692E+02 -4.632969E+05 -4.190236E+03 -1.566785E+02  1.686346E+02 -2.959338E+03
       134  23  4.240700E+02 -4.624828E+05 -6.940003E+03  1.966387E+02  2.264017E+02 -6.482430E+03
       134  24 -4.052541E+03 -4.632985E+05 -1.315365E+04 -1.614529E+02  2.706840E+02 -1.000553E+04
       134  25  1.305023E+03 -4.589365E+05 -3.168939E+03 -8.118365E+02  1.686816E+02 -2.998578E+03
       134  26  1.800275E+03 -4.569032E+05 -5.637014E+03  5.274169E+02  2.264322E+02 -6.512966E+03
       134  27 -2.377142E+03 -4.564981E+05 -1.156290E+04  1.155265E+03  2.706868E+02 -1.002736E+04
       135   1  6.361125E+02 -4.744331E+05 -1.811440E+04  6.835837E+03 -3.391136E+02  1.234344E+04
       135   2  2.264165E+03 -4.679122E+05 -2.870253E+04 -5.476255E+03 -3.818909E+02  2.673819E+04
       135   3 -5.070729E+04 -4.769212E+05 -6.231724E+04 -1.852512E+04 -1.639757E+02  4.113304E+04
       135   4  2.642675E+03 -4.663785E+05 -1.623313E+04 -1.474653E+02 -3.393654E+02  1.244525E+04
       135   5  4.539466E+03 -4.586339E+05 -2.653338E+04  1.930367E+02 -3.815713E+02  2.667098E+04
       135   6 -4.813405E+04 -4.663899E+05 -5.974261E+04 -2.036227E+02 -1.624994E+02  4.089684E+04
       135   7  4.649416E+03 -4.583238E+05 -1.435185E+04 -7.130859E+03 -3.396196E+02  1.254707E+04
       135   8  6.814882E+03 -4.493554E+05 -2.436421E+04  5.862414E+03 -3.812530E+02  2.660377E+04
       135   9 -4.555956E+04 -4.558577E+05 -5.716780E+04  1.811818E+04 -1.610370E+02  4.066063E+04
       135  10  6.360714E+02 -4.744332E+05 -1.811469E+04  6.835841E+03  7.117716E-10  9.769427E-10
       135  11  2.263973E+03 -4.679130E+05 -2.870388E+04 -5.476247E+03 -1.411741E-09 -7.079921E-09
       135  12 -5.070775E+04 -4.769230E+05 -6.232042E+04 -1.852511E+04  6.616918E-12 -9.477986E-10
       135  13  2.642633E+03 -4.663787E+05 -1.623343E+04 -1.474619E+02  2.665800E-09  1.122408E-09
       135  14  4.539275E+03 -4.586346E+05 -2.653472E+04  1.930449E+02 -1.894124E-09 -1.895170E-09
       135  15 -4.813450E+04 -4.663917E+05 -5.974575E+04 -2.036174E+02 -2.703522E-09 -3.986490E-09
       135  16  4.649374E+03 -4.583240E+05 -1.435214E+04 -7.130856E+03 -2.418158E-10 -9.720507E-10
       135  17  6.814691E+03 -4.493562E+05 -2.436555E+04  5.862422E+03  2.302806E-09  1.405161E-09
       135  18 -4.556000E+04 -4.558594E+05 -5.717091E+04  1.811819E+04  3.274859E-09  2.422227E-09
       135  19  6.361125E+02 -4.744331E+05 -1.811440E+04  6.835837E+03  3.391136E+02 -1.234344E+04
       135  20  2.264165E+03 -4.679122E+05 -2.870253E+04 -5.476255E+03  3.818909E+02 -2.673819E+04
       135  21 -5.070729E+04 -4.769212E+05 -6.231724E+04 -1.852512E+04  1.639757E+02 -4.113304E+04
       135  22  2.642675E+03 -4.663785E+05 -1.623313E+04 -1.474653E+02  3.393654E+02 -1.244525E+04
       135  23  4.539466E+03 -4.586339E+05 -2.653338E+04  1.930367E+02  3.815713E+02 -2.667098E+04
       135  24 -4.813405E+04 -4.663899E+05 -5.974261E+04 -2.036227E+02  1.624994E+02 -4.089684E+04
       135  25  4.649416E+03 -4.583238E+05 -1.435185E+04 -7.130859E+03  3.396196E+02 -1.254707E+04
       135  26  6.814882E+03 -4.493554E+05 -2.436421E+04  5.862414E+03  3.812530E+02 -2.660377E+04
       135  27 -4.555956E+04 -4.558577E+05 -5.716780E+04  1.811818E+04  1.610370E+02 -4.066063E+04
       136   1 -8.883783E+06 -2.939702E+06 -1.573305E+06 -3.118774E+06 -5.097843E+05 -1.019771E+05
       136   2 -8.654113E+06 -2.603336E+06 -1.200189E+06 -3.034901E+06 -3.452643E+05  1.809973E+05
       136   3 -8.466166E+06 -2.467470E+06 -1.047628E+06 -2.967627E+06 -1.248296E+05  3.200616E+05
       136   4 -3.775109E+06 -8.832690E+05 -2.089743E+05 -1.597151E+06 -1.660424E+05  3.056362E+04
       136   5 -3.761031E+06 -7.220283E+05 -9.534330E+04 -1.619365E+06 -1.893139E+05  2.407306E+05
       136   6 -3.750386E+06 -7.228716E+05 -5.090075E+04 -1.658320E+06 -1.570281E+05  3.074646E+05
       136   7  1.359456E+06  1.175793E+06  1.153538E+06 -6.368154E+04  1.808525E+05  1.644537E+05
       136   8  1.156617E+06  1.161628E+06  1.008060E+06 -1.932872E+05 -3.201035E+04  3.010104E+05
       136   9  9.884803E+05  1.023630E+06  9.446145E+05 -3.397115E+05 -1.894952E+05  2.947684E+05
       136  10 -8.884069E+06 -2.939784E+06 -1.573821E+06 -3.118817E+06  3.866767E-09 -2.384420E-09
       136  11 -8.654251E+06 -2.603404E+06 -1.200477E+06 -3.034850E+06  5.701469E-10 -1.121386E-08
       136  12 -8.466210E+06 -2.467584E+06 -1.047849E+06 -2.967595E+06  2.048674E-09 -4.200603E-09
       136  13 -3.775139E+06 -8.832775E+05 -2.090281E+05 -1.597147E+06  5.905854E-09 -6.214131E-10
       136  14 -3.761085E+06 -7.221000E+05 -9.551930E+04 -1.619328E+06  8.425903E-09  2.656172E-09
       136  15 -3.750438E+06 -7.229795E+05 -5.112427E+04 -1.658281E+06 -3.861978E-09 -7.209295E-10
       136  16  1.359414E+06  1.175755E+06  1.153426E+06 -6.370544E+04 -2.834516E-09  2.853497E-09
       136  17  1.156592E+06  1.161531E+06  1.007889E+06 -1.932794E+05  7.106194E-10  5.473891E-09
       136  18  9.884186E+05  1.023527E+06  9.443842E+05 -3.396666E+05 -1.009923E-09  5.200638E-09
       136  19 -8.883783E+06 -2.939702E+06 -1.573305E+06 -3.118774E+06  5.097843E+05  1.019771E+05
       136  20 -8.654113E+06 -2.603336E+06 -1.200189E+06 -3.034901E+06  3.452643E+05 -1.809973E+05
       136  21 -8.466166E+06 -2.467470E+06 -1.047628E+06 -2.967627E+06  1.248296E+05 -3.200616E+05
       136  22 -3.775109E+06 -8.832690E+05 -2.089743E+05 -1.597151E+06  1.660424E+05 -3.056362E+04
       136  23 -3.761031E+06 -7.220283E+05 -9.534330E+04 -1.619365E+06  1.893139E+05 -2.407306E+05
       136  24 -3.750386E+06 -7.228716E+05 -5.090075E+04 -1.658320E+06  1.570281E+05 -3.074646E+05
       136  25  1.359456E+06  1.175793E+06  1.153538E+06 -6.368154E+04 -1.808525E+05 -1.644537E+05
       136  26  1.156617E+06  1.161628E+06  1.008060E+06 -1.932872E+05  3.201035E+04 -3.010104E+05
       136  27  9.884803E+05  1.023630E+06  9.446145E+05 -3.397115E+05  1.894952E+05 -2.947684E+05
       137   1 -8.270700E+06 -2.423469E+06 -9.999491E+05 -2.928846E+06 -1.443598E+05  2.974589E+05
       137   2 -8.047683E+06 -2.290610E+06 -9.170680E+05 -2.827082E+06 -1.193952E+05  3.002749E+05
       137   3 -7.773379E+06 -2.217617E+06 -8.520815E+05 -2.783074E+06 -9.096495E+04  2.938542E+05
       137   4 -3.742131E+06 -7.317040E+05 -3.918199E+04 -1.654951E+06 -1.460805E+05  2.965592E+05
       137   5 -3.767977E+06 -6.988919E+05 -2.114480E+04 -1.627466E+06 -1.331115E+05  2.948225E+05
       137   6 -3.740167E+06 -7.234767E+05 -1.132760E+04 -1.657733E+06 -1.166999E+05  2.838794E+05
       137   7  8.076738E+05  9.619044E+05  9.204403E+05 -3.723356E+05 -1.478154E+05  2.956555E+05
       137   8  5.307172E+05  8.944572E+05  8.737852E+05 -4.200985E+05 -1.469316E+05  2.893316E+05
       137   9  3.098927E+05  7.720829E+05  8.285507E+05 -5.255521E+05 -1.426177E+05  2.738362E+05
       137  10 -8.270746E+06 -2.423569E+06 -1.000154E+06 -2.928812E+06  2.881868E-09  4.767458E-09
       137  11 -8.047722E+06 -2.290710E+06 -9.172638E+05 -2.827053E+06 -5.144332E-09  4.709360E-09
       137  12 -7.773411E+06 -2.217712E+06 -8.522590E+05 -2.783052E+06 -5.519135E-09  3.404699E-09
       137  13 -3.742178E+06 -7.318039E+05 -3.938694E+04 -1.654916E+06 -1.206651E-10 -3.018046E-09
       137  14 -3.768019E+06 -6.989898E+05 -2.134102E+04 -1.627435E+06 -3.122160E-09 -4.862428E-09
       137  15 -3.740203E+06 -7.235667E+05 -1.150426E+04 -1.657707E+06 -9.624999E-10  8.257634E-10
       137  16  8.076270E+05  9.618049E+05  9.202354E+05 -3.723005E+05 -2.929854E-09  8.384428E-10
       137  17  5.306717E+05  8.943618E+05  8.735877E+05 -4.200643E+05  2.253478E-10  5.051847E-09
       137  18  3.098508E+05  7.719972E+05  8.283719E+05 -5.255207E+05  6.726179E-10  2.636778E-09
       137  19 -8.270700E+06 -2.423469E+06 -9.999491E+05 -2.928846E+06  1.443598E+05 -2.974589E+05
       137  20 -8.047683E+06 -2.290610E+06 -9.170680E+05 -2.827082E+06  1.193952E+05 -3.002749E+05
       137  21 -7.773379E+06 -2.217617E+06 -8.520815E+05 -2.783074E+06  9.096495E+04 -2.938542E+05
       137  22 -3.742131E+06 -7.317040E+05 -3.918199E+04 -1.654951E+06  1.460805E+05 -2.965592E+05
       137  23 -3.767977E+06 -6.988919E+05 -2.114480E+04 -1.627466E+06  1.331115E+05 -2.948225E+05
       137  24 -3.740167E+06 -7.234767E+05 -1.132760E+04 -1.657733E+06  1.166999E+05 -2.838794E+05
       137  25  8.076738E+05  9.619044E+05  9.204403E+05 -3.723356E+05  1.478154E+05 -2.956555E+05
       137  26  5.307172E+05  8.944572E+05  8.737852E+05 -4.200985E+05  1.469316E+05 -2.893316E+05
       137  27  3.098927E+05  7.720829E+05  8.285507E+05 -5.255521E+05  1.426177E+05 -2.738362E+05
       138   1 -7.592291E+06 -2.150608E+06 -8.102698E+05 -2.732914E+06 -8.644779E+04  2.824530E+05
       138   2 -7.357280E+06 -2.021565E+06 -7.512385E+05 -2.625676E+06 -7.553193E+04  2.649078E+05
       138   3 -7.063934E+06 -1.948528E+06 -6.942602E+05 -2.581489E+06 -6.435687E+04  2.464690E+05
       138   4 -3.738962E+06 -7.241806E+05 -8.612436E+03 -1.658376E+06 -1.107052E+05  2.730725E+05
       138   5 -3.767725E+06 -6.953164E+05 -5.044394E+03 -1.627072E+06 -1.009337E+05  2.551443E+05
       138   6 -3.738016E+06 -7.222119E+05 -2.619152E+03 -1.658824E+06 -9.090572E+04  2.363248E+05
       138   7  1.298070E+05  7.035650E+05  7.922662E+05 -5.775804E+05 -1.351277E+05  2.636303E+05
       138   8 -1.647895E+05  6.320605E+05  7.404723E+05 -6.230581E+05 -1.264961E+05  2.453208E+05
       138   9 -4.006320E+05  5.050576E+05  6.884368E+05 -7.315347E+05 -1.176099E+05  2.261226E+05
       138  10 -7.592321E+06 -2.150696E+06 -8.104334E+05 -2.732895E+06 -1.266315E-09  3.661326E-09
       138  11 -7.357305E+06 -2.021642E+06 -7.513808E+05 -2.625660E+06 -5.183146E-10  2.506675E-09
       138  12 -7.063955E+06 -1.948595E+06 -6.943819E+05 -2.581476E+06  8.797521E-10 -9.016167E-10
       138  13 -3.738995E+06 -7.242638E+05 -8.775251E+03 -1.658352E+06 -9.171779E-10  1.055239E-09
       138  14 -3.767753E+06 -6.953889E+05 -5.185574E+03 -1.627051E+06  1.903045E-09  7.730392E-10
       138  15 -3.738040E+06 -7.222740E+05 -2.739380E+03 -1.658806E+06  5.180733E-11  1.487645E-09
       138  16  1.297689E+05  7.034857E+05  7.921016E+05 -5.775517E+05  2.089247E-10 -7.003151E-10
       138  17 -1.648228E+05  6.319917E+05  7.403294E+05 -6.230332E+05  1.928842E-10 -3.318688E-09
       138  18 -4.006605E+05  5.049991E+05  6.883150E+05 -7.315133E+05  1.187840E-09 -2.305848E-09
       138  19 -7.592291E+06 -2.150608E+06 -8.102698E+05 -2.732914E+06  8.644779E+04 -2.824530E+05
       138  20 -7.357280E+06 -2.021565E+06 -7.512385E+05 -2.625676E+06  7.553193E+04 -2.649078E+05
       138  21 -7.063934E+06 -1.948528E+06 -6.942602E+05 -2.581489E+06  6.435687E+04 -2.464690E+05
       138  22 -3.738962E+06 -7.241806E+05 -8.612436E+03 -1.658376E+06  1.107052E+05 -2.730725E+05
       138  23 -3.767725E+06 -6.953164E+05 -5.044394E+03 -1.627072E+06  1.009337E+05 -2.551443E+05
       138  24 -3.738016E+06 -7.222119E+05 -2.619152E+03 -1.658824E+06  9.090572E+04 -2.363248E+05
       138  25  1.298070E+05  7.035650E+05  7.922662E+05 -5.775804E+05  1.351277E+05 -2.636303E+05
       138  26 -1.647895E+05  6.320605E+05  7.404723E+05 -6.230581E+05  1.264961E+05 -2.453208E+05
       138  27 -4.006320E+05  5.050576E+05  6.884368E+05 -7.315347E+05  1.176099E+05 -2.261226E+05
       139   1 -6.874935E+06 -1.878006E+06 -6.526921E+05 -2.529054E+06 -5.922530E+04  2.348491E+05
       139   2 -6.628400E+06 -1.745090E+06 -5.950908E+05 -2.418036E+06 -5.030846E+04  2.147105E+05
       139   3 -6.321874E+06 -1.670188E+06 -5.378341E+05 -2.373263E+06 -4.134122E+04  1.942578E+05
       139   4 -3.737381E+06 -7.224758E+05 -2.064068E+03 -1.659498E+06 -8.601194E+04  2.246444E+05
       139   5 -3.766997E+06 -6.927560E+05 -1.450704E+03 -1.626536E+06 -7.749527E+04  2.043984E+05
       139   6 -3.736636E+06 -7.209606E+05 -8.722842E+02 -1.659834E+06 -6.892902E+04  1.838390E+05
       139   7 -5.896460E+05  4.338912E+05  6.480405E+05 -7.858398E+05 -1.129460E+05  2.143846E+05
       139   8 -8.971121E+05  3.602762E+05  5.917595E+05 -8.316283E+05 -1.048186E+05  1.940354E+05
       139   9 -1.144460E+06  2.288374E+05  5.357436E+05 -9.436257E+05 -9.664205E+04  1.733735E+05
       139  10 -6.874953E+06 -1.878066E+06 -6.528021E+05 -2.529043E+06 -3.729298E-09  3.432933E-10
       139  11 -6.628415E+06 -1.745140E+06 -5.951820E+05 -2.418028E+06 -2.222618E-09  4.156514E-09
       139  12 -6.321886E+06 -1.670229E+06 -5.379081E+05 -2.373257E+06  1.423847E-09  1.414102E-09
       139  13 -3.737402E+06 -7.225319E+05 -2.172576E+03 -1.659483E+06 -1.711808E-09  9.510180E-10
       139  14 -3.767015E+06 -6.928023E+05 -1.540311E+03 -1.626524E+06 -1.238081E-09  1.890466E-09
       139  15 -3.736650E+06 -7.209981E+05 -9.445717E+02 -1.659824E+06 -5.217805E-10  5.675560E-10
       139  16 -5.896719E+05  4.338385E+05  6.479304E+05 -7.858203E+05  3.678397E-09  1.457967E-09
       139  17 -8.971339E+05  3.602329E+05  5.916683E+05 -8.316119E+05 -1.998333E-10  2.342972E-09
       139  18 -1.144478E+06  2.288027E+05  5.356697E+05 -9.436123E+05 -2.405820E-09  3.955042E-10
       139  19 -6.874935E+06 -1.878006E+06 -6.526921E+05 -2.529054E+06  5.922530E+04 -2.348491E+05
       139  20 -6.628400E+06 -1.745090E+06 -5.950908E+05 -2.418036E+06  5.030846E+04 -2.147105E+05
       139  21 -6.321874E+06 -1.670188E+06 -5.378341E+05 -2.373263E+06  4.134122E+04 -1.942578E+05
       139  22 -3.737381E+06 -7.224758E+05 -2.064068E+03 -1.659498E+06  8.601194E+04 -2.246444E+05
       139  23 -3.766997E+06 -6.927560E+05 -1.450704E+03 -1.626536E+06  7.749527E+04 -2.043984E+05
       139  24 -3.736636E+06 -7.209606E+05 -8.722842E+02 -1.659834E+06  6.892902E+04 -1.838390E+05
       139  25 -5.896460E+05  4.338912E+05  6.480405E+05 -7.858398E+05  1.129460E+05 -2.143846E+05
       139  26 -8.971121E+05  3.602762E+05  5.917595E+05 -8.316283E+05  1.048186E+05 -1.940354E+05
       139  27 -1.144460E+06  2.288374E+05  5.357436E+05 -9.436257E+05  9.664205E+04 -1.733735E+05
       140   1 -6.125509E+06 -1.597520E+06 -4.953346E+05 -2.319296E+06 -3.630429E+04  1.821225E+05
       140   2 -5.869846E+06 -1.461506E+06 -4.369114E+05 -2.205448E+06 -2.747914E+04  1.611323E+05
       140   3 -5.553289E+06 -1.385296E+06 -3.788326E+05 -2.160319E+06 -1.862863E+04  1.399367E+05
       140   4 -3.736195E+06 -7.211444E+05 -8.824049E+02 -1.660373E+06 -6.416045E+04  1.716263E+05
       140   5 -3.766330E+06 -6.906850E+05 -1.121381E+03 -1.626133E+06 -5.559849E+04  1.505703E+05
       140   6 -3.735618E+06 -7.199704E+05 -1.503295E+03 -1.660631E+06 -4.701177E+04  1.293094E+05
       140   7 -1.340970E+06  1.557121E+05  4.932728E+05 -9.990818E+05 -9.213315E+04  1.610866E+05
       140   8 -1.658244E+06  8.050352E+04  4.344362E+05 -1.044990E+06 -8.382122E+04  1.399698E+05
       140   9 -1.914545E+06 -5.437617E+04  3.756502E+05 -1.159584E+06 -7.548488E+04  1.186486E+05
       140  10 -6.125519E+06 -1.597556E+06 -4.953993E+05 -2.319291E+06 -9.440740E-09 -4.119528E-09
       140  11 -5.869854E+06 -1.461534E+06 -4.369615E+05 -2.205444E+06  1.998687E-11  2.143846E-09
       140  12 -5.553294E+06 -1.385317E+06 -3.788700E+05 -2.160317E+06  8.286089E-09  5.847907E-09
       140  13 -3.736207E+06 -7.211771E+05 -9.453614E+02 -1.660364E+06 -1.226009E-09 -1.834392E-09
       140  14 -3.766339E+06 -6.907102E+05 -1.169693E+03 -1.626127E+06 -1.224147E-09 -4.118905E-09
       140  15 -3.735624E+06 -7.199889E+05 -1.538796E+03 -1.660626E+06  8.001738E-10 -4.881491E-09
       140  16 -1.340986E+06  1.556820E+05  4.932082E+05 -9.990699E+05  8.230829E-09  3.999146E-09
       140  17 -1.658257E+06  8.048065E+04  4.343863E+05 -1.044981E+06 -2.453528E-09 -6.940128E-10
       140  18 -1.914555E+06 -5.439278E+04  3.756131E+05 -1.159577E+06 -8.508850E-09  1.038024E-09
       140  19 -6.125509E+06 -1.597520E+06 -4.953346E+05 -2.319296E+06  3.630429E+04 -1.821225E+05
       140  20 -5.869846E+06 -1.461506E+06 -4.369114E+05 -2.205448E+06  2.747914E+04 -1.611323E+05
       140  21 -5.553289E+06 -1.385296E+06 -3.788326E+05 -2.160319E+06  1.862863E+04 -1.399367E+05
       140  22 -3.736195E+06 -7.211444E+05 -8.824049E+02 -1.660373E+06  6.416045E+04 -1.716263E+05
       140  23 -3.766330E+06 -6.906850E+05 -1.121381E+03 -1.626133E+06  5.559849E+04 -1.505703E+05
       140  24 -3.735618E+06 -7.199704E+05 -1.503295E+03 -1.660631E+06  4.701177E+04 -1.293094E+05
       140  25 -1.340970E+06  1.557121E+05  4.932728E+05 -9.990818E+05  9.213315E+04 -1.610866E+05
       140  26 -1.658244E+06  8.050352E+04  4.344362E+05 -1.044990E+06  8.382122E+04 -1.399698E+05
       140  27 -1.914545E+06 -5.437617E+04  3.756502E+05 -1.159584E+06  7.548488E+04 -1.186486E+05
       141   1 -5.351394E+06 -1.311076E+06 -3.356949E+05 -2.105222E+06 -1.342466E+04  1.275057E+05
       141   2 -5.089226E+06 -1.172996E+06 -2.773638E+05 -1.989385E+06 -3.470794E+03  1.064282E+05
       141   3 -4.765781E+06 -1.096141E+06 -2.203357E+05 -1.944018E+06  6.474287E+03  8.528817E+04
       141   4 -3.735372E+06 -7.200928E+05 -1.982507E+03 -1.661037E+06 -4.201317E+04  1.168182E+05
       141   5 -3.765788E+06 -6.891609E+05 -3.507970E+03 -1.625852E+06 -3.213835E+04  9.573206E+04
       141   6 -3.735018E+06 -7.194430E+05 -6.280845E+03 -1.661165E+06 -2.227335E+04  7.458336E+04
       141   7 -2.116635E+06 -1.288865E+05  3.316003E+05 -1.215771E+06 -7.068259E+04  1.061005E+05
       141   8 -2.440534E+06 -2.051787E+05  2.702608E+05 -1.261596E+06 -6.087226E+04  8.501119E+04
       141   9 -2.703157E+06 -3.426568E+05  2.077212E+05 -1.377875E+06 -5.107269E+04  6.385929E+04
       141  10 -5.351398E+06 -1.311094E+06 -3.357258E+05 -2.105221E+06 -1.404527E-08  1.392705E-09
       141  11 -5.089229E+06 -1.173008E+06 -2.773851E+05 -1.989385E+06 -4.732781E-09  2.892263E-09
       141  12 -4.765783E+06 -1.096149E+06 -2.203495E+05 -1.944019E+06  6.562324E-09  2.093184E-09
       141  13 -3.735378E+06 -7.201079E+05 -2.011408E+03 -1.661033E+06 -1.406618E-09 -6.794523E-09
       141  14 -3.765792E+06 -6.891710E+05 -3.527093E+03 -1.625850E+06 -5.627695E-09 -7.377304E-09
       141  15 -3.735020E+06 -7.194491E+05 -6.292208E+03 -1.661164E+06 -4.703159E-09 -5.412855E-09
       141  16 -2.116643E+06 -1.288999E+05  3.315698E+05 -1.215765E+06  1.516437E-08  1.083817E-08
       141  17 -2.440540E+06 -2.051875E+05  2.702403E+05 -1.261592E+06 -3.128134E-09 -3.640522E-10
       141  18 -2.703161E+06 -3.426619E+05  2.077087E+05 -1.377872E+06 -1.357121E-08 -5.952758E-09
       141  19 -5.351394E+06 -1.311076E+06 -3.356949E+05 -2.105222E+06  1.342466E+04 -1.275057E+05
       141  20 -5.089226E+06 -1.172996E+06 -2.773638E+05 -1.989385E+06  3.470794E+03 -1.064282E+05
       141  21 -4.765781E+06 -1.096141E+06 -2.203357E+05 -1.944018E+06 -6.474287E+03 -8.528817E+04
       141  22 -3.735372E+06 -7.200928E+05 -1.982507E+03 -1.661037E+06  4.201317E+04 -1.168182E+05
       141  23 -3.765788E+06 -6.891609E+05 -3.507970E+03 -1.625852E+06  3.213835E+04 -9.573206E+04
       141  24 -3.735018E+06 -7.194430E+05 -6.280845E+03 -1.661165E+06  2.227335E+04 -7.458336E+04
       141  25 -2.116635E+06 -1.288865E+05  3.316003E+05 -1.215771E+06  7.068259E+04 -1.061005E+05
       141  26 -2.440534E+06 -2.051787E+05  2.702608E+05 -1.261596E+06  6.087226E+04 -8.501119E+04
       141  27 -2.703157E+06 -3.426568E+05  2.077212E+05 -1.377875E+06  5.107269E+04 -6.385929E+04
       142   1 -4.560238E+06 -1.021156E+06 -1.781422E+05 -1.888816E+06  1.276546E+04  7.301896E+04
       142   2 -4.294790E+06 -8.815128E+05 -1.241212E+05 -1.770343E+06  2.706591E+04  5.379595E+04
       142   3 -3.969714E+06 -8.072635E+05 -7.576883E+04 -1.722499E+06  4.096071E+04  3.563555E+04
       142   4 -3.735205E+06 -7.192815E+05 -8.370250E+03 -1.661596E+06 -1.633050E+04  6.219366E+04
       142   5 -3.765097E+06 -6.886481E+05 -1.525920E+04 -1.625427E+06 -6.294897E+02  4.349947E+04
       142   6 -3.735736E+06 -7.236928E+05 -2.893377E+04 -1.659922E+06  1.466294E+04  2.586636E+04
       142   7 -2.909472E+06 -4.173515E+05  1.613683E+05 -1.434095E+06 -4.546808E+04  5.135277E+04
       142   8 -3.235113E+06 -4.957600E+05  9.359155E+04 -1.480396E+06 -2.835044E+04  3.319351E+04
       142   9 -3.501698E+06 -6.401169E+05  1.790212E+04 -1.597323E+06 -1.164573E+04  1.609328E+04
       142  10 -4.560240E+06 -1.021162E+06 -1.781526E+05 -1.888817E+06 -3.170962E-09 -9.749801E-10
       142  11 -4.294792E+06 -8.815161E+05 -1.241280E+05 -1.770344E+06 -2.359380E-09  1.651914E-09
       142  12 -3.969716E+06 -8.072653E+05 -7.577441E+04 -1.722500E+06  4.618545E-09  5.088766E-09
       142  13 -3.735206E+06 -7.192857E+05 -8.378005E+03 -1.661595E+06 -2.042578E-09 -1.468309E-09
       142  14 -3.765098E+06 -6.886502E+05 -1.526276E+04 -1.625427E+06 -9.926925E-10  1.567120E-10
       142  15 -3.735736E+06 -7.236936E+05 -2.893544E+04 -1.659923E+06 -2.032129E-09 -9.031337E-10
       142  16 -2.909475E+06 -4.173549E+05  1.613595E+05 -1.434093E+06  1.349168E-09  4.268121E-09
       142  17 -3.235114E+06 -4.957614E+05  9.358798E+04 -1.480395E+06 -3.050933E-09 -3.345618E-09
       142  18 -3.501698E+06 -6.401172E+05  1.790138E+04 -1.597323E+06 -4.476256E-09 -2.448644E-09
       142  19 -4.560238E+06 -1.021156E+06 -1.781422E+05 -1.888816E+06 -1.276546E+04 -7.301896E+04
       142  20 -4.294790E+06 -8.815128E+05 -1.241212E+05 -1.770343E+06 -2.706591E+04 -5.379595E+04
       142  21 -3.969714E+06 -8.072635E+05 -7.576883E+04 -1.722499E+06 -4.096071E+04 -3.563555E+04
       142  22 -3.735205E+06 -7.192815E+05 -8.370250E+03 -1.661596E+06  1.633050E+04 -6.219366E+04
       142  23 -3.765097E+06 -6.886481E+05 -1.525920E+04 -1.625427E+06  6.294897E+02 -4.349947E+04
       142  24 -3.735736E+06 -7.236928E+05 -2.893377E+04 -1.659922E+06 -1.466294E+04 -2.586636E+04
       142  25 -2.909472E+06 -4.173515E+05  1.613683E+05 -1.434095E+06  4.546808E+04 -5.135277E+04
       142  26 -3.235113E+06 -4.957600E+05  9.359155E+04 -1.480396E+06  2.835044E+04 -3.319351E+04
       142  27 -3.501698E+06 -6.401169E+05  1.790212E+04 -1.597323E+06  1.164573E+04 -1.609328E+04
       143   1 -3.756574E+06 -7.361961E+05 -4.008443E+04 -1.682101E+06  5.422349E+04  2.552244E+04
       143   2 -3.510767E+06 -5.819445E+05 -4.394533E+03 -1.520528E+06  7.227354E+04  1.649309E+04
       143   3 -3.238034E+06 -5.752879E+05 -2.089886E+03 -1.406816E+06  8.354563E+04  2.570003E+04
       143   4 -3.740522E+06 -7.180777E+05 -3.768877E+04 -1.664107E+06  2.394854E+04  1.427886E+04
       143   5 -3.760088E+06 -7.025998E+05 -7.008684E+04 -1.617636E+06  6.603581E+04  1.417109E+04
       143   6 -3.757632E+06 -8.395627E+05 -1.550130E+05 -1.619086E+06  1.013366E+05  3.229869E+04
       143   7 -3.724467E+06 -6.999572E+05 -3.528900E+04 -1.646112E+06 -6.327308E+03  3.033341E+03
       143   8 -4.009341E+06 -8.232351E+05 -1.357830E+05 -1.714703E+06  5.980088E+04  1.185085E+04
       143   9 -4.276937E+06 -1.103738E+06 -3.079555E+05 -1.831164E+06  1.191106E+05  3.888598E+04
       143  10 -3.756578E+06 -7.361976E+05 -4.009122E+04 -1.682102E+06 -4.544506E-09 -1.432172E-09
       143  11 -3.510773E+06 -5.819463E+05 -4.404927E+03 -1.520529E+06 -2.670136E-09 -1.053407E-09
       143  12 -3.238041E+06 -5.752905E+05 -2.104332E+03 -1.406818E+06  2.363799E-09  9.423302E-10
       143  13 -3.740523E+06 -7.180781E+05 -3.769024E+04 -1.664107E+06 -2.409431E-09 -3.333987E-09
       143  14 -3.760093E+06 -7.026012E+05 -7.009547E+04 -1.617637E+06 -2.853066E-09 -3.189166E-10
       143  15 -3.757643E+06 -8.395666E+05 -1.550344E+05 -1.619088E+06  7.141583E-11  1.188472E-09
       143  16 -3.724467E+06 -6.999572E+05 -3.528909E+04 -1.646112E+06  5.072227E-09  5.974927E-09
       143  17 -4.009345E+06 -8.232362E+05 -1.357900E+05 -1.714703E+06  2.893973E-09  8.152983E-09
       143  18 -4.276953E+06 -1.103744E+06 -3.079852E+05 -1.831168E+06 -2.212035E-09 -8.838477E-10
       143  19 -3.756574E+06 -7.361961E+05 -4.008443E+04 -1.682101E+06 -5.422349E+04 -2.552244E+04
       143  20 -3.510767E+06 -5.819445E+05 -4.394533E+03 -1.520528E+06 -7.227354E+04 -1.649309E+04
       143  21 -3.238034E+06 -5.752879E+05 -2.089886E+03 -1.406816E+06 -8.354563E+04 -2.570003E+04
       143  22 -3.740522E+06 -7.180777E+05 -3.768877E+04 -1.664107E+06 -2.394854E+04 -1.427886E+04
       143  23 -3.760088E+06 -7.025998E+05 -7.008684E+04 -1.617636E+06 -6.603581E+04 -1.417109E+04
       143  24 -3.757632E+06 -8.395627E+05 -1.550130E+05 -1.619086E+06 -1.013366E+05 -3.229869E+04
       143  25 -3.724467E+06 -6.999572E+05 -3.528900E+04 -1.646112E+06  6.327308E+03 -3.033341E+03
       143  26 -4.009341E+06 -8.232351E+05 -1.357830E+05 -1.714703E+06 -5.980088E+04 -1.185085E+04
       143  27 -4.276937E+06 -1.103738E+06 -3.079555E+05 -1.831164E+06 -1.191106E+05 -3.888598E+04
       144   1  2.841810E+05  5.920053E+04  7.960264E+04  1.244344E+04  6.156758E+04  3.225233E+02
       144   2  2.747711E+05 -2.403909E+04  2.915955E+04  4.046342E+03  4.056922E+04  8.947982E+02
       144   3  2.919178E+05 -1.200425E+04  1.620499E+04 -8.989799E+03  1.957038E+04  7.106669E+02
       144   4  3.282741E+05  7.020072E+04  9.055748E+04 -2.180448E+03  6.186871E+04  3.211217E+02
       144   5  3.149816E+05 -1.402708E+04  3.902786E+04  1.448958E+02  4.063269E+04  8.945476E+02
       144   6  3.282848E+05 -2.942977E+03  2.514978E+04 -2.168766E+03  1.939633E+04  7.108637E+02
       144   7  3.723695E+05  8.120157E+04  1.015123E+05 -1.680537E+04  6.216986E+04  3.197060E+02
       144   8  3.551936E+05 -4.015139E+03  4.889605E+04 -3.756803E+03  4.069617E+04  8.942962E+02
       144   9  3.646530E+05  6.118367E+03  3.409449E+04  4.652667E+03  1.922226E+04  7.110568E+02
       144  10  2.841769E+05  5.919951E+04  7.959552E+04  1.244342E+04 -2.256595E-09  6.547844E-11
       144  11  2.747694E+05 -2.403953E+04  2.915646E+04  4.046312E+03 -7.880731E-09  3.148470E-10
       144  12  2.919174E+05 -1.200435E+04  1.620427E+04 -8.989810E+03  1.383396E-09 -7.499886E-10
       144  13  3.282700E+05  7.019970E+04  9.055029E+04 -2.180464E+03 -4.111041E-09  2.627508E-10
       144  14  3.149799E+05 -1.402752E+04  3.902475E+04  1.448665E+02 -3.118388E-09  1.609933E-10
       144  15  3.282844E+05 -2.943079E+03  2.514907E+04 -2.168777E+03  3.942441E-09 -7.137227E-10
       144  16  3.723653E+05  8.120054E+04  1.015050E+05 -1.680539E+04  2.040762E-10  1.756401E-10
       144  17  3.551919E+05 -4.015584E+03  4.889294E+04 -3.756832E+03  2.221219E-09  3.357763E-11
       144  18  3.646526E+05  6.118268E+03  3.409379E+04  4.652656E+03 -8.561753E-10 -4.923389E-10
       144  19  2.841810E+05  5.920053E+04  7.960264E+04  1.244344E+04 -6.156758E+04 -3.225233E+02
       144  20  2.747711E+05 -2.403909E+04  2.915955E+04  4.046342E+03 -4.056922E+04 -8.947982E+02
       144  21  2.919178E+05 -1.200425E+04  1.620499E+04 -8.989799E+03 -1.957038E+04 -7.106669E+02
       144  22  3.282741E+05  7.020072E+04  9.055748E+04 -2.180448E+03 -6.186871E+04 -3.211217E+02
       144  23  3.149816E+05 -1.402708E+04  3.902786E+04  1.448958E+02 -4.063269E+04 -8.945476E+02
       144  24  3.282848E+05 -2.942977E+03  2.514978E+04 -2.168766E+03 -1.939633E+04 -7.108637E+02
       144  25  3.723695E+05  8.120157E+04  1.015123E+05 -1.680537E+04 -6.216986E+04 -3.197060E+02
       144  26  3.551936E+05 -4.015139E+03  4.889605E+04 -3.756803E+03 -4.069617E+04 -8.942962E+02
       144  27  3.646530E+05  6.118367E+03  3.409449E+04  4.652667E+03 -1.922226E+04 -7.110568E+02
       145   1  2.966560E+05  2.741787E+03  1.417248E+04 -3.217147E+02  1.533331E+04  5.171152E+02
       145   2  2.984924E+05 -7.564836E+03  4.535645E+03  5.629447E+02  1.009002E+04  4.659809E+02
       145   3  3.041988E+05 -5.128519E+03  1.497536E+03 -3.089906E+03  4.846714E+03  3.274843E+02
       145   4  3.232329E+05  9.362422E+03  2.070950E+04 -2.150200E+03  1.533154E+04  5.170685E+02
       145   5  3.212967E+05 -1.884695E+03  1.014016E+04  1.188731E+02  1.006077E+04  4.659711E+02
       145   6  3.232349E+05 -3.843799E+02  6.188416E+03 -2.149544E+03  4.790015E+03  3.274895E+02
       145   7  3.498105E+05  1.598302E+04  2.724647E+04 -3.978765E+03  1.532976E+04  5.170218E+02
       145   8  3.441014E+05  3.795408E+03  1.574464E+04 -3.252149E+02  1.003152E+04  4.659614E+02
       145   9  3.422714E+05  4.359735E+03  1.087927E+04 -1.209154E+03  4.733314E+03  3.274945E+02
       145  10  2.966558E+05  2.741724E+03  1.417204E+04 -3.217211E+02  4.008911E-09 -8.414554E-10
       145  11  2.984923E+05 -7.564863E+03  4.535454E+03  5.629410E+02  4.691319E-09  3.119813E-10
       145  12  3.041988E+05 -5.128525E+03  1.497491E+03 -3.089907E+03  3.975101E-09  1.066604E-09
       145  13  3.232327E+05  9.362359E+03  2.070906E+04 -2.150207E+03 -4.148342E-09 -6.477972E-10
       145  14  3.212966E+05 -1.884722E+03  1.013997E+04  1.188693E+02 -3.058107E-09  2.006545E-10
       145  15  3.232349E+05 -3.843862E+02  6.188373E+03 -2.149545E+03  1.243343E-09  7.618593E-10
       145  16  3.498102E+05  1.598295E+04  2.724603E+04 -3.978771E+03 -4.049692E-09 -6.738106E-10
       145  17  3.441012E+05  3.795381E+03  1.574445E+04 -3.252187E+02 -8.293305E-09 -1.818028E-10
       145  18  3.422713E+05  4.359729E+03  1.087923E+04 -1.209155E+03 -7.921771E-09  5.864291E-10
       145  19  2.966560E+05  2.741787E+03  1.417248E+04 -3.217147E+02 -1.533331E+04 -5.171152E+02
       145  20  2.984924E+05 -7.564836E+03  4.535645E+03  5.629447E+02 -1.009002E+04 -4.659809E+02
       145  21  3.041988E+05 -5.128519E+03  1.497536E+03 -3.089906E+03 -4.846714E+03 -3.274843E+02
       145  22  3.232329E+05  9.362422E+03  2.070950E+04 -2.150200E+03 -1.533154E+04 -5.170685E+02
       145  23  3.212967E+05 -1.884695E+03  1.014016E+04  1.188731E+02 -1.006077E+04 -4.659711E+02
       145  24  3.232349E+05 -3.843799E+02  6.188416E+03 -2.149544E+03 -4.790015E+03 -3.274895E+02
       145  25  3.498105E+05  1.598302E+04  2.724647E+04 -3.978765E+03 -1.532976E+04 -5.170218E+02
       145  26  3.441014E+05  3.795408E+03  1.574464E+04 -3.252149E+02 -1.003152E+04 -4.659614E+02
       145  27  3.422714E+05  4.359735E+03  1.087927E+04 -1.209154E+03 -4.733314E+03 -3.274945E+02
       146   1  3.131100E+05 -1.100009E+03  2.610865E+03 -1.928120E+03  3.832859E+03  2.369898E+02
       146   2  3.165449E+05 -1.663737E+03  1.200034E+03  1.465657E+02  2.520727E+03  1.143084E+02
       146   3  3.205747E+05 -5.315046E+02  1.067159E+03 -2.271705E+03  1.208607E+03 -1.838930E+01
       146   4  3.225060E+05  1.238536E+03  4.910915E+03 -2.139857E+03  3.796171E+03  2.369876E+02
       146   5  3.222084E+05 -2.529873E+02  2.592214E+03  1.066321E+02  2.480894E+03  1.143076E+02
       146   6  3.225064E+05 -4.800265E+01  1.553649E+03 -2.139834E+03  1.165636E+03 -1.838935E+01
       146   7  3.319021E+05  3.577076E+03  7.210959E+03 -2.351598E+03  3.759483E+03  2.369854E+02
       146   8  3.278720E+05  1.157760E+03  3.984391E+03  6.669820E+01  2.441060E+03  1.143068E+02
       146   9  3.244381E+05  4.354991E+02  2.040138E+03 -2.007963E+03  1.122665E+03 -1.838941E+01
       146  10  3.131100E+05 -1.100013E+03  2.610837E+03 -1.928121E+03 -3.216211E-10  2.630214E-10
       146  11  3.165449E+05 -1.663739E+03  1.200022E+03  1.465655E+02  3.444971E-10 -1.280815E-09
       146  12  3.205747E+05 -5.315050E+02  1.067157E+03 -2.271705E+03 -1.451824E-09  2.833259E-11
       146  13  3.225060E+05  1.238532E+03  4.910888E+03 -2.139858E+03  2.041825E-09  1.882032E-10
       146  14  3.222084E+05 -2.529890E+02  2.592202E+03  1.066319E+02 -2.154216E-09 -1.167780E-09
       146  15  3.225064E+05 -4.800301E+01  1.553646E+03 -2.139834E+03 -2.921343E-09  5.440220E-11
       146  16  3.319021E+05  3.577072E+03  7.210932E+03 -2.351598E+03 -3.082014E-09  5.892561E-11
       146  17  3.278720E+05  1.157758E+03  3.984380E+03  6.669797E+01 -1.823820E-10 -1.144435E-09
       146  18  3.244381E+05  4.354988E+02  2.040135E+03 -2.007963E+03 -1.275816E-09  7.740548E-11
       146  19  3.131100E+05 -1.100009E+03  2.610865E+03 -1.928120E+03 -3.832859E+03 -2.369898E+02
       146  20  3.165449E+05 -1.663737E+03  1.200034E+03  1.465657E+02 -2.520727E+03 -1.143084E+02
       146  21  3.205747E+05 -5.315046E+02  1.067159E+03 -2.271705E+03 -1.208607E+03  1.838930E+01
       146  22  3.225060E+05  1.238536E+03  4.910915E+03 -2.139857E+03 -3.796171E+03 -2.369876E+02
       146  23  3.222084E+05 -2.529873E+02  2.592214E+03  1.066321E+02 -2.480894E+03 -1.143076E+02
       146  24  3.225064E+05 -4.800265E+01  1.553649E+03 -2.139834E+03 -1.165636E+03  1.838935E+01
       146  25  3.319021E+05  3.577076E+03  7.210959E+03 -2.351598E+03 -3.759483E+03 -2.369854E+02
       146  26  3.278720E+05  1.157760E+03  3.984391E+03  6.669820E+01 -2.441060E+03 -1.143068E+02
       146  27  3.244381E+05  4.354991E+02  2.040138E+03 -2.007963E+03 -1.122665E+03  1.838941E+01
       147   1  3.300680E+05  2.074138E+03  3.117979E+03 -2.120834E+03  9.564001E+02 -9.669120E+01
       147   2  3.337551E+05  2.806784E+03  3.514973E+03  1.102054E+02  6.015778E+02 -2.277213E+02
       147   3  3.375475E+05  3.773030E+03  4.201423E+03 -2.160815E+03  2.467528E+02 -3.604499E+02
       147   4  3.223974E+05  1.611124E+02  1.220668E+03 -2.141867E+03  9.157592E+02 -9.669166E+01
       147   5  3.223448E+05 -3.550803E+01  7.096894E+02  1.091664E+02  5.604099E+02 -2.277225E+02
       147   6  3.223975E+05  1.552386E+00  4.885194E+02 -2.141865E+03  2.050600E+02 -3.604518E+02
       147   7  3.147269E+05 -1.751918E+03 -6.766468E+02 -2.162899E+03  8.751187E+02 -9.669213E+01
       147   8  3.109346E+05 -2.877809E+03 -2.095604E+03  1.081275E+02  5.192427E+02 -2.277236E+02
       147   9  3.072477E+05 -3.769942E+03 -3.224401E+03 -2.122915E+03  1.633683E+02 -3.604536E+02
       147  10  3.300680E+05  2.074138E+03  3.117978E+03 -2.120833E+03  3.543801E-09  8.018768E-10
       147  11  3.337551E+05  2.806783E+03  3.514972E+03  1.102055E+02  5.560794E-10  4.039686E-11
       147  12  3.375475E+05  3.773029E+03  4.201422E+03 -2.160815E+03  2.243610E-10 -5.582872E-10
       147  13  3.223974E+05  1.611121E+02  1.220667E+03 -2.141867E+03  2.161464E-09  6.171232E-10
       147  14  3.223448E+05 -3.550817E+01  7.096887E+02  1.091665E+02 -3.289562E-09 -5.706144E-11
       147  15  3.223975E+05  1.552236E+00  4.885191E+02 -2.141865E+03 -4.994367E-09 -1.479818E-10
       147  16  3.147269E+05 -1.751918E+03 -6.766482E+02 -2.162899E+03 -1.297733E-09  4.740660E-10
       147  17  3.109346E+05 -2.877809E+03 -2.095605E+03  1.081276E+02 -5.520897E-09 -2.697745E-10
       147  18  3.072477E+05 -3.769942E+03 -3.224401E+03 -2.122915E+03 -2.198207E-09  3.079605E-10
       147  19  3.300680E+05  2.074138E+03  3.117979E+03 -2.120834E+03 -9.564001E+02  9.669120E+01
       147  20  3.337551E+05  2.806784E+03  3.514973E+03  1.102054E+02 -6.015778E+02  2.277213E+02
       147  21  3.375475E+05  3.773030E+03  4.201423E+03 -2.160815E+03 -2.467528E+02  3.604499E+02
       147  22  3.223974E+05  1.611124E+02  1.220668E+03 -2.141867E+03 -9.157592E+02  9.669166E+01
       147  23  3.223448E+05 -3.550803E+01  7.096894E+02  1.091664E+02 -5.604099E+02  2.277225E+02
       147  24  3.223975E+05  1.552387E+00  4.885194E+02 -2.141865E+03 -2.050600E+02  3.604518E+02
       147  25  3.147269E+05 -1.751918E+03 -6.766468E+02 -2.162899E+03 -8.751187E+02  9.669213E+01
       147  26  3.109346E+05 -2.877809E+03 -2.095604E+03  1.081275E+02 -5.192427E+02  2.277236E+02
       147  27  3.072477E+05 -3.769942E+03 -3.224401E+03 -2.122915E+03 -1.633683E+02  3.604536E+02
       148   1  3.472165E+05  6.205316E+03  6.550343E+03 -2.147390E+03  1.633944E+02 -4.382855E+02
       148   2  3.509796E+05  7.112002E+03  7.445865E+03  1.270433E+02 -4.121317E+01 -5.717639E+02
       148   3  3.548009E+05  8.131860E+03  8.503486E+03 -2.163987E+03 -2.458104E+02 -7.049467E+02
       148   4  3.223869E+05  1.803777E+01  4.342885E+02 -2.155956E+03  1.216848E+02 -4.382884E+02
       148   5  3.223578E+05 -1.753094E+01  4.092446E+02  1.267797E+02 -8.282281E+01 -5.717686E+02
       148   6  3.223869E+05  6.005968E+01  5.462360E+02 -2.155961E+03 -2.873189E+02 -7.049531E+02
       148   7  2.975579E+05 -6.169286E+03 -5.681811E+03 -2.164522E+03  7.997688E+01 -4.382912E+02
       148   8  2.937368E+05 -7.147125E+03 -6.627436E+03  1.265161E+02 -1.244305E+02 -5.717733E+02
       148   9  2.899739E+05 -8.011819E+03 -7.411092E+03 -2.147936E+03 -3.288251E+02 -7.049595E+02
       148  10  3.472165E+05  6.205316E+03  6.550342E+03 -2.147390E+03 -3.641579E-09 -3.937600E-11
       148  11  3.509796E+05  7.112001E+03  7.445864E+03  1.270432E+02  3.873176E-09  1.000998E-09
       148  12  3.548009E+05  8.131859E+03  8.503485E+03 -2.163987E+03 -1.307052E-09 -5.457157E-10
       148  13  3.223869E+05  1.803756E+01  4.342881E+02 -2.155956E+03 -1.887678E-09  3.689142E-10
       148  14  3.223578E+05 -1.753129E+01  4.092440E+02  1.267796E+02  1.309999E-09  6.855689E-10
       148  15  3.223869E+05  6.005913E+01  5.462349E+02 -2.155961E+03  1.432957E-09 -4.887065E-10
       148  16  2.975579E+05 -6.169287E+03 -5.681811E+03 -2.164522E+03 -6.032247E-09  5.879397E-10
       148  17  2.937368E+05 -7.147125E+03 -6.627437E+03  1.265160E+02  2.104111E-09  1.029348E-10
       148  18  2.899739E+05 -8.011819E+03 -7.411093E+03 -2.147936E+03 -1.329207E-09 -3.926514E-10
       148  19  3.472165E+05  6.205316E+03  6.550343E+03 -2.147390E+03 -1.633944E+02  4.382855E+02
       148  20  3.509796E+05  7.112002E+03  7.445865E+03  1.270433E+02  4.121317E+01  5.717639E+02
       148  21  3.548009E+05  8.131860E+03  8.503486E+03 -2.163987E+03  2.458104E+02  7.049467E+02
       148  22  3.223869E+05  1.803777E+01  4.342885E+02 -2.155956E+03 -1.216848E+02  4.382884E+02
       148  23  3.223578E+05 -1.753094E+01  4.092446E+02  1.267797E+02  8.282281E+01  5.717686E+02
       148  24  3.223869E+05  6.005968E+01  5.462360E+02 -2.155961E+03  2.873189E+02  7.049531E+02
       148  25  2.975579E+05 -6.169286E+03 -5.681811E+03 -2.164522E+03 -7.997688E+01  4.382912E+02
       148  26  2.937368E+05 -7.147125E+03 -6.627436E+03  1.265161E+02  1.244305E+02  5.717733E+02
       148  27  2.899739E+05 -8.011819E+03 -7.411092E+03 -2.147936E+03  3.288251E+02  7.049595E+02
       149   1  3.647144E+05  1.051923E+04  1.106277E+04 -2.128698E+03 -3.500508E+02 -7.868149E+02
       149   2  3.684850E+05  1.140483E+04  1.237633E+04  1.498456E+02 -8.746232E+02 -9.244391E+02
       149   3  3.724946E+05  1.294093E+04  1.419553E+04 -2.255687E+03 -1.399176E+03 -1.045382E+03
       149   4  3.224267E+05 -1.672190E+01  6.546863E+02 -2.182288E+03 -3.955731E+02 -7.868237E+02
       149   5  3.223075E+05 -9.754045E+01  1.024156E+03  1.597125E+02 -9.149043E+02 -9.244502E+02
       149   6  3.224265E+05  4.712686E+02  1.895675E+03 -2.182386E+03 -1.434212E+03 -1.045395E+03
       149   7  2.801405E+05 -1.055280E+04 -9.753527E+03 -2.235874E+03 -4.410922E+02 -7.868324E+02
       149   8  2.761320E+05 -1.160007E+04 -1.032817E+04  1.695785E+02 -9.551824E+02 -9.244612E+02
       149   9  2.723608E+05 -1.199858E+04 -1.040437E+04 -2.109090E+03 -1.469246E+03 -1.045408E+03
       149  10  3.647144E+05  1.051923E+04  1.106277E+04 -2.128698E+03  1.982944E-09 -1.039935E-09
       149  11  3.684850E+05  1.140483E+04  1.237632E+04  1.498449E+02 -5.562915E-11 -6.314912E-10
       149  12  3.724946E+05  1.294093E+04  1.419553E+04 -2.255688E+03  3.164695E-09  5.961524E-10
       149  13  3.224267E+05 -1.672261E+01  6.546848E+02 -2.182288E+03  2.241798E-09 -7.078150E-10
       149  14  3.223075E+05 -9.754159E+01  1.024153E+03  1.597118E+02  2.033629E-09 -1.923922E-10
       149  15  3.224265E+05  4.712669E+02  1.895669E+03 -2.182387E+03  2.983820E-09  3.402372E-10
       149  16  2.801405E+05 -1.055280E+04 -9.753529E+03 -2.235875E+03 -3.093550E-09 -5.102090E-10
       149  17  2.761320E+05 -1.160007E+04 -1.032818E+04  1.695778E+02 -8.413108E-09  2.897541E-11
       149  18  2.723608E+05 -1.199858E+04 -1.040437E+04 -2.109091E+03 -1.350107E-09  5.064858E-10
       149  19  3.647144E+05  1.051923E+04  1.106277E+04 -2.128698E+03  3.500508E+02  7.868149E+02
       149  20  3.684850E+05  1.140483E+04  1.237633E+04  1.498456E+02  8.746232E+02  9.244391E+02
       149  21  3.724946E+05  1.294093E+04  1.419553E+04 -2.255687E+03  1.399176E+03  1.045382E+03
       149  22  3.224267E+05 -1.672190E+01  6.546863E+02 -2.182288E+03  3.955731E+02  7.868237E+02
       149  23  3.223075E+05 -9.754045E+01  1.024156E+03  1.597125E+02  9.149043E+02  9.244502E+02
       149  24  3.224265E+05  4.712686E+02  1.895675E+03 -2.182386E+03  1.434212E+03  1.045395E+03
       149  25  2.801405E+05 -1.055280E+04 -9.753527E+03 -2.235874E+03  4.410922E+02  7.868324E+02
       149  26  2.761320E+05 -1.160007E+04 -1.032817E+04  1.695785E+02  9.551824E+02  9.244612E+02
       149  27  2.723608E+05 -1.199858E+04 -1.040437E+04 -2.109090E+03  1.469246E+03  1.045408E+03
       150   1  3.829589E+05  1.486307E+04  1.720268E+04 -1.850605E+03 -1.744441E+03 -1.152320E+03
       150   2  3.862448E+05  1.529160E+04  1.968146E+04  5.180505E+01 -3.813005E+03 -1.303949E+03
       150   3  3.910343E+05  2.059604E+04  2.472852E+04 -2.901499E+03 -5.881647E+03 -1.291347E+03
       150   4  3.227056E+05 -1.477568E+02  2.379228E+03 -2.220053E+03 -1.817121E+03 -1.152344E+03
       150   5  3.219578E+05 -7.207467E+02  3.880746E+03  2.071595E+02 -3.834237E+03 -1.303965E+03
       150   6  3.227048E+05  3.573498E+03  7.915011E+03 -2.221363E+03 -5.851416E+03 -1.291352E+03
       150   7  2.624555E+05 -1.515885E+04 -1.244449E+04 -2.589465E+03 -1.889794E+03 -1.152367E+03
       150   8  2.576745E+05 -1.673340E+04 -1.192027E+04  3.624976E+02 -3.855466E+03 -1.303981E+03
       150   9  2.543795E+05 -1.344939E+04 -8.898844E+03 -1.541302E+03 -5.821189E+03 -1.291357E+03
       150  10  3.829589E+05  1.486306E+04  1.720267E+04 -1.850607E+03  2.454193E-09  5.726180E-10
       150  11  3.862447E+05  1.529160E+04  1.968143E+04  5.180105E+01 -5.098311E-10 -1.306326E-10
       150  12  3.910343E+05  2.059603E+04  2.472846E+04 -2.901505E+03 -3.287912E-09 -6.237458E-11
       150  13  3.227056E+05 -1.477592E+02  2.379219E+03 -2.220054E+03 -2.031352E-09  4.111082E-10
       150  14  3.219577E+05 -7.207525E+02  3.880715E+03  2.071555E+02 -3.235544E-09  1.312306E-11
       150  15  3.227048E+05  3.573487E+03  7.914944E+03 -2.221369E+03 -3.061881E-09  8.148768E-11
       150  16  2.624555E+05 -1.515885E+04 -1.244450E+04 -2.589467E+03  8.783659E-10  3.896873E-10
       150  17  2.576745E+05 -1.673341E+04 -1.192030E+04  3.624935E+02 -8.571530E-10  7.276595E-10
       150  18  2.543795E+05 -1.344940E+04 -8.898911E+03 -1.541308E+03  4.785094E-09  5.484449E-10
       150  19  3.829589E+05  1.486307E+04  1.720268E+04 -1.850605E+03  1.744441E+03  1.152320E+03
       150  20  3.862448E+05  1.529160E+04  1.968146E+04  5.180505E+01  3.813005E+03  1.303949E+03
       150  21  3.910343E+05  2.059604E+04  2.472852E+04 -2.901499E+03  5.881647E+03  1.291347E+03
       150  22  3.227056E+05 -1.477568E+02  2.379228E+03 -2.220053E+03  1.817121E+03  1.152344E+03
       150  23  3.219578E+05 -7.207467E+02  3.880746E+03  2.071595E+02  3.834237E+03  1.303965E+03
       150  24  3.227048E+05  3.573498E+03  7.915011E+03 -2.221363E+03  5.851416E+03  1.291352E+03
       150  25  2.624555E+05 -1.515885E+04 -1.244449E+04 -2.589465E+03  1.889794E+03  1.152367E+03
       150  26  2.576745E+05 -1.673340E+04 -1.192027E+04  3.624976E+02  3.855466E+03  1.303981E+03
       150  27  2.543795E+05 -1.344939E+04 -8.898844E+03 -1.541302E+03  5.821189E+03  1.291357E+03
       151   1  4.035796E+05  1.853966E+04  2.901510E+04  3.620717E+02 -7.108607E+03 -1.594652E+03
       151   2  4.026967E+05  1.534481E+04  3.531538E+04 -1.193622E+03 -1.566925E+04 -1.831658E+03
       151   3  4.120725E+05  4.862985E+04  5.631175E+04 -7.833028E+03 -2.423070E+04 -6.336331E+02
       151   4  3.246359E+05 -1.126235E+03  9.610084E+03 -2.266298E+03 -7.404808E+03 -1.594755E+03
       151   5  3.195427E+05 -5.359444E+03  1.490627E+04  2.678524E+02 -1.551657E+04 -1.831637E+03
       151   6  3.246316E+05  2.681189E+04  3.458833E+04 -2.281694E+03 -2.362907E+04 -6.335161E+02
       151   7  2.456979E+05 -2.079257E+04 -9.795381E+03 -4.894334E+03 -7.700971E+03 -1.594856E+03
       151   8  2.363949E+05 -2.606420E+04 -5.503344E+03  1.729130E+03 -1.536391E+04 -1.831615E+03
       151   9  2.371976E+05  4.993469E+03  1.286435E+04  3.268857E+03 -2.302753E+04 -6.333884E+02
       151  10  4.035796E+05  1.853964E+04  2.901500E+04  3.620626E+02 -1.680320E-09 -5.132068E-10
       151  11  4.026965E+05  1.534474E+04  3.531492E+04 -1.193645E+03 -4.713473E-09 -1.936277E-09
       151  12  4.120719E+05  4.862969E+04  5.631064E+04 -7.833040E+03  2.908991E-09 -6.997184E-10
       151  13  3.246358E+05 -1.126252E+03  9.609977E+03 -2.266308E+03 -4.418811E-09 -1.756168E-09
       151  14  3.195424E+05 -5.359512E+03  1.490581E+04  2.678295E+02  3.575900E-09  5.315991E-10
       151  15  3.246310E+05  2.681174E+04  3.458728E+04 -2.281706E+03 -5.150148E-09 -2.259892E-10
       151  16  2.456978E+05 -2.079258E+04 -9.795497E+03 -4.894344E+03  2.856617E-09 -6.802872E-11
       151  17  2.363947E+05 -2.606427E+04 -5.503794E+03  1.729107E+03  2.008338E-09  2.688803E-10
       151  18  2.371970E+05  4.993326E+03  1.286336E+04  3.268845E+03 -1.626506E-09 -8.076684E-10
       151  19  4.035796E+05  1.853966E+04  2.901510E+04  3.620717E+02  7.108607E+03  1.594652E+03
       151  20  4.026967E+05  1.534481E+04  3.531538E+04 -1.193622E+03  1.566925E+04  1.831658E+03
       151  21  4.120725E+05  4.862985E+04  5.631175E+04 -7.833028E+03  2.423070E+04  6.336331E+02
       151  22  3.246359E+05 -1.126235E+03  9.610084E+03 -2.266298E+03  7.404808E+03  1.594755E+03
       151  23  3.195427E+05 -5.359444E+03  1.490627E+04  2.678524E+02  1.551657E+04  1.831637E+03
       151  24  3.246316E+05  2.681189E+04  3.458833E+04 -2.281694E+03  2.362907E+04  6.335161E+02
       151  25  2.456979E+05 -2.079257E+04 -9.795381E+03 -4.894334E+03  7.700971E+03  1.594856E+03
       151  26  2.363949E+05 -2.606420E+04 -5.503344E+03  1.729130E+03  1.536391E+04  1.831615E+03
       151  27  2.371976E+05  4.993469E+03  1.286435E+04  3.268857E+03  2.302753E+04  6.333884E+02
       152   1  2.987478E+06  1.212823E+07  3.004177E+06 -1.316395E+06  8.009276E+04  1.169855E+05
       152   2  2.328585E+06  9.803945E+06  2.371743E+06 -4.389533E+04  2.150636E+05  2.348252E+04
       152   3  1.910229E+06  7.737743E+06  1.895575E+06 -1.381564E+06  1.303761E+05 -7.274073E+04
       152   4  6.838171E+04  3.530288E+05  9.866385E+04 -1.252276E+06  8.062412E+04  3.925178E+04
       152   5 -4.308804E+04  2.318657E+05  3.649314E+04  5.469681E+04  2.153793E+05  1.586301E+04
       152   6  7.394485E+04  3.508861E+05  8.328361E+04 -1.251149E+06  1.289791E+05 -1.059903E+04
       152   7 -2.861000E+06 -1.129774E+07 -2.817090E+06 -1.189066E+06  8.114625E+04 -3.703616E+04
       152   8 -2.421484E+06 -9.257537E+06 -2.305425E+06  1.520627E+05  2.156959E+05  8.358198E+03
       152   9 -1.766348E+06 -6.986687E+06 -1.732998E+06 -1.121932E+06  1.275994E+05  5.081205E+04
       152  10  2.987467E+06  1.212822E+07  3.004139E+06 -1.316403E+06 -7.243048E-09 -4.561562E-10
       152  11  2.328535E+06  9.803932E+06  2.371655E+06 -4.389937E+04 -1.214818E-08  3.069390E-08
       152  12  1.910210E+06  7.737733E+06  1.895533E+06 -1.381557E+06  9.869915E-09  3.597431E-08
       152  13  6.837431E+04  3.530254E+05  9.864871E+04 -1.252278E+06 -4.090094E-09 -3.986336E-09
       152  14 -4.313793E+04  2.318530E+05  3.640549E+04  5.469406E+04 -1.118054E-08 -7.582747E-09
       152  15  7.392696E+04  3.508815E+05  8.325215E+04 -1.251148E+06  6.761558E-09 -8.652866E-09
       152  16 -2.861007E+06 -1.129775E+07 -2.817105E+06 -1.189063E+06 -5.131610E-09  2.298081E-09
       152  17 -2.421534E+06 -9.257549E+06 -2.305513E+06  1.520613E+05 -2.828432E-09 -2.527146E-08
       152  18 -1.766366E+06 -6.986694E+06 -1.733034E+06 -1.121937E+06  4.508026E-09 -2.173484E-08
       152  19  2.987478E+06  1.212823E+07  3.004177E+06 -1.316395E+06 -8.009276E+04 -1.169855E+05
       152  20  2.328585E+06  9.803945E+06  2.371743E+06 -4.389533E+04 -2.150636E+05 -2.348252E+04
       152  21  1.910229E+06  7.737743E+06  1.895575E+06 -1.381564E+06 -1.303761E+05  7.274073E+04
       152  22  6.838171E+04  3.530288E+05  9.866385E+04 -1.252276E+06 -8.062412E+04 -3.925178E+04
       152  23 -4.308804E+04  2.318657E+05  3.649314E+04  5.469681E+04 -2.153793E+05 -1.586301E+04
       152  24  7.394485E+04  3.508861E+05  8.328361E+04 -1.251149E+06 -1.289791E+05  1.059903E+04
       152  25 -2.861000E+06 -1.129774E+07 -2.817090E+06 -1.189066E+06 -8.114625E+04  3.703616E+04
       152  26 -2.421484E+06 -9.257537E+06 -2.305425E+06  1.520627E+05 -2.156959E+05 -8.358198E+03
       152  27 -1.766348E+06 -6.986687E+06 -1.732998E+06 -1.121932E+06 -1.275994E+05 -5.081205E+04
       153   1  4.998179E+05  2.093419E+06  5.145755E+05 -1.287241E+06  4.723547E+04 -4.594328E+04
       153   2 -1.029724E+05 -1.566122E+04  1.956952E+04  6.001258E+04 -4.746622E+03 -1.013522E+05
       153   3 -5.026747E+05 -2.221225E+06 -4.222762E+05 -1.187065E+06 -5.522148E+04 -1.564736E+05
       153   4  5.043512E+04  2.913617E+05  7.380477E+04 -1.248097E+06  4.679341E+04 -2.902840E+04
       153   5 -1.348579E+04  3.418285E+05  1.075207E+05  4.989717E+04 -5.159442E+03 -8.496179E+04
       153   6  1.260253E+05  2.914807E+05  1.949552E+05 -1.246204E+06 -5.561036E+04 -1.407952E+05
       153   7 -3.991851E+05 -1.507742E+06 -3.672022E+05 -1.209045E+06  4.635281E+04 -1.216230E+04
       153   8  7.599167E+04  6.994352E+05  1.954634E+05  3.977664E+04 -5.572678E+03 -6.856200E+04
       153   9  7.542625E+05  2.809949E+06  8.117232E+05 -1.305540E+06 -5.600143E+04 -1.250523E+05
       153  10  4.998150E+05  2.093416E+06  5.145674E+05 -1.287239E+06  2.664499E-09  1.554096E-08
       153  11 -1.029752E+05 -1.567226E+04  1.955018E+04  6.001219E+04 -2.310706E-09  4.100620E-08
       153  12 -5.026846E+05 -2.221252E+06 -4.223282E+05 -1.187072E+06 -9.420935E-09  3.448254E-08
       153  13  5.043254E+04  2.913602E+05  7.379909E+04 -1.248096E+06  7.920469E-09 -2.631383E-08
       153  14 -1.348775E+04  3.418208E+05  1.075071E+05  4.989682E+04  9.117162E-09 -1.373060E-08
       153  15  1.260167E+05  2.914586E+05  1.949121E+05 -1.246210E+06  2.101353E-08 -9.594175E-09
       153  16 -3.991874E+05 -1.507743E+06 -3.672065E+05 -1.209045E+06  6.195045E-09 -1.833758E-09
       153  17  7.599038E+04  6.994301E+05  1.954545E+05  3.977633E+04 -1.948492E-08 -3.493049E-08
       153  18  7.542549E+05  2.809931E+06  8.116880E+05 -1.305546E+06 -2.763730E-09 -1.890640E-08
       153  19  4.998179E+05  2.093419E+06  5.145755E+05 -1.287241E+06 -4.723547E+04  4.594328E+04
       153  20 -1.029724E+05 -1.566122E+04  1.956952E+04  6.001258E+04  4.746622E+03  1.013522E+05
       153  21 -5.026747E+05 -2.221225E+06 -4.222762E+05 -1.187065E+06  5.522148E+04  1.564736E+05
       153  22  5.043512E+04  2.913617E+05  7.380477E+04 -1.248097E+06 -4.679341E+04  2.902840E+04
       153  23 -1.348579E+04  3.418285E+05  1.075207E+05  4.989717E+04  5.159442E+03  8.496179E+04
       153  24  1.260253E+05  2.914807E+05  1.949552E+05 -1.246204E+06  5.561036E+04  1.407952E+05
       153  25 -3.991851E+05 -1.507742E+06 -3.672022E+05 -1.209045E+06 -4.635281E+04  1.216230E+04
       153  26  7.599167E+04  6.994352E+05  1.954634E+05  3.977664E+04  5.572678E+03  6.856200E+04
       153  27  7.542625E+05  2.809949E+06  8.117232E+05 -1.305540E+06  5.600143E+04  1.250523E+05
       154   1 -1.977231E+06 -7.639116E+06 -1.735745E+06 -1.172679E+06 -1.377599E+05 -2.474766E+05
       154   2 -2.720432E+06 -1.004654E+07 -2.178720E+06  1.787544E+05 -2.268660E+05 -3.663043E+05
       154   3 -2.464219E+06 -1.195121E+07 -2.246748E+06 -1.090342E+06 -8.470219E+04 -4.820276E+05
       154   4  3.833679E+04  4.082463E+05  2.557074E+05 -1.253825E+06 -1.390894E+05 -1.854083E+05
       154   5 -1.616030E+05  1.547189E+05  3.401582E+05  5.573655E+04 -2.264580E+05 -3.782659E+05
       154   6  6.448032E+05  4.105560E+05  8.472792E+05 -1.252538E+06 -8.422315E+04 -5.684733E+05
       154   7  2.049061E+06  8.514932E+06  2.242362E+06 -1.335636E+06 -1.404265E+05 -1.225160E+05
       154   8  2.389459E+06  1.045161E+07  2.851326E+06 -6.904926E+04 -2.260501E+05 -3.903847E+05
       154   9  3.742319E+06  1.291261E+07  3.929789E+06 -1.417770E+06 -8.370613E+04 -6.565725E+05
       154  10 -1.977268E+06 -7.639188E+06 -1.735898E+06 -1.172707E+06  4.073417E-09  2.095039E-08
       154  11 -2.720524E+06 -1.004670E+07 -2.179073E+06  1.786870E+05 -6.199381E-10  1.845000E-08
       154  12 -2.464291E+06 -1.195146E+07 -2.247207E+06 -1.090376E+06 -4.961237E-10  1.703172E-09
       154  13  3.830672E+04  4.082041E+05  2.556062E+05 -1.253846E+06 -9.028614E-09 -2.248505E-08
       154  14 -1.616964E+05  1.545516E+05  3.397931E+05  5.566759E+04  8.232454E-10 -6.659829E-09
       154  15  6.447088E+05  4.102073E+05  8.466586E+05 -1.252576E+06 -3.216385E-09 -3.947946E-10
       154  16  2.049036E+06  8.514910E+06  2.242297E+06 -1.335650E+06  1.261196E-08 -9.818407E-09
       154  17  2.389364E+06  1.045144E+07  2.850948E+06 -6.911981E+04 -3.560822E-09 -1.640748E-08
       154  18  3.742198E+06  1.291215E+07  3.928981E+06 -1.417814E+06 -4.603778E-09 -1.279980E-09
       154  19 -1.977231E+06 -7.639116E+06 -1.735745E+06 -1.172679E+06  1.377599E+05  2.474766E+05
       154  20 -2.720432E+06 -1.004654E+07 -2.178720E+06  1.787544E+05  2.268660E+05  3.663043E+05
       154  21 -2.464219E+06 -1.195121E+07 -2.246748E+06 -1.090342E+06  8.470219E+04  4.820276E+05
       154  22  3.833679E+04  4.082463E+05  2.557074E+05 -1.253825E+06  1.390894E+05  1.854083E+05
       154  23 -1.616030E+05  1.547189E+05  3.401582E+05  5.573655E+04  2.264580E+05  3.782659E+05
       154  24  6.448032E+05  4.105560E+05  8.472792E+05 -1.252538E+06  8.422315E+04  5.684733E+05
       154  25  2.049061E+06  8.514932E+06  2.242362E+06 -1.335636E+06  1.404265E+05  1.225160E+05
       154  26  2.389459E+06  1.045161E+07  2.851326E+06 -6.904926E+04  2.260501E+05  3.903847E+05
       154  27  3.742319E+06  1.291261E+07  3.929789E+06 -1.417770E+06  8.370613E+04  6.565725E+05
       155   1 -4.367824E+05 -1.923696E+05 -9.252074E+04 -2.018525E+05 -4.885864E+04 -1.667303E+04
       155   2 -4.134169E+05 -1.305824E+05 -4.849067E+04 -1.898728E+05 -2.904361E+04 -5.852548E+03
       155   3 -3.991667E+05 -9.998905E+04 -2.745155E+04 -1.759325E+05 -8.060272E+03  1.858343E+03
       155   4 -3.371339E+05 -1.221308E+05 -6.054754E+04 -1.407140E+05 -4.001787E+04 -1.335976E+04
       155   5 -3.299421E+05 -8.417062E+04 -2.866195E+04 -1.503068E+05 -2.627957E+04 -4.816662E+03
       155   6 -3.306599E+05 -7.619921E+04 -1.494929E+04 -1.579406E+05 -1.137363E+04  6.154675E+02
       155   7 -2.374748E+05 -5.188238E+04 -2.857527E+04 -7.956536E+04 -3.117574E+04 -1.004479E+04
       155   8 -2.464600E+05 -3.775529E+04 -8.833690E+03 -1.107353E+05 -2.351516E+04 -3.780455E+03
       155   9 -2.621476E+05 -5.240885E+04 -2.447015E+03 -1.399466E+05 -1.468740E+04 -6.275495E+02
       155  10 -4.367850E+05 -1.923706E+05 -9.252576E+04 -2.018532E+05 -2.900651E-09 -5.874246E-10
       155  11 -4.134178E+05 -1.305827E+05 -4.849232E+04 -1.898729E+05 -4.370351E-10  2.862816E-10
       155  12 -3.991668E+05 -9.998907E+04 -2.745168E+04 -1.759325E+05  8.704131E-09  6.162183E-10
       155  13 -3.371357E+05 -1.221314E+05 -6.055088E+04 -1.407145E+05  2.039224E-09  5.216246E-10
       155  14 -3.299429E+05 -8.417083E+04 -2.866329E+04 -1.503069E+05 -3.613706E-09  8.139516E-10
       155  15 -3.306600E+05 -7.619925E+04 -1.494954E+04 -1.579406E+05 -1.047947E-08 -5.066904E-10
       155  16 -2.374758E+05 -5.188275E+04 -2.857729E+04 -7.956561E+04 -1.517856E-09  1.410042E-09
       155  17 -2.464606E+05 -3.775545E+04 -8.834756E+03 -1.107354E+05 -1.005767E-08  1.073446E-09
       155  18 -2.621478E+05 -5.240890E+04 -2.447421E+03 -1.399466E+05 -3.387388E-09 -1.665240E-09
       155  19 -4.367824E+05 -1.923696E+05 -9.252074E+04 -2.018525E+05  4.885864E+04  1.667303E+04
       155  20 -4.134169E+05 -1.305824E+05 -4.849067E+04 -1.898728E+05  2.904361E+04  5.852548E+03
       155  21 -3.991667E+05 -9.998905E+04 -2.745155E+04 -1.759325E+05  8.060272E+03 -1.858343E+03
       155  22 -3.371339E+05 -1.221308E+05 -6.054754E+04 -1.407140E+05  4.001787E+04  1.335976E+04
       155  23 -3.299421E+05 -8.417062E+04 -2.866195E+04 -1.503068E+05  2.627957E+04  4.816662E+03
       155  24 -3.306599E+05 -7.619921E+04 -1.494929E+04 -1.579406E+05  1.137363E+04 -6.154675E+02
       155  25 -2.374748E+05 -5.188238E+04 -2.857527E+04 -7.956536E+04  3.117574E+04  1.004479E+04
       155  26 -2.464600E+05 -3.775529E+04 -8.833690E+03 -1.107353E+05  2.351516E+04  3.780455E+03
       155  27 -2.621476E+05 -5.240885E+04 -2.447015E+03 -1.399466E+05  1.468740E+04  6.275495E+02
       156   1 -3.777909E+05 -9.483011E+04 -2.029490E+04 -1.726409E+05 -6.176218E+03  1.338773E+03
       156   2 -3.518562E+05 -7.979371E+04 -9.819780E+03 -1.625735E+05 -1.957935E+03  9.220214E+02
       156   3 -3.231199E+05 -7.064846E+04 -2.502734E+03 -1.567170E+05  2.380149E+03  1.862606E+02
       156   4 -3.289345E+05 -7.566450E+04 -1.115132E+04 -1.574928E+05 -9.289064E+03  1.711263E+02
       156   5 -3.301972E+05 -7.136603E+04 -5.823979E+03 -1.559176E+05 -5.694101E+03 -4.793781E+02
       156   6 -3.285351E+05 -7.283513E+04 -3.160453E+03 -1.585536E+05 -1.979460E+03 -1.448955E+03
       156   7 -2.800762E+05 -5.649876E+04 -2.007953E+03 -1.423437E+05 -1.240214E+04 -9.966243E+02
       156   8 -3.085376E+05 -6.293826E+04 -1.828135E+03 -1.492614E+05 -9.430406E+03 -1.880839E+03
       156   9 -3.339503E+05 -7.502181E+04 -3.818107E+03 -1.603901E+05 -6.339077E+03 -3.084168E+03
       156  10 -3.777909E+05 -9.483012E+04 -2.029497E+04 -1.726409E+05  2.645390E-09 -1.057107E-09
       156  11 -3.518562E+05 -7.979371E+04 -9.819789E+03 -1.625735E+05 -1.495603E-09 -2.881487E-10
       156  12 -3.231199E+05 -7.064846E+04 -2.502745E+03 -1.567170E+05  6.555723E-10 -1.592493E-10
       156  13 -3.289346E+05 -7.566452E+04 -1.115148E+04 -1.574928E+05  5.120985E-10 -1.147036E-09
       156  14 -3.301972E+05 -7.136603E+04 -5.824041E+03 -1.559176E+05  3.517116E-10 -1.063625E-09
       156  15 -3.285351E+05 -7.283514E+04 -3.160464E+03 -1.585536E+05 -3.589158E-09 -1.619525E-09
       156  16 -2.800763E+05 -5.649880E+04 -2.008244E+03 -1.423437E+05  9.557901E-10 -1.068544E-09
       156  17 -3.085377E+05 -6.293829E+04 -1.828309E+03 -1.492615E+05  3.879093E-10 -1.664754E-09
       156  18 -3.339504E+05 -7.502184E+04 -3.818201E+03 -1.603901E+05 -4.626328E-09 -3.317789E-09
       156  19 -3.777909E+05 -9.483011E+04 -2.029490E+04 -1.726409E+05  6.176218E+03 -1.338773E+03
       156  20 -3.518562E+05 -7.979371E+04 -9.819780E+03 -1.625735E+05  1.957935E+03 -9.220214E+02
       156  21 -3.231199E+05 -7.064846E+04 -2.502734E+03 -1.567170E+05 -2.380149E+03 -1.862606E+02
       156  22 -3.289345E+05 -7.566450E+04 -1.115132E+04 -1.574928E+05  9.289064E+03 -1.711263E+02
       156  23 -3.301972E+05 -7.136603E+04 -5.823979E+03 -1.559176E+05  5.694101E+03  4.793781E+02
       156  24 -3.285351E+05 -7.283513E+04 -3.160453E+03 -1.585536E+05  1.979460E+03  1.448955E+03
       156  25 -2.800762E+05 -5.649876E+04 -2.007953E+03 -1.423437E+05  1.240214E+04  9.966243E+02
       156  26 -3.085376E+05 -6.293826E+04 -1.828135E+03 -1.492614E+05  9.430406E+03  1.880839E+03
       156  27 -3.339503E+05 -7.502181E+04 -3.818107E+03 -1.603901E+05  6.339077E+03  3.084168E+03
       157   1 -3.051730E+05 -6.444613E+04  1.266184E+03 -1.519109E+05  3.279677E+03 -9.677431E+02
       157   2 -2.793177E+05 -5.239389E+04  6.775020E+03 -1.418716E+05  4.824705E+03 -2.939415E+03
       157   3 -2.496168E+05 -4.445846E+04  1.172585E+04 -1.363944E+05  6.381949E+03 -4.943431E+03
       157   4 -3.283777E+05 -7.281971E+04 -2.366220E+03 -1.584987E+05 -1.059305E+03 -2.595241E+03
       157   5 -3.302991E+05 -7.071123E+04 -1.286733E+03 -1.562389E+05  4.223857E+02 -4.590758E+03
       157   6 -3.283631E+05 -7.270709E+04 -7.150594E+02 -1.585415E+05  1.916256E+03 -6.618627E+03
       157   7 -3.515818E+05 -8.119321E+04 -5.998550E+03 -1.650863E+05 -5.398113E+03 -4.222673E+03
       157   8 -3.812773E+05 -8.902816E+04 -9.348364E+03 -1.706050E+05 -3.979524E+03 -6.241945E+03
       157   9 -4.071016E+05 -1.009547E+05 -1.315574E+04 -1.806857E+05 -2.548787E+03 -8.293577E+03
       157  10 -3.051730E+05 -6.444614E+04  1.266162E+03 -1.519109E+05  5.649125E-10 -7.600435E-10
       157  11 -2.793177E+05 -5.239391E+04  6.774961E+03 -1.418716E+05  3.966477E-09  5.638576E-10
       157  12 -2.496169E+05 -4.445850E+04  1.172573E+04 -1.363944E+05 -7.833676E-09 -2.723711E-10
       157  13 -3.283777E+05 -7.281972E+04 -2.366235E+03 -1.584987E+05  4.710450E-09 -1.622706E-09
       157  14 -3.302991E+05 -7.071126E+04 -1.286773E+03 -1.562389E+05  7.930403E-09 -4.275962E-10
       157  15 -3.283631E+05 -7.270714E+04 -7.151486E+02 -1.585415E+05  2.393238E-09  4.476089E-10
       157  16 -3.515818E+05 -8.119324E+04 -5.998638E+03 -1.650863E+05  2.538802E-09 -2.524149E-09
       157  17 -3.812773E+05 -8.902821E+04 -9.348467E+03 -1.706050E+05 -1.835105E-10 -1.447011E-09
       157  18 -4.071017E+05 -1.009548E+05 -1.315588E+04 -1.806857E+05  3.868083E-10  1.317940E-09
       157  19 -3.051730E+05 -6.444613E+04  1.266184E+03 -1.519109E+05 -3.279677E+03  9.677431E+02
       157  20 -2.793177E+05 -5.239389E+04  6.775020E+03 -1.418716E+05 -4.824705E+03  2.939415E+03
       157  21 -2.496168E+05 -4.445846E+04  1.172585E+04 -1.363944E+05 -6.381949E+03  4.943431E+03
       157  22 -3.283777E+05 -7.281971E+04 -2.366220E+03 -1.584987E+05  1.059305E+03  2.595241E+03
       157  23 -3.302991E+05 -7.071123E+04 -1.286733E+03 -1.562389E+05 -4.223857E+02  4.590758E+03
       157  24 -3.283631E+05 -7.270709E+04 -7.150594E+02 -1.585415E+05 -1.916256E+03  6.618627E+03
       157  25 -3.515818E+05 -8.119321E+04 -5.998550E+03 -1.650863E+05  5.398113E+03  4.222673E+03
       157  26 -3.812773E+05 -8.902816E+04 -9.348364E+03 -1.706050E+05  3.979524E+03  6.241945E+03
       157  27 -4.071016E+05 -1.009547E+05 -1.315574E+04 -1.806857E+05  2.548787E+03  8.293577E+03
       158   1 -2.319684E+05 -3.815077E+04  1.483382E+04 -1.314771E+05  6.982006E+03 -6.236365E+03
       158   2 -2.061856E+05 -2.624637E+04  1.941407E+04 -1.214209E+05  7.999621E+03 -8.460502E+03
       158   3 -1.764410E+05 -1.833156E+04  2.387418E+04 -1.159296E+05  9.018028E+03 -1.068617E+04
       158   4 -3.283442E+05 -7.271099E+04 -5.417976E+02 -1.585312E+05  2.518956E+03 -7.910663E+03
       158   5 -3.303271E+05 -7.072368E+04 -3.158794E+02 -1.562462E+05  3.533348E+03 -1.013625E+04
       158   6 -3.283489E+05 -7.272581E+04 -2.077850E+02 -1.585268E+05  4.548520E+03 -1.236336E+04
       158   7 -4.247112E+05 -1.072707E+05 -1.591783E+04 -1.855817E+05 -1.943413E+03 -9.584704E+03
       158   8 -4.544528E+05 -1.151997E+05 -2.004624E+04 -1.910651E+05 -9.320077E+02 -1.181164E+04
       158   9 -4.802321E+05 -1.271177E+05 -2.429011E+04 -2.011141E+05  8.016834E+01 -1.404011E+04
       158  10 -2.319685E+05 -3.815083E+04  1.483366E+04 -1.314771E+05 -2.654886E-09  3.392378E-10
       158  11 -2.061856E+05 -2.624646E+04  1.941381E+04 -1.214208E+05  1.179702E-09 -3.005005E-09
       158  12 -1.764411E+05 -1.833171E+04  2.387381E+04 -1.159296E+05 -1.980524E-09 -3.754404E-09
       158  13 -3.283443E+05 -7.271106E+04 -5.419271E+02 -1.585312E+05  2.281656E-09 -3.461826E-10
       158  14 -3.303271E+05 -7.072380E+04 -3.160959E+02 -1.562461E+05 -2.852639E-10 -1.759997E-09
       158  15 -3.283490E+05 -7.272598E+04 -2.081110E+02 -1.585267E+05 -3.569577E-09  7.362340E-10
       158  16 -4.247112E+05 -1.072708E+05 -1.591801E+04 -1.855817E+05 -5.782668E-09 -1.015783E-09
       158  17 -4.544528E+05 -1.151998E+05 -2.004650E+04 -1.910651E+05 -2.035690E-09 -9.783450E-11
       158  18 -4.802322E+05 -1.271179E+05 -2.429048E+04 -2.011141E+05  1.086247E-08  5.290377E-09
       158  19 -2.319684E+05 -3.815077E+04  1.483382E+04 -1.314771E+05 -6.982006E+03  6.236365E+03
       158  20 -2.061856E+05 -2.624637E+04  1.941407E+04 -1.214209E+05 -7.999621E+03  8.460502E+03
       158  21 -1.764410E+05 -1.833156E+04  2.387418E+04 -1.159296E+05 -9.018028E+03  1.068617E+04
       158  22 -3.283442E+05 -7.271099E+04 -5.417976E+02 -1.585312E+05 -2.518956E+03  7.910663E+03
       158  23 -3.303271E+05 -7.072368E+04 -3.158794E+02 -1.562462E+05 -3.533348E+03  1.013625E+04
       158  24 -3.283489E+05 -7.272581E+04 -2.077850E+02 -1.585268E+05 -4.548520E+03  1.236336E+04
       158  25 -4.247112E+05 -1.072707E+05 -1.591783E+04 -1.855817E+05  1.943413E+03  9.584704E+03
       158  26 -4.544528E+05 -1.151997E+05 -2.004624E+04 -1.910651E+05  9.320077E+02  1.181164E+04
       158  27 -4.802321E+05 -1.271177E+05 -2.429011E+04 -2.011141E+05 -8.016834E+01  1.404011E+04
       159   1 -1.588381E+05 -1.201179E+04  2.682830E+04 -1.110060E+05  9.549903E+03 -1.200538E+04
       159   2 -1.330918E+05 -1.094284E+02  3.118236E+04 -1.009516E+05  1.047306E+04 -1.426042E+04
       159   3 -1.033708E+05  7.815483E+03  3.548783E+04 -9.545522E+04  1.139198E+04 -1.650330E+04
       159   4 -3.283494E+05 -7.272784E+04 -1.838695E+02 -1.585245E+05  5.080913E+03 -1.368254E+04
       159   5 -3.303361E+05 -7.074199E+04 -1.823665E+02 -1.562440E+05  6.027600E+03 -1.592910E+04
       159   6 -3.283536E+05 -7.273818E+04 -2.480255E+02 -1.585218E+05  6.970052E+03 -1.816351E+04
       159   7 -4.978278E+05 -1.334402E+05 -2.719597E+04 -2.060304E+05  6.132651E+02 -1.535919E+04
       159   8 -5.275386E+05 -1.413705E+05 -3.154774E+04 -2.115200E+05  1.583633E+03 -1.759722E+04
       159   9 -5.532845E+05 -1.532876E+05 -3.598545E+04 -2.215677E+05  2.549767E+03 -1.982311E+04
       159  10 -1.588382E+05 -1.201197E+04  2.682786E+04 -1.110059E+05  6.322434E-09  1.063739E-09
       159  11 -1.330919E+05 -1.096761E+02  3.118177E+04 -1.009514E+05 -1.177574E-09 -1.161309E-09
       159  12 -1.033710E+05  7.815156E+03  3.548707E+04 -9.545507E+04 -2.348189E-09 -1.158878E-09
       159  13 -3.283495E+05 -7.272805E+04 -1.842698E+02 -1.585245E+05  2.055429E-09  8.731981E-10
       159  14 -3.303362E+05 -7.074227E+04 -1.829115E+02 -1.562440E+05 -5.229048E-09 -6.643071E-10
       159  15 -3.283537E+05 -7.273855E+04 -2.487366E+02 -1.585217E+05  1.138204E-09 -6.311926E-10
       159  16 -4.978279E+05 -1.334404E+05 -2.719642E+04 -2.060304E+05 -5.104965E-09  1.352561E-09
       159  17 -5.275387E+05 -1.413708E+05 -3.154833E+04 -2.115200E+05 -5.745332E-09 -3.986039E-10
       159  18 -5.532846E+05 -1.532880E+05 -3.598620E+04 -2.215676E+05  5.129831E-10  1.530577E-09
       159  19 -1.588381E+05 -1.201179E+04  2.682830E+04 -1.110060E+05 -9.549903E+03  1.200538E+04
       159  20 -1.330918E+05 -1.094284E+02  3.118236E+04 -1.009516E+05 -1.047306E+04  1.426042E+04
       159  21 -1.033708E+05  7.815483E+03  3.548783E+04 -9.545522E+04 -1.139198E+04  1.650330E+04
       159  22 -3.283494E+05 -7.272784E+04 -1.838695E+02 -1.585245E+05 -5.080913E+03  1.368254E+04
       159  23 -3.303361E+05 -7.074199E+04 -1.823665E+02 -1.562440E+05 -6.027600E+03  1.592910E+04
       159  24 -3.283536E+05 -7.273818E+04 -2.480255E+02 -1.585218E+05 -6.970052E+03  1.816351E+04
       159  25 -4.978278E+05 -1.334402E+05 -2.719597E+04 -2.060304E+05 -6.132651E+02  1.535919E+04
       159  26 -5.275386E+05 -1.413705E+05 -3.154774E+04 -2.115200E+05 -1.583633E+03  1.759722E+04
       159  27 -5.532845E+05 -1.532876E+05 -3.598545E+04 -2.215677E+05 -2.549767E+03  1.982311E+04
       160   1 -8.578802E+04  1.413453E+04  3.836680E+04 -9.053933E+04  1.193995E+04 -1.780549E+04
       160   2 -6.008064E+04  2.603965E+04  4.259018E+04 -8.049190E+04  1.281194E+04 -1.999758E+04
       160   3 -3.040530E+04  3.397118E+04  4.678204E+04 -7.498614E+04  1.364174E+04 -2.207617E+04
       160   4 -3.283648E+05 -7.273776E+04 -3.097246E+02 -1.585224E+05  7.512399E+03 -1.946807E+04
       160   5 -3.303340E+05 -7.075919E+04 -5.292899E+02 -1.562413E+05  8.605965E+03 -2.157746E+04
       160   6 -3.283797E+05 -7.279835E+04 -9.559383E+02 -1.585024E+05  9.657334E+03 -2.357333E+04
       160   7 -5.708782E+05 -1.596039E+05 -3.898727E+04 -2.264804E+05  3.086677E+03 -2.112996E+04
       160   8 -6.005072E+05 -1.675498E+05 -4.364964E+04 -2.319593E+05  4.401956E+03 -2.315661E+04
       160   9 -6.262552E+05 -1.795574E+05 -4.869463E+04 -2.419801E+05  5.674999E+03 -2.506971E+04
       160  10 -8.578826E+04  1.413415E+04  3.836594E+04 -9.053916E+04  6.043552E-09  1.339088E-09
       160  11 -6.008092E+04  2.603918E+04  4.258912E+04 -8.049170E+04 -9.360708E-09 -4.950820E-09
       160  12 -3.040563E+04  3.397061E+04  4.678077E+04 -7.498590E+04 -1.370774E-08 -2.631359E-09
       160  13 -3.283650E+05 -7.273819E+04 -3.105427E+02 -1.585223E+05 -1.946601E-09 -8.812910E-10
       160  14 -3.303342E+05 -7.075971E+04 -5.303038E+02 -1.562412E+05 -1.157651E-08 -3.332978E-09
       160  15 -3.283800E+05 -7.279897E+04 -9.571576E+02 -1.585022E+05 -6.062726E-10 -1.177306E-09
       160  16 -5.708783E+05 -1.596044E+05 -3.898813E+04 -2.264804E+05 -1.311311E-08 -3.588530E-09
       160  17 -6.005074E+05 -1.675504E+05 -4.365068E+04 -2.319592E+05 -1.063290E-08 -4.341961E-09
       160  18 -6.262554E+05 -1.795581E+05 -4.869587E+04 -2.419800E+05  8.934119E-09 -1.902142E-10
       160  19 -8.578802E+04  1.413453E+04  3.836680E+04 -9.053933E+04 -1.193995E+04  1.780549E+04
       160  20 -6.008064E+04  2.603965E+04  4.259018E+04 -8.049190E+04 -1.281194E+04  1.999758E+04
       160  21 -3.040530E+04  3.397118E+04  4.678204E+04 -7.498614E+04 -1.364174E+04  2.207617E+04
       160  22 -3.283648E+05 -7.273776E+04 -3.097246E+02 -1.585224E+05 -7.512399E+03  1.946807E+04
       160  23 -3.303340E+05 -7.075919E+04 -5.292899E+02 -1.562413E+05 -8.605965E+03  2.157746E+04
       160  24 -3.283797E+05 -7.279835E+04 -9.559383E+02 -1.585024E+05 -9.657334E+03  2.357333E+04
       160  25 -5.708782E+05 -1.596039E+05 -3.898727E+04 -2.264804E+05 -3.086677E+03  2.112996E+04
       160  26 -6.005072E+05 -1.675498E+05 -4.364964E+04 -2.319593E+05 -4.401956E+03  2.315661E+04
       160  27 -6.262552E+05 -1.795574E+05 -4.869463E+04 -2.419801E+05 -5.674999E+03  2.506971E+04
       161   1 -1.279933E+04  4.027513E+04  4.953711E+04 -7.013304E+04  1.434878E+04 -2.322316E+04
       161   2  1.259167E+04  5.230129E+04  5.384732E+04 -5.980242E+04  1.395965E+04 -2.510950E+04
       161   3  4.190755E+04  6.012922E+04  5.878942E+04 -5.380373E+04  1.315931E+04 -2.590015E+04
       161   4 -3.284547E+05 -7.279473E+04 -1.271524E+03 -1.585079E+05  1.029587E+04 -2.474634E+04
       161   5 -3.302892E+05 -7.105694E+04 -2.337743E+03 -1.561278E+05  1.204838E+04 -2.582901E+04
       161   6 -3.286244E+05 -7.394248E+04 -4.469454E+03 -1.580804E+05  1.338963E+04 -2.581561E+04
       161   7 -6.440069E+05 -1.858558E+05 -5.208315E+04 -2.468416E+05  6.245101E+03 -2.626872E+04
       161   8 -6.730464E+05 -1.944039E+05 -5.852602E+04 -2.524038E+05  1.013821E+04 -2.654811E+04
       161   9 -6.990106E+05 -2.080003E+05 -6.773216E+04 -2.622988E+05  1.361980E+04 -2.573112E+04
       161  10 -1.279970E+04  4.027449E+04  4.953571E+04 -7.013277E+04 -4.960995E-09  2.713812E-09
       161  11  1.259129E+04  5.230057E+04  5.384577E+04 -5.980214E+04 -8.071251E-09 -6.654408E-10
       161  12  4.190719E+04  6.012845E+04  5.878784E+04 -5.380346E+04 -1.610816E-09 -1.092351E-10
       161  13 -3.284550E+05 -7.279542E+04 -1.272874E+03 -1.585077E+05 -6.593102E-09 -2.934801E-10
       161  14 -3.302896E+05 -7.105769E+04 -2.339269E+03 -1.561275E+05 -3.266703E-09  1.877257E-10
       161  15 -3.286248E+05 -7.394324E+04 -4.471043E+03 -1.580802E+05  4.894245E-09  2.372425E-09
       161  16 -6.440072E+05 -1.858566E+05 -5.208452E+04 -2.468415E+05 -5.412226E-10 -2.635035E-09
       161  17 -6.730467E+05 -1.944047E+05 -5.852754E+04 -2.524035E+05  4.052267E-10  1.297880E-09
       161  18 -6.990110E+05 -2.080011E+05 -6.773376E+04 -2.622986E+05  8.848851E-09  5.128063E-09
       161  19 -1.279933E+04  4.027513E+04  4.953711E+04 -7.013304E+04 -1.434878E+04  2.322316E+04
       161  20  1.259167E+04  5.230129E+04  5.384732E+04 -5.980242E+04 -1.395965E+04  2.510950E+04
       161  21  4.190755E+04  6.012922E+04  5.878942E+04 -5.380373E+04 -1.315931E+04  2.590015E+04
       161  22 -3.284547E+05 -7.279473E+04 -1.271524E+03 -1.585079E+05 -1.029587E+04  2.474634E+04
       161  23 -3.302892E+05 -7.105694E+04 -2.337743E+03 -1.561278E+05 -1.204838E+04  2.582901E+04
       161  24 -3.286244E+05 -7.394248E+04 -4.469454E+03 -1.580804E+05 -1.338963E+04  2.581561E+04
       161  25 -6.440069E+05 -1.858558E+05 -5.208315E+04 -2.468416E+05 -6.245101E+03  2.626872E+04
       161  26 -6.730464E+05 -1.944039E+05 -5.852602E+04 -2.524038E+05 -1.013821E+04  2.654811E+04
       161  27 -6.990106E+05 -2.080003E+05 -6.773216E+04 -2.622988E+05 -1.361980E+04  2.573112E+04
       162   1  6.004431E+04  6.606303E+04  6.165338E+04 -4.969143E+04  1.468420E+04 -2.582790E+04
       162   2  8.051749E+04  7.982310E+04  7.070107E+04 -3.336216E+04 -2.134808E+03 -2.632434E+04
       162   3  1.037998E+05  8.389689E+04  8.900057E+04 -1.833125E+04 -2.296466E+04 -1.615462E+04
       162   4 -3.294260E+05 -7.405132E+04 -5.990020E+03 -1.581346E+05  1.422813E+04 -2.600126E+04
       162   5 -3.300677E+05 -7.633277E+04 -1.148556E+04 -1.540354E+05  1.826574E+04 -1.866138E+04
       162   6 -3.320350E+05 -9.243629E+04 -2.425799E+04 -1.512349E+05  1.829217E+04 -6.511642E+02
       162   7 -7.187348E+05 -2.141508E+05 -7.363771E+04 -2.665141E+05  1.377237E+04 -2.617452E+04
       162   8 -7.404702E+05 -2.324668E+05 -9.367653E+04 -2.746310E+05  3.865148E+04 -1.100452E+04
       162   9 -7.676663E+05 -2.687414E+05 -1.375214E+05 -2.840457E+05  5.951609E+04  1.483770E+04
       162  10  6.004390E+04  6.606225E+04  6.165172E+04 -4.969112E+04  1.124672E-08  4.563062E-09
       162  11  8.051730E+04  7.982236E+04  7.069976E+04 -3.336220E+04 -2.029729E-10 -2.775147E-10
       162  12  1.037992E+05  8.389646E+04  8.899909E+04 -1.833155E+04 -5.279014E-09 -2.269352E-09
       162  13 -3.294264E+05 -7.405210E+04 -5.991671E+03 -1.581343E+05  2.174801E-09  9.400099E-10
       162  14 -3.300681E+05 -7.633323E+04 -1.148684E+04 -1.540351E+05 -3.370732E-09 -2.418282E-09
       162  15 -3.320354E+05 -9.243638E+04 -2.425862E+04 -1.512349E+05 -4.866599E-09 -3.881835E-10
       162  16 -7.187352E+05 -2.141516E+05 -7.363936E+04 -2.665138E+05 -3.817638E-09 -4.579152E-10
       162  17 -7.404719E+05 -2.324673E+05 -9.367957E+04 -2.746306E+05  7.336763E-10 -6.244740E-10
       162  18 -7.676702E+05 -2.687425E+05 -1.375285E+05 -2.840465E+05  1.987322E-09  9.753339E-10
       162  19  6.004431E+04  6.606303E+04  6.165338E+04 -4.969143E+04 -1.468420E+04  2.582790E+04
       162  20  8.051749E+04  7.982310E+04  7.070107E+04 -3.336216E+04  2.134808E+03  2.632434E+04
       162  21  1.037998E+05  8.389689E+04  8.900057E+04 -1.833125E+04  2.296466E+04  1.615462E+04
       162  22 -3.294260E+05 -7.405132E+04 -5.990020E+03 -1.581346E+05 -1.422813E+04  2.600126E+04
       162  23 -3.300677E+05 -7.633277E+04 -1.148556E+04 -1.540354E+05 -1.826574E+04  1.866138E+04
       162  24 -3.320350E+05 -9.243629E+04 -2.425799E+04 -1.512349E+05 -1.829217E+04  6.511642E+02
       162  25 -7.187348E+05 -2.141508E+05 -7.363771E+04 -2.665141E+05 -1.377237E+04  2.617452E+04
       162  26 -7.404702E+05 -2.324668E+05 -9.367653E+04 -2.746310E+05 -3.865148E+04  1.100452E+04
       162  27 -7.676663E+05 -2.687414E+05 -1.375214E+05 -2.840457E+05 -5.951609E+04 -1.483770E+04
       163   1 -2.966520E+05 -5.711192E+04 -8.566882E+04 -1.700489E+04 -8.520249E+04 -1.218490E+03
       163   2 -2.845623E+05  5.878040E+04 -1.581859E+04 -5.880413E+03 -5.639155E+04 -3.494178E+03
       163   3 -3.093894E+05  4.178938E+04  2.065353E+03  1.287801E+04 -2.758353E+04 -3.088163E+03
       163   4 -4.604609E+05 -9.800301E+04 -1.263962E+05  3.325574E+03 -8.631990E+04 -1.222034E+03
       163   5 -4.419151E+05  1.957782E+04 -5.447031E+04 -5.259668E+02 -5.667991E+04 -3.494958E+03
       163   6 -4.604400E+05  4.112415E+03 -3.509643E+04  3.256539E+03 -2.704251E+04 -3.087272E+03
       163   7 -6.242445E+05 -1.388946E+05 -1.671255E+05  2.365066E+04 -8.743701E+04 -1.225653E+03
       163   8 -5.992452E+05 -1.962649E+04 -9.312383E+04  4.827115E+03 -5.696819E+04 -3.495744E+03
       163   9 -6.114697E+05 -3.356591E+04 -7.225984E+04 -6.362593E+03 -2.650162E+04 -3.086398E+03
       163  10 -2.966598E+05 -5.711387E+04 -8.568247E+04 -1.700497E+04  8.906307E-10  6.122864E-10
       163  11 -2.845657E+05  5.877953E+04 -1.582459E+04 -5.880572E+03 -2.073305E-09 -5.544013E-10
       163  12 -3.093902E+05  4.178917E+04  2.063904E+03  1.287794E+04  1.082407E-09 -3.053900E-09
       163  13 -4.604689E+05 -9.800502E+04 -1.264103E+05  3.325489E+03  2.337587E-09  1.003824E-09
       163  14 -4.419185E+05  1.957694E+04 -5.447637E+04 -5.261264E+02  1.949300E-12 -9.390797E-12
       163  15 -4.604408E+05  4.112208E+03 -3.509782E+04  3.256471E+03  5.716524E-09 -4.136423E-10
       163  16 -6.242527E+05 -1.388966E+05 -1.671398E+05  2.365058E+04  1.262793E-09  4.540515E-10
       163  17 -5.992487E+05 -1.962738E+04 -9.312996E+04  4.826955E+03 -2.379355E-09 -1.582535E-09
       163  18 -6.114705E+05 -3.356611E+04 -7.226118E+04 -6.362659E+03 -5.799871E-10 -1.965252E-09
       163  19 -2.966520E+05 -5.711192E+04 -8.566882E+04 -1.700489E+04  8.520249E+04  1.218490E+03
       163  20 -2.845623E+05  5.878040E+04 -1.581859E+04 -5.880413E+03  5.639155E+04  3.494178E+03
       163  21 -3.093894E+05  4.178938E+04  2.065353E+03  1.287801E+04  2.758353E+04  3.088163E+03
       163  22 -4.604609E+05 -9.800301E+04 -1.263962E+05  3.325574E+03  8.631990E+04  1.222034E+03
       163  23 -4.419151E+05  1.957782E+04 -5.447031E+04 -5.259668E+02  5.667991E+04  3.494958E+03
       163  24 -4.604400E+05  4.112415E+03 -3.509643E+04  3.256539E+03  2.704251E+04  3.087272E+03
       163  25 -6.242445E+05 -1.388946E+05 -1.671255E+05  2.365066E+04  8.743701E+04  1.225653E+03
       163  26 -5.992452E+05 -1.962649E+04 -9.312383E+04  4.827115E+03  5.696819E+04  3.495744E+03
       163  27 -6.114697E+05 -3.356591E+04 -7.225984E+04 -6.362593E+03  2.650162E+04  3.086398E+03
       164   1 -3.193641E+05  2.034549E+04  4.107213E+03  9.806532E+02 -2.130972E+04 -2.545219E+03
       164   2 -3.235434E+05  3.432560E+04  1.712274E+04 -1.220708E+03 -1.405231E+04 -2.595127E+03
       164   3 -3.330848E+05  3.054691E+04  2.097710E+04  4.844662E+03 -6.795263E+03 -2.321077E+03
       164   4 -4.534019E+05 -1.306933E+04 -2.890294E+04  3.431161E+03 -2.137500E+04 -2.545409E+03
       164   5 -4.507098E+05  2.626995E+03 -1.415831E+04 -7.094434E+02 -1.401797E+04 -2.595135E+03
       164   6 -4.533981E+05  5.452192E+02 -8.645447E+03  3.416782E+03 -6.661241E+03 -2.320919E+03
       164   7 -5.874234E+05 -4.648546E+04 -6.191442E+04  5.881135E+03 -2.144026E+04 -2.545600E+03
       164   8 -5.778614E+05 -2.907281E+04 -4.544055E+04 -1.982885E+02 -1.398365E+04 -2.595144E+03
       164   9 -5.736982E+05 -2.945754E+04 -3.826906E+04  1.989174E+03 -6.527244E+03 -2.320763E+03
       164  10 -3.193646E+05  2.034536E+04  4.106347E+03  9.806095E+02  8.700854E-10 -3.810886E-09
       164  11 -3.235437E+05  3.432554E+04  1.712236E+04 -1.220737E+03 -3.324573E-09  7.525269E-10
       164  12 -3.330849E+05  3.054689E+04  2.097700E+04  4.844650E+03  1.339855E-09  6.486073E-10
       164  13 -4.534024E+05 -1.306945E+04 -2.890381E+04  3.431117E+03 -1.624427E-09 -2.740698E-09
       164  14 -4.507100E+05  2.626935E+03 -1.415869E+04 -7.094727E+02  1.078150E-09 -1.469833E-09
       164  15 -4.533981E+05  5.452015E+02 -8.645540E+03  3.416769E+03  3.350228E-09 -1.457708E-09
       164  16 -5.874239E+05 -4.648559E+04 -6.191530E+04  5.881091E+03  2.129221E-10 -1.001157E-09
       164  17 -5.778616E+05 -2.907287E+04 -4.544093E+04 -1.983177E+02 -2.324853E-09 -2.222352E-09
       164  18 -5.736982E+05 -2.945756E+04 -3.826915E+04  1.989162E+03  5.819595E-10  7.904960E-10
       164  19 -3.193641E+05  2.034549E+04  4.107213E+03  9.806532E+02  2.130972E+04  2.545219E+03
       164  20 -3.235434E+05  3.432560E+04  1.712274E+04 -1.220708E+03  1.405231E+04  2.595127E+03
       164  21 -3.330848E+05  3.054691E+04  2.097710E+04  4.844662E+03  6.795263E+03  2.321077E+03
       164  22 -4.534019E+05 -1.306933E+04 -2.890294E+04  3.431161E+03  2.137500E+04  2.545409E+03
       164  23 -4.507098E+05  2.626995E+03 -1.415831E+04 -7.094434E+02  1.401797E+04  2.595135E+03
       164  24 -4.533981E+05  5.452192E+02 -8.645447E+03  3.416782E+03  6.661241E+03  2.320919E+03
       164  25 -5.874234E+05 -4.648546E+04 -6.191442E+04  5.881135E+03  2.144026E+04  2.545600E+03
       164  26 -5.778614E+05 -2.907281E+04 -4.544055E+04 -1.982885E+02  1.398365E+04  2.595144E+03
       164  27 -5.736982E+05 -2.945754E+04 -3.826906E+04  1.989174E+03  6.527244E+03  2.320763E+03
       165   1 -3.503020E+05  2.372265E+04  1.823224E+04  3.337201E+03 -5.335139E+03 -2.126291E+03
       165   2 -3.571530E+05  2.398801E+04  1.967774E+04 -8.009889E+02 -3.497920E+03 -1.905679E+03
       165   3 -3.648344E+05  2.190890E+04  1.933945E+04  3.813447E+03 -1.660855E+03 -1.639901E+03
       165   4 -4.523870E+05 -1.722923E+03 -6.869697E+03  3.531312E+03 -5.273570E+03 -2.126233E+03
       165   5 -4.519700E+05  3.504509E+02 -3.651023E+03 -8.462673E+02 -3.422537E+03 -1.905590E+03
       165   6 -4.523862E+05  7.673800E+01 -2.225949E+03  3.528865E+03 -1.571636E+03 -1.639779E+03
       165   7 -5.544624E+05 -2.716928E+04 -3.197240E+04  3.725388E+03 -5.212010E+03 -2.126175E+03
       165   8 -5.467789E+05 -2.328778E+04 -2.698045E+04 -8.915418E+02 -3.347165E+03 -1.905501E+03
       165   9 -5.399311E+05 -2.175600E+04 -2.379191E+04  3.244321E+03 -1.482431E+03 -1.639657E+03
       165  10 -3.503020E+05  2.372264E+04  1.823217E+04  3.337191E+03  1.060390E-09  2.357371E-09
       165  11 -3.571530E+05  2.398801E+04  1.967771E+04 -8.009943E+02 -6.047788E-09  3.880837E-09
       165  12 -3.648344E+05  2.190890E+04  1.933944E+04  3.813444E+03 -6.611190E-09 -1.207613E-09
       165  13 -4.523870E+05 -1.722936E+03 -6.869758E+03  3.531303E+03  1.037511E-09 -1.088445E-09
       165  14 -4.519701E+05  3.504439E+02 -3.651052E+03 -8.462726E+02  3.236191E-09  3.684561E-09
       165  15 -4.523863E+05  7.673445E+01 -2.225959E+03  3.528863E+03  9.772181E-09  3.543578E-09
       165  16 -5.544624E+05 -2.716929E+04 -3.197246E+04  3.725379E+03  2.277466E-09  2.732585E-09
       165  17 -5.467790E+05 -2.328779E+04 -2.698048E+04 -8.915469E+02  1.075971E-09  2.897663E-09
       165  18 -5.399311E+05 -2.175600E+04 -2.379192E+04  3.244319E+03  4.460158E-09  2.996606E-09
       165  19 -3.503020E+05  2.372265E+04  1.823224E+04  3.337201E+03  5.335139E+03  2.126291E+03
       165  20 -3.571530E+05  2.398801E+04  1.967774E+04 -8.009889E+02  3.497920E+03  1.905679E+03
       165  21 -3.648344E+05  2.190890E+04  1.933945E+04  3.813447E+03  1.660855E+03  1.639901E+03
       165  22 -4.523870E+05 -1.722923E+03 -6.869697E+03  3.531312E+03  5.273570E+03  2.126233E+03
       165  23 -4.519700E+05  3.504509E+02 -3.651023E+03 -8.462673E+02  3.422537E+03  1.905590E+03
       165  24 -4.523862E+05  7.673800E+01 -2.225949E+03  3.528865E+03  1.571636E+03  1.639779E+03
       165  25 -5.544624E+05 -2.716928E+04 -3.197240E+04  3.725388E+03  5.212010E+03  2.126175E+03
       165  26 -5.467789E+05 -2.328778E+04 -2.698045E+04 -8.915418E+02  3.347165E+03  1.905501E+03
       165  27 -5.399311E+05 -2.175600E+04 -2.379191E+04  3.244321E+03  1.482431E+03  1.639657E+03
       166   1 -3.838160E+05  1.683960E+04  1.503194E+04  3.654656E+03 -1.291103E+03 -1.480376E+03
       166   2 -3.912793E+05  1.522636E+04  1.384929E+04 -8.701875E+02 -7.302626E+02 -1.219207E+03
       166   3 -3.989222E+05  1.329107E+04  1.221540E+04  3.701376E+03 -1.695021E+02 -9.484961E+02
       166   4 -4.522403E+05 -2.143388E+02 -1.781752E+03  3.606312E+03 -1.211330E+03 -1.480261E+03
       166   5 -4.521501E+05  5.091885E+01 -1.128120E+03 -9.420832E+02 -6.475694E+02 -1.219080E+03
       166   6 -4.522402E+05 -6.431170E+00 -9.278102E+02  3.605985E+03 -8.388206E+01 -9.483567E+02
       166   7 -5.206604E+05 -1.726862E+04 -1.859579E+04  3.557971E+03 -1.131565E+03 -1.480146E+03
       166   8 -5.130176E+05 -1.512480E+04 -1.610580E+04 -1.013973E+03 -5.648844E+02 -1.218953E+03
       166   9 -5.055556E+05 -1.330415E+04 -1.407124E+04  3.510602E+03  1.730587E+00 -9.482173E+02
       166  10 -3.838160E+05  1.683959E+04  1.503193E+04  3.654655E+03  5.978447E-10 -2.042099E-09
       166  11 -3.912793E+05  1.522636E+04  1.384928E+04 -8.701882E+02 -5.135647E-09  4.260323E-09
       166  12 -3.989222E+05  1.329107E+04  1.221540E+04  3.701376E+03  5.082717E-10  2.577399E-09
       166  13 -4.522403E+05 -2.143415E+02 -1.781759E+03  3.606310E+03  7.306256E-09  3.092647E-10
       166  14 -4.521501E+05  5.091714E+01 -1.128124E+03 -9.420838E+02  7.505631E-10  3.339291E-09
       166  15 -4.522402E+05 -6.432137E+00 -9.278119E+02  3.605985E+03 -2.619393E-09  1.836849E-09
       166  16 -5.206604E+05 -1.726862E+04 -1.859579E+04  3.557969E+03  1.824962E-09  1.660797E-09
       166  17 -5.130176E+05 -1.512480E+04 -1.610580E+04 -1.013974E+03  4.671260E-09 -2.799335E-09
       166  18 -5.055556E+05 -1.330415E+04 -1.407124E+04  3.510602E+03 -3.311666E-10 -6.514474E-10
       166  19 -3.838160E+05  1.683960E+04  1.503194E+04  3.654656E+03  1.291103E+03  1.480376E+03
       166  20 -3.912793E+05  1.522636E+04  1.384929E+04 -8.701875E+02  7.302626E+02  1.219207E+03
       166  21 -3.989222E+05  1.329107E+04  1.221540E+04  3.701376E+03  1.695021E+02  9.484961E+02
       166  22 -4.522403E+05 -2.143388E+02 -1.781752E+03  3.606312E+03  1.211330E+03  1.480261E+03
       166  23 -4.521501E+05  5.091885E+01 -1.128120E+03 -9.420832E+02  6.475694E+02  1.219080E+03
       166  24 -4.522402E+05 -6.431170E+00 -9.278102E+02  3.605985E+03  8.388206E+01  9.483567E+02
       166  25 -5.206604E+05 -1.726862E+04 -1.859579E+04  3.557971E+03  1.131565E+03  1.480146E+03
       166  26 -5.130176E+05 -1.512480E+04 -1.610580E+04 -1.013973E+03  5.648844E+02  1.218953E+03
       166  27 -5.055556E+05 -1.330415E+04 -1.407124E+04  3.510602E+03 -1.730587E+00  9.482173E+02
       167   1 -4.186292E+05  8.367569E+03  7.319149E+03  3.664801E+03 -1.199059E+00 -7.890876E+02
       167   2 -4.262457E+05  6.508566E+03  5.249204E+03 -9.601792E+02  5.604083E+02 -5.169051E+02
       167   3 -4.340535E+05  4.330555E+03  2.725706E+03  3.705433E+03  1.121995E+03 -2.442203E+02
       167   4 -4.522421E+05 -7.621300E+00 -9.278392E+02  3.649124E+03  8.329826E+01 -7.889456E+02
       167   5 -4.521465E+05  5.116786E+01 -1.123976E+03 -9.960066E+02  6.450408E+02 -5.167597E+02
       167   6 -4.522423E+05 -2.090492E+02 -1.773738E+03  3.649479E+03  1.206769E+03 -2.440713E+02
       167   7 -4.858540E+05 -8.382896E+03 -9.174910E+03  3.633448E+03  1.677910E+02 -7.888036E+02
       167   8 -4.780468E+05 -6.406280E+03 -7.497206E+03 -1.031833E+03  7.296699E+02 -5.166142E+02
       167   9 -4.704307E+05 -4.748678E+03 -6.273207E+03  3.593527E+03  1.291542E+03 -2.439224E+02
       167  10 -4.186292E+05  8.367569E+03  7.319148E+03  3.664801E+03  1.321014E-09  1.994523E-10
       167  11 -4.262457E+05  6.508566E+03  5.249203E+03 -9.601789E+02  2.712002E-09  8.491140E-14
       167  12 -4.340535E+05  4.330554E+03  2.725704E+03  3.705433E+03 -2.094402E-09 -2.543517E-09
       167  13 -4.522421E+05 -7.621970E+00 -9.278404E+02  3.649124E+03  5.664246E-10  6.454633E-09
       167  14 -4.521465E+05  5.116746E+01 -1.123978E+03 -9.960063E+02 -2.314651E-09  1.252454E-09
       167  15 -4.522423E+05 -2.090496E+02 -1.773741E+03  3.649479E+03 -2.871436E-09 -2.996477E-09
       167  16 -4.858540E+05 -8.382897E+03 -9.174911E+03  3.633448E+03 -3.355006E-09  2.460505E-09
       167  17 -4.780468E+05 -6.406281E+03 -7.497208E+03 -1.031833E+03  1.938159E-09 -2.426269E-09
       167  18 -4.704307E+05 -4.748678E+03 -6.273210E+03  3.593527E+03 -3.754691E-10 -2.912087E-09
       167  19 -4.186292E+05  8.367569E+03  7.319149E+03  3.664801E+03  1.199059E+00  7.890876E+02
       167  20 -4.262457E+05  6.508566E+03  5.249204E+03 -9.601792E+02 -5.604083E+02  5.169051E+02
       167  21 -4.340535E+05  4.330555E+03  2.725706E+03  3.705433E+03 -1.121995E+03  2.442203E+02
       167  22 -4.522421E+05 -7.621300E+00 -9.278392E+02  3.649124E+03 -8.329826E+01  7.889456E+02
       167  23 -4.521465E+05  5.116786E+01 -1.123976E+03 -9.960066E+02 -6.450408E+02  5.167597E+02
       167  24 -4.522423E+05 -2.090492E+02 -1.773738E+03  3.649479E+03 -1.206769E+03  2.440713E+02
       167  25 -4.858540E+05 -8.382896E+03 -9.174910E+03  3.633448E+03 -1.677910E+02  7.888036E+02
       167  26 -4.780468E+05 -6.406280E+03 -7.497206E+03 -1.031833E+03 -7.296699E+02  5.166142E+02
       167  27 -4.704307E+05 -4.748678E+03 -6.273207E+03  3.593527E+03 -1.291542E+03  2.439224E+02
       168   1 -4.541524E+05 -3.661498E+02 -2.674075E+03  3.471588E+03  1.476486E+03 -8.034519E+01
       168   2 -4.614641E+05 -2.019126E+03 -5.968730E+03 -9.626733E+02  3.323959E+03  1.982443E+02
       168   3 -4.696397E+05 -6.001731E+03 -1.105770E+04  3.931816E+03  5.171451E+03  4.556938E+02
       168   4 -4.523913E+05  7.852979E+01 -2.216565E+03  3.656665E+03  1.565649E+03 -8.018707E+01
       168   5 -4.519603E+05  3.499961E+02 -3.630695E+03 -1.006146E+03  3.406556E+03  1.983888E+02
       168   6 -4.523921E+05 -1.706995E+03 -6.834537E+03  3.659787E+03  5.247504E+03  4.558237E+02
       168   7 -4.506302E+05  5.232092E+02 -1.759055E+03  3.841743E+03  1.654812E+03 -8.002889E+01
       168   8 -4.424564E+05  2.719111E+03 -1.292667E+03 -1.049619E+03  3.489154E+03  1.985333E+02
       168   9 -4.351442E+05  2.587719E+03 -2.611399E+03  3.387751E+03  5.323560E+03  4.559534E+02
       168  10 -4.541524E+05 -3.661504E+02 -2.674079E+03  3.471588E+03 -7.624498E-10  2.301313E-10
       168  11 -4.614641E+05 -2.019129E+03 -5.968751E+03 -9.626738E+02 -1.001570E-09  1.117858E-09
       168  12 -4.696397E+05 -6.001738E+03 -1.105775E+04  3.931814E+03  1.116804E-09  3.678582E-10
       168  13 -4.523913E+05  7.852912E+01 -2.216570E+03  3.656665E+03 -5.509391E-09 -1.425666E-09
       168  14 -4.519603E+05  3.499929E+02 -3.630717E+03 -1.006146E+03 -5.384090E-09  1.496314E-09
       168  15 -4.523921E+05 -1.707003E+03 -6.834589E+03  3.659785E+03  2.504530E-09  7.027421E-10
       168  16 -4.506302E+05  5.232085E+02 -1.759060E+03  3.841743E+03 -2.491234E-09  1.044075E-09
       168  17 -4.424564E+05  2.719108E+03 -1.292690E+03 -1.049619E+03 -2.391299E-09 -4.872671E-09
       168  18 -4.351442E+05  2.587712E+03 -2.611453E+03  3.387749E+03  7.764463E-10 -9.478425E-11
       168  19 -4.541524E+05 -3.661498E+02 -2.674075E+03  3.471588E+03 -1.476486E+03  8.034519E+01
       168  20 -4.614641E+05 -2.019126E+03 -5.968730E+03 -9.626733E+02 -3.323959E+03 -1.982443E+02
       168  21 -4.696397E+05 -6.001731E+03 -1.105770E+04  3.931816E+03 -5.171451E+03 -4.556938E+02
       168  22 -4.523913E+05  7.852979E+01 -2.216565E+03  3.656665E+03 -1.565649E+03  8.018707E+01
       168  23 -4.519603E+05  3.499961E+02 -3.630695E+03 -1.006146E+03 -3.406556E+03 -1.983888E+02
       168  24 -4.523921E+05 -1.706995E+03 -6.834537E+03  3.659787E+03 -5.247504E+03 -4.558237E+02
       168  25 -4.506302E+05  5.232092E+02 -1.759055E+03  3.841743E+03 -1.654812E+03  8.002889E+01
       168  26 -4.424564E+05  2.719111E+03 -1.292667E+03 -1.049619E+03 -3.489154E+03 -1.985333E+02
       168  27 -4.351442E+05  2.587719E+03 -2.611399E+03  3.387751E+03 -5.323560E+03 -4.559534E+02
       169   1 -4.905038E+05 -8.712992E+03 -1.775523E+04  2.274193E+03  6.512366E+03  6.435913E+02
       169   2 -4.954474E+05 -8.537460E+03 -2.508756E+04 -4.126471E+02  1.388472E+04  9.383170E+02
       169   3 -5.058070E+05 -2.604785E+04 -4.165068E+04  6.124127E+03  2.125717E+04  1.054564E+03
       169   4 -4.534014E+05  5.475646E+02 -8.601993E+03  3.626885E+03  6.628421E+03  6.438039E+02
       169   5 -4.507002E+05  2.615561E+03 -1.408114E+04 -9.737363E+02  1.394558E+04  9.384017E+02
       169   6 -4.534053E+05 -1.299208E+04 -2.875222E+04  3.649266E+03  2.126293E+04  1.054481E+03
       169   7 -4.162976E+05  9.808025E+03  5.511446E+02  4.979658E+03  6.744484E+03  6.440170E+02
       169   8 -4.059513E+05  1.376844E+04 -3.074859E+03 -1.534867E+03  1.400645E+04  9.384862E+02
       169   9 -4.010010E+05  6.349637E+01 -1.585396E+04  1.174196E+03  2.126869E+04  1.054397E+03
       169  10 -4.905039E+05 -8.713004E+03 -1.775531E+04  2.274190E+03 -4.296155E-09  3.405986E-09
       169  11 -4.954476E+05 -8.537513E+03 -2.508793E+04 -4.126576E+02 -3.484781E-09  2.855159E-09
       169  12 -5.058075E+05 -2.604797E+04 -4.165153E+04  6.124109E+03  2.706742E-09  1.541868E-10
       169  13 -4.534014E+05  5.475523E+02 -8.602076E+03  3.626882E+03  3.083747E-09  1.023455E-09
       169  14 -4.507005E+05  2.615508E+03 -1.408150E+04 -9.737469E+02  2.144383E-09  3.735415E-09
       169  15 -4.534058E+05 -1.299221E+04 -2.875307E+04  3.649248E+03  4.941330E-09 -1.546852E-09
       169  16 -4.162977E+05  9.808013E+03  5.510583E+02  4.979654E+03  7.683237E-09  1.764411E-09
       169  17 -4.059515E+05  1.376838E+04 -3.075230E+03 -1.534877E+03  4.223340E-09 -5.344085E-10
       169  18 -4.010015E+05  6.337364E+01 -1.585481E+04  1.174178E+03 -4.111125E-09 -3.778513E-09
       169  19 -4.905038E+05 -8.712992E+03 -1.775523E+04  2.274193E+03 -6.512366E+03 -6.435913E+02
       169  20 -4.954474E+05 -8.537460E+03 -2.508756E+04 -4.126471E+02 -1.388472E+04 -9.383170E+02
       169  21 -5.058070E+05 -2.604785E+04 -4.165068E+04  6.124127E+03 -2.125717E+04 -1.054564E+03
       169  22 -4.534014E+05  5.475646E+02 -8.601993E+03  3.626885E+03 -6.628421E+03 -6.438039E+02
       169  23 -4.507002E+05  2.615561E+03 -1.408114E+04 -9.737363E+02 -1.394558E+04 -9.384017E+02
       169  24 -4.534053E+05 -1.299208E+04 -2.875222E+04  3.649266E+03 -2.126293E+04 -1.054481E+03
       169  25 -4.162976E+05  9.808025E+03  5.511446E+02  4.979658E+03 -6.744484E+03 -6.440170E+02
       169  26 -4.059513E+05  1.376844E+04 -3.074859E+03 -1.534867E+03 -1.400645E+04 -9.384862E+02
       169  27 -4.010010E+05  6.349637E+01 -1.585396E+04  1.174196E+03 -2.126869E+04 -1.054397E+03
       170   1 -5.322126E+05 -1.384323E+04 -5.259810E+04 -6.004633E+03  2.655639E+04  1.442661E+03
       170   2 -5.211788E+05 -2.477413E+02 -7.363832E+04  4.426021E+03  5.650051E+04  1.841110E+03
       170   3 -5.471774E+05 -1.190827E+05 -1.472943E+05  2.389616E+04  8.644721E+04  7.417522E+02
       170   4 -4.604094E+05  4.098734E+03 -3.491386E+04  3.543315E+03  2.690135E+04  1.443612E+03
       170   5 -4.419463E+05  1.947900E+04 -5.417951E+04 -9.018648E+02  5.638135E+04  1.840419E+03
       170   6 -4.604304E+05 -9.748228E+04 -1.257336E+05  3.692723E+03  8.586430E+04  7.380676E+02
       170   7 -3.886014E+05  2.204066E+04 -1.722995E+04  1.309237E+04  2.724634E+04  1.444574E+03
       170   8 -3.627080E+05  3.920539E+04 -3.472114E+04 -6.230434E+03  5.626217E+04  1.839731E+03
       170   9 -3.736756E+05 -7.588084E+04 -1.041732E+05 -1.651354E+04  8.528132E+04  7.344215E+02
       170  10 -5.322133E+05 -1.384342E+04 -5.259943E+04 -6.004664E+03 -3.085687E-09 -1.490693E-09
       170  11 -5.211822E+05 -2.486029E+02 -7.364433E+04  4.425937E+03  2.266794E-09 -1.727433E-09
       170  12 -5.471854E+05 -1.190847E+05 -1.473083E+05  2.389611E+04 -1.309047E-10  2.282949E-10
       170  13 -4.604102E+05  4.098538E+03 -3.491523E+04  3.543284E+03  5.490598E-10  1.497522E-09
       170  14 -4.419497E+05  1.947815E+04 -5.418549E+04 -9.019483E+02  3.165081E-10 -1.922483E-09
       170  15 -4.604383E+05 -9.748426E+04 -1.257474E+05  3.692672E+03 -1.607733E-09  2.092913E-09
       170  16 -3.886022E+05  2.204046E+04 -1.723135E+04  1.309234E+04  4.069439E-09  2.006606E-09
       170  17 -3.627114E+05  3.920454E+04 -3.472710E+04 -6.230517E+03 -1.808549E-09  1.264358E-09
       170  18 -3.736834E+05 -7.588280E+04 -1.041869E+05 -1.651359E+04 -2.300665E-09 -4.905651E-10
       170  19 -5.322126E+05 -1.384323E+04 -5.259810E+04 -6.004633E+03 -2.655639E+04 -1.442661E+03
       170  20 -5.211788E+05 -2.477413E+02 -7.363832E+04  4.426021E+03 -5.650051E+04 -1.841110E+03
       170  21 -5.471774E+05 -1.190827E+05 -1.472943E+05  2.389616E+04 -8.644721E+04 -7.417522E+02
       170  22 -4.604094E+05  4.098734E+03 -3.491386E+04  3.543315E+03 -2.690135E+04 -1.443612E+03
       170  23 -4.419463E+05  1.947900E+04 -5.417951E+04 -9.018648E+02 -5.638135E+04 -1.840419E+03
       170  24 -4.604304E+05 -9.748228E+04 -1.257336E+05  3.692723E+03 -8.586430E+04 -7.380676E+02
       170  25 -3.886014E+05  2.204066E+04 -1.722995E+04  1.309237E+04 -2.724634E+04 -1.444574E+03
       170  26 -3.627080E+05  3.920539E+04 -3.472114E+04 -6.230434E+03 -5.626217E+04 -1.839731E+03
       170  27 -3.736756E+05 -7.588084E+04 -1.041732E+05 -1.651354E+04 -8.528132E+04 -7.344215E+02
       171   1  1.732469E+05  9.704295E+05  1.852724E+05 -9.026773E+04  4.933710E+03  6.255883E+04
       171   2  8.140552E+04  8.620745E+05  1.157582E+05 -4.914218E+04  1.433428E+04  3.192090E+04
       171   3  5.636241E+04  7.743669E+05  8.286338E+04 -5.153069E+04  1.174333E+04  1.278743E+03
       171   4  6.432246E+04  5.323839E+05  7.857126E+04 -6.064635E+04  4.946462E+03  4.961148E+04
       171   5 -1.759245E+03  5.229500E+05  3.889531E+04 -3.891644E+04  1.433775E+04  2.907046E+04
       171   6 -2.773165E+03  5.324187E+05  2.884904E+04 -6.069885E+04  1.173651E+04  8.520260E+03
       171   7 -4.461280E+04  9.451542E+04 -2.814272E+04 -3.104585E+04  4.957985E+03  3.667323E+04
       171   8 -8.493154E+04  1.839324E+05 -3.797491E+04 -2.869631E+04  1.434113E+04  2.622157E+04
       171   9 -6.191236E+04  2.905253E+05 -2.516874E+04 -6.986339E+04  1.172948E+04  1.575899E+04
       171  10  1.732459E+05  9.704253E+05  1.852650E+05 -9.026798E+04  2.769002E-09  9.113225E-09
       171  11  8.140503E+04  8.620733E+05  1.157559E+05 -4.914254E+04 -1.702109E-10 -2.385920E-09
       171  12  5.636226E+04  7.743669E+05  8.286312E+04 -5.153070E+04 -4.003250E-09 -1.091851E-08
       171  13  6.432177E+04  5.323813E+05  7.856659E+04 -6.064655E+04 -1.817922E-11 -8.073992E-10
       171  14 -1.759693E+03  5.229490E+05  3.889334E+04 -3.891678E+04  4.780145E-09  9.232356E-10
       171  15 -2.773332E+03  5.324186E+05  2.884864E+04 -6.069893E+04  2.864812E-10 -1.403809E-11
       171  16 -4.461318E+04  9.451397E+04 -2.814529E+04 -3.104599E+04  1.690839E-09 -9.518210E-09
       171  17 -8.493195E+04  1.839316E+05 -3.797659E+04 -2.869661E+04  2.448301E-09 -1.407070E-10
       171  18 -6.191258E+04  2.905250E+05 -2.516947E+04 -6.986354E+04 -1.219727E-09  9.215732E-09
       171  19  1.732469E+05  9.704295E+05  1.852724E+05 -9.026773E+04 -4.933710E+03 -6.255883E+04
       171  20  8.140552E+04  8.620745E+05  1.157582E+05 -4.914218E+04 -1.433428E+04 -3.192090E+04
       171  21  5.636241E+04  7.743669E+05  8.286338E+04 -5.153069E+04 -1.174333E+04 -1.278743E+03
       171  22  6.432246E+04  5.323839E+05  7.857126E+04 -6.064635E+04 -4.946462E+03 -4.961148E+04
       171  23 -1.759245E+03  5.229500E+05  3.889531E+04 -3.891644E+04 -1.433775E+04 -2.907046E+04
       171  24 -2.773165E+03  5.324187E+05  2.884904E+04 -6.069885E+04 -1.173651E+04 -8.520260E+03
       171  25 -4.461280E+04  9.451542E+04 -2.814272E+04 -3.104585E+04 -4.957985E+03 -3.667323E+04
       171  26 -8.493154E+04  1.839324E+05 -3.797491E+04 -2.869631E+04 -1.434113E+04 -2.622157E+04
       171  27 -6.191236E+04  2.905253E+05 -2.516874E+04 -6.986339E+04 -1.172948E+04 -1.575899E+04
       172   1  4.215934E+04  6.870652E+05  6.276018E+04 -6.386062E+04  7.435604E+03  1.103221E+02
       172   2  1.412077E+04  5.867842E+05  4.150304E+04 -3.847663E+04  2.916601E+03 -1.416190E+04
       172   3 -7.287955E+02  4.915646E+05  3.280523E+04 -5.700770E+04 -1.735908E+03 -2.843256E+04
       172   4  3.561116E+03  5.293413E+05  2.742179E+04 -6.077428E+04  7.431887E+03  3.864662E+03
       172   5 -5.412323E+02  5.268255E+05  2.811000E+04 -3.881432E+04  2.912645E+03 -1.029396E+04
       172   6  8.526858E+03  5.293422E+05  4.127971E+04 -6.076914E+04 -1.739986E+03 -2.445319E+04
       172   7 -3.503876E+04  3.716405E+05 -7.918117E+03 -5.768872E+04  7.428206E+03  7.618060E+03
       172   8 -1.520347E+04  4.668701E+05  1.471678E+04 -3.915198E+04  2.908684E+03 -6.426379E+03
       172   9  1.778247E+04  5.671212E+05  4.975416E+04 -6.453081E+04 -1.744113E+03 -2.047358E+04
       172  10  4.215928E+04  6.870652E+05  6.276007E+04 -6.386062E+04 -1.520756E-09  7.980947E-09
       172  11  1.412070E+04  5.867840E+05  4.150265E+04 -3.847659E+04 -2.441550E-10 -2.078815E-09
       172  12 -7.290156E+02  4.915637E+05  3.280371E+04 -5.700774E+04 -2.146469E-09 -8.822954E-09
       172  13  3.561053E+03  5.293413E+05  2.742166E+04 -6.077430E+04 -3.504012E-09 -1.071615E-09
       172  14 -5.412699E+02  5.268254E+05  2.810978E+04 -3.881430E+04  9.730143E-10  8.425215E-10
       172  15  8.526694E+03  5.293416E+05  4.127858E+04 -6.076917E+04 -5.186082E-09 -2.411382E-10
       172  16 -3.503884E+04  3.716404E+05 -7.918330E+03 -5.768877E+04  1.857404E-09 -8.363709E-09
       172  17 -1.520349E+04  4.668701E+05  1.471668E+04 -3.915197E+04 -5.717630E-09 -8.443453E-10
       172  18  1.778236E+04  5.671208E+05  4.975337E+04 -6.453083E+04 -2.552632E-09  6.926122E-09
       172  19  4.215934E+04  6.870652E+05  6.276018E+04 -6.386062E+04 -7.435604E+03 -1.103221E+02
       172  20  1.412077E+04  5.867842E+05  4.150304E+04 -3.847663E+04 -2.916601E+03  1.416190E+04
       172  21 -7.287955E+02  4.915646E+05  3.280523E+04 -5.700770E+04  1.735908E+03  2.843256E+04
       172  22  3.561116E+03  5.293413E+05  2.742179E+04 -6.077428E+04 -7.431887E+03 -3.864662E+03
       172  23 -5.412323E+02  5.268255E+05  2.811000E+04 -3.881432E+04 -2.912645E+03  1.029396E+04
       172  24  8.526858E+03  5.293422E+05  4.127971E+04 -6.076914E+04  1.739986E+03  2.445319E+04
       172  25 -3.503876E+04  3.716405E+05 -7.918117E+03 -5.768872E+04 -7.428206E+03 -7.618060E+03
       172  26 -1.520347E+04  4.668701E+05  1.471678E+04 -3.915198E+04 -2.908684E+03  6.426379E+03
       172  27  1.778247E+04  5.671212E+05  4.975416E+04 -6.453081E+04  1.744113E+03  2.047358E+04
       173   1 -3.677285E+04  4.153708E+05  2.196380E+04 -8.121754E+04 -5.745718E+03 -3.828630E+04
       173   2 -5.757246E+04  2.978483E+05  2.892669E+04 -1.712505E+04 -8.989576E+03 -7.251787E+04
       173   3  6.159868E+04  2.197189E+05  9.315227E+04  3.424151E+03 -3.263579E+03 -1.067349E+05
       173   4 -7.001972E+03  5.372651E+05  4.924509E+04 -6.072502E+04 -5.753766E+03 -3.176957E+04
       173   5 -3.772041E+03  5.169075E+05  7.872229E+04 -3.888977E+04 -8.985837E+03 -7.355577E+04
       173   6  1.407040E+05  5.372179E+05  1.706871E+05 -6.059145E+04 -3.244814E+03 -1.153331E+05
       173   7  2.276950E+04  6.591742E+05  7.652582E+04 -4.022843E+04 -5.761384E+03 -2.525157E+04
       173   8  5.002683E+04  7.360121E+05  1.285150E+05 -6.066222E+04 -8.982026E+03 -7.459402E+04
       173   9  2.198173E+05  8.548177E+05  2.482170E+05 -1.246398E+05 -3.224283E+03 -1.239357E+05
       173  10 -3.677328E+04  4.153693E+05  2.196099E+04 -8.121771E+04 -7.985681E-11 -9.379884E-10
       173  11 -5.757396E+04  2.978426E+05  2.891667E+04 -1.712557E+04 -1.624228E-09 -2.082355E-09
       173  12  6.159561E+04  2.197067E+05  9.313085E+04  3.423871E+03 -3.219904E-09 -1.029209E-09
       173  13 -7.002278E+03  5.372640E+05  4.924313E+04 -6.072516E+04  1.358805E-09 -9.311946E-10
       173  14 -3.773579E+03  5.169016E+05  7.871198E+04 -3.889030E+04  5.188426E-09  8.414935E-10
       173  15  1.407004E+05  5.372037E+05  1.706621E+05 -6.059175E+04  4.875520E-09 -5.090421E-11
       173  16  2.276929E+04  6.591735E+05  7.652456E+04 -4.022855E+04  1.009561E-09  3.088554E-10
       173  17  5.002526E+04  7.360061E+05  1.285044E+05 -6.066276E+04  1.860750E-09 -8.879853E-10
       173  18  2.198132E+05  8.548012E+05  2.481882E+05 -1.246402E+05 -7.833683E-10 -3.654975E-10
       173  19 -3.677285E+04  4.153708E+05  2.196380E+04 -8.121754E+04  5.745718E+03  3.828630E+04
       173  20 -5.757246E+04  2.978483E+05  2.892669E+04 -1.712505E+04  8.989576E+03  7.251787E+04
       173  21  6.159868E+04  2.197189E+05  9.315227E+04  3.424151E+03  3.263579E+03  1.067349E+05
       173  22 -7.001972E+03  5.372651E+05  4.924509E+04 -6.072502E+04  5.753766E+03  3.176957E+04
       173  23 -3.772041E+03  5.169075E+05  7.872229E+04 -3.888977E+04  8.985837E+03  7.355577E+04
       173  24  1.407040E+05  5.372179E+05  1.706871E+05 -6.059145E+04  3.244814E+03  1.153331E+05
       173  25  2.276950E+04  6.591742E+05  7.652582E+04 -4.022843E+04  5.761384E+03  2.525157E+04
       173  26  5.002683E+04  7.360121E+05  1.285150E+05 -6.066222E+04  8.982026E+03  7.459402E+04
       173  27  2.198173E+05  8.548177E+05  2.482170E+05 -1.246398E+05  3.224283E+03  1.239357E+05
       174   1  2.196793E+04  6.794230E+03 -1.354325E+04 -9.607576E+03 -5.910866E+04 -3.418880E+03
       174   2  6.222542E+03  8.425774E+04  2.999263E+04 -2.327814E+03 -4.069689E+04 -1.003853E+04
       174   3 -3.452246E+04  7.124955E+04  3.893715E+04  2.487939E+04 -2.229783E+04 -9.194453E+03
       174   4 -3.059517E+05 -7.488042E+04 -9.437331E+04  1.448579E+04 -6.456507E+04 -3.429541E+03
       174   5 -2.930964E+05  1.013198E+04 -4.141583E+04  4.459755E+03 -4.222321E+04 -1.004187E+04
       174   6 -3.059375E+05  3.965379E+03 -2.579268E+04  1.436215E+04 -1.989306E+04 -9.189906E+03
       174   7 -6.337722E+05 -1.565609E+05 -1.752109E+05  3.856638E+04 -7.001858E+04 -3.440630E+03
       174   8 -5.923330E+05 -6.400008E+04 -1.128306E+05  1.124400E+04 -4.374879E+04 -1.004524E+04
       174   9 -5.772848E+05 -6.332372E+04 -9.052760E+04  3.849492E+03 -1.748934E+04 -9.185440E+03
       174  10  2.196418E+04  6.793280E+03 -1.354984E+04 -9.607739E+03 -8.208087E-11  1.581238E-09
       174  11  6.220737E+03  8.425719E+04  2.998933E+04 -2.328143E+03 -5.283836E-10  6.262040E-09
       174  12 -3.452302E+04  7.124933E+04  3.893606E+04  2.487922E+04  3.726544E-09  2.236917E-09
       174  13 -3.059562E+05 -7.488155E+04 -9.438117E+04  1.448561E+04 -8.409568E-09 -2.367064E-09
       174  14 -2.930983E+05  1.013139E+04 -4.141937E+04  4.459414E+03  1.152969E-09 -3.745358E-09
       174  15 -3.059380E+05  3.965182E+03 -2.579358E+04  1.436200E+04 -4.564948E-09  9.202377E-10
       174  16 -6.337774E+05 -1.565622E+05 -1.752201E+05  3.856618E+04  2.236324E-09  4.163097E-10
       174  17 -5.923351E+05 -6.400070E+04 -1.128343E+05  1.124365E+04 -5.396933E-09  4.382333E-09
       174  18 -5.772851E+05 -6.332389E+04 -9.052834E+04  3.849363E+03 -3.023403E-09  6.971320E-10
       174  19  2.196793E+04  6.794230E+03 -1.354325E+04 -9.607576E+03  5.910866E+04  3.418880E+03
       174  20  6.222542E+03  8.425774E+04  2.999263E+04 -2.327814E+03  4.069689E+04  1.003853E+04
       174  21 -3.452246E+04  7.124955E+04  3.893715E+04  2.487939E+04  2.229783E+04  9.194453E+03
       174  22 -3.059517E+05 -7.488042E+04 -9.437331E+04  1.448579E+04  6.456507E+04  3.429541E+03
       174  23 -2.930964E+05  1.013198E+04 -4.141583E+04  4.459755E+03  4.222321E+04  1.004187E+04
       174  24 -3.059375E+05  3.965379E+03 -2.579268E+04  1.436215E+04  1.989306E+04  9.189906E+03
       174  25 -6.337722E+05 -1.565609E+05 -1.752109E+05  3.856638E+04  7.001858E+04  3.440630E+03
       174  26 -5.923330E+05 -6.400008E+04 -1.128306E+05  1.124400E+04  4.374879E+04  1.004524E+04
       174  27 -5.772848E+05 -6.332372E+04 -9.052760E+04  3.849492E+03  1.748934E+04  9.185440E+03
       175   1 -6.570558E+04  5.073256E+04  3.523974E+04  1.260421E+04 -1.611133E+04 -7.460862E+03
       175   2 -9.261223E+04  5.231000E+04  3.862254E+04  4.108331E+03 -1.089559E+04 -6.820523E+03
       175   3 -1.225589E+05  4.467400E+04  3.629442E+04  1.586501E+04 -5.681645E+03 -5.649114E+03
       175   4 -3.009117E+05 -7.559789E+03 -2.101771E+04  1.448421E+04 -1.591478E+04 -7.460726E+03
       175   5 -2.993642E+05  1.080692E+03 -1.073918E+04  4.349741E+03 -1.042057E+04 -6.819712E+03
       175   6 -3.009076E+05  4.574642E+02 -6.366717E+03  1.446835E+04 -4.927912E+03 -5.647574E+03
       175   7 -5.360672E+05 -6.585613E+04 -7.727907E+04  1.636346E+04 -1.571830E+04 -7.460589E+03
       175   8 -5.060771E+05 -5.015171E+04 -6.010391E+04  4.591051E+03 -9.945698E+03 -6.818900E+03
       175   9 -4.792271E+05 -4.376137E+04 -4.903010E+04  1.307209E+04 -4.174395E+03 -5.646037E+03
       175  10 -6.570587E+04  5.073243E+04  3.523915E+04  1.260411E+04 -3.563704E-09 -1.114239E-09
       175  11 -9.261237E+04  5.230992E+04  3.862223E+04  4.108271E+03 -6.969239E-09  1.161859E-09
       175  12 -1.225590E+05  4.467395E+04  3.629430E+04  1.586498E+04 -8.914601E-10  6.178903E-09
       175  13 -3.009120E+05 -7.559916E+03 -2.101829E+04  1.448411E+04  1.938169E-09  6.096817E-09
       175  14 -2.993644E+05  1.080613E+03 -1.073948E+04  4.349684E+03  1.124497E-10 -1.212868E-08
       175  15 -3.009077E+05  4.574234E+02 -6.366823E+03  1.446833E+04 -1.223745E-09  5.940249E-09
       175  16 -5.360675E+05 -6.585625E+04 -7.727964E+04  1.636337E+04  5.191278E-09 -4.067866E-09
       175  17 -5.060772E+05 -5.015179E+04 -6.010418E+04  4.590996E+03  5.788308E-09 -2.760183E-09
       175  18 -4.792272E+05 -4.376141E+04 -4.903019E+04  1.307207E+04  9.462788E-10  8.411867E-10
       175  19 -6.570558E+04  5.073256E+04  3.523974E+04  1.260421E+04  1.611133E+04  7.460862E+03
       175  20 -9.261223E+04  5.231000E+04  3.862254E+04  4.108331E+03  1.089559E+04  6.820523E+03
       175  21 -1.225589E+05  4.467400E+04  3.629442E+04  1.586501E+04  5.681645E+03  5.649114E+03
       175  22 -3.009117E+05 -7.559789E+03 -2.101771E+04  1.448421E+04  1.591478E+04  7.460726E+03
       175  23 -2.993642E+05  1.080692E+03 -1.073918E+04  4.349741E+03  1.042057E+04  6.819712E+03
       175  24 -3.009076E+05  4.574642E+02 -6.366717E+03  1.446835E+04  4.927912E+03  5.647574E+03
       175  25 -5.360672E+05 -6.585613E+04 -7.727907E+04  1.636346E+04  1.571830E+04  7.460589E+03
       175  26 -5.060771E+05 -5.015171E+04 -6.010391E+04  4.591051E+03  9.945698E+03  6.818900E+03
       175  27 -4.792271E+05 -4.376137E+04 -4.903010E+04  1.307209E+04  4.174395E+03  5.646037E+03
       176   1 -1.584818E+05  3.443732E+04  2.882009E+04  1.458732E+04 -4.526577E+03 -4.881328E+03
       176   2 -1.868395E+05  2.819823E+04  2.431622E+04  4.487399E+03 -3.185369E+03 -3.726018E+03
       176   3 -2.156887E+05  2.110134E+04  1.870239E+04  1.478358E+04 -1.844563E+03 -2.531253E+03
       176   4 -3.003279E+05 -6.978998E+02 -4.975787E+03  1.450639E+04 -3.928123E+03 -4.880071E+03
       176   5 -3.000793E+05  1.359622E+02 -2.723068E+03  4.307308E+03 -2.566382E+03 -3.724650E+03
       176   6 -3.003263E+05  1.084867E+02 -1.594623E+03  1.450457E+04 -1.204982E+03 -2.529769E+03
       176   7 -4.421555E+05 -3.583458E+04 -3.877307E+04  1.442546E+04 -3.329804E+03 -4.878814E+03
       176   8 -4.133074E+05 -2.792724E+04 -2.976325E+04  4.127243E+03 -1.947508E+03 -3.723283E+03
       176   9 -3.849573E+05 -2.088489E+04 -2.189215E+04  1.422559E+04 -5.654886E+02 -2.528285E+03
       176  10 -1.584819E+05  3.443729E+04  2.882001E+04  1.458730E+04 -1.519889E-09 -1.867615E-09
       176  11 -1.868395E+05  2.819822E+04  2.431617E+04  4.487389E+03 -3.665256E-09 -3.462780E-09
       176  12 -2.156887E+05  2.110134E+04  1.870238E+04  1.478358E+04  1.550088E-09 -3.370656E-09
       176  13 -3.003279E+05 -6.979295E+02 -4.975861E+03  1.450637E+04 -2.168137E-09  5.956802E-10
       176  14 -3.000793E+05  1.359456E+02 -2.723106E+03  4.307300E+03 -1.585881E-09 -3.123809E-09
       176  15 -3.003263E+05  1.084794E+02 -1.594638E+03  1.450457E+04 -3.441858E-10 -2.079800E-10
       176  16 -4.421555E+05 -3.583461E+04 -3.877314E+04  1.442545E+04  7.123546E-09 -2.905040E-09
       176  17 -4.133074E+05 -2.792725E+04 -2.976329E+04  4.127237E+03  2.608403E-09  2.881006E-09
       176  18 -3.849573E+05 -2.088490E+04 -2.189216E+04  1.422559E+04 -3.721050E-09  5.993651E-09
       176  19 -1.584818E+05  3.443732E+04  2.882009E+04  1.458732E+04  4.526577E+03  4.881328E+03
       176  20 -1.868395E+05  2.819823E+04  2.431622E+04  4.487399E+03  3.185369E+03  3.726018E+03
       176  21 -2.156887E+05  2.110134E+04  1.870239E+04  1.478358E+04  1.844563E+03  2.531253E+03
       176  22 -3.003279E+05 -6.978998E+02 -4.975787E+03  1.450639E+04  3.928123E+03  4.880071E+03
       176  23 -3.000793E+05  1.359622E+02 -2.723068E+03  4.307308E+03  2.566382E+03  3.724650E+03
       176  24 -3.003263E+05  1.084867E+02 -1.594623E+03  1.450457E+04  1.204982E+03  2.529769E+03
       176  25 -4.421555E+05 -3.583458E+04 -3.877307E+04  1.442546E+04  3.329804E+03  4.878814E+03
       176  26 -4.133074E+05 -2.792724E+04 -2.976325E+04  4.127243E+03  1.947508E+03  3.723283E+03
       176  27 -3.849573E+05 -2.088489E+04 -2.189215E+04  1.422559E+04  5.654886E+02  2.528285E+03
       177   1 -2.522878E+05  1.186641E+04  1.013282E+04  1.460405E+04 -1.581926E+03 -1.829867E+03
       177   2 -2.808845E+05  4.815688E+03  3.881586E+03  4.334750E+03 -1.226951E+03 -6.361384E+02
       177   3 -3.096484E+05 -2.238904E+03 -2.627852E+03  1.451673E+04 -8.720465E+02  5.603643E+02
       177   4 -3.002522E+05 -3.070334E+00 -1.234274E+03  1.451748E+04 -9.529826E+02 -1.828381E+03
       177   5 -3.001679E+05  3.665191E+01 -7.231971E+02  4.291729E+03 -5.965834E+02 -6.346389E+02
       177   6 -3.002519E+05  7.229921E+01 -4.712863E+02  1.451730E+04 -2.402378E+02  5.618802E+02
       177   7 -3.482145E+05 -1.187271E+04 -1.260153E+04  1.443092E+04 -3.240878E+02 -1.826895E+03
       177   8 -3.194510E+05 -4.742411E+03 -5.328005E+03  4.248709E+03  3.376486E+01 -6.331394E+02
       177   9 -2.908554E+05  2.383496E+03  1.685275E+03  1.451787E+04  3.915804E+02  5.633961E+02
       177  10 -2.522878E+05  1.186640E+04  1.013281E+04  1.460405E+04  6.571661E-09 -4.528173E-09
       177  11 -2.808845E+05  4.815687E+03  3.881582E+03  4.334750E+03 -8.183493E-09  1.258769E-09
       177  12 -3.096484E+05 -2.238904E+03 -2.627854E+03  1.451674E+04 -1.443910E-08  1.817239E-09
       177  13 -3.002522E+05 -3.074167E+00 -1.234282E+03  1.451748E+04  6.460277E-09  2.866903E-09
       177  14 -3.001679E+05  3.665138E+01 -7.231985E+02  4.291729E+03 -1.473933E-09 -1.780539E-09
       177  15 -3.002519E+05  7.229885E+01 -4.712870E+02  1.451730E+04 -2.219092E-09 -6.990382E-10
       177  16 -3.482145E+05 -1.187271E+04 -1.260154E+04  1.443092E+04 -4.176292E-09  4.338578E-09
       177  17 -3.194510E+05 -4.742411E+03 -5.328005E+03  4.248709E+03 -1.692452E-09  7.735215E-09
       177  18 -2.908554E+05  2.383496E+03  1.685274E+03  1.451787E+04  1.425793E-08  3.620199E-09
       177  19 -2.522878E+05  1.186641E+04  1.013282E+04  1.460405E+04  1.581926E+03  1.829867E+03
       177  20 -2.808845E+05  4.815688E+03  3.881586E+03  4.334750E+03  1.226951E+03  6.361384E+02
       177  21 -3.096484E+05 -2.238904E+03 -2.627852E+03  1.451673E+04  8.720465E+02 -5.603643E+02
       177  22 -3.002522E+05 -3.070334E+00 -1.234274E+03  1.451748E+04  9.529826E+02  1.828381E+03
       177  23 -3.001679E+05  3.665191E+01 -7.231971E+02  4.291729E+03  5.965834E+02  6.346389E+02
       177  24 -3.002519E+05  7.229921E+01 -4.712863E+02  1.451730E+04  2.402378E+02 -5.618802E+02
       177  25 -3.482145E+05 -1.187271E+04 -1.260153E+04  1.443092E+04  3.240878E+02  1.826895E+03
       177  26 -3.194510E+05 -4.742411E+03 -5.328005E+03  4.248709E+03 -3.376486E+01  6.331394E+02
       177  27 -2.908554E+05  2.383496E+03  1.685275E+03  1.451787E+04 -3.915804E+02 -5.633961E+02
       178   1 -3.463381E+05 -1.137589E+04 -1.149815E+04  1.442897E+04 -7.948505E+02  1.257525E+03
       178   2 -3.749226E+05 -1.849746E+04 -1.820194E+04  4.168398E+03 -6.202604E+02  2.452831E+03
       178   3 -4.036277E+05 -2.556188E+04 -2.502961E+04  1.433642E+04 -4.454880E+02  3.643792E+03
       178   4 -3.002421E+05  6.594451E+01 -4.028564E+02  1.451226E+04 -1.630874E+02  1.259029E+03
       178   5 -3.001818E+05  2.646330E+01 -3.532393E+02  4.298066E+03  9.207017E+00  2.454284E+03
       178   6 -3.002429E+05  4.448807E+01 -4.259572E+02  1.451231E+04  1.816919E+02  3.645197E+03
       178   7 -2.541441E+05  1.150763E+04  1.069229E+04  1.459556E+04  4.687224E+02  1.260534E+03
       178   8 -2.254359E+05  1.854999E+04  1.749507E+04  4.427746E+03  6.387499E+02  2.455737E+03
       178   9 -1.968483E+05  2.565009E+04  2.417695E+04  1.468822E+04  8.089759E+02  3.646603E+03
       178  10 -3.463381E+05 -1.137589E+04 -1.149816E+04  1.442897E+04 -2.876492E-09  2.829452E-09
       178  11 -3.749226E+05 -1.849747E+04 -1.820196E+04  4.168400E+03 -1.059256E-09 -6.323030E-09
       178  12 -4.036277E+05 -2.556190E+04 -2.502964E+04  1.433643E+04 -3.730836E-09 -4.010689E-09
       178  13 -3.002421E+05  6.594281E+01 -4.028594E+02  1.451226E+04  1.928945E-09  4.095954E-09
       178  14 -3.001818E+05  2.645683E+01 -3.532506E+02  4.298066E+03 -6.179175E-10 -3.897046E-09
       178  15 -3.002429E+05  4.447379E+01 -4.259822E+02  1.451231E+04  1.208946E-09 -4.886923E-09
       178  16 -2.541441E+05  1.150762E+04  1.069229E+04  1.459556E+04  6.549550E-10 -1.650001E-09
       178  17 -2.254359E+05  1.854998E+04  1.749506E+04  4.427745E+03 -2.752530E-09 -1.443933E-08
       178  18 -1.968483E+05  2.565007E+04  2.417692E+04  1.468821E+04  8.176446E-09 -1.907414E-09
       178  19 -3.463381E+05 -1.137589E+04 -1.149815E+04  1.442897E+04  7.948505E+02 -1.257525E+03
       178  20 -3.749226E+05 -1.849746E+04 -1.820194E+04  4.168398E+03  6.202604E+02 -2.452831E+03
       178  21 -4.036277E+05 -2.556188E+04 -2.502961E+04  1.433642E+04  4.454880E+02 -3.643792E+03
       178  22 -3.002421E+05  6.594451E+01 -4.028564E+02  1.451226E+04  1.630874E+02 -1.259029E+03
       178  23 -3.001818E+05  2.646330E+01 -3.532393E+02  4.298066E+03 -9.207017E+00 -2.454284E+03
       178  24 -3.002429E+05  4.448807E+01 -4.259572E+02  1.451231E+04 -1.816919E+02 -3.645197E+03
       178  25 -2.541441E+05  1.150763E+04  1.069229E+04  1.459556E+04 -4.687224E+02 -1.260534E+03
       178  26 -2.254359E+05  1.854999E+04  1.749507E+04  4.427746E+03 -6.387499E+02 -2.455737E+03
       178  27 -1.968483E+05  2.565009E+04  2.417695E+04  1.468822E+04 -8.089759E+02 -3.646603E+03
       179   1 -4.402243E+05 -3.463243E+04 -3.401402E+04  1.421558E+04 -3.760089E+02  4.344002E+03
       179   2 -4.686349E+05 -4.170815E+04 -4.101493E+04  4.060641E+03  3.707984E+01  5.532979E+03
       179   3 -4.972234E+05 -4.896111E+04 -4.834687E+04  1.422710E+04  4.506608E+02  6.675653E+03
       179   4 -3.002571E+05  7.618442E+01 -5.009270E+02  1.448826E+04  2.631870E+02  4.345384E+03
       179   5 -3.001711E+05  4.646601E+01 -7.824001E+02  4.327976E+03  6.519279E+02  5.534207E+03
       179   6 -3.002591E+05 -1.560444E+02 -1.377774E+03  1.448875E+04  1.041179E+03  6.676735E+03
       179   7 -1.602718E+05  3.478338E+04  3.301079E+04  1.476100E+04  9.025265E+02  4.346767E+03
       179   8 -1.316812E+05  4.179903E+04  3.944813E+04  4.595370E+03  1.266942E+03  5.535436E+03
       179   9 -1.032592E+05  4.864622E+04  4.558860E+04  1.475046E+04  1.631885E+03  6.677817E+03
       179  10 -4.402243E+05 -3.463245E+04 -3.401406E+04  1.421558E+04  6.581526E-10 -2.536443E-09
       179  11 -4.686349E+05 -4.170819E+04 -4.101499E+04  4.060640E+03  8.157445E-10 -5.366833E-09
       179  12 -4.972234E+05 -4.896116E+04 -4.834696E+04  1.422710E+04  7.615342E-10  2.290716E-09
       179  13 -3.002571E+05  7.616413E+01 -5.009626E+02  1.448826E+04  1.289894E-11  1.513173E-10
       179  14 -3.001711E+05  4.643301E+01 -7.824585E+02  4.327973E+03  5.061343E-10  1.533037E-09
       179  15 -3.002591E+05 -1.560926E+02 -1.377860E+03  1.448875E+04  2.804964E-09  3.827132E-09
       179  16 -1.602719E+05  3.478336E+04  3.301075E+04  1.476099E+04 -7.740326E-10  1.599998E-09
       179  17 -1.316813E+05  4.179900E+04  3.944807E+04  4.595364E+03 -5.986894E-09 -1.038018E-08
       179  18 -1.032592E+05  4.864617E+04  4.558851E+04  1.475045E+04  3.905114E-09  5.774122E-09
       179  19 -4.402243E+05 -3.463243E+04 -3.401402E+04  1.421558E+04  3.760089E+02 -4.344002E+03
       179  20 -4.686349E+05 -4.170815E+04 -4.101493E+04  4.060641E+03 -3.707984E+01 -5.532979E+03
       179  21 -4.972234E+05 -4.896111E+04 -4.834687E+04  1.422710E+04 -4.506608E+02 -6.675653E+03
       179  22 -3.002571E+05  7.618442E+01 -5.009270E+02  1.448826E+04 -2.631870E+02 -4.345384E+03
       179  23 -3.001711E+05  4.646601E+01 -7.824001E+02  4.327976E+03 -6.519279E+02 -5.534207E+03
       179  24 -3.002591E+05 -1.560444E+02 -1.377774E+03  1.448875E+04 -1.041179E+03 -6.676735E+03
       179  25 -1.602718E+05  3.478338E+04  3.301079E+04  1.476100E+04 -9.025265E+02 -4.346767E+03
       179  26 -1.316812E+05  4.179903E+04  3.944813E+04  4.595370E+03 -1.266942E+03 -5.535436E+03
       179  27 -1.032592E+05  4.864622E+04  4.558860E+04  1.475046E+04 -1.631885E+03 -6.677817E+03
       180   1 -5.336985E+05 -5.767872E+04 -5.753887E+04  1.379155E+04  5.459522E+02  7.449542E+03
       180   2 -5.615015E+05 -6.452357E+04 -6.539326E+04  4.174992E+03  2.370502E+03  8.604029E+03
       180   3 -5.901946E+05 -7.389209E+04 -7.507252E+04  1.468588E+04  4.196612E+03  9.145028E+03
       180   4 -3.004101E+05  1.614023E+02 -1.748930E+03  1.444407E+04  1.315409E+03  7.450894E+03
       180   5 -2.999946E+05  2.941896E+02 -2.940412E+03  4.382538E+03  2.816834E+03  8.604609E+03
       180   6 -3.004135E+05 -2.039878E+03 -5.731674E+03  1.444794E+04  4.319902E+03  9.144950E+03
       180   7 -6.707170E+04  5.799758E+04  5.403717E+04  1.509682E+04  2.085154E+03  7.452248E+03
       180   8 -3.842501E+04  6.510699E+04  5.950762E+04  4.590143E+03  3.263354E+03  8.605190E+03
       180   9 -1.055542E+04  6.980624E+04  6.360324E+04  1.420985E+04  4.443249E+03  9.144873E+03
       180  10 -5.336985E+05 -5.767878E+04 -5.753898E+04  1.379155E+04  5.781345E-09  1.490580E-09
       180  11 -5.615015E+05 -6.452365E+04 -6.539341E+04  4.174975E+03 -5.182515E-10  5.539347E-09
       180  12 -5.901947E+05 -7.389218E+04 -7.507271E+04  1.468584E+04 -6.475825E-09 -9.020865E-10
       180  13 -3.004101E+05  1.613422E+02 -1.749037E+03  1.444407E+04  2.160829E-10 -3.023323E-09
       180  14 -2.999946E+05  2.941080E+02 -2.940566E+03  4.382518E+03 -8.108390E-10  3.299979E-09
       180  15 -3.004136E+05 -2.039973E+03 -5.731866E+03  1.444791E+04  1.542738E-09 -2.401367E-09
       180  16 -6.707172E+04  5.799752E+04  5.403706E+04  1.509681E+04 -6.852991E-09  2.192154E-09
       180  17 -3.842504E+04  6.510691E+04  5.950746E+04  4.590120E+03 -1.172051E-09 -1.107027E-08
       180  18 -1.055546E+04  6.980615E+04  6.360305E+04  1.420982E+04  3.201317E-09  1.307482E-10
       180  19 -5.336985E+05 -5.767872E+04 -5.753887E+04  1.379155E+04 -5.459522E+02 -7.449542E+03
       180  20 -5.615015E+05 -6.452357E+04 -6.539326E+04  4.174992E+03 -2.370502E+03 -8.604029E+03
       180  21 -5.901946E+05 -7.389209E+04 -7.507252E+04  1.468588E+04 -4.196612E+03 -9.145028E+03
       180  22 -3.004101E+05  1.614023E+02 -1.748930E+03  1.444407E+04 -1.315409E+03 -7.450894E+03
       180  23 -2.999946E+05  2.941896E+02 -2.940412E+03  4.382538E+03 -2.816834E+03 -8.604609E+03
       180  24 -3.004135E+05 -2.039878E+03 -5.731674E+03  1.444794E+04 -4.319902E+03 -9.144950E+03
       180  25 -6.707170E+04  5.799758E+04  5.403717E+04  1.509682E+04 -2.085154E+03 -7.452248E+03
       180  26 -3.842501E+04  6.510699E+04  5.950762E+04  4.590143E+03 -3.263354E+03 -8.605190E+03
       180  27 -1.055542E+04  6.980624E+04  6.360324E+04  1.420985E+04 -4.443249E+03 -9.144873E+03
       181   1 -6.275314E+05 -7.963634E+04 -8.472706E+04  1.118107E+04  2.729037E+03  1.102160E+04
       181   2 -6.516468E+05 -8.482098E+04 -9.563278E+04  6.099172E+03  1.336285E+04  1.178917E+04
       181   3 -6.834820E+05 -1.155769E+05 -1.198474E+05  2.067922E+04  2.400659E+04  3.935632E+03
       181   4 -3.017728E+05  1.100969E+03 -7.028585E+03  1.433320E+04  5.401403E+03  1.102549E+04
       181   5 -2.983129E+05  2.745241E+03 -1.129810E+04  4.515996E+03  1.149024E+04  1.178609E+04
       181   6 -3.017799E+05 -2.038454E+04 -2.571411E+04  1.436039E+04  1.758962E+04  3.927586E+03
       181   7  2.408328E+04  8.183065E+04  7.066246E+04  1.748695E+04  8.075166E+03  1.102941E+04
       181   8  5.513564E+04  9.030245E+04  7.302782E+04  2.931875E+03  9.616567E+03  1.178302E+04
       181   9  8.005499E+04  7.479714E+04  6.840857E+04  8.037622E+03  1.116870E+04  3.919674E+03
       181  10 -6.275314E+05 -7.963648E+04 -8.472730E+04  1.118105E+04 -2.182639E-09 -1.000746E-09
       181  11 -6.516470E+05 -8.482118E+04 -9.563337E+04  6.099045E+03  1.516404E-10 -4.513056E-10
       181  12 -6.834826E+05 -1.155771E+05 -1.198485E+05  2.067914E+04  2.258156E-09  2.794038E-09
       181  13 -3.017728E+05  1.100830E+03 -7.028868E+03  1.433315E+04 -4.356159E-12 -2.632548E-09
       181  14 -2.983131E+05  2.745056E+03 -1.129860E+04  4.515887E+03  2.859962E-09  8.874358E-10
       181  15 -3.017802E+05 -2.038464E+04 -2.571472E+04  1.436033E+04 -6.397454E-10  1.291229E-09
       181  16  2.408318E+04  8.183050E+04  7.066211E+04  1.748688E+04  2.179262E-09  5.025110E-09
       181  17  5.513550E+04  9.030227E+04  7.302738E+04  2.931784E+03 -4.475450E-09  6.194998E-09
       181  18  8.005485E+04  7.479709E+04  6.840831E+04  8.037587E+03 -1.332550E-09 -8.190236E-10
       181  19 -6.275314E+05 -7.963634E+04 -8.472706E+04  1.118107E+04 -2.729037E+03 -1.102160E+04
       181  20 -6.516468E+05 -8.482098E+04 -9.563278E+04  6.099172E+03 -1.336285E+04 -1.178917E+04
       181  21 -6.834820E+05 -1.155769E+05 -1.198474E+05  2.067922E+04 -2.400659E+04 -3.935632E+03
       181  22 -3.017728E+05  1.100969E+03 -7.028585E+03  1.433320E+04 -5.401403E+03 -1.102549E+04
       181  23 -2.983129E+05  2.745241E+03 -1.129810E+04  4.515996E+03 -1.149024E+04 -1.178609E+04
       181  24 -3.017799E+05 -2.038454E+04 -2.571411E+04  1.436039E+04 -1.758962E+04 -3.927586E+03
       181  25  2.408328E+04  8.183065E+04  7.066246E+04  1.748695E+04 -8.075166E+03 -1.102941E+04
       181  26  5.513564E+04  9.030245E+04  7.302782E+04  2.931875E+03 -9.616567E+03 -1.178302E+04
       181  27  8.005499E+04  7.479714E+04  6.840857E+04  8.037622E+03 -1.116870E+04 -3.919674E+03
       182   1 -2.715458E+05 -9.902877E+05 -2.673978E+05  2.235663E+05 -1.089083E+04 -7.930398E+04
       182   2 -1.789738E+05 -7.565368E+05 -1.666886E+05  1.815784E+05 -3.260660E+04 -3.393076E+04
       182   3 -1.175624E+05 -5.361915E+05 -1.033155E+05  1.981250E+05 -2.946904E+04  1.149474E+04
       182   4 -3.721071E+04 -4.556058E+04 -4.134402E+04  2.012665E+05 -1.093810E+04 -3.028502E+04
       182   5 -6.323700E+03 -4.189275E+04 -1.853335E+04  1.720170E+05 -3.261536E+04 -2.063877E+04
       182   6 -3.663841E+02 -4.545626E+04 -8.209361E+03  2.013031E+05 -2.945045E+04 -1.095842E+04
       182   7  1.970627E+05  8.999916E+05  1.846560E+05  1.789327E+05 -1.098886E+04  1.880834E+04
       182   8  1.662944E+05  6.732361E+05  1.295948E+05  1.624444E+05 -3.262452E+04 -7.331718E+03
       182   9  1.168156E+05  4.455116E+05  8.688737E+04  2.044837E+05 -2.943209E+04 -3.342894E+04
       182  10 -2.715476E+05 -9.902945E+05 -2.674099E+05  2.235656E+05  1.704949E-09  3.231076E-09
       182  11 -1.789752E+05 -7.565383E+05 -1.666928E+05  1.815775E+05  1.314975E-09  5.223362E-10
       182  12 -1.175634E+05 -5.361918E+05 -1.033174E+05  1.981253E+05  4.381075E-10 -3.481857E-09
       182  13 -3.721109E+04 -4.556160E+04 -4.134596E+04  2.012662E+05  1.170664E-09  2.991339E-09
       182  14 -6.324956E+03 -4.189349E+04 -1.853614E+04  1.720164E+05 -3.911408E-09 -1.590421E-09
       182  15 -3.673475E+02 -4.545662E+04 -8.211216E+03  2.013028E+05 -5.373440E-09  1.473522E-09
       182  16  1.970625E+05  8.999912E+05  1.846551E+05  1.789328E+05 -4.529580E-10 -2.492806E-09
       182  17  1.662932E+05  6.732358E+05  1.295927E+05  1.624442E+05  1.411484E-09 -5.125990E-10
       182  18  1.168144E+05  4.455101E+05  8.688365E+04  2.044829E+05 -3.653912E-09  2.315087E-09
       182  19 -2.715458E+05 -9.902877E+05 -2.673978E+05  2.235663E+05  1.089083E+04  7.930398E+04
       182  20 -1.789738E+05 -7.565368E+05 -1.666886E+05  1.815784E+05  3.260660E+04  3.393076E+04
       182  21 -1.175624E+05 -5.361915E+05 -1.033155E+05  1.981250E+05  2.946904E+04 -1.149474E+04
       182  22 -3.721071E+04 -4.556058E+04 -4.134402E+04  2.012665E+05  1.093810E+04  3.028502E+04
       182  23 -6.323700E+03 -4.189275E+04 -1.853335E+04  1.720170E+05  3.261536E+04  2.063877E+04
       182  24 -3.663841E+02 -4.545626E+04 -8.209361E+03  2.013031E+05  2.945045E+04  1.095842E+04
       182  25  1.970627E+05  8.999916E+05  1.846560E+05  1.789327E+05  1.098886E+04 -1.880834E+04
       182  26  1.662944E+05  6.732361E+05  1.295948E+05  1.624444E+05  3.262452E+04  7.331718E+03
       182  27  1.168156E+05  4.455116E+05  8.688737E+04  2.044837E+05  2.943209E+04  3.342894E+04
       183   1 -8.210089E+04 -3.797515E+05 -6.973109E+04  2.018472E+05 -2.019668E+04  8.191500E+03
       183   2 -2.612437E+04 -1.529701E+05 -1.810894E+04  1.719116E+05 -7.310121E+03  7.601565E+03
       183   3  3.018755E+04  7.418452E+04  3.401556E+04  2.019404E+05  5.955822E+03  7.010538E+03
       183   4 -1.859931E+03 -4.373073E+04 -4.633440E+03  2.016124E+05 -2.018321E+04 -1.008691E+04
       183   5 -2.310795E+02 -4.393283E+04  2.305410E+03  1.716319E+05 -7.297043E+03 -1.122514E+04
       183   6  1.831652E+03 -4.371447E+04  1.012974E+04  2.016149E+05  5.968338E+03 -1.236427E+04
       183   7  7.837447E+04  2.923993E+05  6.046017E+04  2.013776E+05 -2.016972E+04 -2.837499E+04
       183   8  2.566171E+04  6.511674E+04  2.272058E+04  1.713521E+05 -7.283950E+03 -3.005508E+04
       183   9 -2.652491E+04 -1.615994E+05 -1.375539E+04  2.012896E+05  5.980876E+03 -3.173546E+04
       183  10 -8.210135E+04 -3.797517E+05 -6.973198E+04  2.018473E+05  2.552405E-10 -8.351641E-09
       183  11 -2.612444E+04 -1.529702E+05 -1.810915E+04  1.719117E+05 -3.394120E-09 -4.844077E-09
       183  12  3.018750E+04  7.418446E+04  3.401540E+04  2.019403E+05 -2.500049E-09 -2.042453E-09
       183  13 -1.860396E+03 -4.373095E+04 -4.634397E+03  2.016123E+05  3.650445E-10  1.675284E-09
       183  14 -2.311705E+02 -4.393298E+04  2.305073E+03  1.716318E+05  2.111374E-09 -2.698288E-09
       183  15  1.831573E+03 -4.371464E+04  1.012939E+04  2.016150E+05  1.155971E-09  2.068169E-09
       183  16  7.837382E+04  2.923983E+05  6.045789E+04  2.013771E+05 -7.229357E-10  8.628672E-09
       183  17  2.566141E+04  6.511576E+04  2.271878E+04  1.713519E+05  3.695101E-10  4.832006E-09
       183  18 -2.652522E+04 -1.616005E+05 -1.375735E+04  2.012897E+05 -6.969274E-09  6.515771E-10
       183  19 -8.210089E+04 -3.797515E+05 -6.973109E+04  2.018472E+05  2.019668E+04 -8.191500E+03
       183  20 -2.612437E+04 -1.529701E+05 -1.810894E+04  1.719116E+05  7.310121E+03 -7.601565E+03
       183  21  3.018755E+04  7.418452E+04  3.401556E+04  2.019404E+05 -5.955822E+03 -7.010538E+03
       183  22 -1.859931E+03 -4.373073E+04 -4.633440E+03  2.016124E+05  2.018321E+04  1.008691E+04
       183  23 -2.310795E+02 -4.393283E+04  2.305410E+03  1.716319E+05  7.297043E+03  1.122514E+04
       183  24  1.831652E+03 -4.371447E+04  1.012974E+04  2.016149E+05 -5.968338E+03  1.236427E+04
       183  25  7.837447E+04  2.923993E+05  6.046017E+04  2.013776E+05  2.016972E+04  2.837499E+04
       183  26  2.566171E+04  6.511674E+04  2.272058E+04  1.713521E+05  7.283950E+03  3.005508E+04
       183  27 -2.652491E+04 -1.615994E+05 -1.375539E+04  2.012896E+05 -5.980876E+03  3.173546E+04
       184   1  6.487294E+04  2.312042E+05  6.843320E+04  1.961091E+05  1.526469E+04  8.388975E+03
       184   2  1.286982E+05  4.502448E+05  1.332070E+05  1.852310E+05  2.120646E+04 -3.464662E+04
       184   3  2.345870E+05  6.856467E+05  2.365407E+05  2.332921E+05  7.672731E+03 -7.772132E+04
       184   4 -3.846110E+02 -4.127276E+04  1.463615E+04  2.013760E+05  1.528031E+04 -1.414867E+04
       184   5  8.407817E+03 -4.703907E+04  2.878105E+04  1.719329E+05  2.120412E+04 -2.911672E+04
       184   6  5.441517E+04 -4.134348E+04  6.201473E+04  2.014252E+05  7.647881E+03 -4.410785E+04
       184   7 -6.564629E+04 -3.136775E+05 -3.916262E+04  2.066406E+05  1.529556E+04 -3.667663E+04
       184   8 -1.118977E+05 -5.440889E+05 -7.565854E+04  1.586456E+05  2.120154E+04 -2.359116E+04
       184   9 -1.257906E+05 -7.678454E+05 -1.125440E+05  1.695958E+05  7.619573E+03 -1.053353E+04
       184  10  6.487267E+04  2.312040E+05  6.843263E+04  1.961090E+05 -1.409567E-09  3.180736E-09
       184  11  1.286974E+05  4.502434E+05  1.332039E+05  1.852316E+05 -1.172370E-09  9.228865E-09
       184  12  2.345853E+05  6.856402E+05  2.365293E+05  2.332926E+05 -4.142720E-10  1.147173E-08
       184  13 -3.849156E+02 -4.127304E+04  1.463533E+04  2.013762E+05  3.232714E-09  2.154030E-09
       184  14  8.407106E+03 -4.704011E+04  2.877861E+04  1.719334E+05  2.495389E-10 -2.124475E-09
       184  15  5.441459E+04 -4.134559E+04  6.201096E+04  2.014255E+05  1.550483E-09  1.684258E-09
       184  16 -6.564690E+04 -3.136790E+05 -3.916559E+04  2.066411E+05 -7.867652E-09 -1.304973E-09
       184  17 -1.118984E+05 -5.440896E+05 -7.566043E+04  1.586460E+05 -5.758606E-09 -9.324072E-09
       184  18 -1.257907E+05 -7.678455E+05 -1.125443E+05  1.695959E+05 -2.120235E-09 -1.212005E-08
       184  19  6.487294E+04  2.312042E+05  6.843320E+04  1.961091E+05 -1.526469E+04 -8.388975E+03
       184  20  1.286982E+05  4.502448E+05  1.332070E+05  1.852310E+05 -2.120646E+04  3.464662E+04
       184  21  2.345870E+05  6.856467E+05  2.365407E+05  2.332921E+05 -7.672731E+03  7.772132E+04
       184  22 -3.846110E+02 -4.127276E+04  1.463615E+04  2.013760E+05 -1.528031E+04  1.414867E+04
       184  23  8.407817E+03 -4.703907E+04  2.878105E+04  1.719329E+05 -2.120412E+04  2.911672E+04
       184  24  5.441517E+04 -4.134348E+04  6.201473E+04  2.014252E+05 -7.647881E+03  4.410785E+04
       184  25 -6.564629E+04 -3.136775E+05 -3.916262E+04  2.066406E+05 -1.529556E+04  3.667663E+04
       184  26 -1.118977E+05 -5.440889E+05 -7.565854E+04  1.586456E+05 -2.120154E+04  2.359116E+04
       184  27 -1.257906E+05 -7.678454E+05 -1.125440E+05  1.695958E+05 -7.619573E+03  1.053353E+04
       185   1  7.275538E+05  2.604271E+05  1.532197E+05  2.672241E+05  6.405657E+04  1.968898E+04
       185   2  7.054469E+05  1.735089E+05  9.599962E+04  2.617732E+05  4.141349E+04  1.596676E+03
       185   3  7.033229E+05  1.537420E+05  7.459212E+04  2.482263E+05  1.585557E+04 -8.752697E+03
       185   4  4.759371E+05  1.367786E+05  8.070978E+04  1.687635E+05  5.302576E+04  1.552993E+04
       185   5  4.622320E+05  7.282295E+04  3.512778E+04  1.845212E+05  3.735576E+04  6.656129E+01
       185   6  4.671382E+05  7.465128E+04  1.984582E+04  1.921806E+05  1.876942E+04 -7.654705E+03
       185   7  2.243882E+05  1.315035E+04  8.195637E+03  7.034490E+04  4.200002E+04  1.137407E+04
       185   8  2.190769E+05 -2.785444E+04 -2.574830E+04  1.072984E+05  3.329978E+04 -1.462733E+03
       185   9  2.310070E+05 -4.438513E+03 -3.490466E+04  1.361526E+05  2.168209E+04 -6.557057E+03
       185  10  7.275493E+05  2.604256E+05  1.532113E+05  2.672231E+05 -9.693761E-09 -2.287208E-09
       185  11  7.054451E+05  1.735084E+05  9.599639E+04  2.617731E+05 -5.376455E-09 -6.141547E-09
       185  12  7.033226E+05  1.537418E+05  7.459151E+04  2.482264E+05  4.940948E-09  3.123638E-09
       185  13  4.759340E+05  1.367775E+05  8.070405E+04  1.687628E+05  4.110929E-09 -5.431552E-09
       185  14  4.622305E+05  7.282258E+04  3.512516E+04  1.845212E+05 -3.346899E-09  2.401134E-09
       185  15  4.671378E+05  7.465112E+04  1.984505E+04  1.921807E+05  1.206094E-09 -3.591609E-09
       185  16  2.243863E+05  1.314973E+04  8.192081E+03  7.034451E+04  2.056208E-09  1.258821E-09
       185  17  2.190757E+05 -2.785474E+04 -2.575039E+04  1.072985E+05 -1.164070E-08 -9.968981E-10
       185  18  2.310065E+05 -4.438685E+03 -3.490563E+04  1.361528E+05 -1.345754E-08 -7.210773E-09
       185  19  7.275538E+05  2.604271E+05  1.532197E+05  2.672241E+05 -6.405657E+04 -1.968898E+04
       185  20  7.054469E+05  1.735089E+05  9.599962E+04  2.617732E+05 -4.141349E+04 -1.596676E+03
       185  21  7.033229E+05  1.537420E+05  7.459212E+04  2.482263E+05 -1.585557E+04  8.752697E+03
       185  22  4.759371E+05  1.367786E+05  8.070978E+04  1.687635E+05 -5.302576E+04 -1.552993E+04
       185  23  4.622320E+05  7.282295E+04  3.512778E+04  1.845212E+05 -3.735576E+04 -6.656129E+01
       185  24  4.671382E+05  7.465128E+04  1.984582E+04  1.921806E+05 -1.876942E+04  7.654705E+03
       185  25  2.243882E+05  1.315035E+04  8.195637E+03  7.034490E+04 -4.200002E+04 -1.137407E+04
       185  26  2.190769E+05 -2.785444E+04 -2.574830E+04  1.072984E+05 -3.329978E+04  1.462733E+03
       185  27  2.310070E+05 -4.438513E+03 -3.490466E+04  1.361526E+05 -2.168209E+04  6.557057E+03
       186   1  6.758609E+05  1.603817E+05  6.656030E+04  2.480911E+05  1.509589E+04 -7.376312E+03
       186   2  6.575008E+05  1.451069E+05  5.372384E+04  2.389045E+05  1.036198E+04 -8.185539E+03
       186   3  6.346139E+05  1.398750E+05  4.513547E+04  2.363077E+05  5.499052E+03 -8.652800E+03
       186   4  4.645665E+05  8.045872E+04  1.568849E+04  1.885830E+05  1.570764E+04 -7.146096E+03
       186   5  4.666149E+05  7.372547E+04  8.090442E+03  1.859459E+05  1.128277E+04 -7.838675E+03
       186   6  4.640753E+05  7.697472E+04  4.496811E+03  1.898984E+05  6.728717E+03 -8.189307E+03
       186   7  2.533163E+05  5.393334E+02 -3.518658E+04  1.290935E+05  1.631917E+04 -6.915970E+03
       186   8  2.757655E+05  2.346975E+03 -3.754544E+04  1.330022E+05  1.220325E+04 -7.491930E+03
       186   9  2.935665E+05  1.407672E+04 -3.614368E+04  1.435008E+05  7.958007E+03 -7.725951E+03
       186  10  6.758607E+05  1.603816E+05  6.655977E+04  2.480912E+05  3.052547E-09  3.924308E-09
       186  11  6.575007E+05  1.451068E+05  5.372351E+04  2.389045E+05  4.585878E-09  4.095758E-09
       186  12  6.346138E+05  1.398749E+05  4.513527E+04  2.363078E+05  8.101340E-09  2.110436E-09
       186  13  4.645662E+05  8.045860E+04  1.568793E+04  1.885831E+05  2.266036E-09 -8.235128E-10
       186  14  4.666147E+05  7.372537E+04  8.090087E+03  1.859459E+05  3.936856E-09 -6.973073E-09
       186  15  4.640753E+05  7.697463E+04  4.496600E+03  1.898984E+05  1.922793E-09  2.108994E-09
       186  16  2.533160E+05  5.392105E+02 -3.518717E+04  1.290936E+05 -3.494619E-09 -5.497673E-09
       186  17  2.757654E+05  2.346875E+03 -3.754583E+04  1.330023E+05 -3.410955E-09 -9.020661E-09
       186  18  2.935665E+05  1.407664E+04 -3.614391E+04  1.435009E+05 -3.942537E-09  3.877880E-09
       186  19  6.758609E+05  1.603817E+05  6.656030E+04  2.480911E+05 -1.509589E+04  7.376312E+03
       186  20  6.575008E+05  1.451069E+05  5.372384E+04  2.389045E+05 -1.036198E+04  8.185539E+03
       186  21  6.346139E+05  1.398750E+05  4.513547E+04  2.363077E+05 -5.499052E+03  8.652800E+03
       186  22  4.645665E+05  8.045872E+04  1.568849E+04  1.885830E+05 -1.570764E+04  7.146096E+03
       186  23  4.666149E+05  7.372547E+04  8.090442E+03  1.859459E+05 -1.128277E+04  7.838675E+03
       186  24  4.640753E+05  7.697472E+04  4.496811E+03  1.898984E+05 -6.728717E+03  8.189307E+03
       186  25  2.533163E+05  5.393334E+02 -3.518658E+04  1.290935E+05 -1.631917E+04  6.915970E+03
       186  26  2.757655E+05  2.346975E+03 -3.754544E+04  1.330022E+05 -1.220325E+04  7.491930E+03
       186  27  2.935665E+05  1.407672E+04 -3.614368E+04  1.435008E+05 -7.958007E+03  7.725951E+03
       187   1  6.166979E+05  1.341557E+05  3.981374E+04  2.318003E+05  4.677083E+03 -8.076701E+03
       187   2  5.989066E+05  1.229771E+05  3.334336E+04  2.224143E+05  3.255346E+03 -7.177106E+03
       187   3  5.749079E+05  1.184385E+05  2.763509E+04  2.203138E+05  1.828501E+03 -6.264612E+03
       187   4  4.638655E+05  7.727888E+04  3.420419E+03  1.896589E+05  5.801723E+03 -7.652731E+03
       187   5  4.669593E+05  7.387574E+04  1.872370E+03  1.860482E+05  4.391846E+03 -6.748548E+03
       187   6  4.638433E+05  7.711048E+04  1.077313E+03  1.897231E+05  2.976829E+03 -5.831477E+03
       187   7  3.110554E+05  2.040348E+04 -3.297480E+04  1.475267E+05  6.926067E+03 -7.228871E+03
       187   8  3.350288E+05  2.477549E+04 -2.959997E+04  1.496891E+05  5.528087E+03 -6.320088E+03
       187   9  3.527909E+05  3.578330E+04 -2.548136E+04  1.591374E+05  4.124934E+03 -5.398426E+03
       187  10  6.166979E+05  1.341556E+05  3.981358E+04  2.318003E+05 -4.086248E-09 -8.545802E-09
       187  11  5.989066E+05  1.229770E+05  3.334324E+04  2.224143E+05 -7.680580E-09 -6.440825E-10
       187  12  5.749078E+05  1.184385E+05  2.763501E+04  2.203138E+05  1.448012E-09  5.543339E-09
       187  13  4.638654E+05  7.727881E+04  3.420246E+03  1.896589E+05  3.537000E-09  1.228985E-09
       187  14  4.669593E+05  7.387568E+04  1.872248E+03  1.860482E+05  1.047399E-09 -7.274848E-10
       187  15  4.638432E+05  7.711044E+04  1.077233E+03  1.897232E+05 -1.365454E-09  6.499747E-09
       187  16  3.110553E+05  2.040341E+04 -3.297499E+04  1.475267E+05  2.074309E-09  8.268932E-09
       187  17  3.350288E+05  2.477544E+04 -2.960010E+04  1.496891E+05 -1.194720E-09  5.782793E-09
       187  18  3.527908E+05  3.578326E+04 -2.548144E+04  1.591375E+05  8.184941E-11 -1.715214E-09
       187  19  6.166979E+05  1.341557E+05  3.981374E+04  2.318003E+05 -4.677083E+03  8.076701E+03
       187  20  5.989066E+05  1.229771E+05  3.334336E+04  2.224143E+05 -3.255346E+03  7.177106E+03
       187  21  5.749079E+05  1.184385E+05  2.763509E+04  2.203138E+05 -1.828501E+03  6.264612E+03
       187  22  4.638655E+05  7.727888E+04  3.420419E+03  1.896589E+05 -5.801723E+03  7.652731E+03
       187  23  4.669593E+05  7.387574E+04  1.872370E+03  1.860482E+05 -4.391846E+03  6.748548E+03
       187  24  4.638433E+05  7.711048E+04  1.077313E+03  1.897231E+05 -2.976829E+03  5.831477E+03
       187  25  3.110554E+05  2.040348E+04 -3.297480E+04  1.475267E+05 -6.926067E+03  7.228871E+03
       187  26  3.350288E+05  2.477549E+04 -2.959997E+04  1.496891E+05 -5.528087E+03  6.320088E+03
       187  27  3.527909E+05  3.578330E+04 -2.548136E+04  1.591374E+05 -4.124934E+03  5.398426E+03
       188   1  5.576932E+05  1.120527E+05  2.316381E+04  2.155910E+05  1.395942E+03 -5.580728E+03
       188   2  5.400564E+05  1.011211E+05  1.799680E+04  2.062204E+05  6.349068E+02 -4.417716E+03
       188   3  5.160741E+05  9.659734E+04  1.304329E+04  2.041218E+05 -1.259873E+02 -3.255398E+03
       188   4  4.638220E+05  7.711739E+04  8.449111E+02  1.896986E+05  2.538154E+03 -5.149846E+03
       188   5  4.669954E+05  7.391220E+04  5.678372E+02  1.860633E+05  1.776536E+03 -3.986995E+03
       188   6  4.638229E+05  7.711516E+04  5.047505E+02  1.897000E+05  1.015046E+03 -2.824837E+03
       188   7  3.699601E+05  4.218287E+04 -2.147448E+04  1.638099E+05  3.680174E+03 -4.719038E+03
       188   8  3.939397E+05  4.670373E+04 -1.686151E+04  1.659083E+05  2.918020E+03 -3.556329E+03
       188   9  4.115740E+05  5.763308E+04 -1.203406E+04  1.752792E+05  2.155980E+03 -2.394313E+03
       188  10  5.576932E+05  1.120527E+05  2.316375E+04  2.155910E+05 -2.458334E-09  2.616631E-09
       188  11  5.400564E+05  1.011210E+05  1.799677E+04  2.062204E+05 -2.106095E-09  3.164909E-09
       188  12  5.160741E+05  9.659733E+04  1.304327E+04  2.041218E+05 -8.160866E-09 -6.173369E-09
       188  13  4.638220E+05  7.711736E+04  8.448491E+02  1.896986E+05  1.923053E-09  5.118714E-09
       188  14  4.669954E+05  7.391218E+04  5.678014E+02  1.860633E+05  6.751193E-10  7.857494E-09
       188  15  4.638228E+05  7.711515E+04  5.047336E+02  1.897000E+05  1.771566E-09 -4.180145E-09
       188  16  3.699600E+05  4.218284E+04 -2.147455E+04  1.638099E+05  6.462911E-09  2.901657E-09
       188  17  3.939397E+05  4.670372E+04 -1.686155E+04  1.659083E+05  6.828072E-09  4.475961E-09
       188  18  4.115740E+05  5.763307E+04 -1.203408E+04  1.752792E+05  4.073018E-09  1.191338E-09
       188  19  5.576932E+05  1.120527E+05  2.316381E+04  2.155910E+05 -1.395942E+03  5.580728E+03
       188  20  5.400564E+05  1.011211E+05  1.799680E+04  2.062204E+05 -6.349068E+02  4.417716E+03
       188  21  5.160741E+05  9.659734E+04  1.304329E+04  2.041218E+05  1.259873E+02  3.255398E+03
       188  22  4.638220E+05  7.711739E+04  8.449111E+02  1.896986E+05 -2.538154E+03  5.149846E+03
       188  23  4.669954E+05  7.391220E+04  5.678372E+02  1.860633E+05 -1.776536E+03  3.986995E+03
       188  24  4.638229E+05  7.711516E+04  5.047505E+02  1.897000E+05 -1.015046E+03  2.824837E+03
       188  25  3.699601E+05  4.218287E+04 -2.147448E+04  1.638099E+05 -3.680174E+03  4.719038E+03
       188  26  3.939397E+05  4.670373E+04 -1.686151E+04  1.659083E+05 -2.918020E+03  3.556329E+03
       188  27  4.115740E+05  5.763308E+04 -1.203406E+04  1.752792E+05 -2.155980E+03  2.394313E+03
       189   1  4.989629E+05  9.019920E+04  8.850796E+03  1.994105E+05 -4.905722E+02 -2.549911E+03
       189   2  4.813534E+05  7.928975E+04  4.191369E+03  1.900562E+05 -1.346719E+03 -1.425242E+03
       189   3  4.574236E+05  7.478493E+04 -1.818810E+02  1.879621E+05 -2.202604E+03 -3.012344E+02
       189   4  4.638285E+05  7.711297E+04  5.390500E+02  1.896979E+05  6.496547E+02 -2.119629E+03
       189   5  4.669894E+05  7.391433E+04  7.602256E+02  1.860666E+05 -2.071094E+02 -9.951830E+02
       189   6  4.638297E+05  7.712033E+04  1.268042E+03  1.896952E+05 -1.063623E+03  1.285979E+02
       189   7  4.286954E+05  6.402684E+04 -7.772776E+03  1.799858E+05  1.789811E+03 -1.689374E+03
       189   8  4.526257E+05  6.853894E+04 -2.670916E+03  1.820771E+05  9.324689E+02 -5.651357E+02
       189   9  4.702358E+05  7.945573E+04  2.717959E+03  1.914283E+05  7.536404E+01  5.584326E+02
       189  10  4.989629E+05  9.019919E+04  8.850783E+03  1.994105E+05  9.233774E-09  2.367405E-09
       189  11  4.813534E+05  7.928975E+04  4.191362E+03  1.900562E+05  7.496204E-10 -7.045190E-09
       189  12  4.574236E+05  7.478492E+04 -1.818903E+02  1.879621E+05 -5.191281E-09 -8.570374E-09
       189  13  4.638285E+05  7.711296E+04  5.390408E+02  1.896979E+05  3.614881E-09  8.429912E-09
       189  14  4.669894E+05  7.391433E+04  7.602237E+02  1.860666E+05 -2.124521E-09 -3.160029E-09
       189  15  4.638297E+05  7.712033E+04  1.268040E+03  1.896952E+05 -3.097798E-09  1.578528E-09
       189  16  4.286954E+05  6.402683E+04 -7.772787E+03  1.799858E+05 -9.038059E-09 -2.736471E-09
       189  17  4.526257E+05  6.853894E+04 -2.670918E+03  1.820771E+05 -2.465492E-09  5.964701E-09
       189  18  4.702358E+05  7.945573E+04  2.717959E+03  1.914283E+05  3.256116E-09  8.396369E-09
       189  19  4.989629E+05  9.019920E+04  8.850796E+03  1.994105E+05  4.905722E+02  2.549911E+03
       189  20  4.813534E+05  7.928975E+04  4.191369E+03  1.900562E+05  1.346719E+03  1.425242E+03
       189  21  4.574236E+05  7.478493E+04 -1.818810E+02  1.879621E+05  2.202604E+03  3.012344E+02
       189  22  4.638285E+05  7.711297E+04  5.390500E+02  1.896979E+05 -6.496547E+02  2.119629E+03
       189  23  4.669894E+05  7.391433E+04  7.602256E+02  1.860666E+05  2.071094E+02  9.951830E+02
       189  24  4.638297E+05  7.712033E+04  1.268042E+03  1.896952E+05  1.063623E+03 -1.285979E+02
       189  25  4.286954E+05  6.402684E+04 -7.772776E+03  1.799858E+05 -1.789811E+03  1.689374E+03
       189  26  4.526257E+05  6.853894E+04 -2.670916E+03  1.820771E+05 -9.324689E+02  5.651357E+02
       189  27  4.702358E+05  7.945573E+04  2.717959E+03  1.914283E+05 -7.536404E+01 -5.584326E+02
       190   1  4.403217E+05  6.840849E+04 -4.016036E+03  1.833250E+05 -2.726464E+03  3.446989E+02
       190   2  4.226174E+05  5.743816E+04 -7.604167E+03  1.739002E+05 -4.672528E+03  1.055683E+03
       190   3  3.988473E+05  5.319951E+04 -1.001205E+04  1.717102E+05 -6.614783E+03  1.756906E+03
       190   4  4.638735E+05  7.710130E+04  1.658714E+03  1.897243E+05 -1.584168E+03  7.757746E+02
       190   5  4.669246E+05  7.387246E+04  2.956043E+03  1.860546E+05 -3.539152E+03  1.483357E+03
       190   6  4.639117E+05  7.737718E+04  5.440743E+03  1.896197E+05 -5.490377E+03  2.181160E+03
       190   7  4.874259E+05  8.579419E+04  7.333463E+03  1.961238E+05 -4.418197E+02  1.206870E+03
       190   8  5.112338E+05  9.030696E+04  1.351615E+04  1.982098E+05 -2.405685E+03  1.911065E+03
       190   9  5.289802E+05  1.015552E+05  2.089324E+04  2.075309E+05 -4.365842E+03  2.605462E+03
       190  10  4.403217E+05  6.840848E+04 -4.016050E+03  1.833250E+05  3.882658E-09 -4.473178E-09
       190  11  4.226174E+05  5.743815E+04 -7.604210E+03  1.739002E+05  3.725304E-09 -3.817163E-09
       190  12  3.988473E+05  5.319950E+04 -1.001213E+04  1.717102E+05 -1.355996E-09  1.823315E-10
       190  13  4.638735E+05  7.710129E+04  1.658708E+03  1.897243E+05 -4.743926E-09  3.320785E-09
       190  14  4.669245E+05  7.387246E+04  2.956016E+03  1.860546E+05 -4.088993E-09 -2.207757E-09
       190  15  4.639116E+05  7.737716E+04  5.440678E+03  1.896197E+05 -8.807438E-10 -5.576830E-09
       190  16  4.874259E+05  8.579419E+04  7.333460E+03  1.961238E+05 -5.070438E-09  9.134871E-09
       190  17  5.112338E+05  9.030695E+04  1.351613E+04  1.982098E+05  2.796184E-09  3.291436E-10
       190  18  5.289802E+05  1.015551E+05  2.089319E+04  2.075309E+05  3.897499E-09  1.810977E-09
       190  19  4.403217E+05  6.840849E+04 -4.016036E+03  1.833250E+05  2.726464E+03 -3.446989E+02
       190  20  4.226174E+05  5.743816E+04 -7.604167E+03  1.739002E+05  4.672528E+03 -1.055683E+03
       190  21  3.988473E+05  5.319951E+04 -1.001205E+04  1.717102E+05  6.614783E+03 -1.756906E+03
       190  22  4.638735E+05  7.710130E+04  1.658714E+03  1.897243E+05  1.584168E+03 -7.757746E+02
       190  23  4.669246E+05  7.387246E+04  2.956043E+03  1.860546E+05  3.539152E+03 -1.483357E+03
       190  24  4.639117E+05  7.737718E+04  5.440743E+03  1.896197E+05  5.490377E+03 -2.181160E+03
       190  25  4.874259E+05  8.579419E+04  7.333463E+03  1.961238E+05  4.418197E+02 -1.206870E+03
       190  26  5.112338E+05  9.030696E+04  1.351615E+04  1.982098E+05  2.405685E+03 -1.911065E+03
       190  27  5.289802E+05  1.015552E+05  2.089324E+04  2.075309E+05  4.365842E+03 -2.605462E+03
       191   1  3.813701E+05  4.698376E+04 -1.250921E+04  1.681399E+05 -7.982603E+03  2.109415E+03
       191   2  3.637324E+05  3.493190E+04 -1.170029E+04  1.570884E+05 -1.477357E+04  9.327471E+02
       191   3  3.426100E+05  3.487628E+04 -4.672578E+03  1.521174E+05 -2.147592E+04 -4.777192E+02
       191   4  4.642558E+05  7.688483E+04  7.163020E+03  1.899934E+05 -6.787109E+03  2.560463E+03
       191   5  4.663717E+05  7.365016E+04  1.290623E+04  1.859020E+05 -1.378954E+04  1.303899E+03
       191   6  4.650439E+05  8.245265E+04  2.503484E+04  1.878909E+05 -2.070361E+04 -1.865713E+02
       191   7  5.471480E+05  1.067861E+05  2.683465E+04  2.118494E+05 -5.591448E+03  3.011570E+03
       191   8  5.690215E+05  1.123693E+05  3.751198E+04  2.147200E+05 -1.280533E+04  1.675120E+03
       191   9  5.874933E+05  1.300307E+05  5.474133E+04  2.236710E+05 -1.993113E+04  1.046469E+02
       191  10  3.813700E+05  4.698373E+04 -1.250934E+04  1.681399E+05  7.496237E-09  5.301132E-09
       191  11  3.637321E+05  3.493184E+04 -1.170070E+04  1.570884E+05  1.183748E-09  1.484725E-08
       191  12  3.426095E+05  3.487616E+04 -4.673445E+03  1.521174E+05 -1.063462E-09  9.924743E-10
       191  13  4.642558E+05  7.688481E+04  7.162921E+03  1.899934E+05 -7.509518E-10 -2.473870E-09
       191  14  4.663715E+05  7.365011E+04  1.290587E+04  1.859020E+05 -2.798509E-09  1.130838E-08
       191  15  4.650434E+05  8.245253E+04  2.503404E+04  1.878909E+05 -1.912448E-09  1.851170E-09
       191  16  5.471479E+05  1.067861E+05  2.683457E+04  2.118494E+05  1.043591E-09  2.410393E-09
       191  17  5.690213E+05  1.123692E+05  3.751167E+04  2.147200E+05 -1.280827E-09 -2.604152E-09
       191  18  5.874928E+05  1.300306E+05  5.474058E+04  2.236710E+05  2.256260E-10  2.811424E-10
       191  19  3.813701E+05  4.698376E+04 -1.250921E+04  1.681399E+05  7.982603E+03 -2.109415E+03
       191  20  3.637324E+05  3.493190E+04 -1.170029E+04  1.570884E+05  1.477357E+04 -9.327471E+02
       191  21  3.426100E+05  3.487628E+04 -4.672578E+03  1.521174E+05  2.147592E+04  4.777192E+02
       191  22  4.642558E+05  7.688483E+04  7.163020E+03  1.899934E+05  6.787109E+03 -2.560463E+03
       191  23  4.663717E+05  7.365016E+04  1.290623E+04  1.859020E+05  1.378954E+04 -1.303899E+03
       191  24  4.650439E+05  8.245265E+04  2.503484E+04  1.878909E+05  2.070361E+04  1.865713E+02
       191  25  5.471480E+05  1.067861E+05  2.683465E+04  2.118494E+05  5.591448E+03 -3.011570E+03
       191  26  5.690215E+05  1.123693E+05  3.751198E+04  2.147200E+05  1.280533E+04 -1.675120E+03
       191  27  5.874933E+05  1.300307E+05  5.474133E+04  2.236710E+05  1.993113E+04 -1.046469E+02
       192   1  3.176769E+05  3.090344E+04 -1.999091E+03  1.663858E+05 -2.751731E+04 -1.359582E+03
       192   2  3.092640E+05  1.830806E+02  1.669440E+04  1.258009E+05 -5.278656E+04 -1.092529E+04
       192   3  3.333362E+05  6.977323E+04  7.997840E+04  6.802194E+04 -7.606378E+04 -2.577051E+04
       192   4  4.691067E+05  7.322647E+04  3.167043E+04  1.936755E+05 -2.517520E+04 -4.755912E+02
       192   5  4.594350E+05  7.217299E+04  5.606661E+04  1.835751E+05 -5.520153E+04 -1.183785E+04
       192   6  4.831773E+05  1.723522E+05  1.288132E+05  1.562839E+05 -8.323603E+04 -2.848192E+04
       192   7  6.205600E+05  1.155493E+05  6.533878E+04  2.209704E+05 -2.283247E+04  4.085044E+02
       192   8  6.096280E+05  1.441686E+05  9.543667E+04  2.413631E+05 -5.761712E+04 -1.275080E+04
       192   9  6.330429E+05  2.749512E+05  1.776457E+05  2.445684E+05 -9.041001E+04 -3.119533E+04
       192  10  3.176761E+05  3.090323E+04 -2.000517E+03  1.663858E+05 -6.286380E-09  5.428442E-09
       192  11  3.092610E+05  1.822051E+02  1.668894E+04  1.258004E+05 -2.751061E-09  8.391726E-09
       192  12  3.333298E+05  6.977096E+04  7.996628E+04  6.802036E+04  4.667812E-09  8.815144E-09
       192  13  4.691060E+05  7.322630E+04  3.166923E+04  1.936755E+05 -8.217196E-09 -1.628907E-09
       192  14  4.594317E+05  7.217202E+04  5.606063E+04  1.835746E+05 -8.894824E-10  8.607014E-09
       192  15  4.831696E+05  1.723494E+05  1.287987E+05  1.562820E+05 -5.766210E-09  4.294871E-09
       192  16  6.205594E+05  1.155492E+05  6.533780E+04  2.209704E+05  5.873231E-09 -1.528983E-10
       192  17  6.096244E+05  1.441675E+05  9.543013E+04  2.413625E+05 -6.227291E-09  2.722433E-09
       192  18  6.330339E+05  2.749479E+05  1.776286E+05  2.445662E+05 -6.857154E-09  8.909665E-10
       192  19  3.176769E+05  3.090344E+04 -1.999091E+03  1.663858E+05  2.751731E+04  1.359582E+03
       192  20  3.092640E+05  1.830806E+02  1.669440E+04  1.258009E+05  5.278656E+04  1.092529E+04
       192  21  3.333362E+05  6.977323E+04  7.997840E+04  6.802194E+04  7.606378E+04  2.577051E+04
       192  22  4.691067E+05  7.322647E+04  3.167043E+04  1.936755E+05  2.517520E+04  4.755912E+02
       192  23  4.594350E+05  7.217299E+04  5.606661E+04  1.835751E+05  5.520153E+04  1.183785E+04
       192  24  4.831773E+05  1.723522E+05  1.288132E+05  1.562839E+05  8.323603E+04  2.848192E+04
       192  25  6.205600E+05  1.155493E+05  6.533878E+04  2.209704E+05  2.283247E+04 -4.085044E+02
       192  26  6.096280E+05  1.441686E+05  9.543667E+04  2.413631E+05  5.761712E+04  1.275080E+04
       192  27  6.330429E+05  2.749512E+05  1.776457E+05  2.445684E+05  9.041001E+04  3.119533E+04
       193   1 -6.336337E+04 -4.552258E+05 -6.553209E+04  7.628378E+04 -1.575035E+03 -1.424863E+04
       193   2 -2.080270E+04 -3.396610E+05 -2.796514E+04  4.681260E+04 -3.055825E+03 -4.726041E+03
       193   3  7.060037E+03 -2.288615E+05 -2.513486E+02  6.797922E+04  1.641527E+03  4.804889E+03
       193   4 -1.367970E+04 -2.559394E+05 -1.655560E+04  6.995310E+04 -1.578561E+03 -1.042124E+04
       193   5  2.907701E+02 -2.539976E+05 -8.214535E+03  4.464113E+04 -3.054481E+03 -6.084454E+03
       193   6  4.659525E+02 -2.559323E+05 -6.121825E+03  6.996733E+04  1.647471E+03 -1.741138E+03
       193   7  3.600116E+04 -5.661680E+04  3.241805E+04  6.362039E+04 -1.582165E+03 -6.592621E+03
       193   8  2.138375E+04 -1.683275E+05  1.153559E+04  4.246936E+04 -3.053127E+03 -7.443053E+03
       193   9 -6.128143E+03 -2.830022E+05 -1.199218E+04  7.195534E+04  1.653373E+03 -8.286882E+03
       193  10 -6.336343E+04 -4.552260E+05 -6.553248E+04  7.628376E+04 -4.963390E-10  6.807768E-09
       193  11 -2.080272E+04 -3.396610E+05 -2.796520E+04  4.681259E+04 -2.968653E-09 -6.961066E-09
       193  12  7.060028E+03 -2.288616E+05 -2.513971E+02  6.797921E+04 -1.236057E-09 -9.932596E-09
       193  13 -1.367974E+04 -2.559395E+05 -1.655581E+04  6.995309E+04 -1.042402E-09  5.509538E-11
       193  14  2.907501E+02 -2.539977E+05 -8.214622E+03  4.464112E+04  2.657808E-09  1.685879E-09
       193  15  4.659488E+02 -2.559323E+05 -6.121836E+03  6.996733E+04 -3.077918E-09 -3.594439E-09
       193  16  3.600115E+04 -5.661685E+04  3.241796E+04  6.362038E+04  5.893498E-10 -6.158274E-09
       193  17  2.138372E+04 -1.683275E+05  1.153547E+04  4.246935E+04  3.054555E-09  4.281923E-09
       193  18 -6.128164E+03 -2.830023E+05 -1.199232E+04  7.195535E+04 -4.806553E-09  6.719119E-09
       193  19 -6.336337E+04 -4.552258E+05 -6.553209E+04  7.628378E+04  1.575035E+03  1.424863E+04
       193  20 -2.080270E+04 -3.396610E+05 -2.796514E+04  4.681260E+04  3.055825E+03  4.726041E+03
       193  21  7.060037E+03 -2.288615E+05 -2.513486E+02  6.797922E+04 -1.641527E+03 -4.804889E+03
       193  22 -1.367970E+04 -2.559394E+05 -1.655560E+04  6.995310E+04  1.578561E+03  1.042124E+04
       193  23  2.907701E+02 -2.539976E+05 -8.214535E+03  4.464113E+04  3.054481E+03  6.084454E+03
       193  24  4.659525E+02 -2.559323E+05 -6.121825E+03  6.996733E+04 -1.647471E+03  1.741138E+03
       193  25  3.600116E+04 -5.661680E+04  3.241805E+04  6.362039E+04  1.582165E+03  6.592621E+03
       193  26  2.138375E+04 -1.683275E+05  1.153559E+04  4.246936E+04  3.053127E+03  7.443053E+03
       193  27 -6.128143E+03 -2.830022E+05 -1.199218E+04  7.195534E+04 -1.653373E+03  8.286882E+03
       194   1  2.959426E+04 -1.309043E+05  2.203474E+04  7.056024E+04  5.901704E+03  4.176868E+03
       194   2  5.814568E+04 -1.734444E+04  4.704336E+04  4.430632E+04  1.149622E+04  6.773842E+03
       194   3  8.384244E+04  9.534434E+04  6.968327E+04  6.890012E+04  1.655325E+04  9.372497E+03
       194   4 -8.609535E+02 -2.552883E+05 -5.838001E+03  7.001038E+04  5.906321E+03 -7.498131E+02
       194   5  2.728257E+01 -2.548151E+05 -6.042265E+03  4.458523E+04  1.150114E+04  2.297356E+03
       194   6 -2.017170E+03 -2.553039E+05 -8.928110E+03  7.000916E+04  1.655834E+04  5.345749E+03
       194   7 -3.131721E+04 -3.796578E+05 -3.371163E+04  6.946063E+04  5.910948E+03 -5.675517E+03
       194   8 -5.809494E+04 -4.922333E+05 -5.913137E+04  4.486405E+04  1.150605E+04 -2.177435E+03
       194   9 -8.788516E+04 -6.058375E+05 -8.754721E+04  7.111759E+04  1.656341E+04  1.321250E+03
       194  10  2.959422E+04 -1.309044E+05  2.203464E+04  7.056022E+04 -2.877795E-09  5.848715E-09
       194  11  5.814552E+04 -1.734453E+04  4.704302E+04  4.430625E+04 -4.192738E-09 -4.463540E-09
       194  12  8.384212E+04  9.534417E+04  6.968259E+04  6.890000E+04 -1.266474E-09 -2.337259E-09
       194  13 -8.609911E+02 -2.552883E+05 -5.838067E+03  7.001038E+04 -6.006125E-10  5.532634E-12
       194  14  2.713913E+01 -2.548152E+05 -6.042523E+03  4.458521E+04  7.476585E-09  2.364335E-09
       194  15 -2.017472E+03 -2.553040E+05 -8.928679E+03  7.000909E+04  5.511369E-11 -4.320957E-09
       194  16 -3.131726E+04 -3.796578E+05 -3.371176E+04  6.946066E+04 -2.753286E-09 -3.666179E-09
       194  17 -5.809508E+04 -4.922333E+05 -5.913162E+04  4.486407E+04  3.944677E-09  4.251701E-10
       194  18 -8.788545E+04 -6.058376E+05 -8.754773E+04  7.111757E+04  9.165710E-10 -7.884932E-10
       194  19  2.959426E+04 -1.309043E+05  2.203474E+04  7.056024E+04 -5.901704E+03 -4.176868E+03
       194  20  5.814568E+04 -1.734444E+04  4.704336E+04  4.430632E+04 -1.149622E+04 -6.773842E+03
       194  21  8.384244E+04  9.534434E+04  6.968327E+04  6.890012E+04 -1.655325E+04 -9.372497E+03
       194  22 -8.609535E+02 -2.552883E+05 -5.838001E+03  7.001038E+04 -5.906321E+03  7.498131E+02
       194  23  2.728257E+01 -2.548151E+05 -6.042265E+03  4.458523E+04 -1.150114E+04 -2.297356E+03
       194  24 -2.017170E+03 -2.553039E+05 -8.928110E+03  7.000916E+04 -1.655834E+04 -5.345749E+03
       194  25 -3.131721E+04 -3.796578E+05 -3.371163E+04  6.946063E+04 -5.910948E+03  5.675517E+03
       194  26 -5.809494E+04 -4.922333E+05 -5.913137E+04  4.486405E+04 -1.150605E+04  2.177435E+03
       194  27 -8.788516E+04 -6.058375E+05 -8.754721E+04  7.111759E+04 -1.656341E+04 -1.321250E+03
       195   1  1.109721E+05  1.911327E+05  8.937237E+04  7.389575E+04  2.192898E+04  1.630564E+04
       195   2  1.380055E+05  3.071871E+05  1.097286E+05  3.951197E+04  2.403860E+04  1.018184E+04
       195   3  1.369606E+05  4.173501E+05  1.271175E+05  5.513703E+04  8.048732E+03  4.028326E+03
       195   4  1.348631E+03 -2.570072E+05 -1.065988E+04  6.983703E+04  2.194104E+04  6.930437E+03
       195   5  6.416083E+02 -2.527524E+05 -1.709914E+04  4.480681E+04  2.403205E+04  1.601071E+04
       195   6 -3.079655E+04 -2.570469E+05 -3.706957E+04  6.978945E+04  8.016098E+03  2.506196E+04
       195   7 -1.082884E+05 -7.049598E+05 -1.107044E+05  6.578131E+04  2.195323E+04 -2.438072E+03
       195   8 -1.367438E+05 -8.124006E+05 -1.439469E+05  5.009691E+04  2.402560E+04  2.183436E+04
       195   9 -1.985862E+05 -9.310276E+05 -2.012879E+05  8.442606E+04  7.984441E+03  4.607281E+04
       195  10  1.109715E+05  1.911323E+05  8.937096E+04  7.389547E+04 -6.645843E-11  5.615585E-09
       195  11  1.380049E+05  3.071868E+05  1.097273E+05  3.951178E+04  1.947568E-09 -3.842893E-09
       195  12  1.369605E+05  4.173500E+05  1.271174E+05  5.513701E+04  1.405560E-09 -2.029439E-09
       195  13  1.348101E+03 -2.570074E+05 -1.066088E+04  6.983690E+04  1.992740E-09 -2.203348E-09
       195  14  6.409193E+02 -2.527528E+05 -1.710071E+04  4.480650E+04 -2.294936E-09 -1.025215E-09
       195  15 -3.079679E+04 -2.570476E+05 -3.707087E+04  6.978929E+04 -1.662327E-09 -7.750504E-09
       195  16 -1.082889E+05 -7.049599E+05 -1.107053E+05  6.578135E+04 -7.980361E-11 -3.103193E-09
       195  17 -1.367445E+05 -8.124013E+05 -1.439489E+05  5.009649E+04 -1.401038E-09  2.049007E-09
       195  18 -1.985869E+05 -9.310299E+05 -2.012920E+05  8.442577E+04 -3.936838E-09 -2.967727E-09
       195  19  1.109721E+05  1.911327E+05  8.937237E+04  7.389575E+04 -2.192898E+04 -1.630564E+04
       195  20  1.380055E+05  3.071871E+05  1.097286E+05  3.951197E+04 -2.403860E+04 -1.018184E+04
       195  21  1.369606E+05  4.173501E+05  1.271175E+05  5.513703E+04 -8.048732E+03 -4.028326E+03
       195  22  1.348631E+03 -2.570072E+05 -1.065988E+04  6.983703E+04 -2.194104E+04 -6.930437E+03
       195  23  6.416083E+02 -2.527524E+05 -1.709914E+04  4.480681E+04 -2.403205E+04 -1.601071E+04
       195  24 -3.079655E+04 -2.570469E+05 -3.706957E+04  6.978945E+04 -8.016098E+03 -2.506196E+04
       195  25 -1.082884E+05 -7.049598E+05 -1.107044E+05  6.578131E+04 -2.195323E+04  2.438072E+03
       195  26 -1.367438E+05 -8.124006E+05 -1.439469E+05  5.009691E+04 -2.402560E+04 -2.183436E+04
       195  27 -1.985862E+05 -9.310276E+05 -2.012879E+05  8.442606E+04 -7.984441E+03 -4.607281E+04
       196   1  1.876272E+05  1.281592E+05  1.159525E+05  2.957714E+04  2.174421E+04 -9.313568E+03
       196   2  1.364150E+05  1.382071E+05  9.930763E+04  3.663191E+04  5.218854E+03 -3.113350E+04
       196   3  8.317075E+04  1.314313E+05  8.923081E+04  5.444332E+04 -1.131627E+04 -3.705789E+04
       196   4 -4.790143E+05 -3.643604E+04 -4.051591E+04  5.187905E+04 -2.823467E+04 -9.357547E+03
       196   5 -4.756610E+05 -8.001856E+03 -1.967555E+04  4.648222E+04 -1.805134E+04 -3.115897E+04
       196   6 -4.789858E+05 -1.039242E+03 -1.082103E+04  5.184285E+04 -7.879411E+03 -3.705699E+04
       196   7 -1.145240E+06 -2.010596E+05 -1.970051E+05  7.415678E+04 -7.816020E+04 -9.405143E+03
       196   8 -1.087376E+06 -1.542325E+05 -1.386744E+05  5.632252E+04 -4.129911E+04 -3.118518E+04
       196   9 -1.040834E+06 -1.335272E+05 -1.108847E+05  4.924470E+04 -4.445567E+03 -3.705613E+04
       196  10  1.876267E+05  1.281589E+05  1.159515E+05  2.957730E+04  4.321103E-10 -6.647786E-10
       196  11  1.364147E+05  1.382060E+05  9.930576E+04  3.663204E+04 -5.234839E-10 -2.814513E-09
       196  12  8.317024E+04  1.314298E+05  8.922799E+04  5.444298E+04 -3.433904E-09 -1.605343E-09
       196  13 -4.790152E+05 -3.643635E+04 -4.051757E+04  5.187884E+04 -1.916487E-09  4.833567E-10
       196  14 -4.756616E+05 -8.002986E+03 -1.967798E+04  4.648177E+04  1.666141E-09 -1.139847E-09
       196  15 -4.789863E+05 -1.040733E+03 -1.082373E+04  5.184261E+04  4.556202E-10  6.473679E-10
       196  16 -1.145247E+06 -2.010614E+05 -1.970168E+05  7.415619E+04 -8.475329E-10  3.906998E-10
       196  17 -1.087378E+06 -1.542340E+05 -1.386794E+05  5.632148E+04 -3.048493E-09 -2.026832E-09
       196  18 -1.040834E+06 -1.335287E+05 -1.108873E+05  4.924457E+04 -2.325167E-09 -1.853922E-09
       196  19  1.876272E+05  1.281592E+05  1.159525E+05  2.957714E+04 -2.174421E+04  9.313568E+03
       196  20  1.364150E+05  1.382071E+05  9.930763E+04  3.663191E+04 -5.218854E+03  3.113350E+04
       196  21  8.317075E+04  1.314313E+05  8.923081E+04  5.444332E+04  1.131627E+04  3.705789E+04
       196  22 -4.790143E+05 -3.643604E+04 -4.051591E+04  5.187905E+04  2.823467E+04  9.357547E+03
       196  23 -4.756610E+05 -8.001856E+03 -1.967555E+04  4.648222E+04  1.805134E+04  3.115897E+04
       196  24 -4.789858E+05 -1.039242E+03 -1.082103E+04  5.184285E+04  7.879411E+03  3.705699E+04
       196  25 -1.145240E+06 -2.010596E+05 -1.970051E+05  7.415678E+04  7.816020E+04  9.405143E+03
       196  26 -1.087376E+06 -1.542325E+05 -1.386744E+05  5.632252E+04  4.129911E+04  3.118518E+04
       196  27 -1.040834E+06 -1.335272E+05 -1.108847E+05  4.924470E+04  4.445567E+03  3.705613E+04
       197   1  4.973386E+04  1.225074E+05  8.473810E+04  5.188181E+04 -8.097850E+03 -3.556584E+04
       197   2 -2.390526E+03  1.111743E+05  7.716779E+04  4.642475E+04 -8.212049E+03 -3.389267E+04
       197   3 -5.467933E+04  9.915585E+04  6.949894E+04  5.277862E+04 -8.328892E+03 -3.080312E+04
       197   4 -4.776241E+05 -1.582388E+03 -8.241620E+03  5.208177E+04 -6.472333E+03 -3.556662E+04
       197   5 -4.773256E+05 -1.780351E+02 -4.538019E+03  4.617491E+04 -4.208403E+03 -3.389001E+04
       197   6 -4.776069E+05  1.277286E+02 -2.585387E+03  5.207956E+04 -1.947086E+03 -3.079647E+04
       197   7 -1.004710E+06 -1.256874E+05 -1.012315E+05  5.228146E+04 -4.848154E+03 -3.556741E+04
       197   8 -9.520391E+05 -1.115425E+05 -8.625142E+04  4.592519E+04 -2.077238E+02 -3.388736E+04
       197   9 -9.003583E+05 -9.890988E+04 -7.467546E+04  5.138093E+04  4.430511E+03 -3.078983E+04
       197  10  4.973345E+04  1.225060E+05  8.473560E+04  5.188158E+04 -2.565771E-09 -1.668983E-09
       197  11 -2.390906E+03  1.111731E+05  7.716550E+04  4.642453E+04 -3.455111E-09  3.419919E-10
       197  12 -5.467966E+04  9.915482E+04  6.949703E+04  5.277841E+04  2.977968E-09 -6.595922E-10
       197  13 -4.776245E+05 -1.583757E+03 -8.244075E+03  5.208158E+04 -3.685219E-09 -3.714444E-10
       197  14 -4.773260E+05 -1.792729E+02 -4.540210E+03  4.617479E+04  4.451085E-10  7.963521E-10
       197  15 -4.776071E+05  1.267094E+02 -2.587176E+03  5.207951E+04 -1.889905E-09 -2.110465E-09
       197  16 -1.004710E+06 -1.256887E+05 -1.012339E+05  5.228132E+04  3.017191E-09  1.764896E-09
       197  17 -9.520394E+05 -1.115437E+05 -8.625358E+04  4.592518E+04 -6.668960E-10  3.484597E-09
       197  18 -9.003586E+05 -9.891090E+04 -7.467727E+04  5.138104E+04 -4.702897E-09  8.470075E-10
       197  19  4.973386E+04  1.225074E+05  8.473810E+04  5.188181E+04  8.097850E+03  3.556584E+04
       197  20 -2.390526E+03  1.111743E+05  7.716779E+04  4.642475E+04  8.212049E+03  3.389267E+04
       197  21 -5.467933E+04  9.915585E+04  6.949894E+04  5.277862E+04  8.328892E+03  3.080312E+04
       197  22 -4.776241E+05 -1.582388E+03 -8.241620E+03  5.208177E+04  6.472333E+03  3.556662E+04
       197  23 -4.773256E+05 -1.780351E+02 -4.538019E+03  4.617491E+04  4.208403E+03  3.389001E+04
       197  24 -4.776069E+05  1.277286E+02 -2.585387E+03  5.207956E+04  1.947086E+03  3.079647E+04
       197  25 -1.004710E+06 -1.256874E+05 -1.012315E+05  5.228146E+04  4.848154E+03  3.556741E+04
       197  26 -9.520391E+05 -1.115425E+05 -8.625142E+04  4.592519E+04  2.077238E+02  3.388736E+04
       197  27 -9.003583E+05 -9.890988E+04 -7.467546E+04  5.138093E+04 -4.430511E+03  3.078983E+04
       198   1 -8.871758E+04  9.107371E+04  6.402904E+04  5.260634E+04 -7.775742E+03 -2.856468E+04
       198   2 -1.409706E+05  7.886403E+04  5.591167E+04  4.658158E+04 -7.437241E+03 -2.479592E+04
       198   3 -1.932899E+05  6.666811E+04  4.756962E+04  5.247849E+04 -7.099884E+03 -2.089940E+04
       198   4 -4.774963E+05  9.424352E+01 -1.965292E+03  5.210445E+04 -1.552170E+03 -2.855769E+04
       198   5 -4.774372E+05  1.396374E+02 -1.125192E+03  4.614338E+04 -9.995900E+02 -2.478787E+04
       198   6 -4.774844E+05  1.616734E+02 -6.587663E+02  5.210435E+04 -4.481273E+02 -2.089025E+04
       198   7 -8.661260E+05 -9.089321E+04 -6.796440E+04  5.160284E+04  4.667629E+03 -2.855072E+04
       198   8 -8.137923E+05 -7.859072E+04 -5.816557E+04  4.570538E+04  5.434683E+03 -2.477983E+04
       198   9 -7.615994E+05 -6.634901E+04 -4.888961E+04  5.173036E+04  6.200682E+03 -2.088110E+04
       198  10 -8.871787E+04  9.107282E+04  6.402740E+04  5.260616E+04 -4.797231E-09  5.000700E-10
       198  11 -1.409708E+05  7.886335E+04  5.591042E+04  4.658143E+04  2.427564E-09  1.454869E-09
       198  12 -1.932900E+05  6.666763E+04  4.756870E+04  5.247837E+04 -1.430278E-09 -4.188230E-10
       198  13 -4.774965E+05  9.336733E+01 -1.966829E+03  5.210442E+04 -1.131293E-09 -2.742056E-09
       198  14 -4.774374E+05  1.389774E+02 -1.126348E+03  4.614336E+04 -6.108112E-09  2.566754E-09
       198  15 -4.774846E+05  1.612048E+02 -6.595866E+02  5.210435E+04 -1.753076E-09  3.509088E-09
       198  16 -8.661263E+05 -9.089409E+04 -6.796597E+04  5.160294E+04  9.775109E-11  1.112165E-09
       198  17 -8.137925E+05 -7.859138E+04 -5.816678E+04  4.570549E+04 -3.365181E-09  3.454281E-09
       198  18 -7.615995E+05 -6.634949E+04 -4.889050E+04  5.173046E+04 -5.629651E-09  2.440011E-09
       198  19 -8.871758E+04  9.107371E+04  6.402904E+04  5.260634E+04  7.775742E+03  2.856468E+04
       198  20 -1.409706E+05  7.886403E+04  5.591167E+04  4.658158E+04  7.437241E+03  2.479592E+04
       198  21 -1.932899E+05  6.666811E+04  4.756962E+04  5.247849E+04  7.099884E+03  2.089940E+04
       198  22 -4.774963E+05  9.424352E+01 -1.965292E+03  5.210445E+04  1.552170E+03  2.855769E+04
       198  23 -4.774372E+05  1.396374E+02 -1.125192E+03  4.614338E+04  9.995900E+02  2.478787E+04
       198  24 -4.774844E+05  1.616734E+02 -6.587663E+02  5.210435E+04  4.481273E+02  2.089025E+04
       198  25 -8.661260E+05 -9.089321E+04 -6.796440E+04  5.160284E+04 -4.667629E+03  2.855072E+04
       198  26 -8.137923E+05 -7.859072E+04 -5.816557E+04  4.570538E+04 -5.434683E+03  2.477983E+04
       198  27 -7.615994E+05 -6.634901E+04 -4.888961E+04  5.173036E+04 -6.200682E+03  2.088110E+04
       199   1 -2.274061E+05  5.863789E+04  4.170577E+04  5.243294E+04 -6.985204E+03 -1.859168E+04
       199   2 -2.797269E+05  4.640031E+04  3.313069E+04  4.638985E+04 -6.849164E+03 -1.463244E+04
       199   3 -3.320929E+05  3.419980E+04  2.446514E+04  5.228999E+04 -6.713724E+03 -1.066137E+04
       199   4 -4.774689E+05  1.615634E+02 -5.118506E+02  5.210913E+04 -3.455864E+02 -1.858217E+04
       199   5 -4.774393E+05  1.491972E+02 -3.261463E+02  4.613740E+04 -1.900449E+02 -1.462243E+04
       199   6 -4.774620E+05  1.703992E+02 -2.448198E+02  5.210912E+04 -3.509211E+01 -1.065086E+04
       199   7 -7.274699E+05 -5.831804E+04 -4.273131E+04  5.178543E+04  6.291443E+03 -1.857267E+04
       199   8 -6.751132E+05 -4.610396E+04 -3.378407E+04  4.588503E+04  6.467021E+03 -1.461243E+04
       199   9 -6.228102E+05 -3.386010E+04 -2.495531E+04  5.192830E+04  6.642025E+03 -1.064035E+04
       199  10 -2.274062E+05  5.863751E+04  4.170503E+04  5.243283E+04 -1.576127E-10  2.440483E-10
       199  11 -2.797270E+05  4.640007E+04  3.313020E+04  4.638977E+04  8.149400E-10  5.154265E-09
       199  12 -3.320929E+05  3.419967E+04  2.446485E+04  5.228993E+04  3.794294E-10  2.453383E-09
       199  13 -4.774690E+05  1.611926E+02 -5.124996E+02  5.210913E+04 -5.692373E-09  1.169918E-09
       199  14 -4.774394E+05  1.489677E+02 -3.265481E+02  4.613740E+04 -4.377789E-09  4.586985E-09
       199  15 -4.774620E+05  1.702774E+02 -2.450329E+02  5.210912E+04 -3.663993E-09 -6.233072E-11
       199  16 -7.274700E+05 -5.831842E+04 -4.273203E+04  5.178553E+04 -2.311973E-09  2.261719E-09
       199  17 -6.751133E+05 -4.610420E+04 -3.378455E+04  4.588510E+04 -1.714559E-09  1.875575E-09
       199  18 -6.228102E+05 -3.386023E+04 -2.495560E+04  5.192835E+04 -1.798564E-09  2.570651E-10
       199  19 -2.274061E+05  5.863789E+04  4.170577E+04  5.243294E+04  6.985204E+03  1.859168E+04
       199  20 -2.797269E+05  4.640031E+04  3.313069E+04  4.638985E+04  6.849164E+03  1.463244E+04
       199  21 -3.320929E+05  3.419980E+04  2.446514E+04  5.228999E+04  6.713724E+03  1.066137E+04
       199  22 -4.774689E+05  1.615634E+02 -5.118506E+02  5.210913E+04  3.455864E+02  1.858217E+04
       199  23 -4.774393E+05  1.491972E+02 -3.261463E+02  4.613740E+04  1.900449E+02  1.462243E+04
       199  24 -4.774620E+05  1.703992E+02 -2.448198E+02  5.210912E+04  3.509211E+01  1.065086E+04
       199  25 -7.274699E+05 -5.831804E+04 -4.273131E+04  5.178543E+04 -6.291443E+03  1.857267E+04
       199  26 -6.751132E+05 -4.610396E+04 -3.378407E+04  4.588503E+04 -6.467021E+03  1.461243E+04
       199  27 -6.228102E+05 -3.386010E+04 -2.495531E+04  5.192830E+04 -6.642025E+03  1.064035E+04
       200   1 -3.662449E+05  2.616658E+04  1.846650E+04  5.224681E+04 -6.674265E+03 -8.345919E+03
       200   2 -4.185869E+05  1.392453E+04  9.682125E+03  4.619448E+04 -6.538513E+03 -4.371033E+03
       200   3 -4.709824E+05  1.715448E+03  8.043261E+02  5.209400E+04 -6.402931E+03 -4.017925E+02
       200   4 -4.774606E+05  1.724120E+02 -2.343296E+02  5.211100E+04  4.820682E+00 -8.335228E+03
       200   5 -4.774328E+05  1.593334E+02 -2.677332E+02  4.613505E+04  1.308600E+02 -4.360219E+03
       200   6 -4.774586E+05  1.812073E+02 -3.876854E+02  5.211099E+04  2.567399E+02 -3.908531E+02
       200   7 -5.886640E+05 -2.582238E+04 -1.893538E+04  5.197522E+04  6.682749E+03 -8.324539E+03
       200   8 -5.362751E+05 -1.360602E+04 -1.021754E+04  4.607562E+04  6.799621E+03 -4.349405E+03
       200   9 -4.839346E+05 -1.353012E+03 -1.579532E+03  5.212799E+04  6.916343E+03 -3.799134E+02
       200  10 -3.662449E+05  2.616649E+04  1.846629E+04  5.224676E+04 -6.699162E-09 -1.099110E-11
       200  11 -4.185870E+05  1.392450E+04  9.682009E+03  4.619446E+04  1.280483E-09  1.455255E-09
       200  12 -4.709824E+05  1.715437E+03  8.042487E+02  5.209400E+04  1.071405E-08  2.525908E-09
       200  13 -4.774606E+05  1.723374E+02 -2.344601E+02  5.211100E+04  4.789730E-09  3.180787E-09
       200  14 -4.774328E+05  1.593130E+02 -2.677690E+02  4.613505E+04 -1.009770E-09 -3.545749E-09
       200  15 -4.774586E+05  1.812072E+02 -3.876858E+02  5.211099E+04 -3.955511E-09 -6.372027E-09
       200  16 -5.886641E+05 -2.582246E+04 -1.893560E+04  5.197526E+04  8.368533E-09  2.165065E-09
       200  17 -5.362751E+05 -1.360606E+04 -1.021766E+04  4.607564E+04 -3.584717E-09 -3.555129E-10
       200  18 -4.839347E+05 -1.353025E+03 -1.579622E+03  5.212799E+04 -1.376102E-08  2.654614E-09
       200  19 -3.662449E+05  2.616658E+04  1.846650E+04  5.224681E+04  6.674265E+03  8.345919E+03
       200  20 -4.185869E+05  1.392453E+04  9.682125E+03  4.619448E+04  6.538513E+03  4.371033E+03
       200  21 -4.709824E+05  1.715448E+03  8.043261E+02  5.209400E+04  6.402931E+03  4.017925E+02
       200  22 -4.774606E+05  1.724120E+02 -2.343296E+02  5.211100E+04 -4.820682E+00  8.335228E+03
       200  23 -4.774328E+05  1.593334E+02 -2.677332E+02  4.613505E+04 -1.308600E+02  4.360219E+03
       200  24 -4.774586E+05  1.812073E+02 -3.876854E+02  5.211099E+04 -2.567399E+02  3.908531E+02
       200  25 -5.886640E+05 -2.582238E+04 -1.893538E+04  5.197522E+04 -6.682749E+03  8.324539E+03
       200  26 -5.362751E+05 -1.360602E+04 -1.021754E+04  4.607562E+04 -6.799621E+03  4.349405E+03
       200  27 -4.839346E+05 -1.353012E+03 -1.579532E+03  5.212799E+04 -6.916343E+03  3.799134E+02
       201   1 -5.051524E+05 -6.320204E+03 -5.312310E+03  5.203796E+04 -6.336039E+03  1.911334E+03
       201   2 -5.574552E+05 -1.857109E+04 -1.443663E+04  4.598457E+04 -5.804180E+03  5.844443E+03
       201   3 -6.098772E+05 -3.085043E+04 -2.392760E+04  5.187738E+04 -5.272019E+03  9.698470E+03
       201   4 -4.774687E+05  1.844193E+02 -4.894428E+02  5.210969E+04  3.322204E+02  1.922272E+03
       201   5 -4.774208E+05  1.692565E+02 -8.187824E+02  4.613666E+04  7.310976E+02  5.854975E+03
       201   6 -4.774716E+05  1.488571E+02 -1.422406E+03  5.210975E+04  1.130320E+03  9.708604E+03
       201   7 -4.497843E+05  6.689025E+03  4.333565E+03  5.218142E+04  7.000768E+03  1.933212E+03
       201   8 -3.973800E+05  1.890929E+04  1.279902E+04  4.628878E+04  7.267191E+03  5.865509E+03
       201   9 -3.450487E+05  3.114724E+04  2.108237E+04  5.234217E+04  7.533982E+03  9.718740E+03
       201  10 -5.051524E+05 -6.320219E+03 -5.312392E+03  5.203797E+04 -2.026500E-08  6.458411E-09
       201  11 -5.574553E+05 -1.857114E+04 -1.443676E+04  4.598459E+04 -8.129175E-09  4.682621E-09
       201  12 -6.098773E+05 -3.085054E+04 -2.392783E+04  5.187742E+04  5.345362E-09  1.544391E-09
       201  13 -4.774687E+05  1.844153E+02 -4.894499E+02  5.210969E+04 -1.299382E-09 -4.619026E-09
       201  14 -4.774208E+05  1.692195E+02 -8.188478E+02  4.613666E+04  2.392767E-09 -1.874526E-09
       201  15 -4.774717E+05  1.487556E+02 -1.422586E+03  5.210974E+04  2.724469E-09  9.239684E-10
       201  16 -4.497843E+05  6.689008E+03  4.333465E+03  5.218141E+04  2.070122E-08  5.622788E-09
       201  17 -3.973801E+05  1.890924E+04  1.279886E+04  4.628875E+04  4.780921E-09 -2.471826E-09
       201  18 -3.450488E+05  3.114712E+04  2.108208E+04  5.234211E+04 -7.868298E-09 -5.770085E-11
       201  19 -5.051524E+05 -6.320204E+03 -5.312310E+03  5.203796E+04  6.336039E+03 -1.911334E+03
       201  20 -5.574552E+05 -1.857109E+04 -1.443663E+04  4.598457E+04  5.804180E+03 -5.844443E+03
       201  21 -6.098772E+05 -3.085043E+04 -2.392760E+04  5.187738E+04  5.272019E+03 -9.698470E+03
       201  22 -4.774687E+05  1.844193E+02 -4.894428E+02  5.210969E+04 -3.322204E+02 -1.922272E+03
       201  23 -4.774208E+05  1.692565E+02 -8.187824E+02  4.613666E+04 -7.310976E+02 -5.854975E+03
       201  24 -4.774716E+05  1.488571E+02 -1.422406E+03  5.210975E+04 -1.130320E+03 -9.708604E+03
       201  25 -4.497843E+05  6.689025E+03  4.333565E+03  5.218142E+04 -7.000768E+03 -1.933212E+03
       201  26 -3.973800E+05  1.890929E+04  1.279902E+04  4.628878E+04 -7.267191E+03 -5.865509E+03
       201  27 -3.450487E+05  3.114724E+04  2.108237E+04  5.234217E+04 -7.533982E+03 -9.718740E+03
       202   1 -6.441392E+05 -3.887941E+04 -3.044254E+04  5.169688E+04 -5.087677E+03  1.196976E+04
       202   2 -6.961191E+05 -5.140979E+04 -4.115710E+04  4.603896E+04 -1.971292E+03  1.540481E+04
       202   3 -7.488005E+05 -6.498008E+04 -5.417295E+04  5.226365E+04  1.146590E+03  1.795365E+04
       202   4 -4.775509E+05  1.755594E+02 -1.869150E+03  5.209529E+04  1.414206E+03  1.197985E+04
       202   5 -4.773318E+05 -4.648758E+01 -3.275535E+03  4.615506E+04  3.043363E+03  1.541210E+04
       202   6 -4.775591E+05 -1.049889E+03 -5.949489E+03  5.209720E+04  4.674293E+03  1.795831E+04
       202   7 -3.109352E+05  3.922907E+04  2.670346E+04  5.249380E+04  7.917781E+03  1.198994E+04
       202   8 -2.584975E+05  5.131425E+04  3.460447E+04  4.627118E+04  8.059733E+03  1.541940E+04
       202   9 -2.062457E+05  6.287624E+04  4.227126E+04  5.193066E+04  8.203493E+03  1.796296E+04
       202  10 -6.441392E+05 -3.887957E+04 -3.044285E+04  5.169693E+04 -5.735226E-09  3.105876E-09
       202  11 -6.961191E+05 -5.141005E+04 -4.115755E+04  4.603899E+04 -1.303424E-08  3.945985E-10
       202  12 -7.488006E+05 -6.498042E+04 -5.417356E+04  5.226363E+04 -1.984968E-08  4.078171E-09
       202  13 -4.775509E+05  1.754048E+02 -1.869424E+03  5.209527E+04  5.128854E-09  1.076107E-10
       202  14 -4.773319E+05 -4.674508E+01 -3.275999E+03  4.615502E+04 -7.989955E-10 -1.031736E-09
       202  15 -4.775592E+05 -1.050241E+03 -5.950136E+03  5.209714E+04  9.901882E-11 -6.910091E-09
       202  16 -3.109353E+05  3.922890E+04  2.670307E+04  5.249372E+04  6.268643E-09  3.214722E-09
       202  17 -2.584976E+05  5.131398E+04  3.460390E+04  4.627108E+04  1.555665E-08  3.020018E-09
       202  18 -2.062459E+05  6.287588E+04  4.227053E+04  5.193054E+04  2.319599E-08 -6.931194E-10
       202  19 -6.441392E+05 -3.887941E+04 -3.044254E+04  5.169688E+04  5.087677E+03 -1.196976E+04
       202  20 -6.961191E+05 -5.140979E+04 -4.115710E+04  4.603896E+04  1.971292E+03 -1.540481E+04
       202  21 -7.488005E+05 -6.498008E+04 -5.417295E+04  5.226365E+04 -1.146590E+03 -1.795365E+04
       202  22 -4.775509E+05  1.755594E+02 -1.869150E+03  5.209529E+04 -1.414206E+03 -1.197985E+04
       202  23 -4.773318E+05 -4.648758E+01 -3.275535E+03  4.615506E+04 -3.043363E+03 -1.541210E+04
       202  24 -4.775591E+05 -1.049889E+03 -5.949489E+03  5.209720E+04 -4.674293E+03 -1.795831E+04
       202  25 -3.109352E+05  3.922907E+04  2.670346E+04  5.249380E+04 -7.917781E+03 -1.198994E+04
       202  26 -2.584975E+05  5.131425E+04  3.460447E+04  4.627118E+04 -8.059733E+03 -1.541940E+04
       202  27 -2.062457E+05  6.287624E+04  4.227126E+04  5.193066E+04 -8.203493E+03 -1.796296E+04
       203   1 -7.843755E+05 -7.285483E+04 -6.272031E+04  5.006480E+04  1.027971E+03  1.975638E+04
       203   2 -8.328626E+05 -9.107558E+04 -8.424676E+04  5.340789E+04  2.506582E+04  1.759086E+04
       203   3 -8.891086E+05 -1.277031E+05 -1.260409E+05  6.798288E+04  4.911382E+04  5.472457E+03
       203   4 -4.785421E+05 -6.557817E+02 -7.811472E+03  5.194780E+04  5.688393E+03  1.976245E+04
       203   5 -4.761237E+05 -5.689090E+03 -1.420069E+04  4.634973E+04  1.302618E+04  1.757270E+04
       203   6 -4.785601E+05 -2.622166E+04 -2.924725E+04  5.198403E+04  2.037632E+04  5.431992E+03
       203   7 -1.726173E+05  7.153808E+04  4.709384E+04  5.383172E+04  1.035105E+04  1.976855E+04
       203   8 -1.192623E+05  7.968998E+04  5.583979E+04  3.928738E+04  9.797640E+02  1.755482E+04
       203   9 -6.785405E+04  7.524916E+04  6.753802E+04  3.597447E+04 -8.380105E+03  5.393025E+03
       203  10 -7.843756E+05 -7.285525E+04 -6.272104E+04  5.006478E+04  2.396228E-08  3.983738E-09
       203  11 -8.328633E+05 -9.107608E+04 -8.424853E+04  5.340754E+04  1.340746E-08 -3.377852E-10
       203  12 -8.891112E+05 -1.277038E+05 -1.260455E+05  6.798266E+04 -1.243865E-09 -1.622844E-10
       203  13 -4.785422E+05 -6.562097E+02 -7.812266E+03  5.194771E+04  3.741596E-10 -4.033379E-09
       203  14 -4.761240E+05 -5.689467E+03 -1.420159E+04  4.634955E+04  2.850829E-09 -7.268120E-09
       203  15 -4.785606E+05 -2.622180E+04 -2.924809E+04  5.198394E+04  1.652367E-09  4.018046E-10
       203  16 -1.726176E+05  7.153763E+04  4.709291E+04  5.383156E+04 -2.472016E-08  2.531818E-09
       203  17 -1.192624E+05  7.968965E+04  5.583921E+04  3.928737E+04 -1.904993E-08  2.360539E-09
       203  18 -6.785413E+04  7.524911E+04  6.753783E+04  3.597451E+04 -1.996464E-09 -3.783920E-10
       203  19 -7.843755E+05 -7.285483E+04 -6.272031E+04  5.006480E+04 -1.027971E+03 -1.975638E+04
       203  20 -8.328626E+05 -9.107558E+04 -8.424676E+04  5.340789E+04 -2.506582E+04 -1.759086E+04
       203  21 -8.891086E+05 -1.277031E+05 -1.260409E+05  6.798288E+04 -4.911382E+04 -5.472457E+03
       203  22 -4.785421E+05 -6.557817E+02 -7.811472E+03  5.194780E+04 -5.688393E+03 -1.976245E+04
       203  23 -4.761237E+05 -5.689090E+03 -1.420069E+04  4.634973E+04 -1.302618E+04 -1.757270E+04
       203  24 -4.785601E+05 -2.622166E+04 -2.924725E+04  5.198403E+04 -2.037632E+04 -5.431992E+03
       203  25 -1.726173E+05  7.153808E+04  4.709384E+04  5.383172E+04 -1.035105E+04 -1.976855E+04
       203  26 -1.192623E+05  7.968998E+04  5.583979E+04  3.928738E+04 -9.797640E+02 -1.755482E+04
       203  27 -6.785405E+04  7.524916E+04  6.753802E+04  3.597447E+04  8.380105E+03 -5.393025E+03
       204   1 -7.152366E+04  8.258255E+04  7.205214E+04  5.824509E+03 -1.123066E+04 -6.505115E+03
       204   2 -1.047237E+05  1.083156E+05  7.799030E+04  1.062602E+04 -1.251162E+04 -2.063126E+04
       204   3 -1.458900E+05  1.014466E+05  7.662902E+04  2.946438E+04 -1.380895E+04 -2.208089E+04
       204   4 -5.553116E+05 -3.753464E+04 -4.486665E+04  2.372772E+04 -3.085670E+04 -6.531920E+03
       204   5 -5.502579E+05 -5.069087E+02 -2.054493E+04  1.668045E+04 -1.997507E+04 -2.064342E+04
       204   6 -5.552913E+05  1.792995E+03 -1.197839E+04  2.367098E+04 -9.109654E+03 -2.207426E+04
       204   7 -1.038884E+06 -1.576675E+05 -1.618006E+05  4.161685E+04 -5.046749E+04 -6.559868E+03
       204   8 -9.956063E+05 -1.093427E+05 -1.190922E+05  2.273042E+04 -2.743322E+04 -2.065573E+04
       204   9 -9.645351E+05 -9.787160E+04 -1.005956E+05  1.788140E+04 -4.413411E+03 -2.206772E+04
       204  10 -7.152380E+04  8.258247E+04  7.205182E+04  5.824450E+03  1.357157E-08  9.444636E-10
       204  11 -1.047240E+05  1.083151E+05  7.798921E+04  1.062581E+04  1.565262E-08  4.002993E-09
       204  12 -1.458904E+05  1.014461E+05  7.662774E+04  2.946413E+04 -7.211868E-10  9.491398E-10
       204  13 -5.553126E+05 -3.753494E+04 -4.486853E+04  2.372755E+04 -2.457803E-09 -1.019731E-10
       204  14 -5.502584E+05 -5.074734E+02 -2.054648E+04  1.668012E+04  1.328243E-09  9.954603E-10
       204  15 -5.552916E+05  1.792450E+03 -1.197946E+04  2.367082E+04 -2.444237E-09  1.006623E-08
       204  16 -1.038887E+06 -1.576683E+05 -1.618055E+05  4.161658E+04 -1.419042E-08  2.939400E-10
       204  17 -9.956072E+05 -1.093433E+05 -1.190944E+05  2.272996E+04 -1.377708E-08  4.954081E-09
       204  18 -9.645352E+05 -9.787213E+04 -1.005966E+05  1.788132E+04 -5.122174E-11  2.663273E-10
       204  19 -7.152366E+04  8.258255E+04  7.205214E+04  5.824509E+03  1.123066E+04  6.505115E+03
       204  20 -1.047237E+05  1.083156E+05  7.799030E+04  1.062602E+04  1.251162E+04  2.063126E+04
       204  21 -1.458900E+05  1.014466E+05  7.662902E+04  2.946438E+04  1.380895E+04  2.208089E+04
       204  22 -5.553116E+05 -3.753464E+04 -4.486665E+04  2.372772E+04  3.085670E+04  6.531920E+03
       204  23 -5.502579E+05 -5.069087E+02 -2.054493E+04  1.668045E+04  1.997507E+04  2.064342E+04
       204  24 -5.552913E+05  1.792995E+03 -1.197839E+04  2.367098E+04  9.109654E+03  2.207426E+04
       204  25 -1.038884E+06 -1.576675E+05 -1.618006E+05  4.161685E+04  5.046749E+04  6.559868E+03
       204  26 -9.956063E+05 -1.093427E+05 -1.190922E+05  2.273042E+04  2.743322E+04  2.065573E+04
       204  27 -9.645351E+05 -9.787160E+04 -1.005956E+05  1.788140E+04  4.413411E+03  2.206772E+04
       205   1 -1.736776E+05  9.058537E+04  7.306426E+04  2.365172E+04 -8.539562E+03 -1.980122E+04
       205   2 -2.106572E+05  8.335692E+04  6.894490E+04  1.679593E+04 -6.507908E+03 -1.835549E+04
       205   3 -2.483593E+05  7.439923E+04  6.306465E+04  2.463929E+04 -4.478215E+03 -1.632930E+04
       205   4 -5.532289E+05 -1.864441E+03 -9.494007E+03  2.383435E+04 -7.430689E+03 -1.980025E+04
       205   5 -5.528137E+05  7.509581E+01 -5.165008E+03  1.648267E+04 -4.843355E+03 -1.835326E+04
       205   6 -5.532200E+05  1.881427E+02 -2.983987E+03  2.383069E+04 -2.257870E+03 -1.632566E+04
       205   7 -9.326450E+05 -9.432382E+04 -9.206090E+04  2.401680E+04 -6.322484E+03 -1.979928E+04
       205   8 -8.948602E+05 -8.321447E+04 -7.928187E+04  1.616954E+04 -3.179707E+03 -1.835104E+04
       205   9 -8.579934E+05 -7.402909E+04 -6.903813E+04  2.302245E+04 -3.860097E+01 -1.632203E+04
       205  10 -1.736778E+05  9.058493E+04  7.306339E+04  2.365158E+04 -2.472302E-08 -3.147535E-09
       205  11 -2.106573E+05  8.335655E+04  6.894419E+04  1.679583E+04 -6.756958E-09  7.961595E-10
       205  12 -2.483594E+05  7.439894E+04  6.306411E+04  2.463923E+04  5.923967E-09  4.547242E-09
       205  13 -5.532290E+05 -1.864877E+03 -9.494848E+03  2.383423E+04 -3.433341E-09  1.236749E-08
       205  14 -5.528138E+05  7.472789E+01 -5.165685E+03  1.648260E+04  2.424989E-09 -8.002162E-09
       205  15 -5.532201E+05  1.878552E+02 -2.984497E+03  2.383066E+04 -7.834176E-10  5.839377E-09
       205  16 -9.326451E+05 -9.432425E+04 -9.206172E+04  2.401670E+04  2.179671E-08 -5.388364E-09
       205  17 -8.948603E+05 -8.321484E+04 -7.928252E+04  1.616949E+04  7.753872E-09 -5.827489E-09
       205  18 -8.579935E+05 -7.402938E+04 -6.903863E+04  2.302245E+04 -9.979531E-09  2.045983E-09
       205  19 -1.736776E+05  9.058537E+04  7.306426E+04  2.365172E+04  8.539562E+03  1.980122E+04
       205  20 -2.106572E+05  8.335692E+04  6.894490E+04  1.679593E+04  6.507908E+03  1.835549E+04
       205  21 -2.483593E+05  7.439923E+04  6.306465E+04  2.463929E+04  4.478215E+03  1.632930E+04
       205  22 -5.532289E+05 -1.864441E+03 -9.494007E+03  2.383435E+04  7.430689E+03  1.980025E+04
       205  23 -5.528137E+05  7.509581E+01 -5.165008E+03  1.648267E+04  4.843355E+03  1.835326E+04
       205  24 -5.532200E+05  1.881427E+02 -2.983987E+03  2.383069E+04  2.257870E+03  1.632566E+04
       205  25 -9.326450E+05 -9.432382E+04 -9.206090E+04  2.401680E+04  6.322484E+03  1.979928E+04
       205  26 -8.948602E+05 -8.321447E+04 -7.928187E+04  1.616954E+04  3.179707E+03  1.835104E+04
       205  27 -8.579934E+05 -7.402909E+04 -6.903813E+04  2.302245E+04  3.860097E+01  1.632203E+04
       206   1 -2.779815E+05  6.693055E+04  5.713474E+04  2.430666E+04 -3.856493E+03 -1.500704E+04
       206   2 -3.154663E+05  5.788157E+04  5.005823E+04  1.685128E+04 -3.230917E+03 -1.284371E+04
       206   3 -3.530976E+05  4.879394E+04  4.255120E+04  2.421399E+04 -2.606060E+03 -1.065058E+04
       206   4 -5.530675E+05  1.576754E+00 -2.293661E+03  2.385813E+04 -1.795353E+03 -1.500349E+04
       206   5 -5.529885E+05  7.623231E+01 -1.327709E+03  1.644881E+04 -1.141469E+03 -1.283984E+04
       206   6 -5.530620E+05  1.074925E+02 -8.119261E+02  2.385792E+04 -4.882695E+02 -1.064637E+04
       206   7 -8.280824E+05 -6.693239E+04 -6.172652E+04  2.340977E+04  2.648872E+02 -1.499995E+04
       206   8 -7.904578E+05 -5.773283E+04 -5.271698E+04  1.604646E+04  9.471887E+02 -1.283597E+04
       206   9 -7.529887E+05 -4.858160E+04 -4.417741E+04  2.350195E+04  1.628848E+03 -1.064215E+04
       206  10 -2.779816E+05  6.693031E+04  5.713429E+04  2.430662E+04 -2.858831E-08 -2.350071E-09
       206  11 -3.154663E+05  5.788139E+04  5.005790E+04  1.685124E+04 -9.494163E-09 -5.008627E-09
       206  12 -3.530977E+05  4.879381E+04  4.255097E+04  2.421396E+04  1.451698E-08 -4.918665E-09
       206  13 -5.530676E+05  1.334228E+00 -2.294090E+03  2.385811E+04 -1.038329E-09  4.525959E-10
       206  14 -5.529886E+05  7.605498E+01 -1.328021E+03  1.644879E+04 -8.420521E-09 -8.384055E-09
       206  15 -5.530620E+05  1.073707E+02 -8.121395E+02  2.385791E+04 -2.616455E-09 -5.096952E-09
       206  16 -8.280824E+05 -6.693263E+04 -6.172695E+04  2.340977E+04  2.842742E-08 -2.478222E-09
       206  17 -7.904578E+05 -5.773301E+04 -5.271729E+04  1.604647E+04  6.554580E-09 -1.754534E-09
       206  18 -7.529888E+05 -4.858172E+04 -4.417763E+04  2.350196E+04 -1.676813E-08  2.688852E-09
       206  19 -2.779815E+05  6.693055E+04  5.713474E+04  2.430666E+04  3.856493E+03  1.500704E+04
       206  20 -3.154663E+05  5.788157E+04  5.005823E+04  1.685128E+04  3.230917E+03  1.284371E+04
       206  21 -3.530976E+05  4.879394E+04  4.255120E+04  2.421399E+04  2.606060E+03  1.065058E+04
       206  22 -5.530675E+05  1.576754E+00 -2.293661E+03  2.385813E+04  1.795353E+03  1.500349E+04
       206  23 -5.529885E+05  7.623231E+01 -1.327709E+03  1.644881E+04  1.141469E+03  1.283984E+04
       206  24 -5.530620E+05  1.074925E+02 -8.119261E+02  2.385792E+04  4.882695E+02  1.064637E+04
       206  25 -8.280824E+05 -6.693239E+04 -6.172652E+04  2.340977E+04 -2.648872E+02  1.499995E+04
       206  26 -7.904578E+05 -5.773283E+04 -5.271698E+04  1.604646E+04 -9.471887E+02  1.283597E+04
       206  27 -7.529887E+05 -4.858160E+04 -4.417741E+04  2.350195E+04 -1.628848E+03  1.064215E+04
       207   1 -3.829887E+05  4.146734E+04  3.602635E+04  2.416282E+04 -2.471092E+03 -9.366270E+03
       207   2 -4.206449E+05  3.229041E+04  2.813850E+04  1.665565E+04 -2.234174E+03 -7.162186E+03
       207   3 -4.583909E+05  2.317032E+04  2.009278E+04  2.402339E+04 -1.997634E+03 -4.954892E+03
       207   4 -5.530460E+05  1.002994E+02 -6.595905E+02  2.387057E+04 -3.581320E+02 -9.361930E+03
       207   5 -5.529986E+05  7.813864E+01 -4.946522E+02  1.643302E+04 -1.182480E+02 -7.157686E+03
       207   6 -5.530430E+05  1.123731E+02 -4.896337E+02  2.387055E+04  1.212723E+02 -4.950226E+03
       207   7 -7.230762E+05 -4.126865E+04 -3.734722E+04  2.357839E+04  1.754257E+03 -9.357592E+03
       207   8 -6.853359E+05 -3.213529E+04 -2.912882E+04  1.621042E+04  1.997233E+03 -7.153186E+03
       207   9 -6.476867E+05 -2.294616E+04 -2.107257E+04  2.371773E+04  2.239860E+03 -4.945561E+03
       207  10 -3.829887E+05  4.146725E+04  3.602617E+04  2.416280E+04  3.340071E-09 -7.178838E-09
       207  11 -4.206449E+05  3.229036E+04  2.813839E+04  1.665564E+04 -1.453502E-08  2.111985E-09
       207  12 -4.583909E+05  2.317029E+04  2.009273E+04  2.402338E+04 -2.277376E-08  1.902815E-09
       207  13 -5.530460E+05  1.002053E+02 -6.597554E+02  2.387057E+04  9.993842E-10  1.333004E-09
       207  14 -5.529986E+05  7.808364E+01 -4.947485E+02  1.643302E+04 -2.904976E-09 -6.020589E-09
       207  15 -5.530430E+05  1.123468E+02 -4.896797E+02  2.387055E+04 -6.178255E-09 -3.580273E-09
       207  16 -7.230762E+05 -4.126874E+04 -3.734739E+04  2.357841E+04  1.980475E-09  2.497885E-09
       207  17 -6.853360E+05 -3.213535E+04 -2.912893E+04  1.621043E+04  1.222858E-08  8.764307E-09
       207  18 -6.476867E+05 -2.294619E+04 -2.107263E+04  2.371774E+04  2.154330E-08  3.942812E-09
       207  19 -3.829887E+05  4.146734E+04  3.602635E+04  2.416282E+04  2.471092E+03  9.366270E+03
       207  20 -4.206449E+05  3.229041E+04  2.813850E+04  1.665565E+04  2.234174E+03  7.162186E+03
       207  21 -4.583909E+05  2.317032E+04  2.009278E+04  2.402339E+04  1.997634E+03  4.954892E+03
       207  22 -5.530460E+05  1.002994E+02 -6.595905E+02  2.387057E+04  3.581320E+02  9.361930E+03
       207  23 -5.529986E+05  7.813864E+01 -4.946522E+02  1.643302E+04  1.182480E+02  7.157686E+03
       207  24 -5.530430E+05  1.123731E+02 -4.896337E+02  2.387055E+04 -1.212723E+02  4.950226E+03
       207  25 -7.230762E+05 -4.126865E+04 -3.734722E+04  2.357839E+04 -1.754257E+03  9.357592E+03
       207  26 -6.853359E+05 -3.213529E+04 -2.912882E+04  1.621042E+04 -1.997233E+03  7.153186E+03
       207  27 -6.476867E+05 -2.294616E+04 -2.107257E+04  2.371773E+04 -2.239860E+03  4.945561E+03
       208   1 -4.883818E+05  1.583089E+04  1.334160E+04  2.397397E+04 -1.907809E+03 -3.668951E+03
       208   2 -5.260838E+05  6.636642E+03  5.034753E+03  1.644198E+04 -1.523959E+03 -1.458690E+03
       208   3 -5.639038E+05 -2.507246E+03 -3.529160E+03  2.380935E+04 -1.140211E+03  7.512586E+02
       208   4 -5.530482E+05  1.127168E+02 -5.440619E+02  2.387595E+04  2.120849E+02 -3.664224E+03
       208   5 -5.529880E+05  8.846950E+01 -7.858252E+02  1.642625E+04  5.955457E+02 -1.453935E+03
       208   6 -5.530477E+05  1.145897E+02 -1.284499E+03  2.387595E+04  9.789284E+02  7.560476E+02
       208   7 -6.177107E+05 -1.560573E+04 -1.442995E+04  2.377794E+04  2.331761E+03 -3.659498E+03
       208   8 -5.798916E+05 -6.459748E+03 -6.606429E+03  1.641053E+04  2.714960E+03 -1.449179E+03
       208   9 -5.421914E+05  2.736420E+03  9.601726E+02  2.394256E+04  3.098104E+03  7.608370E+02
       208  10 -4.883818E+05  1.583087E+04  1.334156E+04  2.397396E+04  1.262655E-08 -1.577008E-10
       208  11 -5.260838E+05  6.636639E+03  5.034745E+03  1.644197E+04  5.398637E-09 -2.670887E-09
       208  12 -5.639038E+05 -2.507247E+03 -3.529164E+03  2.380935E+04 -9.764300E-09  2.370773E-09
       208  13 -5.530482E+05  1.127024E+02 -5.440873E+02  2.387595E+04 -1.612598E-09  3.826036E-09
       208  14 -5.529880E+05  8.846714E+01 -7.858298E+02  1.642625E+04 -8.722268E-09 -3.646314E-09
       208  15 -5.530477E+05  1.145888E+02 -1.284502E+03  2.387595E+04 -3.056613E-09  5.903848E-10
       208  16 -6.177107E+05 -1.560574E+04 -1.442998E+04  2.377795E+04 -1.446033E-08  5.566852E-10
       208  17 -5.798916E+05 -6.459752E+03 -6.606447E+03  1.641053E+04 -5.432336E-09 -6.750771E-09
       208  18 -5.421915E+05  2.736417E+03  9.601535E+02  2.394256E+04  6.797379E-09 -4.222552E-09
       208  19 -4.883818E+05  1.583089E+04  1.334160E+04  2.397397E+04  1.907809E+03  3.668951E+03
       208  20 -5.260838E+05  6.636642E+03  5.034753E+03  1.644198E+04  1.523959E+03  1.458690E+03
       208  21 -5.639038E+05 -2.507246E+03 -3.529160E+03  2.380935E+04  1.140211E+03 -7.512586E+02
       208  22 -5.530482E+05  1.127168E+02 -5.440619E+02  2.387595E+04 -2.120849E+02  3.664224E+03
       208  23 -5.529880E+05  8.846950E+01 -7.858252E+02  1.642625E+04 -5.955457E+02  1.453935E+03
       208  24 -5.530477E+05  1.145897E+02 -1.284499E+03  2.387595E+04 -9.789284E+02 -7.560476E+02
       208  25 -6.177107E+05 -1.560573E+04 -1.442995E+04  2.377794E+04 -2.331761E+03  3.659498E+03
       208  26 -5.798916E+05 -6.459748E+03 -6.606429E+03  1.641053E+04 -2.714960E+03  1.449179E+03
       208  27 -5.421914E+05  2.736420E+03  9.601726E+02  2.394256E+04 -3.098104E+03 -7.608370E+02
       209   1 -5.939460E+05 -9.833958E+03 -1.061225E+04  2.371338E+04 -8.814757E+02  2.039652E+03
       209   2 -6.315305E+05 -1.901603E+04 -1.987141E+04  1.620195E+04  5.504970E+02  4.247194E+03
       209   3 -6.694236E+05 -2.836891E+04 -3.012558E+04  2.358088E+04  1.982656E+03  6.435631E+03
       209   4 -5.530894E+05  1.322751E+02 -1.667387E+03  2.387377E+04  1.242328E+03  2.044433E+03
       209   5 -5.529376E+05  1.154818E+02 -2.863549E+03  1.642888E+04  2.656100E+03  4.251838E+03
       209   6 -5.530917E+05 -6.868131E+01 -5.041745E+03  2.387423E+04  4.070142E+03  6.440145E+03
       209   7 -5.122313E+05  1.009840E+04  7.277388E+03  2.403417E+04  3.366269E+03  2.049214E+03
       209   8 -4.743388E+05  1.924659E+04  1.414396E+04  1.665584E+04  4.761965E+03  4.256484E+03
       209   9 -4.367472E+05  2.823066E+04  2.004131E+04  2.416763E+04  6.158015E+03  6.444661E+03
       209  10 -5.939460E+05 -9.833963E+03 -1.061226E+04  2.371338E+04 -8.543745E-09  4.285299E-09
       209  11 -6.315306E+05 -1.901605E+04 -1.987144E+04  1.620195E+04 -2.819632E-09 -5.865676E-09
       209  12 -6.694236E+05 -2.836896E+04 -3.012567E+04  2.358087E+04  5.043817E-09 -2.896555E-09
       209  13 -5.530894E+05  1.322702E+02 -1.667398E+03  2.387377E+04 -1.214352E-09  3.240577E-09
       209  14 -5.529376E+05  1.154605E+02 -2.863596E+03  1.642887E+04 -4.417412E-09  2.524924E-09
       209  15 -5.530918E+05 -6.873029E+01 -5.041854E+03  2.387421E+04  5.455178E-09 -9.012208E-10
       209  16 -5.122313E+05  1.009839E+04  7.277359E+03  2.403416E+04  8.757744E-09  7.457634E-09
       209  17 -4.743388E+05  1.924656E+04  1.414388E+04  1.665582E+04  2.545370E-09  2.843279E-09
       209  18 -4.367472E+05  2.823061E+04  2.004116E+04  2.416760E+04 -1.927793E-09  3.133843E-09
       209  19 -5.939460E+05 -9.833958E+03 -1.061225E+04  2.371338E+04  8.814757E+02 -2.039652E+03
       209  20 -6.315305E+05 -1.901603E+04 -1.987141E+04  1.620195E+04 -5.504970E+02 -4.247194E+03
       209  21 -6.694236E+05 -2.836891E+04 -3.012558E+04  2.358088E+04 -1.982656E+03 -6.435631E+03
       209  22 -5.530894E+05  1.322751E+02 -1.667387E+03  2.387377E+04 -1.242328E+03 -2.044433E+03
       209  23 -5.529376E+05  1.154818E+02 -2.863549E+03  1.642888E+04 -2.656100E+03 -4.251838E+03
       209  24 -5.530917E+05 -6.868131E+01 -5.041745E+03  2.387423E+04 -4.070142E+03 -6.440145E+03
       209  25 -5.122313E+05  1.009840E+04  7.277388E+03  2.403417E+04 -3.366269E+03 -2.049214E+03
       209  26 -4.743388E+05  1.924659E+04  1.414396E+04  1.665584E+04 -4.761965E+03 -4.256484E+03
       209  27 -4.367472E+05  2.823066E+04  2.004131E+04  2.416763E+04 -6.158015E+03 -6.444661E+03
       210   1 -6.997209E+05 -3.528600E+04 -3.834248E+04  2.279514E+04  2.893776E+03  7.753183E+03
       210   2 -7.364103E+05 -4.462600E+04 -5.128448E+04  1.647567E+04  8.997233E+03  9.857918E+03
       210   3 -7.750075E+05 -5.815011E+04 -6.926568E+04  2.499376E+04  1.510156E+04  1.156531E+04
       210   4 -5.534348E+05  3.482344E+02 -6.585639E+03  2.385975E+04  5.091310E+03  7.757845E+03
       210   5 -5.525170E+05  1.501243E+02 -1.142670E+04  1.644584E+04  1.081516E+04  9.861545E+03
       210   6 -5.534416E+05 -4.165196E+03 -2.104190E+04  2.386928E+04  1.654024E+04  1.156794E+04
       210   7 -4.071286E+05  3.598106E+04  2.516995E+04  2.492460E+04  7.289356E+03  7.762514E+03
       210   8 -3.685920E+05  4.492401E+04  2.842909E+04  1.641598E+04  1.263362E+04  9.865171E+03
       210   9 -3.318297E+05  4.981646E+04  2.717895E+04  2.274437E+04  1.797943E+04  1.157057E+04
       210  10 -6.997209E+05 -3.528607E+04 -3.834261E+04  2.279512E+04 -1.576251E-08 -5.347468E-09
       210  11 -7.364104E+05 -4.462613E+04 -5.128481E+04  1.647560E+04 -1.061750E-09  1.742469E-09
       210  12 -7.750078E+05 -5.815031E+04 -6.926636E+04  2.499362E+04  1.314583E-08 -1.712631E-09
       210  13 -5.534348E+05  3.481628E+02 -6.585801E+03  2.385972E+04 -7.540467E-10 -6.066038E-09
       210  14 -5.525172E+05  1.499885E+02 -1.142710E+04  1.644575E+04 -6.698920E-10  2.087036E-09
       210  15 -5.534420E+05 -4.165413E+03 -2.104266E+04  2.386913E+04  1.737293E-09  1.275085E-09
       210  16 -4.071286E+05  3.598098E+04  2.516973E+04  2.492456E+04  1.753447E-08 -3.803713E-09
       210  17 -3.685922E+05  4.492387E+04  2.842860E+04  1.641588E+04 -9.451929E-10 -8.450805E-09
       210  18 -3.318301E+05  4.981623E+04  2.717809E+04  2.274420E+04 -1.545684E-08  2.044775E-09
       210  19 -6.997209E+05 -3.528600E+04 -3.834248E+04  2.279514E+04 -2.893776E+03 -7.753183E+03
       210  20 -7.364103E+05 -4.462600E+04 -5.128448E+04  1.647567E+04 -8.997233E+03 -9.857918E+03
       210  21 -7.750075E+05 -5.815011E+04 -6.926568E+04  2.499376E+04 -1.510156E+04 -1.156531E+04
       210  22 -5.534348E+05  3.482344E+02 -6.585639E+03  2.385975E+04 -5.091310E+03 -7.757845E+03
       210  23 -5.525170E+05  1.501243E+02 -1.142670E+04  1.644584E+04 -1.081516E+04 -9.861545E+03
       210  24 -5.534416E+05 -4.165196E+03 -2.104190E+04  2.386928E+04 -1.654024E+04 -1.156794E+04
       210  25 -4.071286E+05  3.598106E+04  2.516995E+04  2.492460E+04 -7.289356E+03 -7.762514E+03
       210  26 -3.685920E+05  4.492401E+04  2.842909E+04  1.641598E+04 -1.263362E+04 -9.865171E+03
       210  27 -3.318297E+05  4.981646E+04  2.717895E+04  2.274437E+04 -1.797943E+04 -1.157057E+04
       211   1 -8.095869E+05 -5.735598E+04 -8.106952E+04  1.161248E+04  1.636627E+04  1.353578E+04
       211   2 -8.352735E+05 -7.154968E+04 -1.094369E+05  3.068593E+04  4.877432E+04  1.331412E+04
       211   3 -8.848793E+05 -1.643271E+05 -1.785761E+05  6.422364E+04  8.119526E+04  4.398377E+03
       211   4 -5.580232E+05  3.955759E+03 -2.655607E+04  2.374007E+04  2.026648E+04  1.354356E+04
       211   5 -5.468064E+05 -1.097474E+03 -4.553799E+04  1.658972E+04  4.434432E+04  1.330401E+04
       211   6 -5.580527E+05 -8.326960E+04 -9.949138E+04  2.390587E+04  6.843761E+04  4.369451E+03
       211   7 -3.063997E+05  6.526385E+04  2.795375E+04  3.587262E+04  2.416824E+04  1.355150E+04
       211   8 -2.582610E+05  6.934989E+04  1.835598E+04  2.486845E+03  3.991229E+04  1.329410E+04
       211   9 -2.311244E+05 -2.213642E+03 -2.041280E+04 -1.643326E+04  5.567325E+04  4.342192E+03
       211  10 -8.095872E+05 -5.735624E+04 -8.107037E+04  1.161230E+04  6.728157E-09 -1.421508E-09
       211  11 -8.352761E+05 -7.155051E+04 -1.094417E+05  3.068541E+04  7.074909E-09 -1.314216E-09
       211  12 -8.848864E+05 -1.643289E+05 -1.785886E+05  6.422335E+04 -2.150996E-10  4.367256E-09
       211  13 -5.580237E+05  3.955451E+03 -2.655719E+04  2.373985E+04 -1.066700E-09  2.392317E-09
       211  14 -5.468085E+05 -1.098193E+03 -4.554202E+04  1.658925E+04 -3.174352E-09  4.890900E-09
       211  15 -5.580577E+05 -8.327088E+04 -9.950022E+04  2.390563E+04 -3.163895E-10  2.395721E-09
       211  16 -3.064003E+05  6.526350E+04  2.795230E+04  3.587235E+04 -5.030478E-09  5.180721E-09
       211  17 -2.582627E+05  6.934927E+04  1.835265E+04  2.486418E+03 -6.539995E-09  7.800207E-09
       211  18 -2.311278E+05 -2.214495E+03 -2.041866E+04 -1.643346E+04 -3.899994E-09  1.499763E-09
       211  19 -8.095869E+05 -5.735598E+04 -8.106952E+04  1.161248E+04 -1.636627E+04 -1.353578E+04
       211  20 -8.352735E+05 -7.154968E+04 -1.094369E+05  3.068593E+04 -4.877432E+04 -1.331412E+04
       211  21 -8.848793E+05 -1.643271E+05 -1.785761E+05  6.422364E+04 -8.119526E+04 -4.398377E+03
       211  22 -5.580232E+05  3.955759E+03 -2.655607E+04  2.374007E+04 -2.026648E+04 -1.354356E+04
       211  23 -5.468064E+05 -1.097474E+03 -4.553799E+04  1.658972E+04 -4.434432E+04 -1.330401E+04
       211  24 -5.580527E+05 -8.326960E+04 -9.949138E+04  2.390587E+04 -6.843761E+04 -4.369451E+03
       211  25 -3.063997E+05  6.526385E+04  2.795375E+04  3.587262E+04 -2.416824E+04 -1.355150E+04
       211  26 -2.582610E+05  6.934989E+04  1.835598E+04  2.486845E+03 -3.991229E+04 -1.329410E+04
       211  27 -2.311244E+05 -2.213642E+03 -2.041280E+04 -1.643326E+04 -5.567325E+04 -4.342192E+03
