    1C
    1UUSER                                                              
    1UDATE              11.october.2022                                 
    1UTIME              18:40:01                                        
    1UHOST                                                              
    1UPGM               CalculiX                                        
    1UVERSION           Version 2.20                             
    1UCOMPILETIME       Sun Jul 31 18:08:37 CEST 2022                    
    1UDIR                                                               
    1UDBN                                                               
    1UMAT    1MESH_MATERIAL                                             
    2C                           409                                     1
 -1         1 0.00000E+00 0.00000E+00 0.00000E+00
 -1         2 1.66667E-02 0.00000E+00 0.00000E+00
 -1         3 3.33333E-02 0.00000E+00 0.00000E+00
 -1         5 6.66667E-02 0.00000E+00 0.00000E+00
 -1         8 0.00000E+00 6.25000E-03 0.00000E+00
 -1         9 1.66667E-02 6.25000E-03 0.00000E+00
 -1        10 3.33333E-02 6.25000E-03 0.00000E+00
 -1        12 6.66667E-02 6.25000E-03 0.00000E+00
 -1        15 0.00000E+00 1.25000E-02 0.00000E+00
 -1        16 1.66667E-02 1.25000E-02 0.00000E+00
 -1        17 3.33333E-02 1.25000E-02 0.00000E+00
 -1        18 5.00000E-02 1.25000E-02 0.00000E+00
 -1        19 6.66667E-02 1.25000E-02 0.00000E+00
 -1        20 8.33333E-02 1.25000E-02 0.00000E+00
 -1        21 1.00000E-01 1.25000E-02 0.00000E+00
 -1        24 3.33333E-02 1.87500E-02 0.00000E+00
 -1        25 5.00000E-02 1.87500E-02 0.00000E+00
 -1        26 6.66667E-02 1.87500E-02 0.00000E+00
 -1        27 8.33333E-02 1.87500E-02 0.00000E+00
 -1        28 1.00000E-01 1.87500E-02 0.00000E+00
 -1        32 5.00000E-02 2.50000E-02 0.00000E+00
 -1        33 6.66667E-02 2.50000E-02 0.00000E+00
 -1        34 8.33333E-02 2.50000E-02 0.00000E+00
 -1        35 1.00000E-01 2.50000E-02 0.00000E+00
 -1        51 0.00000E+00 1.04167E-03 0.00000E+00
 -1        52 0.00000E+00 2.08333E-03 0.00000E+00
 -1        53 0.00000E+00 3.12500E-03 0.00000E+00
 -1        54 0.00000E+00 4.16667E-03 0.00000E+00
 -1        55 0.00000E+00 5.20833E-03 0.00000E+00
 -1        56 1.04167E-03 3.90630E-04 0.00000E+00
 -1        57 2.08333E-03 7.81250E-04 0.00000E+00
 -1        58 3.12500E-03 1.17188E-03 0.00000E+00
 -1        59 4.16667E-03 1.56250E-03 0.00000E+00
 -1        60 5.20833E-03 1.95312E-03 0.00000E+00
 -1        61 6.25000E-03 2.34375E-03 0.00000E+00
 -1        62 7.29167E-03 2.73438E-03 0.00000E+00
 -1        63 8.33333E-03 3.12500E-03 0.00000E+00
 -1        64 9.37500E-03 3.51563E-03 0.00000E+00
 -1        65 1.04167E-02 3.90625E-03 0.00000E+00
 -1        66 1.14583E-02 4.29688E-03 0.00000E+00
 -1        67 1.25000E-02 4.68750E-03 0.00000E+00
 -1        68 1.35417E-02 5.07813E-03 0.00000E+00
 -1        69 1.45833E-02 5.46875E-03 0.00000E+00
 -1        70 1.56250E-02 5.85938E-03 0.00000E+00
 -1        86 1.66667E-02 1.04167E-03 0.00000E+00
 -1        87 1.66667E-02 2.08333E-03 0.00000E+00
 -1        88 1.66667E-02 3.12500E-03 0.00000E+00
 -1        89 1.66667E-02 4.16667E-03 0.00000E+00
 -1        90 1.66667E-02 5.20833E-03 0.00000E+00
 -1       121 3.33333E-02 1.04167E-03 0.00000E+00
 -1       122 3.33333E-02 2.08333E-03 0.00000E+00
 -1       123 3.33333E-02 3.12500E-03 0.00000E+00
 -1       124 3.33333E-02 4.16667E-03 0.00000E+00
 -1       125 3.33333E-02 5.20833E-03 0.00000E+00
 -1       191 6.66667E-02 1.04167E-03 0.00000E+00
 -1       192 6.66667E-02 2.08333E-03 0.00000E+00
 -1       193 6.66667E-02 3.12500E-03 0.00000E+00
 -1       194 6.66667E-02 4.16667E-03 0.00000E+00
 -1       195 6.66667E-02 5.20833E-03 0.00000E+00
 -1       251 1.04167E-03 6.25000E-03 0.00000E+00
 -1       252 2.08333E-03 6.25000E-03 0.00000E+00
 -1       253 3.12500E-03 6.25000E-03 0.00000E+00
 -1       254 4.16667E-03 6.25000E-03 0.00000E+00
 -1       255 5.20833E-03 6.25000E-03 0.00000E+00
 -1       256 6.25000E-03 6.25000E-03 0.00000E+00
 -1       257 7.29167E-03 6.25000E-03 0.00000E+00
 -1       258 8.33333E-03 6.25000E-03 0.00000E+00
 -1       259 9.37500E-03 6.25000E-03 0.00000E+00
 -1       260 1.04167E-02 6.25000E-03 0.00000E+00
 -1       261 1.14583E-02 6.25000E-03 0.00000E+00
 -1       262 1.25000E-02 6.25000E-03 0.00000E+00
 -1       263 1.35417E-02 6.25000E-03 0.00000E+00
 -1       264 1.45833E-02 6.25000E-03 0.00000E+00
 -1       265 1.56250E-02 6.25000E-03 0.00000E+00
 -1       266 0.00000E+00 7.29167E-03 0.00000E+00
 -1       267 0.00000E+00 8.33333E-03 0.00000E+00
 -1       268 0.00000E+00 9.37500E-03 0.00000E+00
 -1       269 0.00000E+00 1.04167E-02 0.00000E+00
 -1       270 0.00000E+00 1.14583E-02 0.00000E+00
 -1       271 1.04167E-03 6.64063E-03 0.00000E+00
 -1       272 2.08333E-03 7.03125E-03 0.00000E+00
 -1       273 3.12500E-03 7.42188E-03 0.00000E+00
 -1       274 4.16667E-03 7.81250E-03 0.00000E+00
 -1       275 5.20833E-03 8.20313E-03 0.00000E+00
 -1       276 6.25000E-03 8.59375E-03 0.00000E+00
 -1       277 7.29167E-03 8.98438E-03 0.00000E+00
 -1       278 8.33333E-03 9.37500E-03 0.00000E+00
 -1       279 9.37500E-03 9.76562E-03 0.00000E+00
 -1       280 1.04167E-02 1.01562E-02 0.00000E+00
 -1       281 1.14583E-02 1.05469E-02 0.00000E+00
 -1       282 1.25000E-02 1.09375E-02 0.00000E+00
 -1       283 1.35417E-02 1.13281E-02 0.00000E+00
 -1       284 1.45833E-02 1.17188E-02 0.00000E+00
 -1       285 1.56250E-02 1.21094E-02 0.00000E+00
 -1       301 1.66667E-02 7.29167E-03 0.00000E+00
 -1       302 1.66667E-02 8.33333E-03 0.00000E+00
 -1       303 1.66667E-02 9.37500E-03 0.00000E+00
 -1       304 1.66667E-02 1.04167E-02 0.00000E+00
 -1       305 1.66667E-02 1.14583E-02 0.00000E+00
 -1       306 1.77083E-02 6.64063E-03 0.00000E+00
 -1       307 1.87500E-02 7.03125E-03 0.00000E+00
 -1       308 1.97917E-02 7.42188E-03 0.00000E+00
 -1       309 2.08333E-02 7.81250E-03 0.00000E+00
 -1       310 2.18750E-02 8.20313E-03 0.00000E+00
 -1       311 2.29167E-02 8.59375E-03 0.00000E+00
 -1       312 2.39583E-02 8.98438E-03 0.00000E+00
 -1       313 2.50000E-02 9.37500E-03 0.00000E+00
 -1       314 2.60417E-02 9.76562E-03 0.00000E+00
 -1       315 2.70833E-02 1.01562E-02 0.00000E+00
 -1       316 2.81250E-02 1.05469E-02 0.00000E+00
 -1       317 2.91667E-02 1.09375E-02 0.00000E+00
 -1       318 3.02083E-02 1.13281E-02 0.00000E+00
 -1       319 3.12500E-02 1.17188E-02 0.00000E+00
 -1       320 3.22917E-02 1.21094E-02 0.00000E+00
 -1       336 3.33333E-02 7.29167E-03 0.00000E+00
 -1       337 3.33333E-02 8.33333E-03 0.00000E+00
 -1       338 3.33333E-02 9.37500E-03 0.00000E+00
 -1       339 3.33333E-02 1.04167E-02 0.00000E+00
 -1       340 3.33333E-02 1.14583E-02 0.00000E+00
 -1       406 6.66667E-02 7.29167E-03 0.00000E+00
 -1       407 6.66667E-02 8.33333E-03 0.00000E+00
 -1       408 6.66667E-02 9.37500E-03 0.00000E+00
 -1       409 6.66667E-02 1.04167E-02 0.00000E+00
 -1       410 6.66667E-02 1.14583E-02 0.00000E+00
 -1       521 1.77083E-02 1.28906E-02 0.00000E+00
 -1       522 1.87500E-02 1.32813E-02 0.00000E+00
 -1       523 1.97917E-02 1.36719E-02 0.00000E+00
 -1       524 2.08333E-02 1.40625E-02 0.00000E+00
 -1       525 2.18750E-02 1.44531E-02 0.00000E+00
 -1       526 2.29167E-02 1.48437E-02 0.00000E+00
 -1       527 2.39583E-02 1.52344E-02 0.00000E+00
 -1       528 2.50000E-02 1.56250E-02 0.00000E+00
 -1       529 2.60417E-02 1.60156E-02 0.00000E+00
 -1       530 2.70833E-02 1.64062E-02 0.00000E+00
 -1       531 2.81250E-02 1.67969E-02 0.00000E+00
 -1       532 2.91667E-02 1.71875E-02 0.00000E+00
 -1       533 3.02083E-02 1.75781E-02 0.00000E+00
 -1       534 3.12500E-02 1.79687E-02 0.00000E+00
 -1       535 3.22917E-02 1.83594E-02 0.00000E+00
 -1       536 3.43750E-02 1.25000E-02 0.00000E+00
 -1       537 3.54167E-02 1.25000E-02 0.00000E+00
 -1       538 3.64583E-02 1.25000E-02 0.00000E+00
 -1       539 3.75000E-02 1.25000E-02 0.00000E+00
 -1       540 3.85417E-02 1.25000E-02 0.00000E+00
 -1       541 3.95833E-02 1.25000E-02 0.00000E+00
 -1       542 4.06250E-02 1.25000E-02 0.00000E+00
 -1       543 4.16667E-02 1.25000E-02 0.00000E+00
 -1       544 4.27083E-02 1.25000E-02 0.00000E+00
 -1       545 4.37500E-02 1.25000E-02 0.00000E+00
 -1       546 4.47917E-02 1.25000E-02 0.00000E+00
 -1       547 4.58333E-02 1.25000E-02 0.00000E+00
 -1       548 4.68750E-02 1.25000E-02 0.00000E+00
 -1       549 4.79167E-02 1.25000E-02 0.00000E+00
 -1       550 4.89583E-02 1.25000E-02 0.00000E+00
 -1       551 3.33333E-02 1.35417E-02 0.00000E+00
 -1       552 3.33333E-02 1.45833E-02 0.00000E+00
 -1       553 3.33333E-02 1.56250E-02 0.00000E+00
 -1       554 3.33333E-02 1.66667E-02 0.00000E+00
 -1       555 3.33333E-02 1.77083E-02 0.00000E+00
 -1       556 3.43750E-02 1.28906E-02 0.00000E+00
 -1       557 3.54167E-02 1.32813E-02 0.00000E+00
 -1       558 3.64583E-02 1.36719E-02 0.00000E+00
 -1       559 3.75000E-02 1.40625E-02 0.00000E+00
 -1       560 3.85417E-02 1.44531E-02 0.00000E+00
 -1       561 3.95833E-02 1.48437E-02 0.00000E+00
 -1       562 4.06250E-02 1.52344E-02 0.00000E+00
 -1       563 4.16667E-02 1.56250E-02 0.00000E+00
 -1       564 4.27083E-02 1.60156E-02 0.00000E+00
 -1       565 4.37500E-02 1.64062E-02 0.00000E+00
 -1       566 4.47917E-02 1.67969E-02 0.00000E+00
 -1       567 4.58333E-02 1.71875E-02 0.00000E+00
 -1       568 4.68750E-02 1.75781E-02 0.00000E+00
 -1       569 4.79167E-02 1.79687E-02 0.00000E+00
 -1       570 4.89583E-02 1.83594E-02 0.00000E+00
 -1       571 5.10417E-02 1.25000E-02 0.00000E+00
 -1       572 5.20833E-02 1.25000E-02 0.00000E+00
 -1       573 5.31250E-02 1.25000E-02 0.00000E+00
 -1       574 5.41667E-02 1.25000E-02 0.00000E+00
 -1       575 5.52083E-02 1.25000E-02 0.00000E+00
 -1       576 5.62500E-02 1.25000E-02 0.00000E+00
 -1       577 5.72917E-02 1.25000E-02 0.00000E+00
 -1       578 5.83333E-02 1.25000E-02 0.00000E+00
 -1       579 5.93750E-02 1.25000E-02 0.00000E+00
 -1       580 6.04167E-02 1.25000E-02 0.00000E+00
 -1       581 6.14583E-02 1.25000E-02 0.00000E+00
 -1       582 6.25000E-02 1.25000E-02 0.00000E+00
 -1       583 6.35417E-02 1.25000E-02 0.00000E+00
 -1       584 6.45833E-02 1.25000E-02 0.00000E+00
 -1       585 6.56250E-02 1.25000E-02 0.00000E+00
 -1       586 5.00000E-02 1.35417E-02 0.00000E+00
 -1       587 5.00000E-02 1.45833E-02 0.00000E+00
 -1       588 5.00000E-02 1.56250E-02 0.00000E+00
 -1       589 5.00000E-02 1.66667E-02 0.00000E+00
 -1       590 5.00000E-02 1.77083E-02 0.00000E+00
 -1       591 5.10417E-02 1.28906E-02 0.00000E+00
 -1       592 5.20833E-02 1.32813E-02 0.00000E+00
 -1       593 5.31250E-02 1.36719E-02 0.00000E+00
 -1       594 5.41667E-02 1.40625E-02 0.00000E+00
 -1       595 5.52083E-02 1.44531E-02 0.00000E+00
 -1       596 5.62500E-02 1.48437E-02 0.00000E+00
 -1       597 5.72917E-02 1.52344E-02 0.00000E+00
 -1       598 5.83333E-02 1.56250E-02 0.00000E+00
 -1       599 5.93750E-02 1.60156E-02 0.00000E+00
 -1       600 6.04167E-02 1.64062E-02 0.00000E+00
 -1       601 6.14583E-02 1.67969E-02 0.00000E+00
 -1       602 6.25000E-02 1.71875E-02 0.00000E+00
 -1       603 6.35417E-02 1.75781E-02 0.00000E+00
 -1       604 6.45833E-02 1.79687E-02 0.00000E+00
 -1       605 6.56250E-02 1.83594E-02 0.00000E+00
 -1       606 6.77083E-02 1.25000E-02 0.00000E+00
 -1       607 6.87500E-02 1.25000E-02 0.00000E+00
 -1       608 6.97917E-02 1.25000E-02 0.00000E+00
 -1       609 7.08333E-02 1.25000E-02 0.00000E+00
 -1       610 7.18750E-02 1.25000E-02 0.00000E+00
 -1       611 7.29167E-02 1.25000E-02 0.00000E+00
 -1       612 7.39583E-02 1.25000E-02 0.00000E+00
 -1       613 7.50000E-02 1.25000E-02 0.00000E+00
 -1       614 7.60417E-02 1.25000E-02 0.00000E+00
 -1       615 7.70833E-02 1.25000E-02 0.00000E+00
 -1       616 7.81250E-02 1.25000E-02 0.00000E+00
 -1       617 7.91667E-02 1.25000E-02 0.00000E+00
 -1       618 8.02083E-02 1.25000E-02 0.00000E+00
 -1       619 8.12500E-02 1.25000E-02 0.00000E+00
 -1       620 8.22917E-02 1.25000E-02 0.00000E+00
 -1       621 6.66667E-02 1.35417E-02 0.00000E+00
 -1       622 6.66667E-02 1.45833E-02 0.00000E+00
 -1       623 6.66667E-02 1.56250E-02 0.00000E+00
 -1       624 6.66667E-02 1.66667E-02 0.00000E+00
 -1       625 6.66667E-02 1.77083E-02 0.00000E+00
 -1       626 6.77083E-02 1.28906E-02 0.00000E+00
 -1       627 6.87500E-02 1.32813E-02 0.00000E+00
 -1       628 6.97917E-02 1.36719E-02 0.00000E+00
 -1       629 7.08333E-02 1.40625E-02 0.00000E+00
 -1       630 7.18750E-02 1.44531E-02 0.00000E+00
 -1       631 7.29167E-02 1.48437E-02 0.00000E+00
 -1       632 7.39583E-02 1.52344E-02 0.00000E+00
 -1       633 7.50000E-02 1.56250E-02 0.00000E+00
 -1       634 7.60417E-02 1.60156E-02 0.00000E+00
 -1       635 7.70833E-02 1.64062E-02 0.00000E+00
 -1       636 7.81250E-02 1.67969E-02 0.00000E+00
 -1       637 7.91667E-02 1.71875E-02 0.00000E+00
 -1       638 8.02083E-02 1.75781E-02 0.00000E+00
 -1       639 8.12500E-02 1.79687E-02 0.00000E+00
 -1       640 8.22917E-02 1.83594E-02 0.00000E+00
 -1       656 8.33333E-02 1.35417E-02 0.00000E+00
 -1       657 8.33333E-02 1.45833E-02 0.00000E+00
 -1       658 8.33333E-02 1.56250E-02 0.00000E+00
 -1       659 8.33333E-02 1.66667E-02 0.00000E+00
 -1       660 8.33333E-02 1.77083E-02 0.00000E+00
 -1       661 8.43750E-02 1.28906E-02 0.00000E+00
 -1       662 8.54167E-02 1.32813E-02 0.00000E+00
 -1       663 8.64583E-02 1.36719E-02 0.00000E+00
 -1       664 8.75000E-02 1.40625E-02 0.00000E+00
 -1       665 8.85417E-02 1.44531E-02 0.00000E+00
 -1       666 8.95833E-02 1.48437E-02 0.00000E+00
 -1       667 9.06250E-02 1.52344E-02 0.00000E+00
 -1       668 9.16667E-02 1.56250E-02 0.00000E+00
 -1       669 9.27083E-02 1.60156E-02 0.00000E+00
 -1       670 9.37500E-02 1.64062E-02 0.00000E+00
 -1       671 9.47917E-02 1.67969E-02 0.00000E+00
 -1       672 9.58333E-02 1.71875E-02 0.00000E+00
 -1       673 9.68750E-02 1.75781E-02 0.00000E+00
 -1       674 9.79167E-02 1.79687E-02 0.00000E+00
 -1       675 9.89583E-02 1.83594E-02 0.00000E+00
 -1       676 1.00000E-01 1.35417E-02 0.00000E+00
 -1       677 1.00000E-01 1.45833E-02 0.00000E+00
 -1       678 1.00000E-01 1.56250E-02 0.00000E+00
 -1       679 1.00000E-01 1.66667E-02 0.00000E+00
 -1       680 1.00000E-01 1.77083E-02 0.00000E+00
 -1       771 3.43750E-02 1.91406E-02 0.00000E+00
 -1       772 3.54167E-02 1.95312E-02 0.00000E+00
 -1       773 3.64583E-02 1.99219E-02 0.00000E+00
 -1       774 3.75000E-02 2.03125E-02 0.00000E+00
 -1       775 3.85417E-02 2.07031E-02 0.00000E+00
 -1       776 3.95833E-02 2.10938E-02 0.00000E+00
 -1       777 4.06250E-02 2.14844E-02 0.00000E+00
 -1       778 4.16667E-02 2.18750E-02 0.00000E+00
 -1       779 4.27083E-02 2.22656E-02 0.00000E+00
 -1       780 4.37500E-02 2.26563E-02 0.00000E+00
 -1       781 4.47917E-02 2.30469E-02 0.00000E+00
 -1       782 4.58333E-02 2.34375E-02 0.00000E+00
 -1       783 4.68750E-02 2.38281E-02 0.00000E+00
 -1       784 4.79167E-02 2.42187E-02 0.00000E+00
 -1       785 4.89583E-02 2.46094E-02 0.00000E+00
 -1       786 5.10417E-02 1.87500E-02 0.00000E+00
 -1       787 5.20833E-02 1.87500E-02 0.00000E+00
 -1       788 5.31250E-02 1.87500E-02 0.00000E+00
 -1       789 5.41667E-02 1.87500E-02 0.00000E+00
 -1       790 5.52083E-02 1.87500E-02 0.00000E+00
 -1       791 5.62500E-02 1.87500E-02 0.00000E+00
 -1       792 5.72917E-02 1.87500E-02 0.00000E+00
 -1       793 5.83333E-02 1.87500E-02 0.00000E+00
 -1       794 5.93750E-02 1.87500E-02 0.00000E+00
 -1       795 6.04167E-02 1.87500E-02 0.00000E+00
 -1       796 6.14583E-02 1.87500E-02 0.00000E+00
 -1       797 6.25000E-02 1.87500E-02 0.00000E+00
 -1       798 6.35417E-02 1.87500E-02 0.00000E+00
 -1       799 6.45833E-02 1.87500E-02 0.00000E+00
 -1       800 6.56250E-02 1.87500E-02 0.00000E+00
 -1       801 5.00000E-02 1.97917E-02 0.00000E+00
 -1       802 5.00000E-02 2.08333E-02 0.00000E+00
 -1       803 5.00000E-02 2.18750E-02 0.00000E+00
 -1       804 5.00000E-02 2.29167E-02 0.00000E+00
 -1       805 5.00000E-02 2.39583E-02 0.00000E+00
 -1       806 5.10417E-02 1.91406E-02 0.00000E+00
 -1       807 5.20833E-02 1.95312E-02 0.00000E+00
 -1       808 5.31250E-02 1.99219E-02 0.00000E+00
 -1       809 5.41667E-02 2.03125E-02 0.00000E+00
 -1       810 5.52083E-02 2.07031E-02 0.00000E+00
 -1       811 5.62500E-02 2.10938E-02 0.00000E+00
 -1       812 5.72917E-02 2.14844E-02 0.00000E+00
 -1       813 5.83333E-02 2.18750E-02 0.00000E+00
 -1       814 5.93750E-02 2.22656E-02 0.00000E+00
 -1       815 6.04167E-02 2.26563E-02 0.00000E+00
 -1       816 6.14583E-02 2.30469E-02 0.00000E+00
 -1       817 6.25000E-02 2.34375E-02 0.00000E+00
 -1       818 6.35417E-02 2.38281E-02 0.00000E+00
 -1       819 6.45833E-02 2.42187E-02 0.00000E+00
 -1       820 6.56250E-02 2.46094E-02 0.00000E+00
 -1       821 6.77083E-02 1.87500E-02 0.00000E+00
 -1       822 6.87500E-02 1.87500E-02 0.00000E+00
 -1       823 6.97917E-02 1.87500E-02 0.00000E+00
 -1       824 7.08333E-02 1.87500E-02 0.00000E+00
 -1       825 7.18750E-02 1.87500E-02 0.00000E+00
 -1       826 7.29167E-02 1.87500E-02 0.00000E+00
 -1       827 7.39583E-02 1.87500E-02 0.00000E+00
 -1       828 7.50000E-02 1.87500E-02 0.00000E+00
 -1       829 7.60417E-02 1.87500E-02 0.00000E+00
 -1       830 7.70833E-02 1.87500E-02 0.00000E+00
 -1       831 7.81250E-02 1.87500E-02 0.00000E+00
 -1       832 7.91667E-02 1.87500E-02 0.00000E+00
 -1       833 8.02083E-02 1.87500E-02 0.00000E+00
 -1       834 8.12500E-02 1.87500E-02 0.00000E+00
 -1       835 8.22917E-02 1.87500E-02 0.00000E+00
 -1       836 6.66667E-02 1.97917E-02 0.00000E+00
 -1       837 6.66667E-02 2.08333E-02 0.00000E+00
 -1       838 6.66667E-02 2.18750E-02 0.00000E+00
 -1       839 6.66667E-02 2.29167E-02 0.00000E+00
 -1       840 6.66667E-02 2.39583E-02 0.00000E+00
 -1       856 8.43750E-02 1.87500E-02 0.00000E+00
 -1       857 8.54167E-02 1.87500E-02 0.00000E+00
 -1       858 8.64583E-02 1.87500E-02 0.00000E+00
 -1       859 8.75000E-02 1.87500E-02 0.00000E+00
 -1       860 8.85417E-02 1.87500E-02 0.00000E+00
 -1       861 8.95833E-02 1.87500E-02 0.00000E+00
 -1       862 9.06250E-02 1.87500E-02 0.00000E+00
 -1       863 9.16667E-02 1.87500E-02 0.00000E+00
 -1       864 9.27083E-02 1.87500E-02 0.00000E+00
 -1       865 9.37500E-02 1.87500E-02 0.00000E+00
 -1       866 9.47917E-02 1.87500E-02 0.00000E+00
 -1       867 9.58333E-02 1.87500E-02 0.00000E+00
 -1       868 9.68750E-02 1.87500E-02 0.00000E+00
 -1       869 9.79167E-02 1.87500E-02 0.00000E+00
 -1       870 9.89583E-02 1.87500E-02 0.00000E+00
 -1       871 8.33333E-02 1.97917E-02 0.00000E+00
 -1       872 8.33333E-02 2.08333E-02 0.00000E+00
 -1       873 8.33333E-02 2.18750E-02 0.00000E+00
 -1       874 8.33333E-02 2.29167E-02 0.00000E+00
 -1       875 8.33333E-02 2.39583E-02 0.00000E+00
 -1       876 8.43750E-02 1.91406E-02 0.00000E+00
 -1       877 8.54167E-02 1.95312E-02 0.00000E+00
 -1       878 8.64583E-02 1.99219E-02 0.00000E+00
 -1       879 8.75000E-02 2.03125E-02 0.00000E+00
 -1       880 8.85417E-02 2.07031E-02 0.00000E+00
 -1       881 8.95833E-02 2.10938E-02 0.00000E+00
 -1       882 9.06250E-02 2.14844E-02 0.00000E+00
 -1       883 9.16667E-02 2.18750E-02 0.00000E+00
 -1       884 9.27083E-02 2.22656E-02 0.00000E+00
 -1       885 9.37500E-02 2.26563E-02 0.00000E+00
 -1       886 9.47917E-02 2.30469E-02 0.00000E+00
 -1       887 9.58333E-02 2.34375E-02 0.00000E+00
 -1       888 9.68750E-02 2.38281E-02 0.00000E+00
 -1       889 9.79167E-02 2.42187E-02 0.00000E+00
 -1       890 9.89583E-02 2.46094E-02 0.00000E+00
 -1       891 1.00000E-01 1.97917E-02 0.00000E+00
 -1       892 1.00000E-01 2.08333E-02 0.00000E+00
 -1       893 1.00000E-01 2.18750E-02 0.00000E+00
 -1       894 1.00000E-01 2.29167E-02 0.00000E+00
 -1       895 1.00000E-01 2.39583E-02 0.00000E+00
 -1       956 6.77083E-02 2.50000E-02 0.00000E+00
 -1       957 6.87500E-02 2.50000E-02 0.00000E+00
 -1       958 6.97917E-02 2.50000E-02 0.00000E+00
 -1       959 7.08333E-02 2.50000E-02 0.00000E+00
 -1       960 7.18750E-02 2.50000E-02 0.00000E+00
 -1       961 7.29167E-02 2.50000E-02 0.00000E+00
 -1       962 7.39583E-02 2.50000E-02 0.00000E+00
 -1       963 7.50000E-02 2.50000E-02 0.00000E+00
 -1       964 7.60417E-02 2.50000E-02 0.00000E+00
 -1       965 7.70833E-02 2.50000E-02 0.00000E+00
 -1       966 7.81250E-02 2.50000E-02 0.00000E+00
 -1       967 7.91667E-02 2.50000E-02 0.00000E+00
 -1       968 8.02083E-02 2.50000E-02 0.00000E+00
 -1       969 8.12500E-02 2.50000E-02 0.00000E+00
 -1       970 8.22917E-02 2.50000E-02 0.00000E+00
 -1       971 8.43750E-02 2.50000E-02 0.00000E+00
 -1       972 8.54167E-02 2.50000E-02 0.00000E+00
 -1       973 8.64583E-02 2.50000E-02 0.00000E+00
 -1       974 8.75000E-02 2.50000E-02 0.00000E+00
 -1       975 8.85417E-02 2.50000E-02 0.00000E+00
 -1       976 8.95833E-02 2.50000E-02 0.00000E+00
 -1       977 9.06250E-02 2.50000E-02 0.00000E+00
 -1       978 9.16667E-02 2.50000E-02 0.00000E+00
 -1       979 9.27083E-02 2.50000E-02 0.00000E+00
 -1       980 9.37500E-02 2.50000E-02 0.00000E+00
 -1       981 9.47917E-02 2.50000E-02 0.00000E+00
 -1       982 9.58333E-02 2.50000E-02 0.00000E+00
 -1       983 9.68750E-02 2.50000E-02 0.00000E+00
 -1       984 9.79167E-02 2.50000E-02 0.00000E+00
 -1       985 9.89583E-02 2.50000E-02 0.00000E+00
 -3
    3C                           211                                     1
 -1         1   12    0    1
 -2         1        52        51
 -1         2   12    0    1
 -2        52        54        53
 -1         3   12    0    1
 -2        54         8        55
 -1         4   12    0    1
 -2         1        57        56
 -1         5   12    0    1
 -2        57        59        58
 -1         6   12    0    1
 -2        59        61        60
 -1         7   12    0    1
 -2        61        63        62
 -1         8   12    0    1
 -2        63        65        64
 -1         9   12    0    1
 -2        65        67        66
 -1        10   12    0    1
 -2        67        69        68
 -1        11   12    0    1
 -2        69         9        70
 -1        12   12    0    1
 -2         2        87        86
 -1        13   12    0    1
 -2        87        89        88
 -1        14   12    0    1
 -2        89         9        90
 -1        15   12    0    1
 -2         3       122       121
 -1        16   12    0    1
 -2       122       124       123
 -1        17   12    0    1
 -2       124        10       125
 -1        18   12    0    1
 -2         5       192       191
 -1        19   12    0    1
 -2       192       194       193
 -1        20   12    0    1
 -2       194        12       195
 -1        21   12    0    1
 -2         8       252       251
 -1        22   12    0    1
 -2       252       254       253
 -1        23   12    0    1
 -2       254       256       255
 -1        24   12    0    1
 -2       256       258       257
 -1        25   12    0    1
 -2       258       260       259
 -1        26   12    0    1
 -2       260       262       261
 -1        27   12    0    1
 -2       262       264       263
 -1        28   12    0    1
 -2       264         9       265
 -1        29   12    0    1
 -2         8       267       266
 -1        30   12    0    1
 -2       267       269       268
 -1        31   12    0    1
 -2       269        15       270
 -1        32   12    0    1
 -2         8       272       271
 -1        33   12    0    1
 -2       272       274       273
 -1        34   12    0    1
 -2       274       276       275
 -1        35   12    0    1
 -2       276       278       277
 -1        36   12    0    1
 -2       278       280       279
 -1        37   12    0    1
 -2       280       282       281
 -1        38   12    0    1
 -2       282       284       283
 -1        39   12    0    1
 -2       284        16       285
 -1        40   12    0    1
 -2         9       302       301
 -1        41   12    0    1
 -2       302       304       303
 -1        42   12    0    1
 -2       304        16       305
 -1        43   12    0    1
 -2         9       307       306
 -1        44   12    0    1
 -2       307       309       308
 -1        45   12    0    1
 -2       309       311       310
 -1        46   12    0    1
 -2       311       313       312
 -1        47   12    0    1
 -2       313       315       314
 -1        48   12    0    1
 -2       315       317       316
 -1        49   12    0    1
 -2       317       319       318
 -1        50   12    0    1
 -2       319        17       320
 -1        51   12    0    1
 -2        10       337       336
 -1        52   12    0    1
 -2       337       339       338
 -1        53   12    0    1
 -2       339        17       340
 -1        54   12    0    1
 -2        12       407       406
 -1        55   12    0    1
 -2       407       409       408
 -1        56   12    0    1
 -2       409        19       410
 -1        57   12    0    1
 -2        16       522       521
 -1        58   12    0    1
 -2       522       524       523
 -1        59   12    0    1
 -2       524       526       525
 -1        60   12    0    1
 -2       526       528       527
 -1        61   12    0    1
 -2       528       530       529
 -1        62   12    0    1
 -2       530       532       531
 -1        63   12    0    1
 -2       532       534       533
 -1        64   12    0    1
 -2       534        24       535
 -1        65   12    0    1
 -2        17       537       536
 -1        66   12    0    1
 -2       537       539       538
 -1        67   12    0    1
 -2       539       541       540
 -1        68   12    0    1
 -2       541       543       542
 -1        69   12    0    1
 -2       543       545       544
 -1        70   12    0    1
 -2       545       547       546
 -1        71   12    0    1
 -2       547       549       548
 -1        72   12    0    1
 -2       549        18       550
 -1        73   12    0    1
 -2        17       552       551
 -1        74   12    0    1
 -2       552       554       553
 -1        75   12    0    1
 -2       554        24       555
 -1        76   12    0    1
 -2        17       557       556
 -1        77   12    0    1
 -2       557       559       558
 -1        78   12    0    1
 -2       559       561       560
 -1        79   12    0    1
 -2       561       563       562
 -1        80   12    0    1
 -2       563       565       564
 -1        81   12    0    1
 -2       565       567       566
 -1        82   12    0    1
 -2       567       569       568
 -1        83   12    0    1
 -2       569        25       570
 -1        84   12    0    1
 -2        18       572       571
 -1        85   12    0    1
 -2       572       574       573
 -1        86   12    0    1
 -2       574       576       575
 -1        87   12    0    1
 -2       576       578       577
 -1        88   12    0    1
 -2       578       580       579
 -1        89   12    0    1
 -2       580       582       581
 -1        90   12    0    1
 -2       582       584       583
 -1        91   12    0    1
 -2       584        19       585
 -1        92   12    0    1
 -2        18       587       586
 -1        93   12    0    1
 -2       587       589       588
 -1        94   12    0    1
 -2       589        25       590
 -1        95   12    0    1
 -2        18       592       591
 -1        96   12    0    1
 -2       592       594       593
 -1        97   12    0    1
 -2       594       596       595
 -1        98   12    0    1
 -2       596       598       597
 -1        99   12    0    1
 -2       598       600       599
 -1       100   12    0    1
 -2       600       602       601
 -1       101   12    0    1
 -2       602       604       603
 -1       102   12    0    1
 -2       604        26       605
 -1       103   12    0    1
 -2        19       607       606
 -1       104   12    0    1
 -2       607       609       608
 -1       105   12    0    1
 -2       609       611       610
 -1       106   12    0    1
 -2       611       613       612
 -1       107   12    0    1
 -2       613       615       614
 -1       108   12    0    1
 -2       615       617       616
 -1       109   12    0    1
 -2       617       619       618
 -1       110   12    0    1
 -2       619        20       620
 -1       111   12    0    1
 -2        19       622       621
 -1       112   12    0    1
 -2       622       624       623
 -1       113   12    0    1
 -2       624        26       625
 -1       114   12    0    1
 -2        19       627       626
 -1       115   12    0    1
 -2       627       629       628
 -1       116   12    0    1
 -2       629       631       630
 -1       117   12    0    1
 -2       631       633       632
 -1       118   12    0    1
 -2       633       635       634
 -1       119   12    0    1
 -2       635       637       636
 -1       120   12    0    1
 -2       637       639       638
 -1       121   12    0    1
 -2       639        27       640
 -1       122   12    0    1
 -2        20       657       656
 -1       123   12    0    1
 -2       657       659       658
 -1       124   12    0    1
 -2       659        27       660
 -1       125   12    0    1
 -2        20       662       661
 -1       126   12    0    1
 -2       662       664       663
 -1       127   12    0    1
 -2       664       666       665
 -1       128   12    0    1
 -2       666       668       667
 -1       129   12    0    1
 -2       668       670       669
 -1       130   12    0    1
 -2       670       672       671
 -1       131   12    0    1
 -2       672       674       673
 -1       132   12    0    1
 -2       674        28       675
 -1       133   12    0    1
 -2        21       677       676
 -1       134   12    0    1
 -2       677       679       678
 -1       135   12    0    1
 -2       679        28       680
 -1       136   12    0    1
 -2        24       772       771
 -1       137   12    0    1
 -2       772       774       773
 -1       138   12    0    1
 -2       774       776       775
 -1       139   12    0    1
 -2       776       778       777
 -1       140   12    0    1
 -2       778       780       779
 -1       141   12    0    1
 -2       780       782       781
 -1       142   12    0    1
 -2       782       784       783
 -1       143   12    0    1
 -2       784        32       785
 -1       144   12    0    1
 -2        25       787       786
 -1       145   12    0    1
 -2       787       789       788
 -1       146   12    0    1
 -2       789       791       790
 -1       147   12    0    1
 -2       791       793       792
 -1       148   12    0    1
 -2       793       795       794
 -1       149   12    0    1
 -2       795       797       796
 -1       150   12    0    1
 -2       797       799       798
 -1       151   12    0    1
 -2       799        26       800
 -1       152   12    0    1
 -2        25       802       801
 -1       153   12    0    1
 -2       802       804       803
 -1       154   12    0    1
 -2       804        32       805
 -1       155   12    0    1
 -2        25       807       806
 -1       156   12    0    1
 -2       807       809       808
 -1       157   12    0    1
 -2       809       811       810
 -1       158   12    0    1
 -2       811       813       812
 -1       159   12    0    1
 -2       813       815       814
 -1       160   12    0    1
 -2       815       817       816
 -1       161   12    0    1
 -2       817       819       818
 -1       162   12    0    1
 -2       819        33       820
 -1       163   12    0    1
 -2        26       822       821
 -1       164   12    0    1
 -2       822       824       823
 -1       165   12    0    1
 -2       824       826       825
 -1       166   12    0    1
 -2       826       828       827
 -1       167   12    0    1
 -2       828       830       829
 -1       168   12    0    1
 -2       830       832       831
 -1       169   12    0    1
 -2       832       834       833
 -1       170   12    0    1
 -2       834        27       835
 -1       171   12    0    1
 -2        26       837       836
 -1       172   12    0    1
 -2       837       839       838
 -1       173   12    0    1
 -2       839        33       840
 -1       174   12    0    1
 -2        27       857       856
 -1       175   12    0    1
 -2       857       859       858
 -1       176   12    0    1
 -2       859       861       860
 -1       177   12    0    1
 -2       861       863       862
 -1       178   12    0    1
 -2       863       865       864
 -1       179   12    0    1
 -2       865       867       866
 -1       180   12    0    1
 -2       867       869       868
 -1       181   12    0    1
 -2       869        28       870
 -1       182   12    0    1
 -2        27       872       871
 -1       183   12    0    1
 -2       872       874       873
 -1       184   12    0    1
 -2       874        34       875
 -1       185   12    0    1
 -2        27       877       876
 -1       186   12    0    1
 -2       877       879       878
 -1       187   12    0    1
 -2       879       881       880
 -1       188   12    0    1
 -2       881       883       882
 -1       189   12    0    1
 -2       883       885       884
 -1       190   12    0    1
 -2       885       887       886
 -1       191   12    0    1
 -2       887       889       888
 -1       192   12    0    1
 -2       889        35       890
 -1       193   12    0    1
 -2        28       892       891
 -1       194   12    0    1
 -2       892       894       893
 -1       195   12    0    1
 -2       894        35       895
 -1       196   12    0    1
 -2        33       957       956
 -1       197   12    0    1
 -2       957       959       958
 -1       198   12    0    1
 -2       959       961       960
 -1       199   12    0    1
 -2       961       963       962
 -1       200   12    0    1
 -2       963       965       964
 -1       201   12    0    1
 -2       965       967       966
 -1       202   12    0    1
 -2       967       969       968
 -1       203   12    0    1
 -2       969        34       970
 -1       204   12    0    1
 -2        34       972       971
 -1       205   12    0    1
 -2       972       974       973
 -1       206   12    0    1
 -2       974       976       975
 -1       207   12    0    1
 -2       976       978       977
 -1       208   12    0    1
 -2       978       980       979
 -1       209   12    0    1
 -2       980       982       981
 -1       210   12    0    1
 -2       982       984       983
 -1       211   12    0    1
 -2       984        35       985
 -3
    1PSTEP                         1           1           1          
  100CL  101 2.50000E-01         409                     0    1           1
 -4  DISP        4    1
 -5  D1          1    2    1    0
 -5  D2          1    2    2    0
 -5  D3          1    2    3    0
 -5  ALL         1    2    0    0    1ALL
 -1         1 4.95273E-05 0.00000E+00 0.00000E+00
 -1         2 4.29558E-05 7.97701E-31 0.00000E+00
 -1         3 4.07061E-05-4.38513E-27 3.30872E-24
 -1         5 2.90451E-05 3.84775E-26 0.00000E+00
 -1         8 3.99259E-05-3.86600E-07 0.00000E+00
 -1         9 3.67884E-05-4.76417E-07 0.00000E+00
 -1        10 3.75468E-05-7.58070E-07-1.65436E-24
 -1        12 2.87454E-05 2.85437E-07 0.00000E+00
 -1        15 2.91038E-05-4.07499E-07 2.06795E-25
 -1        16 2.57249E-05-5.32829E-07 0.00000E+00
 -1        17 2.73067E-05-1.58569E-06 0.00000E+00
 -1        18 2.73174E-05-1.28862E-07 0.00000E+00
 -1        19 2.78464E-05 5.69255E-07 0.00000E+00
 -1        20 2.79912E-05 7.49155E-06 0.00000E+00
 -1        21 2.74085E-05 1.57731E-05 0.00000E+00
 -1        24 7.87262E-06-2.02644E-06 0.00000E+00
 -1        25 2.62573E-05-5.18989E-08 0.00000E+00
 -1        26 2.66781E-05 7.76841E-07 0.00000E+00
 -1        27 2.60553E-05 7.02804E-06 0.00000E+00
 -1        28 2.56377E-05 1.55320E-05 0.00000E+00
 -1        32 0.00000E+00 0.00000E+00 0.00000E+00
 -1        33 2.52079E-05 1.04447E-06 0.00000E+00
 -1        34 2.45410E-05 7.00415E-06 0.00000E+00
 -1        35 2.37697E-05 1.53995E-05 0.00000E+00
 -1        51 4.88491E-05-6.48523E-08 0.00000E+00
 -1        52 4.76690E-05-1.27565E-07 0.00000E+00
 -1        53 4.60846E-05-1.90155E-07 0.00000E+00
 -1        54 4.41977E-05-2.53328E-07-1.65436E-24
 -1        55 4.21106E-05-3.17763E-07-8.27181E-25
 -1        56 4.88754E-05-3.41560E-07 0.00000E+00
 -1        57 4.82568E-05-8.46953E-07 0.00000E+00
 -1        58 4.76817E-05-1.46382E-06 0.00000E+00
 -1        59 4.71275E-05-2.14959E-06 0.00000E+00
 -1        60 4.65805E-05-2.85513E-06-2.64698E-23
 -1        61 4.60223E-05-3.53276E-06 0.00000E+00
 -1        62 4.54359E-05-4.13562E-06 0.00000E+00
 -1        63 4.48044E-05-4.61847E-06-1.32349E-23
 -1        64 4.41128E-05-4.94101E-06 0.00000E+00
 -1        65 4.33472E-05-5.06583E-06 1.32349E-23
 -1        66 4.24966E-05-4.96388E-06 2.64698E-23
 -1        67 4.15521E-05-4.60995E-06 0.00000E+00
 -1        68 4.05078E-05-3.98987E-06 0.00000E+00
 -1        69 3.93636E-05-3.09263E-06 0.00000E+00
 -1        70 3.81150E-05-1.92213E-06 1.32349E-23
 -1        86 4.27656E-05-7.77871E-08 0.00000E+00
 -1        87 4.21957E-05-1.55824E-07 0.00000E+00
 -1        88 4.12742E-05-2.34126E-07 0.00000E+00
 -1        89 4.00305E-05-3.13463E-07 0.00000E+00
 -1        90 3.85173E-05-3.92914E-07 0.00000E+00
 -1       121 4.06181E-05-1.26119E-07 0.00000E+00
 -1       122 4.03542E-05-2.52271E-07-1.65436E-24
 -1       123 3.99146E-05-3.78487E-07-3.30872E-24
 -1       124 3.92998E-05-5.04821E-07 0.00000E+00
 -1       125 3.85102E-05-6.31267E-07-3.30872E-24
 -1       191 2.90368E-05 4.75761E-08 0.00000E+00
 -1       192 2.90118E-05 9.51514E-08 0.00000E+00
 -1       193 2.89702E-05 1.42726E-07 1.65436E-24
 -1       194 2.89119E-05 1.90300E-07-8.27181E-25
 -1       195 2.88369E-05 2.37870E-07 1.65436E-24
 -1       251 3.97305E-05 1.19269E-06-6.61744E-24
 -1       252 3.95343E-05 2.31870E-06 0.00000E+00
 -1       253 3.93386E-05 2.94632E-06 0.00000E+00
 -1       254 3.91427E-05 3.03465E-06 0.00000E+00
 -1       255 3.89469E-05 2.63802E-06 0.00000E+00
 -1       256 3.87507E-05 1.81487E-06 0.00000E+00
 -1       257 3.85542E-05 6.98966E-07-6.61744E-24
 -1       258 3.83575E-05-5.73448E-07 0.00000E+00
 -1       259 3.81609E-05-1.83851E-06 0.00000E+00
 -1       260 3.79644E-05-2.93240E-06 0.00000E+00
 -1       261 3.77683E-05-3.72151E-06-6.61744E-24
 -1       262 3.75724E-05-4.07485E-06-3.30872E-24
 -1       263 3.73765E-05-3.93838E-06 0.00000E+00
 -1       264 3.71806E-05-3.26218E-06 0.00000E+00
 -1       265 3.69843E-05-2.09167E-06 0.00000E+00
 -1       266 3.81222E-05-3.95840E-07 0.00000E+00
 -1       267 3.63186E-05-3.98620E-07 0.00000E+00
 -1       268 3.45149E-05-4.01813E-07 0.00000E+00
 -1       269 3.27112E-05-4.03791E-07 0.00000E+00
 -1       270 3.09075E-05-4.05742E-07 0.00000E+00
 -1       271 3.85928E-05 8.68377E-07 0.00000E+00
 -1       272 3.74160E-05 1.62846E-06-1.32349E-23
 -1       273 3.64006E-05 1.96236E-06 0.00000E+00
 -1       274 3.55174E-05 1.93144E-06 1.32349E-23
 -1       275 3.47449E-05 1.60462E-06 0.00000E+00
 -1       276 3.40561E-05 1.05244E-06 0.00000E+00
 -1       277 3.34240E-05 3.48486E-07 0.00000E+00
 -1       278 3.28205E-05-4.32253E-07 1.32349E-23
 -1       279 3.22173E-05-1.21384E-06 0.00000E+00
 -1       280 3.15860E-05-1.92029E-06 1.32349E-23
 -1       281 3.08987E-05-2.47664E-06 0.00000E+00
 -1       282 3.01281E-05-2.80935E-06 0.00000E+00
 -1       283 2.92474E-05-2.84777E-06 2.64698E-23
 -1       284 2.82342E-05-2.52319E-06 0.00000E+00
 -1       285 2.70602E-05-1.77376E-06 0.00000E+00
 -1       301 3.49369E-05-4.89178E-07 3.30872E-24
 -1       302 3.30799E-05-4.94857E-07 8.27181E-25
 -1       303 3.12238E-05-4.99938E-07 0.00000E+00
 -1       304 2.93749E-05-5.05608E-07 1.65436E-24
 -1       305 2.75398E-05-5.12871E-07 0.00000E+00
 -1       306 3.56929E-05 8.37525E-07 0.00000E+00
 -1       307 3.48083E-05 1.54398E-06-6.61744E-24
 -1       308 3.41213E-05 1.72666E-06 0.00000E+00
 -1       309 3.35972E-05 1.46732E-06-6.61744E-24
 -1       310 3.32047E-05 8.56451E-07 1.32349E-23
 -1       311 3.29085E-05-1.29372E-08 6.61744E-24
 -1       312 3.26726E-05-1.04368E-06 0.00000E+00
 -1       313 3.24601E-05-2.13717E-06 6.61744E-24
 -1       314 3.22338E-05-3.19376E-06 1.32349E-23
 -1       315 3.19566E-05-4.11416E-06 6.61744E-24
 -1       316 3.15922E-05-4.80127E-06-1.32349E-23
 -1       317 3.11054E-05-5.16014E-06-6.61744E-24
 -1       318 3.04621E-05-5.10102E-06-1.32349E-23
 -1       319 2.96327E-05-4.53716E-06 0.00000E+00
 -1       320 2.85835E-05-3.39189E-06 1.32349E-23
 -1       336 3.63860E-05-8.95471E-07 0.00000E+00
 -1       337 3.50046E-05-1.03333E-06 0.00000E+00
 -1       338 3.34039E-05-1.17146E-06 0.00000E+00
 -1       339 3.15859E-05-1.30971E-06 0.00000E+00
 -1       340 2.95527E-05-1.44838E-06 3.30872E-24
 -1       406 2.86371E-05 3.32996E-07 1.65436E-24
 -1       407 2.85122E-05 3.80537E-07 0.00000E+00
 -1       408 2.83706E-05 4.28045E-07 0.00000E+00
 -1       409 2.82124E-05 4.75459E-07 0.00000E+00
 -1       410 2.80376E-05 5.22682E-07 0.00000E+00
 -1       521 2.41857E-05 5.88442E-07 0.00000E+00
 -1       522 2.28305E-05 1.13003E-06-1.32349E-23
 -1       523 2.16653E-05 1.17051E-06 0.00000E+00
 -1       524 2.06547E-05 7.83777E-07-1.32349E-23
 -1       525 1.97703E-05 5.95968E-08 0.00000E+00
 -1       526 1.89761E-05-9.07914E-07 0.00000E+00
 -1       527 1.82348E-05-2.01738E-06-2.64698E-23
 -1       528 1.75077E-05-3.16511E-06 1.32349E-23
 -1       529 1.67557E-05-4.24623E-06-2.64698E-23
 -1       530 1.59401E-05-5.15713E-06 1.32349E-23
 -1       531 1.50238E-05-5.79900E-06 0.00000E+00
 -1       532 1.39725E-05-6.07777E-06 0.00000E+00
 -1       533 1.27537E-05-5.90992E-06 0.00000E+00
 -1       534 1.13437E-05-5.21833E-06-1.32349E-23
 -1       535 9.71269E-06-3.94437E-06 2.64698E-23
 -1       536 2.73013E-05 4.94117E-07 0.00000E+00
 -1       537 2.73008E-05 2.06049E-06 0.00000E+00
 -1       538 2.73006E-05 3.16658E-06 0.00000E+00
 -1       539 2.73015E-05 3.86567E-06 0.00000E+00
 -1       540 2.73026E-05 4.21096E-06-1.03398E-25
 -1       541 2.73039E-05 4.25566E-06 0.00000E+00
 -1       542 2.73052E-05 4.05296E-06 2.58494E-26
 -1       543 2.73065E-05 3.65606E-06-9.69352E-27
 -1       544 2.73077E-05 3.11815E-06 2.58494E-26
 -1       545 2.73089E-05 2.49240E-06 2.58494E-26
 -1       546 2.73101E-05 1.83199E-06-5.16988E-26
 -1       547 2.73113E-05 1.19010E-06 5.16988E-26
 -1       548 2.73125E-05 6.19887E-07 0.00000E+00
 -1       549 2.73139E-05 1.74537E-07 0.00000E+00
 -1       550 2.73154E-05-9.27600E-08 4.13590E-25
 -1       551 2.44437E-05-1.65613E-06-2.48154E-24
 -1       552 2.12187E-05-1.72646E-06-3.10193E-25
 -1       553 1.77892E-05-1.79756E-06 0.00000E+00
 -1       554 1.43153E-05-1.86982E-06 0.00000E+00
 -1       555 1.09570E-05-1.94324E-06 0.00000E+00
 -1       556 2.65162E-05 4.26657E-07 0.00000E+00
 -1       557 2.59088E-05 1.96246E-06-3.30872E-24
 -1       558 2.54646E-05 3.06614E-06 0.00000E+00
 -1       559 2.51652E-05 3.78564E-06 0.00000E+00
 -1       560 2.49924E-05 4.16879E-06 0.00000E+00
 -1       561 2.49278E-05 4.26366E-06 0.00000E+00
 -1       562 2.49533E-05 4.11835E-06 0.00000E+00
 -1       563 2.50508E-05 3.78100E-06 0.00000E+00
 -1       564 2.52023E-05 3.29977E-06 0.00000E+00
 -1       565 2.53895E-05 2.72282E-06 8.27181E-25
 -1       566 2.55947E-05 2.09835E-06 0.00000E+00
 -1       567 2.57995E-05 1.47453E-06 2.06795E-25
 -1       568 2.59861E-05 8.99561E-07 0.00000E+00
 -1       569 2.61365E-05 4.21559E-07 0.00000E+00
 -1       570 2.62326E-05 8.86724E-08 0.00000E+00
 -1       571 2.73494E-05-6.59493E-08 6.20385E-25
 -1       572 2.73822E-05-2.37767E-08-1.03398E-25
 -1       573 2.74152E-05 1.36606E-09-8.27181E-25
 -1       574 2.74483E-05 1.33843E-08-2.06795E-25
 -1       575 2.74814E-05 1.62006E-08 0.00000E+00
 -1       576 2.75146E-05 1.37640E-08 0.00000E+00
 -1       577 2.75478E-05 1.00254E-08-8.27181E-25
 -1       578 2.75810E-05 8.93957E-09 0.00000E+00
 -1       579 2.76142E-05 1.44613E-08 0.00000E+00
 -1       580 2.76474E-05 3.05452E-08 1.65436E-24
 -1       581 2.76806E-05 6.11456E-08 1.65436E-24
 -1       582 2.77137E-05 1.10212E-07 1.65436E-24
 -1       583 2.77469E-05 1.81691E-07 1.65436E-24
 -1       584 2.77801E-05 2.79486E-07 0.00000E+00
 -1       585 2.78133E-05 4.07481E-07 0.00000E+00
 -1       586 2.71468E-05-1.15577E-07 0.00000E+00
 -1       587 2.69553E-05-1.02383E-07 6.20385E-25
 -1       588 2.67568E-05-8.92556E-08 4.13590E-25
 -1       589 2.65650E-05-7.62748E-08 0.00000E+00
 -1       590 2.63940E-05-6.35758E-08 0.00000E+00
 -1       591 2.72722E-05-5.37351E-08-2.06795E-25
 -1       592 2.72316E-05 4.92061E-09-2.06795E-25
 -1       593 2.71957E-05 5.03956E-08 4.13590E-25
 -1       594 2.71635E-05 8.56201E-08 0.00000E+00
 -1       595 2.71340E-05 1.13548E-07 4.13590E-25
 -1       596 2.71061E-05 1.37111E-07-2.06795E-25
 -1       597 2.70787E-05 1.59236E-07-4.13590E-25
 -1       598 2.70507E-05 1.82849E-07 0.00000E+00
 -1       599 2.70211E-05 2.10875E-07-4.13590E-25
 -1       600 2.69888E-05 2.46239E-07 0.00000E+00
 -1       601 2.69526E-05 2.91864E-07 0.00000E+00
 -1       602 2.69115E-05 3.50680E-07-1.03398E-25
 -1       603 2.68644E-05 4.25615E-07 0.00000E+00
 -1       604 2.68103E-05 5.19617E-07-1.93870E-25
 -1       605 2.67482E-05 6.35616E-07 0.00000E+00
 -1       606 2.78569E-05 7.98759E-07 0.00000E+00
 -1       607 2.78663E-05 1.06740E-06-8.27181E-25
 -1       608 2.78755E-05 1.37286E-06 0.00000E+00
 -1       609 2.78845E-05 1.71254E-06 0.00000E+00
 -1       610 2.78935E-05 2.08381E-06 0.00000E+00
 -1       611 2.79025E-05 2.48402E-06 0.00000E+00
 -1       612 2.79114E-05 2.91049E-06 0.00000E+00
 -1       613 2.79204E-05 3.36058E-06 0.00000E+00
 -1       614 2.79293E-05 3.83162E-06 0.00000E+00
 -1       615 2.79382E-05 4.32093E-06-4.13590E-25
 -1       616 2.79471E-05 4.82586E-06 0.00000E+00
 -1       617 2.79560E-05 5.34375E-06-8.27181E-25
 -1       618 2.79649E-05 5.87193E-06 0.00000E+00
 -1       619 2.79737E-05 6.40773E-06 2.06795E-25
 -1       620 2.79826E-05 6.94849E-06-4.13590E-25
 -1       621 2.76416E-05 6.04037E-07 8.27181E-25
 -1       622 2.74373E-05 6.38907E-07 4.13590E-25
 -1       623 2.72361E-05 6.73759E-07 0.00000E+00
 -1       624 2.70407E-05 7.08520E-07 0.00000E+00
 -1       625 2.68538E-05 7.43149E-07 8.27181E-25
 -1       626 2.77932E-05 8.16319E-07 0.00000E+00
 -1       627 2.77252E-05 1.10315E-06 0.00000E+00
 -1       628 2.76438E-05 1.42596E-06 0.00000E+00
 -1       629 2.75504E-05 1.78067E-06-1.65436E-24
 -1       630 2.74465E-05 2.16321E-06 0.00000E+00
 -1       631 2.73338E-05 2.56943E-06 0.00000E+00
 -1       632 2.72137E-05 2.99523E-06 0.00000E+00
 -1       633 2.70878E-05 3.43649E-06 0.00000E+00
 -1       634 2.69576E-05 3.88908E-06 0.00000E+00
 -1       635 2.68248E-05 4.34888E-06-4.13590E-25
 -1       636 2.66908E-05 4.81177E-06-8.27181E-25
 -1       637 2.65571E-05 5.27362E-06 4.13590E-25
 -1       638 2.64253E-05 5.73032E-06 0.00000E+00
 -1       639 2.62969E-05 6.17772E-06 2.06795E-25
 -1       640 2.61733E-05 6.61170E-06-4.13590E-25
 -1       656 2.75286E-05 7.41633E-06 0.00000E+00
 -1       657 2.71827E-05 7.33780E-06 0.00000E+00
 -1       658 2.69082E-05 7.25952E-06 0.00000E+00
 -1       659 2.66592E-05 7.18130E-06 0.00000E+00
 -1       660 2.63902E-05 7.10285E-06-8.27181E-25
 -1       661 2.78238E-05 8.04461E-06 0.00000E+00
 -1       662 2.76542E-05 8.60759E-06 0.00000E+00
 -1       663 2.74823E-05 9.17653E-06 0.00000E+00
 -1       664 2.73096E-05 9.74805E-06-4.13590E-25
 -1       665 2.71373E-05 1.03186E-05 8.27181E-25
 -1       666 2.69668E-05 1.08847E-05 4.13590E-25
 -1       667 2.67992E-05 1.14429E-05-8.27181E-25
 -1       668 2.66359E-05 1.19896E-05 4.13590E-25
 -1       669 2.64782E-05 1.25215E-05 8.27181E-25
 -1       670 2.63274E-05 1.30350E-05-4.13590E-25
 -1       671 2.61848E-05 1.35266E-05-8.27181E-25
 -1       672 2.60516E-05 1.39928E-05-4.13590E-25
 -1       673 2.59293E-05 1.44301E-05-8.27181E-25
 -1       674 2.58188E-05 1.48348E-05 4.13590E-25
 -1       675 2.57219E-05 1.52036E-05-4.13590E-25
 -1       676 2.71129E-05 1.57327E-05-1.65436E-24
 -1       677 2.68174E-05 1.56922E-05-8.27181E-25
 -1       678 2.65221E-05 1.56518E-05 0.00000E+00
 -1       679 2.62269E-05 1.56115E-05 4.13590E-25
 -1       680 2.59321E-05 1.55713E-05 0.00000E+00
 -1       771 6.60400E-06 1.76692E-07-2.64698E-23
 -1       772 5.49085E-06 1.95639E-06 0.00000E+00
 -1       773 4.52547E-06 3.34263E-06 0.00000E+00
 -1       774 3.69607E-06 4.36662E-06 0.00000E+00
 -1       775 2.99101E-06 5.05969E-06 1.32349E-23
 -1       776 2.39835E-06 5.45353E-06-6.61744E-24
 -1       777 1.90608E-06 5.57992E-06 1.32349E-23
 -1       778 1.50215E-06 5.47087E-06 0.00000E+00
 -1       779 1.17448E-06 5.15849E-06-1.32349E-23
 -1       780 9.10922E-07 4.67504E-06-6.61744E-24
 -1       781 6.99361E-07 4.05287E-06 1.32349E-23
 -1       782 5.27649E-07 3.32444E-06 6.61744E-24
 -1       783 3.83648E-07 2.52227E-06 1.32349E-23
 -1       784 2.55369E-07 1.67897E-06 6.61744E-24
 -1       785 1.30691E-07 8.27137E-07-1.32349E-23
 -1       786 2.62820E-05-5.10601E-09-2.06795E-25
 -1       787 2.63082E-05 2.98500E-08 2.06795E-25
 -1       788 2.63344E-05 5.56529E-08 0.00000E+00
 -1       789 2.63608E-05 7.49829E-08 0.00000E+00
 -1       790 2.63873E-05 9.05143E-08 8.27181E-25
 -1       791 2.64138E-05 1.04920E-07 0.00000E+00
 -1       792 2.64403E-05 1.20872E-07-8.27181E-25
 -1       793 2.64668E-05 1.41041E-07 0.00000E+00
 -1       794 2.64933E-05 1.68105E-07 0.00000E+00
 -1       795 2.65199E-05 2.04744E-07 4.13590E-25
 -1       796 2.65464E-05 2.53645E-07 0.00000E+00
 -1       797 2.65729E-05 3.17503E-07 4.13590E-25
 -1       798 2.65994E-05 3.99026E-07-8.27181E-25
 -1       799 2.66258E-05 5.00931E-07 4.13590E-25
 -1       800 2.66522E-05 6.25955E-07 8.27181E-25
 -1       801 2.42419E-05-3.18786E-08 0.00000E+00
 -1       802 1.91723E-05-2.08758E-08 5.16988E-26
 -1       803 1.26310E-05-1.76286E-08 0.00000E+00
 -1       804 6.20028E-06-1.59918E-08 8.27181E-25
 -1       805 1.46239E-06-5.42773E-09 0.00000E+00
 -1       806 2.62072E-05-2.07463E-08 0.00000E+00
 -1       807 2.61578E-05 5.52189E-09 4.13590E-25
 -1       808 2.61090E-05 2.92203E-08 0.00000E+00
 -1       809 2.60602E-05 5.24408E-08 0.00000E+00
 -1       810 2.60109E-05 7.72652E-08-8.27181E-25
 -1       811 2.59601E-05 1.05756E-07-4.13590E-25
 -1       812 2.59071E-05 1.39971E-07-8.27181E-25
 -1       813 2.58513E-05 1.81968E-07-4.13590E-25
 -1       814 2.57917E-05 2.33802E-07 0.00000E+00
 -1       815 2.57277E-05 2.97529E-07 4.13590E-25
 -1       816 2.56585E-05 3.75204E-07 8.27181E-25
 -1       817 2.55832E-05 4.68880E-07 0.00000E+00
 -1       818 2.55012E-05 5.80611E-07 4.13590E-25
 -1       819 2.54118E-05 7.12438E-07 2.06795E-25
 -1       820 2.53141E-05 8.66405E-07 4.13590E-25
 -1       821 2.66413E-05 9.68926E-07 0.00000E+00
 -1       822 2.66024E-05 1.21314E-06 0.00000E+00
 -1       823 2.65635E-05 1.50409E-06-8.27181E-25
 -1       824 2.65243E-05 1.83636E-06 0.00000E+00
 -1       825 2.64850E-05 2.20448E-06 0.00000E+00
 -1       826 2.64456E-05 2.60293E-06 4.13590E-25
 -1       827 2.64063E-05 3.02616E-06 8.27181E-25
 -1       828 2.63669E-05 3.46862E-06 8.27181E-25
 -1       829 2.63274E-05 3.92471E-06-8.27181E-25
 -1       830 2.62880E-05 4.38883E-06-4.13590E-25
 -1       831 2.62486E-05 4.85536E-06-8.27181E-25
 -1       832 2.62093E-05 5.31870E-06 0.00000E+00
 -1       833 2.61700E-05 5.77323E-06 0.00000E+00
 -1       834 2.61311E-05 6.21335E-06 0.00000E+00
 -1       835 2.60921E-05 6.63348E-06 0.00000E+00
 -1       836 2.64789E-05 8.21030E-07-8.27181E-25
 -1       837 2.62400E-05 8.66523E-07 4.13590E-25
 -1       838 2.59773E-05 9.11960E-07-8.27181E-25
 -1       839 2.57071E-05 9.57184E-07 4.13590E-25
 -1       840 2.54453E-05 1.00234E-06 0.00000E+00
 -1       856 2.60310E-05 7.44178E-06 0.00000E+00
 -1       857 2.60051E-05 7.91335E-06 0.00000E+00
 -1       858 2.59791E-05 8.43376E-06-8.27181E-25
 -1       859 2.59529E-05 8.99399E-06 0.00000E+00
 -1       860 2.59266E-05 9.58501E-06 0.00000E+00
 -1       861 2.59002E-05 1.01978E-05 0.00000E+00
 -1       862 2.58739E-05 1.08233E-05 8.27181E-25
 -1       863 2.58475E-05 1.14524E-05 0.00000E+00
 -1       864 2.58211E-05 1.20761E-05 0.00000E+00
 -1       865 2.57947E-05 1.26854E-05 0.00000E+00
 -1       866 2.57684E-05 1.32712E-05-8.27181E-25
 -1       867 2.57421E-05 1.38245E-05 0.00000E+00
 -1       868 2.57158E-05 1.43363E-05 0.00000E+00
 -1       869 2.56896E-05 1.47974E-05 0.00000E+00
 -1       870 2.56634E-05 1.51990E-05-8.27181E-25
 -1       871 2.57471E-05 7.02517E-06 0.00000E+00
 -1       872 2.54900E-05 7.02152E-06 0.00000E+00
 -1       873 2.52626E-05 7.01773E-06 0.00000E+00
 -1       874 2.50432E-05 7.01373E-06 5.16988E-26
 -1       875 2.48098E-05 7.00952E-06 4.13590E-25
 -1       876 2.59509E-05 7.44477E-06 0.00000E+00
 -1       877 2.58361E-05 7.89337E-06-8.27181E-25
 -1       878 2.57111E-05 8.36969E-06 0.00000E+00
 -1       879 2.55772E-05 8.87006E-06 8.27181E-25
 -1       880 2.54357E-05 9.39073E-06 1.65436E-24
 -1       881 2.52880E-05 9.92799E-06 8.27181E-25
 -1       882 2.51355E-05 1.04782E-05-1.65436E-24
 -1       883 2.49796E-05 1.10375E-05 0.00000E+00
 -1       884 2.48216E-05 1.16024E-05-1.65436E-24
 -1       885 2.46628E-05 1.21691E-05 0.00000E+00
 -1       886 2.45048E-05 1.27339E-05 0.00000E+00
 -1       887 2.43488E-05 1.32932E-05 0.00000E+00
 -1       888 2.41962E-05 1.38432E-05 0.00000E+00
 -1       889 2.40482E-05 1.43801E-05-4.13590E-25
 -1       890 2.39064E-05 1.49004E-05-8.27181E-25
 -1       891 2.53665E-05 1.55101E-05 0.00000E+00
 -1       892 2.51053E-05 1.54878E-05 0.00000E+00
 -1       893 2.48346E-05 1.54655E-05-4.13590E-25
 -1       894 2.45348E-05 1.54433E-05 0.00000E+00
 -1       895 2.41863E-05 1.54211E-05 0.00000E+00
 -1       956 2.51671E-05 1.28509E-06 0.00000E+00
 -1       957 2.51256E-05 1.56289E-06 4.13590E-25
 -1       958 2.50839E-05 1.87388E-06 8.27181E-25
 -1       959 2.50421E-05 2.21383E-06 4.13590E-25
 -1       960 2.50003E-05 2.57852E-06 8.27181E-25
 -1       961 2.49584E-05 2.96368E-06 8.27181E-25
 -1       962 2.49166E-05 3.36504E-06 8.27181E-25
 -1       963 2.48747E-05 3.77836E-06-8.27181E-25
 -1       964 2.48329E-05 4.19937E-06 0.00000E+00
 -1       965 2.47910E-05 4.62381E-06-8.27181E-25
 -1       966 2.47491E-05 5.04742E-06-1.65436E-24
 -1       967 2.47073E-05 5.46593E-06-8.27181E-25
 -1       968 2.46655E-05 5.87509E-06-1.65436E-24
 -1       969 2.46237E-05 6.27065E-06 0.00000E+00
 -1       970 2.45821E-05 6.64837E-06-1.65436E-24
 -1       971 2.44935E-05 7.36720E-06-1.65436E-24
 -1       972 2.44453E-05 7.77784E-06-8.27181E-25
 -1       973 2.43970E-05 8.23062E-06 0.00000E+00
 -1       974 2.43486E-05 8.71993E-06 0.00000E+00
 -1       975 2.43001E-05 9.24018E-06 0.00000E+00
 -1       976 2.42516E-05 9.78575E-06 8.27181E-25
 -1       977 2.42031E-05 1.03510E-05 0.00000E+00
 -1       978 2.41546E-05 1.09304E-05 8.27181E-25
 -1       979 2.41060E-05 1.15183E-05 0.00000E+00
 -1       980 2.40575E-05 1.21091E-05 8.27181E-25
 -1       981 2.40090E-05 1.26971E-05 0.00000E+00
 -1       982 2.39606E-05 1.32767E-05-8.27181E-25
 -1       983 2.39122E-05 1.38424E-05 0.00000E+00
 -1       984 2.38640E-05 1.43885E-05 0.00000E+00
 -1       985 2.38160E-05 1.49093E-05 8.27181E-25
 -3
    1PSTEP                         2           1           1          
  100CL  101 2.50000E-01         409                     0    1           1
 -4  STRESS      6    1
 -5  SXX         1    4    1    1
 -5  SYY         1    4    2    2
 -5  SZZ         1    4    3    3
 -5  SXY         1    4    1    2
 -5  SYZ         1    4    2    3
 -5  SZX         1    4    3    1
 -1         1-9.22691E+05-4.08254E+05-2.00839E+05-5.29992E+05 4.54747E-11-9.53150E-10
 -1         2 5.62249E+02-2.21658E+05 1.80421E+03-3.79106E+02-3.79444E-10-1.04582E-09
 -1         3-6.89102E+00-3.60585E+05 8.46471E+01-5.47516E+01 9.74172E-11 1.45837E-09
 -1         5-2.34564E+00 1.36120E+05 3.73438E+00-4.71893E-02 4.41599E-11-8.96443E-09
 -1         8-6.07087E+05-2.21891E+05-7.43612E+04-2.84109E+05 1.97360E-10-2.07365E-10
 -1         9-7.33588E+05-2.58580E+05-1.01495E+05-2.04690E+05-2.84490E-10 5.29690E-10
 -1        10-2.79899E+02-3.76326E+05-5.53409E+02-3.66097E+02 4.79758E-10-7.49862E-09
 -1        12-8.12780E-01 1.36128E+05 1.21044E+02-7.23036E-02 1.11740E-10 2.98769E-09
 -1        15 9.74904E+02 5.31736E+02 3.09213E+03 7.67364E-01-1.19709E-09-7.11953E-07
 -1        16-1.49057E+06-4.84402E+05-2.26953E+05-4.96451E+05 1.37516E-09 9.21621E-10
 -1        17-2.81358E+05-2.09936E+05-4.48493E+04-1.93246E+05-4.34011E-10 1.48721E-09
 -1        18 1.37712E+04 2.72125E+03-5.09626E+03-3.36750E+04 2.55795E-10-3.16163E-09
 -1        19 4.17161E+04 4.91895E+04-3.64668E+02 5.31477E+03-1.04592E-10 5.10408E-10
 -1        20 1.96992E+04-6.60969E+04-1.26165E+04 1.90519E+04 4.66866E-09-1.98240E-09
 -1        21-2.52865E+01-1.15769E+05-4.45982E+02-2.49653E+01 3.79833E-09 9.69197E-09
 -1        24-1.13977E+06-4.16248E+05-1.37905E+05-5.36627E+05-4.29524E-09-2.11973E-09
 -1        25 8.53645E+03 6.15765E+03 8.59780E+03-1.46523E+05-1.26311E-09 1.02536E-09
 -1        26-8.65536E+03 3.52256E+04-2.45703E+03-7.47682E+03 8.56744E-11 1.05169E-09
 -1        27-1.29595E+04-3.94164E+04-1.81408E+04 2.65734E+04 2.01150E-09-4.50655E-10
 -1        28 1.15850E+02-3.53819E+04 1.80406E+03 1.29715E+04 1.76868E-09 2.01814E-09
 -1        32-3.40041E+05-5.33050E+04 1.06760E+05-4.62398E+05-1.83718E-09 7.50049E-10
 -1        33-5.06573E+04 3.34444E+04 1.09144E+04-1.37318E+04-1.05653E-10-6.54078E-10
 -1        34-8.03716E+04-1.06218E+04-1.23156E+03 2.55727E+04 1.17918E-09-2.02842E-09
 -1        35-9.50086E+03-1.34823E+04-6.70839E+02 2.16751E+04 3.12161E-09-1.00772E-09
 -1        51 9.30088E+03-1.71069E+05 1.75630E+04-4.53431E+05 1.45519E-11 4.09636E-09
 -1        52 4.07380E+03-1.69126E+05 1.13996E+04-5.10504E+05 3.38332E-10 2.67755E-09
 -1        53 2.58659E+03-1.72626E+05 1.02072E+04-4.52111E+05 4.72937E-11 2.06710E-08
 -1        54 7.66843E+03-1.70370E+05 1.67426E+04-5.11940E+05 3.63798E-12 4.11546E-08
 -1        55 1.93231E+04-1.75943E+05 3.08826E+04-4.51923E+05-3.63798E-11 2.04709E-08
 -1        56-1.75234E+06-1.94940E+05-1.43978E+05-6.77886E+05 3.63798E-12-2.94676E-09
 -1        57-1.81649E+06-3.22007E+05-9.74992E+04-6.65337E+05 6.79847E-10-3.79987E-09
 -1        58-1.78102E+06-2.41862E+05-3.38786E+04-6.69116E+05-4.49290E-10-2.09184E-09
 -1        59-1.78331E+06-2.67136E+05-2.03656E+04-6.75748E+05-1.39880E-09-1.21304E-09
 -1        60-1.78528E+06-2.48540E+05-7.92136E+03-6.67925E+05 1.58593E-10-1.35196E-09
 -1        61-1.77865E+06-2.59083E+05-4.53684E+03-6.76828E+05 2.02078E-10-1.84724E-09
 -1        62-1.78564E+06-2.49749E+05-2.17108E+03-6.68087E+05 5.80030E-10 5.52490E-10
 -1        63-1.77882E+06-2.57284E+05-1.80552E+03-6.76018E+05 6.07088E-10 4.29236E-09
 -1        64-1.78509E+06-2.50327E+05-2.04955E+03-6.68733E+05-3.44755E-10-1.73486E-10
 -1        65-1.78072E+06-2.56779E+05-4.15857E+03-6.74308E+05-2.81176E-10 5.08845E-09
 -1        66-1.78373E+06-2.50279E+05-7.23305E+03-6.69783E+05 4.56897E-10 2.77441E-09
 -1        67-1.78686E+06-2.62175E+05-1.85330E+04-6.71106E+05 3.51520E-10-1.46110E-09
 -1        68-1.77898E+06-2.45089E+05-3.08469E+04-6.71879E+05-6.83031E-10-3.01225E-09
 -1        69-1.81859E+06-3.10594E+05-8.87280E+04-6.59904E+05-5.32054E-11 2.91038E-11
 -1        70-1.75223E+06-2.03016E+05-1.31052E+05-6.80578E+05-1.03319E-09 2.67028E-09
 -1        86-2.82474E+02-2.22343E+05 1.90598E+03 1.89555E+02 7.04858E-12-1.98760E-09
 -1        87 1.85238E+03-2.21058E+05 4.01101E+03-7.28037E+02-1.29148E-10 8.26390E-10
 -1        88-1.56951E+03-2.22944E+05 6.10964E+03 5.38491E+02-2.17824E-10 6.90619E-10
 -1        89 1.16035E+04-2.16602E+05 1.65127E+04-1.33586E+03-6.18456E-11-3.72406E-09
 -1        90-1.00134E+04-2.26799E+05 2.32959E+04 7.97411E+02-5.19321E-10 2.05446E-10
 -1       121-2.12286E+01-3.60674E+05 9.08959E+01 2.73672E+01 4.59579E-11 2.43290E-09
 -1       122 2.32076E+01-3.60565E+05 1.86396E+02-1.09486E+02 5.13138E-10 2.81102E-09
 -1       123-4.43386E+01-3.60695E+05 3.11128E+02 8.20702E+01 1.93751E-10 3.78805E-10
 -1       124 3.82278E+02-3.60347E+05 7.86413E+02-2.63648E+02 1.05308E-09-3.71074E-10
 -1       125-2.88679E+02-3.60893E+05 1.20402E+03 1.81580E+02 3.41970E-10 1.29967E-09
 -1       191-2.58655E+00 1.36132E+05 4.48170E+00 2.34111E-02 8.80382E-11-5.87079E-10
 -1       192-2.68838E+00 1.36121E+05 7.90644E+00 1.77637E-01 1.24826E-10 8.60382E-10
 -1       193-3.49815E+00 1.36132E+05 1.47218E+01-2.02337E-01 1.57045E-10 2.46700E-09
 -1       194-3.79155E+00 1.36122E+05 2.99058E+01 5.44185E-01 8.98135E-11 3.15958E-09
 -1       195-5.25048E+00 1.36131E+05 5.85164E+01-3.45445E-01 2.18431E-10 7.78073E-10
 -1       251-5.58515E+05 3.88545E+03-9.08252E+03-1.39637E+03 4.07852E-11-2.90447E-09
 -1       252-5.62052E+05-4.49921E+03-6.35462E+03 8.42334E+02 3.95701E-11 2.80215E-09
 -1       253-5.60069E+05 5.99608E+02-2.37497E+03-1.40840E+02-2.25583E-10 9.77820E-10
 -1       254-5.60302E+05-6.96862E+02-1.42775E+03-1.63107E+03-4.85521E-10-5.06361E-10
 -1       255-5.60264E+05 9.05619E+01-6.21254E+02 1.07706E+03-3.19474E-10 4.14653E-09
 -1       256-5.60151E+05-1.06692E+02-3.42436E+02-3.58411E+03 1.20629E-10 2.37594E-09
 -1       257-5.60228E+05 1.64687E+01-1.79448E+02 1.81223E+03-6.29008E-10-1.50654E-09
 -1       258-5.60187E+05-2.55850E+01-1.40824E+02-4.30073E+03-5.28591E-11-1.57763E-09
 -1       259-5.60232E+05 1.30317E+01-1.49700E+02 1.79370E+03-6.48299E-10 5.43902E-09
 -1       260-5.60129E+05-7.80559E+01-2.53777E+02-3.51726E+03-4.99142E-10 2.35687E-09
 -1       261-5.60282E+05 6.51105E+01-4.64515E+02 1.02875E+03 4.04199E-10 1.16654E-09
 -1       262-5.60204E+05-5.08227E+02-1.03408E+03-1.52185E+03-4.80327E-11-1.49494E-09
 -1       263-5.60150E+05 4.36550E+02-1.74678E+03-2.01749E+02-8.78657E-10-1.65187E-09
 -1       264-5.61490E+05-3.28888E+03-4.63821E+03 9.52734E+02-1.31529E-09 2.61815E-09
 -1       265-5.58997E+05 2.84048E+03-6.65131E+03-1.44586E+03-1.14190E-09-1.40426E-09
 -1       266-1.74109E+04-8.10030E+03 4.05331E+04-1.61217E+01-1.78443E-09-1.04981E-06
 -1       267 2.01734E+04 9.44773E+03 2.86993E+04 1.85720E+01-3.59023E-09-2.08388E-06
 -1       268-2.72554E+03-1.34492E+03 1.06464E+04-2.39060E+00-2.87218E-09-1.67545E-06
 -1       269 3.21760E+03 1.61092E+03 6.93768E+03 2.78205E+00-2.20382E-09-1.27539E-06
 -1       270-4.86778E+02-2.65868E+02 3.34060E+03-3.82515E-01-1.66779E-09-9.70108E-07
 -1       271-1.93235E+06-2.33938E+05-1.53463E+05-7.48813E+05-4.60204E-10 2.37924E-09
 -1       272-1.98441E+06-3.54004E+05-9.93861E+04-7.51975E+05-6.18456E-11 3.79987E-09
 -1       273-1.96117E+06-2.74088E+05-3.62323E+04-7.41968E+05-5.15229E-10 3.24508E-09
 -1       274-1.95089E+06-3.05136E+05-2.04917E+04-7.61827E+05-1.09537E-09-2.96404E-09
 -1       275-1.96530E+06-2.78354E+05-8.43980E+03-7.40671E+05-7.16682E-10-1.45701E-09
 -1       276-1.94599E+06-3.00098E+05-4.55131E+03-7.63763E+05 7.78414E-10 7.07678E-09
 -1       277-1.96607E+06-2.78610E+05-2.24760E+03-7.40262E+05-2.74099E-10-1.00010E-09
 -1       278-1.94523E+06-2.99770E+05-1.71754E+03-7.64214E+05-2.13106E-10-1.11498E-09
 -1       279-1.96609E+06-2.78622E+05-1.93079E+03-7.40258E+05-4.43151E-10-1.35003E-09
 -1       280-1.94585E+06-2.99939E+05-3.65554E+03-7.63790E+05 4.26610E-10-2.29761E-10
 -1       281-1.96542E+06-2.78491E+05-6.66414E+03-7.40651E+05 9.24956E-10 2.80124E-10
 -1       282-1.94987E+06-3.03698E+05-1.61063E+04-7.62034E+05-4.22006E-10 1.92813E-09
 -1       283-1.96205E+06-2.75281E+05-2.84599E+04-7.41819E+05 3.04169E-10 5.05679E-10
 -1       284-1.97648E+06-3.41743E+05-7.80299E+04-7.53910E+05 2.01112E-10-2.18643E-09
 -1       285-1.93923E+06-2.43963E+05-1.20513E+05-7.47412E+05-8.00355E-11 1.62981E-09
 -1       301 1.36551E+04-8.55100E+03 5.21159E+04-1.22676E+04-5.38421E-10 2.56364E-10
 -1       302 6.38057E+03 3.07640E+03 3.51236E+04-1.59795E+04-1.13005E-10-1.78215E-09
 -1       303 7.94622E+02-4.34936E+03 3.10411E+04-1.22834E+04-9.04947E-10 4.63604E-09
 -1       304 1.07274E+04 6.89608E+03 4.99151E+04-1.59563E+04-4.70664E-10 8.20478E-09
 -1       305 2.38324E+04-1.23588E+04 8.63865E+04-1.22672E+04-7.42148E-10 7.90396E-09
 -1       306-1.34559E+06-1.61833E+05-9.14770E+04-5.19107E+05 1.35606E-09 5.96629E-10
 -1       307-1.37018E+06-2.49424E+05-6.06071E+04-5.28489E+05 1.03273E-09 6.08452E-10
 -1       308-1.36398E+06-1.88282E+05-2.15917E+04-5.13427E+05 4.13337E-10 1.59707E-09
 -1       309-1.34862E+06-2.18425E+05-1.25791E+04-5.36171E+05 6.00267E-11 4.29759E-09
 -1       310-1.36704E+06-1.91188E+05-5.06387E+03-5.12097E+05-1.38914E-09-1.60617E-09
 -1       311-1.34498E+06-2.15135E+05-2.83955E+03-5.38051E+05-1.06957E-09-4.31038E-09
 -1       312-1.36767E+06-1.91329E+05-1.45192E+03-5.11677E+05 1.20440E-09 1.86142E-09
 -1       313-1.34445E+06-2.14899E+05-1.29183E+03-5.38409E+05 6.42089E-10 5.11193E-09
 -1       314-1.36759E+06-1.91392E+05-1.63229E+03-5.11761E+05 1.10276E-10-9.29276E-10
 -1       315-1.34533E+06-2.14984E+05-3.35262E+03-5.37690E+05-1.52693E-09-2.96404E-09
 -1       316-1.36675E+06-1.91297E+05-6.06263E+03-5.12353E+05-4.67708E-10-2.32740E-09
 -1       317-1.34977E+06-2.18874E+05-1.51031E+04-5.35353E+05-3.28328E-10 2.72848E-09
 -1       318-1.36307E+06-1.87795E+05-2.59423E+04-5.13940E+05-5.08592E-10 6.67569E-10
 -1       319-1.37562E+06-2.56224E+05-7.28322E+04-5.26252E+05-2.39083E-10 7.02130E-10
 -1       320-1.34106E+06-1.55910E+05-1.09914E+05-5.20657E+05 5.63887E-11-1.25146E-09
 -1       336 3.54160E+02-3.91742E+05-2.23873E+03 1.84501E+02-9.65542E-10-5.15229E-10
 -1       337-8.41613E+02-3.92469E+05-2.58544E+03-5.03520E+02-7.00823E-10 2.46996E-09
 -1       338 2.80052E+02-3.91778E+05-3.32429E+03 3.18598E+02-1.34628E-09-1.52068E-09
 -1       339-3.61129E+03-3.94119E+05-7.45046E+03-7.70128E+02-9.91690E-10 3.33057E-09
 -1       340 2.58838E+03-3.90099E+05-1.14101E+04 4.49688E+02-1.39244E-09 3.80305E-09
 -1       406 8.44808E+00 1.36125E+05 2.38995E+02 4.12457E-01 3.53495E-10-1.88356E-09
 -1       407 8.25071E+01 1.36170E+05 5.07929E+02-5.86299E+00 7.07701E-11-1.74623E-09
 -1       408 2.60648E+02 1.36089E+05 1.01448E+03 5.50664E+00 3.74030E-10 8.45284E-09
 -1       409 1.09617E+03 1.36494E+05 2.28395E+03-4.95595E+01-1.13914E-10 1.94068E-08
 -1       410 3.15095E+03 1.35801E+05 4.66267E+03 4.50996E+01 3.71074E-10 1.05558E-08
 -1       521-2.49950E+06-2.98743E+05-1.75083E+05-9.64943E+05 8.58563E-10-2.19734E-09
 -1       522-2.56635E+06-4.47414E+05-1.16116E+05-9.60931E+05-4.83851E-10-4.22006E-10
 -1       523-2.53458E+06-3.49667E+05-4.12852E+04-9.54238E+05 7.77163E-10 1.07866E-09
 -1       524-2.52506E+06-3.87739E+05-2.40811E+04-9.75238E+05-9.69294E-10-2.13868E-09
 -1       525-2.54036E+06-3.55358E+05-9.65015E+03-9.51793E+05-2.04977E-09-9.60426E-10
 -1       526-2.51814E+06-3.81262E+05-5.38230E+03-9.78565E+05-2.22985E-09 6.76323E-10
 -1       527-2.54149E+06-3.55734E+05-2.66825E+03-9.51090E+05 2.99181E-10 2.17631E-09
 -1       528-2.51725E+06-3.80593E+05-2.22924E+03-9.79011E+05 9.55652E-10 9.80634E-10
 -1       529-2.54126E+06-3.55983E+05-2.65035E+03-9.51368E+05-4.37240E-10-8.98581E-10
 -1       530-2.51901E+06-3.80312E+05-5.31244E+03-9.77450E+05 1.30922E-09 4.21232E-09
 -1       531-2.53967E+06-3.56089E+05-9.53720E+03-9.52596E+05 6.16183E-10 3.81215E-09
 -1       532-2.52668E+06-3.85827E+05-2.37573E+04-9.73136E+05-1.41745E-09-2.94676E-10
 -1       533-2.53355E+06-3.50893E+05-4.07573E+04-9.55481E+05 1.67347E-10 6.18456E-11
 -1       534-2.56818E+06-4.43961E+05-1.14582E+05-9.58160E+05 1.75896E-09-1.97724E-09
 -1       535-2.49859E+06-3.00975E+05-1.72796E+05-9.66425E+05 5.12955E-10-2.23372E-09
 -1       536-7.43653E+02-8.82628E+03 2.43629E+04 4.74173E+02 8.48559E-10-7.02130E-10
 -1       537 9.54609E+03 1.03324E+04 1.66686E+04-1.74056E+04-2.46064E-09-6.29825E-11
 -1       538 3.23125E+03-1.20624E+03 6.31262E+03 4.87740E+02-2.69438E-10-1.14733E-09
 -1       539 4.89154E+03 1.35689E+03 3.79696E+03-1.74205E+04 1.64573E-09 9.65770E-11
 -1       540 3.81971E+03-1.72258E+02 1.59477E+03 4.89649E+02 3.39696E-10-8.23093E-10
 -1       541 4.13703E+03 1.78250E+02 8.93307E+02-1.74198E+04 7.91260E-11-1.93836E-09
 -1       542 3.91902E+03-2.64276E+01 3.86023E+02 4.87001E+02 2.78533E-11 1.74867E-09
 -1       543 3.97149E+03 3.24871E+01 1.88305E+02-1.74157E+04-2.67278E-10-1.57007E-09
 -1       544 3.94216E+03-7.71364E-01 4.42807E+01 4.85541E+02 6.66205E-10-4.04896E-10
 -1       545 3.91261E+03-2.97472E+00-7.11760E+01-1.74140E+04-6.09873E-10 1.08756E-10
 -1       546 3.95840E+03 2.18949E+01-1.98953E+02 4.85303E+02 1.72207E-10 1.80077E-09
 -1       547 3.82440E+03-1.74795E+02-5.13150E+02-1.74129E+04-7.88816E-10 3.03953E-09
 -1       548 4.03449E+03 1.61789E+02-8.79934E+02 4.84435E+02-9.87256E-10 1.54267E-09
 -1       549 3.23578E+03-1.43830E+03-2.31191E+03-1.74008E+04-2.65572E-10 2.74395E-09
 -1       550 4.57475E+03 1.21232E+03-3.41249E+03 4.73130E+02-1.69393E-10 2.63526E-10
 -1       551 3.74107E+03-1.86283E+05 1.13017E+04-3.04345E+05 2.52112E-09 6.52653E-09
 -1       552 3.77093E+03-1.84741E+05 1.23215E+04-3.94734E+05-4.18368E-10 1.29521E-08
 -1       553 2.42684E+03-1.86779E+05 1.80827E+04-3.03654E+05 2.65572E-09 5.26825E-09
 -1       554 1.12248E+04-1.78569E+05 3.72359E+04-3.94857E+05-8.58563E-10 2.25236E-09
 -1       555 2.11213E+04-1.93069E+05 6.90452E+04-3.04160E+05 2.65936E-09-2.68847E-09
 -1       556-1.14193E+04-5.82865E+04 1.83356E+04-8.55184E+04-4.42378E-09-3.75803E-09
 -1       557 9.54673E+03-7.63698E+04 9.52440E+03-1.02770E+05 9.49512E-10-2.32762E-09
 -1       558-1.10112E+04-6.12315E+04 3.95346E+03-8.30418E+04 3.71074E-10-1.07593E-09
 -1       559 7.34714E+03-7.90741E+04 1.97124E+03-1.03614E+05 5.36602E-10-4.71823E-09
 -1       560-1.12262E+04-6.10791E+04 8.65543E+02-8.31325E+04-3.63798E-11 2.91948E-10
 -1       561 6.87701E+03-7.90450E+04 4.33139E+02-1.03910E+05 3.61979E-10 4.13957E-09
 -1       562-1.14283E+04-6.09288E+04 1.79593E+02-8.32804E+04 2.34104E-09 7.81279E-09
 -1       563 6.62847E+03-7.89419E+04 8.22439E+01-1.04072E+05 5.09317E-11-1.65164E-09
 -1       564-1.15535E+04-6.08426E+04 1.16889E+00-8.33707E+04 9.39508E-10-1.21236E-09
 -1       565 6.50050E+03-7.88909E+04-6.66923E+01-1.04152E+05-2.07365E-09-7.43967E-10
 -1       566-1.15895E+04-6.08109E+04-1.81810E+02-8.34006E+04 3.21711E-09-4.15821E-09
 -1       567 6.45332E+03-7.88954E+04-4.19344E+02-1.04141E+05 1.11374E-08-9.69521E-10
 -1       568-1.15073E+04-6.08667E+04-8.73442E+02-8.33691E+04 3.93993E-09-3.25235E-09
 -1       569 5.85319E+03-7.92195E+04-2.06759E+03-1.03785E+05-9.39508E-10 1.26238E-09
 -1       570-1.08837E+04-6.19496E+04-4.02856E+03-8.30726E+04 3.63798E-10 5.88670E-10
 -1       571 9.45676E+04 3.84465E+03 5.69302E+03-2.26676E+04 5.41149E-10 3.73780E-09
 -1       572 9.54182E+04 1.33733E+03 2.78885E+03-2.48484E+04-5.17275E-11 4.31100E-10
 -1       573 9.49140E+04 3.18610E+02 1.23886E+03-2.26086E+04-1.62345E-10 9.32232E-12
 -1       574 9.50173E+04 1.02212E+02 6.20404E+02-2.49145E+04 1.40062E-10 4.63842E-10
 -1       575 9.49555E+04 1.24902E+01 2.92190E+02-2.26008E+04 7.97741E-10 6.70752E-10
 -1       576 9.49642E+04 1.52699E+00 1.48276E+02-2.49234E+04 1.47452E-10 2.83876E-09
 -1       577 9.49617E+04-4.02209E+00 7.23477E+01-2.25998E+04 1.00618E-08 4.09659E-09
 -1       578 9.49575E+04-2.70960E+00 3.80441E+01-2.49244E+04 1.99661E-08 2.65300E-09
 -1       579 9.49651E+04-3.29429E+00 2.08946E+01-2.25998E+04 9.34392E-09 6.25732E-10
 -1       580 9.49603E+04-3.34406E+00 1.54626E+01-2.49230E+04-6.36646E-11-1.14755E-09
 -1       581 9.49700E+04-4.31046E+00 1.67678E+01-2.26012E+04 7.56700E-10-1.25692E-09
 -1       582 9.49691E+04-2.19444E+00 2.86085E+01-2.49093E+04 4.82032E-10 2.56932E-10
 -1       583 9.49756E+04 4.70296E+00 5.31327E+01-2.26134E+04 7.55790E-10-1.43461E-09
 -1       584 9.49954E+04 4.55430E+01 1.18093E+02-2.48080E+04-6.08907E-10-1.54546E-09
 -1       585 9.49698E+04 1.49545E+02 2.39347E+02-2.27026E+04-1.91903E-10 4.90218E-10
 -1       586-2.44583E+02 3.78337E+04-1.55627E+02-7.08591E+04 4.51564E-10-1.65960E-09
 -1       587 3.88521E+01 3.78325E+04 5.37977E+02-7.88931E+04 2.91948E-10-6.39091E-10
 -1       588 3.33171E+02 3.77409E+04 1.47532E+03-7.07939E+04 5.18412E-10-1.51942E-09
 -1       589 1.55834E+03 3.84073E+04 3.51973E+03-7.88586E+04 3.18778E-10-9.99080E-10
 -1       590 4.58911E+03 3.72803E+04 7.23592E+03-7.08935E+04 4.12456E-10 4.64297E-10
 -1       591-3.81640E+04-1.07826E+04-8.50723E+03-1.83546E+04-6.61089E-11-7.87168E-10
 -1       592-3.88433E+04-1.12597E+04-4.39429E+03-2.05831E+04-3.63798E-12 1.62493E-09
 -1       593-3.87618E+04-9.08259E+03-1.85818E+03-1.93225E+04-1.72236E-10-9.41554E-10
 -1       594-3.78013E+04-1.01947E+04-9.16762E+02-2.06304E+04 1.36765E-10-1.29265E-09
 -1       595-3.88139E+04-9.04841E+03-4.23214E+02-1.93580E+04 3.36399E-10 1.12758E-09
 -1       596-3.77331E+04-1.01563E+04-2.14187E+02-2.06197E+04-3.95232E-10-8.28152E-10
 -1       597-3.88217E+04-9.05521E+03-1.15662E+02-1.93583E+04-2.26024E-10-6.68592E-10
 -1       598-3.77261E+04-1.01560E+04-9.07730E+01-2.06169E+04-1.17865E-10-5.62665E-10
 -1       599-3.88215E+04-9.05544E+03-1.13147E+02-1.93581E+04 1.48418E-10-7.62782E-10
 -1       600-3.77325E+04-1.01567E+04-2.07635E+02-2.06191E+04 4.96982E-10 1.04683E-09
 -1       601-3.88132E+04-9.04913E+03-4.08936E+02-1.93575E+04-7.88987E-11-1.98952E-11
 -1       602-3.77986E+04-1.01933E+04-8.85477E+02-2.06281E+04 3.14913E-11 3.82482E-09
 -1       603-3.87619E+04-9.08338E+03-1.79432E+03-1.93238E+04 4.67480E-10-1.75623E-09
 -1       604-3.88133E+04-1.12123E+04-4.24294E+03-2.05712E+04 2.08161E-10-2.96382E-10
 -1       605-3.81749E+04-1.07329E+04-8.21382E+03-1.83986E+04 2.63526E-10 1.79489E-09
 -1       606 2.63982E+04-3.97550E+03-7.05381E+03 1.12916E+04-1.89812E-09-1.45837E-09
 -1       607 2.51996E+04-1.28572E+03-3.50775E+03 1.26415E+04-4.87489E-10 8.13088E-10
 -1       608 2.58874E+04-2.21486E+02-1.56939E+03 1.12032E+04 1.18871E-09 1.54455E-09
 -1       609 2.57510E+04-5.98877E+01-7.92427E+02 1.27392E+04-1.13960E-09-2.65834E-09
 -1       610 2.58300E+04 7.85573E+00-3.77715E+02 1.11932E+04-2.47292E-09-9.56106E-11
 -1       611 2.58052E+04 1.05707E+01-1.90573E+02 1.27500E+04-4.65184E-09 3.35558E-09
 -1       612 2.58183E+04 1.17464E+01-9.07329E+01 1.11923E+04-1.92313E-09-4.72824E-10
 -1       613 2.58097E+04 1.12141E+01-4.12014E+01 1.27513E+04-2.23667E-09 1.17120E-09
 -1       614 2.58132E+04 9.41752E+00-1.07569E+01 1.11919E+04-3.98359E-10-1.61435E-11
 -1       615 2.58092E+04 1.10882E+01 1.43367E+01 1.27515E+04 2.02294E-09-2.39072E-09
 -1       616 2.58093E+04 9.89119E+00 4.57567E+01 1.11921E+04-2.78919E-09 9.33369E-11
 -1       617 2.58152E+04 2.11109E+01 1.05397E+02 1.27512E+04-9.14497E-10-2.50043E-09
 -1       618 2.58003E+04 4.15185E+01 2.12995E+02 1.11922E+04-6.13795E-10-1.84286E-10
 -1       619 2.58902E+04 1.88891E+02 4.78748E+02 1.27503E+04-2.77396E-11 1.08730E-09
 -1       620 2.57304E+04 5.54775E+02 9.63725E+02 1.11926E+04 1.39829E-09-1.13118E-10
 -1       621 2.03691E+02 9.99387E+04 1.00484E+03-5.14528E+03-6.33264E-10-9.16145E-10
 -1       622 1.15057E+02 1.00155E+05 1.08816E+03-6.68690E+03-4.53099E-10 1.66142E-09
 -1       623 4.07875E+01 9.99678E+04 1.60878E+03-5.14345E+03-5.50813E-10 2.54204E-09
 -1       624 7.70644E+02 1.00731E+05 3.31922E+03-6.66993E+03-4.98630E-10-9.86120E-10
 -1       625 1.73779E+03 9.93635E+04 6.17180E+03-5.16193E+03-6.07088E-10-1.09526E-09
 -1       626 7.70183E+04 2.28369E+04 6.77973E+02 4.43238E+04-2.73531E-10 2.22644E-09
 -1       627 7.56493E+04 2.40693E+04 3.25953E+02 4.60900E+04 4.94765E-10-1.75874E-10
 -1       628 7.70774E+04 2.24723E+04 1.37932E+02 4.43816E+04 5.17048E-10 3.30147E-10
 -1       629 7.55076E+04 2.40347E+04 6.85697E+01 4.61830E+04 2.96495E-10 2.19009E-09
 -1       630 7.70814E+04 2.24534E+04 3.33859E+01 4.43790E+04 1.77806E-10-8.25992E-10
 -1       631 7.54892E+04 2.40373E+04 2.14325E+01 4.61873E+04-1.71713E-09-8.46447E-09
 -1       632 7.70787E+04 2.24544E+04 2.09688E+01 4.43765E+04 1.61435E-11-1.38294E-09
 -1       633 7.54863E+04 2.40387E+04 3.34198E+01 4.61864E+04-1.73611E-09-4.50427E-10
 -1       634 7.70750E+04 2.24527E+04 6.31909E+01 4.43756E+04-1.85901E-09-8.26674E-09
 -1       635 7.54913E+04 2.40387E+04 1.33739E+02 4.61879E+04-4.23790E-09-1.72031E-08
 -1       636 7.70688E+04 2.24518E+04 2.73072E+02 4.43740E+04-1.17532E-09 9.31095E-11
 -1       637 7.55475E+04 2.40849E+04 6.02161E+02 4.61853E+04 9.87285E-10-3.85398E-09
 -1       638 7.70456E+04 2.25928E+04 1.23913E+03 4.43085E+04-1.06184E-08 3.28646E-09
 -1       639 7.61873E+04 2.50134E+04 2.93321E+03 4.59906E+04-1.93413E-08 8.20978E-09
 -1       640 7.69716E+04 2.53363E+04 6.09774E+03 4.31396E+04-1.85275E-09 1.36043E-08
 -1       656 7.97352E+03-2.22674E+05-2.29729E+04-3.18756E+02 2.83762E-10 4.83737E-10
 -1       657-1.06198E+04-2.32310E+05-1.82943E+04 1.49785E+04-1.65528E-10 3.51224E-09
 -1       658 2.19645E+03-2.25633E+05-1.16463E+04-3.60769E+02 9.86233E-10 3.44929E-09
 -1       659-1.13346E+04-2.32677E+05-1.93287E+04 1.50057E+04 3.87672E-10 5.15374E-10
 -1       660 8.66125E+03-2.22312E+05-2.48112E+04-3.45923E+02 5.60249E-10 9.28196E-10
 -1       661 9.03614E+04 1.11922E+04 7.64183E+03 3.51141E+04 4.23404E-09 2.07456E-09
 -1       662 9.25727E+04 1.68869E+04 4.85494E+03 3.56910E+04 1.06368E-10 1.35685E-10
 -1       663 9.16980E+04 1.30134E+04 1.80538E+03 3.48999E+04 1.72662E-09-6.24823E-10
 -1       664 9.10362E+04 1.45639E+04 1.00148E+03 3.60376E+04-5.14078E-11-3.17392E-09
 -1       665 9.18555E+04 1.32140E+04 4.24279E+02 3.48807E+04 1.40560E-10-1.63821E-09
 -1       666 9.08551E+04 1.43141E+04 2.32705E+02 3.60694E+04 5.39501E-10 2.02877E-09
 -1       667 9.18754E+04 1.32353E+04 1.31374E+02 3.48787E+04 1.68214E-09 1.78660E-09
 -1       668 9.08361E+04 1.42937E+04 1.27601E+02 3.60738E+04-2.61420E-09 6.48726E-12
 -1       669 9.18745E+04 1.32322E+04 1.81898E+02 3.48773E+04 9.59517E-11-4.87773E-10
 -1       670 9.08697E+04 1.43393E+04 3.73556E+02 3.60740E+04 4.60680E-09-2.18719E-10
 -1       671 9.18429E+04 1.31927E+04 7.07578E+02 3.48776E+04-4.77911E-10-1.09236E-09
 -1       672 9.11727E+04 1.47668E+04 1.68765E+03 3.60266E+04-5.65802E-09 7.38510E-10
 -1       673 9.15787E+04 1.28512E+04 3.04772E+03 3.49074E+04-7.98067E-10 6.41876E-10
 -1       674 9.37683E+04 1.86932E+04 8.20144E+03 3.54437E+04 1.43655E-09-6.07656E-10
 -1       675 8.93197E+04 9.77470E+03 1.29096E+04 3.52701E+04-3.91424E-10 6.71207E-10
 -1       676 1.26089E+01-1.15728E+05-5.36223E+02 1.24829E+01 3.47441E-09-2.43097E-10
 -1       677-1.53343E+02-1.15864E+05-9.85019E+02-2.49650E+01 3.87854E-09 9.99957E-10
 -1       678 1.05778E+02-1.15632E+05-1.73301E+03 1.24727E+01 2.83035E-09 3.67849E-10
 -1       679-1.79637E+03-1.16922E+05-4.13806E+03-2.49514E+01 1.34401E-09-4.64649E-10
 -1       680 1.13268E+03-1.14670E+05-6.62468E+03 1.23217E+01 1.78215E-09-9.68310E-10
 -1       771-9.39621E+05-1.77804E+05-2.34664E+04-4.03571E+05-1.71713E-09 1.47702E-09
 -1       772-9.33347E+05-1.86861E+05-1.20817E+04-4.18621E+05-1.05319E-09 9.43146E-10
 -1       773-9.41861E+05-1.72619E+05-5.17102E+03-4.05897E+05-4.22006E-10-1.13687E-09
 -1       774-9.30296E+05-1.84332E+05-2.53154E+03-4.19499E+05 5.23869E-10-1.46201E-09
 -1       775-9.42259E+05-1.72330E+05-1.20512E+03-4.06045E+05-7.13044E-10-2.41926E-10
 -1       776-9.30242E+05-1.84236E+05-5.93149E+02-4.19752E+05-8.58563E-10 9.82709E-10
 -1       777-9.42481E+05-1.72214E+05-3.33418E+02-4.06112E+05-6.54836E-11-1.01045E-09
 -1       778-9.30341E+05-1.84215E+05-2.24594E+02-4.19944E+05-5.20231E-10-7.65567E-10
 -1       779-9.42633E+05-1.72113E+05-2.67101E+02-4.06164E+05-2.87400E-10 1.57115E-10
 -1       780-9.30448E+05-1.84205E+05-4.43944E+02-4.20096E+05-1.14142E-09-3.19801E-10
 -1       781-9.42719E+05-1.72025E+05-8.68204E+02-4.06198E+05-1.42609E-09-1.17677E-09
 -1       782-9.30648E+05-1.84276E+05-1.86440E+03-4.20209E+05-1.55524E-10-8.36735E-10
 -1       783-9.42669E+05-1.72057E+05-3.77939E+03-4.06147E+05-2.37378E-10-8.42192E-10
 -1       784-9.32812E+05-1.86422E+05-8.93945E+03-4.20129E+05-1.53659E-09-1.46429E-10
 -1       785-9.41444E+05-1.75526E+05-1.73115E+04-4.04206E+05 7.90351E-10-5.28416E-10
 -1       786 7.41041E+04-3.41872E+03 9.51134E+03 2.70007E+01 2.01425E-10 9.95442E-10
 -1       787 7.79606E+04 4.04776E+03 6.48329E+03-8.75692E+02-5.55751E-11 2.39424E-10
 -1       788 7.56424E+04-4.59349E+02 2.47091E+03 2.61276E+01 6.77431E-11 1.21793E-09
 -1       789 7.62004E+04 5.40847E+02 1.47484E+03-8.74278E+02-2.69997E-10 2.41880E-09
 -1       790 7.58644E+04-6.16636E+01 6.31266E+02 2.55947E+01 5.18305E-11-8.73627E-10
 -1       791 7.59453E+04 7.21821E+01 3.54476E+02-8.73989E+02 2.55048E-10 4.80981E-10
 -1       792 7.58976E+04-8.62250E+00 1.71586E+02 2.58389E+01-4.77520E-11-1.94583E-09
 -1       793 7.59085E+04 1.26478E+01 1.12981E+02-8.75342E+02 5.18980E-10-7.23261E-10
 -1       794 7.59012E+04-3.98229E+00 9.44956E+01 2.69475E+01-4.02686E-10 1.61858E-09
 -1       795 7.59159E+04 2.61605E+01 1.41664E+02-8.78425E+02 4.94726E-10 1.91423E-09
 -1       796 7.58904E+04-2.16750E+01 2.28839E+02 2.89228E+01-3.47583E-10 6.33591E-11
 -1       797 7.60042E+04 1.88685E+02 5.19026E+02-8.82939E+02-4.52616E-12-1.10562E-09
 -1       798 7.58131E+04-1.60348E+02 8.64154E+02 3.14611E+01-1.38822E-09 3.60160E-10
 -1       799 7.66184E+04 1.41209E+03 2.26312E+03-8.87946E+02-2.48184E-09 3.71577E-09
 -1       800 7.52763E+04-1.19293E+03 3.31874E+03 3.39208E+01-1.41731E-09 2.29147E-09
 -1       801-5.72047E+03 6.73410E+04 1.18396E+04 1.40500E+04 1.58641E-08-3.48882E-09
 -1       802 1.43271E+04 7.59662E+04 2.01281E+04-5.18418E+05 2.05537E-08 1.82808E-09
 -1       803-4.42653E+03 6.92890E+04 2.55418E+04 1.40027E+04 2.67864E-08 5.73260E-09
 -1       804 4.39712E+04 9.20760E+04 6.33475E+04-5.18437E+05 2.33622E-08 8.60791E-09
 -1       805-3.46006E+04 5.19714E+04 8.83600E+04 1.40640E+04 1.05174E-08 4.39468E-09
 -1       806-8.30502E+04-2.07477E+04-7.00523E+03-3.74246E+04-1.11947E-09 2.68801E-09
 -1       807-8.31215E+04-1.94049E+04-3.36949E+03-3.95913E+04-4.41872E-09-8.00107E-09
 -1       808-8.31124E+04-1.76201E+04-1.42367E+03-3.87979E+04-1.13709E-08-3.59039E-09
 -1       809-8.24178E+04-1.83085E+04-6.92005E+02-3.97836E+04-2.16378E-08-6.31553E-09
 -1       810-8.31369E+04-1.74600E+04-3.14614E+02-3.88766E+04-8.87167E-09 4.46909E-09
 -1       811-8.23563E+04-1.82525E+04-1.55840E+02-3.97831E+04 9.09210E-11-1.89380E-09
 -1       812-8.31427E+04-1.74620E+04-7.74099E+01-3.88782E+04-8.14566E-10-2.17869E-09
 -1       813-8.23489E+04-1.82529E+04-4.86370E+01-3.97796E+04-6.29370E-10-2.90800E-09
 -1       814-8.31424E+04-1.74643E+04-4.51450E+01-3.88772E+04 1.81035E-09 7.62691E-09
 -1       815-8.23505E+04-1.82541E+04-7.05677E+01-3.97788E+04 3.94493E-11 8.97217E-10
 -1       816-8.31381E+04-1.74653E+04-1.31947E+02-3.88758E+04-2.76032E-10-1.51567E-09
 -1       817-8.23775E+04-1.82739E+04-2.85101E+02-3.97728E+04 5.50699E-10-1.75396E-09
 -1       818-8.31234E+04-1.75360E+04-5.84224E+02-3.88467E+04 2.95813E-10 8.39464E-10
 -1       819-8.27009E+04-1.86866E+04-1.38092E+03-3.96501E+04 1.95337E-09 9.98455E-09
 -1       820-8.30615E+04-1.88503E+04-2.87013E+03-3.83210E+04 2.00589E-09 9.83027E-09
 -1       821-1.09948E+05 4.87291E+03-1.35572E+04-6.98725E+01-8.70955E-10 1.92358E-09
 -1       822-1.15442E+05-5.76941E+03-9.24175E+03 1.73781E+03-7.03452E-10-2.92289E-10
 -1       823-1.12140E+05 6.54512E+02-3.52406E+03-8.35599E+01 9.99876E-10-1.43132E-09
 -1       824-1.12934E+05-7.70120E+02-2.10644E+03 1.76002E+03-2.47667E-10-6.04359E-10
 -1       825-1.12456E+05 8.78446E+01-9.08800E+02-9.21156E+01-1.64098E-09-5.57407E-10
 -1       826-1.12573E+05-1.02722E+02-5.23929E+02 1.77436E+03-3.60183E-09 5.60448E-10
 -1       827-1.12502E+05 1.31899E+01-2.80940E+02-9.79092E+01-1.77045E-09 2.95739E-09
 -1       828-1.12527E+05-2.52702E+01-2.38223E+02 1.78345E+03-2.99856E-09 2.03846E-09
 -1       829-1.12502E+05 1.31994E+01-2.80293E+02-1.01206E+02-3.72680E-11 2.70389E-09
 -1       830-1.12573E+05-1.02097E+02-5.22355E+02 1.78728E+03 1.06978E-09-1.61819E-09
 -1       831-1.12456E+05 8.76701E+01-9.05522E+02-1.01745E+02-1.27624E-09-1.34867E-09
 -1       832-1.12935E+05-7.66855E+02-2.09914E+03 1.78573E+03 2.21583E-11-1.67299E-09
 -1       833-1.12141E+05 6.52413E+02-3.51128E+03-9.96470E+01 7.79323E-11 1.07752E-09
 -1       834-1.15434E+05-5.74814E+03-9.20906E+03 1.77815E+03 5.30093E-10 1.80717E-09
 -1       835-1.09956E+05 4.85592E+03-1.35085E+04-9.40862E+01 9.91378E-10 3.16504E-10
 -1       836-4.46206E+02 1.30212E+05 9.68505E+03-9.10993E+03-6.27551E-11 1.25056E-10
 -1       837 2.01374E+03 1.33167E+05 7.60428E+03-1.76985E+04-7.11367E-10-1.82212E-09
 -1       838-1.49677E+02 1.31163E+05 7.01104E+03-9.08018E+03-1.63936E-10 4.39854E-10
 -1       839 3.99613E+03 1.34682E+05 1.24629E+04-1.77066E+04-5.57066E-10-4.83254E-10
 -1       840-9.54865E+02 1.28693E+05 1.96575E+04-9.10148E+03-1.74623E-10-7.80233E-10
 -1       856-7.31638E+04 2.53390E+03-1.03561E+04 1.22441E+03-2.08956E-09-6.57565E-10
 -1       857-7.69433E+04-3.36046E+03-6.67522E+03 5.42705E+03-3.32665E-09-1.91551E-09
 -1       858-7.47391E+04 2.68237E+02-2.68547E+03 1.20768E+03-2.29375E-09-1.26204E-09
 -1       859-7.51887E+04-3.37662E+02-1.50697E+03 5.44715E+03-5.11307E-10-2.35451E-09
 -1       860-7.49226E+04 3.05195E+01-6.81078E+02 1.20412E+03 4.36557E-10-8.56630E-11
 -1       861-7.49834E+04-2.83087E+01-3.64004E+02 5.45163E+03-3.03804E-09-3.24223E-09
 -1       862-7.49467E+04 5.06248E+00-1.80972E+02 1.20317E+03 1.00085E-09-5.34015E-10
 -1       863-7.49570E+04 2.22726E+00-1.10934E+02 5.45222E+03 4.53289E-09-5.47544E-10
 -1       864-7.49494E+04 2.77064E+00-8.81346E+01 1.20353E+03 1.43993E-09-3.35370E-09
 -1       865-7.49589E+04-3.61830E+00-1.18395E+02 5.44978E+03 2.71109E-09-1.52373E-09
 -1       866-7.49433E+04 8.87158E+00-1.94264E+02 1.20562E+03-4.39871E-09-2.43030E-09
 -1       867-7.50115E+04-8.79478E+01-4.12678E+02 5.44358E+03-6.10680E-09-2.90290E-10
 -1       868-7.48933E+04 7.24353E+01-7.29776E+02 1.20974E+03-1.19974E-09 1.29938E-09
 -1       869-7.54828E+04-9.07221E+02-1.80772E+03 5.41960E+03-1.31439E-09-1.64109E-09
 -1       870-7.44665E+04 6.84529E+02-2.80474E+03 1.22964E+03 1.18007E-09-5.73664E-10
 -1       871-1.49970E+03-1.03796E+04-4.63026E+03 4.31242E+04-3.81988E-10-1.55069E-09
 -1       872-6.20841E+02-1.14004E+04-1.75504E+03 5.54542E+04 7.30324E-10 2.28431E-09
 -1       873-3.78933E+00-1.09362E+04 5.79572E+02 4.30275E+04-1.25283E-10-9.44965E-10
 -1       874 8.89165E+02-1.01026E+04 3.34247E+03 5.54778E+04 1.22782E-11 1.62714E-09
 -1       875 2.17452E+03-1.16930E+04 7.21658E+03 4.31024E+04-4.13820E-10 5.62977E-10
 -1       876 1.15848E+05 1.80970E+04 8.78768E+03 4.60461E+04 3.38559E-10-2.06137E-09
 -1       877 1.17193E+05 2.13456E+04 4.96945E+03 4.78260E+04-1.81717E-09 2.23883E-09
 -1       878 1.16944E+05 1.83169E+04 2.02364E+03 4.63966E+04 2.08377E-09-3.28203E-09
 -1       879 1.15824E+05 1.97827E+04 1.02687E+03 4.79434E+04 5.67263E-09 2.16255E-09
 -1       880 1.17030E+05 1.83506E+04 4.68209E+02 4.64191E+04 1.82786E-09-2.45231E-09
 -1       881 1.15720E+05 1.96902E+04 2.43995E+02 4.79378E+04-3.98558E-10 2.17487E-09
 -1       882 1.17039E+05 1.83574E+04 1.41956E+02 4.64210E+04 2.87173E-10-4.03070E-10
 -1       883 1.15712E+05 1.96847E+04 1.31822E+02 4.79351E+04-2.82500E-09-1.64122E-09
 -1       884 1.17037E+05 1.83569E+04 1.90113E+02 4.64211E+04-2.79137E-09-2.10264E-10
 -1       885 1.15729E+05 1.96930E+04 3.71914E+02 4.79385E+04 4.05500E-09 4.64496E-10
 -1       886 1.17021E+05 1.83468E+04 7.39623E+02 4.64184E+04-3.13776E-11-1.11999E-09
 -1       887 1.15896E+05 1.98408E+04 1.63612E+03 4.79465E+04-4.08829E-09-3.78509E-09
 -1       888 1.16883E+05 1.82929E+04 3.23011E+03 4.63818E+04-1.75099E-09 4.57021E-09
 -1       889 1.18067E+05 2.23523E+04 7.93608E+03 4.77751E+04 6.85787E-10-6.55405E-10
 -1       890 1.15145E+05 1.79274E+04 1.40344E+04 4.58047E+04 2.04261E-09 1.34605E-10
 -1       891 8.91964E+01-6.36027E+04-2.05337E+03 1.10468E+04 4.80441E-10-5.26438E-09
 -1       892-4.36383E+02-6.42210E+04-1.62225E+03 2.15482E+04-3.51633E-10-8.98513E-09
 -1       893 2.63156E+01-6.38016E+04-1.51205E+03 1.10323E+04 1.97656E-09-4.05248E-09
 -1       894-8.81918E+02-6.45500E+04-2.70486E+03 2.15116E+04 3.90060E-10-3.74280E-09
 -1       895 1.95448E+02-6.32563E+04-4.27703E+03 1.10832E+04 4.93401E-11-1.16074E-09
 -1       956-1.19058E+05-2.00041E+03-4.90137E+03 1.16814E+04-1.94950E-09-3.32079E-10
 -1       957-1.20017E+05-6.67485E+02-2.51013E+03 1.39884E+04-9.50422E-10-2.85877E-09
 -1       958-1.19487E+05-5.73865E+01-1.13048E+03 1.16095E+04 1.71985E-09-1.36845E-09
 -1       959-1.19565E+05-1.15498E+01-5.76871E+02 1.40665E+04-6.09361E-10 2.04636E-12
 -1       960-1.19525E+05 1.47245E+01-2.80338E+02 1.16029E+04-2.20666E-09-1.67950E-09
 -1       961-1.19531E+05 1.31013E+01-1.47269E+02 1.40737E+04-3.65787E-09-3.03669E-09
 -1       962-1.19532E+05 1.23201E+01-8.14390E+01 1.16022E+04-1.75760E-09-1.39312E-09
 -1       963-1.19529E+05 1.31848E+01-6.04388E+01 1.40747E+04-2.79937E-09-1.13027E-09
 -1       964-1.19534E+05 1.25365E+01-6.71957E+01 1.16019E+04-1.24146E-10 2.02067E-09
 -1       965-1.19532E+05 1.41043E+01-1.11009E+02 1.40745E+04 2.40355E-09-9.11314E-10
 -1       966-1.19531E+05 1.51933E+01-2.05430E+02 1.16023E+04-8.25366E-10-1.36674E-09
 -1       967-1.19559E+05-2.79284E+00-4.19864E+02 1.40701E+04 1.75476E-10-6.13454E-10
 -1       968-1.19504E+05-3.63118E+01-8.21225E+02 1.16064E+04 4.74347E-09-2.72854E-09
 -1       969-1.19889E+05-4.78446E+02-1.82309E+03 1.40209E+04 1.08653E-08-2.12569E-09
 -1       970-1.19194E+05-1.44704E+03-3.55936E+03 1.16521E+04 6.32213E-09-1.70894E-09
 -1       971-1.37668E+05-1.29747E+02-5.13690E+03 4.37200E+03-4.78167E-10-2.41141E-09
 -1       972-1.39118E+05-8.67863E+02-2.95231E+03 7.36804E+03 1.17643E-09-3.33102E-09
 -1       973-1.38317E+05 1.17020E+01-1.29152E+03 4.33012E+03 2.68210E-09 1.37788E-10
 -1       974-1.38427E+05-3.73027E+01-6.77612E+02 7.41335E+03 7.22309E-09-2.72848E-12
 -1       975-1.38367E+05 8.37282E+00-3.32075E+02 4.32640E+03 3.97699E-09-7.30040E-10
 -1       976-1.38376E+05 6.16248E+00-1.86076E+02 7.41800E+03-3.54703E-10 3.25656E-10
 -1       977-1.38373E+05 6.50255E+00-1.23878E+02 4.32545E+03 2.50850E-09-1.25141E-10
 -1       978-1.38373E+05 8.71700E+00-1.30411E+02 7.41935E+03 6.80154E-09-3.54504E-10
 -1       979-1.38373E+05 8.07303E+00-1.96874E+02 4.32504E+03 3.61975E-09-7.47150E-10
 -1       980-1.38388E+05 5.21479E+00-3.73338E+02 7.41953E+03 2.62752E-09 5.11591E-13
 -1       981-1.38359E+05 1.51608E+01-7.16884E+02 4.32527E+03-8.02402E-10-4.38234E-10
 -1       982-1.38508E+05-8.84350E+01-1.49348E+03 7.41741E+03-3.55897E-10-1.91002E-09
 -1       983-1.38251E+05 2.54319E+01-2.85959E+03 4.32721E+03 3.84307E-09-1.83275E-09
 -1       984-1.40048E+05-1.92807E+03-6.54779E+03 7.38747E+03-1.57979E-09-7.09122E-10
 -1       985-1.36816E+05-2.85044E+02-1.13940E+04 4.35614E+03 1.31786E-09-1.28557E-09
 -3
    1PSTEP                         3           2           1          
  100CL  102 5.00000E-01         409                     0    2           1
 -4  DISP        4    1
 -5  D1          1    2    1    0
 -5  D2          1    2    2    0
 -5  D3          1    2    3    0
 -5  ALL         1    2    0    0    1ALL
 -1         1 9.93467E-05 0.00000E+00 0.00000E+00
 -1         2 8.80013E-05-2.26643E-30 0.00000E+00
 -1         3 8.23028E-05-3.20666E-27-6.61744E-24
 -1         5 5.82983E-05 5.03498E-26 3.30872E-24
 -1         8 8.00942E-05-7.91872E-07 0.00000E+00
 -1         9 7.38888E-05-9.32049E-07 0.00000E+00
 -1        10 7.57875E-05-1.52252E-06 0.00000E+00
 -1        12 5.77084E-05 5.72542E-07-1.65436E-24
 -1        15 5.83820E-05-8.52653E-07 4.13590E-25
 -1        16 5.15763E-05-1.06307E-06 0.00000E+00
 -1        17 5.49400E-05-3.20082E-06 0.00000E+00
 -1        18 5.48813E-05-1.33859E-07 0.00000E+00
 -1        19 5.59388E-05 1.14172E-06 0.00000E+00
 -1        20 5.62260E-05 1.48891E-05 0.00000E+00
 -1        21 5.50732E-05 3.13622E-05-3.30872E-24
 -1        24 1.58055E-05-4.14241E-06 0.00000E+00
 -1        25 5.27818E-05 2.13849E-08 0.00000E+00
 -1        26 5.36402E-05 1.55807E-06 0.00000E+00
 -1        27 5.23902E-05 1.39611E-05 0.00000E+00
 -1        28 5.15502E-05 3.08795E-05 0.00000E+00
 -1        32 0.00000E+00 0.00000E+00 0.00000E+00
 -1        33 5.07294E-05 2.09366E-06 0.00000E+00
 -1        34 4.93940E-05 1.39128E-05 0.00000E+00
 -1        35 4.78477E-05 3.06139E-05 0.00000E+00
 -1        51 9.79877E-05-1.31471E-07 0.00000E+00
 -1        52 9.56221E-05-2.59072E-07 0.00000E+00
 -1        53 9.24453E-05-3.87057E-07 0.00000E+00
 -1        54 8.86617E-05-5.16906E-07-3.30872E-24
 -1        55 8.44761E-05-6.49827E-07-1.65436E-24
 -1        56 9.80753E-05-7.61947E-07 0.00000E+00
 -1        57 9.69272E-05-2.00337E-06 1.32349E-23
 -1        58 9.59094E-05-3.58408E-06 0.00000E+00
 -1        59 9.49604E-05-5.37512E-06 0.00000E+00
 -1        60 9.40324E-05-7.22290E-06 5.29396E-23
 -1        61 9.30670E-05-8.97541E-06 2.64698E-23
 -1        62 9.20117E-05-1.04879E-05 5.29396E-23
 -1        63 9.08155E-05-1.16247E-05 2.64698E-23
 -1        64 8.94395E-05-1.22815E-05 5.29396E-23
 -1        65 8.78509E-05-1.23707E-05 0.00000E+00
 -1        66 8.60341E-05-1.18526E-05 0.00000E+00
 -1        67 8.39832E-05-1.07083E-05 2.64698E-23
 -1        68 8.17093E-05-8.97216E-06 5.29396E-23
 -1        69 7.92403E-05-6.69616E-06-1.32349E-23
 -1        70 7.66032E-05-3.98369E-06 0.00000E+00
 -1        86 8.75215E-05-1.50196E-07-6.61744E-24
 -1        87 8.60854E-05-3.01499E-07 0.00000E+00
 -1        88 8.38270E-05-4.54271E-07 0.00000E+00
 -1        89 8.08856E-05-6.10183E-07 0.00000E+00
 -1        90 7.74943E-05-7.66953E-07 0.00000E+00
 -1       121 8.21208E-05-2.52914E-07 0.00000E+00
 -1       122 8.15753E-05-5.05961E-07 3.30872E-24
 -1       123 8.06672E-05-7.59271E-07 0.00000E+00
 -1       124 7.93982E-05-1.01302E-06-3.30872E-24
 -1       125 7.77705E-05-1.26725E-06 6.61744E-24
 -1       191 5.82819E-05 9.54332E-08-3.30872E-24
 -1       192 5.82328E-05 1.90864E-07-1.65436E-24
 -1       193 5.81509E-05 2.86293E-07 0.00000E+00
 -1       194 5.80362E-05 3.81718E-07-1.65436E-24
 -1       195 5.78887E-05 4.77135E-07-3.30872E-24
 -1       251 7.97068E-05 2.74521E-06 1.32349E-23
 -1       252 7.93175E-05 6.08354E-06 0.00000E+00
 -1       253 7.89306E-05 8.61134E-06 1.32349E-23
 -1       254 7.85456E-05 9.73011E-06 0.00000E+00
 -1       255 7.81611E-05 9.30418E-06-1.32349E-23
 -1       256 7.77745E-05 7.22337E-06 0.00000E+00
 -1       257 7.73848E-05 3.92099E-06-1.32349E-23
 -1       258 7.69924E-05-1.49456E-07-6.61744E-24
 -1       259 7.65998E-05-4.28228E-06-1.32349E-23
 -1       260 7.62095E-05-7.77061E-06 0.00000E+00
 -1       261 7.58223E-05-1.01193E-05 1.32349E-23
 -1       262 7.54376E-05-1.08522E-05 6.61744E-24
 -1       263 7.50528E-05-1.00237E-05-1.32349E-23
 -1       264 7.46662E-05-7.71388E-06 0.00000E+00
 -1       265 7.42771E-05-4.48940E-06 1.32349E-23
 -1       266 7.64755E-05-8.13520E-07 0.00000E+00
 -1       267 7.28568E-05-8.22244E-07 1.65436E-24
 -1       268 6.92381E-05-8.31795E-07 1.65436E-24
 -1       269 6.56194E-05-8.38912E-07 4.13590E-25
 -1       270 6.20007E-05-8.45977E-07 4.13590E-25
 -1       271 7.74087E-05 1.74665E-06 2.64698E-23
 -1       272 7.50301E-05 3.31366E-06 0.00000E+00
 -1       273 7.29775E-05 4.02194E-06 5.29396E-23
 -1       274 7.11980E-05 3.97860E-06 2.64698E-23
 -1       275 6.96506E-05 3.31521E-06-5.29396E-23
 -1       276 6.82808E-05 2.17338E-06 0.00000E+00
 -1       277 6.70321E-05 7.06943E-07 5.29396E-23
 -1       278 6.58447E-05-9.23798E-07 0.00000E+00
 -1       279 6.46572E-05-2.55453E-06-5.29396E-23
 -1       280 6.34085E-05-4.02088E-06 0.00000E+00
 -1       281 6.20384E-05-5.16263E-06 0.00000E+00
 -1       282 6.04905E-05-5.82617E-06 0.00000E+00
 -1       283 5.87105E-05-5.86976E-06 0.00000E+00
 -1       284 5.66555E-05-5.16248E-06 2.64698E-23
 -1       285 5.42750E-05-3.59636E-06 0.00000E+00
 -1       301 7.01533E-05-9.60582E-07 0.00000E+00
 -1       302 6.64086E-05-9.75003E-07 0.00000E+00
 -1       303 6.26666E-05-9.88227E-07 0.00000E+00
 -1       304 5.89393E-05-1.00261E-06 0.00000E+00
 -1       305 5.52386E-05-1.02015E-06 0.00000E+00
 -1       306 7.16774E-05 1.74541E-06 0.00000E+00
 -1       307 6.98862E-05 3.21586E-06 1.32349E-23
 -1       308 6.84991E-05 3.61797E-06 2.64698E-23
 -1       309 6.74523E-05 3.09748E-06 1.32349E-23
 -1       310 6.66844E-05 1.83179E-06 0.00000E+00
 -1       311 6.61228E-05 1.12997E-08-1.32349E-23
 -1       312 6.56907E-05-2.15646E-06-2.64698E-23
 -1       313 6.53081E-05-4.45733E-06 0.00000E+00
 -1       314 6.48937E-05-6.67294E-06 0.00000E+00
 -1       315 6.43669E-05-8.58663E-06 1.32349E-23
 -1       316 6.36499E-05-9.99110E-06 0.00000E+00
 -1       317 6.26696E-05-1.06889E-05 0.00000E+00
 -1       318 6.13586E-05-1.05041E-05-2.64698E-23
 -1       319 5.96623E-05-9.27643E-06-1.32349E-23
 -1       320 5.75232E-05-6.88143E-06-2.64698E-23
 -1       336 7.34035E-05-1.79949E-06-6.61744E-24
 -1       337 7.05735E-05-2.07795E-06 3.30872E-24
 -1       338 6.73039E-05-2.35761E-06 6.61744E-24
 -1       339 6.36025E-05-2.63822E-06 0.00000E+00
 -1       340 5.94779E-05-2.92049E-06 0.00000E+00
 -1       406 5.74954E-05 6.67930E-07-3.30872E-24
 -1       407 5.72495E-05 7.63278E-07 0.00000E+00
 -1       408 5.69709E-05 8.58557E-07-3.30872E-24
 -1       409 5.66595E-05 9.53642E-07-1.65436E-24
 -1       410 5.63154E-05 1.04834E-06 0.00000E+00
 -1       521 4.84709E-05 1.23197E-06-5.29396E-23
 -1       522 4.57339E-05 2.36969E-06 0.00000E+00
 -1       523 4.33954E-05 2.45822E-06 0.00000E+00
 -1       524 4.13947E-05 1.61683E-06 0.00000E+00
 -1       525 3.96748E-05 2.41109E-08 5.29396E-23
 -1       526 3.81579E-05-2.11720E-06 0.00000E+00
 -1       527 3.67583E-05-4.57291E-06-5.29396E-23
 -1       528 3.53841E-05-7.09779E-06 0.00000E+00
 -1       529 3.39426E-05-9.44252E-06-5.29396E-23
 -1       530 3.23436E-05-1.13645E-05 0.00000E+00
 -1       531 3.05047E-05-1.26449E-05 0.00000E+00
 -1       532 2.83540E-05-1.30881E-05-2.64698E-23
 -1       533 2.58334E-05-1.25458E-05 0.00000E+00
 -1       534 2.29089E-05-1.09027E-05 0.00000E+00
 -1       535 1.95470E-05-8.11218E-06 0.00000E+00
 -1       536 5.49208E-05 9.94221E-07 3.30872E-24
 -1       537 5.49128E-05 4.15800E-06 8.27181E-25
 -1       538 5.49069E-05 6.39688E-06-8.27181E-25
 -1       539 5.49038E-05 7.81748E-06-2.06795E-25
 -1       540 5.49015E-05 8.52638E-06 0.00000E+00
 -1       541 5.48997E-05 8.63022E-06-1.03398E-25
 -1       542 5.48980E-05 8.23569E-06 0.00000E+00
 -1       543 5.48960E-05 7.44948E-06 0.00000E+00
 -1       544 5.48939E-05 6.37830E-06 0.00000E+00
 -1       545 5.48915E-05 5.12888E-06 2.58494E-26
 -1       546 5.48891E-05 3.80794E-06 2.58494E-26
 -1       547 5.48868E-05 2.52224E-06 0.00000E+00
 -1       548 5.48846E-05 1.37849E-06 0.00000E+00
 -1       549 5.48829E-05 4.83419E-07 0.00000E+00
 -1       550 5.48814E-05-5.62337E-08-4.13590E-25
 -1       551 4.91762E-05-3.34970E-06 1.65436E-24
 -1       552 4.26858E-05-3.50023E-06-2.06795E-25
 -1       553 3.57840E-05-3.65347E-06-3.30872E-24
 -1       554 2.87906E-05-3.80929E-06 0.00000E+00
 -1       555 2.20257E-05-3.96680E-06 0.00000E+00
 -1       556 5.33419E-05 8.57415E-07-1.32349E-23
 -1       557 5.21136E-05 3.95864E-06 0.00000E+00
 -1       558 5.12145E-05 6.19165E-06 0.00000E+00
 -1       559 5.06075E-05 7.65241E-06 0.00000E+00
 -1       560 5.02555E-05 8.43666E-06 0.00000E+00
 -1       561 5.01215E-05 8.64074E-06 0.00000E+00
 -1       562 5.01692E-05 8.36109E-06 6.61744E-24
 -1       563 5.03619E-05 7.69426E-06 0.00000E+00
 -1       564 5.06635E-05 6.73691E-06 3.30872E-24
 -1       565 5.10375E-05 5.58569E-06 0.00000E+00
 -1       566 5.14479E-05 4.33734E-06 0.00000E+00
 -1       567 5.18585E-05 3.08860E-06 5.16988E-25
 -1       568 5.22331E-05 1.93621E-06 8.27181E-25
 -1       569 5.25357E-05 9.76771E-07 0.00000E+00
 -1       570 5.27300E-05 3.06927E-07 0.00000E+00
 -1       571 5.49453E-05-1.41376E-08 0.00000E+00
 -1       572 5.50108E-05 6.36181E-08 4.13590E-25
 -1       573 5.50768E-05 1.06889E-07 8.27181E-25
 -1       574 5.51430E-05 1.23549E-07 4.13590E-25
 -1       575 5.52093E-05 1.21507E-07 1.65436E-24
 -1       576 5.52756E-05 1.08725E-07-8.27181E-25
 -1       577 5.53419E-05 9.31667E-08 1.65436E-24
 -1       578 5.54083E-05 8.28062E-08 0.00000E+00
 -1       579 5.54747E-05 8.56161E-08-3.30872E-24
 -1       580 5.55410E-05 1.09570E-07 3.30872E-24
 -1       581 5.56074E-05 1.62640E-07-3.30872E-24
 -1       582 5.56737E-05 2.52790E-07 0.00000E+00
 -1       583 5.57400E-05 3.87976E-07 0.00000E+00
 -1       584 5.58064E-05 5.76074E-07 1.65436E-24
 -1       585 5.58726E-05 8.24914E-07 0.00000E+00
 -1       586 5.45444E-05-1.07088E-07 0.00000E+00
 -1       587 5.41652E-05-8.04887E-08 4.13590E-25
 -1       588 5.37713E-05-5.40166E-08-4.13590E-25
 -1       589 5.33909E-05-2.78337E-08 0.00000E+00
 -1       590 5.30520E-05-2.20817E-09 0.00000E+00
 -1       591 5.47927E-05 1.03931E-08 0.00000E+00
 -1       592 5.47134E-05 1.21234E-07-4.13590E-25
 -1       593 5.46438E-05 2.05304E-07 0.00000E+00
 -1       594 5.45816E-05 2.68520E-07 0.00000E+00
 -1       595 5.45250E-05 3.16851E-07 0.00000E+00
 -1       596 5.44716E-05 3.56215E-07 4.13590E-25
 -1       597 5.44194E-05 3.92529E-07 0.00000E+00
 -1       598 5.43661E-05 4.31702E-07-4.13590E-25
 -1       599 5.43095E-05 4.79644E-07 0.00000E+00
 -1       600 5.42474E-05 5.42262E-07 4.13590E-25
 -1       601 5.41776E-05 6.25464E-07 0.00000E+00
 -1       602 5.40979E-05 7.35164E-07 4.13590E-25
 -1       603 5.40061E-05 8.77277E-07-8.27181E-25
 -1       604 5.39003E-05 1.05776E-06 1.55096E-25
 -1       605 5.37782E-05 1.28251E-06 0.00000E+00
 -1       606 5.59598E-05 1.59457E-06 3.30872E-24
 -1       607 5.59786E-05 2.12572E-06 0.00000E+00
 -1       608 5.59969E-05 2.73053E-06 0.00000E+00
 -1       609 5.60149E-05 3.40378E-06 0.00000E+00
 -1       610 5.60328E-05 4.14024E-06 0.00000E+00
 -1       611 5.60506E-05 4.93457E-06 0.00000E+00
 -1       612 5.60684E-05 5.78145E-06-1.65436E-24
 -1       613 5.60861E-05 6.67557E-06 0.00000E+00
 -1       614 5.61037E-05 7.61158E-06 0.00000E+00
 -1       615 5.61214E-05 8.58415E-06 0.00000E+00
 -1       616 5.61389E-05 9.58797E-06 0.00000E+00
 -1       617 5.61565E-05 1.06177E-05 0.00000E+00
 -1       618 5.61740E-05 1.16680E-05 0.00000E+00
 -1       619 5.61915E-05 1.27336E-05 0.00000E+00
 -1       620 5.62089E-05 1.38090E-05 0.00000E+00
 -1       621 5.55355E-05 1.21147E-06 0.00000E+00
 -1       622 5.51331E-05 1.28141E-06-8.27181E-25
 -1       623 5.47369E-05 1.35131E-06 0.00000E+00
 -1       624 5.43525E-05 1.42103E-06-8.27181E-25
 -1       625 5.39852E-05 1.49049E-06 1.65436E-24
 -1       626 5.58347E-05 1.62966E-06-3.30872E-24
 -1       627 5.57010E-05 2.19712E-06 0.00000E+00
 -1       628 5.55403E-05 2.83653E-06 3.30872E-24
 -1       629 5.53556E-05 3.53973E-06 0.00000E+00
 -1       630 5.51501E-05 4.29856E-06 0.00000E+00
 -1       631 5.49267E-05 5.10478E-06 0.00000E+00
 -1       632 5.46887E-05 5.95015E-06 0.00000E+00
 -1       633 5.44390E-05 6.82645E-06 0.00000E+00
 -1       634 5.41807E-05 7.72542E-06 0.00000E+00
 -1       635 5.39171E-05 8.63884E-06-8.27181E-25
 -1       636 5.36511E-05 9.55847E-06 0.00000E+00
 -1       637 5.33858E-05 1.04761E-05-8.27181E-25
 -1       638 5.31243E-05 1.13834E-05 0.00000E+00
 -1       639 5.28695E-05 1.22722E-05 8.27181E-25
 -1       640 5.26243E-05 1.31343E-05-8.27181E-25
 -1       656 5.53067E-05 1.47384E-05 1.65436E-24
 -1       657 5.46209E-05 1.45812E-05-1.65436E-24
 -1       658 5.40778E-05 1.44245E-05 3.30872E-24
 -1       659 5.35861E-05 1.42679E-05 0.00000E+00
 -1       660 5.30540E-05 1.41109E-05 0.00000E+00
 -1       661 5.58933E-05 1.59891E-05 1.65436E-24
 -1       662 5.55561E-05 1.71088E-05 8.27181E-25
 -1       663 5.52144E-05 1.82403E-05-1.65436E-24
 -1       664 5.48713E-05 1.93770E-05 0.00000E+00
 -1       665 5.45289E-05 2.05117E-05 1.65436E-24
 -1       666 5.41898E-05 2.16377E-05 0.00000E+00
 -1       667 5.38567E-05 2.27479E-05 0.00000E+00
 -1       668 5.35322E-05 2.38355E-05-8.27181E-25
 -1       669 5.32187E-05 2.48935E-05 0.00000E+00
 -1       670 5.29190E-05 2.59149E-05-8.27181E-25
 -1       671 5.26356E-05 2.68928E-05 0.00000E+00
 -1       672 5.23712E-05 2.78201E-05 0.00000E+00
 -1       673 5.21283E-05 2.86898E-05 0.00000E+00
 -1       674 5.19091E-05 2.94945E-05 0.00000E+00
 -1       675 5.17170E-05 3.02274E-05 0.00000E+00
 -1       676 5.44843E-05 3.12812E-05 0.00000E+00
 -1       677 5.38957E-05 3.12002E-05-1.65436E-24
 -1       678 5.33077E-05 3.11193E-05 0.00000E+00
 -1       679 5.27206E-05 3.10386E-05 0.00000E+00
 -1       680 5.21347E-05 3.09580E-05 0.00000E+00
 -1       771 1.32414E-05 3.16536E-07 0.00000E+00
 -1       772 1.09914E-05 3.92567E-06-1.32349E-23
 -1       773 9.04048E-06 6.74284E-06 0.00000E+00
 -1       774 7.36514E-06 8.82901E-06-1.32349E-23
 -1       775 5.94215E-06 1.02458E-05 0.00000E+00
 -1       776 4.74756E-06 1.10558E-05 1.32349E-23
 -1       777 3.75726E-06 1.13225E-05-2.64698E-23
 -1       778 2.94691E-06 1.11099E-05 0.00000E+00
 -1       779 2.29209E-06 1.04826E-05-2.64698E-23
 -1       780 1.76820E-06 9.50573E-06-1.32349E-23
 -1       781 1.35064E-06 8.24495E-06 0.00000E+00
 -1       782 1.01471E-06 6.76620E-06 1.32349E-23
 -1       783 7.35711E-07 5.13567E-06 0.00000E+00
 -1       784 4.89216E-07 3.41989E-06-1.32349E-23
 -1       785 2.50533E-07 1.68540E-06-2.64698E-23
 -1       786 5.28323E-05 1.10327E-07 0.00000E+00
 -1       787 5.28858E-05 1.74814E-07 0.00000E+00
 -1       788 5.29392E-05 2.20311E-07 1.65436E-24
 -1       789 5.29931E-05 2.52267E-07-8.27181E-25
 -1       790 5.30471E-05 2.76103E-07 0.00000E+00
 -1       791 5.31011E-05 2.97235E-07 0.00000E+00
 -1       792 5.31552E-05 3.21072E-07 1.65436E-24
 -1       793 5.32093E-05 3.53027E-07 0.00000E+00
 -1       794 5.32634E-05 3.98528E-07-1.65436E-24
 -1       795 5.33175E-05 4.63016E-07 8.27181E-25
 -1       796 5.33716E-05 5.51966E-07-1.65436E-24
 -1       797 5.34257E-05 6.70884E-07 0.00000E+00
 -1       798 5.34797E-05 8.25324E-07 1.65436E-24
 -1       799 5.35336E-05 1.02088E-06-8.27181E-25
 -1       800 5.35875E-05 1.26322E-06 0.00000E+00
 -1       801 4.87299E-05 5.80742E-08 0.00000E+00
 -1       802 3.85332E-05 5.65983E-08-1.03398E-25
 -1       803 2.53775E-05 2.43329E-08 1.65436E-24
 -1       804 1.24469E-05-9.73267E-09 1.65436E-24
 -1       805 2.92533E-06-9.08536E-09-1.32349E-23
 -1       806 5.26836E-05 7.89302E-08 0.00000E+00
 -1       807 5.25868E-05 1.26034E-07-8.27181E-25
 -1       808 5.24916E-05 1.67389E-07-1.65436E-24
 -1       809 5.23966E-05 2.07245E-07 0.00000E+00
 -1       810 5.23006E-05 2.49832E-07 0.00000E+00
 -1       811 5.22019E-05 2.99340E-07-8.27181E-25
 -1       812 5.20990E-05 3.59952E-07 1.65436E-24
 -1       813 5.19904E-05 4.35847E-07-8.27181E-25
 -1       814 5.18745E-05 5.31203E-07-1.65436E-24
 -1       815 5.17497E-05 6.50194E-07 0.00000E+00
 -1       816 5.16145E-05 7.96993E-07-8.27181E-25
 -1       817 5.14674E-05 9.75772E-07 8.27181E-25
 -1       818 5.13066E-05 1.19070E-06 1.65436E-24
 -1       819 5.11309E-05 1.44592E-06 4.13590E-25
 -1       820 5.09387E-05 1.74558E-06-8.27181E-25
 -1       821 5.35665E-05 1.93536E-06 8.27181E-25
 -1       822 5.34885E-05 2.41636E-06-8.27181E-25
 -1       823 5.34106E-05 2.99067E-06-1.65436E-24
 -1       824 5.33319E-05 3.64770E-06 0.00000E+00
 -1       825 5.32530E-05 4.37669E-06 1.65436E-24
 -1       826 5.31740E-05 5.16673E-06 0.00000E+00
 -1       827 5.30950E-05 6.00675E-06 1.65436E-24
 -1       828 5.30158E-05 6.88563E-06 0.00000E+00
 -1       829 5.29367E-05 7.79212E-06 3.30872E-24
 -1       830 5.28575E-05 8.71493E-06-8.27181E-25
 -1       831 5.27784E-05 9.64274E-06-1.65436E-24
 -1       832 5.26994E-05 1.05642E-05 0.00000E+00
 -1       833 5.26205E-05 1.14681E-05-1.65436E-24
 -1       834 5.25424E-05 1.23429E-05 0.00000E+00
 -1       835 5.24641E-05 1.31777E-05 8.27181E-25
 -1       836 5.32472E-05 1.64652E-06 0.00000E+00
 -1       837 5.27738E-05 1.73756E-06 0.00000E+00
 -1       838 5.22526E-05 1.82849E-06 1.65436E-24
 -1       839 5.17163E-05 1.91898E-06 0.00000E+00
 -1       840 5.11977E-05 2.00934E-06 8.27181E-25
 -1       856 5.23415E-05 1.47828E-05 0.00000E+00
 -1       857 5.22893E-05 1.57200E-05 4.13590E-25
 -1       858 5.22371E-05 1.67550E-05 0.00000E+00
 -1       859 5.21843E-05 1.78696E-05 0.00000E+00
 -1       860 5.21314E-05 1.90459E-05-1.65436E-24
 -1       861 5.20783E-05 2.02657E-05 0.00000E+00
 -1       862 5.20252E-05 2.15110E-05 0.00000E+00
 -1       863 5.19721E-05 2.27637E-05-8.27181E-25
 -1       864 5.19189E-05 2.40056E-05-1.65436E-24
 -1       865 5.18658E-05 2.52187E-05-8.27181E-25
 -1       866 5.18127E-05 2.63848E-05 0.00000E+00
 -1       867 5.17598E-05 2.74858E-05 0.00000E+00
 -1       868 5.17069E-05 2.85037E-05 0.00000E+00
 -1       869 5.16543E-05 2.94206E-05-8.27181E-25
 -1       870 5.16018E-05 3.02185E-05 1.65436E-24
 -1       871 5.17793E-05 1.39552E-05 0.00000E+00
 -1       872 5.12707E-05 1.39479E-05 0.00000E+00
 -1       873 5.08214E-05 1.39402E-05 0.00000E+00
 -1       874 5.03878E-05 1.39321E-05 1.03398E-25
 -1       875 4.99263E-05 1.39237E-05 8.27181E-25
 -1       876 5.21832E-05 1.47889E-05 1.65436E-24
 -1       877 5.19557E-05 1.56805E-05 0.00000E+00
 -1       878 5.17074E-05 1.66275E-05-3.30872E-24
 -1       879 5.14414E-05 1.76227E-05 0.00000E+00
 -1       880 5.11602E-05 1.86584E-05 3.30872E-24
 -1       881 5.08666E-05 1.97274E-05-1.65436E-24
 -1       882 5.05633E-05 2.08221E-05 0.00000E+00
 -1       883 5.02532E-05 2.19352E-05 0.00000E+00
 -1       884 4.99389E-05 2.30593E-05 0.00000E+00
 -1       885 4.96232E-05 2.41871E-05 0.00000E+00
 -1       886 4.93088E-05 2.53111E-05-3.30872E-24
 -1       887 4.89986E-05 2.64240E-05 1.65436E-24
 -1       888 4.86952E-05 2.75183E-05-3.30872E-24
 -1       889 4.84010E-05 2.85865E-05 0.00000E+00
 -1       890 4.81191E-05 2.96214E-05 8.27181E-25
 -1       891 5.10130E-05 3.08354E-05 0.00000E+00
 -1       892 5.04960E-05 3.07909E-05-4.13590E-25
 -1       893 4.99602E-05 3.07463E-05-8.27181E-25
 -1       894 4.93663E-05 3.07018E-05 0.00000E+00
 -1       895 4.86751E-05 3.06572E-05-4.13590E-25
 -1       956 5.06478E-05 2.56727E-06-1.65436E-24
 -1       957 5.05647E-05 3.11548E-06-4.13590E-25
 -1       958 5.04812E-05 3.73032E-06-1.65436E-24
 -1       959 5.03976E-05 4.40329E-06 8.27181E-25
 -1       960 5.03139E-05 5.12595E-06-1.65436E-24
 -1       961 5.02301E-05 5.88975E-06-8.27181E-25
 -1       962 5.01463E-05 6.68615E-06 3.30872E-24
 -1       963 5.00624E-05 7.50664E-06 0.00000E+00
 -1       964 4.99786E-05 8.34265E-06 0.00000E+00
 -1       965 4.98947E-05 9.18565E-06-1.65436E-24
 -1       966 4.98109E-05 1.00271E-05 3.30872E-24
 -1       967 4.97271E-05 1.08585E-05 1.65436E-24
 -1       968 4.96433E-05 1.16712E-05-6.61744E-24
 -1       969 4.95597E-05 1.24568E-05 0.00000E+00
 -1       970 4.94763E-05 1.32067E-05-3.30872E-24
 -1       971 4.92990E-05 1.46333E-05 0.00000E+00
 -1       972 4.92024E-05 1.54490E-05 0.00000E+00
 -1       973 4.91056E-05 1.63489E-05 0.00000E+00
 -1       974 4.90086E-05 1.73219E-05 0.00000E+00
 -1       975 4.89114E-05 1.83568E-05-3.30872E-24
 -1       976 4.88141E-05 1.94423E-05-1.65436E-24
 -1       977 4.87168E-05 2.05673E-05 0.00000E+00
 -1       978 4.86195E-05 2.17206E-05-1.65436E-24
 -1       979 4.85221E-05 2.28908E-05 0.00000E+00
 -1       980 4.84248E-05 2.40667E-05 0.00000E+00
 -1       981 4.83275E-05 2.52372E-05 3.30872E-24
 -1       982 4.82303E-05 2.63909E-05 0.00000E+00
 -1       983 4.81332E-05 2.75167E-05 0.00000E+00
 -1       984 4.80366E-05 2.86032E-05 0.00000E+00
 -1       985 4.79403E-05 2.96393E-05-1.65436E-24
 -3
    1PSTEP                         4           2           1          
  100CL  102 5.00000E-01         409                     0    2           1
 -4  STRESS      6    1
 -5  SXX         1    4    1    1
 -5  SYY         1    4    2    2
 -5  SZZ         1    4    3    3
 -5  SXY         1    4    1    2
 -5  SYZ         1    4    2    3
 -5  SZX         1    4    3    1
 -1         1-1.84022E+06-8.12400E+05-4.03230E+05-1.06053E+06-1.05501E-10-8.73115E-10
 -1         2 1.16793E+03-4.26941E+05 3.81035E+03-1.84317E+03-9.40858E-10-2.78618E-10
 -1         3-4.42235E+01-7.22726E+05 1.72695E+02-2.22773E+02 1.57227E-10-1.77351E-09
 -1         5-8.35910E+00 2.73083E+05 7.51023E+00 1.92985E-01 9.56380E-11 1.71258E-09
 -1         8-1.21136E+06-4.42587E+05-1.48139E+05-5.63289E+05-7.63976E-11-1.83354E-09
 -1         9-1.46323E+06-5.08327E+05-2.01370E+05-4.00947E+05-6.69388E-10 3.91447E-09
 -1        10-5.87693E+02-7.54270E+05-1.11438E+03-1.51331E+03 8.83574E-10-3.58125E-09
 -1        12-5.28501E+00 2.73099E+05 2.43627E+02 1.56128E+00 2.86942E-10-5.52973E-10
 -1        15 1.95038E+03 1.06379E+03 6.18607E+03 3.08001E+00-1.99321E-08-5.75606E-06
 -1        16-2.99044E+06-9.64695E+05-4.55350E+05-9.85513E+05 2.76971E-09-5.23869E-10
 -1        17-5.64262E+05-4.18956E+05-9.06711E+04-3.83695E+05-9.63337E-10-1.93832E-09
 -1        18 2.42035E+04 4.77699E+03-1.09236E+04-6.78531E+04 4.92491E-10-1.23919E-09
 -1        19 8.34859E+04 9.86448E+04-7.32051E+02 1.05617E+04-1.83172E-10-3.02316E-09
 -1        20 3.94475E+04-1.32169E+05-2.52410E+04 3.81431E+04 9.29792E-09 3.64283E-09
 -1        21-5.04663E+01-2.31534E+05-8.92252E+02-9.94757E+01 6.14025E-09-5.49826E-09
 -1        24-2.28440E+06-8.27581E+05-2.77078E+05-1.06453E+06-9.47815E-09-4.67116E-09
 -1        25 1.90880E+04 1.88759E+04 1.78456E+04-2.94906E+05-2.54968E-09 7.87986E-10
 -1        26-1.69007E+04 7.06925E+04-4.80168E+03-1.52251E+04 2.19006E-10 6.04888E-10
 -1        27-2.60599E+04-7.88272E+04-3.62997E+04 5.31268E+04 3.18672E-09-6.20882E-10
 -1        28 2.49394E+02-7.07115E+04 3.60779E+03 2.59690E+04 3.83159E-09-1.12259E-10
 -1        32-6.77967E+05-8.85573E+04 2.15143E+05-9.29600E+05-3.67436E-09 1.34582E-09
 -1        33-1.01121E+05 6.69408E+04 2.18295E+04-2.77578E+04-1.95958E-10-1.20053E-09
 -1        34-1.60706E+05-2.12187E+04-2.47164E+03 5.10539E+04 7.38278E-10 2.48618E-09
 -1        35-1.90466E+04-2.69012E+04-1.34654E+03 4.33616E+04 7.59190E-09-4.33526E-10
 -1        51 1.71860E+04-3.36188E+05 3.34572E+04-9.08147E+05-7.27596E-11 4.00178E-09
 -1        52 9.15524E+03-3.34850E+05 2.22520E+04-1.02246E+06 1.16415E-10 6.14091E-09
 -1        53 7.06028E+03-3.44416E+05 2.01476E+04-9.05439E+05 3.78350E-10 1.19326E-09
 -1        54 1.89191E+04-3.41889E+05 3.35428E+04-1.02534E+06 2.32831E-10-1.60071E-10
 -1        55 4.22887E+04-3.53748E+05 6.18951E+04-9.04951E+05 2.03727E-10-2.57205E-09
 -1        56-3.49524E+06-3.87171E+05-2.87602E+05-1.35042E+06-1.60071E-10-7.93079E-09
 -1        57-3.61757E+06-6.47103E+05-1.94811E+05-1.33192E+06 9.89530E-10-2.69210E-09
 -1        58-3.55410E+06-4.79416E+05-6.76219E+04-1.33099E+06 2.14641E-10-4.18004E-09
 -1        59-3.54940E+06-5.39192E+05-4.06483E+04-1.35491E+06-7.10543E-10-3.67663E-09
 -1        60-3.56283E+06-4.92512E+05-1.57916E+04-1.32830E+06-1.20417E-09-2.96041E-09
 -1        61-3.54092E+06-5.22188E+05-9.03488E+03-1.35601E+06 3.63798E-12 9.20522E-10
 -1        62-3.56242E+06-4.96098E+05-4.33567E+03-1.32996E+06 9.18817E-10-7.83757E-10
 -1        63-3.54450E+06-5.15209E+05-3.56531E+03-1.35044E+06 7.76481E-11-2.66027E-11
 -1        64-3.55913E+06-4.99508E+05-4.10971E+03-1.33382E+06 8.83574E-10-3.53202E-09
 -1        65-3.55311E+06-5.09302E+05-8.24142E+03-1.34137E+06-4.95788E-10-1.28512E-09
 -1        66-3.55376E+06-5.02084E+05-1.44417E+04-1.33897E+06-9.85608E-10-4.44106E-09
 -1        67-3.57042E+06-5.15117E+05-3.69241E+04-1.32935E+06 4.87034E-10 3.84716E-10
 -1        68-3.54195E+06-4.93994E+05-6.15248E+04-1.34576E+06-4.03816E-10 3.02316E-09
 -1        69-3.63754E+06-6.08363E+05-1.77116E+05-1.30310E+06-3.06591E-09-5.98448E-10
 -1        70-3.48732E+06-4.11092E+05-2.61506E+05-1.36452E+06-2.37196E-09 1.80444E-09
 -1        86-5.94344E+02-4.29236E+05 3.83891E+03 9.21581E+02 5.58202E-11-3.26452E-10
 -1        87 3.80982E+03-4.25905E+05 8.29038E+03-3.41665E+03-2.50111E-10-7.45105E-09
 -1        88-3.22176E+03-4.30283E+05 1.24795E+04 2.49506E+03-6.05269E-10-8.98956E-09
 -1        89 2.37730E+04-4.17132E+05 3.38124E+04-5.81841E+03 5.91172E-12-2.79294E-09
 -1        90-2.05011E+04-4.38022E+05 4.76913E+04 3.32353E+03-1.06957E-09 1.79286E-09
 -1       121-8.37368E+01-7.23007E+05 1.63215E+02 1.11311E+02 6.90790E-11 3.82352E-09
 -1       122 1.71675E+01-7.22688E+05 3.76477E+02-4.44942E+02 1.02586E-09-4.41105E-11
 -1       123-1.29136E+02-7.23049E+05 6.04736E+02 3.33191E+02 3.94721E-10 2.00998E-10
 -1       124 7.40065E+02-7.22258E+05 1.57843E+03-9.78031E+02 2.42130E-09 2.18643E-09
 -1       125-6.17261E+02-7.23448E+05 2.39423E+03 6.44388E+02 7.43512E-10 4.92037E-10
 -1       191-9.02337E+00 2.73105E+05 8.82870E+00-9.76555E-02 1.75201E-10-7.83984E-10
 -1       192-9.05086E+00 2.73083E+05 1.59086E+01 9.19645E-01 2.88544E-10-2.84217E-10
 -1       193-1.08618E+01 2.73105E+05 2.94415E+01-8.29701E-01 2.83393E-10-2.85763E-09
 -1       194-1.12765E+01 2.73086E+05 6.01909E+01 2.21014E+00 1.52532E-10-1.41563E-09
 -1       195-1.43943E+01 2.73103E+05 1.17591E+02-1.39991E+00 5.11463E-10-1.71804E-09
 -1       251-1.09582E+06 6.96556E+03-1.62309E+04-8.94151E+03-2.32863E-10-3.28328E-10
 -1       252-1.10191E+06-7.99378E+03-1.12862E+04 1.48800E+04 1.79193E-09 2.43176E-09
 -1       253-1.09949E+06 1.02561E+03-4.39794E+03-4.94710E+03-2.64663E-10-1.61708E-09
 -1       254-1.09734E+06-1.16395E+03-2.17984E+03 3.28680E+03-4.58272E-10 1.47006E-09
 -1       255-1.10030E+06 7.79498E+01-1.35538E+03 2.65185E+03-3.01270E-12 5.08089E-09
 -1       256-1.09757E+06-1.15065E+02-3.34473E+02-1.03186E+04 1.77437E-10 3.85150E-10
 -1       257-1.09930E+06 1.82648E+01-3.64037E+02 8.65828E+03-6.10527E-10 3.28043E-10
 -1       258-1.09873E+06 6.16599E+00-1.88503E+02-1.66307E+04 3.80316E-10 3.59553E-09
 -1       259-1.09921E+06 1.74908E+01-2.89563E+02 8.96411E+03-1.67506E-09 3.32627E-09
 -1       260-1.09771E+06-6.65636E+01-2.03950E+02-1.13354E+04-2.50310E-10-1.39462E-08
 -1       261-1.10027E+06 3.50668E+01-1.04813E+03 3.36291E+03 2.10389E-09-2.91737E-09
 -1       262-1.09712E+06-8.08980E+02-1.43807E+03 1.94829E+03 1.32599E-09 7.05882E-10
 -1       263-1.09974E+06 7.15086E+02-3.24745E+03-4.31965E+03-2.79204E-09-2.84729E-09
 -1       264-1.10070E+06-5.73077E+03-8.05261E+03 1.41342E+04-5.64893E-09 1.51192E-09
 -1       265-1.09676E+06 5.01412E+03-1.17032E+04-8.82301E+03-3.76973E-09-4.87807E-09
 -1       266-3.48305E+04-1.62006E+04 8.11042E+04-6.47206E+01-2.93076E-08-8.48073E-06
 -1       267 4.03585E+04 1.89014E+04 5.74163E+04 7.45425E+01-5.85251E-08-1.68456E-05
 -1       268-5.45258E+03-2.69037E+03 2.12999E+04-9.59599E+00-4.71800E-08-1.35697E-05
 -1       269 6.43707E+03 3.22282E+03 1.38795E+04 1.11664E+01-3.57586E-08-1.03112E-05
 -1       270-9.73835E+02-5.31883E+02 6.68320E+03-1.53534E+00-2.72628E-08-7.85094E-06
 -1       271-3.86941E+06-4.71431E+05-3.07940E+05-1.50379E+06-9.93168E-10-3.18687E-09
 -1       272-3.98021E+06-7.05834E+05-1.99421E+05-1.50209E+06 2.70529E-09-2.98314E-09
 -1       273-3.92904E+06-5.50270E+05-7.26803E+04-1.48793E+06-4.21574E-09 5.49335E-10
 -1       274-3.90991E+06-6.10750E+05-4.10494E+04-1.52562E+06 1.03967E-08-5.32236E-09
 -1       275-3.93864E+06-5.57453E+05-1.69178E+04-1.48380E+06-5.50885E-08 1.28166E-08
 -1       276-3.89824E+06-6.02619E+05-9.09895E+03-1.53198E+06-2.05411E-07 7.40076E-08
 -1       277-3.94090E+06-5.57219E+05-4.49201E+03-1.48217E+06-1.32579E-06 4.96169E-07
 -1       278-3.89609E+06-6.02646E+05-3.42869E+03-1.53374E+06-2.38209E-06 8.90433E-07
 -1       279-3.94093E+06-5.57248E+05-3.85920E+03-1.48217E+06-1.32479E-06 4.95307E-07
 -1       280-3.89798E+06-6.02287E+05-7.30783E+03-1.53201E+06-2.06344E-07 8.05612E-08
 -1       281-3.93887E+06-5.57739E+05-1.33671E+04-1.48377E+06-5.34892E-08 1.82372E-08
 -1       282-3.90790E+06-6.07836E+05-3.22695E+04-1.52600E+06 1.17407E-08-8.41101E-09
 -1       283-3.93077E+06-5.52684E+05-5.71223E+04-1.48765E+06-3.84733E-09 1.24783E-09
 -1       284-3.96432E+06-6.81190E+05-1.56611E+05-1.50594E+06 1.29126E-09 2.86491E-09
 -1       285-3.88319E+06-4.91584E+05-2.41956E+05-1.50098E+06-1.41881E-09-2.67755E-09
 -1       301 2.73222E+04-1.61488E+04 1.04017E+05-2.26007E+04-1.74259E-09-1.07761E-08
 -1       302 1.28297E+04 7.02500E+03 7.01557E+04-2.95402E+04-2.22371E-10-1.64755E-09
 -1       303 1.66477E+03-7.77761E+03 6.21027E+04-2.26968E+04-1.33150E-09-6.05951E-09
 -1       304 2.15894E+04 1.47280E+04 9.99738E+04-2.94905E+04-2.53749E-10-5.26325E-09
 -1       305 4.78473E+04-2.38050E+04 1.73132E+05-2.25545E+04-8.29459E-10 3.05113E-09
 -1       306-2.68432E+06-3.25640E+05-1.83052E+05-1.03940E+06 2.28101E-09-1.49885E-09
 -1       307-2.73943E+06-4.94050E+05-1.21142E+05-1.05015E+06-4.79304E-10-6.87578E-09
 -1       308-2.72318E+06-3.76366E+05-4.32234E+04-1.02557E+06-5.22959E-11 6.11180E-10
 -1       309-2.69295E+06-4.35646E+05-2.50946E+04-1.06991E+06 2.65572E-10 4.49290E-09
 -1       310-2.73076E+06-3.80593E+05-1.01348E+04-1.02115E+06-2.13777E-09 1.49157E-10
 -1       311-2.68373E+06-4.31261E+05-5.65463E+03-1.07641E+06-2.49054E-09-2.86582E-09
 -1       312-2.73271E+06-3.80122E+05-2.89146E+03-1.01948E+06 1.94257E-09 2.57359E-09
 -1       313-2.68222E+06-4.31307E+05-2.56958E+03-1.07778E+06 2.99974E-09 7.32007E-09
 -1       314-2.73237E+06-3.80444E+05-3.25694E+03-1.01986E+06 1.35969E-10-7.09360E-09
 -1       315-2.68504E+06-4.30251E+05-6.66331E+03-1.07480E+06-2.50384E-09-5.21482E-09
 -1       316-2.72967E+06-3.81372E+05-1.21366E+04-1.02228E+06-3.38332E-10 6.01631E-09
 -1       317-2.69645E+06-4.35205E+05-3.00966E+04-1.06664E+06 1.39221E-09-5.60703E-10
 -1       318-2.72059E+06-3.76242E+05-5.18900E+04-1.02753E+06 3.89946E-11 2.67028E-09
 -1       319-2.75197E+06-5.05781E+05-1.45451E+05-1.04356E+06 1.01682E-09-1.51886E-09
 -1       320-2.67431E+06-3.14861E+05-2.19714E+05-1.04363E+06 9.49512E-10-6.69388E-10
 -1       336 6.59852E+02-7.85283E+05-4.52984E+03 8.68053E+02-2.06660E-09 1.07048E-09
 -1       337-1.71414E+03-7.86620E+05-5.21147E+03-2.17328E+03-1.53841E-09-9.75342E-09
 -1       338 5.21086E+02-7.85353E+05-6.74864E+03 1.30237E+03-2.50611E-09-2.39743E-09
 -1       339-7.31893E+03-7.89997E+05-1.50842E+04-3.02950E+03-2.03363E-09-2.26100E-09
 -1       340 5.20331E+03-7.81957E+05-2.31364E+04 1.71839E+03-2.79852E-09 1.00044E-09
 -1       406 1.31792E+01 2.73092E+05 4.80827E+02-1.90205E-01 6.55831E-10-1.46338E-09
 -1       407 1.62434E+02 2.73183E+05 1.02225E+03-9.28155E+00-1.39551E-11-5.69571E-09
 -1       408 5.20827E+02 2.73018E+05 2.04144E+03 9.68348E+00 5.83213E-10-1.59198E-08
 -1       409 2.20265E+03 2.73835E+05 4.59617E+03-9.46303E+01-1.15961E-10-2.03677E-08
 -1       410 6.33803E+03 2.72437E+05 9.38277E+03 8.90810E+01 7.33053E-10-7.57882E-09
 -1       521-4.99591E+06-6.02130E+05-3.50615E+05-1.93592E+06 1.64437E-09-5.51518E-09
 -1       522-5.14057E+06-8.88734E+05-2.32493E+05-1.91438E+06-1.19599E-09-3.86717E-09
 -1       523-5.07010E+06-7.00238E+05-8.26360E+04-1.90979E+06 3.22871E-10 2.93949E-09
 -1       524-5.05102E+06-7.75990E+05-4.81085E+04-1.95122E+06 1.22418E-09-2.00998E-10
 -1       525-5.08457E+06-7.08605E+05-1.92907E+04-1.90145E+06-4.07454E-09-4.65934E-09
 -1       526-5.03327E+06-7.67153E+05-1.07284E+04-1.96292E+06-3.63571E-09-6.61203E-10
 -1       527-5.08803E+06-7.08083E+05-5.31052E+03-1.89861E+06-1.71099E-10 3.55715E-09
 -1       528-5.03109E+06-7.66224E+05-4.43316E+03-1.96432E+06 4.71459E-10-5.53882E-10
 -1       529-5.08677E+06-7.09423E+05-5.29787E+03-1.90011E+06 3.13548E-10 4.95220E-09
 -1       530-5.03783E+06-7.62216E+05-1.05717E+04-1.95701E+06 1.95178E-09 4.63069E-09
 -1       531-5.08099E+06-7.12385E+05-1.91229E+04-1.90566E+06 2.16187E-09 2.07729E-09
 -1       532-5.05943E+06-7.66774E+05-4.74683E+04-1.94064E+06 1.41199E-09 3.30328E-09
 -1       533-5.06490E+06-7.05901E+05-8.16676E+04-1.91591E+06-1.45519E-09-2.31012E-09
 -1       534-5.15080E+06-8.75394E+05-2.29583E+05-1.90139E+06 4.04543E-09-1.57161E-09
 -1       535-4.99067E+06-6.09842E+05-3.46269E+05-1.94267E+06 2.74304E-09-4.42378E-09
 -1       536-1.38432E+04-1.73195E+04 4.74101E+04 9.34928E+02 1.12232E-09-2.63935E-09
 -1       537 7.00723E+03 2.00294E+04 3.25682E+04-3.48721E+04-4.87489E-09-1.37925E-09
 -1       538-6.03614E+03-2.40936E+03 1.22556E+04 9.63069E+02-1.55524E-10-6.64477E-09
 -1       539-2.35342E+03 2.58000E+03 7.44158E+03-3.49146E+04 3.76144E-09 7.47150E-10
 -1       540-4.84981E+03-3.65665E+02 3.08129E+03 9.78447E+02-1.59162E-11-3.78031E-09
 -1       541-4.02959E+03 3.34768E+02 1.75875E+03-3.49343E+04-1.19326E-09-8.83688E-10
 -1       542-4.62937E+03-6.34130E+01 7.37201E+02 9.81920E+02-4.86580E-11 1.03427E-09
 -1       543-4.48547E+03 8.56644E+01 3.63324E+02-3.49400E+04 3.98245E-10 6.30672E-09
 -1       544-4.56828E+03-2.42329E+00 6.45792E+01 9.84032E+02 1.33446E-09 2.18637E-09
 -1       545-4.66585E+03 2.51567E+01-1.83037E+02-3.49428E+04-1.58389E-09 1.49299E-09
 -1       546-4.52834E+03 5.12459E+01-4.69269E+02 9.84833E+02-9.04095E-11 7.12816E-11
 -1       547-4.85983E+03-3.73727E+02-1.19175E+03-3.49394E+04-1.35964E-09-8.10951E-09
 -1       548-4.35862E+03 3.70652E+02-2.04453E+03 9.80614E+02-1.83263E-09 3.66072E-11
 -1       549-6.15298E+03-3.31456E+03-5.34894E+03-3.49062E+04-7.98423E-10 2.27374E-09
 -1       550-3.12439E+03 2.79004E+03-7.92344E+03 9.51598E+02-8.36735E-11-4.17640E-09
 -1       551 1.03519E+04-3.72835E+05 2.22775E+04-6.07049E+05 5.22050E-09-1.33150E-09
 -1       552 1.25552E+04-3.71860E+05 2.46997E+04-7.87666E+05-8.94943E-10 1.35460E-08
 -1       553 8.87050E+03-3.75525E+05 3.62183E+04-6.05627E+05 5.46424E-09 5.04770E-09
 -1       554 2.77569E+04-3.60046E+05 7.45956E+04-7.87898E+05-1.04774E-09 4.58749E-09
 -1       555 4.56769E+04-3.87178E+05 1.38011E+05-6.06551E+05 5.28962E-09-5.81713E-09
 -1       556-1.86196E+04-1.17834E+05 3.62737E+04-1.69374E+05-9.71340E-09-9.37871E-09
 -1       557 2.36467E+04-1.53702E+05 1.89414E+04-2.03915E+05-1.34605E-10-9.16771E-10
 -1       558-1.85608E+04-1.23250E+05 7.72319E+03-1.64887E+05 6.91216E-10-4.38376E-09
 -1       559 1.82928E+04-1.58762E+05 3.89770E+03-2.06238E+05 7.13044E-10-3.99496E-09
 -1       560-1.96011E+04-1.22567E+05 1.64025E+03-1.65495E+05-3.84171E-09-6.37374E-09
 -1       561 1.66411E+04-1.58399E+05 8.52360E+02-2.07302E+05-6.47560E-10 4.31100E-09
 -1       562-2.04468E+04-1.21993E+05 3.25017E+02-1.66096E+05 8.25821E-10-4.56293E-09
 -1       563 1.56670E+04-1.57986E+05 1.68858E+02-2.07939E+05 8.73115E-11-5.51336E-09
 -1       564-2.09638E+04-1.21654E+05 1.38483E+00-1.66459E+05 1.14778E-09 1.84627E-10
 -1       565 1.51706E+04-1.57779E+05-1.19473E+02-2.08256E+05-2.88310E-09-1.54978E-09
 -1       566-2.11260E+04-1.21535E+05-3.51833E+02-1.66581E+05 1.16188E-09-5.36602E-10
 -1       567 1.50745E+04-1.57786E+05-8.20640E+02-2.08237E+05 3.97995E-09-8.86575E-09
 -1       568-2.08761E+04-1.21700E+05-1.73865E+03-1.66460E+05 2.74667E-09-4.04907E-09
 -1       569 1.41245E+04-1.58520E+05-4.10501E+03-2.07371E+05-6.70298E-10 2.61934E-10
 -1       570-1.93857E+04-1.24004E+05-8.05751E+03-1.65704E+05 1.64800E-09 1.08548E-09
 -1       571 1.89103E+05 7.70481E+03 1.14213E+04-4.57072E+04 1.16415E-09 3.70392E-09
 -1       572 1.90805E+05 2.67714E+03 5.59552E+03-5.01026E+04 1.07025E-09-3.99268E-10
 -1       573 1.89787E+05 6.35610E+02 2.48568E+03-4.55869E+04 4.06544E-10 8.35371E-10
 -1       574 1.89991E+05 2.03973E+02 1.24512E+03-5.02361E+04-4.88626E-10 3.48200E-09
 -1       575 1.89864E+05 2.50938E+01 5.86444E+02-4.55711E+04 9.56788E-10 1.07957E-09
 -1       576 1.89880E+05 4.16469E+00 2.97752E+02-5.02539E+04 1.15082E-09 9.22228E-10
 -1       577 1.89875E+05-7.45099E+00 1.45251E+02-4.55690E+04 9.54014E-09 1.07775E-09
 -1       578 1.89869E+05-5.40492E+00 7.63705E+01-5.02561E+04 1.82190E-08-1.53159E-09
 -1       579 1.89887E+05-8.68494E+00 4.15555E+01-4.55690E+04 9.46966E-09-3.93084E-09
 -1       580 1.89882E+05-1.11289E+01 3.02907E+01-5.02534E+04 1.00408E-09 8.13088E-10
 -1       581 1.89907E+05-1.68254E+01 3.15569E+01-4.55717E+04 1.33332E-09 6.66660E-10
 -1       582 1.89914E+05-1.71699E+01 5.33765E+01-5.02264E+04 1.62026E-09-3.98904E-09
 -1       583 1.89934E+05-9.82245E+00 9.73719E+01-4.55960E+04 1.52795E-10-5.93900E-10
 -1       584 1.89984E+05 6.03403E+01 2.17040E+02-5.00230E+04-3.35513E-09 1.16984E-09
 -1       585 1.89943E+05 2.47373E+02 4.37831E+02-4.57752E+04-3.01952E-10-7.63976E-11
 -1       586-3.69735E+02 7.63746E+04-1.95027E+02-1.42710E+05 9.14952E-10-1.94541E-09
 -1       587 1.62900E+02 7.63715E+04 1.13136E+03-1.58887E+05 5.18412E-10 6.68001E-09
 -1       588 7.20432E+02 7.61827E+04 2.96567E+03-1.42578E+05 9.70431E-10 2.87696E-09
 -1       589 3.15901E+03 7.75237E+04 7.02594E+03-1.58819E+05 6.43922E-10-1.53477E-09
 -1       590 9.17215E+03 7.53073E+04 1.44165E+04-1.42778E+05 8.04221E-10-2.16187E-09
 -1       591-7.72481E+04-2.17853E+04-1.70836E+04-3.71460E+04 1.14983E-09-3.93720E-09
 -1       592-7.85998E+04-2.27556E+04-8.82438E+03-4.16353E+04-1.67461E-10-6.59634E-09
 -1       593-7.84500E+04-1.83709E+04-3.73149E+03-3.90906E+04 1.02159E-09 4.60591E-09
 -1       594-7.65083E+04-2.06170E+04-1.84091E+03-4.17319E+04-1.61344E-09 2.10369E-09
 -1       595-7.85556E+04-1.83017E+04-8.49846E+02-3.91623E+04-6.53813E-10 3.51797E-09
 -1       596-7.63718E+04-2.05396E+04-4.30097E+02-4.17111E+04 7.75231E-10 2.01180E-09
 -1       597-7.85714E+04-1.83152E+04-2.32334E+02-3.91630E+04 1.27152E-10 3.76394E-09
 -1       598-7.63577E+04-2.05389E+04-1.82484E+02-4.17054E+04 2.51248E-09 1.11511E-08
 -1       599-7.85703E+04-1.83160E+04-2.27754E+02-3.91623E+04-6.63931E-10-8.08996E-10
 -1       600-7.63696E+04-2.05407E+04-4.18075E+02-4.17088E+04 6.45741E-10 2.89447E-10
 -1       601-7.85524E+04-1.83041E+04-8.23676E+02-3.91605E+04-2.14868E-10-1.88084E-09
 -1       602-7.65011E+04-2.06150E+04-1.78331E+03-4.17253E+04 9.62018E-10-1.89493E-09
 -1       603-7.84472E+04-1.83744E+04-3.61399E+03-3.90916E+04 9.11768E-11 1.30058E-10
 -1       604-7.85423E+04-2.26680E+04-8.54527E+03-4.16085E+04 3.00815E-10 9.23137E-10
 -1       605-7.72633E+04-2.16969E+04-1.65428E+04-3.72261E+04 7.34872E-10-2.50520E-09
 -1       606 5.29062E+04-7.96756E+03-1.41330E+04 2.26118E+04-3.49519E-09-6.47560E-10
 -1       607 5.05034E+04-2.57521E+03-7.02767E+03 2.53135E+04-5.80258E-10-3.78338E-09
 -1       608 5.18725E+04-4.43136E+02-3.14528E+03 2.24347E+04 3.64525E-09 1.32559E-10
 -1       609 5.15951E+04-1.13335E+02-1.58772E+03 2.55081E+04-1.14369E-09-2.86309E-09
 -1       610 5.17473E+04 2.25763E+01-7.57544E+02 2.24148E+04-4.03816E-09-5.51609E-10
 -1       611 5.16927E+04 3.38323E+01-3.81960E+02 2.55295E+04-7.05040E-09-6.83713E-10
 -1       612 5.17150E+04 3.57649E+01-1.82341E+02 2.24129E+04-2.95131E-09-6.07770E-10
 -1       613 5.16928E+04 4.00904E+01-8.26554E+01 2.55319E+04-4.89308E-09-2.59479E-09
 -1       614 5.16979E+04 3.54117E+01-2.19167E+01 2.24123E+04-1.47429E-09 9.07676E-10
 -1       615 5.16848E+04 4.36884E+01 2.86009E+01 2.55321E+04 3.86171E-09 2.67801E-09
 -1       616 5.16849E+04 3.95739E+01 9.13227E+01 2.24126E+04-4.90445E-09-5.38648E-10
 -1       617 5.16921E+04 6.64555E+01 2.10735E+02 2.55314E+04-2.07979E-09-2.33490E-09
 -1       618 5.16636E+04 1.04923E+02 4.25788E+02 2.24129E+04-3.53043E-09-2.21507E-09
 -1       619 5.18390E+04 4.03476E+02 9.57132E+02 2.55294E+04-1.25328E-09-1.32786E-09
 -1       620 5.15221E+04 1.13202E+03 1.92661E+03 2.24131E+04 2.53544E-09 1.05092E-09
 -1       621 4.22745E+02 2.00556E+05 2.05297E+03-1.03231E+04-1.27903E-09-5.17531E-10
 -1       622 2.40393E+02 2.00997E+05 2.20475E+03-1.34049E+04-1.03967E-09-5.49619E-10
 -1       623 8.57497E+01 2.00618E+05 3.24138E+03-1.03195E+04-1.27147E-09 1.36265E-09
 -1       624 1.55336E+03 2.02153E+05 6.67510E+03-1.33712E+04-9.51559E-10-3.94380E-10
 -1       625 3.49588E+03 1.99405E+05 1.24061E+04-1.03556E+04-9.09040E-10 5.16593E-10
 -1       626 1.53947E+05 4.56874E+04 1.31489E+03 8.86783E+04-1.25829E-09 1.27875E-09
 -1       627 1.51200E+05 4.81697E+04 6.33034E+02 9.22004E+04 1.87538E-09-6.42331E-09
 -1       628 1.54052E+05 4.49802E+04 2.67076E+02 8.87797E+04 4.99313E-10 3.53793E-10
 -1       629 1.50907E+05 4.81111E+04 1.33371E+02 9.23761E+04 1.31695E-09 7.91204E-10
 -1       630 1.54050E+05 4.49490E+04 6.46372E+01 8.87679E+04-4.01087E-10 2.45637E-09
 -1       631 1.50861E+05 4.81204E+04 4.21195E+01 9.23777E+04 1.20053E-09 9.31561E-09
 -1       632 1.54037E+05 4.49549E+04 4.14466E+01 8.87583E+04 9.76343E-10 7.44734E-09
 -1       633 1.50849E+05 4.81257E+04 6.68076E+01 9.23713E+04-1.30126E-09-4.92946E-10
 -1       634 1.54025E+05 4.49539E+04 1.26382E+02 8.87538E+04 4.62478E-10-5.84737E-09
 -1       635 1.50856E+05 4.81270E+04 2.67639E+02 9.23721E+04 2.88901E-09 1.09208E-09
 -1       636 1.54012E+05 4.49527E+04 5.46280E+02 8.87499E+04 1.26192E-11 3.76554E-09
 -1       637 1.50969E+05 4.82192E+04 1.20452E+03 9.23672E+04-1.73571E-09-7.17500E-09
 -1       638 1.53967E+05 4.52336E+04 2.47826E+03 8.86199E+04-3.16140E-09-1.05592E-09
 -1       639 1.52253E+05 5.00746E+04 5.86627E+03 9.19801E+04-3.90878E-09-1.05865E-08
 -1       640 1.53825E+05 5.07168E+04 1.21945E+04 8.62828E+04 2.62435E-09 5.38421E-10
 -1       656 1.59520E+04-4.45461E+05-4.59691E+04-4.56703E+02 8.96762E-10-4.07090E-09
 -1       657-2.12697E+04-4.64700E+05-3.66008E+04 3.00462E+04-4.46789E-10-5.41877E-09
 -1       658 4.39583E+03-4.51375E+05-2.32966E+04-6.11414E+02 2.91334E-09 3.51753E-09
 -1       659-2.26907E+04-4.65447E+05-3.86627E+04 3.01501E+04 6.03904E-10 1.73208E-09
 -1       660 1.73261E+04-4.44734E+05-4.96265E+04-5.60369E+02 1.93722E-09 9.68157E-10
 -1       661 1.80878E+05 2.24832E+04 1.52978E+04 7.03928E+04 8.25116E-09-2.16187E-09
 -1       662 1.85318E+05 3.38687E+04 9.71869E+03 7.15276E+04 9.77877E-10-1.98042E-09
 -1       663 1.83553E+05 2.61292E+04 3.61426E+03 6.99647E+04 4.01872E-09 7.48287E-10
 -1       664 1.82242E+05 2.92188E+04 2.00491E+03 7.22212E+04-2.30341E-09-1.49137E-09
 -1       665 1.83869E+05 2.65304E+04 8.49424E+02 6.99261E+04 8.38156E-10-3.62292E-10
 -1       666 1.81878E+05 2.87201E+04 4.65906E+02 7.22866E+04 4.64922E-10 4.70192E-09
 -1       667 1.83910E+05 2.65717E+04 2.62974E+02 6.99207E+04 2.69387E-09 2.72480E-09
 -1       668 1.81838E+05 2.86827E+04 2.55489E+02 7.22997E+04-4.46397E-09-1.07769E-09
 -1       669 1.83910E+05 2.65630E+04 3.63978E+02 6.99155E+04-1.57388E-09 8.91930E-10
 -1       670 1.81900E+05 2.87794E+04 7.47794E+02 7.23071E+04 6.90989E-09 6.21662E-09
 -1       671 1.83850E+05 2.64803E+04 1.41598E+03 6.99123E+04-2.51407E-09-2.80443E-09
 -1       672 1.82500E+05 2.96425E+04 3.37786E+03 7.22220E+04-4.40812E-09 7.25083E-09
 -1       673 1.83326E+05 2.57922E+04 6.09934E+03 6.99671E+04 7.44961E-10-4.23051E-09
 -1       674 1.87686E+05 3.75089E+04 1.64138E+04 7.10669E+04 5.80025E-09 4.53838E-09
 -1       675 1.78810E+05 1.96302E+04 2.58364E+04 7.06870E+04 3.08637E-09-7.21411E-09
 -1       676 2.52459E+01-2.31452E+05-1.07280E+03 4.97387E+01 4.66258E-09 2.45094E-09
 -1       677-3.06730E+02-2.31725E+05-1.97079E+03-9.94246E+01 3.35686E-09 6.08391E-09
 -1       678 2.11706E+02-2.31260E+05-3.46740E+03 4.96483E+01 5.20527E-09-8.51053E-11
 -1       679-3.59457E+03-2.33841E+05-8.27988E+03-9.92217E+01 4.82214E-09-3.62070E-09
 -1       680 2.26684E+03-2.29337E+05-1.32552E+04 4.89508E+01 8.19819E-09 3.33788E-10
 -1       771-1.87627E+06-3.57123E+05-4.73869E+04-8.06586E+05-6.41739E-09-4.48927E-09
 -1       772-1.86403E+06-3.74400E+05-2.43317E+04-8.35889E+05-2.03363E-09 1.88629E-09
 -1       773-1.88122E+06-3.46423E+05-1.05360E+04-8.11441E+05-9.89530E-10-2.34650E-09
 -1       774-1.85827E+06-3.69318E+05-5.12632E+03-8.38242E+05 8.00355E-11-3.11502E-09
 -1       775-1.88249E+06-3.45511E+05-2.52115E+03-8.11898E+05-1.97178E-09-5.31145E-10
 -1       776-1.85847E+06-3.69091E+05-1.21770E+03-8.39266E+05-1.19326E-09 1.82990E-09
 -1       777-1.88334E+06-3.44998E+05-7.31561E+02-8.12172E+05-3.63798E-11-2.67210E-09
 -1       778-1.85893E+06-3.69015E+05-4.63719E+02-8.40068E+05-6.76664E-10-1.68711E-09
 -1       779-1.88396E+06-3.44576E+05-5.66935E+02-8.12386E+05-1.10595E-09 1.09139E-11
 -1       780-1.85934E+06-3.68966E+05-8.92821E+02-8.40682E+05-2.47201E-09-6.49720E-10
 -1       781-1.88435E+06-3.44247E+05-1.75055E+03-8.12530E+05-2.95768E-09-2.33706E-09
 -1       782-1.85986E+06-3.69088E+05-3.73613E+03-8.41104E+05-2.98314E-10-1.60253E-09
 -1       783-1.88437E+06-3.44230E+05-7.58113E+03-8.12471E+05-1.98270E-10-1.86719E-09
 -1       784-1.86426E+06-3.73390E+05-1.79386E+04-8.41022E+05-3.18323E-09-3.18323E-10
 -1       785-1.88193E+06-3.51179E+05-3.47512E+04-8.08593E+05 1.26056E-09-9.00400E-10
 -1       786 1.51227E+05-6.89526E+03 1.91851E+04 6.05352E+01-2.06995E-10-4.19186E-09
 -1       787 1.59005E+05 8.16395E+03 1.30770E+04-1.77843E+03 7.81050E-10-2.57114E-09
 -1       788 1.54330E+05-9.26472E+02 4.98412E+03 5.54524E+01-1.35856E-11 3.31124E-09
 -1       789 1.55455E+05 1.09080E+03 2.97503E+03-1.77082E+03-3.47114E-10-2.70757E-09
 -1       790 1.54777E+05-1.24368E+02 1.27360E+03 5.29578E+01-2.71417E-10 1.54427E-09
 -1       791 1.54940E+05 1.45576E+02 7.15501E+02-1.76921E+03 1.25704E-09 4.51701E-09
 -1       792 1.54844E+05-1.74139E+01 3.47003E+02 5.38342E+01-1.44247E-10 1.91483E-09
 -1       793 1.54867E+05 2.56453E+01 2.29777E+02-1.77450E+03 6.31147E-10 7.15673E-10
 -1       794 1.54851E+05-8.23521E+00 1.94083E+02 5.82487E+01-6.01659E-10-6.21224E-10
 -1       795 1.54883E+05 5.41860E+01 2.93469E+02-1.78689E+03 1.18419E-09-3.29744E-09
 -1       796 1.54829E+05-4.51389E+01 4.75390E+02 6.62301E+01-6.51283E-10 1.48682E-09
 -1       797 1.55067E+05 3.92186E+02 1.07950E+03-1.80585E+03 2.79798E-10 2.62453E-09
 -1       798 1.54668E+05-3.33665E+02 1.79740E+03 7.72100E+01-1.83564E-09-3.87161E-09
 -1       799 1.56345E+05 2.93687E+03 4.70783E+03-1.82971E+03-3.19105E-09 7.32803E-09
 -1       800 1.53551E+05-2.48166E+03 6.90341E+03 9.00552E+01-7.76936E-10 1.68893E-09
 -1       801-1.56653E+04 1.39361E+05 2.09117E+04 2.77637E+04 3.19010E-08-6.41739E-09
 -1       802 4.01147E+04 1.60654E+05 4.24703E+04-1.04458E+06 4.12510E-08 3.67163E-09
 -1       803-8.19750E+03 1.48718E+05 5.19127E+04 2.71368E+04 5.39549E-08 7.95467E-09
 -1       804 9.89400E+04 1.95184E+05 1.29146E+05-1.04470E+06 4.69845E-08 1.60881E-08
 -1       805-7.40353E+04 1.07865E+05 1.73479E+05 2.78541E+04 2.09111E-08 8.59291E-09
 -1       806-1.65739E+05-4.16830E+04-1.41126E+04-7.49452E+04 1.82013E-09-9.19499E-10
 -1       807-1.65871E+05-3.89896E+04-6.78808E+03-7.93238E+04 8.38895E-10 1.45189E-09
 -1       808-1.65865E+05-3.53815E+04-2.86795E+03-7.77113E+04 8.34018E-09-1.46127E-09
 -1       809-1.64452E+05-3.67819E+04-1.39395E+03-7.97124E+04 1.87845E-08 1.64755E-09
 -1       810-1.65914E+05-3.50589E+04-6.33716E+02-7.78694E+04 9.28134E-09 4.69754E-09
 -1       811-1.64328E+05-3.66695E+04-3.13827E+02-7.97110E+04 3.64935E-11-1.85082E-09
 -1       812-1.65925E+05-3.50636E+04-1.55850E+02-7.78721E+04-2.01226E-10 5.90489E-10
 -1       813-1.64311E+05-3.66708E+04-9.77394E+01-7.97027E+04 2.41016E-09 6.71434E-10
 -1       814-1.65923E+05-3.50693E+04-9.06147E+01-7.78690E+04 5.43787E-09 8.99718E-09
 -1       815-1.64312E+05-3.66741E+04-1.41235E+02-7.96990E+04 1.35742E-09-4.38240E-09
 -1       816-1.65911E+05-3.50729E+04-2.64141E+02-7.78646E+04-1.01409E-09 1.02045E-09
 -1       817-1.64363E+05-3.67147E+04-5.70223E+02-7.96845E+04 1.35651E-09 7.33598E-09
 -1       818-1.65878E+05-3.52162E+04-1.16883E+03-7.78045E+04 1.38880E-09-7.24867E-10
 -1       819-1.65007E+05-3.75408E+04-2.76203E+03-7.94354E+04 4.52883E-09 1.00490E-08
 -1       820-1.65751E+05-3.78464E+04-5.74128E+03-7.67510E+04 2.55568E-09 8.80982E-09
 -1       821-2.20244E+05 9.75952E+03-2.71532E+04-1.82480E+02-1.67392E-09 7.45786E-10
 -1       822-2.31243E+05-1.15548E+04-1.85094E+04 3.31566E+03-1.51493E-09-1.03682E-10
 -1       823-2.24634E+05 1.31031E+03-7.05834E+03-2.31141E+02 1.85435E-09 2.74667E-09
 -1       824-2.26224E+05-1.54062E+03-4.21829E+03 3.39822E+03-3.64935E-10 4.17577E-09
 -1       825-2.25267E+05 1.75494E+02-1.82026E+03-2.65159E+02-3.99342E-09-4.70993E-09
 -1       826-2.25501E+05-2.03215E+02-1.04901E+03 3.45565E+03-7.22979E-09-9.10275E-09
 -1       827-2.25359E+05 2.61105E+01-5.62626E+02-2.88617E+02-3.47600E-09 6.94556E-10
 -1       828-2.25411E+05-4.76566E+01-4.76851E+02 3.49230E+03-5.02071E-09 6.71246E-09
 -1       829-2.25359E+05 2.62037E+01-5.61063E+02-3.01809E+02 3.09427E-10 2.52186E-10
 -1       830-2.25505E+05-2.01274E+02-1.04556E+03 3.50781E+03 2.16430E-09-4.86261E-09
 -1       831-2.25266E+05 1.75308E+02-1.81250E+03-3.04129E+02-1.23246E-09 3.28737E-09
 -1       832-2.26228E+05-1.53216E+03-4.20188E+03 3.50201E+03 2.43404E-10 6.84213E-09
 -1       833-2.24636E+05 1.30587E+03-7.02865E+03-2.95965E+02 1.19348E-09 2.60206E-09
 -1       834-2.31231E+05-1.15048E+04-1.84349E+04 3.47498E+03 6.20162E-10-5.31031E-09
 -1       835-2.20263E+05 9.72115E+03-2.70409E+04-2.76791E+02 1.86219E-09-2.45927E-09
 -1       836-8.88901E+02 2.60764E+05 1.93937E+04-1.86230E+04-1.76442E-10 8.87212E-10
 -1       837 4.04901E+03 2.66672E+05 1.52252E+04-3.61270E+04-1.23759E-09-1.65483E-09
 -1       838-2.90048E+02 2.62664E+05 1.40324E+04-1.85654E+04-1.54159E-10 3.67169E-09
 -1       839 8.01287E+03 2.69696E+05 2.49370E+04-3.61408E+04-1.13141E-09 5.46038E-10
 -1       840-1.90118E+03 2.57724E+05 3.93303E+04-1.86078E+04-4.56566E-10-4.06317E-10
 -1       856-1.46384E+05 5.06638E+03-2.07113E+04 2.37461E+03-2.88514E-09-4.88399E-10
 -1       857-1.53943E+05-6.71162E+03-1.33486E+04 1.07543E+04-5.83771E-09-2.98701E-09
 -1       858-1.49535E+05 5.37441E+02-5.37087E+03 2.33447E+03-3.23325E-09-2.71916E-09
 -1       859-1.50441E+05-6.64081E+02-3.01328E+03 1.08055E+04-9.08585E-10-8.87212E-10
 -1       860-1.49902E+05 6.33455E+01-1.36207E+03 2.32269E+03 1.02295E-09 1.23214E-09
 -1       861-1.50034E+05-4.39700E+01-7.27776E+02 1.08210E+04-6.77218E-09-5.03695E-09
 -1       862-1.49951E+05 1.29771E+01-3.61832E+02 2.31883E+03 8.50051E-10-1.13204E-09
 -1       863-1.49982E+05 1.73427E+01-2.21813E+02 1.08233E+04 1.32753E-08-1.91710E-09
 -1       864-1.49956E+05 8.16874E+00-1.76431E+02 2.32037E+03 6.29990E-09-2.45475E-09
 -1       865-1.49983E+05 4.65216E+00-2.36972E+02 1.08140E+04 2.70592E-09-1.64604E-10
 -1       866-1.49943E+05 1.94008E+01-3.89646E+02 2.32814E+03 2.13504E-10-9.10724E-10
 -1       867-1.50083E+05-1.66469E+02-8.26600E+02 1.07917E+04 6.44343E-09-4.21655E-09
 -1       868-1.49842E+05 1.45002E+02-1.46358E+03 2.34273E+03 7.64885E-09 1.61344E-09
 -1       869-1.51019E+05-1.81116E+03-3.62197E+03 1.07287E+04-2.27010E-09-8.66640E-09
 -1       870-1.48986E+05 1.36883E+03-5.62318E+03 2.39136E+03 1.21645E-10-4.22006E-09
 -1       871-3.05948E+03-2.07485E+04-9.26671E+03 8.61713E+04-4.57476E-10-2.03090E-09
 -1       872-1.29397E+03-2.27979E+04-3.51021E+03 1.10811E+05 5.71617E-10-5.04110E-09
 -1       873-4.47261E+01-2.18964E+04 1.15713E+03 8.59800E+04-9.67702E-10-5.67593E-09
 -1       874 1.73105E+03-2.02161E+04 6.68021E+03 1.10857E+05 8.35826E-10-1.63845E-08
 -1       875 4.29771E+03-2.33925E+04 1.44179E+04 8.61319E+04-1.15506E-09-1.19940E-08
 -1       876 2.31517E+05 3.62700E+04 1.75716E+04 9.21565E+04 8.67090E-10-9.32232E-10
 -1       877 2.34195E+05 4.27812E+04 9.93702E+03 9.57279E+04-5.21686E-09 6.04882E-09
 -1       878 2.33706E+05 3.67126E+04 4.04635E+03 9.28593E+04 5.04360E-09 3.47245E-09
 -1       879 2.31459E+05 3.96541E+04 2.05350E+03 9.59576E+04 5.44753E-09-2.21382E-09
 -1       880 2.33875E+05 3.67823E+04 9.36180E+02 9.29052E+04 4.66980E-09-1.31877E-09
 -1       881 2.31252E+05 3.94674E+04 4.87995E+02 9.59424E+04-5.93900E-10-8.21800E-09
 -1       882 2.33892E+05 3.67973E+04 2.83871E+02 9.29097E+04 3.25633E-09-1.74749E-09
 -1       883 2.31235E+05 3.94553E+04 2.63665E+02 9.59349E+04-6.12584E-09 3.71760E-09
 -1       884 2.33888E+05 3.67969E+04 3.80199E+02 9.29100E+04-7.24856E-09-3.90111E-09
 -1       885 2.31269E+05 3.94717E+04 7.43708E+02 9.59413E+04 7.33805E-09-5.10300E-09
 -1       886 2.33856E+05 3.67765E+04 1.47887E+03 9.29045E+04 1.72369E-09-3.28760E-09
 -1       887 2.31602E+05 3.97677E+04 3.27125E+03 9.59587E+04 2.49543E-09-4.28906E-09
 -1       888 2.33580E+05 3.66678E+04 6.45801E+03 9.28307E+04-1.48646E-11-2.01908E-10
 -1       889 2.35943E+05 4.47891E+04 1.58659E+04 9.56184E+04 4.41393E-09-5.61613E-10
 -1       890 2.30110E+05 3.59354E+04 2.80586E+04 9.16747E+04 2.34127E-09 1.68438E-09
 -1       891 1.67110E+02-1.27139E+05-4.10722E+03 2.21706E+04 1.30353E-09 2.94182E-09
 -1       892-8.94247E+02-1.28364E+05-3.24373E+03 4.32158E+04 2.11890E-09-5.20811E-09
 -1       893 3.88784E+01-1.27534E+05-3.02373E+03 2.21421E+04 2.06114E-09-1.46656E-10
 -1       894-1.79268E+03-1.29003E+05-5.40759E+03 4.31394E+04-1.15415E-09 5.60271E-09
 -1       895 3.64312E+02-1.26430E+05-8.55558E+03 2.22462E+04 1.38380E-09-2.18597E-09
 -1       956-2.37981E+05-4.00326E+03-9.81599E+03 2.33181E+04-3.33694E-09 3.85171E-10
 -1       957-2.39904E+05-1.32836E+03-5.02636E+03 2.79348E+04 3.03316E-10-4.53838E-09
 -1       958-2.38849E+05-1.07312E+02-2.26439E+03 2.31724E+04 3.10683E-09-3.02475E-09
 -1       959-2.39012E+05-8.78699E+00-1.15510E+03 2.80928E+04-1.51567E-09-1.27602E-09
 -1       960-2.38934E+05 4.25108E+01-5.61650E+02 2.31584E+04-4.53429E-09-1.77783E-09
 -1       961-2.38951E+05 4.53121E+01-2.94774E+02 2.81086E+04-8.84575E-09-1.79034E-09
 -1       962-2.38954E+05 4.13393E+01-1.63042E+02 2.31564E+04-3.97631E-09 7.66931E-10
 -1       963-2.38952E+05 4.82762E+01-1.20745E+02 2.81112E+04-5.04770E-09 2.40584E-09
 -1       964-2.38960E+05 4.35123E+01-1.34209E+02 2.31557E+04-2.42494E-10-9.96124E-10
 -1       965-2.38960E+05 5.09351E+01-2.21655E+02 2.81111E+04 3.73313E-09-7.07109E-09
 -1       966-2.38953E+05 4.86614E+01-4.10397E+02 2.31565E+04-4.66559E-09-4.72096E-09
 -1       967-2.39012E+05 1.60196E+01-8.38851E+02 2.81020E+04 2.60570E-10 1.47566E-10
 -1       968-2.38897E+05-5.62803E+01-1.64117E+03 2.31650E+04-4.64297E-09-3.20301E-09
 -1       969-2.39665E+05-9.37485E+02-3.64321E+03 2.80030E+04-1.01227E-08 6.48981E-10
 -1       970-2.38271E+05-2.87856E+03-7.11372E+03 2.32578E+04-3.95266E-09 2.23099E-09
 -1       971-2.75250E+05-2.59142E+02-1.02753E+04 8.60748E+03 9.13269E-09-2.23372E-09
 -1       972-2.78150E+05-1.72757E+03-5.90442E+03 1.45794E+04 1.59432E-08-4.85988E-09
 -1       973-2.76552E+05 2.73049E+01-2.58384E+03 8.51933E+03 1.47406E-08-4.65479E-09
 -1       974-2.76777E+05-6.26828E+01-1.35512E+03 1.46770E+04 2.07497E-08 1.96576E-09
 -1       975-2.76656E+05 2.36084E+01-6.64505E+02 8.50873E+03 1.10949E-08-2.73178E-09
 -1       976-2.76680E+05 2.70418E+01-3.72022E+02 1.46913E+04 2.57842E-10 3.17596E-09
 -1       977-2.76671E+05 2.17774E+01-2.47755E+02 8.50482E+03 5.57816E-09 1.35259E-09
 -1       978-2.76678E+05 3.37159E+01-2.60604E+02 1.46969E+04 1.41507E-08-1.41495E-09
 -1       979-2.76670E+05 2.57409E+01-3.93489E+02 8.50315E+03 7.20220E-09-7.50731E-10
 -1       980-2.76708E+05 2.70290E+01-7.46250E+02 1.46978E+04 7.87080E-09-1.49504E-09
 -1       981-2.76644E+05 3.96464E+01-1.43320E+03 8.50389E+03 1.17552E-10 1.79867E-10
 -1       982-2.76946E+05-1.61187E+02-2.98590E+03 1.46919E+04-2.37969E-09-3.27596E-09
 -1       983-2.76425E+05 5.88687E+01-5.71766E+03 8.50930E+03 3.65253E-09-3.21506E-09
 -1       984-2.80021E+05-3.84204E+03-1.30923E+04 1.46286E+04-4.37285E-09-9.16543E-10
 -1       985-2.73553E+05-5.63336E+02-2.27826E+04 8.57087E+03 2.66846E-09-7.03949E-10
 -3
    1PSTEP                         5           3           1          
  100CL  103 8.75000E-01         409                     0    3           1
 -4  DISP        4    1
 -5  D1          1    2    1    0
 -5  D2          1    2    2    0
 -5  D3          1    2    3    0
 -5  ALL         1    2    0    0    1ALL
 -1         1 1.74772E-04 0.00000E+00 0.00000E+00
 -1         2 1.59317E-04-6.23973E-30 6.61744E-24
 -1         3 1.46339E-04 4.97007E-28 0.00000E+00
 -1         5 1.02515E-04-1.45014E-26 0.00000E+00
 -1         8 1.40992E-04-1.43702E-06 0.00000E+00
 -1         9 1.29976E-04-1.46641E-06 0.00000E+00
 -1        10 1.34404E-04-2.68222E-06 0.00000E+00
 -1        12 1.01508E-04 1.00650E-06-3.30872E-24
 -1        15 1.02859E-04-1.59372E-06-4.13590E-25
 -1        16 9.06418E-05-1.74233E-06 0.00000E+00
 -1        17 9.69529E-05-5.68385E-06 0.00000E+00
 -1        18 9.66372E-05 9.50038E-08 0.00000E+00
 -1        19 9.84867E-05 2.00680E-06 0.00000E+00
 -1        20 9.89828E-05 2.58077E-05 0.00000E+00
 -1        21 9.69989E-05 5.43983E-05 0.00000E+00
 -1        24 2.78245E-05-7.49290E-06 0.00000E+00
 -1        25 9.30165E-05 3.70293E-07 0.00000E+00
 -1        26 9.45645E-05 2.73874E-06 0.00000E+00
 -1        27 9.23655E-05 2.41812E-05 0.00000E+00
 -1        28 9.08832E-05 5.35522E-05 0.00000E+00
 -1        32 0.00000E+00 0.00000E+00 0.00000E+00
 -1        33 8.95481E-05 3.67711E-06 0.00000E+00
 -1        34 8.72074E-05 2.40953E-05 0.00000E+00
 -1        35 8.44915E-05 5.30863E-05 0.00000E+00
 -1        51 1.72390E-04-2.35083E-07 0.00000E+00
 -1        52 1.68241E-04-4.64448E-07 0.00000E+00
 -1        53 1.62668E-04-6.96153E-07 0.00000E+00
 -1        54 1.56029E-04-9.32960E-07 0.00000E+00
 -1        55 1.48684E-04-1.17659E-06-4.96308E-24
 -1        56 1.72746E-04-1.86711E-06 0.00000E+00
 -1        57 1.71314E-04-5.59361E-06-2.64698E-23
 -1        58 1.70397E-04-1.06890E-05 5.29396E-23
 -1        59 1.69771E-04-1.66163E-05 0.00000E+00
 -1        60 1.69204E-04-2.27074E-05 0.00000E+00
 -1        61 1.68447E-04-2.82901E-05-2.64698E-23
 -1        62 1.67278E-04-3.27643E-05 0.00000E+00
 -1        63 1.65500E-04-3.56006E-05 0.00000E+00
 -1        64 1.62999E-04-3.65052E-05 0.00000E+00
 -1        65 1.59707E-04-3.53053E-05 0.00000E+00
 -1        66 1.55667E-04-3.21300E-05 0.00000E+00
 -1        67 1.50975E-04-2.72310E-05 0.00000E+00
 -1        68 1.45815E-04-2.11076E-05 0.00000E+00
 -1        69 1.40420E-04-1.43294E-05 0.00000E+00
 -1        70 1.35028E-04-7.57100E-06-5.29396E-23
 -1        86 1.58210E-04-2.27658E-07 0.00000E+00
 -1        87 1.54901E-04-4.60430E-07 0.00000E+00
 -1        88 1.49847E-04-7.00113E-07 6.61744E-24
 -1        89 1.43519E-04-9.49504E-07 0.00000E+00
 -1        90 1.36650E-04-1.20131E-06 0.00000E+00
 -1       121 1.46004E-04-4.44399E-07 0.00000E+00
 -1       122 1.45001E-04-8.89237E-07 6.61744E-24
 -1       123 1.43333E-04-1.33494E-06 1.32349E-23
 -1       124 1.41006E-04-1.78202E-06 0.00000E+00
 -1       125 1.38026E-04-2.23073E-06-1.32349E-23
 -1       191 1.02487E-04 1.67774E-07-6.61744E-24
 -1       192 1.02403E-04 3.35543E-07 3.30872E-24
 -1       193 1.02263E-04 5.03306E-07-6.61744E-24
 -1       194 1.02068E-04 6.71058E-07 0.00000E+00
 -1       195 1.01816E-04 8.38791E-07-6.61744E-24
 -1       251 1.40354E-04 7.70358E-06-1.32349E-23
 -1       252 1.39655E-04 2.21892E-05-6.61744E-24
 -1       253 1.38955E-04 3.67504E-05-1.32349E-23
 -1       254 1.38314E-04 4.61152E-05-6.61744E-24
 -1       255 1.37710E-04 4.75234E-05 1.32349E-23
 -1       256 1.37068E-04 3.84200E-05-6.61744E-24
 -1       257 1.36328E-04 2.12974E-05 1.32349E-23
 -1       258 1.35487E-04-1.14590E-06 0.00000E+00
 -1       259 1.34645E-04-2.36409E-05 0.00000E+00
 -1       260 1.33903E-04-4.09165E-05-6.61744E-24
 -1       261 1.33259E-04-5.02239E-05 0.00000E+00
 -1       262 1.32655E-04-4.90199E-05-6.61744E-24
 -1       263 1.32016E-04-3.98079E-05-1.32349E-23
 -1       264 1.31316E-04-2.52982E-05 0.00000E+00
 -1       265 1.30616E-04-1.07606E-05 1.32349E-23
 -1       266 1.34637E-04-1.48329E-06 0.00000E+00
 -1       267 1.28281E-04-1.50695E-06 0.00000E+00
 -1       268 1.21926E-04-1.53205E-06 0.00000E+00
 -1       269 1.15570E-04-1.55290E-06 4.13590E-25
 -1       270 1.09215E-04-1.57365E-06 0.00000E+00
 -1       271 1.36236E-04 3.08102E-06 0.00000E+00
 -1       272 1.31995E-04 5.96159E-06-2.64698E-23
 -1       273 1.28331E-04 7.33025E-06-1.05879E-22
 -1       274 1.25168E-04 7.32684E-06 5.29396E-23
 -1       275 1.22440E-04 6.16015E-06 0.00000E+00
 -1       276 1.20052E-04 4.07701E-06 5.29396E-23
 -1       277 1.17900E-04 1.36422E-06 0.00000E+00
 -1       278 1.15866E-04-1.66854E-06 5.29396E-23
 -1       279 1.13830E-04-4.69798E-06 1.05879E-22
 -1       280 1.11674E-04-7.40082E-06 0.00000E+00
 -1       281 1.09280E-04-9.46793E-06 0.00000E+00
 -1       282 1.06543E-04-1.06135E-05-5.29396E-23
 -1       283 1.03369E-04-1.05915E-05-1.05879E-22
 -1       284 9.96897E-05-9.19502E-06-2.64698E-23
 -1       285 9.54339E-05-6.28414E-06-5.29396E-23
 -1       301 1.23378E-04-1.52403E-06 0.00000E+00
 -1       302 1.16773E-04-1.55713E-06 0.00000E+00
 -1       303 1.10180E-04-1.58810E-06 0.00000E+00
 -1       304 1.03616E-04-1.62107E-06 0.00000E+00
 -1       305 9.70972E-05-1.65946E-06 0.00000E+00
 -1       306 1.26061E-04 3.33387E-06-5.29396E-23
 -1       307 1.22877E-04 6.04687E-06 0.00000E+00
 -1       308 1.20424E-04 6.83320E-06-5.29396E-23
 -1       309 1.18608E-04 5.89569E-06-2.64698E-23
 -1       310 1.17325E-04 3.53374E-06 0.00000E+00
 -1       311 1.16442E-04 9.31610E-08 0.00000E+00
 -1       312 1.15809E-04-4.02304E-06 5.29396E-23
 -1       313 1.15269E-04-8.38883E-06-2.64698E-23
 -1       314 1.14659E-04-1.25647E-05 0.00000E+00
 -1       315 1.13817E-04-1.61179E-05 0.00000E+00
 -1       316 1.12595E-04-1.86486E-05 0.00000E+00
 -1       317 1.10857E-04-1.97922E-05 0.00000E+00
 -1       318 1.08489E-04-1.92572E-05 0.00000E+00
 -1       319 1.05410E-04-1.68067E-05 0.00000E+00
 -1       320 1.01551E-04-1.23116E-05 0.00000E+00
 -1       336 1.30063E-04-3.17312E-06 0.00000E+00
 -1       337 1.24931E-04-3.66827E-06-6.61744E-24
 -1       338 1.19028E-04-4.16734E-06 0.00000E+00
 -1       339 1.12378E-04-4.67004E-06 0.00000E+00
 -1       340 1.05010E-04-5.17768E-06 1.32349E-23
 -1       406 1.01145E-04 1.17417E-06 6.61744E-24
 -1       407 1.00725E-04 1.34176E-06 3.30872E-24
 -1       408 1.00249E-04 1.50922E-06 0.00000E+00
 -1       409 9.97174E-05 1.67632E-06 3.30872E-24
 -1       410 9.91297E-05 1.84273E-06 0.00000E+00
 -1       521 8.51556E-05 2.34900E-06 5.29396E-23
 -1       522 8.03375E-05 4.36259E-06 0.00000E+00
 -1       523 7.62905E-05 4.34990E-06-1.05879E-22
 -1       524 7.29340E-05 2.44532E-06 5.29396E-23
 -1       525 7.01597E-05-1.02026E-06 0.00000E+00
 -1       526 6.78041E-05-5.62074E-06 0.00000E+00
 -1       527 6.56698E-05-1.08181E-05 0.00000E+00
 -1       528 6.35426E-05-1.60364E-05 0.00000E+00
 -1       529 6.12085E-05-2.06972E-05 1.05879E-22
 -1       530 5.84659E-05-2.42588E-05 0.00000E+00
 -1       531 5.51509E-05-2.62865E-05-1.05879E-22
 -1       532 5.11377E-05-2.64447E-05 5.29396E-23
 -1       533 4.63623E-05-2.45807E-05-1.05879E-22
 -1       534 4.08283E-05-2.06666E-05 0.00000E+00
 -1       535 3.45756E-05-1.48856E-05 0.00000E+00
 -1       536 9.68965E-05 1.74592E-06-6.61744E-24
 -1       537 9.68642E-05 7.36338E-06 0.00000E+00
 -1       538 9.68390E-05 1.13532E-05 1.65436E-24
 -1       539 9.68205E-05 1.39011E-05 8.27181E-25
 -1       540 9.68046E-05 1.51930E-05 8.27181E-25
 -1       541 9.67899E-05 1.54157E-05 4.13590E-25
 -1       542 9.67752E-05 1.47562E-05 0.00000E+00
 -1       543 9.67598E-05 1.34019E-05-2.06795E-25
 -1       544 9.67438E-05 1.15404E-05 0.00000E+00
 -1       545 9.67272E-05 9.35956E-06 2.06795E-25
 -1       546 9.67104E-05 7.04741E-06 0.00000E+00
 -1       547 9.66937E-05 4.79196E-06 0.00000E+00
 -1       548 9.66776E-05 2.78117E-06 0.00000E+00
 -1       549 9.66627E-05 1.20298E-06 0.00000E+00
 -1       550 9.66484E-05 2.45132E-07-8.27181E-25
 -1       551 8.67769E-05-5.96579E-06 3.30872E-24
 -1       552 7.53244E-05-6.25560E-06 2.68834E-24
 -1       553 6.31451E-05-6.55333E-06 1.32349E-23
 -1       554 5.07975E-05-6.85638E-06 0.00000E+00
 -1       555 3.88399E-05-7.16072E-06 2.64698E-23
 -1       556 9.41132E-05 1.50012E-06-2.64698E-23
 -1       557 9.19295E-05 7.00073E-06 0.00000E+00
 -1       558 9.03291E-05 1.09731E-05 0.00000E+00
 -1       559 8.92457E-05 1.35850E-05 1.32349E-23
 -1       560 8.86130E-05 1.50043E-05 0.00000E+00
 -1       561 8.83660E-05 1.53998E-05 0.00000E+00
 -1       562 8.84399E-05 1.49408E-05 0.00000E+00
 -1       563 8.87704E-05 1.37967E-05 0.00000E+00
 -1       564 8.92936E-05 1.21374E-05 0.00000E+00
 -1       565 8.99459E-05 1.01327E-05 0.00000E+00
 -1       566 9.06636E-05 7.95269E-06 0.00000E+00
 -1       567 9.13832E-05 5.76750E-06-2.06795E-25
 -1       568 9.20415E-05 3.74715E-06 0.00000E+00
 -1       569 9.25750E-05 2.06152E-06 0.00000E+00
 -1       570 9.29201E-05 8.80436E-07 0.00000E+00
 -1       571 9.67490E-05 2.88391E-07-1.24077E-24
 -1       572 9.68635E-05 4.07026E-07-1.65436E-24
 -1       573 9.69790E-05 4.64163E-07 1.65436E-24
 -1       574 9.70948E-05 4.73752E-07-8.27181E-25
 -1       575 9.72107E-05 4.49804E-07 3.30872E-24
 -1       576 9.73267E-05 4.06421E-07 0.00000E+00
 -1       577 9.74428E-05 3.57716E-07 3.30872E-24
 -1       578 9.75588E-05 3.17811E-07 1.65436E-24
 -1       579 9.76749E-05 3.00829E-07 0.00000E+00
 -1       580 9.77910E-05 3.20898E-07 0.00000E+00
 -1       581 9.79070E-05 3.92141E-07 0.00000E+00
 -1       582 9.80231E-05 5.28667E-07 0.00000E+00
 -1       583 9.81391E-05 7.44578E-07 0.00000E+00
 -1       584 9.82550E-05 1.05383E-06 0.00000E+00
 -1       585 9.83709E-05 1.47030E-06-6.61744E-24
 -1       586 9.60589E-05 1.42400E-07 0.00000E+00
 -1       587 9.54050E-05 1.89534E-07 0.00000E+00
 -1       588 9.47244E-05 2.36455E-07 4.13590E-25
 -1       589 9.40666E-05 2.82882E-07 0.00000E+00
 -1       590 9.34812E-05 3.28350E-07 0.00000E+00
 -1       591 9.64868E-05 3.31593E-07 8.27181E-25
 -1       592 9.63533E-05 5.08443E-07 0.00000E+00
 -1       593 9.62370E-05 6.37331E-07-1.65436E-24
 -1       594 9.61342E-05 7.28770E-07 8.27181E-25
 -1       595 9.60413E-05 7.93362E-07 0.00000E+00
 -1       596 9.59545E-05 8.41627E-07 0.00000E+00
 -1       597 9.58697E-05 8.84077E-07 0.00000E+00
 -1       598 9.57832E-05 9.31216E-07 0.00000E+00
 -1       599 9.56911E-05 9.93545E-07 0.00000E+00
 -1       600 9.55892E-05 1.08156E-06 8.27181E-25
 -1       601 9.54739E-05 1.20577E-06 8.27181E-25
 -1       602 9.53411E-05 1.37667E-06 8.27181E-25
 -1       603 9.51870E-05 1.60476E-06-1.65436E-24
 -1       604 9.50081E-05 1.90063E-06 0.00000E+00
 -1       605 9.48004E-05 2.27477E-06-4.13590E-25
 -1       606 9.85232E-05 2.78298E-06 0.00000E+00
 -1       607 9.85561E-05 3.69624E-06 0.00000E+00
 -1       608 9.85880E-05 4.73846E-06 0.00000E+00
 -1       609 9.86193E-05 5.90050E-06 0.00000E+00
 -1       610 9.86504E-05 7.17318E-06 0.00000E+00
 -1       611 9.86812E-05 8.54718E-06-1.65436E-24
 -1       612 9.87119E-05 1.00132E-05 0.00000E+00
 -1       613 9.87425E-05 1.15618E-05 0.00000E+00
 -1       614 9.87729E-05 1.31838E-05 0.00000E+00
 -1       615 9.88032E-05 1.48698E-05 0.00000E+00
 -1       616 9.88335E-05 1.66105E-05 0.00000E+00
 -1       617 9.88637E-05 1.83966E-05 0.00000E+00
 -1       618 9.88937E-05 2.02186E-05 0.00000E+00
 -1       619 9.89237E-05 2.20674E-05 0.00000E+00
 -1       620 9.89535E-05 2.39335E-05 0.00000E+00
 -1       621 9.77972E-05 2.12941E-06 0.00000E+00
 -1       622 9.71095E-05 2.25235E-06 1.65436E-24
 -1       623 9.64330E-05 2.37523E-06 0.00000E+00
 -1       624 9.57771E-05 2.49781E-06-1.65436E-24
 -1       625 9.51512E-05 2.61993E-06-3.30872E-24
 -1       626 9.83104E-05 2.84428E-06 0.00000E+00
 -1       627 9.80822E-05 3.82090E-06 0.00000E+00
 -1       628 9.78067E-05 4.92341E-06 0.00000E+00
 -1       629 9.74893E-05 6.13753E-06 0.00000E+00
 -1       630 9.71353E-05 7.44899E-06 0.00000E+00
 -1       631 9.67501E-05 8.84337E-06 0.00000E+00
 -1       632 9.63391E-05 1.03063E-05-6.61744E-24
 -1       633 9.59078E-05 1.18233E-05 0.00000E+00
 -1       634 9.54614E-05 1.33802E-05 3.30872E-24
 -1       635 9.50055E-05 1.49623E-05 0.00000E+00
 -1       636 9.45454E-05 1.65554E-05 0.00000E+00
 -1       637 9.40866E-05 1.81452E-05-1.65436E-24
 -1       638 9.36343E-05 1.97170E-05 0.00000E+00
 -1       639 9.31938E-05 2.12567E-05-8.27181E-25
 -1       640 9.27699E-05 2.27496E-05-3.30872E-24
 -1       656 9.73897E-05 2.55432E-05-3.30872E-24
 -1       657 9.62053E-05 2.52677E-05 0.00000E+00
 -1       658 9.52709E-05 2.49931E-05 0.00000E+00
 -1       659 9.44267E-05 2.47189E-05 3.30872E-24
 -1       660 9.35117E-05 2.44437E-05 0.00000E+00
 -1       661 9.84062E-05 2.77163E-05 0.00000E+00
 -1       662 9.78218E-05 2.96592E-05 1.65436E-24
 -1       663 9.72295E-05 3.16227E-05-3.30872E-24
 -1       664 9.66346E-05 3.35951E-05-1.65436E-24
 -1       665 9.60411E-05 3.55643E-05 0.00000E+00
 -1       666 9.54534E-05 3.75183E-05 0.00000E+00
 -1       667 9.48760E-05 3.94451E-05 0.00000E+00
 -1       668 9.43133E-05 4.13327E-05 0.00000E+00
 -1       669 9.37700E-05 4.31691E-05 0.00000E+00
 -1       670 9.32505E-05 4.49421E-05 0.00000E+00
 -1       671 9.27595E-05 4.66395E-05 0.00000E+00
 -1       672 9.23014E-05 4.82489E-05 1.65436E-24
 -1       673 9.18810E-05 4.97579E-05-3.30872E-24
 -1       674 9.15019E-05 5.11535E-05 1.65436E-24
 -1       675 9.11704E-05 5.24236E-05 0.00000E+00
 -1       676 9.59744E-05 5.42563E-05 0.00000E+00
 -1       677 9.49508E-05 5.41143E-05 0.00000E+00
 -1       678 9.39289E-05 5.39725E-05 3.30872E-24
 -1       679 9.29098E-05 5.38311E-05-1.65436E-24
 -1       680 9.18943E-05 5.36898E-05 0.00000E+00
 -1       771 2.32661E-05 4.47977E-07 5.29396E-23
 -1       772 1.92657E-05 6.89492E-06 2.64698E-23
 -1       773 1.57977E-05 1.19434E-05 5.29396E-23
 -1       774 1.28214E-05 1.56961E-05-2.64698E-23
 -1       775 1.02965E-05 1.82575E-05-5.29396E-23
 -1       776 8.18085E-06 1.97358E-05 0.00000E+00
 -1       777 6.43201E-06 2.02406E-05-5.29396E-23
 -1       778 5.00679E-06 1.98844E-05 0.00000E+00
 -1       779 3.86183E-06 1.87810E-05 5.29396E-23
 -1       780 2.95319E-06 1.70462E-05 2.64698E-23
 -1       781 2.23688E-06 1.47970E-05-1.05879E-22
 -1       782 1.66860E-06 1.21517E-05 0.00000E+00
 -1       783 1.20403E-06 9.22915E-06 5.29396E-23
 -1       784 7.99201E-07 6.14930E-06-2.64698E-23
 -1       785 4.09710E-07 3.03216E-06 0.00000E+00
 -1       786 9.31076E-05 5.14075E-07-8.27181E-25
 -1       787 9.32042E-05 6.12842E-07 0.00000E+00
 -1       788 9.33005E-05 6.76446E-07 3.30872E-24
 -1       789 9.33977E-05 7.14675E-07 0.00000E+00
 -1       790 9.34950E-05 7.37233E-07-3.30872E-24
 -1       791 9.35925E-05 7.53797E-07 0.00000E+00
 -1       792 9.36901E-05 7.74021E-07 0.00000E+00
 -1       793 9.37876E-05 8.07568E-07 0.00000E+00
 -1       794 9.38852E-05 8.64146E-07 0.00000E+00
 -1       795 9.39828E-05 9.53504E-07 1.65436E-24
 -1       796 9.40804E-05 1.08550E-06-3.30872E-24
 -1       797 9.41778E-05 1.27008E-06 1.65436E-24
 -1       798 9.42753E-05 1.51735E-06-3.30872E-24
 -1       799 9.43723E-05 1.83754E-06 1.65436E-24
 -1       800 9.44695E-05 2.24113E-06-1.65436E-24
 -1       801 8.58733E-05 4.26059E-07 0.00000E+00
 -1       802 6.78873E-05 3.60857E-07 0.00000E+00
 -1       803 4.46863E-05 2.00709E-07 0.00000E+00
 -1       804 2.18900E-05 4.13524E-08 0.00000E+00
 -1       805 5.11691E-06-1.18204E-08 0.00000E+00
 -1       806 9.28495E-05 4.58831E-07 0.00000E+00
 -1       807 9.26856E-05 5.27209E-07-1.65436E-24
 -1       808 9.25251E-05 5.83818E-07 0.00000E+00
 -1       809 9.23657E-05 6.36279E-07 0.00000E+00
 -1       810 9.22048E-05 6.92175E-07-3.30872E-24
 -1       811 9.20398E-05 7.59022E-07 0.00000E+00
 -1       812 9.18678E-05 8.44327E-07 0.00000E+00
 -1       813 9.16860E-05 9.55583E-07-1.65436E-24
 -1       814 9.14917E-05 1.10028E-06 3.30872E-24
 -1       815 9.12820E-05 1.28591E-06 0.00000E+00
 -1       816 9.10542E-05 1.51996E-06 1.65436E-24
 -1       817 9.08054E-05 1.80989E-06 8.27181E-25
 -1       818 9.05329E-05 2.16317E-06 3.30872E-24
 -1       819 9.02341E-05 2.58725E-06 0.00000E+00
 -1       820 8.99062E-05 3.08952E-06-1.65436E-24
 -1       821 9.44352E-05 3.38080E-06 0.00000E+00
 -1       822 9.42981E-05 4.20290E-06 1.65436E-24
 -1       823 9.41612E-05 5.18778E-06-3.30872E-24
 -1       824 9.40229E-05 6.31766E-06 0.00000E+00
 -1       825 9.38843E-05 7.57417E-06 3.30872E-24
 -1       826 9.37453E-05 8.93852E-06 1.65436E-24
 -1       827 9.36061E-05 1.03915E-05-3.30872E-24
 -1       828 9.34669E-05 1.19135E-05 0.00000E+00
 -1       829 9.33275E-05 1.34848E-05 0.00000E+00
 -1       830 9.31881E-05 1.50854E-05-1.65436E-24
 -1       831 9.30488E-05 1.66952E-05 0.00000E+00
 -1       832 9.29097E-05 1.82941E-05-1.65436E-24
 -1       833 9.27708E-05 1.98620E-05 0.00000E+00
 -1       834 9.26333E-05 2.13789E-05 1.65436E-24
 -1       835 9.24955E-05 2.28252E-05 1.65436E-24
 -1       836 9.38908E-05 2.89375E-06 0.00000E+00
 -1       837 9.30738E-05 3.05327E-06 0.00000E+00
 -1       838 9.21721E-05 3.21255E-06 0.00000E+00
 -1       839 9.12447E-05 3.37106E-06 1.65436E-24
 -1       840 9.03505E-05 3.52937E-06-8.27181E-25
 -1       856 9.22797E-05 2.56037E-05-4.13590E-25
 -1       857 9.21878E-05 2.72284E-05 8.27181E-25
 -1       858 9.20958E-05 2.90241E-05 0.00000E+00
 -1       859 9.20026E-05 3.09594E-05-1.65436E-24
 -1       860 9.19090E-05 3.30027E-05-3.30872E-24
 -1       861 9.18152E-05 3.51224E-05 0.00000E+00
 -1       862 9.17212E-05 3.72869E-05 3.30872E-24
 -1       863 9.16272E-05 3.94644E-05-1.65436E-24
 -1       864 9.15331E-05 4.16230E-05 0.00000E+00
 -1       865 9.14392E-05 4.37313E-05 1.65436E-24
 -1       866 9.13455E-05 4.57573E-05-3.30872E-24
 -1       867 9.12520E-05 4.76695E-05 1.65436E-24
 -1       868 9.11588E-05 4.94364E-05-3.30872E-24
 -1       869 9.10661E-05 5.10266E-05-1.65436E-24
 -1       870 9.09737E-05 5.24089E-05 0.00000E+00
 -1       871 9.13112E-05 2.41706E-05 0.00000E+00
 -1       872 9.04354E-05 2.41575E-05 0.00000E+00
 -1       873 8.96632E-05 2.41439E-05-8.27181E-25
 -1       874 8.89184E-05 2.41296E-05 2.06795E-25
 -1       875 8.81249E-05 2.41146E-05 4.13590E-25
 -1       876 9.20083E-05 2.56147E-05-3.30872E-24
 -1       877 9.16150E-05 2.71602E-05 0.00000E+00
 -1       878 9.11853E-05 2.88028E-05-6.61744E-24
 -1       879 9.07245E-05 3.05296E-05-3.30872E-24
 -1       880 9.02371E-05 3.23275E-05 0.00000E+00
 -1       881 8.97280E-05 3.41835E-05 0.00000E+00
 -1       882 8.92019E-05 3.60845E-05 0.00000E+00
 -1       883 8.86637E-05 3.80177E-05 3.30872E-24
 -1       884 8.81182E-05 3.99701E-05 6.61744E-24
 -1       885 8.75704E-05 4.19288E-05-3.30872E-24
 -1       886 8.70249E-05 4.38809E-05 6.61744E-24
 -1       887 8.64867E-05 4.58135E-05 1.65436E-24
 -1       888 8.59604E-05 4.77137E-05 0.00000E+00
 -1       889 8.54502E-05 4.95682E-05 0.00000E+00
 -1       890 8.49616E-05 5.13644E-05 1.65436E-24
 -1       891 8.99565E-05 5.34750E-05 0.00000E+00
 -1       892 8.90660E-05 5.33969E-05-8.27181E-25
 -1       893 8.81430E-05 5.33188E-05 0.00000E+00
 -1       894 8.71188E-05 5.32407E-05-8.27181E-25
 -1       895 8.59243E-05 5.31625E-05 8.27181E-25
 -1       956 8.94052E-05 4.48559E-06 0.00000E+00
 -1       957 8.92597E-05 5.42528E-06-8.27181E-25
 -1       958 8.91135E-05 6.48220E-06 0.00000E+00
 -1       959 8.89670E-05 7.64150E-06-1.65436E-24
 -1       960 8.88203E-05 8.88832E-06 3.30872E-24
 -1       961 8.86734E-05 1.02077E-05 0.00000E+00
 -1       962 8.85265E-05 1.15846E-05 0.00000E+00
 -1       963 8.83794E-05 1.30042E-05 1.65436E-24
 -1       964 8.82324E-05 1.44513E-05 0.00000E+00
 -1       965 8.80853E-05 1.59110E-05 0.00000E+00
 -1       966 8.79383E-05 1.73684E-05 0.00000E+00
 -1       967 8.77913E-05 1.88083E-05-3.30872E-24
 -1       968 8.76444E-05 2.02158E-05 6.61744E-24
 -1       969 8.74978E-05 2.15761E-05 3.30872E-24
 -1       970 8.73516E-05 2.28740E-05 0.00000E+00
 -1       971 8.70410E-05 2.53416E-05 0.00000E+00
 -1       972 8.68715E-05 2.67542E-05 1.65436E-24
 -1       973 8.67017E-05 2.83141E-05 3.30872E-24
 -1       974 8.65313E-05 3.00020E-05 3.30872E-24
 -1       975 8.63607E-05 3.17982E-05 0.00000E+00
 -1       976 8.61899E-05 3.36832E-05-3.30872E-24
 -1       977 8.60189E-05 3.56373E-05 0.00000E+00
 -1       978 8.58478E-05 3.76408E-05 0.00000E+00
 -1       979 8.56766E-05 3.96742E-05-6.61744E-24
 -1       980 8.55055E-05 4.17175E-05-3.30872E-24
 -1       981 8.53344E-05 4.37513E-05 0.00000E+00
 -1       982 8.51636E-05 4.57556E-05 0.00000E+00
 -1       983 8.49930E-05 4.77109E-05 6.61744E-24
 -1       984 8.48233E-05 4.95975E-05 1.65436E-24
 -1       985 8.46542E-05 5.13957E-05 0.00000E+00
 -3
    1PSTEP                         6           3           1          
  100CL  103 8.75000E-01         409                     0    3           1
 -4  STRESS      6    1
 -5  SXX         1    4    1    1
 -5  SYY         1    4    2    2
 -5  SZZ         1    4    3    3
 -5  SXY         1    4    1    2
 -5  SYZ         1    4    2    3
 -5  SZX         1    4    3    1
 -1         1-3.20981E+06-1.41957E+06-7.11689E+05-1.86446E+06-4.36557E-11-1.42609E-08
 -1         2 2.34160E+03-6.41530E+05 7.88074E+03-6.42398E+03-2.17881E-09-3.69630E-09
 -1         3-1.70496E+02-1.26882E+06 3.12106E+02-7.13894E+02 3.99911E-10-2.88601E-08
 -1         5-2.34530E+01 4.80185E+05 1.32593E+01 1.06680E+00 1.71405E-10-2.33740E-09
 -1         8-2.06857E+06-7.60291E+05-2.46863E+05-9.58639E+05-7.60338E-10-3.62343E-09
 -1         9-2.51541E+06-8.41943E+05-3.37565E+05-6.63687E+05-9.57516E-10 6.29807E-09
 -1        10-1.08849E+03-1.32424E+06-1.97345E+03-4.85019E+03 1.24601E-09-1.23046E-08
 -1        12-1.80829E+01 4.80212E+05 4.30546E+02 7.05357E+00 3.03245E-10 1.18548E-08
 -1        15 3.41322E+03 1.86172E+03 1.08260E+04 9.46669E+00-1.80080E-10-1.88937E-08
 -1        16-5.26643E+06-1.67757E+06-8.01773E+05-1.70499E+06 4.82153E-09-2.30890E-09
 -1        17-9.90298E+05-7.29625E+05-1.60957E+05-6.62538E+05-1.74768E-09 3.98140E-09
 -1        18 3.34898E+04 6.60202E+03-2.10572E+04-1.20056E+05 9.12678E-10 1.98997E-09
 -1        19 1.46244E+05 1.73355E+05-1.28723E+03 1.82963E+04-2.72848E-10 1.14815E-09
 -1        20 6.91708E+04-2.31230E+05-4.41918E+04 6.68542E+04 1.61220E-08 5.74679E-09
 -1        21-8.77413E+01-4.05176E+05-1.56220E+03-3.02826E+02 7.04999E-09-4.90655E-09
 -1        24-4.01743E+06-1.43260E+06-4.88847E+05-1.83648E+06-1.67250E-08-9.37143E-09
 -1        25 3.88665E+04 5.11266E+04 3.30534E+04-5.20939E+05-4.49218E-09-5.98375E-09
 -1        26-2.84585E+04 1.24383E+05-8.09836E+03-2.73816E+04 2.71393E-10-4.38954E-09
 -1        27-4.59846E+04-1.37938E+05-6.35718E+04 9.29148E+04 6.11226E-09 5.13561E-10
 -1        28 4.81840E+02-1.23607E+05 6.31254E+03 4.55152E+04 5.98720E-09 2.08503E-09
 -1        32-1.18070E+06-1.05151E+05 3.81014E+05-1.63951E+06-6.63567E-09 1.93381E-09
 -1        33-1.76427E+05 1.17303E+05 3.82059E+04-4.93779E+04-2.39500E-11 1.66316E-09
 -1        34-2.81127E+05-3.70709E+04-4.34759E+03 8.91046E+04 3.61192E-09-1.26935E-09
 -1        35-3.34470E+04-4.69108E+04-2.36918E+03 7.59105E+04 9.57354E-09 2.89462E-09
 -1        51 2.64145E+04-5.73477E+05 5.43111E+04-1.59031E+06 3.78350E-10 7.56700E-10
 -1        52 1.86844E+04-5.77817E+05 3.75647E+04-1.79051E+06 9.74978E-10-1.04192E-08
 -1        53 1.73123E+04-6.01357E+05 3.45554E+04-1.58537E+06-1.30967E-10-1.47556E-08
 -1        54 4.25172E+04-6.02193E+05 5.87891E+04-1.79548E+06 2.91038E-11-2.83108E-08
 -1        55 8.35148E+04-6.24815E+05 1.08504E+05-1.58418E+06 1.89175E-10-1.23182E-08
 -1        56-6.11620E+06-6.67248E+05-5.04306E+05-2.34980E+06 1.26602E-09-2.11585E-08
 -1        57-6.28885E+06-1.16214E+06-3.41220E+05-2.36237E+06-3.52338E-09-9.74251E-09
 -1        58-6.23092E+06-8.16356E+05-1.18396E+05-2.30093E+06 7.56700E-10-6.35919E-09
 -1        59-6.15709E+06-9.86342E+05-7.10799E+04-2.41940E+06-2.91129E-09 4.99313E-10
 -1        60-6.24731E+06-8.38018E+05-2.75847E+04-2.29467E+06-6.82121E-11-1.24637E-08
 -1        61-6.15025E+06-9.47374E+05-1.55722E+04-2.41013E+06-2.54659E-10-8.61877E-09
 -1        62-6.23686E+06-8.55095E+05-7.87662E+03-2.30992E+06 1.39607E-09-1.83911E-09
 -1        63-6.18236E+06-9.07205E+05-5.71264E+03-2.36691E+06-1.27829E-09 1.01866E-08
 -1        64-6.21398E+06-8.78905E+05-7.69743E+03-2.33705E+06-3.45608E-10 1.58357E-08
 -1        65-6.23193E+06-8.62456E+05-1.39077E+04-2.31186E+06-2.41016E-11 6.81757E-09
 -1        66-6.18727E+06-8.99959E+05-2.55406E+04-2.36489E+06 3.28782E-09-8.80391E-10
 -1        67-6.28939E+06-8.47911E+05-6.44797E+04-2.26429E+06 4.00408E-09 1.45701E-08
 -1        68-6.15794E+06-8.93248E+05-1.07671E+05-2.38533E+06 1.70985E-09-3.84898E-09
 -1        69-6.41086E+06-1.00928E+06-3.10611E+05-2.21641E+06-3.18323E-10-4.29281E-10
 -1        70-6.06790E+06-7.42162E+05-4.58412E+05-2.41211E+06-3.40515E-09 1.01863E-09
 -1        86-1.22945E+03-6.50375E+05 7.02798E+03 3.21180E+03 5.41149E-11 9.16145E-09
 -1        87 7.38403E+03-6.40797E+05 1.62024E+04-1.14637E+04-4.26553E-10 7.37862E-09
 -1        88-6.18813E+03-6.51198E+05 2.37902E+04 8.25149E+03-1.40881E-09-2.66425E-10
 -1        89 4.55721E+04-6.25668E+05 6.46798E+04-1.79693E+04 3.55612E-10-9.23563E-11
 -1        90-3.92330E+04-6.65611E+05 9.11893E+04 9.71858E+03-2.41562E-09-9.75390E-09
 -1       121-2.72956E+02-1.26963E+06 2.28254E+02 3.56483E+02 1.31664E-10 1.52886E-08
 -1       122-5.69406E+01-1.26877E+06 6.69298E+02-1.42404E+03 1.78418E-09 2.31257E-08
 -1       123-3.47604E+02-1.26971E+06 1.00459E+03 1.06482E+03 8.21956E-10 1.27475E-08
 -1       124 1.22935E+03-1.26805E+06 2.77702E+03-2.99285E+03 4.40025E-09-9.09495E-10
 -1       125-1.19534E+03-1.27042E+06 4.14717E+03 1.92412E+03 1.44246E-09 1.95359E-09
 -1       191-2.50561E+01 4.80222E+05 1.51462E+01-5.38678E-01 2.95521E-10 4.76030E-09
 -1       192-2.46843E+01 4.80185E+05 2.81042E+01 3.03790E+00 4.82903E-10 5.31691E-09
 -1       193-2.83212E+01 4.80222E+05 5.15796E+01-2.53312E+00 5.04780E-10-8.05267E-09
 -1       194-2.86423E+01 4.80190E+05 1.06371E+02 6.70674E+00 2.25727E-10-2.74667E-10
 -1       195-3.45926E+01 4.80218E+05 2.07369E+02-4.25365E+00 7.85136E-10-6.35737E-09
 -1       251-1.71895E+06 2.04620E+03-1.23063E+04-5.41989E+04-1.04637E-09-3.85126E-09
 -1       252-1.68736E+06-1.32017E+03-1.63671E+03 1.28531E+05 8.13088E-10 6.35009E-09
 -1       253-1.71895E+06 5.77239E+02-4.71413E+03-5.47734E+04-7.16682E-10-4.51155E-09
 -1       254-1.64283E+06 2.19982E+03 1.15845E+04 6.81318E+04-6.58247E-09-1.56729E-09
 -1       255-1.76065E+06-4.13673E+03-1.18803E+04 6.21133E+03-4.13957E-09-2.37890E-09
 -1       256-1.64290E+06 3.43601E+03 1.27843E+04-5.41064E+04 1.54466E-09 7.87139E-10
 -1       257-1.71882E+06-6.81254E+02-2.51066E+03 6.74173E+04-1.10799E-09 9.30626E-09
 -1       258-1.68807E+06 2.70297E+03 4.14961E+03-1.15642E+05 6.44171E-10 6.09947E-09
 -1       259-1.71828E+06-6.41540E+02-2.31298E+03 6.78001E+04-6.00562E-09 1.39079E-08
 -1       260-1.64344E+06 3.50593E+03 1.29065E+04-5.52900E+04 2.14095E-09-8.98262E-09
 -1       261-1.76068E+06-4.21097E+03-1.14544E+04 7.01229E+03 1.46883E-09 9.52074E-09
 -1       262-1.64201E+06 2.73393E+03 1.27605E+04 6.69392E+04 3.78350E-09-2.68517E-09
 -1       263-1.71970E+06 8.25102E+01-3.12982E+03-5.43821E+04-9.08699E-09-1.21400E-08
 -1       264-1.68583E+06 1.94717E+03 3.00708E+03 1.28529E+05-2.63501E-08-8.67601E-09
 -1       265-1.71972E+06-7.21977E+02-5.60807E+03-5.45885E+04-1.30217E-08 8.71910E-09
 -1       266-6.09509E+04-2.83400E+04 1.41974E+05-1.98981E+02-2.91038E-11-6.83906E-09
 -1       267 7.06285E+04 3.30799E+04 1.00484E+05 2.29108E+02 2.18279E-11 7.55296E-09
 -1       268-9.54199E+03-4.70766E+03 3.72783E+04-2.94974E+01 2.36469E-11 5.24294E-09
 -1       269 1.12651E+04 5.64029E+03 2.42900E+04 3.43205E+01-8.41283E-11 5.84670E-09
 -1       270-1.70424E+03-9.30816E+02 1.16961E+04-4.71918E+00 4.45652E-11 8.00225E-09
 -1       271-6.79586E+06-8.36011E+05-5.42810E+05-2.65298E+06 4.36557E-10-6.11180E-09
 -1       272-7.00973E+06-1.23031E+06-3.51546E+05-2.62690E+06-1.10049E-09 1.02445E-08
 -1       273-6.90572E+06-9.70507E+05-1.28085E+05-2.61939E+06 2.55091E-09 6.62840E-09
 -1       274-6.87713E+06-1.07099E+06-7.21735E+04-2.67862E+06 4.06362E-09 4.12001E-09
 -1       275-6.92652E+06-9.79134E+05-2.97979E+04-2.60764E+06-4.74756E-10-1.13087E-08
 -1       276-6.85107E+06-1.06257E+06-1.59435E+04-2.69721E+06 8.40100E-09-4.11092E-10
 -1       277-6.93265E+06-9.76407E+05-7.87110E+03-2.60228E+06 9.93168E-10 3.54680E-09
 -1       278-6.84541E+06-1.06471E+06-5.99202E+03-2.70299E+06-2.74042E-10 5.57247E-09
 -1       279-6.93268E+06-9.76483E+05-6.76330E+03-2.60230E+06-7.69887E-10-6.55064E-09
 -1       280-6.85068E+06-1.06189E+06-1.28008E+04-2.69716E+06 2.21917E-10-1.72622E-09
 -1       281-6.92684E+06-9.79708E+05-2.35696E+04-2.60766E+06 1.20690E-09 3.26872E-09
 -1       282-6.87373E+06-1.06568E+06-5.67400E+04-2.67909E+06-5.48880E-10 2.07392E-08
 -1       283-6.90866E+06-9.74873E+05-1.00746E+05-2.61899E+06-1.78056E-09 5.45697E-10
 -1       284-6.98185E+06-1.18661E+06-2.76155E+05-2.63345E+06-2.20098E-09-6.15546E-09
 -1       285-6.82001E+06-8.71712E+05-4.26785E+05-2.64810E+06-1.83354E-09 1.97906E-09
 -1       301 4.76262E+04-2.46767E+04 1.80945E+05-3.26124E+04-2.02999E-09-6.23061E-10
 -1       302 2.24801E+04 1.55699E+04 1.22298E+05-4.29400E+04-2.58296E-10-1.08195E-08
 -1       303 3.04440E+03-1.01662E+04 1.08709E+05-3.29595E+04-2.48656E-09-1.25556E-09
 -1       304 3.81003E+04 2.93197E+04 1.75496E+05-4.28351E+04-6.93035E-10 6.00994E-09
 -1       305 8.42692E+04-3.82844E+04 3.04332E+05-3.24162E+04-1.83354E-09 6.01722E-09
 -1       306-4.67047E+06-5.74185E+05-3.20253E+05-1.81901E+06 3.38696E-09-8.14907E-10
 -1       307-4.78361E+06-8.49494E+05-2.11583E+05-1.81532E+06 1.95655E-09-1.88702E-08
 -1       308-4.74420E+06-6.56996E+05-7.57190E+04-1.78809E+06 4.23370E-10 5.31145E-09
 -1       309-4.69257E+06-7.57636E+05-4.36744E+04-1.86222E+06-1.07593E-09 6.80302E-09
 -1       310-4.76181E+06-6.59644E+05-1.77635E+04-1.77510E+06-4.35375E-09-5.36602E-09
 -1       311-4.67072E+06-7.56550E+05-9.80727E+03-1.88190E+06-6.34691E-09-1.20606E-08
 -1       312-4.76726E+06-6.56504E+05-5.01743E+03-1.76963E+06 3.14299E-09 1.97736E-09
 -1       313-4.66686E+06-7.58074E+05-4.44404E+03-1.88617E+06 7.53431E-09 2.27606E-08
 -1       314-4.76602E+06-6.57809E+05-5.68009E+03-1.77111E+06 1.13914E-09 4.64797E-09
 -1       315-4.67519E+06-7.52204E+05-1.15006E+04-1.87581E+06-8.18545E-11-5.67843E-09
 -1       316-4.75804E+06-6.63047E+05-2.12801E+04-1.77931E+06 1.71258E-09 1.34551E-08
 -1       317-4.70286E+06-7.52196E+05-5.22400E+04-1.85089E+06-3.25099E-09-1.85537E-09
 -1       318-4.73700E+06-6.59637E+05-9.06873E+04-1.79464E+06-1.73918E-09 5.58794E-09
 -1       319-4.81096E+06-8.63958E+05-2.53479E+05-1.79737E+06 6.35555E-09-6.57383E-09
 -1       320-4.65016E+06-5.58543E+05-3.83350E+05-1.82966E+06 2.78669E-09-6.69388E-10
 -1       336 1.02159E+03-1.37899E+06-8.07470E+03 2.91930E+03-3.80533E-09 7.49606E-09
 -1       337-3.04391E+03-1.38107E+06-9.24106E+03-7.05225E+03-2.67573E-09 3.36422E-09
 -1       338 8.17579E+02-1.37912E+06-1.20955E+04 4.11875E+03-4.74120E-09-1.89175E-10
 -1       339-1.30234E+04-1.38727E+06-2.69437E+04-9.38283E+03-3.49110E-09 1.70658E-08
 -1       340 9.21879E+03-1.37307E+06-4.14072E+04 5.23188E+03-4.72937E-09 9.42055E-09
 -1       406 1.41201E+01 4.80199E+05 8.49243E+02-2.91895E+00 9.90894E-10-2.37742E-09
 -1       407 2.78335E+02 4.80361E+05 1.80637E+03-1.00278E+01 2.06910E-11 1.64209E-09
 -1       408 9.11315E+02 4.80068E+05 3.60662E+03 1.35430E+01 1.16506E-09-6.24186E-09
 -1       409 3.88376E+03 4.81513E+05 8.12042E+03-1.54040E+02-3.86535E-11 9.20818E-09
 -1       410 1.11911E+04 4.79040E+05 1.65766E+04 1.52925E+02 1.28421E-09 1.38980E-08
 -1       521-8.74266E+06-1.06715E+06-6.15314E+05-3.40697E+06 3.20142E-09-1.26020E-08
 -1       522-9.02569E+06-1.53939E+06-4.07844E+05-3.33215E+06 1.53796E-09-5.92991E-09
 -1       523-8.88527E+06-1.22735E+06-1.45040E+05-3.34668E+06 1.72986E-09 4.96948E-09
 -1       524-8.84627E+06-1.36348E+06-8.40522E+04-3.42314E+06-1.93359E-09-1.85901E-09
 -1       525-8.92041E+06-1.23167E+06-3.38011E+04-3.32031E+06-7.29187E-09-9.53514E-09
 -1       526-8.80294E+06-1.36127E+06-1.86690E+04-3.46017E+06-1.10128E-08-2.01680E-09
 -1       527-8.92978E+06-1.22709E+06-9.21398E+03-3.31124E+06 2.14609E-09 6.31826E-09
 -1       528-8.80023E+06-1.35843E+06-7.65352E+03-3.46120E+06 5.66024E-09-5.61158E-10
 -1       529-8.92306E+06-1.23435E+06-9.36516E+03-3.31933E+06 2.32649E-09 2.12367E-09
 -1       530-8.82627E+06-1.33579E+06-1.82717E+04-3.42920E+06 3.01634E-09 7.00311E-10
 -1       531-8.90207E+06-1.25103E+06-3.38309E+04-3.34194E+06 7.78800E-09 3.08319E-09
 -1       532-8.88773E+06-1.31974E+06-8.29605E+04-3.37228E+06 1.11186E-09 8.38554E-10
 -1       533-8.86071E+06-1.25266E+06-1.43556E+05-3.37486E+06-8.00355E-10-6.77392E-09
 -1       534-9.07290E+06-1.48842E+06-4.03437E+05-3.27876E+06 8.84756E-09-2.55386E-09
 -1       535-8.72053E+06-1.09231E+06-6.08235E+05-3.43257E+06 3.84898E-09-6.83940E-09
 -1       536-5.69522E+04-2.93953E+04 7.93861E+04 1.43285E+03 2.93221E-09-2.31012E-09
 -1       537-1.97743E+04 3.33267E+04 5.48937E+04-6.08378E+04-9.63109E-09-8.97217E-09
 -1       538-4.36860E+04-4.20608E+03 2.04412E+04 1.56767E+03-7.76708E-10-2.41198E-09
 -1       539-3.62671E+04 4.15091E+03 1.26062E+04-6.10965E+04 2.68074E-09-4.20005E-09
 -1       540-4.15875E+04-6.97365E+02 5.09734E+03 1.68774E+03-2.41926E-10-4.73347E-09
 -1       541-3.96436E+04 5.23586E+02 3.00187E+03-6.12943E+04-3.99996E-09-4.54611E-09
 -1       542-4.11433E+04-1.40155E+02 1.19503E+03 1.76095E+03-1.45883E-09 5.62409E-10
 -1       543-4.07784E+04 2.02484E+02 6.00551E+02-6.14103E+04-2.98496E-09-2.09252E-09
 -1       544-4.09960E+04-7.14506E+00 4.86443E+01 1.80330E+03 1.59366E-09 8.98410E-10
 -1       545-4.12664E+04 1.26075E+02-4.28129E+02-6.14637E+04-1.59298E-09 2.65572E-10
 -1       546-4.09055E+04 1.09401E+02-1.01032E+03 1.81483E+03 4.72937E-11 9.46557E-10
 -1       547-4.16565E+04-7.17291E+02-2.52425E+03-6.14497E+04-6.74549E-09 8.31261E-09
 -1       548-4.05615E+04 7.73728E+02-4.33194E+03 1.78905E+03-4.42969E-09 4.49313E-09
 -1       549-4.42290E+04-6.96023E+03-1.12829E+04-6.13260E+04-2.71120E-09-3.53066E-09
 -1       550-3.79940E+04 5.85183E+03-1.67764E+04 1.69081E+03 7.01220E-10 1.98452E-09
 -1       551 2.56583E+04-6.52513E+05 3.80863E+04-1.05584E+06 7.98900E-09-8.62201E-09
 -1       552 3.51709E+04-6.56368E+05 4.33603E+04-1.37080E+06-2.43017E-09 1.76806E-08
 -1       553 2.61149E+04-6.61720E+05 6.35398E+04-1.05320E+06 1.04992E-08 8.36553E-09
 -1       554 6.26270E+04-6.37183E+05 1.30934E+05-1.37116E+06-2.70666E-09 1.34787E-09
 -1       555 8.91193E+04-6.79818E+05 2.41466E+05-1.05460E+06 9.48785E-09-1.26165E-08
 -1       556-2.14602E+04-2.09370E+05 6.23262E+04-2.91658E+05-2.10275E-08-1.12777E-08
 -1       557 5.33403E+04-2.71287E+05 3.28135E+04-3.52148E+05-6.16274E-09-1.45656E-08
 -1       558-2.33556E+04-2.17591E+05 1.30029E+04-2.85081E+05-4.36557E-09-5.58794E-09
 -1       559 4.14527E+04-2.79217E+05 6.69042E+03-3.57919E+05-2.16824E-09-1.26602E-09
 -1       560-2.67954E+04-2.15395E+05 2.62075E+03-2.87292E+05-2.16824E-09-3.72893E-10
 -1       561 3.66656E+04-2.77772E+05 1.45112E+03-3.61048E+05-1.10595E-09-7.22594E-09
 -1       562-2.94543E+04-2.13661E+05 4.74353E+02-2.89165E+05 7.42148E-10-5.41377E-09
 -1       563 3.36794E+04-2.76491E+05 3.05829E+02-3.63006E+05-3.35785E-09 2.84740E-09
 -1       564-3.10780E+04-2.12623E+05-1.63886E+00-2.90295E+05-1.29148E-09 2.12003E-09
 -1       565 3.21563E+04-2.75844E+05-1.72474E+02-3.63985E+05-5.82804E-09-7.77436E-09
 -1       566-3.16128E+04-2.12257E+05-5.84471E+02-2.90679E+05-2.94676E-09-3.82897E-09
 -1       567 3.19695E+04-2.75846E+05-1.38799E+03-3.63966E+05 1.90903E-09 2.87037E-09
 -1       568-3.09580E+04-2.12680E+05-3.01961E+03-2.90319E+05-4.20187E-09-4.66389E-09
 -1       569 3.09601E+04-2.77356E+05-7.10317E+03-3.62058E+05-8.48377E-09-5.67888E-09
 -1       570-2.77131E+04-2.17073E+05-1.40991E+04-2.88569E+05-1.55705E-09 1.18416E-09
 -1       571 3.30835E+05 1.35247E+04 2.00795E+04-8.09954E+04-7.56700E-10 2.86764E-09
 -1       572 3.33817E+05 4.69286E+03 9.83876E+03-8.87792E+04-2.59388E-09-1.06866E-09
 -1       573 3.32009E+05 1.10964E+03 4.37072E+03-8.07787E+04-1.91903E-10 5.67525E-09
 -1       574 3.32358E+05 3.57952E+02 2.19025E+03-8.90159E+04 2.95904E-09-1.19508E-08
 -1       575 3.32127E+05 4.63965E+01 1.03169E+03-8.07508E+04 1.43973E-09-1.59162E-09
 -1       576 3.32152E+05 1.28503E+01 5.24230E+02-8.90473E+04-2.02425E-09-1.20326E-09
 -1       577 3.32144E+05-9.02003E+00 2.55656E+02-8.07471E+04-9.73751E-09 3.22143E-09
 -1       578 3.32136E+05-6.67430E+00 1.34392E+02-8.90513E+04-1.91556E-08 5.42695E-09
 -1       579 3.32176E+05-1.83204E+01 7.20779E+01-8.07468E+04-1.06838E-08 4.40195E-09
 -1       580 3.32182E+05-2.86554E+01 5.12680E+01-8.90472E+04-1.96451E-09 1.50703E-09
 -1       581 3.32238E+05-4.90562E+01 4.98281E+01-8.07511E+04-1.85537E-09 7.09406E-11
 -1       582 3.32274E+05-6.18247E+01 8.29132E+01-8.90007E+04-1.40062E-09-3.40970E-09
 -1       583 3.32328E+05-6.67480E+01 1.46124E+02-8.07933E+04-1.54614E-10 9.87484E-09
 -1       584 3.32443E+05 2.48582E+01 3.27523E+02-8.86430E+04-1.29876E-09-2.09343E-09
 -1       585 3.32401E+05 2.94648E+02 6.54610E+02-8.11091E+04 1.92449E-09-8.81846E-09
 -1       586-3.31218E+02 1.35581E+05-2.94130E+01-2.52321E+05 1.58707E-09-2.90856E-09
 -1       587 5.09233E+02 1.35573E+05 2.12807E+03-2.80914E+05 9.02219E-10-3.77986E-09
 -1       588 1.40215E+03 1.35226E+05 5.22884E+03-2.52085E+05 1.58798E-09 5.23414E-10
 -1       589 5.63701E+03 1.37593E+05 1.22557E+04-2.80797E+05 1.02227E-09-2.94540E-09
 -1       590 1.60275E+04 1.33816E+05 2.50734E+04-2.52437E+05 1.38607E-09-3.98359E-10
 -1       591-1.37682E+05-3.87206E+04-3.00867E+04-6.61894E+04 1.77351E-11-1.78989E-09
 -1       592-1.40030E+05-4.04624E+04-1.55411E+04-7.41339E+04 1.35287E-10 5.80258E-09
 -1       593-1.39803E+05-3.27059E+04-6.57176E+03-6.96165E+04-2.09457E-09-5.31827E-09
 -1       594-1.36349E+05-3.66953E+04-3.24193E+03-7.43085E+04 4.86580E-10-7.26203E-10
 -1       595-1.39991E+05-3.25822E+04-1.49664E+03-6.97440E+04 2.66095E-09 1.76371E-08
 -1       596-1.36110E+05-3.65585E+04-7.57409E+02-7.42735E+04-6.39147E-10-7.26345E-10
 -1       597-1.40020E+05-3.26055E+04-4.09356E+02-6.97454E+04 1.16296E-09-3.85705E-09
 -1       598-1.36085E+05-3.65575E+04-3.21915E+02-7.42629E+04 1.20860E-09 2.38788E-09
 -1       599-1.40017E+05-3.26079E+04-4.02556E+02-6.97436E+04 3.72643E-09 2.74213E-09
 -1       600-1.36104E+05-3.65614E+04-7.39295E+02-7.42666E+04 4.20448E-09 4.81930E-09
 -1       601-1.39981E+05-3.25891E+04-1.45729E+03-6.97387E+04-8.64929E-10 2.25418E-09
 -1       602-1.36332E+05-3.66944E+04-3.15456E+03-7.42914E+04-4.94765E-10 1.06493E-08
 -1       603-1.39790E+05-3.27169E+04-6.39376E+03-6.96140E+04 3.52884E-10 3.61160E-09
 -1       604-1.39935E+05-4.03284E+04-1.51166E+04-7.40787E+04 5.52700E-09 3.36149E-09
 -1       605-1.37691E+05-3.85957E+04-2.92646E+04-6.63086E+04 6.26733E-09 3.92538E-09
 -1       606 9.28790E+04-1.39889E+04-2.48015E+04 3.96470E+04-5.44605E-09-1.66528E-09
 -1       607 8.86593E+04-4.51793E+03-1.23315E+04 4.43805E+04-1.71531E-09-2.25327E-10
 -1       608 9.10382E+04-7.76829E+02-5.52182E+03 3.93365E+04 3.09046E-09 7.49424E-10
 -1       609 9.05405E+04-1.82382E+02-2.78629E+03 4.47191E+04-7.89441E-10-1.25797E-08
 -1       610 9.07915E+04 5.67253E+01-1.33138E+03 3.93016E+04-6.88669E-09 3.04954E-09
 -1       611 9.06830E+04 9.16168E+01-6.70630E+02 4.47556E+04-1.43700E-08-6.75936E-09
 -1       612 9.07121E+04 9.40224E+01-3.21427E+02 3.92985E+04-4.25644E-09-7.06177E-09
 -1       613 9.06599E+04 1.15634E+02-1.45328E+02 4.47592E+04-6.01358E-09 8.33870E-09
 -1       614 9.06638E+04 1.04717E+02-3.94238E+01 3.92977E+04 1.90812E-09-6.93899E-09
 -1       615 9.06278E+04 1.32045E+02 4.98504E+01 4.47591E+04 9.90030E-09 5.25915E-09
 -1       616 9.06273E+04 1.20448E+02 1.59298E+02 3.92984E+04 3.24962E-09-1.59071E-09
 -1       617 9.06277E+04 1.79035E+02 3.68601E+02 4.47575E+04 1.50230E-08-1.38916E-08
 -1       618 9.05811E+04 2.40305E+02 7.44544E+02 3.92988E+04 8.51969E-09-1.20240E-08
 -1       619 9.08770E+04 7.72614E+02 1.67389E+03 4.47536E+04 4.58817E-09-1.71972E-08
 -1       620 9.03292E+04 2.03911E+03 3.36910E+03 3.92977E+04 3.49564E-09 1.84855E-09
 -1       621 7.81717E+02 3.52850E+05 3.71357E+03-1.81544E+04-2.23343E-09-4.09159E-10
 -1       622 4.48051E+02 3.53645E+05 3.93735E+03-2.35460E+04-1.85560E-09 1.21522E-08
 -1       623 1.60713E+02 3.52970E+05 5.73812E+03-1.81483E+04-2.27328E-09 9.88643E-09
 -1       624 2.75037E+03 3.55677E+05 1.17819E+04-2.34874E+04-1.68075E-09-3.28873E-09
 -1       625 6.17255E+03 3.50834E+05 2.18815E+04-1.82095E+04-1.90812E-09-2.96359E-09
 -1       626 2.69158E+05 7.99803E+04 2.18895E+03 1.55260E+05-2.40289E-09 1.89175E-09
 -1       627 2.64330E+05 8.43714E+04 1.05618E+03 1.61396E+05 1.29512E-09-7.83257E-09
 -1       628 2.69311E+05 7.88030E+04 4.43433E+02 1.55399E+05 8.62201E-10 2.58797E-09
 -1       629 2.63793E+05 8.42973E+04 2.23079E+02 1.61676E+05 2.63753E-09 8.63656E-09
 -1       630 2.69279E+05 7.87653E+04 1.07315E+02 1.55361E+05 2.59024E-09 9.76587E-09
 -1       631 2.63689E+05 8.43246E+04 7.16551E+01 1.61660E+05-3.30510E-09 1.72329E-09
 -1       632 2.69237E+05 7.87861E+04 7.11949E+01 1.55332E+05-8.24002E-10 1.50771E-09
 -1       633 2.63652E+05 8.43406E+04 1.16804E+02 1.61637E+05-5.16775E-09-6.60339E-09
 -1       634 2.69205E+05 7.87905E+04 2.21153E+02 1.55318E+05 7.15818E-09-6.20184E-09
 -1       635 2.63656E+05 8.43461E+04 4.68776E+02 1.61633E+05 4.34466E-09 6.01904E-09
 -1       636 2.69178E+05 7.87900E+04 9.56328E+02 1.55309E+05-1.15404E-09 1.38743E-09
 -1       637 2.63855E+05 8.45071E+04 2.10840E+03 1.61625E+05 3.97000E-09-8.23775E-09
 -1       638 2.69105E+05 7.92787E+04 4.33693E+03 1.55084E+05-4.89649E-09 4.55748E-09
 -1       639 2.66110E+05 8.77496E+04 1.02654E+04 1.60954E+05-4.21323E-09 3.93993E-09
 -1       640 2.68872E+05 8.88644E+04 2.13375E+04 1.50996E+05 3.95721E-09 2.10775E-09
 -1       656 2.79288E+04-7.79850E+05-8.05077E+04-3.32959E+02 1.74623E-09 1.91540E-09
 -1       657-3.73002E+04-8.13437E+05-6.40837E+04 5.28087E+04-1.54614E-09-1.64346E-09
 -1       658 7.70013E+03-7.90190E+05-4.07795E+04-7.89610E+02 2.66755E-09 5.79189E-09
 -1       659-3.97638E+04-8.14773E+05-6.76725E+04 5.31204E+04-7.40329E-10 5.71903E-09
 -1       660 3.03293E+04-7.78574E+05-8.68561E+04-6.44054E+02 2.01180E-09 4.72710E-10
 -1       661 3.16964E+05 3.96053E+04 2.68098E+04 1.23624E+05 9.36507E-09 4.54565E-09
 -1       662 3.24779E+05 5.95216E+04 1.70317E+04 1.25561E+05 3.08137E-09 2.97496E-09
 -1       663 3.21651E+05 4.59954E+04 6.33444E+03 1.22876E+05 4.74392E-09-3.79305E-09
 -1       664 3.19390E+05 5.13735E+04 3.51388E+03 1.26776E+05 1.82673E-09-7.09150E-09
 -1       665 3.22205E+05 4.66980E+04 1.48884E+03 1.22808E+05 4.66912E-10-3.08353E-09
 -1       666 3.18750E+05 5.05032E+04 8.16679E+02 1.26895E+05 3.22188E-10 5.97389E-09
 -1       667 3.22280E+05 4.67670E+04 4.60825E+02 1.22795E+05 5.15490E-09-4.74125E-09
 -1       668 3.18670E+05 5.04465E+04 4.47878E+02 1.26929E+05-2.83836E-09 2.94119E-09
 -1       669 3.22287E+05 4.67454E+04 6.37479E+02 1.22779E+05-9.22569E-10 1.10452E-09
 -1       670 3.18767E+05 5.06301E+04 1.31048E+03 1.26960E+05 1.25831E-08 1.13577E-08
 -1       671 3.22191E+05 4.65909E+04 2.48024E+03 1.22764E+05 5.29667E-09 9.68339E-09
 -1       672 3.19800E+05 5.21615E+04 5.91820E+03 1.26836E+05-3.87701E-09 1.18434E-08
 -1       673 3.21285E+05 4.53731E+04 1.06845E+04 1.22847E+05-2.79050E-09-6.56200E-09
 -1       674 3.28865E+05 6.59640E+04 2.87541E+04 1.24844E+05 9.35825E-09-2.66300E-09
 -1       675 3.13388E+05 3.45655E+04 4.52607E+04 1.24093E+05-2.28283E-10-4.28008E-09
 -1       676 4.42821E+01-4.05031E+05-1.87833E+03 1.51416E+02 1.06501E-08 8.34447E-09
 -1       677-5.36602E+02-4.05511E+05-3.45087E+03-3.02443E+02 5.53359E-09 4.58404E-09
 -1       678 3.70901E+02-4.04696E+05-6.07156E+03 1.50913E+02 1.10490E-08-3.01350E-09
 -1       679-6.29505E+03-4.09217E+05-1.44997E+04-3.01147E+02 6.26483E-09 1.36592E-08
 -1       680 3.97085E+03-4.01328E+05-2.32119E+04 1.48353E+02 8.91123E-09 9.41778E-09
 -1       771-3.27565E+06-6.28878E+05-8.40643E+04-1.40995E+06-5.92263E-09 4.40923E-09
 -1       772-3.25502E+06-6.56846E+05-4.29986E+04-1.45900E+06-4.88944E-09 1.63891E-09
 -1       773-3.28542E+06-6.09354E+05-1.89536E+04-1.41894E+06-2.06637E-09-5.33328E-09
 -1       774-3.24577E+06-6.47952E+05-9.14100E+03-1.46467E+06 1.39698E-09-5.12955E-09
 -1       775-3.28889E+06-6.06888E+05-4.72090E+03-1.42016E+06-2.13913E-09-4.62023E-10
 -1       776-3.24691E+06-6.47481E+05-2.22083E+03-1.46786E+06-3.44880E-09 3.81442E-09
 -1       777-3.29146E+06-6.05233E+05-1.46591E+03-1.42101E+06 1.04046E-09-3.59796E-09
 -1       778-3.24842E+06-6.47252E+05-8.55105E+02-1.47042E+06-2.38288E-09-2.99769E-09
 -1       779-3.29343E+06-6.03884E+05-1.08828E+03-1.42170E+06 2.79397E-09-1.28330E-09
 -1       780-3.24970E+06-6.47077E+05-1.57833E+03-1.47236E+06 4.97676E-09 9.63837E-10
 -1       781-3.29474E+06-6.02872E+05-3.10611E+03-1.42218E+06-1.10595E-09-5.52859E-09
 -1       782-3.25100E+06-6.47226E+05-6.56052E+03-1.47366E+06 3.92902E-10-3.12184E-09
 -1       783-3.29513E+06-6.02604E+05-1.33326E+04-1.42220E+06-2.03727E-10-3.46154E-09
 -1       784-3.25890E+06-6.54778E+05-3.15643E+04-1.47374E+06-4.45198E-09-8.92214E-10
 -1       785-3.29089E+06-6.14797E+05-6.11823E+04-1.41543E+06 2.77123E-09-1.81899E-09
 -1       786 2.72851E+05-1.22223E+04 3.40110E+04 1.21609E+02 8.86928E-10-6.60657E-09
 -1       787 2.86640E+05 1.44711E+04 2.31818E+04-3.19489E+03 5.93502E-10-3.89036E-09
 -1       788 2.78351E+05-1.64225E+03 8.83608E+03 1.02732E+02-5.30463E-10-4.69481E-09
 -1       789 2.80346E+05 1.93346E+03 5.27450E+03-3.16700E+03 1.87477E-10-4.53156E-09
 -1       790 2.79145E+05-2.20446E+02 2.25858E+03 9.38066E+01 4.99291E-10-6.58099E-09
 -1       791 2.79434E+05 2.58108E+02 1.26976E+03-3.16022E+03-1.15874E-09 5.93616E-10
 -1       792 2.79264E+05-3.09279E+01 6.17596E+02 9.59539E+01 1.17296E-10-4.84604E-09
 -1       793 2.79304E+05 4.59240E+01 4.12418E+02-3.17587E+03 7.54596E-10 5.72881E-09
 -1       794 2.79276E+05-1.51403E+01 3.53441E+02 1.09454E+02-6.70781E-10 1.40769E-09
 -1       795 2.79336E+05 9.99777E+01 5.41046E+02-3.21438E+03 7.25663E-10-1.86503E-09
 -1       796 2.79234E+05-8.38345E+01 8.79936E+02 1.34467E+02-4.50143E-10-4.59985E-09
 -1       797 2.79679E+05 7.26544E+02 2.00143E+03-3.27511E+03 1.34455E-09-4.99972E-09
 -1       798 2.78935E+05-6.19050E+02 3.33270E+03 1.70189E+02-2.60150E-09-3.54703E-11
 -1       799 2.82051E+05 5.44487E+03 8.73075E+03-3.35593E+03-3.14367E-09 6.14000E-09
 -1       800 2.76863E+05-4.60248E+03 1.28015E+04 2.15175E+02-1.36856E-09 1.14005E-08
 -1       801-3.88348E+04 2.58177E+05 2.92887E+04 4.74732E+04 5.61513E-08-1.88884E-08
 -1       802 1.01215E+05 3.06339E+05 8.04107E+04-1.84780E+06 7.31179E-08-4.80941E-09
 -1       803-1.25251E+04 2.89258E+05 9.31558E+04 4.47143E+04 9.50095E-08 1.59362E-08
 -1       804 2.02867E+05 3.73196E+05 2.32741E+05-1.84835E+06 8.20473E-08 2.87728E-08
 -1       805-1.42678E+05 2.00953E+05 2.94931E+05 4.78436E+04 3.67727E-08 1.49230E-08
 -1       806-2.89053E+05-7.34637E+04-2.49790E+04-1.31422E+05 5.92513E-09 1.55233E-08
 -1       807-2.89254E+05-6.87296E+04-1.20147E+04-1.39210E+05 1.23509E-09-8.10087E-09
 -1       808-2.89279E+05-6.23080E+04-5.07584E+03-1.36316E+05 1.57922E-09 2.81278E-09
 -1       809-2.86741E+05-6.48243E+04-2.46687E+03-1.39901E+05 5.83127E-09 1.30005E-08
 -1       810-2.89366E+05-6.17371E+04-1.12139E+03-1.36596E+05-8.12065E-10-7.29869E-10
 -1       811-2.86519E+05-6.46262E+04-5.55119E+02-1.39898E+05-3.61058E-09-1.13789E-08
 -1       812-2.89382E+05-6.17468E+04-2.75562E+02-1.36599E+05-3.43334E-10-7.86349E-09
 -1       813-2.86486E+05-6.46300E+04-1.72323E+02-1.39880E+05-1.25692E-09-2.29793E-08
 -1       814-2.89373E+05-6.17597E+04-1.59448E+02-1.36591E+05-6.52562E-10-5.55292E-09
 -1       815-2.86481E+05-6.46381E+04-2.47442E+02-1.39868E+05 5.87079E-10-9.19499E-10
 -1       816-2.89345E+05-6.17702E+04-4.62933E+02-1.36579E+05-1.35060E-09-2.45382E-09
 -1       817-2.86562E+05-6.47122E+04-9.98025E+02-1.39836E+05-9.70886E-10 1.43295E-08
 -1       818-2.89278E+05-6.20265E+04-2.04664E+03-1.36468E+05-7.73070E-10 1.11550E-09
 -1       819-2.87678E+05-6.61602E+04-4.83447E+03-1.39389E+05-6.62112E-10 1.56433E-09
 -1       820-2.89044E+05-6.66337E+04-1.00508E+04-1.34619E+05 3.52884E-10 1.12641E-08
 -1       821-3.86366E+05 1.71169E+04-4.76245E+04-4.26649E+02-2.94688E-09-6.73572E-09
 -1       822-4.05646E+05-2.02653E+04-3.24628E+04 5.38251E+03-1.99265E-09 9.89894E-09
 -1       823-3.94065E+05 2.29655E+03-1.23801E+04-5.67666E+02 4.34818E-09 5.17184E-09
 -1       824-3.96847E+05-2.69788E+03-7.39696E+03 5.62765E+03-1.85418E-09-5.16070E-09
 -1       825-3.95172E+05 3.06428E+02-3.19276E+03-6.72170E+02-5.96651E-09-2.70381E-09
 -1       826-3.95586E+05-3.50217E+02-1.83894E+03 5.80502E+03-1.29925E-08-3.95630E-10
 -1       827-3.95333E+05 4.47359E+01-9.86650E+02-7.45157E+02-5.24199E-09 2.48718E-09
 -1       828-3.95431E+05-7.61164E+01-8.35593E+02 5.91901E+03-5.61788E-09 7.18466E-09
 -1       829-3.95332E+05 4.50687E+01-9.83146E+02-7.86191E+02 8.19341E-10 3.06173E-09
 -1       830-3.95597E+05-3.44783E+02-1.83198E+03 5.96766E+03 5.62687E-09-2.44628E-09
 -1       831-3.95170E+05 3.06433E+02-3.17577E+03-7.93800E+02-3.27437E-09 4.58317E-09
 -1       832-3.96864E+05-2.67751E+03-7.36285E+03 5.95061E+03-4.41318E-10-1.10016E-08
 -1       833-3.94066E+05 2.28777E+03-1.23163E+04-7.68998E+02 1.90312E-09-3.90219E-09
 -1       834-4.05629E+05-2.01562E+04-3.23058E+04 5.87162E+03 1.03421E-09-4.93719E-09
 -1       835-3.86404E+05 1.70366E+04-4.73852E+04-7.13894E+02 2.47655E-09-2.63390E-09
 -1       836-1.54677E+03 4.57316E+05 3.40063E+04-3.36843E+04-2.47383E-10 2.75350E-09
 -1       837 7.14470E+03 4.67649E+05 2.66915E+04-6.52109E+04-2.10275E-09 8.53379E-09
 -1       838-4.82383E+02 4.60634E+05 2.45863E+04-3.35885E+04-3.25599E-10 5.84600E-09
 -1       839 1.40791E+04 4.72927E+05 4.36729E+04-6.52292E+04-1.98816E-09-4.78758E-09
 -1       840-3.30496E+03 4.51991E+05 6.88736E+04-3.36620E+04-4.76575E-10-5.10636E-09
 -1       856-2.56344E+05 8.86244E+03-3.62432E+04 3.96348E+03-5.51472E-09 1.32459E-08
 -1       857-2.69574E+05-1.17221E+04-2.33558E+04 1.85609E+04-1.01973E-08 1.17871E-09
 -1       858-2.61861E+05 9.42710E+02-9.39918E+03 3.87560E+03-5.57111E-09-2.01271E-09
 -1       859-2.63463E+05-1.13340E+03-5.27168E+03 1.86794E+04 2.70222E-09-3.41743E-09
 -1       860-2.62506E+05 1.16504E+02-2.38348E+03 3.84267E+03 4.00132E-09-1.90994E-11
 -1       861-2.62761E+05-4.44283E+01-1.27304E+03 1.87239E+04-6.21844E-09 9.13141E-09
 -1       862-2.62592E+05 2.97845E+01-6.32942E+02 3.83075E+03 8.36675E-09-4.63132E-09
 -1       863-2.62671E+05 6.35230E+01-3.88061E+02 1.87309E+04 2.07992E-08-7.61963E-09
 -1       864-2.62601E+05 2.07891E+01-3.09224E+02 3.83559E+03 7.95683E-09-3.19329E-09
 -1       865-2.62667E+05 3.86521E+01-4.15267E+02 1.87031E+04 1.12582E-08 1.06061E-09
 -1       866-2.62577E+05 3.79316E+01-6.84985E+02 3.85864E+03 2.47564E-09-8.12221E-10
 -1       867-2.62829E+05-2.67401E+02-1.45019E+03 1.86380E+04-2.41243E-09 8.26605E-09
 -1       868-2.62396E+05 2.53850E+02-2.57249E+03 3.90083E+03 4.27781E-09-2.67528E-09
 -1       869-2.64450E+05-3.16249E+03-6.35725E+03 1.84881E+04-7.25572E-09-1.18919E-08
 -1       870-2.60890E+05 2.39532E+03-9.87899E+03 4.00912E+03 5.04679E-09 8.95398E-10
 -1       871-5.50799E+03-3.62930E+04-1.62322E+04 1.50588E+05 4.31100E-10 2.51384E-09
 -1       872-2.39743E+03-3.99000E+04-6.14300E+03 1.93649E+05 3.15958E-09 7.78982E-09
 -1       873-1.72634E+02-3.83919E+04 2.01954E+03 1.50258E+05-6.98947E-10 7.70387E-09
 -1       874 2.90905E+03-3.54184E+04 1.16772E+04 1.93730E+05 2.88946E-09 5.78802E-09
 -1       875 7.38898E+03-4.09638E+04 2.51898E+04 1.50529E+05-1.06775E-09 8.61837E-09
 -1       876 4.04680E+05 6.36674E+04 3.07406E+04 1.61435E+05 2.41494E-09-8.53652E-09
 -1       877 4.09330E+05 7.50986E+04 1.73849E+04 1.67715E+05-5.42559E-09 1.81944E-09
 -1       878 4.08500E+05 6.44492E+04 7.07871E+03 1.62669E+05 9.94532E-09 4.19050E-09
 -1       879 4.04545E+05 6.96226E+04 3.59305E+03 1.68103E+05 1.14385E-08 7.05677E-09
 -1       880 4.08789E+05 6.45773E+04 1.63769E+03 1.62752E+05 5.62522E-09 6.03325E-09
 -1       881 4.04184E+05 6.92914E+04 8.54009E+02 1.68067E+05-7.21377E-09-3.11547E-09
 -1       882 4.08814E+05 6.46074E+04 4.96667E+02 1.62761E+05 7.98786E-09 1.26078E-08
 -1       883 4.04157E+05 6.92677E+04 4.61459E+02 1.68048E+05-1.03599E-08 1.49616E-08
 -1       884 4.08806E+05 6.46084E+04 6.65260E+02 1.62762E+05-1.29116E-08 3.06409E-09
 -1       885 4.04217E+05 6.92960E+04 1.30114E+03 1.68058E+05 1.36241E-08 2.15744E-09
 -1       886 4.08750E+05 6.45721E+04 2.58698E+03 1.62752E+05-6.45332E-09 5.98629E-09
 -1       887 4.04798E+05 6.98150E+04 5.72193E+03 1.68092E+05-7.42756E-09-3.22871E-11
 -1       888 4.08272E+05 6.43790E+04 1.12954E+04 1.62622E+05-6.65989E-09-3.79623E-09
 -1       889 4.12388E+05 7.85979E+04 2.77481E+04 1.67504E+05 5.80094E-09-1.11072E-08
 -1       890 4.02209E+05 6.30939E+04 4.90742E+04 1.60595E+05 2.37651E-09 1.78261E-10
 -1       891 2.63300E+02-2.22312E+05-7.18851E+03 3.89974E+04 5.36602E-11-3.00656E-09
 -1       892-1.62002E+03-2.24427E+05-5.67422E+03 7.59372E+04-6.78483E-10-1.02991E-08
 -1       893 3.25663E+01-2.22997E+05-5.29033E+03 3.89485E+04-3.55976E-09-2.20552E-10
 -1       894-3.21160E+03-2.25497E+05-9.45742E+03 7.57950E+04 1.46247E-09 3.70710E-09
 -1       895 5.68263E+02-2.21030E+05-1.49759E+04 3.91367E+04 4.60568E-09-2.76577E-09
 -1       956-4.16091E+05-7.01428E+03-1.72143E+04 4.06993E+04-6.01176E-09-6.52562E-09
 -1       957-4.19473E+05-2.30917E+03-8.81293E+03 4.87864E+04-1.56433E-10 2.97587E-09
 -1       958-4.17640E+05-1.69656E+02-3.97210E+03 4.04396E+04 5.35329E-09 4.28008E-09
 -1       959-4.17940E+05 2.07154E+01-2.02519E+03 4.90681E+04-2.42017E-09 1.05092E-09
 -1       960-4.17810E+05 1.07473E+02-9.85558E+02 4.04128E+04-7.39692E-09-2.69847E-09
 -1       961-4.17857E+05 1.28208E+02-5.16524E+02 4.90990E+04-1.39880E-08 2.95313E-09
 -1       962-4.17860E+05 1.15156E+02-2.85788E+02 4.04079E+04-4.55566E-09-4.80532E-09
 -1       963-4.17870E+05 1.40914E+02-2.10958E+02 4.91055E+04-4.15548E-09-2.46018E-09
 -1       964-4.17878E+05 1.23666E+02-2.34381E+02 4.04060E+04-5.79348E-10-3.58932E-09
 -1       965-4.17890E+05 1.47839E+02-3.86913E+02 4.91059E+04 6.48001E-09 8.93669E-09
 -1       966-4.17865E+05 1.32332E+02-7.16918E+02 4.04074E+04-4.67412E-09-2.28465E-09
 -1       967-4.17974E+05 8.38585E+01-1.46557E+03 4.90891E+04 9.27685E-11-4.51018E-09
 -1       968-4.17760E+05-5.63385E+01-2.86844E+03 4.04232E+04 1.88538E-09-5.68173E-09
 -1       969-4.19101E+05-1.59041E+03-6.36733E+03 4.89144E+04 7.91624E-09 4.64695E-09
 -1       970-4.16652E+05-4.99711E+03-1.24349E+04 4.05892E+04 7.37236E-09-5.10499E-09
 -1       971-4.81448E+05-4.53213E+02-1.79850E+04 1.47095E+04-9.78253E-09 1.01136E-09
 -1       972-4.86526E+05-3.00276E+03-1.03319E+04 2.51071E+04-1.44801E-08-2.32399E-09
 -1       973-4.83736E+05 5.72629E+01-4.52372E+03 1.45438E+04-8.65384E-09-7.75344E-11
 -1       974-4.84143E+05-7.94388E+01-2.37111E+03 2.52962E+04 4.13274E-09 1.04815E-08
 -1       975-4.83928E+05 5.85331E+01-1.16378E+03 1.45169E+04-1.31877E-10-4.19300E-09
 -1       976-4.83987E+05 8.49431E+01-6.50678E+02 2.53347E+04-1.00092E-08-6.83781E-09
 -1       977-4.83961E+05 6.03368E+01-4.33559E+02 1.45048E+04 7.19092E-09-5.43969E-09
 -1       978-4.83992E+05 1.00763E+02-4.55467E+02 2.53519E+04 2.20272E-08 4.92696E-09
 -1       979-4.83963E+05 6.94343E+01-6.87907E+02 1.44996E+04 1.39344E-08 9.29958E-10
 -1       980-4.84047E+05 8.99016E+01-1.30478E+03 2.53550E+04 1.91384E-08 1.46042E-09
 -1       981-4.83915E+05 9.30563E+01-2.50653E+03 1.45017E+04 2.18938E-09-4.83797E-09
 -1       982-4.84458E+05-2.41897E+02-5.22239E+03 2.53401E+04-2.62389E-10 3.39875E-09
 -1       983-4.83529E+05 1.23226E+02-1.00016E+04 1.45152E+04 2.47564E-09-6.86668E-09
 -1       984-4.89827E+05-6.68738E+03-2.29022E+04 2.52204E+04-5.51404E-09 7.33644E-09
 -1       985-4.78498E+05-9.68882E+02-3.98542E+04 1.46326E+04 5.82713E-09-9.20409E-10
 -3
    1PSTEP                         7           4           1          
  100CL  104 1.000000000         409                     0    4           1
 -4  DISP        4    1
 -5  D1          1    2    1    0
 -5  D2          1    2    2    0
 -5  D3          1    2    3    0
 -5  ALL         1    2    0    0    1ALL
 -1         1 2.00220E-04 0.00000E+00 0.00000E+00
 -1         2 1.82634E-04-5.11460E-31 0.00000E+00
 -1         3 1.68012E-04 2.73653E-28 0.00000E+00
 -1         5 1.17278E-04 1.72422E-26 0.00000E+00
 -1         8 1.61596E-04-1.66362E-06 0.00000E+00
 -1         9 1.48643E-04-1.53176E-06 0.00000E+00
 -1        10 1.54174E-04-3.07103E-06 0.00000E+00
 -1        12 1.16136E-04 1.15206E-06 3.30872E-24
 -1        15 1.17979E-04-1.86196E-06 0.00000E+00
 -1        16 1.03776E-04-1.86247E-06 0.00000E+00
 -1        17 1.11037E-04-6.52554E-06 0.00000E+00
 -1        18 1.10598E-04 2.31691E-07 0.00000E+00
 -1        19 1.12711E-04 2.29693E-06 0.00000E+00
 -1        20 1.13276E-04 2.94024E-05 0.00000E+00
 -1        21 1.11021E-04 6.19900E-05 0.00000E+00
 -1        24 3.18625E-05-8.65356E-06 0.00000E+00
 -1        25 1.06479E-04 5.47711E-07 0.00000E+00
 -1        26 1.08266E-04 3.13479E-06 0.00000E+00
 -1        27 1.05749E-04 2.75427E-05 0.00000E+00
 -1        28 1.04050E-04 6.10226E-05 0.00000E+00
 -1        32 0.00000E+00 0.00000E+00 0.00000E+00
 -1        33 1.02561E-04 4.20774E-06 0.00000E+00
 -1        34 9.98849E-05 2.74441E-05 0.00000E+00
 -1        35 9.67774E-05 6.04897E-05 0.00000E+00
 -1        51 1.97498E-04-2.70881E-07 0.00000E+00
 -1        52 1.92755E-04-5.35621E-07 0.00000E+00
 -1        53 1.86383E-04-8.03671E-07 0.00000E+00
 -1        54 1.78792E-04-1.07825E-06 0.00000E+00
 -1        55 1.70392E-04-1.36118E-06 6.61744E-24
 -1        56 1.98110E-04-2.69424E-06 0.00000E+00
 -1        57 1.97074E-04-8.58361E-06 2.64698E-23
 -1        58 1.96918E-04-1.68420E-05-1.05879E-22
 -1        59 1.97261E-04-2.65164E-05 0.00000E+00
 -1        60 1.97684E-04-3.64087E-05 0.00000E+00
 -1        61 1.97741E-04-4.53123E-05-5.29396E-23
 -1        62 1.97050E-04-5.21817E-05 1.05879E-22
 -1        63 1.95273E-04-5.61200E-05 0.00000E+00
 -1        64 1.92244E-04-5.67104E-05 0.00000E+00
 -1        65 1.87885E-04-5.37762E-05-5.29396E-23
 -1        66 1.82336E-04-4.77161E-05 0.00000E+00
 -1        67 1.75827E-04-3.91495E-05 0.00000E+00
 -1        68 1.68748E-04-2.91045E-05 0.00000E+00
 -1        69 1.61550E-04-1.87066E-05 0.00000E+00
 -1        70 1.54672E-04-9.15209E-06-5.29396E-23
 -1        86 1.81343E-04-2.33398E-07-6.61744E-24
 -1        87 1.77482E-04-4.73691E-07 0.00000E+00
 -1        88 1.71596E-04-7.23314E-07 0.00000E+00
 -1        89 1.64249E-04-9.85548E-07-6.61744E-24
 -1        90 1.56307E-04-1.25091E-06 0.00000E+00
 -1       121 1.67623E-04-5.08334E-07 0.00000E+00
 -1       122 1.66459E-04-1.01726E-06 6.61744E-24
 -1       123 1.64523E-04-1.52735E-06 1.32349E-23
 -1       124 1.61823E-04-2.03925E-06 0.00000E+00
 -1       125 1.58369E-04-2.55336E-06 0.00000E+00
 -1       191 1.17246E-04 1.92040E-07 0.00000E+00
 -1       192 1.17151E-04 3.84075E-07-3.30872E-24
 -1       193 1.16992E-04 5.76102E-07 0.00000E+00
 -1       194 1.16771E-04 7.68115E-07 0.00000E+00
 -1       195 1.16485E-04 9.60105E-07 6.61744E-24
 -1       251 1.60904E-04 1.01101E-05 0.00000E+00
 -1       252 1.60079E-04 3.05675E-05 0.00000E+00
 -1       253 1.59238E-04 5.18298E-05-2.64698E-23
 -1       254 1.58519E-04 6.59966E-05 1.32349E-23
 -1       255 1.57884E-04 6.87199E-05 2.64698E-23
 -1       256 1.57174E-04 5.59598E-05 0.00000E+00
 -1       257 1.56259E-04 3.13193E-05-2.64698E-23
 -1       258 1.55125E-04-1.27998E-06-6.61744E-24
 -1       259 1.53989E-04-3.39371E-05 1.32349E-23
 -1       260 1.53070E-04-5.87483E-05 0.00000E+00
 -1       261 1.52357E-04-7.17345E-05 0.00000E+00
 -1       262 1.51722E-04-6.92340E-05 1.32349E-23
 -1       263 1.51005E-04-5.52293E-05 2.64698E-23
 -1       264 1.50165E-04-3.40125E-05-1.32349E-23
 -1       265 1.49339E-04-1.34852E-05 2.64698E-23
 -1       266 1.54327E-04-1.71972E-06-1.32349E-23
 -1       267 1.47057E-04-1.74996E-06 0.00000E+00
 -1       268 1.39788E-04-1.78186E-06-3.30872E-24
 -1       269 1.32518E-04-1.80889E-06-8.27181E-25
 -1       270 1.25249E-04-1.83581E-06 0.00000E+00
 -1       271 1.56134E-04 3.53059E-06 0.00000E+00
 -1       272 1.51248E-04 6.88722E-06 0.00000E+00
 -1       273 1.47022E-04 8.51917E-06-1.05879E-22
 -1       274 1.43375E-04 8.56468E-06 0.00000E+00
 -1       275 1.40236E-04 7.25136E-06 0.00000E+00
 -1       276 1.37499E-04 4.85882E-06 5.29396E-23
 -1       277 1.35039E-04 1.72034E-06 0.00000E+00
 -1       278 1.32722E-04-1.79950E-06 0.00000E+00
 -1       279 1.30403E-04-5.31757E-06 0.00000E+00
 -1       280 1.27941E-04-8.45066E-06 5.29396E-23
 -1       281 1.25200E-04-1.08346E-05 1.05879E-22
 -1       282 1.22057E-04-1.21370E-05 0.00000E+00
 -1       283 1.18403E-04-1.20785E-05-1.05879E-22
 -1       284 1.14166E-04-1.04334E-05 0.00000E+00
 -1       285 1.09271E-04-7.06244E-06 0.00000E+00
 -1       301 1.41104E-04-1.60014E-06 1.32349E-23
 -1       302 1.33566E-04-1.64057E-06-3.30872E-24
 -1       303 1.26046E-04-1.67855E-06-6.61744E-24
 -1       304 1.18562E-04-1.71877E-06 0.00000E+00
 -1       305 1.11133E-04-1.76517E-06 0.00000E+00
 -1       306 1.44163E-04 3.97976E-06 0.00000E+00
 -1       307 1.40514E-04 7.11780E-06 2.64698E-23
 -1       308 1.37710E-04 8.03314E-06-5.29396E-23
 -1       309 1.35650E-04 6.93639E-06 0.00000E+00
 -1       310 1.34216E-04 4.16516E-06-5.29396E-23
 -1       311 1.33253E-04 1.19934E-07-2.64698E-23
 -1       312 1.32586E-04-4.72204E-06 0.00000E+00
 -1       313 1.32026E-04-9.85240E-06-2.64698E-23
 -1       314 1.31378E-04-1.47452E-05 5.29396E-23
 -1       315 1.30450E-04-1.88839E-05 2.64698E-23
 -1       316 1.29067E-04-2.17975E-05-5.29396E-23
 -1       317 1.27070E-04-2.30631E-05 0.00000E+00
 -1       318 1.24333E-04-2.23569E-05-5.29396E-23
 -1       319 1.20771E-04-1.94284E-05 0.00000E+00
 -1       320 1.16317E-04-1.41684E-05 0.00000E+00
 -1       336 1.49151E-04-3.63431E-06 1.32349E-23
 -1       337 1.43221E-04-4.20311E-06 0.00000E+00
 -1       338 1.36410E-04-4.77710E-06 0.00000E+00
 -1       339 1.28751E-04-5.35597E-06-6.61744E-24
 -1       340 1.20280E-04-5.94125E-06-1.32349E-23
 -1       406 1.15724E-04 1.34398E-06-6.61744E-24
 -1       407 1.15248E-04 1.53579E-06 3.30872E-24
 -1       408 1.14709E-04 1.72746E-06 0.00000E+00
 -1       409 1.14106E-04 1.91871E-06 3.30872E-24
 -1       410 1.13440E-04 2.10916E-06-6.61744E-24
 -1       521 9.75072E-05 2.77730E-06 0.00000E+00
 -1       522 9.20315E-05 4.96878E-06 0.00000E+00
 -1       523 8.74831E-05 4.72410E-06 0.00000E+00
 -1       524 8.37742E-05 2.18083E-06 0.00000E+00
 -1       525 8.07698E-05-2.25396E-06-1.05879E-22
 -1       526 7.82626E-05-8.03956E-06 5.29396E-23
 -1       527 7.59986E-05-1.44832E-05-1.05879E-22
 -1       528 7.37033E-05-2.08440E-05 5.29396E-23
 -1       529 7.11062E-05-2.63902E-05 0.00000E+00
 -1       530 6.79579E-05-3.04506E-05 0.00000E+00
 -1       531 6.40665E-05-3.25201E-05 0.00000E+00
 -1       532 5.92965E-05-3.22408E-05-5.29396E-23
 -1       533 5.36028E-05-2.95167E-05 1.05879E-22
 -1       534 4.70301E-05-2.44260E-05 0.00000E+00
 -1       535 3.96792E-05-1.73228E-05 0.00000E+00
 -1       536 1.10964E-04 1.99133E-06-6.61744E-24
 -1       537 1.10920E-04 8.43673E-06 0.00000E+00
 -1       538 1.10886E-04 1.30207E-05 1.65436E-24
 -1       539 1.10860E-04 1.59544E-05 0.00000E+00
 -1       540 1.10837E-04 1.74500E-05 1.65436E-24
 -1       541 1.10816E-04 1.77205E-05 4.13590E-25
 -1       542 1.10795E-04 1.69795E-05 0.00000E+00
 -1       543 1.10773E-04 1.54413E-05-4.13590E-25
 -1       544 1.10751E-04 1.33206E-05-8.27181E-25
 -1       545 1.10727E-04 1.08322E-05 0.00000E+00
 -1       546 1.10703E-04 8.19143E-06 4.13590E-25
 -1       547 1.10680E-04 5.61352E-06 2.06795E-25
 -1       548 1.10657E-04 3.31366E-06-2.06795E-25
 -1       549 1.10635E-04 1.50695E-06 0.00000E+00
 -1       550 1.10615E-04 4.08202E-07-8.27181E-25
 -1       551 9.93853E-05-6.85569E-06 3.30872E-24
 -1       552 8.62742E-05-7.19675E-06-3.30872E-24
 -1       553 7.23304E-05-7.54810E-06-6.61744E-24
 -1       554 5.81906E-05-7.90586E-06-1.32349E-23
 -1       555 4.44914E-05-8.26450E-06 0.00000E+00
 -1       556 1.07778E-04 1.70778E-06 0.00000E+00
 -1       557 1.05272E-04 8.01587E-06 0.00000E+00
 -1       558 1.03434E-04 1.25757E-05 0.00000E+00
 -1       559 1.02189E-04 1.55790E-05 0.00000E+00
 -1       560 1.01460E-04 1.72173E-05 0.00000E+00
 -1       561 1.01173E-04 1.76835E-05 0.00000E+00
 -1       562 1.01254E-04 1.71710E-05 0.00000E+00
 -1       563 1.01629E-04 1.58736E-05 0.00000E+00
 -1       564 1.02224E-04 1.39854E-05 0.00000E+00
 -1       565 1.02968E-04 1.17005E-05 0.00000E+00
 -1       566 1.03787E-04 9.21361E-06-3.30872E-24
 -1       567 1.04609E-04 6.71907E-06-4.13590E-25
 -1       568 1.05361E-04 4.41139E-06-1.65436E-24
 -1       569 1.05972E-04 2.48480E-06-1.65436E-24
 -1       570 1.06367E-04 1.13350E-06 0.00000E+00
 -1       571 1.10726E-04 4.46734E-07-2.48154E-24
 -1       572 1.10857E-04 5.75844E-07-1.24077E-24
 -1       573 1.10989E-04 6.34228E-07-3.30872E-24
 -1       574 1.11121E-04 6.37896E-07 8.27181E-25
 -1       575 1.11253E-04 6.02924E-07 0.00000E+00
 -1       576 1.11386E-04 5.45496E-07 1.65436E-24
 -1       577 1.11518E-04 4.81804E-07 3.30872E-24
 -1       578 1.11651E-04 4.28055E-07 0.00000E+00
 -1       579 1.11784E-04 4.00455E-07 0.00000E+00
 -1       580 1.11916E-04 4.15212E-07-3.30872E-24
 -1       581 1.12049E-04 4.88536E-07 0.00000E+00
 -1       582 1.12182E-04 6.36618E-07 0.00000E+00
 -1       583 1.12314E-04 8.75638E-07 0.00000E+00
 -1       584 1.12447E-04 1.22161E-06 0.00000E+00
 -1       585 1.12579E-04 1.69048E-06 6.61744E-24
 -1       586 1.09941E-04 2.86071E-07 0.00000E+00
 -1       587 1.09198E-04 3.40166E-07-8.27181E-25
 -1       588 1.08423E-04 3.94021E-07 1.24077E-24
 -1       589 1.07674E-04 4.47316E-07 0.00000E+00
 -1       590 1.07008E-04 4.99521E-07 0.00000E+00
 -1       591 1.10428E-04 4.96209E-07 0.00000E+00
 -1       592 1.10277E-04 6.91964E-07-8.27181E-25
 -1       593 1.10146E-04 8.32476E-07 3.30872E-24
 -1       594 1.10031E-04 9.29821E-07 0.00000E+00
 -1       595 1.09927E-04 9.96177E-07 1.65436E-24
 -1       596 1.09830E-04 1.04363E-06 8.27181E-25
 -1       597 1.09736E-04 1.08425E-06 1.65436E-24
 -1       598 1.09640E-04 1.13011E-06-8.27181E-25
 -1       599 1.09537E-04 1.19328E-06 0.00000E+00
 -1       600 1.09423E-04 1.28580E-06 8.27181E-25
 -1       601 1.09294E-04 1.41975E-06 0.00000E+00
 -1       602 1.09145E-04 1.60719E-06 4.13590E-25
 -1       603 1.08971E-04 1.86018E-06 0.00000E+00
 -1       604 1.08769E-04 2.19087E-06-6.20385E-25
 -1       605 1.08534E-04 2.61132E-06 0.00000E+00
 -1       606 1.12753E-04 3.17792E-06 0.00000E+00
 -1       607 1.12791E-04 4.21558E-06 3.30872E-24
 -1       608 1.12827E-04 5.40066E-06-6.61744E-24
 -1       609 1.12863E-04 6.72269E-06 0.00000E+00
 -1       610 1.12898E-04 8.17119E-06 0.00000E+00
 -1       611 1.12933E-04 9.73550E-06 0.00000E+00
 -1       612 1.12968E-04 1.14049E-05 0.00000E+00
 -1       613 1.13003E-04 1.31689E-05 1.65436E-24
 -1       614 1.13038E-04 1.50167E-05 0.00000E+00
 -1       615 1.13072E-04 1.69376E-05 0.00000E+00
 -1       616 1.13106E-04 1.89210E-05 0.00000E+00
 -1       617 1.13141E-04 2.09563E-05 0.00000E+00
 -1       618 1.13175E-04 2.30327E-05-1.65436E-24
 -1       619 1.13209E-04 2.51396E-05 0.00000E+00
 -1       620 1.13243E-04 2.72664E-05 0.00000E+00
 -1       621 1.11929E-04 2.43727E-06 3.30872E-24
 -1       622 1.11150E-04 2.57800E-06-1.65436E-24
 -1       623 1.10383E-04 2.71867E-06 0.00000E+00
 -1       624 1.09639E-04 2.85898E-06-1.65436E-24
 -1       625 1.08930E-04 2.99878E-06-3.30872E-24
 -1       626 1.12512E-04 3.24793E-06 0.00000E+00
 -1       627 1.12253E-04 4.35794E-06 0.00000E+00
 -1       628 1.11941E-04 5.61181E-06-6.61744E-24
 -1       629 1.11580E-04 6.99324E-06 0.00000E+00
 -1       630 1.11178E-04 8.48591E-06-6.61744E-24
 -1       631 1.10740E-04 1.00734E-05 0.00000E+00
 -1       632 1.10272E-04 1.17391E-05 0.00000E+00
 -1       633 1.09781E-04 1.34668E-05-3.30872E-24
 -1       634 1.09273E-04 1.52399E-05-6.61744E-24
 -1       635 1.08754E-04 1.70420E-05 0.00000E+00
 -1       636 1.08230E-04 1.88567E-05-3.30872E-24
 -1       637 1.07708E-04 2.06676E-05 1.65436E-24
 -1       638 1.07193E-04 2.24581E-05 3.30872E-24
 -1       639 1.06691E-04 2.42118E-05 0.00000E+00
 -1       640 1.06209E-04 2.59123E-05-3.30872E-24
 -1       656 1.11461E-04 2.91000E-05 0.00000E+00
 -1       657 1.10113E-04 2.87849E-05 0.00000E+00
 -1       658 1.09051E-04 2.84710E-05 6.61744E-24
 -1       659 1.08093E-04 2.81574E-05 0.00000E+00
 -1       660 1.07053E-04 2.78429E-05 0.00000E+00
 -1       661 1.12619E-04 3.15777E-05 0.00000E+00
 -1       662 1.11953E-04 3.37921E-05 0.00000E+00
 -1       663 1.11278E-04 3.60299E-05 3.30872E-24
 -1       664 1.10601E-04 3.82779E-05 0.00000E+00
 -1       665 1.09924E-04 4.05222E-05 0.00000E+00
 -1       666 1.09255E-04 4.27493E-05 0.00000E+00
 -1       667 1.08597E-04 4.49454E-05 0.00000E+00
 -1       668 1.07956E-04 4.70969E-05 0.00000E+00
 -1       669 1.07337E-04 4.91901E-05 0.00000E+00
 -1       670 1.06745E-04 5.12110E-05 1.65436E-24
 -1       671 1.06186E-04 5.31457E-05 0.00000E+00
 -1       672 1.05664E-04 5.49801E-05 1.65436E-24
 -1       673 1.05185E-04 5.67000E-05 3.30872E-24
 -1       674 1.04754E-04 5.82904E-05-1.65436E-24
 -1       675 1.04376E-04 5.97373E-05 1.65436E-24
 -1       676 1.09853E-04 6.18276E-05 0.00000E+00
 -1       677 1.08685E-04 6.16653E-05 0.00000E+00
 -1       678 1.07520E-04 6.15031E-05 0.00000E+00
 -1       679 1.06358E-04 6.13415E-05-1.65436E-24
 -1       680 1.05201E-04 6.11799E-05 0.00000E+00
 -1       771 2.66276E-05 4.68515E-07-5.29396E-23
 -1       772 2.20330E-05 7.88198E-06-2.64698E-23
 -1       773 1.80501E-05 1.36937E-05 5.29396E-23
 -1       774 1.46325E-05 1.80191E-05-2.64698E-23
 -1       775 1.17340E-05 2.09765E-05 5.29396E-23
 -1       776 9.30673E-06 2.26885E-05 0.00000E+00
 -1       777 7.30195E-06 2.32801E-05-5.29396E-23
 -1       778 5.67016E-06 2.28797E-05-2.64698E-23
 -1       779 4.36158E-06 2.16177E-05 0.00000E+00
 -1       780 3.32570E-06 1.96269E-05 0.00000E+00
 -1       781 2.51191E-06 1.70417E-05 0.00000E+00
 -1       782 1.86920E-06 1.39984E-05 0.00000E+00
 -1       783 1.34652E-06 1.06340E-05 5.29396E-23
 -1       784 8.93191E-07 7.08666E-06 2.64698E-23
 -1       785 4.58033E-07 3.49498E-06 5.29396E-23
 -1       786 1.06584E-04 7.07987E-07 8.27181E-25
 -1       787 1.06696E-04 8.15882E-07-8.27181E-25
 -1       788 1.06807E-04 8.82777E-07 3.30872E-24
 -1       789 1.06919E-04 9.19969E-07 0.00000E+00
 -1       790 1.07032E-04 9.38641E-07-3.30872E-24
 -1       791 1.07144E-04 9.49935E-07-1.65436E-24
 -1       792 1.07257E-04 9.64968E-07 0.00000E+00
 -1       793 1.07369E-04 9.94863E-07 0.00000E+00
 -1       794 1.07482E-04 1.05080E-06 0.00000E+00
 -1       795 1.07595E-04 1.14402E-06 1.65436E-24
 -1       796 1.07707E-04 1.28589E-06 0.00000E+00
 -1       797 1.07820E-04 1.48791E-06-1.65436E-24
 -1       798 1.07932E-04 1.76179E-06 3.30872E-24
 -1       799 1.08044E-04 2.11940E-06 1.65436E-24
 -1       800 1.08156E-04 2.57294E-06 0.00000E+00
 -1       801 9.83004E-05 6.08741E-07 0.00000E+00
 -1       802 7.77049E-05 5.10697E-07 0.00000E+00
 -1       803 5.11399E-05 2.88370E-07 0.00000E+00
 -1       804 2.50411E-05 6.85020E-08 0.00000E+00
 -1       805 5.84309E-06-1.25203E-08 0.00000E+00
 -1       806 1.06290E-04 6.44737E-07 0.00000E+00
 -1       807 1.06105E-04 7.17938E-07 0.00000E+00
 -1       808 1.05923E-04 7.76977E-07 0.00000E+00
 -1       809 1.05744E-04 8.30637E-07 0.00000E+00
 -1       810 1.05562E-04 8.87661E-07 0.00000E+00
 -1       811 1.05377E-04 9.56713E-07 0.00000E+00
 -1       812 1.05183E-04 1.04645E-06-3.30872E-24
 -1       813 1.04979E-04 1.16550E-06 0.00000E+00
 -1       814 1.04760E-04 1.32252E-06 0.00000E+00
 -1       815 1.04523E-04 1.52612E-06 0.00000E+00
 -1       816 1.04266E-04 1.78494E-06 0.00000E+00
 -1       817 1.03985E-04 2.10758E-06 8.27181E-25
 -1       818 1.03677E-04 2.50267E-06 1.65436E-24
 -1       819 1.03339E-04 2.97875E-06 8.27181E-25
 -1       820 1.02967E-04 3.54438E-06-1.65436E-24
 -1       821 1.08118E-04 3.86181E-06 0.00000E+00
 -1       822 1.07961E-04 4.79401E-06-1.65436E-24
 -1       823 1.07805E-04 5.91204E-06 0.00000E+00
 -1       824 1.07646E-04 7.19588E-06-1.65436E-24
 -1       825 1.07488E-04 8.62469E-06-3.30872E-24
 -1       826 1.07329E-04 1.01771E-05 1.65436E-24
 -1       827 1.07169E-04 1.18312E-05 0.00000E+00
 -1       828 1.07010E-04 1.35647E-05 0.00000E+00
 -1       829 1.06850E-04 1.53549E-05 0.00000E+00
 -1       830 1.06691E-04 1.71788E-05-1.65436E-24
 -1       831 1.06531E-04 1.90135E-05 0.00000E+00
 -1       832 1.06372E-04 2.08357E-05 0.00000E+00
 -1       833 1.06213E-04 2.26225E-05 3.30872E-24
 -1       834 1.06055E-04 2.43510E-05 0.00000E+00
 -1       835 1.05897E-04 2.59985E-05-1.65436E-24
 -1       836 1.07501E-04 3.31204E-06 0.00000E+00
 -1       837 1.06572E-04 3.49444E-06 0.00000E+00
 -1       838 1.05545E-04 3.67656E-06 0.00000E+00
 -1       839 1.04489E-04 3.85780E-06 0.00000E+00
 -1       840 1.03472E-04 4.03880E-06 1.65436E-24
 -1       856 1.05650E-04 2.91627E-05 0.00000E+00
 -1       857 1.05545E-04 3.10138E-05-8.27181E-25
 -1       858 1.05440E-04 3.30603E-05 0.00000E+00
 -1       859 1.05333E-04 3.52664E-05 0.00000E+00
 -1       860 1.05226E-04 3.75960E-05 3.30872E-24
 -1       861 1.05118E-04 4.00131E-05 0.00000E+00
 -1       862 1.05010E-04 4.24813E-05 0.00000E+00
 -1       863 1.04902E-04 4.49644E-05 1.65436E-24
 -1       864 1.04794E-04 4.74261E-05 0.00000E+00
 -1       865 1.04687E-04 4.98301E-05 0.00000E+00
 -1       866 1.04579E-04 5.21401E-05 0.00000E+00
 -1       867 1.04472E-04 5.43202E-05 0.00000E+00
 -1       868 1.04365E-04 5.63341E-05 0.00000E+00
 -1       869 1.04259E-04 5.81463E-05-1.65436E-24
 -1       870 1.04153E-04 5.97208E-05 3.30872E-24
 -1       871 1.04549E-04 2.75305E-05 0.00000E+00
 -1       872 1.03553E-04 2.75154E-05 0.00000E+00
 -1       873 1.02676E-04 2.74998E-05-8.27181E-25
 -1       874 1.01830E-04 2.74834E-05-2.06795E-25
 -1       875 1.00928E-04 2.74661E-05 8.27181E-25
 -1       876 1.05342E-04 2.91755E-05 3.30872E-24
 -1       877 1.04894E-04 3.09362E-05 0.00000E+00
 -1       878 1.04405E-04 3.28081E-05 6.61744E-24
 -1       879 1.03880E-04 3.47762E-05-3.30872E-24
 -1       880 1.03325E-04 3.68255E-05 0.00000E+00
 -1       881 1.02745E-04 3.89412E-05 0.00000E+00
 -1       882 1.02145E-04 4.11084E-05-6.61744E-24
 -1       883 1.01532E-04 4.33123E-05 0.00000E+00
 -1       884 1.00910E-04 4.55381E-05 0.00000E+00
 -1       885 1.00286E-04 4.77712E-05 0.00000E+00
 -1       886 9.96641E-05 4.99967E-05 0.00000E+00
 -1       887 9.90506E-05 5.21999E-05 0.00000E+00
 -1       888 9.84509E-05 5.43661E-05-6.61744E-24
 -1       889 9.78695E-05 5.64800E-05 1.65436E-24
 -1       890 9.73129E-05 5.85273E-05 3.30872E-24
 -1       891 1.02996E-04 6.09343E-05-3.30872E-24
 -1       892 1.01983E-04 6.08450E-05-8.27181E-25
 -1       893 1.00934E-04 6.07557E-05 0.00000E+00
 -1       894 9.97689E-05 6.06664E-05 0.00000E+00
 -1       895 9.84094E-05 6.05769E-05 1.65436E-24
 -1       956 1.02398E-04 5.12403E-06-3.30872E-24
 -1       957 1.02232E-04 6.19054E-06 1.65436E-24
 -1       958 1.02065E-04 7.39129E-06-3.30872E-24
 -1       959 1.01897E-04 8.70930E-06 1.65436E-24
 -1       960 1.01729E-04 1.01276E-05 6.61744E-24
 -1       961 1.01561E-04 1.16290E-05 3.30872E-24
 -1       962 1.01393E-04 1.31964E-05 0.00000E+00
 -1       963 1.01225E-04 1.48126E-05 0.00000E+00
 -1       964 1.01057E-04 1.64606E-05 6.61744E-24
 -1       965 1.00889E-04 1.81231E-05-3.30872E-24
 -1       966 1.00721E-04 1.97830E-05 0.00000E+00
 -1       967 1.00553E-04 2.14231E-05 3.30872E-24
 -1       968 1.00385E-04 2.30263E-05-6.61744E-24
 -1       969 1.00217E-04 2.45755E-05 0.00000E+00
 -1       970 1.00050E-04 2.60536E-05 0.00000E+00
 -1       971 9.96947E-05 2.88630E-05 0.00000E+00
 -1       972 9.95009E-05 3.04719E-05 1.65436E-24
 -1       973 9.93066E-05 3.22492E-05 0.00000E+00
 -1       974 9.91117E-05 3.41727E-05 0.00000E+00
 -1       975 9.89165E-05 3.62201E-05-6.61744E-24
 -1       976 9.87210E-05 3.83689E-05 3.30872E-24
 -1       977 9.85253E-05 4.05968E-05 6.61744E-24
 -1       978 9.83295E-05 4.28812E-05 3.30872E-24
 -1       979 9.81336E-05 4.51996E-05 0.00000E+00
 -1       980 9.79378E-05 4.75295E-05-3.30872E-24
 -1       981 9.77420E-05 4.98484E-05 6.61744E-24
 -1       982 9.75464E-05 5.21337E-05 3.30872E-24
 -1       983 9.73512E-05 5.43629E-05-6.61744E-24
 -1       984 9.71570E-05 5.65136E-05 0.00000E+00
 -1       985 9.69635E-05 5.85631E-05 0.00000E+00
 -3
    1PSTEP                         8           4           1          
  100CL  104 1.000000000         409                     0    4           1
 -4  STRESS      6    1
 -5  SXX         1    4    1    1
 -5  SYY         1    4    2    2
 -5  SZZ         1    4    3    3
 -5  SXY         1    4    1    2
 -5  SYZ         1    4    2    3
 -5  SZX         1    4    3    1
 -1         1-3.65892E+06-1.62858E+06-8.15924E+05-2.14089E+06 8.73115E-11 3.63798E-09
 -1         2 2.85317E+03-6.54893E+05 9.65927E+03-7.67562E+03-2.41582E-09-1.04421E-08
 -1         3-2.34315E+02-1.45092E+06 3.60550E+02-9.46666E+02 2.28770E-10-1.56506E-08
 -1         5-2.99376E+01 5.49675E+05 1.51998E+01 1.48948E+00 1.38777E-10-2.07365E-10
 -1         8-2.31503E+06-8.56346E+05-2.70080E+05-1.08467E+06-3.71074E-10-3.37604E-09
 -1         9-2.83236E+06-9.27012E+05-3.72758E+05-7.38921E+05-1.35624E-09 9.08622E-09
 -1        10-1.26118E+03-1.51432E+06-2.26493E+03-6.42159E+03 1.39153E-09-2.28061E-08
 -1        12-2.38127E+01 5.49706E+05 4.93693E+02 9.66157E+00 6.25867E-10 5.83532E-09
 -1        15 3.90132E+03 2.12798E+03 1.23741E+04 1.23767E+01-3.54134E-11-2.43968E-08
 -1        16-6.03739E+06-1.91455E+06-9.19107E+05-1.94212E+06 5.20959E-09-1.35818E-09
 -1        17-1.13144E+06-8.31538E+05-1.84544E+05-7.52665E+05-1.65164E-09 2.27592E-09
 -1        18 3.50395E+04 6.91036E+03-2.47733E+04-1.37666E+05 1.01090E-09 1.33605E-09
 -1        19 1.67191E+05 1.98407E+05-1.47294E+03 2.08374E+04-1.92449E-10-9.94914E-09
 -1        20 7.91083E+04-2.64236E+05-5.05123E+04 7.64449E+04 1.67890E-08 3.76895E-09
 -1        21-9.99688E+01-4.63054E+05-1.78566E+03-3.94789E+02 6.83977E-09-3.32086E-09
 -1        24-4.60333E+06-1.63020E+06-5.60736E+05-2.08702E+06-1.96596E-08-7.65431E-09
 -1        25 4.65518E+04 6.57813E+04 3.85458E+04-5.96912E+05-5.16939E-09 1.61890E-09
 -1        26-3.20888E+04 1.42424E+05-9.13807E+03-3.15818E+04 2.24099E-10 8.66974E-09
 -1        27-5.27006E+04-1.57641E+05-7.26709E+04 1.06165E+05 7.69554E-09 8.45224E-10
 -1        28 5.67669E+02-1.41212E+05 7.21384E+03 5.20445E+04 4.42651E-09 1.09579E-09
 -1        32-1.34709E+06-1.00029E+05 4.37329E+05-1.87798E+06-7.61065E-09 2.66914E-09
 -1        33-2.01416E+05 1.34131E+05 4.36674E+04-5.67486E+04-3.20900E-10 1.29148E-10
 -1        34-3.21243E+05-4.23442E+04-4.97711E+03 1.01743E+05 5.81531E-09-4.16897E-09
 -1        35-3.82685E+04-5.35488E+04-2.71245E+03 8.67648E+04 1.20797E-08 1.31089E-09
 -1        51 2.88163E+04-6.50582E+05 6.05064E+04-1.81706E+06 0.00000E+00-4.59841E-09
 -1        52 2.23663E+04-6.58074E+05 4.24263E+04-2.04581E+06-2.91038E-10 5.67525E-09
 -1        53 2.16629E+04-6.87572E+05 3.92210E+04-1.81134E+06 1.16415E-10-5.79166E-09
 -1        54 5.21540E+04-6.90537E+05 6.71943E+04-2.05146E+06 4.36557E-10-1.20490E-08
 -1        55 9.90232E+04-7.17098E+05 1.24012E+05-1.80984E+06-8.73115E-11 1.31695E-09
 -1        56-7.00386E+06-7.53986E+05-5.78000E+05-2.67582E+06 1.51340E-09-2.27010E-09
 -1        57-7.15411E+06-1.36095E+06-3.89924E+05-2.73855E+06 1.56433E-09-5.55883E-09
 -1        58-7.14701E+06-9.10220E+05-1.35537E+05-2.60336E+06 7.74889E-10-2.99769E-09
 -1        59-6.99239E+06-1.17387E+06-8.11637E+04-2.82233E+06-4.67253E-09-7.87531E-09
 -1        60-7.16626E+06-9.34228E+05-3.15506E+04-2.59529E+06 1.63709E-11-1.90157E-08
 -1        61-6.99372E+06-1.11760E+06-1.73103E+04-2.79647E+06 7.07405E-09-1.67867E-08
 -1        62-7.14338E+06-9.67083E+05-9.73461E+03-2.62799E+06 6.56837E-09-7.70888E-09
 -1        63-7.05842E+06-1.03976E+06-5.49596E+03-2.70767E+06 2.36378E-09 1.61326E-08
 -1        64-7.09826E+06-1.01420E+06-9.81750E+03-2.68171E+06 6.38465E-10 7.16682E-09
 -1        65-7.15265E+06-9.52569E+05-1.50957E+04-2.60482E+06-3.89446E-09 1.47284E-08
 -1        66-7.04988E+06-1.05389E+06-2.95838E+04-2.73128E+06-1.49066E-09 2.15550E-09
 -1        67-7.24328E+06-9.15647E+05-7.36530E+04-2.53069E+06 6.46611E-09-1.26829E-08
 -1        68-7.01147E+06-1.04940E+06-1.23186E+05-2.75830E+06-2.17915E-09 4.36557E-11
 -1        69-7.37417E+06-1.10858E+06-3.55680E+05-2.48481E+06-5.64796E-09 1.41299E-08
 -1        70-6.92140E+06-8.65133E+05-5.25721E+05-2.77637E+06-8.39646E-09-5.38421E-09
 -1        86-1.50676E+03-6.66641E+05 8.41134E+03 3.83748E+03 7.98082E-11 5.08646E-09
 -1        87 8.93925E+03-6.54308E+05 1.96490E+04-1.36548E+04-5.06134E-10-6.92626E-09
 -1        88-7.47818E+03-6.67352E+05 2.87095E+04 9.81658E+03-1.64800E-09-1.61901E-09
 -1        89 5.50552E+04-6.36413E+05 7.81118E+04-2.12549E+04 5.97538E-10 7.53857E-09
 -1        90-4.73819E+04-6.84682E+05 1.10110E+05 1.14394E+04-2.66300E-09-1.00150E-08
 -1       121-3.65561E+02-1.45198E+06 2.36171E+02 4.72607E+02 5.63745E-11 1.83572E-08
 -1       122-1.01209E+02-1.45087E+06 7.68713E+02-1.88765E+03 2.26788E-09 1.99652E-08
 -1       123-4.48065E+02-1.45207E+06 1.12467E+03 1.41077E+03 1.02898E-09-9.82254E-09
 -1       124 1.37927E+03-1.45006E+06 3.17767E+03-3.93487E+03 4.83169E-09 3.01225E-09
 -1       125-1.41222E+03-1.45288E+06 4.71884E+03 2.51776E+03 1.60435E-09-9.49331E-09
 -1       191-3.19266E+01 5.49717E+05 1.72080E+01-7.52299E-01 3.41983E-10 2.65754E-09
 -1       192-3.13537E+01 5.49675E+05 3.22232E+01 4.00077E+00 5.02169E-10 2.73212E-09
 -1       193-3.56786E+01 5.49716E+05 5.89870E+01-3.29674E+00 5.60124E-10-1.28584E-08
 -1       194-3.59047E+01 5.49680E+05 1.21972E+02 8.71597E+00 3.37600E-10 2.84763E-09
 -1       195-4.28844E+01 5.49712E+05 2.37629E+02-5.53170E+00 9.62345E-10-1.31695E-09
 -1       251-1.80938E+06-7.22320E+03-2.73883E+03-7.81365E+04 4.19277E-10-8.07677E-09
 -1       252-1.72056E+06 9.95391E+03 1.49628E+04 1.92466E+05 2.14891E-09 6.39764E-09
 -1       253-1.79428E+06-7.13475E+00-2.75766E+03-8.43518E+04-1.04001E-09 6.64670E-09
 -1       254-1.63596E+06 6.52238E+03 2.83799E+04 1.07230E+05-4.22688E-10-2.74745E-08
 -1       255-1.88821E+06-9.27850E+03-2.41027E+04 7.13269E+03 3.75803E-09 1.28750E-09
 -1       256-1.63151E+06 7.75199E+03 2.89434E+04-7.87202E+04-1.11891E-09-1.11086E-08
 -1       257-1.79827E+06-1.66699E+03-5.17594E+03 1.01447E+05-3.98359E-10 3.16362E-09
 -1       258-1.72860E+06 5.99472E+03 9.80435E+03-1.73305E+05-2.90719E-10-4.77243E-09
 -1       259-1.79737E+06-1.59383E+03-4.90045E+03 1.01881E+05-7.04949E-09 6.38716E-09
 -1       260-1.63239E+06 7.81784E+03 2.89985E+04-8.00832E+04-4.70209E-10-2.74810E-09
 -1       261-1.88829E+06-9.36185E+03-2.36902E+04 8.06186E+03 5.94082E-09-4.07732E-09
 -1       262-1.63476E+06 7.07070E+03 2.96273E+04 1.05891E+05 5.02450E-09-7.15428E-09
 -1       263-1.79533E+06-5.30234E+02-1.24611E+03-8.39426E+04-9.83846E-09-8.66748E-09
 -1       264-1.71916E+06 1.31992E+04 1.95623E+04 1.92547E+05-4.46283E-08-1.63390E-08
 -1       265-1.80973E+06-9.93226E+03 4.02142E+03-7.86270E+04-1.68957E-08-9.41054E-09
 -1       266-6.96656E+04-3.23883E+04 1.62292E+05-2.60170E+02 2.69210E-10-1.58690E-08
 -1       267 8.07283E+04 3.78112E+04 1.14855E+05 2.99532E+02 0.00000E+00 1.62440E-08
 -1       268-1.09064E+04-5.38067E+03 4.26102E+04-3.85661E+01-4.18368E-11 2.04074E-09
 -1       269 1.28760E+04 6.44699E+03 2.77637E+04 4.48702E+01-1.99179E-10 1.81539E-08
 -1       270-1.94795E+03-1.06393E+03 1.33687E+04-6.16986E+00-4.59295E-11-7.02488E-09
 -1       271-7.78586E+06-9.60900E+05-6.22814E+05-3.04417E+06-2.35013E-09 1.74623E-10
 -1       272-8.03926E+06-1.40530E+06-4.03391E+05-3.00452E+06 4.14184E-09-1.55051E-08
 -1       273-7.91370E+06-1.11360E+06-1.46961E+05-3.00354E+06-3.40128E-09 9.95351E-09
 -1       274-7.88363E+06-1.22574E+06-8.27415E+04-3.06779E+06 1.55524E-10 7.10133E-09
 -1       275-7.93915E+06-1.12185E+06-3.41891E+04-2.98822E+06 1.42154E-09-8.45102E-09
 -1       276-7.85142E+06-1.21855E+06-1.82550E+04-3.09221E+06 3.20006E-09-4.42651E-09
 -1       277-7.94712E+06-1.11772E+06-9.01412E+03-2.98099E+06 8.80391E-10 1.01400E-08
 -1       278-7.84411E+06-1.22193E+06-6.85385E+03-3.10004E+06-1.48049E-09-1.20308E-08
 -1       279-7.94717E+06-1.11779E+06-7.74502E+03-2.98100E+06 7.11225E-10-8.70023E-09
 -1       280-7.85093E+06-1.21782E+06-1.46548E+04-3.09222E+06 2.31012E-10 3.39787E-09
 -1       281-7.93955E+06-1.12247E+06-2.70518E+04-2.98820E+06 1.91903E-09 1.36242E-09
 -1       282-7.87964E+06-1.21973E+06-6.50484E+04-3.06845E+06-1.74623E-10 8.00355E-11
 -1       283-7.91712E+06-1.11856E+06-1.15619E+05-3.00301E+06 6.43468E-10-1.09867E-09
 -1       284-8.00712E+06-1.35527E+06-3.16904E+05-3.01220E+06 6.59384E-11 1.26784E-08
 -1       285-7.81364E+06-1.00182E+06-4.89780E+05-3.03847E+06-5.89353E-10-3.52156E-09
 -1       301 5.41969E+04-2.60929E+04 2.05971E+05-3.32072E+04-3.16504E-09 9.34494E-09
 -1       302 2.55971E+04 1.97082E+04 1.39405E+05-4.39013E+04 3.26509E-10 4.99949E-09
 -1       303 3.48737E+03-9.60558E+03 1.24233E+05-3.36779E+04-2.69210E-09 6.70616E-09
 -1       304 4.36535E+04 3.56083E+04 2.00911E+05-4.37660E+04-5.42059E-10 6.65887E-09
 -1       305 9.65719E+04-4.18057E+04 3.48659E+05-3.29478E+04-2.34286E-09 3.36422E-09
 -1       306-5.32001E+06-6.56906E+05-3.65654E+05-2.07607E+06 4.10364E-09 3.34694E-10
 -1       307-5.45579E+06-9.63618E+05-2.41443E+05-2.06301E+06 2.62139E-09-8.26549E-09
 -1       308-5.40645E+06-7.49169E+05-8.65097E+04-2.03815E+06 1.93972E-09 6.27915E-09
 -1       309-5.34788E+06-8.62883E+05-4.97703E+04-2.12148E+06 3.49246E-10-6.91216E-10
 -1       310-5.42836E+06-7.50219E+05-2.03038E+04-2.02113E+06-5.15774E-09-8.68204E-09
 -1       311-5.32059E+06-8.64370E+05-1.11605E+04-2.14741E+06-7.29960E-09-5.96629E-09
 -1       312-5.43544E+06-7.45664E+05-5.71068E+03-2.01383E+06 5.02223E-09 6.34179E-09
 -1       313-5.31575E+06-8.66638E+05-5.04929E+03-2.15299E+06 6.81428E-09 1.93711E-08
 -1       314-5.43369E+06-7.47539E+05-6.48080E+03-2.01594E+06 3.19687E-10 1.02045E-09
 -1       315-5.32679E+06-8.58103E+05-1.30531E+04-2.13879E+06 2.07365E-10-8.22001E-09
 -1       316-5.42314E+06-7.55137E+05-2.43221E+04-2.02708E+06 3.18505E-09 3.57068E-09
 -1       317-5.36169E+06-8.54369E+05-5.94411E+04-2.10579E+06-2.10548E-10 1.04619E-08
 -1       318-5.39694E+06-7.53560E+05-1.03462E+05-2.04713E+06 3.12184E-10-3.36149E-09
 -1       319-5.48956E+06-9.77261E+05-2.88873E+05-2.03966E+06 2.72394E-09-2.08129E-08
 -1       320-5.29562E+06-6.40500E+05-4.37014E+05-2.08962E+06 3.75439E-09-8.81846E-09
 -1       336 1.11511E+03-1.57706E+06-9.28406E+03 3.89307E+03-4.19823E-09 8.42556E-09
 -1       337-3.48151E+03-1.57935E+06-1.06097E+04-9.34401E+03-3.58500E-09-1.04519E-08
 -1       338 9.01728E+02-1.57720E+06-1.39375E+04 5.43006E+03-6.02540E-09 1.42027E-08
 -1       339-1.49521E+04-1.58656E+06-3.10194E+04-1.23148E+04-3.68027E-09 9.83891E-09
 -1       340 1.05924E+04-1.57024E+06-4.76971E+04 6.84074E+03-6.06997E-09 1.10740E-08
 -1       406 1.29608E+01 5.49690E+05 9.73624E+02-4.29735E+00 1.32900E-09-4.52928E-10
 -1       407 3.16078E+02 5.49877E+05 2.07123E+03-9.15695E+00 5.59339E-11-4.11546E-09
 -1       408 1.04175E+03 5.49541E+05 4.13519E+03 1.42124E+01 1.39971E-09-9.52787E-09
 -1       409 4.45022E+03 5.51197E+05 9.31062E+03-1.71749E+02 2.13731E-11-4.25143E-09
 -1       410 1.28289E+04 5.48360E+05 1.90060E+04 1.73673E+02 1.58434E-09 1.81717E-09
 -1       521-9.99916E+06-1.22510E+06-7.04390E+05-3.90303E+06 3.75439E-09-1.05356E-08
 -1       522-1.03321E+07-1.75550E+06-4.66742E+05-3.80510E+06-2.02635E-09-1.15906E-08
 -1       523-1.01683E+07-1.40274E+06-1.66099E+05-3.82716E+06 1.82172E-09 4.05998E-09
 -1       524-1.01165E+07-1.56449E+06-9.60384E+04-3.92173E+06-1.11140E-09-1.84082E-09
 -1       525-1.02130E+07-1.40283E+06-3.86738E+04-3.79153E+06-9.69794E-09-3.69073E-09
 -1       526-1.00622E+07-1.56728E+06-2.12987E+04-3.97100E+06-1.12120E-08-7.48537E-09
 -1       527-1.02245E+07-1.39667E+06-1.04985E+04-3.78013E+06-5.83327E-10 6.45537E-09
 -1       528-1.00616E+07-1.56127E+06-8.67728E+03-3.96875E+06 1.68666E-09 4.15002E-09
 -1       529-1.02133E+07-1.40882E+06-1.08287E+04-3.79365E+06 3.42334E-09 6.12454E-09
 -1       530-1.01004E+07-1.52538E+06-2.07421E+04-3.91978E+06 9.47693E-09 3.14867E-09
 -1       531-1.01829E+07-1.43460E+06-3.89556E+04-3.82704E+06 1.96087E-09 7.24322E-09
 -1       532-1.01835E+07-1.49438E+06-9.48192E+04-3.84023E+06-4.16367E-09 1.14342E-08
 -1       533-1.01293E+07-1.44241E+06-1.64456E+05-3.87162E+06-3.75439E-09-4.95493E-09
 -1       534-1.04057E+07-1.67925E+06-4.62171E+05-3.72465E+06 4.59113E-09-9.42964E-09
 -1       535-9.96625E+06-1.26044E+06-6.96527E+05-3.94020E+06 7.27596E-10-6.57747E-09
 -1       536-7.69642E+04-3.32306E+04 8.93196E+04 1.51134E+03 3.12502E-09-4.74392E-09
 -1       537-3.42353E+04 3.74133E+04 6.19056E+04-6.93095E+04-1.20717E-08-9.26593E-09
 -1       538-6.19627E+04-4.80141E+03 2.29666E+04 1.72105E+03-7.09406E-11-9.51604E-09
 -1       539-5.31122E+04 4.60195E+03 1.42419E+04-6.97174E+04 4.64388E-09 5.90444E-09
 -1       540-5.95575E+04-8.19129E+02 5.70988E+03 1.91124E+03 1.33423E-09 1.87720E-09
 -1       541-5.71378E+04 5.73173E+02 3.40066E+03-7.00361E+04 2.33831E-09-2.35809E-09
 -1       542-5.90275E+04-1.71654E+02 1.32866E+03 2.03287E+03-1.05774E-09 5.00120E-09
 -1       543-5.85645E+04 2.50675E+02 6.73196E+02-7.02288E+04-6.63931E-11 4.95686E-09
 -1       544-5.88435E+04-9.51250E+00 3.15911E+01 2.10324E+03 4.47926E-11 9.03867E-09
 -1       545-5.91895E+04 1.75484E+02-5.28553E+02-7.03175E+04-1.76146E-09 6.10498E-11
 -1       546-5.87321E+04 1.32178E+02-1.22337E+03 2.12233E+03 3.23780E-10-5.81508E-10
 -1       547-5.96545E+04-8.40912E+02-3.04426E+03-7.02972E+04-2.29670E-09 1.60594E-09
 -1       548-5.83222E+04 9.29572E+02-5.22484E+03 2.08272E+03-3.65981E-09 5.81258E-09
 -1       549-6.27040E+04-8.37480E+03-1.35929E+04-7.01196E+04-1.89857E-09 8.21501E-10
 -1       550-5.52407E+04 7.03928E+03-2.02311E+04 1.94407E+03 2.03727E-10-1.27784E-09
 -1       551 3.21377E+04-7.44989E+05 4.31580E+04-1.20245E+06 1.07830E-08-8.44011E-10
 -1       552 4.51392E+04-7.51488E+05 4.95989E+04-1.56142E+06-1.14960E-09 2.01107E-08
 -1       553 3.38222E+04-7.57216E+05 7.26964E+04-1.19935E+06 1.21072E-08 6.70661E-09
 -1       554 7.68819E+04-7.30150E+05 1.49848E+05-1.56181E+06-5.50062E-09 4.67844E-09
 -1       555 1.05373E+05-7.77106E+05 2.76076E+05-1.20086E+06 1.09576E-08-1.47847E-08
 -1       556-2.04344E+04-2.40286E+05 7.06958E+04-3.31239E+05-2.60625E-08-2.26137E-08
 -1       557 6.52919E+04-3.10658E+05 3.73245E+04-4.00326E+05-1.10012E-08-1.32268E-08
 -1       558-2.33570E+04-2.49194E+05 1.46438E+04-3.24226E+05-3.91447E-09-2.24463E-09
 -1       559 5.07637E+04-3.19360E+05 7.58589E+03-4.07572E+05 3.02680E-09 1.53523E-08
 -1       560-2.79017E+04-2.46307E+05 2.89465E+03-3.27194E+05-6.81030E-09 5.03860E-10
 -1       561 4.45723E+04-3.17401E+05 1.64038E+03-4.11632E+05-2.64845E-09 5.38967E-09
 -1       562-3.13893E+04-2.44048E+05 5.04490E+02-3.29649E+05-5.74801E-10-5.90489E-09
 -1       563 4.06698E+04-3.15724E+05 3.52681E+02-4.14191E+05-1.45519E-10 1.89129E-09
 -1       564-3.35206E+04-2.42690E+05-4.03824E+00-3.31130E+05 1.09139E-09 1.69166E-09
 -1       565 3.86765E+04-3.14874E+05-1.83445E+02-4.15475E+05-4.78758E-09-8.81118E-09
 -1       566-3.42300E+04-2.42211E+05-6.56236E+02-3.31635E+05 1.00044E-10-1.45010E-08
 -1       567 3.84521E+04-3.14870E+05-1.56811E+03-4.15460E+05 1.10585E-08 6.08270E-09
 -1       568-3.34021E+04-2.42744E+05-3.44216E+03-3.31170E+05 2.18643E-09-1.53159E-09
 -1       569 3.75433E+04-3.16681E+05-8.08773E+03-4.13134E+05 1.61526E-09 2.36469E-09
 -1       570-2.94556E+04-2.47900E+05-1.61130E+04-3.29008E+05 1.97178E-09-1.01054E-08
 -1       571 3.78055E+05 1.54708E+04 2.29801E+04-9.29518E+04-1.35788E-09 5.09635E-09
 -1       572 3.81463E+05 5.36600E+03 1.12606E+04-1.01883E+05-7.05768E-10 2.08365E-09
 -1       573 3.79387E+05 1.26744E+03 5.00239E+03-9.27018E+04-6.03995E-09-1.12686E-09
 -1       574 3.79782E+05 4.10065E+02 2.50715E+03-1.02154E+05-1.80885E-08 5.25961E-09
 -1       575 3.79514E+05 5.46138E+01 1.18099E+03-9.26698E+04-9.18317E-09 4.00269E-09
 -1       576 3.79541E+05 1.75951E+01 6.00258E+02-1.02190E+05 1.77062E-09 1.83718E-09
 -1       577 3.79533E+05-8.03799E+00 2.92704E+02-9.26656E+04-9.08699E-09 3.83989E-09
 -1       578 3.79525E+05-5.74148E+00 1.53856E+02-1.02195E+05-2.25011E-08-5.47789E-09
 -1       579 3.79574E+05-2.14102E+01 8.21085E+01-9.26652E+04-1.30403E-08 6.32735E-09
 -1       580 3.79586E+05-3.55010E+01 5.78958E+01-1.02191E+05-3.44517E-09-7.62520E-09
 -1       581 3.79656E+05-6.29567E+01 5.48156E+01-9.26700E+04-2.59570E-09-7.03039E-10
 -1       582 3.79706E+05-8.22339E+01 9.06081E+01-1.02138E+05-2.50293E-09-4.18822E-09
 -1       583 3.79775E+05-9.49021E+01 1.57418E+02-9.27180E+04-1.10722E-08 3.77713E-09
 -1       584 3.79917E+05-2.41525E+00 3.53660E+02-1.01728E+05-2.23408E-08 4.22369E-09
 -1       585 3.79881E+05 2.83156E+02 7.04077E+02-9.30797E+04-8.69659E-09-3.09228E-09
 -1       586-2.59852E+02 1.55694E+05 8.35460E+01-2.89256E+05 1.78602E-09-1.82627E-09
 -1       587 6.66606E+02 1.55682E+05 2.48714E+03-3.22030E+05 1.15506E-09-1.31747E-08
 -1       588 1.65575E+03 1.55279E+05 5.98870E+03-2.88984E+05 1.87356E-09-5.79075E-09
 -1       589 6.48199E+03 1.57992E+05 1.39875E+04-3.21897E+05 1.23691E-09 1.13678E-08
 -1       590 1.83030E+04 1.53715E+05 2.85881E+04-2.89387E+05 1.52750E-09 5.33873E-09
 -1       591-1.58316E+05-4.44825E+04-3.44608E+04-7.61015E+04-1.14142E-09 8.56744E-10
 -1       592-1.60992E+05-4.64896E+04-1.78006E+04-8.52152E+04-1.78011E-09-7.33098E-09
 -1       593-1.60746E+05-3.75927E+04-7.52719E+03-8.00277E+04-3.33102E-09-1.07998E-08
 -1       594-1.56778E+05-4.21746E+04-3.71317E+03-8.54169E+04-8.21501E-10-4.23321E-09
 -1       595-1.60963E+05-3.74503E+04-1.71420E+03-8.01742E+04 8.96762E-10-2.31651E-09
 -1       596-1.56505E+05-4.20178E+04-8.67498E+02-8.53775E+04-2.71939E-10 7.12362E-09
 -1       597-1.60996E+05-3.74769E+04-4.68934E+02-8.01760E+04-5.86951E-10-1.82126E-10
 -1       598-1.56476E+05-4.20167E+04-3.68915E+02-8.53653E+04 2.43449E-09 7.32985E-09
 -1       599-1.60992E+05-3.74799E+04-4.61626E+02-8.01737E+04-2.62162E-10 2.00930E-09
 -1       600-1.56496E+05-4.20214E+04-8.47909E+02-8.53686E+04 2.53931E-09-3.49701E-10
 -1       601-1.60950E+05-3.74592E+04-1.67167E+03-8.01673E+04-9.98625E-10-3.56113E-09
 -1       602-1.56756E+05-4.21746E+04-3.61843E+03-8.53952E+04 8.70386E-10 1.05656E-08
 -1       603-1.60728E+05-3.76072E+04-7.33427E+03-8.00232E+04 6.99401E-10 1.55114E-08
 -1       604-1.60887E+05-4.63439E+04-1.73396E+04-8.51490E+04-5.27507E-10 4.28872E-09
 -1       605-1.58319E+05-4.43511E+04-3.35684E+04-7.62296E+04-4.03361E-10-1.11686E-09
 -1       606 1.06261E+05-1.60052E+04-2.83713E+04 4.53408E+04-6.44650E-09-2.03217E-08
 -1       607 1.01433E+05-5.16802E+03-1.41061E+04 5.07528E+04-4.44288E-09-6.84395E-10
 -1       608 1.04145E+05-8.88576E+02-6.31746E+03 4.49857E+04 3.88718E-09 6.71116E-09
 -1       609 1.03572E+05-2.02632E+02-3.18736E+03 5.11389E+04-3.43516E-09-7.31234E-09
 -1       610 1.03853E+05 7.11549E+01-1.52376E+03 4.49458E+04-9.12405E-09-6.27097E-09
 -1       611 1.03724E+05 1.16792E+02-7.67286E+02 5.11804E+04-1.49921E-08 1.14960E-09
 -1       612 1.03753E+05 1.19205E+02-3.68240E+02 4.49424E+04-5.21686E-09 4.64024E-09
 -1       613 1.03688E+05 1.49224E+02-1.66352E+02 5.11842E+04-8.89122E-09 5.64660E-09
 -1       614 1.03691E+05 1.35742E+02-4.54666E+01 4.49415E+04-1.05683E-09-1.62345E-10
 -1       615 1.03645E+05 1.71837E+02 5.68914E+01 5.11839E+04 1.01932E-08 6.71116E-09
 -1       616 1.03644E+05 1.56942E+02 1.81852E+02 4.49423E+04 5.21231E-09-2.69438E-09
 -1       617 1.03640E+05 2.28264E+02 4.21175E+02 5.11820E+04 2.19529E-08-8.47876E-09
 -1       618 1.03588E+05 2.96013E+02 8.50660E+02 4.49428E+04 9.89576E-09-1.14733E-08
 -1       619 1.03922E+05 9.08067E+02 1.91255E+03 5.11773E+04-2.30466E-09 5.41195E-09
 -1       620 1.03298E+05 2.35226E+03 3.84935E+03 4.49409E+04-8.68567E-11 1.14824E-09
 -1       621 9.10103E+02 4.04008E+05 4.29319E+03-2.07851E+04-2.39982E-09 1.33224E-09
 -1       622 5.22723E+02 4.04927E+05 4.53171E+03-2.69474E+04-2.23395E-09 4.84283E-09
 -1       623 1.87651E+02 4.04150E+05 6.58399E+03-2.07780E+04-2.34195E-09 6.38124E-09
 -1       624 3.15556E+03 4.07252E+05 1.35046E+04-2.68807E+04-1.58434E-09-4.56726E-09
 -1       625 7.07560E+03 4.01703E+05 2.50744E+04-2.08472E+04-2.07365E-09 6.38283E-09
 -1       626 3.07509E+05 9.14139E+04 2.45746E+03 1.77465E+05 3.34694E-09-9.88439E-09
 -1       627 3.01981E+05 9.64506E+04 1.18668E+03 1.84466E+05 1.09249E-08-2.25680E-08
 -1       628 3.07670E+05 9.00919E+04 4.97355E+02 1.77609E+05 5.36056E-09 1.50976E-09
 -1       629 3.01359E+05 9.63770E+04 2.50869E+02 1.84776E+05 6.71571E-09-3.69482E-10
 -1       630 3.07623E+05 9.00553E+04 1.20369E+02 1.77559E+05-1.98452E-09 5.35920E-09
 -1       631 3.01231E+05 9.64124E+04 8.10758E+01 1.84751E+05-3.07509E-08-5.55548E-09
 -1       632 3.07568E+05 9.00831E+04 8.08397E+01 1.77521E+05-7.85622E-09-5.05258E-09
 -1       633 3.01182E+05 9.64332E+04 1.33439E+02 1.84720E+05 1.60367E-08-6.24050E-09
 -1       634 3.07527E+05 9.00904E+04 2.52733E+02 1.77502E+05 1.60744E-08-2.39197E-10
 -1       635 3.01184E+05 9.64407E+04 5.35891E+02 1.84713E+05 9.08813E-09 2.75941E-09
 -1       636 3.07495E+05 9.00905E+04 1.09306E+03 1.77491E+05 5.65160E-09 7.61929E-09
 -1       637 3.01412E+05 9.66244E+04 2.40976E+03 1.84704E+05 1.20599E-09-2.72485E-09
 -1       638 3.07414E+05 9.06479E+04 4.95642E+03 1.77235E+05-3.80169E-09 1.11140E-09
 -1       639 3.03993E+05 1.00329E+05 1.17316E+04 1.83940E+05-2.38651E-09-3.24144E-09
 -1       640 3.07154E+05 1.01599E+05 2.43843E+04 1.72564E+05 4.89217E-09-1.16415E-09
 -1       656 3.19234E+04-8.91367E+05-9.20324E+04-2.05301E+02 9.24047E-10-1.18143E-09
 -1       657-4.26583E+04-9.29721E+05-7.32508E+04 6.04379E+04 9.78162E-10 4.12456E-10
 -1       658 8.80290E+03-9.03181E+05-4.66089E+04-7.98121E+02 4.37024E-09 1.37061E-08
 -1       659-4.54648E+04-9.31259E+05-7.73444E+04 6.08437E+04 1.27966E-09 3.29339E-09
 -1       660 3.46650E+04-8.89907E+05-9.92671E+04-6.10287E+02 1.85901E-09-1.23418E-09
 -1       661 3.62415E+05 4.53627E+04 3.06550E+04 1.41453E+05 1.25301E-08 6.75755E-09
 -1       662 3.71365E+05 6.81214E+04 1.94743E+04 1.43649E+05 6.61748E-09 2.35013E-09
 -1       663 3.67774E+05 5.26694E+04 7.24310E+03 1.40599E+05 7.95922E-09 7.60201E-09
 -1       664 3.65203E+05 5.88051E+04 4.01794E+03 1.45038E+05 1.77124E-10 2.09053E-09
 -1       665 3.68407E+05 5.34725E+04 1.70246E+03 1.40521E+05 2.98917E-09 3.60774E-09
 -1       666 3.64469E+05 5.78113E+04 9.33874E+02 1.45176E+05 5.69287E-11 4.17684E-09
 -1       667 3.68495E+05 5.35501E+04 5.26903E+02 1.40504E+05 5.37932E-09 3.42848E-09
 -1       668 3.64375E+05 5.77498E+04 5.12161E+02 1.45219E+05-9.52531E-09 6.87132E-09
 -1       669 3.68505E+05 5.35230E+04 7.28758E+02 1.40484E+05-5.19719E-09 1.13318E-08
 -1       670 3.64481E+05 5.79652E+04 1.49841E+03 1.45261E+05 1.68183E-08 1.19629E-08
 -1       671 3.68399E+05 5.33428E+04 2.83547E+03 1.40463E+05 3.10365E-09 3.03930E-09
 -1       672 3.65656E+05 5.97233E+04 6.76640E+03 1.45129E+05-8.53851E-09-1.87924E-10
 -1       673 3.67367E+05 5.19458E+04 1.22151E+04 1.40553E+05 2.33186E-09-6.07452E-09
 -1       674 3.76011E+05 7.55116E+04 3.28736E+04 1.42862E+05 5.61283E-09 9.64064E-10
 -1       675 3.58344E+05 3.95849E+04 5.17452E+04 1.41972E+05-1.40381E-09-5.68616E-09
 -1       676 5.06552E+01-4.62889E+05-2.14702E+03 1.97399E+02 1.44772E-08 4.44428E-09
 -1       677-6.13106E+02-4.63438E+05-3.94462E+03-3.94190E+02 1.44647E-08 9.36758E-09
 -1       678 4.24054E+02-4.62506E+05-6.94032E+03 1.96644E+02 1.16456E-08 1.55111E-10
 -1       679-7.19600E+03-4.67674E+05-1.65749E+04-3.92205E+02 5.63136E-09-1.22028E-08
 -1       680 4.53961E+03-4.58656E+05-2.65338E+04 1.93115E+02 1.03573E-08 3.32371E-09
 -1       771-3.74073E+06-7.20093E+05-9.64592E+04-1.61066E+06-7.61793E-09 7.24685E-09
 -1       772-3.71749E+06-7.51150E+05-4.92782E+04-1.66580E+06-3.68891E-09 3.47427E-09
 -1       773-3.75230E+06-6.97505E+05-2.18520E+04-1.62110E+06-2.05182E-09-5.58794E-09
 -1       774-3.70720E+06-7.41008E+05-1.05095E+04-1.67287E+06 8.73115E-10-5.62068E-09
 -1       775-3.75672E+06-6.94361E+05-5.51617E+03-1.62265E+06-3.69619E-09-1.96451E-10
 -1       776-3.70880E+06-7.40450E+05-2.57379E+03-1.67705E+06-1.40426E-09 2.22644E-09
 -1       777-3.76008E+06-6.92176E+05-1.75020E+03-1.62378E+06 2.37196E-09-4.72573E-09
 -1       778-3.71079E+06-7.40152E+05-9.95448E+02-1.68042E+06 5.96629E-10-2.89401E-09
 -1       779-3.76267E+06-6.90394E+05-1.28346E+03-1.62468E+06 3.73257E-09-1.68438E-09
 -1       780-3.71249E+06-7.39914E+05-1.81113E+03-1.68299E+06 5.62795E-09 4.72710E-10
 -1       781-3.76443E+06-6.89063E+05-3.56851E+03-1.62532E+06-1.17143E-09-6.40284E-09
 -1       782-3.71413E+06-7.40056E+05-7.50885E+03-1.68470E+06-4.22006E-10-3.70346E-09
 -1       783-3.76501E+06-6.88660E+05-1.52678E+04-1.62540E+06-4.94765E-10-3.91447E-09
 -1       784-3.72325E+06-7.48697E+05-3.61514E+04-1.68488E+06-5.20413E-09-5.45697E-10
 -1       785-3.76019E+06-7.02608E+05-7.00874E+04-1.61766E+06 2.93949E-09-1.79352E-09
 -1       786 3.15000E+05-1.40264E+04 3.90327E+04 1.44633E+02 7.05768E-10-4.88399E-09
 -1       787 3.30826E+05 1.66071E+04 2.66043E+04-3.68782E+03-7.87779E-10 7.42148E-10
 -1       788 3.21313E+05-1.88467E+03 1.01409E+04 1.18820E+02 2.24304E-10-2.19006E-09
 -1       789 3.23603E+05 2.21885E+03 6.05346E+03-3.64966E+03 1.03385E-09 3.36945E-09
 -1       790 3.22225E+05-2.52984E+02 2.59236E+03 1.06592E+02-1.04735E-09-2.18051E-09
 -1       791 3.22556E+05 2.96257E+02 1.45776E+03-3.63996E+03 1.14646E-09-2.57910E-09
 -1       792 3.22361E+05-3.55157E+01 7.09720E+02 1.09127E+02 4.68390E-11 4.34923E-09
 -1       793 3.22407E+05 5.29104E+01 4.75253E+02-3.66011E+03 1.74026E-10 5.73230E-09
 -1       794 3.22375E+05-1.75815E+01 4.09217E+02 1.26740E+02 3.77810E-10 2.13251E-09
 -1       795 3.22444E+05 1.16267E+02 6.28886E+02-3.71066E+03-5.17403E-10 7.11890E-09
 -1       796 3.22325E+05-9.76704E+01 1.02408E+03 1.59673E+02-6.25050E-10-2.16841E-09
 -1       797 3.22844E+05 8.45805E+02 2.33050E+03-3.79103E+03 4.01627E-10-3.47012E-09
 -1       798 3.21977E+05-7.20986E+02 3.88074E+03 2.07109E+02 5.68434E-12 1.00006E-08
 -1       799 3.25608E+05 6.34000E+03 1.01670E+04-3.89914E+03-1.07195E-09 7.53391E-09
 -1       800 3.19564E+05-5.35969E+03 1.49071E+04 2.67649E+02-2.67164E-11 1.03691E-08
 -1       801-4.88228E+04 3.02176E+05 3.08072E+04 5.37094E+04 6.42831E-08-1.15106E-08
 -1       802 1.27703E+05 3.61450E+05 9.43559E+04-2.11801E+06 8.36262E-08 4.36557E-11
 -1       803-1.36020E+04 3.43364E+05 1.07422E+05 4.98247E+04 1.09052E-07 1.95662E-08
 -1       804 2.43361E+05 4.40395E+05 2.68696E+05-2.11880E+06 9.45874E-08 3.01716E-08
 -1       805-1.68168E+05 2.35948E+05 3.33848E+05 5.42319E+04 4.22006E-08 1.67638E-08
 -1       806-3.29952E+05-8.41715E+04-2.86627E+04-1.50309E+05 1.09071E-09-3.42698E-09
 -1       807-3.30170E+05-7.87525E+04-1.37865E+04-1.59261E+05-1.25988E-09 5.82759E-10
 -1       808-3.30213E+05-7.13696E+04-5.82424E+03-1.55925E+05-9.32118E-10 1.60253E-09
 -1       809-3.27285E+05-7.42722E+04-2.83051E+03-1.60056E+05-2.16431E-09 8.30505E-09
 -1       810-3.30313E+05-7.07144E+04-1.28665E+03-1.56246E+05-6.30280E-10-6.80643E-09
 -1       811-3.27030E+05-7.40452E+04-6.36843E+02-1.60052E+05 7.45786E-10-5.87761E-09
 -1       812-3.30330E+05-7.07260E+04-3.16076E+02-1.56249E+05-1.56206E-09 1.11563E-08
 -1       813-3.26990E+05-7.40501E+04-1.97465E+02-1.60031E+05 1.93450E-09 1.18514E-08
 -1       814-3.30317E+05-7.07420E+04-1.82578E+02-1.56238E+05-7.83984E-10-6.29734E-09
 -1       815-3.26983E+05-7.40604E+04-2.82918E+02-1.60015E+05 4.08818E-10-2.63753E-09
 -1       816-3.30283E+05-7.07556E+04-5.29362E+02-1.56223E+05-6.05633E-09-6.33645E-09
 -1       817-3.27072E+05-7.41463E+04-1.14073E+03-1.59975E+05 5.95719E-10 7.70660E-09
 -1       818-3.30202E+05-7.10506E+04-2.33963E+03-1.56095E+05 1.02409E-09-7.07860E-09
 -1       819-3.28344E+05-7.58020E+04-5.52583E+03-1.59461E+05 3.06727E-09 8.83301E-09
 -1       820-3.29932E+05-7.63183E+04-1.14888E+04-1.53978E+05-1.68620E-09 1.40426E-09
 -1       821-4.41916E+05 1.95770E+04-5.44699E+04-5.27054E+02-3.92151E-09 7.27596E-11
 -1       822-4.63962E+05-2.31780E+04-3.71284E+04 5.99117E+03-3.61769E-09 5.45151E-09
 -1       823-4.50720E+05 2.62600E+03-1.41598E+04-7.09476E+02 3.04931E-09-2.83762E-10
 -1       824-4.53900E+05-3.08421E+03-8.45958E+03 6.30984E+03-1.42194E-09 2.48360E-09
 -1       825-4.51986E+05 3.49891E+02-3.65175E+03-8.46216E+02-6.63294E-09 2.32262E-09
 -1       826-4.52459E+05-3.98317E+02-2.10289E+03 6.54224E+03-1.60999E-08 1.58443E-09
 -1       827-4.52170E+05 5.06882E+01-1.12841E+03-9.42034E+02-1.04104E-08 4.64451E-09
 -1       828-4.52284E+05-8.42989E+01-9.55386E+02 6.69194E+03-1.14572E-08 8.32571E-09
 -1       829-4.52169E+05 5.11245E+01-1.12408E+03-9.95963E+02-1.57513E-09-5.19748E-10
 -1       830-4.52474E+05-3.91257E+02-2.09452E+03 6.75601E+03 6.36389E-09-4.23995E-09
 -1       831-4.51983E+05 3.49986E+02-3.63088E+03-1.00610E+03-5.27677E-09 2.74986E-09
 -1       832-4.53923E+05-3.05859E+03-8.41821E+03 6.73396E+03-2.42460E-09-1.56598E-08
 -1       833-4.50721E+05 2.61544E+03-1.40817E+04-9.73728E+02 1.04916E-09-4.52565E-09
 -1       834-4.63944E+05-2.30442E+04-3.69373E+04 6.63148E+03-1.63229E-09 1.86446E-09
 -1       835-4.41961E+05 1.94794E+04-5.41780E+04-9.02421E+02 4.98653E-09-2.96495E-09
 -1       836-1.76456E+03 5.23069E+05 3.88929E+04-3.89244E+04-4.34738E-10 5.15774E-09
 -1       837 8.18890E+03 5.34877E+05 3.05249E+04-7.53072E+04-2.25918E-09-3.68868E-09
 -1       838-5.41451E+02 5.26858E+05 2.81116E+04-3.88168E+04-7.29415E-10-1.66165E-09
 -1       839 1.61131E+04 5.40903E+05 4.99269E+04-7.53258E+04-2.31012E-09 2.53760E-09
 -1       840-3.76887E+03 5.16981E+05 7.87335E+04-3.89007E+04-7.20320E-10 3.47654E-09
 -1       856-2.93041E+05 1.01271E+04-4.14206E+04 4.45726E+03-8.03129E-09-6.82303E-09
 -1       857-3.08161E+05-1.33881E+04-2.66910E+04 2.11145E+04-6.78028E-09-3.45062E-09
 -1       858-2.99346E+05 1.07811E+03-1.07421E+04 4.35009E+03-1.01904E-08 2.72621E-09
 -1       859-3.01184E+05-1.28459E+03-6.02423E+03 2.12610E+04-4.65207E-10-1.02841E-09
 -1       860-3.00084E+05 1.35180E+02-2.72396E+03 4.30775E+03-3.34012E-10 5.50472E-09
 -1       861-3.00385E+05-3.85835E+01-1.45470E+03 2.13184E+04-1.04550E-08 6.29996E-09
 -1       862-3.00182E+05 3.66132E+01-7.23272E+02 4.29215E+03 1.08128E-08-2.92135E-09
 -1       863-3.00283E+05 8.50454E+01-4.43466E+02 2.13276E+04 2.52601E-08-9.31232E-09
 -1       864-3.00192E+05 2.61142E+01-3.53594E+02 4.29850E+03 8.77287E-09-1.55069E-08
 -1       865-3.00276E+05 5.55948E+01-4.74841E+02 2.12914E+04 5.19776E-09-7.65286E-09
 -1       866-3.00164E+05 4.47581E+01-7.84085E+02 4.32845E+03-5.53860E-09 3.29599E-10
 -1       867-3.00455E+05-2.96735E+02-1.65889E+03 2.12072E+04-1.25124E-09 7.74446E-09
 -1       868-2.99957E+05 2.90084E+02-2.94451E+03 4.38301E+03 3.69982E-09 6.72571E-10
 -1       869-3.02302E+05-3.61213E+03-7.27320E+03 2.10208E+04-2.56523E-09-1.16111E-08
 -1       870-2.98232E+05 2.73765E+03-1.13058E+04 4.51560E+03 5.90353E-09-1.06893E-08
 -1       871-6.35235E+03-4.14754E+04-1.85566E+04 1.72016E+05-6.14818E-10 2.18060E-08
 -1       872-2.78935E+03-4.56056E+04-7.02053E+03 2.21206E+05 1.20963E-09-1.07525E-08
 -1       873-2.32347E+02-4.39082E+04 2.30590E+03 1.71641E+05 1.26784E-09-8.33825E-09
 -1       874 3.27986E+03-4.04976E+04 1.33401E+04 2.21298E+05 3.03044E-09-2.40129E-09
 -1       875 8.39501E+03-4.68299E+04 2.87720E+04 1.71953E+05 4.87489E-10-1.26420E-09
 -1       876 4.62307E+05 7.28355E+04 3.51285E+04 1.84555E+05 6.52562E-11-2.63753E-09
 -1       877 4.67607E+05 8.59138E+04 1.98666E+04 1.91745E+05-1.16543E-08 1.32145E-08
 -1       878 4.66669E+05 7.37318E+04 8.08905E+03 1.85968E+05 1.25624E-08 2.71666E-09
 -1       879 4.62140E+05 7.96541E+04 4.10613E+03 1.92183E+05 1.28769E-08 9.07846E-09
 -1       880 4.66997E+05 7.38805E+04 1.87142E+03 1.86063E+05 9.29140E-09-2.76464E-09
 -1       881 4.61728E+05 7.92739E+04 9.76018E+02 1.92138E+05-5.09806E-09-1.10165E-08
 -1       882 4.67023E+05 7.39163E+04 5.67578E+02 1.86074E+05 9.23524E-09 1.10347E-08
 -1       883 4.61697E+05 7.92458E+04 5.27396E+02 1.92114E+05-1.54556E-08-2.99670E-09
 -1       884 4.67013E+05 7.39181E+04 7.60257E+02 1.86076E+05-1.39187E-08 1.12891E-10
 -1       885 4.61766E+05 7.92779E+04 1.48687E+03 1.92125E+05 1.26970E-08 2.16221E-09
 -1       886 4.66950E+05 7.38764E+04 2.95613E+03 1.86065E+05-7.67011E-09 3.17846E-09
 -1       887 4.62430E+05 7.98715E+04 6.53824E+03 1.92165E+05-1.59973E-08 4.92014E-09
 -1       888 4.66404E+05 7.36547E+04 1.29066E+04 1.85915E+05-1.14063E-08-9.54060E-10
 -1       889 4.71102E+05 8.99073E+04 3.17053E+04 1.91495E+05 7.60981E-09-4.97175E-09
 -1       890 4.59480E+05 7.21847E+04 5.60735E+04 1.83596E+05-2.36469E-10 1.96451E-10
 -1       891 2.89944E+02-2.54001E+05-8.21562E+03 4.46434E+04-1.40449E-09-8.08768E-10
 -1       892-1.87206E+03-2.56406E+05-6.48383E+03 8.69022E+04-3.62070E-09-1.09786E-08
 -1       893 2.38844E+01-2.54780E+05-6.04555E+03 4.45879E+04-6.82121E-11 2.77259E-09
 -1       894-3.69837E+03-2.57610E+05-1.08061E+04 8.67365E+04-2.47383E-09-1.60844E-09
 -1       895 6.23187E+02-2.52519E+05-1.71166E+04 4.48051E+04 5.56474E-09 6.16728E-09
 -1       956-4.75383E+05-8.02033E+03-1.96880E+04 4.64761E+04-6.73936E-09-3.72711E-09
 -1       957-4.79253E+05-2.63375E+03-1.00787E+04 5.57219E+04-1.89902E-09-6.47469E-09
 -1       958-4.77164E+05-1.87418E+02-4.54329E+03 4.61775E+04 6.18638E-09 4.59477E-09
 -1       959-4.77512E+05 3.69863E+01-2.31601E+03 5.60458E+04-3.20324E-09 5.29235E-09
 -1       960-4.77367E+05 1.35072E+02-1.12742E+03 4.61460E+04-7.69978E-09-2.85809E-09
 -1       961-4.77426E+05 1.64794E+02-5.90588E+02 5.60824E+04-1.32932E-08 4.99631E-09
 -1       962-4.77430E+05 1.47622E+02-3.26805E+02 4.61399E+04-4.44834E-09 6.54654E-09
 -1       963-4.77447E+05 1.82238E+02-2.40966E+02 5.60906E+04-8.10223E-09-3.39560E-09
 -1       964-4.77453E+05 1.59188E+02-2.67676E+02 4.61375E+04 5.52291E-09 3.47882E-09
 -1       965-4.77471E+05 1.91058E+02-4.41801E+02 5.60913E+04 2.12276E-08-8.59291E-09
 -1       966-4.77438E+05 1.68989E+02-8.18826E+02 4.61391E+04 1.68120E-09 9.18590E-10
 -1       967-4.77566E+05 1.16863E+02-1.67397E+03 5.60719E+04 4.07226E-10 3.07409E-09
 -1       968-4.77316E+05-4.85312E+01-3.27676E+03 4.61575E+04 3.92993E-09-2.45541E-09
 -1       969-4.78847E+05-1.79868E+03-7.27360E+03 5.58716E+04 4.73665E-09 6.04359E-09
 -1       970-4.76045E+05-5.69566E+03-1.42056E+04 4.63485E+04 5.76529E-09-4.87489E-10
 -1       971-5.50130E+05-5.18032E+02-2.05552E+04 1.66776E+04-9.28958E-09-1.07593E-09
 -1       972-5.55934E+05-3.42419E+03-1.18074E+04 2.85402E+04-1.53304E-08-5.02951E-10
 -1       973-5.52749E+05 6.88332E+01-5.17067E+03 1.64838E+04-1.40917E-08-2.24327E-09
 -1       974-5.53218E+05-7.95628E+01-2.70968E+03 2.87633E+04 3.47836E-09 3.61979E-10
 -1       975-5.52972E+05 7.32220E+01-1.33037E+03 1.64499E+04-3.97904E-09-7.27823E-10
 -1       976-5.53046E+05 1.11116E+02-7.43488E+02 2.88124E+04-1.08291E-08 3.85285E-09
 -1       977-5.53012E+05 7.71899E+01-4.95486E+02 1.64340E+04 1.00567E-08-5.69912E-09
 -1       978-5.53054E+05 1.30783E+02-5.20305E+02 2.88348E+04 2.26257E-08-6.71253E-09
 -1       979-5.53015E+05 8.84108E+01-7.85906E+02 1.64272E+04 1.10234E-08-7.56359E-09
 -1       980-5.53117E+05 1.18692E+02-1.49072E+03 2.88389E+04 1.78033E-08 1.04870E-08
 -1       981-5.52960E+05 1.15135E+02-2.86398E+03 1.64299E+04-1.89357E-09-1.07494E-08
 -1       982-5.53586E+05-2.61433E+02-5.96727E+03 2.88202E+04-6.31462E-09 3.74257E-10
 -1       983-5.52518E+05 1.48291E+02-1.14287E+04 1.64468E+04 1.30103E-09-4.10546E-09
 -1       984-5.59716E+05-7.62916E+03-2.61702E+04 2.86800E+04 3.88650E-09-7.31939E-09
 -1       985-5.46766E+05-1.10105E+03-4.55414E+04 1.65848E+04 1.10340E-08 9.24047E-10
 -3
 9999
